# vtk DataFile Version 2.0
phase field modeling fracture
ASCII
DATASET UNSTRUCTURED_GRID
POINTS 2538 float
0.0 0.0 0.0
10.0 0.0 0.0
0.0 10.0 0.0
10.0 10.0 0.0
0.0 4.9995 0.0
0.0 5.0005 0.0
5.0 5.0 0.0
0.9416964895726688 0.0 0.0
1.803581725054446 0.0 0.0
2.592419885431098 0.0 0.0
3.314401822861676 0.0 0.0
3.975193910351406 0.0 0.0
4.579982132660152 0.0 0.0
5.133512780936812 0.0 0.0
5.640130319506143 0.0 0.0
6.103810708661955 0.0 0.0
6.528192895506818 0.0 0.0
6.916607540127679 0.0 0.0
7.272102969376355 0.0 0.0
7.597469242948583 0.0 0.0
7.895259826292669 0.0 0.0
8.167811885738017 0.0 0.0
8.417264413845215 0.0 0.0
8.645575169389538 0.0 0.0
8.854535961159101 0.0 0.0
9.045786767735546 0.0 0.0
9.220828555767493 0.0 0.0
9.38103509633881 0.0 0.0
9.527663687265145 0.0 0.0
9.661865124984566 0.0 0.0
9.784692609918062 0.0 0.0
9.897110148790482 0.0 0.0
10.0 0.09999999999992584 0.0
10.0 0.199999999999856 0.0
10.0 0.2999999999997771 0.0
10.0 0.3999999999996677 0.0
10.0 0.4999999999995511 0.0
10.0 0.5999999999994683 0.0
10.0 0.6999999999993983 0.0
10.0 0.7999999999993286 0.0
10.0 0.8999999999992587 0.0
10.0 0.9999999999991888 0.0
10.0 1.099999999999119 0.0
10.0 1.199999999999033 0.0
10.0 1.299999999998852 0.0
10.0 1.399999999998576 0.0
10.0 1.499999999998284 0.0
10.0 1.599999999997992 0.0
10.0 1.6999999999977 0.0
10.0 1.799999999997408 0.0
10.0 1.899999999997116 0.0
10.0 1.999999999996825 0.0
10.0 2.099999999996533 0.0
10.0 2.199999999996241 0.0
10.0 2.299999999995949 0.0
10.0 2.399999999995657 0.0
10.0 2.499999999995365 0.0
10.0 2.599999999995073 0.0
10.0 2.699999999994782 0.0
10.0 2.79999999999449 0.0
10.0 2.899999999994198 0.0
10.0 2.999999999993906 0.0
10.0 3.099999999993614 0.0
10.0 3.199999999993322 0.0
10.0 3.299999999993029 0.0
10.0 3.399999999992738 0.0
10.0 3.499999999992446 0.0
10.0 3.599999999992154 0.0
10.0 3.699999999991863 0.0
10.0 3.799999999991571 0.0
10.0 3.899999999991278 0.0
10.0 3.999999999991022 0.0
10.0 4.099999999991035 0.0
10.0 4.199999999991187 0.0
10.0 4.299999999991338 0.0
10.0 4.399999999991491 0.0
10.0 4.499999999991642 0.0
10.0 4.599999999991795 0.0
10.0 4.699999999991947 0.0
10.0 4.799999999992099 0.0
10.0 4.89999999999225 0.0
10.0 4.999999999992403 0.0
10.0 5.099999999992555 0.0
10.0 5.199999999992706 0.0
10.0 5.299999999992858 0.0
10.0 5.39999999999301 0.0
10.0 5.499999999993161 0.0
10.0 5.599999999993313 0.0
10.0 5.699999999993466 0.0
10.0 5.799999999993618 0.0
10.0 5.899999999993771 0.0
10.0 5.999999999993922 0.0
10.0 6.099999999994074 0.0
10.0 6.199999999994227 0.0
10.0 6.299999999994378 0.0
10.0 6.39999999999453 0.0
10.0 6.499999999994682 0.0
10.0 6.599999999994833 0.0
10.0 6.699999999994986 0.0
10.0 6.799999999995138 0.0
10.0 6.899999999995289 0.0
10.0 6.999999999995442 0.0
10.0 7.099999999995594 0.0
10.0 7.199999999995747 0.0
10.0 7.299999999995897 0.0
10.0 7.39999999999605 0.0
10.0 7.499999999996202 0.0
10.0 7.599999999996353 0.0
10.0 7.699999999996505 0.0
10.0 7.799999999996658 0.0
10.0 7.899999999996808 0.0
10.0 7.999999999996962 0.0
10.0 8.099999999997113 0.0
10.0 8.199999999997265 0.0
10.0 8.299999999997418 0.0
10.0 8.399999999997569 0.0
10.0 8.499999999997721 0.0
10.0 8.599999999997873 0.0
10.0 8.699999999998024 0.0
10.0 8.799999999998176 0.0
10.0 8.899999999998329 0.0
10.0 8.99999999999848 0.0
10.0 9.099999999998634 0.0
10.0 9.199999999998786 0.0
10.0 9.299999999998937 0.0
10.0 9.399999999999089 0.0
10.0 9.499999999999241 0.0
10.0 9.599999999999392 0.0
10.0 9.699999999999545 0.0
10.0 9.799999999999697 0.0
10.0 9.899999999999848 0.0
9.897110148790565 10.0 0.0
9.784692609918244 10.0 0.0
9.66186512498486 10.0 0.0
9.527663687265571 10.0 0.0
9.381035096339392 10.0 0.0
9.220828555768257 10.0 0.0
9.045786767736512 10.0 0.0
8.854535961160305 10.0 0.0
8.645575169391027 10.0 0.0
8.417264413847017 10.0 0.0
8.167811885740178 10.0 0.0
7.895259826295246 10.0 0.0
7.597469242951631 10.0 0.0
7.272102969379938 10.0 0.0
6.916607540131873 10.0 0.0
6.528192895511704 10.0 0.0
6.103810708667616 10.0 0.0
5.640130319512691 10.0 0.0
5.13351278094435 10.0 0.0
4.579982132668816 10.0 0.0
3.975193910361222 10.0 0.0
3.314401822869852 10.0 0.0
2.592419885437257 10.0 0.0
1.803581725058137 10.0 0.0
0.9416964895740705 10.0 0.0
0.0 9.00010000000243 0.0
0.0 8.000200000005481 0.0
0.0 7.000300000005135 0.0
0.0 6.000400000002569 0.0
0.901790731451151 5.000409820926855 0.0
1.657200899774397 5.000334279910023 0.0
2.289991063707192 5.000271000893629 0.0
2.820065163538221 5.000217993483646 0.0
3.264096435579811 5.000173590356442 0.0
3.636051481595835 5.00013639485184 0.0
3.947629914072366 5.000105237008593 0.0
4.208632181002628 5.0000791367819 0.0
4.427267949625672 5.000057273205037 0.0
4.610414277633563 5.000038958572237 0.0
4.763831845154243 5.000023616815485 0.0
4.892346298799659 5.00001076537012 0.0
4.892346298799748 4.99998923462988 0.0
4.763831845154455 4.999976383184515 0.0
4.610414277633943 4.999961041427763 0.0
4.427267949626277 4.999942726794963 0.0
4.208632181003523 4.9999208632181 0.0
3.94762991407365 4.999894762991407 0.0
3.636051481597624 4.99986360514816 0.0
3.264096435582253 4.999826409643559 0.0
2.820065163541503 4.999782006516354 0.0
2.289991063711534 4.999728999106371 0.0
1.657200899778495 4.999665720089978 0.0
0.9017907314530094 4.999590179073145 0.0
0.0 3.999600000002013 0.0
0.0 2.999700000005187 0.0
0.0 1.99980000000512 0.0
0.0 0.9999000000025537 0.0
9.897889398521345 2.93573355845387 0.0
9.906568249974548 7.060009441434234 0.0
9.913122631074113 3.64016132281653 0.0
9.922462129543863 6.354535290629151 0.0
9.917693659967533 4.354211663134567 0.0
9.909873057440208 5.637584487339942 0.0
9.914183254994697 4.950672966925282 0.0
9.913885043715895 7.666887930262611 0.0
9.91009668007573 2.351889069770817 0.0
9.905135696074536 8.138152454502785 0.0
9.913397459621809 1.849999999997262 0.0
7.099302372137626 0.297750452375005 0.0
7.095143729410097 9.700359990366296 0.0
4.942912558701401 5.095838627899509 0.0
4.315009232304429 5.165022115481685 0.0
4.946182472483878 4.906763777264103 0.0
4.317967462990024 4.825955043772673 0.0
9.916390871492647 8.64999999999792 0.0
9.921504649680616 1.368376469890358 0.0
8.292538149791614 0.206877570318844 0.0
8.292538149793597 9.793122429681448 0.0
5.884594439766573 9.587645267048616 0.0
5.794826292691579 0.3794853783929359 0.0
9.913397459621425 9.049999999998557 0.0
9.908526577714177 0.9568239351922434 0.0
3.456851160380649 5.315740054130451 0.0
3.457889657868442 4.707121019609468 0.0
8.945214200703926 0.1503383337970344 0.0
8.950161364448409 9.8413906539257 0.0
9.913862335499305 4.055887885208452 0.0
9.916697353372683 4.650158482607802 0.0
9.919076340414442 6.049999999994006 0.0
9.906994308667635 5.25749687748192 0.0
9.917490342358025 6.655979201891897 0.0
9.915757520293784 7.343848891656911 0.0
9.910049507471042 3.363474386285078 0.0
9.914471988502868 2.647400064832979 0.0
9.91474124160965 9.337490423485129 0.0
9.916971008170838 0.6499999999994355 0.0
4.307157269264427 9.509674045029644 0.0
4.331527375865619 0.4401616696422582 0.0
9.45434939180249 9.878397030523757 0.0
9.457696120412969 0.1270877537061785 0.0
2.555070293622606 5.422044496190925 0.0
2.566232917480916 4.608001224030952 0.0
3.026511860837692 9.332320638257093 0.0
2.945561971800619 0.5895662714727601 0.0
7.7395404387124 0.2511088946967771 0.0
7.736379255744154 9.745848826372828 0.0
4.687135269408529 5.122111433928926 0.0
4.688420821504113 4.871895064967488 0.0
9.910554884115975 0.3448356354522978 0.0
9.911230082250466 9.65764729394159 0.0
9.921953841410854 6.851023993342036 0.0
9.912065178606017 5.448170483544033 0.0
9.911660025326261 3.861846960030188 0.0
9.914847467973438 3.14501593945607 0.0
9.913397459621425 5.849999999993703 0.0
9.913397459621425 7.849999999996735 0.0
9.906916878988277 2.15455769998631 0.0
9.913397459621425 8.349999999997479 0.0
9.909472363117661 1.640528221515488 0.0
9.913987325695956 1.152857110636247 0.0
9.913397459621425 8.849999999998241 0.0
0.9100099990995943 2.614215977520411 0.0
0.8395284981715456 7.451196254860987 0.0
9.723278867451556 9.898135916635193 0.0
9.723316350887044 0.09841820909386662 0.0
1.385819164827588 4.454539963646463 0.0
1.338343629665047 5.523111536005823 0.0
1.377179700550677 0.6809168304959698 0.0
1.418060461092743 9.285896715136046 0.0
9.91268220142518 0.1457914080939694 0.0
9.906737126737994 9.845745933882352 0.0
0.7108351382691361 6.537941170074089 0.0
1.527735020267026 6.915620208855231 0.0
1.630993885659103 7.838271825205868 0.0
2.232760943566823 7.370850737296832 0.0
2.243414218068206 6.688299277952821 0.0
2.779655053105118 7.021588754814074 0.0
2.80227799359795 7.632420170547022 0.0
3.282022065908813 7.305859666021318 0.0
3.327597298795347 7.857554136825748 0.0
3.743210251018715 7.549183328204379 0.0
3.716353232200752 7.062036086888612 0.0
4.111978858674101 7.27497101169417 0.0
4.104192177581432 6.879858986267289 0.0
4.436230765617037 7.045693351607117 0.0
4.430360014817357 6.703971783962796 0.0
4.732390145036301 6.849841042423394 0.0
5.056161327708878 5.095276573498806 0.0
5.111586796021131 4.999081142133581 0.0
5.169267363407189 5.09444870412406 0.0
5.223795108752053 4.996986220359468 0.0
5.281480803887719 5.092780870372803 0.0
5.335670761900611 4.994887492556936 0.0
5.393485214772442 5.090486192743301 0.0
5.447323082877892 4.992601527033996 0.0
5.505243219343024 5.087953380710069 0.0
5.558739102026105 4.990287787962959 0.0
5.616491581184779 5.085335255235766 0.0
5.669852346908056 4.9879269227514 0.0
5.727502713908907 5.082679981817038 0.0
5.780766004135139 4.988313988715834 0.0
5.838244881129535 5.080480568766611 0.0
5.891357695677371 4.986433849408193 0.0
5.948696036767613 5.077969900389505 0.0
6.001601341641615 4.981313698556656 0.0
6.058851024265095 5.074871552128682 0.0
6.111614020704875 4.978360695880202 0.0
6.168801161530775 5.072044953270978 0.0
6.221368818778567 4.975825765213497 0.0
6.278268309066882 5.066182320461055 0.0
6.330814273567539 4.972837984645718 0.0
6.387565032421376 5.062889771971895 0.0
6.437476667631405 4.971693683589553 0.0
6.496181111585419 5.060210690175857 0.0
6.539454812256072 4.964658165361536 0.0
6.604198202576491 5.056387520850258 0.0
6.648506025747331 4.939374587506267 0.0
6.714026758992516 5.05873885840664 0.0
6.764418045981209 4.959246676066148 0.0
6.8219334571197 5.055299567406268 0.0
6.873708540948134 4.960426349093742 0.0
6.930181428849307 5.053461390218819 0.0
6.981893615341967 4.96435459462232 0.0
7.037791764774784 5.051219747103022 0.0
7.090993561518408 4.96392420322464 0.0
5.504417457283294 4.900897920552702 0.0
7.145434864123609 5.048960634292441 0.0
6.054532384032612 4.883956083938546 0.0
6.738027949040956 4.850032323068674 0.0
7.198432914526514 4.956325226333323 0.0
7.252637187936749 5.046012229327236 0.0
7.30926729605109 4.948903216650376 0.0
7.248106275544042 4.860306312845646 0.0
7.363100274863074 4.849952416808486 0.0
7.365733472701664 5.039519554615095 0.0
7.308483293090149 5.137557220352172 0.0
6.768399513646964 5.145609705119954 0.0
7.422800035311104 5.132251445551834 0.0
7.358273518796229 5.235980394389298 0.0
7.480824155801127 5.227946127939927 0.0
7.302193400058628 4.761917474298247 0.0
7.413570879789824 4.754555110721153 0.0
7.414392998903179 5.334729114426734 0.0
7.352769630272076 4.660405502266205 0.0
7.467556835255426 4.658352623795039 0.0
7.536246869015014 5.328986926716081 0.0
7.478865844607288 5.432598185493195 0.0
7.406396991826072 4.556956233957538 0.0
7.523581002009154 4.552005631348623 0.0
7.597792398573263 5.429506106314967 0.0
7.540511043402902 5.53619421580439 0.0
7.46214474876342 4.452580994318881 0.0
7.5852185078634 4.446021810672608 0.0
7.663329342323453 5.533453399066901 0.0
7.603478967594521 5.643227430483237 0.0
7.513450346818673 4.347641323140766 0.0
7.640744971722214 4.333388343316237 0.0
7.727671715775243 5.642390483050116 0.0
7.667774597993788 5.753188858425915 0.0
7.570065256728661 4.230515669344811 0.0
7.702881065467917 4.218307808529532 0.0
7.638288257073729 4.107994211855027 0.0
7.493362356301017 4.120843902105771 0.0
7.779018500630071 5.521233457321821 0.0
7.794641287388929 5.752364621610818 0.0
7.73369774483611 5.865894287356292 0.0
7.600834531784728 5.867752110500446 0.0
6.233038857278689 5.15645045634683 0.0
7.669727996028819 5.985665563643058 0.0
7.528582452554481 5.987393423295551 0.0
7.598722674572824 6.11001923494443 0.0
7.778305000222867 4.104318908265786 0.0
7.704329019832056 3.987744174608892 0.0
7.838453459801382 4.213322728668484 0.0
7.864495721576461 5.862306066517277 0.0
7.846552353360407 3.98481756181946 0.0
7.769730409703277 3.86544808681145 0.0
5.785249360396857 5.177248808588045 0.0
7.908837087876153 3.861484036275285 0.0
7.834824606222196 3.740586825753288 0.0
7.97685993406276 3.736209527152902 0.0
7.89665098770825 3.615501862931453 0.0
7.753228010315262 3.617800245018972 0.0
7.826063013090472 3.483173292579822 0.0
7.66789744383048 3.48859328808356 0.0
8.042515855796823 3.595394268381807 0.0
7.75200750488492 3.341279823834038 0.0
7.582870318332553 3.346584916806707 0.0
8.120807847415062 3.732493963388337 0.0
8.189783970303546 3.61159165475499 0.0
7.657801000286734 3.200439907646711 0.0
7.486781956172036 3.201402473247712 0.0
7.452595103886905 6.11418616185016 0.0
7.527098033550077 6.243191052852112 0.0
8.260502906807751 3.728437634721859 0.0
8.327629317451398 3.608173631356984 0.0
7.372763970891452 6.247552889754036 0.0
7.456170570815929 6.384992468962936 0.0
7.621837793616884 6.376077080857113 0.0
7.548039512904141 6.520750676893614 0.0
7.717475944451644 6.514856553988943 0.0
7.636658166268699 6.661648164052906 0.0
7.807468267259438 6.664076174524672 0.0
7.718022764310774 6.817938967122142 0.0
7.887785766941087 6.807440365887151 0.0
7.545993589083432 6.815070675854734 0.0
7.809874785067209 6.967537287475282 0.0
7.975643812145337 6.948729406725126 0.0
8.396477808021062 3.725446935061211 0.0
7.565651643157136 3.044354774611752 0.0
7.384328725505071 3.043048915147076 0.0
8.056405351948353 6.802790889114673 0.0
8.14128318237188 6.940027831915737 0.0
8.064621760266059 7.086348792208953 0.0
8.225003598857908 6.805225152373254 0.0
8.463085452993242 3.606998510553562 0.0
8.230426869720718 7.079551841000411 0.0
8.155262284174286 7.224761758176069 0.0
8.530696760758996 3.721683301125054 0.0
8.596669886994064 3.604516769862316 0.0
8.528531058025589 3.490411531312337 0.0
8.320451770844851 7.218191678954744 0.0
8.245273958732774 7.363444652121271 0.0
8.66324687389452 3.717094013035765 0.0
8.600103125209296 3.831913857228569 0.0
8.662131102573216 3.488322280861316 0.0
8.594166125380536 3.374071873435548 0.0
8.411074336066186 7.353871649576861 0.0
8.339644223432472 7.505172120620427 0.0
8.165883718619623 7.513159193685373 0.0
8.483453820080417 7.2082285366806 0.0
8.261200365730348 7.657400951288149 0.0
8.081570576666843 7.670933304838066 0.0
7.471613195794025 2.872548423100142 0.0
7.268733678357991 2.881209199257603 0.0
7.184255506995786 3.084448584600423 0.0
7.065899603697895 2.883902449336828 0.0
6.960163891183182 3.081014635802978 0.0
6.847612128388715 2.885646860602812 0.0
6.739800729737967 3.078895733381448 0.0
8.729373804596847 3.827689165637365 0.0
8.668550856907444 3.938702277545298 0.0
8.72770789162863 3.371798381178293 0.0
8.659764090070603 3.257493349874974 0.0
8.436453928793245 7.648724489148887 0.0
6.619080287792762 2.90880017416788 0.0
6.511740956842646 3.09340654756684 0.0
8.793527829963288 3.935174834810256 0.0
8.736430500996828 4.042719556852617 0.0
7.631260330584174 4.565300771328012 0.0
8.359058396840432 7.801678182761817 0.0
5.339436215072359 5.184870243702279 0.0
4.994031736761993 5.193306795607908 0.0
6.383387675268097 4.87760645722207 0.0
7.29117392392962 6.382172868329505 0.0
6.378196825372041 2.907113079755629 0.0
6.269817199014261 3.12412150658573 0.0
8.793149127377946 3.255386294257182 0.0
8.725774239201558 3.141596687892195 0.0
8.857434600673502 4.041295940541356 0.0
8.802868937128341 4.1471119953668 0.0
8.532045262478793 7.7905977476835 0.0
7.364542641624493 2.699128473342751 0.0
7.571677611088925 2.695732556686516 0.0
6.723058333614999 2.672341359410618 0.0
8.456744924757372 7.94483904450548 0.0
6.140831279784704 2.921247401137864 0.0
6.02419219050745 3.14358702955763 0.0
8.916255604212301 3.934279868822481 0.0
8.859287250884009 3.140226640574265 0.0
8.791092798057303 3.025929352146465 0.0
7.210445465986021 6.245773134960393 0.0
7.120884161792869 6.385155584680196 0.0
7.036931702064287 6.240721609143972 0.0
6.943722280007011 6.3869279517155 0.0
8.920094519678617 4.144837222494242 0.0
8.864374107136287 4.250930406527029 0.0
7.347569838739255 4.463467417508182 0.0
5.90383431757064 2.935113219563906 0.0
5.783476009580765 3.156456199832474 0.0
8.626013191558314 7.935092223505354 0.0
8.687240186957197 7.796697889991163 0.0
5.642059327424706 2.903018174330269 0.0
5.52647853955939 3.162549070310043 0.0
8.555300051897738 8.086169516016518 0.0
8.405624441178524 8.083972416481254 0.0
5.374124307190728 2.945480555950917 0.0
8.935805220807357 3.249260758206028 0.0
8.981625171409894 4.247375537584228 0.0
8.924725364486765 4.352101286657735 0.0
8.807208588134106 4.356163101450244 0.0
8.868277832430604 4.45657124153171 0.0
8.75099635287701 4.460644845248524 0.0
8.812385950597063 4.560891222623518 0.0
8.693833206943118 4.564602972998703 0.0
8.756474732548273 4.665720853686476 0.0
8.63721608225855 4.669394550615355 0.0
8.700108119351134 4.770682016274914 0.0
8.81920502916846 4.767536120893284 0.0
8.76355311338807 4.871451945248518 0.0
8.881442328033694 4.868382238751069 0.0
8.826433523510634 4.97132552240372 0.0
8.943387824985514 4.967694248194483 0.0
8.888718468126953 5.071044784833541 0.0
8.580377663835254 4.774669738817985 0.0
8.770572242937233 5.073880380431421 0.0
8.832915096600454 5.174518948293615 0.0
8.952224483821848 5.170970838320107 0.0
8.897282771771884 5.275476392171722 0.0
7.463928467290875 2.513944501591933 0.0
7.675935950092034 2.509420347143072 0.0
8.924252417741767 3.024418701372628 0.0
8.857265893102921 2.911213535286156 0.0
8.776981063213334 5.27944309004916 0.0
8.840710910770163 5.380165700477552 0.0
8.960876896785969 5.375521424256389 0.0
8.904555918255223 5.482125846038813 0.0
7.567193097677677 2.32750151280277 0.0
7.780880844888839 2.323064027160363 0.0
6.851602118390116 6.234522818184622 0.0
6.758680682687229 6.389359516748128 0.0
6.66345977321418 6.231254850996584 0.0
8.715764716958308 8.079994249772627 0.0
8.65189989696114 8.227534663647639 0.0
9.042229096541828 4.348551764001607 0.0
6.436774206993324 3.316782326998922 0.0
7.590527613340588 5.22651784724799 0.0
9.024366884701616 5.476726561488805 0.0
8.968734351641839 5.583879050892151 0.0
8.845941080047659 5.586406316932274 0.0
8.909881305857882 5.690482454668167 0.0
7.348726871578975 5.44047403999932 0.0
6.567070253986433 6.398115757512583 0.0
6.697077150072261 6.553426749743366 0.0
5.252377383990728 3.187782967482479 0.0
8.988440431820699 2.908621158637298 0.0
8.922541972760119 2.796420836075996 0.0
6.466806010659505 6.229115583261771 0.0
9.033851153821296 5.686506775615425 0.0
8.978340519963718 5.795772485582058 0.0
8.85111463793018 5.798672910287243 0.0
8.922171984280597 5.907237880910408 0.0
8.795190680908043 5.911854068712683 0.0
8.864373398892472 6.019728357749566 0.0
8.991346995940626 6.014539153309398 0.0
8.93374019140187 6.12698887312768 0.0
5.095192648098848 2.952353430985476 0.0
7.672651464908932 2.141715359830917 0.0
7.886266921042761 2.136211284120189 0.0
9.098474286589756 4.245971410451114 0.0
8.813172564986438 8.216887361735234 0.0
8.74802978243154 8.366104673219047 0.0
9.059985162956899 6.120982589539211 0.0
9.00342813739303 6.233245043891739 0.0
4.961413514304496 3.214209167276753 0.0
9.05248113004685 2.794651022570942 0.0
8.986028039118027 2.681341972594222 0.0
5.671890458441996 3.377122473800023 0.0
4.755829262593116 7.184480462344647 0.0
9.158258644940048 4.34465968221255 0.0
4.799687186662534 2.961354824469195 0.0
6.030554747591715 2.726787502996874 0.0
8.938327180212585 8.34758372042188 0.0
8.847392320655468 8.503370672816716 0.0
8.67342124373679 8.518117686968314 0.0
5.234423106934083 2.694925204361751 0.0
8.964923046453565 8.185313058214797 0.0
7.456650986668838 2.134076476407834 0.0
9.111732084821366 2.897226832609386 0.0
6.368055837513985 6.402805870976705 0.0
6.265629899005033 6.226581076317183 0.0
8.736327196352686 6.026404178766982 0.0
9.117473097358854 2.67987006607594 0.0
9.052137415465204 2.565428515518978 0.0
7.781001557847192 1.955874236406257 0.0
7.992134447300669 1.949184538864554 0.0
8.593074792993455 3.143159483125708 0.0
9.1291360203536 6.226877897052981 0.0
9.072154326613617 6.338696745620542 0.0
8.916532550320525 2.566986282201109 0.0
8.984021113721658 2.449252898983242 0.0
9.178032243215632 6.120533546076094 0.0
9.213703592343162 4.244823670856978 0.0
9.11972142641474 2.449071238668887 0.0
9.052853896812186 2.33190758581705 0.0
8.635035926402708 4.462329956179506 0.0
8.773614475966344 8.657865377672689 0.0
8.596400917257634 8.67759750279447 0.0
8.942023339420883 8.644678093589654 0.0
9.19471670675691 6.33096438039349 0.0
9.138460613363325 6.443043552768813 0.0
8.66620319432524 5.916297234509582 0.0
8.606669825267202 6.032658196729024 0.0
9.27222540210304 4.341341907533128 0.0
9.013782808177437 6.451040569407859 0.0
9.08360982569773 6.55729980456602 0.0
7.885622149776354 1.768093045890686 0.0
8.095672144455353 1.768790621151345 0.0
9.208772072925791 6.549717411809656 0.0
9.154272208194383 6.662613503537815 0.0
9.187669783927937 2.334640996932141 0.0
9.122379015831417 2.215832190697178 0.0
6.164077036161143 6.404611236428829 0.0
6.062367614988677 6.224307160647549 0.0
8.987075041759633 2.211477580983978 0.0
9.056972755801603 2.093573581203428 0.0
9.194557288902232 2.096029761809264 0.0
9.131223008370409 1.972713028695079 0.0
8.87381302587057 8.795793668920256 0.0
9.039169086943392 8.781606667490083 0.0
4.662813350519927 3.228118291851354 0.0
4.474181267994617 2.945703616023359 0.0
6.562627723301209 6.075544382232434 0.0
9.326886053211574 4.243083624343211 0.0
9.280374192897945 6.656072830232892 0.0
9.224718905178564 6.766740750539347 0.0
4.703284910421452 6.528907865005451 0.0
8.955136474970331 6.565989985649191 0.0
8.998148826814893 4.865480736169776 0.0
8.99429836796776 1.965972383552685 0.0
9.065669391141741 1.847195105148808 0.0
9.207236162050343 1.853010386995843 0.0
9.143218073349985 1.725630086781897 0.0
8.998867447699345 1.719378449325465 0.0
9.082595782768397 1.592017827427701 0.0
8.92804562738841 1.585238202229766 0.0
9.01637794607019 1.453847302675876 0.0
8.854253119154375 1.446306868730686 0.0
8.941620273019874 1.320083886766936 0.0
8.775393064215876 1.308487027359826 0.0
9.102170347200483 1.324733726345249 0.0
9.013857060361985 1.178821526410403 0.0
7.991031819452564 1.587689878441685 0.0
7.767218744640202 1.595993197647291 0.0
9.191539171305216 1.194087248761656 0.0
9.123965901037613 1.057102462689568 0.0
4.853921953226772 3.470213116851758 0.0
7.496563223334782 3.470157221608763 0.0
8.536691379028115 5.921845852206257 0.0
8.475496498707471 6.037633662010236 0.0
7.978668526342969 2.307231488316941 0.0
9.384721922092124 4.337357165846226 0.0
9.331039180200886 4.435926256444196 0.0
8.546261775564837 6.150267290476958 0.0
8.411727261785726 6.155319300628062 0.0
8.972203609044218 8.930944433074036 0.0
9.133480321468399 8.90955269607895 0.0
9.197778815538276 8.768743880012563 0.0
6.162231825784922 6.05277753404107 0.0
5.962111081146334 6.046949845237622 0.0
9.268727788642101 4.146883230687689 0.0
9.380694211527906 4.144811697563401 0.0
9.323823335199954 4.049557759546529 0.0
9.283324894520613 1.736313094621396 0.0
5.858151623803662 6.22041808248046 0.0
5.759668475561988 6.038806123495502 0.0
7.836860473863919 3.191674397465999 0.0
9.348591928839294 6.75855034547469 0.0
9.293979592221298 6.870213350675044 0.0
9.170543172728557 6.879819332293818 0.0
9.240028263813034 6.983394994050525 0.0
4.347372565145963 3.312731475520695 0.0
4.114183445909965 2.96879678229065 0.0
8.616264880152233 4.042035981070631 0.0
9.403174760076901 6.650407069150438 0.0
4.173860112179449 7.723461240865885 0.0
9.365302975518428 6.973476802087294 0.0
9.312420275675276 7.088420778208979 0.0
9.184876614539778 7.0978133687822 0.0
9.25921281729617 7.204979813006656 0.0
9.12816413817609 7.21569648263899 0.0
9.203944409919862 7.322703303071253 0.0
9.334311975087337 7.311477957762272 0.0
9.280415785210538 7.428795599957155 0.0
9.274060219641907 1.066603180421249 0.0
9.211820491509728 0.9316562593680151 0.0
9.050684011148748 0.9017681241401576 0.0
9.441953732403995 4.432092590771756 0.0
9.394725873909666 4.526051349391942 0.0
9.43453556160865 4.048003950509361 0.0
9.378043599351757 3.952631412328806 0.0
9.289691247910705 8.890746792319852 0.0
9.228148443138926 9.030109127390128 0.0
4.440757888677695 6.389562448928118 0.0
4.689874463978985 6.239329075084555 0.0
4.291519540095677 2.622920583112654 0.0
3.886073352912894 2.632778677714434 0.0
9.344015622314338 1.202401041544343 0.0
8.193292196814806 3.849649660906171 0.0
6.960946604527747 6.07044529864598 0.0
9.347708267319902 8.756364147482309 0.0
6.826423138602714 3.261415861395883 0.0
6.06309517882478 5.884563187328262 0.0
9.4085057714426 7.414123963607981 0.0
9.356416821537886 7.532359471354527 0.0
5.042074134251055 6.938947182785697 0.0
5.063988238156824 7.311205832605263 0.0
3.946666851334923 3.30681624613374 0.0
8.189857914071878 1.939951128540477 0.0
7.880690277686857 1.38928908049477 0.0
7.63766396748483 1.399736360041063 0.0
9.345004233592562 1.857695941115052 0.0
9.440465164139875 7.085860901905448 0.0
7.918332480761888 5.744468010879592 0.0
9.08007135068879 5.372457017512481 0.0
8.78639561093144 3.718391405525285 0.0
9.356843485085705 0.9414458825132457 0.0
9.29705128845331 0.8103081541678832 0.0
9.251825423225316 2.451701826351773 0.0
8.483895366325516 6.270717564685176 0.0
8.346386886249478 6.275973306650227 0.0
9.493299170161215 4.138582531223591 0.0
5.321115649032961 7.117073603021904 0.0
5.354076009109965 7.436189411362466 0.0
5.597984079819928 7.254284331170681 0.0
5.644042313435943 7.564172740776336 0.0
5.383963016128051 7.753854027984002 0.0
5.681168258142109 7.880444993178456 0.0
5.935548099874979 7.687258900444162 0.0
5.979508404301389 7.994332725561488 0.0
6.21936843555201 7.802335560754011 0.0
6.267092590637372 8.104873033518185 0.0
6.498845418385807 7.917606504106031 0.0
6.544600005636809 8.209910620392591 0.0
6.77336078689533 8.027284686082275 0.0
6.814840179123049 8.311778392637773 0.0
6.721304148677048 7.737863326704131 0.0
7.031320924898797 8.1335673274533 0.0
7.077388928622946 8.403901803728003 0.0
5.417471987089176 8.090112295667405 0.0
8.845427688507666 2.446352368201366 0.0
9.318512319918124 2.339233739859646 0.0
9.380241452597096 2.451895615249572 0.0
7.283805558009199 8.237518806365102 0.0
7.329200330160381 8.497045124353782 0.0
7.233272584416691 7.991590926766813 0.0
9.142592248414191 5.471315142785471 0.0
9.196303265878848 5.36738298742727 0.0
9.25795832955665 5.465260877691205 0.0
9.310581303233182 5.36341558704714 0.0
9.371094700882272 5.459458038195667 0.0
9.422767107822985 5.360687090455724 0.0
9.36402660964156 5.264821436196721 0.0
9.474220736978928 5.262802348886269 0.0
9.41680330511366 5.169477108906666 0.0
5.168675939028436 4.895496152382537 0.0
9.482591449057548 5.454699312257291 0.0
9.431567605310825 5.552723344040521 0.0
7.531449703396948 4.741663470323411 0.0
8.517293123442691 4.672601123164268 0.0
8.459978676626639 4.778466809901586 0.0
8.396595115309985 4.67568709170855 0.0
8.338966609235166 4.782101664607259 0.0
8.275355646032752 4.678829956447008 0.0
8.217675280223542 4.785699596769931 0.0
8.28149024865807 4.888803783902183 0.0
8.16019781596952 4.892696417098926 0.0
8.22433278506531 4.995725219088695 0.0
8.102825704443651 4.999629142625341 0.0
8.166887930010795 5.098242831115916 0.0
8.034904900788316 4.896825406879729 0.0
8.15353539905931 4.682103688185489 0.0
8.211891449058882 4.574219757233394 0.0
8.290305306104333 5.094007100958221 0.0
8.225684228618732 5.201525567655179 0.0
9.444618942559746 2.343141375196729 0.0
6.929446520625337 4.868116916840016 0.0
5.737810725167649 4.893891407574175 0.0
8.720389971487277 5.38508368411851 0.0
8.805734920311323 8.951818172412821 0.0
8.905272694453211 9.083303226359831 0.0
6.006155038818204 5.171375272745409 0.0
6.431496448228514 5.152985998213245 0.0
9.052675024457304 7.106590131831544 0.0
7.740007013494393 6.09727525827826 0.0
9.375852260355511 9.013078430361404 0.0
9.32035844773103 9.14584923943073 0.0
6.989707597683965 5.146377438798643 0.0
9.488190206836386 3.951168069367155 0.0
9.432429152094464 3.855725756072153 0.0
5.568386402814275 5.185723849666124 0.0
9.525561551078322 5.166162126187324 0.0
9.465026391994275 5.072601962964018 0.0
9.320357339516937 3.857795423728873 0.0
9.375955927831914 3.759314274140895 0.0
9.261783786753899 3.761412578759438 0.0
9.31820665563318 3.661845422072752 0.0
9.431798673168924 3.660830894813109 0.0
9.374584413615914 3.563138564686839 0.0
9.48759661134647 3.562294297118573 0.0
9.431339678707085 3.464016717943268 0.0
9.417896212887529 1.746970678437863 0.0
8.731705369070733 9.110902182838881 0.0
5.652297951447118 6.21188565774667 0.0
5.569122518069258 6.024400786163834 0.0
8.257007204149394 3.505875091031567 0.0
8.717428603143034 2.925525757227976 0.0
6.882852832747376 8.57686572931064 0.0
6.337330066435714 8.416819098143066 0.0
9.50188906539997 4.521022403818629 0.0
9.453500859905136 4.617181635748691 0.0
9.46806769570129 6.749352117850711 0.0
8.836822104875719 1.72282859852854 0.0
7.481071063421426 5.64593758994851 0.0
5.668814988976305 5.86611128457842 0.0
5.487644760735084 5.847591822776978 0.0
8.993992818065195 7.228173913870249 0.0
7.98322414937693 7.229980191466666 0.0
9.22810751684646 7.54864871395298 0.0
9.304103360459063 7.654622011545798 0.0
9.432787371848761 7.633691049023619 0.0
9.382619818023882 7.759136995934441 0.0
7.239096822516492 4.679179578301165 0.0
9.47692479956498 1.861231395362419 0.0
8.041243110813022 5.095895152648969 0.0
6.190208781188077 7.509864122823853 0.0
9.283062812782122 4.549418667685757 0.0
9.503847665760087 2.450295046295932 0.0
9.443345385250678 2.557904120404248 0.0
9.52009568463353 6.644015937008899 0.0
9.203119005973903 3.662458522935253 0.0
8.406198651282708 5.92630414760378 0.0
8.467263597743843 5.811987729136874 0.0
9.461423029059445 9.128120577356565 0.0
9.408445330070542 9.26024300250086 0.0
9.266505293379728 9.277952925446408 0.0
4.14874709022218 3.631681332690154 0.0
9.437448107949258 0.8198473430736303 0.0
9.376993771693973 0.6910550697058979 0.0
9.22882356848217 0.6931820370818127 0.0
4.451823867195988 6.103664366188579 0.0
4.200031743909027 6.232039028149317 0.0
4.687154754667774 5.975132870483986 0.0
6.268889397098538 6.592235545990395 0.0
7.509366161722768 8.340075462391164 0.0
7.564775703413765 8.59800936579159 0.0
9.542148732924264 3.854614593058991 0.0
7.036231103929761 6.550562550831048 0.0
4.089373665437328 2.268193930262139 0.0
3.642558884866483 2.250386188148396 0.0
3.442182385618804 2.651948803899947 0.0
3.146832503011753 2.222630466765926 0.0
2.948870467975985 2.805088883766417 0.0
9.352005315330274 5.067356449300542 0.0
9.31729677031493 3.462944187594675 0.0
9.37428383619102 3.365546369736205 0.0
9.4883538239391 3.365384871181599 0.0
9.432147665178338 3.267287636377487 0.0
9.25034519267688 7.775848812012313 0.0
9.332091350002502 7.881724023243533 0.0
9.462101000264603 7.86490055671988 0.0
9.413353271651825 7.98561007219363 0.0
8.273592814723814 6.158623919352561 0.0
8.207135014732339 6.280394934566054 0.0
9.541483811580331 5.548224291759592 0.0
9.491365919893726 5.644847811894615 0.0
8.088095771120983 4.577581369371366 0.0
8.14760102783746 4.468303741922308 0.0
9.556217963323956 4.414867468889523 0.0
9.543667331547693 3.266908751519594 0.0
9.489307652535885 3.169908976697059 0.0
9.26285575842982 8.635341362685686 0.0
9.403220742003983 8.621447866627538 0.0
9.326013417886902 8.506778946171965 0.0
9.455477927154853 8.503896705359047 0.0
9.566646674069602 4.611465258087684 0.0
9.499341049870914 0.9352184973273918 0.0
8.683891958597638 1.444705608998412 0.0
8.599973456173778 1.287265568270043 0.0
7.760988189317371 1.175381292562583 0.0
7.50927661322749 1.171223823957793 0.0
7.380927152434357 1.411062577009695 0.0
7.242417847270241 1.170759311509981 0.0
7.107236746116019 1.421234419770886 0.0
6.960799033544566 1.169618322344823 0.0
6.817786081200392 1.434174581170586 0.0
9.48095050141868 8.738557748483624 0.0
9.319762046171894 3.263060331456388 0.0
8.920653400180534 7.117307656029475 0.0
9.452431221190624 6.544166520883111 0.0
9.571407933653493 6.540336592280795 0.0
9.507586285214174 6.443281357841339 0.0
9.575252974749443 5.070210512157044 0.0
5.755172844377253 6.370710487467459 0.0
9.541351959064952 7.969072511059531 0.0
9.354607289792183 9.3921968735401 0.0
9.495213435762107 9.37218405175897 0.0
3.77688136092967 3.643094492921176 0.0
5.460967180339239 6.159077196937325 0.0
8.656589552918996 5.283032675040985 0.0
8.599307076390474 5.387421722684671 0.0
9.584017606465821 5.263931993965828 0.0
9.51536593891754 4.977534386249715 0.0
7.788544970111893 2.70578432810479 0.0
7.381746833264364 8.755477463411431 0.0
7.615969996822885 8.852710176548548 0.0
7.783643411970649 8.691528137204457 0.0
7.845017394185501 8.938777577473743 0.0
8.570520580943368 7.342304222498308 0.0
9.103648004226827 5.781084627507008 0.0
8.338082930126799 5.815990105349368 0.0
8.930848895071895 4.561111316304916 0.0
7.381089602119859 5.983657236035151 0.0
8.42066837692862 6.393608568217351 0.0
8.888256157021065 6.459558428285236 0.0
8.826495664731354 6.575679897210801 0.0
4.22522220414496 5.921354747981145 0.0
3.943296448343383 6.075578573904587 0.0
9.563175937841836 2.554860696349795 0.0
9.505342423182917 2.656889632284623 0.0
6.660863480070611 1.168750929063519 0.0
6.518316961679488 1.436478598119306 0.0
6.683474168246802 1.694104067636375 0.0
6.376799057174731 1.707382100972048 0.0
6.205091481342603 1.443621641108414 0.0
6.058670988071357 1.728841803855816 0.0
5.877457486049096 1.454297236926778 0.0
5.724979192982589 1.756666409586195 0.0
5.529885788012015 1.462283739157555 0.0
9.514953777019835 0.7018468683209754 0.0
8.398665270372675 5.702731562702358 0.0
9.456442249775696 0.5772068858285652 0.0
9.565795671866349 2.345573662774494 0.0
8.830758563027459 9.247271599108435 0.0
8.523580738257648 4.88015211128435 0.0
5.580123316488715 5.701889892660689 0.0
5.398591029446707 5.685938459654249 0.0
5.367686360823392 1.778740548277203 0.0
9.546603444041448 1.754984055696778 0.0
9.489649223089446 1.641312329051244 0.0
9.617973952467912 3.363804764345866 0.0
9.584322830999731 6.729956156156573 0.0
9.597221861144487 3.948534024289882 0.0
9.49401963819799 8.089507968561776 0.0
9.207321074262563 9.416906871900888 0.0
8.27185428346661 4.464932191097996 0.0
8.207416067213774 4.35878753684812 0.0
8.332747746635944 4.354903699457511 0.0
3.990181919126853 3.930792395858886 0.0
8.267392138262498 4.254008221702929 0.0
7.997788712685495 1.196805377512679 0.0
9.600316638269724 5.639973985281733 0.0
9.550939606739425 5.737313319038155 0.0
9.44084303195315 5.74233753256161 0.0
9.50112296154558 5.834555019909565 0.0
8.897429225733994 6.685415510921676 0.0
8.762930941408914 6.695907295903629 0.0
8.654628175336732 9.278157371342388 0.0
8.544676900803436 9.133790942553834 0.0
5.294904777716057 5.855935872688884 0.0
5.216749389964556 5.66865685845661 0.0
9.508453581298625 2.239460033375932 0.0
9.599691370793206 3.169496930704394 0.0
9.546615051106684 3.073514534194011 0.0
7.484714626923596 5.028675123117963 0.0
9.588496050271255 7.850836295555126 0.0
5.153197381012662 1.471340286561097 0.0
9.433168304679345 3.071871997104804 0.0
9.610464706874994 5.829217654498672 0.0
9.561407772947403 5.926179534044419 0.0
8.273381980676042 5.705233340662362 0.0
8.330794188929296 5.594351887246082 0.0
8.207319603076424 5.596747949305344 0.0
7.251338559467102 5.233758892662348 0.0
8.708518799790543 1.130513882092466 0.0
9.590155250193266 0.5878623138195824 0.0
9.389919385420015 5.841079912164009 0.0
7.991397852194216 5.859910582924319 0.0
9.624951589233206 4.975554514425905 0.0
7.240016788025947 2.531866266726309 0.0
7.635666783493215 3.873554782053258 0.0
9.608476620993713 1.863530872936442 0.0
9.365330459496413 8.10677840682376 0.0
8.775076110585598 2.572737931759856 0.0
8.699389445914996 2.444602334375113 0.0
8.625078713232146 2.580891022578613 0.0
8.54447196848446 2.447624719286678 0.0
8.468898498943965 2.586757328881282 0.0
8.62282309213608 2.307826916202421 0.0
9.622102662978762 6.439307895185218 0.0
9.561995355724862 6.35103962032292 0.0
3.898245450818314 1.856155797593496 0.0
9.681759177700954 5.07069253017652 0.0
9.059254996454502 4.963357716933865 0.0
9.113144532326562 4.861710138088372 0.0
9.62140874877204 2.656009146517733 0.0
7.884510615470827 0.9666888912541309 0.0
8.14902661050739 1.005010215149227 0.0
8.491263206618079 8.527197931363634 0.0
8.408859203395778 8.697060715788105 0.0
6.54422152733529 1.954566069381189 0.0
9.563546573097593 2.755667904356369 0.0
9.453065492925557 2.761122255953964 0.0
9.676889098520615 2.755084315170127 0.0
9.678287124781653 2.556838324720633 0.0
2.60254317790297 2.278874965850319 0.0
9.211706272534968 4.050470567310489 0.0
8.526711683538949 5.698821878547752 0.0
8.296604023060945 8.533761944401608 0.0
9.649704314258118 5.543946557831669 0.0
9.651176136337964 3.85122804518279 0.0
9.44590154800397 9.498503704959054 0.0
9.580491248736612 9.476376347552954 0.0
4.3239388803087 3.921156392977062 0.0
9.65737873521736 3.075324100817917 0.0
8.128000846282253 6.160273991836929 0.0
8.06242981852327 6.292371360998262 0.0
8.500465019503922 1.442700595221201 0.0
9.615253212967009 1.649819368149096 0.0
9.561768620580791 1.538553925606111 0.0
9.435477757657937 1.527391516499924 0.0
9.627993450010088 2.242685831452484 0.0
9.5338252733548 0.4673994795805215 0.0
9.398055066504014 0.4589059948533885 0.0
9.669486082509058 5.920177035588319 0.0
9.621072177439727 6.016493814615133 0.0
9.506185962103057 6.018397021409126 0.0
9.196884440497488 7.898824858961557 0.0
9.112591143666748 7.789491461180181 0.0
9.664357762385308 7.950712034233033 0.0
8.46233617997115 2.308903464128035 0.0
8.547917980328803 2.169381684694277 0.0
8.139931430059324 6.410762600521521 0.0
7.672499127532963 9.099143622036436 0.0
7.91372855627271 9.178704612763656 0.0
8.463425076318451 9.290653726808348 0.0
9.643938029094286 9.335632419679458 0.0
9.647017668702574 0.7068996148634754 0.0
6.241662276606473 5.884018212993202 0.0
6.157742245066693 5.73500474100449 0.0
6.318815619949124 5.730068085823802 0.0
6.247706374231452 5.593094310939028 0.0
6.406948541886973 5.593272398468375 0.0
6.092564106310554 5.587409338401505 0.0
8.535507922245372 5.286142900439676 0.0
8.022959839404006 4.471630490587016 0.0
7.963561162854596 4.581393556789843 0.0
9.683487139413305 1.546750704925431 0.0
9.630761777960082 1.435922217091829 0.0
5.121714348989337 7.950140247572198 0.0
5.136464096196084 8.310254432483559 0.0
5.47349124035624 8.455234262268478 0.0
5.176273618280354 8.687190323573228 0.0
4.796664658962938 8.592678692862421 0.0
9.568705729418735 4.887269869750176 0.0
9.462711651199594 4.88832222094458 0.0
9.674903475028225 4.882285174433025 0.0
5.4996067353406 5.546583260717527 0.0
5.663632234555963 5.557613452957074 0.0
6.829408195405585 1.947174574944512 0.0
5.336529198289861 1.127585641139875 0.0
9.672387559812332 6.34138351957329 0.0
4.463988917379896 2.271060678869338 0.0
8.618048281355405 6.263841736419089 0.0
6.480949808711781 5.74815588680617 0.0
6.562207427719153 5.592185077216444 0.0
6.643040463857446 5.721233693378952 0.0
6.712825900331884 5.588664360236 0.0
6.79240375630333 5.711383948285569 0.0
6.86115931532141 5.584697050428064 0.0
6.939210100691576 5.704407337029545 0.0
7.007668476576536 5.580801046893123 0.0
7.084627386867475 5.702817970154801 0.0
6.633257976075473 5.460881327825488 0.0
6.931430743764456 5.461960451448691 0.0
9.682652370938209 6.533133024505995 0.0
8.761108695241376 9.450742747770144 0.0
9.146031326900015 3.764292700000154 0.0
9.089378801805193 3.661317181076136 0.0
9.514354521818781 8.994988681611192 0.0
8.157650730500988 4.262987189670279 0.0
6.329633198899328 5.4647789391701 0.0
2.340685767996258 2.811285337457589 0.0
7.379572471323651 0.9290892725587991 0.0
4.171878172186605 4.222320767259098 0.0
4.4876601621649 4.16473354200826 0.0
5.336389369563535 6.806464508860387 0.0
9.595468321212476 9.108133206829102 0.0
9.645038675267227 8.982113951305912 0.0
8.393140678816192 4.246338342095281 0.0
8.309440721624494 4.155300532283633 0.0
9.418269339704423 1.9925512363779 0.0
9.662781807969623 0.477809346089035 0.0
8.011297869803792 0.7518828483803571 0.0
8.250149975885678 0.7646904662196189 0.0
9.608674873602773 0.3618049194050078 0.0
8.692696069692623 6.582927327365709 0.0
8.628225948401226 6.705702462696891 0.0
8.701883181418305 6.822086652299242 0.0
8.559276855155542 6.829564723911442 0.0
7.069268463354993 5.459534423493629 0.0
2.654575201159115 3.323490466195074 0.0
3.610801136544596 4.044075244426243 0.0
8.263757217166944 5.48730323490738 0.0
8.138838162809126 5.491254533497952 0.0
7.90196833683664 4.477386962763833 0.0
7.987943097943191 3.978756490171551 0.0
9.704623491880403 3.945605151832784 0.0
9.461009573830147 7.301728818091931 0.0
9.532468631193666 7.399916015174975 0.0
9.582688928417856 7.292330983701011 0.0
9.652579613269625 7.387768793572397 0.0
9.699264016151023 7.282867433965265 0.0
9.633305589700536 7.188543855060478 0.0
9.505576100168666 6.961225778216469 0.0
9.43876966151099 6.342441564206569 0.0
4.908483672172518 6.098703904450545 0.0
9.135448256237908 5.269827196966999 0.0
5.905650502271389 2.025036080946255 0.0
9.709890722072377 9.452748507541063 0.0
9.663337613522643 9.572126259365891 0.0
9.603900123387826 7.495180532331903 0.0
9.720147629525837 7.483400774981126 0.0
9.674588415444239 7.588303295299578 0.0
9.653186673863587 4.039274180923234 0.0
9.053164539680804 4.764545162185531 0.0
9.164908495749003 4.763017269285045 0.0
9.226019227262443 4.858029410614327 0.0
8.809947621994619 3.4964384919072 0.0
9.10538997155458 4.665865142902959 0.0
9.331074106432244 5.748993480915537 0.0
9.055854333858068 7.918554535314415 0.0
9.446431573964945 8.209836764658437 0.0
9.573844810886287 8.191100251691205 0.0
9.309704769895653 8.244395007943949 0.0
7.240329561730736 1.676197957122907 0.0
9.543389817573933 3.660019800390455 0.0
9.598599341122098 3.563130123982772 0.0
9.652615161407017 3.658119804270645 0.0
9.706336063693934 3.564815526226687 0.0
8.632284427755456 6.946688912416058 0.0
9.682863230715835 2.349655023034811 0.0
9.571538455120994 2.142369886250143 0.0
8.090821900439733 9.017409120951333 0.0
6.812258669899192 0.9007667548831626 0.0
6.50135254578461 0.8974046495177885 0.0
9.598335906230732 6.246437748035812 0.0
9.719677442549804 6.253968775436637 0.0
8.593026822691716 5.180101360605356 0.0
5.537586126848265 8.836083861509138 0.0
9.688689404995035 2.143487155934306 0.0
2.821389253975936 6.507820864074362 0.0
9.176571289960709 8.507736431357309 0.0
2.918303740542162 8.256728920338826 0.0
3.428955230180972 8.401446814887457 0.0
8.490587404589881 6.715350139132777 0.0
8.86049054904785 7.243279881821806 0.0
8.93696309213556 7.356650230611625 0.0
3.951931175165697 5.78308550088855 0.0
3.65055612573298 5.91672400098539 0.0
3.668142216548471 6.247526235973777 0.0
9.717269848920886 5.821831227352286 0.0
9.708364917734201 3.164198601626433 0.0
8.45581975650687 4.569560863828342 0.0
8.204448312099833 6.040774355519757 0.0
8.65969449127868 5.485991799508151 0.0
9.707534571012967 5.634423933296901 0.0
9.62102991883279 2.849662850313935 0.0
9.144093558002634 3.560383427867003 0.0
8.29763273805118 1.77155302934031 0.0
5.280452715709455 9.01633391004168 0.0
8.984558945859158 6.99932633710603 0.0
8.4157550875812 1.275784953143711 0.0
2.068078118650995 3.355462780535101 0.0
9.205703884756806 5.568274778556933 0.0
9.745857863753141 7.178456670302003 0.0
9.681628895748586 7.081494416756802 0.0
8.875818787971069 6.240744812097083 0.0
7.993733797566922 6.414830952863579 0.0
8.462810157069566 3.377071044664789 0.0
9.29428363519789 4.759591981903337 0.0
7.933956818298286 5.97437536746848 0.0
9.028281726378319 3.558713145763133 0.0
9.083461773461467 3.455531762175701 0.0
9.73231939683535 2.849247643393067 0.0
6.70072305037728 2.192432536215492 0.0
6.423245125077639 2.212870246546939 0.0
4.931537051605536 1.135086496804522 0.0
4.746426561586179 1.500381091957315 0.0
9.707706579932626 7.836419656220658 0.0
8.590593344701457 1.595639668013959 0.0
8.708946574109854 2.1688179918246 0.0
8.634728854549891 2.028564483452208 0.0
9.230357659411311 8.129337203173913 0.0
9.102841374461482 4.452881308250647 0.0
8.472081531214734 5.388993924853032 0.0
4.925996806199801 5.844046944846857 0.0
4.702806345752284 5.745688656289065 0.0
4.884357002239844 5.633237011762874 0.0
4.709628434300812 5.536404116679045 0.0
4.530800966746534 5.627044171217377 0.0
6.040296145349247 6.603808099703576 0.0
6.162203578696918 6.795213950202512 0.0
5.923135943221574 6.824060069869489 0.0
6.046693245732212 7.010423490915212 0.0
6.297337598588478 6.979895528204233 0.0
7.760448385794147 0.7294020304851334 0.0
8.492228348169641 6.958778476405878 0.0
2.89219822877093 1.704113597264478 0.0
2.26178643438086 1.7814602252425 0.0
9.726968895980871 6.009547057102511 0.0
6.63195110828313 0.6072886418835157 0.0
7.984023036954866 7.515675826210831 0.0
7.893857204140559 7.681876703427663 0.0
7.778465117872411 7.537836322197895 0.0
7.998204230811618 7.844922503023499 0.0
7.798554315988981 7.858161805718108 0.0
7.917846202023782 8.03040048103727 0.0
8.547520504556728 2.721261126162116 0.0
8.39253850806587 2.732073315877738 0.0
8.306047241032278 2.59069854402512 0.0
8.233011054235162 2.739783364361515 0.0
8.318836035587811 2.879838477099622 0.0
8.159530874574331 2.888511553151382 0.0
8.245490421394788 3.024568439743106 0.0
9.759103003747676 3.077839427881478 0.0
8.083610090773394 3.033523757291178 0.0
8.174562583800352 3.166768504406541 0.0
6.046769434852523 1.155662270344939 0.0
6.968371001421964 2.176347877216873 0.0
8.324858098380334 3.152966249334499 0.0
8.145556596142626 2.609897633546475 0.0
8.970652052821418 7.804556541250797 0.0
9.033737629244714 7.681328986528639 0.0
9.62347010002576 4.796939565664328 0.0
9.72520380348743 4.790261082613535 0.0
4.882631186210167 5.455006233451049 0.0
4.618356368594037 3.933076284395493 0.0
4.748083507220199 4.151025177732873 0.0
4.641724290430313 4.358202249373887 0.0
4.87055838101999 4.337900676660481 0.0
4.974114446887331 4.149149057174687 0.0
5.081577844806959 4.3240148266423 0.0
5.179521650033781 4.148725180298481 0.0
5.276261408871418 4.316673822529601 0.0
5.369189110897883 4.148362797753505 0.0
5.463892033849439 4.338819369807593 0.0
5.550828466075906 4.146274465971151 0.0
5.646554822352869 4.303571429647391 0.0
5.728109623160046 4.138582010823754 0.0
5.821689108984419 4.291959598724587 0.0
5.906082534948073 4.141649907302701 0.0
5.99655838673762 4.288752711512514 0.0
6.077312859438928 4.141011188943332 0.0
6.164215275138099 4.281164574562373 0.0
6.241782344986693 4.140701084167517 0.0
6.324316420613108 4.277393447415522 0.0
6.40284165425941 4.140026953305852 0.0
6.483655157361099 4.273418937894759 0.0
6.561170698911611 4.136221843106807 0.0
6.63512300179586 4.269917278694155 0.0
6.720306110251473 4.133393659385058 0.0
6.63777078218551 3.99617001426095 0.0
6.802492763973074 3.994355399489989 0.0
6.798834760478153 4.276914787769972 0.0
6.15377608509923 4.000134206628027 0.0
6.548727135071258 4.400510710520637 0.0
6.251479300130713 4.421887359316258 0.0
5.275876048175579 3.979624500657822 0.0
5.910905077162284 4.431174408784691 0.0
6.717070288412452 3.851239795555301 0.0
6.883499045994213 3.852555480300214 0.0
6.96664848901999 3.994033961856844 0.0
7.048208567116626 3.854750001965969 0.0
5.810004974283072 3.982497501655442 0.0
5.586615391658107 4.471070246359201 0.0
6.547331954052155 3.853872077215347 0.0
5.179081233207816 4.485638492900557 0.0
7.126615227065496 3.995337770596979 0.0
7.209459742762513 3.856893463870469 0.0
7.130226097876905 3.713620439679428 0.0
6.63075064074106 3.699684148676045 0.0
6.446985573861992 3.697358756862005 0.0
7.043151422977365 4.131713936060725 0.0
7.198322215260019 4.129850614748363 0.0
7.119378405252723 4.26005098890218 0.0
4.797146270976422 4.525762781577414 0.0
4.608329098388589 4.573584257851931 0.0
7.294442092743627 3.720853338661503 0.0
7.215753312764997 3.571378507508807 0.0
7.049631633956289 3.568047985538775 0.0
7.133765707749521 3.414282375958479 0.0
9.755079417839903 5.539705890434435 0.0
9.698955703441971 5.450920012703194 0.0
9.717604099406742 9.09084770432896 0.0
9.276716006673976 5.847248422342224 0.0
9.339081208926798 5.941174203394446 0.0
9.031261921742963 3.750271483819014 0.0
9.08721978689863 3.853416037308712 0.0
4.801461566647803 7.510704110489921 0.0
8.206553504932042 5.818005960412773 0.0
7.362361315389098 3.863102442315545 0.0
9.492826845316191 2.963845037486267 0.0
9.376710375304633 2.97229517374228 0.0
9.3192743723601 3.070687802230453 0.0
7.915389082113898 6.293241865913004 0.0
6.735006382384437 5.832450056405368 0.0
8.456481836836168 4.35369289249905 0.0
8.517718268476031 4.246675068616396 0.0
5.583512022030555 5.411069060406398 0.0
5.73625200174779 5.422617752052123 0.0
5.81006929286229 5.548584937688919 0.0
5.903438861894402 5.420604003204523 0.0
5.43801870974416 5.402925156167655 0.0
7.022641548594327 5.825217331839047 0.0
7.165095795605366 5.826005223633447 0.0
7.223078558430726 5.690146755650336 0.0
7.841396000338385 4.586693006493787 0.0
7.904793170875705 4.690826189066096 0.0
7.785999820520073 4.696719777099973 0.0
7.846448506395101 4.798518978096564 0.0
7.728149182067156 4.803800941124008 0.0
7.788983823826226 4.904802634695232 0.0
7.672018889153144 4.910077510508749 0.0
7.731996012352178 5.014717724244488 0.0
7.852072803124419 5.00743796185411 0.0
7.779278698005006 5.118909346425974 0.0
8.088113864063853 5.605434545811022 0.0
8.016457362785575 5.494849890158723 0.0
8.072290383394757 5.385594956317259 0.0
7.95068657972964 5.38825563681957 0.0
8.309366678475389 1.438342408757099 0.0
9.748160780780179 1.447794693754379 0.0
9.696454228162398 1.337889922375316 0.0
9.568813761940916 1.329560834053294 0.0
9.638326779791626 1.226729570935787 0.0
8.472132467407484 5.182856496818138 0.0
8.066211547412054 6.53691730655352 0.0
8.217035586462373 6.522976700918602 0.0
3.544839338670893 3.324491119989469 0.0
6.999740002965287 5.347729916247808 0.0
6.874544698914502 5.347027470386579 0.0
4.880451234715014 5.193043717957879 0.0
9.104510033763066 9.313204713465637 0.0
9.0466357104558 9.45359399494339 0.0
9.146803165140184 9.569652364413551 0.0
8.134107047896672 0.5527712356100052 0.0
8.369770412730738 0.5571215815175228 0.0
8.47386979744655 0.7564607169846485 0.0
8.585193608569258 0.5749174254532757 0.0
8.683868132726584 0.75505070091701 0.0
8.787381435061018 0.5813987798627239 0.0
8.697570280442534 0.3771156480326233 0.0
8.530048434259976 5.077280516000916 0.0
7.995091351438729 2.90367515012593 0.0
9.731083608815164 1.662638626153251 0.0
7.260488865351954 4.255073962371814 0.0
9.760728358076392 8.990038509880067 0.0
9.716710396257366 8.884160310398862 0.0
8.794627466210242 7.369659405098349 0.0
8.868068657550866 7.515048014893154 0.0
8.702594597629135 7.510501129643432 0.0
5.132320689147051 0.7610757801158905 0.0
9.755852887652699 3.853180024615871 0.0
9.787424819067885 2.757921105725315 0.0
9.731193479931608 0.3736343090103709 0.0
9.796526908308536 0.489684029254899 0.0
8.226019692057042 2.453349105940535 0.0
4.560989821496479 5.428206018250252 0.0
4.348810639659689 5.517048281386008 0.0
8.785190163106925 7.119142251269924 0.0
9.015515413043023 7.464769766852701 0.0
9.754861440190705 3.659036930324926 0.0
9.7543610723378 4.033687839160082 0.0
9.707881226943384 4.127219992296752 0.0
9.52841017383273 8.309020665649431 0.0
9.65186044414544 8.289498614805698 0.0
9.714051275521857 8.173576484362068 0.0
8.209758892476394 8.715513071423135 0.0
8.097084883671858 8.548851201381087 0.0
8.177989947800599 8.367872862579052 0.0
7.974142434808908 8.36779470623567 0.0
8.409012054919861 2.142624252464372 0.0
7.707002321497132 8.039129945341395 0.0
7.574653123518228 7.83895791570255 0.0
9.229858094382692 5.951357214361815 0.0
9.75307989876696 1.229893222503321 0.0
9.715811155868643 1.128779429890018 0.0
9.597960915003707 1.117058287635912 0.0
9.672063923518955 1.020806103150243 0.0
8.99090422125785 9.593878510105375 0.0
8.133165456134304 9.257620998029804 0.0
7.976779931497633 9.420725324095141 0.0
9.77231778617502 7.927819487779705 0.0
7.957213679655531 4.364530256281665 0.0
9.609903116082736 8.403725680286847 0.0
9.724891358972584 8.388392708395173 0.0
9.687487059868507 8.495935345161797 0.0
9.810055520269009 8.494090598382963 0.0
9.755967487162335 8.599790818513082 0.0
9.645698986824481 8.606121319182705 0.0
9.721376049217765 8.699989876681524 0.0
9.773009257015609 4.884557953188837 0.0
9.830105798750992 4.796546393900876 0.0
9.775335108731761 4.686093304257503 0.0
7.455611517737074 3.730099283949135 0.0
8.906943567829634 0.4197477661467797 0.0
8.980613334153533 0.5814185917581446 0.0
9.081059111759728 0.4263421860552371 0.0
9.821654809259165 3.576985724143072 0.0
9.761309244784803 3.4792267780002 0.0
9.763329553045937 9.353068233045157 0.0
4.463051839136694 1.164440352584939 0.0
8.0213168204867 5.283436382300235 0.0
7.89385412333227 5.290429544753158 0.0
5.806940001023414 8.583716119232427 0.0
5.88977793877374 8.96065112858812 0.0
9.177759062826041 8.25539130897928 0.0
9.626582559276994 2.05283181283147 0.0
9.747673294325121 2.064954301745188 0.0
8.775905508647185 6.951821187702613 0.0
2.3581644273991 6.029034686663493 0.0
9.777798009058461 9.548066962498762 0.0
9.737129197219856 9.662299853506903 0.0
9.615080366030512 9.683349544763068 0.0
3.315839678697904 6.042943273456425 0.0
8.915083018115329 7.937748428923896 0.0
9.489832173860055 4.712364754630572 0.0
8.118313727862493 8.013944064029838 0.0
8.902248750797776 7.67372145952523 0.0
8.954075939212636 3.463080912810881 0.0
9.45247551997678 2.133243108303608 0.0
8.311151553157742 8.899233004613622 0.0
3.28672004268868 6.826745674539142 0.0
9.86008383798735 3.468233656255824 0.0
8.389990589860254 1.947086063498656 0.0
7.144231739553659 5.329544660076687 0.0
9.654500729007207 7.743301971143119 0.0
9.761920842881946 7.740144345898896 0.0
9.692820773976567 0.2651585113981998 0.0
9.690951720399688 6.100517071814821 0.0
9.775704281989471 6.077882312279847 0.0
9.823117117198079 4.115168542267924 0.0
9.764391943581737 4.214465954230587 0.0
9.659455011849253 4.218716850797838 0.0
9.713462125022623 4.30742830316693 0.0
9.849638067150842 4.208845651573708 0.0
6.376241713254513 3.858766051594979 0.0
6.274931849158213 3.701528298009006 0.0
7.097780104117746 1.926449727602711 0.0
2.457742027508782 3.810157622192786 0.0
2.963634206580268 3.740748099915693 0.0
5.065585416063965 5.544355730437482 0.0
9.783560252464587 7.566507987677117 0.0
9.825819294611026 7.470942204664841 0.0
9.799976114123012 1.01659516618323 0.0
9.745559590633832 0.9150866860898854 0.0
8.20473400632469 9.495828670767946 0.0
8.784586030320169 2.054461500762216 0.0
8.758471587067168 1.888286802854785 0.0
0.9188935087347281 8.510730800272478 0.0
9.674192026048217 9.20389587377276 0.0
9.796314981283475 9.185916994648775 0.0
7.206882433199502 5.452024361489832 0.0
9.773927048949279 6.334665846819535 0.0
9.830288393591173 6.225300227041885 0.0
8.25177349297509 3.282767705830209 0.0
8.099233469407428 3.304040153764131 0.0
9.607860512870598 4.315652630490023 0.0
9.403674738018715 8.367349042046314 0.0
7.611756786273919 5.018691202305147 0.0
7.549513964643336 4.923310232561835 0.0
9.80986724662116 0.2915868356190958 0.0
0.7757562810577034 3.504187313079081 0.0
7.659562100664981 4.698467529240196 0.0
6.539424975891206 3.541729955691742 0.0
6.717348880400739 3.55221857686142 0.0
6.836337579501807 2.417476958454302 0.0
7.096480496160066 5.959124656438389 0.0
7.189742782777612 4.377051328076039 0.0
7.051723187622053 4.38470822973091 0.0
7.125489805519186 4.497018383456762 0.0
6.994915621927777 4.501504591168814 0.0
7.056755276274058 4.607929817497045 0.0
6.932937068803914 4.613249390039674 0.0
6.86629288290367 4.50541343988659 0.0
6.80427099775847 4.617607827251794 0.0
6.739195362053689 4.511124964201849 0.0
6.677260697693361 4.624288827143181 0.0
6.996760608675822 4.711715831373894 0.0
6.316045249462968 0.6456945497683586 0.0
7.321834163850416 5.816449323512759 0.0
7.833101485370825 4.390058096386987 0.0
4.996572652976738 4.498711166259074 0.0
5.112334577457371 4.663858846723513 0.0
5.271923064784868 4.629759173373871 0.0
4.93773508827367 4.668006487116195 0.0
5.348137647919096 4.485934621930562 0.0
5.413454827497575 4.62999925573761 0.0
5.356581113747675 4.770594395332836 0.0
5.013422223730484 4.793321773780133 0.0
8.58674425943957 0.9312335381466886 0.0
8.776450596582496 0.9362399987293505 0.0
4.783496233934828 9.486061758876032 0.0
4.544176394620909 9.034071856445296 0.0
4.082330493623582 9.015765881393772 0.0
9.820867469965414 7.285959215547852 0.0
9.852697883440127 7.166089674802766 0.0
9.260999083164238 2.971390964911171 0.0
9.197701900169713 3.073162109379564 0.0
9.31960210441945 2.867465579641856 0.0
6.660951583415121 3.383363199709994 0.0
5.210469976037585 4.761678854423166 0.0
6.740780285297665 4.733615686805694 0.0
6.611362405615225 4.731958642073806 0.0
6.549091884465382 4.629620704100811 0.0
6.491761716522486 4.733409494449344 0.0
6.425259228542098 4.640546096196947 0.0
9.715556659367534 2.986725573570596 0.0
3.710524324925069 9.463213827486557 0.0
4.768537031214573 4.727001037865238 0.0
5.039413681704655 5.378508462165627 0.0
5.188746429211535 5.440476671296013 0.0
5.172214816037712 5.298914527247826 0.0
4.469063601436893 3.667917323494335 0.0
3.799121596584382 4.741629285988305 0.0
3.661085664896249 4.442847704416992 0.0
3.316563386321876 4.380147387454913 0.0
3.802087298647255 5.26743535640985 0.0
9.738116341343215 8.047178982429934 0.0
9.85106076399546 8.021725551312715 0.0
9.837581050304836 2.844176011307251 0.0
9.664579962075123 4.402853107737106 0.0
9.76433159763034 4.39807801415352 0.0
9.718924973226878 4.487825491046641 0.0
9.826405563645343 4.494594135148365 0.0
4.931068003413168 6.359330991212394 0.0
5.130175746947236 6.201075257041828 0.0
5.143884286052002 6.445382329515047 0.0
4.953395875296406 6.628748468717369 0.0
7.833019185167153 5.400347121613631 0.0
7.766636138801143 5.313240048256084 0.0
9.767038723422333 4.578090619166644 0.0
7.315369355237483 3.441501197259575 0.0
9.556068971301514 0.2347811136726856 0.0
5.733871280791703 4.444861510772459 0.0
5.828809543126846 4.569791247698539 0.0
5.986701526182213 4.562881783985375 0.0
5.912543327921148 4.692966271273211 0.0
6.052130330528581 4.682477327897978 0.0
5.773525984744635 4.697697018456535 0.0
6.121646311546238 4.572302645403103 0.0
6.182349700936326 4.67713231096357 0.0
5.846371383601797 4.808939734754761 0.0
5.117807918383606 5.974361363083184 0.0
6.256132501905665 4.575863546153224 0.0
6.324770064521816 9.645040261272253 0.0
7.345522892050965 4.12581088034536 0.0
9.338523512844539 4.854480276600515 0.0
9.286984287289403 4.959628690044808 0.0
5.676298026114105 4.589279806918992 0.0
5.631257891894775 4.722749088404111 0.0
7.970415275563177 5.621040275419208 0.0
9.565118337557308 7.081391220827488 0.0
9.626201005045262 6.980441083020495 0.0
9.733729506193331 6.979928568877979 0.0
9.684556253529976 6.887102896543928 0.0
9.780785815410074 6.890287441101827 0.0
9.740054813822885 6.794211367612523 0.0
6.462628988057306 7.629921412015864 0.0
6.692564520952154 7.473594130811262 0.0
6.927983108788191 7.570982428592125 0.0
6.899878641134941 7.329306734748538 0.0
7.117542472438434 7.416951094809493 0.0
7.089537168123128 7.186691566729968 0.0
7.296585396514727 7.275888419524222 0.0
6.879678873774065 7.097443005287856 0.0
7.063454637059129 6.967740076426161 0.0
7.329105042924355 7.496317641003757 0.0
6.867084781778411 6.878842928865059 0.0
7.494278796275744 7.351949197351029 0.0
7.462564159480594 7.150140034494138 0.0
7.644835001206406 7.21506678718646 0.0
6.682478929414216 7.008358327294905 0.0
6.449199855715812 7.365660640952548 0.0
7.548139855358765 7.57299228324251 0.0
7.008502809092701 7.844601794812628 0.0
7.371739019901781 7.707688433423657 0.0
5.665345294602155 5.290628720253272 0.0
3.987583013016546 4.486920698115711 0.0
8.893480480320447 0.7785000884179994 0.0
9.715485963651112 0.5955299613117169 0.0
9.761785841543585 0.7048670948649375 0.0
9.670304314877074 4.578896619304786 0.0
8.058509626083154 5.744161686650483 0.0
6.181795443628869 5.462040811515966 0.0
6.256771804808641 5.338464817889848 0.0
6.124070400983443 5.352376180901929 0.0
6.399679261813415 5.349186390888865 0.0
6.477776305607503 5.46505688468465 0.0
6.541624525938461 5.346017118512589 0.0
6.673064575428321 5.339051516933525 0.0
6.599301548842115 5.241958624987057 0.0
9.573774011620444 0.815274945835158 0.0
5.86493292693426 5.877588788523632 0.0
5.552663040119136 6.957487930464628 0.0
5.535080960199246 6.663033131707637 0.0
3.708603689392072 0.5979254716153909 0.0
3.31896983256719 1.188583855309964 0.0
3.895664898001925 1.128137111173669 0.0
6.363360407965353 6.032416442205533 0.0
9.445959758065749 1.070139246426051 0.0
9.50632172780449 1.214052376665338 0.0
9.441030033980638 1.325047485624912 0.0
9.295799464644857 1.341410624832976 0.0
9.184164107767781 1.461677744200096 0.0
6.407191016756832 4.407273313799791 0.0
5.544591888593027 0.7652641669375747 0.0
7.883090151006535 2.497506182548758 0.0
8.073420508370992 2.120510489750234 0.0
5.494822040671399 4.732314720081375 0.0
0.8986976806403217 1.464611451578306 0.0
9.536325549598013 6.83286654168725 0.0
5.972289519322897 5.727532110854501 0.0
9.82203607053145 9.443411729566549 0.0
7.263199949874008 7.064207941227515 0.0
7.233659553805083 6.853135694774254 0.0
9.793310082768443 7.072747972018893 0.0
6.734168931095253 9.67499220075154 0.0
6.941134861034159 9.382328333169653 0.0
7.285822522704258 9.443989747444657 0.0
6.576263515512108 9.333035011158342 0.0
7.160560566479093 9.127732577621245 0.0
6.218711947378506 9.298064908857533 0.0
6.432383355119106 8.980985203293491 0.0
6.795390278360442 9.046043538032663 0.0
8.54677014121837 0.1957422484480979 0.0
8.528696320820908 9.804850950580938 0.0
8.42644965647489 9.604735484095604 0.0
8.010239224104339 9.715048083583248 0.0
8.644359648763341 9.628432815860457 0.0
5.344212921686536 5.526744195650314 0.0
9.760936589662048 7.38409687515441 0.0
9.128187788393989 0.1445485608215519 0.0
9.133307661752394 9.854833215426817 0.0
4.867351616228264 3.944459575003425 0.0
5.905323253270366 7.385600364255367 0.0
5.909045412185362 3.361969954191194 0.0
5.80580919758911 3.569999290452344 0.0
5.578230704221431 3.587842862412673 0.0
6.013352753603037 3.550699073477782 0.0
5.936624955014758 3.721630401607248 0.0
5.735413275357409 3.78528948606432 0.0
5.512538847486775 3.794760621907932 0.0
5.360571639388366 3.618649018042938 0.0
5.134141179590394 3.459385929220745 0.0
6.167399567008798 3.367365990358096 0.0
9.766756262206602 8.291756450136036 0.0
5.486063578307141 9.64505925252771 0.0
9.497624614180321 4.328873442170357 0.0
9.811387324954623 1.570516917365688 0.0
9.389210081887331 4.69150887571586 0.0
9.704395728912932 3.754226393630331 0.0
9.808172776193384 3.748784464356272 0.0
6.549660911932182 4.839747932361234 0.0
6.757415124099031 6.077939876843736 0.0
3.805578542126494 8.040840085419626 0.0
4.232580149691158 8.198659880701744 0.0
4.559765382564095 7.87091698350757 0.0
8.3829075948167 0.9495097054886067 0.0
9.8571301061408 1.456307792614791 0.0
2.005900212453279 4.535525273813588 0.0
1.85904408608185 3.956445706785572 0.0
1.979307922430775 5.474327285927505 0.0
4.387923194305381 4.427191306527721 0.0
9.429258370703248 8.873693567695483 0.0
8.99196583083892 4.664567567015693 0.0
3.050357122593155 5.368999067452741 0.0
2.861107385476722 5.785089447130829 0.0
5.005058958272409 3.711196438448062 0.0
9.8972295764837 2.755337284632969 0.0
9.581048890980513 8.853909321617065 0.0
9.668838904423916 1.762418716497425 0.0
9.716576458425756 1.852218615166234 0.0
9.799043132681442 1.780583141193779 0.0
7.661868217848455 2.880323287492419 0.0
6.780136552904057 5.443858690999834 0.0
6.489544866845868 5.913957888434588 0.0
6.880149522020364 4.134257616716107 0.0
6.970134365280068 4.264072319341612 0.0
2.225481516813409 9.348422240784 0.0
1.843418032490818 8.641605249943353 0.0
2.198000805242772 0.6459947140825729 0.0
8.740020306282506 0.1903932731609072 0.0
6.86957996016679 4.720776242956433 0.0
7.430920333506809 0.2702852342693345 0.0
7.302066064947383 0.6134316505458445 0.0
9.305398039877746 4.64854361125207 0.0
4.078151380865065 5.203425462519088 0.0
4.080704120371218 4.778853303303787 0.0
8.052525541571825 5.965483159581719 0.0
6.367194027835946 4.754896037842673 0.0
8.604191121620719 7.648182513679963 0.0
9.546446695207845 9.234701521982952 0.0
9.018652854946867 3.351011585453845 0.0
9.143853648154607 3.350173119015413 0.0
9.067079866763024 3.245174561579149 0.0
8.991492136849105 3.135578770028028 0.0
9.29603967712795 0.1426516429033488 0.0
9.392428271030795 0.2506306237151588 0.0
9.223973843394301 0.2912279164401488 0.0
8.39375191941536 3.018777714002827 0.0
8.4836475746111 2.88135207267795 0.0
8.741089053946197 9.821127577434911 0.0
9.803966507713174 5.448064463539533 0.0
9.748132240148552 5.359371181503531 0.0
9.850258990973547 5.355211921626304 0.0
9.7965346514158 5.266762244994661 0.0
9.84142096963129 5.171050273734619 0.0
9.738843612428232 5.167483913244169 0.0
9.64168976006725 5.359875132194057 0.0
3.335917453809221 5.671837672982919 0.0
6.962669142802881 1.683222554707996 0.0
7.365210844496719 1.887492842536114 0.0
7.517378971174123 1.677983072937792 0.0
8.00383870208024 6.089394601875145 0.0
1.725435941000569 2.759295503019395 0.0
7.907977929549089 5.102827208603365 0.0
8.052861051278896 0.2683271125209605 0.0
9.80169732768395 3.385443381464333 0.0
9.831597648680848 3.28491948963525 0.0
9.736335895866404 3.316207814499244 0.0
9.597256128490281 3.756160701977744 0.0
8.865819925321706 3.366235906378775 0.0
8.489614436807788 1.757152185195495 0.0
8.88089641144391 1.078983279100314 0.0
7.430923851187758 9.724389499796425 0.0
7.584252919312249 9.509430586267927 0.0
9.744026095940516 2.247117754488748 0.0
9.729961521243718 2.659836747108116 0.0
9.790866569780063 2.558993767350471 0.0
9.736606445116795 2.455104424879619 0.0
9.846806182714698 2.452157456754448 0.0
4.518102112052724 5.141350889745285 0.0
4.519880229178207 4.85678334497067 0.0
9.7302407894617 6.434012603549242 0.0
9.787537474544765 6.523591663056312 0.0
9.744262337067932 6.617499601377625 0.0
9.8406238811518 6.41591236129004 0.0
8.914967252734657 3.579360039684312 0.0
9.154797282599406 5.670753066089419 0.0
4.228839454580575 4.612979739018002 0.0
6.095037541675208 4.42126627187728 0.0
9.304166983880842 9.864854494751789 0.0
9.406445527105628 9.759007358529582 0.0
9.256225114941945 9.700832989525724 0.0
9.796206564635622 2.351215649506205 0.0
9.849373673349081 2.25090453834006 0.0
6.332048155295931 3.511675163099286 0.0
9.069679774213784 3.022879178706259 0.0
9.070599961450037 9.055284879641471 0.0
1.808685691036764 6.331557276533421 0.0
7.120156826652838 4.698481230214924 0.0
7.052894345811342 4.799848851879358 0.0
4.739957520484086 5.369107149361242 0.0
9.389197839958292 7.197139943834638 0.0
9.046688232613976 4.560364044038737 0.0
9.162685461967492 4.562194096410666 0.0
4.227377821420887 1.564128177298305 0.0
9.201090975245227 2.794301402811909 0.0
9.251941624303948 2.677556975242327 0.0
9.186758273070138 2.563916005021366 0.0
9.317609833868786 2.560335260954038 0.0
6.57599191748324 2.437689779955877 0.0
6.305556560534859 2.459112595979303 0.0
6.981058048792093 2.642476994448363 0.0
9.886113463139504 6.510498309609482 0.0
9.250462794607717 6.221362629571698 0.0
9.305373999084068 6.108271307139882 0.0
9.390477915810829 6.228015172491477 0.0
9.44452571968143 6.114582165110393 0.0
9.502105740270528 6.197677857389309 0.0
9.31559697209813 6.331647407124485 0.0
9.370938253597153 6.437386206819511 0.0
9.594764406124872 0.1099001288712305 0.0
9.602872681151728 9.894988341116305 0.0
9.622661196143387 8.076680696281343 0.0
9.769069277144705 5.9102532189237 0.0
2.615076109785583 8.807551523115547 0.0
9.658920005405456 5.730890135691177 0.0
9.76063135061807 5.720703211793342 0.0
8.63963723169499 7.177334225227945 0.0
7.841904391869763 6.41346852896409 0.0
7.764520718520185 6.297267738834625 0.0
9.546492996136271 3.465225175657335 0.0
9.25600964352143 2.219157062786616 0.0
7.625057159226293 7.012987957636062 0.0
9.529121062829038 7.730283486008674 0.0
8.329887090625894 3.845190321147069 0.0
8.265841850823831 3.95687001944245 0.0
8.402006523775544 3.947660780406651 0.0
8.128436391670505 3.968543393650448 0.0
8.46705122470662 3.835767362024195 0.0
8.218867047074696 4.063481375518748 0.0
8.089763413611255 4.08062363292928 0.0
7.939578083855268 4.111915744184436 0.0
3.74991304509639 6.615676756107112 0.0
2.627714335615619 1.170993030860914 0.0
7.046129971268607 6.759930788612616 0.0
8.534603732661887 7.486325780553722 0.0
1.569381386467569 2.042794535871475 0.0
6.228703743210918 1.986421863690014 0.0
6.467030855792859 2.67190498312861 0.0
9.272246093269825 1.975478263632296 0.0
8.05269609263041 3.854522845257449 0.0
8.008595521536957 3.177870309354594 0.0
7.929796740504207 3.350600835935766 0.0
8.048703574664067 3.449582532910417 0.0
9.72947480375618 4.973926800124758 0.0
9.784850360535604 5.072865219810449 0.0
9.896036387646596 5.069261557893528 0.0
9.633140953203334 5.168645132864771 0.0
9.558102991128836 7.602453108835212 0.0
7.278758746505716 3.994295887299482 0.0
8.306681733482405 6.936428510427854 0.0
9.487163072013963 3.757777670075558 0.0
9.532950522284125 5.359403698944497 0.0
9.816036650072329 3.927268437107025 0.0
6.173882586235392 8.734645960664665 0.0
7.972518459433741 5.003005338485466 0.0
8.398453459336153 1.601072016988848 0.0
8.97460527296194 4.040886705742754 0.0
9.037941657530773 4.143578781749325 0.0
8.849604200183613 3.828506169652706 0.0
9.545296177100065 4.042698359132156 0.0
8.595941796785514 5.806754902023664 0.0
8.65588412428292 5.694192853853139 0.0
8.723710665131787 5.801528918332044 0.0
6.861288985046249 6.673713222735126 0.0
8.87477249219366 4.664500928777609 0.0
8.72385765226959 3.608276264790996 0.0
7.145228858696953 5.573648565429618 0.0
7.282945121585866 5.558559688509987 0.0
9.224761401603633 1.602363370249125 0.0
9.609115686587552 2.986868833620756 0.0
9.633989947851914 6.628120633848649 0.0
6.046214325132457 5.45615093027661 0.0
9.017014346798927 5.271996636983457 0.0
9.070824864071271 5.168510834798647 0.0
9.189021391555556 5.166867900487267 0.0
9.123328759137758 5.064718588163964 0.0
9.240587446378079 5.06459430516883 0.0
9.250848280531756 5.267364371053135 0.0
5.773050603406019 5.7192906317521 0.0
8.576466432793914 4.3559007860436 0.0
8.634627802680399 4.253467736542067 0.0
8.461790117175607 5.591735227444779 0.0
8.907610717370224 3.713397213891439 0.0
9.80665594564509 5.628066492225966 0.0
8.985935132601089 4.455263493464225 0.0
9.00640209566022 5.067597672073404 0.0
9.833659276096986 6.976519563917422 0.0
8.0283368553477 4.687271895436317 0.0
8.326580191759327 9.127498457128247 0.0
8.650637373791266 5.07513089931925 0.0
8.701067313435203 2.700069743477523 0.0
4.825307249916392 4.884175191874744 0.0
9.418335984190309 6.858444798015129 0.0
3.91434687300816 8.542956908935874 0.0
5.569239724399552 2.064135034637056 0.0
5.234271567762738 2.128974435011933 0.0
5.757920427527626 2.312422707096966 0.0
5.43365689737979 2.427455772745759 0.0
5.673210219624612 2.602111218343444 0.0
7.214258468265766 6.652783071431555 0.0
9.823626269633962 4.30685540664529 0.0
7.96996639420014 4.794005510174826 0.0
7.616003332725032 0.502676560965646 0.0
3.050634530589821 4.659174799474146 0.0
2.870894249800723 4.246924313393336 0.0
5.285393339952368 6.079037173753393 0.0
9.439954241218905 4.23581687956071 0.0
9.67709722097145 4.710772408106511 0.0
7.40767785509217 4.259947873553335 0.0
8.396202587439676 5.486075637998701 0.0
8.323689688705493 5.372061002264632 0.0
8.191312386254125 5.384662546230823 0.0
5.304380054816289 5.369675374029755 0.0
9.093848379546637 4.047647920840374 0.0
7.916313220758624 3.045043876114836 0.0
8.435854831444637 4.144861908356168 0.0
9.060262453079693 0.7340576053322918 0.0
7.053195520344596 5.238809779682351 0.0
9.621762679347093 2.45205452967588 0.0
8.410730269104743 5.287995309529392 0.0
9.655094569234972 3.472720279371932 0.0
7.982140513923982 6.667914768024983 0.0
8.402690325256646 4.883576657130221 0.0
9.17488654147479 4.962006474835693 0.0
9.013188196102961 8.49700148123058 0.0
9.795977244531603 2.156818021002043 0.0
9.893813711206834 9.545820400859157 0.0
7.965349232662289 4.250048884270795 0.0
8.644264557989125 4.874751532150782 0.0
8.215430976121077 1.26077208565765 0.0
8.379717637669398 8.37324652769609 0.0
9.320026533461409 5.559861899725609 0.0
7.885778178744864 0.4977439426642278 0.0
7.547066983926719 5.125166613071239 0.0
7.657542898944819 5.122996245335209 0.0
7.423918840193691 9.000935553397358 0.0
9.854133000712425 5.541931969512857 0.0
9.328508174398952 2.101486405523264 0.0
9.300749600926641 9.530012105354274 0.0
8.130307182491519 5.277079344947874 0.0
8.346752967392757 4.987627363826086 0.0
9.118404185029991 6.007087846617186 0.0
9.048232213728614 5.89431792713258 0.0
9.088340967655858 5.576242562571367 0.0
8.094762487139027 4.789727191449318 0.0
9.915265904493378 5.749591413470928 0.0
9.92169805280126 6.154216704502091 0.0
9.918022441582268 4.549125436287157 0.0
9.919332362905616 4.849536560132457 0.0
9.914800786693318 6.750595509794719 0.0
9.811792900437824 6.703950687575952 0.0
9.900643083988882 3.749855087409844 0.0
9.912423171222734 3.043228996968949 0.0
9.91892875832665 5.949999999993851 0.0
9.913300070218703 3.960831593817277 0.0
7.709347001661226 4.444236534782706 0.0
7.479443107717332 8.071637285053104 0.0
8.839057072155848 6.807845119358974 0.0
8.972330068019902 6.78765448182788 0.0
8.542093772125282 3.941452413628317 0.0
8.279144752968262 5.930387616620717 0.0
9.393455876855919 4.973162505621418 0.0
9.507123333872533 2.855087674515822 0.0
8.77504684283825 2.317347145885344 0.0
8.394133129040345 4.464046960801843 0.0
5.725509852450801 8.210843960481027 0.0
5.62632390239664 3.967637659758752 0.0
7.910815814627989 4.900765971697654 0.0
8.595808444085467 5.590040244353608 0.0
9.705160502006024 0.8106158419444889 0.0
9.82021247904746 0.808810893177099 0.0
9.218352146075844 4.447736986422823 0.0
9.20781892622228 3.858281726888132 0.0
8.713609974387523 5.178241668554946 0.0
3.55755059259364 8.921522400238844 0.0
9.59122926011489 5.452844834281716 0.0
9.70565100407009 9.77887811062354 0.0
9.826938454219809 9.74303055702321 0.0
7.238962096855633 3.278078153406256 0.0
8.575609105166194 4.567807831727537 0.0
8.936449841121737 4.765835458965493 0.0
5.59323463391086 9.248527978398117 0.0
5.280809113285124 4.886132326418428 0.0
9.328132730893216 6.544753806716806 0.0
9.026944889277736 6.67247283515637 0.0
9.81946239021469 3.007926663525007 0.0
8.677633568960493 6.144049349297466 0.0
8.33427489656924 4.571212803519522 0.0
8.55734024448315 6.382535186588269 0.0
8.692399379422756 6.372347713955898 0.0
8.495817478252626 6.503308565233578 0.0
9.905494734661673 2.544078755559835 0.0
6.177101405266569 7.228490244483556 0.0
9.825373011845263 5.807482724503027 0.0
9.808678508609606 8.118683092442964 0.0
8.397717712407108 7.08010313863416 0.0
7.428555529689225 4.935946611338556 0.0
9.575504958128711 6.125633853639113 0.0
9.154066996197898 4.146562596982661 0.0
8.074381802159323 4.337569667261167 0.0
7.018337246891919 8.843475095716133 0.0
7.970627172560641 2.658650028065857 0.0
7.382546388883145 6.723381543491632 0.0
6.822972334933889 4.884555620881615 0.0
8.343732976791593 6.041576709398377 0.0
7.743680217306919 8.423336160305476 0.0
8.505717922983454 1.115022897794028 0.0
9.113973198216474 6.992972408167606 0.0
5.818882632841168 5.300437503812764 0.0
5.951991891717714 5.279516346785062 0.0
9.450183479138845 5.92934813870612 0.0
8.783346541536119 5.48419035750989 0.0
9.38074895894124 5.65076274999803 0.0
9.513658728876734 7.193620441323493 0.0
6.396040948797887 6.776064256962667 0.0
5.389661780244388 4.89715084345563 0.0
4.473247649068957 5.85935163892416 0.0
9.249586607512612 8.37680799459232 0.0
9.103796366487646 8.379197231055114 0.0
6.274057301184156 4.87985402946409 0.0
9.259628836118232 3.561431822636308 0.0
4.037922477011971 5.489409780163391 0.0
5.62712958624254 4.893925433488392 0.0
8.806426003347967 6.133410188141932 0.0
9.53304466499349 9.59279975429444 0.0
9.542890959420024 1.966631379116419 0.0
7.459736176874619 5.863847835420528 0.0
5.937613117200432 4.89232797168023 0.0
6.171611131472617 4.879541833448487 0.0
6.100695199816815 2.291172318314745 0.0
2.315194906726768 8.081958163666464 0.0
6.878489987598286 5.148099521847569 0.0
9.105264414399338 8.639184652727645 0.0
9.20047261316883 3.457820810661327 0.0
9.895329010385955 7.55944047105717 0.0
9.912742873006831 7.76210330502246 0.0
9.37761459375249 3.168397068877758 0.0
8.946121261512507 6.345629828835438 0.0
9.918632496443566 4.449809517365367 0.0
6.848211525651934 5.945010613369067 0.0
9.915721525903255 2.047407395915179 0.0
6.117255841708726 5.163321965161054 0.0
7.276595248786602 5.347247322210079 0.0
6.32682869954104 5.23674259421017 0.0
8.785886448438022 5.692775375342819 0.0
9.099994401883361 6.776698531382792 0.0
9.913397459621638 0.2499999999998165 0.0
9.910352525643928 0.4481571029410266 0.0
9.907850422008579 0.5479735220323012 0.0
9.911983631350465 9.24778487019403 0.0
9.917634740384067 0.7514684821956668 0.0
9.195214232985496 3.254172408378337 0.0
5.000896927376288 1.846006038077654 0.0
9.917172478547403 8.250155740683276 0.0
9.908120476950126 1.742986232208194 0.0
9.914524635720774 1.949567899316728 0.0
9.907358878377153 9.145625165175748 0.0
9.917695944922635 8.949999999998397 0.0
7.648387553139914 5.325741673607362 0.0
9.605343588986079 4.130627398479715 0.0
6.648113233057817 6.774798386229164 0.0
9.910347203087213 8.446729917003672 0.0
9.913623694530468 8.548470085896316 0.0
9.9201245863254 1.536225488581779 0.0
9.906538426683255 1.059019360781604 0.0
9.912867352010919 8.74999999999809 0.0
9.799662981388353 8.79550485462418 0.0
9.831828680383174 5.99966894118311 0.0
9.91414179906643 1.263025320602998 0.0
9.920690092699912 7.240982963665807 0.0
9.385889285950551 2.235126904097426 0.0
9.28133998925606 8.00415195851526 0.0
9.817074723108401 3.172398890123306 0.0
9.482030285089927 7.512954023388035 0.0
6.682432918504054 7.233889573028878 0.0
8.528699633246763 3.260502457553277 0.0
8.91699963742029 2.327016692708648 0.0
9.267676068834481 3.954520684561369 0.0
8.70811637467455 4.974101624783084 0.0
8.18184214270768 7.816666208279135 0.0
9.690393137288163 5.264344933127836 0.0
6.937111790104696 5.245184991960528 0.0
5.895846026722989 5.174232967273284 0.0
8.281683356622615 6.400073017261236 0.0
9.150883172924027 7.444273543454419 0.0
5.430406600793122 3.390815886517273 0.0
5.049583827974758 5.697634876048387 0.0
8.3966710383105 3.495813899905868 0.0
9.007538428392454 8.046563579784266 0.0
4.645155158868719 2.637132843684674 0.0
4.887444326771336 2.30020425915506 0.0
6.483736782775559 4.522536327482678 0.0
7.843169154548308 8.2116075844056 0.0
5.06295551628385 4.901632590583318 0.0
7.201400991012747 5.138239336380897 0.0
8.519791031104612 8.848807089071627 0.0
8.658623737989732 3.031313729049854 0.0
7.585566208322493 3.629882964874684 0.0
8.411818469596405 6.834326722716643 0.0
9.172363528634236 7.669230647622864 0.0
8.85455683341768 2.682483055215344 0.0
9.359398739738925 1.631421337140716 0.0
9.071793864444992 7.337030604117359 0.0
6.968394563521436 3.712808894519514 0.0
7.899236117684646 7.094583340182754 0.0
9.54362864504834 9.781852543872333 0.0
7.151298729743687 7.644795130415299 0.0
5.452218361466201 5.186873761308322 0.0
5.517642289161902 5.293540933999446 0.0
7.802500357665464 5.978295671754199 0.0
6.594850839687122 8.491429270558893 0.0
6.029132431949566 8.294997405201931 0.0
9.31286590869111 0.5672913838331921 0.0
9.25238720319541 0.4415953739444106 0.0
9.550589523211062 4.228044955453704 0.0
8.748611832783206 6.250900951984038 0.0
7.566980108995873 3.995148257893202 0.0
7.426142759241261 3.996743578498081 0.0
6.478912513785404 4.000296412419969 0.0
9.30435638148753 5.168210982711592 0.0
7.542154188520517 5.752525075248498 0.0
7.219033852073297 2.139582470800704 0.0
7.370913620388047 6.545121498197235 0.0
5.226731036024996 5.187572666585561 0.0
8.515591031124366 4.462223215179979 0.0
6.762864307079274 0.3078036604979366 0.0
8.587432696997471 4.977010533175154 0.0
8.703948448756302 8.815629076400704 0.0
8.081003990931544 7.370949680119862 0.0
7.424404567669909 6.949730915714445 0.0
8.578903262311433 8.377992954045473 0.0
7.301258690263783 6.106184350645308 0.0
5.991600556904204 3.99820087171043 0.0
8.203048538477193 1.601044215405025 0.0
7.289972483120081 4.572350254111052 0.0
7.714697186439165 5.420586967696794 0.0
8.918853780709807 1.841796898567452 0.0
9.919941345877513 4.749808449067644 0.0
7.245589454939737 5.94251251443003 0.0
9.258480524497795 3.358952871140391 0.0
3.705877615124628 5.574038727593425 0.0
8.287096858129765 7.962370605242409 0.0
6.799629860952143 3.705385600481528 0.0
4.146753450763018 6.544154457143895 0.0
7.413973555029582 5.545687501585183 0.0
8.466524978378082 4.980481756569235 0.0
7.336312153537934 2.337983522449311 0.0
7.695505222753409 3.747498713679684 0.0
4.898236813123799 4.795853653580084 0.0
4.59779105899602 1.896916774247134 0.0
8.560170375862322 7.072369101894893 0.0
8.386150468360862 2.449771437140704 0.0
8.41200018115259 5.084601315536367 0.0
5.102189912301071 7.621598618277815 0.0
8.336320418935243 6.71651223072348 0.0
5.081745734883095 3.977838926197614 0.0
7.63590698378166 0.9500570055008507 0.0
7.743369677149255 3.051233984704873 0.0
5.357527459690566 0.3809996753407537 0.0
5.967373112873382 0.7731113464301924 0.0
8.169449265206127 6.666271947462212 0.0
5.95122726745053 5.55758205410881 0.0
9.922289489207834 3.53923011719877 0.0
9.39154684476555 2.659037023454942 0.0
7.701415639167884 7.690060291860976 0.0
9.819179654793023 1.329863870021845 0.0
8.358229579054417 6.506108206863729 0.0
9.269720555169467 5.657096143475924 0.0
4.473187658045934 7.435037860084884 0.0
9.65807158077373 3.255496360750368 0.0
9.605155446454205 8.713645566904637 0.0
7.097383547728313 5.141197376985936 0.0
9.812212483832656 1.89920712759492 0.0
9.83875570675407 6.81603549325055 0.0
8.926246869879279 2.079976511571457 0.0
9.166785856141402 9.169070814302419 0.0
8.763479010228052 1.587152667342957 0.0
5.957377924852992 6.404530806530254 0.0
7.14506854375872 6.10342416684208 0.0
5.672595070581394 5.164323323112049 0.0
4.899782787268781 0.3801727265981219 0.0
4.447133848117348 4.673614099606824 0.0
7.044865074789195 3.253639989243549 0.0
9.818461337102992 7.819456450952447 0.0
9.925334577033155 7.954012377173311 0.0
6.352907898232792 1.173665225954276 0.0
7.351721385581032 5.660361289755705 0.0
9.337367583861807 2.76534436379692 0.0
8.693118347802024 4.360254099729149 0.0
9.476812970101324 0.3524826622168163 0.0
7.109868985890334 0.9024224571333925 0.0
7.899106846231403 5.511805431542581 0.0
8.352799544476607 5.187887629361129 0.0
6.957483547582747 0.6176251309213842 0.0
8.099559500483094 1.412323841044818 0.0
9.913030944540278 0.8542404645334569 0.0
9.143075088381442 8.022165366829135 0.0
8.819861450593166 6.356592599428041 0.0
9.319444417409162 1.49938505915629 0.0
6.490262520326714 7.118204362551877 0.0
6.490874470087819 6.582907761235813 0.0
9.82506653058937 0.6146757679104559 0.0
6.803129818897624 4.419048038171804 0.0
9.840901379354312 0.08198751964190581 0.0
9.839740374244226 9.918356239418472 0.0
8.551927134544655 9.449788917425456 0.0
9.92097857388158 3.249999999993177 0.0
5.797087413057367 7.077351493358238 0.0
9.255412859987286 6.433984412022419 0.0
8.668174522249984 1.740767926084485 0.0
9.920991430240607 6.25262219124529 0.0
7.57275248448898 1.94367954756322 0.0
8.052865444445507 8.19900054463639 0.0
8.748697149245206 4.25201068974208 0.0
9.158270227735827 0.5542256343091421 0.0
5.997487767477439 4.787924707603557 0.0
6.119759900601896 4.78043793682227 0.0
4.353034750397793 8.619182743639561 0.0
8.721093521611476 5.588932824583312 0.0
5.717101151444983 1.123034066822819 0.0
9.825602081347064 8.68753399402474 0.0
8.005502510832988 8.7824052910506 0.0
5.548184234622668 6.408009287230429 0.0
5.77830300433981 6.598697187164234 0.0
9.613093825495433 4.50282172481406 0.0
9.928981132641653 9.74928475696928 0.0
6.613628176297015 4.515513362596662 0.0
1.822126723816303 1.297795131355289 0.0
9.514164594137375 1.43081427463862 0.0
4.735494753432723 3.698541604583975 0.0
9.52844959749262 8.615213629960298 0.0
4.660704511759056 0.7947595073298008 0.0
6.82340845160293 5.239926830264399 0.0
7.885938077030673 7.380147032865134 0.0
7.884599891021201 6.09005968568029 0.0
8.846834820720167 9.653276456345532 0.0
8.457777199486827 0.3851010632068662 0.0
6.66485224572131 8.771510767670392 0.0
9.091499342133352 9.708315832477556 0.0
9.824286725109655 4.976315293637262 0.0
7.848197684391786 5.632217046637356 0.0
3.88430598115417 4.225391362015386 0.0
8.776890759183289 2.809688928468134 0.0
7.393884285023409 3.59397875231041 0.0
6.927568893329758 4.396788356869783 0.0
4.96854327720728 2.662368428358774 0.0
9.1480130720193 3.951479613991279 0.0
7.071049729490975 2.38092990636632 0.0
3.40193058782919 1.686321186206593 0.0
7.612042194200681 4.815904436723407 0.0
9.043395868401339 6.888481825015849 0.0
9.098933057562759 8.152197681006806 0.0
6.058682303253315 3.857501492181965 0.0
3.707092669281355 2.986685502034343 0.0
5.113272509841263 5.189455016444592 0.0
6.960565857079232 3.416349532571279 0.0
8.755151527375476 7.649255597361291 0.0
3.393680865444538 3.679982303262531 0.0
3.117424600120088 3.35605258976247 0.0
8.530814041264104 5.488376426140491 0.0
4.820719767306654 5.106646490188182 0.0
9.918899263509473 4.144927088739744 0.0
9.918194630017027 7.447268230913605 0.0
8.461970084137805 3.144844565847669 0.0
9.924415919486059 6.949999999995354 0.0
7.184050152099684 2.72771667662237 0.0
8.834356715215904 7.801565642745232 0.0
8.689015446783005 4.145232831954543 0.0
8.490778532265319 8.234414357968106 0.0
8.63666290918932 2.83060276219705 0.0
4.61028976098935 4.741894230894578 0.0
6.314735925012879 4.003132559161639 0.0
9.20786580425652 4.67001723737971 0.0
7.141401229301469 4.873205425098625 0.0
6.235177809922153 4.774126344778935 0.0
9.12491895896937 3.145675090615719 0.0
9.255747684068178 3.162525801823036 0.0
8.312852272796098 2.290855459722148 0.0
1.449266720542303 3.363629101350872 0.0
9.525687840398492 4.800807314407045 0.0
4.829905263804087 8.14474456977717 0.0
9.09338914689732 7.563794106183232 0.0
5.389401689694107 5.283808684471545 0.0
8.530979415204587 3.029374286908943 0.0
7.901489077080633 6.535344047486632 0.0
9.218572924671975 5.760893551533255 0.0
8.562382833959296 4.143913974026883 0.0
8.62959127904665 8.974877485888243 0.0
9.408442441596518 9.62276529745719 0.0
7.5034765601713 3.869833107932387 0.0
9.842813436634783 6.600620949014236 0.0
9.826116984327193 8.911617279149695 0.0
7.529907780698261 0.7369111006685982 0.0
7.832164962480427 2.905293639437395 0.0
8.39517908433056 3.267417602291069 0.0
9.823014010107707 9.085319632577246 0.0
9.022314123618541 3.944559746338292 0.0
4.243701230676532 5.332574856090426 0.0
9.816740542566388 1.127839952679595 0.0
8.166775715766304 5.693916696568397 0.0
8.865374421689054 8.068986769641638 0.0
8.761145809863661 6.470583506581853 0.0
8.998345275919851 9.209303502026401 0.0
9.698477487436316 6.706902829754045 0.0
6.439032098063426 0.3109134377713525 0.0
7.562681994382136 4.643158005207056 0.0
9.03999088074715 0.2799354672273258 0.0
5.180741540467516 3.805018725608906 0.0
6.243990330956698 2.718077286244967 0.0
9.79416634023361 0.1815240178579244 0.0
9.926540005061975 2.847049370876555 0.0
9.826476210374608 2.670192168078066 0.0
6.365816673179121 4.536333049275508 0.0
5.546353765219417 4.618331215552614 0.0
9.820703096450293 2.000649418331399 0.0
6.884388790679166 3.561583980715254 0.0
7.431303395649604 5.747824222777201 0.0
8.849816832721245 2.19318290395604 0.0
4.185147517585975 5.697469360586313 0.0
9.165905238119013 5.873664931582344 0.0
7.70479478158537 1.788324620089049 0.0
9.627376046933474 0.9196091445437269 0.0
6.657687963328663 5.144792385996769 0.0
9.83245016645186 0.3925568446109945 0.0
7.483092985762584 9.253837199159435 0.0
5.445348362202234 3.977855663863651 0.0
7.476680532833337 4.837183287808616 0.0
9.572749890969304 8.505160319814301 0.0
9.915853314998252 9.437014513917465 0.0
7.679469018350979 7.390484878021194 0.0
9.418139053434402 4.790576000488359 0.0
8.096967733471567 5.865447162201908 0.0
9.829153508938724 8.378494945652118 0.0
9.926595955569645 5.157718300415699 0.0
8.774484245600224 7.939747459426853 0.0
8.629764448155779 6.481031318922794 0.0
8.961169458302376 3.839036702328818 0.0
4.617199205561317 5.256318959792646 0.0
8.480815774219478 4.031210317621497 0.0
9.708341592512763 3.401018043990571 0.0
7.183974816647467 4.77882314543966 0.0
9.821437962294304 7.659391965474772 0.0
8.150320284869602 2.286501016204562 0.0
9.828114434347311 1.684891358832554 0.0
5.349187766238684 6.538177907133678 0.0
8.076053471314525 2.76180604769483 0.0
4.907713691134565 5.29818629967416 0.0
0.6874399366049438 4.328593906714074 0.0
0.6980011780697519 5.702671170050627 0.0
8.263861466707834 8.182284285231713 0.0
5.838783785156478 4.913981390426639 0.0
7.807619472656604 7.235706382002089 0.0
9.388504256318683 6.022122644748753 0.0
9.929839894767033 6.436189192303577 0.0
8.3205848711706 3.39107920408397 0.0
3.240770542267401 4.019899919523968 0.0
8.059047070496568 2.468855909103855 0.0
9.932479519490421 2.449625056415224 0.0
7.737639000139152 4.580708137963557 0.0
8.26141077223695 0.3940397126348397 0.0
9.69568953371801 1.959951226402445 0.0
6.469120930453264 4.892267070266994 0.0
9.167223997255698 0.8102256463122337 0.0
6.236889648241256 0.9291076084031108 0.0
8.306379082772498 5.268830342852036 0.0
6.716089118890225 5.239344620507032 0.0
9.82511981852641 9.282822358664017 0.0
6.68375719572285 4.404998642130821 0.0
8.913754712375674 6.908138360584365 0.0
6.173250048857013 5.251634416326969 0.0
4.235907497612446 1.924052997345291 0.0
5.151007663981651 2.438629730660893 0.0
8.924254300637541 9.3764975797567 0.0
4.438612423541503 5.287968640901957 0.0
8.571203234299599 1.897009944569934 0.0
6.878800676380218 5.821332862798138 0.0
5.710626178601224 4.792560699857408 0.0
7.149510071621283 5.216310009157644 0.0
2.099966541549645 2.334742113488256 0.0
9.93396330620579 5.350566393301629 0.0
7.143046479323961 8.646955109387985 0.0
7.965747313080266 5.193641450105844 0.0
6.3314394693073 5.135050228240639 0.0
7.665821333021348 6.222698255001823 0.0
6.305321657053551 4.659816230868476 0.0
7.833020917089713 5.208837056143474 0.0
9.41455902676429 2.869725681199307 0.0
8.567151507735133 6.598605357295113 0.0
7.405527786978573 4.377085529441429 0.0
6.552969697053132 5.137148974085434 0.0
9.93630620742063 8.042778076596578 0.0
7.166743296019233 4.593171678848165 0.0
6.595561806063966 5.839366735225723 0.0
6.066152182102007 5.262519562574559 0.0
9.834694151277489 0.9093455747994099 0.0
8.98259191950674 7.579732466796592 0.0
6.465071238839505 5.25485771955322 0.0
9.759759896588413 3.236659507608532 0.0
4.775529448101694 5.224235675150505 0.0
9.935991245222917 7.153416415978829 0.0
0.6530736820718381 9.352299998916202 0.0
0.6449439415299687 0.6468300344151556 0.0
7.804690364869245 4.495816547678174 0.0
9.84503784553893 5.70620404704573 0.0
9.83525329400959 3.826992990746767 0.0
9.922964894244684 4.265000406933376 0.0
8.333767638401964 1.121219971446645 0.0
8.876012546033895 7.019147158538482 0.0
8.172413577824324 3.413096916572049 0.0
7.232233017296214 4.478957103028363 0.0
6.214597295185415 3.852860083673202 0.0
9.85013791746415 4.400709747289421 0.0
3.941627380932058 6.342995010255737 0.0
3.097271569675528 8.77391871286929 0.0
9.292917152323044 6.010976049411984 0.0
8.104342196673183 5.184165973282902 0.0
8.994300084006271 3.652611812846807 0.0
9.937157897030163 5.549999999993244 0.0
8.721368888525245 7.274540720770752 0.0
8.920003648712827 0.9516585309368178 0.0
7.910527456030004 8.536826514867816 0.0
9.846441288756814 4.60515911863952 0.0
9.584942233925151 4.712073182517884 0.0
9.642357858573972 6.805672051759494 0.0
9.797024725252207 9.838837222258014 0.0
9.842451438022124 4.018973836958878 0.0
6.112723137676118 3.704473949316424 0.0
7.574641969193845 3.765362276156904 0.0
7.826594968121701 6.200366572362263 0.0
7.762805366733504 9.34009502796868 0.0
9.56854033867856 1.012566255816665 0.0
7.71256563655353 5.219373702836014 0.0
9.68039392238282 8.786964504862018 0.0
5.910362452777086 9.277662068919813 0.0
7.418090653922814 3.326443419100716 0.0
9.857704179097952 4.697553149694669 0.0
8.452469674653342 8.996585816905599 0.0
9.522351366699843 2.057525484575908 0.0
7.802315574700843 9.548878971475935 0.0
9.938875656926385 3.449999999992592 0.0
8.425189037911712 6.608575180629274 0.0
5.925965231566842 2.523669697740033 0.0
6.654918072256329 5.95749128982984 0.0
9.826748589235729 9.631118448471485 0.0
8.6684585637523 7.39633999085442 0.0
9.844673843931567 3.090088625379724 0.0
9.93613850661301 2.250382721159617 0.0
9.218291993658738 2.892108990205171 0.0
9.83502846611296 8.212781989607324 0.0
7.754136409732265 7.104288507262783 0.0
8.510570542791681 2.036933285735889 0.0
7.757745059307245 4.315798612475442 0.0
7.989231770559189 6.201656630465583 0.0
8.068934521422738 4.198631572122605 0.0
4.957478134450373 9.038766150325067 0.0
7.208661142641733 6.501402463831379 0.0
7.299506095906239 4.363561999234681 0.0
8.250303873550486 2.105322217421675 0.0
8.678637541413377 7.053471135702286 0.0
9.761528395137384 6.163503990672834 0.0
9.84494857233395 8.59999999999775 0.0
9.83825138794677 3.672838954969637 0.0
5.121008544047756 5.808127183024784 0.0
8.343911550360986 4.043535893276861 0.0
9.85324441775315 5.899999999993774 0.0
9.51114465213134 8.41035540646284 0.0
6.505812179224195 6.93390566262983 0.0
6.15572847138365 9.023097246950844 0.0
3.352081892333425 3.024853379890529 0.0
6.433163283162099 8.675072413910678 0.0
8.825744236698243 3.624446391299867 0.0
4.883007294861279 7.819620905924936 0.0
5.876659170760434 5.638247433601083 0.0
6.859400040348503 6.510797998354633 0.0
7.946400945409184 3.500317276373196 0.0
7.496830255505493 6.653194511698024 0.0
9.852183479755313 4.891525833556942 0.0
9.77998778436291 2.922486526124376 0.0
6.774672660492365 5.324728659740495 0.0
5.717254072187427 6.824125962512845 0.0
9.713440940838062 4.63793103997539 0.0
8.859858662536796 0.2721395536350836 0.0
8.37556017530946 9.436653414116012 0.0
7.395237381047616 7.885576562773319 0.0
5.4709157802033 4.511152089197594 0.0
9.489749416979361 9.691840729914848 0.0
4.599216022837964 3.46438688931078 0.0
5.572287492757569 4.807021644849729 0.0
9.926499336309957 9.92730688390086 0.0
9.926499336310107 0.07269311609890093 0.0
9.338127766332573 0.3585313952168247 0.0
6.810761948165162 3.414693294319008 0.0
8.166274345037138 5.943611545564389 0.0
5.2892644736731 6.301081312912763 0.0
9.731911074791544 7.649313380659622 0.0
8.90251102352767 9.50983415326544 0.0
8.997881406541017 1.033666784655452 0.0
5.835124768755703 2.738139962594905 0.0
9.665357480775825 6.185331297099201 0.0
7.656532192558493 8.217157287499347 0.0
9.170463887605525 2.975444721032631 0.0
4.208158615905443 0.8648302238584886 0.0
6.97015686031129 5.933674629077266 0.0
6.181941366523793 3.565885175921835 0.0
3.30313590337911 6.393402837735046 0.0
6.447482061767014 4.816169316820496 0.0
8.185341428749446 4.169172087371246 0.0
4.552595724340015 8.298301336212145 0.0
9.84850676569699 8.999999999998423 0.0
9.846941514449377 7.393642828194986 0.0
7.924592433490734 2.788309934035703 0.0
8.154308714226714 8.853640122009672 0.0
8.876629743004642 1.96110242719995 0.0
7.228849192966834 8.90811350348676 0.0
9.852301635085423 8.296637825215246 0.0
5.219795195341889 5.547413133147649 0.0
9.861497117995457 6.901363010201344 0.0
2.953911258021604 6.136007283255669 0.0
6.93158841067062 4.77708273647784 0.0
9.67540418457871 2.912802891506324 0.0
4.194055958522277 4.437353127730132 0.0
6.133959559341536 0.406856611599261 0.0
8.29952795189331 9.309744645643846 0.0
9.843692337952948 1.209647690818311 0.0
5.164986286280336 6.671544079402435 0.0
9.838533350075606 2.081705440779448 0.0
8.301244777513975 6.604088853319459 0.0
5.471494771710784 2.714598185146428 0.0
8.86534684892311 1.208599471795828 0.0
9.940610684232212 1.451558535868664 0.0
9.40896208432968 1.428353940655538 0.0
2.329177605337097 4.238803555614174 0.0
5.980761651517799 7.182207186682233 0.0
9.66541573964336 0.1719254072074424 0.0
7.220979380229172 7.806128737674462 0.0
1.251721227904697 6.151932667911503 0.0
8.104967286191181 6.057912607875576 0.0
6.650768762224724 4.817922869198292 0.0
6.634976350437587 3.213339182992986 0.0
7.034320437500567 4.898219100342838 0.0
9.502772020064167 6.283064492634301 0.0
8.13187938667684 3.518506862055515 0.0
9.855471943454193 2.599999999994991 0.0
9.056747742708522 8.263936599935574 0.0
4.352645795441222 5.724453640019 0.0
3.744263984699181 1.488951698361357 0.0
5.175860134287045 3.6375726667098 0.0
7.736434712114619 6.400417475661193 0.0
9.857658576695343 6.316607183405179 0.0
7.876525261950537 4.304285002335559 0.0
9.856114384785611 7.914602773442983 0.0
9.848334119947063 0.7059644476295188 0.0
9.59694321995579 6.895814046141667 0.0
5.906465212962551 3.869023950643881 0.0
9.840676994268005 9.364956386459765 0.0
5.355015287544095 3.83518170601625 0.0
6.374090407153147 5.855743754257685 0.0
8.227401290513832 5.297819733684674 0.0
5.451235131977493 4.825706629991923 0.0
6.022070213762754 5.355923882747634 0.0
9.845674433677614 6.108401449483281 0.0
9.835067400944396 7.739582406783081 0.0
8.602026805792988 2.941372356914139 0.0
5.059869081004962 5.269480960018243 0.0
5.284714507903736 5.26496663762182 0.0
9.627110479149561 7.660076105040499 0.0
6.820001127809743 4.792514421153957 0.0
5.120512795059439 4.806607659110254 0.0
9.56933817216883 2.911464407429096 0.0
9.74091654291531 9.267545397628387 0.0
9.93006767325302 6.576784040838644 0.0
9.642486276936268 4.650227701598451 0.0
5.185183328569137 9.410919109238325 0.0
9.37052946854105 4.605636695802024 0.0
1.677077220416309 5.871167715901136 0.0
7.345783833404538 3.184020711886284 0.0
5.419239942654976 5.982692039856376 0.0
6.133318300188262 2.551919945731369 0.0
6.187291396343277 4.499077117404439 0.0
1.231465237822878 3.921479198315213 0.0
8.969849937139944 9.699215363213542 0.0
9.218303154263054 6.037447959776716 0.0
CELLS 4886 19544
3 1113 1356 1450
3 1402 231 1659
3 272 269 1414
3 396 394 1777
3 1451 945 1452
3 194 81 1801
3 1847 1501 2104
3 2024 2121 2479
3 1115 1113 1450
3 1124 1413 1844
3 1061 1955 2409
3 307 305 1645
3 1592 1369 1593
3 238 1501 1847
3 1955 1883 2409
3 1808 243 1910
3 1885 978 2362
3 1440 793 2092
3 189 1488 1608
3 353 350 1864
3 2007 2231 2232
3 307 1645 2493
3 1096 1760 2496
3 2178 874 2179
3 621 625 1595
3 1493 1480 1938
3 1655 1268 2137
3 1341 1410 2212
3 243 1808 2360
3 1902 1446 2516
3 1760 1096 1763
3 856 790 2180
3 2008 2046 2105
3 789 1809 2067
3 694 1543 1575
3 1127 1762 1953
3 1748 807 2228
3 1543 1308 1575
3 820 1872 2170
3 1417 954 1998
3 1369 1592 2386
3 272 1414 1787
3 329 333 1998
3 1544 1095 1545
3 2231 1490 2232
3 1342 1683 1790
3 374 377 1797
3 807 1678 2228
3 1665 198 2128
3 141 142 1620
3 325 322 1952
3 231 1402 1654
3 198 1665 2010
3 1890 1307 2387
3 208 1438 1619
3 2016 1970 2156
3 1436 212 2020
3 954 1417 2333
3 1736 1894 2244
3 1491 1750 2143
3 1677 1064 2146
3 1474 1258 1475
3 1500 233 1930
3 1446 2415 2516
3 1700 973 1800
3 2128 2270 2316
3 1316 1315 1593
3 1307 2341 2387
3 2258 1324 2328
3 1083 1507 1508
3 693 1095 1544
3 621 1595 1596
3 667 1571 1872
3 1932 1766 2061
3 393 391 2240
3 1342 1790 2400
3 252 1707 2234
3 931 978 1885
3 1430 1116 1704
3 1411 1109 1714
3 1478 1227 2440
3 1990 195 2297
3 1792 1167 1985
3 1682 444 1975
3 394 397 1777
3 1711 2028 2162
3 1574 856 2180
3 2008 1851 2046
3 736 1493 1938
3 1069 1060 1662
3 1458 455 1754
3 862 691 1705
3 1161 1642 2286
3 1699 1700 1800
3 447 516 1637
3 955 1482 1483
3 2024 206 2121
3 391 1773 2240
3 1072 1412 1893
3 212 1436 2350
3 1566 1365 1568
3 259 1441 1672
3 872 870 1764
3 330 328 1889
3 1539 1161 2286
3 1897 1898 2275
3 1434 1990 2297
3 1109 1411 1730
3 319 307 2493
3 1762 1761 1953
3 1369 1316 1593
3 1540 834 1832
3 1505 652 2442
3 1732 1655 2137
3 921 1712 2295
3 1872 1388 2170
3 1712 921 2125
3 2028 244 2162
3 1506 1570 1680
3 1569 368 1964
3 1571 667 2375
3 1587 2178 2179
3 196 1723 1737
3 524 2016 2156
3 1528 1250 1733
3 1115 1450 1973
3 1938 1480 1971
3 1809 1396 2067
3 1641 249 2299
3 1223 1258 1474
3 1365 1566 2120
3 1981 962 2316
3 1538 353 1864
3 455 1458 1756
3 152 233 1500
3 1116 1430 1703
3 817 652 1505
3 1347 2003 2004
3 1607 1958 2085
3 194 1801 2195
3 1410 1341 2351
3 223 1415 1710
3 197 1511 2346
3 2198 787 2225
3 81 82 1801
3 1438 208 1620
3 1444 522 1823
3 1511 197 1950
3 726 718 1567
3 1637 516 1739
3 1708 2337 2341
3 1280 1649 2124
3 2337 1395 2341
3 1327 1709 2315
3 1225 1227 1478
3 691 624 1705
3 476 2224 2305
3 830 832 2204
3 1750 1491 2403
3 1366 1897 2275
3 2345 1583 2352
3 2054 405 2110
3 1984 2172 2230
3 1846 2198 2225
3 1177 2042 2418
3 2121 1367 2479
3 1527 1531 1541
3 916 1039 1834
3 1413 1124 2467
3 1622 1503 1868
3 249 1641 2019
3 1805 405 2054
3 1761 1007 1953
3 1415 223 2395
3 960 1756 2203
3 368 1569 2135
3 1402 1659 2473
3 941 1433 2471
3 1267 1477 1501
3 260 2002 2265
3 1704 558 2077
3 2224 1886 2305
3 2053 1386 2199
3 1452 945 1952
3 1717 1611 1718
3 1682 1975 2230
3 1760 1762 2496
3 1481 203 2104
3 1264 1266 1670
3 142 236 1620
3 2133 1182 2179
3 1791 1602 2183
3 350 346 1864
3 1412 1072 2393
3 1281 1575 2255
3 1565 1948 2155
3 849 1449 1513
3 1958 396 2085
3 1339 1069 1662
3 834 1540 1917
3 269 267 1414
3 1268 1267 1501
3 1440 2092 2468
3 1399 1981 2316
3 1635 1636 2041
3 1454 252 2234
3 1451 1305 1890
3 1375 1883 1955
3 362 366 1786
3 1484 2410 2528
3 1449 849 1640
3 1267 1474 1477
3 200 1611 1717
3 1054 1581 1582
3 1350 1977 2253
3 190 1390 2118
3 788 1956 2193
3 1709 1327 1888
3 2233 2298 2413
3 1488 189 2355
3 478 1685 1714
3 230 1525 1690
3 1687 478 1688
3 427 429 1756
3 1570 1065 2476
3 1880 1133 1988
3 1649 656 2124
3 1537 209 1614
3 1134 1769 1986
3 1220 1268 1655
3 396 1777 2085
3 1167 1755 1985
3 2229 1744 2296
3 1575 1281 2287
3 127 240 1882
3 377 647 1797
3 954 329 1998
3 220 1697 1698
3 1342 1341 2212
3 1441 264 1672
3 1512 188 2433
3 763 2345 2352
3 1685 1411 1714
3 1805 1188 1951
3 1347 2004 2157
3 1054 1582 1667
3 1333 1617 1674
3 2217 73 2361
3 1539 1036 1917
3 1039 1292 1834
3 208 141 1620
3 1965 1964 2038
3 693 1544 1969
3 1453 239 2279
3 203 1481 2049
3 945 1451 1889
3 680 1459 2134
3 354 2147 2196
3 1405 1932 2061
3 1723 1722 1737
3 1748 1175 1927
3 1532 1528 1733
3 2057 1824 2154
3 1406 1659 1702
3 1948 1186 2155
3 210 1598 2114
3 1685 478 1687
3 1324 1325 2328
3 1526 1250 1527
3 165 166 1509
3 1493 736 2523
3 1526 1527 1541
3 1390 190 2417
3 522 1444 1998
3 1680 1570 1732
3 1017 1442 2525
3 374 1797 2430
3 1507 1083 2197
3 1756 960 2221
3 2270 1400 2316
3 2205 1452 2282
3 1074 1187 1888
3 2158 1245 2200
3 1442 1017 1684
3 864 1116 1703
3 1750 1751 2143
3 1456 516 1492
3 1677 2146 2149
3 2022 1339 2388
3 1602 258 2183
3 678 1594 1595
3 1245 1670 2200
3 972 830 2204
3 2143 983 2342
3 1268 1501 2226
3 1266 1461 1670
3 1487 222 2465
3 1382 2022 2388
3 58 59 1661
3 2147 1543 2196
3 1484 1485 2410
3 628 2053 2199
3 1906 1549 2259
3 364 362 1786
3 1339 2022 2247
3 1636 525 2041
3 625 678 1595
3 678 1593 1594
3 2212 1410 2222
3 1837 1865 2215
3 1699 1800 1801
3 866 864 1703
3 893 1472 1982
3 1735 1736 2244
3 1633 1255 1922
3 126 127 1882
3 681 867 1656
3 1351 1401 2363
3 11 228 1588
3 1127 1953 2454
3 265 266 267
3 1722 1122 1737
3 1389 1691 2069
3 1613 1610 1616
3 1227 1256 2440
3 429 455 1756
3 1535 1177 2418
3 322 324 1952
3 973 1700 1802
3 1964 368 2038
3 1176 1865 1866
3 1096 872 1764
3 1176 1866 1875
3 193 1839 1892
3 156 157 1441
3 615 617 1596
3 686 1520 2480
3 1409 2097 2305
3 2410 1151 2528
3 1427 2217 2361
3 440 1911 2314
3 1744 1743 2296
3 516 1456 1739
3 1939 589 2164
3 690 931 2150
3 1062 1579 1580
3 1054 1580 1581
3 955 1483 1716
3 1064 1677 2248
3 1956 1616 2193
3 1776 1893 2026
3 1398 1115 1973
3 2002 1453 2265
3 1541 1531 1542
3 216 2191 2536
3 1736 1326 1894
3 1065 994 1066
3 1598 2115 2175
3 2314 1911 2358
3 1433 941 2042
3 2115 1209 2175
3 717 1550 1551
3 188 1941 2433
3 267 1132 1414
3 771 1569 2064
3 1157 1545 1546
3 1231 1250 1526
3 1933 240 2181
3 222 1487 2025
3 1525 230 1765
3 1430 1704 2077
3 757 1744 2495
3 264 263 265
3 883 773 1917
3 739 2205 2282
3 1667 1582 2434
3 1744 757 2474
3 239 1453 2002
3 1441 259 2356
3 2005 1443 2012
3 254 1766 1932
3 1509 166 1679
3 1477 1475 1481
3 793 1440 2165
3 1385 1523 2377
3 1481 1475 2523
3 156 1441 2356
3 1066 1220 1655
3 945 325 1952
3 2094 2087 2134
3 1747 1175 1748
3 253 262 263
3 1327 1074 1888
3 718 715 1567
3 2046 1043 2105
3 240 1933 2399
3 1305 1307 1890
3 224 58 1661
3 1195 1566 2285
3 1590 1393 1749
3 1255 1230 1922
3 353 1538 2073
3 358 1999 2325
3 882 1802 2036
3 1024 1020 1604
3 333 522 1998
3 1401 1351 2414
3 1475 1258 1476
3 2310 786 2364
3 328 945 1889
3 807 1748 1927
3 825 724 1912
3 1742 263 2491
3 267 266 1132
3 2077 2102 2203
3 1431 1432 1860
3 1212 1957 2312
3 2097 476 2305
3 1132 1402 2473
3 717 713 1550
3 1746 693 1969
3 1372 1124 1844
3 1256 1541 2269
3 1977 1350 2274
3 2332 1978 2443
3 874 2133 2179
3 1983 1534 2171
3 1157 1544 1545
3 1230 1228 1922
3 1580 1579 1581
3 1565 806 1948
3 1416 1363 2413
3 1287 1995 2398
3 265 263 266
3 1534 1529 2171
3 1604 1834 2428
3 1255 1633 2509
3 1344 1643 1644
3 1332 1388 1571
3 1423 217 2217
3 2191 1057 2451
3 458 447 1637
3 1250 1233 1733
3 472 2212 2222
3 1175 1747 1840
3 1652 256 1653
3 1073 1347 1572
3 200 145 1609
3 683 640 1585
3 1116 862 1705
3 1221 1223 1474
3 1778 801 1803
3 1503 1622 2471
3 1475 1493 2523
3 464 680 2134
3 14 210 2114
3 579 1880 1988
3 1434 1435 1990
3 1447 2310 2364
3 275 274 276
3 2294 1871 2419
3 814 1068 1684
3 1172 1439 2273
3 273 272 274
3 1363 1416 2406
3 1220 1219 1221
3 1060 1656 1662
3 1099 1792 1985
3 2048 1198 2168
3 1241 1245 2323
3 699 723 1753
3 1640 1862 2070
3 910 1018 1584
3 1586 1067 1587
3 1656 867 1662
3 1067 686 2480
3 654 2242 2294
3 1593 1315 1594
3 1880 553 1974
3 236 1717 1718
3 617 621 1596
3 1723 196 2313
3 402 1877 2116
3 273 274 275
3 2202 1869 2252
3 1510 1358 1767
3 193 1892 2373
3 1188 1805 2054
3 1220 1221 1267
3 1066 1218 1219
3 1517 1097 1518
3 1677 1676 1858
3 686 277 1520
3 268 267 269
3 697 857 1592
3 220 1698 1699
3 1802 1700 2036
3 1612 1537 1614
3 929 817 994
3 228 12 2136
3 2110 2116 2482
3 1659 1658 1702
3 1611 1613 2280
3 1344 991 1643
3 683 1585 1604
3 1638 1358 2404
3 1485 1034 2410
3 2214 833 2424
3 271 272 273
3 1482 955 1962
3 1066 1219 1220
3 931 1885 2150
3 1613 1891 2280
3 1189 1589 2204
3 1566 1195 2120
3 726 1567 2490
3 1122 1722 1874
3 1494 319 2493
3 1671 259 1672
3 1267 1221 1474
3 603 528 1591
3 1664 2128 2316
3 1817 1924 2174
3 1626 1660 2111
3 1474 1475 1477
3 1023 1062 1580
3 1957 1599 2312
3 1764 1939 2164
3 1358 1950 2404
3 200 1609 1610
3 1431 1082 1432
3 1778 1803 2521
3 1830 1832 2075
3 1930 233 2369
3 1329 1482 1650
3 757 1959 2522
3 1239 1247 1597
3 758 1978 2332
3 1569 1290 2064
3 216 1694 2191
3 1453 1420 2265
3 1549 1906 2129
3 24 215 1674
3 19 235 1676
3 1621 1057 2191
3 1691 1389 2262
3 1617 1333 2192
3 929 994 1065
3 1769 1672 1986
3 1893 1412 2026
3 1609 1537 1612
3 271 269 272
3 1373 1438 1620
3 217 1423 2381
3 517 330 1889
3 1322 1055 1667
3 1974 553 2499
3 228 2136 2187
3 1589 1189 1788
3 1999 1577 2325
3 2110 405 2116
3 189 1608 1842
3 1055 1050 1667
3 739 1455 2205
3 1865 1176 2215
3 319 1494 2522
3 2474 757 2522
3 1484 227 1485
3 10 11 1588
3 723 809 1753
3 27 230 1689
3 1550 806 1565
3 1179 1180 1217
3 207 1617 2192
3 1433 1217 1502
3 1562 1556 1606
3 1379 2017 2018
3 1245 2158 2323
3 675 1097 1517
3 884 501 1599
3 1020 683 1604
3 1603 1095 1848
3 1001 2057 2154
3 1604 1585 1834
3 1610 1612 1616
3 1764 870 1939
3 2242 1871 2294
3 1669 1264 1670
3 1658 213 1702
3 1995 1646 2398
3 631 539 1600
3 1491 2143 2342
3 1801 1800 2195
3 1200 1199 1693
3 1535 940 1861
3 1534 758 2332
3 914 2258 2328
3 1588 228 2457
3 216 138 1694
3 151 152 1500
3 1133 1880 1974
3 1677 1858 2248
3 1294 1622 1868
3 875 1010 1767
3 1379 2018 2416
3 1279 2202 2252
3 182 256 1652
3 1592 857 2386
3 672 681 1656
3 615 1596 1824
3 1093 1487 1623
3 1823 522 2100
3 1245 1242 1669
3 1582 1581 1583
3 758 1534 2306
3 1975 1984 2230
3 1358 1510 1950
3 1663 1336 1665
3 2102 960 2203
3 366 1087 1786
3 1740 1490 2231
3 21 207 1709
3 145 146 1609
3 2339 765 2384
3 603 1591 1668
3 2081 199 2149
3 1540 1832 1879
3 1721 1723 1947
3 1754 455 1793
3 1751 1753 2119
3 882 1701 1807
3 1540 1539 1917
3 242 1695 1697
3 1521 354 2091
3 1363 2233 2413
3 1584 1018 1925
3 703 1067 1586
3 1177 1178 1179
3 795 916 1834
3 277 276 607
3 1571 1388 1872
3 22 23 1617
3 1097 823 1177
3 25 26 1624
3 419 418 1790
3 1728 1906 2259
3 440 1455 2261
3 1877 1318 2116
3 1488 1156 1608
3 1439 2130 2273
3 1889 1451 1890
3 1614 209 2389
3 1472 893 2094
3 675 821 823
3 23 24 1674
3 1788 1190 2183
3 917 941 1622
3 1763 1096 1764
3 1068 1442 1684
3 1034 1485 2173
3 2172 1533 2230
3 138 139 1694
3 1065 1570 2197
3 607 674 675
3 1536 1248 2268
3 229 135 1734
3 1437 1925 1926
3 680 510 1646
3 147 209 1537
3 26 27 1689
3 1627 705 2163
3 206 1651 2121
3 2409 1785 2462
3 1492 682 2447
3 1223 1225 1258
3 889 1772 2374
3 253 263 264
3 275 276 277
3 1455 739 2261
3 2022 1382 2176
3 150 227 1484
3 639 1019 1591
3 1449 1640 2070
3 1082 833 2214
3 1503 1502 1504
3 144 200 1717
3 1643 991 1713
3 1190 1791 2183
3 1538 1804 2073
3 1256 2269 2440
3 18 19 1676
3 521 531 2000
3 790 849 2180
3 1075 1329 1650
3 1087 1782 1785
3 1066 994 1218
3 270 269 271
3 682 1492 2494
3 185 252 1454
3 253 158 262
3 1629 1632 1633
3 200 1610 1611
3 1477 1481 2104
3 1623 1487 2465
3 1518 1097 1535
3 1414 1132 2460
3 1179 1217 1433
3 177 1506 1680
3 1392 1017 2525
3 1832 834 2075
3 675 823 1097
3 1459 2094 2134
3 1782 1087 1795
3 1838 1730 2372
3 1639 149 2528
3 1617 23 1674
3 2265 1420 2489
3 180 232 1859
3 1527 1250 1528
3 20 21 1709
3 1083 1508 2311
3 903 866 1703
3 1455 440 2314
3 1187 1858 1888
3 1659 1406 2473
3 1446 1902 2166
3 421 1951 2106
3 1598 210 2115
3 154 259 1671
3 1288 1835 2080
3 1832 1831 1879
3 1258 1225 1478
3 1024 1604 2117
3 1263 1429 1739
3 706 705 1627
3 1583 1581 2352
3 407 1805 1951
3 856 1574 2527
3 1701 882 2036
3 1624 26 1689
3 717 1551 1552
3 1385 2377 2391
3 2302 1745 2354
3 1572 1347 2157
3 1036 883 1917
3 1689 1690 1691
3 1664 1665 2128
3 1476 1479 1480
3 1751 2119 2143
3 815 814 1684
3 1790 889 2400
3 1606 1607 2085
3 265 267 268
3 418 889 1790
3 1522 1521 2091
3 135 136 1734
3 1726 1445 1729
3 647 1796 1797
3 1346 1453 2279
3 1293 1827 2117
3 1242 1244 1669
3 1853 1852 1854
3 889 2374 2400
3 1039 1038 1290
3 1524 628 2199
3 1331 1332 1571
3 1291 1290 1569
3 1475 1476 1493
3 1850 1852 1853
3 1490 1740 2456
3 1689 230 1690
3 1256 1526 1541
3 1704 1705 2167
3 1465 1470 1675
3 956 1073 1572
3 1613 1616 1956
3 916 917 1038
3 2014 1522 2091
3 1221 1222 1223
3 1999 763 2352
3 234 10 1588
3 1697 220 2335
3 1527 1528 1529
3 2298 1600 2413
3 1436 2020 2254
3 1642 1161 1678
3 1523 1385 2436
3 1730 1838 2426
3 795 796 916
3 713 711 1550
3 1456 1263 1739
3 999 1336 1663
3 1785 1784 2462
3 409 415 1783
3 607 675 1517
3 1229 1231 1526
3 1958 1855 2078
3 1589 1588 1590
3 1933 261 2380
3 762 1965 2038
3 1756 1458 2203
3 1776 597 1893
3 1794 1072 1893
3 188 1512 2266
3 1774 2339 2384
3 188 1908 1941
3 1010 1510 1767
3 2189 2285 2307
3 773 834 1917
3 1245 1669 1670
3 1248 1597 2268
3 146 1537 1609
3 818 910 1584
3 1641 1313 1651
3 1217 1745 2302
3 1065 1066 1655
3 1597 1247 2047
3 1360 2177 2376
3 1612 1615 1616
3 2126 867 2186
3 1019 683 1020
3 1747 892 1840
3 1092 1093 1623
3 261 1933 2181
3 400 424 1666
3 1516 1903 2377
3 1100 1392 1605
3 247 1738 1881
3 268 1134 1986
3 1177 823 1178
3 884 1599 1957
3 263 262 2491
3 806 1627 1948
3 1227 1229 1256
3 191 1729 2504
3 1636 1635 2502
3 1480 1479 1601
3 1721 1947 2498
3 1924 1146 2174
3 229 1734 1735
3 175 204 1725
3 1179 1178 1180
3 354 1521 2147
3 665 697 1592
3 640 646 1585
3 627 545 1636
3 1882 240 2399
3 1556 1555 1606
3 1373 1620 2394
3 1871 1071 2419
3 548 1628 1629
3 455 436 1793
3 974 1831 1841
3 1844 1413 2392
3 1612 1614 1615
3 209 1639 1937
3 1329 1330 1331
3 1823 2100 2142
3 1097 1177 1535
3 1021 1020 1022
3 825 1912 2455
3 913 1122 1874
3 400 1666 2113
3 1256 1229 1526
3 1419 1418 2450
3 1552 1551 1553
3 1850 1099 1852
3 1629 1631 1632
3 801 685 2029
3 1618 1619 1621
3 265 268 1986
3 1715 2165 2330
3 1531 1529 1534
3 1022 1024 1576
3 658 693 1746
3 703 686 1067
3 1062 1576 1577
3 1023 1022 1062
3 236 1718 2394
3 1688 502 1740
3 1501 1477 2104
3 213 165 1509
3 646 795 1585
3 196 1737 1738
3 379 679 1795
3 639 640 683
3 924 875 1767
3 1752 699 1753
3 207 2192 2315
3 627 1636 1660
3 1217 1180 1745
3 730 728 1833
3 528 561 1591
3 1444 1417 1998
3 252 186 1602
3 1729 1445 2504
3 460 502 1688
3 1418 946 1778
3 1203 1200 1693
3 548 470 1628
3 849 668 1640
3 646 785 795
3 607 276 674
3 14 15 210
3 147 148 209
3 478 460 1688
3 1709 207 2315
3 1157 1546 1608
3 1155 1731 1899
3 1524 1934 2390
3 1775 921 1876
3 1433 1502 1503
3 470 458 1628
3 1223 1224 1225
3 1291 1569 1964
3 871 1056 1826
3 1781 1783 1915
3 1587 1067 2300
3 916 1038 1039
3 1388 1387 1389
3 1611 1610 1613
3 1075 1328 1329
3 1039 1290 1291
3 1538 1265 1804
3 1184 1185 2163
3 597 598 1794
3 1450 1356 2421
3 1835 576 2080
3 1629 1628 1631
3 1331 1330 1332
3 561 639 1591
3 1476 1480 1493
3 705 703 1586
3 639 683 1019
3 1951 1188 2106
3 436 446 1793
3 1472 1297 2142
3 1332 1387 1388
3 1345 984 1720
3 1329 1328 1330
3 1050 1048 1667
3 150 151 227
3 11 12 228
3 557 541 2256
3 1831 974 1879
3 134 229 1766
3 1357 1358 1638
3 1336 1641 2299
3 1650 1482 1962
3 1591 1019 2512
3 1506 1507 1570
3 1803 801 2029
3 1178 823 1972
3 1552 1553 1554
3 1290 1038 1294
3 1028 1313 1641
3 1237 1239 1597
3 993 1017 1100
3 893 2087 2094
3 149 1484 2528
3 1768 1142 1949
3 9 234 1673
3 1554 1553 1555
3 668 632 1640
3 711 806 1550
3 1628 458 1637
3 1098 1829 1830
3 1482 1331 1483
3 531 1818 2000
3 435 419 1790
3 1156 1157 1608
3 1182 1184 2179
3 510 512 1646
3 1231 1233 1250
3 946 841 1778
3 1483 1331 1571
3 1459 680 2458
3 1166 1040 1210
3 892 1657 1820
3 1042 1445 1726
3 1019 1020 1021
3 749 805 1810
3 234 1588 1589
3 1695 242 1892
3 556 1853 2483
3 1018 1572 1573
3 1529 1528 1530
3 1606 1558 1607
3 1761 1759 2308
3 1396 1032 1921
3 1018 956 1572
3 689 1150 1416
3 1827 1293 2515
3 149 150 1484
3 1647 656 1648
3 1543 694 2196
3 399 409 1783
3 545 525 1636
3 268 269 270
3 715 713 717
3 1100 1017 1392
3 1657 892 1747
3 207 22 1617
3 1666 884 2249
3 1671 1672 1769
3 1554 1555 1556
3 146 147 1537
3 1081 1444 1822
3 711 709 806
3 1443 2005 2322
3 660 658 1746
3 1166 1458 1754
3 916 796 917
3 1056 1728 1826
3 1068 1069 1275
3 184 185 1454
3 158 159 262
3 2007 1687 2231
3 805 1708 1810
3 1672 264 1986
3 1561 1562 1563
3 978 1075 1650
3 1590 1588 2457
3 215 25 1624
3 1551 1550 1565
3 1073 1346 1347
3 857 818 1584
3 1648 656 1649
3 675 674 821
3 561 594 639
3 1731 529 1899
3 2303 1454 2535
3 981 903 1040
3 1630 1629 1633
3 993 877 1017
3 724 718 726
3 512 603 1646
3 1676 235 1858
3 814 1060 1068
3 715 717 1567
3 1796 647 1870
3 1715 1171 2165
3 678 1592 1593
3 644 613 1824
3 1690 1525 2145
3 1297 1822 1823
3 271 656 1647
3 1704 1116 1705
3 1225 1226 1227
3 1275 1069 1338
3 910 956 1018
3 1824 1596 2154
3 1403 1100 1605
3 1221 1219 1222
3 1068 1060 1069
3 1901 245 1949
3 1081 1055 1321
3 1751 563 1752
3 1021 1022 1023
3 672 638 681
3 1095 657 1848
3 1235 1237 1248
3 1561 1556 1562
3 1265 1259 1804
3 524 1819 2016
3 978 1650 2362
3 1492 516 2494
3 229 1735 2061
3 185 186 252
3 157 158 253
3 152 153 233
3 9 10 234
3 1527 1529 1531
3 1808 1344 2360
3 1062 1577 1579
3 1509 1679 1977
3 424 454 1666
3 637 638 672
3 981 1040 1166
3 1555 1558 1606
3 751 749 1810
3 1166 1210 1458
3 1651 1313 2121
3 15 16 2260
3 1633 1632 2509
3 2167 1705 2276
3 551 602 2045
3 697 818 857
3 364 1786 1883
3 832 1189 2204
3 1476 1478 1479
3 678 665 1592
3 213 1509 2096
3 1015 888 1124
3 1062 1022 1576
3 679 1782 1795
3 680 1646 1995
3 1101 1100 1403
3 1109 433 1714
3 1248 1237 1597
3 733 730 1833
3 1702 213 2096
3 499 498 1828
3 1418 1778 2521
3 637 600 638
3 1048 1046 1054
3 1577 1576 1578
3 814 766 1060
3 1279 2252 2292
3 474 470 548
3 199 18 1676
3 157 253 1441
3 1048 1054 1667
3 471 472 2290
3 625 665 678
3 795 785 796
3 1264 1265 1266
3 1437 1926 2350
3 1362 2048 2168
3 1394 2337 2371
3 454 884 1666
3 1022 1020 1024
3 751 1810 1923
3 1046 1023 1580
3 1807 1701 1931
3 1618 208 1619
3 566 588 689
3 1828 498 1829
3 501 509 1599
3 1118 780 1775
3 878 817 929
3 1510 1511 1950
3 1618 1621 1694
3 1052 1081 1822
3 1416 1150 1715
3 1239 1241 1247
3 1396 1921 2067
3 1751 1752 1753
3 1264 1259 1265
3 539 566 1600
3 1762 1127 2496
3 1673 1788 2183
3 1555 1557 1558
3 1052 1050 1055
3 725 724 825
3 1142 1770 1771
3 681 853 867
3 454 501 884
3 1346 1420 1453
3 932 1147 1770
3 1546 1545 1547
3 533 582 1818
3 1266 1337 1460
3 1872 820 2318
3 1117 1119 1713
3 1081 1321 1417
3 1253 1259 1264
3 1569 771 2135
3 1052 1055 1081
3 1181 1178 1972
3 709 706 1627
3 1073 1076 1346
3 1098 1828 1829
3 1382 1380 2176
3 1442 1275 1443
3 919 999 1663
3 1789 828 1855
3 877 815 1684
3 509 539 631
3 992 877 993
3 1266 1265 1337
3 2268 1498 2340
3 1130 1032 1396
3 1095 1603 2508
3 886 826 887
3 531 533 1818
3 1131 1400 1881
3 447 437 516
3 2460 1132 2473
3 940 1535 2418
3 768 1873 2037
3 1813 1869 1954
3 1627 2163 2488
3 1497 1495 1645
3 1198 1409 2168
3 724 726 1912
3 1869 987 1954
3 763 1999 2338
3 1010 1170 1374
3 984 976 1720
3 1470 1743 1744
3 689 588 1150
3 1901 1949 2359
3 1640 632 1862
3 274 272 1787
3 563 564 1752
3 994 817 1505
3 737 1807 1931
3 1770 1147 1771
3 1233 1235 1733
3 2450 1418 2521
3 414 410 1821
3 908 1099 1850
3 1227 1228 1229
3 1692 1203 1693
3 1625 216 2194
3 512 528 603
3 1377 1357 1638
3 1465 1464 1470
3 1360 1359 2177
3 1686 2007 2095
3 1336 1028 1641
3 1857 751 1923
3 1758 572 1759
3 553 541 557
3 1171 1715 1811
3 956 1003 1073
3 1467 1465 1675
3 719 718 724
3 1509 1977 2096
3 1734 1625 1736
3 1503 1504 1868
3 592 597 1776
3 180 181 232
3 162 163 231
3 2308 1759 2370
3 1357 1114 1358
3 875 946 1010
3 509 631 1599
3 17 18 199
3 144 145 200
3 1099 906 1792
3 1469 1467 1494
3 605 589 1939
3 1208 1205 1211
3 354 344 2091
3 692 782 804
3 1010 946 1170
3 1463 1462 1464
3 716 715 718
3 714 713 715
3 271 273 656
3 139 1618 1694
3 549 277 686
3 673 672 766
3 1378 1377 1379
3 2007 868 2095
3 999 1028 1336
3 1208 1211 1447
3 601 545 627
3 1119 1643 1713
3 1332 1333 1387
3 910 912 956
3 520 521 2000
3 828 1789 1819
3 277 607 1520
3 1338 1339 2247
3 818 819 910
3 767 766 814
3 712 711 713
3 1494 1467 1675
3 639 594 640
3 2044 557 2256
3 235 20 1709
3 1620 236 2394
3 804 919 962
3 1862 702 2070
3 681 852 853
3 1559 1556 1561
3 1622 941 2471
3 2165 1440 2330
3 612 644 692
3 697 698 818
3 1903 1516 1994
3 371 379 1795
3 428 426 2138
3 1290 1294 2064
3 1384 1904 2432
3 566 689 1600
3 471 452 472
3 1092 1091 1093
3 1002 1131 1719
3 1090 1089 1091
3 875 841 946
3 1758 1760 1763
3 1562 1606 2085
3 1833 1830 2075
3 178 179 214
3 164 165 213
3 769 923 1815
3 692 644 782
3 804 782 919
3 182 183 256
3 160 161 257
3 1329 1331 1482
3 962 1663 1664
3 1177 1179 2042
3 403 405 1805
3 1461 1460 1462
3 140 208 1618
3 1859 232 1860
3 274 1787 2099
3 1381 2126 2186
3 1558 1560 1789
3 430 428 682
3 452 435 1683
3 1487 1156 1488
3 1470 1464 1743
3 597 1794 1893
3 1244 1253 1669
3 962 919 1663
3 258 8 1673
3 1087 1785 1786
3 970 1042 1726
3 199 1677 2149
3 1664 1663 1665
3 1229 1230 1231
3 991 827 1713
3 792 1603 1848
3 1822 1444 1823
3 665 666 697
3 19 20 235
3 142 143 236
3 728 1098 1833
3 532 530 1898
3 1015 1124 1372
3 1546 1547 1548
3 1851 1850 1853
3 1877 393 2240
3 923 1105 1815
3 1090 1091 1092
3 687 686 703
3 1683 435 1790
3 887 826 1961
3 684 663 1089
3 426 1934 2138
3 464 510 680
3 853 854 855
3 568 572 1758
3 1376 1357 1377
3 1205 1203 1692
3 1607 1789 1855
3 710 709 711
3 780 781 1775
3 1434 1103 1435
3 876 815 877
3 766 672 1656
3 1393 1590 2457
3 684 1089 1090
3 530 890 1898
3 926 1920 1943
3 696 414 1821
3 1563 1562 1777
3 1054 1046 1580
3 1398 1973 1974
3 137 216 1625
3 1210 1040 1430
3 1750 563 1751
3 2010 1665 2299
3 1510 1374 1511
3 1777 1562 2085
3 1707 252 1791
3 1932 1404 1933
3 459 438 1814
3 139 140 1618
3 1093 1156 1487
3 231 163 1658
3 699 722 723
3 1545 1095 2508
3 598 612 1794
3 579 554 1880
3 1941 1908 2401
3 1231 1232 1233
3 1831 1829 1841
3 1037 1383 1799
3 177 178 1506
3 636 600 637
3 1036 1539 2286
3 1356 1114 1357
3 1523 1516 2377
3 704 703 705
3 403 402 405
3 648 792 1848
3 723 756 808
3 1388 1389 2170
3 933 932 1770
3 223 1710 1711
3 1779 399 1783
3 1223 1222 1224
3 1028 1029 1313
3 257 161 1654
3 418 412 421
3 734 882 1807
3 693 657 1095
3 1368 1370 1436
3 136 137 1625
3 688 652 817
3 1075 1327 1328
3 540 479 1813
3 398 395 402
3 548 1629 1630
3 574 591 699
3 1469 1494 1495
3 1041 1598 2175
3 167 168 202
3 175 176 204
3 2045 2046 2201
3 186 187 1602
3 886 887 888
3 1253 1254 1259
3 8 9 1673
3 792 655 810
3 843 1145 1960
3 1180 1349 1745
3 1165 1345 1512
3 708 706 709
3 136 1625 1734
3 21 22 207
3 140 141 208
3 625 626 665
3 1093 1094 1156
3 1585 795 1834
3 1117 1713 1806
3 599 579 600
3 810 871 1826
3 1047 1046 1048
3 1292 1291 1293
3 161 162 1654
3 199 1676 1677
3 1260 1282 1804
3 1005 1142 1768
3 1233 1234 1235
3 792 810 922
3 1122 1719 1737
3 976 985 1720
3 1278 1279 2292
3 2390 1934 2531
3 1436 1437 2350
3 270 271 1647
3 1199 966 1846
3 1683 1342 2212
3 656 273 2124
3 699 591 722
3 1977 1139 2096
3 1738 1719 1881
3 1722 985 1874
3 1797 1448 1798
3 162 231 1654
3 632 604 1862
3 252 1602 1791
3 1051 1050 1052
3 1045 1023 1046
3 648 655 792
3 993 1100 1101
3 1321 1055 1322
3 806 709 1627
3 904 903 981
3 1220 1267 1268
3 648 605 655
3 1737 1719 1738
3 385 399 1779
3 506 499 1828
3 1132 266 1402
3 1170 1418 1419
3 1323 2302 2354
3 24 25 215
3 137 138 216
3 721 965 1919
3 1787 1414 2460
3 778 1117 1806
3 723 722 756
3 407 403 1805
3 564 574 1752
3 1049 1048 1050
3 842 841 875
3 1608 1546 1842
3 809 808 899
3 1517 1519 1520
3 1530 1532 1533
3 889 421 1772
3 913 1002 1122
3 1314 1316 1367
3 1017 877 1684
3 841 802 1778
3 1235 1236 1237
3 751 1857 1900
3 1114 924 1767
3 1344 1644 2360
3 1895 1394 2371
3 1518 1535 1861
3 1758 1759 1760
3 1122 1002 1719
3 546 563 1750
3 1056 1726 1727
3 663 660 1746
3 621 622 625
3 1720 985 1721
3 1857 1843 1900
3 808 756 913
3 1056 970 1726
3 27 28 230
3 134 135 229
3 908 906 1099
3 163 164 1658
3 1727 1726 1729
3 7 8 258
3 154 155 259
3 1101 1403 1404
3 808 913 1874
3 1260 1269 1282
3 1389 1387 2262
3 1297 1053 1822
3 1555 1553 1557
3 1463 1464 1465
3 230 28 1765
3 1237 1238 1239
3 554 553 1880
3 775 778 1806
3 985 899 1874
3 1270 1524 2199
3 489 1820 1936
3 692 1072 1794
3 1472 2142 2272
3 1845 496 1929
3 438 431 1814
3 613 615 1824
3 1241 1242 1245
3 1783 415 1915
3 1192 2081 2149
3 178 214 1506
3 1816 988 1817
3 1760 1759 1761
3 1103 1092 1623
3 1512 1345 1661
3 1876 921 2295
3 1165 984 1345
3 978 1074 1075
3 1239 1240 1241
3 542 541 553
3 813 988 1816
3 1148 984 1165
3 871 970 1056
3 472 452 1683
3 1207 1796 1870
3 1167 1166 1754
3 1296 1053 1297
3 966 964 1846
3 976 899 985
3 982 976 984
3 702 1815 2015
3 900 899 976
3 1143 995 1206
3 1576 1024 1827
3 1235 1248 1733
3 1558 1557 1560
3 943 995 1143
3 1920 1144 1943
3 1471 2115 2477
3 29 30 255
3 132 133 254
3 1630 1633 1634
3 1225 1224 1226
3 1925 1573 1926
3 1211 1205 1692
3 725 825 826
3 1113 924 1114
3 600 579 1988
3 717 1552 1567
3 1820 1657 1936
3 674 276 2099
3 395 393 1877
3 572 543 1897
3 1575 1308 2255
3 999 1000 1028
3 1118 1775 1876
3 1797 1798 2430
3 526 546 559
3 867 853 2186
3 1142 1771 1949
3 1068 1275 1442
3 679 385 1779
3 1607 1558 1789
3 580 568 1758
3 1244 1252 1253
3 1760 1761 1762
3 398 402 403
3 1476 1258 1478
3 418 421 889
3 1771 1147 1839
3 164 213 1658
3 1720 1721 2267
3 1668 1591 2512
3 1042 1128 1445
3 1098 1830 1833
3 1102 1092 1103
3 2249 884 2466
3 1104 1103 1434
3 410 416 1821
3 514 513 541
3 580 1758 1763
3 637 673 1741
3 1913 936 1914
3 1394 1395 2337
3 919 920 999
3 577 554 579
3 2111 1660 2263
3 231 1658 1659
3 612 613 644
3 568 543 572
3 770 775 1806
3 1445 1128 1446
3 1546 1548 1842
3 448 460 478
3 810 870 871
3 1789 1560 1819
3 1154 1082 1431
3 873 973 1802
3 379 385 679
3 837 850 921
3 1461 1462 1463
3 1346 1076 1420
3 1088 1344 1808
3 2125 1143 2353
3 931 977 978
3 882 772 1802
3 29 255 1765
3 849 1513 2180
3 1713 827 1806
3 1130 1396 1397
3 681 638 852
3 1417 1321 1873
3 1654 1402 2530
3 502 526 1740
3 1124 888 2177
3 1266 1460 1461
3 515 1175 1840
3 1253 1264 1669
3 479 466 1813
3 1727 1729 1757
3 379 380 385
3 1971 1480 2514
3 1637 1739 2459
3 1207 1205 1208
3 529 519 1899
3 1129 1845 1929
3 224 1661 2267
3 192 1856 2361
3 732 734 1807
3 1184 2163 2435
3 1119 1120 1353
3 415 414 431
3 719 724 725
3 559 546 1750
3 871 872 970
3 1038 917 1622
3 574 699 1752
3 166 167 1679
3 1117 1118 1119
3 1409 1196 2035
3 617 619 621
3 1172 1173 1439
3 1191 1005 1768
3 664 663 684
3 494 493 1841
3 890 529 1731
3 840 802 841
3 493 974 1841
3 385 386 399
3 679 1779 1780
3 371 376 379
3 416 433 1109
3 670 769 1815
3 902 866 903
3 1780 1779 1781
3 480 515 1840
3 970 971 1042
3 433 448 1714
3 28 29 1765
3 1005 949 1142
3 778 780 1117
3 959 1037 1799
3 1073 1003 1076
3 535 532 1898
3 1119 1118 1120
3 658 657 693
3 1378 1379 1380
3 1397 1396 1809
3 1610 1609 1612
3 1819 1560 2016
3 1837 952 1865
3 1719 1131 1881
3 1131 1399 1400
3 1352 1138 2058
3 399 406 409
3 548 1630 2041
3 1275 1338 2251
3 582 1816 1818
3 1835 1836 2144
3 993 1101 1980
3 1699 1698 1700
3 2407 364 2505
3 1189 1190 1788
3 1117 780 1118
3 1830 1829 1831
3 637 672 673
3 692 804 1072
3 1204 1203 1205
3 1374 1170 2139
3 612 692 1794
3 1642 1408 2286
3 723 808 809
3 450 459 1812
3 409 410 414
3 802 801 1778
3 1853 1854 2483
3 1042 1127 1128
3 1199 1846 2225
3 1147 990 1273
3 1383 1384 2432
3 432 431 438
3 1353 1120 1390
3 1093 1091 1094
3 2020 250 2254
3 148 149 1639
3 606 605 648
3 1970 2016 2422
3 2201 2046 2327
3 475 471 513
3 412 407 1951
3 1991 246 2139
3 727 695 728
3 1673 234 1788
3 1554 1556 1559
3 1089 663 1746
3 1846 964 2056
3 923 991 1088
3 409 406 410
3 729 728 730
3 1424 1427 1856
3 1473 1911 2407
3 1376 1377 1378
3 1010 1374 1510
3 853 852 854
3 366 369 1087
3 772 873 1802
3 1219 1218 1626
3 1766 229 2061
3 1088 991 1344
3 922 810 1826
3 518 506 695
3 405 402 2116
3 962 1664 2316
3 913 942 1002
3 932 990 1147
3 629 813 1816
3 876 877 992
3 399 386 406
3 932 845 990
3 1002 1123 1131
3 843 996 1145
3 781 837 1775
3 262 2304 2491
3 431 696 1814
3 1273 1695 1892
3 731 730 732
3 737 732 1807
3 439 438 450
3 1829 498 1841
3 800 685 801
3 767 814 815
3 1060 766 1656
3 673 766 767
3 1403 1605 1882
3 716 718 719
3 1338 1069 1339
3 847 752 1843
3 864 862 1116
3 2302 443 2519
3 923 827 991
3 526 559 1740
3 1911 1473 2358
3 1085 1310 1867
3 809 899 900
3 1227 1226 1228
3 729 730 731
3 1436 1370 1437
3 731 732 737
3 769 827 923
3 456 452 471
3 1433 1503 2471
3 1435 1103 1623
3 385 380 386
3 1141 1787 2460
3 1354 1088 1808
3 657 649 1848
3 415 431 432
3 484 892 1820
3 727 728 729
3 855 854 1450
3 1721 1722 1723
3 1643 1353 1644
3 1145 1916 1960
3 1421 1191 1422
3 466 1812 1813
3 943 944 995
3 1356 1357 1376
3 714 715 716
3 1156 1094 1157
3 598 611 612
3 631 1600 2298
3 590 589 605
3 965 969 1919
3 416 1109 1821
3 242 1697 2335
3 1548 1547 1549
3 550 573 584
3 584 604 632
3 409 414 415
3 712 713 714
3 642 670 702
3 818 698 819
3 1006 1005 1191
3 1624 1689 1691
3 169 170 237
3 173 174 238
3 956 912 1003
3 937 936 1913
3 1317 1025 1875
3 515 540 550
3 973 1799 1800
3 973 959 1799
3 518 695 727
3 910 819 912
3 584 573 604
3 1170 946 1418
3 173 238 1847
3 550 540 573
3 982 984 1148
3 900 976 982
3 441 435 452
3 448 478 1714
3 1849 1648 2173
3 1631 1628 1637
3 1830 1831 1832
3 1383 1216 1384
3 734 772 882
3 949 933 1770
3 1332 1330 1333
3 574 575 591
3 1105 1088 1354
3 702 670 1815
3 498 494 1841
3 827 770 1806
3 873 959 973
3 1390 1391 1415
3 450 438 459
3 950 949 1005
3 351 362 364
3 1313 1029 1314
3 432 438 439
3 837 838 850
3 1273 1274 1695
3 850 851 943
3 911 952 1837
3 1259 1260 1804
3 566 587 588
3 1037 1216 1383
3 1337 1265 1538
3 1087 369 1795
3 810 655 870
3 1559 1561 1566
3 1147 1273 1839
3 732 733 734
3 1662 867 2126
3 890 1731 2241
3 1854 1852 2397
3 515 479 540
3 451 450 466
3 697 666 698
3 1367 1316 1368
3 662 660 663
3 365 355 694
3 1358 1114 1767
3 379 376 380
3 1796 1448 1797
3 179 180 1859
3 790 668 849
3 569 568 580
3 690 860 931
3 466 450 1812
3 431 414 696
3 1973 1133 1974
3 651 649 657
3 467 466 479
3 1288 1289 1835
3 264 265 1986
3 1302 1303 1304
3 592 596 597
3 1873 1321 2037
3 544 543 568
3 275 277 549
3 209 1937 2389
3 539 565 566
3 1485 227 1486
3 2384 2190 2408
3 1781 1779 1783
3 480 479 515
3 689 1416 2413
3 1108 1161 1539
3 1867 1310 1895
3 1300 1301 1302
3 1695 1696 1697
3 633 632 668
3 1304 1451 1452
3 988 911 1837
3 168 169 1724
3 969 1012 1172
3 582 629 1816
3 1843 752 1900
3 629 812 813
3 710 711 712
3 1782 1780 1784
3 536 535 543
3 1089 1746 1969
3 1108 1107 1161
3 1514 1426 1856
3 486 484 1820
3 369 371 1795
3 1817 988 1924
3 493 609 974
3 1422 1191 2023
3 1426 1424 1856
3 842 875 924
3 922 1826 2259
3 989 1361 1886
3 928 1070 1288
3 669 668 790
3 1113 1114 1356
3 1027 847 1843
3 728 695 1098
3 734 735 772
3 975 1107 1108
3 955 859 1962
3 813 911 988
3 1208 1448 1796
3 1101 1405 1980
3 602 676 2045
3 586 581 589
3 546 547 563
3 493 491 609
3 628 1524 2390
3 348 344 354
3 1298 1299 1300
3 509 538 539
3 974 609 975
3 813 891 911
3 871 870 872
3 1355 1354 1423
3 489 486 1820
3 778 779 780
3 1025 1176 1875
3 772 773 873
3 803 1743 2347
3 167 202 1679
3 873 883 959
3 1483 1571 2375
3 427 1756 2221
3 540 1813 1954
3 1202 1200 1203
3 959 1035 1037
3 837 921 1775
3 1304 1305 1451
3 1799 1383 2195
3 604 642 1862
3 1470 1744 2474
3 1854 2397 2453
3 1282 1269 1386
3 1573 1572 2157
3 472 2222 2290
3 1307 1708 2341
3 769 770 827
3 1037 1215 1216
3 791 790 856
3 1053 1052 1822
3 1056 1727 1728
3 1341 1138 1352
3 1300 1299 1301
3 1814 696 1838
3 1198 1196 1409
3 492 491 493
3 439 450 451
3 1171 858 2132
3 1259 1254 1260
3 665 626 666
3 970 872 971
3 258 1602 2357
3 1296 1297 1472
3 490 489 491
3 516 437 2494
3 1298 1027 1299
3 846 845 932
3 501 508 509
3 460 461 502
3 448 449 460
3 482 480 1840
3 1229 1228 1230
3 604 641 642
3 1424 1423 1427
3 502 503 526
3 1028 1000 1029
3 935 933 949
3 1084 1085 1867
3 2028 1711 2353
3 1513 1426 1514
3 892 482 1840
3 852 638 1988
3 402 395 1877
3 738 737 845
3 413 412 418
3 1119 1353 1643
3 526 527 546
3 280 279 281
3 1731 1155 2123
3 1042 971 1127
3 1208 1447 1448
3 433 434 448
3 262 159 2304
3 184 1454 2303
3 1051 1052 1053
3 1816 1817 1818
3 1081 1417 1444
3 781 836 837
3 911 951 952
3 1090 1092 1102
3 202 168 1724
3 1085 1309 1310
3 408 407 412
3 1337 1538 1864
3 1515 1514 1516
3 530 529 890
3 1517 1518 1519
3 549 686 687
3 923 1088 1105
3 404 403 407
3 1835 1289 1836
3 1314 1367 2121
3 1380 1379 2416
3 670 671 769
3 899 808 1874
3 1040 903 1703
3 1596 1595 2154
3 1496 1495 1497
3 636 637 1741
3 1377 1638 2288
3 1288 1070 1289
3 1072 804 1981
3 1129 1334 1845
3 1865 1084 1866
3 792 922 1603
3 1253 1252 1254
3 981 1167 1792
3 1302 1301 1303
3 1641 1651 2019
3 952 953 1084
3 1813 1812 1869
3 732 730 733
3 975 1106 1107
3 1142 949 1770
3 981 1166 1167
3 840 841 842
3 451 466 467
3 1273 990 1274
3 1049 1050 1051
3 1473 2407 2505
3 968 966 1199
3 642 643 670
3 1310 1309 1311
3 422 419 435
3 1063 833 1082
3 919 782 920
3 911 891 951
3 1084 953 1085
3 1763 1764 2164
3 1498 1497 1682
3 515 550 1175
3 1079 937 1913
3 642 702 1862
3 845 737 1931
3 1394 1311 1395
3 1395 1521 1522
3 467 479 480
3 1755 1754 1793
3 1231 1230 1232
3 1557 1553 2030
3 1624 1691 2262
3 584 632 633
3 1094 1091 1969
3 708 709 710
3 1948 1627 2488
3 952 951 953
3 1102 1103 1104
3 1047 1048 1049
3 1310 1311 1394
3 1852 1099 1985
3 143 144 1717
3 813 812 891
3 1944 1044 1945
3 1105 1354 1355
3 1300 1302 1455
3 1914 936 1940
3 1415 1391 1710
3 1299 1027 1843
3 952 1084 1865
3 1695 1274 1696
3 776 774 1928
3 282 281 283
3 2003 1347 2279
3 1206 995 1499
3 1164 1685 1686
3 1551 1565 2030
3 969 1172 1919
3 633 668 669
3 734 733 735
3 1373 1372 1438
3 599 600 636
3 1431 1860 2487
3 1579 1577 1999
3 484 482 892
3 917 940 941
3 2144 1836 2169
3 1866 1084 1867
3 1110 1747 1748
3 998 1171 1811
3 1390 1120 1391
3 644 1824 2057
3 1362 1961 2048
3 944 1283 1825
3 1086 1027 1298
3 679 1780 1782
3 974 975 1879
3 507 506 518
3 1121 1079 1401
3 775 777 778
3 1965 762 2349
3 1045 1046 1047
3 1772 421 2106
3 16 17 2081
3 416 417 433
3 921 850 2125
3 1607 1855 1958
3 649 648 1848
3 1241 1240 1242
3 2012 1443 2251
3 926 928 1920
3 1487 1488 2025
3 1006 1191 1421
3 1355 1423 1424
3 1133 852 1988
3 591 592 1776
3 1299 1843 1857
3 1085 1308 1309
3 490 491 492
3 958 694 1575
3 1384 1216 1385
3 741 915 1878
3 1233 1232 1234
3 669 790 791
3 481 480 482
3 687 703 704
3 492 493 494
3 1634 1633 1922
3 1697 1696 1698
3 1721 985 1722
3 1839 1273 1892
3 772 735 773
3 488 486 489
3 950 1005 1006
3 1513 1514 1515
3 454 500 501
3 873 773 883
3 284 283 285
3 2185 1505 2442
3 959 883 1035
3 543 535 1897
3 1904 1384 2093
3 800 801 802
3 1037 1035 1215
3 1293 1964 1965
3 1239 1238 1240
3 943 1143 2125
3 1782 1784 1785
3 913 756 942
3 488 490 1884
3 1590 1749 2501
3 1235 1234 1236
3 791 856 1408
3 702 2015 2070
3 1108 1539 1540
3 1021 1023 1045
3 695 506 1828
3 1530 1528 1532
3 488 489 490
3 1621 1619 2161
3 704 705 706
3 1304 1303 1305
3 558 1704 2167
3 625 622 626
3 542 553 554
3 604 573 641
3 664 684 685
3 564 571 574
3 1108 1540 1879
3 1856 1427 2361
3 880 1025 1129
3 1395 1311 1521
3 1466 1465 1467
3 915 495 1884
3 1515 1516 1523
3 1237 1236 1238
3 606 648 649
3 999 920 1000
3 676 829 1043
3 2100 794 2142
3 227 151 1500
3 577 579 599
3 153 154 1671
3 1175 550 1927
3 1014 888 1015
3 286 285 287
3 1649 1280 2427
3 1725 204 2137
3 975 609 1106
3 1129 1317 1334
3 1109 1730 2426
3 1468 1467 1469
3 1131 1123 1399
3 1215 2235 2378
3 1976 1149 1989
3 397 395 398
3 746 743 1878
3 1041 1343 1598
3 975 1108 1879
3 741 495 915
3 1167 1754 1755
3 288 287 289
3 743 741 1878
3 1274 990 1931
3 1506 214 1507
3 857 1584 2277
3 2341 1522 2387
3 846 932 933
3 1107 1106 1110
3 584 633 1927
3 290 289 291
3 722 591 1776
3 1544 1094 1969
3 1135 270 1647
3 935 949 950
3 1920 1288 2080
3 754 1896 2108
3 1693 1199 2225
3 292 291 293
3 394 393 395
3 745 743 746
3 1002 942 1123
3 731 737 738
3 294 293 295
3 1018 1573 1925
3 296 295 297
3 298 297 299
3 321 322 325
3 317 320 321
3 314 315 317
3 312 313 314
3 310 311 312
3 308 309 310
3 1898 890 2275
3 306 307 308
3 304 305 306
3 1401 1079 1913
3 300 299 301
3 302 303 304
3 300 301 302
3 302 301 303
3 491 489 1936
3 298 299 300
3 304 303 305
3 306 305 307
3 308 307 309
3 310 309 311
3 312 311 313
3 314 313 315
3 317 315 320
3 321 320 322
3 1301 1299 1857
3 514 541 542
3 296 297 298
3 850 838 851
3 1310 1394 1895
3 294 295 296
3 590 605 606
3 292 293 294
3 651 657 658
3 290 291 292
3 1207 1208 1796
3 835 1976 1989
3 621 619 622
3 746 1878 1896
3 481 482 483
3 1026 847 1027
3 1335 1207 1870
3 1661 59 2266
3 727 729 1155
3 288 289 290
3 1058 776 1928
3 662 663 664
3 495 488 1884
3 1959 319 2522
3 943 851 944
3 1293 1291 1964
3 534 532 535
3 640 645 646
3 2280 1014 2385
3 286 287 288
3 591 575 592
3 521 519 529
3 13 14 2114
3 780 779 781
3 918 908 1850
3 837 836 838
3 209 148 1639
3 754 748 1896
3 745 746 747
3 769 671 770
3 929 1065 2197
3 1278 1058 1279
3 483 482 484
3 1564 1557 2030
3 633 807 1927
3 392 391 393
3 1057 1621 2161
3 569 580 581
3 284 285 286
3 876 992 1894
3 497 494 498
3 1630 1635 2041
3 982 1148 1918
3 612 611 613
3 700 634 1044
3 822 674 2099
3 880 1129 1929
3 432 439 654
3 1039 1291 1292
3 1164 1686 1989
3 1129 1025 1317
3 738 845 846
3 582 583 629
3 278 6 279
3 544 568 569
3 1701 1274 1931
3 747 749 751
3 1085 953 1308
3 928 930 1070
3 747 748 749
3 1421 1422 2415
3 902 903 904
3 1309 1308 1543
3 642 641 643
3 904 981 1792
3 646 784 785
3 536 543 544
3 1204 1205 1207
3 365 694 958
3 71 72 217
3 88 89 1901
3 87 88 193
3 101 102 189
3 85 86 242
3 99 100 241
3 74 75 192
3 91 92 219
3 94 95 191
3 83 84 220
3 97 98 221
3 77 78 218
3 80 81 194
3 89 90 245
3 62 63 244
3 60 61 188
3 64 65 223
3 67 68 190
3 90 91 1909
3 98 99 1905
3 61 62 1908
3 69 70 243
3 68 69 1907
3 70 71 1910
3 410 411 416
3 586 589 590
3 685 684 2029
3 390 389 391
3 1715 1150 1811
3 1924 1837 2215
3 282 283 284
3 496 497 1929
3 233 1671 1769
3 627 2185 2442
3 1567 1552 2062
3 629 630 812
3 424 453 454
3 583 562 1942
3 749 750 805
3 744 743 745
3 1897 535 1898
3 467 480 481
3 504 759 880
3 670 643 671
3 89 245 1901
3 193 88 1901
3 221 98 1905
3 245 90 1909
3 91 219 1909
3 62 244 1908
3 188 61 1908
3 99 241 1905
3 190 68 1907
3 71 217 1910
3 69 243 1907
3 243 70 1910
3 505 499 506
3 475 513 514
3 1945 1044 2071
3 1712 2125 2353
3 339 343 440
3 989 1360 1361
3 764 869 1152
3 778 777 779
3 1686 1685 1687
3 742 741 743
3 979 989 1886
3 729 731 1887
3 926 927 928
3 1305 1306 1307
3 1838 1278 2292
3 747 746 748
3 181 182 1652
3 1886 1361 2305
3 1595 1594 2486
3 597 596 598
3 928 1288 1920
3 1970 824 2156
3 1425 1424 1426
3 497 504 1929
3 748 746 1896
3 745 747 1900
3 998 858 1171
3 563 547 564
3 1155 729 1887
3 634 583 1942
3 1439 1173 1440
3 1026 1027 1086
3 79 80 1904
3 1533 1532 1536
3 1449 1426 1513
3 1106 609 1936
3 1318 1013 1319
3 1098 695 1828
3 492 494 496
3 750 748 754
3 731 738 1887
3 2415 1422 2516
3 533 562 582
3 988 1837 1924
3 1216 1215 1863
3 534 535 536
3 747 751 1900
3 1753 809 2119
3 1183 824 1970
3 740 495 741
3 80 194 1904
3 893 383 2087
3 655 605 1939
3 1884 2034 2082
3 1301 1857 1923
3 1307 1306 1708
3 752 745 1900
3 750 754 755
3 76 77 1903
3 2090 2347 2365
3 255 30 2159
3 132 254 2160
3 448 434 449
3 753 848 926
3 1075 1074 1327
3 487 488 495
3 377 381 647
3 483 484 485
3 755 754 2148
3 1584 1925 2277
3 1186 1183 1970
3 951 891 1281
3 485 484 486
3 546 527 547
3 133 134 1766
3 1786 1785 2409
3 280 281 282
3 460 449 461
3 744 745 752
3 77 218 1903
3 983 1918 2342
3 1708 1306 1810
3 1389 2069 2170
3 487 486 488
3 641 573 1954
3 507 518 519
3 502 461 503
3 519 518 1899
3 1202 1203 1204
3 821 897 1972
3 92 93 1902
3 521 529 530
3 749 748 750
3 2176 1380 2416
3 885 826 886
3 485 486 487
3 371 372 376
3 1289 1070 1871
3 1110 1657 1747
3 753 926 1943
3 700 1044 1944
3 880 881 1025
3 496 1845 2034
3 1072 1981 2393
3 462 464 2134
3 1949 1771 2359
3 1044 634 1942
3 550 584 1927
3 1390 1415 2118
3 526 503 527
3 990 845 1931
3 1009 1213 1214
3 740 742 1144
3 219 92 1902
3 727 1155 1899
3 369 370 371
3 623 690 2150
3 1279 1058 1928
3 1408 2235 2286
3 487 495 740
3 979 1886 2086
3 1305 1303 1306
3 421 412 1951
3 843 844 996
3 633 669 807
3 518 727 1899
3 826 825 1961
3 1657 1106 1936
3 1172 1012 1173
3 740 741 742
3 433 417 434
3 505 506 507
3 1333 1674 2437
3 742 743 744
3 469 458 470
3 1381 1380 1382
3 1293 1965 2515
3 1554 1559 2062
3 553 557 2499
3 1774 389 2339
3 497 498 499
3 483 485 576
3 740 1144 1935
3 773 735 834
3 366 367 369
3 1120 1118 1876
3 1515 1523 1574
3 1319 1013 2039
3 1303 1301 1923
3 457 447 458
3 561 593 594
3 1355 1424 1425
3 609 491 1936
3 204 1732 2137
3 791 1408 1642
3 995 944 1825
3 456 471 475
3 1692 1693 2239
3 580 1763 2164
3 1292 1293 2117
3 441 452 456
3 388 384 389
3 823 821 1972
3 504 880 1929
3 176 177 1680
3 1070 1071 1871
3 15 2260 2477
3 362 363 366
3 2178 2300 2449
3 1035 883 1036
3 2285 1563 2307
3 978 977 1074
3 1090 1102 2029
3 1810 1306 1923
3 496 494 497
3 1306 1303 1923
3 432 654 1915
3 934 933 935
3 356 355 365
3 398 403 404
3 635 701 843
3 1110 1106 1657
3 574 571 575
3 1025 881 1176
3 386 380 786
3 415 432 1915
3 343 347 1911
3 1070 930 1071
3 1688 1740 2231
3 1385 1216 1863
3 1696 1274 1701
3 1645 305 2317
3 880 759 881
3 926 848 927
3 1427 1423 2217
3 1339 1662 2388
3 770 774 775
3 1263 1257 1428
3 1337 1864 2412
3 349 348 355
3 2267 1721 2498
3 753 752 847
3 1375 1086 1473
3 900 982 983
3 332 335 739
3 429 428 430
3 744 752 753
3 1171 2132 2165
3 1425 1426 1449
3 987 641 1954
3 1883 1786 2409
3 427 426 428
3 928 927 930
3 1815 1105 2015
3 1206 1499 1941
3 410 406 411
3 573 540 1954
3 497 499 504
3 528 560 561
3 1933 1404 2399
3 1091 1089 1969
3 1804 1282 2073
3 504 505 759
3 963 924 1113
3 1711 1710 1712
3 881 759 1146
3 968 1199 1200
3 351 352 362
3 848 847 1026
3 521 530 531
3 1884 490 2034
3 1277 957 1966
3 1349 1350 2329
3 676 1043 2045
3 997 1159 1286
3 517 1889 1890
3 781 835 836
3 944 948 1283
3 722 1776 2026
3 507 519 520
3 2040 1352 2058
3 1276 957 1277
3 446 437 447
3 931 860 977
3 361 359 765
3 1248 1536 2534
3 512 523 528
3 408 412 413
3 1368 1369 1370
3 451 2169 2223
3 192 75 1994
3 942 756 2026
3 345 344 348
3 764 1152 1963
3 413 418 419
3 1286 1773 1774
3 770 671 774
3 275 549 2124
3 1497 1645 2461
3 1982 1472 2272
3 422 435 441
3 281 279 736
3 1134 270 1135
3 582 562 583
3 1421 2415 2454
3 485 487 1935
3 2300 1067 2480
3 1578 1576 1827
3 930 927 1061
3 1026 1086 1375
3 922 2259 2379
3 1391 1120 1876
3 1495 1494 2493
3 404 407 408
3 879 2178 2449
3 1700 1698 2036
3 607 1517 1520
3 753 847 848
3 416 411 417
3 1144 742 1943
3 775 776 777
3 754 2108 2148
3 1006 1421 1953
3 585 581 586
3 531 530 532
3 235 1709 1888
3 520 519 521
3 1180 1181 1349
3 1146 759 1967
3 708 710 1921
3 1350 2253 2329
3 436 430 437
3 504 499 505
3 643 641 987
3 336 330 517
3 811 1059 1149
3 1164 1411 1685
3 846 933 934
3 635 843 1960
3 983 982 1918
3 971 872 1096
3 1149 1163 1164
3 169 237 1724
3 1314 1315 1316
3 629 583 630
3 891 812 1916
3 462 463 464
3 487 740 1935
3 798 2084 2189
3 1814 1838 2292
3 1284 1489 1491
3 340 336 2014
3 1670 1461 2200
3 920 782 2057
3 890 2241 2275
3 510 511 512
3 278 279 280
3 839 802 840
3 1858 235 1888
3 1698 1696 2036
3 104 105 222
3 57 58 224
3 1185 1183 1186
3 588 587 623
3 638 600 1988
3 1282 1386 2245
3 811 776 1058
3 816 815 876
3 2034 1845 2082
3 761 636 1741
3 566 565 587
3 174 175 1725
3 347 350 351
3 1469 1495 1496
3 1059 1058 1278
3 811 1149 1976
3 576 485 1935
3 659 658 660
3 859 1153 1962
3 76 1903 1994
3 1821 1109 2426
3 1294 1038 1622
3 733 1833 2075
3 992 993 1980
3 1566 1561 2285
3 525 474 2041
3 464 465 510
3 343 346 347
3 360 893 1982
3 650 649 651
3 896 608 936
3 950 1006 1007
3 1508 1859 1860
3 539 538 565
3 440 343 1911
3 341 340 344
3 221 1905 1906
3 1297 1823 2142
3 759 505 1967
3 1295 1053 1296
3 473 470 474
3 1463 1465 1466
3 1143 1206 2028
3 799 685 800
3 1210 2077 2203
3 509 508 538
3 492 496 2034
3 1553 1551 2030
3 1260 1261 1269
3 1430 1040 1703
3 586 590 1940
3 838 836 868
3 1705 624 2276
3 1749 972 2501
3 742 744 1943
3 804 962 1981
3 1367 1368 2254
3 531 532 533
3 337 336 340
3 1157 1094 1544
3 536 544 1158
3 812 630 1960
3 781 779 835
3 56 57 1947
3 630 583 634
3 1405 1404 1932
3 1281 891 1916
3 339 342 343
3 1411 1163 1730
3 322 323 324
3 344 340 2091
3 1735 1734 1736
3 75 76 1994
3 430 682 2494
3 1907 243 2360
3 589 581 2164
3 694 355 2196
3 744 753 1943
3 775 774 776
3 1210 1430 2077
3 335 338 339
3 1102 1803 2029
3 1078 937 1079
3 870 655 1939
3 505 507 1967
3 357 360 1982
3 1896 1878 2101
3 326 325 328
3 934 935 957
3 585 608 895
3 333 330 336
3 1270 1272 1524
3 688 817 878
3 507 520 1967
3 1428 1257 2074
3 1818 1817 2000
3 896 937 1077
3 934 957 1111
3 329 328 330
3 1499 995 1825
3 944 851 948
3 387 445 462
3 1678 1161 2228
3 777 776 811
3 313 311 757
3 324 331 332
3 848 1026 1955
3 1312 998 1811
3 1321 1322 2037
3 1080 1079 1121
3 1105 1355 2015
3 1645 2317 2461
3 1559 1568 2062
3 332 334 335
3 501 500 508
3 321 325 326
3 394 395 397
3 322 320 323
3 1529 1530 2171
3 1137 797 1138
3 811 1058 1059
3 661 660 662
3 569 581 585
3 183 4 2303
3 5 160 2304
3 1340 1138 1341
3 1660 1626 2185
3 1743 1464 2347
3 1026 1375 1955
3 1149 1059 1163
3 1736 1625 2194
3 1322 1667 2434
3 311 309 1959
3 309 307 319
3 894 700 1944
3 533 534 562
3 1276 1277 1366
3 2190 1706 2408
3 533 532 534
3 1214 1213 1410
3 1164 1163 1411
3 843 701 844
3 1009 1214 2055
3 234 1589 1788
3 2000 1817 2174
3 317 321 2050
3 328 325 945
3 392 393 394
3 588 623 2089
3 1162 958 1681
3 1078 1080 1136
3 927 848 1955
3 1496 1497 1498
3 390 391 392
3 1061 927 1955
3 1283 948 1284
3 635 634 700
3 1244 1251 1252
3 218 78 2093
3 756 722 2026
3 1071 1784 2419
3 1218 1505 2185
3 1284 948 1285
3 1489 1285 1490
3 918 1850 1851
3 684 1090 2029
3 1759 572 2537
3 1691 1690 2446
3 1979 1158 2071
3 606 649 650
3 2045 1043 2046
3 103 104 2025
3 630 634 635
3 360 383 893
3 406 386 2043
3 1909 219 2023
3 1111 957 1276
3 1925 1437 2277
3 1536 2268 2340
3 854 852 1133
3 233 153 1671
3 651 658 659
3 2099 1787 2368
3 1033 1032 1130
3 1015 1372 1373
3 1412 942 2026
3 253 264 1441
3 1531 1534 2332
3 701 700 894
3 106 107 1990
3 2048 1961 2455
3 276 274 2099
3 738 846 1968
3 1325 925 1326
3 896 936 937
3 585 586 608
3 1450 854 1973
3 1361 1360 1362
3 1045 1668 2512
3 303 301 444
3 996 844 997
3 79 1904 2093
3 1989 1686 2095
3 1928 774 2033
3 1942 562 1979
3 287 285 316
3 935 950 1966
3 1466 1467 1468
3 1242 1243 1244
3 1887 738 1968
3 2115 210 2477
3 878 929 1083
3 1326 1736 2194
3 886 888 1014
3 895 608 896
3 289 287 1978
3 821 822 897
3 936 608 1940
3 613 614 615
3 51 52 1996
3 417 411 1160
3 1149 1164 1989
3 386 786 2043
3 285 283 1971
3 1309 1543 2147
3 375 373 2053
3 371 370 372
3 779 777 1976
3 1286 1159 1773
3 2177 887 2376
3 1560 1557 1564
3 1403 1882 2399
3 1727 1757 2246
3 279 6 2049
3 1619 1438 2438
3 291 289 758
3 1781 1915 2294
3 425 401 426
3 349 355 356
3 66 67 2118
3 474 548 2041
3 1686 1687 2007
3 1262 1456 1457
3 1123 942 1412
3 1916 812 1960
3 1355 1425 2015
3 735 733 2075
3 1861 879 2449
3 1284 1285 1489
3 490 492 2034
3 366 363 367
3 980 578 2051
3 906 904 1792
3 534 536 1979
3 842 924 963
3 2051 578 2083
3 1077 937 1078
3 1102 1104 1803
3 894 1944 1946
3 398 404 2060
3 1007 1006 1953
3 369 367 370
3 348 354 2196
3 1078 1079 1080
3 1378 1380 1381
3 1568 1365 2439
3 608 586 1940
3 598 610 611
3 760 636 761
3 869 1137 1351
3 671 643 2033
3 1661 1345 2267
3 938 914 1057
3 783 761 914
3 576 1835 2144
3 388 389 390
3 297 295 318
3 454 453 500
3 1906 1728 2246
3 1439 1440 2468
3 1159 1013 1318
3 764 797 869
3 236 143 1717
3 782 644 2057
3 592 595 596
3 1542 2332 2443
3 1521 1311 2147
3 345 348 349
3 1304 1452 2205
3 1644 1907 2360
3 2146 1125 2149
3 997 844 1013
3 628 375 2053
3 299 297 1984
3 957 935 1966
3 664 685 799
3 301 299 1975
3 362 352 363
3 777 811 1976
3 1942 1979 2071
3 1001 920 2057
3 312 314 768
3 1552 1554 2062
3 615 616 617
3 357 1982 2076
3 800 802 839
3 774 671 2033
3 1749 1169 2105
3 365 958 1162
3 617 618 619
3 283 281 1938
3 1351 1772 2414
3 1525 1765 2489
3 846 934 1968
3 635 700 701
3 555 554 577
3 536 1158 1979
3 1101 1404 1405
3 630 635 1960
3 1811 1150 2089
3 2113 1666 2249
3 172 173 1847
3 107 108 195
3 54 55 196
3 1191 1768 2023
3 1455 1302 2205
3 115 116 2017
3 1387 1333 2437
3 659 661 764
3 1080 1121 1188
3 50 51 2011
3 411 406 2043
3 295 293 1983
3 643 987 2033
3 707 706 708
3 129 130 261
3 32 33 260
3 2159 260 2265
3 449 434 567
3 1314 1029 1315
3 917 796 940
3 378 375 628
3 108 109 1991
3 2370 1759 2537
3 341 344 345
3 997 1013 1159
3 544 569 1993
3 950 1007 1966
3 477 474 525
3 351 350 352
3 1696 1701 2036
3 334 331 803
3 1137 1138 1340
3 562 534 1979
3 109 110 246
3 52 53 247
3 1368 1316 1369
3 659 660 661
3 33 34 2002
3 123 124 2005
3 835 779 1976
3 851 838 1992
3 1530 1533 2172
3 1668 1045 2348
3 1162 1681 1706
3 342 338 468
3 298 300 358
3 765 359 2065
3 725 826 885
3 35 36 2003
3 46 47 2019
3 38 39 2006
3 336 517 2014
3 934 1111 1968
3 116 117 2018
3 650 651 1963
3 223 1711 2162
3 640 594 645
3 1333 1330 2192
3 104 222 2025
3 1603 922 2379
3 963 1113 1115
3 2084 1193 2189
3 564 570 571
3 36 37 2004
3 57 224 1947
3 1542 1601 2269
3 122 123 2012
3 1000 920 1001
3 127 128 240
3 34 35 239
3 383 387 2087
3 1161 1107 2228
3 1781 2294 2419
3 1201 1200 1202
3 124 125 225
3 37 38 226
3 1340 1341 1342
3 869 797 1137
3 839 840 1008
3 1158 544 1993
3 1326 925 1894
3 352 350 353
3 326 329 954
3 1864 2344 2412
3 836 835 2095
3 1051 1053 1295
3 1031 720 1032
3 503 461 787
3 1407 1112 2044
3 661 662 2058
3 838 868 1992
3 112 113 197
3 49 50 198
3 1359 980 1413
3 121 122 211
3 40 41 212
3 48 49 2010
3 113 114 2009
3 1741 673 2131
3 41 42 2020
3 120 121 2013
3 1409 2035 2097
3 1511 1374 2506
3 114 115 248
3 47 48 249
3 42 43 250
3 119 120 251
3 171 6 201
3 6 172 203
3 585 895 1993
3 43 44 2024
3 118 119 2021
3 905 904 906
3 764 661 797
3 337 340 341
3 1413 980 2051
3 117 118 205
3 44 45 206
3 347 346 350
3 1420 1076 1525
3 324 323 331
3 434 417 2031
3 965 967 969
3 716 719 788
3 1260 1254 1261
3 2053 373 2103
3 2069 2068 2170
3 326 328 329
3 1706 996 2408
3 273 275 2124
3 969 1011 1012
3 590 606 2001
3 1718 1611 2280
3 1914 1940 2001
3 915 1884 2082
3 329 330 333
3 620 859 955
3 2168 1409 2305
3 296 298 1997
3 915 2082 2101
3 339 338 342
3 1218 994 1505
3 333 336 337
3 266 263 1742
3 1873 768 2127
3 244 63 2162
3 64 223 2162
3 343 342 346
3 914 761 2258
3 310 312 1987
3 799 800 2055
3 302 304 763
3 1559 1566 1568
3 1598 1343 2114
3 592 575 595
3 341 345 794
3 189 1842 2220
3 767 815 816
3 1003 912 1004
3 839 1008 1009
3 1263 1428 1429
3 564 547 570
3 1845 1334 2082
3 332 331 334
3 901 866 902
3 651 659 1963
3 1009 1112 1213
3 335 334 338
3 569 585 1993
3 1665 1336 2299
3 1945 2071 2153
3 863 862 864
3 907 906 908
3 1849 1486 1930
3 1935 1144 2080
3 967 966 968
3 809 900 2119
3 865 864 866
3 835 1989 2095
3 190 1907 2417
3 333 337 522
3 1110 1748 2228
3 1193 1194 1195
3 94 191 2166
3 473 1854 2453
3 1769 1134 2369
3 948 851 1992
3 237 170 2216
3 420 419 422
3 1448 1447 2364
3 483 576 2144
3 721 1919 2032
3 885 886 1891
3 613 611 614
3 886 1014 1891
3 1160 411 2043
3 1918 1283 2342
3 1651 206 2485
3 1242 1240 1243
3 598 596 610
3 1295 1296 1459
3 1185 1186 1948
3 1425 1449 2070
3 294 296 762
3 1285 948 1992
3 925 876 1894
3 712 714 789
3 603 1668 2398
3 1940 590 2001
3 721 570 964
3 834 735 2075
3 1144 1920 2080
3 2263 1635 2511
3 1204 1207 1335
3 2235 1408 2378
3 965 964 966
3 1990 1435 2218
3 397 398 2060
3 1138 797 2058
3 1787 1141 2368
3 2068 820 2170
3 360 359 361
3 387 462 2087
3 1524 1272 1934
3 819 698 820
3 1197 1196 1198
3 1662 2126 2388
3 78 79 2093
3 1150 588 2089
3 1269 1261 1270
3 1878 915 2101
3 451 467 2169
3 2262 1387 2437
3 1009 1008 1112
3 757 311 1959
3 897 898 1139
3 1854 473 2483
3 2015 1425 2070
3 2082 1334 2101
3 963 1115 1174
3 1047 1049 1287
3 1194 423 1196
3 321 326 2050
3 417 1160 2031
3 854 1133 1973
3 1201 1212 1348
3 705 1586 2163
3 309 319 1959
3 1353 1390 2417
3 427 428 429
3 357 356 359
3 606 650 2001
3 549 1280 2124
3 1213 1112 1407
3 256 2303 2535
3 356 365 2065
3 662 664 2040
3 701 894 2039
3 1325 1371 2451
3 666 626 667
3 1902 93 2166
3 1236 1234 1246
3 800 839 2055
3 1869 1812 2252
3 1197 1364 1365
3 576 1935 2080
3 404 408 798
3 1678 807 2529
3 1560 1564 2016
3 1319 2039 2122
3 425 426 427
3 349 356 357
3 308 310 327
3 1716 622 2484
3 1801 82 2289
3 1768 1949 2420
3 2006 1926 2507
3 351 364 2407
3 420 423 1193
3 659 764 1963
3 292 294 2038
3 840 842 2027
3 736 279 2049
3 372 373 374
3 461 449 2052
3 2189 1195 2285
3 1174 1115 1398
3 367 363 961
3 909 908 918
3 1738 247 2402
3 1007 1761 2308
3 288 290 2135
3 422 441 2035
3 623 624 690
3 537 525 545
3 1953 1421 2454
3 1887 1968 2123
3 861 691 862
3 654 439 2223
3 1136 1080 2054
3 1312 1811 2089
3 575 571 2032
3 383 361 384
3 968 1200 1201
3 797 661 2058
3 1423 1354 2381
3 1180 1178 1181
3 1513 1515 2180
3 72 73 2217
3 462 445 463
3 12 13 2136
3 457 458 469
3 542 554 555
3 599 636 760
3 254 133 1766
3 1130 1397 1937
3 404 798 2060
3 1044 1942 2071
3 690 691 860
3 357 359 360
3 1008 2027 2152
3 1232 1230 1255
3 372 370 373
3 850 943 2125
3 1457 1456 1492
3 1952 324 2282
3 155 2 2356
3 0 7 2357
3 2017 1379 2288
3 918 1851 2008
3 195 1991 2517
3 2090 803 2347
3 1244 1243 1251
3 290 292 368
3 1432 1082 2214
3 1008 840 2027
3 1743 803 2296
3 1013 844 2039
3 365 1162 2065
3 1594 1315 2184
3 387 384 388
3 1508 1860 2311
3 547 527 2056
3 2005 225 2322
3 314 317 2127
3 1853 556 2327
3 201 6 278
3 1907 1644 2417
3 1896 2101 2108
3 646 645 784
3 538 508 558
3 374 375 377
3 1630 1634 1635
3 1579 1999 2352
3 1647 1648 1849
3 1313 1314 2121
3 1179 1433 2042
3 844 701 2039
3 1252 1251 2098
3 816 876 925
3 1922 1228 2281
3 392 394 396
3 1915 654 2294
3 1652 1653 2487
3 429 430 436
3 456 475 476
3 1605 1392 2510
3 126 1882 2284
3 1784 1780 2419
3 500 453 960
3 377 378 381
3 2178 1587 2300
3 1222 1219 1626
3 413 419 420
3 381 382 400
3 2169 1836 2223
3 1906 1905 2129
3 616 614 793
3 1170 1419 2139
3 101 189 2220
3 241 100 2220
3 1968 1111 2123
3 567 434 2031
3 615 614 616
3 1032 720 1921
3 682 428 2138
3 469 470 473
3 339 440 2261
3 1501 238 2226
3 1154 1431 1653
3 446 447 457
3 1251 1243 1257
3 2229 315 2495
3 1201 1202 1212
3 785 784 879
3 464 463 465
3 66 2118 2395
3 324 332 2282
3 286 288 771
3 17 199 2081
3 571 570 721
3 611 610 2092
3 617 616 618
3 1542 1531 2332
3 400 401 424
3 1325 1326 1371
3 1140 1406 1702
3 1323 443 2302
3 1926 1573 2507
3 436 437 446
3 1262 1457 2098
3 67 190 2118
3 1518 1861 2449
3 989 1359 1360
3 1063 1082 1154
3 1757 96 2526
3 969 967 1011
3 868 836 2095
3 1215 1035 2235
3 96 1757 2309
3 261 2160 2380
3 1381 1382 2126
3 1468 1469 2182
3 1334 1317 2108
3 861 863 1064
3 1270 1261 1271
3 360 361 383
3 287 316 1978
3 1856 192 2367
3 1905 241 2129
3 1615 1809 2425
3 528 523 560
3 979 980 989
3 662 2040 2058
3 721 964 965
3 170 171 2216
3 664 799 2040
3 512 511 523
3 1201 1348 2107
3 620 618 858
3 758 289 1978
3 859 858 998
3 424 425 453
3 1616 1615 2193
3 444 301 1975
3 561 560 593
3 965 966 967
3 1798 376 2430
3 340 2014 2091
3 510 465 511
3 107 195 1990
3 1080 1188 2054
3 1153 998 1312
3 1226 1224 1249
3 1012 1011 1363
3 902 904 905
3 842 963 2027
3 268 270 1134
3 865 901 1125
3 2077 558 2102
3 282 284 442
3 1977 1679 2253
3 1496 1498 2047
3 284 286 2063
3 281 736 1938
3 2132 793 2165
3 1674 215 2437
3 2078 1855 2411
3 839 1009 2055
3 1182 824 1183
3 1168 947 1169
3 1289 1871 2242
3 316 285 1971
3 1270 1271 1272
3 1755 1793 2264
3 51 1996 2011
3 383 384 387
3 1146 1924 2215
3 1279 1928 2202
3 619 618 620
3 1194 1196 1197
3 555 578 979
3 1937 1639 2528
3 1262 1257 1263
3 389 384 2339
3 2251 1338 2464
3 1155 1887 2123
3 1151 1937 2528
3 465 463 828
3 1318 1319 2116
3 1687 1688 2231
3 326 954 2050
3 297 318 1984
3 1308 953 2255
3 1846 2056 2198
3 320 315 2229
3 1254 1252 2059
3 760 761 783
3 951 1281 2255
3 1459 1296 2094
3 2288 1638 2470
3 1975 299 1984
3 52 247 1996
3 468 338 2090
3 2140 1511 2506
3 1125 1126 1192
3 593 824 1182
3 720 708 1921
3 704 706 707
3 623 587 624
3 2044 1112 2152
3 1393 1169 1749
3 900 983 2119
3 783 914 938
3 255 2265 2489
3 2039 894 2122
3 317 2050 2127
3 1866 1867 2513
3 374 373 375
3 429 436 455
3 387 388 445
3 1193 423 1194
3 555 577 578
3 1074 977 1187
3 449 567 2052
3 1197 1198 1364
3 2154 1595 2486
3 1486 1849 2173
3 318 295 1983
3 939 1016 1844
3 131 132 2160
3 30 31 2159
3 881 1146 2215
3 1294 1868 2238
3 1300 1455 2314
3 1365 1364 1912
3 783 938 939
3 2061 1735 2441
3 551 545 601
3 2194 216 2536
3 1251 1257 1262
3 888 887 2177
3 1364 1198 2048
3 1498 1682 2340
3 1589 1590 2501
3 60 188 2266
3 1401 1913 2324
3 195 108 1991
3 420 422 423
3 1675 1470 2474
3 258 1673 2183
3 2161 1619 2438
3 1296 1472 2094
3 1808 1910 2381
3 334 803 2090
3 1490 1285 2232
3 523 511 524
3 1240 1238 2074
3 1184 1183 1185
3 39 40 2151
3 473 474 477
3 1461 1463 2200
3 2072 353 2073
3 861 862 863
3 1206 1941 2401
3 958 1575 2287
3 614 611 2092
3 110 111 2140
3 1136 2054 2110
3 645 594 2133
3 260 33 2002
3 673 767 2131
3 989 980 1359
3 1741 2131 2258
3 1317 1875 2148
3 894 1946 2122
3 863 864 865
3 787 461 2052
3 857 2277 2386
3 109 246 1991
3 2017 116 2018
3 1182 1183 1184
3 377 375 378
3 816 925 1324
3 865 866 901
3 1262 1263 1456
3 359 356 2065
3 2129 241 2472
3 283 1938 1971
3 1458 1210 2203
3 1076 1003 2145
3 196 1738 2402
3 1033 1130 1151
3 1188 1121 2106
3 1140 1702 2096
3 549 687 1280
3 1694 1621 2191
3 861 1064 2112
3 1548 1549 2129
3 1784 1071 2462
3 714 716 2066
3 1961 825 2455
3 1447 1211 2250
3 979 578 980
3 905 907 1209
3 381 378 382
3 457 469 552
3 595 575 2032
3 408 413 2084
3 481 483 2144
3 1745 1349 2293
3 1980 1405 2441
3 198 50 2011
3 248 115 2017
3 912 819 2068
3 620 858 859
3 707 708 720
3 821 674 822
3 514 542 2086
3 400 382 401
3 123 2005 2012
3 1772 1351 2374
3 34 239 2002
3 768 314 2127
3 2003 36 2004
3 280 282 2079
3 124 225 2005
3 596 595 2130
3 593 560 824
3 1504 1502 2519
3 239 35 2003
3 1311 1309 2147
3 1318 1877 2240
3 1860 1432 2311
3 1416 1715 2330
3 859 998 1153
3 352 353 2072
3 312 768 1987
3 2027 1174 2152
3 226 38 2006
3 1827 1024 2117
3 1710 1391 2295
3 690 624 691
3 37 226 2004
3 1153 1312 1885
3 853 855 2186
3 1892 242 2373
3 1967 520 2174
3 939 938 1016
3 47 249 2019
3 388 390 2078
3 1991 2139 2517
3 905 906 907
3 571 721 2032
3 1196 423 2035
3 1324 925 1325
3 1151 1130 1937
3 363 352 2072
3 345 349 2076
3 1031 1032 1033
3 214 179 1859
3 211 122 2012
3 602 601 652
3 117 205 2018
3 710 712 2067
3 1602 187 2357
3 520 2000 2174
3 85 242 2335
3 220 84 2335
3 381 400 2113
3 1586 1587 2435
3 424 401 425
3 963 1174 2027
3 860 691 861
3 610 596 2130
3 1958 2078 2431
3 570 547 2056
3 237 2216 2354
3 1211 1692 2219
3 298 358 1997
3 909 947 1041
3 441 456 2097
3 1135 1647 1849
3 1601 1542 2443
3 197 113 2009
3 49 198 2010
3 1911 347 2407
3 1729 191 2309
3 212 41 2020
3 121 211 2013
3 222 105 2218
3 1125 901 1126
3 114 248 2009
3 249 48 2010
3 42 250 2020
3 251 120 2013
3 233 1769 2369
3 1870 647 2113
3 794 345 2076
3 250 43 2024
3 119 251 2021
3 901 902 2141
3 964 570 2056
3 739 335 2261
3 2108 1317 2148
3 577 599 2083
3 205 118 2021
3 44 206 2024
3 1247 1241 2323
3 1894 992 2244
3 6 203 2049
3 1642 1678 2529
3 1417 1873 2333
3 1422 2023 2516
3 341 794 2100
3 73 74 2361
3 1234 1232 2088
3 1261 1254 2059
3 896 1077 2257
3 1921 710 2067
3 125 126 2284
3 220 1699 2289
3 159 5 2304
3 4 184 2303
3 2059 1252 2098
3 1003 1004 2145
3 2328 1325 2451
3 1486 227 1500
3 63 64 2162
3 2081 1192 2260
3 508 500 2102
3 667 1872 2318
3 338 334 2090
3 423 422 2035
3 1192 1126 1471
3 907 908 909
3 1330 1328 2192
3 1972 897 2500
3 2443 316 2514
3 242 86 2373
3 87 193 2373
3 420 1193 2084
3 1473 1086 2358
3 1987 768 2037
3 522 337 2100
3 627 1660 2185
3 1793 446 2264
3 1405 2061 2441
3 1502 1217 2302
3 171 201 2216
3 1158 1993 2153
3 1197 1365 2120
3 1712 1710 2295
3 1121 1401 2414
3 93 94 2166
3 653 652 688
3 622 1716 2452
3 1345 1720 2267
3 477 537 556
3 128 129 2181
3 2331 1295 2458
3 784 645 874
3 1269 1270 2199
3 189 102 2355
3 1041 1168 1343
3 246 110 2140
3 477 525 537
3 755 1895 2371
3 1947 1723 2313
3 1134 1135 2369
3 223 65 2395
3 968 1201 2107
3 1577 1578 2325
3 210 15 2477
3 961 363 2072
3 1581 1579 2352
3 349 357 2076
3 337 341 2100
3 305 303 2317
3 370 367 2103
3 762 296 1997
3 581 580 2164
3 1278 1838 2372
3 1548 2129 2472
3 594 593 2133
3 2021 251 2022
3 2047 1247 2182
3 967 968 2107
3 1169 947 2008
3 481 2144 2169
3 793 614 2092
3 1910 217 2381
3 1251 1262 2098
3 716 788 2066
3 2101 1334 2108
3 2006 39 2151
3 1603 2379 2508
3 1926 2006 2151
3 96 97 2526
3 750 755 2371
3 789 714 2066
3 909 918 947
3 1993 895 2153
3 106 1990 2218
3 1243 1240 2074
3 832 986 1189
3 1283 1284 2342
3 2297 195 2517
3 1043 829 2326
3 767 816 2131
3 602 653 676
3 1004 912 2068
3 2086 1886 2224
3 1124 2177 2467
3 426 401 2531
3 707 720 1030
3 1000 1001 2184
3 1315 1029 2184
3 467 481 2169
3 541 513 2256
3 647 381 2113
3 225 2284 2510
3 2 156 2356
3 187 0 2357
3 40 212 2151
3 2245 1386 2383
3 676 677 829
3 1004 2068 2069
3 1860 232 2487
3 1031 1033 1034
3 829 830 972
3 996 997 2408
3 1195 1194 2120
3 987 1869 2202
3 1410 1213 2222
3 819 820 2068
3 1485 1486 2173
3 1564 2030 2155
3 807 669 2529
3 129 261 2181
3 1525 1076 2145
3 578 577 2083
3 327 310 1987
3 1083 929 2197
3 2131 1324 2258
3 798 408 2084
3 1838 696 2426
3 1486 1500 1930
3 1946 1944 2291
3 2257 1077 2291
3 1512 1661 2266
3 445 388 2078
3 1192 1471 2260
3 2118 1415 2395
3 1466 1468 2158
3 830 677 831
3 211 2012 2251
3 652 601 2442
3 537 545 551
3 558 508 2102
3 198 2011 2128
3 1718 2280 2385
3 500 960 2102
3 1168 1169 1393
3 1127 971 2496
3 95 96 2309
3 2030 1565 2155
3 1919 1172 2273
3 977 860 2112
3 240 128 2181
3 294 762 2038
3 1800 1799 2195
3 712 789 2067
3 972 1749 2326
3 472 1683 2212
3 874 645 2133
3 551 2045 2201
3 2105 1043 2326
3 1957 1212 2301
3 1514 1856 2367
3 565 538 2167
3 373 370 2103
3 355 348 2196
3 1934 1272 2138
3 1934 426 2531
3 1881 1400 2481
3 2046 1851 2327
3 367 961 2103
3 1963 1152 2206
3 201 278 443
3 3 131 2444
3 31 1 2445
3 2035 441 2097
3 503 787 2198
3 1135 1849 1930
3 1534 1983 2306
3 2089 623 2150
3 687 704 2109
3 869 1351 2363
3 1302 1304 2205
3 955 1716 2484
3 1030 720 1031
3 1159 1318 2240
3 1228 1226 2281
3 947 918 2008
3 413 420 2084
3 785 879 2532
3 1041 947 1168
3 1468 2182 2323
3 1246 1234 2088
3 1730 1163 2372
3 542 555 2086
3 1599 631 2312
3 1146 1967 2174
3 1078 1136 2343
3 1515 1574 2180
3 2336 885 2469
3 1257 1243 2074
3 1347 1346 2279
3 2001 650 2206
3 1480 1601 2514
3 1029 1000 2184
3 1956 788 2336
3 1271 1261 2059
3 130 3 2444
3 1 32 2445
3 1570 1507 2197
3 1232 1255 2088
3 791 1642 2529
3 1601 1479 2269
3 1361 1362 2168
3 1634 1922 2281
3 765 2065 2190
3 2071 1158 2153
3 1699 1801 2289
3 832 831 833
3 1864 346 2344
3 456 476 2097
3 1855 828 2411
3 2065 1162 2190
3 1125 1192 2149
3 599 760 2083
3 361 765 2339
3 1731 2123 2241
3 1349 1181 1350
3 1443 1275 2251
3 1819 524 2429
3 1021 1045 2512
3 858 618 2132
3 1999 358 2338
3 368 292 2038
3 290 368 2135
3 803 331 2296
3 1112 1008 2152
3 56 1947 2313
3 555 979 2086
3 1469 1496 2182
3 1011 967 2107
3 248 2017 2288
3 1809 789 2425
3 960 453 2221
3 538 558 2167
3 1858 1187 2248
3 2246 1757 2526
3 902 905 2141
3 1851 1853 2327
3 1224 1222 2111
3 771 288 2135
3 1945 2153 2257
3 1420 1525 2489
3 1399 1123 2393
3 103 2025 2355
3 897 822 898
3 1861 940 2532
3 865 1125 2146
3 1675 2474 2522
3 1573 2157 2507
3 1632 1631 2382
3 551 601 602
3 527 503 2198
3 1708 805 2337
3 1059 1278 2372
3 2056 527 2198
3 860 861 2112
3 1668 2348 2398
3 255 2159 2265
3 1541 1542 2269
3 1428 2074 2227
3 1582 1583 2321
3 389 1774 2503
3 2004 226 2157
3 1777 397 2405
3 1368 1436 2254
3 1061 2409 2462
3 1071 930 2462
3 1126 901 2141
3 1194 1197 2120
3 1452 1952 2282
3 2116 1319 2482
3 105 106 2218
3 1981 1399 2393
3 2119 983 2143
3 444 1682 2461
3 2173 1648 2463
3 616 793 2132
3 1791 1190 2334
3 1826 1728 2259
3 602 652 653
3 1834 1292 2428
3 556 2201 2327
3 1014 1015 2385
3 1995 1287 2331
3 1193 1195 2189
3 816 1324 2131
3 879 1861 2532
3 593 1182 2133
3 1402 266 1742
3 2216 1323 2354
3 1660 1636 2502
3 620 955 2484
3 1162 1706 2190
3 1870 2113 2249
3 204 1680 1732
3 1909 2023 2420
3 217 72 2217
3 376 372 2430
3 905 1209 2141
3 1378 1381 2283
3 1236 1246 2227
3 286 771 2063
3 1635 2263 2502
3 100 101 2220
3 1139 898 1140
3 2114 1343 2136
3 442 284 2063
3 1772 2106 2414
3 1985 1755 2533
3 2192 1328 2315
3 1064 863 2146
3 1631 1637 2459
3 736 2049 2523
3 221 1906 2246
3 318 1983 2171
3 1496 2047 2182
3 1374 2139 2506
3 196 55 2313
3 2087 462 2134
3 676 653 677
3 2304 257 2491
3 1401 2324 2363
3 829 677 830
3 654 2223 2242
3 1187 977 2112
3 1463 1466 2200
3 2023 219 2516
3 1176 881 2215
3 513 471 2290
3 1812 459 2252
3 1386 1269 2199
3 291 758 2306
3 618 616 2132
3 278 280 2210
3 83 220 2289
3 82 83 2289
3 938 1057 2161
3 1189 986 1190
3 788 719 2336
3 1914 2001 2206
3 232 181 1652
3 1567 2062 2490
3 313 757 2495
3 622 619 2484
3 688 878 1320
3 1222 1626 2111
3 282 442 2079
3 1169 2008 2105
3 1966 1007 2308
3 2040 799 2237
3 1744 2229 2495
3 986 833 1063
3 2284 1605 2510
3 887 1961 2376
3 215 1624 2262
3 830 831 832
3 476 475 2224
3 439 451 2223
3 1932 1933 2380
3 2227 1246 2366
3 1212 1202 2301
3 1107 1110 2228
3 249 2010 2299
3 1983 293 2306
3 2055 1214 2237
3 1438 1372 2478
3 824 560 2156
3 2320 1866 2513
3 1351 1137 2374
3 868 2007 2232
3 2063 771 2064
3 1507 214 1508
3 1728 1727 2246
3 1045 1047 2348
3 1139 1140 2096
3 1648 1649 2463
3 1502 2302 2519
3 704 707 2109
3 2343 1136 2396
3 650 1963 2206
3 2153 895 2257
3 396 1958 2431
3 1379 1377 2288
3 2115 1471 2319
3 2033 987 2202
3 2239 1693 2518
3 2025 1488 2355
3 1209 2115 2319
3 523 524 2156
3 783 939 2243
3 376 1798 2497
3 2066 788 2193
3 1984 318 2172
3 425 427 2221
3 203 172 1847
3 446 457 2264
3 1312 2089 2150
3 2138 1272 2211
3 897 1139 2274
3 828 1819 2429
3 1249 1224 2111
3 666 667 2318
3 1371 1326 2194
3 2433 1499 2475
3 1272 1271 2211
3 1367 2254 2479
3 1386 2053 2383
3 2074 1238 2227
3 755 2148 2320
3 2117 1604 2428
3 475 514 2224
3 228 2187 2457
3 1868 1504 2520
3 1626 1218 2185
3 2123 1111 2241
3 1287 1049 2331
3 1280 687 2109
3 459 1814 2292
3 54 196 2402
3 863 865 2146
3 204 176 1680
3 514 2086 2224
3 1646 603 2398
3 112 197 2346
3 358 300 2338
3 1140 898 1141
3 1204 1335 2301
3 1016 2161 2438
3 909 1041 2175
3 1681 2448 2492
3 2252 459 2292
3 1992 868 2232
3 1035 1036 2235
3 1051 1295 2331
3 1836 1289 2242
3 1508 214 1859
3 247 53 2402
3 1016 938 2161
3 1408 856 2378
3 1466 2158 2200
3 725 885 2336
3 855 1450 2421
3 2023 1768 2420
3 1238 1236 2227
3 1679 202 2253
3 2107 1348 2233
3 1653 1431 2487
3 1946 2291 2343
3 2253 202 2329
3 1885 1312 2150
3 378 628 2390
3 2195 1383 2432
3 1520 1519 2480
3 1532 1733 2534
3 308 327 2278
3 953 951 2255
3 1213 1407 2222
3 1561 1563 2285
3 302 763 2338
3 1928 2033 2202
3 763 304 2345
3 832 833 986
3 1352 2040 2237
3 247 1881 2481
3 560 523 2156
3 335 339 2261
3 346 342 2344
3 201 443 1323
3 2301 1335 2466
3 323 320 2229
3 1136 2110 2396
3 1139 1977 2274
3 1809 1615 2423
3 1707 1791 2334
3 46 2019 2485
3 2064 1294 2238
3 1950 197 2404
3 2021 2022 2176
3 1949 245 2420
3 2044 2152 2207
3 1063 1154 1707
3 1012 1363 2406
3 280 2079 2210
3 2237 1214 2351
3 820 698 2318
3 1140 1141 1406
3 205 2021 2176
3 2043 786 2310
3 2145 1004 2446
3 707 1030 2109
3 1406 2460 2473
3 2137 1268 2226
3 16 2081 2260
3 567 2031 2219
3 2112 1064 2248
3 206 45 2485
3 2347 1462 2365
3 1650 1962 2362
3 453 425 2221
3 1209 907 2175
3 1111 1276 2241
3 2448 1145 2492
3 2051 2083 2243
3 59 60 2266
3 1402 1742 2530
3 831 677 2209
3 624 587 2276
3 238 174 1725
3 1011 2107 2233
3 468 2365 2412
3 2337 805 2371
3 254 1932 2380
3 1174 1398 2207
3 2140 111 2346
3 1381 2186 2283
3 1987 2037 2188
3 1740 559 2456
3 1773 391 2503
3 1335 1870 2249
3 1945 2257 2291
3 828 463 2411
3 1246 2088 2208
3 2060 798 2307
3 1773 1159 2240
3 1187 2112 2248
3 1352 2237 2351
3 2037 1322 2188
3 1941 1499 2433
3 2322 225 2510
3 1031 1034 2236
3 327 2188 2321
3 595 2032 2273
3 1464 1462 2347
3 1285 1992 2232
3 799 2055 2237
3 443 278 2210
3 784 874 2178
3 392 396 2431
3 191 95 2309
3 879 784 2178
3 524 511 2429
3 2128 2011 2270
3 895 896 2257
3 2206 1152 2324
3 318 2171 2172
3 2259 1549 2379
3 1214 1410 2351
3 306 308 2278
3 2022 251 2247
3 1757 1729 2309
3 1283 1918 2524
3 996 1706 2492
3 557 2044 2207
3 1798 1448 2364
3 1447 2250 2310
3 559 1750 2403
3 1363 1011 2233
3 1343 1168 2187
3 1407 2044 2256
3 1462 1460 2365
3 1995 2331 2458
3 327 1987 2188
3 2160 254 2380
3 1681 958 2287
3 2031 1160 2250
3 1600 689 2413
3 2219 1692 2239
3 1494 1675 2522
3 1281 1916 2448
3 907 909 2175
3 565 2167 2276
3 2241 1276 2275
3 1978 316 2443
3 2151 212 2350
3 203 1847 2104
3 2049 1481 2523
3 1961 1362 2376
3 2187 1393 2457
3 940 796 2532
3 2293 1349 2329
3 572 1897 2537
3 332 739 2282
3 2052 567 2239
3 1437 1370 2277
3 567 2219 2239
3 667 626 2452
3 1914 2206 2324
3 2243 939 2392
3 2136 1343 2187
3 257 1654 2530
3 1376 1378 2283
3 2076 1982 2272
3 2083 760 2243
3 1944 1945 2291
3 1771 1839 2359
3 1404 1403 2399
3 1875 1866 2320
3 1460 1337 2412
3 760 783 2243
3 1276 1366 2275
3 1428 2227 2366
3 1882 1605 2284
3 1739 1429 2459
3 2321 2188 2434
3 1328 1327 2315
3 798 2189 2307
3 2152 1174 2207
3 2182 1247 2323
3 1516 1514 2367
3 293 291 2306
3 556 537 2201
3 1298 1300 2314
3 1400 1399 2316
3 1649 2236 2463
3 833 831 2424
3 2127 2050 2333
3 1057 914 2328
3 1839 193 2359
3 761 1741 2258
3 1186 1970 2422
3 1429 2366 2382
3 2211 1271 2271
3 1733 1248 2534
3 13 2114 2136
3 2078 390 2431
3 1533 1536 2340
3 1690 2145 2446
3 1277 2308 2370
3 1168 1393 2187
3 1597 2047 2268
3 587 565 2276
3 1908 244 2401
3 225 125 2284
3 610 2130 2468
3 1749 2105 2326
3 1913 1914 2324
3 2366 2208 2382
3 1391 1876 2295
3 457 552 2264
3 653 688 2209
3 1601 2443 2514
3 682 2138 2211
3 992 1980 2244
3 55 56 2313
3 1645 1495 2493
3 473 477 2483
3 202 1724 2329
3 465 828 2429
3 1277 1966 2308
3 1416 2330 2406
3 1912 1364 2455
3 1716 1483 2375
3 2019 1651 2485
3 1725 2137 2226
3 201 1323 2216
3 878 1083 2213
3 2072 2073 2245
3 1563 1777 2405
3 244 2028 2401
3 2016 1564 2422
3 1682 1497 2461
3 1962 1153 2362
3 1298 2314 2358
3 1384 1385 2391
3 688 1320 2209
3 1587 2179 2435
3 786 380 2497
3 1395 1522 2341
3 2032 1919 2273
3 251 2013 2247
3 2219 2031 2250
3 2397 552 2453
3 1765 255 2489
3 2475 1825 2524
3 1202 1204 2301
3 445 2078 2411
3 323 2229 2296
3 1286 2384 2408
3 537 551 2201
3 1724 237 2293
3 84 85 2335
3 1471 1126 2319
3 1635 1634 2511
3 300 302 2338
3 698 666 2318
3 1030 1031 2236
3 2098 1457 2271
3 696 1821 2426
3 1457 1492 2447
3 1956 2336 2469
3 331 323 2296
3 1284 1491 2342
3 2011 1996 2270
3 256 183 2303
3 160 257 2304
3 2204 1589 2501
3 1891 1014 2280
3 719 725 2336
3 1354 1808 2381
3 437 430 2494
3 2377 218 2391
3 2211 2271 2447
3 1407 2256 2290
3 2365 1460 2412
3 2047 1498 2268
3 1825 1283 2524
3 1499 1825 2475
3 1226 1249 2281
3 2051 2243 2392
3 2250 1160 2310
3 111 112 2346
3 304 306 2345
3 1341 1352 2351
3 2166 191 2504
3 2223 1836 2242
3 1996 247 2481
3 1049 1051 2331
3 1086 1298 2358
3 2130 595 2273
3 1249 2111 2263
3 680 1995 2458
3 1511 2140 2346
3 102 103 2355
3 469 473 2453
3 961 2072 2245
3 2073 1282 2245
3 1442 1443 2525
3 74 192 2361
3 2163 1586 2435
3 1519 1518 2449
3 897 2274 2500
3 303 444 2317
3 1615 1614 2423
3 197 2009 2404
3 1634 2281 2511
3 1780 1781 2419
3 1435 1623 2465
3 1286 1774 2384
3 384 361 2339
3 193 1901 2359
3 1165 2433 2475
3 2277 1370 2386
3 677 653 2209
3 1994 1516 2367
3 1479 1478 2440
3 1165 1512 2433
3 1644 1353 2417
3 1711 1712 2353
3 2193 1615 2425
3 1613 1956 2469
3 1440 1173 2330
3 2269 1479 2440
3 222 2218 2465
3 391 389 2503
3 306 2278 2345
3 468 2090 2365
3 221 2246 2526
3 1445 1446 2504
3 939 1844 2392
3 86 87 2373
3 1429 1428 2366
3 2053 2103 2383
3 1348 1212 2312
3 805 750 2371
3 997 1286 2408
3 1152 869 2363
3 2063 2064 2238
3 192 1994 2367
3 1160 2043 2310
3 1926 2151 2350
3 2059 2098 2271
3 1897 1366 2537
3 215 2262 2437
3 1655 1732 2476
3 2415 1128 2454
3 1320 2213 2214
3 7 258 2357
3 259 155 2356
3 2171 1530 2172
3 347 351 2407
3 1077 1078 2343
3 239 2003 2279
3 1446 1128 2415
3 1034 1033 2410
3 601 627 2442
3 1154 1653 2234
3 397 2060 2405
3 2142 794 2272
3 442 2063 2238
3 1863 1215 2378
3 794 2076 2272
3 1883 1375 2505
3 1320 878 2213
3 342 468 2344
3 1903 218 2377
3 380 376 2497
3 1549 1547 2379
3 1148 1165 2475
3 2157 226 2507
3 829 972 2326
3 884 1957 2466
3 2291 1077 2343
3 65 66 2395
3 787 2052 2518
3 2298 1348 2312
3 1946 2343 2396
3 1653 256 2535
3 1842 1548 2472
3 1957 2301 2466
3 1366 1277 2370
3 2213 1432 2214
3 961 2245 2383
3 218 2093 2391
3 1376 2283 2421
3 1873 2127 2333
3 1019 1021 2512
3 1128 1127 2454
3 1104 1434 2450
3 2130 1439 2468
3 2396 2110 2482
3 2186 855 2283
3 1724 2293 2329
3 1163 1059 2372
3 1614 2389 2423
3 53 54 2402
3 1063 1707 2334
3 2283 855 2421
3 1385 1863 2436
3 364 1883 2505
3 517 1890 2387
3 1145 996 2492
3 1047 1287 2348
3 2148 1875 2320
3 205 2176 2416
3 1372 1844 2478
3 1211 2219 2250
3 1141 898 2368
3 245 1909 2420
3 2278 327 2321
3 2389 1397 2423
3 2256 513 2290
3 559 2403 2456
3 1137 1340 2374
3 2093 1384 2391
3 1918 1148 2524
3 1030 2236 2427
3 1867 1895 2513
3 2014 517 2387
3 2271 1457 2447
3 1143 2028 2353
3 1904 194 2432
3 1148 2475 2524
3 1574 1523 2436
3 2213 1083 2311
3 1997 358 2325
3 2139 246 2506
3 1370 1369 2386
3 1271 2059 2271
3 1034 2173 2463
3 1123 1412 2393
3 1578 1827 2515
3 2209 1320 2424
3 2079 1504 2210
3 1361 2168 2305
3 1491 1489 2403
3 238 1725 2226
3 1190 986 2334
3 1547 1545 2508
3 1891 1613 2469
3 1153 1885 2362
3 2208 1632 2382
3 2287 1281 2448
3 1356 1376 2421
3 1965 2349 2515
3 2155 1186 2422
3 1522 2014 2387
3 2158 1468 2323
3 2050 954 2333
3 1397 1809 2423
3 1362 1360 2376
3 1852 1985 2397
3 2069 1691 2446
3 789 2066 2425
3 1895 755 2513
3 1707 1154 2234
3 372 374 2430
3 2225 787 2518
3 2028 1206 2401
3 986 1063 2334
3 1912 726 2439
3 1340 1342 2400
3 1916 1145 2448
3 2236 1649 2427
3 2374 1340 2400
3 2222 1407 2290
3 2324 1152 2363
3 241 2220 2472
3 765 2190 2384
3 2375 667 2452
3 2330 1173 2406
3 1181 1972 2500
3 2126 1382 2388
3 1173 1012 2406
3 315 313 2495
3 1015 1373 2385
3 97 221 2526
3 1937 1397 2389
3 930 1061 2462
3 971 1096 2496
3 45 46 2485
3 669 791 2529
3 1104 2450 2521
3 382 378 2390
3 2191 1371 2536
3 2235 1036 2286
3 831 2209 2424
3 762 1997 2349
3 2379 1547 2508
3 2177 1359 2467
3 2403 1489 2456
3 796 785 2532
3 219 1902 2516
3 1519 2300 2480
3 1065 1655 2476
3 1375 1473 2505
3 1489 1490 2456
3 390 392 2431
3 2247 2013 2464
3 1135 1930 2369
3 2278 1583 2345
3 626 622 2452
3 631 2298 2312
3 2233 1348 2298
3 1398 1974 2499
3 1706 1681 2492
3 261 130 2444
3 32 260 2445
3 822 2099 2368
3 1365 1912 2439
3 941 940 2418
3 1446 2166 2504
3 2106 1121 2414
3 2300 1519 2449
3 1803 1104 2521
3 1732 1570 2476
3 1413 2051 2392
3 2122 1946 2396
3 2238 1868 2520
3 477 556 2483
3 2397 1985 2533
3 463 445 2411
3 2163 1185 2488
3 1126 2141 2319
3 1755 2264 2533
3 972 2204 2501
3 2230 1533 2340
3 1774 1773 2503
3 1997 2325 2349
3 1004 2069 2446
3 2159 31 2445
3 131 2160 2444
3 1371 2191 2451
3 1001 2154 2486
3 1682 2230 2340
3 2103 961 2383
3 1033 1151 2410
3 382 2390 2531
3 1504 2079 2520
3 1583 2278 2321
3 511 465 2429
3 250 2024 2479
3 2208 2088 2509
3 619 620 2484
3 1246 2208 2366
3 2141 1209 2319
3 1359 1413 2467
3 1295 1459 2458
3 2218 1435 2465
3 2281 1249 2511
3 2293 237 2354
3 2207 1398 2499
3 1564 2155 2422
3 552 469 2453
3 1947 224 2498
3 2062 1568 2490
3 2018 205 2416
3 260 2159 2445
3 2160 261 2444
3 2092 610 2468
3 194 2195 2432
3 1432 2213 2311
3 211 2251 2464
3 2378 856 2527
3 1536 1532 2534
3 2364 786 2497
3 2438 1438 2478
3 1185 1948 2488
3 2042 941 2418
3 1582 2321 2434
3 885 1891 2469
3 1364 2048 2455
3 1693 2225 2518
3 401 382 2531
3 1338 2247 2464
3 442 2238 2520
3 1292 2117 2428
3 2274 1350 2500
3 2066 2193 2425
3 2179 1184 2435
3 898 822 2368
3 2436 1863 2527
3 1844 1016 2478
3 2184 1001 2486
3 557 2207 2499
3 2013 211 2464
3 2254 250 2479
3 1350 1181 2500
3 2009 248 2470
3 246 2140 2506
3 1574 2436 2527
3 2139 1419 2517
3 316 1971 2514
3 1319 2122 2482
3 226 2006 2507
3 1400 2270 2481
3 1681 2287 2448
3 2325 1578 2349
3 232 1652 2487
3 1320 2214 2424
3 1632 2208 2509
3 248 2288 2470
3 1406 1141 2460
3 2188 1322 2434
3 2244 1980 2441
3 2088 1255 2509
3 1280 2109 2427
3 2060 2307 2405
3 2236 1034 2463
3 1745 2293 2354
3 2122 2396 2482
3 2109 1030 2427
3 2307 1563 2405
3 1429 2382 2459
3 224 2267 2498
3 682 2211 2447
3 2079 442 2520
3 2348 1287 2398
3 2220 1842 2472
3 1335 2249 2466
3 1249 2263 2511
3 443 2210 2519
3 2385 1373 2394
3 1594 2184 2486
3 2052 2239 2518
3 1568 2439 2490
3 2349 1578 2515
3 2344 468 2412
3 2270 1996 2481
3 1735 2244 2441
3 2260 1471 2477
3 2210 1504 2519
3 1434 2297 2450
3 2297 1419 2450
3 2263 1660 2502
3 2404 2009 2470
3 1718 2385 2394
3 1371 2194 2536
3 2317 444 2461
3 1443 2322 2525
3 1716 2375 2452
3 1863 2378 2527
3 2439 726 2490
3 1057 2328 2451
3 1638 2404 2470
3 1454 2234 2535
3 755 2320 2513
3 2234 1653 2535
3 2264 552 2533
3 1419 2297 2517
3 1392 2322 2510
3 552 2397 2533
3 1798 2364 2497
3 2322 1392 2525
3 2382 1631 2459
3 1016 2438 2478
3 1366 2370 2537
3 1742 2491 2530
3 2491 257 2530
CELL_TYPES 4886
5
5
5
5
5
5
5
5
5
5
5
5
5
5
5
5
5
5
5
5
5
5
5
5
5
5
5
5
5
5
5
5
5
5
5
5
5
5
5
5
5
5
5
5
5
5
5
5
5
5
5
5
5
5
5
5
5
5
5
5
5
5
5
5
5
5
5
5
5
5
5
5
5
5
5
5
5
5
5
5
5
5
5
5
5
5
5
5
5
5
5
5
5
5
5
5
5
5
5
5
5
5
5
5
5
5
5
5
5
5
5
5
5
5
5
5
5
5
5
5
5
5
5
5
5
5
5
5
5
5
5
5
5
5
5
5
5
5
5
5
5
5
5
5
5
5
5
5
5
5
5
5
5
5
5
5
5
5
5
5
5
5
5
5
5
5
5
5
5
5
5
5
5
5
5
5
5
5
5
5
5
5
5
5
5
5
5
5
5
5
5
5
5
5
5
5
5
5
5
5
5
5
5
5
5
5
5
5
5
5
5
5
5
5
5
5
5
5
5
5
5
5
5
5
5
5
5
5
5
5
5
5
5
5
5
5
5
5
5
5
5
5
5
5
5
5
5
5
5
5
5
5
5
5
5
5
5
5
5
5
5
5
5
5
5
5
5
5
5
5
5
5
5
5
5
5
5
5
5
5
5
5
5
5
5
5
5
5
5
5
5
5
5
5
5
5
5
5
5
5
5
5
5
5
5
5
5
5
5
5
5
5
5
5
5
5
5
5
5
5
5
5
5
5
5
5
5
5
5
5
5
5
5
5
5
5
5
5
5
5
5
5
5
5
5
5
5
5
5
5
5
5
5
5
5
5
5
5
5
5
5
5
5
5
5
5
5
5
5
5
5
5
5
5
5
5
5
5
5
5
5
5
5
5
5
5
5
5
5
5
5
5
5
5
5
5
5
5
5
5
5
5
5
5
5
5
5
5
5
5
5
5
5
5
5
5
5
5
5
5
5
5
5
5
5
5
5
5
5
5
5
5
5
5
5
5
5
5
5
5
5
5
5
5
5
5
5
5
5
5
5
5
5
5
5
5
5
5
5
5
5
5
5
5
5
5
5
5
5
5
5
5
5
5
5
5
5
5
5
5
5
5
5
5
5
5
5
5
5
5
5
5
5
5
5
5
5
5
5
5
5
5
5
5
5
5
5
5
5
5
5
5
5
5
5
5
5
5
5
5
5
5
5
5
5
5
5
5
5
5
5
5
5
5
5
5
5
5
5
5
5
5
5
5
5
5
5
5
5
5
5
5
5
5
5
5
5
5
5
5
5
5
5
5
5
5
5
5
5
5
5
5
5
5
5
5
5
5
5
5
5
5
5
5
5
5
5
5
5
5
5
5
5
5
5
5
5
5
5
5
5
5
5
5
5
5
5
5
5
5
5
5
5
5
5
5
5
5
5
5
5
5
5
5
5
5
5
5
5
5
5
5
5
5
5
5
5
5
5
5
5
5
5
5
5
5
5
5
5
5
5
5
5
5
5
5
5
5
5
5
5
5
5
5
5
5
5
5
5
5
5
5
5
5
5
5
5
5
5
5
5
5
5
5
5
5
5
5
5
5
5
5
5
5
5
5
5
5
5
5
5
5
5
5
5
5
5
5
5
5
5
5
5
5
5
5
5
5
5
5
5
5
5
5
5
5
5
5
5
5
5
5
5
5
5
5
5
5
5
5
5
5
5
5
5
5
5
5
5
5
5
5
5
5
5
5
5
5
5
5
5
5
5
5
5
5
5
5
5
5
5
5
5
5
5
5
5
5
5
5
5
5
5
5
5
5
5
5
5
5
5
5
5
5
5
5
5
5
5
5
5
5
5
5
5
5
5
5
5
5
5
5
5
5
5
5
5
5
5
5
5
5
5
5
5
5
5
5
5
5
5
5
5
5
5
5
5
5
5
5
5
5
5
5
5
5
5
5
5
5
5
5
5
5
5
5
5
5
5
5
5
5
5
5
5
5
5
5
5
5
5
5
5
5
5
5
5
5
5
5
5
5
5
5
5
5
5
5
5
5
5
5
5
5
5
5
5
5
5
5
5
5
5
5
5
5
5
5
5
5
5
5
5
5
5
5
5
5
5
5
5
5
5
5
5
5
5
5
5
5
5
5
5
5
5
5
5
5
5
5
5
5
5
5
5
5
5
5
5
5
5
5
5
5
5
5
5
5
5
5
5
5
5
5
5
5
5
5
5
5
5
5
5
5
5
5
5
5
5
5
5
5
5
5
5
5
5
5
5
5
5
5
5
5
5
5
5
5
5
5
5
5
5
5
5
5
5
5
5
5
5
5
5
5
5
5
5
5
5
5
5
5
5
5
5
5
5
5
5
5
5
5
5
5
5
5
5
5
5
5
5
5
5
5
5
5
5
5
5
5
5
5
5
5
5
5
5
5
5
5
5
5
5
5
5
5
5
5
5
5
5
5
5
5
5
5
5
5
5
5
5
5
5
5
5
5
5
5
5
5
5
5
5
5
5
5
5
5
5
5
5
5
5
5
5
5
5
5
5
5
5
5
5
5
5
5
5
5
5
5
5
5
5
5
5
5
5
5
5
5
5
5
5
5
5
5
5
5
5
5
5
5
5
5
5
5
5
5
5
5
5
5
5
5
5
5
5
5
5
5
5
5
5
5
5
5
5
5
5
5
5
5
5
5
5
5
5
5
5
5
5
5
5
5
5
5
5
5
5
5
5
5
5
5
5
5
5
5
5
5
5
5
5
5
5
5
5
5
5
5
5
5
5
5
5
5
5
5
5
5
5
5
5
5
5
5
5
5
5
5
5
5
5
5
5
5
5
5
5
5
5
5
5
5
5
5
5
5
5
5
5
5
5
5
5
5
5
5
5
5
5
5
5
5
5
5
5
5
5
5
5
5
5
5
5
5
5
5
5
5
5
5
5
5
5
5
5
5
5
5
5
5
5
5
5
5
5
5
5
5
5
5
5
5
5
5
5
5
5
5
5
5
5
5
5
5
5
5
5
5
5
5
5
5
5
5
5
5
5
5
5
5
5
5
5
5
5
5
5
5
5
5
5
5
5
5
5
5
5
5
5
5
5
5
5
5
5
5
5
5
5
5
5
5
5
5
5
5
5
5
5
5
5
5
5
5
5
5
5
5
5
5
5
5
5
5
5
5
5
5
5
5
5
5
5
5
5
5
5
5
5
5
5
5
5
5
5
5
5
5
5
5
5
5
5
5
5
5
5
5
5
5
5
5
5
5
5
5
5
5
5
5
5
5
5
5
5
5
5
5
5
5
5
5
5
5
5
5
5
5
5
5
5
5
5
5
5
5
5
5
5
5
5
5
5
5
5
5
5
5
5
5
5
5
5
5
5
5
5
5
5
5
5
5
5
5
5
5
5
5
5
5
5
5
5
5
5
5
5
5
5
5
5
5
5
5
5
5
5
5
5
5
5
5
5
5
5
5
5
5
5
5
5
5
5
5
5
5
5
5
5
5
5
5
5
5
5
5
5
5
5
5
5
5
5
5
5
5
5
5
5
5
5
5
5
5
5
5
5
5
5
5
5
5
5
5
5
5
5
5
5
5
5
5
5
5
5
5
5
5
5
5
5
5
5
5
5
5
5
5
5
5
5
5
5
5
5
5
5
5
5
5
5
5
5
5
5
5
5
5
5
5
5
5
5
5
5
5
5
5
5
5
5
5
5
5
5
5
5
5
5
5
5
5
5
5
5
5
5
5
5
5
5
5
5
5
5
5
5
5
5
5
5
5
5
5
5
5
5
5
5
5
5
5
5
5
5
5
5
5
5
5
5
5
5
5
5
5
5
5
5
5
5
5
5
5
5
5
5
5
5
5
5
5
5
5
5
5
5
5
5
5
5
5
5
5
5
5
5
5
5
5
5
5
5
5
5
5
5
5
5
5
5
5
5
5
5
5
5
5
5
5
5
5
5
5
5
5
5
5
5
5
5
5
5
5
5
5
5
5
5
5
5
5
5
5
5
5
5
5
5
5
5
5
5
5
5
5
5
5
5
5
5
5
5
5
5
5
5
5
5
5
5
5
5
5
5
5
5
5
5
5
5
5
5
5
5
5
5
5
5
5
5
5
5
5
5
5
5
5
5
5
5
5
5
5
5
5
5
5
5
5
5
5
5
5
5
5
5
5
5
5
5
5
5
5
5
5
5
5
5
5
5
5
5
5
5
5
5
5
5
5
5
5
5
5
5
5
5
5
5
5
5
5
5
5
5
5
5
5
5
5
5
5
5
5
5
5
5
5
5
5
5
5
5
5
5
5
5
5
5
5
5
5
5
5
5
5
5
5
5
5
5
5
5
5
5
5
5
5
5
5
5
5
5
5
5
5
5
5
5
5
5
5
5
5
5
5
5
5
5
5
5
5
5
5
5
5
5
5
5
5
5
5
5
5
5
5
5
5
5
5
5
5
5
5
5
5
5
5
5
5
5
5
5
5
5
5
5
5
5
5
5
5
5
5
5
5
5
5
5
5
5
5
5
5
5
5
5
5
5
5
5
5
5
5
5
5
5
5
5
5
5
5
5
5
5
5
5
5
5
5
5
5
5
5
5
5
5
5
5
5
5
5
5
5
5
5
5
5
5
5
5
5
5
5
5
5
5
5
5
5
5
5
5
5
5
5
5
5
5
5
5
5
5
5
5
5
5
5
5
5
5
5
5
5
5
5
5
5
5
5
5
5
5
5
5
5
5
5
5
5
5
5
5
5
5
5
5
5
5
5
5
5
5
5
5
5
5
5
5
5
5
5
5
5
5
5
5
5
5
5
5
5
5
5
5
5
5
5
5
5
5
5
5
5
5
5
5
5
5
5
5
5
5
5
5
5
5
5
5
5
5
5
5
5
5
5
5
5
5
5
5
5
5
5
5
5
5
5
5
5
5
5
5
5
5
5
5
5
5
5
5
5
5
5
5
5
5
5
5
5
5
5
5
5
5
5
5
5
5
5
5
5
5
5
5
5
5
5
5
5
5
5
5
5
5
5
5
5
5
5
5
5
5
5
5
5
5
5
5
5
5
5
5
5
5
5
5
5
5
5
5
5
5
5
5
5
5
5
5
5
5
5
5
5
5
5
5
5
5
5
5
5
5
5
5
5
5
5
5
5
5
5
5
5
5
5
5
5
5
5
5
5
5
5
5
5
5
5
5
5
5
5
5
5
5
5
5
5
5
5
5
5
5
5
5
5
5
5
5
5
5
5
5
5
5
5
5
5
5
5
5
5
5
5
5
5
5
5
5
5
5
5
5
5
5
5
5
5
5
5
5
5
5
5
5
5
5
5
5
5
5
5
5
5
5
5
5
5
5
5
5
5
5
5
5
5
5
5
5
5
5
5
5
5
5
5
5
5
5
5
5
5
5
5
5
5
5
5
5
5
5
5
5
5
5
5
5
5
5
5
5
5
5
5
5
5
5
5
5
5
5
5
5
5
5
5
5
5
5
5
5
5
5
5
5
5
5
5
5
5
5
5
5
5
5
5
5
5
5
5
5
5
5
5
5
5
5
5
5
5
5
5
5
5
5
5
5
5
5
5
5
5
5
5
5
5
5
5
5
5
5
5
5
5
5
5
5
5
5
5
5
5
5
5
5
5
5
5
5
5
5
5
5
5
5
5
5
5
5
5
5
5
5
5
5
5
5
5
5
5
5
5
5
5
5
5
5
5
5
5
5
5
5
5
5
5
5
5
5
5
5
5
5
5
5
5
5
5
5
5
5
5
5
5
5
5
5
5
5
5
5
5
5
5
5
5
5
5
5
5
5
5
5
5
5
5
5
5
5
5
5
5
5
5
5
5
5
5
5
5
5
5
5
5
5
5
5
5
5
5
5
5
5
5
5
5
5
5
5
5
5
5
5
5
5
5
5
5
5
5
5
5
5
5
5
5
5
5
5
5
5
5
5
5
5
5
5
5
5
5
5
5
5
5
5
5
5
5
5
5
5
5
5
5
5
5
5
5
5
5
5
5
5
5
5
5
5
5
5
5
5
5
5
5
5
5
5
5
5
5
5
5
5
5
5
5
5
5
5
5
5
5
5
5
5
5
5
5
5
5
5
5
5
5
5
5
5
5
5
5
5
5
5
5
5
5
5
5
5
5
5
5
5
5
5
5
5
5
5
5
5
5
5
5
5
5
5
5
5
5
5
5
5
5
5
5
5
5
5
5
5
5
5
5
5
5
5
5
5
5
5
5
5
5
5
5
5
5
5
5
5
5
5
5
5
5
5
5
5
5
5
5
5
5
5
5
5
5
5
5
5
5
5
5
5
5
5
5
5
5
5
5
5
5
5
5
5
5
5
5
5
5
5
5
5
5
5
5
5
5
5
5
5
5
5
5
5
5
5
5
5
5
5
5
5
5
5
5
5
5
5
5
5
5
5
5
5
5
5
5
5
5
5
5
5
5
5
5
5
5
5
5
5
5
5
5
5
5
5
5
5
5
5
5
5
5
5
5
5
5
5
5
5
5
5
5
5
5
5
5
5
5
5
5
5
5
5
5
5
5
5
5
5
5
5
5
5
5
5
5
5
5
5
5
5
5
5
5
5
5
5
5
5
5
5
5
5
5
5
5
5
5
5
5
5
5
5
5
5
5
5
5
5
5
5
5
5
5
5
5
5
5
5
5
5
5
5
5
5
5
5
5
5
5
5
5
5
5
5
5
5
5
5
5
5
5
5
5
5
5
5
5
5
5
5
5
5
5
5
5
5
5
5
5
5
5
5
5
5
5
5
5
5
5
5
5
5
5
5
5
5
5
5
5
5
5
5
5
5
5
5
5
5
5
5
5
5
5
5
5
5
5
5
5
5
5
5
5
5
5
5
5
5
5
5
5
5
5
5
5
5
5
5
5
5
5
5
5
5
5
5
5
5
5
5
5
5
5
5
5
5
5
5
5
5
5
5
5
5
5
5
5
5
5
5
5
5
5
5
5
5
5
5
5
5
5
5
5
5
5
5
5
5
5
5
5
5
5
5
5
5
5
5
5
5
5
5
5
5
5
5
5
5
5
5
5
5
5
5
5
5
5
5
5
5
5
5
5
5
5
5
5
5
5
5
5
5
5
5
5
5
5
5
5
5
5
5
5
5
5
5
5
5
5
5
5
5
5
5
5
5
5
5
5
5
5
5
5
5
5
5
5
5
5
5
5
5
5
5
5
5
5
5
5
5
5
5
5
5
5
5
5
5
5
5
5
5
5
5
5
5
5
5
5
5
5
5
5
5
5
5
5
5
5
5
5
5
5
5
5
5
5
5
5
5
5
5
5
5
5
5
5
5
5
5
5
5
5
5
5
5
5
5
5
5
5
5
5
5
5
5
5
5
5
5
5
5
5
5
5
5
5
5
5
5
5
5
5
5
5
5
5
5
5
5
5
5
5
5
5
5
5
5
5
5
5
5
5
5
5
5
5
5
5
5
5
5
5
5
5
5
5
5
5
5
5
5
5
5
5
5
5
5
5
5
5
5
5
5
5
5
5
5
5
5
5
5
5
5
5
5
5
5
5
5
5
5
5
5
5
5
5
5
5
5
5
5
5
5
5
5
5
5
5
5
5
5
5
5
5
5
5
5
5
5
5
5
5
5
5
5
5
5
5
5
5
5
5
5
5
5
5
5
5
5
5
5
5
5
5
5
5
5
5
5
5
5
5
5
5
5
5
5
5
5
5
5
5
5
5
5
5
5
5
5
5
5
5
5
5
5
5
5
5
5
5
5
5
5
5
5
5
5
5
5
5
5
5
5
5
5
5
5
5
5
5
5
5
5
5
5
5
5
5
5
5
5
5
5
5
5
5
5
5
5
5
5
5
5
5
5
5
5
5
5
5
5
5
5
5
5
5
5
5
5
5
5
5
5
5
5
5
5
5
5
5
5
5
5
5
5
5
5
5
5
5
5
5
5
5
5
5
5
5
5
5
5
5
5
5
5
5
5
5
5
5
5
5
5
5
5
5
5
5
5
5
5
5
5
5
5
5
5
5
5
5
5
5
5
5
5
5
5
5
5
5
5
5
5
5
5
5
5
5
5
5
5
5
5
5
5
5
5
5
5
5
5
5
5
5
5
5
5
5
5
5
5
5
5
5
5
5
5
5
5
5
5
5
5
5
5
5
5
5
5
5
5
5
5
5
5
5
5
5
5
5
5
5
5
5
5
5
5
5
5
5
5
5
5
5
5
5
5
5
5
5
5
5
5
5
5
5
5
5
5
5
5
5
5
5
5
5
5
5
5
5
5
5
5
5
5
5
5
5
5
5
5
5
5
5
5
5
5
5
5
5
5
5
5
5
5
5
5
5
5
5
5
5
5
5
5
5
5
5
5
5
5
5
5
5
5
5
5
5
5
5
5
5
5
5
5
5
5
5
5
5
5
5
5
5
5
5
5
5
5
5
5
5
5
5
5
5
5
5
5
5
5
5
5
5
5
5
5
5
5
5
5
5
5
5
5
5
5
5
5
5
5
5
5
5
5
5
5
5
5
5
5
5
5
5
5
5
5
5
5
5
5
5
5
5
5
5
5
5
5
5
5
5
5
5
5
5
5
5
5
5
5
5
5
5
5
5
5
5
5
5
5
5
5
5
5
5
5
5
5
5
5
5
5
5
5
5
5
5
5
5
5
5
5
5
5
5
5
5
5
5
5
5
5
5
5
5
5
5
5
5
5
5
5
5
5
5
5
5
5
5
5
5
5
5
5
5
5
5
5
5
5
5
5
5
5
5
5
5
5
5
5
5
5
5
5
5
5
5
5
5
5
5
5
5
5
5
5
5
5
5
5
5
5
5
5
5
5
5
5
5
5
5
5
5
5
5
5
5
5
5
5
5
5
5
5
5
5
5
5
5
5
5
5
5
5
5
5
5
5
5
5
5
5
5
5
5
5
5
5
5
5
5
5
5
5
5
5
5
5
5
5
5
5
5
5
5
5
5
5
5
5
5
5
5
5
5
5
5
5
5
5
5
5
5
5
5
5
5
5
5
5
5
5
5
5
5
5
5
5
5
5
5
5
5
5
5
5
5
5
5
5
5
5
5
5
5
5
5
5
5
5
5
5
5
5
5
5
5
5
5
5
5
5
5
5
5
5
5
5
5
5
5
5
5
5
5
5
5
5
5
5
5
5
5
5
5
5
5
5
5
5
5
5
5
5
5
5
5
5
5
5
5
5
5
5
5
5
5
5
5
5
5
5
5
5
5
5
5
5
5
5
5
5
5
5
5
5
5
5
5
5
5
5
5
5
5
5
5
5
5
5
5
5
5
5
5
5
5
5
5
5
5
5
5
5
5
5
5
5
5
5
5
5
5
5
5
5
5
5
5
5
5
5
5
5
5
5
5
5
5
5
5
5
5
5
5
5
5
5
5
5
5
5
5
5
5
5
5
5
5
5
5
5
5
5
5
5
5
5
5
5
5
5
5
5
5
5
5
5
5
5
5
5
5
5
5
5
5
5
5
5
5
5
5
5
5
5
5
5
5
5
5
5
5
5
5
5
5
5
5
5
5
5
5
5
5
5
5
5
5
5
5
5
5
5
5
5
5
5
5
5
5
5
5
5
5
5
5
5
5
5
5
5
5
5
5
5
5
5
5
5
5
5
5
5
5
5
5
5
5
5
5
5
5
5
5
5
5
5
5
5
5
5
5
5
5
5
5
5
5
5
5
5
5
5
5
5
5
5
5
5
5
5
5
5
5
5
5
5
5
5
5
5
5
5
5
5
5
5
5
5
5
5
5
5
5
5
5
5
5
5
5
5
5
5
5
5
5
5
5
5
5
5
5
5
5
5
5
5
5
5
5
5
5
5
5
5
5
5
5
5
5
5
5
5
5
5
5
5
5
5
5
5
5
5
5
5
5
5
5
5
5
5
5
5
5
5
5
5
5
5
5
5
5
5
5
5
5
5
5
5
5
5
5
5
5
5
5
5
5
5
5
5
5
5
5
5
5
5
5
5
5
5
5
5
5
5
5
5
5
5
5
5
5
5
5
5
5
5
5
5
5
5
5
5
5
5
5
5
5
5
5
5
5
5
5
5
5
5
5
5
5
5
5
5
5
5
5
5
5
5
5
5
5
5
5
5
5
5
5
5
5
5
5
5
5
5
5
5
5
5
5
5
5
5
5
5
5
5
5
5
5
5
5
5
5
5
5
5
5
5
5
5
5
5
5
5
5
5
5
5
5
5
5
5
5
5
5
5
5
5
5
5
5
5
5
5
5
5
5
5
5
5
5
5
5
5
5
5
5
5
5
5
5
5
5
5
5
5
5
5
5
5
5
5
5
5
5
5
5
5
5
5
5
5
5
5
5
5
5
5
5
5
5
5
5
5
5
5
5
5
5
5
5
5
5
5
5
5
5
5
5
5
5
5
5
5
5
5
5
5
5
5
5
5
5
5
5
5
5
5
5
5
5
5
5
5
5
5
5
5
5
5
5
5
5
5
5
5
5
5
5
5
5
5
5
5
5
5
5
5
5
5
5
5
5
5
5
5
5
5
5
5
5
5
5
5
5
5
5
5
5
5
5
5
5
5
5
5
5
5
5
5
5
5
5
5
5
5
5
5
5
5
5
5
5
5
5
5
5
5
5
5
5
5
5
5
5
5
5
5
5
5
5
5
5
5
5
5
5
5
5
5
5
5
5
5
5
5
5
5
5
5
5
5
5
5
5
5
5
5
5
5
5
5
5
5
5
5
5
5
5
5
5
5
5
5
5
5
5
5
5
5
5
5
5
5
5
5
5
5
5
5
5
5
5
5
5
5
5
5
5
5
5
5
5
5
5
5
5
5
5
5
5
5
5
5
5
5
5
5
5
5
5
5
5
5
5
5
5
5
5
5
5
5
5
5
5
5
5
5
5
5
5
5
5
5
5
5
5
5
5
5
5
5
5
5
5
5
5
5
5
5
5
5
5
5
5
5
5
5
5
5
5
5
5
5
5
5
5
5
5
5
5
5
5
5
5
5
5
5
5
5
5
5
5
5
5
5
5
5
5
5
5
5
5
5
5
5
5
5
5
5
5
5
5
5
5
POINT_DATA 2538
VECTORS disp float
1.8971411741412427e-11 4.890512066333512e-11 0.0
4.002736985928116e-11 -1.094975568609504e-10 0.0
0.00449999998408374 4.243516827839752e-11 0.0
0.004499999959032379 -1.1324437216749728e-10 0.0
0.0014253722793971524 0.0005945743553025792 0.0
0.0032419296678444964 0.00039099175803651446 0.0
0.002215856326367791 0.00014135884922749555 0.0
5.359265296992364e-12 5.173156272662767e-12 0.0
9.634397571839124e-12 1.1948552426819424e-11 0.0
8.907530980468176e-12 7.525929678544111e-12 0.0
8.812278199916432e-12 6.9958089887485254e-12 0.0
8.33819993207123e-12 5.2778433225469135e-12 0.0
7.85087271922036e-12 3.852868410264138e-12 0.0
7.404813427181085e-12 2.31324273827734e-12 0.0
7.045483977799457e-12 6.815970853780553e-13 0.0
6.231911544653351e-12 -1.1168593564010659e-12 0.0
6.53355285622472e-12 -2.7031770673265202e-12 0.0
6.239446768306202e-12 -4.513655390181338e-12 0.0
6.199662068832171e-12 -6.438778677512202e-12 0.0
6.336767440154713e-12 -8.357979824024236e-12 0.0
6.244420005607003e-12 -1.018953394738313e-11 0.0
6.555401680719557e-12 -1.2376158851361485e-11 0.0
6.534410827385111e-12 -1.4248009246276885e-11 0.0
6.876925939481559e-12 -1.6421855849534753e-11 0.0
6.972906389860104e-12 -1.8906287569696973e-11 0.0
7.2554990512221826e-12 -2.123587387450193e-11 0.0
7.555270637201574e-12 -2.400713243232658e-11 0.0
7.949539089897381e-12 -2.7094830085368054e-11 0.0
8.693031086573438e-12 -3.0781221917962357e-11 0.0
8.700485728297652e-12 -3.469658993062859e-11 0.0
1.1733884363922465e-11 -4.3437500997466636e-11 0.0
4.991710593206323e-12 -3.9938206472703235e-11 0.0
5.545772677993888e-5 -7.52713109853164e-5 0.0
9.569301597220874e-5 -0.0001301499504653386 0.0
0.00013471500491412793 -0.00017808003256553987 0.0
0.00017211426049729337 -0.0002217121320988185 0.0
0.00020839593590569634 -0.0002623158365372759 0.0
0.00024431316247290136 -0.00030087091147481393 0.0
0.0002804513793360764 -0.00033754614802825034 0.0
0.00031646538732210683 -0.0003726219988980878 0.0
0.00035266404839330275 -0.00040640038701322134 0.0
0.00038912810920228375 -0.0004388923056608966 0.0
0.0004258798689311951 -0.0004703622387960933 0.0
0.00046318135929265694 -0.0005008304216075562 0.0
0.0005007482189102376 -0.0005302930452383003 0.0
0.0005387726572088368 -0.000558964277362717 0.0
0.0005774714497906988 -0.0005868077531765595 0.0
0.0006164218485584037 -0.0006137804447408677 0.0
0.0006558912153835586 -0.0006400355202724895 0.0
0.0006958630214294416 -0.0006654566094256187 0.0
0.0007363095135813364 -0.0006901793185259187 0.0
0.0007772492093061104 -0.0007142019853409405 0.0
0.0008187313239233076 -0.0007375282560948372 0.0
0.000860650375498421 -0.0007601371324920872 0.0
0.0009032512965141699 -0.0007821429020571979 0.0
0.0009461412777993465 -0.0008034043566132245 0.0
0.0009897597502492405 -0.0008240434505670341 0.0
0.0010336320989406647 -0.0008439462749226041 0.0
0.001078067005058239 -0.0008632350655949611 0.0
0.0011229003199956086 -0.0008817755073391519 0.0
0.0011683721824063827 -0.0008997309965076825 0.0
0.0012140692007733638 -0.0009169752189983348 0.0
0.0012603916794637698 -0.000933604173013083 0.0
0.0013070766834717346 -0.0009494932950850677 0.0
0.0013542297171217485 -0.0009647327602888364 0.0
0.0014016997476865394 -0.0009792599986831515 0.0
0.0014497497156191817 -0.0009931530036611349 0.0
0.0014979820278015305 -0.0010062849717363145 0.0
0.0015466494548928794 -0.0010187378811777096 0.0
0.001595616229868608 -0.0010304225987090145 0.0
0.0016449409634253368 -0.0010413709302468709 0.0
0.0016945421146066211 -0.001051652826642417 0.0
0.001744388610566763 -0.0010611170321077243 0.0
0.0017945500735878739 -0.0010699181539824095 0.0
0.001844958924253384 -0.0010779173743644703 0.0
0.001895510279500486 -0.0010852311935125906 0.0
0.0019462983967501865 -0.0010916825442020802 0.0
0.001997083548972823 -0.001097429025550628 0.0
0.0020480730952934624 -0.0011024244535672387 0.0
0.0020990828445044403 -0.0011065743155332503 0.0
0.002150117206867312 -0.0011100263278695135 0.0
0.00220129433263565 -0.001112627611970515 0.0
0.0022519935286720583 -0.0011142585810331614 0.0
0.002303165349099066 -0.0011152397855804055 0.0
0.002352902716589467 -0.0011151515701638267 0.0
0.002403377996346351 -0.001114139752431141 0.0
0.0024516237452060757 -0.0011119643541427052 0.0
0.0025015388988431538 -0.0011090282979204218 0.0
0.0025498390380551666 -0.0011048963483799511 0.0
0.0025981807941351984 -0.0010989991077738847 0.0
0.0026467366166728393 -0.0010919777116302734 0.0
0.002695694176572012 -0.0010832689918675552 0.0
0.002744754771234753 -0.001073591189927989 0.0
0.002794117180764395 -0.0010626453071654754 0.0
0.0028436381650189424 -0.0010508629074063444 0.0
0.0028931955836029705 -0.0010379600556702049 0.0
0.002942841404548735 -0.0010241987992898232 0.0
0.002992361051534243 -0.0010098343723673184 0.0
0.003041492117494473 -0.0009946329547527557 0.0
0.0030903793400858647 -0.0009788298760803086 0.0
0.0031390712199570302 -0.0009622685610345844 0.0
0.003187483312869888 -0.0009449476508132065 0.0
0.00323537882933379 -0.0009270433005930141 0.0
0.0032831781870174066 -0.0009083730615677343 0.0
0.0033303527416265175 -0.0008890241179114594 0.0
0.003377131709948562 -0.0008691140816441984 0.0
0.0034236795818416684 -0.0008483912721048651 0.0
0.003469567632298725 -0.0008271109660894594 0.0
0.00351515604264456 -0.0008051578731754505 0.0
0.003560253554496746 -0.0007825278858718446 0.0
0.003605008978915697 -0.000759228206329266 0.0
0.0036493202218958135 -0.0007351572779462824 0.0
0.0036932396761817084 -0.0007103562828717541 0.0
0.0037365263540729693 -0.0006849264724418982 0.0
0.003779501339323533 -0.0006587833431190062 0.0
0.0038221216859065797 -0.0006318461965155547 0.0
0.0038642209339710518 -0.0006041364944064796 0.0
0.003905988265809609 -0.0005756857633102783 0.0
0.003947532003388329 -0.0005462938393162504 0.0
0.003988568003695892 -0.0005159944147104192 0.0
0.004029201876593889 -0.00048483893445795743 0.0
0.004069770093840989 -0.00045264775809440434 0.0
0.0041102342414884585 -0.00041926185699369236 0.0
0.004150363270083302 -0.00038460656166161545 0.0
0.004190260507557891 -0.00034862330936270586 0.0
0.004230276339733561 -0.0003110392732477927 0.0
0.0042708925381805245 -0.0002714409227045797 0.0
0.004311562969504164 -0.00022956594093922222 0.0
0.004352774848929499 -0.00018446942847145134 0.0
0.00439650368908229 -0.00013472642726405394 0.0
0.004441398240635109 -7.779038868680023e-5 0.0
0.004499999994436181 -3.789836887468163e-11 0.0
0.0044999999874989665 -4.1943976450054994e-11 0.0
0.004499999990939941 -3.0461423150144446e-11 0.0
0.004499999990882506 -2.7236373720175195e-11 0.0
0.004499999991432281 -2.34485658581501e-11 0.0
0.004499999991853924 -2.0478906586922545e-11 0.0
0.0044999999920126476 -1.8118902196605058e-11 0.0
0.004499999992307589 -1.5986989029042962e-11 0.0
0.004499999992391558 -1.398621006047734e-11 0.0
0.004499999992539709 -1.2032539507383232e-11 0.0
0.004499999992883023 -1.044996925777685e-11 0.0
0.004499999992800104 -8.373552287071462e-12 0.0
0.004499999992963494 -6.822755966604576e-12 0.0
0.00449999999304241 -5.023416883182044e-12 0.0
0.004499999993049002 -3.306110304797728e-12 0.0
0.0044999999929839244 -1.5110820859342429e-12 0.0
0.004499999992976901 2.3317568578850435e-13 0.0
0.004499999992319761 2.172522038828485e-12 0.0
0.004499999992729985 3.71856290420526e-12 0.0
0.004499999991689285 5.660322003274073e-12 0.0
0.004499999991669514 6.930849081936526e-12 0.0
0.0044999999912789775 8.318628715012753e-12 0.0
0.004499999991609831 8.733871962373028e-12 0.0
0.004499999991355935 1.2280081778031184e-11 0.0
0.0044999999953662965 5.841498381631329e-12 0.0
0.004170306633729658 0.00025252641921349426 0.0
0.0038800982077882035 0.000367642246684958 0.0
0.003614087814866593 0.0004126233754936786 0.0
0.0033879767898559766 0.00041027685139733046 0.0
0.0032334793570580316 0.00025408041222393967 0.0
0.0032097290839421784 0.0001816449611793919 0.0
0.0031611247068655183 0.00014880789233608194 0.0
0.0031032492036344047 0.00013553094953975338 0.0
0.003035240510217166 0.0001348439458092335 0.0
0.0029609856864115424 0.00013849767975359682 0.0
0.002881724694110826 0.0001435798863408602 0.0
0.002798870208777163 0.0001507903938189939 0.0
0.0027108649586810134 0.00015673440483618487 0.0
0.002616978564982608 0.00016055650556175794 0.0
0.0025128043922325125 0.00016216906199854425 0.0
0.002387455306237674 0.00016287885661601985 0.0
0.0020500591085497464 0.00018295553768485787 0.0
0.0019335539844755405 0.00019487972841703252 0.0
0.0018375955272431895 0.0001986863317557829 0.0
0.0017541065326610056 0.00020083790640904847 0.0
0.0016786140618249997 0.00020296356978020147 0.0
0.0016104755167566174 0.0002060568898535244 0.0
0.0015495229051944398 0.00021163724043011682 0.0
0.0014978206115747 0.00022177605071405397 0.0
0.0014576378261693618 0.0002423705826088849 0.0
0.0014306117659859674 0.0002788987348585653 0.0
0.001420484900451386 0.0003405675716298764 0.0
0.0014211534860294752 0.0004404992618690283 0.0
0.001253633206876082 0.0006042892999663544 0.0
0.0010091643651465056 0.0005654886443854741 0.0
0.0007010296580889856 0.0004669411344580605 0.0
0.0003702369145375687 0.00030610982386461037 0.0
0.0011780367508566001 -0.0008615519838217693 0.0
0.0032246765002504475 -0.0008861247576974145 0.0
0.0015129055901219118 -0.0009714092233897452 0.0
0.0028766129835559244 -0.001001087852007399 0.0
0.0018693120709720877 -0.0010430161840069756 0.0
0.0025225093099291085 -0.001059997472494558 0.0
0.0021748009372847266 -0.0010702702255361329 0.0
0.0035086820724933455 -0.0007709893027861708 0.0
0.0009187485717387409 -0.0007562738915099325 0.0
0.003719973951116247 -0.000657609889872189 0.0
0.000708855885922869 -0.0006443183913994976 0.0
7.336541139063967e-5 -1.4281246144980164e-5 0.0
0.004425362045495149 -1.3889720290814398e-5 0.0
0.002416226676796841 0.00018136579390021774 0.0
0.00276763250766744 0.00017570621760013312 0.0
0.002017596383001715 0.0001912853630522149 0.0
0.0016957800681445658 0.0002198325271162961 0.0
0.003936512325354907 -0.0005251758995497015 0.0
0.0005193970870330967 -0.0005212619806155244 0.0
5.0100983367930574e-5 -2.5987970114078425e-5 0.0
0.004448366075982412 -2.3890431572468497e-5 0.0
0.004392745252713591 3.118832303129029e-6 0.0
9.898768019640366e-5 3.750956501173437e-6 0.0
0.004100832199171483 -0.0004005567648134776 0.0
0.00036396758354836537 -0.0003933218768765287 0.0
0.003010853232075909 0.0001641369632019317 0.0
0.0014926896115300499 0.0002309822179424334 0.0
3.7146820946737835e-5 -2.8444239540644394e-5 0.0
0.004459163378458451 -2.719201331001098e-5 0.0
0.0017186941863879272 -0.0010166523118945786 0.0
0.0020203842846219506 -0.0010604122044450186 0.0
0.00272521769558378 -0.0010333845676116272 0.0
0.0023322154033337196 -0.0010701135207378705 0.0
0.0030267432065678637 -0.000957122939240699 0.0
0.003358811370023117 -0.0008382789655757376 0.0
0.0013791642955181982 -0.0009334221538436882 0.0
0.0010486696379630727 -0.0008169048421746171 0.0
0.004216658352891493 -0.00030085570650091744 0.0
0.00025292770067176937 -0.0002913295327556002 0.0
0.004363274100692726 2.8134339390930265e-5 0.0
0.0001233411768271623 2.3645111914691193e-5 0.0
0.004465867249862196 -3.0273207546471294e-5 0.0
3.429699340062289e-5 -3.470123660543334e-5 0.0
0.003154633534057586 0.00016748297997590546 0.0
0.001386511730457762 0.00026867387474550653 0.0
0.004308738804250237 5.2471326435996005e-5 0.0
0.00017074858174968502 4.6656192873526844e-5 0.0
6.107915870409265e-5 -2.1627129438102775e-5 0.0
0.004436865914654319 -2.049909712730959e-5 0.0
0.002590496498576966 0.0001843503461427075 0.0
0.0018531770677231352 0.00021696182324105627 0.0
0.00013975569311793797 -0.0001683672685260815 0.0
0.004348872759688703 -0.00017027078995777731 0.0
0.0031219918276555875 -0.000929277471237745 0.0
0.0024284480593934235 -0.0010693218199664056 0.0
0.001621945563714289 -0.0009962172266382743 0.0
0.0012761893643154006 -0.0009030287946709194 0.0
0.002626658632703246 -0.0010479343036714163 0.0
0.003591519465113599 -0.0007300575309242387 0.0
0.0008343242770035247 -0.0007125465038205852 0.0
0.0038104308961883653 -0.0006068977966786684 0.0
0.000624414584883374 -0.0005903129911455342 0.0
0.00043714380346267603 -0.0004559947668493068 0.0
0.004019287191677915 -0.0004642946740168266 0.0
0.0008431174913716443 0.00032731501738354974 0.0
0.0037385844525004265 0.00027135653471308327 0.0
0.004466878603609956 -3.478668179902288e-5 0.0
2.9917496929147853e-5 -3.5185255491921066e-5 0.0
0.0013285645397119838 0.0003718323837006574 0.0
0.003267733542541789 0.000226481008988885 0.0
0.00019307442638237182 7.528413458245147e-5 0.0
0.004303929145970147 7.220745142842976e-5 0.0
6.0913641384485397e-5 -7.554723012038226e-5 0.0
0.004432392143013097 -7.835840448792228e-5 0.0
0.0034955131861955854 0.000306542275223919 0.0
0.0035795316712378114 0.00024101037085190027 0.0
0.003856444759012663 0.00019028892790179223 0.0
0.0036999874039898924 0.00019781691802513726 0.0
0.0034875102612538355 0.0002185828391858836 0.0
0.003565983335943789 0.00020457415314389108 0.0
0.003768968871951636 0.00017592991687757903 0.0
0.0036424586001203504 0.00018806142722945223 0.0
0.003833880123153095 0.0001553876250430001 0.0
0.0037168332940452366 0.00016631924351614158 0.0
0.003537303150512402 0.00019354400384847457 0.0
0.0036053942678731235 0.00017087835342287355 0.0
0.003450559540699737 0.00019223549312039442 0.0
0.003505481591303329 0.00016807706399895998 0.0
0.0033641244200136914 0.00018601664195376722 0.0
0.0034135969758765654 0.0001576746258348133 0.0
0.0023577197735379497 0.00012183891050188624 0.0
0.0022121572106941958 9.784223557183862e-5 0.0
0.0023264154031362575 8.666539896266271e-5 0.0
0.002208589138702765 6.934278990136975e-5 0.0
0.0023081225174747377 5.9704630753011565e-5 0.0
0.002206887754127434 4.642275066865603e-5 0.0
0.0022963322675650425 3.682978210155015e-5 0.0
0.0022049697844676464 2.531417727904339e-5 0.0
0.002287756710895742 1.6137021470703838e-5 0.0
0.002203283753676359 5.751059831363799e-6 0.0
0.0022812546446817567 -2.93810017024946e-6 0.0
0.0022019920221623105 -1.2559905504201985e-5 0.0
0.0022762475279630777 -2.1397707264250792e-5 0.0
0.0022029858138499564 -3.0332545491014928e-5 0.0
0.0022723419896903485 -3.9105418974851557e-5 0.0
0.002202061023352783 -4.7733337295355734e-5 0.0
0.002268801966988918 -5.635420087932415e-5 0.0
0.0021989447107050534 -6.477806417714572e-5 0.0
0.002265327852036912 -7.335219687688682e-5 0.0
0.0021975156768265177 -8.154552964744441e-5 0.0
0.0022624404079656306 -9.022907587502755e-5 0.0
0.0021963820977859046 -9.827091303978013e-5 0.0
0.002257744441205647 -0.00010696645464415395 0.0
0.002194882805063631 -0.0001150675841181759 0.0
0.002254985171555318 -0.0001238347839274841 0.0
0.0021945841206266912 -0.0001315717640597704 0.0
0.0022526343488858775 -0.00014080658896971972 0.0
0.002190266218213185 -0.00014753904417776038 0.0
0.002249672669087976 -0.0001578884382995661 0.0
0.0021743922956057706 -0.00016483687195277018 0.0
0.0022507815085781547 -0.00017554303060202608 0.0
0.0021873885873561053 -0.0001836475248825005 0.0
0.0022481476717907604 -0.00019327914618906994 0.0
0.0021882763000309943 -0.00020187877447393863 0.0
0.0022465314701524837 -0.00021155139516028517 0.0
0.0021908371192216093 -0.00022032057215427297 0.0
0.00224468493790395 -0.0002301461368102009 0.0
0.0021905370752376484 -0.00023944358318410514 0.0
0.002125404984805361 1.6775504459118542e-5 0.0
0.0022428184404020683 -0.0002492884308084811 0.0
0.002130827670593475 -7.192101100417086e-5 0.0
0.002118128677912624 -0.00017859785652490277 0.0
0.0021858227464058074 -0.0002587989813893208 0.0
0.0022405443395327996 -0.0002689598455771728 0.0
0.0021812182741930714 -0.0002794078716107417 0.0
0.0021273318962443805 -0.0002673379898350514 0.0
0.002121346739945863 -0.0002889815246636633 0.0
0.002236082704551529 -0.0002903909169514793 0.0
0.002296099300164538 -0.0002791792284870971 0.0
0.002305698951566977 -0.00018399066923294183 0.0
0.0022919556097470775 -0.0003012468281199101 0.0
0.002355543596491301 -0.00028790722095918005 0.0
0.002349306811536667 -0.00031202354759408296 0.0
0.0020679994692695564 -0.00027632624047272645 0.0
0.0020641866539607696 -0.00029759978519180785 0.0
0.002414763229185546 -0.00029748484888314004 0.0
0.0020074305932881835 -0.00028423433309242394 0.0
0.002007117972450318 -0.0003066077747357541 0.0
0.0024095747482058482 -0.0003219101915940581 0.0
0.0024728836092886863 -0.0003084843202269035 0.0
0.0019464587256254199 -0.0002923171737683567 0.0
0.00194473289318552 -0.0003154168225128916 0.0
0.0024690368591980707 -0.0003327911043799436 0.0
0.002534002472329992 -0.0003185454958812414 0.0
0.0018857427406865255 -0.0003004288870653605 0.0
0.00188347588128005 -0.0003249745361640483 0.0
0.002529988436174075 -0.0003441498146551997 0.0
0.0025965536466406106 -0.00032847637919208666 0.0
0.0018254579972282446 -0.0003073043266110258 0.0
0.0018191550378641494 -0.0003326744838290285 0.0
0.002593354230769974 -0.00035477927800074704 0.0
0.0026601422303632457 -0.0003382037913199041 0.0
0.0017591755600212201 -0.0003142347651525172 0.0
0.0017544401978177356 -0.00034114277265240864 0.0
0.0016910551913248196 -0.00032285438068579823 0.0
0.0016953875749571843 -0.00029435679276511133 0.0
0.002520555469563711 -0.00036944860198796965 0.0
0.0026566374793971967 -0.0003655819999994937 0.0
0.0027246192598070172 -0.0003477882972213426 0.0
0.0027292355048727903 -0.0003197295958480089 0.0
0.0023195473917997987 -9.938462886427162e-5 0.0
0.002796157726437665 -0.0003288172371315196 0.0
0.0028013477033923084 -0.0002997464475418755 0.0
0.0028702413236779793 -0.0003079258468072741 0.0
0.0016915884328472085 -0.0003520107405575858 0.0
0.0016253819661456678 -0.00033061952696555283 0.0
0.001753740506886988 -0.0003701196918202065 0.0
0.0027191747633174613 -0.00037664486050157124 0.0
0.0016266578998627352 -0.00036062834820185997 0.0
0.0015597197357624095 -0.00033759245888684747 0.0
0.002346589267282328 -2.887380573497567e-5 0.0
0.0015606794701846303 -0.00036706886485786606 0.0
0.0014939051271681237 -0.00034365739060482255 0.0
0.0014949998321753249 -0.0003739441245380856 0.0
0.0014291457744230352 -0.0003483253514021277 0.0
0.0014265867443472144 -0.00031880174241765276 0.0
0.0013580631229353562 -0.00032432606211133067 0.0
0.0013564576890322637 -0.000293140440064993 0.0
0.0014223557881476551 -0.00037841433772348995 0.0
0.001282985871070173 -0.0002990670236133197 0.0
0.0012807991584025099 -0.00026713784385172567 0.0
0.0014965315948594295 -0.0004060654243182578 0.0
0.00143469991632405 -0.0004130184422832041 0.0
0.0012091189233800587 -0.00027057337667802484 0.0
0.0012045111187695126 -0.00023953049205110023 0.0
0.0028774029609246166 -0.00027854190872705366 0.0
0.0029488854714156527 -0.00028635321138563023 0.0
0.001497801825231878 -0.0004386657386732954 0.0
0.0014366485387418656 -0.0004454725338772065 0.0
0.002956875659475896 -0.00025611077909525797 0.0
0.003031628086704431 -0.0002642073788560083 0.0
0.003020624815985601 -0.000297376274842177 0.0
0.0031037115364372227 -0.00027343877648867027 0.0
0.0030941549130581022 -0.00030745785868607783 0.0
0.003177153806029944 -0.0002809104485402342 0.0
0.0031718701054599427 -0.00031474724382542436 0.0
0.0032574273791574674 -0.000284750729826829 0.0
0.003245046725482812 -0.00031932269382260693 0.0
0.0032627251594300136 -0.0002523447343100392 0.0
0.00333182786372375 -0.0002899045121825289 0.0
0.0033150606182982124 -0.0003243575417586413 0.0
0.0014996646751261093 -0.00047192856591973673 0.0
0.0011291156647932658 -0.00024222472892674598 0.0
0.0011230975724017642 -0.0002107941335869446 0.0
0.0032355285631528764 -0.00035486372921094425 0.0
0.0033030292795084813 -0.00035942575281113084 0.0
0.0033812298752545905 -0.0003284710965846468 0.0
0.0032291969905968924 -0.0003913146341526985 0.0
0.0014398613156878313 -0.00047898092925442715 0.0
0.0033695747381189407 -0.0003631082021538726 0.0
0.0034459102400998818 -0.00033131844587618985 0.0
0.0015012682180192392 -0.0005061798444421274 0.0
0.0014425147292184918 -0.0005134939012809318 0.0
0.0013820914923097622 -0.00048518051648277033 0.0
0.003433799059338266 -0.00036556088954507645 0.0
0.0035090212134582925 -0.0003325483893224122 0.0
0.0015025874576096694 -0.0005415172477682952 0.0
0.0015607599660101134 -0.000533711532779064 0.0
0.0013853392342679561 -0.0005200007775958103 0.0
0.0013254791742268483 -0.0004907344073209655 0.0
0.0034947346282638517 -0.0003669668259845714 0.0
0.003571560860100835 -0.0003326217676008283 0.0
0.003585016659871523 -0.00029923133824073545 0.0
0.0034192118959973533 -0.0004014781038346395 0.0
0.0036475493603755306 -0.00029808953428313523 0.0
0.0036631770820752573 -0.00026551213284409486 0.0
0.0010432909262267944 -0.00021337580564489002 0.0
0.0010415508752191463 -0.00018103528167236468 0.0
0.0011371908238635997 -0.000180217526581096 0.0
0.0010368269408490552 -0.00014947085349097529 0.0
0.0011284715540928287 -0.00014404325618168668 0.0
0.0010311309035159059 -0.00011666825630707843 0.0
0.0011201276178544038 -0.0001096116174165807 0.0
0.0015619031755739802 -0.0005693971707327632 0.0
0.0016186962421663074 -0.0005609182659678266 0.0
0.0013290230855502979 -0.0005258502120003168 0.0
0.0012697326000239337 -0.000495545365983612 0.0
0.0036332024517872455 -0.0003315218336403154 0.0
0.0010349801926943173 -8.410071358452762e-5 0.0
0.0011190583635700942 -7.560294948941763e-5 0.0
0.0016198573670371478 -0.0005966403507552877 0.0
0.001675350464582172 -0.0005879728898574302 0.0
0.001953528545384673 -0.00033781383581669587 0.0
0.0037083087066642267 -0.0002958595150450896 0.0
0.002387463956183596 5.319612298976669e-5 0.0
0.002483877235197351 0.0001609108271617248 0.0
0.0021320569544829764 -0.0001224384659207477 0.0
0.00303636802443325 -0.00023324634180179856 0.0
0.0010265263408053191 -4.9574889444273153e-5 0.0
0.001124568472035432 -4.032224397441255e-5 0.0
0.0012737343452114357 -0.0005309263599091145 0.0
0.0012153112631945182 -0.0004998169446426966 0.0
0.0016772935405908742 -0.000623858603369539 0.0
0.001732365091959744 -0.000614813336719765 0.0
0.003692498518216958 -0.0003288928802722858 0.0
0.0009587232074133057 -0.00018371908689283588 0.0
0.0009629129859339074 -0.0002163064879635809 0.0
0.0009291534850691237 -8.89532361412795e-5 0.0
0.0037670375780467858 -0.0002922411537969044 0.0
0.0010251432885763692 -1.646872779005682e-5 0.0
0.0011237638438487984 -4.155512762124679e-6 0.0
0.0016225473407654445 -0.0006334789838032278 0.0
0.0012200291009032888 -0.0005356695948774077 0.0
0.0011619384383401285 -0.0005032263155802805 0.0
0.0029619842494793534 -0.0002258134909631464 0.0
0.0030449612888575443 -0.00020205773754554868 0.0
0.002966222091788463 -0.00019476434250796342 0.0
0.0030538645142022076 -0.00017076870051293836 0.0
0.0017335153841018503 -0.0006505704989941188 0.0
0.0017891266621846609 -0.0006401706395514427 0.0
0.0018905482568349623 -0.00027849291935903283 0.0
0.0010234953998788882 1.594069462955347e-5 0.0
0.0011196456199796484 3.1003422590774095e-5 0.0
0.0037516488075649747 -0.00032416336242801087 0.0
0.0036844691915729737 -0.0003582214442898297 0.0
0.0010005757091791393 5.037877997187834e-5 0.0
0.001112025348116398 6.728962573373171e-5 0.0
0.0038235164122793533 -0.0002876064327541681 0.0
0.0038314645267401356 -0.00026341365184372824 0.0
0.0010112498589671395 8.353942713121113e-5 0.0
0.0012764066505004843 -0.0005703624012625756 0.0
0.0017893239801311236 -0.0006769139248750703 0.0
0.0018445736215636536 -0.0006649987661853941 0.0
0.00184514426317196 -0.0006286059682165803 0.0
0.0019005517415470006 -0.0006525699731190183 0.0
0.0019016316798483653 -0.0006166481831297431 0.0
0.001957335947353258 -0.0006396413163953291 0.0
0.0019587104780675454 -0.0006037288694286651 0.0
0.0020152778285249034 -0.000626065915509884 0.0
0.0020170917368264557 -0.0005903870995368765 0.0
0.002074125753678208 -0.0006117134750735434 0.0
0.0020722525510064164 -0.0006483141907944492 0.0
0.0021308387190276156 -0.0006330312735108068 0.0
0.0021286449178689183 -0.0006702019444017896 0.0
0.002186971321812058 -0.0006539579464494908 0.0
0.0021840982471632705 -0.0006917545838946829 0.0
0.0022428966144507883 -0.0006744447823962218 0.0
0.0020765458467876066 -0.0005763884356438537 0.0
0.0022457289148556207 -0.0006368647817211911 0.0
0.0023023799428976374 -0.0006561953590278093 0.0
0.0022987486800499593 -0.0006950228648067786 0.0
0.0023589341373998225 -0.0006758222137113866 0.0
0.0008767696638721557 -0.00018530067975179126 0.0
0.0008804367661276442 -0.00021762794293842926 0.0
0.0011669904619333409 -0.0005391893375161951 0.0
0.0011100778578412417 -0.0005061671749394533 0.0
0.0023631509018086478 -0.0006373864821411006 0.0
0.0024196281334122965 -0.000655597789011963 0.0
0.002414635248426788 -0.0006948059806725404 0.0
0.0024763502590758163 -0.0006733454124756172 0.0
0.0007965876378556501 -0.0001857678330058914 0.0
0.0008002230638100607 -0.00021729827771349775 0.0
0.0029710302718173706 -0.00016254123837794319 0.0
0.0030643467196123744 -0.0001386686371598558 0.0
0.002978798401451695 -0.0001303103485097381 0.0
0.003809863564850714 -0.00031717364587384477 0.0
0.0038787686102574595 -0.00028108317718905656 0.0
0.0018444886247174978 -0.0007028569276481012 0.0
0.0012254490914336404 -7.260697002928375e-5 0.0
0.0023472615248396255 -0.00033433438700336017 0.0
0.002470502729753093 -0.0007132133528569615 0.0
0.002532340418472515 -0.0006906212279050613 0.0
0.0025369438359588315 -0.0006508049850688086 0.0
0.002594006831548145 -0.0006665864929267636 0.0
0.0024799448155343835 -0.0002828018307435285 0.0
0.0030799248308079445 -0.00010565746840208227 0.0
0.0031592841905725153 -0.00011983089800992878 0.0
0.0011127251436407492 0.00010373111387082507 0.0
0.0011148780683041014 -0.0005418194257504929 0.0
0.0010590867914547968 -0.0005080916698247678 0.0
0.002989077571027897 -9.690509858237773e-5 0.0
0.002587960463219709 -0.0007074346491173838 0.0
0.0026506369125297692 -0.0006829296818649607 0.0
0.002656526139971369 -0.0006421643691432713 0.0
0.002714462577594749 -0.0006576871851067252 0.0
0.0027216018792352577 -0.0006180368700512947 0.0
0.0027786299416906945 -0.0006315378992556135 0.0
0.002770285119646368 -0.000671556183060906 0.0
0.002833854470392454 -0.0006439703991165378 0.0
0.001006828334666389 0.00011446502899532702 0.0
0.0007188856778353052 -0.00018488637920905038 0.0
0.000722032337290752 -0.0002150460277436568 0.0
0.0017908759300185176 -0.0007151374283829195 0.0
0.0038626634638542446 -0.0003116122519407703 0.0
0.003931550854679144 -0.00027343490728356146 0.0
0.0028240855786337738 -0.0006840882373648027 0.0
0.002886874199544657 -0.0006553170246981536 0.0
0.0011139224385085624 0.00013832266054097627 0.0
0.0010645419153522766 -0.0005438320805080735 0.0
0.0010087448217866318 -0.0005087721245112319 0.0
0.0012179274465623307 4.6097787037935016e-5 0.0
0.0035535443481363588 0.00014002281073032246 0.0
0.0018444213365227 -0.0007417082136693058 0.0
0.0010036773323256188 0.00014260746032365354 0.0
0.0009346242742284301 1.4196144873738724e-6 0.0
0.0039093806967932495 -0.0003110625184867049 0.0
0.003982438040922164 -0.00026525935590768137 0.0
0.003999970993922355 -0.0002354866396778458 0.0
0.000902988720592231 9.185232686242982e-5 0.0
0.0038366226768357077 -0.00034739526536043666 0.0
0.0007106571895023385 -0.00015514402660801288 0.0
0.0011155028108086706 -0.000575917459602817 0.0
0.003095040556699879 -7.165163318138404e-5 0.0
0.003001158639371597 -6.237633260079795e-5 0.0
0.0027872842652684167 -0.0005926000503745501 0.0
0.0010147802163447094 -0.0005453568648368616 0.0
0.000959118470664994 -0.0005092326365324704 0.0
0.0006435329769326386 -0.00018243466769850064 0.0
0.0006460904347302143 -0.00021073353003859426 0.0
0.001210994241235868 -0.0004659654761246759 0.0
0.0028757318988970083 -0.0006954129403550112 0.0
0.0029378967392249466 -0.0006651763920414049 0.0
0.0009529332820286452 -0.0004733918767044445 0.0
0.0009031268128839353 -0.0004727975036788509 0.0
0.0028169137839008694 -0.000722317821698788 0.0
0.0017927592295014436 -0.0007543587484028239 0.0
0.000910307650907589 -0.0005092018566799547 0.0
0.0008545375934937982 -0.0004717263442299874 0.0
0.0019015696662648457 -0.0005823718904673659 0.0
0.004050990274869338 -0.00022549164553848085 0.0
0.004068668919265135 -0.00019865979331546262 0.0
0.004034153937888761 -0.0002538889449136981 0.0
0.0029251839592419754 -0.0007047292737793876 0.0
0.0029871092010360246 -0.0006734278276052823 0.0
0.002728346122301742 -0.0005794021534857221 0.0
0.002795370328119753 -0.0005547848492100669 0.0
0.0018448881172906453 -0.0007813833715031712 0.0
0.003000214150237265 -0.0006344281947099751 0.0
0.0030497774621508224 -0.0006422611435876767 0.0
0.0005694391929566174 -0.00017720989696471778 0.0
0.0005749747412845808 -0.0002046442947095083 0.0
0.0030360066180020605 -0.0006819974485307821 0.0
0.0030976885713181676 -0.0006498840654129591 0.0
0.000863336781329656 -0.0005087460599139297 0.0
0.0008075079653388423 -0.00047014015338687744 0.0
0.0031104971889669357 -3.658056814197866e-5 0.0
0.0030156761992558407 -2.6742433097872895e-5 0.0
0.0007981097315177313 -0.0004348018015535781 0.0
0.0007509293797584738 -0.0004317307277425627 0.0
0.0007600182515210296 -0.0004675923746820013 0.0
0.0007037708126938088 -0.0004280872822134736 0.0
0.00410018878420751 -0.00021410756119929057 0.0
0.004082875701328487 -0.00024221417628250298 0.0
0.0011099522117066119 0.00016741192955083131 0.0
0.000990407873008853 0.0001660470198885036 0.0
0.0028928142532444498 -0.00012060354987833876 0.0
0.001794544915407048 -0.0007943757714355619 0.0
0.0030836779189737395 -0.0006907789899138634 0.0
0.0031440902122067526 -0.0006573485528718314 0.0
0.0032744601285381748 0.00017500261713699814 0.0
0.003063575944026702 -0.0006033409900898135 0.0
0.002126640289216611 -0.0007084791639693149 0.0
0.0006930974011663631 -0.0003939576786331037 0.0
0.0006473749523331869 -0.00038857911662822727 0.0
0.0006582619743923033 -0.00042398781346930273 0.0
0.0006017464030298365 -0.00038297377337849394 0.0
0.0005908578537521114 -0.00034954158303392206 0.0
0.0005438841094171194 -0.0003426124534474347 0.0
0.0005326444972068517 -0.000309867405928755 0.0
0.0004850629830681926 -0.00030128541904522906 0.0
0.00047388077437053805 -0.00027055842754970956 0.0
0.00042903337155085594 -0.0002612486565721648 0.0
0.0004171063030861584 -0.00023287524669641252 0.0
0.00043932981874875236 -0.0002910048651567939 0.0
0.00037859064356162694 -0.0002445886417188939 0.0
0.0005006099391438206 -0.00017062500426977072 0.0
0.0004993484084170097 -0.00014620626668358991 0.0
0.00039427194202215865 -0.00027922357729164937 0.0
0.0003388094941014899 -0.00023641774024518576 0.0
0.001220354758659525 0.0001604013345557807 0.0
0.001342007773147784 -0.00025924188321917017 0.0
0.0027354521333045655 -0.0005421509913773052 0.0
0.002802491892976898 -0.0005181994533352581 0.0
0.0007989672920809581 -0.0002470746118827888 0.0
0.0018452645463803818 -0.0008220587884918991 0.0
0.001896025419520755 -0.0008083817427012785 0.0
0.0028628102599629365 -0.0005295879178037096 0.0
0.002870380886925153 -0.0004932248273825958 0.0
0.004147427146587395 -0.00020126156032681869 0.0
0.004127224637865008 -0.000230363800111663 0.0
0.004064295747057255 -0.00027408865328211007 0.0
0.0029059428503120047 -5.286100914980551e-5 0.0
0.0029194908775710955 -1.717929072342374e-5 0.0
0.0017428423817924968 -0.000766475511707053 0.0
0.0017448794370710718 -0.0008065978941304712 0.0
0.0016939677818910174 -0.0007782158552978835 0.0
0.0006149769342661588 -0.0004193720076714167 0.0
0.003031594229769884 1.0010490124460412e-5 0.0
0.0029347889605428382 2.060944753573089e-5 0.0
0.001210069901187198 -0.00030399404419625476 0.0
0.0031289308173320764 -0.0006991743573316341 0.0
0.0031894594315930325 -0.000664540273997053 0.0
0.003205208092509165 -0.0006242560456983339 0.0
0.0032502384683168674 -0.000630187793553678 0.0
0.0011336772060416577 0.0001947254000476474 0.0
0.0009909377641107902 0.0001872912069723792 0.0
0.0016724808645518928 -0.000553631555356648 0.0
0.0030699042019477064 -0.0007334790295821757 0.0
0.0037736796842092273 0.00014209108807907293 0.0
0.003233766202092326 -0.0006726260180457081 0.0
0.003294922400523075 -0.0006369009325883862 0.0
0.0033113038374564937 -0.0005955099824574307 0.0
0.0033565037826726427 -0.0006010531376113283 0.0
0.003373740650979304 -0.0005601411905257998 0.0
0.003418317632226706 -0.0005646967742465701 0.0
0.0034005086168084906 -0.0006071667532057199 0.0
0.0034615643357422017 -0.000569692467843293 0.0
0.0003512740759076944 -0.00026460375125039536 0.0
0.00029735297488300063 -0.00022125443182875173 0.0
0.0002782285207183964 -0.00019098601068541182 0.0
0.0018962304426137682 -0.00084958110881469 0.0
0.0019449348055050044 -0.000836992144807369 0.0
0.0016966642443129072 -0.0008185120731707069 0.0
0.0016459588602364184 -0.0007892574785817571 0.0
0.004105940711144296 -0.00026398040624768017 0.0
0.004167816497317805 -0.00021867892225012944 0.0
0.0032286626691650044 0.00020027530915925034 0.0
0.0031429665050139617 0.00018905610121624895 0.0
0.0008615774965601654 0.00015773586196550754 0.0
0.0008592651779340448 0.0001760638459672881 0.0
0.00040746840406731733 -0.000312063195762146 0.0
0.0015605789642416095 -0.00043118360111661647 0.0
0.002870228862327993 -0.0001895983184461982 0.0
0.004044802647780117 -0.000309808201665947 0.0
0.0012132434028879885 -0.00013208301168090236 0.0
0.002810586469242129 -4.3870334911184436e-5 0.0
0.00344202674454597 -0.000613959980592918 0.0
0.0035028444251977743 -0.0005752290425580785 0.0
0.0034411303204955374 0.0001257547651686422 0.0
0.0035988327858963915 0.00010909929631948431 0.0
0.0011150263993188077 0.00021324511977155222 0.0
0.0006479958422271627 -0.00023884235224594816 0.0
0.0004230275542811963 -0.00013745487350129619 0.0
0.00042323824515209306 -0.00011538455647007302 0.0
0.0006691325231774975 -0.00046124569535804696 0.0
0.0032814530054431777 -0.0006811577169952669 0.0
0.002649148618810744 -0.00039363608848712127 0.0
0.002410448595836951 -0.000735272404124643 0.0
0.001506870540344308 -0.000576258607951077 0.0
0.0003099044573955635 -0.0002487612073102556 0.0
0.0002579606313907711 -0.00020468757300622003 0.0
0.0009189770147114341 -0.0005474579079402722 0.0
0.002931517447334581 -0.0005034614127209757 0.0
0.0029395888669582035 -0.00046752585259611875 0.0
0.0017450718855413394 -0.0008483103062654616 0.0
0.0035095683821145134 9.062917459460226e-5 0.0
0.0036446280143835126 7.845462104733848e-5 0.0
0.003561098622201806 5.715438485008096e-5 0.0
0.0036921404529754636 4.758594289231005e-5 0.0
0.0037728814582916772 6.676556664352109e-5 0.0
0.003819533981105369 3.891328686760309e-5 0.0
0.0037377450973797885 1.7079655783542392e-5 0.0
0.003861110656173313 1.1774630926340157e-5 0.0
0.00378018050102599 -1.1828052190499627e-5 0.0
0.0039012428790244774 -1.3425915065445127e-5 0.0
0.003822579390808786 -3.904193475413801e-5 0.0
0.003938669255237007 -3.6432689413017904e-5 0.0
0.0038623951990166172 -6.419893324624314e-5 0.0
0.003974595885161111 -5.7335875903066114e-5 0.0
0.0037415413388845473 -6.954180691095608e-5 0.0
0.0039005138293722215 -8.634927297775802e-5 0.0
0.004006053732281412 -7.649460713202014e-5 0.0
0.0039019455064410176 5.445962080999525e-5 0.0
0.0008948594336881684 -0.0004375098425376912 0.0
0.0008731764782943609 -0.0005474589199573842 0.0
0.0009267554080331287 -0.000586612482824957 0.0
0.003937064321269365 -0.00010607489254675494 0.0
0.004037280385734173 -9.293289931537523e-5 0.0
0.003836903369694801 -0.00011695041747449171 0.0
0.0024645029900871233 -0.0007541480450343264 0.0
0.0024050642282654826 -0.0007763697514408377 0.0
0.002458026986279417 -0.000795715186993191 0.0
0.0024002143931427453 -0.0008183417742997223 0.0
0.0024515567382136965 -0.0008380918871797195 0.0
0.002395978116345407 -0.0008611316588943443 0.0
0.0023446404677173642 -0.0008405907303556484 0.0
0.0023414291998056077 -0.0008833978701228678 0.0
0.0022914820040288754 -0.0008618887855562739 0.0
0.002084805592806531 8.879134176677268e-5 0.0
0.0024455141028938737 -0.0008815254246185876 0.0
0.002500397535865952 -0.0008572233052519037 0.0
0.002057015585737243 -0.0003208536693866004 0.0
0.0020187218011659467 -0.0005559183324949832 0.0
0.0020789090181349058 -0.0005422819484709161 0.0
0.0020203285584864633 -0.0005226074808615468 0.0
0.002081193960147215 -0.0005093948063334486 0.0
0.0020219782739585006 -0.0004905045173870552 0.0
0.002083452430378102 -0.00047777914881739385 0.0
0.0021428962465450375 -0.0004957150445387712 0.0
0.002145656157071462 -0.00046461581507265486 0.0
0.002205326715199196 -0.00048163315344839 0.0
0.002208398090879502 -0.0004510243354064162 0.0
0.0022656620401289907 -0.0004670352851211439 0.0
0.0021485314630098284 -0.0004338625987196733 0.0
0.002023690301186353 -0.00045957256412334347 0.0
0.001962017371200272 -0.0004714507894320136 0.0
0.0022620587685244172 -0.0004989150763199968 0.0
0.0023254965091359997 -0.0004814829197540328 0.0
0.0008828021555378556 -0.0005871613544283547 0.0
0.002130824732077509 -0.00021076783971035642 0.0
0.0021296847204131503 -2.2411548697931535e-5 0.0
0.002424673528415306 -0.0006179124799957918 0.0
0.004165022107305275 -0.00017644746391489864 0.0
0.004209849899889291 -0.0001630427386748215 0.0
0.0023347157120977764 -6.396724898461935e-5 0.0
0.0023143080848022327 -0.00013011225898801437 0.0
0.0033272129290374754 -0.0005558946658616164 0.0
0.0028585063653704694 -0.0003380543306962347 0.0
0.004147531860373654 -0.0002511885410802316 0.0
0.004206078027871202 -0.0002061366276679126 0.0
0.0023041679078874846 -0.00022141790602154767 0.0
0.0016490896170602068 -0.0008299594100471655 0.0
0.001598647169980489 -0.0007999451900526947 0.0
0.002365321580482052 8.419792519050276e-6 0.0
0.002288275073632538 -0.0009048644069349472 0.0
0.002238265415431349 -0.0008807109094460269 0.0
0.001595604893805442 -0.0007597098193872433 0.0
0.0015478352593028084 -0.0007696805209108454 0.0
0.0015445894609983231 -0.0007298450909248789 0.0
0.0014966129524981136 -0.0007389854607415113 0.0
0.0015007476670741635 -0.0007793359834246984 0.0
0.0014497498796899975 -0.0007477770983020452 0.0
0.0014542953373331503 -0.0007885936732751975 0.0
0.0014033715325424904 -0.00075624207068859 0.0
0.000628524167439581 -0.00045762977626120715 0.0
0.004227491892623412 -0.00014096855377055805 0.0
0.0030471531646262743 4.7972162365114986e-5 0.0
0.0029477993470688824 5.783308626593542e-5 0.0
0.001381841103263718 -0.00042013701215238685 0.0
0.001110813014615367 -0.00047166225549796287 0.0
0.004072962105344061 -5.252071722834851e-5 0.0
0.004018515350684827 -1.568950207663944e-5 0.0
0.001944169616984038 -0.0008778781569530254 0.0
0.001994104225385997 -0.0008639813352361777 0.0
0.0031133347421200036 -0.0007429275146401078 0.0
0.000583799131462029 -0.0003172680710278325 0.0
0.002600936590275906 -0.00030345661144758084 0.0
0.0028386475489603218 2.98924608639107e-5 0.0
0.0028504065783091516 6.70042081337933e-5 0.0
0.0033914768514682232 -0.000521047656224268 0.0
0.003456889456665076 -0.00029763224004133467 0.0
0.003523054984079954 -0.0005326122250666976 0.0
0.0035650210250184225 -0.0005360074595619626 0.0
0.0035423458263381647 -0.000581673797391994 0.0
0.003605316850947126 -0.0005406063881437185 0.0
0.0020176551658352003 -0.0002631897075043967 0.0
0.0006797226783135482 -0.0004996530435368656 0.0
0.0022653448203515114 -0.00043605354316715627 0.0
0.0036561978619527886 -1.1811349793552534e-5 0.0
0.0019555841186260654 -0.0007969981206744321 0.0
0.0009337897572660066 -0.0006264013055078286 0.0
0.0009779617111249903 -0.000625608539909081 0.0
0.003055995557599277 -0.0007776659622118142 0.0
0.0014924519717805093 -0.0006998619944280363 0.0
0.002741773127488747 -0.0005062707130915716 0.0
0.0026750423578874353 -0.0005288306146042567 0.0
0.004185666335279678 -0.00023878362493215345 0.0
0.004243773068368155 -0.0001916042528816855 0.0
0.004262041138422958 -0.00016468591865662272 0.0
0.0012510777788740548 0.0002213023424948807 0.0
0.00027066746143842007 -0.00023087739875003705 0.0
0.00021986122172676793 -0.00018519799008493118 0.0
0.000212578036669254 -0.00016570016958939037 0.0
0.0031002327961098374 0.0002113878423441204 0.0
0.0031795299068451857 0.00021623522857655314 0.0
0.00301703754441188 0.00020025878257370243 0.0
0.0032061122645194637 -4.6595220429010904e-5 0.0
0.003972738705959766 -0.00012156057419761331 0.0
0.004070841043823961 -0.00010552178308687918 0.0
0.001602323253587517 -0.0008411747599876253 0.0
0.003141050405260458 -0.00017787360373773854 0.0
0.0007274455216389904 0.00014457819062049524 0.0
0.0007175437429585436 0.00015880721952530287 0.0
0.000857816103447938 0.0001915648490204856 0.0
0.0007031334720145387 0.00017005075010353762 0.0
0.000900463792716467 0.00021478861626108783 0.0
0.002236310279851343 -0.0008370644484392811 0.0
0.0013977391861253637 -0.0007160959461700911 0.0
0.0013525807213995594 -0.0007238080452808612 0.0
0.0013579596281852906 -0.0007644514773653381 0.0
0.0013077235738724055 -0.0007313354645903406 0.0
0.0036262079450245107 -0.0004970776895644382 0.0
0.0036663382169125442 -0.000500581625289461 0.0
0.00364535919274272 -0.0005457582857701782 0.0
0.003704882903574339 -0.0005045989228168959 0.0
0.0028768545770612736 -0.00045761841622476496 0.0
0.0029469966683588846 -0.00043278181034158027 0.0
0.0024936524819422655 -0.0009008452419413424 0.0
0.0025473074832735344 -0.0008753250832450804 0.0
0.001963396566400934 -0.0004408613706214835 0.0
0.00190139473867012 -0.0004520036066873961 0.0
0.0018898338981519567 -0.0008929192335336212 0.0
0.001313175330700203 -0.0007717515263248692 0.0
0.0012639186986402712 -0.0007383640074545458 0.0
0.0040025845018253 -0.0003187721347217852 0.0
0.003982427425036255 -0.0003570537513029904 0.0
0.003941780047777078 -0.0003640311817897303 0.0
0.003926957359770534 -0.0004004066072471097 0.0
0.0019928226693860357 -0.000908161706300421 0.0
0.00031807528829446715 -0.00027558241319959224 0.0
0.0004658598430434527 -0.00024282398381790524 0.0
0.00040239273984902504 -0.00020487214361608545 0.0
0.0003441498262372828 -0.00010572541717846252 0.0
0.00034027470036646263 -8.603970894105535e-5 0.0
0.0004243477875741904 -9.343727136829644e-5 0.0
0.0003382763558119025 -6.703460791418627e-5 0.0
0.00042561793567796066 -7.127497673482142e-5 0.0
0.00033671173351316076 -4.836698737510619e-5 0.0
0.00042842122547285735 -4.913920033358173e-5 0.0
0.004023359111097725 -0.0003489018961889734 0.0
0.0013002155338352728 -0.0006919374865822002 0.0
0.0033433584711034356 -0.000518555840116135 0.0
0.003012049123538491 -0.000765840308083583 0.0
0.0029993846155929897 -0.0008121377695860292 0.0
0.0029562427319587267 -0.0007997670215811291 0.0
0.0022363288410150563 -0.0009248378841937099 0.0
0.0031248656273337038 3.350225167427124e-5 0.0
0.003684016374345523 -0.0005512680078753404 0.0
0.004299521756679458 -0.00014787010403713563 0.0
0.004280171653970331 -0.0001753350673527318 0.0
0.001230553402221308 0.00023309650535309782 0.0
0.0030371802327474637 8.247185394741655e-5 0.0
0.0023670902877829044 -0.0006004917969812696 0.0
0.0024281606283315417 -0.000581590520126716 0.0
0.002340000320372204 -0.0009277056555718554 0.0
0.0021868278072870897 -0.0008995603740754184 0.0
0.0009738383658718675 -0.000253583845003271 0.0
0.0041312456380484495 -7.933382398672985e-5 0.0
0.0041623768924635195 -8.844092612381575e-5 0.0
0.0041011160662872935 -0.0001157833865638998 0.0
0.004188897936604491 -9.655697613106214e-5 0.0
0.0034788434801988934 -0.00040212706225582317 0.0
0.002637886678998019 -0.000725467964406479 0.0
0.002680642786530677 -0.0004938737301482794 0.0
0.0019582786464681706 -0.0006771213036294247 0.0
0.002803757801484838 -0.00027086161188541165 0.0
0.003001139756371961 -0.0004768104343251948 0.0
0.003012830561671824 -0.0005967160412428984 0.0
0.0030770979772653125 -0.000565923420363747 0.0
0.00304529488636448 0.00022257450727683654 0.0
0.0031417959475525275 0.00022145903147211297 0.0
0.000984088407388735 -0.0006657116808827701 0.0
0.0010263698990013405 -0.0006636560355798989 0.0
0.00033583130180359305 -2.9853074681409257e-5 0.0
0.00042797125432339847 -2.7185052878040008e-5 0.0
0.000523105195295746 -4.725888380594919e-5 0.0
0.0005259122796079894 -2.1487015115659656e-5 0.0
0.0004299117702227212 -5.8841072290574695e-6 0.0
0.0005323131849604378 3.6486183533393757e-6 0.0
0.00043370218424703885 1.4587356883788527e-5 0.0
0.0005417212425023734 2.8370790578357883e-5 0.0
0.0004374280515480309 3.4233057616043496e-5 0.0
0.00023318591243469788 -0.00021101174120510024 0.0
0.0026141047141576257 -0.0005150438816516035 0.0
0.0001840561129736036 -0.00016461245720205916 0.0
0.0008918200793972323 -0.000627546758438553 0.0
0.004272869742443781 -0.00012568327515969895 0.0
0.0021368478693581383 -0.0005618280672816494 0.0
0.0027435586465902424 3.860358263761955e-5 0.0
0.0027598711054301404 7.845385527665508e-5 0.0
0.0005497651926779629 5.2570513664318965e-5 0.0
0.000641127957184406 -0.0004969468798991818 0.0
0.0005907990202119919 -0.0004539851022675235 0.0
0.0013636684363723518 -0.0008129404442943673 0.0
0.0030928411670149312 -0.0007908616321428746 0.0
0.0016518438257517138 -0.000871910782468006 0.0
0.0037427143243062033 -0.000508573364497822 0.0
0.0043176924384298095 -0.00012482976783978326 0.0
0.001900344565219302 -0.00048316741563748917 0.0
0.001840034423933012 -0.0004626728688093995 0.0
0.0018391227456126806 -0.0004945169007070706 0.0
0.001351275953269375 0.00023695932259129457 0.0
0.0017822988074670905 -0.00047308228274943795 0.0
0.00035485828854369024 -0.00012785616169812576 0.0
0.002539348360138889 -0.0009195113450895646 0.0
0.002592832979181219 -0.0008925126450295631 0.0
0.0026015984745452257 -0.0008491223173131744 0.0
0.0026464367854791516 -0.0008649693478833566 0.0
0.0031288286390485044 -0.0005720790413428267 0.0
0.0031432120225168138 -0.0005343148410447833 0.0
0.0042887405190442885 -0.00010757307502635486 0.0
0.00424164949016932 -0.00012201588044232323 0.0
0.002883854058469593 0.00010992378351385694 0.0
0.002779708630576041 0.0001219421816758578 0.0
0.0008419006339022251 -0.0005878107146225599 0.0
0.0012696086764706178 -0.0007790067745869807 0.0
0.0012213042634489956 -0.0007451705393296523 0.0
0.002228987555417748 -0.00031373106484659894 0.0
0.003625826748538576 -0.0005936849901957546 0.0
0.00044236924483547445 5.312069263939286e-5 0.0
0.0012143709678152808 -0.0007044198167529776 0.0
0.002636411937547877 -0.0009091276673050243 0.0
0.0026893535585030023 -0.0008802293091483921 0.0
0.0026183939873841355 -0.0004817813907575147 0.0
0.0025529713455603223 -0.0005008646487308492 0.0
0.0025568458870247903 -0.00046865152341586224 0.0
0.002355451425118375 -0.000267667110039271 0.0
0.00034770160928085804 -0.000192215599513936 0.0
0.00019743306650840472 -0.00018940903506703535 0.0
0.0026566311327264193 -0.0008222535228782062 0.0
0.002714610692903437 -0.00040582351907475544 0.0
0.002185835849850477 -0.0009441163952840477 0.0
0.0008791197632182124 -0.0001537653797137498 0.0
0.0015610652583909397 -0.00031049543021426616 0.0
0.0006902894128864788 -0.0005409813485377267 0.0
0.0037638814174993044 -0.0004641368621426268 0.0
0.0009487755253834058 -0.00043890879347935926 0.0
0.0008872178604681834 -0.0004029190958191974 0.0
0.000945840119377723 -0.00040479321131622984 0.0
0.0008818748617870262 -0.0003692428770735198 0.0
0.0009421057348324151 -0.00037111400810929733 0.0
0.0008227688847897547 -0.00036662308043349645 0.0
0.0029440768260401654 -0.0008464102606533909 0.0
0.0029047574604363995 -0.0008327934492894674 0.0
0.0005801552018293243 0.00012371771210216334 0.0
0.0022361719295192757 -0.0009692074341862829 0.0
0.0021809050171968697 -0.0007306689392707655 0.0
0.0021242877712344746 -0.0007476274912851153 0.0
0.00103319351859992 -0.0007045091004436204 0.0
0.00027402120995414803 -9.447766841635717e-5 0.0
0.00028993356326952497 -0.00011823666541787835 0.0
0.004013575560772882 -0.00020920315971749662 0.0
0.004084634499047404 -0.00017405188939742487 0.0
0.0006221730521164861 -4.2091691780522224e-5 0.0
0.001074825058610343 -0.0007008798368162105 0.0
0.0010707574852858053 -0.0006632598746808836 0.0
0.0010815740317421272 -0.0007423324241046829 0.0
0.000992432537742428 -0.0007073617538162388 0.0
0.0007156261543938773 0.00018975661238173 0.0
0.0016911457761040445 -0.0007390006280491891 0.0
0.0026088501605128754 -0.0005506103002392733 0.0
0.004024934417412003 -0.00018454473933121916 0.0
0.002486819987263453 -0.0009459279896757881 0.0
0.0016050650821603414 -0.0008837761098371822 0.0
0.004333441964627126 -0.00013117881084911872 0.0
0.004313545747955691 -0.00015922974624200457 0.0
0.0013795557877439564 0.00022569067775432252 0.0
0.0012283378743864026 -0.0007869930139194965 0.0
0.00288245719020749 -0.0004219011872475531 0.0
0.0029585998871332147 -0.0003977231712541858 0.0
0.0004583641586942643 -0.00021597762202248184 0.0
0.0006038152435755887 -0.0004932458385610466 0.0
0.0005551292583226933 -0.0004502546867157988 0.0
0.0005411215006658269 -0.0004124553852450829 0.0
0.0008514699960464953 -0.0006285415628681235 0.0
0.00014985133226180788 -0.00014220930702494423 0.0
0.000139385814164807 -0.00012357779827364178 0.0
0.002678248482554992 -0.0009255979605632242 0.0
0.002730480245261742 -0.0008954377505976027 0.0
0.0027405663695613063 -0.000849142800726521 0.0
0.003687515429189168 -0.00045844833266550894 0.0
0.0036456577689975463 -0.0004567050350950322 0.0
0.003662787566086689 -0.0006011253804807542 0.0
0.0008165698016953906 -0.00033386984189084093 0.0
0.0007588837812940443 -0.0003316385412210941 0.0
0.003021377138655404 -0.00040707154445633983 0.0
0.004245646969452345 -7.141703952656183e-5 0.0
0.004268903511688769 -7.712336489724266e-5 0.0
0.004297019716581323 -9.398975528356509e-5 0.0
0.00425016407731047 -0.00021830229961124586 0.0
0.00024600227286927117 -0.00023926088857870694 0.0
0.0027966465095846742 -7.497745183911716e-5 0.0
0.0027084957066295955 -6.77804289783965e-5 0.0
0.002694873628063013 -9.516852799624095e-5 0.0
0.0026109718461511592 -8.920267946557814e-5 0.0
0.0026028168541544663 -0.00011537087846953915 0.0
0.002616848810341849 -6.36132050564394e-5 0.0
0.002370691349138482 -0.0005649090488107618 0.0
0.0019023453589961437 -0.0004220269527736836 0.0
0.0019649818286307345 -0.00041136098706399325 0.0
0.0005681554375778463 -0.0004891213700352692 0.0
0.0005201696258586748 -0.00044479870511606584 0.0
0.003850777955644184 7.941059210817582e-5 0.0
0.003982638915709981 6.426711621309554e-5 0.0
0.0040341423316123 4.041755774365614e-5 0.0
0.0041126845184762395 4.750720471952852e-5 0.0
0.004079985031575483 6.733877283475832e-5 0.0
0.0021387053768065533 -0.0009191810297089201 0.0
0.0021388664595402822 -0.0008770877083135047 0.0
0.002136777013532484 -0.0009628741242160956 0.0
0.002648063295972325 4.5651149303445536e-5 0.0
0.0026346116899997087 1.2015318445619994e-5 0.0
0.000622846762063195 -7.084161584402121e-5 0.0
0.0003266379848205364 3.310995354808524e-5 0.0
0.0028903864002660902 -0.0008804422710240237 0.0
0.0007304535609863107 0.00012786924003570672 0.0
0.0029223324591271054 -0.0005401816156322809 0.0
0.0026973882007681914 -0.00012158461196623246 0.0
0.0025952388942150546 -0.00014089484854095654 0.0
0.0026728758415943046 -0.00014972035925498996 0.0
0.002587348869633993 -0.00016595686819179635 0.0
0.002660720695868534 -0.00017525259164540135 0.0
0.0025800310084352074 -0.0001911480166255788 0.0
0.0026512110996535863 -0.00020077338937979478 0.0
0.0025733303323635403 -0.0002166901651983895 0.0
0.002645604871678223 -0.00022658304409156784 0.0
0.002509332935970232 -0.00015649865790659789 0.0
0.002501802828562483 -0.00020648377558759437 0.0
0.0029857841501318766 -0.0008602425616784498 0.0
0.0043439288990222095 -8.615242957123923e-5 0.0
0.0015419117995165831 -0.0006912825260714478 0.0
0.0014876773127904279 -0.0006626870879590876 0.0
0.004125834272889813 -0.00028871579483423217 0.0
0.0017859534079746853 -0.0004462436817229151 0.0
0.002522932587693054 -0.00010730485802322181 0.0
0.0008897557279027851 0.0002361541408295262 0.0
0.00025841294673233366 -6.012344961352301e-5 0.0
0.0014798790366626696 0.00023894930701296035 0.0
0.0014974197189830014 0.00022625327581972016 0.0
0.003369662689689927 9.656228712465093e-5 0.0
0.004163111773402002 -0.0002772066938751146 0.0
0.004105798982034088 -0.00032895014577994405 0.0
0.0017796706432616233 -0.000505192135038724 0.0
0.0017284544640303163 -0.0004786647547297149 0.0
0.0007304175982431239 -0.0005101036095133166 0.0
0.00016331872823403 -0.00016569994605767144 0.0
0.0002052178537397069 -7.968865980360251e-5 0.0
0.00021165824120432863 -9.544221327944643e-5 0.0
0.0001169256474602866 -0.00011774828882756943 0.0
0.0030889102533796153 -0.0005288888620093934 0.0
0.0031564623069683328 -0.0004981434539515811 0.0
0.0032117273312452697 -0.0005028268178343747 0.0
0.003224257253714488 -0.0004664513159903322 0.0
0.0024971423761121366 -0.00023072697682903544 0.0
0.001060786476113361 0.0002512138210172424 0.0
0.0013513584228791956 0.0002441682821543262 0.0
0.00249197623367002 -0.0004863572114326413 0.0
0.0024964852135091905 -0.0004544152637677314 0.0
0.0019047018932766473 -0.0003942377671793271 0.0
0.0016260959936854774 -0.00039155684352384977 0.0
0.001654647271790402 -0.0009150764435271051 0.0
0.003383416946286922 -0.0006521897373681459 0.0
0.003422929111609796 -0.0006610200303870263 0.0
0.0033668709210421897 -0.0006997521818202323 0.0
0.003405183478262675 -0.0007107492495925582 0.0
0.003350896884266242 -0.0007496399999864137 0.0
0.00331232412663341 -0.0007383721546554178 0.0
0.0032143944551565086 -0.0007249576370099842 0.0
0.002911394163744026 -0.0007869323820104711 0.0
0.003057492262996943 0.0001714003180534578 0.0
0.0023516351028161227 -0.0007566752191043793 0.0
0.0006433555581611636 1.6900457480696287e-5 0.0
0.00429017840367553 -0.0001947149950983203 0.0
0.004343755133777109 -0.000142739376296175 0.0
0.0034605390014106484 -0.0006708803861000933 0.0
0.003443404164920123 -0.0007211505139731835 0.0
0.003496716890580468 -0.0006814127545947391 0.0
0.001699886351810491 -0.000902814020351718 0.0
0.0020706822316994993 -0.0007246657592238152 0.0
0.0020701019687675306 -0.0007632170295384331 0.0
0.002122166853787698 -0.0007875553763738638 0.0
0.0013944567849238066 -0.000561587442842617 0.0
0.0020167338093074498 -0.0007393327456202639 0.0
0.002610703288685439 -0.0008076592776156763 0.0
0.003709705612882438 -0.0004183794835834558 0.0
0.0038008073277907626 -0.0004662987029886891 0.0
0.003778928649939623 -0.0005129891644878584 0.0
0.0038302302403442146 -0.0004185345527934678 0.0
0.0005220815044417127 -9.827648196607933e-5 0.0
0.0015051277749623655 -0.0008208300480883563 0.0
0.0014597889057150668 -0.0008307514227081368 0.0
0.0015090946399646183 -0.0008632257725165394 0.0
0.0014657742917224303 -0.0008737095660420501 0.0
0.0032793022034814114 -0.00046973899156883895 0.0
0.0009015660959135089 -0.000669313002928645 0.0
0.000804528182566228 -0.0005889741653582428 0.0
0.0042118146635588315 -0.00010498512672764379 0.0
0.0002485521546202463 -2.9632511301032106e-5 0.0
0.0002480400566033308 -1.5681280552997312e-5 0.0
0.0028489622067668164 -0.000860190698781026 0.0
0.0028423408494511505 -0.0009121330983471123 0.0
0.0023086826944362306 -0.0005827854574575941 0.0
0.004163441455874027 2.6963466384462658e-5 0.0
0.0008133479435269767 -0.0006292306432151745 0.0
0.003394738957248361 0.0002138923040900474 0.0
0.003956829551298294 -0.00032775110456037445 0.0
0.0039728914060871414 0.00013415832913102286 0.0
0.004015905145467305 0.00011681774132251596 0.0
0.0031690813786334083 -0.0004627748698538887 0.0
0.0034097463271303306 -0.0004842708807725326 0.0
0.003458238021098433 -0.00048589805979371584 0.0
0.0030314873688488675 0.0002163681366933413 0.0
0.003121523425107971 0.0002132843613595326 0.0
0.0032353252675270177 0.00021852758966163597 0.0
0.0026253391947011484 -0.0009554872846127284 0.0
0.001273109009108531 -0.000820226308103977 0.0
0.0019603718289590384 -0.0005357219502191542 0.0
0.0028125976146505176 -0.00044783719222845015 0.0
0.002483769527754252 -0.0005969286872754809 0.0
0.002530845167975143 -0.0009655695067842382 0.0
0.0011213773450724268 -0.0007374850273520162 0.0
0.001438971160165801 -0.000669580624640643 0.0
0.0005820620793491661 -0.00023367800135594253 0.0
0.004219714904693419 3.141540678649235e-5 0.0
0.0032800973775018558 -0.0005531343625848037 0.0
0.0003925448233141318 -0.00018037728795904011 0.0
0.001052108622816005 0.0002794857862784194 0.0
0.0025167138040769975 -0.0007726238756864773 0.0
0.0032966356395976084 -0.0007888662602732946 0.0
0.003256059568060155 -0.0007770801649165874 0.0
0.002897864423189999 -0.0006159654475365241 0.0
0.003028932096880002 -0.00037347786382378707 0.0
0.001322613333509422 -0.00045787421207640655 0.0
0.0020687249347107867 -0.0008096160798692732 0.0
0.002782241897404995 -0.0003871394456536868 0.0
0.0014337252217209485 -0.0006328051066450387 0.0
0.0013842913911184017 -0.0006386447222348771 0.0
0.0011280094257412297 -0.0007796359114920668 0.0
0.0007206111935622727 -6.659690413478723e-5 0.0
0.0007244348331380045 -3.608465419904382e-5 0.0
0.00033190127596086517 4.741243265943183e-5 0.0
0.0004545444597317957 7.204017600726922e-5 0.0
0.003606789037371201 -0.0006434660812900145 0.0
0.0005216239841950899 -0.00025297267202940583 0.0
0.0007656666839965773 -0.0003644074636846585 0.0
0.0007019742199977014 -0.00032811997775898183 0.0
0.0037875540650260625 -0.00042139242692592114 0.0
0.0019014006579460695 -0.0007289290623975312 0.0
0.002431206733342525 -0.0005450403124438572 0.0
0.002924471042424246 0.0001776072233973832 0.0
0.002900327499773764 0.00020701116471188492 0.0
0.0028131774809607 0.00018945250408859666 0.0
0.002788346554353355 0.00021134566934150683 0.0
0.002867512190585034 0.00021873837249510652 0.0
0.003227830107843805 -8.288808212655246e-6 0.0
0.003319407564107106 -2.218517396891995e-5 0.0
0.0033478781983292726 1.5217742079266236e-5 0.0
0.0034319398939615603 -9.723626593178344e-8 0.0
0.0034049607496738593 -3.741656350726157e-5 0.0
0.00019688544333842649 -6.449568879012326e-5 0.0
0.003294015938714154 -0.0004349939918134381 0.0
0.0005245337342999845 0.00013741895604745644 0.0
0.0005470774174712652 0.00015921340415708444 0.0
0.0027188259907823162 -0.0009422335854588508 0.0
0.00016035222197571832 -1.4333879899930259e-5 0.0
0.0035952192562557113 -0.00026688323702698857 0.0
0.0036768783464310962 -0.00023390784609628244 0.0
0.0036147779788975056 -0.00023031584345496687 0.0
0.003746282576665554 -0.00023183033706357327 0.0
0.0037606012270466477 -0.000201070816971763 0.0
0.0038313271869496175 -0.00019927439940420656 0.0
0.0010074859047046235 -0.0004052795555708747 0.0
0.0010064675151789486 -0.0003723797142476834 0.0
0.0009377135608713352 -0.0003378991661495029 0.0
0.0010042640063502933 -0.0003400224775778704 0.0
0.0010735414327363 -0.00037321657285090755 0.0
0.001072127105747325 -0.00034079077548140966 0.0
0.0011406540549552288 -0.0003726423675930053 0.0
0.0012354286041552508 -0.0008274172422337309 0.0
0.0011396546296228772 -0.00033949071784389936 0.0
0.0012080891126749983 -0.00037118859020327346 0.0
0.0003321486866530421 3.4801998679076066e-6 0.0
0.0007187138417334435 -9.718637422144501e-5 0.0
0.0012062482209736337 -0.0004031819751081468 0.0
0.0009409069909991398 -0.00030877362811555613 0.0
0.0036653665989265028 -0.00041869788362117557 0.0
0.0036029248119876724 -0.0004559822401143316 0.0
0.0020913329179802244 -0.0009388761929457224 0.0
0.0020890388677483047 -0.0009813163497617771 0.0
0.0027066133089954456 0.0001933336329632009 0.0
0.0014093403747690882 0.00020588139034463456 0.0
0.0015198311950015764 0.00020236302307901288 0.0
0.0016034244671523125 0.00022255943448222932 0.0
0.0016255094790525034 0.0001926103154398648 0.0
0.0015424082547008215 0.00016878282024269833 0.0
0.0016467538258289165 0.00015021989160805761 0.0
0.0015647250320763321 0.00012913356411155637 0.0
0.001670057158635955 0.00010451068467398741 0.0
0.0015862001565319424 8.899924807727571e-5 0.0
0.001708586240421489 6.062622492740359e-5 0.0
0.0016053130825270715 5.1120720856536984e-5 0.0
0.0017088028375885549 2.4294941986619405e-5 0.0
0.001618804102001847 1.659912333064672e-5 0.0
0.0017194053144051822 -8.724369319710676e-6 0.0
0.0016365782032549492 -1.679096347258748e-5 0.0
0.0017323235203038718 -4.0118186954272495e-5 0.0
0.001649588644523917 -4.71915824534149e-5 0.0
0.0017396498973853783 -6.85716831454646e-5 0.0
0.001660458592033071 -7.536515058204691e-5 0.0
0.001746986734208815 -9.52627418180132e-5 0.0
0.0016693847759379728 -0.00010244109738209355 0.0
0.0017527036920255742 -0.00012149879666023575 0.0
0.001675044339421369 -0.00012874453760758345 0.0
0.0017571912125360183 -0.00014652659050520074 0.0
0.0016802367119922136 -0.00015537737446119006 0.0
0.0015977903567672724 -0.0001355554087995339 0.0
0.0016036511616520483 -0.00016338070936779828 0.0
0.0017673832776162342 -0.0001743367680869634 0.0
0.0015734342412507241 -5.39991195376715e-5 0.0
0.0018326307173210468 -0.00013706465642562897 0.0
0.0018320670659425643 -8.924569526352116e-5 0.0
0.0014867893077739405 0.00011050045154492312 0.0
0.0018151304343905288 -3.209968471572503e-5 0.0
0.0015198759532072364 -0.00014240711950007888 0.0
0.001527291183841908 -0.0001707842471507999 0.0
0.0016094608063196795 -0.00019166307739343195 0.0
0.0015343659696069167 -0.00019947903567373338 0.0
0.001537462416232837 7.870680705032964e-6 0.0
0.001808860705951392 2.6639472887674108e-5 0.0
0.0015136081694994549 -0.00011397414955798681 0.0
0.0017566923302623683 0.00012254957303253853 0.0
0.001615311772772968 -0.00021998478075275533 0.0
0.0015406560344410148 -0.0002283552587951166 0.0
0.0014599189166271185 -0.00020688076724105546 0.0
0.0014331835788379602 -0.00012092826588765416 0.0
0.0014231400099043129 -9.019091126238105e-5 0.0
0.0016904075023415261 -0.00021098639862426804 0.0
0.0016936684555555667 -0.00023881081170897342 0.0
0.0017667962830179088 -0.0002296096275154439 0.0
0.001711850959580441 0.00021149559547770387 0.0
0.0016964481088243923 0.00023048717023844273 0.0
0.0014689590311597542 -0.0002367512466507402 0.0
0.0013866023161530072 -0.00021433372582496272 0.0
0.0013793314626290173 -0.00018517973932748272 0.0
0.001301792640347206 -0.0001911938815037645 0.0
0.0024801077138788446 -0.0009920741710356072 0.0
0.002436367628753464 -0.0009713076998072825 0.0
0.004141741958835329 -0.0003180263775984052 0.0
0.0026661391724999914 -0.0007808031242088502 0.0
0.0027124519211432696 -0.0007950205261330035 0.0
0.0015308799153924994 -0.0006529733004375322 0.0
0.0015856144022914737 -0.0006804320147944866 0.0
0.003684264547347356 0.00012082416979869632 0.0
0.002685047279911564 -0.0004598678950281374 0.0
0.0015484489784652622 -0.00025687552127652287 0.0
0.0011667883958398197 -0.0007092063317834616 0.0
0.001164454868206441 -0.0006704657990243162 0.0
0.001207899436654893 -0.0006656049324751157 0.0
0.0029640840561663807 -0.00036457324510571 0.0
0.0027372871539356174 -0.0001608644377159964 0.0
0.0018397240750851738 -0.0005273906978402891 0.0
0.001781526129149379 -0.0005387881234813957 0.0
0.0025383450819031973 1.8455460895676606e-5 0.0
0.0025311869130006663 -9.852440275592104e-6 0.0
0.0026131260766093793 -1.6302380609612706e-5 0.0
0.0025165505839133454 -3.919920658708193e-5 0.0
0.002551267359283945 4.869352730055093e-5 0.0
0.0027216552979104232 -0.00021104666490505807 0.0
0.0027173343789002034 -0.00023677381700696367 0.0
0.002633944042553578 -0.00025236481663124444 0.0
0.0019673844923336755 -0.0003836495933660022 0.0
0.002028245322991515 -0.00040032706097106963 0.0
0.0020313710119034944 -0.00037373696439665363 0.0
0.0020912094189683567 -0.00038886885720358394 0.0
0.0020942715150419834 -0.00036286644071691104 0.0
0.0021539397029425285 -0.00037720081636117853 0.0
0.002157337144716668 -0.0003518823954578718 0.0
0.0022194164783921133 -0.00036521336015211465 0.0
0.0022144431580060978 -0.0003918236639551903 0.0
0.002281133460930913 -0.00037542908035531137 0.0
0.002564237702214717 -0.00043863627648282964 0.0
0.0025007487245925736 -0.0004245321553828355 0.0
0.002435577923324479 -0.0004404195208063399 0.0
0.002438974259876519 -0.0004113644324826568 0.0
0.0004508904425889569 -0.0001905259410722083 0.0
0.0005347059401504445 -0.0004842202471571505 0.0
0.00048765957954861227 -0.0004385953154131482 0.0
0.00047373182074859725 -0.00039953859935172055 0.0
0.0004398954702299585 -0.0003914021911341183 0.0
0.0023117691021856796 -0.0005480635831734689 0.0
0.0030930279009365952 -0.0003802408903541864 0.0
0.003079476452797983 -0.0004158714745097893 0.0
0.0011025501248707228 0.00022589045244744723 0.0
0.0024294149228040224 -0.00022069053901173325 0.0
0.002431364715316585 -0.00019922575933413515 0.0
0.002524280055459106 0.0001892265105355263 0.0
0.004284986249662594 -0.00013736925652984994 0.0
0.004337168740915891 -0.00010348602345188348 0.0
0.004373436467045506 -8.637496401039608e-5 0.0
0.00014532511350407365 -6.324327064527319e-5 0.0
0.00014831924636834882 -7.449137664062607e-5 0.0
0.00021203377633571024 -0.00010902857486534765 0.0
0.00015585150992766057 -8.823983705269352e-5 0.0
0.00021550200250960763 -0.000124598715151441 0.0
0.00016098050991640575 -0.00010168093820324281 0.0
9.77941951169034e-5 -6.147909843176851e-5 0.0
0.0022501029537041308 -0.0005649315965667097 0.0
0.0010739990946043569 -0.00030961115167083697 0.0
0.000618257045778084 -0.0005335933347074731 0.0
0.0017671949588245652 -0.00025520544094705957 0.0
0.004095213028232712 -0.00036383352949357034 0.0
0.004056888045174919 -0.00038091792146737987 0.0
0.0034759556864181924 -0.0004490061075779301 0.0
0.0035393875444397634 -0.000443464449723872 0.0
0.0035499745158188416 -0.0004063337664879901 0.0
0.0002134560565732895 2.6242006275079805e-5 0.0
0.0016105167746805582 -0.0009271887871342245 0.0
0.0010898880455540397 -0.0007854999371699235 0.0
0.00013093637911511052 -0.00014044939354941626 0.0
0.00018063895008936135 -0.00019766197299213217 0.0
0.0008722547059670799 -0.00030643748938608543 0.0
0.0027669276099801226 0.00021324160446145048 0.0
0.002856916780143806 0.0002136367392481857 0.0
0.0033547697108897326 -0.0004837722839179946 0.0
0.0035031405395896374 -0.00048843387754174 0.0
0.0015143687017101569 -0.0009051560751884996 0.0
0.0017009518663334976 -0.0009443926916393745 0.0
0.0017465386881677933 -0.0009330850850302198 0.0
0.003835357629091157 -0.00046988706075371136 0.0
0.0038133393319508295 -0.0005177518132152193 0.0
0.0037560211277012966 -0.0005691389216547333 0.0
0.004098710297321305 -0.0001513138972897286 0.0
0.004038220769716607 -0.00016062874958135934 0.0
0.003962719065025758 -0.00019241807296616572 0.0
0.003970263932345416 -0.00016841408989284553 0.0
0.000741757088735539 -0.0003015599581100982 0.0
0.0038428779142786577 -0.00017072936693841414 0.0
0.0037605743718341403 -0.0001718192348950321 0.0
0.0027242570707088497 -0.0007558509067025831 0.0
0.0004511490598788911 -0.0004262075346054397 0.0
0.00040931550367845305 -0.0003861533896073629 0.0
0.0003944679542289224 -0.00035006893060602283 0.0
0.0003647948264068113 -0.0003422791614333023 0.0
0.004384966040277594 -7.303912208646852e-5 0.0
0.004291680654484017 -8.009144473443304e-5 0.0
0.004344356926274149 -5.593490829118051e-5 0.0
0.0036411065153047865 -0.0006501124695051038 0.0
0.0018408322918687502 -0.0004029059523923752 0.0
0.0038671612799064344 -0.00047468534292638 0.0
0.003847868531586602 -0.0005203493543970959 0.0
0.0038978455811015437 -0.00047860012987252395 0.0
0.0038832318330044744 -0.0005255022474346029 0.0
0.003934016790875688 -0.0004761030851827341 0.0
0.003949259352206311 -0.000434813524173207 0.0
0.003980120526599289 -0.0004356439826055058 0.0
0.002138921033063559 -0.001005076428742896 0.0
0.00209396586926607 -0.001027331468520438 0.0
0.0020356978609889103 -0.0009987932246714156 0.0
0.0014785764288611732 -0.0002673142488021522 0.0
0.00011299451948346476 -7.872396947861048e-5 0.0
0.00016550272997137313 -0.00011578274171964023 0.0
0.00011829392909765253 -9.013759016258561e-5 0.0
0.0014774597396961893 -0.0009233759066885854 0.0
0.0014268501554732399 -0.0008855322781287185 0.0
0.00424278955816014 -0.00024470170278047943 0.0
0.0003447314990404633 6.279061707997699e-5 0.0
0.0023761183977809622 -0.00042978657370570326 0.0
0.0023818592601526824 -0.0003997620460763204 0.0
0.0040792576659525685 1.8684060913567006e-5 0.0
0.004205208349592051 9.59006503466645e-6 0.0
0.0038481239917317594 -0.0003818887534609492 0.0
0.0007704509339415978 -0.0005886178316887367 0.0
0.0007845994630033164 -0.0006331277799637395 0.0
0.003272316460332959 -0.0005047332781336715 0.0
0.0032920379525571953 0.00020628509929440474 0.0
0.004320889149231741 -0.0001765634931831086 0.0
0.004372950629569509 -0.00012391852479670264 0.0
0.004392351682448315 -9.748584044269632e-5 0.0
0.0032044219590054894 0.000210377418283913 0.0
0.00373069781943366 -0.0003822912808905654 0.0
0.002045107959276992 -0.0008822294820266591 0.0
0.003815571173918108 -0.00022936778514514195 0.0
0.003610816487786904 -0.00042530879253978293 0.0
0.0013829945900380104 -0.0005999940445125512 0.0
0.0007924788376833376 -0.000548977800409167 0.0
0.004164386713661245 -0.00013621406429779997 0.0
0.003472106769778689 0.00020749262237885045 0.0
0.0014266926033151652 -0.0009260335435287491 0.0
0.000657674308823432 -0.00027189970229341074 0.0
0.00241568696394255 -0.00024669552367769274 0.0
0.003569920736642471 -0.0006417537110013227 0.0
0.003557427635403921 -0.0006869054368931888 0.0
8.754895222325947e-5 -9.395252846015073e-5 0.0
0.0027675475994070773 -0.0009166877338272106 0.0
0.002749451229929149 -0.0009580653930373824 0.0
0.0017447430738288792 -0.0009813070796349701 0.0
0.0017929114888857326 -0.0009642933493393744 0.0
0.0017915303580822055 -0.0009205476086030116 0.0
0.0018387218141341364 -0.000949717037244405 0.0
0.0017931505190335658 -0.0010010173969159757 0.0
0.0015074755928741414 -8.55203121876901e-5 0.0
0.0014162526616301868 -6.185696123351273e-5 0.0
0.0006184242805473696 -9.847338387465048e-5 0.0
0.001193570412867641 0.0002736986081727613 0.0
0.0012042289819085433 0.0002526897179042732 0.0
0.0027274162997097577 0.00015561880368070234 0.0
0.0034756417557429485 -0.0007322834371313333 0.0
0.0034271110879346644 -0.0007705820632717352 0.0
0.00037517173147846297 -0.0003775288877689332 0.0
0.00033228497813868975 -0.0003303972051543044 0.0
0.004365289121150795 -5.6108151227839766e-5 0.0
0.0007199837986508178 -0.0003624461172687957 0.0
0.000648419444467347 -0.0003300943015022471 0.0
0.0040606574438193065 0.00017312512488855094 0.0
0.00419294361403299 -0.0002689147445801273 0.0
0.004170834942203147 -0.00031241780826672037 0.0
0.0024897018005185785 -0.0002558224948926809 0.0
0.0028783788688770177 -0.0009280018251267302 0.0
0.0028190223424200737 -0.0009683297560146313 0.0
0.0012684190903720846 -0.000399129660287313 0.0
0.0012744057146993708 -0.00036727974053805664 0.0
0.0018397727958061544 -0.0009068630745159361 0.0
0.0038738869998418326 -0.00041751356957198327 0.0
0.002222379526167571 -0.0003396408145089975 0.0
0.0021654581575025187 -0.0003264935536606259 0.0
0.00010782928483650344 -0.00012210517004033057 0.0
0.0011135111102548506 0.0004204944078559514 0.0
0.002031927855346051 -0.00034658645733049326 0.0
0.0013450996250872218 -9.86538419759847e-5 0.0
0.001358395399244796 -0.00012843596634822097 0.0
0.0008188505094364352 -9.261549893110594e-5 0.0
0.0027990804427567555 -0.00021886906849961335 0.0
0.001836913087121556 -0.0002464156044628062 0.0
0.0018384579331405884 -0.00022183126826698274 0.0
0.0019068048355183277 -0.00023833324394553215 0.0
0.0019069624397488674 -0.00021530041211180494 0.0
0.0019723875600933267 -0.00022881093285971832 0.0
0.0019735988869684527 -0.00020731360002293386 0.0
0.0019064856768181062 -0.0001932248287903524 0.0
0.0019738195441533317 -0.00018558052631796146 0.0
0.0019067578459630579 -0.0001719755851359601 0.0
0.0019751745903953373 -0.00016472651734182977 0.0
0.002034886222109949 -0.00022026956817492797 0.0
0.00017272910333357894 -5.8580449138020905e-6 0.0
0.0027068662169254026 -0.0002664735777244451 0.0
0.001854094223721598 -0.00037590048553532665 0.0
0.0017318440624161263 0.00017128689544388455 0.0
0.0018615513427122368 0.0001334368723605237 0.0
0.0018711202620837742 8.826733521049628e-5 0.0
0.0018240580998842018 0.00018902313603266362 0.0
0.0017851731088758948 7.907294532352079e-5 0.0
0.0018957396189162312 5.275510676164011e-5 0.0
0.001998231122588 5.424764662304131e-5 0.0
0.001935693364831701 0.00016230114346335185 0.0
0.00027300173079448063 -0.00014542865877137671 0.0
0.0002801568403787747 -0.00016552988178496957 0.0
0.00435871033786094 2.30189335273101e-5 0.0
0.004221335086808388 5.1492681520180406e-5 0.0
0.004213451588275322 6.243954823349363e-5 0.0
0.003340631299710751 -0.0008038080362912231 0.0
0.003280578790455597 -0.0008409053086996388 0.0
0.0011579702654860532 -0.0006324958131915946 0.0
0.0012030008901816615 -0.0006267244661608522 0.0
0.0011123086695805468 -0.0006359265109352524 0.0
0.0012686991675556734 -0.0001113357669958197 0.0
0.0019640787223584007 9.249005469681284e-5 0.0
0.0020447920360536966 -0.00017739071631201075 0.0
0.0020414786361412003 -0.00015631456866432018 0.0
0.0019752417565888597 -0.0001440956472470793 0.0
0.002039980344380523 -0.00013726483026403418 0.0
0.00197848182867029 -0.00012458278752448056 0.0
0.0011903073374549997 -0.0007957246666720915 0.0
0.004347642388365825 3.72717217788381e-5 0.0
0.0018155786102817082 0.00022155534248308065 0.0
0.002617880697159494 0.00015746924078735165 0.0
0.0026271005864007234 0.00011633176895277402 0.0
0.002519692276009768 0.00010853621601471529 0.0
0.001285120114944254 0.00020495301819136184 0.0
0.0015546750813575257 0.00022527916185376755 0.0
0.0014703712748996448 0.00023825573784103508 0.0
0.0014094330618464289 0.0002450072868455603 0.0
0.0029317657100928775 0.00016835818282897146 0.0
0.003697872410837884 -0.0006085097906002769 0.0
0.003674650404695056 -0.0006621149844143852 0.0
0.0011323245353478451 -0.0008208623346711237 0.0
0.001886399954358809 -0.000935970366583028 0.0
0.0018868064366909974 -0.0009777867805143012 0.0
0.0019317920246233206 -0.000964026823082881 0.0
0.0019381944066342428 -0.0010109666697967123 0.0
0.0031825777981337217 0.00015933246882692114 0.0
0.0030901436768625 0.00013779885175856967 0.0
0.003209888059582341 0.0001298018625287768 0.0
0.003306487770882459 0.00014662291605918143 0.0
0.0024479166914062947 -0.00038417948141066075 0.0
0.002397050488624052 -0.00037086660874478626 0.0
0.001979669747680143 -0.0009898051911418437 0.0
0.0013216944559434126 -0.00022446479543886398 0.0
7.002871630537244e-5 -7.106758406143316e-5 0.0
0.0018078933533364865 -6.174788167829116e-7 0.0
0.0019002650246890459 -2.473108004881298e-5 0.0
0.0019072041926778138 -5.136001555446674e-5 0.0
0.001991331801599753 -4.45178785929421e-5 0.0
0.0019915961531436995 -6.656718914576473e-5 0.0
0.0019856608244361268 -2.144755195285791e-5 0.0
0.0019215154151619727 -7.38594238504532e-5 0.0
0.0019937256636401524 -8.70469843547765e-5 0.0
0.0020705182488426365 -3.780204314828198e-5 0.0
0.0029727376655404613 0.00014414319586268654 0.0
0.0019303350577905265 -9.562588954533116e-5 0.0
0.004409396030951976 -3.742079915715134e-6 0.0
0.001694986782724365 -0.0002660035251907159 0.0
0.002120376153938085 -0.000828771999799272 0.0
0.0021776670215484517 -0.0008117204258087425 0.0
0.001899707576373116 1.7198973921544799e-6 0.0
0.001992320264962913 2.21764186693616e-6 0.0
0.0025757446310732397 -0.0004100671706164028 0.0
0.003267253940847893 -0.0007287712194852034 0.0
0.0032121604751317295 -0.0007700343087058396 0.0
0.0032018377894053604 -0.0008170360581526904 0.0
0.0031611318555702607 -0.0008099073101145871 0.0
0.00315380943630138 -0.000853276458953931 0.0
0.003110344900470772 -0.0008491262279670884 0.0
0.0037013430950891017 -4.206916840969137e-5 0.0
0.0036244280979068166 -7.621538602789902e-5 0.0
0.003661289874101435 -0.00010316487572241272 0.0
0.003549301734840727 -0.00011182977699646928 0.0
0.0035829839401367867 -0.0001385941981805404 0.0
0.00347229711035536 -0.0001486862765940337 0.0
0.00350811683885029 -0.00017537073271093963 0.0
0.00343647789729409 -0.0001210885367351654 0.0
0.003362547224801454 -0.00015790364919271774 0.0
0.0036127559944334328 -0.00016440664587971578 0.0
0.003325175151955467 -0.00013089667272241694 0.0
0.0035375089784044893 -0.00020117788359015837 0.0
0.0034390962182785176 -0.00021196275568888032 0.0
0.0034641583367426843 -0.0002379361313151011 0.0
0.0034004412804684923 -9.49937856319283e-5 0.0
0.0035831068533190777 -4.7542203537691557e-5 0.0
0.003640619078412328 -0.00019105208610785727 0.0
0.0037803308100460595 -9.905953695027626e-5 0.0
0.003708569772819598 -0.0001547313503526896 0.0
0.0024397230927555315 -4.1390052189330735e-6 0.0
0.0015363910115312152 0.0002373824641170775 0.0
0.0002288221901410184 -0.00014755469027719032 0.0
0.00021135559504093898 -0.00021740795283409307 0.0
0.000256295363232354 -0.0002662698668402183 0.0
0.001977846828890083 -0.0009488212449530514 0.0
0.0026457768736758078 -0.00042654103595795705 0.0
0.0025280386978518855 -8.353331022266597e-5 0.0
0.0024420187759271066 -9.946480933997832e-5 0.0
0.0024567887402983262 -7.803228694414172e-5 0.0
0.0024443677828404446 -0.00012174123362719682 0.0
0.002517228691044873 -0.0001311387788215264 0.0
0.0024382246161370126 -0.00014443632436062344 0.0
0.0024305370375212096 -0.00016580629923255337 0.0
0.0023697297969303742 -0.00015551015381646562 0.0
0.00027963798680074724 -0.00025682103497223833 0.0
0.002824338320372909 -7.952301991096634e-6 0.0
0.0034297355833777135 6.662893672562403e-5 0.0
0.0032913358385841664 7.167065641436093e-5 0.0
0.00017179845894322327 3.992439086090297e-5 0.0
0.000356593421304141 8.866470080909544e-5 0.0
0.0003361886954687881 7.404991059093909e-5 0.0
0.0028792476917248763 -8.87435001036847e-5 0.0
0.000364510374890277 -0.0003006071813355683 0.0
0.00042417505327877554 -0.0003528727827692195 0.0
0.00046193852706026295 -0.00036504602117915506 0.0
0.00045791270962881425 -0.0003345971746290558 0.0
0.0004979285499180925 -0.0003373348398652645 0.0
0.001830764711921706 -0.00011410449639568793 0.0
0.00021187448309139902 1.607197451370434e-5 0.0
0.0008810482521748747 -0.00025037853040222024 0.0
0.00072072693885834 -0.000242001914891683 0.0
0.0019858694511525428 2.7701847842154117e-5 0.0
0.0004639763887720245 0.00019586091828620786 0.0
0.003148303839594858 -0.0007565016929975676 0.0
0.0027180588560792324 -3.5933870068780345e-5 0.0
0.0042722642122319165 -0.00022919732544384992 0.0
0.003403668009257742 -0.00018472961307468944 0.0
0.0032955354510269316 -0.00019379796365505823 0.0
0.0032412728225290942 -0.000828958912245306 0.0
0.004418283288522749 -9.402829735712667e-6 0.0
0.004336800440216764 -2.3930886767063967e-5 0.0
0.004354298252101752 -3.13745087638869e-5 0.0
0.004322078129023319 -1.4170350290595605e-5 0.0
0.004258720212778405 -4.3970943116652904e-5 0.0
0.00431065157316216 -3.6409379919786585e-6 0.0
0.004213310654517246 -1.4709853852764671e-5 0.0
0.0042338103821141105 -3.0256916126746458e-5 0.0
4.7568160470270185e-5 -2.8785157073953145e-5 0.0
0.004450841100285809 -2.5952460976838137e-5 0.0
0.004395244357372019 -4.9991697054935816e-5 0.0
0.004428591542622697 -2.757034399098794e-5 0.0
0.004400492147025043 -5.3539776187620427e-5 0.0
0.00265911277282827 8.130632282399209e-5 0.0
0.0033927627210312123 -0.0007581592611392507 0.0
3.634176786122866e-5 -3.092661279575066e-5 0.0
0.004461895578225947 -2.8019075911669224e-5 0.0
0.0014342759492427947 0.0001781917873926911 0.0
0.0036097547812807863 2.0993862465770548e-5 0.0
0.0012230054048078605 8.967821655407116e-6 0.0
0.0013197837125040934 2.1369240807109816e-5 0.0
0.0013140855343944677 5.942655461818433e-5 0.0
0.0013224342126648954 -1.2625030089354211e-5 0.0
0.0014060492210488113 -5.052693432828789e-6 0.0
0.0014250065752705644 2.834416753588586e-5 0.0
0.0014129170378127315 6.830320078547475e-5 0.0
0.0013150482602044228 9.530313519847701e-5 0.0
0.0012285931947699467 0.0001260060954623156 0.0
0.0012384243958771218 -3.19543175745935e-5 0.0
0.0038017005152068796 -0.0005610985073229411 0.0
0.00440613321745564 8.132695763595517e-6 0.0
0.0018436018307736166 -0.0008642855156771813 0.0
0.000588309085679323 -0.0005372882206770808 0.0
0.0020329294109503017 -0.0008426209915503289 0.0
0.0015590488942366205 -0.0008950776746781982 0.0
0.0015611247233667674 -0.000937990241517677 0.0
0.0021094568038187078 -0.0001482111037088537 0.0
0.0028839359133139997 -0.0001538404144913172 0.0
0.003891231775401365 0.00013370098736499572 0.0
0.003943936575335339 0.0001107174730121753 0.0
0.003824735181975702 0.00011638623848900833 0.0
0.0002749774602143158 -0.00013010155201190058 0.0
0.000547577067778101 -0.0005229056042597468 0.0
0.0013496139618885785 0.0003075963026434319 0.0
0.001211413641556668 0.00031285579533929617 0.0
0.003215270429448984 0.00019001330201865875 0.0
0.001590976557565995 0.00023684291196004176 0.0
0.0040850079446335934 -0.00029986537441401473 0.0
0.002015428494874599 -0.0007010222058499199 0.0
0.0030846832328946185 0.0001633310302145513 0.0
0.0031856314063460046 0.00019340760447942047 0.0
0.0013360200133997208 0.00015099053963185379 0.0
0.0010959012369807688 -0.00082965611425611 0.0
0.004060209897650507 -0.00034649330823392007 0.0
0.0006535480790129995 -0.0005370647557124982 0.0
0.0006939736888117116 -0.0005741207506808847 0.0
0.0006713320403631946 -0.000585541554183624 0.0
0.0010525696840624674 -0.0002464058324642143 0.0
0.002494354638566475 -0.00018124119982837765 0.0
0.002799514373150813 -0.00011579832062562163 0.0
0.0016866536030982978 -0.00018268516236553625 0.0
0.001765156673167245 -0.0002032881970503416 0.0
0.004316300821340397 5.636712761296128e-5 0.0
0.0041033448556205875 0.00011954457912415823 0.0
0.00018621268950088268 5.837650644190621e-5 0.0
4.684345349916238e-5 -3.177057081109086e-5 0.0
0.002038786531929145 -0.00019864633484647557 0.0
6.602201503237183e-5 -1.8164108646239697e-5 0.0
0.0001607748939684692 -3.661808652409854e-5 0.0
0.0020090509627180998 -0.0008095414055027585 0.0
0.0028504717806757864 0.00017026234790529885 0.0
0.0016218424631902872 0.00022214413371216424 0.0
0.002773893246538545 -0.0004150845483531527 0.0
0.002050854445624574 -0.00011810438024640936 0.0
0.0036218443209743247 -0.00036452905296667867 0.0
0.004219929440104127 -0.0002270529824868137 0.0
0.0013298770413585775 -0.0006067168214550368 0.0
0.0013347061835391613 -0.0006453786671465646 0.0
0.0012799828757265406 -0.0006087274326433735 0.0
0.0012234542816866258 -0.0005725960768838398 0.0
3.709809997786646e-5 -3.446048482560902e-5 0.0
7.050435546600506e-5 -6.588290696183665e-5 0.0
7.93774381341389e-5 -6.755626180791395e-5 0.0
0.0011430523377876274 -0.00040490648539901126 0.0
0.0010803594565949547 -0.0004099988150079444 0.0
0.004454489105623211 -2.697564177738059e-5 0.0
0.0024314854635533755 -0.0010183334292628967 0.0
0.002387148792429292 -0.000995851743257811 0.0
0.0023828087127012575 -0.001042520002658657 0.0
0.0023380696860950028 -0.0010191493659466803 0.0
0.002288119854966211 -0.0010399383493908299 0.0
0.0022868123915590604 -0.0009941169955608314 0.0
0.0023899929613772053 -0.0009497356980408683 0.0
0.0030954270003970097 0.00019114034221575692 0.0
0.0005215799606092654 -7.210095650633371e-5 0.0
0.0006070792142959234 -0.0001257798443485355 0.0
0.0005265930507476674 -0.00012655225236440126 0.0
0.002846079726643134 -0.0003970250864441376 0.0
0.0008694151733254599 0.0002644452857461295 0.0
0.002270547710321059 -0.00040452989161887535 0.0
6.536313230914939e-5 -2.878948073849695e-5 0.0
0.0013837268894491975 -0.000889884815407253 0.0
0.0013373690777969426 -0.0008883830469663684 0.0
0.0013470692573964128 -0.0008533445337372378 0.0
0.0015552860902237732 -0.000852297538854204 0.0
0.0013313535411713297 -0.0005636316762521007 0.0
0.0005828664906681499 -0.00026143721153015136 0.0
0.00033540440751807384 -0.00020501313219231082 0.0
0.004431589312623298 -1.756167202410955e-5 0.0
0.004372310755687228 -3.560286318503577e-5 0.0
0.0008615812308625538 -0.0006707232084580106 0.0
0.0010418983489833462 -0.0007456567242354409 0.0
0.0010009194338455128 -0.0007504161316217726 0.0
0.0009513704912836819 -0.0007097466646423722 0.0
0.0009577645526049029 -0.0007515859110772296 0.0
0.0026805906880677196 0.00018053386135223997 0.0
0.0017735770091531365 0.0002174119645446465 0.0
0.002931989611049301 -0.000894814074863951 0.0
0.0029718941490611273 -0.0009101785732875301 0.0
0.0030224975804468775 -0.000876719235247846 0.0
0.0029136321805827564 -0.0009504701012789763 0.0
0.0014399909422093803 -0.0006005893882144246 0.0
0.0025751682091513036 -0.0007495369040800159 0.0
0.0016200726785551085 0.00023295494316455642 0.0
0.0018222352834764452 -6.324970927733262e-5 0.0
0.004463374155504039 -2.9607577649145124e-5 0.0
0.004428804924585126 -5.853613639809724e-5 0.0
0.004413998281575066 -6.405406168506283e-5 0.0
0.0009102155513439467 -0.0007115955021729826 0.0
0.0008708917137261042 -0.000711171266165073 0.0
0.0013196423139097257 -6.352227789393934e-5 0.0
0.0011729047135567337 -0.0005808157515108359 0.0
0.0041895758389006625 -0.00018886942733808087 0.0
0.0034128817605807668 0.00023237721426550627 0.0
0.0020281528272878733 -0.00024185067778551993 0.0
0.00208944389066784 -0.00023140411411842033 0.0
0.0026883921954696686 0.00020842224826299064 0.0
0.0033402955128523973 -0.0006448407165660907 0.0
0.0019588403221112356 -0.0007151695776392995 0.0
0.001961008387896618 -0.0007548420627679355 0.0
0.0004787425200574237 9.432807337463288e-5 0.0
0.0010719636910131538 -0.0005875044736227379 0.0
0.0010209886862817008 -0.0005848669821106641 0.0
0.0009656994065152542 -0.00054708643346992 0.0
0.0009715096364362191 -0.0005858795144455361 0.0
0.0008219163385643475 -6.05276923906382e-5 0.0
0.0008253457317764841 -2.8094397222528584e-5 0.0
0.0009223261888210293 -0.00012348433780447692 0.0
0.0029572179263335292 -0.0009612607546060444 0.0
0.002864406461414185 -0.0007355971389324841 0.0
0.002801807541186456 -0.0007667054275124804 0.0
0.0028570350127968018 -0.0007832026423820789 0.0
0.0027943714109840965 -0.0008155831711057428 0.0
0.0028324373819935754 -0.0008281295946745532 0.0
0.0029161728826223978 -0.0007447788266766024 0.0
0.002965303288979372 -0.0007506326435434254 0.0
3.131430640122993e-5 -3.410134201865047e-5 0.0
0.004469092480152408 -3.0145847423359153e-5 0.0
0.0037232830703564333 -0.0005570255369885977 0.0
0.002666013089711346 -0.0009713508517109652 0.0
0.0041497299184249875 9.667485684671705e-5 0.0
0.002583031437048885 -0.0009376074764702441 0.0
0.0025715988930212342 -0.0009833330356770476 0.0
0.0033937723006430254 -0.00044067128256834205 0.0
0.003033624445878817 -0.000340541145358865 0.0
0.0029713926743530697 -0.00033166589341590807 0.0
0.0014093720302244055 -0.0007988344040844929 0.0
0.0008168785956207932 -0.0005073417405417946 0.0
0.0033629280704226415 -0.0002514066263073065 0.0
0.0035770215619288282 -0.0005965122206609748 0.0
0.0015612828521668967 -0.0004642074451536394 0.0
0.0016197352433296084 -0.0004558688332671602 0.0
0.0016175749055459044 -0.000489655700404014 0.0
0.001623310549551314 -0.0004234003142071399 0.0
0.0015595038542674283 -0.0004985262119609799 0.0
0.001676723723944528 -0.0004508421014607048 0.0
0.0016838916632395222 -0.00042071684458123976 0.0
0.0016986179635819418 -0.0003877599448505295 0.0
0.0033661790385717204 0.0002118613935304601 0.0
0.00035071969384979656 9.839508677534446e-5 0.0
0.003254199216173469 -0.000167459663916965 0.0
0.00355043964750397 -0.00037408227662739653 0.0
0.0006354044900420576 0.00021350816034590366 0.0
0.0006312580931667134 -1.2360262041017872e-5 0.0
0.000922098632736868 -5.424029437819571e-5 0.0
0.0007136113073796645 -0.00046530187716368885 0.0
0.001560090161826135 -0.00039871235905346064 0.0
0.0012083688717455152 -0.000337222096318907 0.0
0.001292871232524501 -0.0003354369376240417 0.0
0.0013469089078903557 -0.00036855490751361265 0.0
0.0021853636943484937 -0.000988250232743633 0.0
0.0022372294757859227 -0.001013820463637141 0.0
0.002235678034893796 -0.0010640376228283621 0.0
0.002288391472511804 -0.0009489731474578571 0.0
0.003515076127283422 -0.0006324959880501238 0.0
0.0016190427039152481 -0.00024766601226195665 0.0
0.0032929769617317545 -0.0003955778308601816 0.0
0.0015514870055411288 -0.0008102775788978777 0.0
0.002392504124180331 -0.0009048355190629488 0.0
0.0016501083708935034 -0.0009604752913493979 0.0
0.0041315651729906516 -3.261312456551314e-6 0.0
0.0022111486259052595 -0.00041963241284901054 0.0
0.0005169277072861874 -0.00022499445886332755 0.0
0.001679877496422018 -0.0006600938041185909 0.0
0.001735430738339079 -0.0006880700512802005 0.0
0.0015656292162102873 -0.0006044767286730796 0.0
0.0016977056030744717 -0.0008602315402901087 0.0
0.0026686132275358697 -0.0005652557031466217 0.0
0.0026030194248137704 -0.0005881056317261822 0.0
0.0026620351477949044 -0.0006030238057830461 0.0
0.003216398374943 -0.00014109905899228572 0.0
0.0020149379459835155 -0.0006629660829861427 0.0
0.001448388976681203 -0.0005485029725153628 0.0
0.0025653192889948614 -0.00024153656895700167 0.0
0.002552878838190412 -0.0002674587013666203 0.0
0.0005567486830646244 -0.0003766203703950979 0.0
0.001184130991903497 -0.0007550832683378174 0.0
0.003037633348425424 -0.0008260553069084595 0.0
0.002531681383468634 -6.157814760372223e-5 0.0
0.002354937869811998 -0.0007156629772757566 0.0
0.0022957252175551343 -0.0007351980044791671 0.0
0.0022931588332762132 -0.0007768583668590174 0.0
0.0022369489483477713 -0.0007536512260866089 0.0
0.002235758429689715 -0.0007956334080875775 0.0
0.0023481652421462433 -0.0007982370742176657 0.0
0.0027319324613133424 6.073002954763285e-7 0.0
0.0018422324924509232 -0.0005607511928315857 0.0
0.0017868927433824329 -0.0005719741300528334 0.0
0.0025487365426139783 -0.0005365268184436742 0.0
0.0015080168930162482 -0.0006114129836863707 0.0
0.0025225737744886826 -0.001010662834594893 0.0
0.001901165251686566 -0.0006901609080152139 0.0
0.002239736551703384 -0.0007133942820938662 0.0
0.003190984561543825 -0.0008644910540454138 0.0
0.0020264550237937564 -0.0004291420314051001 0.0
0.004244896168269703 -0.00010750816813927789 0.0
0.0022476667493781972 -0.0006002452048248828 0.0
0.0010041251213687955 -0.00043846761345030103 0.0
0.0019288747599447572 0.00021123546518808894 0.0
0.003172087209496697 -0.0007087928474633896 0.0
0.004061286222780411 9.742087321633183e-5 0.0
0.0006562441523161615 4.567007311254705e-5 0.0
0.0006795059207328886 7.326760409622637e-5 0.0
0.0007553618520708551 3.256341639620057e-5 0.0
0.0007972895314468546 6.562724942196897e-5 0.0
0.0008727585521799755 4.4167666806297846e-5 0.0
0.0031891905170933176 -0.0002031209490997151 0.0
0.0018420132099966004 -0.0009970706801871413 0.0
0.002088528490453616 -0.0004172088938511655 0.0
0.00012944622452442167 -3.945967836845629e-5 0.0
0.001435324257392476 0.0002438007321833288 0.0
0.0013340608627814856 0.00025910456509429034 0.0
0.0030115830241944624 0.00011357307025309734 0.0
0.0017937167335442337 -0.0008356173788445734 0.0
0.0020468273689042233 -0.0009579214375604575 0.0
0.0017730451452109457 -0.00028328179678008145 0.0
0.002488891049210929 -0.0005217346792968841 0.0
0.00242377022415417 -0.0005047750472482324 0.0
0.002433227519364215 -0.00047002385832587844 0.0
0.0025480844349040394 7.811626813169919e-5 0.0
0.0016864464523327456 -0.0006991333209763472 0.0
0.0011400232207004438 -0.00030713388773357113 0.0
0.0017247272905961378 -0.000510964514583944 0.0
0.00021958003138370174 -0.00015584567419217138 0.0
0.002360949358967821 -0.00023170092254418302 0.0
0.0009422684670472982 -0.0006673143483192877 0.0
0.0023735638194127486 -0.000529866046029535 0.0
0.0014183550732569004 -0.0008416217536219219 0.0
0.0031670138628005625 -0.00035088987754885125 0.0
0.002139352505171962 -0.000528105666263327 0.0
0.0021794932611352625 -0.0007710675501379229 0.0
0.003966833510198353 -0.0002961605135140896 0.0
0.0008269167411078352 -0.0006707047955313496 0.0
0.004304610833411491 -0.0002118643887708202 0.0
0.0017762187409987758 -0.00040011872877154195 0.0
0.002133226506024475 -0.0005968972689178037 0.0
0.0003820500897788402 -0.00015634812355572343 0.0
0.003955974109075774 -0.00021753391729136307 0.0
0.0025083090199360153 -0.0008146338868378952 0.0
0.00012833196484575773 -4.789261072589372e-5 0.0
0.0022867108566124424 -0.00032613190418909156 0.0
0.0022845402604823443 -0.0003491209462578657 0.0
0.004215558345938744 -6.492485112692101e-5 0.0
0.0024771392655090563 -0.0010379706370137066 0.0
0.0007707297242600088 -0.0005058069583322659 0.0
0.004353839328260728 -0.00010707976805542472 0.0
0.00237097540971678 -0.00045651413399194085 0.0
0.002199782988652721 -0.0005138037212889828 0.0
0.002760062337344727 -0.0007134071442122445 0.0
0.002702273691693696 -0.0006992608479336132 0.0
0.0025247077820944107 -0.0007311905062939198 0.0
0.002085936373817777 -0.0004470852255905645 0.0
0.00257757711084911 -0.001056204318645424 0.0
0.002776901760778733 -0.0010240417734456884 0.0
0.001968740972661155 -0.0010557072263036346 0.0
0.0021227834190969603 -0.0010698493505578944 0.0
0.0030733973477933157 -0.0009414336163308505 0.0
0.003059428581088326 -0.0008964719490734942 0.0
0.00156608500845 -0.0009787750406105914 0.0
0.0012285379075450199 -0.0008856922277773802 0.0
0.0026760028424982272 -0.001042596622445844 0.0
0.00167110364383648 -0.0010072010103599196 0.0
0.0018838395149393986 -0.00035087054093046094 0.0
0.003864052692816243 -0.0001398681140828954 0.0
0.0031952282387264393 -0.0005403808621134889 0.0
0.0031752501530999196 -0.0005795233203796346 0.0
0.0016172898187483097 -0.0005262214928450062 0.0
0.002747652283258963 -0.00047286655312678283 0.0
0.0021847360930784066 -0.0008519350662285692 0.0
0.0011170932802223186 -0.0006971881638173542 0.0
0.0008339263560109128 -0.0004014549401078229 0.0
0.0019007051632757034 -0.0005152296187757457 0.0
0.003945711309316504 2.9776973658320718e-5 0.0
0.001513389552455259 4.2935367408537386e-5 0.0
0.0021512355209827114 -0.0004046645958304282 0.0
0.002544867575233791 -0.0005746889725505847 0.0
0.0002897034799108121 -0.00028642534071599755 0.0
0.00030042933944502694 -0.00031724900241372457 0.0
0.0019003495108726553 -0.0007686138500833094 0.0
0.0015919832463009843 -0.0007208498590151747 0.0
0.0023060784434738198 -0.0006189199416547898 0.0
0.004182808594594901 7.757800718373877e-5 0.0
0.002440950340789799 -0.0009255755582532279 0.0
0.004423332923419963 -7.507778067651688e-5 0.0
0.004397100774358089 -0.00010883015542521155 0.0
0.0012355432923167801 -0.00020118836522366507 0.0
0.001959916167422384 -0.0005692960754330812 0.0
0.002071286008764413 -0.0006858290900442034 0.0
0.004293422662506303 1.517468761199694e-5 0.0
0.0020933112845338787 6.216156128265514e-5 0.0
0.0030233781488727966 -0.0007218051762341186 0.0
0.003112772838226409 -0.0006105295913284618 0.0
0.0012064305198354565 -0.0008408586465919159 0.0
0.002854380952180624 -0.0005667172963255073 0.0
0.001960809419754164 -0.0005030088806447999 0.0
0.002989299072584767 -0.0005132786663750475 0.0
0.0029775332034663797 -0.0005507732315790898 0.0
0.003056975633830718 -0.00048596247858444475 0.0
0.0010023224039481093 -0.0007932096416678361 0.0
0.003529769746604023 -1.4138829132891955e-5 0.0
0.0026110418787571926 -0.0010068848848278592 0.0
0.003721793019648919 -0.0006208510053229752 0.0
0.0033607433621288905 -0.00039892973200435873 0.0
0.0021732409338387584 -0.00030232510209029617 0.0
0.0027896879301080777 -0.0008647832803096348 0.0
0.0017397354505837657 -0.0007268465896036078 0.0
0.0018267558832558849 -0.00042932003733993373 0.0
0.004165730707273396 -5.029678831208304e-5 0.0
0.000957674075098257 -0.0002813993409297385 0.0
0.003220459567335135 -0.00022879338896729764 0.0
0.002140480259575717 -0.00019292076240836104 0.0
0.002808830257839385 -0.00048304435184201984 0.0
0.003999700494120694 -0.000137740539632334 0.0
0.00033603633962211104 -0.00016635779720541963 0.0
0.0032661298662716746 -0.0005906328854986036 0.0
0.002436182098544006 -3.000206259530747e-5 0.0
0.0024138779371765417 -5.26232909398688e-5 0.0
0.0026990279307511924 -0.0008369059494947171 0.0
0.0024801778253804307 -0.0006347229142544621 0.0
0.0025554656090986884 -0.0008324648697247462 0.0
0.0033264277637754906 -0.0006901825641016931 0.0
0.003295841430681053 -5.995942862219882e-5 0.0
0.0021148102362202174 3.870721781692565e-5 0.0
0.0029861422834875574 0.00021708689983863583 0.0
0.003893711962418391 -0.0003736795880225886 0.0
0.0039086178767913605 -0.0003389311377843594 0.0
0.002131921911554125 -0.00010562783944883168 0.0
0.0014440988587218922 -0.0007078598875788233 0.0
0.0029190102843776344 0.00019881415086348345 0.0
0.0021255461416851474 -4.177645947382542e-6 0.0
0.0028432108886724196 -0.000604988030428409 0.0
0.004363242996765551 -0.00011540040389233451 0.0
0.0007283682800216771 -0.0005426847084165253 0.0
0.002730839912265169 -0.0002913639416154547 0.0
0.002134140071695933 -5.4133506534707684e-5 0.0
0.0021300193051652754 -8.983331664977779e-5 0.0
0.0007514276735047812 -2.4953300399632017e-6 0.0
0.003924719852379424 0.00015394362886615885 0.0
0.0023062540163031435 -0.00020235577267462365 0.0
0.004018700309211188 -0.0002844268610749541 0.0
0.0013902125781422824 -0.000676355401939292 0.0
0.0034612791218931946 -0.000784946678027174 0.0
0.003552006804995974 -0.0007495782921816614 0.0
0.0012574599866047426 -0.0006988838781567843 0.0
0.0029495846276761544 -0.000626197002568509 0.0
0.0019181275324038586 -0.0010499474307491506 0.0
0.0028004617661140188 -0.00017556671235593275 0.0
0.0007901422842840082 -0.0006918298468842773 0.0
0.0023264655174323316 -8.137770689357683e-5 0.0
0.002424425209269549 -0.0002708155879927703 0.0
0.002371811622279777 -0.00011269164303741082 0.0
0.002598805390249852 -0.0006274209840826663 0.0
0.0031596402261590056 -0.0006178441045180997 0.0
0.00010328414636840666 -0.00012636745038787733 0.0
0.0001785762265591856 -0.00021188244762134327 0.0
0.00021458235595793636 -0.0002503494541037238 0.0
0.004180943792033597 -0.00033237218748889203 0.0
0.0002899287434207143 -0.0003277392596837891 0.0
0.0012900989923085927 -0.0006498168636363829 0.0
0.0005747040540837896 7.659418913676578e-5 0.0
0.0037671200341135315 -0.000634647664262538 0.0
0.0006652493598452153 -0.0006159294309551381 0.0
0.0007496016662765071 -0.0006685903563381448 0.0
0.004140426999131734 -0.00036611346872454425 0.0
0.0040595452622591045 -0.00043472402393639827 0.0
0.0024060919697200824 -0.0003452291266825058 0.0
0.001744666481761327 -0.0008915035349762614 0.0
0.003281384445895372 -0.00010065282330320332 0.0
0.0038519223293699053 -0.000579638635165265 0.0
0.0038943037086745366 -0.0005529654313379947 0.0
0.000584401169733753 -0.0005667737780614544 0.0
0.0004013848942013983 -0.000424845880975216 0.0
0.003978406271692151 -0.0004943302082678987 0.0
0.004010580166582071 -0.000436502270962627 0.0
0.0027062310246724255 -0.0009929494319918931 0.0
0.0004787128585418953 -0.0004886213640248208 0.0
0.0033099315277028765 -0.0008603586906873518 0.0
0.0008319629665366861 -0.000548455539848899 0.0
0.003726669040877009 -0.00046101110927365517 0.0
0.0012832265016994363 -0.0008655477982192749 0.0
0.0034811656504388287 -0.0006216577530644083 0.0
0.0035118961329525583 -8.476072008405477e-5 0.0
0.0012665143426040155 -0.00046252388157061187 0.0
0.0008452026605476981 -0.0004365017902667784 0.0
0.0016432840047517245 -0.0007501670429075604 0.0
0.002189412264541396 -0.0006172066305452113 0.0
0.0037247856935339334 -0.0002639886542625884 0.0
0.0023383514785979016 -0.0009724379622002177 0.0
0.0023665014019444244 -0.0002114159284312883 0.0
0.002340053937562992 -4.658915810329216e-5 0.0
0.00301016889518699 -0.0004416502567007599 0.0
0.0034812006204979246 -0.0005286947598587856 0.0
0.0012120109942331233 8.278130998971323e-5 0.0
0.0028249827232853498 0.00015898645033713562 0.0
0.0013807916977170197 -0.00045266068547394005 0.0
0.0037715595640204604 -0.0003829802395710403 0.0
0.0008713032049666962 0.0001377963165228881 0.0
0.0007429414998671426 0.00010458712482330398 0.0
0.001905752208571398 -0.00013055636845164117 0.0
0.003910881900463622 -0.00017018807597582675 0.0
0.002065497425620967 0.00012372034574789599 0.0
0.0022973876151738282 -0.00025917867625146335 0.0
0.004138368887867107 -0.00016305952317177886 0.0
0.001159137714376323 -0.00046963142850600745 0.0
0.0014284714971505236 -0.00028623920304855153 0.0
0.003234949215165914 -0.0004308645142265513 0.0
0.0035845545866851074 -0.000494889618772324 0.0
0.0010029184988467152 -0.00047425080398902467 0.0
0.0005774578792172326 -0.0004161985117006191 0.0
0.0034372209237639906 -0.0005246508923035503 0.0
0.0014539229286038118 -0.00017861936011489548 0.0
0.0033929196693550058 -0.0002953553563305106 0.0
0.004432217417034181 -6.0365623383736926e-5 0.0
0.0036875013772437446 -0.0001289667374701876 0.0
0.002376101710202196 3.015282193961894e-5 0.0
0.0024560265066286453 2.3901721236517534e-5 0.0
0.0027881164979100255 -0.0003576208388062525 0.0
0.004044155427896658 -3.387135961938763e-5 0.0
0.003975618590962426 6.558031548265326e-6 0.0
0.00017268431827480082 -0.00014363011424768838 0.0
0.00012786963871573345 -0.00010568163700736947 0.0
0.00179288992584357 -0.000877610403642402 0.0
0.0029095351685847213 -0.0005779345686356765 0.0
0.0016265346837202323 -0.0003030594604192007 0.0
0.001624148772214291 -0.000275589142447963 0.0
0.0015925303537721583 -0.00010905286302865563 0.0
0.002292305778679663 -0.0008191016145917094 0.0
0.0026628586959088585 -0.0003122226912536852 0.0
0.0007080439108732179 -0.00012553984004624156 0.0
0.003123990992430777 -0.00023824372717703575 0.0
0.0024083365975455014 8.076926241683803e-5 0.0
0.0019005766307217753 -0.0005483607687752401 0.0
7.655060839532731e-5 -9.337714320033115e-6 0.0
0.002191954953069559 -0.0005812248418215248 0.0
0.004117546347305843 -0.00018864350631687043 0.0
0.003521214011836785 -0.00030045614260893155 0.0
0.0033382774340428253 -0.00022041532369555596 0.0
0.003947311172667681 -0.00024481969895324626 0.0
0.002877998158024501 -0.00024985372473213945 0.0
0.0015608810946784594 -2.5632525485666304e-5 0.0
0.0005110536879636231 -0.0001984228695213144 0.0
0.0019542297362563155 -0.0002704311034113034 0.0
0.002461806085131695 -0.0003577187313284595 0.0
0.0006370930114832369 -0.0003549968029240525 0.0
0.002071669683772324 -0.001066446033151777 0.0
0.0027839660177084308 -0.00024694873966467395 0.0
0.001344051156566806 -0.000683640646920837 0.0
0.0030098289547850826 0.00019433723492061158 0.0
0.0037845017004884676 -0.00026166870350163553 0.0
0.0014434632848635501 -0.0001495124971314094 0.0
0.0033132138273978154 0.00020593685106628883 0.0
0.0025422599948085435 -0.00029300831031117095 0.0
0.002194813840287342 -0.0005466364315469711 0.0
0.0007955867990300725 -0.00015408925333550193 0.0
0.0014941735123647918 -0.00031534718150412656 0.0
0.0019017054045189238 0.00020216904208788473 0.0
0.0005936918721466006 9.996011757479593e-5 0.0
0.0033470154762200526 -0.0004364570658836384 0.0
0.0008765319123491672 -0.0003368933074638045 0.0
0.0022554583586005014 -0.0005317298263667427 0.0
0.00372393088456735 9.373179928131564e-5 0.0
0.0031774400606384375 -0.0004258107855386866 0.0
0.0014680435863943144 0.00014604110071493516 0.0
0.00026662489500318693 -7.688304326485442e-5 0.0
0.0011377816161534044 -0.0002748438625544473 0.0
0.00010122773260167484 9.628477249847213e-6 0.0
0.0002116565251775153 4.2868613525471816e-6 0.0
0.003158436614542506 -0.0003922417685895196 0.0
0.00260739966469375 -4.07972354131731e-5 0.0
0.0014644154093597023 -0.0009627801946545104 0.0
0.00102055538699809 -0.0006259226241744933 0.0
0.003688498729199664 -0.00020361687410756196 0.0
0.0004953416793499199 -0.00047533309950334413 0.0
0.003064577404505853 -0.0004512582489037311 0.0
0.002563423076561054 -0.0007911085798085405 0.0
0.003659789604720472 0.0001448762988654716 0.0
0.0013137182011169282 -0.0008136801966805949 0.0
0.003999079990033778 -0.00039243076034131056 0.0
0.002300040593624988 -0.0002403319121899207 0.0
0.0007208191365657375 -0.0006186486654669494 0.0
0.003112199640070593 -0.0008928145951817637 0.0
0.0007380129725321999 -0.0003980608210768908 0.0
0.004227081237018863 -0.00017672380418803409 0.0
0.0005254645108807233 -0.000280151921514558 0.0
0.003126599172003077 -5.217889724192737e-7 0.0
0.002882096101942863 -0.00022100033815322843 0.0
0.0023421292388687612 -1.0188724030098686e-5 0.0
0.00010325934272546656 1.4838589884331364e-5 0.0
0.0016946608848375274 0.00023096602122366363 0.0
0.0012169224345655251 -0.00016720885574825138 0.0
0.0035876060406532747 -0.0006940560628705444 0.0
0.0036368143346289846 -0.000711403947214953 0.0
0.0003375613369269034 -1.2515012666730352e-5 0.0
0.0026126579618749994 -0.0002776114895689676 0.0
0.0010660632555876883 -0.0006257436717204731 0.0
0.0018459466604520119 -0.0005946150226654477 0.0
0.00010652678162378423 -0.00010067045402637106 0.0
0.00024911345235746846 -4.4330050723785954e-5 0.0
0.0025128068986231566 -0.00039667420547838107 0.0
0.002316103617091373 -0.00051510110624225 0.0
0.00016250499303399867 -2.4959743322434464e-5 0.0
0.0004358184026295779 -0.00016278224147689646 0.0
0.00032675394047540875 -0.0003612477819296823 0.0
0.0037482478729961035 -0.00042026570353042154 0.0
0.0029625930507757763 -0.0005881898445273768 0.0
0.0005218147562311925 -0.0003765224775737504 0.0
0.0034637916263021954 -6.124585274727815e-5 0.0
0.0031871067433382446 -8.395395594434633e-5 0.0
0.0002298218831938666 -0.0002513399363807709 0.0
0.0018525088827066585 -0.0001798979554681051 0.0
2.7850513212498373e-5 -3.481571308838809e-5 0.0
0.004470934300319977 -3.391955121230374e-5 0.0
0.004347010532508549 -7.594664848191527e-5 0.0
0.0013259025945292489 -0.0009217455021917511 0.0
0.0034749425320908913 3.4566213565246455e-5 0.0
0.002973313778246746 -0.0007119802054535472 0.0
0.0005833560386107354 -0.0002891429157423407 0.0
0.0028257504659282284 -0.0010125962290011357 0.0
0.0006338634853840504 -0.00015467037015230253 0.0
0.0038977466460652418 -0.00019765085853063475 0.0
0.0017878273908082584 -0.0006051495443700301 0.0
0.00016189486098554953 -0.0001248777168482026 0.0
0.0020619135436551186 -6.111395679694816e-5 0.0
0.002061029761099514 -8.001579495134551e-5 0.0
0.004086975610317833 8.083617324376628e-5 0.0
0.0025413949371262306 -0.0006119860215707249 0.0
0.0003227754276405734 1.781891681464228e-5 0.0
0.003962696704011807 -0.00047787046123906547 0.0
0.00412970045829783 -0.00012489874340595593 0.0
0.0031623895259665874 6.958794223637612e-5 0.0
0.0032435309178791734 3.440485149822239e-5 0.0
0.001936964566199063 -0.000921062721165589 0.0
0.004385090449030307 -0.00013366905852816959 0.0
0.0019057935854054672 -0.0001514397404140841 0.0
0.00039148293084010727 0.00012600793553477248 0.0
0.0005088313977754061 -0.0004104093969528652 0.0
0.0013141810342327915 0.00018330863769670106 0.0
0.003966276135075619 -0.00039454626149764614 0.0
0.00022690064042952743 3.7904891514862064e-5 0.0
0.0023648251710959617 -0.00019218078922074493 0.0
0.003534819027991356 -0.0002643222694944619 0.0
0.0028500154889256756 -0.0003699699815250191 0.0
0.00440570655194977 -5.65472258851361e-5 0.0
9.85710509217082e-5 -5.398049242648604e-5 0.0
0.004142966570465854 -3.135656824674448e-5 0.0
0.004419030680373787 -5.548704321365505e-5 0.0
0.0021871940421731278 -0.0010299143732046315 0.0
0.0025848222187691717 -0.00038165610672714613 0.0
0.0014406989689016044 0.00024155017201050015 0.0
0.0010586396676724663 -0.0004718339204376347 0.0
0.00140401927617875 -0.0002478215712929377 0.0
0.0018425803039896118 -0.00020053632966951095 0.0
0.0008855101624754982 0.00011476013240543672 0.0
0.00163802507172836 -0.0007090982161044676 0.0
0.00080820296399407 -0.00012128327023421011 0.0
0.0005207436912673885 0.00012457687572704938 0.0
0.00210132553086608 -0.00033838963865038754 0.0
0.003220257764076 -0.0005856036173429351 0.0
0.003810219451520095 -0.00038381556091920895 0.0
0.00148739029687531 -3.137370322760303e-5 0.0
0.0009863325023897625 0.00020393807598098753 0.0
0.0024372421455988113 0.00011454845373208138 0.0
0.0012969260484504011 -0.0001620407106361315 0.0
0.003611261991829696 -0.00039614928639174186 0.0
0.0012146225815723394 0.00024140603908823338 0.0
0.0010914524940365963 0.00023712649008758737 0.0
0.0024876770130620326 -0.0005592188525954659 0.0
0.0025029187088984038 0.0001859020593656161 0.0
0.0017635213410523284 -0.0010269734414508104 0.0
0.003407038554696208 -0.0008189418840124435 0.0
0.0012070275369766236 -0.00043420541592594045 0.0
0.0031699512749880547 -0.0009141566029777623 0.0
0.0009671234043026256 -0.00015807784375747926 0.0
0.003675412023676875 -0.00038832469759079937 0.0
0.001729237247973039 -0.0005811138281891308 0.0
0.0038916177589695057 -0.00025412951701765587 0.0
0.0010624949899252357 -0.00043981156581360394 0.0
0.0017699247280320198 0.00022637261813075897 0.0
0.0015851648833462618 -8.153934848679988e-5 0.0
0.002019686758354202 -0.0007753682586133736 0.0
0.0021348757645086518 -0.0002479445794957858 0.0
0.0020602222165311415 -9.77865513491711e-5 0.0
0.0012343806413264383 -0.0006137451525783205 0.0
0.0012486290260629606 -0.0006573904552861105 0.0
0.0008028638676852903 -0.0003030748848810943 0.0
0.0010490779651178726 0.00032436249873440395 0.0
0.0020924283334148534 -0.0008994810577155273 0.0
0.003923545659898008 8.783212836759681e-5 0.0
0.003542792674227094 -0.00049220457202651 0.0
0.0024645476984817252 4.9990963926304364e-5 0.0
0.0011532908048169416 -0.0004380262850858778 0.0
0.0030984408996448773 -0.0003443048862754145 0.0
0.002622173472935362 -0.000766437455220834 0.0
0.0017263214669182038 -0.0005452035419701504 0.0
0.004181468285174081 -0.00015410813930148094 0.0
0.004381826925757786 -9.325543876940426e-5 0.0
0.001555832239411481 -0.0002841154513944191 0.0
0.003005534411698276 -0.0009268116168913492 0.0
0.004055080364871171 -0.00041139889019868017 0.0
0.00019861845085619378 -5.4212438980415503e-5 0.0
0.0010696957713132566 -0.0002789518859113937 0.0
0.0012653933818874397 -0.0004308574834319725 0.0
0.00412647769897838 -0.0003551166386900253 0.0
0.001630799926709706 -0.0006675397717347281 0.0
0.002825561058973954 0.00019291481889397916 0.0
0.00041840920288487753 -0.0004163973490472178 0.0
0.002614214306816937 -0.00045506373406730023 0.0
0.003793550002386533 -0.00034826809566478956 0.0
0.0030260943484153443 -0.0005597330067147087 0.0
0.004252180666840331 -0.00014818022474099603 0.0
0.0030709519616713846 -0.000843020945795377 0.0
7.83672060529601e-5 -4.5772051808497804e-6 0.0
0.0019987864122632485 -0.00032545759212582425 0.0
7.349254603886792e-5 -5.688593507137582e-5 0.0
0.0013926165080131402 0.0001262447965462698 0.0
0.0009366650439940072 -2.6147828812788673e-5 0.0
6.329273982249578e-5 -7.28688759594575e-5 0.0
0.0011393995350629964 -0.0008584724013477872 0.0
0.0010529487114803722 -0.0007852450423934914 0.0
0.0019098468465431487 -0.00011204100832989602 0.0
0.0019056694446230385 2.50089671926761e-5 0.0
0.0007632844423448302 -0.0006451483641879698 0.0
0.0013699570588913382 -0.00015673567217373195 0.0
0.0026629373626412393 -0.00029023635302872954 0.0
0.0007830276290128894 -0.0003991980226473902 0.0
0.002959758377027286 0.0002183584559147284 0.0
0.002685729512165029 -0.0007401948836877739 0.0
0.0005737969680220473 -0.0001571157416058076 0.0
0.00032308270703115436 -0.000300665166467131 0.0
0.0023062623497422116 -0.00016600601015864396 0.0
0.000148493334788382 -0.00016852000456287356 0.0
0.004296482752807279 -5.049796828571837e-5 0.0
0.001502142575442626 7.755636209965637e-5 0.0
0.0021138770942199627 -0.0003110672164548536 0.0
0.003914621545024044 -0.00043663042752136377 0.0
0.004256779418443188 -0.0002634692409594071 0.0
0.003548677152262951 -0.00022814011620553092 0.0
0.0020862214935108703 -0.0008571641748059526 0.0
0.002715179978603858 -0.0004306558869391913 0.0
0.0038319558648087825 -0.0005639173584223312 0.0
0.0022812915049304737 -0.001079241372441998 0.0
0.0037429015746393195 -0.0003523131281186796 0.0
0.00303861149721827 -0.0005230170008504053 0.0
0.001574361922096883 -0.0006391981467157688 0.0
0.0026730612157224885 0.00019969736176613022 0.0
0.0016640150002364819 -0.0005159116745122934 0.0
0.0013862587887701382 -0.0008536436180626931 0.0
0.0020775193468607085 -0.0002545973252313292 0.0
0.0035145123745791377 -0.0007300788874549802 0.0
0.0007952820808096529 -0.0002736264807407841 0.0
0.00063519975442336 -0.0005722817084909069 0.0
0.003241910822325221 9.969546496418984e-5 0.0
0.0010092320847906566 -0.00031141811167707226 0.0
0.0025957752191007382 0.00018937742840528153 0.0
0.001313685476050783 0.0004707445876377211 0.0
0.003323184470862749 0.0002955120418376428 0.0
0.003881381896806236 -0.0002282975834962472 0.0
0.0021476624297128073 -3.875339843468149e-5 0.0
0.003467576468809047 -0.00026477540415375275 0.0
0.0027512918358032212 -0.0008051282297308518 0.0
0.0029165783702635923 -0.0009946176507270514 0.0
0.001325192199945858 -0.00042494995143946485 0.0
0.0013062313075564579 0.00024888614298852003 0.0
0.0008735904858977351 -0.0002778239334775003 0.0
0.0009628168075511279 -0.0007855134910108081 0.0
0.001963312447110077 -0.0003607408923845128 0.0
0.00010051758138667575 -4.88704268257145e-5 0.0
0.0007368271576027336 -0.0005915002173253374 0.0
0.002142654712803095 -0.00013604753699793717 0.0
0.00025097895404307854 -0.000186026929869428 0.0
0.00025895213466466246 -5.025348469503294e-6 0.0
0.0023637847289656204 -0.0005018817204165056 0.0
0.002366068145944278 -0.00017443104464031202 0.0
0.004206519565049914 -0.00028889177886141194 0.0
0.0018402935772501715 -0.00015952719038128755 0.0
0.0032403135994505403 -0.0005468447651160997 0.0
0.0023860188415671863 -8.845848266445357e-5 0.0
0.0006042271297332606 0.00011657402294153756 0.0
0.0007989843580069031 9.060521294243355e-5 0.0
0.004314653214090303 -0.0001092793332103755 0.0
0.0027504777938768157 0.0001960047344042913 0.0
0.0006438780576112439 -0.00029613479366546785 0.0
0.002724609993696649 -0.0001859438784198616 0.0
0.002051050876793774 -1.4925367597073144e-5 0.0
0.0023459032601692445 -0.0002490762915283043 0.0
0.0007305037535235306 0.00021253844692454367 0.0
0.0023791633141672336 -0.0010818925326269051 0.0
0.004095409494609716 -6.87165098228933e-5 0.0
0.0023237298446507917 -0.0004174936145440321 0.0
0.0023036721331369586 -0.00011465972648555645 0.0
0.002932522691498603 -0.00031550405575453937 0.0
0.001986855158198101 -0.00010611136712345098 0.0
0.002334110362502544 -0.0003868391669746658 0.0
0.0011185459205862009 -0.0006676749711994645 0.0
0.003103963567321425 -0.0004944820640009418 0.0
0.0018408570052850734 -0.00028698490728408597 0.0
0.0023024132243739262 -0.00014934013894735067 0.0
0.003674822513732911 -0.0006951250250137192 0.0
0.001965072466031985 -0.00024816313073327086 0.0
0.0027480363144466373 -0.00013698561266319647 0.0
0.0023971600116632296 -7.142352217302076e-5 0.0
0.00033897364574710765 -0.0003545081895536867 0.0
0.0035600746578403814 -0.000460811435690884 0.0
0.0023806543110044456 -0.00013398463716221058 0.0
0.0013103657816581373 -0.000851575622803901 0.0
0.0025921018568333598 0.00019913360020979324 0.0
0.0032668311165871427 -0.0008842937306678351 0.0
0.004323061475842567 9.081332008606972e-5 0.0
0.00018756178884044516 0.00010349313097205026 0.0
0.0019145368563793488 -0.00037307499089374443 0.0
0.002559575171500572 -0.0010239326502177871 0.0
0.001601104435314859 -0.000958413824054723 0.0
0.0018243555049720186 -0.0010387689007826692 0.0
0.00033428934863698694 -0.0001496818457866557 0.0
0.0032984346568374107 -0.0005212694995906901 0.0
0.0013319059611967556 -0.00039285165458418725 0.0
0.0018978954169977494 -0.00025730839656348337 0.0
0.0014948659613163052 -5.798611645226853e-5 0.0
0.0018908109788141779 -0.0010155378149507316 0.0
0.003246974897975057 0.00021720697963111552 0.0
0.004136850631729422 9.411356393964224e-5 0.0
0.0027518373663991936 -0.0007721874266796606 0.0
0.0023166445215066127 -0.0004509921673182907 0.0
0.0014799304713184018 -0.0006320131043770481 0.0
0.002478096433592648 -0.0010777912099004107 0.0
0.0034354744845800076 -0.00044589619778097724 0.0
0.00029102704720374175 -0.00018512205859720507 0.0
0.004039128844524313 -0.0001431655931245281 0.0
0.0019955848673720764 -0.0010261859202088577 0.0
0.0020461688264155724 -0.0009199724974072613 0.0
0.003124977809407976 -0.0008040301228317062 0.0
0.004440310165521478 -6.323907165538242e-5 0.0
0.0016971853812570525 -0.0009810568373314517 0.0
0.001408292598663561 -3.461622739690518e-5 0.0
0.0015007763030907568 -0.0002922499072913085 0.0
0.002914614125047545 -0.0003508426146401101 0.0
0.0043212859778448826 -5.519839784749377e-5 0.0
0.00035278664728622013 -0.00031355966013888945 0.0
0.002341672028444308 -0.00036021135769622316 0.0
0.004021101106587081 -0.0003969266241435806 0.0
0.00430291446894313 5.466819205009903e-6 0.0
0.0012656604135976078 -0.0002356199997027122 0.0
0.0020433074873430824 -0.001035678062408989 0.0
0.004195424397532683 -0.00013494726585293397 0.0
0.0007650277322219486 -0.000555504138305591 0.0
0.004382545400865075 -3.843943981080486e-5 0.0
0.0014222894256557227 -0.0009583559265148307 0.0
0.003116309129249587 -0.0004579839508254793 0.0
0.0008448895461593425 1.5445660156548474e-5 0.0
0.002816960765211722 -0.00014179798708399563 0.0
0.00434914838507342 -0.00015655033933322597 0.0
0.003498098573686982 -0.00041601647505036505 0.0
0.0012462295856679737 -0.0008644589627833088 0.0
0.0008771974742275952 -0.000745208881821753 0.0
0.0011186101642136669 -0.000607464014617253 0.0
0.003759873099836482 -0.0006087617728540698 0.0
0.003403958731861329 -0.000267267886784528 0.0
0.0007003675535035234 -0.00030569306987849356 0.0
0.0018106868242945059 -0.0003567715410375128 0.0
0.0029102124553661668 -0.0003869415585773785 0.0
0.0017488473427852346 -0.00042186709590279084 0.0
0.004225194580672837 4.0445138518335694e-5 0.0
0.003106287107798466 -0.0002112420735987992 0.0
0.001831137079936081 -0.00026636691211989814 0.0
0.0007199487057787854 -0.00026904921912236776 0.0
0.0033297438574049596 -0.0004669674320533103 0.0
0.0027935361521155477 -0.0009420431189482605 0.0
0.003923854836682058 -0.0005103487962267536 0.0
0.001525211421440199 -0.0009422368363746689 0.0
0.002879514668181367 0.0001445293519410837 0.0
0.001668114077511291 -0.00048095043454667887 0.0
0.002655215512960275 -0.001012830347884243 0.0
0.003880733869598358 -0.00044025621845688575 0.0
0.003371073738646359 -7.0820616033338e-5 0.0
0.004225694768012432 -2.039284679056454e-6 0.0
0.0009886812806049077 0.00021626356195947848 0.0
0.004110207097272123 -1.9218272645104333e-5 0.0
0.0014599492538944026 -0.0005788649341884037 0.0
0.003802720485068179 0.00010030428501300978 0.0
0.002667362709972825 -2.3417241646530232e-5 0.0
0.003127274215602824 -0.0001495849316417065 0.0
0.001370294910838811 -0.00035053764050917895 0.0
0.003177983662879639 -0.0002547691789111866 0.0
0.002143498544718722 -0.0010403657846415177 0.0
0.0011645507877885983 -0.0008107503810072991 0.0
0.0024192809445634507 -0.00018273992582517535 0.0
0.0033588740788523088 4.5061627934257333e-5 0.0
0.0020094230765857883 -0.0009700613629664037 0.0
6.966778154234796e-5 -4.911755830794727e-5 0.0
0.0043450529195699856 -7.000279448328126e-5 0.0
0.0037866540243746793 -0.00014423708719954025 0.0
0.0018205598111188112 4.8498413546782595e-5 0.0
0.004402607092272021 -8.192518441313298e-5 0.0
0.0012067946754417283 0.00018445791656761576 0.0
0.002052827586080008 8.636369277259394e-6 0.0
0.0044690497456710745 -3.863628788514921e-5 0.0
2.942344693305063e-5 -3.863694558463494e-5 0.0
0.00010350857861194332 -9.11512928882807e-5 0.0
0.0012906536907097781 -0.00013720457284618461 0.0
0.0027582430895530204 -0.0004437000225341193 0.0
0.0031279345091393303 0.00011165910635323302 0.0
0.0035189713786641223 -0.00069309626604873 0.0
0.00435975130485705 -8.375671644983392e-5 0.0
0.00032403054031761503 -0.0002120581963367296 0.0
0.0009345001959268347 2.579828313997342e-5 0.0
0.002812386603085248 -0.0008961302342602779 0.0
0.0039189986667644275 -0.0001479335266255314 0.0
0.001155378747427055 -0.0006047790490181534 0.0
0.0002515045362213143 5.0493705074593714e-5 0.0
0.002788674976702275 -0.0001973039654381357 0.0
0.0013398082703617786 -4.1076129900896515e-5 0.0
0.0033198326681524006 0.00021490764641574124 0.0
0.0020926107241545614 -0.00013177332161455212 0.0
0.0017342398513226283 -0.0004484071855741174 0.0
0.003978117284859992 9.250123499605412e-5 0.0
0.00408847381141107 -0.00039202958472854505 0.0
0.003388831475521472 -0.0007956195931891297 0.0
0.0010169042657335234 -0.0002854744751702734 0.0
0.004151651053694414 -0.00012936520284064843 0.0
0.0006848405992143888 -0.0003668100053441879 0.0
0.0041858758765666365 -5.9680298547824914e-5 0.0
0.0037942768649645666 -0.0005947858618240279 0.0
0.0026970111955474034 0.00011444750001978912 0.0
0.0031518780866244965 -0.0008905593314297367 0.0
0.0032708611534226356 0.00020793729831482033 0.0
0.0020743633535975376 -0.00021005434963545003 0.0
0.0011536952970803028 -0.0007682815463819643 0.0
0.0015574589694376036 0.00023594152073770538 0.0
0.00010565214793008001 -7.603855432930771e-7 0.0
0.004305926205827871 -8.26315857611175e-5 0.0
0.0004518687681227152 -0.00044921207533989214 0.0
0.0033154450853730903 0.00012073864210477553 0.0
0.0007985114180499625 -0.000670145264315057 0.0
0.0031195513357385627 -0.00042852454792865005 0.0
0.0009158844405319164 6.786094115354975e-5 0.0
0.000383062772478942 -0.00022773107916929667 0.0
0.0005532731191718585 -0.0005512970628043067 0.0
0.0004999862774782217 -0.0003821618798235435 0.0
0.001295918950820879 0.00028533597655313697 0.0
0.0035154934703593497 1.0646324114099638e-5 0.0
5.32766198526791e-5 -5.813427404519924e-5 0.0
0.003757148435919332 -0.0001276961125430478 0.0
0.0033914234900702923 0.0002587466002618021 0.0
0.002825241584219723 -0.00042257859609099834 0.0
0.002096793410987169 -0.00016399603138503923 0.0
0.0011822703802939934 -9.950085854586894e-5 0.0
0.0021499094154643727 -0.00022908776887018388 0.0
0.0028757038145045648 -0.0008183368530359201 0.0
0.0013848516149628754 -0.0003925030531234121 0.0
0.0010235136176170283 -0.00078389578770565 0.0
0.0038630660064153796 -0.00035205238476689 0.0
0.0029421755371327346 0.00022038279619520794 0.0
0.0004549900490331215 0.00010228308203696176 0.0
0.0013129568985041256 0.0001237339410102894 0.0
0.003029972631627698 -0.000319141918717708 0.0
0.002862639212388107 -0.0009715712921691792 0.0
0.0018057350997329905 -0.0003823543847999249 0.0
0.0036264308269437578 -0.0006893316197817747 0.0
0.00026578073391687315 -0.00029047501142853797 0.0
0.003173692728504453 -0.0007714218759380607 0.0
0.0014829796549664825 -5.0921916480513085e-6 0.0
0.0042376179907127045 -0.00026459770190001325 0.0
0.0014210033968105984 9.622831211997478e-5 0.0
0.002770469331895887 -9.891545307425029e-5 0.0
0.0023817734689795347 -0.0004808204101930702 0.0
0.0020574902225028043 3.0137917432666457e-5 0.0
0.002464167109667637 -6.152956342102548e-5 0.0
0.0027594768783459037 -0.0009890027111516455 0.0
0.003549635587983481 -0.0007190437735937176 0.0
0.0011136635950624349 -0.0004450078386262939 0.0
0.0025261465657101996 0.0001440518748266844 0.0
0.0024660485159844828 7.312465998862743e-5 0.0
0.0035347133322365053 -0.0006479849729375869 0.0
0.0020828046455351468 -0.00019148729769713127 0.0
0.001982508655216991 0.00011606822116543212 0.0
0.0011468408587613492 -0.0007285992720238758 0.0
0.0042109949027245045 -0.0002676475274036405 0.0
0.0029865680086184933 -0.0009753368901825631 0.0
0.0020144735064885444 -0.0009409144866817593 0.0
0.004338974593244642 2.0262944798201148e-5 0.0
0.00198677621969442 -0.000831894195472489 0.0
0.0033095106222418504 0.0002229391285936825 0.0
0.0011916130525778522 -0.00021367204913719197 0.0
0.002941536112775085 8.706351867375349e-5 0.0
0.0008614249801213795 -9.13715177460266e-6 0.0
0.0018777912501384757 -8.181367385257286e-5 0.0
0.001203556682225222 0.00037713890716269957 0.0
0.004417531599669742 -5.3082865915066346e-5 0.0
0.002770347467033596 -0.000744148950964498 0.0
SCALARS damage float 1
LOOKUP_TABLE damage
0.2778486731271512
0.06808953662993758
0.298783444427858
0.09939876895025501
0.9635240556845405
0.9670679348609436
0.013160080526998042
0.4325699329915462
0.42389708638661605
0.42412314942911566
0.4428348688575107
0.45966092836994266
0.4845644616946505
0.5090400475943875
0.5258813014100715
0.5418512990485963
0.5401865742095253
0.5374932639518355
0.526799812534545
0.5082489876303125
0.4898314919321328
0.47670573311561426
0.4548134962564993
0.42946781089219793
0.4125716660482587
0.3886637942638537
0.3582714958652361
0.33120852593650874
0.2950098521669189
0.25945732794450804
0.21820930320670606
0.1726625711894355
0.0563291466097621
0.10870173909934817
0.12174224680668863
0.14143924568556526
0.15552480879759142
0.16650537937189527
0.1791062499036202
0.1886820543353602
0.1986578012054063
0.20875519861415312
0.216903738637459
0.22647459359924035
0.23623933574439673
0.2431151090202169
0.25067989118440176
0.2592951251970997
0.269145856443601
0.2806045379393434
0.2876097290006558
0.2969167671899676
0.3061098853994714
0.31860074594564614
0.32370653661832444
0.3388781197150996
0.3458544472668434
0.3600377448791213
0.36964166273568877
0.38642296331420206
0.3915442449529564
0.4102238286437687
0.42227074242490026
0.4389314104465746
0.4507533652791595
0.4690870651721978
0.47971064204257424
0.49523147341789636
0.5138920244626447
0.5367494899343969
0.559269140728309
0.5786813430513968
0.6001268896049686
0.629337731182337
0.6495001878089055
0.6759287294296289
0.7062305201807548
0.7267486357396534
0.7593506905722914
0.7842516155058816
0.8104434217786766
0.8413138068959071
0.8658065819252866
0.8764024316566956
0.905737337649419
0.9142578055445649
0.9342252654202291
0.9306902180727437
0.9235680275783953
0.9043171455351346
0.8821374010475286
0.8525945108818656
0.8277521160690292
0.8008427578987557
0.78006370197144
0.7529293689008449
0.7402819054741604
0.7182199004731686
0.6940665609756616
0.6776905451612942
0.6588593803780101
0.6486573730152748
0.6256963243651877
0.6193556199144116
0.6047542025009741
0.5915442227596124
0.5813411585870172
0.5619387935617456
0.555252870750329
0.5435880202294224
0.5314288104487872
0.5161435260772614
0.5152205648690393
0.49554907344713217
0.48875079147603734
0.4743948632884304
0.46444887804963236
0.45469362287435017
0.43961706920782384
0.4289441585143598
0.4198561225158532
0.40636666259385446
0.3902871233991466
0.37402636606865153
0.3617351587733757
0.34542581700843905
0.3308353598026743
0.29542911418126644
0.2668862430436068
0.25144901938492964
0.15484616895582187
0.20286601975012528
0.26188869752609234
0.3282805694406374
0.3697390510524086
0.3942969414100039
0.41473640227099384
0.42994185533666945
0.44081395578011345
0.44904373639834727
0.4601008648516099
0.46752866710708363
0.4744183828518197
0.4810085873262426
0.48709742863699673
0.48875530664153866
0.48561657391765645
0.4784176053291379
0.47204015137512934
0.4522289324601408
0.4435956452513528
0.4314296043136494
0.4212172712981841
0.4279132022901329
0.437402174503188
0.5107678436746328
0.36465449314264714
0.7391505612214041
0.9766585672301563
0.9940715975318728
0.9788589697586689
0.9076909159983283
0.761638851168293
0.6578203938829197
0.5417143166664533
0.44723075071792634
0.3556297459383181
0.29710835873250024
0.22824169489950527
0.16559704066802383
0.10378942915086288
0.07740512610124041
0.009523149401014163
0.03770022049342864
0.07281492620025912
0.12116699872856158
0.18260304831347085
0.26631968280876284
0.3694294916589409
0.5076089153844405
0.6663510796969825
0.8577251109683768
1.007997121497664
1.0043385699441851
1.0040098743047479
0.9356785958309671
0.7994699232137252
0.5166459140396112
0.4035880177465707
0.6568594926895566
0.5105127475269606
0.7770104197716868
0.6592228856062694
0.9247999243285596
0.8154087850425338
0.5749480387008646
0.3353651474157104
0.5192678350038679
0.28660353164859365
0.5081387383539319
0.48231396420833517
0.3120219593410739
0.3426452807452023
0.02493648727096121
0.1500035411186711
0.4594321205821992
0.24360056478796846
0.44765490318814094
0.45970330397855985
0.46167897291872256
0.5219234505111173
0.4100106250885108
0.20401143318101927
0.5953706234718633
0.3661734315380906
0.3846233534072881
0.4260403422740816
0.586363843423732
0.7384299002640412
0.849633738892261
0.8786110745457659
0.72429274612317
0.610762897769855
0.46450890027199027
0.36679489520205844
0.36116365633014247
0.17251764988170715
0.4229862119155699
0.48675381565728193
0.37498285187856323
0.2854155059594696
0.7605808269652835
0.6372389051792864
0.41859272660023017
0.42937971963268123
0.48419517735987133
0.47847298264540694
0.26675793352970495
0.07010118644656665
0.13298453518335823
0.29783335815516515
0.681570566933607
0.9151609494365978
0.5455410638547695
0.4302406495522422
0.8956764997136362
0.5492800031531897
0.31536630819046985
0.4940097532788171
0.2669013506849679
0.22357648762723234
0.4330144236991466
0.692949565212901
0.673477442102949
0.30174793223404733
0.20962976456822607
0.9536576685777179
0.9333819146807053
0.3833054169426273
0.4578901300597921
0.10113652505934034
0.2382064872140885
0.9059147663901016
0.6369351134599397
0.48347663500237176
0.501937969876178
0.6021931586408847
0.4817077536324842
0.4368654738648345
0.4210097031262411
0.40008982766951684
0.3870993175239443
0.39767759861435514
0.3782248564783647
0.3878131010005589
0.37570516433122175
0.3855085272569155
0.38658416352717756
0.1947936017067728
0.07063580787165472
0.17219863345994432
0.09241138172916274
0.165773091389042
0.12043933854983976
0.17169533786455496
0.1423021683259471
0.17999844116962146
0.15795413540719885
0.18499172315401774
0.17293406187664553
0.19735754164023298
0.1848332218837179
0.20513018857503287
0.19670403676474404
0.21311581497897694
0.204921912355843
0.2196018181396898
0.2139365053967269
0.22648289746456182
0.22303868671388088
0.23301560735600887
0.2307321207351524
0.24144094349470413
0.24035011222984448
0.24926897453823127
0.2474401347298468
0.25618970956261816
0.2536662529153491
0.26332333397170815
0.263729252711828
0.2718459135303645
0.2724517164927376
0.279655763770342
0.28065672062761526
0.28787811652936185
0.2897830264591993
0.13560987333355937
0.296631934212646
0.20319958744721056
0.25948908340499777
0.29881376186070424
0.30601446518902276
0.3086056299022912
0.3015415610255785
0.3115584893738894
0.3159186457008145
0.3136060653464406
0.2714365626330431
0.3239488835884455
0.3215037523391526
0.33154496378807763
0.30455583310139356
0.31500178554617875
0.3292191658043009
0.30827190125717213
0.3188632790791963
0.34070982806553735
0.33879076670505165
0.31314197675173916
0.3237133377341796
0.3506395226492109
0.3491655663305121
0.31773073200498647
0.3281849980260606
0.3615744327153374
0.36032836936921897
0.3213624951141236
0.33292890281160015
0.3731942019513347
0.3720133153338906
0.32562118758966996
0.3390009554927531
0.3312397135787013
0.31942894422473544
0.37461792024537066
0.38541321134899675
0.3837976611001596
0.37007657707553177
0.23809121903120756
0.3828287767385551
0.36888986663491286
0.3818882438368476
0.34466880322953314
0.33744394986178383
0.3498806822898852
0.39827288004475275
0.34852476664527976
0.3410116781471547
0.22123251451305337
0.35166098767357395
0.34439729794256574
0.3544251319075305
0.34710074476576347
0.33764257691431304
0.3398930530040813
0.33312164398721567
0.356733534880866
0.3378308894637324
0.3297323085957406
0.36547581429233733
0.366500742825297
0.3339315754729672
0.3281639650281027
0.3704034048311412
0.3830728843553127
0.37566653855286564
0.3753319444586768
0.37272729051026143
0.38663384798588546
0.39806518031051935
0.4003752931667403
0.41618363480470183
0.41578253001453847
0.4322824285144054
0.4299394693310295
0.44783752868766125
0.41660139987542805
0.44348187791792687
0.46365166166347854
0.3856244434789408
0.33291902671703955
0.3280853114393924
0.46884318900031585
0.4854743530308708
0.4778771259517482
0.49584984487118344
0.38473878802670347
0.5009040001141746
0.4905825218880781
0.39575590960060486
0.39500441658716967
0.38431052297078155
0.5142852900219431
0.5025505003679863
0.4074869475505235
0.40913390018767454
0.3933058289114576
0.38218564784759407
0.5234956809347479
0.5122911857647625
0.4884430649432558
0.5370612047695378
0.49584781568154074
0.4765879106496751
0.3332863031555802
0.33039652910482614
0.3226600743876724
0.3301954028789105
0.3191608332189836
0.32805978546260084
0.3156018309851122
0.4215883678436045
0.4232413361312468
0.3898739970291035
0.3792272259717618
0.5180239505359996
0.32964512693435427
0.31637045790113616
0.4364186357811177
0.4383230380928937
0.3331036175327849
0.5022280639384257
0.2327674538509996
0.6513442600220656
0.23262939685352912
0.3771016552932131
0.33198336499522857
0.3177258644137386
0.3874327451598848
0.37711870904311545
0.4519045336555662
0.4551550503435937
0.5240564787200814
0.3380121507134863
0.3389274076727765
0.34255969256158486
0.5049168646123253
0.33923727265569
0.32189684696594406
0.44885022265757896
0.3829799266119209
0.3726190660920662
0.36366677113004525
0.37086506987936446
0.3572749913626541
0.36910289591997175
0.46923845077157034
0.472238233923994
0.3065947927650303
0.34500248189548266
0.334979498477615
0.5275687465210536
0.5444174495851667
0.36299860885938695
0.34685008375747745
0.5101767438094262
0.4891665992378775
0.37354968869604577
0.394853624961305
0.4883366321832111
0.4908535064677474
0.47394679425605885
0.492873927586669
0.4747248246969632
0.49381059554299034
0.47441511464310276
0.4929962517386401
0.47235048707674626
0.49058710153907764
0.5130547980941772
0.5105190593315372
0.534920539905416
0.5316932246692416
0.5580673351750115
0.5539696531751522
0.4692911068072919
0.5264273372559686
0.548049663111787
0.5781598212101154
0.5715345891777721
0.3424504356327383
0.342156474017935
0.3784518475354147
0.36841835633749703
0.5408257591123601
0.5635026304710208
0.5969581911682493
0.5881710996417155
0.34736776233210787
0.34506461876745553
0.35583069862207795
0.37125586981795705
0.3591360175813783
0.531289096725096
0.5126724854464256
0.5088606694845981
0.299152317473119
0.3434385554821301
0.6245693359087959
0.614858965933037
0.5783888195337114
0.6050190570128506
0.32757880661712074
0.3797526486726859
0.3906399910232986
0.35951151728115677
0.3731832613815579
0.36359137542237
0.36629014339868465
0.6432954370566725
0.6333091694698525
0.5937415796585122
0.6230209128615148
0.5839091155102061
0.6111530111619188
0.6522254542014088
0.6382902329298412
0.38086464614021526
0.3504672388450232
0.3465684870443068
0.5059107722444841
0.5348450716702995
0.5171869831519884
0.6761388874186929
0.6634571419712665
0.36153841059857894
0.3691116910028853
0.35877081775329833
0.3176650439306405
0.38013842807416304
0.5275327443512876
0.3789567866220649
0.35970042119413
0.5395499714170575
0.5154767980041213
0.49091554715889524
0.39126531376638496
0.5526354876107624
0.35689523218885666
0.37537726297769974
0.3966568753181079
0.3838807549657326
0.5740260520227066
0.3616556355009508
0.3522127727422193
0.352955143679615
0.3473123328894488
0.37040852797547313
0.7006357847395746
0.6815099631736499
0.3496268658840128
0.34396790866063315
0.7155096735108818
0.5225373792703206
0.34506998702350794
0.3371674826453946
0.45731318061321713
0.4904519873087041
0.46889780588762264
0.5149836201993051
0.7167902719200072
0.6969476759710715
0.5491235433859499
0.5403158169143133
0.5454203528747184
0.6641515214550424
0.6769956866674157
0.35606167224354834
0.34716174263792193
0.7071254071213996
0.6859949002775634
0.3371662699355501
0.32935054322023344
0.42012014326529307
0.4103492891024327
0.33024660855201127
0.3229613106700491
0.3200788199651784
0.3138671919934128
0.4888293860360368
0.5121911273036155
0.3592473253654736
0.37456833780914645
0.34523213806158465
0.5401467318045539
0.7142798122397691
0.6929092726605738
0.39751358193153247
0.6458663489767831
0.5601698512927623
0.3176096987005919
0.30933793476402954
0.3052206551141637
0.29990885073088924
0.30530922821131357
0.29614643295811677
0.3037562496700409
0.29476671104845337
0.3063881630909385
0.2968891023885165
0.3119225598940401
0.2846760793445617
0.2906402086350355
0.35712208689258046
0.368238895267059
0.26963392680852716
0.27694775078188066
0.3473456638853385
0.3247079645290946
0.5177007318465072
0.5102347315865262
0.34289128446563444
0.5642673088173971
0.5687095279433702
0.5317190928530431
0.5027426372477901
0.4866266508917933
0.5054025893203666
0.5233988415242732
0.3705579674489194
0.4003745036859173
0.5173356055636437
0.533529260547606
0.5121037704724707
0.29446628268423264
0.4431846756248284
0.44067793199861727
0.3398234805364607
0.7183317524881193
0.6972096885379673
0.6738227699490955
0.679291256262725
0.3434958158413009
0.36215589663227415
0.4246276465175788
0.7373848798877163
0.3762759734603214
0.6993515770239851
0.6820904099553656
0.659796936191416
0.6639289373195691
0.641891369495806
0.6463614933531657
0.6641908972459499
0.6473811864703989
0.2598114211203009
0.2628731710105572
0.287093873846732
0.5881903619305433
0.5961301325046938
0.5264976378730707
0.5055380178936352
0.5101761742150277
0.4942773465533251
0.3978886743715211
0.40786267009707217
0.38895688727081473
0.3806145536867056
0.25689651878032954
0.37457930901702224
0.34344736580067897
0.5229563817151163
0.30812244338962774
0.3535484086566864
0.6604236708159823
0.6456563160493783
0.3968898528687739
0.3868993781446556
0.3365670059997703
0.3426234906696034
0.3708412667653376
0.38389577547301257
0.3004500898777272
0.6974824894190423
0.4011724133667395
0.633132784769003
0.4184377455716188
0.24565920670088653
0.2512175014080322
0.34645375496540143
0.5235543615238979
0.4954153470897186
0.5484708870790362
0.4025930140963694
0.39536720294099403
0.4068699183120079
0.4031413956038682
0.39412921889972086
0.4017382396114109
0.410632219258785
0.40778615092439485
0.4179879019034723
0.42003845949686275
0.4252918633466336
0.42742825039908366
0.43373460328765806
0.4337656216892585
0.43033424563710815
0.4379298694921934
0.4408035906908232
0.39652003590510426
0.3423392646637968
0.33803677172758173
0.347380966624261
0.4448093443427107
0.4453601907531255
0.4419504906624152
0.6636440753576034
0.6717048208354212
0.7043486607712164
0.7120467369771704
0.7463083557744928
0.753022852644236
0.7172291411708588
0.756109111190395
0.7184657889689868
0.06424613520737363
0.7894442380446484
0.7819049988974306
0.32680714910179465
0.4527163253927308
0.4489603546683953
0.433828837754838
0.4295261269654336
0.4157221059869951
0.41117977216003715
0.42453003344175394
0.40604355918457236
0.41968956634342014
0.4000840441110833
0.4134083145677179
0.38855238763399
0.39838719044128934
0.403106899851178
0.4331310205713683
0.4269045886534796
0.3385260420041029
0.2737245318679215
0.16920528454360995
0.5329639084919157
0.4615840466718625
0.4561505533804204
0.22766467437035823
0.25074691755421136
0.6358663003581206
0.39663939161774003
0.49606433748009704
0.48110045501603793
0.28761614932308505
0.518930798946923
0.4983942183631929
0.21839099563504075
0.7531247425365512
0.7136285573753861
0.48576304626109273
0.4798321936368173
0.46736332027443184
0.4625515473618763
0.4736775893960181
0.45665909970582935
0.46796753247513745
0.4506043730845838
0.29090527617123246
0.44154338599921367
0.4841271316156908
0.4867967267872934
0.3676871989966714
0.36506876722338144
0.43804469188500483
0.42400284092875573
0.616723395114347
0.623320351128326
0.7354878731673323
0.31279376309907014
0.348388821504599
0.4299264474580899
0.49410501927221717
0.6184144869990612
0.4699194617575632
0.6308480789789693
0.628974887648911
0.6382421538326474
0.6228888329508233
0.29767766954181446
0.2988897868250046
0.3948924823550559
0.42103045595584926
0.5767938451263164
0.34864940280506224
0.3574993551810486
0.7539370069063591
0.45097888021660637
0.48929626188465075
0.49636644876497105
0.47698330716117615
0.4629866972029121
0.463078665012833
0.3105270830028713
0.229817174031207
0.23760523554991472
0.26491158871331044
0.4226746658404956
0.42153091422287653
0.4291258950693452
0.4220006971968395
0.44618654860549445
0.4483101385854304
0.5111177778910009
0.3827426623149734
0.40374582555057753
0.39944356686930993
0.3750973842051789
0.39164501524213413
0.38819283233939855
0.6799738913933919
0.44112456329184885
0.43449712510643823
0.4439781850673997
0.42887446989668
0.6148598196726248
0.6108167314575023
0.6136098569894339
0.6004940025136036
0.47541845464573956
0.46932744800185644
0.82511406050071
0.8145439005512273
0.38654624685111444
0.39140631209491616
0.6046736806239389
0.43579835646412907
0.4212564411675097
0.5362657983545275
0.5364776001291514
0.5499100692665196
0.5449897383780256
0.6466041918812638
0.22728866286732738
0.31874598978560453
0.3263421741239968
0.39088134031084615
0.4051174182322994
0.394055818814986
0.41976210150283233
0.4075100724134612
0.4338237912974396
0.42110551545208214
0.5189376522985096
0.4199481845363614
0.6107667625525356
0.7564721193900115
0.7731194754275559
0.7753215503699707
0.7474730263213594
0.46980920732183246
0.5971029686089935
0.446156540800257
0.4401163223021504
0.31047266187009076
0.48601486384908066
0.5128482676173973
0.5045461385798397
0.7929970304144315
0.7082565028092108
0.33993153863008907
0.44620144721555793
0.44890584896215757
0.4456746196187143
0.44625444971978795
0.5466386400121915
0.6741089394576728
0.4698006803232466
0.5141370000357677
0.35740487403060545
0.5156017483378477
0.630904505712403
0.6141538224068138
0.470294796816465
0.4764601315950899
0.3588598765949883
0.3688095549634798
0.4472007548242908
0.4347261546414472
0.4077848575006138
0.4208162524894789
0.4464296277359779
0.4321654129494083
0.45523955494497986
0.44070857243087713
0.4609841423549108
0.21553655038659986
0.4768220311333986
0.22448225186981674
0.33896815531042485
0.43730104459094093
0.46501970880034976
0.41538738468100017
0.5013861459059002
0.4449493013442145
0.28731628405731474
0.280335682934938
0.4523117848754795
0.7482671324788446
0.5313286388009214
0.5849581781767715
0.43636105338589193
0.4067398921135999
0.3944680723000623
0.4095272046735413
0.27150235240189463
0.39812850539012146
0.37391279405258426
0.8545678085822105
0.8414995267652153
0.8032671127934565
0.8276494482442216
0.6281431131305459
0.5981716447604144
0.4319363925250259
0.4380576541850337
0.5394239043334702
0.5723847890065323
0.32927484868757767
0.42764243644904104
0.413764141184599
0.3275181818503333
0.6082270151954489
0.45967980444244666
0.40762988253355553
0.8590025141751441
0.8427108757295876
0.4550172703205448
0.45950022878953384
0.43732662012239576
0.312184024885741
0.3213453833016075
0.19934264249188866
0.7877452466363908
0.4134848916165661
0.7398532301615084
0.3439719503277088
0.3313627007936979
0.293788351704746
0.5890530407918296
0.3482352273863747
0.34207168798110715
0.3472842450343877
0.34203759497475994
0.3456238041365804
0.3372858098669515
0.7915859607997225
0.7935588311660889
0.41321267745345636
0.780234191373175
0.5853581225070261
0.5855954930922889
0.36912875378199084
0.39811905943737963
0.37595830585259044
0.46974525794164307
0.4568978501295495
0.3957867787626025
0.37937455981087237
0.3774200175195758
0.380844564427743
0.35965912029938324
0.3970242371524748
0.49679205655704795
0.503626460347468
0.46011839288593426
0.8629611820872262
0.5244248133263473
0.42392681011033206
0.4138840636003324
0.2773836291117639
0.4175264198497587
0.45115986939489466
0.4480516590518318
0.3317280643552582
0.2759308674195002
0.26890219030454404
0.2746409238139575
0.32993522809024883
0.2093538338934019
0.24261750818898897
0.8663049768664687
0.8472478382444328
0.8203385678554129
0.5996088915936837
0.5983615552139794
0.5853828689297182
0.3384000811489905
0.3347961788609411
0.464983044677145
0.4507431762953509
0.44831703092607955
0.4368704487816491
0.42199660849407394
0.19719705529372608
0.3365140239076685
0.31880245281877867
0.3104194798185031
0.2930136789469158
0.29281201793651906
0.2976840650541394
0.4863437589914545
0.3761559219105274
0.3708975212563159
0.264781750483364
0.2573785331770822
0.38664468987254375
0.39042454906488894
0.40307891039801996
0.4036526854117855
0.3946066677901837
0.7042038877238012
0.6760845361435273
0.7327107078964763
0.38393497455516046
0.33981788138866076
0.38503811368325186
0.48099331516950594
0.8067257055770317
0.4142361041608687
0.554608973018503
0.3100565605410145
0.29317683666299815
0.30793355843234016
0.29692280511763186
0.3098829878862188
0.3026362761693121
0.3153842417400315
0.31026943842799415
0.32268715915249396
0.2839037442047165
0.2989320470562843
0.778476340240737
0.42466117188432095
0.4555748294627956
0.4406220924606172
0.487352133480311
0.38689357504953537
0.2758605770691213
0.43831430451435777
0.43333406831761884
0.2321943689680898
0.24651130167352925
0.41351996197982804
0.4608444192573505
0.4677600197490248
0.411975373442735
0.3983785029664082
0.30885734814097504
0.1817517657236278
0.406497879477492
0.38509798763656045
0.19482188259146907
0.5841124899386615
0.5688736046360905
0.5819476992858212
0.5547257496875985
0.30728897715638914
0.4217036889966912
0.2900051708535789
0.44359517453636016
0.4223638344573627
0.36357409171386146
0.36018464918809134
0.5463566746768314
0.6738134532777149
0.6628015248119637
0.6748471133008862
0.6578428170021849
0.6653263210060304
0.6859466206259606
0.7145964339202007
0.7731413701480433
0.43356765991943924
0.640373000725463
0.4157215511985758
0.3886175923460425
0.37970054082063825
0.6492269296823696
0.6386133126262962
0.6334337808924991
0.5559956484050613
0.5589769988565684
0.5852742767073141
0.6100972478294197
0.40408663124022004
0.5587402865156229
0.760496711135076
0.5830810106135302
0.5763186732762973
0.5673321029298057
0.5746784670476872
0.3874909376947901
0.485289444825999
0.47686452175226846
0.49438659380265015
0.48669390773054594
0.56761462523003
0.33884200465136116
0.3209757210889859
0.44512481870709053
0.46558613469966165
0.47789216818702585
0.8113954551334056
0.8182229851163936
0.4938071607663192
0.41689533191698797
0.3194417461648202
0.5542607418405319
0.5467587938864127
0.41281951470609984
0.39587968030781673
0.5395412291444622
0.5955313424283781
0.6017127825485903
0.5566389551444192
0.5725028963853527
0.4852150891432132
0.8828018171286744
0.43092670622334056
0.4372900875289432
0.45998505991030575
0.5236451766303462
0.8855152225157304
0.3883903272311218
0.4356314837609372
0.3379992901574653
0.41274017241488653
0.6319119434880841
0.34166517491034687
0.5132739658905512
0.695260601674265
0.6733697871005376
0.6970256522914214
0.624521410744985
0.4430711388513155
0.374533148314561
0.6086211585631907
0.4126147071637845
0.42451881201221736
0.42072836911570904
0.3921887937227459
0.3739220022438007
0.38373735433677614
0.47264802024040176
0.45355741746901634
0.5924751267957274
0.32486981526539804
0.3313108818726858
0.3281574600017155
0.5827254982462194
0.5312273971817294
0.4766247546849959
0.46881077390273296
0.45294636565784313
0.5004755595377022
0.4979410603977956
0.4983062668842149
0.44046304689398746
0.43492412908483336
0.4407458649957393
0.42839958316480264
0.4321334288348464
0.42762700355795485
0.5410338068598353
0.40421890776560854
0.42132376383807074
0.8642288131328224
0.4946124756642164
0.4695158827795448
0.46339526863846625
0.45492146179247733
0.4685898516684997
0.4591378344377236
0.46050743747022477
0.35040419196299805
0.3484294056400159
0.34419787208279745
0.34599898219104264
0.3510245064208322
0.34629429953864427
0.3519362645893828
0.4212992338345424
0.34754719453837674
0.3525718659223418
0.4739129637422264
0.36654054066397374
0.35855237830842657
0.3434648099516553
0.5805581728070954
0.5964044839766925
0.7041231323674769
0.7299170985728909
0.5486432670758461
0.2939632148743013
0.27246657812914904
0.21651345456828217
0.2480911822006073
0.2789855580490098
0.23782820524053241
0.25564124294406093
0.20599460673889244
0.22860677639363694
0.18752963816342658
0.21826963468561078
0.1911048812740508
0.2158494665996952
0.19853456711438439
0.21762600098777732
0.20868004648436872
0.22390302333930578
0.21828986886780566
0.23210615712865867
0.22927334405640554
0.24134212874360136
0.24046011664822287
0.2515163728046956
0.25154322834077314
0.2618771632278095
0.2622365167310782
0.27206250161318407
0.2640602494004641
0.2389599577443998
0.24209005536433062
0.2186831467246195
0.2748174533579982
0.19203415869689722
0.273461408964316
0.28213386604984914
0.2824863078139087
0.2917090946127336
0.23655689001729788
0.16574173417035135
0.264793590248246
0.17808024460781854
0.29320128442237525
0.30171038802140354
0.30035804706191416
0.276682559552983
0.2718000247808848
0.2845811216413559
0.2960277913875717
0.28852475814612555
0.1947688489522792
0.15206437168014375
0.3095996860853253
0.3088933868855801
0.3010253826922192
0.30967978398921553
0.8924623053624159
0.8654045077743837
0.4399578412573353
0.7438027823350525
0.7741895587021983
0.44469901173932463
0.4599106928572643
0.3784773660513959
0.4466805130633722
0.31170928925995106
0.399649802324281
0.39632190500575265
0.401462053540051
0.4277530039451078
0.31947130038832416
0.42507656190791765
0.42674115502270016
0.3030072826989644
0.28035805633208355
0.31352187421123945
0.2720289227079578
0.33682889692753265
0.3275676047267464
0.3346060351633592
0.32982595799661496
0.3580064672525201
0.36735250294686006
0.35323109898089133
0.3624938486089112
0.3483969067397816
0.35788909250486023
0.34417314932626103
0.35330332451986374
0.3675784678608931
0.3614776194566573
0.41806899941085013
0.4041226608467769
0.4076961506962459
0.3914273552214794
0.34281100235016915
0.2531222400463411
0.24677249816625862
0.25048881579420873
0.23989949774736036
0.46998154006081544
0.4596391241407255
0.481926514958199
0.33693957989301365
0.29738567562490553
0.2895774804881554
0.6703455414630444
0.4422463029415324
0.4228779065529258
0.41064966568705
0.41732706936683145
0.3945375689394941
0.36617601506988895
0.37031262580244095
0.3418261969749759
0.3428299051203391
0.37977394667006203
0.47593107674140156
0.34343874533574464
0.27380702765854775
0.299721867133046
0.4438198081201827
0.46507786048913924
0.5800933608093003
0.5827662413585724
0.5610709099451741
0.49313276413107443
0.5330728015620182
0.38239914521753804
0.16159800224354628
0.161676079888176
0.34114655790604403
0.5509891288656514
0.5789272423540675
0.5882841160900135
0.6097531225844062
0.5027835920452216
0.5635234175582781
0.5782867736373194
0.5630464004676158
0.548295368437026
0.5524732157840377
0.44605169577613607
0.45624272227329143
0.4604681065714639
0.4523793981113557
0.33662017728084187
0.45256254058453665
0.4500207552708518
0.7373259385548467
0.23460355858670343
0.22612064065194326
0.23508960334554702
0.22139147328443445
0.4131448126844358
0.4448515004807348
0.4534472602707824
0.5716814719481296
0.36637922732009787
0.5400776379184155
0.5253262813209646
0.5173873443921112
0.4999458692799411
0.49711339922227027
0.5113413814386922
0.48919471094908046
0.7584680027317644
0.7518163061755793
0.7113653859599745
0.3185343616385878
0.34234523770422826
0.3138595632394419
0.3123789595248167
0.495336524668466
0.4775556232872656
0.3896256409419799
0.4612192935765638
0.39709060073105057
0.38044699747073035
0.4122890000438663
0.42689810983977733
0.5688431698510859
0.31151648184610037
0.30878761950426387
0.5930286207325052
0.7604470031368713
0.35841296479707735
0.3412949524445025
0.36490726444656796
0.605938710310243
0.564631588419834
0.6466111799130159
0.46986653240785753
0.5781342835225171
0.4114295913692937
0.32101853426187343
0.4427584010159925
0.4537259401121681
0.4770129596877685
0.33441832517567055
0.3064704790792511
0.607989693632924
0.5987417147808687
0.17429225214044786
0.8483689829198828
0.8560793470923425
0.5866574964074399
0.5988849186939036
0.5863696203583029
0.6118085667007
0.6078576223841401
0.25737830239855247
0.2663298637727202
0.37689717275043505
0.4743876650514642
0.38471479283358373
0.5879866249653922
0.614279333909841
0.6196883661950785
0.21321710955608505
0.20633648124624976
0.44567295001491286
0.32539385650311503
0.3213545608796866
0.4982290982258174
0.4351908346304626
0.41474352119418606
0.316582440512947
0.8095417316588731
0.8253276742131979
0.3594926506387513
0.35296857620435107
0.5953074586642295
0.5623709263253825
0.3397792311942453
0.33139430937821973
0.14038339154094945
0.9043685043570215
0.33898202535683103
0.28641570333759125
0.2893379339406092
0.3550341789152684
0.3402569452647946
0.29247193695268286
0.2819845430155189
0.28640918289131945
0.27668189857959385
0.2814170355876684
0.271043866918431
0.2662449268117198
0.26084105726850526
0.2554784715923036
0.25073097025369706
0.2778920464244449
0.4999988199175218
0.3442975482839352
0.3537050548652739
0.2064079164132273
0.1334485207438468
0.12597019665872647
0.1637129151063445
0.1625418992557067
0.1341224788300062
0.11090901666353904
0.10519553495157731
0.33906895652173297
0.31925344232994557
0.4324866923687321
0.4021311883571221
0.39826443397829214
0.6471492268768997
0.6607121634042369
0.39198346523528577
0.3964295759923949
0.38568515341697973
0.29607824391516896
0.09042756589918481
0.2562768286975557
0.24606927115636934
0.24005222505282137
0.23594431740830177
0.22939710440486488
0.40771742142918127
0.417207661149732
0.1095472188128118
0.649267142778598
0.5482486917534366
0.43781835605080854
0.3159217172351227
0.27882364744363913
0.2656727357998752
0.34042520918577157
0.5115467750456686
0.5646322218728793
0.5464859221739452
0.3915337981227768
0.6211957050818205
0.6385142485813587
0.6524572541975893
0.6739050326096298
0.419986462444207
0.4497360091858017
0.4239435396036297
0.40374368484475276
0.3766454706944535
0.36547513631107387
0.6799352844853612
0.31685980013006126
0.22714015236139456
0.17860054984580734
0.1762288011231777
0.19067161966653898
0.18254370971072317
0.1962029144885544
0.16682009938872416
0.20556117303186608
0.20859279695550445
0.1775196479288109
0.49651313008002007
0.2164047786659717
0.47544350995975243
0.3077110078461103
0.6389785135759138
0.6416081901087114
0.1605551537404366
0.14977984826228324
0.40249179405466107
0.703311877130367
0.7109877283734893
0.7055015703111553
0.7218110836061201
0.7115548486899561
0.7342101752509903
0.42653889733785133
0.42918508272283
0.43309552921990396
0.4282097570018165
0.4315059455827866
0.42224448129808484
0.42870498020010334
0.41916993041305484
0.4106183527638327
0.43669791848901385
0.40798521664290793
0.4379376795916788
0.429043040866819
0.43945263894209935
0.4198949701720959
0.42804827457572336
0.44772636096563545
0.437246628341656
0.4431518740124615
0.2491878567936473
0.22257951157832878
0.3121090728285596
0.17962491439707137
0.18507469558276446
0.6630630642058655
0.41967003128765723
0.2753847905200811
0.2610083072193457
0.2588228011650727
0.26484903555772904
0.279616096457818
0.27083429593669966
0.27696217327388767
0.26685206671421896
0.21304890209684488
0.38456787624694594
0.4157892813056836
0.43734056462722354
0.4542596939878834
0.4251495403012706
0.4490451596367788
0.350512916483713
0.24279020951986754
0.2453817411741466
0.25872796305810813
0.270035221603533
0.2836520536531629
0.23061077741087924
0.49968672160166167
0.3413007688480646
0.34242902511268775
0.1313300631953156
0.532059585436429
0.7329449289941331
0.33276947626770326
0.36236007957244587
0.4176622449387006
0.4055182381301696
0.6808046353259585
0.4791183487489749
0.4600123753911131
0.46139784613039847
0.45286747709915975
0.4535300391462129
0.4427197200459645
0.4413150040840493
0.44907821066844095
0.4251393164346874
0.4492889946916969
0.44192413156474447
0.4670378851927337
0.43264672628426426
0.4516051041354155
0.6448920164932397
0.3521697266635357
0.4134330619641605
0.3060271020087256
0.4148870320465421
0.30537666929090634
0.28759777973036954
0.29884103936221995
0.2822525313865765
0.2643541060564724
0.2636586906198973
0.27739366354482126
0.3116582528800121
0.34397240848649885
0.29849710605890606
0.5288873282120211
0.45131319638368905
0.5811590129510233
0.2625496453494082
0.6235218030109868
0.5139456419732713
0.5236814440506788
0.24278815222022898
0.34260859900638446
0.3843699245886862
0.381716953838165
0.3780257506592158
0.360511052669973
0.2513420276362363
0.8005726257041603
0.6636256960594218
0.8475189232505185
0.18813171628641157
0.5072413512465512
0.5366152209520865
0.6638304659162817
0.7302922320169793
0.3245707138783549
0.38147445466929203
0.494112977765934
0.2841010188718435
0.28995948096463525
0.28177241732460223
0.3355823632733206
0.290055205455042
0.3294329835212166
0.2729210796017855
0.27620805836462536
0.44379121075345707
0.44718506978612005
0.3989724263192265
0.40735057812108266
0.2667384924657242
0.4966809959068889
0.46406649790568777
0.5969202454316314
0.4274673750829803
0.2002647693438315
0.42833177920176835
0.2263244768763098
0.5392384017585697
0.4508459373263917
0.4069553459967763
0.41654988585050357
0.4019055488385442
0.3885367812333474
0.3221832047184319
0.2724973492332722
0.30616323862697237
0.3558176975111548
0.35513931334621174
0.4397137791414208
0.8969075036181636
0.8649607971046805
0.8862429698067659
0.858287044062167
0.8421816391313858
0.8207465531851521
0.8302468626056642
0.6929580780171756
0.39618505872990517
0.36745130611286503
0.37369616282213075
0.42731183540764545
0.5381083086659254
0.3773730667013752
0.4586371079583758
0.4654835676429225
0.4516805763329284
0.4521682951708838
0.5033241795699893
0.39888722520257053
0.3304944465236224
0.3038991264495795
0.4813174113775571
0.4628947669286277
0.3284912509696661
0.3700543946825241
0.35951408290299386
0.34861928683629545
0.34623260191735405
0.29635787084099735
0.10330539619642005
0.7917639031878542
0.7761869094748681
0.761022423426897
0.7863838822474264
0.4193850573202407
0.6845678507668312
0.17781363167958106
0.2052170997284427
0.40077362293420954
0.385380043743577
0.40149343082557026
0.33769763701761596
0.325253865519467
0.2807678925697405
0.3858379654208737
0.4820694179570265
0.7903933819111751
0.28788762982815375
0.2838654629018087
0.546918974989635
0.6798296134533299
0.5343289508083493
0.5561784971325608
0.441097236078938
0.372549533459911
0.3640392202255703
0.3545483301380541
0.35619018013266285
0.36084953350179466
0.36662393831192047
0.34059669279719706
0.7560863668333908
0.7405948142473893
0.7582453720932357
0.7749111215077469
0.7966918115389499
0.8068705618425094
0.7500402377325378
0.7543726933144241
0.255316480209242
0.3485291310543803
0.5783068378013688
0.8803528970049418
0.41381101480224525
0.8739788020101634
0.8978633960515281
0.5619766623130549
0.42455516059391535
0.4106405198477837
0.45919421474413635
0.3285320808096011
0.4304664306729521
0.6256076867103862
0.3860574015966665
0.3846839334957949
0.3976405491186205
0.37206031240174425
0.3971253504574371
0.3840629921829282
0.372013883483764
0.35840212913650116
0.4211223671655289
0.4077706482682108
0.3969351917803503
0.5357077407500547
0.46945802329422126
0.40671165920755287
0.34648921018105855
0.31161020641014714
0.3626616858519132
0.3469066116768814
0.34552729503905033
0.3527483713470383
0.7713522909032625
0.8117384297793218
0.8370732607069886
0.7886215748750433
0.6398758948638583
0.30423883374097255
0.5126080041424206
0.49167029763582326
0.7933832317598266
0.5508189857992649
0.4209983126226468
0.3833188785947148
0.33537701579305684
0.46708620924021677
0.48578272952983775
0.4319511070713991
0.540778700237647
0.525211598575662
0.5341006059413718
0.5576709261499366
0.3933624336156659
0.5144490597025551
0.4032572799325584
0.31848043229839906
0.327608100554234
0.2888093261033278
0.40725000172264025
0.7633978560405169
0.2775610060304793
0.6047766269940753
0.6106881356801808
0.6452261462199038
0.6138098405535312
0.6462412263467742
0.6780220103661043
0.36455265764579015
0.4414772607926563
0.44149498226535716
0.4849943445289769
0.42978542886081805
0.9082249704673442
0.5116432860861726
0.5829453355640597
0.68964826638503
0.38211019647089445
0.43921843639701713
0.5003051355404515
0.35285925326119283
0.049585031556240014
0.7181225353065358
0.3888812263080025
0.42526349768813393
0.42709089515932724
0.40517502563767827
0.4064985552929474
0.38442941024253596
0.3927436015204159
0.629263645187611
0.377608473617325
0.4586848541954843
0.4764299454293398
0.430000049480804
0.48721707514282653
0.5569921228149017
0.6995465199211528
0.3124904979688238
0.4669510962398129
0.44991460840144754
0.42734096464814275
0.38797312534171174
0.48172994592844626
0.3426529694319034
0.4116588638224229
0.2902247221166276
0.2957736954622322
0.3490717825430107
0.46322578113927904
0.47078387694946716
0.4539902057486777
0.44406824802598444
0.6146499031668854
0.5356384098291488
0.3181860606790679
0.3295050112815477
0.36445049299678717
0.48712535771440363
0.3568084460124921
0.4715517004596351
0.7384314235209252
0.43841770403407176
0.3353922040042591
0.3478232971844572
0.447648269168682
0.9149305379804744
0.31894776978235756
0.4244473472171298
0.4138072281467643
0.4389038301536327
0.6942744053884782
0.6638911535919068
0.6536212580929788
0.3936762306649037
0.9138830518178364
0.8227938623546049
0.7108784497621777
0.7939842833804883
0.700316802887313
0.7382411553900192
0.5268018493239766
0.41679882683094455
0.8741003320755001
0.567846072953656
0.34136655594857673
0.4485799256673444
0.6105901261712464
0.6387693674020624
0.4105337936601784
0.46504259964030314
0.6751711585458694
0.3871609692659864
0.33634599664688025
0.42282461517460657
0.40551644861515396
0.24190175852465629
0.3724871091406095
0.5133611200076332
0.20001086814954835
0.19220300371073779
0.5516847056571655
0.4732817752726924
0.5198679571844814
0.3965725334802557
0.8301365422135892
0.32872025803470994
0.294763199443482
0.31900929225367375
0.45537180394273025
0.5363185265559205
0.43027166205690137
0.08980171287238681
0.7337709013208312
0.6577194115938927
0.41170278810003
0.5639936058262702
0.4200069724933286
0.5446710241233447
0.5772375069890424
0.5351802622011254
0.35376455630519504
0.42601576532551666
0.8979623868772658
0.5429924321131667
0.5251712616547228
0.3195959813265289
0.8243288772354435
0.5014509029268156
0.37973550513050247
0.4448723591652637
0.3419567688078072
0.4031727187518753
0.26733706923482903
0.48255115417550004
0.4521738060318306
0.3414611789314789
0.655308968114325
0.24803742478208402
0.24376302637096287
0.8110781422779375
0.5547447192989685
0.7719934337011534
0.6889990853361357
0.42259968007718657
0.11639071808612467
0.44223313416314747
0.5626463779674888
0.5528582898385481
0.22197659381039375
0.4465715511694195
0.6177469597250402
0.15425745137941516
0.5993068126724265
0.40065111665687464
0.30531938816826193
0.3582330117589363
0.19166617524138943
0.21365469336865642
0.3908261997393837
0.44960910195987985
0.27967853538532444
0.5315313995170863
0.43118552702289525
0.5897123205711636
0.5618801276440122
0.41426717248334616
0.6465869251382741
0.6820596275101175
0.3302122252075947
0.30429962024810236
0.2324742786667389
0.3181262194001541
0.2522489085976222
0.5680445250312032
0.6664536804956769
0.11930529783996104
0.14416592316451887
0.16154887041680852
0.3775146736190695
0.18238902486852968
0.41125522975537354
0.4405854994003471
0.5054446997072162
0.2749167435054386
0.2962460425061987
0.39793064965925423
0.4201349777856006
0.35239081225072266
0.5631864951811328
0.4091728933091469
0.48507312492345495
0.4694912066852577
0.25579548525615803
0.21511469075762363
0.4495530337247889
0.46202046990653767
0.869865956040617
0.23251004790862154
0.6305066367264063
0.329079838366523
0.5971170440192951
0.43367281455070866
0.6514675201665083
0.4256813210770329
0.3721798444948895
0.3367743280116097
0.4919379595510857
0.5063547428624925
0.4819206949505386
0.8273345843462372
0.28779091604127527
0.22263108216527291
0.48904200451270313
0.629499614098251
0.33462118480548586
0.5492375739902371
0.3756015552620612
0.5682805104950469
0.3945323414719906
0.41776206087034035
0.23471894153165399
0.4569094945532938
0.046895567162516034
0.30435707254217226
0.44911957521572604
0.3681516873293772
0.32804303902275733
0.527258182971771
0.6152746710212341
0.35520440881704135
0.28440016929169615
0.6244080780668432
0.29207464629247837
0.4583826392051091
0.36999392082001853
0.4387686029405193
0.22141437810603035
0.2638718124924508
0.3970376568455928
0.43097638292654555
0.4166189469551364
0.2534008020383594
0.2762169807105633
0.5719443986735555
0.5879456086385639
0.3257000397247917
0.3149099928823624
0.25297755133416094
0.6812120912410619
0.3599118079417538
0.36086431100469785
0.3903351980861028
0.2665235765699467
0.4396074231881973
0.5229636587113221
0.48205850876853407
0.4639533943950281
0.47978245789012497
0.41535215309687434
0.4886835618789734
0.3591360781387906
0.234725754091915
0.3460037329387444
0.30165420462251175
0.36300089890280474
0.31394450462714796
0.7623289809952102
0.3469511893232692
0.4254940023216379
0.6584259896057131
0.4853578055630405
0.28410699948361384
0.4000908314170173
0.33783491787540104
0.4597153594131048
0.34922713868298116
0.33568701901921144
0.09601827210534242
0.43099716910946784
0.5498052063404358
0.34133709364506126
0.45392328961874173
0.3881438942193308
0.5140385072286947
0.29883969899614404
0.41339845603355346
0.33705162604029
0.519275035089796
0.49671468540223973
0.4798880608585165
0.30123124298135123
0.4893535978442272
0.3653210715174548
0.45392131373849187
0.24192118940227203
0.5071063740905306
0.7283723685701562
0.37551576925862973
0.43927383449684765
0.5065410701177896
0.29500759024173767
0.2927051770658769
0.7142205071326342
0.3245469877178124
0.47270735926045154
0.3146730394842367
0.44111574808163373
0.35120864722950623
0.2108627439413601
0.5053225194570059
0.1357373225016007
0.31202399267501424
0.5756093845728383
0.5336793681330956
0.45936399559032326
0.33781542494771266
0.37295166918438766
0.45727542648311387
0.23306566014541072
0.44702123354318374
0.38866256053593656
0.4478015299039214
0.48198034023563824
0.35820943510987535
0.19482317336480687
0.5852678843836006
0.6110294155466144
0.2769004912051251
0.426184756396259
0.4034276919680579
0.17029048271402702
0.263416575156289
0.15061030156296157
0.24717493909850313
0.43160720604108366
0.4476269195098985
0.4225071507518241
0.7277705304881245
0.3209157032682983
0.8032138128657578
0.3608869355793647
0.46335605672709507
0.4569546706421627
0.2857839273470711
0.19221552417708754
0.20473392142429822
0.3898949045862718
0.544846183404372
0.4773690529479203
0.47374712982757217
0.4468205552619812
0.45791515093190677
0.45030981750453003
0.6320505422912912
0.257165637382389
0.2454388852267268
0.4188257515868166
0.2625305588994347
0.3258317992770022
0.5270010423840635
0.4794850452845225
0.28011580182275725
0.46209221809445195
0.4119460855001712
0.4216546247685813
0.40563489923344476
0.43339318752808514
0.4057924723070708
0.7963783974129502
0.38730842637257956
0.2444464877931801
0.3607626100117008
0.3180536830586165
0.27108041373581543
0.3969677501175784
0.47721997050529597
0.3520220143713263
0.4130821993533565
0.336115091338247
0.6484071006319028
0.5716818251394464
0.24985170038183951
0.36047482237280526
0.3491575881787265
0.30357710677995525
0.5590123327350924
0.32846501736635814
0.3627323353804973
0.49397105988121087
0.28123697340329856
0.6096923696501312
0.6013857570139363
0.36365094160238287
0.6716356406723621
0.3348674099744762
0.5617958763868561
0.44054078660511253
0.4907681050674622
0.35784937882845225
0.10374214205672656
0.24544082169000433
0.5768422892762765
0.2919262245587048
0.21574897538485738
0.3986039281852063
0.4065419994600308
0.3391777229371428
0.693315026135963
0.6758005657652872
0.3883386025085747
0.6151680659247672
0.28343103892897725
0.3629523592970134
0.4379410680200697
0.7171359371774523
0.4257000570241062
0.4476816107867257
0.400368081317025
0.32171707387863024
0.756831138511612
0.44430959091772537
0.435685091481816
0.3407084808587028
0.36585492420372173
0.42278301700070764
0.4629750425068346
0.5610741430171333
0.22215769248395315
0.435521871066101
0.5498784120451957
0.5982469365593637
0.45417186406265614
0.7515314391805376
0.5324265924566102
0.328337472070916
0.3445303747475418
0.3047089835504673
0.34994849316371235
0.14246968358527776
0.39204777377781924
0.3725024976646732
0.22448006516473717
0.14517874751252008
0.3040541383874095
0.29459037245173886
0.35010466218437153
0.33047650757724223
0.5457052688284715
0.7023437728896258
0.3603173693543191
0.21427509650158696
0.2638120576927504
0.14555601312799823
0.4567453364154309
0.2524600993792562
0.3234558886924949
0.5322104912208819
0.3429972002249285
0.44891393863627194
0.6468919034781064
0.4312147851592042
0.5098034775740051
0.8577766621962578
0.5468785813807308
0.5654764357504513
0.44540020112771184
0.5324992414761901
0.41016384952375873
0.4657805248993433
0.2944328027347099
0.5970045287873381
0.34096745402775847
0.2728633083541956
0.4403834957999639
0.3435756448531221
0.60723358280468
0.9673738236154985
0.9763638849740172
0.47364472863995066
0.1853125985314858
0.45267158668212004
0.7933499382401723
0.756319612861835
0.3670801194196461
0.3355963230126576
0.3413795519329776
0.3450817556138954
0.34755301119254567
0.4204372037354976
0.3010641817099544
0.23824420212775912
0.27341228368973497
0.4813395647565743
0.44223811482142966
0.27280272729800664
0.38987909780423524
0.25180827752930746
0.6223872716386403
0.24643398914183576
0.4222387368122054
0.40874681641279303
0.42566291703102693
0.5374486535887941
0.3286013796330763
0.32168879038657117
0.1598657687535804
0.30188977995248756
0.42232644920152324
0.898163728299272
0.4459581541809853
0.3876646320056937
0.24161753244058154
0.39475536434806274
0.22065739229684114
0.37039628070685643
0.38604398653520305
0.5538455610322401
0.3128645604888859
0.2570839697613147
0.5221872350988279
0.2913460984462326
0.32023060090451233
0.24435873795344895
0.20172970670402274
0.5977510397740177
0.2602198576396761
0.4388610469266762
0.5552441770827706
0.639427793393144
0.3832161700937303
0.3846597133322878
0.35306510346306
0.9134712057983336
0.5338858849568371
0.6344765979582796
0.35321736330150577
0.6125070294085936
0.3599193824694008
0.2968171445029474
0.25332013931540165
0.6567580598138586
0.43180937860587104
0.4065692633541327
0.7600030843214968
0.4059829768018718
0.4322700155724567
0.9291961613106455
0.5712239151035794
0.30146102677089354
0.45194098756024653
0.7122948708021202
0.6738553666837446
0.740174343746394
0.2867846754954248
0.5658202928664476
0.2651563458189646
0.3282574839578287
0.4106111419689368
0.45553064881180183
0.2262759471464894
0.35606332429196696
0.48752315185599226
0.4436912793461071
0.3237255493215078
0.7313452649633347
0.44464678005533853
0.3158777404201507
0.45645971429891935
0.4751918729691953
0.5263917782553053
0.3802877810375299
0.3304334537637082
0.3276471200321812
0.5607576364975732
0.4234074493788541
0.32348927385046794
0.3822012266286348
0.5248298647694021
0.44588179434787767
0.33319149451129754
0.34405076908047244
0.4299107342002603
0.3734725535120493
0.4049074640763944
0.38135976720408243
0.3016923021191872
0.33796851471682937
0.5705749855611199
0.8380140421797038
0.4802440854814237
0.5137854050320892
0.5109920493496651
0.3966292526045809
0.8876303573788755
0.548848785274517
0.42395017180268374
0.43375058631831964
0.3581133033026022
0.42981153266896227
0.4146802312323809
0.38094780087446295
0.32339686008706836
0.38143762971463074
0.34968127087293943
0.40646710511173956
0.7853068408983626
0.4012524942888744
0.28126808085101557
0.43080436465358635
0.6818974319675285
0.3692329565130386
0.43756316451374566
0.4452890798647522
0.15770074595504444
0.3924882039927641
0.3388327618507255
0.14193804132257015
0.16382923091009327
0.08427954894438104
0.26780320098230276
0.29993391317098456
0.4465205195809819
0.4576684286019196
0.6117488659019071
0.43047319103746473
0.29107426816739906
0.36856211982373305
0.8272693790118697
0.45211396582187885
0.3855987830491892
0.4612131798097539
0.3322347140570205
0.27928748085936966
0.512307176850336
0.23473660904367202
0.3856682237712783
0.37945001349703184
0.42751316250974963
0.6267224177238706
0.3417688761325503
0.4489666940282228
0.32211851353737625
0.44756157207159014
0.5112865623360624
0.5696540778074446
0.696946631512538
0.6230233032079132
0.27275468677101916
0.39946166727980126
0.19485187872247817
0.5284286734712139
0.4403138637425908
0.22918120864141855
0.41735268199433684
0.31000560410172767
0.5021084405488778
0.38714674189859044
0.3039390957803638
0.24851563574324245
0.2712524511375073
0.542603693254165
0.42737048022483365
0.20510953060221734
0.44093432481230854
0.8652188220925848
0.4405922035494264
0.2491274621971513
0.3079294428246982
0.28416628904061597
0.7907574102066206
0.36132027108729087
0.364470770290578
0.5629421130729381
0.5014704042538861
0.42733215254382545
0.329848488168341
0.4121782040945845
0.8090412283599606
0.3542594060553933
0.5606864867442695
0.17960568403825486
0.7281204314973249
0.24590706444938937
0.3743179250021359
0.28705837759408437
0.3265455714335901
0.4311605039931543
0.12278061593982113
0.26046571912564753
0.8481783673933847
0.5848529688565142
0.36218110422853605
0.5813068101560923
0.313035038426488
0.625637684159679
0.26481598741044665
0.07198864941522151
0.39732317216398827
0.4182232271560441
0.7377056666640633
0.6755901498004715
0.4362687722225023
0.6041968508085024
0.87930164219099
0.32306004021571916
0.5164636556178392
0.36951894350971426
0.21007526937343798
0.8647677258349488
0.42890737099257364
0.7336538688338715
CELL_DATA 4886
TENSORS stress float
-8.359683196894007e6 9.257269532255717e6 0.0
9.257269532255717e6 4.233340154920098e7 0.0
0.0 0.0 0.0

-2.2191590986282676e7 1.489246742891374e7 0.0
1.489246742891374e7 6.543520690462548e6 0.0
0.0 0.0 0.0

-1.2074767485398319e7 2.6533554635551088e7 0.0
2.6533554635551088e7 -1.175373835410061e7 0.0
0.0 0.0 0.0

-3.371871171647776e6 2.5565283476705346e7 0.0
2.5565283476705346e7 1.5094019295382412e7 0.0
0.0 0.0 0.0

-1.3672816040123259e6 3.0434850455589622e7 0.0
3.0434850455589622e7 -1.3138855752490317e6 0.0
0.0 0.0 0.0

1.3654887759022356e6 2.6019016107583204e6 0.0
2.6019016107583204e6 -3.8134714221272054e6 0.0
0.0 0.0 0.0

7.556193822084115e7 3.486781692989378e7 0.0
3.486781692989378e7 1.9780604191495363e7 0.0
0.0 0.0 0.0

1.4552486471260935e6 2.9683887461397406e6 0.0
2.9683887461397406e6 -5.696485753955956e7 0.0
0.0 0.0 0.0

-7.895210671807809e6 1.1107513194222745e7 0.0
1.1107513194222745e7 4.377626421848248e7 0.0
0.0 0.0 0.0

3.0789010599801447e6 2.1747293928961676e7 0.0
2.1747293928961676e7 2.7044081606193025e7 0.0
0.0 0.0 0.0

-310696.66315495176 2.4424392757486977e7 0.0
2.4424392757486977e7 -8.918071317668715e6 0.0
0.0 0.0 0.0

482851.5618076615 3.7453558707241856e7 0.0
3.7453558707241856e7 -1.4004573442483211e6 0.0
0.0 0.0 0.0

279676.34778298065 1.048186760043896e7 0.0
1.048186760043896e7 -5.1996817953170225e7 0.0
0.0 0.0 0.0

1.0747490523121855e8 3.856903901137364e7 0.0
3.856903901137364e7 2.1794093262862414e7 0.0
0.0 0.0 0.0

102671.66179703921 2.52410792715176e7 0.0
2.52410792715176e7 -8.87792827574556e6 0.0
0.0 0.0 0.0

3.0031562822233234e6 3.9405354697137945e6 0.0
3.9405354697137945e6 -1.9818490252930947e7 0.0
0.0 0.0 0.0

-4.70392342927053e6 2.0350597066329062e7 0.0
2.0350597066329062e7 -2.6467045635035258e7 0.0
0.0 0.0 0.0

-694321.0117819272 1.5993083846609347e7 0.0
1.5993083846609347e7 -3.5223720095124386e7 0.0
0.0 0.0 0.0

-8.455990554118896e6 -344924.2383970987 0.0
-344924.2383970987 3.351346028941416e7 0.0
0.0 0.0 0.0

1.0973665540949488e6 2.8529577359507985e7 0.0
2.8529577359507985e7 -8.179847391906068e6 0.0
0.0 0.0 0.0

1.8864626756064696e6 1.2773580766257044e7 0.0
1.2773580766257044e7 -2.4816879482378352e7 0.0
0.0 0.0 0.0

2.1454472000179645e6 3.699340872874434e7 0.0
3.699340872874434e7 -1.330681120593404e6 0.0
0.0 0.0 0.0

-1.0198012918159846e7 1.0474584308235243e7 0.0
1.0474584308235243e7 2.2018938367312733e7 0.0
0.0 0.0 0.0

-1.7482519593892e7 2.7592562662798323e7 0.0
2.7592562662798323e7 -993251.667931769 0.0
0.0 0.0 0.0

-1.4500406512271613e6 1.4032284759239536e7 0.0
1.4032284759239536e7 -4.6553737671860084e7 0.0
0.0 0.0 0.0

3.2244106693593685e7 5.2537058148575634e7 0.0
5.2537058148575634e7 -1.0163869263552627e7 0.0
0.0 0.0 0.0

5.073190840439518e7 2.6798332473248202e7 0.0
2.6798332473248202e7 1.1192960763937399e7 0.0
0.0 0.0 0.0

-7.012753325338602e6 1.8633099335068487e7 0.0
1.8633099335068487e7 3.0488534865428235e7 0.0
0.0 0.0 0.0

3.0780178337836266e6 3.9315532573227207e6 0.0
3.9315532573227207e6 -2.029642282649055e7 0.0
0.0 0.0 0.0

-8.738685340676883e6 -1.9904332681839417e6 0.0
-1.9904332681839417e6 1.890721482106289e7 0.0
0.0 0.0 0.0

-1.0698288214818519e7 1.2145863608404605e7 0.0
1.2145863608404605e7 2.001712440484742e7 0.0
0.0 0.0 0.0

1.2230662852868037e6 9.72203013955425e6 0.0
9.72203013955425e6 -9.799154449130807e6 0.0
0.0 0.0 0.0

3.1369398275976563e6 2.4500498489655484e7 0.0
2.4500498489655484e7 1.067882479223295e7 0.0
0.0 0.0 0.0

-149113.84364377172 2.171205405599144e7 0.0
2.171205405599144e7 284516.15129881166 0.0
0.0 0.0 0.0

-2.7569775741788126e6 2.6956781555824585e7 0.0
2.6956781555824585e7 5.993311751777687e6 0.0
0.0 0.0 0.0

-1.1327256658972982e7 8.998404534664493e6 0.0
8.998404534664493e6 1.8937417477841035e7 0.0
0.0 0.0 0.0

-82674.51125614066 1.4191078695261514e7 0.0
1.4191078695261514e7 -8.378834334043742e6 0.0
0.0 0.0 0.0

-2.0847303118489245e6 2.6577580751970135e7 0.0
2.6577580751970135e7 6.658412821970535e6 0.0
0.0 0.0 0.0

-6.324513970516574e6 1.7542398013017822e7 0.0
1.7542398013017822e7 -4.8926019087922e7 0.0
0.0 0.0 0.0

-2.5875944873088053e6 3.2866949177360892e7 0.0
3.2866949177360892e7 1.8646060251380606e6 0.0
0.0 0.0 0.0

-812228.1036892198 1.0602180205021357e7 0.0
1.0602180205021357e7 -5.670636472905637e7 0.0
0.0 0.0 0.0

-1.5040653274069048e7 2.842900930727412e7 0.0
2.842900930727412e7 -1.2863969709650613e7 0.0
0.0 0.0 0.0

-2.4530474124168106e6 3.1979587838545423e7 0.0
3.1979587838545423e7 1.7363586434726517e6 0.0
0.0 0.0 0.0

-1.0156553372311443e7 6.717001985558987e6 0.0
6.717001985558987e6 3.0268626434331875e7 0.0
0.0 0.0 0.0

1.2483655153540913e6 1.2628894652268104e7 0.0
1.2628894652268104e7 -2.722812956634634e7 0.0
0.0 0.0 0.0

-5.572639450067259e6 1.9832653891784277e7 0.0
1.9832653891784277e7 2.8507980479422096e7 0.0
0.0 0.0 0.0

1.4658767308759298e6 2.4110189876800578e7 0.0
2.4110189876800578e7 -1.421078925578448e7 0.0
0.0 0.0 0.0

-956843.1636144845 1.3611033013792066e7 0.0
1.3611033013792066e7 -9.355489734845474e6 0.0
0.0 0.0 0.0

1.9530727070847377e6 2.983942615709918e6 0.0
2.983942615709918e6 -4.702913991497334e7 0.0
0.0 0.0 0.0

6.379407131496145e6 1.9276787504114497e7 0.0
1.9276787504114497e7 2.1264690235496614e7 0.0
0.0 0.0 0.0

-320889.4354732046 3.1833811620301355e7 0.0
3.1833811620301355e7 -375265.0530869395 0.0
0.0 0.0 0.0

-1.5713564175635014e7 1.2592436311894037e7 0.0
1.2592436311894037e7 5.843193012223364e6 0.0
0.0 0.0 0.0

1.9933627726893928e6 3.0411342137196995e6 0.0
3.0411342137196995e6 -4.887031941551599e7 0.0
0.0 0.0 0.0

-1.205983730082233e6 2.9345032717991307e7 0.0
2.9345032717991307e7 1.2680738975716403e6 0.0
0.0 0.0 0.0

7.175026652032674e6 1.9245606231235616e7 0.0
1.9245606231235616e7 2.5598341581037525e7 0.0
0.0 0.0 0.0

-9.04128806377675e6 2.88377085901436e7 0.0
2.88377085901436e7 6.302588273776827e6 0.0
0.0 0.0 0.0

1.1107204187049381e6 3.793337662434003e6 0.0
3.793337662434003e6 -6.260059843822192e7 0.0
0.0 0.0 0.0

-1.7618957854410466e6 3.315618958568182e7 0.0
3.315618958568182e7 1.9545469077329687e6 0.0
0.0 0.0 0.0

7.567875998034541e6 2.081540449016547e7 0.0
2.081540449016547e7 4.887506533775064e7 0.0
0.0 0.0 0.0

1.90986566961327e6 1.1464428601376103e7 0.0
1.1464428601376103e7 -3.0272804103816416e7 0.0
0.0 0.0 0.0

-3.182535320533754e6 1.968200885139744e7 0.0
1.968200885139744e7 -1.327103991935152e7 0.0
0.0 0.0 0.0

3.762810700719248e7 2.977501770140356e7 0.0
2.977501770140356e7 3.2893149070695117e6 0.0
0.0 0.0 0.0

-5.063617482146573e6 2.2789273995844666e7 0.0
2.2789273995844666e7 -1.5924122402441865e7 0.0
0.0 0.0 0.0

-9.664660710037526e6 1.1646255578016855e6 0.0
1.1646255578016855e6 1.9729422883164577e7 0.0
0.0 0.0 0.0

-313102.52727697266 6.995607422996008e6 0.0
6.995607422996008e6 -525144.6185717338 0.0
0.0 0.0 0.0

1.753657601432627e6 4.492125145415902e6 0.0
4.492125145415902e6 -4.5798330916762024e7 0.0
0.0 0.0 0.0

941087.6679412574 9.048803483014846e6 0.0
9.048803483014846e6 -5.16335341295225e7 0.0
0.0 0.0 0.0

-2.0209795112213069e6 2.8835878836754464e7 0.0
2.8835878836754464e7 387384.6987840147 0.0
0.0 0.0 0.0

4.0866843753196225e6 2.064115838370752e7 0.0
2.064115838370752e7 3.997835019125052e7 0.0
0.0 0.0 0.0

2.673564906660291e7 2.0410365056929924e7 0.0
2.0410365056929924e7 5.491505917548055e6 0.0
0.0 0.0 0.0

-1.0986460973300198e7 8.55760121862508e6 0.0
8.55760121862508e6 2.7660019240993965e7 0.0
0.0 0.0 0.0

-449102.4806529209 1.414854664107467e7 0.0
1.414854664107467e7 -4.305131551779396e7 0.0
0.0 0.0 0.0

-5.7892796885841135e6 1.8824240077587802e7 0.0
1.8824240077587802e7 -4.4866954767237104e7 0.0
0.0 0.0 0.0

9.914937872190412e6 2.047632953880707e7 0.0
2.047632953880707e7 6.530728593775894e7 0.0
0.0 0.0 0.0

-3.0910716329719424e6 2.5724314233400054e7 0.0
2.5724314233400054e7 1.449047105503202e7 0.0
0.0 0.0 0.0

-5.855395428062642e6 2.017976827081393e7 0.0
2.017976827081393e7 2.7966887531481303e7 0.0
0.0 0.0 0.0

-298705.76882242225 1.5457676131671172e7 0.0
1.5457676131671172e7 1.173173485803866e7 0.0
0.0 0.0 0.0

-3.669921038847224e6 2.0037554098584756e7 0.0
2.0037554098584756e7 -2.6005902145703908e7 0.0
0.0 0.0 0.0

-964979.0406454499 2.1692053646073725e7 0.0
2.1692053646073725e7 -1.3146157628840366e7 0.0
0.0 0.0 0.0

743700.7037244132 1.6029386718029996e7 0.0
1.6029386718029996e7 -2.1682235976799395e7 0.0
0.0 0.0 0.0

3.029673365553993e7 3.1295596811933834e7 0.0
3.1295596811933834e7 -3.0576626890930403e6 0.0
0.0 0.0 0.0

-8.234281879819868e6 -77695.54673469433 0.0
-77695.54673469433 3.938045880980003e7 0.0
0.0 0.0 0.0

2.111585769823784e6 2.25185971753879e7 0.0
2.25185971753879e7 -1.8990675271617705e6 0.0
0.0 0.0 0.0

2.2642866491681496e6 3.890153756611793e7 0.0
3.890153756611793e7 -2.3182796863766625e6 0.0
0.0 0.0 0.0

-3.424884451916137e6 2.5655436356822964e7 0.0
2.5655436356822964e7 1.5209767112075808e7 0.0
0.0 0.0 0.0

2.776521602136053e6 3.309262245151293e6 0.0
3.309262245151293e6 -2.863441979875176e7 0.0
0.0 0.0 0.0

604735.6299451347 8.65812891102081e6 0.0
8.65812891102081e6 -1.11270276376976e7 0.0
0.0 0.0 0.0

2.9307412253359654e6 2.323834155838283e7 0.0
2.323834155838283e7 9.7935587181026e6 0.0
0.0 0.0 0.0

2.7226022493350185e7 5.4188347228776194e7 0.0
5.4188347228776194e7 -1.2739731144974599e7 0.0
0.0 0.0 0.0

-6.520447765122395e6 1.0097572310287613e7 0.0
1.0097572310287613e7 5.342166934016468e7 0.0
0.0 0.0 0.0

2.208449948381922e6 2.4333672324326333e7 0.0
2.4333672324326333e7 -7.708668678266482e6 0.0
0.0 0.0 0.0

-2.478498111952501e6 2.2139597395842075e7 0.0
2.2139597395842075e7 -1.6461514527652046e7 0.0
0.0 0.0 0.0

-880953.0074120315 1.2407265305809176e7 0.0
1.2407265305809176e7 -7.7506077215770185e6 0.0
0.0 0.0 0.0

-1.763811308555019e6 5.770589917494688e6 0.0
5.770589917494688e6 -2.291320811047398e6 0.0
0.0 0.0 0.0

7.3944979835797185e6 2.5336783239983723e7 0.0
2.5336783239983723e7 -4.110251313919134e6 0.0
0.0 0.0 0.0

-5.179095566939167e6 1.9705226713165402e7 0.0
1.9705226713165402e7 -3.611723090172138e7 0.0
0.0 0.0 0.0

1.4002458236783557e6 2.962979990113548e6 0.0
2.962979990113548e6 -5.677585543757256e7 0.0
0.0 0.0 0.0

-3.6760107635398796e6 2.6328085420230057e7 0.0
2.6328085420230057e7 1.3071901716691501e7 0.0
0.0 0.0 0.0

1.1602105711575206e6 9.925699390969522e6 0.0
9.925699390969522e6 -4.0525510754674554e7 0.0
0.0 0.0 0.0

1.0981401684231274e6 3.7836239335452123e6 0.0
3.7836239335452123e6 -6.337403559898903e7 0.0
0.0 0.0 0.0

-2.648149396858872e6 2.421351771787814e7 0.0
2.421351771787814e7 1.6459913134229477e7 0.0
0.0 0.0 0.0

-6.314971278164438e6 2.070034031648963e7 0.0
2.070034031648963e7 -2.233115259764493e7 0.0
0.0 0.0 0.0

-1.0361562472476168e7 1.073455069897229e7 0.0
1.073455069897229e7 2.4189690571838222e7 0.0
0.0 0.0 0.0

-1.1459566631073304e6 3.109654516522635e7 0.0
3.109654516522635e7 1.3589928547128702e6 0.0
0.0 0.0 0.0

-441530.94175069756 1.2633231368498487e7 0.0
1.2633231368498487e7 -5.3154749010481015e6 0.0
0.0 0.0 0.0

-4.626400780342056e6 1.5954060121584974e7 0.0
1.5954060121584974e7 1.5023043995877396e7 0.0
0.0 0.0 0.0

-7.986772864546368e6 90680.87780352327 0.0
90680.87780352327 3.969458165838382e7 0.0
0.0 0.0 0.0

1.3096901993341278e6 1.6329634200561747e7 0.0
1.6329634200561747e7 -2.0155582132526085e7 0.0
0.0 0.0 0.0

1.3928531655550352e6 3.657175241187365e7 0.0
3.657175241187365e7 -1.576648724676298e6 0.0
0.0 0.0 0.0

-9.71527622017284e6 9.80257628794364e6 0.0
9.80257628794364e6 2.0303326519704115e7 0.0
0.0 0.0 0.0

-347687.8578928597 9.14628039891373e6 0.0
9.14628039891373e6 -5.596974278485528e7 0.0
0.0 0.0 0.0

-2.6302913881626953e6 1.3693778867471037e7 0.0
1.3693778867471037e7 -2.9862617290671044e6 0.0
0.0 0.0 0.0

1.2849235651594007e7 2.60515039761091e7 0.0
2.60515039761091e7 1.4630624395175757e7 0.0
0.0 0.0 0.0

5.141313886801015e7 2.770856743571782e7 0.0
2.770856743571782e7 1.0782234156001061e7 0.0
0.0 0.0 0.0

2.7157814052765016e6 6.476195185064343e6 0.0
6.476195185064343e6 -2.5982951761778153e7 0.0
0.0 0.0 0.0

-7.49101685367543e6 1.948314305555828e7 0.0
1.948314305555828e7 -4.591080159582697e7 0.0
0.0 0.0 0.0

2.4147951603245623e6 6.385377268868967e6 0.0
6.385377268868967e6 -2.7367212676928155e7 0.0
0.0 0.0 0.0

3.0010389867824726e6 3.3646330771480873e6 0.0
3.3646330771480873e6 -2.9776685951466646e7 0.0
0.0 0.0 0.0

4.250587552759956e7 1.7056782615112074e7 0.0
1.7056782615112074e7 2.5940946877737846e6 0.0
0.0 0.0 0.0

-1.3080004348434519e7 4.42890361341887e7 0.0
4.42890361341887e7 3.5730240330160176e6 0.0
0.0 0.0 0.0

-4.944788491864659e6 1.7916749864332817e7 0.0
1.7916749864332817e7 -4.1178278417397365e7 0.0
0.0 0.0 0.0

-1.3973373949085323e7 2.686268705836879e7 0.0
2.686268705836879e7 -4.132330538579496e6 0.0
0.0 0.0 0.0

2.70698072771737e6 3.3595825245123217e6 0.0
3.3595825245123217e6 -3.921168822211422e7 0.0
0.0 0.0 0.0

-9.44730801427161e6 2.8605800600244675e7 0.0
2.8605800600244675e7 7.110151180408607e6 0.0
0.0 0.0 0.0

1.3118836403551696e7 3.7293725200860575e7 0.0
3.7293725200860575e7 -5.5464884582901085e6 0.0
0.0 0.0 0.0

-8.218423331946744e6 1.244922332004713e7 0.0
1.244922332004713e7 4.065504080233644e7 0.0
0.0 0.0 0.0

1.9035359020117506e7 5.266248000175715e7 0.0
5.266248000175715e7 -7.945304434940768e6 0.0
0.0 0.0 0.0

-1.0526400974377487e6 2.2879542275577895e7 0.0
2.2879542275577895e7 -927411.4611483216 0.0
0.0 0.0 0.0

1.8167520751267914e6 2.913850531726199e6 0.0
2.913850531726199e6 -5.01228683863654e7 0.0
0.0 0.0 0.0

3.830937236476908e7 2.350537867796711e7 0.0
2.350537867796711e7 9.555900043553585e6 0.0
0.0 0.0 0.0

-1.8922767250207448e6 2.3536006983063716e7 0.0
2.3536006983063716e7 1.68559452619568e7 0.0
0.0 0.0 0.0

1.2617649622384887e6 6.674466743582401e6 0.0
6.674466743582401e6 -4.4828889054473795e7 0.0
0.0 0.0 0.0

2.2244993553619087e6 2.9128239006301187e7 0.0
2.9128239006301187e7 -7.198938333193153e6 0.0
0.0 0.0 0.0

2.3399340805340754e6 2.3424452318854533e7 0.0
2.3424452318854533e7 -8.811255598303333e6 0.0
0.0 0.0 0.0

-4.4658207260926105e6 2.1358493697170753e7 0.0
2.1358493697170753e7 -1.6382159285044428e7 0.0
0.0 0.0 0.0

-1.0703192852498135e6 2.2768166628463265e7 0.0
2.2768166628463265e7 -1.1377686180551358e7 0.0
0.0 0.0 0.0

1.6445719489979342e7 2.686157129733908e7 0.0
2.686157129733908e7 1.4563435326373551e7 0.0
0.0 0.0 0.0

-681402.5049701966 7.35496280160158e6 0.0
7.35496280160158e6 -7.862342289570196e7 0.0
0.0 0.0 0.0

-5.011832837722178e6 2.7225537302576207e7 0.0
2.7225537302576207e7 1.2358497611581337e7 0.0
0.0 0.0 0.0

856598.2137246553 4.691558439451242e6 0.0
4.691558439451242e6 -3.1179419077068376e6 0.0
0.0 0.0 0.0

-7.383389029911529e6 1.7091275685107414e7 0.0
1.7091275685107414e7 3.1268935351193048e7 0.0
0.0 0.0 0.0

3.2953548281082306e6 3.9252530509366174e6 0.0
3.9252530509366174e6 -2.5828392522080608e7 0.0
0.0 0.0 0.0

-7.089354248348182e6 -733484.2821086292 0.0
-733484.2821086292 4.724591431033557e7 0.0
0.0 0.0 0.0

1.180113695464638e6 1.7339179056206856e7 0.0
1.7339179056206856e7 -2.4713300258645095e7 0.0
0.0 0.0 0.0

470719.3319374714 2.2116406086044507e6 0.0
2.2116406086044507e6 -3.120722325701313e6 0.0
0.0 0.0 0.0

5.772486650601781e6 2.0256077109958187e7 0.0
2.0256077109958187e7 2.4495114357544642e7 0.0
0.0 0.0 0.0

-2.601511798654317e6 3.2206681752604857e7 0.0
3.2206681752604857e7 4.242558857022079e6 0.0
0.0 0.0 0.0

-7.936652379481001e6 776330.5038589314 0.0
776330.5038589314 4.522018379013464e7 0.0
0.0 0.0 0.0

-1.2079355216469276e6 2.333355732047474e7 0.0
2.333355732047474e7 1.0239223689135259e7 0.0
0.0 0.0 0.0

7.88191197292702e6 2.6972656545274515e7 0.0
2.6972656545274515e7 -5.3055052398838205e6 0.0
0.0 0.0 0.0

-2.030784522910622e6 2.7824565973277602e7 0.0
2.7824565973277602e7 168108.97231439792 0.0
0.0 0.0 0.0

-6.428646877166955e6 2.462017648629797e7 0.0
2.462017648629797e7 -1.2577984566294635e7 0.0
0.0 0.0 0.0

-1.4307837447489118e6 2.795461633627399e7 0.0
2.795461633627399e7 2.116328276387091e6 0.0
0.0 0.0 0.0

-7.69299364833637e6 1.948529107130863e7 0.0
1.948529107130863e7 -2.4927161421989195e7 0.0
0.0 0.0 0.0

2.5401377287713118e7 3.0510815377193667e7 0.0
3.0510815377193667e7 -3.1109243977360576e6 0.0
0.0 0.0 0.0

-2.405592085370008e6 2.0838709562983874e7 0.0
2.0838709562983874e7 -1.8001779886371505e7 0.0
0.0 0.0 0.0

-2.24941800828127e6 2.1777604339829046e7 0.0
2.1777604339829046e7 2.8325874863694053e7 0.0
0.0 0.0 0.0

6.899414284844855e6 2.4462492684476927e7 0.0
2.4462492684476927e7 1.6486306530957885e7 0.0
0.0 0.0 0.0

1.5620472422980573e6 1.1601843349660112e7 0.0
1.1601843349660112e7 -2.9194613160129905e7 0.0
0.0 0.0 0.0

-6.181436770010615e6 1.5190627302338941e7 0.0
1.5190627302338941e7 1.4008380017604943e7 0.0
0.0 0.0 0.0

-3.38576758499325e6 3.779686550798706e7 0.0
3.779686550798706e7 1.2904324867964971e6 0.0
0.0 0.0 0.0

-4.252674521903491e6 2.2506533073848546e7 0.0
2.2506533073848546e7 1.9335819564788744e7 0.0
0.0 0.0 0.0

5.452618981635681e6 4.041358392223491e7 0.0
4.041358392223491e7 -1.96253017519873e6 0.0
0.0 0.0 0.0

547444.9224837478 1.6914307823066e7 0.0
1.6914307823066e7 -2.6382729617736332e7 0.0
0.0 0.0 0.0

-2.8670830161990773e7 3.0852421354901705e7 0.0
3.0852421354901705e7 -1.2389488095172789e7 0.0
0.0 0.0 0.0

1.8478822382810637e6 4.90147798863745e6 0.0
4.90147798863745e6 -5.58243329322198e7 0.0
0.0 0.0 0.0

1.7256939320338495e7 4.063431048602117e7 0.0
4.063431048602117e7 -5.257466562683235e6 0.0
0.0 0.0 0.0

-2.2408550145118605e7 3.704152117438724e7 0.0
3.704152117438724e7 6.638365372468978e6 0.0
0.0 0.0 0.0

2.7635975347427335e6 2.1562784357935514e7 0.0
2.1562784357935514e7 2.4544710754232757e7 0.0
0.0 0.0 0.0

-4.1716193943700485e7 3.742814816567698e7 0.0
3.742814816567698e7 5.510605799945746e6 0.0
0.0 0.0 0.0

2.050528743376281e6 2.990381334026579e6 0.0
2.990381334026579e6 -5.1746251854566894e7 0.0
0.0 0.0 0.0

-3.6859440616356246e6 2.2173576289193645e7 0.0
2.2173576289193645e7 2.08871369571118e7 0.0
0.0 0.0 0.0

-1.0534798751515519e7 9.588653853263477e6 0.0
9.588653853263477e6 1.7350918100942947e7 0.0
0.0 0.0 0.0

2.8579329102775287e6 2.8649147379990136e6 0.0
2.8649147379990136e6 -2.7273658126708932e7 0.0
0.0 0.0 0.0

1.2714154105516747e6 2.3301730670750745e7 0.0
2.3301730670750745e7 -1.1024818749262158e7 0.0
0.0 0.0 0.0

-8.198905000307623e6 4.612670915167592e7 0.0
4.612670915167592e7 5.165563606063513e6 0.0
0.0 0.0 0.0

-1.5449299917425785e7 1.9996971896918803e7 0.0
1.9996971896918803e7 3.905016131520617e6 0.0
0.0 0.0 0.0

-4.265079221105044e7 3.143933287476657e7 0.0
3.143933287476657e7 -1.7791146784264296e6 0.0
0.0 0.0 0.0

5.4719857822721206e7 2.8143403236141097e7 0.0
2.8143403236141097e7 2.1183177288593598e7 0.0
0.0 0.0 0.0

-9.593946665704593e6 1.8200541546252552e7 0.0
1.8200541546252552e7 -1.0018136712685908e8 0.0
0.0 0.0 0.0

-247074.58122629113 2.20128995798668e7 0.0
2.20128995798668e7 -1.4526621082700621e7 0.0
0.0 0.0 0.0

-1.7872117139857598e6 2.1134762711643018e7 0.0
2.1134762711643018e7 2.8612729306316804e7 0.0
0.0 0.0 0.0

2.228029768784679e6 2.6587616970460087e7 0.0
2.6587616970460087e7 -1.0765700360591024e7 0.0
0.0 0.0 0.0

-441562.71449163376 3.0927166139005233e7 0.0
3.0927166139005233e7 -507600.271383747 0.0
0.0 0.0 0.0

4.187443273404441e6 1.9040749987151656e7 0.0
1.9040749987151656e7 1.402365939840256e7 0.0
0.0 0.0 0.0

4.704926218441867e6 3.939302324749729e7 0.0
3.939302324749729e7 -1.9237566320917883e6 0.0
0.0 0.0 0.0

-1.0372628102135114e7 1.0526082034831937e7 0.0
1.0526082034831937e7 2.0403857149068944e7 0.0
0.0 0.0 0.0

7.260418647122177e7 4.336296939379525e7 0.0
4.336296939379525e7 3.1983178743744545e7 0.0
0.0 0.0 0.0

3.226740969041948e6 3.0922021335410334e7 0.0
3.0922021335410334e7 -6.976476773678386e6 0.0
0.0 0.0 0.0

5.495854940274242e6 1.800703669592425e7 0.0
1.800703669592425e7 1.973673782328665e7 0.0
0.0 0.0 0.0

-1.3558229733202167e7 2.8751016747556936e7 0.0
2.8751016747556936e7 1.745651096999187e6 0.0
0.0 0.0 0.0

1.914706093973062e6 2.0187244496796597e7 0.0
2.0187244496796597e7 2.013031504747859e7 0.0
0.0 0.0 0.0

1.751041476998215e6 2.9064523403236337e7 0.0
2.9064523403236337e7 -6.700736184778822e6 0.0
0.0 0.0 0.0

1.575576488512529e6 8.756374008872071e6 0.0
8.756374008872071e6 -3.967113285606843e7 0.0
0.0 0.0 0.0

-2.4670655179520864e6 2.5636645432914466e7 0.0
2.5636645432914466e7 7.222433909434472e6 0.0
0.0 0.0 0.0

-7.412195278478211e6 2.583960167217548e7 0.0
2.583960167217548e7 4.2372705716263605e6 0.0
0.0 0.0 0.0

1.0211113323040409e6 8.683449421585131e6 0.0
8.683449421585131e6 -1.3755679812275827e7 0.0
0.0 0.0 0.0

-3.508130098769593e6 2.6420705074011482e7 0.0
2.6420705074011482e7 1.3153311158956926e7 0.0
0.0 0.0 0.0

-6.116565354887616e6 7.231903046858349e6 0.0
7.231903046858349e6 5.7463091250656e7 0.0
0.0 0.0 0.0

-1.1874843504546443e6 1.3038258883291611e7 0.0
1.3038258883291611e7 -1.9354975042061713e6 0.0
0.0 0.0 0.0

-1.338282977623684e7 2.6554829894398008e7 0.0
2.6554829894398008e7 -1.2145500172256168e7 0.0
0.0 0.0 0.0

5.080262210951676e7 3.504037249314604e7 0.0
3.504037249314604e7 2.264538231550047e7 0.0
0.0 0.0 0.0

-196578.50337993167 1.6393067744075136e7 0.0
1.6393067744075136e7 -3.437295933211618e7 0.0
0.0 0.0 0.0

2.0866088960539661e6 6.764755089324182e6 0.0
6.764755089324182e6 -4.2097795636368416e7 0.0
0.0 0.0 0.0

1.2247629997139432e7 2.4997590265810147e7 0.0
2.4997590265810147e7 5.878649284494029e6 0.0
0.0 0.0 0.0

-1.6590397808200913e6 1.3383557177130746e7 0.0
1.3383557177130746e7 1.667653836329536e7 0.0
0.0 0.0 0.0

-911550.911214682 2.9653277390268285e7 0.0
2.9653277390268285e7 213567.08864152245 0.0
0.0 0.0 0.0

-531488.892413849 2.5401918523254234e7 0.0
2.5401918523254234e7 -8.367080217470269e6 0.0
0.0 0.0 0.0

352829.4493283415 2.5706368112706255e7 0.0
2.5706368112706255e7 -1.0505138469653238e7 0.0
0.0 0.0 0.0

-1.3703942343786987e6 2.200381818891433e7 0.0
2.200381818891433e7 -9.389990044643294e6 0.0
0.0 0.0 0.0

1.7883877855878212e6 9.608090836311787e6 0.0
9.608090836311787e6 -1.236934971925979e7 0.0
0.0 0.0 0.0

4.2566493227584295e7 3.16558240608976e7 0.0
3.16558240608976e7 2.0051771403821122e7 0.0
0.0 0.0 0.0

3.4909509002374294e6 2.0097178480010856e7 0.0
2.0097178480010856e7 1.2453730843036681e7 0.0
0.0 0.0 0.0

-3.8533534062759317e6 3.672243417748548e7 0.0
3.672243417748548e7 3.5812826652502874e6 0.0
0.0 0.0 0.0

-4.382225620918921e7 2.6047744473286632e7 0.0
2.6047744473286632e7 4.794944968443839e6 0.0
0.0 0.0 0.0

3.255308295630106e6 3.5854424977570456e6 0.0
3.5854424977570456e6 -2.4088806075384885e7 0.0
0.0 0.0 0.0

1.037276943723161e6 2.230373515803023e7 0.0
2.230373515803023e7 8.246172335241217e6 0.0
0.0 0.0 0.0

-5.843197508558777e6 1.860820132830468e7 0.0
1.860820132830468e7 -2.384529698673233e7 0.0
0.0 0.0 0.0

-447672.80056442507 1.9786690127777975e7 0.0
1.9786690127777975e7 -2.4819525667270392e7 0.0
0.0 0.0 0.0

-8.657252425444005e6 -1.0744300873917958e6 0.0
-1.0744300873917958e6 3.2460303324603714e7 0.0
0.0 0.0 0.0

886592.5727790622 1.5359474607427523e7 0.0
1.5359474607427523e7 -2.336749117816715e7 0.0
0.0 0.0 0.0

-1.2800203274335394e7 1.908506295060809e7 0.0
1.908506295060809e7 -6.056962530885722e7 0.0
0.0 0.0 0.0

1.0463267492389381e6 1.464639121419082e7 0.0
1.464639121419082e7 -2.477052516634541e7 0.0
0.0 0.0 0.0

2.944586297240492e6 2.408366933266254e7 0.0
2.408366933266254e7 -1.0051756048192035e7 0.0
0.0 0.0 0.0

3.960604576888148e7 2.551606657176653e7 0.0
2.551606657176653e7 9.292364041527322e6 0.0
0.0 0.0 0.0

-5.25130543464168e6 1.652347677147472e7 0.0
1.652347677147472e7 4.181860032198068e7 0.0
0.0 0.0 0.0

-6.643736130369073e6 2.5846903035783343e7 0.0
2.5846903035783343e7 -1.327580605647219e7 0.0
0.0 0.0 0.0

471973.5685659599 2.0627920020548884e7 0.0
2.0627920020548884e7 1.0732911580315253e6 0.0
0.0 0.0 0.0

-7.391048544694083e6 2.3346961614777032e7 0.0
2.3346961614777032e7 -1.706984118465916e7 0.0
0.0 0.0 0.0

4.0124317970005184e7 3.1579608137871183e7 0.0
3.1579608137871183e7 1.7900779487606272e7 0.0
0.0 0.0 0.0

-4.2308037587836515e6 2.651310026517641e7 0.0
2.651310026517641e7 1.393340323936519e7 0.0
0.0 0.0 0.0

2.6357439992754213e6 2.380390042979982e7 0.0
2.380390042979982e7 -3.128430117680038e6 0.0
0.0 0.0 0.0

878651.4860873105 3.3255056362345275e7 0.0
3.3255056362345275e7 -1.7469968936350874e6 0.0
0.0 0.0 0.0

-2.3313154942556536e6 2.5578328787387997e7 0.0
2.5578328787387997e7 8.198786043801337e6 0.0
0.0 0.0 0.0

-4.0849652636363953e6 2.4341407418710254e6 0.0
2.4341407418710254e6 8.522630001712309e7 0.0
0.0 0.0 0.0

1.0930444374137493e6 2.3354041579814713e7 0.0
2.3354041579814713e7 -1.5810769074761983e7 0.0
0.0 0.0 0.0

-1.644930266113374e6 3.237043051175183e7 0.0
3.237043051175183e7 2.395910215876256e6 0.0
0.0 0.0 0.0

-1.205827755847117e6 3.9860943825051766e6 0.0
3.9860943825051766e6 2.686646892932296e6 0.0
0.0 0.0 0.0

-6.351538913400723e6 1.861875997194264e7 0.0
1.861875997194264e7 3.0106287794329774e7 0.0
0.0 0.0 0.0

-4.373962554343119e6 1.9950374630852796e7 0.0
1.9950374630852796e7 -1.6425642795877112e7 0.0
0.0 0.0 0.0

2.3989263413969334e6 3.5705093503284897e6 0.0
3.5705093503284897e6 -3.396691823226915e7 0.0
0.0 0.0 0.0

-1.8470860122160888e6 3.837421190160731e7 0.0
3.837421190160731e7 2.160519639810721e6 0.0
0.0 0.0 0.0

1.5893995019215625e6 1.5706894410791436e7 0.0
1.5706894410791436e7 -2.126207056804558e7 0.0
0.0 0.0 0.0

-4.243172329506592e6 2.1527282014375344e7 0.0
2.1527282014375344e7 2.2820552613694813e7 0.0
0.0 0.0 0.0

613820.2651819251 6.591925379778115e6 0.0
6.591925379778115e6 -7.282137990629834e7 0.0
0.0 0.0 0.0

-4.708421519020114e6 3.628549493525712e7 0.0
3.628549493525712e7 3.027109617498517e6 0.0
0.0 0.0 0.0

-9.948886742562503e6 1.95200701542635e7 0.0
1.95200701542635e7 -3.571410806915553e7 0.0
0.0 0.0 0.0

3.2525701866711034e6 2.4307192921966985e6 0.0
2.4307192921966985e6 -1.546342466514529e7 0.0
0.0 0.0 0.0

-858981.6511874453 1.2104077118057627e7 0.0
1.2104077118057627e7 -3.7124090305996644e6 0.0
0.0 0.0 0.0

-1.9307819356377523e7 3.718046673753154e7 0.0
3.718046673753154e7 5.786908491197227e6 0.0
0.0 0.0 0.0

7.162417887038856e6 1.799332106371975e7 0.0
1.799332106371975e7 2.3291380389889754e7 0.0
0.0 0.0 0.0

-9.603749121667728e6 4.34077310574951e7 0.0
4.34077310574951e7 3.2666761301381937e6 0.0
0.0 0.0 0.0

-9.919924113318896e6 8.242448409375788e6 0.0
8.242448409375788e6 3.1327425291084554e7 0.0
0.0 0.0 0.0

-742957.978852842 1.0073078940808417e7 0.0
1.0073078940808417e7 -8.11845083256462e7 0.0
0.0 0.0 0.0

9.38048305148131e7 3.1414047519768875e7 0.0
3.1414047519768875e7 1.0183240305318266e7 0.0
0.0 0.0 0.0

-840872.5759430542 3.0584321601203367e7 0.0
3.0584321601203367e7 370430.9892363104 0.0
0.0 0.0 0.0

-6.0329243006497165e6 3.157295393051365e7 0.0
3.157295393051365e7 7.269146088509254e6 0.0
0.0 0.0 0.0

-2.0251114108312652e6 2.8155706115746062e7 0.0
2.8155706115746062e7 5.364773075224886e6 0.0
0.0 0.0 0.0

1.0221379910733072e7 2.1911389439204168e7 0.0
2.1911389439204168e7 6.610122412505478e7 0.0
0.0 0.0 0.0

1.9221221299840827e6 3.9248108945572656e6 0.0
3.9248108945572656e6 -4.0049777602346905e7 0.0
0.0 0.0 0.0

105998.52777943993 1.4730129860782174e7 0.0
1.4730129860782174e7 -9.529034308004424e6 0.0
0.0 0.0 0.0

1.0658786326948663e7 3.713487073684744e7 0.0
3.713487073684744e7 -5.078639363429209e6 0.0
0.0 0.0 0.0

-141240.4545202814 1.1996644158286234e7 0.0
1.1996644158286234e7 -4.5306610369609855e7 0.0
0.0 0.0 0.0

-2.3256632897086304e7 2.267835158643618e7 0.0
2.267835158643618e7 3.473642400068011e6 0.0
0.0 0.0 0.0

-7.313871180801037e6 2.6211568946138605e7 0.0
2.6211568946138605e7 2.8397943136442592e6 0.0
0.0 0.0 0.0

629279.241379474 2.1276093991177898e7 0.0
2.1276093991177898e7 4.843215434068398e6 0.0
0.0 0.0 0.0

1.671895702780854e6 1.5000628539723262e7 0.0
1.5000628539723262e7 -2.2775018552050795e7 0.0
0.0 0.0 0.0

4.899134462763751e6 2.093516311693833e7 0.0
2.093516311693833e7 4.288704776601189e7 0.0
0.0 0.0 0.0

1.674814045373054e7 3.745833848369229e7 0.0
3.745833848369229e7 -5.908635067651416e6 0.0
0.0 0.0 0.0

-4.921062489629096e7 5.001305378858222e6 0.0
5.001305378858222e6 5.551578558215888e6 0.0
0.0 0.0 0.0

5.542975153111082e7 5.124617819444529e7 0.0
5.124617819444529e7 -9.318778665235445e6 0.0
0.0 0.0 0.0

1.5980497117351336e7 3.775738742005054e7 0.0
3.775738742005054e7 -6.365664022342738e6 0.0
0.0 0.0 0.0

2.9174346982462863e6 3.655963800794893e6 0.0
3.655963800794893e6 -2.31688412352442e7 0.0
0.0 0.0 0.0

-3.0422486855286183e6 3.2424930661715075e7 0.0
3.2424930661715075e7 2.5857147255933303e6 0.0
0.0 0.0 0.0

4.747560361412552e7 1.762998286920305e7 0.0
1.762998286920305e7 3.1200160632868167e6 0.0
0.0 0.0 0.0

-4.910363185865499e6 9.401094318076013e6 0.0
9.401094318076013e6 6.227309844993116e7 0.0
0.0 0.0 0.0

1.1075829429094233e6 2.3636179414517585e7 0.0
2.3636179414517585e7 -1.5255051689447727e7 0.0
0.0 0.0 0.0

2.990973739109157e7 2.161580001454226e7 0.0
2.161580001454226e7 6.000481294582988e6 0.0
0.0 0.0 0.0

2.1160656668242225e6 2.4123201798827875e7 0.0
2.4123201798827875e7 -1.1993470814202879e7 0.0
0.0 0.0 0.0

2.181533539948376e6 4.595218086430124e6 0.0
4.595218086430124e6 -4.321333818001962e7 0.0
0.0 0.0 0.0

-214432.16538936697 3.0370763940550357e7 0.0
3.0370763940550357e7 -1.550521810375665e6 0.0
0.0 0.0 0.0

-5.163905200229751e6 1.9057014328030933e7 0.0
1.9057014328030933e7 -2.147079379103624e7 0.0
0.0 0.0 0.0

3.7408212867110455e6 3.278240362273449e7 0.0
3.278240362273449e7 -5.664029338300962e6 0.0
0.0 0.0 0.0

-3.2158194772338867e6 1.2279460089446364e7 0.0
1.2279460089446364e7 6.444513886148431e7 0.0
0.0 0.0 0.0

-1.221182876321924e6 2.1291788985601667e7 0.0
2.1291788985601667e7 -1.1557140443118768e7 0.0
0.0 0.0 0.0

1.4624659722805545e6 1.1221515247433454e7 0.0
1.1221515247433454e7 -3.1477979646179784e7 0.0
0.0 0.0 0.0

6.067488888212241e6 2.71838854939484e7 0.0
2.71838854939484e7 -6.72953584836214e6 0.0
0.0 0.0 0.0

-3.557793208613822e6 2.0797736467801902e7 0.0
2.0797736467801902e7 -1.0985024390554372e7 0.0
0.0 0.0 0.0

-6.316361661777794e6 4.547976955327578e6 0.0
4.547976955327578e6 5.742972875312428e7 0.0
0.0 0.0 0.0

4.012272832449529e6 2.1605331249789454e7 0.0
2.1605331249789454e7 2.540762932141479e7 0.0
0.0 0.0 0.0

-421109.11447763257 1.1573496499260807e7 0.0
1.1573496499260807e7 -4.900136054141553e7 0.0
0.0 0.0 0.0

4.660796085197428e6 3.245367823934756e7 0.0
3.245367823934756e7 -5.460897332236908e6 0.0
0.0 0.0 0.0

4.82350277368337e6 2.4799673291964684e7 0.0
2.4799673291964684e7 1.5831588375926342e7 0.0
0.0 0.0 0.0

2.2141244142450485e6 1.0027361992678946e7 0.0
1.0027361992678946e7 -3.0868379030740824e7 0.0
0.0 0.0 0.0

7.076974114633124e7 3.0770299569196712e7 0.0
3.0770299569196712e7 1.6417867011067437e7 0.0
0.0 0.0 0.0

3.675637429748234e6 3.1705830951071564e7 0.0
3.1705830951071564e7 -5.66033155516815e6 0.0
0.0 0.0 0.0

-8.324578589425983e6 -762204.3168329885 0.0
-762204.3168329885 3.5988304529544204e7 0.0
0.0 0.0 0.0

-7.506993873312563e6 4.905223805740527e6 0.0
4.905223805740527e6 5.362371121206092e7 0.0
0.0 0.0 0.0

2.692612090802338e6 1.6741267358508334e6 0.0
1.6741267358508334e6 -3.627309986122442e7 0.0
0.0 0.0 0.0

-2.663018811041862e6 2.7655160614422094e7 0.0
2.7655160614422094e7 4.701637533833144e6 0.0
0.0 0.0 0.0

-1.9384542433859052e6 2.11251580969042e7 0.0
2.11251580969042e7 -1.0409324630032936e7 0.0
0.0 0.0 0.0

2.200554579229749e6 2.5893293272205986e7 0.0
2.5893293272205986e7 -1.2144743224888133e7 0.0
0.0 0.0 0.0

-9.449310538118677e6 1.9828438939445734e6 0.0
1.9828438939445734e6 2.772640991415368e7 0.0
0.0 0.0 0.0

808893.2497030543 2.624271298626555e7 0.0
2.624271298626555e7 -8.754024671695044e6 0.0
0.0 0.0 0.0

-6.71406726814181e6 4.418382499953075e6 0.0
4.418382499953075e6 5.731255663955528e7 0.0
0.0 0.0 0.0

1.1808850234442532e7 2.3551868278124172e7 0.0
2.3551868278124172e7 7.657057115831774e6 0.0
0.0 0.0 0.0

-923420.0801732056 1.406981517527804e7 0.0
1.406981517527804e7 -4.675946910010467e7 0.0
0.0 0.0 0.0

260633.91321044602 1.1603314730234515e7 0.0
1.1603314730234515e7 -4.9350207029621705e7 0.0
0.0 0.0 0.0

-6.434217920819182e6 1.8186726250869166e7 0.0
1.8186726250869166e7 3.188645012342128e7 0.0
0.0 0.0 0.0

-1.9643822996602673e6 2.30078246991699e7 0.0
2.30078246991699e7 6.052243794923008e6 0.0
0.0 0.0 0.0

239625.36084830528 4.989812039313311e6 0.0
4.989812039313311e6 -1.0634520008004738e6 0.0
0.0 0.0 0.0

-1.558341544509755e6 2.2424232068770587e7 0.0
2.2424232068770587e7 -9.767414959069766e6 0.0
0.0 0.0 0.0

-3.505620866915428e6 3.0340802439838495e7 0.0
3.0340802439838495e7 7.538773714180636e6 0.0
0.0 0.0 0.0

9.101317749178063e6 2.1745955750924814e7 0.0
2.1745955750924814e7 5.351688631769912e7 0.0
0.0 0.0 0.0

1.7104062449910585e7 2.6833992608493205e7 0.0
2.6833992608493205e7 -1.3905457255601073e6 0.0
0.0 0.0 0.0

-3.6082012943591326e6 2.0263171172587252e6 0.0
2.0263171172587252e6 8.26675031423161e7 0.0
0.0 0.0 0.0

-5.739464066873338e6 1.2138028283668354e7 0.0
1.2138028283668354e7 5.110587504462238e7 0.0
0.0 0.0 0.0

-6.890678501315448e6 1.8287868106485043e7 0.0
1.8287868106485043e7 2.586318581421377e7 0.0
0.0 0.0 0.0

2.8527996266317554e6 2.110796046317605e7 0.0
2.110796046317605e7 1.3283032348077247e7 0.0
0.0 0.0 0.0

-1.0603584593798239e7 6.051607713257894e6 0.0
6.051607713257894e6 2.0594419741932563e7 0.0
0.0 0.0 0.0

-1.2274633392165648e7 2.3340343203616366e7 0.0
2.3340343203616366e7 -9.789487231147029e6 0.0
0.0 0.0 0.0

2.6149533392689805e6 5.08527618613742e6 0.0
5.08527618613742e6 -3.815158523667325e7 0.0
0.0 0.0 0.0

-9.77797929510913e6 1.9072903788595356e7 0.0
1.9072903788595356e7 -5.102327674661028e7 0.0
0.0 0.0 0.0

2.4897918101319536e6 2.001180970262833e7 0.0
2.001180970262833e7 8.517900044156631e6 0.0
0.0 0.0 0.0

2.2793625975038804e7 3.341779250494728e7 0.0
3.341779250494728e7 -5.522244263011581e6 0.0
0.0 0.0 0.0

2.747023605578731e6 2.483318493682368e7 0.0
2.483318493682368e7 -8.875866876699517e6 0.0
0.0 0.0 0.0

-2.8433624908913087e7 2.9821669735537447e7 0.0
2.9821669735537447e7 -9.651821130352935e6 0.0
0.0 0.0 0.0

-814040.0042408999 3.1644834851447996e7 0.0
3.1644834851447996e7 -1.8951608348621817e6 0.0
0.0 0.0 0.0

-2.365593243694243e6 7.802657228417117e6 0.0
7.802657228417117e6 -1.797250736655417e6 0.0
0.0 0.0 0.0

-6.301935581671508e6 4.45135993813428e7 0.0
4.45135993813428e7 4.973100045069756e6 0.0
0.0 0.0 0.0

-1.8753818147011716e6 2.3631906075924676e7 0.0
2.3631906075924676e7 4.575112747543678e6 0.0
0.0 0.0 0.0

-1.1336250317283856e7 1.0772708379357014e7 0.0
1.0772708379357014e7 2.0936630381555315e7 0.0
0.0 0.0 0.0

-2.511742879504543e6 2.3645791460947014e7 0.0
2.3645791460947014e7 2.3806816829057224e6 0.0
0.0 0.0 0.0

-6.941905101231644e6 1.4592393497129881e6 0.0
1.4592393497129881e6 8.115385746788381e6 0.0
0.0 0.0 0.0

154784.55929254647 1.0962703311189624e7 0.0
1.0962703311189624e7 -2.297903267337937e7 0.0
0.0 0.0 0.0

-456249.474514246 1.4798017872764027e7 0.0
1.4798017872764027e7 -4.026105441598465e7 0.0
0.0 0.0 0.0

-1.2864106025160298e7 2.5572866827531643e7 0.0
2.5572866827531643e7 -1.0716046614491561e7 0.0
0.0 0.0 0.0

-2.2735165647278205e6 2.1945468058200613e7 0.0
2.1945468058200613e7 2.6500798868351616e7 0.0
0.0 0.0 0.0

-1.4480886906873959e6 2.0984449587530866e7 0.0
2.0984449587530866e7 -7.556661955600997e6 0.0
0.0 0.0 0.0

3.0066696083240258e6 4.1557418575506946e6 0.0
4.1557418575506946e6 -1.5688852605892483e7 0.0
0.0 0.0 0.0

-150559.19509336608 2.840882725134041e7 0.0
2.840882725134041e7 -5.745343563642636e6 0.0
0.0 0.0 0.0

420519.88453445444 3.3045635650551267e7 0.0
3.3045635650551267e7 -3.086026955897065e6 0.0
0.0 0.0 0.0

8.031267628389398e6 2.6626931484684702e7 0.0
2.6626931484684702e7 -5.832492067910993e6 0.0
0.0 0.0 0.0

-1.0254316481409976e7 1.3795006359952835e7 0.0
1.3795006359952835e7 2.2281376234522052e7 0.0
0.0 0.0 0.0

-3.0801829611432385e6 2.0187316790357754e7 0.0
2.0187316790357754e7 -2.352989634741552e7 0.0
0.0 0.0 0.0

-6.9280088658493515e6 3.8050571350671306e7 0.0
3.8050571350671306e7 3.3950597939560036e6 0.0
0.0 0.0 0.0

-5.729116945328598e6 3.7176653316474244e7 0.0
3.7176653316474244e7 3.196777560614133e6 0.0
0.0 0.0 0.0

-4.0251864569495404e6 1.781866653241966e7 0.0
1.781866653241966e7 -3.768479769408625e7 0.0
0.0 0.0 0.0

-4.611486058946244e6 2.055600265326936e7 0.0
2.055600265326936e7 -1.4188121318533259e7 0.0
0.0 0.0 0.0

1.4300939389863575e6 2.0941443634220187e7 0.0
2.0941443634220187e7 6.957625642277377e6 0.0
0.0 0.0 0.0

1.1227698581528328e6 1.0639638980993139e7 0.0
1.0639638980993139e7 -3.8347716187560044e7 0.0
0.0 0.0 0.0

-7.278375051198028e6 1.3459098820160775e7 0.0
1.3459098820160775e7 4.201978520424308e7 0.0
0.0 0.0 0.0

-2.8690434835861735e6 1.3826619413246648e7 0.0
1.3826619413246648e7 -8.437025907875124e7 0.0
0.0 0.0 0.0

1.3939716333233682e7 4.1906032500277914e7 0.0
4.1906032500277914e7 -6.961045492974855e6 0.0
0.0 0.0 0.0

8.897504899454681e6 1.947649904319176e7 0.0
1.947649904319176e7 3.804102987736148e7 0.0
0.0 0.0 0.0

6.698061710436827e6 2.0561401232296187e7 0.0
2.0561401232296187e7 4.849329836520866e7 0.0
0.0 0.0 0.0

2.9874467552789733e7 2.787321582731813e7 0.0
2.787321582731813e7 1.4188479493879745e7 0.0
0.0 0.0 0.0

-171176.49588752375 2.190846983638704e7 0.0
2.190846983638704e7 3.6464842286518784e6 0.0
0.0 0.0 0.0

-71508.87931918865 2.7883503237238787e7 0.0
2.7883503237238787e7 -5.437908514579541e6 0.0
0.0 0.0 0.0

-3.6001250138004355e7 3.058897148475048e7 0.0
3.058897148475048e7 -1.1037365593775466e7 0.0
0.0 0.0 0.0

-149351.11089792987 2.0873662715016738e7 0.0
2.0873662715016738e7 1.367888927210159e6 0.0
0.0 0.0 0.0

-4.255378561539004e6 2.4940745345437884e7 0.0
2.4940745345437884e7 6.433875321772756e6 0.0
0.0 0.0 0.0

3.086585693411939e6 3.7346324687991836e6 0.0
3.7346324687991836e6 -3.1416253091975983e7 0.0
0.0 0.0 0.0

-1.414732282694875e7 2.5174895062364105e7 0.0
2.5174895062364105e7 -7.891926473193174e6 0.0
0.0 0.0 0.0

-1.7196776093696542e7 4.676635601203853e7 0.0
4.676635601203853e7 5.791318832616705e6 0.0
0.0 0.0 0.0

-9.40829110539021e6 3.8076569517471776e6 0.0
3.8076569517471776e6 3.109506550443676e7 0.0
0.0 0.0 0.0

1.6303763721877627e7 3.4490820860044464e7 0.0
3.4490820860044464e7 -5.3884847407296505e6 0.0
0.0 0.0 0.0

-1.7685293360938877e6 1.1687233096777532e7 0.0
1.1687233096777532e7 8.985676585938355e7 0.0
0.0 0.0 0.0

-8.35660873502229e6 -736475.9410430995 0.0
-736475.9410430995 3.5817134951849334e7 0.0
0.0 0.0 0.0

-1.6300067530311046e7 2.1650935968878385e7 0.0
2.1650935968878385e7 -6.6203457640634514e7 0.0
0.0 0.0 0.0

-373604.0056722178 2.301682168895389e7 0.0
2.301682168895389e7 -1.283816624657354e7 0.0
0.0 0.0 0.0

566167.226083968 3.411925402331352e7 0.0
3.411925402331352e7 -1.6203699355603652e6 0.0
0.0 0.0 0.0

-8.853518320337793e6 2.1162943969573513e7 0.0
2.1162943969573513e7 -1.302905101914652e7 0.0
0.0 0.0 0.0

-1.0398165467891874e6 1.1503039962241828e7 0.0
1.1503039962241828e7 -1.9969395714111417e6 0.0
0.0 0.0 0.0

-756437.2589562384 3.012924197445116e7 0.0
3.012924197445116e7 -3.146202697420663e6 0.0
0.0 0.0 0.0

-3.4678061866866965e6 3.5950707074654035e7 0.0
3.5950707074654035e7 2.97852952488599e6 0.0
0.0 0.0 0.0

946238.3717505088 3.43573913984634e7 0.0
3.43573913984634e7 -2.1013146304067248e6 0.0
0.0 0.0 0.0

-5.039344306299593e6 1.2784363748212699e7 0.0
1.2784363748212699e7 -9.141496042760742e7 0.0
0.0 0.0 0.0

-6.686959484810316e6 2.1441078509246893e7 0.0
2.1441078509246893e7 -2.3698830046542548e7 0.0
0.0 0.0 0.0

-5.250132973560993e6 3.427262327323616e6 0.0
3.427262327323616e6 6.772073518909289e7 0.0
0.0 0.0 0.0

1.657654189769901e7 2.4748078822526682e7 0.0
2.4748078822526682e7 7.394867006176077e7 0.0
0.0 0.0 0.0

-5.587523128203881e7 4.864519762930001e6 0.0
4.864519762930001e6 5.312755903354898e6 0.0
0.0 0.0 0.0

4.97508569704139e7 3.3193662798621945e7 0.0
3.3193662798621945e7 1.079366221140029e7 0.0
0.0 0.0 0.0

-642470.1834394727 1.756014746514726e7 0.0
1.756014746514726e7 -3.3150996144678265e7 0.0
0.0 0.0 0.0

2.0718520418995898e6 5.810497936083848e6 0.0
5.810497936083848e6 -9.241657829152249e6 0.0
0.0 0.0 0.0

6.705926622152745e7 3.1429209360846918e7 0.0
3.1429209360846918e7 591134.4714124016 0.0
0.0 0.0 0.0

2.4301874549555667e6 1.2541529233327629e7 0.0
1.2541529233327629e7 -2.9351150331981454e7 0.0
0.0 0.0 0.0

3.716411921938169e7 2.8290928380937587e7 0.0
2.8290928380937587e7 1.537840987282417e7 0.0
0.0 0.0 0.0

-1.2701705754162164e6 3.1340656224793147e7 0.0
3.1340656224793147e7 -1.1770165126975495e6 0.0
0.0 0.0 0.0

-5.055576381464573e6 3.0879562910583813e7 0.0
3.0879562910583813e7 7.554587562572066e6 0.0
0.0 0.0 0.0

-1.0768261619724245e6 1.526960364553091e7 0.0
1.526960364553091e7 -1.0373156398907762e7 0.0
0.0 0.0 0.0

-6.669834358405641e6 1.55729104649749e7 0.0
1.55729104649749e7 -7.825079904191201e6 0.0
0.0 0.0 0.0

-6.659226160320764e6 2.026781605793363e7 0.0
2.026781605793363e7 -2.3238857760376345e7 0.0
0.0 0.0 0.0

-1.8990882729098378e6 2.3872796530271996e7 0.0
2.3872796530271996e7 9.924889071459007e6 0.0
0.0 0.0 0.0

4.464419614484653e6 2.372105901982992e7 0.0
2.372105901982992e7 1.206183612501074e7 0.0
0.0 0.0 0.0

-2.1570874579423554e6 1.0173110020299034e7 0.0
1.0173110020299034e7 8.473500632191691e7 0.0
0.0 0.0 0.0

-1.751791453840084e6 2.921952001460823e7 0.0
2.921952001460823e7 -520872.20927256456 0.0
0.0 0.0 0.0

2.641633929547552e6 1.642365411431765e6 0.0
1.642365411431765e6 -3.647961278840101e7 0.0
0.0 0.0 0.0

-2.74958330953574e6 2.450580860645662e7 0.0
2.450580860645662e7 1.7271964432474636e7 0.0
0.0 0.0 0.0

2.915242828025163e6 2.366668895907066e7 0.0
2.366668895907066e7 1.3826766645516444e7 0.0
0.0 0.0 0.0

1.5944167506172813e7 2.910895450443e7 0.0
2.910895450443e7 -3.7047005892061917e6 0.0
0.0 0.0 0.0

1.6820320788556123e6 2.8384123752534416e7 0.0
2.8384123752534416e7 -8.79589118548168e6 0.0
0.0 0.0 0.0

-4.701645828293988e6 4.043021885202113e7 0.0
4.043021885202113e7 1.9279874162262517e6 0.0
0.0 0.0 0.0

-3.4394174642639346e6 8.617001230186252e6 0.0
8.617001230186252e6 246967.39903869107 0.0
0.0 0.0 0.0

-1.3941861128421089e7 3.7053115512653425e7 0.0
3.7053115512653425e7 5.509689337458954e6 0.0
0.0 0.0 0.0

-1.9843882602736189e6 3.1951498305121403e7 0.0
3.1951498305121403e7 3.3615102806455507e6 0.0
0.0 0.0 0.0

-6.517317285289915e6 1.9499818100792117e7 0.0
1.9499818100792117e7 2.5799132340164658e7 0.0
0.0 0.0 0.0

4.1139107792630784e7 2.8498969249665502e7 0.0
2.8498969249665502e7 2.57765762038406e6 0.0
0.0 0.0 0.0

1.1022854600923369e6 2.162430495801964e7 0.0
2.162430495801964e7 -1.6679278338870509e7 0.0
0.0 0.0 0.0

-1.6604093793349252e6 3.1004852670563504e7 0.0
3.1004852670563504e7 -327140.038349583 0.0
0.0 0.0 0.0

-884141.8546900996 1.3839358858681018e7 0.0
1.3839358858681018e7 -1.0809102988447415e7 0.0
0.0 0.0 0.0

-735104.3075318607 2.330336503061807e7 0.0
2.330336503061807e7 1.5760043324467914e7 0.0
0.0 0.0 0.0

-1.06340383341629e7 1.676457808939924e7 0.0
1.676457808939924e7 -4.574116246574476e6 0.0
0.0 0.0 0.0

-1.3996830544129007e7 2.4189998907461867e7 0.0
2.4189998907461867e7 -8.056109095231863e6 0.0
0.0 0.0 0.0

529366.9588131066 2.263284459043601e7 0.0
2.263284459043601e7 -1.2762910615350394e7 0.0
0.0 0.0 0.0

1.30263380409101e7 1.740411370872864e7 0.0
1.740411370872864e7 4.946910343493885e6 0.0
0.0 0.0 0.0

24493.648443629034 2.0918577993645843e7 0.0
2.0918577993645843e7 -2.107874959147461e7 0.0
0.0 0.0 0.0

-2.1192225829524547e6 2.165263956769255e7 0.0
2.165263956769255e7 2.646480177699367e7 0.0
0.0 0.0 0.0

-1.8646171398137875e7 2.316367885389069e7 0.0
2.316367885389069e7 -2.3974997282353174e6 0.0
0.0 0.0 0.0

-3.0816768998180227e6 2.3646890660461146e7 0.0
2.3646890660461146e7 4.119004610528861e6 0.0
0.0 0.0 0.0

-1.0892116358631296e7 9.537542250400465e6 0.0
9.537542250400465e6 2.8854951996484444e7 0.0
0.0 0.0 0.0

4.0043713359335684e6 2.084277605842814e7 0.0
2.084277605842814e7 2.4197979439975586e7 0.0
0.0 0.0 0.0

1.9445951523577332e7 3.794661708354529e7 0.0
3.794661708354529e7 -6.962905995383902e6 0.0
0.0 0.0 0.0

-4.669133150861954e7 3.0906228502366614e7 0.0
3.0906228502366614e7 -1.1594591415731795e6 0.0
0.0 0.0 0.0

1.2914353674519513e7 4.756554602039698e7 0.0
4.756554602039698e7 -3.624572337381874e6 0.0
0.0 0.0 0.0

-1.613622728426616e7 2.744221859677208e7 0.0
2.744221859677208e7 -562232.4969796585 0.0
0.0 0.0 0.0

7.829247237827435e6 4.298021940545122e7 0.0
4.298021940545122e7 -2.347658472551119e6 0.0
0.0 0.0 0.0

-1.0808451210492793e7 5.583139596909596e6 0.0
5.583139596909596e6 2.8313154293302815e7 0.0
0.0 0.0 0.0

1.958678585178517e7 2.7739834297806635e7 0.0
2.7739834297806635e7 -1.5551718646437079e6 0.0
0.0 0.0 0.0

-4.59906847918251e6 3.76098670378303e7 0.0
3.76098670378303e7 3.873208762873546e6 0.0
0.0 0.0 0.0

-5.91811139715006e6 2.4676481675023504e7 0.0
2.4676481675023504e7 1.0899615660014963e6 0.0
0.0 0.0 0.0

-715816.4479102008 1.947962495123931e7 0.0
1.947962495123931e7 -2.7183002973691262e7 0.0
0.0 0.0 0.0

-7.345510784790842e6 3.3512991038821883e7 0.0
3.3512991038821883e7 6.263639813212007e6 0.0
0.0 0.0 0.0

-8.608715835214624e6 2.0740555218373742e7 0.0
2.0740555218373742e7 -8.796034002723048e6 0.0
0.0 0.0 0.0

6.917933826262906e6 4.2118721515981086e7 0.0
4.2118721515981086e7 -4.465997465030414e6 0.0
0.0 0.0 0.0

-1.753394213391446e7 3.740977380347322e7 0.0
3.740977380347322e7 6.511529600993561e6 0.0
0.0 0.0 0.0

1.3704341424349701e7 2.8074607623963892e7 0.0
2.8074607623963892e7 -3.222766700635343e6 0.0
0.0 0.0 0.0

3.088092308349029e6 5.930250407810017e6 0.0
5.930250407810017e6 -2.0387868516992904e7 0.0
0.0 0.0 0.0

-7.620104093181904e6 1.9896822190828823e7 0.0
1.9896822190828823e7 -4.097972803826444e7 0.0
0.0 0.0 0.0

2.8970750129435323e6 4.0405890766592734e6 0.0
4.0405890766592734e6 -1.723827345777608e7 0.0
0.0 0.0 0.0

6.976701540483255e6 1.995403552279375e7 0.0
1.995403552279375e7 3.5867746602354966e7 0.0
0.0 0.0 0.0

7.296530898389811e6 2.5857720980926525e7 0.0
2.5857720980926525e7 -3.520631451267439e6 0.0
0.0 0.0 0.0

1.2773755937386388e7 3.4857580989937365e7 0.0
3.4857580989937365e7 -5.559785419031329e6 0.0
0.0 0.0 0.0

-6.298722036993016e6 1.9322794100422207e7 0.0
1.9322794100422207e7 3.0219151737204447e7 0.0
0.0 0.0 0.0

-148171.7516859998 1.6051755245438268e7 0.0
1.6051755245438268e7 -9.188606663991444e6 0.0
0.0 0.0 0.0

1.8033615430700765e6 1.015476264379557e7 0.0
1.015476264379557e7 4.096567895180489e6 0.0
0.0 0.0 0.0

-1.4656706032519415e6 1.202419727811342e7 0.0
1.202419727811342e7 -6.964085381804803e7 0.0
0.0 0.0 0.0

2.908861197875662e6 1.809529336043666e7 0.0
1.809529336043666e7 8.349288243390134e6 0.0
0.0 0.0 0.0

-1.6669436206944589e7 3.3155245161664862e7 0.0
3.3155245161664862e7 5.107715829436935e6 0.0
0.0 0.0 0.0

-1.7090549868869958e6 2.110563216155928e7 0.0
2.110563216155928e7 -1.4938037496221019e7 0.0
0.0 0.0 0.0

3.169154138206921e7 2.726641531875403e7 0.0
2.726641531875403e7 1.4227464215243593e7 0.0
0.0 0.0 0.0

-9.30562009395986e6 8.142534326392137e6 0.0
8.142534326392137e6 3.7388832109690905e7 0.0
0.0 0.0 0.0

-3.7338481793843515e7 3.470325219563481e7 0.0
3.470325219563481e7 192771.26527738757 0.0
0.0 0.0 0.0

3.9812768602622375e7 4.00993594477419e7 0.0
4.00993594477419e7 -8.79410163378761e6 0.0
0.0 0.0 0.0

-5.44439870325313e6 3.0923353128674544e7 0.0
3.0923353128674544e7 8.315525891474048e6 0.0
0.0 0.0 0.0

85547.03344997647 1.9167481971691135e7 0.0
1.9167481971691135e7 3.0939935328937946e6 0.0
0.0 0.0 0.0

-4.579380211387444e6 1.8203212804751273e7 0.0
1.8203212804751273e7 3.849159354537293e7 0.0
0.0 0.0 0.0

-8.743653035601133e6 408476.4952000199 0.0
408476.4952000199 3.696412280669846e7 0.0
0.0 0.0 0.0

471840.36874754634 2.1149404254692443e7 0.0
2.1149404254692443e7 -1.827251426248224e7 0.0
0.0 0.0 0.0

-1.2539726109152766e7 2.826419617472557e7 0.0
2.826419617472557e7 -1.4100158211566556e7 0.0
0.0 0.0 0.0

206028.16644310812 2.1608113947577752e7 0.0
2.1608113947577752e7 -1.186209026676714e7 0.0
0.0 0.0 0.0

-3.6744189384147674e6 1.2750411351065863e7 0.0
1.2750411351065863e7 5.94417174378449e7 0.0
0.0 0.0 0.0

-894.1259732507169 1.6358639664719567e7 0.0
1.6358639664719567e7 -3.2395246460741714e7 0.0
0.0 0.0 0.0

-1.214727429223461e7 2.8011409474002574e7 0.0
2.8011409474002574e7 -1.4342524333458541e7 0.0
0.0 0.0 0.0

-869658.8739694925 1.8936595082066733e7 0.0
1.8936595082066733e7 -2.709009222149363e7 0.0
0.0 0.0 0.0

3.2558916878000498e7 2.666079343787169e7 0.0
2.666079343787169e7 1.6115808602877345e7 0.0
0.0 0.0 0.0

-5.491345359662306e6 1.0994360549710294e7 0.0
1.0994360549710294e7 5.468755442625929e7 0.0
0.0 0.0 0.0

1.8472461446931253e6 2.3639609003897604e7 0.0
2.3639609003897604e7 -640859.2829080377 0.0
0.0 0.0 0.0

-965044.8396809166 2.3024129520536818e7 0.0
2.3024129520536818e7 2.1560363811162096e7 0.0
0.0 0.0 0.0

5.677691383967001e6 3.336176443020668e7 0.0
3.336176443020668e7 -5.42282757172617e6 0.0
0.0 0.0 0.0

2.0082787231336795e6 1.0973602979302164e7 0.0
1.0973602979302164e7 -3.3236943981643092e7 0.0
0.0 0.0 0.0

1.7547378200925747e6 1.0283101109670136e7 0.0
1.0283101109670136e7 -1.3434589382172162e7 0.0
0.0 0.0 0.0

-1.4581872267711759e6 1.2615691245230135e7 0.0
1.2615691245230135e7 -6.021089133038493e7 0.0
0.0 0.0 0.0

-1.2179991256258685e7 2.6247194503478836e7 0.0
2.6247194503478836e7 -5.502673898423006e6 0.0
0.0 0.0 0.0

-7.008896127442103e6 1.08337253811498e7 0.0
1.08337253811498e7 4.954508075090503e7 0.0
0.0 0.0 0.0

-1.0891239309386116e7 2.5960880383226342e7 0.0
2.5960880383226342e7 -1.0034074015869085e7 0.0
0.0 0.0 0.0

188991.88283134997 2.0402629069047615e7 0.0
2.0402629069047615e7 -1.2331298794185834e7 0.0
0.0 0.0 0.0

-56591.73761032149 9.680414362459967e6 0.0
9.680414362459967e6 -5.261549537440652e7 0.0
0.0 0.0 0.0

-5.550536789759757e6 1.6957389779515557e7 0.0
1.6957389779515557e7 3.905596554357912e7 0.0
0.0 0.0 0.0

4.399673956884131e6 1.996681288384811e7 0.0
1.996681288384811e7 1.5998177124339532e7 0.0
0.0 0.0 0.0

-1.4002578658135664e6 1.4475872520626266e7 0.0
1.4475872520626266e7 -4.3559939927963465e7 0.0
0.0 0.0 0.0

2.129691297368137e6 2.4855871604629327e6 0.0
2.4855871604629327e6 -4.077623005710295e7 0.0
0.0 0.0 0.0

-2.9982728094034186e6 2.3897608540831663e7 0.0
2.3897608540831663e7 1.7431108312336612e7 0.0
0.0 0.0 0.0

-1.0231855708148887e7 2.6635584117667843e7 0.0
2.6635584117667843e7 -1.3698070890495423e7 0.0
0.0 0.0 0.0

1.0621864502664478e6 1.4888934759439351e7 0.0
1.4888934759439351e7 -1.5703459276795436e7 0.0
0.0 0.0 0.0

-7.984587527572969e6 4.1892469597030166e6 0.0
4.1892469597030166e6 4.5238859173718706e7 0.0
0.0 0.0 0.0

-4.61290280027047e6 844671.6758915669 0.0
844671.6758915669 9.049504430378329e6 0.0
0.0 0.0 0.0

-4.849485834271291e6 2.190159606776691e7 0.0
2.190159606776691e7 2.1116658642902654e7 0.0
0.0 0.0 0.0

3.462927396019281e7 2.9910502687263455e7 0.0
2.9910502687263455e7 2.0620230537576422e7 0.0
0.0 0.0 0.0

2.6484799352647424e7 2.7085843265944127e7 0.0
2.7085843265944127e7 1.5403754965463214e7 0.0
0.0 0.0 0.0

-1.929779870590934e7 2.7002918429429326e7 0.0
2.7002918429429326e7 -1.2699685899464421e7 0.0
0.0 0.0 0.0

-4.947590660697663e6 1.8676721288543493e7 0.0
1.8676721288543493e7 -1.4666087945517814e7 0.0
0.0 0.0 0.0

-1.1333433428529251e7 2.723402987555707e7 0.0
2.723402987555707e7 -1.1639277944686517e7 0.0
0.0 0.0 0.0

-1.1115400903094308e7 2.5168849425516825e7 0.0
2.5168849425516825e7 -1.2665465532635244e7 0.0
0.0 0.0 0.0

-1.2532040284585692e6 1.3348052065149399e7 0.0
1.3348052065149399e7 -5.328020604692686e7 0.0
0.0 0.0 0.0

-2.053508795797666e6 4.312556038121168e6 0.0
4.312556038121168e6 -443733.78099629347 0.0
0.0 0.0 0.0

-1.334282386542241e6 7.734505805344349e6 0.0
7.734505805344349e6 1.6482023824201173e6 0.0
0.0 0.0 0.0

1.5262817454605903e6 1.9458476586235728e7 0.0
1.9458476586235728e7 2.253550140770383e6 0.0
0.0 0.0 0.0

2.3376974517728567e7 2.715819630531757e7 0.0
2.715819630531757e7 1.4009481509562965e7 0.0
0.0 0.0 0.0

1.8074139562648754e6 2.048559701894368e7 0.0
2.048559701894368e7 1.0106421170828555e7 0.0
0.0 0.0 0.0

-3.6568382771191234e6 2.300322773934455e7 0.0
2.300322773934455e7 1.8085236361610446e7 0.0
0.0 0.0 0.0

-2.7383647828534678e7 1.4553364403636988e7 0.0
1.4553364403636988e7 7.513629033132892e6 0.0
0.0 0.0 0.0

3.451809748592668e6 2.0027018224847298e7 0.0
2.0027018224847298e7 1.2357922643651292e7 0.0
0.0 0.0 0.0

2.1593500580100007e6 6.5526758880111035e6 0.0
6.5526758880111035e6 -2.133360918613175e7 0.0
0.0 0.0 0.0

-1.6568682387311285e7 3.5325429956162065e7 0.0
3.5325429956162065e7 6.109538103034606e6 0.0
0.0 0.0 0.0

-7.499540981575912e6 2.045852278000776e6 0.0
2.045852278000776e6 4.780475296243626e7 0.0
0.0 0.0 0.0

-2.1085369039084e6 2.2871069598151788e7 0.0
2.2871069598151788e7 -1.0804553835069885e7 0.0
0.0 0.0 0.0

1.0993699944583243e7 2.4119606324418835e7 0.0
2.4119606324418835e7 1.276075652278398e7 0.0
0.0 0.0 0.0

-9.527021164128933e6 2.63062403209272e7 0.0
2.63062403209272e7 -1.3726111325143347e7 0.0
0.0 0.0 0.0

-4.1893453349489737e6 1.856898328241338e7 0.0
1.856898328241338e7 -3.416606476392219e7 0.0
0.0 0.0 0.0

2.7651316003557734e7 2.8545401329559408e7 0.0
2.8545401329559408e7 1.8653068386208877e7 0.0
0.0 0.0 0.0

-3.9658999623177117e6 2.084474911272464e7 0.0
2.084474911272464e7 -2.446803279547655e7 0.0
0.0 0.0 0.0

2.541852285315615e6 2.1171288654428735e7 0.0
2.1171288654428735e7 1.4362833680557374e7 0.0
0.0 0.0 0.0

5.895636213628207e6 2.3582564158025615e7 0.0
2.3582564158025615e7 1.695037521367677e7 0.0
0.0 0.0 0.0

-2.74894381538809e6 2.365890005572825e7 0.0
2.365890005572825e7 1.8488919165828116e7 0.0
0.0 0.0 0.0

-2.427458458229066e6 2.3789959011490434e7 0.0
2.3789959011490434e7 1.2487851605678972e7 0.0
0.0 0.0 0.0

1.8208478142723702e6 5.662575169878099e6 0.0
5.662575169878099e6 -3.901588362498964e7 0.0
0.0 0.0 0.0

1.8300766401501368e6 3.601037322083426e7 0.0
3.601037322083426e7 -2.291341772154487e6 0.0
0.0 0.0 0.0

-7.258203593150603e6 2.2504273018965386e7 0.0
2.2504273018965386e7 -1.8621483235863395e7 0.0
0.0 0.0 0.0

3.924930631931103e7 2.5245216243291363e7 0.0
2.5245216243291363e7 1.6365808789926754e7 0.0
0.0 0.0 0.0

-9.917499273134457e6 3.22608325874869e7 0.0
3.22608325874869e7 6.637389939327981e6 0.0
0.0 0.0 0.0

1.9644288094084617e6 4.625658497526093e6 0.0
4.625658497526093e6 -4.535226477389882e7 0.0
0.0 0.0 0.0

-2.1678283739208123e6 2.1083644023085926e7 0.0
2.1083644023085926e7 7.885308970635841e6 0.0
0.0 0.0 0.0

2.0197716907429907e7 2.4381308342912234e7 0.0
2.4381308342912234e7 1.1203001412002724e7 0.0
0.0 0.0 0.0

5.0064691439471185e7 2.353652831125834e7 0.0
2.353652831125834e7 1.3833510857699571e7 0.0
0.0 0.0 0.0

-6.481958304953784e6 3.728052470032416e7 0.0
3.728052470032416e7 4.869389485793781e6 0.0
0.0 0.0 0.0

547104.6564182406 2.1994103610897645e7 0.0
2.1994103610897645e7 -1.9638890594812285e7 0.0
0.0 0.0 0.0

-9.718080897268806e6 1.2983520736003194e7 0.0
1.2983520736003194e7 2.3791510976000354e7 0.0
0.0 0.0 0.0

-8.036953453237737e6 2.2509743784111375e6 0.0
2.2509743784111375e6 4.602173620992765e7 0.0
0.0 0.0 0.0

2.575152758984169e6 2.025251858044246e7 0.0
2.025251858044246e7 8.555848126073072e6 0.0
0.0 0.0 0.0

1.5666079415251411e7 2.0049121138888597e7 0.0
2.0049121138888597e7 1.0926418990354244e7 0.0
0.0 0.0 0.0

-9.405522381167145e6 5.7950524057611665e6 0.0
5.7950524057611665e6 3.595814874105044e7 0.0
0.0 0.0 0.0

-3.1157891715946225e6 1.4462086504934566e7 0.0
1.4462086504934566e7 -1.152157020624706e6 0.0
0.0 0.0 0.0

-4.773709629746345e6 2.280140969984274e7 0.0
2.280140969984274e7 -1.66394057986538e7 0.0
0.0 0.0 0.0

-5.469619626505331e6 1.8995013433138847e7 0.0
1.8995013433138847e7 -3.183420748622917e7 0.0
0.0 0.0 0.0

658884.6136477032 3.517333578477737e7 0.0
3.517333578477737e7 -1.824897214526986e6 0.0
0.0 0.0 0.0

6.737765775285798e6 3.409429007778151e7 0.0
3.409429007778151e7 -5.674169110804078e6 0.0
0.0 0.0 0.0

6.312838355477592e6 4.624351710732734e7 0.0
4.624351710732734e7 -4.042116431388435e6 0.0
0.0 0.0 0.0

-1.7075411794510216e7 4.348259864431041e7 0.0
4.348259864431041e7 6.75819392359205e6 0.0
0.0 0.0 0.0

9.703617748063538e6 2.0777870327991433e7 0.0
2.0777870327991433e7 3.59960534221579e7 0.0
0.0 0.0 0.0

-9.540211568125997e6 1.9108732654672284e7 0.0
1.9108732654672284e7 -8.821848221936171e7 0.0
0.0 0.0 0.0

-1.0115906991197776e7 1.3360076714182736e6 0.0
1.3360076714182736e6 2.635002441917795e7 0.0
0.0 0.0 0.0

-1.1545419121228699e7 1.7540101920449127e7 0.0
1.7540101920449127e7 -3.9067430681856774e7 0.0
0.0 0.0 0.0

-5.273003315787101e6 1.751701072974041e7 0.0
1.751701072974041e7 -1.699561583386605e7 0.0
0.0 0.0 0.0

7.897010938603781e6 2.1203878264372773e7 0.0
2.1203878264372773e7 3.453170282884978e7 0.0
0.0 0.0 0.0

-1.119290035756687e7 1.9800731777643066e7 0.0
1.9800731777643066e7 -4.6266618445616394e7 0.0
0.0 0.0 0.0

-8.617488083164122e6 1.8139319438239362e7 0.0
1.8139319438239362e7 -3.2605592166938365e7 0.0
0.0 0.0 0.0

2.2847911437270716e7 2.680675937859294e7 0.0
2.680675937859294e7 1.2329647346491322e7 0.0
0.0 0.0 0.0

-6.411871457899425e6 2.301457357006019e7 0.0
2.301457357006019e7 -1.656004773026747e7 0.0
0.0 0.0 0.0

1.7744253632081337e6 1.0057974378932655e7 0.0
1.0057974378932655e7 -3.758058218886218e7 0.0
0.0 0.0 0.0

1.6430383329715587e6 2.0417921963799648e7 0.0
2.0417921963799648e7 4.700403338381042e6 0.0
0.0 0.0 0.0

-1.1127517053136654e7 2.70946108820342e7 0.0
2.70946108820342e7 -1.4314938324534785e7 0.0
0.0 0.0 0.0

6.044218226838854e6 1.9439448920125265e7 0.0
1.9439448920125265e7 2.185568735364619e7 0.0
0.0 0.0 0.0

2.9464439875872033e6 4.028584842678764e6 0.0
4.028584842678764e6 -1.773874713991096e7 0.0
0.0 0.0 0.0

-1.9631290650164238e6 3.0674965156215664e7 0.0
3.0674965156215664e7 659689.3731876471 0.0
0.0 0.0 0.0

-4.267646735752543e6 3.509420024226061e7 0.0
3.509420024226061e7 2.8502217028517495e6 0.0
0.0 0.0 0.0

-6.040149492088836e6 1.7263061423776053e7 0.0
1.7263061423776053e7 3.779443273961934e7 0.0
0.0 0.0 0.0

2.3761972037413586e6 2.1970138391174257e7 0.0
2.1970138391174257e7 1.0658301832240615e7 0.0
0.0 0.0 0.0

5.398963700352566e6 2.3829825883974917e7 0.0
2.3829825883974917e7 1.786119947559869e7 0.0
0.0 0.0 0.0

-4.516173935727261e6 3.9671825455867454e7 0.0
3.9671825455867454e7 3.2223796556834057e6 0.0
0.0 0.0 0.0

-3.324756836199619e6 2.2783410756149624e7 0.0
2.2783410756149624e7 1.8806406614805266e7 0.0
0.0 0.0 0.0

-9.335962285598205e6 -166243.48993617462 0.0
-166243.48993617462 3.0280870126433123e7 0.0
0.0 0.0 0.0

-3.7438529479263886e6 3.482650156140534e7 0.0
3.482650156140534e7 4.384320260566341e6 0.0
0.0 0.0 0.0

-5738.669930766919 2.9784301669712026e7 0.0
2.9784301669712026e7 -2.6602732440742366e6 0.0
0.0 0.0 0.0

-2.700123926667212e6 2.3119518822248112e7 0.0
2.3119518822248112e7 3.6141578361606537e6 0.0
0.0 0.0 0.0

1.5347813420212492e6 3.560968831468182e7 0.0
3.560968831468182e7 -2.4044141740488997e6 0.0
0.0 0.0 0.0

1.4550263669581916e6 3.4803058292747095e7 0.0
3.4803058292747095e7 -1.9216668812094035e6 0.0
0.0 0.0 0.0

-2.5073521312171533e6 2.212285082353244e7 0.0
2.212285082353244e7 -1.1921126618444024e7 0.0
0.0 0.0 0.0

4.402516795813652e6 2.2101860389324836e7 0.0
2.2101860389324836e7 1.4675056464338427e7 0.0
0.0 0.0 0.0

1.460989222880762e6 9.84117909711616e6 0.0
9.84117909711616e6 -3.5106171332423165e7 0.0
0.0 0.0 0.0

-1.516135766697294e7 1.836009999161696e7 0.0
1.836009999161696e7 -5.599100114096833e7 0.0
0.0 0.0 0.0

-5.2958141835929e6 2.5085136842544384e7 0.0
2.5085136842544384e7 3.80302438162589e6 0.0
0.0 0.0 0.0

-4.317846618412421e7 3.737701286391068e7 0.0
3.737701286391068e7 -1.708824674118248e7 0.0
0.0 0.0 0.0

-8.893718222369911e6 1.9464730689994372e7 0.0
1.9464730689994372e7 -3.0894522964032434e7 0.0
0.0 0.0 0.0

-4.820559794945466e7 3.682433360872365e7 0.0
3.682433360872365e7 -9.83007996604307e6 0.0
0.0 0.0 0.0

-3.5959373402340803e6 2.5564249097989786e7 0.0
2.5564249097989786e7 1.3031724101253018e7 0.0
0.0 0.0 0.0

-6.841932264305141e6 805709.000094835 0.0
805709.000094835 5.302057048046923e7 0.0
0.0 0.0 0.0

4.775200674214788e6 3.3177862699315347e7 0.0
3.3177862699315347e7 -5.3856543183815805e6 0.0
0.0 0.0 0.0

-1.9578973236048214e7 2.938304551930475e7 0.0
2.938304551930475e7 -1.3319565771150175e7 0.0
0.0 0.0 0.0

547914.4777352493 2.2737289232150555e7 0.0
2.2737289232150555e7 -1.7734103960730806e7 0.0
0.0 0.0 0.0

-1.3654577423995174e7 3.539105826398178e7 0.0
3.539105826398178e7 5.888470607187662e6 0.0
0.0 0.0 0.0

-1.049845333728197e7 9.373404598239813e6 0.0
9.373404598239813e6 2.8258250396241978e7 0.0
0.0 0.0 0.0

625273.8884988166 1.1113605695364986e7 0.0
1.1113605695364986e7 -4.44279653767301e7 0.0
0.0 0.0 0.0

-1.7579204718426626e7 3.491493129128521e7 0.0
3.491493129128521e7 5.460347830865321e6 0.0
0.0 0.0 0.0

1.8900061507834469e6 2.120129122964517e7 0.0
2.120129122964517e7 7.02622410541387e6 0.0
0.0 0.0 0.0

-1.1100546871347276e7 1.1680419678763187e7 0.0
1.1680419678763187e7 2.216835196370268e7 0.0
0.0 0.0 0.0

-541230.2666975553 2.0746311798694808e7 0.0
2.0746311798694808e7 -1.2904693818595424e7 0.0
0.0 0.0 0.0

4.557173822191106e6 3.140384034002322e7 0.0
3.140384034002322e7 -6.222299802810267e6 0.0
0.0 0.0 0.0

-2.934007764441085e7 1.5113882353670187e7 0.0
1.5113882353670187e7 7.211449425401228e6 0.0
0.0 0.0 0.0

-7.260139509133751e6 3.2632088462843608e7 0.0
3.2632088462843608e7 7.05175506271096e6 0.0
0.0 0.0 0.0

-435902.2795138592 2.1626304904466573e7 0.0
2.1626304904466573e7 -2.1073538776391115e7 0.0
0.0 0.0 0.0

1.651049015525844e6 1.0135150587614484e7 0.0
1.0135150587614484e7 -3.095000788593299e7 0.0
0.0 0.0 0.0

-555421.7592039711 5.167414265963779e6 0.0
5.167414265963779e6 -3.772146445506087e6 0.0
0.0 0.0 0.0

921329.3294216497 1.9265823045878924e7 0.0
1.9265823045878924e7 -2.321230826272455e7 0.0
0.0 0.0 0.0

-2.6381329809139807e7 2.9204289094883002e7 0.0
2.9204289094883002e7 -6.242868024157599e6 0.0
0.0 0.0 0.0

9.352696691804033e6 4.594302336948284e7 0.0
4.594302336948284e7 -3.119421161659917e6 0.0
0.0 0.0 0.0

3.213976374801405e6 2.0301095158651605e7 0.0
2.0301095158651605e7 3.946591618146325e7 0.0
0.0 0.0 0.0

3.637522447183197e6 2.234195291431759e7 0.0
2.234195291431759e7 1.310096124663986e7 0.0
0.0 0.0 0.0

1.0101739976753937e7 1.84085785011513e7 0.0
1.84085785011513e7 3.530771412399172e7 0.0
0.0 0.0 0.0

-4.578127611562261e6 2.1833303725238018e7 0.0
2.1833303725238018e7 -1.5260425765883105e7 0.0
0.0 0.0 0.0

-6.149545110248765e6 1.6831720311679162e7 0.0
1.6831720311679162e7 3.896277512627257e7 0.0
0.0 0.0 0.0

-3.91455155748681e6 2.0095056557353172e7 0.0
2.0095056557353172e7 -1.6412281534474473e7 0.0
0.0 0.0 0.0

-3.031095608729489e7 3.9049873986636534e7 0.0
3.9049873986636534e7 7.161204616303714e6 0.0
0.0 0.0 0.0

-8.352065377368823e6 5.668224674434578e6 0.0
5.668224674434578e6 4.29229303167376e7 0.0
0.0 0.0 0.0

-6.738633528640483e6 748529.4306426902 0.0
748529.4306426902 5.370731550348703e7 0.0
0.0 0.0 0.0

420841.19752781745 1.4677532886146465e7 0.0
1.4677532886146465e7 -1.7963021279090308e7 0.0
0.0 0.0 0.0

2.395072974409612e6 4.576013330609587e6 0.0
4.576013330609587e6 -518152.09122870245 0.0
0.0 0.0 0.0

-588543.919775404 1.072784376262166e7 0.0
1.072784376262166e7 -5.600834728569119e7 0.0
0.0 0.0 0.0

-5.890550514512327e6 1.4191314463691266e7 0.0
1.4191314463691266e7 4.679874000238474e7 0.0
0.0 0.0 0.0

-673374.9532308318 1.3600308238281116e7 0.0
1.3600308238281116e7 -4.314666073990911e7 0.0
0.0 0.0 0.0

-8.654097233241983e6 1.6951845123079515e6 0.0
1.6951845123079515e6 3.54378990117324e7 0.0
0.0 0.0 0.0

-3.2489003017894635e6 3.175817238152177e7 0.0
3.175817238152177e7 3.533633181195136e6 0.0
0.0 0.0 0.0

5.571517930638615e6 3.202635481590272e7 0.0
3.202635481590272e7 -6.076440026501177e6 0.0
0.0 0.0 0.0

-4.237334752210125e6 3.715855084281928e7 0.0
3.715855084281928e7 2.0881431696283317e6 0.0
0.0 0.0 0.0

5.567959857680365e6 4.4531863594642274e7 0.0
4.4531863594642274e7 -2.420335917456053e6 0.0
0.0 0.0 0.0

2.4783997287863903e6 3.9842887918827005e7 0.0
3.9842887918827005e7 -2.754444819906245e6 0.0
0.0 0.0 0.0

-8.056886769666996e6 2.195512838924213e6 0.0
2.195512838924213e6 4.422179350365721e7 0.0
0.0 0.0 0.0

1.4413772074553538e6 5.05489532662023e6 0.0
5.05489532662023e6 -4.870102850101736e7 0.0
0.0 0.0 0.0

1.0197377763385298e6 2.37411649228937e7 0.0
2.37411649228937e7 -1.2689956168906951e7 0.0
0.0 0.0 0.0

913476.4055700549 2.544696819078864e7 0.0
2.544696819078864e7 -1.0074430934322098e7 0.0
0.0 0.0 0.0

1.707877358753208e6 1.3230638802505309e7 0.0
1.3230638802505309e7 -2.5443462078804284e7 0.0
0.0 0.0 0.0

-7.8783866692658495e6 1.7325733810073428e7 0.0
1.7325733810073428e7 -2.5344646175675225e7 0.0
0.0 0.0 0.0

1.9075439013099845e6 1.934076734410696e7 0.0
1.934076734410696e7 6.35847955933675e6 0.0
0.0 0.0 0.0

-3.468345838972824e6 2.7608123959299035e7 0.0
2.7608123959299035e7 9.807492253155919e6 0.0
0.0 0.0 0.0

-1.0747184921197979e7 3.3524505856601853e7 0.0
3.3524505856601853e7 6.215019694358249e6 0.0
0.0 0.0 0.0

-2.9199504527227227e6 2.017353853203723e7 0.0
2.017353853203723e7 -8.962709799715342e6 0.0
0.0 0.0 0.0

-1.4785929820623703e6 1.4507319351175053e7 0.0
1.4507319351175053e7 -1.865094063188204e6 0.0
0.0 0.0 0.0

2.226570461744182e6 3.173369749621223e6 0.0
3.173369749621223e6 -3.893491856901784e7 0.0
0.0 0.0 0.0

3.5041916276375526e6 2.3437305042737946e7 0.0
2.3437305042737946e7 -6.189205714897271e6 0.0
0.0 0.0 0.0

1.438480273667384e6 1.0588539750382954e7 0.0
1.0588539750382954e7 -3.329694822221157e7 0.0
0.0 0.0 0.0

-4.357525398036558e6 9.488293722461754e6 0.0
9.488293722461754e6 2.420736589994358e6 0.0
0.0 0.0 0.0

-2.0180087535877398e6 1.2967760658965716e7 0.0
1.2967760658965716e7 -4.929402817676265e6 0.0
0.0 0.0 0.0

-4.616680512306382e6 2.943878949731283e6 0.0
2.943878949731283e6 3.676807484298885e6 0.0
0.0 0.0 0.0

-1.9067960680566248e6 2.878897936031661e7 0.0
2.878897936031661e7 4.183077996255878e6 0.0
0.0 0.0 0.0

-459796.9403206082 1.995290000378664e7 0.0
1.995290000378664e7 -2.4972695796474855e7 0.0
0.0 0.0 0.0

-1.503671035267841e6 1.0329915731678598e7 0.0
1.0329915731678598e7 -6.485686554224592e7 0.0
0.0 0.0 0.0

-9.463771270985952e6 2.521240681842852e7 0.0
2.521240681842852e7 -7.848596085081223e6 0.0
0.0 0.0 0.0

-3.214576988610906e7 3.366797722199621e7 0.0
3.366797722199621e7 -1.6252388721140884e7 0.0
0.0 0.0 0.0

-2.229256384158323e7 3.391453614179109e7 0.0
3.391453614179109e7 4.522380128235671e6 0.0
0.0 0.0 0.0

-1.361328166847274e7 2.8230438320590243e7 0.0
2.8230438320590243e7 -1.3597131583214264e7 0.0
0.0 0.0 0.0

-6.168120458840882e6 1.7798046428624608e7 0.0
1.7798046428624608e7 -4.338132156166205e7 0.0
0.0 0.0 0.0

-9.696023082461279e6 1.8693402344138287e7 0.0
1.8693402344138287e7 -3.2320077941680614e7 0.0
0.0 0.0 0.0

-2.5156934597279686e7 3.0975697280908752e7 0.0
3.0975697280908752e7 -1.3968621553938556e7 0.0
0.0 0.0 0.0

-1.4106787193266718e7 1.9339658892576575e7 0.0
1.9339658892576575e7 -4.702262511927009e7 0.0
0.0 0.0 0.0

-4.89854400013753e6 2.1432557135825235e7 0.0
2.1432557135825235e7 2.506115444524172e7 0.0
0.0 0.0 0.0

-1.0461665869327908e7 2.184206060523772e6 0.0
2.184206060523772e6 2.429936068616335e7 0.0
0.0 0.0 0.0

29809.9908738269 2.9375274504986204e7 0.0
2.9375274504986204e7 -4.435508368041012e6 0.0
0.0 0.0 0.0

-3.564303892483265e6 2.449151803089237e7 0.0
2.449151803089237e7 1.54987416343138e7 0.0
0.0 0.0 0.0

-9.61544265109811e6 1.062395148808297e6 0.0
1.062395148808297e6 3.1001949486120693e7 0.0
0.0 0.0 0.0

336375.137901837 1.604570245684395e7 0.0
1.604570245684395e7 -3.1956972899392005e7 0.0
0.0 0.0 0.0

-1.7003047606573703e6 3.0101906088450857e7 0.0
3.0101906088450857e7 -419704.5014542791 0.0
0.0 0.0 0.0

635639.7157668422 2.0108039028438184e7 0.0
2.0108039028438184e7 -1.804314477650512e6 0.0
0.0 0.0 0.0

-4.679804247415972e6 3.096218609398427e7 0.0
3.096218609398427e7 6.731008590882226e6 0.0
0.0 0.0 0.0

-2.3115336254791934e7 3.134975467835062e7 0.0
3.134975467835062e7 -1.5270941594632557e7 0.0
0.0 0.0 0.0

-1.1002288577882703e7 1.8925783514175516e7 0.0
1.8925783514175516e7 -3.6674295565824196e7 0.0
0.0 0.0 0.0

5.7641304537925925e6 2.3164450090417482e7 0.0
2.3164450090417482e7 1.919288302234982e7 0.0
0.0 0.0 0.0

-3.409848375299063e7 3.440448152127521e7 0.0
3.440448152127521e7 2.9530371119427327e6 0.0
0.0 0.0 0.0

-9.764048421650276e6 1.189680645394531e7 0.0
1.189680645394531e7 2.3011579819930524e7 0.0
0.0 0.0 0.0

-5.379880731692184e6 1.1450258837203994e7 0.0
1.1450258837203994e7 5.780289189371449e7 0.0
0.0 0.0 0.0

-2.871045050122633e6 2.219327179445788e7 0.0
2.219327179445788e7 -1.189933809182874e7 0.0
0.0 0.0 0.0

4.788020698872194e6 3.95423190940868e7 0.0
3.95423190940868e7 -3.7810757400091644e6 0.0
0.0 0.0 0.0

9.94347099342929e6 1.957169953210613e7 0.0
1.957169953210613e7 3.3144903579327784e7 0.0
0.0 0.0 0.0

2.9861309851236377e7 2.320043030365615e7 0.0
2.320043030365615e7 6.495900203251818e6 0.0
0.0 0.0 0.0

-1.797935248522993e7 2.9612472134282697e7 0.0
2.9612472134282697e7 -1.4430460623614786e7 0.0
0.0 0.0 0.0

6.98833127737942e6 3.646862358693071e7 0.0
3.646862358693071e7 -5.206665176592214e6 0.0
0.0 0.0 0.0

1.3585208045724489e7 1.924725390110955e7 0.0
1.924725390110955e7 5.079158894470034e7 0.0
0.0 0.0 0.0

967931.0515358411 7.418648723206584e6 0.0
7.418648723206584e6 -6.278679302955136e7 0.0
0.0 0.0 0.0

-6.844252897573121e6 3.1531964232033268e7 0.0
3.1531964232033268e7 7.751886889689941e6 0.0
0.0 0.0 0.0

975127.9794987047 1.862924717105156e7 0.0
1.862924717105156e7 447859.97620744177 0.0
0.0 0.0 0.0

-1.5927738908204207e7 2.0004671052608095e7 0.0
2.0004671052608095e7 -5.3092464668014675e7 0.0
0.0 0.0 0.0

-7.593242237993736e6 2.5604044796675302e7 0.0
2.5604044796675302e7 -2.9174121403593044e6 0.0
0.0 0.0 0.0

1.7711623580749854e6 3.061595167596379e6 0.0
3.061595167596379e6 -5.392344131429435e7 0.0
0.0 0.0 0.0

-272117.8776977211 2.398080689183847e7 0.0
2.398080689183847e7 -1.0546933775542237e7 0.0
0.0 0.0 0.0

5.511477968653647e6 2.6685048589820452e7 0.0
2.6685048589820452e7 -8.344326684500892e6 0.0
0.0 0.0 0.0

2.9328276847455095e7 2.7584745122823853e7 0.0
2.7584745122823853e7 3.0177638422536543e6 0.0
0.0 0.0 0.0

-6.017461366503403e6 1.9901523417502634e7 0.0
1.9901523417502634e7 2.580761050278448e7 0.0
0.0 0.0 0.0

-2.5389631064237207e6 1.6919929040928043e7 0.0
1.6919929040928043e7 -9.967639288595086e6 0.0
0.0 0.0 0.0

-1.1357706694855783e7 2.6556018407059617e7 0.0
2.6556018407059617e7 -1.3669562582932469e7 0.0
0.0 0.0 0.0

-393453.7813552815 2.9623417409233235e7 0.0
2.9623417409233235e7 -3.9132758726598057e6 0.0
0.0 0.0 0.0

-6.433115617046002e6 3.482162313397396e6 0.0
3.482162313397396e6 5.692172288501462e7 0.0
0.0 0.0 0.0

-2.391066502226039e6 2.0256267946505073e7 0.0
2.0256267946505073e7 -1.0722070442686092e7 0.0
0.0 0.0 0.0

-1.223994840952195e7 3.392707583897663e7 0.0
3.392707583897663e7 6.215624031665185e6 0.0
0.0 0.0 0.0

1.0236203264614511e6 9.384704043511093e6 0.0
9.384704043511093e6 -1.479151604937294e7 0.0
0.0 0.0 0.0

1.276354312940273e7 2.3041077395990927e7 0.0
2.3041077395990927e7 1.4019274402008539e7 0.0
0.0 0.0 0.0

-5.241674543150646e7 3.663690986810702e7 0.0
3.663690986810702e7 2.611150742188286e6 0.0
0.0 0.0 0.0

3.801021150910889e6 1.7982027348706085e7 0.0
1.7982027348706085e7 1.2169002079263886e7 0.0
0.0 0.0 0.0

2.8672189374127993e6 7.494577854377846e6 0.0
7.494577854377846e6 -1.9857415583321646e7 0.0
0.0 0.0 0.0

5.863690129611803e6 2.2059084205664355e7 0.0
2.2059084205664355e7 2.2596750186119087e7 0.0
0.0 0.0 0.0

2.677176425177548e6 2.8914969390971083e7 0.0
2.8914969390971083e7 -7.921108237101778e6 0.0
0.0 0.0 0.0

2.6173004452049024e7 3.7131206143999584e7 0.0
3.7131206143999584e7 -6.005803591803925e6 0.0
0.0 0.0 0.0

-4.430996865288181e6 1.8789838631019484e7 0.0
1.8789838631019484e7 -1.4769989831885792e7 0.0
0.0 0.0 0.0

-2.611964263111004e6 1.904925689143689e7 0.0
1.904925689143689e7 1.0158793092834003e7 0.0
0.0 0.0 0.0

447767.9097553892 9.533152633049233e6 0.0
9.533152633049233e6 -1.2319877120555094e7 0.0
0.0 0.0 0.0

-6.186216966512643e6 2.0516880716981485e7 0.0
2.0516880716981485e7 -2.989661685061306e7 0.0
0.0 0.0 0.0

718484.284127546 2.4361865467695627e7 0.0
2.4361865467695627e7 -1.0916520132860523e7 0.0
0.0 0.0 0.0

2.165160043523839e7 2.755864000266889e7 0.0
2.755864000266889e7 1.6268275694044717e7 0.0
0.0 0.0 0.0

-8.8226577454679e6 2.5556252540675886e7 0.0
2.5556252540675886e7 -1.4217070835827481e7 0.0
0.0 0.0 0.0

4.810466330369178e6 2.6469931048050538e7 0.0
2.6469931048050538e7 -7.626169249543909e6 0.0
0.0 0.0 0.0

-8.0298757128941165e6 4.841867239350314e6 0.0
4.841867239350314e6 1.1524919748204235e7 0.0
0.0 0.0 0.0

213822.40153743443 8.129546576957654e6 0.0
8.129546576957654e6 -3.1416405345729515e6 0.0
0.0 0.0 0.0

1.3201159005624825e7 2.5929594950811494e7 0.0
2.5929594950811494e7 -919289.7330693966 0.0
0.0 0.0 0.0

3.2624198906062506e6 1.9087501316652082e7 0.0
1.9087501316652082e7 1.0182104831219483e7 0.0
0.0 0.0 0.0

6.797575412705977e7 2.74671258036293e7 0.0
2.74671258036293e7 1.9565485269750763e7 0.0
0.0 0.0 0.0

-9.246110196050141e6 1.1601562086175387e6 0.0
1.1601562086175387e6 3.452999674176268e7 0.0
0.0 0.0 0.0

-2.2042172946574446e7 2.9290087178337257e7 0.0
2.9290087178337257e7 -1.065764622026594e7 0.0
0.0 0.0 0.0

-1.7107758986687876e7 2.6666651916436806e7 0.0
2.6666651916436806e7 -8.569528445864825e6 0.0
0.0 0.0 0.0

-4.068134500185907e7 3.1015136738896117e7 0.0
3.1015136738896117e7 -1.6179152940454666e7 0.0
0.0 0.0 0.0

4.509029415294476e7 6.460388928999983e6 0.0
6.460388928999983e6 -1.1974609526467156e6 0.0
0.0 0.0 0.0

-4.1558828221711554e6 1.0210545298183557e7 0.0
1.0210545298183557e7 6.659960404394699e7 0.0
0.0 0.0 0.0

-1.7561429501786497e6 1.3783364012271298e7 0.0
1.3783364012271298e7 -47703.115063117235 0.0
0.0 0.0 0.0

-2.1145098096490383e7 2.8475560740089778e7 0.0
2.8475560740089778e7 -1.4603129549194671e7 0.0
0.0 0.0 0.0

-4.80420831658921e6 3.110027421280816e7 0.0
3.110027421280816e7 7.934910053843697e6 0.0
0.0 0.0 0.0

145021.60004529497 2.386600750878345e7 0.0
2.386600750878345e7 -1.254125143582296e7 0.0
0.0 0.0 0.0

853932.228282257 1.5638838220062781e7 0.0
1.5638838220062781e7 -1.92532085057967e7 0.0
0.0 0.0 0.0

-183048.5256555155 2.0117617300374996e7 0.0
2.0117617300374996e7 -7.156912521720349e6 0.0
0.0 0.0 0.0

-9.69144522952864e6 1.7287883623459723e7 0.0
1.7287883623459723e7 -3.431713166313809e7 0.0
0.0 0.0 0.0

-1.2307611142147979e7 2.0363915471895877e7 0.0
2.0363915471895877e7 -7.53710616084474e7 0.0
0.0 0.0 0.0

1.6852089246328015e7 5.945618460075908e6 0.0
5.945618460075908e6 -2.2160073364676805e6 0.0
0.0 0.0 0.0

1.2817368245307542e7 3.7421714466539904e7 0.0
3.7421714466539904e7 -5.748682440319422e6 0.0
0.0 0.0 0.0

-7.074226234140788e6 1.8738071406742875e7 0.0
1.8738071406742875e7 -2.3580754874468748e7 0.0
0.0 0.0 0.0

2.246557914029958e7 1.9402848055828847e7 0.0
1.9402848055828847e7 5.100192254009323e6 0.0
0.0 0.0 0.0

-647916.0013799241 2.1411947832079858e7 0.0
2.1411947832079858e7 -8.102212134368642e6 0.0
0.0 0.0 0.0

154638.04413772933 2.8825907456913717e7 0.0
2.8825907456913717e7 -4.0955248662088225e6 0.0
0.0 0.0 0.0

-5.614712325143777e6 2.0286916471548893e7 0.0
2.0286916471548893e7 -1.9577853201370846e7 0.0
0.0 0.0 0.0

-2.24783877525216e7 2.2242273387461614e7 0.0
2.2242273387461614e7 676292.2076018862 0.0
0.0 0.0 0.0

-9.103231177848846e6 -2.0062681160428987e6 0.0
-2.0062681160428987e6 1.9781448450519014e7 0.0
0.0 0.0 0.0

-4.765098529209299e6 2.094305645676424e7 0.0
2.094305645676424e7 2.4676590911205895e7 0.0
0.0 0.0 0.0

-388674.87931799213 2.0052285614997856e7 0.0
2.0052285614997856e7 2.6218007343107504e6 0.0
0.0 0.0 0.0

-7.591497938737221e6 2.0431805940260015e7 0.0
2.0431805940260015e7 -2.1172358976204798e7 0.0
0.0 0.0 0.0

-432498.1089851707 2.1354465787758127e7 0.0
2.1354465787758127e7 -8.572136932709225e6 0.0
0.0 0.0 0.0

-2.7720707778691007e6 1.511870174614156e7 0.0
1.511870174614156e7 -2.8634901742085596e6 0.0
0.0 0.0 0.0

3.408115038273728e7 2.7070970224990256e7 0.0
2.7070970224990256e7 2.0023146888756938e6 0.0
0.0 0.0 0.0

-1.2631380510235328e7 3.754924887539528e7 0.0
3.754924887539528e7 6.196304733532038e6 0.0
0.0 0.0 0.0

8.884686534429792e6 2.7620097582119036e7 0.0
2.7620097582119036e7 -5.548830605762972e6 0.0
0.0 0.0 0.0

-6.19105228749937e6 2.4220717864937842e7 0.0
2.4220717864937842e7 -4.716894512467767e6 0.0
0.0 0.0 0.0

-2.98815652186624e6 3.7618105326196164e7 0.0
3.7618105326196164e7 2.807714139355827e6 0.0
0.0 0.0 0.0

-4.545945649395373e6 2.2436451520079613e7 0.0
2.2436451520079613e7 2.1152590757621437e7 0.0
0.0 0.0 0.0

1.0567688908661208e6 8.74108556438131e6 0.0
8.74108556438131e6 -9.284446158302238e6 0.0
0.0 0.0 0.0

-2.329724085257217e6 8.539990557198482e6 0.0
8.539990557198482e6 3.9435234064842435e6 0.0
0.0 0.0 0.0

-1.3479296781743558e7 1.7885852956005655e7 0.0
1.7885852956005655e7 -4.9864879734367065e7 0.0
0.0 0.0 0.0

-3.5523894026347217e6 2.4261418967107914e7 0.0
2.4261418967107914e7 6.829945088373622e6 0.0
0.0 0.0 0.0

1.359029454190459e6 5.613979206701099e6 0.0
5.613979206701099e6 -9.388105080143057e6 0.0
0.0 0.0 0.0

-6.38174980473968e7 3.799638815866447e7 0.0
3.799638815866447e7 -1.105750607694269e7 0.0
0.0 0.0 0.0

-1.7984891885362715e6 9.64569496638115e6 0.0
9.64569496638115e6 -7.5270523089508e7 0.0
0.0 0.0 0.0

-1.9130767199892048e6 1.1462408765050665e7 0.0
1.1462408765050665e7 -4.931893579163723e6 0.0
0.0 0.0 0.0

-1.2312821605362171e7 1.8750681197818283e7 0.0
1.8750681197818283e7 -5.30502596231188e7 0.0
0.0 0.0 0.0

1.7466238177185636e6 4.681594560051268e6 0.0
4.681594560051268e6 -4.758058915492862e7 0.0
0.0 0.0 0.0

3.1944578695971206e7 4.215706903363518e7 0.0
4.215706903363518e7 -8.580952795945065e6 0.0
0.0 0.0 0.0

2.174764579228809e6 1.0942590059493816e7 0.0
1.0942590059493816e7 -3.1135911531042464e7 0.0
0.0 0.0 0.0

-3.5974583832002953e6 1.4933910263184633e7 0.0
1.4933910263184633e7 5.381223638519934e7 0.0
0.0 0.0 0.0

-5.770090295766728e6 2.007582283191452e7 0.0
2.007582283191452e7 2.628579019736462e7 0.0
0.0 0.0 0.0

-3.9284163232295755e6 2.646318331530011e7 0.0
2.646318331530011e7 1.227347718083452e7 0.0
0.0 0.0 0.0

-1.0093184669082498e7 2.433165698051823e7 0.0
2.433165698051823e7 -1.2279427021959204e7 0.0
0.0 0.0 0.0

-4.852574253048431e6 2.0829039927389905e7 0.0
2.0829039927389905e7 2.700580302323106e7 0.0
0.0 0.0 0.0

-2.375807236540635e6 2.882893688903614e7 0.0
2.882893688903614e7 2.4003112508017714e6 0.0
0.0 0.0 0.0

1.4444775229462389e7 2.0846951677509878e7 0.0
2.0846951677509878e7 4.814925251945491e7 0.0
0.0 0.0 0.0

-1.0449497266743656e7 1.4152632661709527e6 0.0
1.4152632661709527e6 2.107951801251266e7 0.0
0.0 0.0 0.0

1.377708325966036e6 2.331994316293558e7 0.0
2.331994316293558e7 -1.5766309367414767e7 0.0
0.0 0.0 0.0

-4.857271360938225e6 1.3858991225725904e7 0.0
1.3858991225725904e7 -8.446376691772422e7 0.0
0.0 0.0 0.0

-1.1130676930969233e7 3.979742221991001e7 0.0
3.979742221991001e7 6.082647053838691e6 0.0
0.0 0.0 0.0

5.288738798722767e6 3.093206005308891e7 0.0
3.093206005308891e7 -7.07038629640001e6 0.0
0.0 0.0 0.0

4.299834951323196e6 2.4004432462329913e7 0.0
2.4004432462329913e7 3.575210592519853e6 0.0
0.0 0.0 0.0

-5.666147877991753e6 2.0004898152091976e7 0.0
2.0004898152091976e7 2.7938949010655448e7 0.0
0.0 0.0 0.0

-2.412520670530122e7 3.990070909226357e7 0.0
3.990070909226357e7 6.916481248982325e6 0.0
0.0 0.0 0.0

2.4919644199953615e6 2.6335397187304605e7 0.0
2.6335397187304605e7 -1.1086122413715068e7 0.0
0.0 0.0 0.0

-6.336654064027493e6 1.8540379157854427e7 0.0
1.8540379157854427e7 -3.888615806750618e7 0.0
0.0 0.0 0.0

-1.887139151043735e7 4.298292628339524e7 0.0
4.298292628339524e7 6.070581170775782e6 0.0
0.0 0.0 0.0

4.407362964675997e7 3.89878868056641e7 0.0
3.89878868056641e7 -8.95307952541498e6 0.0
0.0 0.0 0.0

3.4149811302472507e6 2.282828551108023e7 0.0
2.282828551108023e7 4.915299869199798e6 0.0
0.0 0.0 0.0

1.5511895765542518e6 1.3080122750246115e7 0.0
1.3080122750246115e7 -2.7523575514820814e7 0.0
0.0 0.0 0.0

-1.5066478258042442e7 2.0920378927629773e7 0.0
2.0920378927629773e7 -5.7869983581522815e7 0.0
0.0 0.0 0.0

2.1125436269588638e7 3.733475190905836e7 0.0
3.733475190905836e7 -6.0635091576521415e6 0.0
0.0 0.0 0.0

-766474.9783584606 2.1708157613594443e7 0.0
2.1708157613594443e7 -1.651193996469503e7 0.0
0.0 0.0 0.0

1.525488374334361e6 3.403624822946434e7 0.0
3.403624822946434e7 -3.6286238864612533e6 0.0
0.0 0.0 0.0

-3.535559144275874e6 1.2796390348294767e7 0.0
1.2796390348294767e7 -7.081648370387627e7 0.0
0.0 0.0 0.0

1.818435288815538e6 2.169498298576142e7 0.0
2.169498298576142e7 9.788894473043526e6 0.0
0.0 0.0 0.0

-2.8406451070139e7 3.593995499246924e7 0.0
3.593995499246924e7 5.8172092456582915e6 0.0
0.0 0.0 0.0

-1.71682597915052e6 2.9378197615223907e7 0.0
2.9378197615223907e7 3.190172900151103e6 0.0
0.0 0.0 0.0

3.0657015639154937e7 2.417463952706312e7 0.0
2.417463952706312e7 1.2522144931186449e7 0.0
0.0 0.0 0.0

-4.0315592073779805e6 3.8681761966811836e7 0.0
3.8681761966811836e7 1.4559596813971498e6 0.0
0.0 0.0 0.0

4.428604973581261e6 2.1452111874638103e7 0.0
2.1452111874638103e7 1.5951779841424774e7 0.0
0.0 0.0 0.0

-2.7324676107888278e6 3.00237923309119e6 0.0
3.00237923309119e6 1.097574598235181e6 0.0
0.0 0.0 0.0

1.3340561554941574e7 3.987303635347855e7 0.0
3.987303635347855e7 -4.93016868250532e6 0.0
0.0 0.0 0.0

-367109.1843630215 2.0856609143194336e7 0.0
2.0856609143194336e7 -2.3130442333405428e7 0.0
0.0 0.0 0.0

1.5218658722189888e6 3.818999809080128e6 0.0
3.818999809080128e6 -5.964548326490193e7 0.0
0.0 0.0 0.0

-548528.8039128773 1.2551483696352404e7 0.0
1.2551483696352404e7 -7.8074623243435435e6 0.0
0.0 0.0 0.0

1.535994248024776e6 7.093549506111503e6 0.0
7.093549506111503e6 -9.65624179223756e6 0.0
0.0 0.0 0.0

1.024985237227737e6 1.6689684115716286e7 0.0
1.6689684115716286e7 -1.905227145481435e7 0.0
0.0 0.0 0.0

-2.4848560573378112e7 3.3760791022106454e7 0.0
3.3760791022106454e7 4.735664373182936e6 0.0
0.0 0.0 0.0

-3.5406381128891543e6 2.4390050856273852e7 0.0
2.4390050856273852e7 3.7435597910233177e6 0.0
0.0 0.0 0.0

7.327536848337609e6 2.8123428237162635e7 0.0
2.8123428237162635e7 -6.317788549186176e6 0.0
0.0 0.0 0.0

2.03753673227923e6 6.258965510033273e6 0.0
6.258965510033273e6 -4.6550156059217766e7 0.0
0.0 0.0 0.0

331061.2164436127 2.3794380741386395e7 0.0
2.3794380741386395e7 -1.0544793969829347e7 0.0
0.0 0.0 0.0

20547.105086476542 1.9798691098404422e7 0.0
1.9798691098404422e7 -1.634673683882181e7 0.0
0.0 0.0 0.0

-1.6768738893224364e7 2.735256386604754e7 0.0
2.735256386604754e7 -1.379735795207246e7 0.0
0.0 0.0 0.0

1.8810972631007794e7 3.426421758506034e7 0.0
3.426421758506034e7 -5.84714120786558e6 0.0
0.0 0.0 0.0

-5.045284522601033e6 2.801712867865464e7 0.0
2.801712867865464e7 1.1434766618900232e7 0.0
0.0 0.0 0.0

4.049477561516288e6 2.254575316290035e7 0.0
2.254575316290035e7 1.5352627646438528e7 0.0
0.0 0.0 0.0

6.311112760477148e6 1.9666985094946768e7 0.0
1.9666985094946768e7 8.679159110815817e7 0.0
0.0 0.0 0.0

-4.816535674315338e6 4.309507267689128e7 0.0
4.309507267689128e7 3.8223176171709793e6 0.0
0.0 0.0 0.0

1.7290938072221116e6 2.416219632845871e7 0.0
2.416219632845871e7 -1.0140524641523434e7 0.0
0.0 0.0 0.0

1.5748922535089198e6 1.1758574419335082e7 0.0
1.1758574419335082e7 -3.636555916381257e7 0.0
0.0 0.0 0.0

1.5669175682941899e6 1.076782321334318e7 0.0
1.076782321334318e7 -3.845344501571016e7 0.0
0.0 0.0 0.0

3.0594881716482006e6 3.0228546232087e6 0.0
3.0228546232087e6 -3.2990320243047766e7 0.0
0.0 0.0 0.0

-3.1055770842600176e6 2.721145560311534e7 0.0
2.721145560311534e7 1.1602689188623428e7 0.0
0.0 0.0 0.0

2.686716977055421e6 3.295471862928919e6 0.0
3.295471862928919e6 -3.2791688867561284e7 0.0
0.0 0.0 0.0

-8.795008129462413e6 4.2790128125530295e6 0.0
4.2790128125530295e6 4.159949525228328e7 0.0
0.0 0.0 0.0

-3.0732978044520626e6 2.4477452331873924e7 0.0
2.4477452331873924e7 1.8190557740304306e7 0.0
0.0 0.0 0.0

-2.5271892099871e6 1.2184783403165275e7 0.0
1.2184783403165275e7 -3.1234918711908017e6 0.0
0.0 0.0 0.0

4.151704583850261e6 3.1650028616793416e7 0.0
3.1650028616793416e7 -6.655214732341411e6 0.0
0.0 0.0 0.0

8.743936480893034e6 3.5842180324296094e7 0.0
3.5842180324296094e7 -4.633402986818099e6 0.0
0.0 0.0 0.0

1.9667634481795798e6 1.8323047597805616e7 0.0
1.8323047597805616e7 4.444919872158488e6 0.0
0.0 0.0 0.0

-2.595485471005194e6 1.2970891450645408e7 0.0
1.2970891450645408e7 -6.077028321914862e7 0.0
0.0 0.0 0.0

2.0924137386245616e6 4.384276236581457e6 0.0
4.384276236581457e6 -5.136942063402992e7 0.0
0.0 0.0 0.0

-5.920561444764758e7 4.2539529000732996e7 0.0
4.2539529000732996e7 -1.6245204443166249e7 0.0
0.0 0.0 0.0

3.0244033366011214e7 2.849186133759648e7 0.0
2.849186133759648e7 1.4460464965735264e7 0.0
0.0 0.0 0.0

7.193234979707844e6 3.524927731077639e7 0.0
3.524927731077639e7 -4.627284724134728e6 0.0
0.0 0.0 0.0

1.0224106481710384e6 2.14808080047686e7 0.0
2.14808080047686e7 2.2989048078857373e7 0.0
0.0 0.0 0.0

1.6154173342678268e6 2.0150724200330406e7 0.0
2.0150724200330406e7 4.592766490870926e6 0.0
0.0 0.0 0.0

-7.6509616289240755e6 9.276616966041658e6 0.0
9.276616966041658e6 4.8659865340034105e7 0.0
0.0 0.0 0.0

-1.3453273953328144e7 3.5414167093889646e7 0.0
3.5414167093889646e7 5.908694416363175e6 0.0
0.0 0.0 0.0

-1.3218947803617425e6 1.6551035138452042e7 0.0
1.6551035138452042e7 -9.97805180114589e6 0.0
0.0 0.0 0.0

-9.8821353738149e6 3.242442206296942e6 0.0
3.242442206296942e6 3.2778269846364617e7 0.0
0.0 0.0 0.0

1.6093317136652581e6 1.400728966495886e7 0.0
1.400728966495886e7 1.024942230598779e8 0.0
0.0 0.0 0.0

1.4587816529941652e6 2.4085019828977548e7 0.0
2.4085019828977548e7 -1.4473923079755675e7 0.0
0.0 0.0 0.0

2.3936848821657393e6 4.503675234440195e6 0.0
4.503675234440195e6 -1.030166364823785e7 0.0
0.0 0.0 0.0

-4.410284364335157e6 9.987514392840052e6 0.0
9.987514392840052e6 6.914836679710306e7 0.0
0.0 0.0 0.0

2.4937813079252746e6 3.3135429483894203e6 0.0
3.3135429483894203e6 -4.196840093791399e7 0.0
0.0 0.0 0.0

-7.671485338372504e6 2.4258509171775114e7 0.0
2.4258509171775114e7 -1.5156083724036913e7 0.0
0.0 0.0 0.0

-2.7207274297200363e7 2.966728613458536e7 0.0
2.966728613458536e7 -1.562119538085724e7 0.0
0.0 0.0 0.0

281677.90477853455 2.1657645158028323e7 0.0
2.1657645158028323e7 -1.9118958336323835e7 0.0
0.0 0.0 0.0

-2.4536292347255847e6 1.2898389587817904e7 0.0
1.2898389587817904e7 649171.0926026993 0.0
0.0 0.0 0.0

-6.477903794738874e6 2.5359101449535374e7 0.0
2.5359101449535374e7 840399.240008323 0.0
0.0 0.0 0.0

2.344395769145725e7 3.3183084345407058e7 0.0
3.3183084345407058e7 -5.2507308994349055e6 0.0
0.0 0.0 0.0

-8.907721401063811e6 -2.0520759644918917e6 0.0
-2.0520759644918917e6 2.1747256829061985e7 0.0
0.0 0.0 0.0

1.4340329944817087e7 2.3706690890491392e7 0.0
2.3706690890491392e7 8.850175884290809e6 0.0
0.0 0.0 0.0

2.284946460253356e7 4.363587093541139e7 0.0
4.363587093541139e7 -8.249581356563453e6 0.0
0.0 0.0 0.0

2.8177201241293084e6 3.329228636875023e6 0.0
3.329228636875023e6 -3.704344218961802e7 0.0
0.0 0.0 0.0

-2.925862432287354e6 2.1221382126045834e7 0.0
2.1221382126045834e7 5.347375408258798e6 0.0
0.0 0.0 0.0

1.3718244065999199e7 2.218674314120338e7 0.0
2.218674314120338e7 5.360751697222941e7 0.0
0.0 0.0 0.0

7.380998556454073e7 8.326760824637406e6 0.0
8.326760824637406e6 -341887.0305970274 0.0
0.0 0.0 0.0

-3.49413940403932e7 3.217851662569651e7 0.0
3.217851662569651e7 -1.5353507269587953e7 0.0
0.0 0.0 0.0

-2.545096440186807e6 2.8293456344055105e7 0.0
2.8293456344055105e7 3.502710582703625e6 0.0
0.0 0.0 0.0

-2.0238144502925333e6 1.325281810174172e7 0.0
1.325281810174172e7 -5.291835522392582e7 0.0
0.0 0.0 0.0

-1.8533494118870277e7 3.312776196647554e7 0.0
3.312776196647554e7 5.213685354249942e6 0.0
0.0 0.0 0.0

1.2482791536874238e7 2.4136004260569718e7 0.0
2.4136004260569718e7 1.0800388418362513e7 0.0
0.0 0.0 0.0

-1.9368751770685092e6 9.471646363939479e6 0.0
9.471646363939479e6 8.295234661672136e7 0.0
0.0 0.0 0.0

-4.764586847916035e6 2.626242555016287e7 0.0
2.626242555016287e7 1.2419333087633638e7 0.0
0.0 0.0 0.0

4.8012904393854095e6 1.999149341581954e7 0.0
1.999149341581954e7 2.133367831275243e7 0.0
0.0 0.0 0.0

-543237.8372761426 2.1862617113841094e7 0.0
2.1862617113841094e7 -1.2138704178773474e7 0.0
0.0 0.0 0.0

1.0375389992541578e7 2.5666535240417268e7 0.0
2.5666535240417268e7 -622289.0238587903 0.0
0.0 0.0 0.0

3.308022983731593e6 2.4908031512609296e7 0.0
2.4908031512609296e7 -6.821381807511099e6 0.0
0.0 0.0 0.0

-2.803747209673082e6 1.6520559788867872e7 0.0
1.6520559788867872e7 -2.6328471870750412e6 0.0
0.0 0.0 0.0

3.273866933559942e6 2.0991866106453467e7 0.0
2.0991866106453467e7 2.7234697786963835e7 0.0
0.0 0.0 0.0

1.3303255776693702e6 2.133714386005369e7 0.0
2.133714386005369e7 3.2256631912408383e6 0.0
0.0 0.0 0.0

230490.1415712922 2.081209186325925e7 0.0
2.081209186325925e7 -4.334147462456621e6 0.0
0.0 0.0 0.0

-6.488182236083159e6 1.88997239910287e7 0.0
1.88997239910287e7 -3.4074126078185655e7 0.0
0.0 0.0 0.0

-2.8346107971401326e6 3.153567895290592e7 0.0
3.153567895290592e7 5.152099271737653e6 0.0
0.0 0.0 0.0

-2.3969612143170487e7 2.80550160891972e7 0.0
2.80550160891972e7 -1.4140518993276667e7 0.0
0.0 0.0 0.0

-1.1332180995690018e7 3.6728961707953416e7 0.0
3.6728961707953416e7 5.403891944448521e6 0.0
0.0 0.0 0.0

-108760.68853258621 2.2754248326172855e7 0.0
2.2754248326172855e7 1.610058047307893e7 0.0
0.0 0.0 0.0

2.4511678702776115e6 6.760148576043047e6 0.0
6.760148576043047e6 -3.7149042548731826e7 0.0
0.0 0.0 0.0

1.2995171787039991e6 2.3371339031205148e7 0.0
2.3371339031205148e7 -1.5679805232434303e7 0.0
0.0 0.0 0.0

1.9735693184510622e7 3.388145274596788e7 0.0
3.388145274596788e7 -5.238088348258456e6 0.0
0.0 0.0 0.0

-9.086863937536536e6 3.312652233283381e6 0.0
3.312652233283381e6 3.828179293128001e7 0.0
0.0 0.0 0.0

-4.701575238509084e6 2.5525377534012932e7 0.0
2.5525377534012932e7 8.919616524493122e6 0.0
0.0 0.0 0.0

2.3718681133121112e6 2.3795631509053815e7 0.0
2.3795631509053815e7 2.9536008606155566e6 0.0
0.0 0.0 0.0

1.1351606001790274e7 2.6910391072563402e7 0.0
2.6910391072563402e7 -2.693773979349715e6 0.0
0.0 0.0 0.0

-9.423857634915315e6 9.677326578249088e6 0.0
9.677326578249088e6 3.568262093941985e7 0.0
0.0 0.0 0.0

7.540609554069821e6 1.923595963029089e7 0.0
1.923595963029089e7 2.9462763781570587e7 0.0
0.0 0.0 0.0

-9.563648146932513e6 2.371625440789414e7 0.0
2.371625440789414e7 -1.496132513993756e7 0.0
0.0 0.0 0.0

-939290.697804857 1.8743938735751208e7 0.0
1.8743938735751208e7 -3.0195585982198507e7 0.0
0.0 0.0 0.0

1.187780170290843e7 4.252504426651806e7 0.0
4.252504426651806e7 -3.9384656168286335e6 0.0
0.0 0.0 0.0

-1.1007594111783821e7 3.82835243103436e7 0.0
3.82835243103436e7 4.785688443421916e6 0.0
0.0 0.0 0.0

-9.867718188667038e6 1.09632646279777e7 0.0
1.09632646279777e7 3.0774887751837656e7 0.0
0.0 0.0 0.0

-1.062358504344267e7 2.6014041946824037e7 0.0
2.6014041946824037e7 -8.091422075331047e6 0.0
0.0 0.0 0.0

-8.263657472653296e6 3.89432559267567e7 0.0
3.89432559267567e7 3.7237569748797994e6 0.0
0.0 0.0 0.0

-9.033599047001457e6 3.758327902749604e7 0.0
3.758327902749604e7 4.515660060956037e6 0.0
0.0 0.0 0.0

4.779308479266417e6 1.9003577417319696e7 0.0
1.9003577417319696e7 1.778879676163387e7 0.0
0.0 0.0 0.0

1.709750951887763e6 1.4823100320138093e7 0.0
1.4823100320138093e7 -2.480241117233017e7 0.0
0.0 0.0 0.0

6.771316905743168e7 4.020884966093046e7 0.0
4.020884966093046e7 3.004692492141416e7 0.0
0.0 0.0 0.0

-4.309872837349247e7 4.305707337434205e6 0.0
4.305707337434205e6 6.228707730177209e6 0.0
0.0 0.0 0.0

-2.0683716105501883e7 3.2165261651875645e7 0.0
3.2165261651875645e7 3.651546627332569e6 0.0
0.0 0.0 0.0

1.96290879853056e6 3.025973211460788e6 0.0
3.025973211460788e6 -4.1709288883166745e7 0.0
0.0 0.0 0.0

209297.01479626633 2.3055545826699466e7 0.0
2.3055545826699466e7 -1.3938642697057316e7 0.0
0.0 0.0 0.0

-1.5366382363374978e7 3.365671205518508e7 0.0
3.365671205518508e7 5.897095941394677e6 0.0
0.0 0.0 0.0

-9.265993158158991e6 6.9429109767539995e6 0.0
6.9429109767539995e6 4.019993713991253e7 0.0
0.0 0.0 0.0

1.165439900862217e6 1.1391474445835467e7 0.0
1.1391474445835467e7 -3.39130212643175e7 0.0
0.0 0.0 0.0

-7.889882189932627e6 1.8302938941114735e7 0.0
1.8302938941114735e7 -2.7877702901287064e7 0.0
0.0 0.0 0.0

1.2729787207723016e7 2.533081189584605e7 0.0
2.533081189584605e7 1.1225354048766647e7 0.0
0.0 0.0 0.0

-4.607287027965777e7 3.497781470459319e7 0.0
3.497781470459319e7 -1.4128037257785574e7 0.0
0.0 0.0 0.0

-3.850444956123636e6 1.4587755522524817e7 0.0
1.4587755522524817e7 2.5830317652065614e6 0.0
0.0 0.0 0.0

-1.1605552146427331e7 3.243296191491041e7 0.0
3.243296191491041e7 6.337618023441403e6 0.0
0.0 0.0 0.0

-2.169514367975884e6 3.288629771553972e7 0.0
3.288629771553972e7 3.3624630033503748e6 0.0
0.0 0.0 0.0

-7.030828115032032e6 7.559988764980171e6 0.0
7.559988764980171e6 2.1217138445329946e7 0.0
0.0 0.0 0.0

-9.188585934094306e6 537818.3885793671 0.0
537818.3885793671 2.2835968323714837e7 0.0
0.0 0.0 0.0

923986.3105641473 1.5245099090278719e7 0.0
1.5245099090278719e7 -2.5489768985557742e7 0.0
0.0 0.0 0.0

-8.87566202700033e6 5.631667144639277e6 0.0
5.631667144639277e6 3.974019674026902e7 0.0
0.0 0.0 0.0

460706.15737778693 1.925263308171961e7 0.0
1.925263308171961e7 -2.3151147447019953e7 0.0
0.0 0.0 0.0

1.0592545436466554e7 2.416701244471051e7 0.0
2.416701244471051e7 952448.0334942569 0.0
0.0 0.0 0.0

538394.3156820983 1.020471509057413e7 0.0
1.020471509057413e7 -1.3358782909685126e7 0.0
0.0 0.0 0.0

-2.1895293499251634e7 3.2151470387198504e7 0.0
3.2151470387198504e7 3.641430170671612e6 0.0
0.0 0.0 0.0

-1.4859582321903624e7 2.754863883156534e7 0.0
2.754863883156534e7 -1.399728466577712e7 0.0
0.0 0.0 0.0

651713.2823218567 2.0065163870416343e7 0.0
2.0065163870416343e7 2.1723787774711624e6 0.0
0.0 0.0 0.0

-498689.77851442073 2.0007929628994413e7 0.0
2.0007929628994413e7 -1.6623002065318772e6 0.0
0.0 0.0 0.0

1.594974195530367e6 1.5643488326557623e7 0.0
1.5643488326557623e7 -2.3366610058691517e7 0.0
0.0 0.0 0.0

-7.049936344067077e6 1.921361782572842e7 0.0
1.921361782572842e7 -2.724995426050201e7 0.0
0.0 0.0 0.0

-1.008854520423571e7 2.582523524217138e6 0.0
2.582523524217138e6 2.92937966105549e7 0.0
0.0 0.0 0.0

-3.2784981681671627e6 1.582846574098976e7 0.0
1.582846574098976e7 9.347652589420766e6 0.0
0.0 0.0 0.0

2.5220039572630664e6 2.595295786925716e7 0.0
2.595295786925716e7 -1.1274284121956766e7 0.0
0.0 0.0 0.0

2.1035408687651437e6 7.727901780216313e6 0.0
7.727901780216313e6 -2.580217739325037e7 0.0
0.0 0.0 0.0

-4.7655826898264475e7 3.126855893423526e7 0.0
3.126855893423526e7 -7.381029606630771e6 0.0
0.0 0.0 0.0

8.215654283933278e6 2.5377829327676684e7 0.0
2.5377829327676684e7 -1.0173973707829346e6 0.0
0.0 0.0 0.0

3.0101436324333217e7 2.393445147722075e7 0.0
2.393445147722075e7 6.8047165819718605e6 0.0
0.0 0.0 0.0

-1.2101323044181434e7 4.2988645042296365e7 0.0
4.2988645042296365e7 6.146317711508509e6 0.0
0.0 0.0 0.0

-1.0319699834030097e7 5.895663601416224e6 0.0
5.895663601416224e6 2.5529838341938496e7 0.0
0.0 0.0 0.0

-174180.3013997851 2.0552102289634366e7 0.0
2.0552102289634366e7 -1.492703649915206e7 0.0
0.0 0.0 0.0

-1.269369119362061e7 2.5785110785072077e7 0.0
2.5785110785072077e7 -7.464987412787251e6 0.0
0.0 0.0 0.0

-2.3928230521283012e7 3.6295061126692675e7 0.0
3.6295061126692675e7 5.44865989630162e6 0.0
0.0 0.0 0.0

-9.319203408932038e6 1.988512103336427e7 0.0
1.988512103336427e7 -4.336655195705623e7 0.0
0.0 0.0 0.0

2.652919597325419e6 2.0977852961978707e7 0.0
2.0977852961978707e7 1.1210409315197729e7 0.0
0.0 0.0 0.0

-6.259278760198588e6 1.8992783416708108e7 0.0
1.8992783416708108e7 -2.965305865050274e7 0.0
0.0 0.0 0.0

-1.8184672403672837e7 4.016194421012578e7 0.0
4.016194421012578e7 6.515644805824535e6 0.0
0.0 0.0 0.0

2.407707123486233e6 2.9159165491000198e7 0.0
2.9159165491000198e7 -8.282780277836686e6 0.0
0.0 0.0 0.0

-9.025882300436758e6 2.6410861529893246e7 0.0
2.6410861529893246e7 -1.0277465259420048e6 0.0
0.0 0.0 0.0

1.196338810193492e6 1.2640783550125618e7 0.0
1.2640783550125618e7 -3.6981800846484646e7 0.0
0.0 0.0 0.0

-7.937150715104302e6 9.362388789409792e6 0.0
9.362388789409792e6 4.561626229824464e7 0.0
0.0 0.0 0.0

-1.3454759810142368e6 2.0655582561098218e7 0.0
2.0655582561098218e7 -9.697833289181665e6 0.0
0.0 0.0 0.0

1.1412795480182076e7 2.5266205099026956e7 0.0
2.5266205099026956e7 -1.119845805003406e6 0.0
0.0 0.0 0.0

-7.802123552708261e6 2.0141570176321182e7 0.0
2.0141570176321182e7 -3.601768782885857e7 0.0
0.0 0.0 0.0

-1.2821363342717752e7 3.2130219089282513e7 0.0
3.2130219089282513e7 5.8474513860197235e6 0.0
0.0 0.0 0.0

3.499862549453809e7 4.112766376759562e7 0.0
4.112766376759562e7 -6.986598026141798e6 0.0
0.0 0.0 0.0

-8.860813893300807e6 2.572340954751349e7 0.0
2.572340954751349e7 -5.57073638391212e6 0.0
0.0 0.0 0.0

-1.3507555371976342e7 3.367134694846576e7 0.0
3.367134694846576e7 5.773850375080937e6 0.0
0.0 0.0 0.0

-5.279037071659554e6 2.135424244464983e7 0.0
2.135424244464983e7 2.2780647106566694e7 0.0
0.0 0.0 0.0

4.755825435453936e6 2.4072171115272842e7 0.0
2.4072171115272842e7 -5.414762322071731e6 0.0
0.0 0.0 0.0

-3.584715171177673e6 3.156421434694986e7 0.0
3.156421434694986e7 5.993691480899727e6 0.0
0.0 0.0 0.0

-7.785175682396443e6 1.8552043280860186e7 0.0
1.8552043280860186e7 -4.1531161637816355e7 0.0
0.0 0.0 0.0

2.104872542663526e6 5.084071214730044e6 0.0
5.084071214730044e6 -3.539408576692002e7 0.0
0.0 0.0 0.0

-7.675781694056548e6 2.0247421629020322e7 0.0
2.0247421629020322e7 -3.1550462795820724e7 0.0
0.0 0.0 0.0

-5.380075565139186e6 3.52274470284491e7 0.0
3.52274470284491e7 3.774734726015852e6 0.0
0.0 0.0 0.0

-3.783220029631779e6 2.1449764272050332e7 0.0
2.1449764272050332e7 -1.261073345389984e7 0.0
0.0 0.0 0.0

3.5419213096983135e6 2.1555221156536523e7 0.0
2.1555221156536523e7 1.1806404902848767e7 0.0
0.0 0.0 0.0

-5.927434539471714e6 1.8471517480048265e7 0.0
1.8471517480048265e7 3.375405300820901e7 0.0
0.0 0.0 0.0

-1.6392418995958916e6 1.5929210968079273e7 0.0
1.5929210968079273e7 -1.6603299000519277e6 0.0
0.0 0.0 0.0

1.5291412182712127e7 1.9847925621934786e7 0.0
1.9847925621934786e7 5.786222463724492e7 0.0
0.0 0.0 0.0

-8.427347104224658e6 4.1202564823586736e6 0.0
4.1202564823586736e6 4.5147035084101014e7 0.0
0.0 0.0 0.0

1.4318514379191175e6 4.447848988606951e6 0.0
4.447848988606951e6 -5.081786315795822e7 0.0
0.0 0.0 0.0

-5.274253060478807e6 2.0286153227853432e7 0.0
2.0286153227853432e7 -3.2197587542653196e7 0.0
0.0 0.0 0.0

-1.1630765027403295e7 3.391912846153859e7 0.0
3.391912846153859e7 5.952555233984686e6 0.0
0.0 0.0 0.0

3.550180590537245e7 1.5745671129214903e7 0.0
1.5745671129214903e7 1.6500469156052675e6 0.0
0.0 0.0 0.0

-1.0169618250373619e7 8.131988037016149e6 0.0
8.131988037016149e6 3.385293534360553e7 0.0
0.0 0.0 0.0

-2.995542874673428e7 3.381125814077609e7 0.0
3.381125814077609e7 -1.5697987612400364e7 0.0
0.0 0.0 0.0

-3.8725533209749134e6 2.48552200561976e7 0.0
2.48552200561976e7 9.361529581866648e6 0.0
0.0 0.0 0.0

-2.3904539069156203e7 3.98189823113843e7 0.0
3.98189823113843e7 6.747032300333003e6 0.0
0.0 0.0 0.0

1.1886342532019578e6 5.049363597315342e6 0.0
5.049363597315342e6 -5.2371344144724324e7 0.0
0.0 0.0 0.0

8.646396858760841e6 3.436636361188701e7 0.0
3.436636361188701e7 -5.281917208688365e6 0.0
0.0 0.0 0.0

-2.281296654199552e6 1.4361831104960088e7 0.0
1.4361831104960088e7 6.3846296907370985e7 0.0
0.0 0.0 0.0

-3.849131354088224e6 3.0345342504483104e7 0.0
3.0345342504483104e7 8.274359506429541e6 0.0
0.0 0.0 0.0

-1.8986181474835647e6 2.000087222478844e7 0.0
2.000087222478844e7 -7.686230439773018e6 0.0
0.0 0.0 0.0

-8.455640878597187e6 2.727438765176346e6 0.0
2.727438765176346e6 1.5857210513361778e7 0.0
0.0 0.0 0.0

5.831593372659658e6 2.151223080441147e7 0.0
2.151223080441147e7 1.8689060534814287e7 0.0
0.0 0.0 0.0

-4.894817812305997e6 2.5985969003165636e7 0.0
2.5985969003165636e7 1.0893862327849925e7 0.0
0.0 0.0 0.0

1.3301675162812122e6 1.1113821118282704e7 0.0
1.1113821118282704e7 -1.1954153688378107e7 0.0
0.0 0.0 0.0

-4.09125627974838e6 2.3843509242682282e7 0.0
2.3843509242682282e7 1.0772257331827662e6 0.0
0.0 0.0 0.0

9.383024473172035e6 2.4823243158132024e7 0.0
2.4823243158132024e7 -1.8188598936304185e6 0.0
0.0 0.0 0.0

-2.2202830887525957e6 1.6032513919435011e7 0.0
1.6032513919435011e7 1.8783481162150274e6 0.0
0.0 0.0 0.0

-5.174943473562821e6 1.8524079083981857e7 0.0
1.8524079083981857e7 -3.637414007355242e7 0.0
0.0 0.0 0.0

-3.472775179032161e6 1.98307436304743e7 0.0
1.98307436304743e7 8.823635341000702e6 0.0
0.0 0.0 0.0

-4.436792713486709e6 2.098145759064891e7 0.0
2.098145759064891e7 2.703543354318161e7 0.0
0.0 0.0 0.0

-9.147862488541024e6 2.349801901259118e6 0.0
2.349801901259118e6 3.265021472824757e7 0.0
0.0 0.0 0.0

-1.4040720051600792e7 2.650432279392978e7 0.0
2.650432279392978e7 -244834.67110275012 0.0
0.0 0.0 0.0

-8.152449081284944e6 3.192652348476271e7 0.0
3.192652348476271e7 7.150404851670653e6 0.0
0.0 0.0 0.0

1.534189089976438e7 3.4795591195105016e7 0.0
3.4795591195105016e7 -5.846223833297494e6 0.0
0.0 0.0 0.0

-9.673069875099672e6 7.612391609290458e6 0.0
7.612391609290458e6 3.695530789015612e7 0.0
0.0 0.0 0.0

-6.376702641428833e6 1.9590680072611842e7 0.0
1.9590680072611842e7 -3.796230091645827e7 0.0
0.0 0.0 0.0

-5.270558831733067e6 3.1857422140368585e7 0.0
3.1857422140368585e7 7.267569521780487e6 0.0
0.0 0.0 0.0

923298.101340693 2.237073504323208e7 0.0
2.237073504323208e7 -8.532803733195618e6 0.0
0.0 0.0 0.0

-1.7336060411818814e6 1.733929667192704e7 0.0
1.733929667192704e7 -8.360687932496158e6 0.0
0.0 0.0 0.0

-9.988457916981004e6 3.2758980535857887e6 0.0
3.2758980535857887e6 2.338999594773755e7 0.0
0.0 0.0 0.0

-1.1278272120106516e7 3.5364608594142966e7 0.0
3.5364608594142966e7 5.947639857859597e6 0.0
0.0 0.0 0.0

-1.197894617110598e6 2.6686564736258946e7 0.0
2.6686564736258946e7 -73921.97750794893 0.0
0.0 0.0 0.0

4.573134088493845e6 2.3220194684858125e7 0.0
2.3220194684858125e7 1.6601655437935852e7 0.0
0.0 0.0 0.0

-3.454543641007813e6 2.3014050151602575e6 0.0
2.3014050151602575e6 7.545147304373489e6 0.0
0.0 0.0 0.0

5.878931151396936e6 2.3643571996379156e7 0.0
2.3643571996379156e7 6.033248798389835e6 0.0
0.0 0.0 0.0

-1.5719849893461205e6 9.909709362410745e6 0.0
9.909709362410745e6 -6.940211374023016e7 0.0
0.0 0.0 0.0

9.013364723072473e6 3.968346772084579e7 0.0
3.968346772084579e7 -5.121692325771681e6 0.0
0.0 0.0 0.0

-5.427095982936018e6 2.7096015427152835e7 0.0
2.7096015427152835e7 1.1619107793779533e7 0.0
0.0 0.0 0.0

-1.0089299637116719e7 1.2037003429404728e7 0.0
1.2037003429404728e7 1.7487003860040314e7 0.0
0.0 0.0 0.0

-1.7655893956052018e6 2.3088475998888575e7 0.0
2.3088475998888575e7 -3.917981646480934e6 0.0
0.0 0.0 0.0

-1.6977201215198897e6 1.2454234410577336e7 0.0
1.2454234410577336e7 -6.480363215198434e7 0.0
0.0 0.0 0.0

-1.3994233096259702e6 1.9433650737576593e7 0.0
1.9433650737576593e7 -2.7087547523071066e7 0.0
0.0 0.0 0.0

-1.1819151322669433e7 4.021685809601809e7 0.0
4.021685809601809e7 4.384589847574793e6 0.0
0.0 0.0 0.0

-2.9531395427988893e6 2.114735571506338e7 0.0
2.114735571506338e7 -9.843799729404556e6 0.0
0.0 0.0 0.0

-6.1728463759418335e6 2.527833736386131e7 0.0
2.527833736386131e7 -1.42943036083893e7 0.0
0.0 0.0 0.0

-2.143934841555948e6 2.745019895813493e7 0.0
2.745019895813493e7 6.644173503204591e6 0.0
0.0 0.0 0.0

821115.575435929 2.061630389569988e7 0.0
2.061630389569988e7 -1.5048577161110617e7 0.0
0.0 0.0 0.0

1.0001707498303467e7 2.5098448735446345e7 0.0
2.5098448735446345e7 9.301368693265535e6 0.0
0.0 0.0 0.0

-9.554184665845456e6 2.5761248362274002e7 0.0
2.5761248362274002e7 -1.4476097023216985e7 0.0
0.0 0.0 0.0

-2.678211841072906e6 2.423925874632393e7 0.0
2.423925874632393e7 6.726362918758286e6 0.0
0.0 0.0 0.0

-3.3257401357702054e6 1.0554036011019712e7 0.0
1.0554036011019712e7 7.002747976512268e7 0.0
0.0 0.0 0.0

-587650.7185301797 1.6827712765923448e7 0.0
1.6827712765923448e7 -7.54573327667061e6 0.0
0.0 0.0 0.0

-8.810987953233063e6 1.7355681582182862e7 0.0
1.7355681582182862e7 -2.9811395566128567e7 0.0
0.0 0.0 0.0

1.0230959027014533e6 2.272933821445348e7 0.0
2.272933821445348e7 -1.733209729611208e7 0.0
0.0 0.0 0.0

-6.6376522498817835e6 2.248977709649756e7 0.0
2.248977709649756e7 -1.859383731372645e7 0.0
0.0 0.0 0.0

-3.76555415856692e6 2.531902652908703e7 0.0
2.531902652908703e7 1.1429216235624779e7 0.0
0.0 0.0 0.0

695094.3269330555 1.963472097826088e7 0.0
1.963472097826088e7 2.3169810787451672e6 0.0
0.0 0.0 0.0

-2.855569597867309e6 3.309799711927693e7 0.0
3.309799711927693e7 4.289086551766543e6 0.0
0.0 0.0 0.0

-4.42824597208391e6 2.4624498039314583e7 0.0
2.4624498039314583e7 776131.037756844 0.0
0.0 0.0 0.0

-5.57977906700287e6 3.649298211827894e6 0.0
3.649298211827894e6 6.825436053028892e7 0.0
0.0 0.0 0.0

-1.0553227833576865e7 1.210958312334061e7 0.0
1.210958312334061e7 2.845998496728547e7 0.0
0.0 0.0 0.0

2.0392823492760444e6 2.2883409339836117e7 0.0
2.2883409339836117e7 -7.287240587990935e6 0.0
0.0 0.0 0.0

-2.8648667487882372e7 3.2032505208050687e7 0.0
3.2032505208050687e7 1.9360851280334983e6 0.0
0.0 0.0 0.0

-1.0940252927998463e7 4.107004817549393e6 0.0
4.107004817549393e6 2.291845785910085e7 0.0
0.0 0.0 0.0

-6.251747041530915e6 8.949346291787395e6 0.0
8.949346291787395e6 5.724240457970433e7 0.0
0.0 0.0 0.0

-2.82352176765408e6 2.488546604326414e6 0.0
2.488546604326414e6 6.9138506766251605e6 0.0
0.0 0.0 0.0

-4.1799762393004773e6 6.032739354447969e6 0.0
6.032739354447969e6 -784641.1173462643 0.0
0.0 0.0 0.0

1.2610114073558506e6 1.33026604660115e7 0.0
1.33026604660115e7 -2.5750836543442816e7 0.0
0.0 0.0 0.0

-1.9520335309332914e6 2.7153993573603846e7 0.0
2.7153993573603846e7 -926524.8164868378 0.0
0.0 0.0 0.0

-7.73541508116355e6 2.2011637891946927e7 0.0
2.2011637891946927e7 -1.8663119603207838e7 0.0
0.0 0.0 0.0

-3.1329837108995374e6 2.48127906337078e7 0.0
2.48127906337078e7 1.5126455634932598e7 0.0
0.0 0.0 0.0

-5.252904452606755e6 1.927603523489116e7 0.0
1.927603523489116e7 -2.7393277578926943e7 0.0
0.0 0.0 0.0

2.9710945817736434e6 2.2799587151482802e7 0.0
2.2799587151482802e7 1.4914126150372453e7 0.0
0.0 0.0 0.0

-1.258833491806856e7 1.7649849290372115e7 0.0
1.7649849290372115e7 -4.4289534875701606e7 0.0
0.0 0.0 0.0

-4.639363593985047e6 2.453678046665466e7 0.0
2.453678046665466e7 4.0709240510936603e6 0.0
0.0 0.0 0.0

-3.7159904410872385e6 1.2969390929199021e7 0.0
1.2969390929199021e7 -7.657919001769905e7 0.0
0.0 0.0 0.0

-1.3028038384013958e6 1.3020536027211739e7 0.0
1.3020536027211739e7 -5.646107065653952e7 0.0
0.0 0.0 0.0

-5.060705018035091e6 2.4265373162100203e7 0.0
2.4265373162100203e7 -1.3649242299712652e7 0.0
0.0 0.0 0.0

-1.919033396817577e7 2.8938905521857936e7 0.0
2.8938905521857936e7 -1.4073631763007205e7 0.0
0.0 0.0 0.0

-1.3869777434470935e7 3.2185639887889214e7 0.0
3.2185639887889214e7 5.8147929726965735e6 0.0
0.0 0.0 0.0

-4.233568694510579e6 1.6552661983141452e7 0.0
1.6552661983141452e7 8.011110429401105e6 0.0
0.0 0.0 0.0

-1.90500901376164e6 7.917529440765548e6 0.0
7.917529440765548e6 8.673812405123698e6 0.0
0.0 0.0 0.0

446361.5937188207 2.1944123495170757e7 0.0
2.1944123495170757e7 -6.773542317747523e6 0.0
0.0 0.0 0.0

1.2783682635713119e7 2.6230088621993773e7 0.0
2.6230088621993773e7 -738637.612851778 0.0
0.0 0.0 0.0

-1.0492255499170274e6 1.5019900285633633e7 0.0
1.5019900285633633e7 6.479466024215754e7 0.0
0.0 0.0 0.0

-1.1610951879653279e6 2.3629728796038646e7 0.0
2.3629728796038646e7 1.2820900696453508e7 0.0
0.0 0.0 0.0

-8.401853408382898e6 3.1935561477572262e7 0.0
3.1935561477572262e7 7.187870446117386e6 0.0
0.0 0.0 0.0

-4.998341728908236e6 1.9699048743186835e7 0.0
1.9699048743186835e7 -1.725958356800006e7 0.0
0.0 0.0 0.0

-5.35491968289572e6 1.2413069680134505e7 0.0
1.2413069680134505e7 5.390285664949546e7 0.0
0.0 0.0 0.0

-2.1306104039910836e6 2.338135397452581e7 0.0
2.338135397452581e7 7.279493368342783e6 0.0
0.0 0.0 0.0

796233.9616761496 2.2565801933747403e7 0.0
2.2565801933747403e7 -1.7206460418370508e7 0.0
0.0 0.0 0.0

-1.6998162394548543e6 1.8028452923689164e7 0.0
1.8028452923689164e7 -3.2211876821830124e7 0.0
0.0 0.0 0.0

-938803.3670713846 1.1583355073782064e7 0.0
1.1583355073782064e7 -5.3424555320714355e7 0.0
0.0 0.0 0.0

-88235.25998287834 1.2570029556899605e7 0.0
1.2570029556899605e7 -4.2560543025867626e7 0.0
0.0 0.0 0.0

-1.2866707531318111e7 2.0744431717413504e7 0.0
2.0744431717413504e7 -6.223567840359993e7 0.0
0.0 0.0 0.0

-3.2648285409949794e6 3.2326684480550885e7 0.0
3.2326684480550885e7 5.1396524835287705e6 0.0
0.0 0.0 0.0

-6.790151697219849e6 2.501978497539497e7 0.0
2.501978497539497e7 -1.4519195155006161e7 0.0
0.0 0.0 0.0

-1.6019783772660317e6 2.250295658307799e7 0.0
2.250295658307799e7 -1.450303026613612e7 0.0
0.0 0.0 0.0

2.794773170131269e7 2.6491859657182924e7 0.0
2.6491859657182924e7 1.441854389163468e6 0.0
0.0 0.0 0.0

-5.444086976421535e6 6.708086083993333e6 0.0
6.708086083993333e6 6.159556830310343e7 0.0
0.0 0.0 0.0

-3.0329529418061823e6 1.283273771857234e7 0.0
1.283273771857234e7 -6.54112101374753e7 0.0
0.0 0.0 0.0

319006.3717998862 1.2991233905365687e7 0.0
1.2991233905365687e7 -4.24573907203017e7 0.0
0.0 0.0 0.0

-2.0894152607358545e6 1.0483560586673735e7 0.0
1.0483560586673735e7 7.668471563621256e7 0.0
0.0 0.0 0.0

2.582263683477923e7 2.6857015106085073e7 0.0
2.6857015106085073e7 1.6733574158769563e7 0.0
0.0 0.0 0.0

-4.951631020231195e6 1.0168274200292848e7 0.0
1.0168274200292848e7 5.874777854888157e7 0.0
0.0 0.0 0.0

-7.969615750271156e6 -1.0676918577522067e6 0.0
-1.0676918577522067e6 1.2214985763600793e7 0.0
0.0 0.0 0.0

-3.753764986170943e6 3.418969665265934e7 0.0
3.418969665265934e7 2.753220464128801e6 0.0
0.0 0.0 0.0

1.1672377076757476e6 1.2225523937980931e7 0.0
1.2225523937980931e7 -3.211363975704345e7 0.0
0.0 0.0 0.0

-8.65764832825818e6 3.654769698773344e7 0.0
3.654769698773344e7 5.758796648418989e6 0.0
0.0 0.0 0.0

-4.785733582618851e6 1.5055131581605315e7 0.0
1.5055131581605315e7 4.7958755213597134e7 0.0
0.0 0.0 0.0

-1.1117466759388324e7 1.0172004264498541e7 0.0
1.0172004264498541e7 2.6341923562787935e7 0.0
0.0 0.0 0.0

1.0448666711107431e7 3.473422356852447e7 0.0
3.473422356852447e7 -5.44640010094259e6 0.0
0.0 0.0 0.0

-3.920075466472243e6 2.564157350069177e7 0.0
2.564157350069177e7 1.4566985634396538e7 0.0
0.0 0.0 0.0

3.4208343867495265e6 2.9626411268191256e7 0.0
2.9626411268191256e7 -7.535796839096207e6 0.0
0.0 0.0 0.0

-7.342287198841805e6 2.883018938256344e7 0.0
2.883018938256344e7 7.777510553907834e6 0.0
0.0 0.0 0.0

-4.844039421652888e6 2.057641928632968e7 0.0
2.057641928632968e7 -2.9036205539261628e7 0.0
0.0 0.0 0.0

6.673900427110479e6 2.6331074125359125e7 0.0
2.6331074125359125e7 -7.051451515026886e6 0.0
0.0 0.0 0.0

1.0787373271225177e7 2.041749692558215e7 0.0
2.041749692558215e7 5.511881707237666e7 0.0
0.0 0.0 0.0

-4.914215214154453e6 6.7837268653740315e6 0.0
6.7837268653740315e6 1.8237208568548337e7 0.0
0.0 0.0 0.0

-1.7771520762043518e6 9.379133697611501e6 0.0
9.379133697611501e6 -9.53027109714973e6 0.0
0.0 0.0 0.0

-5.181600035824657e6 2.2035126178551424e7 0.0
2.2035126178551424e7 -1.727199981391106e7 0.0
0.0 0.0 0.0

5.217788312851256e6 2.227825133333444e7 0.0
2.227825133333444e7 1.7392627797459092e7 0.0
0.0 0.0 0.0

1.1085286654670475e7 4.061262823431083e7 0.0
4.061262823431083e7 -6.023291416905084e6 0.0
0.0 0.0 0.0

3.250865382499243e6 5.414139000943827e6 0.0
5.414139000943827e6 -1.950346634658189e7 0.0
0.0 0.0 0.0

-5.34500688029919e6 3.8582892689573444e7 0.0
3.8582892689573444e7 4.218023268531794e6 0.0
0.0 0.0 0.0

-4.740645204304903e7 1.815215853323306e7 0.0
1.815215853323306e7 6.619268788681876e6 0.0
0.0 0.0 0.0

1.2224469223436154e6 2.3149187540689792e7 0.0
2.3149187540689792e7 -1.5599015251327196e7 0.0
0.0 0.0 0.0

-4.365527772583986e6 1.6839281480244756e7 0.0
1.6839281480244756e7 4.3611432503899395e7 0.0
0.0 0.0 0.0

449517.9263716736 2.335576731409175e7 0.0
2.335576731409175e7 -7.080799657408601e6 0.0
0.0 0.0 0.0

-4.38103245099541e6 2.628908706004272e7 0.0
2.628908706004272e7 1.1014240261531176e7 0.0
0.0 0.0 0.0

-1.804711842280944e6 2.6549569740781173e7 0.0
2.6549569740781173e7 -2.0699430568723814e6 0.0
0.0 0.0 0.0

1.0864123131859484e6 2.3722947652517512e7 0.0
2.3722947652517512e7 -8.695921939691141e6 0.0
0.0 0.0 0.0

1.111455018386308e6 4.0992939225226017e6 0.0
4.0992939225226017e6 -5.489803746214284e7 0.0
0.0 0.0 0.0

-970667.416387071 1.9388824347911566e7 0.0
1.9388824347911566e7 -3.2355585284752394e6 0.0
0.0 0.0 0.0

1.4251201201438922e7 2.768428270656573e7 0.0
2.768428270656573e7 -3.044645155489685e6 0.0
0.0 0.0 0.0

-1.84979057638884e6 2.1961610010408733e7 0.0
2.1961610010408733e7 -1.693270076862874e7 0.0
0.0 0.0 0.0

8.071233427842724e6 2.4888012505552e7 0.0
2.4888012505552e7 1.2484095360840082e7 0.0
0.0 0.0 0.0

-2.2883672721637897e6 1.315305522331606e7 0.0
1.315305522331606e7 -5.66765400235003e7 0.0
0.0 0.0 0.0

218169.33128741477 2.5875777856970597e7 0.0
2.5875777856970597e7 -9.525262611894554e6 0.0
0.0 0.0 0.0

5.872766001110786e6 2.4586078825702127e7 0.0
2.4586078825702127e7 1.6569043652026234e7 0.0
0.0 0.0 0.0

3.3426053894675747e7 3.371888308384652e7 0.0
3.371888308384652e7 -3.766713293438403e6 0.0
0.0 0.0 0.0

-886234.1531692687 1.3363688296424473e7 0.0
1.3363688296424473e7 -4.910175326830899e7 0.0
0.0 0.0 0.0

-3.836297327055712e7 1.6638590273238849e7 0.0
1.6638590273238849e7 7.018252004560979e6 0.0
0.0 0.0 0.0

3.340146485852936e6 2.0878850954664655e7 0.0
2.0878850954664655e7 2.0997373859283373e7 0.0
0.0 0.0 0.0

-7.759422292040657e6 3.806192446875557e7 0.0
3.806192446875557e7 5.264661397443308e6 0.0
0.0 0.0 0.0

808412.22366803 2.358742205099834e7 0.0
2.358742205099834e7 -1.2094700104379347e7 0.0
0.0 0.0 0.0

-7.031982158630073e6 3.2532859524225477e7 0.0
3.2532859524225477e7 6.802671294934519e6 0.0
0.0 0.0 0.0

-2.2481191351083964e6 1.3985127760858528e7 0.0
1.3985127760858528e7 6.907262606567773e7 0.0
0.0 0.0 0.0

1.3165640476273196e6 1.7140136393184297e7 0.0
1.7140136393184297e7 -2.03002490612558e7 0.0
0.0 0.0 0.0

8.131630328190418e6 3.462760487531298e7 0.0
3.462760487531298e7 -5.712793432982923e6 0.0
0.0 0.0 0.0

-2.5890880809543747e6 1.3832405144478543e7 0.0
1.3832405144478543e7 3.8408885825921735e6 0.0
0.0 0.0 0.0

-3.5001055693232186e7 1.5855203056210984e7 0.0
1.5855203056210984e7 6.806623594998661e6 0.0
0.0 0.0 0.0

-3.1250860449938644e6 1.804092620561669e7 0.0
1.804092620561669e7 848053.1325464856 0.0
0.0 0.0 0.0

-9.664693525790751e6 5.819096719590526e6 0.0
5.819096719590526e6 3.719582504745042e7 0.0
0.0 0.0 0.0

-3.4854488576661423e6 1.7385323374252692e7 0.0
1.7385323374252692e7 4.438886863052491e7 0.0
0.0 0.0 0.0

-6.3331262181527e6 3.6016444305379435e7 0.0
3.6016444305379435e7 3.933653982892074e6 0.0
0.0 0.0 0.0

-6.818518516330539e6 3.947748697237719e7 0.0
3.947748697237719e7 4.560463984389055e6 0.0
0.0 0.0 0.0

-4.1172511353661157e6 1.3401276087583575e7 0.0
1.3401276087583575e7 5.515964713684044e7 0.0
0.0 0.0 0.0

1.0701146932391692e6 1.5372300912193941e7 0.0
1.5372300912193941e7 -1.6604428927561224e7 0.0
0.0 0.0 0.0

8.744855849574523e6 2.497708744860806e7 0.0
2.497708744860806e7 2.0173525816300092e6 0.0
0.0 0.0 0.0

-4.193808262336457e6 1.760515038396416e7 0.0
1.760515038396416e7 -1.2762943924594287e7 0.0
0.0 0.0 0.0

1.04407976401952e6 1.0360484610466028e7 0.0
1.0360484610466028e7 -1.572532807078886e7 0.0
0.0 0.0 0.0

-4.500706897021287e6 3.565747340260434e7 0.0
3.565747340260434e7 4.409395503885223e6 0.0
0.0 0.0 0.0

-5.5214692206712775e6 1.9881379146179367e7 0.0
1.9881379146179367e7 3.034261023623709e7 0.0
0.0 0.0 0.0

-1.7132830063675568e6 1.3684762669962108e7 0.0
1.3684762669962108e7 -4.960010470846888e7 0.0
0.0 0.0 0.0

-2.5014617351218008e7 3.0772975027505673e7 0.0
3.0772975027505673e7 1.4214811611759886e6 0.0
0.0 0.0 0.0

3.6183485616159225e6 3.0679681441276204e7 0.0
3.0679681441276204e7 -6.58105473571593e6 0.0
0.0 0.0 0.0

52393.15789787844 5.961007983980004e6 0.0
5.961007983980004e6 -6.570365232401851e7 0.0
0.0 0.0 0.0

-717156.2708553979 2.2148287211801764e7 0.0
2.2148287211801764e7 2.2857746684414387e7 0.0
0.0 0.0 0.0

-1.5671102913732845e6 2.686347008964426e7 0.0
2.686347008964426e7 1.9621965063154106e6 0.0
0.0 0.0 0.0

931729.4649832891 2.335650568069545e7 0.0
2.335650568069545e7 -1.5901886754328871e7 0.0
0.0 0.0 0.0

-1.0556108829878472e7 3.7042037590802886e7 0.0
3.7042037590802886e7 5.900755221470925e6 0.0
0.0 0.0 0.0

-970477.0107761275 2.711206287978345e7 0.0
2.711206287978345e7 -1.153463656910492e6 0.0
0.0 0.0 0.0

-7.608344325611439e6 3.6837609404607736e7 0.0
3.6837609404607736e7 4.175533115809e6 0.0
0.0 0.0 0.0

-3.232623043037518e6 9.326544731366523e6 0.0
9.326544731366523e6 6.164546989580472e6 0.0
0.0 0.0 0.0

7.680392259203972e6 2.0344788932730973e7 0.0
2.0344788932730973e7 2.7870491752350725e7 0.0
0.0 0.0 0.0

-1.4811182558493651e6 2.0235986731556762e7 0.0
2.0235986731556762e7 -2.4149653662587587e7 0.0
0.0 0.0 0.0

-2.1852449250332997e6 1.7426205068760455e7 0.0
1.7426205068760455e7 1.8980146550208114e6 0.0
0.0 0.0 0.0

106165.21843423042 2.1774055164585117e7 0.0
2.1774055164585117e7 -1.8736063488519788e7 0.0
0.0 0.0 0.0

1.8649920242431425e6 8.594629196679924e6 0.0
8.594629196679924e6 -2.4314291780621946e7 0.0
0.0 0.0 0.0

1.7009437945234224e7 2.6127866644826803e7 0.0
2.6127866644826803e7 1.2326687492887381e7 0.0
0.0 0.0 0.0

-7.458496943726081e6 1.5052340899823767e6 0.0
1.5052340899823767e6 4.615421911032721e7 0.0
0.0 0.0 0.0

8.636293899715502e6 2.0497467860351887e7 0.0
2.0497467860351887e7 3.1768171159802295e7 0.0
0.0 0.0 0.0

-4.146742923486055e6 3.350670215118367e7 0.0
3.350670215118367e7 3.686384526729933e6 0.0
0.0 0.0 0.0

-1.2683004275561785e6 1.9805009766569708e7 0.0
1.9805009766569708e7 -2.7638271381164838e7 0.0
0.0 0.0 0.0

7.125115578112887e6 3.388024175886428e7 0.0
3.388024175886428e7 -5.348989267308136e6 0.0
0.0 0.0 0.0

-1.0951721799444098e6 2.197775894994894e7 0.0
2.197775894994894e7 -3.106550795589721e6 0.0
0.0 0.0 0.0

1.9464621141118947e6 1.177613933881339e7 0.0
1.177613933881339e7 -3.139514197045536e7 0.0
0.0 0.0 0.0

3.2102711536468207e6 2.9833913280803356e7 0.0
2.9833913280803356e7 -7.853845726880537e6 0.0
0.0 0.0 0.0

-989140.3673647437 2.0684966850466087e7 0.0
2.0684966850466087e7 -2.2257121145841487e7 0.0
0.0 0.0 0.0

-1.0998076054349866e7 8.810913131798394e6 0.0
8.810913131798394e6 2.025105546978282e7 0.0
0.0 0.0 0.0

5.842028180750549e6 2.2656852463467658e7 0.0
2.2656852463467658e7 2.0228592246226117e7 0.0
0.0 0.0 0.0

-5.824909608606976e6 2.686158435879888e7 0.0
2.686158435879888e7 1.042172800348498e7 0.0
0.0 0.0 0.0

-4.741776556590026e6 3.4382352830484115e7 0.0
3.4382352830484115e7 3.6818189781633876e6 0.0
0.0 0.0 0.0

329579.2229990079 2.2296907345713962e7 0.0
2.2296907345713962e7 1.3710808007885167e7 0.0
0.0 0.0 0.0

-7.900096592711754e6 4.921265827775535e6 0.0
4.921265827775535e6 1.488895662113913e7 0.0
0.0 0.0 0.0

-7.049933505348284e6 1.216929824525986e7 0.0
1.216929824525986e7 4.644751118042835e7 0.0
0.0 0.0 0.0

670856.6800427986 2.23922682173414e7 0.0
2.23922682173414e7 -1.7167296917563397e7 0.0
0.0 0.0 0.0

-4.803469348029818e6 1.6297028041014275e7 0.0
1.6297028041014275e7 -7.611632364951049e7 0.0
0.0 0.0 0.0

-6.610016577896122e6 6.827477684529333e6 0.0
6.827477684529333e6 1.308552520713451e7 0.0
0.0 0.0 0.0

-1.0409435984081982e7 3.9821804214861086e6 0.0
3.9821804214861086e6 2.7750476162554406e7 0.0
0.0 0.0 0.0

-3.5027416186600584e6 2.0284641606479704e7 0.0
2.0284641606479704e7 1.0292366528785758e7 0.0
0.0 0.0 0.0

2.926183871473081e6 3.0968737936643355e7 0.0
3.0968737936643355e7 -5.889163451194132e6 0.0
0.0 0.0 0.0

-5.872520791400487e6 1.8133699118619204e7 0.0
1.8133699118619204e7 -4.863078683220305e7 0.0
0.0 0.0 0.0

2.708546502488577e6 8.191355802669986e6 0.0
8.191355802669986e6 -2.0941771772563215e7 0.0
0.0 0.0 0.0

-2.4708758249758333e6 3.378474765954803e7 0.0
3.378474765954803e7 3.368039635446026e6 0.0
0.0 0.0 0.0

4.23735779774156e6 3.0268339381601308e7 0.0
3.0268339381601308e7 -7.161335972869831e6 0.0
0.0 0.0 0.0

-1.1694498956939636e7 4.601733011532339e7 0.0
4.601733011532339e7 4.11103641248856e6 0.0
0.0 0.0 0.0

-3.2888992389585366e6 3.39378978093368e7 0.0
3.39378978093368e7 4.3426792792588e6 0.0
0.0 0.0 0.0

-3.1657779162951287e7 3.2496646680001263e7 0.0
3.2496646680001263e7 -1.3596813432121646e7 0.0
0.0 0.0 0.0

-5.382605312311585e6 2.4854738790382005e7 0.0
2.4854738790382005e7 -2.1347986516250907e6 0.0
0.0 0.0 0.0

-5.141235667196315e6 1.6207641200065685e7 0.0
1.6207641200065685e7 -7.001364910539517e7 0.0
0.0 0.0 0.0

-3.282635043339325e6 1.66858976643168e7 0.0
1.66858976643168e7 773433.2734946224 0.0
0.0 0.0 0.0

-7.5668783373141885e6 3.6523238117423323e6 0.0
3.6523238117423323e6 5.27855507688479e7 0.0
0.0 0.0 0.0

-5.8393082242952585e6 7.430195719157537e6 0.0
7.430195719157537e6 6.134244878535268e7 0.0
0.0 0.0 0.0

1.098576073170947e6 7.033786449735736e6 0.0
7.033786449735736e6 -4.765281997808494e7 0.0
0.0 0.0 0.0

-5.187933431792882e6 2.8249022683074992e7 0.0
2.8249022683074992e7 1.004761709531955e7 0.0
0.0 0.0 0.0

-1.7805964500704817e6 1.5412709399247048e7 0.0
1.5412709399247048e7 5.971183138289222e7 0.0
0.0 0.0 0.0

-446740.72231327277 2.121705376889506e7 0.0
2.121705376889506e7 -2.044355043794013e7 0.0
0.0 0.0 0.0

460937.02138446644 1.7512693723807808e7 0.0
1.7512693723807808e7 5.745670287342232e7 0.0
0.0 0.0 0.0

2.4348857304614647e6 3.0221146503037944e7 0.0
3.0221146503037944e7 -7.303556227146187e6 0.0
0.0 0.0 0.0

5.285258237362642e6 3.699990691543314e7 0.0
3.699990691543314e7 -4.3690759115904905e6 0.0
0.0 0.0 0.0

-663285.155645883 2.1811750105599046e7 0.0
2.1811750105599046e7 -5.40827388544352e6 0.0
0.0 0.0 0.0

-1.0525698258657264e7 7.015791312774694e6 0.0
7.015791312774694e6 2.675736080611177e7 0.0
0.0 0.0 0.0

1.8540863432315285e6 2.15460545947717e7 0.0
2.15460545947717e7 1.7290676080347337e7 0.0
0.0 0.0 0.0

-2.6531713348708865e6 1.953691713261453e7 0.0
1.953691713261453e7 1.1617000026954072e7 0.0
0.0 0.0 0.0

1.7630479143743142e6 4.807038068522061e6 0.0
4.807038068522061e6 -4.350511958995236e7 0.0
0.0 0.0 0.0

6.206067290596381e6 2.6073338209364414e7 0.0
2.6073338209364414e7 -5.560604036226595e6 0.0
0.0 0.0 0.0

-1.7126322125521544e7 2.383826287925894e7 0.0
2.383826287925894e7 -1.4743037014036798e6 0.0
0.0 0.0 0.0

-2.8654775006851703e7 2.7769241647873588e7 0.0
2.7769241647873588e7 -9.820846830412418e6 0.0
0.0 0.0 0.0

-2.4267631428015977e6 3.456534301368452e7 0.0
3.456534301368452e7 963291.5150708318 0.0
0.0 0.0 0.0

35993.649528254755 1.4804556217206646e7 0.0
1.4804556217206646e7 -1.5610628327417089e7 0.0
0.0 0.0 0.0

-7.803165138478017e6 2.4507476175362896e7 0.0
2.4507476175362896e7 -1.916377717908327e6 0.0
0.0 0.0 0.0

3.4036322627083147e6 3.713967473845808e7 0.0
3.713967473845808e7 -2.2005139155728696e6 0.0
0.0 0.0 0.0

-1.5061058390249591e6 2.219932968333137e7 0.0
2.219932968333137e7 2.39155168532236e7 0.0
0.0 0.0 0.0

-739706.8919817172 2.2844809265594468e7 0.0
2.2844809265594468e7 1.3355638056941349e7 0.0
0.0 0.0 0.0

1.0479077169803418e6 1.4277935050030766e7 0.0
1.4277935050030766e7 -1.4753192829554023e7 0.0
0.0 0.0 0.0

-2.20337512941983e6 3.9446187084500805e7 0.0
3.9446187084500805e7 1.7892845789110402e6 0.0
0.0 0.0 0.0

-8.944093353899272e6 3.228268553017716e6 0.0
3.228268553017716e6 4.0458530766460896e7 0.0
0.0 0.0 0.0

2.717796665840773e6 6.106816128042663e6 0.0
6.106816128042663e6 -3.376729912590219e7 0.0
0.0 0.0 0.0

1.5106059947498222e6 3.350721417085192e7 0.0
3.350721417085192e7 -2.344715944488524e6 0.0
0.0 0.0 0.0

-1.5392214370005056e6 2.0638913975626525e7 0.0
2.0638913975626525e7 -2.4783551590799626e7 0.0
0.0 0.0 0.0

-6.649515209898837e6 -383151.38898351457 0.0
-383151.38898351457 1.2130876798282713e7 0.0
0.0 0.0 0.0

560487.4490855895 1.0881031726907937e7 0.0
1.0881031726907937e7 -1.4410030772681827e7 0.0
0.0 0.0 0.0

-1.275022626520878e7 2.7423221491045166e7 0.0
2.7423221491045166e7 -1.2385591941305889e7 0.0
0.0 0.0 0.0

1.7060767292164862e6 1.3278939851308271e7 0.0
1.3278939851308271e7 -3.0315196700039446e7 0.0
0.0 0.0 0.0

1.6487847006370591e7 2.698235734294768e7 0.0
2.698235734294768e7 1.483325236920329e7 0.0
0.0 0.0 0.0

-5.192611600847079e6 1.0305865027717842e7 0.0
1.0305865027717842e7 4.564139243412873e6 0.0
0.0 0.0 0.0

-9.079940501569822e6 5.168870927408023e6 0.0
5.168870927408023e6 1.060997870037439e7 0.0
0.0 0.0 0.0

1.2731608088893881e7 3.485989265857332e7 0.0
3.485989265857332e7 -5.552393869740351e6 0.0
0.0 0.0 0.0

-8.887211586446935e6 3.6987915284700673e6 0.0
3.6987915284700673e6 3.922509869419265e7 0.0
0.0 0.0 0.0

1.0222601401901534e6 1.8664937174828358e7 0.0
1.8664937174828358e7 -1.7228366026548002e7 0.0
0.0 0.0 0.0

2.0694573849936023e6 2.2402216205701236e7 0.0
2.2402216205701236e7 3.3720410483089606e6 0.0
0.0 0.0 0.0

2.228306354433433e7 2.92839214053141e7 0.0
2.92839214053141e7 -2.1744213106434885e6 0.0
0.0 0.0 0.0

982824.4847639054 1.9860527276825916e7 0.0
1.9860527276825916e7 -2.136190997018107e7 0.0
0.0 0.0 0.0

1.1240527926467532e7 2.1215540157988757e7 0.0
2.1215540157988757e7 4.193195060891745e7 0.0
0.0 0.0 0.0

-9.734300046341812e6 3.2293905116111077e7 0.0
3.2293905116111077e7 6.679610663925393e6 0.0
0.0 0.0 0.0

-7.2387958878737725e6 3.684756789656108e6 0.0
3.684756789656108e6 4.9039253706379294e7 0.0
0.0 0.0 0.0

2.4045469491209174e6 3.363913074371377e7 0.0
3.363913074371377e7 -2.9836953008797085e6 0.0
0.0 0.0 0.0

1.8240311290340107e6 2.232620774293276e7 0.0
2.232620774293276e7 2.4015531675799422e7 0.0
0.0 0.0 0.0

1.315352217554723e6 1.2631170625406759e7 0.0
1.2631170625406759e7 -2.5033526886985134e7 0.0
0.0 0.0 0.0

2.0261919437086228e6 5.190064686164213e6 0.0
5.190064686164213e6 -4.899298373340893e7 0.0
0.0 0.0 0.0

-1.5658658987213518e6 2.691361058890456e7 0.0
2.691361058890456e7 -3.0893827317745383e6 0.0
0.0 0.0 0.0

-7.741984726065592e6 1.4028456604422605e7 0.0
1.4028456604422605e7 1.988044683133465e7 0.0
0.0 0.0 0.0

-5.172940768187499e6 1.839930741309832e7 0.0
1.839930741309832e7 3.680716575306378e7 0.0
0.0 0.0 0.0

-1.761138532030913e6 1.93706341410418e7 0.0
1.93706341410418e7 -2.973395920984946e7 0.0
0.0 0.0 0.0

-4.44093394876856e6 1.5638493827755874e7 0.0
1.5638493827755874e7 -6.506602440810038e7 0.0
0.0 0.0 0.0

2.9478370115683107e6 3.446124705433938e7 0.0
3.446124705433938e7 -2.976749341831552e6 0.0
0.0 0.0 0.0

-246247.29528496088 2.2551550714754377e7 0.0
2.2551550714754377e7 1.0630587334191298e7 0.0
0.0 0.0 0.0

-4.346100858549073e7 1.7044634375895143e7 0.0
1.7044634375895143e7 6.300906266354762e6 0.0
0.0 0.0 0.0

1.2257690208678667e7 2.167064168586184e7 0.0
2.167064168586184e7 4.696530506585295e7 0.0
0.0 0.0 0.0

-3.910841747437714e7 3.88932686647936e7 0.0
3.88932686647936e7 5.749904545022709e6 0.0
0.0 0.0 0.0

771562.1458011977 1.2185488136917632e7 0.0
1.2185488136917632e7 -3.70084805876829e7 0.0
0.0 0.0 0.0

9.71933883176882e6 6.124074972147093e6 0.0
6.124074972147093e6 -1.582594457704628e6 0.0
0.0 0.0 0.0

-2.0038191168474108e7 2.1681347648663083e6 0.0
2.1681347648663083e6 5.991679368873324e6 0.0
0.0 0.0 0.0

-7.911205835558994e6 1.2739264775024947e7 0.0
1.2739264775024947e7 1.8024286414677605e7 0.0
0.0 0.0 0.0

-7.786578412848795e6 5.089448479250587e6 0.0
5.089448479250587e6 4.6635235596654125e7 0.0
0.0 0.0 0.0

-9.343661550429335e6 5.852667097945561e6 0.0
5.852667097945561e6 3.911856349219121e7 0.0
0.0 0.0 0.0

65555.46040322259 2.2140668332350552e7 0.0
2.2140668332350552e7 -1.9356723806754973e7 0.0
0.0 0.0 0.0

-3.162447821391525e6 1.895376660711488e7 0.0
1.895376660711488e7 -1.0541492663362822e7 0.0
0.0 0.0 0.0

3.0563523826734195e6 1.9160927395792942e7 0.0
1.9160927395792942e7 1.0187841287939707e7 0.0
0.0 0.0 0.0

1.580661373535647e6 2.2162668707644463e7 0.0
2.2162668707644463e7 36584.57813644607 0.0
0.0 0.0 0.0

3.560367530882163e6 3.528294625560565e7 0.0
3.528294625560565e7 -2.898981717825608e6 0.0
0.0 0.0 0.0

-9.529501533805372e6 1.3657159955673158e7 0.0
1.3657159955673158e7 2.4760141341344293e7 0.0
0.0 0.0 0.0

579418.3140868936 2.0652644903685283e7 0.0
2.0652644903685283e7 -1.993815970881903e7 0.0
0.0 0.0 0.0

-2.6595477068938976e6 2.91722569839967e7 0.0
2.91722569839967e7 3.5503043370081577e6 0.0
0.0 0.0 0.0

680842.7023253832 9.7760867550979e6 0.0
9.7760867550979e6 -4.388158435078336e7 0.0
0.0 0.0 0.0

-8.481933344786856e6 4.563128001691674e6 0.0
4.563128001691674e6 4.1909662985482626e7 0.0
0.0 0.0 0.0

2.7105048837463604e6 3.278360378727489e7 0.0
3.278360378727489e7 -3.981364555571515e6 0.0
0.0 0.0 0.0

-872122.4877858344 2.2672412482356552e7 0.0
2.2672412482356552e7 7.535398570026266e6 0.0
0.0 0.0 0.0

-1.5601901074941624e6 2.2913223495014567e7 0.0
2.2913223495014567e7 4.496671427402672e6 0.0
0.0 0.0 0.0

-8.560362827584594e6 2.6619386882938374e7 0.0
2.6619386882938374e7 -1.4520400465976723e7 0.0
0.0 0.0 0.0

8.89924736791046e6 1.8269983882081285e7 0.0
1.8269983882081285e7 3.1151649452808328e7 0.0
0.0 0.0 0.0

-1.011184155081048e7 2.5442079940783374e7 0.0
2.5442079940783374e7 -1.232669778589866e7 0.0
0.0 0.0 0.0

-4.117296672039643e6 1.6268847841670772e7 0.0
1.6268847841670772e7 4.6782965023681454e7 0.0
0.0 0.0 0.0

-7.887327702816423e6 3.5904677846977594e6 0.0
3.5904677846977594e6 4.892592634624806e7 0.0
0.0 0.0 0.0

2.0439071483649518e6 1.211509545790898e7 0.0
1.211509545790898e7 -2.4176682927474625e7 0.0
0.0 0.0 0.0

1.0655728173074424e6 6.064785650354304e6 0.0
6.064785650354304e6 -5.010971083223798e7 0.0
0.0 0.0 0.0

1.1926922143080952e6 2.1258412095059693e7 0.0
2.1258412095059693e7 -1.8336178502485853e7 0.0
0.0 0.0 0.0

1.0370681485726193e7 2.5728298924841378e7 0.0
2.5728298924841378e7 1.2359905557804001e7 0.0
0.0 0.0 0.0

2.0934031629692428e6 7.281509837307529e6 0.0
7.281509837307529e6 -2.2405979791217625e7 0.0
0.0 0.0 0.0

-9.307131928429075e6 1.9862415601038605e7 0.0
1.9862415601038605e7 -3.806667768671014e7 0.0
0.0 0.0 0.0

-3.8659121388848554e6 1.5297548595423948e7 0.0
1.5297548595423948e7 -6.041856393988829e7 0.0
0.0 0.0 0.0

-3.441086330407589e6 1.9272493586662125e7 0.0
1.9272493586662125e7 7.356365104711622e6 0.0
0.0 0.0 0.0

-6.883587085291972e6 2.870595873833221e7 0.0
2.870595873833221e7 9.48616501837036e6 0.0
0.0 0.0 0.0

-1.3253202900805188e7 2.6338888766071446e7 0.0
2.6338888766071446e7 -1.3044693331306238e7 0.0
0.0 0.0 0.0

-5.94032745311442e6 4.272183414502212e6 0.0
4.272183414502212e6 6.0112874099063754e7 0.0
0.0 0.0 0.0

-3.269100780631067e6 1.5154915938661683e7 0.0
1.5154915938661683e7 -5.638434692525169e7 0.0
0.0 0.0 0.0

-3.827945808424037e6 1.5562881727276076e7 0.0
1.5562881727276076e7 5.005943239677128e7 0.0
0.0 0.0 0.0

-2.4245382443714594e6 2.3122024740115758e7 0.0
2.3122024740115758e7 1.4286975247417889e6 0.0
0.0 0.0 0.0

1.9627051149584001e6 3.4845767529276475e7 0.0
3.4845767529276475e7 -3.583313743653475e6 0.0
0.0 0.0 0.0

-1.5515029395383287e7 3.1586370983553153e7 0.0
3.1586370983553153e7 4.876332084396867e6 0.0
0.0 0.0 0.0

-6.069549238648737e6 1.759857425841494e7 0.0
1.759857425841494e7 3.6321978217229925e7 0.0
0.0 0.0 0.0

-6.330368660315195e6 1.7376310344160933e7 0.0
1.7376310344160933e7 -2.129845993478336e7 0.0
0.0 0.0 0.0

5.831494104619097e6 1.9990302391162235e7 0.0
1.9990302391162235e7 1.8882104154231135e7 0.0
0.0 0.0 0.0

982975.7117024623 7.773687612687156e6 0.0
7.773687612687156e6 -4.548062600019378e7 0.0
0.0 0.0 0.0

997040.1816021949 1.006418459801309e7 0.0
1.006418459801309e7 -1.5863177605662212e7 0.0
0.0 0.0 0.0

-6.060672649909861e6 1.3244843684586264e7 0.0
1.3244843684586264e7 4.7795903985865e7 0.0
0.0 0.0 0.0

-3.090632425983092e6 2.471794423545427e7 0.0
2.471794423545427e7 1.370288010810896e7 0.0
0.0 0.0 0.0

-3.856956813301493e7 3.2313522823825523e7 0.0
3.2313522823825523e7 -499982.7211227231 0.0
0.0 0.0 0.0

-1.1079693581833802e6 1.7346566951635826e7 0.0
1.7346566951635826e7 -3.2728881946592435e7 0.0
0.0 0.0 0.0

327717.65708100237 1.1534270497861866e7 0.0
1.1534270497861866e7 -4.214196106939941e7 0.0
0.0 0.0 0.0

-2.6573314099528175e6 1.5172230055385027e7 0.0
1.5172230055385027e7 -5.2608909357202776e7 0.0
0.0 0.0 0.0

2.581036435587427e6 4.433302153081402e6 0.0
4.433302153081402e6 -1.138012561098942e7 0.0
0.0 0.0 0.0

1.069673307080444e6 2.381995046836051e7 0.0
2.381995046836051e7 -1.2725910787362183e7 0.0
0.0 0.0 0.0

3.2244132424615286e6 2.5881139786818106e7 0.0
2.5881139786818106e7 -1.0113920983555423e7 0.0
0.0 0.0 0.0

-2.4273602876986615e7 4.3277427361854725e7 0.0
4.3277427361854725e7 7.200443309648145e6 0.0
0.0 0.0 0.0

1.355026359335509e6 4.5888940222396e6 0.0
4.5888940222396e6 -5.734970088282472e6 0.0
0.0 0.0 0.0

-975557.8404875938 2.1100419671040867e7 0.0
2.1100419671040867e7 -2.2805639258687474e7 0.0
0.0 0.0 0.0

-4.767787613945181e6 1.995157498535649e7 0.0
1.995157498535649e7 3.0511882520309675e7 0.0
0.0 0.0 0.0

-9.333019931121744e6 4.682247787699791e6 0.0
4.682247787699791e6 3.460899760009079e7 0.0
0.0 0.0 0.0

1.6788135927627645e6 5.548830849337631e6 0.0
5.548830849337631e6 -4.1609260591990225e7 0.0
0.0 0.0 0.0

-9.683494301257662e6 7.541605280673937e6 0.0
7.541605280673937e6 3.393334965792225e7 0.0
0.0 0.0 0.0

-8.625627733604215e6 7.346458469888878e6 0.0
7.346458469888878e6 4.0851051934446886e7 0.0
0.0 0.0 0.0

-8.973624618279655e6 1.3014061850635484e7 0.0
1.3014061850635484e7 2.1496912383956417e7 0.0
0.0 0.0 0.0

-4.471255196076088e6 2.6351048395338263e7 0.0
2.6351048395338263e7 1.3515201184216028e7 0.0
0.0 0.0 0.0

-2.211423649891799e6 1.4574304688412158e7 0.0
1.4574304688412158e7 1.8749658989511374e6 0.0
0.0 0.0 0.0

2.728391122600441e7 6.330664667376396e6 0.0
6.330664667376396e6 -1.7139643008815534e6 0.0
0.0 0.0 0.0

-3.815010933608202e7 4.1914363478288064e6 0.0
4.1914363478288064e6 5.919235734839138e6 0.0
0.0 0.0 0.0

2.357592218434005e6 9.293233063786713e6 0.0
9.293233063786713e6 -1.7159178759596378e7 0.0
0.0 0.0 0.0

1.186694732229801e6 1.1062739564778125e7 0.0
1.1062739564778125e7 -4.142776955588558e7 0.0
0.0 0.0 0.0

1.5979625719557572e6 9.133504846162649e6 0.0
9.133504846162649e6 -4.291034118456844e7 0.0
0.0 0.0 0.0

362493.8217840553 2.8294228579643215e6 0.0
2.8294228579643215e6 1.8096261512182893e6 0.0
0.0 0.0 0.0

-5.109157315266205e6 -315573.8430746182 0.0
-315573.8430746182 3.9235132820833093e6 0.0
0.0 0.0 0.0

-6.402572201605164e6 2.0115260153914858e7 0.0
2.0115260153914858e7 -3.385946489224905e7 0.0
0.0 0.0 0.0

1.308866309041934e6 5.997946459327884e6 0.0
5.997946459327884e6 -4.691220164844634e7 0.0
0.0 0.0 0.0

-3.3394161830028173e7 2.927957925975956e7 0.0
2.927957925975956e7 -1.4301662999792403e7 0.0
0.0 0.0 0.0

-4.147037328187963e6 2.3122742819690257e7 0.0
2.3122742819690257e7 1.9194397468463317e7 0.0
0.0 0.0 0.0

2.880947144919024e6 3.1886820411262095e7 0.0
3.1886820411262095e7 -4.913105416558736e6 0.0
0.0 0.0 0.0

7.773070606383932e6 1.8143364190081783e7 0.0
1.8143364190081783e7 2.7226358078105405e7 0.0
0.0 0.0 0.0

1.6219274797272215e7 1.2440246697690267e7 0.0
1.2440246697690267e7 1.7764969659700147e6 0.0
0.0 0.0 0.0

-1.6316245647530925e7 2.9120822906118646e7 0.0
2.9120822906118646e7 -1.3635905836038599e7 0.0
0.0 0.0 0.0

-6.746836445741728e6 7.587450098981061e6 0.0
7.587450098981061e6 5.250503193165289e7 0.0
0.0 0.0 0.0

-6.505108323720265e6 2.7752583227799665e7 0.0
2.7752583227799665e7 9.98917188208834e6 0.0
0.0 0.0 0.0

4.0338245754366796e6 2.605207027981505e7 0.0
2.605207027981505e7 -8.62729163374586e6 0.0
0.0 0.0 0.0

-4.611615217437051e6 2.0482769314428754e7 0.0
2.0482769314428754e7 2.877411240705305e7 0.0
0.0 0.0 0.0

-8.674613017436123e6 779566.6122890364 0.0
779566.6122890364 3.4568460540332034e7 0.0
0.0 0.0 0.0

1.0259908633073205e6 3.3178434256614268e7 0.0
3.3178434256614268e7 -3.700918066552311e6 0.0
0.0 0.0 0.0

734197.6935494822 1.13913212707444e7 0.0
1.13913212707444e7 -3.931243728284982e7 0.0
0.0 0.0 0.0

5.235525089610402e6 3.0819123591925193e7 0.0
3.0819123591925193e7 -6.890319932369068e6 0.0
0.0 0.0 0.0

1.9314454985049833e6 7.288049280908606e6 0.0
7.288049280908606e6 -4.470934390939015e7 0.0
0.0 0.0 0.0

7.452012144327452e6 2.073878477980136e7 0.0
2.073878477980136e7 2.230300757528954e7 0.0
0.0 0.0 0.0

15523.624962716363 2.4592728765700795e7 0.0
2.4592728765700795e7 -1.1071519538058154e7 0.0
0.0 0.0 0.0

-1.1187417062002089e7 4.757625268660431e6 0.0
4.757625268660431e6 2.0787274603011288e7 0.0
0.0 0.0 0.0

-3.567509921644701e6 1.8732207929330084e7 0.0
1.8732207929330084e7 -1.0799466826031025e7 0.0
0.0 0.0 0.0

2.2228340699331164e6 5.219385976040209e6 0.0
5.219385976040209e6 -4.5719048257838756e7 0.0
0.0 0.0 0.0

1.8800976720130228e7 3.1013504184377413e7 0.0
3.1013504184377413e7 -3.985204579889116e6 0.0
0.0 0.0 0.0

1.8492662854930125e6 8.188807731488851e6 0.0
8.188807731488851e6 -2.0966083740507975e7 0.0
0.0 0.0 0.0

-1.1279864645061448e7 9.40212671918666e6 0.0
9.40212671918666e6 2.514928254145695e7 0.0
0.0 0.0 0.0

-3.6304589005725062e6 3.2625868947968267e7 0.0
3.2625868947968267e7 3.578718656754582e6 0.0
0.0 0.0 0.0

-2.393256844206568e6 1.5217458901803637e7 0.0
1.5217458901803637e7 -4.897080125453808e7 0.0
0.0 0.0 0.0

-5.678667768753123e6 1.8710592574618164e7 0.0
1.8710592574618164e7 -1.8928892355771314e7 0.0
0.0 0.0 0.0

5.318048601132456e6 1.9108577722694255e7 0.0
1.9108577722694255e7 1.7726829036224157e7 0.0
0.0 0.0 0.0

-2.503953044303566e6 1.533211271286773e7 0.0
1.533211271286773e7 3.7456886180481296e6 0.0
0.0 0.0 0.0

-4.616911297272507e6 1.762564509663718e7 0.0
1.762564509663718e7 1.13263910976123e7 0.0
0.0 0.0 0.0

3.7620864422341706e6 2.1632045811836224e7 0.0
2.1632045811836224e7 2.3767069677030236e7 0.0
0.0 0.0 0.0

-9.40019960519895e6 2.402648941058915e6 0.0
2.402648941058915e6 3.0147333338442944e7 0.0
0.0 0.0 0.0

3.0692506329197716e6 2.4089399165046543e7 0.0
2.4089399165046543e7 6.134260832814941e6 0.0
0.0 0.0 0.0

-3.6323807940606605e6 2.559949855753855e7 0.0
2.559949855753855e7 1.4358726884359963e7 0.0
0.0 0.0 0.0

1.697053129962545e6 8.41181603265421e6 0.0
8.41181603265421e6 -1.8546785302331988e7 0.0
0.0 0.0 0.0

-1.0385401595065175e7 6.012729380338329e6 0.0
6.012729380338329e6 3.188635974297075e7 0.0
0.0 0.0 0.0

-8.304867056349451e6 2.492752268714811e7 0.0
2.492752268714811e7 -1.0249264531683516e7 0.0
0.0 0.0 0.0

-5.092064516594887e6 2.1023366260947675e7 0.0
2.1023366260947675e7 2.715742523904549e7 0.0
0.0 0.0 0.0

799755.7442652034 2.2647033107578214e7 0.0
2.2647033107578214e7 1.9219836394536126e7 0.0
0.0 0.0 0.0

-9.69685846146878e6 1.031379659281579e7 0.0
1.031379659281579e7 3.321683476943839e7 0.0
0.0 0.0 0.0

3.2655529268351e6 2.547610687372762e7 0.0
2.547610687372762e7 -1.122291981047944e7 0.0
0.0 0.0 0.0

-6.832775365054062e6 3.1428534232515074e7 0.0
3.1428534232515074e7 7.543218753905083e6 0.0
0.0 0.0 0.0

-6.840925887089428e6 1.1515896532985006e7 0.0
1.1515896532985006e7 4.7214483410739176e7 0.0
0.0 0.0 0.0

-8.527824270603664e6 1.4963961706326202e7 0.0
1.4963961706326202e7 1.80140194509701e7 0.0
0.0 0.0 0.0

-8.227951801116278e6 5.07233549588661e6 0.0
5.07233549588661e6 4.614407346624149e7 0.0
0.0 0.0 0.0

536510.0218224423 1.996796699852773e7 0.0
1.996796699852773e7 -2.1531454215315856e7 0.0
0.0 0.0 0.0

-5.851882089863213e6 2.795041490365938e7 0.0
2.795041490365938e7 1.0879162277787497e7 0.0
0.0 0.0 0.0

-3.309378526304256e6 2.331432891733358e7 0.0
2.331432891733358e7 -1.5650343225985197e6 0.0
0.0 0.0 0.0

2.5280090877818484e6 9.434677672184331e6 0.0
9.434677672184331e6 -2.2875337570731442e7 0.0
0.0 0.0 0.0

-8.380415795998028e6 1.5507239057123528e6 0.0
1.5507239057123528e6 3.839953054348031e7 0.0
0.0 0.0 0.0

-458313.24875189364 1.7817644073089834e7 0.0
1.7817644073089834e7 5.331421692629199e7 0.0
0.0 0.0 0.0

-4.6025239533551745e6 1.425650345577802e7 0.0
1.425650345577802e7 5.122413065849317e7 0.0
0.0 0.0 0.0

2.911203466430652e6 2.2443327896502297e7 0.0
2.2443327896502297e7 1.3125367575458555e7 0.0
0.0 0.0 0.0

-1.0554713904558493e7 8.846720288259447e6 0.0
8.846720288259447e6 3.1235099755351998e7 0.0
0.0 0.0 0.0

-3.615839889800418e6 1.6849907815492522e7 0.0
1.6849907815492522e7 1.2771733499244079e7 0.0
0.0 0.0 0.0

-599582.9897578789 2.3257107006361388e7 0.0
2.3257107006361388e7 -6.69040921915517e6 0.0
0.0 0.0 0.0

360882.7748171864 1.794495905362575e7 0.0
1.794495905362575e7 -1.8370559322473533e7 0.0
0.0 0.0 0.0

-3.8166587892903984e6 2.5603657080065947e7 0.0
2.5603657080065947e7 1.5558586207371913e7 0.0
0.0 0.0 0.0

-5.361108480927923e6 3.6441928344488256e7 0.0
3.6441928344488256e7 4.597580965779968e6 0.0
0.0 0.0 0.0

-7.293133443141503e6 1.5138916945248906e7 0.0
1.5138916945248906e7 3.9133785776407085e7 0.0
0.0 0.0 0.0

1.109984567867101e7 1.862199830013131e7 0.0
1.862199830013131e7 3.977524640842372e7 0.0
0.0 0.0 0.0

14317.93633306399 2.325498918850956e7 0.0
2.325498918850956e7 -1.0030564690082358e7 0.0
0.0 0.0 0.0

1.884277751210956e6 1.2597096755908849e7 0.0
1.2597096755908849e7 -2.9776808241708566e7 0.0
0.0 0.0 0.0

1.8220261969048362e6 2.9467848712188303e6 0.0
2.9467848712188303e6 -4.931556778391447e7 0.0
0.0 0.0 0.0

-8.143527690371087e6 1.6946099404290942e6 0.0
1.6946099404290942e6 4.300205405873537e7 0.0
0.0 0.0 0.0

-3.3357243849454345e6 2.552642266458436e7 0.0
2.552642266458436e7 1.4230714549097937e7 0.0
0.0 0.0 0.0

115884.42410010938 1.8391848281354677e7 0.0
1.8391848281354677e7 1.83201494704667e7 0.0
0.0 0.0 0.0

3.486051456884425e6 1.8333672545631282e7 0.0
1.8333672545631282e7 7.5771538030988e7 0.0
0.0 0.0 0.0

71752.88975867163 1.70092250991762e7 0.0
1.70092250991762e7 -1.691020931289417e7 0.0
0.0 0.0 0.0

8.76842800022297e6 1.9377256141096223e7 0.0
1.9377256141096223e7 2.9228093766674973e7 0.0
0.0 0.0 0.0

-9.68337568870988e6 2.0549730945526508e6 0.0
2.0549730945526508e6 3.207967970659173e7 0.0
0.0 0.0 0.0

-2.5222591032284528e7 2.7067654885595813e6 0.0
2.7067654885595813e6 7.546169322362786e6 0.0
0.0 0.0 0.0

1.2566722134292554e6 1.0624552875088535e7 0.0
1.0624552875088535e7 -3.5746881447135255e7 0.0
0.0 0.0 0.0

-1.099043308221545e7 6.891402415854166e6 0.0
6.891402415854166e6 2.7518324510909267e7 0.0
0.0 0.0 0.0

385975.15186665766 1.2253186281003572e7 0.0
1.2253186281003572e7 -3.9752120009786904e7 0.0
0.0 0.0 0.0

-3.9585915982093606e6 1.842758843141452e7 0.0
1.842758843141452e7 3.8838997840662606e7 0.0
0.0 0.0 0.0

3.006629102229668e6 3.3278466850437415e6 0.0
3.3278466850437415e6 -3.0621808330557466e7 0.0
0.0 0.0 0.0

1.5509025239536818e7 3.2175696174352746e7 0.0
3.2175696174352746e7 -4.87167745635855e6 0.0
0.0 0.0 0.0

-1.9603690465193796e6 1.6693562662661104e7 0.0
1.6693562662661104e7 146600.5284822859 0.0
0.0 0.0 0.0

746168.6826837743 7.285977588594247e6 0.0
7.285977588594247e6 -3.983135133267981e6 0.0
0.0 0.0 0.0

3.876370856693877e7 6.590157743076041e6 0.0
6.590157743076041e6 -1.197572427054273e6 0.0
0.0 0.0 0.0

-2.3224840999354366e6 1.8975094760387838e7 0.0
1.8975094760387838e7 4.041059707650211e7 0.0
0.0 0.0 0.0

-1.456797401359335e6 1.2050181699427767e7 0.0
1.2050181699427767e7 -6.470809249699253e6 0.0
0.0 0.0 0.0

-8.85727817452404e6 6.54415271732692e6 0.0
6.54415271732692e6 4.3373143160531245e7 0.0
0.0 0.0 0.0

1.6629009490687195e6 5.861181407888611e6 0.0
5.861181407888611e6 -1.1144798879257677e7 0.0
0.0 0.0 0.0

-7.2562333907466605e6 2.448476673758104e7 0.0
2.448476673758104e7 -7.586372049506425e6 0.0
0.0 0.0 0.0

-3.218624048629066e6 2.3235319657917313e7 0.0
2.3235319657917313e7 1.9309977261943575e7 0.0
0.0 0.0 0.0

-1.0315695140543438e7 1.0916009554021807e7 0.0
1.0916009554021807e7 2.715771387773782e7 0.0
0.0 0.0 0.0

1.4377904741951954e6 8.992411610717533e6 0.0
8.992411610717533e6 -3.695583386923314e7 0.0
0.0 0.0 0.0

-8.11702056368648e6 1.8338295905686725e7 0.0
1.8338295905686725e7 -4.651097848494512e7 0.0
0.0 0.0 0.0

-8.708983569186887e6 8.113975338156023e6 0.0
8.113975338156023e6 1.089936495273626e7 0.0
0.0 0.0 0.0

2.5861174224436115e6 3.5850369074613214e6 0.0
3.5850369074613214e6 -2.784137181830867e7 0.0
0.0 0.0 0.0

-3795.489073187113 2.0922400996450193e7 0.0
2.0922400996450193e7 -1.55262281687293e7 0.0
0.0 0.0 0.0

2.493951987845279e7 2.5867423949036397e7 0.0
2.5867423949036397e7 9.972577509501196e6 0.0
0.0 0.0 0.0

1.8428773773399498e6 6.36147696070971e6 0.0
6.36147696070971e6 -4.990943597033671e7 0.0
0.0 0.0 0.0

-1.3387759081381962e7 860250.959711242 0.0
860250.959711242 6.693469850796128e6 0.0
0.0 0.0 0.0

-4.4335501501735635e6 2.127772370465026e7 0.0
2.127772370465026e7 2.4958998220060654e7 0.0
0.0 0.0 0.0

-2.527391852766472e6 1.0478651555145236e7 0.0
1.0478651555145236e7 3.955173232195895e6 0.0
0.0 0.0 0.0

-1.0167371727483962e7 9.95550722728187e6 0.0
9.95550722728187e6 2.975224090974702e7 0.0
0.0 0.0 0.0

1.3648442722054236e6 6.870398376452919e6 0.0
6.870398376452919e6 -5.775242092676306e7 0.0
0.0 0.0 0.0

1.2726122594917687e7 2.0191317213407047e7 0.0
2.0191317213407047e7 4.242040925424437e7 0.0
0.0 0.0 0.0

1.2516698730185177e7 2.66490653970841e7 0.0
2.66490653970841e7 1.4564511119772824e7 0.0
0.0 0.0 0.0

-6.841515534819156e6 2.0292006179406576e7 0.0
2.0292006179406576e7 -2.7470165998322345e7 0.0
0.0 0.0 0.0

-327379.769165013 1.5531894129168125e7 0.0
1.5531894129168125e7 -1.4190600554115215e7 0.0
0.0 0.0 0.0

-3.058331943732773e6 2.4115620966680486e7 0.0
2.4115620966680486e7 1.7847243333529565e7 0.0
0.0 0.0 0.0

1.3092529395811612e7 2.4323938287964124e7 0.0
2.4323938287964124e7 1.6328168402626272e6 0.0
0.0 0.0 0.0

1.0141914397547878e6 1.2158772230185006e7 0.0
1.2158772230185006e7 -3.447276170949282e7 0.0
0.0 0.0 0.0

2.45415867494054e6 3.569145415649015e7 0.0
3.569145415649015e7 -3.5393749785393006e6 0.0
0.0 0.0 0.0

182433.3698671593 2.1013551653489664e7 0.0
2.1013551653489664e7 4.87819336746298e6 0.0
0.0 0.0 0.0

-7.96611893798617e7 7.492990546508834e6 0.0
7.492990546508834e6 2.804628724146452e6 0.0
0.0 0.0 0.0

6.908914612920216e7 8.355032597002775e6 0.0
8.355032597002775e6 112543.53641860932 0.0
0.0 0.0 0.0

5.910933333256411e6 2.430112044356582e7 0.0
2.430112044356582e7 1.0738093110831114e7 0.0
0.0 0.0 0.0

-4.067698332680622e6 9.613558076290933e6 0.0
9.613558076290933e6 3.0949169566709936e7 0.0
0.0 0.0 0.0

2.0232713903059391e6 2.2196364465922687e7 0.0
2.2196364465922687e7 1.9699161875420555e7 0.0
0.0 0.0 0.0

3.9185407309970306e6 2.9326355862729166e7 0.0
2.9326355862729166e7 -8.290827968772424e6 0.0
0.0 0.0 0.0

5.958252549122417e6 2.2173636617326334e7 0.0
2.2173636617326334e7 1.986084244470102e7 0.0
0.0 0.0 0.0

-1.0450515829494074e7 9.937053044742135e6 0.0
9.937053044742135e6 2.6283566656710833e7 0.0
0.0 0.0 0.0

-2.3367771180711007e6 2.3836100207684666e7 0.0
2.3836100207684666e7 1.2404861371838488e7 0.0
0.0 0.0 0.0

-5.558025408166557e7 4.064511359923733e7 0.0
4.064511359923733e7 -1.399518792879886e7 0.0
0.0 0.0 0.0

2.144158283427611e6 4.245811508805209e6 0.0
4.245811508805209e6 -3.480980995897687e7 0.0
0.0 0.0 0.0

-4.202607516905313e6 2.3581146129951004e7 0.0
2.3581146129951004e7 -4.446052888424853e6 0.0
0.0 0.0 0.0

1.2039751010541208e7 1.8871317211852837e7 0.0
1.8871317211852837e7 4.479171577352896e7 0.0
0.0 0.0 0.0

-8.282636239682626e6 1.862899476596516e7 0.0
1.862899476596516e7 -2.7608787409510296e7 0.0
0.0 0.0 0.0

7.61412889908504e6 1.9198986343982637e7 0.0
1.9198986343982637e7 2.5380430581132863e7 0.0
0.0 0.0 0.0

-1.93713918496201e6 1.5555419992620705e7 0.0
1.5555419992620705e7 -4.596869027280946e7 0.0
0.0 0.0 0.0

-9.195442240698006e6 3.407801502684077e6 0.0
3.407801502684077e6 3.380138861108628e7 0.0
0.0 0.0 0.0

-2.0417736894164488e7 3.474096428694355e7 0.0
3.474096428694355e7 5.86895374314423e6 0.0
0.0 0.0 0.0

1.772902344623155e6 8.842499454595294e6 0.0
8.842499454595294e6 -2.1974559597071256e7 0.0
0.0 0.0 0.0

-2.5725667146724015e6 1.939191063944861e7 0.0
1.939191063944861e7 3.803670326883955e7 0.0
0.0 0.0 0.0

-1.1415627387536846e7 7.252397463483926e6 0.0
7.252397463483926e6 2.2831902916396204e7 0.0
0.0 0.0 0.0

-5.972033735182229e6 3.536145452743683e7 0.0
3.536145452743683e7 5.27222664968475e6 0.0
0.0 0.0 0.0

-1.4013591229116883e7 4.014986410117203e7 0.0
4.014986410117203e7 6.055421071260361e6 0.0
0.0 0.0 0.0

-1.3390898707796607e7 922770.9205533115 0.0
922770.9205533115 6.565830740104497e6 0.0
0.0 0.0 0.0

-3.7943177525436687e6 1.9979156302238677e7 0.0
1.9979156302238677e7 -1.3146863982314762e7 0.0
0.0 0.0 0.0

3.110029058261008e6 2.858266225936889e7 0.0
2.858266225936889e7 -8.554621189959534e6 0.0
0.0 0.0 0.0

-1.0404131827757627e7 3.9721462832689416e6 0.0
3.9721462832689416e6 1.3837567957107877e7 0.0
0.0 0.0 0.0

1.2524792621095736e7 3.2838306170941275e7 0.0
3.2838306170941275e7 -5.447667421674411e6 0.0
0.0 0.0 0.0

-1.140654240715779e7 8.381324839651184e6 0.0
8.381324839651184e6 2.4070126882439144e7 0.0
0.0 0.0 0.0

1.8120123635883834e6 4.748444874950645e6 0.0
4.748444874950645e6 -4.086981530653844e7 0.0
0.0 0.0 0.0

1.9615664292173814e6 5.80108748790393e6 0.0
5.80108748790393e6 -3.639142884871605e7 0.0
0.0 0.0 0.0

494461.7789603071 1.5208470583469355e7 0.0
1.5208470583469355e7 -1.8771767847540088e7 0.0
0.0 0.0 0.0

2.750221806060074e6 2.5311587065765206e7 0.0
2.5311587065765206e7 -1.2273943025277108e7 0.0
0.0 0.0 0.0

1.3727884381548055e6 6.086740133541759e6 0.0
6.086740133541759e6 -6.131734156662877e7 0.0
0.0 0.0 0.0

-7.90264814164602e6 2.583870425862796e7 0.0
2.583870425862796e7 -1.51079792642968e7 0.0
0.0 0.0 0.0

441563.0207265541 1.7524946185658902e7 0.0
1.7524946185658902e7 -2.6474336050924063e7 0.0
0.0 0.0 0.0

-6.04228793405279e6 1.9920355833644792e7 0.0
1.9920355833644792e7 2.8817381754769605e7 0.0
0.0 0.0 0.0

-7.482227929051165e6 2.5473372839366768e7 0.0
2.5473372839366768e7 -1.3802262856943186e7 0.0
0.0 0.0 0.0

1.782737755622128e6 1.1751424848016959e7 0.0
1.1751424848016959e7 -3.383513970028289e7 0.0
0.0 0.0 0.0

-3.723639450837785e7 2.756711590890221e7 0.0
2.756711590890221e7 2.6011361719480176e6 0.0
0.0 0.0 0.0

1.7766139885728806e6 3.827551250879129e6 0.0
3.827551250879129e6 -4.279044540535992e7 0.0
0.0 0.0 0.0

2.6038900040756967e6 5.982348334236918e6 0.0
5.982348334236918e6 -3.632637353797319e7 0.0
0.0 0.0 0.0

1.3868153312232364e6 2.2958086967628483e7 0.0
2.2958086967628483e7 -1.5946811892607916e7 0.0
0.0 0.0 0.0

-1.7891462894803938e7 1.1416786161471263e6 0.0
1.1416786161471263e6 7.663108687553724e6 0.0
0.0 0.0 0.0

1.3299079706495833e6 1.1757679256913597e7 0.0
1.1757679256913597e7 -1.304597570976168e7 0.0
0.0 0.0 0.0

1.2220887450380214e6 1.978491283029147e7 0.0
1.978491283029147e7 2.3379508932879165e7 0.0
0.0 0.0 0.0

-4.308806133486379e6 3.387014360592691e7 0.0
3.387014360592691e7 5.246482454428889e6 0.0
0.0 0.0 0.0

-7.229457686647883e6 3.597497983359025e7 0.0
3.597497983359025e7 5.491042436802711e6 0.0
0.0 0.0 0.0

-1.1159386930962544e7 1.1056171540261969e7 0.0
1.1056171540261969e7 2.41984205432904e7 0.0
0.0 0.0 0.0

-23558.19101113081 1.5209868693659743e7 0.0
1.5209868693659743e7 7.071856538307755e7 0.0
0.0 0.0 0.0

-2.7548726236210763e6 3.467126946357846e7 0.0
3.467126946357846e7 3.527492774121485e6 0.0
0.0 0.0 0.0

-5.16588481726151e6 2.4007860984138183e7 0.0
2.4007860984138183e7 -1.8504830723176969e6 0.0
0.0 0.0 0.0

-47765.113290201174 2.3016102963247404e7 0.0
2.3016102963247404e7 -5.151321742060686e6 0.0
0.0 0.0 0.0

4.51410521347467e7 2.828693107949952e7 0.0
2.828693107949952e7 1.795822237598961e7 0.0
0.0 0.0 0.0

-1.000592086123267e7 1.2295860300636325e7 0.0
1.2295860300636325e7 2.601638459048641e7 0.0
0.0 0.0 0.0

2.581198982204763e6 4.1565652071869606e6 0.0
4.1565652071869606e6 -3.999499785590599e7 0.0
0.0 0.0 0.0

790002.8789251614 2.172709045020685e7 0.0
2.172709045020685e7 -1.4251851695908057e7 0.0
0.0 0.0 0.0

-2.30188249769897e6 1.8104848218405593e7 0.0
1.8104848218405593e7 3.582969228516365e6 0.0
0.0 0.0 0.0

-1.458463834209381e7 2.1659669246906485e7 0.0
2.1659669246906485e7 -728971.0607100581 0.0
0.0 0.0 0.0

-8.241598903109593e6 3.140781144312996e6 0.0
3.140781144312996e6 4.115066116384943e7 0.0
0.0 0.0 0.0

-8.906370493657622e7 5.38199853567416e7 0.0
5.38199853567416e7 -2.1906397121932667e7 0.0
0.0 0.0 0.0

-1.2474815635727193e7 1.900677628530007e7 0.0
1.900677628530007e7 -4.158271977082562e7 0.0
0.0 0.0 0.0

1.130374006771001e7 1.980512446962412e7 0.0
1.980512446962412e7 3.767913458714615e7 0.0
0.0 0.0 0.0

351189.06750817224 1.62811660979944e7 0.0
1.62811660979944e7 -3.0144577655507118e7 0.0
0.0 0.0 0.0

-1.6458244269787133e7 2.6954947154886145e7 0.0
2.6954947154886145e7 -8.347115294891091e6 0.0
0.0 0.0 0.0

2.4103217176262336e6 9.713336577099126e6 0.0
9.713336577099126e6 -2.0550610750415552e7 0.0
0.0 0.0 0.0

2.0309939770060368e6 1.0148243191941898e7 0.0
1.0148243191941898e7 -3.500135982872088e7 0.0
0.0 0.0 0.0

-3.5592884649429917e6 2.2504578469198268e7 0.0
2.2504578469198268e7 2.1273149030200496e7 0.0
0.0 0.0 0.0

1.0003321613077894e6 1.2906818438616052e7 0.0
1.2906818438616052e7 -3.2632329954871923e7 0.0
0.0 0.0 0.0

-4.975180818019473e6 3.463158560155961e7 0.0
3.463158560155961e7 5.265768917386217e6 0.0
0.0 0.0 0.0

-9.551082341638573e6 8.661875171475906e6 0.0
8.661875171475906e6 3.801465590433538e7 0.0
0.0 0.0 0.0

-8.861471452911206e6 1.1522872880971483e6 0.0
1.1522872880971483e6 3.1860573467642426e7 0.0
0.0 0.0 0.0

1.630913922042245e6 8.174683758365514e6 0.0
8.174683758365514e6 -3.619368025814646e7 0.0
0.0 0.0 0.0

-1.5540619620263752e7 2.6232641952257343e7 0.0
2.6232641952257343e7 -1.2044451064544255e7 0.0
0.0 0.0 0.0

7.343813157264018e6 3.884061307026248e7 0.0
3.884061307026248e7 -4.581431387287062e6 0.0
0.0 0.0 0.0

-5.3501371276444625e6 2.03568986027644e7 0.0
2.03568986027644e7 2.6418906020791054e7 0.0
0.0 0.0 0.0

1.6739186046266109e6 6.4332604946219325e6 0.0
6.4332604946219325e6 -3.98486348645932e7 0.0
0.0 0.0 0.0

1.4355919944597967e6 6.774868880575851e6 0.0
6.774868880575851e6 -5.3536628561106294e7 0.0
0.0 0.0 0.0

-3.271125602257576e6 1.4102321008638818e7 0.0
1.4102321008638818e7 5.8136396399431005e7 0.0
0.0 0.0 0.0

-9.027517922878535e6 8.88139056860855e6 0.0
8.88139056860855e6 3.876625340677963e7 0.0
0.0 0.0 0.0

1.0242352075983912e7 3.3007609065373216e7 0.0
3.3007609065373216e7 -5.782150353840863e6 0.0
0.0 0.0 0.0

-859502.435397482 2.6483351792722978e7 0.0
2.6483351792722978e7 -2.366161904744745e6 0.0
0.0 0.0 0.0

-8.103824733291473e6 6.71783151836815e6 0.0
6.71783151836815e6 4.4395849186481334e7 0.0
0.0 0.0 0.0

2.477976685413316e6 5.02965833681723e6 0.0
5.02965833681723e6 -2.1689227453923818e7 0.0
0.0 0.0 0.0

-2.238585611336712e6 2.6433713190706395e7 0.0
2.6433713190706395e7 1.1189813000045158e6 0.0
0.0 0.0 0.0

-2.2088176641879287e7 2.709865014573173e7 0.0
2.709865014573173e7 -1.0360218647893764e7 0.0
0.0 0.0 0.0

-9.871544345699927e6 1.314974771430476e7 0.0
1.314974771430476e7 1.85394918680351e7 0.0
0.0 0.0 0.0

2.432325490374852e6 5.8570071360711185e6 0.0
5.8570071360711185e6 -3.8983871504614495e7 0.0
0.0 0.0 0.0

1.1063178131325264e6 1.2938213914307807e7 0.0
1.2938213914307807e7 -3.0331780615118288e7 0.0
0.0 0.0 0.0

-1.0801144169552209e7 2.7963438668335336e6 0.0
2.7963438668335336e6 2.18981826157286e7 0.0
0.0 0.0 0.0

-9.640389841264386e6 1.18645611145387e7 0.0
1.18645611145387e7 3.1666415545338813e7 0.0
0.0 0.0 0.0

-1.7501430082816333e6 1.5843913381428344e7 0.0
1.5843913381428344e7 -4.274690984624386e7 0.0
0.0 0.0 0.0

2.709730953728793e6 5.213136384789718e6 0.0
5.213136384789718e6 -3.5522765041661754e7 0.0
0.0 0.0 0.0

-1.4713737284335964e6 2.623386562868716e7 0.0
2.623386562868716e7 -4.338615067572389e6 0.0
0.0 0.0 0.0

2.283118499626765e6 8.461164233198026e6 0.0
8.461164233198026e6 -3.612046167300188e7 0.0
0.0 0.0 0.0

-1.0136189340299288e7 4.6101438635156285e6 0.0
4.6101438635156285e6 2.4380152948884416e7 0.0
0.0 0.0 0.0

-1.8003241857970927e7 2.0759115630476207e7 0.0
2.0759115630476207e7 -6.001080957362306e7 0.0
0.0 0.0 0.0

1.64143515561899e7 2.1591538873651654e7 0.0
2.1591538873651654e7 5.471450768692749e7 0.0
0.0 0.0 0.0

1.1498086638058163e6 2.330994143009077e7 0.0
2.330994143009077e7 1.6962475105924648e6 0.0
0.0 0.0 0.0

-2.862722732784479e7 3.366013952866479e6 0.0
3.366013952866479e6 6.68085261694167e6 0.0
0.0 0.0 0.0

-9.541133656327084e6 1.3581328974032e6 0.0
1.3581328974032e6 2.4467850616423465e7 0.0
0.0 0.0 0.0

7.289861325990698e6 2.181159008070436e7 0.0
2.181159008070436e7 2.429953444649527e7 0.0
0.0 0.0 0.0

-6.667006124756064e6 2.1120716834677827e7 0.0
2.1120716834677827e7 -2.2223350647179227e7 0.0
0.0 0.0 0.0

646227.1076212749 1.5463999536464563e7 0.0
1.5463999536464563e7 7.707740466170421e7 0.0
0.0 0.0 0.0

1.662528004562026e6 7.333457799871121e6 0.0
7.333457799871121e6 -3.802372666848317e7 0.0
0.0 0.0 0.0

2.8131520300273895e6 2.7744934177036893e7 0.0
2.7744934177036893e7 -9.845642343990192e6 0.0
0.0 0.0 0.0

-9.723658701205473e6 1.870009853507312e7 0.0
1.870009853507312e7 -4.511147075779333e7 0.0
0.0 0.0 0.0

-4.321325339239191e6 3.26654956465402e7 0.0
3.26654956465402e7 4.638712960139399e6 0.0
0.0 0.0 0.0

-4.756430044067458e6 2.582104948944298e7 0.0
2.582104948944298e7 9.246240020421542e6 0.0
0.0 0.0 0.0

1.8888919554740393e6 3.3124044539642166e7 0.0
3.3124044539642166e7 -4.5192520100713745e6 0.0
0.0 0.0 0.0

-1.63159206815684e7 1.8841173617502652e7 0.0
1.8841173617502652e7 -6.303654731500197e7 0.0
0.0 0.0 0.0

8.340960099347817e6 3.2937685785107497e7 0.0
3.2937685785107497e7 -5.992472687067065e6 0.0
0.0 0.0 0.0

-4.617373156004367e6 1.880099732667628e7 0.0
1.880099732667628e7 3.650824412763289e7 0.0
0.0 0.0 0.0

1.4967786338877184e6 1.0314942943138083e7 0.0
1.0314942943138083e7 -2.1514294493005443e7 0.0
0.0 0.0 0.0

1.8102276273552086e6 6.551299197778938e6 0.0
6.551299197778938e6 -3.720850662798961e7 0.0
0.0 0.0 0.0

2.90673951379897e6 2.6418725201350234e7 0.0
2.6418725201350234e7 -1.1191620164412156e7 0.0
0.0 0.0 0.0

-2.056271202007512e6 1.8134827246198803e7 0.0
1.8134827246198803e7 -6.73659302646565e6 0.0
0.0 0.0 0.0

768737.236878911 1.0470435234756624e7 0.0
1.0470435234756624e7 -4.154536948702264e7 0.0
0.0 0.0 0.0

-3.49350140704566e6 3.0978576601987526e7 0.0
3.0978576601987526e7 5.723182526184227e6 0.0
0.0 0.0 0.0

-1.8875231844738324e6 2.05724670605016e7 0.0
2.05724670605016e7 498847.75891205214 0.0
0.0 0.0 0.0

779662.8882881524 1.7813501262595605e7 0.0
1.7813501262595605e7 -1.5693269066988967e7 0.0
0.0 0.0 0.0

207500.7318412196 1.3903160388724275e7 0.0
1.3903160388724275e7 -3.996795895508155e7 0.0
0.0 0.0 0.0

5.526198988939837e6 3.2208131632666487e7 0.0
3.2208131632666487e7 -6.360585833614214e6 0.0
0.0 0.0 0.0

644398.0801471984 2.020252482237494e7 0.0
2.020252482237494e7 -1.436357717465142e7 0.0
0.0 0.0 0.0

-2.5052717679769415e6 1.901287721307576e7 0.0
1.901287721307576e7 -6.857043255645843e6 0.0
0.0 0.0 0.0

3.401568345399005e7 6.029384000747242e6 0.0
6.029384000747242e6 -1.7107111980305985e6 0.0
0.0 0.0 0.0

-2.180123217291517e6 2.162012900742971e7 0.0
2.162012900742971e7 9.218377666121092e6 0.0
0.0 0.0 0.0

-9.264458421175119e6 1.2255530973273374e7 0.0
1.2255530973273374e7 2.0340233164250143e7 0.0
0.0 0.0 0.0

-8.794383254195742e6 2.962364293876098e6 0.0
2.962364293876098e6 3.649936068882196e7 0.0
0.0 0.0 0.0

2.926496616848141e6 3.6701489121403196e6 0.0
3.6701489121403196e6 -3.38744288060303e7 0.0
0.0 0.0 0.0

2.62586744027023e6 6.704498323591798e6 0.0
6.704498323591798e6 -2.4763070446830407e7 0.0
0.0 0.0 0.0

2.829456525769016e6 5.349836943699553e6 0.0
5.349836943699553e6 -3.2914727696369015e7 0.0
0.0 0.0 0.0

-5.863828638125129e6 2.0776601668467652e7 0.0
2.0776601668467652e7 -2.5738813090554334e7 0.0
0.0 0.0 0.0

6.803033636154139e6 3.263917990271796e7 0.0
3.263917990271796e7 -6.175239562839467e6 0.0
0.0 0.0 0.0

-4.754210737851065e6 1.9117503888889465e7 0.0
1.9117503888889465e7 3.398404077268094e7 0.0
0.0 0.0 0.0

-2.930758393520073e6 2.2277608009869713e7 0.0
2.2277608009869713e7 8.062931928020785e6 0.0
0.0 0.0 0.0

2.077268645204885e6 5.973697850786835e6 0.0
5.973697850786835e6 -3.394128262032604e7 0.0
0.0 0.0 0.0

-1.1388192653899565e7 6.014030597688878e6 0.0
6.014030597688878e6 2.1854882539260603e7 0.0
0.0 0.0 0.0

-5.363449336393898e6 2.044597514168836e7 0.0
2.044597514168836e7 2.8686281768099595e7 0.0
0.0 0.0 0.0

1.1711889737762287e6 2.2542402165177908e7 0.0
2.2542402165177908e7 -1.723713376016815e7 0.0
0.0 0.0 0.0

1.664662800390035e6 2.3807855441247072e7 0.0
2.3807855441247072e7 -5.978822469503902e6 0.0
0.0 0.0 0.0

-3.9938165684269895e6 3.2191619025701348e7 0.0
3.2191619025701348e7 6.14560994868496e6 0.0
0.0 0.0 0.0

1.0389826590218917e6 1.738059908116675e7 0.0
1.738059908116675e7 -2.627429177420447e7 0.0
0.0 0.0 0.0

2.567995355718706e6 6.876355493674238e6 0.0
6.876355493674238e6 -3.46319036858168e7 0.0
0.0 0.0 0.0

1.9658761461584829e6 6.69477713092031e6 0.0
6.69477713092031e6 -3.470096599112787e7 0.0
0.0 0.0 0.0

1.3802163061728952e6 9.22912082099479e6 0.0
9.22912082099479e6 -1.7209213154029362e7 0.0
0.0 0.0 0.0

1.793278925404122e6 7.409086707055552e6 0.0
7.409086707055552e6 -3.549032130098764e7 0.0
0.0 0.0 0.0

3.001220349593021e6 5.900919389145933e6 0.0
5.900919389145933e6 -2.8711153807233077e7 0.0
0.0 0.0 0.0

-9.497613995293465e6 3.883263263604411e7 0.0
3.883263263604411e7 5.616098961077754e6 0.0
0.0 0.0 0.0

1.0372438313294474e7 3.4868394688724406e7 0.0
3.4868394688724406e7 -5.683648453313659e6 0.0
0.0 0.0 0.0

-5.494196675375822e6 2.6882200252151106e7 0.0
2.6882200252151106e7 9.19278073691242e6 0.0
0.0 0.0 0.0

2.10996588997942e6 6.566391143563035e6 0.0
6.566391143563035e6 -2.9783711280074436e7 0.0
0.0 0.0 0.0

-1.5206728003537755e6 2.257504542979091e7 0.0
2.257504542979091e7 -7.771033701804774e6 0.0
0.0 0.0 0.0

-1.506110459791918e6 1.9797340980377857e7 0.0
1.9797340980377857e7 -320667.65859166457 0.0
0.0 0.0 0.0

-2.357189656927087e7 2.338332117653069e7 0.0
2.338332117653069e7 -7.857300502851343e7 0.0
0.0 0.0 0.0

2.251651692546583e7 2.501174188534909e7 0.0
2.501174188534909e7 7.50550750946826e7 0.0
0.0 0.0 0.0

1.566959053313725e7 2.47486162513735e7 0.0
2.47486162513735e7 1.8583109566763425e6 0.0
0.0 0.0 0.0

2.3491982318147007e7 2.689858022669064e7 0.0
2.689858022669064e7 2.108186932536931e6 0.0
0.0 0.0 0.0

-450915.05269156024 7.364849891491323e6 0.0
7.364849891491323e6 -6.751249307159887e7 0.0
0.0 0.0 0.0

1.100658391090732e6 2.057716683718875e7 0.0
2.057716683718875e7 -1.984948068824364e7 0.0
0.0 0.0 0.0

375951.0097572822 2.2845355424768113e7 0.0
2.2845355424768113e7 1.6339034095083376e7 0.0
0.0 0.0 0.0

-9.053729265570361e6 8.174635993003136e6 0.0
8.174635993003136e6 4.111319293961448e7 0.0
0.0 0.0 0.0

-3.7132305741606336e6 1.7939288456068527e7 0.0
1.7939288456068527e7 4.1465980650049895e7 0.0
0.0 0.0 0.0

-3.2217339655666417e6 2.4784554527727738e7 0.0
2.4784554527727738e7 9.194586907164417e6 0.0
0.0 0.0 0.0

-994203.9783084278 1.7614637297838897e7 0.0
1.7614637297838897e7 -5.894655086105919e6 0.0
0.0 0.0 0.0

-1.6738525984098386e7 2.960963936381473e7 0.0
2.960963936381473e7 -1.4381823900037874e7 0.0
0.0 0.0 0.0

-3.074558515461961e6 2.490545965514035e7 0.0
2.490545965514035e7 1.608846404133694e7 0.0
0.0 0.0 0.0

-6.875386164234599e6 1.6038480960363686e7 0.0
1.6038480960363686e7 1.6235365011753552e7 0.0
0.0 0.0 0.0

-2.308187775585156e6 2.583278931325752e7 0.0
2.583278931325752e7 6.181802098352883e6 0.0
0.0 0.0 0.0

1.7455431746429503e6 7.379383525926428e6 0.0
7.379383525926428e6 -4.761264546506589e7 0.0
0.0 0.0 0.0

2.80207352682574e6 7.941638401471468e6 0.0
7.941638401471468e6 -2.330964732691648e7 0.0
0.0 0.0 0.0

722194.7117760926 2.3065982624216232e7 0.0
2.3065982624216232e7 -1.520131268142877e7 0.0
0.0 0.0 0.0

1.057387714531375e6 1.3758824192127073e7 0.0
1.3758824192127073e7 -2.8740550554202512e7 0.0
0.0 0.0 0.0

-6.611609622095183e6 1.0364685313995875e7 0.0
1.0364685313995875e7 4.996502597177041e7 0.0
0.0 0.0 0.0

-9.385993892764768e6 2.919852043065241e6 0.0
2.919852043065241e6 1.2344825263689827e7 0.0
0.0 0.0 0.0

-4.425388359169573e6 9.191624252107544e6 0.0
9.191624252107544e6 6.340818074864091e7 0.0
0.0 0.0 0.0

81167.71867600456 2.201540830120514e7 0.0
2.201540830120514e7 -1.4707979032923846e7 0.0
0.0 0.0 0.0

-4.906866196897909e6 2.726044495605341e7 0.0
2.726044495605341e7 1.0565412302802388e7 0.0
0.0 0.0 0.0

-7.6911503739614645e6 1.485486863821642e7 0.0
1.485486863821642e7 2.0863812420274112e7 0.0
0.0 0.0 0.0

4.968539726969908e6 2.9766787461214602e7 0.0
2.9766787461214602e7 -7.762422669748327e6 0.0
0.0 0.0 0.0

-1.06320547906338e7 1.0828734791835804e7 0.0
1.0828734791835804e7 1.8336399223400578e7 0.0
0.0 0.0 0.0

-3.7224585322955744e6 2.408800215119225e7 0.0
2.408800215119225e7 1.7808051623464685e7 0.0
0.0 0.0 0.0

3.1996000390318044e7 3.301343996889045e7 0.0
3.301343996889045e7 -4.858036203684833e6 0.0
0.0 0.0 0.0

-5.434254475210801e6 2.1202324896992136e7 0.0
2.1202324896992136e7 2.479646923043824e7 0.0
0.0 0.0 0.0

-6.539028709302528e6 4.1119348970676325e6 0.0
4.1119348970676325e6 1.229223669075077e7 0.0
0.0 0.0 0.0

-3.3427426234945945e7 3.404826558014995e6 0.0
3.404826558014995e6 6.937176746616263e6 0.0
0.0 0.0 0.0

2.2153953334767576e6 4.354030971425094e6 0.0
4.354030971425094e6 -3.7001628693556726e7 0.0
0.0 0.0 0.0

-9.440522573777147e6 3.40141095625777e7 0.0
3.40141095625777e7 6.617282891284749e6 0.0
0.0 0.0 0.0

-1.120285130315567e7 3.2911395166221643e6 0.0
3.2911395166221643e6 1.927861036914108e7 0.0
0.0 0.0 0.0

-3.4132944902361655e6 1.5272578657572381e7 0.0
1.5272578657572381e7 721384.555200757 0.0
0.0 0.0 0.0

-9.817555516695023e6 4.3318865972792795e6 0.0
4.3318865972792795e6 3.378011789809678e7 0.0
0.0 0.0 0.0

590932.4385939203 2.2523980245755013e7 0.0
2.2523980245755013e7 -1.7324238744022816e7 0.0
0.0 0.0 0.0

-9.370834553670501e6 2.7933206859657625e6 0.0
2.7933206859657625e6 3.575136423103121e7 0.0
0.0 0.0 0.0

414876.72147723567 1.8248179195355557e7 0.0
1.8248179195355557e7 -1.936543353908956e7 0.0
0.0 0.0 0.0

-4.576459375689378e6 1.984770467823836e7 0.0
1.984770467823836e7 3.2118718791482583e7 0.0
0.0 0.0 0.0

-9.586164752291553e6 1.4090847544826977e7 0.0
1.4090847544826977e7 1.968359013374838e7 0.0
0.0 0.0 0.0

-2.0810755563685056e6 1.855190719078663e7 0.0
1.855190719078663e7 4.300183696713733e7 0.0
0.0 0.0 0.0

-7.598297712760389e6 1.79422274093253e7 0.0
1.79422274093253e7 2.3347185851202227e7 0.0
0.0 0.0 0.0

-2.203953764520273e6 2.7395292691130448e7 0.0
2.7395292691130448e7 1.0551148430447835e6 0.0
0.0 0.0 0.0

1.6474945550171565e6 8.269614881253136e6 0.0
8.269614881253136e6 -4.5327265294445746e7 0.0
0.0 0.0 0.0

-2.77706475466593e6 1.9779047907848045e7 0.0
1.9779047907848045e7 3.591736465745549e7 0.0
0.0 0.0 0.0

1.6699726693529077e7 2.4678042906439435e7 0.0
2.4678042906439435e7 1.019606538298735e7 0.0
0.0 0.0 0.0

-2.1880545484483276e7 1.4371902875797564e7 0.0
1.4371902875797564e7 7.831263534384142e6 0.0
0.0 0.0 0.0

725974.1583216581 1.2876395718774127e7 0.0
1.2876395718774127e7 -3.959124690529309e7 0.0
0.0 0.0 0.0

-6.037266072731988e6 1.5586426771918144e7 0.0
1.5586426771918144e7 1.90441250669907e7 0.0
0.0 0.0 0.0

2.201129476305727e6 1.0560811387629496e7 0.0
1.0560811387629496e7 -1.9194559668526728e7 0.0
0.0 0.0 0.0

-9.657446422100093e6 1.918302396640639e6 0.0
1.918302396640639e6 2.178289808772586e7 0.0
0.0 0.0 0.0

-9.80897235274127e6 1.3847950398353557e6 0.0
1.3847950398353557e6 2.862203478713793e7 0.0
0.0 0.0 0.0

785169.4239803879 1.5966067579751961e7 0.0
1.5966067579751961e7 -2.3874328322707225e7 0.0
0.0 0.0 0.0

-1.047431172225391e7 8.982393226165898e6 0.0
8.982393226165898e6 2.5290508168179248e7 0.0
0.0 0.0 0.0

-5.949121997075659e6 2.7960285120465647e7 0.0
2.7960285120465647e7 9.112007704461386e6 0.0
0.0 0.0 0.0

8.46833625627535e6 1.8338294679240532e7 0.0
1.8338294679240532e7 8.001932465490043e6 0.0
0.0 0.0 0.0

-865335.8342486647 8.815041102604918e6 0.0
8.815041102604918e6 -299610.2107251873 0.0
0.0 0.0 0.0

855503.8556250706 2.2780504735540643e7 0.0
2.2780504735540643e7 -1.349924636525867e7 0.0
0.0 0.0 0.0

1.944960880699139e6 8.23563532711597e6 0.0
8.23563532711597e6 -2.6802325034102283e7 0.0
0.0 0.0 0.0

2.2308824532859297e6 3.2189219446825337e7 0.0
3.2189219446825337e7 -5.408166951069933e6 0.0
0.0 0.0 0.0

-7.552539194026753e6 1.7172628222698916e7 0.0
1.7172628222698916e7 -7.745252156847614e7 0.0
0.0 0.0 0.0

2.2737917857065964e6 5.838685735418899e6 0.0
5.838685735418899e6 -2.0183035643926654e7 0.0
0.0 0.0 0.0

2.288709030161828e6 5.761623827558214e6 0.0
5.761623827558214e6 -2.906729776742525e7 0.0
0.0 0.0 0.0

-4.966550074912947e6 2.0945110189336266e7 0.0
2.0945110189336266e7 -2.320562601154503e7 0.0
0.0 0.0 0.0

-1.7098967573944156e6 9.655181455838041e6 0.0
9.655181455838041e6 1.8234147018520741e6 0.0
0.0 0.0 0.0

-1.8607868057555497e7 1.9701603040925007e7 0.0
1.9701603040925007e7 -7.230957775373836e7 0.0
0.0 0.0 0.0

1.8048651288518705e6 8.870173916713327e6 0.0
8.870173916713327e6 -1.1228678598935919e7 0.0
0.0 0.0 0.0

2.5100231558390846e6 9.078936545679787e6 0.0
9.078936545679787e6 -1.9545998998843517e7 0.0
0.0 0.0 0.0

-852708.2045270414 2.22932883251525e7 0.0
2.22932883251525e7 -3.136787574591764e6 0.0
0.0 0.0 0.0

-5.999679456308456e6 1.5115349210408026e7 0.0
1.5115349210408026e7 4.378254361604215e7 0.0
0.0 0.0 0.0

-2.827225991906711e6 3.40004170861299e7 0.0
3.40004170861299e7 1.8715952607544798e6 0.0
0.0 0.0 0.0

-1.1468606438258927e7 1.13930413398753e7 0.0
1.13930413398753e7 7.497948642531683e6 0.0
0.0 0.0 0.0

1.0273328973160926e6 1.4436899978424732e7 0.0
1.4436899978424732e7 -2.7042465596519418e7 0.0
0.0 0.0 0.0

2.6384812274099505e6 2.2120892088592038e7 0.0
2.2120892088592038e7 2.2782765104696162e7 0.0
0.0 0.0 0.0

2.3604736708301813e6 3.1259211065647826e7 0.0
3.1259211065647826e7 -6.359499096777619e6 0.0
0.0 0.0 0.0

-878252.7521273503 1.5784141066865176e7 0.0
1.5784141066865176e7 -1.1577953272535356e7 0.0
0.0 0.0 0.0

4.149210924446033e6 3.0452986489210285e7 0.0
3.0452986489210285e7 -7.454478528977678e6 0.0
0.0 0.0 0.0

496827.6442795126 1.632379944626344e7 0.0
1.632379944626344e7 -1.2960188128698869e7 0.0
0.0 0.0 0.0

-9.737239707463441e6 -68390.34370791406 0.0
-68390.34370791406 2.2483453507448584e7 0.0
0.0 0.0 0.0

280269.55733361933 2.2285198803132433e7 0.0
2.2285198803132433e7 -1.5296614695868077e7 0.0
0.0 0.0 0.0

1.888501103482337e7 5.21073303814718e7 0.0
5.21073303814718e7 -7.595681570672102e6 0.0
0.0 0.0 0.0

8.47753192648632e6 2.65598969228384e7 0.0
2.65598969228384e7 -4.275489063643541e6 0.0
0.0 0.0 0.0

1.0919160178002333e6 2.160227508789541e7 0.0
2.160227508789541e7 -1.857893705664463e7 0.0
0.0 0.0 0.0

-2.9142011677034697e6 1.7210490966057215e7 0.0
1.7210490966057215e7 9.0025712665336e6 0.0
0.0 0.0 0.0

-2.675976434295763e6 2.1126160117302544e7 0.0
2.1126160117302544e7 -426333.6914517309 0.0
0.0 0.0 0.0

2.757837309188608e6 3.1639377904560715e6 0.0
3.1639377904560715e6 -3.581063109035595e7 0.0
0.0 0.0 0.0

2.8961942275932003e6 4.22936790542123e6 0.0
4.22936790542123e6 -1.3983208200220723e7 0.0
0.0 0.0 0.0

-4.278016119906899e6 1.1354648264153372e7 0.0
1.1354648264153372e7 2.534869004396418e6 0.0
0.0 0.0 0.0

-1.1424369780045807e7 2.5399614467226233e7 0.0
2.5399614467226233e7 -2.5768222974085035e6 0.0
0.0 0.0 0.0

2.2502420906612976e6 6.3434604923100155e6 0.0
6.3434604923100155e6 -2.3948346792507008e7 0.0
0.0 0.0 0.0

56416.22255170718 1.8617142392746583e7 0.0
1.8617142392746583e7 -1.705591202777887e7 0.0
0.0 0.0 0.0

-49130.433161102235 2.306524769432205e7 0.0
2.306524769432205e7 1.3255176746217167e7 0.0
0.0 0.0 0.0

1.7989019888585266e6 1.3316953834060475e7 0.0
1.3316953834060475e7 -2.8030850288388893e7 0.0
0.0 0.0 0.0

-1.0464757757255694e7 7.719201812420722e6 0.0
7.719201812420722e6 2.4309450528189525e7 0.0
0.0 0.0 0.0

-3.0741584456914365e7 3.458942456166968e7 0.0
3.458942456166968e7 3.420540017256636e6 0.0
0.0 0.0 0.0

1.7276918479054123e6 1.2529507809762094e7 0.0
1.2529507809762094e7 -3.2027496567843866e7 0.0
0.0 0.0 0.0

-6.228458269799097e7 5.977462910989147e6 0.0
5.977462910989147e6 4.012971824440632e6 0.0
0.0 0.0 0.0

1.9590619734280873e6 7.945689305808466e6 0.0
7.945689305808466e6 -2.3405275265570335e7 0.0
0.0 0.0 0.0

-2.433014907346867e6 2.220642015753207e7 0.0
2.220642015753207e7 2.4332014797534205e7 0.0
0.0 0.0 0.0

-1.5006392402292136e6 1.6134870660162069e7 0.0
1.6134870660162069e7 -4.023982980274581e7 0.0
0.0 0.0 0.0

107749.97665701993 1.74564317548714e7 0.0
1.74564317548714e7 -3.0239311252984907e7 0.0
0.0 0.0 0.0

-9.254725237311784e6 3.9812081538238944e6 0.0
3.9812081538238944e6 1.7780194066291444e7 0.0
0.0 0.0 0.0

-1.0374959011895461e7 1.1476880029672911e7 0.0
1.1476880029672911e7 3.0803650844714087e7 0.0
0.0 0.0 0.0

-2.7823291389002716e6 1.7865720937978573e7 0.0
1.7865720937978573e7 -2.375741208825784e6 0.0
0.0 0.0 0.0

-3.4369584751743963e6 1.6351076849762583e7 0.0
1.6351076849762583e7 1.1052528595980123e7 0.0
0.0 0.0 0.0

-9.743877178244593e6 1.0240878060070068e7 0.0
1.0240878060070068e7 3.579645285917007e7 0.0
0.0 0.0 0.0

-1.7489359565327829e6 1.7310130723390527e7 0.0
1.7310130723390527e7 -1.455930250502215e6 0.0
0.0 0.0 0.0

200655.7323014997 2.124223073584567e7 0.0
2.124223073584567e7 -1.6126656791572409e7 0.0
0.0 0.0 0.0

682226.659783978 2.2499779363535855e7 0.0
2.2499779363535855e7 -1.283548353936567e7 0.0
0.0 0.0 0.0

504466.9376572389 2.324260634630257e7 0.0
2.324260634630257e7 -1.4484307064928276e7 0.0
0.0 0.0 0.0

576739.861743629 1.745434743043403e7 0.0
1.745434743043403e7 -2.0805078823023792e7 0.0
0.0 0.0 0.0

1.3070637627019212e6 9.917050444450345e6 0.0
9.917050444450345e6 -1.8198732972186405e7 0.0
0.0 0.0 0.0

-1.0788052018996803e6 2.253495337530949e7 0.0
2.253495337530949e7 -6.477553093717344e6 0.0
0.0 0.0 0.0

-172956.92398486473 2.170428742993435e7 0.0
2.170428742993435e7 -1.4124023941656154e7 0.0
0.0 0.0 0.0

5306.4987725843675 1.6583067346910402e7 0.0
1.6583067346910402e7 -1.036141020831344e7 0.0
0.0 0.0 0.0

-1.0230220478466662e7 6.459541043069379e6 0.0
6.459541043069379e6 2.3292469628809325e7 0.0
0.0 0.0 0.0

663217.1641652575 1.6734651045006253e7 0.0
1.6734651045006253e7 -2.2346541427678518e7 0.0
0.0 0.0 0.0

-2.0458920260061223e7 2.1918007824101243e7 0.0
2.1918007824101243e7 -6.819640090390284e7 0.0
0.0 0.0 0.0

-8.76918642622291e6 5.936487281463766e6 0.0
5.936487281463766e6 1.6620692825563714e7 0.0
0.0 0.0 0.0

1.698263962457234e6 9.461372328185448e6 0.0
9.461372328185448e6 -2.2908642196480382e7 0.0
0.0 0.0 0.0

-849542.5140335406 8.103281363701258e6 0.0
8.103281363701258e6 -5.301672924592103e6 0.0
0.0 0.0 0.0

-6.022161248634631e6 1.6180264536664728e7 0.0
1.6180264536664728e7 -7.005583623461416e7 0.0
0.0 0.0 0.0

-3.7858997183363745e6 1.7283894605377905e7 0.0
1.7283894605377905e7 1.4502468085850291e7 0.0
0.0 0.0 0.0

2.859630586636453e6 7.302497779349687e6 0.0
7.302497779349687e6 -2.2375462552766576e7 0.0
0.0 0.0 0.0

-1.0873622209024332e7 1.1197957803418359e7 0.0
1.1197957803418359e7 2.737708567750313e7 0.0
0.0 0.0 0.0

-6.763308542142168e6 3.3972866682004645e6 0.0
3.3972866682004645e6 5.2700450849704534e7 0.0
0.0 0.0 0.0

438639.641953508 2.138999567205982e7 0.0
2.138999567205982e7 -2.2832484955919376e6 0.0
0.0 0.0 0.0

2.3978686047953335e6 1.9203419922678716e7 0.0
1.9203419922678716e7 6.328157618652268e6 0.0
0.0 0.0 0.0

-7.995089689014489e6 2.829389048658654e7 0.0
2.829389048658654e7 8.475191146223325e6 0.0
0.0 0.0 0.0

-2.673687934790535e6 2.3662830764882516e7 0.0
2.3662830764882516e7 4.925363547935953e6 0.0
0.0 0.0 0.0

2.4595622238341626e6 5.0325553775153775e6 0.0
5.0325553775153775e6 -4.0812750502348244e7 0.0
0.0 0.0 0.0

2.5059589947189465e6 5.815320007344969e6 0.0
5.815320007344969e6 -4.137124590792311e7 0.0
0.0 0.0 0.0

-7.918063994823258e6 1.6538014262611626e7 0.0
1.6538014262611626e7 3.1152930791979708e7 0.0
0.0 0.0 0.0

204567.04395394027 2.017096782173262e7 0.0
2.017096782173262e7 -1.7000142709459785e7 0.0
0.0 0.0 0.0

1.1069521478187507e7 2.51648752570196e7 0.0
2.51648752570196e7 2.445557332837945e6 0.0
0.0 0.0 0.0

-6.61909825496354e6 5.631824857715183e6 0.0
5.631824857715183e6 6.018351712321902e7 0.0
0.0 0.0 0.0

-2.365095339885811e6 2.0795833739664916e7 0.0
2.0795833739664916e7 1.1072786320373705e7 0.0
0.0 0.0 0.0

-1.0550175922983503e6 1.9882132922791075e7 0.0
1.9882132922791075e7 -1.1140607246990034e7 0.0
0.0 0.0 0.0

1.2799071159929708e6 1.7749113190302614e7 0.0
1.7749113190302614e7 6.259755869680983e7 0.0
0.0 0.0 0.0

-666987.9555511922 5.570860052250318e6 0.0
5.570860052250318e6 1.3177909865456764e6 0.0
0.0 0.0 0.0

86971.78261965979 2.6659722229204115e7 0.0
2.6659722229204115e7 -8.499395658042569e6 0.0
0.0 0.0 0.0

6.494022437583167e6 2.307119052907122e7 0.0
2.307119052907122e7 1.898146020492985e7 0.0
0.0 0.0 0.0

2.574238990790317e6 8.852979410742177e6 0.0
8.852979410742177e6 -2.193286590994909e7 0.0
0.0 0.0 0.0

-3.097308623212317e6 1.5904793876880445e7 0.0
1.5904793876880445e7 -1.0313888228624944e6 0.0
0.0 0.0 0.0

-3.20118280825861e6 1.687861799791575e7 0.0
1.687861799791575e7 4.762874464950132e7 0.0
0.0 0.0 0.0

1.5298892279842123e6 1.0101457150484808e7 0.0
1.0101457150484808e7 -4.096949487939144e7 0.0
0.0 0.0 0.0

987374.6961698784 2.095344398325638e7 0.0
2.095344398325638e7 -2.0103485858569164e7 0.0
0.0 0.0 0.0

-8.05973420373204e6 2.0816417887807046e6 0.0
2.0816417887807046e6 4.272986996629981e7 0.0
0.0 0.0 0.0

1.2080113617219646e6 1.1836678737793777e7 0.0
1.1836678737793777e7 -3.910783124779962e7 0.0
0.0 0.0 0.0

-5145.252067812718 1.141286481964716e7 0.0
1.141286481964716e7 -6.782804741458406e6 0.0
0.0 0.0 0.0

2.2447368790474217e6 9.350981549050355e6 0.0
9.350981549050355e6 -3.430490637048975e7 0.0
0.0 0.0 0.0

-40750.43653542921 1.655129081080192e7 0.0
1.655129081080192e7 -1.6059504933470635e7 0.0
0.0 0.0 0.0

225954.24895105138 1.903428712894686e7 0.0
1.903428712894686e7 -1.7818602794196516e7 0.0
0.0 0.0 0.0

-9.983477434612755e6 8.985192873524325e6 0.0
8.985192873524325e6 3.4945620159578435e7 0.0
0.0 0.0 0.0

4.811590804979595e6 2.350861145704226e7 0.0
2.350861145704226e7 5.776481916049603e6 0.0
0.0 0.0 0.0

-1.0503038096661396e7 5.175376758669025e6 0.0
5.175376758669025e6 2.218961193370311e7 0.0
0.0 0.0 0.0

1.1190159595300993e6 1.8060797001357168e7 0.0
1.8060797001357168e7 -2.476123146355345e7 0.0
0.0 0.0 0.0

-5.414826181189113e6 6.047717897067857e6 0.0
6.047717897067857e6 1.0624251186025564e7 0.0
0.0 0.0 0.0

410832.0013003731 5.8449613169039255e6 0.0
5.8449613169039255e6 -6.742665724500767e6 0.0
0.0 0.0 0.0

-75333.0848863395 1.820502372754247e7 0.0
1.820502372754247e7 -1.6319710862192301e7 0.0
0.0 0.0 0.0

3.0957134250567686e6 5.5391242198883e6 0.0
5.5391242198883e6 -2.2746270160113413e7 0.0
0.0 0.0 0.0

-1.037624516630535e7 4.8855740501934765e6 0.0
4.8855740501934765e6 3.0914239581311084e7 0.0
0.0 0.0 0.0

1.06151984996913e6 3.45424680078009e6 0.0
3.45424680078009e6 -6.085506837770702e7 0.0
0.0 0.0 0.0

-1.510735500053105e6 2.034289137296874e7 0.0
2.034289137296874e7 -5.035784460356513e6 0.0
0.0 0.0 0.0

-1.0594661256023277e7 1.3261432494975785e7 0.0
1.3261432494975785e7 2.4186147587630257e7 0.0
0.0 0.0 0.0

-9.181336097344117e6 2.719251364369662e7 0.0
2.719251364369662e7 5.9073352135677235e6 0.0
0.0 0.0 0.0

4.451928207642276e6 2.4255782324146092e7 0.0
2.4255782324146092e7 1.0394784058067966e7 0.0
0.0 0.0 0.0

-4.489073129660472e6 2.0439635989594888e7 0.0
2.0439635989594888e7 3.0370674582570065e7 0.0
0.0 0.0 0.0

-3.9451058505036384e6 2.185106935553235e7 0.0
2.185106935553235e7 2.3138736643562425e7 0.0
0.0 0.0 0.0

-7.916247433002919e6 -111128.92537760668 0.0
-111128.92537760668 4.271549456542839e7 0.0
0.0 0.0 0.0

-2.7057681449726485e6 1.603190183829283e7 0.0
1.603190183829283e7 5.548375024008436e6 0.0
0.0 0.0 0.0

6.144351698520472e6 2.320877807526568e7 0.0
2.320877807526568e7 1.86186051088995e7 0.0
0.0 0.0 0.0

-3.9637877340418315e6 2.5510099527851593e7 0.0
2.5510099527851593e7 1.3152493039908528e7 0.0
0.0 0.0 0.0

-1.0658441480157876e7 1.053235143703792e7 0.0
1.053235143703792e7 2.9804145730806798e7 0.0
0.0 0.0 0.0

549474.9095428195 1.6266733503313767e7 0.0
1.6266733503313767e7 -2.812678723463896e7 0.0
0.0 0.0 0.0

1.994697258990217e6 7.547073900107697e6 0.0
7.547073900107697e6 -1.9893913478034664e7 0.0
0.0 0.0 0.0

947025.6138606854 1.9856656311014604e7 0.0
1.9856656311014604e7 -1.6501703239353446e7 0.0
0.0 0.0 0.0

-2.9123213729147194e6 1.45812711757332e7 0.0
1.45812711757332e7 5.723547993738893e6 0.0
0.0 0.0 0.0

3.009531543690242e6 5.570405739680249e6 0.0
5.570405739680249e6 -1.4174116225697309e7 0.0
0.0 0.0 0.0

-24217.433253413998 2.734528087905419e7 0.0
2.734528087905419e7 -7.25715022642122e6 0.0
0.0 0.0 0.0

-7.095226286605131e6 4.921284418348527e6 0.0
4.921284418348527e6 5.032185766623786e7 0.0
0.0 0.0 0.0

-8.053961051907284e6 3.1285145207008296e6 0.0
3.1285145207008296e6 4.411731100229923e7 0.0
0.0 0.0 0.0

-7.247673526310613e6 1.3302657868714923e7 0.0
1.3302657868714923e7 4.366640923256706e7 0.0
0.0 0.0 0.0

333328.33473505126 2.488064109895887e7 0.0
2.488064109895887e7 -1.1807405903053233e7 0.0
0.0 0.0 0.0

-2.750810112222311e6 9.663282949758474e6 0.0
9.663282949758474e6 -1.6502897560556298e6 0.0
0.0 0.0 0.0

2.0781488245404504e7 2.663889630493085e7 0.0
2.663889630493085e7 1.6524115681953615e7 0.0
0.0 0.0 0.0

1.5244254037072912e7 2.3332892797325756e7 0.0
2.3332892797325756e7 6.121919215374469e7 0.0
0.0 0.0 0.0

2.943085831122987e6 6.788745459022328e6 0.0
6.788745459022328e6 -1.8680201539970543e7 0.0
0.0 0.0 0.0

-1.0387766993738249e7 7.170057965776662e6 0.0
7.170057965776662e6 2.6581093278571144e7 0.0
0.0 0.0 0.0

-2.509547282821753e6 1.740255010493619e7 0.0
1.740255010493619e7 5.368310007198889e6 0.0
0.0 0.0 0.0

-3.752129471090641e6 2.382655157706023e7 0.0
2.382655157706023e7 1.7604533722312707e7 0.0
0.0 0.0 0.0

2.126931501244735e6 6.35504589842444e6 0.0
6.35504589842444e6 -4.442744138321312e7 0.0
0.0 0.0 0.0

2.2870605538500417e6 7.536831894038859e6 0.0
7.536831894038859e6 -3.7945582329208e7 0.0
0.0 0.0 0.0

-7.844793462109624e6 7.182814804142368e6 0.0
7.182814804142368e6 8.774997735101923e6 0.0
0.0 0.0 0.0

-2.2087232139032222e6 2.200841748545984e7 0.0
2.200841748545984e7 1.0577254934805444e7 0.0
0.0 0.0 0.0

1.022991297872413e6 1.811486532258832e7 0.0
1.811486532258832e7 5.818410924472941e7 0.0
0.0 0.0 0.0

933776.380162634 2.0976874336159036e7 0.0
2.0976874336159036e7 -1.5711423221242512e7 0.0
0.0 0.0 0.0

-5.218090276429532e6 8.545658293238057e6 0.0
8.545658293238057e6 1.0855721056590328e7 0.0
0.0 0.0 0.0

2.3223103564285636e6 6.628167689661811e6 0.0
6.628167689661811e6 -3.972887483057741e7 0.0
0.0 0.0 0.0

-3.0610624584230124e6 2.457189086941477e7 0.0
2.457189086941477e7 1.1188903922143836e7 0.0
0.0 0.0 0.0

1.7705671148583293e6 9.159151688890852e6 0.0
9.159151688890852e6 -2.5426056449219212e7 0.0
0.0 0.0 0.0

-8.87743923856347e6 9.916694891640712e6 0.0
9.916694891640712e6 217842.1137150894 0.0
0.0 0.0 0.0

161359.55010868516 1.7436897677787554e7 0.0
1.7436897677787554e7 -1.7776751565160275e7 0.0
0.0 0.0 0.0

-6.533211109800616e6 3.404896574522944e6 0.0
3.404896574522944e6 5.819694586108343e6 0.0
0.0 0.0 0.0

-3.1073666772368406e6 1.3027347397877416e7 0.0
1.3027347397877416e7 5.899396847529913e6 0.0
0.0 0.0 0.0

-3.2175810141072413e6 1.128561130851159e7 0.0
1.128561130851159e7 6.078080285759899e6 0.0
0.0 0.0 0.0

-205394.14803056046 1.7718963361294016e7 0.0
1.7718963361294016e7 -1.5529834463121628e7 0.0
0.0 0.0 0.0

-3.0211061122364127e6 1.7299349757912535e7 0.0
1.7299349757912535e7 -868993.8786136282 0.0
0.0 0.0 0.0

-1.0111140431128003e7 1.078616401160105e7 0.0
1.078616401160105e7 3.3285535902170762e7 0.0
0.0 0.0 0.0

-2.3464366758841723e6 1.5813811222641617e7 0.0
1.5813811222641617e7 5.495904438063812e7 0.0
0.0 0.0 0.0

-5.656268139181223e6 1.3215794303239016e7 0.0
1.3215794303239016e7 4.997074395364745e7 0.0
0.0 0.0 0.0

-2.8382447835187726e6 1.6372139705752917e7 0.0
1.6372139705752917e7 5.111837565037643e7 0.0
0.0 0.0 0.0

-4.215183734352615e6 8.591257343752712e6 0.0
8.591257343752712e6 7.421471955155292e7 0.0
0.0 0.0 0.0

-584838.0522365775 2.325380408857676e7 0.0
2.325380408857676e7 1.0224155279016342e7 0.0
0.0 0.0 0.0

-6.850665841364197e6 6.922972230330982e6 0.0
6.922972230330982e6 5.696877605417955e7 0.0
0.0 0.0 0.0

-1.3546118089674506e6 2.5512027266233176e7 0.0
2.5512027266233176e7 -5.63947291015997e6 0.0
0.0 0.0 0.0

-2.0847332531093322e6 2.2324838015955187e7 0.0
2.2324838015955187e7 -1.310990342827837e7 0.0
0.0 0.0 0.0

-6.464297370418078e7 4.039598609235276e7 0.0
4.039598609235276e7 -1.3177348932812078e7 0.0
0.0 0.0 0.0

2.608598492047171e6 8.432188256211892e6 0.0
8.432188256211892e6 -1.849327416117495e7 0.0
0.0 0.0 0.0

1.7744719301891085e6 1.415791836728855e7 0.0
1.415791836728855e7 -2.661555126734019e7 0.0
0.0 0.0 0.0

388854.5020727278 2.758127391855058e7 0.0
2.758127391855058e7 -6.143054680109996e6 0.0
0.0 0.0 0.0

-1.7436116110015817e6 2.5957953791345112e7 0.0
2.5957953791345112e7 4.292628357405204e6 0.0
0.0 0.0 0.0

2.405471424902566e6 8.525370150325866e6 0.0
8.525370150325866e6 -3.368411646951228e7 0.0
0.0 0.0 0.0

2.1640772986176424e7 2.9066241199374977e7 0.0
2.9066241199374977e7 -2.5123799550551306e6 0.0
0.0 0.0 0.0

-4.3990453037229385e6 1.3822745150364827e7 0.0
1.3822745150364827e7 4.562442285225617e6 0.0
0.0 0.0 0.0

12849.412059541792 6.662560521519984e6 0.0
6.662560521519984e6 -6.221442590262821e7 0.0
0.0 0.0 0.0

-4.796824233810002e6 1.2176142307836281e7 0.0
1.2176142307836281e7 4.589593950454041e6 0.0
0.0 0.0 0.0

1.626805739753128e6 9.085498073085334e6 0.0
9.085498073085334e6 -1.9555875528120782e7 0.0
0.0 0.0 0.0

-4.39139785050733e6 2.089289940436047e7 0.0
2.089289940436047e7 2.8635985432762872e7 0.0
0.0 0.0 0.0

-4.247738923934601e7 3.438039917951475e7 0.0
3.438039917951475e7 -694395.4128042106 0.0
0.0 0.0 0.0

-9.215437833651235e6 1.8420557075910803e6 0.0
1.8420557075910803e6 3.518092019039984e7 0.0
0.0 0.0 0.0

958524.2246138453 2.202383793117492e7 0.0
2.202383793117492e7 -1.4885084865338767e7 0.0
0.0 0.0 0.0

-1.9290786335149553e7 2.8934636463094875e7 0.0
2.8934636463094875e7 -9.518066836286025e6 0.0
0.0 0.0 0.0

3.0085060700753164e6 6.083786080472159e6 0.0
6.083786080472159e6 -1.789709551567093e7 0.0
0.0 0.0 0.0

-1.0076980869753879e7 1.1717928180480689e7 0.0
1.1717928180480689e7 2.8418378555578474e7 0.0
0.0 0.0 0.0

694170.4864118705 1.902343921016779e7 0.0
1.902343921016779e7 -1.5038641359236676e7 0.0
0.0 0.0 0.0

-761281.3632993773 1.811200539194799e7 0.0
1.811200539194799e7 -7.1593388890299145e6 0.0
0.0 0.0 0.0

-4.0300988103495073e6 1.5323583478518952e7 0.0
1.5323583478518952e7 4.466338721605535e6 0.0
0.0 0.0 0.0

-7.906216197316978e6 1.174044045758727e7 0.0
1.174044045758727e7 4.361477216047641e7 0.0
0.0 0.0 0.0

2.7798058304434884e6 4.286219519294815e6 0.0
4.286219519294815e6 -3.726857719086402e7 0.0
0.0 0.0 0.0

2.3990272056982014e6 5.699303584483442e6 0.0
5.699303584483442e6 -2.259815898105174e7 0.0
0.0 0.0 0.0

-3.005397896776612e6 2.4210506037224878e7 0.0
2.4210506037224878e7 1.0194595215064146e7 0.0
0.0 0.0 0.0

-1.0869761429989234e7 3.253322675603054e6 0.0
3.253322675603054e6 1.6312650806779053e7 0.0
0.0 0.0 0.0

-179484.39284165762 1.6035221761249768e7 0.0
1.6035221761249768e7 -1.5188624296286581e7 0.0
0.0 0.0 0.0

2.696943349222537e6 7.4771506383103095e6 0.0
7.4771506383103095e6 -2.8198924898826975e7 0.0
0.0 0.0 0.0

-7.808204843652155e6 6.334649337609257e6 0.0
6.334649337609257e6 4.747267588805159e7 0.0
0.0 0.0 0.0

-1.1864280657918076e6 2.348781931130902e7 0.0
2.348781931130902e7 7.136136135918452e6 0.0
0.0 0.0 0.0

-1.0206599541631842e7 3.723815607557534e6 0.0
3.723815607557534e6 3.009427617222348e7 0.0
0.0 0.0 0.0

720417.8819439821 1.3516966611847997e7 0.0
1.3516966611847997e7 -3.7417689378901616e7 0.0
0.0 0.0 0.0

-599882.7631435655 2.0499610225273516e7 0.0
2.0499610225273516e7 -2.269207605160489e7 0.0
0.0 0.0 0.0

-1.000839802462352e7 1.4452518573885355e7 0.0
1.4452518573885355e7 2.323378233662949e7 0.0
0.0 0.0 0.0

602173.6801562812 1.7373491629283503e7 0.0
1.7373491629283503e7 -2.8270799680627584e7 0.0
0.0 0.0 0.0

1.12418725628806e6 1.7857033747123014e7 0.0
1.7857033747123014e7 -1.876982786203227e7 0.0
0.0 0.0 0.0

-1.9024914975170763e6 2.4883782321253833e6 0.0
2.4883782321253833e6 4.140074446400362e6 0.0
0.0 0.0 0.0

-1.0410689379589003e7 2.7619602618125365e6 0.0
2.7619602618125365e6 2.6871234507802356e7 0.0
0.0 0.0 0.0

-184737.85558223538 1.370651684283904e7 0.0
1.370651684283904e7 -1.3599184272275565e7 0.0
0.0 0.0 0.0

183931.2643875694 1.234560456293825e7 0.0
1.234560456293825e7 -1.4004465911840817e7 0.0
0.0 0.0 0.0

875007.4668439506 1.943718527554219e7 0.0
1.943718527554219e7 -1.5768574699571656e7 0.0
0.0 0.0 0.0

-2.0762175426920536e6 2.369297174277529e7 0.0
2.369297174277529e7 4.033762260462284e6 0.0
0.0 0.0 0.0

992099.3594906898 1.0744272112462802e7 0.0
1.0744272112462802e7 -1.681929760836659e7 0.0
0.0 0.0 0.0

-3.7300433875887077e6 1.5061552460410042e7 0.0
1.5061552460410042e7 -5.6301661277744964e7 0.0
0.0 0.0 0.0

-1.0721705722190142e7 5.219310474819682e6 0.0
5.219310474819682e6 1.5606744333142482e7 0.0
0.0 0.0 0.0

-1.3738505824168868e7 2.035603558550579e7 0.0
2.035603558550579e7 -5.097128544184778e7 0.0
0.0 0.0 0.0

-1.368161334922919e8 1.694900428400165e7 0.0
1.694900428400165e7 -3.385262263064608e6 0.0
0.0 0.0 0.0

1.2705588176413232e8 1.8038671481538244e7 0.0
1.8038671481538244e7 6.5552791259061545e6 0.0
0.0 0.0 0.0

-5.242589083890665e6 1.5499672527968058e7 0.0
1.5499672527968058e7 -6.4955180307983264e7 0.0
0.0 0.0 0.0

-6.191188472300591e6 1.8438068669168804e7 0.0
1.8438068669168804e7 2.4116584364889007e7 0.0
0.0 0.0 0.0

-2.5663457256691665e6 2.2970360555500615e7 0.0
2.2970360555500615e7 1.0590304988215198e6 0.0
0.0 0.0 0.0

-495235.6501634596 1.5006709937096257e7 0.0
1.5006709937096257e7 -1.3163520612246105e7 0.0
0.0 0.0 0.0

-1.2588986670030819e6 7.097181718076196e6 0.0
7.097181718076196e6 -3.663471944754929e6 0.0
0.0 0.0 0.0

52008.986119830515 8.035699626689368e6 0.0
8.035699626689368e6 -2.285160345759976e6 0.0
0.0 0.0 0.0

-3.69722883082091e6 1.6738528549116515e7 0.0
1.6738528549116515e7 4.3406547581898775e6 0.0
0.0 0.0 0.0

-4.467055535591556e6 1.5239852025804134e7 0.0
1.5239852025804134e7 -6.039440943829963e7 0.0
0.0 0.0 0.0

956869.446270233 1.3158947738113174e7 0.0
1.3158947738113174e7 -1.2715743326115314e7 0.0
0.0 0.0 0.0

-9.405500922207152e6 4.847179452108218e6 0.0
4.847179452108218e6 3.837456076020477e7 0.0
0.0 0.0 0.0

1.0496526883977854e8 2.2381362262639493e7 0.0
2.2381362262639493e7 286103.0123728812 0.0
0.0 0.0 0.0

619402.2442768533 1.4498067093124133e7 0.0
1.4498067093124133e7 -1.2347164561657272e7 0.0
0.0 0.0 0.0

2.7085853736923654e6 6.9868388603672115e6 0.0
6.9868388603672115e6 -3.2238103512679e7 0.0
0.0 0.0 0.0

2.555545007654758e6 7.73954111008322e6 0.0
7.73954111008322e6 -3.2970720896788538e7 0.0
0.0 0.0 0.0

-4.311863354649456e6 2.13670267444026e7 0.0
2.13670267444026e7 2.692737651999184e7 0.0
0.0 0.0 0.0

1.476733687950679e6 1.634041870688644e7 0.0
1.634041870688644e7 -2.1696314187784415e7 0.0
0.0 0.0 0.0

-4.304860343998046e6 2.411674722047791e7 0.0
2.411674722047791e7 -1.396810444410627e7 0.0
0.0 0.0 0.0

9.031116461711291e6 2.6291380652087376e7 0.0
2.6291380652087376e7 -2.727301028691242e6 0.0
0.0 0.0 0.0

-1.9000164097137146e6 1.526112960508373e7 0.0
1.526112960508373e7 42059.301037224825 0.0
0.0 0.0 0.0

1.4496430909915909e6 6.475785707161369e6 0.0
6.475785707161369e6 -5.668581227767224e6 0.0
0.0 0.0 0.0

-3.573827342279373e6 1.0502473450749999e7 0.0
1.0502473450749999e7 468059.4217619975 0.0
0.0 0.0 0.0

-7.545549421185019e6 7.747229654457833e6 0.0
7.747229654457833e6 1.5010926925760143e7 0.0
0.0 0.0 0.0

-7.761725947533683e6 1.8568234975090064e7 0.0
1.8568234975090064e7 -3.632121366226814e7 0.0
0.0 0.0 0.0

1.484265470738683e6 1.3279981868475934e7 0.0
1.3279981868475934e7 -3.2564642242478408e7 0.0
0.0 0.0 0.0

1.9878568008968076e6 6.744370352543138e6 0.0
6.744370352543138e6 -1.8948231950937446e7 0.0
0.0 0.0 0.0

2.0500871733205002e6 1.0139190641936887e7 0.0
1.0139190641936887e7 -1.5797548283472512e7 0.0
0.0 0.0 0.0

-1.9760005920336356e6 1.804858592432209e7 0.0
1.804858592432209e7 272480.7531844892 0.0
0.0 0.0 0.0

1.55427290341111e6 9.708769649149531e6 0.0
9.708769649149531e6 -2.0551687797195908e7 0.0
0.0 0.0 0.0

-1.8429562203460278e6 8.83671576239905e6 0.0
8.83671576239905e6 -3.557697105410213e6 0.0
0.0 0.0 0.0

3.2538462693725675e6 4.718988850483844e6 0.0
4.718988850483844e6 -2.4101010998126943e7 0.0
0.0 0.0 0.0

688970.5905401977 1.7308397890592467e7 0.0
1.7308397890592467e7 -1.4871396066118564e7 0.0
0.0 0.0 0.0

-1.0567033805258099e7 7.186219927994457e6 0.0
7.186219927994457e6 1.4456550993520034e7 0.0
0.0 0.0 0.0

290319.55744859576 2.6627723460456893e7 0.0
2.6627723460456893e7 -9.359362004515853e6 0.0
0.0 0.0 0.0

780887.115747273 6.138400195547724e6 0.0
6.138400195547724e6 -5.37655142623331e7 0.0
0.0 0.0 0.0

559457.1215725755 1.8537648492260784e7 0.0
1.8537648492260784e7 -1.4280198188683594e7 0.0
0.0 0.0 0.0

2.5544842236991823e6 9.253974904344285e6 0.0
9.253974904344285e6 -2.5170092689703092e7 0.0
0.0 0.0 0.0

-3.9628016577928253e6 5.13158787667559e6 0.0
5.13158787667559e6 8.481495083332513e6 0.0
0.0 0.0 0.0

2.6503537545596138e6 8.400406166893942e6 0.0
8.400406166893942e6 -2.6719646652367137e7 0.0
0.0 0.0 0.0

-1.9891042029563626e6 2.3510472282909986e7 0.0
2.3510472282909986e7 7.236485958726975e6 0.0
0.0 0.0 0.0

3.0215221534966165e6 2.8763563587341283e7 0.0
2.8763563587341283e7 -8.815809325472826e6 0.0
0.0 0.0 0.0

-1.660862134919851e6 2.1409447430829577e7 0.0
2.1409447430829577e7 -2.2200617808472306e7 0.0
0.0 0.0 0.0

-126136.83171485597 7.283793127788361e6 0.0
7.283793127788361e6 -6.896001652512583e6 0.0
0.0 0.0 0.0

2.885061337214394e6 2.993002758667566e7 0.0
2.993002758667566e7 -6.871762840488825e6 0.0
0.0 0.0 0.0

1.014032807055729e6 2.462050437137016e7 0.0
2.462050437137016e7 -1.1401248876539186e7 0.0
0.0 0.0 0.0

-1.1359155998785798e7 1.0113462601700164e7 0.0
1.0113462601700164e7 2.3142626165239576e7 0.0
0.0 0.0 0.0

-3.231079072619592e6 2.504293579676776e7 0.0
2.504293579676776e7 1.5528100429915512e7 0.0
0.0 0.0 0.0

-7.641552585764563e6 4.514429803101696e6 0.0
4.514429803101696e6 8.343819137337534e6 0.0
0.0 0.0 0.0

-2.6517435755250575e6 1.2245339687510163e7 0.0
1.2245339687510163e7 3.904211340103319e6 0.0
0.0 0.0 0.0

-6.346145599722978e6 9.357545788344976e6 0.0
9.357545788344976e6 5.345973776588089e7 0.0
0.0 0.0 0.0

-5.022070621518676e6 1.5652285573205186e7 0.0
1.5652285573205186e7 1.0008036331700522e7 0.0
0.0 0.0 0.0

4.2435233425558e6 2.299489588811797e7 0.0
2.299489588811797e7 2.7750685686817206e6 0.0
0.0 0.0 0.0

369181.34547586413 1.5815237294978624e7 0.0
1.5815237294978624e7 -1.189723530624697e7 0.0
0.0 0.0 0.0

-362207.3443890279 1.726011605580577e7 0.0
1.726011605580577e7 -1.4616160123138549e7 0.0
0.0 0.0 0.0

-3.4177009076666106e6 1.5052128657141505e7 0.0
1.5052128657141505e7 -5.253175882039508e7 0.0
0.0 0.0 0.0

302162.57531740516 6.620824801860674e6 0.0
6.620824801860674e6 -5.736035893014343e7 0.0
0.0 0.0 0.0

-1.0221619179218402e7 1.2967587445709277e7 0.0
1.2967587445709277e7 2.942425675547498e7 0.0
0.0 0.0 0.0

-2.362474727757421e6 2.765224698644125e7 0.0
2.765224698644125e7 7.648957509123823e6 0.0
0.0 0.0 0.0

-8.914579429860143e6 5.220387175979536e6 0.0
5.220387175979536e6 4.2537653336456e7 0.0
0.0 0.0 0.0

953027.7777142655 2.3012943114097506e7 0.0
2.3012943114097506e7 -1.4119317152062505e7 0.0
0.0 0.0 0.0

711922.548700789 2.2374482376970317e7 0.0
2.2374482376970317e7 -1.7027654234724008e7 0.0
0.0 0.0 0.0

1.7539502916122988e7 6.183455764929753e6 0.0
6.183455764929753e6 -1.856802875497017e6 0.0
0.0 0.0 0.0

1.2989418563087801e6 1.0442788024228066e7 0.0
1.0442788024228066e7 -1.0971077646338303e7 0.0
0.0 0.0 0.0

-8.371305575181741e6 1.5691289809862508e7 0.0
1.5691289809862508e7 1.9383260390739717e7 0.0
0.0 0.0 0.0

-3.92402861129787e6 2.1342329533674635e7 0.0
2.1342329533674635e7 -2.140827481992721e7 0.0
0.0 0.0 0.0

591989.0857221717 1.684834351779407e7 0.0
1.684834351779407e7 -1.395928715941277e7 0.0
0.0 0.0 0.0

908118.4473214857 1.8275379872971643e7 0.0
1.8275379872971643e7 -1.6515645897177916e7 0.0
0.0 0.0 0.0

-6.428044595807502e6 1.4941364452859337e7 0.0
1.4941364452859337e7 4.204785027351732e7 0.0
0.0 0.0 0.0

-1.0589286181172462e7 1.2758001451060092e7 0.0
1.2758001451060092e7 2.6344513732965082e7 0.0
0.0 0.0 0.0

-534340.3798587224 1.677925916688215e7 0.0
1.677925916688215e7 -1.3687388426650617e7 0.0
0.0 0.0 0.0

-1.061293675387144e6 2.099269194325422e7 0.0
2.099269194325422e7 -1.0728038125133839e7 0.0
0.0 0.0 0.0

-6.747173419073021e6 2.1929831711905267e7 0.0
2.1929831711905267e7 -1.3610355632992487e7 0.0
0.0 0.0 0.0

-1.2555151342815857e6 2.8861973487594973e7 0.0
2.8861973487594973e7 -2.6244878175655184e6 0.0
0.0 0.0 0.0

1.1943361822595075e6 1.3388919004480215e7 0.0
1.3388919004480215e7 -3.492289512800725e7 0.0
0.0 0.0 0.0

-1.9670308061930183e6 3.446107942322553e7 0.0
3.446107942322553e7 2.5600249550573127e6 0.0
0.0 0.0 0.0

-7.133482674604125e6 1.6471661527088389e7 0.0
1.6471661527088389e7 1.7479588265302256e7 0.0
0.0 0.0 0.0

-1.024618039819746e7 2.719619733785989e7 0.0
2.719619733785989e7 -1.2686314707251752e7 0.0
0.0 0.0 0.0

59314.34420121042 2.002892709970529e7 0.0
2.002892709970529e7 -1.9907145292820514e6 0.0
0.0 0.0 0.0

-1.051829689324527e6 2.178620392551763e7 0.0
2.178620392551763e7 -2.0462602263111476e7 0.0
0.0 0.0 0.0

-2.809825076580252e6 2.151286832961892e7 0.0
2.151286832961892e7 -1.2792003333603408e7 0.0
0.0 0.0 0.0

-3.218372514844923e6 2.666253631667224e7 0.0
2.666253631667224e7 1.0324071777429324e7 0.0
0.0 0.0 0.0

648557.6605490195 2.1367936107948735e7 0.0
2.1367936107948735e7 -1.3589595651407812e7 0.0
0.0 0.0 0.0

-708264.869444334 1.629998541722665e7 0.0
1.629998541722665e7 -1.2672248179155886e7 0.0
0.0 0.0 0.0

-854497.032952426 2.0167246273912407e7 0.0
2.0167246273912407e7 -2.5036466400950335e7 0.0
0.0 0.0 0.0

-1.7471221234942125e6 1.3572175964660734e7 0.0
1.3572175964660734e7 -6.648470052355146e6 0.0
0.0 0.0 0.0

-2.313722750232036e6 2.604781031349145e7 0.0
2.604781031349145e7 2.3858020808153823e6 0.0
0.0 0.0 0.0

-1.086964446826209e6 2.823147763820285e7 0.0
2.823147763820285e7 -3.857551091116142e6 0.0
0.0 0.0 0.0

-2.545903380040943e6 4.451488854279307e6 0.0
4.451488854279307e6 5.903620560034127e6 0.0
0.0 0.0 0.0

131038.98698679078 1.1707218144737674e7 0.0
1.1707218144737674e7 -1.2913333011078691e7 0.0
0.0 0.0 0.0

-535289.1550801516 3.002956160943263e7 0.0
3.002956160943263e7 -645562.2226171639 0.0
0.0 0.0 0.0

-2.7690839028116753e6 2.2994034643321868e7 0.0
2.2994034643321868e7 6.411040000160852e6 0.0
0.0 0.0 0.0

-1.024428387771806e8 1.0474590723274684e7 0.0
1.0474590723274684e7 269851.7329557389 0.0
0.0 0.0 0.0

210440.70509656332 1.7987052307216343e7 0.0
1.7987052307216343e7 -2.840186285046881e7 0.0
0.0 0.0 0.0

-3.1876181579980906e6 2.1510994849057257e7 0.0
2.1510994849057257e7 9.816750320539042e6 0.0
0.0 0.0 0.0

-723839.9930838869 2.581588169405812e7 0.0
2.581588169405812e7 -3.6352982350833104e6 0.0
0.0 0.0 0.0

-2.989765174352001e6 2.2694535482751276e7 0.0
2.2694535482751276e7 9.384596221620886e6 0.0
0.0 0.0 0.0

-2.7370488713488113e6 2.3955997610957168e7 0.0
2.3955997610957168e7 997455.6576509294 0.0
0.0 0.0 0.0

525719.5465657683 2.32381638556803e7 0.0
2.32381638556803e7 -1.1678663716425821e7 0.0
0.0 0.0 0.0

-5.795791200848726e6 1.7311622336451292e7 0.0
1.7311622336451292e7 1.517806228451304e7 0.0
0.0 0.0 0.0

-9.874781553361036e6 9.24401750846276e6 0.0
9.24401750846276e6 3.2326443519601762e7 0.0
0.0 0.0 0.0

-817251.8826006738 1.4325718531817773e7 0.0
1.4325718531817773e7 -5.257315474165567e6 0.0
0.0 0.0 0.0

2.652687966254805e6 6.306343545623832e6 0.0
6.306343545623832e6 -1.2851541042786546e7 0.0
0.0 0.0 0.0

-1.819543561759917e6 1.86101390074723e7 0.0
1.86101390074723e7 -7.960075250937411e6 0.0
0.0 0.0 0.0

430326.814572935 2.407528086607843e7 0.0
2.407528086607843e7 -1.3130413839878831e7 0.0
0.0 0.0 0.0

-2.9169851264391723e6 2.181671801776766e7 0.0
2.181671801776766e7 6.691243242933411e6 0.0
0.0 0.0 0.0

-2.559761547469337e6 1.7084286762823097e7 0.0
1.7084286762823097e7 -4.0966204626644803e6 0.0
0.0 0.0 0.0

-9.044651180138644e6 2.04310251014452e6 0.0
2.04310251014452e6 1.851147266480677e7 0.0
0.0 0.0 0.0

1.9465001299800882e6 6.180776306806626e6 0.0
6.180776306806626e6 -1.5200033786691941e7 0.0
0.0 0.0 0.0

-8.494804839591315e6 8.469118001930073e6 0.0
8.469118001930073e6 4.1952924010122254e7 0.0
0.0 0.0 0.0

-1.10791610690504e7 5.246004863500911e6 0.0
5.246004863500911e6 2.3907515015894648e7 0.0
0.0 0.0 0.0

-555896.7891423721 2.142196492614723e7 0.0
2.142196492614723e7 2.766006880614899e7 0.0
0.0 0.0 0.0

-1.0210451314121643e6 2.208950903788974e7 0.0
2.208950903788974e7 -1.0253155542730918e7 0.0
0.0 0.0 0.0

-34206.20698976936 1.0992135119670259e7 0.0
1.0992135119670259e7 -1.1847526141364109e7 0.0
0.0 0.0 0.0

-7.932185635153966e6 8.127796005399816e6 0.0
8.127796005399816e6 4.5180278350392126e7 0.0
0.0 0.0 0.0

-401387.62140963436 2.615359378436107e7 0.0
2.615359378436107e7 -4.638542406649016e6 0.0
0.0 0.0 0.0

-3.596776299726614e6 1.6038713896190295e7 0.0
1.6038713896190295e7 2.5584757095491565e6 0.0
0.0 0.0 0.0

-2.0242207712766274e6 1.14139040101439e7 0.0
1.14139040101439e7 1.8735207018841892e6 0.0
0.0 0.0 0.0

-2.0478744251961932e6 1.4916184057775864e7 0.0
1.4916184057775864e7 -6.224920954788045e6 0.0
0.0 0.0 0.0

-4.14150349013354e6 1.9535775693589985e7 0.0
1.9535775693589985e7 -3.335099742829741e7 0.0
0.0 0.0 0.0

-2.0579673426483595e6 2.278629428084175e7 0.0
2.278629428084175e7 8.843296810782533e6 0.0
0.0 0.0 0.0

1.2503387216853742e6 2.2313420007907327e7 0.0
2.2313420007907327e7 -1.7030356853167143e7 0.0
0.0 0.0 0.0

3.4240832639371343e6 1.873302212761819e7 0.0
1.873302212761819e7 6.886367563409941e7 0.0
0.0 0.0 0.0

6.4676489697350515e6 2.567162945096709e7 0.0
2.567162945096709e7 1.3739886539544374e7 0.0
0.0 0.0 0.0

-9.20981470925555e6 1.5426840787947685e7 0.0
1.5426840787947685e7 2.2031662974631187e7 0.0
0.0 0.0 0.0

1.653751095186822e6 1.40395092435289e7 0.0
1.40395092435289e7 -2.8550412441948492e7 0.0
0.0 0.0 0.0

-1.5209948437763252e6 1.7855026844696183e7 0.0
1.7855026844696183e7 -2.907115448314756e6 0.0
0.0 0.0 0.0

2.4587787795731686e6 2.560270414870419e7 0.0
2.560270414870419e7 -1.230150157450724e7 0.0
0.0 0.0 0.0

-2.1971694825328793e6 2.902365188375419e7 0.0
2.902365188375419e7 5.287034729301104e6 0.0
0.0 0.0 0.0

-955934.0368794863 2.7529288688887525e7 0.0
2.7529288688887525e7 -4.923254520043185e6 0.0
0.0 0.0 0.0

-444354.11471347045 2.2267648670255188e7 0.0
2.2267648670255188e7 -1.8740457141084835e7 0.0
0.0 0.0 0.0

-1.4064951978739721e6 1.653256662862909e7 0.0
1.653256662862909e7 -3.199708760006627e6 0.0
0.0 0.0 0.0

-2.793541703057258e6 2.3425540857630044e7 0.0
2.3425540857630044e7 7.73838759937915e6 0.0
0.0 0.0 0.0

-1.1537995987381095e7 9.13519902856432e6 0.0
9.13519902856432e6 2.1690932322526246e7 0.0
0.0 0.0 0.0

2.1497490631420203e6 5.990450621010113e6 0.0
5.990450621010113e6 -1.772067539732471e7 0.0
0.0 0.0 0.0

-1.0924447706594756e6 1.8893785425318595e7 0.0
1.8893785425318595e7 -5.560989976148464e6 0.0
0.0 0.0 0.0

2.333573770556028e6 1.0330632319229864e7 0.0
1.0330632319229864e7 -2.1507141030581992e7 0.0
0.0 0.0 0.0

-1.8386489665102523e6 2.299566966701883e7 0.0
2.299566966701883e7 3.4830504473855095e6 0.0
0.0 0.0 0.0

-1.2384470716932137e6 1.0616775769281764e7 0.0
1.0616775769281764e7 -201782.74261115163 0.0
0.0 0.0 0.0

738360.1830328326 3.2342830712904554e7 0.0
3.2342830712904554e7 -3.963941672717291e6 0.0
0.0 0.0 0.0

-6.756731755334625e7 5.825535185781076e6 0.0
5.825535185781076e6 4.397252386231519e6 0.0
0.0 0.0 0.0

-522840.8499782399 9.767852039637031e6 0.0
9.767852039637031e6 -2.1369764149222015e6 0.0
0.0 0.0 0.0

-4.843724668473319e6 1.833704969669449e7 0.0
1.833704969669449e7 -4.1318702946367055e7 0.0
0.0 0.0 0.0

1.8579291324287658e6 2.4499789902580086e7 0.0
2.4499789902580086e7 -1.0645768527052091e7 0.0
0.0 0.0 0.0

685890.4420914482 1.50324855531953e7 0.0
1.50324855531953e7 -1.338908857887615e7 0.0
0.0 0.0 0.0

833592.1021221373 2.0313250931143686e7 0.0
2.0313250931143686e7 -2.164413137454639e7 0.0
0.0 0.0 0.0

171367.5803886589 9.017016641311245e6 0.0
9.017016641311245e6 -3.8948193646379267e6 0.0
0.0 0.0 0.0

2.6968016409811433e6 8.479511208394999e6 0.0
8.479511208394999e6 -2.4320836987538673e7 0.0
0.0 0.0 0.0

-1.4421675226175427e6 2.9479969351879068e7 0.0
2.9479969351879068e7 -1.5112182362885964e6 0.0
0.0 0.0 0.0

-330607.6701874861 6.451222455774154e6 0.0
6.451222455774154e6 -5.194114236959972e6 0.0
0.0 0.0 0.0

581386.7235790929 1.1530444795125924e7 0.0
1.1530444795125924e7 -1.544440839542484e7 0.0
0.0 0.0 0.0

965540.5985214887 3.386040762050853e7 0.0
3.386040762050853e7 -2.945069362145254e6 0.0
0.0 0.0 0.0

4.921842543452719e6 2.4130935082143404e7 0.0
2.4130935082143404e7 1.5086535456782572e6 0.0
0.0 0.0 0.0

2.787643398132253e6 2.7586362155474328e7 0.0
2.7586362155474328e7 -9.636309366746765e6 0.0
0.0 0.0 0.0

468729.44534027204 8.978676517959539e6 0.0
8.978676517959539e6 -6.805849303166072e7 0.0
0.0 0.0 0.0

-5.663860169395307e6 1.8844545138983864e7 0.0
1.8844545138983864e7 3.2204766223633237e7 0.0
0.0 0.0 0.0

-1.2603897942841225e6 2.8365622699646935e7 0.0
2.8365622699646935e7 1.157072521532467e6 0.0
0.0 0.0 0.0

2.2671172689705314e6 9.939718868249323e6 0.0
9.939718868249323e6 -1.8195077755024225e7 0.0
0.0 0.0 0.0

733973.8612677604 8.171553771847481e6 0.0
8.171553771847481e6 -5.508974671609403e6 0.0
0.0 0.0 0.0

-153814.5250845221 1.0293994323962804e7 0.0
1.0293994323962804e7 -1.0711424719500465e7 0.0
0.0 0.0 0.0

-3.74206994418042e6 3.308616654868391e7 0.0
3.308616654868391e7 5.237684164078496e6 0.0
0.0 0.0 0.0

-9.712812164201388e6 2.741475891769916e6 0.0
2.741475891769916e6 2.566408988403169e7 0.0
0.0 0.0 0.0

-7.887055438917929e6 1.7318882291634656e7 0.0
1.7318882291634656e7 2.9391960715067614e7 0.0
0.0 0.0 0.0

-398967.09942571726 2.781316009742296e7 0.0
2.781316009742296e7 -3.1757884441259764e6 0.0
0.0 0.0 0.0

967723.7464841548 1.710392485792317e7 0.0
1.710392485792317e7 -1.7251689762033075e7 0.0
0.0 0.0 0.0

-1.7799114567130376e6 2.303119463908591e7 0.0
2.303119463908591e7 2.237831809369211e7 0.0
0.0 0.0 0.0

-2.5573278772696494e6 1.839642623038317e7 0.0
1.839642623038317e7 -3.7966545134147652e6 0.0
0.0 0.0 0.0

430448.6687319828 1.8045338774436574e7 0.0
1.8045338774436574e7 -1.3442761868705638e7 0.0
0.0 0.0 0.0

-2.0340085398167148e6 1.766541111507473e7 0.0
1.766541111507473e7 -3.452264085907412e7 0.0
0.0 0.0 0.0

3.8878873363903477e6 2.920689967025166e7 0.0
2.920689967025166e7 -8.099412792576967e6 0.0
0.0 0.0 0.0

-2.86012177948297e6 1.5357247789235407e7 0.0
1.5357247789235407e7 -4.9193382879465565e7 0.0
0.0 0.0 0.0

-1.1562605393787278e7 7.900820856078943e6 0.0
7.900820856078943e6 2.0581704878212e7 0.0
0.0 0.0 0.0

6.526079120381907e6 2.278192358748146e7 0.0
2.278192358748146e7 2.7304591918510284e7 0.0
0.0 0.0 0.0

-4.332293376779869e6 3.1813104994976114e7 0.0
3.1813104994976114e7 5.659118089628446e6 0.0
0.0 0.0 0.0

-2.332611659902785e6 1.8905693519156847e7 0.0
1.8905693519156847e7 -5.119222568161408e6 0.0
0.0 0.0 0.0

5.618739208570524e6 2.5597743852829058e7 0.0
2.5597743852829058e7 -6.104006281743439e6 0.0
0.0 0.0 0.0

-199332.34468190512 2.7177823245998103e7 0.0
2.7177823245998103e7 -4.357457992561592e6 0.0
0.0 0.0 0.0

-7.219003761209395e6 9.738352592027744e6 0.0
9.738352592027744e6 8.841220182141148e6 0.0
0.0 0.0 0.0

109511.39426872414 2.276015878202069e7 0.0
2.276015878202069e7 -1.7140501538750354e7 0.0
0.0 0.0 0.0

1.5044800472319108e6 1.6221798614398193e7 0.0
1.6221798614398193e7 -2.3926132054659396e7 0.0
0.0 0.0 0.0

1.3732076774695711e6 1.691031178553054e7 0.0
1.691031178553054e7 -2.2328993593524605e7 0.0
0.0 0.0 0.0

-1.0896434467912517e6 1.7062045569408603e7 0.0
1.7062045569408603e7 -1.112385234494281e7 0.0
0.0 0.0 0.0

1.9065096656785276e7 3.0688538694983922e7 0.0
3.0688538694983922e7 -4.420016399982868e6 0.0
0.0 0.0 0.0

1.3304988189413883e6 1.2379873872862555e7 0.0
1.2379873872862555e7 -1.4115477456595002e7 0.0
0.0 0.0 0.0

2.230980775239664e6 5.382729319446138e6 0.0
5.382729319446138e6 -1.6695192452775773e7 0.0
0.0 0.0 0.0

1.578699876168143e6 1.5475000003651964e7 0.0
1.5475000003651964e7 -2.5398840068855256e7 0.0
0.0 0.0 0.0

785253.0804847293 7.126471015751836e6 0.0
7.126471015751836e6 -5.100819415349542e7 0.0
0.0 0.0 0.0

-9.438226330124825e6 9.013397516464079e6 0.0
9.013397516464079e6 1.2830484660381194e7 0.0
0.0 0.0 0.0

-2.4909905556917107e6 2.5365573098034255e7 0.0
2.5365573098034255e7 3.4284942441593744e6 0.0
0.0 0.0 0.0

2.7908226223191414e6 4.769685181445056e6 0.0
4.769685181445056e6 -2.9122896964491136e7 0.0
0.0 0.0 0.0

1.5292628776802076e6 7.0513019408433605e6 0.0
7.0513019408433605e6 -1.403335993418539e7 0.0
0.0 0.0 0.0

-378666.9611131856 1.734402634167303e7 0.0
1.734402634167303e7 -8.780216386492873e6 0.0
0.0 0.0 0.0

-4.980284943686809e6 1.579854722147469e7 0.0
1.579854722147469e7 4.478378350402106e7 0.0
0.0 0.0 0.0

-3.5640085134599702e6 2.4813610302177515e7 0.0
2.4813610302177515e7 1.599053329465952e7 0.0
0.0 0.0 0.0

-5.848842903616253e6 1.1100975383592669e7 0.0
1.1100975383592669e7 6.693774688047456e6 0.0
0.0 0.0 0.0

-4.602616470772218e6 2.210722324868754e7 0.0
2.210722324868754e7 2.3324455435218498e7 0.0
0.0 0.0 0.0

3.0428051323692612e6 6.560149360956568e6 0.0
6.560149360956568e6 -2.1288975569499545e7 0.0
0.0 0.0 0.0

1.5345799767102394e6 1.4761943893750707e7 0.0
1.4761943893750707e7 -2.7129988050482713e7 0.0
0.0 0.0 0.0

324997.4518991967 7.310829924653195e7 0.0
7.310829924653195e7 7.300140498103946e6 0.0
0.0 0.0 0.0

-4.843582431778351e6 1.509715495660568e7 0.0
1.509715495660568e7 8.237627419933236e6 0.0
0.0 0.0 0.0

-1.131881991947459e7 6.303603906177707e6 0.0
6.303603906177707e6 1.969869168346775e7 0.0
0.0 0.0 0.0

545917.3201284539 2.138599422473042e7 0.0
2.138599422473042e7 -1.848411782582571e7 0.0
0.0 0.0 0.0

1.2975650732023418e6 1.7636573840509526e7 0.0
1.7636573840509526e7 -2.090145466907424e7 0.0
0.0 0.0 0.0

-22565.480258984142 3.741234777481591e6 0.0
3.741234777481591e6 3.119123387034702e6 0.0
0.0 0.0 0.0

-3.513219265462925e6 2.1024996351554175e6 0.0
2.1024996351554175e6 6.582942961716935e6 0.0
0.0 0.0 0.0

-4.980727842542843e6 3.3482658325589698e7 0.0
3.3482658325589698e7 4.636946237257207e6 0.0
0.0 0.0 0.0

-3.139538613129399e6 2.1076288272130337e7 0.0
2.1076288272130337e7 8.378161384204356e6 0.0
0.0 0.0 0.0

-3.305661423852537e6 3.3340931480719373e7 0.0
3.3340931480719373e7 2.659038083954506e6 0.0
0.0 0.0 0.0

2.4169059002541276e6 1.0122988424423333e7 0.0
1.0122988424423333e7 -2.3840615723578826e7 0.0
0.0 0.0 0.0

-2.679092117291334e6 2.41135393932902e7 0.0
2.41135393932902e7 6.195714608444487e6 0.0
0.0 0.0 0.0

-9.34297232915719e6 5.79735811067222e6 0.0
5.79735811067222e6 3.566816626220988e7 0.0
0.0 0.0 0.0

-8.333943397153604e7 7.489740298997664e6 0.0
7.489740298997664e6 3.494582904340517e6 0.0
0.0 0.0 0.0

-2.4822388369307523e6 2.6457948151650704e7 0.0
2.6457948151650704e7 3.4443182395441737e6 0.0
0.0 0.0 0.0

-4.246042478680575e6 2.2710255730774336e7 0.0
2.2710255730774336e7 2.152002885139697e7 0.0
0.0 0.0 0.0

1.8636805439203284e6 2.9454088805487473e7 0.0
2.9454088805487473e7 -7.651429488048055e6 0.0
0.0 0.0 0.0

1.6421647600894216e6 6.336564317309177e6 0.0
6.336564317309177e6 -1.2617406646499997e7 0.0
0.0 0.0 0.0

-4.434047728571162e6 1.7073494993110597e7 0.0
1.7073494993110597e7 9.68721949458919e6 0.0
0.0 0.0 0.0

-1.7392814340478633e7 2.8131547763166305e7 0.0
2.8131547763166305e7 -1.0323116529023774e7 0.0
0.0 0.0 0.0

-8.761445608620327e6 2.625366615047211e7 0.0
2.625366615047211e7 -1.0587983101411024e7 0.0
0.0 0.0 0.0

2.752489774876944e6 7.728212150760482e6 0.0
7.728212150760482e6 -1.740514322665207e7 0.0
0.0 0.0 0.0

-3.9876831389218196e6 2.3377983280133236e7 0.0
2.3377983280133236e7 1.9672623552660704e7 0.0
0.0 0.0 0.0

-206241.7449688618 2.055948326046355e7 0.0
2.055948326046355e7 -1.0054624481107652e7 0.0
0.0 0.0 0.0

729727.9662198201 5.101108863304165e6 0.0
5.101108863304165e6 -5.604278660617683e7 0.0
0.0 0.0 0.0

-7.509546872452304e6 2.770448898133104e6 0.0
2.770448898133104e6 5.176447960056991e7 0.0
0.0 0.0 0.0

1.9906891043282403e6 1.0778235568157678e7 0.0
1.0778235568157678e7 -1.6837525866407663e7 0.0
0.0 0.0 0.0

2.4392803202314656e6 7.670024790794503e6 0.0
7.670024790794503e6 -3.5389244873616055e7 0.0
0.0 0.0 0.0

-572892.9116247608 2.2920739789470043e7 0.0
2.2920739789470043e7 -8.363210235829608e6 0.0
0.0 0.0 0.0

-640563.9465300962 1.3034384220894225e7 0.0
1.3034384220894225e7 -4.653253624610955e7 0.0
0.0 0.0 0.0

2.9747027873170506e6 3.656761140207804e7 0.0
3.656761140207804e7 -3.5707447492620046e6 0.0
0.0 0.0 0.0

-1.5048726445653439e6 1.8857360237209782e7 0.0
1.8857360237209782e7 4.343424581628718e7 0.0
0.0 0.0 0.0

-8.039309589730607e6 2.7108691390623217e6 0.0
2.7108691390623217e6 4.77815638607868e7 0.0
0.0 0.0 0.0

-201748.27715720376 2.168729913742697e7 0.0
2.168729913742697e7 -9.60821717209497e6 0.0
0.0 0.0 0.0

1.197154148221936e6 8.539850035294538e6 0.0
8.539850035294538e6 -4.293403786662514e7 0.0
0.0 0.0 0.0

-1.810639203807322e6 2.177473966021293e7 0.0
2.177473966021293e7 589942.3726841952 0.0
0.0 0.0 0.0

-2.5477695849720375e6 2.4279054221473377e7 0.0
2.4279054221473377e7 3.4371665305803064e6 0.0
0.0 0.0 0.0

-1.046033999733522e7 8.350614041358809e6 0.0
8.350614041358809e6 2.7566625088416778e7 0.0
0.0 0.0 0.0

4.79773667992435e6 2.9717300789279383e7 0.0
2.9717300789279383e7 -7.669408709445877e6 0.0
0.0 0.0 0.0

1.1335898658523483e6 2.3457559789503593e7 0.0
2.3457559789503593e7 -4.042581329096477e6 0.0
0.0 0.0 0.0

-506588.25108465855 2.8481446478844885e7 0.0
2.8481446478844885e7 -2.0085617073086645e6 0.0
0.0 0.0 0.0

1.5523307370474301e6 2.76215318331783e6 0.0
2.76215318331783e6 -5.322321249595706e7 0.0
0.0 0.0 0.0

-2.5983338401978305e6 2.4769819695145432e7 0.0
2.4769819695145432e7 4.7244496301495405e6 0.0
0.0 0.0 0.0

743316.5737864086 1.5547178964377074e7 0.0
1.5547178964377074e7 -1.438893872868036e7 0.0
0.0 0.0 0.0

-4.0937425920973555e6 1.303825866647573e7 0.0
1.303825866647573e7 2.6032615503825434e6 0.0
0.0 0.0 0.0

-1.0144045487889833e6 1.5764933548080293e7 0.0
1.5764933548080293e7 -4.935324557379199e6 0.0
0.0 0.0 0.0

-9.876223526783848e6 6.193270278975707e6 0.0
6.193270278975707e6 1.2719764601030719e7 0.0
0.0 0.0 0.0

1.5721058304340343e6 2.240305463363682e7 0.0
2.240305463363682e7 -5.379252689795963e6 0.0
0.0 0.0 0.0

-8.663897539926106e6 1.0111914171271415e7 0.0
1.0111914171271415e7 3.974322444294299e7 0.0
0.0 0.0 0.0

295637.3215238997 1.7579242277741075e7 0.0
1.7579242277741075e7 -1.2474574016154408e7 0.0
0.0 0.0 0.0

-6.643013261974776e6 6.419521554375305e6 0.0
6.419521554375305e6 6.379692506011532e6 0.0
0.0 0.0 0.0

-5.678589104301524e6 3.425971476669244e7 0.0
3.425971476669244e7 4.685961332225967e6 0.0
0.0 0.0 0.0

652679.1339173489 2.706765126649667e7 0.0
2.706765126649667e7 -6.911995489577174e6 0.0
0.0 0.0 0.0

812986.1937384149 1.858603549493117e7 0.0
1.858603549493117e7 -2.4798487484323014e7 0.0
0.0 0.0 0.0

1.6696875140603986e6 1.1578951595070438e7 0.0
1.1578951595070438e7 -1.5495823587339796e7 0.0
0.0 0.0 0.0

-1.7523953782532904e6 2.695356829669913e7 0.0
2.695356829669913e7 4.189582455034167e6 0.0
0.0 0.0 0.0

-4.192204852155095e6 2.1901323350049913e7 0.0
2.1901323350049913e7 2.5123863764146667e7 0.0
0.0 0.0 0.0

7.925817682663827e6 2.203859367358408e7 0.0
2.203859367358408e7 1.2500544436812744e7 0.0
0.0 0.0 0.0

656284.7568844128 8.872624654996444e6 0.0
8.872624654996444e6 -4.622927022043835e7 0.0
0.0 0.0 0.0

-2.0069671921123192e6 2.3902189183905378e7 0.0
2.3902189183905378e7 8.475470452660559e6 0.0
0.0 0.0 0.0

-1.8703430059931607e6 2.5298719077226702e7 0.0
2.5298719077226702e7 5.522007369861e6 0.0
0.0 0.0 0.0

-1.051289380457921e7 1.3123853005111825e7 0.0
1.3123853005111825e7 2.1171062923705228e7 0.0
0.0 0.0 0.0

3.7189186298723808e6 3.747750811079713e7 0.0
3.747750811079713e7 -3.586371073620487e6 0.0
0.0 0.0 0.0

238710.81616416993 1.5288007230253842e7 0.0
1.5288007230253842e7 -1.0790735726140207e7 0.0
0.0 0.0 0.0

-6.658723264287354e6 1.9190511200950418e7 0.0
1.9190511200950418e7 2.265999113171387e7 0.0
0.0 0.0 0.0

1.71761603364861e6 1.0948597449290033e7 0.0
1.0948597449290033e7 -1.4477197727530682e7 0.0
0.0 0.0 0.0

-4.0437011553244023e6 1.0058122202861367e7 0.0
1.0058122202861367e7 8.433916391968336e6 0.0
0.0 0.0 0.0

-1.604677511295189e6 2.7429240695798784e7 0.0
2.7429240695798784e7 3.054820878409191e6 0.0
0.0 0.0 0.0

-1.668453040834433e6 2.845184792086972e7 0.0
2.845184792086972e7 3.064621105673499e6 0.0
0.0 0.0 0.0

163480.52657585405 1.7093585307485245e7 0.0
1.7093585307485245e7 -1.1437659222020345e7 0.0
0.0 0.0 0.0

2.856442917200424e6 2.4282030462707814e7 0.0
2.4282030462707814e7 -5.154400374913264e6 0.0
0.0 0.0 0.0

1.6297071817571636e7 3.1889651565537255e7 0.0
3.1889651565537255e7 -5.346127801327991e6 0.0
0.0 0.0 0.0

-6.002361143131906e6 2.636161614773765e7 0.0
2.636161614773765e7 8.758362510633375e6 0.0
0.0 0.0 0.0

-1.1351221087125644e7 1.8418478325174775e7 0.0
1.8418478325174775e7 -4.754508790920778e7 0.0
0.0 0.0 0.0

927419.2384305219 1.2561116696407754e7 0.0
1.2561116696407754e7 -1.1583137478544429e7 0.0
0.0 0.0 0.0

-9.6218701727577e6 6.370206014621695e6 0.0
6.370206014621695e6 3.2991907263065323e7 0.0
0.0 0.0 0.0

-3.5518185740805217e6 2.420138778400563e7 0.0
2.420138778400563e7 -1.9654340722345365e6 0.0
0.0 0.0 0.0

-7.138329775181774e6 2.4912896640017904e7 0.0
2.4912896640017904e7 -1.3959453905299269e6 0.0
0.0 0.0 0.0

-1.95881534862936e6 2.457202972380803e7 0.0
2.457202972380803e7 6.89192195006004e6 0.0
0.0 0.0 0.0

-8.874404037953569e6 4.0346069844802883e6 0.0
4.0346069844802883e6 3.7295680638511084e7 0.0
0.0 0.0 0.0

-6.622887388784785e6 3.5019212310517505e7 0.0
3.5019212310517505e7 4.74509078064656e6 0.0
0.0 0.0 0.0

-2.31622428953395e6 2.6994356523829423e7 0.0
2.6994356523829423e7 2.2996723094367133e6 0.0
0.0 0.0 0.0

3.0107003614257327e6 2.2639995552021507e7 0.0
2.2639995552021507e7 1.300896616815987e6 0.0
0.0 0.0 0.0

4.201262420980455e6 1.9093466715320446e7 0.0
1.9093466715320446e7 1.4004208231631897e7 0.0
0.0 0.0 0.0

-2.10715106490674e6 2.3159354087253936e7 0.0
2.3159354087253936e7 1.0104745104013003e7 0.0
0.0 0.0 0.0

-4.3797372623137105e6 2.073228218049285e7 0.0
2.073228218049285e7 1.6299008368262406e7 0.0
0.0 0.0 0.0

2.812251882892384e6 6.98712594603028e6 0.0
6.98712594603028e6 -1.6291933318027847e7 0.0
0.0 0.0 0.0

-140031.6920969661 2.880738551793163e7 0.0
2.880738551793163e7 -2.9625347593370224e6 0.0
0.0 0.0 0.0

-7.206346545547472e6 1.7253267475035902e7 0.0
1.7253267475035902e7 2.4800765741485596e7 0.0
0.0 0.0 0.0

2.430424803977223e6 4.383867925015142e6 0.0
4.383867925015142e6 -2.6616153359914694e7 0.0
0.0 0.0 0.0

-1.1579091361214714e6 2.6563170411218137e7 0.0
2.6563170411218137e7 -5.309137268756131e6 0.0
0.0 0.0 0.0

-1.854684437075043e6 2.416818780163351e7 0.0
2.416818780163351e7 5.756960880541324e6 0.0
0.0 0.0 0.0

-5.265560538807126e6 5.630121498106238e6 0.0
5.630121498106238e6 4.011420406517196e6 0.0
0.0 0.0 0.0

979028.3571078964 1.2513276425241323e7 0.0
1.2513276425241323e7 -1.9655488479178756e7 0.0
0.0 0.0 0.0

2.4146447173366114e6 6.4002248714782044e7 0.0
6.4002248714782044e7 5.224846344033196e6 0.0
0.0 0.0 0.0

-317646.04121992737 7.991077496577275e6 0.0
7.991077496577275e6 -8.014624907766852e7 0.0
0.0 0.0 0.0

2.243548498207392e6 5.691464668546405e6 0.0
5.691464668546405e6 -3.12863980373273e7 0.0
0.0 0.0 0.0

1.7200200544699645e6 1.4237034504294463e7 0.0
1.4237034504294463e7 -2.2189115144996952e7 0.0
0.0 0.0 0.0

-5.874552259050056e6 2.5764038807596393e7 0.0
2.5764038807596393e7 6.518736747142544e6 0.0
0.0 0.0 0.0

62281.80302402191 1.691153775960684e7 0.0
1.691153775960684e7 -3.0345770143540047e7 0.0
0.0 0.0 0.0

883006.6103896578 1.1935648799961181e7 0.0
1.1935648799961181e7 -1.046635585331892e7 0.0
0.0 0.0 0.0

-3.646178104434939e6 1.220327654088597e7 0.0
1.220327654088597e7 592737.1440453229 0.0
0.0 0.0 0.0

4.949514910187395e6 2.112914978098883e7 0.0
2.112914978098883e7 2.3884227240935255e7 0.0
0.0 0.0 0.0

-1.8774409667424485e6 1.9108448544538103e7 0.0
1.9108448544538103e7 4.062290383950718e7 0.0
0.0 0.0 0.0

1.5450893116488853e7 1.616271258915824e7 0.0
1.616271258915824e7 7.149091316109186e6 0.0
0.0 0.0 0.0

-5.9646943105747085e6 3.919553789756024e7 0.0
3.919553789756024e7 2.5224231113048675e6 0.0
0.0 0.0 0.0

-1.4770083076601967e6 1.7826468703582924e7 0.0
1.7826468703582924e7 -9.549718087056173e6 0.0
0.0 0.0 0.0

-3.4615229459982894e7 2.952226416205285e7 0.0
2.952226416205285e7 -2.96416615430882e6 0.0
0.0 0.0 0.0

-121896.04740819475 1.9477439829501193e7 0.0
1.9477439829501193e7 -1.0507291235466998e7 0.0
0.0 0.0 0.0

-1.8759124569760314e6 2.4877176486191917e7 0.0
2.4877176486191917e7 4.33893014229512e6 0.0
0.0 0.0 0.0

-351850.188642174 1.5516910933800219e7 0.0
1.5516910933800219e7 -7.920901032516162e6 0.0
0.0 0.0 0.0

-2.3105920607671514e6 1.8671289738944426e7 0.0
1.8671289738944426e7 -3.1398104382035036e7 0.0
0.0 0.0 0.0

2.426304830150122e6 5.374197186073323e6 0.0
5.374197186073323e6 -2.5212588924392514e7 0.0
0.0 0.0 0.0

680306.8031423297 1.2093046236332884e7 0.0
1.2093046236332884e7 -4.189661027967788e7 0.0
0.0 0.0 0.0

144395.7912297668 2.2841425017703395e7 0.0
2.2841425017703395e7 2.050222937095986e7 0.0
0.0 0.0 0.0

2.5272910020603742e6 8.039676037625068e6 0.0
8.039676037625068e6 -2.9022244136139646e7 0.0
0.0 0.0 0.0

-774971.0338327577 2.6792319512734488e7 0.0
2.6792319512734488e7 -6.141428552475892e6 0.0
0.0 0.0 0.0

-51969.78677541483 2.2802738194480088e7 0.0
2.2802738194480088e7 -1.3318992451367073e7 0.0
0.0 0.0 0.0

-2.4805066498604086e6 1.5720372838170642e7 0.0
1.5720372838170642e7 -4.444547794127488e6 0.0
0.0 0.0 0.0

-3.3916834576769625e6 1.8080145487337034e7 0.0
1.8080145487337034e7 4.208714617789826e6 0.0
0.0 0.0 0.0

-6.288838884301838e6 1.9760158799893316e7 0.0
1.9760158799893316e7 2.3496433746529255e7 0.0
0.0 0.0 0.0

2.1330237809632076e6 1.1165725799499774e7 0.0
1.1165725799499774e7 -2.0141265504190862e7 0.0
0.0 0.0 0.0

-7.297901374806917e6 4.236001667764267e7 0.0
4.236001667764267e7 2.6553435550116342e6 0.0
0.0 0.0 0.0

-7.803820426064165e6 3.563114575854056e7 0.0
3.563114575854056e7 4.966147521771348e6 0.0
0.0 0.0 0.0

-5.699931851251762e6 2.0732231793422397e7 0.0
2.0732231793422397e7 2.4353821710292306e7 0.0
0.0 0.0 0.0

-2.0002142649141364e6 1.9130726805846546e7 0.0
1.9130726805846546e7 -6.667380378249664e6 0.0
0.0 0.0 0.0

1.2049246864739247e6 1.833981222647354e7 0.0
1.833981222647354e7 -1.9385027301847793e7 0.0
0.0 0.0 0.0

2.7601367374267317e6 7.757856424022841e6 0.0
7.757856424022841e6 -2.5930779572061647e7 0.0
0.0 0.0 0.0

-4.231880338431894e6 2.731938061931672e7 0.0
2.731938061931672e7 1.1510624106783405e7 0.0
0.0 0.0 0.0

-1.0960223743014941e7 1.1875962173557173e7 0.0
1.1875962173557173e7 2.5258188927849077e7 0.0
0.0 0.0 0.0

6.838094372196719e6 3.250060405649087e7 0.0
3.250060405649087e7 -5.956033057890429e6 0.0
0.0 0.0 0.0

-6.08240255064296e6 3.295706700114407e6 0.0
3.295706700114407e6 6.370935040965533e7 0.0
0.0 0.0 0.0

-1.2383156538551967e6 2.2906472140645176e7 0.0
2.2906472140645176e7 -8.797853325120678e6 0.0
0.0 0.0 0.0

-8.514403888919333e6 -677596.8379758856 0.0
-677596.8379758856 3.357824004516119e7 0.0
0.0 0.0 0.0

-9.73915136964292e6 5.411853476923787e6 0.0
5.411853476923787e6 1.881424039315817e7 0.0
0.0 0.0 0.0

2.883141397082152e6 6.176856002651872e6 0.0
6.176856002651872e6 -1.5367206400595495e7 0.0
0.0 0.0 0.0

-6.097034149813823e6 1.600478809842708e7 0.0
1.600478809842708e7 4.10108793609084e7 0.0
0.0 0.0 0.0

1.52541521881116e6 1.256117325151524e7 0.0
1.256117325151524e7 -3.440972983408425e7 0.0
0.0 0.0 0.0

-554777.6057946915 2.685546795447142e7 0.0
2.685546795447142e7 -3.3667192750222282e6 0.0
0.0 0.0 0.0

-1.8906928329855076e6 2.6327057469570704e7 0.0
2.6327057469570704e7 5.454738107380899e6 0.0
0.0 0.0 0.0

-1.5740806534613105e6 1.9147260831693925e7 0.0
1.9147260831693925e7 -2.6402120407816926e6 0.0
0.0 0.0 0.0

-2.176081560646478e6 2.6679095186338317e7 0.0
2.6679095186338317e7 7.934919021603698e6 0.0
0.0 0.0 0.0

702559.7022291743 6.427771520916686e6 0.0
6.427771520916686e6 -8.2115397999794725e6 0.0
0.0 0.0 0.0

-2.1381037815489266e6 2.255039475909646e7 0.0
2.255039475909646e7 -4.128464327242913e6 0.0
0.0 0.0 0.0

1.3945144714925084e7 3.2694742453210134e7 0.0
3.2694742453210134e7 -5.669850054606238e6 0.0
0.0 0.0 0.0

672499.9767793394 1.1104483040072178e7 0.0
1.1104483040072178e7 -9.522017043927252e6 0.0
0.0 0.0 0.0

-188805.06423917972 1.7843738043842413e7 0.0
1.7843738043842413e7 -9.912336542094488e6 0.0
0.0 0.0 0.0

-7.510724468859043e6 2.557850546918126e7 0.0
2.557850546918126e7 -7.954901894103296e6 0.0
0.0 0.0 0.0

-1.774311668698655e6 1.860971842800148e7 0.0
1.860971842800148e7 -1.2365230590235232e6 0.0
0.0 0.0 0.0

1.5034665235531881e7 2.6935202467249528e7 0.0
2.6935202467249528e7 -1.0799523106022375e6 0.0
0.0 0.0 0.0

-3.838362278913655e6 4.796798638954135e6 0.0
4.796798638954135e6 1.4510692155607794e6 0.0
0.0 0.0 0.0

1.9394041845806167e6 4.866048008884133e6 0.0
4.866048008884133e6 -3.815104301514087e7 0.0
0.0 0.0 0.0

-5.064853859825416e6 3.076507759344546e6 0.0
3.076507759344546e6 1.0657661633320281e7 0.0
0.0 0.0 0.0

-3.004927411237391e6 1.1359080092679331e7 0.0
1.1359080092679331e7 -1.390215108645422e6 0.0
0.0 0.0 0.0

-2.0973927205808074e6 1.939125969769412e7 0.0
1.939125969769412e7 -6.370037028648053e6 0.0
0.0 0.0 0.0

-9.494060285082303e6 6.984128282911213e6 0.0
6.984128282911213e6 1.816522470569456e7 0.0
0.0 0.0 0.0

2.350910193959883e6 7.208583822927503e6 0.0
7.208583822927503e6 -1.1341105673294254e7 0.0
0.0 0.0 0.0

728093.1002292214 2.3357877608691804e7 0.0
2.3357877608691804e7 -1.5617567777346909e7 0.0
0.0 0.0 0.0

-2.2104261038286416e6 1.056231192364078e7 0.0
1.056231192364078e7 -3.436089191805143e6 0.0
0.0 0.0 0.0

1.3403791280534305e6 5.735921973866424e7 0.0
5.735921973866424e7 3.165462090552088e6 0.0
0.0 0.0 0.0

1.6269108719753856e7 2.592317944481832e7 0.0
2.592317944481832e7 1.3962827275240282e7 0.0
0.0 0.0 0.0

-1.3969654417241625e6 9.728374544904953e6 0.0
9.728374544904953e6 -5.047425043589701e6 0.0
0.0 0.0 0.0

-4.747320740309093e6 1.6382599917126274e7 0.0
1.6382599917126274e7 1.681888652916537e7 0.0
0.0 0.0 0.0

1.637198130588933e6 4.464880441013329e6 0.0
4.464880441013329e6 -6.889229776777812e6 0.0
0.0 0.0 0.0

-9.14985607539704e6 1.0686316549531914e7 0.0
1.0686316549531914e7 3.692619839502846e7 0.0
0.0 0.0 0.0

-670319.4234528563 8.885929364949724e6 0.0
8.885929364949724e6 -6.6656110651836125e6 0.0
0.0 0.0 0.0

-9.801725569592476e6 4.188618234601348e7 0.0
4.188618234601348e7 4.81144797796195e6 0.0
0.0 0.0 0.0

8.251388999550171e6 3.285972631873132e7 0.0
3.285972631873132e7 -5.847731180328554e6 0.0
0.0 0.0 0.0

2.8733595757019464e6 6.856588054219564e6 0.0
6.856588054219564e6 -2.734417053298872e7 0.0
0.0 0.0 0.0

-166559.94502807315 2.3475181179822445e7 0.0
2.3475181179822445e7 -1.1907522807609942e7 0.0
0.0 0.0 0.0

1.4811427941118218e6 8.123359002715213e6 0.0
8.123359002715213e6 -3.885582884147398e7 0.0
0.0 0.0 0.0

-2.311405638714091e6 2.0159311610711686e7 0.0
2.0159311610711686e7 -4.789036140597294e6 0.0
0.0 0.0 0.0

3.9883182118476126e6 2.31966710404454e7 0.0
2.31966710404454e7 1.4589804566364348e7 0.0
0.0 0.0 0.0

1.172313459585794e7 3.3040102785178676e7 0.0
3.3040102785178676e7 -5.738865769138837e6 0.0
0.0 0.0 0.0

634738.2362031816 1.0566469563830175e7 0.0
1.0566469563830175e7 -8.182719066603759e6 0.0
0.0 0.0 0.0

2.1312811912251012e6 9.422873070963398e6 0.0
9.422873070963398e6 -1.4787987084512651e7 0.0
0.0 0.0 0.0

-881737.8781000195 1.3736658942766573e7 0.0
1.3736658942766573e7 -3.8002390352374013e6 0.0
0.0 0.0 0.0

-9.58604756839075e6 3.6136541484001115e7 0.0
3.6136541484001115e7 5.094147914380818e6 0.0
0.0 0.0 0.0

-3.362904094165233e6 1.7418362254214153e7 0.0
1.7418362254214153e7 2.514540671667624e6 0.0
0.0 0.0 0.0

1.051309738650475e7 3.917081057789029e7 0.0
3.917081057789029e7 -4.31939216376194e6 0.0
0.0 0.0 0.0

-1.3577538808145768e6 1.9657119340535697e7 0.0
1.9657119340535697e7 -3.9603482122764126e6 0.0
0.0 0.0 0.0

7.378111474899654e6 2.0947325401286904e7 0.0
2.0947325401286904e7 3.058000392059429e7 0.0
0.0 0.0 0.0

-6.422140015680655e6 2.516519813600607e7 0.0
2.516519813600607e7 -5.148958607325363e6 0.0
0.0 0.0 0.0

-704856.7555546027 2.9072083962429333e7 0.0
2.9072083962429333e7 -860240.6783300483 0.0
0.0 0.0 0.0

-1.1977669720522915e6 2.267915638547589e7 0.0
2.267915638547589e7 -1.535775704708535e7 0.0
0.0 0.0 0.0

-2.623288533358462e6 1.5524588474796703e7 0.0
1.5524588474796703e7 -4.5967975385888964e7 0.0
0.0 0.0 0.0

-4.0271904645960256e6 1.890779052934087e7 0.0
1.890779052934087e7 3.6662003185212046e7 0.0
0.0 0.0 0.0

251964.5424238108 1.2947912423866227e7 0.0
1.2947912423866227e7 -1.5038971788441198e7 0.0
0.0 0.0 0.0

-9.49363512057447e6 1.1268944250758955e7 0.0
1.1268944250758955e7 3.407951303856695e7 0.0
0.0 0.0 0.0

1.4633640260177944e6 1.4007518088826956e7 0.0
1.4007518088826956e7 -3.0802165406282432e7 0.0
0.0 0.0 0.0

-2.3382338844027296e6 1.430563892712166e7 0.0
1.430563892712166e7 -4.697348854321587e6 0.0
0.0 0.0 0.0

2.7130029152823873e6 4.207575417555479e6 0.0
4.207575417555479e6 -1.5204366290464157e7 0.0
0.0 0.0 0.0

-2.6672988138087336e6 2.177122240661398e7 0.0
2.177122240661398e7 1.0610559629025487e6 0.0
0.0 0.0 0.0

-2.3471168805040587e6 2.7930547841839463e7 0.0
2.7930547841839463e7 2.2432833520131046e6 0.0
0.0 0.0 0.0

2.4732294454041123e6 3.391217760355752e7 0.0
3.391217760355752e7 -4.402490210524173e6 0.0
0.0 0.0 0.0

-2.241639560352948e6 2.136960817183559e7 0.0
2.136960817183559e7 -4.449626044489377e6 0.0
0.0 0.0 0.0

2.3482216651631524e6 6.361000872091528e6 0.0
6.361000872091528e6 -1.0221675745645141e7 0.0
0.0 0.0 0.0

9.833017073053427e6 3.305718521219794e7 0.0
3.305718521219794e7 -5.839860184339891e6 0.0
0.0 0.0 0.0

-9.77302465861209e6 1.3121976482592186e7 0.0
1.3121976482592186e7 2.7042887368537664e7 0.0
0.0 0.0 0.0

716501.246613713 8.058205300402369e6 0.0
8.058205300402369e6 -4.860044935674545e7 0.0
0.0 0.0 0.0

5.2733393876296105e6 2.5392662948418166e7 0.0
2.5392662948418166e7 1.4138768080676604e7 0.0
0.0 0.0 0.0

-3.374151852427514e6 3.1103473685932633e7 0.0
3.1103473685932633e7 4.479765200111235e6 0.0
0.0 0.0 0.0

-3.306629035163487e6 2.0879101657266293e7 0.0
2.0879101657266293e7 -1.386291331877923e7 0.0
0.0 0.0 0.0

-2.190200297312971e6 1.9444942013948288e7 0.0
1.9444942013948288e7 3.814219352900954e7 0.0
0.0 0.0 0.0

-5.703867459050132e6 2.1686905317239504e7 0.0
2.1686905317239504e7 -1.9012891744740836e7 0.0
0.0 0.0 0.0

-675852.2711343169 1.4448401477287818e7 0.0
1.4448401477287818e7 -1.204152410350833e7 0.0
0.0 0.0 0.0

3.097111451190187e6 2.1702037323578436e7 0.0
2.1702037323578436e7 2.031465560363804e7 0.0
0.0 0.0 0.0

1.3068247493300862e6 5.3162685984240994e7 0.0
5.3162685984240994e7 2.448544527850589e6 0.0
0.0 0.0 0.0

-4.902752272841511e6 2.5186513429748595e7 0.0
2.5186513429748595e7 -1.1700704763509823e7 0.0
0.0 0.0 0.0

6.989735550276735e7 2.2693286949988656e7 0.0
2.2693286949988656e7 6.228073626587089e6 0.0
0.0 0.0 0.0

-2.2011859842191874e6 1.6296527666357769e7 0.0
1.6296527666357769e7 -5.7900311143492935e6 0.0
0.0 0.0 0.0

-2.571365594763002e6 2.2319058236745898e7 0.0
2.2319058236745898e7 -322397.5723775604 0.0
0.0 0.0 0.0

697042.6779107088 1.647591447482416e7 0.0
1.647591447482416e7 -1.9544144753684547e7 0.0
0.0 0.0 0.0

3.030593268642516e6 3.468471802066453e7 0.0
3.468471802066453e7 -4.404593837189846e6 0.0
0.0 0.0 0.0

1.5485885183540545e6 6.368853596683906e6 0.0
6.368853596683906e6 -4.233009926225265e7 0.0
0.0 0.0 0.0

-454556.14611731796 9.488657226456555e6 0.0
9.488657226456555e6 -7.964429775751125e6 0.0
0.0 0.0 0.0

1.1472825846714368e6 1.284972501467704e7 0.0
1.284972501467704e7 -2.2755263064427022e7 0.0
0.0 0.0 0.0

-3.458005992548992e6 2.4901112028887484e7 0.0
2.4901112028887484e7 1.6449828440567058e7 0.0
0.0 0.0 0.0

-2.030641117415368e6 2.3688548905854e7 0.0
2.3688548905854e7 -3.834477196519162e6 0.0
0.0 0.0 0.0

612573.0464242261 2.213210985659488e7 0.0
2.213210985659488e7 6.717401820488085e6 0.0
0.0 0.0 0.0

-1.212167875934938e6 1.5129634506063819e7 0.0
1.5129634506063819e7 -3.490753350255444e6 0.0
0.0 0.0 0.0

-1.3296489996319094e6 2.2081473449509747e7 0.0
2.2081473449509747e7 -3.348036886284009e6 0.0
0.0 0.0 0.0

2.814441073649573e6 2.2896322171515405e7 0.0
2.2896322171515405e7 -4.325461094674134e6 0.0
0.0 0.0 0.0

1.8266737029739472e6 5.017242670264507e7 0.0
5.017242670264507e7 2.2684775029052286e6 0.0
0.0 0.0 0.0

-1.2477713745079273e6 2.322976602322283e7 0.0
2.322976602322283e7 -3.0686733041262585e6 0.0
0.0 0.0 0.0

-4.0892106459933682e6 7.7793666874182355e6 0.0
7.7793666874182355e6 8.478342191280909e6 0.0
0.0 0.0 0.0

3.2831656284236968e7 1.5002077542716175e7 0.0
1.5002077542716175e7 2.3574110173999397e6 0.0
0.0 0.0 0.0

-1.2407915161529854e6 1.0798234475825122e7 0.0
1.0798234475825122e7 -6.052102165755138e7 0.0
0.0 0.0 0.0

-1.4692213027195516e6 2.893753234906705e7 0.0
2.893753234906705e7 2.191302593985928e6 0.0
0.0 0.0 0.0

-6.0675756304800445e6 9.386412831751538e6 0.0
9.386412831751538e6 1.2840130391671956e7 0.0
0.0 0.0 0.0

-1.749790248592507e6 1.557331986865216e7 0.0
1.557331986865216e7 -7.365280691963658e6 0.0
0.0 0.0 0.0

-310946.83537842426 1.312106967630134e7 0.0
1.312106967630134e7 -1.2485822338098904e7 0.0
0.0 0.0 0.0

1.6500221620127836e6 4.766346564620482e7 0.0
4.766346564620482e7 1.3411190897123e6 0.0
0.0 0.0 0.0

1.0564839455420598e6 1.1405177973015986e7 0.0
1.1405177973015986e7 -3.637083723159722e7 0.0
0.0 0.0 0.0

-1.0704396215757027e7 6.670783214544788e6 0.0
6.670783214544788e6 2.925246619473827e7 0.0
0.0 0.0 0.0

-6.410371175213577e6 2.4366779970852036e7 0.0
2.4366779970852036e7 -1.5376332703057049e7 0.0
0.0 0.0 0.0

-8.319260168310508e6 8.70028141771109e6 0.0
8.70028141771109e6 1.6721071023295928e7 0.0
0.0 0.0 0.0

-1.31569919470707e6 2.179045839785903e7 0.0
2.179045839785903e7 -9.253100403016763e6 0.0
0.0 0.0 0.0

-2.27536103836048e6 2.388736259795041e7 0.0
2.388736259795041e7 -1.3341479172857767e6 0.0
0.0 0.0 0.0

521551.9247067142 1.808623037807995e7 0.0
1.808623037807995e7 -2.455643759178809e7 0.0
0.0 0.0 0.0

1.155466579272412e6 4.557549082287449e7 0.0
4.557549082287449e7 928549.8453195344 0.0
0.0 0.0 0.0

-3.5495997153163673e6 2.5698850927548923e7 0.0
2.5698850927548923e7 1.4819946803902518e7 0.0
0.0 0.0 0.0

-1.1451795688682608e6 2.4341319091205485e7 0.0
2.4341319091205485e7 -2.82354436280332e6 0.0
0.0 0.0 0.0

1.4778070072485898e6 7.248723452397377e6 0.0
7.248723452397377e6 -4.0716611266052485e7 0.0
0.0 0.0 0.0

-3.7658479001925867e6 1.201454263090478e7 0.0
1.201454263090478e7 8.105427225213482e6 0.0
0.0 0.0 0.0

1.3660015567784028e6 4.39405083525667e7 0.0
4.39405083525667e7 928265.9931491073 0.0
0.0 0.0 0.0

65893.53422982246 9.725565029888254e6 0.0
9.725565029888254e6 -6.3909026221599616e7 0.0
0.0 0.0 0.0

1.4145468619655643e6 4.2578769320176855e7 0.0
4.2578769320176855e7 743029.539085778 0.0
0.0 0.0 0.0

1.2521272527479972e6 4.132443683318758e7 0.0
4.132443683318758e7 441158.5893441249 0.0
0.0 0.0 0.0

-1.1943182025216967e6 3.2201060315557566e7 0.0
3.2201060315557566e7 -961423.0832134441 0.0
0.0 0.0 0.0

-1.1133268966230303e6 3.3016299697566736e7 0.0
3.3016299697566736e7 -804478.9313723505 0.0
0.0 0.0 0.0

-1.087231893835936e6 3.382639502593719e7 0.0
3.382639502593719e7 -705587.459007166 0.0
0.0 0.0 0.0

-1.0456190037076129e6 3.459701431309971e7 0.0
3.459701431309971e7 -692042.5108967472 0.0
0.0 0.0 0.0

-1.0330884737239644e6 3.537850507982736e7 0.0
3.537850507982736e7 -607821.513683808 0.0
0.0 0.0 0.0

-1.03588765602637e6 3.6202369060518794e7 0.0
3.6202369060518794e7 -674626.3479702428 0.0
0.0 0.0 0.0

-5.393884253533472e6 1.6205410337875161e7 0.0
1.6205410337875161e7 1.1772286643855266e7 0.0
0.0 0.0 0.0

-898949.7389173035 3.701956100251919e7 0.0
3.701956100251919e7 -564541.1795380788 0.0
0.0 0.0 0.0

-1.0418805051033649e6 3.788782775420406e7 0.0
3.788782775420406e7 -548380.8005685882 0.0
0.0 0.0 0.0

-6.087539916446727e6 1.8907351166451585e7 0.0
1.8907351166451585e7 2.4892784087050814e7 0.0
0.0 0.0 0.0

1.0722686402921826e6 4.020439000095889e7 0.0
4.020439000095889e7 401896.72207448084 0.0
0.0 0.0 0.0

-1.2277170505721571e6 3.8700342417395405e7 0.0
3.8700342417395405e7 -506062.5698619436 0.0
0.0 0.0 0.0

-1.114719177431633e6 3.97123664924424e7 0.0
3.97123664924424e7 -353075.7234828084 0.0
0.0 0.0 0.0

961988.522446428 3.9227661053668655e7 0.0
3.9227661053668655e7 319500.4412005686 0.0
0.0 0.0 0.0

-1.3078185684436774e6 1.838625604592569e7 0.0
1.838625604592569e7 -4.271787324198037e6 0.0
0.0 0.0 0.0

-1.3848197818978305e6 4.0784133747000694e7 0.0
4.0784133747000694e7 -406209.7304143393 0.0
0.0 0.0 0.0

579393.8387147869 3.825846143522378e7 0.0
3.825846143522378e7 80595.79785441089 0.0
0.0 0.0 0.0

817458.0968485322 3.7388446748179026e7 0.0
3.7388446748179026e7 95858.28074729576 0.0
0.0 0.0 0.0

538928.998187107 3.6641680385266475e7 0.0
3.6641680385266475e7 26288.644098803983 0.0
0.0 0.0 0.0

260695.11829698586 3.576676375864858e7 0.0
3.576676375864858e7 223.59170134845772 0.0
0.0 0.0 0.0

176701.49035827734 3.501052429098227e7 0.0
3.501052429098227e7 -48006.17118255815 0.0
0.0 0.0 0.0

-87810.44364713198 3.421660421950213e7 0.0
3.421660421950213e7 -90076.08174466963 0.0
0.0 0.0 0.0

-110514.3549711557 3.345166370079162e7 0.0
3.345166370079162e7 -116735.17185881166 0.0
0.0 0.0 0.0

-202766.89046790026 3.265661852744097e7 0.0
3.265661852744097e7 -236474.15650034347 0.0
0.0 0.0 0.0

-1.2808797184773986e6 2.7259035181498904e7 0.0
2.7259035181498904e7 -4.0379676244354527e6 0.0
0.0 0.0 0.0

-3.9424869566580765e6 1.9457113255892612e7 0.0
1.9457113255892612e7 3.448709475512028e7 0.0
0.0 0.0 0.0

-1.7620007339900464e6 4.189398378575342e7 0.0
4.189398378575342e7 -330108.2291585497 0.0
0.0 0.0 0.0

1.816435597107103e6 8.969374187496522e6 0.0
8.969374187496522e6 -2.762196060020375e7 0.0
0.0 0.0 0.0

-1.65647048770044e6 2.6481402485456094e7 0.0
2.6481402485456094e7 3.055234956214774e6 0.0
0.0 0.0 0.0

-2.322046360064323e6 4.325191274250326e7 0.0
4.325191274250326e7 -150096.11784546345 0.0
0.0 0.0 0.0

-9.273868263665756e6 1.4326030471775612e7 0.0
1.4326030471775612e7 2.575975022726301e7 0.0
0.0 0.0 0.0

-3.1169297832776224e6 4.481504854239152e7 0.0
4.481504854239152e7 -216697.73855618585 0.0
0.0 0.0 0.0

-9.78065627276553e6 1.256562901497516e7 0.0
1.256562901497516e7 2.9227103336153798e7 0.0
0.0 0.0 0.0

-4.1162640852440167e6 4.6555070336588524e7 0.0
4.6555070336588524e7 -338881.85613303503 0.0
0.0 0.0 0.0

675101.7661866229 2.1641056047204666e7 0.0
2.1641056047204666e7 -1.8578542846135456e7 0.0
0.0 0.0 0.0

1.953321382039803e6 1.2344420278523458e7 0.0
1.2344420278523458e7 -2.1947062386033848e7 0.0
0.0 0.0 0.0

-2.170799926751841e6 1.5763241121257376e7 0.0
1.5763241121257376e7 -4.257294022235507e7 0.0
0.0 0.0 0.0

-1.3628265481654832e6 2.3919142437098622e7 0.0
2.3919142437098622e7 -1.6825189122527633e6 0.0
0.0 0.0 0.0

-1.2386813352776775e6 1.8294020169679258e7 0.0
1.8294020169679258e7 -1.0630702977086043e7 0.0
0.0 0.0 0.0

-1.0205481066218212e6 2.5800675616754815e7 0.0
2.5800675616754815e7 -6.614373105389157e6 0.0
0.0 0.0 0.0

658353.659711876 2.18863077074003e7 0.0
2.18863077074003e7 -1.8573728711562358e7 0.0
0.0 0.0 0.0

2.795763941211568e6 1.763036366793369e6 0.0
1.763036366793369e6 -3.449354728364433e7 0.0
0.0 0.0 0.0

-3.120540035901005e6 1.5226925839970255e7 0.0
1.5226925839970255e7 7.568132408007229e6 0.0
0.0 0.0 0.0

-5.196815932952773e6 4.8721709193490624e7 0.0
4.8721709193490624e7 -1494.0820408009458 0.0
0.0 0.0 0.0

1.6684474351332001e6 1.336263835375067e7 0.0
1.336263835375067e7 -1.830680981217157e7 0.0
0.0 0.0 0.0

-9.35115913497389e6 1.2767078212221488e7 0.0
1.2767078212221488e7 3.2546118814666193e7 0.0
0.0 0.0 0.0

-1.3612877564243758e6 2.0892960596576825e7 0.0
2.0892960596576825e7 -3.656161444672968e6 0.0
0.0 0.0 0.0

1.2063561870995797e6 3.5531442416680716e7 0.0
3.5531442416680716e7 -1.6912408267333244e6 0.0
0.0 0.0 0.0

1.919027308714565e6 8.079279086194238e6 0.0
8.079279086194238e6 -2.9147115127483055e7 0.0
0.0 0.0 0.0

-1.4251833090010671e7 4.2253910216314286e7 0.0
4.2253910216314286e7 5.041186083769132e6 0.0
0.0 0.0 0.0

-4.771041878126383e6 1.814933431970789e7 0.0
1.814933431970789e7 1.297533076622373e7 0.0
0.0 0.0 0.0

-1.890724550779424e7 3.0645070117143877e7 0.0
3.0645070117143877e7 3.091447106220358e6 0.0
0.0 0.0 0.0

3.4667282112269746e6 2.1145672957826007e7 0.0
2.1145672957826007e7 1.768569352994522e7 0.0
0.0 0.0 0.0

-7.6512287755109e6 5.17396477229198e7 0.0
5.17396477229198e7 221736.5237405384 0.0
0.0 0.0 0.0

784338.5488309804 1.2915484723183695e7 0.0
1.2915484723183695e7 -3.496478176586575e7 0.0
0.0 0.0 0.0

-3.838635118147137e6 1.7953957783437803e7 0.0
1.7953957783437803e7 7.715464994801269e6 0.0
0.0 0.0 0.0

1.6662599224657076e6 2.0437676234064884e7 0.0
2.0437676234064884e7 5.554200214400115e6 0.0
0.0 0.0 0.0

1.6105457172687426e6 1.0073116242593942e7 0.0
1.0073116242593942e7 -2.3900966615246773e7 0.0
0.0 0.0 0.0

1.6074818648575626e6 2.3569252849327758e7 0.0
2.3569252849327758e7 5.015398394243937e6 0.0
0.0 0.0 0.0

1.723645325695252e6 9.861721074323546e6 0.0
9.861721074323546e6 -2.6148292548895203e7 0.0
0.0 0.0 0.0

-151003.78514167992 1.905153082209751e7 0.0
1.905153082209751e7 -3.3302682107552104e6 0.0
0.0 0.0 0.0

-1.4591133854286934e6 2.454227164666189e7 0.0
2.454227164666189e7 -330820.8120675094 0.0
0.0 0.0 0.0

-1.9029848983499347e6 2.4787858789885964e7 0.0
2.4787858789885964e7 -3.564302935588864e6 0.0
0.0 0.0 0.0

1.2801209267024724e6 1.0549142363452945e7 0.0
1.0549142363452945e7 -1.9180961935804725e7 0.0
0.0 0.0 0.0

3.159052141325e7 2.653478960530165e7 0.0
2.653478960530165e7 1.1953255266517742e7 0.0
0.0 0.0 0.0

1.3544699172334643e6 1.4601636393439317e7 0.0
1.4601636393439317e7 -1.7827546529896587e7 0.0
0.0 0.0 0.0

-526722.7552523022 1.860871251518476e7 0.0
1.860871251518476e7 -8.34390049780941e6 0.0
0.0 0.0 0.0

-5.912225055752194e6 2.625925390794958e7 0.0
2.625925390794958e7 7.294729733369736e6 0.0
0.0 0.0 0.0

452065.8938164562 1.3374678064614363e7 0.0
1.3374678064614363e7 -1.009359804462719e7 0.0
0.0 0.0 0.0

-3.801968608481912e6 2.6540182140480425e7 0.0
2.6540182140480425e7 1.3105324816685164e7 0.0
0.0 0.0 0.0

6.411728954184063e6 1.986509522136103e7 0.0
1.986509522136103e7 3.212911403134675e7 0.0
0.0 0.0 0.0

-7.643782455226377e6 1.5518630419317065e7 0.0
1.5518630419317065e7 2.1933685029377256e7 0.0
0.0 0.0 0.0

-1.1314270575064287e7 5.52014598782784e7 0.0
5.52014598782784e7 -193200.74777301867 0.0
0.0 0.0 0.0

3.448545297519535e6 1.9957573526281156e7 0.0
1.9957573526281156e7 5.1538005840011306e7 0.0
0.0 0.0 0.0

-2.9220089493781566e6 1.8626206422070295e7 0.0
1.8626206422070295e7 -701721.6139055407 0.0
0.0 0.0 0.0

1.3995446562720485e7 2.362833825707509e7 0.0
2.362833825707509e7 5.126355893059645e6 0.0
0.0 0.0 0.0

1.9800162118447796e6 7.470465876357063e6 0.0
7.470465876357063e6 -3.304355039828237e7 0.0
0.0 0.0 0.0

-45924.39518396184 1.3205882914034192e7 0.0
1.3205882914034192e7 -4.009668774807035e7 0.0
0.0 0.0 0.0

-3.7649729548422787e6 2.1522499213019393e7 0.0
2.1522499213019393e7 1.4316721195263429e7 0.0
0.0 0.0 0.0

-1.7687465606604908e7 2.89541125736176e7 0.0
2.89541125736176e7 -1.3278294353116749e7 0.0
0.0 0.0 0.0

-1.945622507325946e6 2.1218058924940176e7 0.0
2.1218058924940176e7 1.9976441797779868e6 0.0
0.0 0.0 0.0

-286387.24495665636 1.8898928506094225e7 0.0
1.8898928506094225e7 -1.4860918110196415e7 0.0
0.0 0.0 0.0

-1.8662506082227297e7 4.008447373497345e7 0.0
4.008447373497345e7 6.391433428452178e6 0.0
0.0 0.0 0.0

1.1195517229758408e6 1.339630387129063e7 0.0
1.339630387129063e7 -2.356006076162927e7 0.0
0.0 0.0 0.0

-1.8616362813654402e6 2.2395595394182846e7 0.0
2.2395595394182846e7 2.0319572516104719e6 0.0
0.0 0.0 0.0

-4.750427797211265e6 1.079969418112835e7 0.0
1.079969418112835e7 1.0481347225419544e7 0.0
0.0 0.0 0.0

-2.4424758097055694e6 2.118489793542935e7 0.0
2.118489793542935e7 1.2436298082078706e7 0.0
0.0 0.0 0.0

-2.9285284371653046e6 8.549564326865943e7 0.0
8.549564326865943e7 4.09716193755354e6 0.0
0.0 0.0 0.0

-6.343412391637933e6 1.6227253007286396e7 0.0
1.6227253007286396e7 2.0242040063753642e7 0.0
0.0 0.0 0.0

-5.306362613944942e6 8.166921548676734e6 0.0
8.166921548676734e6 4.357157744051235e6 0.0
0.0 0.0 0.0

-1.1162121498182653e6 2.6089571749193035e7 0.0
2.6089571749193035e7 -1.2688464285420508e6 0.0
0.0 0.0 0.0

-2.4685257095660185e6 2.576582983287627e7 0.0
2.576582983287627e7 4.702655068194258e6 0.0
0.0 0.0 0.0

-139663.32935441379 2.2823408919462733e7 0.0
2.2823408919462733e7 -9.092248078532416e6 0.0
0.0 0.0 0.0

-1.977305100824336e6 2.5466232814592555e7 0.0
2.5466232814592555e7 -2.232014152562346e6 0.0
0.0 0.0 0.0

-1.0145840095551101e7 3.3229395413352703e6 0.0
3.3229395413352703e6 1.919924817502651e7 0.0
0.0 0.0 0.0

-80942.50230399333 2.1535347003560778e7 0.0
2.1535347003560778e7 -4.703415465552623e6 0.0
0.0 0.0 0.0

-2.5744311625175653e6 2.6764326288118754e7 0.0
2.6764326288118754e7 4.705659817121455e6 0.0
0.0 0.0 0.0

625536.4023614395 1.2155381472858714e7 0.0
1.2155381472858714e7 -1.6431757456303779e7 0.0
0.0 0.0 0.0

959463.2701228145 2.2052400245894823e7 0.0
2.2052400245894823e7 -3.36879483168583e6 0.0
0.0 0.0 0.0

-2.231351735525313e7 2.935730426474683e7 0.0
2.935730426474683e7 356411.2286418751 0.0
0.0 0.0 0.0

-4.934429942917162e6 1.69236177557308e7 0.0
1.69236177557308e7 1.8230331830300428e7 0.0
0.0 0.0 0.0

556574.0961371632 2.096133621964417e7 0.0
2.096133621964417e7 -2.0069684157676987e7 0.0
0.0 0.0 0.0

-2.8830712450534687e6 2.720519336240044e7 0.0
2.720519336240044e7 7.031755517866433e6 0.0
0.0 0.0 0.0

3.2159280050745895e6 2.3636121727166497e6 0.0
2.3636121727166497e6 -1.796363252907967e7 0.0
0.0 0.0 0.0

-5.876484455933027e6 -4.362565911198787e6 0.0
-4.362565911198787e6 1.0031535875355551e7 0.0
0.0 0.0 0.0

-4.1451946798003293e6 -3.3682531444754545e6 0.0
-3.3682531444754545e6 7.020340677014053e6 0.0
0.0 0.0 0.0

-8.075122010311671e6 -2.7407693016817933e6 0.0
-2.7407693016817933e6 3.338616383719597e7 0.0
0.0 0.0 0.0

-3.1391201161507596e6 -1.1767627595654798e6 0.0
-1.1767627595654798e6 3.4090605420170706e6 0.0
0.0 0.0 0.0

-8.1391816244627945e6 -3.055409602664358e6 0.0
-3.055409602664358e6 3.0680875604043372e7 0.0
0.0 0.0 0.0

3.3262566379064396e6 2.5615719766543573e6 0.0
2.5615719766543573e6 -1.3629761304854749e7 0.0
0.0 0.0 0.0

-7.180101021324075e6 -5.079711210878632e6 0.0
-5.079711210878632e6 1.7201573572740164e7 0.0
0.0 0.0 0.0

-8.353684264289783e6 -4.278485672247798e6 0.0
-4.278485672247798e6 2.3299598192915358e7 0.0
0.0 0.0 0.0

-1.0114171895312562e6 978466.7975381599 0.0
978466.7975381599 -126994.32370168995 0.0
0.0 0.0 0.0

-8.30055382290253e6 -3.4158486636972115e6 0.0
-3.4158486636972115e6 2.7912669082175095e7 0.0
0.0 0.0 0.0

2.708117995387613e6 2.727025360537566e6 0.0
2.727025360537566e6 -9.17842063461378e6 0.0
0.0 0.0 0.0

1.4842165914614268e6 2.5495233662459683e6 0.0
2.5495233662459683e6 -4.757303224562978e6 0.0
0.0 0.0 0.0

-6.02909773729628e6 -4.888407152368344e6 0.0
-4.888407152368344e6 1.2234062965966318e7 0.0
0.0 0.0 0.0

2.9914292139718644e6 1.829700390554781e6 0.0
1.829700390554781e6 -3.0880815379857533e7 0.0
0.0 0.0 0.0

2.974900778531613e6 1.748114501729279e6 0.0
1.748114501729279e6 -3.359597474783553e7 0.0
0.0 0.0 0.0

3.119018359582316e6 1.8538782789567509e6 0.0
1.8538782789567509e6 -2.8118771280847583e7 0.0
0.0 0.0 0.0

3.4817098785103373e6 2.128534031856409e6 0.0
2.128534031856409e6 -2.3861305919294957e7 0.0
0.0 0.0 0.0

-7.2365214665876115e6 -5.063189334127031e6 0.0
-5.063189334127031e6 1.5246483085391333e7 0.0
0.0 0.0 0.0

-8.077413461346272e6 -3.2071090171490703e6 0.0
-3.2071090171490703e6 2.9182933306416966e7 0.0
0.0 0.0 0.0

2.979118496713266e6 1.841228683674583e6 0.0
1.841228683674583e6 -3.2364172480595935e7 0.0
0.0 0.0 0.0

3.1720320828065397e6 2.2612594474611743e6 0.0
2.2612594474611743e6 -2.094505345089756e7 0.0
0.0 0.0 0.0

3.3047742714409847e6 2.2170349190673744e6 0.0
2.2170349190673744e6 -2.2378002781237792e7 0.0
0.0 0.0 0.0

3.3871310802226793e6 2.2887090713489084e6 0.0
2.2887090713489084e6 -1.9547653467097692e7 0.0
0.0 0.0 0.0

1.0542250780652547e6 1.9091868412270304e7 0.0
1.9091868412270304e7 -1.8011850751361027e7 0.0
0.0 0.0 0.0

-8.505468095326921e6 1.5293475112958148e7 0.0
1.5293475112958148e7 2.447683376995209e7 0.0
0.0 0.0 0.0

-1.03052270620017e7 9.850017323755827e6 0.0
9.850017323755827e6 3.226246437917508e7 0.0
0.0 0.0 0.0

-3.9182851746718213e6 2.7449513560159177e7 0.0
2.7449513560159177e7 1.1660584001004707e7 0.0
0.0 0.0 0.0

-1.859357760146846e6 1.9006737264941767e7 0.0
1.9006737264941767e7 -2.9113855480340336e7 0.0
0.0 0.0 0.0

-2.788787401754588e6 2.2458731785509367e7 0.0
2.2458731785509367e7 5.090519780545248e6 0.0
0.0 0.0 0.0

-1.7182242203520395e7 6.025331661963058e7 0.0
6.025331661963058e7 -578310.5646549389 0.0
0.0 0.0 0.0

-2.801941090066959e6 1.9899076960660372e7 0.0
1.9899076960660372e7 -552661.4698050104 0.0
0.0 0.0 0.0

-5.944969898274179e6 2.3010599597351994e7 0.0
2.3010599597351994e7 -1.761816104102521e7 0.0
0.0 0.0 0.0

1.2867135090643425e7 2.5983756061863877e7 0.0
2.5983756061863877e7 1.4007445983873505e7 0.0
0.0 0.0 0.0

-2.85464690543157e6 2.3860951767618123e7 0.0
2.3860951767618123e7 1.0000527295193661e7 0.0
0.0 0.0 0.0

-2.282252132862512e6 2.236496503691744e7 0.0
2.236496503691744e7 1.1849322002030388e7 0.0
0.0 0.0 0.0

1.318249697833269e6 2.3990273306109056e7 0.0
2.3990273306109056e7 -1.4232040188538125e7 0.0
0.0 0.0 0.0

-2.8161646237227526e6 2.0349242954843376e7 0.0
2.0349242954843376e7 1.4422393949160056e7 0.0
0.0 0.0 0.0

-1.9973440550320083e6 2.6124905051748656e7 0.0
2.6124905051748656e7 -1.03929728842504e6 0.0
0.0 0.0 0.0

-1.7958256027521205e6 2.408163809961713e7 0.0
2.408163809961713e7 -4.931214068828532e6 0.0
0.0 0.0 0.0

-5.62963628735736e6 1.6755440268818438e7 0.0
1.6755440268818438e7 1.3655099265852049e7 0.0
0.0 0.0 0.0

-886193.2252708371 1.7544816184786502e7 0.0
1.7544816184786502e7 -1.2155520675413609e7 0.0
0.0 0.0 0.0

-2.078197169213319e6 2.0628600762208376e7 0.0
2.0628600762208376e7 3.4770942434853767e6 0.0
0.0 0.0 0.0

974895.4288122766 1.1363371361545758e7 0.0
1.1363371361545758e7 -1.7786942801239546e7 0.0
0.0 0.0 0.0

-5.59798647120944e6 -4.61838795590355e6 0.0
-4.61838795590355e6 1.2753919931621343e7 0.0
0.0 0.0 0.0

-4.521772314570971e6 -3.547526723776352e6 0.0
-3.547526723776352e6 1.0612795996366318e7 0.0
0.0 0.0 0.0

-8.324429602778215e6 -3.4032863278354863e6 0.0
-3.4032863278354863e6 2.762537037183598e7 0.0
0.0 0.0 0.0

-6.492195410300157e6 -4.6697660041318e6 0.0
-4.6697660041318e6 1.4891563123888116e7 0.0
0.0 0.0 0.0

-7.211152909614328e6 -5.13631098131829e6 0.0
-5.13631098131829e6 1.642576356490797e7 0.0
0.0 0.0 0.0

2.9158231742211785e6 1.7822352783657524e6 0.0
1.7822352783657524e6 -3.1076967938597023e7 0.0
0.0 0.0 0.0

2.8440874705784917e6 1.736321693131313e6 0.0
1.736321693131313e6 -3.2196000543950737e7 0.0
0.0 0.0 0.0

-8.154374860015692e6 -3.164677485765349e6 0.0
-3.164677485765349e6 2.9327086717154756e7 0.0
0.0 0.0 0.0

3.2108718925270224e6 2.1729452905521025e6 0.0
2.1729452905521025e6 -2.2985422254719038e7 0.0
0.0 0.0 0.0

3.358420568452974e6 2.411622961436015e6 0.0
2.411622961436015e6 -1.8323282070113905e7 0.0
0.0 0.0 0.0

3.2616241220975397e6 2.2937054279040247e6 0.0
2.2937054279040247e6 -2.1036342598653235e7 0.0
0.0 0.0 0.0

3.336174635512932e6 2.2545317442945745e6 0.0
2.2545317442945745e6 -1.9646031330784023e7 0.0
0.0 0.0 0.0

-3.161083809459028e6 1.8736200023191284e7 0.0
1.8736200023191284e7 2.49734163675929e6 0.0
0.0 0.0 0.0

-3.9457175593582e6 1.9974991322636485e7 0.0
1.9974991322636485e7 3.2345776076278903e7 0.0
0.0 0.0 0.0

-3.588360700639015e6 1.995754605025943e7 0.0
1.995754605025943e7 1.7749406247748144e7 0.0
0.0 0.0 0.0

3.0012314439667426e6 6.094684029393515e6 0.0
6.094684029393515e6 -2.7016842276360087e7 0.0
0.0 0.0 0.0

222406.7215271839 2.9164110055888273e7 0.0
2.9164110055888273e7 -5.6778029647198375e6 0.0
0.0 0.0 0.0

359196.75472997595 2.2358466110650443e7 0.0
2.2358466110650443e7 2.537531995580262e7 0.0
0.0 0.0 0.0

-8.459669447107488e6 1.697109787443556e7 0.0
1.697109787443556e7 2.67271437620133e7 0.0
0.0 0.0 0.0

1.4344162329356857e6 1.091202137265252e7 0.0
1.091202137265252e7 -2.2450877773626074e7 0.0
0.0 0.0 0.0

1.1108961289086966e6 1.3919707889196437e7 0.0
1.3919707889196437e7 -2.420138396550288e7 0.0
0.0 0.0 0.0

-1.9226013409010596e6 2.2965997669810873e7 0.0
2.2965997669810873e7 -5.255409488361324e6 0.0
0.0 0.0 0.0

-422063.7931069359 2.189450721143618e7 0.0
2.189450721143618e7 2.8356518716390952e7 0.0
0.0 0.0 0.0

-3.4439699304588945e6 1.3709344986093748e7 0.0
1.3709344986093748e7 7.822510741111921e6 0.0
0.0 0.0 0.0

-284228.67184928106 2.359782174316223e7 0.0
2.359782174316223e7 -7.709000478587725e6 0.0
0.0 0.0 0.0

-1.016095762140599e6 2.8716242556076396e7 0.0
2.8716242556076396e7 185801.15957990935 0.0
0.0 0.0 0.0

1.023473127490948e6 1.5781478595073262e7 0.0
1.5781478595073262e7 -1.7535184356629334e7 0.0
0.0 0.0 0.0

-1.2575549874733896e6 2.5010248791826073e7 0.0
2.5010248791826073e7 -1.4681936459252047e6 0.0
0.0 0.0 0.0

3.369974756368344e6 5.172954148084796e6 0.0
5.172954148084796e6 575220.8467038134 0.0
0.0 0.0 0.0

-954042.3336359933 2.227481048440209e7 0.0
2.227481048440209e7 2.6527412196024317e7 0.0
0.0 0.0 0.0

-2729.74268813245 1.1843348928220548e7 0.0
1.1843348928220548e7 -4.782583511042708e7 0.0
0.0 0.0 0.0

437322.8457605988 1.2985295108750349e7 0.0
1.2985295108750349e7 -3.751122948603182e7 0.0
0.0 0.0 0.0

-376697.0358417714 2.248879304245889e7 0.0
2.248879304245889e7 -8.138577846564842e6 0.0
0.0 0.0 0.0

-1.1104427529618213e7 2.810496059223124e7 0.0
2.810496059223124e7 5.163206073413346e6 0.0
0.0 0.0 0.0

2.617849995363851e6 7.038473640646277e6 0.0
7.038473640646277e6 -1.3857524559793126e7 0.0
0.0 0.0 0.0

-2.0375047810376498e6 2.0011284533959027e7 0.0
2.0011284533959027e7 1.9725666988412617e6 0.0
0.0 0.0 0.0

-2.1175510208188766e6 2.4369975305087805e7 0.0
2.4369975305087805e7 -2.454938024900529e6 0.0
0.0 0.0 0.0

-1.0057441537057636e6 2.5433433225724444e7 0.0
2.5433433225724444e7 -2.5659527352316226e6 0.0
0.0 0.0 0.0

-2.289355720356196e6 1.9032589501555398e7 0.0
1.9032589501555398e7 -3.2017192979877163e7 0.0
0.0 0.0 0.0

946690.1437773351 1.3628370720254079e7 0.0
1.3628370720254079e7 -3.0868262117444225e7 0.0
0.0 0.0 0.0

-4.627172097258251e6 1.4497489563906508e7 0.0
1.4497489563906508e7 6.455929863435784e6 0.0
0.0 0.0 0.0

-3.671773131426097e6 2.112745825376292e7 0.0
2.112745825376292e7 1.3057798471985726e7 0.0
0.0 0.0 0.0

-418130.29284443334 1.7107368662194233e7 0.0
1.7107368662194233e7 -3.2749178768911257e7 0.0
0.0 0.0 0.0

-104301.300506206 2.645466265000912e7 0.0
2.645466265000912e7 -5.598402854294273e6 0.0
0.0 0.0 0.0

2.0289356582306451e6 2.6063650996244936e6 0.0
2.6063650996244936e6 -6.295343975052756e6 0.0
0.0 0.0 0.0

8.418733848643282e6 3.846206759398108e7 0.0
3.846206759398108e7 -3.989969292044147e6 0.0
0.0 0.0 0.0

2.2465029565861393e6 8.008279276510624e6 0.0
8.008279276510624e6 -1.2620611401159462e7 0.0
0.0 0.0 0.0

-1.1817803563222247e6 1.7071969778900392e7 0.0
1.7071969778900392e7 -4.580328257400508e6 0.0
0.0 0.0 0.0

-3.476494459574038e6 2.4302930415320326e7 0.0
2.4302930415320326e7 1.4735579933633422e7 0.0
0.0 0.0 0.0

-2.415423501210141e6 1.6746222604041211e7 0.0
1.6746222604041211e7 3.6574963471100973e6 0.0
0.0 0.0 0.0

-2.716187212102745e6 1.915815796679872e7 0.0
1.915815796679872e7 -2.1490861321966858e6 0.0
0.0 0.0 0.0

-2.173947400852702e6 2.5000385337768953e7 0.0
2.5000385337768953e7 -1.1308538779056524e6 0.0
0.0 0.0 0.0

-5.208062765853472e6 1.2903811591956573e7 0.0
1.2903811591956573e7 6.588632350122342e6 0.0
0.0 0.0 0.0

-9.65758610543643e6 1.0641061484638897e6 0.0
1.0641061484638897e6 1.8353028541516423e7 0.0
0.0 0.0 0.0

-2.705367490833386e6 1.994163544413316e7 0.0
1.994163544413316e7 1.3062691111482663e7 0.0
0.0 0.0 0.0

-2.0576266521679913e6 2.2324229923297394e7 0.0
2.2324229923297394e7 7.54365616437427e6 0.0
0.0 0.0 0.0

-51293.09564207494 8.004658942814332e6 0.0
8.004658942814332e6 -8.064910190861107e6 0.0
0.0 0.0 0.0

-3.9194197231124155e6 1.7795732262178715e7 0.0
1.7795732262178715e7 1.5954478251237925e7 0.0
0.0 0.0 0.0

-1.747349640962734e6 2.5881025681540262e7 0.0
2.5881025681540262e7 -3.31981493953007e6 0.0
0.0 0.0 0.0

2.214358256233586e6 1.0209950390209846e7 0.0
1.0209950390209846e7 -3.2653963081514712e7 0.0
0.0 0.0 0.0

-1.0211899275132913e7 2.841554729076551e7 0.0
2.841554729076551e7 4.325110245245827e6 0.0
0.0 0.0 0.0

-2.02685049200287e6 2.1809408812950008e7 0.0
2.1809408812950008e7 -5.604467463588804e6 0.0
0.0 0.0 0.0

1.7546908926305254e6 2.6933941343692984e6 0.0
2.6933941343692984e6 -5.195110128564579e6 0.0
0.0 0.0 0.0

-4.58622493686351e6 3.0095228609382905e7 0.0
3.0095228609382905e7 7.893996706699029e6 0.0
0.0 0.0 0.0

-1.0832166076282367e7 1.2454549639943218e7 0.0
1.2454549639943218e7 2.3180415743029475e7 0.0
0.0 0.0 0.0

-2.440984669806131e6 2.09066754098101e7 0.0
2.09066754098101e7 -3.2538129676275626e6 0.0
0.0 0.0 0.0

-701813.1031825084 2.7494267167601846e7 0.0
2.7494267167601846e7 -2.1747211168188695e6 0.0
0.0 0.0 0.0

-1.8349740511709165e6 2.8211612222025286e7 0.0
2.8211612222025286e7 -677958.2205747734 0.0
0.0 0.0 0.0

-1.6471180737370057e6 2.517460449326701e7 0.0
2.517460449326701e7 -4.637085580846273e6 0.0
0.0 0.0 0.0

-1.5442826356261703e6 2.5112264279481523e7 0.0
2.5112264279481523e7 942148.5809286758 0.0
0.0 0.0 0.0

2.9292502379082683e6 2.659382502810216e6 0.0
2.659382502810216e6 -1.0614187625717374e7 0.0
0.0 0.0 0.0

1.0532763293007787e6 3.1560697863205712e7 0.0
3.1560697863205712e7 -4.897771653713585e6 0.0
0.0 0.0 0.0

-1.968599617769054e7 2.0746967604021084e7 0.0
2.0746967604021084e7 -8.380341582495396e7 0.0
0.0 0.0 0.0

1.9508955808548514e7 2.1677659207496677e7 0.0
2.1677659207496677e7 8.113534442273478e7 0.0
0.0 0.0 0.0

699170.0525426837 1.723064596200026e7 0.0
1.723064596200026e7 -2.2841995778730776e7 0.0
0.0 0.0 0.0

-504226.52981682145 2.4345510961540975e7 0.0
2.4345510961540975e7 -6.3235962124346625e6 0.0
0.0 0.0 0.0

-5.562761524555733e6 1.905475105590919e7 0.0
1.905475105590919e7 -2.5534340425543576e7 0.0
0.0 0.0 0.0

-2.0812402749241155e6 2.0619017555702515e7 0.0
2.0619017555702515e7 -5.984740878975263e6 0.0
0.0 0.0 0.0

1.6483474375751559e6 2.4160619947740946e7 0.0
2.4160619947740946e7 -1.450761869631742e7 0.0
0.0 0.0 0.0

-1.5859922936152883e6 1.907042213167567e7 0.0
1.907042213167567e7 -9.08269124816631e6 0.0
0.0 0.0 0.0

-2.264061531021073e6 2.454673865164281e7 0.0
2.454673865164281e7 444.27957581169903 0.0
0.0 0.0 0.0

7652.04634603858 1.0336084053129753e7 0.0
1.0336084053129753e7 -5.980172888848522e7 0.0
0.0 0.0 0.0

-1.0808360891816193e7 2.6757717468915857e7 0.0
2.6757717468915857e7 3.4990689504473945e6 0.0
0.0 0.0 0.0

-2.6829846219424605e6 2.4502061309761718e7 0.0
2.4502061309761718e7 7.491512534747568e6 0.0
0.0 0.0 0.0

-873667.7074467989 1.9375164755903523e7 0.0
1.9375164755903523e7 -6.78415368203736e6 0.0
0.0 0.0 0.0

928311.8909091651 1.4388290761373105e7 0.0
1.4388290761373105e7 -2.910788521908942e7 0.0
0.0 0.0 0.0

1.892776866577413e7 2.2640349262413915e7 0.0
2.2640349262413915e7 6.3092561933924414e7 0.0
0.0 0.0 0.0

476579.84536841465 2.4888799351766154e7 0.0
2.4888799351766154e7 -9.923131487576403e6 0.0
0.0 0.0 0.0

-2.9266578747718215e7 6.826871691277787e7 0.0
6.826871691277787e7 -44317.68655657582 0.0
0.0 0.0 0.0

756218.5132081471 1.6492340457078824e7 0.0
1.6492340457078824e7 -2.4349096681273784e7 0.0
0.0 0.0 0.0

-889078.0033909269 2.4737701877550304e7 0.0
2.4737701877550304e7 -3.9137665419998434e6 0.0
0.0 0.0 0.0

2.735049046161143e6 2.7198283905507186e6 0.0
2.7198283905507186e6 -9.742247047847467e6 0.0
0.0 0.0 0.0

1.8118331868010797e6 8.898471941355491e6 0.0
8.898471941355491e6 -3.2022702221915297e7 0.0
0.0 0.0 0.0

-1.091690782658263e6 2.7740961605350155e7 0.0
2.7740961605350155e7 85573.40081969072 0.0
0.0 0.0 0.0

-9.180492333899952e6 1.9563608011553064e7 0.0
1.9563608011553064e7 -4.859357479535008e7 0.0
0.0 0.0 0.0

-1.1431879865983292e6 2.014371189859694e7 0.0
2.014371189859694e7 -5.207787138838809e6 0.0
0.0 0.0 0.0

994981.3999375859 1.3741788020639066e7 0.0
1.3741788020639066e7 -1.377088820486743e7 0.0
0.0 0.0 0.0

-2.560181469812867e6 1.7998395308050822e7 0.0
1.7998395308050822e7 7.02972478324983e6 0.0
0.0 0.0 0.0

889748.3333287649 1.5809632875791878e7 0.0
1.5809632875791878e7 -2.5935496377971344e7 0.0
0.0 0.0 0.0

-3.7614882944729934e6 1.7363280212062493e7 0.0
1.7363280212062493e7 6.057168463864537e6 0.0
0.0 0.0 0.0

452011.8431814611 2.0303768645767454e7 0.0
2.0303768645767454e7 -2.1594631391291797e7 0.0
0.0 0.0 0.0

-2.906212326972853e7 3.2883575739516802e7 0.0
3.2883575739516802e7 -1.3885307879509086e7 0.0
0.0 0.0 0.0

-7.89579687631194e6 -4.875791629371635e6 0.0
-4.875791629371635e6 1.9523026462098002e7 0.0
0.0 0.0 0.0

-2.974971491298828e6 1.7713853283923615e7 0.0
1.7713853283923615e7 1.0670319479778681e7 0.0
0.0 0.0 0.0

-1.3421086191594747e6 2.5617938569568165e7 0.0
2.5617938569568165e7 -150428.5352263329 0.0
0.0 0.0 0.0

-6.470076519430261e6 2.5184173624922875e6 0.0
2.5184173624922875e6 5.5224303862231895e7 0.0
0.0 0.0 0.0

1.4830434372077682e6 2.2319986316097382e7 0.0
2.2319986316097382e7 1.6783757290440645e7 0.0
0.0 0.0 0.0

-1.8649359301724979e6 1.9841801117381576e7 0.0
1.9841801117381576e7 -7.539703009191777e6 0.0
0.0 0.0 0.0

1.2295161133629307e6 2.4026916073745213e7 0.0
2.4026916073745213e7 -1.3403108857118852e7 0.0
0.0 0.0 0.0

-781231.3287923317 2.135077929526998e7 0.0
2.135077929526998e7 -1.1547753501069281e7 0.0
0.0 0.0 0.0

-1.5701628396584017e6 1.60406436460454e7 0.0
1.60406436460454e7 -8.74325954601086e6 0.0
0.0 0.0 0.0

-1.4005682035403627e6 2.3678667176555254e7 0.0
2.3678667176555254e7 -7.368294443363467e6 0.0
0.0 0.0 0.0

-3.0584761541176224e6 2.1097496260562394e7 0.0
2.1097496260562394e7 1.6881095080719322e7 0.0
0.0 0.0 0.0

-1.9553953856827272e6 2.180608739766571e7 0.0
2.180608739766571e7 3.4310485710521485e6 0.0
0.0 0.0 0.0

-2.6294459686705098e6 2.041642636271583e7 0.0
2.041642636271583e7 -1.9609384077327559e6 0.0
0.0 0.0 0.0

1.7082131977654267e6 8.784422726752635e6 0.0
8.784422726752635e6 -4.148444717055775e7 0.0
0.0 0.0 0.0

-5.8476199724174645e6 3.0755180799536765e7 0.0
3.0755180799536765e7 8.051099101988593e6 0.0
0.0 0.0 0.0

-7.429910497609884e6 2.2618867136396766e6 0.0
2.2618867136396766e6 1.3274408734867772e7 0.0
0.0 0.0 0.0

-2.9340444188515777e6 2.0733096183193162e7 0.0
2.0733096183193162e7 1.5696714943019133e7 0.0
0.0 0.0 0.0

534107.392787809 1.3953100862377519e7 0.0
1.3953100862377519e7 -1.1259246027384352e7 0.0
0.0 0.0 0.0

2.873061213939883e6 3.4250524553755224e6 0.0
3.4250524553755224e6 -2.5405358254719216e7 0.0
0.0 0.0 0.0

897191.9882794674 1.5057611759229222e7 0.0
1.5057611759229222e7 -2.760164540372292e7 0.0
0.0 0.0 0.0

-6.438129280717187e6 8.898114498227645e6 0.0
8.898114498227645e6 6.648174048199746e6 0.0
0.0 0.0 0.0

-8.23369738590803e6 1.6266685396800302e7 0.0
1.6266685396800302e7 3.2527853171922803e7 0.0
0.0 0.0 0.0

-1.783702208489697e6 2.221716762442755e7 0.0
2.221716762442755e7 -6.711551876173579e6 0.0
0.0 0.0 0.0

-7.668132004223349e6 -4.874320081896682e6 0.0
-4.874320081896682e6 1.845143275647366e7 0.0
0.0 0.0 0.0

-4.163975636361691e6 1.597427927282955e7 0.0
1.597427927282955e7 6.267018799136708e6 0.0
0.0 0.0 0.0

1.250420677629237e6 2.4794001823036905e7 0.0
2.4794001823036905e7 -1.201263992130042e7 0.0
0.0 0.0 0.0

-3.166191694471487e6 2.127716981535829e7 0.0
2.127716981535829e7 -2.2794409618226282e7 0.0
0.0 0.0 0.0

685717.065100342 1.3873378305062806e7 0.0
1.3873378305062806e7 -1.9160585829671133e7 0.0
0.0 0.0 0.0

-880236.8234600022 1.0939863620088777e7 0.0
1.0939863620088777e7 -7.657937377059853e6 0.0
0.0 0.0 0.0

-1.149504029661993e6 2.134990880122081e7 0.0
2.134990880122081e7 -4.851751027589639e6 0.0
0.0 0.0 0.0

-1.4307534940631445e6 2.092976843279969e7 0.0
2.092976843279969e7 3.078300444058403e7 0.0
0.0 0.0 0.0

-1.6006669925689353e6 2.8529888796480753e7 0.0
2.8529888796480753e7 -1.6856344041944905e6 0.0
0.0 0.0 0.0

-4.926116530262777e6 2.1775354458714567e7 0.0
2.1775354458714567e7 2.303133426944992e7 0.0
0.0 0.0 0.0

-2.417437145845796e6 2.4149529093410928e7 0.0
2.4149529093410928e7 1.3376661747251406e7 0.0
0.0 0.0 0.0

-212715.80040129228 1.2429450055281201e7 0.0
1.2429450055281201e7 -1.1276546536282277e7 0.0
0.0 0.0 0.0

-2.8258062138405154e6 1.6648511448123418e7 0.0
1.6648511448123418e7 7.299946632897511e6 0.0
0.0 0.0 0.0

719220.4164181966 2.2025300080229864e7 0.0
2.2025300080229864e7 1.6891855862295832e7 0.0
0.0 0.0 0.0

-1.9439533586640253e6 1.6844825813265625e7 0.0
1.6844825813265625e7 -7.100075364004035e6 0.0
0.0 0.0 0.0

-351210.2133198846 1.7462330261537474e7 0.0
1.7462330261537474e7 -3.0258182331478514e7 0.0
0.0 0.0 0.0

-1.1050521907755441e6 2.2513593556318592e7 0.0
2.2513593556318592e7 -4.510717135090226e6 0.0
0.0 0.0 0.0

592461.9634843813 1.793075682032076e7 0.0
1.793075682032076e7 -2.1367953313892826e7 0.0
0.0 0.0 0.0

-2.3550717538824086e6 1.8725531675084718e7 0.0
1.8725531675084718e7 5.199874162518799e6 0.0
0.0 0.0 0.0

-1.0137577177882541e7 1.8643217114604123e7 0.0
1.8643217114604123e7 -3.6288164421357006e7 0.0
0.0 0.0 0.0

-1.0143074942164714e6 2.3641501346130535e7 0.0
2.3641501346130535e7 -4.205831290107692e6 0.0
0.0 0.0 0.0

8.357392463255018e6 2.3868964727641627e7 0.0
2.3868964727641627e7 165036.90258243494 0.0
0.0 0.0 0.0

-6.605709076133732e6 4.797856657932386e6 0.0
4.797856657932386e6 5.4032138412673235e7 0.0
0.0 0.0 0.0

-9.654506238326801e6 4.160731287142427e7 0.0
4.160731287142427e7 4.580454168496409e6 0.0
0.0 0.0 0.0

-3.086686186216847e6 2.4436181750978857e7 0.0
2.4436181750978857e7 1.1850253844504334e7 0.0
0.0 0.0 0.0

-6.0250059805243295e6 1.707613904637666e7 0.0
1.707613904637666e7 3.600411456430817e7 0.0
0.0 0.0 0.0

-3.3936023837330122e6 2.7458595928968802e7 0.0
2.7458595928968802e7 1.0691472973410478e7 0.0
0.0 0.0 0.0

-2.1250376514248652e6 1.874962013299123e7 0.0
1.874962013299123e7 1.9300949539432311e6 0.0
0.0 0.0 0.0

-656702.409489172 1.981754689334721e7 0.0
1.981754689334721e7 -7.910415912619015e6 0.0
0.0 0.0 0.0

-905203.7480338322 2.1764428968153436e7 0.0
2.1764428968153436e7 -5.980340973050256e6 0.0
0.0 0.0 0.0

-1.6281676293915836e6 1.2236191445893798e7 0.0
1.2236191445893798e7 -86203.35246984864 0.0
0.0 0.0 0.0

1.2725171133219888e6 2.5601809822771035e7 0.0
2.5601809822771035e7 -1.073631135970052e7 0.0
0.0 0.0 0.0

2.1131023682921715e6 7.03820050047127e6 0.0
7.03820050047127e6 -2.4901601073593844e7 0.0
0.0 0.0 0.0

1.1679054790050066e6 7.222770717658067e6 0.0
7.222770717658067e6 -1.1547751433313686e7 0.0
0.0 0.0 0.0

-2.772266591560499e6 2.356599106203662e7 0.0
2.356599106203662e7 1.6128147586869251e7 0.0
0.0 0.0 0.0

-1.4031183939718148e6 2.791773512530261e7 0.0
2.791773512530261e7 -2.8847145019138944e6 0.0
0.0 0.0 0.0

7.30782879635666e6 2.427230949036175e7 0.0
2.427230949036175e7 -2.3700568964909e6 0.0
0.0 0.0 0.0

-1.4156943743230494e7 3.0305470058312755e7 0.0
3.0305470058312755e7 4.67484069901299e6 0.0
0.0 0.0 0.0

1.7961555443811119e6 6.867971986982498e6 0.0
6.867971986982498e6 -1.655002604566332e7 0.0
0.0 0.0 0.0

-2.3016973180198637e6 1.761493065749304e7 0.0
1.761493065749304e7 -5.4625066869749315e6 0.0
0.0 0.0 0.0

5.610591593202697e7 1.9191274652518276e7 0.0
1.9191274652518276e7 3.750873396147907e6 0.0
0.0 0.0 0.0

-590004.5926739629 1.133952776835536e7 0.0
1.133952776835536e7 -9.182603868197909e6 0.0
0.0 0.0 0.0

1.9776533805174176e6 7.251448908242628e6 0.0
7.251448908242628e6 -3.0630486319683474e7 0.0
0.0 0.0 0.0

-3.932461454095373e6 2.04347520008833e7 0.0
2.04347520008833e7 3.0412522673050977e7 0.0
0.0 0.0 0.0

656114.4632999795 1.9096110170010664e7 0.0
1.9096110170010664e7 -2.280553571457146e7 0.0
0.0 0.0 0.0

-8.763271656946141e6 1.3907111887945991e7 0.0
1.3907111887945991e7 2.2417834213175837e7 0.0
0.0 0.0 0.0

-1.5325127063875938e7 3.9698679199782826e7 0.0
3.9698679199782826e7 5.399459846967603e6 0.0
0.0 0.0 0.0

-3.88422072449125e6 2.087633032306731e7 0.0
2.087633032306731e7 2.864701655177383e7 0.0
0.0 0.0 0.0

-4.1122772933776146e6 2.833814970973087e7 0.0
2.833814970973087e7 1.028234195475915e7 0.0
0.0 0.0 0.0

-2.463286332078601e7 3.0374229012014557e7 0.0
3.0374229012014557e7 -1.3161034012770627e7 0.0
0.0 0.0 0.0

-2.821833513688241e6 2.0580559186767947e7 0.0
2.0580559186767947e7 1.0040533242326025e6 0.0
0.0 0.0 0.0

5.210582407387942e7 7.222699253692913e6 0.0
7.222699253692913e6 -350173.82736073807 0.0
0.0 0.0 0.0

5834.913325326517 2.2172088971919365e7 0.0
2.2172088971919365e7 -1.04963501378252e7 0.0
0.0 0.0 0.0

-1.729552660811246e6 1.903393092029886e7 0.0
1.903393092029886e7 -702940.4277190247 0.0
0.0 0.0 0.0

1.2533357114420906e6 2.638353286891354e7 0.0
2.638353286891354e7 -9.416694830231752e6 0.0
0.0 0.0 0.0

-1.6753135571474893e7 2.6233123244451873e7 0.0
2.6233123244451873e7 -7.123301827901648e6 0.0
0.0 0.0 0.0

-313587.5776516475 1.0620606848356334e7 0.0
1.0620606848356334e7 -3.5757114418050935e6 0.0
0.0 0.0 0.0

-3.0596147885479433e6 2.412004764726521e7 0.0
2.412004764726521e7 1.721533982894012e7 0.0
0.0 0.0 0.0

-4.617530331214776e6 1.9555852669077814e7 0.0
1.9555852669077814e7 -2.383811039648476e7 0.0
0.0 0.0 0.0

-1.0276503280631853e7 7.122135390972636e6 0.0
7.122135390972636e6 3.2855923449851707e7 0.0
0.0 0.0 0.0

-1.699522138142075e6 2.7560640536827296e7 0.0
2.7560640536827296e7 -1.8911185390500813e6 0.0
0.0 0.0 0.0

-1.9433199303760673e6 1.9333760594966132e7 0.0
1.9333760594966132e7 395051.52593699016 0.0
0.0 0.0 0.0

-826366.5868010339 2.811953345786021e7 0.0
2.811953345786021e7 -1.0139428539264487e6 0.0
0.0 0.0 0.0

432578.57002103515 1.969983068401939e7 0.0
1.969983068401939e7 -1.3685361693696002e7 0.0
0.0 0.0 0.0

-6.764204066837424e6 1.0181884784754142e7 0.0
1.0181884784754142e7 1.46288879641075e7 0.0
0.0 0.0 0.0

-3.0576904354063068e6 2.8116946801932033e7 0.0
2.8116946801932033e7 6.857527197346688e6 0.0
0.0 0.0 0.0

-3.2477286424007537e6 2.3396981785623465e7 0.0
2.3396981785623465e7 1.972138892747481e7 0.0
0.0 0.0 0.0

-2.4763853584459573e6 2.3033515888695706e7 0.0
2.3033515888695706e7 1.4130476975725401e7 0.0
0.0 0.0 0.0

-826620.0412567169 1.6311036934272703e7 0.0
1.6311036934272703e7 -6.236978832458891e6 0.0
0.0 0.0 0.0

775087.6581485309 1.3612851067839319e7 0.0
1.3612851067839319e7 -3.309185349973685e7 0.0
0.0 0.0 0.0

-2.6281721170221455e6 2.237936180237037e7 0.0
2.237936180237037e7 2.439180827344522e6 0.0
0.0 0.0 0.0

406869.73281484935 2.15103374586191e7 0.0
2.15103374586191e7 -1.6616792200850986e7 0.0
0.0 0.0 0.0

-162892.17607888207 1.938274613859877e7 0.0
1.938274613859877e7 -1.561325812706353e7 0.0
0.0 0.0 0.0

176505.85693027452 2.826720764822816e7 0.0
2.826720764822816e7 -6.893228864978845e6 0.0
0.0 0.0 0.0

-743448.9233707972 2.2483369963567216e7 0.0
2.2483369963567216e7 -1.0945857802865684e7 0.0
0.0 0.0 0.0

1.1782177608348932e6 1.3990613851286156e7 0.0
1.3990613851286156e7 -2.6444834615339477e7 0.0
0.0 0.0 0.0

1.4036160689727752e6 7.319140761116326e6 0.0
7.319140761116326e6 -6.961391155316129e6 0.0
0.0 0.0 0.0

-2.9884540304178824e6 7.040333458834621e6 0.0
7.040333458834621e6 6.1961579861051375e6 0.0
0.0 0.0 0.0

1.760174137144724e6 3.784274131181345e7 0.0
3.784274131181345e7 -942192.5593016976 0.0
0.0 0.0 0.0

-2.791274201838503e6 2.1204937409232862e7 0.0
2.1204937409232862e7 2.489226477642613e6 0.0
0.0 0.0 0.0

-1.1417451319193523e6 2.4009966738786295e7 0.0
2.4009966738786295e7 -8.374313342070228e6 0.0
0.0 0.0 0.0

3.1026264784176964e6 4.203733231892303e6 0.0
4.203733231892303e6 -1.5609615945690122e7 0.0
0.0 0.0 0.0

-6.889120930142127e6 7.289010146340031e6 0.0
7.289010146340031e6 5.45546136844188e7 0.0
0.0 0.0 0.0

1.2596047900570966e6 1.1134915699772935e7 0.0
1.1134915699772935e7 -2.0123976431030855e7 0.0
0.0 0.0 0.0

8.369419105856013e6 2.9035620556049958e7 0.0
2.9035620556049958e7 -6.391888991082386e6 0.0
0.0 0.0 0.0

2.212163921611247e6 3.0186817131866332e7 0.0
3.0186817131866332e7 -6.274889424932347e6 0.0
0.0 0.0 0.0

-3.0497728526393618e6 2.8795239994877998e7 0.0
2.8795239994877998e7 5.695947642345133e6 0.0
0.0 0.0 0.0

2.3626656884341594e6 3.5226530607144074e6 0.0
3.5226530607144074e6 -3.625744036777575e7 0.0
0.0 0.0 0.0

-598810.758588114 2.510158285751759e7 0.0
2.510158285751759e7 -4.961089844656615e6 0.0
0.0 0.0 0.0

155726.4138686168 2.6673062469145667e7 0.0
2.6673062469145667e7 -6.559807861601323e6 0.0
0.0 0.0 0.0

1.7458779112583306e6 8.20260707743682e6 0.0
8.20260707743682e6 -3.371997287498516e7 0.0
0.0 0.0 0.0

-252424.1586411579 3.0490214291427154e7 0.0
3.0490214291427154e7 -3.7120869789839014e6 0.0
0.0 0.0 0.0

3.987410434430021e6 2.4870627023857135e7 0.0
2.4870627023857135e7 -8.880533999923734e6 0.0
0.0 0.0 0.0

-1.53094815579934e6 2.444005590939654e7 0.0
2.444005590939654e7 -5.988541988654804e6 0.0
0.0 0.0 0.0

-1.383827882322818e6 1.829249319646045e7 0.0
1.829249319646045e7 -3.26083530117934e7 0.0
0.0 0.0 0.0

1.4583238643664028e6 7.829449263701891e6 0.0
7.829449263701891e6 -1.517401497046505e7 0.0
0.0 0.0 0.0

314534.11362187285 1.3511088554939795e7 0.0
1.3511088554939795e7 -1.6044690817079509e7 0.0
0.0 0.0 0.0

-95400.43637818377 2.511381364662065e7 0.0
2.511381364662065e7 -9.235786123079874e6 0.0
0.0 0.0 0.0

3.0665670429276116e6 2.4716828748284955e7 0.0
2.4716828748284955e7 -1.0795199596489381e7 0.0
0.0 0.0 0.0

-900717.5289884033 2.316927467740899e7 0.0
2.316927467740899e7 -9.654505296812048e6 0.0
0.0 0.0 0.0

2.4366988031813633e6 8.606073818907129e6 0.0
8.606073818907129e6 -1.6127353615919976e7 0.0
0.0 0.0 0.0

2.936032456293827e6 4.914266706674467e6 0.0
4.914266706674467e6 -3.019636788405274e7 0.0
0.0 0.0 0.0

335935.18314308394 1.9377906236247677e7 0.0
1.9377906236247677e7 -1.8463634081069835e7 0.0
0.0 0.0 0.0

-66405.99949729163 1.4262767238634998e7 0.0
1.4262767238634998e7 -1.461356143841273e7 0.0
0.0 0.0 0.0

-2.968961460621025e6 1.933369474615175e7 0.0
1.933369474615175e7 929768.6919039309 0.0
0.0 0.0 0.0

-1.1651584143799175e7 3.073830116180273e7 0.0
3.073830116180273e7 5.998971999236353e6 0.0
0.0 0.0 0.0

2.5474255610336103e6 1.638865432220078e7 0.0
1.638865432220078e7 8.611893085803498e7 0.0
0.0 0.0 0.0

-1.0720869399216814e7 7.767940250176732e6 0.0
7.767940250176732e6 3.025702048195421e7 0.0
0.0 0.0 0.0

2.2940044151507774e6 2.8128607429949615e7 0.0
2.8128607429949615e7 -9.312704888031993e6 0.0
0.0 0.0 0.0

-2.957306385060517e6 1.9994865959295396e7 0.0
1.9994865959295396e7 2.4987417783315317e6 0.0
0.0 0.0 0.0

-8.184170311340986e6 9.714311926338267e6 0.0
9.714311926338267e6 4.290532930006417e7 0.0
0.0 0.0 0.0

3.0050306251487155e6 4.957771138890334e6 0.0
4.957771138890334e6 -2.6659785507883593e7 0.0
0.0 0.0 0.0

-2.0537497003712496e6 2.1196847153378733e7 0.0
2.1196847153378733e7 4.951780953906522e6 0.0
0.0 0.0 0.0

317701.30022706185 1.864287542786482e7 0.0
1.864287542786482e7 -2.4871737180541143e7 0.0
0.0 0.0 0.0

1.2411439854395683e6 2.725590962027767e7 0.0
2.725590962027767e7 -8.266099586107925e6 0.0
0.0 0.0 0.0

-263835.7766741575 2.540334428674571e7 0.0
2.540334428674571e7 -5.964580892846889e6 0.0
0.0 0.0 0.0

-3.9186177697200617e6 1.849434648647043e7 0.0
1.849434648647043e7 9.291905263123015e6 0.0
0.0 0.0 0.0

-1.5756091742310065e6 2.0393669119498283e7 0.0
2.0393669119498283e7 -2.386999475921897e6 0.0
0.0 0.0 0.0

-8.663017332557365e6 1.2057713426220223e7 0.0
1.2057713426220223e7 1.4441263799386635e7 0.0
0.0 0.0 0.0

-5.4348774775851436e7 3.025386496608832e7 0.0
3.025386496608832e7 1.9373905233921818e6 0.0
0.0 0.0 0.0

6.401066602157465e6 2.4618441559927266e7 0.0
2.4618441559927266e7 1.314803619736737e7 0.0
0.0 0.0 0.0

-2.7435330942879794e6 2.5402238473153975e7 0.0
2.5402238473153975e7 1.352806165572681e7 0.0
0.0 0.0 0.0

-1.1813725796493916e6 3.0220657741854176e7 0.0
3.0220657741854176e7 1.2918521750710176e6 0.0
0.0 0.0 0.0

1.5281103916354794e6 1.0693097748493915e7 0.0
1.0693097748493915e7 -2.4760362926726997e7 0.0
0.0 0.0 0.0

1.8572693814639244e6 8.728155233086715e6 0.0
8.728155233086715e6 -3.0011401137532074e7 0.0
0.0 0.0 0.0

1.8068624959863387e6 1.0923957268216774e7 0.0
1.0923957268216774e7 -3.563822008798691e7 0.0
0.0 0.0 0.0

-3.4158473516212204e6 1.8692067548543323e7 0.0
1.8692067548543323e7 5.833061746581309e6 0.0
0.0 0.0 0.0

-8.994318456559977e6 1.5672573851855418e7 0.0
1.5672573851855418e7 2.9979262570309643e7 0.0
0.0 0.0 0.0

-6.2775340344369095e6 1.2949910501432875e7 0.0
1.2949910501432875e7 1.582696418835913e7 0.0
0.0 0.0 0.0

5.989628923299411e6 2.463873139037832e7 0.0
2.463873139037832e7 -4.651169019616071e6 0.0
0.0 0.0 0.0

-3.743437855927423e6 2.002190810700293e7 0.0
2.002190810700293e7 -2.1855324491554696e7 0.0
0.0 0.0 0.0

-3.580225088243158e6 2.8403630512144126e7 0.0
2.8403630512144126e7 8.675418844619282e6 0.0
0.0 0.0 0.0

9.277411493972134e6 3.667597863245436e7 0.0
3.667597863245436e7 -4.538140931422295e6 0.0
0.0 0.0 0.0

-9.60508209366465e6 3.0912053146059725e7 0.0
3.0912053146059725e7 6.980160812911397e6 0.0
0.0 0.0 0.0

-3.752629489704973e6 2.212241307207543e7 0.0
2.212241307207543e7 2.3376375650663998e7 0.0
0.0 0.0 0.0

66736.70774120092 7.655388069295056e6 0.0
7.655388069295056e6 -5.88076589576578e7 0.0
0.0 0.0 0.0

114812.10314523941 1.8717323397006046e7 0.0
1.8717323397006046e7 -1.2008949597148048e7 0.0
0.0 0.0 0.0

3.0910630201777667e6 2.702588011962298e6 0.0
2.702588011962298e6 -1.2640239805687178e7 0.0
0.0 0.0 0.0

2.0875461829261184e6 9.266992883543773e6 0.0
9.266992883543773e6 -3.684433202731692e7 0.0
0.0 0.0 0.0

-2.9742083532680282e6 2.945511514866592e7 0.0
2.945511514866592e7 4.589404056930641e6 0.0
0.0 0.0 0.0

-8.286981644769933e6 1.6170327526160752e7 0.0
1.6170327526160752e7 2.821096481949392e7 0.0
0.0 0.0 0.0

-4.1010730350065213e6 2.1557566686981034e7 0.0
2.1557566686981034e7 2.5291499819523834e7 0.0
0.0 0.0 0.0

-2.912912962451703e6 2.6275905172034163e7 0.0
2.6275905172034163e7 1.2661146021809252e7 0.0
0.0 0.0 0.0

1.954981271102436e6 1.1385821726453682e7 0.0
1.1385821726453682e7 -1.7843857490682576e7 0.0
0.0 0.0 0.0

-8.504273957299229e6 2.568570560860071e7 0.0
2.568570560860071e7 -1.3243446704936085e7 0.0
0.0 0.0 0.0

2.387512205586496e6 3.751907957484539e7 0.0
3.751907957484539e7 -2.7939994022262786e6 0.0
0.0 0.0 0.0

-4.069494529385594e6 3.070070998819693e7 0.0
3.070070998819693e7 6.316652472397797e6 0.0
0.0 0.0 0.0

-3.734110979346536e6 2.1333943863482546e7 0.0
2.1333943863482546e7 2.690774046602723e7 0.0
0.0 0.0 0.0

-5.468647230322653e6 7.457969965532522e7 0.0
7.457969965532522e7 -1.2270809778482387e7 0.0
0.0 0.0 0.0

-6.958268047252035e6 2.477886262101662e7 0.0
2.477886262101662e7 -1.5724971451302344e7 0.0
0.0 0.0 0.0

-3.5781864786631716e6 2.071464148515019e7 0.0
2.071464148515019e7 1.1710310965239458e7 0.0
0.0 0.0 0.0

-1.0977234059506632e7 3.8916486272389824e6 0.0
3.8916486272389824e6 1.7815734318302907e7 0.0
0.0 0.0 0.0

-916258.2138199331 2.0594633768855084e7 0.0
2.0594633768855084e7 -6.372257777366613e6 0.0
0.0 0.0 0.0

-1.356316313195186e7 2.6646302615911923e7 0.0
2.6646302615911923e7 -7.617139814454421e6 0.0
0.0 0.0 0.0

-1.0024571776420388e7 3.968401376046302e7 0.0
3.968401376046302e7 4.17202425552393e6 0.0
0.0 0.0 0.0

-94635.2849038858 2.3849676039741147e7 0.0
2.3849676039741147e7 -8.556229427447615e6 0.0
0.0 0.0 0.0

-728734.6634017148 2.601957838417174e7 0.0
2.601957838417174e7 -7.513482054001091e6 0.0
0.0 0.0 0.0

-1.0114761744062304e7 5.2870149767096955e6 0.0
5.2870149767096955e6 2.7499359864468686e7 0.0
0.0 0.0 0.0

2.939646529568906e6 6.237439596328772e6 0.0
6.237439596328772e6 -2.3633322077463765e7 0.0
0.0 0.0 0.0

2.8634888399204332e6 3.636862537935597e7 0.0
3.636862537935597e7 -2.099077787075031e6 0.0
0.0 0.0 0.0

-3.4821274693980683e6 2.274230327785396e7 0.0
2.274230327785396e7 2.159356298677411e7 0.0
0.0 0.0 0.0

-1.8783190861103546e7 2.8352295240968343e7 0.0
2.8352295240968343e7 -4.425311624935014e6 0.0
0.0 0.0 0.0

-2.970198266805079e6 6.5090661332646245e6 0.0
6.5090661332646245e6 -162931.51147694583 0.0
0.0 0.0 0.0

-1.5199526286847545e7 2.821563030559268e7 0.0
2.821563030559268e7 -1.2372424010080576e7 0.0
0.0 0.0 0.0

-1.2293360423229751e6 2.4749428515585653e7 0.0
2.4749428515585653e7 -6.984473411909075e6 0.0
0.0 0.0 0.0

472054.90045691 1.8660238598401655e7 0.0
1.8660238598401655e7 -1.989531211205533e7 0.0
0.0 0.0 0.0

-865677.0009185906 2.2903185282125246e7 0.0
2.2903185282125246e7 -5.625165780815436e6 0.0
0.0 0.0 0.0

1.2235695365881957e6 1.1717522431444824e7 0.0
1.1717522431444824e7 -2.103946316787995e7 0.0
0.0 0.0 0.0

-1.5921568627549843e6 2.4055283531306196e7 0.0
2.4055283531306196e7 870537.5667268662 0.0
0.0 0.0 0.0

-1.1072980000266302e7 6.255382703566636e6 0.0
6.255382703566636e6 1.7171874826784506e7 0.0
0.0 0.0 0.0

-7.516298792660681e6 1.6089395876801005e7 0.0
1.6089395876801005e7 2.304657786649555e7 0.0
0.0 0.0 0.0

-3.0539554536005333e6 1.8211155828025244e7 0.0
1.8211155828025244e7 1.2234713949895047e7 0.0
0.0 0.0 0.0

-6.632483313904091e6 1.9685053106592145e7 0.0
1.9685053106592145e7 -2.1204066100125533e7 0.0
0.0 0.0 0.0

-2.5897474409391647e6 1.8530156466862477e7 0.0
1.8530156466862477e7 8.619192693682011e6 0.0
0.0 0.0 0.0

-4.283065580929996e7 3.427791741861039e7 0.0
3.427791741861039e7 -8.2193163901715735e6 0.0
0.0 0.0 0.0

-2.9453311157389088e6 2.0607501149465285e7 0.0
2.0607501149465285e7 3.979700209854626e6 0.0
0.0 0.0 0.0

-2.5612463678231863e6 2.2926996583213825e7 0.0
2.2926996583213825e7 -4.024012020102346e6 0.0
0.0 0.0 0.0

-6.130869868936003e7 2.933102778070438e7 0.0
2.933102778070438e7 -116297.09638589993 0.0
0.0 0.0 0.0

4.898759065899413e6 2.4920332140596334e7 0.0
2.4920332140596334e7 -6.977895507519484e6 0.0
0.0 0.0 0.0

-2.1871563216637103e6 1.9398549005924385e7 0.0
1.9398549005924385e7 3.5258109089764208e6 0.0
0.0 0.0 0.0

1.3350586528078876e6 1.2954887194651995e7 0.0
1.2954887194651995e7 -1.514590452630204e7 0.0
0.0 0.0 0.0

-1.4765184392302313e6 3.0707607630409136e7 0.0
3.0707607630409136e7 2.278873957064731e6 0.0
0.0 0.0 0.0

977753.1236922694 1.3601843172808386e7 0.0
1.3601843172808386e7 -2.1364457711708054e7 0.0
0.0 0.0 0.0

917397.5764316972 1.4687779914317964e7 0.0
1.4687779914317964e7 -2.293389075215215e7 0.0
0.0 0.0 0.0

-7.843446004333886e6 1.0540276272013133e7 0.0
1.0540276272013133e7 1.086579624098864e7 0.0
0.0 0.0 0.0

-3.151325462555616e6 2.3452879662824612e7 0.0
2.3452879662824612e7 1.1789648680608217e7 0.0
0.0 0.0 0.0

2.4807842275030613e6 8.497019667816058e6 0.0
8.497019667816058e6 -3.1379026658860553e7 0.0
0.0 0.0 0.0

-1.0818194376192242e7 9.548098885719173e6 0.0
9.548098885719173e6 2.3362585644085202e7 0.0
0.0 0.0 0.0

964065.1283997428 1.411872084699914e7 0.0
1.411872084699914e7 -2.2182158796490047e7 0.0
0.0 0.0 0.0

-1.0326595019226573e8 1.1687648968742069e7 0.0
1.1687648968742069e7 2.752297798500739e6 0.0
0.0 0.0 0.0

390305.66587939486 7.513389857186655e6 0.0
7.513389857186655e6 -5.466067721990027e7 0.0
0.0 0.0 0.0

-3.2507829190668794e6 2.1918784171107367e7 0.0
2.1918784171107367e7 1.115828006833836e7 0.0
0.0 0.0 0.0

-2.9037135514517706e6 2.38494226290348e7 0.0
2.38494226290348e7 8.926906578747025e6 0.0
0.0 0.0 0.0

-5.419279674905695e6 2.988103235699078e7 0.0
2.988103235699078e7 9.261396850220561e6 0.0
0.0 0.0 0.0

-1.846094383613059e6 2.1050411023179457e7 0.0
2.1050411023179457e7 -7.109196747313017e6 0.0
0.0 0.0 0.0

-3.3401715390708866e6 2.372372905116032e7 0.0
2.372372905116032e7 2.0001914925783753e7 0.0
0.0 0.0 0.0

432227.92593522836 1.6377810799015379e7 0.0
1.6377810799015379e7 -1.830820365097633e7 0.0
0.0 0.0 0.0

1.531606695403736e6 1.0918677709860038e7 0.0
1.0918677709860038e7 -2.981267349991369e7 0.0
0.0 0.0 0.0

-1.7744361702207846e6 3.019493421293452e7 0.0
3.019493421293452e7 3.2156263134147245e6 0.0
0.0 0.0 0.0

3.0117687980136448e6 3.2016536445243955e7 0.0
3.2016536445243955e7 -6.1724637734227795e6 0.0
0.0 0.0 0.0

1.224926957789164e6 1.017667088742627e7 0.0
1.017667088742627e7 -4.36634106671496e7 0.0
0.0 0.0 0.0

-4.27278059779183e6 1.5429290221845517e7 0.0
1.5429290221845517e7 1.314482457499446e7 0.0
0.0 0.0 0.0

-7.905625651878586e6 3.0749392015902698e7 0.0
3.0749392015902698e7 7.79652311061143e6 0.0
0.0 0.0 0.0

-5.3988248731044926e7 8.069227678689508e7 0.0
8.069227678689508e7 -2.0810551505477708e6 0.0
0.0 0.0 0.0

-8.761516742990874e6 1.175468898203946e7 0.0
1.175468898203946e7 3.764057484122891e7 0.0
0.0 0.0 0.0

-5.551421116953994e6 1.8409961396565475e7 0.0
1.8409961396565475e7 -1.906890839050099e7 0.0
0.0 0.0 0.0

-1.7934327013173802e6 6.2910987760534575e6 0.0
6.2910987760534575e6 3.722705915010586e6 0.0
0.0 0.0 0.0

-7.604309459946144e6 -2.3805450253339023e6 0.0
-2.3805450253339023e6 3.753877969652976e7 0.0
0.0 0.0 0.0

2.7635430548364352e6 1.6368542693017705e6 0.0
1.6368542693017705e6 -3.7748518428397425e7 0.0
0.0 0.0 0.0

-8.732623837557897e6 2.705564065063776e7 0.0
2.705564065063776e7 2.241681646345705e6 0.0
0.0 0.0 0.0

-1.9211796276098313e6 2.045575734453933e7 0.0
2.045575734453933e7 -2.3095821901493654e7 0.0
0.0 0.0 0.0

-4.490197724499723e6 1.7529855441230774e7 0.0
1.7529855441230774e7 4.086753427162039e7 0.0
0.0 0.0 0.0

2.1708859692810215e6 2.718709478886569e7 0.0
2.718709478886569e7 -1.0351445025646513e7 0.0
0.0 0.0 0.0

995020.3952962197 1.307525370112896e7 0.0
1.307525370112896e7 -2.0493690589563973e7 0.0
0.0 0.0 0.0

52933.40548406541 1.7967127172390282e7 0.0
1.7967127172390282e7 5.355298238240024e7 0.0
0.0 0.0 0.0

-1.714286400263125e6 2.1098572700850595e7 0.0
2.1098572700850595e7 -867372.8995624343 0.0
0.0 0.0 0.0

349307.4110213462 2.01238845629589e7 0.0
2.01238845629589e7 3.9480745329425365e7 0.0
0.0 0.0 0.0

-1.3725190285522873e6 2.0861243301198687e7 0.0
2.0861243301198687e7 -2.1279984634803843e7 0.0
0.0 0.0 0.0

9.205142981376494e7 1.1319385975083644e7 0.0
1.1319385975083644e7 2.9423546536055207e6 0.0
0.0 0.0 0.0

1.2241964455225947e6 2.8107273470611777e7 0.0
2.8107273470611777e7 -7.167329349500665e6 0.0
0.0 0.0 0.0

4.27966132535811e6 3.613322823493204e7 0.0
3.613322823493204e7 -2.900784818725167e6 0.0
0.0 0.0 0.0

839527.4270922793 1.4342742733680367e7 0.0
1.4342742733680367e7 -1.9914266520549353e7 0.0
0.0 0.0 0.0

1.7911284993972443e6 1.3118274558793165e7 0.0
1.3118274558793165e7 -2.0587448373360366e7 0.0
0.0 0.0 0.0

-1.6159734950740417e6 2.0273322772156898e7 0.0
2.0273322772156898e7 -8.634180065252334e6 0.0
0.0 0.0 0.0

-9.48536772205049e6 1.3358511101528259e7 0.0
1.3358511101528259e7 3.0145495191283546e7 0.0
0.0 0.0 0.0

-3.596030310861555e6 1.8871651443975117e7 0.0
1.8871651443975117e7 -3.2312498763462137e7 0.0
0.0 0.0 0.0

2.960475310257763e6 2.65144624821321e6 0.0
2.65144624821321e6 -1.129476474730275e7 0.0
0.0 0.0 0.0

628509.1928010089 1.734352701792602e7 0.0
1.734352701792602e7 -1.9843400862302054e7 0.0
0.0 0.0 0.0

-3.1149344544038415e7 3.886012973641759e7 0.0
3.886012973641759e7 6.987173837395119e6 0.0
0.0 0.0 0.0

-3.546739883045823e6 1.378755512573052e7 0.0
1.378755512573052e7 652567.6409769703 0.0
0.0 0.0 0.0

2.31063227679174e6 1.814629430807297e7 0.0
1.814629430807297e7 6.318574455546644e7 0.0
0.0 0.0 0.0

-2.864911373789789e6 2.403817708385332e7 0.0
2.403817708385332e7 1.6265902607682748e7 0.0
0.0 0.0 0.0

9.453047945145812e6 2.4826962137632746e7 0.0
2.4826962137632746e7 5.314249789336452e6 0.0
0.0 0.0 0.0

-6.458059528147698e6 3.0393821448453147e7 0.0
3.0393821448453147e7 8.495463512346622e6 0.0
0.0 0.0 0.0

1.26994723797803e6 2.890352714903822e7 0.0
2.890352714903822e7 -5.946290153367094e6 0.0
0.0 0.0 0.0

-4.104607015286622e6 3.0093119044130053e7 0.0
3.0093119044130053e7 7.143337393742259e6 0.0
0.0 0.0 0.0

-9.451733094031133e6 1.3856406398989104e7 0.0
1.3856406398989104e7 2.7894268926716488e7 0.0
0.0 0.0 0.0

-6.293206556934478e6 1.791716980018864e7 0.0
1.791716980018864e7 2.327172819150839e7 0.0
0.0 0.0 0.0

-1.1066564598421257e7 8.188706293312082e6 0.0
8.188706293312082e6 1.6031346058031732e7 0.0
0.0 0.0 0.0

2.2414674239351943e7 1.3388339736227026e7 0.0
1.3388339736227026e7 1.3588372628514804e6 0.0
0.0 0.0 0.0

-775267.1785151381 2.128358223339185e7 0.0
2.128358223339185e7 -1.962548990061198e7 0.0
0.0 0.0 0.0

708730.7733710131 2.876336164876211e7 0.0
2.876336164876211e7 -5.179919237853254e6 0.0
0.0 0.0 0.0

-2.8061863552739043e6 3.0043764805374376e7 0.0
3.0043764805374376e7 3.529621989822892e6 0.0
0.0 0.0 0.0

-9.037772208779804e6 -1.1113250345071424e6 0.0
-1.1113250345071424e6 2.758132620361738e7 0.0
0.0 0.0 0.0

-3.7342852597503457e6 3.1905680982198857e7 0.0
3.1905680982198857e7 4.562123542633677e6 0.0
0.0 0.0 0.0

-2.193376655649853e6 1.998448066834714e7 0.0
1.998448066834714e7 5.061850551933171e6 0.0
0.0 0.0 0.0

-5.068615948697998e6 3.257552701674271e7 0.0
3.257552701674271e7 5.554038123354343e6 0.0
0.0 0.0 0.0

8.999612873661758e6 2.3555176424061548e7 0.0
2.3555176424061548e7 3.160699473413722e6 0.0
0.0 0.0 0.0

3.289075727994114e6 3.355986872862087e7 0.0
3.355986872862087e7 -3.8386305415161103e6 0.0
0.0 0.0 0.0

2.452602551314028e6 4.995350403321502e6 0.0
4.995350403321502e6 -3.0226611662159793e7 0.0
0.0 0.0 0.0

-9.144618150450604e6 1.2179917571391178e7 0.0
1.2179917571391178e7 3.504574682051608e7 0.0
0.0 0.0 0.0

672872.3910766658 2.3529314086220104e7 0.0
2.3529314086220104e7 -1.1164350484659182e7 0.0
0.0 0.0 0.0

-189563.6548382342 2.181390239145693e7 0.0
2.181390239145693e7 -1.7968177726225346e7 0.0
0.0 0.0 0.0

-1.768339774893485e6 1.986889423340835e7 0.0
1.986889423340835e7 -1.0407490903782495e6 0.0
0.0 0.0 0.0

-4.861095497532316e6 2.5242045815420873e7 0.0
2.5242045815420873e7 6.8785201168295415e6 0.0
0.0 0.0 0.0

3.4787079808527073e6 2.820859641231195e7 0.0
2.820859641231195e7 -9.060735811018715e6 0.0
0.0 0.0 0.0

-232008.4459276232 2.1831485601605833e7 0.0
2.1831485601605833e7 -9.894764860085906e6 0.0
0.0 0.0 0.0

-8.929661784649309e6 1.6068242920246376e7 0.0
1.6068242920246376e7 2.2987844270132333e7 0.0
0.0 0.0 0.0

2.2972539000503244e6 1.071797857637728e7 0.0
1.071797857637728e7 -2.4714981579614893e7 0.0
0.0 0.0 0.0

-1.6469135184801742e6 2.1902971730367202e7 0.0
2.1902971730367202e7 -1.890610579916993e7 0.0
0.0 0.0 0.0

3.6932968262102413e6 2.4251190167606093e7 0.0
2.4251190167606093e7 1.5074819850951584e7 0.0
0.0 0.0 0.0

-1.6733547966582181e6 2.3344061158753205e7 0.0
2.3344061158753205e7 -6.34016946610302e6 0.0
0.0 0.0 0.0

1.946963941250516e6 8.106997653168656e6 0.0
8.106997653168656e6 -4.221380612633203e7 0.0
0.0 0.0 0.0

1.806131881482385e6 5.9163526729469765e6 0.0
5.9163526729469765e6 -5.639920885215278e7 0.0
0.0 0.0 0.0

-3.951118923187e6 1.9009592367376957e7 0.0
1.9009592367376957e7 1.0807786416008703e7 0.0
0.0 0.0 0.0

-2.5738580155461566e6 3.0601701341983177e7 0.0
3.0601701341983177e7 2.553480713360749e6 0.0
0.0 0.0 0.0

-9.71471496720915e6 5.172598925628645e6 0.0
5.172598925628645e6 3.1955799023632657e7 0.0
0.0 0.0 0.0

-5.9592392497733785e6 1.7836582719305206e7 0.0
1.7836582719305206e7 1.6596009460539207e7 0.0
0.0 0.0 0.0

-3.043333496433701e6 2.3057326715180755e7 0.0
2.3057326715180755e7 1.065675107224859e7 0.0
0.0 0.0 0.0

2.2162911427455936e6 1.0967191899883952e7 0.0
1.0967191899883952e7 -2.2443464367832046e7 0.0
0.0 0.0 0.0

2.6348123220621664e6 1.5098494061721002e6 0.0
1.5098494061721002e6 -3.901520501462619e7 0.0
0.0 0.0 0.0

-2.5205823191226795e6 2.1555032171734586e7 0.0
2.1555032171734586e7 1.372310819545133e7 0.0
0.0 0.0 0.0

5.467299259311177e6 1.9761453301336188e7 0.0
1.9761453301336188e7 7.725630437107457e7 0.0
0.0 0.0 0.0

-2.077919481456418e6 2.425151751734839e7 0.0
2.425151751734839e7 9.543139738176998e6 0.0
0.0 0.0 0.0

1.0529827268659896e6 2.95815173042552e7 0.0
2.95815173042552e7 -5.010706665484671e6 0.0
0.0 0.0 0.0

888679.6537102098 1.526914283135256e7 0.0
1.526914283135256e7 -2.1196968651817657e7 0.0
0.0 0.0 0.0

170615.81500356825 3.213121596840116e7 0.0
3.213121596840116e7 -1.135787259022241e6 0.0
0.0 0.0 0.0

-2.0059376622293948e6 2.963594389309864e7 0.0
2.963594389309864e7 4.200065475742646e6 0.0
0.0 0.0 0.0

1.0352169395306725e7 1.9744628726279598e7 0.0
1.9744628726279598e7 4.8047872409021266e7 0.0
0.0 0.0 0.0

2.9854299851058153e6 2.6734105988917374e6 0.0
2.6734105988917374e6 -1.2007072383442651e7 0.0
0.0 0.0 0.0

5.231180410177167e6 2.5685395411887843e7 0.0
2.5685395411887843e7 -8.046044263854941e6 0.0
0.0 0.0 0.0

3.017409425890402e6 3.8849787211043667e6 0.0
3.8849787211043667e6 -2.1515633506162636e7 0.0
0.0 0.0 0.0

-8.650464326701425e6 1.46568011028928e7 0.0
1.46568011028928e7 2.346259677941809e7 0.0
0.0 0.0 0.0

-2.845707147045394e6 2.7907320021991637e7 0.0
2.7907320021991637e7 5.874920976281583e6 0.0
0.0 0.0 0.0

-757443.1043066342 2.4013935311839942e7 0.0
2.4013935311839942e7 -5.292146395698387e6 0.0
0.0 0.0 0.0

1.9151270630820664e6 1.1975609866046024e7 0.0
1.1975609866046024e7 -1.8773061375807304e7 0.0
0.0 0.0 0.0

63839.85350247286 2.2220011430417288e7 0.0
2.2220011430417288e7 -1.1544262185685538e7 0.0
0.0 0.0 0.0

843221.0924157759 3.0308076025422994e7 0.0
3.0308076025422994e7 -4.0451548600188075e6 0.0
0.0 0.0 0.0

-9.255399683387212e6 6.925818500896374e6 0.0
6.925818500896374e6 3.6763022002680436e7 0.0
0.0 0.0 0.0

-5.237113246296257e6 1.9535890776692536e7 0.0
1.9535890776692536e7 2.3228058218279205e7 0.0
0.0 0.0 0.0

-1.0234440558912545e7 1.1523681013139505e7 0.0
1.1523681013139505e7 2.5061987173399597e7 0.0
0.0 0.0 0.0

-3.145344569452969e6 1.936900026138718e7 0.0
1.936900026138718e7 4.0950977329334253e6 0.0
0.0 0.0 0.0

-3.10483505002314e6 2.9523069913327713e7 0.0
2.9523069913327713e7 8.042494525193852e6 0.0
0.0 0.0 0.0

-2.2285035018774583e6 2.3249433107999276e7 0.0
2.3249433107999276e7 -2.717889982449848e6 0.0
0.0 0.0 0.0

-1.6591026835824468e6 3.188579601910739e7 0.0
3.188579601910739e7 -161884.40094547876 0.0
0.0 0.0 0.0

-8.333090801444186e6 1.125610108118224e7 0.0
1.125610108118224e7 1.2763832390606496e7 0.0
0.0 0.0 0.0

-6.364219810293149e6 1.7359144412469007e7 0.0
1.7359144412469007e7 2.2363996467688587e7 0.0
0.0 0.0 0.0

-2.3226700241453936e6 3.1101333415746793e7 0.0
3.1101333415746793e7 1.662462716936808e6 0.0
0.0 0.0 0.0

3.140178805120171e6 2.683234952244411e7 0.0
2.683234952244411e7 -1.0271716479507796e7 0.0
0.0 0.0 0.0

1.7556167951375723e7 2.6683348168383263e7 0.0
2.6683348168383263e7 1.4006124377924493e7 0.0
0.0 0.0 0.0

-2.3449006700022467e6 1.9288714317050405e7 0.0
1.9288714317050405e7 6.777457258700887e6 0.0
0.0 0.0 0.0

8.471819895233296e6 3.0437414280787572e7 0.0
3.0437414280787572e7 -6.3981682222164655e6 0.0
0.0 0.0 0.0

-2.35415726032096e6 2.034975007310262e7 0.0
2.034975007310262e7 9.645680021611113e6 0.0
0.0 0.0 0.0

-5.3232294113259185e6 1.9059831298122976e7 0.0
1.9059831298122976e7 2.2403544352540318e7 0.0
0.0 0.0 0.0

-5.889404804458796e6 1.2175233627163308e7 0.0
1.2175233627163308e7 1.4193512224574901e7 0.0
0.0 0.0 0.0

-2.0270342091658753e6 3.151661250345807e7 0.0
3.151661250345807e7 681658.8197827265 0.0
0.0 0.0 0.0

2.849377175804453e6 6.595054409720117e6 0.0
6.595054409720117e6 -2.960579683583866e7 0.0
0.0 0.0 0.0

2.5783114501411263e6 9.013895559974559e6 0.0
9.013895559974559e6 -2.757051838953442e7 0.0
0.0 0.0 0.0

-4.570012383880873e6 2.9259722296646334e7 0.0
2.9259722296646334e7 9.8977232837892e6 0.0
0.0 0.0 0.0

-327848.9567797233 1.3837920431913763e7 0.0
1.3837920431913763e7 -7.407505309230192e6 0.0
0.0 0.0 0.0

1.867171186002125e6 1.2567411333414765e7 0.0
1.2567411333414765e7 -1.9668812372570947e7 0.0
0.0 0.0 0.0

-197468.34751758623 3.4829537556904815e7 0.0
3.4829537556904815e7 -1.3574552081279363e6 0.0
0.0 0.0 0.0

492105.39144018304 3.1568293031807933e7 0.0
3.1568293031807933e7 -2.072258495706399e6 0.0
0.0 0.0 0.0

-873166.3507298727 2.5015144923510317e7 0.0
2.5015144923510317e7 -7.910070818520846e6 0.0
0.0 0.0 0.0

-2.629769771827748e6 1.9944677446446232e7 0.0
1.9944677446446232e7 -2.8920449289203465e7 0.0
0.0 0.0 0.0

-3.24986677270421e6 3.489575660908875e7 0.0
3.489575660908875e7 1.8882719675496896e6 0.0
0.0 0.0 0.0

-5.095156721314893e6 1.9977091111126736e7 0.0
1.9977091111126736e7 2.3828212172830984e7 0.0
0.0 0.0 0.0

1.78430365963443e6 7.698489533526055e6 0.0
7.698489533526055e6 -1.7492265354337692e7 0.0
0.0 0.0 0.0

2.3495189223520467e6 3.810288974129512e7 0.0
3.810288974129512e7 -1.5259858457117444e6 0.0
0.0 0.0 0.0

-3.0200387341974387e6 2.481919657515063e7 0.0
2.481919657515063e7 1.381060841287091e7 0.0
0.0 0.0 0.0

702148.7358631347 3.0960579569948003e7 0.0
3.0960579569948003e7 -2.9699238577772025e6 0.0
0.0 0.0 0.0

420284.7599685248 2.2357630157512933e7 0.0
2.2357630157512933e7 -1.6459744826391695e7 0.0
0.0 0.0 0.0

-726443.6665915133 3.233102804591257e7 0.0
3.233102804591257e7 548540.7352973435 0.0
0.0 0.0 0.0

-3.1753128420506828e6 2.4925397581114557e7 0.0
2.4925397581114557e7 1.6502131193525018e7 0.0
0.0 0.0 0.0

-667156.2896642005 3.248538769184694e7 0.0
3.248538769184694e7 -1.7049304230515417e6 0.0
0.0 0.0 0.0

9.8244492818475e6 4.1120767089443505e7 0.0
4.1120767089443505e7 -3.3248599977099886e6 0.0
0.0 0.0 0.0

-7.557187870938905e6 1.736223404792227e7 0.0
1.736223404792227e7 2.9594344318519287e7 0.0
0.0 0.0 0.0

1.619950826252086e6 1.3886264397839373e7 0.0
1.3886264397839373e7 -1.9198401115683682e7 0.0
0.0 0.0 0.0

-9.12220819127553e6 1.4110350510700196e7 0.0
1.4110350510700196e7 3.1011622337298695e7 0.0
0.0 0.0 0.0

-8.225727004007286e6 1.630025979697087e7 0.0
1.630025979697087e7 2.0533048198000655e7 0.0
0.0 0.0 0.0

-405046.33928819885 -707235.0300231858 0.0
-707235.0300231858 1.7794495585220715e6 0.0
0.0 0.0 0.0

-1.0716219396417434e6 -2.0614049858878239e6 0.0
-2.0614049858878239e6 2.6666517626564046e6 0.0
0.0 0.0 0.0

-7.119469741895126e6 1.7901527182552874e7 0.0
1.7901527182552874e7 3.0180677704354323e7 0.0
0.0 0.0 0.0

1.6037219285423841e7 2.5724514216733534e7 0.0
2.5724514216733534e7 1.373085525813745e7 0.0
0.0 0.0 0.0

1.985388756403735e6 3.2847654939517125e7 0.0
3.2847654939517125e7 -3.208907259322818e6 0.0
0.0 0.0 0.0

-4331.649541659746 2.5719496335739236e7 0.0
2.5719496335739236e7 -7.036240019681409e6 0.0
0.0 0.0 0.0

1.5670263970936313e6 1.439363047415929e7 0.0
1.439363047415929e7 -2.0136633014353678e7 0.0
0.0 0.0 0.0

9.423655550775792e6 1.9575809919587366e7 0.0
1.9575809919587366e7 4.2771860670375414e7 0.0
0.0 0.0 0.0

-3.0344433328215014e6 3.549851934402237e7 0.0
3.549851934402237e7 3.1616652055797023e6 0.0
0.0 0.0 0.0

-140021.03531019832 3.556401005865871e7 0.0
3.556401005865871e7 -1.3549435947169126e6 0.0
0.0 0.0 0.0

296519.07321234007 3.6329226357507e7 0.0
3.6329226357507e7 -1.376286178821655e6 0.0
0.0 0.0 0.0

-3.8664619362990763e6 2.1889676576633222e7 0.0
2.1889676576633222e7 1.5449096669865439e7 0.0
0.0 0.0 0.0

-4.054631268916562e6 1.9455734148710795e7 0.0
1.9455734148710795e7 1.230498324613831e7 0.0
0.0 0.0 0.0

-7.469002702488063e6 1.3916287409312462e7 0.0
1.3916287409312462e7 1.409779531320777e7 0.0
0.0 0.0 0.0

-2.580199994808105e6 2.6217865971915554e7 0.0
2.6217865971915554e7 1.1294408240617828e7 0.0
0.0 0.0 0.0

-3.1087526914997753e6 1.8635335806065932e7 0.0
1.8635335806065932e7 1.3745415428789057e7 0.0
0.0 0.0 0.0

-7.341452289289497e6 1.682550499674657e7 0.0
1.682550499674657e7 3.337186122724243e7 0.0
0.0 0.0 0.0

1.5945182489784202e6 1.5009441945195239e7 0.0
1.5009441945195239e7 -2.081776760090097e7 0.0
0.0 0.0 0.0

-3.2585723950006105e6 2.3793459000407312e7 0.0
2.3793459000407312e7 1.2819846791960074e7 0.0
0.0 0.0 0.0

-7.987929902259612e6 1.521948894130739e7 0.0
1.521948894130739e7 3.482162568817464e7 0.0
0.0 0.0 0.0

5.420760320441581e6 2.2596257852572322e7 0.0
2.2596257852572322e7 1.7661350554121885e7 0.0
0.0 0.0 0.0

-3.1367963269985067e6 2.0555923797874827e7 0.0
2.0555923797874827e7 7.016451475976965e6 0.0
0.0 0.0 0.0

-675738.1792504068 3.3119440010551486e7 0.0
3.3119440010551486e7 632858.6318718283 0.0
0.0 0.0 0.0

-753500.9720499017 3.14936600443139e7 0.0
3.14936600443139e7 465547.2408153086 0.0
0.0 0.0 0.0

-3.2475522642769516e6 2.5726825546142083e7 0.0
2.5726825546142083e7 1.4854244665509535e7 0.0
0.0 0.0 0.0

-2.3338102916673236e6 2.098568094259949e7 0.0
2.098568094259949e7 -2.396500241652939e7 0.0
0.0 0.0 0.0

-2.8806215005506244e6 2.6542588605702497e7 0.0
2.6542588605702497e7 8.478794895398596e6 0.0
0.0 0.0 0.0

-4.452943453842716e6 2.05937712427989e7 0.0
2.05937712427989e7 2.2144862228919744e7 0.0
0.0 0.0 0.0

-283170.6884260373 2.4663410003045626e7 0.0
2.4663410003045626e7 -7.353587294715347e6 0.0
0.0 0.0 0.0

5.198254142662402e6 3.699787837212692e7 0.0
3.699787837212692e7 -2.9030687366609937e6 0.0
0.0 0.0 0.0

-3.504528227892925e6 2.6655137159823723e7 0.0
2.6655137159823723e7 1.328531871737948e7 0.0
0.0 0.0 0.0

-623195.952659714 2.4265122631406974e7 0.0
2.4265122631406974e7 -9.184106403076598e6 0.0
0.0 0.0 0.0

2.3282167056092415e6 9.710018448519602e6 0.0
9.710018448519602e6 -2.8462178181588043e7 0.0
0.0 0.0 0.0

-2.637011056743145e6 2.1898068039237067e7 0.0
2.1898068039237067e7 1.4905677948045606e7 0.0
0.0 0.0 0.0

5.8504213420659425e6 3.0097857575512767e7 0.0
3.0097857575512767e7 -7.243073818522783e6 0.0
0.0 0.0 0.0

2.515042521438351e6 2.8031021575945565e6 0.0
2.8031021575945565e6 -8.247270166401111e6 0.0
0.0 0.0 0.0

1.2513217396489996e6 9.814562609875703e6 0.0
9.814562609875703e6 -3.7697759303783454e7 0.0
0.0 0.0 0.0

258844.0369879133 2.274457666514608e7 0.0
2.274457666514608e7 -1.124153047328947e7 0.0
0.0 0.0 0.0

1.6448987566145927e7 2.6764528200408157e7 0.0
2.6764528200408157e7 1.5464296053719139e7 0.0
0.0 0.0 0.0

1.6097929083004873e6 1.0199587872238066e7 0.0
1.0199587872238066e7 -2.9243836053944137e7 0.0
0.0 0.0 0.0

1.477695874773685e6 1.1598447086671721e7 0.0
1.1598447086671721e7 -2.836143648864661e7 0.0
0.0 0.0 0.0

2.5090049430517373e6 2.2674808119215045e7 0.0
2.2674808119215045e7 6.7360402870347295e6 0.0
0.0 0.0 0.0

-9.580550653762449e6 8.652748279437363e6 0.0
8.652748279437363e6 3.481912963088661e7 0.0
0.0 0.0 0.0

-8.418608272659216e6 1.4499437884935658e7 0.0
1.4499437884935658e7 1.7153982108232744e7 0.0
0.0 0.0 0.0

-1.1933624628462188e7 2.038493771898237e7 0.0
2.038493771898237e7 -5.574301191240996e7 0.0
0.0 0.0 0.0

-4.971704403808654e6 1.9118472028449573e7 0.0
1.9118472028449573e7 1.581763759467639e7 0.0
0.0 0.0 0.0

-1.0189890433264505e7 1.4045427776074369e7 0.0
1.4045427776074369e7 2.5257500243704185e7 0.0
0.0 0.0 0.0

4.393253091650915e6 2.49511440985346e7 0.0
2.49511440985346e7 1.2566628196377626e7 0.0
0.0 0.0 0.0

-7.803914856052466e6 -2.590136002749758e6 0.0
-2.590136002749758e6 3.6356712855693184e7 0.0
0.0 0.0 0.0

-3.339044131543774e6 2.2304315984596092e7 0.0
2.2304315984596092e7 1.2422673532523777e7 0.0
0.0 0.0 0.0

-3.5881433476665425e6 2.954918611046929e7 0.0
2.954918611046929e7 8.74857104934737e6 0.0
0.0 0.0 0.0

358384.3972185543 2.0484559128414072e7 0.0
2.0484559128414072e7 -1.7592810052951537e7 0.0
0.0 0.0 0.0

-8.457548441578101e6 -1.9067867228824557e6 0.0
-1.9067867228824557e6 1.603945524936169e7 0.0
0.0 0.0 0.0

-7.255913789274641e6 1.3203667221660227e7 0.0
1.3203667221660227e7 1.2414996906866932e7 0.0
0.0 0.0 0.0

-784770.9527596794 8.323026049234068e6 0.0
8.323026049234068e6 -6.401488521467451e7 0.0
0.0 0.0 0.0

8.10786472866359e6 3.734551556163084e7 0.0
3.734551556163084e7 -3.712224121292142e6 0.0
0.0 0.0 0.0

-6.138324362323105e6 1.4119052069852773e7 0.0
1.4119052069852773e7 4.486071839315583e7 0.0
0.0 0.0 0.0

-6.28146320306427e6 2.1346339127481684e7 0.0
2.1346339127481684e7 -1.8450860703079715e7 0.0
0.0 0.0 0.0

-1.0285770243045729e7 1.352540065326438e7 0.0
1.352540065326438e7 2.7324314119316608e7 0.0
0.0 0.0 0.0

-1.6033707880568016e7 2.8614775875409182e7 0.0
2.8614775875409182e7 -1.170363392722136e7 0.0
0.0 0.0 0.0

-1.6893543229707598e6 2.2611140955680594e7 0.0
2.2611140955680594e7 -6.042205688124979e6 0.0
0.0 0.0 0.0

4.607387195993177e6 2.034557361314537e7 0.0
2.034557361314537e7 2.147953898241609e7 0.0
0.0 0.0 0.0

1.280691855458526e6 8.966072397911325e6 0.0
8.966072397911325e6 -3.9636674044926144e7 0.0
0.0 0.0 0.0

-5.762952363939601e6 1.8823096582254957e7 0.0
1.8823096582254957e7 -1.938353323916355e7 0.0
0.0 0.0 0.0

9.6342109885709e6 4.3274223885863036e7 0.0
4.3274223885863036e7 -5.07065118081877e6 0.0
0.0 0.0 0.0

-2.762089753805616e6 2.222888214467989e7 0.0
2.222888214467989e7 1.5984329798728034e7 0.0
0.0 0.0 0.0

-7.645462828519439e6 -2.0312757888858803e6 0.0
-2.0312757888858803e6 4.026697318227626e7 0.0
0.0 0.0 0.0

-412246.6657407237 2.2184943467766397e7 0.0
2.2184943467766397e7 1.9596088214847226e7 0.0
0.0 0.0 0.0

-1.3528932861744475e7 2.7615212832518365e7 0.0
2.7615212832518365e7 -1.3339383313609546e7 0.0
0.0 0.0 0.0

-6.376323096488548e6 1.182806892543619e7 0.0
1.182806892543619e7 8.720496989514131e6 0.0
0.0 0.0 0.0

5.280972405883785e6 2.0430890603017315e7 0.0
2.0430890603017315e7 4.537127369509205e7 0.0
0.0 0.0 0.0

-6.809872326969837e6 1.8701958915356815e7 0.0
1.8701958915356815e7 2.1833352089559533e7 0.0
0.0 0.0 0.0

-8.047696560172084e6 1.6872107557134714e7 0.0
1.6872107557134714e7 2.159071719168251e7 0.0
0.0 0.0 0.0

-7.10668514958922e6 1.2292922356669826e7 0.0
1.2292922356669826e7 4.4487945580042e7 0.0
0.0 0.0 0.0

-59082.936364150606 2.1751531830495916e7 0.0
2.1751531830495916e7 2.4580317834468134e7 0.0
0.0 0.0 0.0

-1.0439634103958873e7 3.4682309066308394e7 0.0
3.4682309066308394e7 5.591985771915831e6 0.0
0.0 0.0 0.0

413595.72990945727 3.902099022914806e7 0.0
3.902099022914806e7 -1.4898907135468442e6 0.0
0.0 0.0 0.0

-3.128038020194648e6 2.48263183282019e7 0.0
2.48263183282019e7 1.2153373840839248e7 0.0
0.0 0.0 0.0

2.1749789678733516e6 2.6652201983403163e6 0.0
2.6652201983403163e6 -6.756486803283018e6 0.0
0.0 0.0 0.0

1.9173084710189542e6 1.290413251980991e7 0.0
1.290413251980991e7 -2.28057760512465e7 0.0
0.0 0.0 0.0

1.6496608388872193e6 1.2767226925423231e7 0.0
1.2767226925423231e7 -1.742943142941807e7 0.0
0.0 0.0 0.0

-4.1464044360822393e6 1.9903762720349286e7 0.0
1.9903762720349286e7 1.3724454530159604e7 0.0
0.0 0.0 0.0

-440264.8866680127 5.334788657795828e7 0.0
5.334788657795828e7 -3.416096646378766e6 0.0
0.0 0.0 0.0

-1.0078511638111684e7 9.919424304596325e6 0.0
9.919424304596325e6 1.4592932459171584e7 0.0
0.0 0.0 0.0

3.953551309027802e6 3.4301598508920774e7 0.0
3.4301598508920774e7 -3.7954026831160234e6 0.0
0.0 0.0 0.0

6.406799257859435e6 3.1247050074385747e7 0.0
3.1247050074385747e7 -6.591307874393663e6 0.0
0.0 0.0 0.0

-4.2273070781659335e6 1.267129671243576e7 0.0
1.267129671243576e7 1.0029749579242824e7 0.0
0.0 0.0 0.0

-294469.9160081705 2.1068983093691826e7 0.0
2.1068983093691826e7 1.4029528490763148e6 0.0
0.0 0.0 0.0

2.3992620688782487e7 2.5493429987098675e7 0.0
2.5493429987098675e7 1.1703293418435067e7 0.0
0.0 0.0 0.0

1.0070382359136242e7 2.15236971511152e7 0.0
2.15236971511152e7 4.416902379498583e7 0.0
0.0 0.0 0.0

2.8815119820046653e6 2.1040382168329246e7 0.0
2.1040382168329246e7 1.7762871363517314e7 0.0
0.0 0.0 0.0

-6.933503721652592e6 1.8162193979411043e7 0.0
1.8162193979411043e7 2.0936922502358176e7 0.0
0.0 0.0 0.0

298611.35878903745 4.966155433214908e7 0.0
4.966155433214908e7 -2.7378334246353405e6 0.0
0.0 0.0 0.0

-2.3209103332462825e7 3.0240332873161614e7 0.0
3.0240332873161614e7 -1.1545197514565486e7 0.0
0.0 0.0 0.0

-7.822145348821189e6 1.743944599666585e7 0.0
1.743944599666585e7 2.251698716831612e7 0.0
0.0 0.0 0.0

-543105.1796306875 1.4148422339685144e7 0.0
1.4148422339685144e7 -4.0351643983026884e7 0.0
0.0 0.0 0.0

2.281311526548434e6 1.3964485940168302e6 0.0
1.3964485940168302e6 -4.596814805000794e7 0.0
0.0 0.0 0.0

1.0931075833422001e6 1.946999885077565e7 0.0
1.946999885077565e7 -1.8594692435395025e7 0.0
0.0 0.0 0.0

1.733431902506629e6 1.3671768113114601e7 0.0
1.3671768113114601e7 -2.1464652234434694e7 0.0
0.0 0.0 0.0

1.0493121115471823e6 2.1268025983187325e7 0.0
2.1268025983187325e7 -1.6241677739265446e7 0.0
0.0 0.0 0.0

-1.231090907004758e6 5.797639120329056e7 0.0
5.797639120329056e7 -5.526683644767974e6 0.0
0.0 0.0 0.0

-1.967498204023763e6 2.7283555997820307e7 0.0
2.7283555997820307e7 5.3242081157572605e6 0.0
0.0 0.0 0.0

1.4204640596752865e6 2.5087601498284563e7 0.0
2.5087601498284563e7 -1.3003258681827031e7 0.0
0.0 0.0 0.0

722947.0553442929 2.4171953085637167e7 0.0
2.4171953085637167e7 -1.3609294584133329e7 0.0
0.0 0.0 0.0

2.0334261742768297e6 1.17682743065014e7 0.0
1.17682743065014e7 -2.105878997728069e7 0.0
0.0 0.0 0.0

-3.476890263498635e6 2.6071978440726917e7 0.0
2.6071978440726917e7 1.2342907049732046e7 0.0
0.0 0.0 0.0

1.2670689274681127e6 2.261542634013507e7 0.0
2.261542634013507e7 2.1833099916899793e7 0.0
0.0 0.0 0.0

-7.113420536540963e6 2.7329593005949415e7 0.0
2.7329593005949415e7 8.644826418913264e6 0.0
0.0 0.0 0.0

-1.6576213318786547e6 9.381433656134052e6 0.0
9.381433656134052e6 8.26168601063813e7 0.0
0.0 0.0 0.0

-8.848189472074233e6 -233459.15327909024 0.0
-233459.15327909024 2.5817348711872526e7 0.0
0.0 0.0 0.0

-9.201510212641248e6 8.65193692227882e7 0.0
8.65193692227882e7 -1.6890154149124358e7 0.0
0.0 0.0 0.0

5.586620091660766e6 2.0495245507679805e7 0.0
2.0495245507679805e7 2.7684575373800654e7 0.0
0.0 0.0 0.0

650097.0471606591 4.717389432843527e7 0.0
4.717389432843527e7 -2.006895395367917e6 0.0
0.0 0.0 0.0

461008.1210167296 2.0881682824567292e7 0.0
2.0881682824567292e7 -1.2924466634620124e7 0.0
0.0 0.0 0.0

2.1840301621201383e6 2.4348344480326165e7 0.0
2.4348344480326165e7 -1.236467305350933e7 0.0
0.0 0.0 0.0

-2.5294756830467163e6 2.8498440574871656e7 0.0
2.8498440574871656e7 7.447207636244149e6 0.0
0.0 0.0 0.0

3.378057241664177e6 1.9372497608831148e6 0.0
1.9372497608831148e6 -2.525051897790584e7 0.0
0.0 0.0 0.0

1.1374330050851116e7 2.3662586808331475e7 0.0
2.3662586808331475e7 4.217895702408717e6 0.0
0.0 0.0 0.0

1.84732386063187e6 1.3565131362044744e7 0.0
1.3565131362044744e7 -2.360433337848735e7 0.0
0.0 0.0 0.0

6.503389409464005e6 2.8301185718375113e7 0.0
2.8301185718375113e7 -7.208952357256364e6 0.0
0.0 0.0 0.0

2.0535363255479913e6 8.341216615747158e6 0.0
8.341216615747158e6 -3.868388092491518e7 0.0
0.0 0.0 0.0

-2.207824025986532e6 2.3502730274774175e7 0.0
2.3502730274774175e7 1.1350734186823165e7 0.0
0.0 0.0 0.0

2.5319984613122977e6 7.863032434546415e6 0.0
7.863032434546415e6 -1.5039133538635282e7 0.0
0.0 0.0 0.0

-2.1356043142257473e6 1.3031215894697504e7 0.0
1.3031215894697504e7 1.8942708128384957e6 0.0
0.0 0.0 0.0

-2.09905344945952e7 2.7003000585603483e7 0.0
2.7003000585603483e7 -7.412316760554234e6 0.0
0.0 0.0 0.0

2.176035697408445e6 1.1158819037006246e7 0.0
1.1158819037006246e7 -2.764791212273151e7 0.0
0.0 0.0 0.0

-2.5195839525089734e6 1.9670364085569594e7 0.0
1.9670364085569594e7 -3.5086408376169605e6 0.0
0.0 0.0 0.0

727468.2225371818 2.581368277855144e7 0.0
2.581368277855144e7 -1.1070070919909557e7 0.0
0.0 0.0 0.0

434445.1587174684 2.09237243807812e7 0.0
2.09237243807812e7 3.1427924053664e7 0.0
0.0 0.0 0.0

587720.502294093 2.3139691604505114e7 0.0
2.3139691604505114e7 -1.737391513257124e6 0.0
0.0 0.0 0.0

-4.871932357190684e6 1.8649727721766517e7 0.0
1.8649727721766517e7 1.4441284509431904e7 0.0
0.0 0.0 0.0

-9.288196747772915e6 9.849887815827874e6 0.0
9.849887815827874e6 3.884359354715154e7 0.0
0.0 0.0 0.0

957647.528440265 2.1339190071848243e7 0.0
2.1339190071848243e7 3.1997706701488983e7 0.0
0.0 0.0 0.0

-5.834018231110547e6 1.9853762776212882e7 0.0
1.9853762776212882e7 2.1001972030037872e7 0.0
0.0 0.0 0.0

-9.803195229277736e6 5.244032091995329e6 0.0
5.244032091995329e6 3.4720035250577725e7 0.0
0.0 0.0 0.0

-3.245827785410703e6 2.14805450625277e7 0.0
2.14805450625277e7 1.7853707099925693e7 0.0
0.0 0.0 0.0

-3.5923222424739553e6 2.4204752687360782e7 0.0
2.4204752687360782e7 1.821529454596103e7 0.0
0.0 0.0 0.0

-9.962547409515932e6 8.328989152687397e6 0.0
8.328989152687397e6 1.9694310459217977e7 0.0
0.0 0.0 0.0

747606.6367181833 2.500103692309925e7 0.0
2.500103692309925e7 -1.234155925649818e7 0.0
0.0 0.0 0.0

-2.7581553573416295e6 2.8566970877254292e7 0.0
2.8566970877254292e7 4.6837803397930525e6 0.0
0.0 0.0 0.0

-5.659561973619175e6 2.0345600538063325e7 0.0
2.0345600538063325e7 2.1761998807254516e7 0.0
0.0 0.0 0.0

-7.825211576151006e6 4.918874246803545e6 0.0
4.918874246803545e6 4.986515710073675e7 0.0
0.0 0.0 0.0

-1.5964322432977138e6 2.37798202113427e7 0.0
2.37798202113427e7 1.4854996484018233e7 0.0
0.0 0.0 0.0

-7.381145335648809e6 1.6695096060914628e7 0.0
1.6695096060914628e7 2.394924516140421e7 0.0
0.0 0.0 0.0

103208.47686614282 1.3803447142141087e7 0.0
1.3803447142141087e7 -3.785967757828798e7 0.0
0.0 0.0 0.0

299614.58943794295 1.9999309252111077e7 0.0
1.9999309252111077e7 3.932406985748485e7 0.0
0.0 0.0 0.0

-7.132354708903473e6 1.8092684518795945e7 0.0
1.8092684518795945e7 2.7961023737524867e7 0.0
0.0 0.0 0.0

1.6534471581683736e6 1.216547417482862e7 0.0
1.216547417482862e7 -1.6509154107374646e7 0.0
0.0 0.0 0.0

2.242747925398674e6 3.361134303487471e6 0.0
3.361134303487471e6 -3.609429058539456e7 0.0
0.0 0.0 0.0

4.4093679060557075e6 2.042904630934654e7 0.0
2.042904630934654e7 3.517168357693599e7 0.0
0.0 0.0 0.0

2.4840303848637436e6 2.0496538042555675e7 0.0
2.0496538042555675e7 3.740419620082203e7 0.0
0.0 0.0 0.0

-445156.9349038382 2.020640898262652e7 0.0
2.020640898262652e7 -8.993740723722791e6 0.0
0.0 0.0 0.0

-3.7316579870602107e6 2.7613003338576257e7 0.0
2.7613003338576257e7 1.190382985655788e7 0.0
0.0 0.0 0.0

656180.8520249903 4.2321568895149015e7 0.0
4.2321568895149015e7 -1.730417691450415e6 0.0
0.0 0.0 0.0

1.0454170784809059e6 2.2988681024322767e7 0.0
2.2988681024322767e7 -1.4999783098132893e7 0.0
0.0 0.0 0.0

-9.380888896726523e6 965019.5382147363 0.0
965019.5382147363 2.6919966818744514e7 0.0
0.0 0.0 0.0

-221535.21798469312 1.6306907430761594e7 0.0
1.6306907430761594e7 -3.236514860430403e7 0.0
0.0 0.0 0.0

-2.759138413917782e6 2.454510996470082e7 0.0
2.454510996470082e7 1.5112378880904548e7 0.0
0.0 0.0 0.0

-7.858453866554728e6 1.6810566458164945e7 0.0
1.6810566458164945e7 2.8887637447350793e7 0.0
0.0 0.0 0.0

4.750143031568685e6 1.7969259108156495e7 0.0
1.7969259108156495e7 1.5947606852003487e7 0.0
0.0 0.0 0.0

292832.84313631244 1.0824941174708636e7 0.0
1.0824941174708636e7 -4.4631909379042126e7 0.0
0.0 0.0 0.0

499628.63503953256 1.3662274749141661e7 0.0
1.3662274749141661e7 -3.534931651604838e7 0.0
0.0 0.0 0.0

1.1691750494774835e7 4.5368702787404485e7 0.0
4.5368702787404485e7 -5.774635916168013e6 0.0
0.0 0.0 0.0

-1.8035121927692702e6 2.7892984243872814e7 0.0
2.7892984243872814e7 4.1501307418858795e6 0.0
0.0 0.0 0.0

-2.463322683191495e6 2.918935523977694e7 0.0
2.918935523977694e7 6.308115126111955e6 0.0
0.0 0.0 0.0

-1.1167275684902696e6 2.9815676203171257e7 0.0
2.9815676203171257e7 -2.446728786469954e6 0.0
0.0 0.0 0.0

3.353405698539352e6 4.2157387021133555e6 0.0
4.2157387021133555e6 -2.0765583783741552e7 0.0
0.0 0.0 0.0

-2.7075820162759884e6 1.9603713168314114e7 0.0
1.9603713168314114e7 -9.15511199451427e6 0.0
0.0 0.0 0.0

-2.5868500578782847e6 2.4366898840837788e7 0.0
2.4366898840837788e7 1.4332929990644274e7 0.0
0.0 0.0 0.0

1.9771198438835246e6 2.5749132112590488e7 0.0
2.5749132112590488e7 -1.1911845107538221e7 0.0
0.0 0.0 0.0

635567.4450065988 4.1061092095575914e7 0.0
4.1061092095575914e7 -1.5645651219595147e6 0.0
0.0 0.0 0.0

-7.314280962984157e6 1.1023296807843756e7 0.0
1.1023296807843756e7 1.6315501618957672e7 0.0
0.0 0.0 0.0

-1.0017572008243946e7 1.2332583959438277e7 0.0
1.2332583959438277e7 3.1808057567144275e7 0.0
0.0 0.0 0.0

525974.6029067381 4.004315833587061e7 0.0
4.004315833587061e7 -1.3849687620226038e6 0.0
0.0 0.0 0.0

715379.117477484 2.666834686777421e7 0.0
2.666834686777421e7 -9.888347129136859e6 0.0
0.0 0.0 0.0

1.1924377313572448e6 1.229181022596232e7 0.0
1.229181022596232e7 -2.1905391947807636e7 0.0
0.0 0.0 0.0

-3.410024562930286e6 1.95404314356837e7 0.0
1.95404314356837e7 1.649721843457241e7 0.0
0.0 0.0 0.0

303959.0659083389 9.970885478148907e6 0.0
9.970885478148907e6 -4.6926143018337905e7 0.0
0.0 0.0 0.0

-625396.1081333166 3.463704199714163e7 0.0
3.463704199714163e7 703309.9831197177 0.0
0.0 0.0 0.0

-3.798385163263633e6 2.5221853818498626e7 0.0
2.5221853818498626e7 1.1346404606072556e7 0.0
0.0 0.0 0.0

-1.171582101572631e6 1.5094899344997363e7 0.0
1.5094899344997363e7 -4.0712383190978706e7 0.0
0.0 0.0 0.0

-3.5983153117697006e6 2.985229181840953e7 0.0
2.985229181840953e7 6.47288348632791e6 0.0
0.0 0.0 0.0

-9.687404529470058e6 1.1912624391757188e7 0.0
1.1912624391757188e7 3.421379786188646e7 0.0
0.0 0.0 0.0

976074.0329551166 1.192953580886669e7 0.0
1.192953580886669e7 -1.873403631128128e7 0.0
0.0 0.0 0.0

2.942277776731064e6 2.412122676307836e7 0.0
2.412122676307836e7 1.226974750538319e7 0.0
0.0 0.0 0.0

-2.320532478229699e6 2.6866024151668232e7 0.0
2.6866024151668232e7 8.964467081989955e6 0.0
0.0 0.0 0.0

-1.9236624157034084e6 1.6167767264608776e7 0.0
1.6167767264608776e7 -4.02868108412071e7 0.0
0.0 0.0 0.0

-1.747832371772022e6 6.434629340180723e7 0.0
6.434629340180723e7 -8.720907121347811e6 0.0
0.0 0.0 0.0

-6.430334477842703e6 1.947596770368171e7 0.0
1.947596770368171e7 2.531262094638735e7 0.0
0.0 0.0 0.0

-1.4121193438003223e7 1.9716548639365975e7 0.0
1.9716548639365975e7 -6.735043584207812e7 0.0
0.0 0.0 0.0

-5.330203672714464e6 1.1517284015989764e7 0.0
1.1517284015989764e7 1.2383508391790248e7 0.0
0.0 0.0 0.0

-3.440922402865747e6 2.2671329752715267e7 0.0
2.2671329752715267e7 1.356420003970018e7 0.0
0.0 0.0 0.0

-2.3968106575883906e6 1.974346426615138e7 0.0
1.974346426615138e7 3.589930866447999e7 0.0
0.0 0.0 0.0

-4.0661797960998733e6 1.827725932723527e7 0.0
1.827725932723527e7 1.7312233882058546e7 0.0
0.0 0.0 0.0

2.4388918918348216e6 1.8421262180019718e7 0.0
1.8421262180019718e7 6.837424927631451e7 0.0
0.0 0.0 0.0

-2.35647237384074e6 2.270256006855668e7 0.0
2.270256006855668e7 1.3044810831726857e7 0.0
0.0 0.0 0.0

-2.0657180898951553e6 2.0295600222681955e7 0.0
2.0295600222681955e7 -2.688830775507095e7 0.0
0.0 0.0 0.0

1.1541219428634737e6 2.3480508426803865e7 0.0
2.3480508426803865e7 -1.5836397326878164e7 0.0
0.0 0.0 0.0

1.8667134368385956e8 3.2990443376205776e7 0.0
3.2990443376205776e7 1.7904126212600976e7 0.0
0.0 0.0 0.0

-7.528467646447595e6 -1.9466413785817877e6 0.0
-1.9466413785817877e6 4.1647645533988714e7 0.0
0.0 0.0 0.0

2.5021042722106e6 1.4187339113516554e6 0.0
1.4187339113516554e6 -4.177227783044781e7 0.0
0.0 0.0 0.0

-9.970709127724946e6 1.9973197900004128e6 0.0
1.9973197900004128e6 1.5377504005657483e7 0.0
0.0 0.0 0.0

-872982.1245836394 2.9137975911437258e7 0.0
2.9137975911437258e7 -3.499658544947869e6 0.0
0.0 0.0 0.0

-6.55751474275697e6 -1.3004761233618427e6 0.0
-1.3004761233618427e6 5.345214979539339e7 0.0
0.0 0.0 0.0

-9.274516915521156e6 1.882611704086131e7 0.0
1.882611704086131e7 -4.0064101173804e7 0.0
0.0 0.0 0.0

-8.72155171954171e6 1.5257819333167775e7 0.0
1.5257819333167775e7 2.958602600720012e7 0.0
0.0 0.0 0.0

-5.530657583254865e6 2.0800334074153796e7 0.0
2.0800334074153796e7 2.23616167057606e7 0.0
0.0 0.0 0.0

2.161810154445201e6 1.3470913112415208e6 0.0
1.3470913112415208e6 -4.7396790583849676e7 0.0
0.0 0.0 0.0

1.0300432003166387e6 2.020282963293605e7 0.0
2.020282963293605e7 -1.714554392605574e7 0.0
0.0 0.0 0.0

642843.7130155376 4.3800292101762734e7 0.0
4.3800292101762734e7 -1.4412987230860079e6 0.0
0.0 0.0 0.0

648324.2503992375 1.2728139871244973e7 0.0
1.2728139871244973e7 -1.741947669359078e7 0.0
0.0 0.0 0.0

-4.516368044482328e6 2.4480687880003825e7 0.0
2.4480687880003825e7 -4.811913455244855e6 0.0
0.0 0.0 0.0

1.3645315118818656e6 9.524647993587652e6 0.0
9.524647993587652e6 1.1428143660803725e8 0.0
0.0 0.0 0.0

-3.5420823658244535e6 9.055151073247544e6 0.0
9.055151073247544e6 -1.1081990366986653e8 0.0
0.0 0.0 0.0

-7.832350433717389e6 1.870871928992092e7 0.0
1.870871928992092e7 -9.38914993961686e7 0.0
0.0 0.0 0.0

1.223855705218777e6 1.8077578842946623e7 0.0
1.8077578842946623e7 -2.146677499690786e7 0.0
0.0 0.0 0.0

1.4696383888507523e6 7.582698867912427e6 0.0
7.582698867912427e6 -5.097600124248852e7 0.0
0.0 0.0 0.0

-2.8708149951588016e7 3.2299834812567152e7 0.0
3.2299834812567152e7 1.5150577650044449e6 0.0
0.0 0.0 0.0

1.7891897922756355e6 2.500569657770599e7 0.0
2.500569657770599e7 -1.3282291979035625e7 0.0
0.0 0.0 0.0

-7.354376378065787e6 -1.9172493972687798e6 0.0
-1.9172493972687798e6 4.3053661693719976e7 0.0
0.0 0.0 0.0

-7.2585155352935465e6 1.394830348772187e7 0.0
1.394830348772187e7 1.7805853667078346e7 0.0
0.0 0.0 0.0

-2.317355779493879e6 2.984605774893548e7 0.0
2.984605774893548e7 5.199824015424528e6 0.0
0.0 0.0 0.0

-3.341937295103727e6 2.5089191387755845e7 0.0
2.5089191387755845e7 1.3033583058587996e7 0.0
0.0 0.0 0.0

-7.150054680928474e6 1.7069903633501522e7 0.0
1.7069903633501522e7 1.8720975431842536e7 0.0
0.0 0.0 0.0

-8.944787450511018e6 9.653310892615296e6 0.0
9.653310892615296e6 1.844722329165497e7 0.0
0.0 0.0 0.0

9.439009000783069e6 2.356994265962533e7 0.0
2.356994265962533e7 6.298294963688056e6 0.0
0.0 0.0 0.0

628360.2333366163 2.7564992278040536e7 0.0
2.7564992278040536e7 -8.761322868833706e6 0.0
0.0 0.0 0.0

-4.214849344264919e6 7.312391033467595e6 0.0
7.312391033467595e6 2.0967316663002213e6 0.0
0.0 0.0 0.0

1.0290254589724366e6 3.1817048358594995e7 0.0
3.1817048358594995e7 -2.8155328459058967e6 0.0
0.0 0.0 0.0

-7.709425244911317e6 1.8200357537410736e7 0.0
1.8200357537410736e7 2.7919414172400273e7 0.0
0.0 0.0 0.0

-3.253031860789527e6 1.910127109263952e7 0.0
1.910127109263952e7 1.5160840618950281e7 0.0
0.0 0.0 0.0

-7.194073897666559e6 -1.830804947733809e6 0.0
-1.830804947733809e6 4.4441136915748306e7 0.0
0.0 0.0 0.0

2.275180218215728e6 1.4072833763041368e6 0.0
1.4072833763041368e6 -4.453519872920789e7 0.0
0.0 0.0 0.0

1.2623970094140172e6 7.9158697209410975e6 0.0
7.9158697209410975e6 -5.44662767536806e7 0.0
0.0 0.0 0.0

-9.898206580445686e6 1.4310605839324238e7 0.0
1.4310605839324238e7 2.82261320817359e7 0.0
0.0 0.0 0.0

-1.351980583568897e6 5.370683279402643e6 0.0
5.370683279402643e6 -9.62657583755489e7 0.0
0.0 0.0 0.0

-5.029866637856804e6 66662.29164525887 0.0
66662.29164525887 7.04575446061847e7 0.0
0.0 0.0 0.0

1.3641430174828032e6 1.1516624549708301e7 0.0
1.1516624549708301e7 -2.332363116649741e7 0.0
0.0 0.0 0.0

2.4301354963834677e6 9.870539299446344e6 0.0
9.870539299446344e6 -2.611857699941057e7 0.0
0.0 0.0 0.0

7.87222249419783e6 3.998947171683855e7 0.0
3.998947171683855e7 -3.222010992186967e6 0.0
0.0 0.0 0.0

-8.188448534337465e6 3.457211019816951e7 0.0
3.457211019816951e7 6.276696655221207e6 0.0
0.0 0.0 0.0

-2.4411283134463066e6 2.616663121668977e7 0.0
2.616663121668977e7 1.0218272247829117e7 0.0
0.0 0.0 0.0

1.3815456977139786e6 3.04074571680939e7 0.0
3.04074571680939e7 -4.756167336367663e6 0.0
0.0 0.0 0.0

-907043.4578399069 4.068916900101324e7 0.0
4.068916900101324e7 1.2448715271163671e6 0.0
0.0 0.0 0.0

-2.8462903407303924e6 2.788932602404332e7 0.0
2.788932602404332e7 9.550719645686112e6 0.0
0.0 0.0 0.0

1.366579417399696e6 2.1794547494223226e7 0.0
2.1794547494223226e7 1.4319503911073672e7 0.0
0.0 0.0 0.0

221083.44854057208 2.6963335754675437e6 0.0
2.6963335754675437e6 -8.114108384243959e7 0.0
0.0 0.0 0.0

1.9725433990055285e6 1.258525058114683e6 0.0
1.258525058114683e6 -5.335362010907552e7 0.0
0.0 0.0 0.0

1.0444084143814817e6 1.6839948705968147e6 0.0
1.6839948705968147e6 -6.983837921541186e7 0.0
0.0 0.0 0.0

-2.261131859363011e6 3.0250715565688126e7 0.0
3.0250715565688126e7 1.575145132476594e6 0.0
0.0 0.0 0.0

-6.891746678955015e6 1.253534525926824e7 0.0
1.253534525926824e7 1.062305639440516e7 0.0
0.0 0.0 0.0

-6.273866376895916e6 -1.1611901818372828e6 0.0
-1.1611901818372828e6 5.501930227930814e7 0.0
0.0 0.0 0.0

-9.84181958311337e6 1.4725586087633707e7 0.0
1.4725586087633707e7 2.620923403019669e7 0.0
0.0 0.0 0.0

3.0674846652176324e6 3.4812321111797923e6 0.0
3.4812321111797923e6 -2.7935775251247387e7 0.0
0.0 0.0 0.0

-1.6425378046796238e7 3.1682839855908398e7 0.0
3.1682839855908398e7 4.739192019537576e6 0.0
0.0 0.0 0.0

-8.822377086291557e6 2.006386822241425e7 0.0
2.006386822241425e7 -3.3848368353555426e7 0.0
0.0 0.0 0.0

-7.833902010084428e6 -2.4980477349381475e6 0.0
-2.4980477349381475e6 3.575307901529279e7 0.0
0.0 0.0 0.0

-1.1063936390520403e7 6.441758623035576e6 0.0
6.441758623035576e6 2.5037018714203455e7 0.0
0.0 0.0 0.0

-8.88223922530359e6 1.1100222436259046e7 0.0
1.1100222436259046e7 3.969639279206685e7 0.0
0.0 0.0 0.0

-3.0143089879696295e6 2.3060007009405036e7 0.0
2.3060007009405036e7 2.13687465673137e7 0.0
0.0 0.0 0.0

775429.9501272086 1.431192562827871e7 0.0
1.431192562827871e7 -3.128600126793144e7 0.0
0.0 0.0 0.0

920235.5470387749 2.199570075166164e6 0.0
2.199570075166164e6 -7.683407921102232e7 0.0
0.0 0.0 0.0

2.5628877981791086e6 1.510428574117874e6 0.0
1.510428574117874e6 -3.774918043344785e7 0.0
0.0 0.0 0.0

1.7787011054801464e7 4.2886874835650496e7 0.0
4.2886874835650496e7 -7.226096537387184e6 0.0
0.0 0.0 0.0

-5.343331873518109e6 -133576.12349658326 0.0
-133576.12349658326 6.770759110199213e7 0.0
0.0 0.0 0.0

1.3091999625010286e6 9.334266149122804e6 0.0
9.334266149122804e6 -4.600210823209468e7 0.0
0.0 0.0 0.0

-3.8192717686822414e6 2.847048666442219e6 0.0
2.847048666442219e6 8.904724340463744e7 0.0
0.0 0.0 0.0

47843.4328940846 3.591643303685866e6 0.0
3.591643303685866e6 -8.724984603676875e7 0.0
0.0 0.0 0.0

-4.0529133113027224e6 2.9458654157287467e7 0.0
2.9458654157287467e7 9.392468847195718e6 0.0
0.0 0.0 0.0

-1.5110513914465099e6 1.4173491967377963e7 0.0
1.4173491967377963e7 -7.53989829232977e6 0.0
0.0 0.0 0.0

-387158.7181956051 2.130025873422222e7 0.0
2.130025873422222e7 -1.3642465847177252e7 0.0
0.0 0.0 0.0

293647.69358118623 1.966876361819578e7 0.0
1.966876361819578e7 -2.3184727147010162e7 0.0
0.0 0.0 0.0

-4.595282139750227e6 396812.93264997896 0.0
396812.93264997896 7.378948758747217e7 0.0
0.0 0.0 0.0

845054.9735031463 1.9698403244248305e6 0.0
1.9698403244248305e6 -7.3096956614869e7 0.0
0.0 0.0 0.0

-6.804091407118436e6 1.896892093476843e7 0.0
1.896892093476843e7 2.8677914324750543e7 0.0
0.0 0.0 0.0

-8.140327258043051e6 1.7643114353762448e7 0.0
1.7643114353762448e7 2.7283967429445285e7 0.0
0.0 0.0 0.0

-9.297790406557001e6 1.2905807255462017e7 0.0
1.2905807255462017e7 3.501987525291484e7 0.0
0.0 0.0 0.0

-5.159103871592515e6 1.7519996120467387e7 0.0
1.7519996120467387e7 1.9454529194378912e7 0.0
0.0 0.0 0.0

6.415978146606227e6 2.0973877615494285e7 0.0
2.0973877615494285e7 4.612861597961486e7 0.0
0.0 0.0 0.0

1.7710140110450992e6 2.8235836750604153e7 0.0
2.8235836750604153e7 -7.70317458164808e6 0.0
0.0 0.0 0.0

-2.1241810219546966e6 3.2347463704945844e7 0.0
3.2347463704945844e7 792172.3906321354 0.0
0.0 0.0 0.0

1.5966195327165974e6 2.9941669851273347e7 0.0
2.9941669851273347e7 -6.541142676953828e6 0.0
0.0 0.0 0.0

2.1540661703521125e6 1.1566828192481454e7 0.0
1.1566828192481454e7 -2.3308605020146303e7 0.0
0.0 0.0 0.0

-4.563103534832178e6 3.2928938040087555e7 0.0
3.2928938040087555e7 6.082003410542462e6 0.0
0.0 0.0 0.0

-2.638489081093087e6 2.342243684711828e7 0.0
2.342243684711828e7 -6.70191538589045e6 0.0
0.0 0.0 0.0

1.4020039871974224e6 1.6752068558493469e7 0.0
1.6752068558493469e7 -2.438392841686458e7 0.0
0.0 0.0 0.0

-6.790471354130724e6 1.6889138409402426e7 0.0
1.6889138409402426e7 3.586883006685725e7 0.0
0.0 0.0 0.0

-9.444258358674344e6 1.5018710158598516e7 0.0
1.5018710158598516e7 2.9119267927053668e7 0.0
0.0 0.0 0.0

1.623917575819565e6 1.0464554150233004e7 0.0
1.0464554150233004e7 -2.7052119498072684e7 0.0
0.0 0.0 0.0

-6.909119393109523e6 -1.6060920611790759e6 0.0
-1.6060920611790759e6 4.8786885041726634e7 0.0
0.0 0.0 0.0

2.0485995075505264e6 1.3573212789265139e6 0.0
1.3573212789265139e6 -4.883083834846675e7 0.0
0.0 0.0 0.0

1.2542967294968553e6 2.1215734525322683e7 0.0
2.1215734525322683e7 2.8006448606540963e7 0.0
0.0 0.0 0.0

-5.471808530337144e6 -315377.9623798075 0.0
-315377.9623798075 6.513025964227626e7 0.0
0.0 0.0 0.0

1.2021461973730773e6 1.5248038922152917e6 0.0
1.5248038922152917e6 -6.462319343617896e7 0.0
0.0 0.0 0.0

1.9547726027925648e6 1.4167775717658668e6 0.0
1.4167775717658668e6 -5.02557465255573e7 0.0
0.0 0.0 0.0

-6.748157992363263e6 -1.4593931264705418e6 0.0
-1.4593931264705418e6 5.0261811248054855e7 0.0
0.0 0.0 0.0

-1.0525157658482231e6 1.85829974898134e7 0.0
1.85829974898134e7 4.667357465544253e7 0.0
0.0 0.0 0.0

1.4348737276045978e6 1.4230404598427368e6 0.0
1.4230404598427368e6 -6.250940415214074e7 0.0
0.0 0.0 0.0

-5.63678843749677e6 -588843.2857378647 0.0
-588843.2857378647 6.269131619578482e7 0.0
0.0 0.0 0.0

-2.2678794177999515e6 2.245245088516694e7 0.0
2.245245088516694e7 2.4578078895507764e7 0.0
0.0 0.0 0.0

-7.648317456544761e6 1.0785216704397283e6 0.0
1.0785216704397283e6 4.445130406521374e7 0.0
0.0 0.0 0.0

-6.651348153704312e6 -1.338271525390213e6 0.0
-1.338271525390213e6 5.187888876057743e7 0.0
0.0 0.0 0.0

2.119603487016678e6 1.3786833661740741e6 0.0
1.3786833661740741e6 -5.1874270017317936e7 0.0
0.0 0.0 0.0

1.5091204081473611e6 1.4415910961343746e6 0.0
1.4415910961343746e6 -6.048362950053697e7 0.0
0.0 0.0 0.0

-5.856794219331037e6 -827862.0034399675 0.0
-827862.0034399675 6.055392223887628e7 0.0
0.0 0.0 0.0

-3.306287395035065e8 7.241717438451333e7 0.0
7.241717438451333e7 -3.951153350825941e7 0.0
0.0 0.0 0.0

3.178534441553609e8 6.5474220910749555e7 0.0
6.5474220910749555e7 3.2862181066910297e7 0.0
0.0 0.0 0.0

-7.053014220474516e6 1.7624002365598906e7 0.0
1.7624002365598906e7 1.9877257514173016e7 0.0
0.0 0.0 0.0

1.4240471796774082e6 1.3226273217542202e6 0.0
1.3226273217542202e6 -5.849803310770809e7 0.0
0.0 0.0 0.0

-6.144631230659578e6 -934176.9510904433 0.0
-934176.9510904433 5.875545984232726e7 0.0
0.0 0.0 0.0

445392.9905652259 2.1668860456081145e7 0.0
2.1668860456081145e7 -1.3453448518420588e6 0.0
0.0 0.0 0.0

-9.030149517659346e6 1.6110687366949951e7 0.0
1.6110687366949951e7 2.785891421197156e7 0.0
0.0 0.0 0.0

-2.0898999014379608e6 3.0475462108043496e7 0.0
3.0475462108043496e7 4.198499827333333e6 0.0
0.0 0.0 0.0

2.0231244446424972e6 2.1841503773818206e7 0.0
2.1841503773818206e7 2.8906931717252154e7 0.0
0.0 0.0 0.0

-6.255932138276763e6 -993215.8255064525 0.0
-993215.8255064525 5.690706834648667e7 0.0
0.0 0.0 0.0

1.6777790941118635e6 1.1876989878613646e6 0.0
1.1876989878613646e6 -5.6839130520738505e7 0.0
0.0 0.0 0.0

627235.4758902853 2.840645674335499e7 0.0
2.840645674335499e7 -7.670297226001986e6 0.0
0.0 0.0 0.0

-1.0493241431586182e7 1.9520957314593274e7 0.0
1.9520957314593274e7 -6.882837038565397e7 0.0
0.0 0.0 0.0

-320108.50947985274 3.1921483264312573e7 0.0
3.1921483264312573e7 -2.6446698650092836e6 0.0
0.0 0.0 0.0

1.1985569133461472e6 1.87814740328551e7 0.0
1.87814740328551e7 -2.0003855498018477e7 0.0
0.0 0.0 0.0

125729.78075157851 1.7450720915968664e7 0.0
1.7450720915968664e7 -2.8387836518987533e7 0.0
0.0 0.0 0.0

164559.59224048257 2.2061813050518505e7 0.0
2.2061813050518505e7 8.156542675922583e6 0.0
0.0 0.0 0.0

3.600476918247893e6 2.8274257693782717e7 0.0
2.8274257693782717e7 -9.165468073085345e6 0.0
0.0 0.0 0.0

1.901058967056564e6 2.573365224031091e7 0.0
2.573365224031091e7 -1.1786207755508669e7 0.0
0.0 0.0 0.0

-7.652759622448515e6 1.821519755478184e7 0.0
1.821519755478184e7 -5.3069192797351696e7 0.0
0.0 0.0 0.0

-1.1859425986943692e6 3.1953475827256497e7 0.0
3.1953475827256497e7 1.3982755092086834e6 0.0
0.0 0.0 0.0

-2.866387176404955e6 2.5618026128813278e7 0.0
2.5618026128813278e7 1.100902309585392e7 0.0
0.0 0.0 0.0

-9.375440753867624e6 2.701749826783475e7 0.0
2.701749826783475e7 -1.3827204001958122e7 0.0
0.0 0.0 0.0

-210363.33698769286 1.7993634425028738e7 0.0
1.7993634425028738e7 -2.841536731355122e7 0.0
0.0 0.0 0.0

-9.658021852938812e6 1.5144704993671935e7 0.0
1.5144704993671935e7 2.4160704116790198e7 0.0
0.0 0.0 0.0

3.4817348975094734e6 2.0707832598675784e7 0.0
2.0707832598675784e7 1.503565709478774e7 0.0
0.0 0.0 0.0

-8.62879660878943e6 1.6629004813497266e7 0.0
1.6629004813497266e7 2.3860837998497628e7 0.0
0.0 0.0 0.0

-1.527552701073185e6 2.160698632886914e7 0.0
2.160698632886914e7 -2.147461995302053e6 0.0
0.0 0.0 0.0

-1.5091282387840357e6 3.1553403607474767e7 0.0
3.1553403607474767e7 2.409638198873986e6 0.0
0.0 0.0 0.0

-3.1874159769715443e6 1.8249483800303034e7 0.0
1.8249483800303034e7 -3.625602010873454e7 0.0
0.0 0.0 0.0

-1.44094445078299e6 2.255161977746312e7 0.0
2.255161977746312e7 2.4263931141284477e7 0.0
0.0 0.0 0.0

-1.146618838639269e6 4.180728669762291e7 0.0
4.180728669762291e7 1.74464508852797e6 0.0
0.0 0.0 0.0

-2.3322049444486387e6 2.2097931216709815e7 0.0
2.2097931216709815e7 -2.990567005357339e6 0.0
0.0 0.0 0.0

354611.58181488654 2.9905797624356195e7 0.0
2.9905797624356195e7 -5.534553509687822e6 0.0
0.0 0.0 0.0

2.1279060757460516e7 2.7085980831672832e7 0.0
2.7085980831672832e7 1.4853509913048562e7 0.0
0.0 0.0 0.0

-1.8539259705699917e6 3.104878925950964e7 0.0
3.104878925950964e7 3.2571653866424197e6 0.0
0.0 0.0 0.0

-9.867713338399246e6 1.787185392173884e7 0.0
1.787185392173884e7 -3.029473635599115e6 0.0
0.0 0.0 0.0

-1.2674430880170828e6 3.4224646737903245e7 0.0
3.4224646737903245e7 1.4400534669601382e6 0.0
0.0 0.0 0.0

2.978214975905264e6 1.7429783609444322e6 0.0
1.7429783609444322e6 -2.9536976516213693e7 0.0
0.0 0.0 0.0

3.0856064502476305e6 1.8135176226761735e6 0.0
1.8135176226761735e6 -2.8349276556374043e7 0.0
0.0 0.0 0.0

586934.2676384635 2.918496255513623e7 0.0
2.918496255513623e7 -6.392799355322835e6 0.0
0.0 0.0 0.0

3.350429478833949e6 2.1062271093168054e7 0.0
2.1062271093168054e7 3.820312893398316e7 0.0
0.0 0.0 0.0

-604316.3597724348 3.5386458635088734e7 0.0
3.5386458635088734e7 821498.5626108728 0.0
0.0 0.0 0.0

-9.533129591422476e6 1.3301442165612102e7 0.0
1.3301442165612102e7 3.267160656250061e7 0.0
0.0 0.0 0.0

-748781.4026026567 3.8842025050911866e7 0.0
3.8842025050911866e7 1.0629929130623986e6 0.0
0.0 0.0 0.0

-2.454164078798297e6 2.3999629536090698e7 0.0
2.3999629536090698e7 1.439427486827717e7 0.0
0.0 0.0 0.0

413386.310806477 2.0483853808318302e7 0.0
2.0483853808318302e7 5.908063709739041e6 0.0
0.0 0.0 0.0

1.1622014340357818e6 1.4039438917338517e7 0.0
1.4039438917338517e7 -3.3028211461891253e7 0.0
0.0 0.0 0.0

-3.1735713520267704e6 3.0299409689231716e7 0.0
3.0299409689231716e7 4.470085636687348e6 0.0
0.0 0.0 0.0

-8.440916044777287e6 -1.0433864143996607e6 0.0
-1.0433864143996607e6 3.232633221838653e7 0.0
0.0 0.0 0.0

-1.1362982458440308e6 1.7884063961493216e7 0.0
1.7884063961493216e7 4.948617465256976e7 0.0
0.0 0.0 0.0

-6.867103605331557e6 1.778178782545824e7 0.0
1.778178782545824e7 -5.9666362520383425e7 0.0
0.0 0.0 0.0

-8.223459624920433e6 1.4081941407252822e7 0.0
1.4081941407252822e7 3.655557545680515e7 0.0
0.0 0.0 0.0

8.823372613374649e6 2.9238802111400977e7 0.0
2.9238802111400977e7 -6.094214541204864e6 0.0
0.0 0.0 0.0

1.437912612710014e6 1.4703216391219037e7 0.0
1.4703216391219037e7 -2.9115814931756634e7 0.0
0.0 0.0 0.0

-2.5301757526687915e6 2.1636595501146615e7 0.0
2.1636595501146615e7 -1.7894623071969952e6 0.0
0.0 0.0 0.0

6794.234225373948 3.1320513501709916e7 0.0
3.1320513501709916e7 -3.5676721966786548e6 0.0
0.0 0.0 0.0

-1.0084781913661609e6 2.0987662838051304e7 0.0
2.0987662838051304e7 -6.139896278215956e6 0.0
0.0 0.0 0.0

-9.11845219740494e6 1.4545987996791372e7 0.0
1.4545987996791372e7 2.8784089841737173e7 0.0
0.0 0.0 0.0

-7.472043344866686e6 1.6053512612402426e7 0.0
1.6053512612402426e7 3.5360579562398344e7 0.0
0.0 0.0 0.0

209622.861059017 3.062719663793078e7 0.0
3.062719663793078e7 -4.561542963421035e6 0.0
0.0 0.0 0.0

-6.407715092028096e6 1.6810919117745504e7 0.0
1.6810919117745504e7 2.134311570195666e7 0.0
0.0 0.0 0.0

2.0764415079806354e6 4.580395596285052e6 0.0
4.580395596285052e6 -4.7934111372026406e7 0.0
0.0 0.0 0.0

-5.052249878953744e6 1.9560697849949162e7 0.0
1.9560697849949162e7 1.7104853766400855e7 0.0
0.0 0.0 0.0

-2.2137717816591132e6 2.07699942717814e7 0.0
2.07699942717814e7 -1.3038709000569869e7 0.0
0.0 0.0 0.0

931889.049886693 2.190082310781368e7 0.0
2.190082310781368e7 1.9966431826704084e6 0.0
0.0 0.0 0.0

-4.34912071592164e6 2.3460457329861302e7 0.0
2.3460457329861302e7 -1.4920933057770336e7 0.0
0.0 0.0 0.0

-1.584071182715258e6 2.143656002069109e7 0.0
2.143656002069109e7 -8.203090010978152e6 0.0
0.0 0.0 0.0

223648.22064898722 1.8040530926485885e7 0.0
1.8040530926485885e7 -2.659297703405535e7 0.0
0.0 0.0 0.0

1.589369003846418e6 8.985918317872949e6 0.0
8.985918317872949e6 -3.444876923842904e7 0.0
0.0 0.0 0.0

-1.6813457576435392e6 2.087470915496919e7 0.0
2.087470915496919e7 -9.575540057711978e6 0.0
0.0 0.0 0.0

1.324277991276063e6 1.2096048802600084e7 0.0
1.2096048802600084e7 -2.4151195745416854e7 0.0
0.0 0.0 0.0

3.1886897235188205e6 3.8171414264688026e6 0.0
3.8171414264688026e6 -2.2503574514543373e7 0.0
0.0 0.0 0.0

-2.754928679757281e6 3.1472504649974924e7 0.0
3.1472504649974924e7 2.5615792801754503e6 0.0
0.0 0.0 0.0

-1.3727987754559396e6 1.4726900531242553e7 0.0
1.4726900531242553e7 -9.164491185499553e6 0.0
0.0 0.0 0.0

-2.71057197663246e6 2.3138207006843828e7 0.0
2.3138207006843828e7 2.0832331791305076e7 0.0
0.0 0.0 0.0

-8.180211808517224e6 -4.3639673208713895e6 0.0
-4.3639673208713895e6 2.1737850814787596e7 0.0
0.0 0.0 0.0

5.485172125587748e6 2.359809930250653e7 0.0
2.359809930250653e7 3.2824780099113476e6 0.0
0.0 0.0 0.0

-5.85315613289275e6 2.370101338712778e7 0.0
2.370101338712778e7 -1.6517567619352322e7 0.0
0.0 0.0 0.0

1.73552788731643e6 9.574399825124437e6 0.0
9.574399825124437e6 -2.84699860072235e7 0.0
0.0 0.0 0.0

-1.2448965902641477e8 2.1332972294313412e7 0.0
2.1332972294313412e7 3.4135433729809e6 0.0
0.0 0.0 0.0

-3.6349363283836693e6 2.1866561859084822e7 0.0
2.1866561859084822e7 2.5094127469912946e7 0.0
0.0 0.0 0.0

1.1996563708876781e6 2.195257247793274e7 0.0
2.195257247793274e7 -1.689976639673747e7 0.0
0.0 0.0 0.0

-1.3345025255078315e6 1.9498107896887742e7 0.0
1.9498107896887742e7 -1.013093873997419e7 0.0
0.0 0.0 0.0

873366.644099189 1.6069434915865973e7 0.0
1.6069434915865973e7 -2.981344403205578e7 0.0
0.0 0.0 0.0

2.3511138571680593e6 2.1321017124304004e7 0.0
2.1321017124304004e7 1.4786159656877864e7 0.0
0.0 0.0 0.0

217996.16146801785 1.4510999630677776e7 0.0
1.4510999630677776e7 -3.766316782798493e7 0.0
0.0 0.0 0.0

2.433024956199647e6 2.171619703599791e7 0.0
2.171619703599791e7 1.7240616374258038e7 0.0
0.0 0.0 0.0

425610.4121229267 1.972852020630856e7 0.0
1.972852020630856e7 -1.9001271982146546e7 0.0
0.0 0.0 0.0

2.43318942905757e6 9.313436639327236e6 0.0
9.313436639327236e6 -3.0400556237616815e7 0.0
0.0 0.0 0.0

1.412937263020888e6 2.3493805543421595e6 0.0
2.3493805543421595e6 -5.543813216488831e7 0.0
0.0 0.0 0.0

6.560591994403014e6 3.1301226639335774e7 0.0
3.1301226639335774e7 -6.696998635054447e6 0.0
0.0 0.0 0.0

801973.7784259394 1.4209078906799132e7 0.0
1.4209078906799132e7 -3.533872554410021e7 0.0
0.0 0.0 0.0

-4.668992694470602e6 3.199363372893624e7 0.0
3.199363372893624e7 6.858343962483639e6 0.0
0.0 0.0 0.0

-9.342125204150282e6 2.5543867175724056e7 0.0
2.5543867175724056e7 1.7926488670216585e6 0.0
0.0 0.0 0.0

2.194264903157642e6 8.762493680142472e6 0.0
8.762493680142472e6 -1.3749444630603265e7 0.0
0.0 0.0 0.0

-1.6557478370744828e6 4.298492325421605e7 0.0
4.298492325421605e7 2.1414987624252466e6 0.0
0.0 0.0 0.0

2.303223608443184e6 1.053005631480503e7 0.0
1.053005631480503e7 -2.690185279009888e7 0.0
0.0 0.0 0.0

3.1062668792601004e6 1.9686421480169736e7 0.0
1.9686421480169736e7 5.119643657037109e7 0.0
0.0 0.0 0.0

-962145.5332273945 2.231847620221515e7 0.0
2.231847620221515e7 2.206061308285717e6 0.0
0.0 0.0 0.0

-8.504552811502416e6 3.3207083935237873e7 0.0
3.3207083935237873e7 6.840722401879617e6 0.0
0.0 0.0 0.0

-8.279118890194148e6 1.5919761451925473e7 0.0
1.5919761451925473e7 2.5298239863632694e7 0.0
0.0 0.0 0.0

609250.8522389941 1.5641665617105568e7 0.0
1.5641665617105568e7 -2.9849477183630813e7 0.0
0.0 0.0 0.0

-3.0775498841037448e6 1.2949116711576648e7 0.0
1.2949116711576648e7 -1.2547707611494088e6 0.0
0.0 0.0 0.0

-651234.2322071455 2.214482340263172e7 0.0
2.214482340263172e7 -7.082850879016667e6 0.0
0.0 0.0 0.0

1.7100091526561953e7 2.4547055698329724e7 0.0
2.4547055698329724e7 5.100752635632992e6 0.0
0.0 0.0 0.0

1.0311712200387577e6 2.1897399628018197e7 0.0
2.1897399628018197e7 -1.8667934722076457e7 0.0
0.0 0.0 0.0

557756.657929448 1.0224647536674304e7 0.0
1.0224647536674304e7 -6.659780997123444e6 0.0
0.0 0.0 0.0

367114.8927810453 1.6854486125577465e7 0.0
1.6854486125577465e7 -2.828381715644454e7 0.0
0.0 0.0 0.0

-7.992346242371155e6 -535044.3694800037 0.0
-535044.3694800037 3.9036331536513254e7 0.0
0.0 0.0 0.0

-3.176223134368092e6 2.4171296906487025e7 0.0
2.4171296906487025e7 1.8177230339192357e7 0.0
0.0 0.0 0.0

-8.566982314967604e6 1.6680285278917963e7 0.0
1.6680285278917963e7 2.864734579027835e7 0.0
0.0 0.0 0.0

-2.0630271246866632e7 2.8974749013685495e7 0.0
2.8974749013685495e7 -9.882386918945353e6 0.0
0.0 0.0 0.0

-7.047947485246506e6 1.871341937075469e7 0.0
1.871341937075469e7 -5.063457316740841e7 0.0
0.0 0.0 0.0

-3.177965066624624e6 2.872748464268178e7 0.0
2.872748464268178e7 9.196724742350575e6 0.0
0.0 0.0 0.0

-4.982658963347472e6 2.9989986255074434e7 0.0
2.9989986255074434e7 8.59115504794156e6 0.0
0.0 0.0 0.0

3.201308596429512e6 2.5979794188802555e7 0.0
2.5979794188802555e7 -1.1250017292665405e7 0.0
0.0 0.0 0.0

-4.8272727062101085e6 1.6970840834291063e7 0.0
1.6970840834291063e7 -5.226590894475097e7 0.0
0.0 0.0 0.0

-1.964317294250235e6 2.2572828672053333e7 0.0
2.2572828672053333e7 2.180924021684078e7 0.0
0.0 0.0 0.0

-6.936423395044927e6 7.064300038576918e6 0.0
7.064300038576918e6 5.226476096367112e7 0.0
0.0 0.0 0.0

2.234294255561306e6 2.6829525279324427e6 0.0
2.6829525279324427e6 -7.629435655337424e6 0.0
0.0 0.0 0.0

-1.928713458073713e6 1.9846917637190003e7 0.0
1.9846917637190003e7 -2.617653921475316e7 0.0
0.0 0.0 0.0

3.266303029212088e6 2.7302413257621113e7 0.0
2.7302413257621113e7 -1.0121108729590844e7 0.0
0.0 0.0 0.0

-1.455728561748819e6 2.2775531961290173e7 0.0
2.2775531961290173e7 -1.903749714110197e6 0.0
0.0 0.0 0.0

-683888.576654484 1.798165151095027e7 0.0
1.798165151095027e7 -1.311155115119821e7 0.0
0.0 0.0 0.0

-1.0589187699252812e7 1.967990697634695e7 0.0
1.967990697634695e7 -4.1063335983636804e7 0.0
0.0 0.0 0.0

-8.501616642044133e6 1.5123166800275948e7 0.0
1.5123166800275948e7 3.4115107365311936e7 0.0
0.0 0.0 0.0

952919.2774468533 3.519418890069597e7 0.0
3.519418890069597e7 -798108.9824198051 0.0
0.0 0.0 0.0

-2.9203602243597332e7 2.9750078859931e7 0.0
2.9750078859931e7 -5.199161730231716e6 0.0
0.0 0.0 0.0

5.976731708457972e6 2.4220718475030396e7 0.0
2.4220718475030396e7 3.593261606116098e6 0.0
0.0 0.0 0.0

1.4333847801361093e6 8.55125462572122e6 0.0
8.55125462572122e6 -1.6182810666165343e7 0.0
0.0 0.0 0.0

-1.645395353475395e6 2.2287313516127497e7 0.0
2.2287313516127497e7 -742713.4502239076 0.0
0.0 0.0 0.0

-7.966368155274257e6 1.236864786166874e7 0.0
1.236864786166874e7 4.1229710402440645e7 0.0
0.0 0.0 0.0

-6.428019739208795e6 3.420396754686395e7 0.0
3.420396754686395e7 5.876128019757801e6 0.0
0.0 0.0 0.0

-2.548095309533066e6 2.2600186583346553e7 0.0
2.2600186583346553e7 2.24673605101801e7 0.0
0.0 0.0 0.0

-1.6359661615220646e6 3.2696833227487065e7 0.0
3.2696833227487065e7 -30714.061236196023 0.0
0.0 0.0 0.0

523535.3806137489 1.9040696292708535e7 0.0
1.9040696292708535e7 -2.0411175356752045e7 0.0
0.0 0.0 0.0

-7.277556663341885e6 1.4312230915805472e7 0.0
1.4312230915805472e7 4.105207618860161e7 0.0
0.0 0.0 0.0

24203.758460535668 2.008464835899517e7 0.0
2.008464835899517e7 -2.3050308891795076e7 0.0
0.0 0.0 0.0

-8.47261204684399e6 2.4848332618178047e7 0.0
2.4848332618178047e7 -5.112698845584439e6 0.0
0.0 0.0 0.0

912781.8688806733 3.589078805130379e7 0.0
3.589078805130379e7 -944373.8640241878 0.0
0.0 0.0 0.0

2.6331398771936744e6 5.033665974977129e6 0.0
5.033665974977129e6 -2.387214455964084e7 0.0
0.0 0.0 0.0

3.065319044733493e6 2.5407488671398945e7 0.0
2.5407488671398945e7 -9.740940649564696e6 0.0
0.0 0.0 0.0

-2.814935401944911e6 2.865751217619386e7 0.0
2.865751217619386e7 8.344220686730997e6 0.0
0.0 0.0 0.0

-8.969892513118882e6 1.4987897065135341e7 0.0
1.4987897065135341e7 2.6610636677981246e7 0.0
0.0 0.0 0.0

-7.354983280564488e6 2.6276029794154163e7 0.0
2.6276029794154163e7 -1.22508117817577e7 0.0
0.0 0.0 0.0

-7.533716252956608e6 1.706276504548808e7 0.0
1.706276504548808e7 3.302368104062967e7 0.0
0.0 0.0 0.0

-2.706058738891135e6 7.183148755890834e6 0.0
7.183148755890834e6 5.741621407651403e6 0.0
0.0 0.0 0.0

-2.5630086308443965e6 2.779293824946881e7 0.0
2.779293824946881e7 8.587468777459184e6 0.0
0.0 0.0 0.0

-9.82831531939906e6 1.379421749325651e7 0.0
1.379421749325651e7 3.038984842900145e7 0.0
0.0 0.0 0.0

-3.497901537148024e6 2.2987039409022205e7 0.0
2.2987039409022205e7 1.4652994024019465e7 0.0
0.0 0.0 0.0

6.5188198345544515e6 2.059868267556566e7 0.0
2.059868267556566e7 4.04546451613649e7 0.0
0.0 0.0 0.0

-3.567542919945596e6 1.6895203410589382e7 0.0
1.6895203410589382e7 -4.575181607302622e7 0.0
0.0 0.0 0.0

-8.000903719618898e6 -4.828518805663484e6 0.0
-4.828518805663484e6 2.0059403065991e7 0.0
0.0 0.0 0.0

1.1817433153974647e7 3.1204022157922618e7 0.0
3.1204022157922618e7 -5.394530339359078e6 0.0
0.0 0.0 0.0

-8.66495218807694e6 1.3144457106520293e7 0.0
1.3144457106520293e7 3.583540556716329e7 0.0
0.0 0.0 0.0

159099.52721264586 1.533822487294574e7 0.0
1.533822487294574e7 -1.6459320336817347e7 0.0
0.0 0.0 0.0

-1.7703105903425934e6 2.2831086919333775e7 0.0
2.2831086919333775e7 1.8937804124990042e7 0.0
0.0 0.0 0.0

-684959.3896722198 2.098892794245948e7 0.0
2.098892794245948e7 -7.493524251341853e6 0.0
0.0 0.0 0.0

-3.738441908092038e6 2.3582426185394358e7 0.0
2.3582426185394358e7 1.998985271822403e7 0.0
0.0 0.0 0.0

-272632.7406355692 1.271908140577793e7 0.0
1.271908140577793e7 -8.651701972995063e6 0.0
0.0 0.0 0.0

-6.819255391431395e6 2.7350035409858376e7 0.0
2.7350035409858376e7 7.534390832509203e6 0.0
0.0 0.0 0.0

-3.464991708897434e6 2.3216361365653392e7 0.0
2.3216361365653392e7 1.5589092585712472e7 0.0
0.0 0.0 0.0

2.506150868483134e6 2.511513766828524e7 0.0
2.511513766828524e7 -1.1447467432815531e7 0.0
0.0 0.0 0.0

-3.3134287649144316e6 2.899615326207759e7 0.0
2.899615326207759e7 6.640524745952733e6 0.0
0.0 0.0 0.0

-553652.3615541342 3.619984381740041e7 0.0
3.619984381740041e7 938494.7335895465 0.0
0.0 0.0 0.0

-2.939769847598994e6 1.697926614266593e7 0.0
1.697926614266593e7 -3.959073430775191e7 0.0
0.0 0.0 0.0

728170.0532161058 2.501431831056329e6 0.0
2.501431831056329e6 -893486.5540142811 0.0
0.0 0.0 0.0

-9.510265203461876e6 1.150359036027647e6 0.0
1.150359036027647e6 1.3388641403549641e7 0.0
0.0 0.0 0.0

937730.5387905091 4.264598859057313e6 0.0
4.264598859057313e6 -6.878960140739174e7 0.0
0.0 0.0 0.0

871076.6787995249 2.714708976498077e7 0.0
2.714708976498077e7 -7.581789719558453e6 0.0
0.0 0.0 0.0

-3.0215635998245785e6 2.2512557456771355e7 0.0
2.2512557456771355e7 2.3003230991800852e7 0.0
0.0 0.0 0.0

-9.442471601351073e6 1.5424334331635553e7 0.0
1.5424334331635553e7 2.7053115975821517e7 0.0
0.0 0.0 0.0

-2.3400986088746837e6 4.4300760146944106e7 0.0
4.4300760146944106e7 2.4782957651093234e6 0.0
0.0 0.0 0.0

-9.31438646048478e6 1.1401894109934688e7 0.0
1.1401894109934688e7 3.677832077698558e7 0.0
0.0 0.0 0.0

5.121691742194496e7 7.984485403708489e7 0.0
7.984485403708489e7 -4.203446606565982e6 0.0
0.0 0.0 0.0

1.0861626425152142e6 2.4322378408885386e7 0.0
2.4322378408885386e7 -1.38638370110312e7 0.0
0.0 0.0 0.0

1.2994170950343087e6 1.739668011264487e7 0.0
1.739668011264487e7 -2.289218601903352e7 0.0
0.0 0.0 0.0

-2.927472727678771e6 2.364348151347173e7 0.0
2.364348151347173e7 1.9045309732455723e7 0.0
0.0 0.0 0.0

-8.270060891769575e6 1.3731602077518983e7 0.0
1.3731602077518983e7 3.844138501922842e7 0.0
0.0 0.0 0.0

1.6144395546092284e6 2.6461210463821776e7 0.0
2.6461210463821776e7 -1.0071642416429237e7 0.0
0.0 0.0 0.0

1.4496752853749467e6 2.218672284770828e7 0.0
2.218672284770828e7 5.233010671801275e6 0.0
0.0 0.0 0.0

1.974402271234922e6 2.372683655380321e6 0.0
2.372683655380321e6 -4.3571515952601194e7 0.0
0.0 0.0 0.0

-9.127557445361001e6 1.0835028626093253e7 0.0
1.0835028626093253e7 1.9542346775083378e7 0.0
0.0 0.0 0.0

-4.0576789326238697e6 4.797237672169526e7 0.0
4.797237672169526e7 3.9578632743984982e6 0.0
0.0 0.0 0.0

-3.3524900236647055e6 2.2236537198300797e7 0.0
2.2236537198300797e7 2.499032732039623e7 0.0
0.0 0.0 0.0

-2.5429036627856223e6 2.054517442889549e7 0.0
2.054517442889549e7 -2.163407385901423e7 0.0
0.0 0.0 0.0

9.712569306672027e6 2.389874710189453e7 0.0
2.389874710189453e7 9.28380064186093e6 0.0
0.0 0.0 0.0

-1.0525769171855113e7 6.087089714542658e6 0.0
6.087089714542658e6 1.96836283963502e7 0.0
0.0 0.0 0.0

-5.56368461126847e6 1.3558179621047521e7 0.0
1.3558179621047521e7 8.476943781294161e6 0.0
0.0 0.0 0.0

-2.6639212360364515e6 2.0592392308677495e7 0.0
2.0592392308677495e7 -1.6487844398745954e7 0.0
0.0 0.0 0.0

286751.1594930906 1.9221575820286304e7 0.0
1.9221575820286304e7 -1.2934360557800528e7 0.0
0.0 0.0 0.0

-4.963405568624476e6 2.145428538869913e7 0.0
2.145428538869913e7 2.0670863484569754e7 0.0
0.0 0.0 0.0

-2.4635398781949617e6 1.9493892946253866e7 0.0
1.9493892946253866e7 -2.821536902178376e7 0.0
0.0 0.0 0.0

1.170939463694172e6 1.472164409532114e7 0.0
1.472164409532114e7 -3.1225624913282413e7 0.0
0.0 0.0 0.0

-3.575152597684894e6 2.8726926561328482e7 0.0
2.8726926561328482e7 9.863302160462176e6 0.0
0.0 0.0 0.0

650901.219049884 1.9705406839741487e7 0.0
1.9705406839741487e7 -2.328028085743846e7 0.0
0.0 0.0 0.0

-8.360393317544011e6 1.5886589361714557e7 0.0
1.5886589361714557e7 3.033771648012568e7 0.0
0.0 0.0 0.0

3.171422814241071e6 5.504089965017199e6 0.0
5.504089965017199e6 -1.689909969785232e7 0.0
0.0 0.0 0.0

-3.9802320867994405e7 3.666717196281946e7 0.0
3.666717196281946e7 -1.6426536593389506e7 0.0
0.0 0.0 0.0

1.1401272206452638e6 7.948965435226031e6 0.0
7.948965435226031e6 -1.2593975294392217e7 0.0
0.0 0.0 0.0

3.420036760909384e6 2.4505491696635317e6 0.0
2.4505491696635317e6 -1.6576232721103666e7 0.0
0.0 0.0 0.0

-5.381429832902443e6 2.9775816188965283e7 0.0
2.9775816188965283e7 9.055889906000286e6 0.0
0.0 0.0 0.0

2.5734836631730683e6 2.08932023323787e7 0.0
2.08932023323787e7 8.578279414472822e6 0.0
0.0 0.0 0.0

6.347908887090034e6 2.4894494781167056e7 0.0
2.4894494781167056e7 -1.4709980793071757e6 0.0
0.0 0.0 0.0

-2.966147000876572e6 2.011818413625091e7 0.0
2.011818413625091e7 3.367709943317368e7 0.0
0.0 0.0 0.0

-160698.730502991 2.039422429983962e7 0.0
2.039422429983962e7 3.725956473572846e7 0.0
0.0 0.0 0.0

1.4841313556486964e7 2.018926594666031e7 0.0
2.018926594666031e7 6.711736475929458e7 0.0
0.0 0.0 0.0

126429.82646026323 2.09964376797054e7 0.0
2.09964376797054e7 -4.567241341913497e6 0.0
0.0 0.0 0.0

-3.1853670717318794e6 2.3522385675808374e7 0.0
2.3522385675808374e7 1.987900127022791e7 0.0
0.0 0.0 0.0

-4.27383760266937e6 2.0332544858332038e7 0.0
2.0332544858332038e7 1.506106297557381e7 0.0
0.0 0.0 0.0

-3.0623856241566637e6 2.043461359660453e7 0.0
2.043461359660453e7 -1.996316099261928e7 0.0
0.0 0.0 0.0

-3.675290566428707e6 2.9185936761683527e7 0.0
2.9185936761683527e7 7.489555517108766e6 0.0
0.0 0.0 0.0

-8.765531144413076e6 1.3860861916216971e7 0.0
1.3860861916216971e7 3.575335374904198e7 0.0
0.0 0.0 0.0

1.701778951260081e7 2.9347008351148643e7 0.0
2.9347008351148643e7 -3.3218052176899007e6 0.0
0.0 0.0 0.0

1.5088087391632758e6 2.4911951463114716e7 0.0
2.4911951463114716e7 -1.2535871357157348e7 0.0
0.0 0.0 0.0

1.9747243914591707e6 7.418297639571864e6 0.0
7.418297639571864e6 -2.8326922359509923e7 0.0
0.0 0.0 0.0

6.681805178216914e6 2.7057811354790047e7 0.0
2.7057811354790047e7 -7.2505756799178505e6 0.0
0.0 0.0 0.0

-14203.380482650013 3.1293293358618192e7 0.0
3.1293293358618192e7 -1.323549071343088e6 0.0
0.0 0.0 0.0

-9.244540055657037e6 2.1013822947526578e7 0.0
2.1013822947526578e7 -3.081514150625457e7 0.0
0.0 0.0 0.0

1.0549478616523853e7 2.230543742604603e7 0.0
2.230543742604603e7 3.516493835835882e7 0.0
0.0 0.0 0.0

-7.096512591958933e6 763124.1581408121 0.0
763124.1581408121 5.061453408569115e7 0.0
0.0 0.0 0.0

2.4068787173138093e6 2.397321390294209e7 0.0
2.397321390294209e7 8.063997331050161e6 0.0
0.0 0.0 0.0

-7.742899170424832e6 -223602.7698227537 0.0
-223602.7698227537 4.15552675861611e7 0.0
0.0 0.0 0.0

1.6362501158357672e6 3.2002408295510173e7 0.0
3.2002408295510173e7 -3.4833962989132623e6 0.0
0.0 0.0 0.0

6.18163707282239e6 3.0078628054827318e7 0.0
3.0078628054827318e7 -7.23052585783986e6 0.0
0.0 0.0 0.0

-3.2395314577627536e6 4.589570193077004e7 0.0
4.589570193077004e7 2.700705210080023e6 0.0
0.0 0.0 0.0

1.156855597965391e7 2.142529890592885e7 0.0
2.142529890592885e7 8.973493880327411e6 0.0
0.0 0.0 0.0

-8.370861968958216e6 1.2754633884996813e7 0.0
1.2754633884996813e7 3.84430521028572e7 0.0
0.0 0.0 0.0

1.2870116264254018e6 3.266655211678669e7 0.0
3.266655211678669e7 -2.474057358312021e6 0.0
0.0 0.0 0.0

-3.339691426887559e6 2.4067744326932967e7 0.0
2.4067744326932967e7 1.3869213664682304e7 0.0
0.0 0.0 0.0

-3.0741735551994666e6 2.742434575688571e7 0.0
2.742434575688571e7 8.019224090838941e6 0.0
0.0 0.0 0.0

891183.1750389561 9.837491955124326e6 0.0
9.837491955124326e6 -4.939595714364831e7 0.0
0.0 0.0 0.0

-3.9754141041458654e6 2.8563340884509068e7 0.0
2.8563340884509068e7 1.060633619397183e7 0.0
0.0 0.0 0.0

1.929068373093611e7 1.8262392455164213e7 0.0
1.8262392455164213e7 4.909575497147413e6 0.0
0.0 0.0 0.0

1.4199731510718074e6 1.5410614241005903e7 0.0
1.5410614241005903e7 -2.7496525416706692e7 0.0
0.0 0.0 0.0

-5.172935774705261e6 3.6727418015812687e6 0.0
3.6727418015812687e6 7.089383347365892e7 0.0
0.0 0.0 0.0

-662464.2044212804 3.387475435518914e7 0.0
3.387475435518914e7 703390.4170637114 0.0
0.0 0.0 0.0

4.36894908511354e6 2.4270164269100837e7 0.0
2.4270164269100837e7 7.95077612255072e6 0.0
0.0 0.0 0.0

-1.0469273675000504e8 9.716534127463277e7 0.0
9.716534127463277e7 -1.0477309712075878e7 0.0
0.0 0.0 0.0

2.742753149293286e6 4.0140495595011017e6 0.0
4.0140495595011017e6 -2.282216743772933e7 0.0
0.0 0.0 0.0

-1.555152721104003e6 2.3435176066131826e7 0.0
2.3435176066131826e7 -546055.6466607683 0.0
0.0 0.0 0.0

-1.9152245937261164e7 3.084938179321082e7 0.0
3.084938179321082e7 2.773919336177932e6 0.0
0.0 0.0 0.0

-337756.57052587066 2.279842648721856e7 0.0
2.279842648721856e7 -1.6356048873572027e7 0.0
0.0 0.0 0.0

1.2413463012456773e6 2.422380539918701e7 0.0
2.422380539918701e7 -1.4385432134329202e7 0.0
0.0 0.0 0.0

1.388768620439791e7 2.557011022084647e7 0.0
2.557011022084647e7 2.1915137486209217e6 0.0
0.0 0.0 0.0

-3.5537328177924613e6 3.8696301167117074e7 0.0
3.8696301167117074e7 3.1542250816205516e6 0.0
0.0 0.0 0.0

-4.75969683212678e6 2.3815797362245753e7 0.0
2.3815797362245753e7 -1.4601566874747602e7 0.0
0.0 0.0 0.0

1.7700121637022458e6 5.3818836473964555e6 0.0
5.3818836473964555e6 -5.269097607054256e7 0.0
0.0 0.0 0.0

-3.7131866020459354e7 3.3338446922349833e7 0.0
3.3338446922349833e7 -1.0616570326901346e7 0.0
0.0 0.0 0.0

-2.595181266662849e6 2.331803524440195e7 0.0
2.331803524440195e7 1.5169209450203024e7 0.0
0.0 0.0 0.0

5.705014062361222e6 2.8964723787516613e7 0.0
2.8964723787516613e7 -7.805507684261336e6 0.0
0.0 0.0 0.0

2.3390273058927488e6 1.985276526925951e7 0.0
1.985276526925951e7 4.813111155242911e7 0.0
0.0 0.0 0.0

1.8168037775368057e7 2.7749266678901773e7 0.0
2.7749266678901773e7 -1.7261968402940715e6 0.0
0.0 0.0 0.0

-3.837851841796534e6 2.6513497358432528e7 0.0
2.6513497358432528e7 1.3676585061612608e7 0.0
0.0 0.0 0.0

-350314.3384799911 2.0101554941866964e7 0.0
2.0101554941866964e7 -1.437766121592782e7 0.0
0.0 0.0 0.0

9.889106815517865e6 1.2703268450904043e7 0.0
1.2703268450904043e7 4.32629420346603e6 0.0
0.0 0.0 0.0

3.9409606491077417e6 2.5464202940861512e7 0.0
2.5464202940861512e7 -7.930298004585816e6 0.0
0.0 0.0 0.0

-3.4009854420995265e6 2.133660644196209e7 0.0
2.133660644196209e7 2.8382192636802264e7 0.0
0.0 0.0 0.0

-3.7542002926987186e6 7.357323016602284e6 0.0
7.357323016602284e6 7.414485309875399e7 0.0
0.0 0.0 0.0

-4.733543902968902e6 1.591743715877383e6 0.0
1.591743715877383e6 7.761544086659439e7 0.0
0.0 0.0 0.0

-300631.05903193494 2.2417568349325202e7 0.0
2.2417568349325202e7 -1.2769765580615105e7 0.0
0.0 0.0 0.0

1.1051349524327973e6 2.3852666057657164e7 0.0
2.3852666057657164e7 -1.3679379833825404e7 0.0
0.0 0.0 0.0

1.413579909171991e6 2.4162618847295772e7 0.0
2.4162618847295772e7 -1.4471660335476875e7 0.0
0.0 0.0 0.0

-1.5635817157686312e7 2.6994781431820594e7 0.0
2.6994781431820594e7 -4.6094061245846795e6 0.0
0.0 0.0 0.0

2.4887034113720473e7 2.5063057802361768e7 0.0
2.5063057802361768e7 1.3743325887018142e7 0.0
0.0 0.0 0.0

-4.0357704375083707e6 2.2439565953253176e7 0.0
2.2439565953253176e7 2.3519502022929844e7 0.0
0.0 0.0 0.0

1.6407889936763654e6 2.4082714403280243e7 0.0
2.4082714403280243e7 -1.4350267265009241e7 0.0
0.0 0.0 0.0

-776918.6894993451 1.912653273759087e7 0.0
1.912653273759087e7 -1.265291386846632e7 0.0
0.0 0.0 0.0

-8.9532188210893e6 -1.128417697916132e6 0.0
-1.128417697916132e6 2.8205125524570335e7 0.0
0.0 0.0 0.0

-952869.5698233619 1.5633091997446725e7 0.0
1.5633091997446725e7 -3.798495401531087e7 0.0
0.0 0.0 0.0

-8.77461390019387e6 2.3157732988256775e6 0.0
2.3157732988256775e6 3.982584901116816e7 0.0
0.0 0.0 0.0

-8.039632335246565e6 -2.837503454268317e6 0.0
-2.837503454268317e6 3.1674215300428208e7 0.0
0.0 0.0 0.0

-8.092971836283598e6 -3.0842233588078306e6 0.0
-3.0842233588078306e6 3.0747630579410043e7 0.0
0.0 0.0 0.0

-4.604407191019932e6 1.3307187843079694e7 0.0
1.3307187843079694e7 1.1831886133624906e7 0.0
0.0 0.0 0.0

612170.0624989634 1.833397556913234e7 0.0
1.833397556913234e7 -2.18724100719525e7 0.0
0.0 0.0 0.0

-333787.9775823951 1.5487821400660222e7 0.0
1.5487821400660222e7 -3.775298493755908e7 0.0
0.0 0.0 0.0

-1.7949531049439723e6 2.2524325244052403e7 0.0
2.2524325244052403e7 -6.106240628898503e6 0.0
0.0 0.0 0.0

3.9945679445834477e6 2.5594789465210296e7 0.0
2.5594789465210296e7 -9.67099496607512e6 0.0
0.0 0.0 0.0

6.851072391306923e6 2.4670947680205416e7 0.0
2.4670947680205416e7 1.4020919032918797e6 0.0
0.0 0.0 0.0

507498.3718495781 2.953065858356999e7 0.0
2.953065858356999e7 -4.267968557001773e6 0.0
0.0 0.0 0.0

6.917285031421842e7 3.1288412262179296e7 0.0
3.1288412262179296e7 1.0512078090764038e7 0.0
0.0 0.0 0.0

1.0760410262306282e7 1.7054948795031626e7 0.0
1.7054948795031626e7 1.0392379527488457e7 0.0
0.0 0.0 0.0

5.57761579292508e6 2.519267662698888e7 0.0
2.519267662698888e7 -3.8962123465825114e6 0.0
0.0 0.0 0.0

7.081983936845776e6 3.0336362645347107e7 0.0
3.0336362645347107e7 -6.827077502599721e6 0.0
0.0 0.0 0.0

426104.85493025556 3.3709139169759005e7 0.0
3.3709139169759005e7 -824084.4898350211 0.0
0.0 0.0 0.0

597338.057304604 2.071094966335824e7 0.0
2.071094966335824e7 -2.1734633554386273e7 0.0
0.0 0.0 0.0

-2.1518440776956093e7 2.9891500649109814e7 0.0
2.9891500649109814e7 -211238.85532421246 0.0
0.0 0.0 0.0

-6.370183004269684e6 3.0381012568223033e7 0.0
3.0381012568223033e7 8.460632381055662e6 0.0
0.0 0.0 0.0

3.1379012459525354e6 1.7953195411031945e6 0.0
1.7953195411031945e6 -2.6036862861932203e7 0.0
0.0 0.0 0.0

-505601.3446327223 3.108684777474585e7 0.0
3.108684777474585e7 -2.8171074786288813e6 0.0
0.0 0.0 0.0

-6.545466597065803e6 4.983948694990825e7 0.0
4.983948694990825e7 4.302091355509064e6 0.0
0.0 0.0 0.0

-2.976001793744771e6 1.783311730318047e7 0.0
1.783311730318047e7 -8.542143888981685e6 0.0
0.0 0.0 0.0

1.1940688667194527e6 1.5409891156354887e7 0.0
1.5409891156354887e7 -2.9483913261988357e7 0.0
0.0 0.0 0.0

228162.79777358472 1.5048388550262421e7 0.0
1.5048388550262421e7 -3.568700849070642e7 0.0
0.0 0.0 0.0

-1.2126311738102809e6 1.6560469223588701e7 0.0
1.6560469223588701e7 -3.774159915244471e7 0.0
0.0 0.0 0.0

1.5454762211283134e7 4.3897092531525716e7 0.0
4.3897092531525716e7 -4.769998246971754e6 0.0
0.0 0.0 0.0

1.6948387583917957e6 2.388227815158681e7 0.0
2.388227815158681e7 -1.4156800306631126e7 0.0
0.0 0.0 0.0

7.9423561331335055e6 2.127670459432822e7 0.0
2.127670459432822e7 4.14022386080173e7 0.0
0.0 0.0 0.0

-2.7197133102115523e7 2.4227837106873065e7 0.0
2.4227837106873065e7 2.5201503300788607e6 0.0
0.0 0.0 0.0

-7.421417483425254e7 4.02483064830787e7 0.0
4.02483064830787e7 -9.040992134570302e6 0.0
0.0 0.0 0.0

938356.5593799204 6.93689906377247e6 0.0
6.93689906377247e6 -6.684605815718107e7 0.0
0.0 0.0 0.0

4.5338745483050365e6 2.5450155279923346e7 0.0
2.5450155279923346e7 -6.071052204307485e6 0.0
0.0 0.0 0.0

6.29346034872191e6 2.8053458537185088e7 0.0
2.8053458537185088e7 -7.620334347704473e6 0.0
0.0 0.0 0.0

3.1491161681898665e6 1.9164884535803776e6 0.0
1.9164884535803776e6 -2.451494805769172e7 0.0
0.0 0.0 0.0

-2.079444760819432e7 2.807456570163283e7 0.0
2.807456570163283e7 -7.4021219004818415e6 0.0
0.0 0.0 0.0

404784.2980412012 2.1392865073528856e7 0.0
2.1392865073528856e7 2.6175164123254407e7 0.0
0.0 0.0 0.0

1.077873299423255e7 2.0711273214741774e7 0.0
2.0711273214741774e7 1.4641030146530537e7 0.0
0.0 0.0 0.0

-8.116797153325317e6 -3.3147088047894225e6 0.0
-3.3147088047894225e6 2.6609592326228943e7 0.0
0.0 0.0 0.0

336678.5417244937 1.854916405235448e7 0.0
1.854916405235448e7 -2.662394662432156e7 0.0
0.0 0.0 0.0

1.5024649687840566e6 1.131285333283425e7 0.0
1.131285333283425e7 -2.5628894924502343e7 0.0
0.0 0.0 0.0

377103.37738619675 9.724127017866928e6 0.0
9.724127017866928e6 -5.260149866113668e6 0.0
0.0 0.0 0.0

-8.99595455938621e6 -3.1429021347310157e6 0.0
-3.1429021347310157e6 2.3460069050114114e7 0.0
0.0 0.0 0.0

8.2799758970296495e6 2.0927801533891786e7 0.0
2.0927801533891786e7 9.413177261815614e7 0.0
0.0 0.0 0.0

-7.474162133990299e6 6.143327091871337e6 0.0
6.143327091871337e6 5.09062813536231e7 0.0
0.0 0.0 0.0

4.744266563164561e6 3.509262478925377e7 0.0
3.509262478925377e7 -3.7659707400037926e6 0.0
0.0 0.0 0.0

-1.7061402233120562e6 2.2922776642225362e7 0.0
2.2922776642225362e7 623243.9194638588 0.0
0.0 0.0 0.0

-3.0281126617686683e6 2.0252800351927944e7 0.0
2.0252800351927944e7 -1.4697939422690773e7 0.0
0.0 0.0 0.0

3.7995473735419074e6 2.775804305479009e7 0.0
2.775804305479009e7 -9.358961069138072e6 0.0
0.0 0.0 0.0

-3.999439116800622e6 2.9281359794719648e7 0.0
2.9281359794719648e7 8.3081231401735265e6 0.0
0.0 0.0 0.0

9.514008692099579e6 5.151127489930118e7 0.0
5.151127489930118e7 -928382.8024384389 0.0
0.0 0.0 0.0

2.7720203676786376e6 4.356391891392165e6 0.0
4.356391891392165e6 -1.2876423138886755e7 0.0
0.0 0.0 0.0

-9.088645111493805e6 -1.084875974120184e6 0.0
-1.084875974120184e6 2.8665388213679716e7 0.0
0.0 0.0 0.0

-123415.35661505198 2.1448623095121473e7 0.0
2.1448623095121473e7 2.880822622979769e6 0.0
0.0 0.0 0.0

-1.0492618367856115e7 3.1143543245213673e7 0.0
3.1143543245213673e7 6.63250520046626e6 0.0
0.0 0.0 0.0

-134105.10157224722 2.1140179170221146e7 0.0
2.1140179170221146e7 2.9540991403673254e7 0.0
0.0 0.0 0.0

-8.7205544721179e6 1.4848571126603406e7 0.0
1.4848571126603406e7 3.178751516433512e7 0.0
0.0 0.0 0.0

947306.2160903346 1.6734422006484931e7 0.0
1.6734422006484931e7 -2.810955860623926e7 0.0
0.0 0.0 0.0

-1.9987645644788364e8 3.332367585549353e7 0.0
3.332367585549353e7 -1.6036992918511145e7 0.0
0.0 0.0 0.0

-9.023248859535933e6 1.3581540763305085e7 0.0
1.3581540763305085e7 3.3426687179270893e7 0.0
0.0 0.0 0.0

-8.835080568080092e6 3.1094418238300502e7 0.0
3.1094418238300502e7 7.255697700853063e6 0.0
0.0 0.0 0.0

408962.6323796911 2.0176721557472713e7 0.0
2.0176721557472713e7 -2.322252439688347e7 0.0
0.0 0.0 0.0

-2.402230677498674e6 1.738418199592637e7 0.0
1.738418199592637e7 -3.696983411635741e7 0.0
0.0 0.0 0.0

7.329222845949868e6 4.856835673344584e7 0.0
4.856835673344584e7 -660361.3042355059 0.0
0.0 0.0 0.0

-2.7533423444315176e6 1.8385004253346976e7 0.0
1.8385004253346976e7 -3.362574868094785e7 0.0
0.0 0.0 0.0

1.630973617343071e6 2.3656778468704533e7 0.0
2.3656778468704533e7 -1.3656238738682793e7 0.0
0.0 0.0 0.0

1.0759397167985793e6 2.190559098650701e7 0.0
2.190559098650701e7 5.650861770956034e6 0.0
0.0 0.0 0.0

2.7903314449731526e6 3.954340012698168e7 0.0
3.954340012698168e7 -677065.447191951 0.0
0.0 0.0 0.0

-1.2435103364064448e7 3.0947064307090152e7 0.0
3.0947064307090152e7 5.680889867844594e6 0.0
0.0 0.0 0.0

710382.8421991207 1.798268891120448e7 0.0
1.798268891120448e7 -2.65268013752426e7 0.0
0.0 0.0 0.0

1.2308935687873093e6 2.3421773908503618e7 0.0
2.3421773908503618e7 -1.4971854463602053e7 0.0
0.0 0.0 0.0

-2.465691916371517e6 2.9750561942941025e7 0.0
2.9750561942941025e7 2.562670525496205e6 0.0
0.0 0.0 0.0

-7.466908531150212e6 3.0799184394093767e7 0.0
3.0799184394093767e7 7.854040923110801e6 0.0
0.0 0.0 0.0

-7.5199732783715855e6 -2.115773806112852e6 0.0
-2.115773806112852e6 4.04985824657415e7 0.0
0.0 0.0 0.0

-4.3825715733078625e6 2.102724950083491e7 0.0
2.102724950083491e7 2.2733058696413666e7 0.0
0.0 0.0 0.0

-3.022030592213326e6 1.915685936042324e7 0.0
1.915685936042324e7 -3.038603597800389e7 0.0
0.0 0.0 0.0

2.4420150535946894e7 2.418069001586067e7 0.0
2.418069001586067e7 5.247120558224365e6 0.0
0.0 0.0 0.0

-194920.83856520802 1.8961567283806015e7 0.0
1.8961567283806015e7 -2.6676597615507297e7 0.0
0.0 0.0 0.0

-511169.81004309887 2.263681858651266e7 0.0
2.263681858651266e7 -3.0866773052275768e6 0.0
0.0 0.0 0.0

-8.313021133663464e6 1.126004164753116e7 0.0
1.126004164753116e7 4.051483104927472e7 0.0
0.0 0.0 0.0

-8.19386083491201e6 2.450929318463737e7 0.0
2.450929318463737e7 -1.5418653932700692e7 0.0
0.0 0.0 0.0

-1.9122361507726116e6 2.0399141607470945e7 0.0
2.0399141607470945e7 -7.700976879850053e6 0.0
0.0 0.0 0.0

31813.51042214781 2.3282550035199046e7 0.0
2.3282550035199046e7 -1.3850907536777673e7 0.0
0.0 0.0 0.0

-1.524479301944104e7 5.484199173467614e7 0.0
5.484199173467614e7 6.8502540436998755e6 0.0
0.0 0.0 0.0

-5.975277236207495e7 1.9231005744689006e7 0.0
1.9231005744689006e7 3.535947410980016e6 0.0
0.0 0.0 0.0

4.589772209195267e6 3.6216250315717645e7 0.0
3.6216250315717645e7 -4.366927912163492e6 0.0
0.0 0.0 0.0

-9.736235074291341e6 5.217339720240762e7 0.0
5.217339720240762e7 5.67090630858005e6 0.0
0.0 0.0 0.0

3.340942634853565e7 6.806538322322081e7 0.0
6.806538322322081e7 -1.9641376681184694e6 0.0
0.0 0.0 0.0

-1.384488072193239e6 1.692427843688692e7 0.0
1.692427843688692e7 -3.510343219482251e7 0.0
0.0 0.0 0.0

-1.0858350589905888e7 1.9334295079867132e7 0.0
1.9334295079867132e7 -3.995098912400482e7 0.0
0.0 0.0 0.0

-4.553281817443459e6 2.8183995370191984e7 0.0
2.8183995370191984e7 1.0714448171721842e7 0.0
0.0 0.0 0.0

-9.088844399335526e6 1.4262080392193364e7 0.0
1.4262080392193364e7 3.342239546387912e7 0.0
0.0 0.0 0.0

-1.2891334012417043e7 2.740160421071573e7 0.0
2.740160421071573e7 2.74491192119818e6 0.0
0.0 0.0 0.0

1.6402131479207692e6 2.2256913432409357e7 0.0
2.2256913432409357e7 9.591157211342948e6 0.0
0.0 0.0 0.0

15048.036108055152 2.103413075193509e7 0.0
2.103413075193509e7 -1.1068808558583364e7 0.0
0.0 0.0 0.0

1.2112203752631744e7 5.5106933407063454e7 0.0
5.5106933407063454e7 -1.4386113938375157e6 0.0
0.0 0.0 0.0

3.6054118336546235e6 2.677798555088302e7 0.0
2.677798555088302e7 -1.0177388253625209e7 0.0
0.0 0.0 0.0

3.918274242585188e6 2.3457567613985725e7 0.0
2.3457567613985725e7 -3.5421255753834136e6 0.0
0.0 0.0 0.0

2.142332938279398e6 1.3112866078525356e6 0.0
1.3112866078525356e6 -4.589293788672628e7 0.0
0.0 0.0 0.0

-4.395626085641961e6 2.9241239797652982e7 0.0
2.9241239797652982e7 9.03573891413505e6 0.0
0.0 0.0 0.0

-2.05121142268958e6 2.178217523383696e7 0.0
2.178217523383696e7 6.28085886859048e6 0.0
0.0 0.0 0.0

1.3255122926614126e6 1.4072684827869214e7 0.0
1.4072684827869214e7 -1.694727659610587e7 0.0
0.0 0.0 0.0

-2.223807102045035e6 1.7568706357846003e7 0.0
1.7568706357846003e7 -3.7279677144677304e7 0.0
0.0 0.0 0.0

-2.12697782957445e6 2.3491495413331036e7 0.0
2.3491495413331036e7 2.0723878485446755e7 0.0
0.0 0.0 0.0

-1.0905356724042837e6 2.0644281994659144e7 0.0
2.0644281994659144e7 3.2715174862884343e7 0.0
0.0 0.0 0.0

-1.195100599116466e6 2.0215343484648053e7 0.0
2.0215343484648053e7 -5.093672749848592e6 0.0
0.0 0.0 0.0

7.5169879522666205e6 2.9286810133627776e7 0.0
2.9286810133627776e7 -6.761525521840043e6 0.0
0.0 0.0 0.0

-3.6076765704830927e6 2.7945916589014996e7 0.0
2.7945916589014996e7 1.101620577659442e7 0.0
0.0 0.0 0.0

-5.595958336901944e6 3.8816803612506944e6 0.0
3.8816803612506944e6 6.344609938667244e7 0.0
0.0 0.0 0.0

-3.7146851896607857e6 1.4323564264001556e7 0.0
1.4323564264001556e7 9.66139810372907e6 0.0
0.0 0.0 0.0

-178284.79407946998 2.1408614476430614e7 0.0
2.1408614476430614e7 -6.9732714540049955e6 0.0
0.0 0.0 0.0

-6.118463226887146e6 2.9385514017143045e7 0.0
2.9385514017143045e7 9.386294906015724e6 0.0
0.0 0.0 0.0

-2.943685195101089e6 2.3823242695879158e7 0.0
2.3823242695879158e7 1.695450518852761e7 0.0
0.0 0.0 0.0

1.8012993959851125e6 1.4272317137135465e7 0.0
1.4272317137135465e7 -2.4142784897483494e7 0.0
0.0 0.0 0.0

-1.2101576109135565e6 3.272332403888466e7 0.0
3.272332403888466e7 1.3873598273230488e6 0.0
0.0 0.0 0.0

3.6307861517389305e6 4.164623605184182e7 0.0
4.164623605184182e7 -757118.9740668086 0.0
0.0 0.0 0.0

-1.9388217363599488e6 2.561918803235834e7 0.0
2.561918803235834e7 6.5915676958700875e6 0.0
0.0 0.0 0.0

1.2588430281723626e6 1.6730847734037805e7 0.0
1.6730847734037805e7 -2.6145719873056646e7 0.0
0.0 0.0 0.0

-549345.3665992017 3.328129645294618e7 0.0
3.328129645294618e7 -1.4958758345813088e6 0.0
0.0 0.0 0.0

4.584361986075781e6 2.8701658499321543e7 0.0
2.8701658499321543e7 -8.498387661224464e6 0.0
0.0 0.0 0.0

2.361178051168317e6 2.1072128375995114e7 0.0
2.1072128375995114e7 3.609417097953429e7 0.0
0.0 0.0 0.0

-2.0252592658792874e6 2.4825108067287043e7 0.0
2.4825108067287043e7 8.010238950594384e6 0.0
0.0 0.0 0.0

-5.064460635871816e6 3.1705387826747138e7 0.0
3.1705387826747138e7 6.423848229303878e6 0.0
0.0 0.0 0.0

-7.207501827597711e6 1.5479756614653275e6 0.0
1.5479756614653275e6 5.014216779311301e7 0.0
0.0 0.0 0.0

3.100236333628365e6 4.050503708916144e7 0.0
4.050503708916144e7 -664109.2273479044 0.0
0.0 0.0 0.0

2.2034747215724494e6 1.3632923493235875e6 0.0
1.3632923493235875e6 -4.459774073760919e7 0.0
0.0 0.0 0.0

700693.0576921927 3.0714368421516113e7 0.0
3.0714368421516113e7 -5.251835755523754e6 0.0
0.0 0.0 0.0

-7.397540541620156e6 -472830.7757980742 0.0
-472830.7757980742 4.4335616736003056e7 0.0
0.0 0.0 0.0

-1.9847733404619622e6 1.976301066080196e7 0.0
1.976301066080196e7 -5.540217932758385e6 0.0
0.0 0.0 0.0

-1.2212151939124716e7 2.935489081558262e7 0.0
2.935489081558262e7 4.1622134911645586e6 0.0
0.0 0.0 0.0

-2.9389629771211892e6 2.383328056236402e7 0.0
2.383328056236402e7 -4.449055757726044e6 0.0
0.0 0.0 0.0

-5.1314664942632485e6 2.3924849134366404e7 0.0
2.3924849134366404e7 -7.127713671819288e6 0.0
0.0 0.0 0.0

-2.310292835632285e6 2.1572726988971483e7 0.0
2.1572726988971483e7 -2.1187361729353685e7 0.0
0.0 0.0 0.0

-7.8291511680679135e6 1.5925632152832717e7 0.0
1.5925632152832717e7 3.471014341316789e7 0.0
0.0 0.0 0.0

2.5196962542651105e6 2.276810107259064e7 0.0
2.276810107259064e7 1.2309795064324673e7 0.0
0.0 0.0 0.0

2.3032716532047316e6 9.315881982900767e6 0.0
9.315881982900767e6 -3.212054834740025e7 0.0
0.0 0.0 0.0

4.732450604324743e6 2.149588530069451e7 0.0
2.149588530069451e7 3.455403797527619e7 0.0
0.0 0.0 0.0

-1.382552802312274e7 2.09170710415685e7 0.0
2.09170710415685e7 -8.015354819100107e7 0.0
0.0 0.0 0.0

-2.8696115347597683e6 2.2537315420475084e7 0.0
2.2537315420475084e7 1.6943738686771363e7 0.0
0.0 0.0 0.0

-1.5725324371578298e6 3.3470428572603475e7 0.0
3.3470428572603475e7 78855.80165501323 0.0
0.0 0.0 0.0

-2.396047920602044e6 2.499863287519152e7 0.0
2.499863287519152e7 2.4526783301191814e6 0.0
0.0 0.0 0.0

1.7692779809814338e6 2.4979705538673583e7 0.0
2.4979705538673583e7 -1.2844742467415148e7 0.0
0.0 0.0 0.0

3.6473345311258524e6 2.4129840762992214e7 0.0
2.4129840762992214e7 -7.727463151003925e6 0.0
0.0 0.0 0.0

-4.782010830633799e6 2.9124095686873116e7 0.0
2.9124095686873116e7 9.673575809881352e6 0.0
0.0 0.0 0.0

-2.774919315033053e6 2.342803348054154e7 0.0
2.342803348054154e7 2.1280331190286368e7 0.0
0.0 0.0 0.0

-1.0350788336831164e6 2.088349836536432e7 0.0
2.088349836536432e7 3.3042129831083186e7 0.0
0.0 0.0 0.0

-5.6082962091201125e6 2.0859265891484294e7 0.0
2.0859265891484294e7 -2.1550870486979507e7 0.0
0.0 0.0 0.0

658236.6468254235 1.7660085542485625e7 0.0
1.7660085542485625e7 -2.331033346632313e7 0.0
0.0 0.0 0.0

-1.3937221626108596e6 2.3451933512795564e7 0.0
2.3451933512795564e7 1.9840320285489183e7 0.0
0.0 0.0 0.0

66383.89181791618 1.1511517824976513e7 0.0
1.1511517824976513e7 -4.5738317398338065e7 0.0
0.0 0.0 0.0

-3.637279862690957e6 2.263403880258208e7 0.0
2.263403880258208e7 -1.3998916269414078e7 0.0
0.0 0.0 0.0

4.33683879838164e6 4.301083799666549e7 0.0
4.301083799666549e7 -643455.1826653725 0.0
0.0 0.0 0.0

3.93948169382862e6 2.0736238709894363e7 0.0
2.0736238709894363e7 2.959928501778774e7 0.0
0.0 0.0 0.0

2.739281461970633e7 2.738510036882539e7 0.0
2.738510036882539e7 9.130934092611453e7 0.0
0.0 0.0 0.0

-2.7998649847933523e7 2.6130156547861237e7 0.0
2.6130156547861237e7 -9.332879284351572e7 0.0
0.0 0.0 0.0

-2.7786403420333024e6 2.1848924418262616e7 0.0
2.1848924418262616e7 3.842859058735691e6 0.0
0.0 0.0 0.0

-3.268803923973012e7 4.288118734656156e7 0.0
4.288118734656156e7 7.77229114108628e6 0.0
0.0 0.0 0.0

-665960.8906733436 2.8467198765641734e7 0.0
2.8467198765641734e7 -4.675868623966173e6 0.0
0.0 0.0 0.0

-1.1611547953025913e6 2.374545433056859e7 0.0
2.374545433056859e7 1.7032531811003618e7 0.0
0.0 0.0 0.0

3.4958055188412555e6 2.074002060041947e7 0.0
2.074002060041947e7 3.3471012990667123e7 0.0
0.0 0.0 0.0

1.0825004585397538e7 2.2286745643210202e7 0.0
2.2286745643210202e7 5.8228495848115765e7 0.0
0.0 0.0 0.0

1.0076636694093414e7 2.459716927064189e7 0.0
2.459716927064189e7 1.1833225269107753e7 0.0
0.0 0.0 0.0

9.620746696521534e6 1.9881747922756217e7 0.0
1.9881747922756217e7 3.839206242066337e7 0.0
0.0 0.0 0.0

6.950090790065033e6 2.9072201287901055e7 0.0
2.9072201287901055e7 -7.097000650031172e6 0.0
0.0 0.0 0.0

2.3977833798957816e6 2.1417150083704215e7 0.0
2.1417150083704215e7 2.03024890900239e7 0.0
0.0 0.0 0.0

-1.1605073639961593e6 2.2515770075528912e7 0.0
2.2515770075528912e7 2.0959614448566757e7 0.0
0.0 0.0 0.0

6.080415868102399e6 3.790376222622944e7 0.0
3.790376222622944e7 -2.868538589997556e6 0.0
0.0 0.0 0.0

4.463040167119423e6 2.3919029397843115e7 0.0
2.3919029397843115e7 1.5483946305174759e7 0.0
0.0 0.0 0.0

2.7653195424409304e6 1.6516488280710808e6 0.0
1.6516488280710808e6 -3.423872144327062e7 0.0
0.0 0.0 0.0

-7.251766091016466e6 1.845459163641902e7 0.0
1.845459163641902e7 2.4211864457125887e7 0.0
0.0 0.0 0.0

-7.383084956669522e6 -2.0921215505057843e6 0.0
-2.0921215505057843e6 4.16048855429255e7 0.0
0.0 0.0 0.0

-3.3522512104262253e6 2.2734035235858385e7 0.0
2.2734035235858385e7 2.333457254866364e7 0.0
0.0 0.0 0.0

1.9838545935317928e6 3.431988416311939e7 0.0
3.431988416311939e7 -2.2549455950119304e6 0.0
0.0 0.0 0.0

7.345911429305489e6 2.3178163248089638e7 0.0
2.3178163248089638e7 2.10424618026598e7 0.0
0.0 0.0 0.0

6.214253365409862e6 1.9885594798976567e7 0.0
1.9885594798976567e7 2.8312511787079692e7 0.0
0.0 0.0 0.0

-3.9744422752334783e6 3.124112872251925e7 0.0
3.124112872251925e7 7.171586664825078e6 0.0
0.0 0.0 0.0

3.1477873461282467e6 4.118255889317818e6 0.0
4.118255889317818e6 -1.8166331147928044e7 0.0
0.0 0.0 0.0

475703.3668921932 3.1470186619866785e7 0.0
3.1470186619866785e7 -4.281664466842765e6 0.0
0.0 0.0 0.0

2.1815190764510054e6 1.1966396205008045e7 0.0
1.1966396205008045e7 -2.607739902456818e7 0.0
0.0 0.0 0.0

-8.904225564228846e6 2.982618570863586e7 0.0
2.982618570863586e7 7.529549295972906e6 0.0
0.0 0.0 0.0

8.022855653216405e6 3.152670213787342e7 0.0
3.152670213787342e7 -6.332661208352007e6 0.0
0.0 0.0 0.0

-1.1843712460937276e7 2.5901075589863077e7 0.0
2.5901075589863077e7 437474.0311791105 0.0
0.0 0.0 0.0

1.346304902006667e6 1.5795733490045748e6 0.0
1.5795733490045748e6 -6.715288475971487e7 0.0
0.0 0.0 0.0

7.384866231451343e6 2.4684335216399185e7 0.0
2.4684335216399185e7 4.376309662570209e6 0.0
0.0 0.0 0.0

3.601898655909352e6 3.2644949421295527e7 0.0
3.2644949421295527e7 -4.694217771283206e6 0.0
0.0 0.0 0.0

2.134017494914004e6 2.8142937144646835e7 0.0
2.8142937144646835e7 -8.420169844433416e6 0.0
0.0 0.0 0.0

-3.0320304940565294e6 2.177842967921916e7 0.0
2.177842967921916e7 -1.4687983431894563e7 0.0
0.0 0.0 0.0

2.427257494578559e6 4.337126403981256e6 0.0
4.337126403981256e6 -3.157315586191668e7 0.0
0.0 0.0 0.0

-2.775873148375517e6 2.63674501483333e7 0.0
2.63674501483333e7 7.436551691792365e6 0.0
0.0 0.0 0.0

-445108.30828010105 1.4749826878515309e7 0.0
1.4749826878515309e7 -3.803606121028537e7 0.0
0.0 0.0 0.0

-7.299970131110052e6 -1.7903472937711098e6 0.0
-1.7903472937711098e6 4.595186572655177e7 0.0
0.0 0.0 0.0

-3.7862131871486325e6 2.1658573146302573e7 0.0
2.1658573146302573e7 2.0888276911425408e7 0.0
0.0 0.0 0.0

-1.6840416548296463e7 2.9467262337816168e7 0.0
2.9467262337816168e7 2.9880883625680823e6 0.0
0.0 0.0 0.0

192305.1532376036 6.279528166161624e6 0.0
6.279528166161624e6 -9.70331697476063e7 0.0
0.0 0.0 0.0

-1.6655639552262407e6 1.815197261371303e7 0.0
1.815197261371303e7 4.607959095993135e7 0.0
0.0 0.0 0.0

1.242533041357885e6 2.2124187480205074e7 0.0
2.2124187480205074e7 2.7214993798278727e7 0.0
0.0 0.0 0.0

862220.482457716 1.994349640705658e7 0.0
1.994349640705658e7 4.185710741840332e7 0.0
0.0 0.0 0.0

-1.8058076204476566e6 2.3470629298912853e7 0.0
2.3470629298912853e7 1.8704424831107333e6 0.0
0.0 0.0 0.0

-3.920016752930846e6 2.2221408960344106e7 0.0
2.2221408960344106e7 1.6450762911095794e7 0.0
0.0 0.0 0.0

-2.5588525706247e6 2.191238237788165e7 0.0
2.191238237788165e7 -1.128550237944865e7 0.0
0.0 0.0 0.0

714441.652201998 1.697857631487979e7 0.0
1.697857631487979e7 -2.4703830011010703e7 0.0
0.0 0.0 0.0

-177649.90686981007 1.0959667408090387e7 0.0
1.0959667408090387e7 -5.698857556965469e7 0.0
0.0 0.0 0.0

-7.33296889709134e6 -1.9477248391342333e6 0.0
-1.9477248391342333e6 4.292601089962666e7 0.0
0.0 0.0 0.0

-6.507836246904861e6 -1.3239631031657842e6 0.0
-1.3239631031657842e6 5.329886044634483e7 0.0
0.0 0.0 0.0

-1.0867514294160109e7 2.779348842568069e7 0.0
2.779348842568069e7 1.7626158171973852e6 0.0
0.0 0.0 0.0

1.8588304379561748e6 2.4955495928842045e7 0.0
2.4955495928842045e7 -1.31992894547074e7 0.0
0.0 0.0 0.0

2.4258995308325365e6 1.9835720386985473e7 0.0
1.9835720386985473e7 4.812204425848717e7 0.0
0.0 0.0 0.0

-1.964644497323401e6 2.2005826834107578e7 0.0
2.2005826834107578e7 -7.835405663335719e6 0.0
0.0 0.0 0.0

7.595097207301534e6 2.7940974994385775e7 0.0
2.7940974994385775e7 -6.648710496827476e6 0.0
0.0 0.0 0.0

-3.3185302009716863e6 2.8284501888856277e7 0.0
2.8284501888856277e7 7.769643456474687e6 0.0
0.0 0.0 0.0

-8.636221315372713e6 -1.3632490656921675e6 0.0
-1.3632490656921675e6 2.967269338223606e7 0.0
0.0 0.0 0.0

1.8756931966545317e7 6.030067403966213e7 0.0
6.030067403966213e7 -1.9655020328197554e6 0.0
0.0 0.0 0.0

1.1826838311807555e6 2.2810557432203937e7 0.0
2.2810557432203937e7 -1.0123225226704068e7 0.0
0.0 0.0 0.0

-8.417459956834422e6 1.864829928017671e7 0.0
1.864829928017671e7 -6.412896006895586e7 0.0
0.0 0.0 0.0

2.6947738513089176e6 2.6993394195387866e6 0.0
2.6993394195387866e6 -4.118704209314226e7 0.0
0.0 0.0 0.0

-705582.7960460207 2.1584834833985433e7 0.0
2.1584834833985433e7 -7.317109778904701e6 0.0
0.0 0.0 0.0

-5.042870051901255e6 2.049783947565158e7 0.0
2.049783947565158e7 2.4257320672805473e7 0.0
0.0 0.0 0.0

-2.943264301993324e7 2.5057381863563675e7 0.0
2.5057381863563675e7 3.0126187209304217e6 0.0
0.0 0.0 0.0

-7.290617845073298e6 2.4812062944403686e7 0.0
2.4812062944403686e7 -1.1697082379057128e7 0.0
0.0 0.0 0.0

8.1887751853210535e6 1.9306381677321743e7 0.0
1.9306381677321743e7 3.3426606812058423e7 0.0
0.0 0.0 0.0

-3.958379772833638e6 2.1262127476332065e7 0.0
2.1262127476332065e7 -1.6249369453976586e7 0.0
0.0 0.0 0.0

-9.19201882154303e6 963221.5227079551 0.0
963221.5227079551 2.91218278120601e7 0.0
0.0 0.0 0.0

-474150.76443170477 2.298120043099863e7 0.0
2.298120043099863e7 -1.140186581822004e7 0.0
0.0 0.0 0.0

-337147.0777931968 2.2283495415756572e7 0.0
2.2283495415756572e7 4.8103792229209645e6 0.0
0.0 0.0 0.0

-111434.1850180719 2.3187250597557228e7 0.0
2.3187250597557228e7 1.8470766193471484e7 0.0
0.0 0.0 0.0

506099.457813357 2.0397446494758558e7 0.0
2.0397446494758558e7 -1.9716124175008636e7 0.0
0.0 0.0 0.0

293785.94741944596 2.16512910061901e7 0.0
2.16512910061901e7 3.0264405645169917e7 0.0
0.0 0.0 0.0

9381.956732178878 2.133482451644426e7 0.0
2.133482451644426e7 363137.20808618783 0.0
0.0 0.0 0.0

1.947637251668767e6 2.491055871768508e7 0.0
2.491055871768508e7 -1.3367727594639584e7 0.0
0.0 0.0 0.0

6.35089094930022e6 2.3781274875887703e7 0.0
2.3781274875887703e7 -889975.2326330752 0.0
0.0 0.0 0.0

526535.2577155475 1.4341895002191728e7 0.0
1.4341895002191728e7 -3.350111953933805e7 0.0
0.0 0.0 0.0

-3.853608755494722e6 2.2971207284751963e7 0.0
2.2971207284751963e7 2.175082788141282e7 0.0
0.0 0.0 0.0

-313549.3310367521 1.906264048853118e7 0.0
1.906264048853118e7 -9.44261135659847e6 0.0
0.0 0.0 0.0

-5.85157762946921e7 3.463934047741446e7 0.0
3.463934047741446e7 -1.8618482485879362e6 0.0
0.0 0.0 0.0

6.8436977483673245e6 2.064410898029322e7 0.0
2.064410898029322e7 6.052881183186672e7 0.0
0.0 0.0 0.0

2.081071393037418e6 1.3026190942515922e6 0.0
1.3026190942515922e6 -4.7244158214877166e7 0.0
0.0 0.0 0.0

-6.656570803823404e6 -1.3283319721225607e6 0.0
-1.3283319721225607e6 5.157228922010452e7 0.0
0.0 0.0 0.0

-5.735772310937183e6 1.7327783944708902e7 0.0
1.7327783944708902e7 -5.568008489806606e7 0.0
0.0 0.0 0.0

-2.744284982016393e6 1.8742262493174776e7 0.0
1.8742262493174776e7 -3.416682837847824e7 0.0
0.0 0.0 0.0

-3.3721167988210875e6 2.3300998363087315e7 0.0
2.3300998363087315e7 -6.704864522651793e6 0.0
0.0 0.0 0.0

-2.1923915897835508e7 3.1228358843213487e7 0.0
3.1228358843213487e7 -1.465947365218737e7 0.0
0.0 0.0 0.0

-3.0682058106663376e6 2.0554490826415386e7 0.0
2.0554490826415386e7 3.198855979930052e7 0.0
0.0 0.0 0.0

1.9191101260413788e6 2.4778383232168525e7 0.0
2.4778383232168525e7 -1.3353170492735002e7 0.0
0.0 0.0 0.0

-5.358109923189122e6 -136576.8348773461 0.0
-136576.8348773461 6.810827111442427e7 0.0
0.0 0.0 0.0

-6.230266430321308e6 1.938405441323963e7 0.0
1.938405441323963e7 2.7353255853749946e7 0.0
0.0 0.0 0.0

576121.1633835807 4.0847147884766236e6 0.0
4.0847147884766236e6 -9.041307369963197e7 0.0
0.0 0.0 0.0

-1.6601127267647665e6 3.4254698192003265e7 0.0
3.4254698192003265e7 109267.52212929353 0.0
0.0 0.0 0.0

906349.0550336465 2.2254237592783985e6 0.0
2.2254237592783985e6 -7.848238284852226e7 0.0
0.0 0.0 0.0

-2.7105380102697622e7 5.633635078676373e7 0.0
5.633635078676373e7 8.702686237444349e6 0.0
0.0 0.0 0.0

-5.201221127788566e6 142115.75406817364 0.0
142115.75406817364 7.116764027530512e7 0.0
0.0 0.0 0.0

737449.5160521008 1.4772370241688939e7 0.0
1.4772370241688939e7 -3.3450251716428697e7 0.0
0.0 0.0 0.0

-1.2785958402302299e7 2.9051164329387728e7 0.0
2.9051164329387728e7 4.656560943980778e6 0.0
0.0 0.0 0.0

-5.4205824639360465e7 3.535718668346411e7 0.0
3.535718668346411e7 -4.1085148168930486e6 0.0
0.0 0.0 0.0

734442.934447743 3.0566564820001167e6 0.0
3.0566564820001167e6 -8.414397570367646e7 0.0
0.0 0.0 0.0

-2.449003321252349e6 2.7381277169527244e7 0.0
2.7381277169527244e7 3.478432038772214e6 0.0
0.0 0.0 0.0

-2.8487759319792762e6 2.4725274215325005e7 0.0
2.4725274215325005e7 1.5852445246964183e7 0.0
0.0 0.0 0.0

2.091862167506336e7 1.9315363885547794e7 0.0
1.9315363885547794e7 7.990767380325475e6 0.0
0.0 0.0 0.0

-1.2500581845950838e6 1.8439546943907816e7 0.0
1.8439546943907816e7 -2.9667444796192553e7 0.0
0.0 0.0 0.0

-3.3720815187058523e6 1.966206614848904e7 0.0
1.966206614848904e7 -3.1124580567820214e7 0.0
0.0 0.0 0.0

1.134758266894253e6 2.7567679442034796e7 0.0
2.7567679442034796e7 -9.34872005496163e6 0.0
0.0 0.0 0.0

-1.755654377380317e6 3.4982526789475195e7 0.0
3.4982526789475195e7 189373.87867188698 0.0
0.0 0.0 0.0

-7.83670695383135e6 1.3756053143801242e7 0.0
1.3756053143801242e7 3.9143835971591935e7 0.0
0.0 0.0 0.0

1.1790260163873062e6 1.6944288938569291e6 0.0
1.6944288938569291e6 -7.096459850411315e7 0.0
0.0 0.0 0.0

-1.3684992793424046e7 3.88229254626853e7 0.0
3.88229254626853e7 4.862752165039007e6 0.0
0.0 0.0 0.0

3.1634734715651963e6 5.608764966122926e6 0.0
5.608764966122926e6 -2.5074925735798158e7 0.0
0.0 0.0 0.0

-2.8478178692512037e6 2.1753120808473125e7 0.0
2.1753120808473125e7 -1.973817535419754e7 0.0
0.0 0.0 0.0

1.07592706307609e6 2.0668739092920406e6 0.0
2.0668739092920406e6 -7.395621757604629e7 0.0
0.0 0.0 0.0

-3.51770107142705e6 2.03801773348607e7 0.0
2.03801773348607e7 -2.7924514307003133e7 0.0
0.0 0.0 0.0

-7.814927228583572e6 1.050265217556513e7 0.0
1.050265217556513e7 4.5863540952298194e7 0.0
0.0 0.0 0.0

-5.707239236395575e6 1.0389616197150267e6 0.0
1.0389616197150267e6 5.46277950358553e6 0.0
0.0 0.0 0.0

-3.146085574018121e6 1.998855730881064e7 0.0
1.998855730881064e7 5.589645705106373e6 0.0
0.0 0.0 0.0

5.07962465396429e6 2.1591878380386878e7 0.0
2.1591878380386878e7 3.0891790202661157e7 0.0
0.0 0.0 0.0

1.798361450733535e6 1.1563991779403219e6 0.0
1.1563991779403219e6 -5.230801180360831e7 0.0
0.0 0.0 0.0

-4.322038652333001e6 2.817583911713656e7 0.0
2.817583911713656e7 1.0863930997274745e7 0.0
0.0 0.0 0.0

-7.870366518781543e6 -150984.56264779944 0.0
-150984.56264779944 4.123336494729113e7 0.0
0.0 0.0 0.0

119199.89286477477 2.2819639840637274e7 0.0
2.2819639840637274e7 309588.14912265213 0.0
0.0 0.0 0.0

563894.7081623245 1.5000220826501971e7 0.0
1.5000220826501971e7 -3.1661702902229235e7 0.0
0.0 0.0 0.0

-2.529887221000354e6 2.293945135599171e7 0.0
2.293945135599171e7 2.292265026038256e7 0.0
0.0 0.0 0.0

4.763871330752606e6 2.0719956482866704e7 0.0
2.0719956482866704e7 4.262545446305013e7 0.0
0.0 0.0 0.0

-1.1655043117448597e6 2.1597751214170933e7 0.0
2.1597751214170933e7 -5.145402038278198e6 0.0
0.0 0.0 0.0

1.6670747891733488e6 2.7296864796205368e7 0.0
2.7296864796205368e7 -8.903285967682675e6 0.0
0.0 0.0 0.0

-3.293538914913962e6 2.9673987990014676e7 0.0
2.9673987990014676e7 5.525899425765185e6 0.0
0.0 0.0 0.0

-1.5409494231843436e6 2.234036809084783e7 0.0
2.234036809084783e7 -8.212360985343811e6 0.0
0.0 0.0 0.0

2.5100116422330108e7 5.9240910186397405e6 0.0
5.9240910186397405e6 -2.1719494750590604e6 0.0
0.0 0.0 0.0

-5.625297245762255e6 -224559.8756074714 0.0
-224559.8756074714 6.518461490485394e7 0.0
0.0 0.0 0.0

1.0648543480726551e7 2.5326826056882977e7 0.0
2.5326826056882977e7 1.382371979813213e7 0.0
0.0 0.0 0.0

-6.361332548119385e6 -1.117169714288828e6 0.0
-1.117169714288828e6 5.5195460700388774e7 0.0
0.0 0.0 0.0

-1.8083159447626907e6 2.273932568766606e7 0.0
2.273932568766606e7 -1.159081500449192e6 0.0
0.0 0.0 0.0

-6.589172667470384e6 1.1412563272827597e7 0.0
1.1412563272827597e7 3.399858409065094e7 0.0
0.0 0.0 0.0

-2.3556840774320792e6 1.983927105075395e7 0.0
1.983927105075395e7 8.253813070179826e6 0.0
0.0 0.0 0.0

-1.0416359196754419e6 163305.27980131065 0.0
163305.27980131065 2.9812210286391107e6 0.0
0.0 0.0 0.0

-1.0049911752108177e6 1.2033840988439112e6 0.0
1.2033840988439112e6 2.870811931522147e6 0.0
0.0 0.0 0.0

1.5616534017828526e6 2.4188108128493577e7 0.0
2.4188108128493577e7 -1.4526646145207347e7 0.0
0.0 0.0 0.0

-1.1001835624741305e7 2.5740661311149627e7 0.0
2.5740661311149627e7 -5.07433152368065e6 0.0
0.0 0.0 0.0

1.936670545810556e6 2.4670091825078096e7 0.0
2.4670091825078096e7 -1.3008772149317779e7 0.0
0.0 0.0 0.0

-8.925801557303878e6 1.2475115042551912e7 0.0
1.2475115042551912e7 3.7562731922254175e7 0.0
0.0 0.0 0.0

-3.537110678869591e6 2.1610006134768274e7 0.0
2.1610006134768274e7 -1.8114745683885146e7 0.0
0.0 0.0 0.0

187464.84738250822 1.4423223494620766e7 0.0
1.4423223494620766e7 -3.5672454456021525e7 0.0
0.0 0.0 0.0

-4.0064476676714746e6 2.7415751877825208e7 0.0
2.7415751877825208e7 1.1844552278639961e7 0.0
0.0 0.0 0.0

788690.3436470814 1.4986964626769306e7 0.0
1.4986964626769306e7 -2.956940708662413e7 0.0
0.0 0.0 0.0

-1.2252819633441153e8 4.275784068817596e7 0.0
4.275784068817596e7 -1.2271505392097399e7 0.0
0.0 0.0 0.0

586068.2890826678 1.9704175659536857e7 0.0
1.9704175659536857e7 -2.1135216677867595e7 0.0
0.0 0.0 0.0

-3.4969222201504265e6 4.122212271948063e7 0.0
4.122212271948063e7 843705.3295724774 0.0
0.0 0.0 0.0

983636.366610161 2.189074475864209e7 0.0
2.189074475864209e7 6.671014518335998e6 0.0
0.0 0.0 0.0

-3.3006533148173746e6 2.176340368614911e7 0.0
2.176340368614911e7 2.6705383555381387e7 0.0
0.0 0.0 0.0

-5.705901340565868e6 2.4593626208471265e7 0.0
2.4593626208471265e7 -1.5288784267567502e7 0.0
0.0 0.0 0.0

1.878044328151499e7 4.607877562827222e7 0.0
4.607877562827222e7 -5.836252194937437e6 0.0
0.0 0.0 0.0

-6.891383154570419e6 -1.6073471693900814e6 0.0
-1.6073471693900814e6 4.868015045684144e7 0.0
0.0 0.0 0.0

1.9785817328427099e6 1.319272944305505e6 0.0
1.319272944305505e6 -4.865380129772894e7 0.0
0.0 0.0 0.0

873580.6826334284 2.7988090556755494e7 0.0
2.7988090556755494e7 -6.451177350498755e6 0.0
0.0 0.0 0.0

-9.20726021501248e6 -2.0720418583326365e6 0.0
-2.0720418583326365e6 2.2547582663008932e7 0.0
0.0 0.0 0.0

1.4792305586196445e6 1.4408225035627761e6 0.0
1.4408225035627761e6 -6.260917946690181e7 0.0
0.0 0.0 0.0

-5.760280123193502e6 -534685.6296937293 0.0
-534685.6296937293 6.304284007022225e7 0.0
0.0 0.0 0.0

-7.742176868788915e6 -2.301891213408052e6 0.0
-2.301891213408052e6 3.7422228751349844e7 0.0
0.0 0.0 0.0

-2.1247982225747807e6 2.1541804828234438e7 0.0
2.1541804828234438e7 -5.840358858504687e6 0.0
0.0 0.0 0.0

-6.76628618957876e6 -1.4452340335185514e6 0.0
-1.4452340335185514e6 5.0165338765850976e7 0.0
0.0 0.0 0.0

1.8946416979143135e6 1.3830537029915394e6 0.0
1.3830537029915394e6 -5.0442646596378826e7 0.0
0.0 0.0 0.0

1.5961647315832078e6 1.499138537403362e6 0.0
1.499138537403362e6 -6.029346817207176e7 0.0
0.0 0.0 0.0

-5.898942753222067e6 -811786.7858001068 0.0
-811786.7858001068 6.096801221751314e7 0.0
0.0 0.0 0.0

-6.167354970166939e6 2.281113796016171e7 0.0
2.281113796016171e7 -1.7033815751680486e7 0.0
0.0 0.0 0.0

1.374606646646101e6 2.3438419673964474e7 0.0
2.3438419673964474e7 -1.5854293431253023e7 0.0
0.0 0.0 0.0

-2.7075809390473887e6 3.0023148740862858e7 0.0
3.0023148740862858e7 6.078797104053669e6 0.0
0.0 0.0 0.0

1.6018987481282689e6 1.3818311106344587e6 0.0
1.3818311106344587e6 -5.864920378455995e7 0.0
0.0 0.0 0.0

-6.054554889524527e6 -987545.0168722812 0.0
-987545.0168722812 5.870240393230918e7 0.0
0.0 0.0 0.0

-1.3585879474558728e6 2.2112718719959628e7 0.0
2.2112718719959628e7 -4.444015042997676e6 0.0
0.0 0.0 0.0

1.2393681206156556e6 1.6080263691640684e7 0.0
1.6080263691640684e7 -2.7893908135100476e7 0.0
0.0 0.0 0.0

465305.9344934386 3.019572134717372e7 0.0
3.019572134717372e7 -3.25019548565791e6 0.0
0.0 0.0 0.0

-2.4247410394636067e6 2.3404215059042796e7 0.0
2.3404215059042796e7 -179447.24013544677 0.0
0.0 0.0 0.0

-628319.106038753 2.0610026361742347e7 0.0
2.0610026361742347e7 3.5105070626220055e7 0.0
0.0 0.0 0.0

-6.213558667452015e6 -1.013984165373691e6 0.0
-1.013984165373691e6 5.681101346052099e7 0.0
0.0 0.0 0.0

1.7153377398727238e6 1.2937252253686746e6 0.0
1.2937252253686746e6 -5.637896418681051e7 0.0
0.0 0.0 0.0

5.649385585608044e6 3.360343130049782e7 0.0
3.360343130049782e7 -5.66322153971935e6 0.0
0.0 0.0 0.0

4.830690938976567e6 2.0350124000569068e7 0.0
2.0350124000569068e7 5.6050257044746e7 0.0
0.0 0.0 0.0

9.499561725530119e7 9.65898809554507e7 0.0
9.65898809554507e7 -1.0805550650862008e7 0.0
0.0 0.0 0.0

-577968.179730529 1.2539523200786628e7 0.0
1.2539523200786628e7 -8.964929926333476e6 0.0
0.0 0.0 0.0

-1.8814314827314545e6 3.3713463453457355e7 0.0
3.3713463453457355e7 1.9865065087036164e6 0.0
0.0 0.0 0.0

-9.896427297540437e6 1.096926213116863e6 0.0
1.096926213116863e6 1.664017640428362e7 0.0
0.0 0.0 0.0

-2.5301531284945803e6 3.0714991730246462e7 0.0
3.0714991730246462e7 5.116481212603673e6 0.0
0.0 0.0 0.0

3.1721353790418105e6 2.480120434935746e6 0.0
2.480120434935746e6 -1.504680015040924e7 0.0
0.0 0.0 0.0

1.4248893343339372e7 3.050462318743472e7 0.0
3.050462318743472e7 -4.586506109098109e6 0.0
0.0 0.0 0.0

4.315480191617148e6 2.8696593426307555e7 0.0
2.8696593426307555e7 -8.485398525404187e6 0.0
0.0 0.0 0.0

-5.960467783431024e6 1.9364469515638787e7 0.0
1.9364469515638787e7 2.0115903276617125e7 0.0
0.0 0.0 0.0

-1.9519319746282864e6 2.3613088815294914e7 0.0
2.3613088815294914e7 -1.5766191627573513e6 0.0
0.0 0.0 0.0

-3.8472338691711277e6 1.1557558013862995e6 0.0
1.1557558013862995e6 7.804253092562793e7 0.0
0.0 0.0 0.0

-7705.420221448701 3.7697890362550244e6 0.0
3.7697890362550244e6 169119.5884603503 0.0
0.0 0.0 0.0

-5.436818911588946e6 -779285.5157211724 0.0
-779285.5157211724 2.2263587391178664e6 0.0
0.0 0.0 0.0

492918.9682383401 -1.3736731012519617e6 0.0
-1.3736731012519617e6 -1.7953075606125721e6 0.0
0.0 0.0 0.0

5.195687831149017e6 2.9048721020046286e7 0.0
2.9048721020046286e7 -7.92942602655166e6 0.0
0.0 0.0 0.0

-7.829466604541115e6 1.779460539939811e7 0.0
1.779460539939811e7 -6.290578170786504e7 0.0
0.0 0.0 0.0

6.107933703301144e6 2.0577034757292118e7 0.0
2.0577034757292118e7 3.79490282736336e7 0.0
0.0 0.0 0.0

-3.6837803914977317e6 2.2450279060151935e7 0.0
2.2450279060151935e7 -1.406145552375385e7 0.0
0.0 0.0 0.0

3.1647361802061796e6 1.843194499219785e6 0.0
1.843194499219785e6 -2.9529509553536784e7 0.0
0.0 0.0 0.0

-2.175093808634919e6 2.0277905589502424e7 0.0
2.0277905589502424e7 -5.293718711677527e6 0.0
0.0 0.0 0.0

408736.9288321631 2.33067682236022e7 0.0
2.33067682236022e7 -1.4954310171909582e7 0.0
0.0 0.0 0.0

-4.8921215654321e6 1.7259931633062247e7 0.0
1.7259931633062247e7 -4.483299041257757e7 0.0
0.0 0.0 0.0

1.2714755449899475e6 3.1145083963455964e7 0.0
3.1145083963455964e7 -3.766200426305655e6 0.0
0.0 0.0 0.0

-3.046597129525395e6 2.2088835571117073e7 0.0
2.2088835571117073e7 2.4800671290842615e7 0.0
0.0 0.0 0.0

-1.7321291888681413e6 2.093163436820785e7 0.0
2.093163436820785e7 -4.0577205152940615e6 0.0
0.0 0.0 0.0

581124.8945961454 2.306427589102648e7 0.0
2.306427589102648e7 3.6307043426376777e6 0.0
0.0 0.0 0.0

-7.2731164978107605e6 1.8680993524168268e7 0.0
1.8680993524168268e7 -3.132739171074237e7 0.0
0.0 0.0 0.0

-2.8456161355412364e7 3.2121876781221416e7 0.0
3.2121876781221416e7 -9.297309577856636e6 0.0
0.0 0.0 0.0

1.6897078273007136e7 5.030888939526294e7 0.0
5.030888939526294e7 -4.321902100343194e6 0.0
0.0 0.0 0.0

-3.3224392405416504e6 -1.1962286066707692e6 0.0
-1.1962286066707692e6 7.502630492318423e6 0.0
0.0 0.0 0.0

-2.8056675823321654e6 -2.1833932014685995e6 0.0
-2.1833932014685995e6 6.901102025163173e6 0.0
0.0 0.0 0.0

-3.36975254578981e6 2.3222304018549744e7 0.0
2.3222304018549744e7 2.1756751257769983e7 0.0
0.0 0.0 0.0

-542852.6288594201 2.689721975540306e7 0.0
2.689721975540306e7 -6.848387969298118e6 0.0
0.0 0.0 0.0

-1.3276773085773864e6 3.498416042118454e7 0.0
3.498416042118454e7 1.6167830208291765e6 0.0
0.0 0.0 0.0

-2.288387131813839e6 3.1339550170684535e7 0.0
3.1339550170684535e7 4.204804358801603e6 0.0
0.0 0.0 0.0

1.5698518963681865e7 2.4657095948291156e7 0.0
2.4657095948291156e7 1.2156745678124472e7 0.0
0.0 0.0 0.0

4.358550418305082e6 2.482294957625825e7 0.0
2.482294957625825e7 -4.70986528590083e6 0.0
0.0 0.0 0.0

7.310457652905272e6 1.996060540471296e7 0.0
1.996060540471296e7 6.2514244492579125e7 0.0
0.0 0.0 0.0

-5.351979870951101e7 3.3358730020718444e7 0.0
3.3358730020718444e7 -1.852026673061728e7 0.0
0.0 0.0 0.0

-1.3001135065585811e8 4.810490038006224e7 0.0
4.810490038006224e7 1.6029109026681632e6 0.0
0.0 0.0 0.0

-6.012158458552579e6 1.8367818851047765e7 0.0
1.8367818851047765e7 1.789401185925751e7 0.0
0.0 0.0 0.0

-2.1913486601092387e6 2.4030143724540487e7 0.0
2.4030143724540487e7 1.8415946091999978e7 0.0
0.0 0.0 0.0

2.435077716219485e6 5.237586312679046e6 0.0
5.237586312679046e6 -2.7137299789484974e7 0.0
0.0 0.0 0.0

-5.805028414924338e6 1.9448487995815665e7 0.0
1.9448487995815665e7 2.5018471156431302e7 0.0
0.0 0.0 0.0

-7.737445426437219e6 -4.598429934000282e6 0.0
-4.598429934000282e6 2.1243565890360214e7 0.0
0.0 0.0 0.0

1.2499535662769645e7 2.617929466890076e7 0.0
2.617929466890076e7 1.4447118029317476e7 0.0
0.0 0.0 0.0

-3.555304222943701e6 1.767277403377997e7 0.0
1.767277403377997e7 -4.278416233442e7 0.0
0.0 0.0 0.0

2.8673096752178706e6 4.563596949801986e6 0.0
4.563596949801986e6 -3.454702377058105e7 0.0
0.0 0.0 0.0

7.607640335287591e6 2.364115127133793e7 0.0
2.364115127133793e7 7.932737184486364e6 0.0
0.0 0.0 0.0

-513321.853372626 5.167721322135935e6 0.0
5.167721322135935e6 9.93320058581261e7 0.0
0.0 0.0 0.0

-5.32634488690942e6 3.2654492986900784e7 0.0
3.2654492986900784e7 6.744673836378792e6 0.0
0.0 0.0 0.0

-1.9729891345096774e7 2.826805901029194e7 0.0
2.826805901029194e7 -94272.66973052733 0.0
0.0 0.0 0.0

2.960222365543763e6 2.724539366485705e7 0.0
2.724539366485705e7 -1.004362079544883e7 0.0
0.0 0.0 0.0

-7.964149259077353e6 -2.767160891849196e6 0.0
-2.767160891849196e6 3.403260183334523e7 0.0
0.0 0.0 0.0

924109.4112319537 2.1400900364212126e7 0.0
2.1400900364212126e7 7.881859486269179e6 0.0
0.0 0.0 0.0

-7.122345168289166e6 -1.8763756601920703e6 0.0
-1.8763756601920703e6 4.4556661744219445e7 0.0
0.0 0.0 0.0

7.668129600155e6 2.4763705450545795e7 0.0
2.4763705450545795e7 7.894536366439594e6 0.0
0.0 0.0 0.0

-1.7097543038191712e6 2.5767439599345163e7 0.0
2.5767439599345163e7 1.734861802532946e6 0.0
0.0 0.0 0.0

2.8701095698067527e6 2.8457081059320476e6 0.0
2.8457081059320476e6 -3.839413284588507e7 0.0
0.0 0.0 0.0

-6.168157965139501e6 2.352695744392777e7 0.0
2.352695744392777e7 -1.6414031217354238e7 0.0
0.0 0.0 0.0

3.2094160719210915e6 1.9897902180037964e6 0.0
1.9897902180037964e6 -2.642079881639229e7 0.0
0.0 0.0 0.0

124093.54866347555 1.913522631541291e7 0.0
1.913522631541291e7 -2.4919606025212266e7 0.0
0.0 0.0 0.0

-7.010218447964654e6 4.03328041819585e7 0.0
4.03328041819585e7 3.092709522882876e6 0.0
0.0 0.0 0.0

-347576.823515172 1.896504940491338e7 0.0
1.896504940491338e7 -281971.7060960437 0.0
0.0 0.0 0.0

1.1275569633097555e6 2.6683886354224894e7 0.0
2.6683886354224894e7 -1.0428504609551277e7 0.0
0.0 0.0 0.0

-5.025175857732832e6 3.816384887373223e7 0.0
3.816384887373223e7 2.343323123992281e6 0.0
0.0 0.0 0.0

-2.780035661393184e6 2.9354896983794264e7 0.0
2.9354896983794264e7 7.223107784634523e6 0.0
0.0 0.0 0.0

-2.9673549386735205e6 3.0905172323320683e7 0.0
3.0905172323320683e7 3.5077641681624968e6 0.0
0.0 0.0 0.0

215992.61705173628 3.830253692853576e7 0.0
3.830253692853576e7 -1.1752908357894162e6 0.0
0.0 0.0 0.0

1.5827175647022128e6 2.568776046027421e7 0.0
2.568776046027421e7 -1.130244417173951e7 0.0
0.0 0.0 0.0

-4.264623720115453e6 4.235404970835581e7 0.0
4.235404970835581e7 1.1525989141610777e6 0.0
0.0 0.0 0.0

-9.378563330719844e6 1.483026210056941e7 0.0
1.483026210056941e7 2.0871702094535947e7 0.0
0.0 0.0 0.0

767067.7071744967 1.5574660132941935e7 0.0
1.5574660132941935e7 -1.947730035041117e7 0.0
0.0 0.0 0.0

-9.781315951489855e6 465913.0891750236 0.0
465913.0891750236 2.8109679237074003e7 0.0
0.0 0.0 0.0

-1.4278348341733083e7 3.04227707870005e7 0.0
3.04227707870005e7 4.487087795854904e6 0.0
0.0 0.0 0.0

-6.35181812517824e6 1.5522407121861114e6 0.0
1.5522407121861114e6 5.85782269148726e7 0.0
0.0 0.0 0.0

5.211575339742785e6 3.4969171837823294e7 0.0
3.4969171837823294e7 -5.086633441006478e6 0.0
0.0 0.0 0.0

506336.9331519045 1.9119488760173794e7 0.0
1.9119488760173794e7 -2.4919704285892e7 0.0
0.0 0.0 0.0

1.903343352940687e6 2.3687610297193907e7 0.0
2.3687610297193907e7 9.581517920585701e6 0.0
0.0 0.0 0.0

-1.0021684265546729e6 1.872000687342689e7 0.0
1.872000687342689e7 -1.1640062227224909e7 0.0
0.0 0.0 0.0

-182671.66215262376 1.6072927759724936e7 0.0
1.6072927759724936e7 -3.549537525864324e7 0.0
0.0 0.0 0.0

2.9655900852003666e6 3.9977507277677194e6 0.0
3.9977507277677194e6 -1.8465512340002656e7 0.0
0.0 0.0 0.0

6.266098731315283e6 2.924494851821708e7 0.0
2.924494851821708e7 -7.361907180890676e6 0.0
0.0 0.0 0.0

89657.61771379551 2.2918653340374365e7 0.0
2.2918653340374365e7 7.555558425543758e6 0.0
0.0 0.0 0.0

-2.380817808103232e6 2.276359972305717e7 0.0
2.276359972305717e7 -1.5655946044612676e6 0.0
0.0 0.0 0.0

1.266582274760563e6 1.4946550380354195e6 0.0
1.4946550380354195e6 -6.790908704998088e7 0.0
0.0 0.0 0.0

-1.0250111182362458e7 6.547886466284368e6 0.0
6.547886466284368e6 2.814090451755867e7 0.0
0.0 0.0 0.0

871321.6145687848 4.258637188706151e6 0.0
4.258637188706151e6 -6.770482766941261e7 0.0
0.0 0.0 0.0

-8.45339913808781e6 -3.522174702802632e6 0.0
-3.522174702802632e6 2.6192834103507392e7 0.0
0.0 0.0 0.0

-2.1488248989879237e6 2.5669911758649547e7 0.0
2.5669911758649547e7 43999.74101901648 0.0
0.0 0.0 0.0

-576105.3387184995 2.3012595432410914e7 0.0
2.3012595432410914e7 4.404047798152197e6 0.0
0.0 0.0 0.0

1.1328980356855153e6 2.3326894263709318e7 0.0
2.3326894263709318e7 6.869601154804774e6 0.0
0.0 0.0 0.0

-5.303227993956914e6 1.804598583348988e7 0.0
1.804598583348988e7 2.056096871046778e7 0.0
0.0 0.0 0.0

-7.647533307699639e6 -2.0623946063810152e6 0.0
-2.0623946063810152e6 3.830686795642835e7 0.0
0.0 0.0 0.0

7.72620547990321e6 3.153663222302561e7 0.0
3.153663222302561e7 -6.328141178447075e6 0.0
0.0 0.0 0.0

7.7087532534249425e6 2.3866799493211508e7 0.0
2.3866799493211508e7 1.7675506542575553e7 0.0
0.0 0.0 0.0

1.7101290294595752e6 9.437206670504255e6 0.0
9.437206670504255e6 -3.0381008158975985e7 0.0
0.0 0.0 0.0

-7.740393507266032e6 -387611.1877250932 0.0
-387611.1877250932 4.0837655185259454e7 0.0
0.0 0.0 0.0

5.258564533218554e6 2.4247118772234894e7 0.0
2.4247118772234894e7 1.4013520440559976e7 0.0
0.0 0.0 0.0

-467961.4137567468 1.834618027194562e7 0.0
1.834618027194562e7 5.0095803737430856e7 0.0
0.0 0.0 0.0

8.880701831888884e6 2.54304186447005e7 0.0
2.54304186447005e7 1.4078479610950733e7 0.0
0.0 0.0 0.0

-6.665728869991448e6 1.7227373272056762e7 0.0
1.7227373272056762e7 -5.888658013326783e7 0.0
0.0 0.0 0.0

-1.7974910303613823e6 2.1550361723572288e7 0.0
2.1550361723572288e7 2.9686844010403343e7 0.0
0.0 0.0 0.0

2.376281440160848e6 2.0974737572275817e7 0.0
2.0974737572275817e7 2.3863298225104373e7 0.0
0.0 0.0 0.0

2.671642407749218e6 2.5252667660539746e7 0.0
2.5252667660539746e7 -1.2384798459639423e7 0.0
0.0 0.0 0.0

-3.94492193904481e6 2.4182083909500536e7 0.0
2.4182083909500536e7 -7.100482515407022e6 0.0
0.0 0.0 0.0

379650.17815047875 9.13333270934216e6 0.0
9.13333270934216e6 -4.9334029202799864e7 0.0
0.0 0.0 0.0

449063.17001260445 8.183234457898891e6 0.0
8.183234457898891e6 -5.19438683704274e7 0.0
0.0 0.0 0.0

-36823.87943994487 1.8300529465423234e7 0.0
1.8300529465423234e7 -1.097991434406976e7 0.0
0.0 0.0 0.0

-5.034984740558257e6 1.8891205244609013e7 0.0
1.8891205244609013e7 3.4316778632266566e7 0.0
0.0 0.0 0.0

1.1737104559059106e6 2.342014920532767e7 0.0
2.342014920532767e7 -1.5784653466850014e7 0.0
0.0 0.0 0.0

-4.193518063202027e6 4.293757405786158e6 0.0
4.293757405786158e6 7.465191164896758e7 0.0
0.0 0.0 0.0

-4.326192003107723e6 1.6792918343304083e7 0.0
1.6792918343304083e7 -5.1808183989359066e7 0.0
0.0 0.0 0.0

2.4844112687027976e6 1.7208198888806034e7 0.0
1.7208198888806034e7 6.1973401180132374e7 0.0
0.0 0.0 0.0

1.377727538633667e6 1.59218352247821e6 0.0
1.59218352247821e6 -6.516368156635109e7 0.0
0.0 0.0 0.0

1.9987183221633183e6 2.6977901603786632e7 0.0
2.6977901603786632e7 -1.0190932855031254e7 0.0
0.0 0.0 0.0

7.316830513375578e6 2.5081331066869378e7 0.0
2.5081331066869378e7 1.4593818596182806e7 0.0
0.0 0.0 0.0

-8.426785915987136e6 1.8888883377830192e7 0.0
1.8888883377830192e7 -5.403184194581749e7 0.0
0.0 0.0 0.0

1.3874022737039221e7 1.183877005755514e7 0.0
1.183877005755514e7 1.3270827280520657e6 0.0
0.0 0.0 0.0

-2.582341939027823e6 2.3284388246720348e7 0.0
2.3284388246720348e7 -8.774266440794133e6 0.0
0.0 0.0 0.0

6.165365906081817e6 2.4555885208985478e7 0.0
2.4555885208985478e7 1.5175853643655365e7 0.0
0.0 0.0 0.0

-2.7661953369263876e6 2.5261486490002375e7 0.0
2.5261486490002375e7 1.2780773916104043e7 0.0
0.0 0.0 0.0

-2.487155528768054e6 2.38819359450544e7 0.0
2.38819359450544e7 1.881929689702612e7 0.0
0.0 0.0 0.0

378100.91223433334 1.4057801637905907e7 0.0
1.4057801637905907e7 -1.7035553274954006e7 0.0
0.0 0.0 0.0

-7.279397830939803e6 1.8015496293141164e7 0.0
1.8015496293141164e7 3.161157167553953e7 0.0
0.0 0.0 0.0

-5.601934226137109e6 1.6745006798004733e7 0.0
1.6745006798004733e7 -5.482161403333435e7 0.0
0.0 0.0 0.0

-3.0688769065730353e6 2.3120755909555174e7 0.0
2.3120755909555174e7 -1.3104402186056675e7 0.0
0.0 0.0 0.0

-7.37735653238279e6 2.6501372607523695e7 0.0
2.6501372607523695e7 6.85531877271685e6 0.0
0.0 0.0 0.0

281407.3935223273 1.2485532652054789e7 0.0
1.2485532652054789e7 -9.49237848153399e6 0.0
0.0 0.0 0.0

-3.487549055468127e6 6.807576551665618e6 0.0
6.807576551665618e6 9.682914756929065e7 0.0
0.0 0.0 0.0

-9.372687918736236e6 1.8464131269172285e7 0.0
1.8464131269172285e7 -6.747689782468523e7 0.0
0.0 0.0 0.0

-641065.5136448015 2.0420749606306672e7 0.0
2.0420749606306672e7 3.4872834146088965e7 0.0
0.0 0.0 0.0

-1.7742664853332923e6 3.575959745283419e7 0.0
3.575959745283419e7 250135.32365310763 0.0
0.0 0.0 0.0

2.2908061530455407e7 2.4913105515709624e7 0.0
2.4913105515709624e7 8.833754228049792e6 0.0
0.0 0.0 0.0

1.689743136633465e6 1.999598966926689e7 0.0
1.999598966926689e7 4.507078814707472e7 0.0
0.0 0.0 0.0

-3.2809179339026185e6 2.2914279835520353e7 0.0
2.2914279835520353e7 2.169538883678697e7 0.0
0.0 0.0 0.0

428579.41972483136 1.6793065136180494e7 0.0
1.6793065136180494e7 -1.894651181355948e7 0.0
0.0 0.0 0.0

-3.7353044670129763e6 2.206683124330663e7 0.0
2.206683124330663e7 -1.5080941562625036e7 0.0
0.0 0.0 0.0

-4.4008119162175935e6 2.113697793639892e7 0.0
2.113697793639892e7 1.7309520511107296e7 0.0
0.0 0.0 0.0

-4.509799184701878e6 1.9681512886446744e7 0.0
1.9681512886446744e7 2.056480760928217e7 0.0
0.0 0.0 0.0

2.3285351873266585e6 2.817013584954786e6 0.0
2.817013584954786e6 -3.5492390269571e7 0.0
0.0 0.0 0.0

-4.337271207249697e6 2.8288039338379484e7 0.0
2.8288039338379484e7 1.1033412388954602e7 0.0
0.0 0.0 0.0

-2.074345127300812e6 1.9338551194909308e7 0.0
1.9338551194909308e7 -3.4867133341779117e6 0.0
0.0 0.0 0.0

3.5868335521081965e6 3.216672451886171e6 0.0
3.216672451886171e6 -2.522232559543294e7 0.0
0.0 0.0 0.0

3.47555836452208e6 3.369453945980346e7 0.0
3.369453945980346e7 -5.160508871700469e6 0.0
0.0 0.0 0.0

8.444688925233288e6 2.5121944678466924e7 0.0
2.5121944678466924e7 1.5646025702348443e7 0.0
0.0 0.0 0.0

-5.273596837563727e6 2.693396813608474e6 0.0
2.693396813608474e6 6.576850863620257e7 0.0
0.0 0.0 0.0

1.1698688505805619e7 2.6730137962812696e7 0.0
2.6730137962812696e7 1.4037627405595932e7 0.0
0.0 0.0 0.0

8.005393580447608e6 2.5158394429715034e7 0.0
2.5158394429715034e7 1.1026926612449737e7 0.0
0.0 0.0 0.0

113784.0959837623 2.229719866557619e7 0.0
2.229719866557619e7 -1.5543695206682455e7 0.0
0.0 0.0 0.0

1.8597328511221353e6 2.9319003428555788e6 0.0
2.9319003428555788e6 -4.73584916836584e7 0.0
0.0 0.0 0.0

4.1714975707872077e6 1.9871750972951856e7 0.0
1.9871750972951856e7 1.6042200290460384e7 0.0
0.0 0.0 0.0

802209.851926622 2.282469085807342e7 0.0
2.282469085807342e7 -1.3980539781866254e7 0.0
0.0 0.0 0.0

2.0168149062153378e6 2.3298098430188175e7 0.0
2.3298098430188175e7 1.1095082369433653e7 0.0
0.0 0.0 0.0

-1.0766030827273488e7 8.75026585044043e6 0.0
8.75026585044043e6 2.209459845935687e7 0.0
0.0 0.0 0.0

-7.893692527778449e6 -3.8710989085319815e6 0.0
-3.8710989085319815e6 2.5154405002466917e7 0.0
0.0 0.0 0.0

-5.878087665875817e6 2.57369703740062e7 0.0
2.57369703740062e7 4.614093436948882e6 0.0
0.0 0.0 0.0

451774.0882859919 1.6742335421837151e7 0.0
1.6742335421837151e7 -3.009540587866867e7 0.0
0.0 0.0 0.0

-4.538072552387762e6 2.119751425039627e7 0.0
2.119751425039627e7 -1.9789012931953296e7 0.0
0.0 0.0 0.0

-3.7505289346796386e6 3.068084868968458e6 0.0
3.068084868968458e6 9.372102646916062e7 0.0
0.0 0.0 0.0

-5.514330873558802e6 4.3596911787909776e7 0.0
4.3596911787909776e7 1.3786617926950864e6 0.0
0.0 0.0 0.0

524108.6538001199 6.2799883618342085e6 0.0
6.2799883618342085e6 -2.3770283967992472e6 0.0
0.0 0.0 0.0

-1.6194381559604944e6 2.3244220132701486e7 0.0
2.3244220132701486e7 1.4893526179476029e6 0.0
0.0 0.0 0.0

4.389641479551979e6 2.4220584435190972e7 0.0
2.4220584435190972e7 1.383827759106567e7 0.0
0.0 0.0 0.0

-5.564391168730209e6 1.939323265154656e7 0.0
1.939323265154656e7 3.037813578069941e7 0.0
0.0 0.0 0.0

-1.6350894989452437e7 2.981849765462527e7 0.0
2.981849765462527e7 2.4540546064524045e6 0.0
0.0 0.0 0.0

6.096767761512327e6 2.5162949120717395e7 0.0
2.5162949120717395e7 1.1964153832985457e7 0.0
0.0 0.0 0.0

3.5570249272688786e6 2.488306130538019e7 0.0
2.488306130538019e7 1.3022995642811796e7 0.0
0.0 0.0 0.0

705196.8029724872 2.1563839416438486e7 0.0
2.1563839416438486e7 -2.0191426647830397e7 0.0
0.0 0.0 0.0

1.9902123857172448e6 5.650985064028016e6 0.0
5.650985064028016e6 -1.402692294824966e7 0.0
0.0 0.0 0.0

-975070.5534524545 2.231429283426579e7 0.0
2.231429283426579e7 -1.787676792812282e7 0.0
0.0 0.0 0.0

1.0756832600553352e6 2.5042735508926958e7 0.0
2.5042735508926958e7 -1.2725646327514559e7 0.0
0.0 0.0 0.0

-2.288573332811049e6 2.8332733297973394e7 0.0
2.8332733297973394e7 6.45922848985346e6 0.0
0.0 0.0 0.0

3.234012342780616e6 2.6373021431010384e7 0.0
2.6373021431010384e7 -1.0300083287367458e7 0.0
0.0 0.0 0.0

2.3606083362926645e6 2.5372930613036618e7 0.0
2.5372930613036618e7 -1.1349403835465832e7 0.0
0.0 0.0 0.0

2.370348424039766e6 4.100898005606511e6 0.0
4.100898005606511e6 -4.2436840990591854e7 0.0
0.0 0.0 0.0

4.33408048670458e6 2.4303414642403737e7 0.0
2.4303414642403737e7 8.612620695888553e6 0.0
0.0 0.0 0.0

1.0893589611239475e6 2.5825395579278085e7 0.0
2.5825395579278085e7 -1.1504243945315199e7 0.0
0.0 0.0 0.0

-8.955737226403372e6 1.6364074658297721e7 0.0
1.6364074658297721e7 2.588223790627526e7 0.0
0.0 0.0 0.0

-1.0816546743431212e8 3.363253123859403e7 0.0
3.363253123859403e7 -1.9320999954797976e7 0.0
0.0 0.0 0.0

3.5043732809232496e7 3.275115473885067e7 0.0
3.275115473885067e7 1.1681267209358263e8 0.0
0.0 0.0 0.0

-3.50443297908237e7 3.113550854734266e7 0.0
3.113550854734266e7 -1.1681465964686678e8 0.0
0.0 0.0 0.0

-3.016396694208367e6 2.1640445913202584e7 0.0
2.1640445913202584e7 2.6583135503485247e7 0.0
0.0 0.0 0.0

762404.4011140931 1.6327540989892714e7 0.0
1.6327540989892714e7 -2.6195931346104268e7 0.0
0.0 0.0 0.0

-4.674983839697229e6 2.3198389393986255e7 0.0
2.3198389393986255e7 -1.5535088911544833e7 0.0
0.0 0.0 0.0

4.01851799876236e6 4.431085132135221e7 0.0
4.431085132135221e7 -2.919373059657786e6 0.0
0.0 0.0 0.0

-2.4900154683510633e6 2.0112503694888264e7 0.0
2.0112503694888264e7 -2.497508235834999e7 0.0
0.0 0.0 0.0

-6.203874400803066e6 2.431178529125525e7 0.0
2.431178529125525e7 -9.571675564402835e6 0.0
0.0 0.0 0.0

-7.58288687067556e6 1.8315335483513348e7 0.0
1.8315335483513348e7 2.643226446169871e7 0.0
0.0 0.0 0.0

-300296.31053814397 2.941034887163245e7 0.0
2.941034887163245e7 -1.7807404730459165e6 0.0
0.0 0.0 0.0

-3.801178187095592e6 1.8549331589913394e7 0.0
1.8549331589913394e7 -3.934598031828224e7 0.0
0.0 0.0 0.0

-2.659705592197848e6 2.3110840901440956e7 0.0
2.3110840901440956e7 -8.669801120454585e6 0.0
0.0 0.0 0.0

-3.457018398201721e6 2.5288033873835806e7 0.0
2.5288033873835806e7 1.3871005810745541e7 0.0
0.0 0.0 0.0

2.2772336860159677e7 2.568731591270378e7 0.0
2.568731591270378e7 1.5978433263668064e6 0.0
0.0 0.0 0.0

1.8026572848605276e6 2.2572034785699684e7 0.0
2.2572034785699684e7 8.3267032065342665e6 0.0
0.0 0.0 0.0

-3.4576219704125775e6 2.2313444207287706e7 0.0
2.2313444207287706e7 2.3341469345266696e7 0.0
0.0 0.0 0.0

-2.4250333297858745e7 2.837423150923854e7 0.0
2.837423150923854e7 -2.9709193200648753e6 0.0
0.0 0.0 0.0

1.1215683848694146e6 2.2957523311732978e7 0.0
2.2957523311732978e7 8.290593966030406e6 0.0
0.0 0.0 0.0

4.318307122716636e6 3.434373792552729e7 0.0
3.434373792552729e7 -4.963361471425744e6 0.0
0.0 0.0 0.0

1.2441719429937853e7 3.1113866514091663e7 0.0
3.1113866514091663e7 -5.530389906568402e6 0.0
0.0 0.0 0.0

1.4186812658687886e6 1.5589343671501126e7 0.0
1.5589343671501126e7 -1.9798805282040134e7 0.0
0.0 0.0 0.0

-2.63355678253093e6 2.0133937380760923e7 0.0
2.0133937380760923e7 3.371995932033553e7 0.0
0.0 0.0 0.0

-205487.14045419637 2.105148535077117e7 0.0
2.105148535077117e7 -2.0909703863858525e7 0.0
0.0 0.0 0.0

-2.196644128449577e6 2.0539574048369978e7 0.0
2.0539574048369978e7 6.485513998795811e6 0.0
0.0 0.0 0.0

-4.990956003305201e6 2.0941235301222164e7 0.0
2.0941235301222164e7 2.010972137284128e7 0.0
0.0 0.0 0.0

1.8665745718797892e6 8.097031288562998e6 0.0
8.097031288562998e6 -1.0209299960975278e7 0.0
0.0 0.0 0.0

1.9134624075274933e6 2.1420238341118835e7 0.0
2.1420238341118835e7 1.2145261186825035e7 0.0
0.0 0.0 0.0

7.521697737856939e6 3.0252562522787873e7 0.0
3.0252562522787873e7 -6.721511061674674e6 0.0
0.0 0.0 0.0

-1.8975502430742942e6 1.2515143543809218e7 0.0
1.2515143543809218e7 -7.587847434807862e7 0.0
0.0 0.0 0.0

-9.348727164307093e6 1.5774887464177115e7 0.0
1.5774887464177115e7 2.505616488175703e7 0.0
0.0 0.0 0.0

2.621729373884944e7 4.773409542225009e7 0.0
4.773409542225009e7 -6.727911225605845e6 0.0
0.0 0.0 0.0

1.4710831279067453e6 8.472792496656293e6 0.0
8.472792496656293e6 -4.84065298636093e7 0.0
0.0 0.0 0.0

1.1543255079863367e6 2.1355992764747158e7 0.0
2.1355992764747158e7 9.608840918088907e6 0.0
0.0 0.0 0.0

4.090015199336639e6 2.770693127555334e7 0.0
2.770693127555334e7 -9.280021336379616e6 0.0
0.0 0.0 0.0

1.6457080346094385e7 2.6332207390687175e7 0.0
2.6332207390687175e7 1.6051767498817685e8 0.0
0.0 0.0 0.0

-1.706476655488369e7 2.5830873011797283e7 0.0
2.5830873011797283e7 -1.5566183294209924e8 0.0
0.0 0.0 0.0

3.444051985125141e7 2.3199772867910083e7 0.0
2.3199772867910083e7 7.188650078381889e6 0.0
0.0 0.0 0.0

1.4384435243763734e7 3.033981074975781e7 0.0
3.033981074975781e7 -4.880859861869602e6 0.0
0.0 0.0 0.0

294335.626023124 1.1811898934563598e7 0.0
1.1811898934563598e7 -8.323871405703342e6 0.0
0.0 0.0 0.0

2.6379580647527017e7 4.250946934717264e7 0.0
4.250946934717264e7 -6.823522208810151e6 0.0
0.0 0.0 0.0

-371325.30458699074 2.2652614686900612e7 0.0
2.2652614686900612e7 2.3542503642130606e7 0.0
0.0 0.0 0.0

1.879856980105056e7 2.5267792429591455e7 0.0
2.5267792429591455e7 1.623409433176512e6 0.0
0.0 0.0 0.0

-3.3052182464854466e6 2.7509373210987035e7 0.0
2.7509373210987035e7 8.972955811754411e6 0.0
0.0 0.0 0.0

-4.236255225181067e6 1.876974163742129e7 0.0
1.876974163742129e7 1.8564104611020003e7 0.0
0.0 0.0 0.0

-665971.3566400846 4.0146763535508574e6 0.0
4.0146763535508574e6 -2.564411250179058e6 0.0
0.0 0.0 0.0

9.081653270125419e6 2.4609810346189737e7 0.0
2.4609810346189737e7 1.6320675902657099e7 0.0
0.0 0.0 0.0

1.0459423363135089e6 2.9330393730434693e7 0.0
2.9330393730434693e7 -6.735351955190959e6 0.0
0.0 0.0 0.0

-2.9233891733361054e6 2.1303973996135972e7 0.0
2.1303973996135972e7 2.843183384716144e7 0.0
0.0 0.0 0.0

-5.922580998669248e6 2.8688290845655255e7 0.0
2.8688290845655255e7 1.0256862110411946e7 0.0
0.0 0.0 0.0

-2.5453134068490486e6 2.700970890351186e7 0.0
2.700970890351186e7 9.894345944822043e6 0.0
0.0 0.0 0.0

-2.8135540619339505e6 2.0828168605564274e7 0.0
2.0828168605564274e7 -7.386571705391706e6 0.0
0.0 0.0 0.0

-202178.1629804168 2.0200331081333954e7 0.0
2.0200331081333954e7 3.7021454741873056e7 0.0
0.0 0.0 0.0

-3.1876765260701324e6 2.7950930706420727e7 0.0
2.7950930706420727e7 1.0380867241227545e7 0.0
0.0 0.0 0.0

-3.9936714157499042e6 1.4883959652438968e7 0.0
1.4883959652438968e7 1.142843225861591e7 0.0
0.0 0.0 0.0

-4.7902198656412356e7 3.70624313357861e7 0.0
3.70624313357861e7 -8.526818376437273e6 0.0
0.0 0.0 0.0

-4.984659796180189e6 5.68672339887226e6 0.0
5.68672339887226e6 6.565233489619661e7 0.0
0.0 0.0 0.0

-8.16604260954113e6 2.912075503122504e7 0.0
2.912075503122504e7 8.359867397673441e6 0.0
0.0 0.0 0.0

-9.023583391791025e6 3.51955269139261e7 0.0
3.51955269139261e7 6.0936654826645795e6 0.0
0.0 0.0 0.0

-1.8068854918284193e6 1.7924410057969175e7 0.0
1.7924410057969175e7 -3.494079837773814e7 0.0
0.0 0.0 0.0

-2.6446333566852994e6 3.9754731838694364e7 0.0
3.9754731838694364e7 1.6941283305722363e6 0.0
0.0 0.0 0.0

-7.310496858355854e6 4.5105192101553425e7 0.0
4.5105192101553425e7 1.463468994831387e6 0.0
0.0 0.0 0.0

-9.237069866993222e6 4.655794003496569e7 0.0
4.655794003496569e7 2.008972470790355e6 0.0
0.0 0.0 0.0

179525.28563262871 3.21397867228117e7 0.0
3.21397867228117e7 -3.300948866561358e6 0.0
0.0 0.0 0.0

-7.67094870448585e6 1.498742986762276e7 0.0
1.498742986762276e7 3.723590841556918e7 0.0
0.0 0.0 0.0

2.4701688550413568e6 1.4205849840598975e6 0.0
1.4205849840598975e6 -3.956882023214965e7 0.0
0.0 0.0 0.0

-1.4400354696484618e6 2.1225909310667075e7 0.0
2.1225909310667075e7 3.1287949415449455e7 0.0
0.0 0.0 0.0

3.779397540727796e6 3.545228896628431e7 0.0
3.545228896628431e7 -4.3302070453517055e6 0.0
0.0 0.0 0.0

-15925.29344508797 1.8543217909345888e7 0.0
1.8543217909345888e7 -2.6593788793685038e7 0.0
0.0 0.0 0.0

-6.821230757603675e6 467527.7630503981 0.0
467527.7630503981 5.167032268812372e7 0.0
0.0 0.0 0.0

395856.9181537043 2.2747492017843578e7 0.0
2.2747492017843578e7 1.809334448644307e6 0.0
0.0 0.0 0.0

1.3457734211452706e6 2.3404834487215944e7 0.0
2.3404834487215944e7 -1.2713017577155696e7 0.0
0.0 0.0 0.0

-452881.00581977144 2.17582163958285e7 0.0
2.17582163958285e7 -1.7061415693350453e7 0.0
0.0 0.0 0.0

-4.829633448035779e6 1.91439935520045e7 0.0
1.91439935520045e7 -1.7516837719136048e7 0.0
0.0 0.0 0.0

-9.206955037364444e6 -1.7733889950370886e6 0.0
-1.7733889950370886e6 2.3723900352098808e7 0.0
0.0 0.0 0.0

-488746.0239866381 2.1129738046792872e7 0.0
2.1129738046792872e7 -2.713434236768445e6 0.0
0.0 0.0 0.0

4.204172622348847e6 2.317509047208633e7 0.0
2.317509047208633e7 7.776061566886696e6 0.0
0.0 0.0 0.0

2.4864112794804905e7 2.384637620957422e7 0.0
2.384637620957422e7 9.757363204089258e6 0.0
0.0 0.0 0.0

-1.0314379819254868e7 4.909544244471475e7 0.0
4.909544244471475e7 3.0216393668424375e6 0.0
0.0 0.0 0.0

-4.418452562305858e6 1.9224334674136538e7 0.0
1.9224334674136538e7 1.970034266029911e7 0.0
0.0 0.0 0.0

-1.2705744327808328e7 2.0404022462188736e7 0.0
2.0404022462188736e7 -7.548983255246407e7 0.0
0.0 0.0 0.0

2.1210497445152644e6 7.492153267037785e6 0.0
7.492153267037785e6 -4.03553741643092e7 0.0
0.0 0.0 0.0

-7.904811350275395e6 -2.6127751500511114e6 0.0
-2.6127751500511114e6 3.446445134780894e7 0.0
0.0 0.0 0.0

-2.574941515431907e7 3.196420117313053e7 0.0
3.196420117313053e7 -1.1927937938990735e7 0.0
0.0 0.0 0.0

-2.468194419899569e7 2.888004558278755e7 0.0
2.888004558278755e7 -5.771825108072476e6 0.0
0.0 0.0 0.0

-2.7904847210927377e6 2.1440686257707328e7 0.0
2.1440686257707328e7 -9.342900641880903e6 0.0
0.0 0.0 0.0

1.1295080228496606e6 3.476274210964525e7 0.0
3.476274210964525e7 -3.022350072139383e6 0.0
0.0 0.0 0.0

-578128.6239925995 7.07919340951638e6 0.0
7.07919340951638e6 -7.18878306143074e7 0.0
0.0 0.0 0.0

1.1739750930502925e7 2.665222687377995e7 0.0
2.665222687377995e7 -2.973765252562964e6 0.0
0.0 0.0 0.0

8.240828494064093e6 2.573600713368773e7 0.0
2.573600713368773e7 1.3409525638579499e7 0.0
0.0 0.0 0.0

1.4132480469584595e6 1.6106534412195958e7 0.0
1.6106534412195958e7 -2.5897590584846977e7 0.0
0.0 0.0 0.0

-1.332238579286524e6 2.728754698055864e7 0.0
2.728754698055864e7 1.095813514300898e6 0.0
0.0 0.0 0.0

1.3556624166381666e6 1.4972756195323555e7 0.0
1.4972756195323555e7 -1.876199982123927e7 0.0
0.0 0.0 0.0

715943.0917462539 1.56967932513986e7 0.0
1.56967932513986e7 -2.7949423260413997e7 0.0
0.0 0.0 0.0

-3.474614549010282e6 2.0140051503278993e7 0.0
2.0140051503278993e7 -1.8116861703678086e7 0.0
0.0 0.0 0.0

-9.276400484625107e6 3.4040001567489065e7 0.0
3.4040001567489065e7 6.035680579900427e6 0.0
0.0 0.0 0.0

-1.9304196838544462e7 2.449483647776508e7 0.0
2.449483647776508e7 -8.73048943904008e7 0.0
0.0 0.0 0.0

2.1923401000989392e7 4.160131111674196e7 0.0
4.160131111674196e7 -5.699355166079785e6 0.0
0.0 0.0 0.0

9.080621402448239e6 3.0233607055575646e7 0.0
3.0233607055575646e7 -6.105262617490251e6 0.0
0.0 0.0 0.0

-2.6416517968774587e6 3.673789048380618e7 0.0
3.673789048380618e7 2.5581698614945607e6 0.0
0.0 0.0 0.0

-3.7695247526722075e6 2.7225578037986442e7 0.0
2.7225578037986442e7 1.2047027043004414e7 0.0
0.0 0.0 0.0

-426523.44772383943 5.785151230748815e6 0.0
5.785151230748815e6 -7.526229866673346e7 0.0
0.0 0.0 0.0

-3.510612762223699e6 2.4902153488775898e7 0.0
2.4902153488775898e7 1.686920829721855e7 0.0
0.0 0.0 0.0

536823.5389710255 5.544902598738527e6 0.0
5.544902598738527e6 -6.0601374846492656e7 0.0
0.0 0.0 0.0

176855.18343146006 2.4277446872065693e7 0.0
2.4277446872065693e7 -9.50791623983601e6 0.0
0.0 0.0 0.0

37497.697761940304 2.327260790280625e7 0.0
2.327260790280625e7 -9.923491349619813e6 0.0
0.0 0.0 0.0

-1.3487228361736317e6 2.0553955197679836e7 0.0
2.0553955197679836e7 -4.195344174296703e6 0.0
0.0 0.0 0.0

-2.2122742652367745e6 2.3053216650299236e7 0.0
2.3053216650299236e7 2.004790153646404e7 0.0
0.0 0.0 0.0

-973302.1436543987 3.073035957996347e7 0.0
3.073035957996347e7 -2.15604272548805e6 0.0
0.0 0.0 0.0

-3.391531069385631e6 2.3310805043794524e7 0.0
2.3310805043794524e7 1.6409043561755259e7 0.0
0.0 0.0 0.0

-7.572994533734774e6 -2.1610706046164273e6 0.0
-2.1610706046164273e6 3.917372071840935e7 0.0
0.0 0.0 0.0

1.408703282175418e6 7.074464771139385e6 0.0
7.074464771139385e6 -4.258044601719902e7 0.0
0.0 0.0 0.0

1.595014056456998e6 9.762941430936377e6 0.0
9.762941430936377e6 -3.285645294883399e7 0.0
0.0 0.0 0.0

2.738562081915642e6 3.847608299214297e7 0.0
3.847608299214297e7 -2.0368072591087965e6 0.0
0.0 0.0 0.0

-3.7463160978848296e6 2.320437683202054e7 0.0
2.320437683202054e7 -1.3146666836593315e7 0.0
0.0 0.0 0.0

-907415.6966877524 1.7017583259896692e7 0.0
1.7017583259896692e7 -3.5243105815013245e7 0.0
0.0 0.0 0.0

4.841006789141483e6 2.1805226963954516e7 0.0
2.1805226963954516e7 1.79640714176619e7 0.0
0.0 0.0 0.0

-9.840552895043936e6 3.9279168906806246e6 0.0
3.9279168906806246e6 2.6844829392928824e7 0.0
0.0 0.0 0.0

9.191109449392952e6 2.641952787967011e7 0.0
2.641952787967011e7 1.4568723583912598e7 0.0
0.0 0.0 0.0

-1.698784824302607e7 3.765038073175059e7 0.0
3.765038073175059e7 6.650939154075529e6 0.0
0.0 0.0 0.0

5.933411436577577e6 2.3846404704154212e7 0.0
2.3846404704154212e7 8.634719158964297e6 0.0
0.0 0.0 0.0

3.9439044108741903e6 2.0357133154099885e7 0.0
2.0357133154099885e7 1.8567368903963093e7 0.0
0.0 0.0 0.0

-6.389245375250527e6 3.321761981696983e7 0.0
3.321761981696983e7 6.395709347799216e6 0.0
0.0 0.0 0.0

-2.8846707553152554e6 2.38752504398466e7 0.0
2.38752504398466e7 1.951432822211547e7 0.0
0.0 0.0 0.0

1.4162364512153454e6 1.9641879661704317e7 0.0
1.9641879661704317e7 4.4616555978211775e7 0.0
0.0 0.0 0.0

-2.3807898259674415e7 2.9529498930400558e7 0.0
2.9529498930400558e7 -3.583820695897404e6 0.0
0.0 0.0 0.0

-1.4950696020783007e7 2.8156014891223736e7 0.0
2.8156014891223736e7 2.238283567063989e6 0.0
0.0 0.0 0.0

-1.3020425122228917e7 1.8802262721770875e7 0.0
1.8802262721770875e7 -1.608208847764338e6 0.0
0.0 0.0 0.0

-9.877037248872107e7 3.8997003728733286e7 0.0
3.8997003728733286e7 -1.2417269013152145e7 0.0
0.0 0.0 0.0

1.5259468967437692e7 2.375587486211261e7 0.0
2.375587486211261e7 9.048860222228313e6 0.0
0.0 0.0 0.0

-3.163809039204182e6 1.82193307568066e7 0.0
1.82193307568066e7 -3.6221343942134455e7 0.0
0.0 0.0 0.0

-3.1408179378496106e6 2.6655442065990813e7 0.0
2.6655442065990813e7 9.40435056636707e6 0.0
0.0 0.0 0.0

904191.5082361726 2.270344719887801e7 0.0
2.270344719887801e7 -1.7199495086050738e7 0.0
0.0 0.0 0.0

5.364256836046104e7 1.9089921838569865e7 0.0
1.9089921838569865e7 3.542622269398475e6 0.0
0.0 0.0 0.0

-8.032571459880945e6 -1.6634082076333321e6 0.0
-1.6634082076333321e6 1.5139300504308729e7 0.0
0.0 0.0 0.0

3.271830367016078e6 2.3556782162933145e6 0.0
2.3556782162933145e6 -1.687888200192156e7 0.0
0.0 0.0 0.0

681251.6346035982 2.349003397101571e7 0.0
2.349003397101571e7 -1.4658330912767518e7 0.0
0.0 0.0 0.0

-777338.4844168704 2.2214102144560445e7 0.0
2.2214102144560445e7 -1.0171629045097755e6 0.0
0.0 0.0 0.0

-7.049605015043993e6 6.134632564355384e6 0.0
6.134632564355384e6 5.124460476054467e7 0.0
0.0 0.0 0.0

1.0648108153496422e7 3.153694015005417e7 0.0
3.153694015005417e7 -5.88679301088179e6 0.0
0.0 0.0 0.0

-1.5806037798157297e7 5.085978218726386e7 0.0
5.085978218726386e7 3.5832998130224943e6 0.0
0.0 0.0 0.0

1.444163130344896e7 2.4773631044002943e7 0.0
2.4773631044002943e7 8.217308082738078e6 0.0
0.0 0.0 0.0

-7.986021900041806e6 -2.9103275970814717e6 0.0
-2.9103275970814717e6 3.2246013872739926e7 0.0
0.0 0.0 0.0

-2.810577012634543e7 3.0106660684643406e7 0.0
3.0106660684643406e7 -4.843306396318778e6 0.0
0.0 0.0 0.0

1.3432416108460661e6 2.1606688176882606e7 0.0
2.1606688176882606e7 7.788425323758607e6 0.0
0.0 0.0 0.0

-2.1969381383506272e7 5.333833921481889e7 0.0
5.333833921481889e7 4.575497511316287e6 0.0
0.0 0.0 0.0

-5.546493802246679e6 2.0032938829168208e7 0.0
2.0032938829168208e7 2.596553327458819e7 0.0
0.0 0.0 0.0

2.949393314893753e6 2.336861269004931e7 0.0
2.336861269004931e7 -1.3077120271856901e6 0.0
0.0 0.0 0.0

-8.216162087615656e6 1.9900139336312037e7 0.0
1.9900139336312037e7 -2.960667817667008e7 0.0
0.0 0.0 0.0

-3.4843524144146685e6 2.1435801244518604e7 0.0
2.1435801244518604e7 -1.2754465166447943e7 0.0
0.0 0.0 0.0

1.039317396693821e7 2.6213747999131408e7 0.0
2.6213747999131408e7 -3.6441337357501406e6 0.0
0.0 0.0 0.0

4.4976553029347315e7 5.247915954999718e7 0.0
5.247915954999718e7 -1.1297038045616116e7 0.0
0.0 0.0 0.0

-9.187841658260006e6 -1.0523284042245382e6 0.0
-1.0523284042245382e6 2.5343222442015067e7 0.0
0.0 0.0 0.0

3.458233867371991e6 4.2371375673228815e7 0.0
4.2371375673228815e7 -3.2147482218949087e6 0.0
0.0 0.0 0.0

5.725554976455504e6 3.5826782255827844e7 0.0
3.5826782255827844e7 -3.7638475794343897e6 0.0
0.0 0.0 0.0

-8.33959614324175e6 1.242790164918662e6 0.0
1.242790164918662e6 4.171259239362034e7 0.0
0.0 0.0 0.0

2.4213757132871486e6 1.4881505623988966e6 0.0
1.4881505623988966e6 -4.009946623851689e7 0.0
0.0 0.0 0.0

-4.61893606694823e6 3.0177881528406713e7 0.0
3.0177881528406713e7 8.90385617427727e6 0.0
0.0 0.0 0.0

7.450887992536186e6 2.6001425336594224e7 0.0
2.6001425336594224e7 1.484721195853045e7 0.0
0.0 0.0 0.0

-4.686540266924715e6 7.309857132067259e6 0.0
7.309857132067259e6 6.179224844193095e6 0.0
0.0 0.0 0.0

-6.967620565506481e6 1.8290433326334614e7 0.0
1.8290433326334614e7 2.6270355946692545e7 0.0
0.0 0.0 0.0

6.091356671723895e6 2.5482229050439753e7 0.0
2.5482229050439753e7 1.5249631716461912e7 0.0
0.0 0.0 0.0

-580308.5494286194 1.9601186542697255e7 0.0
1.9601186542697255e7 -1.3551351802639239e7 0.0
0.0 0.0 0.0

-4.281964902509799e6 1.9704473524944477e7 0.0
1.9704473524944477e7 -1.980234674868987e7 0.0
0.0 0.0 0.0

2.8472766072555818e6 3.293518240940565e7 0.0
3.293518240940565e7 -5.150394496552e6 0.0
0.0 0.0 0.0

-8.606211322886296e6 -1.860244748966182e6 0.0
-1.860244748966182e6 1.7991950852035176e7 0.0
0.0 0.0 0.0

-1.9172106838319125e6 2.2398822031978138e7 0.0
2.2398822031978138e7 4.808065368570398e6 0.0
0.0 0.0 0.0

-4.888380433850972e6 1.9386838232777502e7 0.0
1.9386838232777502e7 3.2324392069581524e7 0.0
0.0 0.0 0.0

817956.5353062414 1.6102731483094525e7 0.0
1.6102731483094525e7 -1.5357739083909586e7 0.0
0.0 0.0 0.0

2.50205355894419e6 2.6793279503296025e7 0.0
2.6793279503296025e7 -1.0996569260975689e7 0.0
0.0 0.0 0.0

4.955984077826052e6 4.653168163027309e7 0.0
4.653168163027309e7 -769846.3536342017 0.0
0.0 0.0 0.0

-1.6511028502699453e6 1.6508477051941633e7 0.0
1.6508477051941633e7 -3.767172854033807e7 0.0
0.0 0.0 0.0

-5.190993707486051e7 5.3659703291210495e7 0.0
5.3659703291210495e7 6.562890738485698e6 0.0
0.0 0.0 0.0

504368.2464236967 1.7829519177029014e6 0.0
1.7829519177029014e6 -722164.4290289334 0.0
0.0 0.0 0.0

64240.67695098906 2.0734998981948262e6 0.0
2.0734998981948262e6 -1.943136891395708e6 0.0
0.0 0.0 0.0

6.628617892727777e6 2.1561310241727408e7 0.0
2.1561310241727408e7 3.2919159182753026e7 0.0
0.0 0.0 0.0

6.353903434985733e6 2.3864139733775258e7 0.0
2.3864139733775258e7 1.760423081240076e7 0.0
0.0 0.0 0.0

446683.14369936474 2.268685657903059e7 0.0
2.268685657903059e7 1.0663468456920087e7 0.0
0.0 0.0 0.0

-7.9968546628711745e6 1.6481607703018062e7 0.0
1.6481607703018062e7 2.612794090169874e7 0.0
0.0 0.0 0.0

8.947321985826207e6 6.074792026784245e6 0.0
6.074792026784245e6 -1.5097795271433815e6 0.0
0.0 0.0 0.0

-2.265224501162428e6 2.4647088631858766e7 0.0
2.4647088631858766e7 1.1578908381787896e7 0.0
0.0 0.0 0.0

461037.4737398056 3.448858968920477e7 0.0
3.448858968920477e7 -824929.6991838163 0.0
0.0 0.0 0.0

-2.7693177535477728e6 1.7530373634893216e7 0.0
1.7530373634893216e7 -4.004844864910847e7 0.0
0.0 0.0 0.0

1.328475863562644e7 2.5988657576713525e7 0.0
2.5988657576713525e7 1.2810165771810418e7 0.0
0.0 0.0 0.0

2.031563274064361e7 2.539449594578197e7 0.0
2.539449594578197e7 1.3114788502649443e7 0.0
0.0 0.0 0.0

-3.0214617780866884e7 5.54538444083786e7 0.0
5.54538444083786e7 7.346120307266453e6 0.0
0.0 0.0 0.0

2.726717198981056e6 2.2946221307695568e7 0.0
2.2946221307695568e7 1.1038334704802195e7 0.0
0.0 0.0 0.0

-1.0135008661949383e7 1.09678649652344e7 0.0
1.09678649652344e7 1.6137363431028567e7 0.0
0.0 0.0 0.0

-9.356576776996098e6 1.457515190064415e7 0.0
1.457515190064415e7 3.1238410926229298e7 0.0
0.0 0.0 0.0

64138.878721173154 3.360252878522243e7 0.0
3.360252878522243e7 -2.0109295580828807e6 0.0
0.0 0.0 0.0

9.255000830939744e6 2.330728202595433e7 0.0
2.330728202595433e7 1.6820486767072737e7 0.0
0.0 0.0 0.0

-5.72224412855937e6 5.305220909779037e6 0.0
5.305220909779037e6 7.236774336857511e7 0.0
0.0 0.0 0.0

1.2503392249355363e6 2.1804517981573366e7 0.0
2.1804517981573366e7 1.9674446485424746e7 0.0
0.0 0.0 0.0

-1.2542246992331138e7 1.9785085089228664e7 0.0
1.9785085089228664e7 -4.4722960721203834e7 0.0
0.0 0.0 0.0

6.53994747269831e6 2.5186566196152538e7 0.0
2.5186566196152538e7 1.5631633995985903e7 0.0
0.0 0.0 0.0

-2.8835238531598225e6 2.0738475251700286e7 0.0
2.0738475251700286e7 3.0032044664147116e7 0.0
0.0 0.0 0.0

-480227.5312227998 1.8418541050303664e7 0.0
1.8418541050303664e7 -1.4036833473687379e7 0.0
0.0 0.0 0.0

8.162232561937328e6 2.0833207250411827e7 0.0
2.0833207250411827e7 8.81530197051298e7 0.0
0.0 0.0 0.0

1.0875663131457102e7 2.9921861155278556e7 0.0
2.9921861155278556e7 -5.388521063136639e6 0.0
0.0 0.0 0.0

286239.55767725874 2.0600227499203462e7 0.0
2.0600227499203462e7 -2.145506790630837e7 0.0
0.0 0.0 0.0

-578137.2888636475 1.4986165279361196e7 0.0
1.4986165279361196e7 -6.410813282845679e6 0.0
0.0 0.0 0.0

1.964916536435552e6 3.00949288894033e6 0.0
3.00949288894033e6 -5.036577606692338e7 0.0
0.0 0.0 0.0

4.621880021076272e6 4.429099916766378e7 0.0
4.429099916766378e7 -514641.4306066709 0.0
0.0 0.0 0.0

-8.771939337690817e6 1.5340042242193889e7 0.0
1.5340042242193889e7 3.2052751402281888e7 0.0
0.0 0.0 0.0

4.947859460343549e6 2.008012052341314e7 0.0
2.008012052341314e7 2.4726138655795865e7 0.0
0.0 0.0 0.0

-1.0725298757637572e7 2.9793225605158534e7 0.0
2.9793225605158534e7 5.815318027483694e6 0.0
0.0 0.0 0.0

-1.9610359493949586e6 2.4805125823863152e7 0.0
2.4805125823863152e7 2.556214968347861e6 0.0
0.0 0.0 0.0

-7.046009289902993e6 1.8840367620656073e7 0.0
1.8840367620656073e7 2.662892051000932e7 0.0
0.0 0.0 0.0

1.409163063936578e6 1.1905281674123082e7 0.0
1.1905281674123082e7 -2.645774778974402e7 0.0
0.0 0.0 0.0

-1.4972374059206977e7 4.7293310961821e7 0.0
4.7293310961821e7 6.669067907577669e6 0.0
0.0 0.0 0.0

2.867548365730618e7 1.3891685603339441e7 0.0
1.3891685603339441e7 1.1301842871274175e6 0.0
0.0 0.0 0.0

-1.031178241941132e7 1.025272849813507e6 0.0
1.025272849813507e6 2.3411849779507756e7 0.0
0.0 0.0 0.0

-8.040153283201218e6 3.4600609684611574e7 0.0
3.4600609684611574e7 5.739432187475519e6 0.0
0.0 0.0 0.0

-3.2464032302291073e7 2.5888593926063865e7 0.0
2.5888593926063865e7 2.527295621883016e6 0.0
0.0 0.0 0.0

-4.807221187672898e6 2.4575901997291464e7 0.0
2.4575901997291464e7 -1.2751372966404231e7 0.0
0.0 0.0 0.0

-6.3506945923339926e7 3.834620308593588e7 0.0
3.834620308593588e7 -5.124121928728389e6 0.0
0.0 0.0 0.0

-5.545232685750565e6 2.4864420782504853e7 0.0
2.4864420782504853e7 -7.478949054928416e6 0.0
0.0 0.0 0.0

-3.8927947937860144e6 2.1185210771825694e7 0.0
2.1185210771825694e7 2.042332181535572e7 0.0
0.0 0.0 0.0

-8.67641118447095e6 1.5566638667343881e7 0.0
1.5566638667343881e7 2.7454161452218387e7 0.0
0.0 0.0 0.0

-6.004013116101618e6 1.8843820079204287e7 0.0
1.8843820079204287e7 1.908692911735422e7 0.0
0.0 0.0 0.0

-4.624228307826904e6 2.7117516276706595e7 0.0
2.7117516276706595e7 1.277308312404947e7 0.0
0.0 0.0 0.0

-7.039271958062332e6 2.5041483683068175e6 0.0
2.5041483683068175e6 5.1384314195817865e7 0.0
0.0 0.0 0.0

-495584.3834213097 2.0990618012484606e7 0.0
2.0990618012484606e7 -1.3042568698252277e6 0.0
0.0 0.0 0.0

1.3264086066066185e6 1.3514631169820663e7 0.0
1.3514631169820663e7 -1.6121454054211859e7 0.0
0.0 0.0 0.0

810498.9330863133 1.8637903311755024e7 0.0
1.8637903311755024e7 -2.238104047198841e7 0.0
0.0 0.0 0.0

-8.008046986836255e6 -1.2613197983008185e6 0.0
-1.2613197983008185e6 3.505604123312898e7 0.0
0.0 0.0 0.0

-1.3246267377897613e6 2.143828539636852e7 0.0
2.143828539636852e7 753309.8476230575 0.0
0.0 0.0 0.0

-8.942768575455394e6 3.0014110261141513e7 0.0
3.0014110261141513e7 7.0312484326203e6 0.0
0.0 0.0 0.0

3.524710122641756e6 2.1533921661707018e7 0.0
2.1533921661707018e7 3.268568143415586e7 0.0
0.0 0.0 0.0

733351.6421238817 2.2656724859613076e7 0.0
2.2656724859613076e7 -1.520475819895467e7 0.0
0.0 0.0 0.0

691761.8550815242 2.1632976676814005e7 0.0
2.1632976676814005e7 5.643133647724494e6 0.0
0.0 0.0 0.0

2.939182089547661e6 4.096251831797123e7 0.0
4.096251831797123e7 -2.84797744893496e6 0.0
0.0 0.0 0.0

2.3159241615220453e6 2.4011867968458455e7 0.0
2.4011867968458455e7 -1.195486033788934e7 0.0
0.0 0.0 0.0

1.2170567496211419e8 4.3306274914178126e7 0.0
4.3306274914178126e7 3.176476073127523e6 0.0
0.0 0.0 0.0

5.621731701698119e6 2.3940006650122765e7 0.0
2.3940006650122765e7 -3.0933600283990256e6 0.0
0.0 0.0 0.0

-2.9484521000299845e6 2.0671301569587335e7 0.0
2.0671301569587335e7 -2.5850441404590074e7 0.0
0.0 0.0 0.0

3.8332687479798617e6 2.6185885060595676e7 0.0
2.6185885060595676e7 -1.0007708799819296e7 0.0
0.0 0.0 0.0

-3.343311534799264e7 3.2665442784763012e7 0.0
3.2665442784763012e7 -6.782583090864522e6 0.0
0.0 0.0 0.0

-6.374876009819262e6 2.8880408793320064e7 0.0
2.8880408793320064e7 8.904244033815365e6 0.0
0.0 0.0 0.0

2.0570205629464537e7 2.539120590549118e7 0.0
2.539120590549118e7 7.339282074156249e6 0.0
0.0 0.0 0.0

-4.359805593763785e6 1.686213949970032e7 0.0
1.686213949970032e7 -4.876402663083322e7 0.0
0.0 0.0 0.0

7.903481808844119e6 2.0369341386188865e7 0.0
2.0369341386188865e7 4.2591318540752634e7 0.0
0.0 0.0 0.0

2.9474911784641985e6 5.442485388794062e6 0.0
5.442485388794062e6 -3.084627142758067e7 0.0
0.0 0.0 0.0

4.030909425629874e6 2.7238359904008746e7 0.0
2.7238359904008746e7 -9.457538814589009e6 0.0
0.0 0.0 0.0

835707.7353206277 4.505653557770804e6 0.0
4.505653557770804e6 -5.889166056660146e7 0.0
0.0 0.0 0.0

2.1507887834513434e6 2.6474413427946545e7 0.0
2.6474413427946545e7 -1.1320566828331076e7 0.0
0.0 0.0 0.0

9.138589348901693e6 3.1657365088229317e7 0.0
3.1657365088229317e7 -6.1252333131855335e6 0.0
0.0 0.0 0.0

-1.685904289306317e6 2.4569194010500968e7 0.0
2.4569194010500968e7 1.9758965746098883e6 0.0
0.0 0.0 0.0

-1.5991936647190088e7 3.721579592150462e7 0.0
3.721579592150462e7 5.343268869103814e6 0.0
0.0 0.0 0.0

-3.186578036833899e6 2.092967579296825e7 0.0
2.092967579296825e7 3.0225919071373824e7 0.0
0.0 0.0 0.0

2.0490397282690075e6 2.1584222217701476e7 0.0
2.1584222217701476e7 1.2162385644709215e7 0.0
0.0 0.0 0.0

-4.334124170030625e7 4.168653426314112e7 0.0
4.168653426314112e7 7.209907259197965e6 0.0
0.0 0.0 0.0

2.0156625049366582e7 2.5581183167342283e7 0.0
2.5581183167342283e7 1.400592080274431e7 0.0
0.0 0.0 0.0

-5.7841086262533665e6 1.4161147979218336e7 0.0
1.4161147979218336e7 1.0319189338044986e7 0.0
0.0 0.0 0.0

-6.483620250274964e6 3.39692721254604e7 0.0
3.39692721254604e7 5.561425136725493e6 0.0
0.0 0.0 0.0

-6.502791299919458e6 2.5379976146171425e7 0.0
2.5379976146171425e7 -1.0000588340523625e7 0.0
0.0 0.0 0.0

948297.9483853774 1.6639605825387368e7 0.0
1.6639605825387368e7 -1.6319345454442265e7 0.0
0.0 0.0 0.0

2.3305003319170214e6 1.305875514369926e6 0.0
1.305875514369926e6 -4.222228512105172e7 0.0
0.0 0.0 0.0

-2.4997433959161295e6 2.0316918132822372e7 0.0
2.0316918132822372e7 -1.1144487105108598e7 0.0
0.0 0.0 0.0

5.867655448577626e7 7.296276427215904e6 0.0
7.296276427215904e6 -727980.0382399336 0.0
0.0 0.0 0.0

-2.76921751836193e6 2.0412955276716005e7 0.0
2.0412955276716005e7 3.1817246664174356e7 0.0
0.0 0.0 0.0

-8.629125244216293e6 3.3071649503346305e7 0.0
3.3071649503346305e7 6.551098261871958e6 0.0
0.0 0.0 0.0

-7.067746936399283e6 -1.4626330019965903e6 0.0
-1.4626330019965903e6 4.661012940686187e7 0.0
0.0 0.0 0.0

-2.6070090029847887e6 4.030389260084134e7 0.0
4.030389260084134e7 612094.5710378187 0.0
0.0 0.0 0.0

-2.5599957414783437e7 2.8487973153194897e7 0.0
2.8487973153194897e7 -4.721539393125216e6 0.0
0.0 0.0 0.0

480841.001596516 2.1240294177960865e7 0.0
2.1240294177960865e7 -2.0010596586777028e7 0.0
0.0 0.0 0.0

6.268566899773772e6 2.133135804253749e7 0.0
2.133135804253749e7 2.9447449325080927e7 0.0
0.0 0.0 0.0

388458.45277251373 2.266947018261242e7 0.0
2.266947018261242e7 5.393520901005394e6 0.0
0.0 0.0 0.0

-2.4314253309925217e6 2.5415454808331273e7 0.0
2.5415454808331273e7 1.0388344924064783e7 0.0
0.0 0.0 0.0

284874.680551257 1.5862830505875643e7 0.0
1.5862830505875643e7 -1.7394992522882316e7 0.0
0.0 0.0 0.0

2.197597640099896e6 1.1352533796433734e7 0.0
1.1352533796433734e7 -2.551058671787733e7 0.0
0.0 0.0 0.0

-1.155537975909188e6 1.0455385327694992e7 0.0
1.0455385327694992e7 -6.368830862608463e6 0.0
0.0 0.0 0.0

-5.742833326935124e6 3.331859518469079e7 0.0
3.331859518469079e7 5.509109715715323e6 0.0
0.0 0.0 0.0

-770342.0078829727 2.023346712149037e7 0.0
2.023346712149037e7 -1.212046624275491e7 0.0
0.0 0.0 0.0

2.3641345859428942e7 1.3560790961470557e7 0.0
1.3560790961470557e7 920517.8096911749 0.0
0.0 0.0 0.0

2.3029526880831122e6 1.472846734433328e6 0.0
1.472846734433328e6 -4.2767628446914665e7 0.0
0.0 0.0 0.0

4.898437969059462e6 2.0381550792998422e7 0.0
2.0381550792998422e7 3.0975355176559653e7 0.0
0.0 0.0 0.0

-173377.47071967274 1.0072439188984318e7 0.0
1.0072439188984318e7 -9.09292012059956e6 0.0
0.0 0.0 0.0

4.296429117764528e6 3.332354071753435e7 0.0
3.332354071753435e7 -4.549866597576363e6 0.0
0.0 0.0 0.0

805115.5819787849 2.2432782554262355e7 0.0
2.2432782554262355e7 1.383081126045115e7 0.0
0.0 0.0 0.0

-7.812555834226321e6 9.317201990960155e6 0.0
9.317201990960155e6 4.612815476842551e7 0.0
0.0 0.0 0.0

-8.542584457762182e6 1.2487019701205539e6 0.0
1.2487019701205539e6 1.6657750135950126e7 0.0
0.0 0.0 0.0

9.786909869649936e6 3.1514920228005156e7 0.0
3.1514920228005156e7 -5.937609707796536e6 0.0
0.0 0.0 0.0

-6.136406175812993e7 1.954265132986377e7 0.0
1.954265132986377e7 5.755651487197917e6 0.0
0.0 0.0 0.0

-99401.35169082042 1.951413741095967e7 0.0
1.951413741095967e7 -2.4791129686430916e7 0.0
0.0 0.0 0.0

7.304251778159551e6 1.4199273415112127e7 0.0
1.4199273415112127e7 3.816900910988546e6 0.0
0.0 0.0 0.0

-3.8686095321835326e6 2.0808736423180547e7 0.0
2.0808736423180547e7 1.9768666643974762e7 0.0
0.0 0.0 0.0

-6.653763071563528e7 1.884700022465535e7 0.0
1.884700022465535e7 4.291311876335621e6 0.0
0.0 0.0 0.0

-3.0567721567560686e6 1.9865692104978383e7 0.0
1.9865692104978383e7 -2.714189016441988e7 0.0
0.0 0.0 0.0

2.1098415628149947e6 2.554320217126964e7 0.0
2.554320217126964e7 -1.2209437171166098e7 0.0
0.0 0.0 0.0

1.163468428926901e6 5.816014629343511e6 0.0
5.816014629343511e6 -4.196038075549467e6 0.0
0.0 0.0 0.0

-1.3589315204291416e7 2.7327701949786425e7 0.0
2.7327701949786425e7 -9.919024601766713e6 0.0
0.0 0.0 0.0

9.64201210973933e6 3.697535369333142e7 0.0
3.697535369333142e7 -5.280929685020659e6 0.0
0.0 0.0 0.0

-1.8605271442271178e6 3.660223484214122e7 0.0
3.660223484214122e7 332336.91409659036 0.0
0.0 0.0 0.0

-2.7121390323992902e6 2.513992995294332e7 0.0
2.513992995294332e7 5.94026308387717e6 0.0
0.0 0.0 0.0

-6.611481490790958e6 1.760102184326234e7 0.0
1.760102184326234e7 3.376226387057372e7 0.0
0.0 0.0 0.0

-3.3407517406250006e6 2.5083963864432976e7 0.0
2.5083963864432976e7 1.66404214899555e7 0.0
0.0 0.0 0.0

-2.418227573401543e6 3.916645050137892e7 0.0
3.916645050137892e7 508215.8842700835 0.0
0.0 0.0 0.0

681185.0749374144 1.3307241701769771e7 0.0
1.3307241701769771e7 -1.832219811780756e7 0.0
0.0 0.0 0.0

-2.3644831392313717e6 3.83499312507779e7 0.0
3.83499312507779e7 370682.67914378864 0.0
0.0 0.0 0.0

7.154064444176048e6 2.413376717018902e7 0.0
2.413376717018902e7 1.551653014163399e7 0.0
0.0 0.0 0.0

-8.386597006293964e6 1.5445677197147332e7 0.0
1.5445677197147332e7 3.2479903691392988e7 0.0
0.0 0.0 0.0

1.808987292975247e6 3.010969082486938e6 0.0
3.010969082486938e6 -4.42004241114219e7 0.0
0.0 0.0 0.0

-1.0694281022581238e7 2.956363196033323e7 0.0
2.956363196033323e7 6.2824488817077e6 0.0
0.0 0.0 0.0

-84065.69177300879 2.986298491353897e7 0.0
2.986298491353897e7 -4.732894518304546e6 0.0
0.0 0.0 0.0

1.5434141078285454e6 2.9674131953884885e7 0.0
2.9674131953884885e7 -5.660133108470002e6 0.0
0.0 0.0 0.0

-8.385153248127696e7 4.866130477093758e7 0.0
4.866130477093758e7 -4.099715550841187e7 0.0
0.0 0.0 0.0

910191.5964114182 2.2095647445324805e7 0.0
2.2095647445324805e7 -1.861623798176948e7 0.0
0.0 0.0 0.0

331143.7587295006 3.2952132351377405e7 0.0
3.2952132351377405e7 -987190.9174274986 0.0
0.0 0.0 0.0

-4.352063775895304e6 2.2011941440021757e7 0.0
2.2011941440021757e7 1.8978709220890354e7 0.0
0.0 0.0 0.0

-3.651406938324159e7 2.7874591230884008e7 0.0
2.7874591230884008e7 3.0002519792758245e6 0.0
0.0 0.0 0.0

1.1795658105986172e6 2.161910892470669e7 0.0
2.161910892470669e7 627303.8380507978 0.0
0.0 0.0 0.0

5.2370785980881965e6 2.1553805180854913e7 0.0
2.1553805180854913e7 1.7815835125426907e7 0.0
0.0 0.0 0.0

1.7128654407287948e6 1.1183974151494058e6 0.0
1.1183974151494058e6 -5.4185096526156835e7 0.0
0.0 0.0 0.0

-2.269294919998417e7 4.3860955297178164e7 0.0
4.3860955297178164e7 8.081539724802837e6 0.0
0.0 0.0 0.0

-6.984941817008445e6 239744.503689636 0.0
239744.503689636 4.776004105263594e7 0.0
0.0 0.0 0.0

-6.767042253525425e6 1.565826837750357e6 0.0
1.565826837750357e6 5.562130384965531e7 0.0
0.0 0.0 0.0

-7.804067105379281e6 -1.0158369866023988e6 0.0
-1.0158369866023988e6 1.5499843260835184e7 0.0
0.0 0.0 0.0

-7.0519063222826235e6 1.5858630220187206e7 0.0
1.5858630220187206e7 3.770364431003126e7 0.0
0.0 0.0 0.0

5.235000228785828e6 1.9349775494782556e7 0.0
1.9349775494782556e7 1.2429299219719587e7 0.0
0.0 0.0 0.0

-524579.66725027 1.8564711061907496e7 0.0
1.8564711061907496e7 -2.8672650035340473e7 0.0
0.0 0.0 0.0

-4.439229740320409e7 5.620427826828982e7 0.0
5.620427826828982e7 1.051825630861689e7 0.0
0.0 0.0 0.0

-7.839954833566364e6 1.6052130629499977e7 0.0
1.6052130629499977e7 3.311392969824023e7 0.0
0.0 0.0 0.0

-4.66357744329609e6 1.6361382837800516e7 0.0
1.6361382837800516e7 -5.124541478570049e7 0.0
0.0 0.0 0.0

-2.4417040993058734e7 2.80413924845074e7 0.0
2.80413924845074e7 -4.30793008021258e6 0.0
0.0 0.0 0.0

-6.285438826755088e6 1.1904588895625721e6 0.0
1.1904588895625721e6 5.699155824780848e7 0.0
0.0 0.0 0.0

439931.0054129837 2.078806660301939e7 0.0
2.078806660301939e7 -1.8000556379320975e7 0.0
0.0 0.0 0.0

-1.0125384616747491e7 1.9620737490451284e7 0.0
1.9620737490451284e7 -5.802089571496982e7 0.0
0.0 0.0 0.0

-4.265481966354639e6 2.3780654993444454e7 0.0
2.3780654993444454e7 -9.077740389490625e6 0.0
0.0 0.0 0.0

-2.1062552005605493e7 2.583496576789583e7 0.0
2.583496576789583e7 -3.6597966701410464e6 0.0
0.0 0.0 0.0

5.9933472992505334e7 3.1944875377611972e7 0.0
3.1944875377611972e7 1.3132748123110168e7 0.0
0.0 0.0 0.0

-1.9549298391880682e6 1.8173440440553766e7 0.0
1.8173440440553766e7 -4.3844324566600295e6 0.0
0.0 0.0 0.0

1.1656194880637275e6 1.9202310974608857e7 0.0
1.9202310974608857e7 -2.0511494012786683e7 0.0
0.0 0.0 0.0

-3.715233930900879e6 1.976135029944992e7 0.0
1.976135029944992e7 -1.6510257987382293e7 0.0
0.0 0.0 0.0

1.8263701193965226e6 1.3317434024018517e6 0.0
1.3317434024018517e6 -5.471677170187746e7 0.0
0.0 0.0 0.0

2.3113041151095713e6 3.203838206182434e7 0.0
3.203838206182434e7 -4.1478693925605416e6 0.0
0.0 0.0 0.0

-4.42515741977977e6 1.9216275718934413e7 0.0
1.9216275718934413e7 -2.998007483296712e7 0.0
0.0 0.0 0.0

1.799844017165238e6 2.439283554020695e7 0.0
2.439283554020695e7 -1.255376505355956e7 0.0
0.0 0.0 0.0

-304674.1691063845 2.2506575441467173e7 0.0
2.2506575441467173e7 2.282174850529393e6 0.0
0.0 0.0 0.0

-4.923359039354022e6 1.391415345493361e7 0.0
1.391415345493361e7 1.3524706087414643e7 0.0
0.0 0.0 0.0

-2.79379860106151e6 2.5080386565495934e7 0.0
2.5080386565495934e7 9.872055249136347e6 0.0
0.0 0.0 0.0

1.162929771876203e6 2.089199611232635e7 0.0
2.089199611232635e7 3.3540483293615535e7 0.0
0.0 0.0 0.0

2.8062809382296037e6 1.7304836281145865e6 0.0
1.7304836281145865e6 -3.506909405577578e7 0.0
0.0 0.0 0.0

-1.634687767279246e7 1.6695417406606404e7 0.0
1.6695417406606404e7 984119.8928314922 0.0
0.0 0.0 0.0

8.3360401724655405e6 2.588640574886293e7 0.0
2.588640574886293e7 1.4993886311282046e7 0.0
0.0 0.0 0.0

-1.9675916522127558e6 2.08967816767697e7 0.0
2.08967816767697e7 -1.9847366066449363e7 0.0
0.0 0.0 0.0

9.167457149932545e7 1.284712454898343e7 0.0
1.284712454898343e7 131123.9817196019 0.0
0.0 0.0 0.0

89177.50792123843 1.9628500977242313e7 0.0
1.9628500977242313e7 -2.4920049618159607e7 0.0
0.0 0.0 0.0

1.2922631266081738e6 3.0733146047705382e7 0.0
3.0733146047705382e7 -5.813665141842286e6 0.0
0.0 0.0 0.0

-2.164009445079375e6 2.672726426352295e7 0.0
2.672726426352295e7 25858.444930614904 0.0
0.0 0.0 0.0

1.017514649019174e7 2.0916799268148024e7 0.0
2.0916799268148024e7 7.363849495035858e7 0.0
0.0 0.0 0.0

-7.264338718903817e6 1.4692342239140917e7 0.0
1.4692342239140917e7 3.9674722518040836e7 0.0
0.0 0.0 0.0

-6.998687014733499e6 -1.9650853549460073e6 0.0
-1.9650853549460073e6 4.611351054740642e7 0.0
0.0 0.0 0.0

-8.051229527669955e6 7.714634073525534e6 0.0
7.714634073525534e6 4.798889622739632e7 0.0
0.0 0.0 0.0

-2.556581221646031e6 3.5356879212195575e7 0.0
3.5356879212195575e7 1.0489105762193296e6 0.0
0.0 0.0 0.0

1.446823844364442e6 1.3012500350260034e7 0.0
1.3012500350260034e7 -2.771062562135902e7 0.0
0.0 0.0 0.0

-3.06462552211121e6 2.646138558583202e7 0.0
2.646138558583202e7 1.2502581797297144e7 0.0
0.0 0.0 0.0

1.071922316869977e6 2.27218472752729e7 0.0
2.27218472752729e7 -1.724359158147493e7 0.0
0.0 0.0 0.0

-5.132767960249452e6 1.9987049103886444e7 0.0
1.9987049103886444e7 1.8232444567369536e7 0.0
0.0 0.0 0.0

-5.618601923844669e6 2.935300132739892e7 0.0
2.935300132739892e7 9.359997675228992e6 0.0
0.0 0.0 0.0

1.2762874354783993e7 2.9358527460381888e7 0.0
2.9358527460381888e7 -4.640854974172288e6 0.0
0.0 0.0 0.0

-3.3773495138987806e6 2.432016560613399e7 0.0
2.432016560613399e7 1.8442828897381213e7 0.0
0.0 0.0 0.0

-2.897301610652604e6 2.5518052902612325e7 0.0
2.5518052902612325e7 1.4232251239306983e7 0.0
0.0 0.0 0.0

-4.839995525083151e6 2.0796183327079628e7 0.0
2.0796183327079628e7 -1.8019536346073285e7 0.0
0.0 0.0 0.0

-8.480949562196122e6 1.6189669212070428e7 0.0
1.6189669212070428e7 3.0649052206909772e7 0.0
0.0 0.0 0.0

-2.1330103286788147e6 3.524860693138283e7 0.0
3.524860693138283e7 2.426332678967744e6 0.0
0.0 0.0 0.0

2.3407601295670625e6 4.756143234515051e6 0.0
4.756143234515051e6 -3.2796247681818284e7 0.0
0.0 0.0 0.0

-5.344980772114575e6 3.7643229428147017e6 0.0
3.7643229428147017e6 7.099919732529888e7 0.0
0.0 0.0 0.0

-2.373071738410212e6 2.3029797089622535e7 0.0
2.3029797089622535e7 -1.0606535462876072e7 0.0
0.0 0.0 0.0

-2.666691355096417e6 3.61699570244509e7 0.0
3.61699570244509e7 1.1313335806326317e6 0.0
0.0 0.0 0.0

801855.0338836052 1.5429975694445206e7 0.0
1.5429975694445206e7 -3.159346260749891e7 0.0
0.0 0.0 0.0

1.4090128118799026e6 3.2356944438559886e7 0.0
3.2356944438559886e7 -4.634709160621026e6 0.0
0.0 0.0 0.0

1.5473639116207696e6 1.1079112698803123e7 0.0
1.1079112698803123e7 -2.7808466104483962e7 0.0
0.0 0.0 0.0

-8.558967158249846e6 1.4404077308034219e7 0.0
1.4404077308034219e7 3.4177535603262946e7 0.0
0.0 0.0 0.0

-6.818378152596134e7 5.207491642901118e7 0.0
5.207491642901118e7 1.0610495881557249e7 0.0
0.0 0.0 0.0

-1.7037759974299032e7 2.8653034301508226e7 0.0
2.8653034301508226e7 -1.204136556207209e6 0.0
0.0 0.0 0.0

-3.5950509936028635e6 2.6442419930033773e7 0.0
2.6442419930033773e7 1.3541248392149014e7 0.0
0.0 0.0 0.0

-8.462446234199837e6 -4.213646753679698e6 0.0
-4.213646753679698e6 2.3269822441789337e7 0.0
0.0 0.0 0.0

-2.0262124388970546e7 2.7139386368349448e7 0.0
2.7139386368349448e7 -3.550323894565158e6 0.0
0.0 0.0 0.0

-7.66545397319225e6 2.9992655680516344e7 0.0
2.9992655680516344e7 7.904926115649744e6 0.0
0.0 0.0 0.0

2.098562356894361e6 2.849921493837313e6 0.0
2.849921493837313e6 -4.533893839076699e7 0.0
0.0 0.0 0.0

-5.349063793577914e6 1.8547884586168904e7 0.0
1.8547884586168904e7 2.154937666350091e7 0.0
0.0 0.0 0.0

-7.787081604257997e6 1.6997093915894724e7 0.0
1.6997093915894724e7 2.6859818517654065e7 0.0
0.0 0.0 0.0

6.467996340877367e6 4.159744236473851e7 0.0
4.159744236473851e7 -2.055864353166487e6 0.0
0.0 0.0 0.0

-1.0799675711309336e7 3.841093709633156e6 0.0
3.841093709633156e6 2.515156608740721e7 0.0
0.0 0.0 0.0

-7.907010176593022e6 1.7110210420010142e7 0.0
1.7110210420010142e7 3.161167987073816e7 0.0
0.0 0.0 0.0

-440198.14694356784 3.7035895237396665e7 0.0
3.7035895237396665e7 969795.4996708825 0.0
0.0 0.0 0.0

-6.294829055573199e6 1.5419143000584086e6 0.0
1.5419143000584086e6 5.914907107088451e7 0.0
0.0 0.0 0.0

-8.522147062896803e6 -2.0715471651343724e6 0.0
-2.0715471651343724e6 2.5264727238898683e7 0.0
0.0 0.0 0.0

2.1648234010065123e6 7.9075060996916415e6 0.0
7.9075060996916415e6 -3.0959844118199088e7 0.0
0.0 0.0 0.0

-2.6712910442463686e6 2.549849161754088e7 0.0
2.549849161754088e7 1.1062931738546269e7 0.0
0.0 0.0 0.0

-6.956193620804159e6 1.6649396295970388e7 0.0
1.6649396295970388e7 3.535426230607031e7 0.0
0.0 0.0 0.0

627191.6484762076 2.2030324987705488e7 0.0
2.2030324987705488e7 -1.6957140344156638e7 0.0
0.0 0.0 0.0

1.1644658385097785e6 2.094540932394991e7 0.0
2.094540932394991e7 -1.7970788583110765e7 0.0
0.0 0.0 0.0

1.4088785670404509e6 1.2658173857435385e7 0.0
1.2658173857435385e7 -2.9723744572247006e7 0.0
0.0 0.0 0.0

-253102.36620742455 1.9042722665447846e7 0.0
1.9042722665447846e7 -2.6758254824943017e7 0.0
0.0 0.0 0.0

1.6248222409445958e6 2.245309723117228e7 0.0
2.245309723117228e7 9.498544825684533e6 0.0
0.0 0.0 0.0

-6.805708223303739e6 1.7756842828334548e7 0.0
1.7756842828334548e7 3.343028151188381e7 0.0
0.0 0.0 0.0

1.6335749878479445e6 3.1426660549993705e7 0.0
3.1426660549993705e7 -5.632168600966833e6 0.0
0.0 0.0 0.0

-6.23092234112929e6 3.2984632630622756e7 0.0
3.2984632630622756e7 6.281603376926318e6 0.0
0.0 0.0 0.0

-1.3359570413251165e6 3.578684773771869e7 0.0
3.578684773771869e7 1.7187878303822142e6 0.0
0.0 0.0 0.0

1.8754117614882123e7 2.628532850052468e7 0.0
2.628532850052468e7 8.607122619894525e7 0.0
0.0 0.0 0.0

-2.1566253388568e6 2.6004245282804627e7 0.0
2.6004245282804627e7 9.351480103419922e6 0.0
0.0 0.0 0.0

1.1477970955663128e6 1.9881983874484193e7 0.0
1.9881983874484193e7 -1.905718734280595e7 0.0
0.0 0.0 0.0

-1.080454720764582e6 1.99964627216117e7 0.0
1.99964627216117e7 -2.4906554984391876e7 0.0
0.0 0.0 0.0

1.1195118737426912e6 1.9563141648701802e7 0.0
1.9563141648701802e7 -2.0913482320624556e7 0.0
0.0 0.0 0.0

2.4222793787367176e6 3.521775991144978e7 0.0
3.521775991144978e7 -2.336030567586503e6 0.0
0.0 0.0 0.0

-2.694913047029095e6 2.4723256751124367e7 0.0
2.4723256751124367e7 8.72021210098458e6 0.0
0.0 0.0 0.0

490478.59618118266 2.1552742100174233e7 0.0
2.1552742100174233e7 3.629606803728555e6 0.0
0.0 0.0 0.0

-1.1475662326765591e6 2.1386421239970796e7 0.0
2.1386421239970796e7 -1.893414692418378e7 0.0
0.0 0.0 0.0

-5.928149683878765e6 1.4717611649794476e7 0.0
1.4717611649794476e7 1.2075104792880354e7 0.0
0.0 0.0 0.0

7.80514511958193e6 4.8782814710262544e7 0.0
4.8782814710262544e7 -5.3227686960659195e6 0.0
0.0 0.0 0.0

966293.5998624675 3.964146258069488e6 0.0
3.964146258069488e6 -6.501543966198434e7 0.0
0.0 0.0 0.0

1.2688590333233944e8 4.8611693030225575e7 0.0
4.8611693030225575e7 3.223863941708827e7 0.0
0.0 0.0 0.0

5.611669325458928e7 4.98263210973852e7 0.0
4.98263210973852e7 -1.6828738412763868e7 0.0
0.0 0.0 0.0

58324.86619227659 2.218446512761979e7 0.0
2.218446512761979e7 2.185425414666952e7 0.0
0.0 0.0 0.0

2.568105029353332e6 2.283449430130405e7 0.0
2.283449430130405e7 1.2205871404561386e7 0.0
0.0 0.0 0.0

-3.002444493485926e7 2.9131885890774813e7 0.0
2.9131885890774813e7 -1.7016216672376199e6 0.0
0.0 0.0 0.0

-7.25677143398276e7 3.5844756169268444e7 0.0
3.5844756169268444e7 -3.605808079524547e6 0.0
0.0 0.0 0.0

-6.377770829011756e6 1.4936809156111887e7 0.0
1.4936809156111887e7 1.788982234137481e7 0.0
0.0 0.0 0.0

251250.3668129712 3.072179003504551e7 0.0
3.072179003504551e7 -2.1983374118510983e6 0.0
0.0 0.0 0.0

1.1025252839194797e6 1.8480625905949138e7 0.0
1.8480625905949138e7 -2.1937916384132758e7 0.0
0.0 0.0 0.0

778052.4041642621 8.358164735442911e6 0.0
8.358164735442911e6 -5.8793932191518016e7 0.0
0.0 0.0 0.0

604888.4246660639 1.8730854516397867e7 0.0
1.8730854516397867e7 -2.232898914796965e7 0.0
0.0 0.0 0.0

-3.776373318176644e6 1.6515023298378583e7 0.0
1.6515023298378583e7 -4.526945082478827e7 0.0
0.0 0.0 0.0

-8.318784992754452e6 1.718695003617336e7 0.0
1.718695003617336e7 2.4683435192074046e7 0.0
0.0 0.0 0.0

2.55493725846551e6 2.0839646080856208e7 0.0
2.0839646080856208e7 3.1615413904862095e7 0.0
0.0 0.0 0.0

1.1931783803979347e6 2.0941956229232967e7 0.0
2.0941956229232967e7 8.988644627530994e6 0.0
0.0 0.0 0.0

-1.210474950795028e7 1.0171074074735986e7 0.0
1.0171074074735986e7 4.784206524944508e6 0.0
0.0 0.0 0.0

-8.205929904597491e6 6.238306832942357e6 0.0
6.238306832942357e6 4.723911312323847e7 0.0
0.0 0.0 0.0

-3.0786214461068558e6 3.0120092675226267e7 0.0
3.0120092675226267e7 6.935501628595814e6 0.0
0.0 0.0 0.0

1.5154741633250713e6 2.125029220037491e7 0.0
2.125029220037491e7 3.4036822386597335e7 0.0
0.0 0.0 0.0

-3.701109097680537e6 2.038014268420726e7 0.0
2.038014268420726e7 1.883554993717415e7 0.0
0.0 0.0 0.0

-8.344766962622921e6 2.365138412440863e6 0.0
2.365138412440863e6 9.75167576921161e6 0.0
0.0 0.0 0.0

-1.9204603222210445e6 1.3821625099526227e7 0.0
1.3821625099526227e7 7.503479889512517e7 0.0
0.0 0.0 0.0

-1.7970408644022557e6 2.3995981166690573e7 0.0
2.3995981166690573e7 2.956961971382213e6 0.0
0.0 0.0 0.0

1.8012183652458028e6 3.049143186486706e7 0.0
3.049143186486706e7 -6.64418805975341e6 0.0
0.0 0.0 0.0

1.6943835431201793e6 2.0609943048378393e7 0.0
2.0609943048378393e7 3.543660689756904e7 0.0
0.0 0.0 0.0

-5.241481043243919e6 1.459205899447007e7 0.0
1.459205899447007e7 1.5170821356699076e7 0.0
0.0 0.0 0.0

9.705622040388048e6 3.0299764700691212e7 0.0
3.0299764700691212e7 -5.949437861971788e6 0.0
0.0 0.0 0.0

-3.340804445422251e6 5.71007488081961e6 0.0
5.71007488081961e6 8.017657587725726e7 0.0
0.0 0.0 0.0

9.509156702773102e6 2.7795754087487526e7 0.0
2.7795754087487526e7 -5.273124925363396e6 0.0
0.0 0.0 0.0

-2.2309507386853024e6 3.600323083483735e7 0.0
3.600323083483735e7 2.576092271066584e6 0.0
0.0 0.0 0.0

-6.747167266577313e6 1.8678585173459496e7 0.0
1.8678585173459496e7 -2.7413765716780223e7 0.0
0.0 0.0 0.0

-3.0884358417462874e6 2.3547633676977307e7 0.0
2.3547633676977307e7 1.9628090640066054e7 0.0
0.0 0.0 0.0

-8.077776996621275e6 1.4787073546861522e7 0.0
1.4787073546861522e7 3.65276697746979e7 0.0
0.0 0.0 0.0

5.883837210747464e6 3.464682366503717e7 0.0
3.464682366503717e7 -4.57742781966632e6 0.0
0.0 0.0 0.0

2.7114629498439846e6 5.728460283221509e6 0.0
5.728460283221509e6 -1.159521410225802e7 0.0
0.0 0.0 0.0

319446.6519827973 4.539658085479418e7 0.0
4.539658085479418e7 -1.8342428021611497e6 0.0
0.0 0.0 0.0

5.919694168142322e6 2.46745979365517e7 0.0
2.46745979365517e7 9.511944384266987e6 0.0
0.0 0.0 0.0

-132491.71785113728 2.8056361256052177e7 0.0
2.8056361256052177e7 -4.1350546281934194e6 0.0
0.0 0.0 0.0

1.6085060427139997e6 5.602991162486471e6 0.0
5.602991162486471e6 -4.464743183088754e7 0.0
0.0 0.0 0.0

-3.3080300918227206e6 2.3898985205412205e7 0.0
2.3898985205412205e7 -1.2331527000716412e7 0.0
0.0 0.0 0.0

9.253969886661692e6 2.5241762186306152e7 0.0
2.5241762186306152e7 1.4637592311552597e7 0.0
0.0 0.0 0.0

-1.1518099068702948e6 3.347672059060478e7 0.0
3.347672059060478e7 1.4831588541104686e6 0.0
0.0 0.0 0.0

6.0433606466585e6 2.1364068754159894e7 0.0
2.1364068754159894e7 3.634379237980452e7 0.0
0.0 0.0 0.0

-5.710161966546614e6 929749.4433123708 0.0
929749.4433123708 1.1894685072605804e7 0.0
0.0 0.0 0.0

841852.0022623632 1.984738434884994e7 0.0
1.984738434884994e7 4.172984578777742e7 0.0
0.0 0.0 0.0

-8.501221918819297e6 2.762796510446418e7 0.0
2.762796510446418e7 4.840221637708789e6 0.0
0.0 0.0 0.0

1.020435152828372e7 2.8790721107109345e7 0.0
2.8790721107109345e7 -5.274263363277368e6 0.0
0.0 0.0 0.0

4.508104452443443e6 2.7063281680350166e7 0.0
2.7063281680350166e7 -9.183250174687322e6 0.0
0.0 0.0 0.0

1.0498333590477312e7 3.665349967989095e7 0.0
3.665349967989095e7 -5.202553374543428e6 0.0
0.0 0.0 0.0

1.0276590742294053e6 1.9780362409673795e7 0.0
1.9780362409673795e7 6.707878103921722e6 0.0
0.0 0.0 0.0

-4.199928069105248e6 2.7396571685823724e7 0.0
2.7396571685823724e7 1.2287739725064334e7 0.0
0.0 0.0 0.0

5.829258572073451e6 3.7900381156656615e7 0.0
3.7900381156656615e7 -4.544560527264254e6 0.0
0.0 0.0 0.0

-1.0227431075121433e7 1.871660818414027e7 0.0
1.871660818414027e7 -5.801908838607184e7 0.0
0.0 0.0 0.0

-8.517899803649887e6 1.2691305660074478e7 0.0
1.2691305660074478e7 1.5863825026658334e7 0.0
0.0 0.0 0.0

1.7087597915937025e6 2.1925805940365896e7 0.0
2.1925805940365896e7 1.0810914436964048e7 0.0
0.0 0.0 0.0

6.088722760468652e6 3.568292685654105e7 0.0
3.568292685654105e7 -5.310704594642527e6 0.0
0.0 0.0 0.0

-1.6110244636174003e6 2.1896620831857122e7 0.0
2.1896620831857122e7 -1.9623427988021653e7 0.0
0.0 0.0 0.0

2.9858031795047466e6 3.26573968571775e6 0.0
3.26573968571775e6 -3.1147891935286745e7 0.0
0.0 0.0 0.0

-5.039679465748757e6 502770.28711612424 0.0
502770.28711612424 7.450829990028581e7 0.0
0.0 0.0 0.0

375688.03363618255 1.5512501604772618e7 0.0
1.5512501604772618e7 -3.3791428097221434e7 0.0
0.0 0.0 0.0

3.4881973535897667e6 2.365459763892845e7 0.0
2.365459763892845e7 1.3603184901572796e7 0.0
0.0 0.0 0.0

-7.013208589324983e6 1.781430556666446e7 0.0
1.781430556666446e7 2.5626385709985543e7 0.0
0.0 0.0 0.0

1.1462900457355794e7 2.8279057165880915e7 0.0
2.8279057165880915e7 -4.461677270973867e6 0.0
0.0 0.0 0.0

2.2612125217417404e6 6.132097141173082e6 0.0
6.132097141173082e6 -2.597747124028884e7 0.0
0.0 0.0 0.0

4.926584630047688e6 2.4596353445700884e7 0.0
2.4596353445700884e7 -2.186045151534369e6 0.0
0.0 0.0 0.0

9.975320704901863e6 2.6358092085524365e7 0.0
2.6358092085524365e7 1.454759246534255e7 0.0
0.0 0.0 0.0

1.487616767842369e7 4.769031881198049e7 0.0
4.769031881198049e7 -7.781945226275292e6 0.0
0.0 0.0 0.0

4.227572311142398e6 2.670408448407104e7 0.0
2.670408448407104e7 -9.234992810093177e6 0.0
0.0 0.0 0.0

4.734424259682711e6 1.9911924864930492e7 0.0
1.9911924864930492e7 5.567648383824176e7 0.0
0.0 0.0 0.0

2.5697605900632683e6 1.5019654409713314e6 0.0
1.5019654409713314e6 -4.050725973072193e7 0.0
0.0 0.0 0.0

1.6626862624430566e6 3.678110069298295e7 0.0
3.678110069298295e7 -2.738934461463511e6 0.0
0.0 0.0 0.0

7.144494943361283e6 2.3348571113172203e7 0.0
2.3348571113172203e7 5.510749101064981e6 0.0
0.0 0.0 0.0

-7.917985698379888e7 2.3021932941091307e7 0.0
2.3021932941091307e7 1.5245596950145587e6 0.0
0.0 0.0 0.0

-7.000282926741609e6 2.9835538503254764e7 0.0
2.9835538503254764e7 8.673786622803029e6 0.0
0.0 0.0 0.0

-7.874996045455817e6 1.179431735179208e7 0.0
1.179431735179208e7 1.741434210035707e7 0.0
0.0 0.0 0.0

-611482.1548496019 1.906018311282181e7 0.0
1.906018311282181e7 -2.8871370922298394e7 0.0
0.0 0.0 0.0

-1.1661913602489606e6 2.2757992093436368e7 0.0
2.2757992093436368e7 1.8326387573925905e7 0.0
0.0 0.0 0.0

-4.501029462466759e6 1.8772524092110585e7 0.0
1.8772524092110585e7 -3.971323854101451e7 0.0
0.0 0.0 0.0

2.1443384094985873e6 2.6258764489135346e6 0.0
2.6258764489135346e6 -5.311374573550055e7 0.0
0.0 0.0 0.0

6.910078364273585e7 2.3105196663869075e7 0.0
2.3105196663869075e7 5.662652940621769e6 0.0
0.0 0.0 0.0

-1.3842686945675483e8 5.1034828342609525e7 0.0
5.1034828342609525e7 -2.943843079623571e7 0.0
0.0 0.0 0.0

1.743435055765113e7 2.3992453288767654e7 0.0
2.3992453288767654e7 9.111098504849147e6 0.0
0.0 0.0 0.0

1.6680114183608075e6 2.744629702767277e7 0.0
2.744629702767277e7 -9.905709303755052e6 0.0
0.0 0.0 0.0

-3.034500082640671e6 2.47770806537473e7 0.0
2.47770806537473e7 1.5997338827553967e7 0.0
0.0 0.0 0.0

2.760404448568428e6 3.2510533641949287e6 0.0
3.2510533641949287e6 -3.04639246355913e7 0.0
0.0 0.0 0.0

-8.267212770939093e6 2.7739245437128033e7 0.0
2.7739245437128033e7 6.97884697565624e6 0.0
0.0 0.0 0.0

4.265126383203883e6 3.786910590403174e7 0.0
3.786910590403174e7 -2.233122524390787e6 0.0
0.0 0.0 0.0

-4.399765365916722e6 2.0181262001769956e7 0.0
2.0181262001769956e7 -3.0197819918918684e7 0.0
0.0 0.0 0.0

-551904.051805764 2.769139410911269e7 0.0
2.769139410911269e7 -5.731859399732554e6 0.0
0.0 0.0 0.0

1.91040073957995e6 5.773114603079479e6 0.0
5.773114603079479e6 -7.2297290296022585e6 0.0
0.0 0.0 0.0

1.3727988980540924e7 2.5959147025172163e7 0.0
2.5959147025172163e7 1.430765024612368e7 0.0
0.0 0.0 0.0

-1.4079375551225694e7 2.6325886541332718e7 0.0
2.6325886541332718e7 -2.978565717390249e6 0.0
0.0 0.0 0.0

1.053998615828624e6 2.2247997600655004e7 0.0
2.2247997600655004e7 -1.530571015347362e7 0.0
0.0 0.0 0.0

-2.169847397691215e6 2.84104497845577e7 0.0
2.84104497845577e7 1.2828097997515614e6 0.0
0.0 0.0 0.0

307810.10801513866 1.567352212041051e7 0.0
1.567352212041051e7 -3.196298462822449e7 0.0
0.0 0.0 0.0

-6.262099103861567e6 1.7114731827407132e6 0.0
1.7114731827407132e6 6.057751876835711e7 0.0
0.0 0.0 0.0

561109.2328606984 1.939317088488733e7 0.0
1.939317088488733e7 -2.080748349795883e7 0.0
0.0 0.0 0.0

5.30333372593926e6 2.335560046955236e7 0.0
2.335560046955236e7 654873.8074501931 0.0
0.0 0.0 0.0

-1.8472162855045084e7 2.2581352428147886e7 0.0
2.2581352428147886e7 -7.413604627254188e7 0.0
0.0 0.0 0.0

2.7046025060699414e6 7.027434278184455e6 0.0
7.027434278184455e6 -3.016787132992017e7 0.0
0.0 0.0 0.0

899331.3939820584 2.1298254522239078e7 0.0
2.1298254522239078e7 -2.0189244936094392e7 0.0
0.0 0.0 0.0

-5.202181562788989e6 2.890207503454627e7 0.0
2.890207503454627e7 1.013528439901996e7 0.0
0.0 0.0 0.0

-159037.97803662403 3.2754194835153576e7 0.0
3.2754194835153576e7 -2.4792735528158257e6 0.0
0.0 0.0 0.0

-2.652909333050674e6 2.6178241579706125e7 0.0
2.6178241579706125e7 1.2176008927128075e7 0.0
0.0 0.0 0.0

7.716998352345735e6 2.4173573293948065e7 0.0
2.4173573293948065e7 1.0323689963105123e7 0.0
0.0 0.0 0.0

-9.932853967283636e7 3.050542499428107e7 0.0
3.050542499428107e7 -2.984449738402322e6 0.0
0.0 0.0 0.0

-1.7859461308140988e6 681215.8263567586 0.0
681215.8263567586 1.487851626120083e6 0.0
0.0 0.0 0.0

-1.6567166647967612e6 2.0117109458800808e7 0.0
2.0117109458800808e7 -2.217709499993639e6 0.0
0.0 0.0 0.0

1.6403753432936367e7 2.4145885559630957e7 0.0
2.4145885559630957e7 4.865498189810678e6 0.0
0.0 0.0 0.0

-627435.2603795419 3.9743806732968554e7 0.0
3.9743806732968554e7 1.2674554473532028e6 0.0
0.0 0.0 0.0

-3.8824255109332837e6 1.681910395502062e7 0.0
1.681910395502062e7 -4.863905076259719e7 0.0
0.0 0.0 0.0

-3.730506347542959e6 2.392153761120511e7 0.0
2.392153761120511e7 -9.075782148566054e6 0.0
0.0 0.0 0.0

5.460683697431192e6 2.8275243586634785e7 0.0
2.8275243586634785e7 -7.969875077379657e6 0.0
0.0 0.0 0.0

1.0455426123011392e6 1.764098333456801e7 0.0
1.764098333456801e7 -1.7890705964441564e7 0.0
0.0 0.0 0.0

5.287675924557284e6 2.735343879111995e7 0.0
2.735343879111995e7 -7.787999835253826e6 0.0
0.0 0.0 0.0

1.0034471703859372e6 2.222387658255671e7 0.0
2.222387658255671e7 1.125517796760425e7 0.0
0.0 0.0 0.0

668587.1959176479 3.2395390049523495e7 0.0
3.2395390049523495e7 -1.9021798663656844e6 0.0
0.0 0.0 0.0

2.147406836901691e6 1.0532763223616447e7 0.0
1.0532763223616447e7 -2.921045930007157e7 0.0
0.0 0.0 0.0

2.0565793746229522e6 2.824484429202243e6 0.0
2.824484429202243e6 -4.596678369433512e7 0.0
0.0 0.0 0.0

-1.7556087541061398e6 1.6205698844668604e6 0.0
1.6205698844668604e6 -490813.1084909726 0.0
0.0 0.0 0.0

-1.0159076865428548e7 950291.7320484704 0.0
950291.7320484704 2.9860544362150696e6 0.0
0.0 0.0 0.0

4.604981605878446e6 2.3740359326792672e7 0.0
2.3740359326792672e7 1.6527125154249452e7 0.0
0.0 0.0 0.0

3.286419936055527e6 2.059689537091536e7 0.0
2.059689537091536e7 1.4903757588414235e7 0.0
0.0 0.0 0.0

711039.3645359138 2.196578645539959e7 0.0
2.196578645539959e7 1.1242609891842442e7 0.0
0.0 0.0 0.0

2.4377980443463176e6 5.281889748061828e6 0.0
5.281889748061828e6 -1.9218048561738834e7 0.0
0.0 0.0 0.0

5.03647417284999e6 2.6025030728578635e7 0.0
2.6025030728578635e7 -7.130634526447063e6 0.0
0.0 0.0 0.0

2.1819478342948197e6 4.348811066754528e6 0.0
4.348811066754528e6 -8.749627195518825e6 0.0
0.0 0.0 0.0

4.628412151518248e6 2.7426780279034726e7 0.0
2.7426780279034726e7 -8.6396796970076e6 0.0
0.0 0.0 0.0

-5.84309596483114e6 1.82914481142012e7 0.0
1.82914481142012e7 3.413789497869389e7 0.0
0.0 0.0 0.0

2.4229797421250027e6 3.113219964307526e7 0.0
3.113219964307526e7 -5.190321309593722e6 0.0
0.0 0.0 0.0

6.819021969022317e6 3.658260543776891e7 0.0
3.658260543776891e7 -3.7263551176936775e6 0.0
0.0 0.0 0.0

2.0338701370047778e6 7.807235561907486e6 0.0
7.807235561907486e6 -3.1350732303385817e7 0.0
0.0 0.0 0.0

2.0947977333335113e6 6.259748695652796e6 0.0
6.259748695652796e6 -3.2117164247903235e7 0.0
0.0 0.0 0.0

1.983420741962437e7 2.6257740000456225e7 0.0
2.6257740000456225e7 1.9884082123461394e6 0.0
0.0 0.0 0.0

2.516491519405227e6 2.161682391299173e7 0.0
2.161682391299173e7 3.061208120193755e7 0.0
0.0 0.0 0.0

452197.5581184225 2.010543125003965e7 0.0
2.010543125003965e7 -1.939853288357373e7 0.0
0.0 0.0 0.0

-6.816216978921225e6 -1.749836194812519e6 0.0
-1.749836194812519e6 4.755712505530136e7 0.0
0.0 0.0 0.0

-594517.0988180486 3.7869847044741176e7 0.0
3.7869847044741176e7 954059.5941852527 0.0
0.0 0.0 0.0

-7.569816209302932e6 1.7201463683217697e7 0.0
1.7201463683217697e7 3.1625060161465235e7 0.0
0.0 0.0 0.0

-9.002935183525536e6 -1.9862813692511104e6 0.0
-1.9862813692511104e6 2.1401972471655514e7 0.0
0.0 0.0 0.0

13435.754050184507 1.988063602936502e7 0.0
1.988063602936502e7 -1.1546319936739538e7 0.0
0.0 0.0 0.0

2.2505185855078176e6 2.9209247182717794e6 0.0
2.9209247182717794e6 -4.425046204957557e7 0.0
0.0 0.0 0.0

-5.371505039123902e6 3.363041819422635e7 0.0
3.363041819422635e7 5.9777896029798575e6 0.0
0.0 0.0 0.0

106892.08822824969 2.7351182020582743e7 0.0
2.7351182020582743e7 -5.26139503858845e6 0.0
0.0 0.0 0.0

268293.22856594995 1.5085912753660932e7 0.0
1.5085912753660932e7 -3.38963385215806e7 0.0
0.0 0.0 0.0

2.0868411159013633e7 2.353996825173884e7 0.0
2.353996825173884e7 8.185943763621638e6 0.0
0.0 0.0 0.0

-6.176111005036768e6 3.226012564540197e7 0.0
3.226012564540197e7 7.070249770564711e6 0.0
0.0 0.0 0.0

-7.787316108853303e6 -364236.58836537844 0.0
-364236.58836537844 4.537110981982378e7 0.0
0.0 0.0 0.0

-8.015411997932212e6 -2.6208238656687145e6 0.0
-2.6208238656687145e6 3.493585445117463e7 0.0
0.0 0.0 0.0

7.097753993903554e6 2.377463424418606e7 0.0
2.377463424418606e7 1.2611902283598962e6 0.0
0.0 0.0 0.0

1.9374561475117705e6 2.7221575211558353e7 0.0
2.7221575211558353e7 -9.57230015178515e6 0.0
0.0 0.0 0.0

2.4588471503112554e6 2.795291051600096e7 0.0
2.795291051600096e7 -9.065918010419331e6 0.0
0.0 0.0 0.0

-4.0518837323718257e6 8.002916747116797e6 0.0
8.002916747116797e6 6.693509680884589e7 0.0
0.0 0.0 0.0

3.2554950357968183e6 2.4853828788995123e6 0.0
2.4853828788995123e6 -1.4144763829254586e7 0.0
0.0 0.0 0.0

-1.0360038179047719e7 2.631441630621737e7 0.0
2.631441630621737e7 -3.129648251291842e6 0.0
0.0 0.0 0.0

-1.7682758414512943e7 2.6558109643063217e7 0.0
2.6558109643063217e7 -1.0179500742635196e7 0.0
0.0 0.0 0.0

-3.655355595301948e7 3.2466749441284444e7 0.0
3.2466749441284444e7 -7.533484779318444e6 0.0
0.0 0.0 0.0

2.0048645131358248e6 3.850576923421997e7 0.0
3.850576923421997e7 -688893.6621851044 0.0
0.0 0.0 0.0

778781.6684876414 2.0258110210243203e7 0.0
2.0258110210243203e7 1.1353505975740363e6 0.0
0.0 0.0 0.0

-7.309008822792711e6 246571.59748911258 0.0
246571.59748911258 4.803944954567214e7 0.0
0.0 0.0 0.0

1.6828147033668373e7 2.5830192102805607e7 0.0
2.5830192102805607e7 1.8431088444411638e6 0.0
0.0 0.0 0.0

439838.8518352364 2.2100354712387457e7 0.0
2.2100354712387457e7 -1.2288341178531725e7 0.0
0.0 0.0 0.0

-8.36370373740208e6 836988.0363240164 0.0
836988.0363240164 3.7261793307942964e7 0.0
0.0 0.0 0.0

-3.43360464640947e6 2.677080924546385e7 0.0
2.677080924546385e7 1.080702188524246e7 0.0
0.0 0.0 0.0

-3.825485597211211e6 2.8486414414132524e7 0.0
2.8486414414132524e7 9.4920742259754e6 0.0
0.0 0.0 0.0

-6.933699161403894e6 -90733.526851305 0.0
-90733.526851305 9.461275429743178e6 0.0
0.0 0.0 0.0

2.207520329076402e6 5.290954620149564e6 0.0
5.290954620149564e6 -3.3504048622538555e7 0.0
0.0 0.0 0.0

-780472.7197378688 9.270104262219308e6 0.0
9.270104262219308e6 -6.007983341297797e7 0.0
0.0 0.0 0.0

1.000571199886803e7 2.5751634366244517e7 0.0
2.5751634366244517e7 1.4881952271785341e7 0.0
0.0 0.0 0.0

2.518033047817805e6 4.444001779365466e6 0.0
4.444001779365466e6 -1.2502466134278433e7 0.0
0.0 0.0 0.0

2.657364791745264e7 3.607495954359908e7 0.0
3.607495954359908e7 -7.416275494496964e6 0.0
0.0 0.0 0.0

2.9955206478566024e6 4.484500417297722e6 0.0
4.484500417297722e6 -3.205224289030876e7 0.0
0.0 0.0 0.0

3.237808929664295e6 5.086381159382401e6 0.0
5.086381159382401e6 -2.1589050669624716e7 0.0
0.0 0.0 0.0

2.5680648477791157e6 4.794279042487706e6 0.0
4.794279042487706e6 -2.813388377853884e7 0.0
0.0 0.0 0.0

1.2047475548003237e6 2.1428906167615723e7 0.0
2.1428906167615723e7 3.279132941877569e6 0.0
0.0 0.0 0.0

2.237388973643265e6 2.0707728366722185e7 0.0
2.0707728366722185e7 1.1199958465126535e7 0.0
0.0 0.0 0.0

-397269.18303490616 1.7847454531384505e7 0.0
1.7847454531384505e7 -3.054785809965653e7 0.0
0.0 0.0 0.0

2.5412284486825533e7 3.7199721624440804e7 0.0
3.7199721624440804e7 -5.978478529495254e6 0.0
0.0 0.0 0.0

-8.284373597353779e6 -605438.6058824593 0.0
-605438.6058824593 3.715588509354887e7 0.0
0.0 0.0 0.0

-3.473762828792829e6 2.695446479313077e7 0.0
2.695446479313077e7 1.260429300091238e7 0.0
0.0 0.0 0.0

-1.9829737351069918e6 3.7456672179800145e7 0.0
3.7456672179800145e7 340728.5241145579 0.0
0.0 0.0 0.0

1.8711587761022956e6 3.1253690001915496e7 0.0
3.1253690001915496e7 -4.416320575673312e6 0.0
0.0 0.0 0.0

-8.335866270242885e6 -1.6511862168330355e6 0.0
-1.6511862168330355e6 2.7117402283663988e7 0.0
0.0 0.0 0.0

-1.0075686301899944e7 436342.9568042745 0.0
436342.9568042745 1.960966720301802e7 0.0
0.0 0.0 0.0

3.82784054150125e6 2.1781595464757726e7 0.0
2.1781595464757726e7 2.94883233424363e7 0.0
0.0 0.0 0.0

-3.36299951312371e6 -1.6370502991274225e6 0.0
-1.6370502991274225e6 4.863212590637194e6 0.0
0.0 0.0 0.0

1.0035866442282367e7 2.875839389431419e7 0.0
2.875839389431419e7 -5.334405687089751e6 0.0
0.0 0.0 0.0

1.4051558911306532e6 2.5817794744789436e7 0.0
2.5817794744789436e7 -1.1677764502057225e7 0.0
0.0 0.0 0.0

421530.19861406833 2.1137612516086075e7 0.0
2.1137612516086075e7 -2.150660024434552e7 0.0
0.0 0.0 0.0

-1.386778394279291e6 2.6191221629055846e7 0.0
2.6191221629055846e7 1.0088310703752559e6 0.0
0.0 0.0 0.0

-3.3292400548221623e6 2.582634528217107e7 0.0
2.582634528217107e7 1.1553734892097186e7 0.0
0.0 0.0 0.0

-7.512656254611915e6 1.7470168288274273e7 0.0
1.7470168288274273e7 2.7504684223743565e7 0.0
0.0 0.0 0.0

-2.3848190289187938e7 4.768531420120462e7 0.0
4.768531420120462e7 6.726730083315991e6 0.0
0.0 0.0 0.0

2.766474756638051e6 4.363096200755978e6 0.0
4.363096200755978e6 -1.2779988078318033e7 0.0
0.0 0.0 0.0

1.0729490659104288e6 2.056542352228892e7 0.0
2.056542352228892e7 -1.7672211708335984e7 0.0
0.0 0.0 0.0

1.2450256723847054e6 4.129825198337698e6 0.0
4.129825198337698e6 -6.4678410659775525e7 0.0
0.0 0.0 0.0

5.155491960069242e6 2.7968367235921435e7 0.0
2.7968367235921435e7 -8.478721405889705e6 0.0
0.0 0.0 0.0

-6.622416484925654e6 1.4792791615178972e7 0.0
1.4792791615178972e7 1.6196196926649123e7 0.0
0.0 0.0 0.0

-1.0731210431537984e7 1.8373499753884196e7 0.0
1.8373499753884196e7 -4.2032541852219686e7 0.0
0.0 0.0 0.0

4.050235631656998e7 2.4821769815703895e7 0.0
2.4821769815703895e7 8.60231881479418e6 0.0
0.0 0.0 0.0

-9.978671515170911e6 3.9914689765811907e6 0.0
3.9914689765811907e6 2.1535142859171066e7 0.0
0.0 0.0 0.0

1.3383860194232475e7 2.408197151113958e7 0.0
2.408197151113958e7 1.0719135229538083e7 0.0
0.0 0.0 0.0

7.903244300619577e6 1.8636737485309683e7 0.0
1.8636737485309683e7 3.0241003190376926e7 0.0
0.0 0.0 0.0

-8.486758729551118e6 1.8354063230894417e7 0.0
1.8354063230894417e7 -2.7456636999910258e7 0.0
0.0 0.0 0.0

5.694022675242014e6 4.064986580134432e7 0.0
4.064986580134432e7 -4.1562799332046756e6 0.0
0.0 0.0 0.0

210305.296617568 2.749073828625592e7 0.0
2.749073828625592e7 -8.1252036922045825e6 0.0
0.0 0.0 0.0

-4.525573060558177e6 2.0124203748093553e7 0.0
2.0124203748093553e7 2.1439105574217185e7 0.0
0.0 0.0 0.0

-1.9042366073341742e6 9.252281727436977e6 0.0
9.252281727436977e6 -8.490402104929912e7 0.0
0.0 0.0 0.0

-1.0566419116313402e7 1.7127959524971556e6 0.0
1.7127959524971556e6 1.855226613304598e7 0.0
0.0 0.0 0.0

-1.7725062757311407e6 2.173821027440037e7 0.0
2.173821027440037e7 -9.640197177087227e6 0.0
0.0 0.0 0.0

1.264291851682449e7 2.50851228191623e7 0.0
2.50851228191623e7 1.3080409038495747e7 0.0
0.0 0.0 0.0

3.860826018948548e6 1.5068359281948868e7 0.0
1.5068359281948868e7 7.246495070680079e6 0.0
0.0 0.0 0.0

-3.3460485428438447e6 2.4826802685406618e7 0.0
2.4826802685406618e7 1.6808353992002852e7 0.0
0.0 0.0 0.0

-3.048329076561636e6 3.0827130671543926e7 0.0
3.0827130671543926e7 5.887186100640992e6 0.0
0.0 0.0 0.0

-2.070203328866603e7 4.860874280763611e7 0.0
4.860874280763611e7 8.075108909503401e6 0.0
0.0 0.0 0.0

855639.6476891185 8.713074865130458e6 0.0
8.713074865130458e6 -6.857498639090216e6 0.0
0.0 0.0 0.0

-3.585892793665379e6 3.0471588234318487e7 0.0
3.0471588234318487e7 5.365280977902234e6 0.0
0.0 0.0 0.0

173665.56582075963 2.6208511869888674e7 0.0
2.6208511869888674e7 -8.00952105653316e6 0.0
0.0 0.0 0.0

1.8848042643848944e7 2.530140148568415e7 0.0
2.530140148568415e7 1.2833254227732722e7 0.0
0.0 0.0 0.0

861735.0105263335 2.9988339716686696e7 0.0
2.9988339716686696e7 -6.18195274937883e6 0.0
0.0 0.0 0.0

2.114730849933912e6 4.458308252502369e6 0.0
4.458308252502369e6 -9.868960136782488e6 0.0
0.0 0.0 0.0

626107.077248876 2.2512569391200494e7 0.0
2.2512569391200494e7 -1.5747720909913145e7 0.0
0.0 0.0 0.0

-9.859313760083886e6 3.737654016736252e6 0.0
3.737654016736252e6 2.8533460477367323e7 0.0
0.0 0.0 0.0

2.8541733624849617e6 6.130779264245303e6 0.0
6.130779264245303e6 -3.1356570224959113e7 0.0
0.0 0.0 0.0

1.1387744861950353e6 5.071825064306928e6 0.0
5.071825064306928e6 -7.011957913842033e7 0.0
0.0 0.0 0.0

4.252129620230729e6 2.4862255325331233e7 0.0
2.4862255325331233e7 1.4607357007170321e7 0.0
0.0 0.0 0.0

914086.6822807174 2.2396377476057068e7 0.0
2.2396377476057068e7 -1.8593198827152092e7 0.0
0.0 0.0 0.0

-5.05396445704944e6 2.045506621439203e7 0.0
2.045506621439203e7 1.9212187291733656e7 0.0
0.0 0.0 0.0

3.1918492723773457e6 1.9124353260505954e6 0.0
1.9124353260505954e6 -2.6828455174318064e7 0.0
0.0 0.0 0.0

1.2534459193800576e6 1.788367819178537e7 0.0
1.788367819178537e7 -2.326740336129107e7 0.0
0.0 0.0 0.0

-174309.56602861173 2.0323158074644893e7 0.0
2.0323158074644893e7 -2.2871293177653205e7 0.0
0.0 0.0 0.0

-4.4728854988538185e6 2.1543638412597295e7 0.0
2.1543638412597295e7 1.8238471668837685e7 0.0
0.0 0.0 0.0

1.1984430219335796e6 1.0086477670574564e7 0.0
1.0086477670574564e7 4.36517183816428e6 0.0
0.0 0.0 0.0

-8.9108148831303e6 142358.9416712415 0.0
142358.9416712415 3.077762430855292e7 0.0
0.0 0.0 0.0

377027.7860022029 2.14920699932875e7 0.0
2.14920699932875e7 -1.9557873194725785e7 0.0
0.0 0.0 0.0

-6.674515844747119e6 1.3496971882314604e7 0.0
1.3496971882314604e7 1.7166911162486814e7 0.0
0.0 0.0 0.0

1.7372983554384153e7 2.3015308474258684e7 0.0
2.3015308474258684e7 1.1564044232680712e7 0.0
0.0 0.0 0.0

1.5799901417878596e6 2.6583395663972232e7 0.0
2.6583395663972232e7 -1.0922854789221786e7 0.0
0.0 0.0 0.0

2.3187122581302575e6 4.451889885753361e6 0.0
4.451889885753361e6 -8.445577745642638e6 0.0
0.0 0.0 0.0

-7.160629664448062e6 7.422314396684552e6 0.0
7.422314396684552e6 4.859457675314231e7 0.0
0.0 0.0 0.0

-2.0704369474262171e6 3.3850601114111006e7 0.0
3.3850601114111006e7 889622.8688338029 0.0
0.0 0.0 0.0

-1.091685545773629e7 3.525310302784245e7 0.0
3.525310302784245e7 5.80959751686948e6 0.0
0.0 0.0 0.0

-1.1548926150611158e7 5.33920062224962e6 0.0
5.33920062224962e6 1.8751319105907857e7 0.0
0.0 0.0 0.0

-8.568076241119005e6 2.6777339212262174e6 0.0
2.6777339212262174e6 3.903306968610985e7 0.0
0.0 0.0 0.0

-161829.72512554564 1.5813454465408886e7 0.0
1.5813454465408886e7 -3.420737872547065e7 0.0
0.0 0.0 0.0

-3.402880297435403e6 2.213630427340861e7 0.0
2.213630427340861e7 1.8862644576319046e7 0.0
0.0 0.0 0.0

-7.18404046648385e6 8.732086138544025e6 0.0
8.732086138544025e6 4.923391509205161e7 0.0
0.0 0.0 0.0

-7.634693365057155e7 2.3914451201440938e7 0.0
2.3914451201440938e7 2.9231752597562857e6 0.0
0.0 0.0 0.0

835636.8603547718 1.4755191718570348e7 0.0
1.4755191718570348e7 -2.0718368361990906e7 0.0
0.0 0.0 0.0

1.100266182234735e6 2.1406828449361317e7 0.0
2.1406828449361317e7 521141.3360587469 0.0
0.0 0.0 0.0

2.4105760779869054e6 1.4336653905340075e6 0.0
1.4336653905340075e6 -4.3288366306973495e7 0.0
0.0 0.0 0.0

6.119872531774205e6 2.147920022619448e7 0.0
2.147920022619448e7 1.7041827675087746e7 0.0
0.0 0.0 0.0

-8.267206830777418e6 9.024763426448764e6 0.0
9.024763426448764e6 4.564943045600511e7 0.0
0.0 0.0 0.0

862644.1348723653 7.281706081751301e6 0.0
7.281706081751301e6 -9.098583011051338e6 0.0
0.0 0.0 0.0

259670.88446120592 2.6256446540239487e7 0.0
2.6256446540239487e7 -8.01344950987954e6 0.0
0.0 0.0 0.0

-1.9787388012467597e6 2.978631691929849e7 0.0
2.978631691929849e7 564272.3984879064 0.0
0.0 0.0 0.0

-2.4709358398430333e6 2.479225055429737e7 0.0
2.479225055429737e7 1.153322872792999e7 0.0
0.0 0.0 0.0

-7.587370690697001e6 3.4484313009113505e7 0.0
3.4484313009113505e7 5.677607284837583e6 0.0
0.0 0.0 0.0

-2.310225665951811e6 2.3985056647977047e7 0.0
2.3985056647977047e7 1.0295606089867498e6 0.0
0.0 0.0 0.0

-6.820518743652858e6 1.0443747727237969e6 0.0
1.0443747727237969e6 5.427533343803981e7 0.0
0.0 0.0 0.0

4.405672965294424e6 2.128335971561081e7 0.0
2.128335971561081e7 2.697529846585055e7 0.0
0.0 0.0 0.0

1.157274940729647e6 2.0239700492498428e7 0.0
2.0239700492498428e7 -1.94888611455247e7 0.0
0.0 0.0 0.0

-2.181654270306526e7 3.026504600948609e7 0.0
3.026504600948609e7 -9.724161408763766e6 0.0
0.0 0.0 0.0

-8.170428633201866e6 -1.4347034808627157e6 0.0
-1.4347034808627157e6 1.3927095986413766e7 0.0
0.0 0.0 0.0

-1.410563574995004e6 3.661857901738053e7 0.0
3.661857901738053e7 1.833509384930281e6 0.0
0.0 0.0 0.0

359733.70987443684 2.0507687300821677e7 0.0
2.0507687300821677e7 -1.9570175468895242e6 0.0
0.0 0.0 0.0

-5.635402547448061e6 1.92389304035186e7 0.0
1.92389304035186e7 3.205611872340089e7 0.0
0.0 0.0 0.0

2.044180331206208e6 1.2929335192943044e7 0.0
1.2929335192943044e7 -2.770488315609662e7 0.0
0.0 0.0 0.0

-6.62838685334182e6 1.8678018275976688e7 0.0
1.8678018275976688e7 2.8657482364006907e7 0.0
0.0 0.0 0.0

1.7804364544631438e6 4.589247964416984e6 0.0
4.589247964416984e6 -8.137925740366595e6 0.0
0.0 0.0 0.0

2.6544649842923377e6 7.735426903228746e6 0.0
7.735426903228746e6 -3.0889998711734973e7 0.0
0.0 0.0 0.0

-3.565268937237684e6 2.3865395262084063e7 0.0
2.3865395262084063e7 -1.0737623853380444e7 0.0
0.0 0.0 0.0

-1.8700749137707076e6 2.556296718261292e7 0.0
2.556296718261292e7 3.166358986566089e6 0.0
0.0 0.0 0.0

-1.4745886518714968e6 2.9838825458243936e7 0.0
2.9838825458243936e7 2.2354957804480637e6 0.0
0.0 0.0 0.0

5.5475815721954005e6 2.7165199136741485e7 0.0
2.7165199136741485e7 -8.22252078384418e6 0.0
0.0 0.0 0.0

3.0657666073726024e6 5.191913010458913e6 0.0
5.191913010458913e6 -2.8015784557738524e7 0.0
0.0 0.0 0.0

1.1733380517362726e6 4.524367386886012e6 0.0
4.524367386886012e6 -5.125584465856276e6 0.0
0.0 0.0 0.0

1.8878941079831272e6 6.8607238548508845e6 0.0
6.8607238548508845e6 -3.2909790816316582e7 0.0
0.0 0.0 0.0

1.7995421630107304e6 7.220350227607688e6 0.0
7.220350227607688e6 -9.441677511340972e6 0.0
0.0 0.0 0.0

2.33208939843348e7 2.3178481612120595e7 0.0
2.3178481612120595e7 1.015739240293746e7 0.0
0.0 0.0 0.0

-3.0077910221723383e6 4.091806703218332e7 0.0
4.091806703218332e7 2.650018439348452e6 0.0
0.0 0.0 0.0

-7.591278978602296e6 -304327.3976870687 0.0
-304327.3976870687 4.349552088239126e7 0.0
0.0 0.0 0.0

642685.929977715 9.176841428578218e6 0.0
9.176841428578218e6 -5.530856490322111e7 0.0
0.0 0.0 0.0

4.5572005751302615e6 2.8091193285751473e7 0.0
2.8091193285751473e7 -8.668558997890763e6 0.0
0.0 0.0 0.0

-2.7556307805666127e6 2.371587575048309e7 0.0
2.371587575048309e7 -1.2308271880402602e7 0.0
0.0 0.0 0.0

1.2861162419149708e6 8.147195366816756e6 0.0
8.147195366816756e6 -4.141992534689948e7 0.0
0.0 0.0 0.0

-8.142920561254973e6 4.037180649650211e7 0.0
4.037180649650211e7 5.191120257689353e6 0.0
0.0 0.0 0.0

1.0397306035873853e7 2.539826735609162e7 0.0
2.539826735609162e7 1.3307161443247484e7 0.0
0.0 0.0 0.0

-4.588738208099793e7 4.5120148782038495e7 0.0
4.5120148782038495e7 7.1256774208227545e6 0.0
0.0 0.0 0.0

-1.140944828891484e6 2.1755023793612685e7 0.0
2.1755023793612685e7 2.5842023460803866e7 0.0
0.0 0.0 0.0

1.7961982247329429e6 1.1712771827097287e7 0.0
1.1712771827097287e7 -2.8530916005298074e7 0.0
0.0 0.0 0.0

9.144069998699406e7 2.9299646597917695e7 0.0
2.9299646597917695e7 1.246885580736853e7 0.0
0.0 0.0 0.0

7.311688052127376e6 2.2918174058177028e7 0.0
2.2918174058177028e7 1.9376496198897857e7 0.0
0.0 0.0 0.0

-1.0133763904305793e7 4.944371840877849e6 0.0
4.944371840877849e6 2.9493934619444013e7 0.0
0.0 0.0 0.0

2.543523794283523e6 2.1313850603744593e7 0.0
2.1313850603744593e7 1.1768715249814998e7 0.0
0.0 0.0 0.0

-3.741436423077098e6 1.954962176298059e7 0.0
1.954962176298059e7 -2.9232988785548728e7 0.0
0.0 0.0 0.0

1.1760227745452698e7 2.832591452733632e7 0.0
2.832591452733632e7 -4.362837879356082e6 0.0
0.0 0.0 0.0

-2.480758542448374e6 2.5343165504231367e7 0.0
2.5343165504231367e7 9.297092481920198e6 0.0
0.0 0.0 0.0

-8.330397103632417e6 7.421789029116592e6 0.0
7.421789029116592e6 4.464154769352397e7 0.0
0.0 0.0 0.0

-7.368950180134891e6 4.131557560058786e7 0.0
4.131557560058786e7 3.8565267845973833e6 0.0
0.0 0.0 0.0

-8.966001712112525e6 2.669692983475773e7 0.0
2.669692983475773e7 5.1426655741292015e6 0.0
0.0 0.0 0.0

-2.211534508752199e6 2.9380331303393696e7 0.0
2.9380331303393696e7 1.4810400879070344e6 0.0
0.0 0.0 0.0

4.72435148529241e6 3.409438380615206e7 0.0
3.409438380615206e7 -4.582501648741386e6 0.0
0.0 0.0 0.0

-2.032874681027472e6 3.3079565594898332e7 0.0
3.3079565594898332e7 835965.6288125229 0.0
0.0 0.0 0.0

184834.43835043086 2.1713989621360548e7 0.0
2.1713989621360548e7 348018.47921348765 0.0
0.0 0.0 0.0

668479.8810526943 2.2706187827876657e7 0.0
2.2706187827876657e7 2.2488331810365777e7 0.0
0.0 0.0 0.0

3.1198784503413113e6 2.3871444570338137e7 0.0
2.3871444570338137e7 998887.4985371681 0.0
0.0 0.0 0.0

-1.0658229399516623e7 1.950711040569976e7 0.0
1.950711040569976e7 -5.147407405823505e7 0.0
0.0 0.0 0.0

113327.97394186526 2.16727069527475e7 0.0
2.16727069527475e7 2.8431558259103964e6 0.0
0.0 0.0 0.0

-2.2557967568189274e6 2.5530899839528847e7 0.0
2.5530899839528847e7 1.600721612781654e6 0.0
0.0 0.0 0.0

6.328805588316017e6 1.76693603812076e7 0.0
1.76693603812076e7 1.5179787188265452e7 0.0
0.0 0.0 0.0

1.3239162327696038e6 2.4223025963288974e7 0.0
2.4223025963288974e7 -1.3709166096738392e7 0.0
0.0 0.0 0.0

686808.645804679 1.742521316111456e7 0.0
1.742521316111456e7 -2.468926891645145e7 0.0
0.0 0.0 0.0

3.0132560823818427e6 4.464202464297694e6 0.0
4.464202464297694e6 -2.9320306281081423e7 0.0
0.0 0.0 0.0

6.093383646751313e6 2.2528352037768867e7 0.0
2.2528352037768867e7 1.5548413119337939e7 0.0
0.0 0.0 0.0

-1.364204229831745e6 2.3932848766361695e7 0.0
2.3932848766361695e7 1.4978022212821146e7 0.0
0.0 0.0 0.0

-6.306503145387994e6 1.9053050654724717e7 0.0
1.9053050654724717e7 2.876937212561605e7 0.0
0.0 0.0 0.0

-2.2285425563395894e6 2.4479810801104333e7 0.0
2.4479810801104333e7 1.0601656826457275e7 0.0
0.0 0.0 0.0

-5.20692911174269e6 2.4059364330449242e7 0.0
2.4059364330449242e7 -1.110691405136146e7 0.0
0.0 0.0 0.0

-6.595803181872763e6 1.93400175223155e7 0.0
1.93400175223155e7 2.7033259888996776e7 0.0
0.0 0.0 0.0

-6.498626974912463e6 1.867583227018978e7 0.0
1.867583227018978e7 3.1904054111248545e7 0.0
0.0 0.0 0.0

-8.003510740771845e6 1.7604061295678057e7 0.0
1.7604061295678057e7 2.544393388637177e7 0.0
0.0 0.0 0.0

-8.67020947536192e6 -1.2335477785480053e6 0.0
-1.2335477785480053e6 3.045506729673513e7 0.0
0.0 0.0 0.0

-2.775880385597976e6 2.706978487753932e7 0.0
2.706978487753932e7 1.094256424834961e7 0.0
0.0 0.0 0.0

-4.846966158570081e6 1.8358016419847623e7 0.0
1.8358016419847623e7 -4.34114431988828e7 0.0
0.0 0.0 0.0

-865340.1313572973 1.775623762722837e7 0.0
1.775623762722837e7 -3.0458351904465463e7 0.0
0.0 0.0 0.0

-3.627619250554899e7 3.5030990582490966e7 0.0
3.5030990582490966e7 -1.305644400173663e7 0.0
0.0 0.0 0.0

-6.2315919850834645e6 6.090675653542457e6 0.0
6.090675653542457e6 5.528620388206622e7 0.0
0.0 0.0 0.0

-165471.61070823856 1.8443273489065528e7 0.0
1.8443273489065528e7 -2.850032944875335e7 0.0
0.0 0.0 0.0

-490294.7846410458 3.409966480805053e7 0.0
3.409966480805053e7 -1.4277555948126754e6 0.0
0.0 0.0 0.0

4.1124758887988175e6 2.108896275988814e7 0.0
2.108896275988814e7 2.084826490636608e7 0.0
0.0 0.0 0.0

-8.367337452240951e6 -3.595039522952686e6 0.0
-3.595039522952686e6 2.6299918257318858e7 0.0
0.0 0.0 0.0

-373659.65274776914 2.1423964581513334e7 0.0
2.1423964581513334e7 -2.329105557399702e6 0.0
0.0 0.0 0.0

-661706.3548879139 2.3547413077929866e7 0.0
2.3547413077929866e7 -1.0266499325427268e7 0.0
0.0 0.0 0.0

-1.174876132386275e7 9.583171758356977e6 0.0
9.583171758356977e6 2.0235690800351717e7 0.0
0.0 0.0 0.0

1.8179684665586054e6 1.2434833139829831e6 0.0
1.2434833139829831e6 -5.51415610879007e7 0.0
0.0 0.0 0.0

-187686.06269190274 1.158352634207153e7 0.0
1.158352634207153e7 -1.0325877535562662e7 0.0
0.0 0.0 0.0

-9.795219305537846e6 3.9133237562468583e6 0.0
3.9133237562468583e6 3.5900149160641976e7 0.0
0.0 0.0 0.0

2.0504418021653453e6 2.482597705419291e7 0.0
2.482597705419291e7 -1.321649722035496e7 0.0
0.0 0.0 0.0

8.016836555428558e6 2.0456386717545167e7 0.0
2.0456386717545167e7 3.871123331107292e7 0.0
0.0 0.0 0.0

-194628.117295305 1.1112467384371476e7 0.0
1.1112467384371476e7 -5.161151926115554e6 0.0
0.0 0.0 0.0

1.0936172004123319e7 2.5409159867570728e7 0.0
2.5409159867570728e7 1.5158327610548232e7 0.0
0.0 0.0 0.0

-3.8162592105287476e6 4.194901019387912e7 0.0
4.194901019387912e7 2.9303804654940064e6 0.0
0.0 0.0 0.0

-1.0990991199512184e7 5.255171664269822e6 0.0
5.255171664269822e6 2.627096081171272e7 0.0
0.0 0.0 0.0

1.4913461462674784e6 2.170630153331922e7 0.0
2.170630153331922e7 2.5083527963223666e7 0.0
0.0 0.0 0.0

1.2034051182474773e6 1.2074716715878557e7 0.0
1.2074716715878557e7 -2.9092557210532986e7 0.0
0.0 0.0 0.0

-2.5235380112829395e7 3.0970940063993484e7 0.0
3.0970940063993484e7 1.147487577070782e6 0.0
0.0 0.0 0.0

-8.768718404210214e6 -1.9339312471308603e6 0.0
-1.9339312471308603e6 1.792953364216797e7 0.0
0.0 0.0 0.0

-1.4432670566701693e7 2.599222940620002e7 0.0
2.599222940620002e7 -9.84050810297595e6 0.0
0.0 0.0 0.0

4.097850503941336e7 2.6538657507343404e7 0.0
2.6538657507343404e7 9.41568215784835e6 0.0
0.0 0.0 0.0

-334487.06621181965 2.6411266297148015e7 0.0
2.6411266297148015e7 -7.894681092596461e6 0.0
0.0 0.0 0.0

1.882440034356216e6 1.2396630445646264e7 0.0
1.2396630445646264e7 -2.6941010410646737e7 0.0
0.0 0.0 0.0

-4.1309533394368e6 2.7286160019076545e7 0.0
2.7286160019076545e7 1.2182400823327258e7 0.0
0.0 0.0 0.0

-6.023904042511024e6 1.6287462611173172e6 0.0
1.6287462611173172e6 6.16672466591971e7 0.0
0.0 0.0 0.0

-5.498924004509559e6 2.376963469244157e7 0.0
2.376963469244157e7 -1.6109679205338847e7 0.0
0.0 0.0 0.0

-1.5165095170833564e6 3.7452523984662734e7 0.0
3.7452523984662734e7 1.9185193883300128e6 0.0
0.0 0.0 0.0

-3.029874388067251e6 1.6603538278651219e7 0.0
1.6603538278651219e7 -4.232526360613694e7 0.0
0.0 0.0 0.0

60992.177760305814 2.138650500884461e7 0.0
2.138650500884461e7 -2.1362447494649485e7 0.0
0.0 0.0 0.0

-10253.769143867306 2.0577241349782493e7 0.0
2.0577241349782493e7 -2.3174280716867916e7 0.0
0.0 0.0 0.0

-6.670010889659328e6 1.548369053097311e7 0.0
1.548369053097311e7 3.9693817844631255e7 0.0
0.0 0.0 0.0

-2.6946892003578856e6 2.5792604039791983e7 0.0
2.5792604039791983e7 9.778900360788938e6 0.0
0.0 0.0 0.0

-4.9195413707775995e6 1.3326508981316965e7 0.0
1.3326508981316965e7 1.1156764493999791e8 0.0
0.0 0.0 0.0

2.9594867067986727e6 1.3434801498254457e7 0.0
1.3434801498254457e7 -1.1107980272340478e8 0.0
0.0 0.0 0.0

-2.0676589075225793e7 3.036682473329213e7 0.0
3.036682473329213e7 -1.3462550788018212e7 0.0
0.0 0.0 0.0

-1.8394453358350778e6 2.2998537788482185e7 0.0
2.2998537788482185e7 1.6101193577833515e7 0.0
0.0 0.0 0.0

-3.0355272658013683e7 3.165716166068441e7 0.0
3.165716166068441e7 -4.842659009870729e6 0.0
0.0 0.0 0.0

-8.812922747354625e6 -1.8504720543372147e6 0.0
-1.8504720543372147e6 2.1714046007172834e7 0.0
0.0 0.0 0.0

-5.9840122459257245e6 2.030642479236633e7 0.0
2.030642479236633e7 2.3970991343717996e7 0.0
0.0 0.0 0.0

-1.6207901081753613e7 2.7569317663551837e7 0.0
2.7569317663551837e7 -7.887236431653937e6 0.0
0.0 0.0 0.0

-8.822351669391355e6 5.167195909137569e6 0.0
5.167195909137569e6 3.822849659837825e7 0.0
0.0 0.0 0.0

3.8381388427932665e7 2.3883350299702622e7 0.0
2.3883350299702622e7 8.53162135632184e6 0.0
0.0 0.0 0.0

1.9994225994494734e6 2.131504383356483e7 0.0
2.131504383356483e7 3.0179920744215276e7 0.0
0.0 0.0 0.0

-3.301235639340912e6 2.1817455062114157e7 0.0
2.1817455062114157e7 1.858729621522521e7 0.0
0.0 0.0 0.0

-2.9251638289417893e7 4.431338863955472e7 0.0
4.431338863955472e7 9.683252508326292e6 0.0
0.0 0.0 0.0

5.879561301853442e6 2.4463408695624426e7 0.0
2.4463408695624426e7 6.638863238729879e6 0.0
0.0 0.0 0.0

4.265955092099157e6 2.32260097723702e7 0.0
2.32260097723702e7 -884978.9397344356 0.0
0.0 0.0 0.0

-5.083521918703498e6 2.8934084015904766e7 0.0
2.8934084015904766e7 1.0177748198439151e7 0.0
0.0 0.0 0.0

-9.577325760723636e6 2.55666524437447e7 0.0
2.55666524437447e7 -812970.3131474848 0.0
0.0 0.0 0.0

-1.2855540663119974e6 2.162006446602196e7 0.0
2.162006446602196e7 -2.563885033308282e6 0.0
0.0 0.0 0.0

4.1732044684788147e6 2.417792542155742e7 0.0
2.417792542155742e7 -3.0260341520951902e6 0.0
0.0 0.0 0.0

5.336143774424382e6 2.4155136368229073e7 0.0
2.4155136368229073e7 1.5400709045013124e7 0.0
0.0 0.0 0.0

6.691517339570672e6 3.8964128425641686e7 0.0
3.8964128425641686e7 -2.875310928656576e6 0.0
0.0 0.0 0.0

-3.359172094220844e6 2.674657197192952e7 0.0
2.674657197192952e7 1.1794997805953676e7 0.0
0.0 0.0 0.0

-6.047056020800517e6 4.141550190020973e7 0.0
4.141550190020973e7 2.0700961110240081e6 0.0
0.0 0.0 0.0

-9.067488999818811e6 1.869300995186827e7 0.0
1.869300995186827e7 -5.6475222115070574e7 0.0
0.0 0.0 0.0

-1.930882382182902e7 2.1736521415854216e7 0.0
2.1736521415854216e7 -1.0416595096683168e8 0.0
0.0 0.0 0.0

1.8399359460597616e7 2.2727808195844278e7 0.0
2.2727808195844278e7 1.0334331830381738e8 0.0
0.0 0.0 0.0

8.2947818758990355e6 2.090094885708156e7 0.0
2.090094885708156e7 3.707474665580793e7 0.0
0.0 0.0 0.0

-176660.04518507607 1.1098165906080725e7 0.0
1.1098165906080725e7 -4.7727373380838245e7 0.0
0.0 0.0 0.0

3.8734837996633444e6 3.843441702209192e7 0.0
3.843441702209192e7 -3.5848961481704516e6 0.0
0.0 0.0 0.0

1.9220407779210638e6 2.641513722353694e7 0.0
2.641513722353694e7 -1.0656927706916971e7 0.0
0.0 0.0 0.0

-1.3748729147643903e6 2.251991623094904e7 0.0
2.251991623094904e7 -8.2483505373323215e6 0.0
0.0 0.0 0.0

2.1300321417424036e6 2.5362122482267175e7 0.0
2.5362122482267175e7 -1.2374638496236978e7 0.0
0.0 0.0 0.0

-3.776901077924229e7 4.757869084273482e7 0.0
4.757869084273482e7 1.1025185856512507e7 0.0
0.0 0.0 0.0

-3.014754995561318e6 3.701716346475645e7 0.0
3.701716346475645e7 1.2583348393698097e6 0.0
0.0 0.0 0.0

-7.314295710711688e6 2.9715447156411126e7 0.0
2.9715447156411126e7 8.48651002228804e6 0.0
0.0 0.0 0.0

1.4393834785215408e6 3.217102657279048e6 0.0
3.217102657279048e6 -5.8704648770178795e7 0.0
0.0 0.0 0.0

1.2782295355702564e7 2.9253520361826994e7 0.0
2.9253520361826994e7 -4.779034295038606e6 0.0
0.0 0.0 0.0

-2.8102836110650003e6 1.7249845676463347e7 0.0
1.7249845676463347e7 -3.94599092678547e7 0.0
0.0 0.0 0.0

1.1304456912008073e7 2.9859779847055588e7 0.0
2.9859779847055588e7 -5.400275684904562e6 0.0
0.0 0.0 0.0

-672310.605829762 2.0779659802032255e7 0.0
2.0779659802032255e7 -1.4029539460839643e6 0.0
0.0 0.0 0.0

2.4004927673495375e6 2.245735141734584e7 0.0
2.245735141734584e7 2.603990508643051e7 0.0
0.0 0.0 0.0

-5.785892485244222e6 3.235035980274692e7 0.0
3.235035980274692e7 6.300567624065351e6 0.0
0.0 0.0 0.0

-8.53730161369625e6 -386098.61818272003 0.0
-386098.61818272003 3.633292045041285e7 0.0
0.0 0.0 0.0

2.056569589240682e7 2.4116480355270557e7 0.0
2.4116480355270557e7 4.621270935350559e6 0.0
0.0 0.0 0.0

-8.67225374582922e7 3.168031857415798e7 0.0
3.168031857415798e7 -860983.8226382881 0.0
0.0 0.0 0.0

-7.389379174380222e6 1.5793756118590338e7 0.0
1.5793756118590338e7 3.7066071823188126e7 0.0
0.0 0.0 0.0

-7.144087783766352e6 2.662162059997036e7 0.0
2.662162059997036e7 5.660856457698389e6 0.0
0.0 0.0 0.0

5.368403613002235e6 2.442365959367743e7 0.0
2.442365959367743e7 330194.2636956747 0.0
0.0 0.0 0.0

2.782306192316914e6 3.0016969142040354e6 0.0
3.0016969142040354e6 -3.802251625635184e7 0.0
0.0 0.0 0.0

-2.5280572055297224e6 2.3801582965292603e7 0.0
2.3801582965292603e7 1.2553064987785311e7 0.0
0.0 0.0 0.0

-6.715379918222807e6 925260.0472385949 0.0
925260.0472385949 5.494472199779366e7 0.0
0.0 0.0 0.0

-1.9939223427322187e7 2.6293250526072383e7 0.0
2.6293250526072383e7 -1.1080900964897616e8 0.0
0.0 0.0 0.0

1.8477015307489794e7 2.7621455780153576e7 0.0
2.7621455780153576e7 1.0814724859313877e8 0.0
0.0 0.0 0.0

-128756.89738503471 1.5043646356771965e7 0.0
1.5043646356771965e7 -3.565083627560385e7 0.0
0.0 0.0 0.0

438292.75982729625 4.773278532643914e6 0.0
4.773278532643914e6 -5.261687036718719e6 0.0
0.0 0.0 0.0

1.5328189383397847e7 2.113132991607912e7 0.0
2.113132991607912e7 6.77745701678021e6 0.0
0.0 0.0 0.0

-6.208482447871592e6 2.348713459311702e6 0.0
2.348713459311702e6 6.208980425096884e7 0.0
0.0 0.0 0.0

681797.1503937147 9.02800407890535e6 0.0
9.02800407890535e6 -8.363592753066825e6 0.0
0.0 0.0 0.0

8.336131048387481e6 3.690720581823774e7 0.0
3.690720581823774e7 -4.623535636297012e6 0.0
0.0 0.0 0.0

494237.64873395674 2.1809679184958577e7 0.0
2.1809679184958577e7 -1.683431426188503e7 0.0
0.0 0.0 0.0

5.971771857497176e6 2.1175368524114948e7 0.0
2.1175368524114948e7 2.6344203909121178e7 0.0
0.0 0.0 0.0

-7.601613079527188e6 2.633411293520651e7 0.0
2.633411293520651e7 303909.7503990461 0.0
0.0 0.0 0.0

-3.588201415682111e7 2.935139792123747e7 0.0
2.935139792123747e7 -8.533401273836803e6 0.0
0.0 0.0 0.0

-3.570996551917563e6 3.639194960956826e7 0.0
3.639194960956826e7 2.0350706785384289e6 0.0
0.0 0.0 0.0

1.8460519058216168e6 2.1992565022807844e7 0.0
2.1992565022807844e7 1.4345665486960186e7 0.0
0.0 0.0 0.0

-554692.923595164 2.3258960545557715e7 0.0
2.3258960545557715e7 1.884239151571692e7 0.0
0.0 0.0 0.0

1.0071964157964261e6 1.8455294957486074e7 0.0
1.8455294957486074e7 -2.3759774345101178e7 0.0
0.0 0.0 0.0

2.209878623587068e6 2.4568455791936498e7 0.0
2.4568455791936498e7 -1.2988757310385035e7 0.0
0.0 0.0 0.0

-6.674316248838179e6 4.054094479554118e6 0.0
4.054094479554118e6 5.988203358219316e7 0.0
0.0 0.0 0.0

-3.1622128651044697e7 4.8331515055145845e7 0.0
4.8331515055145845e7 7.937645535217011e6 0.0
0.0 0.0 0.0

-1.4826090566462174e7 3.767216488048674e7 0.0
3.767216488048674e7 5.94889065273644e6 0.0
0.0 0.0 0.0

-3.5602131718052045e7 3.2393412812920418e7 0.0
3.2393412812920418e7 -4.2008416552763805e6 0.0
0.0 0.0 0.0

286694.32377984095 2.243619423872327e7 0.0
2.243619423872327e7 5.013160820024715e6 0.0
0.0 0.0 0.0

-1.1174533221795501e7 2.7098983184832666e7 0.0
2.7098983184832666e7 -1.7487471758253607e6 0.0
0.0 0.0 0.0

-2.1353403096766308e7 2.939401268263408e7 0.0
2.939401268263408e7 -9.599371048194423e6 0.0
0.0 0.0 0.0

1.5217287200963777e6 8.09124880273696e6 0.0
8.09124880273696e6 -7.927274268551996e6 0.0
0.0 0.0 0.0

5.038500292753462e6 2.1401540514639143e7 0.0
2.1401540514639143e7 2.7198287580618612e7 0.0
0.0 0.0 0.0

921417.3050862402 1.0178096389166923e7 0.0
1.0178096389166923e7 -4.681660945015858e7 0.0
0.0 0.0 0.0

-6.218910784436673e6 1.671600328353472e7 0.0
1.671600328353472e7 3.8204322644688554e7 0.0
0.0 0.0 0.0

-5.716228980056822e6 1.9641492071004664e6 0.0
1.9641492071004664e6 6.33354075182357e7 0.0
0.0 0.0 0.0

1.7627782275491208e6 3.4911430875676e6 0.0
3.4911430875676e6 -5.780993311654371e7 0.0
0.0 0.0 0.0

-4.014820920585559e7 3.2546054891300388e7 0.0
3.2546054891300388e7 -5.5705895616803e6 0.0
0.0 0.0 0.0

-7.093050101370264e6 207449.0971075907 0.0
207449.0971075907 5.023026924181136e7 0.0
0.0 0.0 0.0

-7.793814214632502e6 -223535.71806024067 0.0
-223535.71806024067 4.386814965878223e7 0.0
0.0 0.0 0.0

707745.0551746571 7.7667767588261925e6 0.0
7.7667767588261925e6 -1.037367938649131e7 0.0
0.0 0.0 0.0

-8.018664856846178e6 1.2532461370607244e6 0.0
1.2532461370607244e6 4.1963811526573144e7 0.0
0.0 0.0 0.0

1.1264697147555817e7 5.138773697999568e7 0.0
5.138773697999568e7 -5.329050438869517e6 0.0
0.0 0.0 0.0

-2.9789656882419754e6 2.2881670108845253e7 0.0
2.2881670108845253e7 1.7646678942369815e7 0.0
0.0 0.0 0.0

534261.7159057632 4.656172863635049e6 0.0
4.656172863635049e6 -7.120837456951426e7 0.0
0.0 0.0 0.0

1.6857881793720927e6 4.0377944213440833e6 0.0
4.0377944213440833e6 -4.509774207751748e7 0.0
0.0 0.0 0.0

-2.7787659408096927e6 2.5582228578035325e7 0.0
2.5582228578035325e7 8.765467279725691e6 0.0
0.0 0.0 0.0

-5.752524455829627e6 4.07255537746945e7 0.0
4.07255537746945e7 3.7131478621729026e6 0.0
0.0 0.0 0.0

8.137981016469118e6 1.1700224922954198e7 0.0
1.1700224922954198e7 2.3258893103147903e6 0.0
0.0 0.0 0.0

1.4422222707428528e7 2.492393801490561e7 0.0
2.492393801490561e7 1.3689843198368208e7 0.0
0.0 0.0 0.0

1.2904559000472346e7 2.7752141806471225e7 0.0
2.7752141806471225e7 -3.36011514466432e6 0.0
0.0 0.0 0.0

-7.282368207314357e6 460161.37787387485 0.0
460161.37787387485 4.93058191719834e7 0.0
0.0 0.0 0.0

-2.1392536163555484e7 2.6226378332784623e7 0.0
2.6226378332784623e7 -3.72149312485042e6 0.0
0.0 0.0 0.0

-3.3979781487047784e6 3.557116396584317e7 0.0
3.557116396584317e7 1.8987091263171583e6 0.0
0.0 0.0 0.0

6.02401757995731e6 2.0270462222929917e7 0.0
2.0270462222929917e7 5.9983611293696016e7 0.0
0.0 0.0 0.0

1.5285722131022664e7 2.8331917209436502e7 0.0
2.8331917209436502e7 -3.349955942858073e6 0.0
0.0 0.0 0.0

-5.4278869486386385e6 2.4120432290882915e7 0.0
2.4120432290882915e7 -1.107692953067088e7 0.0
0.0 0.0 0.0

-3.0760483906868845e6 2.4168598453680333e7 0.0
2.4168598453680333e7 1.8108076807341654e7 0.0
0.0 0.0 0.0

-4.010685347892567e6 2.3461928912172735e7 0.0
2.3461928912172735e7 -1.10060847738478e7 0.0
0.0 0.0 0.0

-8.272617056215027e7 4.440466471152676e7 0.0
4.440466471152676e7 -1.1507135870252626e7 0.0
0.0 0.0 0.0

-3.9456970404594634e6 2.2584155611835554e7 0.0
2.2584155611835554e7 1.718714092542448e7 0.0
0.0 0.0 0.0

-4.838106756546196e6 2.4681420864662454e7 0.0
2.4681420864662454e7 -9.38701208639222e6 0.0
0.0 0.0 0.0

-3.374173807056443e6 2.500251865987379e7 0.0
2.500251865987379e7 1.7137397396643113e7 0.0
0.0 0.0 0.0

1.0394825814535059e7 2.729173205646906e7 0.0
2.729173205646906e7 -4.402537478434019e6 0.0
0.0 0.0 0.0

2.3713115270221476e6 2.9714507667176053e6 0.0
2.9714507667176053e6 -3.6880214814847946e7 0.0
0.0 0.0 0.0

4.649856873176334e6 2.6423257845781095e7 0.0
2.6423257845781095e7 -8.664366515046714e6 0.0
0.0 0.0 0.0

-3.064990180651626e7 4.81672215356516e7 0.0
4.81672215356516e7 7.409761751384905e6 0.0
0.0 0.0 0.0

-7.4090134992343765e6 3.369562772909945e7 0.0
3.369562772909945e7 6.618449033060965e6 0.0
0.0 0.0 0.0

-8.986610742813138e6 -982874.9953724309 0.0
-982874.9953724309 2.963459963304239e7 0.0
0.0 0.0 0.0

668799.2447795328 2.205897080928567e7 0.0
2.205897080928567e7 -1.853064936537587e7 0.0
0.0 0.0 0.0

1.71417564782359e7 2.496714418400862e7 0.0
2.496714418400862e7 5.953694139947287e6 0.0
0.0 0.0 0.0

-7.242977614849225e7 3.719010248492597e7 0.0
3.719010248492597e7 593853.8102910854 0.0
0.0 0.0 0.0

5.096075935907863e6 1.9822562300075892e7 0.0
1.9822562300075892e7 1.8955676350562375e7 0.0
0.0 0.0 0.0

164759.44605564885 9.910154992422601e6 0.0
9.910154992422601e6 -4.9397401065231964e7 0.0
0.0 0.0 0.0

606771.5531042526 1.8121696588356923e7 0.0
1.8121696588356923e7 -2.3638887969812155e7 0.0
0.0 0.0 0.0

-2.185701945313609e6 2.412739012674977e7 0.0
2.412739012674977e7 1.456762062313315e7 0.0
0.0 0.0 0.0

-8.605965503988454e6 4.106965735730509e7 0.0
4.106965735730509e7 3.430739716145298e6 0.0
0.0 0.0 0.0

1.7514912782550075e6 3.0451813581885204e7 0.0
3.0451813581885204e7 -5.401676602289221e6 0.0
0.0 0.0 0.0

2.1440276436812785e6 2.8371816394235124e6 0.0
2.8371816394235124e6 -4.428395976002205e7 0.0
0.0 0.0 0.0

8.617909068163043e6 2.06210297745196e7 0.0
2.06210297745196e7 5.332908624341855e7 0.0
0.0 0.0 0.0

-825162.7887946791 2.046352206923301e7 0.0
2.046352206923301e7 -2.151990821091355e6 0.0
0.0 0.0 0.0

-5.6345425384607315e7 4.320675296724474e7 0.0
4.320675296724474e7 9.944853116971057e6 0.0
0.0 0.0 0.0

-9.043886672051504e6 1.857187595000038e6 0.0
1.857187595000038e6 3.757450052252872e7 0.0
0.0 0.0 0.0

-8.2354060614189785e6 1.5240532537372338e6 0.0
1.5240532537372338e6 4.003824389506213e7 0.0
0.0 0.0 0.0

1.6480728536242291e7 2.48076572578153e7 0.0
2.48076572578153e7 8.824880203957222e6 0.0
0.0 0.0 0.0

-7.025336305160668e6 96981.28948681084 0.0
96981.28948681084 4.899755906585423e7 0.0
0.0 0.0 0.0

4.249798121769544e6 2.0469974973224472e7 0.0
2.0469974973224472e7 1.8407670069508053e7 0.0
0.0 0.0 0.0

9.711009106259003e6 2.104559035601459e7 0.0
2.104559035601459e7 3.946705652546774e7 0.0
0.0 0.0 0.0

1.8130497276760135e6 3.827215663687653e7 0.0
3.827215663687653e7 -1.774725794000052e6 0.0
0.0 0.0 0.0

-5.721484936322972e6 7.13046313423578e6 0.0
7.13046313423578e6 6.545990543666092e7 0.0
0.0 0.0 0.0

-3.649181905053612e6 1.72820854220097e7 0.0
1.72820854220097e7 -4.07578425192104e7 0.0
0.0 0.0 0.0

226962.7506781253 8.739858395422714e6 0.0
8.739858395422714e6 -8.957634224636015e6 0.0
0.0 0.0 0.0

-1.6929752260701125e6 2.3595499070579387e7 0.0
2.3595499070579387e7 1.2738813337329559e7 0.0
0.0 0.0 0.0

5.927068201857153e6 2.1131179079075374e7 0.0
2.1131179079075374e7 3.813601803892491e7 0.0
0.0 0.0 0.0

-7.974268615042537e6 1.9337205671555253e6 0.0
1.9337205671555253e6 4.7753615639512666e7 0.0
0.0 0.0 0.0

-6.272003196350619e6 9.763020620990397e6 0.0
9.763020620990397e6 6.58412904144701e6 0.0
0.0 0.0 0.0

-2.131221845526225e6 2.4787035447995707e7 0.0
2.4787035447995707e7 1.672548143125012e6 0.0
0.0 0.0 0.0

2.8984958762999284e6 1.31075173060491e7 0.0
1.31075173060491e7 1.155997635360847e7 0.0
0.0 0.0 0.0

4.950469813891659e6 2.3448555644910924e7 0.0
2.3448555644910924e7 -1.6978005957590858e6 0.0
0.0 0.0 0.0

-8.664565599118475e6 1.366769525709154e6 0.0
1.366769525709154e6 3.980286359888421e7 0.0
0.0 0.0 0.0

-4.913108437829822e6 7.020060322292777e6 0.0
7.020060322292777e6 6.949370358658819e7 0.0
0.0 0.0 0.0

4.0543519453993607e6 2.412118264558193e7 0.0
2.412118264558193e7 -505953.6836659941 0.0
0.0 0.0 0.0

1.288453050649982e6 2.2577712786331546e7 0.0
2.2577712786331546e7 -1.5904356121008122e7 0.0
0.0 0.0 0.0

-4.677997095549259e6 6.842416039513162e6 0.0
6.842416039513162e6 6.881955639116263e7 0.0
0.0 0.0 0.0

9.935610448555697e6 2.743252388726034e7 0.0
2.743252388726034e7 -4.230011190928877e6 0.0
0.0 0.0 0.0

4.905717045124829e6 2.036017645157929e7 0.0
2.036017645157929e7 2.7837654541636556e7 0.0
0.0 0.0 0.0

-7.49774375808401e6 1.4095627954494251e7 0.0
1.4095627954494251e7 1.5703416946000848e7 0.0
0.0 0.0 0.0

-5.73166713547282e6 1.3520316067138579e7 0.0
1.3520316067138579e7 5.7786474402910555e6 0.0
0.0 0.0 0.0

-1.2287283753439613e7 1.0142210356494453e7 0.0
1.0142210356494453e7 5.05124676900911e6 0.0
0.0 0.0 0.0

