# vtk DataFile Version 2.0
phase field modeling fracture
ASCII
DATASET UNSTRUCTURED_GRID
POINTS 2538 float
0.0 0.0 0.0
10.0 0.0 0.0
0.0 10.0 0.0
10.0 10.0 0.0
0.0 4.9995 0.0
0.0 5.0005 0.0
5.0 5.0 0.0
0.9416964895726688 0.0 0.0
1.803581725054446 0.0 0.0
2.592419885431098 0.0 0.0
3.314401822861676 0.0 0.0
3.975193910351406 0.0 0.0
4.579982132660152 0.0 0.0
5.133512780936812 0.0 0.0
5.640130319506143 0.0 0.0
6.103810708661955 0.0 0.0
6.528192895506818 0.0 0.0
6.916607540127679 0.0 0.0
7.272102969376355 0.0 0.0
7.597469242948583 0.0 0.0
7.895259826292669 0.0 0.0
8.167811885738017 0.0 0.0
8.417264413845215 0.0 0.0
8.645575169389538 0.0 0.0
8.854535961159101 0.0 0.0
9.045786767735546 0.0 0.0
9.220828555767493 0.0 0.0
9.38103509633881 0.0 0.0
9.527663687265145 0.0 0.0
9.661865124984566 0.0 0.0
9.784692609918062 0.0 0.0
9.897110148790482 0.0 0.0
10.0 0.09999999999992584 0.0
10.0 0.199999999999856 0.0
10.0 0.2999999999997771 0.0
10.0 0.3999999999996677 0.0
10.0 0.4999999999995511 0.0
10.0 0.5999999999994683 0.0
10.0 0.6999999999993983 0.0
10.0 0.7999999999993286 0.0
10.0 0.8999999999992587 0.0
10.0 0.9999999999991888 0.0
10.0 1.099999999999119 0.0
10.0 1.199999999999033 0.0
10.0 1.299999999998852 0.0
10.0 1.399999999998576 0.0
10.0 1.499999999998284 0.0
10.0 1.599999999997992 0.0
10.0 1.6999999999977 0.0
10.0 1.799999999997408 0.0
10.0 1.899999999997116 0.0
10.0 1.999999999996825 0.0
10.0 2.099999999996533 0.0
10.0 2.199999999996241 0.0
10.0 2.299999999995949 0.0
10.0 2.399999999995657 0.0
10.0 2.499999999995365 0.0
10.0 2.599999999995073 0.0
10.0 2.699999999994782 0.0
10.0 2.79999999999449 0.0
10.0 2.899999999994198 0.0
10.0 2.999999999993906 0.0
10.0 3.099999999993614 0.0
10.0 3.199999999993322 0.0
10.0 3.299999999993029 0.0
10.0 3.399999999992738 0.0
10.0 3.499999999992446 0.0
10.0 3.599999999992154 0.0
10.0 3.699999999991863 0.0
10.0 3.799999999991571 0.0
10.0 3.899999999991278 0.0
10.0 3.999999999991022 0.0
10.0 4.099999999991035 0.0
10.0 4.199999999991187 0.0
10.0 4.299999999991338 0.0
10.0 4.399999999991491 0.0
10.0 4.499999999991642 0.0
10.0 4.599999999991795 0.0
10.0 4.699999999991947 0.0
10.0 4.799999999992099 0.0
10.0 4.89999999999225 0.0
10.0 4.999999999992403 0.0
10.0 5.099999999992555 0.0
10.0 5.199999999992706 0.0
10.0 5.299999999992858 0.0
10.0 5.39999999999301 0.0
10.0 5.499999999993161 0.0
10.0 5.599999999993313 0.0
10.0 5.699999999993466 0.0
10.0 5.799999999993618 0.0
10.0 5.899999999993771 0.0
10.0 5.999999999993922 0.0
10.0 6.099999999994074 0.0
10.0 6.199999999994227 0.0
10.0 6.299999999994378 0.0
10.0 6.39999999999453 0.0
10.0 6.499999999994682 0.0
10.0 6.599999999994833 0.0
10.0 6.699999999994986 0.0
10.0 6.799999999995138 0.0
10.0 6.899999999995289 0.0
10.0 6.999999999995442 0.0
10.0 7.099999999995594 0.0
10.0 7.199999999995747 0.0
10.0 7.299999999995897 0.0
10.0 7.39999999999605 0.0
10.0 7.499999999996202 0.0
10.0 7.599999999996353 0.0
10.0 7.699999999996505 0.0
10.0 7.799999999996658 0.0
10.0 7.899999999996808 0.0
10.0 7.999999999996962 0.0
10.0 8.099999999997113 0.0
10.0 8.199999999997265 0.0
10.0 8.299999999997418 0.0
10.0 8.399999999997569 0.0
10.0 8.499999999997721 0.0
10.0 8.599999999997873 0.0
10.0 8.699999999998024 0.0
10.0 8.799999999998176 0.0
10.0 8.899999999998329 0.0
10.0 8.99999999999848 0.0
10.0 9.099999999998634 0.0
10.0 9.199999999998786 0.0
10.0 9.299999999998937 0.0
10.0 9.399999999999089 0.0
10.0 9.499999999999241 0.0
10.0 9.599999999999392 0.0
10.0 9.699999999999545 0.0
10.0 9.799999999999697 0.0
10.0 9.899999999999848 0.0
9.897110148790565 10.0 0.0
9.784692609918244 10.0 0.0
9.66186512498486 10.0 0.0
9.527663687265571 10.0 0.0
9.381035096339392 10.0 0.0
9.220828555768257 10.0 0.0
9.045786767736512 10.0 0.0
8.854535961160305 10.0 0.0
8.645575169391027 10.0 0.0
8.417264413847017 10.0 0.0
8.167811885740178 10.0 0.0
7.895259826295246 10.0 0.0
7.597469242951631 10.0 0.0
7.272102969379938 10.0 0.0
6.916607540131873 10.0 0.0
6.528192895511704 10.0 0.0
6.103810708667616 10.0 0.0
5.640130319512691 10.0 0.0
5.13351278094435 10.0 0.0
4.579982132668816 10.0 0.0
3.975193910361222 10.0 0.0
3.314401822869852 10.0 0.0
2.592419885437257 10.0 0.0
1.803581725058137 10.0 0.0
0.9416964895740705 10.0 0.0
0.0 9.00010000000243 0.0
0.0 8.000200000005481 0.0
0.0 7.000300000005135 0.0
0.0 6.000400000002569 0.0
0.901790731451151 5.000409820926855 0.0
1.657200899774397 5.000334279910023 0.0
2.289991063707192 5.000271000893629 0.0
2.820065163538221 5.000217993483646 0.0
3.264096435579811 5.000173590356442 0.0
3.636051481595835 5.00013639485184 0.0
3.947629914072366 5.000105237008593 0.0
4.208632181002628 5.0000791367819 0.0
4.427267949625672 5.000057273205037 0.0
4.610414277633563 5.000038958572237 0.0
4.763831845154243 5.000023616815485 0.0
4.892346298799659 5.00001076537012 0.0
4.892346298799748 4.99998923462988 0.0
4.763831845154455 4.999976383184515 0.0
4.610414277633943 4.999961041427763 0.0
4.427267949626277 4.999942726794963 0.0
4.208632181003523 4.9999208632181 0.0
3.94762991407365 4.999894762991407 0.0
3.636051481597624 4.99986360514816 0.0
3.264096435582253 4.999826409643559 0.0
2.820065163541503 4.999782006516354 0.0
2.289991063711534 4.999728999106371 0.0
1.657200899778495 4.999665720089978 0.0
0.9017907314530094 4.999590179073145 0.0
0.0 3.999600000002013 0.0
0.0 2.999700000005187 0.0
0.0 1.99980000000512 0.0
0.0 0.9999000000025537 0.0
9.897889398521345 2.93573355845387 0.0
9.906568249974548 7.060009441434234 0.0
9.913122631074113 3.64016132281653 0.0
9.922462129543863 6.354535290629151 0.0
9.917693659967533 4.354211663134567 0.0
9.909873057440208 5.637584487339942 0.0
9.914183254994697 4.950672966925282 0.0
9.913885043715895 7.666887930262611 0.0
9.91009668007573 2.351889069770817 0.0
9.905135696074536 8.138152454502785 0.0
9.913397459621809 1.849999999997262 0.0
7.099302372137626 0.297750452375005 0.0
7.095143729410097 9.700359990366296 0.0
4.942912558701401 5.095838627899509 0.0
4.315009232304429 5.165022115481685 0.0
4.946182472483878 4.906763777264103 0.0
4.317967462990024 4.825955043772673 0.0
9.916390871492647 8.64999999999792 0.0
9.921504649680616 1.368376469890358 0.0
8.292538149791614 0.206877570318844 0.0
8.292538149793597 9.793122429681448 0.0
5.884594439766573 9.587645267048616 0.0
5.794826292691579 0.3794853783929359 0.0
9.913397459621425 9.049999999998557 0.0
9.908526577714177 0.9568239351922434 0.0
3.456851160380649 5.315740054130451 0.0
3.457889657868442 4.707121019609468 0.0
8.945214200703926 0.1503383337970344 0.0
8.950161364448409 9.8413906539257 0.0
9.913862335499305 4.055887885208452 0.0
9.916697353372683 4.650158482607802 0.0
9.919076340414442 6.049999999994006 0.0
9.906994308667635 5.25749687748192 0.0
9.917490342358025 6.655979201891897 0.0
9.915757520293784 7.343848891656911 0.0
9.910049507471042 3.363474386285078 0.0
9.914471988502868 2.647400064832979 0.0
9.91474124160965 9.337490423485129 0.0
9.916971008170838 0.6499999999994355 0.0
4.307157269264427 9.509674045029644 0.0
4.331527375865619 0.4401616696422582 0.0
9.45434939180249 9.878397030523757 0.0
9.457696120412969 0.1270877537061785 0.0
2.555070293622606 5.422044496190925 0.0
2.566232917480916 4.608001224030952 0.0
3.026511860837692 9.332320638257093 0.0
2.945561971800619 0.5895662714727601 0.0
7.7395404387124 0.2511088946967771 0.0
7.736379255744154 9.745848826372828 0.0
4.687135269408529 5.122111433928926 0.0
4.688420821504113 4.871895064967488 0.0
9.910554884115975 0.3448356354522978 0.0
9.911230082250466 9.65764729394159 0.0
9.921953841410854 6.851023993342036 0.0
9.912065178606017 5.448170483544033 0.0
9.911660025326261 3.861846960030188 0.0
9.914847467973438 3.14501593945607 0.0
9.913397459621425 5.849999999993703 0.0
9.913397459621425 7.849999999996735 0.0
9.906916878988277 2.15455769998631 0.0
9.913397459621425 8.349999999997479 0.0
9.909472363117661 1.640528221515488 0.0
9.913987325695956 1.152857110636247 0.0
9.913397459621425 8.849999999998241 0.0
0.9100099990995943 2.614215977520411 0.0
0.8395284981715456 7.451196254860987 0.0
9.723278867451556 9.898135916635193 0.0
9.723316350887044 0.09841820909386662 0.0
1.385819164827588 4.454539963646463 0.0
1.338343629665047 5.523111536005823 0.0
1.377179700550677 0.6809168304959698 0.0
1.418060461092743 9.285896715136046 0.0
9.91268220142518 0.1457914080939694 0.0
9.906737126737994 9.845745933882352 0.0
0.7108351382691361 6.537941170074089 0.0
1.527735020267026 6.915620208855231 0.0
1.630993885659103 7.838271825205868 0.0
2.232760943566823 7.370850737296832 0.0
2.243414218068206 6.688299277952821 0.0
2.779655053105118 7.021588754814074 0.0
2.80227799359795 7.632420170547022 0.0
3.282022065908813 7.305859666021318 0.0
3.327597298795347 7.857554136825748 0.0
3.743210251018715 7.549183328204379 0.0
3.716353232200752 7.062036086888612 0.0
4.111978858674101 7.27497101169417 0.0
4.104192177581432 6.879858986267289 0.0
4.436230765617037 7.045693351607117 0.0
4.430360014817357 6.703971783962796 0.0
4.732390145036301 6.849841042423394 0.0
5.056161327708878 5.095276573498806 0.0
5.111586796021131 4.999081142133581 0.0
5.169267363407189 5.09444870412406 0.0
5.223795108752053 4.996986220359468 0.0
5.281480803887719 5.092780870372803 0.0
5.335670761900611 4.994887492556936 0.0
5.393485214772442 5.090486192743301 0.0
5.447323082877892 4.992601527033996 0.0
5.505243219343024 5.087953380710069 0.0
5.558739102026105 4.990287787962959 0.0
5.616491581184779 5.085335255235766 0.0
5.669852346908056 4.9879269227514 0.0
5.727502713908907 5.082679981817038 0.0
5.780766004135139 4.988313988715834 0.0
5.838244881129535 5.080480568766611 0.0
5.891357695677371 4.986433849408193 0.0
5.948696036767613 5.077969900389505 0.0
6.001601341641615 4.981313698556656 0.0
6.058851024265095 5.074871552128682 0.0
6.111614020704875 4.978360695880202 0.0
6.168801161530775 5.072044953270978 0.0
6.221368818778567 4.975825765213497 0.0
6.278268309066882 5.066182320461055 0.0
6.330814273567539 4.972837984645718 0.0
6.387565032421376 5.062889771971895 0.0
6.437476667631405 4.971693683589553 0.0
6.496181111585419 5.060210690175857 0.0
6.539454812256072 4.964658165361536 0.0
6.604198202576491 5.056387520850258 0.0
6.648506025747331 4.939374587506267 0.0
6.714026758992516 5.05873885840664 0.0
6.764418045981209 4.959246676066148 0.0
6.8219334571197 5.055299567406268 0.0
6.873708540948134 4.960426349093742 0.0
6.930181428849307 5.053461390218819 0.0
6.981893615341967 4.96435459462232 0.0
7.037791764774784 5.051219747103022 0.0
7.090993561518408 4.96392420322464 0.0
5.504417457283294 4.900897920552702 0.0
7.145434864123609 5.048960634292441 0.0
6.054532384032612 4.883956083938546 0.0
6.738027949040956 4.850032323068674 0.0
7.198432914526514 4.956325226333323 0.0
7.252637187936749 5.046012229327236 0.0
7.30926729605109 4.948903216650376 0.0
7.248106275544042 4.860306312845646 0.0
7.363100274863074 4.849952416808486 0.0
7.365733472701664 5.039519554615095 0.0
7.308483293090149 5.137557220352172 0.0
6.768399513646964 5.145609705119954 0.0
7.422800035311104 5.132251445551834 0.0
7.358273518796229 5.235980394389298 0.0
7.480824155801127 5.227946127939927 0.0
7.302193400058628 4.761917474298247 0.0
7.413570879789824 4.754555110721153 0.0
7.414392998903179 5.334729114426734 0.0
7.352769630272076 4.660405502266205 0.0
7.467556835255426 4.658352623795039 0.0
7.536246869015014 5.328986926716081 0.0
7.478865844607288 5.432598185493195 0.0
7.406396991826072 4.556956233957538 0.0
7.523581002009154 4.552005631348623 0.0
7.597792398573263 5.429506106314967 0.0
7.540511043402902 5.53619421580439 0.0
7.46214474876342 4.452580994318881 0.0
7.5852185078634 4.446021810672608 0.0
7.663329342323453 5.533453399066901 0.0
7.603478967594521 5.643227430483237 0.0
7.513450346818673 4.347641323140766 0.0
7.640744971722214 4.333388343316237 0.0
7.727671715775243 5.642390483050116 0.0
7.667774597993788 5.753188858425915 0.0
7.570065256728661 4.230515669344811 0.0
7.702881065467917 4.218307808529532 0.0
7.638288257073729 4.107994211855027 0.0
7.493362356301017 4.120843902105771 0.0
7.779018500630071 5.521233457321821 0.0
7.794641287388929 5.752364621610818 0.0
7.73369774483611 5.865894287356292 0.0
7.600834531784728 5.867752110500446 0.0
6.233038857278689 5.15645045634683 0.0
7.669727996028819 5.985665563643058 0.0
7.528582452554481 5.987393423295551 0.0
7.598722674572824 6.11001923494443 0.0
7.778305000222867 4.104318908265786 0.0
7.704329019832056 3.987744174608892 0.0
7.838453459801382 4.213322728668484 0.0
7.864495721576461 5.862306066517277 0.0
7.846552353360407 3.98481756181946 0.0
7.769730409703277 3.86544808681145 0.0
5.785249360396857 5.177248808588045 0.0
7.908837087876153 3.861484036275285 0.0
7.834824606222196 3.740586825753288 0.0
7.97685993406276 3.736209527152902 0.0
7.89665098770825 3.615501862931453 0.0
7.753228010315262 3.617800245018972 0.0
7.826063013090472 3.483173292579822 0.0
7.66789744383048 3.48859328808356 0.0
8.042515855796823 3.595394268381807 0.0
7.75200750488492 3.341279823834038 0.0
7.582870318332553 3.346584916806707 0.0
8.120807847415062 3.732493963388337 0.0
8.189783970303546 3.61159165475499 0.0
7.657801000286734 3.200439907646711 0.0
7.486781956172036 3.201402473247712 0.0
7.452595103886905 6.11418616185016 0.0
7.527098033550077 6.243191052852112 0.0
8.260502906807751 3.728437634721859 0.0
8.327629317451398 3.608173631356984 0.0
7.372763970891452 6.247552889754036 0.0
7.456170570815929 6.384992468962936 0.0
7.621837793616884 6.376077080857113 0.0
7.548039512904141 6.520750676893614 0.0
7.717475944451644 6.514856553988943 0.0
7.636658166268699 6.661648164052906 0.0
7.807468267259438 6.664076174524672 0.0
7.718022764310774 6.817938967122142 0.0
7.887785766941087 6.807440365887151 0.0
7.545993589083432 6.815070675854734 0.0
7.809874785067209 6.967537287475282 0.0
7.975643812145337 6.948729406725126 0.0
8.396477808021062 3.725446935061211 0.0
7.565651643157136 3.044354774611752 0.0
7.384328725505071 3.043048915147076 0.0
8.056405351948353 6.802790889114673 0.0
8.14128318237188 6.940027831915737 0.0
8.064621760266059 7.086348792208953 0.0
8.225003598857908 6.805225152373254 0.0
8.463085452993242 3.606998510553562 0.0
8.230426869720718 7.079551841000411 0.0
8.155262284174286 7.224761758176069 0.0
8.530696760758996 3.721683301125054 0.0
8.596669886994064 3.604516769862316 0.0
8.528531058025589 3.490411531312337 0.0
8.320451770844851 7.218191678954744 0.0
8.245273958732774 7.363444652121271 0.0
8.66324687389452 3.717094013035765 0.0
8.600103125209296 3.831913857228569 0.0
8.662131102573216 3.488322280861316 0.0
8.594166125380536 3.374071873435548 0.0
8.411074336066186 7.353871649576861 0.0
8.339644223432472 7.505172120620427 0.0
8.165883718619623 7.513159193685373 0.0
8.483453820080417 7.2082285366806 0.0
8.261200365730348 7.657400951288149 0.0
8.081570576666843 7.670933304838066 0.0
7.471613195794025 2.872548423100142 0.0
7.268733678357991 2.881209199257603 0.0
7.184255506995786 3.084448584600423 0.0
7.065899603697895 2.883902449336828 0.0
6.960163891183182 3.081014635802978 0.0
6.847612128388715 2.885646860602812 0.0
6.739800729737967 3.078895733381448 0.0
8.729373804596847 3.827689165637365 0.0
8.668550856907444 3.938702277545298 0.0
8.72770789162863 3.371798381178293 0.0
8.659764090070603 3.257493349874974 0.0
8.436453928793245 7.648724489148887 0.0
6.619080287792762 2.90880017416788 0.0
6.511740956842646 3.09340654756684 0.0
8.793527829963288 3.935174834810256 0.0
8.736430500996828 4.042719556852617 0.0
7.631260330584174 4.565300771328012 0.0
8.359058396840432 7.801678182761817 0.0
5.339436215072359 5.184870243702279 0.0
4.994031736761993 5.193306795607908 0.0
6.383387675268097 4.87760645722207 0.0
7.29117392392962 6.382172868329505 0.0
6.378196825372041 2.907113079755629 0.0
6.269817199014261 3.12412150658573 0.0
8.793149127377946 3.255386294257182 0.0
8.725774239201558 3.141596687892195 0.0
8.857434600673502 4.041295940541356 0.0
8.802868937128341 4.1471119953668 0.0
8.532045262478793 7.7905977476835 0.0
7.364542641624493 2.699128473342751 0.0
7.571677611088925 2.695732556686516 0.0
6.723058333614999 2.672341359410618 0.0
8.456744924757372 7.94483904450548 0.0
6.140831279784704 2.921247401137864 0.0
6.02419219050745 3.14358702955763 0.0
8.916255604212301 3.934279868822481 0.0
8.859287250884009 3.140226640574265 0.0
8.791092798057303 3.025929352146465 0.0
7.210445465986021 6.245773134960393 0.0
7.120884161792869 6.385155584680196 0.0
7.036931702064287 6.240721609143972 0.0
6.943722280007011 6.3869279517155 0.0
8.920094519678617 4.144837222494242 0.0
8.864374107136287 4.250930406527029 0.0
7.347569838739255 4.463467417508182 0.0
5.90383431757064 2.935113219563906 0.0
5.783476009580765 3.156456199832474 0.0
8.626013191558314 7.935092223505354 0.0
8.687240186957197 7.796697889991163 0.0
5.642059327424706 2.903018174330269 0.0
5.52647853955939 3.162549070310043 0.0
8.555300051897738 8.086169516016518 0.0
8.405624441178524 8.083972416481254 0.0
5.374124307190728 2.945480555950917 0.0
8.935805220807357 3.249260758206028 0.0
8.981625171409894 4.247375537584228 0.0
8.924725364486765 4.352101286657735 0.0
8.807208588134106 4.356163101450244 0.0
8.868277832430604 4.45657124153171 0.0
8.75099635287701 4.460644845248524 0.0
8.812385950597063 4.560891222623518 0.0
8.693833206943118 4.564602972998703 0.0
8.756474732548273 4.665720853686476 0.0
8.63721608225855 4.669394550615355 0.0
8.700108119351134 4.770682016274914 0.0
8.81920502916846 4.767536120893284 0.0
8.76355311338807 4.871451945248518 0.0
8.881442328033694 4.868382238751069 0.0
8.826433523510634 4.97132552240372 0.0
8.943387824985514 4.967694248194483 0.0
8.888718468126953 5.071044784833541 0.0
8.580377663835254 4.774669738817985 0.0
8.770572242937233 5.073880380431421 0.0
8.832915096600454 5.174518948293615 0.0
8.952224483821848 5.170970838320107 0.0
8.897282771771884 5.275476392171722 0.0
7.463928467290875 2.513944501591933 0.0
7.675935950092034 2.509420347143072 0.0
8.924252417741767 3.024418701372628 0.0
8.857265893102921 2.911213535286156 0.0
8.776981063213334 5.27944309004916 0.0
8.840710910770163 5.380165700477552 0.0
8.960876896785969 5.375521424256389 0.0
8.904555918255223 5.482125846038813 0.0
7.567193097677677 2.32750151280277 0.0
7.780880844888839 2.323064027160363 0.0
6.851602118390116 6.234522818184622 0.0
6.758680682687229 6.389359516748128 0.0
6.66345977321418 6.231254850996584 0.0
8.715764716958308 8.079994249772627 0.0
8.65189989696114 8.227534663647639 0.0
9.042229096541828 4.348551764001607 0.0
6.436774206993324 3.316782326998922 0.0
7.590527613340588 5.22651784724799 0.0
9.024366884701616 5.476726561488805 0.0
8.968734351641839 5.583879050892151 0.0
8.845941080047659 5.586406316932274 0.0
8.909881305857882 5.690482454668167 0.0
7.348726871578975 5.44047403999932 0.0
6.567070253986433 6.398115757512583 0.0
6.697077150072261 6.553426749743366 0.0
5.252377383990728 3.187782967482479 0.0
8.988440431820699 2.908621158637298 0.0
8.922541972760119 2.796420836075996 0.0
6.466806010659505 6.229115583261771 0.0
9.033851153821296 5.686506775615425 0.0
8.978340519963718 5.795772485582058 0.0
8.85111463793018 5.798672910287243 0.0
8.922171984280597 5.907237880910408 0.0
8.795190680908043 5.911854068712683 0.0
8.864373398892472 6.019728357749566 0.0
8.991346995940626 6.014539153309398 0.0
8.93374019140187 6.12698887312768 0.0
5.095192648098848 2.952353430985476 0.0
7.672651464908932 2.141715359830917 0.0
7.886266921042761 2.136211284120189 0.0
9.098474286589756 4.245971410451114 0.0
8.813172564986438 8.216887361735234 0.0
8.74802978243154 8.366104673219047 0.0
9.059985162956899 6.120982589539211 0.0
9.00342813739303 6.233245043891739 0.0
4.961413514304496 3.214209167276753 0.0
9.05248113004685 2.794651022570942 0.0
8.986028039118027 2.681341972594222 0.0
5.671890458441996 3.377122473800023 0.0
4.755829262593116 7.184480462344647 0.0
9.158258644940048 4.34465968221255 0.0
4.799687186662534 2.961354824469195 0.0
6.030554747591715 2.726787502996874 0.0
8.938327180212585 8.34758372042188 0.0
8.847392320655468 8.503370672816716 0.0
8.67342124373679 8.518117686968314 0.0
5.234423106934083 2.694925204361751 0.0
8.964923046453565 8.185313058214797 0.0
7.456650986668838 2.134076476407834 0.0
9.111732084821366 2.897226832609386 0.0
6.368055837513985 6.402805870976705 0.0
6.265629899005033 6.226581076317183 0.0
8.736327196352686 6.026404178766982 0.0
9.117473097358854 2.67987006607594 0.0
9.052137415465204 2.565428515518978 0.0
7.781001557847192 1.955874236406257 0.0
7.992134447300669 1.949184538864554 0.0
8.593074792993455 3.143159483125708 0.0
9.1291360203536 6.226877897052981 0.0
9.072154326613617 6.338696745620542 0.0
8.916532550320525 2.566986282201109 0.0
8.984021113721658 2.449252898983242 0.0
9.178032243215632 6.120533546076094 0.0
9.213703592343162 4.244823670856978 0.0
9.11972142641474 2.449071238668887 0.0
9.052853896812186 2.33190758581705 0.0
8.635035926402708 4.462329956179506 0.0
8.773614475966344 8.657865377672689 0.0
8.596400917257634 8.67759750279447 0.0
8.942023339420883 8.644678093589654 0.0
9.19471670675691 6.33096438039349 0.0
9.138460613363325 6.443043552768813 0.0
8.66620319432524 5.916297234509582 0.0
8.606669825267202 6.032658196729024 0.0
9.27222540210304 4.341341907533128 0.0
9.013782808177437 6.451040569407859 0.0
9.08360982569773 6.55729980456602 0.0
7.885622149776354 1.768093045890686 0.0
8.095672144455353 1.768790621151345 0.0
9.208772072925791 6.549717411809656 0.0
9.154272208194383 6.662613503537815 0.0
9.187669783927937 2.334640996932141 0.0
9.122379015831417 2.215832190697178 0.0
6.164077036161143 6.404611236428829 0.0
6.062367614988677 6.224307160647549 0.0
8.987075041759633 2.211477580983978 0.0
9.056972755801603 2.093573581203428 0.0
9.194557288902232 2.096029761809264 0.0
9.131223008370409 1.972713028695079 0.0
8.87381302587057 8.795793668920256 0.0
9.039169086943392 8.781606667490083 0.0
4.662813350519927 3.228118291851354 0.0
4.474181267994617 2.945703616023359 0.0
6.562627723301209 6.075544382232434 0.0
9.326886053211574 4.243083624343211 0.0
9.280374192897945 6.656072830232892 0.0
9.224718905178564 6.766740750539347 0.0
4.703284910421452 6.528907865005451 0.0
8.955136474970331 6.565989985649191 0.0
8.998148826814893 4.865480736169776 0.0
8.99429836796776 1.965972383552685 0.0
9.065669391141741 1.847195105148808 0.0
9.207236162050343 1.853010386995843 0.0
9.143218073349985 1.725630086781897 0.0
8.998867447699345 1.719378449325465 0.0
9.082595782768397 1.592017827427701 0.0
8.92804562738841 1.585238202229766 0.0
9.01637794607019 1.453847302675876 0.0
8.854253119154375 1.446306868730686 0.0
8.941620273019874 1.320083886766936 0.0
8.775393064215876 1.308487027359826 0.0
9.102170347200483 1.324733726345249 0.0
9.013857060361985 1.178821526410403 0.0
7.991031819452564 1.587689878441685 0.0
7.767218744640202 1.595993197647291 0.0
9.191539171305216 1.194087248761656 0.0
9.123965901037613 1.057102462689568 0.0
4.853921953226772 3.470213116851758 0.0
7.496563223334782 3.470157221608763 0.0
8.536691379028115 5.921845852206257 0.0
8.475496498707471 6.037633662010236 0.0
7.978668526342969 2.307231488316941 0.0
9.384721922092124 4.337357165846226 0.0
9.331039180200886 4.435926256444196 0.0
8.546261775564837 6.150267290476958 0.0
8.411727261785726 6.155319300628062 0.0
8.972203609044218 8.930944433074036 0.0
9.133480321468399 8.90955269607895 0.0
9.197778815538276 8.768743880012563 0.0
6.162231825784922 6.05277753404107 0.0
5.962111081146334 6.046949845237622 0.0
9.268727788642101 4.146883230687689 0.0
9.380694211527906 4.144811697563401 0.0
9.323823335199954 4.049557759546529 0.0
9.283324894520613 1.736313094621396 0.0
5.858151623803662 6.22041808248046 0.0
5.759668475561988 6.038806123495502 0.0
7.836860473863919 3.191674397465999 0.0
9.348591928839294 6.75855034547469 0.0
9.293979592221298 6.870213350675044 0.0
9.170543172728557 6.879819332293818 0.0
9.240028263813034 6.983394994050525 0.0
4.347372565145963 3.312731475520695 0.0
4.114183445909965 2.96879678229065 0.0
8.616264880152233 4.042035981070631 0.0
9.403174760076901 6.650407069150438 0.0
4.173860112179449 7.723461240865885 0.0
9.365302975518428 6.973476802087294 0.0
9.312420275675276 7.088420778208979 0.0
9.184876614539778 7.0978133687822 0.0
9.25921281729617 7.204979813006656 0.0
9.12816413817609 7.21569648263899 0.0
9.203944409919862 7.322703303071253 0.0
9.334311975087337 7.311477957762272 0.0
9.280415785210538 7.428795599957155 0.0
9.274060219641907 1.066603180421249 0.0
9.211820491509728 0.9316562593680151 0.0
9.050684011148748 0.9017681241401576 0.0
9.441953732403995 4.432092590771756 0.0
9.394725873909666 4.526051349391942 0.0
9.43453556160865 4.048003950509361 0.0
9.378043599351757 3.952631412328806 0.0
9.289691247910705 8.890746792319852 0.0
9.228148443138926 9.030109127390128 0.0
4.440757888677695 6.389562448928118 0.0
4.689874463978985 6.239329075084555 0.0
4.291519540095677 2.622920583112654 0.0
3.886073352912894 2.632778677714434 0.0
9.344015622314338 1.202401041544343 0.0
8.193292196814806 3.849649660906171 0.0
6.960946604527747 6.07044529864598 0.0
9.347708267319902 8.756364147482309 0.0
6.826423138602714 3.261415861395883 0.0
6.06309517882478 5.884563187328262 0.0
9.4085057714426 7.414123963607981 0.0
9.356416821537886 7.532359471354527 0.0
5.042074134251055 6.938947182785697 0.0
5.063988238156824 7.311205832605263 0.0
3.946666851334923 3.30681624613374 0.0
8.189857914071878 1.939951128540477 0.0
7.880690277686857 1.38928908049477 0.0
7.63766396748483 1.399736360041063 0.0
9.345004233592562 1.857695941115052 0.0
9.440465164139875 7.085860901905448 0.0
7.918332480761888 5.744468010879592 0.0
9.08007135068879 5.372457017512481 0.0
8.78639561093144 3.718391405525285 0.0
9.356843485085705 0.9414458825132457 0.0
9.29705128845331 0.8103081541678832 0.0
9.251825423225316 2.451701826351773 0.0
8.483895366325516 6.270717564685176 0.0
8.346386886249478 6.275973306650227 0.0
9.493299170161215 4.138582531223591 0.0
5.321115649032961 7.117073603021904 0.0
5.354076009109965 7.436189411362466 0.0
5.597984079819928 7.254284331170681 0.0
5.644042313435943 7.564172740776336 0.0
5.383963016128051 7.753854027984002 0.0
5.681168258142109 7.880444993178456 0.0
5.935548099874979 7.687258900444162 0.0
5.979508404301389 7.994332725561488 0.0
6.21936843555201 7.802335560754011 0.0
6.267092590637372 8.104873033518185 0.0
6.498845418385807 7.917606504106031 0.0
6.544600005636809 8.209910620392591 0.0
6.77336078689533 8.027284686082275 0.0
6.814840179123049 8.311778392637773 0.0
6.721304148677048 7.737863326704131 0.0
7.031320924898797 8.1335673274533 0.0
7.077388928622946 8.403901803728003 0.0
5.417471987089176 8.090112295667405 0.0
8.845427688507666 2.446352368201366 0.0
9.318512319918124 2.339233739859646 0.0
9.380241452597096 2.451895615249572 0.0
7.283805558009199 8.237518806365102 0.0
7.329200330160381 8.497045124353782 0.0
7.233272584416691 7.991590926766813 0.0
9.142592248414191 5.471315142785471 0.0
9.196303265878848 5.36738298742727 0.0
9.25795832955665 5.465260877691205 0.0
9.310581303233182 5.36341558704714 0.0
9.371094700882272 5.459458038195667 0.0
9.422767107822985 5.360687090455724 0.0
9.36402660964156 5.264821436196721 0.0
9.474220736978928 5.262802348886269 0.0
9.41680330511366 5.169477108906666 0.0
5.168675939028436 4.895496152382537 0.0
9.482591449057548 5.454699312257291 0.0
9.431567605310825 5.552723344040521 0.0
7.531449703396948 4.741663470323411 0.0
8.517293123442691 4.672601123164268 0.0
8.459978676626639 4.778466809901586 0.0
8.396595115309985 4.67568709170855 0.0
8.338966609235166 4.782101664607259 0.0
8.275355646032752 4.678829956447008 0.0
8.217675280223542 4.785699596769931 0.0
8.28149024865807 4.888803783902183 0.0
8.16019781596952 4.892696417098926 0.0
8.22433278506531 4.995725219088695 0.0
8.102825704443651 4.999629142625341 0.0
8.166887930010795 5.098242831115916 0.0
8.034904900788316 4.896825406879729 0.0
8.15353539905931 4.682103688185489 0.0
8.211891449058882 4.574219757233394 0.0
8.290305306104333 5.094007100958221 0.0
8.225684228618732 5.201525567655179 0.0
9.444618942559746 2.343141375196729 0.0
6.929446520625337 4.868116916840016 0.0
5.737810725167649 4.893891407574175 0.0
8.720389971487277 5.38508368411851 0.0
8.805734920311323 8.951818172412821 0.0
8.905272694453211 9.083303226359831 0.0
6.006155038818204 5.171375272745409 0.0
6.431496448228514 5.152985998213245 0.0
9.052675024457304 7.106590131831544 0.0
7.740007013494393 6.09727525827826 0.0
9.375852260355511 9.013078430361404 0.0
9.32035844773103 9.14584923943073 0.0
6.989707597683965 5.146377438798643 0.0
9.488190206836386 3.951168069367155 0.0
9.432429152094464 3.855725756072153 0.0
5.568386402814275 5.185723849666124 0.0
9.525561551078322 5.166162126187324 0.0
9.465026391994275 5.072601962964018 0.0
9.320357339516937 3.857795423728873 0.0
9.375955927831914 3.759314274140895 0.0
9.261783786753899 3.761412578759438 0.0
9.31820665563318 3.661845422072752 0.0
9.431798673168924 3.660830894813109 0.0
9.374584413615914 3.563138564686839 0.0
9.48759661134647 3.562294297118573 0.0
9.431339678707085 3.464016717943268 0.0
9.417896212887529 1.746970678437863 0.0
8.731705369070733 9.110902182838881 0.0
5.652297951447118 6.21188565774667 0.0
5.569122518069258 6.024400786163834 0.0
8.257007204149394 3.505875091031567 0.0
8.717428603143034 2.925525757227976 0.0
6.882852832747376 8.57686572931064 0.0
6.337330066435714 8.416819098143066 0.0
9.50188906539997 4.521022403818629 0.0
9.453500859905136 4.617181635748691 0.0
9.46806769570129 6.749352117850711 0.0
8.836822104875719 1.72282859852854 0.0
7.481071063421426 5.64593758994851 0.0
5.668814988976305 5.86611128457842 0.0
5.487644760735084 5.847591822776978 0.0
8.993992818065195 7.228173913870249 0.0
7.98322414937693 7.229980191466666 0.0
9.22810751684646 7.54864871395298 0.0
9.304103360459063 7.654622011545798 0.0
9.432787371848761 7.633691049023619 0.0
9.382619818023882 7.759136995934441 0.0
7.239096822516492 4.679179578301165 0.0
9.47692479956498 1.861231395362419 0.0
8.041243110813022 5.095895152648969 0.0
6.190208781188077 7.509864122823853 0.0
9.283062812782122 4.549418667685757 0.0
9.503847665760087 2.450295046295932 0.0
9.443345385250678 2.557904120404248 0.0
9.52009568463353 6.644015937008899 0.0
9.203119005973903 3.662458522935253 0.0
8.406198651282708 5.92630414760378 0.0
8.467263597743843 5.811987729136874 0.0
9.461423029059445 9.128120577356565 0.0
9.408445330070542 9.26024300250086 0.0
9.266505293379728 9.277952925446408 0.0
4.14874709022218 3.631681332690154 0.0
9.437448107949258 0.8198473430736303 0.0
9.376993771693973 0.6910550697058979 0.0
9.22882356848217 0.6931820370818127 0.0
4.451823867195988 6.103664366188579 0.0
4.200031743909027 6.232039028149317 0.0
4.687154754667774 5.975132870483986 0.0
6.268889397098538 6.592235545990395 0.0
7.509366161722768 8.340075462391164 0.0
7.564775703413765 8.59800936579159 0.0
9.542148732924264 3.854614593058991 0.0
7.036231103929761 6.550562550831048 0.0
4.089373665437328 2.268193930262139 0.0
3.642558884866483 2.250386188148396 0.0
3.442182385618804 2.651948803899947 0.0
3.146832503011753 2.222630466765926 0.0
2.948870467975985 2.805088883766417 0.0
9.352005315330274 5.067356449300542 0.0
9.31729677031493 3.462944187594675 0.0
9.37428383619102 3.365546369736205 0.0
9.4883538239391 3.365384871181599 0.0
9.432147665178338 3.267287636377487 0.0
9.25034519267688 7.775848812012313 0.0
9.332091350002502 7.881724023243533 0.0
9.462101000264603 7.86490055671988 0.0
9.413353271651825 7.98561007219363 0.0
8.273592814723814 6.158623919352561 0.0
8.207135014732339 6.280394934566054 0.0
9.541483811580331 5.548224291759592 0.0
9.491365919893726 5.644847811894615 0.0
8.088095771120983 4.577581369371366 0.0
8.14760102783746 4.468303741922308 0.0
9.556217963323956 4.414867468889523 0.0
9.543667331547693 3.266908751519594 0.0
9.489307652535885 3.169908976697059 0.0
9.26285575842982 8.635341362685686 0.0
9.403220742003983 8.621447866627538 0.0
9.326013417886902 8.506778946171965 0.0
9.455477927154853 8.503896705359047 0.0
9.566646674069602 4.611465258087684 0.0
9.499341049870914 0.9352184973273918 0.0
8.683891958597638 1.444705608998412 0.0
8.599973456173778 1.287265568270043 0.0
7.760988189317371 1.175381292562583 0.0
7.50927661322749 1.171223823957793 0.0
7.380927152434357 1.411062577009695 0.0
7.242417847270241 1.170759311509981 0.0
7.107236746116019 1.421234419770886 0.0
6.960799033544566 1.169618322344823 0.0
6.817786081200392 1.434174581170586 0.0
9.48095050141868 8.738557748483624 0.0
9.319762046171894 3.263060331456388 0.0
8.920653400180534 7.117307656029475 0.0
9.452431221190624 6.544166520883111 0.0
9.571407933653493 6.540336592280795 0.0
9.507586285214174 6.443281357841339 0.0
9.575252974749443 5.070210512157044 0.0
5.755172844377253 6.370710487467459 0.0
9.541351959064952 7.969072511059531 0.0
9.354607289792183 9.3921968735401 0.0
9.495213435762107 9.37218405175897 0.0
3.77688136092967 3.643094492921176 0.0
5.460967180339239 6.159077196937325 0.0
8.656589552918996 5.283032675040985 0.0
8.599307076390474 5.387421722684671 0.0
9.584017606465821 5.263931993965828 0.0
9.51536593891754 4.977534386249715 0.0
7.788544970111893 2.70578432810479 0.0
7.381746833264364 8.755477463411431 0.0
7.615969996822885 8.852710176548548 0.0
7.783643411970649 8.691528137204457 0.0
7.845017394185501 8.938777577473743 0.0
8.570520580943368 7.342304222498308 0.0
9.103648004226827 5.781084627507008 0.0
8.338082930126799 5.815990105349368 0.0
8.930848895071895 4.561111316304916 0.0
7.381089602119859 5.983657236035151 0.0
8.42066837692862 6.393608568217351 0.0
8.888256157021065 6.459558428285236 0.0
8.826495664731354 6.575679897210801 0.0
4.22522220414496 5.921354747981145 0.0
3.943296448343383 6.075578573904587 0.0
9.563175937841836 2.554860696349795 0.0
9.505342423182917 2.656889632284623 0.0
6.660863480070611 1.168750929063519 0.0
6.518316961679488 1.436478598119306 0.0
6.683474168246802 1.694104067636375 0.0
6.376799057174731 1.707382100972048 0.0
6.205091481342603 1.443621641108414 0.0
6.058670988071357 1.728841803855816 0.0
5.877457486049096 1.454297236926778 0.0
5.724979192982589 1.756666409586195 0.0
5.529885788012015 1.462283739157555 0.0
9.514953777019835 0.7018468683209754 0.0
8.398665270372675 5.702731562702358 0.0
9.456442249775696 0.5772068858285652 0.0
9.565795671866349 2.345573662774494 0.0
8.830758563027459 9.247271599108435 0.0
8.523580738257648 4.88015211128435 0.0
5.580123316488715 5.701889892660689 0.0
5.398591029446707 5.685938459654249 0.0
5.367686360823392 1.778740548277203 0.0
9.546603444041448 1.754984055696778 0.0
9.489649223089446 1.641312329051244 0.0
9.617973952467912 3.363804764345866 0.0
9.584322830999731 6.729956156156573 0.0
9.597221861144487 3.948534024289882 0.0
9.49401963819799 8.089507968561776 0.0
9.207321074262563 9.416906871900888 0.0
8.27185428346661 4.464932191097996 0.0
8.207416067213774 4.35878753684812 0.0
8.332747746635944 4.354903699457511 0.0
3.990181919126853 3.930792395858886 0.0
8.267392138262498 4.254008221702929 0.0
7.997788712685495 1.196805377512679 0.0
9.600316638269724 5.639973985281733 0.0
9.550939606739425 5.737313319038155 0.0
9.44084303195315 5.74233753256161 0.0
9.50112296154558 5.834555019909565 0.0
8.897429225733994 6.685415510921676 0.0
8.762930941408914 6.695907295903629 0.0
8.654628175336732 9.278157371342388 0.0
8.544676900803436 9.133790942553834 0.0
5.294904777716057 5.855935872688884 0.0
5.216749389964556 5.66865685845661 0.0
9.508453581298625 2.239460033375932 0.0
9.599691370793206 3.169496930704394 0.0
9.546615051106684 3.073514534194011 0.0
7.484714626923596 5.028675123117963 0.0
9.588496050271255 7.850836295555126 0.0
5.153197381012662 1.471340286561097 0.0
9.433168304679345 3.071871997104804 0.0
9.610464706874994 5.829217654498672 0.0
9.561407772947403 5.926179534044419 0.0
8.273381980676042 5.705233340662362 0.0
8.330794188929296 5.594351887246082 0.0
8.207319603076424 5.596747949305344 0.0
7.251338559467102 5.233758892662348 0.0
8.708518799790543 1.130513882092466 0.0
9.590155250193266 0.5878623138195824 0.0
9.389919385420015 5.841079912164009 0.0
7.991397852194216 5.859910582924319 0.0
9.624951589233206 4.975554514425905 0.0
7.240016788025947 2.531866266726309 0.0
7.635666783493215 3.873554782053258 0.0
9.608476620993713 1.863530872936442 0.0
9.365330459496413 8.10677840682376 0.0
8.775076110585598 2.572737931759856 0.0
8.699389445914996 2.444602334375113 0.0
8.625078713232146 2.580891022578613 0.0
8.54447196848446 2.447624719286678 0.0
8.468898498943965 2.586757328881282 0.0
8.62282309213608 2.307826916202421 0.0
9.622102662978762 6.439307895185218 0.0
9.561995355724862 6.35103962032292 0.0
3.898245450818314 1.856155797593496 0.0
9.681759177700954 5.07069253017652 0.0
9.059254996454502 4.963357716933865 0.0
9.113144532326562 4.861710138088372 0.0
9.62140874877204 2.656009146517733 0.0
7.884510615470827 0.9666888912541309 0.0
8.14902661050739 1.005010215149227 0.0
8.491263206618079 8.527197931363634 0.0
8.408859203395778 8.697060715788105 0.0
6.54422152733529 1.954566069381189 0.0
9.563546573097593 2.755667904356369 0.0
9.453065492925557 2.761122255953964 0.0
9.676889098520615 2.755084315170127 0.0
9.678287124781653 2.556838324720633 0.0
2.60254317790297 2.278874965850319 0.0
9.211706272534968 4.050470567310489 0.0
8.526711683538949 5.698821878547752 0.0
8.296604023060945 8.533761944401608 0.0
9.649704314258118 5.543946557831669 0.0
9.651176136337964 3.85122804518279 0.0
9.44590154800397 9.498503704959054 0.0
9.580491248736612 9.476376347552954 0.0
4.3239388803087 3.921156392977062 0.0
9.65737873521736 3.075324100817917 0.0
8.128000846282253 6.160273991836929 0.0
8.06242981852327 6.292371360998262 0.0
8.500465019503922 1.442700595221201 0.0
9.615253212967009 1.649819368149096 0.0
9.561768620580791 1.538553925606111 0.0
9.435477757657937 1.527391516499924 0.0
9.627993450010088 2.242685831452484 0.0
9.5338252733548 0.4673994795805215 0.0
9.398055066504014 0.4589059948533885 0.0
9.669486082509058 5.920177035588319 0.0
9.621072177439727 6.016493814615133 0.0
9.506185962103057 6.018397021409126 0.0
9.196884440497488 7.898824858961557 0.0
9.112591143666748 7.789491461180181 0.0
9.664357762385308 7.950712034233033 0.0
8.46233617997115 2.308903464128035 0.0
8.547917980328803 2.169381684694277 0.0
8.139931430059324 6.410762600521521 0.0
7.672499127532963 9.099143622036436 0.0
7.91372855627271 9.178704612763656 0.0
8.463425076318451 9.290653726808348 0.0
9.643938029094286 9.335632419679458 0.0
9.647017668702574 0.7068996148634754 0.0
6.241662276606473 5.884018212993202 0.0
6.157742245066693 5.73500474100449 0.0
6.318815619949124 5.730068085823802 0.0
6.247706374231452 5.593094310939028 0.0
6.406948541886973 5.593272398468375 0.0
6.092564106310554 5.587409338401505 0.0
8.535507922245372 5.286142900439676 0.0
8.022959839404006 4.471630490587016 0.0
7.963561162854596 4.581393556789843 0.0
9.683487139413305 1.546750704925431 0.0
9.630761777960082 1.435922217091829 0.0
5.121714348989337 7.950140247572198 0.0
5.136464096196084 8.310254432483559 0.0
5.47349124035624 8.455234262268478 0.0
5.176273618280354 8.687190323573228 0.0
4.796664658962938 8.592678692862421 0.0
9.568705729418735 4.887269869750176 0.0
9.462711651199594 4.88832222094458 0.0
9.674903475028225 4.882285174433025 0.0
5.4996067353406 5.546583260717527 0.0
5.663632234555963 5.557613452957074 0.0
6.829408195405585 1.947174574944512 0.0
5.336529198289861 1.127585641139875 0.0
9.672387559812332 6.34138351957329 0.0
4.463988917379896 2.271060678869338 0.0
8.618048281355405 6.263841736419089 0.0
6.480949808711781 5.74815588680617 0.0
6.562207427719153 5.592185077216444 0.0
6.643040463857446 5.721233693378952 0.0
6.712825900331884 5.588664360236 0.0
6.79240375630333 5.711383948285569 0.0
6.86115931532141 5.584697050428064 0.0
6.939210100691576 5.704407337029545 0.0
7.007668476576536 5.580801046893123 0.0
7.084627386867475 5.702817970154801 0.0
6.633257976075473 5.460881327825488 0.0
6.931430743764456 5.461960451448691 0.0
9.682652370938209 6.533133024505995 0.0
8.761108695241376 9.450742747770144 0.0
9.146031326900015 3.764292700000154 0.0
9.089378801805193 3.661317181076136 0.0
9.514354521818781 8.994988681611192 0.0
8.157650730500988 4.262987189670279 0.0
6.329633198899328 5.4647789391701 0.0
2.340685767996258 2.811285337457589 0.0
7.379572471323651 0.9290892725587991 0.0
4.171878172186605 4.222320767259098 0.0
4.4876601621649 4.16473354200826 0.0
5.336389369563535 6.806464508860387 0.0
9.595468321212476 9.108133206829102 0.0
9.645038675267227 8.982113951305912 0.0
8.393140678816192 4.246338342095281 0.0
8.309440721624494 4.155300532283633 0.0
9.418269339704423 1.9925512363779 0.0
9.662781807969623 0.477809346089035 0.0
8.011297869803792 0.7518828483803571 0.0
8.250149975885678 0.7646904662196189 0.0
9.608674873602773 0.3618049194050078 0.0
8.692696069692623 6.582927327365709 0.0
8.628225948401226 6.705702462696891 0.0
8.701883181418305 6.822086652299242 0.0
8.559276855155542 6.829564723911442 0.0
7.069268463354993 5.459534423493629 0.0
2.654575201159115 3.323490466195074 0.0
3.610801136544596 4.044075244426243 0.0
8.263757217166944 5.48730323490738 0.0
8.138838162809126 5.491254533497952 0.0
7.90196833683664 4.477386962763833 0.0
7.987943097943191 3.978756490171551 0.0
9.704623491880403 3.945605151832784 0.0
9.461009573830147 7.301728818091931 0.0
9.532468631193666 7.399916015174975 0.0
9.582688928417856 7.292330983701011 0.0
9.652579613269625 7.387768793572397 0.0
9.699264016151023 7.282867433965265 0.0
9.633305589700536 7.188543855060478 0.0
9.505576100168666 6.961225778216469 0.0
9.43876966151099 6.342441564206569 0.0
4.908483672172518 6.098703904450545 0.0
9.135448256237908 5.269827196966999 0.0
5.905650502271389 2.025036080946255 0.0
9.709890722072377 9.452748507541063 0.0
9.663337613522643 9.572126259365891 0.0
9.603900123387826 7.495180532331903 0.0
9.720147629525837 7.483400774981126 0.0
9.674588415444239 7.588303295299578 0.0
9.653186673863587 4.039274180923234 0.0
9.053164539680804 4.764545162185531 0.0
9.164908495749003 4.763017269285045 0.0
9.226019227262443 4.858029410614327 0.0
8.809947621994619 3.4964384919072 0.0
9.10538997155458 4.665865142902959 0.0
9.331074106432244 5.748993480915537 0.0
9.055854333858068 7.918554535314415 0.0
9.446431573964945 8.209836764658437 0.0
9.573844810886287 8.191100251691205 0.0
9.309704769895653 8.244395007943949 0.0
7.240329561730736 1.676197957122907 0.0
9.543389817573933 3.660019800390455 0.0
9.598599341122098 3.563130123982772 0.0
9.652615161407017 3.658119804270645 0.0
9.706336063693934 3.564815526226687 0.0
8.632284427755456 6.946688912416058 0.0
9.682863230715835 2.349655023034811 0.0
9.571538455120994 2.142369886250143 0.0
8.090821900439733 9.017409120951333 0.0
6.812258669899192 0.9007667548831626 0.0
6.50135254578461 0.8974046495177885 0.0
9.598335906230732 6.246437748035812 0.0
9.719677442549804 6.253968775436637 0.0
8.593026822691716 5.180101360605356 0.0
5.537586126848265 8.836083861509138 0.0
9.688689404995035 2.143487155934306 0.0
2.821389253975936 6.507820864074362 0.0
9.176571289960709 8.507736431357309 0.0
2.918303740542162 8.256728920338826 0.0
3.428955230180972 8.401446814887457 0.0
8.490587404589881 6.715350139132777 0.0
8.86049054904785 7.243279881821806 0.0
8.93696309213556 7.356650230611625 0.0
3.951931175165697 5.78308550088855 0.0
3.65055612573298 5.91672400098539 0.0
3.668142216548471 6.247526235973777 0.0
9.717269848920886 5.821831227352286 0.0
9.708364917734201 3.164198601626433 0.0
8.45581975650687 4.569560863828342 0.0
8.204448312099833 6.040774355519757 0.0
8.65969449127868 5.485991799508151 0.0
9.707534571012967 5.634423933296901 0.0
9.62102991883279 2.849662850313935 0.0
9.144093558002634 3.560383427867003 0.0
8.29763273805118 1.77155302934031 0.0
5.280452715709455 9.01633391004168 0.0
8.984558945859158 6.99932633710603 0.0
8.4157550875812 1.275784953143711 0.0
2.068078118650995 3.355462780535101 0.0
9.205703884756806 5.568274778556933 0.0
9.745857863753141 7.178456670302003 0.0
9.681628895748586 7.081494416756802 0.0
8.875818787971069 6.240744812097083 0.0
7.993733797566922 6.414830952863579 0.0
8.462810157069566 3.377071044664789 0.0
9.29428363519789 4.759591981903337 0.0
7.933956818298286 5.97437536746848 0.0
9.028281726378319 3.558713145763133 0.0
9.083461773461467 3.455531762175701 0.0
9.73231939683535 2.849247643393067 0.0
6.70072305037728 2.192432536215492 0.0
6.423245125077639 2.212870246546939 0.0
4.931537051605536 1.135086496804522 0.0
4.746426561586179 1.500381091957315 0.0
9.707706579932626 7.836419656220658 0.0
8.590593344701457 1.595639668013959 0.0
8.708946574109854 2.1688179918246 0.0
8.634728854549891 2.028564483452208 0.0
9.230357659411311 8.129337203173913 0.0
9.102841374461482 4.452881308250647 0.0
8.472081531214734 5.388993924853032 0.0
4.925996806199801 5.844046944846857 0.0
4.702806345752284 5.745688656289065 0.0
4.884357002239844 5.633237011762874 0.0
4.709628434300812 5.536404116679045 0.0
4.530800966746534 5.627044171217377 0.0
6.040296145349247 6.603808099703576 0.0
6.162203578696918 6.795213950202512 0.0
5.923135943221574 6.824060069869489 0.0
6.046693245732212 7.010423490915212 0.0
6.297337598588478 6.979895528204233 0.0
7.760448385794147 0.7294020304851334 0.0
8.492228348169641 6.958778476405878 0.0
2.89219822877093 1.704113597264478 0.0
2.26178643438086 1.7814602252425 0.0
9.726968895980871 6.009547057102511 0.0
6.63195110828313 0.6072886418835157 0.0
7.984023036954866 7.515675826210831 0.0
7.893857204140559 7.681876703427663 0.0
7.778465117872411 7.537836322197895 0.0
7.998204230811618 7.844922503023499 0.0
7.798554315988981 7.858161805718108 0.0
7.917846202023782 8.03040048103727 0.0
8.547520504556728 2.721261126162116 0.0
8.39253850806587 2.732073315877738 0.0
8.306047241032278 2.59069854402512 0.0
8.233011054235162 2.739783364361515 0.0
8.318836035587811 2.879838477099622 0.0
8.159530874574331 2.888511553151382 0.0
8.245490421394788 3.024568439743106 0.0
9.759103003747676 3.077839427881478 0.0
8.083610090773394 3.033523757291178 0.0
8.174562583800352 3.166768504406541 0.0
6.046769434852523 1.155662270344939 0.0
6.968371001421964 2.176347877216873 0.0
8.324858098380334 3.152966249334499 0.0
8.145556596142626 2.609897633546475 0.0
8.970652052821418 7.804556541250797 0.0
9.033737629244714 7.681328986528639 0.0
9.62347010002576 4.796939565664328 0.0
9.72520380348743 4.790261082613535 0.0
4.882631186210167 5.455006233451049 0.0
4.618356368594037 3.933076284395493 0.0
4.748083507220199 4.151025177732873 0.0
4.641724290430313 4.358202249373887 0.0
4.87055838101999 4.337900676660481 0.0
4.974114446887331 4.149149057174687 0.0
5.081577844806959 4.3240148266423 0.0
5.179521650033781 4.148725180298481 0.0
5.276261408871418 4.316673822529601 0.0
5.369189110897883 4.148362797753505 0.0
5.463892033849439 4.338819369807593 0.0
5.550828466075906 4.146274465971151 0.0
5.646554822352869 4.303571429647391 0.0
5.728109623160046 4.138582010823754 0.0
5.821689108984419 4.291959598724587 0.0
5.906082534948073 4.141649907302701 0.0
5.99655838673762 4.288752711512514 0.0
6.077312859438928 4.141011188943332 0.0
6.164215275138099 4.281164574562373 0.0
6.241782344986693 4.140701084167517 0.0
6.324316420613108 4.277393447415522 0.0
6.40284165425941 4.140026953305852 0.0
6.483655157361099 4.273418937894759 0.0
6.561170698911611 4.136221843106807 0.0
6.63512300179586 4.269917278694155 0.0
6.720306110251473 4.133393659385058 0.0
6.63777078218551 3.99617001426095 0.0
6.802492763973074 3.994355399489989 0.0
6.798834760478153 4.276914787769972 0.0
6.15377608509923 4.000134206628027 0.0
6.548727135071258 4.400510710520637 0.0
6.251479300130713 4.421887359316258 0.0
5.275876048175579 3.979624500657822 0.0
5.910905077162284 4.431174408784691 0.0
6.717070288412452 3.851239795555301 0.0
6.883499045994213 3.852555480300214 0.0
6.96664848901999 3.994033961856844 0.0
7.048208567116626 3.854750001965969 0.0
5.810004974283072 3.982497501655442 0.0
5.586615391658107 4.471070246359201 0.0
6.547331954052155 3.853872077215347 0.0
5.179081233207816 4.485638492900557 0.0
7.126615227065496 3.995337770596979 0.0
7.209459742762513 3.856893463870469 0.0
7.130226097876905 3.713620439679428 0.0
6.63075064074106 3.699684148676045 0.0
6.446985573861992 3.697358756862005 0.0
7.043151422977365 4.131713936060725 0.0
7.198322215260019 4.129850614748363 0.0
7.119378405252723 4.26005098890218 0.0
4.797146270976422 4.525762781577414 0.0
4.608329098388589 4.573584257851931 0.0
7.294442092743627 3.720853338661503 0.0
7.215753312764997 3.571378507508807 0.0
7.049631633956289 3.568047985538775 0.0
7.133765707749521 3.414282375958479 0.0
9.755079417839903 5.539705890434435 0.0
9.698955703441971 5.450920012703194 0.0
9.717604099406742 9.09084770432896 0.0
9.276716006673976 5.847248422342224 0.0
9.339081208926798 5.941174203394446 0.0
9.031261921742963 3.750271483819014 0.0
9.08721978689863 3.853416037308712 0.0
4.801461566647803 7.510704110489921 0.0
8.206553504932042 5.818005960412773 0.0
7.362361315389098 3.863102442315545 0.0
9.492826845316191 2.963845037486267 0.0
9.376710375304633 2.97229517374228 0.0
9.3192743723601 3.070687802230453 0.0
7.915389082113898 6.293241865913004 0.0
6.735006382384437 5.832450056405368 0.0
8.456481836836168 4.35369289249905 0.0
8.517718268476031 4.246675068616396 0.0
5.583512022030555 5.411069060406398 0.0
5.73625200174779 5.422617752052123 0.0
5.81006929286229 5.548584937688919 0.0
5.903438861894402 5.420604003204523 0.0
5.43801870974416 5.402925156167655 0.0
7.022641548594327 5.825217331839047 0.0
7.165095795605366 5.826005223633447 0.0
7.223078558430726 5.690146755650336 0.0
7.841396000338385 4.586693006493787 0.0
7.904793170875705 4.690826189066096 0.0
7.785999820520073 4.696719777099973 0.0
7.846448506395101 4.798518978096564 0.0
7.728149182067156 4.803800941124008 0.0
7.788983823826226 4.904802634695232 0.0
7.672018889153144 4.910077510508749 0.0
7.731996012352178 5.014717724244488 0.0
7.852072803124419 5.00743796185411 0.0
7.779278698005006 5.118909346425974 0.0
8.088113864063853 5.605434545811022 0.0
8.016457362785575 5.494849890158723 0.0
8.072290383394757 5.385594956317259 0.0
7.95068657972964 5.38825563681957 0.0
8.309366678475389 1.438342408757099 0.0
9.748160780780179 1.447794693754379 0.0
9.696454228162398 1.337889922375316 0.0
9.568813761940916 1.329560834053294 0.0
9.638326779791626 1.226729570935787 0.0
8.472132467407484 5.182856496818138 0.0
8.066211547412054 6.53691730655352 0.0
8.217035586462373 6.522976700918602 0.0
3.544839338670893 3.324491119989469 0.0
6.999740002965287 5.347729916247808 0.0
6.874544698914502 5.347027470386579 0.0
4.880451234715014 5.193043717957879 0.0
9.104510033763066 9.313204713465637 0.0
9.0466357104558 9.45359399494339 0.0
9.146803165140184 9.569652364413551 0.0
8.134107047896672 0.5527712356100052 0.0
8.369770412730738 0.5571215815175228 0.0
8.47386979744655 0.7564607169846485 0.0
8.585193608569258 0.5749174254532757 0.0
8.683868132726584 0.75505070091701 0.0
8.787381435061018 0.5813987798627239 0.0
8.697570280442534 0.3771156480326233 0.0
8.530048434259976 5.077280516000916 0.0
7.995091351438729 2.90367515012593 0.0
9.731083608815164 1.662638626153251 0.0
7.260488865351954 4.255073962371814 0.0
9.760728358076392 8.990038509880067 0.0
9.716710396257366 8.884160310398862 0.0
8.794627466210242 7.369659405098349 0.0
8.868068657550866 7.515048014893154 0.0
8.702594597629135 7.510501129643432 0.0
5.132320689147051 0.7610757801158905 0.0
9.755852887652699 3.853180024615871 0.0
9.787424819067885 2.757921105725315 0.0
9.731193479931608 0.3736343090103709 0.0
9.796526908308536 0.489684029254899 0.0
8.226019692057042 2.453349105940535 0.0
4.560989821496479 5.428206018250252 0.0
4.348810639659689 5.517048281386008 0.0
8.785190163106925 7.119142251269924 0.0
9.015515413043023 7.464769766852701 0.0
9.754861440190705 3.659036930324926 0.0
9.7543610723378 4.033687839160082 0.0
9.707881226943384 4.127219992296752 0.0
9.52841017383273 8.309020665649431 0.0
9.65186044414544 8.289498614805698 0.0
9.714051275521857 8.173576484362068 0.0
8.209758892476394 8.715513071423135 0.0
8.097084883671858 8.548851201381087 0.0
8.177989947800599 8.367872862579052 0.0
7.974142434808908 8.36779470623567 0.0
8.409012054919861 2.142624252464372 0.0
7.707002321497132 8.039129945341395 0.0
7.574653123518228 7.83895791570255 0.0
9.229858094382692 5.951357214361815 0.0
9.75307989876696 1.229893222503321 0.0
9.715811155868643 1.128779429890018 0.0
9.597960915003707 1.117058287635912 0.0
9.672063923518955 1.020806103150243 0.0
8.99090422125785 9.593878510105375 0.0
8.133165456134304 9.257620998029804 0.0
7.976779931497633 9.420725324095141 0.0
9.77231778617502 7.927819487779705 0.0
7.957213679655531 4.364530256281665 0.0
9.609903116082736 8.403725680286847 0.0
9.724891358972584 8.388392708395173 0.0
9.687487059868507 8.495935345161797 0.0
9.810055520269009 8.494090598382963 0.0
9.755967487162335 8.599790818513082 0.0
9.645698986824481 8.606121319182705 0.0
9.721376049217765 8.699989876681524 0.0
9.773009257015609 4.884557953188837 0.0
9.830105798750992 4.796546393900876 0.0
9.775335108731761 4.686093304257503 0.0
7.455611517737074 3.730099283949135 0.0
8.906943567829634 0.4197477661467797 0.0
8.980613334153533 0.5814185917581446 0.0
9.081059111759728 0.4263421860552371 0.0
9.821654809259165 3.576985724143072 0.0
9.761309244784803 3.4792267780002 0.0
9.763329553045937 9.353068233045157 0.0
4.463051839136694 1.164440352584939 0.0
8.0213168204867 5.283436382300235 0.0
7.89385412333227 5.290429544753158 0.0
5.806940001023414 8.583716119232427 0.0
5.88977793877374 8.96065112858812 0.0
9.177759062826041 8.25539130897928 0.0
9.626582559276994 2.05283181283147 0.0
9.747673294325121 2.064954301745188 0.0
8.775905508647185 6.951821187702613 0.0
2.3581644273991 6.029034686663493 0.0
9.777798009058461 9.548066962498762 0.0
9.737129197219856 9.662299853506903 0.0
9.615080366030512 9.683349544763068 0.0
3.315839678697904 6.042943273456425 0.0
8.915083018115329 7.937748428923896 0.0
9.489832173860055 4.712364754630572 0.0
8.118313727862493 8.013944064029838 0.0
8.902248750797776 7.67372145952523 0.0
8.954075939212636 3.463080912810881 0.0
9.45247551997678 2.133243108303608 0.0
8.311151553157742 8.899233004613622 0.0
3.28672004268868 6.826745674539142 0.0
9.86008383798735 3.468233656255824 0.0
8.389990589860254 1.947086063498656 0.0
7.144231739553659 5.329544660076687 0.0
9.654500729007207 7.743301971143119 0.0
9.761920842881946 7.740144345898896 0.0
9.692820773976567 0.2651585113981998 0.0
9.690951720399688 6.100517071814821 0.0
9.775704281989471 6.077882312279847 0.0
9.823117117198079 4.115168542267924 0.0
9.764391943581737 4.214465954230587 0.0
9.659455011849253 4.218716850797838 0.0
9.713462125022623 4.30742830316693 0.0
9.849638067150842 4.208845651573708 0.0
6.376241713254513 3.858766051594979 0.0
6.274931849158213 3.701528298009006 0.0
7.097780104117746 1.926449727602711 0.0
2.457742027508782 3.810157622192786 0.0
2.963634206580268 3.740748099915693 0.0
5.065585416063965 5.544355730437482 0.0
9.783560252464587 7.566507987677117 0.0
9.825819294611026 7.470942204664841 0.0
9.799976114123012 1.01659516618323 0.0
9.745559590633832 0.9150866860898854 0.0
8.20473400632469 9.495828670767946 0.0
8.784586030320169 2.054461500762216 0.0
8.758471587067168 1.888286802854785 0.0
0.9188935087347281 8.510730800272478 0.0
9.674192026048217 9.20389587377276 0.0
9.796314981283475 9.185916994648775 0.0
7.206882433199502 5.452024361489832 0.0
9.773927048949279 6.334665846819535 0.0
9.830288393591173 6.225300227041885 0.0
8.25177349297509 3.282767705830209 0.0
8.099233469407428 3.304040153764131 0.0
9.607860512870598 4.315652630490023 0.0
9.403674738018715 8.367349042046314 0.0
7.611756786273919 5.018691202305147 0.0
7.549513964643336 4.923310232561835 0.0
9.80986724662116 0.2915868356190958 0.0
0.7757562810577034 3.504187313079081 0.0
7.659562100664981 4.698467529240196 0.0
6.539424975891206 3.541729955691742 0.0
6.717348880400739 3.55221857686142 0.0
6.836337579501807 2.417476958454302 0.0
7.096480496160066 5.959124656438389 0.0
7.189742782777612 4.377051328076039 0.0
7.051723187622053 4.38470822973091 0.0
7.125489805519186 4.497018383456762 0.0
6.994915621927777 4.501504591168814 0.0
7.056755276274058 4.607929817497045 0.0
6.932937068803914 4.613249390039674 0.0
6.86629288290367 4.50541343988659 0.0
6.80427099775847 4.617607827251794 0.0
6.739195362053689 4.511124964201849 0.0
6.677260697693361 4.624288827143181 0.0
6.996760608675822 4.711715831373894 0.0
6.316045249462968 0.6456945497683586 0.0
7.321834163850416 5.816449323512759 0.0
7.833101485370825 4.390058096386987 0.0
4.996572652976738 4.498711166259074 0.0
5.112334577457371 4.663858846723513 0.0
5.271923064784868 4.629759173373871 0.0
4.93773508827367 4.668006487116195 0.0
5.348137647919096 4.485934621930562 0.0
5.413454827497575 4.62999925573761 0.0
5.356581113747675 4.770594395332836 0.0
5.013422223730484 4.793321773780133 0.0
8.58674425943957 0.9312335381466886 0.0
8.776450596582496 0.9362399987293505 0.0
4.783496233934828 9.486061758876032 0.0
4.544176394620909 9.034071856445296 0.0
4.082330493623582 9.015765881393772 0.0
9.820867469965414 7.285959215547852 0.0
9.852697883440127 7.166089674802766 0.0
9.260999083164238 2.971390964911171 0.0
9.197701900169713 3.073162109379564 0.0
9.31960210441945 2.867465579641856 0.0
6.660951583415121 3.383363199709994 0.0
5.210469976037585 4.761678854423166 0.0
6.740780285297665 4.733615686805694 0.0
6.611362405615225 4.731958642073806 0.0
6.549091884465382 4.629620704100811 0.0
6.491761716522486 4.733409494449344 0.0
6.425259228542098 4.640546096196947 0.0
9.715556659367534 2.986725573570596 0.0
3.710524324925069 9.463213827486557 0.0
4.768537031214573 4.727001037865238 0.0
5.039413681704655 5.378508462165627 0.0
5.188746429211535 5.440476671296013 0.0
5.172214816037712 5.298914527247826 0.0
4.469063601436893 3.667917323494335 0.0
3.799121596584382 4.741629285988305 0.0
3.661085664896249 4.442847704416992 0.0
3.316563386321876 4.380147387454913 0.0
3.802087298647255 5.26743535640985 0.0
9.738116341343215 8.047178982429934 0.0
9.85106076399546 8.021725551312715 0.0
9.837581050304836 2.844176011307251 0.0
9.664579962075123 4.402853107737106 0.0
9.76433159763034 4.39807801415352 0.0
9.718924973226878 4.487825491046641 0.0
9.826405563645343 4.494594135148365 0.0
4.931068003413168 6.359330991212394 0.0
5.130175746947236 6.201075257041828 0.0
5.143884286052002 6.445382329515047 0.0
4.953395875296406 6.628748468717369 0.0
7.833019185167153 5.400347121613631 0.0
7.766636138801143 5.313240048256084 0.0
9.767038723422333 4.578090619166644 0.0
7.315369355237483 3.441501197259575 0.0
9.556068971301514 0.2347811136726856 0.0
5.733871280791703 4.444861510772459 0.0
5.828809543126846 4.569791247698539 0.0
5.986701526182213 4.562881783985375 0.0
5.912543327921148 4.692966271273211 0.0
6.052130330528581 4.682477327897978 0.0
5.773525984744635 4.697697018456535 0.0
6.121646311546238 4.572302645403103 0.0
6.182349700936326 4.67713231096357 0.0
5.846371383601797 4.808939734754761 0.0
5.117807918383606 5.974361363083184 0.0
6.256132501905665 4.575863546153224 0.0
6.324770064521816 9.645040261272253 0.0
7.345522892050965 4.12581088034536 0.0
9.338523512844539 4.854480276600515 0.0
9.286984287289403 4.959628690044808 0.0
5.676298026114105 4.589279806918992 0.0
5.631257891894775 4.722749088404111 0.0
7.970415275563177 5.621040275419208 0.0
9.565118337557308 7.081391220827488 0.0
9.626201005045262 6.980441083020495 0.0
9.733729506193331 6.979928568877979 0.0
9.684556253529976 6.887102896543928 0.0
9.780785815410074 6.890287441101827 0.0
9.740054813822885 6.794211367612523 0.0
6.462628988057306 7.629921412015864 0.0
6.692564520952154 7.473594130811262 0.0
6.927983108788191 7.570982428592125 0.0
6.899878641134941 7.329306734748538 0.0
7.117542472438434 7.416951094809493 0.0
7.089537168123128 7.186691566729968 0.0
7.296585396514727 7.275888419524222 0.0
6.879678873774065 7.097443005287856 0.0
7.063454637059129 6.967740076426161 0.0
7.329105042924355 7.496317641003757 0.0
6.867084781778411 6.878842928865059 0.0
7.494278796275744 7.351949197351029 0.0
7.462564159480594 7.150140034494138 0.0
7.644835001206406 7.21506678718646 0.0
6.682478929414216 7.008358327294905 0.0
6.449199855715812 7.365660640952548 0.0
7.548139855358765 7.57299228324251 0.0
7.008502809092701 7.844601794812628 0.0
7.371739019901781 7.707688433423657 0.0
5.665345294602155 5.290628720253272 0.0
3.987583013016546 4.486920698115711 0.0
8.893480480320447 0.7785000884179994 0.0
9.715485963651112 0.5955299613117169 0.0
9.761785841543585 0.7048670948649375 0.0
9.670304314877074 4.578896619304786 0.0
8.058509626083154 5.744161686650483 0.0
6.181795443628869 5.462040811515966 0.0
6.256771804808641 5.338464817889848 0.0
6.124070400983443 5.352376180901929 0.0
6.399679261813415 5.349186390888865 0.0
6.477776305607503 5.46505688468465 0.0
6.541624525938461 5.346017118512589 0.0
6.673064575428321 5.339051516933525 0.0
6.599301548842115 5.241958624987057 0.0
9.573774011620444 0.815274945835158 0.0
5.86493292693426 5.877588788523632 0.0
5.552663040119136 6.957487930464628 0.0
5.535080960199246 6.663033131707637 0.0
3.708603689392072 0.5979254716153909 0.0
3.31896983256719 1.188583855309964 0.0
3.895664898001925 1.128137111173669 0.0
6.363360407965353 6.032416442205533 0.0
9.445959758065749 1.070139246426051 0.0
9.50632172780449 1.214052376665338 0.0
9.441030033980638 1.325047485624912 0.0
9.295799464644857 1.341410624832976 0.0
9.184164107767781 1.461677744200096 0.0
6.407191016756832 4.407273313799791 0.0
5.544591888593027 0.7652641669375747 0.0
7.883090151006535 2.497506182548758 0.0
8.073420508370992 2.120510489750234 0.0
5.494822040671399 4.732314720081375 0.0
0.8986976806403217 1.464611451578306 0.0
9.536325549598013 6.83286654168725 0.0
5.972289519322897 5.727532110854501 0.0
9.82203607053145 9.443411729566549 0.0
7.263199949874008 7.064207941227515 0.0
7.233659553805083 6.853135694774254 0.0
9.793310082768443 7.072747972018893 0.0
6.734168931095253 9.67499220075154 0.0
6.941134861034159 9.382328333169653 0.0
7.285822522704258 9.443989747444657 0.0
6.576263515512108 9.333035011158342 0.0
7.160560566479093 9.127732577621245 0.0
6.218711947378506 9.298064908857533 0.0
6.432383355119106 8.980985203293491 0.0
6.795390278360442 9.046043538032663 0.0
8.54677014121837 0.1957422484480979 0.0
8.528696320820908 9.804850950580938 0.0
8.42644965647489 9.604735484095604 0.0
8.010239224104339 9.715048083583248 0.0
8.644359648763341 9.628432815860457 0.0
5.344212921686536 5.526744195650314 0.0
9.760936589662048 7.38409687515441 0.0
9.128187788393989 0.1445485608215519 0.0
9.133307661752394 9.854833215426817 0.0
4.867351616228264 3.944459575003425 0.0
5.905323253270366 7.385600364255367 0.0
5.909045412185362 3.361969954191194 0.0
5.80580919758911 3.569999290452344 0.0
5.578230704221431 3.587842862412673 0.0
6.013352753603037 3.550699073477782 0.0
5.936624955014758 3.721630401607248 0.0
5.735413275357409 3.78528948606432 0.0
5.512538847486775 3.794760621907932 0.0
5.360571639388366 3.618649018042938 0.0
5.134141179590394 3.459385929220745 0.0
6.167399567008798 3.367365990358096 0.0
9.766756262206602 8.291756450136036 0.0
5.486063578307141 9.64505925252771 0.0
9.497624614180321 4.328873442170357 0.0
9.811387324954623 1.570516917365688 0.0
9.389210081887331 4.69150887571586 0.0
9.704395728912932 3.754226393630331 0.0
9.808172776193384 3.748784464356272 0.0
6.549660911932182 4.839747932361234 0.0
6.757415124099031 6.077939876843736 0.0
3.805578542126494 8.040840085419626 0.0
4.232580149691158 8.198659880701744 0.0
4.559765382564095 7.87091698350757 0.0
8.3829075948167 0.9495097054886067 0.0
9.8571301061408 1.456307792614791 0.0
2.005900212453279 4.535525273813588 0.0
1.85904408608185 3.956445706785572 0.0
1.979307922430775 5.474327285927505 0.0
4.387923194305381 4.427191306527721 0.0
9.429258370703248 8.873693567695483 0.0
8.99196583083892 4.664567567015693 0.0
3.050357122593155 5.368999067452741 0.0
2.861107385476722 5.785089447130829 0.0
5.005058958272409 3.711196438448062 0.0
9.8972295764837 2.755337284632969 0.0
9.581048890980513 8.853909321617065 0.0
9.668838904423916 1.762418716497425 0.0
9.716576458425756 1.852218615166234 0.0
9.799043132681442 1.780583141193779 0.0
7.661868217848455 2.880323287492419 0.0
6.780136552904057 5.443858690999834 0.0
6.489544866845868 5.913957888434588 0.0
6.880149522020364 4.134257616716107 0.0
6.970134365280068 4.264072319341612 0.0
2.225481516813409 9.348422240784 0.0
1.843418032490818 8.641605249943353 0.0
2.198000805242772 0.6459947140825729 0.0
8.740020306282506 0.1903932731609072 0.0
6.86957996016679 4.720776242956433 0.0
7.430920333506809 0.2702852342693345 0.0
7.302066064947383 0.6134316505458445 0.0
9.305398039877746 4.64854361125207 0.0
4.078151380865065 5.203425462519088 0.0
4.080704120371218 4.778853303303787 0.0
8.052525541571825 5.965483159581719 0.0
6.367194027835946 4.754896037842673 0.0
8.604191121620719 7.648182513679963 0.0
9.546446695207845 9.234701521982952 0.0
9.018652854946867 3.351011585453845 0.0
9.143853648154607 3.350173119015413 0.0
9.067079866763024 3.245174561579149 0.0
8.991492136849105 3.135578770028028 0.0
9.29603967712795 0.1426516429033488 0.0
9.392428271030795 0.2506306237151588 0.0
9.223973843394301 0.2912279164401488 0.0
8.39375191941536 3.018777714002827 0.0
8.4836475746111 2.88135207267795 0.0
8.741089053946197 9.821127577434911 0.0
9.803966507713174 5.448064463539533 0.0
9.748132240148552 5.359371181503531 0.0
9.850258990973547 5.355211921626304 0.0
9.7965346514158 5.266762244994661 0.0
9.84142096963129 5.171050273734619 0.0
9.738843612428232 5.167483913244169 0.0
9.64168976006725 5.359875132194057 0.0
3.335917453809221 5.671837672982919 0.0
6.962669142802881 1.683222554707996 0.0
7.365210844496719 1.887492842536114 0.0
7.517378971174123 1.677983072937792 0.0
8.00383870208024 6.089394601875145 0.0
1.725435941000569 2.759295503019395 0.0
7.907977929549089 5.102827208603365 0.0
8.052861051278896 0.2683271125209605 0.0
9.80169732768395 3.385443381464333 0.0
9.831597648680848 3.28491948963525 0.0
9.736335895866404 3.316207814499244 0.0
9.597256128490281 3.756160701977744 0.0
8.865819925321706 3.366235906378775 0.0
8.489614436807788 1.757152185195495 0.0
8.88089641144391 1.078983279100314 0.0
7.430923851187758 9.724389499796425 0.0
7.584252919312249 9.509430586267927 0.0
9.744026095940516 2.247117754488748 0.0
9.729961521243718 2.659836747108116 0.0
9.790866569780063 2.558993767350471 0.0
9.736606445116795 2.455104424879619 0.0
9.846806182714698 2.452157456754448 0.0
4.518102112052724 5.141350889745285 0.0
4.519880229178207 4.85678334497067 0.0
9.7302407894617 6.434012603549242 0.0
9.787537474544765 6.523591663056312 0.0
9.744262337067932 6.617499601377625 0.0
9.8406238811518 6.41591236129004 0.0
8.914967252734657 3.579360039684312 0.0
9.154797282599406 5.670753066089419 0.0
4.228839454580575 4.612979739018002 0.0
6.095037541675208 4.42126627187728 0.0
9.304166983880842 9.864854494751789 0.0
9.406445527105628 9.759007358529582 0.0
9.256225114941945 9.700832989525724 0.0
9.796206564635622 2.351215649506205 0.0
9.849373673349081 2.25090453834006 0.0
6.332048155295931 3.511675163099286 0.0
9.069679774213784 3.022879178706259 0.0
9.070599961450037 9.055284879641471 0.0
1.808685691036764 6.331557276533421 0.0
7.120156826652838 4.698481230214924 0.0
7.052894345811342 4.799848851879358 0.0
4.739957520484086 5.369107149361242 0.0
9.389197839958292 7.197139943834638 0.0
9.046688232613976 4.560364044038737 0.0
9.162685461967492 4.562194096410666 0.0
4.227377821420887 1.564128177298305 0.0
9.201090975245227 2.794301402811909 0.0
9.251941624303948 2.677556975242327 0.0
9.186758273070138 2.563916005021366 0.0
9.317609833868786 2.560335260954038 0.0
6.57599191748324 2.437689779955877 0.0
6.305556560534859 2.459112595979303 0.0
6.981058048792093 2.642476994448363 0.0
9.886113463139504 6.510498309609482 0.0
9.250462794607717 6.221362629571698 0.0
9.305373999084068 6.108271307139882 0.0
9.390477915810829 6.228015172491477 0.0
9.44452571968143 6.114582165110393 0.0
9.502105740270528 6.197677857389309 0.0
9.31559697209813 6.331647407124485 0.0
9.370938253597153 6.437386206819511 0.0
9.594764406124872 0.1099001288712305 0.0
9.602872681151728 9.894988341116305 0.0
9.622661196143387 8.076680696281343 0.0
9.769069277144705 5.9102532189237 0.0
2.615076109785583 8.807551523115547 0.0
9.658920005405456 5.730890135691177 0.0
9.76063135061807 5.720703211793342 0.0
8.63963723169499 7.177334225227945 0.0
7.841904391869763 6.41346852896409 0.0
7.764520718520185 6.297267738834625 0.0
9.546492996136271 3.465225175657335 0.0
9.25600964352143 2.219157062786616 0.0
7.625057159226293 7.012987957636062 0.0
9.529121062829038 7.730283486008674 0.0
8.329887090625894 3.845190321147069 0.0
8.265841850823831 3.95687001944245 0.0
8.402006523775544 3.947660780406651 0.0
8.128436391670505 3.968543393650448 0.0
8.46705122470662 3.835767362024195 0.0
8.218867047074696 4.063481375518748 0.0
8.089763413611255 4.08062363292928 0.0
7.939578083855268 4.111915744184436 0.0
3.74991304509639 6.615676756107112 0.0
2.627714335615619 1.170993030860914 0.0
7.046129971268607 6.759930788612616 0.0
8.534603732661887 7.486325780553722 0.0
1.569381386467569 2.042794535871475 0.0
6.228703743210918 1.986421863690014 0.0
6.467030855792859 2.67190498312861 0.0
9.272246093269825 1.975478263632296 0.0
8.05269609263041 3.854522845257449 0.0
8.008595521536957 3.177870309354594 0.0
7.929796740504207 3.350600835935766 0.0
8.048703574664067 3.449582532910417 0.0
9.72947480375618 4.973926800124758 0.0
9.784850360535604 5.072865219810449 0.0
9.896036387646596 5.069261557893528 0.0
9.633140953203334 5.168645132864771 0.0
9.558102991128836 7.602453108835212 0.0
7.278758746505716 3.994295887299482 0.0
8.306681733482405 6.936428510427854 0.0
9.487163072013963 3.757777670075558 0.0
9.532950522284125 5.359403698944497 0.0
9.816036650072329 3.927268437107025 0.0
6.173882586235392 8.734645960664665 0.0
7.972518459433741 5.003005338485466 0.0
8.398453459336153 1.601072016988848 0.0
8.97460527296194 4.040886705742754 0.0
9.037941657530773 4.143578781749325 0.0
8.849604200183613 3.828506169652706 0.0
9.545296177100065 4.042698359132156 0.0
8.595941796785514 5.806754902023664 0.0
8.65588412428292 5.694192853853139 0.0
8.723710665131787 5.801528918332044 0.0
6.861288985046249 6.673713222735126 0.0
8.87477249219366 4.664500928777609 0.0
8.72385765226959 3.608276264790996 0.0
7.145228858696953 5.573648565429618 0.0
7.282945121585866 5.558559688509987 0.0
9.224761401603633 1.602363370249125 0.0
9.609115686587552 2.986868833620756 0.0
9.633989947851914 6.628120633848649 0.0
6.046214325132457 5.45615093027661 0.0
9.017014346798927 5.271996636983457 0.0
9.070824864071271 5.168510834798647 0.0
9.189021391555556 5.166867900487267 0.0
9.123328759137758 5.064718588163964 0.0
9.240587446378079 5.06459430516883 0.0
9.250848280531756 5.267364371053135 0.0
5.773050603406019 5.7192906317521 0.0
8.576466432793914 4.3559007860436 0.0
8.634627802680399 4.253467736542067 0.0
8.461790117175607 5.591735227444779 0.0
8.907610717370224 3.713397213891439 0.0
9.80665594564509 5.628066492225966 0.0
8.985935132601089 4.455263493464225 0.0
9.00640209566022 5.067597672073404 0.0
9.833659276096986 6.976519563917422 0.0
8.0283368553477 4.687271895436317 0.0
8.326580191759327 9.127498457128247 0.0
8.650637373791266 5.07513089931925 0.0
8.701067313435203 2.700069743477523 0.0
4.825307249916392 4.884175191874744 0.0
9.418335984190309 6.858444798015129 0.0
3.91434687300816 8.542956908935874 0.0
5.569239724399552 2.064135034637056 0.0
5.234271567762738 2.128974435011933 0.0
5.757920427527626 2.312422707096966 0.0
5.43365689737979 2.427455772745759 0.0
5.673210219624612 2.602111218343444 0.0
7.214258468265766 6.652783071431555 0.0
9.823626269633962 4.30685540664529 0.0
7.96996639420014 4.794005510174826 0.0
7.616003332725032 0.502676560965646 0.0
3.050634530589821 4.659174799474146 0.0
2.870894249800723 4.246924313393336 0.0
5.285393339952368 6.079037173753393 0.0
9.439954241218905 4.23581687956071 0.0
9.67709722097145 4.710772408106511 0.0
7.40767785509217 4.259947873553335 0.0
8.396202587439676 5.486075637998701 0.0
8.323689688705493 5.372061002264632 0.0
8.191312386254125 5.384662546230823 0.0
5.304380054816289 5.369675374029755 0.0
9.093848379546637 4.047647920840374 0.0
7.916313220758624 3.045043876114836 0.0
8.435854831444637 4.144861908356168 0.0
9.060262453079693 0.7340576053322918 0.0
7.053195520344596 5.238809779682351 0.0
9.621762679347093 2.45205452967588 0.0
8.410730269104743 5.287995309529392 0.0
9.655094569234972 3.472720279371932 0.0
7.982140513923982 6.667914768024983 0.0
8.402690325256646 4.883576657130221 0.0
9.17488654147479 4.962006474835693 0.0
9.013188196102961 8.49700148123058 0.0
9.795977244531603 2.156818021002043 0.0
9.893813711206834 9.545820400859157 0.0
7.965349232662289 4.250048884270795 0.0
8.644264557989125 4.874751532150782 0.0
8.215430976121077 1.26077208565765 0.0
8.379717637669398 8.37324652769609 0.0
9.320026533461409 5.559861899725609 0.0
7.885778178744864 0.4977439426642278 0.0
7.547066983926719 5.125166613071239 0.0
7.657542898944819 5.122996245335209 0.0
7.423918840193691 9.000935553397358 0.0
9.854133000712425 5.541931969512857 0.0
9.328508174398952 2.101486405523264 0.0
9.300749600926641 9.530012105354274 0.0
8.130307182491519 5.277079344947874 0.0
8.346752967392757 4.987627363826086 0.0
9.118404185029991 6.007087846617186 0.0
9.048232213728614 5.89431792713258 0.0
9.088340967655858 5.576242562571367 0.0
8.094762487139027 4.789727191449318 0.0
9.915265904493378 5.749591413470928 0.0
9.92169805280126 6.154216704502091 0.0
9.918022441582268 4.549125436287157 0.0
9.919332362905616 4.849536560132457 0.0
9.914800786693318 6.750595509794719 0.0
9.811792900437824 6.703950687575952 0.0
9.900643083988882 3.749855087409844 0.0
9.912423171222734 3.043228996968949 0.0
9.91892875832665 5.949999999993851 0.0
9.913300070218703 3.960831593817277 0.0
7.709347001661226 4.444236534782706 0.0
7.479443107717332 8.071637285053104 0.0
8.839057072155848 6.807845119358974 0.0
8.972330068019902 6.78765448182788 0.0
8.542093772125282 3.941452413628317 0.0
8.279144752968262 5.930387616620717 0.0
9.393455876855919 4.973162505621418 0.0
9.507123333872533 2.855087674515822 0.0
8.77504684283825 2.317347145885344 0.0
8.394133129040345 4.464046960801843 0.0
5.725509852450801 8.210843960481027 0.0
5.62632390239664 3.967637659758752 0.0
7.910815814627989 4.900765971697654 0.0
8.595808444085467 5.590040244353608 0.0
9.705160502006024 0.8106158419444889 0.0
9.82021247904746 0.808810893177099 0.0
9.218352146075844 4.447736986422823 0.0
9.20781892622228 3.858281726888132 0.0
8.713609974387523 5.178241668554946 0.0
3.55755059259364 8.921522400238844 0.0
9.59122926011489 5.452844834281716 0.0
9.70565100407009 9.77887811062354 0.0
9.826938454219809 9.74303055702321 0.0
7.238962096855633 3.278078153406256 0.0
8.575609105166194 4.567807831727537 0.0
8.936449841121737 4.765835458965493 0.0
5.59323463391086 9.248527978398117 0.0
5.280809113285124 4.886132326418428 0.0
9.328132730893216 6.544753806716806 0.0
9.026944889277736 6.67247283515637 0.0
9.81946239021469 3.007926663525007 0.0
8.677633568960493 6.144049349297466 0.0
8.33427489656924 4.571212803519522 0.0
8.55734024448315 6.382535186588269 0.0
8.692399379422756 6.372347713955898 0.0
8.495817478252626 6.503308565233578 0.0
9.905494734661673 2.544078755559835 0.0
6.177101405266569 7.228490244483556 0.0
9.825373011845263 5.807482724503027 0.0
9.808678508609606 8.118683092442964 0.0
8.397717712407108 7.08010313863416 0.0
7.428555529689225 4.935946611338556 0.0
9.575504958128711 6.125633853639113 0.0
9.154066996197898 4.146562596982661 0.0
8.074381802159323 4.337569667261167 0.0
7.018337246891919 8.843475095716133 0.0
7.970627172560641 2.658650028065857 0.0
7.382546388883145 6.723381543491632 0.0
6.822972334933889 4.884555620881615 0.0
8.343732976791593 6.041576709398377 0.0
7.743680217306919 8.423336160305476 0.0
8.505717922983454 1.115022897794028 0.0
9.113973198216474 6.992972408167606 0.0
5.818882632841168 5.300437503812764 0.0
5.951991891717714 5.279516346785062 0.0
9.450183479138845 5.92934813870612 0.0
8.783346541536119 5.48419035750989 0.0
9.38074895894124 5.65076274999803 0.0
9.513658728876734 7.193620441323493 0.0
6.396040948797887 6.776064256962667 0.0
5.389661780244388 4.89715084345563 0.0
4.473247649068957 5.85935163892416 0.0
9.249586607512612 8.37680799459232 0.0
9.103796366487646 8.379197231055114 0.0
6.274057301184156 4.87985402946409 0.0
9.259628836118232 3.561431822636308 0.0
4.037922477011971 5.489409780163391 0.0
5.62712958624254 4.893925433488392 0.0
8.806426003347967 6.133410188141932 0.0
9.53304466499349 9.59279975429444 0.0
9.542890959420024 1.966631379116419 0.0
7.459736176874619 5.863847835420528 0.0
5.937613117200432 4.89232797168023 0.0
6.171611131472617 4.879541833448487 0.0
6.100695199816815 2.291172318314745 0.0
2.315194906726768 8.081958163666464 0.0
6.878489987598286 5.148099521847569 0.0
9.105264414399338 8.639184652727645 0.0
9.20047261316883 3.457820810661327 0.0
9.895329010385955 7.55944047105717 0.0
9.912742873006831 7.76210330502246 0.0
9.37761459375249 3.168397068877758 0.0
8.946121261512507 6.345629828835438 0.0
9.918632496443566 4.449809517365367 0.0
6.848211525651934 5.945010613369067 0.0
9.915721525903255 2.047407395915179 0.0
6.117255841708726 5.163321965161054 0.0
7.276595248786602 5.347247322210079 0.0
6.32682869954104 5.23674259421017 0.0
8.785886448438022 5.692775375342819 0.0
9.099994401883361 6.776698531382792 0.0
9.913397459621638 0.2499999999998165 0.0
9.910352525643928 0.4481571029410266 0.0
9.907850422008579 0.5479735220323012 0.0
9.911983631350465 9.24778487019403 0.0
9.917634740384067 0.7514684821956668 0.0
9.195214232985496 3.254172408378337 0.0
5.000896927376288 1.846006038077654 0.0
9.917172478547403 8.250155740683276 0.0
9.908120476950126 1.742986232208194 0.0
9.914524635720774 1.949567899316728 0.0
9.907358878377153 9.145625165175748 0.0
9.917695944922635 8.949999999998397 0.0
7.648387553139914 5.325741673607362 0.0
9.605343588986079 4.130627398479715 0.0
6.648113233057817 6.774798386229164 0.0
9.910347203087213 8.446729917003672 0.0
9.913623694530468 8.548470085896316 0.0
9.9201245863254 1.536225488581779 0.0
9.906538426683255 1.059019360781604 0.0
9.912867352010919 8.74999999999809 0.0
9.799662981388353 8.79550485462418 0.0
9.831828680383174 5.99966894118311 0.0
9.91414179906643 1.263025320602998 0.0
9.920690092699912 7.240982963665807 0.0
9.385889285950551 2.235126904097426 0.0
9.28133998925606 8.00415195851526 0.0
9.817074723108401 3.172398890123306 0.0
9.482030285089927 7.512954023388035 0.0
6.682432918504054 7.233889573028878 0.0
8.528699633246763 3.260502457553277 0.0
8.91699963742029 2.327016692708648 0.0
9.267676068834481 3.954520684561369 0.0
8.70811637467455 4.974101624783084 0.0
8.18184214270768 7.816666208279135 0.0
9.690393137288163 5.264344933127836 0.0
6.937111790104696 5.245184991960528 0.0
5.895846026722989 5.174232967273284 0.0
8.281683356622615 6.400073017261236 0.0
9.150883172924027 7.444273543454419 0.0
5.430406600793122 3.390815886517273 0.0
5.049583827974758 5.697634876048387 0.0
8.3966710383105 3.495813899905868 0.0
9.007538428392454 8.046563579784266 0.0
4.645155158868719 2.637132843684674 0.0
4.887444326771336 2.30020425915506 0.0
6.483736782775559 4.522536327482678 0.0
7.843169154548308 8.2116075844056 0.0
5.06295551628385 4.901632590583318 0.0
7.201400991012747 5.138239336380897 0.0
8.519791031104612 8.848807089071627 0.0
8.658623737989732 3.031313729049854 0.0
7.585566208322493 3.629882964874684 0.0
8.411818469596405 6.834326722716643 0.0
9.172363528634236 7.669230647622864 0.0
8.85455683341768 2.682483055215344 0.0
9.359398739738925 1.631421337140716 0.0
9.071793864444992 7.337030604117359 0.0
6.968394563521436 3.712808894519514 0.0
7.899236117684646 7.094583340182754 0.0
9.54362864504834 9.781852543872333 0.0
7.151298729743687 7.644795130415299 0.0
5.452218361466201 5.186873761308322 0.0
5.517642289161902 5.293540933999446 0.0
7.802500357665464 5.978295671754199 0.0
6.594850839687122 8.491429270558893 0.0
6.029132431949566 8.294997405201931 0.0
9.31286590869111 0.5672913838331921 0.0
9.25238720319541 0.4415953739444106 0.0
9.550589523211062 4.228044955453704 0.0
8.748611832783206 6.250900951984038 0.0
7.566980108995873 3.995148257893202 0.0
7.426142759241261 3.996743578498081 0.0
6.478912513785404 4.000296412419969 0.0
9.30435638148753 5.168210982711592 0.0
7.542154188520517 5.752525075248498 0.0
7.219033852073297 2.139582470800704 0.0
7.370913620388047 6.545121498197235 0.0
5.226731036024996 5.187572666585561 0.0
8.515591031124366 4.462223215179979 0.0
6.762864307079274 0.3078036604979366 0.0
8.587432696997471 4.977010533175154 0.0
8.703948448756302 8.815629076400704 0.0
8.081003990931544 7.370949680119862 0.0
7.424404567669909 6.949730915714445 0.0
8.578903262311433 8.377992954045473 0.0
7.301258690263783 6.106184350645308 0.0
5.991600556904204 3.99820087171043 0.0
8.203048538477193 1.601044215405025 0.0
7.289972483120081 4.572350254111052 0.0
7.714697186439165 5.420586967696794 0.0
8.918853780709807 1.841796898567452 0.0
9.919941345877513 4.749808449067644 0.0
7.245589454939737 5.94251251443003 0.0
9.258480524497795 3.358952871140391 0.0
3.705877615124628 5.574038727593425 0.0
8.287096858129765 7.962370605242409 0.0
6.799629860952143 3.705385600481528 0.0
4.146753450763018 6.544154457143895 0.0
7.413973555029582 5.545687501585183 0.0
8.466524978378082 4.980481756569235 0.0
7.336312153537934 2.337983522449311 0.0
7.695505222753409 3.747498713679684 0.0
4.898236813123799 4.795853653580084 0.0
4.59779105899602 1.896916774247134 0.0
8.560170375862322 7.072369101894893 0.0
8.386150468360862 2.449771437140704 0.0
8.41200018115259 5.084601315536367 0.0
5.102189912301071 7.621598618277815 0.0
8.336320418935243 6.71651223072348 0.0
5.081745734883095 3.977838926197614 0.0
7.63590698378166 0.9500570055008507 0.0
7.743369677149255 3.051233984704873 0.0
5.357527459690566 0.3809996753407537 0.0
5.967373112873382 0.7731113464301924 0.0
8.169449265206127 6.666271947462212 0.0
5.95122726745053 5.55758205410881 0.0
9.922289489207834 3.53923011719877 0.0
9.39154684476555 2.659037023454942 0.0
7.701415639167884 7.690060291860976 0.0
9.819179654793023 1.329863870021845 0.0
8.358229579054417 6.506108206863729 0.0
9.269720555169467 5.657096143475924 0.0
4.473187658045934 7.435037860084884 0.0
9.65807158077373 3.255496360750368 0.0
9.605155446454205 8.713645566904637 0.0
7.097383547728313 5.141197376985936 0.0
9.812212483832656 1.89920712759492 0.0
9.83875570675407 6.81603549325055 0.0
8.926246869879279 2.079976511571457 0.0
9.166785856141402 9.169070814302419 0.0
8.763479010228052 1.587152667342957 0.0
5.957377924852992 6.404530806530254 0.0
7.14506854375872 6.10342416684208 0.0
5.672595070581394 5.164323323112049 0.0
4.899782787268781 0.3801727265981219 0.0
4.447133848117348 4.673614099606824 0.0
7.044865074789195 3.253639989243549 0.0
9.818461337102992 7.819456450952447 0.0
9.925334577033155 7.954012377173311 0.0
6.352907898232792 1.173665225954276 0.0
7.351721385581032 5.660361289755705 0.0
9.337367583861807 2.76534436379692 0.0
8.693118347802024 4.360254099729149 0.0
9.476812970101324 0.3524826622168163 0.0
7.109868985890334 0.9024224571333925 0.0
7.899106846231403 5.511805431542581 0.0
8.352799544476607 5.187887629361129 0.0
6.957483547582747 0.6176251309213842 0.0
8.099559500483094 1.412323841044818 0.0
9.913030944540278 0.8542404645334569 0.0
9.143075088381442 8.022165366829135 0.0
8.819861450593166 6.356592599428041 0.0
9.319444417409162 1.49938505915629 0.0
6.490262520326714 7.118204362551877 0.0
6.490874470087819 6.582907761235813 0.0
9.82506653058937 0.6146757679104559 0.0
6.803129818897624 4.419048038171804 0.0
9.840901379354312 0.08198751964190581 0.0
9.839740374244226 9.918356239418472 0.0
8.551927134544655 9.449788917425456 0.0
9.92097857388158 3.249999999993177 0.0
5.797087413057367 7.077351493358238 0.0
9.255412859987286 6.433984412022419 0.0
8.668174522249984 1.740767926084485 0.0
9.920991430240607 6.25262219124529 0.0
7.57275248448898 1.94367954756322 0.0
8.052865444445507 8.19900054463639 0.0
8.748697149245206 4.25201068974208 0.0
9.158270227735827 0.5542256343091421 0.0
5.997487767477439 4.787924707603557 0.0
6.119759900601896 4.78043793682227 0.0
4.353034750397793 8.619182743639561 0.0
8.721093521611476 5.588932824583312 0.0
5.717101151444983 1.123034066822819 0.0
9.825602081347064 8.68753399402474 0.0
8.005502510832988 8.7824052910506 0.0
5.548184234622668 6.408009287230429 0.0
5.77830300433981 6.598697187164234 0.0
9.613093825495433 4.50282172481406 0.0
9.928981132641653 9.74928475696928 0.0
6.613628176297015 4.515513362596662 0.0
1.822126723816303 1.297795131355289 0.0
9.514164594137375 1.43081427463862 0.0
4.735494753432723 3.698541604583975 0.0
9.52844959749262 8.615213629960298 0.0
4.660704511759056 0.7947595073298008 0.0
6.82340845160293 5.239926830264399 0.0
7.885938077030673 7.380147032865134 0.0
7.884599891021201 6.09005968568029 0.0
8.846834820720167 9.653276456345532 0.0
8.457777199486827 0.3851010632068662 0.0
6.66485224572131 8.771510767670392 0.0
9.091499342133352 9.708315832477556 0.0
9.824286725109655 4.976315293637262 0.0
7.848197684391786 5.632217046637356 0.0
3.88430598115417 4.225391362015386 0.0
8.776890759183289 2.809688928468134 0.0
7.393884285023409 3.59397875231041 0.0
6.927568893329758 4.396788356869783 0.0
4.96854327720728 2.662368428358774 0.0
9.1480130720193 3.951479613991279 0.0
7.071049729490975 2.38092990636632 0.0
3.40193058782919 1.686321186206593 0.0
7.612042194200681 4.815904436723407 0.0
9.043395868401339 6.888481825015849 0.0
9.098933057562759 8.152197681006806 0.0
6.058682303253315 3.857501492181965 0.0
3.707092669281355 2.986685502034343 0.0
5.113272509841263 5.189455016444592 0.0
6.960565857079232 3.416349532571279 0.0
8.755151527375476 7.649255597361291 0.0
3.393680865444538 3.679982303262531 0.0
3.117424600120088 3.35605258976247 0.0
8.530814041264104 5.488376426140491 0.0
4.820719767306654 5.106646490188182 0.0
9.918899263509473 4.144927088739744 0.0
9.918194630017027 7.447268230913605 0.0
8.461970084137805 3.144844565847669 0.0
9.924415919486059 6.949999999995354 0.0
7.184050152099684 2.72771667662237 0.0
8.834356715215904 7.801565642745232 0.0
8.689015446783005 4.145232831954543 0.0
8.490778532265319 8.234414357968106 0.0
8.63666290918932 2.83060276219705 0.0
4.61028976098935 4.741894230894578 0.0
6.314735925012879 4.003132559161639 0.0
9.20786580425652 4.67001723737971 0.0
7.141401229301469 4.873205425098625 0.0
6.235177809922153 4.774126344778935 0.0
9.12491895896937 3.145675090615719 0.0
9.255747684068178 3.162525801823036 0.0
8.312852272796098 2.290855459722148 0.0
1.449266720542303 3.363629101350872 0.0
9.525687840398492 4.800807314407045 0.0
4.829905263804087 8.14474456977717 0.0
9.09338914689732 7.563794106183232 0.0
5.389401689694107 5.283808684471545 0.0
8.530979415204587 3.029374286908943 0.0
7.901489077080633 6.535344047486632 0.0
9.218572924671975 5.760893551533255 0.0
8.562382833959296 4.143913974026883 0.0
8.62959127904665 8.974877485888243 0.0
9.408442441596518 9.62276529745719 0.0
7.5034765601713 3.869833107932387 0.0
9.842813436634783 6.600620949014236 0.0
9.826116984327193 8.911617279149695 0.0
7.529907780698261 0.7369111006685982 0.0
7.832164962480427 2.905293639437395 0.0
8.39517908433056 3.267417602291069 0.0
9.823014010107707 9.085319632577246 0.0
9.022314123618541 3.944559746338292 0.0
4.243701230676532 5.332574856090426 0.0
9.816740542566388 1.127839952679595 0.0
8.166775715766304 5.693916696568397 0.0
8.865374421689054 8.068986769641638 0.0
8.761145809863661 6.470583506581853 0.0
8.998345275919851 9.209303502026401 0.0
9.698477487436316 6.706902829754045 0.0
6.439032098063426 0.3109134377713525 0.0
7.562681994382136 4.643158005207056 0.0
9.03999088074715 0.2799354672273258 0.0
5.180741540467516 3.805018725608906 0.0
6.243990330956698 2.718077286244967 0.0
9.79416634023361 0.1815240178579244 0.0
9.926540005061975 2.847049370876555 0.0
9.826476210374608 2.670192168078066 0.0
6.365816673179121 4.536333049275508 0.0
5.546353765219417 4.618331215552614 0.0
9.820703096450293 2.000649418331399 0.0
6.884388790679166 3.561583980715254 0.0
7.431303395649604 5.747824222777201 0.0
8.849816832721245 2.19318290395604 0.0
4.185147517585975 5.697469360586313 0.0
9.165905238119013 5.873664931582344 0.0
7.70479478158537 1.788324620089049 0.0
9.627376046933474 0.9196091445437269 0.0
6.657687963328663 5.144792385996769 0.0
9.83245016645186 0.3925568446109945 0.0
7.483092985762584 9.253837199159435 0.0
5.445348362202234 3.977855663863651 0.0
7.476680532833337 4.837183287808616 0.0
9.572749890969304 8.505160319814301 0.0
9.915853314998252 9.437014513917465 0.0
7.679469018350979 7.390484878021194 0.0
9.418139053434402 4.790576000488359 0.0
8.096967733471567 5.865447162201908 0.0
9.829153508938724 8.378494945652118 0.0
9.926595955569645 5.157718300415699 0.0
8.774484245600224 7.939747459426853 0.0
8.629764448155779 6.481031318922794 0.0
8.961169458302376 3.839036702328818 0.0
4.617199205561317 5.256318959792646 0.0
8.480815774219478 4.031210317621497 0.0
9.708341592512763 3.401018043990571 0.0
7.183974816647467 4.77882314543966 0.0
9.821437962294304 7.659391965474772 0.0
8.150320284869602 2.286501016204562 0.0
9.828114434347311 1.684891358832554 0.0
5.349187766238684 6.538177907133678 0.0
8.076053471314525 2.76180604769483 0.0
4.907713691134565 5.29818629967416 0.0
0.6874399366049438 4.328593906714074 0.0
0.6980011780697519 5.702671170050627 0.0
8.263861466707834 8.182284285231713 0.0
5.838783785156478 4.913981390426639 0.0
7.807619472656604 7.235706382002089 0.0
9.388504256318683 6.022122644748753 0.0
9.929839894767033 6.436189192303577 0.0
8.3205848711706 3.39107920408397 0.0
3.240770542267401 4.019899919523968 0.0
8.059047070496568 2.468855909103855 0.0
9.932479519490421 2.449625056415224 0.0
7.737639000139152 4.580708137963557 0.0
8.26141077223695 0.3940397126348397 0.0
9.69568953371801 1.959951226402445 0.0
6.469120930453264 4.892267070266994 0.0
9.167223997255698 0.8102256463122337 0.0
6.236889648241256 0.9291076084031108 0.0
8.306379082772498 5.268830342852036 0.0
6.716089118890225 5.239344620507032 0.0
9.82511981852641 9.282822358664017 0.0
6.68375719572285 4.404998642130821 0.0
8.913754712375674 6.908138360584365 0.0
6.173250048857013 5.251634416326969 0.0
4.235907497612446 1.924052997345291 0.0
5.151007663981651 2.438629730660893 0.0
8.924254300637541 9.3764975797567 0.0
4.438612423541503 5.287968640901957 0.0
8.571203234299599 1.897009944569934 0.0
6.878800676380218 5.821332862798138 0.0
5.710626178601224 4.792560699857408 0.0
7.149510071621283 5.216310009157644 0.0
2.099966541549645 2.334742113488256 0.0
9.93396330620579 5.350566393301629 0.0
7.143046479323961 8.646955109387985 0.0
7.965747313080266 5.193641450105844 0.0
6.3314394693073 5.135050228240639 0.0
7.665821333021348 6.222698255001823 0.0
6.305321657053551 4.659816230868476 0.0
7.833020917089713 5.208837056143474 0.0
9.41455902676429 2.869725681199307 0.0
8.567151507735133 6.598605357295113 0.0
7.405527786978573 4.377085529441429 0.0
6.552969697053132 5.137148974085434 0.0
9.93630620742063 8.042778076596578 0.0
7.166743296019233 4.593171678848165 0.0
6.595561806063966 5.839366735225723 0.0
6.066152182102007 5.262519562574559 0.0
9.834694151277489 0.9093455747994099 0.0
8.98259191950674 7.579732466796592 0.0
6.465071238839505 5.25485771955322 0.0
9.759759896588413 3.236659507608532 0.0
4.775529448101694 5.224235675150505 0.0
9.935991245222917 7.153416415978829 0.0
0.6530736820718381 9.352299998916202 0.0
0.6449439415299687 0.6468300344151556 0.0
7.804690364869245 4.495816547678174 0.0
9.84503784553893 5.70620404704573 0.0
9.83525329400959 3.826992990746767 0.0
9.922964894244684 4.265000406933376 0.0
8.333767638401964 1.121219971446645 0.0
8.876012546033895 7.019147158538482 0.0
8.172413577824324 3.413096916572049 0.0
7.232233017296214 4.478957103028363 0.0
6.214597295185415 3.852860083673202 0.0
9.85013791746415 4.400709747289421 0.0
3.941627380932058 6.342995010255737 0.0
3.097271569675528 8.77391871286929 0.0
9.292917152323044 6.010976049411984 0.0
8.104342196673183 5.184165973282902 0.0
8.994300084006271 3.652611812846807 0.0
9.937157897030163 5.549999999993244 0.0
8.721368888525245 7.274540720770752 0.0
8.920003648712827 0.9516585309368178 0.0
7.910527456030004 8.536826514867816 0.0
9.846441288756814 4.60515911863952 0.0
9.584942233925151 4.712073182517884 0.0
9.642357858573972 6.805672051759494 0.0
9.797024725252207 9.838837222258014 0.0
9.842451438022124 4.018973836958878 0.0
6.112723137676118 3.704473949316424 0.0
7.574641969193845 3.765362276156904 0.0
7.826594968121701 6.200366572362263 0.0
7.762805366733504 9.34009502796868 0.0
9.56854033867856 1.012566255816665 0.0
7.71256563655353 5.219373702836014 0.0
9.68039392238282 8.786964504862018 0.0
5.910362452777086 9.277662068919813 0.0
7.418090653922814 3.326443419100716 0.0
9.857704179097952 4.697553149694669 0.0
8.452469674653342 8.996585816905599 0.0
9.522351366699843 2.057525484575908 0.0
7.802315574700843 9.548878971475935 0.0
9.938875656926385 3.449999999992592 0.0
8.425189037911712 6.608575180629274 0.0
5.925965231566842 2.523669697740033 0.0
6.654918072256329 5.95749128982984 0.0
9.826748589235729 9.631118448471485 0.0
8.6684585637523 7.39633999085442 0.0
9.844673843931567 3.090088625379724 0.0
9.93613850661301 2.250382721159617 0.0
9.218291993658738 2.892108990205171 0.0
9.83502846611296 8.212781989607324 0.0
7.754136409732265 7.104288507262783 0.0
8.510570542791681 2.036933285735889 0.0
7.757745059307245 4.315798612475442 0.0
7.989231770559189 6.201656630465583 0.0
8.068934521422738 4.198631572122605 0.0
4.957478134450373 9.038766150325067 0.0
7.208661142641733 6.501402463831379 0.0
7.299506095906239 4.363561999234681 0.0
8.250303873550486 2.105322217421675 0.0
8.678637541413377 7.053471135702286 0.0
9.761528395137384 6.163503990672834 0.0
9.84494857233395 8.59999999999775 0.0
9.83825138794677 3.672838954969637 0.0
5.121008544047756 5.808127183024784 0.0
8.343911550360986 4.043535893276861 0.0
9.85324441775315 5.899999999993774 0.0
9.51114465213134 8.41035540646284 0.0
6.505812179224195 6.93390566262983 0.0
6.15572847138365 9.023097246950844 0.0
3.352081892333425 3.024853379890529 0.0
6.433163283162099 8.675072413910678 0.0
8.825744236698243 3.624446391299867 0.0
4.883007294861279 7.819620905924936 0.0
5.876659170760434 5.638247433601083 0.0
6.859400040348503 6.510797998354633 0.0
7.946400945409184 3.500317276373196 0.0
7.496830255505493 6.653194511698024 0.0
9.852183479755313 4.891525833556942 0.0
9.77998778436291 2.922486526124376 0.0
6.774672660492365 5.324728659740495 0.0
5.717254072187427 6.824125962512845 0.0
9.713440940838062 4.63793103997539 0.0
8.859858662536796 0.2721395536350836 0.0
8.37556017530946 9.436653414116012 0.0
7.395237381047616 7.885576562773319 0.0
5.4709157802033 4.511152089197594 0.0
9.489749416979361 9.691840729914848 0.0
4.599216022837964 3.46438688931078 0.0
5.572287492757569 4.807021644849729 0.0
9.926499336309957 9.92730688390086 0.0
9.926499336310107 0.07269311609890093 0.0
9.338127766332573 0.3585313952168247 0.0
6.810761948165162 3.414693294319008 0.0
8.166274345037138 5.943611545564389 0.0
5.2892644736731 6.301081312912763 0.0
9.731911074791544 7.649313380659622 0.0
8.90251102352767 9.50983415326544 0.0
8.997881406541017 1.033666784655452 0.0
5.835124768755703 2.738139962594905 0.0
9.665357480775825 6.185331297099201 0.0
7.656532192558493 8.217157287499347 0.0
9.170463887605525 2.975444721032631 0.0
4.208158615905443 0.8648302238584886 0.0
6.97015686031129 5.933674629077266 0.0
6.181941366523793 3.565885175921835 0.0
3.30313590337911 6.393402837735046 0.0
6.447482061767014 4.816169316820496 0.0
8.185341428749446 4.169172087371246 0.0
4.552595724340015 8.298301336212145 0.0
9.84850676569699 8.999999999998423 0.0
9.846941514449377 7.393642828194986 0.0
7.924592433490734 2.788309934035703 0.0
8.154308714226714 8.853640122009672 0.0
8.876629743004642 1.96110242719995 0.0
7.228849192966834 8.90811350348676 0.0
9.852301635085423 8.296637825215246 0.0
5.219795195341889 5.547413133147649 0.0
9.861497117995457 6.901363010201344 0.0
2.953911258021604 6.136007283255669 0.0
6.93158841067062 4.77708273647784 0.0
9.67540418457871 2.912802891506324 0.0
4.194055958522277 4.437353127730132 0.0
6.133959559341536 0.406856611599261 0.0
8.29952795189331 9.309744645643846 0.0
9.843692337952948 1.209647690818311 0.0
5.164986286280336 6.671544079402435 0.0
9.838533350075606 2.081705440779448 0.0
8.301244777513975 6.604088853319459 0.0
5.471494771710784 2.714598185146428 0.0
8.86534684892311 1.208599471795828 0.0
9.940610684232212 1.451558535868664 0.0
9.40896208432968 1.428353940655538 0.0
2.329177605337097 4.238803555614174 0.0
5.980761651517799 7.182207186682233 0.0
9.66541573964336 0.1719254072074424 0.0
7.220979380229172 7.806128737674462 0.0
1.251721227904697 6.151932667911503 0.0
8.104967286191181 6.057912607875576 0.0
6.650768762224724 4.817922869198292 0.0
6.634976350437587 3.213339182992986 0.0
7.034320437500567 4.898219100342838 0.0
9.502772020064167 6.283064492634301 0.0
8.13187938667684 3.518506862055515 0.0
9.855471943454193 2.599999999994991 0.0
9.056747742708522 8.263936599935574 0.0
4.352645795441222 5.724453640019 0.0
3.744263984699181 1.488951698361357 0.0
5.175860134287045 3.6375726667098 0.0
7.736434712114619 6.400417475661193 0.0
9.857658576695343 6.316607183405179 0.0
7.876525261950537 4.304285002335559 0.0
9.856114384785611 7.914602773442983 0.0
9.848334119947063 0.7059644476295188 0.0
9.59694321995579 6.895814046141667 0.0
5.906465212962551 3.869023950643881 0.0
9.840676994268005 9.364956386459765 0.0
5.355015287544095 3.83518170601625 0.0
6.374090407153147 5.855743754257685 0.0
8.227401290513832 5.297819733684674 0.0
5.451235131977493 4.825706629991923 0.0
6.022070213762754 5.355923882747634 0.0
9.845674433677614 6.108401449483281 0.0
9.835067400944396 7.739582406783081 0.0
8.602026805792988 2.941372356914139 0.0
5.059869081004962 5.269480960018243 0.0
5.284714507903736 5.26496663762182 0.0
9.627110479149561 7.660076105040499 0.0
6.820001127809743 4.792514421153957 0.0
5.120512795059439 4.806607659110254 0.0
9.56933817216883 2.911464407429096 0.0
9.74091654291531 9.267545397628387 0.0
9.93006767325302 6.576784040838644 0.0
9.642486276936268 4.650227701598451 0.0
5.185183328569137 9.410919109238325 0.0
9.37052946854105 4.605636695802024 0.0
1.677077220416309 5.871167715901136 0.0
7.345783833404538 3.184020711886284 0.0
5.419239942654976 5.982692039856376 0.0
6.133318300188262 2.551919945731369 0.0
6.187291396343277 4.499077117404439 0.0
1.231465237822878 3.921479198315213 0.0
8.969849937139944 9.699215363213542 0.0
9.218303154263054 6.037447959776716 0.0
CELLS 4886 19544
3 1113 1356 1450
3 1402 231 1659
3 272 269 1414
3 396 394 1777
3 1451 945 1452
3 194 81 1801
3 1847 1501 2104
3 2024 2121 2479
3 1115 1113 1450
3 1124 1413 1844
3 1061 1955 2409
3 307 305 1645
3 1592 1369 1593
3 238 1501 1847
3 1955 1883 2409
3 1808 243 1910
3 1885 978 2362
3 1440 793 2092
3 189 1488 1608
3 353 350 1864
3 2007 2231 2232
3 307 1645 2493
3 1096 1760 2496
3 2178 874 2179
3 621 625 1595
3 1493 1480 1938
3 1655 1268 2137
3 1341 1410 2212
3 243 1808 2360
3 1902 1446 2516
3 1760 1096 1763
3 856 790 2180
3 2008 2046 2105
3 789 1809 2067
3 694 1543 1575
3 1127 1762 1953
3 1748 807 2228
3 1543 1308 1575
3 820 1872 2170
3 1417 954 1998
3 1369 1592 2386
3 272 1414 1787
3 329 333 1998
3 1544 1095 1545
3 2231 1490 2232
3 1342 1683 1790
3 374 377 1797
3 807 1678 2228
3 1665 198 2128
3 141 142 1620
3 325 322 1952
3 231 1402 1654
3 198 1665 2010
3 1890 1307 2387
3 208 1438 1619
3 2016 1970 2156
3 1436 212 2020
3 954 1417 2333
3 1736 1894 2244
3 1491 1750 2143
3 1677 1064 2146
3 1474 1258 1475
3 1500 233 1930
3 1446 2415 2516
3 1700 973 1800
3 2128 2270 2316
3 1316 1315 1593
3 1307 2341 2387
3 2258 1324 2328
3 1083 1507 1508
3 693 1095 1544
3 621 1595 1596
3 667 1571 1872
3 1932 1766 2061
3 393 391 2240
3 1342 1790 2400
3 252 1707 2234
3 931 978 1885
3 1430 1116 1704
3 1411 1109 1714
3 1478 1227 2440
3 1990 195 2297
3 1792 1167 1985
3 1682 444 1975
3 394 397 1777
3 1711 2028 2162
3 1574 856 2180
3 2008 1851 2046
3 736 1493 1938
3 1069 1060 1662
3 1458 455 1754
3 862 691 1705
3 1161 1642 2286
3 1699 1700 1800
3 447 516 1637
3 955 1482 1483
3 2024 206 2121
3 391 1773 2240
3 1072 1412 1893
3 212 1436 2350
3 1566 1365 1568
3 259 1441 1672
3 872 870 1764
3 330 328 1889
3 1539 1161 2286
3 1897 1898 2275
3 1434 1990 2297
3 1109 1411 1730
3 319 307 2493
3 1762 1761 1953
3 1369 1316 1593
3 1540 834 1832
3 1505 652 2442
3 1732 1655 2137
3 921 1712 2295
3 1872 1388 2170
3 1712 921 2125
3 2028 244 2162
3 1506 1570 1680
3 1569 368 1964
3 1571 667 2375
3 1587 2178 2179
3 196 1723 1737
3 524 2016 2156
3 1528 1250 1733
3 1115 1450 1973
3 1938 1480 1971
3 1809 1396 2067
3 1641 249 2299
3 1223 1258 1474
3 1365 1566 2120
3 1981 962 2316
3 1538 353 1864
3 455 1458 1756
3 152 233 1500
3 1116 1430 1703
3 817 652 1505
3 1347 2003 2004
3 1607 1958 2085
3 194 1801 2195
3 1410 1341 2351
3 223 1415 1710
3 197 1511 2346
3 2198 787 2225
3 81 82 1801
3 1438 208 1620
3 1444 522 1823
3 1511 197 1950
3 726 718 1567
3 1637 516 1739
3 1708 2337 2341
3 1280 1649 2124
3 2337 1395 2341
3 1327 1709 2315
3 1225 1227 1478
3 691 624 1705
3 476 2224 2305
3 830 832 2204
3 1750 1491 2403
3 1366 1897 2275
3 2345 1583 2352
3 2054 405 2110
3 1984 2172 2230
3 1846 2198 2225
3 1177 2042 2418
3 2121 1367 2479
3 1527 1531 1541
3 916 1039 1834
3 1413 1124 2467
3 1622 1503 1868
3 249 1641 2019
3 1805 405 2054
3 1761 1007 1953
3 1415 223 2395
3 960 1756 2203
3 368 1569 2135
3 1402 1659 2473
3 941 1433 2471
3 1267 1477 1501
3 260 2002 2265
3 1704 558 2077
3 2224 1886 2305
3 2053 1386 2199
3 1452 945 1952
3 1717 1611 1718
3 1682 1975 2230
3 1760 1762 2496
3 1481 203 2104
3 1264 1266 1670
3 142 236 1620
3 2133 1182 2179
3 1791 1602 2183
3 350 346 1864
3 1412 1072 2393
3 1281 1575 2255
3 1565 1948 2155
3 849 1449 1513
3 1958 396 2085
3 1339 1069 1662
3 834 1540 1917
3 269 267 1414
3 1268 1267 1501
3 1440 2092 2468
3 1399 1981 2316
3 1635 1636 2041
3 1454 252 2234
3 1451 1305 1890
3 1375 1883 1955
3 362 366 1786
3 1484 2410 2528
3 1449 849 1640
3 1267 1474 1477
3 200 1611 1717
3 1054 1581 1582
3 1350 1977 2253
3 190 1390 2118
3 788 1956 2193
3 1709 1327 1888
3 2233 2298 2413
3 1488 189 2355
3 478 1685 1714
3 230 1525 1690
3 1687 478 1688
3 427 429 1756
3 1570 1065 2476
3 1880 1133 1988
3 1649 656 2124
3 1537 209 1614
3 1134 1769 1986
3 1220 1268 1655
3 396 1777 2085
3 1167 1755 1985
3 2229 1744 2296
3 1575 1281 2287
3 127 240 1882
3 377 647 1797
3 954 329 1998
3 220 1697 1698
3 1342 1341 2212
3 1441 264 1672
3 1512 188 2433
3 763 2345 2352
3 1685 1411 1714
3 1805 1188 1951
3 1347 2004 2157
3 1054 1582 1667
3 1333 1617 1674
3 2217 73 2361
3 1539 1036 1917
3 1039 1292 1834
3 208 141 1620
3 1965 1964 2038
3 693 1544 1969
3 1453 239 2279
3 203 1481 2049
3 945 1451 1889
3 680 1459 2134
3 354 2147 2196
3 1405 1932 2061
3 1723 1722 1737
3 1748 1175 1927
3 1532 1528 1733
3 2057 1824 2154
3 1406 1659 1702
3 1948 1186 2155
3 210 1598 2114
3 1685 478 1687
3 1324 1325 2328
3 1526 1250 1527
3 165 166 1509
3 1493 736 2523
3 1526 1527 1541
3 1390 190 2417
3 522 1444 1998
3 1680 1570 1732
3 1017 1442 2525
3 374 1797 2430
3 1507 1083 2197
3 1756 960 2221
3 2270 1400 2316
3 2205 1452 2282
3 1074 1187 1888
3 2158 1245 2200
3 1442 1017 1684
3 864 1116 1703
3 1750 1751 2143
3 1456 516 1492
3 1677 2146 2149
3 2022 1339 2388
3 1602 258 2183
3 678 1594 1595
3 1245 1670 2200
3 972 830 2204
3 2143 983 2342
3 1268 1501 2226
3 1266 1461 1670
3 1487 222 2465
3 1382 2022 2388
3 58 59 1661
3 2147 1543 2196
3 1484 1485 2410
3 628 2053 2199
3 1906 1549 2259
3 364 362 1786
3 1339 2022 2247
3 1636 525 2041
3 625 678 1595
3 678 1593 1594
3 2212 1410 2222
3 1837 1865 2215
3 1699 1800 1801
3 866 864 1703
3 893 1472 1982
3 1735 1736 2244
3 1633 1255 1922
3 126 127 1882
3 681 867 1656
3 1351 1401 2363
3 11 228 1588
3 1127 1953 2454
3 265 266 267
3 1722 1122 1737
3 1389 1691 2069
3 1613 1610 1616
3 1227 1256 2440
3 429 455 1756
3 1535 1177 2418
3 322 324 1952
3 973 1700 1802
3 1964 368 2038
3 1176 1865 1866
3 1096 872 1764
3 1176 1866 1875
3 193 1839 1892
3 156 157 1441
3 615 617 1596
3 686 1520 2480
3 1409 2097 2305
3 2410 1151 2528
3 1427 2217 2361
3 440 1911 2314
3 1744 1743 2296
3 516 1456 1739
3 1939 589 2164
3 690 931 2150
3 1062 1579 1580
3 1054 1580 1581
3 955 1483 1716
3 1064 1677 2248
3 1956 1616 2193
3 1776 1893 2026
3 1398 1115 1973
3 2002 1453 2265
3 1541 1531 1542
3 216 2191 2536
3 1736 1326 1894
3 1065 994 1066
3 1598 2115 2175
3 2314 1911 2358
3 1433 941 2042
3 2115 1209 2175
3 717 1550 1551
3 188 1941 2433
3 267 1132 1414
3 771 1569 2064
3 1157 1545 1546
3 1231 1250 1526
3 1933 240 2181
3 222 1487 2025
3 1525 230 1765
3 1430 1704 2077
3 757 1744 2495
3 264 263 265
3 883 773 1917
3 739 2205 2282
3 1667 1582 2434
3 1744 757 2474
3 239 1453 2002
3 1441 259 2356
3 2005 1443 2012
3 254 1766 1932
3 1509 166 1679
3 1477 1475 1481
3 793 1440 2165
3 1385 1523 2377
3 1481 1475 2523
3 156 1441 2356
3 1066 1220 1655
3 945 325 1952
3 2094 2087 2134
3 1747 1175 1748
3 253 262 263
3 1327 1074 1888
3 718 715 1567
3 2046 1043 2105
3 240 1933 2399
3 1305 1307 1890
3 224 58 1661
3 1195 1566 2285
3 1590 1393 1749
3 1255 1230 1922
3 353 1538 2073
3 358 1999 2325
3 882 1802 2036
3 1024 1020 1604
3 333 522 1998
3 1401 1351 2414
3 1475 1258 1476
3 2310 786 2364
3 328 945 1889
3 807 1748 1927
3 825 724 1912
3 1742 263 2491
3 267 266 1132
3 2077 2102 2203
3 1431 1432 1860
3 1212 1957 2312
3 2097 476 2305
3 1132 1402 2473
3 717 713 1550
3 1746 693 1969
3 1372 1124 1844
3 1256 1541 2269
3 1977 1350 2274
3 2332 1978 2443
3 874 2133 2179
3 1983 1534 2171
3 1157 1544 1545
3 1230 1228 1922
3 1580 1579 1581
3 1565 806 1948
3 1416 1363 2413
3 1287 1995 2398
3 265 263 266
3 1534 1529 2171
3 1604 1834 2428
3 1255 1633 2509
3 1344 1643 1644
3 1332 1388 1571
3 1423 217 2217
3 2191 1057 2451
3 458 447 1637
3 1250 1233 1733
3 472 2212 2222
3 1175 1747 1840
3 1652 256 1653
3 1073 1347 1572
3 200 145 1609
3 683 640 1585
3 1116 862 1705
3 1221 1223 1474
3 1778 801 1803
3 1503 1622 2471
3 1475 1493 2523
3 464 680 2134
3 14 210 2114
3 579 1880 1988
3 1434 1435 1990
3 1447 2310 2364
3 275 274 276
3 2294 1871 2419
3 814 1068 1684
3 1172 1439 2273
3 273 272 274
3 1363 1416 2406
3 1220 1219 1221
3 1060 1656 1662
3 1099 1792 1985
3 2048 1198 2168
3 1241 1245 2323
3 699 723 1753
3 1640 1862 2070
3 910 1018 1584
3 1586 1067 1587
3 1656 867 1662
3 1067 686 2480
3 654 2242 2294
3 1593 1315 1594
3 1880 553 1974
3 236 1717 1718
3 617 621 1596
3 1723 196 2313
3 402 1877 2116
3 273 274 275
3 2202 1869 2252
3 1510 1358 1767
3 193 1892 2373
3 1188 1805 2054
3 1220 1221 1267
3 1066 1218 1219
3 1517 1097 1518
3 1677 1676 1858
3 686 277 1520
3 268 267 269
3 697 857 1592
3 220 1698 1699
3 1802 1700 2036
3 1612 1537 1614
3 929 817 994
3 228 12 2136
3 2110 2116 2482
3 1659 1658 1702
3 1611 1613 2280
3 1344 991 1643
3 683 1585 1604
3 1638 1358 2404
3 1485 1034 2410
3 2214 833 2424
3 271 272 273
3 1482 955 1962
3 1066 1219 1220
3 931 1885 2150
3 1613 1891 2280
3 1189 1589 2204
3 1566 1195 2120
3 726 1567 2490
3 1122 1722 1874
3 1494 319 2493
3 1671 259 1672
3 1267 1221 1474
3 603 528 1591
3 1664 2128 2316
3 1817 1924 2174
3 1626 1660 2111
3 1474 1475 1477
3 1023 1062 1580
3 1957 1599 2312
3 1764 1939 2164
3 1358 1950 2404
3 200 1609 1610
3 1431 1082 1432
3 1778 1803 2521
3 1830 1832 2075
3 1930 233 2369
3 1329 1482 1650
3 757 1959 2522
3 1239 1247 1597
3 758 1978 2332
3 1569 1290 2064
3 216 1694 2191
3 1453 1420 2265
3 1549 1906 2129
3 24 215 1674
3 19 235 1676
3 1621 1057 2191
3 1691 1389 2262
3 1617 1333 2192
3 929 994 1065
3 1769 1672 1986
3 1893 1412 2026
3 1609 1537 1612
3 271 269 272
3 1373 1438 1620
3 217 1423 2381
3 517 330 1889
3 1322 1055 1667
3 1974 553 2499
3 228 2136 2187
3 1589 1189 1788
3 1999 1577 2325
3 2110 405 2116
3 189 1608 1842
3 1055 1050 1667
3 739 1455 2205
3 1865 1176 2215
3 319 1494 2522
3 2474 757 2522
3 1484 227 1485
3 10 11 1588
3 723 809 1753
3 27 230 1689
3 1550 806 1565
3 1179 1180 1217
3 207 1617 2192
3 1433 1217 1502
3 1562 1556 1606
3 1379 2017 2018
3 1245 2158 2323
3 675 1097 1517
3 884 501 1599
3 1020 683 1604
3 1603 1095 1848
3 1001 2057 2154
3 1604 1585 1834
3 1610 1612 1616
3 1764 870 1939
3 2242 1871 2294
3 1669 1264 1670
3 1658 213 1702
3 1995 1646 2398
3 631 539 1600
3 1491 2143 2342
3 1801 1800 2195
3 1200 1199 1693
3 1535 940 1861
3 1534 758 2332
3 914 2258 2328
3 1588 228 2457
3 216 138 1694
3 151 152 1500
3 1133 1880 1974
3 1677 1858 2248
3 1294 1622 1868
3 875 1010 1767
3 1379 2018 2416
3 1279 2202 2252
3 182 256 1652
3 1592 857 2386
3 672 681 1656
3 615 1596 1824
3 1093 1487 1623
3 1823 522 2100
3 1245 1242 1669
3 1582 1581 1583
3 758 1534 2306
3 1975 1984 2230
3 1358 1510 1950
3 1663 1336 1665
3 2102 960 2203
3 366 1087 1786
3 1740 1490 2231
3 21 207 1709
3 145 146 1609
3 2339 765 2384
3 603 1591 1668
3 2081 199 2149
3 1540 1832 1879
3 1721 1723 1947
3 1754 455 1793
3 1751 1753 2119
3 882 1701 1807
3 1540 1539 1917
3 242 1695 1697
3 1521 354 2091
3 1363 2233 2413
3 1584 1018 1925
3 703 1067 1586
3 1177 1178 1179
3 795 916 1834
3 277 276 607
3 1571 1388 1872
3 22 23 1617
3 1097 823 1177
3 25 26 1624
3 419 418 1790
3 1728 1906 2259
3 440 1455 2261
3 1877 1318 2116
3 1488 1156 1608
3 1439 2130 2273
3 1889 1451 1890
3 1614 209 2389
3 1472 893 2094
3 675 821 823
3 23 24 1674
3 1788 1190 2183
3 917 941 1622
3 1763 1096 1764
3 1068 1442 1684
3 1034 1485 2173
3 2172 1533 2230
3 138 139 1694
3 1065 1570 2197
3 607 674 675
3 1536 1248 2268
3 229 135 1734
3 1437 1925 1926
3 680 510 1646
3 147 209 1537
3 26 27 1689
3 1627 705 2163
3 206 1651 2121
3 2409 1785 2462
3 1492 682 2447
3 1223 1225 1258
3 889 1772 2374
3 253 263 264
3 275 276 277
3 1455 739 2261
3 2022 1382 2176
3 150 227 1484
3 639 1019 1591
3 1449 1640 2070
3 1082 833 2214
3 1503 1502 1504
3 144 200 1717
3 1643 991 1713
3 1190 1791 2183
3 1538 1804 2073
3 1256 2269 2440
3 18 19 1676
3 521 531 2000
3 790 849 2180
3 1075 1329 1650
3 1087 1782 1785
3 1066 994 1218
3 270 269 271
3 682 1492 2494
3 185 252 1454
3 253 158 262
3 1629 1632 1633
3 200 1610 1611
3 1477 1481 2104
3 1623 1487 2465
3 1518 1097 1535
3 1414 1132 2460
3 1179 1217 1433
3 177 1506 1680
3 1392 1017 2525
3 1832 834 2075
3 675 823 1097
3 1459 2094 2134
3 1782 1087 1795
3 1838 1730 2372
3 1639 149 2528
3 1617 23 1674
3 2265 1420 2489
3 180 232 1859
3 1527 1250 1528
3 20 21 1709
3 1083 1508 2311
3 903 866 1703
3 1455 440 2314
3 1187 1858 1888
3 1659 1406 2473
3 1446 1902 2166
3 421 1951 2106
3 1598 210 2115
3 154 259 1671
3 1288 1835 2080
3 1832 1831 1879
3 1258 1225 1478
3 1024 1604 2117
3 1263 1429 1739
3 706 705 1627
3 1583 1581 2352
3 407 1805 1951
3 856 1574 2527
3 1701 882 2036
3 1624 26 1689
3 717 1551 1552
3 1385 2377 2391
3 2302 1745 2354
3 1572 1347 2157
3 1036 883 1917
3 1689 1690 1691
3 1664 1665 2128
3 1476 1479 1480
3 1751 2119 2143
3 815 814 1684
3 1790 889 2400
3 1606 1607 2085
3 265 267 268
3 418 889 1790
3 1522 1521 2091
3 135 136 1734
3 1726 1445 1729
3 647 1796 1797
3 1346 1453 2279
3 1293 1827 2117
3 1242 1244 1669
3 1853 1852 1854
3 889 2374 2400
3 1039 1038 1290
3 1524 628 2199
3 1331 1332 1571
3 1291 1290 1569
3 1475 1476 1493
3 1850 1852 1853
3 1490 1740 2456
3 1689 230 1690
3 1256 1526 1541
3 1704 1705 2167
3 1465 1470 1675
3 956 1073 1572
3 1613 1616 1956
3 916 917 1038
3 2014 1522 2091
3 1221 1222 1223
3 1999 763 2352
3 234 10 1588
3 1697 220 2335
3 1527 1528 1529
3 2298 1600 2413
3 1436 2020 2254
3 1642 1161 1678
3 1523 1385 2436
3 1730 1838 2426
3 795 796 916
3 713 711 1550
3 1456 1263 1739
3 999 1336 1663
3 1785 1784 2462
3 409 415 1783
3 607 675 1517
3 1229 1231 1526
3 1958 1855 2078
3 1589 1588 1590
3 1933 261 2380
3 762 1965 2038
3 1756 1458 2203
3 1776 597 1893
3 1794 1072 1893
3 188 1512 2266
3 1774 2339 2384
3 188 1908 1941
3 1010 1510 1767
3 2189 2285 2307
3 773 834 1917
3 1245 1669 1670
3 1248 1597 2268
3 146 1537 1609
3 818 910 1584
3 1641 1313 1651
3 1217 1745 2302
3 1065 1066 1655
3 1597 1247 2047
3 1360 2177 2376
3 1612 1615 1616
3 2126 867 2186
3 1019 683 1020
3 1747 892 1840
3 1092 1093 1623
3 261 1933 2181
3 400 424 1666
3 1516 1903 2377
3 1100 1392 1605
3 247 1738 1881
3 268 1134 1986
3 1177 823 1178
3 884 1599 1957
3 263 262 2491
3 806 1627 1948
3 1227 1229 1256
3 191 1729 2504
3 1636 1635 2502
3 1480 1479 1601
3 1721 1947 2498
3 1924 1146 2174
3 229 1734 1735
3 175 204 1725
3 1179 1178 1180
3 354 1521 2147
3 665 697 1592
3 640 646 1585
3 627 545 1636
3 1882 240 2399
3 1556 1555 1606
3 1373 1620 2394
3 1871 1071 2419
3 548 1628 1629
3 455 436 1793
3 974 1831 1841
3 1844 1413 2392
3 1612 1614 1615
3 209 1639 1937
3 1329 1330 1331
3 1823 2100 2142
3 1097 1177 1535
3 1021 1020 1022
3 825 1912 2455
3 913 1122 1874
3 400 1666 2113
3 1256 1229 1526
3 1419 1418 2450
3 1552 1551 1553
3 1850 1099 1852
3 1629 1631 1632
3 801 685 2029
3 1618 1619 1621
3 265 268 1986
3 1715 2165 2330
3 1531 1529 1534
3 1022 1024 1576
3 658 693 1746
3 703 686 1067
3 1062 1576 1577
3 1023 1022 1062
3 236 1718 2394
3 1688 502 1740
3 1501 1477 2104
3 213 165 1509
3 646 795 1585
3 196 1737 1738
3 379 679 1795
3 639 640 683
3 924 875 1767
3 1752 699 1753
3 207 2192 2315
3 627 1636 1660
3 1217 1180 1745
3 730 728 1833
3 528 561 1591
3 1444 1417 1998
3 252 186 1602
3 1729 1445 2504
3 460 502 1688
3 1418 946 1778
3 1203 1200 1693
3 548 470 1628
3 849 668 1640
3 646 785 795
3 607 276 674
3 14 15 210
3 147 148 209
3 478 460 1688
3 1709 207 2315
3 1157 1546 1608
3 1155 1731 1899
3 1524 1934 2390
3 1775 921 1876
3 1433 1502 1503
3 470 458 1628
3 1223 1224 1225
3 1291 1569 1964
3 871 1056 1826
3 1781 1783 1915
3 1587 1067 2300
3 916 1038 1039
3 1388 1387 1389
3 1611 1610 1613
3 1075 1328 1329
3 1039 1290 1291
3 1538 1265 1804
3 1184 1185 2163
3 597 598 1794
3 1450 1356 2421
3 1835 576 2080
3 1629 1628 1631
3 1331 1330 1332
3 561 639 1591
3 1476 1480 1493
3 705 703 1586
3 639 683 1019
3 1951 1188 2106
3 436 446 1793
3 1472 1297 2142
3 1332 1387 1388
3 1345 984 1720
3 1329 1328 1330
3 1050 1048 1667
3 150 151 227
3 11 12 228
3 557 541 2256
3 1831 974 1879
3 134 229 1766
3 1357 1358 1638
3 1336 1641 2299
3 1650 1482 1962
3 1591 1019 2512
3 1506 1507 1570
3 1803 801 2029
3 1178 823 1972
3 1552 1553 1554
3 1290 1038 1294
3 1028 1313 1641
3 1237 1239 1597
3 993 1017 1100
3 893 2087 2094
3 149 1484 2528
3 1768 1142 1949
3 9 234 1673
3 1554 1553 1555
3 668 632 1640
3 711 806 1550
3 1628 458 1637
3 1098 1829 1830
3 1482 1331 1483
3 531 1818 2000
3 435 419 1790
3 1156 1157 1608
3 1182 1184 2179
3 510 512 1646
3 1231 1233 1250
3 946 841 1778
3 1483 1331 1571
3 1459 680 2458
3 1166 1040 1210
3 892 1657 1820
3 1042 1445 1726
3 1019 1020 1021
3 749 805 1810
3 234 1588 1589
3 1695 242 1892
3 556 1853 2483
3 1018 1572 1573
3 1529 1528 1530
3 1606 1558 1607
3 1761 1759 2308
3 1396 1032 1921
3 1018 956 1572
3 689 1150 1416
3 1827 1293 2515
3 149 150 1484
3 1647 656 1648
3 1543 694 2196
3 399 409 1783
3 545 525 1636
3 268 269 270
3 715 713 717
3 1100 1017 1392
3 1657 892 1747
3 207 22 1617
3 1666 884 2249
3 1671 1672 1769
3 1554 1555 1556
3 146 147 1537
3 1081 1444 1822
3 711 709 806
3 1443 2005 2322
3 660 658 1746
3 1166 1458 1754
3 916 796 917
3 1056 1728 1826
3 1068 1069 1275
3 184 185 1454
3 158 159 262
3 2007 1687 2231
3 805 1708 1810
3 1672 264 1986
3 1561 1562 1563
3 978 1075 1650
3 1590 1588 2457
3 215 25 1624
3 1551 1550 1565
3 1073 1346 1347
3 857 818 1584
3 1648 656 1649
3 675 674 821
3 561 594 639
3 1731 529 1899
3 2303 1454 2535
3 981 903 1040
3 1630 1629 1633
3 993 877 1017
3 724 718 726
3 512 603 1646
3 1676 235 1858
3 814 1060 1068
3 715 717 1567
3 1796 647 1870
3 1715 1171 2165
3 678 1592 1593
3 644 613 1824
3 1690 1525 2145
3 1297 1822 1823
3 271 656 1647
3 1704 1116 1705
3 1225 1226 1227
3 1275 1069 1338
3 910 956 1018
3 1824 1596 2154
3 1403 1100 1605
3 1221 1219 1222
3 1068 1060 1069
3 1901 245 1949
3 1081 1055 1321
3 1751 563 1752
3 1021 1022 1023
3 672 638 681
3 1095 657 1848
3 1235 1237 1248
3 1561 1556 1562
3 1265 1259 1804
3 524 1819 2016
3 978 1650 2362
3 1492 516 2494
3 229 1735 2061
3 185 186 252
3 157 158 253
3 152 153 233
3 9 10 234
3 1527 1529 1531
3 1808 1344 2360
3 1062 1577 1579
3 1509 1679 1977
3 424 454 1666
3 637 638 672
3 981 1040 1166
3 1555 1558 1606
3 751 749 1810
3 1166 1210 1458
3 1651 1313 2121
3 15 16 2260
3 1633 1632 2509
3 2167 1705 2276
3 551 602 2045
3 697 818 857
3 364 1786 1883
3 832 1189 2204
3 1476 1478 1479
3 678 665 1592
3 213 1509 2096
3 1015 888 1124
3 1062 1022 1576
3 679 1782 1795
3 680 1646 1995
3 1101 1100 1403
3 1109 433 1714
3 1248 1237 1597
3 733 730 1833
3 1702 213 2096
3 499 498 1828
3 1418 1778 2521
3 637 600 638
3 1048 1046 1054
3 1577 1576 1578
3 814 766 1060
3 1279 2252 2292
3 474 470 548
3 199 18 1676
3 157 253 1441
3 1048 1054 1667
3 471 472 2290
3 625 665 678
3 795 785 796
3 1264 1265 1266
3 1437 1926 2350
3 1362 2048 2168
3 1394 2337 2371
3 454 884 1666
3 1022 1020 1024
3 751 1810 1923
3 1046 1023 1580
3 1807 1701 1931
3 1618 208 1619
3 566 588 689
3 1828 498 1829
3 501 509 1599
3 1118 780 1775
3 878 817 929
3 1510 1511 1950
3 1618 1621 1694
3 1052 1081 1822
3 1416 1150 1715
3 1239 1241 1247
3 1396 1921 2067
3 1751 1752 1753
3 1264 1259 1265
3 539 566 1600
3 1762 1127 2496
3 1673 1788 2183
3 1555 1557 1558
3 1052 1050 1055
3 725 724 825
3 1142 1770 1771
3 681 853 867
3 454 501 884
3 1346 1420 1453
3 932 1147 1770
3 1546 1545 1547
3 533 582 1818
3 1266 1337 1460
3 1872 820 2318
3 1117 1119 1713
3 1081 1321 1417
3 1253 1259 1264
3 1569 771 2135
3 1052 1055 1081
3 1181 1178 1972
3 709 706 1627
3 1073 1076 1346
3 1098 1828 1829
3 1382 1380 2176
3 1442 1275 1443
3 919 999 1663
3 1789 828 1855
3 877 815 1684
3 509 539 631
3 992 877 993
3 1266 1265 1337
3 2268 1498 2340
3 1130 1032 1396
3 1095 1603 2508
3 886 826 887
3 531 533 1818
3 1131 1400 1881
3 447 437 516
3 2460 1132 2473
3 940 1535 2418
3 768 1873 2037
3 1813 1869 1954
3 1627 2163 2488
3 1497 1495 1645
3 1198 1409 2168
3 724 726 1912
3 1869 987 1954
3 763 1999 2338
3 1010 1170 1374
3 984 976 1720
3 1470 1743 1744
3 689 588 1150
3 1901 1949 2359
3 1640 632 1862
3 274 272 1787
3 563 564 1752
3 994 817 1505
3 737 1807 1931
3 1770 1147 1771
3 1233 1235 1733
3 2450 1418 2521
3 414 410 1821
3 908 1099 1850
3 1227 1228 1229
3 1692 1203 1693
3 1625 216 2194
3 512 528 603
3 1377 1357 1638
3 1465 1464 1470
3 1360 1359 2177
3 1686 2007 2095
3 1336 1028 1641
3 1857 751 1923
3 1758 572 1759
3 553 541 557
3 1171 1715 1811
3 956 1003 1073
3 1467 1465 1675
3 719 718 724
3 1509 1977 2096
3 1734 1625 1736
3 1503 1504 1868
3 592 597 1776
3 180 181 232
3 162 163 231
3 2308 1759 2370
3 1357 1114 1358
3 875 946 1010
3 509 631 1599
3 17 18 199
3 144 145 200
3 1099 906 1792
3 1469 1467 1494
3 605 589 1939
3 1208 1205 1211
3 354 344 2091
3 692 782 804
3 1010 946 1170
3 1463 1462 1464
3 716 715 718
3 714 713 715
3 271 273 656
3 139 1618 1694
3 549 277 686
3 673 672 766
3 1378 1377 1379
3 2007 868 2095
3 999 1028 1336
3 1208 1211 1447
3 601 545 627
3 1119 1643 1713
3 1332 1333 1387
3 910 912 956
3 520 521 2000
3 828 1789 1819
3 277 607 1520
3 1338 1339 2247
3 818 819 910
3 767 766 814
3 712 711 713
3 1494 1467 1675
3 639 594 640
3 2044 557 2256
3 235 20 1709
3 1620 236 2394
3 804 919 962
3 1862 702 2070
3 681 852 853
3 1559 1556 1561
3 1622 941 2471
3 2165 1440 2330
3 612 644 692
3 697 698 818
3 1903 1516 1994
3 371 379 1795
3 428 426 2138
3 1290 1294 2064
3 1384 1904 2432
3 566 689 1600
3 471 452 472
3 1092 1091 1093
3 1002 1131 1719
3 1090 1089 1091
3 875 841 946
3 1758 1760 1763
3 1562 1606 2085
3 1833 1830 2075
3 178 179 214
3 164 165 213
3 769 923 1815
3 692 644 782
3 804 782 919
3 182 183 256
3 160 161 257
3 1329 1331 1482
3 962 1663 1664
3 1177 1179 2042
3 403 405 1805
3 1461 1460 1462
3 140 208 1618
3 1859 232 1860
3 274 1787 2099
3 1381 2126 2186
3 1558 1560 1789
3 430 428 682
3 452 435 1683
3 1487 1156 1488
3 1470 1464 1743
3 597 1794 1893
3 1244 1253 1669
3 962 919 1663
3 258 8 1673
3 1087 1785 1786
3 970 1042 1726
3 199 1677 2149
3 1664 1663 1665
3 1229 1230 1231
3 991 827 1713
3 792 1603 1848
3 1822 1444 1823
3 665 666 697
3 19 20 235
3 142 143 236
3 728 1098 1833
3 532 530 1898
3 1015 1124 1372
3 1546 1547 1548
3 1851 1850 1853
3 1877 393 2240
3 923 1105 1815
3 1090 1091 1092
3 687 686 703
3 1683 435 1790
3 887 826 1961
3 684 663 1089
3 426 1934 2138
3 464 510 680
3 853 854 855
3 568 572 1758
3 1376 1357 1377
3 1205 1203 1692
3 1607 1789 1855
3 710 709 711
3 780 781 1775
3 1434 1103 1435
3 876 815 877
3 766 672 1656
3 1393 1590 2457
3 684 1089 1090
3 530 890 1898
3 926 1920 1943
3 696 414 1821
3 1563 1562 1777
3 1054 1046 1580
3 1398 1973 1974
3 137 216 1625
3 1210 1040 1430
3 1750 563 1751
3 2010 1665 2299
3 1510 1374 1511
3 1777 1562 2085
3 1707 252 1791
3 1932 1404 1933
3 459 438 1814
3 139 140 1618
3 1093 1156 1487
3 231 163 1658
3 699 722 723
3 1545 1095 2508
3 598 612 1794
3 579 554 1880
3 1941 1908 2401
3 1231 1232 1233
3 1831 1829 1841
3 1037 1383 1799
3 177 178 1506
3 636 600 637
3 1036 1539 2286
3 1356 1114 1357
3 1523 1516 2377
3 704 703 705
3 403 402 405
3 648 792 1848
3 723 756 808
3 1388 1389 2170
3 933 932 1770
3 223 1710 1711
3 1779 399 1783
3 1223 1222 1224
3 1028 1029 1313
3 257 161 1654
3 418 412 421
3 734 882 1807
3 693 657 1095
3 1368 1370 1436
3 136 137 1625
3 688 652 817
3 1075 1327 1328
3 540 479 1813
3 398 395 402
3 548 1629 1630
3 574 591 699
3 1469 1494 1495
3 1041 1598 2175
3 167 168 202
3 175 176 204
3 2045 2046 2201
3 186 187 1602
3 886 887 888
3 1253 1254 1259
3 8 9 1673
3 792 655 810
3 843 1145 1960
3 1180 1349 1745
3 1165 1345 1512
3 708 706 709
3 136 1625 1734
3 21 22 207
3 140 141 208
3 625 626 665
3 1093 1094 1156
3 1585 795 1834
3 1117 1713 1806
3 599 579 600
3 810 871 1826
3 1047 1046 1048
3 1292 1291 1293
3 161 162 1654
3 199 1676 1677
3 1260 1282 1804
3 1005 1142 1768
3 1233 1234 1235
3 792 810 922
3 1122 1719 1737
3 976 985 1720
3 1278 1279 2292
3 2390 1934 2531
3 1436 1437 2350
3 270 271 1647
3 1199 966 1846
3 1683 1342 2212
3 656 273 2124
3 699 591 722
3 1977 1139 2096
3 1738 1719 1881
3 1722 985 1874
3 1797 1448 1798
3 162 231 1654
3 632 604 1862
3 252 1602 1791
3 1051 1050 1052
3 1045 1023 1046
3 648 655 792
3 993 1100 1101
3 1321 1055 1322
3 806 709 1627
3 904 903 981
3 1220 1267 1268
3 648 605 655
3 1737 1719 1738
3 385 399 1779
3 506 499 1828
3 1132 266 1402
3 1170 1418 1419
3 1323 2302 2354
3 24 25 215
3 137 138 216
3 721 965 1919
3 1787 1414 2460
3 778 1117 1806
3 723 722 756
3 407 403 1805
3 564 574 1752
3 1049 1048 1050
3 842 841 875
3 1608 1546 1842
3 809 808 899
3 1517 1519 1520
3 1530 1532 1533
3 889 421 1772
3 913 1002 1122
3 1314 1316 1367
3 1017 877 1684
3 841 802 1778
3 1235 1236 1237
3 751 1857 1900
3 1114 924 1767
3 1344 1644 2360
3 1895 1394 2371
3 1518 1535 1861
3 1758 1759 1760
3 1122 1002 1719
3 546 563 1750
3 1056 1726 1727
3 663 660 1746
3 621 622 625
3 1720 985 1721
3 1857 1843 1900
3 808 756 913
3 1056 970 1726
3 27 28 230
3 134 135 229
3 908 906 1099
3 163 164 1658
3 1727 1726 1729
3 7 8 258
3 154 155 259
3 1101 1403 1404
3 808 913 1874
3 1260 1269 1282
3 1389 1387 2262
3 1297 1053 1822
3 1555 1553 1557
3 1463 1464 1465
3 230 28 1765
3 1237 1238 1239
3 554 553 1880
3 775 778 1806
3 985 899 1874
3 1270 1524 2199
3 489 1820 1936
3 692 1072 1794
3 1472 2142 2272
3 1845 496 1929
3 438 431 1814
3 613 615 1824
3 1241 1242 1245
3 1783 415 1915
3 1192 2081 2149
3 178 214 1506
3 1816 988 1817
3 1760 1759 1761
3 1103 1092 1623
3 1512 1345 1661
3 1876 921 2295
3 1165 984 1345
3 978 1074 1075
3 1239 1240 1241
3 542 541 553
3 813 988 1816
3 1148 984 1165
3 871 970 1056
3 472 452 1683
3 1207 1796 1870
3 1167 1166 1754
3 1296 1053 1297
3 966 964 1846
3 976 899 985
3 982 976 984
3 702 1815 2015
3 900 899 976
3 1143 995 1206
3 1576 1024 1827
3 1235 1248 1733
3 1558 1557 1560
3 943 995 1143
3 1920 1144 1943
3 1471 2115 2477
3 29 30 255
3 132 133 254
3 1630 1633 1634
3 1225 1224 1226
3 1925 1573 1926
3 1211 1205 1692
3 725 825 826
3 1113 924 1114
3 600 579 1988
3 717 1552 1567
3 1820 1657 1936
3 674 276 2099
3 395 393 1877
3 572 543 1897
3 1575 1308 2255
3 999 1000 1028
3 1118 1775 1876
3 1797 1798 2430
3 526 546 559
3 867 853 2186
3 1142 1771 1949
3 1068 1275 1442
3 679 385 1779
3 1607 1558 1789
3 580 568 1758
3 1244 1252 1253
3 1760 1761 1762
3 398 402 403
3 1476 1258 1478
3 418 421 889
3 1771 1147 1839
3 164 213 1658
3 1720 1721 2267
3 1668 1591 2512
3 1042 1128 1445
3 1098 1830 1833
3 1102 1092 1103
3 2249 884 2466
3 1104 1103 1434
3 410 416 1821
3 514 513 541
3 580 1758 1763
3 637 673 1741
3 1913 936 1914
3 1394 1395 2337
3 919 920 999
3 577 554 579
3 2111 1660 2263
3 231 1658 1659
3 612 613 644
3 568 543 572
3 770 775 1806
3 1445 1128 1446
3 1546 1548 1842
3 448 460 478
3 810 870 871
3 1789 1560 1819
3 1154 1082 1431
3 873 973 1802
3 379 385 679
3 837 850 921
3 1461 1462 1463
3 1346 1076 1420
3 1088 1344 1808
3 2125 1143 2353
3 931 977 978
3 882 772 1802
3 29 255 1765
3 849 1513 2180
3 1713 827 1806
3 1130 1396 1397
3 681 638 852
3 1417 1321 1873
3 1654 1402 2530
3 502 526 1740
3 1124 888 2177
3 1266 1460 1461
3 515 1175 1840
3 1253 1264 1669
3 479 466 1813
3 1727 1729 1757
3 379 380 385
3 1971 1480 2514
3 1637 1739 2459
3 1207 1205 1208
3 529 519 1899
3 1129 1845 1929
3 224 1661 2267
3 192 1856 2361
3 732 734 1807
3 1184 2163 2435
3 1119 1120 1353
3 415 414 431
3 719 724 725
3 559 546 1750
3 871 872 970
3 1038 917 1622
3 574 699 1752
3 166 167 1679
3 1117 1118 1119
3 1409 1196 2035
3 617 619 621
3 1172 1173 1439
3 1191 1005 1768
3 664 663 684
3 494 493 1841
3 890 529 1731
3 840 802 841
3 493 974 1841
3 385 386 399
3 679 1779 1780
3 371 376 379
3 416 433 1109
3 670 769 1815
3 902 866 903
3 1780 1779 1781
3 480 515 1840
3 970 971 1042
3 433 448 1714
3 28 29 1765
3 1005 949 1142
3 778 780 1117
3 959 1037 1799
3 1073 1003 1076
3 535 532 1898
3 1119 1118 1120
3 658 657 693
3 1378 1379 1380
3 1397 1396 1809
3 1610 1609 1612
3 1819 1560 2016
3 1837 952 1865
3 1719 1131 1881
3 1131 1399 1400
3 1352 1138 2058
3 399 406 409
3 548 1630 2041
3 1275 1338 2251
3 582 1816 1818
3 1835 1836 2144
3 993 1101 1980
3 1699 1698 1700
3 2407 364 2505
3 1189 1190 1788
3 1117 780 1118
3 1830 1829 1831
3 637 672 673
3 692 804 1072
3 1204 1203 1205
3 1374 1170 2139
3 612 692 1794
3 1642 1408 2286
3 723 808 809
3 450 459 1812
3 409 410 414
3 802 801 1778
3 1853 1854 2483
3 1042 1127 1128
3 1199 1846 2225
3 1147 990 1273
3 1383 1384 2432
3 432 431 438
3 1353 1120 1390
3 1093 1091 1094
3 2020 250 2254
3 148 149 1639
3 606 605 648
3 1970 2016 2422
3 2201 2046 2327
3 475 471 513
3 412 407 1951
3 1991 246 2139
3 727 695 728
3 1673 234 1788
3 1554 1556 1559
3 1089 663 1746
3 1846 964 2056
3 923 991 1088
3 409 406 410
3 729 728 730
3 1424 1427 1856
3 1473 1911 2407
3 1376 1377 1378
3 1010 1374 1510
3 853 852 854
3 366 369 1087
3 772 873 1802
3 1219 1218 1626
3 1766 229 2061
3 1088 991 1344
3 922 810 1826
3 518 506 695
3 405 402 2116
3 962 1664 2316
3 913 942 1002
3 932 990 1147
3 629 813 1816
3 876 877 992
3 399 386 406
3 932 845 990
3 1002 1123 1131
3 843 996 1145
3 781 837 1775
3 262 2304 2491
3 431 696 1814
3 1273 1695 1892
3 731 730 732
3 737 732 1807
3 439 438 450
3 1829 498 1841
3 800 685 801
3 767 814 815
3 1060 766 1656
3 673 766 767
3 1403 1605 1882
3 716 718 719
3 1338 1069 1339
3 847 752 1843
3 864 862 1116
3 2302 443 2519
3 923 827 991
3 526 559 1740
3 1911 1473 2358
3 1085 1310 1867
3 809 899 900
3 1227 1226 1228
3 729 730 731
3 1436 1370 1437
3 731 732 737
3 769 827 923
3 456 452 471
3 1433 1503 2471
3 1435 1103 1623
3 385 380 386
3 1141 1787 2460
3 1354 1088 1808
3 657 649 1848
3 415 431 432
3 484 892 1820
3 727 728 729
3 855 854 1450
3 1721 1722 1723
3 1643 1353 1644
3 1145 1916 1960
3 1421 1191 1422
3 466 1812 1813
3 943 944 995
3 1356 1357 1376
3 714 715 716
3 1156 1094 1157
3 598 611 612
3 631 1600 2298
3 590 589 605
3 965 969 1919
3 416 1109 1821
3 242 1697 2335
3 1548 1547 1549
3 550 573 584
3 584 604 632
3 409 414 415
3 712 713 714
3 642 670 702
3 818 698 819
3 1006 1005 1191
3 1624 1689 1691
3 169 170 237
3 173 174 238
3 956 912 1003
3 937 936 1913
3 1317 1025 1875
3 515 540 550
3 973 1799 1800
3 973 959 1799
3 518 695 727
3 910 819 912
3 584 573 604
3 1170 946 1418
3 173 238 1847
3 550 540 573
3 982 984 1148
3 900 976 982
3 441 435 452
3 448 478 1714
3 1849 1648 2173
3 1631 1628 1637
3 1830 1831 1832
3 1383 1216 1384
3 734 772 882
3 949 933 1770
3 1332 1330 1333
3 574 575 591
3 1105 1088 1354
3 702 670 1815
3 498 494 1841
3 827 770 1806
3 873 959 973
3 1390 1391 1415
3 450 438 459
3 950 949 1005
3 351 362 364
3 1313 1029 1314
3 432 438 439
3 837 838 850
3 1273 1274 1695
3 850 851 943
3 911 952 1837
3 1259 1260 1804
3 566 587 588
3 1037 1216 1383
3 1337 1265 1538
3 1087 369 1795
3 810 655 870
3 1559 1561 1566
3 1147 1273 1839
3 732 733 734
3 1662 867 2126
3 890 1731 2241
3 1854 1852 2397
3 515 479 540
3 451 450 466
3 697 666 698
3 1367 1316 1368
3 662 660 663
3 365 355 694
3 1358 1114 1767
3 379 376 380
3 1796 1448 1797
3 179 180 1859
3 790 668 849
3 569 568 580
3 690 860 931
3 466 450 1812
3 431 414 696
3 1973 1133 1974
3 651 649 657
3 467 466 479
3 1288 1289 1835
3 264 265 1986
3 1302 1303 1304
3 592 596 597
3 1873 1321 2037
3 544 543 568
3 275 277 549
3 209 1937 2389
3 539 565 566
3 1485 227 1486
3 2384 2190 2408
3 1781 1779 1783
3 480 479 515
3 689 1416 2413
3 1108 1161 1539
3 1867 1310 1895
3 1300 1301 1302
3 1695 1696 1697
3 633 632 668
3 1304 1451 1452
3 988 911 1837
3 168 169 1724
3 969 1012 1172
3 582 629 1816
3 1843 752 1900
3 629 812 813
3 710 711 712
3 1782 1780 1784
3 536 535 543
3 1089 1746 1969
3 1108 1107 1161
3 1514 1426 1856
3 486 484 1820
3 369 371 1795
3 1817 988 1924
3 493 609 974
3 1422 1191 2023
3 1426 1424 1856
3 842 875 924
3 922 1826 2259
3 989 1361 1886
3 928 1070 1288
3 669 668 790
3 1113 1114 1356
3 1027 847 1843
3 728 695 1098
3 734 735 772
3 975 1107 1108
3 955 859 1962
3 813 911 988
3 1208 1448 1796
3 1101 1405 1980
3 602 676 2045
3 586 581 589
3 546 547 563
3 493 491 609
3 628 1524 2390
3 348 344 354
3 1298 1299 1300
3 509 538 539
3 974 609 975
3 813 891 911
3 871 870 872
3 1355 1354 1423
3 489 486 1820
3 778 779 780
3 1025 1176 1875
3 772 773 873
3 803 1743 2347
3 167 202 1679
3 873 883 959
3 1483 1571 2375
3 427 1756 2221
3 540 1813 1954
3 1202 1200 1203
3 959 1035 1037
3 837 921 1775
3 1304 1305 1451
3 1799 1383 2195
3 604 642 1862
3 1470 1744 2474
3 1854 2397 2453
3 1282 1269 1386
3 1573 1572 2157
3 472 2222 2290
3 1307 1708 2341
3 769 770 827
3 1037 1215 1216
3 791 790 856
3 1053 1052 1822
3 1056 1727 1728
3 1341 1138 1352
3 1300 1299 1301
3 1814 696 1838
3 1198 1196 1409
3 492 491 493
3 439 450 451
3 1171 858 2132
3 1259 1254 1260
3 665 626 666
3 970 872 971
3 258 1602 2357
3 1296 1297 1472
3 490 489 491
3 516 437 2494
3 1298 1027 1299
3 846 845 932
3 501 508 509
3 460 461 502
3 448 449 460
3 482 480 1840
3 1229 1228 1230
3 604 641 642
3 1424 1423 1427
3 502 503 526
3 1028 1000 1029
3 935 933 949
3 1084 1085 1867
3 2028 1711 2353
3 1513 1426 1514
3 892 482 1840
3 852 638 1988
3 402 395 1877
3 738 737 845
3 413 412 418
3 1119 1353 1643
3 526 527 546
3 280 279 281
3 1731 1155 2123
3 1042 971 1127
3 1208 1447 1448
3 433 434 448
3 262 159 2304
3 184 1454 2303
3 1051 1052 1053
3 1816 1817 1818
3 1081 1417 1444
3 781 836 837
3 911 951 952
3 1090 1092 1102
3 202 168 1724
3 1085 1309 1310
3 408 407 412
3 1337 1538 1864
3 1515 1514 1516
3 530 529 890
3 1517 1518 1519
3 549 686 687
3 923 1088 1105
3 404 403 407
3 1835 1289 1836
3 1314 1367 2121
3 1380 1379 2416
3 670 671 769
3 899 808 1874
3 1040 903 1703
3 1596 1595 2154
3 1496 1495 1497
3 636 637 1741
3 1377 1638 2288
3 1288 1070 1289
3 1072 804 1981
3 1129 1334 1845
3 1865 1084 1866
3 792 922 1603
3 1253 1252 1254
3 981 1167 1792
3 1302 1301 1303
3 1641 1651 2019
3 952 953 1084
3 1813 1812 1869
3 732 730 733
3 975 1106 1107
3 1142 949 1770
3 981 1166 1167
3 840 841 842
3 451 466 467
3 1273 990 1274
3 1049 1050 1051
3 1473 2407 2505
3 968 966 1199
3 642 643 670
3 1310 1309 1311
3 422 419 435
3 1063 833 1082
3 919 782 920
3 911 891 951
3 1084 953 1085
3 1763 1764 2164
3 1498 1497 1682
3 515 550 1175
3 1079 937 1913
3 642 702 1862
3 845 737 1931
3 1394 1311 1395
3 1395 1521 1522
3 467 479 480
3 1755 1754 1793
3 1231 1230 1232
3 1557 1553 2030
3 1624 1691 2262
3 584 632 633
3 1094 1091 1969
3 708 709 710
3 1948 1627 2488
3 952 951 953
3 1102 1103 1104
3 1047 1048 1049
3 1310 1311 1394
3 1852 1099 1985
3 143 144 1717
3 813 812 891
3 1944 1044 1945
3 1105 1354 1355
3 1300 1302 1455
3 1914 936 1940
3 1415 1391 1710
3 1299 1027 1843
3 952 1084 1865
3 1695 1274 1696
3 776 774 1928
3 282 281 283
3 2003 1347 2279
3 1206 995 1499
3 1164 1685 1686
3 1551 1565 2030
3 969 1172 1919
3 633 668 669
3 734 733 735
3 1373 1372 1438
3 599 600 636
3 1431 1860 2487
3 1579 1577 1999
3 484 482 892
3 917 940 941
3 2144 1836 2169
3 1866 1084 1867
3 1110 1747 1748
3 998 1171 1811
3 1390 1120 1391
3 644 1824 2057
3 1362 1961 2048
3 944 1283 1825
3 1086 1027 1298
3 679 1780 1782
3 974 975 1879
3 507 506 518
3 1121 1079 1401
3 775 777 778
3 1965 762 2349
3 1045 1046 1047
3 1772 421 2106
3 16 17 2081
3 416 417 433
3 921 850 2125
3 1607 1855 1958
3 649 648 1848
3 1241 1240 1242
3 2012 1443 2251
3 926 928 1920
3 1487 1488 2025
3 1006 1191 1421
3 1355 1423 1424
3 1133 852 1988
3 591 592 1776
3 1299 1843 1857
3 1085 1308 1309
3 490 491 492
3 958 694 1575
3 1384 1216 1385
3 741 915 1878
3 1233 1232 1234
3 669 790 791
3 481 480 482
3 687 703 704
3 492 493 494
3 1634 1633 1922
3 1697 1696 1698
3 1721 985 1722
3 1839 1273 1892
3 772 735 773
3 488 486 489
3 950 1005 1006
3 1513 1514 1515
3 454 500 501
3 873 773 883
3 284 283 285
3 2185 1505 2442
3 959 883 1035
3 543 535 1897
3 1904 1384 2093
3 800 801 802
3 1037 1035 1215
3 1293 1964 1965
3 1239 1238 1240
3 943 1143 2125
3 1782 1784 1785
3 913 756 942
3 488 490 1884
3 1590 1749 2501
3 1235 1234 1236
3 791 856 1408
3 702 2015 2070
3 1108 1539 1540
3 1021 1023 1045
3 695 506 1828
3 1530 1528 1532
3 488 489 490
3 1621 1619 2161
3 704 705 706
3 1304 1303 1305
3 558 1704 2167
3 625 622 626
3 542 553 554
3 604 573 641
3 664 684 685
3 564 571 574
3 1108 1540 1879
3 1856 1427 2361
3 880 1025 1129
3 1395 1311 1521
3 1466 1465 1467
3 915 495 1884
3 1515 1516 1523
3 1237 1236 1238
3 606 648 649
3 999 920 1000
3 676 829 1043
3 2100 794 2142
3 227 151 1500
3 577 579 599
3 153 154 1671
3 1175 550 1927
3 1014 888 1015
3 286 285 287
3 1649 1280 2427
3 1725 204 2137
3 975 609 1106
3 1129 1317 1334
3 1109 1730 2426
3 1468 1467 1469
3 1131 1123 1399
3 1215 2235 2378
3 1976 1149 1989
3 397 395 398
3 746 743 1878
3 1041 1343 1598
3 975 1108 1879
3 741 495 915
3 1167 1754 1755
3 288 287 289
3 743 741 1878
3 1274 990 1931
3 1506 214 1507
3 857 1584 2277
3 2341 1522 2387
3 846 932 933
3 1107 1106 1110
3 584 633 1927
3 290 289 291
3 722 591 1776
3 1544 1094 1969
3 1135 270 1647
3 935 949 950
3 1920 1288 2080
3 754 1896 2108
3 1693 1199 2225
3 292 291 293
3 394 393 395
3 745 743 746
3 1002 942 1123
3 731 737 738
3 294 293 295
3 1018 1573 1925
3 296 295 297
3 298 297 299
3 321 322 325
3 317 320 321
3 314 315 317
3 312 313 314
3 310 311 312
3 308 309 310
3 1898 890 2275
3 306 307 308
3 304 305 306
3 1401 1079 1913
3 300 299 301
3 302 303 304
3 300 301 302
3 302 301 303
3 491 489 1936
3 298 299 300
3 304 303 305
3 306 305 307
3 308 307 309
3 310 309 311
3 312 311 313
3 314 313 315
3 317 315 320
3 321 320 322
3 1301 1299 1857
3 514 541 542
3 296 297 298
3 850 838 851
3 1310 1394 1895
3 294 295 296
3 590 605 606
3 292 293 294
3 651 657 658
3 290 291 292
3 1207 1208 1796
3 835 1976 1989
3 621 619 622
3 746 1878 1896
3 481 482 483
3 1026 847 1027
3 1335 1207 1870
3 1661 59 2266
3 727 729 1155
3 288 289 290
3 1058 776 1928
3 662 663 664
3 495 488 1884
3 1959 319 2522
3 943 851 944
3 1293 1291 1964
3 534 532 535
3 640 645 646
3 2280 1014 2385
3 286 287 288
3 591 575 592
3 521 519 529
3 13 14 2114
3 780 779 781
3 918 908 1850
3 837 836 838
3 209 148 1639
3 754 748 1896
3 745 746 747
3 769 671 770
3 929 1065 2197
3 1278 1058 1279
3 483 482 484
3 1564 1557 2030
3 633 807 1927
3 392 391 393
3 1057 1621 2161
3 569 580 581
3 284 285 286
3 876 992 1894
3 497 494 498
3 1630 1635 2041
3 982 1148 1918
3 612 611 613
3 700 634 1044
3 822 674 2099
3 880 1129 1929
3 432 439 654
3 1039 1291 1292
3 1164 1686 1989
3 1129 1025 1317
3 738 845 846
3 582 583 629
3 278 6 279
3 544 568 569
3 1701 1274 1931
3 747 749 751
3 1085 953 1308
3 928 930 1070
3 747 748 749
3 1421 1422 2415
3 902 903 904
3 1309 1308 1543
3 642 641 643
3 904 981 1792
3 646 784 785
3 536 543 544
3 1204 1205 1207
3 365 694 958
3 71 72 217
3 88 89 1901
3 87 88 193
3 101 102 189
3 85 86 242
3 99 100 241
3 74 75 192
3 91 92 219
3 94 95 191
3 83 84 220
3 97 98 221
3 77 78 218
3 80 81 194
3 89 90 245
3 62 63 244
3 60 61 188
3 64 65 223
3 67 68 190
3 90 91 1909
3 98 99 1905
3 61 62 1908
3 69 70 243
3 68 69 1907
3 70 71 1910
3 410 411 416
3 586 589 590
3 685 684 2029
3 390 389 391
3 1715 1150 1811
3 1924 1837 2215
3 282 283 284
3 496 497 1929
3 233 1671 1769
3 627 2185 2442
3 1567 1552 2062
3 629 630 812
3 424 453 454
3 583 562 1942
3 749 750 805
3 744 743 745
3 1897 535 1898
3 467 480 481
3 504 759 880
3 670 643 671
3 89 245 1901
3 193 88 1901
3 221 98 1905
3 245 90 1909
3 91 219 1909
3 62 244 1908
3 188 61 1908
3 99 241 1905
3 190 68 1907
3 71 217 1910
3 69 243 1907
3 243 70 1910
3 505 499 506
3 475 513 514
3 1945 1044 2071
3 1712 2125 2353
3 339 343 440
3 989 1360 1361
3 764 869 1152
3 778 777 779
3 1686 1685 1687
3 742 741 743
3 979 989 1886
3 729 731 1887
3 926 927 928
3 1305 1306 1307
3 1838 1278 2292
3 747 746 748
3 181 182 1652
3 1886 1361 2305
3 1595 1594 2486
3 597 596 598
3 928 1288 1920
3 1970 824 2156
3 1425 1424 1426
3 497 504 1929
3 748 746 1896
3 745 747 1900
3 998 858 1171
3 563 547 564
3 1155 729 1887
3 634 583 1942
3 1439 1173 1440
3 1026 1027 1086
3 79 80 1904
3 1533 1532 1536
3 1449 1426 1513
3 1106 609 1936
3 1318 1013 1319
3 1098 695 1828
3 492 494 496
3 750 748 754
3 731 738 1887
3 2415 1422 2516
3 533 562 582
3 988 1837 1924
3 1216 1215 1863
3 534 535 536
3 747 751 1900
3 1753 809 2119
3 1183 824 1970
3 740 495 741
3 80 194 1904
3 893 383 2087
3 655 605 1939
3 1884 2034 2082
3 1301 1857 1923
3 1307 1306 1708
3 752 745 1900
3 750 754 755
3 76 77 1903
3 2090 2347 2365
3 255 30 2159
3 132 254 2160
3 448 434 449
3 753 848 926
3 1075 1074 1327
3 487 488 495
3 377 381 647
3 483 484 485
3 755 754 2148
3 1584 1925 2277
3 1186 1183 1970
3 951 891 1281
3 485 484 486
3 546 527 547
3 133 134 1766
3 1786 1785 2409
3 280 281 282
3 460 449 461
3 744 745 752
3 77 218 1903
3 983 1918 2342
3 1708 1306 1810
3 1389 2069 2170
3 487 486 488
3 641 573 1954
3 507 518 519
3 502 461 503
3 519 518 1899
3 1202 1203 1204
3 821 897 1972
3 92 93 1902
3 521 529 530
3 749 748 750
3 2176 1380 2416
3 885 826 886
3 485 486 487
3 371 372 376
3 1289 1070 1871
3 1110 1657 1747
3 753 926 1943
3 700 1044 1944
3 880 881 1025
3 496 1845 2034
3 1072 1981 2393
3 462 464 2134
3 1949 1771 2359
3 1044 634 1942
3 550 584 1927
3 1390 1415 2118
3 526 503 527
3 990 845 1931
3 1009 1213 1214
3 740 742 1144
3 219 92 1902
3 727 1155 1899
3 369 370 371
3 623 690 2150
3 1279 1058 1928
3 1408 2235 2286
3 487 495 740
3 979 1886 2086
3 1305 1303 1306
3 421 412 1951
3 843 844 996
3 633 669 807
3 518 727 1899
3 826 825 1961
3 1657 1106 1936
3 1172 1012 1173
3 740 741 742
3 433 417 434
3 505 506 507
3 1333 1674 2437
3 742 743 744
3 469 458 470
3 1381 1380 1382
3 1293 1965 2515
3 1554 1559 2062
3 553 557 2499
3 1774 389 2339
3 497 498 499
3 483 485 576
3 740 1144 1935
3 773 735 834
3 366 367 369
3 1120 1118 1876
3 1515 1523 1574
3 1319 1013 2039
3 1303 1301 1923
3 457 447 458
3 561 593 594
3 1355 1424 1425
3 609 491 1936
3 204 1732 2137
3 791 1408 1642
3 995 944 1825
3 456 471 475
3 1692 1693 2239
3 580 1763 2164
3 1292 1293 2117
3 441 452 456
3 388 384 389
3 823 821 1972
3 504 880 1929
3 176 177 1680
3 1070 1071 1871
3 15 2260 2477
3 362 363 366
3 2178 2300 2449
3 1035 883 1036
3 2285 1563 2307
3 978 977 1074
3 1090 1102 2029
3 1810 1306 1923
3 496 494 497
3 1306 1303 1923
3 432 654 1915
3 934 933 935
3 356 355 365
3 398 403 404
3 635 701 843
3 1110 1106 1657
3 574 571 575
3 1025 881 1176
3 386 380 786
3 415 432 1915
3 343 347 1911
3 1070 930 1071
3 1688 1740 2231
3 1385 1216 1863
3 1696 1274 1701
3 1645 305 2317
3 880 759 881
3 926 848 927
3 1427 1423 2217
3 1339 1662 2388
3 770 774 775
3 1263 1257 1428
3 1337 1864 2412
3 349 348 355
3 2267 1721 2498
3 753 752 847
3 1375 1086 1473
3 900 982 983
3 332 335 739
3 429 428 430
3 744 752 753
3 1171 2132 2165
3 1425 1426 1449
3 987 641 1954
3 1883 1786 2409
3 427 426 428
3 928 927 930
3 1815 1105 2015
3 1206 1499 1941
3 410 406 411
3 573 540 1954
3 497 499 504
3 528 560 561
3 1933 1404 2399
3 1091 1089 1969
3 1804 1282 2073
3 504 505 759
3 963 924 1113
3 1711 1710 1712
3 881 759 1146
3 968 1199 1200
3 351 352 362
3 848 847 1026
3 521 530 531
3 1884 490 2034
3 1277 957 1966
3 1349 1350 2329
3 676 1043 2045
3 997 1159 1286
3 517 1889 1890
3 781 835 836
3 944 948 1283
3 722 1776 2026
3 507 519 520
3 2040 1352 2058
3 1276 957 1277
3 446 437 447
3 931 860 977
3 361 359 765
3 1248 1536 2534
3 512 523 528
3 408 412 413
3 1368 1369 1370
3 451 2169 2223
3 192 75 1994
3 942 756 2026
3 345 344 348
3 764 1152 1963
3 413 418 419
3 1286 1773 1774
3 770 671 774
3 275 549 2124
3 1497 1645 2461
3 1982 1472 2272
3 422 435 441
3 281 279 736
3 1134 270 1135
3 582 562 583
3 1421 2415 2454
3 485 487 1935
3 2300 1067 2480
3 1578 1576 1827
3 930 927 1061
3 1026 1086 1375
3 922 2259 2379
3 1391 1120 1876
3 1495 1494 2493
3 404 407 408
3 879 2178 2449
3 1700 1698 2036
3 607 1517 1520
3 753 847 848
3 416 411 417
3 1144 742 1943
3 775 776 777
3 754 2108 2148
3 1006 1421 1953
3 585 581 586
3 531 530 532
3 235 1709 1888
3 520 519 521
3 1180 1181 1349
3 1146 759 1967
3 708 710 1921
3 1350 2253 2329
3 436 430 437
3 504 499 505
3 643 641 987
3 336 330 517
3 811 1059 1149
3 1164 1411 1685
3 846 933 934
3 635 843 1960
3 983 982 1918
3 971 872 1096
3 1149 1163 1164
3 169 237 1724
3 1314 1315 1316
3 629 583 630
3 891 812 1916
3 462 463 464
3 487 740 1935
3 798 2084 2189
3 1814 1838 2292
3 1284 1489 1491
3 340 336 2014
3 1670 1461 2200
3 920 782 2057
3 890 2241 2275
3 510 511 512
3 278 279 280
3 839 802 840
3 1858 235 1888
3 1698 1696 2036
3 104 105 222
3 57 58 224
3 1185 1183 1186
3 588 587 623
3 638 600 1988
3 1282 1386 2245
3 811 776 1058
3 816 815 876
3 2034 1845 2082
3 761 636 1741
3 566 565 587
3 174 175 1725
3 347 350 351
3 1469 1495 1496
3 1059 1058 1278
3 811 1149 1976
3 576 485 1935
3 659 658 660
3 859 1153 1962
3 76 1903 1994
3 1821 1109 2426
3 1294 1038 1622
3 733 1833 2075
3 992 993 1980
3 1566 1561 2285
3 525 474 2041
3 464 465 510
3 343 346 347
3 360 893 1982
3 650 649 651
3 896 608 936
3 950 1006 1007
3 1508 1859 1860
3 539 538 565
3 440 343 1911
3 341 340 344
3 221 1905 1906
3 1297 1823 2142
3 759 505 1967
3 1295 1053 1296
3 473 470 474
3 1463 1465 1466
3 1143 1206 2028
3 799 685 800
3 1210 2077 2203
3 509 508 538
3 492 496 2034
3 1553 1551 2030
3 1260 1261 1269
3 1430 1040 1703
3 586 590 1940
3 838 836 868
3 1705 624 2276
3 1749 972 2501
3 742 744 1943
3 804 962 1981
3 1367 1368 2254
3 531 532 533
3 337 336 340
3 1157 1094 1544
3 536 544 1158
3 812 630 1960
3 781 779 835
3 56 57 1947
3 630 583 634
3 1405 1404 1932
3 1281 891 1916
3 339 342 343
3 1411 1163 1730
3 322 323 324
3 344 340 2091
3 1735 1734 1736
3 75 76 1994
3 430 682 2494
3 1907 243 2360
3 589 581 2164
3 694 355 2196
3 744 753 1943
3 775 774 776
3 1210 1430 2077
3 335 338 339
3 1102 1803 2029
3 1078 937 1079
3 870 655 1939
3 505 507 1967
3 357 360 1982
3 1896 1878 2101
3 326 325 328
3 934 935 957
3 585 608 895
3 333 330 336
3 1270 1272 1524
3 688 817 878
3 507 520 1967
3 1428 1257 2074
3 1818 1817 2000
3 896 937 1077
3 934 957 1111
3 329 328 330
3 1499 995 1825
3 944 851 948
3 387 445 462
3 1678 1161 2228
3 777 776 811
3 313 311 757
3 324 331 332
3 848 1026 1955
3 1312 998 1811
3 1321 1322 2037
3 1080 1079 1121
3 1105 1355 2015
3 1645 2317 2461
3 1559 1568 2062
3 332 334 335
3 501 500 508
3 321 325 326
3 394 395 397
3 322 320 323
3 1529 1530 2171
3 1137 797 1138
3 811 1058 1059
3 661 660 662
3 569 581 585
3 183 4 2303
3 5 160 2304
3 1340 1138 1341
3 1660 1626 2185
3 1743 1464 2347
3 1026 1375 1955
3 1149 1059 1163
3 1736 1625 2194
3 1322 1667 2434
3 311 309 1959
3 309 307 319
3 894 700 1944
3 533 534 562
3 1276 1277 1366
3 2190 1706 2408
3 533 532 534
3 1214 1213 1410
3 1164 1163 1411
3 843 701 844
3 1009 1214 2055
3 234 1589 1788
3 2000 1817 2174
3 317 321 2050
3 328 325 945
3 392 393 394
3 588 623 2089
3 1162 958 1681
3 1078 1080 1136
3 927 848 1955
3 1496 1497 1498
3 390 391 392
3 1061 927 1955
3 1283 948 1284
3 635 634 700
3 1244 1251 1252
3 218 78 2093
3 756 722 2026
3 1071 1784 2419
3 1218 1505 2185
3 1284 948 1285
3 1489 1285 1490
3 918 1850 1851
3 684 1090 2029
3 1759 572 2537
3 1691 1690 2446
3 1979 1158 2071
3 606 649 650
3 2045 1043 2046
3 103 104 2025
3 630 634 635
3 360 383 893
3 406 386 2043
3 1909 219 2023
3 1111 957 1276
3 1925 1437 2277
3 1536 2268 2340
3 854 852 1133
3 233 153 1671
3 651 658 659
3 2099 1787 2368
3 1033 1032 1130
3 1015 1372 1373
3 1412 942 2026
3 253 264 1441
3 1531 1534 2332
3 701 700 894
3 106 107 1990
3 2048 1961 2455
3 276 274 2099
3 738 846 1968
3 1325 925 1326
3 896 936 937
3 585 586 608
3 1450 854 1973
3 1361 1360 1362
3 1045 1668 2512
3 303 301 444
3 996 844 997
3 79 1904 2093
3 1989 1686 2095
3 1928 774 2033
3 1942 562 1979
3 287 285 316
3 935 950 1966
3 1466 1467 1468
3 1242 1243 1244
3 1887 738 1968
3 2115 210 2477
3 878 929 1083
3 1326 1736 2194
3 886 888 1014
3 895 608 896
3 289 287 1978
3 821 822 897
3 936 608 1940
3 613 614 615
3 51 52 1996
3 417 411 1160
3 1149 1164 1989
3 386 786 2043
3 285 283 1971
3 1309 1543 2147
3 375 373 2053
3 371 370 372
3 779 777 1976
3 1286 1159 1773
3 2177 887 2376
3 1560 1557 1564
3 1403 1882 2399
3 1727 1757 2246
3 279 6 2049
3 1619 1438 2438
3 291 289 758
3 1781 1915 2294
3 425 401 426
3 349 355 356
3 66 67 2118
3 474 548 2041
3 1686 1687 2007
3 1262 1456 1457
3 1123 942 1412
3 1916 812 1960
3 1355 1425 2015
3 735 733 2075
3 1861 879 2449
3 1284 1285 1489
3 490 492 2034
3 366 363 367
3 980 578 2051
3 906 904 1792
3 534 536 1979
3 842 924 963
3 2051 578 2083
3 1077 937 1078
3 1102 1104 1803
3 894 1944 1946
3 398 404 2060
3 1007 1006 1953
3 369 367 370
3 348 354 2196
3 1078 1079 1080
3 1378 1380 1381
3 1568 1365 2439
3 608 586 1940
3 598 610 611
3 760 636 761
3 869 1137 1351
3 671 643 2033
3 1661 1345 2267
3 938 914 1057
3 783 761 914
3 576 1835 2144
3 388 389 390
3 297 295 318
3 454 453 500
3 1906 1728 2246
3 1439 1440 2468
3 1159 1013 1318
3 764 797 869
3 236 143 1717
3 782 644 2057
3 592 595 596
3 1542 2332 2443
3 1521 1311 2147
3 345 348 349
3 1304 1452 2205
3 1644 1907 2360
3 2146 1125 2149
3 997 844 1013
3 628 375 2053
3 299 297 1984
3 957 935 1966
3 664 685 799
3 301 299 1975
3 362 352 363
3 777 811 1976
3 1942 1979 2071
3 1001 920 2057
3 312 314 768
3 1552 1554 2062
3 615 616 617
3 357 1982 2076
3 800 802 839
3 774 671 2033
3 1749 1169 2105
3 365 958 1162
3 617 618 619
3 283 281 1938
3 1351 1772 2414
3 1525 1765 2489
3 846 934 1968
3 635 700 701
3 555 554 577
3 536 1158 1979
3 1101 1404 1405
3 630 635 1960
3 1811 1150 2089
3 2113 1666 2249
3 172 173 1847
3 107 108 195
3 54 55 196
3 1191 1768 2023
3 1455 1302 2205
3 115 116 2017
3 1387 1333 2437
3 659 661 764
3 1080 1121 1188
3 50 51 2011
3 411 406 2043
3 295 293 1983
3 643 987 2033
3 707 706 708
3 129 130 261
3 32 33 260
3 2159 260 2265
3 449 434 567
3 1314 1029 1315
3 917 796 940
3 378 375 628
3 108 109 1991
3 2370 1759 2537
3 341 344 345
3 997 1013 1159
3 544 569 1993
3 950 1007 1966
3 477 474 525
3 351 350 352
3 1696 1701 2036
3 334 331 803
3 1137 1138 1340
3 562 534 1979
3 109 110 246
3 52 53 247
3 1368 1316 1369
3 659 660 661
3 33 34 2002
3 123 124 2005
3 835 779 1976
3 851 838 1992
3 1530 1533 2172
3 1668 1045 2348
3 1162 1681 1706
3 342 338 468
3 298 300 358
3 765 359 2065
3 725 826 885
3 35 36 2003
3 46 47 2019
3 38 39 2006
3 336 517 2014
3 934 1111 1968
3 116 117 2018
3 650 651 1963
3 223 1711 2162
3 640 594 645
3 1333 1330 2192
3 104 222 2025
3 1603 922 2379
3 963 1113 1115
3 2084 1193 2189
3 564 570 571
3 36 37 2004
3 57 224 1947
3 1542 1601 2269
3 122 123 2012
3 1000 920 1001
3 127 128 240
3 34 35 239
3 383 387 2087
3 1161 1107 2228
3 1781 2294 2419
3 1201 1200 1202
3 124 125 225
3 37 38 226
3 1340 1341 1342
3 869 797 1137
3 839 840 1008
3 1158 544 1993
3 1326 925 1894
3 352 350 353
3 326 329 954
3 1864 2344 2412
3 836 835 2095
3 1051 1053 1295
3 1031 720 1032
3 503 461 787
3 1407 1112 2044
3 661 662 2058
3 838 868 1992
3 112 113 197
3 49 50 198
3 1359 980 1413
3 121 122 211
3 40 41 212
3 48 49 2010
3 113 114 2009
3 1741 673 2131
3 41 42 2020
3 120 121 2013
3 1409 2035 2097
3 1511 1374 2506
3 114 115 248
3 47 48 249
3 42 43 250
3 119 120 251
3 171 6 201
3 6 172 203
3 585 895 1993
3 43 44 2024
3 118 119 2021
3 905 904 906
3 764 661 797
3 337 340 341
3 1413 980 2051
3 117 118 205
3 44 45 206
3 347 346 350
3 1420 1076 1525
3 324 323 331
3 434 417 2031
3 965 967 969
3 716 719 788
3 1260 1254 1261
3 2053 373 2103
3 2069 2068 2170
3 326 328 329
3 1706 996 2408
3 273 275 2124
3 969 1011 1012
3 590 606 2001
3 1718 1611 2280
3 1914 1940 2001
3 915 1884 2082
3 329 330 333
3 620 859 955
3 2168 1409 2305
3 296 298 1997
3 915 2082 2101
3 339 338 342
3 1218 994 1505
3 333 336 337
3 266 263 1742
3 1873 768 2127
3 244 63 2162
3 64 223 2162
3 343 342 346
3 914 761 2258
3 310 312 1987
3 799 800 2055
3 302 304 763
3 1559 1566 1568
3 1598 1343 2114
3 592 575 595
3 341 345 794
3 189 1842 2220
3 767 815 816
3 1003 912 1004
3 839 1008 1009
3 1263 1428 1429
3 564 547 570
3 1845 1334 2082
3 332 331 334
3 901 866 902
3 651 659 1963
3 1009 1112 1213
3 335 334 338
3 569 585 1993
3 1665 1336 2299
3 1945 2071 2153
3 863 862 864
3 907 906 908
3 1849 1486 1930
3 1935 1144 2080
3 967 966 968
3 809 900 2119
3 865 864 866
3 835 1989 2095
3 190 1907 2417
3 333 337 522
3 1110 1748 2228
3 1193 1194 1195
3 94 191 2166
3 473 1854 2453
3 1769 1134 2369
3 948 851 1992
3 237 170 2216
3 420 419 422
3 1448 1447 2364
3 483 576 2144
3 721 1919 2032
3 885 886 1891
3 613 611 614
3 886 1014 1891
3 1160 411 2043
3 1918 1283 2342
3 1651 206 2485
3 1242 1240 1243
3 598 596 610
3 1295 1296 1459
3 1185 1186 1948
3 1425 1449 2070
3 294 296 762
3 1285 948 1992
3 925 876 1894
3 712 714 789
3 603 1668 2398
3 1940 590 2001
3 721 570 964
3 834 735 2075
3 1144 1920 2080
3 2263 1635 2511
3 1204 1207 1335
3 2235 1408 2378
3 965 964 966
3 1990 1435 2218
3 397 398 2060
3 1138 797 2058
3 1787 1141 2368
3 2068 820 2170
3 360 359 361
3 387 462 2087
3 1524 1272 1934
3 819 698 820
3 1197 1196 1198
3 1662 2126 2388
3 78 79 2093
3 1150 588 2089
3 1269 1261 1270
3 1878 915 2101
3 451 467 2169
3 2262 1387 2437
3 1009 1008 1112
3 757 311 1959
3 897 898 1139
3 1854 473 2483
3 2015 1425 2070
3 2082 1334 2101
3 963 1115 1174
3 1047 1049 1287
3 1194 423 1196
3 321 326 2050
3 417 1160 2031
3 854 1133 1973
3 1201 1212 1348
3 705 1586 2163
3 309 319 1959
3 1353 1390 2417
3 427 428 429
3 357 356 359
3 606 650 2001
3 549 1280 2124
3 1213 1112 1407
3 256 2303 2535
3 356 365 2065
3 662 664 2040
3 701 894 2039
3 1325 1371 2451
3 666 626 667
3 1902 93 2166
3 1236 1234 1246
3 800 839 2055
3 1869 1812 2252
3 1197 1364 1365
3 576 1935 2080
3 404 408 798
3 1678 807 2529
3 1560 1564 2016
3 1319 2039 2122
3 425 426 427
3 349 356 357
3 308 310 327
3 1716 622 2484
3 1801 82 2289
3 1768 1949 2420
3 2006 1926 2507
3 351 364 2407
3 420 423 1193
3 659 764 1963
3 292 294 2038
3 840 842 2027
3 736 279 2049
3 372 373 374
3 461 449 2052
3 2189 1195 2285
3 1174 1115 1398
3 367 363 961
3 909 908 918
3 1738 247 2402
3 1007 1761 2308
3 288 290 2135
3 422 441 2035
3 623 624 690
3 537 525 545
3 1953 1421 2454
3 1887 1968 2123
3 861 691 862
3 654 439 2223
3 1136 1080 2054
3 1312 1811 2089
3 575 571 2032
3 383 361 384
3 968 1200 1201
3 797 661 2058
3 1423 1354 2381
3 1180 1178 1181
3 1513 1515 2180
3 72 73 2217
3 462 445 463
3 12 13 2136
3 457 458 469
3 542 554 555
3 599 636 760
3 254 133 1766
3 1130 1397 1937
3 404 798 2060
3 1044 1942 2071
3 690 691 860
3 357 359 360
3 1008 2027 2152
3 1232 1230 1255
3 372 370 373
3 850 943 2125
3 1457 1456 1492
3 1952 324 2282
3 155 2 2356
3 0 7 2357
3 2017 1379 2288
3 918 1851 2008
3 195 1991 2517
3 2090 803 2347
3 1244 1243 1251
3 290 292 368
3 1432 1082 2214
3 1008 840 2027
3 1743 803 2296
3 1013 844 2039
3 365 1162 2065
3 1594 1315 2184
3 387 384 388
3 1508 1860 2311
3 547 527 2056
3 2005 225 2322
3 314 317 2127
3 1853 556 2327
3 201 6 278
3 1907 1644 2417
3 1896 2101 2108
3 646 645 784
3 538 508 558
3 374 375 377
3 1630 1634 1635
3 1579 1999 2352
3 1647 1648 1849
3 1313 1314 2121
3 1179 1433 2042
3 844 701 2039
3 1252 1251 2098
3 816 876 925
3 1922 1228 2281
3 392 394 396
3 1915 654 2294
3 1652 1653 2487
3 429 430 436
3 456 475 476
3 1605 1392 2510
3 126 1882 2284
3 1784 1780 2419
3 500 453 960
3 377 378 381
3 2178 1587 2300
3 1222 1219 1626
3 413 419 420
3 381 382 400
3 2169 1836 2223
3 1906 1905 2129
3 616 614 793
3 1170 1419 2139
3 101 189 2220
3 241 100 2220
3 1968 1111 2123
3 567 434 2031
3 615 614 616
3 1032 720 1921
3 682 428 2138
3 469 470 473
3 339 440 2261
3 1501 238 2226
3 1154 1431 1653
3 446 447 457
3 1251 1243 1257
3 2229 315 2495
3 1201 1202 1212
3 785 784 879
3 464 463 465
3 66 2118 2395
3 324 332 2282
3 286 288 771
3 17 199 2081
3 571 570 721
3 611 610 2092
3 617 616 618
3 1542 1531 2332
3 400 401 424
3 1325 1326 1371
3 1140 1406 1702
3 1323 443 2302
3 1926 1573 2507
3 436 437 446
3 1262 1457 2098
3 67 190 2118
3 1518 1861 2449
3 989 1359 1360
3 1063 1082 1154
3 1757 96 2526
3 969 967 1011
3 868 836 2095
3 1215 1035 2235
3 96 1757 2309
3 261 2160 2380
3 1381 1382 2126
3 1468 1469 2182
3 1334 1317 2108
3 861 863 1064
3 1270 1261 1271
3 360 361 383
3 287 316 1978
3 1856 192 2367
3 1905 241 2129
3 1615 1809 2425
3 528 523 560
3 979 980 989
3 662 2040 2058
3 721 964 965
3 170 171 2216
3 664 799 2040
3 512 511 523
3 1201 1348 2107
3 620 618 858
3 758 289 1978
3 859 858 998
3 424 425 453
3 1616 1615 2193
3 444 301 1975
3 561 560 593
3 965 966 967
3 1798 376 2430
3 340 2014 2091
3 510 465 511
3 107 195 1990
3 1080 1188 2054
3 1153 998 1312
3 1226 1224 1249
3 1012 1011 1363
3 902 904 905
3 842 963 2027
3 268 270 1134
3 865 901 1125
3 2077 558 2102
3 282 284 442
3 1977 1679 2253
3 1496 1498 2047
3 284 286 2063
3 281 736 1938
3 2132 793 2165
3 1674 215 2437
3 2078 1855 2411
3 839 1009 2055
3 1182 824 1183
3 1168 947 1169
3 1289 1871 2242
3 316 285 1971
3 1270 1271 1272
3 1755 1793 2264
3 51 1996 2011
3 383 384 387
3 1146 1924 2215
3 1279 1928 2202
3 619 618 620
3 1194 1196 1197
3 555 578 979
3 1937 1639 2528
3 1262 1257 1263
3 389 384 2339
3 2251 1338 2464
3 1155 1887 2123
3 1151 1937 2528
3 465 463 828
3 1318 1319 2116
3 1687 1688 2231
3 326 954 2050
3 297 318 1984
3 1308 953 2255
3 1846 2056 2198
3 320 315 2229
3 1254 1252 2059
3 760 761 783
3 951 1281 2255
3 1459 1296 2094
3 2288 1638 2470
3 1975 299 1984
3 52 247 1996
3 468 338 2090
3 2140 1511 2506
3 1125 1126 1192
3 593 824 1182
3 720 708 1921
3 704 706 707
3 623 587 624
3 2044 1112 2152
3 1393 1169 1749
3 900 983 2119
3 783 914 938
3 255 2265 2489
3 2039 894 2122
3 317 2050 2127
3 1866 1867 2513
3 374 373 375
3 429 436 455
3 387 388 445
3 1193 423 1194
3 555 577 578
3 1074 977 1187
3 449 567 2052
3 1197 1198 1364
3 2154 1595 2486
3 1486 1849 2173
3 318 295 1983
3 939 1016 1844
3 131 132 2160
3 30 31 2159
3 881 1146 2215
3 1294 1868 2238
3 1300 1455 2314
3 1365 1364 1912
3 783 938 939
3 2061 1735 2441
3 551 545 601
3 2194 216 2536
3 1251 1257 1262
3 888 887 2177
3 1364 1198 2048
3 1498 1682 2340
3 1589 1590 2501
3 60 188 2266
3 1401 1913 2324
3 195 108 1991
3 420 422 423
3 1675 1470 2474
3 258 1673 2183
3 2161 1619 2438
3 1296 1472 2094
3 1808 1910 2381
3 334 803 2090
3 1490 1285 2232
3 523 511 524
3 1240 1238 2074
3 1184 1183 1185
3 39 40 2151
3 473 474 477
3 1461 1463 2200
3 2072 353 2073
3 861 862 863
3 1206 1941 2401
3 958 1575 2287
3 614 611 2092
3 110 111 2140
3 1136 2054 2110
3 645 594 2133
3 260 33 2002
3 673 767 2131
3 989 980 1359
3 1741 2131 2258
3 1317 1875 2148
3 894 1946 2122
3 863 864 865
3 787 461 2052
3 857 2277 2386
3 109 246 1991
3 2017 116 2018
3 1182 1183 1184
3 377 375 378
3 816 925 1324
3 865 866 901
3 1262 1263 1456
3 359 356 2065
3 2129 241 2472
3 283 1938 1971
3 1458 1210 2203
3 1076 1003 2145
3 196 1738 2402
3 1033 1130 1151
3 1188 1121 2106
3 1140 1702 2096
3 549 687 1280
3 1694 1621 2191
3 861 1064 2112
3 1548 1549 2129
3 1784 1071 2462
3 714 716 2066
3 1961 825 2455
3 1447 1211 2250
3 979 578 980
3 905 907 1209
3 381 378 382
3 457 469 552
3 595 575 2032
3 408 413 2084
3 481 483 2144
3 1745 1349 2293
3 1980 1405 2441
3 198 50 2011
3 248 115 2017
3 912 819 2068
3 620 858 859
3 707 708 720
3 821 674 822
3 514 542 2086
3 400 382 401
3 123 2005 2012
3 1772 1351 2374
3 34 239 2002
3 768 314 2127
3 2003 36 2004
3 280 282 2079
3 124 225 2005
3 596 595 2130
3 593 560 824
3 1504 1502 2519
3 239 35 2003
3 1311 1309 2147
3 1318 1877 2240
3 1860 1432 2311
3 1416 1715 2330
3 859 998 1153
3 352 353 2072
3 312 768 1987
3 2027 1174 2152
3 226 38 2006
3 1827 1024 2117
3 1710 1391 2295
3 690 624 691
3 37 226 2004
3 1153 1312 1885
3 853 855 2186
3 1892 242 2373
3 1967 520 2174
3 939 938 1016
3 47 249 2019
3 388 390 2078
3 1991 2139 2517
3 905 906 907
3 571 721 2032
3 1196 423 2035
3 1324 925 1325
3 1151 1130 1937
3 363 352 2072
3 345 349 2076
3 1031 1032 1033
3 214 179 1859
3 211 122 2012
3 602 601 652
3 117 205 2018
3 710 712 2067
3 1602 187 2357
3 520 2000 2174
3 85 242 2335
3 220 84 2335
3 381 400 2113
3 1586 1587 2435
3 424 401 425
3 963 1174 2027
3 860 691 861
3 610 596 2130
3 1958 2078 2431
3 570 547 2056
3 237 2216 2354
3 1211 1692 2219
3 298 358 1997
3 909 947 1041
3 441 456 2097
3 1135 1647 1849
3 1601 1542 2443
3 197 113 2009
3 49 198 2010
3 1911 347 2407
3 1729 191 2309
3 212 41 2020
3 121 211 2013
3 222 105 2218
3 1125 901 1126
3 114 248 2009
3 249 48 2010
3 42 250 2020
3 251 120 2013
3 233 1769 2369
3 1870 647 2113
3 794 345 2076
3 250 43 2024
3 119 251 2021
3 901 902 2141
3 964 570 2056
3 739 335 2261
3 2108 1317 2148
3 577 599 2083
3 205 118 2021
3 44 206 2024
3 1247 1241 2323
3 1894 992 2244
3 6 203 2049
3 1642 1678 2529
3 1417 1873 2333
3 1422 2023 2516
3 341 794 2100
3 73 74 2361
3 1234 1232 2088
3 1261 1254 2059
3 896 1077 2257
3 1921 710 2067
3 125 126 2284
3 220 1699 2289
3 159 5 2304
3 4 184 2303
3 2059 1252 2098
3 1003 1004 2145
3 2328 1325 2451
3 1486 227 1500
3 63 64 2162
3 2081 1192 2260
3 508 500 2102
3 667 1872 2318
3 338 334 2090
3 423 422 2035
3 1192 1126 1471
3 907 908 909
3 1330 1328 2192
3 1972 897 2500
3 2443 316 2514
3 242 86 2373
3 87 193 2373
3 420 1193 2084
3 1473 1086 2358
3 1987 768 2037
3 522 337 2100
3 627 1660 2185
3 1793 446 2264
3 1405 2061 2441
3 1502 1217 2302
3 171 201 2216
3 1158 1993 2153
3 1197 1365 2120
3 1712 1710 2295
3 1121 1401 2414
3 93 94 2166
3 653 652 688
3 622 1716 2452
3 1345 1720 2267
3 477 537 556
3 128 129 2181
3 2331 1295 2458
3 784 645 874
3 1269 1270 2199
3 189 102 2355
3 1041 1168 1343
3 246 110 2140
3 477 525 537
3 755 1895 2371
3 1947 1723 2313
3 1134 1135 2369
3 223 65 2395
3 968 1201 2107
3 1577 1578 2325
3 210 15 2477
3 961 363 2072
3 1581 1579 2352
3 349 357 2076
3 337 341 2100
3 305 303 2317
3 370 367 2103
3 762 296 1997
3 581 580 2164
3 1278 1838 2372
3 1548 2129 2472
3 594 593 2133
3 2021 251 2022
3 2047 1247 2182
3 967 968 2107
3 1169 947 2008
3 481 2144 2169
3 793 614 2092
3 1910 217 2381
3 1251 1262 2098
3 716 788 2066
3 2101 1334 2108
3 2006 39 2151
3 1603 2379 2508
3 1926 2006 2151
3 96 97 2526
3 750 755 2371
3 789 714 2066
3 909 918 947
3 1993 895 2153
3 106 1990 2218
3 1243 1240 2074
3 832 986 1189
3 1283 1284 2342
3 2297 195 2517
3 1043 829 2326
3 767 816 2131
3 602 653 676
3 1004 912 2068
3 2086 1886 2224
3 1124 2177 2467
3 426 401 2531
3 707 720 1030
3 1000 1001 2184
3 1315 1029 2184
3 467 481 2169
3 541 513 2256
3 647 381 2113
3 225 2284 2510
3 2 156 2356
3 187 0 2357
3 40 212 2151
3 2245 1386 2383
3 676 677 829
3 1004 2068 2069
3 1860 232 2487
3 1031 1033 1034
3 829 830 972
3 996 997 2408
3 1195 1194 2120
3 987 1869 2202
3 1410 1213 2222
3 819 820 2068
3 1485 1486 2173
3 1564 2030 2155
3 807 669 2529
3 129 261 2181
3 1525 1076 2145
3 578 577 2083
3 327 310 1987
3 1083 929 2197
3 2131 1324 2258
3 798 408 2084
3 1838 696 2426
3 1486 1500 1930
3 1946 1944 2291
3 2257 1077 2291
3 1512 1661 2266
3 445 388 2078
3 1192 1471 2260
3 2118 1415 2395
3 1466 1468 2158
3 830 677 831
3 211 2012 2251
3 652 601 2442
3 537 545 551
3 558 508 2102
3 198 2011 2128
3 1718 2280 2385
3 500 960 2102
3 1168 1169 1393
3 1127 971 2496
3 95 96 2309
3 2030 1565 2155
3 1919 1172 2273
3 977 860 2112
3 240 128 2181
3 294 762 2038
3 1800 1799 2195
3 712 789 2067
3 972 1749 2326
3 472 1683 2212
3 874 645 2133
3 551 2045 2201
3 2105 1043 2326
3 1957 1212 2301
3 1514 1856 2367
3 565 538 2167
3 373 370 2103
3 355 348 2196
3 1934 1272 2138
3 1934 426 2531
3 1881 1400 2481
3 2046 1851 2327
3 367 961 2103
3 1963 1152 2206
3 201 278 443
3 3 131 2444
3 31 1 2445
3 2035 441 2097
3 503 787 2198
3 1135 1849 1930
3 1534 1983 2306
3 2089 623 2150
3 687 704 2109
3 869 1351 2363
3 1302 1304 2205
3 955 1716 2484
3 1030 720 1031
3 1159 1318 2240
3 1228 1226 2281
3 947 918 2008
3 413 420 2084
3 785 879 2532
3 1041 947 1168
3 1468 2182 2323
3 1246 1234 2088
3 1730 1163 2372
3 542 555 2086
3 1599 631 2312
3 1146 1967 2174
3 1078 1136 2343
3 1515 1574 2180
3 2336 885 2469
3 1257 1243 2074
3 1347 1346 2279
3 2001 650 2206
3 1480 1601 2514
3 1029 1000 2184
3 1956 788 2336
3 1271 1261 2059
3 130 3 2444
3 1 32 2445
3 1570 1507 2197
3 1232 1255 2088
3 791 1642 2529
3 1601 1479 2269
3 1361 1362 2168
3 1634 1922 2281
3 765 2065 2190
3 2071 1158 2153
3 1699 1801 2289
3 832 831 833
3 1864 346 2344
3 456 476 2097
3 1855 828 2411
3 2065 1162 2190
3 1125 1192 2149
3 599 760 2083
3 361 765 2339
3 1731 2123 2241
3 1349 1181 1350
3 1443 1275 2251
3 1819 524 2429
3 1021 1045 2512
3 858 618 2132
3 1999 358 2338
3 368 292 2038
3 290 368 2135
3 803 331 2296
3 1112 1008 2152
3 56 1947 2313
3 555 979 2086
3 1469 1496 2182
3 1011 967 2107
3 248 2017 2288
3 1809 789 2425
3 960 453 2221
3 538 558 2167
3 1858 1187 2248
3 2246 1757 2526
3 902 905 2141
3 1851 1853 2327
3 1224 1222 2111
3 771 288 2135
3 1945 2153 2257
3 1420 1525 2489
3 1399 1123 2393
3 103 2025 2355
3 897 822 898
3 1861 940 2532
3 865 1125 2146
3 1675 2474 2522
3 1573 2157 2507
3 1632 1631 2382
3 551 601 602
3 527 503 2198
3 1708 805 2337
3 1059 1278 2372
3 2056 527 2198
3 860 861 2112
3 1668 2348 2398
3 255 2159 2265
3 1541 1542 2269
3 1428 2074 2227
3 1582 1583 2321
3 389 1774 2503
3 2004 226 2157
3 1777 397 2405
3 1368 1436 2254
3 1061 2409 2462
3 1071 930 2462
3 1126 901 2141
3 1194 1197 2120
3 1452 1952 2282
3 2116 1319 2482
3 105 106 2218
3 1981 1399 2393
3 2119 983 2143
3 444 1682 2461
3 2173 1648 2463
3 616 793 2132
3 1791 1190 2334
3 1826 1728 2259
3 602 652 653
3 1834 1292 2428
3 556 2201 2327
3 1014 1015 2385
3 1995 1287 2331
3 1193 1195 2189
3 816 1324 2131
3 879 1861 2532
3 593 1182 2133
3 1402 266 1742
3 2216 1323 2354
3 1660 1636 2502
3 620 955 2484
3 1162 1706 2190
3 1870 2113 2249
3 204 1680 1732
3 1909 2023 2420
3 217 72 2217
3 376 372 2430
3 905 1209 2141
3 1378 1381 2283
3 1236 1246 2227
3 286 771 2063
3 1635 2263 2502
3 100 101 2220
3 1139 898 1140
3 2114 1343 2136
3 442 284 2063
3 1772 2106 2414
3 1985 1755 2533
3 2192 1328 2315
3 1064 863 2146
3 1631 1637 2459
3 736 2049 2523
3 221 1906 2246
3 318 1983 2171
3 1496 2047 2182
3 1374 2139 2506
3 196 55 2313
3 2087 462 2134
3 676 653 677
3 2304 257 2491
3 1401 2324 2363
3 829 677 830
3 654 2223 2242
3 1187 977 2112
3 1463 1466 2200
3 2023 219 2516
3 1176 881 2215
3 513 471 2290
3 1812 459 2252
3 1386 1269 2199
3 291 758 2306
3 618 616 2132
3 278 280 2210
3 83 220 2289
3 82 83 2289
3 938 1057 2161
3 1189 986 1190
3 788 719 2336
3 1914 2001 2206
3 232 181 1652
3 1567 2062 2490
3 313 757 2495
3 622 619 2484
3 688 878 1320
3 1222 1626 2111
3 282 442 2079
3 1169 2008 2105
3 1966 1007 2308
3 2040 799 2237
3 1744 2229 2495
3 986 833 1063
3 2284 1605 2510
3 887 1961 2376
3 215 1624 2262
3 830 831 832
3 476 475 2224
3 439 451 2223
3 1932 1933 2380
3 2227 1246 2366
3 1212 1202 2301
3 1107 1110 2228
3 249 2010 2299
3 1983 293 2306
3 2055 1214 2237
3 1438 1372 2478
3 824 560 2156
3 2320 1866 2513
3 1351 1137 2374
3 868 2007 2232
3 2063 771 2064
3 1507 214 1508
3 1728 1727 2246
3 1045 1047 2348
3 1139 1140 2096
3 1648 1649 2463
3 1502 2302 2519
3 704 707 2109
3 2343 1136 2396
3 650 1963 2206
3 2153 895 2257
3 396 1958 2431
3 1379 1377 2288
3 2115 1471 2319
3 2033 987 2202
3 2239 1693 2518
3 2025 1488 2355
3 1209 2115 2319
3 523 524 2156
3 783 939 2243
3 376 1798 2497
3 2066 788 2193
3 1984 318 2172
3 425 427 2221
3 203 172 1847
3 446 457 2264
3 1312 2089 2150
3 2138 1272 2211
3 897 1139 2274
3 828 1819 2429
3 1249 1224 2111
3 666 667 2318
3 1371 1326 2194
3 2433 1499 2475
3 1272 1271 2211
3 1367 2254 2479
3 1386 2053 2383
3 2074 1238 2227
3 755 2148 2320
3 2117 1604 2428
3 475 514 2224
3 228 2187 2457
3 1868 1504 2520
3 1626 1218 2185
3 2123 1111 2241
3 1287 1049 2331
3 1280 687 2109
3 459 1814 2292
3 54 196 2402
3 863 865 2146
3 204 176 1680
3 514 2086 2224
3 1646 603 2398
3 112 197 2346
3 358 300 2338
3 1140 898 1141
3 1204 1335 2301
3 1016 2161 2438
3 909 1041 2175
3 1681 2448 2492
3 2252 459 2292
3 1992 868 2232
3 1035 1036 2235
3 1051 1295 2331
3 1836 1289 2242
3 1508 214 1859
3 247 53 2402
3 1016 938 2161
3 1408 856 2378
3 1466 2158 2200
3 725 885 2336
3 855 1450 2421
3 2023 1768 2420
3 1238 1236 2227
3 1679 202 2253
3 2107 1348 2233
3 1653 1431 2487
3 1946 2291 2343
3 2253 202 2329
3 1885 1312 2150
3 378 628 2390
3 2195 1383 2432
3 1520 1519 2480
3 1532 1733 2534
3 308 327 2278
3 953 951 2255
3 1213 1407 2222
3 1561 1563 2285
3 302 763 2338
3 1928 2033 2202
3 763 304 2345
3 832 833 986
3 1352 2040 2237
3 247 1881 2481
3 560 523 2156
3 335 339 2261
3 346 342 2344
3 201 443 1323
3 2301 1335 2466
3 323 320 2229
3 1136 2110 2396
3 1139 1977 2274
3 1809 1615 2423
3 1707 1791 2334
3 46 2019 2485
3 2064 1294 2238
3 1950 197 2404
3 2021 2022 2176
3 1949 245 2420
3 2044 2152 2207
3 1063 1154 1707
3 1012 1363 2406
3 280 2079 2210
3 2237 1214 2351
3 820 698 2318
3 1140 1141 1406
3 205 2021 2176
3 2043 786 2310
3 2145 1004 2446
3 707 1030 2109
3 1406 2460 2473
3 2137 1268 2226
3 16 2081 2260
3 567 2031 2219
3 2112 1064 2248
3 206 45 2485
3 2347 1462 2365
3 1650 1962 2362
3 453 425 2221
3 1209 907 2175
3 1111 1276 2241
3 2448 1145 2492
3 2051 2083 2243
3 59 60 2266
3 1402 1742 2530
3 831 677 2209
3 624 587 2276
3 238 174 1725
3 1011 2107 2233
3 468 2365 2412
3 2337 805 2371
3 254 1932 2380
3 1174 1398 2207
3 2140 111 2346
3 1381 2186 2283
3 1987 2037 2188
3 1740 559 2456
3 1773 391 2503
3 1335 1870 2249
3 1945 2257 2291
3 828 463 2411
3 1246 2088 2208
3 2060 798 2307
3 1773 1159 2240
3 1187 2112 2248
3 1352 2237 2351
3 2037 1322 2188
3 1941 1499 2433
3 2322 225 2510
3 1031 1034 2236
3 327 2188 2321
3 595 2032 2273
3 1464 1462 2347
3 1285 1992 2232
3 799 2055 2237
3 443 278 2210
3 784 874 2178
3 392 396 2431
3 191 95 2309
3 879 784 2178
3 524 511 2429
3 2128 2011 2270
3 895 896 2257
3 2206 1152 2324
3 318 2171 2172
3 2259 1549 2379
3 1214 1410 2351
3 306 308 2278
3 2022 251 2247
3 1757 1729 2309
3 1283 1918 2524
3 996 1706 2492
3 557 2044 2207
3 1798 1448 2364
3 1447 2250 2310
3 559 1750 2403
3 1363 1011 2233
3 1343 1168 2187
3 1407 2044 2256
3 1462 1460 2365
3 1995 2331 2458
3 327 1987 2188
3 2160 254 2380
3 1681 958 2287
3 2031 1160 2250
3 1600 689 2413
3 2219 1692 2239
3 1494 1675 2522
3 1281 1916 2448
3 907 909 2175
3 565 2167 2276
3 2241 1276 2275
3 1978 316 2443
3 2151 212 2350
3 203 1847 2104
3 2049 1481 2523
3 1961 1362 2376
3 2187 1393 2457
3 940 796 2532
3 2293 1349 2329
3 572 1897 2537
3 332 739 2282
3 2052 567 2239
3 1437 1370 2277
3 567 2219 2239
3 667 626 2452
3 1914 2206 2324
3 2243 939 2392
3 2136 1343 2187
3 257 1654 2530
3 1376 1378 2283
3 2076 1982 2272
3 2083 760 2243
3 1944 1945 2291
3 1771 1839 2359
3 1404 1403 2399
3 1875 1866 2320
3 1460 1337 2412
3 760 783 2243
3 1276 1366 2275
3 1428 2227 2366
3 1882 1605 2284
3 1739 1429 2459
3 2321 2188 2434
3 1328 1327 2315
3 798 2189 2307
3 2152 1174 2207
3 2182 1247 2323
3 1516 1514 2367
3 293 291 2306
3 556 537 2201
3 1298 1300 2314
3 1400 1399 2316
3 1649 2236 2463
3 833 831 2424
3 2127 2050 2333
3 1057 914 2328
3 1839 193 2359
3 761 1741 2258
3 1186 1970 2422
3 1429 2366 2382
3 2211 1271 2271
3 1733 1248 2534
3 13 2114 2136
3 2078 390 2431
3 1533 1536 2340
3 1690 2145 2446
3 1277 2308 2370
3 1168 1393 2187
3 1597 2047 2268
3 587 565 2276
3 1908 244 2401
3 225 125 2284
3 610 2130 2468
3 1749 2105 2326
3 1913 1914 2324
3 2366 2208 2382
3 1391 1876 2295
3 457 552 2264
3 653 688 2209
3 1601 2443 2514
3 682 2138 2211
3 992 1980 2244
3 55 56 2313
3 1645 1495 2493
3 473 477 2483
3 202 1724 2329
3 465 828 2429
3 1277 1966 2308
3 1416 2330 2406
3 1912 1364 2455
3 1716 1483 2375
3 2019 1651 2485
3 1725 2137 2226
3 201 1323 2216
3 878 1083 2213
3 2072 2073 2245
3 1563 1777 2405
3 244 2028 2401
3 2016 1564 2422
3 1682 1497 2461
3 1962 1153 2362
3 1298 2314 2358
3 1384 1385 2391
3 688 1320 2209
3 1587 2179 2435
3 786 380 2497
3 1395 1522 2341
3 2032 1919 2273
3 251 2013 2247
3 2219 2031 2250
3 2397 552 2453
3 1765 255 2489
3 2475 1825 2524
3 1202 1204 2301
3 445 2078 2411
3 323 2229 2296
3 1286 2384 2408
3 537 551 2201
3 1724 237 2293
3 84 85 2335
3 1471 1126 2319
3 1635 1634 2511
3 300 302 2338
3 698 666 2318
3 1030 1031 2236
3 2098 1457 2271
3 696 1821 2426
3 1457 1492 2447
3 1956 2336 2469
3 331 323 2296
3 1284 1491 2342
3 2011 1996 2270
3 256 183 2303
3 160 257 2304
3 2204 1589 2501
3 1891 1014 2280
3 719 725 2336
3 1354 1808 2381
3 437 430 2494
3 2377 218 2391
3 2211 2271 2447
3 1407 2256 2290
3 2365 1460 2412
3 2047 1498 2268
3 1825 1283 2524
3 1499 1825 2475
3 1226 1249 2281
3 2051 2243 2392
3 2250 1160 2310
3 111 112 2346
3 304 306 2345
3 1341 1352 2351
3 2166 191 2504
3 2223 1836 2242
3 1996 247 2481
3 1049 1051 2331
3 1086 1298 2358
3 2130 595 2273
3 1249 2111 2263
3 680 1995 2458
3 1511 2140 2346
3 102 103 2355
3 469 473 2453
3 961 2072 2245
3 2073 1282 2245
3 1442 1443 2525
3 74 192 2361
3 2163 1586 2435
3 1519 1518 2449
3 897 2274 2500
3 303 444 2317
3 1615 1614 2423
3 197 2009 2404
3 1634 2281 2511
3 1780 1781 2419
3 1435 1623 2465
3 1286 1774 2384
3 384 361 2339
3 193 1901 2359
3 1165 2433 2475
3 2277 1370 2386
3 677 653 2209
3 1994 1516 2367
3 1479 1478 2440
3 1165 1512 2433
3 1644 1353 2417
3 1711 1712 2353
3 2193 1615 2425
3 1613 1956 2469
3 1440 1173 2330
3 2269 1479 2440
3 222 2218 2465
3 391 389 2503
3 306 2278 2345
3 468 2090 2365
3 221 2246 2526
3 1445 1446 2504
3 939 1844 2392
3 86 87 2373
3 1429 1428 2366
3 2053 2103 2383
3 1348 1212 2312
3 805 750 2371
3 997 1286 2408
3 1152 869 2363
3 2063 2064 2238
3 192 1994 2367
3 1160 2043 2310
3 1926 2151 2350
3 2059 2098 2271
3 1897 1366 2537
3 215 2262 2437
3 1655 1732 2476
3 2415 1128 2454
3 1320 2213 2214
3 7 258 2357
3 259 155 2356
3 2171 1530 2172
3 347 351 2407
3 1077 1078 2343
3 239 2003 2279
3 1446 1128 2415
3 1034 1033 2410
3 601 627 2442
3 1154 1653 2234
3 397 2060 2405
3 2142 794 2272
3 442 2063 2238
3 1863 1215 2378
3 794 2076 2272
3 1883 1375 2505
3 1320 878 2213
3 342 468 2344
3 1903 218 2377
3 380 376 2497
3 1549 1547 2379
3 1148 1165 2475
3 2157 226 2507
3 829 972 2326
3 884 1957 2466
3 2291 1077 2343
3 65 66 2395
3 787 2052 2518
3 2298 1348 2312
3 1946 2343 2396
3 1653 256 2535
3 1842 1548 2472
3 1957 2301 2466
3 1366 1277 2370
3 2213 1432 2214
3 961 2245 2383
3 218 2093 2391
3 1376 2283 2421
3 1873 2127 2333
3 1019 1021 2512
3 1128 1127 2454
3 1104 1434 2450
3 2130 1439 2468
3 2396 2110 2482
3 2186 855 2283
3 1724 2293 2329
3 1163 1059 2372
3 1614 2389 2423
3 53 54 2402
3 1063 1707 2334
3 2283 855 2421
3 1385 1863 2436
3 364 1883 2505
3 517 1890 2387
3 1145 996 2492
3 1047 1287 2348
3 2148 1875 2320
3 205 2176 2416
3 1372 1844 2478
3 1211 2219 2250
3 1141 898 2368
3 245 1909 2420
3 2278 327 2321
3 2389 1397 2423
3 2256 513 2290
3 559 2403 2456
3 1137 1340 2374
3 2093 1384 2391
3 1918 1148 2524
3 1030 2236 2427
3 1867 1895 2513
3 2014 517 2387
3 2271 1457 2447
3 1143 2028 2353
3 1904 194 2432
3 1148 2475 2524
3 1574 1523 2436
3 2213 1083 2311
3 1997 358 2325
3 2139 246 2506
3 1370 1369 2386
3 1271 2059 2271
3 1034 2173 2463
3 1123 1412 2393
3 1578 1827 2515
3 2209 1320 2424
3 2079 1504 2210
3 1361 2168 2305
3 1491 1489 2403
3 238 1725 2226
3 1190 986 2334
3 1547 1545 2508
3 1891 1613 2469
3 1153 1885 2362
3 2208 1632 2382
3 2287 1281 2448
3 1356 1376 2421
3 1965 2349 2515
3 2155 1186 2422
3 1522 2014 2387
3 2158 1468 2323
3 2050 954 2333
3 1397 1809 2423
3 1362 1360 2376
3 1852 1985 2397
3 2069 1691 2446
3 789 2066 2425
3 1895 755 2513
3 1707 1154 2234
3 372 374 2430
3 2225 787 2518
3 2028 1206 2401
3 986 1063 2334
3 1912 726 2439
3 1340 1342 2400
3 1916 1145 2448
3 2236 1649 2427
3 2374 1340 2400
3 2222 1407 2290
3 2324 1152 2363
3 241 2220 2472
3 765 2190 2384
3 2375 667 2452
3 2330 1173 2406
3 1181 1972 2500
3 2126 1382 2388
3 1173 1012 2406
3 315 313 2495
3 1015 1373 2385
3 97 221 2526
3 1937 1397 2389
3 930 1061 2462
3 971 1096 2496
3 45 46 2485
3 669 791 2529
3 1104 2450 2521
3 382 378 2390
3 2191 1371 2536
3 2235 1036 2286
3 831 2209 2424
3 762 1997 2349
3 2379 1547 2508
3 2177 1359 2467
3 2403 1489 2456
3 796 785 2532
3 219 1902 2516
3 1519 2300 2480
3 1065 1655 2476
3 1375 1473 2505
3 1489 1490 2456
3 390 392 2431
3 2247 2013 2464
3 1135 1930 2369
3 2278 1583 2345
3 626 622 2452
3 631 2298 2312
3 2233 1348 2298
3 1398 1974 2499
3 1706 1681 2492
3 261 130 2444
3 32 260 2445
3 822 2099 2368
3 1365 1912 2439
3 941 940 2418
3 1446 2166 2504
3 2106 1121 2414
3 2300 1519 2449
3 1803 1104 2521
3 1732 1570 2476
3 1413 2051 2392
3 2122 1946 2396
3 2238 1868 2520
3 477 556 2483
3 2397 1985 2533
3 463 445 2411
3 2163 1185 2488
3 1126 2141 2319
3 1755 2264 2533
3 972 2204 2501
3 2230 1533 2340
3 1774 1773 2503
3 1997 2325 2349
3 1004 2069 2446
3 2159 31 2445
3 131 2160 2444
3 1371 2191 2451
3 1001 2154 2486
3 1682 2230 2340
3 2103 961 2383
3 1033 1151 2410
3 382 2390 2531
3 1504 2079 2520
3 1583 2278 2321
3 511 465 2429
3 250 2024 2479
3 2208 2088 2509
3 619 620 2484
3 1246 2208 2366
3 2141 1209 2319
3 1359 1413 2467
3 1295 1459 2458
3 2218 1435 2465
3 2281 1249 2511
3 2293 237 2354
3 2207 1398 2499
3 1564 2155 2422
3 552 469 2453
3 1947 224 2498
3 2062 1568 2490
3 2018 205 2416
3 260 2159 2445
3 2160 261 2444
3 2092 610 2468
3 194 2195 2432
3 1432 2213 2311
3 211 2251 2464
3 2378 856 2527
3 1536 1532 2534
3 2364 786 2497
3 2438 1438 2478
3 1185 1948 2488
3 2042 941 2418
3 1582 2321 2434
3 885 1891 2469
3 1364 2048 2455
3 1693 2225 2518
3 401 382 2531
3 1338 2247 2464
3 442 2238 2520
3 1292 2117 2428
3 2274 1350 2500
3 2066 2193 2425
3 2179 1184 2435
3 898 822 2368
3 2436 1863 2527
3 1844 1016 2478
3 2184 1001 2486
3 557 2207 2499
3 2013 211 2464
3 2254 250 2479
3 1350 1181 2500
3 2009 248 2470
3 246 2140 2506
3 1574 2436 2527
3 2139 1419 2517
3 316 1971 2514
3 1319 2122 2482
3 226 2006 2507
3 1400 2270 2481
3 1681 2287 2448
3 2325 1578 2349
3 232 1652 2487
3 1320 2214 2424
3 1632 2208 2509
3 248 2288 2470
3 1406 1141 2460
3 2188 1322 2434
3 2244 1980 2441
3 2088 1255 2509
3 1280 2109 2427
3 2060 2307 2405
3 2236 1034 2463
3 1745 2293 2354
3 2122 2396 2482
3 2109 1030 2427
3 2307 1563 2405
3 1429 2382 2459
3 224 2267 2498
3 682 2211 2447
3 2079 442 2520
3 2348 1287 2398
3 2220 1842 2472
3 1335 2249 2466
3 1249 2263 2511
3 443 2210 2519
3 2385 1373 2394
3 1594 2184 2486
3 2052 2239 2518
3 1568 2439 2490
3 2349 1578 2515
3 2344 468 2412
3 2270 1996 2481
3 1735 2244 2441
3 2260 1471 2477
3 2210 1504 2519
3 1434 2297 2450
3 2297 1419 2450
3 2263 1660 2502
3 2404 2009 2470
3 1718 2385 2394
3 1371 2194 2536
3 2317 444 2461
3 1443 2322 2525
3 1716 2375 2452
3 1863 2378 2527
3 2439 726 2490
3 1057 2328 2451
3 1638 2404 2470
3 1454 2234 2535
3 755 2320 2513
3 2234 1653 2535
3 2264 552 2533
3 1419 2297 2517
3 1392 2322 2510
3 552 2397 2533
3 1798 2364 2497
3 2322 1392 2525
3 2382 1631 2459
3 1016 2438 2478
3 1366 2370 2537
3 1742 2491 2530
3 2491 257 2530
CELL_TYPES 4886
5
5
5
5
5
5
5
5
5
5
5
5
5
5
5
5
5
5
5
5
5
5
5
5
5
5
5
5
5
5
5
5
5
5
5
5
5
5
5
5
5
5
5
5
5
5
5
5
5
5
5
5
5
5
5
5
5
5
5
5
5
5
5
5
5
5
5
5
5
5
5
5
5
5
5
5
5
5
5
5
5
5
5
5
5
5
5
5
5
5
5
5
5
5
5
5
5
5
5
5
5
5
5
5
5
5
5
5
5
5
5
5
5
5
5
5
5
5
5
5
5
5
5
5
5
5
5
5
5
5
5
5
5
5
5
5
5
5
5
5
5
5
5
5
5
5
5
5
5
5
5
5
5
5
5
5
5
5
5
5
5
5
5
5
5
5
5
5
5
5
5
5
5
5
5
5
5
5
5
5
5
5
5
5
5
5
5
5
5
5
5
5
5
5
5
5
5
5
5
5
5
5
5
5
5
5
5
5
5
5
5
5
5
5
5
5
5
5
5
5
5
5
5
5
5
5
5
5
5
5
5
5
5
5
5
5
5
5
5
5
5
5
5
5
5
5
5
5
5
5
5
5
5
5
5
5
5
5
5
5
5
5
5
5
5
5
5
5
5
5
5
5
5
5
5
5
5
5
5
5
5
5
5
5
5
5
5
5
5
5
5
5
5
5
5
5
5
5
5
5
5
5
5
5
5
5
5
5
5
5
5
5
5
5
5
5
5
5
5
5
5
5
5
5
5
5
5
5
5
5
5
5
5
5
5
5
5
5
5
5
5
5
5
5
5
5
5
5
5
5
5
5
5
5
5
5
5
5
5
5
5
5
5
5
5
5
5
5
5
5
5
5
5
5
5
5
5
5
5
5
5
5
5
5
5
5
5
5
5
5
5
5
5
5
5
5
5
5
5
5
5
5
5
5
5
5
5
5
5
5
5
5
5
5
5
5
5
5
5
5
5
5
5
5
5
5
5
5
5
5
5
5
5
5
5
5
5
5
5
5
5
5
5
5
5
5
5
5
5
5
5
5
5
5
5
5
5
5
5
5
5
5
5
5
5
5
5
5
5
5
5
5
5
5
5
5
5
5
5
5
5
5
5
5
5
5
5
5
5
5
5
5
5
5
5
5
5
5
5
5
5
5
5
5
5
5
5
5
5
5
5
5
5
5
5
5
5
5
5
5
5
5
5
5
5
5
5
5
5
5
5
5
5
5
5
5
5
5
5
5
5
5
5
5
5
5
5
5
5
5
5
5
5
5
5
5
5
5
5
5
5
5
5
5
5
5
5
5
5
5
5
5
5
5
5
5
5
5
5
5
5
5
5
5
5
5
5
5
5
5
5
5
5
5
5
5
5
5
5
5
5
5
5
5
5
5
5
5
5
5
5
5
5
5
5
5
5
5
5
5
5
5
5
5
5
5
5
5
5
5
5
5
5
5
5
5
5
5
5
5
5
5
5
5
5
5
5
5
5
5
5
5
5
5
5
5
5
5
5
5
5
5
5
5
5
5
5
5
5
5
5
5
5
5
5
5
5
5
5
5
5
5
5
5
5
5
5
5
5
5
5
5
5
5
5
5
5
5
5
5
5
5
5
5
5
5
5
5
5
5
5
5
5
5
5
5
5
5
5
5
5
5
5
5
5
5
5
5
5
5
5
5
5
5
5
5
5
5
5
5
5
5
5
5
5
5
5
5
5
5
5
5
5
5
5
5
5
5
5
5
5
5
5
5
5
5
5
5
5
5
5
5
5
5
5
5
5
5
5
5
5
5
5
5
5
5
5
5
5
5
5
5
5
5
5
5
5
5
5
5
5
5
5
5
5
5
5
5
5
5
5
5
5
5
5
5
5
5
5
5
5
5
5
5
5
5
5
5
5
5
5
5
5
5
5
5
5
5
5
5
5
5
5
5
5
5
5
5
5
5
5
5
5
5
5
5
5
5
5
5
5
5
5
5
5
5
5
5
5
5
5
5
5
5
5
5
5
5
5
5
5
5
5
5
5
5
5
5
5
5
5
5
5
5
5
5
5
5
5
5
5
5
5
5
5
5
5
5
5
5
5
5
5
5
5
5
5
5
5
5
5
5
5
5
5
5
5
5
5
5
5
5
5
5
5
5
5
5
5
5
5
5
5
5
5
5
5
5
5
5
5
5
5
5
5
5
5
5
5
5
5
5
5
5
5
5
5
5
5
5
5
5
5
5
5
5
5
5
5
5
5
5
5
5
5
5
5
5
5
5
5
5
5
5
5
5
5
5
5
5
5
5
5
5
5
5
5
5
5
5
5
5
5
5
5
5
5
5
5
5
5
5
5
5
5
5
5
5
5
5
5
5
5
5
5
5
5
5
5
5
5
5
5
5
5
5
5
5
5
5
5
5
5
5
5
5
5
5
5
5
5
5
5
5
5
5
5
5
5
5
5
5
5
5
5
5
5
5
5
5
5
5
5
5
5
5
5
5
5
5
5
5
5
5
5
5
5
5
5
5
5
5
5
5
5
5
5
5
5
5
5
5
5
5
5
5
5
5
5
5
5
5
5
5
5
5
5
5
5
5
5
5
5
5
5
5
5
5
5
5
5
5
5
5
5
5
5
5
5
5
5
5
5
5
5
5
5
5
5
5
5
5
5
5
5
5
5
5
5
5
5
5
5
5
5
5
5
5
5
5
5
5
5
5
5
5
5
5
5
5
5
5
5
5
5
5
5
5
5
5
5
5
5
5
5
5
5
5
5
5
5
5
5
5
5
5
5
5
5
5
5
5
5
5
5
5
5
5
5
5
5
5
5
5
5
5
5
5
5
5
5
5
5
5
5
5
5
5
5
5
5
5
5
5
5
5
5
5
5
5
5
5
5
5
5
5
5
5
5
5
5
5
5
5
5
5
5
5
5
5
5
5
5
5
5
5
5
5
5
5
5
5
5
5
5
5
5
5
5
5
5
5
5
5
5
5
5
5
5
5
5
5
5
5
5
5
5
5
5
5
5
5
5
5
5
5
5
5
5
5
5
5
5
5
5
5
5
5
5
5
5
5
5
5
5
5
5
5
5
5
5
5
5
5
5
5
5
5
5
5
5
5
5
5
5
5
5
5
5
5
5
5
5
5
5
5
5
5
5
5
5
5
5
5
5
5
5
5
5
5
5
5
5
5
5
5
5
5
5
5
5
5
5
5
5
5
5
5
5
5
5
5
5
5
5
5
5
5
5
5
5
5
5
5
5
5
5
5
5
5
5
5
5
5
5
5
5
5
5
5
5
5
5
5
5
5
5
5
5
5
5
5
5
5
5
5
5
5
5
5
5
5
5
5
5
5
5
5
5
5
5
5
5
5
5
5
5
5
5
5
5
5
5
5
5
5
5
5
5
5
5
5
5
5
5
5
5
5
5
5
5
5
5
5
5
5
5
5
5
5
5
5
5
5
5
5
5
5
5
5
5
5
5
5
5
5
5
5
5
5
5
5
5
5
5
5
5
5
5
5
5
5
5
5
5
5
5
5
5
5
5
5
5
5
5
5
5
5
5
5
5
5
5
5
5
5
5
5
5
5
5
5
5
5
5
5
5
5
5
5
5
5
5
5
5
5
5
5
5
5
5
5
5
5
5
5
5
5
5
5
5
5
5
5
5
5
5
5
5
5
5
5
5
5
5
5
5
5
5
5
5
5
5
5
5
5
5
5
5
5
5
5
5
5
5
5
5
5
5
5
5
5
5
5
5
5
5
5
5
5
5
5
5
5
5
5
5
5
5
5
5
5
5
5
5
5
5
5
5
5
5
5
5
5
5
5
5
5
5
5
5
5
5
5
5
5
5
5
5
5
5
5
5
5
5
5
5
5
5
5
5
5
5
5
5
5
5
5
5
5
5
5
5
5
5
5
5
5
5
5
5
5
5
5
5
5
5
5
5
5
5
5
5
5
5
5
5
5
5
5
5
5
5
5
5
5
5
5
5
5
5
5
5
5
5
5
5
5
5
5
5
5
5
5
5
5
5
5
5
5
5
5
5
5
5
5
5
5
5
5
5
5
5
5
5
5
5
5
5
5
5
5
5
5
5
5
5
5
5
5
5
5
5
5
5
5
5
5
5
5
5
5
5
5
5
5
5
5
5
5
5
5
5
5
5
5
5
5
5
5
5
5
5
5
5
5
5
5
5
5
5
5
5
5
5
5
5
5
5
5
5
5
5
5
5
5
5
5
5
5
5
5
5
5
5
5
5
5
5
5
5
5
5
5
5
5
5
5
5
5
5
5
5
5
5
5
5
5
5
5
5
5
5
5
5
5
5
5
5
5
5
5
5
5
5
5
5
5
5
5
5
5
5
5
5
5
5
5
5
5
5
5
5
5
5
5
5
5
5
5
5
5
5
5
5
5
5
5
5
5
5
5
5
5
5
5
5
5
5
5
5
5
5
5
5
5
5
5
5
5
5
5
5
5
5
5
5
5
5
5
5
5
5
5
5
5
5
5
5
5
5
5
5
5
5
5
5
5
5
5
5
5
5
5
5
5
5
5
5
5
5
5
5
5
5
5
5
5
5
5
5
5
5
5
5
5
5
5
5
5
5
5
5
5
5
5
5
5
5
5
5
5
5
5
5
5
5
5
5
5
5
5
5
5
5
5
5
5
5
5
5
5
5
5
5
5
5
5
5
5
5
5
5
5
5
5
5
5
5
5
5
5
5
5
5
5
5
5
5
5
5
5
5
5
5
5
5
5
5
5
5
5
5
5
5
5
5
5
5
5
5
5
5
5
5
5
5
5
5
5
5
5
5
5
5
5
5
5
5
5
5
5
5
5
5
5
5
5
5
5
5
5
5
5
5
5
5
5
5
5
5
5
5
5
5
5
5
5
5
5
5
5
5
5
5
5
5
5
5
5
5
5
5
5
5
5
5
5
5
5
5
5
5
5
5
5
5
5
5
5
5
5
5
5
5
5
5
5
5
5
5
5
5
5
5
5
5
5
5
5
5
5
5
5
5
5
5
5
5
5
5
5
5
5
5
5
5
5
5
5
5
5
5
5
5
5
5
5
5
5
5
5
5
5
5
5
5
5
5
5
5
5
5
5
5
5
5
5
5
5
5
5
5
5
5
5
5
5
5
5
5
5
5
5
5
5
5
5
5
5
5
5
5
5
5
5
5
5
5
5
5
5
5
5
5
5
5
5
5
5
5
5
5
5
5
5
5
5
5
5
5
5
5
5
5
5
5
5
5
5
5
5
5
5
5
5
5
5
5
5
5
5
5
5
5
5
5
5
5
5
5
5
5
5
5
5
5
5
5
5
5
5
5
5
5
5
5
5
5
5
5
5
5
5
5
5
5
5
5
5
5
5
5
5
5
5
5
5
5
5
5
5
5
5
5
5
5
5
5
5
5
5
5
5
5
5
5
5
5
5
5
5
5
5
5
5
5
5
5
5
5
5
5
5
5
5
5
5
5
5
5
5
5
5
5
5
5
5
5
5
5
5
5
5
5
5
5
5
5
5
5
5
5
5
5
5
5
5
5
5
5
5
5
5
5
5
5
5
5
5
5
5
5
5
5
5
5
5
5
5
5
5
5
5
5
5
5
5
5
5
5
5
5
5
5
5
5
5
5
5
5
5
5
5
5
5
5
5
5
5
5
5
5
5
5
5
5
5
5
5
5
5
5
5
5
5
5
5
5
5
5
5
5
5
5
5
5
5
5
5
5
5
5
5
5
5
5
5
5
5
5
5
5
5
5
5
5
5
5
5
5
5
5
5
5
5
5
5
5
5
5
5
5
5
5
5
5
5
5
5
5
5
5
5
5
5
5
5
5
5
5
5
5
5
5
5
5
5
5
5
5
5
5
5
5
5
5
5
5
5
5
5
5
5
5
5
5
5
5
5
5
5
5
5
5
5
5
5
5
5
5
5
5
5
5
5
5
5
5
5
5
5
5
5
5
5
5
5
5
5
5
5
5
5
5
5
5
5
5
5
5
5
5
5
5
5
5
5
5
5
5
5
5
5
5
5
5
5
5
5
5
5
5
5
5
5
5
5
5
5
5
5
5
5
5
5
5
5
5
5
5
5
5
5
5
5
5
5
5
5
5
5
5
5
5
5
5
5
5
5
5
5
5
5
5
5
5
5
5
5
5
5
5
5
5
5
5
5
5
5
5
5
5
5
5
5
5
5
5
5
5
5
5
5
5
5
5
5
5
5
5
5
5
5
5
5
5
5
5
5
5
5
5
5
5
5
5
5
5
5
5
5
5
5
5
5
5
5
5
5
5
5
5
5
5
5
5
5
5
5
5
5
5
5
5
5
5
5
5
5
5
5
5
5
5
5
5
5
5
5
5
5
5
5
5
5
5
5
5
5
5
5
5
5
5
5
5
5
5
5
5
5
5
5
5
5
5
5
5
5
5
5
5
5
5
5
5
5
5
5
5
5
5
5
5
5
5
5
5
5
5
5
5
5
5
5
5
5
5
5
5
5
5
5
5
5
5
5
5
5
5
5
5
5
5
5
5
5
5
5
5
5
5
5
5
5
5
5
5
5
5
5
5
5
5
5
5
5
5
5
5
5
5
5
5
5
5
5
5
5
5
5
5
5
5
5
5
5
5
5
5
5
5
5
5
5
5
5
5
5
5
5
5
5
5
5
5
5
5
5
5
5
5
5
5
5
5
5
5
5
5
5
5
5
5
5
5
5
5
5
5
5
5
5
5
5
5
5
5
5
5
5
5
5
5
5
5
5
5
5
5
5
5
5
5
5
5
5
5
5
5
5
5
5
5
5
5
5
5
5
5
5
5
5
5
5
5
5
5
5
5
5
5
5
5
5
5
5
5
5
5
5
5
5
5
5
5
5
5
5
5
5
5
5
5
5
5
5
5
5
5
5
5
5
5
5
5
5
5
5
5
5
5
5
5
5
5
5
5
5
5
5
5
5
5
5
5
5
5
5
5
5
5
5
5
5
5
5
5
5
5
5
5
5
5
5
5
5
5
5
5
5
5
5
5
5
5
5
5
5
5
5
5
5
5
5
5
5
5
5
5
5
5
5
5
5
5
5
5
5
5
5
5
5
5
5
5
5
5
5
5
5
5
5
5
5
5
5
5
5
5
5
5
5
5
5
5
5
5
5
5
5
5
5
5
5
5
5
5
5
5
5
5
5
5
5
5
5
5
5
5
5
5
5
5
5
5
5
5
5
5
5
5
5
5
5
5
5
5
5
5
5
5
5
5
5
5
5
5
5
5
5
5
5
5
5
5
5
5
5
5
5
5
5
5
5
5
5
5
5
5
5
5
5
5
5
5
5
5
5
5
5
5
5
5
5
5
5
5
5
5
5
5
5
5
5
5
5
5
5
5
5
5
5
5
5
5
5
5
5
5
5
5
5
5
5
5
5
5
5
5
5
5
5
5
5
5
5
5
5
5
5
5
5
5
5
5
5
5
5
5
5
5
5
5
5
5
5
5
5
5
5
5
5
5
5
5
5
5
5
5
5
5
5
5
5
5
5
5
5
5
5
5
5
5
5
5
5
5
5
5
5
5
5
5
5
5
5
5
5
5
5
5
5
5
5
5
5
5
5
5
5
5
5
5
5
5
5
5
5
5
5
5
5
5
5
5
5
5
5
5
5
5
5
5
5
5
5
5
5
5
5
5
5
5
5
5
5
5
5
5
5
5
5
5
5
5
5
5
5
5
5
5
5
5
5
5
5
5
5
5
5
5
5
5
5
5
5
5
5
5
5
5
5
5
5
5
5
5
5
5
5
5
5
5
5
5
5
5
5
5
5
5
5
5
5
5
5
5
5
5
5
5
5
5
5
5
5
5
5
5
5
5
5
5
5
5
5
5
5
5
5
5
5
5
5
5
5
5
5
5
5
5
5
5
5
5
5
5
5
5
5
5
5
5
5
5
5
5
5
5
5
5
5
5
5
5
5
5
5
5
5
5
5
5
5
5
5
5
5
5
5
5
5
5
5
5
5
5
5
5
5
5
5
5
5
5
5
5
5
5
5
5
5
5
5
5
5
5
5
5
5
5
5
5
5
5
5
5
5
5
5
5
5
5
5
5
5
5
5
5
5
5
5
5
5
5
5
5
5
5
5
5
5
5
5
5
5
5
5
5
5
5
5
5
5
5
5
5
5
5
5
5
5
5
5
5
5
5
5
5
5
5
5
5
5
5
5
5
5
5
5
5
5
5
5
5
5
5
5
5
5
5
5
5
5
5
5
5
5
5
5
5
5
5
5
5
5
5
5
5
5
5
5
5
5
5
5
5
5
5
5
5
5
5
5
5
5
5
5
5
5
5
5
5
5
5
5
5
5
5
5
5
5
5
5
5
5
5
5
5
5
5
5
5
5
5
5
5
5
5
5
5
5
5
5
5
5
5
5
5
5
5
5
5
5
5
5
5
5
5
5
5
5
5
5
5
5
5
5
5
5
5
5
5
5
5
5
5
5
5
5
5
5
5
5
5
5
5
5
5
5
5
5
5
5
5
5
5
5
5
5
5
5
5
5
5
5
5
5
5
5
5
5
5
5
5
5
5
5
5
5
5
5
5
5
5
5
5
5
5
5
5
5
5
5
5
5
5
5
5
5
5
5
5
5
5
5
5
5
5
5
5
5
5
5
5
5
5
5
5
5
5
5
5
5
5
5
5
5
5
5
5
5
5
5
5
5
5
5
5
5
5
5
5
5
5
5
5
5
5
5
5
5
5
5
5
5
5
5
5
5
5
5
5
5
5
5
5
5
5
5
5
5
5
5
5
5
5
5
5
5
5
5
5
5
5
5
5
5
5
5
5
5
5
5
5
5
5
5
5
5
5
5
5
5
5
5
5
5
5
5
5
5
5
5
5
5
5
5
5
5
5
5
5
5
5
5
5
5
5
5
5
5
5
5
5
5
5
5
5
5
5
5
5
5
5
5
5
5
5
5
5
5
5
5
5
5
5
5
5
5
5
5
5
5
5
5
5
5
5
5
5
5
5
5
5
5
5
5
5
5
5
5
5
5
5
5
5
5
5
5
5
5
5
5
5
5
5
5
5
5
5
5
5
5
5
5
5
5
5
5
5
5
5
5
5
5
5
5
5
5
5
5
5
5
5
5
5
5
5
5
5
5
5
5
5
5
5
5
5
5
5
5
5
5
5
5
5
5
5
5
5
5
5
5
5
5
5
5
5
5
5
5
5
5
5
5
5
5
5
5
5
5
5
5
5
5
5
5
5
5
5
5
5
5
5
5
5
5
5
5
5
5
5
5
5
5
5
5
5
5
5
5
5
5
5
5
5
5
5
5
5
5
5
5
5
5
5
5
5
5
5
5
5
5
5
5
5
5
5
5
5
5
5
5
5
5
5
5
5
5
5
5
5
5
5
5
5
5
5
5
5
5
5
5
5
5
5
5
5
5
5
5
5
5
5
5
5
5
5
5
5
5
5
5
5
5
5
5
5
5
5
5
5
5
5
5
5
5
5
5
5
5
5
5
5
5
5
5
5
5
5
5
5
5
5
5
5
5
5
5
5
5
5
5
5
5
5
5
5
5
5
5
5
5
5
5
5
5
5
5
5
5
5
5
5
5
5
5
5
5
5
5
5
5
5
5
5
5
5
5
5
5
5
5
5
5
5
5
5
5
5
5
5
5
5
5
5
5
5
5
5
5
5
5
5
5
5
5
5
5
5
5
5
5
5
5
5
5
5
5
5
5
5
5
5
5
5
5
5
5
5
5
5
5
5
5
5
5
5
5
5
5
5
5
5
5
5
5
5
5
5
5
5
5
5
5
5
5
5
5
5
5
5
5
5
5
5
5
5
5
5
5
5
5
5
5
5
5
5
5
5
5
5
5
5
5
5
5
5
5
5
5
5
5
5
5
5
5
5
5
5
5
5
5
5
5
5
5
5
5
5
5
5
5
5
5
5
5
5
5
5
5
5
5
5
5
5
5
5
5
5
5
5
5
5
5
5
5
5
5
5
5
5
5
5
5
5
5
5
5
5
5
5
5
5
5
5
5
5
5
5
5
5
5
5
5
5
5
5
5
5
5
5
5
5
5
5
5
5
5
5
5
5
5
5
5
5
5
5
5
5
5
5
5
5
5
5
5
5
5
5
5
5
5
5
5
5
5
5
5
5
5
5
5
5
5
5
5
5
5
5
5
5
5
5
5
5
5
5
5
5
5
5
5
5
5
5
5
5
5
5
5
5
5
5
5
5
5
5
5
5
5
5
5
5
5
5
5
5
5
5
5
5
5
5
5
5
5
5
5
5
5
5
5
5
5
5
5
5
5
5
5
5
5
5
5
5
5
5
5
5
5
5
5
5
5
5
5
5
5
5
5
5
5
5
5
5
5
5
5
5
5
5
5
5
5
5
5
5
5
5
5
5
5
5
5
5
5
5
5
5
5
5
5
5
5
5
5
5
5
5
5
5
5
5
5
5
5
5
5
5
5
5
5
5
5
5
5
5
5
5
5
5
5
5
5
5
5
5
5
5
5
5
5
5
5
5
5
5
5
5
5
5
5
5
5
5
5
5
5
5
5
5
5
5
5
5
5
5
5
5
5
5
5
5
5
5
5
5
5
5
5
5
5
5
5
5
5
5
5
5
5
5
5
5
5
5
5
5
5
5
5
5
5
5
5
5
5
5
5
5
5
5
5
5
5
5
5
5
5
5
5
5
5
5
5
5
5
5
5
5
5
5
5
5
5
5
5
5
5
5
5
5
5
5
5
5
5
5
5
5
5
5
5
5
5
5
5
5
5
5
5
5
5
5
5
5
5
5
5
5
5
5
5
5
5
5
5
5
5
5
5
5
5
5
5
5
5
5
5
5
5
5
5
5
5
5
5
5
5
5
5
5
5
5
5
5
5
5
5
5
5
5
5
5
5
5
5
5
5
5
5
5
5
5
5
5
5
5
5
5
5
5
5
5
5
5
5
5
5
5
5
5
5
5
5
5
5
5
5
5
5
5
5
5
5
5
5
5
5
5
5
5
5
5
5
5
5
5
5
5
5
5
5
5
5
5
5
5
5
5
5
5
5
POINT_DATA 2538
VECTORS disp float
1.6402011457083396e-11 3.981295072166259e-11 0.0
3.249569552255387e-11 -8.811356252420993e-11 0.0
0.0036999999889050623 2.8233361300275103e-11 0.0
0.003699999965237501 -9.543483975812942e-11 0.0
0.001232098697114743 0.0005049520520748973 0.0
0.002677879373076255 0.000257426626019726 0.0
0.0018210542665338318 0.00010084721918781134 0.0
3.866637022830199e-12 2.185391781421131e-12 0.0
7.490837732926099e-12 8.523253899473641e-12 0.0
6.618853335807614e-12 4.856562572505418e-12 0.0
6.3122773618953135e-12 4.463392077040492e-12 0.0
5.706845123479666e-12 3.178108653611918e-12 0.0
5.232085455690788e-12 2.12743724000667e-12 0.0
4.789600492941475e-12 1.1036268975640196e-12 0.0
4.450214787040901e-12 1.1055699877979194e-14 0.0
3.829863700059487e-12 -1.1877108668573436e-12 0.0
4.076446099495805e-12 -2.2918493162861056e-12 0.0
3.9309506238604116e-12 -3.6000741768808936e-12 0.0
3.9970419092806046e-12 -5.012830135299694e-12 0.0
4.190297448271968e-12 -6.435376741884163e-12 0.0
4.203987943041629e-12 -7.750698617895406e-12 0.0
4.531259938985792e-12 -9.334423114625619e-12 0.0
4.578075803885596e-12 -1.0624549090165582e-11 0.0
4.884722258304472e-12 -1.217893479336061e-11 0.0
5.048458074615014e-12 -1.3906531880346988e-11 0.0
5.302579973870482e-12 -1.5545070998867766e-11 0.0
5.615597814505899e-12 -1.7530951124591995e-11 0.0
6.019444673560668e-12 -1.9773711868649765e-11 0.0
6.699687666160311e-12 -2.2556150192597788e-11 0.0
6.80798558260414e-12 -2.553009543596714e-11 0.0
9.393325336633076e-12 -3.263744863417952e-11 0.0
4.298187528124971e-12 -2.955418360153174e-11 0.0
4.679862692989925e-5 -5.999168523207379e-5 0.0
8.121779874584192e-5 -0.00010300693362834507 0.0
0.00011455514433206693 -0.000140371829191526 0.0
0.00014639510644888604 -0.00017423744311305888 0.0
0.00017717348004989893 -0.0002056783292644475 0.0
0.00020750973118304093 -0.00023553090773501835 0.0
0.0002379047999937902 -0.00026390461845328714 0.0
0.0002680728124435613 -0.0002910432584781764 0.0
0.0002982813565933236 -0.00031720274731005096 0.0
0.0003286104277231262 -0.0003423795010651985 0.0
0.00035907370380664665 -0.00036679776253715644 0.0
0.0003899104059378779 -0.000390456758102137 0.0
0.0004208884194769975 -0.00041335820476528313 0.0
0.0004521588076419258 -0.0004356814125546051 0.0
0.0004839131300847549 -0.00045737059328907674 0.0
0.0005158077309736446 -0.0004784080354700367 0.0
0.0005480690889000449 -0.0004989221179537255 0.0
0.0005806909368098201 -0.0005188047076055221 0.0
0.0006136445792529002 -0.0005381734761403498 0.0
0.0006469477846195802 -0.0005570206009399198 0.0
0.000680642368821214 -0.0005753468398550171 0.0
0.0007146478598836757 -0.0005931416900039452 0.0
0.0007491723558499012 -0.0006104825903677608 0.0
0.0007838782208286126 -0.0006272741446776038 0.0
0.0008191513661169854 -0.0006435981310001322 0.0
0.0008545769841912612 -0.0006593721821087723 0.0
0.000890436726551963 -0.0006746897345205937 0.0
0.0009265770204050788 -0.0006894484579833389 0.0
0.0009632138609411515 -0.0007037667684498143 0.0
0.0009999774719090257 -0.0007175651918839922 0.0
0.0010372380493536178 -0.0007309040941862665 0.0
0.0010747587775515185 -0.0007436872878879458 0.0
0.0011126375954935647 -0.0007559977726700972 0.0
0.001150734245542805 -0.0007677755422633046 0.0
0.001189282909659385 -0.0007790790020979151 0.0
0.0012279336523190916 -0.0007898121401559685 0.0
0.0012669311667406545 -0.0008000409573379572 0.0
0.0013061210684980093 -0.0008096676209048879 0.0
0.001345578872744765 -0.0008187173138172277 0.0
0.0013852455911340317 -0.0008272899217355802 0.0
0.0014250829654693735 -0.0008352183452322505 0.0
0.0014651981522673329 -0.0008426638904240177 0.0
0.0015055148713828024 -0.0008494956562291995 0.0
0.0015459435766184174 -0.0008558364102653334 0.0
0.0015865813551442613 -0.0008615090992881854 0.0
0.001627197575161504 -0.0008666682594350803 0.0
0.0016680194381403746 -0.000871273359449338 0.0
0.0017088561873867666 -0.0008752506232123093 0.0
0.001749751357916817 -0.0008787319912646285 0.0
0.0017907990503426671 -0.0008815825339721035 0.0
0.0018315070993704286 -0.000883722649381726 0.0
0.0018726060217096362 -0.0008853897392474472 0.0
0.0019129316002600629 -0.0008863339160298559 0.0
0.0019536930351745363 -0.0008867206054626904 0.0
0.0019926936654163768 -0.0008861690332312254 0.0
0.0020329729707704845 -0.0008850066978910402 0.0
0.002071788585968527 -0.0008832693071678479 0.0
0.0021103686653894424 -0.0008804294701221909 0.0
0.0021487924038277283 -0.0008770471455333719 0.0
0.002187062627847747 -0.0008722674226023162 0.0
0.0022250421667622602 -0.0008668099609088853 0.0
0.002263052231528144 -0.0008600650541989199 0.0
0.0023014853841587003 -0.0008525170288539559 0.0
0.0023397423059052587 -0.0008435140308409761 0.0
0.002378575042970983 -0.0008336032808949509 0.0
0.002417623136846876 -0.0008228203566038087 0.0
0.00245638086221879 -0.0008110993954215729 0.0
0.0024953475810992254 -0.0007987632376085025 0.0
0.002534497415640407 -0.0007856677371434451 0.0
0.002573675051086192 -0.0007718683542609094 0.0
0.002612578353540426 -0.0007575050298849592 0.0
0.0026516673044930444 -0.0007424073564998888 0.0
0.0026903732280974045 -0.0007267281772439616 0.0
0.002728919277232561 -0.0007106205923982611 0.0
0.002767474704442393 -0.000693810034186047 0.0
0.0028055942461753776 -0.0006765450941222744 0.0
0.002843594920464066 -0.0006587242379408829 0.0
0.0028813047447334623 -0.0006403660168698571 0.0
0.002918903225642705 -0.0006214601175273434 0.0
0.0029562526002791124 -0.0006019387355676873 0.0
0.0029933613512079264 -0.0005818351946422419 0.0
0.0030300393974640213 -0.0005612051302875542 0.0
0.0030665624185902715 -0.0005400137144480105 0.0
0.0031029169843933995 -0.0005181695241710868 0.0
0.003138929765823265 -0.0004957123810006564 0.0
0.003174791347683146 -0.00047267283615989874 0.0
0.003210621098330377 -0.00044885568751999163 0.0
0.0032461493867362097 -0.00042429496581352364 0.0
0.003281455086604045 -0.00039904221787446327 0.0
0.0033168545101878765 -0.00037293065982959113 0.0
0.0033523307150451235 -0.0003458140224552563 0.0
0.003387678646969304 -0.0003176382580331845 0.0
0.003422994347743573 -0.0002883675861411546 0.0
0.0034585691306810344 -0.00025772846884889367 0.0
0.0034948419347840738 -0.00022535426346846431 0.0
0.0035313408525341735 -0.00019101583986653195 0.0
0.0035684822318698102 -0.000153912326838855 0.0
0.003607910307213464 -0.00011270656663705324 0.0
0.0036483983479799554 -6.530660586435886e-5 0.0
0.0036999999950878474 -2.8289196333636658e-11 0.0
0.0036999999895678437 -3.134458473928445e-11 0.0
0.003699999992789605 -2.1067637372230646e-11 0.0
0.0036999999928185733 -1.852773032388493e-11 0.0
0.003699999993346262 -1.554373215011378e-11 0.0
0.0036999999936723894 -1.3371506280063472e-11 0.0
0.0036999999938079503 -1.1733742785270083e-11 0.0
0.0036999999940488873 -1.0265490854101236e-11 0.0
0.0036999999941379745 -8.91947725894137e-12 0.0
0.003699999994312973 -7.62265081545931e-12 0.0
0.0036999999945645985 -6.576328547977583e-12 0.0
0.003699999994630093 -5.225397853730006e-12 0.0
0.0036999999947760678 -4.2129879117791555e-12 0.0
0.0036999999949061642 -3.0233654169816618e-12 0.0
0.0036999999949717467 -1.8825623817178744e-12 0.0
0.003699999994981236 -6.538864374581523e-13 0.0
0.003699999995026386 5.718905632159914e-13 0.0
0.003699999994566307 1.978683395192432e-12 0.0
0.0036999999949212585 3.1258269590508952e-12 0.0
0.0036999999941412865 4.6090271720783195e-12 0.0
0.003699999994144866 5.595892448991752e-12 0.0
0.003699999993867207 6.676225330499647e-12 0.0
0.0036999999940879394 6.9642075090355774e-12 0.0
0.003699999994035169 9.38055668622616e-12 0.0
0.003699999996905956 4.095022055755502e-12 0.0
0.003423122365865361 0.00017949961471272428 0.0
0.0031855998944003423 0.00026076096424885293 0.0
0.0029734467662253495 0.00028476017581609053 0.0
0.0027949709293184047 0.0002758375104455915 0.0
0.002671743232521608 0.00014506714880111043 0.0
0.0026527191647163504 8.784638200586334e-5 0.0
0.002607749651814818 6.464148838335225e-5 0.0
0.002554115181538043 6.170036923220733e-5 0.0
0.002492416441861346 6.89378585033546e-5 0.0
0.0024271881831173137 7.771133788632819e-5 0.0
0.002359324680143332 8.61570127865589e-5 0.0
0.0022897658299484347 9.536201182888947e-5 0.0
0.0022170596807514005 0.00010277096004929688 0.0
0.002140514491839993 0.0001077621555878846 0.0
0.002056268370077031 0.00010993147628033427 0.0
0.001956211770185524 0.00011033365613216093 0.0
0.0016970204259191305 0.0001396583193807642 0.0
0.0016096176163577585 0.00015302803428467448 0.0
0.0015376591419204923 0.000159418445192464 0.0
0.0014751282317309118 0.00016410847617660877 0.0
0.0014186324484230536 0.00016855615710612966 0.0
0.0013676956731013827 0.00017368598513919957 0.0
0.0013220704218342466 0.00018080521756172932 0.0
0.0012833547388848732 0.00019144799310568213 0.0
0.0012532754740480923 0.00021032822246871372 0.0
0.0012328683517120371 0.00024122962785384327 0.0
0.0012277644829347572 0.0002956227734263423 0.0
0.0012279486889967578 0.00037688871080409383 0.0
0.001093575689067479 0.0005178602667859723 0.0
0.0008933522605499931 0.0004906779112534092 0.0
0.0006246995341624428 0.00040188575545629576 0.0
0.00033176117789022373 0.00026154843533408693 0.0
0.0009701941601633462 -0.0006741481065801056 0.0
0.0026048099542416 -0.0007208895846371557 0.0
0.0012392621338967328 -0.0007629628286846685 0.0
0.002326982332916876 -0.0008112295430966295 0.0
0.0015245357419670284 -0.0008227847187252729 0.0
0.0020490734395754756 -0.0008480039903336059 0.0
0.0017691276109546173 -0.0008481043536254142 0.0
0.0028390615520887674 -0.0006279122540973515 0.0
0.0007610645393809032 -0.0005902337640016155 0.0
0.0030168522876537003 -0.0005355791296373766 0.0
0.0005907451304259651 -0.000501978998118978 0.0
6.088682921614774e-5 -1.1066538845660719e-5 0.0
0.0036365807083328094 -9.869578894464506e-6 0.0
0.0019737385658016747 0.00012884408844907914 0.0
0.002260458688454833 0.00011902276785979307 0.0
0.0016683433662845553 0.00014336426092391268 0.0
0.0014274091685517439 0.00018063573417356505 0.0
0.0032016801385866787 -0.0004285287839994609 0.0
0.0004358763040103695 -0.0004057051038868736 0.0
4.291290860130084e-5 -1.9904376951433952e-5 0.0
0.003655035934705708 -1.6629618336068237e-5 0.0
0.003610083518553112 2.731341654723976e-6 0.0
8.136710860741935e-5 2.910939575114215e-6 0.0
0.0033444879892647536 -0.00032718795220243127 0.0
0.0003074867716651723 -0.0003059314679423629 0.0
0.002461031220660382 0.00010045887870100143 0.0
0.0012725031131356843 0.00019849909766772746 0.0
3.244931659049676e-5 -2.1433015646846177e-5 0.0
0.0036641596995010827 -1.891322075444331e-5 0.0
0.0014040288484074885 -0.0008004905050601053 0.0
0.0016454479305634275 -0.0008382391605620467 0.0
0.0022091805317646655 -0.0008328474642111002 0.0
0.0018954678812199333 -0.0008506663283400749 0.0
0.00244533307882136 -0.0007777781902152999 0.0
0.0027146680411813556 -0.0006825642795865104 0.0
0.0011319585727656842 -0.0007319831920741664 0.0
0.0008660633664232182 -0.0006383401111244917 0.0
0.0034466615273855586 -0.0002460178692825959 0.0
0.0002147925178304265 -0.00022679159026572123 0.0
0.0035852399262921715 2.2413798286903978e-5 0.0
0.00010292802103455745 1.7568522787538146e-5 0.0
0.0036701383488677427 -2.1690900256940207e-5 0.0
3.027324062906539e-5 -2.6103953638250345e-5 0.0
0.00258583760569061 8.917123948654231e-5 0.0
0.001192039879151195 0.00023213600222652848 0.0
0.003538429090994981 4.175303783012774e-5 0.0
0.000145557840956164 3.527851338497053e-5 0.0
5.15109274256655e-5 -1.677104951205248e-5 0.0
0.003645650652523696 -1.4416612585177912e-5 0.0
0.0021174337801745384 0.00012897921721537935 0.0
0.0015456187630214315 0.00017165706213930225 0.0
0.00011922360526501899 -0.00013111389439706629 0.0
0.003564891341388102 -0.00013898084331349277 0.0
0.002521439318568002 -0.0007560304661110588 0.0
0.0019731703782087415 -0.0008526176964076254 0.0
0.0013266084084817232 -0.0007834853566979639 0.0
0.0010492741923722516 -0.0007073046279282988 0.0
0.002131958408874081 -0.0008413696677339774 0.0
0.0029083856950982345 -0.0005946677167339147 0.0
0.0006926551012010645 -0.000555680264033589 0.0
0.0030936506346175767 -0.0004947267038852312 0.0
0.0005218439466426794 -0.0004596191241271748 0.0
0.0003680932567267682 -0.0003547651693216054 0.0
0.003273338899406217 -0.0003789962456654119 0.0
0.0007418355126621004 0.0002684076444473489 0.0
0.003064358955203394 0.0001857442019323201 0.0
0.003670801902709847 -2.6339339711500456e-5 0.0
2.633789390135748e-5 -2.674277332825999e-5 0.0
0.0011554638226313337 0.0003206282910681995 0.0
0.002692342827026646 0.00012548224118966896 0.0
0.00016812226343075156 5.607766388766806e-5 0.0
0.0035336014677805135 5.282853044088538e-5 0.0
5.213788680857163e-5 -5.8814387536628306e-5 0.0
0.0036399996107405025 -6.335028130079838e-5 0.0
0.0028728479550845553 0.0001966486837258106 0.0
0.002928824846795448 0.0001646859676643711 0.0
0.003159663864785915 0.00013673631326106112 0.0
0.003026638857711207 0.00014509914924722763 0.0
0.0028477096172696576 0.00015221876979533191 0.0
0.0029121945901882467 0.00015223581699057073 0.0
0.0030837117429391037 0.000134843660486476 0.0
0.0029768274493703803 0.00014530805070012338 0.0
0.0031386333323631136 0.00012205623428786019 0.0
0.0030404955088850247 0.00013074062823848574 0.0
0.002888860249126847 0.0001503015157256708 0.0
0.0029476877739600797 0.00013410053680071998 0.0
0.002817402756904244 0.0001496726213516939 0.0
0.0028652643250174645 0.00013169982510244328 0.0
0.002746898386496658 0.00014499253936373332 0.0
0.002790191425485549 0.00012349921639020242 0.0
0.0019277574287528709 8.556848642490368e-5 0.0
0.001815726328424151 6.742677831506504e-5 0.0
0.00190251144373524 5.8501341640201034e-5 0.0
0.001811532686673143 4.544551028388809e-5 0.0
0.0018876308452003688 3.783374645797355e-5 0.0
0.001809188775221291 2.7745787598018616e-5 0.0
0.0018779795038900526 2.0306317438548194e-5 0.0
0.0018068900919817115 1.14617075696642e-5 0.0
0.0018709072894388488 4.387506901226784e-6 0.0
0.001804896229258128 -3.7032009056428258e-6 0.0
0.0018655002928240785 -1.0387537864456445e-5 0.0
0.0018032720728848697 -1.7999517828999313e-5 0.0
0.0018612633234981052 -2.4802225202399352e-5 0.0
0.001803491539495496 -3.1952146009442596e-5 0.0
0.0018578997855081155 -3.871834754553799e-5 0.0
0.0018022614467207508 -4.5680789141337044e-5 0.0
0.0018548151696124704 -5.234022045590516e-5 0.0
0.0017993089959321058 -5.9197572480046105e-5 0.0
0.0018517641579528605 -6.584170565230567e-5 0.0
0.0017977028577730674 -7.255678369033008e-5 0.0
0.00184916405967533 -7.93069248169653e-5 0.0
0.0017963347848192186 -8.592671908189653e-5 0.0
0.0018451023211673277 -9.270745383921863e-5 0.0
0.0017946694714154059 -9.938744476964795e-5 0.0
0.0018425521658975775 -0.00010623237544549886 0.0
0.0017939618084165583 -0.00011262975707421264 0.0
0.0018403124119737515 -0.00011986431843567838 0.0
0.0017900494132862515 -0.00012547012606611545 0.0
0.0018375537390243931 -0.0001336029837851259 0.0
0.0017767809734508763 -0.00013943015544132652 0.0
0.0018380401092999783 -0.00014780536002185677 0.0
0.0017867107684834268 -0.00015452695266744937 0.0
0.0018355037666400553 -0.00016208863417992722 0.0
0.0017869193093394704 -0.00016918067867477185 0.0
0.00183376435684558 -0.00017679027679850203 0.0
0.0017884749605033721 -0.00018399450516393668 0.0
0.001831822704204462 -0.00019174598764559885 0.0
0.0017877114982524508 -0.00019935381115161608 0.0
0.001744750198826259 4.905795592042799e-6 0.0
0.0018298436293517674 -0.00020712652035392834 0.0
0.0017450752457807892 -6.507203867138885e-5 0.0
0.001731033215786576 -0.0001506846191290059 0.0
0.0017833637468651368 -0.00021488690069923456 0.0
0.0018275151582151357 -0.0002229068478473073 0.0
0.0017790744773602699 -0.0002313964965847269 0.0
0.0017356774026466891 -0.00022184817581565543 0.0
0.0017302016503978066 -0.0002391563669261107 0.0
0.0018233658303564203 -0.00024007314840778686 0.0
0.0018724234194793202 -0.00023097151592089084 0.0
0.0018822010303237498 -0.0001544443790964561 0.0
0.0018685549790067675 -0.0002486420349137208 0.0
0.0019206139338134116 -0.0002378267839631745 0.0
0.0019150282093486873 -0.0002571414466874219 0.0
0.0016872746768074717 -0.00022914240957309364 0.0
0.001683548744557426 -0.0002461099793008356 0.0
0.0019686907607633524 -0.00024535968240536855 0.0
0.0016378866918875937 -0.00023553456627486632 0.0
0.0016369580388650427 -0.00025332810655050826 0.0
0.001963978950032703 -0.0002649158127382261 0.0
0.0020159344762709737 -0.0002540240421251185 0.0
0.0015881533354428644 -0.00024201757649270776 0.0
0.0015860567692154424 -0.00026033402380969226 0.0
0.0020123349102152245 -0.00027346941528047546 0.0
0.002065734474622936 -0.0002619090914227578 0.0
0.0015386230272437529 -0.0002484612884420901 0.0
0.0015360596157987158 -0.00026786266143108905 0.0
0.0020619773901963873 -0.0002823757694339206 0.0
0.002116794513196425 -0.0002696565948236177 0.0
0.0014894787579786024 -0.00025386395259721373 0.0
0.0014836439863005215 -0.00027384704632064347 0.0
0.0021136837861787257 -0.00029065759107214614 0.0
0.0021687863128373223 -0.00027719775947199806 0.0
0.0014354717555949427 -0.000259232206822603 0.0
0.001430921989593988 -0.0002803386052254125 0.0
0.0013799506022970647 -0.00026581926160447613 0.0
0.0013842732896370681 -0.00024347386173283165 0.0
0.0020537555320908215 -0.00030256262557465965 0.0
0.0021653872368328705 -0.0002990385480981593 0.0
0.002221575600704293 -0.00028458216643105743 0.0
0.002225881503122294 -0.00026215304501217204 0.0
0.0018946247690019749 -8.646703015547891e-5 0.0
0.0022807897112368464 -0.0002691028818121974 0.0
0.0022855627221606157 -0.00024581853832304665 0.0
0.0023422260279444256 -0.00025199486686852186 0.0
0.0013796939224670604 -0.00028860736727028403 0.0
0.0013264717353397152 -0.00027162999942954434 0.0
0.0014297143606334121 -0.00030300533075940984 0.0
0.0022165220018054857 -0.00030758337478831 0.0
0.0013268800851915735 -0.00029499801715201384 0.0
0.0012730542113319754 -0.0002767158642851708 0.0
0.0019166990813606927 -3.0498458656070655e-5 0.0
0.001273307656268384 -0.0002995797065141512 0.0
0.0012195736040431005 -0.00028098521673146153 0.0
0.0012200194546720905 -0.00030438905952515256 0.0
0.0011670188792937291 -0.00028407699351684477 0.0
0.0011654137401921867 -0.0002612545158760249 0.0
0.00110973616356941 -0.0002649536785794805 0.0
0.001108961530710215 -0.000240852275256487 0.0
0.001161176848458778 -0.00030716790207995664 0.0
0.0010491914403502832 -0.0002447873321234378 0.0
0.0010479802022914048 -0.00022010529471969972 0.0
0.001220932859935001 -0.0003291332642323983 0.0
0.0011709033345932043 -0.00033384818985860825 0.0
0.0009896270341994656 -0.0002221037984756113 0.0
0.0009864399048320808 -0.00019804151764811484 0.0
0.0023486093749871505 -0.00022840798183700785 0.0
0.0024075456595464705 -0.0002342281755871086 0.0
0.0012217530047052777 -0.0003541804728647353 0.0
0.0011723637060126434 -0.00035872015401059213 0.0
0.002414624534681371 -0.0002098986499197175 0.0
0.002476398834545428 -0.00021587018127129773 0.0
0.002466669389652885 -0.00024254242698617707 0.0
0.0025359625075053083 -0.0002226859221842821 0.0
0.0025272743448933517 -0.0002499660701394092 0.0
0.0025966199867540106 -0.00022796681386544804 0.0
0.002591301386758575 -0.0002549690134060911 0.0
0.0026629423804396843 -0.00023012462409196537 0.0
0.002651552996827676 -0.0002577064931040295 0.0
0.002668261777633752 -0.00020423739245447914 0.0
0.0027242285687953814 -0.00023322227585797193 0.0
0.002709002692085478 -0.0002606595311780851 0.0
0.0012231649587516526 -0.00037969130345662705 0.0
0.0009249840680882933 -0.00019940537906536424 0.0
0.0009206377275749354 -0.00017496416456939183 0.0
0.002642317956973397 -0.00028591736006374743 0.0
0.002697436288328107 -0.0002883710893091095 0.0
0.0027630348105332197 -0.00026268515131874553 0.0
0.0026354412921500876 -0.0003146219070732767 0.0
0.0011749488326397042 -0.00038437451687882163 0.0
0.0027514845348331073 -0.00028986774994871133 0.0
0.0028156369192315245 -0.00026348670460696203 0.0
0.0012244734850013887 -0.00040591507752156747 0.0
0.0011771794012509318 -0.00041076233659017707 0.0
0.0011284210856450545 -0.00038836219753106074 0.0
0.0028034183914421463 -0.00029019036133268346 0.0
0.0028668042261642307 -0.00026282192485240646 0.0
0.001225651245614911 -0.00043293740375686035 0.0
0.001272453452376575 -0.00042768549379126327 0.0
0.0011312017041952805 -0.0004149546894746481 0.0
0.0010828648332484258 -0.00039181471608361855 0.0
0.0028524711354109508 -0.0002895313279353685 0.0
0.002917321115347989 -0.000261035572380946 0.0
0.002930927573557484 -0.00023524663016580202 0.0
0.002788838045433097 -0.0003181124487326172 0.0
0.0029816296961692143 -0.0002325240282234401 0.0
0.0029968799313293687 -0.00020743105134565342 0.0
0.0008554871616424703 -0.00017617393197735012 0.0
0.0008545971143392311 -0.0001509610251010454 0.0
0.0009328470657299358 -0.00015116811458019966 0.0
0.0008513897709152207 -0.0001260776209057757 0.0
0.0009266979721991246 -0.00012248910520806645 0.0
0.0008474829320783404 -9.988656813537447e-5 0.0
0.0009209058033172471 -9.484197709750324e-5 0.0
0.001273505978768474 -0.0004549841257438032 0.0
0.0013191825421267236 -0.00044918172339977947 0.0
0.0010859531324853065 -0.0004186118738128702 0.0
0.0010380425358557316 -0.00039466575757512713 0.0
0.0029670495796901763 -0.00025825399618113894 0.0
0.0008515103763470637 -7.358216636761999e-5 0.0
0.0009211576937084686 -6.722270901882897e-5 0.0
0.0013202654349940479 -0.0004765263143737216 0.0
0.0013648781684667565 -0.0004705470314585554 0.0
0.0015925814210537743 -0.00027806171364174224 0.0
0.0030308489990590816 -0.00022891283043758142 0.0
0.0019495306296372038 3.30897060856708e-5 0.0
0.0020292783726450375 0.00011809761898572294 0.0
0.001744173300114732 -0.00010550550355896163 0.0
0.002480803373515735 -0.00019094969611258898 0.0
0.0008455027533704964 -4.5217817027134307e-5 0.0
0.0009269818653921255 -3.82446932322108e-5 0.0
0.0010415621768181304 -0.0004216514091729003 0.0
0.000994315324669881 -0.0003970841134023711 0.0
0.0013666049795523743 -0.0004980437387448147 0.0
0.0014108663052718907 -0.000491750329392986 0.0
0.0030149258472865004 -0.0002543424401168502 0.0
0.0007868781801905458 -0.00015222140727802748 0.0
0.0007899522368691491 -0.00017752113442288757 0.0
0.0007641641769023971 -7.672300659882253e-5 0.0
0.0030784831354333086 -0.0002243090901067385 0.0
0.0008453568104322432 -1.7715781244335624e-5 0.0
0.0009276529381730602 -8.136743288744786e-6 0.0
0.0013226547396267448 -0.0005047349335271255 0.0
0.0009984671721389201 -0.0004244368492837628 0.0
0.0009514509541060628 -0.0003988342507662052 0.0
0.0024192228559004234 -0.00018548958084263733 0.0
0.0024883077204912903 -0.00016575642119966686 0.0
0.0024230202797400845 -0.00016042837924085734 0.0
0.0024960242102948713 -0.00014041040265905938 0.0
0.0014119621065509268 -0.0005191513016318929 0.0
0.0014566404455409604 -0.000511805894568524 0.0
0.0015432334846385107 -0.00023107938335511455 0.0
0.0008450282163084039 9.488559250096958e-6 0.0
0.0009255627951381896 2.1445930903054195e-5 0.0
0.003062896056455003 -0.00024897058623230684 0.0
0.0030054949824608983 -0.00027693690363221667 0.0
0.0008271835232657788 3.8700058957373596e-5 0.0
0.0009207126197158541 5.213178610356603e-5 0.0
0.0031244452387905537 -0.00021913653480844513 0.0
0.003133184370665269 -0.00020072805670376466 0.0
0.0008375338033321193 6.650975454205374e-5 0.0
0.0010441197913270922 -0.0004517314172085722 0.0
0.0014569801231493719 -0.0005399662208305941 0.0
0.001501348149799939 -0.0005314345948543763 0.0
0.0015016885143719666 -0.0005035172863906748 0.0
0.001546343020225369 -0.0005224646746655472 0.0
0.0015471646849470613 -0.0004948686600911931 0.0
0.0015920417117250055 -0.0005130523104217495 0.0
0.0015931861797809997 -0.0004854050354516983 0.0
0.001638745172103514 -0.0005030698824797843 0.0
0.0016403400150221252 -0.0004755354524938842 0.0
0.0016862730446856997 -0.0004923983851824119 0.0
0.0016846108805557889 -0.0005206555811129753 0.0
0.0017319256583578906 -0.0005092347011824667 0.0
0.0017299756859920383 -0.0005379460151688864 0.0
0.0017770863084172932 -0.000525746624375019 0.0
0.0017745503225593696 -0.0005549634709630608 0.0
0.0018220535426372762 -0.0005419023620481256 0.0
0.0016884645609715886 -0.0004650602826424009 0.0
0.0018247031436397422 -0.0005127666525016032 0.0
0.0018703004820947668 -0.000527979361217457 0.0
0.0018669333962834382 -0.0005581153815542769 0.0
0.0019157995247318738 -0.0005433988761336503 0.0
0.0007199778638051563 -0.00015251331869299147 0.0
0.0007228181333108227 -0.00017747084533943774 0.0
0.0009559277936424743 -0.00042627139294659376 0.0
0.0009098296090337534 -0.000400219819110766 0.0
0.0019197976190257337 -0.0005134864734620521 0.0
0.0019653140277764315 -0.0005277426924822757 0.0
0.0019606026452519297 -0.000558296242338376 0.0
0.0020110246024349107 -0.0005416080554034146 0.0
0.0006546382045718806 -0.0001518516823179262 0.0
0.0006576213857032516 -0.00017606773805663127 0.0
0.0024272163968362373 -0.00013435854429162667 0.0
0.002505021649525077 -0.00011431029589233367 0.0
0.0024338353674810075 -0.0001081948637270213 0.0
0.0031103842056302796 -0.00024208292845218207 0.0
0.0031696081518590128 -0.000212696812768016 0.0
0.001501469383316465 -0.0005604583866759669 0.0
0.0010091568039002604 -6.542611820044155e-5 0.0
0.001912885191553333 -0.0002749659031630333 0.0
0.0020055352616030107 -0.0005727337559550213 0.0
0.0020561397781625125 -0.0005550859286079715 0.0
0.002060765087306628 -0.0005239507133913763 0.0
0.0021068365785820217 -0.000536189334625397 0.0
0.0020221509673188534 -0.00023342535066228165 0.0
0.002518288602034514 -8.735385319479144e-5 0.0
0.002584425442831954 -9.820266453216766e-5 0.0
0.0009231134130704168 8.279865687490008e-5 0.0
0.0009141504325530378 -0.00042742722459498787 0.0
0.0008689195775106041 -0.00040082756283349593 0.0
0.0024425441071448365 -8.099602642976762e-5 0.0
0.0021009525213628883 -0.0005682094700679151 0.0
0.0021525119656766677 -0.0005488744531580353 0.0
0.0021583988252620043 -0.000516875655569306 0.0
0.0022051745590638957 -0.0005288372520900093 0.0
0.002212154464980898 -0.0004976951990445118 0.0
0.002258212298931843 -0.000507996014445059 0.0
0.0022501550621062895 -0.0005395234589312279 0.0
0.002302682379811123 -0.0005174451997388762 0.0
0.0008356303797801111 9.243064576134915e-5 0.0
0.0005914015820200803 -0.0001500906000951623 0.0
0.0005941373884610526 -0.00017313155480819367 0.0
0.0014584748506813517 -0.000569266129952213 0.0
0.003153419797556289 -0.00023668535526345035 0.0
0.003212901789214271 -0.0002056673535690465 0.0
0.0022933818007225453 -0.0005492064587318484 0.0
0.002345114965023695 -0.0005260146830012234 0.0
0.000926356335508509 0.00011180332544037625 0.0
0.0008738123977774389 -0.00042812733440218253 0.0
0.0008285323233777024 -0.0004004897765747029 0.0
0.001008020810597369 3.3387729180358236e-5 0.0
0.0029071264451507625 0.00011009831984295873 0.0
0.0015016659388327638 -0.0005902402688294437 0.0
0.00083516857997795 0.0001159873250606191 0.0
0.0007707498486733088 -2.0742035929226475e-6 0.0
0.0031910628410540087 -0.00023569976126229842 0.0
0.00325479695484799 -0.00019857669170579356 0.0
0.003272002416811696 -0.00017528291954995007 0.0
0.0007479230864213088 7.401777296787408e-5 0.0
0.0031287735862587443 -0.00026550866394508415 0.0
0.0005845806927395916 -0.00012706767847188395 0.0
0.0009151483219734433 -0.0004534287779045893 0.0
0.0025312296550351445 -5.948926850904093e-5 0.0
0.002452805087134966 -5.2798708703741896e-5 0.0
0.0022665139012664685 -0.00047739410340654734 0.0
0.0008339462042600347 -0.0004284717424956988 0.0
0.0007887382464042994 -0.0003999927869406552 0.0
0.0005301500429179888 -0.000147077454602154 0.0
0.0005325339924922364 -0.0001685828672488008 0.0
0.0009905683994798449 -0.0003712814848346549 0.0
0.002334495173284166 -0.0005578770262592522 0.0
0.002385615672091082 -0.000533299519395537 0.0
0.000783215723531758 -0.00037261630891295683 0.0
0.0007432333238935075 -0.00037128556058220767 0.0
0.00228631520817106 -0.0005796251996218315 0.0
0.0014602925988542472 -0.0005993414713896088 0.0
0.0007496038184995639 -0.00039914242952908006 0.0
0.0007042327273147998 -0.00036961760462377133 0.0
0.0015471482472802325 -0.00046847864274800026 0.0
0.0033143017620549118 -0.0001667888434264127 0.0
0.0033310876589957134 -0.00014628213277098035 0.0
0.003297756568562262 -0.0001892991808981339 0.0
0.0023735388474474886 -0.0005649036149056395 0.0
0.002424330992704656 -0.0005392148242414275 0.0
0.002218801883010395 -0.00046738376416593716 0.0
0.0022743161404584077 -0.0004476943927083989 0.0
0.00150234547437256 -0.0006206688522439151 0.0
0.00243699593817242 -0.0005081870638335203 0.0
0.002475862440976448 -0.0005135183864275092 0.0
0.0004699655821132828 -0.0001419089482118994 0.0
0.0004748688003173924 -0.00016270614150444852 0.0
0.0024624236532411977 -0.0005453577943937734 0.0
0.002513207604235716 -0.0005186998722230248 0.0
0.000711945284708159 -0.0003980201792058236 0.0
0.0006664804703467523 -0.00036760258868971625 0.0
0.0025445187702278545 -3.068102268677351e-5 0.0
0.002465226827374707 -2.3571279106004888e-5 0.0
0.0006583107149082698 -0.0003405188429002269 0.0
0.0006203836696071978 -0.0003373425811789903 0.0
0.0006283445797918445 -0.0003648734398555483 0.0
0.0005824628504497719 -0.00033375252654445234 0.0
0.0033553339650034 -0.0001575511085934152 0.0
0.0033384140331543985 -0.00018019104409723092 0.0
0.0009256547150851581 0.0001364001969205937 0.0
0.0008267270715787176 0.00013587532477088546 0.0
0.0023624053071450058 -0.00010094283336670919 0.0
0.0014620817872157542 -0.0006300476187911458 0.0
0.002499446029816551 -0.0005518350563568879 0.0
0.0025493391204794774 -0.0005239592225015916 0.0
0.002674004453365302 0.00013640117337904617 0.0
0.002489344109338949 -0.00048270856160830905 0.0
0.0017282733864250486 -0.0005674597811134734 0.0
0.000573249625511402 -0.0003075712538827909 0.0
0.0005364210936088196 -0.0003026544920962516 0.0
0.0005458526230451 -0.00032988104688429736 0.0
0.0004996490073769813 -0.000297606285883037 0.0
0.0004902432712100697 -0.00027195863781844735 0.0
0.0004523285604912281 -0.0002658542716933404 0.0
0.00044263558424989725 -0.00024079983481807267 0.0
0.0004041528806915643 -0.00023340139202191813 0.0
0.00039452246889314747 -0.0002099896310369377 0.0
0.0003581814064075228 -0.00020208008824588783 0.0
0.00034796582802233 -0.00018054606047730357 0.0
0.0003670867005404329 -0.00022480238367986985 0.0
0.0003171207132929831 -0.00018856067605570556 0.0
0.0004140780318059966 -0.0001357429524850653 0.0
0.0004125760805407269 -0.00011724093191144144 0.0
0.00033047693932257216 -0.00021514380862649286 0.0
0.00028478244203129267 -0.00018171844015379114 0.0
0.001016648344543937 0.00012961639446985827 0.0
0.0010979645901141152 -0.00021444686704923438 0.0
0.002225698558210769 -0.0004381403518883127 0.0
0.002281271164333052 -0.00041894588043131595 0.0
0.000656711464657753 -0.00019868676946726218 0.0
0.0015030003724952527 -0.0006518968643415596 0.0
0.00154358116164735 -0.0006419666295319383 0.0
0.0023302545417917555 -0.00042745383176907056 0.0
0.0023376427403800793 -0.0003988472412975479 0.0
0.0033949873301550412 -0.00014751238485596557 0.0
0.003375603109349369 -0.00017132536922675207 0.0
0.003320164250773313 -0.00020697896998035856 0.0
0.0023734093694949047 -4.5954925534443e-5 0.0
0.0023849031612659497 -1.683619603601631e-5 0.0
0.0014203574486012 -0.0006080275647075521 0.0
0.0014223958223733878 -0.0006388285539565533 0.0
0.0013812971183534333 -0.0006164222740953668 0.0
0.000510998529166212 -0.0003257079395939952 0.0
0.0024788532138845247 6.570662787940632e-6 0.0
0.0023980132085520186 1.4049430361819597e-5 0.0
0.0009899553556264203 -0.0002478206482539649 0.0
0.002534711555626772 -0.0005583646740847147 0.0
0.0025847963820567273 -0.000529347066923351 0.0
0.0026000323808961045 -0.0004964078847287264 0.0
0.0026353255123959503 -0.000500642843647866 0.0
0.0009488396195786802 0.0001599974526539212 0.0
0.0008305440446432922 0.00015438371934581592 0.0
0.001362483891667599 -0.0004441999785705766 0.0
0.0024861445979649003 -0.0005871026552747467 0.0
0.0030895116451362175 0.00011228619573517377 0.0
0.0026195565325812043 -0.0005358847259426111 0.0
0.0026704908173847226 -0.0005059363861479873 0.0
0.002686354272030603 -0.00047173466198204277 0.0
0.0027220543428581974 -0.00047594862402167403 0.0
0.002738786075212241 -0.0004423281200613503 0.0
0.002774067713936656 -0.0004456202507867757 0.0
0.002756987631655834 -0.00048111189637487824 0.0
0.002808481929605897 -0.0004497419019234295 0.0
0.00029540807891712803 -0.0002034130589485621 0.0
0.0002508689490937771 -0.00016959980463492164 0.0
0.00023476609044870053 -0.00014637378672307117 0.0
0.0015440927855042655 -0.0006736463224121657 0.0
0.0015830251167911038 -0.0006645018666879501 0.0
0.0013839091034786618 -0.0006473816907713563 0.0
0.0013429610594248586 -0.0006242837217214423 0.0
0.003355072377749532 -0.00020001133117777744 0.0
0.003409797070102831 -0.00016296152371724146 0.0
0.0026337961330145914 0.00015516233377905583 0.0
0.00256450542971272 0.00014650578553998615 0.0
0.0007198522976863531 0.00012900917527101048 0.0
0.0007214320437307003 0.00014473229712752943 0.0
0.00034176057570930963 -0.00024055727776944587 0.0
0.0012725112882819678 -0.0003490510502172026 0.0
0.002343534795429934 -0.00015685892432066418 0.0
0.0033012628567879294 -0.0002378744594755763 0.0
0.0009967069115847467 -0.00011348190209761347 0.0
0.002294083707882081 -3.958456565933786e-5 0.0
0.0027901247677508388 -0.0004872750650861991 0.0
0.0028414805199264257 -0.00045477504934165536 0.0
0.002815019445981846 9.891277187125209e-5 0.0
0.002946445749988483 8.609156111816239e-5 0.0
0.0009375857015692542 0.000177230385123898 0.0
0.0005344239996150651 -0.00018979603119608093 0.0
0.0003504950682004968 -0.00010937564996711217 0.0
0.00035009478834197174 -9.257634582794953e-5 0.0
0.0005553128783241767 -0.00035867304217737346 0.0
0.0026572562502959647 -0.0005432659941150825 0.0
0.002158661799088934 -0.0003213700932124981 0.0
0.0019566253065473244 -0.0005898249491651647 0.0
0.001229289039376957 -0.000459520568666464 0.0
0.00026152471720601583 -0.00019088965684374709 0.0
0.00021848550323638513 -0.00015655117313482497 0.0
0.0007572292167187304 -0.0004285294848391363 0.0
0.0023873273993121487 -0.0004063708773824726 0.0
0.0023951879509688597 -0.0003780702443778576 0.0
0.0014230091520880755 -0.0006708821378464522 0.0
0.002873490425532129 7.174844741221525e-5 0.0
0.002985889607485183 6.224004252303826e-5 0.0
0.0029176290282386707 4.5692313270357445e-5 0.0
0.003026519064390124 3.815096012987202e-5 0.0
0.0030926911647734035 5.3059613960837934e-5 0.0
0.0031323844661597573 3.128670203911198e-5 0.0
0.0030652856754131846 1.4298218071302263e-5 0.0
0.0031676103592389662 1.006321412257172e-5 0.0
0.003101095228370962 -8.352189780505605e-6 0.0
0.003201329395140109 -9.604816703411962e-6 0.0
0.0031365022242693056 -2.9661744000795087e-5 0.0
0.0032324596290875677 -2.7458201242677247e-5 0.0
0.003169355921941966 -4.9197770468373234e-5 0.0
0.003262000380592278 -4.3482036935709335e-5 0.0
0.0030694880112643766 -5.383237502999923e-5 0.0
0.003200422776404468 -6.621337607129121e-5 0.0
0.0032875179675581796 -5.79854276233946e-5 0.0
0.003200242796146139 4.336387824636267e-5 0.0
0.0007360464088464884 -0.00034433727527040836 0.0
0.000720545720497795 -0.00042783428162147043 0.0
0.0007641810658052915 -0.0004586856235772165 0.0
0.003229871791062973 -8.10133656683075e-5 0.0
0.003312581059977331 -7.009171382498834e-5 0.0
0.0031472211956882815 -9.033928721365822e-5 0.0
0.002000009464382208 -0.0006047181684819834 0.0
0.0019518036874166945 -0.0006218549320667993 0.0
0.0019942481526944176 -0.0006372580236977477 0.0
0.0019475766963727814 -0.0006546095322959777 0.0
0.0019887055652649793 -0.0006705312136000131 0.0
0.0019440590775916264 -0.0006880771780574625 0.0
0.0019029853322821424 -0.0006714914677396832 0.0
0.001900499832917202 -0.000704834170738077 0.0
0.001860527435002155 -0.0006874935396303373 0.0
0.0017171279100263708 6.116297035552169e-5 0.0
0.0019837922497450656 -0.0007047594695431591 0.0
0.002027954401353656 -0.0006861920037281861 0.0
0.001677072877915125 -0.00026461445371521854 0.0
0.0016418743159466302 -0.00044886632237079946 0.0
0.0016906941467462553 -0.00043859232523863216 0.0
0.001643473512935258 -0.0004230204217661045 0.0
0.0016929339517157136 -0.00041299735331149564 0.0
0.0016451828185104476 -0.00039803897445777746 0.0
0.001695215753355263 -0.00038831548169189115 0.0
0.0017431903402904095 -0.00040250248848877054 0.0
0.0017459509490561282 -0.0003781440792457783 0.0
0.0017941618180709565 -0.00039158568152725744 0.0
0.001797230028792276 -0.0003675379523488839 0.0
0.0018435389977160903 -0.00038016489103966973 0.0
0.0017488614285623768 -0.00035397894770624857 0.0
0.0016470107352185538 -0.00037389486159248865 0.0
0.0015968465966114014 -0.000382932236485487 0.0
0.0018400022204472088 -0.00040520023222707604 0.0
0.0018920061674531884 -0.0003915357555786251 0.0
0.0007290085106744447 -0.0004585110290092562 0.0
0.001740228267254616 -0.00017648918198399783 0.0
0.0017462337844169396 -2.582899458701087e-5 0.0
0.001970113624600273 -0.0004983476738691366 0.0
0.0034115451229526795 -0.0001281921252564142 0.0
0.003449356564807856 -0.00011782963929830249 0.0
0.001907058174166983 -5.820504140649773e-5 0.0
0.0018900423339837668 -0.00011108972101513659 0.0
0.0027020870396303595 -0.00043971760941982255 0.0
0.0023319771673068613 -0.0002761351245009591 0.0
0.003390290905743077 -0.00019114151589239633 0.0
0.003442244131383142 -0.00015421828534894512 0.0
0.0018802229071386584 -0.00018456987817539567 0.0
0.001345966633213213 -0.0006555816029037211 0.0
0.0013052186336584143 -0.0006318776763905448 0.0
0.0019316415626805974 -1.3977866542507762e-6 0.0
0.0018582027951960282 -0.0007208490026773284 0.0
0.0018181148440033466 -0.0007014705329259621 0.0
0.0013022798025757736 -0.0006009725786281602 0.0
0.0012641579478676187 -0.0006079864854726214 0.0
0.0012610546618599143 -0.0005774150262038302 0.0
0.0012227461726525095 -0.0005837658812916421 0.0
0.0012266042621993979 -0.0006147672182073404 0.0
0.0011853476752682766 -0.0005898629568658049 0.0
0.0011895754338949356 -0.0006212528258263291 0.0
0.0011483565662567747 -0.000595716235438952 0.0
0.0005226403608615541 -0.00035540206660227415 0.0
0.0034653463178917206 -0.00010124208983403502 0.0
0.0024919605998227714 3.739441945016413e-5 0.0
0.0024090855234093623 4.437001875132694e-5 0.0
0.001128181523353468 -0.00033870022729694173 0.0
0.0009100262490844353 -0.00037401793137906305 0.0
0.0033432030084308323 -3.942995390188157e-5 0.0
0.0032984384048507097 -1.13491853950614e-5 0.0
0.0015827450718359963 -0.0006959889399501023 0.0
0.0016226301859485841 -0.0006858339893450228 0.0
0.002520072089947421 -0.0005949639692200538 0.0
0.0004839467001228188 -0.00024739744048669996 0.0
0.002120809724828969 -0.000249624071783052 0.0
0.0023177697986006517 2.0348627535423506e-5 0.0
0.002327894451985377 5.0475483465203615e-5 0.0
0.0027561195439092497 -0.00041087297317702806 0.0
0.002826630434900857 -0.00023710631710754007 0.0
0.00286050886280802 -0.0004187854983360272 0.0
0.0028941923618056977 -0.000421930077811433 0.0
0.002873191987385287 -0.0004609907785271552 0.0
0.0029266649516465873 -0.0004265232399894359 0.0
0.0016468588151954192 -0.000218743834921185 0.0
0.0005645732849479904 -0.00038848759546400674 0.0
0.0018439005753182636 -0.0003557603757128053 0.0
0.0029984461178090543 -8.349511503727104e-6 0.0
0.0015912647736964411 -0.0006338785209743482 0.0
0.000770564977552554 -0.0004894248435317987 0.0
0.0008058871369790578 -0.0004893902938206463 0.0
0.0024730872317669773 -0.0006241540846818536 0.0
0.0012189166778618528 -0.0005537559814488922 0.0
0.0022318899748258523 -0.0004099338496965381 0.0
0.0021766285549332486 -0.0004279819260309469 0.0
0.003422758417931457 -0.00018284653736254104 0.0
0.003474504948979333 -0.00014410484891187264 0.0
0.0034919683594137945 -0.00012090545970920395 0.0
0.0010508551704200013 0.00018320996614044644 0.0
0.00022922872983931924 -0.0001769125594390128 0.0
0.00018699029814287218 -0.00014136437821578426 0.0
0.00018075511986353042 -0.00012634471001231773 0.0
0.002526813039511791 0.00016251605994896254 0.0
0.002590810588926859 0.00016577652531441845 0.0
0.0024600052961708395 0.00015410250416153927 0.0
0.0026243920819067797 -3.8024852238122386e-5 0.0
0.003258397132337223 -9.227452641304486e-5 0.0
0.0033394213875540253 -7.89497505645137e-5 0.0
0.0013087066808606957 -0.0006636103781218259 0.0
0.002568513089968451 -0.00014546317554243316 0.0
0.0006087417956278395 0.00011755507819382848 0.0
0.0006040050058311382 0.00012937420490107183 0.0
0.0007243454254926559 0.00015819197814887948 0.0
0.0005958806945956963 0.00013839235396301703 0.0
0.0007653519625215084 0.00017836944449649815 0.0
0.0018163460889158234 -0.0006676646895876549 0.0
0.0011432645737349451 -0.0005648598061319922 0.0
0.001107231804192036 -0.0005701288360191719 0.0
0.0011121649325397146 -0.0006013900160986022 0.0
0.0010714639856019472 -0.0005752655859301569 0.0
0.0029463280767120536 -0.00038943613297408173 0.0
0.002978707164877064 -0.00039303333923426025 0.0
0.002959104335005026 -0.00043202534315391105 0.0
0.0030099659057365507 -0.00039749242801845347 0.0
0.0023440591835976778 -0.00037078456313405933 0.0
0.002402394354320422 -0.000350660922570455 0.0
0.0020226215608823714 -0.0007209075411876505 0.0
0.0020658708445625697 -0.0007013627969198407 0.0
0.0015984097319615934 -0.0003590631049107663 0.0
0.0015479993619525857 -0.0003675034770912552 0.0
0.001539369769754339 -0.0007069544725360665 0.0
0.001076482220880418 -0.000606390553938813 0.0
0.0010365507390262035 -0.0005800504099775149 0.0
0.0032659474053999223 -0.00024384241348564587 0.0
0.003246645334173736 -0.0002771666568917842 0.0
0.0032127424305505212 -0.0002814896625392277 0.0
0.0031982639254972143 -0.00031342169827513046 0.0
0.0016219591487805253 -0.0007198999815504785 0.0
0.00026856801095965723 -0.00021186602939750018 0.0
0.0003874891789165483 -0.00018902868226841355 0.0
0.00033546820228471 -0.00015932691893569305 0.0
0.0002856414951964352 -8.408505880064185e-5 0.0
0.0002818164069399028 -6.893087292425211e-5 0.0
0.0003504280876068349 -7.56066163013602e-5 0.0
0.0002795211801409633 -5.405141363478781e-5 0.0
0.00035089232874537077 -5.814851109502651e-5 0.0
0.0002775966284216311 -3.916451698871295e-5 0.0
0.00035265885929136733 -4.038380336879548e-5 0.0
0.0032810193310829523 -0.00027222442902040747 0.0
0.001064842051249127 -0.0005449552165218976 0.0
0.0027180638200670604 -0.0004100772421548967 0.0
0.0024389062543843827 -0.0006142196506745074 0.0
0.0024270589045809676 -0.0006530157271479403 0.0
0.002393568462881601 -0.0006425257420921602 0.0
0.0018169008910740145 -0.0007356591632386551 0.0
0.0025566681656464985 2.6354866109301858e-5 0.0
0.0029905681253306706 -0.00043816319997075056 0.0
0.0035242286388544766 -0.00010888983827355752 0.0
0.0035058615472106794 -0.00013274244855536433 0.0
0.0010383530562087246 0.00019558424138441875 0.0
0.002483138327497457 6.474957527286915e-5 0.0
0.0019236220658022374 -0.0004847272631867209 0.0
0.0019736724588595256 -0.00046997047546936446 0.0
0.0018996685677643448 -0.0007394286993737678 0.0
0.0017771501977338368 -0.0007154445151869345 0.0
0.000798591932598644 -0.00020628185232198512 0.0
0.0033902217768782424 -5.903291742863703e-5 0.0
0.00341521168793986 -6.523016501571592e-5 0.0
0.0033635369835676417 -8.589988848174556e-5 0.0
0.003436401929766269 -7.060777762819354e-5 0.0
0.0028365795017094063 -0.00031678997463901424 0.0
0.0021411079649912884 -0.0005823614184898919 0.0
0.0021821319033255952 -0.00040048088400415854 0.0
0.00159284757403421 -0.000541875839041972 0.0
0.002287962092165651 -0.00022264015262311778 0.0
0.002445244259974315 -0.00038475932348441794 0.0
0.00244919784923917 -0.00047841517420773997 0.0
0.002502488731520612 -0.000453279219486801 0.0
0.002479266798120992 0.00016819832000809738 0.0
0.002557419721178407 0.00016624608069015938 0.0
0.000811545466183539 -0.0005203882880739505 0.0
0.0008453147634280974 -0.0005193348766654174 0.0
0.00027631140094987617 -2.4187850505370952e-5 0.0
0.0003518754196675215 -2.248254797485671e-5 0.0
0.0004303043954500682 -3.9511151570631075e-5 0.0
0.0004324008123972761 -1.8365126313370965e-5 0.0
0.0003532748707365927 -5.013070928499587e-6 0.0
0.00043771196378973164 2.3615318528600164e-6 0.0
0.00035652238668076023 1.1676054160653828e-5 0.0
0.0004458976861445806 2.2655605483732413e-5 0.0
0.0003601615469379058 2.746426782164037e-5 0.0
0.00019819741570694418 -0.0001615430295773928 0.0
0.0021270963176371217 -0.0004173903822571438 0.0
0.00015721375404984195 -0.00012546567492056286 0.0
0.0007370092464177951 -0.0004898152880325129 0.0
0.0035038023711031255 -8.969151471455714e-5 0.0
0.001737399028729599 -0.0004540397989952523 0.0
0.0022387512476105815 2.599456498417279e-5 0.0
0.002252841800193813 5.8172388607611745e-5 0.0
0.00045347709016274325 4.2278255548354644e-5 0.0
0.0005335361791112273 -0.00038606913527816286 0.0
0.0004922541550170819 -0.00035223846944667 0.0
0.0011175161312222347 -0.0006387541636544528 0.0
0.0025017814180865673 -0.000635506051650967 0.0
0.0013487163676407826 -0.0006878935012511585 0.0
0.00304080030743297 -0.0004022821120819094 0.0
0.003541150114930473 -8.988978283444713e-5 0.0
0.0015467705319506934 -0.0003917396535872221 0.0
0.0014981836741569294 -0.00037547947974301714 0.0
0.0014971470337296012 -0.0004001575181447783 0.0
0.0011386688343187172 0.00019775399084816456 0.0
0.001451386619866285 -0.0003831745246978281 0.0
0.000295030439079098 -0.00010097625785147702 0.0
0.002059810389644121 -0.0007369184671236207 0.0
0.0021029474033210024 -0.0007162033895604668 0.0
0.0021098887982487014 -0.0006810075041864662 0.0
0.0021463166582515337 -0.0006946971412333144 0.0
0.00254339099287425 -0.0004569940657599993 0.0
0.0025574656149835984 -0.00042738559312282366 0.0
0.003517814021759261 -7.646915593329034e-5 0.0
0.0034781099676233435 -8.743961172849402e-5 0.0
0.002355600771952369 8.504998666299084e-5 0.0
0.002269348875401762 9.311876867280864e-5 0.0
0.0006962796737805908 -0.00045850989931555834 0.0
0.0010417927683039694 -0.0006113895110620678 0.0
0.001002608754158072 -0.0005846984366082068 0.0
0.001817027564151786 -0.00025873053016328956 0.0
0.002940968350527407 -0.00047386899024790956 0.0
0.0003653071071052222 4.237442334351501e-5 0.0
0.0009963638306364154 -0.0005532793434188776 0.0
0.0021384092806300495 -0.0007307256928592961 0.0
0.002180911501498018 -0.0007079401983236284 0.0
0.0021314275967934475 -0.000391205104622226 0.0
0.0020774006438920066 -0.00040643365624792643 0.0
0.0020813193338475046 -0.0003810477219004394 0.0
0.0019209491095959076 -0.00022160249446503505 0.0
0.0002910114857713334 -0.00014870940495711698 0.0
0.00016840097099517505 -0.00014496533323201988 0.0
0.0021547137235294884 -0.0006598276401137578 0.0
0.0022121453859416116 -0.0003307790677811413 0.0
0.0017767216169660039 -0.0007499657538278437 0.0
0.0007221499962470146 -0.00012796032722407226 0.0
0.0012747527342774556 -0.00025563572807201683 0.0
0.0005738652532878433 -0.0004207446446508405 0.0
0.00306055388958305 -0.0003636634692963279 0.0
0.0007793871036907054 -0.0003463753288671313 0.0
0.0007294153122255789 -0.000317996945295843 0.0
0.0007766044752012349 -0.0003204830542813521 0.0
0.0007246994807621874 -0.0002924431668337628 0.0
0.0007732515180393724 -0.00029494405150823567 0.0
0.0006770727066712338 -0.0002893566288120432 0.0
0.002382403934885814 -0.0006816323752256592 0.0
0.002351896511197551 -0.0006700759977034302 0.0
0.0004865178127101035 9.933098113171993e-5 0.0
0.001817201219390456 -0.0007701518974096962 0.0
0.0017718573582350162 -0.0005849925229471275 0.0
0.0017263885976864352 -0.0005976000472170456 0.0
0.0008515405796391289 -0.0005509462796800479 0.0
0.0002284097224018592 -7.451625424300534e-5 0.0
0.00024219617489079458 -9.260006635023135e-5 0.0
0.0032854280546544034 -0.00015539031513335757 0.0
0.0033460371632462347 -0.00012797086018203742 0.0
0.0005117469342669025 -3.600022491432148e-5 0.0
0.0008847467383130252 -0.0005486526495429222 0.0
0.0008808042816642323 -0.0005196267189114907 0.0
0.0008909190033930008 -0.0005807485190956997 0.0
0.0008190159594676994 -0.000552705196689742 0.0
0.0006110479178996945 0.00015391773161210954 0.0
0.0013786311561124424 -0.0005863356628186762 0.0
0.0021219010586385895 -0.0004453336038944561 0.0
0.0032966704951464462 -0.00013710212685114092 0.0
0.002017663811489394 -0.0007568399620597215 0.0
0.00131149265501215 -0.0006964431422593969 0.0
0.0035535164256610984 -9.711955893473282e-5 0.0
0.003534815281507655 -0.00012165383542351167 0.0
0.001157527263174494 0.00018529675115646512 0.0
0.0010089671256373234 -0.0006170113827580428 0.0
0.002349696937472169 -0.0003425853816526659 0.0
0.002412983065549351 -0.0003228776961638401 0.0
0.00038087642160311265 -0.00016882094698790498 0.0
0.0005034816055532064 -0.0003829819908495571 0.0
0.00046348308382925484 -0.0003491282382745834 0.0
0.00045148009933096525 -0.00031954852119932855 0.0
0.0007047397126321861 -0.000490175882764146 0.0
0.00012856467808982535 -0.00010829257480860818 0.0
0.00011980304990834124 -9.377960210428834e-5 0.0
0.0021719967723236064 -0.0007449729343696742 0.0
0.0022135167408689474 -0.0007210377276864845 0.0
0.0022220881143472752 -0.0006828337009091313 0.0
0.00299875828508379 -0.00035729100512687335 0.0
0.0029650657888188213 -0.0003557025978874266 0.0
0.0029711133497530204 -0.00048192796569087324 0.0
0.0006716716627895984 -0.00026452887982339593 0.0
0.00062514854979085 -0.0002617397743105824 0.0
0.0024643295595233893 -0.00032970242554737476 0.0
0.0034844336092858435 -5.193607773749846e-5 0.0
0.0035031366264194055 -5.5603062236114465e-5 0.0
0.003525321128223134 -6.682699260053107e-5 0.0
0.0034779622477924274 -0.00017053637597264472 0.0
0.00020895989223712093 -0.00018394933539375664 0.0
0.0022826058120796913 -6.477349705229755e-5 0.0
0.0022097858553222997 -5.960437688196039e-5 0.0
0.0021987683261124086 -8.166719342042157e-5 0.0
0.0021299930773794776 -7.731672100163863e-5 0.0
0.002123500008972447 -9.832762267340873e-5 0.0
0.002134587836932354 -5.6843070759035415e-5 0.0
0.0019272030970714728 -0.00045693108058718617 0.0
0.0015492220531554337 -0.0003441207514636155 0.0
0.001600209491213947 -0.00033596729442428216 0.0
0.00047470178064712865 -0.0003796987121179428 0.0
0.0004352065473971792 -0.0003447974454491798 0.0
0.0031568223784903078 6.293355396292973e-5 0.0
0.003266957481883961 5.1024789840909756e-5 0.0
0.003310488651684042 3.226243565189186e-5 0.0
0.0033757154845257837 3.780101937015883e-5 0.0
0.003347912029343209 5.351130773433117e-5 0.0
0.0017388193506906024 -0.0007300676208020152 0.0
0.001738634623478058 -0.0006975298603721545 0.0
0.0017376474287899024 -0.0007639151385613707 0.0
0.002159791870340461 3.0136896378913963e-5 0.0
0.0021485777400920662 3.3515873363935256e-6 0.0
0.0005123997998319929 -5.946059623329747e-5 0.0
0.00026922157620484186 2.6227021420759424e-5 0.0
0.002339310657777108 -0.0007098273386162755 0.0
0.0006085454375798794 0.00010380019076025429 0.0
0.0023784758770683846 -0.00043525567029597693 0.0
0.002200977096823998 -0.00010289958933352923 0.0
0.002117404175686525 -0.00011887820068490584 0.0
0.002180972761867973 -0.00012567375756922458 0.0
0.002110982043926506 -0.00013907887372181018 0.0
0.002171012394888929 -0.00014629091616350342 0.0
0.002104928873466615 -0.00015938748347592163 0.0
0.0021631374828663097 -0.00016688776773398042 0.0
0.0020992843997704254 -0.00017998656586490805 0.0
0.0021583703808514335 -0.0001877003725467339 0.0
0.002047439344449929 -0.00013171797519819634 0.0
0.002041004211944569 -0.0001719920412910808 0.0
0.0024148274206772574 -0.0006936054594685416 0.0
0.0035647647348832994 -6.0729863479931824e-5 0.0
0.001258459079255476 -0.0005478713407614382 0.0
0.0012146553832186552 -0.0005252664775552895 0.0
0.0033697328767715146 -0.00022427867363855166 0.0
0.0014546142813352935 -0.0003624095943975008 0.0
0.0020584409505457 -9.216771995869318e-5 0.0
0.0007628566462576536 0.0001946320930318912 0.0
0.00021422717965620728 -4.796424472703095e-5 0.0
0.0012454358277730051 0.00019766544196434321 0.0
0.0012545076475485113 0.00018360222529792216 0.0
0.0027574678367692316 7.632600948697005e-5 0.0
0.0034015665716627137 -0.00021696065639189774 0.0
0.0033508791517582776 -0.00026023160683272365 0.0
0.0014490411505238678 -0.00040796390680120174 0.0
0.0014078260725921233 -0.0003870846428203373 0.0
0.0006054354269953995 -0.00039713682356668124 0.0
0.00013975561193620798 -0.0001268792480138402 0.0
0.0001720395511825765 -6.231799497079206e-5 0.0
0.00017796768896826356 -7.416148659094516e-5 0.0
0.00010076979452732662 -8.964289203147376e-5 0.0
0.0025141691299677663 -0.0004242513715777699 0.0
0.0025704293021811815 -0.00039907823587712955 0.0
0.0026145247520771306 -0.00040146110256590524 0.0
0.0026270767176648597 -0.0003731115122266253 0.0
0.002036943755734815 -0.0001915277814574794 0.0
0.0009063386820983563 0.00021160075736838344 0.0
0.0011446154978079362 0.00020717888697510648 0.0
0.002027834357960194 -0.00039516095822657505 0.0
0.0020322337345578373 -0.0003699661406869199 0.0
0.001551639802276007 -0.00032238287348832775 0.0
0.0013259218621111232 -0.00031899095415821257 0.0
0.0013515467715287674 -0.0007211970228951344 0.0
0.00274079516399726 -0.0005194405629699707 0.0
0.002772428142497764 -0.0005277599219761498 0.0
0.002725357705996054 -0.0005604689055321253 0.0
0.002756096325202706 -0.0005709674714723319 0.0
0.002710664445023744 -0.000603843251511514 0.0
0.0026797820531662387 -0.0005930992228681541 0.0
0.002601430680301561 -0.0005801428497905127 0.0
0.0023589756882863326 -0.0006319956237672644 0.0
0.0024956701131258136 0.00013284955086851483 0.0
0.0019089866360836563 -0.0006062443760809412 0.0
0.0005296433577733756 1.2784667381404565e-5 0.0
0.0035130707956199155 -0.00015315542911101973 0.0
0.0035611987929702344 -0.00011020494623521123 0.0
0.0028026475810709467 -0.0005372504276184514 0.0
0.0027869439282482917 -0.0005812203098959672 0.0
0.0028318221602685405 -0.0005476111635114765 0.0
0.0013875267975719519 -0.0007123025340418461 0.0
0.0016833088276129908 -0.0005794529391199882 0.0
0.0016829469154695507 -0.0006090952357603779 0.0
0.0017247861716031129 -0.0006283276381011658 0.0
0.0011388318670704867 -0.0004467880270290634 0.0
0.0016400190162485465 -0.0005902232658691663 0.0
0.0021175742532031187 -0.000647630468733604 0.0
0.003019919873775739 -0.00032398466106065867 0.0
0.0030907131244448808 -0.00036683511679909013 0.0
0.003070456599817869 -0.0004077703106661088 0.0
0.0031177078404363645 -0.0003256296692528987 0.0
0.00043020540621372766 -8.044324439317146e-5 0.0
0.001230702695602238 -0.0006467032408065374 0.0
0.0011946060946514858 -0.0006537396125118631 0.0
0.0012345089853690859 -0.0006793848784155432 0.0
0.001200068754556391 -0.0006869027709472927 0.0
0.002671095397564953 -0.0003743103531038373 0.0
0.0007456232127668841 -0.000522300134871598 0.0
0.000666376716054945 -0.00045901491080396794 0.0
0.0034545969254421937 -7.607843802016968e-5 0.0
0.00020482893418834856 -2.363983928910869e-5 0.0
0.00020393250290481505 -1.2367509880604523e-5 0.0
0.0023074898889978187 -0.0006926730931356826 0.0
0.0023010683724036733 -0.0007359379225227549 0.0
0.0018764661361772245 -0.00047084426007090404 0.0
0.0034184057234704886 2.1620652684241095e-5 0.0
0.0006742319431573035 -0.0004904006674144977 0.0
0.0027671569228565696 0.0001528931970031821 0.0
0.0032278509063820944 -0.00025015688253933634 0.0
0.0032555660080781706 0.00010502823728115954 0.0
0.0032922040129405045 9.273507702360724e-5 0.0
0.0025827044932779093 -0.00037139466921318204 0.0
0.0027739169361337868 -0.0003817399342295127 0.0
0.002812370178941216 -0.0003817625577655026 0.0
0.0024669102811041405 0.00015786007968347695 0.0
0.0025398207227193257 0.00015337189399584707 0.0
0.0026341154631537894 0.00016296935261364423 0.0
0.002129920943339585 -0.0007681994611052046 0.0
0.0010453115972346569 -0.0006432115696449586 0.0
0.0015948524897588692 -0.0004328635702572342 0.0
0.002291598519698339 -0.0003635186776594797 0.0
0.0020186593030219343 -0.0004819144554881808 0.0
0.0020537474788095552 -0.0007738238998117254 0.0
0.0009226253480698258 -0.0005774799171460219 0.0
0.0011756853553910372 -0.0005298515247380287 0.0
0.0004810634207892538 -0.00018463353121340206 0.0
0.0034652833599519003 2.5063695512537588e-5 0.0
0.00266494722301077 -0.00043859998027700277 0.0
0.0003269349753923775 -0.00014089506117114406 0.0
0.0009063841444605454 0.00023295218959693898 0.0
0.0020419231323137005 -0.0006193589860475777 0.0
0.002665494303196344 -0.0006370124514214659 0.0
0.0026330254835254933 -0.0006257980652341652 0.0
0.002355608707327984 -0.0004949151446381886 0.0
0.002471603915580898 -0.0003030601299908837 0.0
0.0010804156687914568 -0.00036674219556800854 0.0
0.0016820503086330946 -0.0006447652583436487 0.0
0.002268140321471328 -0.0003156287640296393 0.0
0.0011710523509432854 -0.0005016808640045999 0.0
0.0011314730732399918 -0.0005054295686261977 0.0
0.0009287134497065894 -0.0006101275307976801 0.0
0.000592747713808866 -5.683390410445547e-5 0.0
0.0005960769638394781 -3.1810252865285306e-5 0.0
0.000274614767699131 3.71972927631054e-5 0.0
0.0003769739051829749 5.726732844681093e-5 0.0
0.0029234828627965927 -0.0005176300440051601 0.0
0.00043264762799236355 -0.00019781394346916572 0.0
0.0006310837970311646 -0.00028658715822049794 0.0
0.0005792540277627265 -0.0002579723618673261 0.0
0.0030827054507892608 -0.0003270650276003082 0.0
0.0015473460079188474 -0.0005810622066484858 0.0
0.0019769090927331096 -0.00044135613356344547 0.0
0.002386030824037852 0.0001367940065229709 0.0
0.0023638553734756196 0.00015791753531422498 0.0
0.002294065115496285 0.00014448770789133214 0.0
0.0022722580738000647 0.00015889788381356687 0.0
0.0023355043913760613 0.00016424900167347342 0.0
0.002642710791750449 -6.693360204848451e-6 0.0
0.0027190439211427497 -1.7409530535105487e-5 0.0
0.0027423420195321776 1.2697610637450481e-5 0.0
0.002812363948036735 6.843538355244283e-7 0.0
0.002790291210126071 -2.931076177675194e-5 0.0
0.0001645096245624193 -5.073092919672873e-5 0.0
0.00268545698921639 -0.00034720001054110535 0.0
0.0004463914945905803 0.00010938854552997752 0.0
0.0004696434191566187 0.00012602395280272082 0.0
0.0022041134135078037 -0.0007591973087456118 0.0
0.0001320603018954549 -1.1122185756910065e-5 0.0
0.002941477227119239 -0.00021022657826158726 0.0
0.0030102070316225834 -0.0001830243971307407 0.0
0.0029596231391167513 -0.00018158609083826214 0.0
0.003066862471533115 -0.00017970986743688497 0.0
0.003080603023657858 -0.0001560962077142493 0.0
0.0031383185121431696 -0.00015308541218260458 0.0
0.0008262373554554674 -0.0003219356193438991 0.0
0.0008251563704962987 -0.0002970101028831969 0.0
0.0007694488012373572 -0.00026975423014409023 0.0
0.0008232108931873948 -0.0002724634612245767 0.0
0.000879279909931131 -0.00029872972362420425 0.0
0.0008780610333371485 -0.0002740958125995462 0.0
0.0009334631223960743 -0.0002993089435359284 0.0
0.0010153617350121354 -0.0006483141209671183 0.0
0.000932677668592036 -0.00027406923924185283 0.0
0.000987942603305432 -0.00029914617934275557 0.0
0.00027282582333443777 2.916718789867598e-6 0.0
0.0005911044225456168 -8.151714775966583e-5 0.0
0.0009864583370461158 -0.0003234817196720829 0.0
0.0007718843401766746 -0.0002477647457575571 0.0
0.0029842199113329195 -0.0003246298862546866 0.0
0.0029307425429838177 -0.0003553991190730383 0.0
0.0017010823475601218 -0.0007447667078655449 0.0
0.0016996102401272877 -0.0007776618186778958 0.0
0.002207219326155876 0.00014579398882447097 0.0
0.0011783028066348462 0.000166527583924125 0.0
0.0012690061553773055 0.00016166618082919464 0.0
0.0013405106182245688 0.0001779970334686557 0.0
0.0013548287785150413 0.00015152420545538846 0.0
0.001284585045730174 0.00013289618028424727 0.0
0.0013693079447388112 0.00011582535365191434 0.0
0.0013005321905212644 9.951537904265047e-5 0.0
0.0013859146006940735 7.774579534238412e-5 0.0
0.0013160481261299923 6.587598365488892e-5 0.0
0.0014149259337049372 4.141736477439664e-5 0.0
0.0013296235485646306 3.442485344980561e-5 0.0
0.0014127649005191457 1.18685285627521e-5 0.0
0.0013385931249285585 6.007685486856269e-6 0.0
0.0014191935309179754 -1.4947483739091755e-5 0.0
0.0013510095595479067 -2.130182991494526e-5 0.0
0.0014275573273373812 -4.0344324998110575e-5 0.0
0.0013596304045201575 -4.6021785569802465e-5 0.0
0.0014315738774484203 -6.331332847392121e-5 0.0
0.0013666499284522662 -6.88402819962653e-5 0.0
0.0014357808126460577 -8.481490469641193e-5 0.0
0.0013721970049125547 -9.069020684310395e-5 0.0
0.0014387814481542848 -0.00010591331092192865 0.0
0.001375200317307575 -0.00011185225148829145 0.0
0.0014409570568680607 -0.00012600302685573706 0.0
0.0013779049448824812 -0.0001332094859414284 0.0
0.001311808304279759 -0.0001173611794595096 0.0
0.0013150745661740179 -0.00013964228163457288 0.0
0.0014477224153277273 -0.00014826094954071398 0.0
0.0012968355878076588 -5.14524383812072e-5 0.0
0.0015026424228128054 -0.00011823294965906324 0.0
0.001505073822449941 -7.980835232142901e-5 0.0
0.001234935194010414 8.492643034565894e-5 0.0
0.0014952139789293577 -3.3881066929056606e-5 0.0
0.0012477605968956177 -0.00012280767487742814 0.0
0.0012523761094765094 -0.00014549363343938204 0.0
0.0013183969490130041 -0.00016219164092354084 0.0
0.001256816956089758 -0.00016831471592531507 0.0
0.0012711210619743985 -7.510411210532499e-7 0.0
0.0014942114050606663 1.3363928273559345e-5 0.0
0.0012441853849196921 -9.995315461656224e-5 0.0
0.0014576882118711144 9.1410950341442e-5 0.0
0.0013218860095415297 -0.00018467745352439106 0.0
0.001260746665574451 -0.00019116759570830227 0.0
0.0011957672209199901 -0.00017399034198367633 0.0
0.00117787180695194 -0.00010540379704404233 0.0
0.0011712489777979986 -8.054904553606705e-5 0.0
0.0013833848311612124 -0.00017756592301165823 0.0
0.0013848458272672501 -0.0001996458199499144 0.0
0.0014446463709460768 -0.00019233373266909544 0.0
0.0014270863390601436 0.0001660297916771118 0.0
0.001418548532973338 0.00018408992502288738 0.0
0.00120202821057845 -0.00019755177778381898 0.0
0.00113565175203499 -0.00017958016605970422 0.0
0.001130798880498219 -0.00015653797899402546 0.0
0.0010671716497118113 -0.00016092468394206263 0.0
0.002013210108567898 -0.0007934106517185644 0.0
0.001977387485079027 -0.0007757034808886636 0.0
0.0033817145897691823 -0.0002534727762610226 0.0
0.002162957753605655 -0.0006264143322114402 0.0
0.0022002909023121726 -0.0006381619745683508 0.0
0.0012492094927123386 -0.0005184357131042819 0.0
0.0012934021285159998 -0.0005401540811350818 0.0
0.0030165907380184584 9.531980336549935e-5 0.0
0.002186595408031844 -0.0003736711400924415 0.0
0.0012660583741329397 -0.0002136414267054226 0.0
0.0009583990624888335 -0.0005562885744407985 0.0
0.000955868911295577 -0.0005265046110698437 0.0
0.0009905461874181835 -0.0005234257389154229 0.0
0.002418417895791793 -0.00029655290348180814 0.0
0.0022339009494548078 -0.00013436900377164612 0.0
0.0014974251460668836 -0.0004255734166780536 0.0
0.0014504091307110285 -0.0004338722536974001 0.0
0.002069977005281352 7.4415080295474925e-6 0.0
0.002064334177387593 -1.4779368486366466e-5 0.0
0.002131091306193017 -1.9265405733909912e-5 0.0
0.0020527559275729003 -3.797126563528344e-5 0.0
0.0020805501009200558 3.123521178123776e-5 0.0
0.002220918611909032 -0.00017487911482737847 0.0
0.0022171779383624757 -0.00019562873220288994 0.0
0.0021485625725132336 -0.00020849588490982047 0.0
0.0016027233570211985 -0.00031420944919416 0.0
0.0016517829064298581 -0.0003274294208487862 0.0
0.0016549051029704348 -0.00030647819569146927 0.0
0.0017031868201246734 -0.00031846596271521623 0.0
0.0017062698018728687 -0.000297915258475667 0.0
0.0017544580019124274 -0.0003092593864750216 0.0
0.0017578155016760208 -0.00028918378488595125 0.0
0.0018080224588165282 -0.00029972027524829503 0.0
0.0018033748033805179 -0.00032081888376650865 0.0
0.001858070560255582 -0.0003077711135928657 0.0
0.002088049091770141 -0.0003573196891300552 0.0
0.002036381339749435 -0.0003463349032828288 0.0
0.001982739157464127 -0.0003590392584213219 0.0
0.0019861388308780154 -0.00033604134538176754 0.0
0.00037428969450031466 -0.0001496900253526725 0.0
0.0004476448820292495 -0.00037593946392812285 0.0
0.000408838890856082 -0.0003400071406550511 0.0
0.0003968986398222339 -0.00030916858456281327 0.0
0.00036938266301443374 -0.0003028505612891987 0.0
0.0018795675301085835 -0.00044373091586879664 0.0
0.0025241513949421884 -0.0003077673927883398 0.0
0.0025117161106461548 -0.00033600952076182083 0.0
0.0009317057759005575 0.00018960792569440462 0.0
0.0019819174392375974 -0.00018364040772888152 0.0
0.001983780020128642 -0.00016635173896582844 0.0
0.0020646362448077976 0.00013798942710491414 0.0
0.0035131399348584755 -9.873729387388867e-5 0.0
0.0035585440214867658 -7.344040931532294e-5 0.0
0.0035897903604290037 -6.118778859270907e-5 0.0
0.00012267271914940812 -4.906747621908536e-5 0.0
0.00012569604214812558 -5.7425917033739974e-5 0.0
0.0001788241403611457 -8.418343642965139e-5 0.0
0.00013244666461055866 -6.76601754972695e-5 0.0
0.00018218566415514575 -9.57077674970618e-5 0.0
0.00013711702349303114 -7.764511360708815e-5 0.0
8.39748710100173e-5 -4.6807033383144286e-5 0.0
0.0018291822663620352 -0.0004568123724116188 0.0
0.0008796123030776371 -0.0002504040316357952 0.0
0.0005158628990732874 -0.0004147297869702343 0.0
0.0014439420673525132 -0.00021264929893048632 0.0
0.0033406145068513447 -0.0002920586922076201 0.0
0.0033075539226085117 -0.000304562549080634 0.0
0.002829910731242939 -0.0003526825935356004 0.0
0.002881037660514224 -0.0003466474750207755 0.0
0.0028930754411341073 -0.0003177557019976197 0.0
0.00017633765596848872 2.0271382040077233e-5 0.0
0.0013164732016110205 -0.0007300034818495644 0.0
0.0008983782866816519 -0.0006142740334161913 0.0
0.00011234772103039601 -0.00010771852563091268 0.0
0.00015411934387011352 -0.0001525810099866821 0.0
0.0007163663255003278 -0.0002448439610468728 0.0
0.0022550349912508205 0.00015661695667831284 0.0
0.0023269789940336258 0.00015592635808761246 0.0
0.0027301975830767845 -0.0003829206463083511 0.0
0.0028480202236864814 -0.0003828499587616872 0.0
0.001239375540858522 -0.0007117858185397213 0.0
0.001388921102250532 -0.0007444023832610227 0.0
0.0014251911140710628 -0.0007362281783720587 0.0
0.0031190435715758203 -0.00037157668942314263 0.0
0.0030987908202394 -0.00041378685997673655 0.0
0.0030493436129303323 -0.0004573659817390441 0.0
0.003359142456774156 -0.00011133882894262613 0.0
0.0033092958244207793 -0.00011951452607405466 0.0
0.0032455422224277374 -0.0001445389977878403 0.0
0.0032534510464996306 -0.000126826444583356 0.0
0.0006109487008623502 -0.00023875980460758543 0.0
0.0031495887549887066 -0.0001313912838643178 0.0
0.0030822333137186385 -0.00013372253468780804 0.0
0.0022105866134138016 -0.0006066173177717593 0.0
0.0003790597778631523 -0.0003304841936614071 0.0
0.00034446949345626833 -0.00029897806524848336 0.0
0.00033185432446763036 -0.00027035128888083803 0.0
0.0003075821117393255 -0.00026446972144577766 0.0
0.003599862860594456 -5.135154631991214e-5 0.0
0.003521640358454174 -5.726165179733358e-5 0.0
0.003566560097098071 -3.97764408171474e-5 0.0
0.0029515833100430397 -0.0005250006089303628 0.0
0.0014996922637229397 -0.00032895292083592734 0.0
0.003145162420042079 -0.0003776119772468904 0.0
0.0031274190240848086 -0.0004181024971215559 0.0
0.0031705574565741084 -0.0003830366160004707 0.0
0.003156790704329063 -0.0004250474294389077 0.0
0.0032009237701755284 -0.0003831572114322096 0.0
0.0032151694460926996 -0.00034622467482293176 0.0
0.003241007343949625 -0.00034917533647520676 0.0
0.0017397474209865592 -0.0007967671226526407 0.0
0.001703980753809907 -0.0008134981479329701 0.0
0.0016570894596022547 -0.0007905860409173755 0.0
0.001208881822982524 -0.00022154734770591945 0.0
9.711581227610645e-5 -5.9748727675700496e-5 0.0
0.0001412260883254196 -8.814845582520265e-5 0.0
0.00010182801218125716 -6.828395491748453e-5 0.0
0.0012102070060966814 -0.0007253833992749021 0.0
0.0011691848672844747 -0.0006955302117863586 0.0
0.0034705679472271196 -0.0001952405186169406 0.0
0.0002868180713529598 4.901818225741307e-5 0.0
0.0019343941560894765 -0.00035072340171049565 0.0
0.0019397221393977317 -0.00032694516921118037 0.0
0.00334845597078227 1.5253166670788114e-5 0.0
0.0034533692088125245 8.037262457667058e-6 0.0
0.003134991752243767 -0.00029431385092778644 0.0
0.0006390697678384395 -0.0004584444083054732 0.0
0.0006512857561097675 -0.000493262625394007 0.0
0.002662791400119266 -0.0004013584430134905 0.0
0.0026866053592760715 0.0001296314646850663 0.0
0.00354013110692733 -0.00014022596746661917 0.0
0.0035869674890736214 -9.670378688352078e-5 0.0
0.003604901124078446 -7.3474146406501e-5 0.0
0.0026080196515334084 0.0001484789330880792 0.0
0.0030401475821795793 -0.00029464552200981434 0.0
0.001663632605474896 -0.0007004705052698981 0.0
0.00312326386780501 -0.00017592361547840362 0.0
0.0029398645284993887 -0.0003308087172117822 0.0
0.0011299941971404989 -0.0004759071061140094 0.0
0.0006559378759023793 -0.00042791173700904565 0.0
0.003413787574895286 -9.902318097731991e-5 0.0
0.002832596436301214 0.00015699428615993522 0.0
0.0011697433061520263 -0.0007268235152016396 0.0
0.0005426987850539599 -0.00021481843440392145 0.0
0.0019703519297773124 -0.00020460472216576848 0.0
0.0028931969991239505 -0.0005147620480023949 0.0
0.002881452330347924 -0.0005545972507663424 0.0
7.573233748065005e-5 -7.162253001361573e-5 0.0
0.002242573318758323 -0.0007390137875427175 0.0
0.0022280491406657292 -0.0007724973603012246 0.0
0.001424352690478233 -0.0007734653697367364 0.0
0.001462611393512606 -0.0007609083249126848 0.0
0.0014610040238359908 -0.0007270940463873569 0.0
0.0014990581055354774 -0.0007501900648283752 0.0
0.0014632367080489948 -0.0007893055170501307 0.0
0.0012407960910356824 -7.694516319775803e-5 0.0
0.0011671179569950662 -5.745390482127904e-5 0.0
0.0005089493621223113 -8.157658789123907e-5 0.0
0.0010237953144832887 0.00023256822444670317 0.0
0.0010264680450060484 0.0002154887378953174 0.0
0.0022257090197461316 0.00011837347679859765 0.0
0.002812959234661485 -0.0005921324628592066 0.0
0.0027721657574347387 -0.0006245895933993322 0.0
0.0003165057428711639 -0.00029268618492304905 0.0
0.00028083694415276413 -0.0002555580457644102 0.0
0.0035838451389378465 -3.959732994181932e-5 0.0
0.0005943083604639773 -0.00028420814612664603 0.0
0.0005361796116153899 -0.00025837309595145316 0.0
0.003332825792831602 0.00012094880198542755 0.0
0.003427111532753351 -0.00021232212621959974 0.0
0.003406699394398927 -0.0002513361615348398 0.0
0.0020305370960789705 -0.0002117331136760667 0.0
0.0023288627224723303 -0.0007495284164262792 0.0
0.002282063937226551 -0.0007820717851575687 0.0
0.0010366392581305551 -0.0003212463822627737 0.0
0.0010415697703671034 -0.0002970103931033053 0.0
0.0014994428471852156 -0.0007171146596873899 0.0
0.003153520624686306 -0.0003262911239349358 0.0
0.0018110294505123811 -0.000279389860874096 0.0
0.001765046948833518 -0.0002689932619976544 0.0
9.253708630032734e-5 -9.406416633265548e-5 0.0
0.0009791889148754189 0.00035870096094713154 0.0
0.0016560144556777242 -0.0002850299593699832 0.0
0.0011066114877170024 -8.715434724472278e-5 0.0
0.001116112153353062 -0.00011121382804377566 0.0
0.0006733530569065923 -7.875658023682665e-5 0.0
0.0022846272082572934 -0.00018083222234779485 0.0
0.0015008826699487773 -0.0002056365485768601 0.0
0.0015031422351133481 -0.0001860570816993315 0.0
0.0015578894362415134 -0.00019910634781730905 0.0
0.0015589544233358154 -0.000180714460894123 0.0
0.0016114017377046098 -0.00019137030454140236 0.0
0.001613232890546126 -0.00017416202476212627 0.0
0.0015595385993711793 -0.00016305632259913335 0.0
0.0016143245219524453 -0.00015674536012032887 0.0
0.0015607516599379025 -0.00014603590628107428 0.0
0.0016163453754721047 -0.0001400072968152308 0.0
0.0016623115169787745 -0.00018437996038774893 0.0
0.00014195177518754474 -4.368704580619654e-6 0.0
0.002208263456383941 -0.00021955923243527188 0.0
0.0015109707238596443 -0.0003078775608271124 0.0
0.0014400571100028144 0.00013179861423784407 0.0
0.0015429132933602167 9.874741118861234e-5 0.0
0.0015482600309677042 6.234175173422381e-5 0.0
0.0015154630775852385 0.00014474528725133873 0.0
0.0014783834265364524 5.575736371429682e-5 0.0
0.001565826253794445 3.387935726621872e-5 0.0
0.001647363529241242 3.4539410872496754e-5 0.0
0.0016030867347022846 0.00012095113986499818 0.0
0.0002293771854621567 -0.00011237241336797405 0.0
0.0002357283592595363 -0.00012740474238045243 0.0
0.00358157277743966 1.828882969355717e-5 0.0
0.0034661563798004677 4.099473650930204e-5 0.0
0.00345914353676484 4.9829550894769696e-5 0.0
0.002700760358889965 -0.0006514025949324559 0.0
0.0026511049926537847 -0.000682498588003807 0.0
0.0009500518687536849 -0.0004973259432610485 0.0
0.0009860125233678455 -0.0004936098894952408 0.0
0.0009135533798531931 -0.0004992632208478348 0.0
0.001043135002055462 -9.707976146557316e-5 0.0
0.0016226167359395497 6.492518538125995e-5 0.0
0.0016719517473952773 -0.00014995225345006106 0.0
0.0016701467046460487 -0.00013302653791116514 0.0
0.0016173723823986513 -0.00012343777011243062 0.0
0.0016697544982777173 -0.00011772364485141262 0.0
0.0016209468492157826 -0.00010775120049513963 0.0
0.0009787510295771141 -0.0006232877919754729 0.0
0.0035717645949893528 2.9793108058179213e-5 0.0
0.0015122087156057625 0.0001732977863710381 0.0
0.0021365711219848422 0.00011796265134401389 0.0
0.0021438913785339145 8.574647299827854e-5 0.0
0.002056364662834898 7.742309950430427e-5 0.0
0.0010755498750944779 0.0001674924486237344 0.0
0.0013197856154815242 0.00019109392011351374 0.0
0.0012474598833168969 0.0002027656649426001 0.0
0.001200209673189381 0.00021063411774471498 0.0
0.0023948509997243515 0.00010821001437289531 0.0
0.002999853002473077 -0.0004900988787577157 0.0
0.002979032241298898 -0.0005373529846953277 0.0
0.0009329405096490471 -0.000642129102067347 0.0
0.001537043449968 -0.0007401335046435161 0.0
0.0015378006621002685 -0.0007724864201294506 0.0
0.0015736409930279624 -0.0007623699188188819 0.0
0.0015792390776810635 -0.0007988147267719143 0.0
0.002599441313307447 0.00012418404975737566 0.0
0.0025246208251284864 0.00010753659720316632 0.0
0.002623765713809171 0.00010170810242520101 0.0
0.002702480752512913 0.00011478538556511013 0.0
0.001994026551958711 -0.0003144550894717438 0.0
0.001952742686415415 -0.00030397479521902484 0.0
0.0016121982014585608 -0.0007829163036521525 0.0
0.001082361551128858 -0.00018717733072794694 0.0
6.107407277596087e-5 -5.377386246431287e-5 0.0
0.0014915540211309407 -8.565330959291753e-6 0.0
0.0015642214460186465 -2.792921227047436e-5 0.0
0.0015680180205410344 -4.923101909303874e-5 0.0
0.0016356748366255086 -4.3591779848856244e-5 0.0
0.0016345789607635542 -6.120529536729156e-5 0.0
0.00163256844735548 -2.524176032557294e-5 0.0
0.001578055292322192 -6.723792176396212e-5 0.0
0.0016351360526223578 -7.759432789132821e-5 0.0
0.0016988673191941142 -3.80910055739075e-5 0.0
0.002427650472878608 0.00011187136879870986 0.0
0.0015838347149691931 -8.466496324412249e-5 0.0
0.0036238356243425197 -2.495585025449388e-6 0.0
0.0013848856373764452 -0.00022114323109674605 0.0
0.0017235447808451852 -0.0006600553538474947 0.0
0.001769330936356143 -0.0006474994947338311 0.0
0.0015655761216636103 -6.802501852968453e-6 0.0
0.0016393615793418917 -6.463796815460704e-6 0.0
0.0020981082664497507 -0.0003346673667517602 0.0
0.002643755573940785 -0.0005839950766001311 0.0
0.0025978713767519654 -0.0006189458533727801 0.0
0.002588118143506591 -0.0006595966496390184 0.0
0.0025556830653275867 -0.0006526906041104177 0.0
0.002548605099786715 -0.0006902227988487449 0.0
0.002513947323322645 -0.000685796452057723 0.0
0.0030362139891454477 -3.22228705781185e-5 0.0
0.0029725027030577025 -5.9574592427122674e-5 0.0
0.0030027026941068674 -8.08608888265541e-5 0.0
0.0029097112601706118 -8.855089996010826e-5 0.0
0.002937052504757376 -0.00010975502038360013 0.0
0.002844940507757375 -0.00011886793038152266 0.0
0.0028739534914657447 -0.0001399101570169745 0.0
0.0028157153236960442 -9.687790773826345e-5 0.0
0.0027534119125732118 -0.00012732612571023262 0.0
0.002960904781197738 -0.00012998904551141067 0.0
0.0027227641631641765 -0.00010575824818522488 0.0
0.002897392154784302 -0.0001600594796581572 0.0
0.002815607110089537 -0.00016992588539958118 0.0
0.0028353982119086333 -0.0001901838911288926 0.0
0.0027860978145811516 -7.598472204840626e-5 0.0
0.0029382859966062967 -3.681657209865683e-5 0.0
0.002982799085386428 -0.00015057067948096579 0.0
0.003101137329693572 -7.687038564050523e-5 0.0
0.0030402638216608957 -0.00012117859440029458 0.0
0.0019907180912837456 -1.0840613972212645e-5 0.0
0.001297941834658844 0.0001988609091728186 0.0
0.000193658763327565 -0.0001129703472860948 0.0
0.00018001296152966945 -0.00016732337945639283 0.0
0.00021760197891664067 -0.00020568326705699383 0.0
0.001610339803679317 -0.0007511626776333776 0.0
0.002155169041361979 -0.0003474860836100844 0.0
0.0020624581939328005 -7.314908507313403e-5 0.0
0.0019929719829340836 -8.617057642408565e-5 0.0
0.0020048374630816353 -6.902224370707682e-5 0.0
0.001994855702579899 -0.0001039923039364291 0.0
0.0020538722301484047 -0.00011130678448137402 0.0
0.0019898108531140653 -0.00012223436326598748 0.0
0.0019834413358296144 -0.00013944679898424825 0.0
0.001934357238639237 -0.0001313347364823134 0.0
0.00023686048667763936 -0.00019736414580245602 0.0
0.0023055819249033944 -1.0449770148799602e-5 0.0
0.0028085060030404725 5.311473486735392e-5 0.0
0.002693786063786568 5.699018884003647e-5 0.0
0.00014456721403639856 3.0004900367097782e-5 0.0
0.0003017494309162613 6.894701098391781e-5 0.0
0.000282175542929277 5.7625882654955234e-5 0.0
0.002351139025466974 -7.526260993049994e-5 0.0
0.00030674982635239085 -0.0002314353128515403 0.0
0.0003560033919869968 -0.0002724706061581438 0.0
0.00038674507872901097 -0.00028211187717652264 0.0
0.00038292668604302486 -0.0002584476239439178 0.0
0.00041523184655973844 -0.00026109067407166265 0.0
0.0015024728987835401 -9.979136256190307e-5 0.0
0.0001743835934109334 1.2628180357754607e-5 0.0
0.00072327544272119 -0.00020249264025582893 0.0
0.0005933008840195857 -0.00019351184944078247 0.0
0.0016358736778928726 1.3691524226889964e-5 0.0
0.00040811748684014865 0.0001526642696314673 0.0
0.0025472634621012584 -0.0006065845649161763 0.0
0.0022174522922042846 -3.4027297134680445e-5 0.0
0.0034965047465659997 -0.00018436992178341423 0.0
0.002787000940971555 -0.0001485454590064202 0.0
0.002696872857408103 -0.00015693999984278177 0.0
0.0026195967539680517 -0.0006709078786046113 0.0
0.003630978599691385 -6.6661080827966064e-6 0.0
0.0035623090097829995 -1.731401369847295e-5 0.0
0.0035763896748603973 -2.2580540862743397e-5 0.0
0.0035504722250687213 -1.0165777890458616e-5 0.0
0.00349671902907859 -3.220741398072744e-5 0.0
0.0035412340487447173 -2.2705775279267076e-6 0.0
0.0034599828567948303 -1.0585761312801488e-5 0.0
0.0034766500455266306 -2.2227220405562002e-5 0.0
4.106546103673083e-5 -2.1899190220646236e-5 0.0
0.003657022045114992 -1.802813521726372e-5 0.0
0.003609165326338405 -3.5031252034161936e-5 0.0
0.0036382400013112623 -1.9289535656769748e-5 0.0
0.0036134309492566624 -3.744092992167297e-5 0.0
0.0021693472918300795 5.878891043800749e-5 0.0
0.0027444856800046625 -0.0006125208046943252 0.0
3.190472328954572e-5 -2.3247139084383235e-5 0.0
0.003666584609808368 -1.95829205213582e-5 0.0
0.0011958591130689588 0.00014234023562988832 0.0
0.0029591988736309078 1.7417347974309702e-5 0.0
0.0010106379773196243 2.143369472644265e-6 0.0
0.0010916177870311733 1.1822125007311304e-5 0.0
0.0010887014622978932 4.378411891802998e-5 0.0
0.0010921590238581603 -1.651397456414994e-5 0.0
0.0011618020892246405 -1.0720854651083503e-5 0.0
0.0011793089387394798 1.6864963036864342e-5 0.0
0.00117134403119163 5.035103290219368e-5 0.0
0.0010912722895398065 7.40000260685363e-5 0.0
0.0010209536755722832 0.00010060634496937654 0.0
0.0010216471487360203 -3.2046658964559634e-5 0.0
0.003087635531333045 -0.0004525307450387068 0.0
0.0036213742603985488 6.546366423458062e-6 0.0
0.0015020721629233251 -0.0006843545257260313 0.0
0.0004918203068098777 -0.00041773870006659645 0.0
0.001653588714254946 -0.0006697987639992072 0.0
0.0012748990325788052 -0.0007045773256352517 0.0
0.001277212171781737 -0.0007377119270935127 0.0
0.0017251231243464282 -0.00012627465981693964 0.0
0.0023550002416108723 -0.0001278974039195085 0.0
0.0031876780832116335 0.00010599028257725987 0.0
0.003232820901048833 8.793694359901648e-5 0.0
0.0031334530856454426 9.2096051500437e-5 0.0
0.0002304872062782715 -0.00010110241599163171 0.0
0.00045870422794685035 -0.00040663181446613767 0.0
0.0011669227184630086 0.000263445509342395 0.0
0.0010478856151065704 0.00026374158320636705 0.0
0.002642669804976283 0.00010152395446292608 0.0
0.0013353853292558992 0.00019302635937155227 0.0
0.0033351142037787904 -0.00023138957118146937 0.0
0.0016388573627968083 -0.0005607729253243802 0.0
0.002523920865135344 9.39429003421158e-5 0.0
0.0025979032934160726 0.00012236009281962868 0.0
0.001112100225245057 0.00012058845122183208 0.0
0.0009040278962602422 -0.0006486296964546537 0.0
0.003311791643551175 -0.0002727041151288473 0.0
0.0005442952242669101 -0.0004175000846412967 0.0
0.0005774658639187811 -0.0004466881293751807 0.0
0.0005595046782179528 -0.0004556372467368855 0.0
0.000862638599183023 -0.00020178102836268806 0.0
0.0020351417336088116 -0.00015168425317290153 0.0
0.002285129754895388 -9.767326238801866e-5 0.0
0.0013816882306985113 -0.00015502796919623763 0.0
0.0014444849521255475 -0.00017137871403112754 0.0
0.0035441753579929865 4.365480755026964e-5 0.0
0.003365574998270195 8.903623003637471e-5 0.0
0.00016055460589875856 4.39290842025088e-5 0.0
4.065248375375969e-5 -2.4060519715644618e-5 0.0
0.0016662733465497108 -0.00016703194917481128 0.0
5.5236098207275073e-5 -1.411543497438324e-5 0.0
0.00013358898581041073 -2.8874641331844973e-5 0.0
0.0016342284402175065 -0.0006440701480430299 0.0
0.0023282403835520825 0.00011234594325067896 0.0
0.0013710251763027182 0.00018558395451102503 0.0
0.002260628664817772 -0.0003378294137353124 0.0
0.0016793421406458456 -0.0001022985443275392 0.0
0.0029546939532366237 -0.0002836336114680845 0.0
0.0034520798760632916 -0.00017527648237598638 0.0
0.0010874482336039567 -0.0004802555904563527 0.0
0.0010918030029804134 -0.0005098518068924677 0.0
0.0010474556868448634 -0.0004810446356006797 0.0
0.0010016563619892657 -0.00045261814496343645 0.0
3.266483140879718e-5 -2.5893004419541787e-5 0.0
6.15055687062337e-5 -4.970109013016958e-5 0.0
6.902553383682872e-5 -5.0965887095145e-5 0.0
0.0009354888042601976 -0.00032386122424979044 0.0
0.0008849782490736735 -0.00032673686771021845 0.0
0.003660107445469919 -1.8724695814795673e-5 0.0
0.0019744147655725713 -0.0008127002739685705 0.0
0.0019382721215611305 -0.0007938168088125032 0.0
0.0019356822786739216 -0.0008302681131683446 0.0
0.0018993563851231188 -0.0008109295457469496 0.0
0.0018596156583191577 -0.0008262099338903074 0.0
0.001857971037008345 -0.0007903746075578771 0.0
0.0019398449168144109 -0.0007576177243810144 0.0
0.0025223628436535747 0.00012609325704074137 0.0
0.00042938327485629764 -5.962076338952603e-5 0.0
0.0004999179903974664 -0.00010294899667109569 0.0
0.0004343626765795574 -0.00010255347772111194 0.0
0.002320417674247708 -0.0003231224802559215 0.0
0.0007534338374539255 0.00021495944614069416 0.0
0.001848806770615538 -0.00033084588076934306 0.0
5.557447984053818e-5 -2.218676441022214e-5 0.0
0.0011348360463025143 -0.0006983572005477333 0.0
0.001097816660321391 -0.0006966431420276766 0.0
0.0011049480816757158 -0.0006696928053674076 0.0
0.001271260189638931 -0.0006715644618597917 0.0
0.0010881637903503232 -0.00044742482246064845 0.0
0.00048218121328549277 -0.0002054399266536574 0.0
0.00028136182182623114 -0.00015800816405725637 0.0
0.0036414835257114445 -1.2420236634345854e-5 0.0
0.0035910115986558743 -2.5385128792128257e-5 0.0
0.000713659967108821 -0.0005230776044721255 0.0
0.000859282569043596 -0.0005828988080997041 0.0
0.0008266331077616008 -0.0005862047451640495 0.0
0.000786241771244915 -0.0005541605515380909 0.0
0.0007921697282456706 -0.0005867887328761981 0.0
0.002189872582828086 0.00012463258432970423 0.0
0.0014861219257697364 0.00017550627616887834 0.0
0.0023716582992777003 -0.0007222525989631312 0.0
0.0024027564464512152 -0.0007358828522524881 0.0
0.0024434250377846764 -0.0007081173644323459 0.0
0.002356239982324627 -0.0007690699100146305 0.0
0.0011757489206417051 -0.00047717787938376954 0.0
0.0020896801779873237 -0.0006013015672910109 0.0
0.0013642868904592015 0.0001922535112326063 0.0
0.0014988360184262116 -5.8923931260039086e-5 0.0
0.0036679282436200456 -2.0872516745802245e-5 0.0
0.0036377157038343056 -4.2033922783613616e-5 0.0
0.0036249048084520726 -4.5309983820502085e-5 0.0
0.0007533693030479921 -0.0005552792675117572 0.0
0.000721902477387667 -0.0005547271595143503 0.0
0.0010873444210646194 -5.844592119932215e-5 0.0
0.0009612268898620896 -0.00045808558984027943 0.0
0.0034305054756420344 -0.00013816702943458383 0.0
0.00279139467514603 0.00015068712289821546 0.0
0.001656092550174749 -0.00020167370277360247 0.0
0.0017060853441831184 -0.00019316217347536803 0.0
0.002192333651552295 0.00015379650268888175 0.0
0.002706414203618837 -0.0005127285211434249 0.0
0.0015934219229447536 -0.0005710988254066534 0.0
0.0015953562179585217 -0.0006015692834891208 0.0
0.00039975444389452763 7.49823029629531e-5 0.0
0.0008804451613628313 -0.0004615806253205648 0.0
0.0008395862484629235 -0.00045875609996521996 0.0
0.0007946517734356611 -0.0004289860305664912 0.0
0.0007999915533546724 -0.00045877760660666464 0.0
0.0006762562049150427 -5.270130834102554e-5 0.0
0.0006795607787585269 -2.592406937354149e-5 0.0
0.0007579401120847442 -0.00010443844754223163 0.0
0.002390434222221295 -0.0007792876562239869 0.0
0.002323822702435008 -0.0005901312903130552 0.0
0.002272730407307423 -0.0006155569131506395 0.0
0.0023161986803936787 -0.0006290220286198885 0.0
0.002265417425259716 -0.0006555369087890237 0.0
0.0022954246045021084 -0.0006661461479531472 0.0
0.002364549640147099 -0.0005973637842618526 0.0
0.0024029069824467912 -0.0006018518896518975 0.0
2.764407900084015e-5 -2.574267700614208e-5 0.0
0.00367291322866589 -2.2051830521931534e-5 0.0
0.003022695874729475 -0.0004448983813807792 0.0
0.002162416047587656 -0.0007817864882071155 0.0
0.0034040701155908246 7.55767636590205e-5 0.0
0.0020955632546786384 -0.0007527038799340986 0.0
0.00208711652467245 -0.0007892098805343329 0.0
0.0027650998552420664 -0.0003488046790420307 0.0
0.002476404632865929 -0.0002768676220540615 0.0
0.0024252536151968714 -0.0002702948023757628 0.0
0.0011538111527453533 -0.0006285193422283537 0.0
0.0006746841049442915 -0.0003962115769178767 0.0
0.0027512752226581234 -0.00020228521973307537 0.0
0.002900789548375132 -0.00047482100023705045 0.0
0.001272903579367663 -0.0003744351289034491 0.0
0.0013201444908631985 -0.00036858956022832175 0.0
0.0013182542513739228 -0.00039454302924374715 0.0
0.0013232895835251634 -0.0003435931527735014 0.0
0.001271401543010832 -0.00040073340270071236 0.0
0.001366227390841502 -0.00036520205797514066 0.0
0.0013723241244359122 -0.0003419680502997055 0.0
0.0013847129553739557 -0.000316491813199586 0.0
0.002744515358876844 0.00016222299534705104 0.0
0.0002998133598382336 7.635140487701202e-5 0.0
0.002662948441226773 -0.00013605191502047778 0.0
0.002896577587257919 -0.00029319031825639837 0.0
0.0005512591194868465 0.00016850821831825187 0.0
0.0005192977355816244 -1.1475228497435694e-5 0.0
0.0007590548751652112 -4.8305272109234375e-5 0.0
0.0005910778268099102 -0.00036240341165698006 0.0
0.0012724106299906923 -0.00032403111008471046 0.0
0.0009882991465903787 -0.0002732330631552505 0.0
0.0010567502793714237 -0.00027285206245197764 0.0
0.001100208188730059 -0.0002988219588403842 0.0
0.0017767553825289335 -0.0007842686819447904 0.0
0.0018185282256048417 -0.0008049498694762348 0.0
0.0018178453513641433 -0.0008441986027994431 0.0
0.0018586982583268753 -0.0007551881235567283 0.0
0.0028486301154111563 -0.0005048448532246007 0.0
0.0013238165442451906 -0.00020656459903424214 0.0
0.002687202893283173 -0.0003167197810643826 0.0
0.0012676268961024537 -0.0006392001422475664 0.0
0.0019414207516375065 -0.0007223505957900737 0.0
0.0013485519213848995 -0.0007561992350114938 0.0
0.0033921472687315794 -1.7933417535814928e-6 0.0
0.0018000972831694138 -0.00034280065891924375 0.0
0.0004283185113997529 -0.0001767982677877692 0.0
0.0013689112012164818 -0.0005258010211179367 0.0
0.0014137437217670546 -0.000547885115806516 0.0
0.0012767093237698172 -0.00048184155629129373 0.0
0.0013852429040419694 -0.0006794753539282329 0.0
0.002170383289968335 -0.00045658318597392315 0.0
0.0021161751657721257 -0.000474734935862113 0.0
0.0021639710325963677 -0.00048619946403239057 0.0
0.0026318284097466395 -0.00011500019728157713 0.0
0.0016384256546820438 -0.0005314965199273969 0.0
0.001182089010258853 -0.0004375614780337546 0.0
0.0020924907474137123 -0.00020001581694474357 0.0
0.0020819913350594386 -0.00022089716929408944 0.0
0.00046334936459284625 -0.0002920522371752168 0.0
0.0009730753336216998 -0.000591847728909913 0.0
0.0024567938358931764 -0.000665029141846032 0.0
0.002065242505336692 -5.564654565018791e-5 0.0
0.0019120587023436092 -0.0005743713679571292 0.0
0.001864158840306642 -0.0005892637179434062 0.0
0.001861875721548045 -0.0006215481212012821 0.0
0.001816826359513985 -0.0006031678036648399 0.0
0.0018158259617421808 -0.0006356195052567965 0.0
0.0019059233749498332 -0.000638547486766561 0.0
0.0022288669906279216 -4.612251739591929e-6 0.0
0.0014993321684030956 -0.00045131866169967425 0.0
0.0014546972610832184 -0.0004594473177355624 0.0
0.0020730899930162237 -0.00043446483429539565 0.0
0.0012304764510060384 -0.0004863751797672307 0.0
0.0020481042980390433 -0.0008094460226201732 0.0
0.0015469618852294428 -0.0005513234075804658 0.0
0.0018192335258967669 -0.0005720454115193081 0.0
0.002578166444904958 -0.0007008928478054675 0.0
0.0016497672301245255 -0.00035006665308829813 0.0
0.0034815726499966915 -7.718896688699676e-5 0.0
0.0018267099595846359 -0.0004843136399431201 0.0
0.000823879617809483 -0.00034701931795323883 0.0
0.0016020086492449371 0.00016351738693568357 0.0
0.0025684363536772003 -0.000566287541502505 0.0
0.0033310388919791183 7.763665039309852e-5 0.0
0.0005410910702337647 3.65546492481421e-5 0.0
0.0005616583264123372 5.9139830298985955e-5 0.0
0.0006228087199973347 2.5242238670661322e-5 0.0
0.0006587905004545012 5.261585740003925e-5 0.0
0.0007206438581496137 3.43063596682296e-5 0.0
0.002608220744582293 -0.0001654438347679382 0.0
0.0015022116875247169 -0.000786859506571665 0.0
0.0017004127476170146 -0.00034080058373993306 0.0
0.00010830450685352279 -3.0913560051522126e-5 0.0
0.0012284749803145696 0.00021095345879415406 0.0
0.0011406756002989304 0.00022304221688112765 0.0
0.0024609772805057563 8.871144599043783e-5 0.0
0.0014618240627029767 -0.0006617106840450875 0.0
0.0016656291457171127 -0.0007590175801536288 0.0
0.0014476890190794978 -0.00023486435501527834 0.0
0.002024517497863921 -0.0004229873639511939 0.0
0.0019716976687244787 -0.0004097693299715879 0.0
0.001980177133139904 -0.00038239913883580224 0.0
0.0020784681436311426 5.417813790022704e-5 0.0
0.001374492993558854 -0.0005557570627329303 0.0
0.0009331277189988234 -0.00024938910383725323 0.0
0.0014046581305988287 -0.00041194399352815385 0.0
0.00018631065563613867 -0.00011899958869878753 0.0
0.0019260958524320577 -0.00019269004912983648 0.0
0.0007781368303728312 -0.000521151630383691 0.0
0.0019302264310869476 -0.0004295003180271222 0.0
0.0011616779291850005 -0.0006615570511880655 0.0
0.00258609277340501 -0.00028368933285700574 0.0
0.00173984305840493 -0.00042778845588949994 0.0
0.0017707058789332587 -0.0006161525388144145 0.0
0.0032389479503626773 -0.0002235925769285598 0.0
0.0006859105419847484 -0.0005228581740558621 0.0
0.0035251658939185948 -0.00017247028798618767 0.0
0.0014473806450184259 -0.0003265029142514959 0.0
0.0017341222425759687 -0.000481259255915885 0.0
0.00031784180285139194 -0.00012280321216831582 0.0
0.003237994539836041 -0.00016308034514027312 0.0
0.002034595184918887 -0.0006524612156262007 0.0
0.00010797351671452873 -3.7304599876822424e-5 0.0
0.0018637204595598218 -0.0002685285503492233 0.0
0.0018614335630042606 -0.0002868545843463595 0.0
0.003460106017749794 -4.766088945357666e-5 0.0
0.0020119370628057126 -0.0008295701856398308 0.0
0.0006376669668150839 -0.00039435586795044463 0.0
0.0035723410339677988 -7.719154746789529e-5 0.0
0.0019296275620456103 -0.00037183832275858823 0.0
0.0017891082182870345 -0.00041677490024523943 0.0
0.0022406111129728333 -0.0005727080159824286 0.0
0.0021940864720031666 -0.0005616159902329694 0.0
0.002049119138321539 -0.0005868421288980615 0.0
0.0016977420340848874 -0.00036427594639233283 0.0
0.002093163316981681 -0.0008464742508144459 0.0
0.0022493304543258126 -0.0008269904420698945 0.0
0.0016041233149269177 -0.0008339111089195429 0.0
0.0017274569373372816 -0.0008470090568691027 0.0
0.0024824562128212104 -0.0007653612671172093 0.0
0.002472275136137336 -0.0007257910804537673 0.0
0.0012818064583878998 -0.0007693065132444422 0.0
0.0010109337558867795 -0.0006933746853703504 0.0
0.00217095892395465 -0.0008386638937651149 0.0
0.0013659409775341495 -0.000792592541615958 0.0
0.0015356753249075937 -0.00028828995745492947 0.0
0.0031685854683501566 -0.00010763935788601812 0.0
0.002598571161910075 -0.00043086208428695703 0.0
0.0025797146303343653 -0.0004617157232939503 0.0
0.0013179876306525832 -0.00042259148159630406 0.0
0.002237619380219936 -0.00038362568803568107 0.0
0.0017751703744047999 -0.0006786091714663851 0.0
0.0009184589085511263 -0.0005463595687659777 0.0
0.0006865423264321311 -0.0003158935370981441 0.0
0.0015467712232596334 -0.0004166082740390454 0.0
0.0032373131339272243 2.4040684082995183e-5 0.0
0.0012532891787834712 2.834629465188227e-5 0.0
0.0017516549281648935 -0.000330967479440829 0.0
0.0020690155927609965 -0.00046439567563230725 0.0
0.00024539779714561607 -0.00022100652775075905 0.0
0.0002544715364019904 -0.00024585851866743447 0.0
0.0015467536959000584 -0.0006114950957640553 0.0
0.0012989283667895718 -0.0005711617185170822 0.0
0.001873797340254146 -0.0004989990836362559 0.0
0.003432819611317852 6.189544971645615e-5 0.0
0.001980407845060347 -0.0007395787489116575 0.0
0.003632175188885087 -5.7239056507139725e-5 0.0
0.003608338955007166 -8.641681168551984e-5 0.0
0.0010127045135485213 -0.0001683673579432929 0.0
0.001594279114393109 -0.00045883848178823256 0.0
0.0016837692928294975 -0.0005495650106486862 0.0
0.003527003576556455 1.2246086002796887e-5 0.0
0.0017222462354646688 4.0320512909123675e-5 0.0
0.00245009163532824 -0.0005777598293044577 0.0
0.002527914113964388 -0.0004873350340557316 0.0
0.0009924589999417454 -0.0006583932719507414 0.0
0.0023221051332734475 -0.00045663809694245465 0.0
0.0015954980204996244 -0.0004074839290189768 0.0
0.0024341227498576277 -0.00041348138360885675 0.0
0.002422959126578959 -0.0004429705628083869 0.0
0.002490447544067041 -0.0003912680518294922 0.0
0.0008285900154312243 -0.0006195463708179918 0.0
0.002893742996206014 -1.0280237011766604e-5 0.0
0.00211908017750648 -0.0008088695142863337 0.0
0.003019342533074079 -0.0005024381152039994 0.0
0.002741915183432917 -0.0003177380384634021 0.0
0.001771991790143983 -0.00024972134617087387 0.0
0.0022607997942357843 -0.0006962239204514331 0.0
0.0014175046951758498 -0.0005776291895861472 0.0
0.0014878601082809126 -0.0003494856792732074 0.0
0.003419764665965731 -3.735920479149055e-5 0.0
0.0007854135262088036 -0.00022725314722616468 0.0
0.002633733711069223 -0.00018580323467061672 0.0
0.0017485942397659836 -0.00016212495385035393 0.0
0.0022875060509684555 -0.0003912746316078915 0.0
0.0032794786046621634 -0.00010374902866964717 0.0
0.0002809295070313108 -0.00012925937644784949 0.0
0.002650838579747906 -0.0004684777393757424 0.0
0.001988025654901881 -3.1079511366236544e-5 0.0
0.0019702615670049058 -4.899139979606245e-5 0.0
0.0021889951605334884 -0.0006723550359649602 0.0
0.0020149221943865335 -0.0005114531147905223 0.0
0.0020725585683012654 -0.0006670395466292833 0.0
0.0026930337945111713 -0.0005514774654969562 0.0
0.0026992409354978895 -4.824421561571787e-5 0.0
0.0017376341466533872 2.198810627320333e-5 0.0
0.002432401623963903 0.00016514650966651068 0.0
0.0031727047573565877 -0.00028827797136962274 0.0
0.003187719926870279 -0.00025875483831514694 0.0
0.0017446869540351207 -9.202055892804942e-5 0.0
0.001180279342632699 -0.0005592044669702475 0.0
0.002378363486831517 0.00013950403303001285 0.0
0.0017438329228600673 -1.1491156963297758e-5 0.0
0.0023116648944910704 -0.0004867390612593849 0.0
0.003579406937180241 -8.618003480404692e-5 0.0
0.0006044416920063902 -0.0004223532775641173 0.0
0.002227653271659126 -0.00023943650891308313 0.0
0.001748405012962301 -5.090536385036439e-5 0.0
0.0017437507212347179 -7.938100836773945e-5 0.0
0.0006187825077831274 -4.053233451781325e-6 0.0
0.0032152729853669564 0.00011653852432679004 0.0
0.001882295502209005 -0.00016922444531651299 0.0
0.003282108127242941 -0.00021450324063334886 0.0
0.0011366939207967802 -0.0005343372970000382 0.0
0.0027997699793812993 -0.000638587220974202 0.0
0.002875257348449729 -0.0006104962489081802 0.0
0.0010307357694145033 -0.0005496539181973677 0.0
0.0023968964561649152 -0.0005024126734126644 0.0
0.0015636250115102785 -0.0008287797520791534 0.0
0.002285943807733579 -0.00014591732383829558 0.0
0.0006568607047590355 -0.00053934754662578 0.0
0.0019003386834631581 -7.207109084584863e-5 0.0
0.0019770598461102155 -0.0002239557732318176 0.0
0.0019364231935490273 -9.695762982158403e-5 0.0
0.0021117293713052033 -0.0005055215469732888 0.0
0.002564456812897081 -0.0004921240036177909 0.0
8.820051835503412e-5 -9.844022599598031e-5 0.0
0.00015213235643329954 -0.00016496655914541972 0.0
0.00018253860527975245 -0.0001948264989884232 0.0
0.0034150073882330463 -0.0002716136944876327 0.0
0.0002458010823503384 -0.00025507496312252546 0.0
0.0010561235019414424 -0.0005125761567134266 0.0
0.00047561031591442825 6.160493274923222e-5 0.0
0.003056738583593732 -0.0005173874764211563 0.0
0.0005551767071037916 -0.0004796849980842166 0.0
0.0006239105595018706 -0.0005210552527469714 0.0
0.003379288993189043 -0.00029892570930190157 0.0
0.0033083596694294926 -0.000355136549151044 0.0
0.001960662014421741 -0.00028353993839271235 0.0
0.0014231903495025564 -0.0007041342596588805 0.0
0.0026866743681959425 -8.151734962993721e-5 0.0
0.0031291044321808737 -0.000472501793350522 0.0
0.0031653811016463893 -0.00045098221185979316 0.0
0.0004891822635929022 -0.00044124463795420355 0.0
0.00033850310340430094 -0.00033044353069948374 0.0
0.003237898049272428 -0.00040335915828843704 0.0
0.003266631222800345 -0.0003523748698051954 0.0
0.0021942140996304153 -0.0007998663829477385 0.0
0.0004023808219482248 -0.00038018803986304586 0.0
0.00267443964006182 -0.000700601028688677 0.0
0.0006875552802173865 -0.00042801724418378256 0.0
0.0030303704801621077 -0.00036001988315723397 0.0
0.0010542029266992939 -0.0006783504239495691 0.0
0.002821505368033276 -0.0004945863676868688 0.0
0.0028790242584939454 -6.697574801012922e-5 0.0
0.0010352425262386722 -0.00036949320605737915 0.0
0.0006961491472046927 -0.00034266701774635853 0.0
0.0013403715556629821 -0.0005942797006076267 0.0
0.0017793660341420834 -0.0004972771489671187 0.0
0.0030469362135906388 -0.00020448519630799717 0.0
0.0018988743236576955 -0.0007743913031104623 0.0
0.0019309534619666726 -0.00017634976622496855 0.0
0.0019114140961153257 -4.4448120520198366e-5 0.0
0.002453938282559123 -0.0003570462706129037 0.0
0.002827160461128048 -0.00041566243825039937 0.0
0.0010047763910864909 6.437966886683045e-5 0.0
0.002305385092991398 0.00012195169061235216 0.0
0.0011273043111480674 -0.0003635328293867632 0.0
0.00307295153010702 -0.00029477969778743857 0.0
0.0007252627204981497 0.00011227414327218416 0.0
0.0006162659387457317 8.477665075115274e-5 0.0
0.0015620768688899432 -0.0001127910857108314 0.0
0.003205065323566512 -0.00012953855496134669 0.0
0.0017038473223480299 8.844417121898111e-5 0.0
0.001873913664478587 -0.0002149308270721959 0.0
0.003390667864100352 -0.00011877975185584308 0.0
0.0009488717554719964 -0.0003732577716553374 0.0
0.0011676270647183794 -0.00023601945191622695 0.0
0.0026379602470155117 -0.0003453287756768129 0.0
0.0029128093017254707 -0.0003873929412116598 0.0
0.0008233602277994881 -0.00037414728091512885 0.0
0.00048078498101357164 -0.0003227925141054667 0.0
0.0027922647288899254 -0.000412882942006425 0.0
0.0011920619485469748 -0.00015158073302189336 0.0
0.002774289389588043 -0.00023654930304516022 0.0
0.003640489637841406 -4.424079174646471e-5 0.0
0.003023789040515634 -0.00010116282834437082 0.0
0.001940295177703404 1.5381191230911627e-5 0.0
0.002003702258690496 1.1030696229224066e-5 0.0
0.002273606720965469 -0.00029211829969588753 0.0
0.0033196642998496485 -2.5331424467246435e-5 0.0
0.0032626290533130423 5.917624227610284e-6 0.0
0.00014763957480847615 -0.00010921189598646435 0.0
0.00011005671309164958 -8.006952307623147e-5 0.0
0.001461610814207706 -0.0006940117297602185 0.0
0.0023665981896212785 -0.000464965275115218 0.0
0.0013281072119304116 -0.0002501043027008168 0.0
0.0013269935036184241 -0.00022855706145820826 0.0
0.0013090584183404015 -9.604375034424289e-5 0.0
0.0018611120109640522 -0.0006542976214990114 0.0
0.002171470088703516 -0.00025642150460443257 0.0
0.0005823656736778638 -0.00010391141861546159 0.0
0.0025534408011723313 -0.00019427758134737545 0.0
0.0019664785558637463 5.432473948626051e-5 0.0
0.0015464638267514894 -0.00044223133330332853 0.0
6.315203812388787e-5 -7.153288514485303e-6 0.0
0.0017818114087883319 -0.00046933706394113327 0.0
0.0033717363618184877 -0.00013792071867982993 0.0
0.0028789805323378883 -0.00023784522043112315 0.0
0.002731763602511261 -0.00017786754662641737 0.0
0.0032285180808799456 -0.00018354873672066208 0.0
0.0023494771802813146 -0.00020535460614477113 0.0
0.0012883160512624128 -2.8302310234503432e-5 0.0
0.0004230644527185017 -0.00015681050058614525 0.0
0.0015951758651875816 -0.0002246127715451649 0.0
0.002005929714187082 -0.0002933720399109525 0.0
0.0005275204207065013 -0.00027696556840003516 0.0
0.001686531237757319 -0.0008436377537885502 0.0
0.0022719267375892905 -0.00020351956257490765 0.0
0.0010998145827446257 -0.0005392439563742435 0.0
0.0024522391326391225 0.00013276901797092488 0.0
0.0030954025456428917 -0.000200898516399159 0.0
0.0011848604315118014 -0.00012835576764359447 0.0
0.00270237263076522 0.00015914477646697777 0.0
0.002072922306160604 -0.00024143303708629429 0.0
0.0017845777879598574 -0.0004424048392055042 0.0
0.0006538805476707329 -0.0001272880095184325 0.0
0.001220333411807033 -0.00025904204460102493 0.0
0.0015781991285158251 0.00015455541912561064 0.0
0.0004935043467119706 8.044268027882905e-5 0.0
0.002728013035820165 -0.00034694682918045845 0.0
0.0007200612406092557 -0.0002679198412077196 0.0
0.001834056849531623 -0.00043088859366100803 0.0
0.003050907903679523 7.413653663819514e-5 0.0
0.0025914698431191677 -0.00034245396562469825 0.0
0.001221473983341087 0.00011491347387790452 0.0
0.000221658776145079 -6.1025067399248854e-5 0.0
0.0009315967584796671 -0.00022463007836330298 0.0
8.342977774842377e-5 7.248232538344946e-6 0.0
0.00017384184803459084 3.608702316261743e-6 0.0
0.0025774543147660508 -0.00031644601234761497 0.0
0.002126670415242316 -3.8699583872234656e-5 0.0
0.0012004587127479069 -0.0007557070615298219 0.0
0.0008399700717621126 -0.0004902279646812641 0.0
0.0030214909719131077 -0.00015950268210913 0.0
0.0004156662556696058 -0.00036922522038369327 0.0
0.0024981289196054275 -0.00036398456192560113 0.0
0.002079444825768826 -0.0006341341525839342 0.0
0.002994806162337502 0.00011411148918535366 0.0
0.0010776248143541342 -0.0006386726370792844 0.0
0.0032585825964417206 -0.0003106360121280048 0.0
0.001876478642827739 -0.0001997891336924148 0.0
0.0005998683193253878 -0.0004817124914802986 0.0
0.002514371879423595 -0.000723788130820391 0.0
0.0006094088354469942 -0.00031151571674077226 0.0
0.0034622397047653956 -0.00012930354503866114 0.0
0.00043627249662020066 -0.00021826618296118863 0.0
0.0025582243793311355 -1.069914504186951e-6 0.0
0.0023531472681198582 -0.00018211001902993678 0.0
0.0019132637248032822 -1.5896675095453452e-5 0.0
8.551467731489873e-5 1.1020691942833703e-5 0.0
0.0014215142438150524 0.00018729752771791874 0.0
0.000998503598818614 -0.000141469060199553 0.0
0.002906102002040038 -0.0005621850047007311 0.0
0.002946388069657406 -0.0005799578662662813 0.0
0.00027736534934753274 -1.007153401496933e-5 0.0
0.0021307977033642915 -0.00022885492001834863 0.0
0.0008763762375385361 -0.0004907618799296594 0.0
0.0015022918486232845 -0.00047741251914772066 0.0
9.211239546732965e-5 -7.6279946809243e-5 0.0
0.00020591934570598217 -3.541922427947712e-5 0.0
0.0020468477326071673 -0.00032422293166780116 0.0
0.001883698944464827 -0.000417916390013359 0.0
0.00013432305362047134 -1.9642718955162422e-5 0.0
0.0003614740462755852 -0.00012866037355582877 0.0
0.00027653605208481955 -0.0002810518724991994 0.0
0.003050893240925854 -0.00032561335288373893 0.0
0.0024091775417257873 -0.00047243742036124096 0.0
0.0004352399140267436 -0.0002915222036231812 0.0
0.0028391836991268037 -4.82212681793057e-5 0.0
0.002608103188913432 -6.8714679107497e-5 0.0
0.00019543253926990789 -0.0001946154467243868 0.0
0.0015164638396610785 -0.000152526100124972 0.0
2.429513920394144e-5 -2.67263704456695e-5 0.0
0.0036743423049847147 -2.6515019506417297e-5 0.0
0.003567702642634911 -5.354267227021861e-5 0.0
0.0010892656377272394 -0.0007223438466755813 0.0
0.0028471257332442507 2.807272482076629e-5 0.0
0.0024112558122241813 -0.0005702830437983552 0.0
0.00048306796701700396 -0.00022622988106965998 0.0
0.0022871525736720207 -0.0008190899959884584 0.0
0.0005220215286535072 -0.0001256806310831336 0.0
0.003192390149236756 -0.00015013792699874323 0.0
0.0014554864769540864 -0.00048493145377436614 0.0
0.0001384778622778339 -9.488699490162682e-5 0.0
0.0016908545393879957 -5.6650672398705564e-5 0.0
0.0016892280683642792 -7.175039092509127e-5 0.0
0.003353219619179676 6.434832803824792e-5 0.0
0.002065295506321111 -0.0004935926712109383 0.0
0.000265353399156922 1.4311563516631582e-5 0.0
0.0032249947441370256 -0.00038688135492666146 0.0
0.0033862473412989693 -9.180391708255434e-5 0.0
0.002587200373874051 5.516789023035398e-5 0.0
0.0026553661944713407 2.7711816483552693e-5 0.0
0.001577358901370861 -0.0007292167582298488 0.0
0.003597508665050089 -0.00010949707299809377 0.0
0.001561000576274189 -0.00012956281675516792 0.0
0.0003387519161907315 9.63906938977307e-5 0.0
0.0004254255290939312 -0.00031776564293535645 0.0
0.001096758080456305 0.00014817179955012517 0.0
0.0032311668088106206 -0.00031037955322259865 0.0
0.00018843603294523229 2.902880494377569e-5 0.0
0.0019298959837001537 -0.0001608672752889258 0.0
0.002892261496971475 -0.00020959149757374582 0.0
0.0023242986819947313 -0.0003016085135228282 0.0
0.0036177840077678465 -3.9534584163776e-5 0.0
8.421037774444419e-5 -4.1352865484806496e-5 0.0
0.003401410050907691 -2.3242755446820414e-5 0.0
0.0036292988819540102 -3.894080916412851e-5 0.0
0.0017786299118390141 -0.0008167838784566788 0.0
0.0021061529582364976 -0.0003120797225250607 0.0
0.0012172414989155384 0.00020301183981639127 0.0
0.0008680938119950167 -0.0003732716864888874 0.0
0.0011487661983831713 -0.0002059279382138249 0.0
0.0015074327752272604 -0.00016905109409336697 0.0
0.0007349482263818685 9.311369823396023e-5 0.0
0.0013357283120432892 -0.0005627654274909294 0.0
0.0006643624461423217 -0.00010158853243697104 0.0
0.0004399099276551964 9.934657997051815e-5 0.0
0.0017126083853681183 -0.00027850927151197005 0.0
0.002614909730015511 -0.0004654308621293827 0.0
0.0031041023925041785 -0.0002955002686949815 0.0
0.0012274911864687983 -3.276725069386436e-5 0.0
0.0008308048336156732 0.00016940188271307076 0.0
0.0019904745444029944 8.06310870905261e-5 0.0
0.0010642482531928136 -0.00013781149038562715 0.0
0.002943064385015854 -0.00030814384490053406 0.0
0.0010298186880184261 0.00020475083095355262 0.0
0.0009272348839188281 0.00020026670576853102 0.0
0.0020226815179950714 -0.0004523944654954749 0.0
0.002047410129993769 0.0001301552670297242 0.0
0.0014399018578938518 -0.0008090259552591898 0.0
0.0027545110868238557 -0.0006669666563665178 0.0
0.000987187525081138 -0.0003470852232107035 0.0
0.0025601621636802364 -0.0007440652513729981 0.0
0.0007941089601897865 -0.000132223884034081 0.0
0.0029951909137624216 -0.0003004454058643225 0.0
0.0014082517177687471 -0.0004658800336606076 0.0
0.0031826486913986425 -0.00019202988095075947 0.0
0.0008708446567344701 -0.0003490435802736462 0.0
0.0014794330723563523 0.00018061612578638698 0.0
0.0013047185502770883 -7.381232970759836e-5 0.0
0.0016425540506525942 -0.0006179443766277653 0.0
0.0017423654079267085 -0.00020630412086888856 0.0
0.001687748318162825 -8.597832217328146e-5 0.0
0.0010109716518044052 -0.00048417218738371293 0.0
0.0010230197791994456 -0.0005177489376077786 0.0
0.0006602850198353461 -0.00024106388526314197 0.0
0.0009129065841360831 0.000268631144849063 0.0
0.0017016379881746111 -0.0007143092666483969 0.0
0.0032169345354576004 6.961189641185275e-5 0.0
0.0028794465942245592 -0.0003853803079278027 0.0
0.0020106846453633413 3.122418874309527e-5 0.0
0.000943924060432367 -0.00034916375413728007 0.0
0.0025297805260694746 -0.00027924014626008904 0.0
0.0021274953987562364 -0.0006147540054723498 0.0
0.0014058788224893726 -0.0004382846492909811 0.0
0.003426632522115766 -0.00011147939236656439 0.0
0.003596472115809379 -6.76724729596802e-5 0.0
0.0012712086309071685 -0.00023501602963454617 0.0
0.002428979859981998 -0.0007508312864575148 0.0
0.003305083877076535 -0.00033289354745200475 0.0
0.00016536371002941902 -4.2846677649708614e-5 0.0
0.0008762795507054522 -0.00022694587147659558 0.0
0.0010342200544814122 -0.0003453770548612195 0.0
0.0033675274074652897 -0.0002869980631343503 0.0
0.0013295487721531989 -0.0005308850857822057 0.0
0.0023047397952129763 0.0001348118429387978 0.0
0.0003522951523320446 -0.00032314799792817117 0.0
0.002128638242272699 -0.0003701409151980702 0.0
0.0030940400473942727 -0.0002666952437860939 0.0
0.002461837895128943 -0.00044932568000409257 0.0
0.0034853109010680437 -0.00010660322806409934 0.0
0.0024827417766462197 -0.0006799076898425275 0.0
6.443210475599741e-5 -3.410932869865148e-6 0.0
0.001629662032248596 -0.00026828979360209046 0.0
6.380746215443357e-5 -4.294345664910263e-5 0.0
0.0011575452190338458 9.921483459181921e-5 0.0
0.0007717346493444614 -2.5128030460782284e-5 0.0
5.478590330717278e-5 -5.582646461516787e-5 0.0
0.0009393053729802317 -0.0006714130767106612 0.0
0.0008688732046518462 -0.0006137326025375895 0.0
0.0015664108517364423 -9.790312530233521e-5 0.0
0.0015719351334713282 1.1761799697401369e-5 0.0
0.0006344321533069333 -0.0005026091000016765 0.0
0.0011243123097304467 -0.00013389671384808258 0.0
0.0021718787852905335 -0.0002388057258869673 0.0
0.0006455949706640745 -0.00031322598078664334 0.0
0.0024091040081511165 0.00016094495832757674 0.0
0.002179631734026028 -0.0005940168818953713 0.0
0.0004732115506725486 -0.00012668475792502456 0.0
0.00027296886934036234 -0.00023177305487359748 0.0
0.0018829869545294335 -0.00013996292443751386 0.0
0.00012689554120254683 -0.00013031232135985363 0.0
0.003527509116910642 -3.656441711783873e-5 0.0
0.0012458892538463248 5.7238763307642675e-5 0.0
0.0017235267234175687 -0.0002567759024022794 0.0
0.003186227978830359 -0.0003456994991096137 0.0
0.003482366825563868 -0.00021552414908116945 0.0
0.0029054691360152415 -0.00018111995854041958 0.0
0.0016963672300134979 -0.0006815847684399621 0.0
0.002212036170830782 -0.0003504425572349329 0.0
0.0031127823302247136 -0.0004568897157313963 0.0
0.001854618328397708 -0.0008568782048573194 0.0
0.0030529590767089626 -0.00027086380132669715 0.0
0.002473796153032083 -0.0004204749668502737 0.0
0.0012839949726977302 -0.000508484114156583 0.0
0.0021819483997726134 0.00014295086908995344 0.0
0.0013556634766093507 -0.0004151695540979592 0.0
0.0011362352063315829 -0.000670420535900359 0.0
0.001695671469091499 -0.00021176048455131028 0.0
0.0028449257741851425 -0.0005915761195772118 0.0
0.0006538990045156556 -0.000218710599694944 0.0
0.0005302046030973985 -0.0004452476223399899 0.0
0.002651740829088842 7.865503710032735e-5 0.0
0.0008271688905710843 -0.00025084087694918146 0.0
0.002118575095651755 0.00014090970982269074 0.0
0.0011446875560082615 0.0004026823900186028 0.0
0.0027403850420633616 0.00017957947528910129 0.0
0.0031766570166981765 -0.00017318872088942146 0.0
0.0017596786746059013 -3.870344350428822e-5 0.0
0.002837067072301534 -0.00021124566423928165 0.0
0.0022314058080313815 -0.0006467788805286324 0.0
0.0023580940576935446 -0.0008069671225758835 0.0
0.0010824497189346196 -0.000341675199462173 0.0
0.001111105334528364 0.0002130088734599959 0.0
0.0007172936885253917 -0.00022321753390234473 0.0
0.0007968665456749763 -0.0006133169040885387 0.0
0.0015999471121865515 -0.0002961689987415566 0.0
8.547892722210256e-5 -3.762669229533909e-5 0.0
0.0006121839786284824 -0.0004604646400896315 0.0
0.0017522000781734462 -0.00011639104046193269 0.0
0.00021248444043566071 -0.00014222741347268876 0.0
0.00021268852751859 -3.806653467051343e-6 0.0
0.0019228103601184468 -0.0004075396547551668 0.0
0.0019311609148287123 -0.00014657340562173392 0.0
0.0034380655914002557 -0.00023313349807133283 0.0
0.00150761735207996 -0.00013624088662065042 0.0
0.0026339325469158315 -0.0004347172732053401 0.0
0.0019479475038194588 -7.755337636658499e-5 0.0
0.0005045053231950979 9.384740618864554e-5 0.0
0.0006615992676567808 7.328909699350015e-5 0.0
0.0035393742768161244 -7.751641240692711e-5 0.0
0.0022441736396960994 0.00013857899621719987 0.0
0.0005319474485856193 -0.00023272893033152194 0.0
0.0022234524320764873 -0.00015463841556552334 0.0
0.0016847357901311282 -2.0007795240241917e-5 0.0
0.0019135454656869534 -0.00020669877604028843 0.0
0.0006283042484322094 0.00017136948675370214 0.0
0.0019335376235804984 -0.000861030688544992 0.0
0.0033612438341534268 -5.151855536191821e-5 0.0
0.0018918965070258127 -0.0003410597112564583 0.0
0.0018817221521417271 -9.873646744167383e-5 0.0
0.002393486890796936 -0.00025766392913379105 0.0
0.0016286281877365032 -9.289382428052291e-5 0.0
0.0019010231773674722 -0.00031676466011697717 0.0
0.000919090275673669 -0.0005237049822921494 0.0
0.0025282137805023868 -0.0003972096519120314 0.0
0.0015026229165698076 -0.0002378155697409881 0.0
0.0018801757475245672 -0.0001265699540003629 0.0
0.002978362317486913 -0.0005671511276335362 0.0
0.0016047518414245329 -0.00020684757066212112 0.0
0.002242729563127635 -0.00011506115202754675 0.0
0.001956905896984724 -6.395294661787161e-5 0.0
0.0002865606888864809 -0.000275019769581803 0.0
0.0028959947108990014 -0.0003598984112877018 0.0
0.0019433888252710823 -0.00011400720595316822 0.0
0.0010756101060991471 -0.0006678785839887184 0.0
0.0021176156576645276 0.00014345943488187988 0.0
0.002638965082941019 -0.0007205147507872631 0.0
0.0035507179374521677 6.13550650734878e-5 0.0
0.00016484065579261466 7.997825402405281e-5 0.0
0.0015600695979685116 -0.00030580176470074014 0.0
0.002078213537085991 -0.0008208751461325426 0.0
0.0013094282714180342 -0.0007539941668265947 0.0
0.001488604582098695 -0.0008189189265996651 0.0
0.0002790540109328283 -0.00011685289801303195 0.0
0.002682200679478056 -0.00041340370523515913 0.0
0.0010879375532797054 -0.00031725064492231747 0.0
0.0015499453069642171 -0.00021423889557591345 0.0
0.0012320665307714305 -5.453359198583135e-5 0.0
0.0015414113594739206 -0.0008017587273406871 0.0
0.0026453952137320863 0.00016556800687003004 0.0
0.0033936521387377305 7.454412696346511e-5 0.0
0.0022324455941275818 -0.0006198352858384166 0.0
0.0018854098436390722 -0.0003675268452156911 0.0
0.0012081167126147298 -0.0005017285022971167 0.0
0.0020135890677863283 -0.0008605184600724154 0.0
0.0027979144353695185 -0.00035151415912918784 0.0
0.000245006300597093 -0.0001422366075663962 0.0
0.003311255934497919 -0.00010689199819208692 0.0
0.0016252868953094098 -0.0008113412494107944 0.0
0.0016647806862352752 -0.0007296169545488686 0.0
0.0025269431481005234 -0.0006471255583987851 0.0
0.003647102620253609 -4.9270426545896986e-5 0.0
0.0013863993873764076 -0.0007726820242948125 0.0
0.001162051810480577 -3.511467188202166e-5 0.0
0.001226243924013913 -0.00024110703795137407 0.0
0.00237796098800855 -0.00028598075810030743 0.0
0.003547625040509109 -3.956244802506733e-5 0.0
0.0002973979310170747 -0.0002417071878487199 0.0
0.0019077682484588269 -0.0002955939831569052 0.0
0.0032768650495435406 -0.0003164738278784581 0.0
0.0035349092937478287 4.717780586883899e-6 0.0
0.001036359118063844 -0.0001955019672147933 0.0
0.0016635323112748136 -0.0008193226939110143 0.0
0.003439308010224755 -9.746852504454966e-5 0.0
0.0006340666300527244 -0.00043266364210528183 0.0
0.00359932017803096 -2.7240218292386053e-5 0.0
0.0011667912014796267 -0.000751791589318721 0.0
0.0025400774771330513 -0.0003685546511213301 0.0
0.0006966339835040017 1.0332851104321016e-5 0.0
0.0022995910607247635 -0.00011856508201662544 0.0
0.003565273968356216 -0.00012527637859699594 0.0
0.002850719652537866 -0.00032677365264304544 0.0
0.0010246572413272993 -0.0006770986967721294 0.0
0.0007276093492036364 -0.0005814226108722206 0.0
0.0009181345588501007 -0.000477572044282794 0.0
0.003051355442718923 -0.0004935167228783733 0.0
0.0027845787222033056 -0.00021425831096397776 0.0
0.000577620383440761 -0.00024105823411214145 0.0
0.0014761813565037202 -0.0002927533699010777 0.0
0.0023734679093144534 -0.0003147073957458509 0.0
0.001424881627773943 -0.0003432710248273586 0.0
0.003469690403293857 3.218803178721101e-5 0.0
0.002539156496101147 -0.00017268486953468966 0.0
0.0014954473082121134 -0.00022149033018387747 0.0
0.0005929512361836938 -0.00021388646463065583 0.0
0.0027117128123075856 -0.00037081055821435024 0.0
0.0022624935380573864 -0.000760103194855814 0.0
0.0031913609962265473 -0.0004139412688623621 0.0
0.0012486171862219361 -0.0007405442489798143 0.0
0.002350915167739274 0.0001114392815591651 0.0
0.001359079636717641 -0.0003883324159142992 0.0
0.0021541729191711986 -0.0008144765555393258 0.0
0.003157944380996904 -0.00034711134135625543 0.0
0.002761876309856748 -5.6534223611639734e-5 0.0
0.0034704117353744554 -9.322801513275394e-7 0.0
0.0008365560236340009 0.00018067717688035348 0.0
0.003374413831578833 -1.4049929562322561e-5 0.0
0.0011915970543173776 -0.00046087687448522537 0.0
0.0031159821940201222 7.933329668542604e-5 0.0
0.00217570638541658 -2.447284009791007e-5 0.0
0.002557380517318553 -0.00012265017904391045 0.0
0.0011193148887031544 -0.00028523220736858027 0.0
0.002597926176856524 -0.0002070468780893049 0.0
0.0017437543146281043 -0.000824317158351814 0.0
0.00095847125917944 -0.0006346180752188186 0.0
0.0019741561193470833 -0.000153111777414819 0.0
0.0027506430346196696 3.6228941060805175e-5 0.0
0.0016357962251466963 -0.000767994190724516 0.0
6.0314736046004486e-5 -3.717259192659028e-5 0.0
0.0035663403826734726 -4.949404586687135e-5 0.0
0.003104850893138276 -0.00011200713803079269 0.0
0.0015050984883179287 3.0901881721018315e-5 0.0
0.0036145069011896754 -5.998518101430902e-5 0.0
0.0010078864125661455 0.00015031659293161023 0.0
0.0016874862879911266 -1.4254609860777691e-6 0.0
0.003672707456543498 -3.1303711363580605e-5 0.0
2.525984545205044e-5 -3.0141991027780857e-5 0.0
8.955335280227943e-5 -6.893190405199664e-5 0.0
0.0010600906354446466 -0.00011795843249818723 0.0
0.0022470618962536523 -0.00036054951159612 0.0
0.0025570884999846534 8.766449532251078e-5 0.0
0.0028496782060430667 -0.0005587299064478873 0.0
0.003578215057951167 -5.898345095302077e-5 0.0
0.00027232089486202665 -0.0001630487457367487 0.0
0.0007713610378121999 1.8433037358922306e-5 0.0
0.0022779645624980277 -0.0007224365581310113 0.0
0.0032130620908441634 -0.00011282119006516866 0.0
0.000947539948191042 -0.00047610384170545817 0.0
0.00021005098018813528 3.861815858665104e-5 0.0
0.002276162347593999 -0.00016349594452598568 0.0
0.0011051202818251472 -4.0099568423999896e-5 0.0
0.0027039891381399 0.0001579495921104603 0.0
0.0017122317309035606 -0.00011312691921305965 0.0
0.0014127512732526968 -0.0003637498092995622 0.0
0.003262131735770761 7.343786871923879e-5 0.0
0.0033340763561570813 -0.0003179228928311384 0.0
0.0027402299821101335 -0.0006456129019129045 0.0
0.000833416334392814 -0.00023121449918823368 0.0
0.003403923601200886 -9.454406325098286e-5 0.0
0.0005661197410836188 -0.0002868328487964833 0.0
0.0034360062690195173 -4.4156635223673774e-5 0.0
0.003080456246860654 -0.00048275385492727935 0.0
0.0022010039552449014 8.56149614978479e-5 0.0
0.0025461758910281474 -0.0007228024782249588 0.0
0.0026640740639692125 0.00014259446760375884 0.0
0.0016946095112576392 -0.00017608147430668122 0.0
0.0009490086927971762 -0.0006016497957115835 0.0
0.00131136959966724 0.0001950235132722722 0.0
8.676422046218014e-5 -3.895050595973429e-7 0.0
0.003533300508671742 -5.8838153489531043e-5 0.0
0.00037998719190474956 -0.0003489501096284082 0.0
0.0027114004232664086 9.490918348711162e-5 0.0
0.0006631495189111865 -0.0005223181890538669 0.0
0.0025440611362161397 -0.00034544011439413417 0.0
0.0007574587645129236 5.3926319652064846e-5 0.0
0.00032037516133780447 -0.0001759871660991442 0.0
0.000463774819295623 -0.00042927486032984144 0.0
0.0004177574881584962 -0.00029568757372029663 0.0
0.0011150390509333935 0.00024406080758315214 0.0
0.0028813823051745905 9.225264431671342e-6 0.0
4.6566073578180015e-5 -4.41258230473498e-5 0.0
0.0030812021165662552 -9.948202905239915e-5 0.0
0.0027841886692030323 0.00015925053200765003 0.0
0.0023026491226405027 -0.0003434735336242737 0.0
0.001714361962903777 -0.00013901557983117335 0.0
0.00097243855816236 -8.704594994439604e-5 0.0
0.001755103793968011 -0.0001911471590170534 0.0
0.0023297106761690067 -0.0006581307645521005 0.0
0.001130734748764726 -0.000317590711549755 0.0
0.0008453281660027283 -0.0006124525198053782 0.0
0.0031497122618158466 -0.0002693514970629109 0.0
0.0023953141542076535 0.00016494456809869202 0.0
0.00038249598989131595 8.087546503299729e-5 0.0
0.0010911781897838023 9.790795874727493e-5 0.0
0.002473907953984609 -0.0002598378214543563 0.0
0.002316083547331784 -0.0007856822038927957 0.0
0.001471628346167356 -0.0003127658974132432 0.0
0.0029383321442471313 -0.000559618681434275 0.0
0.0002255578937042942 -0.00022530746138538942 0.0
0.002567050393744861 -0.0006196668015197441 0.0
0.0012253793927415758 -1.1143041356548087e-5 0.0
0.0034655713463374264 -0.00021386190166044174 0.0
0.0011795186118934433 7.371335103799779e-5 0.0
0.0022610817456949804 -8.422839770701418e-5 0.0
0.0019379226961973336 -0.0003909728229819275 0.0
0.00169241640580476 1.545281862304468e-5 0.0
0.0020107168782342853 -5.587720635532082e-5 0.0
0.002235711404916288 -0.000797747642495609 0.0
0.0028740968192944552 -0.0005830537299887128 0.0
0.0009120675580527972 -0.0003538332493501512 0.0
0.002062673459550768 0.00010577076983479467 0.0
0.0020123253466391914 4.9051747241757926e-5 0.0
0.0028641381397323247 -0.0005191448212453855 0.0
0.0017020868905853713 -0.00016114882480730303 0.0
0.001638336597520586 8.339560131928099e-5 0.0
0.0009428044736706279 -0.0005709560238220691 0.0
0.0034425632885388066 -0.00021323866520904524 0.0
0.002413417968459424 -0.0007924321163631679 0.0
0.0016395710713968 -0.0007454754039748039 0.0
0.0035651207971600834 1.6188214911141287e-5 0.0
0.0016165128498868795 -0.0006610438732244929 0.0
0.0027149888527867984 0.00013096550579470452 0.0
0.0009764932207375612 -0.00017779937787986281 0.0
0.002403738281892773 6.766218889492838e-5 0.0
0.0007097971245355736 -1.0369493356782497e-5 0.0
0.001542398295644591 -7.372398176708345e-5 0.0
0.0010507939066055092 0.0003220819442223636 0.0
0.0036280471734196126 -3.7185871910384445e-5 0.0
0.002248009336008364 -0.0005973030043257048 0.0
SCALARS damage float 1
LOOKUP_TABLE damage
0.3709420505318416
0.12555225751568472
0.47496466506047735
0.14534907239961511
0.9691594753630959
0.9822203988441026
0.036010213115022616
0.5494799013334163
0.5434599676842196
0.5496977338573213
0.5753053502665042
0.5966562367586122
0.6254957657572795
0.653749788350396
0.6712276755302358
0.6846035912931222
0.6806815758144658
0.6741087668723748
0.659618003745898
0.639177156464908
0.6192970362810708
0.6067327313271378
0.5852480105422921
0.5621493788415921
0.5464821655886888
0.5253421225837857
0.49667733108891077
0.47030673491004726
0.43336339189898454
0.3954245084615779
0.34665247952996653
0.2893920632178618
0.10793170696291926
0.19703127135684995
0.21622928637211464
0.24546746328886143
0.26529275615244463
0.28007145869400485
0.2967393139667881
0.30861333985466227
0.32089266522298304
0.3330975469042644
0.3426914575964457
0.35365416916372816
0.3649653310528259
0.372606044047165
0.38018595339697014
0.3897864013120655
0.40052310967803395
0.413070158464714
0.42037891768401836
0.43003821427097766
0.4392927313512725
0.4523767789265027
0.45685013070364616
0.4720673699311285
0.478443236247422
0.4921262014809819
0.5011035408987098
0.5171236244863114
0.5212078844986398
0.5381989283885837
0.548722389921961
0.5634235720902289
0.5735719201080302
0.5878912849712461
0.5953713931792903
0.6068557468542444
0.6222447617788678
0.6378878347074276
0.6587899136876123
0.6732787767010625
0.6882903826270825
0.7133630756921323
0.7278332641594918
0.7469580694461068
0.7696357061389985
0.7822494575547742
0.8064671002181131
0.821779121756412
0.8399107973856326
0.860326049372487
0.8756647125168688
0.8815781389041548
0.9060195968597586
0.9156373164681519
0.9420318105944765
0.9426299893823027
0.9573893926693634
0.9576948792505855
0.9521111592286627
0.9410364777800718
0.9262428696042151
0.9082794901156188
0.891489959161062
0.868490683405665
0.8549612675793307
0.8355213021115914
0.8079854650940073
0.7892962432549528
0.770954339262493
0.7605003629447465
0.737913918676836
0.7318379281172148
0.7150175512158841
0.7012561289018108
0.6908062616101169
0.6711333963848789
0.6646439628771494
0.6523028399383449
0.640015294229121
0.6238002036729139
0.6244558753098784
0.6031435481383334
0.5967604077324608
0.5812382881294541
0.5707800639205131
0.561038878024375
0.5449749694255263
0.5335565205463668
0.5244621058519968
0.5101758729275141
0.49265993730313673
0.4741917470130718
0.46143897492795216
0.44388773182160485
0.42783622697524853
0.38723845158255993
0.35410932426172687
0.33838652622583065
0.21841175635512824
0.28746957166976156
0.3655668721692111
0.45045885623642345
0.49537710640049487
0.520046965558547
0.5373370236298535
0.5494343647879758
0.5575684644029272
0.5638119264530623
0.5733356494678538
0.5798758408377204
0.586250180556418
0.5924594434310302
0.5981960157499465
0.6002995067451758
0.5983943420683924
0.5927234019359
0.5878108093059864
0.5722045152100025
0.5661987974692878
0.5574215421258762
0.5506516570643493
0.5604561719073922
0.5781870463767709
0.6587082069642741
0.5434006559656509
0.8744517777602324
1.0056910491372268
0.9915583909716257
0.9865515360525221
0.9479863645515471
0.8280165447310526
0.7349386267801424
0.6312830291310956
0.5449726091183424
0.45660565237131645
0.39547796553949155
0.32176066680898796
0.24927662697070202
0.17808894669086187
0.14383752959143087
0.019017340743361276
0.07491640982030334
0.13656862286524893
0.2111396353996678
0.295533267709575
0.3986961478019634
0.5091841985698301
0.6399703351079974
0.7767317809777187
0.913777309427255
1.0082856282591208
0.996185395912149
1.0027814960632924
0.9555264871493179
0.842540027175041
0.5995413343543973
0.5306659885096251
0.7664765401349747
0.6211519036282279
0.8834405228478619
0.73503845120429
0.9441107246979188
0.8453024068054603
0.684511815908454
0.4667026507653317
0.628040370381241
0.4172231397824674
0.6359420703256816
0.5944145329922417
0.42106493042276527
0.43951194839430174
0.05144110784559712
0.25507011346814096
0.5671472659771666
0.37150840923808004
0.5726702080635137
0.5728983265750512
0.5776550077186405
0.6647173857292373
0.5159763873978721
0.3250911774402142
0.6673233297809444
0.5078231727070627
0.5163687304597493
0.5431633461047953
0.6774963128549358
0.7934480464569361
0.933815461643563
0.8861870657953393
0.8344622104950137
0.72010925960043
0.5844894440019701
0.4969185040471076
0.4629817288765168
0.2855400835070889
0.5477780801095712
0.6312142553170853
0.4970568902064286
0.4196903775519417
0.813334446699333
0.7643735820421877
0.5505465627414137
0.5608571121995827
0.6082572641481155
0.5898692494056648
0.3602625326418415
0.135703127590341
0.23042669870657526
0.3931097312971512
0.7910626818790009
0.9206459423912595
0.6458018702060009
0.5548387711202165
0.9505345777198944
0.6588706620276656
0.44682345512537647
0.6026826566077194
0.3964303245870018
0.34839772559269583
0.5395384272049635
0.7860718553236828
0.8097484992625383
0.41686068378305213
0.3348501815636114
0.9815721293451849
0.9624885740485368
0.4990327032562774
0.6056697260031522
0.18291308945191753
0.3283593363680648
0.9631605047489666
0.7800856076709958
0.6355167680395009
0.6461814818261743
0.7375870357069318
0.619137796782388
0.5776616619082978
0.5557631645950531
0.5340304896215813
0.5162123144582732
0.5269330588931389
0.5023963524689858
0.5103884476367583
0.49490221805094914
0.5036617342892162
0.5019283600584578
0.3539867750135912
0.14701592374950093
0.30609061063313775
0.1812165810391023
0.2963206597328878
0.22552439543245506
0.3009817334861435
0.25788976178352996
0.3109640437355955
0.27953182192560977
0.31656185454043917
0.3002437799162653
0.332024008463439
0.31541665546594594
0.3412602283760219
0.33040696025198546
0.35093806444802195
0.3402980043511936
0.35805411736956594
0.3511237818405528
0.3658597029834356
0.3619601525933983
0.37344506833326757
0.3714142050161266
0.38337645788076014
0.38277219192077744
0.39260074719601695
0.39104642790597516
0.4006471994175855
0.3981583510032574
0.408367376234117
0.4093954594048441
0.4178715392199236
0.4194697711509581
0.42672541191285496
0.42833607033859844
0.4356941807917959
0.43848518907063744
0.2454756937498667
0.4455613941565557
0.3376285922801975
0.405079234572605
0.44841562782385797
0.4558254801914645
0.45890396069751377
0.451587956201841
0.46217663468881554
0.46639723767566443
0.46338206494414913
0.4164540796610647
0.4744168244702543
0.4711773611552486
0.481814429381281
0.4547385724148014
0.4656376603952774
0.47852430665070445
0.45842318723358233
0.46928452555603833
0.49082899377603306
0.4879070206374639
0.4630632568990606
0.4737874408904079
0.5005426113590739
0.49803328257567886
0.4670011333001219
0.4771855630119531
0.511252858314501
0.5089122353790263
0.46973655232587036
0.4807529298357547
0.5225257301582298
0.5202858929454082
0.47256752458424156
0.4853822287770676
0.4762481277109701
0.46469181952515415
0.5249730100493716
0.5342907273348602
0.531489738550082
0.5169008409555927
0.3785042605292895
0.5291509266977525
0.5138692490615294
0.5264100070443297
0.48919238855433733
0.4809165207613479
0.49523615824407363
0.5464464251013995
0.4910741862604529
0.48217065265961245
0.36087741507750465
0.4918373476880088
0.4832980385237578
0.4924534179925719
0.4836834405559874
0.4749811034402914
0.4747087597708096
0.4684031528989064
0.4926030036178739
0.47100147675654364
0.46303727969829234
0.5023291546719982
0.5014432991079285
0.46510195107816493
0.4590340792108638
0.5135545658240255
0.5256721599845395
0.5110478603054646
0.5085987540438736
0.5140624518373076
0.5274441453378736
0.5402948821646391
0.5405737325816157
0.5579990705682204
0.5555017910175273
0.5734298964767222
0.568901211722909
0.5884451619013514
0.5541607282588942
0.5817370754899551
0.6037949787020044
0.5192816743778368
0.4618395291171435
0.4567012949641781
0.6104809876011804
0.6268331430374013
0.6176895575064925
0.6382610733163658
0.5165367360684066
0.6419807293666902
0.6302545669750016
0.5276384592520927
0.5252323667367004
0.5145413478542114
0.6552602223796038
0.6423859700719297
0.5375989238319164
0.5408913730281143
0.5219574016417396
0.5107291677559974
0.6645105244876583
0.6520845543316355
0.6254793223202841
0.6780920715122943
0.6331390226395643
0.6110869975661359
0.4598876866225747
0.4570458819954969
0.4513520288983257
0.45678328903611526
0.44671842631568653
0.45398306206286204
0.4424524958721679
0.5512771249096782
0.5543838246924285
0.5172047340447691
0.506350708004908
0.6579387489738149
0.4553303686146694
0.4421272034434441
0.5650783853098118
0.56840143989383
0.4830018550063882
0.6392230998980324
0.3798017558421413
0.7195813341225223
0.37376222071622617
0.516647747244961
0.4580263354167368
0.44399390880656875
0.5135917442103589
0.5032373780577469
0.5793121300351285
0.58372314035452
0.6635821516625271
0.4629140220652413
0.4638905707514451
0.46753353253494134
0.6413892662911606
0.4668355647927283
0.44895670573031904
0.5750698542266173
0.5083157698880263
0.4978139347170841
0.5037704400415967
0.5098908205315462
0.49666827171257233
0.5074991932363652
0.5948485906948981
0.598996249648959
0.45551625074109664
0.4743831391944605
0.46466896015400627
0.6666515029418868
0.6839687711594791
0.49765194111006084
0.48133323080661616
0.6470466959628002
0.6225229880138395
0.513507508282287
0.5200884819039472
0.6115967655351304
0.6152866604335827
0.6021299921392208
0.6187993113785507
0.6047275759526609
0.6216335552088443
0.6065960591057084
0.6231393037790524
0.6070129756364975
0.6234153127085715
0.6406392415009137
0.6410940629547573
0.659423048358644
0.6595633921742442
0.6789241845845905
0.6786659479531387
0.6066490885145269
0.6579309261995686
0.6768432777237097
0.6992056366094698
0.6971275718830781
0.4658302457609511
0.4655335677319513
0.5030366972704439
0.49298021439689527
0.6735617352649192
0.6933394026622356
0.7187562629605708
0.7144292682532511
0.4694126966178972
0.4670610975501631
0.4947524373404088
0.5096840691987683
0.4981379407325756
0.6701377756987565
0.6499987574876419
0.6292131383150467
0.4258330660081769
0.49431823165321065
0.7416935501045718
0.736540665209632
0.7085960710220306
0.7307771154397746
0.475574389431945
0.5184231172572904
0.5288068925725452
0.500199316188641
0.49742354333784605
0.4875771049639461
0.5058800599577346
0.7591424100533554
0.7535199047609574
0.7230954942724072
0.747200378558819
0.7159226082710967
0.7385676683104364
0.7708413661607152
0.7611375169304976
0.5263831118030936
0.47152622630733537
0.46740416404020624
0.6254558573054684
0.6738628634949132
0.6551326111767265
0.7903804633621573
0.783093616603794
0.5076072454108593
0.49297155962708905
0.4822810064891793
0.44639016872230547
0.49712462920158135
0.6435602034701261
0.5287527213573471
0.4892518593788395
0.6780412374449456
0.654336859368601
0.6247058840895078
0.535014126163899
0.6891511108377948
0.4781771544249544
0.49919096747092856
0.535730496514991
0.5241064874851945
0.7081658312254353
0.4853637677813039
0.4753573642764753
0.47337713094093875
0.4675714637936429
0.49728089426140487
0.8119868354293267
0.7995885730795704
0.47261597400817884
0.46655955270900284
0.8204495196883754
0.6381757171593281
0.4679846963765867
0.45954637361949335
0.5910125035392478
0.6252119765759192
0.5975209848780393
0.6544388296160969
0.8271329739452863
0.8139464679517766
0.6869573552504638
0.6795366941549561
0.6570366526682474
0.7876659924172517
0.799383348687277
0.47594020459288966
0.4672309151807754
0.822295182860207
0.8062494684700653
0.4600984613884087
0.45164990383660636
0.5585254651779413
0.5509641588127125
0.45206099550245105
0.44465558264961696
0.44240692912522744
0.4356126253195068
0.6246031151466638
0.6519649858170768
0.5115439845417378
0.5288067171777875
0.4848476196134194
0.6515316638800686
0.8257567358943861
0.8097535260652355
0.5111729306185814
0.7740363667975593
0.6776762229930525
0.43880982331394935
0.4305946613602264
0.42718198015998043
0.42128136760324064
0.4260138674752649
0.41709250198554865
0.42437244314324996
0.41569006132045627
0.42733220492795954
0.41827305422309624
0.4332463123651808
0.4058626901107233
0.4125624720828905
0.47688439752337763
0.48791482770971445
0.39057512466693395
0.39899330734895627
0.4956739353641814
0.4601908728888724
0.65979996461293
0.6530754270781751
0.46471921468670835
0.6707848240408909
0.6753243408786046
0.6720225776987585
0.6461383046449979
0.6238415906799389
0.6446602854300404
0.6592860440731656
0.5125603996963805
0.5435192820772404
0.6324784038753701
0.6445412827094651
0.6267521453478102
0.41633356824991186
0.5806488277339934
0.5812692161286942
0.47074604203317644
0.826070766242008
0.8102571608938807
0.795055081013675
0.796866683778037
0.49879436780765496
0.5186362311429296
0.5573100020664986
0.839717802346751
0.5016628307546658
0.8082925328702487
0.7955685251847311
0.7814363600943424
0.7817112961288035
0.7672237902685348
0.7683001865409044
0.778687127537736
0.7658739593916402
0.3810218988483936
0.38510205359565836
0.4108186751323449
0.6884960585156342
0.6960271691828575
0.6373175379976532
0.61981172753336
0.6443628731665919
0.6325400263468879
0.5147633504934408
0.519777363238069
0.544690324854224
0.5372195512805342
0.3774327793191441
0.5120934529568086
0.48328720915899664
0.6524740889211583
0.4371599205255285
0.49676916840085766
0.7723984974758037
0.7610669892896108
0.5106250412254432
0.5028006264620564
0.4921634377650012
0.46281220299706044
0.49060856466486225
0.5038304259454318
0.42329019110772226
0.8038931762664513
0.5504951341271571
0.744983978460152
0.5465283298789646
0.3663475738917051
0.37332860261682066
0.4699772470167198
0.6647523932784385
0.6390387301449317
0.6549437394096258
0.5161438961801839
0.5108170602264063
0.5217441715334334
0.5189974608364126
0.511193873768733
0.5185697572896427
0.527354625089553
0.5251642514896916
0.5362709524053977
0.5380670995719573
0.5454812006944303
0.5466121768452779
0.5556467735664402
0.5543519409156613
0.5542412108354954
0.5611497589576
0.5623523411098529
0.5146261346642175
0.4646960352799787
0.46171573517020914
0.4716184547614448
0.5689666943737028
0.5675654549537343
0.5677694562335956
0.7694340514478782
0.7715720408734378
0.7966132850957308
0.7978413679640491
0.8227990003954314
0.8228510117514496
0.7969917836178628
0.820287179361888
0.793458171695344
0.12502594666473033
0.8482219231113799
0.8477768221942689
0.47769153636757844
0.5913049210913918
0.5901333697274577
0.5757411789582477
0.5737410418332641
0.5603143657157186
0.5577826648558466
0.5708423556290998
0.5544535983483911
0.5678565031930963
0.5498666701273287
0.5629228545922805
0.5384487354818059
0.5451100602645447
0.5479209112055242
0.5807954515437214
0.576089372300598
0.46319846873271325
0.42111110067471486
0.29319822085301533
0.6691718627780775
0.5905968953140542
0.5856135475190405
0.3672492573407944
0.3933153238679182
0.7642078751927431
0.5425098748611538
0.6285224042067382
0.6183410398172527
0.43469097284177577
0.6297978013991978
0.6125350826746545
0.3593251442292626
0.8138240097501798
0.7862857840504929
0.6027778159810528
0.596725236821628
0.5867129455147239
0.5817650871911066
0.5908824565270385
0.576122557207987
0.5858096475842223
0.5706015851655122
0.41405531495835596
0.5648696759965559
0.613232069279324
0.6195574062629029
0.5005924855616538
0.48994352501987676
0.557484391246823
0.5417859984993498
0.7094529463789265
0.715441186168135
0.835469290530976
0.43313335295918903
0.49593938961042877
0.5745162523002373
0.6306507959255528
0.7495165146324019
0.6075149510968444
0.7530726624575943
0.7481013645596123
0.7516056861802884
0.7391739716801933
0.4473420187292634
0.4229508141330599
0.5456296244494474
0.5402488533793075
0.6823891716373001
0.4738062393964598
0.48213011527528415
0.8489506566707986
0.5722243598194193
0.6341704990326512
0.640732260989765
0.6073528056024097
0.5982947150759041
0.6017789748982104
0.46528616502968784
0.3491783362488983
0.35893357357645594
0.3894091449692929
0.5383008390655063
0.5425510186455715
0.5382760630818241
0.5579133355446375
0.5709424497456921
0.5706923872826868
0.6222965122596283
0.5206209157168324
0.55819958932936
0.5525379004162829
0.5277400066419335
0.5366139179362982
0.5355939049848163
0.7651743182167142
0.5623452177510261
0.5560359260934129
0.5644689356768918
0.5507187003169519
0.7377810285927981
0.7307385112188433
0.7288190904114024
0.7183697855660418
0.6208552402449459
0.6142799914196141
0.872466519577573
0.8705260436285193
0.5331791666470101
0.5362623983264462
0.6987444620907777
0.5570021077788438
0.5436240922107975
0.6674993097624076
0.6621485048808523
0.6773774271539289
0.6669673613102853
0.7314483342142125
0.34592287942416494
0.43960532280607345
0.44767474910966676
0.5108633951581405
0.5256053324474865
0.5148416114623967
0.541503801907396
0.5295689885229442
0.5573724805131649
0.5455955827625901
0.6428432378171239
0.5425606857363998
0.744249147033
0.8535556828593259
0.8629681985638276
0.8664031082576564
0.8066721116097891
0.5964619475986415
0.711219358189225
0.5841979239731636
0.5723245142850281
0.4618894175474201
0.6024904603405762
0.6512666504840481
0.6456566225675392
0.8409909728236131
0.7797553746771276
0.46482560319862487
0.5667532264291122
0.5695862499613729
0.5681886047349053
0.5666015364182758
0.6873263735269148
0.7830063466098316
0.6164186109895651
0.6370830493005217
0.5012937040871586
0.6574044346517781
0.7600033503091734
0.7470144454058562
0.5900436134065632
0.5997964748864245
0.4845132260147198
0.49371350772167794
0.574317375585505
0.5629140336415104
0.5331371050384791
0.5500351503403766
0.5793031026148153
0.5663340556395696
0.5932162440943742
0.5802890839360028
0.6036254229030386
0.3335767624312764
0.6231313018143758
0.3452242576909765
0.46487986291814926
0.5599458134713879
0.6051263139168362
0.565048613812315
0.6431207991833426
0.589383501179062
0.4119411062065451
0.4037485823031037
0.5718161959658612
0.8429519691444165
0.6390272838369743
0.7010307107335008
0.5685752675181496
0.5493951446800509
0.5373755685929476
0.5499079479501747
0.4164047320813406
0.5388131527043476
0.4943419572269499
0.8937805795551388
0.8909238342039022
0.868166801509373
0.8878628530792408
0.7600125527149397
0.7338646136997525
0.551985693642349
0.5590139212768558
0.6541827014162713
0.6826828065924285
0.45453039248257243
0.5498752160552021
0.5368033699446075
0.4785941259516522
0.7202942661703701
0.6059246434390257
0.5308898041056044
0.9084707437677234
0.9040428659953398
0.6030997633922194
0.6072296069907883
0.5865338157900761
0.46111605579286014
0.44359548315475156
0.3151951875124923
0.8622421563624597
0.5618629656844392
0.7992731033052368
0.4676511438756132
0.47323322521295047
0.41941083190425366
0.7098744903999534
0.4711727153467747
0.4644154392713331
0.4703936636717807
0.464431536409998
0.4688897404303656
0.45900985344386813
0.8768682537360059
0.8786329787480506
0.5639945361727662
0.8261671409956948
0.6981785029147154
0.6953935296379674
0.49487142204245727
0.5186688242008763
0.4972737508538074
0.5983229603595277
0.5820066287333884
0.5222065626091611
0.5042972139671984
0.5017985947359073
0.5065268739426463
0.48643857843776334
0.5367940522368876
0.6149453444659186
0.6470965331119776
0.5863374718759893
0.8930326378204024
0.6329732869316368
0.5598064341993463
0.5440903748716974
0.42863334078042187
0.5407783620475051
0.5973551296221945
0.5935017690015133
0.45220415672463626
0.4006607701884133
0.39239268379557857
0.39723047055583116
0.4567724286912752
0.32843538066332906
0.3674145438375206
0.9209869780979058
0.9116950756524137
0.8926295975924928
0.725734636453806
0.7271491271525531
0.6974522177438293
0.46001905137638555
0.4559073370395393
0.6094428264489035
0.56938029792208
0.5670226672268686
0.5551398026524624
0.5448594713935782
0.3120498835261411
0.47832902653865245
0.46129283288073136
0.45212367903690925
0.43495150931287824
0.4340153781776538
0.4407734460027375
0.6292049243006994
0.5227499493617382
0.5189828954207181
0.38966413263833827
0.3807158473687175
0.5061437088371048
0.5110009095029635
0.5221010326306683
0.5245254181978712
0.5176562584682096
0.7746823130376
0.7567040017704714
0.7930106968493922
0.5369631588547854
0.49015202209087155
0.5086501813287493
0.6260905527366288
0.8888087035428084
0.5678609539183955
0.6922166919837467
0.45099894401814505
0.4343873097021352
0.4489375787276456
0.4386696589718522
0.45136803790139535
0.44552181346214653
0.4577989466118236
0.454154166868199
0.4662052333418338
0.4261456880910112
0.4432350576081174
0.8672727890986798
0.5430582031681298
0.577273812004697
0.5636965644463361
0.6136721110615682
0.5296466038341541
0.4174930988942826
0.5844374680799451
0.5544125280000715
0.37091156250459056
0.39397458732351615
0.5262419595862345
0.5840407456399576
0.5867874637538353
0.550337876633698
0.5375002819359707
0.4327118989004387
0.2941618178459984
0.5283956834320702
0.5079198297452624
0.3117524444267281
0.7207436127044929
0.7074580259284381
0.7198471638700533
0.694722095861825
0.45277197388464624
0.5727458498689626
0.4317807059322978
0.5925544772715138
0.5725065972685228
0.5115308681524645
0.5012626083296902
0.6503946875280164
0.7820750114544668
0.7701559710522738
0.7797426555649872
0.7639781218160402
0.7700262490978763
0.7888202889989722
0.8162454221504992
0.8656951278956049
0.5410644929064969
0.7466278452877898
0.5511343515895212
0.507622618578728
0.5047253254596393
0.7573613890621796
0.7471884624741357
0.7423238729044987
0.6593558841357421
0.6740324124209689
0.6925501194802745
0.7115113587392049
0.5310605968687104
0.6717869330607478
0.841719551306752
0.7149403849049838
0.6958347571753215
0.6824860083622571
0.6991743716972311
0.5084510502630102
0.6006535011189698
0.5934077562511338
0.608170900354163
0.6022497901726747
0.7071930823622007
0.46621431122994933
0.446961172280312
0.565462274364974
0.5918497238166812
0.6080555026632979
0.8910624636076838
0.8983142346234625
0.6340271338788235
0.5362286232956477
0.4467774354051068
0.6930496888642966
0.6798664886925616
0.5506183718236213
0.528666857227119
0.6803094100601943
0.7310952961383589
0.7354586339765201
0.6686612202511347
0.6901347993981878
0.6126944804036591
0.9268034864361997
0.5533060923038062
0.5767518145394864
0.6067677200341295
0.6628867124117269
0.9120314007505259
0.5132942386631054
0.5583569475035804
0.4581596153529587
0.5336472355227251
0.7627218900355701
0.46269600052529236
0.6642736489729331
0.7937058051178268
0.7782495445550711
0.7989383864823936
0.7515703470776206
0.5875058619318585
0.5043549276266557
0.7078047761350652
0.5602398965501422
0.5489249180409627
0.5445416883875989
0.5180078037817274
0.49825231504905243
0.5108466011220026
0.6199999180472436
0.6033010969249769
0.703187164049144
0.4452537397336768
0.45237132505948974
0.44877121040134244
0.7093357081999695
0.6478597680206951
0.6217116300455279
0.5731147658078259
0.5624496690812413
0.5984625932362467
0.601737753304607
0.6094795545669138
0.5710018427677909
0.5639101030302003
0.5624944129954869
0.5503531420151992
0.5605997730720459
0.548717229288899
0.6823239539979872
0.5461270892656538
0.5580746270567001
0.9251063760842407
0.6246067620876291
0.6041036764034385
0.5962691963021987
0.5881257756650803
0.6007793321119818
0.5901270792197878
0.5902721934746473
0.4742439742596239
0.47289958883043953
0.46767280794487054
0.4708576441226318
0.4766960507897077
0.4724930469892925
0.47925960100656106
0.544768489097025
0.47571995480874457
0.4817737762374836
0.6097800933286522
0.4894151171419863
0.48684974906137013
0.46725356493288683
0.7145454999911268
0.7275731344488391
0.7743821854721741
0.7915292562932182
0.6371840612268824
0.44619549466242786
0.42210997100980935
0.35887372499784465
0.3918627872408708
0.42018420552068797
0.36637819105271197
0.3830878118273972
0.319500234308296
0.34609620044227324
0.29705131051714856
0.3332303280103281
0.3038176051893132
0.3327133950158535
0.3161952939700025
0.33804662171202593
0.33216259319288416
0.34828696510204415
0.3461542721726006
0.36073165593907736
0.3614233848292018
0.37398660260980476
0.37643125439297576
0.38760425517310615
0.3906680080829922
0.40088465134614026
0.397712053285395
0.41021225095260955
0.40631181290812696
0.3645524936364994
0.38126352211305076
0.350883385938478
0.40241867945765625
0.31333530463746034
0.40826521312818265
0.4193115465296201
0.42286011855695893
0.4308455215186098
0.35685835275125
0.2737611948398276
0.3968256177100629
0.2867285273955663
0.43519488872260237
0.44212198911543465
0.43776018801043537
0.4084024441526671
0.4004753188342925
0.42783834571867824
0.44060143227827153
0.434258047659706
0.3330991383274648
0.26951009842891166
0.4481158350240584
0.4446015691258082
0.43558990966580086
0.4422800877713515
0.9100497543329911
0.8890245016200544
0.5556575188195745
0.8334922256029659
0.8576701786304731
0.5689156387212638
0.5825726724329062
0.4971672264023561
0.5948583035577826
0.4529745582403488
0.5233368552856339
0.5200304520367705
0.5248081400904633
0.5729240061644731
0.4600478128669529
0.562764780900148
0.5624967348429721
0.45406077138933043
0.42709281682436434
0.46125466049966996
0.41631498540344386
0.4927171899477367
0.4695221951255871
0.47789473207618943
0.47453749999414446
0.5073531959891469
0.5171359782151065
0.5037315946419085
0.513179766992607
0.4994720478922596
0.5092079897607931
0.495656821812279
0.5049359536109493
0.5190191604926169
0.5130641612369642
0.567814440874212
0.5547813059520669
0.5584120179428551
0.542471057180192
0.46317442145611265
0.3782272640998055
0.3702599214294361
0.37238422871422
0.3615977416871229
0.6140978837223493
0.6030746200678283
0.6251139761707817
0.4882761841638196
0.4431640934059976
0.4344181212821893
0.6850898664133283
0.573076482749333
0.545762848024831
0.5339648217496435
0.5396392327755812
0.5184503289285423
0.4896311266068789
0.49632016259033235
0.466720377766915
0.46989319724966244
0.50757474229209
0.6174529040914462
0.4702827678140681
0.40045419459112747
0.4461828173463951
0.5571181285256344
0.5800956376276463
0.7180511111001596
0.7193682601692761
0.7011219755956819
0.639930057516634
0.6391018629158886
0.5094325299858046
0.2683266681921736
0.2683863123406376
0.46351236422844394
0.6382715921489392
0.667054789646854
0.7255835322374807
0.7417420572146215
0.614869262299594
0.662238206627699
0.6749475333166803
0.6801592248958581
0.6626619499668311
0.6648837009252796
0.5698597090054668
0.581378260005107
0.5875758167847608
0.5787575649175981
0.45760801734938494
0.5810097487934955
0.5797382939326174
0.8330900962307711
0.3575574790740003
0.34696939467428206
0.3556598273863048
0.3410075452934374
0.5328206320854297
0.5631130866918473
0.5698070626210449
0.6823441084290135
0.5126860012621749
0.6556513065263606
0.6387382733218899
0.63172936113058
0.6118303278875767
0.6109420064557038
0.6274231746823347
0.6040690898136583
0.8091592557264493
0.8040672861301106
0.775896242615607
0.4578145632918377
0.4714599247312701
0.4411854742973616
0.4421445978676754
0.6093758264645363
0.5942253640690025
0.5029557592596736
0.6111851957792156
0.5481604190703128
0.5318298373027013
0.5307599989144329
0.5450084212082035
0.6986567973171325
0.4380552322322501
0.436968224902726
0.7303958256642693
0.8532135833922965
0.4716157104709289
0.45967186577748803
0.49303127952356396
0.7279681221173494
0.7008853683382161
0.7326009757683558
0.6012287028017327
0.7136124466817623
0.5367914539753244
0.4456609409363415
0.5648205468291729
0.5874768836795036
0.5934223392823745
0.4547868437221428
0.45355648056312015
0.7183214269220953
0.7094743261993575
0.28644033191446133
0.9159244628292906
0.9240832780783739
0.6784261357821288
0.6888927299962988
0.6819367371152861
0.7003401730178543
0.6943920524570987
0.3864399358333612
0.3928859663551701
0.49871457827366594
0.6208291272542384
0.5342145870736182
0.6837057922130558
0.7233131676592127
0.7293560312287858
0.3332685081641446
0.32418977008947
0.5621063911638287
0.44637643651706294
0.44187026185634043
0.6564831367545968
0.5551241991836376
0.5272386892273819
0.46328338674531955
0.8944558052770095
0.9101850536300343
0.4897130087516467
0.48436601591597683
0.6904701934904013
0.6850022553523087
0.4912504614844418
0.48272265332389636
0.23979005954573962
0.9380507996625765
0.48977414592870555
0.41544641457517034
0.4206100610580549
0.47922564754561664
0.4818196270122202
0.43983601419418483
0.4282597243299131
0.4342497155014433
0.42365504766649853
0.4295359693876038
0.418081791229087
0.4120891039997344
0.4061599205242108
0.39917898648905414
0.394612238338364
0.4261257266522437
0.6337841618670743
0.4888619594589558
0.501397614502609
0.3341774090957819
0.22610120037107678
0.21698832138683624
0.286431114890879
0.2663125283726121
0.2315066901628035
0.2017525750838967
0.19272825225798412
0.4621877887027786
0.4429958844494067
0.5545815853398146
0.5266463974446889
0.5247893299214913
0.7555184486880211
0.76961475434221
0.5158205779316927
0.5203125792763003
0.5096783823742941
0.4251069943413476
0.1656578340542211
0.401501943363854
0.38937628921585127
0.38174559035040023
0.3775183952479801
0.3685629569781659
0.5320204990809211
0.5446260137376132
0.2086496608529286
0.7291410710901192
0.6834106907386196
0.5915013565294864
0.4702006760082683
0.4146004502280304
0.39997880506473676
0.4816848847199693
0.5928970436308486
0.6769802900655258
0.6567722776343959
0.518646773114364
0.7087635583520013
0.7206438843148552
0.7331274164370614
0.7471150980861809
0.5290541628405563
0.5574504730417862
0.5343166341001974
0.5155633184691435
0.5277252373231835
0.5166304799802452
0.753481546954372
0.4512739330350625
0.35270981764373666
0.2929423925192454
0.2952181175539104
0.3158685291958697
0.30770964795064953
0.32619831060748894
0.2857874526394454
0.3366467933920717
0.34301954639457344
0.3035210228022251
0.6000808361102256
0.3511915815630583
0.5888465841268721
0.4530798855120794
0.7308928842922064
0.7360818705620831
0.2724094482610957
0.26117875430098453
0.5526709955371587
0.805196531793399
0.8110878360407149
0.8068783301670515
0.8201863441064067
0.8139679633434674
0.8322286519860232
0.5482772730497455
0.5555991596850004
0.5610064551788195
0.5591283586377022
0.5627105775936597
0.5557156435512659
0.562006831278269
0.5523613944671353
0.545914823487777
0.5683469214020851
0.5433757279967611
0.5715041099807445
0.5640032256169909
0.574420157417435
0.5532690821741261
0.5521091901030647
0.5797656710623588
0.5630154496211155
0.5734207160512639
0.39427615917187003
0.3494427743557339
0.4374426781644911
0.2909370753977638
0.2980535944413151
0.742921016097213
0.5690103854000785
0.4177006743156431
0.40290130812562375
0.40118590305149116
0.406536863644241
0.4212747692778767
0.41309502791945574
0.4202461171215965
0.4103294783322624
0.33025097427946226
0.5296007809781209
0.5302398323598279
0.550656797064462
0.5942908474168697
0.5680364060251842
0.5983716988273547
0.4912077743845478
0.363006892076442
0.36578404833021694
0.380022070690064
0.39095579192300595
0.4045976212634613
0.3666090609012845
0.643254353145076
0.4642663946078694
0.4632229540821046
0.23300150106274511
0.6372238825283244
0.8314570381480373
0.4772897486000546
0.4709559678231567
0.5527242158372234
0.5418950031429957
0.7857611810503732
0.5919480815562227
0.5757530047985188
0.5771775908989478
0.5692077679642222
0.5706984852108163
0.5605559196954422
0.5581048300428528
0.5657940662912145
0.55217587776856
0.5634708796556841
0.5570960720808235
0.5801260886007231
0.5490310724085593
0.6017668039152554
0.7527019421433165
0.48621289034997855
0.5318391382298432
0.4533616688064417
0.5316122209682974
0.4312599366247144
0.4117288822973391
0.425849973287184
0.40646514842564196
0.38697965845403476
0.38545962793069394
0.4013959577429687
0.44397929097198224
0.4851661366153728
0.42373167307546716
0.6406425263725906
0.5698347518127002
0.682114494085344
0.3895580421899712
0.7170377152566484
0.6239726613463846
0.6324919031090308
0.38555370680096096
0.48203769781562006
0.5137384885297537
0.507349209118425
0.5006202274093406
0.4827832874087735
0.37812228186966423
0.8861443465954749
0.7958637059433408
0.8976564526125922
0.31520221671446225
0.6344233548972236
0.6558543954351914
0.7284069228339825
0.807923024126044
0.46848121349935284
0.5106226360643898
0.6150078307226045
0.4102424170912624
0.4169709598893476
0.40976504608388453
0.4622201016127545
0.4334954514132108
0.4697331136554354
0.41413957271834606
0.42037151053391325
0.5825263319348755
0.5948534989635259
0.514914764969828
0.5367884939396191
0.413389061276194
0.6223929551492339
0.587634279945886
0.697969577281585
0.5187878324747937
0.3200886257641794
0.5757987240776036
0.3661871613193382
0.6795105928338658
0.5779055811938019
0.5316365917868224
0.5399624004421919
0.5261325479742539
0.5131794565339118
0.45703382552802174
0.40319693635085463
0.43741211615051184
0.48240351571251466
0.480375676845677
0.5547191594928664
0.9072623548474166
0.8836842821787734
0.8940742492045268
0.8756059499429847
0.8624010177788348
0.851953325894348
0.8652783110701853
0.7690195612065446
0.5189260037870257
0.48844715798152605
0.493862223072364
0.5740666171846079
0.6779907182403078
0.5288187420428883
0.5829302349973263
0.5840644829213519
0.5725845326286869
0.5722281554081188
0.6156020254166161
0.5247229437981217
0.4505925510003075
0.4264661922372983
0.5931292690128787
0.5781113483891428
0.45684383290206787
0.4970629784320255
0.48782059910926073
0.47647846858959736
0.4757444081237665
0.3934990374370226
0.18829603734821124
0.8798296528204904
0.8694184616064325
0.8549997836687201
0.8814534807807543
0.5453384017203006
0.7887294938331243
0.2940624045457378
0.3325428690543931
0.5224057857418212
0.5095390808769352
0.5241893768625508
0.46679181969770284
0.45526741616678706
0.40684350053672386
0.5101411242674607
0.6202345959395236
0.8979571647803564
0.43699644713851227
0.4328371597257396
0.6283830747538811
0.790131521075156
0.6520617109917346
0.6679429918060019
0.5932569427322016
0.4964053624380483
0.48762261634678955
0.4779788268522707
0.48010002014958275
0.4863437674805758
0.49347731347736606
0.46484125384309843
0.8598406861992791
0.8424596686020017
0.852231317738702
0.8666798616568102
0.8783949604854431
0.887240228658965
0.8516618588311081
0.8544403266604773
0.3871182840763387
0.47229122293515313
0.6919593621149773
0.9326144372380109
0.5527419870039448
0.9121757365829012
0.9290449741610016
0.7016114985094475
0.5685145451498202
0.554903080472042
0.5779931999888355
0.4515886294972283
0.5670378211874297
0.7374127935688902
0.521844090168534
0.5223578863944608
0.5333499246449727
0.5115073120965169
0.530919272395991
0.5235179622520293
0.5134440425174368
0.5016002633180388
0.5485800144583061
0.5414337364640408
0.5335297094429599
0.6762649012724724
0.6149574948599488
0.5370443019091917
0.47222576186944737
0.4342507528582664
0.5016286940101538
0.47693560708830457
0.47818427951353926
0.4864666963012004
0.8191284317531685
0.8448552957317609
0.8582655448607441
0.8342492050753502
0.7500829796003052
0.44730303723533366
0.6545413481132423
0.6060966494310164
0.8459233265353753
0.6509007866371956
0.5392558144189636
0.5341419757671444
0.45552774420848247
0.5916158269572036
0.6081141627019938
0.5593859823837959
0.6477689960931877
0.666201097009282
0.6734037656321089
0.6937216463140797
0.5303590976432316
0.6394684336991626
0.5318862721049602
0.46360591351922076
0.47411166963215895
0.4101090721866518
0.5310321313989615
0.8544364167335151
0.42096325230853227
0.7215571064397271
0.7224224398764031
0.7461501440478687
0.7210377388397536
0.7429948987412764
0.7719359790699136
0.5129085342850711
0.5762517194509292
0.5744484339857878
0.6303268623868673
0.5560849295185024
0.9286996659100428
0.6330796661348848
0.6995792945070443
0.7958974120838714
0.5305147221678871
0.5585629284130654
0.6374079244100271
0.4764573884972669
0.10371549510793264
0.8225252508585155
0.5176093327439343
0.5660585706163413
0.5732697742580772
0.5417968197550744
0.5480614851634387
0.5204943383642774
0.5301708881234105
0.7120432915789573
0.5275159480134326
0.5809076501841308
0.6230356232073563
0.5784193001843532
0.5963902395225871
0.6635510840008836
0.7701964780435656
0.4595960999838553
0.6137768633275644
0.5980512427704633
0.5771292745847527
0.543706035272557
0.6032209153434138
0.47141870420791865
0.5484969924219246
0.41596976589260726
0.4427526422181024
0.47549014570892145
0.6094559592796807
0.5883999786906495
0.5962286369516014
0.5876711280769825
0.7182029384441905
0.6736835201320388
0.4473463206418777
0.4307487974158957
0.5090679022254643
0.6228861716406187
0.4772933344311536
0.6005919856952212
0.8215732099699732
0.5614815485754372
0.48649845837030464
0.4992761714660165
0.5668046301127626
0.926380770238749
0.4422295368474955
0.5574160384723703
0.5640175964219445
0.584747714247501
0.8021023397097569
0.7778775499398147
0.7648910278567296
0.5421683555154718
0.9522003492279373
0.9178336923264526
0.7732109115264366
0.8314597591082952
0.8102484960823292
0.8394368450158017
0.6328365369183623
0.5427856672925164
0.9442436390138338
0.6639870000868243
0.49014923605918825
0.5753052901842577
0.7451354987785686
0.7690114639607297
0.544053406212061
0.611707935897729
0.7584860031180878
0.5112382630691523
0.45808101124494865
0.5628509720142589
0.5229033536003937
0.3610101813094763
0.5233599952696845
0.6550908216255981
0.3157484406283622
0.3080881895944536
0.6630461909792554
0.5930889291205216
0.6550076240153987
0.5268846859432302
0.8704367795089476
0.45050416634838036
0.4015981202092031
0.4507229025149789
0.5914251260806584
0.6578774377176565
0.5498099616163912
0.17098396710152264
0.8398425231483426
0.7845707296841195
0.5367000846198791
0.6999378283876221
0.5624164856227795
0.6837270370770624
0.7125829239583266
0.6754133229447866
0.4844418967028854
0.5482728882545764
0.9396279357182745
0.6531935781247677
0.6663986869735743
0.47055104905492834
0.8984279518732623
0.6202914132574416
0.5245886222791523
0.5632799561410183
0.4661986262385917
0.5406422088805063
0.41415420455770713
0.6278934103816901
0.5766290849339186
0.46328637869427375
0.7803920842428448
0.3905853124881152
0.38531499593594704
0.88225975170419
0.6883107316509861
0.8455573041192275
0.7939756739438174
0.556728856956738
0.2156957373387734
0.5578148919066681
0.6908425961192173
0.6871035454122516
0.3610464743007975
0.5676643715296517
0.6921865358256625
0.27276599357690706
0.7295916609350093
0.5332366151478498
0.4307856561443621
0.5038311715165986
0.32345343341306093
0.3507178536865252
0.521650383417202
0.5928047987311558
0.4257222552090665
0.6689824751436699
0.5537014332784475
0.6987726213585597
0.6709552685176766
0.5369741667556419
0.771374422234978
0.7524452637275647
0.47024749366786056
0.4355390076369942
0.37235957686597776
0.4663469157646472
0.3940703537001635
0.7016115316382173
0.790814238504845
0.21042209603371093
0.24645490121084437
0.27063868293581306
0.48086050171054806
0.2982475330915002
0.5347099860786241
0.5889406943249156
0.6143748871154746
0.4048297579225811
0.42752587534915076
0.5032673172083154
0.526279690072301
0.503137830267406
0.6652818467763951
0.5452473663238803
0.593514538875494
0.5774927498478225
0.38453021778241553
0.33838534776524776
0.5569288562258582
0.5736290899724497
0.933482429385472
0.35873946559279885
0.7409111131462195
0.453048575146092
0.7204336631259921
0.5562964972665548
0.7618340100981478
0.5555774473965374
0.5002757030495188
0.4587601016175876
0.6094703522265504
0.6401889845900421
0.6160234265355358
0.859016146025256
0.4337000401325343
0.36170820243342333
0.6327340451402386
0.7547481532634286
0.46931024056918175
0.6444823256782972
0.5072387124577851
0.7025667682536181
0.5468880057354014
0.5679567228338276
0.3738525236870858
0.5846695685315886
0.08903587028769283
0.4533077985941499
0.5732243415245658
0.49399757626385493
0.4658978424864129
0.6690437210578989
0.7410626788201389
0.47868068890010934
0.4065831881527335
0.7529071805248034
0.42812908205201466
0.5963937209031593
0.49859466456007023
0.5682282818591213
0.3646478679645763
0.41329055038504703
0.5442757086910857
0.5494422617726944
0.5338852099850517
0.3782206497365463
0.40430005829167037
0.6734431148152706
0.7209014134410935
0.46924818011582103
0.45846157361115697
0.3854559740521971
0.7699409629779331
0.5073310927424723
0.4826747328055622
0.5292210804519596
0.4234250225952022
0.5766453847261755
0.6546637586056384
0.6208309875031128
0.5923857788049649
0.617063657363225
0.5516128869338559
0.6218538415949594
0.501182281566156
0.35736833460518824
0.46595047576942866
0.45124583744506874
0.5135815663789682
0.4347806518750712
0.8095988067614651
0.4896283585657198
0.5479860147396421
0.7331319246498256
0.6184198988079694
0.41804382577806104
0.5216514628314828
0.48569210767746157
0.602423964608462
0.4716090571183049
0.4754730083880503
0.19134725597369706
0.5830708686312329
0.6905762294960135
0.46365553015812233
0.5988968646384754
0.5051847613978994
0.656644239170474
0.43749870445257094
0.5341706522768636
0.46585301155416053
0.664022380611521
0.6358713679683359
0.6227436971806847
0.4459741189391951
0.6037976375381142
0.4894144178132611
0.5852987035809147
0.3670877579256687
0.6494181413475754
0.818202273611518
0.49661249580199335
0.560172441570306
0.62599147872186
0.4428920918676861
0.4216436576044694
0.8190900592099952
0.44591718414723647
0.6113529569874556
0.4352359325389342
0.5752953795716286
0.4919051837890284
0.3491401290278266
0.6507746108131863
0.239161362043623
0.44223995858509335
0.6861136472291541
0.6414639603288539
0.5908276036749315
0.48395698905408724
0.4970583851722093
0.5889229594674554
0.3582191717889296
0.5707438903995312
0.5394056759591903
0.594977898182676
0.6081461083465156
0.4782009488867249
0.3139422611118277
0.7146307169211754
0.7416226575291334
0.39833498934488365
0.5546764815310256
0.5410067243816206
0.27997737006627166
0.40770498686653406
0.25707069981919795
0.3480554255087222
0.5486396255810134
0.5698100438822078
0.5386313228167189
0.8372535964551773
0.441238322288006
0.905299096659854
0.48139494642529007
0.5920857590227504
0.5868999666227308
0.41303178768157445
0.32292400414468136
0.33899641965165117
0.515432976593716
0.6815868370644187
0.6185811204741137
0.5855665986238816
0.5690531765636622
0.5740588705860783
0.571271270895541
0.719115748542521
0.34678639495638275
0.38729806067850275
0.5466769543678022
0.38479803845295957
0.476659332760833
0.6476170685553047
0.6265800376195856
0.42508408740880826
0.597619772805353
0.5584918843526512
0.5391521912817667
0.5315852453944262
0.5519234908660073
0.524394219543536
0.8335205757929545
0.5372721100387313
0.37771285240614133
0.48497801244214594
0.4550196141875677
0.41640555342405927
0.5449875447149635
0.5979822080599283
0.47482342419717416
0.56245256372695
0.48763797435835543
0.7763278781464319
0.7041770963768369
0.373460392617873
0.5163350791562393
0.5022162901484195
0.43511842976839255
0.6978367096087236
0.4752714879535316
0.5131829520507318
0.6375184588873963
0.35569242134573237
0.6965567825465493
0.7114354132398086
0.49112310430434364
0.7823331032035579
0.4600652564337408
0.6994776594453651
0.5719447191498848
0.6238067448258374
0.48249388174544633
0.19302149859114034
0.37464398862723003
0.6838678279456969
0.44137074972755574
0.35311351542362757
0.5226425492397838
0.5298739817161227
0.4606322674494688
0.8126386232260159
0.7548264755541219
0.509589923456405
0.7434082519721429
0.4371004381029465
0.489186374898445
0.5808988085597704
0.8132890795386716
0.5598399299642048
0.5715461585333877
0.5312947182239416
0.46332694492287335
0.8574501543874649
0.5548483389799052
0.5573431490203253
0.46785687647487717
0.49504875198166465
0.5336067428449236
0.5866300305393178
0.63456550137596
0.34415083104742833
0.5847908421245612
0.687412667230268
0.7320176690860397
0.5847379317181424
0.8454067787295816
0.6683779920047169
0.4788182395047056
0.4755093781124765
0.4397057750415399
0.4771302517851129
0.24374056612813175
0.5205145102197353
0.5009629128826041
0.3613664850464088
0.24990791476131605
0.4335677809991896
0.42764425798513955
0.4965500448593447
0.45186097936605163
0.6531170442979926
0.8046822239191613
0.4803113745429185
0.3319491266278809
0.40817119787764944
0.24651718468408385
0.5733909840220102
0.3733426812894758
0.4745932079351622
0.650013287156234
0.4434430778562955
0.5832311404009419
0.7349003171655092
0.57950023358604
0.6215784905986619
0.8700084898568828
0.6854944179635365
0.7031110100406368
0.5705505934568439
0.6032336854789412
0.5454033589475936
0.5841166161010137
0.4441219275686848
0.7069746487177921
0.46255798756849537
0.40096406628147735
0.550746768861717
0.4688387225377181
0.6776592697100994
0.9794698442812592
0.986105395103211
0.6039239852984238
0.3154166505431702
0.5885987329191705
0.8739608574143325
0.8656304531576675
0.4982483509692889
0.480091819185048
0.46389978343621063
0.4765491008453672
0.4975519632517791
0.5447416328820619
0.4283392609138874
0.38029482114938384
0.397314940897997
0.6159408601127347
0.5904950376643501
0.41709966581585434
0.4988423407386509
0.3932335136308407
0.7560735265004098
0.387832186404351
0.5741324643473733
0.5548062904280266
0.5479129745997164
0.6082342263502223
0.4489582645787029
0.4627645561565043
0.2789300682389186
0.44976947010376717
0.5570340554730994
0.9005396948286751
0.5659098612123671
0.5389803923148794
0.38300548418822694
0.5387024835116884
0.3581819293397291
0.5219006587671526
0.5099211642514626
0.6933704621094755
0.4613593514009292
0.40056498149056946
0.630629611531479
0.44020071430526236
0.4607172839847751
0.38564771115966007
0.320154194420308
0.7304302430539877
0.40272425357238756
0.5604929423037882
0.6096183067409164
0.750763145722027
0.5457906920873089
0.48082727153370175
0.5022424077455061
0.9397060959852878
0.6390036813522689
0.7165349092835358
0.4744145150472956
0.7473439986572241
0.49229968014281644
0.44544009787820144
0.37981882574949527
0.7343807113373962
0.5554005038935932
0.5419421375398018
0.850821233165112
0.5565417793589128
0.5572334408584634
0.9389431389783709
0.7107207295959403
0.42474925485703785
0.5756304243506274
0.776045189320172
0.752414376282324
0.8356165117575052
0.398125086053225
0.6600317052346928
0.3896419987887185
0.46882773344253015
0.5559773902871472
0.5724609834559368
0.34548254620880275
0.5074132829020008
0.6028292526902043
0.5608174879327736
0.4566335836178618
0.7886600115647656
0.5657445116443267
0.44129391652874245
0.5723356623076088
0.5926025119628677
0.6677988820937572
0.512894844523171
0.47011168109744805
0.4367400637866617
0.7015148156490685
0.5472340891037263
0.4551933413579577
0.5059751152416936
0.6354073775033202
0.5822517565128107
0.45388101014248755
0.4909265613452841
0.5757442074067121
0.5167205649913389
0.5274980844783539
0.5198036892045775
0.44931287045430446
0.4587321834170541
0.7097116143985958
0.9131313095798094
0.5908213265996128
0.6247647846669832
0.6160563381941924
0.5341436327423859
0.9408095172862502
0.6675994472254226
0.5565765202888084
0.5514279588007274
0.5084251913406722
0.5478037926890548
0.5418809518810196
0.5010416842958705
0.46968260227049796
0.5195607464003053
0.4844321285555084
0.5450910075153688
0.8269380145976822
0.5269183950444943
0.4254972562695172
0.5464367077807155
0.7554676984251756
0.4990151036198866
0.5548716465471227
0.5733412158470934
0.26293328195229554
0.5239674620164835
0.49003114795274916
0.2527988962337779
0.23515907829427296
0.1561041996834032
0.39634680557021007
0.43087293112543174
0.5942130514721384
0.5674556843170028
0.7209361425229787
0.5492507448441283
0.4140630610224678
0.5011607728777906
0.9030022366716807
0.5784401875830584
0.5096483073172623
0.6086509893195122
0.4730703607184486
0.40517847299987003
0.6418949167787311
0.3766700895688422
0.5269319455029505
0.5035100224587122
0.5370091694714654
0.7361260493158293
0.4674711043983265
0.570420344569656
0.44320279593204315
0.5667729232704568
0.6217388138339255
0.695508184676953
0.8040199668086148
0.7521021433021062
0.42037615206892853
0.524169720104176
0.31986111491938535
0.6668409446866567
0.5582174418818653
0.35280729092221264
0.5279440927661412
0.4399279153832176
0.6452327774420791
0.526881042829028
0.4258111372628491
0.37702312145599715
0.3933705440094404
0.6849497224379264
0.5450691910512016
0.32788410551073127
0.5691041983896037
0.9389706713420569
0.5875664946619021
0.392993750650656
0.4351436411859338
0.4325661351672297
0.8775648036753703
0.4953540720324896
0.4935403159365015
0.6981222053591479
0.6168717962901605
0.5776852228862368
0.4686371576897417
0.5550744587314556
0.9017527302731607
0.5000633514121853
0.67115110732503
0.29247543855184926
0.8250467991763697
0.36720662134128634
0.4823448381576266
0.4154018177490667
0.46777220252106355
0.5806882729977698
0.22459749889046374
0.4035123267493375
0.9253398596317994
0.6960484178130789
0.48773070504545735
0.687729085915021
0.46912010481451666
0.733939076661453
0.4113536831545631
0.1345877508260235
0.5215491408930145
0.5341709907417038
0.8494090652080503
0.7526299633500297
0.5562698001131753
0.7030176205838596
0.931764337087222
0.4538714154345553
0.6364127283405536
0.4987541287975472
0.34165839312313023
0.9251327023344712
0.546143714880334
0.8324709920599629
CELL_DATA 4886
TENSORS stress float
-1.0644695229313167e7 7.139295754601388e6 0.0
7.139295754601388e6 3.319588382744773e7 0.0
0.0 0.0 0.0

-2.0149300628025267e7 1.156352689507557e7 0.0
1.156352689507557e7 8.662782969775446e6 0.0
0.0 0.0 0.0

-9.02179024481015e6 2.296140468422933e7 0.0
2.296140468422933e7 -7.589136520986881e6 0.0
0.0 0.0 0.0

-3.7439578687730106e6 2.1771271742497783e7 0.0
2.1771271742497783e7 1.2966188249623265e7 0.0
0.0 0.0 0.0

-2.130608202477505e6 2.5003802328015395e7 0.0
2.5003802328015395e7 -1.1872913514418346e6 0.0
0.0 0.0 0.0

1.6908337862663637e6 2.8573576979477233e6 0.0
2.8573576979477233e6 -4.41227357126191e6 0.0
0.0 0.0 0.0

5.505851433744714e7 2.6276454682525426e7 0.0
2.6276454682525426e7 1.4035167767287577e7 0.0
0.0 0.0 0.0

2.908285353902513e6 3.063767026728554e6 0.0
3.063767026728554e6 -4.4007596756687194e7 0.0
0.0 0.0 0.0

-1.0376124528095316e7 8.989166987557974e6 0.0
8.989166987557974e6 3.459314007184401e7 0.0
0.0 0.0 0.0

1.0316247395674074e6 1.9051068558667053e7 0.0
1.9051068558667053e7 2.0129263915953718e7 0.0
0.0 0.0 0.0

-1.0304369960777475e6 2.033717552638417e7 0.0
2.033717552638417e7 -7.775833903381087e6 0.0
0.0 0.0 0.0

-529858.7615732374 3.005567316592256e7 0.0
3.005567316592256e7 -978231.023062915 0.0
0.0 0.0 0.0

1.5630082569742966e6 9.274873476883592e6 0.0
9.274873476883592e6 -4.036920565244271e7 0.0
0.0 0.0 0.0

7.915079347789314e7 2.9308720118241537e7 0.0
2.9308720118241537e7 1.532254065264457e7 0.0
0.0 0.0 0.0

-801529.1012749199 2.095527305740253e7 0.0
2.095527305740253e7 -7.77051794580978e6 0.0
0.0 0.0 0.0

3.5194857845870648e6 4.0210303470696947e6 0.0
4.0210303470696947e6 -1.6204137254795112e7 0.0
0.0 0.0 0.0

-3.083875322540894e6 1.7189744582527414e7 0.0
1.7189744582527414e7 -2.1006000289445393e7 0.0
0.0 0.0 0.0

292412.7020925991 1.3816972763590526e7 0.0
1.3816972763590526e7 -2.801591631580709e7 0.0
0.0 0.0 0.0

-9.354988558534143e6 -2.4873563684081426e6 0.0
-2.4873563684081426e6 2.6422465810260575e7 0.0
0.0 0.0 0.0

-437731.5544229108 2.344018035056238e7 0.0
2.344018035056238e7 -7.007055773714073e6 0.0
0.0 0.0 0.0

2.3585883130023386e6 1.120952185632165e7 0.0
1.120952185632165e7 -2.013429941304454e7 0.0
0.0 0.0 0.0

613021.4736109861 2.9751033968180966e7 0.0
2.9751033968180966e7 -972990.3572775484 0.0
0.0 0.0 0.0

-1.0506551879723959e7 7.427190567298073e6 0.0
7.427190567298073e6 1.788221021664521e7 0.0
0.0 0.0 0.0

-1.3700069367611429e7 2.3398994107874338e7 0.0
2.3398994107874338e7 -167225.59692869615 0.0
0.0 0.0 0.0

-34492.55007845536 1.2261121735396374e7 0.0
1.2261121735396374e7 -3.6423174382344864e7 0.0
0.0 0.0 0.0

2.1960102474455316e7 4.05452954393071e7 0.0
4.05452954393071e7 -1.0017466679787118e7 0.0
0.0 0.0 0.0

3.6904873255255625e7 2.1395364880252253e7 0.0
2.1395364880252253e7 7.857370881614499e6 0.0
0.0 0.0 0.0

-9.918792037321843e6 1.6334806728687651e7 0.0
1.6334806728687651e7 2.4615015008848414e7 0.0
0.0 0.0 0.0

3.655407370205446e6 4.0538288956432184e6 0.0
4.0538288956432184e6 -1.6552160189290134e7 0.0
0.0 0.0 0.0

-7.081497324560135e6 -3.2335529306270876e6 0.0
-3.2335529306270876e6 1.3342727573259175e7 0.0
0.0 0.0 0.0

-1.1459439216398101e7 9.109960209493313e6 0.0
9.109960209493313e6 1.5808794162169136e7 0.0
0.0 0.0 0.0

1.4552884791051531e6 8.688670954064762e6 0.0
8.688670954064762e6 -8.592492677862825e6 0.0
0.0 0.0 0.0

1.4805590178543483e6 2.0516665791894577e7 0.0
2.0516665791894577e7 8.569260519121753e6 0.0
0.0 0.0 0.0

4219.713821253492 1.832725754498454e7 0.0
1.832725754498454e7 209761.98790842068 0.0
0.0 0.0 0.0

-3.323826361460017e6 2.2637284445973616e7 0.0
2.2637284445973616e7 4.83168580560476e6 0.0
0.0 0.0 0.0

-1.1183116098783463e7 6.145781221970796e6 0.0
6.145781221970796e6 1.4669324246649683e7 0.0
0.0 0.0 0.0

135950.33740328392 1.2332968800725987e7 0.0
1.2332968800725987e7 -7.504551811853485e6 0.0
0.0 0.0 0.0

-2.797963490139597e6 2.2365677227162722e7 0.0
2.2365677227162722e7 5.296964967575383e6 0.0
0.0 0.0 0.0

-4.003245447764282e6 1.5239722738234293e7 0.0
1.5239722738234293e7 -3.757460641799675e7 0.0
0.0 0.0 0.0

-2.6971768807454407e6 2.693372494640307e7 0.0
2.693372494640307e7 1.6232300205266164e6 0.0
0.0 0.0 0.0

664639.9586711153 9.422058353210067e6 0.0
9.422058353210067e6 -4.4055055637040615e7 0.0
0.0 0.0 0.0

-1.1506001316161979e7 2.4549012861436985e7 0.0
2.4549012861436985e7 -8.807186268789973e6 0.0
0.0 0.0 0.0

-2.6977899525058083e6 2.6268267387141373e7 0.0
2.6268267387141373e7 1.4710448041452542e6 0.0
0.0 0.0 0.0

-1.1313754175462117e7 4.197994079017141e6 0.0
4.197994079017141e6 2.425575240645918e7 0.0
0.0 0.0 0.0

1.853289896877315e6 1.1118441986481e7 0.0
1.1118441986481e7 -2.201596644933092e7 0.0
0.0 0.0 0.0

-8.421054638853997e6 1.7489473841725543e7 0.0
1.7489473841725543e7 2.3464435112422556e7 0.0
0.0 0.0 0.0

502570.6995625631 2.0095968226176605e7 0.0
2.0095968226176605e7 -1.2132882951957304e7 0.0
0.0 0.0 0.0

-559572.7659270284 1.1884175404063135e7 0.0
1.1884175404063135e7 -8.258284448797277e6 0.0
0.0 0.0 0.0

3.344079260127671e6 3.144532118048672e6 0.0
3.144532118048672e6 -3.648832514982537e7 0.0
0.0 0.0 0.0

4.463339410618431e6 1.6672176365066675e7 0.0
1.6672176365066675e7 1.487779819559533e7 0.0
0.0 0.0 0.0

-1.295479800953462e6 2.6063560210169565e7 0.0
2.6063560210169565e7 -393639.59437947493 0.0
0.0 0.0 0.0

-1.4883164453891225e7 9.399181988366429e6 0.0
9.399181988366429e6 7.836897885159771e6 0.0
0.0 0.0 0.0

3.3815225837446395e6 3.1810847664532755e6 0.0
3.1810847664532755e6 -3.7816924095491804e7 0.0
0.0 0.0 0.0

-1.9971234977263066e6 2.4278586119219303e7 0.0
2.4278586119219303e7 855804.2002641554 0.0
0.0 0.0 0.0

4.609100542244097e6 1.6949744743190806e7 0.0
1.6949744743190806e7 1.803293992844728e7 0.0
0.0 0.0 0.0

-7.740408229646673e6 2.435939293758242e7 0.0
2.435939293758242e7 5.932581132779546e6 0.0
0.0 0.0 0.0

2.524285379085794e6 3.716176502669797e6 0.0
3.716176502669797e6 -4.821301623735382e7 0.0
0.0 0.0 0.0

-2.1271541842267895e6 2.713171512356288e7 0.0
2.713171512356288e7 1.677469860422547e6 0.0
0.0 0.0 0.0

3.939864729510215e6 1.8454272527779467e7 0.0
1.8454272527779467e7 3.5429073210843556e7 0.0
0.0 0.0 0.0

2.5898568995808596e6 1.0146880572682885e7 0.0
1.0146880572682885e7 -2.4247900275414832e7 0.0
0.0 0.0 0.0

-2.0658435977489618e6 1.6347874354339445e7 0.0
1.6347874354339445e7 -1.0674786958662976e7 0.0
0.0 0.0 0.0

2.6726381823274046e7 2.3399819146355648e7 0.0
2.3399819146355648e7 -554565.7145460192 0.0
0.0 0.0 0.0

-3.867655989763013e6 1.9239309454982094e7 0.0
1.9239309454982094e7 -1.2646071310419668e7 0.0
0.0 0.0 0.0

-8.672556170558246e6 -415042.6573294623 0.0
-415042.6573294623 1.3860178657862011e7 0.0
0.0 0.0 0.0

230934.6398749447 6.268643530398286e6 0.0
6.268643530398286e6 -1.927014227543681e6 0.0
0.0 0.0 0.0

3.097528383788675e6 4.410261028213431e6 0.0
4.410261028213431e6 -3.56224141149299e7 0.0
0.0 0.0 0.0

2.177781448835198e6 8.079807774221422e6 0.0
8.079807774221422e6 -4.0103722613390505e7 0.0
0.0 0.0 0.0

-2.654295297348992e6 2.3874686080761764e7 0.0
2.3874686080761764e7 158904.55341699987 0.0
0.0 0.0 0.0

1.1817664310320783e6 1.842195610014514e7 0.0
1.842195610014514e7 2.920356991680716e7 0.0
0.0 0.0 0.0

1.973975669688481e7 1.7303542804935902e7 0.0
1.7303542804935902e7 4.246048955760794e6 0.0
0.0 0.0 0.0

-1.2249099582051842e7 5.895177306000162e6 0.0
5.895177306000162e6 2.184039932779546e7 0.0
0.0 0.0 0.0

751116.8652162105 1.229959371155248e7 0.0
1.229959371155248e7 -3.371461280196778e7 0.0
0.0 0.0 0.0

-3.716997506860176e6 1.6150580905749366e7 0.0
1.6150580905749366e7 -3.468348632919531e7 0.0
0.0 0.0 0.0

5.526149353043873e6 1.804480743000578e7 0.0
1.804480743000578e7 4.883175062139725e7 0.0
0.0 0.0 0.0

-3.6348678778640507e6 2.189405116924899e7 0.0
2.189405116924899e7 1.229121508323437e7 0.0
0.0 0.0 0.0

-8.59498635573325e6 1.7656143530680105e7 0.0
1.7656143530680105e7 2.3068826930297036e7 0.0
0.0 0.0 0.0

-3.062745889320243e6 1.3447729646204831e7 0.0
1.3447729646204831e7 9.96762941128665e6 0.0
0.0 0.0 0.0

-2.315684840367075e6 1.6903151545855723e7 0.0
1.6903151545855723e7 -2.0626181678180102e7 0.0
0.0 0.0 0.0

-706959.5847579362 1.802195573277618e7 0.0
1.802195573277618e7 -1.1128240909918327e7 0.0
0.0 0.0 0.0

1.0262838574164547e6 1.382979526162157e7 0.0
1.382979526162157e7 -1.785753125333867e7 0.0
0.0 0.0 0.0

2.0897546049491882e7 2.516985370133595e7 0.0
2.516985370133595e7 -4.373341647953059e6 0.0
0.0 0.0 0.0

-9.565894008813074e6 -1.9088130065912537e6 0.0
-1.9088130065912537e6 3.1051114580980837e7 0.0
0.0 0.0 0.0

1.3011136634999719e6 1.8565026669948652e7 0.0
1.8565026669948652e7 -2.2359725392496395e6 0.0
0.0 0.0 0.0

702645.6573508212 3.1074769012090642e7 0.0
3.1074769012090642e7 -1.7553667546744295e6 0.0
0.0 0.0 0.0

-4.004940243328942e6 2.1856700710883934e7 0.0
2.1856700710883934e7 1.3059400495513028e7 0.0
0.0 0.0 0.0

3.7919841880209623e6 3.5809233358571143e6 0.0
3.5809233358571143e6 -2.2749784863347784e7 0.0
0.0 0.0 0.0

998922.650856161 7.8147242933917735e6 0.0
7.8147242933917735e6 -9.67688484747278e6 0.0
0.0 0.0 0.0

1.305236586763867e6 1.9445691528801057e7 0.0
1.9445691528801057e7 7.818001805745669e6 0.0
0.0 0.0 0.0

1.7776395223268144e7 4.204314054249873e7 0.0
4.204314054249873e7 -1.2361880850144442e7 0.0
0.0 0.0 0.0

-9.18621971539602e6 8.164899865441651e6 0.0
8.164899865441651e6 4.1965294588425815e7 0.0
0.0 0.0 0.0

1.2659659891093387e6 2.006908958308355e7 0.0
2.006908958308355e7 -7.18177891080228e6 0.0
0.0 0.0 0.0

-1.6281525616774466e6 1.8397969767609037e7 0.0
1.8397969767609037e7 -1.3625169793464776e7 0.0
0.0 0.0 0.0

-492695.4621963049 1.083306863649288e7 0.0
1.083306863649288e7 -7.086820309921536e6 0.0
0.0 0.0 0.0

-693152.7916972383 5.291431371321091e6 0.0
5.291431371321091e6 -3.319960154606586e6 0.0
0.0 0.0 0.0

4.463818715487152e6 2.0925607031427924e7 0.0
2.0925607031427924e7 -4.457865061347885e6 0.0
0.0 0.0 0.0

-3.3192757726001134e6 1.6762508715725204e7 0.0
1.6762508715725204e7 -2.8218748696553472e7 0.0
0.0 0.0 0.0

2.8564739795986563e6 3.0644101496917917e6 0.0
3.0644101496917917e6 -4.377582129810532e7 0.0
0.0 0.0 0.0

-4.101925049215124e6 2.2320831529112477e7 0.0
2.2320831529112477e7 1.1102854228650836e7 0.0
0.0 0.0 0.0

2.238762417153636e6 8.898512567587037e6 0.0
8.898512567587037e6 -3.1945661131356984e7 0.0
0.0 0.0 0.0

2.5111297252048235e6 3.706177576910563e6 0.0
3.706177576910563e6 -4.895052486608862e7 0.0
0.0 0.0 0.0

-3.32947429279139e6 2.0592874405366655e7 0.0
2.0592874405366655e7 1.386141079697769e7 0.0
0.0 0.0 0.0

-5.0631977036484005e6 1.8122915259365316e7 0.0
1.8122915259365316e7 -1.5966025364932291e7 0.0
0.0 0.0 0.0

-1.1245457563260933e7 7.686342668460852e6 0.0
7.686342668460852e6 1.965256240514049e7 0.0
0.0 0.0 0.0

-1.8591758485875165e6 2.558743420598913e7 0.0
2.558743420598913e7 1.0305325376061816e6 0.0
0.0 0.0 0.0

-140111.47248272272 1.1010086574586574e7 0.0
1.1010086574586574e7 -5.144676474343484e6 0.0
0.0 0.0 0.0

-5.654045449085598e6 1.361944984884978e7 0.0
1.361944984884978e7 1.1462105624718558e7 0.0
0.0 0.0 0.0

-9.34106703028134e6 -1.7229963315124265e6 0.0
-1.7229963315124265e6 3.141202136451806e7 0.0
0.0 0.0 0.0

1.4511363826194964e6 1.4039140398880567e7 0.0
1.4039140398880567e7 -1.6672421903767673e7 0.0
0.0 0.0 0.0

35800.30525610002 2.941587440256149e7 0.0
2.941587440256149e7 -1.162211167090775e6 0.0
0.0 0.0 0.0

-9.20913972870122e6 7.000128083141376e6 0.0
7.000128083141376e6 1.5840296441876147e7 0.0
0.0 0.0 0.0

1.1400403733575698e6 8.229411717802501e6 0.0
8.229411717802501e6 -4.353423556220313e7 0.0
0.0 0.0 0.0

-2.282273040963417e6 1.1763392107013362e7 0.0
1.1763392107013362e7 -3.444547428878248e6 0.0
0.0 0.0 0.0

8.283940037299681e6 2.183274262586011e7 0.0
2.183274262586011e7 1.1121257400825266e7 0.0
0.0 0.0 0.0

3.7617375990200125e7 2.2277595493646882e7 0.0
2.2277595493646882e7 7.472157512008917e6 0.0
0.0 0.0 0.0

3.47372788297484e6 6.1216063150839675e6 0.0
6.1216063150839675e6 -2.0833751621518955e7 0.0
0.0 0.0 0.0

-5.079321914509067e6 1.670941192821518e7 0.0
1.670941192821518e7 -3.5291869959131435e7 0.0
0.0 0.0 0.0

3.2715017624372058e6 6.0832335501972865e6 0.0
6.0832335501972865e6 -2.1935018536766995e7 0.0
0.0 0.0 0.0

3.997956531669399e6 3.6037192070482094e6 0.0
3.6037192070482094e6 -2.3586779917241372e7 0.0
0.0 0.0 0.0

3.145939985187563e7 1.4354732592747191e7 0.0
1.4354732592747191e7 1.244788988069294e6 0.0
0.0 0.0 0.0

-1.0097910577454038e7 3.540791408140497e7 0.0
3.540791408140497e7 3.33612273284982e6 0.0
0.0 0.0 0.0

-2.9901585986961704e6 1.5432444192076936e7 0.0
1.5432444192076936e7 -3.1916145625823762e7 0.0
0.0 0.0 0.0

-1.0499038746774932e7 2.271961327742192e7 0.0
2.271961327742192e7 -2.954954018357227e6 0.0
0.0 0.0 0.0

3.924267083665993e6 3.506227049724249e6 0.0
3.506227049724249e6 -3.0578100008958958e7 0.0
0.0 0.0 0.0

-8.095184204904398e6 2.4169008527027242e7 0.0
2.4169008527027242e7 6.605527810554443e6 0.0
0.0 0.0 0.0

8.086387465833615e6 2.9783451791897267e7 0.0
2.9783451791897267e7 -4.999424645282693e6 0.0
0.0 0.0 0.0

-1.0847540182964558e7 1.0242118563799053e7 0.0
1.0242118563799053e7 3.173681256937406e7 0.0
0.0 0.0 0.0

1.1878476350497201e7 4.0925634194520496e7 0.0
4.0925634194520496e7 -7.76694737883073e6 0.0
0.0 0.0 0.0

-705841.6514902997 1.923137799433925e7 0.0
1.923137799433925e7 -730824.1125044496 0.0
0.0 0.0 0.0

3.2221068829020187e6 3.051723004190213e6 0.0
3.051723004190213e6 -3.8798645263238944e7 0.0
0.0 0.0 0.0

2.7494357482893053e7 1.89088445148694e7 0.0
1.89088445148694e7 4.882270886023072e6 0.0
0.0 0.0 0.0

-2.941625512644889e6 2.015286739671366e7 0.0
2.015286739671366e7 1.408863213825028e7 0.0
0.0 0.0 0.0

2.5669946012813672e6 6.226841657082604e6 0.0
6.226841657082604e6 -3.508061325451654e7 0.0
0.0 0.0 0.0

410710.97974492074 2.3907758410472337e7 0.0
2.3907758410472337e7 -6.238069222020277e6 0.0
0.0 0.0 0.0

1.2024535250493973e6 1.9388946065839842e7 0.0
1.9388946065839842e7 -8.024198721083688e6 0.0
0.0 0.0 0.0

-3.370536376557895e6 1.806408602771536e7 0.0
1.806408602771536e7 -1.2999399983670946e7 0.0
0.0 0.0 0.0

-725258.3472974468 1.88281301492108e7 0.0
1.88281301492108e7 -9.805026710804453e6 0.0
0.0 0.0 0.0

1.100038307823093e7 2.2316814025203567e7 0.0
2.2316814025203567e7 1.1188486140569007e7 0.0
0.0 0.0 0.0

691084.2879224792 6.694634403543801e6 0.0
6.694634403543801e6 -6.0725147156574115e7 0.0
0.0 0.0 0.0

-4.801008482345835e6 2.3067584015425507e7 0.0
2.3067584015425507e7 1.077322796326035e7 0.0
0.0 0.0 0.0

1.2329491724649626e6 4.4742786895010015e6 0.0
4.4742786895010015e6 -3.8919509182583606e6 0.0
0.0 0.0 0.0

-1.0352918365198428e7 1.4934198690003254e7 0.0
1.4934198690003254e7 2.5298879938370917e7 0.0
0.0 0.0 0.0

4.122555817696837e6 4.058784957903591e6 0.0
4.058784957903591e6 -2.0631195941381454e7 0.0
0.0 0.0 0.0

-8.640701990265414e6 -2.1574911886063083e6 0.0
-2.1574911886063083e6 3.752742347878642e7 0.0
0.0 0.0 0.0

1.3879731104578143e6 1.4843162663561568e7 0.0
1.4843162663561568e7 -2.0187648944731303e7 0.0
0.0 0.0 0.0

1.0173583631830132e6 2.556626646960797e6 0.0
2.556626646960797e6 -3.9750233102767887e6 0.0
0.0 0.0 0.0

3.736309734049665e6 1.75862260478954e7 0.0
1.75862260478954e7 1.734035946760305e7 0.0
0.0 0.0 0.0

-2.6675491020007725e6 2.6552819045434773e7 0.0
2.6552819045434773e7 3.578718535382053e6 0.0
0.0 0.0 0.0

-9.443541390413515e6 -834173.1093527448 0.0
-834173.1093527448 3.5746492013045214e7 0.0
0.0 0.0 0.0

-1.6642112549437545e6 1.9739202979664113e7 0.0
1.9739202979664113e7 8.276234268533153e6 0.0
0.0 0.0 0.0

4.824340951331191e6 2.216567139892911e7 0.0
2.216567139892911e7 -5.39740397968223e6 0.0
0.0 0.0 0.0

-2.714218011788153e6 2.310939779968761e7 0.0
2.310939779968761e7 -73964.5423167122 0.0
0.0 0.0 0.0

-4.3066892155662505e6 2.0903380607158102e7 0.0
2.0903380607158102e7 -9.495150796105117e6 0.0
0.0 0.0 0.0

-2.2175805415075943e6 2.326293946573423e7 0.0
2.326293946573423e7 1.4910118590518055e6 0.0
0.0 0.0 0.0

-5.5246355354982875e6 1.6527690766014287e7 0.0
1.6527690766014287e7 -1.9380012777185578e7 0.0
0.0 0.0 0.0

1.7545999707591094e7 2.4486251277215358e7 0.0
2.4486251277215358e7 -4.777395498748932e6 0.0
0.0 0.0 0.0

-1.5869451332088625e6 1.7444050164292783e7 0.0
1.7444050164292783e7 -1.4756089416220913e7 0.0
0.0 0.0 0.0

-4.4677904310976e6 1.9234542838945854e7 0.0
1.9234542838945854e7 2.2756069506134816e7 0.0
0.0 0.0 0.0

4.1426457068410967e6 2.0706221041592058e7 0.0
2.0706221041592058e7 1.3740276376177968e7 0.0
0.0 0.0 0.0

2.2679663042736948e6 1.0284461298402483e7 0.0
1.0284461298402483e7 -2.345601831531883e7 0.0
0.0 0.0 0.0

-6.801459133973209e6 1.2797017511410078e7 0.0
1.2797017511410078e7 1.0464082428718401e7 0.0
0.0 0.0 0.0

-2.9781087444563755e6 3.0492228514055386e7 0.0
3.0492228514055386e7 1.3326049038748262e6 0.0
0.0 0.0 0.0

-5.788352671301273e6 1.926094910250423e7 0.0
1.926094910250423e7 1.6244683741813134e7 0.0
0.0 0.0 0.0

2.887596865905627e6 3.2110565216512207e7 0.0
3.2110565216512207e7 -1.564091160854722e6 0.0
0.0 0.0 0.0

905519.9147318378 1.453294687990534e7 0.0
1.453294687990534e7 -2.147993748081742e7 0.0
0.0 0.0 0.0

-2.1112327304843843e7 2.6184307393572144e7 0.0
2.6184307393572144e7 -8.316782491617851e6 0.0
0.0 0.0 0.0

3.1050075043001175e6 4.626553770919708e6 0.0
4.626553770919708e6 -4.3117136219897434e7 0.0
0.0 0.0 0.0

1.1105887897904381e7 3.2134407424649406e7 0.0
3.2134407424649406e7 -4.895085933645487e6 0.0
0.0 0.0 0.0

-1.8395569991008945e7 3.0891275768099833e7 0.0
3.0891275768099833e7 6.858462275624264e6 0.0
0.0 0.0 0.0

681482.8336385349 1.8836211360346332e7 0.0
1.8836211360346332e7 1.848146849811107e7 0.0
0.0 0.0 0.0

-3.461156378815145e7 3.1097947321531277e7 0.0
3.1097947321531277e7 6.684128387207458e6 0.0
0.0 0.0 0.0

3.410863537978163e6 3.094916033651203e6 0.0
3.094916033651203e6 -3.994462667569084e7 0.0
0.0 0.0 0.0

-5.371918474229253e6 1.9101681254939213e7 0.0
1.9101681254939213e7 1.7510020803919133e7 0.0
0.0 0.0 0.0

-9.980475641846582e6 6.808272427175144e6 0.0
6.808272427175144e6 1.3068592249867119e7 0.0
0.0 0.0 0.0

3.812844815835473e6 3.2271619381099674e6 0.0
3.2271619381099674e6 -2.17621212274213e7 0.0
0.0 0.0 0.0

507676.11174825625 1.9364797359475534e7 0.0
1.9364797359475534e7 -9.729969670059795e6 0.0
0.0 0.0 0.0

-6.569414143929692e6 3.674053149390536e7 0.0
3.674053149390536e7 4.504660369646428e6 0.0
0.0 0.0 0.0

-1.2945969852775404e7 1.6956949445640627e7 0.0
1.6956949445640627e7 7.015128020612023e6 0.0
0.0 0.0 0.0

-3.392028426548149e7 2.6603577120487392e7 0.0
2.6603577120487392e7 1.1290418230253235e6 0.0
0.0 0.0 0.0

3.939390102544145e7 2.1817496661199976e7 0.0
2.1817496661199976e7 1.4369766630001463e7 0.0
0.0 0.0 0.0

-7.024982213555813e6 1.5840837086466098e7 0.0
1.5840837086466098e7 -7.79669022788669e7 0.0
0.0 0.0 0.0

-266804.9831188773 1.8317032107904274e7 0.0
1.8317032107904274e7 -1.2309642416272426e7 0.0
0.0 0.0 0.0

-4.186376774414162e6 1.8769159544757158e7 0.0
1.8769159544757158e7 2.2751957050073896e7 0.0
0.0 0.0 0.0

625948.5055801976 2.198441927060281e7 0.0
2.198441927060281e7 -9.332341840937914e6 0.0
0.0 0.0 0.0

-1.4213858635668885e6 2.5391142461941425e7 0.0
2.5391142461941425e7 -551242.8012528525 0.0
0.0 0.0 0.0

2.583159750019811e6 1.6438298658743931e7 0.0
1.6438298658743931e7 1.004670775684784e7 0.0
0.0 0.0 0.0

2.3499778313908996e6 3.1395814717491955e7 0.0
3.1395814717491955e7 -1.5139321685235654e6 0.0
0.0 0.0 0.0

-1.0534614604159005e7 7.363803342513318e6 0.0
7.363803342513318e6 1.6092130979218565e7 0.0
0.0 0.0 0.0

5.25763112848675e7 3.241552131245152e7 0.0
3.241552131245152e7 2.076832868984528e7 0.0
0.0 0.0 0.0

960749.7396692375 2.522689278110237e7 0.0
2.522689278110237e7 -5.946794909215457e6 0.0
0.0 0.0 0.0

3.5617703834617957e6 1.5764614018830147e7 0.0
1.5764614018830147e7 1.374673640532319e7 0.0
0.0 0.0 0.0

-1.0779391880944986e7 2.4296667086377695e7 0.0
2.4296667086377695e7 2.0939746777327252e6 0.0
0.0 0.0 0.0

-175567.47226083744 1.772541304532954e7 0.0
1.772541304532954e7 1.616695757446349e7 0.0
0.0 0.0 0.0

78979.68076585163 2.3858182093171537e7 0.0
2.3858182093171537e7 -5.829292037944963e6 0.0
0.0 0.0 0.0

2.66219882089781e6 7.916357880080777e6 0.0
7.916357880080777e6 -3.1209756986064103e7 0.0
0.0 0.0 0.0

-3.196222069462874e6 2.1639204935826436e7 0.0
2.1639204935826436e7 5.766275397525181e6 0.0
0.0 0.0 0.0

-5.926040644524898e6 2.178457718367904e7 0.0
2.178457718367904e7 3.7413985836249045e6 0.0
0.0 0.0 0.0

1.4133898105129935e6 7.871301942263499e6 0.0
7.871301942263499e6 -1.1667421564791609e7 0.0
0.0 0.0 0.0

-3.6605276048289197e6 2.2450053774941742e7 0.0
2.2450053774941742e7 1.1379505324556364e7 0.0
0.0 0.0 0.0

-8.624390112367362e6 5.5347575904639345e6 0.0
5.5347575904639345e6 4.568506559758253e7 0.0
0.0 0.0 0.0

-923453.363004543 1.1241616962327356e7 0.0
1.1241616962327356e7 -2.623355535882918e6 0.0
0.0 0.0 0.0

-1.0720076680628192e7 2.3126328033614878e7 0.0
2.3126328033614878e7 -8.094269106537927e6 0.0
0.0 0.0 0.0

3.6273934521707594e7 2.736370433621195e7 0.0
2.736370433621195e7 1.5554069457503974e7 0.0
0.0 0.0 0.0

654211.8965711743 1.4102552128558096e7 0.0
1.4102552128558096e7 -2.7379505400846757e7 0.0
0.0 0.0 0.0

3.2203815111958385e6 6.257019619451259e6 0.0
6.257019619451259e6 -3.2901456430841506e7 0.0
0.0 0.0 0.0

8.2058345596476225e6 2.073267946662152e7 0.0
2.073267946662152e7 3.4832401978575718e6 0.0
0.0 0.0 0.0

-4.1685794847896416e6 1.1063180593617938e7 0.0
1.1063180593617938e7 1.5534399887917815e7 0.0
0.0 0.0 0.0

-1.7856625339334344e6 2.447323800939773e7 0.0
2.447323800939773e7 -12287.717434513383 0.0
0.0 0.0 0.0

-1.339942232414942e6 2.1083350937912576e7 0.0
2.1083350937912576e7 -7.285417034534882e6 0.0
0.0 0.0 0.0

-701366.6679540086 2.129662623963231e7 0.0
2.129662623963231e7 -9.026619276346078e6 0.0
0.0 0.0 0.0

-971390.0564298513 1.8513012180362303e7 0.0
1.8513012180362303e7 -7.432617542705076e6 0.0
0.0 0.0 0.0

2.0459822376128347e6 8.624016931442637e6 0.0
8.624016931442637e6 -1.0538611047187507e7 0.0
0.0 0.0 0.0

3.010142808589806e7 2.476282453805164e7 0.0
2.476282453805164e7 1.256057270434371e7 0.0
0.0 0.0 0.0

2.290972590965202e6 1.7126661190304883e7 0.0
1.7126661190304883e7 9.029413707201833e6 0.0
0.0 0.0 0.0

-3.226301872750482e6 2.9893166971727695e7 0.0
2.9893166971727695e7 3.2353074438645835e6 0.0
0.0 0.0 0.0

-3.488635100841506e7 2.0854723608487003e7 0.0
2.0854723608487003e7 7.306393921948537e6 0.0
0.0 0.0 0.0

4.0029506681568082e6 3.771708959233103e6 0.0
3.771708959233103e6 -1.9350462647469305e7 0.0
0.0 0.0 0.0

460839.6988603354 1.8812837814900316e7 0.0
1.8812837814900316e7 6.398077982116836e6 0.0
0.0 0.0 0.0

-4.075740982770959e6 1.5813011289111348e7 0.0
1.5813011289111348e7 -1.8511546676849384e7 0.0
0.0 0.0 0.0

-103661.0709900381 1.6772036630347528e7 0.0
1.6772036630347528e7 -2.023700759615442e7 0.0
0.0 0.0 0.0

-9.601033981435334e6 -3.246880272671547e6 0.0
-3.246880272671547e6 2.5324306967665903e7 0.0
0.0 0.0 0.0

1.2418154088653736e6 1.3298402045157844e7 0.0
1.3298402045157844e7 -1.9130956983963348e7 0.0
0.0 0.0 0.0

-9.125607145954408e6 1.68648215650654e7 0.0
1.68648215650654e7 -4.577005271954379e7 0.0
0.0 0.0 0.0

1.4649676419105232e6 1.2726504812818313e7 0.0
1.2726504812818313e7 -2.019137941096914e7 0.0
0.0 0.0 0.0

1.4796018630626146e6 1.9950473420073025e7 0.0
1.9950473420073025e7 -9.022754714100733e6 0.0
0.0 0.0 0.0

2.906786768726425e7 2.0896463791780837e7 0.0
2.0896463791780837e7 6.696599902947942e6 0.0
0.0 0.0 0.0

-8.516152489119578e6 1.4521613687505972e7 0.0
1.4521613687505972e7 3.2792727548267856e7 0.0
0.0 0.0 0.0

-4.68779146910114e6 2.1846468105577048e7 0.0
2.1846468105577048e7 -1.0088509679449013e7 0.0
0.0 0.0 0.0

250768.9605288378 1.736294300679905e7 0.0
1.736294300679905e7 696215.713892475 0.0
0.0 0.0 0.0

-5.783002796461111e6 2.008724488364938e7 0.0
2.008724488364938e7 -1.2769485081849396e7 0.0
0.0 0.0 0.0

2.8546925808266502e7 2.5210775528864753e7 0.0
2.5210775528864753e7 1.2553648425134528e7 0.0
0.0 0.0 0.0

-4.386710388368182e6 2.2511046394484572e7 0.0
2.2511046394484572e7 1.2064400371132577e7 0.0
0.0 0.0 0.0

1.6761614435593816e6 1.9591130924461234e7 0.0
1.9591130924461234e7 -3.3942943246773086e6 0.0
0.0 0.0 0.0

-461226.8792539624 2.705641591776263e7 0.0
2.705641591776263e7 -1.472814529188933e6 0.0
0.0 0.0 0.0

-3.15440367301409e6 2.1641758958715446e7 0.0
2.1641758958715446e7 6.586791503069749e6 0.0
0.0 0.0 0.0

-5.992657029684845e6 1.5651953977576494e6 0.0
1.5651953977576494e6 6.917762910802782e7 0.0
0.0 0.0 0.0

209256.29119474906 1.9508057996942695e7 0.0
1.9508057996942695e7 -1.3388423600062903e7 0.0
0.0 0.0 0.0

-2.0968928339690904e6 2.657094949204061e7 0.0
2.657094949204061e7 1.988929564767695e6 0.0
0.0 0.0 0.0

-165969.06810228384 3.9523377842890294e6 0.0
3.9523377842890294e6 -75095.37978574558 0.0
0.0 0.0 0.0

-9.333327643687317e6 1.6426392187373595e7 0.0
1.6426392187373595e7 2.456618776969172e7 0.0
0.0 0.0 0.0

-3.638788925191616e6 1.7648442370593462e7 0.0
1.7648442370593462e7 -1.1532500209554916e7 0.0
0.0 0.0 0.0

3.572667249605406e6 3.7720233839402604e6 0.0
3.7720233839402604e6 -2.6761706868261203e7 0.0
0.0 0.0 0.0

-1.8846020483266022e6 3.092224017342815e7 0.0
3.092224017342815e7 1.9968990521983379e6 0.0
0.0 0.0 0.0

1.7817658592780316e6 1.3546187351774883e7 0.0
1.3546187351774883e7 -1.7496330849784613e7 0.0
0.0 0.0 0.0

-6.229156733801271e6 1.860042010848115e7 0.0
1.860042010848115e7 1.913430598220093e7 0.0
0.0 0.0 0.0

1.8284716680839807e6 6.014498888530312e6 0.0
6.014498888530312e6 -5.6161317290127516e7 0.0
0.0 0.0 0.0

-3.9149345143197384e6 2.953096555158817e7 0.0
2.953096555158817e7 2.779952992217788e6 0.0
0.0 0.0 0.0

-7.303947845456246e6 1.679593545086906e7 0.0
1.679593545086906e7 -2.7221208062768903e7 0.0
0.0 0.0 0.0

3.593010290832609e6 2.852419014288847e6 0.0
2.852419014288847e6 -1.2913243752390148e7 0.0
0.0 0.0 0.0

-510114.8588809174 1.0527458447667941e7 0.0
1.0527458447667941e7 -3.966739549323026e6 0.0
0.0 0.0 0.0

-1.5235544367266014e7 3.1008573473557204e7 0.0
3.1008573473557204e7 6.040302581446773e6 0.0
0.0 0.0 0.0

4.748025950410836e6 1.5850046429174952e7 0.0
1.5850046429174952e7 1.6177385010696148e7 0.0
0.0 0.0 0.0

-7.507371765843671e6 3.468970759088667e7 0.0
3.468970759088667e7 3.027009538227198e6 0.0
0.0 0.0 0.0

-1.1303197674563887e7 5.7151050670727175e6 0.0
5.7151050670727175e6 2.5061955523588523e7 0.0
0.0 0.0 0.0

516761.7456772961 8.976770717149438e6 0.0
8.976770717149438e6 -6.260882016407014e7 0.0
0.0 0.0 0.0

6.881683912107378e7 2.3206116891204223e7 0.0
2.3206116891204223e7 3.972146591260519e6 0.0
0.0 0.0 0.0

-1.6988953212695061e6 2.5169377838961873e7 0.0
2.5169377838961873e7 164134.59273097583 0.0
0.0 0.0 0.0

-5.063080016800692e6 2.633520910413017e7 0.0
2.633520910413017e7 6.424823538114354e6 0.0
0.0 0.0 0.0

-2.6094175120478664e6 2.353093553471217e7 0.0
2.353093553471217e7 4.303703694702017e6 0.0
0.0 0.0 0.0

5.989848426439336e6 1.9435191386965375e7 0.0
1.9435191386965375e7 5.0157531527559556e7 0.0
0.0 0.0 0.0

3.242518523914544e6 4.022175589546001e6 0.0
4.022175589546001e6 -3.1341292414142445e7 0.0
0.0 0.0 0.0

305249.4251394728 1.27798757758509e7 0.0
1.27798757758509e7 -8.3749749836068805e6 0.0
0.0 0.0 0.0

6.297716341981477e6 2.9735300362108465e7 0.0
2.9735300362108465e7 -4.49677159312359e6 0.0
0.0 0.0 0.0

1.1124377482192647e6 1.0579493665087786e7 0.0
1.0579493665087786e7 -3.5558668185845815e7 0.0
0.0 0.0 0.0

-1.910767030168478e7 1.9050298883773588e7 0.0
1.9050298883773588e7 6.575922690738095e6 0.0
0.0 0.0 0.0

-5.902200166099515e6 2.2037202155309778e7 0.0
2.2037202155309778e7 2.5573739329096773e6 0.0
0.0 0.0 0.0

384298.18514057226 1.7595122500785656e7 0.0
1.7595122500785656e7 3.8747553108506566e6 0.0
0.0 0.0 0.0

1.9527501245061662e6 1.298741369163406e7 0.0
1.298741369163406e7 -1.8631256637982547e7 0.0
0.0 0.0 0.0

1.9320936688413862e6 1.8794474560056843e7 0.0
1.8794474560056843e7 3.13680898857311e7 0.0
0.0 0.0 0.0

1.0741642485767953e7 2.985898151957608e7 0.0
2.985898151957608e7 -5.528959406007873e6 0.0
0.0 0.0 0.0

-4.1456534675638445e7 3.1869034063162087e6 0.0
3.1869034063162087e6 7.0142778202772215e6 0.0
0.0 0.0 0.0

3.914412531491889e7 3.940212818273013e7 0.0
3.940212818273013e7 -1.0114710661134832e7 0.0
0.0 0.0 0.0

1.0121893734366942e7 3.0155153436894923e7 0.0
3.0155153436894923e7 -6.028753435510816e6 0.0
0.0 0.0 0.0

3.688058870494535e6 3.8542902219199305e6 0.0
3.8542902219199305e6 -1.8664049586319298e7 0.0
0.0 0.0 0.0

-3.041772460794149e6 2.6645439850974638e7 0.0
2.6645439850974638e7 2.238808740736566e6 0.0
0.0 0.0 0.0

3.512144220166501e7 1.467700105902783e7 0.0
1.467700105902783e7 1.717961253428245e6 0.0
0.0 0.0 0.0

-7.649062363039579e6 7.753404114460545e6 0.0
7.753404114460545e6 4.922599359528936e7 0.0
0.0 0.0 0.0

192839.51807207242 1.972135950903431e7 0.0
1.972135950903431e7 -1.294799513301428e7 0.0
0.0 0.0 0.0

2.2021503839306753e7 1.817465704023144e7 0.0
1.817465704023144e7 4.610430063336006e6 0.0
0.0 0.0 0.0

1.1044957438820307e6 1.995862880811229e7 0.0
1.995862880811229e7 -1.0540904018950613e7 0.0
0.0 0.0 0.0

3.4319910052690096e6 4.47957641567358e6 0.0
4.47957641567358e6 -3.365094271245864e7 0.0
0.0 0.0 0.0

-1.2998065585615612e6 2.4947787220973294e7 0.0
2.4947787220973294e7 -1.46271164071765e6 0.0
0.0 0.0 0.0

-3.5085693823352857e6 1.6088601175754637e7 0.0
1.6088601175754637e7 -1.6874940916940328e7 0.0
0.0 0.0 0.0

1.342408286495033e6 2.660006471096217e7 0.0
2.660006471096217e7 -4.7683684872887535e6 0.0
0.0 0.0 0.0

-6.326648073774155e6 1.039168997213787e7 0.0
1.039168997213787e7 5.115888531610275e7 0.0
0.0 0.0 0.0

-793461.4812453114 1.7638268444097772e7 0.0
1.7638268444097772e7 -9.771365848532088e6 0.0
0.0 0.0 0.0

2.245264113600703e6 9.977895291521931e6 0.0
9.977895291521931e6 -2.5215399708925176e7 0.0
0.0 0.0 0.0

3.3687038161146063e6 2.238423515673342e7 0.0
2.238423515673342e7 -6.4295033661655765e6 0.0
0.0 0.0 0.0

-2.4868814389293334e6 1.7200911708743464e7 0.0
1.7200911708743464e7 -8.904989303805977e6 0.0
0.0 0.0 0.0

-8.560427891366225e6 3.0049277952531124e6 0.0
3.0049277952531124e6 4.572782226672823e7 0.0
0.0 0.0 0.0

1.485934169123236e6 1.9167732355665542e7 0.0
1.9167732355665542e7 1.978670278163606e7 0.0
0.0 0.0 0.0

936160.1485831104 1.0231783217284199e7 0.0
1.0231783217284199e7 -3.826890516087782e7 0.0
0.0 0.0 0.0

2.0123413530901412e6 2.637280905641995e7 0.0
2.637280905641995e7 -4.672210813634502e6 0.0
0.0 0.0 0.0

2.6593179639385794e6 2.0951230027414404e7 0.0
2.0951230027414404e7 1.326766670995532e7 0.0
0.0 0.0 0.0

2.9690577456571274e6 8.981226500333766e6 0.0
8.981226500333766e6 -2.464147942461615e7 0.0
0.0 0.0 0.0

5.162057418072642e7 2.3907569507385988e7 0.0
2.3907569507385988e7 1.1470461318063308e7 0.0
0.0 0.0 0.0

1.3315143433921803e6 2.5822980854556225e7 0.0
2.5822980854556225e7 -4.8477209995918395e6 0.0
0.0 0.0 0.0

-9.556850650024267e6 -2.7216085567422584e6 0.0
-2.7216085567422584e6 2.840966100422567e7 0.0
0.0 0.0 0.0

-9.58422036068338e6 3.2678313469551257e6 0.0
3.2678313469551257e6 4.242717124842439e7 0.0
0.0 0.0 0.0

3.972594586386308e6 2.1814254123722007e6 0.0
2.1814254123722007e6 -2.8325668549641e7 0.0
0.0 0.0 0.0

-3.193603817063454e6 2.313279195654971e7 0.0
2.313279195654971e7 3.7663957456243997e6 0.0
0.0 0.0 0.0

-1.3345162519121568e6 1.7806058894332405e7 0.0
1.7806058894332405e7 -8.238123606569114e6 0.0
0.0 0.0 0.0

595819.2293913397 2.143930500239263e7 0.0
2.143930500239263e7 -1.0446996367672708e7 0.0
0.0 0.0 0.0

-9.864897386587407e6 -400521.5910948609 0.0
-400521.5910948609 2.1808965332641542e7 0.0
0.0 0.0 0.0

-338127.6267771409 2.1721067770714708e7 0.0
2.1721067770714708e7 -7.63304406881869e6 0.0
0.0 0.0 0.0

-8.777549160879737e6 2.876236741549121e6 0.0
2.876236741549121e6 4.547268948773196e7 0.0
0.0 0.0 0.0

7.93618659768366e6 1.9619823677553814e7 0.0
1.9619823677553814e7 5.124111423117243e6 0.0
0.0 0.0 0.0

410405.2788407486 1.2241760623047493e7 0.0
1.2241760623047493e7 -3.648640044963004e7 0.0
0.0 0.0 0.0

1.5000219605477154e6 1.0199690576137139e7 0.0
1.0199690576137139e7 -3.841373547147061e7 0.0
0.0 0.0 0.0

-9.497264819691487e6 1.608881803477891e7 0.0
1.608881803477891e7 2.575938253581866e7 0.0
0.0 0.0 0.0

-2.9771638409422534e6 1.955915820330348e7 0.0
1.955915820330348e7 4.560770400966376e6 0.0
0.0 0.0 0.0

750369.3831251508 4.68099974280106e6 0.0
4.68099974280106e6 -2.355621844602727e6 0.0
0.0 0.0 0.0

-1.0264511586534758e6 1.850295355178042e7 0.0
1.850295355178042e7 -8.404928934600635e6 0.0
0.0 0.0 0.0

-3.35997263345391e6 2.5314894838844553e7 0.0
2.5314894838844553e7 6.42887961698991e6 0.0
0.0 0.0 0.0

5.37590551872006e6 1.9344439059707593e7 0.0
1.9344439059707593e7 3.910067764185082e7 0.0
0.0 0.0 0.0

1.1470548206969267e7 2.203221004796869e7 0.0
2.203221004796869e7 -2.626373999554561e6 0.0
0.0 0.0 0.0

-5.50804627589095e6 1.1640457450817637e6 0.0
1.1640457450817637e6 6.70244333210228e7 0.0
0.0 0.0 0.0

-8.654664328407267e6 1.0114385028090509e7 0.0
1.0114385028090509e7 4.0309424154015645e7 0.0
0.0 0.0 0.0

-9.586264541028727e6 1.5794266413153488e7 0.0
1.5794266413153488e7 2.1404422111205973e7 0.0
0.0 0.0 0.0

1.6782280434184105e6 1.7752503622795273e7 0.0
1.7752503622795273e7 9.81047480992948e6 0.0
0.0 0.0 0.0

-1.0152552803475356e7 3.442489139601554e6 0.0
3.442489139601554e6 1.628736179420922e7 0.0
0.0 0.0 0.0

-9.970929504799718e6 2.0610784129365787e7 0.0
2.0610784129365787e7 -5.057315715079218e6 0.0
0.0 0.0 0.0

3.737076366231337e6 4.923570617640905e6 0.0
4.923570617640905e6 -2.986545672866251e7 0.0
0.0 0.0 0.0

-6.802394817355127e6 1.660545507094943e7 0.0
1.660545507094943e7 -3.876892802145423e7 0.0
0.0 0.0 0.0

1.4390550225038275e6 1.7062234162192952e7 0.0
1.7062234162192952e7 6.290776299677412e6 0.0
0.0 0.0 0.0

1.5326141088525567e7 2.6879064965086147e7 0.0
2.6879064965086147e7 -6.217548946239309e6 0.0
0.0 0.0 0.0

1.5090156615296612e6 2.051347162697537e7 0.0
2.051347162697537e7 -8.139712160900532e6 0.0
0.0 0.0 0.0

-2.0956842586377174e7 2.5367272169043675e7 0.0
2.5367272169043675e7 -6.267790579170085e6 0.0
0.0 0.0 0.0

-1.6990380129734636e6 2.587579652760108e7 0.0
2.587579652760108e7 -1.6049583560148547e6 0.0
0.0 0.0 0.0

-1.3178230462820285e6 6.885683022819937e6 0.0
6.885683022819937e6 -2.9007126078231498e6 0.0
0.0 0.0 0.0

-5.035359039446137e6 3.5565194457418405e7 0.0
3.5565194457418405e7 4.389426998107696e6 0.0
0.0 0.0 0.0

-2.8225735668861363e6 2.0014421990626093e7 0.0
2.0014421990626093e7 3.346747211465641e6 0.0
0.0 0.0 0.0

-1.212120183744693e7 7.651045863104792e6 0.0
7.651045863104792e6 1.6703552366421575e7 0.0
0.0 0.0 0.0

-3.3175709975021714e6 1.995320791947054e7 0.0
1.995320791947054e7 1.5653448176525668e6 0.0
0.0 0.0 0.0

-4.394484502526104e6 2.1932635518090758e6 0.0
2.1932635518090758e6 3.9594867270665783e6 0.0
0.0 0.0 0.0

848568.4074777877 1.0042018566559156e7 0.0
1.0042018566559156e7 -1.5999324774561672e7 0.0
0.0 0.0 0.0

679413.5588910207 1.2821985157757888e7 0.0
1.2821985157757888e7 -3.1666333032976918e7 0.0
0.0 0.0 0.0

-8.984767915258082e6 2.181165290220621e7 0.0
2.181165290220621e7 -7.856830777113926e6 0.0
0.0 0.0 0.0

-4.3290980153986635e6 1.9282028080848817e7 0.0
1.9282028080848817e7 2.151148229402963e7 0.0
0.0 0.0 0.0

-987423.5549820239 1.7689207749096323e7 0.0
1.7689207749096323e7 -5.954927621914227e6 0.0
0.0 0.0 0.0

3.3214067750545563e6 4.196155596949568e6 0.0
4.196155596949568e6 -1.311277773575899e7 0.0
0.0 0.0 0.0

-1.2924909980155046e6 2.337459907011798e7 0.0
2.337459907011798e7 -5.016012399285468e6 0.0
0.0 0.0 0.0

-834428.8279204457 2.6863045937062748e7 0.0
2.6863045937062748e7 -2.528984874035148e6 0.0
0.0 0.0 0.0

4.729223652082143e6 2.1943439706513714e7 0.0
2.1943439706513714e7 -5.738505185538486e6 0.0
0.0 0.0 0.0

-1.1878492236267032e7 1.0794388025978202e7 0.0
1.0794388025978202e7 1.7991276690788418e7 0.0
0.0 0.0 0.0

-1.928399549096068e6 1.7000064987028558e7 0.0
1.7000064987028558e7 -1.8856175187341463e7 0.0
0.0 0.0 0.0

-5.4157429429287035e6 3.0888548760006e7 0.0
3.0888548760006e7 3.171374710900714e6 0.0
0.0 0.0 0.0

-4.572630614195554e6 3.021584305489229e7 0.0
3.021584305489229e7 2.967890403448572e6 0.0
0.0 0.0 0.0

-2.3243316666294467e6 1.531311434113393e7 0.0
1.531311434113393e7 -2.940306442752892e7 0.0
0.0 0.0 0.0

-3.197753017334449e6 1.709567469487765e7 0.0
1.709567469487765e7 -1.1437306696777103e7 0.0
0.0 0.0 0.0

714288.1134715969 1.7773420422281563e7 0.0
1.7773420422281563e7 5.238203519656164e6 0.0
0.0 0.0 0.0

2.1300107443477046e6 9.488374015732719e6 0.0
9.488374015732719e6 -3.034344246725274e7 0.0
0.0 0.0 0.0

-1.00687889660387e7 1.135589155160046e7 0.0
1.135589155160046e7 3.3216149154636674e7 0.0
0.0 0.0 0.0

-1.3564570707901977e6 1.2160873749829687e7 0.0
1.2160873749829687e7 -6.498397874728006e7 0.0
0.0 0.0 0.0

8.645123420244636e6 3.313604064098375e7 0.0
3.313604064098375e7 -6.337839037440186e6 0.0
0.0 0.0 0.0

5.835757481938263e6 1.7308805056914896e7 0.0
1.7308805056914896e7 2.6693996483117543e7 0.0
0.0 0.0 0.0

3.239330078357405e6 1.8327798491013568e7 0.0
1.8327798491013568e7 3.5175630290483825e7 0.0
0.0 0.0 0.0

2.1189394601585876e7 2.2820964160879426e7 0.0
2.2820964160879426e7 1.0450480410231628e7 0.0
0.0 0.0 0.0

-333373.2908952624 1.8121091332122535e7 0.0
1.8121091332122535e7 2.925438883806089e6 0.0
0.0 0.0 0.0

-1.193707759260283e6 2.3000710004659347e7 0.0
2.3000710004659347e7 -4.786130006364247e6 0.0
0.0 0.0 0.0

-2.77241023619446e7 2.5764024500763297e7 0.0
2.5764024500763297e7 -7.229906485448446e6 0.0
0.0 0.0 0.0

-299111.55644731014 1.725107683608296e7 0.0
1.725107683608296e7 1.0057327398359134e6 0.0
0.0 0.0 0.0

-3.5145729118725862e6 2.0982922109775208e7 0.0
2.0982922109775208e7 5.401323654069159e6 0.0
0.0 0.0 0.0

4.1090314682792425e6 3.88176699138445e6 0.0
3.88176699138445e6 -2.479079752129696e7 0.0
0.0 0.0 0.0

-1.1038393918006083e7 2.2108791986910947e7 0.0
2.2108791986910947e7 -3.418295547076916e6 0.0
0.0 0.0 0.0

-1.3544347463891923e7 3.7360821360838756e7 0.0
3.7360821360838756e7 5.138420519320751e6 0.0
0.0 0.0 0.0

-1.0342244844156923e7 1.4775191049705427e6 0.0
1.4775191049705427e6 2.4734802078593567e7 0.0
0.0 0.0 0.0

1.038306190763122e7 2.77997520646549e7 0.0
2.77997520646549e7 -5.338502513565393e6 0.0
0.0 0.0 0.0

-4.0665673984373957e6 1.0166546204637095e7 0.0
1.0166546204637095e7 7.276993791253616e7 0.0
0.0 0.0 0.0

-9.42523459690521e6 -2.785061657151413e6 0.0
-2.785061657151413e6 2.8184245842252012e7 0.0
0.0 0.0 0.0

-1.2052437127507333e7 1.8906974530804068e7 0.0
1.8906974530804068e7 -5.015322482444493e7 0.0
0.0 0.0 0.0

-282268.92739491863 1.9072655303354733e7 0.0
1.9072655303354733e7 -1.1042006336726049e7 0.0
0.0 0.0 0.0

-617031.6701202558 2.7687190198979758e7 0.0
2.7687190198979758e7 -1.305664271425887e6 0.0
0.0 0.0 0.0

-7.335222767148221e6 1.8775386616385713e7 0.0
1.8775386616385713e7 -8.060751544668429e6 0.0
0.0 0.0 0.0

-671583.4524627525 9.970403158337347e6 0.0
9.970403158337347e6 -2.753691292852888e6 0.0
0.0 0.0 0.0

-1.7414767273228643e6 2.4722191019463994e7 0.0
2.4722191019463994e7 -2.7202671711731986e6 0.0
0.0 0.0 0.0

-3.0081293251219923e6 2.9296595284071203e7 0.0
2.9296595284071203e7 2.704472310068658e6 0.0
0.0 0.0 0.0

-389984.4041333594 2.7829143279395074e7 0.0
2.7829143279395074e7 -1.6684610349849896e6 0.0
0.0 0.0 0.0

-3.164211777193982e6 1.1305934559930027e7 0.0
1.1305934559930027e7 -7.095137056943314e7 0.0
0.0 0.0 0.0

-5.01677229785942e6 1.8551062084953796e7 0.0
1.8551062084953796e7 -1.6790781065925315e7 0.0
0.0 0.0 0.0

-7.342219634938274e6 2.2134707413074207e6 0.0
2.2134707413074207e6 5.4220003167659596e7 0.0
0.0 0.0 0.0

1.1761286376715088e7 2.193881201924744e7 0.0
2.193881201924744e7 5.660619900309668e7 0.0
0.0 0.0 0.0

-4.6100449405739784e7 3.1374783978913585e6 0.0
3.1374783978913585e6 6.919159864301853e6 0.0
0.0 0.0 0.0

3.5664311284252666e7 2.5504195400670446e7 0.0
2.5504195400670446e7 4.634579580453818e6 0.0
0.0 0.0 0.0

245211.72861021012 1.50329188654709e7 0.0
1.50329188654709e7 -2.641471057199186e7 0.0
0.0 0.0 0.0

2.2770738927645977e6 5.467070058288416e6 0.0
5.467070058288416e6 -8.253943319054751e6 0.0
0.0 0.0 0.0

4.8695929117164075e7 2.4192323457743432e7 0.0
2.4192323457743432e7 -3.0070040413742755e6 0.0
0.0 0.0 0.0

3.2602060151121384e6 1.169331647963215e7 0.0
1.169331647963215e7 -2.088796922020137e7 0.0
0.0 0.0 0.0

2.6465439237583987e7 2.2850564803359035e7 0.0
2.2850564803359035e7 1.0929273817132581e7 0.0
0.0 0.0 0.0

-2.0122938971414866e6 2.5680247234983966e7 0.0
2.5680247234983966e7 -1.0184189578945846e6 0.0
0.0 0.0 0.0

-4.432971621337581e6 2.5784567052476004e7 0.0
2.5784567052476004e7 6.5991280488673635e6 0.0
0.0 0.0 0.0

-751879.7651918195 1.3217881437351456e7 0.0
1.3217881437351456e7 -9.060359387349121e6 0.0
0.0 0.0 0.0

-7.1366412774391845e6 1.369524518462624e7 0.0
1.369524518462624e7 -3.5158855375553044e6 0.0
0.0 0.0 0.0

-4.732700654180704e6 1.704181873098736e7 0.0
1.704181873098736e7 -1.8269707799694736e7 0.0
0.0 0.0 0.0

-1.931751531261105e6 2.010981478172632e7 0.0
2.010981478172632e7 8.121260739556698e6 0.0
0.0 0.0 0.0

2.355102203905789e6 1.987822638125197e7 0.0
1.987822638125197e7 9.756429099785319e6 0.0
0.0 0.0 0.0

-4.643093161509633e6 8.740193751746086e6 0.0
8.740193751746086e6 6.814574302417366e7 0.0
0.0 0.0 0.0

-2.443744560003472e6 2.413007768251241e7 0.0
2.413007768251241e7 -594669.1307018304 0.0
0.0 0.0 0.0

3.9414145373989325e6 2.1626437392518055e6 0.0
2.1626437392518055e6 -2.854164274560188e7 0.0
0.0 0.0 0.0

-3.6548352141356124e6 2.0928884579922583e7 0.0
2.0928884579922583e7 1.4740625309174823e7 0.0
0.0 0.0 0.0

1.4630011517871602e6 1.9870263235201653e7 0.0
1.9870263235201653e7 1.123472669766668e7 0.0
0.0 0.0 0.0

1.057627697826073e7 2.3709042288565073e7 0.0
2.3709042288565073e7 -4.465869560941804e6 0.0
0.0 0.0 0.0

-32422.44845583476 2.332318017170425e7 0.0
2.332318017170425e7 -7.549399881119609e6 0.0
0.0 0.0 0.0

-3.845871112008349e6 3.2421299652806867e7 0.0
3.2421299652806867e7 1.8880781314793213e6 0.0
0.0 0.0 0.0

-2.27036819692688e6 7.431697128778966e6 0.0
7.431697128778966e6 -1.4897176133477783e6 0.0
0.0 0.0 0.0

-1.1011242712267343e7 3.0588887635993347e7 0.0
3.0588887635993347e7 5.288617111872179e6 0.0
0.0 0.0 0.0

-2.302738009810639e6 2.6312620277592264e7 0.0
2.6312620277592264e7 2.7858743314426662e6 0.0
0.0 0.0 0.0

-9.070575406263826e6 1.6858072452271283e7 0.0
1.6858072452271283e7 2.140406094061298e7 0.0
0.0 0.0 0.0

2.924119131958284e7 2.2694736671390872e7 0.0
2.2694736671390872e7 -851943.0244228914 0.0
0.0 0.0 0.0

609847.832771291 1.817863463943416e7 0.0
1.817863463943416e7 -1.4065319531374475e7 0.0
0.0 0.0 0.0

-2.2797171704608253e6 2.54639301079464e7 0.0
2.54639301079464e7 -323551.38155891426 0.0
0.0 0.0 0.0

-479164.18606741587 1.207792641976825e7 0.0
1.207792641976825e7 -9.38398451173804e6 0.0
0.0 0.0 0.0

-1.5779618886208395e6 1.9813777817296084e7 0.0
1.9813777817296084e7 1.2757826427331476e7 0.0
0.0 0.0 0.0

-1.10307676366672e7 1.4545013092729848e7 0.0
1.4545013092729848e7 -439925.71074515115 0.0
0.0 0.0 0.0

-1.1630032789721204e7 2.1447719431114867e7 0.0
2.1447719431114867e7 -3.7321244767110874e6 0.0
0.0 0.0 0.0

135696.59412865993 1.8804579721708722e7 0.0
1.8804579721708722e7 -1.1012577712806357e7 0.0
0.0 0.0 0.0

8.761108351339227e6 1.5377503778023282e7 0.0
1.5377503778023282e7 4.420795966630477e6 0.0
0.0 0.0 0.0

-20000.379590046592 1.7653732768239133e7 0.0
1.7653732768239133e7 -1.744864600282049e7 0.0
0.0 0.0 0.0

-4.453600367876224e6 1.9107950774247706e7 0.0
1.9107950774247706e7 2.1427419522020318e7 0.0
0.0 0.0 0.0

-1.5898136390125977e7 2.0282634094652858e7 0.0
2.0282634094652858e7 1.8948658139716769e6 0.0
0.0 0.0 0.0

-2.553935470139713e6 1.9903793980032828e7 0.0
1.9903793980032828e7 3.332998885518059e6 0.0
0.0 0.0 0.0

-1.2407510543209458e7 6.90926361879852e6 0.0
6.90926361879852e6 2.2821110927296806e7 0.0
0.0 0.0 0.0

1.8780504628840894e6 1.8243395108668856e7 0.0
1.8243395108668856e7 1.781646645423298e7 0.0
0.0 0.0 0.0

1.2659579596172173e7 3.0242437574183784e7 0.0
3.0242437574183784e7 -6.840144063884059e6 0.0
0.0 0.0 0.0

-3.722435115749027e7 2.5312907677962262e7 0.0
2.5312907677962262e7 2.849059513747601e6 0.0
0.0 0.0 0.0

7.95383961646388e6 3.712728138514934e7 0.0
3.712728138514934e7 -3.440996032932788e6 0.0
0.0 0.0 0.0

-1.3145678937961804e7 2.3123652554657906e7 0.0
2.3123652554657906e7 66737.38496623281 0.0
0.0 0.0 0.0

4.54056075141429e6 3.3908902835959665e7 0.0
3.3908902835959665e7 -1.985817896535407e6 0.0
0.0 0.0 0.0

-1.1809395320166582e7 3.052242354040064e6 0.0
3.052242354040064e6 2.2267661741228033e7 0.0
0.0 0.0 0.0

1.321422726495724e7 2.27150643750487e7 0.0
2.27150643750487e7 -2.9049152923124516e6 0.0
0.0 0.0 0.0

-3.707038320304119e6 3.0567854863372438e7 0.0
3.0567854863372438e7 3.516821196854828e6 0.0
0.0 0.0 0.0

-4.606414743899672e6 2.075700066614821e7 0.0
2.075700066614821e7 953893.7104156525 0.0
0.0 0.0 0.0

-178571.88253560942 1.653643745584549e7 0.0
1.653643745584549e7 -2.199373208609781e7 0.0
0.0 0.0 0.0

-5.9507585917160325e6 2.782621443886546e7 0.0
2.782621443886546e7 5.674385923643902e6 0.0
0.0 0.0 0.0

-7.351873386039864e6 1.852610218164243e7 0.0
1.852610218164243e7 -4.356783862289278e6 0.0
0.0 0.0 0.0

3.809373020972278e6 3.328844596598807e7 0.0
3.328844596598807e7 -3.7766172355950307e6 0.0
0.0 0.0 0.0

-1.4096263186088154e7 3.1045651891629197e7 0.0
3.1045651891629197e7 6.468839733676876e6 0.0
0.0 0.0 0.0

8.958489476130392e6 2.3003480271196447e7 0.0
2.3003480271196447e7 -4.0362847597203576e6 0.0
0.0 0.0 0.0

3.6468883795630196e6 5.6749819456971465e6 0.0
5.6749819456971465e6 -1.660669021113763e7 0.0
0.0 0.0 0.0

-5.220874443265464e6 1.7007227567141e7 0.0
1.7007227567141e7 -3.1560715075902075e7 0.0
0.0 0.0 0.0

3.2901836530002793e6 4.0891434443884343e6 0.0
4.0891434443884343e6 -1.4252655686851548e7 0.0
0.0 0.0 0.0

4.1523004463852225e6 1.776882641170937e7 0.0
1.776882641170937e7 2.540333940973126e7 0.0
0.0 0.0 0.0

4.608904046748584e6 2.1284807374151528e7 0.0
2.1284807374151528e7 -4.0237464126498085e6 0.0
0.0 0.0 0.0

7.79262860140939e6 2.8086783111245204e7 0.0
2.8086783111245204e7 -5.188349097854329e6 0.0
0.0 0.0 0.0

-9.229460202571658e6 1.699979908425901e7 0.0
1.699979908425901e7 2.4427544783009887e7 0.0
0.0 0.0 0.0

-8764.285945106763 1.3832321298445862e7 0.0
1.3832321298445862e7 -8.129404630117375e6 0.0
0.0 0.0 0.0

-342112.11591117876 8.649934194842089e6 0.0
8.649934194842089e6 4.629193809621414e6 0.0
0.0 0.0 0.0

-51175.03543955088 1.0592218639797613e7 0.0
1.0592218639797613e7 -5.365239775010311e7 0.0
0.0 0.0 0.0

1.885977782307974e6 1.5483164739618745e7 0.0
1.5483164739618745e7 5.873614232732935e6 0.0
0.0 0.0 0.0

-1.357353271916001e7 2.7945269969626088e7 0.0
2.7945269969626088e7 5.450837461226465e6 0.0
0.0 0.0 0.0

-1.1174734772044895e6 1.7567776316450994e7 0.0
1.7567776316450994e7 -1.2406431028369196e7 0.0
0.0 0.0 0.0

2.2250857489806183e7 2.1870630582450394e7 0.0
2.1870630582450394e7 8.558911144077735e6 0.0
0.0 0.0 0.0

-1.1094658220232442e7 5.886322430602602e6 0.0
5.886322430602602e6 2.964121845440337e7 0.0
0.0 0.0 0.0

-3.088449308132328e7 2.8776464197575796e7 0.0
2.8776464197575796e7 2.444418531408809e6 0.0
0.0 0.0 0.0

2.7858361545627408e7 3.1367414746030614e7 0.0
3.1367414746030614e7 -1.0265804273568282e7 0.0
0.0 0.0 0.0

-4.618109266771172e6 2.5927526621580184e7 0.0
2.5927526621580184e7 7.361048296914088e6 0.0
0.0 0.0 0.0

-100994.52680512576 1.5858024328610213e7 0.0
1.5858024328610213e7 2.309188755854198e6 0.0
0.0 0.0 0.0

-7.84479616899398e6 1.6064170243183661e7 0.0
1.6064170243183661e7 2.9730012928943112e7 0.0
0.0 0.0 0.0

-1.0007549524886113e7 -1.5412101492571728e6 0.0
-1.5412101492571728e6 2.9062135250700433e7 0.0
0.0 0.0 0.0

129674.03173943702 1.782592334124897e7 0.0
1.782592334124897e7 -1.5291297835573751e7 0.0
0.0 0.0 0.0

-8.92136269537362e6 2.3990786293155894e7 0.0
2.3990786293155894e7 -1.0335996829213563e7 0.0
0.0 0.0 0.0

-203208.00263911486 1.8166274659554295e7 0.0
1.8166274659554295e7 -1.0257820673722012e7 0.0
0.0 0.0 0.0

-6.846850193639057e6 1.081519420642527e7 0.0
1.081519420642527e7 4.692905175853831e7 0.0
0.0 0.0 0.0

714872.8711513877 1.4096374820150677e7 0.0
1.4096374820150677e7 -2.596678510219885e7 0.0
0.0 0.0 0.0

-8.965718221021105e6 2.3874285147156738e7 0.0
2.3874285147156738e7 -1.0493448579852317e7 0.0
0.0 0.0 0.0

-199773.40769205987 1.6129269011154907e7 0.0
1.6129269011154907e7 -2.1896634620361213e7 0.0
0.0 0.0 0.0

2.2801209924680583e7 2.1644758673854925e7 0.0
2.1644758673854925e7 1.0912973984938234e7 0.0
0.0 0.0 0.0

-8.372157055257486e6 9.067990714554353e6 0.0
9.067990714554353e6 4.322184728971279e7 0.0
0.0 0.0 0.0

1.1196383413478513e6 1.9503072844972298e7 0.0
1.9503072844972298e7 -1.177940171302481e6 0.0
0.0 0.0 0.0

-2.583103579354897e6 1.995702576653774e7 0.0
1.995702576653774e7 1.757187651243656e7 0.0
0.0 0.0 0.0

2.7187193621763894e6 2.7022433211618498e7 0.0
2.7022433211618498e7 -4.6363862399224285e6 0.0
0.0 0.0 0.0

2.787232374266237e6 9.735438214309089e6 0.0
9.735438214309089e6 -2.6436100469513103e7 0.0
0.0 0.0 0.0

2.050659123161601e6 9.188680852571154e6 0.0
9.188680852571154e6 -1.1343503579287441e7 0.0
0.0 0.0 0.0

23841.854395590723 1.1067219812530944e7 0.0
1.1067219812530944e7 -4.647975796155532e7 0.0
0.0 0.0 0.0

-8.736760477946319e6 2.226506237276862e7 0.0
2.226506237276862e7 -4.0304126659899987e6 0.0
0.0 0.0 0.0

-9.728183002680559e6 8.802733668076606e6 0.0
8.802733668076606e6 3.877247588655984e7 0.0
0.0 0.0 0.0

-7.539197923335053e6 2.2076676135512043e7 0.0
2.2076676135512043e7 -7.381738069344426e6 0.0
0.0 0.0 0.0

-58472.736610122025 1.724148281536725e7 0.0
1.724148281536725e7 -1.0627487683780896e7 0.0
0.0 0.0 0.0

1.346106174282752e6 8.668732395996151e6 0.0
8.668732395996151e6 -4.101853085584155e7 0.0
0.0 0.0 0.0

-8.79339902670806e6 1.4953480789411996e7 0.0
1.4953480789411996e7 3.0722655488602895e7 0.0
0.0 0.0 0.0

2.8971031018016445e6 1.712316839300363e7 0.0
1.712316839300363e7 1.1468280443242036e7 0.0
0.0 0.0 0.0

-52123.06491293199 1.2611843204511918e7 0.0
1.2611843204511918e7 -3.420663314016674e7 0.0
0.0 0.0 0.0

3.5081965844968837e6 2.8372537074637497e6 0.0
2.8372537074637497e6 -3.1778515245568253e7 0.0
0.0 0.0 0.0

-4.053123636377195e6 2.0457630796546306e7 0.0
2.0457630796546306e7 1.4661961407689957e7 0.0
0.0 0.0 0.0

-7.113147853106033e6 2.2720289296731602e7 0.0
2.2720289296731602e7 -9.879195159927163e6 0.0
0.0 0.0 0.0

1.2745521661321074e6 1.291827375639741e7 0.0
1.291827375639741e7 -1.3191256117265068e7 0.0
0.0 0.0 0.0

-9.811716535213986e6 2.308681661621257e6 0.0
2.308681661621257e6 3.582870876031485e7 0.0
0.0 0.0 0.0

-2.4413657608213224e6 1.844113020259595e6 0.0
1.844113020259595e6 4.462419936672e6 0.0
0.0 0.0 0.0

-6.685108913667087e6 1.8790570604707014e7 0.0
1.8790570604707014e7 1.7752769560450297e7 0.0
0.0 0.0 0.0

2.420066160280789e7 2.392532933207506e7 0.0
2.392532933207506e7 1.3891445936742123e7 0.0
0.0 0.0 0.0

1.8311717891162056e7 2.2198644596916124e7 0.0
2.2198644596916124e7 1.0890678218448147e7 0.0
0.0 0.0 0.0

-1.3799628794773683e7 2.3078568655017525e7 0.0
2.3078568655017525e7 -9.005475361473117e6 0.0
0.0 0.0 0.0

-3.4503316423572646e6 1.5643511244679017e7 0.0
1.5643511244679017e7 -1.151325207310678e7 0.0
0.0 0.0 0.0

-7.844797132945547e6 2.306719483075197e7 0.0
2.306719483075197e7 -8.558419758247374e6 0.0
0.0 0.0 0.0

-8.670131122434366e6 2.1869836902467895e7 0.0
2.1869836902467895e7 -8.313188393799014e6 0.0
0.0 0.0 0.0

181038.47977187485 1.1663717058350729e7 0.0
1.1663717058350729e7 -4.131791662222019e7 0.0
0.0 0.0 0.0

-707512.2911105293 4.192110669038921e6 0.0
4.192110669038921e6 -2.0981820001182156e6 0.0
0.0 0.0 0.0

-594420.4204051725 6.7894715632060515e6 0.0
6.7894715632060515e6 -479323.48309212714 0.0
0.0 0.0 0.0

993240.6729977445 1.650467207606539e7 0.0
1.650467207606539e7 1.5557722964090656e6 0.0
0.0 0.0 0.0

1.6434146740458598e7 2.2468142780816864e7 0.0
2.2468142780816864e7 1.0787442303273056e7 0.0
0.0 0.0 0.0

950083.5222283227 1.7114861602677803e7 0.0
1.7114861602677803e7 7.390354052869511e6 0.0
0.0 0.0 0.0

-4.9519635530021405e6 1.9665720322615832e7 0.0
1.9665720322615832e7 1.511103436649254e7 0.0
0.0 0.0 0.0

-2.345061320827056e7 1.1181894741783867e7 0.0
1.1181894741783867e7 9.088345432466192e6 0.0
0.0 0.0 0.0

2.0037951341587286e6 1.717475672874024e7 0.0
1.717475672874024e7 9.070850020922082e6 0.0
0.0 0.0 0.0

2.813408738970862e6 6.181307290948564e6 0.0
6.181307290948564e6 -1.7378533901027307e7 0.0
0.0 0.0 0.0

-1.3530476815089708e7 2.950633836630672e7 0.0
2.950633836630672e7 6.0730405520009305e6 0.0
0.0 0.0 0.0

-9.279664776561124e6 406000.48602315155 0.0
406000.48602315155 3.7937671088677116e7 0.0
0.0 0.0 0.0

-1.4533525237780488e6 1.924374725938069e7 0.0
1.924374725938069e7 -8.492818029723655e6 0.0
0.0 0.0 0.0

7.345463973938163e6 2.066539634995902e7 0.0
2.066539634995902e7 1.1322679113349643e7 0.0
0.0 0.0 0.0

-6.842093571749389e6 2.249326423367719e7 0.0
2.249326423367719e7 -9.863667207080508e6 0.0
0.0 0.0 0.0

-2.5432310156748295e6 1.5889914607862953e7 0.0
1.5889914607862953e7 -2.6721641997694466e7 0.0
0.0 0.0 0.0

1.909068971663838e7 2.321464066821923e7 0.0
2.321464066821923e7 1.3041457332252938e7 0.0
0.0 0.0 0.0

-2.5847142270330545e6 1.7530601567677274e7 0.0
1.7530601567677274e7 -1.9608411494876385e7 0.0
0.0 0.0 0.0

1.2991630169361816e6 1.8078364741631694e7 0.0
1.8078364741631694e7 1.074451149818479e7 0.0
0.0 0.0 0.0

3.5575546739820107e6 2.004705389907323e7 0.0
2.004705389907323e7 1.3864635985538937e7 0.0
0.0 0.0 0.0

-3.695021448942556e6 2.0255629543579932e7 0.0
2.0255629543579932e7 1.5562008661994014e7 0.0
0.0 0.0 0.0

-2.706495052234141e6 2.0119773813277144e7 0.0
2.0119773813277144e7 1.0324588353160467e7 0.0
0.0 0.0 0.0

3.0408877443761583e6 5.444897446888186e6 0.0
5.444897446888186e6 -3.064504354180868e7 0.0
0.0 0.0 0.0

320243.15223465045 2.902468959950057e7 0.0
2.902468959950057e7 -1.7781274174478173e6 0.0
0.0 0.0 0.0

-5.480081199013058e6 1.9204968907383375e7 0.0
1.9204968907383375e7 -1.3764124341789681e7 0.0
0.0 0.0 0.0

2.7909261225565173e7 2.0215645165875528e7 0.0
2.0215645165875528e7 1.0513855383840144e7 0.0
0.0 0.0 0.0

-8.047511799235415e6 2.711703404884098e7 0.0
2.711703404884098e7 6.303486942332128e6 0.0
0.0 0.0 0.0

3.2602713007439077e6 4.51462616490565e6 0.0
4.51462616490565e6 -3.533846383967959e7 0.0
0.0 0.0 0.0

-3.311776889016273e6 1.8061612517892614e7 0.0
1.8061612517892614e7 6.000961352150813e6 0.0
0.0 0.0 0.0

1.3866012282204375e7 2.023000910414044e7 0.0
2.023000910414044e7 7.4069734820114225e6 0.0
0.0 0.0 0.0

3.618295547803775e7 1.849265619929038e7 0.0
1.849265619929038e7 7.812601424552619e6 0.0
0.0 0.0 0.0

-5.027831211778651e6 3.0478668136511575e7 0.0
3.0478668136511575e7 4.457762734389179e6 0.0
0.0 0.0 0.0

381517.63914299104 1.846454467152268e7 0.0
1.846454467152268e7 -1.636250363544568e7 0.0
0.0 0.0 0.0

-1.098663246083086e7 9.943687559359977e6 0.0
9.943687559359977e6 1.9524786312148605e7 0.0
0.0 0.0 0.0

-9.686921137760365e6 507637.91208054876 0.0
507637.91208054876 3.635396054054999e7 0.0
0.0 0.0 0.0

1.6880187479977633e6 1.7160989902107704e7 0.0
1.7160989902107704e7 6.242695284423831e6 0.0
0.0 0.0 0.0

1.0989038162257627e7 1.756191363150821e7 0.0
1.756191363150821e7 9.528326541177522e6 0.0
0.0 0.0 0.0

-1.1018198246213295e7 3.598660980838995e6 0.0
3.598660980838995e6 2.8290880009401392e7 0.0
0.0 0.0 0.0

-2.9583393092011875e6 1.2340509173119772e7 0.0
1.2340509173119772e7 -1.9973153930677134e6 0.0
0.0 0.0 0.0

-3.529136842094099e6 1.9322813273933142e7 0.0
1.9322813273933142e7 -1.3013996515567157e7 0.0
0.0 0.0 0.0

-3.5703255468782615e6 1.6216091791532036e7 0.0
1.6216091791532036e7 -2.481260475854901e7 0.0
0.0 0.0 0.0

-532658.1876119832 2.841831505253388e7 0.0
2.841831505253388e7 -1.4036669335417897e6 0.0
0.0 0.0 0.0

3.4624385957073057e6 2.7552007184893034e7 0.0
2.7552007184893034e7 -4.8614138871680265e6 0.0
0.0 0.0 0.0

3.3117886831412343e6 3.626816132116725e7 0.0
3.626816132116725e7 -3.5450159386380054e6 0.0
0.0 0.0 0.0

-1.3271671201009389e7 3.5339899993460245e7 0.0
3.5339899993460245e7 6.394193543227867e6 0.0
0.0 0.0 0.0

6.621445079554784e6 1.8228655673497006e7 0.0
1.8228655673497006e7 2.524813763980726e7 0.0
0.0 0.0 0.0

-6.788502460700329e6 1.663005798184266e7 0.0
1.663005798184266e7 -6.818018505413623e7 0.0
0.0 0.0 0.0

-1.0586150977584284e7 -1.1637396007055377e6 0.0
-1.1637396007055377e6 2.0158218862398226e7 0.0
0.0 0.0 0.0

-8.441428327534823e6 1.5479746743330998e7 0.0
1.5479746743330998e7 -2.9423932167087138e7 0.0
0.0 0.0 0.0

-3.8004890341532975e6 1.4803301599217644e7 0.0
1.4803301599217644e7 -1.3103486302377563e7 0.0
0.0 0.0 0.0

5.120226666904755e6 1.8620853113759164e7 0.0
1.8620853113759164e7 2.4536039043618605e7 0.0
0.0 0.0 0.0

-8.013352444594428e6 1.7122084632614635e7 0.0
1.7122084632614635e7 -3.513789688435539e7 0.0
0.0 0.0 0.0

-6.122577196835753e6 1.5724509422424108e7 0.0
1.5724509422424108e7 -2.4882262629423715e7 0.0
0.0 0.0 0.0

1.5968637171744237e7 2.2191666875018477e7 0.0
2.2191666875018477e7 9.30118144695e6 0.0
0.0 0.0 0.0

-5.02767200855665e6 1.9779295418336112e7 0.0
1.9779295418336112e7 -1.2317851360486455e7 0.0
0.0 0.0 0.0

2.7309050983558856e6 8.976647227573568e6 0.0
8.976647227573568e6 -2.9665169006499585e7 0.0
0.0 0.0 0.0

1.0701844352120329e6 1.7231032990625884e7 0.0
1.7231032990625884e7 3.413168262110293e6 0.0
0.0 0.0 0.0

-8.5337443068933e6 2.3234245854972444e7 0.0
2.3234245854972444e7 -1.0472789320010882e7 0.0
0.0 0.0 0.0

3.7545013254279625e6 1.700412877584317e7 0.0
1.700412877584317e7 1.5570886523350174e7 0.0
0.0 0.0 0.0

3.3843951742764013e6 4.108560829549997e6 0.0
4.108560829549997e6 -1.4640567689168323e7 0.0
0.0 0.0 0.0

-2.4854112581748907e6 2.5256212970928494e7 0.0
2.5256212970928494e7 479031.8432278662 0.0
0.0 0.0 0.0

-3.647578067741268e6 2.864702184255991e7 0.0
2.864702184255991e7 2.5964852201713044e6 0.0
0.0 0.0 0.0

-9.191589711501757e6 1.5109439580726048e7 0.0
1.5109439580726048e7 2.952204362575573e7 0.0
0.0 0.0 0.0

1.5448055310091507e6 1.8318406316875283e7 0.0
1.8318406316875283e7 8.298739009698693e6 0.0
0.0 0.0 0.0

3.559031589075482e6 2.035432942065914e7 0.0
2.035432942065914e7 1.4696448202157203e7 0.0
0.0 0.0 0.0

-3.6328741198877944e6 3.1995906889007874e7 0.0
3.1995906889007874e7 2.9880249885497484e6 0.0
0.0 0.0 0.0

-4.752078004880284e6 1.958205766344756e7 0.0
1.958205766344756e7 1.572701953962557e7 0.0
0.0 0.0 0.0

-1.0187309187683435e7 -2.4593228394045765e6 0.0
-2.4593228394045765e6 2.350838700238682e7 0.0
0.0 0.0 0.0

-3.252461885259386e6 2.8544557953227226e7 0.0
2.8544557953227226e7 3.862022860493689e6 0.0
0.0 0.0 0.0

-1.1644376540025088e6 2.4474693601103123e7 0.0
2.4474693601103123e7 -2.423796030293541e6 0.0
0.0 0.0 0.0

-3.574745099043626e6 1.9587692152101386e7 0.0
1.9587692152101386e7 2.571296879039319e6 0.0
0.0 0.0 0.0

41163.07105090842 2.8713524879395775e7 0.0
2.8713524879395775e7 -1.8808398180400133e6 0.0
0.0 0.0 0.0

725.725443776173 2.8176330541580983e7 0.0
2.8176330541580983e7 -1.5302025342350064e6 0.0
0.0 0.0 0.0

-1.870857017868582e6 1.860986789742476e7 0.0
1.860986789742476e7 -9.457807374638105e6 0.0
0.0 0.0 0.0

3.3086811131611234e6 1.859856270814828e7 0.0
1.859856270814828e7 1.102893765468507e7 0.0
0.0 0.0 0.0

2.4078350219366904e6 8.855092761614282e6 0.0
8.855092761614282e6 -2.7890955692089133e7 0.0
0.0 0.0 0.0

-1.1059754456116086e7 1.6434113852170391e7 0.0
1.6434113852170391e7 -4.199449212576774e7 0.0
0.0 0.0 0.0

-4.0747100201096726e6 2.110597776631452e7 0.0
2.110597776631452e7 3.244954989055939e6 0.0
0.0 0.0 0.0

-3.252443306001372e7 3.1526673997653164e7 0.0
3.1526673997653164e7 -1.1070492064318556e7 0.0
0.0 0.0 0.0

-6.555538810997402e6 1.665719466930196e7 0.0
1.665719466930196e7 -2.3698409917590763e7 0.0
0.0 0.0 0.0

-3.657338685863565e7 3.0874470709463038e7 0.0
3.0874470709463038e7 -5.309940494100349e6 0.0
0.0 0.0 0.0

-3.833394380627204e6 2.1732451829671033e7 0.0
2.1732451829671033e7 1.123341622685055e7 0.0
0.0 0.0 0.0

-8.584299586898837e6 -593106.7035742493 0.0
-593106.7035742493 4.209597145615595e7 0.0
0.0 0.0 0.0

2.0779560483070333e6 2.6904121218738176e7 0.0
2.6904121218738176e7 -4.572211263272519e6 0.0
0.0 0.0 0.0

-1.3969465785063839e7 2.488869133059949e7 0.0
2.488869133059949e7 -9.464004575146707e6 0.0
0.0 0.0 0.0

247862.3132229941 1.90182455576226e7 0.0
1.90182455576226e7 -1.4921816284672622e7 0.0
0.0 0.0 0.0

-1.0732189602047374e7 2.9567049451438244e7 0.0
2.9567049451438244e7 5.8646176127607515e6 0.0
0.0 0.0 0.0

-1.175565678454069e7 6.664220358228901e6 0.0
6.664220358228901e6 2.267006222900231e7 0.0
0.0 0.0 0.0

1.7975002088518105e6 9.810143910384564e6 0.0
9.810143910384564e6 -3.478945251895741e7 0.0
0.0 0.0 0.0

-1.4117553109984692e7 2.93008579828549e7 0.0
2.93008579828549e7 5.768415016457801e6 0.0
0.0 0.0 0.0

1.157662636204944e6 1.7901761217934094e7 0.0
1.7901761217934094e7 5.254833538227795e6 0.0
0.0 0.0 0.0

-1.2260035393309582e7 8.579785359114025e6 0.0
8.579785359114025e6 1.785160063137586e7 0.0
0.0 0.0 0.0

-730825.2504915223 1.7509124357654735e7 0.0
1.7509124357654735e7 -1.1046485102535205e7 0.0
0.0 0.0 0.0

1.9404097562132478e6 2.5591835791825593e7 0.0
2.5591835791825593e7 -5.375426794356317e6 0.0
0.0 0.0 0.0

-2.505255915369738e7 1.1685530024575237e7 0.0
1.1685530024575237e7 8.69153855482132e6 0.0
0.0 0.0 0.0

-5.837449917205257e6 2.7241334283438098e7 0.0
2.7241334283438098e7 6.388833220115705e6 0.0
0.0 0.0 0.0

-200152.9579639705 1.8166563801084828e7 0.0
1.8166563801084828e7 -1.7392782268078867e7 0.0
0.0 0.0 0.0

2.459479502404444e6 9.09893589020773e6 0.0
9.09893589020773e6 -2.476172667931721e7 0.0
0.0 0.0 0.0

170823.77541971696 4.81010989348733e6 0.0
4.81010989348733e6 -4.330011813357321e6 0.0
0.0 0.0 0.0

977885.6399138086 1.6361894793646289e7 0.0
1.6361894793646289e7 -1.9077396418100018e7 0.0
0.0 0.0 0.0

-1.990932259885084e7 2.4902665816919215e7 0.0
2.4902665816919215e7 -3.9233929931380665e6 0.0
0.0 0.0 0.0

5.533272183003744e6 3.598743598237588e7 0.0
3.598743598237588e7 -2.8271444936191654e6 0.0
0.0 0.0 0.0

414047.50119917095 1.820991168104349e7 0.0
1.820991168104349e7 2.8859429784800787e7 0.0
0.0 0.0 0.0

2.4129940155223487e6 1.8717183097086664e7 0.0
1.8717183097086664e7 1.0172558278202139e7 0.0
0.0 0.0 0.0

6.871408402644992e6 1.6366188490120709e7 0.0
1.6366188490120709e7 2.4490883981813356e7 0.0
0.0 0.0 0.0

-3.6595210618567043e6 1.8376519185005788e7 0.0
1.8376519185005788e7 -1.219840381965012e7 0.0
0.0 0.0 0.0

-9.302298918557556e6 1.4675022947843997e7 0.0
1.4675022947843997e7 3.0226055312023655e7 0.0
0.0 0.0 0.0

-2.6766679704437368e6 1.6751219256211547e7 0.0
1.6751219256211547e7 -1.305870990699625e7 0.0
0.0 0.0 0.0

-2.4985160807773225e7 3.248518634959104e7 0.0
3.248518634959104e7 8.064885800144989e6 0.0
0.0 0.0 0.0

-1.0215236645468755e7 3.659080683608706e6 0.0
3.659080683608706e6 3.400456192567902e7 0.0
0.0 0.0 0.0

-8.565872271498661e6 -593988.1214149405 0.0
-593988.1214149405 4.274173778937739e7 0.0
0.0 0.0 0.0

772781.4329641229 1.275944537487027e7 0.0
1.275944537487027e7 -1.4955909790553514e7 0.0
0.0 0.0 0.0

274771.9155544653 3.0608683528924207e6 0.0
3.0608683528924207e6 90604.44265239617 0.0
0.0 0.0 0.0

854200.1992751639 9.532057939994361e6 0.0
9.532057939994361e6 -4.351744926023596e7 0.0
0.0 0.0 0.0

-8.971485108807836e6 1.2041671582895625e7 0.0
1.2041671582895625e7 3.630407018190096e7 0.0
0.0 0.0 0.0

575089.8157804646 1.1895093696867153e7 0.0
1.1895093696867153e7 -3.3923398413824484e7 0.0
0.0 0.0 0.0

-9.861533912081202e6 -406140.94122617535 0.0
-406140.94122617535 2.8031886945828453e7 0.0
0.0 0.0 0.0

-3.207438086566328e6 2.6194381457080748e7 0.0
2.6194381457080748e7 3.0124189773687017e6 0.0
0.0 0.0 0.0

2.6415426177746253e6 2.6044600920900486e7 0.0
2.6044600920900486e7 -5.262706141545127e6 0.0
0.0 0.0 0.0

-3.567903215507812e6 3.009397224254742e7 0.0
3.009397224254742e7 1.9937459051962392e6 0.0
0.0 0.0 0.0

2.9154056842411e6 3.505014842805124e7 0.0
3.505014842805124e7 -2.0908707424402572e6 0.0
0.0 0.0 0.0

872158.587146678 3.1726053945641838e7 0.0
3.1726053945641838e7 -2.0968267820800557e6 0.0
0.0 0.0 0.0

-9.740197923262144e6 440994.3834297533 0.0
440994.3834297533 3.491307379930715e7 0.0
0.0 0.0 0.0

2.813412687899351e6 4.867915670513417e6 0.0
4.867915670513417e6 -3.7882187807497896e7 0.0
0.0 0.0 0.0

482098.96942690806 1.9661517742903538e7 0.0
1.9661517742903538e7 -1.1074831863190172e7 0.0
0.0 0.0 0.0

-158639.1936522508 2.11102420118153e7 0.0
2.11102420118153e7 -8.756434231732687e6 0.0
0.0 0.0 0.0

2.191578786339009e6 1.158192400692315e7 0.0
1.158192400692315e7 -2.0625501380451962e7 0.0
0.0 0.0 0.0

-5.75479691798165e6 1.4932997167590799e7 0.0
1.4932997167590799e7 -1.9387416473937273e7 0.0
0.0 0.0 0.0

1.3523476145870222e6 1.6336032649141612e7 0.0
1.6336032649141612e7 4.507825398244639e6 0.0
0.0 0.0 0.0

-3.716787656614426e6 2.326747453108279e7 0.0
2.326747453108279e7 8.27524960535676e6 0.0
0.0 0.0 0.0

-8.661044897470867e6 2.7982645251332447e7 0.0
2.7982645251332447e7 5.838122066118506e6 0.0
0.0 0.0 0.0

-2.107748443591281e6 1.6695059297105739e7 0.0
1.6695059297105739e7 -7.111752006006656e6 0.0
0.0 0.0 0.0

-1.3306339878656715e6 1.2447046043704739e7 0.0
1.2447046043704739e7 -2.5041793696326753e6 0.0
0.0 0.0 0.0

3.5365871922481153e6 3.4144330077840034e6 0.0
3.4144330077840034e6 -3.045249779487329e7 0.0
0.0 0.0 0.0

2.0847787534062015e6 1.935176456759363e7 0.0
1.935176456759363e7 -5.942869788049949e6 0.0
0.0 0.0 0.0

2.309353385605462e6 9.465432096783701e6 0.0
9.465432096783701e6 -2.655327307022949e7 0.0
0.0 0.0 0.0

-3.238110880501511e6 8.017604306790092e6 0.0
8.017604306790092e6 106266.58982052538 0.0
0.0 0.0 0.0

-1.5821069866729463e6 1.1220861781300386e7 0.0
1.1220861781300386e7 -4.956763249820168e6 0.0
0.0 0.0 0.0

-2.282597973292517e6 3.2250841889369343e6 0.0
3.2250841889369343e6 334593.68955743604 0.0
0.0 0.0 0.0

-2.486058890362771e6 2.3969905584222615e7 0.0
2.3969905584222615e7 3.321250611830835e6 0.0
0.0 0.0 0.0

1567.7204480674118 1.690863573617845e7 0.0
1.690863573617845e7 -2.0340666659807887e7 0.0
0.0 0.0 0.0

110252.26613860391 9.222890348210359e6 0.0
9.222890348210359e6 -5.0250828607958436e7 0.0
0.0 0.0 0.0

-6.55567308049774e6 2.1426146235217147e7 0.0
2.1426146235217147e7 -5.836781434057479e6 0.0
0.0 0.0 0.0

-2.3648786889746096e7 2.8484411950604197e7 0.0
2.8484411950604197e7 -1.0994430283237401e7 0.0
0.0 0.0 0.0

-1.8307503116267476e7 2.856828626509441e7 0.0
2.856828626509441e7 5.293031334081027e6 0.0
0.0 0.0 0.0

-9.568644972131146e6 2.391533064626413e7 0.0
2.391533064626413e7 -9.929294911224972e6 0.0
0.0 0.0 0.0

-3.9222716839206237e6 1.5421003151743034e7 0.0
1.5421003151743034e7 -3.335346086687243e7 0.0
0.0 0.0 0.0

-7.376546693029228e6 1.6137962934436215e7 0.0
1.6137962934436215e7 -2.4588489872170743e7 0.0
0.0 0.0 0.0

-1.817329521454627e7 2.6241844478710283e7 0.0
2.6241844478710283e7 -9.707209336506173e6 0.0
0.0 0.0 0.0

-1.0603891516161501e7 1.697843911062496e7 0.0
1.697843911062496e7 -3.534630624603592e7 0.0
0.0 0.0 0.0

-7.328620603102325e6 1.867225600869844e7 0.0
1.867225600869844e7 2.095277764289259e7 0.0
0.0 0.0 0.0

-1.0794525300618976e7 -329878.5130339885 0.0
-329878.5130339885 1.868782487879388e7 0.0
0.0 0.0 0.0

-1.155074520890809e6 2.412872544877797e7 0.0
2.412872544877797e7 -3.8982282190640676e6 0.0
0.0 0.0 0.0

-4.531058443905691e6 2.088506439906454e7 0.0
2.088506439906454e7 1.3035974988440728e7 0.0
0.0 0.0 0.0

-1.0562377377862645e7 -1.2084410562477524e6 0.0
-1.2084410562477524e6 2.4158443432754382e7 0.0
0.0 0.0 0.0

1.067458565486174e6 1.3824212238550406e7 0.0
1.3824212238550406e7 -2.5580610092100814e7 0.0
0.0 0.0 0.0

-2.3602749662524015e6 2.478897200162063e7 0.0
2.478897200162063e7 -460190.6000364729 0.0
0.0 0.0 0.0

432252.41994939966 1.6981670154197007e7 0.0
1.6981670154197007e7 -1.5196897705689245e6 0.0
0.0 0.0 0.0

-4.166318842638267e6 2.578976553749653e7 0.0
2.578976553749653e7 5.828063226483715e6 0.0
0.0 0.0 0.0

-1.6690981360329885e7 2.654349563330136e7 0.0
2.654349563330136e7 -1.0652760590167608e7 0.0
0.0 0.0 0.0

-8.332263948842878e6 1.642449641452143e7 0.0
1.642449641452143e7 -2.77742136851909e7 0.0
0.0 0.0 0.0

3.7349603936525667e6 2.014328212347097e7 0.0
2.014328212347097e7 1.5796644513125481e7 0.0
0.0 0.0 0.0

-2.7733337967052598e7 2.8913828825046055e7 0.0
2.8913828825046055e7 4.449084664155219e6 0.0
0.0 0.0 0.0

-1.0510641994689379e7 8.787250552773457e6 0.0
8.787250552773457e6 1.879552592310919e7 0.0
0.0 0.0 0.0

-8.26786156941339e6 9.572653599610224e6 0.0
9.572653599610224e6 4.539565097850734e7 0.0
0.0 0.0 0.0

-1.9702987925240607e6 1.8710428026799742e7 0.0
1.8710428026799742e7 -9.35674476029798e6 0.0
0.0 0.0 0.0

2.358876128248264e6 3.1478644029051088e7 0.0
3.1478644029051088e7 -3.0401369249881115e6 0.0
0.0 0.0 0.0

6.902096283601057e6 1.7155565145726424e7 0.0
1.7155565145726424e7 2.3006987896227557e7 0.0
0.0 0.0 0.0

2.161838561965452e7 1.9233762131887224e7 0.0
1.9233762131887224e7 4.786670824793871e6 0.0
0.0 0.0 0.0

-1.2848451942424968e7 2.5085609297535647e7 0.0
2.5085609297535647e7 -1.0330658313828627e7 0.0
0.0 0.0 0.0

3.7238198395789703e6 2.9239466719516512e7 0.0
2.9239466719516512e7 -4.401532117708016e6 0.0
0.0 0.0 0.0

9.40083054713864e6 1.6991992828949116e7 0.0
1.6991992828949116e7 3.603249542434888e7 0.0
0.0 0.0 0.0

2.1908100819626264e6 6.692650167290014e6 0.0
6.692650167290014e6 -4.848435370492817e7 0.0
0.0 0.0 0.0

-5.601452450003469e6 2.6435323922154855e7 0.0
2.6435323922154855e7 6.9932931403013505e6 0.0
0.0 0.0 0.0

641487.5101583162 1.5740006952945694e7 0.0
1.5740006952945694e7 125621.48100632538 0.0
0.0 0.0 0.0

-1.1967824004982125e7 1.7614089034163836e7 0.0
1.7614089034163836e7 -3.989274836379964e7 0.0
0.0 0.0 0.0

-5.369993976408e6 2.1616733915938247e7 0.0
2.1616733915938247e7 -2.1436356204448035e6 0.0
0.0 0.0 0.0

3.159227396728931e6 3.115618749259343e6 0.0
3.115618749259343e6 -4.162857407315378e7 0.0
0.0 0.0 0.0

-948379.8983613481 1.9989944229548685e7 0.0
1.9989944229548685e7 -9.096691874636546e6 0.0
0.0 0.0 0.0

2.9407458617792204e6 2.1978634415608075e7 0.0
2.1978634415608075e7 -7.625057716427068e6 0.0
0.0 0.0 0.0

2.0630195617833685e7 2.2117986269771162e7 0.0
2.2117986269771162e7 -275558.29369113967 0.0
0.0 0.0 0.0

-8.769308988269817e6 1.7329569500940617e7 0.0
1.7329569500940617e7 2.14199116678795e7 0.0
0.0 0.0 0.0

-2.081379208006393e6 1.5429844636040626e7 0.0
1.5429844636040626e7 -5.5675494715335015e6 0.0
0.0 0.0 0.0

-7.812527028363092e6 2.2613996043324128e7 0.0
2.2613996043324128e7 -9.94214033042567e6 0.0
0.0 0.0 0.0

-1.4906638554322275e6 2.432411121780124e7 0.0
2.432411121780124e7 -3.4064999248610307e6 0.0
0.0 0.0 0.0

-8.540664474521939e6 1.991011021674824e6 0.0
1.991011021674824e6 4.53489949754404e7 0.0
0.0 0.0 0.0

-1.7890787554716314e6 1.7023273714626174e7 0.0
1.7023273714626174e7 -8.495919386022605e6 0.0
0.0 0.0 0.0

-1.0010678559434637e7 2.8393020705444857e7 0.0
2.8393020705444857e7 6.011667704912164e6 0.0
0.0 0.0 0.0

1.4487551415912276e6 8.461082296752151e6 0.0
8.461082296752151e6 -1.2442715153693844e7 0.0
0.0 0.0 0.0

8.680640929931141e6 1.9867800063228544e7 0.0
1.9867800063228544e7 1.2258974778432082e7 0.0
0.0 0.0 0.0

-4.211890444414527e7 3.010782374049739e7 0.0
3.010782374049739e7 5.017818342764674e6 0.0
0.0 0.0 0.0

2.451308160024289e6 1.5507322106013343e7 0.0
1.5507322106013343e7 8.550531677853603e6 0.0
0.0 0.0 0.0

3.377421365056969e6 6.9353054675823655e6 0.0
6.9353054675823655e6 -1.6196829123336716e7 0.0
0.0 0.0 0.0

3.1716007618711637e6 1.9446514821231812e7 0.0
1.9446514821231812e7 1.8380418202422112e7 0.0
0.0 0.0 0.0

734530.3375546141 2.3740940794254325e7 0.0
2.3740940794254325e7 -6.859316094822916e6 0.0
0.0 0.0 0.0

1.7734654272996888e7 2.9461055812075105e7 0.0
2.9461055812075105e7 -6.238942276277045e6 0.0
0.0 0.0 0.0

-3.4433535047615e6 1.5720171459577141e7 0.0
1.5720171459577141e7 -1.1477845411847023e7 0.0
0.0 0.0 0.0

-3.8619402809025873e6 1.6405099647961274e7 0.0
1.6405099647961274e7 7.7652015076506995e6 0.0
0.0 0.0 0.0

852370.6260532085 8.557025443558367e6 0.0
8.557025443558367e6 -1.057648744662777e7 0.0
0.0 0.0 0.0

-4.238703832284937e6 1.733111942623845e7 0.0
1.733111942623845e7 -2.340496516495005e7 0.0
0.0 0.0 0.0

-159903.6755383322 2.027559147741274e7 0.0
2.027559147741274e7 -9.468833950997686e6 0.0
0.0 0.0 0.0

1.4733508192105101e7 2.2714405185212273e7 0.0
2.2714405185212273e7 1.1799486106681133e7 0.0
0.0 0.0 0.0

-6.560337552727362e6 2.1919528758558787e7 0.0
2.1919528758558787e7 -1.0235812693145147e7 0.0
0.0 0.0 0.0

2.507141012815519e6 2.185151071031493e7 0.0
2.185151071031493e7 -7.134068610760661e6 0.0
0.0 0.0 0.0

-8.016094370036999e6 3.3122734913601405e6 0.0
3.3122734913601405e6 1.1399453465237608e7 0.0
0.0 0.0 0.0

-697524.3293464817 6.900090104048376e6 0.0
6.900090104048376e6 803355.9520750579 0.0
0.0 0.0 0.0

8.68712664532024e6 2.1379262246381115e7 0.0
2.1379262246381115e7 -2.1688845402294453e6 0.0
0.0 0.0 0.0

2.0008541373998309e6 1.636261980817467e7 0.0
1.636261980817467e7 7.346005096303237e6 0.0
0.0 0.0 0.0

4.930891198951837e7 2.0710685123874806e7 0.0
2.0710685123874806e7 1.2094391981943281e7 0.0
0.0 0.0 0.0

-1.0408299389885595e7 -966183.6845592306 0.0
-966183.6845592306 2.7075548398751922e7 0.0
0.0 0.0 0.0

-1.5959756976471676e7 2.4876323110985145e7 0.0
2.4876323110985145e7 -7.432784841696031e6 0.0
0.0 0.0 0.0

-1.3567646605476987e7 2.3424972702207763e7 0.0
2.3424972702207763e7 -4.43495421762817e6 0.0
0.0 0.0 0.0

-3.0621279886381384e7 2.6277367933396347e7 0.0
2.6277367933396347e7 -1.0367548735143105e7 0.0
0.0 0.0 0.0

3.3443622625755824e7 5.845324725713281e6 0.0
5.845324725713281e6 -2.12108078045197e6 0.0
0.0 0.0 0.0

-6.936107210960019e6 8.480936852718612e6 0.0
8.480936852718612e6 5.2960805409894995e7 0.0
0.0 0.0 0.0

-1.5943134334919793e6 1.1798230094711542e7 0.0
1.1798230094711542e7 -1.1395644268506966e6 0.0
0.0 0.0 0.0

-1.5037125654833045e7 2.4286552423397426e7 0.0
2.4286552423397426e7 -1.0096354086962052e7 0.0
0.0 0.0 0.0

-4.1435260757319727e6 2.5978302928250276e7 0.0
2.5978302928250276e7 6.925935221638025e6 0.0
0.0 0.0 0.0

-601905.4214770705 1.9892274964083273e7 0.0
1.9892274964083273e7 -1.072038658898852e7 0.0
0.0 0.0 0.0

1.1118838236386767e6 1.3514225290321114e7 0.0
1.3514225290321114e7 -1.5961109970092978e7 0.0
0.0 0.0 0.0

-62064.08939245506 1.690057189719765e7 0.0
1.690057189719765e7 -5.689777690748308e6 0.0
0.0 0.0 0.0

-7.040574591195206e6 1.5168392345084183e7 0.0
1.5168392345084183e7 -2.5949829270776447e7 0.0
0.0 0.0 0.0

-8.975276150501873e6 1.7709183211956535e7 0.0
1.7709183211956535e7 -5.7536713626342066e7 0.0
0.0 0.0 0.0

1.1915632069600798e7 5.757071844247829e6 0.0
5.757071844247829e6 -2.2931974330814616e6 0.0
0.0 0.0 0.0

7.8385927056726e6 2.9932291474087793e7 0.0
2.9932291474087793e7 -5.2381171018250305e6 0.0
0.0 0.0 0.0

-5.451789539694767e6 1.593189554977401e7 0.0
1.593189554977401e7 -1.817263259949506e7 0.0
0.0 0.0 0.0

1.6360640298451485e7 1.6610174626765473e7 0.0
1.6610174626765473e7 4.243614434533475e6 0.0
0.0 0.0 0.0

-407115.9636556036 1.7672574447060026e7 0.0
1.7672574447060026e7 -7.033506116212739e6 0.0
0.0 0.0 0.0

-1.0422662885744435e6 2.3729728075980626e7 0.0
2.3729728075980626e7 -3.6455817121814764e6 0.0
0.0 0.0 0.0

-3.9948865434449837e6 1.6986183471358515e7 0.0
1.6986183471358515e7 -1.5494733337543588e7 0.0
0.0 0.0 0.0

-1.859943220718416e7 1.877042639391852e7 0.0
1.877042639391852e7 4.412948761337355e6 0.0
0.0 0.0 0.0

-7.997457151300036e6 -3.650296723558458e6 0.0
-3.650296723558458e6 1.3038166458235946e7 0.0
0.0 0.0 0.0

-7.012614288617721e6 1.8156390069653735e7 0.0
1.8156390069653735e7 2.0649661337926984e7 0.0
0.0 0.0 0.0

-510660.05162595224 1.6606312396006383e7 0.0
1.6606312396006383e7 2.0899161990430611e6 0.0
0.0 0.0 0.0

-5.803537790491374e6 1.768668611118469e7 0.0
1.768668611118469e7 -1.590208064533875e7 0.0
0.0 0.0 0.0

-756549.0349086216 1.7983299774270706e7 0.0
1.7983299774270706e7 -7.625858269814684e6 0.0
0.0 0.0 0.0

-2.5961114568006922e6 1.2939583305211296e7 0.0
1.2939583305211296e7 -3.2804329683693694e6 0.0
0.0 0.0 0.0

2.405166282123978e7 2.1835937542645913e7 0.0
2.1835937542645913e7 -860785.5670937384 0.0
0.0 0.0 0.0

-9.860223414073404e6 3.1046863571859304e7 0.0
3.1046863571859304e7 5.955322909755347e6 0.0
0.0 0.0 0.0

5.234971282879464e6 2.272748969149792e7 0.0
2.272748969149792e7 -5.512719791963436e6 0.0
0.0 0.0 0.0

-4.2422840826463485e6 2.0508548376081e7 0.0
2.0508548376081e7 -3.549684807601238e6 0.0
0.0 0.0 0.0

-2.623773266728297e6 3.046338236725745e7 0.0
3.046338236725745e7 2.5726460758414e6 0.0
0.0 0.0 0.0

-6.368192756509696e6 1.9307781244670108e7 0.0
1.9307781244670108e7 1.7825444066070095e7 0.0
0.0 0.0 0.0

1.3265671229053205e6 7.849284364194795e6 0.0
7.849284364194795e6 -8.237566284362119e6 0.0
0.0 0.0 0.0

-1.475151472870285e6 7.348241866530512e6 0.0
7.348241866530512e6 1.1583181326329857e6 0.0
0.0 0.0 0.0

-9.797474564292407e6 1.5964968914630797e7 0.0
1.5964968914630797e7 -3.737429302431799e7 0.0
0.0 0.0 0.0

-3.2375424998592585e6 2.0429542615169518e7 0.0
2.0429542615169518e7 5.638467752464164e6 0.0
0.0 0.0 0.0

1.6705172223747578e6 5.28540830194491e6 0.0
5.28540830194491e6 -8.421482119813304e6 0.0
0.0 0.0 0.0

-5.049163242635945e7 3.099787256076485e7 0.0
3.099787256076485e7 -3.433240685796557e6 0.0
0.0 0.0 0.0

-197719.08292600885 8.660581404694732e6 0.0
8.660581404694732e6 -5.8267360168042794e7 0.0
0.0 0.0 0.0

-1.343838568667529e6 9.995763638484266e6 0.0
9.995763638484266e6 -4.99540493781684e6 0.0
0.0 0.0 0.0

-8.759220358668856e6 1.6542449736013064e7 0.0
1.6542449736013064e7 -4.002137114751749e7 0.0
0.0 0.0 0.0

3.096037976008389e6 4.559049548837556e6 0.0
4.559049548837556e6 -3.696975500865951e7 0.0
0.0 0.0 0.0

2.1992520695836514e7 3.2980480968397483e7 0.0
3.2980480968397483e7 -8.72283508487916e6 0.0
0.0 0.0 0.0

2.8770938285572287e6 9.71544567814905e6 0.0
9.71544567814905e6 -2.485884245574268e7 0.0
0.0 0.0 0.0

-6.935476772390893e6 1.2869670256549535e7 0.0
1.2869670256549535e7 4.169917051003486e7 0.0
0.0 0.0 0.0

-8.488519988901328e6 1.7597850078372616e7 0.0
1.7597850078372616e7 2.1792512808030017e7 0.0
0.0 0.0 0.0

-3.969624301200689e6 2.2481493670628823e7 0.0
2.2481493670628823e7 1.0675309548171734e7 0.0
0.0 0.0 0.0

-8.293248786264292e6 2.129697367734926e7 0.0
2.129697367734926e7 -8.145408094186928e6 0.0
0.0 0.0 0.0

-7.4035659992141165e6 1.822707053079695e7 0.0
1.822707053079695e7 2.247117236756114e7 0.0
0.0 0.0 0.0

-2.8942080776586877e6 2.3943695453452397e7 0.0
2.3943695453452397e7 1.8700046324449338e6 0.0
0.0 0.0 0.0

1.0183164258365113e7 1.825482495920498e7 0.0
1.825482495920498e7 3.394388221833054e7 0.0
0.0 0.0 0.0

-1.0097429303262273e7 -809712.14855112 0.0
-809712.14855112 1.594809283758656e7 0.0
0.0 0.0 0.0

597722.7168133669 1.9491007541277584e7 0.0
1.9491007541277584e7 -1.3377700683613786e7 0.0
0.0 0.0 0.0

-2.9006768218314797e6 1.2210737542927334e7 0.0
1.2210737542927334e7 -6.538536764597499e7 0.0
0.0 0.0 0.0

-8.551282279386763e6 3.2569188634857118e7 0.0
3.2569188634857118e7 5.729743285593253e6 0.0
0.0 0.0 0.0

2.3880622853235416e6 2.523739171026145e7 0.0
2.523739171026145e7 -6.14553167980665e6 0.0
0.0 0.0 0.0

2.6545339813854164e6 1.9908219978332896e7 0.0
1.9908219978332896e7 2.2700078490559394e6 0.0
0.0 0.0 0.0

-8.36256306225731e6 1.751398912895901e7 0.0
1.751398912895901e7 2.311765916820068e7 0.0
0.0 0.0 0.0

-1.962830609584761e7 3.2927319524087112e7 0.0
3.2927319524087112e7 6.854356158818811e6 0.0
0.0 0.0 0.0

859886.0266977656 2.178249047585448e7 0.0
2.178249047585448e7 -9.643726938458245e6 0.0
0.0 0.0 0.0

-4.1685424249550337e6 1.5969178048723668e7 0.0
1.5969178048723668e7 -2.9957775702708848e7 0.0
0.0 0.0 0.0

-1.4803733098910784e7 3.482738517170846e7 0.0
3.482738517170846e7 5.6307247310039e6 0.0
0.0 0.0 0.0

3.1225624003693487e7 3.035366609397971e7 0.0
3.035366609397971e7 -9.885591101859953e6 0.0
0.0 0.0 0.0

1.968269375202869e6 1.895645996218959e7 0.0
1.895645996218959e7 3.5189534314183188e6 0.0
0.0 0.0 0.0

2.079525355433314e6 1.1456196467575347e7 0.0
1.1456196467575347e7 -2.223981588733638e7 0.0
0.0 0.0 0.0

-1.1106146386789422e7 1.8259145472702697e7 0.0
1.8259145472702697e7 -4.372498711586898e7 0.0
0.0 0.0 0.0

1.396452670179153e7 2.9692337320925966e7 0.0
2.9692337320925966e7 -5.963249579457009e6 0.0
0.0 0.0 0.0

-484762.20034889923 1.8078631297352582e7 0.0
1.8078631297352582e7 -1.3756778068357842e7 0.0
0.0 0.0 0.0

-52479.707700382685 2.7560014639583938e7 0.0
2.7560014639583938e7 -2.951518083542534e6 0.0
0.0 0.0 0.0

-1.6673934489909597e6 1.1319252192192787e7 0.0
1.1319252192192787e7 -5.4724040097568005e7 0.0
0.0 0.0 0.0

974254.4101691945 1.8349011296405885e7 0.0
1.8349011296405885e7 7.453359476091182e6 0.0
0.0 0.0 0.0

-2.3655038779463835e7 3.0121232822464373e7 0.0
3.0121232822464373e7 6.570991565327238e6 0.0
0.0 0.0 0.0

-2.326073000883137e6 2.437732710214195e7 0.0
2.437732710214195e7 2.496980003736274e6 0.0
0.0 0.0 0.0

2.163078448705052e7 1.9720800979132026e7 0.0
1.9720800979132026e7 7.708454954868497e6 0.0
0.0 0.0 0.0

-3.360655789478403e6 3.115141539706206e7 0.0
3.115141539706206e7 1.50190358342679e6 0.0
0.0 0.0 0.0

2.7615830780713316e6 1.8222085178699438e7 0.0
1.8222085178699438e7 1.1855753063796632e7 0.0
0.0 0.0 0.0

-947348.3148858412 3.238344964639211e6 0.0
3.238344964639211e6 -1.2419544726392815e6 0.0
0.0 0.0 0.0

8.280661637304181e6 3.1618794739018135e7 0.0
3.1618794739018135e7 -4.399670695466137e6 0.0
0.0 0.0 0.0

-34471.98370599281 1.7589789760568254e7 0.0
1.7589789760568254e7 -1.894605708987565e7 0.0
0.0 0.0 0.0

2.856390084721945e6 3.7072282058977843e6 0.0
3.7072282058977843e6 -4.6043096267493054e7 0.0
0.0 0.0 0.0

-180083.25176224345 1.0974493551769566e7 0.0
1.0974493551769566e7 -7.089826124530007e6 0.0
0.0 0.0 0.0

1.8000689972630595e6 6.502023031016707e6 0.0
6.502023031016707e6 -8.601549169609927e6 0.0
0.0 0.0 0.0

1.1542656721407995e6 1.4334390191484151e7 0.0
1.4334390191484151e7 -1.5831368995609814e7 0.0
0.0 0.0 0.0

-2.0573605300873477e7 2.838039977705707e7 0.0
2.838039977705707e7 5.561497226532221e6 0.0
0.0 0.0 0.0

-2.6756380364884e6 2.050592269717373e7 0.0
2.050592269717373e7 3.1002263474220457e6 0.0
0.0 0.0 0.0

4.205006135693144e6 2.3084293416927144e7 0.0
2.3084293416927144e7 -6.064763859833781e6 0.0
0.0 0.0 0.0

3.234227062846707e6 5.800672772915752e6 0.0
5.800672772915752e6 -3.621183181829692e7 0.0
0.0 0.0 0.0

-408220.5371550536 1.9841040520566344e7 0.0
1.9841040520566344e7 -9.172627576131744e6 0.0
0.0 0.0 0.0

-102150.04786179587 1.6771304172156572e7 0.0
1.6771304172156572e7 -1.3770559385515913e7 0.0
0.0 0.0 0.0

-1.1803857974605141e7 2.332498643651974e7 0.0
2.332498643651974e7 -9.807193212993879e6 0.0
0.0 0.0 0.0

1.2389147328493588e7 2.750754272772914e7 0.0
2.750754272772914e7 -5.889276258721868e6 0.0
0.0 0.0 0.0

-4.683111913740173e6 2.3695597563457575e7 0.0
2.3695597563457575e7 9.993930193144046e6 0.0
0.0 0.0 0.0

2.3245669025099333e6 1.9089368431567907e7 0.0
1.9089368431567907e7 1.2080466033979107e7 0.0
0.0 0.0 0.0

3.033839623614114e6 1.7474808739471454e7 0.0
1.7474808739471454e7 6.909994714994788e7 0.0
0.0 0.0 0.0

-3.902554771295072e6 3.4460194394085005e7 0.0
3.4460194394085005e7 3.4364366000660504e6 0.0
0.0 0.0 0.0

951160.1764215971 1.9964408066026635e7 0.0
1.9964408066026635e7 -9.090300774580378e6 0.0
0.0 0.0 0.0

2.4372449258901943e6 1.0355856736337809e7 0.0
1.0355856736337809e7 -2.880283749018066e7 0.0
0.0 0.0 0.0

2.52389710588238e6 9.54567175846979e6 0.0
9.54567175846979e6 -3.034026486999602e7 0.0
0.0 0.0 0.0

4.1635686761341356e6 3.2907751543441014e6 0.0
3.2907751543441014e6 -2.5905133708057888e7 0.0
0.0 0.0 0.0

-3.3929829335862147e6 2.3012588489755463e7 0.0
2.3012588489755463e7 9.750032454487598e6 0.0
0.0 0.0 0.0

3.803987109373223e6 3.5466359918875974e6 0.0
3.5466359918875974e6 -2.584055560544619e7 0.0
0.0 0.0 0.0

-1.0541109646891829e7 2.320289576153754e6 0.0
2.320289576153754e6 3.2749046512282558e7 0.0
0.0 0.0 0.0

-4.058886768051382e6 2.093072898060418e7 0.0
2.093072898060418e7 1.5571124098826528e7 0.0
0.0 0.0 0.0

-1.9963516401540441e6 1.0517559025730839e7 0.0
1.0517559025730839e7 -3.6240194755926756e6 0.0
0.0 0.0 0.0

1.5972419290996315e6 2.577175254257662e7 0.0
2.577175254257662e7 -5.68192522290946e6 0.0
0.0 0.0 0.0

4.948783373015056e6 2.8797097922035873e7 0.0
2.8797097922035873e7 -3.9819959218252674e6 0.0
0.0 0.0 0.0

1.2868817858165004e6 1.5565838862020815e7 0.0
1.5565838862020815e7 3.072420268442257e6 0.0
0.0 0.0 0.0

-861612.3165584579 1.1433256332046997e7 0.0
1.1433256332046997e7 -4.704652631737235e7 0.0
0.0 0.0 0.0

3.371332881527735e6 4.2177085552585395e6 0.0
4.2177085552585395e6 -3.9726014674200006e7 0.0
0.0 0.0 0.0

-4.597673131110525e7 3.558182469007845e7 0.0
3.558182469007845e7 -9.747667378589649e6 0.0
0.0 0.0 0.0

2.1399364324184127e7 2.3231956642180026e7 0.0
2.3231956642180026e7 1.0499232860654693e7 0.0
0.0 0.0 0.0

3.840599487795123e6 2.83789458040036e7 0.0
2.83789458040036e7 -3.93713750938507e6 0.0
0.0 0.0 0.0

-880763.7548563303 1.876065766694155e7 0.0
1.876065766694155e7 1.770485217159943e7 0.0
0.0 0.0 0.0

981330.1696113454 1.7097524689583354e7 0.0
1.7097524689583354e7 3.380341195600309e6 0.0
0.0 0.0 0.0

-1.0123208892516142e7 7.285429262139493e6 0.0
7.285429262139493e6 3.819686568458404e7 0.0
0.0 0.0 0.0

-1.082985581952393e7 2.946569533288771e7 0.0
2.946569533288771e7 5.6862323418876305e6 0.0
0.0 0.0 0.0

-1.070695459614108e6 1.4231676579145905e7 0.0
1.4231676579145905e7 -8.756181000791138e6 0.0
0.0 0.0 0.0

-1.1080363418296803e7 979396.1178739226 0.0
979396.1178739226 2.5659786327621236e7 0.0
0.0 0.0 0.0

-1.14017386436487e6 1.2175584232924812e7 0.0
1.2175584232924812e7 8.371783646291175e7 0.0
0.0 0.0 0.0

583077.1836620034 2.00535710368139e7 0.0
2.00535710368139e7 -1.2416484601384766e7 0.0
0.0 0.0 0.0

2.6007735090793236e6 4.450401719672344e6 0.0
4.450401719672344e6 -9.056157124314588e6 0.0
0.0 0.0 0.0

-6.976228270215578e6 8.374571426724409e6 0.0
8.374571426724409e6 5.505427440969241e7 0.0
0.0 0.0 0.0

3.7683934502665903e6 3.4433888273536367e6 0.0
3.4433888273536367e6 -3.2641920555344995e7 0.0
0.0 0.0 0.0

-6.091412809010841e6 2.0944059313484482e7 0.0
2.0944059313484482e7 -1.1172849190696033e7 0.0
0.0 0.0 0.0

-1.9681521441407353e7 2.5279839959276125e7 0.0
2.5279839959276125e7 -1.038640067913416e7 0.0
0.0 0.0 0.0

22400.677316358313 1.8206851892394044e7 0.0
1.8206851892394044e7 -1.5965127916069862e7 0.0
0.0 0.0 0.0

-3.340825854467314e6 1.1286610478178333e7 0.0
1.1286610478178333e7 4.1024713236768567e6 0.0
0.0 0.0 0.0

-4.76142015547996e6 2.1377205927087788e7 0.0
2.1377205927087788e7 832532.0058340877 0.0
0.0 0.0 0.0

1.5891111879731344e7 2.6604286570431296e7 0.0
2.6604286570431296e7 -5.751104885040635e6 0.0
0.0 0.0 0.0

-7.707782376585868e6 -4.1182381664334936e6 0.0
-4.1182381664334936e6 1.5801103794710811e7 0.0
0.0 0.0 0.0

9.751541507802207e6 1.9756992502778325e7 0.0
1.9756992502778325e7 5.886603451426768e6 0.0
0.0 0.0 0.0

1.4994250251292033e7 3.437457375416825e7 0.0
3.437457375416825e7 -8.184463964818148e6 0.0
0.0 0.0 0.0

3.9841193758198526e6 3.5018802955503007e6 0.0
3.5018802955503007e6 -2.8984041591096967e7 0.0
0.0 0.0 0.0

-3.9402092815735945e6 1.8112290781141035e7 0.0
1.8112290781141035e7 3.9018068316851286e6 0.0
0.0 0.0 0.0

9.577538560300885e6 1.954174455731383e7 0.0
1.954174455731383e7 3.868461912556075e7 0.0
0.0 0.0 0.0

5.474492421649247e7 6.865747256330127e6 0.0
6.865747256330127e6 -1.059793584869396e6 0.0
0.0 0.0 0.0

-2.5896649733327318e7 2.7341553581268735e7 0.0
2.7341553581268735e7 -9.217356955833066e6 0.0
0.0 0.0 0.0

-3.049918455613955e6 2.357685928945067e7 0.0
2.357685928945067e7 2.7754360910665216e6 0.0
0.0 0.0 0.0

-424031.1520555299 1.1642357312226173e7 0.0
1.1642357312226173e7 -4.114612890624431e7 0.0
0.0 0.0 0.0

-1.5444519430772297e7 2.7910883825076673e7 0.0
2.7910883825076673e7 5.568458667789856e6 0.0
0.0 0.0 0.0

8.226986131362701e6 2.0197763056715995e7 0.0
2.0197763056715995e7 7.776693651016243e6 0.0
0.0 0.0 0.0

-4.311872945541076e6 8.062472690471486e6 0.0
8.062472690471486e6 6.699423504112515e7 0.0
0.0 0.0 0.0

-4.666114754107635e6 2.2239402059384737e7 0.0
2.2239402059384737e7 1.0793146987376291e7 0.0
0.0 0.0 0.0

2.93153517340076e6 1.7334268863459565e7 0.0
1.7334268863459565e7 1.5235752237904795e7 0.0
0.0 0.0 0.0

-877506.6672578603 1.8367415672843e7 0.0
1.8367415672843e7 -1.041934882418742e7 0.0
0.0 0.0 0.0

6.866289930052724e6 2.112947719548859e7 0.0
2.112947719548859e7 -1.8344697316143108e6 0.0
0.0 0.0 0.0

1.9038443213947797e6 2.05346595313804e7 0.0
2.05346595313804e7 -6.528516491245547e6 0.0
0.0 0.0 0.0

-2.8090353733968e6 1.4094527315363001e7 0.0
1.4094527315363001e7 -3.020233188951629e6 0.0
0.0 0.0 0.0

1.0350242297479631e6 1.854487507404562e7 0.0
1.854487507404562e7 2.0219348122032978e7 0.0
0.0 0.0 0.0

861545.7195308488 1.797048442179264e7 0.0
1.797048442179264e7 2.3870320562910177e6 0.0
0.0 0.0 0.0

198183.29994412372 1.7503843946960036e7 0.0
1.7503843946960036e7 -3.4702135387242986e6 0.0
0.0 0.0 0.0

-4.342610932012875e6 1.620432534968103e7 0.0
1.620432534968103e7 -2.633932657760965e7 0.0
0.0 0.0 0.0

-2.844406531185991e6 2.6097107764463782e7 0.0
2.6097107764463782e7 4.344699958477645e6 0.0
0.0 0.0 0.0

-1.7395455000693757e7 2.396119445375514e7 0.0
2.396119445375514e7 -9.885582681130603e6 0.0
0.0 0.0 0.0

-8.914764417373197e6 3.026218744393062e7 0.0
3.026218744393062e7 5.071889957977481e6 0.0
0.0 0.0 0.0

-1.360779730086619e6 1.9499980942417115e7 0.0
1.9499980942417115e7 1.2911802399400214e7 0.0
0.0 0.0 0.0

3.4887663301836643e6 6.295443410649255e6 0.0
6.295443410649255e6 -2.9195820876209706e7 0.0
0.0 0.0 0.0

400665.0706973877 1.9511659317785762e7 0.0
1.9511659317785762e7 -1.3329113210224645e7 0.0
0.0 0.0 0.0

1.295441567048236e7 2.731370113187354e7 0.0
2.731370113187354e7 -5.589807899575549e6 0.0
0.0 0.0 0.0

-1.0588450714837817e7 1.2525143622124752e6 0.0
1.2525143622124752e6 3.0104087157373507e7 0.0
0.0 0.0 0.0

-4.200538272485847e6 2.151807476830054e7 0.0
2.151807476830054e7 7.634612500047704e6 0.0
0.0 0.0 0.0

1.3455700898502793e6 1.9722071756944798e7 0.0
1.9722071756944798e7 1.8982610188596384e6 0.0
0.0 0.0 0.0

7.403116448000386e6 2.2093354882647246e7 0.0
2.2093354882647246e7 -3.496650720063079e6 0.0
0.0 0.0 0.0

-1.1303243801060058e7 7.3300453496573595e6 0.0
7.3300453496573595e6 2.8411070483538814e7 0.0
0.0 0.0 0.0

4.829548929492206e6 1.701020545626471e7 0.0
1.701020545626471e7 2.0638417290035017e7 0.0
0.0 0.0 0.0

-7.670630382765377e6 2.064455075990071e7 0.0
2.064455075990071e7 -1.0344659515057106e7 0.0
0.0 0.0 0.0

-113170.1949290447 1.596120814867748e7 0.0
1.596120814867748e7 -2.4180856035645984e7 0.0
0.0 0.0 0.0

7.28936654149792e6 3.3516411257752206e7 0.0
3.3516411257752206e7 -3.5003996270947163e6 0.0
0.0 0.0 0.0

-8.537320967777055e6 3.1301195657122318e7 0.0
3.1301195657122318e7 4.482473239282554e6 0.0
0.0 0.0 0.0

-1.1644491654760113e7 8.391634679761691e6 0.0
8.391634679761691e6 2.4789022793950498e7 0.0
0.0 0.0 0.0

-7.407033495740368e6 2.206845280608785e7 0.0
2.206845280608785e7 -6.00813573018264e6 0.0
0.0 0.0 0.0

-6.387910124449553e6 3.1584446323661886e7 0.0
3.1584446323661886e7 3.486969082070254e6 0.0
0.0 0.0 0.0

-7.016936153971424e6 3.0710430513810795e7 0.0
3.0710430513810795e7 4.1894697048391886e6 0.0
0.0 0.0 0.0

2.9483289537230507e6 1.6514234805559535e7 0.0
1.6514234805559535e7 1.2624847254303925e7 0.0
0.0 0.0 0.0

2.0498453922187546e6 1.2845603451486941e7 0.0
1.2845603451486941e7 -2.0189480599338833e7 0.0
0.0 0.0 0.0

4.869874451289277e7 3.0574840437346276e7 0.0
3.0574840437346276e7 2.0123039895019837e7 0.0
0.0 0.0 0.0

-3.610925533735337e7 2.584070727787862e6 0.0
2.584070727787862e6 7.596205192644851e6 0.0
0.0 0.0 0.0

-1.711968369989811e7 2.7178582184938643e7 0.0
2.7178582184938643e7 4.385611444140263e6 0.0
0.0 0.0 0.0

3.3433210878604148e6 3.26843039775501e6 0.0
3.26843039775501e6 -3.252697938520865e7 0.0
0.0 0.0 0.0

-429751.5471817143 1.9276133825505193e7 0.0
1.9276133825505193e7 -1.1859290906432286e7 0.0
0.0 0.0 0.0

-1.270196639562315e7 2.8255751998703558e7 0.0
2.8255751998703558e7 5.933224328273723e6 0.0
0.0 0.0 0.0

-1.116882774357242e7 4.820103005982814e6 0.0
4.820103005982814e6 3.1563989578383416e7 0.0
0.0 0.0 0.0

2.0341154343015347e6 1.0111887671786984e7 0.0
1.0111887671786984e7 -2.7045623574874066e7 0.0
0.0 0.0 0.0

-5.638546982536756e6 1.5739795233058484e7 0.0
1.5739795233058484e7 -2.1409946904021494e7 0.0
0.0 0.0 0.0

8.348922450547124e6 2.1140301112788368e7 0.0
2.1140301112788368e7 7.867796313489898e6 0.0
0.0 0.0 0.0

-3.511262853851435e7 2.928137385962474e7 0.0
2.928137385962474e7 -6.868896558013383e6 0.0
0.0 0.0 0.0

-4.0072189455482154e6 1.2366291466277694e7 0.0
1.2366291466277694e7 955803.2696422152 0.0
0.0 0.0 0.0

-9.62201595816819e6 2.7236120868958596e7 0.0
2.7236120868958596e7 6.0857057377360705e6 0.0
0.0 0.0 0.0

-2.375065896059888e6 2.700548211462328e7 0.0
2.700548211462328e7 2.8473311974511696e6 0.0
0.0 0.0 0.0

-8.106472690664135e6 5.758864503807763e6 0.0
5.758864503807763e6 1.8129539651016854e7 0.0
0.0 0.0 0.0

-8.545322214334644e6 -1.3986397228827842e6 0.0
-1.3986397228827842e6 1.6796215070793375e7 0.0
0.0 0.0 0.0

1.3263018336018417e6 1.3202885695811983e7 0.0
1.3202885695811983e7 -2.076711330838012e7 0.0
0.0 0.0 0.0

-1.0590835127594678e7 3.545357571492411e6 0.0
3.545357571492411e6 3.155820491314788e7 0.0
0.0 0.0 0.0

501386.48568513803 1.636339765522613e7 0.0
1.636339765522613e7 -1.9041188433494095e7 0.0
0.0 0.0 0.0

7.076960373430278e6 1.994987264365266e7 0.0
1.994987264365266e7 -461215.64419406 0.0
0.0 0.0 0.0

955074.4419665565 9.122097633390585e6 0.0
9.122097633390585e6 -1.135558025693466e7 0.0
0.0 0.0 0.0

-1.8096641769406952e7 2.7145620653537165e7 0.0
2.7145620653537165e7 4.410034105781034e6 0.0
0.0 0.0 0.0

-1.0409123473684922e7 2.3472535341104854e7 0.0
2.3472535341104854e7 -9.944804895163612e6 0.0
0.0 0.0 0.0

505763.87618686206 1.6493410046653746e7 0.0
1.6493410046653746e7 1.685880479212945e6 0.0
0.0 0.0 0.0

-436731.47141804965 1.6773548041834911e7 0.0
1.6773548041834911e7 -1.4557722328817241e6 0.0
0.0 0.0 0.0

1.8493670965355048e6 1.3498249556696763e7 0.0
1.3498249556696763e7 -1.910736535627123e7 0.0
0.0 0.0 0.0

-5.153866178556287e6 1.6382267443488935e7 0.0
1.6382267443488935e7 -2.099670701700371e7 0.0
0.0 0.0 0.0

-1.0977516697955478e7 209566.98072673776 0.0
209566.98072673776 2.287332988131862e7 0.0
0.0 0.0 0.0

-4.1176286565768546e6 1.357021341637766e7 0.0
1.357021341637766e7 6.749001126548102e6 0.0
0.0 0.0 0.0

927037.3957304615 2.1489118499066398e7 0.0
2.1489118499066398e7 -9.856443174330851e6 0.0
0.0 0.0 0.0

2.8695055503052697e6 7.17013582601862e6 0.0
7.17013582601862e6 -2.0784699125175983e7 0.0
0.0 0.0 0.0

-3.834771256496798e7 2.5761768707013186e7 0.0
2.5761768707013186e7 -3.688214479450291e6 0.0
0.0 0.0 0.0

5.35559254322464e6 2.091245149716571e7 0.0
2.091245149716571e7 -2.0410995231714693e6 0.0
0.0 0.0 0.0

2.1378327864350263e7 1.9481880772470325e7 0.0
1.9481880772470325e7 3.0945967177328337e6 0.0
0.0 0.0 0.0

-9.302972052038249e6 3.4830278416679114e7 0.0
3.4830278416679114e7 5.694942666171975e6 0.0
0.0 0.0 0.0

-1.072199533431732e7 3.1898226061152993e6 0.0
3.1898226061152993e6 2.0348912125198e7 0.0
0.0 0.0 0.0

-375883.26082344446 1.7358770368670702e7 0.0
1.7358770368670702e7 -1.2649070057769457e7 0.0
0.0 0.0 0.0

-9.109922107102843e6 2.192505638240765e7 0.0
2.192505638240765e7 -5.492710165635057e6 0.0
0.0 0.0 0.0

-1.9392703470419675e7 3.0473803136056468e7 0.0
3.0473803136056468e7 6.198828143210707e6 0.0
0.0 0.0 0.0

-6.545439221090909e6 1.7074705750084102e7 0.0
1.7074705750084102e7 -3.3167428791453045e7 0.0
0.0 0.0 0.0

1.5924740197246382e6 1.780070353082812e7 0.0
1.780070353082812e7 8.332638960997737e6 0.0
0.0 0.0 0.0

-4.230529676799252e6 1.6210683256724048e7 0.0
1.6210683256724048e7 -2.301877893119021e7 0.0
0.0 0.0 0.0

-1.4216092635997212e7 3.3154244087422196e7 0.0
3.3154244087422196e7 6.506466085047103e6 0.0
0.0 0.0 0.0

433541.7678926904 2.390767488692675e7 0.0
2.390767488692675e7 -7.111623401553066e6 0.0
0.0 0.0 0.0

-6.724407488456462e6 2.227477689256118e7 0.0
2.227477689256118e7 -610216.9286836958 0.0
0.0 0.0 0.0

2.0840278080693223e6 1.1070976712617144e7 0.0
1.1070976712617144e7 -2.928043657845124e7 0.0
0.0 0.0 0.0

-1.0273139687717633e7 7.241147931895077e6 0.0
7.241147931895077e6 3.594194046647631e7 0.0
0.0 0.0 0.0

-1.4871339913641661e6 1.743340099010923e7 0.0
1.743340099010923e7 -8.511206919244755e6 0.0
0.0 0.0 0.0

7.474373272864973e6 2.083545533923443e7 0.0
2.083545533923443e7 -2.2088243071431923e6 0.0
0.0 0.0 0.0

-5.44687513864161e6 1.7153268970085658e7 0.0
1.7153268970085658e7 -2.7824471040690728e7 0.0
0.0 0.0 0.0

-1.0424530051570842e7 2.70612591843982e7 0.0
2.70612591843982e7 5.797527144012136e6 0.0
0.0 0.0 0.0

2.388976263196807e7 3.2416385695296e7 0.0
3.2416385695296e7 -7.864546066003973e6 0.0
0.0 0.0 0.0

-6.177497179904826e6 2.177136920100139e7 0.0
2.177136920100139e7 -4.154988052355133e6 0.0
0.0 0.0 0.0

-1.0806817723776683e7 2.8278352365343936e7 0.0
2.8278352365343936e7 5.79443443497822e6 0.0
0.0 0.0 0.0

-7.438504612736243e6 1.840941784726448e7 0.0
1.840941784726448e7 1.9114997942240935e7 0.0
0.0 0.0 0.0

2.841265459364343e6 1.9879259123082254e7 0.0
1.9879259123082254e7 -5.400312690709712e6 0.0
0.0 0.0 0.0

-3.3137041381683643e6 2.6190521595014963e7 0.0
2.6190521595014963e7 5.127481930833213e6 0.0
0.0 0.0 0.0

-5.28190413391358e6 1.6063208428310694e7 0.0
1.6063208428310694e7 -3.176498622644434e7 0.0
0.0 0.0 0.0

3.257012688593218e6 4.995618724646463e6 0.0
4.995618724646463e6 -2.7894951387016274e7 0.0
0.0 0.0 0.0

-5.399274464447744e6 1.718260509886803e7 0.0
1.718260509886803e7 -2.4490750374261186e7 0.0
0.0 0.0 0.0

-4.401384597488412e6 2.8834324931808908e7 0.0
2.8834324931808908e7 3.420315283445064e6 0.0
0.0 0.0 0.0

-3.0139797954690857e6 1.8003732773981124e7 0.0
1.8003732773981124e7 -1.004659931428437e7 0.0
0.0 0.0 0.0

2.6316782561038407e6 1.79877989142588e7 0.0
1.79877989142588e7 8.772261377013808e6 0.0
0.0 0.0 0.0

-9.041361321267908e6 1.630837976683857e7 0.0
1.630837976683857e7 2.661459332062199e7 0.0
0.0 0.0 0.0

-1.628371786278769e6 1.3620555113287846e7 0.0
1.3620555113287846e7 -2.2687351000750195e6 0.0
0.0 0.0 0.0

1.065217295538197e7 1.7480905759253398e7 0.0
1.7480905759253398e7 4.1760926542308055e7 0.0
0.0 0.0 0.0

-1.0214290259155946e7 2.2738064546991126e6 0.0
2.2738064546991126e6 3.553397706528152e7 0.0
0.0 0.0 0.0

2.8389944581192564e6 4.34798516719218e6 0.0
4.34798516719218e6 -3.940215640391457e7 0.0
0.0 0.0 0.0

-3.472024737524012e6 1.718453722029946e7 0.0
1.718453722029946e7 -2.5249986953778412e7 0.0
0.0 0.0 0.0

-9.16333384819284e6 2.835191210600882e7 0.0
2.835191210600882e7 5.726030160059111e6 0.0
0.0 0.0 0.0

2.622416662057656e7 1.3450371993346436e7 0.0
1.3450371993346436e7 713258.3593587121 0.0
0.0 0.0 0.0

-1.1897425031003766e7 5.785586268823423e6 0.0
5.785586268823423e6 2.6603690112627327e7 0.0
0.0 0.0 0.0

-2.2005394450141158e7 2.8577792165033106e7 0.0
2.8577792165033106e7 -1.0487967123340618e7 0.0
0.0 0.0 0.0

-3.7763070248801936e6 2.0977754110553663e7 0.0
2.0977754110553663e7 7.920673511693909e6 0.0
0.0 0.0 0.0

-1.9097060113630302e7 3.3074009745820925e7 0.0
3.3074009745820925e7 7.071148585489519e6 0.0
0.0 0.0 0.0

2.6113589426150564e6 4.838373456285825e6 0.0
4.838373456285825e6 -4.0657883828159474e7 0.0
0.0 0.0 0.0

4.844718644937466e6 2.772682217877253e7 0.0
2.772682217877253e7 -4.613931215319045e6 0.0
0.0 0.0 0.0

-5.510981139854778e6 1.2419870938049402e7 0.0
1.2419870938049402e7 5.012292365288843e7 0.0
0.0 0.0 0.0

-3.553267690971965e6 2.5379548511253297e7 0.0
2.5379548511253297e7 7.138146819464584e6 0.0
0.0 0.0 0.0

-1.4539492254415397e6 1.6814577357679706e7 0.0
1.6814577357679706e7 -6.117232644874415e6 0.0
0.0 0.0 0.0

-6.420224770664669e6 2.1152729160510525e6 0.0
2.1152729160510525e6 1.0457713130203625e7 0.0
0.0 0.0 0.0

3.9123317451300374e6 1.8535113508188862e7 0.0
1.8535113508188862e7 1.3949916784658717e7 0.0
0.0 0.0 0.0

-4.630800852045637e6 2.1952408610154156e7 0.0
2.1952408610154156e7 9.425390659291422e6 0.0
0.0 0.0 0.0

1.5978986403914932e6 9.859488048002668e6 0.0
9.859488048002668e6 -1.0216257039435858e7 0.0
0.0 0.0 0.0

-3.08467661357054e6 2.007586003092614e7 0.0
2.007586003092614e7 900434.0166491563 0.0
0.0 0.0 0.0

6.057425179711487e6 2.047796163988976e7 0.0
2.047796163988976e7 -2.674107378810472e6 0.0
0.0 0.0 0.0

-2.435605913771116e6 1.3671325385551924e7 0.0
1.3671325385551924e7 581628.6094651086 0.0
0.0 0.0 0.0

-3.2647631122871973e6 1.5889411321867509e7 0.0
1.5889411321867509e7 -2.823681314891816e7 0.0
0.0 0.0 0.0

-4.667401517367066e6 1.7031084773440555e7 0.0
1.7031084773440555e7 6.706103636387275e6 0.0
0.0 0.0 0.0

-6.959701498284976e6 1.8422850482887283e7 0.0
1.8422850482887283e7 2.2434153128128685e7 0.0
0.0 0.0 0.0

-1.0122387514078852e7 112336.50108263612 0.0
112336.50108263612 2.5845270450592075e7 0.0
0.0 0.0 0.0

-1.1240080224716268e7 2.2354025567629747e7 0.0
2.2354025567629747e7 227716.88969785767 0.0
0.0 0.0 0.0

-6.768736957178158e6 2.6742163237180855e7 0.0
2.6742163237180855e7 6.535932332807386e6 0.0
0.0 0.0 0.0

9.767429985913537e6 2.7955092477628432e7 0.0
2.7955092477628432e7 -5.555983509446252e6 0.0
0.0 0.0 0.0

-1.1484065446548376e7 5.380698458617941e6 0.0
5.380698458617941e6 2.896816594480854e7 0.0
0.0 0.0 0.0

-4.238050394671343e6 1.6705272077756045e7 0.0
1.6705272077756045e7 -2.9453905064874575e7 0.0
0.0 0.0 0.0

-4.433610841690613e6 2.656977649150577e7 0.0
2.656977649150577e7 6.421742966136128e6 0.0
0.0 0.0 0.0

509364.3432783396 1.8491147833261643e7 0.0
1.8491147833261643e7 -7.628294579854577e6 0.0
0.0 0.0 0.0

-1.5594863974365052e6 1.4838971021811225e7 0.0
1.4838971021811225e7 -7.486287187084153e6 0.0
0.0 0.0 0.0

-9.871951700217241e6 1.0058320056617182e6 0.0
1.0058320056617182e6 1.817717787165193e7 0.0
0.0 0.0 0.0

-8.790726239296276e6 2.9427816711690936e7 0.0
2.9427816711690936e7 5.708854172413601e6 0.0
0.0 0.0 0.0

-2.0498014831919132e6 2.2219332207557075e7 0.0
2.2219332207557075e7 -431466.8389497363 0.0
0.0 0.0 0.0

3.097986895429422e6 1.967501527296669e7 0.0
1.967501527296669e7 1.3115510026627166e7 0.0
0.0 0.0 0.0

-1.4544556433173863e6 2.8320172316817814e6 0.0
2.8320172316817814e6 3.0917350926310504e6 0.0
0.0 0.0 0.0

3.650328660937854e6 1.9691782821661826e7 0.0
1.9691782821661826e7 4.276171279926597e6 0.0
0.0 0.0 0.0

42359.49440781772 8.880905200529605e6 0.0
8.880905200529605e6 -5.371413700580153e7 0.0
0.0 0.0 0.0

5.202129864109668e6 3.1559444113130465e7 0.0
3.1559444113130465e7 -4.411906876553683e6 0.0
0.0 0.0 0.0

-5.108169286557152e6 2.293704319192131e7 0.0
2.293704319192131e7 1.0187414430952111e7 0.0
0.0 0.0 0.0

-1.0266498175238889e7 9.229020336414998e6 0.0
9.229020336414998e6 1.3240606146042896e7 0.0
0.0 0.0 0.0

-1.1318288515888264e6 1.942508066415831e7 0.0
1.942508066415831e7 -3.0533444669729387e6 0.0
0.0 0.0 0.0

-198786.1254045386 1.0943666942985151e7 0.0
1.0943666942985151e7 -4.997405983071503e7 0.0
0.0 0.0 0.0

-677475.675629477 1.6500231535589317e7 0.0
1.6500231535589317e7 -2.1844493423062213e7 0.0
0.0 0.0 0.0

-8.966865390215453e6 3.261639749523678e7 0.0
3.261639749523678e7 4.1445580718829962e6 0.0
0.0 0.0 0.0

-2.346306188729844e6 1.7725448482543655e7 0.0
1.7725448482543655e7 -7.821021568489828e6 0.0
0.0 0.0 0.0

-4.501709638090733e6 2.137408917000513e7 0.0
2.137408917000513e7 -1.0994091882351875e7 0.0
0.0 0.0 0.0

-2.750869154115053e6 2.303193884792723e7 0.0
2.303193884792723e7 5.362913884359784e6 0.0
0.0 0.0 0.0

493401.36020874046 1.7401317440689206e7 0.0
1.7401317440689206e7 -1.2769995443173025e7 0.0
0.0 0.0 0.0

6.458163304794649e6 2.0955518351450223e7 0.0
2.0955518351450223e7 6.553899830328081e6 0.0
0.0 0.0 0.0

-7.56115871765759e6 2.2199194799590375e7 0.0
2.2199194799590375e7 -1.0590022298802892e7 0.0
0.0 0.0 0.0

-2.2591474477593536e6 2.0385830114263553e7 0.0
2.0385830114263553e7 5.531137909976343e6 0.0
0.0 0.0 0.0

-6.282097876232505e6 8.889730528197402e6 0.0
8.889730528197402e6 5.5849658702733e7 0.0
0.0 0.0 0.0

-495103.0138331987 1.4433300789017085e7 0.0
1.4433300789017085e7 -6.848571283886082e6 0.0
0.0 0.0 0.0

-6.4256089858901575e6 1.508999600811167e7 0.0
1.508999600811167e7 -2.2664038701773908e7 0.0
0.0 0.0 0.0

368981.8007323956 1.901710398504311e7 0.0
1.901710398504311e7 -1.461461257192121e7 0.0
0.0 0.0 0.0

-5.194283229045803e6 1.93302821775282e7 0.0
1.93302821775282e7 -1.395471283292352e7 0.0
0.0 0.0 0.0

-3.8566513457123237e6 2.1456010223812338e7 0.0
2.1456010223812338e7 9.804841245380268e6 0.0
0.0 0.0 0.0

463556.9530475349 1.6505527317655878e7 0.0
1.6505527317655878e7 1.5451899144188436e6 0.0
0.0 0.0 0.0

-2.75376473911958e6 2.72316170543306e7 0.0
2.72316170543306e7 3.6808017841081126e6 0.0
0.0 0.0 0.0

-3.1491520783115015e6 2.072954964661606e7 0.0
2.072954964661606e7 711718.6295207171 0.0
0.0 0.0 0.0

-7.661103574665453e6 2.4285330450956086e6 0.0
2.4285330450956086e6 5.4763731411737844e7 0.0
0.0 0.0 0.0

-1.2477109463351013e7 9.493535625456955e6 0.0
9.493535625456955e6 2.2604401513681885e7 0.0
0.0 0.0 0.0

1.1600779491579323e6 1.8904196662754867e7 0.0
1.8904196662754867e7 -6.741436207949926e6 0.0
0.0 0.0 0.0

-2.388274719174715e7 2.6996762651431274e7 0.0
2.6996762651431274e7 3.351419737631985e6 0.0
0.0 0.0 0.0

-1.120839667767287e7 1.4510777338861711e6 0.0
1.4510777338861711e6 1.781516580125617e7 0.0
0.0 0.0 0.0

-8.816706883127257e6 7.162783999314647e6 0.0
7.162783999314647e6 4.51720558921394e7 0.0
0.0 0.0 0.0

-2.5092648028496252e6 956747.8532399458 0.0
956747.8532399458 4.684235367155788e6 0.0
0.0 0.0 0.0

-4.998833222562095e6 4.6417749698274e6 0.0
4.6417749698274e6 285061.57848111936 0.0
0.0 0.0 0.0

1.7765453298111595e6 1.1655715230546769e7 0.0
1.1655715230546769e7 -2.091446306236203e7 0.0
0.0 0.0 0.0

-2.676271099621313e6 2.256157843350702e7 0.0
2.256157843350702e7 -1.0337422943989466e6 0.0
0.0 0.0 0.0

-6.18399701516515e6 1.9230926162115905e7 0.0
1.9230926162115905e7 -1.3241933334016778e7 0.0
0.0 0.0 0.0

-3.6947448715406843e6 2.1156498055367585e7 0.0
2.1156498055367585e7 1.2949734061435089e7 0.0
0.0 0.0 0.0

-3.478896395203664e6 1.6376487598410394e7 0.0
1.6376487598410394e7 -2.1489720547383e7 0.0
0.0 0.0 0.0

1.685129355168473e6 1.921378676378469e7 0.0
1.921378676378469e7 1.184531757991295e7 0.0
0.0 0.0 0.0

-9.184723948821042e6 1.567213321129937e7 0.0
1.567213321129937e7 -3.3240279567554872e7 0.0
0.0 0.0 0.0

-3.847612862370225e6 2.0634663520333372e7 0.0
2.0634663520333372e7 3.3748712330157445e6 0.0
0.0 0.0 0.0

-1.8691590159360208e6 1.1468417580082463e7 0.0
1.1468417580082463e7 -5.916874763724142e7 0.0
0.0 0.0 0.0

145271.08901284076 1.1392435194577817e7 0.0
1.1392435194577817e7 -4.366684183728136e7 0.0
0.0 0.0 0.0

-3.414058013615243e6 2.0568666254636634e7 0.0
2.0568666254636634e7 -1.0423021475283355e7 0.0
0.0 0.0 0.0

-1.3636735095052168e7 2.4666028347582806e7 0.0
2.4666028347582806e7 -9.633697036611333e6 0.0
0.0 0.0 0.0

-1.1587485757643735e7 2.7089373365129318e7 0.0
2.7089373365129318e7 5.819033254062146e6 0.0
0.0 0.0 0.0

-5.1302128824471105e6 1.4176026005546365e7 0.0
1.4176026005546365e7 5.679716471929711e6 0.0
0.0 0.0 0.0

-2.656803907616576e6 6.190690579998786e6 0.0
6.190690579998786e6 7.351766025628829e6 0.0
0.0 0.0 0.0

277036.25523735 1.8096527962640785e7 0.0
1.8096527962640785e7 -6.10287709235307e6 0.0
0.0 0.0 0.0

8.571616813296463e6 2.1544569804242328e7 0.0
2.1544569804242328e7 -2.0467329540131679e6 0.0
0.0 0.0 0.0

-4.569014176905759e6 1.3029745250425344e7 0.0
1.3029745250425344e7 5.098123187298176e7 0.0
0.0 0.0 0.0

-1.6184077073728354e6 1.9989548216312394e7 0.0
1.9989548216312394e7 1.0431217856068794e7 0.0
0.0 0.0 0.0

-6.811847718589334e6 2.6793956740889885e7 0.0
2.6793956740889885e7 6.632606542075492e6 0.0
0.0 0.0 0.0

-3.666977819995527e6 1.6482414503338585e7 0.0
1.6482414503338585e7 -1.3569176296702161e7 0.0
0.0 0.0 0.0

-8.340047059892811e6 1.0413047221944286e7 0.0
1.0413047221944286e7 4.215046452082601e7 0.0
0.0 0.0 0.0

-2.098655680182669e6 1.9707535617348034e7 0.0
1.9707535617348034e7 5.894825983132195e6 0.0
0.0 0.0 0.0

152252.1314337775 1.891750231482986e7 0.0
1.891750231482986e7 -1.4484031260656312e7 0.0
0.0 0.0 0.0

-675221.4101297297 1.5425462902182898e7 0.0
1.5425462902182898e7 -2.5665244721523736e7 0.0
0.0 0.0 0.0

540172.0647744797 1.025360783295017e7 0.0
1.025360783295017e7 -4.162999161769447e7 0.0
0.0 0.0 0.0

1.0943216626840532e6 1.1052521689720979e7 0.0
1.1052521689720979e7 -3.35127805880735e7 0.0
0.0 0.0 0.0

-9.284033481860053e6 1.798195742101276e7 0.0
1.798195742101276e7 -4.728166267471033e7 0.0
0.0 0.0 0.0

-3.060527451530259e6 2.671023556053132e7 0.0
2.671023556053132e7 4.399000229694504e6 0.0
0.0 0.0 0.0

-4.818654403748761e6 2.1280265416325327e7 0.0
2.1280265416325327e7 -1.0912531730499495e7 0.0
0.0 0.0 0.0

-1.086348899405966e6 1.8682052765656844e7 0.0
1.8682052765656844e7 -1.2240437288276704e7 0.0
0.0 0.0 0.0

1.954253419507187e7 2.1559045757176448e7 0.0
2.1559045757176448e7 -967427.4563161172 0.0
0.0 0.0 0.0

-7.928071979253732e6 5.1132929922685e6 0.0
5.1132929922685e6 4.912756574980244e7 0.0
0.0 0.0 0.0

-1.2259624238660354e6 1.1335083900859654e7 0.0
1.1335083900859654e7 -5.0575105694315575e7 0.0
0.0 0.0 0.0

1.4385147526204046e6 1.1354302322913442e7 0.0
1.1354302322913442e7 -3.331533667716533e7 0.0
0.0 0.0 0.0

-4.958891902590033e6 8.865424615101354e6 0.0
8.865424615101354e6 6.1560906606752455e7 0.0
0.0 0.0 0.0

1.781080842547022e7 2.1907363185411427e7 0.0
2.1907363185411427e7 1.114130568393063e7 0.0
0.0 0.0 0.0

-7.796281895389462e6 8.337338467143556e6 0.0
8.337338467143556e6 4.658722998558818e7 0.0
0.0 0.0 0.0

-5.909756140042328e6 -356662.55944677745 0.0
-356662.55944677745 6.942252119243964e6 0.0
0.0 0.0 0.0

-3.373655094147467e6 2.7964163905823722e7 0.0
2.7964163905823722e7 2.4682635370531487e6 0.0
0.0 0.0 0.0

1.9389990363479368e6 1.0787992099117683e7 0.0
1.0787992099117683e7 -2.571577891281106e7 0.0
0.0 0.0 0.0

-6.666609508283798e6 3.0122543051773902e7 0.0
3.0122543051773902e7 5.351531606395938e6 0.0
0.0 0.0 0.0

-8.01505897932687e6 1.3017147207965685e7 0.0
1.3017147207965685e7 3.7578988338505425e7 0.0
0.0 0.0 0.0

-1.253880925636111e7 7.405524553772339e6 0.0
7.405524553772339e6 2.1003085953146823e7 0.0
0.0 0.0 0.0

6.151643236642571e6 2.797201005911664e7 0.0
2.797201005911664e7 -4.843858033709552e6 0.0
0.0 0.0 0.0

-4.1842302393989405e6 2.1769744289373998e7 0.0
2.1769744289373998e7 1.2561532045089481e7 0.0
0.0 0.0 0.0

1.2082034945581225e6 2.427087142761948e7 0.0
2.427087142761948e7 -6.530233909468144e6 0.0
0.0 0.0 0.0

-6.4009399368852675e6 2.4376303432532936e7 0.0
2.4376303432532936e7 7.158237407242123e6 0.0
0.0 0.0 0.0

-3.2030172417211696e6 1.7363314228620976e7 0.0
1.7363314228620976e7 -2.2875264324255936e7 0.0
0.0 0.0 0.0

3.877439133844459e6 2.1673822772723846e7 0.0
2.1673822772723846e7 -6.681211050351309e6 0.0
0.0 0.0 0.0

6.606241147084138e6 1.8051905869548142e7 0.0
1.8051905869548142e7 3.988373756112978e7 0.0
0.0 0.0 0.0

-5.724392581336642e6 4.772748159097538e6 0.0
4.772748159097538e6 1.604288940573851e7 0.0
0.0 0.0 0.0

-2.827709661938574e6 8.240218066633372e6 0.0
8.240218066633372e6 -5.648635244261991e6 0.0
0.0 0.0 0.0

-4.123157467612372e6 1.861452021523033e7 0.0
1.861452021523033e7 -1.3743858021553816e7 0.0
0.0 0.0 0.0

3.945367259926942e6 1.89915146372833e7 0.0
1.89915146372833e7 1.3151224482843865e7 0.0
0.0 0.0 0.0

6.628711218960846e6 3.222235549190516e7 0.0
3.222235549190516e7 -5.327220207257446e6 0.0
0.0 0.0 0.0

3.7501148665017793e6 5.2353320009300215e6 0.0
5.2353320009300215e6 -1.5931693960383255e7 0.0
0.0 0.0 0.0

-4.219287981245434e6 3.132109688383831e7 0.0
3.132109688383831e7 3.8468752057260303e6 0.0
0.0 0.0 0.0

-3.8969367593274325e7 1.4179753577677403e7 0.0
1.4179753577677403e7 8.377960918756004e6 0.0
0.0 0.0 0.0

403240.1315673478 1.932288148830309e7 0.0
1.932288148830309e7 -1.3279230238069395e7 0.0
0.0 0.0 0.0

-7.727102414668461e6 1.4696250581723846e7 0.0
1.4696250581723846e7 3.3522292821833964e7 0.0
0.0 0.0 0.0

232673.36160955066 1.9248005060127117e7 0.0
1.9248005060127117e7 -6.5102846329249665e6 0.0
0.0 0.0 0.0

-4.278034635763025e6 2.2290959742573503e7 0.0
2.2290959742573503e7 9.599779470720468e6 0.0
0.0 0.0 0.0

-2.5398696685230895e6 2.2066623222993318e7 0.0
2.2066623222993318e7 -2.0339937534372308e6 0.0
0.0 0.0 0.0

600915.0576533508 1.9582965931125574e7 0.0
1.9582965931125574e7 -7.895327774552842e6 0.0
0.0 0.0 0.0

2.590329727132436e6 4.0458148178534103e6 0.0
4.0458148178534103e6 -4.2497357817024894e7 0.0
0.0 0.0 0.0

-723341.1937117554 1.5941142377686081e7 0.0
1.5941142377686081e7 -2.411137699731534e6 0.0
0.0 0.0 0.0

9.443344291114144e6 2.2662147262867313e7 0.0
2.2662147262867313e7 -3.7785125569708296e6 0.0
0.0 0.0 0.0

-1.2569933018285083e6 1.834386741727702e7 0.0
1.834386741727702e7 -1.4103140993037395e7 0.0
0.0 0.0 0.0

4.905020863577206e6 2.0860642870293505e7 0.0
2.0860642870293505e7 9.77658163700544e6 0.0
0.0 0.0 0.0

-616209.9530373905 1.157619536806286e7 0.0
1.157619536806286e7 -4.395754432111432e7 0.0
0.0 0.0 0.0

-804339.1106351067 2.1426609972479112e7 0.0
2.1426609972479112e7 -8.259697911384863e6 0.0
0.0 0.0 0.0

3.6799626452174396e6 2.0933322295213e7 0.0
2.0933322295213e7 1.4004975262049789e7 0.0
0.0 0.0 0.0

2.306828167228479e7 2.693242294970912e7 0.0
2.693242294970912e7 -5.225849584486209e6 0.0
0.0 0.0 0.0

464846.9591995198 1.1658711475884711e7 0.0
1.1658711475884711e7 -3.81764737380279e7 0.0
0.0 0.0 0.0

-3.2035749766168904e7 1.2927625207115697e7 0.0
1.2927625207115697e7 8.61872100657377e6 0.0
0.0 0.0 0.0

1.3835914865759858e6 1.8179732271194313e7 0.0
1.8179732271194313e7 1.558755829264803e7 0.0
0.0 0.0 0.0

-5.956158361625976e6 3.113098152592925e7 0.0
3.113098152592925e7 4.8547688168557715e6 0.0
0.0 0.0 0.0

37803.14305720851 1.9688822898195073e7 0.0
1.9688822898195073e7 -1.041954080896588e7 0.0
0.0 0.0 0.0

-5.792562990174459e6 2.712190276827267e7 0.0
2.712190276827267e7 6.133523290546352e6 0.0
0.0 0.0 0.0

-5.282859276643876e6 1.2126553719039226e7 0.0
1.2126553719039226e7 5.451463689291401e7 0.0
0.0 0.0 0.0

1.4066559071533997e6 1.4684046331193272e7 0.0
1.4684046331193272e7 -1.680206097203622e7 0.0
0.0 0.0 0.0

4.45052901842631e6 2.7941542466279037e7 0.0
2.7941542466279037e7 -4.971607184663987e6 0.0
0.0 0.0 0.0

-2.617756977068732e6 1.17560195965989e7 0.0
1.17560195965989e7 1.9357221322480135e6 0.0
0.0 0.0 0.0

-2.9114845477809213e7 1.2248557740094218e7 0.0
1.2248557740094218e7 8.4294462318617e6 0.0
0.0 0.0 0.0

-3.617211509943137e6 1.5356007263623152e7 0.0
1.5356007263623152e7 -105591.4148896609 0.0
0.0 0.0 0.0

-1.1277619646790547e7 3.5885844640838495e6 0.0
3.5885844640838495e6 2.92316152809734e7 0.0
0.0 0.0 0.0

-6.91693527012031e6 1.5402568027807046e7 0.0
1.5402568027807046e7 3.449589233763426e7 0.0
0.0 0.0 0.0

-5.03490840046409e6 2.944493460020812e7 0.0
2.944493460020812e7 3.5967943391991183e6 0.0
0.0 0.0 0.0

-5.252239965000794e6 3.202678499944502e7 0.0
3.202678499944502e7 4.1844176506194044e6 0.0
0.0 0.0 0.0

-7.321716142258855e6 1.1413678672070112e7 0.0
1.1413678672070112e7 4.338805936430895e7 0.0
0.0 0.0 0.0

1.2646530140822073e6 1.3295732507190194e7 0.0
1.3295732507190194e7 -1.3904949257343674e7 0.0
0.0 0.0 0.0

5.750959294475344e6 2.0639936412078e7 0.0
2.0639936412078e7 457820.1321034683 0.0
0.0 0.0 0.0

-2.967829672809742e6 1.4733409056542838e7 0.0
1.4733409056542838e7 -9.820152104472125e6 0.0
0.0 0.0 0.0

1.0357207545246333e6 9.888832623939978e6 0.0
9.888832623939978e6 -1.0072920720609773e7 0.0
0.0 0.0 0.0

-3.6861853642178965e6 2.9185454845508695e7 0.0
2.9185454845508695e7 3.9382813346489677e6 0.0
0.0 0.0 0.0

-8.428444679788431e6 1.755349675498011e7 0.0
1.755349675498011e7 2.4465079682182133e7 0.0
0.0 0.0 0.0

-205470.7859355677 1.1987095628270071e7 0.0
1.1987095628270071e7 -3.8679565991917156e7 0.0
0.0 0.0 0.0

-2.0803090530712105e7 2.6009413361849472e7 0.0
2.6009413361849472e7 2.5951236082640095e6 0.0
0.0 0.0 0.0

1.3052907940101062e6 2.5058236627683602e7 0.0
2.5058236627683602e7 -5.675852129419295e6 0.0
0.0 0.0 0.0

1.5657113366518393e6 5.55700724493367e6 0.0
5.55700724493367e6 -5.077689203480535e7 0.0
0.0 0.0 0.0

-2.4895075734775756e6 1.9281054277563877e7 0.0
1.9281054277563877e7 1.8243831719617024e7 0.0
0.0 0.0 0.0

-2.3780613517765766e6 2.2428973043461993e7 0.0
2.2428973043461993e7 1.3129604036278701e6 0.0
0.0 0.0 0.0

359574.9284147816 1.9501480107222967e7 0.0
1.9501480107222967e7 -1.3526498085390057e7 0.0
0.0 0.0 0.0

-8.135044531414457e6 3.0593893049083367e7 0.0
3.0593893049083367e7 5.603247242421826e6 0.0
0.0 0.0 0.0

-1.8572694981695334e6 2.2513214176884472e7 0.0
2.2513214176884472e7 -1.3073777068000878e6 0.0
0.0 0.0 0.0

-5.962885288554185e6 3.009406482089972e7 0.0
3.009406482089972e7 3.8550115759133217e6 0.0
0.0 0.0 0.0

-2.4084227089751377e6 7.925064406192425e6 0.0
7.925064406192425e6 2.868574219177493e6 0.0
0.0 0.0 0.0

5.170969207877723e6 1.7735169535793282e7 0.0
1.7735169535793282e7 1.9607937320971277e7 0.0
0.0 0.0 0.0

-849097.0263922848 1.709991099464644e7 0.0
1.709991099464644e7 -1.960434075384616e7 0.0
0.0 0.0 0.0

-2.575113917638063e6 1.485652866083018e7 0.0
1.485652866083018e7 712181.637640894 0.0
0.0 0.0 0.0

-76390.73723914847 1.8274321473258e7 0.0
1.8274321473258e7 -1.5638682138829287e7 0.0
0.0 0.0 0.0

2.5665759160545776e6 7.864761657632985e6 0.0
7.864761657632985e6 -1.9679663191859465e7 0.0
0.0 0.0 0.0

1.1600971118846493e7 2.186505522077502e7 0.0
2.186505522077502e7 9.779529915880635e6 0.0
0.0 0.0 0.0

-9.13854848580277e6 -175685.62004867714 0.0
-175685.62004867714 3.657562323691179e7 0.0
0.0 0.0 0.0

5.850610873177106e6 1.7937341320578426e7 0.0
1.7937341320578426e7 2.230059226574548e7 0.0
0.0 0.0 0.0

-3.678264945787942e6 2.752209202578727e7 0.0
2.752209202578727e7 3.253577537606055e6 0.0
0.0 0.0 0.0

-490540.8596052509 1.678321931282389e7 0.0
1.678321931282389e7 -2.2261965360608917e7 0.0
0.0 0.0 0.0

3.7516865765029686e6 2.7387400789496385e7 0.0
2.7387400789496385e7 -4.611700172130774e6 0.0
0.0 0.0 0.0

-560297.3986079965 1.8562476092344947e7 0.0
1.8562476092344947e7 -2.4101496242241315e6 0.0
0.0 0.0 0.0

2.643343385704033e6 1.0387497553453555e7 0.0
1.0387497553453555e7 -2.5075767326100644e7 0.0
0.0 0.0 0.0

962840.1362325363 2.4413595666065857e7 0.0
2.4413595666065857e7 -6.750733138600921e6 0.0
0.0 0.0 0.0

-605808.8358635949 1.7436992695496798e7 0.0
1.7436992695496798e7 -1.823133748232001e7 0.0
0.0 0.0 0.0

-1.0872414637334356e7 5.972420658169277e6 0.0
5.972420658169277e6 1.601903862955859e7 0.0
0.0 0.0 0.0

3.5146175036759633e6 1.9738787089852665e7 0.0
1.9738787089852665e7 1.5603470436769003e7 0.0
0.0 0.0 0.0

-5.367540263119729e6 2.270633679157834e7 0.0
2.270633679157834e7 9.157854924510527e6 0.0
0.0 0.0 0.0

-4.0210446150595173e6 2.8190885858376555e7 0.0
2.8190885858376555e7 3.3018233223660085e6 0.0
0.0 0.0 0.0

-762336.6363926516 1.901313589563784e7 0.0
1.901313589563784e7 1.08125231448194e7 0.0
0.0 0.0 0.0

-5.624869765101492e6 3.982720318326751e6 0.0
3.982720318326751e6 9.568833040866997e6 0.0
0.0 0.0 0.0

-9.833420730842697e6 1.0047209193016214e7 0.0
1.0047209193016214e7 3.623663204683086e7 0.0
0.0 0.0 0.0

169814.47176604066 1.874594640982841e7 0.0
1.874594640982841e7 -1.4468870595894914e7 0.0
0.0 0.0 0.0

-2.8953308307050765e6 1.4225252764251124e7 0.0
1.4225252764251124e7 -5.84545390173878e7 0.0
0.0 0.0 0.0

-4.618882216530788e6 5.69487831190424e6 0.0
5.69487831190424e6 7.952147898167158e6 0.0
0.0 0.0 0.0

-1.124150529237318e7 1.4630072057601856e6 0.0
1.4630072057601856e6 2.1737660177458666e7 0.0
0.0 0.0 0.0

-4.745641805634394e6 1.7422377682335034e7 0.0
1.7422377682335034e7 7.977576225475524e6 0.0
0.0 0.0 0.0

823626.235818905 2.5284666018298086e7 0.0
2.5284666018298086e7 -5.063346267054684e6 0.0
0.0 0.0 0.0

-3.731108412974122e6 1.5630343609494973e7 0.0
1.5630343609494973e7 -3.748732146216253e7 0.0
0.0 0.0 0.0

3.2435961750424607e6 7.51283086533912e6 0.0
7.51283086533912e6 -1.704074640812926e7 0.0
0.0 0.0 0.0

-2.4858428499825746e6 2.7677832256176356e7 0.0
2.7677832256176356e7 2.9048833245744593e6 0.0
0.0 0.0 0.0

1.7432380980214947e6 2.474640927027916e7 0.0
2.474640927027916e7 -6.219659790224792e6 0.0
0.0 0.0 0.0

-9.075851639920665e6 3.6756012237061225e7 0.0
3.6756012237061225e7 3.7625636995328306e6 0.0
0.0 0.0 0.0

-2.9842412297664676e6 2.7869190970945064e7 0.0
2.7869190970945064e7 3.7820327635052437e6 0.0
0.0 0.0 0.0

-2.3361588763175853e7 2.7491823585214395e7 0.0
2.7491823585214395e7 -7.906259589734518e6 0.0
0.0 0.0 0.0

-3.7059213045458375e6 2.095529683754398e7 0.0
2.095529683754398e7 -1.558962903599205e6 0.0
0.0 0.0 0.0

-3.1305119630166516e6 1.4132901310838297e7 0.0
1.4132901310838297e7 -5.375315333007047e7 0.0
0.0 0.0 0.0

-3.610096451157314e6 1.4203883984792175e7 0.0
1.4203883984792175e7 -281410.7832477947 0.0
0.0 0.0 0.0

-9.524899842831738e6 2.0668022900221644e6 0.0
2.0668022900221644e6 4.1836548750409976e7 0.0
0.0 0.0 0.0

-8.29901330296969e6 5.830396857284819e6 0.0
5.830396857284819e6 4.866865610631897e7 0.0
0.0 0.0 0.0

2.425518758818621e6 6.502898301079165e6 0.0
6.502898301079165e6 -3.720784871824504e7 0.0
0.0 0.0 0.0

-4.713846596240807e6 2.3915394619263303e7 0.0
2.3915394619263303e7 8.917754764261533e6 0.0
0.0 0.0 0.0

-5.319918318474e6 1.3385879223940287e7 0.0
1.3385879223940287e7 4.678130173596826e7 0.0
0.0 0.0 0.0

-337872.5869460013 1.784741694043389e7 0.0
1.784741694043389e7 -1.6902642319004737e7 0.0
0.0 0.0 0.0

-3.2110577995819896e6 1.5378377044621538e7 0.0
1.5378377044621538e7 4.409766863186268e7 0.0
0.0 0.0 0.0

419708.8002706473 2.4703802917734154e7 0.0
2.4703802917734154e7 -6.236543592867309e6 0.0
0.0 0.0 0.0

2.5936768032323834e6 2.9650703762211222e7 0.0
2.9650703762211222e7 -3.589858416629595e6 0.0
0.0 0.0 0.0

-264701.5879856113 1.8421699700873565e7 0.0
1.8421699700873565e7 -4.219368513753386e6 0.0
0.0 0.0 0.0

-1.152881759767881e7 4.340478648578017e6 0.0
4.340478648578017e6 2.125336288087887e7 0.0
0.0 0.0 0.0

267491.9344722065 1.8567608350077428e7 0.0
1.8567608350077428e7 1.3261971389414718e7 0.0
0.0 0.0 0.0

-3.9872147969378973e6 1.68296075209091e7 0.0
1.68296075209091e7 9.01606327137158e6 0.0
0.0 0.0 0.0

3.0785739883837644e6 4.705964606767005e6 0.0
4.705964606767005e6 -3.397502770523741e7 0.0
0.0 0.0 0.0

3.740728607447341e6 2.1461453431674547e7 0.0
2.1461453431674547e7 -5.595369744649306e6 0.0
0.0 0.0 0.0

-1.3408315767401567e7 2.0806152333456963e7 0.0
2.0806152333456963e7 2.8469412794872243e6 0.0
0.0 0.0 0.0

-2.1875563820508886e7 2.369463257117331e7 0.0
2.369463257117331e7 -6.626838076110588e6 0.0
0.0 0.0 0.0

-2.5287522195274336e6 2.8126803211452857e7 0.0
2.8126803211452857e7 944004.7472970823 0.0
0.0 0.0 0.0

370254.98323541414 1.2867692798334464e7 0.0
1.2867692798334464e7 -1.3133341036391048e7 0.0
0.0 0.0 0.0

-5.666353736633662e6 2.0705177735335063e7 0.0
2.0705177735335063e7 -1.3338547925181128e6 0.0
0.0 0.0 0.0

1.3911410944029246e6 2.980102792866763e7 0.0
2.980102792866763e7 -1.7179560066296437e6 0.0
0.0 0.0 0.0

-3.3316979735813634e6 1.9369714398272492e7 0.0
1.9369714398272492e7 1.9402452654082123e7 0.0
0.0 0.0 0.0

-1.5981577140109339e6 1.9423652494498517e7 0.0
1.9423652494498517e7 1.0742710316264868e7 0.0
0.0 0.0 0.0

1.281762346175327e6 1.2435419663421277e7 0.0
1.2435419663421277e7 -1.243594893006751e7 0.0
0.0 0.0 0.0

-2.114689306301712e6 3.1671781264064867e7 0.0
3.1671781264064867e7 1.725318535231113e6 0.0
0.0 0.0 0.0

-1.0567618466018658e7 1.2882226963728245e6 0.0
1.2882226963728245e6 3.185767939867324e7 0.0
0.0 0.0 0.0

3.7024411173419654e6 5.789574377723569e6 0.0
5.789574377723569e6 -2.6631727821446527e7 0.0
0.0 0.0 0.0

-50054.74547871505 2.7213560234337844e7 0.0
2.7213560234337844e7 -1.9590283689506755e6 0.0
0.0 0.0 0.0

-807141.1815798245 1.7412853016228333e7 0.0
1.7412853016228333e7 -2.009693977586477e7 0.0
0.0 0.0 0.0

-4.3339876402446795e6 487019.39939035074 0.0
487019.39939035074 7.229509362834196e6 0.0
0.0 0.0 0.0

992729.0131982211 9.690219269105375e6 0.0
9.690219269105375e6 -1.2156353875887759e7 0.0
0.0 0.0 0.0

-9.202776093159638e6 2.355201066144375e7 0.0
2.355201066144375e7 -8.323314630409094e6 0.0
0.0 0.0 0.0

2.314175332806984e6 1.1601503928988388e7 0.0
1.1601503928988388e7 -2.4324296266355887e7 0.0
0.0 0.0 0.0

1.0966024194418019e7 2.245749722911872e7 0.0
2.245749722911872e7 1.1213387330628902e7 0.0
0.0 0.0 0.0

-4.213023132134518e6 8.601630418177905e6 0.0
8.601630418177905e6 1.8083211520738818e6 0.0
0.0 0.0 0.0

-6.530394698931308e6 4.426051168578538e6 0.0
4.426051168578538e6 6.057267576692391e6 0.0
0.0 0.0 0.0

7.821200705188921e6 2.8037521157032978e7 0.0
2.8037521157032978e7 -5.082901084965642e6 0.0
0.0 0.0 0.0

-1.0422883770938788e7 1.6559865520379583e6 0.0
1.6559865520379583e6 3.1110183423195798e7 0.0
0.0 0.0 0.0

931466.3884527292 1.5881765315245645e7 0.0
1.5881765315245645e7 -1.445158003482084e7 0.0
0.0 0.0 0.0

1.1160052749472198e6 1.855080877030216e7 0.0
1.855080877030216e7 2.335620697137005e6 0.0
0.0 0.0 0.0

1.508140491500428e7 2.3840620715163995e7 0.0
2.3840620715163995e7 -3.5213040542955017e6 0.0
0.0 0.0 0.0

901974.9873666074 1.682496619030126e7 0.0
1.682496619030126e7 -1.766880380338097e7 0.0
0.0 0.0 0.0

7.747098040728295e6 1.864808918444947e7 0.0
1.864808918444947e7 2.9526552771274336e7 0.0
0.0 0.0 0.0

-8.051920037904054e6 2.7084006499009933e7 0.0
2.7084006499009933e7 6.243267087672093e6 0.0
0.0 0.0 0.0

-9.180402394398492e6 1.938216169104458e6 0.0
1.938216169104458e6 3.892708400931504e7 0.0
0.0 0.0 0.0

538570.4347593049 2.7284609157506768e7 0.0
2.7284609157506768e7 -2.5016978948046523e6 0.0
0.0 0.0 0.0

-114673.49649546389 1.9474945418724038e7 0.0
1.9474945418724038e7 1.8585752432901997e7 0.0
0.0 0.0 0.0

1.8546390093652196e6 1.1118387451066354e7 0.0
1.1118387451066354e7 -2.0347910644518834e7 0.0
0.0 0.0 0.0

3.2846553326409496e6 4.910135099341233e6 0.0
4.910135099341233e6 -3.801732900985044e7 0.0
0.0 0.0 0.0

-2.3405515561192487e6 2.2314324078929465e7 0.0
2.2314324078929465e7 -2.8683395032876646e6 0.0
0.0 0.0 0.0

-8.491725887466691e6 1.1254076715733197e7 0.0
1.1254076715733197e7 1.5877566414408766e7 0.0
0.0 0.0 0.0

-8.367453494308112e6 1.6367701685240932e7 0.0
1.6367701685240932e7 2.90806779853494e7 0.0
0.0 0.0 0.0

-778119.1885720678 1.644926031027463e7 0.0
1.644926031027463e7 -2.3769344951262645e7 0.0
0.0 0.0 0.0

-2.518024868754545e6 1.3634475784531912e7 0.0
1.3634475784531912e7 -5.0021994863677904e7 0.0
0.0 0.0 0.0

939693.6022838957 2.78764057621465e7 0.0
2.78764057621465e7 -2.4627162052758755e6 0.0
0.0 0.0 0.0

-917050.9567268803 1.912249791966619e7 0.0
1.912249791966619e7 8.419985557189632e6 0.0
0.0 0.0 0.0

-3.555621192828189e7 1.321521751810914e7 0.0
1.321521751810914e7 8.129406800701931e6 0.0
0.0 0.0 0.0

8.461084170656957e6 1.9074604281253308e7 0.0
1.9074604281253308e7 3.3304876453787915e7 0.0
0.0 0.0 0.0

-3.2818881839489624e7 3.211599646906749e7 0.0
3.211599646906749e7 7.079694370440012e6 0.0
0.0 0.0 0.0

1.7194337372846995e6 1.0745556039923245e7 0.0
1.0745556039923245e7 -2.9388862653639335e7 0.0
0.0 0.0 0.0

7.27848963924782e6 5.620889495832643e6 0.0
5.620889495832643e6 -1.395358042928826e6 0.0
0.0 0.0 0.0

-1.8173459261626747e7 468996.8331570805 0.0
468996.8331570805 6.876337999713292e6 0.0
0.0 0.0 0.0

-7.840606872697406e6 1.0029523295627391e7 0.0
1.0029523295627391e7 1.3902886979936277e7 0.0
0.0 0.0 0.0

-9.758397867878098e6 3.2173939886214454e6 0.0
3.2173939886214454e6 3.698062271317436e7 0.0
0.0 0.0 0.0

-1.1102211406270614e7 3.7391323088174136e6 0.0
3.7391323088174136e6 3.072026969360566e7 0.0
0.0 0.0 0.0

38627.64635140635 1.855844013875655e7 0.0
1.855844013875655e7 -1.612675466259554e7 0.0
0.0 0.0 0.0

-2.4505810106661073e6 1.5729957130283378e7 0.0
1.5729957130283378e7 -8.168603492829144e6 0.0
0.0 0.0 0.0

2.171743661051495e6 1.6280891840837885e7 0.0
1.6280891840837885e7 7.239145659825586e6 0.0
0.0 0.0 0.0

935239.2189267642 1.8278025778867032e7 0.0
1.8278025778867032e7 -488067.0581721812 0.0
0.0 0.0 0.0

1.3914408240453852e6 2.8460889740038104e7 0.0
2.8460889740038104e7 -2.376654205754146e6 0.0
0.0 0.0 0.0

-1.1178178738076808e7 1.0749916211481217e7 0.0
1.0749916211481217e7 2.035409183317154e7 0.0
0.0 0.0 0.0

327579.28024480026 1.7443623392739505e7 0.0
1.7443623392739505e7 -1.6589794357155407e7 0.0
0.0 0.0 0.0

-3.0503703109682035e6 2.4245411181337573e7 0.0
2.4245411181337573e7 2.869273084894022e6 0.0
0.0 0.0 0.0

1.8987976377042327e6 8.774182672206076e6 0.0
8.774182672206076e6 -3.447661507654992e7 0.0
0.0 0.0 0.0

-1.021248443269205e7 2.563505483130277e6 0.0
2.563505483130277e6 3.3229946130096745e7 0.0
0.0 0.0 0.0

709232.5382246235 2.6641540552512664e7 0.0
2.6641540552512664e7 -3.3717302206062903e6 0.0
0.0 0.0 0.0

-1.12823677135328e6 1.9137935651375856e7 0.0
1.9137935651375856e7 5.982909965346007e6 0.0
0.0 0.0 0.0

-1.3776694420944587e6 1.931309843677309e7 0.0
1.931309843677309e7 3.5715319639042523e6 0.0
0.0 0.0 0.0

-6.278226460133659e6 2.259648945799109e7 0.0
2.259648945799109e7 -1.0934205762528652e7 0.0
0.0 0.0 0.0

5.978392925636276e6 1.6219180281331806e7 0.0
1.6219180281331806e7 2.1570341779682674e7 0.0
0.0 0.0 0.0

-6.889937080002488e6 2.1663585725907385e7 0.0
2.1663585725907385e7 -9.105825398860866e6 0.0
0.0 0.0 0.0

-7.481036882309141e6 1.4121046099610325e7 0.0
1.4121046099610325e7 3.602429908938785e7 0.0
0.0 0.0 0.0

-9.771146562928125e6 1.8726323926088836e6 0.0
1.8726323926088836e6 3.865676748969623e7 0.0
0.0 0.0 0.0

2.522654042944188e6 1.0683392094698569e7 0.0
1.0683392094698569e7 -1.962959367668652e7 0.0
0.0 0.0 0.0

2.456487668429937e6 5.692985107748796e6 0.0
5.692985107748796e6 -3.9012402452787824e7 0.0
0.0 0.0 0.0

798014.4065011945 1.790266399072184e7 0.0
1.790266399072184e7 -1.5356318001348145e7 0.0
0.0 0.0 0.0

6.562844430286687e6 2.1540654594288208e7 0.0
2.1540654594288208e7 9.107241671208097e6 0.0
0.0 0.0 0.0

2.767887494624463e6 6.787979707119603e6 0.0
6.787979707119603e6 -1.820754276971005e7 0.0
0.0 0.0 0.0

-6.599731309348581e6 1.7021637880309954e7 0.0
1.7021637880309954e7 -2.9170517522794988e7 0.0
0.0 0.0 0.0

-2.017179047291316e6 1.3327321527306642e7 0.0
1.3327321527306642e7 -4.652133641967864e7 0.0
0.0 0.0 0.0

-4.556263234834997e6 1.6535817006793229e7 0.0
1.6535817006793229e7 5.427414994902934e6 0.0
0.0 0.0 0.0

-6.051343894513579e6 2.4244763368845653e7 0.0
2.4244763368845653e7 8.478712565365776e6 0.0
0.0 0.0 0.0

-9.205990463075582e6 2.2453324920707896e7 0.0
2.2453324920707896e7 -9.477636961695354e6 0.0
0.0 0.0 0.0

-8.150146620307593e6 2.8382770181065695e6 0.0
2.8382770181065695e6 4.796524189116547e7 0.0
0.0 0.0 0.0

-1.5118834777572602e6 1.3188330220680742e7 0.0
1.3188330220680742e7 -4.350555663811428e7 0.0
0.0 0.0 0.0

-7.1847884227916505e6 1.3442365450369345e7 0.0
1.3442365450369345e7 3.864233175650612e7 0.0
0.0 0.0 0.0

-1.7851139892910316e6 1.948188584647858e7 0.0
1.948188584647858e7 1.151730078628075e6 0.0
0.0 0.0 0.0

285126.1292740487 2.8139423396976408e7 0.0
2.8139423396976408e7 -2.879822268955771e6 0.0
0.0 0.0 0.0

-1.2813081433955291e7 2.6666527775012236e7 0.0
2.6666527775012236e7 5.159658717569477e6 0.0
0.0 0.0 0.0

-9.1915582956392e6 1.5560500178068032e7 0.0
1.5560500178068032e7 2.8830379871085662e7 0.0
0.0 0.0 0.0

-4.581376374722179e6 1.4845011888610376e7 0.0
1.4845011888610376e7 -1.6364910946520776e7 0.0
0.0 0.0 0.0

3.914155726038804e6 1.7240348040502496e7 0.0
1.7240348040502496e7 1.3466643357929787e7 0.0
0.0 0.0 0.0

2.271975177665282e6 7.1212554073413e6 0.0
7.1212554073413e6 -3.561654605268888e7 0.0
0.0 0.0 0.0

1.4536255547623886e6 9.024584705770884e6 0.0
9.024584705770884e6 -1.3262328056820087e7 0.0
0.0 0.0 0.0

-9.022088835692238e6 1.1199142926556472e7 0.0
1.1199142926556472e7 3.764661709139726e7 0.0
0.0 0.0 0.0

-3.539889033081011e6 2.1018711434813254e7 0.0
2.1018711434813254e7 1.1669599079970168e7 0.0
0.0 0.0 0.0

-3.1748267799102288e7 2.718850767459691e7 0.0
2.718850767459691e7 1.8176114346364066e6 0.0
0.0 0.0 0.0

-181928.99240367115 1.4891703437007576e7 0.0
1.4891703437007576e7 -2.6125574832181524e7 0.0
0.0 0.0 0.0

1.4841569525657035e6 1.0209828553063938e7 0.0
1.0209828553063938e7 -3.321328311650933e7 0.0
0.0 0.0 0.0

-1.0198222761318982e6 1.318325286336277e7 0.0
1.318325286336277e7 -4.070246929234848e7 0.0
0.0 0.0 0.0

2.7800625047630784e6 4.377531015440073e6 0.0
4.377531015440073e6 -9.930643102134263e6 0.0
0.0 0.0 0.0

221557.5135862492 1.9868799671263978e7 0.0
1.9868799671263978e7 -1.0918822716189187e7 0.0
0.0 0.0 0.0

1.53233938772168e6 2.1407439572916258e7 0.0
2.1407439572916258e7 -9.042556864242362e6 0.0
0.0 0.0 0.0

-1.949049808281515e7 3.516515168323267e7 0.0
3.516515168323267e7 6.77223696688078e6 0.0
0.0 0.0 0.0

1.6396639366582213e6 4.433469686221007e6 0.0
4.433469686221007e6 -5.682131776435789e6 0.0
0.0 0.0 0.0

-485697.4379535485 1.776551088045971e7 0.0
1.776551088045971e7 -1.8656292145860188e7 0.0
0.0 0.0 0.0

-7.727263254551098e6 1.7718785399847355e7 0.0
1.7718785399847355e7 2.47447413607072e7 0.0
0.0 0.0 0.0

-1.0611702776318053e7 2.4235979535176917e6 0.0
2.4235979535176917e6 2.7487201988759678e7 0.0
0.0 0.0 0.0

2.9553395468115304e6 5.332158314876686e6 0.0
5.332158314876686e6 -3.25775537252883e7 0.0
0.0 0.0 0.0

-1.1192224937834514e7 5.154561646683491e6 0.0
5.154561646683491e6 2.706574731121947e7 0.0
0.0 0.0 0.0

-1.0536080779772513e7 5.218734536966717e6 0.0
5.218734536966717e6 3.2414818014129505e7 0.0
0.0 0.0 0.0

-9.600798550946774e6 1.0035672032335881e7 0.0
1.0035672032335881e7 1.7381415248898424e7 0.0
0.0 0.0 0.0

-4.507427035049095e6 2.2351087775672995e7 0.0
2.2351087775672995e7 1.1730981524063194e7 0.0
0.0 0.0 0.0

-2.227962770411998e6 1.2426946905573126e7 0.0
1.2426946905573126e7 447002.54109459836 0.0
0.0 0.0 0.0

2.0036750720017385e7 5.951635675948544e6 0.0
5.951635675948544e6 -2.595095480617771e6 0.0
0.0 0.0 0.0

-3.2906145472292706e7 2.4043121413534177e6 0.0
2.4043121413534177e6 7.222986758641137e6 0.0
0.0 0.0 0.0

2.7585585046488913e6 8.389877426914183e6 0.0
8.389877426914183e6 -1.4176657467640048e7 0.0
0.0 0.0 0.0

2.235216890134696e6 9.775775630085127e6 0.0
9.775775630085127e6 -3.2557652708247796e7 0.0
0.0 0.0 0.0

2.694616199044939e6 8.187765763482049e6 0.0
8.187765763482049e6 -3.359174436218863e7 0.0
0.0 0.0 0.0

450223.21296836605 1.9369104420852957e6 0.0
1.9369104420852957e6 1.672160696357091e6 0.0
0.0 0.0 0.0

-3.8329384107233565e6 -1.1774964916299025e6 0.0
-1.1774964916299025e6 4.0086822624998647e6 0.0
0.0 0.0 0.0

-4.333857628587935e6 1.7076008340549737e7 0.0
1.7076008340549737e7 -2.6360877161184598e7 0.0
0.0 0.0 0.0

2.6497483800475616e6 5.6596220270001255e6 0.0
5.6596220270001255e6 -3.661455023448264e7 0.0
0.0 0.0 0.0

-2.485520328323181e7 2.5047257093775984e7 0.0
2.5047257093775984e7 -9.526925637667252e6 0.0
0.0 0.0 0.0

-5.653718608919717e6 1.983033727872731e7 0.0
1.983033727872731e7 1.6203389316799654e7 0.0
0.0 0.0 0.0

798894.7389056 2.596996994605965e7 0.0
2.596996994605965e7 -4.201352934218027e6 0.0
0.0 0.0 0.0

5.166133470886856e6 1.6046759342976246e7 0.0
1.6046759342976246e7 1.8858946802393116e7 0.0
0.0 0.0 0.0

1.1436655097765546e7 1.1252928849422747e7 0.0
1.1252928849422747e7 1.2803492731751706e6 0.0
0.0 0.0 0.0

-1.1965563721954273e7 2.4903429129349705e7 0.0
2.4903429129349705e7 -9.566063649477746e6 0.0
0.0 0.0 0.0

-9.150362570959764e6 5.7255493200709615e6 0.0
5.7255493200709615e6 4.169590692018985e7 0.0
0.0 0.0 0.0

-5.859609981770489e6 2.3459749855389033e7 0.0
2.3459749855389033e7 8.87251290516592e6 0.0
0.0 0.0 0.0

2.101150159593138e6 2.1509588399498414e7 0.0
2.1509588399498414e7 -7.925165006149543e6 0.0
0.0 0.0 0.0

-7.393790918819033e6 1.810460876636473e7 0.0
1.810460876636473e7 2.362910954196394e7 0.0
0.0 0.0 0.0

-9.709893876783557e6 -1.3674982626933726e6 0.0
-1.3674982626933726e6 2.7287968462721422e7 0.0
0.0 0.0 0.0

-441950.70326203806 2.693688637035996e7 0.0
2.693688637035996e7 -3.045317495477156e6 0.0
0.0 0.0 0.0

1.778214830758674e6 1.0098126453742493e7 0.0
1.0098126453742493e7 -3.110222058728702e7 0.0
0.0 0.0 0.0

2.426773591621147e6 2.5151822890005566e7 0.0
2.5151822890005566e7 -6.009806823821297e6 0.0
0.0 0.0 0.0

3.086500955915265e6 6.666475823563233e6 0.0
6.666475823563233e6 -3.489223933550532e7 0.0
0.0 0.0 0.0

5.241041066317374e6 1.816358547715247e7 0.0
1.816358547715247e7 1.6589973713906828e7 0.0
0.0 0.0 0.0

-797045.2486070227 2.0457950037122987e7 0.0
2.0457950037122987e7 -9.509533402748462e6 0.0
0.0 0.0 0.0

-1.111683490751865e7 2.1704421960247788e6 0.0
2.1704421960247788e6 1.616235221158433e7 0.0
0.0 0.0 0.0

-2.418146539716614e6 1.5585300613795443e7 0.0
1.5585300613795443e7 -8.505285552267555e6 0.0
0.0 0.0 0.0

3.4378922935439534e6 4.962538069714233e6 0.0
4.962538069714233e6 -3.554683440235661e7 0.0
0.0 0.0 0.0

1.2375785983772462e7 2.5205887929752126e7 0.0
2.5205887929752126e7 -4.592168765644785e6 0.0
0.0 0.0 0.0

2.4685664596198434e6 7.516475060969074e6 0.0
7.516475060969074e6 -1.712358200543663e7 0.0
0.0 0.0 0.0

-1.2483980841746759e7 6.571078435966943e6 0.0
6.571078435966943e6 2.003944943530059e7 0.0
0.0 0.0 0.0

-3.3940349905931805e6 2.6850382822330795e7 0.0
2.6850382822330795e7 3.1065146370423697e6 0.0
0.0 0.0 0.0

-830452.2557593249 1.320113417611821e7 0.0
1.320113417611821e7 -3.799614599642506e7 0.0
0.0 0.0 0.0

-4.403599551595906e6 1.5779523180082401e7 0.0
1.5779523180082401e7 -1.4678665202635398e7 0.0
0.0 0.0 0.0

3.740079319219714e6 1.6449731486292055e7 0.0
1.6449731486292055e7 1.246693139086102e7 0.0
0.0 0.0 0.0

-2.7758806523531056e6 1.3065954015235538e7 0.0
1.3065954015235538e7 2.0485511037482128e6 0.0
0.0 0.0 0.0

-5.774394223849526e6 1.5130103573395537e7 0.0
1.5130103573395537e7 8.545004161803618e6 0.0
0.0 0.0 0.0

1.842072805288014e6 1.876721272509241e7 0.0
1.876721272509241e7 1.7564366387153298e7 0.0
0.0 0.0 0.0

-1.0167702840652987e7 63997.67469065744 0.0
63997.67469065744 2.3864391430307455e7 0.0
0.0 0.0 0.0

1.6630978329238347e6 2.007915717203644e7 0.0
2.007915717203644e7 4.604562757713135e6 0.0
0.0 0.0 0.0

-4.279946654882553e6 2.176996834133314e7 0.0
2.176996834133314e7 1.2189964951186726e7 0.0
0.0 0.0 0.0

2.2290164172968455e6 7.68437882947052e6 0.0
7.68437882947052e6 -1.5287313513137028e7 0.0
0.0 0.0 0.0

-1.1739368132368112e7 3.638228422786013e6 0.0
3.638228422786013e6 2.504863979032371e7 0.0
0.0 0.0 0.0

-5.581510423881807e6 2.120875366747575e7 0.0
2.120875366747575e7 -7.640852047796091e6 0.0
0.0 0.0 0.0

-7.741296528203313e6 1.84063190262674e7 0.0
1.84063190262674e7 2.246227178323869e7 0.0
0.0 0.0 0.0

-552324.8165553873 1.9455282618023355e7 0.0
1.9455282618023355e7 1.5060847727124978e7 0.0
0.0 0.0 0.0

-1.1529322691159787e7 7.874823490457043e6 0.0
7.874823490457043e6 2.659425241812301e7 0.0
0.0 0.0 0.0

1.4437684527318538e6 2.108502786385153e7 0.0
2.108502786385153e7 -9.867636895783694e6 0.0
0.0 0.0 0.0

-5.736580740475135e6 2.631119906314165e7 0.0
2.631119906314165e7 6.7676311615483e6 0.0
0.0 0.0 0.0

-9.553695610992374e6 9.4847293995731e6 0.0
9.4847293995731e6 3.728581127049914e7 0.0
0.0 0.0 0.0

-9.582188952263925e6 1.2260962961813768e7 0.0
1.2260962961813768e7 1.393126073159538e7 0.0
0.0 0.0 0.0

-1.0161121115496032e7 3.185433888644531e6 0.0
3.185433888644531e6 3.6351642682021216e7 0.0
0.0 0.0 0.0

427723.910872546 1.691488426299731e7 0.0
1.691488426299731e7 -1.7811720496392105e7 0.0
0.0 0.0 0.0

-5.321700317486656e6 2.3636172462081965e7 0.0
2.3636172462081965e7 9.587838064884264e6 0.0
0.0 0.0 0.0

-2.2511710726730265e6 1.967667127600237e7 0.0
1.967667127600237e7 -1.1778458467506208e6 0.0
0.0 0.0 0.0

3.0808295695119277e6 8.525068478615552e6 0.0
8.525068478615552e6 -1.8548067403108284e7 0.0
0.0 0.0 0.0

-9.756888549159577e6 -434328.9958444676 0.0
-434328.9958444676 3.0441855319453336e7 0.0
0.0 0.0 0.0

-4.128932431831844e6 1.566940394681197e7 0.0
1.566940394681197e7 4.0730347205141254e7 0.0
0.0 0.0 0.0

-7.804599893735755e6 1.2228146164509527e7 0.0
1.2228146164509527e7 4.017125010045204e7 0.0
0.0 0.0 0.0

1.4117533087229643e6 1.886296932180849e7 0.0
1.886296932180849e7 1.0495456305276295e7 0.0
0.0 0.0 0.0

-1.2160411407268777e7 6.373498518567928e6 0.0
6.373498518567928e6 2.4587851754739814e7 0.0
0.0 0.0 0.0

-4.765586481632357e6 1.4490297002901454e7 0.0
1.4490297002901454e7 9.6932924162325e6 0.0
0.0 0.0 0.0

-1.156140542903612e6 1.945784405448012e7 0.0
1.945784405448012e7 -6.060943060438188e6 0.0
0.0 0.0 0.0

437068.6839982085 1.5330535990001412e7 0.0
1.5330535990001412e7 -1.5326200678955693e7 0.0
0.0 0.0 0.0

-4.207513959939994e6 2.177349568153525e7 0.0
2.177349568153525e7 1.3401344699059699e7 0.0
0.0 0.0 0.0

-4.246050725022763e6 2.9802947280825675e7 0.0
2.9802947280825675e7 4.1552098712272476e6 0.0
0.0 0.0 0.0

-1.0241044702031208e7 1.2939647965179514e7 0.0
1.2939647965179514e7 3.0504027544770937e7 0.0
0.0 0.0 0.0

7.609117585070039e6 1.654558155683743e7 0.0
1.654558155683743e7 2.7697070575334396e7 0.0
0.0 0.0 0.0

-45825.85739501752 1.9207069893616218e7 0.0
1.9207069893616218e7 -8.854682231358228e6 0.0
0.0 0.0 0.0

2.496974011961003e6 1.1053891800002752e7 0.0
1.1053891800002752e7 -2.3893871188181512e7 0.0
0.0 0.0 0.0

3.2392500371602233e6 3.1145589224847914e6 0.0
3.1145589224847914e6 -3.824509953466087e7 0.0
0.0 0.0 0.0

-9.73878045587015e6 -74205.83306695115 0.0
-74205.83306695115 3.396520133645378e7 0.0
0.0 0.0 0.0

-3.6968530792983845e6 2.174058942682338e7 0.0
2.174058942682338e7 1.2252674831706502e7 0.0
0.0 0.0 0.0

-2.800288935539811e6 1.616411436851969e7 0.0
1.616411436851969e7 1.5619061593162162e7 0.0
0.0 0.0 0.0

37717.553659353405 1.6234865699442273e7 0.0
1.6234865699442273e7 5.947015281366991e7 0.0
0.0 0.0 0.0

252667.21842570975 1.4600728247527482e7 0.0
1.4600728247527482e7 -1.4179358713318128e7 0.0
0.0 0.0 0.0

6.091075936175541e6 1.694087678191711e7 0.0
1.694087678191711e7 2.03035869649125e7 0.0
0.0 0.0 0.0

-1.0757195986030752e7 -220951.99658949382 0.0
-220951.99658949382 2.508137452498219e7 0.0
0.0 0.0 0.0

-2.252776517450868e7 1.095057820213096e6 0.0
1.095057820213096e6 8.503693543075172e6 0.0
0.0 0.0 0.0

2.199439091879191e6 9.487269161093516e6 0.0
9.487269161093516e6 -2.8398670677534793e7 0.0
0.0 0.0 0.0

-1.2002364825326838e7 4.1809500764854285e6 0.0
4.1809500764854285e6 2.1741670450642493e7 0.0
0.0 0.0 0.0

1.451258118955575e6 1.0796746061540587e7 0.0
1.0796746061540587e7 -3.1438794371868107e7 0.0
0.0 0.0 0.0

-7.264713212982135e6 1.647395630405186e7 0.0
1.647395630405186e7 3.032415439090396e7 0.0
0.0 0.0 0.0

4.044207561861528e6 3.574965870905737e6 0.0
3.574965870905737e6 -2.4185725742762305e7 0.0
0.0 0.0 0.0

9.852498527186992e6 2.6116556003203787e7 0.0
2.6116556003203787e7 -4.979594540228342e6 0.0
0.0 0.0 0.0

-2.1282712392084566e6 1.423463078164225e7 0.0
1.423463078164225e7 -776796.199312552 0.0
0.0 0.0 0.0

1.0498982384022183e6 6.574123536666316e6 0.0
6.574123536666316e6 -4.2871358888824545e6 0.0
0.0 0.0 0.0

2.8602677200218394e7 6.035950904605512e6 0.0
6.035950904605512e6 -2.2727461107644867e6 0.0
0.0 0.0 0.0

-5.645790612653704e6 1.687306999018864e7 0.0
1.687306999018864e7 3.0759265191711985e7 0.0
0.0 0.0 0.0

-1.0004854543046636e6 1.0515007708911438e7 0.0
1.0515007708911438e7 -6.12969724695921e6 0.0
0.0 0.0 0.0

-1.0845706167547902e7 4.541173018480953e6 0.0
4.541173018480953e6 3.405787617926889e7 0.0
0.0 0.0 0.0

1.9523411008042204e6 5.513188806398125e6 0.0
5.513188806398125e6 -9.736833290492548e6 0.0
0.0 0.0 0.0

-4.900451596688013e6 2.0787982561109822e7 0.0
2.0787982561109822e7 -5.701902974523505e6 0.0
0.0 0.0 0.0

-4.515154633337183e6 1.993640870142745e7 0.0
1.993640870142745e7 1.628671985487995e7 0.0
0.0 0.0 0.0

-1.1715481867403226e7 8.082046698408563e6 0.0
8.082046698408563e6 2.2024959227518402e7 0.0
0.0 0.0 0.0

2.4783593024238776e6 8.160897038295886e6 0.0
8.160897038295886e6 -2.9249684276413277e7 0.0
0.0 0.0 0.0

-5.460301223469213e6 1.5924940875143489e7 0.0
1.5924940875143489e7 -3.553089507693409e7 0.0
0.0 0.0 0.0

-6.712480657008478e6 6.591386402611932e6 0.0
6.591386402611932e6 6.5119429499336295e6 0.0
0.0 0.0 0.0

3.579126234565695e6 3.8120853084039767e6 0.0
3.8120853084039767e6 -2.2202040430160422e7 0.0
0.0 0.0 0.0

-281769.9539814936 1.7641196652264915e7 0.0
1.7641196652264915e7 -1.3128289003914956e7 0.0
0.0 0.0 0.0

1.7408897867052734e7 2.1056309033178687e7 0.0
2.1056309033178687e7 5.671690793748988e6 0.0
0.0 0.0 0.0

3.0698823955391105e6 5.862015212267184e6 0.0
5.862015212267184e6 -3.872966684695614e7 0.0
0.0 0.0 0.0

-1.3130510510815542e7 -272052.14586556284 0.0
-272052.14586556284 6.378598984981941e6 0.0
0.0 0.0 0.0

-6.66628470200151e6 1.849677519812023e7 0.0
1.849677519812023e7 2.091853087714608e7 0.0
0.0 0.0 0.0

-1.9597065352324513e6 8.901597620711192e6 0.0
8.901597620711192e6 1.4705079809116009e6 0.0
0.0 0.0 0.0

-1.1694905819800371e7 7.313208829735532e6 0.0
7.313208829735532e6 2.395458004496883e7 0.0
0.0 0.0 0.0

2.5903613783608787e6 6.243975274880746e6 0.0
6.243975274880746e6 -4.4661585454328805e7 0.0
0.0 0.0 0.0

8.894463869821522e6 1.7706626565306395e7 0.0
1.7706626565306395e7 2.9648213415705044e7 0.0
0.0 0.0 0.0

8.0931507972653415e6 2.2352777469120022e7 0.0
2.2352777469120022e7 1.1543296265325787e7 0.0
0.0 0.0 0.0

-4.814640311721722e6 1.714391349368418e7 0.0
1.714391349368418e7 -2.1444892804584224e7 0.0
0.0 0.0 0.0

-28606.274176330306 1.3445815122991422e7 0.0
1.3445815122991422e7 -1.203817717475e7 0.0
0.0 0.0 0.0

-4.022512854215648e6 2.0629875214661e7 0.0
2.0629875214661e7 1.513992055520844e7 0.0
0.0 0.0 0.0

8.860178759072673e6 2.0084586636612926e7 0.0
2.0084586636612926e7 -53704.28061489621 0.0
0.0 0.0 0.0

1.8679035290805623e6 1.0727988456720792e7 0.0
1.0727988456720792e7 -2.748794135612118e7 0.0
0.0 0.0 0.0

651271.6553128045 2.874481420173957e7 0.0
2.874481420173957e7 -2.8229442475621225e6 0.0
0.0 0.0 0.0

-258404.82725745463 1.743154437944399e7 0.0
1.743154437944399e7 3.86015702585885e6 0.0
0.0 0.0 0.0

-6.506930720623254e7 5.437329113133344e6 0.0
5.437329113133344e6 4.796272084652949e6 0.0
0.0 0.0 0.0

5.136817817038173e7 7.046878489254767e6 0.0
7.046878489254767e6 -1.032860045097664e6 0.0
0.0 0.0 0.0

3.4144104129017545e6 2.0351855446739502e7 0.0
2.0351855446739502e7 8.41092766069277e6 0.0
0.0 0.0 0.0

-5.367738692246957e6 7.633464809309407e6 0.0
7.633464809309407e6 2.6459949443800792e7 0.0
0.0 0.0 0.0

504099.4329434633 1.908972595505119e7 0.0
1.908972595505119e7 1.5078972388704352e7 0.0
0.0 0.0 0.0

1.4661551934940615e6 2.403654155899928e7 0.0
2.403654155899928e7 -7.193610125001936e6 0.0
0.0 0.0 0.0

4.4836629047502745e6 1.911835074964198e7 0.0
1.911835074964198e7 1.4945543752769861e7 0.0
0.0 0.0 0.0

-1.1546282951924153e7 7.047303265961898e6 0.0
7.047303265961898e6 2.1323959667578276e7 0.0
0.0 0.0 0.0

-3.38882133725577e6 2.033554104093928e7 0.0
2.033554104093928e7 1.0073718690632068e7 0.0
0.0 0.0 0.0

-4.308468779908981e7 3.342688898153835e7 0.0
3.342688898153835e7 -7.046262556764913e6 0.0
0.0 0.0 0.0

3.3388100125642866e6 4.322630131415509e6 0.0
4.322630131415509e6 -2.7432766658448156e7 0.0
0.0 0.0 0.0

-2.769997390441516e6 1.99468317837261e7 0.0
1.99468317837261e7 -3.3768685099221347e6 0.0
0.0 0.0 0.0

8.24723984119865e6 1.674482085182137e7 0.0
1.674482085182137e7 3.1386526214543965e7 0.0
0.0 0.0 0.0

-6.34373186879799e6 1.5956261143155707e7 0.0
1.5956261143155707e7 -2.1145773021109596e7 0.0
0.0 0.0 0.0

5.300032459673735e6 1.6718940354656288e7 0.0
1.6718940354656288e7 1.7666775538053926e7 0.0
0.0 0.0 0.0

-484105.46061962843 1.346325720571214e7 0.0
1.346325720571214e7 -3.580008489727248e7 0.0
0.0 0.0 0.0

-1.0325036476725847e7 1.1444778914408276e6 0.0
1.1444778914408276e6 2.6812650905929346e7 0.0
0.0 0.0 0.0

-1.6886782228931513e7 2.9128928499381606e7 0.0
2.9128928499381606e7 6.170754806093257e6 0.0
0.0 0.0 0.0

2.405037877343579e6 8.056303063914917e6 0.0
8.056303063914917e6 -1.7901869502851754e7 0.0
0.0 0.0 0.0

-5.749533705728695e6 1.7279770217499673e7 0.0
1.7279770217499673e7 2.912802796270109e7 0.0
0.0 0.0 0.0

-1.2010176108161204e7 4.388702560737552e6 0.0
4.388702560737552e6 1.8043443515758786e7 0.0
0.0 0.0 0.0

-4.704548485685462e6 2.910862832600879e7 0.0
2.910862832600879e7 4.768077063627528e6 0.0
0.0 0.0 0.0

-1.073020275251951e7 3.2951407518180672e7 0.0
3.2951407518180672e7 5.85227490606347e6 0.0
0.0 0.0 0.0

-1.2072749225424627e7 -736571.614759845 0.0
-736571.614759845 7.132658138293732e6 0.0
0.0 0.0 0.0

-2.7373894613171434e6 1.6607395048424678e7 0.0
1.6607395048424678e7 -1.0412264808272826e7 0.0
0.0 0.0 0.0

1.059435281630225e6 2.348584770881891e7 0.0
2.348584770881891e7 -7.426188134539539e6 0.0
0.0 0.0 0.0

-8.454705346790802e6 2.825204324914596e6 0.0
2.825204324914596e6 9.35023185838258e6 0.0
0.0 0.0 0.0

7.6236720647538835e6 2.6628177002777047e7 0.0
2.6628177002777047e7 -5.188829622585529e6 0.0
0.0 0.0 0.0

-1.2324166510595165e7 5.519164897789303e6 0.0
5.519164897789303e6 1.915952010773042e7 0.0
0.0 0.0 0.0

3.107757776866447e6 4.685945792187422e6 0.0
4.685945792187422e6 -3.19927665351757e7 0.0
0.0 0.0 0.0

3.1086356705687325e6 5.571549938233528e6 0.0
5.571549938233528e6 -2.8685478258364517e7 0.0
0.0 0.0 0.0

814646.8570392719 1.3180055307909349e7 0.0
1.3180055307909349e7 -1.5586417636122296e7 0.0
0.0 0.0 0.0

1.1063088631348806e6 2.0982034525112655e7 0.0
2.0982034525112655e7 -1.0651809346734265e7 0.0
0.0 0.0 0.0

2.5987372353265006e6 5.581410592881638e6 0.0
5.581410592881638e6 -4.730334599191257e7 0.0
0.0 0.0 0.0

-6.008131518371694e6 2.199576356427619e7 0.0
2.199576356427619e7 -1.1489001621900225e7 0.0
0.0 0.0 0.0

775899.1683540288 1.5015111052544463e7 0.0
1.5015111052544463e7 -2.1550289262761332e7 0.0
0.0 0.0 0.0

-8.895762764304817e6 1.7477407250454497e7 0.0
1.7477407250454497e7 2.355614592357548e7 0.0
0.0 0.0 0.0

-5.14712178331444e6 2.1666404703578487e7 0.0
2.1666404703578487e7 -1.0279007514560236e7 0.0
0.0 0.0 0.0

2.561026063806031e6 1.0361066949110582e7 0.0
1.0361066949110582e7 -2.6913598421058018e7 0.0
0.0 0.0 0.0

-2.971350019798704e7 2.2658670316387586e7 0.0
2.2658670316387586e7 5.878653070235686e6 0.0
0.0 0.0 0.0

3.1465731433987506e6 3.9170420875695236e6 0.0
3.9170420875695236e6 -3.3400380348367456e7 0.0
0.0 0.0 0.0

3.6541846734952927e6 5.668178648881017e6 0.0
5.668178648881017e6 -2.854482521551738e7 0.0
0.0 0.0 0.0

616145.2996173147 1.9200231234311946e7 0.0
1.9200231234311946e7 -1.351155830636392e7 0.0
0.0 0.0 0.0

-1.7034963040108148e7 -443096.6176723408 0.0
-443096.6176723408 8.444423002144955e6 0.0
0.0 0.0 0.0

1.6125086181989298e6 1.0398400436820459e7 0.0
1.0398400436820459e7 -1.1054438898364864e7 0.0
0.0 0.0 0.0

-1.4832912834084807e6 1.7457144730976935e7 0.0
1.7457144730976935e7 1.981660740772941e7 0.0
0.0 0.0 0.0

-3.6490522027833816e6 2.79083861862751e7 0.0
2.79083861862751e7 4.609724438572116e6 0.0
0.0 0.0 0.0

-5.616884725045828e6 2.9625272591616217e7 0.0
2.9625272591616217e7 5.036976435758999e6 0.0
0.0 0.0 0.0

-1.248923207874288e7 8.11375477795064e6 0.0
8.11375477795064e6 1.9376902977330003e7 0.0
0.0 0.0 0.0

-3.5426150377811976e6 1.3241155230936386e7 0.0
1.3241155230936386e7 5.596849823928276e7 0.0
0.0 0.0 0.0

-2.6201492199216476e6 2.8343106932160757e7 0.0
2.8343106932160757e7 3.0796252211275715e6 0.0
0.0 0.0 0.0

-3.6809541139484723e6 2.0265597840996604e7 0.0
2.0265597840996604e7 -1.3714863396526924e6 0.0
0.0 0.0 0.0

-70467.66833185824 1.8951084541113883e7 0.0
1.8951084541113883e7 -4.8089625230639875e6 0.0
0.0 0.0 0.0

3.2260242050139606e7 2.248690765922053e7 0.0
2.248690765922053e7 1.2479759459877443e7 0.0
0.0 0.0 0.0

-1.1557337734315695e7 9.411012458888922e6 0.0
9.411012458888922e6 2.1265809665704515e7 0.0
0.0 0.0 0.0

3.7836739644592777e6 4.1463763794938214e6 0.0
4.1463763794938214e6 -3.119659832455454e7 0.0
0.0 0.0 0.0

308871.7252717428 1.8262030947398417e7 0.0
1.8262030947398417e7 -1.214485919278394e7 0.0
0.0 0.0 0.0

-2.9283714769017408e6 1.5458961476384597e7 0.0
1.5458961476384597e7 2.1704363872839846e6 0.0
0.0 0.0 0.0

-1.2253781325084928e7 1.8869947392114293e7 0.0
1.8869947392114293e7 3.6129297124610133e6 0.0
0.0 0.0 0.0

-9.823275018359799e6 1.2084323614531353e6 0.0
1.2084323614531353e6 3.267263991686284e7 0.0
0.0 0.0 0.0

-6.93863073942654e7 4.285475769440343e7 0.0
4.285475769440343e7 -1.3148451596875645e7 0.0
0.0 0.0 0.0

-9.399897012908323e6 1.6603222321674304e7 0.0
1.6603222321674304e7 -3.1332990928851977e7 0.0
0.0 0.0 0.0

7.862240189174596e6 1.7381987252011783e7 0.0
1.7381987252011783e7 2.6207468137111556e7 0.0
0.0 0.0 0.0

925392.679135628 1.4033357840697411e7 0.0
1.4033357840697411e7 -2.429979258183442e7 0.0
0.0 0.0 0.0

-1.240232480741041e7 2.3471300130390625e7 0.0
2.3471300130390625e7 -4.0823152189354096e6 0.0
0.0 0.0 0.0

2.894901931849369e6 8.744634986125145e6 0.0
8.744634986125145e6 -1.6775866102796106e7 0.0
0.0 0.0 0.0

2.893170496641021e6 9.059024784593545e6 0.0
9.059024784593545e6 -2.7728380480647855e7 0.0
0.0 0.0 0.0

-5.160585792005372e6 1.9367378011247274e7 0.0
1.9367378011247274e7 1.793698238193485e7 0.0
0.0 0.0 0.0

1.7665928753467984e6 1.1334931060935477e7 0.0
1.1334931060935477e7 -2.6124302425663948e7 0.0
0.0 0.0 0.0

-4.0443483079685736e6 2.851658421719872e7 0.0
2.851658421719872e7 4.686852455219872e6 0.0
0.0 0.0 0.0

-1.154246175988208e7 6.441685018603465e6 0.0
6.441685018603465e6 2.9827050196073085e7 0.0
0.0 0.0 0.0

-9.677465215562737e6 -1.0799323992035028e6 0.0
-1.0799323992035028e6 2.516276850691593e7 0.0
0.0 0.0 0.0

2.680009996567944e6 7.500969031189119e6 0.0
7.500969031189119e6 -2.8640578060200013e7 0.0
0.0 0.0 0.0

-1.0957335906584995e7 2.2402555274226196e7 0.0
2.2402555274226196e7 -8.694929597481232e6 0.0
0.0 0.0 0.0

4.0475912286004527e6 3.0965543207166933e7 0.0
3.0965543207166933e7 -3.8480041703467825e6 0.0
0.0 0.0 0.0

-7.851062330598317e6 1.773802755899213e7 0.0
1.773802755899213e7 2.2010227035316013e7 0.0
0.0 0.0 0.0

2.8786674447717946e6 6.065179038916115e6 0.0
6.065179038916115e6 -3.130686922651822e7 0.0
0.0 0.0 0.0

2.6854764208660237e6 6.185890457494096e6 0.0
6.185890457494096e6 -4.147146912742548e7 0.0
0.0 0.0 0.0

-6.54326006137269e6 1.2125757924323846e7 0.0
1.2125757924323846e7 4.530161108260719e7 0.0
0.0 0.0 0.0

-1.1007359911682663e7 6.668871642424642e6 0.0
6.668871642424642e6 3.07964143723443e7 0.0
0.0 0.0 0.0

5.9497752787355045e6 2.675959171907738e7 0.0
2.675959171907738e7 -5.269923704689118e6 0.0
0.0 0.0 0.0

-1.7330068708289824e6 2.2001460003205255e7 0.0
2.2001460003205255e7 -2.352996014772865e6 0.0
0.0 0.0 0.0

-1.0138497691772662e7 4.695963378583444e6 0.0
4.695963378583444e6 3.521651156576544e7 0.0
0.0 0.0 0.0

3.1679087360244123e6 4.959537069926085e6 0.0
4.959537069926085e6 -1.764020942716232e7 0.0
0.0 0.0 0.0

-2.953080558014141e6 2.207751073367826e7 0.0
2.207751073367826e7 636447.3923164043 0.0
0.0 0.0 0.0

-1.6329919333781809e7 2.3143801808748342e7 0.0
2.3143801808748342e7 -7.29687547979253e6 0.0
0.0 0.0 0.0

-1.051124599150957e7 1.0293101165412879e7 0.0
1.0293101165412879e7 1.4432459060028113e7 0.0
0.0 0.0 0.0

3.546366144572176e6 5.545545713348671e6 0.0
5.545545713348671e6 -3.0527721911592137e7 0.0
0.0 0.0 0.0

1.7849519416378923e6 1.1360890023682848e7 0.0
1.1360890023682848e7 -2.439002649058354e7 0.0
0.0 0.0 0.0

-1.0760322300788373e7 279608.05457764 0.0
279608.05457764 1.6742215708979938e7 0.0
0.0 0.0 0.0

-1.164201148153593e7 9.369690204165446e6 0.0
9.369690204165446e6 2.5484685535219856e7 0.0
0.0 0.0 0.0

-370997.89608476683 1.3686455384767354e7 0.0
1.3686455384767354e7 -3.3408467628769506e7 0.0
0.0 0.0 0.0

3.7764235682166144e6 5.05219854126067e6 0.0
5.05219854126067e6 -2.79178052510231e7 0.0
0.0 0.0 0.0

-2.228821217441276e6 2.176708374562741e7 0.0
2.176708374562741e7 -3.9417151395476535e6 0.0
0.0 0.0 0.0

3.229039212269362e6 7.6838091765837595e6 0.0
7.6838091765837595e6 -2.849942492364587e7 0.0
0.0 0.0 0.0

-1.0227727044905255e7 2.0744274826818777e6 0.0
2.0744274826818777e6 1.9188850939235855e7 0.0
0.0 0.0 0.0

-1.3542912049938181e7 1.832363916906268e7 0.0
1.832363916906268e7 -4.514304325927713e7 0.0
0.0 0.0 0.0

1.176096302951863e7 1.8889747302223872e7 0.0
1.8889747302223872e7 3.920321249760127e7 0.0
0.0 0.0 0.0

569789.7828251089 1.9278131325853396e7 0.0
1.9278131325853396e7 959066.200652037 0.0
0.0 0.0 0.0

-2.5445461575087372e7 1.6308913033651756e6 0.0
1.6308913033651756e6 7.8156942619077265e6 0.0
0.0 0.0 0.0

-9.352317648956131e6 -876130.1731154242 0.0
-876130.1731154242 1.875799762082143e7 0.0
0.0 0.0 0.0

5.43007383082779e6 1.8992747968666863e7 0.0
1.8992747968666863e7 1.8100243299446624e7 0.0
0.0 0.0 0.0

-4.877725594128368e6 1.7924419817022916e7 0.0
1.7924419817022916e7 -1.6259083093212832e7 0.0
0.0 0.0 0.0

-2.7539706618226394e6 1.3492820287747012e7 0.0
1.3492820287747012e7 6.135032486275912e7 0.0
0.0 0.0 0.0

2.789019050857177e6 6.808690965208068e6 0.0
6.808690965208068e6 -2.997870800394472e7 0.0
0.0 0.0 0.0

802784.7373235989 2.283904149531365e7 0.0
2.283904149531365e7 -8.51488348229385e6 0.0
0.0 0.0 0.0

-6.791168918936003e6 1.6298893331866536e7 0.0
1.6298893331866536e7 -3.424598479101843e7 0.0
0.0 0.0 0.0

-3.834767425334773e6 2.695065423888043e7 0.0
2.695065423888043e7 4.047691483425166e6 0.0
0.0 0.0 0.0

-4.480606550471738e6 2.1824149315253418e7 0.0
2.1824149315253418e7 8.0108537997004315e6 0.0
0.0 0.0 0.0

122798.19231123477 2.6876781055292487e7 0.0
2.6876781055292487e7 -3.742620586092595e6 0.0
0.0 0.0 0.0

-1.192108877725283e7 1.689948440231072e7 0.0
1.689948440231072e7 -4.739104227578685e7 0.0
0.0 0.0 0.0

4.570902558475288e6 2.6711407327852644e7 0.0
2.6711407327852644e7 -5.308409714976765e6 0.0
0.0 0.0 0.0

-7.826220903394343e6 1.6648885922783166e7 0.0
1.6648885922783166e7 2.8385513442600444e7 0.0
0.0 0.0 0.0

2.0760279998373194e6 9.247737580417236e6 0.0
9.247737580417236e6 -1.7580170926929742e7 0.0
0.0 0.0 0.0

2.9481987446357105e6 6.176326138514263e6 0.0
6.176326138514263e6 -2.9332657166506056e7 0.0
0.0 0.0 0.0

1.0171210851794779e6 2.1832814638172697e7 0.0
2.1832814638172697e7 -9.710970935841514e6 0.0
0.0 0.0 0.0

-1.9946915144922282e6 1.5453885085393872e7 0.0
1.5453885085393872e7 -6.194674665750486e6 0.0
0.0 0.0 0.0

1.8937548348901328e6 9.343035542992892e6 0.0
9.343035542992892e6 -3.2747131122697923e7 0.0
0.0 0.0 0.0

-3.3678746225267155e6 2.5715252146428242e7 0.0
2.5715252146428242e7 4.873818949502349e6 0.0
0.0 0.0 0.0

-2.4529560082886736e6 1.744007866845981e7 0.0
1.744007866845981e7 -246330.63877980167 0.0
0.0 0.0 0.0

785619.338154193 1.5223757310195295e7 0.0
1.5223757310195295e7 -1.3237058754328901e7 0.0
0.0 0.0 0.0

1.258760858302243e6 1.2091985066381894e7 0.0
1.2091985066381894e7 -3.148082289548153e7 0.0
0.0 0.0 0.0

2.562648434106211e6 2.6179544307383593e7 0.0
2.6179544307383593e7 -5.4736746801633155e6 0.0
0.0 0.0 0.0

382553.14869781584 1.708171729149755e7 0.0
1.708171729149755e7 -1.2228894095567934e7 0.0
0.0 0.0 0.0

-1.6828298407531143e6 1.573349023251844e7 0.0
1.573349023251844e7 -5.376008322889097e6 0.0
0.0 0.0 0.0

2.5122145401534513e7 5.688739536635693e6 0.0
5.688739536635693e6 -2.5298001060127933e6 0.0
0.0 0.0 0.0

-3.3730494215205675e6 1.851837155977769e7 0.0
1.851837155977769e7 7.153890854164221e6 0.0
0.0 0.0 0.0

-9.423057104118185e6 9.391085369248683e6 0.0
9.391085369248683e6 1.6133878449860152e7 0.0
0.0 0.0 0.0

-1.0109545509845247e7 837966.1594206902 0.0
837966.1594206902 2.89488576244105e7 0.0
0.0 0.0 0.0

4.0282520829459056e6 3.817123499462102e6 0.0
3.817123499462102e6 -2.6611484193264477e7 0.0
0.0 0.0 0.0

3.372711181197351e6 6.323493818018246e6 0.0
6.323493818018246e6 -1.9911523817730907e7 0.0
0.0 0.0 0.0

3.8257926427305434e6 5.182405382827142e6 0.0
5.182405382827142e6 -2.595358524864945e7 0.0
0.0 0.0 0.0

-4.0382743670548145e6 1.74700745724309e7 0.0
1.74700745724309e7 -2.0298795608020846e7 0.0
0.0 0.0 0.0

3.470001721752954e6 2.6493090717775468e7 0.0
2.6493090717775468e7 -5.372673116871964e6 0.0
0.0 0.0 0.0

-7.866829902768945e6 1.6946081166776214e7 0.0
1.6946081166776214e7 2.6668067010055125e7 0.0
0.0 0.0 0.0

-4.019387746593171e6 1.902756993009829e7 0.0
1.902756993009829e7 6.267292622884677e6 0.0
0.0 0.0 0.0

3.1598432327833753e6 5.729477090467216e6 0.0
5.729477090467216e6 -2.6853455067595087e7 0.0
0.0 0.0 0.0

-1.1648808058962649e7 3.204340610093923e6 0.0
3.204340610093923e6 1.721142200172721e7 0.0
0.0 0.0 0.0

-8.148798587131213e6 1.7986113071553472e7 0.0
1.7986113071553472e7 2.3424542344749473e7 0.0
0.0 0.0 0.0

588597.5003486043 1.889228738077318e7 0.0
1.889228738077318e7 -1.4523984968863666e7 0.0
0.0 0.0 0.0

999322.3690287168 1.961555657410922e7 0.0
1.961555657410922e7 -5.728893633790184e6 0.0
0.0 0.0 0.0

-3.5301704267454734e6 2.6679314475514345e7 0.0
2.6679314475514345e7 5.31095660089487e6 0.0
0.0 0.0 0.0

1.3452573723515868e6 1.4878609316028874e7 0.0
1.4878609316028874e7 -2.1361652468226e7 0.0
0.0 0.0 0.0

3.542872522892669e6 6.408953119916006e6 0.0
6.408953119916006e6 -2.7313963725989886e7 0.0
0.0 0.0 0.0

3.03169420404928e6 6.308009219553013e6 0.0
6.308009219553013e6 -2.7454872904215157e7 0.0
0.0 0.0 0.0

1.8713412568797031e6 8.347350917232733e6 0.0
8.347350917232733e6 -1.4273357910263136e7 0.0
0.0 0.0 0.0

2.854929939561505e6 6.883807701678973e6 0.0
6.883807701678973e6 -2.807921276560525e7 0.0
0.0 0.0 0.0

3.8504779536621785e6 5.652983444570792e6 0.0
5.652983444570792e6 -2.2837992584175557e7 0.0
0.0 0.0 0.0

-7.2644333668231275e6 3.178500667095811e7 0.0
3.178500667095811e7 5.22815126113301e6 0.0
0.0 0.0 0.0

6.052121029096824e6 2.811122361677387e7 0.0
2.811122361677387e7 -5.088070397872312e6 0.0
0.0 0.0 0.0

-5.040733085669665e6 2.2746802272415873e7 0.0
2.2746802272415873e7 8.129536110334072e6 0.0
0.0 0.0 0.0

3.0518262809425006e6 6.223640138718187e6 0.0
6.223640138718187e6 -2.375662349164309e7 0.0
0.0 0.0 0.0

-1.8997252713937222e6 1.8918055398123033e7 0.0
1.8918055398123033e7 -6.915963969207689e6 0.0
0.0 0.0 0.0

-1.1666298997765114e6 1.6353682376306597e7 0.0
1.6353682376306597e7 -227641.99055446003 0.0
0.0 0.0 0.0

-1.7915967208479587e7 2.0585527779464986e7 0.0
2.0585527779464986e7 -5.97199047272948e7 0.0
0.0 0.0 0.0

1.704877115389481e7 2.2049048845178917e7 0.0
2.2049048845178917e7 5.682925466629575e7 0.0
0.0 0.0 0.0

1.0676089751036707e7 2.0417477693527598e7 0.0
2.0417477693527598e7 -33453.92062797863 0.0
0.0 0.0 0.0

1.6364274273986315e7 2.1795676007977962e7 0.0
2.1795676007977962e7 -576636.6388704292 0.0
0.0 0.0 0.0

1.0682495466076024e6 6.733371315015096e6 0.0
6.733371315015096e6 -5.2234559102498874e7 0.0
0.0 0.0 0.0

861301.7795796953 1.737606299775542e7 0.0
1.737606299775542e7 -1.651664523470021e7 0.0
0.0 0.0 0.0

-671586.4048364898 1.947878109504667e7 0.0
1.947878109504667e7 1.2957516061098766e7 0.0
0.0 0.0 0.0

-1.1137284990691911e7 6.041270452322362e6 0.0
6.041270452322362e6 3.2232456922972444e7 0.0
0.0 0.0 0.0

-7.094711800541749e6 1.5985655175654925e7 0.0
1.5985655175654925e7 3.2261901591354266e7 0.0
0.0 0.0 0.0

-2.972452555266481e6 2.08740863258493e7 0.0
2.08740863258493e7 7.684181849097699e6 0.0
0.0 0.0 0.0

-977849.2182563397 1.5044532411379788e7 0.0
1.5044532411379788e7 -5.546481676110322e6 0.0
0.0 0.0 0.0

-1.206403349870582e7 2.5165462649841484e7 0.0
2.5165462649841484e7 -1.0294016231421448e7 0.0
0.0 0.0 0.0

-3.815942836927009e6 2.1259507608637515e7 0.0
2.1259507608637515e7 1.3641535437868211e7 0.0
0.0 0.0 0.0

-7.894083581739073e6 1.3543780847334916e7 0.0
1.3543780847334916e7 1.2495456762370635e7 0.0
0.0 0.0 0.0

-3.084440910954015e6 2.1786792189336933e7 0.0
2.1786792189336933e7 4.897422104611867e6 0.0
0.0 0.0 0.0

2.930261684160037e6 6.71861723487323e6 0.0
6.71861723487323e6 -3.705519267750764e7 0.0
0.0 0.0 0.0

3.4159409960993445e6 7.322418884690466e6 0.0
7.322418884690466e6 -1.884395291499254e7 0.0
0.0 0.0 0.0

18361.565614530817 1.9303908760704003e7 0.0
1.9303908760704003e7 -1.2877560105614806e7 0.0
0.0 0.0 0.0

1.644859718904606e6 1.2020868848380834e7 0.0
1.2020868848380834e7 -2.3209527063605767e7 0.0
0.0 0.0 0.0

-9.258702395786265e6 8.372671731027986e6 0.0
8.372671731027986e6 3.9473401405672766e7 0.0
0.0 0.0 0.0

-7.030187411419084e6 2.5800535426316233e6 0.0
2.5800535426316233e6 7.741069737198982e6 0.0
0.0 0.0 0.0

-7.191746115386095e6 7.461211079245168e6 0.0
7.461211079245168e6 5.054900177204942e7 0.0
0.0 0.0 0.0

-374878.02270786837 1.8480332073708814e7 0.0
1.8480332073708814e7 -1.2481472208216332e7 0.0
0.0 0.0 0.0

-4.603001293406795e6 2.3110137904126883e7 0.0
2.3110137904126883e7 9.317470407758977e6 0.0
0.0 0.0 0.0

-8.742037697209794e6 1.208585006818073e7 0.0
1.208585006818073e7 1.681890821805552e7 0.0
0.0 0.0 0.0

2.1876210310687264e6 2.4368695911003474e7 0.0
2.4368695911003474e7 -6.793701127956528e6 0.0
0.0 0.0 0.0

-1.0565742436195001e7 7.949374782086392e6 0.0
7.949374782086392e6 1.4127829708115207e7 0.0
0.0 0.0 0.0

-4.907022653844836e6 2.0605636902484007e7 0.0
2.0605636902484007e7 1.5107600459785592e7 0.0
0.0 0.0 0.0

2.2346719586124424e7 2.610948020916849e7 0.0
2.610948020916849e7 -6.479105108257188e6 0.0
0.0 0.0 0.0

-7.885775977969858e6 1.8406570826427985e7 0.0
1.8406570826427985e7 2.072281088491343e7 0.0
0.0 0.0 0.0

-4.075492082608101e6 3.7723421138838734e6 0.0
3.7723421138838734e6 7.019278535989234e6 0.0
0.0 0.0 0.0

-2.8634624719178364e7 1.7208764788041916e6 0.0
1.7208764788041916e6 8.093559402761694e6 0.0
0.0 0.0 0.0

3.422626428919932e6 4.391619668318884e6 0.0
4.391619668318884e6 -2.9056838431129817e7 0.0
0.0 0.0 0.0

-7.597557880518754e6 2.838845640915211e7 0.0
2.838845640915211e7 6.196278439781368e6 0.0
0.0 0.0 0.0

-1.0895203889983352e7 844546.860284932 0.0
844546.860284932 1.4814227752070308e7 0.0
0.0 0.0 0.0

-3.5301405930314795e6 1.2990839404146267e7 0.0
1.2990839404146267e7 -455213.15574284166 0.0
0.0 0.0 0.0

-1.1155442250571754e7 2.0747922115033413e6 0.0
2.0747922115033413e6 2.65216396174833e7 0.0
0.0 0.0 0.0

181636.59620770533 1.888912347690161e7 0.0
1.888912347690161e7 -1.4588738530110162e7 0.0
0.0 0.0 0.0

-1.0746519713946767e7 686872.9380102807 0.0
686872.9380102807 2.808521487189216e7 0.0
0.0 0.0 0.0

457711.45139878243 1.5561720300352722e7 0.0
1.5561720300352722e7 -1.6117187544306958e7 0.0
0.0 0.0 0.0

-7.566003148862468e6 1.760798995274586e7 0.0
1.760798995274586e7 2.548064378221332e7 0.0
0.0 0.0 0.0

-1.0705359005151406e7 1.119485976373566e7 0.0
1.119485976373566e7 1.5453592808369244e7 0.0
0.0 0.0 0.0

-5.512645500958156e6 1.6441468193119474e7 0.0
1.6441468193119474e7 3.263529795455519e7 0.0
0.0 0.0 0.0

-1.0017251156032411e7 1.5262429488842988e7 0.0
1.5262429488842988e7 1.921302055750659e7 0.0
0.0 0.0 0.0

-2.8666907830446116e6 2.2816662359939087e7 0.0
2.2816662359939087e7 653999.4944284691 0.0
0.0 0.0 0.0

2.797509134457547e6 7.466748106900189e6 0.0
7.466748106900189e6 -3.538598124671706e7 0.0
0.0 0.0 0.0

-5.823815108030342e6 1.7635504816316504e7 0.0
1.7635504816316504e7 2.774009741394552e7 0.0
0.0 0.0 0.0

1.1354954752764247e7 2.049372241193713e7 0.0
2.049372241193713e7 6.645260664881678e6 0.0
0.0 0.0 0.0

-1.944518705029346e7 1.1150345521968711e7 0.0
1.1150345521968711e7 9.446280163302798e6 0.0
0.0 0.0 0.0

1.7318413629868738e6 1.125887879331166e7 0.0
1.125887879331166e7 -3.1210436747590043e7 0.0
0.0 0.0 0.0

-7.118190577174235e6 1.2994012791442197e7 0.0
1.2994012791442197e7 1.510000562121236e7 0.0
0.0 0.0 0.0

2.629204650392878e6 9.424791702093704e6 0.0
9.424791702093704e6 -1.5756396220524218e7 0.0
0.0 0.0 0.0

-9.162005773542952e6 -52435.93736031355 0.0
-52435.93736031355 1.6323315204652233e7 0.0
0.0 0.0 0.0

-1.0547971892467473e7 -1.0247249075103978e6 0.0
-1.0247249075103978e6 2.223441055315941e7 0.0
0.0 0.0 0.0

1.109544349712181e6 1.377809232773805e7 0.0
1.377809232773805e7 -1.953939353706709e7 0.0
0.0 0.0 0.0

-1.1208995175241988e7 6.06169934382862e6 0.0
6.06169934382862e6 2.041455911539249e7 0.0
0.0 0.0 0.0

-5.330676085005734e6 2.3669284656704392e7 0.0
2.3669284656704392e7 8.1841482097579e6 0.0
0.0 0.0 0.0

4.851429606343901e6 1.630262239717275e7 0.0
1.630262239717275e7 7.255252698890688e6 0.0
0.0 0.0 0.0

-326992.77360430756 7.713113730064099e6 0.0
7.713113730064099e6 -1.6903090259632058e6 0.0
0.0 0.0 0.0

201019.79198344192 1.907177366824116e7 0.0
1.907177366824116e7 -1.1546900637302978e7 0.0
0.0 0.0 0.0

2.7353370229362017e6 7.5825260647352105e6 0.0
7.5825260647352105e6 -2.1559490004195433e7 0.0
0.0 0.0 0.0

320112.3135890693 2.6176637041757837e7 0.0
2.6176637041757837e7 -4.534481343672901e6 0.0
0.0 0.0 0.0

-5.06559757538864e6 1.5029486721227802e7 0.0
1.5029486721227802e7 -5.961737857955227e7 0.0
0.0 0.0 0.0

2.8826168469863515e6 5.594807424841588e6 0.0
5.594807424841588e6 -1.6489074236067414e7 0.0
0.0 0.0 0.0

3.230803421540335e6 5.569654409809534e6 0.0
5.569654409809534e6 -2.31968340057367e7 0.0
0.0 0.0 0.0

-3.36573192678321e6 1.757198783504853e7 0.0
1.757198783504853e7 -1.8525104545172576e7 0.0
0.0 0.0 0.0

-1.1008710019299465e6 8.310893500707871e6 0.0
8.310893500707871e6 -165661.07062498273 0.0
0.0 0.0 0.0

-1.3805633371363992e7 1.762526668126141e7 0.0
1.762526668126141e7 -5.469595136011221e7 0.0
0.0 0.0 0.0

2.0272416509745559e6 8.006822597278526e6 0.0
8.006822597278526e6 -9.677476388287643e6 0.0
0.0 0.0 0.0

2.9831782907750355e6 8.223900879114807e6 0.0
8.223900879114807e6 -1.5994821727467874e7 0.0
0.0 0.0 0.0

-564809.3748017703 1.874288424745598e7 0.0
1.874288424745598e7 -2.4827809922773642e6 0.0
0.0 0.0 0.0

-9.107113077257682e6 1.2957800243914008e7 0.0
1.2957800243914008e7 3.390523215289974e7 0.0
0.0 0.0 0.0

-2.805755420731075e6 2.7759547150827114e7 0.0
2.7759547150827114e7 1.6903154443180643e6 0.0
0.0 0.0 0.0

-1.1601381008434305e7 8.587446207974587e6 0.0
8.587446207974587e6 8.877682098120254e6 0.0
0.0 0.0 0.0

1.5194280255655088e6 1.255982488796582e7 0.0
1.255982488796582e7 -2.1931910607382253e7 0.0
0.0 0.0 0.0

865688.8295731032 1.917359807759893e7 0.0
1.917359807759893e7 1.7229816412672862e7 0.0
0.0 0.0 0.0

378264.4046593865 2.5482776592933472e7 0.0
2.5482776592933472e7 -5.380008723809396e6 0.0
0.0 0.0 0.0

-578634.9047382833 1.363955398742216e7 0.0
1.363955398742216e7 -9.997279340834336e6 0.0
0.0 0.0 0.0

1.5956881402450516e6 2.487866832806431e7 0.0
2.487866832806431e7 -6.428817472791802e6 0.0
0.0 0.0 0.0

611666.1659803013 1.406171121451574e7 0.0
1.406171121451574e7 -1.1081241361436477e7 0.0
0.0 0.0 0.0

-9.474484592829525e6 -2.3884952712998693e6 0.0
-2.3884952712998693e6 1.6659454865100894e7 0.0
0.0 0.0 0.0

-246231.10048921127 1.86930448781652e7 0.0
1.86930448781652e7 -1.2945983271505687e7 0.0
0.0 0.0 0.0

1.2112806128584696e7 4.037276164298892e7 0.0
4.037276164298892e7 -7.327919258123285e6 0.0
0.0 0.0 0.0

5.127646554188293e6 2.1903762464921594e7 0.0
2.1903762464921594e7 -4.621155654499264e6 0.0
0.0 0.0 0.0

691400.1361086983 1.8169526405148942e7 0.0
1.8169526405148942e7 -1.555234234910581e7 0.0
0.0 0.0 0.0

-3.937811050904882e6 1.480242702261524e7 0.0
1.480242702261524e7 6.619961143651527e6 0.0
0.0 0.0 0.0

-3.2740431299348595e6 1.7870097885962915e7 0.0
1.7870097885962915e7 -947706.4365938392 0.0
0.0 0.0 0.0

3.9366120608025324e6 3.393581975703512e6 0.0
3.393581975703512e6 -2.8027773372220583e7 0.0
0.0 0.0 0.0

3.155923895431916e6 4.235038616003426e6 0.0
4.235038616003426e6 -1.1852284191114591e7 0.0
0.0 0.0 0.0

-3.63919944749641e6 9.547290103441577e6 0.0
9.547290103441577e6 454076.3353170615 0.0
0.0 0.0 0.0

-8.581581743593499e6 2.149172238682065e7 0.0
2.149172238682065e7 -1.809731897117936e6 0.0
0.0 0.0 0.0

3.000259566625566e6 6.038631701331679e6 0.0
6.038631701331679e6 -1.937111643998149e7 0.0
0.0 0.0 0.0

77348.02589971665 1.5855150783029607e7 0.0
1.5855150783029607e7 -1.4312889302515227e7 0.0
0.0 0.0 0.0

-752777.5304626194 1.954458329261434e7 0.0
1.954458329261434e7 1.0571193724621752e7 0.0
0.0 0.0 0.0

2.324459659261452e6 1.1638794138683544e7 0.0
1.1638794138683544e7 -2.2597303590149235e7 0.0
0.0 0.0 0.0

-1.0867793825579226e7 4.80807946949226e6 0.0
4.80807946949226e6 1.9515416999287568e7 0.0
0.0 0.0 0.0

-2.5443473636456236e7 2.908352779971952e7 0.0
2.908352779971952e7 4.727911995532528e6 0.0
0.0 0.0 0.0

2.4257209687197953e6 1.0995325373483853e7 0.0
1.0995325373483853e7 -2.5580112549407914e7 0.0
0.0 0.0 0.0

-5.157298607791642e7 4.1136864585362813e6 0.0
4.1136864585362813e6 5.759959658548836e6 0.0
0.0 0.0 0.0

2.6562910992635274e6 7.338977163555896e6 0.0
7.338977163555896e6 -1.897399233623635e7 0.0
0.0 0.0 0.0

-4.2954241421735175e6 1.9369354694088053e7 0.0
1.9369354694088053e7 2.0034479351746555e7 0.0
0.0 0.0 0.0

-224157.65917081572 1.3912237843236763e7 0.0
1.3912237843236763e7 -3.1588958406068463e7 0.0
0.0 0.0 0.0

769908.4263450895 1.4949349612856906e7 0.0
1.4949349612856906e7 -2.4286992458079163e7 0.0
0.0 0.0 0.0

-7.603224901237771e6 2.5815109298218526e6 0.0
2.5815109298218526e6 1.2494600553855833e7 0.0
0.0 0.0 0.0

-1.2342963413751582e7 8.988128018607037e6 0.0
8.988128018607037e6 2.4327763046246078e7 0.0
0.0 0.0 0.0

-2.95411373173513e6 1.5198719838598505e7 0.0
1.5198719838598505e7 -2.7372524139344622e6 0.0
0.0 0.0 0.0

-4.453780130561996e6 1.4053426170024732e7 0.0
1.4053426170024732e7 8.204182574743556e6 0.0
0.0 0.0 0.0

-1.1834039485009106e7 7.948496959901925e6 0.0
7.948496959901925e6 2.8049651847199e7 0.0
0.0 0.0 0.0

-1.8800907412834072e6 1.4756001970465308e7 0.0
1.4756001970465308e7 -2.0321488104600026e6 0.0
0.0 0.0 0.0

-150145.6479263315 1.7887740273293838e7 0.0
1.7887740273293838e7 -1.360570379392866e7 0.0
0.0 0.0 0.0

92465.6182979336 1.8854889263417214e7 0.0
1.8854889263417214e7 -1.102495940837105e7 0.0
0.0 0.0 0.0

-220850.5395950214 1.942158065345624e7 0.0
1.942158065345624e7 -1.22962363371541e7 0.0
0.0 0.0 0.0

715032.8244417738 1.4945087347843315e7 0.0
1.4945087347843315e7 -1.7209477777366683e7 0.0
0.0 0.0 0.0

1.8175076487245746e6 8.9130207619472e6 0.0
8.9130207619472e6 -1.5042374986759102e7 0.0
0.0 0.0 0.0

-738077.9748458476 1.8559837793417778e7 0.0
1.8559837793417778e7 -5.749556920239674e6 0.0
0.0 0.0 0.0

-540080.703251793 1.8244483147984788e7 0.0
1.8244483147984788e7 -1.2014455156244244e7 0.0
0.0 0.0 0.0

111725.64660401503 1.426103833226757e7 0.0
1.426103833226757e7 -9.050859100214468e6 0.0
0.0 0.0 0.0

-1.0266068541360032e7 3.7544014082901976e6 0.0
3.7544014082901976e6 1.8492336242694657e7 0.0
0.0 0.0 0.0

902725.9678515224 1.4383767861314386e7 0.0
1.4383767861314386e7 -1.8384755119645253e7 0.0
0.0 0.0 0.0

-1.544418351209156e7 1.934908475926239e7 0.0
1.934908475926239e7 -5.1480612244958736e7 0.0
0.0 0.0 0.0

-6.863037887930889e6 4.353414202977414e6 0.0
4.353414202977414e6 1.1537431861124886e7 0.0
0.0 0.0 0.0

2.336400530114893e6 8.564138928351495e6 0.0
8.564138928351495e6 -1.8626463801354855e7 0.0
0.0 0.0 0.0

-224781.99791849568 7.233913737931391e6 0.0
7.233913737931391e6 -5.352385485617882e6 0.0
0.0 0.0 0.0

-3.7631867010428105e6 1.4178114496949112e7 0.0
1.4178114496949112e7 -5.3867618455436625e7 0.0
0.0 0.0 0.0

-5.067853652517147e6 1.4840362859512674e7 0.0
1.4840362859512674e7 1.1244604138748316e7 0.0
0.0 0.0 0.0

3.4705023618884757e6 6.802839928488069e6 0.0
6.802839928488069e6 -1.811722782290189e7 0.0
0.0 0.0 0.0

-1.2549277845897159e7 8.481361637813998e6 0.0
8.481361637813998e6 2.1753840297709472e7 0.0
0.0 0.0 0.0

-8.805977131124264e6 1.8036249074313643e6 0.0
1.8036249074313643e6 4.188521936648456e7 0.0
0.0 0.0 0.0

460352.79725450906 1.8062231654389527e7 0.0
1.8062231654389527e7 -1.8263122255640663e6 0.0
0.0 0.0 0.0

1.504725042012889e6 1.6365092653428487e7 0.0
1.6365092653428487e7 4.564149013585632e6 0.0
0.0 0.0 0.0

-6.988075764047584e6 2.3900938546467748e7 0.0
2.3900938546467748e7 7.671110979858067e6 0.0
0.0 0.0 0.0

-3.573954784901498e6 2.0057385773237746e7 0.0
2.0057385773237746e7 3.7091379684232855e6 0.0
0.0 0.0 0.0

3.6358216712107174e6 4.860489851484256e6 0.0
4.860489851484256e6 -3.1850396677872658e7 0.0
0.0 0.0 0.0

3.633637049949849e6 5.492385711285397e6 0.0
5.492385711285397e6 -3.230293800432909e7 0.0
0.0 0.0 0.0

-1.0702842753124481e7 1.4316575618273994e7 0.0
1.4316575618273994e7 2.5301613032765426e7 0.0
0.0 0.0 0.0

14360.084219375625 1.7059364105031606e7 0.0
1.7059364105031606e7 -1.4287297675615955e7 0.0
0.0 0.0 0.0

7.403025958077598e6 2.0778304881505832e7 0.0
2.0778304881505832e7 639806.8302109656 0.0
0.0 0.0 0.0

-8.81242963171796e6 4.103836855571444e6 0.0
4.103836855571444e6 4.783011621449787e7 0.0
0.0 0.0 0.0

-3.6587152848624187e6 1.7867367724999957e7 0.0
1.7867367724999957e7 8.66203920117529e6 0.0
0.0 0.0 0.0

-1.116174368129568e6 1.6835710338144243e7 0.0
1.6835710338144243e7 -9.668102354159405e6 0.0
0.0 0.0 0.0

-2.375636207228901e6 1.5627053126172159e7 0.0
1.5627053126172159e7 4.837134844773887e7 0.0
0.0 0.0 0.0

73832.62988284958 5.13404238249854e6 0.0
5.13404238249854e6 -801546.050368577 0.0
0.0 0.0 0.0

-993169.6655094489 2.202511228536687e7 0.0
2.202511228536687e7 -7.368199131325024e6 0.0
0.0 0.0 0.0

4.012459811710217e6 1.990074464582413e7 0.0
1.990074464582413e7 1.5354536426229212e7 0.0
0.0 0.0 0.0

3.123218888046667e6 8.055016240961434e6 0.0
8.055016240961434e6 -1.7811449438777134e7 0.0
0.0 0.0 0.0

-3.151902392156862e6 1.3555317960005578e7 0.0
1.3555317960005578e7 -1.7934425023713303e6 0.0
0.0 0.0 0.0

-6.668425421303386e6 1.4868045419513915e7 0.0
1.4868045419513915e7 3.702588993919352e7 0.0
0.0 0.0 0.0

2.5658508486260716e6 8.99087768715411e6 0.0
8.99087768715411e6 -3.2197796943049688e7 0.0
0.0 0.0 0.0

751136.0059713162 1.7672248347389955e7 0.0
1.7672248347389955e7 -1.6715370722266259e7 0.0
0.0 0.0 0.0

-9.661937563419215e6 259946.05062464144 0.0
259946.05062464144 3.386812575964662e7 0.0
0.0 0.0 0.0

2.1760905899865963e6 1.040898796961178e7 0.0
1.040898796961178e7 -3.0839782836027946e7 0.0
0.0 0.0 0.0

310877.63191487594 1.0030393669795027e7 0.0
1.0030393669795027e7 -6.284321798615706e6 0.0
0.0 0.0 0.0

3.1099677287638187e6 8.415175745222192e6 0.0
8.415175745222192e6 -2.7171803600667626e7 0.0
0.0 0.0 0.0

178754.58012102358 1.4244953904888967e7 0.0
1.4244953904888967e7 -1.3509209127490027e7 0.0
0.0 0.0 0.0

187159.62406984158 1.6178395632015701e7 0.0
1.6178395632015701e7 -1.491978480252529e7 0.0
0.0 0.0 0.0

-1.187941184401409e7 6.685718791289574e6 0.0
6.685718791289574e6 2.7463734117289897e7 0.0
0.0 0.0 0.0

2.9330790610886198e6 1.9558944937207922e7 0.0
1.9558944937207922e7 4.1181396147723794e6 0.0
0.0 0.0 0.0

-1.0277077438523985e7 2.5124753555761357e6 0.0
2.5124753555761357e6 1.7391038096248794e7 0.0
0.0 0.0 0.0

1.28958143030045e6 1.5412263254996499e7 0.0
1.5412263254996499e7 -2.023962016230711e7 0.0
0.0 0.0 0.0

-3.424547715076668e6 5.341231728811406e6 0.0
5.341231728811406e6 5.62358445346068e6 0.0
0.0 0.0 0.0

863217.6559000621 5.422734496484186e6 0.0
5.422734496484186e6 -6.483984781463115e6 0.0
0.0 0.0 0.0

-1075.0428020125255 1.553855815078374e7 0.0
1.553855815078374e7 -1.3734495257058982e7 0.0
0.0 0.0 0.0

3.769132548895616e6 5.375140865137435e6 0.0
5.375140865137435e6 -1.8376834291010123e7 0.0
0.0 0.0 0.0

-1.1559071805017296e7 2.491475939506587e6 0.0
2.491475939506587e6 2.42159316316507e7 0.0
0.0 0.0 0.0

2.539552725355413e6 3.4545224784322707e6 0.0
3.4545224784322707e6 -4.68871229843205e7 0.0
0.0 0.0 0.0

-1.2160577776935915e6 1.7039839429740537e7 0.0
1.7039839429740537e7 -4.053525458558866e6 0.0
0.0 0.0 0.0

-1.2415947719866998e7 1.037240119747556e7 0.0
1.037240119747556e7 1.948847425742245e7 0.0
0.0 0.0 0.0

-7.901411576784731e6 2.2937815509372756e7 0.0
2.2937815509372756e7 5.4577384152789805e6 0.0
0.0 0.0 0.0

2.4218851711797984e6 2.035649506261136e7 0.0
2.035649506261136e7 8.156409307364597e6 0.0
0.0 0.0 0.0

-7.337829589374732e6 1.8094171757807776e7 0.0
1.8094171757807776e7 2.4386179747243337e7 0.0
0.0 0.0 0.0

-5.876457186912729e6 1.889805615266635e7 0.0
1.889805615266635e7 1.9452914245230276e7 0.0
0.0 0.0 0.0

-9.344486951880163e6 -1.8018994136702032e6 0.0
-1.8018994136702032e6 3.38102148043642e7 0.0
0.0 0.0 0.0

-3.258832868519413e6 1.3694340414304376e7 0.0
1.3694340414304376e7 3.6206348384333146e6 0.0
0.0 0.0 0.0

4.415134593713687e6 1.990594715363975e7 0.0
1.990594715363975e7 1.4741307219537232e7 0.0
0.0 0.0 0.0

-4.071977930815293e6 2.1603745320167474e7 0.0
2.1603745320167474e7 1.129470109736893e7 0.0
0.0 0.0 0.0

-1.2409805860541102e7 7.965122230360183e6 0.0
7.965122230360183e6 2.354410324392038e7 0.0
0.0 0.0 0.0

1.0165240335404947e6 1.4020984847044332e7 0.0
1.4020984847044332e7 -2.279001478566245e7 0.0
0.0 0.0 0.0

2.580533918970367e6 6.987776750280313e6 0.0
6.987776750280313e6 -1.6298402331656892e7 0.0
0.0 0.0 0.0

719584.3522063717 1.6812986417724743e7 0.0
1.6812986417724743e7 -1.390313171070481e7 0.0
0.0 0.0 0.0

-3.2219170212393207e6 1.2410254774825793e7 0.0
1.2410254774825793e7 3.56980407792635e6 0.0
0.0 0.0 0.0

3.247493251837466e6 5.334611738066187e6 0.0
5.334611738066187e6 -1.1942423014500098e7 0.0
0.0 0.0 0.0

-1.1327563625986734e6 2.2562440677290607e7 0.0
2.2562440677290607e7 -6.3014852745199865e6 0.0
0.0 0.0 0.0

-9.158975799306402e6 3.1306422739452594e6 0.0
3.1306422739452594e6 3.995095417961757e7 0.0
0.0 0.0 0.0

-9.762755138445541e6 1.278135274229441e6 0.0
1.278135274229441e6 3.499279354332684e7 0.0
0.0 0.0 0.0

-1.0092981912590345e7 1.1146955994767128e7 0.0
1.1146955994767128e7 3.401358719173691e7 0.0
0.0 0.0 0.0

-611266.0860681352 2.0666469018657893e7 0.0
2.0666469018657893e7 -1.0107766344223011e7 0.0
0.0 0.0 0.0

-1.8713000863932213e6 8.366899519739179e6 0.0
8.366899519739179e6 -2.726692258685318e6 0.0
0.0 0.0 0.0

1.4038476528890576e7 2.1989119035623673e7 0.0
2.1989119035623673e7 1.151305399325211e7 0.0
0.0 0.0 0.0

1.0711976031474926e7 2.06271878238303e7 0.0
2.06271878238303e7 4.514638726932378e7 0.0
0.0 0.0 0.0

3.431835634901778e6 6.354899300289366e6 0.0
6.354899300289366e6 -1.5286846668312917e7 0.0
0.0 0.0 0.0

-1.1070252077853132e7 4.4217194361518575e6 0.0
4.4217194361518575e6 2.1331776462776884e7 0.0
0.0 0.0 0.0

-3.2376210089460746e6 1.4892616814410768e7 0.0
1.4892616814410768e7 3.611739959718951e6 0.0
0.0 0.0 0.0

-4.9635356791018415e6 2.0361872035475604e7 0.0
2.0361872035475604e7 1.4844446494632505e7 0.0
0.0 0.0 0.0

3.299862420393575e6 5.91556829719586e6 0.0
5.91556829719586e6 -3.46137131376759e7 0.0
0.0 0.0 0.0

3.312668528486235e6 6.919991979502075e6 0.0
6.919991979502075e6 -2.982977938206586e7 0.0
0.0 0.0 0.0

-5.577088285426083e6 6.033545071789159e6 0.0
6.033545071789159e6 4.578629935138476e6 0.0
0.0 0.0 0.0

-3.4218641266699624e6 1.8847122103181053e7 0.0
1.8847122103181053e7 8.333033883359127e6 0.0
0.0 0.0 0.0

-2.8384621669665407e6 1.6025810338706566e7 0.0
1.6025810338706566e7 4.4843909772357196e7 0.0
0.0 0.0 0.0

558070.4102314655 1.7682171969643153e7 0.0
1.7682171969643153e7 -1.3291014682242975e7 0.0
0.0 0.0 0.0

-3.9159730551561173e6 7.185370139809925e6 0.0
7.185370139809925e6 6.315638057844601e6 0.0
0.0 0.0 0.0

3.4134804735974334e6 6.166977641388674e6 0.0
6.166977641388674e6 -3.1119842611342438e7 0.0
0.0 0.0 0.0

-3.947862186791886e6 2.0898246778153162e7 0.0
2.0898246778153162e7 9.144052262679357e6 0.0
0.0 0.0 0.0

2.484909539443684e6 8.322542320743377e6 0.0
8.322542320743377e6 -2.0553558037403684e7 0.0
0.0 0.0 0.0

-9.628145611761468e6 8.107037552961312e6 0.0
8.107037552961312e6 1.3645076811894346e6 0.0
0.0 0.0 0.0

302996.7799070664 1.4930906852976063e7 0.0
1.4930906852976063e7 -1.4863275414392238e7 0.0
0.0 0.0 0.0

-3.8311892623011004e6 3.549881243335776e6 0.0
3.549881243335776e6 1.9633822642296671e6 0.0
0.0 0.0 0.0

-3.091960723988197e6 1.103377082641155e7 0.0
1.103377082641155e7 3.442807766459111e6 0.0
0.0 0.0 0.0

-2.808703924780965e6 9.52561532346747e6 0.0
9.52561532346747e6 3.2257235198298395e6 0.0
0.0 0.0 0.0

-80223.19140371867 1.5157945078780608e7 0.0
1.5157945078780608e7 -1.3115102718340486e7 0.0
0.0 0.0 0.0

-3.2641024074505954e6 1.472432288144822e7 0.0
1.472432288144822e7 -1.5636482103218162e6 0.0
0.0 0.0 0.0

-1.2150646898928815e7 8.388896570107417e6 0.0
8.388896570107417e6 2.618378551233848e7 0.0
0.0 0.0 0.0

-5.868439452692667e6 1.3785114320242774e7 0.0
1.3785114320242774e7 4.285799893470433e7 0.0
0.0 0.0 0.0

-8.69975367229613e6 1.1129834321591727e7 0.0
1.1129834321591727e7 3.8883249562655255e7 0.0
0.0 0.0 0.0

-6.335705856634837e6 1.4335526654970104e7 0.0
1.4335526654970104e7 3.977890218577114e7 0.0
0.0 0.0 0.0

-6.564586035232205e6 7.179494555935252e6 0.0
7.179494555935252e6 5.9397237031808324e7 0.0
0.0 0.0 0.0

-911332.6757819676 1.9610504688883133e7 0.0
1.9610504688883133e7 8.203427692123269e6 0.0
0.0 0.0 0.0

-9.133354190654375e6 5.221086961174071e6 0.0
5.221086961174071e6 4.511687822370196e7 0.0
0.0 0.0 0.0

-2.0664059923271313e6 2.1189702778068095e7 0.0
2.1189702778068095e7 -5.053767862103999e6 0.0
0.0 0.0 0.0

-1.3751814540146547e6 1.8481746206578594e7 0.0
1.8481746206578594e7 -1.1035491010602528e7 0.0
0.0 0.0 0.0

-5.1655531312200226e7 3.270400527492805e7 0.0
3.270400527492805e7 -9.000343658728492e6 0.0
0.0 0.0 0.0

3.0639968629046828e6 7.693927165817535e6 0.0
7.693927165817535e6 -1.5180910710338434e7 0.0
0.0 0.0 0.0

2.198133987802335e6 1.2311855519602235e7 0.0
1.2311855519602235e7 -2.1555995516883217e7 0.0
0.0 0.0 0.0

-808893.8848181926 2.2747788305066034e7 0.0
2.2747788305066034e7 -5.431369333582619e6 0.0
0.0 0.0 0.0

-2.5799069197885497e6 2.1809048238804813e7 0.0
2.1809048238804813e7 3.245833016376375e6 0.0
0.0 0.0 0.0

3.2855301639410425e6 7.751872983164141e6 0.0
7.751872983164141e6 -2.6673566108867202e7 0.0
0.0 0.0 0.0

1.4862364294729337e7 2.350951995206703e7 0.0
2.350951995206703e7 -3.9577440575400777e6 0.0
0.0 0.0 0.0

-4.506754354327571e6 1.1661800704203544e7 0.0
1.1661800704203544e7 2.4306551989714853e6 0.0
0.0 0.0 0.0

1.5288167629152983e6 6.149545678700141e6 0.0
6.149545678700141e6 -4.818470261131284e7 0.0
0.0 0.0 0.0

-4.420080556737239e6 1.0193742618274854e7 0.0
1.0193742618274854e7 2.1599247710409313e6 0.0
0.0 0.0 0.0

2.1841463550040647e6 8.238068832486006e6 0.0
8.238068832486006e6 -1.606291423479609e7 0.0
0.0 0.0 0.0

-7.073785064284322e6 1.8411869335756388e7 0.0
1.8411869335756388e7 2.331056240007847e7 0.0
0.0 0.0 0.0

-3.374559396510192e7 2.8486337285881225e7 0.0
2.8486337285881225e7 2.0359725655098371e6 0.0
0.0 0.0 0.0

-1.0498469741132611e7 -253692.5535857988 0.0
-253692.5535857988 2.7667087989278316e7 0.0
0.0 0.0 0.0

420868.2490317309 1.8493603691089008e7 0.0
1.8493603691089008e7 -1.2643088954610396e7 0.0
0.0 0.0 0.0

-1.475780305004885e7 2.5105196653754804e7 0.0
2.5105196653754804e7 -5.360858913731304e6 0.0
0.0 0.0 0.0

3.4464311210133666e6 5.768730722886993e6 0.0
5.768730722886993e6 -1.4712650819219775e7 0.0
0.0 0.0 0.0

-1.1788367123726467e7 8.984825125319375e6 0.0
8.984825125319375e6 2.3095180747996595e7 0.0
0.0 0.0 0.0

572659.8601808082 1.6170062520733962e7 0.0
1.6170062520733962e7 -1.2745994542613242e7 0.0
0.0 0.0 0.0

-766175.3233524903 1.5448170877487544e7 0.0
1.5448170877487544e7 -6.538978561579417e6 0.0
0.0 0.0 0.0

-4.487132241787434e6 1.3015054463876486e7 0.0
1.3015054463876486e7 2.584443341908644e6 0.0
0.0 0.0 0.0

-1.0503047226592634e7 9.577098451908682e6 0.0
9.577098451908682e6 3.4098688882235676e7 0.0
0.0 0.0 0.0

3.9120275044549145e6 4.276114157889645e6 0.0
4.276114157889645e6 -2.9163737717360087e7 0.0
0.0 0.0 0.0

3.1186500189420665e6 5.513978013648958e6 0.0
5.513978013648958e6 -1.8308459484043684e7 0.0
0.0 0.0 0.0

-3.942295502894506e6 2.059615303804831e7 0.0
2.059615303804831e7 8.241631474162754e6 0.0
0.0 0.0 0.0

-9.542207493419439e6 1.6434432120394753e6 0.0
1.6434432120394753e6 1.1775285240961768e7 0.0
0.0 0.0 0.0

82657.08294416219 1.3841832038084477e7 0.0
1.3841832038084477e7 -1.2824858087760983e7 0.0
0.0 0.0 0.0

3.483433098339443e6 6.9328126110551935e6 0.0
6.9328126110551935e6 -2.2520455151961662e7 0.0
0.0 0.0 0.0

-9.92336242988815e6 4.398571807491856e6 0.0
4.398571807491856e6 3.759999018871414e7 0.0
0.0 0.0 0.0

-1.1208672909640789e6 1.9766420238837305e7 0.0
1.9766420238837305e7 5.745201053119736e6 0.0
0.0 0.0 0.0

-1.1222909188847385e7 1.3378937058919028e6 0.0
1.3378937058919028e6 2.3590452098886713e7 0.0
0.0 0.0 0.0

1.653101557400465e6 1.1781521183341647e7 0.0
1.1781521183341647e7 -2.9612834625064228e7 0.0
0.0 0.0 0.0

-338133.1032045074 1.7313798101306234e7 0.0
1.7313798101306234e7 -1.861844934916274e7 0.0
0.0 0.0 0.0

-1.1950834581498329e7 1.1568874662010016e7 0.0
1.1568874662010016e7 1.8832023937714554e7 0.0
0.0 0.0 0.0

1.0777808377689226e6 1.4877289548561756e7 0.0
1.4877289548561756e7 -2.2849626443394475e7 0.0
0.0 0.0 0.0

1.1384041205042182e6 1.5250270300465943e7 0.0
1.5250270300465943e7 -1.5638503740443906e7 0.0
0.0 0.0 0.0

-437038.8241407841 2.926970386368265e6 0.0
2.926970386368265e6 626457.94307592 0.0
0.0 0.0 0.0

-1.1080060577089604e7 266197.0896483892 0.0
266197.0896483892 2.087126400371052e7 0.0
0.0 0.0 0.0

199214.03369299928 1.1992581583523393e7 0.0
1.1992581583523393e7 -1.1551362664021965e7 0.0
0.0 0.0 0.0

592861.9660745715 1.0891729929830706e7 0.0
1.0891729929830706e7 -1.1853712282845104e7 0.0
0.0 0.0 0.0

691512.0162774101 1.6484596352034364e7 0.0
1.6484596352034364e7 -1.3324721659481037e7 0.0
0.0 0.0 0.0

-1.5872855787139095e6 1.991301703461211e7 0.0
1.991301703461211e7 3.2673926509061153e6 0.0
0.0 0.0 0.0

1.4625559417945538e6 9.588853462767083e6 0.0
9.588853462767083e6 -1.399826132312097e7 0.0
0.0 0.0 0.0

-1.8487425716932733e6 1.3171270480552174e7 0.0
1.3171270480552174e7 -4.3511999669088855e7 0.0
0.0 0.0 0.0

-9.160541770591669e6 3.372566637500493e6 0.0
3.372566637500493e6 1.1186417811817335e7 0.0
0.0 0.0 0.0

-1.0082934085747994e7 1.7732106435324457e7 0.0
1.7732106435324457e7 -3.849934640942311e7 0.0
0.0 0.0 0.0

-1.0981120434142782e8 1.309182594993191e7 0.0
1.309182594993191e7 38624.843223914504 0.0
0.0 0.0 0.0

9.51067193144716e7 1.399140316778874e7 0.0
1.399140316778874e7 4.346145316764649e6 0.0
0.0 0.0 0.0

-3.095212890180489e6 1.3582919506510742e7 0.0
1.3582919506510742e7 -5.000515587238979e7 0.0
0.0 0.0 0.0

-8.432545377590492e6 1.5765300318653075e7 0.0
1.5765300318653075e7 2.0005623216635317e7 0.0
0.0 0.0 0.0

-3.322809639861555e6 1.938735959599252e7 0.0
1.938735959599252e7 407999.0510264707 0.0
0.0 0.0 0.0

-158725.10519267153 1.3029195813580232e7 0.0
1.3029195813580232e7 -1.1228041771672672e7 0.0
0.0 0.0 0.0

-457791.52591419977 6.372543902647695e6 0.0
6.372543902647695e6 -4.206859909371558e6 0.0
0.0 0.0 0.0

453842.7460975514 7.148991970128724e6 0.0
7.148991970128724e6 -3.077166993256397e6 0.0
0.0 0.0 0.0

-4.382837867848072e6 1.42773879201902e7 0.0
1.42773879201902e7 2.6588822934606196e6 0.0
0.0 0.0 0.0

-2.4466966909830924e6 1.3340575613984251e7 0.0
1.3340575613984251e7 -4.657527918343618e7 0.0
0.0 0.0 0.0

1.211749516501185e6 1.1540046793340892e7 0.0
1.1540046793340892e7 -1.0826498875315819e7 0.0
0.0 0.0 0.0

-1.1031053895723851e7 2.751169558399728e6 0.0
2.751169558399728e6 3.016736068765136e7 0.0
0.0 0.0 0.0

7.749768085658188e7 1.7112732132472586e7 0.0
1.7112732132472586e7 -69703.4160528481 0.0
0.0 0.0 0.0

832261.9565089634 1.2614205374945149e7 0.0
1.2614205374945149e7 -1.0568135201126628e7 0.0
0.0 0.0 0.0

3.6102454508464877e6 6.512351752073299e6 0.0
6.512351752073299e6 -2.553533299362831e7 0.0
0.0 0.0 0.0

3.4510231317506973e6 7.120629038900712e6 0.0
7.120629038900712e6 -2.6107461541125745e7 0.0
0.0 0.0 0.0

-6.836250406583833e6 1.874789297459716e7 0.0
1.874789297459716e7 2.2225122728712752e7 0.0
0.0 0.0 0.0

1.6455488309028484e6 1.4051364178059738e7 0.0
1.4051364178059738e7 -1.784498177179863e7 0.0
0.0 0.0 0.0

-3.1020716794304964e6 2.034166646782241e7 0.0
2.034166646782241e7 -1.0910739358874721e7 0.0
0.0 0.0 0.0

5.753423170047242e6 2.1643921332441937e7 0.0
2.1643921332441937e7 -3.4774282109182174e6 0.0
0.0 0.0 0.0

-1.8999240395573857e6 1.3034017253994616e7 0.0
1.3034017253994616e7 -960667.7945466507 0.0
0.0 0.0 0.0

1.662361230999776e6 5.953735652111924e6 0.0
5.953735652111924e6 -5.569452340503564e6 0.0
0.0 0.0 0.0

-2.748782529151129e6 8.941179603894213e6 0.0
8.941179603894213e6 -1.1570595209694537e6 0.0
0.0 0.0 0.0

-5.746792912069282e6 6.12698045547188e6 0.0
6.12698045547188e6 1.000813906482425e7 0.0
0.0 0.0 0.0

-5.353200588942499e6 1.6028900779566571e7 0.0
1.6028900779566571e7 -2.7824691059732754e7 0.0
0.0 0.0 0.0

2.1854772313022483e6 1.1597912678178035e7 0.0
1.1597912678178035e7 -2.6004696424509123e7 0.0
0.0 0.0 0.0

2.540723065339797e6 6.319057891268257e6 0.0
6.319057891268257e6 -1.5587188575537836e7 0.0
0.0 0.0 0.0

2.4044057827286543e6 9.077332905768754e6 0.0
9.077332905768754e6 -1.3141065875550108e7 0.0
0.0 0.0 0.0

-2.2973222389063234e6 1.5365564419947034e7 0.0
1.5365564419947034e7 -584709.6992690538 0.0
0.0 0.0 0.0

2.126369916472533e6 8.749353661363218e6 0.0
8.749353661363218e6 -1.6832365393589064e7 0.0
0.0 0.0 0.0

-1.0458854610573252e6 7.782792147406078e6 0.0
7.782792147406078e6 -4.0840336944417055e6 0.0
0.0 0.0 0.0

3.992371070717551e6 4.702572174169013e6 0.0
4.702572174169013e6 -1.935223395600608e7 0.0
0.0 0.0 0.0

732681.5051100207 1.482849675924283e7 0.0
1.482849675924283e7 -1.2593450428307898e7 0.0
0.0 0.0 0.0

-8.965939424519604e6 5.3037596013466045e6 0.0
5.3037596013466045e6 9.99366430422316e6 0.0
0.0 0.0 0.0

-857964.6680121359 2.199620085350519e7 0.0
2.199620085350519e7 -8.064888674806144e6 0.0
0.0 0.0 0.0

2.215133962198479e6 5.737485743772311e6 0.0
5.737485743772311e6 -4.178333176192031e7 0.0
0.0 0.0 0.0

491698.86123229656 1.5790627220251866e7 0.0
1.5790627220251866e7 -1.214975967732434e7 0.0
0.0 0.0 0.0

3.1781643703701384e6 8.377405204978662e6 0.0
8.377405204978662e6 -2.0284864256813698e7 0.0
0.0 0.0 0.0

-2.2376363456097906e6 4.811847939654787e6 0.0
4.811847939654787e6 3.903975559766177e6 0.0
0.0 0.0 0.0

3.3541285851524156e6 7.6860838158482965e6 0.0
7.6860838158482965e6 -2.1435234941029917e7 0.0
0.0 0.0 0.0

-3.011727361035349e6 1.9991157646381177e7 0.0
1.9991157646381177e7 5.596981179090354e6 0.0
0.0 0.0 0.0

872040.1252057636 2.3610008456101168e7 0.0
2.3610008456101168e7 -7.611709818668583e6 0.0
0.0 0.0 0.0

-995883.5167847481 1.797788446373614e7 0.0
1.797788446373614e7 -1.8145686746307276e7 0.0
0.0 0.0 0.0

376189.3614242072 6.587058575897943e6 0.0
6.587058575897943e6 -6.533892897139198e6 0.0
0.0 0.0 0.0

828213.3386340688 2.4504685119786937e7 0.0
2.4504685119786937e7 -5.935392039173285e6 0.0
0.0 0.0 0.0

45316.6715254928 2.0476115568774942e7 0.0
2.0476115568774942e7 -9.839014328861665e6 0.0
0.0 0.0 0.0

-1.2374316949863968e7 7.0965998614348015e6 0.0
7.0965998614348015e6 1.8514990086761784e7 0.0
0.0 0.0 0.0

-3.736340301130778e6 2.127910644222454e7 0.0
2.127910644222454e7 1.327145999873547e7 0.0
0.0 0.0 0.0

-4.89691341588204e6 4.2352731725122575e6 0.0
4.2352731725122575e6 3.985662919166143e6 0.0
0.0 0.0 0.0

-2.3879565905655976e6 1.0384963370488917e7 0.0
1.0384963370488917e7 1.7347230664446615e6 0.0
0.0 0.0 0.0

-8.96189555850918e6 7.431996592526502e6 0.0
7.431996592526502e6 4.231921432569443e7 0.0
0.0 0.0 0.0

-5.803687470989015e6 1.3357969856630402e7 0.0
1.3357969856630402e7 7.185377222189194e6 0.0
0.0 0.0 0.0

2.6311147176997955e6 1.9019022200673435e7 0.0
1.9019022200673435e7 1.5710075748084325e6 0.0
0.0 0.0 0.0

517893.30687386775 1.3661239316607544e7 0.0
1.3661239316607544e7 -1.0238159497430585e7 0.0
0.0 0.0 0.0

-189409.59802328935 1.4803075488666264e7 0.0
1.4803075488666264e7 -1.2392162095869062e7 0.0
0.0 0.0 0.0

-1.622006145986924e6 1.3140574959478859e7 0.0
1.3140574959478859e7 -4.070766726849477e7 0.0
0.0 0.0 0.0

1.7871313685992807e6 6.12306903932501e6 0.0
6.12306903932501e6 -4.4487922243599914e7 0.0
0.0 0.0 0.0

-1.2374410450619694e7 1.0441965992115147e7 0.0
1.0441965992115147e7 2.3343839921437852e7 0.0
0.0 0.0 0.0

-2.868737209955043e6 2.3223500620122246e7 0.0
2.3223500620122246e7 6.24924957098693e6 0.0
0.0 0.0 0.0

-1.0758777736910762e7 3.2498207828989523e6 0.0
3.2498207828989523e6 3.3442279726918265e7 0.0
0.0 0.0 0.0

253479.7446701154 1.925515774306454e7 0.0
1.925515774306454e7 -1.2036070688169347e7 0.0
0.0 0.0 0.0

113905.62523446046 1.877188759613377e7 0.0
1.877188759613377e7 -1.4334869803112462e7 0.0
0.0 0.0 0.0

1.2866895155447748e7 5.857241011829288e6 0.0
5.857241011829288e6 -2.263319262466373e6 0.0
0.0 0.0 0.0

1.5468672719454714e6 9.295643947468642e6 0.0
9.295643947468642e6 -9.481131974241383e6 0.0
0.0 0.0 0.0

-9.804267882419745e6 1.295218001740046e7 0.0
1.295218001740046e7 1.53247980573073e7 0.0
0.0 0.0 0.0

-2.610245528354679e6 1.785497069928555e7 0.0
1.785497069928555e7 -1.728129997938203e7 0.0
0.0 0.0 0.0

672039.2051675306 1.4472406804880662e7 0.0
1.4472406804880662e7 -1.1871751372602727e7 0.0
0.0 0.0 0.0

862096.9500064952 1.5581021494890625e7 0.0
1.5581021494890625e7 -1.388608364826174e7 0.0
0.0 0.0 0.0

-9.453530401351787e6 1.2888931943786059e7 0.0
1.2888931943786059e7 3.313842537195878e7 0.0
0.0 0.0 0.0

-1.2487854573215302e7 1.0008704585323697e7 0.0
1.0008704585323697e7 2.1093931300685454e7 0.0
0.0 0.0 0.0

-314035.3276746031 1.4427659775306253e7 0.0
1.4427659775306253e7 -1.16589782376897e7 0.0
0.0 0.0 0.0

-1.2528119586132178e6 1.7692569780577328e7 0.0
1.7692569780577328e7 -9.328186875912897e6 0.0
0.0 0.0 0.0

-5.553429956518478e6 1.9307208693178114e7 0.0
1.9307208693178114e7 -9.330787524232907e6 0.0
0.0 0.0 0.0

-2.111821625428275e6 2.3791398063461903e7 0.0
2.3791398063461903e7 -2.3735886822199547e6 0.0
0.0 0.0 0.0

1.995699032476306e6 1.1681207491819363e7 0.0
1.1681207491819363e7 -2.77636418488548e7 0.0
0.0 0.0 0.0

-2.1455507191296117e6 2.8124444895800453e7 0.0
2.8124444895800453e7 2.234281823388922e6 0.0
0.0 0.0 0.0

-8.45111598833699e6 1.383481561039282e7 0.0
1.383481561039282e7 1.365628851081191e7 0.0
0.0 0.0 0.0

-7.107196492015837e6 2.3012415315470856e7 0.0
2.3012415315470856e7 -9.416031363932231e6 0.0
0.0 0.0 0.0

29561.709064439987 1.6904184846823353e7 0.0
1.6904184846823353e7 -1.6547412502670651e6 0.0
0.0 0.0 0.0

-641332.1346919974 1.8261874045999825e7 0.0
1.8261874045999825e7 -1.688741187175768e7 0.0
0.0 0.0 0.0

-2.008770365741762e6 1.8131928317397133e7 0.0
1.8131928317397133e7 -1.0134636664206605e7 0.0
0.0 0.0 0.0

-3.6872816397373495e6 2.253677620673065e7 0.0
2.253677620673065e7 8.61207273110749e6 0.0
0.0 0.0 0.0

223486.48327188147 1.7982169865330122e7 0.0
1.7982169865330122e7 -1.1625860636319479e7 0.0
0.0 0.0 0.0

-444936.9157938976 1.40519770150998e7 0.0
1.40519770150998e7 -1.0856653340542117e7 0.0
0.0 0.0 0.0

-281322.8594683958 1.706593326770924e7 0.0
1.706593326770924e7 -2.0343339676406655e7 0.0
0.0 0.0 0.0

-1.32885015546108e6 1.177647025836143e7 0.0
1.177647025836143e7 -6.243571784069939e6 0.0
0.0 0.0 0.0

-3.042803656947798e6 2.1828939253625106e7 0.0
2.1828939253625106e7 1.701205837243441e6 0.0
0.0 0.0 0.0

-1.9838668032147863e6 2.3288943754896794e7 0.0
2.3288943754896794e7 -3.440666552879156e6 0.0
0.0 0.0 0.0

-1.120348874142832e6 4.340442420004057e6 0.0
4.340442420004057e6 1.9614799163637422e6 0.0
0.0 0.0 0.0

537414.4281531214 1.0354199920391018e7 0.0
1.0354199920391018e7 -1.1011485827646855e7 0.0
0.0 0.0 0.0

-1.5171420180033376e6 2.4720987709151488e7 0.0
2.4720987709151488e7 -725674.5272207875 0.0
0.0 0.0 0.0

-3.757725402210259e6 1.9567059302370954e7 0.0
1.9567059302370954e7 4.921862558900364e6 0.0
0.0 0.0 0.0

-8.280859345514746e7 7.9640400796871595e6 0.0
7.9640400796871595e6 2.596623278798528e6 0.0
0.0 0.0 0.0

739989.6405546311 1.5363784730202701e7 0.0
1.5363784730202701e7 -2.293275661257326e7 0.0
0.0 0.0 0.0

-4.373287979241086e6 1.8427653691759456e7 0.0
1.8427653691759456e7 7.686928725013452e6 0.0
0.0 0.0 0.0

-1.5573780637021887e6 2.146229686942715e7 0.0
2.146229686942715e7 -3.4462681392286792e6 0.0
0.0 0.0 0.0

-4.0758101283808886e6 1.9376935730080128e7 0.0
1.9376935730080128e7 7.417814780612511e6 0.0
0.0 0.0 0.0

-1.896155796678949e6 2.0145898819539353e7 0.0
2.0145898819539353e7 846564.1080134665 0.0
0.0 0.0 0.0

-155579.8117387751 1.9415090745698404e7 0.0
1.9415090745698404e7 -1.0099276404501153e7 0.0
0.0 0.0 0.0

-7.030832624310242e6 1.4754549484627973e7 0.0
1.4754549484627973e7 1.1718766434596403e7 0.0
0.0 0.0 0.0

-1.1498582778489608e7 6.745271273538396e6 0.0
6.745271273538396e6 2.5898536702023532e7 0.0
0.0 0.0 0.0

-604569.9656375614 1.2384884258424394e7 0.0
1.2384884258424394e7 -5.114743794642609e6 0.0
0.0 0.0 0.0

2.8701834691955345e6 5.919843149795905e6 0.0
5.919843149795905e6 -1.0938741062425768e7 0.0
0.0 0.0 0.0

-1.7653285576318442e6 1.5838020495975899e7 0.0
1.5838020495975899e7 -7.153652336087081e6 0.0
0.0 0.0 0.0

-411306.7126680203 2.00558483723996e7 0.0
2.00558483723996e7 -1.1194353534897529e7 0.0
0.0 0.0 0.0

-3.98269753595489e6 1.8629597522507675e7 0.0
1.8629597522507675e7 5.079087297853925e6 0.0
0.0 0.0 0.0

-2.5286630205884855e6 1.457719173724633e7 0.0
1.457719173724633e7 -4.145013504795538e6 0.0
0.0 0.0 0.0

-7.582269134558186e6 823155.3344026152 0.0
823155.3344026152 1.3087680602353929e7 0.0
0.0 0.0 0.0

2.3244620366201736e6 5.822710530132806e6 0.0
5.822710530132806e6 -1.2753583576399699e7 0.0
0.0 0.0 0.0

-1.059121141111381e7 6.343454285433256e6 0.0
6.343454285433256e6 3.3284374604340818e7 0.0
0.0 0.0 0.0

-1.1583109551973436e7 2.5604747836915376e6 0.0
2.5604747836915376e6 1.875590891258646e7 0.0
0.0 0.0 0.0

-2.791709677913078e6 1.896532699016444e7 0.0
1.896532699016444e7 2.170176454312615e7 0.0
0.0 0.0 0.0

-1.3533309412372278e6 1.853565613453427e7 0.0
1.853565613453427e7 -8.924255086632298e6 0.0
0.0 0.0 0.0

387645.140583809 9.752001937916197e6 0.0
9.752001937916197e6 -1.0199983949219014e7 0.0
0.0 0.0 0.0

-1.0122802538617559e7 6.085765705283858e6 0.0
6.085765705283858e6 3.579199898877925e7 0.0
0.0 0.0 0.0

-1.302003666981983e6 2.1699103179544926e7 0.0
2.1699103179544926e7 -4.259007874745724e6 0.0
0.0 0.0 0.0

-4.0133680315306108e6 1.3645331863469027e7 0.0
1.3645331863469027e7 1.1095460351273732e6 0.0
0.0 0.0 0.0

-1.608255059869376e6 9.74842622499533e6 0.0
9.74842622499533e6 83244.19735190482 0.0
0.0 0.0 0.0

-1.729651573585363e6 1.2857996629448172e7 0.0
1.2857996629448172e7 -5.871993046690011e6 0.0
0.0 0.0 0.0

-2.5454095052783145e6 1.660655841218025e7 0.0
1.660655841218025e7 -2.6245202866045244e7 0.0
0.0 0.0 0.0

-3.1717396135075786e6 1.944612938888771e7 0.0
1.944612938888771e7 6.9127899976232955e6 0.0
0.0 0.0 0.0

672496.02102115 1.871724038951868e7 0.0
1.871724038951868e7 -1.4356907055704882e7 0.0
0.0 0.0 0.0

-550075.2571576126 1.6546743613012407e7 0.0
1.6546743613012407e7 5.358327789391808e7 0.0
0.0 0.0 0.0

3.690109169229369e6 2.1588559185721233e7 0.0
2.1588559185721233e7 1.0940988991269015e7 0.0
0.0 0.0 0.0

-1.1140307518988792e7 1.257420542325043e7 0.0
1.257420542325043e7 1.782956541511123e7 0.0
0.0 0.0 0.0

2.1710149738629013e6 1.2215880831011143e7 0.0
1.2215880831011143e7 -2.3006173047597237e7 0.0
0.0 0.0 0.0

-1.6257671909233746e6 1.520903072283747e7 0.0
1.520903072283747e7 -3.169149920265134e6 0.0
0.0 0.0 0.0

823712.7458604183 2.1216504012001254e7 0.0
2.1216504012001254e7 -1.0620610901219383e7 0.0
0.0 0.0 0.0

-2.6524795146396523e6 2.419064644990421e7 0.0
2.419064644990421e7 4.294266258097379e6 0.0
0.0 0.0 0.0

-1.8736966356249508e6 2.2733266711724494e7 0.0
2.2733266711724494e7 -4.363065799694407e6 0.0
0.0 0.0 0.0

-312949.5503204139 1.863314891873098e7 0.0
1.863314891873098e7 -1.5629374781954383e7 0.0
0.0 0.0 0.0

-1.386703847089908e6 1.4137774290232694e7 0.0
1.4137774290232694e7 -3.453382637798666e6 0.0
0.0 0.0 0.0

-3.7811026802386167e6 1.9936431396085564e7 0.0
1.9936431396085564e7 6.070152244410424e6 0.0
0.0 0.0 0.0

-1.2174499901392575e7 6.100498852797547e6 0.0
6.100498852797547e6 1.717519692273313e7 0.0
0.0 0.0 0.0

2.6249777828962374e6 5.6933119103855975e6 0.0
5.6933119103855975e6 -1.4652094063740212e7 0.0
0.0 0.0 0.0

-1.1916471693479433e6 1.6056848692573752e7 0.0
1.6056848692573752e7 -5.260328341270597e6 0.0
0.0 0.0 0.0

2.8202090615879055e6 9.247325824361103e6 0.0
9.247325824361103e6 -1.7524612411872063e7 0.0
0.0 0.0 0.0

-2.7274735944577083e6 1.9466710338790227e7 0.0
1.9466710338790227e7 2.3835632005225e6 0.0
0.0 0.0 0.0

-790882.3295904931 9.174116508772863e6 0.0
9.174116508772863e6 -1.5073157034474239e6 0.0
0.0 0.0 0.0

-669137.3453568497 2.632298097009505e7 0.0
2.632298097009505e7 -3.294709638132876e6 0.0
0.0 0.0 0.0

-5.519510128611114e7 4.0619751315468056e6 0.0
4.0619751315468056e6 6.123293856697988e6 0.0
0.0 0.0 0.0

-114999.62445960206 8.553291014528533e6 0.0
8.553291014528533e6 -2.912695228663543e6 0.0
0.0 0.0 0.0

-2.944174912360317e6 1.5756828241618235e7 0.0
1.5756828241618235e7 -3.2033440713582817e7 0.0
0.0 0.0 0.0

820158.5904240259 2.0323471422772087e7 0.0
2.0323471422772087e7 -9.497544308584124e6 0.0
0.0 0.0 0.0

880440.9154080045 1.3039608336635018e7 0.0
1.3039608336635018e7 -1.139093998170699e7 0.0
0.0 0.0 0.0

761694.5493938047 1.7177955266615305e7 0.0
1.7177955266615305e7 -1.7885238579668313e7 0.0
0.0 0.0 0.0

515816.72345628473 7.995418646471613e6 0.0
7.995418646471613e6 -4.1815051523477254e6 0.0
0.0 0.0 0.0

3.318916352409047e6 7.753932256328925e6 0.0
7.753932256328925e6 -1.9631466181866266e7 0.0
0.0 0.0 0.0

-2.218651096466422e6 2.428834369285007e7 0.0
2.428834369285007e7 -1.4072338021059965e6 0.0
0.0 0.0 0.0

255525.20882147062 5.8715900314713055e6 0.0
5.8715900314713055e6 -5.298750570221857e6 0.0
0.0 0.0 0.0

1.0208444628134305e6 1.0229012493088314e7 0.0
1.0229012493088314e7 -1.295604229256898e7 0.0
0.0 0.0 0.0

-399711.618745129 2.7460935178709693e7 0.0
2.7460935178709693e7 -2.3833753787056585e6 0.0
0.0 0.0 0.0

3.142368866965428e6 1.9932745758554216e7 0.0
1.9932745758554216e7 388784.2927517131 0.0
0.0 0.0 0.0

925329.7854365692 2.2732499958824474e7 0.0
2.2732499958824474e7 -8.363437234103151e6 0.0
0.0 0.0 0.0

1.6698625050182603e6 8.011364259555019e6 0.0
8.011364259555019e6 -5.249476999132994e7 0.0
0.0 0.0 0.0

-8.758123495079027e6 1.6747065976421623e7 0.0
1.6747065976421623e7 2.5931164482996866e7 0.0
0.0 0.0 0.0

-2.0764841970259082e6 2.3539243477881856e7 0.0
2.3539243477881856e7 705680.2176463916 0.0
0.0 0.0 0.0

2.6869770951324813e6 8.919047615605362e6 0.0
8.919047615605362e6 -1.497799235901759e7 0.0
0.0 0.0 0.0

1.0158932693059423e6 7.331629832120329e6 0.0
7.331629832120329e6 -5.370693619503829e6 0.0
0.0 0.0 0.0

282955.5079181241 9.15999513496859e6 0.0
9.15999513496859e6 -9.33476436187168e6 0.0
0.0 0.0 0.0

-3.3246907143256627e6 2.729733734662831e7 0.0
2.729733734662831e7 4.544112419187358e6 0.0
0.0 0.0 0.0

-9.799044323738601e6 308895.0431532537 0.0
308895.0431532537 2.000544661110492e7 0.0
0.0 0.0 0.0

-1.074376834069862e7 1.5009275443499329e7 0.0
1.5009275443499329e7 2.3758001046106197e7 0.0
0.0 0.0 0.0

-1.4222482298441916e6 2.299049479542229e7 0.0
2.299049479542229e7 -2.9584252961907675e6 0.0
0.0 0.0 0.0

1.0474540850497382e6 1.4662780166525487e7 0.0
1.4662780166525487e7 -1.4443583574479427e7 0.0
0.0 0.0 0.0

-3.467479567278195e6 1.9985923646969344e7 0.0
1.9985923646969344e7 1.8491908066650122e7 0.0
0.0 0.0 0.0

-2.6751562601720244e6 1.5637528212625384e7 0.0
1.5637528212625384e7 -3.850080311740614e6 0.0
0.0 0.0 0.0

415869.55665392615 1.5409358439441204e7 0.0
1.5409358439441204e7 -1.1486412436598474e7 0.0
0.0 0.0 0.0

-848870.9605339123 1.5151867820261354e7 0.0
1.5151867820261354e7 -2.734297265503116e7 0.0
0.0 0.0 0.0

1.5528688456912264e6 2.3952128927215017e7 0.0
2.3952128927215017e7 -7.059667455992832e6 0.0
0.0 0.0 0.0

-1.192929043591261e6 1.3368664258982234e7 0.0
1.3368664258982234e7 -3.8244529456036635e7 0.0
0.0 0.0 0.0

-1.1811964163444284e7 4.9577779562935475e6 0.0
4.9577779562935475e6 1.631144491646601e7 0.0
0.0 0.0 0.0

4.535025270887018e6 2.023967528895935e7 0.0
2.023967528895935e7 2.1452770642845616e7 0.0
0.0 0.0 0.0

-3.885441991931218e6 2.6368653888490066e7 0.0
2.6368653888490066e7 4.902016718060983e6 0.0
0.0 0.0 0.0

-2.4165982069636756e6 1.6052850515227996e7 0.0
1.6052850515227996e7 -4.888007495000248e6 0.0
0.0 0.0 0.0

3.1387373909092196e6 2.115975125383591e7 0.0
2.115975125383591e7 -5.984573968891404e6 0.0
0.0 0.0 0.0

-1.2199454216011974e6 2.2486291341094524e7 0.0
2.2486291341094524e7 -3.9751837593180826e6 0.0
0.0 0.0 0.0

-5.782787796913415e6 7.989688938798817e6 0.0
7.989688938798817e6 5.022741453492923e6 0.0
0.0 0.0 0.0

-39700.278791543096 1.9009285722958066e7 0.0
1.9009285722958066e7 -1.4450122771562813e7 0.0
0.0 0.0 0.0

1.7393354972709194e6 1.395958102588908e7 0.0
1.395958102588908e7 -1.9555094392924167e7 0.0
0.0 0.0 0.0

1.524438691027644e6 1.4505324276180353e7 0.0
1.4505324276180353e7 -1.834795919968776e7 0.0
0.0 0.0 0.0

-874123.8438777849 1.4642959990948187e7 0.0
1.4642959990948187e7 -9.652243168651624e6 0.0
0.0 0.0 0.0

1.2799477176129445e7 2.482563528031215e7 0.0
2.482563528031215e7 -5.094070297020115e6 0.0
0.0 0.0 0.0

1.61981182833867e6 1.0908062054829402e7 0.0
1.0908062054829402e7 -1.1893669910995439e7 0.0
0.0 0.0 0.0

2.6466680274237264e6 5.190837902379293e6 0.0
5.190837902379293e6 -1.388860927732603e7 0.0
0.0 0.0 0.0

1.9049003583422424e6 1.3363439990081972e7 0.0
1.3363439990081972e7 -2.0659214650908403e7 0.0
0.0 0.0 0.0

2.1667165052295513e6 6.561350684252016e6 0.0
6.561350684252016e6 -3.9729086307323575e7 0.0
0.0 0.0 0.0

-7.853484865267836e6 7.119402368860461e6 0.0
7.119402368860461e6 8.384302335340694e6 0.0
0.0 0.0 0.0

-3.2516796149763777e6 2.133494722202303e7 0.0
2.133494722202303e7 2.5496620677066944e6 0.0
0.0 0.0 0.0

3.7210259235192733e6 4.759890717923043e6 0.0
4.759890717923043e6 -2.3167615716444932e7 0.0
0.0 0.0 0.0

1.8969650772976768e6 6.518652764964506e6 0.0
6.518652764964506e6 -1.1887550752314247e7 0.0
0.0 0.0 0.0

-318275.540684687 1.4851896044957003e7 0.0
1.4851896044957003e7 -7.818855780170247e6 0.0
0.0 0.0 0.0

-8.225958632884534e6 1.3775935055980084e7 0.0
1.3775935055980084e7 3.508154189019025e7 0.0
0.0 0.0 0.0

-4.458352924609247e6 2.1160380117157068e7 0.0
2.1160380117157068e7 1.3556662976071814e7 0.0
0.0 0.0 0.0

-5.068765523130896e6 9.210553116623297e6 0.0
9.210553116623297e6 3.591718322203973e6 0.0
0.0 0.0 0.0

-6.737418334773036e6 1.9143231358341448e7 0.0
1.9143231358341448e7 1.963445159041687e7 0.0
0.0 0.0 0.0

3.6237318737684414e6 6.189838936272675e6 0.0
6.189838936272675e6 -1.728061037219308e7 0.0
0.0 0.0 0.0

1.9715339938367987e6 1.2796450710982172e7 0.0
1.2796450710982172e7 -2.1963553700059988e7 0.0
0.0 0.0 0.0

-2.8069780931941206e6 5.5904637321172245e7 0.0
5.5904637321172245e7 4.0809713402807666e6 0.0
0.0 0.0 0.0

-5.464609921368754e6 1.2836791512118312e7 0.0
1.2836791512118312e7 5.648570165318291e6 0.0
0.0 0.0 0.0

-1.124234348274292e7 3.4688805615225304e6 0.0
3.4688805615225304e6 1.5382696175504394e7 0.0
0.0 0.0 0.0

159084.27535922825 1.801011488220217e7 0.0
1.801011488220217e7 -1.546537194240073e7 0.0
0.0 0.0 0.0

1.358107516702611e6 1.5076812636724424e7 0.0
1.5076812636724424e7 -1.727377162760538e7 0.0
0.0 0.0 0.0

-828057.408100433 2.3385163508386216e6 0.0
2.3385163508386216e6 4.233107058412389e6 0.0
0.0 0.0 0.0

-2.321188393131193e6 1.1441087911256622e6 0.0
1.1441087911256622e6 6.038449851364909e6 0.0
0.0 0.0 0.0

-4.228862478680924e6 2.758723750778146e7 0.0
2.758723750778146e7 4.104709606923569e6 0.0
0.0 0.0 0.0

-4.300696615195614e6 1.805942609590004e7 0.0
1.805942609590004e7 6.442717934063779e6 0.0
0.0 0.0 0.0

-3.1360610054216124e6 2.7329432181567322e7 0.0
2.7329432181567322e7 2.3481257380143013e6 0.0
0.0 0.0 0.0

2.9691589859778928e6 9.081590062815242e6 0.0
9.081590062815242e6 -1.930404064943248e7 0.0
0.0 0.0 0.0

-3.576739212522777e6 2.04485875598924e7 0.0
2.04485875598924e7 4.81190098871544e6 0.0
0.0 0.0 0.0

-1.0798337833551114e7 3.5297288109826967e6 0.0
3.5297288109826967e6 2.838461526585096e7 0.0
0.0 0.0 0.0

-6.724536968009691e7 5.486947040430778e6 0.0
5.486947040430778e6 5.310355270893477e6 0.0
0.0 0.0 0.0

-3.1652740652433084e6 2.2177775239918828e7 0.0
2.2177775239918828e7 2.624698384178812e6 0.0
0.0 0.0 0.0

-6.0578800467414865e6 1.95623203392542e7 0.0
1.95623203392542e7 1.8194304053299665e7 0.0
0.0 0.0 0.0

54943.73243690608 2.4129141394651666e7 0.0
2.4129141394651666e7 -6.555577374340357e6 0.0
0.0 0.0 0.0

1.9778011487640115e6 5.927788175403671e6 0.0
5.927788175403671e6 -1.08099016755387e7 0.0
0.0 0.0 0.0

-5.454814095453866e6 1.4652559721859619e7 0.0
1.4652559721859619e7 7.122777280771296e6 0.0
0.0 0.0 0.0

-1.2407570002136424e7 2.3883572027825665e7 0.0
2.3883572027825665e7 -7.391758343699016e6 0.0
0.0 0.0 0.0

-5.979698141902344e6 2.2214675862329345e7 0.0
2.2214675862329345e7 -7.913174687947048e6 0.0
0.0 0.0 0.0

3.175506025875437e6 7.1139014037635615e6 0.0
7.1139014037635615e6 -1.4340559759165311e7 0.0
0.0 0.0 0.0

-5.477693828437698e6 2.005181199189983e7 0.0
2.005181199189983e7 1.668045494882545e7 0.0
0.0 0.0 0.0

-445812.49998153606 1.7365812906422418e7 0.0
1.7365812906422418e7 -8.818350335601673e6 0.0
0.0 0.0 0.0

2.2216125525769386e6 4.864211036106415e6 0.0
4.864211036106415e6 -4.3447892737478375e7 0.0
0.0 0.0 0.0

-9.36623446025473e6 1.201900514729378e6 0.0
1.201900514729378e6 4.0993208941432655e7 0.0
0.0 0.0 0.0

2.361141994763421e6 9.602925776943868e6 0.0
9.602925776943868e6 -1.3951865731904881e7 0.0
0.0 0.0 0.0

3.398117691371128e6 7.04668352882262e6 0.0
7.04668352882262e6 -2.7916206695269786e7 0.0
0.0 0.0 0.0

-396454.6119790934 1.8898368077344943e7 0.0
1.8898368077344943e7 -7.413959285130478e6 0.0
0.0 0.0 0.0

662537.2219207417 1.1432250391583491e7 0.0
1.1432250391583491e7 -3.647043949390448e7 0.0
0.0 0.0 0.0

1.0433580369989639e6 2.936821583436317e7 0.0
2.936821583436317e7 -2.8322251547060227e6 0.0
0.0 0.0 0.0

-4.913326686265679e6 1.692239447641962e7 0.0
1.692239447641962e7 3.3278992560934205e7 0.0
0.0 0.0 0.0

-9.803542918802818e6 1.016441075801468e6 0.0
1.016441075801468e6 3.7752705687348686e7 0.0
0.0 0.0 0.0

-580021.9451169176 1.8235876154386614e7 0.0
1.8235876154386614e7 -8.452302082979191e6 0.0
0.0 0.0 0.0

2.3918254918439873e6 7.764416349043564e6 0.0
7.764416349043564e6 -3.373138611698952e7 0.0
0.0 0.0 0.0

-2.465190386237292e6 1.8409265469026513e7 0.0
1.8409265469026513e7 -102989.87843634735 0.0
0.0 0.0 0.0

-3.3741334048118275e6 2.0496711969943125e7 0.0
2.0496711969943125e7 2.5046886399613684e6 0.0
0.0 0.0 0.0

-1.145869992243926e7 5.566406204474554e6 0.0
5.566406204474554e6 2.2237609942538694e7 0.0
0.0 0.0 0.0

2.1632778822213737e6 2.4330712293646965e7 0.0
2.4330712293646965e7 -6.727716584207317e6 0.0
0.0 0.0 0.0

686453.7295976083 1.931129331557299e7 0.0
1.931129331557299e7 -4.031088770438436e6 0.0
0.0 0.0 0.0

-1.5118108609321318e6 2.3526313582585588e7 0.0
2.3526313582585588e7 -1.9500347759827033e6 0.0
0.0 0.0 0.0

3.02665682407468e6 2.9408648889608174e6 0.0
2.9408648889608174e6 -4.117341801778858e7 0.0
0.0 0.0 0.0

-3.412997859928998e6 2.0919657643439822e7 0.0
2.0919657643439822e7 3.609003662472932e6 0.0
0.0 0.0 0.0

916216.6782785198 1.3445360617611242e7 0.0
1.3445360617611242e7 -1.218283155863173e7 0.0
0.0 0.0 0.0

-3.897873882882447e6 1.1000109123361047e7 0.0
1.1000109123361047e7 758710.2896455384 0.0
0.0 0.0 0.0

-889406.4480085648 1.3542852347539438e7 0.0
1.3542852347539438e7 -4.831246027894708e6 0.0
0.0 0.0 0.0

-7.771276426251027e6 4.872226864610213e6 0.0
4.872226864610213e6 8.149338201495705e6 0.0
0.0 0.0 0.0

965998.1322850925 1.8473306133111767e7 0.0
1.8473306133111767e7 -5.099256914014292e6 0.0
0.0 0.0 0.0

-1.0845131613934958e7 7.9189887180189695e6 0.0
7.9189887180189695e6 3.155838888817242e7 0.0
0.0 0.0 0.0

324454.1596246925 1.50480479956941e7 0.0
1.50480479956941e7 -1.0718574578734834e7 0.0
0.0 0.0 0.0

-4.296209758399945e6 5.63439464241739e6 0.0
5.63439464241739e6 2.600889469984362e6 0.0
0.0 0.0 0.0

-4.665867741520018e6 2.8198800236311756e7 0.0
2.8198800236311756e7 4.1912529701494607e6 0.0
0.0 0.0 0.0

-545982.0973187471 2.2351839527619213e7 0.0
2.2351839527619213e7 -6.117067208535922e6 0.0
0.0 0.0 0.0

1.0189457504125237e6 1.583135806160868e7 0.0
1.583135806160868e7 -2.026088805738047e7 0.0
0.0 0.0 0.0

1.9979895325185927e6 1.0255514012670048e7 0.0
1.0255514012670048e7 -1.294114020896473e7 0.0
0.0 0.0 0.0

-2.5169561663270695e6 2.2569075884403054e7 0.0
2.2569075884403054e7 3.216135788491644e6 0.0
0.0 0.0 0.0

-6.4926778649913035e6 1.9105364126457714e7 0.0
1.9105364126457714e7 2.096463868462739e7 0.0
0.0 0.0 0.0

4.7639940920832325e6 1.9203917126039196e7 0.0
1.9203917126039196e7 1.1270798190148951e7 0.0
0.0 0.0 0.0

1.9451889591323398e6 8.0203935712268995e6 0.0
8.0203935712268995e6 -3.6211087792907946e7 0.0
0.0 0.0 0.0

-3.02532234844225e6 2.0325490704253796e7 0.0
2.0325490704253796e7 6.673515457211621e6 0.0
0.0 0.0 0.0

-2.7426978326966125e6 2.1342185337939687e7 0.0
2.1342185337939687e7 4.249443389986577e6 0.0
0.0 0.0 0.0

-1.1781078837814845e7 1.0044478272852864e7 0.0
1.0044478272852864e7 1.689544294654178e7 0.0
0.0 0.0 0.0

1.5800405367299276e6 3.001212958486067e7 0.0
3.001212958486067e7 -2.8566331623118618e6 0.0
0.0 0.0 0.0

416915.4147239099 1.32377436262967e7 0.0
1.32377436262967e7 -9.363522301684288e6 0.0
0.0 0.0 0.0

-8.984401756265327e6 1.643595743559916e7 0.0
1.643595743559916e7 1.8732850192143377e7 0.0
0.0 0.0 0.0

2.0344696152720917e6 9.73706205877937e6 0.0
9.73706205877937e6 -1.2145791888007183e7 0.0
0.0 0.0 0.0

-3.330630109294404e6 8.47334572998927e6 0.0
8.47334572998927e6 4.771230771586008e6 0.0
0.0 0.0 0.0

-2.374842626808824e6 2.2894409155924086e7 0.0
2.2894409155924086e7 2.27127208623794e6 0.0
0.0 0.0 0.0

-2.3557016002817703e6 2.367361565259671e7 0.0
2.367361565259671e7 2.3349578658094434e6 0.0
0.0 0.0 0.0

231174.33753429493 1.4667142472549908e7 0.0
1.4667142472549908e7 -9.899649642025298e6 0.0
0.0 0.0 0.0

1.733394059808422e6 1.9990724798119236e7 0.0
1.9990724798119236e7 -5.147745216845396e6 0.0
0.0 0.0 0.0

1.0618600515493242e7 2.5797847597613767e7 0.0
2.5797847597613767e7 -5.50633876645095e6 0.0
0.0 0.0 0.0

-5.346828919556661e6 2.2244081884773873e7 0.0
2.2244081884773873e7 7.661647557989338e6 0.0
0.0 0.0 0.0

-8.0871092280394295e6 1.6231196535576243e7 0.0
1.6231196535576243e7 -3.5866523625586204e7 0.0
0.0 0.0 0.0

1.1816877438818337e6 1.1047499899076067e7 0.0
1.1047499899076067e7 -9.931477969355665e6 0.0
0.0 0.0 0.0

-1.0930112597673714e7 3.972856889899571e6 0.0
3.972856889899571e6 2.6280766502073005e7 0.0
0.0 0.0 0.0

-2.374582722079268e6 2.037892315169049e7 0.0
2.037892315169049e7 -1.475557618840923e6 0.0
0.0 0.0 0.0

-5.29599024282961e6 2.1016480335457344e7 0.0
2.1016480335457344e7 -957982.0336282237 0.0
0.0 0.0 0.0

-2.889573132418343e6 2.0815742251255468e7 0.0
2.0815742251255468e7 5.373246582009871e6 0.0
0.0 0.0 0.0

-1.0323056359142553e7 1.8798123644583244e6 0.0
1.8798123644583244e6 2.9563049727174994e7 0.0
0.0 0.0 0.0

-5.312498875825311e6 2.880663625351683e7 0.0
2.880663625351683e7 4.302096075310042e6 0.0
0.0 0.0 0.0

-2.981414329013004e6 2.254477347006378e7 0.0
2.254477347006378e7 1.6703058437043033e6 0.0
0.0 0.0 0.0

1.8560907840965309e6 1.8700970770361997e7 0.0
1.8700970770361997e7 435863.8543686259 0.0
0.0 0.0 0.0

2.971281713542738e6 1.6331985811155234e7 0.0
1.6331985811155234e7 9.904272645039186e6 0.0
0.0 0.0 0.0

-3.2129596295226426e6 1.9761984717739325e7 0.0
1.9761984717739325e7 8.016486841481343e6 0.0
0.0 0.0 0.0

-5.889052971999458e6 1.77659234790236e7 0.0
1.77659234790236e7 1.316415891618924e7 0.0
0.0 0.0 0.0

3.18888763809505e6 6.500097704305746e6 0.0
6.500097704305746e6 -1.3493977129407767e7 0.0
0.0 0.0 0.0

-1.250396172271682e6 2.3747384718456786e7 0.0
2.3747384718456786e7 -2.7283861524811317e6 0.0
0.0 0.0 0.0

-9.49436259455496e6 1.4618023839412712e7 0.0
1.4618023839412712e7 2.0528505073147424e7 0.0
0.0 0.0 0.0

3.3537481599496873e6 4.462441633442772e6 0.0
4.462441633442772e6 -2.132280938089175e7 0.0
0.0 0.0 0.0

-1.9803255267566429e6 2.1996005360798698e7 0.0
2.1996005360798698e7 -4.734249465379406e6 0.0
0.0 0.0 0.0

-2.8127331316740606e6 2.0468525593080793e7 0.0
2.0468525593080793e7 4.378775500343862e6 0.0
0.0 0.0 0.0

-3.1468066628646795e6 5.083642455856687e6 0.0
5.083642455856687e6 802380.8451098495 0.0
0.0 0.0 0.0

1.446339089378289e6 1.1022868137306388e7 0.0
1.1022868137306388e7 -1.62094123181188e7 0.0
0.0 0.0 0.0

-283693.07311806583 4.9236503948477544e7 0.0
4.9236503948477544e7 3.0418033957242314e6 0.0
0.0 0.0 0.0

1.0025784811442979e6 7.236143033220108e6 0.0
7.236143033220108e6 -6.201092206068135e7 0.0
0.0 0.0 0.0

3.2574862418148834e6 5.514330028097532e6 0.0
5.514330028097532e6 -2.4848079162402045e7 0.0
0.0 0.0 0.0

2.039914999154199e6 1.2382340716531929e7 0.0
1.2382340716531929e7 -1.816535391135755e7 0.0
0.0 0.0 0.0

-4.906970937398901e6 2.1700881160157956e7 0.0
2.1700881160157956e7 5.626724682181604e6 0.0
0.0 0.0 0.0

664205.1990310336 1.4536253110288827e7 0.0
1.4536253110288827e7 -2.4432075451008596e7 0.0
0.0 0.0 0.0

1.1321705881124316e6 1.0522468064119503e7 0.0
1.0522468064119503e7 -9.072359428340757e6 0.0
0.0 0.0 0.0

-3.1734911745952056e6 1.0360430242153993e7 0.0
1.0360430242153993e7 -882494.922398912 0.0
0.0 0.0 0.0

2.918969212380582e6 1.8330560977789223e7 0.0
1.8330560977789223e7 1.7283682260293525e7 0.0
0.0 0.0 0.0

-5.164302493306285e6 1.718436111808277e7 0.0
1.718436111808277e7 3.1196180256294467e7 0.0
0.0 0.0 0.0

1.0652290394741975e7 1.4385879909510944e7 0.0
1.4385879909510944e7 6.216909485903643e6 0.0
0.0 0.0 0.0

-4.69766578247725e6 3.16220751793012e7 0.0
3.16220751793012e7 2.4239783916586656e6 0.0
0.0 0.0 0.0

-1.3286980495262898e6 1.5233077128893996e7 0.0
1.5233077128893996e7 -8.41753740686231e6 0.0
0.0 0.0 0.0

-2.824359085797759e7 2.485903448142413e7 0.0
2.485903448142413e7 -743202.8452106696 0.0
0.0 0.0 0.0

-250562.82655617734 1.6526788192302572e7 0.0
1.6526788192302572e7 -9.184663240416601e6 0.0
0.0 0.0 0.0

-2.754750667966686e6 2.0970058027546607e7 0.0
2.0970058027546607e7 3.221151467088686e6 0.0
0.0 0.0 0.0

-183334.4017006047 1.3392403693497991e7 0.0
1.3392403693497991e7 -7.139893659315452e6 0.0
0.0 0.0 0.0

-1.1744837628671126e6 1.5926505503209911e7 0.0
1.5926505503209911e7 -2.4965338626224812e7 0.0
0.0 0.0 0.0

3.247130248942172e6 5.257506037402117e6 0.0
5.257506037402117e6 -2.028963549270502e7 0.0
0.0 0.0 0.0

1.7707308363048956e6 1.061840251537216e7 0.0
1.061840251537216e7 -3.2911175933430843e7 0.0
0.0 0.0 0.0

-1.439918307822127e6 1.9744214314852413e7 0.0
1.9744214314852413e7 1.6427701295882959e7 0.0
0.0 0.0 0.0

3.327515472723837e6 7.388613839207828e6 0.0
7.388613839207828e6 -2.3163191976653762e7 0.0
0.0 0.0 0.0

-1.6845726832279519e6 2.2154331532703992e7 0.0
2.2154331532703992e7 -5.407247856466825e6 0.0
0.0 0.0 0.0

-600151.347978903 1.908335165572564e7 0.0
1.908335165572564e7 -1.1364149746126384e7 0.0
0.0 0.0 0.0

-2.2958057018264183e6 1.3468897374909144e7 0.0
1.3468897374909144e7 -4.47907042402446e6 0.0
0.0 0.0 0.0

-4.213347294515959e6 1.5447841463459905e7 0.0
1.5447841463459905e7 2.6883898473618897e6 0.0
0.0 0.0 0.0

-8.669023533596776e6 1.7014084058629807e7 0.0
1.7014084058629807e7 1.949909621022141e7 0.0
0.0 0.0 0.0

2.5624235142418444e6 9.917568663723795e6 0.0
9.917568663723795e6 -1.64988234807535e7 0.0
0.0 0.0 0.0

-5.7249923963316465e6 3.387078023028417e7 0.0
3.387078023028417e7 2.5095728495276137e6 0.0
0.0 0.0 0.0

-6.169811016013042e6 2.9308456882440057e7 0.0
2.9308456882440057e7 4.552590292958133e6 0.0
0.0 0.0 0.0

-8.176720616857693e6 1.795549841736806e7 0.0
1.795549841736806e7 2.034779911878084e7 0.0
0.0 0.0 0.0

-1.5322924292447127e6 1.5782296714847237e7 0.0
1.5782296714847237e7 -5.107641181090359e6 0.0
0.0 0.0 0.0

1.170331564873699e6 1.5626970342946105e7 0.0
1.5626970342946105e7 -1.6115392028670888e7 0.0
0.0 0.0 0.0

3.460234670908737e6 7.169318559731456e6 0.0
7.169318559731456e6 -2.0812691476773445e7 0.0
0.0 0.0 0.0

-4.0718035496047246e6 2.317326166284076e7 0.0
2.317326166284076e7 1.0068987530611973e7 0.0
0.0 0.0 0.0

-1.2613439466710689e7 9.011928411662461e6 0.0
9.011928411662461e6 2.024501323973929e7 0.0
0.0 0.0 0.0

3.5376526011377503e6 2.638293374857306e7 0.0
2.638293374857306e7 -5.19868229974339e6 0.0
0.0 0.0 0.0

-8.1047974266558625e6 2.0381763139774534e6 0.0
2.0381763139774534e6 5.085136826597266e7 0.0
0.0 0.0 0.0

-1.664699048977613e6 1.9168072783560358e7 0.0
1.9168072783560358e7 -7.738223671871888e6 0.0
0.0 0.0 0.0

-9.603932989552267e6 -2.774021539363901e6 0.0
-2.774021539363901e6 2.6320747671022326e7 0.0
0.0 0.0 0.0

-8.417142875214048e6 3.3031853874390135e6 0.0
3.3031853874390135e6 1.3737250039956594e7 0.0
0.0 0.0 0.0

3.191767485744573e6 5.827956087607637e6 0.0
5.827956087607637e6 -1.282439858305427e7 0.0
0.0 0.0 0.0

-9.222830810147125e6 1.3842970882558797e7 0.0
1.3842970882558797e7 3.173843101025746e7 0.0
0.0 0.0 0.0

2.308111207838012e6 1.101330747471318e7 0.0
1.101330747471318e7 -2.7365055790746916e7 0.0
0.0 0.0 0.0

-1.4919645954210744e6 2.2261505074054077e7 0.0
2.2261505074054077e7 -3.1686631401280635e6 0.0
0.0 0.0 0.0

-2.6804417960373936e6 2.213024821648944e7 0.0
2.213024821648944e7 4.257185120948909e6 0.0
0.0 0.0 0.0

-1.8086361452705767e6 1.6252202343773667e7 0.0
1.6252202343773667e7 -2.9023796550886473e6 0.0
0.0 0.0 0.0

-2.8488956621370357e6 2.2474818650342118e7 0.0
2.2474818650342118e7 6.417888051743277e6 0.0
0.0 0.0 0.0

1.090578819832941e6 5.921149578444259e6 0.0
5.921149578444259e6 -7.513525726604536e6 0.0
0.0 0.0 0.0

-2.598633793180517e6 1.8933758717507448e7 0.0
1.8933758717507448e7 -3.9419030160149843e6 0.0
0.0 0.0 0.0

8.790903097696135e6 2.6443480682498872e7 0.0
2.6443480682498872e7 -5.475566335504056e6 0.0
0.0 0.0 0.0

940191.8980259327 9.816363107674368e6 0.0
9.816363107674368e6 -8.372136704924558e6 0.0
0.0 0.0 0.0

-170041.3858500044 1.524935171780235e7 0.0
1.524935171780235e7 -8.712372959187524e6 0.0
0.0 0.0 0.0

-5.09999502907492e6 2.1639304575982336e7 0.0
2.1639304575982336e7 -5.989174869034112e6 0.0
0.0 0.0 0.0

-2.0429710821058338e6 1.581917427632519e7 0.0
1.581917427632519e7 -1.7856508356517775e6 0.0
0.0 0.0 0.0

1.01259401712025e7 2.2062245815675616e7 0.0
2.2062245815675616e7 -2.4868176695975857e6 0.0
0.0 0.0 0.0

-1.9702339830740928e6 4.524396660932606e6 0.0
4.524396660932606e6 -951092.8164549436 0.0
0.0 0.0 0.0

3.176138891664427e6 4.801527672764982e6 0.0
4.801527672764982e6 -2.9962626935125716e7 0.0
0.0 0.0 0.0

-2.727084784964217e6 3.2298031755694808e6 0.0
3.2298031755694808e6 5.586931554563989e6 0.0
0.0 0.0 0.0

-2.353670080889138e6 9.753436957416728e6 0.0
9.753436957416728e6 -2.4098242614753526e6 0.0
0.0 0.0 0.0

-2.16674715701844e6 1.6444216371101864e7 0.0
1.6444216371101864e7 -5.87300820853427e6 0.0
0.0 0.0 0.0

-8.0626424075447675e6 4.808919655326627e6 0.0
4.808919655326627e6 1.327377609656191e7 0.0
0.0 0.0 0.0

2.5443102450803127e6 6.641484802626001e6 0.0
6.641484802626001e6 -9.765971006822132e6 0.0
0.0 0.0 0.0

276468.0835712403 1.9471147954340022e7 0.0
1.9471147954340022e7 -1.3305900992572637e7 0.0
0.0 0.0 0.0

-1.5204959684068155e6 9.18948235302637e6 0.0
9.18948235302637e6 -3.9457329019364123e6 0.0
0.0 0.0 0.0

-594940.8156012975 4.441841946385587e7 0.0
4.441841946385587e7 1.8726243005629887e6 0.0
0.0 0.0 0.0

1.0808554295582548e7 2.1578192454298154e7 0.0
2.1578192454298154e7 1.032540125981262e7 0.0
0.0 0.0 0.0

-773859.1602191287 8.572288083703486e6 0.0
8.572288083703486e6 -5.114048340610572e6 0.0
0.0 0.0 0.0

-5.943420831651695e6 1.3936390824239874e7 0.0
1.3936390824239874e7 1.3142077595166102e7 0.0
0.0 0.0 0.0

1.87551320981859e6 4.329269439306902e6 0.0
4.329269439306902e6 -6.630926771638932e6 0.0
0.0 0.0 0.0

-1.1247881051248312e7 8.40444934115568e6 0.0
8.40444934115568e6 2.9433808978042424e7 0.0
0.0 0.0 0.0

-130667.6675760122 7.917053609126667e6 0.0
7.917053609126667e6 -6.318846693781668e6 0.0
0.0 0.0 0.0

-7.438735032361792e6 3.386946709504221e7 0.0
3.386946709504221e7 4.492042647933777e6 0.0
0.0 0.0 0.0

4.55364616802676e6 2.6633026605898436e7 0.0
2.6633026605898436e7 -5.168370055392953e6 0.0
0.0 0.0 0.0

3.649229633609008e6 6.432032659942451e6 0.0
6.432032659942451e6 -2.1839563518468305e7 0.0
0.0 0.0 0.0

-785985.1705446532 1.9602861564561922e7 0.0
1.9602861564561922e7 -1.021219069120205e7 0.0
0.0 0.0 0.0

2.5987050733668786e6 7.445128969639076e6 0.0
7.445128969639076e6 -3.0644686463900916e7 0.0
0.0 0.0 0.0

-2.5294986802179115e6 1.7048562072852213e7 0.0
1.7048562072852213e7 -4.576953659823531e6 0.0
0.0 0.0 0.0

2.1154159558111867e6 1.9554252060386013e7 0.0
1.9554252060386013e7 1.1771049613839386e7 0.0
0.0 0.0 0.0

7.121939605451226e6 2.6728999325698547e7 0.0
2.6728999325698547e7 -5.324656370556352e6 0.0
0.0 0.0 0.0

900852.3005601917 9.372222307504682e6 0.0
9.372222307504682e6 -7.3527475679391e6 0.0
0.0 0.0 0.0

2.460832584223084e6 8.484723510292785e6 0.0
8.484723510292785e6 -1.2363801396489916e7 0.0
0.0 0.0 0.0

-657058.564741888 1.1859401629913902e7 0.0
1.1859401629913902e7 -4.0202333491608147e6 0.0
0.0 0.0 0.0

-7.491083592730666e6 2.9743606986223247e7 0.0
2.9743606986223247e7 4.734869220193078e6 0.0
0.0 0.0 0.0

-3.9585985323802787e6 1.4844962375751708e7 0.0
1.4844962375751708e7 1.2142940469317602e6 0.0
0.0 0.0 0.0

6.2588428772739265e6 3.1144014505704306e7 0.0
3.1144014505704306e7 -3.7618880527505293e6 0.0
0.0 0.0 0.0

-1.5777961590135894e6 1.6657556166199682e7 0.0
1.6657556166199682e7 -3.954626545212225e6 0.0
0.0 0.0 0.0

4.772912668281346e6 1.8338499123968337e7 0.0
1.8338499123968337e7 2.174585200922921e7 0.0
0.0 0.0 0.0

-4.36794338959548e6 2.1257985968435854e7 0.0
2.1257985968435854e7 -3.8763799243504e6 0.0
0.0 0.0 0.0

-1.662773553686353e6 2.40011219990372e7 0.0
2.40011219990372e7 -949994.2547329415 0.0
0.0 0.0 0.0

-881541.0180267221 1.888009863765213e7 0.0
1.888009863765213e7 -1.2980068863321465e7 0.0
0.0 0.0 0.0

-1.044711175495876e6 1.3482709878814008e7 0.0
1.3482709878814008e7 -3.5861266865350395e7 0.0
0.0 0.0 0.0

-7.245224707009148e6 1.6922659765858274e7 0.0
1.6922659765858274e7 2.882196067995235e7 0.0
0.0 0.0 0.0

655629.3686362877 1.1382636769124025e7 0.0
1.1382636769124025e7 -1.266057295825527e7 0.0
0.0 0.0 0.0

-1.1533223555619854e7 8.88501162915291e6 0.0
8.88501162915291e6 2.7246269253703475e7 0.0
0.0 0.0 0.0

2.0747492107276833e6 1.218679500951712e7 0.0
1.218679500951712e7 -2.470579718005208e7 0.0
0.0 0.0 0.0

-2.004414283355703e6 1.2316592884334505e7 0.0
1.2316592884334505e7 -4.729165706646837e6 0.0
0.0 0.0 0.0

3.059709303572337e6 4.2521964092506375e6 0.0
4.2521964092506375e6 -1.2749495724507757e7 0.0
0.0 0.0 0.0

-3.4056408311181497e6 1.842794899915258e7 0.0
1.842794899915258e7 334062.4605488323 0.0
0.0 0.0 0.0

-2.944699749647204e6 2.3259077945939064e7 0.0
2.3259077945939064e7 1.682173411456276e6 0.0
0.0 0.0 0.0

556130.9745628592 2.7449748283515047e7 0.0
2.7449748283515047e7 -3.6199886452653725e6 0.0
0.0 0.0 0.0

-2.5858036759412666e6 1.800485343958384e7 0.0
1.800485343958384e7 -4.252881097435831e6 0.0
0.0 0.0 0.0

2.528749569959112e6 5.9413237392693255e6 0.0
5.9413237392693255e6 -8.94353153106848e6 0.0
0.0 0.0 0.0

5.715730814358515e6 2.6762537334427103e7 0.0
2.6762537334427103e7 -5.258148359903133e6 0.0
0.0 0.0 0.0

-1.1633422169872856e7 1.0351418825485835e7 0.0
1.0351418825485835e7 2.2144196038797557e7 0.0
0.0 0.0 0.0

2.0579381914299186e6 7.343792345777597e6 0.0
7.343792345777597e6 -3.795934703483673e7 0.0
0.0 0.0 0.0

2.8791496722078463e6 2.136723724971189e7 0.0
2.136723724971189e7 1.1553125268240254e7 0.0
0.0 0.0 0.0

-3.317839319690543e6 2.574645574023011e7 0.0
2.574645574023011e7 3.79902173676458e6 0.0
0.0 0.0 0.0

-2.477220834466747e6 1.7575777776203193e7 0.0
1.7575777776203193e7 -1.1018573165057544e7 0.0
0.0 0.0 0.0

-5.349822353765059e6 1.7499824646620635e7 0.0
1.7499824646620635e7 2.9444073072155233e7 0.0
0.0 0.0 0.0

-4.417490277681978e6 1.8396131764605355e7 0.0
1.8396131764605355e7 -1.472496763687069e7 0.0
0.0 0.0 0.0

-306051.88804515917 1.2577995560510026e7 0.0
1.2577995560510026e7 -1.0346547866564788e7 0.0
0.0 0.0 0.0

1.4230093134539337e6 1.869797259062617e7 0.0
1.869797259062617e7 1.520075321644189e7 0.0
0.0 0.0 0.0

-305369.37664338434 4.137027237543775e7 0.0
4.137027237543775e7 1.5848439897990003e6 0.0
0.0 0.0 0.0

-3.2462584117479227e6 2.1286255651790503e7 0.0
2.1286255651790503e7 -8.907070262090974e6 0.0
0.0 0.0 0.0

5.1623445287580036e7 1.81514369802094e7 0.0
1.81514369802094e7 3.9293797895498555e6 0.0
0.0 0.0 0.0

-2.012907815146875e6 1.3968192755845893e7 0.0
1.3968192755845893e7 -5.499197352052022e6 0.0
0.0 0.0 0.0

-3.2304625768051473e6 1.882920842835616e7 0.0
1.882920842835616e7 -791754.861119857 0.0
0.0 0.0 0.0

913627.2708797492 1.4177853305233596e7 0.0
1.4177853305233596e7 -1.6201814914586084e7 0.0
0.0 0.0 0.0

967384.4932323564 2.800441632865759e7 0.0
2.800441632865759e7 -3.592113382675012e6 0.0
0.0 0.0 0.0

2.8017204822451714e6 5.991692109456013e6 0.0
5.991692109456013e6 -3.3174097817284375e7 0.0
0.0 0.0 0.0

22776.308932974935 8.447324734977525e6 0.0
8.447324734977525e6 -7.283347149278955e6 0.0
0.0 0.0 0.0

1.6481628069821997e6 1.129537672050933e7 0.0
1.129537672050933e7 -1.8594543895415686e7 0.0
0.0 0.0 0.0

-4.3337971365335155e6 2.1257187665503815e7 0.0
2.1257187665503815e7 1.4023135607473137e7 0.0
0.0 0.0 0.0

-2.5902677118535414e6 1.982458501977923e7 0.0
1.982458501977923e7 -3.64865794322706e6 0.0
0.0 0.0 0.0

145733.94329966675 1.836276245962673e7 0.0
1.836276245962673e7 5.3898075961349e6 0.0
0.0 0.0 0.0

-1.078610585016599e6 1.299629475729779e7 0.0
1.299629475729779e7 -3.734055397311648e6 0.0
0.0 0.0 0.0

-1.8010724018611992e6 1.8576977124276906e7 0.0
1.8576977124276906e7 -3.3669665803326634e6 0.0
0.0 0.0 0.0

1.73868335810176e6 1.8873738344542187e7 0.0
1.8873738344542187e7 -4.346533551210235e6 0.0
0.0 0.0 0.0

279104.8102900863 3.921236596890596e7 0.0
3.921236596890596e7 1.634193121845999e6 0.0
0.0 0.0 0.0

-1.8347326059223255e6 1.94794811965699e7 0.0
1.94794811965699e7 -3.0904413742073267e6 0.0
0.0 0.0 0.0

-2.8246162887734296e6 6.7093755600196235e6 0.0
6.7093755600196235e6 4.24813788560156e6 0.0
0.0 0.0 0.0

2.4293819776503842e7 1.293527584225673e7 0.0
1.293527584225673e7 1.1957944519635756e6 0.0
0.0 0.0 0.0

328889.78856615163 9.608703617543044e6 0.0
9.608703617543044e6 -4.693844217470636e7 0.0
0.0 0.0 0.0

-2.1965512579595065e6 2.4007484390861057e7 0.0
2.4007484390861057e7 1.6177490252425312e6 0.0
0.0 0.0 0.0

-4.862133456857644e6 7.72276864954259e6 0.0
7.72276864954259e6 8.214521777921805e6 0.0
0.0 0.0 0.0

-1.4643878976447145e6 1.3419972207215464e7 0.0
1.3419972207215464e7 -6.734367975621218e6 0.0
0.0 0.0 0.0

89055.34554602765 1.151599410445354e7 0.0
1.151599410445354e7 -1.0681183264472093e7 0.0
0.0 0.0 0.0

278877.3278749719 3.740823900162791e7 0.0
3.740823900162791e7 1.0345649878889552e6 0.0
0.0 0.0 0.0

1.992617848245861e6 1.0115834204709493e7 0.0
1.0115834204709493e7 -2.889031307211135e7 0.0
0.0 0.0 0.0

-1.189203448663274e7 4.1360726059433627e6 0.0
4.1360726059433627e6 2.299636400210494e7 0.0
0.0 0.0 0.0

-4.72371114074412e6 2.0735044329491906e7 0.0
2.0735044329491906e7 -1.1679673450302547e7 0.0
0.0 0.0 0.0

-6.858526715836909e6 6.602895201656176e6 0.0
6.602895201656176e6 1.1945250824915292e7 0.0
0.0 0.0 0.0

-1.5963974989179957e6 1.830830683770355e7 0.0
1.830830683770355e7 -8.134149103241082e6 0.0
0.0 0.0 0.0

-2.942396980694995e6 2.0038426161995515e7 0.0
2.0038426161995515e7 -1.550787830120969e6 0.0
0.0 0.0 0.0

729624.9865928935 1.545615827838035e7 0.0
1.545615827838035e7 -2.0100789517304786e7 0.0
0.0 0.0 0.0

24921.108880557964 3.591731379496853e7 0.0
3.591731379496853e7 800051.9816198207 0.0
0.0 0.0 0.0

-4.1466288419872e6 2.1873098325976077e7 0.0
2.1873098325976077e7 1.2659931510122936e7 0.0
0.0 0.0 0.0

-1.8355290856310728e6 2.0347324385406777e7 0.0
2.0347324385406777e7 -2.838609079200522e6 0.0
0.0 0.0 0.0

2.675088081253778e6 6.723398121766536e6 0.0
6.723398121766536e6 -3.200584287952189e7 0.0
0.0 0.0 0.0

-3.585505672056839e6 1.0123477165171927e7 0.0
1.0123477165171927e7 4.983456385373274e6 0.0
0.0 0.0 0.0

234667.45654437717 3.475205087670597e7 0.0
3.475205087670597e7 857507.4069399163 0.0
0.0 0.0 0.0

1.3454143294016197e6 8.638085433886476e6 0.0
8.638085433886476e6 -4.93291761440846e7 0.0
0.0 0.0 0.0

310815.32434659475 3.377333637699213e7 0.0
3.377333637699213e7 740787.6836388618 0.0
0.0 0.0 0.0

198171.9947754654 3.2877472937079787e7 0.0
3.2877472937079787e7 514566.30287581397 0.0
0.0 0.0 0.0

-1.9052899941571984e6 2.631694188024292e7 0.0
2.631694188024292e7 -797338.0940197678 0.0
0.0 0.0 0.0

-1.7982725370372273e6 2.691792772745692e7 0.0
2.691792772745692e7 -629425.9647276683 0.0
0.0 0.0 0.0

-1.7274970547627362e6 2.7509422662206862e7 0.0
2.7509422662206862e7 -504068.74064857635 0.0
0.0 0.0 0.0

-1.64575346800719e6 2.8069520024818704e7 0.0
2.8069520024818704e7 -454520.98993676243 0.0
0.0 0.0 0.0

-1.5932785235856806e6 2.8633385695838243e7 0.0
2.8633385695838243e7 -349809.2118556303 0.0
0.0 0.0 0.0

-1.542749916311336e6 2.9225232456261482e7 0.0
2.9225232456261482e7 -357693.2654403077 0.0
0.0 0.0 0.0

-6.295599877756774e6 1.38481450313e7 0.0
1.38481450313e7 8.713226686176024e6 0.0
0.0 0.0 0.0

-1.4041530708295903e6 2.9809463997029666e7 0.0
2.9809463997029666e7 -255857.6377338403 0.0
0.0 0.0 0.0

-1.4744726644428794e6 3.0437535083540853e7 0.0
3.0437535083540853e7 -225715.38639303204 0.0
0.0 0.0 0.0

-8.455445811999764e6 1.6277919535263943e7 0.0
1.6277919535263943e7 2.0703333001191743e7 0.0
0.0 0.0 0.0

51805.04344808814 3.208429901133112e7 0.0
3.208429901133112e7 488502.11395675107 0.0
0.0 0.0 0.0

-1.5685544884032689e6 3.1014885704522025e7 0.0
3.1014885704522025e7 -174486.31334851 0.0
0.0 0.0 0.0

-1.4499089958899582e6 3.1735455652245916e7 0.0
3.1735455652245916e7 -47682.953288530814 0.0
0.0 0.0 0.0

-57040.710483803006 3.139833241499129e7 0.0
3.139833241499129e7 425791.6923800484 0.0
0.0 0.0 0.0

-1.4022149229980134e6 1.564545206421822e7 0.0
1.564545206421822e7 -4.242590533076057e6 0.0
0.0 0.0 0.0

-1.6128622054757574e6 3.249291707129499e7 0.0
3.249291707129499e7 -88430.58087826415 0.0
0.0 0.0 0.0

-358712.4244477857 3.0712247136894863e7 0.0
3.0712247136894863e7 231790.69611978997 0.0
0.0 0.0 0.0

-206742.4631439962 3.0090010121720213e7 0.0
3.0090010121720213e7 228723.3223973195 0.0
0.0 0.0 0.0

-465983.8617189129 2.954784476334057e7 0.0
2.954784476334057e7 153275.71193206898 0.0
0.0 0.0 0.0

-687173.5261321057 2.8925970628133714e7 0.0
2.8925970628133714e7 108238.08216196662 0.0
0.0 0.0 0.0

-787926.6069315793 2.838182489782312e7 0.0
2.838182489782312e7 34563.84713358403 0.0
0.0 0.0 0.0

-1.0132059991659857e6 2.7805761231030535e7 0.0
2.7805761231030535e7 -33034.45586733776 0.0
0.0 0.0 0.0

-1.0676564893237161e6 2.725266318103697e7 0.0
2.725266318103697e7 -99420.97285477942 0.0
0.0 0.0 0.0

-1.1729470751403961e6 2.666888783626577e7 0.0
2.666888783626577e7 -235768.1659402413 0.0
0.0 0.0 0.0

-2.1158609467424955e6 2.2552060106811956e7 0.0
2.2552060106811956e7 -3.6405689777438217e6 0.0
0.0 0.0 0.0

-7.056315210156372e6 1.7408159909218617e7 0.0
1.7408159909218617e7 2.7318421391961347e7 0.0
0.0 0.0 0.0

-1.8858094993302946e6 3.3279374986146275e7 0.0
3.3279374986146275e7 -33190.82113828894 0.0
0.0 0.0 0.0

2.6006813694400443e6 8.171131346516522e6 0.0
8.171131346516522e6 -2.2203801078223754e7 0.0
0.0 0.0 0.0

-2.467248529047466e6 2.216843339997512e7 0.0
2.216843339997512e7 2.2263024540985534e6 0.0
0.0 0.0 0.0

-2.318725782037978e6 3.4260618552235104e7 0.0
3.4260618552235104e7 87943.86727556435 0.0
0.0 0.0 0.0

-1.1243606257481534e7 1.1551620156903263e7 0.0
1.1551620156903263e7 2.1216690246487193e7 0.0
0.0 0.0 0.0

-2.9310789079822265e6 3.539161309152573e7 0.0
3.539161309152573e7 8383.239828417194 0.0
0.0 0.0 0.0

-1.1736568142338542e7 9.940698706273075e6 0.0
9.940698706273075e6 2.36945085826493e7 0.0
0.0 0.0 0.0

-3.7256782759756404e6 3.66344316181887e7 0.0
3.66344316181887e7 -138732.32639442058 0.0
0.0 0.0 0.0

232933.98842663225 1.8207546978989996e7 0.0
1.8207546978989996e7 -1.5542344566818967e7 0.0
0.0 0.0 0.0

2.3771213361636326e6 1.0872899935271647e7 0.0
1.0872899935271647e7 -1.7920405847020276e7 0.0
0.0 0.0 0.0

-730716.3897419553 1.3665146739067823e7 0.0
1.3665146739067823e7 -3.3343990339492537e7 0.0
0.0 0.0 0.0

-2.0454745105946106e6 2.0046355378695812e7 0.0
2.0046355378695812e7 -1.9057805098097906e6 0.0
0.0 0.0 0.0

-1.1271599855143586e6 1.5604154756442962e7 0.0
1.5604154756442962e7 -9.268201711596988e6 0.0
0.0 0.0 0.0

-1.8002989843463665e6 2.1394327851157714e7 0.0
2.1394327851157714e7 -5.843618212922548e6 0.0
0.0 0.0 0.0

198517.11833839957 1.8400242787886363e7 0.0
1.8400242787886363e7 -1.5544892437557964e7 0.0
0.0 0.0 0.0

4.032811392263327e6 2.2609139324638187e6 0.0
2.2609139324638187e6 -2.700634914035719e7 0.0
0.0 0.0 0.0

-3.71396235001617e6 1.3002303097789593e7 0.0
1.3002303097789593e7 5.189258864669565e6 0.0
0.0 0.0 0.0

-4.628282815689522e6 3.818890950674265e7 0.0
3.818890950674265e7 32762.163265939336 0.0
0.0 0.0 0.0

1.9750495018008687e6 1.1688523570544774e7 0.0
1.1688523570544774e7 -1.5152303857423143e7 0.0
0.0 0.0 0.0

-1.1561352762172401e7 1.037365565978363e7 0.0
1.037365565978363e7 2.6168795756316684e7 0.0
0.0 0.0 0.0

-1.708837088206024e6 1.763782495889003e7 0.0
1.763782495889003e7 -3.666275291724348e6 0.0
0.0 0.0 0.0

-111854.694137396 2.8703091813536588e7 0.0
2.8703091813536588e7 -1.3017342168070655e6 0.0
0.0 0.0 0.0

2.7826484393914174e6 7.448666947352891e6 0.0
7.448666947352891e6 -2.3332568160483014e7 0.0
0.0 0.0 0.0

-1.1046481211686108e7 3.417138463701859e7 0.0
3.417138463701859e7 4.670135236179082e6 0.0
0.0 0.0 0.0

-6.034241178328386e6 1.5569612530470788e7 0.0
1.5569612530470788e7 9.975783993650828e6 0.0
0.0 0.0 0.0

-1.5772632461075326e7 2.5898319390785612e7 0.0
2.5898319390785612e7 3.76389165568439e6 0.0
0.0 0.0 0.0

1.9016124671810572e6 1.81561262586361e7 0.0
1.81561262586361e7 1.309172727246405e7 0.0
0.0 0.0 0.0

-6.605656092429844e6 4.039805006856813e7 0.0
4.039805006856813e7 63489.70592202339 0.0
0.0 0.0 0.0

1.63932925802855e6 1.133769455710309e7 0.0
1.133769455710309e7 -2.7873250562062647e7 0.0
0.0 0.0 0.0

-4.880417493498864e6 1.5407878613217704e7 0.0
1.5407878613217704e7 5.593932852936927e6 0.0
0.0 0.0 0.0

1.254345806601391e6 1.684430514431666e7 0.0
1.684430514431666e7 4.1811531352747474e6 0.0
0.0 0.0 0.0

2.251761504839969e6 9.061301508268783e6 0.0
9.061301508268783e6 -1.9407712031214856e7 0.0
0.0 0.0 0.0

710207.1092552568 1.9592426440458465e7 0.0
1.9592426440458465e7 3.8026771656153905e6 0.0
0.0 0.0 0.0

2.4259684852942936e6 8.89246123800685e6 0.0
8.89246123800685e6 -2.111236600900033e7 0.0
0.0 0.0 0.0

-145752.82431156607 1.6041895492972134e7 0.0
1.6041895492972134e7 -2.733218966495498e6 0.0
0.0 0.0 0.0

-2.2201719660730856e6 2.0564144727482427e7 0.0
2.0564144727482427e7 -744032.6121105666 0.0
0.0 0.0 0.0

-2.5466617713264544e6 2.0677670429190323e7 0.0
2.0677670429190323e7 -3.3724866247652164e6 0.0
0.0 0.0 0.0

1.800188437626008e6 9.430597940389952e6 0.0
9.430597940389952e6 -1.5802859060491072e7 0.0
0.0 0.0 0.0

2.2998192280359033e7 2.189519090876613e7 0.0
2.189519090876613e7 9.141236350235537e6 0.0
0.0 0.0 0.0

1.6061159519269438e6 1.2685235518958228e7 0.0
1.2685235518958228e7 -1.4815927042356217e7 0.0
0.0 0.0 0.0

-569384.5477615753 1.5844523378246892e7 0.0
1.5844523378246892e7 -7.474767822634445e6 0.0
0.0 0.0 0.0

-5.267184443540727e6 2.2157160318656933e7 0.0
2.2157160318656933e7 6.403899764340451e6 0.0
0.0 0.0 0.0

682818.945384643 1.1695698067677915e7 0.0
1.1695698067677915e7 -8.802953161618605e6 0.0
0.0 0.0 0.0

-4.144008917970454e6 2.2520078488285746e7 0.0
2.2520078488285746e7 1.1225773260173935e7 0.0
0.0 0.0 0.0

3.780623356456018e6 1.7616327890133258e7 0.0
1.7616327890133258e7 2.2767375831498545e7 0.0
0.0 0.0 0.0

-9.08171589165473e6 1.273571106453187e7 0.0
1.273571106453187e7 1.7882725492141552e7 0.0
0.0 0.0 0.0

-9.618358259266274e6 4.292421153394755e7 0.0
4.292421153394755e7 -452466.32500950154 0.0
0.0 0.0 0.0

-240529.5683605671 1.774056761730285e7 0.0
1.774056761730285e7 3.8467824495595135e7 0.0
0.0 0.0 0.0

-3.3179324753310876e6 1.5828079276779234e7 0.0
1.5828079276779234e7 -1.333670567747045e6 0.0
0.0 0.0 0.0

9.608885181895053e6 1.9554449668478485e7 0.0
1.9554449668478485e7 2.8144984590003635e6 0.0
0.0 0.0 0.0

2.965944154697424e6 6.936485467124955e6 0.0
6.936485467124955e6 -2.6241251425974604e7 0.0
0.0 0.0 0.0

1.0564499757199977e6 1.1571512690002581e7 0.0
1.1571512690002581e7 -3.1687098514190257e7 0.0
0.0 0.0 0.0

-5.109253558854952e6 1.8437330673691507e7 0.0
1.8437330673691507e7 1.1523844872578297e7 0.0
0.0 0.0 0.0

-1.2645170239293851e7 2.475286597486995e7 0.0
2.475286597486995e7 -8.97018458179477e6 0.0
0.0 0.0 0.0

-2.672179093907534e6 1.7999987363109387e7 0.0
1.7999987363109387e7 1.0425806190512885e6 0.0
0.0 0.0 0.0

-280165.0287126079 1.607643252889773e7 0.0
1.607643252889773e7 -1.259433916752847e7 0.0
0.0 0.0 0.0

-1.4905416353969872e7 3.291008266136911e7 0.0
3.291008266136911e7 6.12448927730343e6 0.0
0.0 0.0 0.0

1.5999487448381707e6 1.1732039754262257e7 0.0
1.1732039754262257e7 -1.9226549577434395e7 0.0
0.0 0.0 0.0

-2.64438583241079e6 1.8946910515068576e7 0.0
1.8946910515068576e7 1.1416296744936788e6 0.0
0.0 0.0 0.0

-4.189937122541255e6 9.028904045774806e6 0.0
9.028904045774806e6 6.600917689780855e6 0.0
0.0 0.0 0.0

-3.7539433183463393e6 1.8190566988652468e7 0.0
1.8190566988652468e7 9.85154869897371e6 0.0
0.0 0.0 0.0

-7.364398392371425e6 6.485851263826133e7 0.0
6.485851263826133e7 1.0112755273614479e6 0.0
0.0 0.0 0.0

-7.700602893545406e6 1.3564879269861877e7 0.0
1.3564879269861877e7 1.6297150658235326e7 0.0
0.0 0.0 0.0

-3.69185470903744e6 6.929841866346469e6 0.0
6.929841866346469e6 1.3203644247426104e6 0.0
0.0 0.0 0.0

-1.9497185051828846e6 2.1728927844433133e7 0.0
2.1728927844433133e7 -1.459194997026763e6 0.0
0.0 0.0 0.0

-3.2102859033071334e6 2.1684797046977475e7 0.0
2.1684797046977475e7 3.6524808172567487e6 0.0
0.0 0.0 0.0

-671716.295767142 1.9108395434418436e7 0.0
1.9108395434418436e7 -8.0182120459128935e6 0.0
0.0 0.0 0.0

-2.6710650354780112e6 2.1233084375558265e7 0.0
2.1233084375558265e7 -2.2258433190759695e6 0.0
0.0 0.0 0.0

-9.227833194244336e6 1.4082704430050813e6 0.0
1.4082704430050813e6 1.3834748826628244e7 0.0
0.0 0.0 0.0

-47791.14192664507 1.773827876087837e7 0.0
1.773827876087837e7 -4.274988628708406e6 0.0
0.0 0.0 0.0

-3.218659193759366e6 2.2453375873179536e7 0.0
2.2453375873179536e7 3.7081603376853587e6 0.0
0.0 0.0 0.0

1.063511130238858e6 1.0739215967567941e7 0.0
1.0739215967567941e7 -1.3722828552499624e7 0.0
0.0 0.0 0.0

590176.8748408563 1.8163800123011693e7 0.0
1.8163800123011693e7 -3.3228899598673163e6 0.0
0.0 0.0 0.0

-1.8536001935775455e7 2.4793329319940623e7 0.0
2.4793329319940623e7 1.3484560800537104e6 0.0
0.0 0.0 0.0

-6.258780479269393e6 1.4340078458499284e7 0.0
1.4340078458499284e7 1.4482275257224021e7 0.0
0.0 0.0 0.0

283801.59485848434 1.7686828804215625e7 0.0
1.7686828804215625e7 -1.6689934529800862e7 0.0
0.0 0.0 0.0

-3.3637096077776994e6 2.2865066441485845e7 0.0
2.2865066441485845e7 5.746842484084653e6 0.0
0.0 0.0 0.0

3.6542606369568706e6 2.754570006665243e6 0.0
2.754570006665243e6 -1.4760568802243128e7 0.0
0.0 0.0 0.0

-3.943639328320476e6 -2.4477111539710206e6 0.0
-2.4477111539710206e6 4.496582292819018e6 0.0
0.0 0.0 0.0

-2.5411329697190095e6 -1.1662106019964064e6 0.0
-1.1662106019964064e6 2.712441555474371e6 0.0
0.0 0.0 0.0

-8.852385379633056e6 -4.949217428717544e6 0.0
-4.949217428717544e6 2.607093313793397e7 0.0
0.0 0.0 0.0

-1.362256833965174e6 400576.85238959984 0.0
400576.85238959984 694467.4127380472 0.0
0.0 0.0 0.0

-8.588234050171532e6 -5.416895253365105e6 0.0
-5.416895253365105e6 2.3614530715010878e7 0.0
0.0 0.0 0.0

3.552929235278884e6 2.922498369586005e6 0.0
2.922498369586005e6 -1.1615629301672282e7 0.0
0.0 0.0 0.0

-4.897360563173037e6 -5.662311664825919e6 0.0
-5.662311664825919e6 9.445715217912693e6 0.0
0.0 0.0 0.0

-7.1973491258203965e6 -6.66083668961604e6 0.0
-6.66083668961604e6 1.5846791288159834e7 0.0
0.0 0.0 0.0

143315.21028479573 1.8516650451428501e6 0.0
1.8516650451428501e6 -1.845359001733193e6 0.0
0.0 0.0 0.0

-8.290469138009012e6 -6.061760652506974e6 0.0
-6.061760652506974e6 2.0954781623007234e7 0.0
0.0 0.0 0.0

2.834680555288538e6 3.016567838489153e6 0.0
3.016567838489153e6 -8.359795861936472e6 0.0
0.0 0.0 0.0

1.7670100510636216e6 2.826865671840678e6 0.0
2.826865671840678e6 -5.170982399628915e6 0.0
0.0 0.0 0.0

-3.8044732261716137e6 -3.6352695357749388e6 0.0
-3.6352695357749388e6 5.62330720975436e6 0.0
0.0 0.0 0.0

4.1002086872768365e6 2.345030859083469e6 0.0
2.345030859083469e6 -2.4336324797239617e7 0.0
0.0 0.0 0.0

4.153546711276263e6 2.252621303452926e6 0.0
2.252621303452926e6 -2.635078285504533e7 0.0
0.0 0.0 0.0

4.110659292053921e6 2.375389389804962e6 0.0
2.375389389804962e6 -2.2322341398873482e7 0.0
0.0 0.0 0.0

4.218344388548749e6 2.587798579938897e6 0.0
2.587798579938897e6 -1.9192131047460344e7 0.0
0.0 0.0 0.0

-5.066535294595774e6 -4.71308595714105e6 0.0
-4.71308595714105e6 8.039485273694528e6 0.0
0.0 0.0 0.0

-8.27239674104633e6 -5.685542233435968e6 0.0
-5.685542233435968e6 2.2190596603769593e7 0.0
0.0 0.0 0.0

4.1321422990959696e6 2.34945525159555e6 0.0
2.34945525159555e6 -2.543816191491085e7 0.0
0.0 0.0 0.0

3.7760300438615307e6 2.6800221128295595e6 0.0
2.6800221128295595e6 -1.6966576811543483e7 0.0
0.0 0.0 0.0

3.9671413309185617e6 2.635449804767782e6 0.0
2.635449804767782e6 -1.8063184734635346e7 0.0
0.0 0.0 0.0

3.898906060622749e6 2.7072959196130955e6 0.0
2.7072959196130955e6 -1.597554401857831e7 0.0
0.0 0.0 0.0

927695.1199291535 1.6215186651985247e7 0.0
1.6215186651985247e7 -1.5068306376668425e7 0.0
0.0 0.0 0.0

-1.0442194676630631e7 1.2513349099747295e7 0.0
1.2513349099747295e7 2.0215181635654096e7 0.0
0.0 0.0 0.0

-1.2108776656224983e7 7.414090282609972e6 0.0
7.414090282609972e6 2.53925274919937e7 0.0
0.0 0.0 0.0

-4.0451805752116316e6 2.322556247738536e7 0.0
2.322556247738536e7 1.000986308572568e7 0.0
0.0 0.0 0.0

-916643.7833692394 1.617987804352095e7 0.0
1.617987804352095e7 -2.3307284439157248e7 0.0
0.0 0.0 0.0

-3.753904585806459e6 1.9104522897802804e7 0.0
1.9104522897802804e7 3.780353044321348e6 0.0
0.0 0.0 0.0

-1.4410775674291875e7 4.662287538043284e7 0.0
4.662287538043284e7 -1.0006700883987886e6 0.0
0.0 0.0 0.0

-3.315795861160261e6 1.6874692903285418e7 0.0
1.6874692903285418e7 -1.1294068717426194e6 0.0
0.0 0.0 0.0

-4.501569918639643e6 1.953740164315439e7 0.0
1.953740164315439e7 -1.3674855192957086e7 0.0
0.0 0.0 0.0

8.277332355689591e6 2.170901425395445e7 0.0
2.170901425395445e7 1.0214164731350318e7 0.0
0.0 0.0 0.0

-2.941843367633306e6 2.0129616119898964e7 0.0
2.0129616119898964e7 8.275688867145149e6 0.0
0.0 0.0 0.0

-3.489102170660527e6 1.914461508503624e7 0.0
1.914461508503624e7 9.449517719107227e6 0.0
0.0 0.0 0.0

547123.9764580587 1.995606586159305e7 0.0
1.995606586159305e7 -1.2251756280534003e7 0.0
0.0 0.0 0.0

-4.219941091932094e6 1.7494704202330638e7 0.0
1.7494704202330638e7 1.1470200852738678e7 0.0
0.0 0.0 0.0

-2.7168506444369736e6 2.1774120664349817e7 0.0
2.1774120664349817e7 -1.192539652632039e6 0.0
0.0 0.0 0.0

-2.362826776139167e6 2.01081446136094e7 0.0
2.01081446136094e7 -4.539303020916724e6 0.0
0.0 0.0 0.0

-6.715892776295716e6 1.4275749434108546e7 0.0
1.4275749434108546e7 1.0365514525938781e7 0.0
0.0 0.0 0.0

-713575.830589626 1.502592557760105e7 0.0
1.502592557760105e7 -1.0463550822358906e7 0.0
0.0 0.0 0.0

-2.895543985172119e6 1.7562747461750492e7 0.0
1.7562747461750492e7 2.2486584872936197e6 0.0
0.0 0.0 0.0

1.450305138945166e6 1.0095776216211794e7 0.0
1.0095776216211794e7 -1.4748404066335695e7 0.0
0.0 0.0 0.0

-2.9972954937183266e6 -3.1056050411633127e6 0.0
-3.1056050411633127e6 7.682059640263808e6 0.0
0.0 0.0 0.0

-2.459981639717796e6 -1.5312706651298604e6 0.0
-1.5312706651298604e6 5.985575639443945e6 0.0
0.0 0.0 0.0

-8.553108637080187e6 -5.887790965277076e6 0.0
-5.887790965277076e6 2.1027215343281522e7 0.0
0.0 0.0 0.0

-3.59477072814496e6 -3.840852303578288e6 0.0
-3.840852303578288e6 9.219414535814544e6 0.0
0.0 0.0 0.0

-4.280657525443483e6 -5.269660402371997e6 0.0
-5.269660402371997e6 1.0481714910929553e7 0.0
0.0 0.0 0.0

4.059801432661742e6 2.3206729348859326e6 0.0
2.3206729348859326e6 -2.4508752716615923e7 0.0
0.0 0.0 0.0

4.0206327230874784e6 2.2639869385847547e6 0.0
2.2639869385847547e6 -2.532581046580657e7 0.0
0.0 0.0 0.0

-8.603328704560384e6 -5.498672588250734e6 0.0
-5.498672588250734e6 2.2626819149178497e7 0.0
0.0 0.0 0.0

3.960150970278105e6 2.648226238717924e6 0.0
2.648226238717924e6 -1.8542885941227373e7 0.0
0.0 0.0 0.0

3.840057739762486e6 2.83110309086692e6 0.0
2.83110309086692e6 -1.5035240376732076e7 0.0
0.0 0.0 0.0

3.891007326925898e6 2.7234157883124487e6 0.0
2.7234157883124487e6 -1.7066937227136742e7 0.0
0.0 0.0 0.0

3.875853774726309e6 2.689735543379039e6 0.0
2.689735543379039e6 -1.6039960887676291e7 0.0
0.0 0.0 0.0

-3.8793010602748455e6 1.5971887411602575e7 0.0
1.5971887411602575e7 1.3183907240672263e6 0.0
0.0 0.0 0.0

-6.92795818099289e6 1.7846759646085132e7 0.0
1.7846759646085132e7 2.58415133338812e7 0.0
0.0 0.0 0.0

-5.123011934719013e6 1.7121901550122768e7 0.0
1.7121901550122768e7 1.4348495868422743e7 0.0
0.0 0.0 0.0

3.787205093337862e6 5.820391445274029e6 0.0
5.820391445274029e6 -2.1578710890421286e7 0.0
0.0 0.0 0.0

-1.0388245978554467e6 2.3940733403717503e7 0.0
2.3940733403717503e7 -4.922795183227234e6 0.0
0.0 0.0 0.0

-1.5871021255101766e6 1.960840872155048e7 0.0
1.960840872155048e7 1.9989077693757255e7 0.0
0.0 0.0 0.0

-1.1132087032079365e7 1.4465035361501483e7 0.0
1.4465035361501483e7 2.179518333237886e7 0.0
0.0 0.0 0.0

2.0135575388840036e6 9.73559873542532e6 0.0
9.73559873542532e6 -1.8314730441297572e7 0.0
0.0 0.0 0.0

1.565349379522372e6 1.2148312758974854e7 0.0
1.2148312758974854e7 -1.9733869430719946e7 0.0
0.0 0.0 0.0

-2.3801942083202903e6 1.9242875305356883e7 0.0
1.9242875305356883e7 -4.851858260326198e6 0.0
0.0 0.0 0.0

-2.5655014587239875e6 1.9349381706622206e7 0.0
1.9349381706622206e7 2.227187107019768e7 0.0
0.0 0.0 0.0

-3.7081397430981686e6 1.1631547985512929e7 0.0
1.1631547985512929e7 5.1277015607944755e6 0.0
0.0 0.0 0.0

-902276.8734160953 1.971482721741263e7 0.0
1.971482721741263e7 -6.87715803305441e6 0.0
0.0 0.0 0.0

-1.8916437922612801e6 2.3770457913735922e7 0.0
2.3770457913735922e7 -87064.40485525737 0.0
0.0 0.0 0.0

1.2179978212099448e6 1.3622638243765924e7 0.0
1.3622638243765924e7 -1.4629209584466679e7 0.0
0.0 0.0 0.0

-2.0207876619791328e6 2.0897363894751627e7 0.0
2.0897363894751627e7 -1.6753934236589386e6 0.0
0.0 0.0 0.0

2.08271181609393e6 3.9366129347309717e6 0.0
3.9366129347309717e6 1.5744099440673767e6 0.0
0.0 0.0 0.0

-2.9850200476787444e6 1.9591956880271226e7 0.0
1.9591956880271226e7 2.120101599075785e7 0.0
0.0 0.0 0.0

1.2566384018340856e6 1.041110649779686e7 0.0
1.041110649779686e7 -3.734053294917121e7 0.0
0.0 0.0 0.0

1.406554294918619e6 1.1392968218693214e7 0.0
1.1392968218693214e7 -2.977400155174918e7 0.0
0.0 0.0 0.0

-844334.3950024135 1.885956536792149e7 0.0
1.885956536792149e7 -7.254585875704791e6 0.0
0.0 0.0 0.0

-9.452473413542861e6 2.3720816098562703e7 0.0
2.3720816098562703e7 4.945089998549379e6 0.0
0.0 0.0 0.0

2.8831565126389433e6 6.520625667433171e6 0.0
6.520625667433171e6 -1.1661175116613694e7 0.0
0.0 0.0 0.0

-2.6819290367561216e6 1.7015207867010694e7 0.0
1.7015207867010694e7 951620.0141083626 0.0
0.0 0.0 0.0

-2.7601627962033898e6 2.0385848764306802e7 0.0
2.0385848764306802e7 -2.4645188885862436e6 0.0
0.0 0.0 0.0

-1.7933826595377992e6 2.1193575141464382e7 0.0
2.1193575141464382e7 -2.5742108500825935e6 0.0
0.0 0.0 0.0

-1.1157202789418967e6 1.619415168474128e7 0.0
1.619415168474128e7 -2.5426222833358996e7 0.0
0.0 0.0 0.0

1.6195137776877126e6 1.1912349422749555e7 0.0
1.1912349422749555e7 -2.4815740352803994e7 0.0
0.0 0.0 0.0

-5.017777191382859e6 1.226732756663978e7 0.0
1.226732756663978e7 4.0785224479533583e6 0.0
0.0 0.0 0.0

-4.983183224026648e6 1.811445595187431e7 0.0
1.811445595187431e7 1.039333641838479e7 0.0
0.0 0.0 0.0

366124.11869104207 1.4692309445455046e7 0.0
1.4692309445455046e7 -2.619587117215434e7 0.0
0.0 0.0 0.0

-1.0749514004745656e6 2.1916479324093398e7 0.0
2.1916479324093398e7 -5.032503368553661e6 0.0
0.0 0.0 0.0

2.219961277489614e6 2.8827225648009856e6 0.0
2.8827225648009856e6 -6.296747721386901e6 0.0
0.0 0.0 0.0

4.78321110564411e6 3.067479298662318e7 0.0
3.067479298662318e7 -3.390184577019899e6 0.0
0.0 0.0 0.0

2.4817015948066483e6 7.306713569814273e6 0.0
7.306713569814273e6 -1.0724408013394656e7 0.0
0.0 0.0 0.0

-1.160269772463585e6 1.4592870098828495e7 0.0
1.4592870098828495e7 -4.524589613025499e6 0.0
0.0 0.0 0.0

-4.480229702335231e6 2.072178728849587e7 0.0
2.072178728849587e7 1.2282158846649349e7 0.0
0.0 0.0 0.0

-2.886519066768631e6 1.4294624435682813e7 0.0
1.4294624435682813e7 2.1185499355946546e6 0.0
0.0 0.0 0.0

-3.031000803617626e6 1.6252537565137822e7 0.0
1.6252537565137822e7 -2.4818511775639625e6 0.0
0.0 0.0 0.0

-2.8695951725695822e6 2.0906711175605007e7 0.0
2.0906711175605007e7 -1.3222733820345784e6 0.0
0.0 0.0 0.0

-5.097252612720672e6 1.0803968707509173e7 0.0
1.0803968707509173e7 3.879004879565251e6 0.0
0.0 0.0 0.0

-8.292720895884155e6 -257843.47650355467 0.0
-257843.47650355467 1.3368609360214196e7 0.0
0.0 0.0 0.0

-4.0829008962746477e6 1.716338552857507e7 0.0
1.716338552857507e7 1.027232092472294e7 0.0
0.0 0.0 0.0

-3.155258611892653e6 1.9055632701165825e7 0.0
1.9055632701165825e7 5.782170105901513e6 0.0
0.0 0.0 0.0

408913.4035804593 7.214198536323377e6 0.0
7.214198536323377e6 -7.35300881498597e6 0.0
0.0 0.0 0.0

-5.303178054035264e6 1.5268534898082996e7 0.0
1.5268534898082996e7 1.253231274905243e7 0.0
0.0 0.0 0.0

-2.4617484571500947e6 2.1521749834714126e7 0.0
2.1521749834714126e7 -3.1122178780609174e6 0.0
0.0 0.0 0.0

2.9989203815249223e6 9.120940233405171e6 0.0
9.120940233405171e6 -2.5963038459103853e7 0.0
0.0 0.0 0.0

-8.456777242803674e6 2.3974781978297275e7 0.0
2.3974781978297275e7 4.204391150006165e6 0.0
0.0 0.0 0.0

-2.36243022974526e6 1.8339936611560173e7 0.0
1.8339936611560173e7 -5.1788190563734425e6 0.0
0.0 0.0 0.0

1.9951908729236745e6 2.953281218818648e6 0.0
2.953281218818648e6 -5.381284549933836e6 0.0
0.0 0.0 0.0

-4.1923590623205667e6 2.5173218439243052e7 0.0
2.5173218439243052e7 6.828795668114025e6 0.0
0.0 0.0 0.0

-1.2322923328918315e7 9.451705396981541e6 0.0
9.451705396981541e6 1.868087393925751e7 0.0
0.0 0.0 0.0

-2.817003583770096e6 1.7651110889506247e7 0.0
1.7651110889506247e7 -3.293804271219053e6 0.0
0.0 0.0 0.0

-1.6474140155712455e6 2.2774520981198862e7 0.0
2.2774520981198862e7 -2.14349233421547e6 0.0
0.0 0.0 0.0

-2.5548976035559266e6 2.3368449113673974e7 0.0
2.3368449113673974e7 -773589.0001871608 0.0
0.0 0.0 0.0

-2.3132087228313247e6 2.0951840196457103e7 0.0
2.0951840196457103e7 -4.243731705731647e6 0.0
0.0 0.0 0.0

-2.3575808332675025e6 2.104657722773809e7 0.0
2.104657722773809e7 348796.8897388384 0.0
0.0 0.0 0.0

3.0620265656078765e6 2.9686691115331016e6 0.0
2.9686691115331016e6 -9.399712324101627e6 0.0
0.0 0.0 0.0

-490175.1480191867 2.5728753327159967e7 0.0
2.5728753327159967e7 -4.121743605597005e6 0.0
0.0 0.0 0.0

-1.4799439052374784e7 1.8449917436410006e7 0.0
1.8449917436410006e7 -6.395371298133705e7 0.0
0.0 0.0 0.0

1.4354887434085112e7 1.906549627345769e7 0.0
1.906549627345769e7 6.227045229920394e7 0.0
0.0 0.0 0.0

895544.5009564785 1.4774432846052654e7 0.0
1.4774432846052654e7 -1.877538448981057e7 0.0
0.0 0.0 0.0

-1.2016163628108606e6 2.0295268468747668e7 0.0
2.0295268468747668e7 -5.726636927710987e6 0.0
0.0 0.0 0.0

-3.747458358452109e6 1.6174821372218046e7 0.0
1.6174821372218046e7 -1.992862739728955e7 0.0
0.0 0.0 0.0

-2.2852020066657094e6 1.740781934971668e7 0.0
1.740781934971668e7 -5.527342564458868e6 0.0
0.0 0.0 0.0

646831.0649623396 2.0124881749032132e7 0.0
2.0124881749032132e7 -1.2392160733780324e7 0.0
0.0 0.0 0.0

-1.554973587766404e6 1.6204195965722846e7 0.0
1.6204195965722846e7 -8.036727439092074e6 0.0
0.0 0.0 0.0

-2.995863034053752e6 2.0597293574047487e7 0.0
2.0597293574047487e7 -394779.8645732561 0.0
0.0 0.0 0.0

1.3051917246122882e6 9.145742851953028e6 0.0
9.145742851953028e6 -4.622863049036387e7 0.0
0.0 0.0 0.0

-9.015895181230884e6 2.2542286851585746e7 0.0
2.2542286851585746e7 3.3418326867280956e6 0.0
0.0 0.0 0.0

-3.5554536652274937e6 2.0776179820173167e7 0.0
2.0776179820173167e7 5.935281259543139e6 0.0
0.0 0.0 0.0

-995049.4583739951 1.643942309547162e7 0.0
1.643942309547162e7 -6.228782437810194e6 0.0
0.0 0.0 0.0

1.5019989877799442e6 1.2524061470427774e7 0.0
1.2524061470427774e7 -2.349737817212838e7 0.0
0.0 0.0 0.0

1.3845753344130393e7 1.9841578645057224e7 0.0
1.9841578645057224e7 4.6152511291004725e7 0.0
0.0 0.0 0.0

-453740.6748941657 2.0674169390515674e7 0.0
2.0674169390515674e7 -8.645494690617897e6 0.0
0.0 0.0 0.0

-2.4259224554882426e7 5.252079860545695e7 0.0
5.252079860545695e7 -1.04333868864349e6 0.0
0.0 0.0 0.0

1.0459196400817372e6 1.4192225004599564e7 0.0
1.4192225004599564e7 -1.9915677649209123e7 0.0
0.0 0.0 0.0

-1.6100807038435605e6 2.0631536796190552e7 0.0
2.0631536796190552e7 -3.7273276358121545e6 0.0
0.0 0.0 0.0

2.880308924341251e6 3.029988379305896e6 0.0
3.029988379305896e6 -8.674017503739253e6 0.0
0.0 0.0 0.0

2.7077121370396055e6 8.102713289513007e6 0.0
8.102713289513007e6 -2.553041730665288e7 0.0
0.0 0.0 0.0

-1.9643232068577392e6 2.3030615829380415e7 0.0
2.3030615829380415e7 -228290.98505047377 0.0
0.0 0.0 0.0

-6.371895565748968e6 1.6853676665708758e7 0.0
1.6853676665708758e7 -3.710177121501816e7 0.0
0.0 0.0 0.0

-1.3675473422874224e6 1.7042253351523485e7 0.0
1.7042253351523485e7 -4.948752047220379e6 0.0
0.0 0.0 0.0

1.2425212738874173e6 1.2009096350810934e7 0.0
1.2009096350810934e7 -1.1659918247928893e7 0.0
0.0 0.0 0.0

-3.508159875645141e6 1.5446864455771545e7 0.0
1.5446864455771545e7 5.053977927560591e6 0.0
0.0 0.0 0.0

1.2615718416231303e6 1.3651248843238957e7 0.0
1.3651248843238957e7 -2.111793354520536e7 0.0
0.0 0.0 0.0

-4.657686927692528e6 1.4861970067764258e7 0.0
1.4861970067764258e7 4.1568937813905394e6 0.0
0.0 0.0 0.0

342759.2227123687 1.7180872287186977e7 0.0
1.7180872287186977e7 -1.7854822995366845e7 0.0
0.0 0.0 0.0

-2.1549915805595793e7 2.790962313135525e7 0.0
2.790962313135525e7 -8.887214946335785e6 0.0
0.0 0.0 0.0

-5.88329741736808e6 -6.287329502630828e6 0.0
-6.287329502630828e6 1.1724824194698645e7 0.0
0.0 0.0 0.0

-4.1579662658811742e6 1.5259711099411031e7 0.0
1.5259711099411031e7 8.050965179275921e6 0.0
0.0 0.0 0.0

-2.154155930606654e6 2.1397817078806512e7 0.0
2.1397817078806512e7 -543427.7672018842 0.0
0.0 0.0 0.0

-8.47279006492212e6 1.0606213044132092e6 0.0
1.0606213044132092e6 4.3968528367218874e7 0.0
0.0 0.0 0.0

220534.0084660137 1.9076440976812437e7 0.0
1.9076440976812437e7 1.2980456171228552e7 0.0
0.0 0.0 0.0

-1.9397428023172938e6 1.680065078160613e7 0.0
1.680065078160613e7 -6.796871878910262e6 0.0
0.0 0.0 0.0

312410.7243278497 2.0026720662825067e7 0.0
2.0026720662825067e7 -1.146434117091777e7 0.0
0.0 0.0 0.0

-1.03106880083274e6 1.797334173151053e7 0.0
1.797334173151053e7 -9.961975080820408e6 0.0
0.0 0.0 0.0

-1.2943274772245213e6 1.381108967734787e7 0.0
1.381108967734787e7 -7.795860224907219e6 0.0
0.0 0.0 0.0

-1.9171606552753493e6 1.9768484908761784e7 0.0
1.9768484908761784e7 -6.5519039236687515e6 0.0
0.0 0.0 0.0

-4.50365147450466e6 1.8103133989078194e7 0.0
1.8103133989078194e7 1.3708507151664687e7 0.0
0.0 0.0 0.0

-2.818187790016199e6 1.851455400130976e7 0.0
1.851455400130976e7 2.276844548390493e6 0.0
0.0 0.0 0.0

-3.0607588441203358e6 1.7271446457034595e7 0.0
1.7271446457034595e7 -2.2577645930176545e6 0.0
0.0 0.0 0.0

2.783149827655809e6 7.925520720008151e6 0.0
7.925520720008151e6 -3.2566298948450938e7 0.0
0.0 0.0 0.0

-5.039089950281543e6 2.5766781735141613e7 0.0
2.5766781735141613e7 7.122298678629603e6 0.0
0.0 0.0 0.0

-5.105288947155772e6 2.247053525927907e6 0.0
2.247053525927907e6 7.923566026560251e6 0.0
0.0 0.0 0.0

-4.357872263910713e6 1.7804781951561462e7 0.0
1.7804781951561462e7 1.2619961031441566e7 0.0
0.0 0.0 0.0

763471.963906785 1.2173588827717692e7 0.0
1.2173588827717692e7 -9.711451882375391e6 0.0
0.0 0.0 0.0

3.738187488275975e6 3.6790696159363682e6 0.0
3.6790696159363682e6 -2.037541674535646e7 0.0
0.0 0.0 0.0

1.3753594660797073e6 1.305467000003054e7 0.0
1.305467000003054e7 -2.2373490550654482e7 0.0
0.0 0.0 0.0

-4.833985287804268e6 7.414558248973148e6 0.0
7.414558248973148e6 3.162093129396514e6 0.0
0.0 0.0 0.0

-1.1062342521402529e7 1.402953522077589e7 0.0
1.402953522077589e7 2.5787176350505576e7 0.0
0.0 0.0 0.0

-2.131813757562557e6 1.864946098021259e7 0.0
1.864946098021259e7 -6.067285583943507e6 0.0
0.0 0.0 0.0

-4.911669641274584e6 -5.788948681735092e6 0.0
-5.788948681735092e6 1.2088938961159013e7 0.0
0.0 0.0 0.0

-4.875505549453229e6 1.3619352520605225e7 0.0
1.3619352520605225e7 4.157510867655334e6 0.0
0.0 0.0 0.0

206553.05992894573 2.061295833862872e7 0.0
2.061295833862872e7 -1.0328022271940418e7 0.0
0.0 0.0 0.0

-2.0391279886700152e6 1.7849014831573237e7 0.0
1.7849014831573237e7 -1.8434118060574725e7 0.0
0.0 0.0 0.0

1.0879338243224183e6 1.2116382826864742e7 0.0
1.2116382826864742e7 -1.5857835756191928e7 0.0
0.0 0.0 0.0

-412897.8029680264 9.637815047344627e6 0.0
9.637815047344627e6 -7.012484879739933e6 0.0
0.0 0.0 0.0

-1.5030591465935458e6 1.7990361970837265e7 0.0
1.7990361970837265e7 -4.623946777108328e6 0.0
0.0 0.0 0.0

-3.935221875167245e6 1.8678462095846567e7 0.0
1.8678462095846567e7 2.4137788288103096e7 0.0
0.0 0.0 0.0

-2.372450285442555e6 2.357250200711151e7 0.0
2.357250200711151e7 -1.6025417677224749e6 0.0
0.0 0.0 0.0

-7.084509201265363e6 1.881534965894284e7 0.0
1.881534965894284e7 1.933756465723679e7 0.0
0.0 0.0 0.0

-3.411886750938934e6 2.0597356798009075e7 0.0
2.0597356798009075e7 1.0960900735025935e7 0.0
0.0 0.0 0.0

176622.6368038631 1.0938454697200697e7 0.0
1.0938454697200697e7 -9.747259161049046e6 0.0
0.0 0.0 0.0

-3.640037986927349e6 1.427072956091167e7 0.0
1.427072956091167e7 5.153387624089779e6 0.0
0.0 0.0 0.0

-713055.4216189068 1.8944000844332322e7 0.0
1.8944000844332322e7 1.324972740670497e7 0.0
0.0 0.0 0.0

-1.7589326902897544e6 1.4432093880967222e7 0.0
1.4432093880967222e7 -6.50546232957616e6 0.0
0.0 0.0 0.0

316169.32468774915 1.4973865695276538e7 0.0
1.4973865695276538e7 -2.4333713538516063e7 0.0
0.0 0.0 0.0

-1.5877346102617865e6 1.890163373095712e7 0.0
1.890163373095712e7 -4.3060845005242275e6 0.0
0.0 0.0 0.0

695600.3853712194 1.5319513475580312e7 0.0
1.5319513475580312e7 -1.7653813863680653e7 0.0
0.0 0.0 0.0

-3.2001455175219597e6 1.602387791438878e7 0.0
1.602387791438878e7 3.5750496454834184e6 0.0
0.0 0.0 0.0

-7.2687030050153e6 1.6182652872193534e7 0.0
1.6182652872193534e7 -2.7580534058457356e7 0.0
0.0 0.0 0.0

-1.6203479736671573e6 1.9781253095005587e7 0.0
1.9781253095005587e7 -4.0150772861984116e6 0.0
0.0 0.0 0.0

5.499167021180067e6 1.9692506388423722e7 0.0
1.9692506388423722e7 -987645.5406291604 0.0
0.0 0.0 0.0

-8.78283176433247e6 3.137306938492529e6 0.0
3.137306938492529e6 4.297220811434396e7 0.0
0.0 0.0 0.0

-7.5010393563230615e6 3.355813286677771e7 0.0
3.355813286677771e7 4.191485996484528e6 0.0
0.0 0.0 0.0

-3.3752738704243535e6 2.07039825867123e7 0.0
2.07039825867123e7 9.974162530562999e6 0.0
0.0 0.0 0.0

-9.172930893640807e6 1.4981746642299118e7 0.0
1.4981746642299118e7 2.8263482063605532e7 0.0
0.0 0.0 0.0

-3.624676955316204e6 2.320180696867958e7 0.0
2.320180696867958e7 9.086567789398061e6 0.0
0.0 0.0 0.0

-2.658605666076354e6 1.5969473827118859e7 0.0
1.5969473827118859e7 833448.5495185219 0.0
0.0 0.0 0.0

-810095.3383776487 1.6789203965454727e7 0.0
1.6789203965454727e7 -7.118865848844851e6 0.0
0.0 0.0 0.0

-1.2834277216267637e6 1.8308522568236943e7 0.0
1.8308522568236943e7 -5.528338972996868e6 0.0
0.0 0.0 0.0

-1.300518687453784e6 1.051024057527361e7 0.0
1.051024057527361e7 -1.2922765499187424e6 0.0
0.0 0.0 0.0

98840.25432641245 2.1227574909319267e7 0.0
2.1227574909319267e7 -9.275404872765284e6 0.0
0.0 0.0 0.0

2.8820963638665685e6 6.6065239986433005e6 0.0
6.6065239986433005e6 -2.0106676334222868e7 0.0
0.0 0.0 0.0

1.5260588132635308e6 6.644535913370932e6 0.0
6.644535913370932e6 -1.002630810021778e7 0.0
0.0 0.0 0.0

-3.8781061004819702e6 2.0149694408639852e7 0.0
2.0149694408639852e7 1.3352107593414932e7 0.0
0.0 0.0 0.0

-2.224185155260032e6 2.307877149843641e7 0.0
2.307877149843641e7 -2.6456356225831457e6 0.0
0.0 0.0 0.0

4.640078379201893e6 2.002811986797151e7 0.0
2.002811986797151e7 -3.0362310825562673e6 0.0
0.0 0.0 0.0

-1.1838964687812204e7 2.5614760242757626e7 0.0
2.5614760242757626e7 4.837421197055331e6 0.0
0.0 0.0 0.0

2.236489723668662e6 6.3930766312586e6 0.0
6.3930766312586e6 -1.3782493681626558e7 0.0
0.0 0.0 0.0

-2.2472112841864894e6 1.5022833461593762e7 0.0
1.5022833461593762e7 -5.204319923751987e6 0.0
0.0 0.0 0.0

4.1361188489225686e7 1.5590921467971025e7 0.0
1.5590921467971025e7 2.213531883078629e6 0.0
0.0 0.0 0.0

-165867.04613005463 1.0000806525198782e7 0.0
1.0000806525198782e7 -8.177202133970153e6 0.0
0.0 0.0 0.0

2.9236791416017255e6 6.780413897194596e6 0.0
6.780413897194596e6 -2.4409410807166353e7 0.0
0.0 0.0 0.0

-6.740236910876043e6 1.8180535341808394e7 0.0
1.8180535341808394e7 2.455043311415814e7 0.0
0.0 0.0 0.0

665521.8316385131 1.6238093126783676e7 0.0
1.6238093126783676e7 -1.8779241365676366e7 0.0
0.0 0.0 0.0

-9.842733280767843e6 1.093560820507162e7 0.0
1.093560820507162e7 1.8316593368727215e7 0.0
0.0 0.0 0.0

-1.1890271658497605e7 3.250721552193723e7 0.0
3.250721552193723e7 5.170235004807201e6 0.0
0.0 0.0 0.0

-6.526992752938494e6 1.8469508485202517e7 0.0
1.8469508485202517e7 2.3425671669678785e7 0.0
0.0 0.0 0.0

-4.047075942028228e6 2.388549309590852e7 0.0
2.388549309590852e7 8.84316782580169e6 0.0
0.0 0.0 0.0

-1.7773802934341397e7 2.5846347800274067e7 0.0
2.5846347800274067e7 -8.252367503366749e6 0.0
0.0 0.0 0.0

-3.5135463671645266e6 1.7465058236502852e7 0.0
1.7465058236502852e7 208397.39970619953 0.0
0.0 0.0 0.0

3.856076467338513e7 6.3673069840780925e6 0.0
6.3673069840780925e6 -1.562865334183311e6 0.0
0.0 0.0 0.0

-457692.5613824418 1.8601380388034537e7 0.0
1.8601380388034537e7 -9.161682432971848e6 0.0
0.0 0.0 0.0

-1.332134572917401e6 1.5671283104074044e7 0.0
1.5671283104074044e7 -443311.9353402371 0.0
0.0 0.0 0.0

-31505.652769193985 2.1824704896305468e7 0.0
2.1824704896305468e7 -8.176870778268374e6 0.0
0.0 0.0 0.0

-1.2380528234872589e7 2.2331259013113473e7 0.0
2.2331259013113473e7 -5.116168507329815e6 0.0
0.0 0.0 0.0

30811.18883337942 9.309338307946773e6 0.0
9.309338307946773e6 -3.8933423849061844e6 0.0
0.0 0.0 0.0

-3.8840611542723514e6 2.0631163053583108e7 0.0
2.0631163053583108e7 1.467444376103444e7 0.0
0.0 0.0 0.0

-3.0452083627939643e6 1.6514600066809408e7 0.0
1.6514600066809408e7 -1.8811048346983194e7 0.0
0.0 0.0 0.0

-1.1810061341806857e7 4.759083747583667e6 0.0
4.759083747583667e6 2.582081093771583e7 0.0
0.0 0.0 0.0

-2.4625515582157406e6 2.2836827458449952e7 0.0
2.2836827458449952e7 -1.8338169722443325e6 0.0
0.0 0.0 0.0

-2.3974998145377007e6 1.6427872686298708e7 0.0
1.6427872686298708e7 -403025.35828480654 0.0
0.0 0.0 0.0

-1.7547072253053165e6 2.3282599722249027e7 0.0
2.3282599722249027e7 -1.1342237037634463e6 0.0
0.0 0.0 0.0

245966.390138146 1.6691566848771881e7 0.0
1.6691566848771881e7 -1.1692692818281442e7 0.0
0.0 0.0 0.0

-5.733660877625348e6 8.19983239347426e6 0.0
8.19983239347426e6 1.0032802176600616e7 0.0
0.0 0.0 0.0

-3.3857592297746493e6 2.356410373940404e7 0.0
2.356410373940404e7 5.670048800015666e6 0.0
0.0 0.0 0.0

-4.499571998241254e6 2.006420877152483e7 0.0
2.006420877152483e7 1.6726038929527773e7 0.0
0.0 0.0 0.0

-3.6484526917593e6 1.9697768852642484e7 0.0
1.9697768852642484e7 1.1505566808646994e7 0.0
0.0 0.0 0.0

-711862.2823240061 1.4008455591753608e7 0.0
1.4008455591753608e7 -5.8339617024165895e6 0.0
0.0 0.0 0.0

1.5399963638580386e6 1.1901156492519323e7 0.0
1.1901156492519323e7 -2.648500237337951e7 0.0
0.0 0.0 0.0

-3.465476599997544e6 1.8956306599066507e7 0.0
1.8956306599066507e7 1.5266954152693409e6 0.0
0.0 0.0 0.0

-8172.355950054713 1.809746204300005e7 0.0
1.809746204300005e7 -1.3990591631180633e7 0.0
0.0 0.0 0.0

-214743.0202359138 1.6453762832037661e7 0.0
1.6453762832037661e7 -1.3185705650539812e7 0.0
0.0 0.0 0.0

-1.0628836279970193e6 2.3244566178382546e7 0.0
2.3244566178382546e7 -5.958194582114396e6 0.0
0.0 0.0 0.0

-1.1382135616987322e6 1.884696960473382e7 0.0
1.884696960473382e7 -9.451042661331218e6 0.0
0.0 0.0 0.0

1.6712871677568005e6 1.2206298955902716e7 0.0
1.2206298955902716e7 -2.145705200361374e7 0.0
0.0 0.0 0.0

1.6109351787598743e6 6.666086869726413e6 0.0
6.666086869726413e6 -6.473565058257216e6 0.0
0.0 0.0 0.0

-1.80689130606934e6 6.183475015055418e6 0.0
6.183475015055418e6 2.5008015805772915e6 0.0
0.0 0.0 0.0

389088.598459248 3.037185916090924e7 0.0
3.037185916090924e7 -640835.6896288398 0.0
0.0 0.0 0.0

-3.6220567769868057e6 1.801392461793425e7 0.0
1.801392461793425e7 1.49264034756583e6 0.0
0.0 0.0 0.0

-1.7084879859855804e6 2.0019030679263476e7 0.0
2.0019030679263476e7 -7.354870271067894e6 0.0
0.0 0.0 0.0

3.4172325735209454e6 4.250485958643232e6 0.0
4.250485958643232e6 -1.3005793557984054e7 0.0
0.0 0.0 0.0

-9.244079466232233e6 5.475400399425131e6 0.0
5.475400399425131e6 4.3108474797426745e7 0.0
0.0 0.0 0.0

1.7839657649306962e6 9.907605257070797e6 0.0
9.907605257070797e6 -1.6535455096208535e7 0.0
0.0 0.0 0.0

4.707621201043776e6 2.3815675481031165e7 0.0
2.3815675481031165e7 -6.003352297291592e6 0.0
0.0 0.0 0.0

349737.15741927293 2.4707266224514537e7 0.0
2.4707266224514537e7 -5.403132401850404e6 0.0
0.0 0.0 0.0

-3.31654493444964e6 2.4043863687359847e7 0.0
2.4043863687359847e7 4.707853013279155e6 0.0
0.0 0.0 0.0

3.594833040713938e6 3.673141320119313e6 0.0
3.673141320119313e6 -2.8404555410704166e7 0.0
0.0 0.0 0.0

-1.3735375533611535e6 2.089276450544258e7 0.0
2.089276450544258e7 -4.578214885182868e6 0.0
0.0 0.0 0.0

-896965.5544426104 2.2066175543172386e7 0.0
2.2066175543172386e7 -5.808560919255254e6 0.0
0.0 0.0 0.0

2.7322540847444646e6 7.534219755162263e6 0.0
7.534219755162263e6 -2.6776892734565463e7 0.0
0.0 0.0 0.0

-1.3792506000474754e6 2.4970670546402283e7 0.0
2.4970670546402283e7 -3.1968200333536835e6 0.0
0.0 0.0 0.0

2.069006086318105e6 2.057353605104229e7 0.0
2.057353605104229e7 -8.110371339091849e6 0.0
0.0 0.0 0.0

-2.127731332302734e6 2.036703220398177e7 0.0
2.036703220398177e7 -5.394866116861171e6 0.0
0.0 0.0 0.0

-373952.18463682756 1.5613340745312966e7 0.0
1.5613340745312966e7 -2.5946167356754154e7 0.0
0.0 0.0 0.0

1.8599175221174285e6 7.17498124291226e6 0.0
7.17498124291226e6 -1.2745191593054665e7 0.0
0.0 0.0 0.0

707104.8748366879 1.1833970477094876e7 0.0
1.1833970477094876e7 -1.3448926230656372e7 0.0
0.0 0.0 0.0

-943534.7797889796 2.086378318361075e7 0.0
2.086378318361075e7 -8.021106723152726e6 0.0
0.0 0.0 0.0

1.4064237020981465e6 2.0486915554310232e7 0.0
2.0486915554310232e7 -9.584922623604447e6 0.0
0.0 0.0 0.0

-1.389707050509896e6 1.9363815748635914e7 0.0
1.9363815748635914e7 -8.412100478706766e6 0.0
0.0 0.0 0.0

2.8112675165778324e6 7.826401711071499e6 0.0
7.826401711071499e6 -1.3379722748469591e7 0.0
0.0 0.0 0.0

3.8919328222488556e6 4.85377596874483e6 0.0
4.85377596874483e6 -2.3918116949335944e7 0.0
0.0 0.0 0.0

245889.01786149293 1.644487551669941e7 0.0
1.644487551669941e7 -1.5424433387841621e7 0.0
0.0 0.0 0.0

293912.48779334873 1.2438026700431561e7 0.0
1.2438026700431561e7 -1.234796013388891e7 0.0
0.0 0.0 0.0

-3.580751418443335e6 1.6437785341708353e7 0.0
1.6437785341708353e7 61161.15926331724 0.0
0.0 0.0 0.0

-9.64462909430619e6 2.5958307286596343e7 0.0
2.5958307286596343e7 5.870698387828125e6 0.0
0.0 0.0 0.0

-844090.7345771492 1.4392518118392564e7 0.0
1.4392518118392564e7 6.926050114302507e7 0.0
0.0 0.0 0.0

-1.2128555646114537e7 5.252091516606987e6 0.0
5.252091516606987e6 2.382041757326887e7 0.0
0.0 0.0 0.0

413203.7548600836 2.3130103314692885e7 0.0
2.3130103314692885e7 -8.0193017955608275e6 0.0
0.0 0.0 0.0

-3.7507880207555774e6 1.7024908668451477e7 0.0
1.7024908668451477e7 1.4167926642518123e6 0.0
0.0 0.0 0.0

-1.045831964753161e7 7.598615560601376e6 0.0
7.598615560601376e6 3.401494097792324e7 0.0
0.0 0.0 0.0

3.8322739715485554e6 4.901014464689993e6 0.0
4.901014464689993e6 -2.1281940887795597e7 0.0
0.0 0.0 0.0

-3.00996188050618e6 1.8070798593521543e7 0.0
1.8070798593521543e7 3.5257375138258203e6 0.0
0.0 0.0 0.0

519022.31407352537 1.5892685567177936e7 0.0
1.5892685567177936e7 -2.034152143435652e7 0.0
0.0 0.0 0.0

-130061.78895070637 2.249463129207848e7 0.0
2.249463129207848e7 -7.193238315275475e6 0.0
0.0 0.0 0.0

-1.108899252900393e6 2.1108716261236e7 0.0
2.1108716261236e7 -5.389495315487238e6 0.0
0.0 0.0 0.0

-5.081821035243662e6 1.5890029732637534e7 0.0
1.5890029732637534e7 6.960514686541816e6 0.0
0.0 0.0 0.0

-1.936613197352033e6 1.7251277758550845e7 0.0
1.7251277758550845e7 -2.644790607178051e6 0.0
0.0 0.0 0.0

-8.1690998496805e6 9.675540418745331e6 0.0
9.675540418745331e6 1.0264561398568224e7 0.0
0.0 0.0 0.0

-4.3284787105545364e7 2.4250680527095377e7 0.0
2.4250680527095377e7 5.439247654957294e6 0.0
0.0 0.0 0.0

3.6901181329679894e6 2.0642260579588693e7 0.0
2.0642260579588693e7 1.0609634703495063e7 0.0
0.0 0.0 0.0

-3.4637643949857866e6 2.1601640456666697e7 0.0
2.1601640456666697e7 1.1281553993498096e7 0.0
0.0 0.0 0.0

-1.9365020941113285e6 2.493141334054829e7 0.0
2.493141334054829e7 929757.9037702088 0.0
0.0 0.0 0.0

2.1655228841347992e6 9.562889646729501e6 0.0
9.562889646729501e6 -2.0078395250665486e7 0.0
0.0 0.0 0.0

2.710538734449093e6 7.973520147318574e6 0.0
7.973520147318574e6 -2.400660265529509e7 0.0
0.0 0.0 0.0

2.6704118544666786e6 9.685093265233472e6 0.0
9.685093265233472e6 -2.8234353169136886e7 0.0
0.0 0.0 0.0

-4.404646522832681e6 1.6011545018361708e7 0.0
1.6011545018361708e7 4.1020473255637307e6 0.0
0.0 0.0 0.0

-1.1659854602376066e7 1.3335075418093247e7 0.0
1.3335075418093247e7 2.400018716404618e7 0.0
0.0 0.0 0.0

-6.340622051574234e6 1.067919444828875e7 0.0
1.067919444828875e7 1.1784414449693331e7 0.0
0.0 0.0 0.0

3.5875734803223135e6 2.0347074442954056e7 0.0
2.0347074442954056e7 -4.836454950296945e6 0.0
0.0 0.0 0.0

-2.416425740874071e6 1.6831379715517495e7 0.0
1.6831379715517495e7 -1.7443853911085077e7 0.0
0.0 0.0 0.0

-3.701239917193144e6 2.3857306371556453e7 0.0
2.3857306371556453e7 7.326901791732231e6 0.0
0.0 0.0 0.0

5.309162494237821e6 2.9420494310043406e7 0.0
2.9420494310043406e7 -3.94147493895511e6 0.0
0.0 0.0 0.0

-7.92580704563808e6 2.60578634046135e7 0.0
2.60578634046135e7 6.567012763407947e6 0.0
0.0 0.0 0.0

-5.651458011579408e6 1.915893263354026e7 0.0
1.915893263354026e7 1.969536372121741e7 0.0
0.0 0.0 0.0

1.5369100335111395e6 6.984710720650777e6 0.0
6.984710720650777e6 -4.5632834210584685e7 0.0
0.0 0.0 0.0

52769.78863720875 1.5935434243288603e7 0.0
1.5935434243288603e7 -1.0363473411480093e7 0.0
0.0 0.0 0.0

3.313859575863879e6 3.0672424910838637e6 0.0
3.0672424910838637e6 -1.0823864075059298e7 0.0
0.0 0.0 0.0

3.0256596161427014e6 8.334313521915693e6 0.0
8.334313521915693e6 -2.90767591604954e7 0.0
0.0 0.0 0.0

-3.216428106666442e6 2.450448385179795e7 0.0
2.450448385179795e7 3.786755836523915e6 0.0
0.0 0.0 0.0

-1.0904469799572552e7 1.373317117889399e7 0.0
1.373317117889399e7 2.3143122980798036e7 0.0
0.0 0.0 0.0

-6.32962499876171e6 1.8787905695534673e7 0.0
1.8787905695534673e7 2.1187464724176846e7 0.0
0.0 0.0 0.0

-3.403310600345422e6 2.228194405634558e7 0.0
2.228194405634558e7 1.0640088818314593e7 0.0
0.0 0.0 0.0

2.3308939817610458e6 1.0095274831924208e7 0.0
1.0095274831924208e7 -1.4740543655086037e7 0.0
0.0 0.0 0.0

-5.760138975434305e6 2.1847657533195145e7 0.0
2.1847657533195145e7 -9.813017402335834e6 0.0
0.0 0.0 0.0

730760.5925050905 3.0076702560052477e7 0.0
3.0076702560052477e7 -2.1488782222084627e6 0.0
0.0 0.0 0.0

-3.7574063698532507e6 2.5534449913721528e7 0.0
2.5534449913721528e7 5.399844463601273e6 0.0
0.0 0.0 0.0

-6.1500209735165415e6 1.8754479779904738e7 0.0
1.8754479779904738e7 2.226718432102327e7 0.0
0.0 0.0 0.0

-7.517148506305249e6 5.724240306756071e7 0.0
5.724240306756071e7 -1.1852926951974828e7 0.0
0.0 0.0 0.0

-5.359636680791447e6 2.1130475261373337e7 0.0
2.1130475261373337e7 -1.2043756376021553e7 0.0
0.0 0.0 0.0

-4.858170320776144e6 1.777700098751783e7 0.0
1.777700098751783e7 9.208705963166645e6 0.0
0.0 0.0 0.0

-1.0141695265632201e7 1.7697838160046453e6 0.0
1.7697838160046453e6 1.3546006732999234e7 0.0
0.0 0.0 0.0

-1.1630225207556316e6 1.7394943597765263e7 0.0
1.7394943597765263e7 -5.875033350504253e6 0.0
0.0 0.0 0.0

-9.657663754072906e6 2.2636082008186154e7 0.0
2.2636082008186154e7 -5.567648174659924e6 0.0
0.0 0.0 0.0

-7.707128715934258e6 3.2180364876382556e7 0.0
3.2180364876382556e7 3.893792058272275e6 0.0
0.0 0.0 0.0

-767680.598181921 1.989979676407416e7 0.0
1.989979676407416e7 -7.546544677523005e6 0.0
0.0 0.0 0.0

-1.5758176304923783e6 2.1549563167906918e7 0.0
2.1549563167906918e7 -6.561164477656719e6 0.0
0.0 0.0 0.0

-1.071050903810264e7 2.678234270408176e6 0.0
2.678234270408176e6 2.184248547679721e7 0.0
0.0 0.0 0.0

3.633078451495421e6 5.936232346358221e6 0.0
5.936232346358221e6 -1.9045664113995183e7 0.0
0.0 0.0 0.0

983047.5631159268 2.9253227868210595e7 0.0
2.9253227868210595e7 -1.6600265516502198e6 0.0
0.0 0.0 0.0

-5.05383386087629e6 1.958766136621673e7 0.0
1.958766136621673e7 1.8266395521471847e7 0.0
0.0 0.0 0.0

-1.4054616850942839e7 2.4073640941400304e7 0.0
2.4073640941400304e7 -2.9343729715472143e6 0.0
0.0 0.0 0.0

-1.570954662139441e6 5.822995537571596e6 0.0
5.822995537571596e6 -1.8908364249792285e6 0.0
0.0 0.0 0.0

-1.0713008638873272e7 2.390768069901194e7 0.0
2.390768069901194e7 -8.948146676035617e6 0.0
0.0 0.0 0.0

-1.8797445658709053e6 2.059034258090777e7 0.0
2.059034258090777e7 -6.198007886606464e6 0.0
0.0 0.0 0.0

476936.1343252659 1.5889439027192505e7 0.0
1.5889439027192505e7 -1.6527767167534225e7 0.0
0.0 0.0 0.0

-1.3769857537758679e6 1.91941342106178e7 0.0
1.91941342106178e7 -5.205061426244518e6 0.0
0.0 0.0 0.0

1.7469377121429574e6 1.0381892980682733e7 0.0
1.0381892980682733e7 -1.7251772327653732e7 0.0
0.0 0.0 0.0

-2.3745706839113985e6 2.022222775368133e7 0.0
2.022222775368133e7 251340.47530120763 0.0
0.0 0.0 0.0

-1.0114416281778717e7 3.9034513179905377e6 0.0
3.9034513179905377e6 1.2938255086376436e7 0.0
0.0 0.0 0.0

-9.302587920428753e6 1.3318764031145385e7 0.0
1.3318764031145385e7 1.8965209545068353e7 0.0
0.0 0.0 0.0

-4.356289248206059e6 1.5697788263089295e7 0.0
1.5697788263089295e7 9.420821817622283e6 0.0
0.0 0.0 0.0

-4.887430007042271e6 1.6581212677985849e7 0.0
1.6581212677985849e7 -1.6559224783652656e7 0.0
0.0 0.0 0.0

-3.711692418396755e6 1.5939544395969613e7 0.0
1.5939544395969613e7 6.427727592040654e6 0.0
0.0 0.0 0.0

-3.2952549112471443e7 2.8378685123301283e7 0.0
2.8378685123301283e7 -2.553505807089526e6 0.0
0.0 0.0 0.0

-3.872243991620914e6 1.756906464784023e7 0.0
1.756906464784023e7 2.705322572470867e6 0.0
0.0 0.0 0.0

-1.592626966740794e6 1.93748316122876e7 0.0
1.93748316122876e7 -3.0883048407968534e6 0.0
0.0 0.0 0.0

-4.90178867988664e7 2.3349794666958872e7 0.0
2.3349794666958872e7 3.5972086334080156e6 0.0
0.0 0.0 0.0

2.763803440467634e6 2.0586144145180255e7 0.0
2.0586144145180255e7 -6.640809244667911e6 0.0
0.0 0.0 0.0

-2.927507849501559e6 1.654819958301629e7 0.0
1.654819958301629e7 2.214179586264378e6 0.0
0.0 0.0 0.0

1.6225424269575663e6 1.1371663861142544e7 0.0
1.1371663861142544e7 -1.270560576378358e7 0.0
0.0 0.0 0.0

-2.089100426994097e6 2.5334454730834972e7 0.0
2.5334454730834972e7 1.7919141373824012e6 0.0
0.0 0.0 0.0

1.417439114455997e6 1.1894517330673365e7 0.0
1.1894517330673365e7 -1.754793570522918e7 0.0
0.0 0.0 0.0

1.3139015388591923e6 1.2761028242898159e7 0.0
1.2761028242898159e7 -1.8786129881702732e7 0.0
0.0 0.0 0.0

-6.642075114308978e6 8.56298095283167e6 0.0
8.56298095283167e6 6.840863737869272e6 0.0
0.0 0.0 0.0

-4.213450959276079e6 2.0007037968119603e7 0.0
2.0007037968119603e7 9.554718773275068e6 0.0
0.0 0.0 0.0

3.3044002880403213e6 7.736503073198925e6 0.0
7.736503073198925e6 -2.494278230736299e7 0.0
0.0 0.0 0.0

-1.1410221796742799e7 6.502609342353327e6 0.0
6.502609342353327e6 1.8935238142500676e7 0.0
0.0 0.0 0.0

1.384136351606871e6 1.2306173881618895e7 0.0
1.2306173881618895e7 -1.8191858524526782e7 0.0
0.0 0.0 0.0

-8.261225347176889e7 9.028066687075734e6 0.0
9.028066687075734e6 4.640612285020348e6 0.0
0.0 0.0 0.0

1.8220352949759308e6 6.868146548809163e6 0.0
6.868146548809163e6 -4.2506923908032924e7 0.0
0.0 0.0 0.0

-4.448307975547992e6 1.876488381566359e7 0.0
1.876488381566359e7 8.858347418841196e6 0.0
0.0 0.0 0.0

-3.867906491646155e6 2.029611624175825e7 0.0
2.029611624175825e7 7.108330870040525e6 0.0
0.0 0.0 0.0

-4.67835430669217e6 2.5147401064140566e7 0.0
2.5147401064140566e7 8.171130083788004e6 0.0
0.0 0.0 0.0

-2.0587881666505649e6 1.774253965151052e7 0.0
1.774253965151052e7 -6.422837599397906e6 0.0
0.0 0.0 0.0

-4.683682762564691e6 2.0371727197088134e7 0.0
2.0371727197088134e7 1.703662517486815e7 0.0
0.0 0.0 0.0

651719.9546705121 1.4100709817554757e7 0.0
1.4100709817554757e7 -1.5260473402058357e7 0.0
0.0 0.0 0.0

2.2890540306781502e6 9.744263450395279e6 0.0
9.744263450395279e6 -2.3915910127975162e7 0.0
0.0 0.0 0.0

-2.306248789115688e6 2.4990384309718236e7 0.0
2.4990384309718236e7 2.5686641141118146e6 0.0
0.0 0.0 0.0

833366.6650823078 2.6039739789346237e7 0.0
2.6039739789346237e7 -5.198614691445309e6 0.0
0.0 0.0 0.0

2.335666534283979e6 9.040662591291718e6 0.0
9.040662591291718e6 -3.419341210626514e7 0.0
0.0 0.0 0.0

-5.159161797340008e6 1.3194017841221582e7 0.0
1.3194017841221582e7 9.836291843682062e6 0.0
0.0 0.0 0.0

-6.547465543998005e6 2.588964534183415e7 0.0
2.588964534183415e7 7.1457147213421725e6 0.0
0.0 0.0 0.0

-4.402508088381404e7 6.165125974374231e7 0.0
6.165125974374231e7 -3.0227873477831613e6 0.0
0.0 0.0 0.0

-1.106643527900684e7 9.526575474015482e6 0.0
9.526575474015482e6 2.9936905846854623e7 0.0
0.0 0.0 0.0

-3.8708921983860317e6 1.5557999671530237e7 0.0
1.5557999671530237e7 -1.4854432338822506e7 0.0
0.0 0.0 0.0

-775089.3974300981 5.636014583538606e6 0.0
5.636014583538606e6 729258.9261622226 0.0
0.0 0.0 0.0

-8.666685731438406e6 -4.226583717009626e6 0.0
-4.226583717009626e6 2.9615163971962772e7 0.0
0.0 0.0 0.0

4.0624683000451867e6 2.13832221432562e6 0.0
2.13832221432562e6 -2.941636433373616e7 0.0
0.0 0.0 0.0

-6.889131142098128e6 2.2791924952175185e7 0.0
2.2791924952175185e7 2.179573155726714e6 0.0
0.0 0.0 0.0

-1.1614848412933797e6 1.723845131775959e7 0.0
1.723845131775959e7 -1.8718992752851747e7 0.0
0.0 0.0 0.0

-7.819036901512032e6 1.539427471290764e7 0.0
1.539427471290764e7 3.14335137997715e7 0.0
0.0 0.0 0.0

418137.3146676519 2.241748672342919e7 0.0
2.241748672342919e7 -8.923038479064366e6 0.0
0.0 0.0 0.0

1.4480456277156053e6 1.1473783133276269e7 0.0
1.1473783133276269e7 -1.6865886454010937e7 0.0
0.0 0.0 0.0

-3.6960272843677215e6 1.5924574382057367e7 0.0
1.5924574382057367e7 4.107611012419147e7 0.0
0.0 0.0 0.0

-2.225705081624798e6 1.783422760388815e7 0.0
1.783422760388815e7 -1.3576558927987528e6 0.0
0.0 0.0 0.0

-2.6861738133755773e6 1.801536084508148e7 0.0
1.801536084508148e7 2.9615372568790592e7 0.0
0.0 0.0 0.0

-858133.4855358815 1.7545467528275497e7 0.0
1.7545467528275497e7 -1.7414904393947564e7 0.0
0.0 0.0 0.0

6.869421315442106e7 9.113319656526905e6 0.0
9.113319656526905e6 1.3730110666808374e6 0.0
0.0 0.0 0.0

-223214.65315087303 2.314117259665254e7 0.0
2.314117259665254e7 -6.252956004549823e6 0.0
0.0 0.0 0.0

1.9141413492343035e6 2.906322399596325e7 0.0
2.906322399596325e7 -2.358236028103669e6 0.0
0.0 0.0 0.0

1.2016959064677544e6 1.2483908058766233e7 0.0
1.2483908058766233e7 -1.6452544848619213e7 0.0
0.0 0.0 0.0

2.151397542003248e6 1.14907838722347e7 0.0
1.14907838722347e7 -1.6901303983358297e7 0.0
0.0 0.0 0.0

-1.7173628145334818e6 1.7137695754152074e7 0.0
1.7137695754152074e7 -7.666377405024375e6 0.0
0.0 0.0 0.0

-1.1675809903820373e7 1.085684904393511e7 0.0
1.085684904393511e7 2.4408672913826264e7 0.0
0.0 0.0 0.0

-2.1287961729371175e6 1.6096257339130254e7 0.0
1.6096257339130254e7 -2.5447240763859265e7 0.0
0.0 0.0 0.0

3.144369979777991e6 2.9989945478128777e6 0.0
2.9989945478128777e6 -9.843379780706303e6 0.0
0.0 0.0 0.0

751749.5677195778 1.4853796441424197e7 0.0
1.4853796441424197e7 -1.6465995636936545e7 0.0
0.0 0.0 0.0

-2.569042289466281e7 3.2107739429206666e7 0.0
3.2107739429206666e7 7.40015973040936e6 0.0
0.0 0.0 0.0

-3.3984869702547546e6 1.1712752634624755e7 0.0
1.1712752634624755e7 -662263.6304011295 0.0
0.0 0.0 0.0

-1.6153805153693557e6 1.6010463464729263e7 0.0
1.6010463464729263e7 4.890605843137387e7 0.0
0.0 0.0 0.0

-3.6105413273166157e6 2.050894904806731e7 0.0
2.050894904806731e7 1.3799050487010295e7 0.0
0.0 0.0 0.0

6.199469425313873e6 2.0617415611287456e7 0.0
2.0617415611287456e7 3.226339813700207e6 0.0
0.0 0.0 0.0

-5.416602619158073e6 2.5580687443340775e7 0.0
2.5580687443340775e7 7.625306484255582e6 0.0
0.0 0.0 0.0

-234521.59111765074 2.3752153395042274e7 0.0
2.3752153395042274e7 -5.205524341690906e6 0.0
0.0 0.0 0.0

-3.87153166075232e6 2.512028849561522e7 0.0
2.512028849561522e7 6.124336425593014e6 0.0
0.0 0.0 0.0

-1.1587278817964597e7 1.122328845592779e7 0.0
1.122328845592779e7 2.2779699778978683e7 0.0
0.0 0.0 0.0

-8.361367191955603e6 1.5217755164624004e7 0.0
1.5217755164624004e7 1.9237968772413984e7 0.0
0.0 0.0 0.0

-1.0049989598522894e7 5.734730632330572e6 0.0
5.734730632330572e6 1.1755981091089673e7 0.0
0.0 0.0 0.0

1.6366886838364951e7 1.1999087268762078e7 0.0
1.1999087268762078e7 957986.6048403503 0.0
0.0 0.0 0.0

-542308.5711819287 1.7866722436444964e7 0.0
1.7866722436444964e7 -1.622391932652027e7 0.0
0.0 0.0 0.0

-628508.0522645083 2.3658030477866344e7 0.0
2.3658030477866344e7 -4.560939988497194e6 0.0
0.0 0.0 0.0

-3.059813883667007e6 2.4903943898315676e7 0.0
2.4903943898315676e7 2.904941601341543e6 0.0
0.0 0.0 0.0

-9.273317764324648e6 -3.6765000139783383e6 0.0
-3.6765000139783383e6 2.0975152688548267e7 0.0
0.0 0.0 0.0

-3.509302885160569e6 2.636527511577833e7 0.0
2.636527511577833e7 3.919428248743347e6 0.0
0.0 0.0 0.0

-3.111053619941968e6 1.7076181270520713e7 0.0
1.7076181270520713e7 3.541843280956639e6 0.0
0.0 0.0 0.0

-4.337235174953635e6 2.6961567715480953e7 0.0
2.6961567715480953e7 4.878476506163967e6 0.0
0.0 0.0 0.0

5.995160421838554e6 1.9483234444509473e7 0.0
1.9483234444509473e7 1.511326213757224e6 0.0
0.0 0.0 0.0

1.1104778740989172e6 2.7205692370177314e7 0.0
2.7205692370177314e7 -3.228383525093608e6 0.0
0.0 0.0 0.0

3.44765433972287e6 4.9474146154619595e6 0.0
4.9474146154619595e6 -2.4019994181711573e7 0.0
0.0 0.0 0.0

-1.1382794258590015e7 9.866437654998181e6 0.0
9.866437654998181e6 2.8018047265766323e7 0.0
0.0 0.0 0.0

343503.3621711638 1.9477951488148235e7 0.0
1.9477951488148235e7 -9.820402625496753e6 0.0
0.0 0.0 0.0

-247536.10105700511 1.827513205299553e7 0.0
1.827513205299553e7 -1.5011497698706092e7 0.0
0.0 0.0 0.0

-2.1646844593324778e6 1.6842985697772488e7 0.0
1.6842985697772488e7 -1.560807725493709e6 0.0
0.0 0.0 0.0

-4.361799199691715e6 2.1258833234466158e7 0.0
2.1258833234466158e7 5.837994033297336e6 0.0
0.0 0.0 0.0

1.3487162182968985e6 2.319996283067929e7 0.0
2.319996283067929e7 -7.906747478312938e6 0.0
0.0 0.0 0.0

-198581.36716094473 1.8062812243916802e7 0.0
1.8062812243916802e7 -8.591906488978403e6 0.0
0.0 0.0 0.0

-1.1118766445331566e7 1.3305981721452309e7 0.0
1.3305981721452309e7 1.873398684345704e7 0.0
0.0 0.0 0.0

2.852295439199697e6 9.561214426029693e6 0.0
9.561214426029693e6 -1.999179133438458e7 0.0
0.0 0.0 0.0

-1.0322030086078043e6 1.825702361773893e7 0.0
1.825702361773893e7 -1.557168921419681e7 0.0
0.0 0.0 0.0

1.940933085949034e6 2.0431793188244168e7 0.0
2.0431793188244168e7 1.2430333684174733e7 0.0
0.0 0.0 0.0

-2.150151963014825e6 1.952221016178052e7 0.0
1.952221016178052e7 -5.726370146402609e6 0.0
0.0 0.0 0.0

3.037451436079545e6 7.346783328857596e6 0.0
7.346783328857596e6 -3.302839121840398e7 0.0
0.0 0.0 0.0

3.005676103207091e6 5.453612597597663e6 0.0
5.453612597597663e6 -4.361059613069619e7 0.0
0.0 0.0 0.0

-5.195717158831101e6 1.6347763774772482e7 0.0
1.6347763774772482e7 8.2752870756686125e6 0.0
0.0 0.0 0.0

-2.86738984738519e6 2.5280178906524196e7 0.0
2.5280178906524196e7 2.0962210864358598e6 0.0
0.0 0.0 0.0

-1.0860354079266781e7 2.7789356441187616e6 0.0
2.7789356441187616e6 2.542904209479057e7 0.0
0.0 0.0 0.0

-7.408379553014623e6 1.5171085181895847e7 0.0
1.5171085181895847e7 1.3027060632645207e7 0.0
0.0 0.0 0.0

-4.1240260757118124e6 1.967832697435091e7 0.0
1.967832697435091e7 8.534989480334524e6 0.0
0.0 0.0 0.0

2.706041808057135e6 9.765102081063474e6 0.0
9.765102081063474e6 -1.8259695445359897e7 0.0
0.0 0.0 0.0

3.9635668845632635e6 2.0139771188109044e6 0.0
2.0139771188109044e6 -3.0359032151994236e7 0.0
0.0 0.0 0.0

-3.8377939724844336e6 1.8495702347098798e7 0.0
1.8495702347098798e7 1.0991232699037638e7 0.0
0.0 0.0 0.0

1.402304715607766e6 1.744043886998093e7 0.0
1.744043886998093e7 6.065226147371144e7 0.0
0.0 0.0 0.0

-3.058055523993919e6 2.0623200869683128e7 0.0
2.0623200869683128e7 7.6147930881361915e6 0.0
0.0 0.0 0.0

-426395.9089262212 2.427356369395583e7 0.0
2.427356369395583e7 -4.388747951904606e6 0.0
0.0 0.0 0.0

1.206471286880182e6 1.321937137538605e7 0.0
1.321937137538605e7 -1.7461796375861946e7 0.0
0.0 0.0 0.0

-967353.2144048808 2.6251420085443165e7 0.0
2.6251420085443165e7 -1.01863445301158e6 0.0
0.0 0.0 0.0

-2.486346445895428e6 2.4611093078780763e7 0.0
2.4611093078780763e7 3.3865089326296095e6 0.0
0.0 0.0 0.0

6.563967759571509e6 1.7477350778384153e7 0.0
1.7477350778384153e7 3.413288044144356e7 0.0
0.0 0.0 0.0

3.174658400556087e6 3.0098470968516627e6 0.0
3.0098470968516627e6 -1.0392980525532885e7 0.0
0.0 0.0 0.0

2.867826995588103e6 2.1195570706093587e7 0.0
2.1195570706093587e7 -7.448134293793368e6 0.0
0.0 0.0 0.0

3.6295834180018334e6 4.0030123664572365e6 0.0
4.0030123664572365e6 -1.7471289566652477e7 0.0
0.0 0.0 0.0

-1.0222242600400124e7 1.175923394893215e7 0.0
1.175923394893215e7 1.9293584224098828e7 0.0
0.0 0.0 0.0

-3.2753369054500563e6 2.3369860149928425e7 0.0
2.3369860149928425e7 4.79483568612944e6 0.0
0.0 0.0 0.0

-1.4027148482094463e6 2.0053728367377207e7 0.0
2.0053728367377207e7 -4.894800172242781e6 0.0
0.0 0.0 0.0

2.289724019591013e6 1.0570114202206796e7 0.0
1.0570114202206796e7 -1.5470642440470945e7 0.0
0.0 0.0 0.0

-107341.18853728985 1.8430267434750304e7 0.0
1.8430267434750304e7 -9.994204104787618e6 0.0
0.0 0.0 0.0

-586682.7374468419 2.48363442881864e7 0.0
2.48363442881864e7 -3.543839982462808e6 0.0
0.0 0.0 0.0

-1.0882812240214167e7 4.640288856784444e6 0.0
4.640288856784444e6 2.9287876449166298e7 0.0
0.0 0.0 0.0

-7.339339593320249e6 1.6778103858925078e7 0.0
1.6778103858925078e7 1.931238571286569e7 0.0
0.0 0.0 0.0

-1.1478590424965918e7 8.541453890220078e6 0.0
8.541453890220078e6 2.045816331677355e7 0.0
0.0 0.0 0.0

-4.0407493407229306e6 1.6543036218046863e7 0.0
1.6543036218046863e7 2.704890669487004e6 0.0
0.0 0.0 0.0

-3.1494790742060966e6 2.4700746822564423e7 0.0
2.4700746822564423e7 6.786252964132015e6 0.0
0.0 0.0 0.0

-2.8009722832607077e6 1.9507454380050484e7 0.0
1.9507454380050484e7 -2.7396306047720024e6 0.0
0.0 0.0 0.0

-2.2236002789444933e6 2.6120893246817525e7 0.0
2.6120893246817525e7 -138289.31620920356 0.0
0.0 0.0 0.0

-7.488009295924002e6 9.0457872544606e6 0.0
9.0457872544606e6 8.639805273000125e6 0.0
0.0 0.0 0.0

-8.220927875984717e6 1.4635353916738085e7 0.0
1.4635353916738085e7 1.8384444962607406e7 0.0
0.0 0.0 0.0

-2.6805182927587633e6 2.561189156666882e7 0.0
2.561189156666882e7 1.357558529445329e6 0.0
0.0 0.0 0.0

1.2675986736326949e6 2.215597516211912e7 0.0
2.215597516211912e7 -9.016097334530339e6 0.0
0.0 0.0 0.0

1.2088503313384306e7 2.2270350030379027e7 0.0
2.2270350030379027e7 1.130114975840994e7 0.0
0.0 0.0 0.0

-3.369718778841063e6 1.6544025203738349e7 0.0
1.6544025203738349e7 4.943483337640518e6 0.0
0.0 0.0 0.0

4.820846005602241e6 2.4838903166641418e7 0.0
2.4838903166641418e7 -5.8793558996328935e6 0.0
0.0 0.0 0.0

-3.5997487805018323e6 1.7488825238215167e7 0.0
1.7488825238215167e7 7.428696055125769e6 0.0
0.0 0.0 0.0

-7.314521206280654e6 1.6300285492609462e7 0.0
1.6300285492609462e7 1.8533162754927047e7 0.0
0.0 0.0 0.0

-5.713598308412036e6 1.0067910554401731e7 0.0
1.0067910554401731e7 1.019480689764188e7 0.0
0.0 0.0 0.0

-2.4767654821526026e6 2.5882588393619657e7 0.0
2.5882588393619657e7 554500.6085634592 0.0
0.0 0.0 0.0

3.705820512275555e6 6.219260006117414e6 0.0
6.219260006117414e6 -2.3533307172844086e7 0.0
0.0 0.0 0.0

3.2729030036103884e6 8.175273564449628e6 0.0
8.175273564449628e6 -2.2105528531644773e7 0.0
0.0 0.0 0.0

-4.1119322346948953e6 2.464445363705615e7 0.0
2.464445363705615e7 8.624603037496481e6 0.0
0.0 0.0 0.0

-105551.47644830635 1.2022632773041785e7 0.0
1.2022632773041785e7 -6.794574924189796e6 0.0
0.0 0.0 0.0

2.2330730251207e6 1.1047909187652854e7 0.0
1.1047909187652854e7 -1.6177234514598105e7 0.0
0.0 0.0 0.0

-1.0836509254399217e6 2.8203748418298636e7 0.0
2.8203748418298636e7 -1.0114298833678063e6 0.0
0.0 0.0 0.0

-783103.2522222372 2.581150908378933e7 0.0
2.581150908378933e7 -1.8321896426472277e6 0.0
0.0 0.0 0.0

-1.5931937926466165e6 2.0783724388154607e7 0.0
2.0783724388154607e7 -6.931951545673914e6 0.0
0.0 0.0 0.0

-1.4773192552718893e6 1.6890513424683016e7 0.0
1.6890513424683016e7 -2.308161747861484e7 0.0
0.0 0.0 0.0

-3.01986139450333e6 2.843461075308378e7 0.0
2.843461075308378e7 1.7515740781217485e6 0.0
0.0 0.0 0.0

-7.279864556690017e6 1.7233691296097334e7 0.0
1.7233691296097334e7 1.983257311229328e7 0.0
0.0 0.0 0.0

2.266579557947235e6 7.091546637381395e6 0.0
7.091546637381395e6 -1.448532904797665e7 0.0
0.0 0.0 0.0

723021.0583744163 3.050737708473723e7 0.0
3.050737708473723e7 -1.1325624080820493e6 0.0
0.0 0.0 0.0

-3.354293830480393e6 2.1032163560208835e7 0.0
2.1032163560208835e7 1.1725770116304344e7 0.0
0.0 0.0 0.0

-669664.145943872 2.5337905198472142e7 0.0
2.5337905198472142e7 -2.6167932407734566e6 0.0
0.0 0.0 0.0

55730.131676748395 1.8688441503858425e7 0.0
1.8688441503858425e7 -1.3897735787121542e7 0.0
0.0 0.0 0.0

-1.5238467903277639e6 2.6465350176167265e7 0.0
2.6465350176167265e7 412332.2855931199 0.0
0.0 0.0 0.0

-3.8197088630812857e6 2.1277527566826064e7 0.0
2.1277527566826064e7 1.4085800060555805e7 0.0
0.0 0.0 0.0

-1.550642480154636e6 2.649572716810729e7 0.0
2.649572716810729e7 -1.4101169978390199e6 0.0
0.0 0.0 0.0

5.852798114284976e6 3.255041925159449e7 0.0
3.255041925159449e7 -2.8628913523342717e6 0.0
0.0 0.0 0.0

-1.0379825537969552e7 1.5069962471301408e7 0.0
1.5069962471301408e7 2.420101781856977e7 0.0
0.0 0.0 0.0

1.9187746053684494e6 1.2104677314605605e7 0.0
1.2104677314605605e7 -1.5858023714661555e7 0.0
0.0 0.0 0.0

-1.1517077657150855e7 1.1711445359142179e7 0.0
1.1711445359142179e7 2.5076200295445878e7 0.0
0.0 0.0 0.0

-9.998730818512857e6 1.3531173214418089e7 0.0
1.3531173214418089e7 1.649565364175162e7 0.0
0.0 0.0 0.0

-557607.771867703 -1.2654450374510786e6 0.0
-1.2654450374510786e6 1.2176538216239354e6 0.0
0.0 0.0 0.0

-636989.8998894962 -2.2171139435848733e6 0.0
-2.2171139435848733e6 2.406579011015295e6 0.0
0.0 0.0 0.0

-1.0016510249959966e7 1.5690615381463295e7 0.0
1.5690615381463295e7 2.466030546795894e7 0.0
0.0 0.0 0.0

1.067346906647894e7 2.140455260157972e7 0.0
2.140455260157972e7 9.593273156469354e6 0.0
0.0 0.0 0.0

238139.54189100978 2.6712537947794396e7 0.0
2.6712537947794396e7 -2.718169552373903e6 0.0
0.0 0.0 0.0

-921477.4795886584 2.1341194865954343e7 0.0
2.1341194865954343e7 -6.242892685081814e6 0.0
0.0 0.0 0.0

1.8549812935100244e6 1.2508419787335385e7 0.0
1.2508419787335385e7 -1.6596087380427832e7 0.0
0.0 0.0 0.0

6.038404475863275e6 1.7422468571961522e7 0.0
1.7422468571961522e7 3.0075778701268196e7 0.0
0.0 0.0 0.0

-2.7797013377164546e6 2.8931688508355632e7 0.0
2.8931688508355632e7 2.816105352421277e6 0.0
0.0 0.0 0.0

-1.0060770048149877e6 2.872919465070425e7 0.0
2.872919465070425e7 -973564.355204263 0.0
0.0 0.0 0.0

-652795.8518965521 2.9281368848705176e7 0.0
2.9281368848705176e7 -969919.6575424545 0.0
0.0 0.0 0.0

-5.244669606031197e6 1.874403585468396e7 0.0
1.874403585468396e7 1.2563153088437669e7 0.0
0.0 0.0 0.0

-5.367393353964449e6 1.6715548273372028e7 0.0
1.6715548273372028e7 9.572372137440927e6 0.0
0.0 0.0 0.0

-7.6989407598307645e6 1.1560804265452249e7 0.0
1.1560804265452249e7 1.0250976711650446e7 0.0
0.0 0.0 0.0

-3.181973698104449e6 2.219401512584951e7 0.0
2.219401512584951e7 9.349496024247883e6 0.0
0.0 0.0 0.0

-4.490446477141716e6 1.6048185485147083e7 0.0
1.6048185485147083e7 1.0730458505006801e7 0.0
0.0 0.0 0.0

-1.030934095179577e7 1.471753735677162e7 0.0
1.471753735677162e7 2.6812076922435444e7 0.0
0.0 0.0 0.0

1.8382232325756159e6 1.2993737247983187e7 0.0
1.2993737247983187e7 -1.71391597320188e7 0.0
0.0 0.0 0.0

-4.291767191234207e6 2.0292222312703114e7 0.0
2.0292222312703114e7 1.0483363033793662e7 0.0
0.0 0.0 0.0

-1.0752213752821883e7 1.3061524531164605e7 0.0
1.3061524531164605e7 2.788465832838072e7 0.0
0.0 0.0 0.0

3.3566417772078686e6 1.9295198888382085e7 0.0
1.9295198888382085e7 1.3786394837216632e7 0.0
0.0 0.0 0.0

-4.247151547099826e6 1.7605295224510565e7 0.0
1.7605295224510565e7 5.258897888087934e6 0.0
0.0 0.0 0.0

-1.4445100383531547e6 2.704400117074443e7 0.0
2.704400117074443e7 522367.9415575882 0.0
0.0 0.0 0.0

-1.5873204714992784e6 2.584721879438263e7 0.0
2.584721879438263e7 299221.8920445766 0.0
0.0 0.0 0.0

-3.6804541216293536e6 2.1906395358157758e7 0.0
2.1906395358157758e7 1.2696250651309567e7 0.0
0.0 0.0 0.0

-1.413834178386381e6 1.7657541804121215e7 0.0
1.7657541804121215e7 -1.940916818453957e7 0.0
0.0 0.0 0.0

-3.4590316141920513e6 2.2387551413447935e7 0.0
2.2387551413447935e7 6.942036134155938e6 0.0
0.0 0.0 0.0

-6.363293620038656e6 1.7710988560131297e7 0.0
1.7710988560131297e7 1.842016898738094e7 0.0
0.0 0.0 0.0

-1.0338740236405937e6 2.0537623332442813e7 0.0
2.0537623332442813e7 -6.544803313990231e6 0.0
0.0 0.0 0.0

2.584818078802403e6 2.9671929707695387e7 0.0
2.9671929707695387e7 -2.360772456267082e6 0.0
0.0 0.0 0.0

-3.691829655204486e6 2.2616688635408986e7 0.0
2.2616688635408986e7 1.1376349701158568e7 0.0
0.0 0.0 0.0

-1.2972711859910754e6 2.0200551380646266e7 0.0
2.0200551380646266e7 -8.005905258888097e6 0.0
0.0 0.0 0.0

3.0284354682946242e6 8.735524920884369e6 0.0
8.735524920884369e6 -2.280401986761872e7 0.0
0.0 0.0 0.0

-3.954327493672467e6 1.8775332360002756e7 0.0
1.8775332360002756e7 1.2058740252146138e7 0.0
0.0 0.0 0.0

2.9002178870911854e6 2.460945933176602e7 0.0
2.460945933176602e7 -6.4180979886811655e6 0.0
0.0 0.0 0.0

2.6685832368432544e6 3.084170518942869e6 0.0
3.084170518942869e6 -7.616594605884038e6 0.0
0.0 0.0 0.0

2.280700326516513e6 8.823601540911717e6 0.0
8.823601540911717e6 -2.9839339321158558e7 0.0
0.0 0.0 0.0

-313983.97733191727 1.9038647408349752e7 0.0
1.9038647408349752e7 -9.746432484918414e6 0.0
0.0 0.0 0.0

1.0860248136864517e7 2.2255553618715677e7 0.0
2.2255553618715677e7 1.1210789117183974e7 0.0
0.0 0.0 0.0

2.3811049624976274e6 9.16071399754943e6 0.0
9.16071399754943e6 -2.3482331123436e7 0.0
0.0 0.0 0.0

2.154038924836669e6 1.0286645990060164e7 0.0
1.0286645990060164e7 -2.2855670471059307e7 0.0
0.0 0.0 0.0

1.2165936214334406e6 1.8883784079914372e7 0.0
1.8883784079914372e7 5.214475168739584e6 0.0
0.0 0.0 0.0

-1.127366120629033e7 6.283985466218066e6 0.0
6.283985466218066e6 2.775984906828696e7 0.0
0.0 0.0 0.0

-9.102611468054567e6 1.1914127313523928e7 0.0
1.1914127313523928e7 1.3213768296547066e7 0.0
0.0 0.0 0.0

-8.586461420479264e6 1.7685805796046574e7 0.0
1.7685805796046574e7 -4.228110572794754e7 0.0
0.0 0.0 0.0

-6.456001513956741e6 1.6365860003437076e7 0.0
1.6365860003437076e7 1.2525045665325355e7 0.0
0.0 0.0 0.0

-1.2283167559072815e7 1.1288154639029201e7 0.0
1.1288154639029201e7 2.03719298965369e7 0.0
0.0 0.0 0.0

2.253249890686805e6 2.096771492112492e7 0.0
2.096771492112492e7 1.007223532283557e7 0.0
0.0 0.0 0.0

-8.809392869403295e6 -4.541971442453989e6 0.0
-4.541971442453989e6 2.8715540651000366e7 0.0
0.0 0.0 0.0

-4.545245791643884e6 1.9082395006311174e7 0.0
1.9082395006311174e7 9.980142363709638e6 0.0
0.0 0.0 0.0

-3.447225909566216e6 2.476745891076535e7 0.0
2.476745891076535e7 7.463822201452009e6 0.0
0.0 0.0 0.0

110623.82428360078 1.7302548304408975e7 0.0
1.7302548304408975e7 -1.4754294402333897e7 0.0
0.0 0.0 0.0

-6.892657396102563e6 -2.2794371784067866e6 0.0
-2.2794371784067866e6 9.686646231237926e6 0.0
0.0 0.0 0.0

-7.221063189333318e6 1.0962029143014701e7 0.0
1.0962029143014701e7 8.688009561434481e6 0.0
0.0 0.0 0.0

798082.2080521267 7.547548718696057e6 0.0
7.547548718696057e6 -4.960365593389216e7 0.0
0.0 0.0 0.0

4.581879848655303e6 2.9889343676148795e7 0.0
2.9889343676148795e7 -3.133772410906533e6 0.0
0.0 0.0 0.0

-9.149225881183509e6 1.2068034711441347e7 0.0
1.2068034711441347e7 3.534157161141339e7 0.0
0.0 0.0 0.0

-4.795146589892995e6 1.8214477285213426e7 0.0
1.8214477285213426e7 -1.4423868084251057e7 0.0
0.0 0.0 0.0

-1.2422120553396286e7 1.0884933250413114e7 0.0
1.0884933250413114e7 2.1861039736881696e7 0.0
0.0 0.0 0.0

-1.1576398696521884e7 2.4564204248089083e7 0.0
2.4564204248089083e7 -7.531308888914457e6 0.0
0.0 0.0 0.0

-1.1189142463276004e6 1.9027842952867616e7 0.0
1.9027842952867616e7 -4.720927590093734e6 0.0
0.0 0.0 0.0

2.4949070028762473e6 1.774009089706024e7 0.0
1.774009089706024e7 1.561377926660909e7 0.0
0.0 0.0 0.0

2.3890433307770155e6 8.127352795693434e6 0.0
8.127352795693434e6 -3.1270570803858977e7 0.0
0.0 0.0 0.0

-4.667371818838253e6 1.6955762714094896e7 0.0
1.6955762714094896e7 -1.3133316583164424e7 0.0
0.0 0.0 0.0

5.658011134423157e6 3.412191793353307e7 0.0
3.412191793353307e7 -4.442361555387124e6 0.0
0.0 0.0 0.0

-4.071200204908612e6 1.9050557762599085e7 0.0
1.9050557762599085e7 1.3053543182653323e7 0.0
0.0 0.0 0.0

-8.851229611141043e6 -3.718868897996866e6 0.0
-3.718868897996866e6 3.1874511244219996e7 0.0
0.0 0.0 0.0

-1.8904158368373243e6 1.914232159554457e7 0.0
1.914232159554457e7 1.5601986408313463e7 0.0
0.0 0.0 0.0

-9.529163976139497e6 2.3588339587535843e7 0.0
2.3588339587535843e7 -9.306551182350101e6 0.0
0.0 0.0 0.0

-5.82646412291426e6 9.792965160263063e6 0.0
9.792965160263063e6 5.3521602400178e6 0.0
0.0 0.0 0.0

2.0929031209683828e6 1.8274988941923026e7 0.0
1.8274988941923026e7 3.3028437972971402e7 0.0
0.0 0.0 0.0

-9.004312724145062e6 1.5934732724680109e7 0.0
1.5934732724680109e7 1.7946906884898648e7 0.0
0.0 0.0 0.0

-1.0094258846705891e7 1.4105349171114398e7 0.0
1.4105349171114398e7 1.7541164548840575e7 0.0
0.0 0.0 0.0

-9.843013652148435e6 1.0228472494145518e7 0.0
1.0228472494145518e7 3.513134788955614e7 0.0
0.0 0.0 0.0

-2.000546029816838e6 1.9072388268600814e7 0.0
1.9072388268600814e7 1.9282271549307205e7 0.0
0.0 0.0 0.0

-8.205139547363373e6 2.878359556314131e7 0.0
2.878359556314131e7 5.251722874417471e6 0.0
0.0 0.0 0.0

-494020.04153738095 3.1194077642902937e7 0.0
3.1194077642902937e7 -1.0123162774929847e6 0.0
0.0 0.0 0.0

-3.978257851741205e6 2.110659843501125e7 0.0
2.110659843501125e7 1.0045334859260097e7 0.0
0.0 0.0 0.0

2.3461010814320934e6 2.942405734833053e6 0.0
2.942405734833053e6 -6.511785477634921e6 0.0
0.0 0.0 0.0

2.3297960744919693e6 1.1322448840633504e7 0.0
1.1322448840633504e7 -1.859714486862269e7 0.0
0.0 0.0 0.0

1.9734685972978296e6 1.1213913684499621e7 0.0
1.1213913684499621e7 -1.4459369637400122e7 0.0
0.0 0.0 0.0

-5.519787496766372e6 1.7084732170256723e7 0.0
1.7084732170256723e7 1.082371604123465e7 0.0
0.0 0.0 0.0

-1.7365999696020363e6 4.144733313873562e7 0.0
4.144733313873562e7 -3.206063651519187e6 0.0
0.0 0.0 0.0

-9.089271903608084e6 7.6514420399987e6 0.0
7.6514420399987e6 1.0224522843788251e7 0.0
0.0 0.0 0.0

1.5924469762597778e6 2.773893397031946e7 0.0
2.773893397031946e7 -3.1687747691342826e6 0.0
0.0 0.0 0.0

3.2519772847712045e6 2.5462619226280894e7 0.0
2.5462619226280894e7 -5.806534183838621e6 0.0
0.0 0.0 0.0

-4.282444737420624e6 1.0677008743665315e7 0.0
1.0677008743665315e7 6.700637388586292e6 0.0
0.0 0.0 0.0

-281396.21711061767 1.739059422032452e7 0.0
1.739059422032452e7 1.1676166080727088e6 0.0
0.0 0.0 0.0

1.7316056575420596e7 2.1269384090068184e7 0.0
2.1269384090068184e7 9.445795003881e6 0.0
0.0 0.0 0.0

6.6642908344943095e6 1.9029976972360115e7 0.0
1.9029976972360115e7 3.1537968548067443e7 0.0
0.0 0.0 0.0

1.1458814201474963e6 1.8176264930628404e7 0.0
1.8176264930628404e7 1.3329387820911622e7 0.0
0.0 0.0 0.0

-8.969414339457493e6 1.53945366127097e7 0.0
1.53945366127097e7 1.705795798365867e7 0.0
0.0 0.0 0.0

-959955.9520581497 3.876635355209562e7 0.0
3.876635355209562e7 -2.419419582167958e6 0.0
0.0 0.0 0.0

-1.6913322776304714e7 2.579676643883528e7 0.0
2.579676643883528e7 -6.919267395488432e6 0.0
0.0 0.0 0.0

-1.0077269505356163e7 1.4715746885790274e7 0.0
1.4715746885790274e7 1.8437048393308878e7 0.0
0.0 0.0 0.0

608035.3414635435 1.2335831663348e7 0.0
1.2335831663348e7 -3.1852706722872954e7 0.0
0.0 0.0 0.0

3.7220470818140823e6 1.8585222626985805e6 0.0
1.8585222626985805e6 -3.553586370579118e7 0.0
0.0 0.0 0.0

931387.5702408478 1.651284051511802e7 0.0
1.651284051511802e7 -1.5525994436896887e7 0.0
0.0 0.0 0.0

2.0789188081683181e6 1.1932574749645334e7 0.0
1.1932574749645334e7 -1.759408412984907e7 0.0
0.0 0.0 0.0

616775.7657560268 1.790419357593607e7 0.0
1.790419357593607e7 -1.3714586338422352e7 0.0
0.0 0.0 0.0

-2.6888112147370847e6 4.482259747224174e7 0.0
4.482259747224174e7 -5.187648896576494e6 0.0
0.0 0.0 0.0

-2.644845283817974e6 2.2862798461365197e7 0.0
2.2862798461365197e7 4.21245115350994e6 0.0
0.0 0.0 0.0

154109.57983233687 2.083457122027523e7 0.0
2.083457122027523e7 -1.1122787409849614e7 0.0
0.0 0.0 0.0

-207686.06758070597 2.01289818351842e7 0.0
2.01289818351842e7 -1.1583132943636915e7 0.0
0.0 0.0 0.0

2.4618719302966706e6 1.0407980091002617e7 0.0
1.0407980091002617e7 -1.722093781342075e7 0.0
0.0 0.0 0.0

-4.0349171810059063e6 2.210978033592114e7 0.0
2.210978033592114e7 1.0384302698737036e7 0.0
0.0 0.0 0.0

-313351.82228742633 1.9560145223208386e7 0.0
1.9560145223208386e7 1.6952550088270947e7 0.0
0.0 0.0 0.0

-6.29113395188419e6 2.308206968402293e7 0.0
2.308206968402293e7 7.707925831455978e6 0.0
0.0 0.0 0.0

-4.342914347935922e6 7.934195440713332e6 0.0
7.934195440713332e6 6.668442784592603e7 0.0
0.0 0.0 0.0

-8.6705658979933e6 -2.5253645987849403e6 0.0
-2.5253645987849403e6 1.9658953068452656e7 0.0
0.0 0.0 0.0

-1.2729383655850597e7 6.669768460866961e7 0.0
6.669768460866961e7 -1.700697063387634e7 0.0
0.0 0.0 0.0

3.3545983575954745e6 1.794021054140957e7 0.0
1.794021054140957e7 1.975711913674037e7 0.0
0.0 0.0 0.0

-533480.7517029819 3.697623366061249e7 0.0
3.697623366061249e7 -1.6864618008670793e6 0.0
0.0 0.0 0.0

112895.15816986421 1.7601275688674048e7 0.0
1.7601275688674048e7 -1.1103795293190826e7 0.0
0.0 0.0 0.0

843274.1502181483 2.024097639563111e7 0.0
2.024097639563111e7 -1.0787826799943948e7 0.0
0.0 0.0 0.0

-2.889333875213745e6 2.3868763776419852e7 0.0
2.3868763776419852e7 6.141932833922662e6 0.0
0.0 0.0 0.0

4.199003837670207e6 2.4282690211948426e6 0.0
2.4282690211948426e6 -2.020657496484297e7 0.0
0.0 0.0 0.0

7.702618618741812e6 1.959278216500594e7 0.0
1.959278216500594e7 2.2372275688459096e6 0.0
0.0 0.0 0.0

2.2378922395858336e6 1.1845378511176506e7 0.0
1.1845378511176506e7 -1.92358970208838e7 0.0
0.0 0.0 0.0

3.5487288524978384e6 2.3242952645451613e7 0.0
2.3242952645451613e7 -6.669613676512224e6 0.0
0.0 0.0 0.0

3.078534619307399e6 7.571151306521651e6 0.0
7.571151306521651e6 -3.0422425286081225e7 0.0
0.0 0.0 0.0

-3.2854726043387833e6 2.0055258871777505e7 0.0
2.0055258871777505e7 9.123202428449508e6 0.0
0.0 0.0 0.0

2.857027529182018e6 7.20828850511363e6 0.0
7.20828850511363e6 -1.2544298001812462e7 0.0
0.0 0.0 0.0

-1.9408868050390885e6 1.1109958880492901e7 0.0
1.1109958880492901e7 296727.3089725104 0.0
0.0 0.0 0.0

-1.5907765769786965e7 2.297636902144882e7 0.0
2.297636902144882e7 -5.243211930618812e6 0.0
0.0 0.0 0.0

2.788404252044957e6 9.906450871467795e6 0.0
9.906450871467795e6 -2.2240114735356968e7 0.0
0.0 0.0 0.0

-2.7740798168955017e6 1.6662324505353898e7 0.0
1.6662324505353898e7 -3.5587193299292442e6 0.0
0.0 0.0 0.0

-449982.8625638983 2.1379469857226364e7 0.0
2.1379469857226364e7 -9.494073983220449e6 0.0
0.0 0.0 0.0

-1.9622995626731059e6 1.866359677231555e7 0.0
1.866359677231555e7 2.3939598955466747e7 0.0
0.0 0.0 0.0

306755.56802054564 1.9072606425962064e7 0.0
1.9072606425962064e7 -1.958744404500209e6 0.0
0.0 0.0 0.0

-6.2315815107917385e6 1.5986231711528454e7 0.0
1.5986231711528454e7 1.1277920526039526e7 0.0
0.0 0.0 0.0

-1.146529944378215e7 7.640308945502991e6 0.0
7.640308945502991e6 3.0411663343201518e7 0.0
0.0 0.0 0.0

-1.402546345978125e6 1.8992514580419935e7 0.0
1.8992514580419935e7 2.4406136918841e7 0.0
0.0 0.0 0.0

-7.885846969376727e6 1.699255255581974e7 0.0
1.699255255581974e7 1.732338133749491e7 0.0
0.0 0.0 0.0

-1.126994008393354e7 2.969875705069191e6 0.0
2.969875705069191e6 2.7278254875505704e7 0.0
0.0 0.0 0.0

-4.705478280185206e6 1.8426983967139676e7 0.0
1.8426983967139676e7 1.4624657133582864e7 0.0
0.0 0.0 0.0

-4.740876907191968e6 2.0706908808835085e7 0.0
2.0706908808835085e7 1.5523284455243954e7 0.0
0.0 0.0 0.0

-9.04604624388668e6 5.678649216929027e6 0.0
5.678649216929027e6 1.5113306354447398e7 0.0
0.0 0.0 0.0

-316962.33492561756 2.0760930043127056e7 0.0
2.0760930043127056e7 -1.054927696572771e7 0.0
0.0 0.0 0.0

-3.1571735230463715e6 2.3829983363619484e7 0.0
2.3829983363619484e7 3.8100015022232644e6 0.0
0.0 0.0 0.0

-7.7746102766348235e6 1.7474943987391956e7 0.0
1.7474943987391956e7 1.8058881962365385e7 0.0
0.0 0.0 0.0

-9.846699775474427e6 3.1556759471883243e6 0.0
3.1556759471883243e6 3.938089295604601e7 0.0
0.0 0.0 0.0

-2.4347441118666e6 2.0235585224583127e7 0.0
2.0235585224583127e7 1.2330400420125796e7 0.0
0.0 0.0 0.0

-9.448952917531583e6 1.3994735696092267e7 0.0
1.3994735696092267e7 1.978834943689347e7 0.0
0.0 0.0 0.0

1.096375600384308e6 1.2052974269260796e7 0.0
1.2052974269260796e7 -3.0030804305282094e7 0.0
0.0 0.0 0.0

-2.690626398605168e6 1.8033739785575844e7 0.0
1.8033739785575844e7 2.9637148756993677e7 0.0
0.0 0.0 0.0

-9.911567905233555e6 1.5730372465847751e7 0.0
1.5730372465847751e7 2.303591014762041e7 0.0
0.0 0.0 0.0

1.9844403137969412e6 1.0731623444580551e7 0.0
1.0731623444580551e7 -1.373541481161629e7 0.0
0.0 0.0 0.0

3.494100395520985e6 3.591397149233676e6 0.0
3.591397149233676e6 -2.834886706810349e7 0.0
0.0 0.0 0.0

1.8655038344803061e6 1.8189449967613567e7 0.0
1.8189449967613567e7 2.5377431623333108e7 0.0
0.0 0.0 0.0

-206525.50570337847 1.8399104752717588e7 0.0
1.8399104752717588e7 2.7570104678192448e7 0.0
0.0 0.0 0.0

-636092.1457182069 1.7092624146313626e7 0.0
1.7092624146313626e7 -7.977555219352517e6 0.0
0.0 0.0 0.0

-3.709782785472284e6 2.336376617625659e7 0.0
2.336376617625659e7 1.0223155147397678e7 0.0
0.0 0.0 0.0

-301377.7068366402 3.3512600804133438e7 0.0
3.3512600804133438e7 -1.2435244467196087e6 0.0
0.0 0.0 0.0

348354.8682475304 1.9177473009392034e7 0.0
1.9177473009392034e7 -1.2804133187005272e7 0.0
0.0 0.0 0.0

-9.533941462871287e6 -1.371869392012719e6 0.0
-1.371869392012719e6 2.0799643158172242e7 0.0
0.0 0.0 0.0

617045.9291443862 1.4047496648868335e7 0.0
1.4047496648868335e7 -2.586084432776571e7 0.0
0.0 0.0 0.0

-3.6519769887659354e6 2.0934418365627095e7 0.0
2.0934418365627095e7 1.2603814904059794e7 0.0
0.0 0.0 0.0

-1.0585135559137067e7 1.447042854815623e7 0.0
1.447042854815623e7 2.3651739563117035e7 0.0
0.0 0.0 0.0

3.0826361226789746e6 1.561444249842839e7 0.0
1.561444249842839e7 1.1162162894496424e7 0.0
0.0 0.0 0.0

1.5275911170170438e6 9.626438749291465e6 0.0
9.626438749291465e6 -3.5066928733767584e7 0.0
0.0 0.0 0.0

1.3685660031467546e6 1.1939172797437223e7 0.0
1.1939172797437223e7 -2.8165625467999388e7 0.0
0.0 0.0 0.0

7.006964960922448e6 3.561036640853388e7 0.0
3.561036640853388e7 -5.2796157649181355e6 0.0
0.0 0.0 0.0

-2.4845836860600687e6 2.3288685810545154e7 0.0
2.3288685810545154e7 3.2394817721923855e6 0.0
0.0 0.0 0.0

-2.7962012577834353e6 2.435801275022712e7 0.0
2.435801275022712e7 5.196261016154396e6 0.0
0.0 0.0 0.0

-1.9929482253133312e6 2.4512160191247858e7 0.0
2.4512160191247858e7 -2.1666940534104095e6 0.0
0.0 0.0 0.0

3.9609190395529578e6 4.283306978422607e6 0.0
4.283306978422607e6 -1.6860547271821585e7 0.0
0.0 0.0 0.0

-1.7634914225050025e6 1.6214551201073099e7 0.0
1.6214551201073099e7 -7.393017083793235e6 0.0
0.0 0.0 0.0

-3.516501974086703e6 2.0784201434294645e7 0.0
2.0784201434294645e7 1.1853905793708917e7 0.0
0.0 0.0 0.0

584391.4484381359 2.134028014098036e7 0.0
2.134028014098036e7 -1.028866222328238e7 0.0
0.0 0.0 0.0

-295464.9285497949 3.2625240173012156e7 0.0
3.2625240173012156e7 -1.0829784980855496e6 0.0
0.0 0.0 0.0

-6.566632068614322e6 8.730272837799158e6 0.0
8.730272837799158e6 1.1905816003546998e7 0.0
0.0 0.0 0.0

-1.219915222660624e7 9.907803628753258e6 0.0
9.907803628753258e6 2.5108169238381848e7 0.0
0.0 0.0 0.0

-386513.1511879524 3.1904803143683568e7 0.0
3.1904803143683568e7 -933296.2817872737 0.0
0.0 0.0 0.0

-552522.2909749313 2.2028284420867257e7 0.0
2.2028284420867257e7 -8.498055699477242e6 0.0
0.0 0.0 0.0

1.704990835670676e6 1.0846897963604767e7 0.0
1.0846897963604767e7 -1.7928378558160473e7 0.0
0.0 0.0 0.0

-4.889762472864145e6 1.677877014881639e7 0.0
1.677877014881639e7 1.3192426534021547e7 0.0
0.0 0.0 0.0

1.605144195907481e6 8.919233111328779e6 0.0
8.919233111328779e6 -3.6753398672066905e7 0.0
0.0 0.0 0.0

-1.3088556727565224e6 2.8150527047790848e7 0.0
2.8150527047790848e7 655306.0699268843 0.0
0.0 0.0 0.0

-3.709066709749188e6 2.1298232620084774e7 0.0
2.1298232620084774e7 9.650311799487785e6 0.0
0.0 0.0 0.0

59992.70623609796 1.3106492544924425e7 0.0
1.3106492544924425e7 -3.2093858308592744e7 0.0
0.0 0.0 0.0

-3.5553403383938656e6 2.4887917128227405e7 0.0
2.4887917128227405e7 5.47523249027076e6 0.0
0.0 0.0 0.0

-1.1921991332605584e7 9.585686108782757e6 0.0
9.585686108782757e6 2.687084768674831e7 0.0
0.0 0.0 0.0

1.4514593394574607e6 1.0553914227597157e7 0.0
1.0553914227597157e7 -1.5487208713246837e7 0.0
0.0 0.0 0.0

1.358889328955486e6 2.0196550110453553e7 0.0
2.0196550110453553e7 9.978577628765112e6 0.0
0.0 0.0 0.0

-2.8986929060542663e6 2.264501966887399e7 0.0
2.264501966887399e7 7.334617426592927e6 0.0
0.0 0.0 0.0

-590727.7777055278 1.3975906815140678e7 0.0
1.3975906815140678e7 -3.168604663764552e7 0.0
0.0 0.0 0.0

-3.6356505258058924e6 4.950265947929797e7 0.0
4.950265947929797e7 -8.186652254547166e6 0.0
0.0 0.0 0.0

-9.130025651882168e6 1.6909843303152516e7 0.0
1.6909843303152516e7 2.1024827503471404e7 0.0
0.0 0.0 0.0

-1.0144746424522413e7 1.738861686996329e7 0.0
1.738861686996329e7 -5.1012054507050544e7 0.0
0.0 0.0 0.0

-4.954384707401265e6 9.577516150332006e6 0.0
9.577516150332006e6 8.385351985063945e6 0.0
0.0 0.0 0.0

-4.648041626629148e6 1.9382615342625625e7 0.0
1.9382615342625625e7 1.1011643754444629e7 0.0
0.0 0.0 0.0

-5.429855415581742e6 1.7755348038334437e7 0.0
1.7755348038334437e7 2.793025189667364e7 0.0
0.0 0.0 0.0

-5.529262149838541e6 1.564353759134932e7 0.0
1.564353759134932e7 1.3788283181601722e7 0.0
0.0 0.0 0.0

-1.157299723117739e6 1.6279546750217402e7 0.0
1.6279546750217402e7 5.319189743776985e7 0.0
0.0 0.0 0.0

-3.5494642789295167e6 1.9427712824002896e7 0.0
1.9427712824002896e7 1.0520605288031258e7 0.0
0.0 0.0 0.0

-1.1189559113818957e6 1.715299186982038e7 0.0
1.715299186982038e7 -2.162437292191674e7 0.0
0.0 0.0 0.0

466271.233597219 1.9610396604001608e7 0.0
1.9610396604001608e7 -1.3455384016026344e7 0.0
0.0 0.0 0.0

1.3985012706704292e8 2.482397603911699e7 0.0
2.482397603911699e7 1.2794866391184095e7 0.0
0.0 0.0 0.0

-8.793547576848939e6 -3.5628351559791183e6 0.0
-3.5628351559791183e6 3.3003648089651093e7 0.0
0.0 0.0 0.0

3.88089061834947e6 1.91651784980735e6 0.0
1.91651784980735e6 -3.2418841434226997e7 0.0
0.0 0.0 0.0

-8.225122928860392e6 1.0816723437639952e6 0.0
1.0816723437639952e6 1.0667900339721844e7 0.0
0.0 0.0 0.0

-1.8329687715900284e6 2.397018624770265e7 0.0
2.397018624770265e7 -3.077794755816595e6 0.0
0.0 0.0 0.0

-8.13558047605476e6 -2.477129511427685e6 0.0
-2.477129511427685e6 4.247361219810145e7 0.0
0.0 0.0 0.0

-6.574429171870032e6 1.6340269399308387e7 0.0
1.6340269399308387e7 -3.046909215405322e7 0.0
0.0 0.0 0.0

-1.1259528418949978e7 1.286496096117133e7 0.0
1.286496096117133e7 2.4087940010558687e7 0.0
0.0 0.0 0.0

-7.711201362871069e6 1.7905474041846324e7 0.0
1.7905474041846324e7 1.864341519194762e7 0.0
0.0 0.0 0.0

3.622467798788907e6 1.8050084976363776e6 0.0
1.8050084976363776e6 -3.660750925961303e7 0.0
0.0 0.0 0.0

758191.6030906318 1.708024329615717e7 0.0
1.708024329615717e7 -1.4408849265335826e7 0.0
0.0 0.0 0.0

-365610.47956630273 3.456622680690128e7 0.0
3.456622680690128e7 -1.081267438233631e6 0.0
0.0 0.0 0.0

1.0826017391677685e6 1.1202451890333066e7 0.0
1.1202451890333066e7 -1.4493827746205935e7 0.0
0.0 0.0 0.0

-2.9958711919107437e6 2.0650730713721495e7 0.0
2.0650730713721495e7 -3.657510904477493e6 0.0
0.0 0.0 0.0

-720406.2541536652 8.320220347763794e6 0.0
8.320220347763794e6 9.458379966911377e7 0.0
0.0 0.0 0.0

-2.1299657441473454e6 8.086709288413256e6 0.0
8.086709288413256e6 -8.666948651584543e7 0.0
0.0 0.0 0.0

-5.438761530043382e6 1.635172122538598e7 0.0
1.635172122538598e7 -7.250303479038222e7 0.0
0.0 0.0 0.0

1.264571082717022e6 1.5424899953939755e7 0.0
1.5424899953939755e7 -1.7718260596123815e7 0.0
0.0 0.0 0.0

2.6878816454701833e6 6.871743794824583e6 0.0
6.871743794824583e6 -3.9580890546391815e7 0.0
0.0 0.0 0.0

-2.3245142999766555e7 2.719952279613049e7 0.0
2.719952279613049e7 3.029468928429613e6 0.0
0.0 0.0 0.0

430171.9899537917 2.0768403863390848e7 0.0
2.0768403863390848e7 -1.1376223805397553e7 0.0
0.0 0.0 0.0

-8.65881955026115e6 -3.4578773432288286e6 0.0
-3.4578773432288286e6 3.411879627691482e7 0.0
0.0 0.0 0.0

-7.7578405344612785e6 1.1358624141666275e7 0.0
1.1358624141666275e7 1.3481856485272307e7 0.0
0.0 0.0 0.0

-2.6572519824147783e6 2.481178052220281e7 0.0
2.481178052220281e7 4.266699581015721e6 0.0
0.0 0.0 0.0

-4.1428181482129735e6 2.1337073264726028e7 0.0
2.1337073264726028e7 1.0866463360457491e7 0.0
0.0 0.0 0.0

-8.738944396582779e6 1.437192663881049e7 0.0
1.437192663881049e7 1.4878352620043142e7 0.0
0.0 0.0 0.0

-7.995431204675518e6 7.1066307566764355e6 0.0
7.1066307566764355e6 1.4014537606901303e7 0.0
0.0 0.0 0.0

6.235528428817148e6 1.9606926349233802e7 0.0
1.9606926349233802e7 4.1793816174648604e6 0.0
0.0 0.0 0.0

-699947.6092246149 2.270892853109872e7 0.0
2.270892853109872e7 -7.529665565323264e6 0.0
0.0 0.0 0.0

-2.6623667532999013e6 6.330111094533316e6 0.0
6.330111094533316e6 -356994.4020975513 0.0
0.0 0.0 0.0

-422212.69220522634 2.5974915666556787e7 0.0
2.5974915666556787e7 -2.4420895088655422e6 0.0
0.0 0.0 0.0

-1.0547433059894348e7 1.5794298249415345e7 0.0
1.5794298249415345e7 2.2759953355563592e7 0.0
0.0 0.0 0.0

-4.689320160928866e6 1.6429294243199479e7 0.0
1.6429294243199479e7 1.1981947715372123e7 0.0
0.0 0.0 0.0

-8.551923272941174e6 -3.272342143126141e6 0.0
-3.272342143126141e6 3.524622170305659e7 0.0
0.0 0.0 0.0

3.7085625997675303e6 1.8827966233041734e6 0.0
1.8827966233041734e6 -3.447713151806167e7 0.0
0.0 0.0 0.0

2.4939718338134624e6 7.134640092498689e6 0.0
7.134640092498689e6 -4.2210000002066016e7 0.0
0.0 0.0 0.0

-1.2238409009018332e7 1.178711551486425e7 0.0
1.178711551486425e7 2.2567024228906438e7 0.0
0.0 0.0 0.0

-55150.13794179261 4.993487163745286e6 0.0
4.993487163745286e6 -7.47463361678034e7 0.0
0.0 0.0 0.0

-6.802642616909973e6 -833772.8772024052 0.0
-833772.8772024052 5.650055099876119e7 0.0
0.0 0.0 0.0

1.936502598497944e6 1.0226209900043858e7 0.0
1.0226209900043858e7 -1.8996746982097656e7 0.0
0.0 0.0 0.0

3.0584337495372314e6 8.874282430327984e6 0.0
8.874282430327984e6 -2.1029709273403786e7 0.0
0.0 0.0 0.0

4.477343847245783e6 3.1764428888623964e7 0.0
3.1764428888623964e7 -2.6939291591418074e6 0.0
0.0 0.0 0.0

-6.537505813405375e6 2.868076880372949e7 0.0
2.868076880372949e7 5.761801977169432e6 0.0
0.0 0.0 0.0

-3.0865690468893237e6 2.2135681917231597e7 0.0
2.2135681917231597e7 8.371999204614636e6 0.0
0.0 0.0 0.0

-217305.1626073094 2.4894644166661847e7 0.0
2.4894644166661847e7 -4.1299684756155424e6 0.0
0.0 0.0 0.0

-1.2160482199364547e6 3.2511659374656394e7 0.0
3.2511659374656394e7 1.2371186255724255e6 0.0
0.0 0.0 0.0

-3.1426773994957823e6 2.347583149017689e7 0.0
2.347583149017689e7 7.974585009505222e6 0.0
0.0 0.0 0.0

73810.72418836504 1.8649967074927606e7 0.0
1.8649967074927606e7 1.1072580355208531e7 0.0
0.0 0.0 0.0

1.5419002797636576e6 2.728748807740842e6 0.0
2.728748807740842e6 -6.2419202218915455e7 0.0
0.0 0.0 0.0

3.4221379252180904e6 1.6651632547535188e6 0.0
1.6651632547535188e6 -4.1048242984479904e7 0.0
0.0 0.0 0.0

2.467946419278253e6 1.914978703501584e6 0.0
1.914978703501584e6 -5.3536896124034904e7 0.0
0.0 0.0 0.0

-2.704682847249496e6 2.4976559276624747e7 0.0
2.4976559276624747e7 1.2406443940445865e6 0.0
0.0 0.0 0.0

-6.593617582951786e6 1.0377684109123232e7 0.0
1.0377684109123232e7 7.063478417674886e6 0.0
0.0 0.0 0.0

-7.885210895995934e6 -2.30384804508792e6 0.0
-2.30384804508792e6 4.371352641269566e7 0.0
0.0 0.0 0.0

-1.2147451751412343e7 1.2079234228420088e7 0.0
1.2079234228420088e7 2.1150857786825832e7 0.0
0.0 0.0 0.0

4.0024600958119277e6 3.7000926426321245e6 0.0
3.7000926426321245e6 -2.2208354602386203e7 0.0
0.0 0.0 0.0

-1.3710739509006526e7 2.6728903360064004e7 0.0
2.6728903360064004e7 5.07766497534841e6 0.0
0.0 0.0 0.0

-6.345452837403772e6 1.7111297853742857e7 0.0
1.7111297853742857e7 -2.602941727748194e7 0.0
0.0 0.0 0.0

-8.96486886178762e6 -4.396897710730799e6 0.0
-4.396897710730799e6 2.8120299154270183e7 0.0
0.0 0.0 0.0

-1.1852792751177795e7 3.6966880553366123e6 0.0
3.6966880553366123e6 1.977726067987376e7 0.0
0.0 0.0 0.0

-1.128375612747167e7 8.90965804828899e6 0.0
8.90965804828899e6 3.104408616731329e7 0.0
0.0 0.0 0.0

-4.446254087838929e6 1.98867673107456e7 0.0
1.98867673107456e7 1.8033081060079414e7 0.0
0.0 0.0 0.0

1.4418945622417573e6 1.2461453083583007e7 0.0
1.2461453083583007e7 -2.5141755125796445e7 0.0
0.0 0.0 0.0

2.2312871435006782e6 2.32194711810367e6 0.0
2.32194711810367e6 -5.903577079813632e7 0.0
0.0 0.0 0.0

3.8885115417523403e6 2.0284827803262055e6 0.0
2.0284827803262055e6 -2.9464443944066584e7 0.0
0.0 0.0 0.0

1.1334100165599532e7 3.3838955823662445e7 0.0
3.3838955823662445e7 -6.897670676783777e6 0.0
0.0 0.0 0.0

-7.117202450017739e6 -1.068103092851966e6 0.0
-1.068103092851966e6 5.421636810905182e7 0.0
0.0 0.0 0.0

2.4626516121809017e6 8.340160710507979e6 0.0
8.340160710507979e6 -3.591739866288968e7 0.0
0.0 0.0 0.0

-5.591591624507751e6 2.0143228446330405e6 0.0
2.0143228446330405e6 7.25295485677551e7 0.0
0.0 0.0 0.0

1.2773432537963986e6 3.472256509869325e6 0.0
3.472256509869325e6 -6.734802486698873e7 0.0
0.0 0.0 0.0

-3.7549985677503934e6 2.4746557281507168e7 0.0
2.4746557281507168e7 8.101789269931363e6 0.0
0.0 0.0 0.0

-1.1327858466306664e6 1.2299628704151044e7 0.0
1.2299628704151044e7 -6.859607718010349e6 0.0
0.0 0.0 0.0

-654957.1171693276 1.7940385600401178e7 0.0
1.7940385600401178e7 -1.162055481736669e7 0.0
0.0 0.0 0.0

350706.60351864155 1.6690511871727455e7 0.0
1.6690511871727455e7 -1.9059206236029882e7 0.0
0.0 0.0 0.0

-6.427192010489337e6 -480315.0124578772 0.0
-480315.0124578772 5.935007698102519e7 0.0
0.0 0.0 0.0

2.242632437016666e6 2.140629824713818e6 0.0
2.140629824713818e6 -5.607463170546897e7 0.0
0.0 0.0 0.0

-9.694535374595301e6 1.6589007664115949e7 0.0
1.6589007664115949e7 2.339822078802439e7 0.0
0.0 0.0 0.0

-1.0902159544412065e7 1.5201516442281911e7 0.0
1.5201516442281911e7 2.2254512319437776e7 0.0
0.0 0.0 0.0

-1.172932859551802e7 1.0629306266147038e7 0.0
1.0629306266147038e7 2.748016063480292e7 0.0
0.0 0.0 0.0

-6.668528710902713e6 1.4864966118966194e7 0.0
1.4864966118966194e7 1.5677108231051799e7 0.0
0.0 0.0 0.0

3.0998545774374753e6 1.8670953683999572e7 0.0
1.8670953683999572e7 3.360762456693794e7 0.0
0.0 0.0 0.0

167401.97927627107 2.3233826487942062e7 0.0
2.3233826487942062e7 -6.701428111121475e6 0.0
0.0 0.0 0.0

-2.482253782568319e6 2.6504479096650284e7 0.0
2.6504479096650284e7 690724.2078154744 0.0
0.0 0.0 0.0

-119426.2528377152 2.4515255680128004e7 0.0
2.4515255680128004e7 -5.62688368807e6 0.0
0.0 0.0 0.0

2.637779239616913e6 1.0246998255639955e7 0.0
1.0246998255639955e7 -1.894086364589687e7 0.0
0.0 0.0 0.0

-3.8711895042719245e6 2.726147164684242e7 0.0
2.726147164684242e7 5.328255195418566e6 0.0
0.0 0.0 0.0

-1.7140589755432953e6 1.9727783288639843e7 0.0
1.9727783288639843e7 -5.195906637159086e6 0.0
0.0 0.0 0.0

1.617716035522921e6 1.4377473109790372e7 0.0
1.4377473109790372e7 -1.992091876971417e7 0.0
0.0 0.0 0.0

-9.81521143365572e6 1.4819241477697397e7 0.0
1.4819241477697397e7 2.857397804147156e7 0.0
0.0 0.0 0.0

-1.195090556178067e7 1.2585048764183449e7 0.0
1.2585048764183449e7 2.32856903431691e7 0.0
0.0 0.0 0.0

2.323068304430629e6 9.379253625944162e6 0.0
9.379253625944162e6 -2.1823087106515568e7 0.0
0.0 0.0 0.0

-8.401106852292154e6 -2.911702184981707e6 0.0
-2.911702184981707e6 3.873979665364539e7 0.0
0.0 0.0 0.0

3.528749435857285e6 1.8018637791591694e6 0.0
1.8018637791591694e6 -3.767891223900142e7 0.0
0.0 0.0 0.0

-902267.5285017397 1.8766326065788873e7 0.0
1.8766326065788873e7 2.125574441321673e7 0.0
0.0 0.0 0.0

-7.233418749234613e6 -1.297789522438376e6 0.0
-1.297789522438376e6 5.206324912386151e7 0.0
0.0 0.0 0.0

2.6903753337431103e6 1.8209052931787958e6 0.0
1.8209052931787958e6 -4.954639491020349e7 0.0
0.0 0.0 0.0

3.43229337840729e6 1.8325856515224923e6 0.0
1.8325856515224923e6 -3.873549129017776e7 0.0
0.0 0.0 0.0

-8.265811823179454e6 -2.7284029792218255e6 0.0
-2.7284029792218255e6 3.990308813211727e7 0.0
0.0 0.0 0.0

-4.568768303181713e6 1.6608474041504988e7 0.0
1.6608474041504988e7 3.579511980310564e7 0.0
0.0 0.0 0.0

2.9160429624070935e6 1.748135077149853e6 0.0
1.748135077149853e6 -4.7961710055216044e7 0.0
0.0 0.0 0.0

-7.363769199063502e6 -1.6026209306928006e6 0.0
-1.6026209306928006e6 5.001398532996659e7 0.0
0.0 0.0 0.0

-4.31723923542029e6 1.9624498624851547e7 0.0
1.9624498624851547e7 2.025054189523739e7 0.0
0.0 0.0 0.0

-9.233691601838123e6 -609026.4121147223 0.0
-609026.4121147223 3.518486157421879e7 0.0
0.0 0.0 0.0

-8.211433394874144e6 -2.558938875906768e6 0.0
-2.558938875906768e6 4.122495053521129e7 0.0
0.0 0.0 0.0

3.5626657964671943e6 1.786569439124608e6 0.0
1.786569439124608e6 -3.995936522857768e7 0.0
0.0 0.0 0.0

3.002155057580009e6 1.775603697902966e6 0.0
1.775603697902966e6 -4.641734461273013e7 0.0
0.0 0.0 0.0

-7.552011459291251e6 -1.8623660420616227e6 0.0
-1.8623660420616227e6 4.8239892440132424e7 0.0
0.0 0.0 0.0

-2.6011090176056403e8 5.824996471529863e7 0.0
5.824996471529863e7 -3.0103335893209457e7 0.0
0.0 0.0 0.0

2.3685255620807284e8 4.710857267237483e7 0.0
4.710857267237483e7 2.146948718123866e7 0.0
0.0 0.0 0.0

-8.877979095143234e6 1.4883540002410565e7 0.0
1.4883540002410565e7 1.601497501458604e7 0.0
0.0 0.0 0.0

2.955922388541367e6 1.6975545076570287e6 0.0
1.6975545076570287e6 -4.491611660982562e7 0.0
0.0 0.0 0.0

-7.800875022035465e6 -1.9946863134403946e6 0.0
-1.9946863134403946e6 4.678118090621428e7 0.0
0.0 0.0 0.0

227134.9340569892 1.7853919783539664e7 0.0
1.7853919783539664e7 -1.5044243740164824e6 0.0
0.0 0.0 0.0

-1.1651411842084037e7 1.3665280374740563e7 0.0
1.3665280374740563e7 2.2488589727989845e7 0.0
0.0 0.0 0.0

-2.4703421251882752e6 2.524311668079468e7 0.0
2.524311668079468e7 3.4308036535276603e6 0.0
0.0 0.0 0.0

-147547.02700702194 1.928938784265522e7 0.0
1.928938784265522e7 2.201643801196089e7 0.0
0.0 0.0 0.0

-7.885785062869627e6 -2.0963257322463728e6 0.0
-2.0963257322463728e6 4.5268561760883555e7 0.0
0.0 0.0 0.0

3.1832191853565946e6 1.5962517313207602e6 0.0
1.5962517313207602e6 -4.3691449823145084e7 0.0
0.0 0.0 0.0

-748646.8704718046 2.3347939492359925e7 0.0
2.3347939492359925e7 -6.57793610831121e6 0.0
0.0 0.0 0.0

-7.437622005130053e6 1.6970663929350115e7 0.0
1.6970663929350115e7 -5.252335056598848e7 0.0
0.0 0.0 0.0

-1.365248402421691e6 2.60540462922558e7 0.0
2.60540462922558e7 -2.2201779768904587e6 0.0
0.0 0.0 0.0

1.1368940197466994e6 1.5975763179574328e7 0.0
1.5975763179574328e7 -1.6601056247661708e7 0.0
0.0 0.0 0.0

606505.8663659953 1.496070598645135e7 0.0
1.496070598645135e7 -2.2976679226584103e7 0.0
0.0 0.0 0.0

-351150.04866120545 1.8663527404208273e7 0.0
1.8663527404208273e7 6.369289641250951e6 0.0
0.0 0.0 0.0

1.3033584303170317e6 2.3242392409010574e7 0.0
2.3242392409010574e7 -7.973627061053316e6 0.0
0.0 0.0 0.0

530516.7081953208 2.1321034907817315e7 0.0
2.1321034907817315e7 -1.0157167029391853e7 0.0
0.0 0.0 0.0

-5.082943104403443e6 1.5829732298178416e7 0.0
1.5829732298178416e7 -4.0565336929231375e7 0.0
0.0 0.0 0.0

-1.836249107430277e6 2.622552594803317e7 0.0
2.622552594803317e7 1.1189867306276716e6 0.0
0.0 0.0 0.0

-3.596797245216567e6 2.1745915132758398e7 0.0
2.1745915132758398e7 9.079107216036642e6 0.0
0.0 0.0 0.0

-6.646906247193257e6 2.288693181344432e7 0.0
2.288693181344432e7 -1.0328939118923962e7 0.0
0.0 0.0 0.0

314621.97327541746 1.5390514691645147e7 0.0
1.5390514691645147e7 -2.2977368383332916e7 0.0
0.0 0.0 0.0

-1.1854784506931562e7 1.238635255523412e7 0.0
1.238635255523412e7 1.9626405735160556e7 0.0
0.0 0.0 0.0

2.1063911916350876e6 1.7694988410107356e7 0.0
1.7694988410107356e7 1.1025587580511123e7 0.0
0.0 0.0 0.0

-1.1014037203545019e7 1.3949010615213515e7 0.0
1.3949010615213515e7 1.952158060275109e7 0.0
0.0 0.0 0.0

-2.008339593204886e6 1.821772771270726e7 0.0
1.821772771270726e7 -2.399343979390421e6 0.0
0.0 0.0 0.0

-2.050114734530005e6 2.59676209483906e7 0.0
2.59676209483906e7 1.9464645717040887e6 0.0
0.0 0.0 0.0

-1.726778264512767e6 1.5627664547398375e7 0.0
1.5627664547398375e7 -2.8475388744737394e7 0.0
0.0 0.0 0.0

-3.3377641567109916e6 1.9702968639958356e7 0.0
1.9702968639958356e7 1.97197355477189e7 0.0
0.0 0.0 0.0

-1.3827731023940155e6 3.3319792041737087e7 0.0
3.3319792041737087e7 1.6379411937693805e6 0.0
0.0 0.0 0.0

-2.8133617193499426e6 1.8596316346999608e7 0.0
1.8596316346999608e7 -3.0209418365278607e6 0.0
0.0 0.0 0.0

-982152.4578695262 2.4498011230016984e7 0.0
2.4498011230016984e7 -4.744634593496841e6 0.0
0.0 0.0 0.0

1.4518245221334081e7 2.2370031231218122e7 0.0
2.2370031231218122e7 1.0956857209906882e7 0.0
0.0 0.0 0.0

-2.2940149814213403e6 2.5630227693504583e7 0.0
2.5630227693504583e7 2.6471013928622436e6 0.0
0.0 0.0 0.0

-8.80077303187365e6 1.5523630874485457e7 0.0
1.5523630874485457e7 1.0397212654384742e6 0.0
0.0 0.0 0.0

-1.729298430672905e6 2.7893817509179197e7 0.0
2.7893817509179197e7 1.2687083805356263e6 0.0
0.0 0.0 0.0

4.070216087948246e6 2.293078695605487e6 0.0
2.293078695605487e6 -2.3366113868853696e7 0.0
0.0 0.0 0.0

4.126424744351103e6 2.362660563328339e6 0.0
2.362660563328339e6 -2.2508060860357057e7 0.0
0.0 0.0 0.0

-800214.9642276564 2.394943450047847e7 0.0
2.394943450047847e7 -5.494507475076164e6 0.0
0.0 0.0 0.0

640281.3627908342 1.885455275202808e7 0.0
1.885455275202808e7 2.8228171236901704e7 0.0
0.0 0.0 0.0

-1.2493519785458557e6 2.869490447252123e7 0.0
2.869490447252123e7 788553.8984845146 0.0
0.0 0.0 0.0

-1.1924500521882767e7 1.0954824247029321e7 0.0
1.0954824247029321e7 2.575577691281472e7 0.0
0.0 0.0 0.0

-1.180122367567723e6 3.1188299212654486e7 0.0
3.1188299212654486e7 1.085536031032199e6 0.0
0.0 0.0 0.0

-3.1403985859391047e6 2.0421215936596096e7 0.0
2.0421215936596096e7 1.2106277584310072e7 0.0
0.0 0.0 0.0

-52277.35390066658 1.7032060691505168e7 0.0
1.7032060691505168e7 4.61235824962344e6 0.0
0.0 0.0 0.0

1.8839109502929486e6 1.2210324089583373e7 0.0
1.2210324089583373e7 -2.6366499515379585e7 0.0
0.0 0.0 0.0

-3.269868579159626e6 2.514095828134198e7 0.0
2.514095828134198e7 3.736371231264704e6 0.0
0.0 0.0 0.0

-9.168439611356292e6 -3.2676644015067415e6 0.0
-3.2676644015067415e6 2.5277024180336863e7 0.0
0.0 0.0 0.0

-4.725431354229532e6 1.5744347940782983e7 0.0
1.5744347940782983e7 3.767941326923394e7 0.0
0.0 0.0 0.0

-4.484814013682835e6 1.5417995537852783e7 0.0
1.5417995537852783e7 -4.573310612823268e7 0.0
0.0 0.0 0.0

-1.0867500343860865e7 1.1914290873951415e7 0.0
1.1914290873951415e7 2.9121278793651674e7 0.0
0.0 0.0 0.0

5.220370610367719e6 2.3924270189365324e7 0.0
2.3924270189365324e7 -5.813325478422008e6 0.0
0.0 0.0 0.0

1.955710499096265e6 1.2745194353344819e7 0.0
1.2745194353344819e7 -2.345661079502355e7 0.0
0.0 0.0 0.0

-3.05591164628801e6 1.82530252997077e7 0.0
1.82530252997077e7 -2.0497972935068738e6 0.0
0.0 0.0 0.0

-1.1754762531969724e6 2.5586993615296327e7 0.0
2.5586993615296327e7 -3.027167431054538e6 0.0
0.0 0.0 0.0

-628871.6575917779 1.7294487339389734e7 0.0
1.7294487339389734e7 -5.301082189032766e6 0.0
0.0 0.0 0.0

-1.1471393125912087e7 1.2032438249124251e7 0.0
1.2032438249124251e7 2.3476039525897875e7 0.0
0.0 0.0 0.0

-1.0369559277852591e7 1.3947924093236158e7 0.0
1.3947924093236158e7 2.8256442854346316e7 0.0
0.0 0.0 0.0

-1.0646265847012931e6 2.505263040999694e7 0.0
2.505263040999694e7 -3.890349588721031e6 0.0
0.0 0.0 0.0

-8.029056478256434e6 1.4100701444072094e7 0.0
1.4100701444072094e7 1.739721285816179e7 0.0
0.0 0.0 0.0

3.3587704660490192e6 4.42110786518291e6 0.0
4.42110786518291e6 -3.715815688237619e7 0.0
0.0 0.0 0.0

-6.650677555440713e6 1.6745614486561362e7 0.0
1.6745614486561362e7 1.3724541377810054e7 0.0
0.0 0.0 0.0

-1.4222016908045644e6 1.7240577128466424e7 0.0
1.7240577128466424e7 -1.0791253777678285e7 0.0
0.0 0.0 0.0

415061.029015804 1.8101454799665995e7 0.0
1.8101454799665995e7 1.3026834374156957e6 0.0
0.0 0.0 0.0

-3.213650672242724e6 1.9776576053682912e7 0.0
1.9776576053682912e7 -1.1783133690568868e7 0.0
0.0 0.0 0.0

-1.8239266063923987e6 1.8037876761937484e7 0.0
1.8037876761937484e7 -7.296822496338884e6 0.0
0.0 0.0 0.0

569200.1975490395 1.5424360479886452e7 0.0
1.5424360479886452e7 -2.163337002454998e7 0.0
0.0 0.0 0.0

2.561018607027661e6 8.165732768757146e6 0.0
8.165732768757146e6 -2.7361628145556856e7 0.0
0.0 0.0 0.0

-1.070825912938548e6 1.7251511496889886e7 0.0
1.7251511496889886e7 -8.065622635800687e6 0.0
0.0 0.0 0.0

1.8825721293624584e6 1.0691841058486115e7 0.0
1.0691841058486115e7 -1.9647843619783957e7 0.0
0.0 0.0 0.0

3.8756508549895436e6 3.9631317805508045e6 0.0
3.9631317805508045e6 -1.8176778791031744e7 0.0
0.0 0.0 0.0

-2.923441724516778e6 2.593167516627452e7 0.0
2.593167516627452e7 2.150450778894146e6 0.0
0.0 0.0 0.0

-1.0180994433487013e6 1.2755629309344396e7 0.0
1.2755629309344396e7 -8.142197301671221e6 0.0
0.0 0.0 0.0

-4.0313862214027876e6 1.993172254437043e7 0.0
1.993172254437043e7 1.7501336380579807e7 0.0
0.0 0.0 0.0

-6.20282984668239e6 -6.29515945755818e6 0.0
-6.29515945755818e6 1.4931347780286143e7 0.0
0.0 0.0 0.0

3.4602003238464626e6 1.9545219361974634e7 0.0
1.9545219361974634e7 1.857324809235897e6 0.0
0.0 0.0 0.0

-4.387066972605681e6 2.0145817652321775e7 0.0
2.0145817652321775e7 -1.2681948955869667e7 0.0
0.0 0.0 0.0

2.512559379049412e6 8.656064545500936e6 0.0
8.656064545500936e6 -2.287591818884273e7 0.0
0.0 0.0 0.0

-9.900851479029308e7 1.6471826749360217e7 0.0
1.6471826749360217e7 5.140979690652367e6 0.0
0.0 0.0 0.0

-5.772613350573895e6 1.9089719047460373e7 0.0
1.9089719047460373e7 2.0968827314777203e7 0.0
0.0 0.0 0.0

658337.5521988776 1.8436007723484926e7 0.0
1.8436007723484926e7 -1.4246636316701554e7 0.0
0.0 0.0 0.0

-1.343896538939123e6 1.653802011288048e7 0.0
1.653802011288048e7 -8.867686858374497e6 0.0
0.0 0.0 0.0

1.4290821957243495e6 1.3839381832894294e7 0.0
1.3839381832894294e7 -2.3996361377389982e7 0.0
0.0 0.0 0.0

890887.2838910837 1.8279692044627316e7 0.0
1.8279692044627316e7 1.1223857727429079e7 0.0
0.0 0.0 0.0

1.1971697440704722e6 1.2588940664911257e7 0.0
1.2588940664911257e7 -2.9782082095049053e7 0.0
0.0 0.0 0.0

1.0292382450471879e6 1.8604043019626044e7 0.0
1.8604043019626044e7 1.304084591973105e7 0.0
0.0 0.0 0.0

290410.4128989428 1.671996088949088e7 0.0
1.671996088949088e7 -1.5847455899903605e7 0.0
0.0 0.0 0.0

3.1902659871704923e6 8.418283612967333e6 0.0
8.418283612967333e6 -2.426062313024161e7 0.0
0.0 0.0 0.0

2.9298520591682103e6 2.5879062970609115e6 0.0
2.5879062970609115e6 -4.276101459499449e7 0.0
0.0 0.0 0.0

3.288972625059346e6 2.5511001632690072e7 0.0
2.5511001632690072e7 -5.893969171601506e6 0.0
0.0 0.0 0.0

1.6402966478464901e6 1.2345635900677145e7 0.0
1.2345635900677145e7 -2.8078416266414113e7 0.0
0.0 0.0 0.0

-3.9971733499519583e6 2.6606812086227924e7 0.0
2.6606812086227924e7 5.995114540319376e6 0.0
0.0 0.0 0.0

-7.421078446201732e6 2.15139003693481e7 0.0
2.15139003693481e7 1.7417148605165612e6 0.0
0.0 0.0 0.0

2.4790482600822574e6 7.9398764128476195e6 0.0
7.9398764128476195e6 -1.1577062401465181e7 0.0
0.0 0.0 0.0

-1.7677811596538946e6 3.4179293166896574e7 0.0
3.4179293166896574e7 1.9487217679514787e6 0.0
0.0 0.0 0.0

2.9247835151770385e6 9.40398510527524e6 0.0
9.40398510527524e6 -2.1647545646471255e7 0.0
0.0 0.0 0.0

-574184.9531623144 1.7599812236375734e7 0.0
1.7599812236375734e7 3.826644020531494e7 0.0
0.0 0.0 0.0

-716519.5794392328 1.8821285180327065e7 0.0
1.8821285180327065e7 1.729490758321953e6 0.0
0.0 0.0 0.0

-6.829237116008637e6 2.7739168612643126e7 0.0
2.7739168612643126e7 6.329412157138798e6 0.0
0.0 0.0 0.0

-1.049471970014017e7 1.3255496601799423e7 0.0
1.3255496601799423e7 2.088731773159136e7 0.0
0.0 0.0 0.0

1.167811387843268e6 1.3523694968698235e7 0.0
1.3523694968698235e7 -2.4079800913701247e7 0.0
0.0 0.0 0.0

-2.684060035243377e6 1.1072149585139738e7 0.0
1.1072149585139738e7 -2.1851610428610863e6 0.0
0.0 0.0 0.0

-1.0687567188757164e6 1.859754602761522e7 0.0
1.859754602761522e7 -6.411810885684177e6 0.0
0.0 0.0 0.0

1.182114736166641e7 2.0269765632909678e7 0.0
2.0269765632909678e7 2.5350663662683526e6 0.0
0.0 0.0 0.0

628829.5533939451 1.83987787262544e7 0.0
1.83987787262544e7 -1.5624243534444315e7 0.0
0.0 0.0 0.0

816220.0158729842 9.057597960560422e6 0.0
9.057597960560422e6 -6.19380892007107e6 0.0
0.0 0.0 0.0

829650.2225530185 1.448699561298727e7 0.0
1.448699561298727e7 -2.2909584260052644e7 0.0
0.0 0.0 0.0

-9.245654100587422e6 -2.3855255796404867e6 0.0
-2.3855255796404867e6 3.0881626460399393e7 0.0
0.0 0.0 0.0

-4.085723426271081e6 2.0670119557526413e7 0.0
2.0670119557526413e7 1.5486932543102676e7 0.0
0.0 0.0 0.0

-1.1317480045679543e7 1.4292172557683703e7 0.0
1.4292172557683703e7 2.314435172121846e7 0.0
0.0 0.0 0.0

-1.54098882284513e7 2.5093801968609545e7 0.0
2.5093801968609545e7 -5.520090841921e6 0.0
0.0 0.0 0.0

-4.650744082860975e6 1.6125135532322682e7 0.0
1.6125135532322682e7 -3.88710466249739e7 0.0
0.0 0.0 0.0

-3.265513864436521e6 2.412659797808917e7 0.0
2.412659797808917e7 7.75745722705048e6 0.0
0.0 0.0 0.0

-4.465685541046103e6 2.515004444452761e7 0.0
2.515004444452761e7 7.493058892509335e6 0.0
0.0 0.0 0.0

1.301053074104447e6 2.1492388035793558e7 0.0
2.1492388035793558e7 -9.828113543658156e6 0.0
0.0 0.0 0.0

-2.822381356532747e6 1.4688864662165606e7 0.0
1.4688864662165606e7 -4.028666337054619e7 0.0
0.0 0.0 0.0

-3.526665679619793e6 1.9536627425591733e7 0.0
1.9536627425591733e7 1.7948557139598094e7 0.0
0.0 0.0 0.0

-9.32769245027979e6 5.270269644441084e6 0.0
5.270269644441084e6 4.1244788701854005e7 0.0
0.0 0.0 0.0

2.3968928844011226e6 2.9562294631050397e6 0.0
2.9562294631050397e6 -7.235459660606025e6 0.0
0.0 0.0 0.0

-1.0774012941403668e6 1.680420004300807e7 0.0
1.680420004300807e7 -2.1070514514394317e7 0.0
0.0 0.0 0.0

1.160493650236438e6 2.2507302813339174e7 0.0
2.2507302813339174e7 -8.803997697947167e6 0.0
0.0 0.0 0.0

-2.044541825841277e6 1.9145003459658366e7 0.0
1.9145003459658366e7 -2.142423054521883e6 0.0
0.0 0.0 0.0

-561700.8269258426 1.5366413957647638e7 0.0
1.5366413957647638e7 -1.1216183359129773e7 0.0
0.0 0.0 0.0

-7.625810358240345e6 1.6981618411483835e7 0.0
1.6981618411483835e7 -3.1232748538814664e7 0.0
0.0 0.0 0.0

-1.1243252076923182e7 1.2890483812248453e7 0.0
1.2890483812248453e7 2.687442868537409e7 0.0
0.0 0.0 0.0

-282552.36307634326 2.8476397864037022e7 0.0
2.8476397864037022e7 -588924.8683380202 0.0
0.0 0.0 0.0

-2.2176281428341635e7 2.532172106174479e7 0.0
2.532172106174479e7 -783053.3048702553 0.0
0.0 0.0 0.0

3.8004452587490133e6 2.0086100988331143e7 0.0
2.0086100988331143e7 2.1021229778865334e6 0.0
0.0 0.0 0.0

1.8823779312242828e6 7.780687631618012e6 0.0
7.780687631618012e6 -1.3490188863377096e7 0.0
0.0 0.0 0.0

-2.254090704952346e6 1.8783603510456398e7 0.0
1.8783603510456398e7 -1.1987599685194409e6 0.0
0.0 0.0 0.0

-1.0529661992586758e7 1.023060553624277e7 0.0
1.023060553624277e7 3.2612205801813662e7 0.0
0.0 0.0 0.0

-5.109232129978627e6 2.829231232360822e7 0.0
2.829231232360822e7 5.286992375545477e6 0.0
0.0 0.0 0.0

-4.169134681900042e6 1.9583427959268283e7 0.0
1.9583427959268283e7 1.8712498251323353e7 0.0
0.0 0.0 0.0

-2.1467566324031637e6 2.671850734156949e7 0.0
2.671850734156949e7 10926.03561623278 0.0
0.0 0.0 0.0

491222.5074820323 1.6187953713191524e7 0.0
1.6187953713191524e7 -1.693113475398366e7 0.0
0.0 0.0 0.0

-1.0174821778335562e7 1.2121251028780915e7 0.0
1.2121251028780915e7 3.1919537479249053e7 0.0
0.0 0.0 0.0

122894.71861234587 1.7014768519155324e7 0.0
1.7014768519155324e7 -1.8946369713897947e7 0.0
0.0 0.0 0.0

-5.964989277991218e6 2.106622972786234e7 0.0
2.106622972786234e7 -3.813848591700299e6 0.0
0.0 0.0 0.0

-304705.2393304298 2.895632687946072e7 0.0
2.895632687946072e7 -676467.91976821 0.0
0.0 0.0 0.0

3.385873510802133e6 4.976586117264117e6 0.0
4.976586117264117e6 -1.9256205558466967e7 0.0
0.0 0.0 0.0

1.567983386324469e6 2.0999216130054086e7 0.0
2.0999216130054086e7 -8.800742213046458e6 0.0
0.0 0.0 0.0

-3.0496562064098176e6 2.403158334955397e7 0.0
2.403158334955397e7 6.959338464535537e6 0.0
0.0 0.0 0.0

-1.1199579202767633e7 1.2352360053173369e7 0.0
1.2352360053173369e7 2.1877598913803957e7 0.0
0.0 0.0 0.0

-5.0350225222061705e6 2.221353782601742e7 0.0
2.221353782601742e7 -9.217907154631816e6 0.0
0.0 0.0 0.0

-1.0484014128556121e7 1.48632837895171e7 0.0
1.48632837895171e7 2.6155130989194065e7 0.0
0.0 0.0 0.0

-2.456255070564874e6 6.078006969165969e6 0.0
6.078006969165969e6 5.866812090555701e6 0.0
0.0 0.0 0.0

-2.9740095788312377e6 2.33662773154805e7 0.0
2.33662773154805e7 7.092841289563583e6 0.0
0.0 0.0 0.0

-1.2182012770202398e7 1.1372866445360582e7 0.0
1.1372866445360582e7 2.4111854389924906e7 0.0
0.0 0.0 0.0

-4.707416245786742e6 1.965207780775564e7 0.0
1.965207780775564e7 1.2003144340311809e7 0.0
0.0 0.0 0.0

3.571070679735124e6 1.833895485194613e7 0.0
1.833895485194613e7 2.8908206835681677e7 0.0
0.0 0.0 0.0

-1.8432140048718862e6 1.4576459179403353e7 0.0
1.4576459179403353e7 -3.552062493935113e7 0.0
0.0 0.0 0.0

-5.7588336503811525e6 -6.414057240005462e6 0.0
-6.414057240005462e6 1.3658048589685304e7 0.0
0.0 0.0 0.0

7.14883292626119e6 2.5429102536828008e7 0.0
2.5429102536828008e7 -5.213769303090373e6 0.0
0.0 0.0 0.0

-1.1115784515587807e7 1.0918640278586546e7 0.0
1.0918640278586546e7 2.8592604786279295e7 0.0
0.0 0.0 0.0

458969.31344810594 1.3288876036587477e7 0.0
1.3288876036587477e7 -1.379974540200213e7 0.0
0.0 0.0 0.0

-2.988614034084537e6 1.9602118161794357e7 0.0
1.9602118161794357e7 1.5580915415379252e7 0.0
0.0 0.0 0.0

-964850.259713521 1.770142153343567e7 0.0
1.770142153343567e7 -6.768181132193381e6 0.0
0.0 0.0 0.0

-5.169083254387613e6 2.024160078930963e7 0.0
2.024160078930963e7 1.7005632006236542e7 0.0
0.0 0.0 0.0

58588.84065593267 1.1144048008776499e7 0.0
1.1144048008776499e7 -7.661533332593004e6 0.0
0.0 0.0 0.0

-6.015631112377507e6 2.311425777531561e7 0.0
2.311425777531561e7 6.791713155284353e6 0.0
0.0 0.0 0.0

-4.686355153589237e6 1.9847731208126087e7 0.0
1.9847731208126087e7 1.2881204555078916e7 0.0
0.0 0.0 0.0

1.1760489380556406e6 2.0798964148890324e7 0.0
2.0798964148890324e7 -1.0107185740265144e7 0.0
0.0 0.0 0.0

-3.4645214749176847e6 2.423328372011882e7 0.0
2.423328372011882e7 5.551174368151249e6 0.0
0.0 0.0 0.0

-1.1581927862249007e6 2.9282039389718648e7 0.0
2.9282039389718648e7 912382.1293966525 0.0
0.0 0.0 0.0

-1.4011321087526511e6 1.4651294329388192e7 0.0
1.4651294329388192e7 -3.092745241954594e7 0.0
0.0 0.0 0.0

1.1982175237469426e6 2.786817599284563e6 0.0
2.786817599284563e6 -2.314154614786574e6 0.0
0.0 0.0 0.0

-7.379380487696037e6 969923.2969623592 0.0
969923.2969623592 8.664953643167213e6 0.0
0.0 0.0 0.0

2.2968642001220696e6 4.087078497084141e6 0.0
4.087078497084141e6 -5.310706114196248e7 0.0
0.0 0.0 0.0

-390420.97199376626 2.2411621916099105e7 0.0
2.2411621916099105e7 -6.63297412712803e6 0.0
0.0 0.0 0.0

-4.736360352339313e6 1.9519685012850087e7 0.0
1.9519685012850087e7 1.9288123889610622e7 0.0
0.0 0.0 0.0

-1.1925939618333114e7 1.2882728635003945e7 0.0
1.2882728635003945e7 2.182605239313068e7 0.0
0.0 0.0 0.0

-2.2878947247875277e6 3.514339260749462e7 0.0
3.514339260749462e7 2.204680931675371e6 0.0
0.0 0.0 0.0

-1.1597920403640596e7 9.142828734207505e6 0.0
9.142828734207505e6 2.8797319437666204e7 0.0
0.0 0.0 0.0

3.549701789606517e7 6.091425514066799e7 0.0
6.091425514066799e7 -6.241210336209623e6 0.0
0.0 0.0 0.0

52177.22907621693 2.0247652409636144e7 0.0
2.0247652409636144e7 -1.1809420999250578e7 0.0
0.0 0.0 0.0

1.4312707339835549e6 1.4889307135170162e7 0.0
1.4889307135170162e7 -1.8791966263880126e7 0.0
0.0 0.0 0.0

-3.981103439910732e6 2.0274676063182212e7 0.0
2.0274676063182212e7 1.6119475134269014e7 0.0
0.0 0.0 0.0

-1.0972500825248027e7 1.1511684520116176e7 0.0
1.1511684520116176e7 3.002361507081536e7 0.0
0.0 0.0 0.0

225312.96289237868 2.1883664443835374e7 0.0
2.1883664443835374e7 -8.716887129287591e6 0.0
0.0 0.0 0.0

590867.5509104041 1.8427761223748095e7 0.0
1.8427761223748095e7 4.031859507734158e6 0.0
0.0 0.0 0.0

3.4055372324246373e6 2.7198120498080575e6 0.0
2.7198120498080575e6 -3.387713418268263e7 0.0
0.0 0.0 0.0

-8.681401572691638e6 8.0345893344026385e6 0.0
8.0345893344026385e6 1.5235577656864807e7 0.0
0.0 0.0 0.0

-3.664926650467738e6 3.7840482968663715e7 0.0
3.7840482968663715e7 3.32189887970505e6 0.0
0.0 0.0 0.0

-5.480875933977521e6 1.942355269083739e7 0.0
1.942355269083739e7 2.077413247908438e7 0.0
0.0 0.0 0.0

-1.6100266406143853e6 1.7270382499389187e7 0.0
1.7270382499389187e7 -1.751623598947416e7 0.0
0.0 0.0 0.0

6.277796070000526e6 1.9990125521319676e7 0.0
1.9990125521319676e7 6.718583574218513e6 0.0
0.0 0.0 0.0

-9.882314850458562e6 3.4178013870640304e6 0.0
3.4178013870640304e6 1.4931069813590314e7 0.0
0.0 0.0 0.0

-5.699132303227446e6 1.1377908656614609e7 0.0
1.1377908656614609e7 5.534335733275788e6 0.0
0.0 0.0 0.0

-1.7196494526605224e6 1.71789382062598e7 0.0
1.71789382062598e7 -1.3462844739902876e7 0.0
0.0 0.0 0.0

164880.27396835247 1.6326456888290422e7 0.0
1.6326456888290422e7 -1.1098381331081415e7 0.0
0.0 0.0 0.0

-6.8509879554445315e6 1.8410962205759335e7 0.0
1.8410962205759335e7 1.7226179113186788e7 0.0
0.0 0.0 0.0

-1.392424664548193e6 1.6542110816551497e7 0.0
1.6542110816551497e7 -2.2536688744823955e7 0.0
0.0 0.0 0.0

1.799954243447708e6 1.2760780874588663e7 0.0
1.2760780874588663e7 -2.5035846647132803e7 0.0
0.0 0.0 0.0

-3.508150780193409e6 2.416978240757933e7 0.0
2.416978240757933e7 8.412321129265951e6 0.0
0.0 0.0 0.0

744809.4309882633 1.6707269673554923e7 0.0
1.6707269673554923e7 -1.9122211909212414e7 0.0
0.0 0.0 0.0

-1.1042429611135945e7 1.357606832722414e7 0.0
1.357606832722414e7 2.464739933170705e7 0.0
0.0 0.0 0.0

3.5193832933499943e6 5.285357998236729e6 0.0
5.285357998236729e6 -1.3982581855901554e7 0.0
0.0 0.0 0.0

-2.9841278695369676e7 3.0804524989567854e7 0.0
3.0804524989567854e7 -1.010334041621536e7 0.0
0.0 0.0 0.0

1.5109658677666732e6 7.252109300522485e6 0.0
7.252109300522485e6 -1.0794946087621918e7 0.0
0.0 0.0 0.0

3.772748096780328e6 2.8419122251040367e6 0.0
2.8419122251040367e6 -1.3759265954505306e7 0.0
0.0 0.0 0.0

-4.764066328615017e6 2.5041027318436995e7 0.0
2.5041027318436995e7 7.9793354520392595e6 0.0
0.0 0.0 0.0

1.9113387423587667e6 1.7302797397159692e7 0.0
1.7302797397159692e7 6.371129674120266e6 0.0
0.0 0.0 0.0

4.058967820453556e6 2.052196529092776e7 0.0
2.052196529092776e7 -2.3177368983250363e6 0.0
0.0 0.0 0.0

-5.891881816525806e6 1.79222284698278e7 0.0
1.79222284698278e7 2.6230165809513308e7 0.0
0.0 0.0 0.0

-3.0297913487254195e6 1.826120029108505e7 0.0
1.826120029108505e7 2.818883858778411e7 0.0
0.0 0.0 0.0

9.97537568486188e6 1.769782090377125e7 0.0
1.769782090377125e7 4.967777100184343e7 0.0
0.0 0.0 0.0

204993.73566198233 1.7721040082719386e7 0.0
1.7721040082719386e7 -3.6192609534314782e6 0.0
0.0 0.0 0.0

-4.397992641757167e6 2.018824438247023e7 0.0
2.018824438247023e7 1.690057370527418e7 0.0
0.0 0.0 0.0

-5.718962426428559e6 1.7433537263654295e7 0.0
1.7433537263654295e7 1.2024038831398003e7 0.0
0.0 0.0 0.0

-1.9710934782582829e6 1.7130598422210906e7 0.0
1.7130598422210906e7 -1.6127372188209169e7 0.0
0.0 0.0 0.0

-3.684005297321397e6 2.4420316579000216e7 0.0
2.4420316579000216e7 6.330673812932009e6 0.0
0.0 0.0 0.0

-1.1390554532122826e7 1.1626294606957844e7 0.0
1.1626294606957844e7 2.802346615195533e7 0.0
0.0 0.0 0.0

1.1141258188425994e7 2.3989959558800507e7 0.0
2.3989959558800507e7 -4.032933620590942e6 0.0
0.0 0.0 0.0

386385.7407241459 2.0698798872105036e7 0.0
2.0698798872105036e7 -1.0757235270090826e7 0.0
0.0 0.0 0.0

2.8493185720295664e6 6.920007409790065e6 0.0
6.920007409790065e6 -2.268972038844801e7 0.0
0.0 0.0 0.0

3.6672912412389363e6 2.2289924990928657e7 0.0
2.2289924990928657e7 -6.762799318272108e6 0.0
0.0 0.0 0.0

-1.127310964199737e6 2.563384888274034e7 0.0
2.563384888274034e7 -1.2187302336236103e6 0.0
0.0 0.0 0.0

-6.245772629185113e6 1.7729247888908833e7 0.0
1.7729247888908833e7 -2.0819247761453655e7 0.0
0.0 0.0 0.0

8.152510513239857e6 1.96033690173917e7 0.0
1.96033690173917e7 2.7175043918453176e7 0.0
0.0 0.0 0.0

-8.841060625447625e6 -665859.5026766838 0.0
-665859.5026766838 4.014455280097453e7 0.0
0.0 0.0 0.0

1.1163264139163573e6 2.001630759835165e7 0.0
2.001630759835165e7 6.370962646941986e6 0.0
0.0 0.0 0.0

-9.127648903841162e6 -1.9933722060387733e6 0.0
-1.9933722060387733e6 3.287258398538068e7 0.0
0.0 0.0 0.0

-19245.740856569028 2.6091923706657756e7 0.0
2.6091923706657756e7 -2.9894870801755837e6 0.0
0.0 0.0 0.0

3.044274370811854e6 2.4603656792519186e7 0.0
2.4603656792519186e7 -6.417090456314053e6 0.0
0.0 0.0 0.0

-2.992412530430746e6 3.6319738514889665e7 0.0
3.6319738514889665e7 2.362653253258571e6 0.0
0.0 0.0 0.0

7.68141934421415e6 1.860966041186071e7 0.0
1.860966041186071e7 8.097421873118397e6 0.0
0.0 0.0 0.0

-1.0879272187783258e7 1.0574943850768216e7 0.0
1.0574943850768216e7 3.0521866406298943e7 0.0
0.0 0.0 0.0

-224503.8764856939 2.6602021370715596e7 0.0
2.6602021370715596e7 -2.1130267488374496e6 0.0
0.0 0.0 0.0

-4.363485570501597e6 2.0530103967087384e7 0.0
2.0530103967087384e7 1.1452304371462496e7 0.0
0.0 0.0 0.0

-3.4805984239748535e6 2.3064410707360607e7 0.0
2.3064410707360607e7 6.626087677220814e6 0.0
0.0 0.0 0.0

2.10315827577094e6 8.747415763893854e6 0.0
8.747415763893854e6 -3.846124845708703e7 0.0
0.0 0.0 0.0

-3.7810486818453046e6 2.4081601414258186e7 0.0
2.4081601414258186e7 9.133226851168206e6 0.0
0.0 0.0 0.0

1.3937133153458793e7 1.5872584413214777e7 0.0
1.5872584413214777e7 4.024400549956183e6 0.0
0.0 0.0 0.0

1.8427548933794936e6 1.3314774869610397e7 0.0
1.3314774869610397e7 -2.225088723745186e7 0.0
0.0 0.0 0.0

-7.258265977389123e6 2.516823560596805e6 0.0
2.516823560596805e6 5.688013227276163e7 0.0
0.0 0.0 0.0

-1.386714701758301e6 2.759463982239129e7 0.0
2.759463982239129e7 617869.5838412978 0.0
0.0 0.0 0.0

2.467666895334133e6 2.0279026727937654e7 0.0
2.0279026727937654e7 6.002197771585991e6 0.0
0.0 0.0 0.0

-8.349087679489681e7 7.488372560227893e7 0.0
7.488372560227893e7 -1.2107905817801513e7 0.0
0.0 0.0 0.0

3.4821463228101525e6 4.141989561659618e6 0.0
4.141989561659618e6 -1.8471292075914398e7 0.0
0.0 0.0 0.0

-2.2484039758281647e6 1.9693348854310136e7 0.0
1.9693348854310136e7 -974882.7951240491 0.0
0.0 0.0 0.0

-1.5764872862409376e7 2.609607500658243e7 0.0
2.609607500658243e7 3.4581485062668547e6 0.0
0.0 0.0 0.0

-313206.3787740264 1.900659415354181e7 0.0
1.900659415354181e7 -1.381484259666668e7 0.0
0.0 0.0 0.0

160028.95826809248 2.016883949608232e7 0.0
2.016883949608232e7 -1.2250865645656494e7 0.0
0.0 0.0 0.0

9.438689646057226e6 2.1047112966535598e7 0.0
2.1047112966535598e7 248293.97574367933 0.0
0.0 0.0 0.0

-3.0035129971266286e6 3.126022311706392e7 0.0
3.126022311706392e7 2.8892227510080105e6 0.0
0.0 0.0 0.0

-3.3442233581585526e6 2.0168851597800184e7 0.0
2.0168851597800184e7 -1.128867746827822e7 0.0
0.0 0.0 0.0

3.0368070668470953e6 5.034077211123226e6 0.0
5.034077211123226e6 -4.07924852255556e7 0.0
0.0 0.0 0.0

-2.774048833258134e7 2.8196538030186206e7 0.0
2.8196538030186206e7 -6.572243135028613e6 0.0
0.0 0.0 0.0

-3.728255463295768e6 1.9943781963602673e7 0.0
1.9943781963602673e7 1.2463710265129065e7 0.0
0.0 0.0 0.0

2.7542283649947746e6 2.376600123951355e7 0.0
2.376600123951355e7 -6.962622226414397e6 0.0
0.0 0.0 0.0

-1.1903069995329212e6 1.7683225894174267e7 0.0
1.7683225894174267e7 3.588536368333991e7 0.0
0.0 0.0 0.0

1.237950455005901e7 2.2606286965962045e7 0.0
2.2606286965962045e7 -3.13827416274336e6 0.0
0.0 0.0 0.0

-4.131829096508026e6 2.251843951048031e7 0.0
2.251843951048031e7 1.1780260113374766e7 0.0
0.0 0.0 0.0

-476034.1883800803 1.7009612009054266e7 0.0
1.7009612009054266e7 -1.2211021401007121e7 0.0
0.0 0.0 0.0

5.8106526691371305e6 1.1595623314488685e7 0.0
1.1595623314488685e7 4.127339405840627e6 0.0
0.0 0.0 0.0

2.198282188767322e6 2.1006612021161944e7 0.0
2.1006612021161944e7 -7.419097252545969e6 0.0
0.0 0.0 0.0

-5.873689153490987e6 1.8838942815321192e7 0.0
1.8838942815321192e7 2.2963803184215166e7 0.0
0.0 0.0 0.0

-6.273706098513059e6 5.967122998376326e6 0.0
5.967122998376326e6 5.961334414793578e7 0.0
0.0 0.0 0.0

-6.597232523216091e6 693103.1673446535 0.0
693103.1673446535 6.263089904991449e7 0.0
0.0 0.0 0.0

-740733.6710678032 1.8794451353676517e7 0.0
1.8794451353676517e7 -1.0920029393326934e7 0.0
0.0 0.0 0.0

466715.78093601065 1.9814952213743094e7 0.0
1.9814952213743094e7 -1.1828918971351447e7 0.0
0.0 0.0 0.0

299647.39065187424 2.0127855296852298e7 0.0
2.0127855296852298e7 -1.2339019204040747e7 0.0
0.0 0.0 0.0

-1.1511629997549193e7 2.2918421409495533e7 0.0
2.2918421409495533e7 -3.2297171146797845e6 0.0
0.0 0.0 0.0

1.7199555872467633e7 2.0668217779582154e7 0.0
2.0668217779582154e7 9.192530640716512e6 0.0
0.0 0.0 0.0

-6.076293352450535e6 1.946128283516194e7 0.0
1.946128283516194e7 1.980095650731166e7 0.0
0.0 0.0 0.0

495039.75783971976 2.005886082797709e7 0.0
2.005886082797709e7 -1.2281657463364549e7 0.0
0.0 0.0 0.0

-762875.0025040521 1.6253912987040263e7 0.0
1.6253912987040263e7 -1.0862991770266958e7 0.0
0.0 0.0 0.0

-9.409888685149338e6 -3.490701084730024e6 0.0
-3.490701084730024e6 2.192916920660711e7 0.0
0.0 0.0 0.0

159738.89532963373 1.3530901393652406e7 0.0
1.3530901393652406e7 -3.006579381089973e7 0.0
0.0 0.0 0.0

-1.0302741105865922e7 397357.9004683472 0.0
397357.9004683472 3.13693603655551e7 0.0
0.0 0.0 0.0

-8.812769060293246e6 -5.025681196465269e6 0.0
-5.025681196465269e6 2.4627673469542284e7 0.0
0.0 0.0 0.0

-8.728921692249034e6 -5.355075811356014e6 0.0
-5.355075811356014e6 2.3861943709386416e7 0.0
0.0 0.0 0.0

-4.880901222127263e6 1.123184965896348e7 0.0
1.123184965896348e7 8.361987495929598e6 0.0
0.0 0.0 0.0

682514.4321542829 1.563709850340839e7 0.0
1.563709850340839e7 -1.8050575448165163e7 0.0
0.0 0.0 0.0

706474.8687988743 1.3377095384542407e7 0.0
1.3377095384542407e7 -2.982271637384497e7 0.0
0.0 0.0 0.0

-989931.5324920983 1.9042438542766366e7 0.0
1.9042438542766366e7 -4.71895642391235e6 0.0
0.0 0.0 0.0

1.9239359636214096e6 2.1160478926943142e7 0.0
2.1160478926943142e7 -8.677968170334693e6 0.0
0.0 0.0 0.0

4.442635022185132e6 2.0386915388716158e7 0.0
2.0386915388716158e7 84651.77913026977 0.0
0.0 0.0 0.0

-805105.1976559933 2.42479371814798e7 0.0
2.42479371814798e7 -3.759446983762212e6 0.0
0.0 0.0 0.0

5.0484063637304254e7 2.416452617708374e7 0.0
2.416452617708374e7 7.361250442704e6 0.0
0.0 0.0 0.0

6.540304869045035e6 1.5292278417100655e7 0.0
1.5292278417100655e7 9.201604369508458e6 0.0
0.0 0.0 0.0

3.455020876534187e6 2.0757465944166668e7 0.0
2.0757465944166668e7 -4.267703841146574e6 0.0
0.0 0.0 0.0

3.787901718012402e6 2.4778170725899134e7 0.0
2.4778170725899134e7 -6.143821445129288e6 0.0
0.0 0.0 0.0

-709079.5597566321 2.741209071697856e7 0.0
2.741209071697856e7 -680761.0873990648 0.0
0.0 0.0 0.0

554522.4850990986 1.7485641625730403e7 0.0
1.7485641625730403e7 -1.795466860726915e7 0.0
0.0 0.0 0.0

-1.703737291859343e7 2.5321798572222997e7 0.0
2.5321798572222997e7 864978.1246970454 0.0
0.0 0.0 0.0

-5.496254860751002e6 2.5536411772363015e7 0.0
2.5536411772363015e7 7.55138111225046e6 0.0
0.0 0.0 0.0

4.0568839219354475e6 2.348913022100539e6 0.0
2.348913022100539e6 -2.0806673301892366e7 0.0
0.0 0.0 0.0

-1.5289774813054437e6 2.543698390467896e7 0.0
2.543698390467896e7 -2.4109575097344317e6 0.0
0.0 0.0 0.0

-5.629451995523887e6 3.92782228335307e7 0.0
3.92782228335307e7 3.5518047483602827e6 0.0
0.0 0.0 0.0

-2.0787212331688672e6 1.4796301992884204e7 0.0
1.4796301992884204e7 -6.521540253123509e6 0.0
0.0 0.0 0.0

1.720000809672054e6 1.331123523979298e7 0.0
1.331123523979298e7 -2.3745553678864986e7 0.0
0.0 0.0 0.0

1.1319583766391408e6 1.302304893571368e7 0.0
1.302304893571368e7 -2.8333601448889364e7 0.0
0.0 0.0 0.0

-50760.94947696105 1.4249440206955738e7 0.0
1.4249440206955738e7 -2.976320258428261e7 0.0
0.0 0.0 0.0

9.800015034444453e6 3.4486964315311335e7 0.0
3.4486964315311335e7 -4.383701471305052e6 0.0
0.0 0.0 0.0

579253.1317309351 1.9891261704588335e7 0.0
1.9891261704588335e7 -1.2162691057007052e7 0.0
0.0 0.0 0.0

4.890558957541417e6 1.8876336627934862e7 0.0
1.8876336627934862e7 2.968778296794888e7 0.0
0.0 0.0 0.0

-2.207201982887844e7 2.0193268770898245e7 0.0
2.0193268770898245e7 5.855439925299275e6 0.0
0.0 0.0 0.0

-6.3892223841366924e7 3.2213659398217604e7 0.0
3.2213659398217604e7 -4.521859789150605e6 0.0
0.0 0.0 0.0

2.149370998800922e6 6.290511684475581e6 0.0
6.290511684475581e6 -5.1538622916065134e7 0.0
0.0 0.0 0.0

2.6468660138515304e6 2.0974847963874124e7 0.0
2.0974847963874124e7 -5.98189480074074e6 0.0
0.0 0.0 0.0

3.2584173284958396e6 2.3071143321426682e7 0.0
2.3071143321426682e7 -6.947684189640198e6 0.0
0.0 0.0 0.0

3.978150565982783e6 2.4353720711531513e6 0.0
2.4353720711531513e6 -1.967406064345732e7 0.0
0.0 0.0 0.0

-1.528211193993137e7 2.3903601081396393e7 0.0
2.3903601081396393e7 -5.097722802492647e6 0.0
0.0 0.0 0.0

-1.68612534308038e6 1.8838997788036007e7 0.0
1.8838997788036007e7 2.016726950948576e7 0.0
0.0 0.0 0.0

6.768348226709856e6 1.827967886540668e7 0.0
1.827967886540668e7 1.2759741935275033e7 0.0
0.0 0.0 0.0

-7.618489140813922e6 -5.757305024360402e6 0.0
-5.757305024360402e6 1.9945865466083698e7 0.0
0.0 0.0 0.0

728989.225325156 1.5805138227418955e7 0.0
1.5805138227418955e7 -2.162006386368845e7 0.0
0.0 0.0 0.0

2.1250558581334986e6 1.0060499353578156e7 0.0
1.0060499353578156e7 -2.0759965508972168e7 0.0
0.0 0.0 0.0

677227.3534861975 8.612380272224423e6 0.0
8.612380272224423e6 -5.14831515121232e6 0.0
0.0 0.0 0.0

-8.472426267935175e6 -5.584002195778532e6 0.0
-5.584002195778532e6 1.6881409730001226e7 0.0
0.0 0.0 0.0

4.598888337189019e6 1.8389692179733735e7 0.0
1.8389692179733735e7 7.488635142926285e7 0.0
0.0 0.0 0.0

-9.658512823222622e6 4.347716130399536e6 0.0
4.347716130399536e6 4.0201172128507316e7 0.0
0.0 0.0 0.0

2.1574721441065883e6 2.8299357440111887e7 0.0
2.8299357440111887e7 -3.130375367292349e6 0.0
0.0 0.0 0.0

-2.426637387084645e6 1.9324357433373813e7 0.0
1.9324357433373813e7 -16268.699292978505 0.0
0.0 0.0 0.0

-1.9582871130924637e6 1.6856086452487e7 0.0
1.6856086452487e7 -1.1942683613901636e7 0.0
0.0 0.0 0.0

1.630573944406888e6 2.285516120812008e7 0.0
2.285516120812008e7 -8.226469119184219e6 0.0
0.0 0.0 0.0

-3.8750768528847867e6 2.4539748509808727e7 0.0
2.4539748509808727e7 7.094528834422477e6 0.0
0.0 0.0 0.0

5.571144748223755e6 4.0025618532260954e7 0.0
4.0025618532260954e7 -1.2493329864380492e6 0.0
0.0 0.0 0.0

3.021999390186479e6 4.361543817579377e6 0.0
4.361543817579377e6 -1.0953585342056055e7 0.0
0.0 0.0 0.0

-9.54773853471268e6 -3.528145524967849e6 0.0
-3.528145524967849e6 2.1982392587641716e7 0.0
0.0 0.0 0.0

-168139.94731912692 1.807774717239769e7 0.0
1.807774717239769e7 2.1915752478696965e6 0.0
0.0 0.0 0.0

-8.849752706454508e6 2.623858166235911e7 0.0
2.623858166235911e7 6.309036110586089e6 0.0
0.0 0.0 0.0

-2.4509347087576e6 1.8791062328020655e7 0.0
1.8791062328020655e7 2.2818869099338606e7 0.0
0.0 0.0 0.0

-1.1272105233769793e7 1.2564794966173982e7 0.0
1.2564794966173982e7 2.5652128193395037e7 0.0
0.0 0.0 0.0

1.384099728398309e6 1.436776849320194e7 0.0
1.436776849320194e7 -2.2735355522030488e7 0.0
0.0 0.0 0.0

-1.5871009348553306e8 2.5803654425351504e7 0.0
2.5803654425351504e7 -1.0013791398577377e7 0.0
0.0 0.0 0.0

-1.1429299631829547e7 1.127429400350352e7 0.0
1.127429400350352e7 2.68421765776469e7 0.0
0.0 0.0 0.0

-7.453961437771849e6 2.616428075950018e7 0.0
2.616428075950018e7 6.72695640820081e6 0.0
0.0 0.0 0.0

540051.6796075096 1.7075757112912837e7 0.0
1.7075757112912837e7 -1.906757953464548e7 0.0
0.0 0.0 0.0

-1.0742039085898045e6 1.4938402343136534e7 0.0
1.4938402343136534e7 -2.912436465854083e7 0.0
0.0 0.0 0.0

4.1263905502839284e6 3.791005572089368e7 0.0
3.791005572089368e7 -834050.1556046258 0.0
0.0 0.0 0.0

-1.4458873362710234e6 1.571433730296958e7 0.0
1.571433730296958e7 -2.6572651623714287e7 0.0
0.0 0.0 0.0

612183.78115201 1.969200779679283e7 0.0
1.969200779679283e7 -1.1779106849705122e7 0.0
0.0 0.0 0.0

595927.9355935473 1.8457636533558536e7 0.0
1.8457636533558536e7 4.321388899191233e6 0.0
0.0 0.0 0.0

1.1222196714279267e6 3.1560655519922316e7 0.0
3.1560655519922316e7 -441681.88672771805 0.0
0.0 0.0 0.0

-1.048985649529588e7 2.6121358013741992e7 0.0
2.6121358013741992e7 5.632083486643059e6 0.0
0.0 0.0 0.0

1.0533988144763028e6 1.5358385889414927e7 0.0
1.5358385889414927e7 -2.1552640554428604e7 0.0
0.0 0.0 0.0

389469.7796978485 1.9564235529138118e7 0.0
1.9564235529138118e7 -1.2728492751401821e7 0.0
0.0 0.0 0.0

-2.872727739256394e6 2.4641722223070137e7 0.0
2.4641722223070137e7 2.0547278605217189e6 0.0
0.0 0.0 0.0

-6.3292595905675525e6 2.589419230630469e7 0.0
2.589419230630469e7 7.138953785788892e6 0.0
0.0 0.0 0.0

-8.824144865897605e6 -3.71520548175076e6 0.0
-3.71520548175076e6 3.207174895963821e7 0.0
0.0 0.0 0.0

-6.345178894620211e6 1.8117321823131163e7 0.0
1.8117321823131163e7 1.9000032350189164e7 0.0
0.0 0.0 0.0

-1.7459558265032591e6 1.6294649636563724e7 0.0
1.6294649636563724e7 -2.409646605533395e7 0.0
0.0 0.0 0.0

1.718599014675449e7 1.981659249312156e7 0.0
1.981659249312156e7 2.1952180718301763e6 0.0
0.0 0.0 0.0

305496.74142881297 1.6136928336379234e7 0.0
1.6136928336379234e7 -2.1634722181282498e7 0.0
0.0 0.0 0.0

-415975.16255688743 1.8644208711713955e7 0.0
1.8644208711713955e7 -2.945689336612864e6 0.0
0.0 0.0 0.0

-1.068668665829127e7 9.090829824864466e6 0.0
9.090829824864466e6 3.2097072302575737e7 0.0
0.0 0.0 0.0

-6.302651134290414e6 2.105934351299211e7 0.0
2.105934351299211e7 -1.1285800595712049e7 0.0
0.0 0.0 0.0

-1.2205586794396252e6 1.6836732441374302e7 0.0
1.6836732441374302e7 -6.407117628934298e6 0.0
0.0 0.0 0.0

-84909.99084444437 1.933240513831283e7 0.0
1.933240513831283e7 -1.190661079668618e7 0.0
0.0 0.0 0.0

-1.2651738417427847e7 4.3201161137834035e7 0.0
4.3201161137834035e7 5.478664916142062e6 0.0
0.0 0.0 0.0

-4.8416006776743144e7 1.5035979191835903e7 0.0
1.5035979191835903e7 6.030111223097324e6 0.0
0.0 0.0 0.0

2.097886513681705e6 2.9090715507691734e7 0.0
2.9090715507691734e7 -3.56696772030557e6 0.0
0.0 0.0 0.0

-8.2205509167192895e6 4.108445343623433e7 0.0
4.108445343623433e7 4.576140528298912e6 0.0
0.0 0.0 0.0

2.252684199838844e7 5.1995197693513796e7 0.0
5.1995197693513796e7 -3.5580605940504437e6 0.0
0.0 0.0 0.0

-305734.6519204397 1.4563596483162697e7 0.0
1.4563596483162697e7 -2.7867080168413177e7 0.0
0.0 0.0 0.0

-7.99321496073734e6 1.6783818394452963e7 0.0
1.6783818394452963e7 -3.0259270648540694e7 0.0
0.0 0.0 0.0

-4.232837026688502e6 2.3853367055802513e7 0.0
2.3853367055802513e7 9.38712357325284e6 0.0
0.0 0.0 0.0

-1.1661647975029266e7 1.1984923966957036e7 0.0
1.1984923966957036e7 2.633002670318765e7 0.0
0.0 0.0 0.0

-1.0763835604507722e7 2.3097226468566354e7 0.0
2.3097226468566354e7 2.8370581806951337e6 0.0
0.0 0.0 0.0

510865.0457400889 1.8594696659242623e7 0.0
1.8594696659242623e7 7.70422259475264e6 0.0
0.0 0.0 0.0

-302019.9409114029 1.7724850683145132e7 0.0
1.7724850683145132e7 -9.630900345267281e6 0.0
0.0 0.0 0.0

7.22196716161604e6 4.25979883289295e7 0.0
4.25979883289295e7 -1.9866454412757615e6 0.0
0.0 0.0 0.0

1.4580601417255048e6 2.210360356810176e7 0.0
2.210360356810176e7 -8.932979522749899e6 0.0
0.0 0.0 0.0

2.3910230082971477e6 1.9347433296388637e7 0.0
1.9347433296388637e7 -3.8327858596890466e6 0.0
0.0 0.0 0.0

3.6016481620227154e6 1.7838905840867048e6 0.0
1.7838905840867048e6 -3.554685896097379e7 0.0
0.0 0.0 0.0

-4.14723091940512e6 2.4555003882304955e7 0.0
2.4555003882304955e7 7.793389325979629e6 0.0
0.0 0.0 0.0

-3.0975776049519074e6 1.8586012412900023e7 0.0
1.8586012412900023e7 4.681342759334164e6 0.0
0.0 0.0 0.0

1.5900533043744676e6 1.226066032553802e7 0.0
1.226066032553802e7 -1.4125070730675254e7 0.0
0.0 0.0 0.0

-907761.8453437313 1.5063003214718876e7 0.0
1.5063003214718876e7 -2.933498445328917e7 0.0
0.0 0.0 0.0

-3.5786319412562307e6 2.026315552441726e7 0.0
2.026315552441726e7 1.7349237727318995e7 0.0
0.0 0.0 0.0

-3.7165930375391934e6 1.850329507825948e7 0.0
1.850329507825948e7 2.534313248163442e7 0.0
0.0 0.0 0.0

-934796.1251074309 1.7011469440742224e7 0.0
1.7011469440742224e7 -4.0868544283337463e6 0.0
0.0 0.0 0.0

4.202040276584726e6 2.398050089536168e7 0.0
2.398050089536168e7 -6.2527111871125735e6 0.0
0.0 0.0 0.0

-3.6298924672909603e6 2.359161751515602e7 0.0
2.359161751515602e7 9.383392246440284e6 0.0
0.0 0.0 0.0

-7.791347362041693e6 2.531492995665986e6 0.0
2.531492995665986e6 5.074636569916594e7 0.0
0.0 0.0 0.0

-4.2387401400113655e6 1.2187885264163299e7 0.0
1.2187885264163299e7 6.770350267217005e6 0.0
0.0 0.0 0.0

-40684.3062673579 1.8028648401953116e7 0.0
1.8028648401953116e7 -5.50514585286636e6 0.0
0.0 0.0 0.0

-5.272054904976231e6 2.480129903018527e7 0.0
2.480129903018527e7 8.362699204959787e6 0.0
0.0 0.0 0.0

-4.0231089413745096e6 2.0375197929358892e7 0.0
2.0375197929358892e7 1.4132314798364904e7 0.0
0.0 0.0 0.0

2.1595215204452984e6 1.2407437070764532e7 0.0
1.2407437070764532e7 -1.966631482941909e7 0.0
0.0 0.0 0.0

-1.8049094892946216e6 2.6791542264420565e7 0.0
2.6791542264420565e7 1.146524214033973e6 0.0
0.0 0.0 0.0

1.7383088032599986e6 3.3024308794749472e7 0.0
3.3024308794749472e7 -531607.7199030017 0.0
0.0 0.0 0.0

-2.7679502460983805e6 2.1622756627416957e7 0.0
2.1622756627416957e7 5.190997898327922e6 0.0
0.0 0.0 0.0

1.5599524260797976e6 1.4361950162894405e7 0.0
1.4361950162894405e7 -2.1257229521975946e7 0.0
0.0 0.0 0.0

-1.4250420631022013e6 2.708051676027223e7 0.0
2.708051676027223e7 -1.2017783562142276e6 0.0
0.0 0.0 0.0

1.968133809248961e6 2.3566324992562078e7 0.0
2.3566324992562078e7 -7.466864193222631e6 0.0
0.0 0.0 0.0

-205902.8496010471 1.883133854218734e7 0.0
1.883133854218734e7 2.6921875257927615e7 0.0
0.0 0.0 0.0

-2.9460244452171833e6 2.1031370044573657e7 0.0
2.1031370044573657e7 6.339908814371019e6 0.0
0.0 0.0 0.0

-4.408942931021569e6 2.6360675675416034e7 0.0
2.6360675675416034e7 5.621331331309508e6 0.0
0.0 0.0 0.0

-9.006398327586146e6 -11561.318216348247 0.0
-11561.318216348247 3.982357132779078e7 0.0
0.0 0.0 0.0

1.3663684747997238e6 3.2223234750873145e7 0.0
3.2223234750873145e7 -436282.66769239015 0.0
0.0 0.0 0.0

3.6497929092110563e6 1.8452352471099715e6 0.0
1.8452352471099715e6 -3.458112230827455e7 0.0
0.0 0.0 0.0

-743982.6716268318 2.510182994415266e7 0.0
2.510182994415266e7 -4.457277026848259e6 0.0
0.0 0.0 0.0

-8.932586393307114e6 -2.003257036004814e6 0.0
-2.003257036004814e6 3.5103455785388224e7 0.0
0.0 0.0 0.0

-1.3078762066052496e6 1.6291773275429508e7 0.0
1.6291773275429508e7 -4.495124082213655e6 0.0
0.0 0.0 0.0

-1.012197118060733e7 2.4793569801174376e7 0.0
2.4793569801174376e7 4.242697657044351e6 0.0
0.0 0.0 0.0

-1.8982029495132756e6 2.0078976794341356e7 0.0
2.0078976794341356e7 -3.4219784944804464e6 0.0
0.0 0.0 0.0

-3.3479656938142357e6 2.0281105661893696e7 0.0
2.0281105661893696e7 -5.403824394203298e6 0.0
0.0 0.0 0.0

-1.4693494215135453e6 1.8066892279265665e7 0.0
1.8066892279265665e7 -1.7302625476290837e7 0.0
0.0 0.0 0.0

-1.072605211446283e7 1.3735472800565554e7 0.0
1.3735472800565554e7 2.7313041680869464e7 0.0
0.0 0.0 0.0

1.0104979202112216e6 1.9117601779108178e7 0.0
1.9117601779108178e7 9.970555655375898e6 0.0
0.0 0.0 0.0

3.12119480137372e6 8.40296061446598e6 0.0
8.40296061446598e6 -2.5531198406383105e7 0.0
0.0 0.0 0.0

2.274423750463819e6 1.9075288274629403e7 0.0
1.9075288274629403e7 2.5382140801709983e7 0.0
0.0 0.0 0.0

-1.0191000759845797e7 1.8325873121668033e7 0.0
1.8325873121668033e7 -6.125276410779884e7 0.0
0.0 0.0 0.0

-4.171357275626748e6 1.931099989925122e7 0.0
1.931099989925122e7 1.394030649428426e7 0.0
0.0 0.0 0.0

-2.0449129731385007e6 2.72848670005974e7 0.0
2.72848670005974e7 140600.4449067911 0.0
0.0 0.0 0.0

-3.1798682500439757e6 2.103059989708247e7 0.0
2.103059989708247e7 1.712423987015293e6 0.0
0.0 0.0 0.0

577934.9153325399 2.0752407748100124e7 0.0
2.0752407748100124e7 -1.1026858248834413e7 0.0
0.0 0.0 0.0

1.9787088966269824e6 1.9957379235757515e7 0.0
1.9957379235757515e7 -7.220688644186119e6 0.0
0.0 0.0 0.0

-4.422279617172305e6 2.4513547093010895e7 0.0
2.4513547093010895e7 8.416256421295509e6 0.0
0.0 0.0 0.0

-4.300595714457125e6 2.021939133725134e7 0.0
2.021939133725134e7 1.794472088300131e7 0.0
0.0 0.0 0.0

-3.6421379411768112e6 1.8638616191548415e7 0.0
1.8638616191548415e7 2.553117878463503e7 0.0
0.0 0.0 0.0

-3.9067019588185865e6 1.7463848498726904e7 0.0
1.7463848498726904e7 -1.7137738545073852e7 0.0
0.0 0.0 0.0

827802.9784231558 1.5113321283871528e7 0.0
1.5113321283871528e7 -1.914295048556711e7 0.0
0.0 0.0 0.0

-2.768218956200392e6 2.0186036044487268e7 0.0
2.0186036044487268e7 1.642336303835394e7 0.0
0.0 0.0 0.0

1.3254022254980598e6 1.015679688828494e7 0.0
1.015679688828494e7 -3.578547468675376e7 0.0
0.0 0.0 0.0

-2.5608292474177564e6 1.9094805194652855e7 0.0
1.9094805194652855e7 -1.1010653845175005e7 0.0
0.0 0.0 0.0

2.22907451788372e6 3.399476906787582e7 0.0
3.399476906787582e7 -483370.1481308604 0.0
0.0 0.0 0.0

1.6365640417460958e6 1.8337904037990917e7 0.0
1.8337904037990917e7 2.1587706639644284e7 0.0
0.0 0.0 0.0

2.1413050366440147e7 2.417414888067188e7 0.0
2.417414888067188e7 7.137680181967568e7 0.0
0.0 0.0 0.0

-2.149323513210152e7 2.2794402323447138e7 0.0
2.2794402323447138e7 -7.164408689144818e7 0.0
0.0 0.0 0.0

-3.6985307068898454e6 1.8575802757526293e7 0.0
1.8575802757526293e7 2.677722221962141e6 0.0
0.0 0.0 0.0

-2.6737850572485924e7 3.4972154875431225e7 0.0
3.4972154875431225e7 7.597231577653518e6 0.0
0.0 0.0 0.0

-1.6761239933036768e6 2.3443572969906826e7 0.0
2.3443572969906826e7 -4.111882200992506e6 0.0
0.0 0.0 0.0

-2.2521046819418278e6 2.031014368709055e7 0.0
2.031014368709055e7 1.4063794950003035e7 0.0
0.0 0.0 0.0

1.0197066911932025e6 1.8470676147186715e7 0.0
1.8470676147186715e7 2.449098299512058e7 0.0
0.0 0.0 0.0

6.716380429357948e6 1.976564663442187e7 0.0
1.976564663442187e7 4.30102121718397e7 0.0
0.0 0.0 0.0

6.400571688371244e6 2.061548254702748e7 0.0
2.061548254702748e7 8.93896214220405e6 0.0
0.0 0.0 0.0

6.361625889657806e6 1.7616280715323262e7 0.0
1.7616280715323262e7 2.695387431329088e7 0.0
0.0 0.0 0.0

3.6535486506455895e6 2.3844748391355123e7 0.0
2.3844748391355123e7 -6.466437839333747e6 0.0
0.0 0.0 0.0

534669.8124088785 1.8611341537079375e7 0.0
1.8611341537079375e7 1.5400956320579069e7 0.0
0.0 0.0 0.0

-2.669741900206644e6 1.947107630241985e7 0.0
1.947107630241985e7 1.701135386299964e7 0.0
0.0 0.0 0.0

3.215918604658521e6 3.0314457912378855e7 0.0
3.0314457912378855e7 -2.349282085041383e6 0.0
0.0 0.0 0.0

2.7727336912040995e6 2.018946818786633e7 0.0
2.018946818786633e7 1.2588709680008e7 0.0
0.0 0.0 0.0

4.0050559063387737e6 2.199366166289468e6 0.0
2.199366166289468e6 -2.6883522787869718e7 0.0
0.0 0.0 0.0

-9.794545333968787e6 1.5827952736955542e7 0.0
1.5827952736955542e7 2.000582299139825e7 0.0
0.0 0.0 0.0

-8.737955144351738e6 -3.6258880175069063e6 0.0
-3.6258880175069063e6 3.2938522836935665e7 0.0
0.0 0.0 0.0

-5.246853744715604e6 1.973588064298204e7 0.0
1.973588064298204e7 1.96086017889309e7 0.0
0.0 0.0 0.0

315892.36023693555 2.779619402093587e7 0.0
2.779619402093587e7 -1.8527131794554798e6 0.0
0.0 0.0 0.0

5.4068572517465195e6 2.024277231303885e7 0.0
2.024277231303885e7 1.6374442838252855e7 0.0
0.0 0.0 0.0

3.7430555390174338e6 1.755611898499417e7 0.0
1.755611898499417e7 2.015123923548559e7 0.0
0.0 0.0 0.0

-3.5638936992121832e6 2.6012352783165596e7 0.0
2.6012352783165596e7 6.176705809749657e6 0.0
0.0 0.0 0.0

3.6069438442630637e6 4.1903736107284287e6 0.0
4.1903736107284287e6 -1.489823828933613e7 0.0
0.0 0.0 0.0

-870532.0939716377 2.5678446222176593e7 0.0
2.5678446222176593e7 -3.6057000564983743e6 0.0
0.0 0.0 0.0

2.705865569321784e6 1.0564000858046172e7 0.0
1.0564000858046172e7 -2.1062923796353035e7 0.0
0.0 0.0 0.0

-7.494879992346238e6 2.518414285285262e7 0.0
2.518414285285262e7 6.980596461804306e6 0.0
0.0 0.0 0.0

4.340913821668395e6 2.567816556995451e7 0.0
2.567816556995451e7 -5.679455411944628e6 0.0
0.0 0.0 0.0

-9.444165076148631e6 2.183947123782066e7 0.0
2.183947123782066e7 691348.7747864975 0.0
0.0 0.0 0.0

2.7717751395070665e6 1.8500579253284847e6 0.0
1.8500579253284847e6 -5.1487445121935375e7 0.0
0.0 0.0 0.0

4.76296650262126e6 2.049108716705531e7 0.0
2.049108716705531e7 2.618944277852947e6 0.0
0.0 0.0 0.0

1.3088789241195612e6 2.6526644975128666e7 0.0
2.6526644975128666e7 -3.9905401441570898e6 0.0
0.0 0.0 0.0

423151.3689189744 2.3159572558188055e7 0.0
2.3159572558188055e7 -7.293451702675751e6 0.0
0.0 0.0 0.0

-2.0198689277258783e6 1.8057610943356946e7 0.0
1.8057610943356946e7 -1.21298320901614e7 0.0
0.0 0.0 0.0

3.493709617525816e6 4.405914774594609e6 0.0
4.405914774594609e6 -2.4984546979254384e7 0.0
0.0 0.0 0.0

-3.4013688220278863e6 2.2232493039006088e7 0.0
2.2232493039006088e7 6.033836560207851e6 0.0
0.0 0.0 0.0

611503.874922201 1.2819655622114375e7 0.0
1.2819655622114375e7 -3.014070334259646e7 0.0
0.0 0.0 0.0

-8.650582248397164e6 -3.1640845636905297e6 0.0
-3.1640845636905297e6 3.6447589244726315e7 0.0
0.0 0.0 0.0

-5.4902940340831475e6 1.8620319630493052e7 0.0
1.8620319630493052e7 1.7424416483173043e7 0.0
0.0 0.0 0.0

-1.4105415482690202e7 2.489039410131732e7 0.0
2.489039410131732e7 3.4568206808770057e6 0.0
0.0 0.0 0.0

1.138686695125591e6 5.696140660082352e6 0.0
5.696140660082352e6 -7.533711021055076e7 0.0
0.0 0.0 0.0

-5.173270760300659e6 1.601424411464579e7 0.0
1.601424411464579e7 3.5003070425283425e7 0.0
0.0 0.0 0.0

-785635.2290573614 1.946766481617771e7 0.0
1.946766481617771e7 2.107501649236492e7 0.0
0.0 0.0 0.0

-2.342231928355256e6 1.782522307204043e7 0.0
1.782522307204043e7 3.1216265996383086e7 0.0
0.0 0.0 0.0

-2.6143046087529026e6 1.979450736914022e7 0.0
1.979450736914022e7 1.064277076770912e6 0.0
0.0 0.0 0.0

-5.308629797860221e6 1.9027233955501992e7 0.0
1.9027233955501992e7 1.3499202569324464e7 0.0
0.0 0.0 0.0

-1.7076078562877118e6 1.810162837418075e7 0.0
1.810162837418075e7 -9.470052765094519e6 0.0
0.0 0.0 0.0

978956.4311583107 1.4578741070286332e7 0.0
1.4578741070286332e7 -2.0197269976194948e7 0.0
0.0 0.0 0.0

1.1498843323979806e6 9.672922433480892e6 0.0
9.672922433480892e6 -4.414337048630788e7 0.0
0.0 0.0 0.0

-8.73098166271802e6 -3.4068089473304646e6 0.0
-3.4068089473304646e6 3.40253114697168e7 0.0
0.0 0.0 0.0

-8.136739118387306e6 -2.473495406720619e6 0.0
-2.473495406720619e6 4.238731421730377e7 0.0
0.0 0.0 0.0

-8.585767290710473e6 2.344305772295935e7 0.0
2.344305772295935e7 1.923036105179436e6 0.0
0.0 0.0 0.0

650131.5579087622 2.0735308117008027e7 0.0
2.0735308117008027e7 -1.1332911254836056e7 0.0
0.0 0.0 0.0

-1.0159906198114939e6 1.7804470477810826e7 0.0
1.7804470477810826e7 3.604922042228698e7 0.0
0.0 0.0 0.0

-1.3201183305794136e6 1.8135153852269426e7 0.0
1.8135153852269426e7 -6.706447773536108e6 0.0
0.0 0.0 0.0

4.235374331471142e6 2.2977130820808057e7 0.0
2.2977130820808057e7 -6.251641382946858e6 0.0
0.0 0.0 0.0

-3.546981487568059e6 2.3728655676078703e7 0.0
2.3728655676078703e7 6.491291097024634e6 0.0
0.0 0.0 0.0

-9.245152904511347e6 -3.6651026390584954e6 0.0
-3.6651026390584954e6 2.3093140561528396e7 0.0
0.0 0.0 0.0

1.1868094788881974e7 4.631992825805502e7 0.0
4.631992825805502e7 -2.903038399740017e6 0.0
0.0 0.0 0.0

543628.433176253 1.8889785663013328e7 0.0
1.8889785663013328e7 -8.979733624713952e6 0.0
0.0 0.0 0.0

-5.753240406959733e6 1.6181949200373136e7 0.0
1.6181949200373136e7 -4.904470528329354e7 0.0
0.0 0.0 0.0

3.9697299254213665e6 2.9479136404372826e6 0.0
2.9479136404372826e6 -3.2008176211070005e7 0.0
0.0 0.0 0.0

-339639.7982700863 1.8213464802625038e7 0.0
1.8213464802625038e7 -5.742428053965998e6 0.0
0.0 0.0 0.0

-7.272925022716896e6 1.7745485455065936e7 0.0
1.7745485455065936e7 2.026093247077084e7 0.0
0.0 0.0 0.0

-2.3663108386219077e7 2.080422011906974e7 0.0
2.080422011906974e7 6.070035538140539e6 0.0
0.0 0.0 0.0

-4.830987492020333e6 2.10923630678671e7 0.0
2.10923630678671e7 -8.750184331807248e6 0.0
0.0 0.0 0.0

5.263425612653491e6 1.714690046280935e7 0.0
1.714690046280935e7 2.3386107488001026e7 0.0
0.0 0.0 0.0

-2.6732871300963326e6 1.767764279976632e7 0.0
1.767764279976632e7 -1.3204889417133668e7 0.0
0.0 0.0 0.0

-9.78001748479478e6 -1.342899810997677e6 0.0
-1.342899810997677e6 2.29112543328178e7 0.0
0.0 0.0 0.0

-969674.8975815005 1.9228080240959316e7 0.0
1.9228080240959316e7 -9.809318380973741e6 0.0
0.0 0.0 0.0

-474157.6995637552 1.881278211208436e7 0.0
1.881278211208436e7 3.7472023863127935e6 0.0
0.0 0.0 0.0

-1.3148747378250035e6 1.986839844802972e7 0.0
1.986839844802972e7 1.4832649501556814e7 0.0
0.0 0.0 0.0

293501.890168678 1.72450044060795e7 0.0
1.72450044060795e7 -1.641078248767728e7 0.0
0.0 0.0 0.0

-1.9593731268256037e6 1.921799543178874e7 0.0
1.921799543178874e7 2.3432471229641277e7 0.0
0.0 0.0 0.0

-144302.94269817753 1.7606918480358463e7 0.0
1.7606918480358463e7 48732.93917920008 0.0
0.0 0.0 0.0

737133.8002399551 2.0691650547178723e7 0.0
2.0691650547178723e7 -1.1505470238070868e7 0.0
0.0 0.0 0.0

4.0908441335700005e6 1.9609574038535412e7 0.0
1.9609574038535412e7 -1.7423947175383496e6 0.0
0.0 0.0 0.0

1.2987723426343016e6 1.248685938760727e7 0.0
1.248685938760727e7 -2.679888612652637e7 0.0
0.0 0.0 0.0

-5.597471082695004e6 1.9815031886599746e7 0.0
1.9815031886599746e7 1.8420523226109784e7 0.0
0.0 0.0 0.0

-398552.7924823207 1.6202551040522456e7 0.0
1.6202551040522456e7 -8.343136619382187e6 0.0
0.0 0.0 0.0

-4.623050408213645e7 2.7692506398558337e7 0.0
2.7692506398558337e7 2.80158907107237e6 0.0
0.0 0.0 0.0

2.8533396610447615e6 1.8326325486072253e7 0.0
1.8326325486072253e7 4.5670563082533464e7 0.0
0.0 0.0 0.0

3.5508265895639285e6 1.763612985258284e6 0.0
1.763612985258284e6 -3.655243510892347e7 0.0
0.0 0.0 0.0

-8.255405740456646e6 -2.5270813910952834e6 0.0
-2.5270813910952834e6 4.0977555524945185e7 0.0
0.0 0.0 0.0

-3.558971935573062e6 1.500886501317114e7 0.0
1.500886501317114e7 -4.2786881220502734e7 0.0
0.0 0.0 0.0

-1.4053531018908396e6 1.5976636340567172e7 0.0
1.5976636340567172e7 -2.696932377092434e7 0.0
0.0 0.0 0.0

-2.097936454024581e6 1.972669262488662e7 0.0
1.972669262488662e7 -5.127041025646947e6 0.0
0.0 0.0 0.0

-1.5974894396399008e7 2.6546899221435115e7 0.0
2.6546899221435115e7 -1.0142587923837624e7 0.0
0.0 0.0 0.0

-5.854482217506472e6 1.828315365653576e7 0.0
1.828315365653576e7 2.521929217316988e7 0.0
0.0 0.0 0.0

755318.6108299778 2.057949428233695e7 0.0
2.057949428233695e7 -1.1532749633972665e7 0.0
0.0 0.0 0.0

-7.1585285423993245e6 -1.0567551145268101e6 0.0
-1.0567551145268101e6 5.465991522732164e7 0.0
0.0 0.0 0.0

-8.893458103323441e6 1.6906213275335718e7 0.0
1.6906213275335718e7 2.2658648164508764e7 0.0
0.0 0.0 0.0

1.6718920204086415e6 3.854527786590732e6 0.0
3.854527786590732e6 -7.008535120954643e7 0.0
0.0 0.0 0.0

-2.0514213673154123e6 2.7857584167175826e7 0.0
2.7857584167175826e7 202593.1058101385 0.0
0.0 0.0 0.0

2.1679563891155496e6 2.311771433726961e6 0.0
2.311771433726961e6 -6.056863423654255e7 0.0
0.0 0.0 0.0

-2.2161511362551138e7 4.4505979122941084e7 0.0
4.4505979122941084e7 6.986902023890377e6 0.0
0.0 0.0 0.0

-6.992833281610623e6 -747729.5707245406 0.0
-747729.5707245406 5.722052972032638e7 0.0
0.0 0.0 0.0

1.5062010995421112e6 1.2801747637637047e7 0.0
1.2801747637637047e7 -2.6687287205545068e7 0.0
0.0 0.0 0.0

-1.081579429460463e7 2.4534475341059715e7 0.0
2.4534475341059715e7 4.667121939022095e6 0.0
0.0 0.0 0.0

-4.491003604598203e7 2.8274166288571462e7 0.0
2.8274166288571462e7 -1.180548305703247e6 0.0
0.0 0.0 0.0

1.9240927719510607e6 3.0003330976804458e6 0.0
3.0003330976804458e6 -6.5061149307018094e7 0.0
0.0 0.0 0.0

-3.0627466338996477e6 2.2882720939067636e7 0.0
2.2882720939067636e7 2.697824375810274e6 0.0
0.0 0.0 0.0

-3.689784483131068e6 2.1099377917600907e7 0.0
2.1099377917600907e7 1.3336611014107538e7 0.0
0.0 0.0 0.0

1.5235633332171883e7 1.6728403843917198e7 0.0
1.6728403843917198e7 6.8134287424238e6 0.0
0.0 0.0 0.0

-423456.6977894055 1.574553231990632e7 0.0
1.574553231990632e7 -2.3802597657049015e7 0.0
0.0 0.0 0.0

-1.9920031363640726e6 1.6683827067899268e7 0.0
1.6683827067899268e7 -2.466430538111939e7 0.0
0.0 0.0 0.0

-341747.4278470152 2.2707223048103906e7 0.0
2.2707223048103906e7 -8.024610570665928e6 0.0
0.0 0.0 0.0

-2.0659711961731277e6 2.8385449961295012e7 0.0
2.8385449961295012e7 304399.1482582126 0.0
0.0 0.0 0.0

-1.0535584554321723e7 1.1621421834660338e7 0.0
1.1621421834660338e7 3.1034726998049945e7 0.0
0.0 0.0 0.0

2.556912304279711e6 1.9033183160573544e6 0.0
1.9033183160573544e6 -5.461440243807426e7 0.0
0.0 0.0 0.0

-1.0594061370946912e7 3.175767089411615e7 0.0
3.175767089411615e7 4.647831968771089e6 0.0
0.0 0.0 0.0

3.9063912151405504e6 5.435268711125881e6 0.0
5.435268711125881e6 -2.0102333291149125e7 0.0
0.0 0.0 0.0

-1.8550464861711427e6 1.8157771681970064e7 0.0
1.8157771681970064e7 -1.6123427810099617e7 0.0
0.0 0.0 0.0

2.3969771430444717e6 2.1932728481138204e6 0.0
2.1932728481138204e6 -5.695466693747974e7 0.0
0.0 0.0 0.0

-2.179372070845226e6 1.7214163295768287e7 0.0
1.7214163295768287e7 -2.2237290857434437e7 0.0
0.0 0.0 0.0

-1.0329095870117115e7 8.398700117743433e6 0.0
8.398700117743433e6 3.586705367336921e7 0.0
0.0 0.0 0.0

-3.2411034820806007e6 2.1123247372165783e6 0.0
2.1123247372165783e6 1.9510132133550497e6 0.0
0.0 0.0 0.0

-4.1724423607018255e6 1.7101686107474923e7 0.0
1.7101686107474923e7 4.0108769624663917e6 0.0
0.0 0.0 0.0

2.7282274438375086e6 1.9012336835846484e7 0.0
1.9012336835846484e7 2.2613138028717056e7 0.0
0.0 0.0 0.0

3.2943842597372886e6 1.605515592625194e6 0.0
1.605515592625194e6 -4.03751872412157e7 0.0
0.0 0.0 0.0

-4.1842448788504414e6 2.3801652926843576e7 0.0
2.3801652926843576e7 9.416885846252933e6 0.0
0.0 0.0 0.0

-9.304958884960487e6 -1.8316562289634782e6 0.0
-1.8316562289634782e6 3.2636721068374537e7 0.0
0.0 0.0 0.0

-79121.03388255424 1.8842689788882278e7 0.0
1.8842689788882278e7 -83505.46916207996 0.0
0.0 0.0 0.0

1.2318453505075462e6 1.3012098666371694e7 0.0
1.3012098666371694e7 -2.5429239974993482e7 0.0
0.0 0.0 0.0

-4.321558641121304e6 1.9917152991637424e7 0.0
1.9917152991637424e7 1.9147471781008694e7 0.0
0.0 0.0 0.0

1.6958416155383745e6 1.8474349313272644e7 0.0
1.8474349313272644e7 3.0974160647969652e7 0.0
0.0 0.0 0.0

-805237.3336814384 1.8171869711176325e7 0.0
1.8171869711176325e7 -4.0645231499878615e6 0.0
0.0 0.0 0.0

168029.69684157893 2.251845686010088e7 0.0
2.251845686010088e7 -7.7297816461022375e6 0.0
0.0 0.0 0.0

-3.4006477655091537e6 2.471355537471329e7 0.0
2.471355537471329e7 4.622185703383865e6 0.0
0.0 0.0 0.0

-855826.3679465016 1.888182697972679e7 0.0
1.888182697972679e7 -6.375276993740153e6 0.0
0.0 0.0 0.0

1.8440403239406414e7 5.773446587952798e6 0.0
5.773446587952798e6 -2.693988348457209e6 0.0
0.0 0.0 0.0

-7.414238179905638e6 -1.1921067673575284e6 0.0
-1.1921067673575284e6 5.218612831878206e7 0.0
0.0 0.0 0.0

6.71157414604342e6 2.1206435930654746e7 0.0
2.1206435930654746e7 1.0803471609956708e7 0.0
0.0 0.0 0.0

-8.030453534092423e6 -2.2284967717727083e6 0.0
-2.2284967717727083e6 4.394354087262096e7 0.0
0.0 0.0 0.0

-1.1673680888536475e6 1.9185301804841224e7 0.0
1.9185301804841224e7 -884161.1548436105 0.0
0.0 0.0 0.0

-8.094613895727314e6 9.529132575552342e6 0.0
9.529132575552342e6 2.770131057415799e7 0.0
0.0 0.0 0.0

-3.5127186758433627e6 1.703966294475906e7 0.0
1.703966294475906e7 6.223584210627722e6 0.0
0.0 0.0 0.0

174065.92129699243 1.382093049669291e6 0.0
1.382093049669291e6 -133618.02855796387 0.0
0.0 0.0 0.0

194599.79544799574 1.9531206691995766e6 0.0
1.9531206691995766e6 4439.197674061645 0.0
0.0 0.0 0.0

604940.0234576142 2.0143182711428296e7 0.0
2.0143182711428296e7 -1.2432163125890255e7 0.0
0.0 0.0 0.0

-7.96359147937673e6 2.1816501169959188e7 0.0
2.1816501169959188e7 -3.731260555027906e6 0.0
0.0 0.0 0.0

840732.2975862338 2.0477291120844327e7 0.0
2.0477291120844327e7 -1.130535117486808e7 0.0
0.0 0.0 0.0

-1.1414277896655206e7 1.024059522562283e7 0.0
1.024059522562283e7 2.9372018182320558e7 0.0
0.0 0.0 0.0

-2.359014615811913e6 1.7994798394068725e7 0.0
1.7994798394068725e7 -1.476824445482166e7 0.0
0.0 0.0 0.0

1.0768805775048062e6 1.255305152326624e7 0.0
1.255305152326624e7 -2.8399645668798275e7 0.0
0.0 0.0 0.0

-3.9711225012250743e6 2.3236682790220194e7 0.0
2.3236682790220194e7 1.0282727550307047e7 0.0
0.0 0.0 0.0

1.352472255517358e6 1.2999702679540271e7 0.0
1.2999702679540271e7 -2.386183026152828e7 0.0
0.0 0.0 0.0

-9.663193792953064e7 3.3610187973614395e7 0.0
3.3610187973614395e7 -4.59956167275963e6 0.0
0.0 0.0 0.0

487585.7805442102 1.6706968550165262e7 0.0
1.6706968550165262e7 -1.750126554954224e7 0.0
0.0 0.0 0.0

-3.0377890969755948e6 3.2883014186625674e7 0.0
3.2883014186625674e7 963386.7770285304 0.0
0.0 0.0 0.0

182427.28677358106 1.821663997982446e7 0.0
1.821663997982446e7 5.294632187919653e6 0.0
0.0 0.0 0.0

-5.635958269531825e6 1.9121833216376383e7 0.0
1.9121833216376383e7 2.1908944397432726e7 0.0
0.0 0.0 0.0

-4.2578070523771625e6 2.081766962285739e7 0.0
2.081766962285739e7 -1.1893823685169125e7 0.0
0.0 0.0 0.0

1.2139699015578227e7 3.6030232687833406e7 0.0
3.6030232687833406e7 -5.5252941344212275e6 0.0
0.0 0.0 0.0

-8.443881685026933e6 -2.8824744033323145e6 0.0
-2.8824744033323145e6 3.8642048492221855e7 0.0
0.0 0.0 0.0

3.456564164416183e6 1.760064797094729e6 0.0
1.760064797094729e6 -3.761225688673517e7 0.0
0.0 0.0 0.0

-462704.49785049027 2.30609817958804e7 0.0
2.30609817958804e7 -5.680732510836928e6 0.0
0.0 0.0 0.0

-8.670566581164196e6 -4.516032055543131e6 0.0
-4.516032055543131e6 1.589500108266804e7 0.0
0.0 0.0 0.0

2.916219686518954e6 1.73414532296076e6 0.0
1.73414532296076e6 -4.819583633986156e7 0.0
0.0 0.0 0.0

-7.541547004756518e6 -1.5194446204003657e6 0.0
-1.5194446204003657e6 5.0400846845956005e7 0.0
0.0 0.0 0.0

-8.936061724843899e6 -4.0871930126340277e6 0.0
-4.0871930126340277e6 2.955907410358664e7 0.0
0.0 0.0 0.0

-1.4765879624944823e6 1.774818777790272e7 0.0
1.774818777790272e7 -4.921147186227136e6 0.0
0.0 0.0 0.0

-8.355270099167347e6 -2.6755733976731524e6 0.0
-2.6755733976731524e6 3.9856101692909405e7 0.0
0.0 0.0 0.0

3.376277728861343e6 1.8042192724913382e6 0.0
1.8042192724913382e6 -3.895533262372826e7 0.0
0.0 0.0 0.0

3.0370454763248656e6 1.7959180790157367e6 0.0
1.7959180790157367e6 -4.639776619914133e7 0.0
0.0 0.0 0.0

-7.642600657378051e6 -1.817861408339001e6 0.0
-1.817861408339001e6 4.868160933165181e7 0.0
0.0 0.0 0.0

-4.705261984874189e6 1.942514624628658e7 0.0
1.942514624628658e7 -1.3315686350428747e7 0.0
0.0 0.0 0.0

596397.7804770609 1.9577682029030047e7 0.0
1.9577682029030047e7 -1.3461002047404993e7 0.0
0.0 0.0 0.0

-2.8809581216485985e6 2.4992583809256937e7 0.0
2.4992583809256937e7 5.06318738795091e6 0.0
0.0 0.0 0.0

3.0822282043643612e6 1.7241163524931013e6 0.0
1.7241163524931013e6 -4.5147196045826234e7 0.0
0.0 0.0 0.0

-7.760649279838696e6 -2.0193895128349194e6 0.0
-2.0193895128349194e6 4.680182523140757e7 0.0
0.0 0.0 0.0

-959665.0390565597 1.8207214835866872e7 0.0
1.8207214835866872e7 -3.9261035888015497e6 0.0
0.0 0.0 0.0

1.6534371167698996e6 1.3845152822179167e7 0.0
1.3845152822179167e7 -2.256679145333685e7 0.0
0.0 0.0 0.0

-830321.5957974286 2.4766531284757957e7 0.0
2.4766531284757957e7 -2.894629574251138e6 0.0
0.0 0.0 0.0

-3.125230534024685e6 1.968759448219111e7 0.0
1.968759448219111e7 -608748.8946936864 0.0
0.0 0.0 0.0

-3.351913307973074e6 1.842847677329401e7 0.0
1.842847677329401e7 2.68195414252237e7 0.0
0.0 0.0 0.0

-7.902508334082525e6 -2.0861015318528719e6 0.0
-2.0861015318528719e6 4.525176313031154e7 0.0
0.0 0.0 0.0

3.1897312588524614e6 1.6533504611733672e6 0.0
1.6533504611733672e6 -4.342054690838126e7 0.0
0.0 0.0 0.0

2.6935443746956717e6 2.7200433455510728e7 0.0
2.7200433455510728e7 -4.814215835503837e6 0.0
0.0 0.0 0.0

947024.820857659 1.8169137173179902e7 0.0
1.8169137173179902e7 4.214106372694994e7 0.0
0.0 0.0 0.0

6.872966456460735e7 7.29228022019474e7 0.0
7.29228022019474e7 -1.5376234535923481e7 0.0
0.0 0.0 0.0

-220211.95212121308 1.0977284773143789e7 0.0
1.0977284773143789e7 -7.983453175264277e6 0.0
0.0 0.0 0.0

-2.1327868540683175e6 2.75670076136893e7 0.0
2.75670076136893e7 1.7285816195813806e6 0.0
0.0 0.0 0.0

-8.685642437595963e6 -136019.41394888697 0.0
-136019.41394888697 1.1251655295389391e7 0.0
0.0 0.0 0.0

-2.717828346073119e6 2.5471057670830384e7 0.0
2.5471057670830384e7 4.250105534314251e6 0.0
0.0 0.0 0.0

3.482768513646201e6 2.8682106188605144e6 0.0
2.8682106188605144e6 -1.2618701056270074e7 0.0
0.0 0.0 0.0

8.986479716701636e6 2.4891775464451775e7 0.0
2.4891775464451775e7 -4.773450674392755e6 0.0
0.0 0.0 0.0

1.8953250860951766e6 2.3562769369676415e7 0.0
2.3562769369676415e7 -7.459819215781164e6 0.0
0.0 0.0 0.0

-7.901223880094203e6 1.6527221386949793e7 0.0
1.6527221386949793e7 1.645232494662744e7 0.0
0.0 0.0 0.0

-1.2421829710273938e6 1.986240708290254e7 0.0
1.986240708290254e7 -1.1976920710508942e6 0.0
0.0 0.0 0.0

-5.743363045090079e6 275340.7965672833 0.0
275340.7965672833 6.302540184729336e7 0.0
0.0 0.0 0.0

650031.9489515448 3.774424039109573e6 0.0
3.774424039109573e6 -1.5543994157034967e6 0.0
0.0 0.0 0.0

-4.995500699139398e6 -996010.8666118793 0.0
-996010.8666118793 2.1838949299357873e6 0.0
0.0 0.0 0.0

918115.9831442124 -1.7562324953356853e6 0.0
-1.7562324953356853e6 -2.3064663373901835e6 0.0
0.0 0.0 0.0

2.4990507054060395e6 2.3823879944875617e7 0.0
2.3823879944875617e7 -7.050636521707408e6 0.0
0.0 0.0 0.0

-5.210734960755775e6 1.5537861140277037e7 0.0
1.5537861140277037e7 -4.811610048667022e7 0.0
0.0 0.0 0.0

3.280142045103606e6 1.83172138832269e7 0.0
1.83172138832269e7 2.7178144232874382e7 0.0
0.0 0.0 0.0

-2.793149557238732e6 1.889886512332504e7 0.0
1.889886512332504e7 -1.1180093698222972e7 0.0
0.0 0.0 0.0

4.21132854827922e6 2.369073661697397e6 0.0
2.369073661697397e6 -2.3357570999868672e7 0.0
0.0 0.0 0.0

-1.596709092507033e6 1.673776693173745e7 0.0
1.673776693173745e7 -4.1552567161263134e6 0.0
0.0 0.0 0.0

101371.77283019107 1.9389025770789813e7 0.0
1.9389025770789813e7 -1.2786937877584942e7 0.0
0.0 0.0 0.0

-2.8994369277535807e6 1.4929011099271055e7 0.0
1.4929011099271055e7 -3.46222203676584e7 0.0
0.0 0.0 0.0

-283225.8971977907 2.5458432732392758e7 0.0
2.5458432732392758e7 -3.2688631997534246e6 0.0
0.0 0.0 0.0

-5.040552554963326e6 1.9286743308913387e7 0.0
1.9286743308913387e7 2.0607235501896363e7 0.0
0.0 0.0 0.0

-1.2480950504077233e6 1.7230762296198744e7 0.0
1.7230762296198744e7 -3.3187832798786764e6 0.0
0.0 0.0 0.0

76321.2698691662 1.9122617210708313e7 0.0
1.9122617210708313e7 2.7353712015169966e6 0.0
0.0 0.0 0.0

-5.041556490255263e6 1.6045700082049444e7 0.0
1.6045700082049444e7 -2.4106005086880278e7 0.0
0.0 0.0 0.0

-2.0922792091851633e7 2.7156015312192887e7 0.0
2.7156015312192887e7 -4.2339296354337055e6 0.0
0.0 0.0 0.0

1.0741486533594798e7 3.9095897310615174e7 0.0
3.9095897310615174e7 -4.287926640055291e6 0.0
0.0 0.0 0.0

-1.8001975152182996e6 575823.8679700942 0.0
575823.8679700942 3.3048721894349814e6 0.0
0.0 0.0 0.0

-1.3121721411646407e6 -131194.9684747609 0.0
-131194.9684747609 3.0505505189695596e6 0.0
0.0 0.0 0.0

-4.978246957792427e6 2.0033288856813964e7 0.0
2.0033288856813964e7 1.8419729955554496e7 0.0
0.0 0.0 0.0

-1.5170182939796324e6 2.2226844989709534e7 0.0
2.2226844989709534e7 -5.968187214968676e6 0.0
0.0 0.0 0.0

-1.7199780861520343e6 2.8451396233745717e7 0.0
2.8451396233745717e7 1.4496922634371698e6 0.0
0.0 0.0 0.0

-2.5313986761143133e6 2.5896564599564627e7 0.0
2.5896564599564627e7 3.490601553758157e6 0.0
0.0 0.0 0.0

1.049211455938353e7 2.0593346702026635e7 0.0
2.0593346702026635e7 8.65219616752185e6 0.0
0.0 0.0 0.0

2.717853789372407e6 2.043370204331895e7 0.0
2.043370204331895e7 -4.8518109407335445e6 0.0
0.0 0.0 0.0

3.107972434619574e6 1.7650364666756123e7 0.0
1.7650364666756123e7 4.693440967259931e7 0.0
0.0 0.0 0.0

-4.1474734176827274e7 2.760586324730309e7 0.0
2.760586324730309e7 -1.1845188959545612e7 0.0
0.0 0.0 0.0

-1.1067779219341235e8 3.729012173443415e7 0.0
3.729012173443415e7 4.788588339434527e6 0.0
0.0 0.0 0.0

-7.6420084598195e6 1.5645523618452044e7 0.0
1.5645523618452044e7 1.4272854568713168e7 0.0
0.0 0.0 0.0

-3.2464865334513225e6 2.057254271818338e7 0.0
2.057254271818338e7 1.5441161538551161e7 0.0
0.0 0.0 0.0

3.337799349810022e6 5.1513076900206115e6 0.0
5.1513076900206115e6 -2.172145826035697e7 0.0
0.0 0.0 0.0

-8.271908795139027e6 1.68751557951741e7 0.0
1.68751557951741e7 2.07847510643915e7 0.0
0.0 0.0 0.0

-5.805181927402001e6 -6.462432046385661e6 0.0
-6.462432046385661e6 1.3354496111725945e7 0.0
0.0 0.0 0.0

8.136839363656228e6 2.188507762915384e7 0.0
2.188507762915384e7 1.1629141268485768e7 0.0
0.0 0.0 0.0

-1.903722581095105e6 1.5196002546731828e7 0.0
1.5196002546731828e7 -3.337546500834532e7 0.0
0.0 0.0 0.0

3.9373076611934807e6 4.53301835980934e6 0.0
4.53301835980934e6 -2.714220512524386e7 0.0
0.0 0.0 0.0

4.811053699771229e6 1.974231258519565e7 0.0
1.974231258519565e7 5.753829466386828e6 0.0
0.0 0.0 0.0

-2.522910483990643e6 4.218031291431062e6 0.0
4.218031291431062e6 8.165464725786212e7 0.0
0.0 0.0 0.0

-4.406771281826959e6 2.7128898338703834e7 0.0
2.7128898338703834e7 5.954877599695154e6 0.0
0.0 0.0 0.0

-1.6332139968568303e7 2.385603625306597e7 0.0
2.385603625306597e7 748035.8688101834 0.0
0.0 0.0 0.0

1.0768670780970678e6 2.247406287739876e7 0.0
2.247406287739876e7 -8.75646120067049e6 0.0
0.0 0.0 0.0

-8.923107146210369e6 -4.813962505576189e6 0.0
-4.813962505576189e6 2.678740229219131e7 0.0
0.0 0.0 0.0

169583.48320010165 1.7820810296837702e7 0.0
1.7820810296837702e7 6.255254671116398e6 0.0
0.0 0.0 0.0

-8.571969716378352e6 -3.2620809679888603e6 0.0
-3.2620809679888603e6 3.532538088138455e7 0.0
0.0 0.0 0.0

4.825989088803942e6 2.066736684075599e7 0.0
2.066736684075599e7 5.605763154692375e6 0.0
0.0 0.0 0.0

-2.5310424292784533e6 2.1593153085951407e7 0.0
2.1593153085951407e7 1.0927139841637863e6 0.0
0.0 0.0 0.0

4.0840297033370603e6 3.0978762245648424e6 0.0
3.0978762245648424e6 -2.9920929874417406e7 0.0
0.0 0.0 0.0

-4.654554219573657e6 2.002504378136746e7 0.0
2.002504378136746e7 -1.261925276724281e7 0.0
0.0 0.0 0.0

4.156726411681654e6 2.497844069799441e6 0.0
2.497844069799441e6 -2.1041395214287706e7 0.0
0.0 0.0 0.0

345649.47450410016 1.6279736104199482e7 0.0
1.6279736104199482e7 -2.0365265252594773e7 0.0
0.0 0.0 0.0

-5.497950002721729e6 3.248664170520537e7 0.0
3.248664170520537e7 2.903355589954597e6 0.0
0.0 0.0 0.0

-302492.28665078373 1.5664531532738285e7 0.0
1.5664531532738285e7 -138269.81501619902 0.0
0.0 0.0 0.0

-264138.92719609383 2.2040163218258966e7 0.0
2.2040163218258966e7 -8.95752410246947e6 0.0
0.0 0.0 0.0

-4.070676528892077e6 3.084901322861638e7 0.0
3.084901322861638e7 2.2483619290542174e6 0.0
0.0 0.0 0.0

-2.978120288109927e6 2.452476700103346e7 0.0
2.452476700103346e7 6.022083554535387e6 0.0
0.0 0.0 0.0

-3.089769134706683e6 2.5550606390209265e7 0.0
2.5550606390209265e7 2.9360189429180245e6 0.0
0.0 0.0 0.0

-662913.0796746252 3.067857426639785e7 0.0
3.067857426639785e7 -776629.194125486 0.0
0.0 0.0 0.0

320488.0506775924 2.129467640292018e7 0.0
2.129467640292018e7 -9.741996336745994e6 0.0
0.0 0.0 0.0

-3.5820849549830128e6 3.3709436103120714e7 0.0
3.3709436103120714e7 1.212475071814023e6 0.0
0.0 0.0 0.0

-1.0961669405105572e7 1.1938840325479072e7 0.0
1.1938840325479072e7 1.6660019229297046e7 0.0
0.0 0.0 0.0

1.0245788837991804e6 1.3454860714763435e7 0.0
1.3454860714763435e7 -1.6137456923103055e7 0.0
0.0 0.0 0.0

-1.0380732606066e7 -1.9555090743032105e6 0.0
-1.9555090743032105e6 2.1617011533302e7 0.0
0.0 0.0 0.0

-1.1884893522854168e7 2.5692557715340093e7 0.0
2.5692557715340093e7 4.712201364682349e6 0.0
0.0 0.0 0.0

-8.235191360124921e6 254223.90236110755 0.0
254223.90236110755 4.662813772418232e7 0.0
0.0 0.0 0.0

2.4432209986219443e6 2.8191997617828283e7 0.0
2.8191997617828283e7 -4.245051988492576e6 0.0
0.0 0.0 0.0

751660.0412577726 1.6253237585178154e7 0.0
1.6253237585178154e7 -2.0348117116597693e7 0.0
0.0 0.0 0.0

740236.5771769367 1.978948976950779e7 0.0
1.978948976950779e7 7.728771338985013e6 0.0
0.0 0.0 0.0

-938009.9525213479 1.5937739539113363e7 0.0
1.5937739539113363e7 -1.0065722041097587e7 0.0
0.0 0.0 0.0

746640.0544098504 1.3843603194667786e7 0.0
1.3843603194667786e7 -2.8164550837482035e7 0.0
0.0 0.0 0.0

3.419943438145102e6 4.0710632545302087e6 0.0
4.0710632545302087e6 -1.5180331086694684e7 0.0
0.0 0.0 0.0

3.2684846585059175e6 2.3964055872028805e7 0.0
2.3964055872028805e7 -6.6517551905666785e6 0.0
0.0 0.0 0.0

-187220.74064939818 1.9305278016057134e7 0.0
1.9305278016057134e7 5.971731330025019e6 0.0
0.0 0.0 0.0

-2.985078916521661e6 1.9148458364985738e7 0.0
1.9148458364985738e7 -1.8039707146050115e6 0.0
0.0 0.0 0.0

2.674806233884059e6 1.7547450145893286e6 0.0
1.7547450145893286e6 -5.226187401134286e7 0.0
0.0 0.0 0.0

-1.1088365771244628e7 3.901221624370096e6 0.0
3.901221624370096e6 2.2394241750813417e7 0.0
0.0 0.0 0.0

2.240789497540865e6 4.0842080351810143e6 0.0
4.0842080351810143e6 -5.211980963626657e7 0.0
0.0 0.0 0.0

-8.164867362158887e6 -6.142596599571674e6 0.0
-6.142596599571674e6 1.9116388373579517e7 0.0
0.0 0.0 0.0

-2.873724175563143e6 2.1455824629284948e7 0.0
2.1455824629284948e7 -308405.47183682676 0.0
0.0 0.0 0.0

-498007.475484916 1.9352211987012602e7 0.0
1.9352211987012602e7 3.487981384153487e6 0.0
0.0 0.0 0.0

308605.89937895397 1.94253747615323e7 0.0
1.94253747615323e7 5.463617722631499e6 0.0
0.0 0.0 0.0

-6.987755522532837e6 1.5333762401648676e7 0.0
1.5333762401648676e7 1.6745503235671138e7 0.0
0.0 0.0 0.0

-8.892865188401466e6 -3.76936623825649e6 0.0
-3.76936623825649e6 3.0231269584510535e7 0.0
0.0 0.0 0.0

4.2024791342760315e6 2.5666995349539813e7 0.0
2.5666995349539813e7 -5.649409694820821e6 0.0
0.0 0.0 0.0

4.791750239924393e6 2.044276896797211e7 0.0
2.044276896797211e7 1.4750687194060093e7 0.0
0.0 0.0 0.0

2.55219912625313e6 8.546922218075443e6 0.0
8.546922218075443e6 -2.429634476061488e7 0.0
0.0 0.0 0.0

-9.138051867072238e6 -2.1146689535028096e6 0.0
-2.1146689535028096e6 3.2358431958060943e7 0.0
0.0 0.0 0.0

2.877344084031481e6 2.0350702696352284e7 0.0
2.0350702696352284e7 1.1479674016197398e7 0.0
0.0 0.0 0.0

-4.093302455553418e6 1.633140178651235e7 0.0
1.633140178651235e7 3.84233141090946e7 0.0
0.0 0.0 0.0

5.460392817806834e6 2.1307746596656248e7 0.0
2.1307746596656248e7 1.1358433527838174e7 0.0
0.0 0.0 0.0

-4.265581327247923e6 1.5020661117717199e7 0.0
1.5020661117717199e7 -4.516969747172605e7 0.0
0.0 0.0 0.0

-4.1366304057569904e6 1.9087262076006893e7 0.0
1.9087262076006893e7 2.354985318843412e7 0.0
0.0 0.0 0.0

435635.30886090547 1.8366788828338947e7 0.0
1.8366788828338947e7 1.7947444960955985e7 0.0
0.0 0.0 0.0

1.2049714871341651e6 2.0908626741681293e7 0.0
2.0908626741681293e7 -1.0796162286866158e7 0.0
0.0 0.0 0.0

-2.5913672185364645e6 2.0400316705040775e7 0.0
2.0400316705040775e7 -5.445652996958116e6 0.0
0.0 0.0 0.0

1.7241770486187655e6 8.225255961543285e6 0.0
8.225255961543285e6 -3.852924436963473e7 0.0
0.0 0.0 0.0

1.8322680369771142e6 7.431518324418292e6 0.0
7.431518324418292e6 -4.048724280099948e7 0.0
0.0 0.0 0.0

-57111.87944426108 1.56108919458338e7 0.0
1.56108919458338e7 -9.553567990073493e6 0.0
0.0 0.0 0.0

-8.180293123022471e6 1.6848637247850504e7 0.0
1.6848637247850504e7 2.7286539637534782e7 0.0
0.0 0.0 0.0

280932.5909114592 1.9563539614053313e7 0.0
1.9563539614053313e7 -1.3380686869604567e7 0.0
0.0 0.0 0.0

-6.325403398235381e6 3.1464730337173427e6 0.0
3.1464730337173427e6 6.009483252076311e7 0.0
0.0 0.0 0.0

-1.7169640851159617e6 1.4831769700721944e7 0.0
1.4831769700721944e7 -3.641859687225928e7 0.0
0.0 0.0 0.0

285013.74597131833 1.4881756988640111e7 0.0
1.4881756988640111e7 5.240041471894456e7 0.0
0.0 0.0 0.0

2.803702680507891e6 1.8515075700549758e6 0.0
1.8515075700549758e6 -5.013756664291097e7 0.0
0.0 0.0 0.0

414063.24552647676 2.2284934531396665e7 0.0
2.2284934531396665e7 -8.80144957279497e6 0.0
0.0 0.0 0.0

4.343405657368374e6 2.1050952413544968e7 0.0
2.1050952413544968e7 1.2032186540698526e7 0.0
0.0 0.0 0.0

-5.7327748512124475e6 1.6337080636957621e7 0.0
1.6337080636957621e7 -4.129522719396091e7 0.0
0.0 0.0 0.0

9.316529699707007e6 1.0863060740431026e7 0.0
1.0863060740431026e7 1.3033081886278638e6 0.0
0.0 0.0 0.0

-1.7621895023429613e6 1.9603583269705135e7 0.0
1.9603583269705135e7 -6.836811339425956e6 0.0
0.0 0.0 0.0

3.521975621444796e6 2.0651046790721174e7 0.0
2.0651046790721174e7 1.2569262751671838e7 0.0
0.0 0.0 0.0

-3.505319641952612e6 2.1457241778981883e7 0.0
2.1457241778981883e7 1.0561370396041926e7 0.0
0.0 0.0 0.0

-3.6816234293772886e6 2.0494105185504712e7 0.0
2.0494105185504712e7 1.5902610793375058e7 0.0
0.0 0.0 0.0

754871.5651696501 1.2270584192005657e7 0.0
1.2270584192005657e7 -1.4229592400331289e7 0.0
0.0 0.0 0.0

-1.0212756620952817e7 1.5767323641655274e7 0.0
1.5767323641655274e7 2.526040009221414e7 0.0
0.0 0.0 0.0

-3.3889541130840853e6 1.4587597640702669e7 0.0
1.4587597640702669e7 -4.216381331021323e7 0.0
0.0 0.0 0.0

-2.2046078601913173e6 1.945649970156908e7 0.0
1.945649970156908e7 -1.0333147812098505e7 0.0
0.0 0.0 0.0

-6.3167307401370825e6 2.2338483132865082e7 0.0
2.2338483132865082e7 6.08913209404145e6 0.0
0.0 0.0 0.0

536397.8623318737 1.0941353645368487e7 0.0
1.0941353645368487e7 -8.367630702626102e6 0.0
0.0 0.0 0.0

-5.228601185500011e6 5.775933337442119e6 0.0
5.775933337442119e6 7.879316913152708e7 0.0
0.0 0.0 0.0

-6.466597085347496e6 1.61607550938087e7 0.0
1.61607550938087e7 -5.147242779919378e7 0.0
0.0 0.0 0.0

-3.379294856257476e6 1.835513276610081e7 0.0
1.835513276610081e7 2.672704775657761e7 0.0
0.0 0.0 0.0

-2.0207397615140523e6 2.8951648063779272e7 0.0
2.8951648063779272e7 392717.24359372095 0.0
0.0 0.0 0.0

1.6407005437147114e7 2.0815621555983245e7 0.0
2.0815621555983245e7 6.920386816108532e6 0.0
0.0 0.0 0.0

-1.584958899652183e6 1.8000017372738652e7 0.0
1.8000017372738652e7 3.3833118622602366e7 0.0
0.0 0.0 0.0

-4.8004360069119055e6 1.975226527203032e7 0.0
1.975226527203032e7 1.8366931510839924e7 0.0
0.0 0.0 0.0

630532.123345105 1.4431034977420244e7 0.0
1.4431034977420244e7 -1.5757298646194682e7 0.0
0.0 0.0 0.0

-2.716575514462749e6 1.8636457412853613e7 0.0
1.8636457412853613e7 -1.1932843409452356e7 0.0
0.0 0.0 0.0

-5.977821962568706e6 1.8118289118300408e7 0.0
1.8118289118300408e7 1.412540157652643e7 0.0
0.0 0.0 0.0

-6.272697419886798e6 1.6855929185982343e7 0.0
1.6855929185982343e7 1.6907766355886847e7 0.0
0.0 0.0 0.0

3.5883916215543207e6 3.1577611892237915e6 0.0
3.1577611892237915e6 -2.7865843900221843e7 0.0
0.0 0.0 0.0

-4.048395009323068e6 2.3903334525021397e7 0.0
2.3903334525021397e7 9.573180983507715e6 0.0
0.0 0.0 0.0

-1.4665914703438836e6 1.5968944117314152e7 0.0
1.5968944117314152e7 -2.683051712551847e6 0.0
0.0 0.0 0.0

4.366600371720212e6 3.480915529151305e6 0.0
3.480915529151305e6 -2.017078261017888e7 0.0
0.0 0.0 0.0

1.207013493388105e6 2.728295574140322e7 0.0
2.728295574140322e7 -4.282685933083811e6 0.0
0.0 0.0 0.0

5.249155521795321e6 2.116239129205468e7 0.0
2.116239129205468e7 1.3150936523048174e7 0.0
0.0 0.0 0.0

-7.312355279173959e6 1.4724272455637725e6 0.0
1.4724272455637725e6 5.2654326143018454e7 0.0
0.0 0.0 0.0

7.458943195572333e6 2.2323439281907164e7 0.0
2.2323439281907164e7 1.0593945028380807e7 0.0
0.0 0.0 0.0

4.932464220584492e6 2.1082587390250813e7 0.0
2.1082587390250813e7 8.236077105076704e6 0.0
0.0 0.0 0.0

-101487.957078089 1.8602786386898383e7 0.0
1.8602786386898383e7 -1.3155894358825497e7 0.0
0.0 0.0 0.0

3.284319650607614e6 3.1098463380622705e6 0.0
3.1098463380622705e6 -3.667198234416762e7 0.0
0.0 0.0 0.0

2.4265318250490194e6 1.7153761301141106e7 0.0
1.7153761301141106e7 1.1658152059894558e7 0.0
0.0 0.0 0.0

252570.37154442165 1.901487944921376e7 0.0
1.901487944921376e7 -1.1989810269619048e7 0.0
0.0 0.0 0.0

943226.8411864131 1.9481663663618736e7 0.0
1.9481663663618736e7 8.990611893239887e6 0.0
0.0 0.0 0.0

-1.082049307085562e7 5.775756920711936e6 0.0
5.775756920711936e6 1.7623233239416312e7 0.0
0.0 0.0 0.0

-6.930710328634818e6 -6.266106202914349e6 0.0
-6.266106202914349e6 1.774228679348632e7 0.0
0.0 0.0 0.0

-4.955854815687018e6 2.1648861694553632e7 0.0
2.1648861694553632e7 3.9489003249201863e6 0.0
0.0 0.0 0.0

1.067684909560672e6 1.4381327081494976e7 0.0
1.4381327081494976e7 -2.419775751903744e7 0.0
0.0 0.0 0.0

-3.0829816626656763e6 1.7692672750735503e7 0.0
1.7692672750735503e7 -1.5925251266384348e7 0.0
0.0 0.0 0.0

-5.586917145661209e6 2.236935579766448e6 0.0
2.236935579766448e6 7.640551449086845e7 0.0
0.0 0.0 0.0

-4.50402774587998e6 3.462263319930687e7 0.0
3.462263319930687e7 1.390883298210077e6 0.0
0.0 0.0 0.0

893685.833085262 5.732087209498183e6 0.0
5.732087209498183e6 -3.197967039338333e6 0.0
0.0 0.0 0.0

-1.1463896903252406e6 1.9532586903156538e7 0.0
1.9532586903156538e7 1.197831043949303e6 0.0
0.0 0.0 0.0

2.3383748698283006e6 2.0327153228050847e7 0.0
2.0327153228050847e7 1.1311847878814816e7 0.0
0.0 0.0 0.0

-8.5402732024524e6 1.718024149315245e7 0.0
1.718024149315245e7 2.4722982520129792e7 0.0
0.0 0.0 0.0

-1.3268507775784915e7 2.5216593502569586e7 0.0
2.5216593502569586e7 2.964847799278694e6 0.0
0.0 0.0 0.0

3.51654531411447e6 2.1137374270953126e7 0.0
2.1137374270953126e7 9.300051848125936e6 0.0
0.0 0.0 0.0

1.673914007002067e6 2.0886770292865414e7 0.0
2.0886770292865414e7 1.0609692134732883e7 0.0
0.0 0.0 0.0

482877.8059943067 1.8130973341362517e7 0.0
1.8130973341362517e7 -1.6794902443103533e7 0.0
0.0 0.0 0.0

2.3399698551500523e6 5.393143070321253e6 0.0
5.393143070321253e6 -1.1883684324458174e7 0.0
0.0 0.0 0.0

-659414.2315327926 1.8636876607377533e7 0.0
1.8636876607377533e7 -1.4918692879916556e7 0.0
0.0 0.0 0.0

-80366.80595662259 2.0794340101371538e7 0.0
2.0794340101371538e7 -1.0871328953839995e7 0.0
0.0 0.0 0.0

-2.7573699029798033e6 2.3706094451947138e7 0.0
2.3706094451947138e7 5.265017390918495e6 0.0
0.0 0.0 0.0

1.421731173256523e6 2.1798625055685952e7 0.0
2.1798625055685952e7 -9.122709102693042e6 0.0
0.0 0.0 0.0

878395.5915583796 2.1047781704387985e7 0.0
2.1047781704387985e7 -9.9671406021415e6 0.0
0.0 0.0 0.0

3.6207759299292583e6 4.0775125536627406e6 0.0
4.0775125536627406e6 -3.3024234840496443e7 0.0
0.0 0.0 0.0

2.4426336753255683e6 2.031655849085068e7 0.0
2.031655849085068e7 6.686709890622828e6 0.0
0.0 0.0 0.0

-192407.00082335994 2.1389933619513825e7 0.0
2.1389933619513825e7 -9.8629816647718e6 0.0
0.0 0.0 0.0

-1.1509167480193581e7 1.37876203251082e7 0.0
1.37876203251082e7 2.1089249539998136e7 0.0
0.0 0.0 0.0

-8.245419280022739e7 3.0696569374573857e7 0.0
3.0696569374573857e7 -6.7512682397446e6 0.0
0.0 0.0 0.0

2.8392966416957278e7 2.8880612766169894e7 0.0
2.8880612766169894e7 9.46434148028238e7 0.0
0.0 0.0 0.0

-2.7339268152558707e7 2.67296410763458e7 0.0
2.67296410763458e7 -9.11310765453889e7 0.0
0.0 0.0 0.0

-5.258448171623635e6 1.9026193921246827e7 0.0
1.9026193921246827e7 2.1830408716165118e7 0.0
0.0 0.0 0.0

1.1263927307534367e6 1.4065148623078993e7 0.0
1.4065148623078993e7 -2.132552218429611e7 0.0
0.0 0.0 0.0

-3.386893366643866e6 1.9628366612839676e7 0.0
1.9628366612839676e7 -1.2139321033071196e7 0.0
0.0 0.0 0.0

1.8636786630437544e6 3.4855030400018275e7 0.0
3.4855030400018275e7 -2.43808958313625e6 0.0
0.0 0.0 0.0

-1.4962495679408973e6 1.698218665286306e7 0.0
1.698218665286306e7 -2.006084629473887e7 0.0
0.0 0.0 0.0

-4.0725971057740874e6 2.0647657861059405e7 0.0
2.0647657861059405e7 -7.219061491887689e6 0.0
0.0 0.0 0.0

-1.028983462824354e7 1.5754821912787063e7 0.0
1.5754821912787063e7 2.1771447652136788e7 0.0
0.0 0.0 0.0

-1.3647268572071707e6 2.422670508049291e7 0.0
2.422670508049291e7 -1.7040684715248754e6 0.0
0.0 0.0 0.0

-2.178274457186304e6 1.5866363280150566e7 0.0
1.5866363280150566e7 -3.0769734878156155e7 0.0
0.0 0.0 0.0

-1.577332593617726e6 1.9556266174448967e7 0.0
1.9556266174448967e7 -6.665078823759957e6 0.0
0.0 0.0 0.0

-4.201332551558915e6 2.1497609996923428e7 0.0
2.1497609996923428e7 1.1663952527873926e7 0.0
0.0 0.0 0.0

1.5787398302266153e7 2.105315439169078e7 0.0
2.105315439169078e7 -628195.8680475568 0.0
0.0 0.0 0.0

622232.5342627945 1.883456059340487e7 0.0
1.883456059340487e7 6.650142523786849e6 0.0
0.0 0.0 0.0

-5.29038670468859e6 1.9342938628536724e7 0.0
1.9342938628536724e7 1.9638901837121174e7 0.0
0.0 0.0 0.0

-1.964843694287138e7 2.3954166283746295e7 0.0
2.3954166283746295e7 -1.5589840577033376e6 0.0
0.0 0.0 0.0

359225.0146509197 1.9127241507607553e7 0.0
1.9127241507607553e7 6.6781094265329335e6 0.0
0.0 0.0 0.0

1.809994714331989e6 2.7746590469295487e7 0.0
2.7746590469295487e7 -4.124831386561757e6 0.0
0.0 0.0 0.0

7.760807787414716e6 2.530154279022864e7 0.0
2.530154279022864e7 -5.407603469191646e6 0.0
0.0 0.0 0.0

1.6109546725954497e6 1.345627016636347e7 0.0
1.345627016636347e7 -1.6381490298752977e7 0.0
0.0 0.0 0.0

-5.53116414737943e6 1.8064516939496744e7 0.0
1.8064516939496744e7 2.6448865979522157e7 0.0
0.0 0.0 0.0

-187714.2363720527 1.7736320861527417e7 0.0
1.7736320861527417e7 -1.730007196335095e7 0.0
0.0 0.0 0.0

-3.2490194520752123e6 1.7580034456572425e7 0.0
1.7580034456572425e7 4.782690067423705e6 0.0
0.0 0.0 0.0

-6.8426858459597025e6 1.7950452075779337e7 0.0
1.7950452075779337e7 1.6650090812570179e7 0.0
0.0 0.0 0.0

2.0720746508971648e6 7.355374394947024e6 0.0
7.355374394947024e6 -8.938409274450947e6 0.0
0.0 0.0 0.0

725531.0710743596 1.8275219518074278e7 0.0
1.8275219518074278e7 9.277351870606009e6 0.0
0.0 0.0 0.0

4.008511263552037e6 2.473395697986228e7 0.0
2.473395697986228e7 -6.086776786899013e6 0.0
0.0 0.0 0.0

-462018.12127159536 1.101848565471562e7 0.0
1.101848565471562e7 -5.846731103623835e7 0.0
0.0 0.0 0.0

-1.1752102301373325e7 1.312501637457909e7 0.0
1.312501637457909e7 2.038674380774607e7 0.0
0.0 0.0 0.0

1.7434762000432506e7 3.719612993248306e7 0.0
3.719612993248306e7 -6.603881105807445e6 0.0
0.0 0.0 0.0

2.6478820563896447e6 7.615447500317863e6 0.0
7.615447500317863e6 -3.768231786171067e7 0.0
0.0 0.0 0.0

354876.31554827443 1.8125915367798764e7 0.0
1.8125915367798764e7 7.377101987832063e6 0.0
0.0 0.0 0.0

1.6950258885804173e6 2.2813016159001153e7 0.0
2.2813016159001153e7 -8.160122042115843e6 0.0
0.0 0.0 0.0

1.2504636226804696e7 2.2770919072906565e7 0.0
2.2770919072906565e7 1.343644117266535e8 0.0
0.0 0.0 0.0

-1.336228640928818e7 2.190395613951107e7 0.0
2.190395613951107e7 -1.2399188015990068e8 0.0
0.0 0.0 0.0

2.5448627671628755e7 1.9313869689028494e7 0.0
1.9313869689028494e7 5.279237756893387e6 0.0
0.0 0.0 0.0

9.280133519485358e6 2.4692803438518874e7 0.0
2.4692803438518874e7 -5.1368762054411825e6 0.0
0.0 0.0 0.0

581384.6485096193 1.040134544194871e7 0.0
1.040134544194871e7 -7.4475470670225e6 0.0
0.0 0.0 0.0

1.7787871373320725e7 3.338589357654845e7 0.0
3.338589357654845e7 -6.807679133520158e6 0.0
0.0 0.0 0.0

-2.1231512322219936e6 1.974330572416495e7 0.0
1.974330572416495e7 1.887581671911808e7 0.0
0.0 0.0 0.0

1.2924060355964907e7 2.0786064875139214e7 0.0
2.0786064875139214e7 -405099.30056344625 0.0
0.0 0.0 0.0

-3.6296122167411973e6 2.3163285333810788e7 0.0
2.3163285333810788e7 7.496443797615175e6 0.0
0.0 0.0 0.0

-5.802015497097975e6 1.6059903501166401e7 0.0
1.6059903501166401e7 1.4964364795547076e7 0.0
0.0 0.0 0.0

148778.26029931637 3.9033834752604393e6 0.0
3.9033834752604393e6 -3.550955303847113e6 0.0
0.0 0.0 0.0

5.803063992435855e6 2.0906672348758996e7 0.0
2.0906672348758996e7 1.397883076441143e7 0.0
0.0 0.0 0.0

-490864.97266068705 2.4055598138245918e7 0.0
2.4055598138245918e7 -5.760139934431307e6 0.0
0.0 0.0 0.0

-5.36146480382053e6 1.8872971947182897e7 0.0
1.8872971947182897e7 2.3085768579993237e7 0.0
0.0 0.0 0.0

-5.236955138776435e6 2.422848912629189e7 0.0
2.422848912629189e7 9.0510605594589e6 0.0
0.0 0.0 0.0

-3.0363596778930696e6 2.2787752051379576e7 0.0
2.2787752051379576e7 8.182607380977603e6 0.0
0.0 0.0 0.0

-1.9935628255938885e6 1.7170517311846428e7 0.0
1.7170517311846428e7 -6.0181759535221355e6 0.0
0.0 0.0 0.0

-3.0495878274060637e6 1.8200128747121003e7 0.0
1.8200128747121003e7 2.811305727946991e7 0.0
0.0 0.0 0.0

-3.3529400128775313e6 2.3559464834555916e7 0.0
2.3559464834555916e7 8.756679193648864e6 0.0
0.0 0.0 0.0

-4.732204183690412e6 1.2708506655115461e7 0.0
1.2708506655115461e7 8.338314226571465e6 0.0
0.0 0.0 0.0

-3.707241509796327e7 3.0602721503783733e7 0.0
3.0602721503783733e7 -2.8183949132675193e6 0.0
0.0 0.0 0.0

-7.386845991227694e6 4.229428271835021e6 0.0
4.229428271835021e6 5.256446152887884e7 0.0
0.0 0.0 0.0

-7.009872219160926e6 2.45886885667627e7 0.0
2.45886885667627e7 7.608088658811137e6 0.0
0.0 0.0 0.0

-7.055289707607091e6 2.921448700177801e7 0.0
2.921448700177801e7 5.711002990204787e6 0.0
0.0 0.0 0.0

-637832.4855542816 1.5333674796843154e7 0.0
1.5333674796843154e7 -2.7637195041579615e7 0.0
0.0 0.0 0.0

-2.3500508955041813e6 3.1936258130463887e7 0.0
3.1936258130463887e7 1.6863477157928138e6 0.0
0.0 0.0 0.0

-5.9027378886015555e6 3.573717377165775e7 0.0
3.573717377165775e7 1.4508817331889893e6 0.0
0.0 0.0 0.0

-7.347468541380538e6 3.6798862253575444e7 0.0
3.6798862253575444e7 1.8634938940972271e6 0.0
0.0 0.0 0.0

-1.0382390908042934e6 2.6192904211351026e7 0.0
2.6192904211351026e7 -2.755547251488835e6 0.0
0.0 0.0 0.0

-1.0480747570268828e7 1.2861462235125404e7 0.0
1.2861462235125404e7 2.9615172530771147e7 0.0
0.0 0.0 0.0

3.8488524723703545e6 1.958344805105696e6 0.0
1.958344805105696e6 -3.0841270102323778e7 0.0
0.0 0.0 0.0

-3.9206541383426003e6 1.888620724035149e7 0.0
1.888620724035149e7 2.4490952699925125e7 0.0
0.0 0.0 0.0

1.509581469306626e6 2.8552286464148674e7 0.0
2.8552286464148674e7 -3.528608413044998e6 0.0
0.0 0.0 0.0

354421.2555783158 1.5818490623742195e7 0.0
1.5818490623742195e7 -2.1621865408931464e7 0.0
0.0 0.0 0.0

-8.540487688775389e6 -937539.7571097339 0.0
-937539.7571097339 4.102265079313409e7 0.0
0.0 0.0 0.0

268287.50272189465 1.913011344596064e7 0.0
1.913011344596064e7 1.3859560982699865e6 0.0
0.0 0.0 0.0

484539.16292733746 1.947595531913106e7 0.0
1.947595531913106e7 -1.1047288261978295e7 0.0
0.0 0.0 0.0

-371344.24265291076 1.818465434038561e7 0.0
1.818465434038561e7 -1.426235110180212e7 0.0
0.0 0.0 0.0

-3.297707463818648e6 1.6067635266975343e7 0.0
1.6067635266975343e7 -1.3846313855773486e7 0.0
0.0 0.0 0.0

-8.981847678939212e6 -4.294900884813903e6 0.0
-4.294900884813903e6 1.7260870888218127e7 0.0
0.0 0.0 0.0

-355107.97971811093 1.7401897949866094e7 0.0
1.7401897949866094e7 -2.4965194957204345e6 0.0
0.0 0.0 0.0

2.361343275486144e6 1.933961168019839e7 0.0
1.933961168019839e7 5.969643630010875e6 0.0
0.0 0.0 0.0

1.7441888078286547e7 1.9632107394934755e7 0.0
1.9632107394934755e7 5.807131042425996e6 0.0
0.0 0.0 0.0

-8.334268588835001e6 3.870085806465547e7 0.0
3.870085806465547e7 2.5748103282112484e6 0.0
0.0 0.0 0.0

-6.083887207102085e6 1.6443592344371269e7 0.0
1.6443592344371269e7 1.6047004738263587e7 0.0
0.0 0.0 0.0

-9.233669940739075e6 1.780230490834333e7 0.0
1.780230490834333e7 -5.7666436614785984e7 0.0
0.0 0.0 0.0

3.211052664975237e6 6.871401130579747e6 0.0
6.871401130579747e6 -3.1624170561261427e7 0.0
0.0 0.0 0.0

-8.987022219291521e6 -4.622727711809414e6 0.0
-4.622727711809414e6 2.7050616418188166e7 0.0
0.0 0.0 0.0

-1.9083915125788417e7 2.730414543718888e7 0.0
2.730414543718888e7 -7.239036343249753e6 0.0
0.0 0.0 0.0

-1.9215102994762782e7 2.4493453238648914e7 0.0
2.4493453238648914e7 -3.7616600130278203e6 0.0
0.0 0.0 0.0

-1.8970066025051535e6 1.769888489168602e7 0.0
1.769888489168602e7 -7.766534248892615e6 0.0
0.0 0.0 0.0

-270436.26029521925 2.8104205475043178e7 0.0
2.8104205475043178e7 -2.39775117325158e6 0.0
0.0 0.0 0.0

929505.813214656 6.489539913332639e6 0.0
6.489539913332639e6 -5.558494207983154e7 0.0
0.0 0.0 0.0

7.498399707292797e6 2.1948113469462223e7 0.0
2.1948113469462223e7 -3.6670765097315814e6 0.0
0.0 0.0 0.0

4.970825606282072e6 2.160003809775084e7 0.0
2.160003809775084e7 1.0307992417493198e7 0.0
0.0 0.0 0.0

1.7262843168095266e6 1.3864103698139e7 0.0
1.3864103698139e7 -2.105728028070329e7 0.0
0.0 0.0 0.0

-2.1693156239452213e6 2.2717278667921625e7 0.0
2.2717278667921625e7 599274.2834958974 0.0
0.0 0.0 0.0

1.6008261811698293e6 1.2976420612217143e7 0.0
1.2976420612217143e7 -1.5551127260220088e7 0.0
0.0 0.0 0.0

1.1905691146927923e6 1.3566923803460056e7 0.0
1.3566923803460056e7 -2.2647930571145505e7 0.0
0.0 0.0 0.0

-2.2558504180383617e6 1.684742674174526e7 0.0
1.684742674174526e7 -1.4588469619230166e7 0.0
0.0 0.0 0.0

-7.377040233123323e6 2.827074648015878e7 0.0
2.827074648015878e7 5.581326924284434e6 0.0
0.0 0.0 0.0

-1.4643188417480897e7 2.1195037328818403e7 0.0
2.1195037328818403e7 -6.69557481237551e7 0.0
0.0 0.0 0.0

1.449021474173139e7 3.27822526350967e7 0.0
3.27822526350967e7 -5.532842293309194e6 0.0
0.0 0.0 0.0

5.155772355840049e6 2.4720727059727103e7 0.0
2.4720727059727103e7 -5.704658491546204e6 0.0
0.0 0.0 0.0

-2.459185077283827e6 2.979927670649448e7 0.0
2.979927670649448e7 2.326090697416497e6 0.0
0.0 0.0 0.0

-3.934235902422048e6 2.3009975394755464e7 0.0
2.3009975394755464e7 1.0217106794051755e7 0.0
0.0 0.0 0.0

1.034146876968734e6 5.386420362048607e6 0.0
5.386420362048607e6 -5.809753301793112e7 0.0
0.0 0.0 0.0

-4.0742178305192264e6 2.1234321127298947e7 0.0
2.1234321127298947e7 1.4436835409716515e7 0.0
0.0 0.0 0.0

2.0211316661116723e6 5.224251029545862e6 0.0
5.224251029545862e6 -4.6874765382954024e7 0.0
0.0 0.0 0.0

-610433.3089616848 2.0214786260929197e7 0.0
2.0214786260929197e7 -8.318957793323576e6 0.0
0.0 0.0 0.0

-578144.0861935122 1.9448876668156005e7 0.0
1.9448876668156005e7 -8.675793619906064e6 0.0
0.0 0.0 0.0

-903712.1543137992 1.6934820172216173e7 0.0
1.6934820172216173e7 -3.5633267944046212e6 0.0
0.0 0.0 0.0

-3.52085661615187e6 1.983278918633975e7 0.0
1.983278918633975e7 1.6686664000452595e7 0.0
0.0 0.0 0.0

-1.8554242170576034e6 2.519628138306218e7 0.0
2.519628138306218e7 -1.8646546093189619e6 0.0
0.0 0.0 0.0

-4.659848320488163e6 1.9979843893382687e7 0.0
1.9979843893382687e7 1.3654342012207132e7 0.0
0.0 0.0 0.0

-8.709386667815369e6 -3.918750341267408e6 0.0
-3.918750341267408e6 3.1008300423972625e7 0.0
0.0 0.0 0.0

2.6377826323829778e6 6.553196492773929e6 0.0
6.553196492773929e6 -3.342187331256803e7 0.0
0.0 0.0 0.0

2.4898875213751383e6 8.802096299485542e6 0.0
8.802096299485542e6 -2.6188288461904623e7 0.0
0.0 0.0 0.0

963438.2039952313 3.073740394861257e7 0.0
3.073740394861257e7 -1.5649215535642668e6 0.0
0.0 0.0 0.0

-2.5309282884985954e6 1.9613059532940898e7 0.0
1.9613059532940898e7 -1.0226796863419427e7 0.0
0.0 0.0 0.0

119192.11846388318 1.4604777928760631e7 0.0
1.4604777928760631e7 -2.792689961213016e7 0.0
0.0 0.0 0.0

2.362745357575962e6 1.9184174692942485e7 0.0
1.9184174692942485e7 1.5099809329625811e7 0.0
0.0 0.0 0.0

-1.0229709986399775e7 1.4022475575598953e6 0.0
1.4022475575598953e6 2.121424524872032e7 0.0
0.0 0.0 0.0

5.647731364830384e6 2.2171916353153344e7 0.0
2.2171916353153344e7 1.1503681625063568e7 0.0
0.0 0.0 0.0

-1.37058301708852e7 3.121496749727583e7 0.0
3.121496749727583e7 6.550852703574018e6 0.0
0.0 0.0 0.0

3.5303039710829398e6 1.992974155324922e7 0.0
1.992974155324922e7 6.520464600596644e6 0.0
0.0 0.0 0.0

2.0440276718887147e6 1.7647723609208785e7 0.0
1.7647723609208785e7 1.3632657395658761e7 0.0
0.0 0.0 0.0

-5.131807380149682e6 2.7588673850302078e7 0.0
2.7588673850302078e7 5.729614963365878e6 0.0
0.0 0.0 0.0

-4.1350778247130597e6 2.0492685735139504e7 0.0
2.0492685735139504e7 1.6597776969569877e7 0.0
0.0 0.0 0.0

-1.9314805037867445e6 1.74890494931447e7 0.0
1.74890494931447e7 3.3183456610409476e7 0.0
0.0 0.0 0.0

-1.8294010057413973e7 2.512002156693774e7 0.0
2.512002156693774e7 -1.9521504928714517e6 0.0
0.0 0.0 0.0

-1.2541642514395004e7 2.3719840265118204e7 0.0
2.3719840265118204e7 2.5163843821177594e6 0.0
0.0 0.0 0.0

-1.1640432472610932e7 1.6310691700651633e7 0.0
1.6310691700651633e7 2.6110538275299966e6 0.0
0.0 0.0 0.0

-7.43189198564766e7 3.3391019395734888e7 0.0
3.3391019395734888e7 -1.272690948100526e6 0.0
0.0 0.0 0.0

1.0414795363097077e7 1.9806427025854662e7 0.0
1.9806427025854662e7 6.021345055704344e6 0.0
0.0 0.0 0.0

-1.6658680607684972e6 1.5594088542702468e7 0.0
1.5594088542702468e7 -2.843103446341686e7 0.0
0.0 0.0 0.0

-3.6518144835803886e6 2.2500204731216572e7 0.0
2.2500204731216572e7 7.768409376643772e6 0.0
0.0 0.0 0.0

235479.75246015098 1.9016552025403723e7 0.0
1.9016552025403723e7 -1.44939466138438e7 0.0
0.0 0.0 0.0

3.956341744397478e7 1.5680049106207501e7 0.0
1.5680049106207501e7 1.8742475161581952e6 0.0
0.0 0.0 0.0

-5.669864272580095e6 -1.5316180197647663e6 0.0
-1.5316180197647663e6 9.895267487668956e6 0.0
0.0 0.0 0.0

3.6627934334624475e6 2.7716982317709825e6 0.0
2.7716982317709825e6 -1.3948000957158847e7 0.0
0.0 0.0 0.0

-108205.30379076488 1.9624848574930813e7 0.0
1.9624848574930813e7 -1.2440088818648001e7 0.0
0.0 0.0 0.0

-650560.5827471629 1.831660124362806e7 0.0
1.831660124362806e7 -1.065659037928407e6 0.0
0.0 0.0 0.0

-9.254090141281182e6 4.326437388422098e6 0.0
4.326437388422098e6 4.068410334572326e7 0.0
0.0 0.0 0.0

6.383302223265969e6 2.563660093060678e7 0.0
2.563660093060678e7 -5.516754883000312e6 0.0
0.0 0.0 0.0

-1.2690366564175103e7 4.007296669628709e7 0.0
4.007296669628709e7 2.9715052808482265e6 0.0
0.0 0.0 0.0

9.770528769280389e6 2.0530954099570222e7 0.0
2.0530954099570222e7 5.239869193485848e6 0.0
0.0 0.0 0.0

-8.568841179671772e6 -5.180922893386373e6 0.0
-5.180922893386373e6 2.502811341116722e7 0.0
0.0 0.0 0.0

-2.1373749787145596e7 2.5713932098521754e7 0.0
2.5713932098521754e7 -512818.4273992339 0.0
0.0 0.0 0.0

838236.6327282118 1.79379783418824e7 0.0
1.79379783418824e7 6.1214470323859975e6 0.0
0.0 0.0 0.0

-1.777454655677518e7 4.201648034020667e7 0.0
4.201648034020667e7 3.6810259438933516e6 0.0
0.0 0.0 0.0

-7.998578703316684e6 1.7380413832319975e7 0.0
1.7380413832319975e7 2.1656098115255743e7 0.0
0.0 0.0 0.0

1.7817332684154026e6 1.9288524717866164e7 0.0
1.9288524717866164e7 -1.8871851689140648e6 0.0
0.0 0.0 0.0

-5.946303149167438e6 1.690389933116167e7 0.0
1.690389933116167e7 -2.290473695417054e7 0.0
0.0 0.0 0.0

-2.36945438457917e6 1.7745498816797987e7 0.0
1.7745498816797987e7 -1.0479860175322719e7 0.0
0.0 0.0 0.0

6.617297141002487e6 2.1573193599755574e7 0.0
2.1573193599755574e7 -4.11848642103634e6 0.0
0.0 0.0 0.0

3.067939327097849e7 4.070237762056713e7 0.0
4.070237762056713e7 -1.2182907540802106e7 0.0
0.0 0.0 0.0

-9.243839658204433e6 -3.5075626449718284e6 0.0
-3.5075626449718284e6 1.914889341580006e7 0.0
0.0 0.0 0.0

1.5249971315281051e6 3.350461290744639e7 0.0
3.350461290744639e7 -2.5579653777627684e6 0.0
0.0 0.0 0.0

2.861085426630068e6 2.8813329541779142e7 0.0
2.8813329541779142e7 -3.1337120751886405e6 0.0
0.0 0.0 0.0

-9.840530014032483e6 -546151.0176116504 0.0
-546151.0176116504 3.2901907715478804e7 0.0
0.0 0.0 0.0

3.802580670906484e6 1.9800382996516284e6 0.0
1.9800382996516284e6 -3.1185899654705554e7 0.0
0.0 0.0 0.0

-4.0588671382639264e6 2.5326267385969594e7 0.0
2.5326267385969594e7 7.777060639654271e6 0.0
0.0 0.0 0.0

4.435301972612698e6 2.1891296193569265e7 0.0
2.1891296193569265e7 1.2161628615622051e7 0.0
0.0 0.0 0.0

-4.903652231450804e6 5.305072507978174e6 0.0
5.305072507978174e6 7.27957984134868e6 0.0
0.0 0.0 0.0

-9.51941079047171e6 1.5732128308754785e7 0.0
1.5732128308754785e7 2.173843037747443e7 0.0
0.0 0.0 0.0

3.4873852533662654e6 2.149014850903656e7 0.0
2.149014850903656e7 1.2744778906167047e7 0.0
0.0 0.0 0.0

-624035.4815422865 1.6626793714846738e7 0.0
1.6626793714846738e7 -1.1562700245566629e7 0.0
0.0 0.0 0.0

-2.8286849574673343e6 1.6542880529912978e7 0.0
1.6542880529912978e7 -1.5742671470934188e7 0.0
0.0 0.0 0.0

751117.052661062 2.6728506910474632e7 0.0
2.6728506910474632e7 -4.303549729074095e6 0.0
0.0 0.0 0.0

-6.721455408379637e6 -2.445433665851851e6 0.0
-2.445433665851851e6 1.2580121201813865e7 0.0
0.0 0.0 0.0

-2.878862264529031e6 1.9039402443137117e7 0.0
1.9039402443137117e7 3.474078738922855e6 0.0
0.0 0.0 0.0

-7.966605412256395e6 1.727652623838803e7 0.0
1.727652623838803e7 2.5933638666656304e7 0.0
0.0 0.0 0.0

963235.4772331621 1.3883417576859232e7 0.0
1.3883417576859232e7 -1.2943546693127465e7 0.0
0.0 0.0 0.0

681259.5907908091 2.2117713786081173e7 0.0
2.2117713786081173e7 -9.494271206144547e6 0.0
0.0 0.0 0.0

2.5249675539176306e6 3.647222190228274e7 0.0
3.647222190228274e7 -747446.6733309062 0.0
0.0 0.0 0.0

-440537.78375600465 1.4240043302795809e7 0.0
1.4240043302795809e7 -2.9756642145288445e7 0.0
0.0 0.0 0.0

-4.168836051865961e7 4.300935641808959e7 0.0
4.300935641808959e7 5.950304675509471e6 0.0
0.0 0.0 0.0

990111.7281809 2.298573500185846e6 0.0
2.298573500185846e6 -2.2271146787241464e6 0.0
0.0 0.0 0.0

728339.732196107 2.4748277429287257e6 0.0
2.4748277429287257e6 -3.115677811770883e6 0.0
0.0 0.0 0.0

4.0627267805222855e6 1.897138579157587e7 0.0
1.897138579157587e7 2.3761333379563823e7 0.0
0.0 0.0 0.0

4.10376841032174e6 2.0580806638377197e7 0.0
2.0580806638377197e7 1.491219606988356e7 0.0
0.0 0.0 0.0

-148473.4606248485 1.916163020644423e7 0.0
1.916163020644423e7 8.4015290716672e6 0.0
0.0 0.0 0.0

-1.0413706233255334e7 1.3923141749845656e7 0.0
1.3923141749845656e7 2.1588237791336324e7 0.0
0.0 0.0 0.0

5.33482233555633e6 5.425001669379586e6 0.0
5.425001669379586e6 -1.3667866151480093e6 0.0
0.0 0.0 0.0

-2.542343730108648e6 2.08220128322695e7 0.0
2.08220128322695e7 9.695638432105621e6 0.0
0.0 0.0 0.0

-677560.4532299322 2.7962091881406426e7 0.0
2.7962091881406426e7 -634187.1266536638 0.0
0.0 0.0 0.0

-1.3055270124377664e6 1.505175867592038e7 0.0
1.505175867592038e7 -3.1367497539183002e7 0.0
0.0 0.0 0.0

8.8833827827039e6 2.1920704691984262e7 0.0
2.1920704691984262e7 1.0647699462249145e7 0.0
0.0 0.0 0.0

1.3913246065014612e7 2.09644378608163e7 0.0
2.09644378608163e7 8.655107449242968e6 0.0
0.0 0.0 0.0

-2.471256652600175e7 4.3736886458815284e7 0.0
4.3736886458815284e7 5.798751364910418e6 0.0
0.0 0.0 0.0

1.1541553920934051e6 1.9207922608617216e7 0.0
1.9207922608617216e7 8.938599314767763e6 0.0
0.0 0.0 0.0

-9.677724665959597e6 8.395905702946385e6 0.0
8.395905702946385e6 1.1804902216266105e7 0.0
0.0 0.0 0.0

-1.1888341626436666e7 1.2227836419410033e7 0.0
1.2227836419410033e7 2.478333934827339e7 0.0
0.0 0.0 0.0

-1.0187550555734335e6 2.7286759502813768e7 0.0
2.7286759502813768e7 -1.6117129535372544e6 0.0
0.0 0.0 0.0

5.74396144564876e6 2.0192896343855683e7 0.0
2.0192896343855683e7 1.445102803037193e7 0.0
0.0 0.0 0.0

-7.753966481695369e6 4.068521176516707e6 0.0
4.068521176516707e6 5.805353870671416e7 0.0
0.0 0.0 0.0

-471600.5327200983 1.891216071323699e7 0.0
1.891216071323699e7 1.529525309620845e7 0.0
0.0 0.0 0.0

-9.22357913999172e6 1.721518803597491e7 0.0
1.721518803597491e7 -3.3794770518979274e7 0.0
0.0 0.0 0.0

3.9373705873725982e6 2.137573929598475e7 0.0
2.137573929598475e7 1.337776288545048e7 0.0
0.0 0.0 0.0

-5.53693983180414e6 1.8461407260813814e7 0.0
1.8461407260813814e7 2.4038971038258046e7 0.0
0.0 0.0 0.0

-412297.0185009409 1.5706832391590698e7 0.0
1.5706832391590698e7 -1.1947708163327811e7 0.0
0.0 0.0 0.0

4.0774030620213114e6 1.8412123726560216e7 0.0
1.8412123726560216e7 7.010148364101613e7 0.0
0.0 0.0 0.0

6.50990502907566e6 2.4481327648147203e7 0.0
2.4481327648147203e7 -5.281026743522156e6 0.0
0.0 0.0 0.0

202549.68645463604 1.7409460990157187e7 0.0
1.7409460990157187e7 -1.7737836101534605e7 0.0
0.0 0.0 0.0

-388395.78990101954 1.2941586630922545e7 0.0
1.2941586630922545e7 -5.967015953034413e6 0.0
0.0 0.0 0.0

3.360670123074958e6 3.140957666994684e6 0.0
3.140957666994684e6 -3.891415215727836e7 0.0
0.0 0.0 0.0

2.405712691252913e6 3.4907455535895616e7 0.0
3.4907455535895616e7 -436611.4690233575 0.0
0.0 0.0 0.0

-1.1473041048755156e7 1.3058874961685188e7 0.0
1.3058874961685188e7 2.5426998053431515e7 0.0
0.0 0.0 0.0

2.7590054438482537e6 1.760904862164053e7 0.0
1.760904862164053e7 1.78285030088127e7 0.0
0.0 0.0 0.0

-9.086015567105306e6 2.5161236225723382e7 0.0
2.5161236225723382e7 5.645530575250463e6 0.0
0.0 0.0 0.0

-2.7841398756701243e6 2.0866909946120583e7 0.0
2.0866909946120583e7 1.7225910340439968e6 0.0
0.0 0.0 0.0

-9.857834163479302e6 1.6361614585299846e7 0.0
1.6361614585299846e7 2.191272679869616e7 0.0
0.0 0.0 0.0

2.0240507385153053e6 1.0537656879116772e7 0.0
1.0537656879116772e7 -2.1409410136075027e7 0.0
0.0 0.0 0.0

-1.185478723917206e7 3.786910342937878e7 0.0
3.786910342937878e7 5.946726053932528e6 0.0
0.0 0.0 0.0

2.116756492309405e7 1.2167568467028217e7 0.0
1.2167568467028217e7 436770.9550426677 0.0
0.0 0.0 0.0

-1.0409158201430093e7 -1.4412635203697837e6 0.0
-1.4412635203697837e6 1.770871154549354e7 0.0
0.0 0.0 0.0

-6.258488220668682e6 2.8650261000353795e7 0.0
2.8650261000353795e7 5.273165134164048e6 0.0
0.0 0.0 0.0

-2.6001773166314274e7 2.1382283177423894e7 0.0
2.1382283177423894e7 5.668879849621756e6 0.0
0.0 0.0 0.0

-3.384519999617628e6 2.0730669426989056e7 0.0
2.0730669426989056e7 -9.852545103910284e6 0.0
0.0 0.0 0.0

-4.989331524972934e7 3.1819687010835208e7 0.0
3.1819687010835208e7 -766226.175188072 0.0
0.0 0.0 0.0

-3.696752500082932e6 2.100614921425698e7 0.0
2.100614921425698e7 -5.683473788075103e6 0.0
0.0 0.0 0.0

-5.567715870899749e6 1.819364941080953e7 0.0
1.819364941080953e7 1.6935756017125506e7 0.0
0.0 0.0 0.0

-1.1128085481452351e7 1.3035725078902084e7 0.0
1.3035725078902084e7 2.2550097728055473e7 0.0
0.0 0.0 0.0

-7.8014364668577425e6 1.6062384138200728e7 0.0
1.6062384138200728e7 1.5427608496683307e7 0.0
0.0 0.0 0.0

-4.50658182952043e6 2.297828626281195e7 0.0
2.297828626281195e7 1.108956024727401e7 0.0
0.0 0.0 0.0

-8.940688533986138e6 910440.2115235503 0.0
910440.2115235503 4.079985842667203e7 0.0
0.0 0.0 0.0

-385547.4716767154 1.729517529545648e7 0.0
1.729517529545648e7 -1.0972323416372016e6 0.0
0.0 0.0 0.0

1.6069975490018e6 1.1818455589059511e7 0.0
1.1818455589059511e7 -1.3476876812158668e7 0.0
0.0 0.0 0.0

900689.1520454381 1.588024229270623e7 0.0
1.588024229270623e7 -1.8424339900047183e7 0.0
0.0 0.0 0.0

-8.98879828122578e6 -3.331968299859745e6 0.0
-3.331968299859745e6 2.764196890448205e7 0.0
0.0 0.0 0.0

-1.1135106853600664e6 1.7691907557008334e7 0.0
1.7691907557008334e7 552760.3811879972 0.0
0.0 0.0 0.0

-7.653187335525429e6 2.5348126156782225e7 0.0
2.5348126156782225e7 6.609030821286386e6 0.0
0.0 0.0 0.0

1.164403393392521e6 1.91098444751632e7 0.0
1.91098444751632e7 2.428282056393765e7 0.0
0.0 0.0 0.0

101742.20478852931 1.8985182745915096e7 0.0
1.8985182745915096e7 -1.2878263301011484e7 0.0
0.0 0.0 0.0

250807.06914682034 1.8300865346456155e7 0.0
1.8300865346456155e7 4.329088720093985e6 0.0
0.0 0.0 0.0

1.1884015866766062e6 3.2509165368787847e7 0.0
3.2509165368787847e7 -2.203442889833973e6 0.0
0.0 0.0 0.0

1.0316959292478892e6 1.993513998619048e7 0.0
1.993513998619048e7 -1.048915532712138e7 0.0
0.0 0.0 0.0

8.936512699504061e7 3.2300877317885067e7 0.0
3.2300877317885067e7 2.252762119663041e6 0.0
0.0 0.0 0.0

3.510229038208043e6 1.9750064109116055e7 0.0
1.9750064109116055e7 -3.5555645984237446e6 0.0
0.0 0.0 0.0

-1.803685795029222e6 1.742552052323599e7 0.0
1.742552052323599e7 -2.075537458426163e7 0.0
0.0 0.0 0.0

1.703568326635078e6 2.1643560127966087e7 0.0
2.1643560127966087e7 -8.878961787690697e6 0.0
0.0 0.0 0.0

-2.5532920322905328e7 2.7635939116867814e7 0.0
2.7635939116867814e7 -2.024209334092523e6 0.0
0.0 0.0 0.0

-5.568191717987977e6 2.442320286596913e7 0.0
2.442320286596913e7 8.045405378926298e6 0.0
0.0 0.0 0.0

1.4265924609536136e7 2.082666023829309e7 0.0
2.082666023829309e7 3.932946979297671e6 0.0
0.0 0.0 0.0

-2.4628423547426667e6 1.4616711653385473e7 0.0
1.4616711653385473e7 -3.775643108939574e7 0.0
0.0 0.0 0.0

4.744466526898373e6 1.812268394300742e7 0.0
1.812268394300742e7 3.026586424395946e7 0.0
0.0 0.0 0.0

3.8829132527463585e6 5.270277710869586e6 0.0
5.270277710869586e6 -2.4419052188008036e7 0.0
0.0 0.0 0.0

1.873954199626117e6 2.244823810594982e7 0.0
2.244823810594982e7 -8.394036763632577e6 0.0
0.0 0.0 0.0

2.3313082474670336e6 4.3612606232343e6 0.0
4.3612606232343e6 -4.554836173093732e7 0.0
0.0 0.0 0.0

524765.036494073 2.187921163111423e7 0.0
2.187921163111423e7 -9.76605539208804e6 0.0
0.0 0.0 0.0

5.240079657523335e6 2.5742164000566136e7 0.0
2.5742164000566136e7 -5.57645771184566e6 0.0
0.0 0.0 0.0

-2.519144517998769e6 2.0650671980143e7 0.0
2.0650671980143e7 1.2003658585873619e6 0.0
0.0 0.0 0.0

-1.2483137569481904e7 3.083643953437474e7 0.0
3.083643953437474e7 5.273395742340211e6 0.0
0.0 0.0 0.0

-5.837026497285595e6 1.8570412456102196e7 0.0
1.8570412456102196e7 2.4134575555807196e7 0.0
0.0 0.0 0.0

993735.4349996485 1.8111628220790513e7 0.0
1.8111628220790513e7 9.3893426518533e6 0.0
0.0 0.0 0.0

-3.57638865708372e7 3.405373220415198e7 0.0
3.405373220415198e7 7.5021794206565805e6 0.0
0.0 0.0 0.0

1.3652633665117495e7 2.122197055128179e7 0.0
2.122197055128179e7 9.912613317752216e6 0.0
0.0 0.0 0.0

-6.1228771672903765e6 1.1928585565370223e7 0.0
1.1928585565370223e7 7.174810849772206e6 0.0
0.0 0.0 0.0

-5.249263005262392e6 2.80799423291868e7 0.0
2.80799423291868e7 4.994988035249236e6 0.0
0.0 0.0 0.0

-4.361372280035276e6 2.1455809479527697e7 0.0
2.1455809479527697e7 -7.561480890285792e6 0.0
0.0 0.0 0.0

1.055412824445012e6 1.4300311650119383e7 0.0
1.4300311650119383e7 -1.3709072338864397e7 0.0
0.0 0.0 0.0

3.7594461349642742e6 1.8349158768308766e6 0.0
1.8349158768308766e6 -3.2815780951801747e7 0.0
0.0 0.0 0.0

-1.6020157981676217e6 1.6828502749598753e7 0.0
1.6828502749598753e7 -9.162767830818258e6 0.0
0.0 0.0 0.0

4.355389110986257e7 6.280543714307285e6 0.0
6.280543714307285e6 -1.6113224402983524e6 0.0
0.0 0.0 0.0

-5.558850598133592e6 1.8245048053232532e7 0.0
1.8245048053232532e7 2.518812736773202e7 0.0
0.0 0.0 0.0

-7.01645473170128e6 2.7592385743972182e7 0.0
2.7592385743972182e7 6.035411705027465e6 0.0
0.0 0.0 0.0

-8.557449930951875e6 -2.819078032285286e6 0.0
-2.819078032285286e6 3.696325228032032e7 0.0
0.0 0.0 0.0

-2.420562172741794e6 3.2223815978598952e7 0.0
3.2223815978598952e7 767834.6061656517 0.0
0.0 0.0 0.0

-1.9589334334566593e7 2.456141536520537e7 0.0
2.456141536520537e7 -383382.94361823425 0.0
0.0 0.0 0.0

211443.57018504664 1.790249341678192e7 0.0
1.790249341678192e7 -1.6644268685529063e7 0.0
0.0 0.0 0.0

3.843170682915012e6 1.8685928496482678e7 0.0
1.8685928496482678e7 2.123368288078012e7 0.0
0.0 0.0 0.0

-82789.59623301611 1.8817232067084532e7 0.0
1.8817232067084532e7 4.302097665806912e6 0.0
0.0 0.0 0.0

-3.205515672568701e6 2.1556845143025573e7 0.0
2.1556845143025573e7 8.462625482696662e6 0.0
0.0 0.0 0.0

543680.9223769475 1.3695558792627953e7 0.0
1.3695558792627953e7 -1.4546112806509571e7 0.0
0.0 0.0 0.0

2.7430598663030406e6 1.0072037141056448e7 0.0
1.0072037141056448e7 -2.0618131982755892e7 0.0
0.0 0.0 0.0

-622273.8454456483 9.214079494041067e6 0.0
9.214079494041067e6 -6.062744288400963e6 0.0
0.0 0.0 0.0

-4.752915232568244e6 2.7553618401809465e7 0.0
2.7553618401809465e7 4.898152097454183e6 0.0
0.0 0.0 0.0

-887907.9744918915 1.710843484531499e7 0.0
1.710843484531499e7 -1.0438341581392525e7 0.0
0.0 0.0 0.0

1.7346639782455187e7 1.2007890970476901e7 0.0
1.2007890970476901e7 168734.7103684647 0.0
0.0 0.0 0.0

3.723132121626947e6 1.9356507365035955e6 0.0
1.9356507365035955e6 -3.3169926774122223e7 0.0
0.0 0.0 0.0

2.4601817456683526e6 1.805055781945538e7 0.0
1.805055781945538e7 2.226055042225359e7 0.0
0.0 0.0 0.0

245904.67818527576 8.970919399015691e6 0.0
8.970919399015691e6 -8.092611225770194e6 0.0
0.0 0.0 0.0

1.7881273295622957e6 2.702054192494595e7 0.0
2.702054192494595e7 -3.850907366282534e6 0.0
0.0 0.0 0.0

-104180.29258532776 1.9054543566033315e7 0.0
1.9054543566033315e7 1.0809397037602797e7 0.0
0.0 0.0 0.0

-1.027139991215573e7 7.310902093000681e6 0.0
7.310902093000681e6 3.64726853043402e7 0.0
0.0 0.0 0.0

-6.782019367254682e6 805531.6944300266 0.0
805531.6944300266 1.0933009814498633e7 0.0
0.0 0.0 0.0

5.635619035844148e6 2.5667551620194282e7 0.0
2.5667551620194282e7 -5.485478607983643e6 0.0
0.0 0.0 0.0

-4.991730163170911e7 1.536479721616883e7 0.0
1.536479721616883e7 7.845583576886158e6 0.0
0.0 0.0 0.0

156671.0654983865 1.6569624810346622e7 0.0
1.6569624810346622e7 -2.024928631903799e7 0.0
0.0 0.0 0.0

3.5888900802473477e6 1.2889141061132161e7 0.0
1.2889141061132161e7 3.492592439974833e6 0.0
0.0 0.0 0.0

-5.500232914286169e6 1.7849929562317148e7 0.0
1.7849929562317148e7 1.6290598336283376e7 0.0
0.0 0.0 0.0

-5.3451648510584414e7 1.4737685214908628e7 0.0
1.4737685214908628e7 6.667504396940105e6 0.0
0.0 0.0 0.0

-1.8479320366642615e6 1.6804017816466656e7 0.0
1.6804017816466656e7 -2.161417838889752e7 0.0
0.0 0.0 0.0

715703.2676263452 2.117988233488275e7 0.0
2.117988233488275e7 -1.0563731461201102e7 0.0
0.0 0.0 0.0

1.4349340435702829e6 5.396392136099693e6 0.0
5.396392136099693e6 -4.5529287350409925e6 0.0
0.0 0.0 0.0

-9.544007323971815e6 2.3183406808408078e7 0.0
2.3183406808408078e7 -7.204611105276434e6 0.0
0.0 0.0 0.0

5.621091230460802e6 2.9572403018688478e7 0.0
2.9572403018688478e7 -4.6051517752243895e6 0.0
0.0 0.0 0.0

-2.0352980175731815e6 2.9563941678795516e7 0.0
2.9563941678795516e7 483729.56167572166 0.0
0.0 0.0 0.0

-3.4912567227751375e6 2.124293925407233e7 0.0
2.124293925407233e7 4.660160513845695e6 0.0
0.0 0.0 0.0

-9.66567893478712e6 1.5545220918196686e7 0.0
1.5545220918196686e7 2.704435220755901e7 0.0
0.0 0.0 0.0

-3.957981834587955e6 2.1367429862076588e7 0.0
2.1367429862076588e7 1.427249618972938e7 0.0
0.0 0.0 0.0

-2.2748016149239456e6 3.142018956108473e7 0.0
3.142018956108473e7 695604.6924618203 0.0
0.0 0.0 0.0

1.1018950414747857e6 1.1664395147846907e7 0.0
1.1664395147846907e7 -1.5197862655650008e7 0.0
0.0 0.0 0.0

-2.3261914059327617e6 3.082401227662904e7 0.0
3.082401227662904e7 562138.1233408006 0.0
0.0 0.0 0.0

4.528825259378938e6 2.0732448997553673e7 0.0
2.0732448997553673e7 1.3575829648384789e7 0.0
0.0 0.0 0.0

-1.110110001007854e7 1.32169605446691e7 0.0
1.32169605446691e7 2.6170757701959655e7 0.0
0.0 0.0 0.0

3.2297579606548883e6 3.2270797226259476e6 0.0
3.2270797226259476e6 -3.440138785593522e7 0.0
0.0 0.0 0.0

-9.017610520735081e6 2.4979864434687585e7 0.0
2.4979864434687585e7 6.006128905153653e6 0.0
0.0 0.0 0.0

-1.281344739367068e6 2.4480532402065676e7 0.0
2.4480532402065676e7 -4.092485327090388e6 0.0
0.0 0.0 0.0

-98986.65659118956 2.433061456250728e7 0.0
2.433061456250728e7 -4.92648151688284e6 0.0
0.0 0.0 0.0

-7.000663032163663e7 4.2991866982282005e7 0.0
4.2991866982282005e7 -2.468718162208038e7 0.0
0.0 0.0 0.0

531633.3207332613 1.8550980044458386e7 0.0
1.8550980044458386e7 -1.5586983341829779e7 0.0
0.0 0.0 0.0

-820550.7064759245 2.6856546762013517e7 0.0
2.6856546762013517e7 -856730.3531107318 0.0
0.0 0.0 0.0

-5.976902842461137e6 1.885319563354545e7 0.0
1.885319563354545e7 1.578690147226996e7 0.0
0.0 0.0 0.0

-2.8876312902444225e7 2.28490653154978e7 0.0
2.28490653154978e7 6.211541966843961e6 0.0
0.0 0.0 0.0

852412.9426732425 1.821409219160248e7 0.0
1.821409219160248e7 415058.19816166104 0.0
0.0 0.0 0.0

2.2584841059838138e6 1.925035192223724e7 0.0
1.925035192223724e7 1.514225194615808e7 0.0
0.0 0.0 0.0

3.224812707266113e6 1.5656219736751006e6 0.0
1.5656219736751006e6 -4.176682950067967e7 0.0
0.0 0.0 0.0

-1.806531801136733e7 3.582349951747519e7 0.0
3.582349951747519e7 7.864197098892579e6 0.0
0.0 0.0 0.0

-8.660865937832354e6 -1.2461984828846613e6 0.0
-1.2461984828846613e6 3.789446208211093e7 0.0
0.0 0.0 0.0

-8.609040509351099e6 233461.863014838 0.0
233461.863014838 4.421497824593188e7 0.0
0.0 0.0 0.0

-5.587336851219086e6 -423867.60341745784 0.0
-423867.60341745784 1.0172689056572665e7 0.0
0.0 0.0 0.0

-1.001429731208135e7 1.3776136339384291e7 0.0
1.3776136339384291e7 2.987587734279911e7 0.0
0.0 0.0 0.0

1.9373507700815604e6 1.7153401565491933e7 0.0
1.7153401565491933e7 1.091712656777227e7 0.0
0.0 0.0 0.0

58763.49094333034 1.5833952203524249e7 0.0
1.5833952203524249e7 -2.314000158392168e7 0.0
0.0 0.0 0.0

-3.7121686697526366e7 4.452927693218219e7 0.0
4.452927693218219e7 8.308883649156805e6 0.0
0.0 0.0 0.0

-1.0684575410897085e7 1.3885950937137732e7 0.0
1.3885950937137732e7 2.6646017653545875e7 0.0
0.0 0.0 0.0

-2.653688965395296e6 1.4239378119175319e7 0.0
1.4239378119175319e7 -3.9536129946547136e7 0.0
0.0 0.0 0.0

-1.8915480503708925e7 2.4240150411448706e7 0.0
2.4240150411448706e7 -138518.0414663544 0.0
0.0 0.0 0.0

-8.120081543757098e6 -120333.27367347007 0.0
-120333.27367347007 4.536689116057998e7 0.0
0.0 0.0 0.0

148848.76891384553 1.7543045121717867e7 0.0
1.7543045121717867e7 -1.5069881756530998e7 0.0
0.0 0.0 0.0

-7.106951989283005e6 1.6986221678046804e7 0.0
1.6986221678046804e7 -4.4219447551161386e7 0.0
0.0 0.0 0.0

-2.6956658615280734e6 2.0159970519288827e7 0.0
2.0159970519288827e7 -6.909652508963086e6 0.0
0.0 0.0 0.0

-1.690037304039579e7 2.2628776868740793e7 0.0
2.2628776868740793e7 504427.50994047616 0.0
0.0 0.0 0.0

4.363138092883689e7 2.5145019122633684e7 0.0
2.5145019122633684e7 9.037208923807342e6 0.0
0.0 0.0 0.0

-1.3770233214000305e6 1.499818536634657e7 0.0
1.499818536634657e7 -3.277942202378183e6 0.0
0.0 0.0 0.0

1.0797200758561213e6 1.6307330376828585e7 0.0
1.6307330376828585e7 -1.7000109169621322e7 0.0
0.0 0.0 0.0

-2.4276633544443976e6 1.6495746546396008e7 0.0
1.6495746546396008e7 -1.322612913323903e7 0.0
0.0 0.0 0.0

3.2992369347378276e6 1.69649784336177e6 0.0
1.69649784336177e6 -4.2127314906703696e7 0.0
0.0 0.0 0.0

437712.87435341487 2.6098737412215196e7 0.0
2.6098737412215196e7 -3.53943189872507e6 0.0
0.0 0.0 0.0

-2.800716202184259e6 1.6361491077715578e7 0.0
1.6361491077715578e7 -2.354951114745078e7 0.0
0.0 0.0 0.0

823240.2267025756 2.0235689913113274e7 0.0
2.0235689913113274e7 -1.0962597321853753e7 0.0
0.0 0.0 0.0

-447749.67670187575 1.8620316138733204e7 0.0
1.8620316138733204e7 1.7091823508434491e6 0.0
0.0 0.0 0.0

-5.381307742040666e6 1.1742183660812669e7 0.0
1.1742183660812669e7 9.911355574803576e6 0.0
0.0 0.0 0.0

-3.6092970284118056e6 2.1271916478415515e7 0.0
2.1271916478415515e7 8.022304591612354e6 0.0
0.0 0.0 0.0

-1.306228624234574e6 1.8703833122779086e7 0.0
1.8703833122779086e7 2.5268071682984788e7 0.0
0.0 0.0 0.0

4.0496927633070927e6 2.242314061840692e6 0.0
2.242314061840692e6 -2.742171310410477e7 0.0
0.0 0.0 0.0

-1.5798888039073087e7 1.3674063430761822e7 0.0
1.3674063430761822e7 4.55557424223386e6 0.0
0.0 0.0 0.0

5.189110781990768e6 2.1894586797492974e7 0.0
2.1894586797492974e7 1.2673884837099468e7 0.0
0.0 0.0 0.0

-1.2785007983487467e6 1.7541121231099803e7 0.0
1.7541121231099803e7 -1.6245039675739039e7 0.0
0.0 0.0 0.0

6.788415671837895e7 1.0109522170149267e7 0.0
1.0109522170149267e7 -396113.8352671452 0.0
0.0 0.0 0.0

414435.6725037843 1.6654056495310744e7 0.0
1.6654056495310744e7 -2.0333415608832885e7 0.0
0.0 0.0 0.0

-346150.9841926375 2.510191143450372e7 0.0
2.510191143450372e7 -4.938729418215884e6 0.0
0.0 0.0 0.0

-2.8685504872931335e6 2.2267471051653974e7 0.0
2.2267471051653974e7 -248343.09864889528 0.0
0.0 0.0 0.0

6.009844946382029e6 1.847960256720213e7 0.0
1.847960256720213e7 5.633406703906872e7 0.0
0.0 0.0 0.0

-1.0137293147570325e7 1.2597218236730378e7 0.0
1.2597218236730378e7 3.137715467159912e7 0.0
0.0 0.0 0.0

-8.455426287294526e6 -3.278316738696957e6 0.0
-3.278316738696957e6 3.6573397437000684e7 0.0
0.0 0.0 0.0

-1.0302159571772844e7 5.763454542442389e6 0.0
5.763454542442389e6 3.775912201697016e7 0.0
0.0 0.0 0.0

-2.5387573948588916e6 2.8709308380500115e7 0.0
2.8709308380500115e7 1.0544473795050925e6 0.0
0.0 0.0 0.0

2.0147252007198138e6 1.141687569518914e7 0.0
1.141687569518914e7 -2.2397515792974636e7 0.0
0.0 0.0 0.0

-3.4843924552718992e6 2.2470978016730763e7 0.0
2.2470978016730763e7 1.0618071180805827e7 0.0
0.0 0.0 0.0

508274.1685404582 1.9031671923523597e7 0.0
1.9031671923523597e7 -1.4539656575315116e7 0.0
0.0 0.0 0.0

-6.839582587438603e6 1.7104033009944428e7 0.0
1.7104033009944428e7 1.4806446565405032e7 0.0
0.0 0.0 0.0

-5.002455342688458e6 2.4756174303594105e7 0.0
2.4756174303594105e7 8.308673914394653e6 0.0
0.0 0.0 0.0

7.972692361256111e6 2.4034494908129934e7 0.0
2.4034494908129934e7 -4.831987200239766e6 0.0
0.0 0.0 0.0

-4.449755559950027e6 2.0812949517358962e7 0.0
2.0812949517358962e7 1.5766524707673922e7 0.0
0.0 0.0 0.0

-3.5511360530337673e6 2.1716398792667575e7 0.0
2.1716398792667575e7 1.1966699201892544e7 0.0
0.0 0.0 0.0

-3.3708214613511804e6 1.733313390057445e7 0.0
1.733313390057445e7 -1.4449315815889582e7 0.0
0.0 0.0 0.0

-1.1275810925713891e7 1.390067682300808e7 0.0
1.390067682300808e7 2.452264288741716e7 0.0
0.0 0.0 0.0

-2.207985872685669e6 2.8701246613078482e7 0.0
2.8701246613078482e7 2.1609685730439336e6 0.0
0.0 0.0 0.0

3.423535093718795e6 4.735908689116709e6 0.0
4.735908689116709e6 -2.5950408133609317e7 0.0
0.0 0.0 0.0

-7.406134782314498e6 2.594514676457963e6 0.0
2.594514676457963e6 5.6993149069204494e7 0.0
0.0 0.0 0.0

-1.4421764071570833e6 1.947268519896222e7 0.0
1.947268519896222e7 -8.209759392094807e6 0.0
0.0 0.0 0.0

-2.5697503793632886e6 2.9303549975784753e7 0.0
2.9303549975784753e7 1.15156098443864e6 0.0
0.0 0.0 0.0

1.4706980519351661e6 1.3331309778182711e7 0.0
1.3331309778182711e7 -2.5315185378923006e7 0.0
0.0 0.0 0.0

-229766.32025347056 2.631517056647752e7 0.0
2.631517056647752e7 -3.8768756856888e6 0.0
0.0 0.0 0.0

2.232179633580085e6 9.872018140653487e6 0.0
9.872018140653487e6 -2.241731646757258e7 0.0
0.0 0.0 0.0

-1.1150504357504861e7 1.2175334670084199e7 0.0
1.2175334670084199e7 2.7394638173253544e7 0.0
0.0 0.0 0.0

-5.657919050596583e7 4.1297087679425515e7 0.0
4.1297087679425515e7 1.011853129023641e7 0.0
0.0 0.0 0.0

-1.3362300099198844e7 2.419399272689122e7 0.0
2.419399272689122e7 -309222.71822666284 0.0
0.0 0.0 0.0

-3.755116264607356e6 2.2464661655290335e7 0.0
2.2464661655290335e7 1.1667251906287553e7 0.0
0.0 0.0 0.0

-7.403593726669816e6 -6.565412950905885e6 0.0
-6.565412950905885e6 1.6748281304061586e7 0.0
0.0 0.0 0.0

-1.6007137603430023e7 2.2952597946004104e7 0.0
2.2952597946004104e7 -2.2334201770408875e6 0.0
0.0 0.0 0.0

-6.589311900725814e6 2.5309931857918754e7 0.0
2.5309931857918754e7 7.259180043247273e6 0.0
0.0 0.0 0.0

3.4687725721698944e6 3.0418980950288684e6 0.0
3.0418980950288684e6 -3.521500599886544e7 0.0
0.0 0.0 0.0

-7.191699984996144e6 1.580264768434625e7 0.0
1.580264768434625e7 1.7707907592972934e7 0.0
0.0 0.0 0.0

-1.0372740916504463e7 1.4499433787526013e7 0.0
1.4499433787526013e7 2.2184971739350975e7 0.0
0.0 0.0 0.0

3.598458079040668e6 3.2929509521491956e7 0.0
3.2929509521491956e7 -1.6871680511142395e6 0.0
0.0 0.0 0.0

-1.1402395929004572e7 1.2404171286074047e6 0.0
1.2404171286074047e6 1.9508124068540033e7 0.0
0.0 0.0 0.0

-1.078279806264672e7 1.4845087368539995e7 0.0
1.4845087368539995e7 2.5282359621392872e7 0.0
0.0 0.0 0.0

-1.042938183932059e6 2.9884718375333365e7 0.0
2.9884718375333365e7 963853.1010212852 0.0
0.0 0.0 0.0

-8.232276670454172e6 282715.9816206327 0.0
282715.9816206327 4.717070861703612e7 0.0
0.0 0.0 0.0

-8.020154445216812e6 -4.206583503532539e6 0.0
-4.206583503532539e6 1.9209720440256827e7 0.0
0.0 0.0 0.0

3.0548469908781573e6 7.290179832425267e6 0.0
7.290179832425267e6 -2.4686678475493576e7 0.0
0.0 0.0 0.0

-3.3746806659615934e6 2.161100067718017e7 0.0
2.161100067718017e7 9.073081659348687e6 0.0
0.0 0.0 0.0

-9.992151491067518e6 1.4492947829281503e7 0.0
1.4492947829281503e7 2.778359481911086e7 0.0
0.0 0.0 0.0

94769.72603547666 1.8495474780587558e7 0.0
1.8495474780587558e7 -1.4268671469565287e7 0.0
0.0 0.0 0.0

800559.2690240117 1.7661340721908897e7 0.0
1.7661340721908897e7 -1.5061079459684962e7 0.0
0.0 0.0 0.0

2.0563287308227587e6 1.1136049058602797e7 0.0
1.1136049058602797e7 -2.390653368272924e7 0.0
0.0 0.0 0.0

158119.99680632818 1.6204040504476039e7 0.0
1.6204040504476039e7 -2.1722442835645005e7 0.0
0.0 0.0 0.0

845649.9681744142 1.869025390205927e7 0.0
1.869025390205927e7 7.592396321258503e6 0.0
0.0 0.0 0.0

-9.846413475319667e6 1.5585078869066577e7 0.0
1.5585078869066577e7 2.6431272365634236e7 0.0
0.0 0.0 0.0

-113155.32154940441 2.561104982683213e7 0.0
2.561104982683213e7 -4.76133934372977e6 0.0
0.0 0.0 0.0

-5.125114223095616e6 2.738661876103837e7 0.0
2.738661876103837e7 5.598881458490435e6 0.0
0.0 0.0 0.0

-1.674351462410203e6 2.9034745454436857e7 0.0
2.9034745454436857e7 1.565454804618958e6 0.0
0.0 0.0 0.0

1.382002550517882e7 2.3332489481376745e7 0.0
2.3332489481376745e7 6.744423772979105e7 0.0
0.0 0.0 0.0

-2.9012498523497265e6 2.1981504839328703e7 0.0
2.1981504839328703e7 7.599801938486483e6 0.0
0.0 0.0 0.0

946428.140645476 1.6835731529482454e7 0.0
1.6835731529482454e7 -1.5888036718184868e7 0.0
0.0 0.0 0.0

-566646.4957081312 1.69258378073071e7 0.0
1.69258378073071e7 -2.025410104700928e7 0.0
0.0 0.0 0.0

1.0250319520798791e6 1.6590834930924298e7 0.0
1.6590834930924298e7 -1.73179066659979e7 0.0
0.0 0.0 0.0

657908.2448758704 2.8446312246795807e7 0.0
2.8446312246795807e7 -1.872693084614458e6 0.0
0.0 0.0 0.0

-3.559164816068966e6 2.0969633212304126e7 0.0
2.0969633212304126e7 7.016890710778066e6 0.0
0.0 0.0 0.0

13809.687454776606 1.785352368498616e7 0.0
1.785352368498616e7 2.779841192155341e6 0.0
0.0 0.0 0.0

-758885.5747344233 1.7896523569335707e7 0.0
1.7896523569335707e7 -1.5633829449846402e7 0.0
0.0 0.0 0.0

-6.444158561926843e6 1.242258692881289e7 0.0
1.242258692881289e7 8.721386245454933e6 0.0
0.0 0.0 0.0

4.225470957219138e6 3.808768834053676e7 0.0
3.808768834053676e7 -4.814624090298882e6 0.0
0.0 0.0 0.0

2.379961382826792e6 3.848586152944497e6 0.0
3.848586152944497e6 -5.003581843665574e7 0.0
0.0 0.0 0.0

9.282930891916978e7 3.578816495837429e7 0.0
3.578816495837429e7 2.157644617083125e7 0.0
0.0 0.0 0.0

4.003432031166314e7 3.802699078652203e7 0.0
3.802699078652203e7 -1.762034601961657e7 0.0
0.0 0.0 0.0

-1.5579578652576562e6 1.9267527260406703e7 0.0
1.9267527260406703e7 1.7182952958520018e7 0.0
0.0 0.0 0.0

1.501447933685005e6 1.9102353806476746e7 0.0
1.9102353806476746e7 9.770535849491265e6 0.0
0.0 0.0 0.0

-2.4387298056925632e7 2.4752434010676436e7 0.0
2.4752434010676436e7 124413.14017410204 0.0
0.0 0.0 0.0

-5.758393315019356e7 2.856550936550653e7 0.0
2.856550936550653e7 1.3038804125158563e6 0.0
0.0 0.0 0.0

-7.284438801971829e6 1.2475824392018365e7 0.0
1.2475824392018365e7 1.410257489164938e7 0.0
0.0 0.0 0.0

-969400.8469044315 2.5180777445018798e7 0.0
2.5180777445018798e7 -1.9864438566651067e6 0.0
0.0 0.0 0.0

1.1350602980427183e6 1.5743974381380389e7 0.0
1.5743974381380389e7 -1.8086476201695733e7 0.0
0.0 0.0 0.0

2.0306598753172122e6 7.490407607007812e6 0.0
7.490407607007812e6 -4.5457681456658736e7 0.0
0.0 0.0 0.0

645398.1632576501 1.595006319348425e7 0.0
1.595006319348425e7 -1.8408756016216654e7 0.0
0.0 0.0 0.0

-2.0042098515360076e6 1.4298839181266705e7 0.0
1.4298839181266705e7 -3.516909136874504e7 0.0
0.0 0.0 0.0

-1.087473380164161e7 1.4593243039710663e7 0.0
1.4593243039710663e7 2.0251788823830448e7 0.0
0.0 0.0 0.0

197657.09602817334 1.8531452787232168e7 0.0
1.8531452787232168e7 2.3388680048422497e7 0.0
0.0 0.0 0.0

434595.0172899943 1.748880951375185e7 0.0
1.748880951375185e7 6.95719108941836e6 0.0
0.0 0.0 0.0

-1.164426564015273e7 7.470234027404365e6 0.0
7.470234027404365e6 6.213944864087872e6 0.0
0.0 0.0 0.0

-1.02811553916845e7 4.335596451526866e6 0.0
4.335596451526866e6 3.718542112739171e7 0.0
0.0 0.0 0.0

-3.1138097192021655e6 2.5102132124066096e7 0.0
2.5102132124066096e7 5.837613772926484e6 0.0
0.0 0.0 0.0

-937576.6701384764 1.8973746110795196e7 0.0
1.8973746110795196e7 2.5651016982163943e7 0.0
0.0 0.0 0.0

-5.291508177348442e6 1.7481994521259964e7 0.0
1.7481994521259964e7 1.5380214876687359e7 0.0
0.0 0.0 0.0

-5.651202914771205e6 2.6154681962737003e6 0.0
2.6154681962737003e6 5.31490244271069e6 0.0
0.0 0.0 0.0

-4.806687200904358e6 1.2078295551275395e7 0.0
1.2078295551275395e7 5.9619529597197674e7 0.0
0.0 0.0 0.0

-2.6758221546190176e6 2.025244830819797e7 0.0
2.025244830819797e7 2.0224696104274963e6 0.0
0.0 0.0 0.0

-8053.962948103901 2.4907814540549885e7 0.0
2.4907814540549885e7 -5.661755111337948e6 0.0
0.0 0.0 0.0

-890268.3813499864 1.8482146634791203e7 0.0
1.8482146634791203e7 2.640895301269419e7 0.0
0.0 0.0 0.0

-5.869299966465908e6 1.2298899445363337e7 0.0
1.2298899445363337e7 1.136038371189176e7 0.0
0.0 0.0 0.0

5.760094734096648e6 2.4718832402995452e7 0.0
2.4718832402995452e7 -5.631147810384214e6 0.0
0.0 0.0 0.0

-5.648463106528629e6 4.503405785753542e6 0.0
4.503405785753542e6 6.491138039247514e7 0.0
0.0 0.0 0.0

5.883694362170315e6 2.280235869802626e7 0.0
2.280235869802626e7 -5.312827407355323e6 0.0
0.0 0.0 0.0

-2.2227699214608306e6 2.9252205834327858e7 0.0
2.9252205834327858e7 2.305851497815294e6 0.0
0.0 0.0 0.0

-4.689480632971643e6 1.5953850619905625e7 0.0
1.5953850619905625e7 -2.12178728538215e7 0.0
0.0 0.0 0.0

-4.228787801863231e6 2.021624544166017e7 0.0
2.021624544166017e7 1.6674700167508444e7 0.0
0.0 0.0 0.0

-1.0888008452125061e7 1.2592770498810958e7 0.0
1.2592770498810958e7 2.862680352684352e7 0.0
0.0 0.0 0.0

2.911850932432899e6 2.795278959874672e7 0.0
2.795278959874672e7 -3.866562816871787e6 0.0
0.0 0.0 0.0

2.891559083142077e6 5.453822435127561e6 0.0
5.453822435127561e6 -1.0023610640434958e7 0.0
0.0 0.0 0.0

-650877.3949048676 3.571553801097471e7 0.0
3.571553801097471e7 -1.424828287590526e6 0.0
0.0 0.0 0.0

3.4804820373841655e6 2.067096878586796e7 0.0
2.067096878586796e7 7.174433451113834e6 0.0
0.0 0.0 0.0

-1.2347590324701397e6 2.3159007300041474e7 0.0
2.3159007300041474e7 -3.727719283435627e6 0.0
0.0 0.0 0.0

2.914229455823865e6 5.35579589936093e6 0.0
5.35579589936093e6 -3.48989891643385e7 0.0
0.0 0.0 0.0

-2.0918353579866216e6 2.0216944175676662e7 0.0
2.0216944175676662e7 -9.48747970107918e6 0.0
0.0 0.0 0.0

6.037849522315505e6 2.1508785807746172e7 0.0
2.1508785807746172e7 1.2711921217083257e7 0.0
0.0 0.0 0.0

-1.706138799896775e6 2.7338262817228064e7 0.0
2.7338262817228064e7 1.2594297244031508e6 0.0
0.0 0.0 0.0

3.3461657252148204e6 1.897253023229702e7 0.0
1.897253023229702e7 2.6380330780624956e7 0.0
0.0 0.0 0.0

-3.4474690049602324e6 1.663858625846743e6 0.0
1.663858625846743e6 6.764569445441514e6 0.0
0.0 0.0 0.0

-2.2803692646973263e6 1.788857985109885e7 0.0
1.788857985109885e7 3.130430098850185e7 0.0
0.0 0.0 0.0

-7.101812987943927e6 2.3304911189850833e7 0.0
2.3304911189850833e7 4.509533566134444e6 0.0
0.0 0.0 0.0

6.274673501865648e6 2.357556288973216e7 0.0
2.357556288973216e7 -5.291512466785143e6 0.0
0.0 0.0 0.0

2.0681188714837176e6 2.2317716650120452e7 0.0
2.2317716650120452e7 -8.181494987604129e6 0.0
0.0 0.0 0.0

6.198718938322846e6 2.9356098690359984e7 0.0
2.9356098690359984e7 -4.556552142215578e6 0.0
0.0 0.0 0.0

486374.84776894934 1.6431161980350915e7 0.0
1.6431161980350915e7 4.924970387287543e6 0.0
0.0 0.0 0.0

-4.0588716014943025e6 2.320014669279993e7 0.0
2.320014669279993e7 1.0625988338342771e7 0.0
0.0 0.0 0.0

2.9792107626503585e6 3.029633362527848e7 0.0
3.029633362527848e7 -3.747599867003523e6 0.0
0.0 0.0 0.0

-7.118381291310134e6 1.6395993645343801e7 0.0
1.6395993645343801e7 -4.403323935385198e7 0.0
0.0 0.0 0.0

-8.520084814339327e6 1.0067492003226977e7 0.0
1.0067492003226977e7 1.1580294862007987e7 0.0
0.0 0.0 0.0

636874.3734725215 1.8333861718225136e7 0.0
1.8333861718225136e7 8.588667091549944e6 0.0
0.0 0.0 0.0

3.0728003112860564e6 2.869861129893249e7 0.0
2.869861129893249e7 -4.448461914334085e6 0.0
0.0 0.0 0.0

-1.0362246247434365e6 1.8313143165933564e7 0.0
1.8313143165933564e7 -1.6186644148615643e7 0.0
0.0 0.0 0.0

4.027791312048055e6 3.526741362299898e6 0.0
3.526741362299898e6 -2.4593037904939357e7 0.0
0.0 0.0 0.0

-6.867412777665772e6 -371911.4076166566 0.0
-371911.4076166566 6.003451182419373e7 0.0
0.0 0.0 0.0

1.1850182457743995e6 1.3402103277927674e7 0.0
1.3402103277927674e7 -2.6931023235338755e7 0.0
0.0 0.0 0.0

1.6261075894254993e6 1.986044795751357e7 0.0
1.986044795751357e7 1.1127293173802348e7 0.0
0.0 0.0 0.0

-9.455523774673529e6 1.5250629422709238e7 0.0
1.5250629422709238e7 2.1243380187975742e7 0.0
0.0 0.0 0.0

7.082603221613657e6 2.323248027598688e7 0.0
2.323248027598688e7 -4.739478740068967e6 0.0
0.0 0.0 0.0

3.104194687311569e6 5.8785901338304505e6 0.0
5.8785901338304505e6 -2.0859921331871755e7 0.0
0.0 0.0 0.0

3.118236161451011e6 2.0280669909839097e7 0.0
2.0280669909839097e7 -2.8142973236330776e6 0.0
0.0 0.0 0.0

6.305897802646131e6 2.2209370154048435e7 0.0
2.2209370154048435e7 1.1972712404759422e7 0.0
0.0 0.0 0.0

9.20375590161789e6 3.729504569863647e7 0.0
3.729504569863647e7 -7.199194347757648e6 0.0
0.0 0.0 0.0

2.1133264611875326e6 2.2021618999676507e7 0.0
2.2021618999676507e7 -8.311024435581972e6 0.0
0.0 0.0 0.0

909267.9666056037 1.765355730634312e7 0.0
1.765355730634312e7 4.171752015241822e7 0.0
0.0 0.0 0.0

3.936561235173052e6 2.0034595597830105e6 0.0
2.0034595597830105e6 -3.146700427460093e7 0.0
0.0 0.0 0.0

204465.04424847395 2.954441148131877e7 0.0
2.954441148131877e7 -2.1050993040670534e6 0.0
0.0 0.0 0.0

4.605199937781776e6 1.9402568936461605e7 0.0
1.9402568936461605e7 3.6810079322505817e6 0.0
0.0 0.0 0.0

-6.3662477789919674e7 1.811690239809633e7 0.0
1.811690239809633e7 4.405771172091562e6 0.0
0.0 0.0 0.0

-6.054123470986519e6 2.5145549376935422e7 0.0
2.5145549376935422e7 7.819991008090155e6 0.0
0.0 0.0 0.0

-7.495068592637e6 9.199152345014073e6 0.0
9.199152345014073e6 1.3048300144809432e7 0.0
0.0 0.0 0.0

40957.15199635085 1.6203175448406627e7 0.0
1.6203175448406627e7 -2.3243805166227303e7 0.0
0.0 0.0 0.0

-2.320857623881369e6 1.9512904451861e7 0.0
1.9512904451861e7 1.4878461275159331e7 0.0
0.0 0.0 0.0

-2.705968110886665e6 1.603780104992297e7 0.0
1.603780104992297e7 -3.0938516634971675e7 0.0
0.0 0.0 0.0

3.50111230389639e6 2.769147354085486e6 0.0
2.769147354085486e6 -4.0928251179599464e7 0.0
0.0 0.0 0.0

5.085863809018447e7 1.8241425507408023e7 0.0
1.8241425507408023e7 3.7176295516431276e6 0.0
0.0 0.0 0.0

-1.1512469606821333e8 4.4472884706429504e7 0.0
4.4472884706429504e7 -1.6049051073617186e7 0.0
0.0 0.0 0.0

1.224281299040125e7 2.027716277789453e7 0.0
2.027716277789453e7 7.632297408388497e6 0.0
0.0 0.0 0.0

41307.57889111852 2.261472617102408e7 0.0
2.261472617102408e7 -8.513249056180773e6 0.0
0.0 0.0 0.0

-3.7196025998397935e6 2.1150422515608333e7 0.0
2.1150422515608333e7 1.3702461303896299e7 0.0
0.0 0.0 0.0

3.825200143400152e6 3.536350762755677e6 0.0
3.536350762755677e6 -2.4126741756109174e7 0.0
0.0 0.0 0.0

-7.106173965019462e6 2.340794868518142e7 0.0
2.340794868518142e7 6.373086821803013e6 0.0
0.0 0.0 0.0

2.0220091943700577e6 3.0323934103989504e7 0.0
3.0323934103989504e7 -1.7532433013051841e6 0.0
0.0 0.0 0.0

-2.8274772268568184e6 1.7076305487235993e7 0.0
1.7076305487235993e7 -2.3863307784933396e7 0.0
0.0 0.0 0.0

-1.5758597137684736e6 2.2841141860079177e7 0.0
2.2841141860079177e7 -5.037010608271806e6 0.0
0.0 0.0 0.0

2.0827661548543558e6 5.431041645338004e6 0.0
5.431041645338004e6 -6.7733571945240935e6 0.0
0.0 0.0 0.0

9.267791557043709e6 2.1810933096148003e7 0.0
2.1810933096148003e7 1.1978749081970934e7 0.0
0.0 0.0 0.0

-1.0561107306813726e7 2.2329211158072747e7 0.0
2.2329211158072747e7 -2.0519073873141704e6 0.0
0.0 0.0 0.0

464390.5355456909 1.8665178676623017e7 0.0
1.8665178676623017e7 -1.2978533419719234e7 0.0
0.0 0.0 0.0

-2.782269162230216e6 2.3590407291569475e7 0.0
2.3590407291569475e7 902581.8918587568 0.0
0.0 0.0 0.0

990894.20166393 1.3551251842675386e7 0.0
1.3551251842675386e7 -2.5650640745243497e7 0.0
0.0 0.0 0.0

-8.124007558485357e6 453216.35685132345 0.0
453216.35685132345 4.828403932484479e7 0.0
0.0 0.0 0.0

494229.073583127 1.6463644222328808e7 0.0
1.6463644222328808e7 -1.7239221992937524e7 0.0
0.0 0.0 0.0

3.4045096153976256e6 1.9271195282488022e7 0.0
1.9271195282488022e7 -347775.5123997235 0.0
0.0 0.0 0.0

-1.3798116840831608e7 1.9716466760245122e7 0.0
1.9716466760245122e7 -5.633325946283799e7 0.0
0.0 0.0 0.0

3.5635530200358275e6 6.55924491271097e6 0.0
6.55924491271097e6 -2.3978821757101975e7 0.0
0.0 0.0 0.0

665326.7119190842 1.7938536401196275e7 0.0
1.7938536401196275e7 -1.6785207768688094e7 0.0
0.0 0.0 0.0

-4.725237524576291e6 2.4376462038043607e7 0.0
2.4376462038043607e7 8.8804753796735e6 0.0
0.0 0.0 0.0

-1.2182949532344774e6 2.66676255955006e7 0.0
2.66676255955006e7 -2.0362602488423258e6 0.0
0.0 0.0 0.0

-3.226782623098814e6 2.2190547467457775e7 0.0
2.2190547467457775e7 1.0123555909318443e7 0.0
0.0 0.0 0.0

4.744968756673623e6 2.02480846457521e7 0.0
2.02480846457521e7 7.830316085125828e6 0.0
0.0 0.0 0.0

-7.9105556808345e7 2.4119335556839857e7 0.0
2.4119335556839857e7 1.2510890078847222e6 0.0
0.0 0.0 0.0

-236441.63434546438 1.6526261556946922e6 0.0
1.6526261556946922e6 -844311.3559700026 0.0
0.0 0.0 0.0

-1.2065811793189237e6 1.6570871537440838e7 0.0
1.6570871537440838e7 -1.8224321919667486e6 0.0
0.0 0.0 0.0

1.131486078524213e7 1.994373441006631e7 0.0
1.994373441006631e7 2.361727543103123e6 0.0
0.0 0.0 0.0

-1.0556835646903343e6 3.1826846308474444e7 0.0
3.1826846308474444e7 1.2460973049801486e6 0.0
0.0 0.0 0.0

-2.0766151711922456e6 1.4537265565991385e7 0.0
1.4537265565991385e7 -3.761090755701194e7 0.0
0.0 0.0 0.0

-2.498900956197297e6 2.0166958282038536e7 0.0
2.0166958282038536e7 -7.005208419673844e6 0.0
0.0 0.0 0.0

2.7725183324916135e6 2.323482452214772e7 0.0
2.323482452214772e7 -7.20404237721223e6 0.0
0.0 0.0 0.0

1.0760207765545845e6 1.5087242704167293e7 0.0
1.5087242704167293e7 -1.4944410937583283e7 0.0
0.0 0.0 0.0

2.752606699149962e6 2.2537569388157606e7 0.0
2.2537569388157606e7 -7.163634944962598e6 0.0
0.0 0.0 0.0

217905.88470843295 1.8820001578483123e7 0.0
1.8820001578483123e7 8.695657490453785e6 0.0
0.0 0.0 0.0

-640193.8017281448 2.642147564230342e7 0.0
2.642147564230342e7 -1.6444102658371977e6 0.0
0.0 0.0 0.0

2.852348368127022e6 9.405135544923967e6 0.0
9.405135544923967e6 -2.338662736705701e7 0.0
0.0 0.0 0.0

3.4600347022669744e6 3.0373188635298023e6 0.0
3.0373188635298023e6 -3.562919244541797e7 0.0
0.0 0.0 0.0

-1.6837364170163055e6 701721.2816817041 0.0
701721.2816817041 -697782.028376918 0.0
0.0 0.0 0.0

-9.624638183067936e6 441393.16256633523 0.0
441393.16256633523 2.4746906267753933e6 0.0
0.0 0.0 0.0

2.67521166724262e6 2.012647297762916e7 0.0
2.012647297762916e7 1.3587720595132563e7 0.0
0.0 0.0 0.0

1.6809048900961035e6 1.7721841204289775e7 0.0
1.7721841204289775e7 1.1060211088355962e7 0.0
0.0 0.0 0.0

-193154.13161749346 1.867586143502112e7 0.0
1.867586143502112e7 8.739976695193358e6 0.0
0.0 0.0 0.0

2.9627672969382424e6 5.130162641584987e6 0.0
5.130162641584987e6 -1.5763390472402912e7 0.0
0.0 0.0 0.0

2.8566357204597513e6 2.1450888713165272e7 0.0
2.1450888713165272e7 -6.810890707253297e6 0.0
0.0 0.0 0.0

2.3651505722269765e6 4.291328780332837e6 0.0
4.291328780332837e6 -7.906051262837176e6 0.0
0.0 0.0 0.0

2.275646397073814e6 2.258429029660927e7 0.0
2.258429029660927e7 -7.779628420841724e6 0.0
0.0 0.0 0.0

-8.973687206008343e6 1.6242414768480357e7 0.0
1.6242414768480357e7 2.7250482427167304e7 0.0
0.0 0.0 0.0

499980.0836338196 2.541229457678554e7 0.0
2.541229457678554e7 -4.4524137873173e6 0.0
0.0 0.0 0.0

3.6527097526322315e6 2.934655026555021e7 0.0
2.934655026555021e7 -3.1197526914245747e6 0.0
0.0 0.0 0.0

2.9442740656695534e6 7.2101706591361435e6 0.0
7.2101706591361435e6 -2.4967602289450653e7 0.0
0.0 0.0 0.0

3.1147009941606354e6 5.965733350359208e6 0.0
5.965733350359208e6 -2.5500759098913036e7 0.0
0.0 0.0 0.0

1.374221591599141e7 2.144577747069267e7 0.0
2.144577747069267e7 -361814.1762539102 0.0
0.0 0.0 0.0

286033.820406856 1.9155039170396358e7 0.0
1.9155039170396358e7 2.3000110928497504e7 0.0
0.0 0.0 0.0

279902.73923849966 1.701769047412564e7 0.0
1.701769047412564e7 -1.615691935292916e7 0.0
0.0 0.0 0.0

-8.260314714480471e6 -3.081726406134893e6 0.0
-3.081726406134893e6 3.7728987436482586e7 0.0
0.0 0.0 0.0

-1.110283021792776e6 3.0487903155283447e7 0.0
3.0487903155283447e7 977367.3438864129 0.0
0.0 0.0 0.0

-1.0432327154752195e7 1.4980038626970386e7 0.0
1.4980038626970386e7 2.5535111976345673e7 0.0
0.0 0.0 0.0

-7.915552798666085e6 -3.9545987974761366e6 0.0
-3.9545987974761366e6 1.4330031279307049e7 0.0
0.0 0.0 0.0

-164333.09475297248 1.6834826917694166e7 0.0
1.6834826917694166e7 -1.0011070332992766e7 0.0
0.0 0.0 0.0

3.6030952567805685e6 3.1145902736518467e6 0.0
3.1145902736518467e6 -3.432310282351391e7 0.0
0.0 0.0 0.0

-4.38108127789057e6 2.782202355332862e7 0.0
2.782202355332862e7 5.303450641312414e6 0.0
0.0 0.0 0.0

-987446.4275345993 2.2607187824841358e7 0.0
2.2607187824841358e7 -4.694004645028818e6 0.0
0.0 0.0 0.0

1.0545649519399162e6 1.308155737269513e7 0.0
1.308155737269513e7 -2.7088410904134516e7 0.0
0.0 0.0 0.0

1.4570490440947782e7 1.94613930411864e7 0.0
1.94613930411864e7 4.839564880881872e6 0.0
0.0 0.0 0.0

-5.03695935738317e6 2.6903190373097222e7 0.0
2.6903190373097222e7 6.301687333259566e6 0.0
0.0 0.0 0.0

-9.197885663327184e6 -1.9048401927868265e6 0.0
-1.9048401927868265e6 3.591760883404637e7 0.0
0.0 0.0 0.0

-8.953661654540433e6 -4.693218958271444e6 0.0
-4.693218958271444e6 2.7509248273774486e7 0.0
0.0 0.0 0.0

4.676700996727376e6 1.9623437404882006e7 0.0
1.9623437404882006e7 48273.38965742267 0.0
0.0 0.0 0.0

361283.46549029695 2.2463749550046206e7 0.0
2.2463749550046206e7 -8.282747815693569e6 0.0
0.0 0.0 0.0

664200.6627330803 2.301597486765778e7 0.0
2.301597486765778e7 -7.847838282344969e6 0.0
0.0 0.0 0.0

-6.712399433554187e6 6.423767794943067e6 0.0
6.423767794943067e6 5.351610316941906e7 0.0
0.0 0.0 0.0

3.5291996171330893e6 2.8843769591228436e6 0.0
2.8843769591228436e6 -1.1949203562102495e7 0.0
0.0 0.0 0.0

-7.491481265887505e6 2.2251206750407632e7 0.0
2.2251206750407632e7 -2.2260043681117087e6 0.0
0.0 0.0 0.0

-1.2774878340939881e7 2.268112282745932e7 0.0
2.268112282745932e7 -7.325305078935151e6 0.0
0.0 0.0 0.0

-2.814762188931802e7 2.74676726102499e7 0.0
2.74676726102499e7 -2.652575618146728e6 0.0
0.0 0.0 0.0

564690.3474738066 3.0824817092309754e7 0.0
3.0824817092309754e7 -435472.10946940654 0.0
0.0 0.0 0.0

519824.55796957714 1.7138299738462556e7 0.0
1.7138299738462556e7 759993.8475485147 0.0
0.0 0.0 0.0

-8.872854148872385e6 -1.2471183894898784e6 0.0
-1.2471183894898784e6 3.805934571669414e7 0.0
0.0 0.0 0.0

1.1533764160823438e7 2.118224509497313e7 0.0
2.118224509497313e7 -250718.8049582634 0.0
0.0 0.0 0.0

-68220.41575917974 1.8543346082749937e7 0.0
1.8543346082749937e7 -1.0597317760944152e7 0.0
0.0 0.0 0.0

-9.660446093919389e6 -1.144810989058959e6 0.0
-1.144810989058959e6 2.9486350094840486e7 0.0
0.0 0.0 0.0

-3.8394471106195915e6 2.2640756078723185e7 0.0
2.2640756078723185e7 9.099973997986617e6 0.0
0.0 0.0 0.0

-3.848965014004533e6 2.396182179717194e7 0.0
2.396182179717194e7 8.089874652398381e6 0.0
0.0 0.0 0.0

-4.746323711093031e6 827242.8384066875 0.0
827242.8384066875 5.009047408989815e6 0.0
0.0 0.0 0.0

3.295632257298123e6 5.169301741712125e6 0.0
5.169301741712125e6 -2.651247576296251e7 0.0
0.0 0.0 0.0

763187.3112462312 8.326142379704653e6 0.0
8.326142379704653e6 -4.661819418018508e7 0.0
0.0 0.0 0.0

6.350911218472134e6 2.162611618037835e7 0.0
2.162611618037835e7 1.2347205841252245e7 0.0
0.0 0.0 0.0

2.7862480234278087e6 4.423217100285726e6 0.0
4.423217100285726e6 -1.0739549079000669e7 0.0
0.0 0.0 0.0

1.815164405953155e7 2.859058865851991e7 0.0
2.859058865851991e7 -7.803812168305934e6 0.0
0.0 0.0 0.0

4.0017136530004106e6 4.478320097094464e6 0.0
4.478320097094464e6 -2.5272925201535925e7 0.0
0.0 0.0 0.0

3.8608312100367825e6 5.008085669948421e6 0.0
5.008085669948421e6 -1.7478512063684795e7 0.0
0.0 0.0 0.0

3.5129586146215247e6 4.79993395282631e6 0.0
4.79993395282631e6 -2.2440898079237923e7 0.0
0.0 0.0 0.0

758864.2357283246 1.8105644216920692e7 0.0
1.8105644216920692e7 2.469855941840361e6 0.0
0.0 0.0 0.0

1.1194578845442398e6 1.765579133731015e7 0.0
1.765579133731015e7 8.436165544502107e6 0.0
0.0 0.0 0.0

348574.79565712716 1.5257389211328337e7 0.0
1.5257389211328337e7 -2.449420888410136e7 0.0
0.0 0.0 0.0

1.703170780280003e7 2.964076784443038e7 0.0
2.964076784443038e7 -6.463890223447038e6 0.0
0.0 0.0 0.0

-9.431894121941125e6 -2.5578131381993885e6 0.0
-2.5578131381993885e6 2.931685453488633e7 0.0
0.0 0.0 0.0

-3.7165683454781626e6 2.2853437630902432e7 0.0
2.2853437630902432e7 1.0720371245286588e7 0.0
0.0 0.0 0.0

-2.0770267807235857e6 3.0181757717962075e7 0.0
3.0181757717962075e7 515691.6639671017 0.0
0.0 0.0 0.0

123023.66337917792 2.5523215561401177e7 0.0
2.5523215561401177e7 -3.805514167037407e6 0.0
0.0 0.0 0.0

-8.147515013324395e6 -4.1459556062615924e6 0.0
-4.1459556062615924e6 2.041064614921816e7 0.0
0.0 0.0 0.0

-9.35090594322503e6 -1.587779605539856e6 0.0
-1.587779605539856e6 1.4080938419776402e7 0.0
0.0 0.0 0.0

1.6513485616464308e6 1.9168830551085934e7 0.0
1.9168830551085934e7 2.184546365929653e7 0.0
0.0 0.0 0.0

-1.8767389144461663e6 297396.2285281504 0.0
297396.2285281504 1.7616490060396171e6 0.0
0.0 0.0 0.0

5.9636473856711695e6 2.36067946511e7 0.0
2.36067946511e7 -5.3035822682662215e6 0.0
0.0 0.0 0.0

42181.828839236405 2.1391744625610914e7 0.0
2.1391744625610914e7 -1.001036589593056e7 0.0
0.0 0.0 0.0

418372.43566726707 1.7814147659358308e7 0.0
1.7814147659358308e7 -1.7774671609981272e7 0.0
0.0 0.0 0.0

-2.2277046996486234e6 2.1873911892377023e7 0.0
2.1873911892377023e7 455854.29738014145 0.0
0.0 0.0 0.0

-3.9512793517596326e6 2.1884571213721145e7 0.0
2.1884571213721145e7 9.6418130268029e6 0.0
0.0 0.0 0.0

-1.0227650166074287e7 1.5036127199916387e7 0.0
1.5036127199916387e7 2.2683633124935675e7 0.0
0.0 0.0 0.0

-1.909110510772635e7 3.819828047276331e7 0.0
3.819828047276331e7 5.976511437864064e6 0.0
0.0 0.0 0.0

2.9991732976500597e6 4.350850677224228e6 0.0
4.350850677224228e6 -1.0951018659938581e7 0.0
0.0 0.0 0.0

755347.7196910679 1.7361943785321653e7 0.0
1.7361943785321653e7 -1.4827585465657167e7 0.0
0.0 0.0 0.0

2.567844660734741e6 3.9515701803862466e6 0.0
3.9515701803862466e6 -4.989025669208574e7 0.0
0.0 0.0 0.0

2.437223774353656e6 2.3010530237688817e7 0.0
2.3010530237688817e7 -7.570015350976219e6 0.0
0.0 0.0 0.0

-7.497331695113099e6 1.2235533278271297e7 0.0
1.2235533278271297e7 1.219127114181786e7 0.0
0.0 0.0 0.0

-7.682108271270991e6 1.612043805250045e7 0.0
1.612043805250045e7 -3.174652493597733e7 0.0
0.0 0.0 0.0

2.948533439299961e7 2.0224120779684372e7 0.0
2.0224120779684372e7 6.127452569767758e6 0.0
0.0 0.0 0.0

-9.407968238600194e6 1.8005181744822073e6 0.0
1.8005181744822073e6 1.6380160278230477e7 0.0
0.0 0.0 0.0

9.175653560389128e6 2.0540963807505872e7 0.0
2.0540963807505872e7 9.358784452512912e6 0.0
0.0 0.0 0.0

5.426892128930117e6 1.6456493632459207e7 0.0
1.6456493632459207e7 2.2907922488107864e7 0.0
0.0 0.0 0.0

-6.19904837203035e6 1.6372999765269676e7 0.0
1.6372999765269676e7 -1.9143336141405206e7 0.0
0.0 0.0 0.0

2.981533383468287e6 3.224964151491853e7 0.0
3.224964151491853e7 -3.401919275123134e6 0.0
0.0 0.0 0.0

-995081.2623080856 2.265269575792377e7 0.0
2.265269575792377e7 -7.011581919266066e6 0.0
0.0 0.0 0.0

-6.366124956207231e6 1.7263048067196056e7 0.0
1.7263048067196056e7 1.7766184397504184e7 0.0
0.0 0.0 0.0

-422499.76904763654 8.307318356766879e6 0.0
8.307318356766879e6 -6.573809469639099e7 0.0
0.0 0.0 0.0

-9.750149603376077e6 -80894.63654732783 0.0
-80894.63654732783 1.3930461561072318e7 0.0
0.0 0.0 0.0

-1.1080607060165424e6 1.8347014306038212e7 0.0
1.8347014306038212e7 -7.557121276275581e6 0.0
0.0 0.0 0.0

8.201446985635132e6 2.100028409162501e7 0.0
2.100028409162501e7 9.820064206250776e6 0.0
0.0 0.0 0.0

423951.4878426718 1.3508374559095243e7 0.0
1.3508374559095243e7 6.391413555173403e6 0.0
0.0 0.0 0.0

-4.197222082467899e6 2.119793890180624e7 0.0
2.119793890180624e7 1.4378927225120913e7 0.0
0.0 0.0 0.0

-3.0216329288498806e6 2.5609584443602644e7 0.0
2.5609584443602644e7 4.963221135945979e6 0.0
0.0 0.0 0.0

-1.657415323208564e7 3.902517727818888e7 0.0
3.902517727818888e7 7.225148520470118e6 0.0
0.0 0.0 0.0

1.122816778674264e6 7.797474751595233e6 0.0
7.797474751595233e6 -6.355639793796939e6 0.0
0.0 0.0 0.0

-3.5260235925593674e6 2.5322852649993643e7 0.0
2.5322852649993643e7 4.53763697563322e6 0.0
0.0 0.0 0.0

-848267.5078636189 2.1697093261741955e7 0.0
2.1697093261741955e7 -7.026605899136743e6 0.0
0.0 0.0 0.0

1.3421150433227342e7 2.1306086725674e7 0.0
2.1306086725674e7 1.0788246519895362e7 0.0
0.0 0.0 0.0

-636664.4599790364 2.4552237211612333e7 0.0
2.4552237211612333e7 -5.276590640361616e6 0.0
0.0 0.0 0.0

2.316233342848819e6 4.376086564637115e6 0.0
4.376086564637115e6 -8.797247527752528e6 0.0
0.0 0.0 0.0

-470.2779499674216 1.8866430198665414e7 0.0
1.8866430198665414e7 -1.3301044869056843e7 0.0
0.0 0.0 0.0

-1.0480523448291812e7 1.307297867540533e6 0.0
1.307297867540533e6 2.264420533539693e7 0.0
0.0 0.0 0.0

3.771145096778296e6 5.8242330042912355e6 0.0
5.8242330042912355e6 -2.481876015055601e7 0.0
0.0 0.0 0.0

2.368879825676903e6 4.726922048553063e6 0.0
4.726922048553063e6 -5.40486331498295e7 0.0
0.0 0.0 0.0

2.2184363847309784e6 2.0936597583653413e7 0.0
2.0936597583653413e7 1.208289939171659e7 0.0
0.0 0.0 0.0

490612.6928069191 1.8757885586643133e7 0.0
1.8757885586643133e7 -1.5587729422306564e7 0.0
0.0 0.0 0.0

-6.855778531844217e6 1.751706907964346e7 0.0
1.751706907964346e7 1.5762560843849689e7 0.0
0.0 0.0 0.0

4.115647552151678e6 2.424987324321594e6 0.0
2.424987324321594e6 -2.1372225403627887e7 0.0
0.0 0.0 0.0

1.3614737633221615e6 1.5277506438350862e7 0.0
1.5277506438350862e7 -1.9087972924120326e7 0.0
0.0 0.0 0.0

-30240.328737386502 1.718728127431324e7 0.0
1.718728127431324e7 -1.8790842983912762e7 0.0
0.0 0.0 0.0

-6.079123194608179e6 1.8462433988763e7 0.0
1.8462433988763e7 1.503880590045351e7 0.0
0.0 0.0 0.0

-1.8579216395240317e6 8.200708603575297e6 0.0
8.200708603575297e6 4.360148545913209e6 0.0
0.0 0.0 0.0

-9.601135287179558e6 -2.1343232017317275e6 0.0
-2.1343232017317275e6 2.4147141715335634e7 0.0
0.0 0.0 0.0

133315.58517944347 1.8097404107803483e7 0.0
1.8097404107803483e7 -1.6285981817727301e7 0.0
0.0 0.0 0.0

-6.991895117097236e6 1.0983695847753549e7 0.0
1.0983695847753549e7 1.315200927275795e7 0.0
0.0 0.0 0.0

1.2372822268954115e7 1.9704545904541984e7 0.0
1.9704545904541984e7 9.983536033194352e6 0.0
0.0 0.0 0.0

66210.7776856632 2.196650651125895e7 0.0
2.196650651125895e7 -9.39034364086632e6 0.0
0.0 0.0 0.0

2.4733463410114236e6 4.35353714682269e6 0.0
4.35353714682269e6 -7.782450786508022e6 0.0
0.0 0.0 0.0

-9.418810403548136e6 5.498336205701781e6 0.0
5.498336205701781e6 3.8488167779881895e7 0.0
0.0 0.0 0.0

-2.3339138183531626e6 2.7600500590700787e7 0.0
2.7600500590700787e7 839614.6984750408 0.0
0.0 0.0 0.0

-8.719765535445241e6 2.925670047548965e7 0.0
2.925670047548965e7 5.4714670144858975e6 0.0
0.0 0.0 0.0

-1.1133799382678313e7 2.762013618762271e6 0.0
2.762013618762271e6 1.4637467467589553e7 0.0
0.0 0.0 0.0

-1.0004686679213438e7 667127.7523275488 0.0
667127.7523275488 3.094370746867469e7 0.0
0.0 0.0 0.0

677830.1742662452 1.3665676748359853e7 0.0
1.3665676748359853e7 -2.7300146601462558e7 0.0
0.0 0.0 0.0

-4.886122193548512e6 1.900484708685547e7 0.0
1.900484708685547e7 1.5676998676502788e7 0.0
0.0 0.0 0.0

-9.626409384658292e6 6.765019568345264e6 0.0
6.765019568345264e6 3.895890261377374e7 0.0
0.0 0.0 0.0

-6.0852950300425954e7 1.8959510579040065e7 0.0
1.8959510579040065e7 5.7270738265577555e6 0.0
0.0 0.0 0.0

1.1913317308248095e6 1.2813777243124701e7 0.0
1.2813777243124701e7 -1.7084586871546067e7 0.0
0.0 0.0 0.0

795865.3006016612 1.800566106789209e7 0.0
1.800566106789209e7 304597.6847461785 0.0
0.0 0.0 0.0

3.822296238401154e6 1.9175659151913621e6 0.0
1.9175659151913621e6 -3.3535111856227595e7 0.0
0.0 0.0 0.0

2.550078255220539e6 1.907983287715822e7 0.0
1.907983287715822e7 1.4450090818325609e7 0.0
0.0 0.0 0.0

-1.0562702374718057e7 6.943019001191819e6 0.0
6.943019001191819e6 3.585345515351968e7 0.0
0.0 0.0 0.0

1.2137786275033462e6 6.666299930169099e6 0.0
6.666299930169099e6 -8.118957086874145e6 0.0
0.0 0.0 0.0

-770578.5412350865 2.1741190540515058e7 0.0
2.1741190540515058e7 -7.012767492719674e6 0.0
0.0 0.0 0.0

-2.5602671036529588e6 2.4590618700995833e7 0.0
2.4590618700995833e7 358626.2078397522 0.0
0.0 0.0 0.0

-3.320629501834725e6 2.107665543159823e7 0.0
2.107665543159823e7 9.404212657256352e6 0.0
0.0 0.0 0.0

-6.083083607668761e6 2.8516239084831055e7 0.0
2.8516239084831055e7 5.1515102926054085e6 0.0
0.0 0.0 0.0

-3.066713670893092e6 2.01793264287598e7 0.0
2.01793264287598e7 438163.41760528646 0.0
0.0 0.0 0.0

-8.616865922473663e6 -291754.3718422566 0.0
-291754.3718422566 4.314311296565025e7 0.0
0.0 0.0 0.0

2.2986223872957802e6 1.8612402597281214e7 0.0
1.8612402597281214e7 1.9664278359842476e7 0.0
0.0 0.0 0.0

928034.6338319127 1.7112813564601988e7 0.0
1.7112813564601988e7 -1.6228102707929976e7 0.0
0.0 0.0 0.0

-1.630306125473611e7 2.6068409160637345e7 0.0
2.6068409160637345e7 -5.38510989201154e6 0.0
0.0 0.0 0.0

-6.216673753840815e6 -1.0409993596971211e6 0.0
-1.0409993596971211e6 8.037122837071488e6 0.0
0.0 0.0 0.0

-1.6772276465692017e6 2.9642323425904244e7 0.0
2.9642323425904244e7 1.682510669423852e6 0.0
0.0 0.0 0.0

268293.99402279896 1.7324653421681087e7 0.0
1.7324653421681087e7 -1.6014012129054498e6 0.0
0.0 0.0 0.0

-8.666602736034948e6 1.700908637699662e7 0.0
1.700908637699662e7 2.5534211033861827e7 0.0
0.0 0.0 0.0

2.541773647934026e6 1.1328756417563686e7 0.0
1.1328756417563686e7 -2.235780847050346e7 0.0
0.0 0.0 0.0

-9.441478820511889e6 1.6341989203094281e7 0.0
1.6341989203094281e7 2.3602100307491805e7 0.0
0.0 0.0 0.0

2.0386665059677414e6 4.459036801658869e6 0.0
4.459036801658869e6 -7.504777155176884e6 0.0
0.0 0.0 0.0

3.4887950700328387e6 7.124331210873677e6 0.0
7.124331210873677e6 -2.4564457153221574e7 0.0
0.0 0.0 0.0

-2.224187042813695e6 2.0203070563820966e7 0.0
2.0203070563820966e7 -8.217340449511407e6 0.0
0.0 0.0 0.0

-2.7154616370366747e6 2.147130591041339e7 0.0
2.147130591041339e7 2.276963344228319e6 0.0
0.0 0.0 0.0

-2.145490131568225e6 2.4685555629369956e7 0.0
2.4685555629369956e7 1.707031636585867e6 0.0
0.0 0.0 0.0

2.8145171046813377e6 2.2390098511005446e7 0.0
2.2390098511005446e7 -7.47750713736492e6 0.0
0.0 0.0 0.0

3.924736822801277e6 5.084957589633941e6 0.0
5.084957589633941e6 -2.2310083051279623e7 0.0
0.0 0.0 0.0

1.4823349722181652e6 4.366832911268841e6 0.0
4.366832911268841e6 -5.346669644316917e6 0.0
0.0 0.0 0.0

2.920530904384965e6 6.449179276478263e6 0.0
6.449179276478263e6 -2.6135308754942067e7 0.0
0.0 0.0 0.0

2.015732301726669e6 6.616950375146255e6 0.0
6.616950375146255e6 -8.39172687848635e6 0.0
0.0 0.0 0.0

1.710155800185156e7 1.961818500150099e7 0.0
1.961818500150099e7 8.47356366410763e6 0.0
0.0 0.0 0.0

-2.6114092746409355e6 3.2794113228346556e7 0.0
3.2794113228346556e7 2.4462875896776034e6 0.0
0.0 0.0 0.0

-9.120606188300313e6 -1.9046273134786282e6 0.0
-1.9046273134786282e6 3.4476898681983545e7 0.0
0.0 0.0 0.0

1.9027799502889551e6 8.182926877685621e6 0.0
8.182926877685621e6 -4.284590301550701e7 0.0
0.0 0.0 0.0

2.1302899363028584e6 2.309855166144867e7 0.0
2.309855166144867e7 -7.707211813480509e6 0.0
0.0 0.0 0.0

-1.839880741090857e6 1.999737664981987e7 0.0
1.999737664981987e7 -9.591631614757676e6 0.0
0.0 0.0 0.0

2.4706956988158207e6 7.451321156576691e6 0.0
7.451321156576691e6 -3.2566588813684877e7 0.0
0.0 0.0 0.0

-6.258687541851909e6 3.273449054041912e7 0.0
3.273449054041912e7 4.736190993554773e6 0.0
0.0 0.0 0.0

6.785897582587248e6 2.1542006156100597e7 0.0
2.1542006156100597e7 1.1433159300764218e7 0.0
0.0 0.0 0.0

-3.765161120824715e7 3.6863067568674974e7 0.0
3.6863067568674974e7 7.644294993643099e6 0.0
0.0 0.0 0.0

-3.1969036480092136e6 1.9136312104955655e7 0.0
1.9136312104955655e7 2.0595793687618803e7 0.0
0.0 0.0 0.0

2.4404688126477264e6 1.0352971350063348e7 0.0
1.0352971350063348e7 -2.293236527989671e7 0.0
0.0 0.0 0.0

6.755381549790902e7 2.2789314804939684e7 0.0
2.2789314804939684e7 8.599585214993134e6 0.0
0.0 0.0 0.0

4.334708784974247e6 1.9965001676281825e7 0.0
1.9965001676281825e7 1.6143256671181783e7 0.0
0.0 0.0 0.0

-1.1024023629524667e7 2.452098091723322e6 0.0
2.452098091723322e6 2.3536643695295457e7 0.0
0.0 0.0 0.0

1.2726171297761814e6 1.8159778278489962e7 0.0
1.8159778278489962e7 8.887853397168001e6 0.0
0.0 0.0 0.0

-2.315322919351536e6 1.6585891474082954e7 0.0
1.6585891474082954e7 -2.3114179126371212e7 0.0
0.0 0.0 0.0

7.512660182442845e6 2.319038553931874e7 0.0
2.319038553931874e7 -4.70131711134994e6 0.0
0.0 0.0 0.0

-3.2670160192232095e6 2.145647602237492e7 0.0
2.145647602237492e7 7.495160585832856e6 0.0
0.0 0.0 0.0

-1.0452064436271256e7 5.384597111356724e6 0.0
5.384597111356724e6 3.506337088326122e7 0.0
0.0 0.0 0.0

-5.634170792127874e6 3.331887070419637e7 0.0
3.331887070419637e7 3.6032605613076e6 0.0
0.0 0.0 0.0

-7.510621258196957e6 2.2521838530459918e7 0.0
2.2521838530459918e7 4.693761668539045e6 0.0
0.0 0.0 0.0

-2.7423910715365545e6 2.4323230312001012e7 0.0
2.4323230312001012e7 1.1118670582282543e6 0.0
0.0 0.0 0.0

2.0778861705237087e6 2.7571836725107342e7 0.0
2.7571836725107342e7 -3.858407627223879e6 0.0
0.0 0.0 0.0

-2.33440082496363e6 2.703865230698453e7 0.0
2.703865230698453e7 765242.0925895969 0.0
0.0 0.0 0.0

136859.04389168427 1.8263359866377015e7 0.0
1.8263359866377015e7 211045.82297921242 0.0
0.0 0.0 0.0

-1.0317403693160312e6 1.9733646626431763e7 0.0
1.9733646626431763e7 1.7746325495413624e7 0.0
0.0 0.0 0.0

1.9148973388354995e6 1.9718058257216055e7 0.0
1.9718058257216055e7 80636.08688466414 0.0
0.0 0.0 0.0

-7.4693367744513685e6 1.6934573690543063e7 0.0
1.6934573690543063e7 -3.911055057946805e7 0.0
0.0 0.0 0.0

23911.229739966453 1.830127538940327e7 0.0
1.830127538940327e7 2.178718203701049e6 0.0
0.0 0.0 0.0

-3.003869544407719e6 2.1388559103091937e7 0.0
2.1388559103091937e7 978004.1228129717 0.0
0.0 0.0 0.0

2.5828400916163456e6 1.5677628413457295e7 0.0
1.5677628413457295e7 1.334326639554193e7 0.0
0.0 0.0 0.0

366446.2893117098 2.018781240668096e7 0.0
2.018781240668096e7 -1.1713372421574913e7 0.0
0.0 0.0 0.0

926452.2572140545 1.4931380310393432e7 0.0
1.4931380310393432e7 -2.0187001860120386e7 0.0
0.0 0.0 0.0

3.952378390952465e6 4.490101185187521e6 0.0
4.490101185187521e6 -2.3241555187215574e7 0.0
0.0 0.0 0.0

3.528796632593964e6 1.9693915911479004e7 0.0
1.9693915911479004e7 1.362424835402283e7 0.0
0.0 0.0 0.0

-2.065303134887388e6 2.032668157286892e7 0.0
2.032668157286892e7 1.2344231019788716e7 0.0
0.0 0.0 0.0

-9.167996377534911e6 1.6762188751618395e7 0.0
1.6762188751618395e7 2.3658985277977534e7 0.0
0.0 0.0 0.0

-3.1569325223000497e6 2.0826755311891522e7 0.0
2.0826755311891522e7 8.568200792367972e6 0.0
0.0 0.0 0.0

-3.537639593468379e6 2.0330649949519444e7 0.0
2.0330649949519444e7 -8.524620141307779e6 0.0
0.0 0.0 0.0

-9.456168559456807e6 1.6898483747600168e7 0.0
1.6898483747600168e7 2.225174254939296e7 0.0
0.0 0.0 0.0

-9.495958915966785e6 1.6445561708148025e7 0.0
1.6445561708148025e7 2.548345934848833e7 0.0
0.0 0.0 0.0

-1.069206525575178e7 1.5066676566376118e7 0.0
1.5066676566376118e7 2.090503976266719e7 0.0
0.0 0.0 0.0

-9.265939394259525e6 -3.583075137062816e6 0.0
-3.583075137062816e6 2.358651310327898e7 0.0
0.0 0.0 0.0

-3.186264846952484e6 2.2865707662892077e7 0.0
2.2865707662892077e7 9.115301669037737e6 0.0
0.0 0.0 0.0

-2.9546699734217115e6 1.5747639916560145e7 0.0
1.5747639916560145e7 -3.372446675416857e7 0.0
0.0 0.0 0.0

-92493.89829742163 1.5203517229520323e7 0.0
1.5203517229520323e7 -2.44531756818205e7 0.0
0.0 0.0 0.0

-2.7147101669062976e7 2.9552664508695595e7 0.0
2.9552664508695595e7 -7.474137596788306e6 0.0
0.0 0.0 0.0

-8.575895884605486e6 4.364320363340847e6 0.0
4.364320363340847e6 4.395058583986245e7 0.0
0.0 0.0 0.0

436772.3243832309 1.5730052955235772e7 0.0
1.5730052955235772e7 -2.2976584017139573e7 0.0
0.0 0.0 0.0

-1.3320657798115935e6 2.767772463428312e7 0.0
2.767772463428312e7 -1.091572849626877e6 0.0
0.0 0.0 0.0

2.3003663717242125e6 1.8199075138307095e7 0.0
1.8199075138307095e7 1.525032577470278e7 0.0
0.0 0.0 0.0

-8.109848788657379e6 -6.095728993144995e6 0.0
-6.095728993144995e6 1.960984126058556e7 0.0
0.0 0.0 0.0

-305077.0423082838 1.8016674229272943e7 0.0
1.8016674229272943e7 -1.8881889769838161e6 0.0
0.0 0.0 0.0

-1.2095582972869712e6 1.9667243724650692e7 0.0
1.9667243724650692e7 -8.881395441845702e6 0.0
0.0 0.0 0.0

-1.2207695319719631e7 6.524805657294356e6 0.0
6.524805657294356e6 1.6250732713920787e7 0.0
0.0 0.0 0.0

3.3000173447532654e6 1.6442980531608423e6 0.0
1.6442980531608423e6 -4.23883562656601e7 0.0
0.0 0.0 0.0

203131.83906549402 1.0211726939555112e7 0.0
1.0211726939555112e7 -9.031983515199041e6 0.0
0.0 0.0 0.0

-1.1249787157845562e7 1.8153060470147503e6 0.0
1.8153060470147503e6 2.8115477895113125e7 0.0
0.0 0.0 0.0

661638.5532240123 2.0628145939571623e7 0.0
2.0628145939571623e7 -1.1367660418227239e7 0.0
0.0 0.0 0.0

5.1127953441676255e6 1.8117800817610595e7 0.0
1.8117800817610595e7 2.7271894832454152e7 0.0
0.0 0.0 0.0

128240.86141093937 9.7550755553707e6 0.0
9.7550755553707e6 -5.057945842103061e6 0.0
0.0 0.0 0.0

7.20663255288899e6 2.1458794730118643e7 0.0
2.1458794730118643e7 1.2967392917318942e7 0.0
0.0 0.0 0.0

-3.169623832063726e6 3.357820904610086e7 0.0
3.357820904610086e7 2.693557391708589e6 0.0
0.0 0.0 0.0

-1.1820999124879569e7 2.6663685883235843e6 0.0
2.6663685883235843e6 2.060675128027011e7 0.0
0.0 0.0 0.0

-396797.5288577769 1.9051731177647438e7 0.0
1.9051731177647438e7 1.9038728740559414e7 0.0
0.0 0.0 0.0

1.9107490393586215e6 1.067112517744202e7 0.0
1.067112517744202e7 -2.342614764648928e7 0.0
0.0 0.0 0.0

-2.0416930354151342e7 2.6204018591448117e7 0.0
2.6204018591448117e7 2.382240397984444e6 0.0
0.0 0.0 0.0

-7.423778062168344e6 -2.950531932960247e6 0.0
-2.950531932960247e6 1.1151067177269202e7 0.0
0.0 0.0 0.0

-1.0269207284874227e7 2.217142756417602e7 0.0
2.217142756417602e7 -7.170269125072515e6 0.0
0.0 0.0 0.0

2.9856643863571048e7 2.1644571149437256e7 0.0
2.1644571149437256e7 6.724321252097793e6 0.0
0.0 0.0 0.0

-1.2813835141085319e6 2.1859908976703342e7 0.0
2.1859908976703342e7 -6.853335259590926e6 0.0
0.0 0.0 0.0

2.437874257036294e6 1.0906203411756018e7 0.0
1.0906203411756018e7 -2.1750143041649535e7 0.0
0.0 0.0 0.0

-4.199936249619504e6 2.3112489592250098e7 0.0
2.3112489592250098e7 1.051150259293681e7 0.0
0.0 0.0 0.0

-7.976998611772992e6 438547.0318061118 0.0
438547.0318061118 4.927550814991e7 0.0
0.0 0.0 0.0

-4.144153664836202e6 2.012416618443182e7 0.0
2.012416618443182e7 -1.2648277463562291e7 0.0
0.0 0.0 0.0

-1.7179043811599545e6 3.0245680310820956e7 0.0
3.0245680310820956e7 1.7736285474513234e6 0.0
0.0 0.0 0.0

-1.4292222314840425e6 1.4320077697188668e7 0.0
1.4320077697188668e7 -3.2986800246092338e7 0.0
0.0 0.0 0.0

156615.10267406888 1.799590015658337e7 0.0
1.799590015658337e7 -1.764302222599037e7 0.0
0.0 0.0 0.0

220457.08518317807 1.7383200763793983e7 0.0
1.7383200763793983e7 -1.9012008494994517e7 0.0
0.0 0.0 0.0

-9.723715949627452e6 1.3429816857047712e7 0.0
1.3429816857047712e7 3.132371720362358e7 0.0
0.0 0.0 0.0

-3.40735656611813e6 2.1839587520821247e7 0.0
2.1839587520821247e7 8.005843796789741e6 0.0
0.0 0.0 0.0

-6.0978688220167905e6 1.1609910436968368e7 0.0
1.1609910436968368e7 9.083112435105337e7 0.0
0.0 0.0 0.0

3.230893081996795e6 1.1694163642951565e7 0.0
1.1694163642951565e7 -8.667748593132798e7 0.0
0.0 0.0 0.0

-1.5199845949991614e7 2.598654060612638e7 0.0
2.598654060612638e7 -9.115889648351505e6 0.0
0.0 0.0 0.0

-2.6707490504262187e6 1.9593260209283914e7 0.0
1.9593260209283914e7 1.3202338590308044e7 0.0
0.0 0.0 0.0

-2.323747045876449e7 2.6884545528703395e7 0.0
2.6884545528703395e7 -2.397388509080027e6 0.0
0.0 0.0 0.0

-7.55953243330323e6 -3.420094622266458e6 0.0
-3.420094622266458e6 1.5935438925919767e7 0.0
0.0 0.0 0.0

-8.396535811755754e6 1.7546122018652886e7 0.0
1.7546122018652886e7 1.996736426126644e7 0.0
0.0 0.0 0.0

-1.1678094335380914e7 2.341854839715362e7 0.0
2.341854839715362e7 -5.675503798405488e6 0.0
0.0 0.0 0.0

-1.0389232015004123e7 2.9981004273515805e6 0.0
2.9981004273515805e6 3.03208926680672e7 0.0
0.0 0.0 0.0

2.8059402392061334e7 1.9536758061451036e7 0.0
1.9536758061451036e7 6.109342666480101e6 0.0
0.0 0.0 0.0

-232136.5671094535 1.891511108280637e7 0.0
1.891511108280637e7 2.2645965975330647e7 0.0
0.0 0.0 0.0

-4.772577509850147e6 1.8725065665767044e7 0.0
1.8725065665767044e7 1.5341651653524622e7 0.0
0.0 0.0 0.0

-2.3903172943583682e7 3.626604099020356e7 0.0
3.626604099020356e7 9.583759548899477e6 0.0
0.0 0.0 0.0

3.6248931873039994e6 2.040243394597655e7 0.0
2.040243394597655e7 4.712672986400974e6 0.0
0.0 0.0 0.0

2.7739712107513254e6 1.9139269283648513e7 0.0
1.9139269283648513e7 -1.5549333171576243e6 0.0
0.0 0.0 0.0

-4.50601636903484e6 2.4423781807622027e7 0.0
2.4423781807622027e7 8.934097875294423e6 0.0
0.0 0.0 0.0

-7.167348224728384e6 2.1602221253985323e7 0.0
2.1602221253985323e7 -454649.8605230595 0.0
0.0 0.0 0.0

-932403.5414014447 1.781237931822937e7 0.0
1.781237931822937e7 -2.221400145358078e6 0.0
0.0 0.0 0.0

2.7019593438515514e6 1.9898660547540423e7 0.0
1.9898660547540423e7 -3.409169694663177e6 0.0
0.0 0.0 0.0

3.092946709880898e6 2.0357454555759747e7 0.0
2.0357454555759747e7 1.2666894121509064e7 0.0
0.0 0.0 0.0

3.6450278256910034e6 3.1054135418083906e7 0.0
3.1054135418083906e7 -2.375532797463919e6 0.0
0.0 0.0 0.0

-3.7148192695834264e6 2.263141143721895e7 0.0
2.263141143721895e7 9.993695754527202e6 0.0
0.0 0.0 0.0

-4.815531844893383e6 3.3157906109298576e7 0.0
3.3157906109298576e7 2.0200100475773169e6 0.0
0.0 0.0 0.0

-6.224647273343789e6 1.6287984957861794e7 0.0
1.6287984957861794e7 -4.306156786360393e7 0.0
0.0 0.0 0.0

-1.4854145957497166e7 1.9011813076978005e7 0.0
1.9011813076978005e7 -8.080737330646254e7 0.0
0.0 0.0 0.0

1.3696096208074184e7 1.980535966011887e7 0.0
1.980535966011887e7 8.25016856865208e7 0.0
0.0 0.0 0.0

5.354191380782729e6 1.844824976008171e7 0.0
1.844824976008171e7 2.6309444023098886e7 0.0
0.0 0.0 0.0

1.1507090444837883e6 9.839364970736593e6 0.0
9.839364970736593e6 -3.7342371425238594e7 0.0
0.0 0.0 0.0

1.7024328974956977e6 3.0689937554993186e7 0.0
3.0689937554993186e7 -2.8629624813293796e6 0.0
0.0 0.0 0.0

443943.2239936562 2.184796369677504e7 0.0
2.184796369677504e7 -9.205732894052774e6 0.0
0.0 0.0 0.0

-916063.4568797159 1.8944803080077335e7 0.0
1.8944803080077335e7 -6.481673582532398e6 0.0
0.0 0.0 0.0

774566.4089982593 2.103038358058907e7 0.0
2.103038358058907e7 -1.0736168995453836e7 0.0
0.0 0.0 0.0

-3.1631614612740118e7 3.8453731122949034e7 0.0
3.8453731122949034e7 1.021708944613941e7 0.0
0.0 0.0 0.0

-2.7663469474707525e6 2.9921229540443204e7 0.0
2.9921229540443204e7 1.2769630345004108e6 0.0
0.0 0.0 0.0

-6.188705756573841e6 2.5075255870452434e7 0.0
2.5075255870452434e7 7.701030844672582e6 0.0
0.0 0.0 0.0

2.863576365690399e6 3.2510002161210463e6 0.0
3.2510002161210463e6 -4.5218357638629645e7 0.0
0.0 0.0 0.0

8.162431082298185e6 2.3881816861656677e7 0.0
2.3881816861656677e7 -5.020298806650638e6 0.0
0.0 0.0 0.0

-1.3452899982529879e6 1.4851494412350724e7 0.0
1.4851494412350724e7 -3.0945292350165986e7 0.0
0.0 0.0 0.0

6.990852037078522e6 2.4370654080765966e7 0.0
2.4370654080765966e7 -5.340655548218202e6 0.0
0.0 0.0 0.0

-536050.7907391252 1.7132607089711297e7 0.0
1.7132607089711297e7 -1.290377066147535e6 0.0
0.0 0.0 0.0

331694.676849341 1.966974665185126e7 0.0
1.966974665185126e7 1.9822839647951134e7 0.0
0.0 0.0 0.0

-4.815495829482535e6 2.687272435164814e7 0.0
2.687272435164814e7 5.579270874056172e6 0.0
0.0 0.0 0.0

-9.749254803173507e6 -2.32654974002448e6 0.0
-2.32654974002448e6 2.860706977928203e7 0.0
0.0 0.0 0.0

1.4384646386299651e7 1.9844707447074376e7 0.0
1.9844707447074376e7 1.9252088462975086e6 0.0
0.0 0.0 0.0

-6.811028774728122e7 2.522347461718833e7 0.0
2.522347461718833e7 3.220298751846809e6 0.0
0.0 0.0 0.0

-1.038231574263569e7 1.3632762417289624e7 0.0
1.3632762417289624e7 2.896831434084319e7 0.0
0.0 0.0 0.0

-6.13961263364429e6 2.242787758469943e7 0.0
2.242787758469943e7 5.07550782833637e6 0.0
0.0 0.0 0.0

3.4371935013133087e6 2.016937848637312e7 0.0
2.016937848637312e7 -695030.0797085622 0.0
0.0 0.0 0.0

4.0006657338028736e6 3.2675383331918996e6 0.0
3.2675383331918996e6 -2.9712114856039457e7 0.0
0.0 0.0 0.0

-2.984210614096527e6 2.0162667603421915e7 0.0
2.0162667603421915e7 1.0426836500398504e7 0.0
0.0 0.0 0.0

-8.460577112962052e6 -421729.25599084597 0.0
-421729.25599084597 4.368673407429765e7 0.0
0.0 0.0 0.0

-1.5424388429927304e7 2.2565746019574422e7 0.0
2.2565746019574422e7 -8.62601637174902e7 0.0
0.0 0.0 0.0

1.3901559820832586e7 2.444631879743458e7 0.0
2.444631879743458e7 8.751165972675893e7 0.0
0.0 0.0 0.0

796765.6161696967 1.3051667693264361e7 0.0
1.3051667693264361e7 -2.8358380240183502e7 0.0
0.0 0.0 0.0

943129.350975526 4.5398755484513e6 0.0
4.5398755484513e6 -5.407681779616707e6 0.0
0.0 0.0 0.0

1.0678783173817609e7 1.8162536033626992e7 0.0
1.8162536033626992e7 5.9933561242132485e6 0.0
0.0 0.0 0.0

-8.1661713090530485e6 1.1220415050902653e6 0.0
1.1220415050902653e6 4.954013256566659e7 0.0
0.0 0.0 0.0

994827.5182254016 8.101586395607893e6 0.0
8.101586395607893e6 -7.475549540459494e6 0.0
0.0 0.0 0.0

4.680847886898122e6 2.9570796815138306e7 0.0
2.9570796815138306e7 -3.986054916265458e6 0.0
0.0 0.0 0.0

34781.85604822915 1.8337339249335434e7 0.0
1.8337339249335434e7 -1.4159471613758907e7 0.0
0.0 0.0 0.0

3.6792301199401156e6 1.8429524484437812e7 0.0
1.8429524484437812e7 1.90473608134214e7 0.0
0.0 0.0 0.0

-5.699235457744891e6 2.2211338999526445e7 0.0
2.2211338999526445e7 415824.56578519987 0.0
0.0 0.0 0.0

-2.751747220073094e7 2.5070815325131826e7 0.0
2.5070815325131826e7 -5.313988088909727e6 0.0
0.0 0.0 0.0

-3.1446164390457226e6 2.9526510546228826e7 0.0
2.9526510546228826e7 1.9193447845071338e6 0.0
0.0 0.0 0.0

692405.8766404171 1.8720777932904508e7 0.0
1.8720777932904508e7 1.0970897045378255e7 0.0
0.0 0.0 0.0

-1.8994798911508927e6 2.000869073132141e7 0.0
2.000869073132141e7 1.5347763291326784e7 0.0
0.0 0.0 0.0

1.082263252285066e6 1.5718238670900052e7 0.0
1.5718238670900052e7 -1.9495506853376858e7 0.0
0.0 0.0 0.0

827251.7185959946 2.0421074396444034e7 0.0
2.0421074396444034e7 -1.1237744200377146e7 0.0
0.0 0.0 0.0

-8.712668349562466e6 2.615700640959662e6 0.0
2.615700640959662e6 4.763647738075085e7 0.0
0.0 0.0 0.0

-2.5813892447733928e7 3.884771638415149e7 0.0
3.884771638415149e7 7.02764021344471e6 0.0
0.0 0.0 0.0

-1.1484944164630592e7 3.1238215960657414e7 0.0
3.1238215960657414e7 5.827592304249316e6 0.0
0.0 0.0 0.0

-2.7002574015954584e7 2.6839362487692162e7 0.0
2.6839362487692162e7 532855.8906136993 0.0
0.0 0.0 0.0

60276.21652481146 1.8884666047575127e7 0.0
1.8884666047575127e7 3.8963541553326966e6 0.0
0.0 0.0 0.0

-8.38210122111697e6 2.2882369072287798e7 0.0
2.2882369072287798e7 -1.1486539551402347e6 0.0
0.0 0.0 0.0

-1.558786461763994e7 2.5250969496227853e7 0.0
2.5250969496227853e7 -5.1838416412997255e6 0.0
0.0 0.0 0.0

1.742550703492037e6 7.326115446209156e6 0.0
7.326115446209156e6 -7.164749388703888e6 0.0
0.0 0.0 0.0

2.776190726163336e6 1.8754584472057123e7 0.0
1.8754584472057123e7 1.9853148130551483e7 0.0
0.0 0.0 0.0

2.101699782664653e6 9.038166024728594e6 0.0
9.038166024728594e6 -3.655049333381942e7 0.0
0.0 0.0 0.0

-9.302100731254173e6 1.4651957610911913e7 0.0
1.4651957610911913e7 3.0191132483645566e7 0.0
0.0 0.0 0.0

-7.642459248271111e6 748236.1097589824 0.0
748236.1097589824 5.062432090155778e7 0.0
0.0 0.0 0.0

3.0945284361207057e6 3.445512368749615e6 0.0
3.445512368749615e6 -4.458650591400638e7 0.0
0.0 0.0 0.0

-3.100613907346487e7 2.707654745193322e7 0.0
2.707654745193322e7 -678372.0820180699 0.0
0.0 0.0 0.0

-8.7381521777927e6 -1.2166446034314604e6 0.0
-1.2166446034314604e6 3.988521483368099e7 0.0
0.0 0.0 0.0

-9.191843918679712e6 -1.8389011350370494e6 0.0
-1.8389011350370494e6 3.47205270807875e7 0.0
0.0 0.0 0.0

1.0858684299183022e6 7.053520234666697e6 0.0
7.053520234666697e6 -9.120318709134268e6 0.0
0.0 0.0 0.0

-9.545690069759138e6 -557609.2256099853 0.0
-557609.2256099853 3.327182622645513e7 0.0
0.0 0.0 0.0

6.476853706964079e6 3.999059692214275e7 0.0
3.999059692214275e7 -5.218914723573381e6 0.0
0.0 0.0 0.0

-4.254754442266539e6 1.9617004439693354e7 0.0
1.9617004439693354e7 1.4636103169051867e7 0.0
0.0 0.0 0.0

1.912947843750991e6 4.416787711894819e6 0.0
4.416787711894819e6 -5.485031454973642e7 0.0
0.0 0.0 0.0

3.0721174054869544e6 4.0578361606141245e6 0.0
4.0578361606141245e6 -3.510120295935713e7 0.0
0.0 0.0 0.0

-3.5240440101247136e6 2.163822148857358e7 0.0
2.163822148857358e7 7.110384955046615e6 0.0
0.0 0.0 0.0

-4.496563488036503e6 3.282018632420317e7 0.0
3.282018632420317e7 3.4258337671329044e6 0.0
0.0 0.0 0.0

4.535451790129862e6 1.0744822824602121e7 0.0
1.0744822824602121e7 2.1410835616253857e6 0.0
0.0 0.0 0.0

1.0000404591973994e7 2.115530689404583e7 0.0
2.115530689404583e7 1.1753827967421072e7 0.0
0.0 0.0 0.0

8.2475976847695615e6 2.2807441355200473e7 0.0
2.2807441355200473e7 -4.0128158278749613e6 0.0
0.0 0.0 0.0

-8.95220889362099e6 -984493.821771216 0.0
-984493.821771216 3.9102859627635896e7 0.0
0.0 0.0 0.0

-1.6443421379789194e7 2.274898249946692e7 0.0
2.274898249946692e7 652299.9102712385 0.0
0.0 0.0 0.0

-3.0366663855368197e6 2.8927748197263665e7 0.0
2.8927748197263665e7 1.7950753272001122e6 0.0
0.0 0.0 0.0

1.9987508123340737e6 1.80172897608798e7 0.0
1.80172897608798e7 4.519923099561991e7 0.0
0.0 0.0 0.0

9.952631509880524e6 2.3213493849567436e7 0.0
2.3213493849567436e7 -3.9800714037907356e6 0.0
0.0 0.0 0.0

-3.5247706970294826e6 2.047472932392166e7 0.0
2.047472932392166e7 -8.403719450028358e6 0.0
0.0 0.0 0.0

-3.9719428553543137e6 2.0680707091532312e7 0.0
2.0680707091532312e7 1.544457070179845e7 0.0
0.0 0.0 0.0

-2.787097240145942e6 1.9782781258905448e7 0.0
1.9782781258905448e7 -8.546554931359014e6 0.0
0.0 0.0 0.0

-6.4799390329617344e7 3.510481235234499e7 0.0
3.510481235234499e7 -4.255925409412729e6 0.0
0.0 0.0 0.0

-5.352771551298785e6 1.93430854773292e7 0.0
1.93430854773292e7 1.4221863170760816e7 0.0
0.0 0.0 0.0

-3.222100188110063e6 2.084283043975056e7 0.0
2.084283043975056e7 -7.171510935491681e6 0.0
0.0 0.0 0.0

-4.1051162835706156e6 2.1326377411448978e7 0.0
2.1326377411448978e7 1.4706821607508041e7 0.0
0.0 0.0 0.0

6.398182194250189e6 2.2459686558916736e7 0.0
2.2459686558916736e7 -4.703590742468548e6 0.0
0.0 0.0 0.0

3.648536166660255e6 3.262837054230286e6 0.0
3.262837054230286e6 -2.8861692379461627e7 0.0
0.0 0.0 0.0

2.2738891680389987e6 2.1833377899953797e7 0.0
2.1833377899953797e7 -7.8574690481020585e6 0.0
0.0 0.0 0.0

-2.4669372484352436e7 3.891599013400357e7 0.0
3.891599013400357e7 6.94672583905573e6 0.0
0.0 0.0 0.0

-5.888863512478989e6 2.801325424128889e7 0.0
2.801325424128889e7 6.0217935635856185e6 0.0
0.0 0.0 0.0

-9.711505599833148e6 -3.3069812830429985e6 0.0
-3.3069812830429985e6 2.295061496679973e7 0.0
0.0 0.0 0.0

202687.7393702604 1.8525971137412477e7 0.0
1.8525971137412477e7 -1.551503112496522e7 0.0
0.0 0.0 0.0

1.1827783231664747e7 2.0584397437125016e7 0.0
2.0584397437125016e7 3.083723588515728e6 0.0
0.0 0.0 0.0

-5.9511816852427766e7 2.9950885259559844e7 0.0
2.9950885259559844e7 3.499577761355646e6 0.0
0.0 0.0 0.0

3.0654217958278013e6 1.7196685638343148e7 0.0
1.7196685638343148e7 1.3670551474287916e7 0.0
0.0 0.0 0.0

1.5057271740607154e6 8.861407599339262e6 0.0
8.861407599339262e6 -3.857626210548543e7 0.0
0.0 0.0 0.0

751651.9461925514 1.5481344254240379e7 0.0
1.5481344254240379e7 -1.9400010080123607e7 0.0
0.0 0.0 0.0

-2.6911659184380146e6 2.0444103987063754e7 0.0
2.0444103987063754e7 1.218557431190315e7 0.0
0.0 0.0 0.0

-6.683727057459699e6 3.3084537269852534e7 0.0
3.3084537269852534e7 3.2082278878684123e6 0.0
0.0 0.0 0.0

23116.11823508027 2.4914767556005877e7 0.0
2.4914767556005877e7 -4.659973614502537e6 0.0
0.0 0.0 0.0

3.5168746599610243e6 3.051528479646571e6 0.0
3.051528479646571e6 -3.440362948588656e7 0.0
0.0 0.0 0.0

4.667081375975455e6 1.8283593371545672e7 0.0
1.8283593371545672e7 3.884773915938637e7 0.0
0.0 0.0 0.0

-579111.5634149989 1.6860016900652107e7 0.0
1.6860016900652107e7 -1.643378856989918e6 0.0
0.0 0.0 0.0

-4.654268845973368e7 3.4708145322863e7 0.0
3.4708145322863e7 1.0851061674829144e7 0.0
0.0 0.0 0.0

-1.0399665070577636e7 -141730.03987521655 0.0
-141730.03987521655 2.949844912647944e7 0.0
0.0 0.0 0.0

-9.690179808609512e6 -371842.41076782404 0.0
-371842.41076782404 3.1723910839597415e7 0.0
0.0 0.0 0.0

1.1255307924427118e7 2.0549090506869942e7 0.0
2.0549090506869942e7 5.682779370693707e6 0.0
0.0 0.0 0.0

-8.705381871538503e6 -1.3120304092772342e6 0.0
-1.3120304092772342e6 3.8922671723453335e7 0.0
0.0 0.0 0.0

2.6167178659800626e6 1.761908509326173e7 0.0
1.761908509326173e7 1.3340634338569954e7 0.0
0.0 0.0 0.0

6.442612298996132e6 1.8578647502832998e7 0.0
1.8578647502832998e7 2.786430481280822e7 0.0
0.0 0.0 0.0

409733.6952517771 3.0641179347434394e7 0.0
3.0641179347434394e7 -1.3043062793051566e6 0.0
0.0 0.0 0.0

-8.065387791945215e6 5.626909168716302e6 0.0
5.626909168716302e6 5.2136691968580976e7 0.0
0.0 0.0 0.0

-1.9473840848148651e6 1.4906331169107245e7 0.0
1.4906331169107245e7 -3.1707845854895372e7 0.0
0.0 0.0 0.0

630938.8958088104 7.855004524742748e6 0.0
7.855004524742748e6 -8.003266609112341e6 0.0
0.0 0.0 0.0

-2.3489299676658623e6 2.003807156525719e7 0.0
2.003807156525719e7 1.044452543807612e7 0.0
0.0 0.0 0.0

3.2285230075856745e6 1.8801509902392924e7 0.0
1.8801509902392924e7 2.73709024960382e7 0.0
0.0 0.0 0.0

-9.64940262595342e6 287832.7155143215 0.0
287832.7155143215 3.780850789063414e7 0.0
0.0 0.0 0.0

-8.07509834781841e6 7.957388631912985e6 0.0
7.957388631912985e6 7.071610363441225e6 0.0
0.0 0.0 0.0

-2.9361720793423722e6 2.0835029538095824e7 0.0
2.0835029538095824e7 1.0239587906421833e6 0.0
0.0 0.0 0.0

-118234.62210278586 1.1072027673789442e7 0.0
1.1072027673789442e7 1.1615271520594278e7 0.0
0.0 0.0 0.0

3.158710824316236e6 1.9324954653141912e7 0.0
1.9324954653141912e7 -2.3387891753288684e6 0.0
0.0 0.0 0.0

-1.0106451415612742e7 -564948.1665315737 0.0
-564948.1665315737 3.1402775768793236e7 0.0
0.0 0.0 0.0

-7.243878052857675e6 5.570766417873757e6 0.0
5.570766417873757e6 5.555480504109912e7 0.0
0.0 0.0 0.0

2.568390355991465e6 1.9910989653118122e7 0.0
1.9910989653118122e7 -1.310011479606947e6 0.0
0.0 0.0 0.0

595325.4216586584 1.8909733615275543e7 0.0
1.8909733615275543e7 -1.347139213073339e7 0.0
0.0 0.0 0.0

-7.179573333167922e6 5.410952986634881e6 0.0
5.410952986634881e6 5.50391452919173e7 0.0
0.0 0.0 0.0

6.247750166525351e6 2.252894477871322e7 0.0
2.252894477871322e7 -4.614598475123962e6 0.0
0.0 0.0 0.0

2.56579905701208e6 1.7929171795919765e7 0.0
1.7929171795919765e7 1.999433918677244e7 0.0
0.0 0.0 0.0

-7.862529619487405e6 1.1557493335570492e7 0.0
1.1557493335570492e7 1.1849831682848522e7 0.0
0.0 0.0 0.0

-6.395138202451866e6 1.127571445955945e7 0.0
1.127571445955945e7 8.487189970547035e6 0.0
0.0 0.0 0.0

-1.2792764404528368e7 7.835435835975606e6 0.0
7.835435835975606e6 5.961319478842729e6 0.0
0.0 0.0 0.0

