# vtk DataFile Version 2.0
phase field modeling fracture
ASCII
DATASET UNSTRUCTURED_GRID
POINTS 2538 float
0.0 0.0 0.0
10.0 0.0 0.0
0.0 10.0 0.0
10.0 10.0 0.0
0.0 4.9995 0.0
0.0 5.0005 0.0
5.0 5.0 0.0
0.9416964895726688 0.0 0.0
1.803581725054446 0.0 0.0
2.592419885431098 0.0 0.0
3.314401822861676 0.0 0.0
3.975193910351406 0.0 0.0
4.579982132660152 0.0 0.0
5.133512780936812 0.0 0.0
5.640130319506143 0.0 0.0
6.103810708661955 0.0 0.0
6.528192895506818 0.0 0.0
6.916607540127679 0.0 0.0
7.272102969376355 0.0 0.0
7.597469242948583 0.0 0.0
7.895259826292669 0.0 0.0
8.167811885738017 0.0 0.0
8.417264413845215 0.0 0.0
8.645575169389538 0.0 0.0
8.854535961159101 0.0 0.0
9.045786767735546 0.0 0.0
9.220828555767493 0.0 0.0
9.38103509633881 0.0 0.0
9.527663687265145 0.0 0.0
9.661865124984566 0.0 0.0
9.784692609918062 0.0 0.0
9.897110148790482 0.0 0.0
10.0 0.09999999999992584 0.0
10.0 0.199999999999856 0.0
10.0 0.2999999999997771 0.0
10.0 0.3999999999996677 0.0
10.0 0.4999999999995511 0.0
10.0 0.5999999999994683 0.0
10.0 0.6999999999993983 0.0
10.0 0.7999999999993286 0.0
10.0 0.8999999999992587 0.0
10.0 0.9999999999991888 0.0
10.0 1.099999999999119 0.0
10.0 1.199999999999033 0.0
10.0 1.299999999998852 0.0
10.0 1.399999999998576 0.0
10.0 1.499999999998284 0.0
10.0 1.599999999997992 0.0
10.0 1.6999999999977 0.0
10.0 1.799999999997408 0.0
10.0 1.899999999997116 0.0
10.0 1.999999999996825 0.0
10.0 2.099999999996533 0.0
10.0 2.199999999996241 0.0
10.0 2.299999999995949 0.0
10.0 2.399999999995657 0.0
10.0 2.499999999995365 0.0
10.0 2.599999999995073 0.0
10.0 2.699999999994782 0.0
10.0 2.79999999999449 0.0
10.0 2.899999999994198 0.0
10.0 2.999999999993906 0.0
10.0 3.099999999993614 0.0
10.0 3.199999999993322 0.0
10.0 3.299999999993029 0.0
10.0 3.399999999992738 0.0
10.0 3.499999999992446 0.0
10.0 3.599999999992154 0.0
10.0 3.699999999991863 0.0
10.0 3.799999999991571 0.0
10.0 3.899999999991278 0.0
10.0 3.999999999991022 0.0
10.0 4.099999999991035 0.0
10.0 4.199999999991187 0.0
10.0 4.299999999991338 0.0
10.0 4.399999999991491 0.0
10.0 4.499999999991642 0.0
10.0 4.599999999991795 0.0
10.0 4.699999999991947 0.0
10.0 4.799999999992099 0.0
10.0 4.89999999999225 0.0
10.0 4.999999999992403 0.0
10.0 5.099999999992555 0.0
10.0 5.199999999992706 0.0
10.0 5.299999999992858 0.0
10.0 5.39999999999301 0.0
10.0 5.499999999993161 0.0
10.0 5.599999999993313 0.0
10.0 5.699999999993466 0.0
10.0 5.799999999993618 0.0
10.0 5.899999999993771 0.0
10.0 5.999999999993922 0.0
10.0 6.099999999994074 0.0
10.0 6.199999999994227 0.0
10.0 6.299999999994378 0.0
10.0 6.39999999999453 0.0
10.0 6.499999999994682 0.0
10.0 6.599999999994833 0.0
10.0 6.699999999994986 0.0
10.0 6.799999999995138 0.0
10.0 6.899999999995289 0.0
10.0 6.999999999995442 0.0
10.0 7.099999999995594 0.0
10.0 7.199999999995747 0.0
10.0 7.299999999995897 0.0
10.0 7.39999999999605 0.0
10.0 7.499999999996202 0.0
10.0 7.599999999996353 0.0
10.0 7.699999999996505 0.0
10.0 7.799999999996658 0.0
10.0 7.899999999996808 0.0
10.0 7.999999999996962 0.0
10.0 8.099999999997113 0.0
10.0 8.199999999997265 0.0
10.0 8.299999999997418 0.0
10.0 8.399999999997569 0.0
10.0 8.499999999997721 0.0
10.0 8.599999999997873 0.0
10.0 8.699999999998024 0.0
10.0 8.799999999998176 0.0
10.0 8.899999999998329 0.0
10.0 8.99999999999848 0.0
10.0 9.099999999998634 0.0
10.0 9.199999999998786 0.0
10.0 9.299999999998937 0.0
10.0 9.399999999999089 0.0
10.0 9.499999999999241 0.0
10.0 9.599999999999392 0.0
10.0 9.699999999999545 0.0
10.0 9.799999999999697 0.0
10.0 9.899999999999848 0.0
9.897110148790565 10.0 0.0
9.784692609918244 10.0 0.0
9.66186512498486 10.0 0.0
9.527663687265571 10.0 0.0
9.381035096339392 10.0 0.0
9.220828555768257 10.0 0.0
9.045786767736512 10.0 0.0
8.854535961160305 10.0 0.0
8.645575169391027 10.0 0.0
8.417264413847017 10.0 0.0
8.167811885740178 10.0 0.0
7.895259826295246 10.0 0.0
7.597469242951631 10.0 0.0
7.272102969379938 10.0 0.0
6.916607540131873 10.0 0.0
6.528192895511704 10.0 0.0
6.103810708667616 10.0 0.0
5.640130319512691 10.0 0.0
5.13351278094435 10.0 0.0
4.579982132668816 10.0 0.0
3.975193910361222 10.0 0.0
3.314401822869852 10.0 0.0
2.592419885437257 10.0 0.0
1.803581725058137 10.0 0.0
0.9416964895740705 10.0 0.0
0.0 9.00010000000243 0.0
0.0 8.000200000005481 0.0
0.0 7.000300000005135 0.0
0.0 6.000400000002569 0.0
0.901790731451151 5.000409820926855 0.0
1.657200899774397 5.000334279910023 0.0
2.289991063707192 5.000271000893629 0.0
2.820065163538221 5.000217993483646 0.0
3.264096435579811 5.000173590356442 0.0
3.636051481595835 5.00013639485184 0.0
3.947629914072366 5.000105237008593 0.0
4.208632181002628 5.0000791367819 0.0
4.427267949625672 5.000057273205037 0.0
4.610414277633563 5.000038958572237 0.0
4.763831845154243 5.000023616815485 0.0
4.892346298799659 5.00001076537012 0.0
4.892346298799748 4.99998923462988 0.0
4.763831845154455 4.999976383184515 0.0
4.610414277633943 4.999961041427763 0.0
4.427267949626277 4.999942726794963 0.0
4.208632181003523 4.9999208632181 0.0
3.94762991407365 4.999894762991407 0.0
3.636051481597624 4.99986360514816 0.0
3.264096435582253 4.999826409643559 0.0
2.820065163541503 4.999782006516354 0.0
2.289991063711534 4.999728999106371 0.0
1.657200899778495 4.999665720089978 0.0
0.9017907314530094 4.999590179073145 0.0
0.0 3.999600000002013 0.0
0.0 2.999700000005187 0.0
0.0 1.99980000000512 0.0
0.0 0.9999000000025537 0.0
9.897889398521345 2.93573355845387 0.0
9.906568249974548 7.060009441434234 0.0
9.913122631074113 3.64016132281653 0.0
9.922462129543863 6.354535290629151 0.0
9.917693659967533 4.354211663134567 0.0
9.909873057440208 5.637584487339942 0.0
9.914183254994697 4.950672966925282 0.0
9.913885043715895 7.666887930262611 0.0
9.91009668007573 2.351889069770817 0.0
9.905135696074536 8.138152454502785 0.0
9.913397459621809 1.849999999997262 0.0
7.099302372137626 0.297750452375005 0.0
7.095143729410097 9.700359990366296 0.0
4.942912558701401 5.095838627899509 0.0
4.315009232304429 5.165022115481685 0.0
4.946182472483878 4.906763777264103 0.0
4.317967462990024 4.825955043772673 0.0
9.916390871492647 8.64999999999792 0.0
9.921504649680616 1.368376469890358 0.0
8.292538149791614 0.206877570318844 0.0
8.292538149793597 9.793122429681448 0.0
5.884594439766573 9.587645267048616 0.0
5.794826292691579 0.3794853783929359 0.0
9.913397459621425 9.049999999998557 0.0
9.908526577714177 0.9568239351922434 0.0
3.456851160380649 5.315740054130451 0.0
3.457889657868442 4.707121019609468 0.0
8.945214200703926 0.1503383337970344 0.0
8.950161364448409 9.8413906539257 0.0
9.913862335499305 4.055887885208452 0.0
9.916697353372683 4.650158482607802 0.0
9.919076340414442 6.049999999994006 0.0
9.906994308667635 5.25749687748192 0.0
9.917490342358025 6.655979201891897 0.0
9.915757520293784 7.343848891656911 0.0
9.910049507471042 3.363474386285078 0.0
9.914471988502868 2.647400064832979 0.0
9.91474124160965 9.337490423485129 0.0
9.916971008170838 0.6499999999994355 0.0
4.307157269264427 9.509674045029644 0.0
4.331527375865619 0.4401616696422582 0.0
9.45434939180249 9.878397030523757 0.0
9.457696120412969 0.1270877537061785 0.0
2.555070293622606 5.422044496190925 0.0
2.566232917480916 4.608001224030952 0.0
3.026511860837692 9.332320638257093 0.0
2.945561971800619 0.5895662714727601 0.0
7.7395404387124 0.2511088946967771 0.0
7.736379255744154 9.745848826372828 0.0
4.687135269408529 5.122111433928926 0.0
4.688420821504113 4.871895064967488 0.0
9.910554884115975 0.3448356354522978 0.0
9.911230082250466 9.65764729394159 0.0
9.921953841410854 6.851023993342036 0.0
9.912065178606017 5.448170483544033 0.0
9.911660025326261 3.861846960030188 0.0
9.914847467973438 3.14501593945607 0.0
9.913397459621425 5.849999999993703 0.0
9.913397459621425 7.849999999996735 0.0
9.906916878988277 2.15455769998631 0.0
9.913397459621425 8.349999999997479 0.0
9.909472363117661 1.640528221515488 0.0
9.913987325695956 1.152857110636247 0.0
9.913397459621425 8.849999999998241 0.0
0.9100099990995943 2.614215977520411 0.0
0.8395284981715456 7.451196254860987 0.0
9.723278867451556 9.898135916635193 0.0
9.723316350887044 0.09841820909386662 0.0
1.385819164827588 4.454539963646463 0.0
1.338343629665047 5.523111536005823 0.0
1.377179700550677 0.6809168304959698 0.0
1.418060461092743 9.285896715136046 0.0
9.91268220142518 0.1457914080939694 0.0
9.906737126737994 9.845745933882352 0.0
0.7108351382691361 6.537941170074089 0.0
1.527735020267026 6.915620208855231 0.0
1.630993885659103 7.838271825205868 0.0
2.232760943566823 7.370850737296832 0.0
2.243414218068206 6.688299277952821 0.0
2.779655053105118 7.021588754814074 0.0
2.80227799359795 7.632420170547022 0.0
3.282022065908813 7.305859666021318 0.0
3.327597298795347 7.857554136825748 0.0
3.743210251018715 7.549183328204379 0.0
3.716353232200752 7.062036086888612 0.0
4.111978858674101 7.27497101169417 0.0
4.104192177581432 6.879858986267289 0.0
4.436230765617037 7.045693351607117 0.0
4.430360014817357 6.703971783962796 0.0
4.732390145036301 6.849841042423394 0.0
5.056161327708878 5.095276573498806 0.0
5.111586796021131 4.999081142133581 0.0
5.169267363407189 5.09444870412406 0.0
5.223795108752053 4.996986220359468 0.0
5.281480803887719 5.092780870372803 0.0
5.335670761900611 4.994887492556936 0.0
5.393485214772442 5.090486192743301 0.0
5.447323082877892 4.992601527033996 0.0
5.505243219343024 5.087953380710069 0.0
5.558739102026105 4.990287787962959 0.0
5.616491581184779 5.085335255235766 0.0
5.669852346908056 4.9879269227514 0.0
5.727502713908907 5.082679981817038 0.0
5.780766004135139 4.988313988715834 0.0
5.838244881129535 5.080480568766611 0.0
5.891357695677371 4.986433849408193 0.0
5.948696036767613 5.077969900389505 0.0
6.001601341641615 4.981313698556656 0.0
6.058851024265095 5.074871552128682 0.0
6.111614020704875 4.978360695880202 0.0
6.168801161530775 5.072044953270978 0.0
6.221368818778567 4.975825765213497 0.0
6.278268309066882 5.066182320461055 0.0
6.330814273567539 4.972837984645718 0.0
6.387565032421376 5.062889771971895 0.0
6.437476667631405 4.971693683589553 0.0
6.496181111585419 5.060210690175857 0.0
6.539454812256072 4.964658165361536 0.0
6.604198202576491 5.056387520850258 0.0
6.648506025747331 4.939374587506267 0.0
6.714026758992516 5.05873885840664 0.0
6.764418045981209 4.959246676066148 0.0
6.8219334571197 5.055299567406268 0.0
6.873708540948134 4.960426349093742 0.0
6.930181428849307 5.053461390218819 0.0
6.981893615341967 4.96435459462232 0.0
7.037791764774784 5.051219747103022 0.0
7.090993561518408 4.96392420322464 0.0
5.504417457283294 4.900897920552702 0.0
7.145434864123609 5.048960634292441 0.0
6.054532384032612 4.883956083938546 0.0
6.738027949040956 4.850032323068674 0.0
7.198432914526514 4.956325226333323 0.0
7.252637187936749 5.046012229327236 0.0
7.30926729605109 4.948903216650376 0.0
7.248106275544042 4.860306312845646 0.0
7.363100274863074 4.849952416808486 0.0
7.365733472701664 5.039519554615095 0.0
7.308483293090149 5.137557220352172 0.0
6.768399513646964 5.145609705119954 0.0
7.422800035311104 5.132251445551834 0.0
7.358273518796229 5.235980394389298 0.0
7.480824155801127 5.227946127939927 0.0
7.302193400058628 4.761917474298247 0.0
7.413570879789824 4.754555110721153 0.0
7.414392998903179 5.334729114426734 0.0
7.352769630272076 4.660405502266205 0.0
7.467556835255426 4.658352623795039 0.0
7.536246869015014 5.328986926716081 0.0
7.478865844607288 5.432598185493195 0.0
7.406396991826072 4.556956233957538 0.0
7.523581002009154 4.552005631348623 0.0
7.597792398573263 5.429506106314967 0.0
7.540511043402902 5.53619421580439 0.0
7.46214474876342 4.452580994318881 0.0
7.5852185078634 4.446021810672608 0.0
7.663329342323453 5.533453399066901 0.0
7.603478967594521 5.643227430483237 0.0
7.513450346818673 4.347641323140766 0.0
7.640744971722214 4.333388343316237 0.0
7.727671715775243 5.642390483050116 0.0
7.667774597993788 5.753188858425915 0.0
7.570065256728661 4.230515669344811 0.0
7.702881065467917 4.218307808529532 0.0
7.638288257073729 4.107994211855027 0.0
7.493362356301017 4.120843902105771 0.0
7.779018500630071 5.521233457321821 0.0
7.794641287388929 5.752364621610818 0.0
7.73369774483611 5.865894287356292 0.0
7.600834531784728 5.867752110500446 0.0
6.233038857278689 5.15645045634683 0.0
7.669727996028819 5.985665563643058 0.0
7.528582452554481 5.987393423295551 0.0
7.598722674572824 6.11001923494443 0.0
7.778305000222867 4.104318908265786 0.0
7.704329019832056 3.987744174608892 0.0
7.838453459801382 4.213322728668484 0.0
7.864495721576461 5.862306066517277 0.0
7.846552353360407 3.98481756181946 0.0
7.769730409703277 3.86544808681145 0.0
5.785249360396857 5.177248808588045 0.0
7.908837087876153 3.861484036275285 0.0
7.834824606222196 3.740586825753288 0.0
7.97685993406276 3.736209527152902 0.0
7.89665098770825 3.615501862931453 0.0
7.753228010315262 3.617800245018972 0.0
7.826063013090472 3.483173292579822 0.0
7.66789744383048 3.48859328808356 0.0
8.042515855796823 3.595394268381807 0.0
7.75200750488492 3.341279823834038 0.0
7.582870318332553 3.346584916806707 0.0
8.120807847415062 3.732493963388337 0.0
8.189783970303546 3.61159165475499 0.0
7.657801000286734 3.200439907646711 0.0
7.486781956172036 3.201402473247712 0.0
7.452595103886905 6.11418616185016 0.0
7.527098033550077 6.243191052852112 0.0
8.260502906807751 3.728437634721859 0.0
8.327629317451398 3.608173631356984 0.0
7.372763970891452 6.247552889754036 0.0
7.456170570815929 6.384992468962936 0.0
7.621837793616884 6.376077080857113 0.0
7.548039512904141 6.520750676893614 0.0
7.717475944451644 6.514856553988943 0.0
7.636658166268699 6.661648164052906 0.0
7.807468267259438 6.664076174524672 0.0
7.718022764310774 6.817938967122142 0.0
7.887785766941087 6.807440365887151 0.0
7.545993589083432 6.815070675854734 0.0
7.809874785067209 6.967537287475282 0.0
7.975643812145337 6.948729406725126 0.0
8.396477808021062 3.725446935061211 0.0
7.565651643157136 3.044354774611752 0.0
7.384328725505071 3.043048915147076 0.0
8.056405351948353 6.802790889114673 0.0
8.14128318237188 6.940027831915737 0.0
8.064621760266059 7.086348792208953 0.0
8.225003598857908 6.805225152373254 0.0
8.463085452993242 3.606998510553562 0.0
8.230426869720718 7.079551841000411 0.0
8.155262284174286 7.224761758176069 0.0
8.530696760758996 3.721683301125054 0.0
8.596669886994064 3.604516769862316 0.0
8.528531058025589 3.490411531312337 0.0
8.320451770844851 7.218191678954744 0.0
8.245273958732774 7.363444652121271 0.0
8.66324687389452 3.717094013035765 0.0
8.600103125209296 3.831913857228569 0.0
8.662131102573216 3.488322280861316 0.0
8.594166125380536 3.374071873435548 0.0
8.411074336066186 7.353871649576861 0.0
8.339644223432472 7.505172120620427 0.0
8.165883718619623 7.513159193685373 0.0
8.483453820080417 7.2082285366806 0.0
8.261200365730348 7.657400951288149 0.0
8.081570576666843 7.670933304838066 0.0
7.471613195794025 2.872548423100142 0.0
7.268733678357991 2.881209199257603 0.0
7.184255506995786 3.084448584600423 0.0
7.065899603697895 2.883902449336828 0.0
6.960163891183182 3.081014635802978 0.0
6.847612128388715 2.885646860602812 0.0
6.739800729737967 3.078895733381448 0.0
8.729373804596847 3.827689165637365 0.0
8.668550856907444 3.938702277545298 0.0
8.72770789162863 3.371798381178293 0.0
8.659764090070603 3.257493349874974 0.0
8.436453928793245 7.648724489148887 0.0
6.619080287792762 2.90880017416788 0.0
6.511740956842646 3.09340654756684 0.0
8.793527829963288 3.935174834810256 0.0
8.736430500996828 4.042719556852617 0.0
7.631260330584174 4.565300771328012 0.0
8.359058396840432 7.801678182761817 0.0
5.339436215072359 5.184870243702279 0.0
4.994031736761993 5.193306795607908 0.0
6.383387675268097 4.87760645722207 0.0
7.29117392392962 6.382172868329505 0.0
6.378196825372041 2.907113079755629 0.0
6.269817199014261 3.12412150658573 0.0
8.793149127377946 3.255386294257182 0.0
8.725774239201558 3.141596687892195 0.0
8.857434600673502 4.041295940541356 0.0
8.802868937128341 4.1471119953668 0.0
8.532045262478793 7.7905977476835 0.0
7.364542641624493 2.699128473342751 0.0
7.571677611088925 2.695732556686516 0.0
6.723058333614999 2.672341359410618 0.0
8.456744924757372 7.94483904450548 0.0
6.140831279784704 2.921247401137864 0.0
6.02419219050745 3.14358702955763 0.0
8.916255604212301 3.934279868822481 0.0
8.859287250884009 3.140226640574265 0.0
8.791092798057303 3.025929352146465 0.0
7.210445465986021 6.245773134960393 0.0
7.120884161792869 6.385155584680196 0.0
7.036931702064287 6.240721609143972 0.0
6.943722280007011 6.3869279517155 0.0
8.920094519678617 4.144837222494242 0.0
8.864374107136287 4.250930406527029 0.0
7.347569838739255 4.463467417508182 0.0
5.90383431757064 2.935113219563906 0.0
5.783476009580765 3.156456199832474 0.0
8.626013191558314 7.935092223505354 0.0
8.687240186957197 7.796697889991163 0.0
5.642059327424706 2.903018174330269 0.0
5.52647853955939 3.162549070310043 0.0
8.555300051897738 8.086169516016518 0.0
8.405624441178524 8.083972416481254 0.0
5.374124307190728 2.945480555950917 0.0
8.935805220807357 3.249260758206028 0.0
8.981625171409894 4.247375537584228 0.0
8.924725364486765 4.352101286657735 0.0
8.807208588134106 4.356163101450244 0.0
8.868277832430604 4.45657124153171 0.0
8.75099635287701 4.460644845248524 0.0
8.812385950597063 4.560891222623518 0.0
8.693833206943118 4.564602972998703 0.0
8.756474732548273 4.665720853686476 0.0
8.63721608225855 4.669394550615355 0.0
8.700108119351134 4.770682016274914 0.0
8.81920502916846 4.767536120893284 0.0
8.76355311338807 4.871451945248518 0.0
8.881442328033694 4.868382238751069 0.0
8.826433523510634 4.97132552240372 0.0
8.943387824985514 4.967694248194483 0.0
8.888718468126953 5.071044784833541 0.0
8.580377663835254 4.774669738817985 0.0
8.770572242937233 5.073880380431421 0.0
8.832915096600454 5.174518948293615 0.0
8.952224483821848 5.170970838320107 0.0
8.897282771771884 5.275476392171722 0.0
7.463928467290875 2.513944501591933 0.0
7.675935950092034 2.509420347143072 0.0
8.924252417741767 3.024418701372628 0.0
8.857265893102921 2.911213535286156 0.0
8.776981063213334 5.27944309004916 0.0
8.840710910770163 5.380165700477552 0.0
8.960876896785969 5.375521424256389 0.0
8.904555918255223 5.482125846038813 0.0
7.567193097677677 2.32750151280277 0.0
7.780880844888839 2.323064027160363 0.0
6.851602118390116 6.234522818184622 0.0
6.758680682687229 6.389359516748128 0.0
6.66345977321418 6.231254850996584 0.0
8.715764716958308 8.079994249772627 0.0
8.65189989696114 8.227534663647639 0.0
9.042229096541828 4.348551764001607 0.0
6.436774206993324 3.316782326998922 0.0
7.590527613340588 5.22651784724799 0.0
9.024366884701616 5.476726561488805 0.0
8.968734351641839 5.583879050892151 0.0
8.845941080047659 5.586406316932274 0.0
8.909881305857882 5.690482454668167 0.0
7.348726871578975 5.44047403999932 0.0
6.567070253986433 6.398115757512583 0.0
6.697077150072261 6.553426749743366 0.0
5.252377383990728 3.187782967482479 0.0
8.988440431820699 2.908621158637298 0.0
8.922541972760119 2.796420836075996 0.0
6.466806010659505 6.229115583261771 0.0
9.033851153821296 5.686506775615425 0.0
8.978340519963718 5.795772485582058 0.0
8.85111463793018 5.798672910287243 0.0
8.922171984280597 5.907237880910408 0.0
8.795190680908043 5.911854068712683 0.0
8.864373398892472 6.019728357749566 0.0
8.991346995940626 6.014539153309398 0.0
8.93374019140187 6.12698887312768 0.0
5.095192648098848 2.952353430985476 0.0
7.672651464908932 2.141715359830917 0.0
7.886266921042761 2.136211284120189 0.0
9.098474286589756 4.245971410451114 0.0
8.813172564986438 8.216887361735234 0.0
8.74802978243154 8.366104673219047 0.0
9.059985162956899 6.120982589539211 0.0
9.00342813739303 6.233245043891739 0.0
4.961413514304496 3.214209167276753 0.0
9.05248113004685 2.794651022570942 0.0
8.986028039118027 2.681341972594222 0.0
5.671890458441996 3.377122473800023 0.0
4.755829262593116 7.184480462344647 0.0
9.158258644940048 4.34465968221255 0.0
4.799687186662534 2.961354824469195 0.0
6.030554747591715 2.726787502996874 0.0
8.938327180212585 8.34758372042188 0.0
8.847392320655468 8.503370672816716 0.0
8.67342124373679 8.518117686968314 0.0
5.234423106934083 2.694925204361751 0.0
8.964923046453565 8.185313058214797 0.0
7.456650986668838 2.134076476407834 0.0
9.111732084821366 2.897226832609386 0.0
6.368055837513985 6.402805870976705 0.0
6.265629899005033 6.226581076317183 0.0
8.736327196352686 6.026404178766982 0.0
9.117473097358854 2.67987006607594 0.0
9.052137415465204 2.565428515518978 0.0
7.781001557847192 1.955874236406257 0.0
7.992134447300669 1.949184538864554 0.0
8.593074792993455 3.143159483125708 0.0
9.1291360203536 6.226877897052981 0.0
9.072154326613617 6.338696745620542 0.0
8.916532550320525 2.566986282201109 0.0
8.984021113721658 2.449252898983242 0.0
9.178032243215632 6.120533546076094 0.0
9.213703592343162 4.244823670856978 0.0
9.11972142641474 2.449071238668887 0.0
9.052853896812186 2.33190758581705 0.0
8.635035926402708 4.462329956179506 0.0
8.773614475966344 8.657865377672689 0.0
8.596400917257634 8.67759750279447 0.0
8.942023339420883 8.644678093589654 0.0
9.19471670675691 6.33096438039349 0.0
9.138460613363325 6.443043552768813 0.0
8.66620319432524 5.916297234509582 0.0
8.606669825267202 6.032658196729024 0.0
9.27222540210304 4.341341907533128 0.0
9.013782808177437 6.451040569407859 0.0
9.08360982569773 6.55729980456602 0.0
7.885622149776354 1.768093045890686 0.0
8.095672144455353 1.768790621151345 0.0
9.208772072925791 6.549717411809656 0.0
9.154272208194383 6.662613503537815 0.0
9.187669783927937 2.334640996932141 0.0
9.122379015831417 2.215832190697178 0.0
6.164077036161143 6.404611236428829 0.0
6.062367614988677 6.224307160647549 0.0
8.987075041759633 2.211477580983978 0.0
9.056972755801603 2.093573581203428 0.0
9.194557288902232 2.096029761809264 0.0
9.131223008370409 1.972713028695079 0.0
8.87381302587057 8.795793668920256 0.0
9.039169086943392 8.781606667490083 0.0
4.662813350519927 3.228118291851354 0.0
4.474181267994617 2.945703616023359 0.0
6.562627723301209 6.075544382232434 0.0
9.326886053211574 4.243083624343211 0.0
9.280374192897945 6.656072830232892 0.0
9.224718905178564 6.766740750539347 0.0
4.703284910421452 6.528907865005451 0.0
8.955136474970331 6.565989985649191 0.0
8.998148826814893 4.865480736169776 0.0
8.99429836796776 1.965972383552685 0.0
9.065669391141741 1.847195105148808 0.0
9.207236162050343 1.853010386995843 0.0
9.143218073349985 1.725630086781897 0.0
8.998867447699345 1.719378449325465 0.0
9.082595782768397 1.592017827427701 0.0
8.92804562738841 1.585238202229766 0.0
9.01637794607019 1.453847302675876 0.0
8.854253119154375 1.446306868730686 0.0
8.941620273019874 1.320083886766936 0.0
8.775393064215876 1.308487027359826 0.0
9.102170347200483 1.324733726345249 0.0
9.013857060361985 1.178821526410403 0.0
7.991031819452564 1.587689878441685 0.0
7.767218744640202 1.595993197647291 0.0
9.191539171305216 1.194087248761656 0.0
9.123965901037613 1.057102462689568 0.0
4.853921953226772 3.470213116851758 0.0
7.496563223334782 3.470157221608763 0.0
8.536691379028115 5.921845852206257 0.0
8.475496498707471 6.037633662010236 0.0
7.978668526342969 2.307231488316941 0.0
9.384721922092124 4.337357165846226 0.0
9.331039180200886 4.435926256444196 0.0
8.546261775564837 6.150267290476958 0.0
8.411727261785726 6.155319300628062 0.0
8.972203609044218 8.930944433074036 0.0
9.133480321468399 8.90955269607895 0.0
9.197778815538276 8.768743880012563 0.0
6.162231825784922 6.05277753404107 0.0
5.962111081146334 6.046949845237622 0.0
9.268727788642101 4.146883230687689 0.0
9.380694211527906 4.144811697563401 0.0
9.323823335199954 4.049557759546529 0.0
9.283324894520613 1.736313094621396 0.0
5.858151623803662 6.22041808248046 0.0
5.759668475561988 6.038806123495502 0.0
7.836860473863919 3.191674397465999 0.0
9.348591928839294 6.75855034547469 0.0
9.293979592221298 6.870213350675044 0.0
9.170543172728557 6.879819332293818 0.0
9.240028263813034 6.983394994050525 0.0
4.347372565145963 3.312731475520695 0.0
4.114183445909965 2.96879678229065 0.0
8.616264880152233 4.042035981070631 0.0
9.403174760076901 6.650407069150438 0.0
4.173860112179449 7.723461240865885 0.0
9.365302975518428 6.973476802087294 0.0
9.312420275675276 7.088420778208979 0.0
9.184876614539778 7.0978133687822 0.0
9.25921281729617 7.204979813006656 0.0
9.12816413817609 7.21569648263899 0.0
9.203944409919862 7.322703303071253 0.0
9.334311975087337 7.311477957762272 0.0
9.280415785210538 7.428795599957155 0.0
9.274060219641907 1.066603180421249 0.0
9.211820491509728 0.9316562593680151 0.0
9.050684011148748 0.9017681241401576 0.0
9.441953732403995 4.432092590771756 0.0
9.394725873909666 4.526051349391942 0.0
9.43453556160865 4.048003950509361 0.0
9.378043599351757 3.952631412328806 0.0
9.289691247910705 8.890746792319852 0.0
9.228148443138926 9.030109127390128 0.0
4.440757888677695 6.389562448928118 0.0
4.689874463978985 6.239329075084555 0.0
4.291519540095677 2.622920583112654 0.0
3.886073352912894 2.632778677714434 0.0
9.344015622314338 1.202401041544343 0.0
8.193292196814806 3.849649660906171 0.0
6.960946604527747 6.07044529864598 0.0
9.347708267319902 8.756364147482309 0.0
6.826423138602714 3.261415861395883 0.0
6.06309517882478 5.884563187328262 0.0
9.4085057714426 7.414123963607981 0.0
9.356416821537886 7.532359471354527 0.0
5.042074134251055 6.938947182785697 0.0
5.063988238156824 7.311205832605263 0.0
3.946666851334923 3.30681624613374 0.0
8.189857914071878 1.939951128540477 0.0
7.880690277686857 1.38928908049477 0.0
7.63766396748483 1.399736360041063 0.0
9.345004233592562 1.857695941115052 0.0
9.440465164139875 7.085860901905448 0.0
7.918332480761888 5.744468010879592 0.0
9.08007135068879 5.372457017512481 0.0
8.78639561093144 3.718391405525285 0.0
9.356843485085705 0.9414458825132457 0.0
9.29705128845331 0.8103081541678832 0.0
9.251825423225316 2.451701826351773 0.0
8.483895366325516 6.270717564685176 0.0
8.346386886249478 6.275973306650227 0.0
9.493299170161215 4.138582531223591 0.0
5.321115649032961 7.117073603021904 0.0
5.354076009109965 7.436189411362466 0.0
5.597984079819928 7.254284331170681 0.0
5.644042313435943 7.564172740776336 0.0
5.383963016128051 7.753854027984002 0.0
5.681168258142109 7.880444993178456 0.0
5.935548099874979 7.687258900444162 0.0
5.979508404301389 7.994332725561488 0.0
6.21936843555201 7.802335560754011 0.0
6.267092590637372 8.104873033518185 0.0
6.498845418385807 7.917606504106031 0.0
6.544600005636809 8.209910620392591 0.0
6.77336078689533 8.027284686082275 0.0
6.814840179123049 8.311778392637773 0.0
6.721304148677048 7.737863326704131 0.0
7.031320924898797 8.1335673274533 0.0
7.077388928622946 8.403901803728003 0.0
5.417471987089176 8.090112295667405 0.0
8.845427688507666 2.446352368201366 0.0
9.318512319918124 2.339233739859646 0.0
9.380241452597096 2.451895615249572 0.0
7.283805558009199 8.237518806365102 0.0
7.329200330160381 8.497045124353782 0.0
7.233272584416691 7.991590926766813 0.0
9.142592248414191 5.471315142785471 0.0
9.196303265878848 5.36738298742727 0.0
9.25795832955665 5.465260877691205 0.0
9.310581303233182 5.36341558704714 0.0
9.371094700882272 5.459458038195667 0.0
9.422767107822985 5.360687090455724 0.0
9.36402660964156 5.264821436196721 0.0
9.474220736978928 5.262802348886269 0.0
9.41680330511366 5.169477108906666 0.0
5.168675939028436 4.895496152382537 0.0
9.482591449057548 5.454699312257291 0.0
9.431567605310825 5.552723344040521 0.0
7.531449703396948 4.741663470323411 0.0
8.517293123442691 4.672601123164268 0.0
8.459978676626639 4.778466809901586 0.0
8.396595115309985 4.67568709170855 0.0
8.338966609235166 4.782101664607259 0.0
8.275355646032752 4.678829956447008 0.0
8.217675280223542 4.785699596769931 0.0
8.28149024865807 4.888803783902183 0.0
8.16019781596952 4.892696417098926 0.0
8.22433278506531 4.995725219088695 0.0
8.102825704443651 4.999629142625341 0.0
8.166887930010795 5.098242831115916 0.0
8.034904900788316 4.896825406879729 0.0
8.15353539905931 4.682103688185489 0.0
8.211891449058882 4.574219757233394 0.0
8.290305306104333 5.094007100958221 0.0
8.225684228618732 5.201525567655179 0.0
9.444618942559746 2.343141375196729 0.0
6.929446520625337 4.868116916840016 0.0
5.737810725167649 4.893891407574175 0.0
8.720389971487277 5.38508368411851 0.0
8.805734920311323 8.951818172412821 0.0
8.905272694453211 9.083303226359831 0.0
6.006155038818204 5.171375272745409 0.0
6.431496448228514 5.152985998213245 0.0
9.052675024457304 7.106590131831544 0.0
7.740007013494393 6.09727525827826 0.0
9.375852260355511 9.013078430361404 0.0
9.32035844773103 9.14584923943073 0.0
6.989707597683965 5.146377438798643 0.0
9.488190206836386 3.951168069367155 0.0
9.432429152094464 3.855725756072153 0.0
5.568386402814275 5.185723849666124 0.0
9.525561551078322 5.166162126187324 0.0
9.465026391994275 5.072601962964018 0.0
9.320357339516937 3.857795423728873 0.0
9.375955927831914 3.759314274140895 0.0
9.261783786753899 3.761412578759438 0.0
9.31820665563318 3.661845422072752 0.0
9.431798673168924 3.660830894813109 0.0
9.374584413615914 3.563138564686839 0.0
9.48759661134647 3.562294297118573 0.0
9.431339678707085 3.464016717943268 0.0
9.417896212887529 1.746970678437863 0.0
8.731705369070733 9.110902182838881 0.0
5.652297951447118 6.21188565774667 0.0
5.569122518069258 6.024400786163834 0.0
8.257007204149394 3.505875091031567 0.0
8.717428603143034 2.925525757227976 0.0
6.882852832747376 8.57686572931064 0.0
6.337330066435714 8.416819098143066 0.0
9.50188906539997 4.521022403818629 0.0
9.453500859905136 4.617181635748691 0.0
9.46806769570129 6.749352117850711 0.0
8.836822104875719 1.72282859852854 0.0
7.481071063421426 5.64593758994851 0.0
5.668814988976305 5.86611128457842 0.0
5.487644760735084 5.847591822776978 0.0
8.993992818065195 7.228173913870249 0.0
7.98322414937693 7.229980191466666 0.0
9.22810751684646 7.54864871395298 0.0
9.304103360459063 7.654622011545798 0.0
9.432787371848761 7.633691049023619 0.0
9.382619818023882 7.759136995934441 0.0
7.239096822516492 4.679179578301165 0.0
9.47692479956498 1.861231395362419 0.0
8.041243110813022 5.095895152648969 0.0
6.190208781188077 7.509864122823853 0.0
9.283062812782122 4.549418667685757 0.0
9.503847665760087 2.450295046295932 0.0
9.443345385250678 2.557904120404248 0.0
9.52009568463353 6.644015937008899 0.0
9.203119005973903 3.662458522935253 0.0
8.406198651282708 5.92630414760378 0.0
8.467263597743843 5.811987729136874 0.0
9.461423029059445 9.128120577356565 0.0
9.408445330070542 9.26024300250086 0.0
9.266505293379728 9.277952925446408 0.0
4.14874709022218 3.631681332690154 0.0
9.437448107949258 0.8198473430736303 0.0
9.376993771693973 0.6910550697058979 0.0
9.22882356848217 0.6931820370818127 0.0
4.451823867195988 6.103664366188579 0.0
4.200031743909027 6.232039028149317 0.0
4.687154754667774 5.975132870483986 0.0
6.268889397098538 6.592235545990395 0.0
7.509366161722768 8.340075462391164 0.0
7.564775703413765 8.59800936579159 0.0
9.542148732924264 3.854614593058991 0.0
7.036231103929761 6.550562550831048 0.0
4.089373665437328 2.268193930262139 0.0
3.642558884866483 2.250386188148396 0.0
3.442182385618804 2.651948803899947 0.0
3.146832503011753 2.222630466765926 0.0
2.948870467975985 2.805088883766417 0.0
9.352005315330274 5.067356449300542 0.0
9.31729677031493 3.462944187594675 0.0
9.37428383619102 3.365546369736205 0.0
9.4883538239391 3.365384871181599 0.0
9.432147665178338 3.267287636377487 0.0
9.25034519267688 7.775848812012313 0.0
9.332091350002502 7.881724023243533 0.0
9.462101000264603 7.86490055671988 0.0
9.413353271651825 7.98561007219363 0.0
8.273592814723814 6.158623919352561 0.0
8.207135014732339 6.280394934566054 0.0
9.541483811580331 5.548224291759592 0.0
9.491365919893726 5.644847811894615 0.0
8.088095771120983 4.577581369371366 0.0
8.14760102783746 4.468303741922308 0.0
9.556217963323956 4.414867468889523 0.0
9.543667331547693 3.266908751519594 0.0
9.489307652535885 3.169908976697059 0.0
9.26285575842982 8.635341362685686 0.0
9.403220742003983 8.621447866627538 0.0
9.326013417886902 8.506778946171965 0.0
9.455477927154853 8.503896705359047 0.0
9.566646674069602 4.611465258087684 0.0
9.499341049870914 0.9352184973273918 0.0
8.683891958597638 1.444705608998412 0.0
8.599973456173778 1.287265568270043 0.0
7.760988189317371 1.175381292562583 0.0
7.50927661322749 1.171223823957793 0.0
7.380927152434357 1.411062577009695 0.0
7.242417847270241 1.170759311509981 0.0
7.107236746116019 1.421234419770886 0.0
6.960799033544566 1.169618322344823 0.0
6.817786081200392 1.434174581170586 0.0
9.48095050141868 8.738557748483624 0.0
9.319762046171894 3.263060331456388 0.0
8.920653400180534 7.117307656029475 0.0
9.452431221190624 6.544166520883111 0.0
9.571407933653493 6.540336592280795 0.0
9.507586285214174 6.443281357841339 0.0
9.575252974749443 5.070210512157044 0.0
5.755172844377253 6.370710487467459 0.0
9.541351959064952 7.969072511059531 0.0
9.354607289792183 9.3921968735401 0.0
9.495213435762107 9.37218405175897 0.0
3.77688136092967 3.643094492921176 0.0
5.460967180339239 6.159077196937325 0.0
8.656589552918996 5.283032675040985 0.0
8.599307076390474 5.387421722684671 0.0
9.584017606465821 5.263931993965828 0.0
9.51536593891754 4.977534386249715 0.0
7.788544970111893 2.70578432810479 0.0
7.381746833264364 8.755477463411431 0.0
7.615969996822885 8.852710176548548 0.0
7.783643411970649 8.691528137204457 0.0
7.845017394185501 8.938777577473743 0.0
8.570520580943368 7.342304222498308 0.0
9.103648004226827 5.781084627507008 0.0
8.338082930126799 5.815990105349368 0.0
8.930848895071895 4.561111316304916 0.0
7.381089602119859 5.983657236035151 0.0
8.42066837692862 6.393608568217351 0.0
8.888256157021065 6.459558428285236 0.0
8.826495664731354 6.575679897210801 0.0
4.22522220414496 5.921354747981145 0.0
3.943296448343383 6.075578573904587 0.0
9.563175937841836 2.554860696349795 0.0
9.505342423182917 2.656889632284623 0.0
6.660863480070611 1.168750929063519 0.0
6.518316961679488 1.436478598119306 0.0
6.683474168246802 1.694104067636375 0.0
6.376799057174731 1.707382100972048 0.0
6.205091481342603 1.443621641108414 0.0
6.058670988071357 1.728841803855816 0.0
5.877457486049096 1.454297236926778 0.0
5.724979192982589 1.756666409586195 0.0
5.529885788012015 1.462283739157555 0.0
9.514953777019835 0.7018468683209754 0.0
8.398665270372675 5.702731562702358 0.0
9.456442249775696 0.5772068858285652 0.0
9.565795671866349 2.345573662774494 0.0
8.830758563027459 9.247271599108435 0.0
8.523580738257648 4.88015211128435 0.0
5.580123316488715 5.701889892660689 0.0
5.398591029446707 5.685938459654249 0.0
5.367686360823392 1.778740548277203 0.0
9.546603444041448 1.754984055696778 0.0
9.489649223089446 1.641312329051244 0.0
9.617973952467912 3.363804764345866 0.0
9.584322830999731 6.729956156156573 0.0
9.597221861144487 3.948534024289882 0.0
9.49401963819799 8.089507968561776 0.0
9.207321074262563 9.416906871900888 0.0
8.27185428346661 4.464932191097996 0.0
8.207416067213774 4.35878753684812 0.0
8.332747746635944 4.354903699457511 0.0
3.990181919126853 3.930792395858886 0.0
8.267392138262498 4.254008221702929 0.0
7.997788712685495 1.196805377512679 0.0
9.600316638269724 5.639973985281733 0.0
9.550939606739425 5.737313319038155 0.0
9.44084303195315 5.74233753256161 0.0
9.50112296154558 5.834555019909565 0.0
8.897429225733994 6.685415510921676 0.0
8.762930941408914 6.695907295903629 0.0
8.654628175336732 9.278157371342388 0.0
8.544676900803436 9.133790942553834 0.0
5.294904777716057 5.855935872688884 0.0
5.216749389964556 5.66865685845661 0.0
9.508453581298625 2.239460033375932 0.0
9.599691370793206 3.169496930704394 0.0
9.546615051106684 3.073514534194011 0.0
7.484714626923596 5.028675123117963 0.0
9.588496050271255 7.850836295555126 0.0
5.153197381012662 1.471340286561097 0.0
9.433168304679345 3.071871997104804 0.0
9.610464706874994 5.829217654498672 0.0
9.561407772947403 5.926179534044419 0.0
8.273381980676042 5.705233340662362 0.0
8.330794188929296 5.594351887246082 0.0
8.207319603076424 5.596747949305344 0.0
7.251338559467102 5.233758892662348 0.0
8.708518799790543 1.130513882092466 0.0
9.590155250193266 0.5878623138195824 0.0
9.389919385420015 5.841079912164009 0.0
7.991397852194216 5.859910582924319 0.0
9.624951589233206 4.975554514425905 0.0
7.240016788025947 2.531866266726309 0.0
7.635666783493215 3.873554782053258 0.0
9.608476620993713 1.863530872936442 0.0
9.365330459496413 8.10677840682376 0.0
8.775076110585598 2.572737931759856 0.0
8.699389445914996 2.444602334375113 0.0
8.625078713232146 2.580891022578613 0.0
8.54447196848446 2.447624719286678 0.0
8.468898498943965 2.586757328881282 0.0
8.62282309213608 2.307826916202421 0.0
9.622102662978762 6.439307895185218 0.0
9.561995355724862 6.35103962032292 0.0
3.898245450818314 1.856155797593496 0.0
9.681759177700954 5.07069253017652 0.0
9.059254996454502 4.963357716933865 0.0
9.113144532326562 4.861710138088372 0.0
9.62140874877204 2.656009146517733 0.0
7.884510615470827 0.9666888912541309 0.0
8.14902661050739 1.005010215149227 0.0
8.491263206618079 8.527197931363634 0.0
8.408859203395778 8.697060715788105 0.0
6.54422152733529 1.954566069381189 0.0
9.563546573097593 2.755667904356369 0.0
9.453065492925557 2.761122255953964 0.0
9.676889098520615 2.755084315170127 0.0
9.678287124781653 2.556838324720633 0.0
2.60254317790297 2.278874965850319 0.0
9.211706272534968 4.050470567310489 0.0
8.526711683538949 5.698821878547752 0.0
8.296604023060945 8.533761944401608 0.0
9.649704314258118 5.543946557831669 0.0
9.651176136337964 3.85122804518279 0.0
9.44590154800397 9.498503704959054 0.0
9.580491248736612 9.476376347552954 0.0
4.3239388803087 3.921156392977062 0.0
9.65737873521736 3.075324100817917 0.0
8.128000846282253 6.160273991836929 0.0
8.06242981852327 6.292371360998262 0.0
8.500465019503922 1.442700595221201 0.0
9.615253212967009 1.649819368149096 0.0
9.561768620580791 1.538553925606111 0.0
9.435477757657937 1.527391516499924 0.0
9.627993450010088 2.242685831452484 0.0
9.5338252733548 0.4673994795805215 0.0
9.398055066504014 0.4589059948533885 0.0
9.669486082509058 5.920177035588319 0.0
9.621072177439727 6.016493814615133 0.0
9.506185962103057 6.018397021409126 0.0
9.196884440497488 7.898824858961557 0.0
9.112591143666748 7.789491461180181 0.0
9.664357762385308 7.950712034233033 0.0
8.46233617997115 2.308903464128035 0.0
8.547917980328803 2.169381684694277 0.0
8.139931430059324 6.410762600521521 0.0
7.672499127532963 9.099143622036436 0.0
7.91372855627271 9.178704612763656 0.0
8.463425076318451 9.290653726808348 0.0
9.643938029094286 9.335632419679458 0.0
9.647017668702574 0.7068996148634754 0.0
6.241662276606473 5.884018212993202 0.0
6.157742245066693 5.73500474100449 0.0
6.318815619949124 5.730068085823802 0.0
6.247706374231452 5.593094310939028 0.0
6.406948541886973 5.593272398468375 0.0
6.092564106310554 5.587409338401505 0.0
8.535507922245372 5.286142900439676 0.0
8.022959839404006 4.471630490587016 0.0
7.963561162854596 4.581393556789843 0.0
9.683487139413305 1.546750704925431 0.0
9.630761777960082 1.435922217091829 0.0
5.121714348989337 7.950140247572198 0.0
5.136464096196084 8.310254432483559 0.0
5.47349124035624 8.455234262268478 0.0
5.176273618280354 8.687190323573228 0.0
4.796664658962938 8.592678692862421 0.0
9.568705729418735 4.887269869750176 0.0
9.462711651199594 4.88832222094458 0.0
9.674903475028225 4.882285174433025 0.0
5.4996067353406 5.546583260717527 0.0
5.663632234555963 5.557613452957074 0.0
6.829408195405585 1.947174574944512 0.0
5.336529198289861 1.127585641139875 0.0
9.672387559812332 6.34138351957329 0.0
4.463988917379896 2.271060678869338 0.0
8.618048281355405 6.263841736419089 0.0
6.480949808711781 5.74815588680617 0.0
6.562207427719153 5.592185077216444 0.0
6.643040463857446 5.721233693378952 0.0
6.712825900331884 5.588664360236 0.0
6.79240375630333 5.711383948285569 0.0
6.86115931532141 5.584697050428064 0.0
6.939210100691576 5.704407337029545 0.0
7.007668476576536 5.580801046893123 0.0
7.084627386867475 5.702817970154801 0.0
6.633257976075473 5.460881327825488 0.0
6.931430743764456 5.461960451448691 0.0
9.682652370938209 6.533133024505995 0.0
8.761108695241376 9.450742747770144 0.0
9.146031326900015 3.764292700000154 0.0
9.089378801805193 3.661317181076136 0.0
9.514354521818781 8.994988681611192 0.0
8.157650730500988 4.262987189670279 0.0
6.329633198899328 5.4647789391701 0.0
2.340685767996258 2.811285337457589 0.0
7.379572471323651 0.9290892725587991 0.0
4.171878172186605 4.222320767259098 0.0
4.4876601621649 4.16473354200826 0.0
5.336389369563535 6.806464508860387 0.0
9.595468321212476 9.108133206829102 0.0
9.645038675267227 8.982113951305912 0.0
8.393140678816192 4.246338342095281 0.0
8.309440721624494 4.155300532283633 0.0
9.418269339704423 1.9925512363779 0.0
9.662781807969623 0.477809346089035 0.0
8.011297869803792 0.7518828483803571 0.0
8.250149975885678 0.7646904662196189 0.0
9.608674873602773 0.3618049194050078 0.0
8.692696069692623 6.582927327365709 0.0
8.628225948401226 6.705702462696891 0.0
8.701883181418305 6.822086652299242 0.0
8.559276855155542 6.829564723911442 0.0
7.069268463354993 5.459534423493629 0.0
2.654575201159115 3.323490466195074 0.0
3.610801136544596 4.044075244426243 0.0
8.263757217166944 5.48730323490738 0.0
8.138838162809126 5.491254533497952 0.0
7.90196833683664 4.477386962763833 0.0
7.987943097943191 3.978756490171551 0.0
9.704623491880403 3.945605151832784 0.0
9.461009573830147 7.301728818091931 0.0
9.532468631193666 7.399916015174975 0.0
9.582688928417856 7.292330983701011 0.0
9.652579613269625 7.387768793572397 0.0
9.699264016151023 7.282867433965265 0.0
9.633305589700536 7.188543855060478 0.0
9.505576100168666 6.961225778216469 0.0
9.43876966151099 6.342441564206569 0.0
4.908483672172518 6.098703904450545 0.0
9.135448256237908 5.269827196966999 0.0
5.905650502271389 2.025036080946255 0.0
9.709890722072377 9.452748507541063 0.0
9.663337613522643 9.572126259365891 0.0
9.603900123387826 7.495180532331903 0.0
9.720147629525837 7.483400774981126 0.0
9.674588415444239 7.588303295299578 0.0
9.653186673863587 4.039274180923234 0.0
9.053164539680804 4.764545162185531 0.0
9.164908495749003 4.763017269285045 0.0
9.226019227262443 4.858029410614327 0.0
8.809947621994619 3.4964384919072 0.0
9.10538997155458 4.665865142902959 0.0
9.331074106432244 5.748993480915537 0.0
9.055854333858068 7.918554535314415 0.0
9.446431573964945 8.209836764658437 0.0
9.573844810886287 8.191100251691205 0.0
9.309704769895653 8.244395007943949 0.0
7.240329561730736 1.676197957122907 0.0
9.543389817573933 3.660019800390455 0.0
9.598599341122098 3.563130123982772 0.0
9.652615161407017 3.658119804270645 0.0
9.706336063693934 3.564815526226687 0.0
8.632284427755456 6.946688912416058 0.0
9.682863230715835 2.349655023034811 0.0
9.571538455120994 2.142369886250143 0.0
8.090821900439733 9.017409120951333 0.0
6.812258669899192 0.9007667548831626 0.0
6.50135254578461 0.8974046495177885 0.0
9.598335906230732 6.246437748035812 0.0
9.719677442549804 6.253968775436637 0.0
8.593026822691716 5.180101360605356 0.0
5.537586126848265 8.836083861509138 0.0
9.688689404995035 2.143487155934306 0.0
2.821389253975936 6.507820864074362 0.0
9.176571289960709 8.507736431357309 0.0
2.918303740542162 8.256728920338826 0.0
3.428955230180972 8.401446814887457 0.0
8.490587404589881 6.715350139132777 0.0
8.86049054904785 7.243279881821806 0.0
8.93696309213556 7.356650230611625 0.0
3.951931175165697 5.78308550088855 0.0
3.65055612573298 5.91672400098539 0.0
3.668142216548471 6.247526235973777 0.0
9.717269848920886 5.821831227352286 0.0
9.708364917734201 3.164198601626433 0.0
8.45581975650687 4.569560863828342 0.0
8.204448312099833 6.040774355519757 0.0
8.65969449127868 5.485991799508151 0.0
9.707534571012967 5.634423933296901 0.0
9.62102991883279 2.849662850313935 0.0
9.144093558002634 3.560383427867003 0.0
8.29763273805118 1.77155302934031 0.0
5.280452715709455 9.01633391004168 0.0
8.984558945859158 6.99932633710603 0.0
8.4157550875812 1.275784953143711 0.0
2.068078118650995 3.355462780535101 0.0
9.205703884756806 5.568274778556933 0.0
9.745857863753141 7.178456670302003 0.0
9.681628895748586 7.081494416756802 0.0
8.875818787971069 6.240744812097083 0.0
7.993733797566922 6.414830952863579 0.0
8.462810157069566 3.377071044664789 0.0
9.29428363519789 4.759591981903337 0.0
7.933956818298286 5.97437536746848 0.0
9.028281726378319 3.558713145763133 0.0
9.083461773461467 3.455531762175701 0.0
9.73231939683535 2.849247643393067 0.0
6.70072305037728 2.192432536215492 0.0
6.423245125077639 2.212870246546939 0.0
4.931537051605536 1.135086496804522 0.0
4.746426561586179 1.500381091957315 0.0
9.707706579932626 7.836419656220658 0.0
8.590593344701457 1.595639668013959 0.0
8.708946574109854 2.1688179918246 0.0
8.634728854549891 2.028564483452208 0.0
9.230357659411311 8.129337203173913 0.0
9.102841374461482 4.452881308250647 0.0
8.472081531214734 5.388993924853032 0.0
4.925996806199801 5.844046944846857 0.0
4.702806345752284 5.745688656289065 0.0
4.884357002239844 5.633237011762874 0.0
4.709628434300812 5.536404116679045 0.0
4.530800966746534 5.627044171217377 0.0
6.040296145349247 6.603808099703576 0.0
6.162203578696918 6.795213950202512 0.0
5.923135943221574 6.824060069869489 0.0
6.046693245732212 7.010423490915212 0.0
6.297337598588478 6.979895528204233 0.0
7.760448385794147 0.7294020304851334 0.0
8.492228348169641 6.958778476405878 0.0
2.89219822877093 1.704113597264478 0.0
2.26178643438086 1.7814602252425 0.0
9.726968895980871 6.009547057102511 0.0
6.63195110828313 0.6072886418835157 0.0
7.984023036954866 7.515675826210831 0.0
7.893857204140559 7.681876703427663 0.0
7.778465117872411 7.537836322197895 0.0
7.998204230811618 7.844922503023499 0.0
7.798554315988981 7.858161805718108 0.0
7.917846202023782 8.03040048103727 0.0
8.547520504556728 2.721261126162116 0.0
8.39253850806587 2.732073315877738 0.0
8.306047241032278 2.59069854402512 0.0
8.233011054235162 2.739783364361515 0.0
8.318836035587811 2.879838477099622 0.0
8.159530874574331 2.888511553151382 0.0
8.245490421394788 3.024568439743106 0.0
9.759103003747676 3.077839427881478 0.0
8.083610090773394 3.033523757291178 0.0
8.174562583800352 3.166768504406541 0.0
6.046769434852523 1.155662270344939 0.0
6.968371001421964 2.176347877216873 0.0
8.324858098380334 3.152966249334499 0.0
8.145556596142626 2.609897633546475 0.0
8.970652052821418 7.804556541250797 0.0
9.033737629244714 7.681328986528639 0.0
9.62347010002576 4.796939565664328 0.0
9.72520380348743 4.790261082613535 0.0
4.882631186210167 5.455006233451049 0.0
4.618356368594037 3.933076284395493 0.0
4.748083507220199 4.151025177732873 0.0
4.641724290430313 4.358202249373887 0.0
4.87055838101999 4.337900676660481 0.0
4.974114446887331 4.149149057174687 0.0
5.081577844806959 4.3240148266423 0.0
5.179521650033781 4.148725180298481 0.0
5.276261408871418 4.316673822529601 0.0
5.369189110897883 4.148362797753505 0.0
5.463892033849439 4.338819369807593 0.0
5.550828466075906 4.146274465971151 0.0
5.646554822352869 4.303571429647391 0.0
5.728109623160046 4.138582010823754 0.0
5.821689108984419 4.291959598724587 0.0
5.906082534948073 4.141649907302701 0.0
5.99655838673762 4.288752711512514 0.0
6.077312859438928 4.141011188943332 0.0
6.164215275138099 4.281164574562373 0.0
6.241782344986693 4.140701084167517 0.0
6.324316420613108 4.277393447415522 0.0
6.40284165425941 4.140026953305852 0.0
6.483655157361099 4.273418937894759 0.0
6.561170698911611 4.136221843106807 0.0
6.63512300179586 4.269917278694155 0.0
6.720306110251473 4.133393659385058 0.0
6.63777078218551 3.99617001426095 0.0
6.802492763973074 3.994355399489989 0.0
6.798834760478153 4.276914787769972 0.0
6.15377608509923 4.000134206628027 0.0
6.548727135071258 4.400510710520637 0.0
6.251479300130713 4.421887359316258 0.0
5.275876048175579 3.979624500657822 0.0
5.910905077162284 4.431174408784691 0.0
6.717070288412452 3.851239795555301 0.0
6.883499045994213 3.852555480300214 0.0
6.96664848901999 3.994033961856844 0.0
7.048208567116626 3.854750001965969 0.0
5.810004974283072 3.982497501655442 0.0
5.586615391658107 4.471070246359201 0.0
6.547331954052155 3.853872077215347 0.0
5.179081233207816 4.485638492900557 0.0
7.126615227065496 3.995337770596979 0.0
7.209459742762513 3.856893463870469 0.0
7.130226097876905 3.713620439679428 0.0
6.63075064074106 3.699684148676045 0.0
6.446985573861992 3.697358756862005 0.0
7.043151422977365 4.131713936060725 0.0
7.198322215260019 4.129850614748363 0.0
7.119378405252723 4.26005098890218 0.0
4.797146270976422 4.525762781577414 0.0
4.608329098388589 4.573584257851931 0.0
7.294442092743627 3.720853338661503 0.0
7.215753312764997 3.571378507508807 0.0
7.049631633956289 3.568047985538775 0.0
7.133765707749521 3.414282375958479 0.0
9.755079417839903 5.539705890434435 0.0
9.698955703441971 5.450920012703194 0.0
9.717604099406742 9.09084770432896 0.0
9.276716006673976 5.847248422342224 0.0
9.339081208926798 5.941174203394446 0.0
9.031261921742963 3.750271483819014 0.0
9.08721978689863 3.853416037308712 0.0
4.801461566647803 7.510704110489921 0.0
8.206553504932042 5.818005960412773 0.0
7.362361315389098 3.863102442315545 0.0
9.492826845316191 2.963845037486267 0.0
9.376710375304633 2.97229517374228 0.0
9.3192743723601 3.070687802230453 0.0
7.915389082113898 6.293241865913004 0.0
6.735006382384437 5.832450056405368 0.0
8.456481836836168 4.35369289249905 0.0
8.517718268476031 4.246675068616396 0.0
5.583512022030555 5.411069060406398 0.0
5.73625200174779 5.422617752052123 0.0
5.81006929286229 5.548584937688919 0.0
5.903438861894402 5.420604003204523 0.0
5.43801870974416 5.402925156167655 0.0
7.022641548594327 5.825217331839047 0.0
7.165095795605366 5.826005223633447 0.0
7.223078558430726 5.690146755650336 0.0
7.841396000338385 4.586693006493787 0.0
7.904793170875705 4.690826189066096 0.0
7.785999820520073 4.696719777099973 0.0
7.846448506395101 4.798518978096564 0.0
7.728149182067156 4.803800941124008 0.0
7.788983823826226 4.904802634695232 0.0
7.672018889153144 4.910077510508749 0.0
7.731996012352178 5.014717724244488 0.0
7.852072803124419 5.00743796185411 0.0
7.779278698005006 5.118909346425974 0.0
8.088113864063853 5.605434545811022 0.0
8.016457362785575 5.494849890158723 0.0
8.072290383394757 5.385594956317259 0.0
7.95068657972964 5.38825563681957 0.0
8.309366678475389 1.438342408757099 0.0
9.748160780780179 1.447794693754379 0.0
9.696454228162398 1.337889922375316 0.0
9.568813761940916 1.329560834053294 0.0
9.638326779791626 1.226729570935787 0.0
8.472132467407484 5.182856496818138 0.0
8.066211547412054 6.53691730655352 0.0
8.217035586462373 6.522976700918602 0.0
3.544839338670893 3.324491119989469 0.0
6.999740002965287 5.347729916247808 0.0
6.874544698914502 5.347027470386579 0.0
4.880451234715014 5.193043717957879 0.0
9.104510033763066 9.313204713465637 0.0
9.0466357104558 9.45359399494339 0.0
9.146803165140184 9.569652364413551 0.0
8.134107047896672 0.5527712356100052 0.0
8.369770412730738 0.5571215815175228 0.0
8.47386979744655 0.7564607169846485 0.0
8.585193608569258 0.5749174254532757 0.0
8.683868132726584 0.75505070091701 0.0
8.787381435061018 0.5813987798627239 0.0
8.697570280442534 0.3771156480326233 0.0
8.530048434259976 5.077280516000916 0.0
7.995091351438729 2.90367515012593 0.0
9.731083608815164 1.662638626153251 0.0
7.260488865351954 4.255073962371814 0.0
9.760728358076392 8.990038509880067 0.0
9.716710396257366 8.884160310398862 0.0
8.794627466210242 7.369659405098349 0.0
8.868068657550866 7.515048014893154 0.0
8.702594597629135 7.510501129643432 0.0
5.132320689147051 0.7610757801158905 0.0
9.755852887652699 3.853180024615871 0.0
9.787424819067885 2.757921105725315 0.0
9.731193479931608 0.3736343090103709 0.0
9.796526908308536 0.489684029254899 0.0
8.226019692057042 2.453349105940535 0.0
4.560989821496479 5.428206018250252 0.0
4.348810639659689 5.517048281386008 0.0
8.785190163106925 7.119142251269924 0.0
9.015515413043023 7.464769766852701 0.0
9.754861440190705 3.659036930324926 0.0
9.7543610723378 4.033687839160082 0.0
9.707881226943384 4.127219992296752 0.0
9.52841017383273 8.309020665649431 0.0
9.65186044414544 8.289498614805698 0.0
9.714051275521857 8.173576484362068 0.0
8.209758892476394 8.715513071423135 0.0
8.097084883671858 8.548851201381087 0.0
8.177989947800599 8.367872862579052 0.0
7.974142434808908 8.36779470623567 0.0
8.409012054919861 2.142624252464372 0.0
7.707002321497132 8.039129945341395 0.0
7.574653123518228 7.83895791570255 0.0
9.229858094382692 5.951357214361815 0.0
9.75307989876696 1.229893222503321 0.0
9.715811155868643 1.128779429890018 0.0
9.597960915003707 1.117058287635912 0.0
9.672063923518955 1.020806103150243 0.0
8.99090422125785 9.593878510105375 0.0
8.133165456134304 9.257620998029804 0.0
7.976779931497633 9.420725324095141 0.0
9.77231778617502 7.927819487779705 0.0
7.957213679655531 4.364530256281665 0.0
9.609903116082736 8.403725680286847 0.0
9.724891358972584 8.388392708395173 0.0
9.687487059868507 8.495935345161797 0.0
9.810055520269009 8.494090598382963 0.0
9.755967487162335 8.599790818513082 0.0
9.645698986824481 8.606121319182705 0.0
9.721376049217765 8.699989876681524 0.0
9.773009257015609 4.884557953188837 0.0
9.830105798750992 4.796546393900876 0.0
9.775335108731761 4.686093304257503 0.0
7.455611517737074 3.730099283949135 0.0
8.906943567829634 0.4197477661467797 0.0
8.980613334153533 0.5814185917581446 0.0
9.081059111759728 0.4263421860552371 0.0
9.821654809259165 3.576985724143072 0.0
9.761309244784803 3.4792267780002 0.0
9.763329553045937 9.353068233045157 0.0
4.463051839136694 1.164440352584939 0.0
8.0213168204867 5.283436382300235 0.0
7.89385412333227 5.290429544753158 0.0
5.806940001023414 8.583716119232427 0.0
5.88977793877374 8.96065112858812 0.0
9.177759062826041 8.25539130897928 0.0
9.626582559276994 2.05283181283147 0.0
9.747673294325121 2.064954301745188 0.0
8.775905508647185 6.951821187702613 0.0
2.3581644273991 6.029034686663493 0.0
9.777798009058461 9.548066962498762 0.0
9.737129197219856 9.662299853506903 0.0
9.615080366030512 9.683349544763068 0.0
3.315839678697904 6.042943273456425 0.0
8.915083018115329 7.937748428923896 0.0
9.489832173860055 4.712364754630572 0.0
8.118313727862493 8.013944064029838 0.0
8.902248750797776 7.67372145952523 0.0
8.954075939212636 3.463080912810881 0.0
9.45247551997678 2.133243108303608 0.0
8.311151553157742 8.899233004613622 0.0
3.28672004268868 6.826745674539142 0.0
9.86008383798735 3.468233656255824 0.0
8.389990589860254 1.947086063498656 0.0
7.144231739553659 5.329544660076687 0.0
9.654500729007207 7.743301971143119 0.0
9.761920842881946 7.740144345898896 0.0
9.692820773976567 0.2651585113981998 0.0
9.690951720399688 6.100517071814821 0.0
9.775704281989471 6.077882312279847 0.0
9.823117117198079 4.115168542267924 0.0
9.764391943581737 4.214465954230587 0.0
9.659455011849253 4.218716850797838 0.0
9.713462125022623 4.30742830316693 0.0
9.849638067150842 4.208845651573708 0.0
6.376241713254513 3.858766051594979 0.0
6.274931849158213 3.701528298009006 0.0
7.097780104117746 1.926449727602711 0.0
2.457742027508782 3.810157622192786 0.0
2.963634206580268 3.740748099915693 0.0
5.065585416063965 5.544355730437482 0.0
9.783560252464587 7.566507987677117 0.0
9.825819294611026 7.470942204664841 0.0
9.799976114123012 1.01659516618323 0.0
9.745559590633832 0.9150866860898854 0.0
8.20473400632469 9.495828670767946 0.0
8.784586030320169 2.054461500762216 0.0
8.758471587067168 1.888286802854785 0.0
0.9188935087347281 8.510730800272478 0.0
9.674192026048217 9.20389587377276 0.0
9.796314981283475 9.185916994648775 0.0
7.206882433199502 5.452024361489832 0.0
9.773927048949279 6.334665846819535 0.0
9.830288393591173 6.225300227041885 0.0
8.25177349297509 3.282767705830209 0.0
8.099233469407428 3.304040153764131 0.0
9.607860512870598 4.315652630490023 0.0
9.403674738018715 8.367349042046314 0.0
7.611756786273919 5.018691202305147 0.0
7.549513964643336 4.923310232561835 0.0
9.80986724662116 0.2915868356190958 0.0
0.7757562810577034 3.504187313079081 0.0
7.659562100664981 4.698467529240196 0.0
6.539424975891206 3.541729955691742 0.0
6.717348880400739 3.55221857686142 0.0
6.836337579501807 2.417476958454302 0.0
7.096480496160066 5.959124656438389 0.0
7.189742782777612 4.377051328076039 0.0
7.051723187622053 4.38470822973091 0.0
7.125489805519186 4.497018383456762 0.0
6.994915621927777 4.501504591168814 0.0
7.056755276274058 4.607929817497045 0.0
6.932937068803914 4.613249390039674 0.0
6.86629288290367 4.50541343988659 0.0
6.80427099775847 4.617607827251794 0.0
6.739195362053689 4.511124964201849 0.0
6.677260697693361 4.624288827143181 0.0
6.996760608675822 4.711715831373894 0.0
6.316045249462968 0.6456945497683586 0.0
7.321834163850416 5.816449323512759 0.0
7.833101485370825 4.390058096386987 0.0
4.996572652976738 4.498711166259074 0.0
5.112334577457371 4.663858846723513 0.0
5.271923064784868 4.629759173373871 0.0
4.93773508827367 4.668006487116195 0.0
5.348137647919096 4.485934621930562 0.0
5.413454827497575 4.62999925573761 0.0
5.356581113747675 4.770594395332836 0.0
5.013422223730484 4.793321773780133 0.0
8.58674425943957 0.9312335381466886 0.0
8.776450596582496 0.9362399987293505 0.0
4.783496233934828 9.486061758876032 0.0
4.544176394620909 9.034071856445296 0.0
4.082330493623582 9.015765881393772 0.0
9.820867469965414 7.285959215547852 0.0
9.852697883440127 7.166089674802766 0.0
9.260999083164238 2.971390964911171 0.0
9.197701900169713 3.073162109379564 0.0
9.31960210441945 2.867465579641856 0.0
6.660951583415121 3.383363199709994 0.0
5.210469976037585 4.761678854423166 0.0
6.740780285297665 4.733615686805694 0.0
6.611362405615225 4.731958642073806 0.0
6.549091884465382 4.629620704100811 0.0
6.491761716522486 4.733409494449344 0.0
6.425259228542098 4.640546096196947 0.0
9.715556659367534 2.986725573570596 0.0
3.710524324925069 9.463213827486557 0.0
4.768537031214573 4.727001037865238 0.0
5.039413681704655 5.378508462165627 0.0
5.188746429211535 5.440476671296013 0.0
5.172214816037712 5.298914527247826 0.0
4.469063601436893 3.667917323494335 0.0
3.799121596584382 4.741629285988305 0.0
3.661085664896249 4.442847704416992 0.0
3.316563386321876 4.380147387454913 0.0
3.802087298647255 5.26743535640985 0.0
9.738116341343215 8.047178982429934 0.0
9.85106076399546 8.021725551312715 0.0
9.837581050304836 2.844176011307251 0.0
9.664579962075123 4.402853107737106 0.0
9.76433159763034 4.39807801415352 0.0
9.718924973226878 4.487825491046641 0.0
9.826405563645343 4.494594135148365 0.0
4.931068003413168 6.359330991212394 0.0
5.130175746947236 6.201075257041828 0.0
5.143884286052002 6.445382329515047 0.0
4.953395875296406 6.628748468717369 0.0
7.833019185167153 5.400347121613631 0.0
7.766636138801143 5.313240048256084 0.0
9.767038723422333 4.578090619166644 0.0
7.315369355237483 3.441501197259575 0.0
9.556068971301514 0.2347811136726856 0.0
5.733871280791703 4.444861510772459 0.0
5.828809543126846 4.569791247698539 0.0
5.986701526182213 4.562881783985375 0.0
5.912543327921148 4.692966271273211 0.0
6.052130330528581 4.682477327897978 0.0
5.773525984744635 4.697697018456535 0.0
6.121646311546238 4.572302645403103 0.0
6.182349700936326 4.67713231096357 0.0
5.846371383601797 4.808939734754761 0.0
5.117807918383606 5.974361363083184 0.0
6.256132501905665 4.575863546153224 0.0
6.324770064521816 9.645040261272253 0.0
7.345522892050965 4.12581088034536 0.0
9.338523512844539 4.854480276600515 0.0
9.286984287289403 4.959628690044808 0.0
5.676298026114105 4.589279806918992 0.0
5.631257891894775 4.722749088404111 0.0
7.970415275563177 5.621040275419208 0.0
9.565118337557308 7.081391220827488 0.0
9.626201005045262 6.980441083020495 0.0
9.733729506193331 6.979928568877979 0.0
9.684556253529976 6.887102896543928 0.0
9.780785815410074 6.890287441101827 0.0
9.740054813822885 6.794211367612523 0.0
6.462628988057306 7.629921412015864 0.0
6.692564520952154 7.473594130811262 0.0
6.927983108788191 7.570982428592125 0.0
6.899878641134941 7.329306734748538 0.0
7.117542472438434 7.416951094809493 0.0
7.089537168123128 7.186691566729968 0.0
7.296585396514727 7.275888419524222 0.0
6.879678873774065 7.097443005287856 0.0
7.063454637059129 6.967740076426161 0.0
7.329105042924355 7.496317641003757 0.0
6.867084781778411 6.878842928865059 0.0
7.494278796275744 7.351949197351029 0.0
7.462564159480594 7.150140034494138 0.0
7.644835001206406 7.21506678718646 0.0
6.682478929414216 7.008358327294905 0.0
6.449199855715812 7.365660640952548 0.0
7.548139855358765 7.57299228324251 0.0
7.008502809092701 7.844601794812628 0.0
7.371739019901781 7.707688433423657 0.0
5.665345294602155 5.290628720253272 0.0
3.987583013016546 4.486920698115711 0.0
8.893480480320447 0.7785000884179994 0.0
9.715485963651112 0.5955299613117169 0.0
9.761785841543585 0.7048670948649375 0.0
9.670304314877074 4.578896619304786 0.0
8.058509626083154 5.744161686650483 0.0
6.181795443628869 5.462040811515966 0.0
6.256771804808641 5.338464817889848 0.0
6.124070400983443 5.352376180901929 0.0
6.399679261813415 5.349186390888865 0.0
6.477776305607503 5.46505688468465 0.0
6.541624525938461 5.346017118512589 0.0
6.673064575428321 5.339051516933525 0.0
6.599301548842115 5.241958624987057 0.0
9.573774011620444 0.815274945835158 0.0
5.86493292693426 5.877588788523632 0.0
5.552663040119136 6.957487930464628 0.0
5.535080960199246 6.663033131707637 0.0
3.708603689392072 0.5979254716153909 0.0
3.31896983256719 1.188583855309964 0.0
3.895664898001925 1.128137111173669 0.0
6.363360407965353 6.032416442205533 0.0
9.445959758065749 1.070139246426051 0.0
9.50632172780449 1.214052376665338 0.0
9.441030033980638 1.325047485624912 0.0
9.295799464644857 1.341410624832976 0.0
9.184164107767781 1.461677744200096 0.0
6.407191016756832 4.407273313799791 0.0
5.544591888593027 0.7652641669375747 0.0
7.883090151006535 2.497506182548758 0.0
8.073420508370992 2.120510489750234 0.0
5.494822040671399 4.732314720081375 0.0
0.8986976806403217 1.464611451578306 0.0
9.536325549598013 6.83286654168725 0.0
5.972289519322897 5.727532110854501 0.0
9.82203607053145 9.443411729566549 0.0
7.263199949874008 7.064207941227515 0.0
7.233659553805083 6.853135694774254 0.0
9.793310082768443 7.072747972018893 0.0
6.734168931095253 9.67499220075154 0.0
6.941134861034159 9.382328333169653 0.0
7.285822522704258 9.443989747444657 0.0
6.576263515512108 9.333035011158342 0.0
7.160560566479093 9.127732577621245 0.0
6.218711947378506 9.298064908857533 0.0
6.432383355119106 8.980985203293491 0.0
6.795390278360442 9.046043538032663 0.0
8.54677014121837 0.1957422484480979 0.0
8.528696320820908 9.804850950580938 0.0
8.42644965647489 9.604735484095604 0.0
8.010239224104339 9.715048083583248 0.0
8.644359648763341 9.628432815860457 0.0
5.344212921686536 5.526744195650314 0.0
9.760936589662048 7.38409687515441 0.0
9.128187788393989 0.1445485608215519 0.0
9.133307661752394 9.854833215426817 0.0
4.867351616228264 3.944459575003425 0.0
5.905323253270366 7.385600364255367 0.0
5.909045412185362 3.361969954191194 0.0
5.80580919758911 3.569999290452344 0.0
5.578230704221431 3.587842862412673 0.0
6.013352753603037 3.550699073477782 0.0
5.936624955014758 3.721630401607248 0.0
5.735413275357409 3.78528948606432 0.0
5.512538847486775 3.794760621907932 0.0
5.360571639388366 3.618649018042938 0.0
5.134141179590394 3.459385929220745 0.0
6.167399567008798 3.367365990358096 0.0
9.766756262206602 8.291756450136036 0.0
5.486063578307141 9.64505925252771 0.0
9.497624614180321 4.328873442170357 0.0
9.811387324954623 1.570516917365688 0.0
9.389210081887331 4.69150887571586 0.0
9.704395728912932 3.754226393630331 0.0
9.808172776193384 3.748784464356272 0.0
6.549660911932182 4.839747932361234 0.0
6.757415124099031 6.077939876843736 0.0
3.805578542126494 8.040840085419626 0.0
4.232580149691158 8.198659880701744 0.0
4.559765382564095 7.87091698350757 0.0
8.3829075948167 0.9495097054886067 0.0
9.8571301061408 1.456307792614791 0.0
2.005900212453279 4.535525273813588 0.0
1.85904408608185 3.956445706785572 0.0
1.979307922430775 5.474327285927505 0.0
4.387923194305381 4.427191306527721 0.0
9.429258370703248 8.873693567695483 0.0
8.99196583083892 4.664567567015693 0.0
3.050357122593155 5.368999067452741 0.0
2.861107385476722 5.785089447130829 0.0
5.005058958272409 3.711196438448062 0.0
9.8972295764837 2.755337284632969 0.0
9.581048890980513 8.853909321617065 0.0
9.668838904423916 1.762418716497425 0.0
9.716576458425756 1.852218615166234 0.0
9.799043132681442 1.780583141193779 0.0
7.661868217848455 2.880323287492419 0.0
6.780136552904057 5.443858690999834 0.0
6.489544866845868 5.913957888434588 0.0
6.880149522020364 4.134257616716107 0.0
6.970134365280068 4.264072319341612 0.0
2.225481516813409 9.348422240784 0.0
1.843418032490818 8.641605249943353 0.0
2.198000805242772 0.6459947140825729 0.0
8.740020306282506 0.1903932731609072 0.0
6.86957996016679 4.720776242956433 0.0
7.430920333506809 0.2702852342693345 0.0
7.302066064947383 0.6134316505458445 0.0
9.305398039877746 4.64854361125207 0.0
4.078151380865065 5.203425462519088 0.0
4.080704120371218 4.778853303303787 0.0
8.052525541571825 5.965483159581719 0.0
6.367194027835946 4.754896037842673 0.0
8.604191121620719 7.648182513679963 0.0
9.546446695207845 9.234701521982952 0.0
9.018652854946867 3.351011585453845 0.0
9.143853648154607 3.350173119015413 0.0
9.067079866763024 3.245174561579149 0.0
8.991492136849105 3.135578770028028 0.0
9.29603967712795 0.1426516429033488 0.0
9.392428271030795 0.2506306237151588 0.0
9.223973843394301 0.2912279164401488 0.0
8.39375191941536 3.018777714002827 0.0
8.4836475746111 2.88135207267795 0.0
8.741089053946197 9.821127577434911 0.0
9.803966507713174 5.448064463539533 0.0
9.748132240148552 5.359371181503531 0.0
9.850258990973547 5.355211921626304 0.0
9.7965346514158 5.266762244994661 0.0
9.84142096963129 5.171050273734619 0.0
9.738843612428232 5.167483913244169 0.0
9.64168976006725 5.359875132194057 0.0
3.335917453809221 5.671837672982919 0.0
6.962669142802881 1.683222554707996 0.0
7.365210844496719 1.887492842536114 0.0
7.517378971174123 1.677983072937792 0.0
8.00383870208024 6.089394601875145 0.0
1.725435941000569 2.759295503019395 0.0
7.907977929549089 5.102827208603365 0.0
8.052861051278896 0.2683271125209605 0.0
9.80169732768395 3.385443381464333 0.0
9.831597648680848 3.28491948963525 0.0
9.736335895866404 3.316207814499244 0.0
9.597256128490281 3.756160701977744 0.0
8.865819925321706 3.366235906378775 0.0
8.489614436807788 1.757152185195495 0.0
8.88089641144391 1.078983279100314 0.0
7.430923851187758 9.724389499796425 0.0
7.584252919312249 9.509430586267927 0.0
9.744026095940516 2.247117754488748 0.0
9.729961521243718 2.659836747108116 0.0
9.790866569780063 2.558993767350471 0.0
9.736606445116795 2.455104424879619 0.0
9.846806182714698 2.452157456754448 0.0
4.518102112052724 5.141350889745285 0.0
4.519880229178207 4.85678334497067 0.0
9.7302407894617 6.434012603549242 0.0
9.787537474544765 6.523591663056312 0.0
9.744262337067932 6.617499601377625 0.0
9.8406238811518 6.41591236129004 0.0
8.914967252734657 3.579360039684312 0.0
9.154797282599406 5.670753066089419 0.0
4.228839454580575 4.612979739018002 0.0
6.095037541675208 4.42126627187728 0.0
9.304166983880842 9.864854494751789 0.0
9.406445527105628 9.759007358529582 0.0
9.256225114941945 9.700832989525724 0.0
9.796206564635622 2.351215649506205 0.0
9.849373673349081 2.25090453834006 0.0
6.332048155295931 3.511675163099286 0.0
9.069679774213784 3.022879178706259 0.0
9.070599961450037 9.055284879641471 0.0
1.808685691036764 6.331557276533421 0.0
7.120156826652838 4.698481230214924 0.0
7.052894345811342 4.799848851879358 0.0
4.739957520484086 5.369107149361242 0.0
9.389197839958292 7.197139943834638 0.0
9.046688232613976 4.560364044038737 0.0
9.162685461967492 4.562194096410666 0.0
4.227377821420887 1.564128177298305 0.0
9.201090975245227 2.794301402811909 0.0
9.251941624303948 2.677556975242327 0.0
9.186758273070138 2.563916005021366 0.0
9.317609833868786 2.560335260954038 0.0
6.57599191748324 2.437689779955877 0.0
6.305556560534859 2.459112595979303 0.0
6.981058048792093 2.642476994448363 0.0
9.886113463139504 6.510498309609482 0.0
9.250462794607717 6.221362629571698 0.0
9.305373999084068 6.108271307139882 0.0
9.390477915810829 6.228015172491477 0.0
9.44452571968143 6.114582165110393 0.0
9.502105740270528 6.197677857389309 0.0
9.31559697209813 6.331647407124485 0.0
9.370938253597153 6.437386206819511 0.0
9.594764406124872 0.1099001288712305 0.0
9.602872681151728 9.894988341116305 0.0
9.622661196143387 8.076680696281343 0.0
9.769069277144705 5.9102532189237 0.0
2.615076109785583 8.807551523115547 0.0
9.658920005405456 5.730890135691177 0.0
9.76063135061807 5.720703211793342 0.0
8.63963723169499 7.177334225227945 0.0
7.841904391869763 6.41346852896409 0.0
7.764520718520185 6.297267738834625 0.0
9.546492996136271 3.465225175657335 0.0
9.25600964352143 2.219157062786616 0.0
7.625057159226293 7.012987957636062 0.0
9.529121062829038 7.730283486008674 0.0
8.329887090625894 3.845190321147069 0.0
8.265841850823831 3.95687001944245 0.0
8.402006523775544 3.947660780406651 0.0
8.128436391670505 3.968543393650448 0.0
8.46705122470662 3.835767362024195 0.0
8.218867047074696 4.063481375518748 0.0
8.089763413611255 4.08062363292928 0.0
7.939578083855268 4.111915744184436 0.0
3.74991304509639 6.615676756107112 0.0
2.627714335615619 1.170993030860914 0.0
7.046129971268607 6.759930788612616 0.0
8.534603732661887 7.486325780553722 0.0
1.569381386467569 2.042794535871475 0.0
6.228703743210918 1.986421863690014 0.0
6.467030855792859 2.67190498312861 0.0
9.272246093269825 1.975478263632296 0.0
8.05269609263041 3.854522845257449 0.0
8.008595521536957 3.177870309354594 0.0
7.929796740504207 3.350600835935766 0.0
8.048703574664067 3.449582532910417 0.0
9.72947480375618 4.973926800124758 0.0
9.784850360535604 5.072865219810449 0.0
9.896036387646596 5.069261557893528 0.0
9.633140953203334 5.168645132864771 0.0
9.558102991128836 7.602453108835212 0.0
7.278758746505716 3.994295887299482 0.0
8.306681733482405 6.936428510427854 0.0
9.487163072013963 3.757777670075558 0.0
9.532950522284125 5.359403698944497 0.0
9.816036650072329 3.927268437107025 0.0
6.173882586235392 8.734645960664665 0.0
7.972518459433741 5.003005338485466 0.0
8.398453459336153 1.601072016988848 0.0
8.97460527296194 4.040886705742754 0.0
9.037941657530773 4.143578781749325 0.0
8.849604200183613 3.828506169652706 0.0
9.545296177100065 4.042698359132156 0.0
8.595941796785514 5.806754902023664 0.0
8.65588412428292 5.694192853853139 0.0
8.723710665131787 5.801528918332044 0.0
6.861288985046249 6.673713222735126 0.0
8.87477249219366 4.664500928777609 0.0
8.72385765226959 3.608276264790996 0.0
7.145228858696953 5.573648565429618 0.0
7.282945121585866 5.558559688509987 0.0
9.224761401603633 1.602363370249125 0.0
9.609115686587552 2.986868833620756 0.0
9.633989947851914 6.628120633848649 0.0
6.046214325132457 5.45615093027661 0.0
9.017014346798927 5.271996636983457 0.0
9.070824864071271 5.168510834798647 0.0
9.189021391555556 5.166867900487267 0.0
9.123328759137758 5.064718588163964 0.0
9.240587446378079 5.06459430516883 0.0
9.250848280531756 5.267364371053135 0.0
5.773050603406019 5.7192906317521 0.0
8.576466432793914 4.3559007860436 0.0
8.634627802680399 4.253467736542067 0.0
8.461790117175607 5.591735227444779 0.0
8.907610717370224 3.713397213891439 0.0
9.80665594564509 5.628066492225966 0.0
8.985935132601089 4.455263493464225 0.0
9.00640209566022 5.067597672073404 0.0
9.833659276096986 6.976519563917422 0.0
8.0283368553477 4.687271895436317 0.0
8.326580191759327 9.127498457128247 0.0
8.650637373791266 5.07513089931925 0.0
8.701067313435203 2.700069743477523 0.0
4.825307249916392 4.884175191874744 0.0
9.418335984190309 6.858444798015129 0.0
3.91434687300816 8.542956908935874 0.0
5.569239724399552 2.064135034637056 0.0
5.234271567762738 2.128974435011933 0.0
5.757920427527626 2.312422707096966 0.0
5.43365689737979 2.427455772745759 0.0
5.673210219624612 2.602111218343444 0.0
7.214258468265766 6.652783071431555 0.0
9.823626269633962 4.30685540664529 0.0
7.96996639420014 4.794005510174826 0.0
7.616003332725032 0.502676560965646 0.0
3.050634530589821 4.659174799474146 0.0
2.870894249800723 4.246924313393336 0.0
5.285393339952368 6.079037173753393 0.0
9.439954241218905 4.23581687956071 0.0
9.67709722097145 4.710772408106511 0.0
7.40767785509217 4.259947873553335 0.0
8.396202587439676 5.486075637998701 0.0
8.323689688705493 5.372061002264632 0.0
8.191312386254125 5.384662546230823 0.0
5.304380054816289 5.369675374029755 0.0
9.093848379546637 4.047647920840374 0.0
7.916313220758624 3.045043876114836 0.0
8.435854831444637 4.144861908356168 0.0
9.060262453079693 0.7340576053322918 0.0
7.053195520344596 5.238809779682351 0.0
9.621762679347093 2.45205452967588 0.0
8.410730269104743 5.287995309529392 0.0
9.655094569234972 3.472720279371932 0.0
7.982140513923982 6.667914768024983 0.0
8.402690325256646 4.883576657130221 0.0
9.17488654147479 4.962006474835693 0.0
9.013188196102961 8.49700148123058 0.0
9.795977244531603 2.156818021002043 0.0
9.893813711206834 9.545820400859157 0.0
7.965349232662289 4.250048884270795 0.0
8.644264557989125 4.874751532150782 0.0
8.215430976121077 1.26077208565765 0.0
8.379717637669398 8.37324652769609 0.0
9.320026533461409 5.559861899725609 0.0
7.885778178744864 0.4977439426642278 0.0
7.547066983926719 5.125166613071239 0.0
7.657542898944819 5.122996245335209 0.0
7.423918840193691 9.000935553397358 0.0
9.854133000712425 5.541931969512857 0.0
9.328508174398952 2.101486405523264 0.0
9.300749600926641 9.530012105354274 0.0
8.130307182491519 5.277079344947874 0.0
8.346752967392757 4.987627363826086 0.0
9.118404185029991 6.007087846617186 0.0
9.048232213728614 5.89431792713258 0.0
9.088340967655858 5.576242562571367 0.0
8.094762487139027 4.789727191449318 0.0
9.915265904493378 5.749591413470928 0.0
9.92169805280126 6.154216704502091 0.0
9.918022441582268 4.549125436287157 0.0
9.919332362905616 4.849536560132457 0.0
9.914800786693318 6.750595509794719 0.0
9.811792900437824 6.703950687575952 0.0
9.900643083988882 3.749855087409844 0.0
9.912423171222734 3.043228996968949 0.0
9.91892875832665 5.949999999993851 0.0
9.913300070218703 3.960831593817277 0.0
7.709347001661226 4.444236534782706 0.0
7.479443107717332 8.071637285053104 0.0
8.839057072155848 6.807845119358974 0.0
8.972330068019902 6.78765448182788 0.0
8.542093772125282 3.941452413628317 0.0
8.279144752968262 5.930387616620717 0.0
9.393455876855919 4.973162505621418 0.0
9.507123333872533 2.855087674515822 0.0
8.77504684283825 2.317347145885344 0.0
8.394133129040345 4.464046960801843 0.0
5.725509852450801 8.210843960481027 0.0
5.62632390239664 3.967637659758752 0.0
7.910815814627989 4.900765971697654 0.0
8.595808444085467 5.590040244353608 0.0
9.705160502006024 0.8106158419444889 0.0
9.82021247904746 0.808810893177099 0.0
9.218352146075844 4.447736986422823 0.0
9.20781892622228 3.858281726888132 0.0
8.713609974387523 5.178241668554946 0.0
3.55755059259364 8.921522400238844 0.0
9.59122926011489 5.452844834281716 0.0
9.70565100407009 9.77887811062354 0.0
9.826938454219809 9.74303055702321 0.0
7.238962096855633 3.278078153406256 0.0
8.575609105166194 4.567807831727537 0.0
8.936449841121737 4.765835458965493 0.0
5.59323463391086 9.248527978398117 0.0
5.280809113285124 4.886132326418428 0.0
9.328132730893216 6.544753806716806 0.0
9.026944889277736 6.67247283515637 0.0
9.81946239021469 3.007926663525007 0.0
8.677633568960493 6.144049349297466 0.0
8.33427489656924 4.571212803519522 0.0
8.55734024448315 6.382535186588269 0.0
8.692399379422756 6.372347713955898 0.0
8.495817478252626 6.503308565233578 0.0
9.905494734661673 2.544078755559835 0.0
6.177101405266569 7.228490244483556 0.0
9.825373011845263 5.807482724503027 0.0
9.808678508609606 8.118683092442964 0.0
8.397717712407108 7.08010313863416 0.0
7.428555529689225 4.935946611338556 0.0
9.575504958128711 6.125633853639113 0.0
9.154066996197898 4.146562596982661 0.0
8.074381802159323 4.337569667261167 0.0
7.018337246891919 8.843475095716133 0.0
7.970627172560641 2.658650028065857 0.0
7.382546388883145 6.723381543491632 0.0
6.822972334933889 4.884555620881615 0.0
8.343732976791593 6.041576709398377 0.0
7.743680217306919 8.423336160305476 0.0
8.505717922983454 1.115022897794028 0.0
9.113973198216474 6.992972408167606 0.0
5.818882632841168 5.300437503812764 0.0
5.951991891717714 5.279516346785062 0.0
9.450183479138845 5.92934813870612 0.0
8.783346541536119 5.48419035750989 0.0
9.38074895894124 5.65076274999803 0.0
9.513658728876734 7.193620441323493 0.0
6.396040948797887 6.776064256962667 0.0
5.389661780244388 4.89715084345563 0.0
4.473247649068957 5.85935163892416 0.0
9.249586607512612 8.37680799459232 0.0
9.103796366487646 8.379197231055114 0.0
6.274057301184156 4.87985402946409 0.0
9.259628836118232 3.561431822636308 0.0
4.037922477011971 5.489409780163391 0.0
5.62712958624254 4.893925433488392 0.0
8.806426003347967 6.133410188141932 0.0
9.53304466499349 9.59279975429444 0.0
9.542890959420024 1.966631379116419 0.0
7.459736176874619 5.863847835420528 0.0
5.937613117200432 4.89232797168023 0.0
6.171611131472617 4.879541833448487 0.0
6.100695199816815 2.291172318314745 0.0
2.315194906726768 8.081958163666464 0.0
6.878489987598286 5.148099521847569 0.0
9.105264414399338 8.639184652727645 0.0
9.20047261316883 3.457820810661327 0.0
9.895329010385955 7.55944047105717 0.0
9.912742873006831 7.76210330502246 0.0
9.37761459375249 3.168397068877758 0.0
8.946121261512507 6.345629828835438 0.0
9.918632496443566 4.449809517365367 0.0
6.848211525651934 5.945010613369067 0.0
9.915721525903255 2.047407395915179 0.0
6.117255841708726 5.163321965161054 0.0
7.276595248786602 5.347247322210079 0.0
6.32682869954104 5.23674259421017 0.0
8.785886448438022 5.692775375342819 0.0
9.099994401883361 6.776698531382792 0.0
9.913397459621638 0.2499999999998165 0.0
9.910352525643928 0.4481571029410266 0.0
9.907850422008579 0.5479735220323012 0.0
9.911983631350465 9.24778487019403 0.0
9.917634740384067 0.7514684821956668 0.0
9.195214232985496 3.254172408378337 0.0
5.000896927376288 1.846006038077654 0.0
9.917172478547403 8.250155740683276 0.0
9.908120476950126 1.742986232208194 0.0
9.914524635720774 1.949567899316728 0.0
9.907358878377153 9.145625165175748 0.0
9.917695944922635 8.949999999998397 0.0
7.648387553139914 5.325741673607362 0.0
9.605343588986079 4.130627398479715 0.0
6.648113233057817 6.774798386229164 0.0
9.910347203087213 8.446729917003672 0.0
9.913623694530468 8.548470085896316 0.0
9.9201245863254 1.536225488581779 0.0
9.906538426683255 1.059019360781604 0.0
9.912867352010919 8.74999999999809 0.0
9.799662981388353 8.79550485462418 0.0
9.831828680383174 5.99966894118311 0.0
9.91414179906643 1.263025320602998 0.0
9.920690092699912 7.240982963665807 0.0
9.385889285950551 2.235126904097426 0.0
9.28133998925606 8.00415195851526 0.0
9.817074723108401 3.172398890123306 0.0
9.482030285089927 7.512954023388035 0.0
6.682432918504054 7.233889573028878 0.0
8.528699633246763 3.260502457553277 0.0
8.91699963742029 2.327016692708648 0.0
9.267676068834481 3.954520684561369 0.0
8.70811637467455 4.974101624783084 0.0
8.18184214270768 7.816666208279135 0.0
9.690393137288163 5.264344933127836 0.0
6.937111790104696 5.245184991960528 0.0
5.895846026722989 5.174232967273284 0.0
8.281683356622615 6.400073017261236 0.0
9.150883172924027 7.444273543454419 0.0
5.430406600793122 3.390815886517273 0.0
5.049583827974758 5.697634876048387 0.0
8.3966710383105 3.495813899905868 0.0
9.007538428392454 8.046563579784266 0.0
4.645155158868719 2.637132843684674 0.0
4.887444326771336 2.30020425915506 0.0
6.483736782775559 4.522536327482678 0.0
7.843169154548308 8.2116075844056 0.0
5.06295551628385 4.901632590583318 0.0
7.201400991012747 5.138239336380897 0.0
8.519791031104612 8.848807089071627 0.0
8.658623737989732 3.031313729049854 0.0
7.585566208322493 3.629882964874684 0.0
8.411818469596405 6.834326722716643 0.0
9.172363528634236 7.669230647622864 0.0
8.85455683341768 2.682483055215344 0.0
9.359398739738925 1.631421337140716 0.0
9.071793864444992 7.337030604117359 0.0
6.968394563521436 3.712808894519514 0.0
7.899236117684646 7.094583340182754 0.0
9.54362864504834 9.781852543872333 0.0
7.151298729743687 7.644795130415299 0.0
5.452218361466201 5.186873761308322 0.0
5.517642289161902 5.293540933999446 0.0
7.802500357665464 5.978295671754199 0.0
6.594850839687122 8.491429270558893 0.0
6.029132431949566 8.294997405201931 0.0
9.31286590869111 0.5672913838331921 0.0
9.25238720319541 0.4415953739444106 0.0
9.550589523211062 4.228044955453704 0.0
8.748611832783206 6.250900951984038 0.0
7.566980108995873 3.995148257893202 0.0
7.426142759241261 3.996743578498081 0.0
6.478912513785404 4.000296412419969 0.0
9.30435638148753 5.168210982711592 0.0
7.542154188520517 5.752525075248498 0.0
7.219033852073297 2.139582470800704 0.0
7.370913620388047 6.545121498197235 0.0
5.226731036024996 5.187572666585561 0.0
8.515591031124366 4.462223215179979 0.0
6.762864307079274 0.3078036604979366 0.0
8.587432696997471 4.977010533175154 0.0
8.703948448756302 8.815629076400704 0.0
8.081003990931544 7.370949680119862 0.0
7.424404567669909 6.949730915714445 0.0
8.578903262311433 8.377992954045473 0.0
7.301258690263783 6.106184350645308 0.0
5.991600556904204 3.99820087171043 0.0
8.203048538477193 1.601044215405025 0.0
7.289972483120081 4.572350254111052 0.0
7.714697186439165 5.420586967696794 0.0
8.918853780709807 1.841796898567452 0.0
9.919941345877513 4.749808449067644 0.0
7.245589454939737 5.94251251443003 0.0
9.258480524497795 3.358952871140391 0.0
3.705877615124628 5.574038727593425 0.0
8.287096858129765 7.962370605242409 0.0
6.799629860952143 3.705385600481528 0.0
4.146753450763018 6.544154457143895 0.0
7.413973555029582 5.545687501585183 0.0
8.466524978378082 4.980481756569235 0.0
7.336312153537934 2.337983522449311 0.0
7.695505222753409 3.747498713679684 0.0
4.898236813123799 4.795853653580084 0.0
4.59779105899602 1.896916774247134 0.0
8.560170375862322 7.072369101894893 0.0
8.386150468360862 2.449771437140704 0.0
8.41200018115259 5.084601315536367 0.0
5.102189912301071 7.621598618277815 0.0
8.336320418935243 6.71651223072348 0.0
5.081745734883095 3.977838926197614 0.0
7.63590698378166 0.9500570055008507 0.0
7.743369677149255 3.051233984704873 0.0
5.357527459690566 0.3809996753407537 0.0
5.967373112873382 0.7731113464301924 0.0
8.169449265206127 6.666271947462212 0.0
5.95122726745053 5.55758205410881 0.0
9.922289489207834 3.53923011719877 0.0
9.39154684476555 2.659037023454942 0.0
7.701415639167884 7.690060291860976 0.0
9.819179654793023 1.329863870021845 0.0
8.358229579054417 6.506108206863729 0.0
9.269720555169467 5.657096143475924 0.0
4.473187658045934 7.435037860084884 0.0
9.65807158077373 3.255496360750368 0.0
9.605155446454205 8.713645566904637 0.0
7.097383547728313 5.141197376985936 0.0
9.812212483832656 1.89920712759492 0.0
9.83875570675407 6.81603549325055 0.0
8.926246869879279 2.079976511571457 0.0
9.166785856141402 9.169070814302419 0.0
8.763479010228052 1.587152667342957 0.0
5.957377924852992 6.404530806530254 0.0
7.14506854375872 6.10342416684208 0.0
5.672595070581394 5.164323323112049 0.0
4.899782787268781 0.3801727265981219 0.0
4.447133848117348 4.673614099606824 0.0
7.044865074789195 3.253639989243549 0.0
9.818461337102992 7.819456450952447 0.0
9.925334577033155 7.954012377173311 0.0
6.352907898232792 1.173665225954276 0.0
7.351721385581032 5.660361289755705 0.0
9.337367583861807 2.76534436379692 0.0
8.693118347802024 4.360254099729149 0.0
9.476812970101324 0.3524826622168163 0.0
7.109868985890334 0.9024224571333925 0.0
7.899106846231403 5.511805431542581 0.0
8.352799544476607 5.187887629361129 0.0
6.957483547582747 0.6176251309213842 0.0
8.099559500483094 1.412323841044818 0.0
9.913030944540278 0.8542404645334569 0.0
9.143075088381442 8.022165366829135 0.0
8.819861450593166 6.356592599428041 0.0
9.319444417409162 1.49938505915629 0.0
6.490262520326714 7.118204362551877 0.0
6.490874470087819 6.582907761235813 0.0
9.82506653058937 0.6146757679104559 0.0
6.803129818897624 4.419048038171804 0.0
9.840901379354312 0.08198751964190581 0.0
9.839740374244226 9.918356239418472 0.0
8.551927134544655 9.449788917425456 0.0
9.92097857388158 3.249999999993177 0.0
5.797087413057367 7.077351493358238 0.0
9.255412859987286 6.433984412022419 0.0
8.668174522249984 1.740767926084485 0.0
9.920991430240607 6.25262219124529 0.0
7.57275248448898 1.94367954756322 0.0
8.052865444445507 8.19900054463639 0.0
8.748697149245206 4.25201068974208 0.0
9.158270227735827 0.5542256343091421 0.0
5.997487767477439 4.787924707603557 0.0
6.119759900601896 4.78043793682227 0.0
4.353034750397793 8.619182743639561 0.0
8.721093521611476 5.588932824583312 0.0
5.717101151444983 1.123034066822819 0.0
9.825602081347064 8.68753399402474 0.0
8.005502510832988 8.7824052910506 0.0
5.548184234622668 6.408009287230429 0.0
5.77830300433981 6.598697187164234 0.0
9.613093825495433 4.50282172481406 0.0
9.928981132641653 9.74928475696928 0.0
6.613628176297015 4.515513362596662 0.0
1.822126723816303 1.297795131355289 0.0
9.514164594137375 1.43081427463862 0.0
4.735494753432723 3.698541604583975 0.0
9.52844959749262 8.615213629960298 0.0
4.660704511759056 0.7947595073298008 0.0
6.82340845160293 5.239926830264399 0.0
7.885938077030673 7.380147032865134 0.0
7.884599891021201 6.09005968568029 0.0
8.846834820720167 9.653276456345532 0.0
8.457777199486827 0.3851010632068662 0.0
6.66485224572131 8.771510767670392 0.0
9.091499342133352 9.708315832477556 0.0
9.824286725109655 4.976315293637262 0.0
7.848197684391786 5.632217046637356 0.0
3.88430598115417 4.225391362015386 0.0
8.776890759183289 2.809688928468134 0.0
7.393884285023409 3.59397875231041 0.0
6.927568893329758 4.396788356869783 0.0
4.96854327720728 2.662368428358774 0.0
9.1480130720193 3.951479613991279 0.0
7.071049729490975 2.38092990636632 0.0
3.40193058782919 1.686321186206593 0.0
7.612042194200681 4.815904436723407 0.0
9.043395868401339 6.888481825015849 0.0
9.098933057562759 8.152197681006806 0.0
6.058682303253315 3.857501492181965 0.0
3.707092669281355 2.986685502034343 0.0
5.113272509841263 5.189455016444592 0.0
6.960565857079232 3.416349532571279 0.0
8.755151527375476 7.649255597361291 0.0
3.393680865444538 3.679982303262531 0.0
3.117424600120088 3.35605258976247 0.0
8.530814041264104 5.488376426140491 0.0
4.820719767306654 5.106646490188182 0.0
9.918899263509473 4.144927088739744 0.0
9.918194630017027 7.447268230913605 0.0
8.461970084137805 3.144844565847669 0.0
9.924415919486059 6.949999999995354 0.0
7.184050152099684 2.72771667662237 0.0
8.834356715215904 7.801565642745232 0.0
8.689015446783005 4.145232831954543 0.0
8.490778532265319 8.234414357968106 0.0
8.63666290918932 2.83060276219705 0.0
4.61028976098935 4.741894230894578 0.0
6.314735925012879 4.003132559161639 0.0
9.20786580425652 4.67001723737971 0.0
7.141401229301469 4.873205425098625 0.0
6.235177809922153 4.774126344778935 0.0
9.12491895896937 3.145675090615719 0.0
9.255747684068178 3.162525801823036 0.0
8.312852272796098 2.290855459722148 0.0
1.449266720542303 3.363629101350872 0.0
9.525687840398492 4.800807314407045 0.0
4.829905263804087 8.14474456977717 0.0
9.09338914689732 7.563794106183232 0.0
5.389401689694107 5.283808684471545 0.0
8.530979415204587 3.029374286908943 0.0
7.901489077080633 6.535344047486632 0.0
9.218572924671975 5.760893551533255 0.0
8.562382833959296 4.143913974026883 0.0
8.62959127904665 8.974877485888243 0.0
9.408442441596518 9.62276529745719 0.0
7.5034765601713 3.869833107932387 0.0
9.842813436634783 6.600620949014236 0.0
9.826116984327193 8.911617279149695 0.0
7.529907780698261 0.7369111006685982 0.0
7.832164962480427 2.905293639437395 0.0
8.39517908433056 3.267417602291069 0.0
9.823014010107707 9.085319632577246 0.0
9.022314123618541 3.944559746338292 0.0
4.243701230676532 5.332574856090426 0.0
9.816740542566388 1.127839952679595 0.0
8.166775715766304 5.693916696568397 0.0
8.865374421689054 8.068986769641638 0.0
8.761145809863661 6.470583506581853 0.0
8.998345275919851 9.209303502026401 0.0
9.698477487436316 6.706902829754045 0.0
6.439032098063426 0.3109134377713525 0.0
7.562681994382136 4.643158005207056 0.0
9.03999088074715 0.2799354672273258 0.0
5.180741540467516 3.805018725608906 0.0
6.243990330956698 2.718077286244967 0.0
9.79416634023361 0.1815240178579244 0.0
9.926540005061975 2.847049370876555 0.0
9.826476210374608 2.670192168078066 0.0
6.365816673179121 4.536333049275508 0.0
5.546353765219417 4.618331215552614 0.0
9.820703096450293 2.000649418331399 0.0
6.884388790679166 3.561583980715254 0.0
7.431303395649604 5.747824222777201 0.0
8.849816832721245 2.19318290395604 0.0
4.185147517585975 5.697469360586313 0.0
9.165905238119013 5.873664931582344 0.0
7.70479478158537 1.788324620089049 0.0
9.627376046933474 0.9196091445437269 0.0
6.657687963328663 5.144792385996769 0.0
9.83245016645186 0.3925568446109945 0.0
7.483092985762584 9.253837199159435 0.0
5.445348362202234 3.977855663863651 0.0
7.476680532833337 4.837183287808616 0.0
9.572749890969304 8.505160319814301 0.0
9.915853314998252 9.437014513917465 0.0
7.679469018350979 7.390484878021194 0.0
9.418139053434402 4.790576000488359 0.0
8.096967733471567 5.865447162201908 0.0
9.829153508938724 8.378494945652118 0.0
9.926595955569645 5.157718300415699 0.0
8.774484245600224 7.939747459426853 0.0
8.629764448155779 6.481031318922794 0.0
8.961169458302376 3.839036702328818 0.0
4.617199205561317 5.256318959792646 0.0
8.480815774219478 4.031210317621497 0.0
9.708341592512763 3.401018043990571 0.0
7.183974816647467 4.77882314543966 0.0
9.821437962294304 7.659391965474772 0.0
8.150320284869602 2.286501016204562 0.0
9.828114434347311 1.684891358832554 0.0
5.349187766238684 6.538177907133678 0.0
8.076053471314525 2.76180604769483 0.0
4.907713691134565 5.29818629967416 0.0
0.6874399366049438 4.328593906714074 0.0
0.6980011780697519 5.702671170050627 0.0
8.263861466707834 8.182284285231713 0.0
5.838783785156478 4.913981390426639 0.0
7.807619472656604 7.235706382002089 0.0
9.388504256318683 6.022122644748753 0.0
9.929839894767033 6.436189192303577 0.0
8.3205848711706 3.39107920408397 0.0
3.240770542267401 4.019899919523968 0.0
8.059047070496568 2.468855909103855 0.0
9.932479519490421 2.449625056415224 0.0
7.737639000139152 4.580708137963557 0.0
8.26141077223695 0.3940397126348397 0.0
9.69568953371801 1.959951226402445 0.0
6.469120930453264 4.892267070266994 0.0
9.167223997255698 0.8102256463122337 0.0
6.236889648241256 0.9291076084031108 0.0
8.306379082772498 5.268830342852036 0.0
6.716089118890225 5.239344620507032 0.0
9.82511981852641 9.282822358664017 0.0
6.68375719572285 4.404998642130821 0.0
8.913754712375674 6.908138360584365 0.0
6.173250048857013 5.251634416326969 0.0
4.235907497612446 1.924052997345291 0.0
5.151007663981651 2.438629730660893 0.0
8.924254300637541 9.3764975797567 0.0
4.438612423541503 5.287968640901957 0.0
8.571203234299599 1.897009944569934 0.0
6.878800676380218 5.821332862798138 0.0
5.710626178601224 4.792560699857408 0.0
7.149510071621283 5.216310009157644 0.0
2.099966541549645 2.334742113488256 0.0
9.93396330620579 5.350566393301629 0.0
7.143046479323961 8.646955109387985 0.0
7.965747313080266 5.193641450105844 0.0
6.3314394693073 5.135050228240639 0.0
7.665821333021348 6.222698255001823 0.0
6.305321657053551 4.659816230868476 0.0
7.833020917089713 5.208837056143474 0.0
9.41455902676429 2.869725681199307 0.0
8.567151507735133 6.598605357295113 0.0
7.405527786978573 4.377085529441429 0.0
6.552969697053132 5.137148974085434 0.0
9.93630620742063 8.042778076596578 0.0
7.166743296019233 4.593171678848165 0.0
6.595561806063966 5.839366735225723 0.0
6.066152182102007 5.262519562574559 0.0
9.834694151277489 0.9093455747994099 0.0
8.98259191950674 7.579732466796592 0.0
6.465071238839505 5.25485771955322 0.0
9.759759896588413 3.236659507608532 0.0
4.775529448101694 5.224235675150505 0.0
9.935991245222917 7.153416415978829 0.0
0.6530736820718381 9.352299998916202 0.0
0.6449439415299687 0.6468300344151556 0.0
7.804690364869245 4.495816547678174 0.0
9.84503784553893 5.70620404704573 0.0
9.83525329400959 3.826992990746767 0.0
9.922964894244684 4.265000406933376 0.0
8.333767638401964 1.121219971446645 0.0
8.876012546033895 7.019147158538482 0.0
8.172413577824324 3.413096916572049 0.0
7.232233017296214 4.478957103028363 0.0
6.214597295185415 3.852860083673202 0.0
9.85013791746415 4.400709747289421 0.0
3.941627380932058 6.342995010255737 0.0
3.097271569675528 8.77391871286929 0.0
9.292917152323044 6.010976049411984 0.0
8.104342196673183 5.184165973282902 0.0
8.994300084006271 3.652611812846807 0.0
9.937157897030163 5.549999999993244 0.0
8.721368888525245 7.274540720770752 0.0
8.920003648712827 0.9516585309368178 0.0
7.910527456030004 8.536826514867816 0.0
9.846441288756814 4.60515911863952 0.0
9.584942233925151 4.712073182517884 0.0
9.642357858573972 6.805672051759494 0.0
9.797024725252207 9.838837222258014 0.0
9.842451438022124 4.018973836958878 0.0
6.112723137676118 3.704473949316424 0.0
7.574641969193845 3.765362276156904 0.0
7.826594968121701 6.200366572362263 0.0
7.762805366733504 9.34009502796868 0.0
9.56854033867856 1.012566255816665 0.0
7.71256563655353 5.219373702836014 0.0
9.68039392238282 8.786964504862018 0.0
5.910362452777086 9.277662068919813 0.0
7.418090653922814 3.326443419100716 0.0
9.857704179097952 4.697553149694669 0.0
8.452469674653342 8.996585816905599 0.0
9.522351366699843 2.057525484575908 0.0
7.802315574700843 9.548878971475935 0.0
9.938875656926385 3.449999999992592 0.0
8.425189037911712 6.608575180629274 0.0
5.925965231566842 2.523669697740033 0.0
6.654918072256329 5.95749128982984 0.0
9.826748589235729 9.631118448471485 0.0
8.6684585637523 7.39633999085442 0.0
9.844673843931567 3.090088625379724 0.0
9.93613850661301 2.250382721159617 0.0
9.218291993658738 2.892108990205171 0.0
9.83502846611296 8.212781989607324 0.0
7.754136409732265 7.104288507262783 0.0
8.510570542791681 2.036933285735889 0.0
7.757745059307245 4.315798612475442 0.0
7.989231770559189 6.201656630465583 0.0
8.068934521422738 4.198631572122605 0.0
4.957478134450373 9.038766150325067 0.0
7.208661142641733 6.501402463831379 0.0
7.299506095906239 4.363561999234681 0.0
8.250303873550486 2.105322217421675 0.0
8.678637541413377 7.053471135702286 0.0
9.761528395137384 6.163503990672834 0.0
9.84494857233395 8.59999999999775 0.0
9.83825138794677 3.672838954969637 0.0
5.121008544047756 5.808127183024784 0.0
8.343911550360986 4.043535893276861 0.0
9.85324441775315 5.899999999993774 0.0
9.51114465213134 8.41035540646284 0.0
6.505812179224195 6.93390566262983 0.0
6.15572847138365 9.023097246950844 0.0
3.352081892333425 3.024853379890529 0.0
6.433163283162099 8.675072413910678 0.0
8.825744236698243 3.624446391299867 0.0
4.883007294861279 7.819620905924936 0.0
5.876659170760434 5.638247433601083 0.0
6.859400040348503 6.510797998354633 0.0
7.946400945409184 3.500317276373196 0.0
7.496830255505493 6.653194511698024 0.0
9.852183479755313 4.891525833556942 0.0
9.77998778436291 2.922486526124376 0.0
6.774672660492365 5.324728659740495 0.0
5.717254072187427 6.824125962512845 0.0
9.713440940838062 4.63793103997539 0.0
8.859858662536796 0.2721395536350836 0.0
8.37556017530946 9.436653414116012 0.0
7.395237381047616 7.885576562773319 0.0
5.4709157802033 4.511152089197594 0.0
9.489749416979361 9.691840729914848 0.0
4.599216022837964 3.46438688931078 0.0
5.572287492757569 4.807021644849729 0.0
9.926499336309957 9.92730688390086 0.0
9.926499336310107 0.07269311609890093 0.0
9.338127766332573 0.3585313952168247 0.0
6.810761948165162 3.414693294319008 0.0
8.166274345037138 5.943611545564389 0.0
5.2892644736731 6.301081312912763 0.0
9.731911074791544 7.649313380659622 0.0
8.90251102352767 9.50983415326544 0.0
8.997881406541017 1.033666784655452 0.0
5.835124768755703 2.738139962594905 0.0
9.665357480775825 6.185331297099201 0.0
7.656532192558493 8.217157287499347 0.0
9.170463887605525 2.975444721032631 0.0
4.208158615905443 0.8648302238584886 0.0
6.97015686031129 5.933674629077266 0.0
6.181941366523793 3.565885175921835 0.0
3.30313590337911 6.393402837735046 0.0
6.447482061767014 4.816169316820496 0.0
8.185341428749446 4.169172087371246 0.0
4.552595724340015 8.298301336212145 0.0
9.84850676569699 8.999999999998423 0.0
9.846941514449377 7.393642828194986 0.0
7.924592433490734 2.788309934035703 0.0
8.154308714226714 8.853640122009672 0.0
8.876629743004642 1.96110242719995 0.0
7.228849192966834 8.90811350348676 0.0
9.852301635085423 8.296637825215246 0.0
5.219795195341889 5.547413133147649 0.0
9.861497117995457 6.901363010201344 0.0
2.953911258021604 6.136007283255669 0.0
6.93158841067062 4.77708273647784 0.0
9.67540418457871 2.912802891506324 0.0
4.194055958522277 4.437353127730132 0.0
6.133959559341536 0.406856611599261 0.0
8.29952795189331 9.309744645643846 0.0
9.843692337952948 1.209647690818311 0.0
5.164986286280336 6.671544079402435 0.0
9.838533350075606 2.081705440779448 0.0
8.301244777513975 6.604088853319459 0.0
5.471494771710784 2.714598185146428 0.0
8.86534684892311 1.208599471795828 0.0
9.940610684232212 1.451558535868664 0.0
9.40896208432968 1.428353940655538 0.0
2.329177605337097 4.238803555614174 0.0
5.980761651517799 7.182207186682233 0.0
9.66541573964336 0.1719254072074424 0.0
7.220979380229172 7.806128737674462 0.0
1.251721227904697 6.151932667911503 0.0
8.104967286191181 6.057912607875576 0.0
6.650768762224724 4.817922869198292 0.0
6.634976350437587 3.213339182992986 0.0
7.034320437500567 4.898219100342838 0.0
9.502772020064167 6.283064492634301 0.0
8.13187938667684 3.518506862055515 0.0
9.855471943454193 2.599999999994991 0.0
9.056747742708522 8.263936599935574 0.0
4.352645795441222 5.724453640019 0.0
3.744263984699181 1.488951698361357 0.0
5.175860134287045 3.6375726667098 0.0
7.736434712114619 6.400417475661193 0.0
9.857658576695343 6.316607183405179 0.0
7.876525261950537 4.304285002335559 0.0
9.856114384785611 7.914602773442983 0.0
9.848334119947063 0.7059644476295188 0.0
9.59694321995579 6.895814046141667 0.0
5.906465212962551 3.869023950643881 0.0
9.840676994268005 9.364956386459765 0.0
5.355015287544095 3.83518170601625 0.0
6.374090407153147 5.855743754257685 0.0
8.227401290513832 5.297819733684674 0.0
5.451235131977493 4.825706629991923 0.0
6.022070213762754 5.355923882747634 0.0
9.845674433677614 6.108401449483281 0.0
9.835067400944396 7.739582406783081 0.0
8.602026805792988 2.941372356914139 0.0
5.059869081004962 5.269480960018243 0.0
5.284714507903736 5.26496663762182 0.0
9.627110479149561 7.660076105040499 0.0
6.820001127809743 4.792514421153957 0.0
5.120512795059439 4.806607659110254 0.0
9.56933817216883 2.911464407429096 0.0
9.74091654291531 9.267545397628387 0.0
9.93006767325302 6.576784040838644 0.0
9.642486276936268 4.650227701598451 0.0
5.185183328569137 9.410919109238325 0.0
9.37052946854105 4.605636695802024 0.0
1.677077220416309 5.871167715901136 0.0
7.345783833404538 3.184020711886284 0.0
5.419239942654976 5.982692039856376 0.0
6.133318300188262 2.551919945731369 0.0
6.187291396343277 4.499077117404439 0.0
1.231465237822878 3.921479198315213 0.0
8.969849937139944 9.699215363213542 0.0
9.218303154263054 6.037447959776716 0.0
CELLS 4886 19544
3 1113 1356 1450
3 1402 231 1659
3 272 269 1414
3 396 394 1777
3 1451 945 1452
3 194 81 1801
3 1847 1501 2104
3 2024 2121 2479
3 1115 1113 1450
3 1124 1413 1844
3 1061 1955 2409
3 307 305 1645
3 1592 1369 1593
3 238 1501 1847
3 1955 1883 2409
3 1808 243 1910
3 1885 978 2362
3 1440 793 2092
3 189 1488 1608
3 353 350 1864
3 2007 2231 2232
3 307 1645 2493
3 1096 1760 2496
3 2178 874 2179
3 621 625 1595
3 1493 1480 1938
3 1655 1268 2137
3 1341 1410 2212
3 243 1808 2360
3 1902 1446 2516
3 1760 1096 1763
3 856 790 2180
3 2008 2046 2105
3 789 1809 2067
3 694 1543 1575
3 1127 1762 1953
3 1748 807 2228
3 1543 1308 1575
3 820 1872 2170
3 1417 954 1998
3 1369 1592 2386
3 272 1414 1787
3 329 333 1998
3 1544 1095 1545
3 2231 1490 2232
3 1342 1683 1790
3 374 377 1797
3 807 1678 2228
3 1665 198 2128
3 141 142 1620
3 325 322 1952
3 231 1402 1654
3 198 1665 2010
3 1890 1307 2387
3 208 1438 1619
3 2016 1970 2156
3 1436 212 2020
3 954 1417 2333
3 1736 1894 2244
3 1491 1750 2143
3 1677 1064 2146
3 1474 1258 1475
3 1500 233 1930
3 1446 2415 2516
3 1700 973 1800
3 2128 2270 2316
3 1316 1315 1593
3 1307 2341 2387
3 2258 1324 2328
3 1083 1507 1508
3 693 1095 1544
3 621 1595 1596
3 667 1571 1872
3 1932 1766 2061
3 393 391 2240
3 1342 1790 2400
3 252 1707 2234
3 931 978 1885
3 1430 1116 1704
3 1411 1109 1714
3 1478 1227 2440
3 1990 195 2297
3 1792 1167 1985
3 1682 444 1975
3 394 397 1777
3 1711 2028 2162
3 1574 856 2180
3 2008 1851 2046
3 736 1493 1938
3 1069 1060 1662
3 1458 455 1754
3 862 691 1705
3 1161 1642 2286
3 1699 1700 1800
3 447 516 1637
3 955 1482 1483
3 2024 206 2121
3 391 1773 2240
3 1072 1412 1893
3 212 1436 2350
3 1566 1365 1568
3 259 1441 1672
3 872 870 1764
3 330 328 1889
3 1539 1161 2286
3 1897 1898 2275
3 1434 1990 2297
3 1109 1411 1730
3 319 307 2493
3 1762 1761 1953
3 1369 1316 1593
3 1540 834 1832
3 1505 652 2442
3 1732 1655 2137
3 921 1712 2295
3 1872 1388 2170
3 1712 921 2125
3 2028 244 2162
3 1506 1570 1680
3 1569 368 1964
3 1571 667 2375
3 1587 2178 2179
3 196 1723 1737
3 524 2016 2156
3 1528 1250 1733
3 1115 1450 1973
3 1938 1480 1971
3 1809 1396 2067
3 1641 249 2299
3 1223 1258 1474
3 1365 1566 2120
3 1981 962 2316
3 1538 353 1864
3 455 1458 1756
3 152 233 1500
3 1116 1430 1703
3 817 652 1505
3 1347 2003 2004
3 1607 1958 2085
3 194 1801 2195
3 1410 1341 2351
3 223 1415 1710
3 197 1511 2346
3 2198 787 2225
3 81 82 1801
3 1438 208 1620
3 1444 522 1823
3 1511 197 1950
3 726 718 1567
3 1637 516 1739
3 1708 2337 2341
3 1280 1649 2124
3 2337 1395 2341
3 1327 1709 2315
3 1225 1227 1478
3 691 624 1705
3 476 2224 2305
3 830 832 2204
3 1750 1491 2403
3 1366 1897 2275
3 2345 1583 2352
3 2054 405 2110
3 1984 2172 2230
3 1846 2198 2225
3 1177 2042 2418
3 2121 1367 2479
3 1527 1531 1541
3 916 1039 1834
3 1413 1124 2467
3 1622 1503 1868
3 249 1641 2019
3 1805 405 2054
3 1761 1007 1953
3 1415 223 2395
3 960 1756 2203
3 368 1569 2135
3 1402 1659 2473
3 941 1433 2471
3 1267 1477 1501
3 260 2002 2265
3 1704 558 2077
3 2224 1886 2305
3 2053 1386 2199
3 1452 945 1952
3 1717 1611 1718
3 1682 1975 2230
3 1760 1762 2496
3 1481 203 2104
3 1264 1266 1670
3 142 236 1620
3 2133 1182 2179
3 1791 1602 2183
3 350 346 1864
3 1412 1072 2393
3 1281 1575 2255
3 1565 1948 2155
3 849 1449 1513
3 1958 396 2085
3 1339 1069 1662
3 834 1540 1917
3 269 267 1414
3 1268 1267 1501
3 1440 2092 2468
3 1399 1981 2316
3 1635 1636 2041
3 1454 252 2234
3 1451 1305 1890
3 1375 1883 1955
3 362 366 1786
3 1484 2410 2528
3 1449 849 1640
3 1267 1474 1477
3 200 1611 1717
3 1054 1581 1582
3 1350 1977 2253
3 190 1390 2118
3 788 1956 2193
3 1709 1327 1888
3 2233 2298 2413
3 1488 189 2355
3 478 1685 1714
3 230 1525 1690
3 1687 478 1688
3 427 429 1756
3 1570 1065 2476
3 1880 1133 1988
3 1649 656 2124
3 1537 209 1614
3 1134 1769 1986
3 1220 1268 1655
3 396 1777 2085
3 1167 1755 1985
3 2229 1744 2296
3 1575 1281 2287
3 127 240 1882
3 377 647 1797
3 954 329 1998
3 220 1697 1698
3 1342 1341 2212
3 1441 264 1672
3 1512 188 2433
3 763 2345 2352
3 1685 1411 1714
3 1805 1188 1951
3 1347 2004 2157
3 1054 1582 1667
3 1333 1617 1674
3 2217 73 2361
3 1539 1036 1917
3 1039 1292 1834
3 208 141 1620
3 1965 1964 2038
3 693 1544 1969
3 1453 239 2279
3 203 1481 2049
3 945 1451 1889
3 680 1459 2134
3 354 2147 2196
3 1405 1932 2061
3 1723 1722 1737
3 1748 1175 1927
3 1532 1528 1733
3 2057 1824 2154
3 1406 1659 1702
3 1948 1186 2155
3 210 1598 2114
3 1685 478 1687
3 1324 1325 2328
3 1526 1250 1527
3 165 166 1509
3 1493 736 2523
3 1526 1527 1541
3 1390 190 2417
3 522 1444 1998
3 1680 1570 1732
3 1017 1442 2525
3 374 1797 2430
3 1507 1083 2197
3 1756 960 2221
3 2270 1400 2316
3 2205 1452 2282
3 1074 1187 1888
3 2158 1245 2200
3 1442 1017 1684
3 864 1116 1703
3 1750 1751 2143
3 1456 516 1492
3 1677 2146 2149
3 2022 1339 2388
3 1602 258 2183
3 678 1594 1595
3 1245 1670 2200
3 972 830 2204
3 2143 983 2342
3 1268 1501 2226
3 1266 1461 1670
3 1487 222 2465
3 1382 2022 2388
3 58 59 1661
3 2147 1543 2196
3 1484 1485 2410
3 628 2053 2199
3 1906 1549 2259
3 364 362 1786
3 1339 2022 2247
3 1636 525 2041
3 625 678 1595
3 678 1593 1594
3 2212 1410 2222
3 1837 1865 2215
3 1699 1800 1801
3 866 864 1703
3 893 1472 1982
3 1735 1736 2244
3 1633 1255 1922
3 126 127 1882
3 681 867 1656
3 1351 1401 2363
3 11 228 1588
3 1127 1953 2454
3 265 266 267
3 1722 1122 1737
3 1389 1691 2069
3 1613 1610 1616
3 1227 1256 2440
3 429 455 1756
3 1535 1177 2418
3 322 324 1952
3 973 1700 1802
3 1964 368 2038
3 1176 1865 1866
3 1096 872 1764
3 1176 1866 1875
3 193 1839 1892
3 156 157 1441
3 615 617 1596
3 686 1520 2480
3 1409 2097 2305
3 2410 1151 2528
3 1427 2217 2361
3 440 1911 2314
3 1744 1743 2296
3 516 1456 1739
3 1939 589 2164
3 690 931 2150
3 1062 1579 1580
3 1054 1580 1581
3 955 1483 1716
3 1064 1677 2248
3 1956 1616 2193
3 1776 1893 2026
3 1398 1115 1973
3 2002 1453 2265
3 1541 1531 1542
3 216 2191 2536
3 1736 1326 1894
3 1065 994 1066
3 1598 2115 2175
3 2314 1911 2358
3 1433 941 2042
3 2115 1209 2175
3 717 1550 1551
3 188 1941 2433
3 267 1132 1414
3 771 1569 2064
3 1157 1545 1546
3 1231 1250 1526
3 1933 240 2181
3 222 1487 2025
3 1525 230 1765
3 1430 1704 2077
3 757 1744 2495
3 264 263 265
3 883 773 1917
3 739 2205 2282
3 1667 1582 2434
3 1744 757 2474
3 239 1453 2002
3 1441 259 2356
3 2005 1443 2012
3 254 1766 1932
3 1509 166 1679
3 1477 1475 1481
3 793 1440 2165
3 1385 1523 2377
3 1481 1475 2523
3 156 1441 2356
3 1066 1220 1655
3 945 325 1952
3 2094 2087 2134
3 1747 1175 1748
3 253 262 263
3 1327 1074 1888
3 718 715 1567
3 2046 1043 2105
3 240 1933 2399
3 1305 1307 1890
3 224 58 1661
3 1195 1566 2285
3 1590 1393 1749
3 1255 1230 1922
3 353 1538 2073
3 358 1999 2325
3 882 1802 2036
3 1024 1020 1604
3 333 522 1998
3 1401 1351 2414
3 1475 1258 1476
3 2310 786 2364
3 328 945 1889
3 807 1748 1927
3 825 724 1912
3 1742 263 2491
3 267 266 1132
3 2077 2102 2203
3 1431 1432 1860
3 1212 1957 2312
3 2097 476 2305
3 1132 1402 2473
3 717 713 1550
3 1746 693 1969
3 1372 1124 1844
3 1256 1541 2269
3 1977 1350 2274
3 2332 1978 2443
3 874 2133 2179
3 1983 1534 2171
3 1157 1544 1545
3 1230 1228 1922
3 1580 1579 1581
3 1565 806 1948
3 1416 1363 2413
3 1287 1995 2398
3 265 263 266
3 1534 1529 2171
3 1604 1834 2428
3 1255 1633 2509
3 1344 1643 1644
3 1332 1388 1571
3 1423 217 2217
3 2191 1057 2451
3 458 447 1637
3 1250 1233 1733
3 472 2212 2222
3 1175 1747 1840
3 1652 256 1653
3 1073 1347 1572
3 200 145 1609
3 683 640 1585
3 1116 862 1705
3 1221 1223 1474
3 1778 801 1803
3 1503 1622 2471
3 1475 1493 2523
3 464 680 2134
3 14 210 2114
3 579 1880 1988
3 1434 1435 1990
3 1447 2310 2364
3 275 274 276
3 2294 1871 2419
3 814 1068 1684
3 1172 1439 2273
3 273 272 274
3 1363 1416 2406
3 1220 1219 1221
3 1060 1656 1662
3 1099 1792 1985
3 2048 1198 2168
3 1241 1245 2323
3 699 723 1753
3 1640 1862 2070
3 910 1018 1584
3 1586 1067 1587
3 1656 867 1662
3 1067 686 2480
3 654 2242 2294
3 1593 1315 1594
3 1880 553 1974
3 236 1717 1718
3 617 621 1596
3 1723 196 2313
3 402 1877 2116
3 273 274 275
3 2202 1869 2252
3 1510 1358 1767
3 193 1892 2373
3 1188 1805 2054
3 1220 1221 1267
3 1066 1218 1219
3 1517 1097 1518
3 1677 1676 1858
3 686 277 1520
3 268 267 269
3 697 857 1592
3 220 1698 1699
3 1802 1700 2036
3 1612 1537 1614
3 929 817 994
3 228 12 2136
3 2110 2116 2482
3 1659 1658 1702
3 1611 1613 2280
3 1344 991 1643
3 683 1585 1604
3 1638 1358 2404
3 1485 1034 2410
3 2214 833 2424
3 271 272 273
3 1482 955 1962
3 1066 1219 1220
3 931 1885 2150
3 1613 1891 2280
3 1189 1589 2204
3 1566 1195 2120
3 726 1567 2490
3 1122 1722 1874
3 1494 319 2493
3 1671 259 1672
3 1267 1221 1474
3 603 528 1591
3 1664 2128 2316
3 1817 1924 2174
3 1626 1660 2111
3 1474 1475 1477
3 1023 1062 1580
3 1957 1599 2312
3 1764 1939 2164
3 1358 1950 2404
3 200 1609 1610
3 1431 1082 1432
3 1778 1803 2521
3 1830 1832 2075
3 1930 233 2369
3 1329 1482 1650
3 757 1959 2522
3 1239 1247 1597
3 758 1978 2332
3 1569 1290 2064
3 216 1694 2191
3 1453 1420 2265
3 1549 1906 2129
3 24 215 1674
3 19 235 1676
3 1621 1057 2191
3 1691 1389 2262
3 1617 1333 2192
3 929 994 1065
3 1769 1672 1986
3 1893 1412 2026
3 1609 1537 1612
3 271 269 272
3 1373 1438 1620
3 217 1423 2381
3 517 330 1889
3 1322 1055 1667
3 1974 553 2499
3 228 2136 2187
3 1589 1189 1788
3 1999 1577 2325
3 2110 405 2116
3 189 1608 1842
3 1055 1050 1667
3 739 1455 2205
3 1865 1176 2215
3 319 1494 2522
3 2474 757 2522
3 1484 227 1485
3 10 11 1588
3 723 809 1753
3 27 230 1689
3 1550 806 1565
3 1179 1180 1217
3 207 1617 2192
3 1433 1217 1502
3 1562 1556 1606
3 1379 2017 2018
3 1245 2158 2323
3 675 1097 1517
3 884 501 1599
3 1020 683 1604
3 1603 1095 1848
3 1001 2057 2154
3 1604 1585 1834
3 1610 1612 1616
3 1764 870 1939
3 2242 1871 2294
3 1669 1264 1670
3 1658 213 1702
3 1995 1646 2398
3 631 539 1600
3 1491 2143 2342
3 1801 1800 2195
3 1200 1199 1693
3 1535 940 1861
3 1534 758 2332
3 914 2258 2328
3 1588 228 2457
3 216 138 1694
3 151 152 1500
3 1133 1880 1974
3 1677 1858 2248
3 1294 1622 1868
3 875 1010 1767
3 1379 2018 2416
3 1279 2202 2252
3 182 256 1652
3 1592 857 2386
3 672 681 1656
3 615 1596 1824
3 1093 1487 1623
3 1823 522 2100
3 1245 1242 1669
3 1582 1581 1583
3 758 1534 2306
3 1975 1984 2230
3 1358 1510 1950
3 1663 1336 1665
3 2102 960 2203
3 366 1087 1786
3 1740 1490 2231
3 21 207 1709
3 145 146 1609
3 2339 765 2384
3 603 1591 1668
3 2081 199 2149
3 1540 1832 1879
3 1721 1723 1947
3 1754 455 1793
3 1751 1753 2119
3 882 1701 1807
3 1540 1539 1917
3 242 1695 1697
3 1521 354 2091
3 1363 2233 2413
3 1584 1018 1925
3 703 1067 1586
3 1177 1178 1179
3 795 916 1834
3 277 276 607
3 1571 1388 1872
3 22 23 1617
3 1097 823 1177
3 25 26 1624
3 419 418 1790
3 1728 1906 2259
3 440 1455 2261
3 1877 1318 2116
3 1488 1156 1608
3 1439 2130 2273
3 1889 1451 1890
3 1614 209 2389
3 1472 893 2094
3 675 821 823
3 23 24 1674
3 1788 1190 2183
3 917 941 1622
3 1763 1096 1764
3 1068 1442 1684
3 1034 1485 2173
3 2172 1533 2230
3 138 139 1694
3 1065 1570 2197
3 607 674 675
3 1536 1248 2268
3 229 135 1734
3 1437 1925 1926
3 680 510 1646
3 147 209 1537
3 26 27 1689
3 1627 705 2163
3 206 1651 2121
3 2409 1785 2462
3 1492 682 2447
3 1223 1225 1258
3 889 1772 2374
3 253 263 264
3 275 276 277
3 1455 739 2261
3 2022 1382 2176
3 150 227 1484
3 639 1019 1591
3 1449 1640 2070
3 1082 833 2214
3 1503 1502 1504
3 144 200 1717
3 1643 991 1713
3 1190 1791 2183
3 1538 1804 2073
3 1256 2269 2440
3 18 19 1676
3 521 531 2000
3 790 849 2180
3 1075 1329 1650
3 1087 1782 1785
3 1066 994 1218
3 270 269 271
3 682 1492 2494
3 185 252 1454
3 253 158 262
3 1629 1632 1633
3 200 1610 1611
3 1477 1481 2104
3 1623 1487 2465
3 1518 1097 1535
3 1414 1132 2460
3 1179 1217 1433
3 177 1506 1680
3 1392 1017 2525
3 1832 834 2075
3 675 823 1097
3 1459 2094 2134
3 1782 1087 1795
3 1838 1730 2372
3 1639 149 2528
3 1617 23 1674
3 2265 1420 2489
3 180 232 1859
3 1527 1250 1528
3 20 21 1709
3 1083 1508 2311
3 903 866 1703
3 1455 440 2314
3 1187 1858 1888
3 1659 1406 2473
3 1446 1902 2166
3 421 1951 2106
3 1598 210 2115
3 154 259 1671
3 1288 1835 2080
3 1832 1831 1879
3 1258 1225 1478
3 1024 1604 2117
3 1263 1429 1739
3 706 705 1627
3 1583 1581 2352
3 407 1805 1951
3 856 1574 2527
3 1701 882 2036
3 1624 26 1689
3 717 1551 1552
3 1385 2377 2391
3 2302 1745 2354
3 1572 1347 2157
3 1036 883 1917
3 1689 1690 1691
3 1664 1665 2128
3 1476 1479 1480
3 1751 2119 2143
3 815 814 1684
3 1790 889 2400
3 1606 1607 2085
3 265 267 268
3 418 889 1790
3 1522 1521 2091
3 135 136 1734
3 1726 1445 1729
3 647 1796 1797
3 1346 1453 2279
3 1293 1827 2117
3 1242 1244 1669
3 1853 1852 1854
3 889 2374 2400
3 1039 1038 1290
3 1524 628 2199
3 1331 1332 1571
3 1291 1290 1569
3 1475 1476 1493
3 1850 1852 1853
3 1490 1740 2456
3 1689 230 1690
3 1256 1526 1541
3 1704 1705 2167
3 1465 1470 1675
3 956 1073 1572
3 1613 1616 1956
3 916 917 1038
3 2014 1522 2091
3 1221 1222 1223
3 1999 763 2352
3 234 10 1588
3 1697 220 2335
3 1527 1528 1529
3 2298 1600 2413
3 1436 2020 2254
3 1642 1161 1678
3 1523 1385 2436
3 1730 1838 2426
3 795 796 916
3 713 711 1550
3 1456 1263 1739
3 999 1336 1663
3 1785 1784 2462
3 409 415 1783
3 607 675 1517
3 1229 1231 1526
3 1958 1855 2078
3 1589 1588 1590
3 1933 261 2380
3 762 1965 2038
3 1756 1458 2203
3 1776 597 1893
3 1794 1072 1893
3 188 1512 2266
3 1774 2339 2384
3 188 1908 1941
3 1010 1510 1767
3 2189 2285 2307
3 773 834 1917
3 1245 1669 1670
3 1248 1597 2268
3 146 1537 1609
3 818 910 1584
3 1641 1313 1651
3 1217 1745 2302
3 1065 1066 1655
3 1597 1247 2047
3 1360 2177 2376
3 1612 1615 1616
3 2126 867 2186
3 1019 683 1020
3 1747 892 1840
3 1092 1093 1623
3 261 1933 2181
3 400 424 1666
3 1516 1903 2377
3 1100 1392 1605
3 247 1738 1881
3 268 1134 1986
3 1177 823 1178
3 884 1599 1957
3 263 262 2491
3 806 1627 1948
3 1227 1229 1256
3 191 1729 2504
3 1636 1635 2502
3 1480 1479 1601
3 1721 1947 2498
3 1924 1146 2174
3 229 1734 1735
3 175 204 1725
3 1179 1178 1180
3 354 1521 2147
3 665 697 1592
3 640 646 1585
3 627 545 1636
3 1882 240 2399
3 1556 1555 1606
3 1373 1620 2394
3 1871 1071 2419
3 548 1628 1629
3 455 436 1793
3 974 1831 1841
3 1844 1413 2392
3 1612 1614 1615
3 209 1639 1937
3 1329 1330 1331
3 1823 2100 2142
3 1097 1177 1535
3 1021 1020 1022
3 825 1912 2455
3 913 1122 1874
3 400 1666 2113
3 1256 1229 1526
3 1419 1418 2450
3 1552 1551 1553
3 1850 1099 1852
3 1629 1631 1632
3 801 685 2029
3 1618 1619 1621
3 265 268 1986
3 1715 2165 2330
3 1531 1529 1534
3 1022 1024 1576
3 658 693 1746
3 703 686 1067
3 1062 1576 1577
3 1023 1022 1062
3 236 1718 2394
3 1688 502 1740
3 1501 1477 2104
3 213 165 1509
3 646 795 1585
3 196 1737 1738
3 379 679 1795
3 639 640 683
3 924 875 1767
3 1752 699 1753
3 207 2192 2315
3 627 1636 1660
3 1217 1180 1745
3 730 728 1833
3 528 561 1591
3 1444 1417 1998
3 252 186 1602
3 1729 1445 2504
3 460 502 1688
3 1418 946 1778
3 1203 1200 1693
3 548 470 1628
3 849 668 1640
3 646 785 795
3 607 276 674
3 14 15 210
3 147 148 209
3 478 460 1688
3 1709 207 2315
3 1157 1546 1608
3 1155 1731 1899
3 1524 1934 2390
3 1775 921 1876
3 1433 1502 1503
3 470 458 1628
3 1223 1224 1225
3 1291 1569 1964
3 871 1056 1826
3 1781 1783 1915
3 1587 1067 2300
3 916 1038 1039
3 1388 1387 1389
3 1611 1610 1613
3 1075 1328 1329
3 1039 1290 1291
3 1538 1265 1804
3 1184 1185 2163
3 597 598 1794
3 1450 1356 2421
3 1835 576 2080
3 1629 1628 1631
3 1331 1330 1332
3 561 639 1591
3 1476 1480 1493
3 705 703 1586
3 639 683 1019
3 1951 1188 2106
3 436 446 1793
3 1472 1297 2142
3 1332 1387 1388
3 1345 984 1720
3 1329 1328 1330
3 1050 1048 1667
3 150 151 227
3 11 12 228
3 557 541 2256
3 1831 974 1879
3 134 229 1766
3 1357 1358 1638
3 1336 1641 2299
3 1650 1482 1962
3 1591 1019 2512
3 1506 1507 1570
3 1803 801 2029
3 1178 823 1972
3 1552 1553 1554
3 1290 1038 1294
3 1028 1313 1641
3 1237 1239 1597
3 993 1017 1100
3 893 2087 2094
3 149 1484 2528
3 1768 1142 1949
3 9 234 1673
3 1554 1553 1555
3 668 632 1640
3 711 806 1550
3 1628 458 1637
3 1098 1829 1830
3 1482 1331 1483
3 531 1818 2000
3 435 419 1790
3 1156 1157 1608
3 1182 1184 2179
3 510 512 1646
3 1231 1233 1250
3 946 841 1778
3 1483 1331 1571
3 1459 680 2458
3 1166 1040 1210
3 892 1657 1820
3 1042 1445 1726
3 1019 1020 1021
3 749 805 1810
3 234 1588 1589
3 1695 242 1892
3 556 1853 2483
3 1018 1572 1573
3 1529 1528 1530
3 1606 1558 1607
3 1761 1759 2308
3 1396 1032 1921
3 1018 956 1572
3 689 1150 1416
3 1827 1293 2515
3 149 150 1484
3 1647 656 1648
3 1543 694 2196
3 399 409 1783
3 545 525 1636
3 268 269 270
3 715 713 717
3 1100 1017 1392
3 1657 892 1747
3 207 22 1617
3 1666 884 2249
3 1671 1672 1769
3 1554 1555 1556
3 146 147 1537
3 1081 1444 1822
3 711 709 806
3 1443 2005 2322
3 660 658 1746
3 1166 1458 1754
3 916 796 917
3 1056 1728 1826
3 1068 1069 1275
3 184 185 1454
3 158 159 262
3 2007 1687 2231
3 805 1708 1810
3 1672 264 1986
3 1561 1562 1563
3 978 1075 1650
3 1590 1588 2457
3 215 25 1624
3 1551 1550 1565
3 1073 1346 1347
3 857 818 1584
3 1648 656 1649
3 675 674 821
3 561 594 639
3 1731 529 1899
3 2303 1454 2535
3 981 903 1040
3 1630 1629 1633
3 993 877 1017
3 724 718 726
3 512 603 1646
3 1676 235 1858
3 814 1060 1068
3 715 717 1567
3 1796 647 1870
3 1715 1171 2165
3 678 1592 1593
3 644 613 1824
3 1690 1525 2145
3 1297 1822 1823
3 271 656 1647
3 1704 1116 1705
3 1225 1226 1227
3 1275 1069 1338
3 910 956 1018
3 1824 1596 2154
3 1403 1100 1605
3 1221 1219 1222
3 1068 1060 1069
3 1901 245 1949
3 1081 1055 1321
3 1751 563 1752
3 1021 1022 1023
3 672 638 681
3 1095 657 1848
3 1235 1237 1248
3 1561 1556 1562
3 1265 1259 1804
3 524 1819 2016
3 978 1650 2362
3 1492 516 2494
3 229 1735 2061
3 185 186 252
3 157 158 253
3 152 153 233
3 9 10 234
3 1527 1529 1531
3 1808 1344 2360
3 1062 1577 1579
3 1509 1679 1977
3 424 454 1666
3 637 638 672
3 981 1040 1166
3 1555 1558 1606
3 751 749 1810
3 1166 1210 1458
3 1651 1313 2121
3 15 16 2260
3 1633 1632 2509
3 2167 1705 2276
3 551 602 2045
3 697 818 857
3 364 1786 1883
3 832 1189 2204
3 1476 1478 1479
3 678 665 1592
3 213 1509 2096
3 1015 888 1124
3 1062 1022 1576
3 679 1782 1795
3 680 1646 1995
3 1101 1100 1403
3 1109 433 1714
3 1248 1237 1597
3 733 730 1833
3 1702 213 2096
3 499 498 1828
3 1418 1778 2521
3 637 600 638
3 1048 1046 1054
3 1577 1576 1578
3 814 766 1060
3 1279 2252 2292
3 474 470 548
3 199 18 1676
3 157 253 1441
3 1048 1054 1667
3 471 472 2290
3 625 665 678
3 795 785 796
3 1264 1265 1266
3 1437 1926 2350
3 1362 2048 2168
3 1394 2337 2371
3 454 884 1666
3 1022 1020 1024
3 751 1810 1923
3 1046 1023 1580
3 1807 1701 1931
3 1618 208 1619
3 566 588 689
3 1828 498 1829
3 501 509 1599
3 1118 780 1775
3 878 817 929
3 1510 1511 1950
3 1618 1621 1694
3 1052 1081 1822
3 1416 1150 1715
3 1239 1241 1247
3 1396 1921 2067
3 1751 1752 1753
3 1264 1259 1265
3 539 566 1600
3 1762 1127 2496
3 1673 1788 2183
3 1555 1557 1558
3 1052 1050 1055
3 725 724 825
3 1142 1770 1771
3 681 853 867
3 454 501 884
3 1346 1420 1453
3 932 1147 1770
3 1546 1545 1547
3 533 582 1818
3 1266 1337 1460
3 1872 820 2318
3 1117 1119 1713
3 1081 1321 1417
3 1253 1259 1264
3 1569 771 2135
3 1052 1055 1081
3 1181 1178 1972
3 709 706 1627
3 1073 1076 1346
3 1098 1828 1829
3 1382 1380 2176
3 1442 1275 1443
3 919 999 1663
3 1789 828 1855
3 877 815 1684
3 509 539 631
3 992 877 993
3 1266 1265 1337
3 2268 1498 2340
3 1130 1032 1396
3 1095 1603 2508
3 886 826 887
3 531 533 1818
3 1131 1400 1881
3 447 437 516
3 2460 1132 2473
3 940 1535 2418
3 768 1873 2037
3 1813 1869 1954
3 1627 2163 2488
3 1497 1495 1645
3 1198 1409 2168
3 724 726 1912
3 1869 987 1954
3 763 1999 2338
3 1010 1170 1374
3 984 976 1720
3 1470 1743 1744
3 689 588 1150
3 1901 1949 2359
3 1640 632 1862
3 274 272 1787
3 563 564 1752
3 994 817 1505
3 737 1807 1931
3 1770 1147 1771
3 1233 1235 1733
3 2450 1418 2521
3 414 410 1821
3 908 1099 1850
3 1227 1228 1229
3 1692 1203 1693
3 1625 216 2194
3 512 528 603
3 1377 1357 1638
3 1465 1464 1470
3 1360 1359 2177
3 1686 2007 2095
3 1336 1028 1641
3 1857 751 1923
3 1758 572 1759
3 553 541 557
3 1171 1715 1811
3 956 1003 1073
3 1467 1465 1675
3 719 718 724
3 1509 1977 2096
3 1734 1625 1736
3 1503 1504 1868
3 592 597 1776
3 180 181 232
3 162 163 231
3 2308 1759 2370
3 1357 1114 1358
3 875 946 1010
3 509 631 1599
3 17 18 199
3 144 145 200
3 1099 906 1792
3 1469 1467 1494
3 605 589 1939
3 1208 1205 1211
3 354 344 2091
3 692 782 804
3 1010 946 1170
3 1463 1462 1464
3 716 715 718
3 714 713 715
3 271 273 656
3 139 1618 1694
3 549 277 686
3 673 672 766
3 1378 1377 1379
3 2007 868 2095
3 999 1028 1336
3 1208 1211 1447
3 601 545 627
3 1119 1643 1713
3 1332 1333 1387
3 910 912 956
3 520 521 2000
3 828 1789 1819
3 277 607 1520
3 1338 1339 2247
3 818 819 910
3 767 766 814
3 712 711 713
3 1494 1467 1675
3 639 594 640
3 2044 557 2256
3 235 20 1709
3 1620 236 2394
3 804 919 962
3 1862 702 2070
3 681 852 853
3 1559 1556 1561
3 1622 941 2471
3 2165 1440 2330
3 612 644 692
3 697 698 818
3 1903 1516 1994
3 371 379 1795
3 428 426 2138
3 1290 1294 2064
3 1384 1904 2432
3 566 689 1600
3 471 452 472
3 1092 1091 1093
3 1002 1131 1719
3 1090 1089 1091
3 875 841 946
3 1758 1760 1763
3 1562 1606 2085
3 1833 1830 2075
3 178 179 214
3 164 165 213
3 769 923 1815
3 692 644 782
3 804 782 919
3 182 183 256
3 160 161 257
3 1329 1331 1482
3 962 1663 1664
3 1177 1179 2042
3 403 405 1805
3 1461 1460 1462
3 140 208 1618
3 1859 232 1860
3 274 1787 2099
3 1381 2126 2186
3 1558 1560 1789
3 430 428 682
3 452 435 1683
3 1487 1156 1488
3 1470 1464 1743
3 597 1794 1893
3 1244 1253 1669
3 962 919 1663
3 258 8 1673
3 1087 1785 1786
3 970 1042 1726
3 199 1677 2149
3 1664 1663 1665
3 1229 1230 1231
3 991 827 1713
3 792 1603 1848
3 1822 1444 1823
3 665 666 697
3 19 20 235
3 142 143 236
3 728 1098 1833
3 532 530 1898
3 1015 1124 1372
3 1546 1547 1548
3 1851 1850 1853
3 1877 393 2240
3 923 1105 1815
3 1090 1091 1092
3 687 686 703
3 1683 435 1790
3 887 826 1961
3 684 663 1089
3 426 1934 2138
3 464 510 680
3 853 854 855
3 568 572 1758
3 1376 1357 1377
3 1205 1203 1692
3 1607 1789 1855
3 710 709 711
3 780 781 1775
3 1434 1103 1435
3 876 815 877
3 766 672 1656
3 1393 1590 2457
3 684 1089 1090
3 530 890 1898
3 926 1920 1943
3 696 414 1821
3 1563 1562 1777
3 1054 1046 1580
3 1398 1973 1974
3 137 216 1625
3 1210 1040 1430
3 1750 563 1751
3 2010 1665 2299
3 1510 1374 1511
3 1777 1562 2085
3 1707 252 1791
3 1932 1404 1933
3 459 438 1814
3 139 140 1618
3 1093 1156 1487
3 231 163 1658
3 699 722 723
3 1545 1095 2508
3 598 612 1794
3 579 554 1880
3 1941 1908 2401
3 1231 1232 1233
3 1831 1829 1841
3 1037 1383 1799
3 177 178 1506
3 636 600 637
3 1036 1539 2286
3 1356 1114 1357
3 1523 1516 2377
3 704 703 705
3 403 402 405
3 648 792 1848
3 723 756 808
3 1388 1389 2170
3 933 932 1770
3 223 1710 1711
3 1779 399 1783
3 1223 1222 1224
3 1028 1029 1313
3 257 161 1654
3 418 412 421
3 734 882 1807
3 693 657 1095
3 1368 1370 1436
3 136 137 1625
3 688 652 817
3 1075 1327 1328
3 540 479 1813
3 398 395 402
3 548 1629 1630
3 574 591 699
3 1469 1494 1495
3 1041 1598 2175
3 167 168 202
3 175 176 204
3 2045 2046 2201
3 186 187 1602
3 886 887 888
3 1253 1254 1259
3 8 9 1673
3 792 655 810
3 843 1145 1960
3 1180 1349 1745
3 1165 1345 1512
3 708 706 709
3 136 1625 1734
3 21 22 207
3 140 141 208
3 625 626 665
3 1093 1094 1156
3 1585 795 1834
3 1117 1713 1806
3 599 579 600
3 810 871 1826
3 1047 1046 1048
3 1292 1291 1293
3 161 162 1654
3 199 1676 1677
3 1260 1282 1804
3 1005 1142 1768
3 1233 1234 1235
3 792 810 922
3 1122 1719 1737
3 976 985 1720
3 1278 1279 2292
3 2390 1934 2531
3 1436 1437 2350
3 270 271 1647
3 1199 966 1846
3 1683 1342 2212
3 656 273 2124
3 699 591 722
3 1977 1139 2096
3 1738 1719 1881
3 1722 985 1874
3 1797 1448 1798
3 162 231 1654
3 632 604 1862
3 252 1602 1791
3 1051 1050 1052
3 1045 1023 1046
3 648 655 792
3 993 1100 1101
3 1321 1055 1322
3 806 709 1627
3 904 903 981
3 1220 1267 1268
3 648 605 655
3 1737 1719 1738
3 385 399 1779
3 506 499 1828
3 1132 266 1402
3 1170 1418 1419
3 1323 2302 2354
3 24 25 215
3 137 138 216
3 721 965 1919
3 1787 1414 2460
3 778 1117 1806
3 723 722 756
3 407 403 1805
3 564 574 1752
3 1049 1048 1050
3 842 841 875
3 1608 1546 1842
3 809 808 899
3 1517 1519 1520
3 1530 1532 1533
3 889 421 1772
3 913 1002 1122
3 1314 1316 1367
3 1017 877 1684
3 841 802 1778
3 1235 1236 1237
3 751 1857 1900
3 1114 924 1767
3 1344 1644 2360
3 1895 1394 2371
3 1518 1535 1861
3 1758 1759 1760
3 1122 1002 1719
3 546 563 1750
3 1056 1726 1727
3 663 660 1746
3 621 622 625
3 1720 985 1721
3 1857 1843 1900
3 808 756 913
3 1056 970 1726
3 27 28 230
3 134 135 229
3 908 906 1099
3 163 164 1658
3 1727 1726 1729
3 7 8 258
3 154 155 259
3 1101 1403 1404
3 808 913 1874
3 1260 1269 1282
3 1389 1387 2262
3 1297 1053 1822
3 1555 1553 1557
3 1463 1464 1465
3 230 28 1765
3 1237 1238 1239
3 554 553 1880
3 775 778 1806
3 985 899 1874
3 1270 1524 2199
3 489 1820 1936
3 692 1072 1794
3 1472 2142 2272
3 1845 496 1929
3 438 431 1814
3 613 615 1824
3 1241 1242 1245
3 1783 415 1915
3 1192 2081 2149
3 178 214 1506
3 1816 988 1817
3 1760 1759 1761
3 1103 1092 1623
3 1512 1345 1661
3 1876 921 2295
3 1165 984 1345
3 978 1074 1075
3 1239 1240 1241
3 542 541 553
3 813 988 1816
3 1148 984 1165
3 871 970 1056
3 472 452 1683
3 1207 1796 1870
3 1167 1166 1754
3 1296 1053 1297
3 966 964 1846
3 976 899 985
3 982 976 984
3 702 1815 2015
3 900 899 976
3 1143 995 1206
3 1576 1024 1827
3 1235 1248 1733
3 1558 1557 1560
3 943 995 1143
3 1920 1144 1943
3 1471 2115 2477
3 29 30 255
3 132 133 254
3 1630 1633 1634
3 1225 1224 1226
3 1925 1573 1926
3 1211 1205 1692
3 725 825 826
3 1113 924 1114
3 600 579 1988
3 717 1552 1567
3 1820 1657 1936
3 674 276 2099
3 395 393 1877
3 572 543 1897
3 1575 1308 2255
3 999 1000 1028
3 1118 1775 1876
3 1797 1798 2430
3 526 546 559
3 867 853 2186
3 1142 1771 1949
3 1068 1275 1442
3 679 385 1779
3 1607 1558 1789
3 580 568 1758
3 1244 1252 1253
3 1760 1761 1762
3 398 402 403
3 1476 1258 1478
3 418 421 889
3 1771 1147 1839
3 164 213 1658
3 1720 1721 2267
3 1668 1591 2512
3 1042 1128 1445
3 1098 1830 1833
3 1102 1092 1103
3 2249 884 2466
3 1104 1103 1434
3 410 416 1821
3 514 513 541
3 580 1758 1763
3 637 673 1741
3 1913 936 1914
3 1394 1395 2337
3 919 920 999
3 577 554 579
3 2111 1660 2263
3 231 1658 1659
3 612 613 644
3 568 543 572
3 770 775 1806
3 1445 1128 1446
3 1546 1548 1842
3 448 460 478
3 810 870 871
3 1789 1560 1819
3 1154 1082 1431
3 873 973 1802
3 379 385 679
3 837 850 921
3 1461 1462 1463
3 1346 1076 1420
3 1088 1344 1808
3 2125 1143 2353
3 931 977 978
3 882 772 1802
3 29 255 1765
3 849 1513 2180
3 1713 827 1806
3 1130 1396 1397
3 681 638 852
3 1417 1321 1873
3 1654 1402 2530
3 502 526 1740
3 1124 888 2177
3 1266 1460 1461
3 515 1175 1840
3 1253 1264 1669
3 479 466 1813
3 1727 1729 1757
3 379 380 385
3 1971 1480 2514
3 1637 1739 2459
3 1207 1205 1208
3 529 519 1899
3 1129 1845 1929
3 224 1661 2267
3 192 1856 2361
3 732 734 1807
3 1184 2163 2435
3 1119 1120 1353
3 415 414 431
3 719 724 725
3 559 546 1750
3 871 872 970
3 1038 917 1622
3 574 699 1752
3 166 167 1679
3 1117 1118 1119
3 1409 1196 2035
3 617 619 621
3 1172 1173 1439
3 1191 1005 1768
3 664 663 684
3 494 493 1841
3 890 529 1731
3 840 802 841
3 493 974 1841
3 385 386 399
3 679 1779 1780
3 371 376 379
3 416 433 1109
3 670 769 1815
3 902 866 903
3 1780 1779 1781
3 480 515 1840
3 970 971 1042
3 433 448 1714
3 28 29 1765
3 1005 949 1142
3 778 780 1117
3 959 1037 1799
3 1073 1003 1076
3 535 532 1898
3 1119 1118 1120
3 658 657 693
3 1378 1379 1380
3 1397 1396 1809
3 1610 1609 1612
3 1819 1560 2016
3 1837 952 1865
3 1719 1131 1881
3 1131 1399 1400
3 1352 1138 2058
3 399 406 409
3 548 1630 2041
3 1275 1338 2251
3 582 1816 1818
3 1835 1836 2144
3 993 1101 1980
3 1699 1698 1700
3 2407 364 2505
3 1189 1190 1788
3 1117 780 1118
3 1830 1829 1831
3 637 672 673
3 692 804 1072
3 1204 1203 1205
3 1374 1170 2139
3 612 692 1794
3 1642 1408 2286
3 723 808 809
3 450 459 1812
3 409 410 414
3 802 801 1778
3 1853 1854 2483
3 1042 1127 1128
3 1199 1846 2225
3 1147 990 1273
3 1383 1384 2432
3 432 431 438
3 1353 1120 1390
3 1093 1091 1094
3 2020 250 2254
3 148 149 1639
3 606 605 648
3 1970 2016 2422
3 2201 2046 2327
3 475 471 513
3 412 407 1951
3 1991 246 2139
3 727 695 728
3 1673 234 1788
3 1554 1556 1559
3 1089 663 1746
3 1846 964 2056
3 923 991 1088
3 409 406 410
3 729 728 730
3 1424 1427 1856
3 1473 1911 2407
3 1376 1377 1378
3 1010 1374 1510
3 853 852 854
3 366 369 1087
3 772 873 1802
3 1219 1218 1626
3 1766 229 2061
3 1088 991 1344
3 922 810 1826
3 518 506 695
3 405 402 2116
3 962 1664 2316
3 913 942 1002
3 932 990 1147
3 629 813 1816
3 876 877 992
3 399 386 406
3 932 845 990
3 1002 1123 1131
3 843 996 1145
3 781 837 1775
3 262 2304 2491
3 431 696 1814
3 1273 1695 1892
3 731 730 732
3 737 732 1807
3 439 438 450
3 1829 498 1841
3 800 685 801
3 767 814 815
3 1060 766 1656
3 673 766 767
3 1403 1605 1882
3 716 718 719
3 1338 1069 1339
3 847 752 1843
3 864 862 1116
3 2302 443 2519
3 923 827 991
3 526 559 1740
3 1911 1473 2358
3 1085 1310 1867
3 809 899 900
3 1227 1226 1228
3 729 730 731
3 1436 1370 1437
3 731 732 737
3 769 827 923
3 456 452 471
3 1433 1503 2471
3 1435 1103 1623
3 385 380 386
3 1141 1787 2460
3 1354 1088 1808
3 657 649 1848
3 415 431 432
3 484 892 1820
3 727 728 729
3 855 854 1450
3 1721 1722 1723
3 1643 1353 1644
3 1145 1916 1960
3 1421 1191 1422
3 466 1812 1813
3 943 944 995
3 1356 1357 1376
3 714 715 716
3 1156 1094 1157
3 598 611 612
3 631 1600 2298
3 590 589 605
3 965 969 1919
3 416 1109 1821
3 242 1697 2335
3 1548 1547 1549
3 550 573 584
3 584 604 632
3 409 414 415
3 712 713 714
3 642 670 702
3 818 698 819
3 1006 1005 1191
3 1624 1689 1691
3 169 170 237
3 173 174 238
3 956 912 1003
3 937 936 1913
3 1317 1025 1875
3 515 540 550
3 973 1799 1800
3 973 959 1799
3 518 695 727
3 910 819 912
3 584 573 604
3 1170 946 1418
3 173 238 1847
3 550 540 573
3 982 984 1148
3 900 976 982
3 441 435 452
3 448 478 1714
3 1849 1648 2173
3 1631 1628 1637
3 1830 1831 1832
3 1383 1216 1384
3 734 772 882
3 949 933 1770
3 1332 1330 1333
3 574 575 591
3 1105 1088 1354
3 702 670 1815
3 498 494 1841
3 827 770 1806
3 873 959 973
3 1390 1391 1415
3 450 438 459
3 950 949 1005
3 351 362 364
3 1313 1029 1314
3 432 438 439
3 837 838 850
3 1273 1274 1695
3 850 851 943
3 911 952 1837
3 1259 1260 1804
3 566 587 588
3 1037 1216 1383
3 1337 1265 1538
3 1087 369 1795
3 810 655 870
3 1559 1561 1566
3 1147 1273 1839
3 732 733 734
3 1662 867 2126
3 890 1731 2241
3 1854 1852 2397
3 515 479 540
3 451 450 466
3 697 666 698
3 1367 1316 1368
3 662 660 663
3 365 355 694
3 1358 1114 1767
3 379 376 380
3 1796 1448 1797
3 179 180 1859
3 790 668 849
3 569 568 580
3 690 860 931
3 466 450 1812
3 431 414 696
3 1973 1133 1974
3 651 649 657
3 467 466 479
3 1288 1289 1835
3 264 265 1986
3 1302 1303 1304
3 592 596 597
3 1873 1321 2037
3 544 543 568
3 275 277 549
3 209 1937 2389
3 539 565 566
3 1485 227 1486
3 2384 2190 2408
3 1781 1779 1783
3 480 479 515
3 689 1416 2413
3 1108 1161 1539
3 1867 1310 1895
3 1300 1301 1302
3 1695 1696 1697
3 633 632 668
3 1304 1451 1452
3 988 911 1837
3 168 169 1724
3 969 1012 1172
3 582 629 1816
3 1843 752 1900
3 629 812 813
3 710 711 712
3 1782 1780 1784
3 536 535 543
3 1089 1746 1969
3 1108 1107 1161
3 1514 1426 1856
3 486 484 1820
3 369 371 1795
3 1817 988 1924
3 493 609 974
3 1422 1191 2023
3 1426 1424 1856
3 842 875 924
3 922 1826 2259
3 989 1361 1886
3 928 1070 1288
3 669 668 790
3 1113 1114 1356
3 1027 847 1843
3 728 695 1098
3 734 735 772
3 975 1107 1108
3 955 859 1962
3 813 911 988
3 1208 1448 1796
3 1101 1405 1980
3 602 676 2045
3 586 581 589
3 546 547 563
3 493 491 609
3 628 1524 2390
3 348 344 354
3 1298 1299 1300
3 509 538 539
3 974 609 975
3 813 891 911
3 871 870 872
3 1355 1354 1423
3 489 486 1820
3 778 779 780
3 1025 1176 1875
3 772 773 873
3 803 1743 2347
3 167 202 1679
3 873 883 959
3 1483 1571 2375
3 427 1756 2221
3 540 1813 1954
3 1202 1200 1203
3 959 1035 1037
3 837 921 1775
3 1304 1305 1451
3 1799 1383 2195
3 604 642 1862
3 1470 1744 2474
3 1854 2397 2453
3 1282 1269 1386
3 1573 1572 2157
3 472 2222 2290
3 1307 1708 2341
3 769 770 827
3 1037 1215 1216
3 791 790 856
3 1053 1052 1822
3 1056 1727 1728
3 1341 1138 1352
3 1300 1299 1301
3 1814 696 1838
3 1198 1196 1409
3 492 491 493
3 439 450 451
3 1171 858 2132
3 1259 1254 1260
3 665 626 666
3 970 872 971
3 258 1602 2357
3 1296 1297 1472
3 490 489 491
3 516 437 2494
3 1298 1027 1299
3 846 845 932
3 501 508 509
3 460 461 502
3 448 449 460
3 482 480 1840
3 1229 1228 1230
3 604 641 642
3 1424 1423 1427
3 502 503 526
3 1028 1000 1029
3 935 933 949
3 1084 1085 1867
3 2028 1711 2353
3 1513 1426 1514
3 892 482 1840
3 852 638 1988
3 402 395 1877
3 738 737 845
3 413 412 418
3 1119 1353 1643
3 526 527 546
3 280 279 281
3 1731 1155 2123
3 1042 971 1127
3 1208 1447 1448
3 433 434 448
3 262 159 2304
3 184 1454 2303
3 1051 1052 1053
3 1816 1817 1818
3 1081 1417 1444
3 781 836 837
3 911 951 952
3 1090 1092 1102
3 202 168 1724
3 1085 1309 1310
3 408 407 412
3 1337 1538 1864
3 1515 1514 1516
3 530 529 890
3 1517 1518 1519
3 549 686 687
3 923 1088 1105
3 404 403 407
3 1835 1289 1836
3 1314 1367 2121
3 1380 1379 2416
3 670 671 769
3 899 808 1874
3 1040 903 1703
3 1596 1595 2154
3 1496 1495 1497
3 636 637 1741
3 1377 1638 2288
3 1288 1070 1289
3 1072 804 1981
3 1129 1334 1845
3 1865 1084 1866
3 792 922 1603
3 1253 1252 1254
3 981 1167 1792
3 1302 1301 1303
3 1641 1651 2019
3 952 953 1084
3 1813 1812 1869
3 732 730 733
3 975 1106 1107
3 1142 949 1770
3 981 1166 1167
3 840 841 842
3 451 466 467
3 1273 990 1274
3 1049 1050 1051
3 1473 2407 2505
3 968 966 1199
3 642 643 670
3 1310 1309 1311
3 422 419 435
3 1063 833 1082
3 919 782 920
3 911 891 951
3 1084 953 1085
3 1763 1764 2164
3 1498 1497 1682
3 515 550 1175
3 1079 937 1913
3 642 702 1862
3 845 737 1931
3 1394 1311 1395
3 1395 1521 1522
3 467 479 480
3 1755 1754 1793
3 1231 1230 1232
3 1557 1553 2030
3 1624 1691 2262
3 584 632 633
3 1094 1091 1969
3 708 709 710
3 1948 1627 2488
3 952 951 953
3 1102 1103 1104
3 1047 1048 1049
3 1310 1311 1394
3 1852 1099 1985
3 143 144 1717
3 813 812 891
3 1944 1044 1945
3 1105 1354 1355
3 1300 1302 1455
3 1914 936 1940
3 1415 1391 1710
3 1299 1027 1843
3 952 1084 1865
3 1695 1274 1696
3 776 774 1928
3 282 281 283
3 2003 1347 2279
3 1206 995 1499
3 1164 1685 1686
3 1551 1565 2030
3 969 1172 1919
3 633 668 669
3 734 733 735
3 1373 1372 1438
3 599 600 636
3 1431 1860 2487
3 1579 1577 1999
3 484 482 892
3 917 940 941
3 2144 1836 2169
3 1866 1084 1867
3 1110 1747 1748
3 998 1171 1811
3 1390 1120 1391
3 644 1824 2057
3 1362 1961 2048
3 944 1283 1825
3 1086 1027 1298
3 679 1780 1782
3 974 975 1879
3 507 506 518
3 1121 1079 1401
3 775 777 778
3 1965 762 2349
3 1045 1046 1047
3 1772 421 2106
3 16 17 2081
3 416 417 433
3 921 850 2125
3 1607 1855 1958
3 649 648 1848
3 1241 1240 1242
3 2012 1443 2251
3 926 928 1920
3 1487 1488 2025
3 1006 1191 1421
3 1355 1423 1424
3 1133 852 1988
3 591 592 1776
3 1299 1843 1857
3 1085 1308 1309
3 490 491 492
3 958 694 1575
3 1384 1216 1385
3 741 915 1878
3 1233 1232 1234
3 669 790 791
3 481 480 482
3 687 703 704
3 492 493 494
3 1634 1633 1922
3 1697 1696 1698
3 1721 985 1722
3 1839 1273 1892
3 772 735 773
3 488 486 489
3 950 1005 1006
3 1513 1514 1515
3 454 500 501
3 873 773 883
3 284 283 285
3 2185 1505 2442
3 959 883 1035
3 543 535 1897
3 1904 1384 2093
3 800 801 802
3 1037 1035 1215
3 1293 1964 1965
3 1239 1238 1240
3 943 1143 2125
3 1782 1784 1785
3 913 756 942
3 488 490 1884
3 1590 1749 2501
3 1235 1234 1236
3 791 856 1408
3 702 2015 2070
3 1108 1539 1540
3 1021 1023 1045
3 695 506 1828
3 1530 1528 1532
3 488 489 490
3 1621 1619 2161
3 704 705 706
3 1304 1303 1305
3 558 1704 2167
3 625 622 626
3 542 553 554
3 604 573 641
3 664 684 685
3 564 571 574
3 1108 1540 1879
3 1856 1427 2361
3 880 1025 1129
3 1395 1311 1521
3 1466 1465 1467
3 915 495 1884
3 1515 1516 1523
3 1237 1236 1238
3 606 648 649
3 999 920 1000
3 676 829 1043
3 2100 794 2142
3 227 151 1500
3 577 579 599
3 153 154 1671
3 1175 550 1927
3 1014 888 1015
3 286 285 287
3 1649 1280 2427
3 1725 204 2137
3 975 609 1106
3 1129 1317 1334
3 1109 1730 2426
3 1468 1467 1469
3 1131 1123 1399
3 1215 2235 2378
3 1976 1149 1989
3 397 395 398
3 746 743 1878
3 1041 1343 1598
3 975 1108 1879
3 741 495 915
3 1167 1754 1755
3 288 287 289
3 743 741 1878
3 1274 990 1931
3 1506 214 1507
3 857 1584 2277
3 2341 1522 2387
3 846 932 933
3 1107 1106 1110
3 584 633 1927
3 290 289 291
3 722 591 1776
3 1544 1094 1969
3 1135 270 1647
3 935 949 950
3 1920 1288 2080
3 754 1896 2108
3 1693 1199 2225
3 292 291 293
3 394 393 395
3 745 743 746
3 1002 942 1123
3 731 737 738
3 294 293 295
3 1018 1573 1925
3 296 295 297
3 298 297 299
3 321 322 325
3 317 320 321
3 314 315 317
3 312 313 314
3 310 311 312
3 308 309 310
3 1898 890 2275
3 306 307 308
3 304 305 306
3 1401 1079 1913
3 300 299 301
3 302 303 304
3 300 301 302
3 302 301 303
3 491 489 1936
3 298 299 300
3 304 303 305
3 306 305 307
3 308 307 309
3 310 309 311
3 312 311 313
3 314 313 315
3 317 315 320
3 321 320 322
3 1301 1299 1857
3 514 541 542
3 296 297 298
3 850 838 851
3 1310 1394 1895
3 294 295 296
3 590 605 606
3 292 293 294
3 651 657 658
3 290 291 292
3 1207 1208 1796
3 835 1976 1989
3 621 619 622
3 746 1878 1896
3 481 482 483
3 1026 847 1027
3 1335 1207 1870
3 1661 59 2266
3 727 729 1155
3 288 289 290
3 1058 776 1928
3 662 663 664
3 495 488 1884
3 1959 319 2522
3 943 851 944
3 1293 1291 1964
3 534 532 535
3 640 645 646
3 2280 1014 2385
3 286 287 288
3 591 575 592
3 521 519 529
3 13 14 2114
3 780 779 781
3 918 908 1850
3 837 836 838
3 209 148 1639
3 754 748 1896
3 745 746 747
3 769 671 770
3 929 1065 2197
3 1278 1058 1279
3 483 482 484
3 1564 1557 2030
3 633 807 1927
3 392 391 393
3 1057 1621 2161
3 569 580 581
3 284 285 286
3 876 992 1894
3 497 494 498
3 1630 1635 2041
3 982 1148 1918
3 612 611 613
3 700 634 1044
3 822 674 2099
3 880 1129 1929
3 432 439 654
3 1039 1291 1292
3 1164 1686 1989
3 1129 1025 1317
3 738 845 846
3 582 583 629
3 278 6 279
3 544 568 569
3 1701 1274 1931
3 747 749 751
3 1085 953 1308
3 928 930 1070
3 747 748 749
3 1421 1422 2415
3 902 903 904
3 1309 1308 1543
3 642 641 643
3 904 981 1792
3 646 784 785
3 536 543 544
3 1204 1205 1207
3 365 694 958
3 71 72 217
3 88 89 1901
3 87 88 193
3 101 102 189
3 85 86 242
3 99 100 241
3 74 75 192
3 91 92 219
3 94 95 191
3 83 84 220
3 97 98 221
3 77 78 218
3 80 81 194
3 89 90 245
3 62 63 244
3 60 61 188
3 64 65 223
3 67 68 190
3 90 91 1909
3 98 99 1905
3 61 62 1908
3 69 70 243
3 68 69 1907
3 70 71 1910
3 410 411 416
3 586 589 590
3 685 684 2029
3 390 389 391
3 1715 1150 1811
3 1924 1837 2215
3 282 283 284
3 496 497 1929
3 233 1671 1769
3 627 2185 2442
3 1567 1552 2062
3 629 630 812
3 424 453 454
3 583 562 1942
3 749 750 805
3 744 743 745
3 1897 535 1898
3 467 480 481
3 504 759 880
3 670 643 671
3 89 245 1901
3 193 88 1901
3 221 98 1905
3 245 90 1909
3 91 219 1909
3 62 244 1908
3 188 61 1908
3 99 241 1905
3 190 68 1907
3 71 217 1910
3 69 243 1907
3 243 70 1910
3 505 499 506
3 475 513 514
3 1945 1044 2071
3 1712 2125 2353
3 339 343 440
3 989 1360 1361
3 764 869 1152
3 778 777 779
3 1686 1685 1687
3 742 741 743
3 979 989 1886
3 729 731 1887
3 926 927 928
3 1305 1306 1307
3 1838 1278 2292
3 747 746 748
3 181 182 1652
3 1886 1361 2305
3 1595 1594 2486
3 597 596 598
3 928 1288 1920
3 1970 824 2156
3 1425 1424 1426
3 497 504 1929
3 748 746 1896
3 745 747 1900
3 998 858 1171
3 563 547 564
3 1155 729 1887
3 634 583 1942
3 1439 1173 1440
3 1026 1027 1086
3 79 80 1904
3 1533 1532 1536
3 1449 1426 1513
3 1106 609 1936
3 1318 1013 1319
3 1098 695 1828
3 492 494 496
3 750 748 754
3 731 738 1887
3 2415 1422 2516
3 533 562 582
3 988 1837 1924
3 1216 1215 1863
3 534 535 536
3 747 751 1900
3 1753 809 2119
3 1183 824 1970
3 740 495 741
3 80 194 1904
3 893 383 2087
3 655 605 1939
3 1884 2034 2082
3 1301 1857 1923
3 1307 1306 1708
3 752 745 1900
3 750 754 755
3 76 77 1903
3 2090 2347 2365
3 255 30 2159
3 132 254 2160
3 448 434 449
3 753 848 926
3 1075 1074 1327
3 487 488 495
3 377 381 647
3 483 484 485
3 755 754 2148
3 1584 1925 2277
3 1186 1183 1970
3 951 891 1281
3 485 484 486
3 546 527 547
3 133 134 1766
3 1786 1785 2409
3 280 281 282
3 460 449 461
3 744 745 752
3 77 218 1903
3 983 1918 2342
3 1708 1306 1810
3 1389 2069 2170
3 487 486 488
3 641 573 1954
3 507 518 519
3 502 461 503
3 519 518 1899
3 1202 1203 1204
3 821 897 1972
3 92 93 1902
3 521 529 530
3 749 748 750
3 2176 1380 2416
3 885 826 886
3 485 486 487
3 371 372 376
3 1289 1070 1871
3 1110 1657 1747
3 753 926 1943
3 700 1044 1944
3 880 881 1025
3 496 1845 2034
3 1072 1981 2393
3 462 464 2134
3 1949 1771 2359
3 1044 634 1942
3 550 584 1927
3 1390 1415 2118
3 526 503 527
3 990 845 1931
3 1009 1213 1214
3 740 742 1144
3 219 92 1902
3 727 1155 1899
3 369 370 371
3 623 690 2150
3 1279 1058 1928
3 1408 2235 2286
3 487 495 740
3 979 1886 2086
3 1305 1303 1306
3 421 412 1951
3 843 844 996
3 633 669 807
3 518 727 1899
3 826 825 1961
3 1657 1106 1936
3 1172 1012 1173
3 740 741 742
3 433 417 434
3 505 506 507
3 1333 1674 2437
3 742 743 744
3 469 458 470
3 1381 1380 1382
3 1293 1965 2515
3 1554 1559 2062
3 553 557 2499
3 1774 389 2339
3 497 498 499
3 483 485 576
3 740 1144 1935
3 773 735 834
3 366 367 369
3 1120 1118 1876
3 1515 1523 1574
3 1319 1013 2039
3 1303 1301 1923
3 457 447 458
3 561 593 594
3 1355 1424 1425
3 609 491 1936
3 204 1732 2137
3 791 1408 1642
3 995 944 1825
3 456 471 475
3 1692 1693 2239
3 580 1763 2164
3 1292 1293 2117
3 441 452 456
3 388 384 389
3 823 821 1972
3 504 880 1929
3 176 177 1680
3 1070 1071 1871
3 15 2260 2477
3 362 363 366
3 2178 2300 2449
3 1035 883 1036
3 2285 1563 2307
3 978 977 1074
3 1090 1102 2029
3 1810 1306 1923
3 496 494 497
3 1306 1303 1923
3 432 654 1915
3 934 933 935
3 356 355 365
3 398 403 404
3 635 701 843
3 1110 1106 1657
3 574 571 575
3 1025 881 1176
3 386 380 786
3 415 432 1915
3 343 347 1911
3 1070 930 1071
3 1688 1740 2231
3 1385 1216 1863
3 1696 1274 1701
3 1645 305 2317
3 880 759 881
3 926 848 927
3 1427 1423 2217
3 1339 1662 2388
3 770 774 775
3 1263 1257 1428
3 1337 1864 2412
3 349 348 355
3 2267 1721 2498
3 753 752 847
3 1375 1086 1473
3 900 982 983
3 332 335 739
3 429 428 430
3 744 752 753
3 1171 2132 2165
3 1425 1426 1449
3 987 641 1954
3 1883 1786 2409
3 427 426 428
3 928 927 930
3 1815 1105 2015
3 1206 1499 1941
3 410 406 411
3 573 540 1954
3 497 499 504
3 528 560 561
3 1933 1404 2399
3 1091 1089 1969
3 1804 1282 2073
3 504 505 759
3 963 924 1113
3 1711 1710 1712
3 881 759 1146
3 968 1199 1200
3 351 352 362
3 848 847 1026
3 521 530 531
3 1884 490 2034
3 1277 957 1966
3 1349 1350 2329
3 676 1043 2045
3 997 1159 1286
3 517 1889 1890
3 781 835 836
3 944 948 1283
3 722 1776 2026
3 507 519 520
3 2040 1352 2058
3 1276 957 1277
3 446 437 447
3 931 860 977
3 361 359 765
3 1248 1536 2534
3 512 523 528
3 408 412 413
3 1368 1369 1370
3 451 2169 2223
3 192 75 1994
3 942 756 2026
3 345 344 348
3 764 1152 1963
3 413 418 419
3 1286 1773 1774
3 770 671 774
3 275 549 2124
3 1497 1645 2461
3 1982 1472 2272
3 422 435 441
3 281 279 736
3 1134 270 1135
3 582 562 583
3 1421 2415 2454
3 485 487 1935
3 2300 1067 2480
3 1578 1576 1827
3 930 927 1061
3 1026 1086 1375
3 922 2259 2379
3 1391 1120 1876
3 1495 1494 2493
3 404 407 408
3 879 2178 2449
3 1700 1698 2036
3 607 1517 1520
3 753 847 848
3 416 411 417
3 1144 742 1943
3 775 776 777
3 754 2108 2148
3 1006 1421 1953
3 585 581 586
3 531 530 532
3 235 1709 1888
3 520 519 521
3 1180 1181 1349
3 1146 759 1967
3 708 710 1921
3 1350 2253 2329
3 436 430 437
3 504 499 505
3 643 641 987
3 336 330 517
3 811 1059 1149
3 1164 1411 1685
3 846 933 934
3 635 843 1960
3 983 982 1918
3 971 872 1096
3 1149 1163 1164
3 169 237 1724
3 1314 1315 1316
3 629 583 630
3 891 812 1916
3 462 463 464
3 487 740 1935
3 798 2084 2189
3 1814 1838 2292
3 1284 1489 1491
3 340 336 2014
3 1670 1461 2200
3 920 782 2057
3 890 2241 2275
3 510 511 512
3 278 279 280
3 839 802 840
3 1858 235 1888
3 1698 1696 2036
3 104 105 222
3 57 58 224
3 1185 1183 1186
3 588 587 623
3 638 600 1988
3 1282 1386 2245
3 811 776 1058
3 816 815 876
3 2034 1845 2082
3 761 636 1741
3 566 565 587
3 174 175 1725
3 347 350 351
3 1469 1495 1496
3 1059 1058 1278
3 811 1149 1976
3 576 485 1935
3 659 658 660
3 859 1153 1962
3 76 1903 1994
3 1821 1109 2426
3 1294 1038 1622
3 733 1833 2075
3 992 993 1980
3 1566 1561 2285
3 525 474 2041
3 464 465 510
3 343 346 347
3 360 893 1982
3 650 649 651
3 896 608 936
3 950 1006 1007
3 1508 1859 1860
3 539 538 565
3 440 343 1911
3 341 340 344
3 221 1905 1906
3 1297 1823 2142
3 759 505 1967
3 1295 1053 1296
3 473 470 474
3 1463 1465 1466
3 1143 1206 2028
3 799 685 800
3 1210 2077 2203
3 509 508 538
3 492 496 2034
3 1553 1551 2030
3 1260 1261 1269
3 1430 1040 1703
3 586 590 1940
3 838 836 868
3 1705 624 2276
3 1749 972 2501
3 742 744 1943
3 804 962 1981
3 1367 1368 2254
3 531 532 533
3 337 336 340
3 1157 1094 1544
3 536 544 1158
3 812 630 1960
3 781 779 835
3 56 57 1947
3 630 583 634
3 1405 1404 1932
3 1281 891 1916
3 339 342 343
3 1411 1163 1730
3 322 323 324
3 344 340 2091
3 1735 1734 1736
3 75 76 1994
3 430 682 2494
3 1907 243 2360
3 589 581 2164
3 694 355 2196
3 744 753 1943
3 775 774 776
3 1210 1430 2077
3 335 338 339
3 1102 1803 2029
3 1078 937 1079
3 870 655 1939
3 505 507 1967
3 357 360 1982
3 1896 1878 2101
3 326 325 328
3 934 935 957
3 585 608 895
3 333 330 336
3 1270 1272 1524
3 688 817 878
3 507 520 1967
3 1428 1257 2074
3 1818 1817 2000
3 896 937 1077
3 934 957 1111
3 329 328 330
3 1499 995 1825
3 944 851 948
3 387 445 462
3 1678 1161 2228
3 777 776 811
3 313 311 757
3 324 331 332
3 848 1026 1955
3 1312 998 1811
3 1321 1322 2037
3 1080 1079 1121
3 1105 1355 2015
3 1645 2317 2461
3 1559 1568 2062
3 332 334 335
3 501 500 508
3 321 325 326
3 394 395 397
3 322 320 323
3 1529 1530 2171
3 1137 797 1138
3 811 1058 1059
3 661 660 662
3 569 581 585
3 183 4 2303
3 5 160 2304
3 1340 1138 1341
3 1660 1626 2185
3 1743 1464 2347
3 1026 1375 1955
3 1149 1059 1163
3 1736 1625 2194
3 1322 1667 2434
3 311 309 1959
3 309 307 319
3 894 700 1944
3 533 534 562
3 1276 1277 1366
3 2190 1706 2408
3 533 532 534
3 1214 1213 1410
3 1164 1163 1411
3 843 701 844
3 1009 1214 2055
3 234 1589 1788
3 2000 1817 2174
3 317 321 2050
3 328 325 945
3 392 393 394
3 588 623 2089
3 1162 958 1681
3 1078 1080 1136
3 927 848 1955
3 1496 1497 1498
3 390 391 392
3 1061 927 1955
3 1283 948 1284
3 635 634 700
3 1244 1251 1252
3 218 78 2093
3 756 722 2026
3 1071 1784 2419
3 1218 1505 2185
3 1284 948 1285
3 1489 1285 1490
3 918 1850 1851
3 684 1090 2029
3 1759 572 2537
3 1691 1690 2446
3 1979 1158 2071
3 606 649 650
3 2045 1043 2046
3 103 104 2025
3 630 634 635
3 360 383 893
3 406 386 2043
3 1909 219 2023
3 1111 957 1276
3 1925 1437 2277
3 1536 2268 2340
3 854 852 1133
3 233 153 1671
3 651 658 659
3 2099 1787 2368
3 1033 1032 1130
3 1015 1372 1373
3 1412 942 2026
3 253 264 1441
3 1531 1534 2332
3 701 700 894
3 106 107 1990
3 2048 1961 2455
3 276 274 2099
3 738 846 1968
3 1325 925 1326
3 896 936 937
3 585 586 608
3 1450 854 1973
3 1361 1360 1362
3 1045 1668 2512
3 303 301 444
3 996 844 997
3 79 1904 2093
3 1989 1686 2095
3 1928 774 2033
3 1942 562 1979
3 287 285 316
3 935 950 1966
3 1466 1467 1468
3 1242 1243 1244
3 1887 738 1968
3 2115 210 2477
3 878 929 1083
3 1326 1736 2194
3 886 888 1014
3 895 608 896
3 289 287 1978
3 821 822 897
3 936 608 1940
3 613 614 615
3 51 52 1996
3 417 411 1160
3 1149 1164 1989
3 386 786 2043
3 285 283 1971
3 1309 1543 2147
3 375 373 2053
3 371 370 372
3 779 777 1976
3 1286 1159 1773
3 2177 887 2376
3 1560 1557 1564
3 1403 1882 2399
3 1727 1757 2246
3 279 6 2049
3 1619 1438 2438
3 291 289 758
3 1781 1915 2294
3 425 401 426
3 349 355 356
3 66 67 2118
3 474 548 2041
3 1686 1687 2007
3 1262 1456 1457
3 1123 942 1412
3 1916 812 1960
3 1355 1425 2015
3 735 733 2075
3 1861 879 2449
3 1284 1285 1489
3 490 492 2034
3 366 363 367
3 980 578 2051
3 906 904 1792
3 534 536 1979
3 842 924 963
3 2051 578 2083
3 1077 937 1078
3 1102 1104 1803
3 894 1944 1946
3 398 404 2060
3 1007 1006 1953
3 369 367 370
3 348 354 2196
3 1078 1079 1080
3 1378 1380 1381
3 1568 1365 2439
3 608 586 1940
3 598 610 611
3 760 636 761
3 869 1137 1351
3 671 643 2033
3 1661 1345 2267
3 938 914 1057
3 783 761 914
3 576 1835 2144
3 388 389 390
3 297 295 318
3 454 453 500
3 1906 1728 2246
3 1439 1440 2468
3 1159 1013 1318
3 764 797 869
3 236 143 1717
3 782 644 2057
3 592 595 596
3 1542 2332 2443
3 1521 1311 2147
3 345 348 349
3 1304 1452 2205
3 1644 1907 2360
3 2146 1125 2149
3 997 844 1013
3 628 375 2053
3 299 297 1984
3 957 935 1966
3 664 685 799
3 301 299 1975
3 362 352 363
3 777 811 1976
3 1942 1979 2071
3 1001 920 2057
3 312 314 768
3 1552 1554 2062
3 615 616 617
3 357 1982 2076
3 800 802 839
3 774 671 2033
3 1749 1169 2105
3 365 958 1162
3 617 618 619
3 283 281 1938
3 1351 1772 2414
3 1525 1765 2489
3 846 934 1968
3 635 700 701
3 555 554 577
3 536 1158 1979
3 1101 1404 1405
3 630 635 1960
3 1811 1150 2089
3 2113 1666 2249
3 172 173 1847
3 107 108 195
3 54 55 196
3 1191 1768 2023
3 1455 1302 2205
3 115 116 2017
3 1387 1333 2437
3 659 661 764
3 1080 1121 1188
3 50 51 2011
3 411 406 2043
3 295 293 1983
3 643 987 2033
3 707 706 708
3 129 130 261
3 32 33 260
3 2159 260 2265
3 449 434 567
3 1314 1029 1315
3 917 796 940
3 378 375 628
3 108 109 1991
3 2370 1759 2537
3 341 344 345
3 997 1013 1159
3 544 569 1993
3 950 1007 1966
3 477 474 525
3 351 350 352
3 1696 1701 2036
3 334 331 803
3 1137 1138 1340
3 562 534 1979
3 109 110 246
3 52 53 247
3 1368 1316 1369
3 659 660 661
3 33 34 2002
3 123 124 2005
3 835 779 1976
3 851 838 1992
3 1530 1533 2172
3 1668 1045 2348
3 1162 1681 1706
3 342 338 468
3 298 300 358
3 765 359 2065
3 725 826 885
3 35 36 2003
3 46 47 2019
3 38 39 2006
3 336 517 2014
3 934 1111 1968
3 116 117 2018
3 650 651 1963
3 223 1711 2162
3 640 594 645
3 1333 1330 2192
3 104 222 2025
3 1603 922 2379
3 963 1113 1115
3 2084 1193 2189
3 564 570 571
3 36 37 2004
3 57 224 1947
3 1542 1601 2269
3 122 123 2012
3 1000 920 1001
3 127 128 240
3 34 35 239
3 383 387 2087
3 1161 1107 2228
3 1781 2294 2419
3 1201 1200 1202
3 124 125 225
3 37 38 226
3 1340 1341 1342
3 869 797 1137
3 839 840 1008
3 1158 544 1993
3 1326 925 1894
3 352 350 353
3 326 329 954
3 1864 2344 2412
3 836 835 2095
3 1051 1053 1295
3 1031 720 1032
3 503 461 787
3 1407 1112 2044
3 661 662 2058
3 838 868 1992
3 112 113 197
3 49 50 198
3 1359 980 1413
3 121 122 211
3 40 41 212
3 48 49 2010
3 113 114 2009
3 1741 673 2131
3 41 42 2020
3 120 121 2013
3 1409 2035 2097
3 1511 1374 2506
3 114 115 248
3 47 48 249
3 42 43 250
3 119 120 251
3 171 6 201
3 6 172 203
3 585 895 1993
3 43 44 2024
3 118 119 2021
3 905 904 906
3 764 661 797
3 337 340 341
3 1413 980 2051
3 117 118 205
3 44 45 206
3 347 346 350
3 1420 1076 1525
3 324 323 331
3 434 417 2031
3 965 967 969
3 716 719 788
3 1260 1254 1261
3 2053 373 2103
3 2069 2068 2170
3 326 328 329
3 1706 996 2408
3 273 275 2124
3 969 1011 1012
3 590 606 2001
3 1718 1611 2280
3 1914 1940 2001
3 915 1884 2082
3 329 330 333
3 620 859 955
3 2168 1409 2305
3 296 298 1997
3 915 2082 2101
3 339 338 342
3 1218 994 1505
3 333 336 337
3 266 263 1742
3 1873 768 2127
3 244 63 2162
3 64 223 2162
3 343 342 346
3 914 761 2258
3 310 312 1987
3 799 800 2055
3 302 304 763
3 1559 1566 1568
3 1598 1343 2114
3 592 575 595
3 341 345 794
3 189 1842 2220
3 767 815 816
3 1003 912 1004
3 839 1008 1009
3 1263 1428 1429
3 564 547 570
3 1845 1334 2082
3 332 331 334
3 901 866 902
3 651 659 1963
3 1009 1112 1213
3 335 334 338
3 569 585 1993
3 1665 1336 2299
3 1945 2071 2153
3 863 862 864
3 907 906 908
3 1849 1486 1930
3 1935 1144 2080
3 967 966 968
3 809 900 2119
3 865 864 866
3 835 1989 2095
3 190 1907 2417
3 333 337 522
3 1110 1748 2228
3 1193 1194 1195
3 94 191 2166
3 473 1854 2453
3 1769 1134 2369
3 948 851 1992
3 237 170 2216
3 420 419 422
3 1448 1447 2364
3 483 576 2144
3 721 1919 2032
3 885 886 1891
3 613 611 614
3 886 1014 1891
3 1160 411 2043
3 1918 1283 2342
3 1651 206 2485
3 1242 1240 1243
3 598 596 610
3 1295 1296 1459
3 1185 1186 1948
3 1425 1449 2070
3 294 296 762
3 1285 948 1992
3 925 876 1894
3 712 714 789
3 603 1668 2398
3 1940 590 2001
3 721 570 964
3 834 735 2075
3 1144 1920 2080
3 2263 1635 2511
3 1204 1207 1335
3 2235 1408 2378
3 965 964 966
3 1990 1435 2218
3 397 398 2060
3 1138 797 2058
3 1787 1141 2368
3 2068 820 2170
3 360 359 361
3 387 462 2087
3 1524 1272 1934
3 819 698 820
3 1197 1196 1198
3 1662 2126 2388
3 78 79 2093
3 1150 588 2089
3 1269 1261 1270
3 1878 915 2101
3 451 467 2169
3 2262 1387 2437
3 1009 1008 1112
3 757 311 1959
3 897 898 1139
3 1854 473 2483
3 2015 1425 2070
3 2082 1334 2101
3 963 1115 1174
3 1047 1049 1287
3 1194 423 1196
3 321 326 2050
3 417 1160 2031
3 854 1133 1973
3 1201 1212 1348
3 705 1586 2163
3 309 319 1959
3 1353 1390 2417
3 427 428 429
3 357 356 359
3 606 650 2001
3 549 1280 2124
3 1213 1112 1407
3 256 2303 2535
3 356 365 2065
3 662 664 2040
3 701 894 2039
3 1325 1371 2451
3 666 626 667
3 1902 93 2166
3 1236 1234 1246
3 800 839 2055
3 1869 1812 2252
3 1197 1364 1365
3 576 1935 2080
3 404 408 798
3 1678 807 2529
3 1560 1564 2016
3 1319 2039 2122
3 425 426 427
3 349 356 357
3 308 310 327
3 1716 622 2484
3 1801 82 2289
3 1768 1949 2420
3 2006 1926 2507
3 351 364 2407
3 420 423 1193
3 659 764 1963
3 292 294 2038
3 840 842 2027
3 736 279 2049
3 372 373 374
3 461 449 2052
3 2189 1195 2285
3 1174 1115 1398
3 367 363 961
3 909 908 918
3 1738 247 2402
3 1007 1761 2308
3 288 290 2135
3 422 441 2035
3 623 624 690
3 537 525 545
3 1953 1421 2454
3 1887 1968 2123
3 861 691 862
3 654 439 2223
3 1136 1080 2054
3 1312 1811 2089
3 575 571 2032
3 383 361 384
3 968 1200 1201
3 797 661 2058
3 1423 1354 2381
3 1180 1178 1181
3 1513 1515 2180
3 72 73 2217
3 462 445 463
3 12 13 2136
3 457 458 469
3 542 554 555
3 599 636 760
3 254 133 1766
3 1130 1397 1937
3 404 798 2060
3 1044 1942 2071
3 690 691 860
3 357 359 360
3 1008 2027 2152
3 1232 1230 1255
3 372 370 373
3 850 943 2125
3 1457 1456 1492
3 1952 324 2282
3 155 2 2356
3 0 7 2357
3 2017 1379 2288
3 918 1851 2008
3 195 1991 2517
3 2090 803 2347
3 1244 1243 1251
3 290 292 368
3 1432 1082 2214
3 1008 840 2027
3 1743 803 2296
3 1013 844 2039
3 365 1162 2065
3 1594 1315 2184
3 387 384 388
3 1508 1860 2311
3 547 527 2056
3 2005 225 2322
3 314 317 2127
3 1853 556 2327
3 201 6 278
3 1907 1644 2417
3 1896 2101 2108
3 646 645 784
3 538 508 558
3 374 375 377
3 1630 1634 1635
3 1579 1999 2352
3 1647 1648 1849
3 1313 1314 2121
3 1179 1433 2042
3 844 701 2039
3 1252 1251 2098
3 816 876 925
3 1922 1228 2281
3 392 394 396
3 1915 654 2294
3 1652 1653 2487
3 429 430 436
3 456 475 476
3 1605 1392 2510
3 126 1882 2284
3 1784 1780 2419
3 500 453 960
3 377 378 381
3 2178 1587 2300
3 1222 1219 1626
3 413 419 420
3 381 382 400
3 2169 1836 2223
3 1906 1905 2129
3 616 614 793
3 1170 1419 2139
3 101 189 2220
3 241 100 2220
3 1968 1111 2123
3 567 434 2031
3 615 614 616
3 1032 720 1921
3 682 428 2138
3 469 470 473
3 339 440 2261
3 1501 238 2226
3 1154 1431 1653
3 446 447 457
3 1251 1243 1257
3 2229 315 2495
3 1201 1202 1212
3 785 784 879
3 464 463 465
3 66 2118 2395
3 324 332 2282
3 286 288 771
3 17 199 2081
3 571 570 721
3 611 610 2092
3 617 616 618
3 1542 1531 2332
3 400 401 424
3 1325 1326 1371
3 1140 1406 1702
3 1323 443 2302
3 1926 1573 2507
3 436 437 446
3 1262 1457 2098
3 67 190 2118
3 1518 1861 2449
3 989 1359 1360
3 1063 1082 1154
3 1757 96 2526
3 969 967 1011
3 868 836 2095
3 1215 1035 2235
3 96 1757 2309
3 261 2160 2380
3 1381 1382 2126
3 1468 1469 2182
3 1334 1317 2108
3 861 863 1064
3 1270 1261 1271
3 360 361 383
3 287 316 1978
3 1856 192 2367
3 1905 241 2129
3 1615 1809 2425
3 528 523 560
3 979 980 989
3 662 2040 2058
3 721 964 965
3 170 171 2216
3 664 799 2040
3 512 511 523
3 1201 1348 2107
3 620 618 858
3 758 289 1978
3 859 858 998
3 424 425 453
3 1616 1615 2193
3 444 301 1975
3 561 560 593
3 965 966 967
3 1798 376 2430
3 340 2014 2091
3 510 465 511
3 107 195 1990
3 1080 1188 2054
3 1153 998 1312
3 1226 1224 1249
3 1012 1011 1363
3 902 904 905
3 842 963 2027
3 268 270 1134
3 865 901 1125
3 2077 558 2102
3 282 284 442
3 1977 1679 2253
3 1496 1498 2047
3 284 286 2063
3 281 736 1938
3 2132 793 2165
3 1674 215 2437
3 2078 1855 2411
3 839 1009 2055
3 1182 824 1183
3 1168 947 1169
3 1289 1871 2242
3 316 285 1971
3 1270 1271 1272
3 1755 1793 2264
3 51 1996 2011
3 383 384 387
3 1146 1924 2215
3 1279 1928 2202
3 619 618 620
3 1194 1196 1197
3 555 578 979
3 1937 1639 2528
3 1262 1257 1263
3 389 384 2339
3 2251 1338 2464
3 1155 1887 2123
3 1151 1937 2528
3 465 463 828
3 1318 1319 2116
3 1687 1688 2231
3 326 954 2050
3 297 318 1984
3 1308 953 2255
3 1846 2056 2198
3 320 315 2229
3 1254 1252 2059
3 760 761 783
3 951 1281 2255
3 1459 1296 2094
3 2288 1638 2470
3 1975 299 1984
3 52 247 1996
3 468 338 2090
3 2140 1511 2506
3 1125 1126 1192
3 593 824 1182
3 720 708 1921
3 704 706 707
3 623 587 624
3 2044 1112 2152
3 1393 1169 1749
3 900 983 2119
3 783 914 938
3 255 2265 2489
3 2039 894 2122
3 317 2050 2127
3 1866 1867 2513
3 374 373 375
3 429 436 455
3 387 388 445
3 1193 423 1194
3 555 577 578
3 1074 977 1187
3 449 567 2052
3 1197 1198 1364
3 2154 1595 2486
3 1486 1849 2173
3 318 295 1983
3 939 1016 1844
3 131 132 2160
3 30 31 2159
3 881 1146 2215
3 1294 1868 2238
3 1300 1455 2314
3 1365 1364 1912
3 783 938 939
3 2061 1735 2441
3 551 545 601
3 2194 216 2536
3 1251 1257 1262
3 888 887 2177
3 1364 1198 2048
3 1498 1682 2340
3 1589 1590 2501
3 60 188 2266
3 1401 1913 2324
3 195 108 1991
3 420 422 423
3 1675 1470 2474
3 258 1673 2183
3 2161 1619 2438
3 1296 1472 2094
3 1808 1910 2381
3 334 803 2090
3 1490 1285 2232
3 523 511 524
3 1240 1238 2074
3 1184 1183 1185
3 39 40 2151
3 473 474 477
3 1461 1463 2200
3 2072 353 2073
3 861 862 863
3 1206 1941 2401
3 958 1575 2287
3 614 611 2092
3 110 111 2140
3 1136 2054 2110
3 645 594 2133
3 260 33 2002
3 673 767 2131
3 989 980 1359
3 1741 2131 2258
3 1317 1875 2148
3 894 1946 2122
3 863 864 865
3 787 461 2052
3 857 2277 2386
3 109 246 1991
3 2017 116 2018
3 1182 1183 1184
3 377 375 378
3 816 925 1324
3 865 866 901
3 1262 1263 1456
3 359 356 2065
3 2129 241 2472
3 283 1938 1971
3 1458 1210 2203
3 1076 1003 2145
3 196 1738 2402
3 1033 1130 1151
3 1188 1121 2106
3 1140 1702 2096
3 549 687 1280
3 1694 1621 2191
3 861 1064 2112
3 1548 1549 2129
3 1784 1071 2462
3 714 716 2066
3 1961 825 2455
3 1447 1211 2250
3 979 578 980
3 905 907 1209
3 381 378 382
3 457 469 552
3 595 575 2032
3 408 413 2084
3 481 483 2144
3 1745 1349 2293
3 1980 1405 2441
3 198 50 2011
3 248 115 2017
3 912 819 2068
3 620 858 859
3 707 708 720
3 821 674 822
3 514 542 2086
3 400 382 401
3 123 2005 2012
3 1772 1351 2374
3 34 239 2002
3 768 314 2127
3 2003 36 2004
3 280 282 2079
3 124 225 2005
3 596 595 2130
3 593 560 824
3 1504 1502 2519
3 239 35 2003
3 1311 1309 2147
3 1318 1877 2240
3 1860 1432 2311
3 1416 1715 2330
3 859 998 1153
3 352 353 2072
3 312 768 1987
3 2027 1174 2152
3 226 38 2006
3 1827 1024 2117
3 1710 1391 2295
3 690 624 691
3 37 226 2004
3 1153 1312 1885
3 853 855 2186
3 1892 242 2373
3 1967 520 2174
3 939 938 1016
3 47 249 2019
3 388 390 2078
3 1991 2139 2517
3 905 906 907
3 571 721 2032
3 1196 423 2035
3 1324 925 1325
3 1151 1130 1937
3 363 352 2072
3 345 349 2076
3 1031 1032 1033
3 214 179 1859
3 211 122 2012
3 602 601 652
3 117 205 2018
3 710 712 2067
3 1602 187 2357
3 520 2000 2174
3 85 242 2335
3 220 84 2335
3 381 400 2113
3 1586 1587 2435
3 424 401 425
3 963 1174 2027
3 860 691 861
3 610 596 2130
3 1958 2078 2431
3 570 547 2056
3 237 2216 2354
3 1211 1692 2219
3 298 358 1997
3 909 947 1041
3 441 456 2097
3 1135 1647 1849
3 1601 1542 2443
3 197 113 2009
3 49 198 2010
3 1911 347 2407
3 1729 191 2309
3 212 41 2020
3 121 211 2013
3 222 105 2218
3 1125 901 1126
3 114 248 2009
3 249 48 2010
3 42 250 2020
3 251 120 2013
3 233 1769 2369
3 1870 647 2113
3 794 345 2076
3 250 43 2024
3 119 251 2021
3 901 902 2141
3 964 570 2056
3 739 335 2261
3 2108 1317 2148
3 577 599 2083
3 205 118 2021
3 44 206 2024
3 1247 1241 2323
3 1894 992 2244
3 6 203 2049
3 1642 1678 2529
3 1417 1873 2333
3 1422 2023 2516
3 341 794 2100
3 73 74 2361
3 1234 1232 2088
3 1261 1254 2059
3 896 1077 2257
3 1921 710 2067
3 125 126 2284
3 220 1699 2289
3 159 5 2304
3 4 184 2303
3 2059 1252 2098
3 1003 1004 2145
3 2328 1325 2451
3 1486 227 1500
3 63 64 2162
3 2081 1192 2260
3 508 500 2102
3 667 1872 2318
3 338 334 2090
3 423 422 2035
3 1192 1126 1471
3 907 908 909
3 1330 1328 2192
3 1972 897 2500
3 2443 316 2514
3 242 86 2373
3 87 193 2373
3 420 1193 2084
3 1473 1086 2358
3 1987 768 2037
3 522 337 2100
3 627 1660 2185
3 1793 446 2264
3 1405 2061 2441
3 1502 1217 2302
3 171 201 2216
3 1158 1993 2153
3 1197 1365 2120
3 1712 1710 2295
3 1121 1401 2414
3 93 94 2166
3 653 652 688
3 622 1716 2452
3 1345 1720 2267
3 477 537 556
3 128 129 2181
3 2331 1295 2458
3 784 645 874
3 1269 1270 2199
3 189 102 2355
3 1041 1168 1343
3 246 110 2140
3 477 525 537
3 755 1895 2371
3 1947 1723 2313
3 1134 1135 2369
3 223 65 2395
3 968 1201 2107
3 1577 1578 2325
3 210 15 2477
3 961 363 2072
3 1581 1579 2352
3 349 357 2076
3 337 341 2100
3 305 303 2317
3 370 367 2103
3 762 296 1997
3 581 580 2164
3 1278 1838 2372
3 1548 2129 2472
3 594 593 2133
3 2021 251 2022
3 2047 1247 2182
3 967 968 2107
3 1169 947 2008
3 481 2144 2169
3 793 614 2092
3 1910 217 2381
3 1251 1262 2098
3 716 788 2066
3 2101 1334 2108
3 2006 39 2151
3 1603 2379 2508
3 1926 2006 2151
3 96 97 2526
3 750 755 2371
3 789 714 2066
3 909 918 947
3 1993 895 2153
3 106 1990 2218
3 1243 1240 2074
3 832 986 1189
3 1283 1284 2342
3 2297 195 2517
3 1043 829 2326
3 767 816 2131
3 602 653 676
3 1004 912 2068
3 2086 1886 2224
3 1124 2177 2467
3 426 401 2531
3 707 720 1030
3 1000 1001 2184
3 1315 1029 2184
3 467 481 2169
3 541 513 2256
3 647 381 2113
3 225 2284 2510
3 2 156 2356
3 187 0 2357
3 40 212 2151
3 2245 1386 2383
3 676 677 829
3 1004 2068 2069
3 1860 232 2487
3 1031 1033 1034
3 829 830 972
3 996 997 2408
3 1195 1194 2120
3 987 1869 2202
3 1410 1213 2222
3 819 820 2068
3 1485 1486 2173
3 1564 2030 2155
3 807 669 2529
3 129 261 2181
3 1525 1076 2145
3 578 577 2083
3 327 310 1987
3 1083 929 2197
3 2131 1324 2258
3 798 408 2084
3 1838 696 2426
3 1486 1500 1930
3 1946 1944 2291
3 2257 1077 2291
3 1512 1661 2266
3 445 388 2078
3 1192 1471 2260
3 2118 1415 2395
3 1466 1468 2158
3 830 677 831
3 211 2012 2251
3 652 601 2442
3 537 545 551
3 558 508 2102
3 198 2011 2128
3 1718 2280 2385
3 500 960 2102
3 1168 1169 1393
3 1127 971 2496
3 95 96 2309
3 2030 1565 2155
3 1919 1172 2273
3 977 860 2112
3 240 128 2181
3 294 762 2038
3 1800 1799 2195
3 712 789 2067
3 972 1749 2326
3 472 1683 2212
3 874 645 2133
3 551 2045 2201
3 2105 1043 2326
3 1957 1212 2301
3 1514 1856 2367
3 565 538 2167
3 373 370 2103
3 355 348 2196
3 1934 1272 2138
3 1934 426 2531
3 1881 1400 2481
3 2046 1851 2327
3 367 961 2103
3 1963 1152 2206
3 201 278 443
3 3 131 2444
3 31 1 2445
3 2035 441 2097
3 503 787 2198
3 1135 1849 1930
3 1534 1983 2306
3 2089 623 2150
3 687 704 2109
3 869 1351 2363
3 1302 1304 2205
3 955 1716 2484
3 1030 720 1031
3 1159 1318 2240
3 1228 1226 2281
3 947 918 2008
3 413 420 2084
3 785 879 2532
3 1041 947 1168
3 1468 2182 2323
3 1246 1234 2088
3 1730 1163 2372
3 542 555 2086
3 1599 631 2312
3 1146 1967 2174
3 1078 1136 2343
3 1515 1574 2180
3 2336 885 2469
3 1257 1243 2074
3 1347 1346 2279
3 2001 650 2206
3 1480 1601 2514
3 1029 1000 2184
3 1956 788 2336
3 1271 1261 2059
3 130 3 2444
3 1 32 2445
3 1570 1507 2197
3 1232 1255 2088
3 791 1642 2529
3 1601 1479 2269
3 1361 1362 2168
3 1634 1922 2281
3 765 2065 2190
3 2071 1158 2153
3 1699 1801 2289
3 832 831 833
3 1864 346 2344
3 456 476 2097
3 1855 828 2411
3 2065 1162 2190
3 1125 1192 2149
3 599 760 2083
3 361 765 2339
3 1731 2123 2241
3 1349 1181 1350
3 1443 1275 2251
3 1819 524 2429
3 1021 1045 2512
3 858 618 2132
3 1999 358 2338
3 368 292 2038
3 290 368 2135
3 803 331 2296
3 1112 1008 2152
3 56 1947 2313
3 555 979 2086
3 1469 1496 2182
3 1011 967 2107
3 248 2017 2288
3 1809 789 2425
3 960 453 2221
3 538 558 2167
3 1858 1187 2248
3 2246 1757 2526
3 902 905 2141
3 1851 1853 2327
3 1224 1222 2111
3 771 288 2135
3 1945 2153 2257
3 1420 1525 2489
3 1399 1123 2393
3 103 2025 2355
3 897 822 898
3 1861 940 2532
3 865 1125 2146
3 1675 2474 2522
3 1573 2157 2507
3 1632 1631 2382
3 551 601 602
3 527 503 2198
3 1708 805 2337
3 1059 1278 2372
3 2056 527 2198
3 860 861 2112
3 1668 2348 2398
3 255 2159 2265
3 1541 1542 2269
3 1428 2074 2227
3 1582 1583 2321
3 389 1774 2503
3 2004 226 2157
3 1777 397 2405
3 1368 1436 2254
3 1061 2409 2462
3 1071 930 2462
3 1126 901 2141
3 1194 1197 2120
3 1452 1952 2282
3 2116 1319 2482
3 105 106 2218
3 1981 1399 2393
3 2119 983 2143
3 444 1682 2461
3 2173 1648 2463
3 616 793 2132
3 1791 1190 2334
3 1826 1728 2259
3 602 652 653
3 1834 1292 2428
3 556 2201 2327
3 1014 1015 2385
3 1995 1287 2331
3 1193 1195 2189
3 816 1324 2131
3 879 1861 2532
3 593 1182 2133
3 1402 266 1742
3 2216 1323 2354
3 1660 1636 2502
3 620 955 2484
3 1162 1706 2190
3 1870 2113 2249
3 204 1680 1732
3 1909 2023 2420
3 217 72 2217
3 376 372 2430
3 905 1209 2141
3 1378 1381 2283
3 1236 1246 2227
3 286 771 2063
3 1635 2263 2502
3 100 101 2220
3 1139 898 1140
3 2114 1343 2136
3 442 284 2063
3 1772 2106 2414
3 1985 1755 2533
3 2192 1328 2315
3 1064 863 2146
3 1631 1637 2459
3 736 2049 2523
3 221 1906 2246
3 318 1983 2171
3 1496 2047 2182
3 1374 2139 2506
3 196 55 2313
3 2087 462 2134
3 676 653 677
3 2304 257 2491
3 1401 2324 2363
3 829 677 830
3 654 2223 2242
3 1187 977 2112
3 1463 1466 2200
3 2023 219 2516
3 1176 881 2215
3 513 471 2290
3 1812 459 2252
3 1386 1269 2199
3 291 758 2306
3 618 616 2132
3 278 280 2210
3 83 220 2289
3 82 83 2289
3 938 1057 2161
3 1189 986 1190
3 788 719 2336
3 1914 2001 2206
3 232 181 1652
3 1567 2062 2490
3 313 757 2495
3 622 619 2484
3 688 878 1320
3 1222 1626 2111
3 282 442 2079
3 1169 2008 2105
3 1966 1007 2308
3 2040 799 2237
3 1744 2229 2495
3 986 833 1063
3 2284 1605 2510
3 887 1961 2376
3 215 1624 2262
3 830 831 832
3 476 475 2224
3 439 451 2223
3 1932 1933 2380
3 2227 1246 2366
3 1212 1202 2301
3 1107 1110 2228
3 249 2010 2299
3 1983 293 2306
3 2055 1214 2237
3 1438 1372 2478
3 824 560 2156
3 2320 1866 2513
3 1351 1137 2374
3 868 2007 2232
3 2063 771 2064
3 1507 214 1508
3 1728 1727 2246
3 1045 1047 2348
3 1139 1140 2096
3 1648 1649 2463
3 1502 2302 2519
3 704 707 2109
3 2343 1136 2396
3 650 1963 2206
3 2153 895 2257
3 396 1958 2431
3 1379 1377 2288
3 2115 1471 2319
3 2033 987 2202
3 2239 1693 2518
3 2025 1488 2355
3 1209 2115 2319
3 523 524 2156
3 783 939 2243
3 376 1798 2497
3 2066 788 2193
3 1984 318 2172
3 425 427 2221
3 203 172 1847
3 446 457 2264
3 1312 2089 2150
3 2138 1272 2211
3 897 1139 2274
3 828 1819 2429
3 1249 1224 2111
3 666 667 2318
3 1371 1326 2194
3 2433 1499 2475
3 1272 1271 2211
3 1367 2254 2479
3 1386 2053 2383
3 2074 1238 2227
3 755 2148 2320
3 2117 1604 2428
3 475 514 2224
3 228 2187 2457
3 1868 1504 2520
3 1626 1218 2185
3 2123 1111 2241
3 1287 1049 2331
3 1280 687 2109
3 459 1814 2292
3 54 196 2402
3 863 865 2146
3 204 176 1680
3 514 2086 2224
3 1646 603 2398
3 112 197 2346
3 358 300 2338
3 1140 898 1141
3 1204 1335 2301
3 1016 2161 2438
3 909 1041 2175
3 1681 2448 2492
3 2252 459 2292
3 1992 868 2232
3 1035 1036 2235
3 1051 1295 2331
3 1836 1289 2242
3 1508 214 1859
3 247 53 2402
3 1016 938 2161
3 1408 856 2378
3 1466 2158 2200
3 725 885 2336
3 855 1450 2421
3 2023 1768 2420
3 1238 1236 2227
3 1679 202 2253
3 2107 1348 2233
3 1653 1431 2487
3 1946 2291 2343
3 2253 202 2329
3 1885 1312 2150
3 378 628 2390
3 2195 1383 2432
3 1520 1519 2480
3 1532 1733 2534
3 308 327 2278
3 953 951 2255
3 1213 1407 2222
3 1561 1563 2285
3 302 763 2338
3 1928 2033 2202
3 763 304 2345
3 832 833 986
3 1352 2040 2237
3 247 1881 2481
3 560 523 2156
3 335 339 2261
3 346 342 2344
3 201 443 1323
3 2301 1335 2466
3 323 320 2229
3 1136 2110 2396
3 1139 1977 2274
3 1809 1615 2423
3 1707 1791 2334
3 46 2019 2485
3 2064 1294 2238
3 1950 197 2404
3 2021 2022 2176
3 1949 245 2420
3 2044 2152 2207
3 1063 1154 1707
3 1012 1363 2406
3 280 2079 2210
3 2237 1214 2351
3 820 698 2318
3 1140 1141 1406
3 205 2021 2176
3 2043 786 2310
3 2145 1004 2446
3 707 1030 2109
3 1406 2460 2473
3 2137 1268 2226
3 16 2081 2260
3 567 2031 2219
3 2112 1064 2248
3 206 45 2485
3 2347 1462 2365
3 1650 1962 2362
3 453 425 2221
3 1209 907 2175
3 1111 1276 2241
3 2448 1145 2492
3 2051 2083 2243
3 59 60 2266
3 1402 1742 2530
3 831 677 2209
3 624 587 2276
3 238 174 1725
3 1011 2107 2233
3 468 2365 2412
3 2337 805 2371
3 254 1932 2380
3 1174 1398 2207
3 2140 111 2346
3 1381 2186 2283
3 1987 2037 2188
3 1740 559 2456
3 1773 391 2503
3 1335 1870 2249
3 1945 2257 2291
3 828 463 2411
3 1246 2088 2208
3 2060 798 2307
3 1773 1159 2240
3 1187 2112 2248
3 1352 2237 2351
3 2037 1322 2188
3 1941 1499 2433
3 2322 225 2510
3 1031 1034 2236
3 327 2188 2321
3 595 2032 2273
3 1464 1462 2347
3 1285 1992 2232
3 799 2055 2237
3 443 278 2210
3 784 874 2178
3 392 396 2431
3 191 95 2309
3 879 784 2178
3 524 511 2429
3 2128 2011 2270
3 895 896 2257
3 2206 1152 2324
3 318 2171 2172
3 2259 1549 2379
3 1214 1410 2351
3 306 308 2278
3 2022 251 2247
3 1757 1729 2309
3 1283 1918 2524
3 996 1706 2492
3 557 2044 2207
3 1798 1448 2364
3 1447 2250 2310
3 559 1750 2403
3 1363 1011 2233
3 1343 1168 2187
3 1407 2044 2256
3 1462 1460 2365
3 1995 2331 2458
3 327 1987 2188
3 2160 254 2380
3 1681 958 2287
3 2031 1160 2250
3 1600 689 2413
3 2219 1692 2239
3 1494 1675 2522
3 1281 1916 2448
3 907 909 2175
3 565 2167 2276
3 2241 1276 2275
3 1978 316 2443
3 2151 212 2350
3 203 1847 2104
3 2049 1481 2523
3 1961 1362 2376
3 2187 1393 2457
3 940 796 2532
3 2293 1349 2329
3 572 1897 2537
3 332 739 2282
3 2052 567 2239
3 1437 1370 2277
3 567 2219 2239
3 667 626 2452
3 1914 2206 2324
3 2243 939 2392
3 2136 1343 2187
3 257 1654 2530
3 1376 1378 2283
3 2076 1982 2272
3 2083 760 2243
3 1944 1945 2291
3 1771 1839 2359
3 1404 1403 2399
3 1875 1866 2320
3 1460 1337 2412
3 760 783 2243
3 1276 1366 2275
3 1428 2227 2366
3 1882 1605 2284
3 1739 1429 2459
3 2321 2188 2434
3 1328 1327 2315
3 798 2189 2307
3 2152 1174 2207
3 2182 1247 2323
3 1516 1514 2367
3 293 291 2306
3 556 537 2201
3 1298 1300 2314
3 1400 1399 2316
3 1649 2236 2463
3 833 831 2424
3 2127 2050 2333
3 1057 914 2328
3 1839 193 2359
3 761 1741 2258
3 1186 1970 2422
3 1429 2366 2382
3 2211 1271 2271
3 1733 1248 2534
3 13 2114 2136
3 2078 390 2431
3 1533 1536 2340
3 1690 2145 2446
3 1277 2308 2370
3 1168 1393 2187
3 1597 2047 2268
3 587 565 2276
3 1908 244 2401
3 225 125 2284
3 610 2130 2468
3 1749 2105 2326
3 1913 1914 2324
3 2366 2208 2382
3 1391 1876 2295
3 457 552 2264
3 653 688 2209
3 1601 2443 2514
3 682 2138 2211
3 992 1980 2244
3 55 56 2313
3 1645 1495 2493
3 473 477 2483
3 202 1724 2329
3 465 828 2429
3 1277 1966 2308
3 1416 2330 2406
3 1912 1364 2455
3 1716 1483 2375
3 2019 1651 2485
3 1725 2137 2226
3 201 1323 2216
3 878 1083 2213
3 2072 2073 2245
3 1563 1777 2405
3 244 2028 2401
3 2016 1564 2422
3 1682 1497 2461
3 1962 1153 2362
3 1298 2314 2358
3 1384 1385 2391
3 688 1320 2209
3 1587 2179 2435
3 786 380 2497
3 1395 1522 2341
3 2032 1919 2273
3 251 2013 2247
3 2219 2031 2250
3 2397 552 2453
3 1765 255 2489
3 2475 1825 2524
3 1202 1204 2301
3 445 2078 2411
3 323 2229 2296
3 1286 2384 2408
3 537 551 2201
3 1724 237 2293
3 84 85 2335
3 1471 1126 2319
3 1635 1634 2511
3 300 302 2338
3 698 666 2318
3 1030 1031 2236
3 2098 1457 2271
3 696 1821 2426
3 1457 1492 2447
3 1956 2336 2469
3 331 323 2296
3 1284 1491 2342
3 2011 1996 2270
3 256 183 2303
3 160 257 2304
3 2204 1589 2501
3 1891 1014 2280
3 719 725 2336
3 1354 1808 2381
3 437 430 2494
3 2377 218 2391
3 2211 2271 2447
3 1407 2256 2290
3 2365 1460 2412
3 2047 1498 2268
3 1825 1283 2524
3 1499 1825 2475
3 1226 1249 2281
3 2051 2243 2392
3 2250 1160 2310
3 111 112 2346
3 304 306 2345
3 1341 1352 2351
3 2166 191 2504
3 2223 1836 2242
3 1996 247 2481
3 1049 1051 2331
3 1086 1298 2358
3 2130 595 2273
3 1249 2111 2263
3 680 1995 2458
3 1511 2140 2346
3 102 103 2355
3 469 473 2453
3 961 2072 2245
3 2073 1282 2245
3 1442 1443 2525
3 74 192 2361
3 2163 1586 2435
3 1519 1518 2449
3 897 2274 2500
3 303 444 2317
3 1615 1614 2423
3 197 2009 2404
3 1634 2281 2511
3 1780 1781 2419
3 1435 1623 2465
3 1286 1774 2384
3 384 361 2339
3 193 1901 2359
3 1165 2433 2475
3 2277 1370 2386
3 677 653 2209
3 1994 1516 2367
3 1479 1478 2440
3 1165 1512 2433
3 1644 1353 2417
3 1711 1712 2353
3 2193 1615 2425
3 1613 1956 2469
3 1440 1173 2330
3 2269 1479 2440
3 222 2218 2465
3 391 389 2503
3 306 2278 2345
3 468 2090 2365
3 221 2246 2526
3 1445 1446 2504
3 939 1844 2392
3 86 87 2373
3 1429 1428 2366
3 2053 2103 2383
3 1348 1212 2312
3 805 750 2371
3 997 1286 2408
3 1152 869 2363
3 2063 2064 2238
3 192 1994 2367
3 1160 2043 2310
3 1926 2151 2350
3 2059 2098 2271
3 1897 1366 2537
3 215 2262 2437
3 1655 1732 2476
3 2415 1128 2454
3 1320 2213 2214
3 7 258 2357
3 259 155 2356
3 2171 1530 2172
3 347 351 2407
3 1077 1078 2343
3 239 2003 2279
3 1446 1128 2415
3 1034 1033 2410
3 601 627 2442
3 1154 1653 2234
3 397 2060 2405
3 2142 794 2272
3 442 2063 2238
3 1863 1215 2378
3 794 2076 2272
3 1883 1375 2505
3 1320 878 2213
3 342 468 2344
3 1903 218 2377
3 380 376 2497
3 1549 1547 2379
3 1148 1165 2475
3 2157 226 2507
3 829 972 2326
3 884 1957 2466
3 2291 1077 2343
3 65 66 2395
3 787 2052 2518
3 2298 1348 2312
3 1946 2343 2396
3 1653 256 2535
3 1842 1548 2472
3 1957 2301 2466
3 1366 1277 2370
3 2213 1432 2214
3 961 2245 2383
3 218 2093 2391
3 1376 2283 2421
3 1873 2127 2333
3 1019 1021 2512
3 1128 1127 2454
3 1104 1434 2450
3 2130 1439 2468
3 2396 2110 2482
3 2186 855 2283
3 1724 2293 2329
3 1163 1059 2372
3 1614 2389 2423
3 53 54 2402
3 1063 1707 2334
3 2283 855 2421
3 1385 1863 2436
3 364 1883 2505
3 517 1890 2387
3 1145 996 2492
3 1047 1287 2348
3 2148 1875 2320
3 205 2176 2416
3 1372 1844 2478
3 1211 2219 2250
3 1141 898 2368
3 245 1909 2420
3 2278 327 2321
3 2389 1397 2423
3 2256 513 2290
3 559 2403 2456
3 1137 1340 2374
3 2093 1384 2391
3 1918 1148 2524
3 1030 2236 2427
3 1867 1895 2513
3 2014 517 2387
3 2271 1457 2447
3 1143 2028 2353
3 1904 194 2432
3 1148 2475 2524
3 1574 1523 2436
3 2213 1083 2311
3 1997 358 2325
3 2139 246 2506
3 1370 1369 2386
3 1271 2059 2271
3 1034 2173 2463
3 1123 1412 2393
3 1578 1827 2515
3 2209 1320 2424
3 2079 1504 2210
3 1361 2168 2305
3 1491 1489 2403
3 238 1725 2226
3 1190 986 2334
3 1547 1545 2508
3 1891 1613 2469
3 1153 1885 2362
3 2208 1632 2382
3 2287 1281 2448
3 1356 1376 2421
3 1965 2349 2515
3 2155 1186 2422
3 1522 2014 2387
3 2158 1468 2323
3 2050 954 2333
3 1397 1809 2423
3 1362 1360 2376
3 1852 1985 2397
3 2069 1691 2446
3 789 2066 2425
3 1895 755 2513
3 1707 1154 2234
3 372 374 2430
3 2225 787 2518
3 2028 1206 2401
3 986 1063 2334
3 1912 726 2439
3 1340 1342 2400
3 1916 1145 2448
3 2236 1649 2427
3 2374 1340 2400
3 2222 1407 2290
3 2324 1152 2363
3 241 2220 2472
3 765 2190 2384
3 2375 667 2452
3 2330 1173 2406
3 1181 1972 2500
3 2126 1382 2388
3 1173 1012 2406
3 315 313 2495
3 1015 1373 2385
3 97 221 2526
3 1937 1397 2389
3 930 1061 2462
3 971 1096 2496
3 45 46 2485
3 669 791 2529
3 1104 2450 2521
3 382 378 2390
3 2191 1371 2536
3 2235 1036 2286
3 831 2209 2424
3 762 1997 2349
3 2379 1547 2508
3 2177 1359 2467
3 2403 1489 2456
3 796 785 2532
3 219 1902 2516
3 1519 2300 2480
3 1065 1655 2476
3 1375 1473 2505
3 1489 1490 2456
3 390 392 2431
3 2247 2013 2464
3 1135 1930 2369
3 2278 1583 2345
3 626 622 2452
3 631 2298 2312
3 2233 1348 2298
3 1398 1974 2499
3 1706 1681 2492
3 261 130 2444
3 32 260 2445
3 822 2099 2368
3 1365 1912 2439
3 941 940 2418
3 1446 2166 2504
3 2106 1121 2414
3 2300 1519 2449
3 1803 1104 2521
3 1732 1570 2476
3 1413 2051 2392
3 2122 1946 2396
3 2238 1868 2520
3 477 556 2483
3 2397 1985 2533
3 463 445 2411
3 2163 1185 2488
3 1126 2141 2319
3 1755 2264 2533
3 972 2204 2501
3 2230 1533 2340
3 1774 1773 2503
3 1997 2325 2349
3 1004 2069 2446
3 2159 31 2445
3 131 2160 2444
3 1371 2191 2451
3 1001 2154 2486
3 1682 2230 2340
3 2103 961 2383
3 1033 1151 2410
3 382 2390 2531
3 1504 2079 2520
3 1583 2278 2321
3 511 465 2429
3 250 2024 2479
3 2208 2088 2509
3 619 620 2484
3 1246 2208 2366
3 2141 1209 2319
3 1359 1413 2467
3 1295 1459 2458
3 2218 1435 2465
3 2281 1249 2511
3 2293 237 2354
3 2207 1398 2499
3 1564 2155 2422
3 552 469 2453
3 1947 224 2498
3 2062 1568 2490
3 2018 205 2416
3 260 2159 2445
3 2160 261 2444
3 2092 610 2468
3 194 2195 2432
3 1432 2213 2311
3 211 2251 2464
3 2378 856 2527
3 1536 1532 2534
3 2364 786 2497
3 2438 1438 2478
3 1185 1948 2488
3 2042 941 2418
3 1582 2321 2434
3 885 1891 2469
3 1364 2048 2455
3 1693 2225 2518
3 401 382 2531
3 1338 2247 2464
3 442 2238 2520
3 1292 2117 2428
3 2274 1350 2500
3 2066 2193 2425
3 2179 1184 2435
3 898 822 2368
3 2436 1863 2527
3 1844 1016 2478
3 2184 1001 2486
3 557 2207 2499
3 2013 211 2464
3 2254 250 2479
3 1350 1181 2500
3 2009 248 2470
3 246 2140 2506
3 1574 2436 2527
3 2139 1419 2517
3 316 1971 2514
3 1319 2122 2482
3 226 2006 2507
3 1400 2270 2481
3 1681 2287 2448
3 2325 1578 2349
3 232 1652 2487
3 1320 2214 2424
3 1632 2208 2509
3 248 2288 2470
3 1406 1141 2460
3 2188 1322 2434
3 2244 1980 2441
3 2088 1255 2509
3 1280 2109 2427
3 2060 2307 2405
3 2236 1034 2463
3 1745 2293 2354
3 2122 2396 2482
3 2109 1030 2427
3 2307 1563 2405
3 1429 2382 2459
3 224 2267 2498
3 682 2211 2447
3 2079 442 2520
3 2348 1287 2398
3 2220 1842 2472
3 1335 2249 2466
3 1249 2263 2511
3 443 2210 2519
3 2385 1373 2394
3 1594 2184 2486
3 2052 2239 2518
3 1568 2439 2490
3 2349 1578 2515
3 2344 468 2412
3 2270 1996 2481
3 1735 2244 2441
3 2260 1471 2477
3 2210 1504 2519
3 1434 2297 2450
3 2297 1419 2450
3 2263 1660 2502
3 2404 2009 2470
3 1718 2385 2394
3 1371 2194 2536
3 2317 444 2461
3 1443 2322 2525
3 1716 2375 2452
3 1863 2378 2527
3 2439 726 2490
3 1057 2328 2451
3 1638 2404 2470
3 1454 2234 2535
3 755 2320 2513
3 2234 1653 2535
3 2264 552 2533
3 1419 2297 2517
3 1392 2322 2510
3 552 2397 2533
3 1798 2364 2497
3 2322 1392 2525
3 2382 1631 2459
3 1016 2438 2478
3 1366 2370 2537
3 1742 2491 2530
3 2491 257 2530
CELL_TYPES 4886
5
5
5
5
5
5
5
5
5
5
5
5
5
5
5
5
5
5
5
5
5
5
5
5
5
5
5
5
5
5
5
5
5
5
5
5
5
5
5
5
5
5
5
5
5
5
5
5
5
5
5
5
5
5
5
5
5
5
5
5
5
5
5
5
5
5
5
5
5
5
5
5
5
5
5
5
5
5
5
5
5
5
5
5
5
5
5
5
5
5
5
5
5
5
5
5
5
5
5
5
5
5
5
5
5
5
5
5
5
5
5
5
5
5
5
5
5
5
5
5
5
5
5
5
5
5
5
5
5
5
5
5
5
5
5
5
5
5
5
5
5
5
5
5
5
5
5
5
5
5
5
5
5
5
5
5
5
5
5
5
5
5
5
5
5
5
5
5
5
5
5
5
5
5
5
5
5
5
5
5
5
5
5
5
5
5
5
5
5
5
5
5
5
5
5
5
5
5
5
5
5
5
5
5
5
5
5
5
5
5
5
5
5
5
5
5
5
5
5
5
5
5
5
5
5
5
5
5
5
5
5
5
5
5
5
5
5
5
5
5
5
5
5
5
5
5
5
5
5
5
5
5
5
5
5
5
5
5
5
5
5
5
5
5
5
5
5
5
5
5
5
5
5
5
5
5
5
5
5
5
5
5
5
5
5
5
5
5
5
5
5
5
5
5
5
5
5
5
5
5
5
5
5
5
5
5
5
5
5
5
5
5
5
5
5
5
5
5
5
5
5
5
5
5
5
5
5
5
5
5
5
5
5
5
5
5
5
5
5
5
5
5
5
5
5
5
5
5
5
5
5
5
5
5
5
5
5
5
5
5
5
5
5
5
5
5
5
5
5
5
5
5
5
5
5
5
5
5
5
5
5
5
5
5
5
5
5
5
5
5
5
5
5
5
5
5
5
5
5
5
5
5
5
5
5
5
5
5
5
5
5
5
5
5
5
5
5
5
5
5
5
5
5
5
5
5
5
5
5
5
5
5
5
5
5
5
5
5
5
5
5
5
5
5
5
5
5
5
5
5
5
5
5
5
5
5
5
5
5
5
5
5
5
5
5
5
5
5
5
5
5
5
5
5
5
5
5
5
5
5
5
5
5
5
5
5
5
5
5
5
5
5
5
5
5
5
5
5
5
5
5
5
5
5
5
5
5
5
5
5
5
5
5
5
5
5
5
5
5
5
5
5
5
5
5
5
5
5
5
5
5
5
5
5
5
5
5
5
5
5
5
5
5
5
5
5
5
5
5
5
5
5
5
5
5
5
5
5
5
5
5
5
5
5
5
5
5
5
5
5
5
5
5
5
5
5
5
5
5
5
5
5
5
5
5
5
5
5
5
5
5
5
5
5
5
5
5
5
5
5
5
5
5
5
5
5
5
5
5
5
5
5
5
5
5
5
5
5
5
5
5
5
5
5
5
5
5
5
5
5
5
5
5
5
5
5
5
5
5
5
5
5
5
5
5
5
5
5
5
5
5
5
5
5
5
5
5
5
5
5
5
5
5
5
5
5
5
5
5
5
5
5
5
5
5
5
5
5
5
5
5
5
5
5
5
5
5
5
5
5
5
5
5
5
5
5
5
5
5
5
5
5
5
5
5
5
5
5
5
5
5
5
5
5
5
5
5
5
5
5
5
5
5
5
5
5
5
5
5
5
5
5
5
5
5
5
5
5
5
5
5
5
5
5
5
5
5
5
5
5
5
5
5
5
5
5
5
5
5
5
5
5
5
5
5
5
5
5
5
5
5
5
5
5
5
5
5
5
5
5
5
5
5
5
5
5
5
5
5
5
5
5
5
5
5
5
5
5
5
5
5
5
5
5
5
5
5
5
5
5
5
5
5
5
5
5
5
5
5
5
5
5
5
5
5
5
5
5
5
5
5
5
5
5
5
5
5
5
5
5
5
5
5
5
5
5
5
5
5
5
5
5
5
5
5
5
5
5
5
5
5
5
5
5
5
5
5
5
5
5
5
5
5
5
5
5
5
5
5
5
5
5
5
5
5
5
5
5
5
5
5
5
5
5
5
5
5
5
5
5
5
5
5
5
5
5
5
5
5
5
5
5
5
5
5
5
5
5
5
5
5
5
5
5
5
5
5
5
5
5
5
5
5
5
5
5
5
5
5
5
5
5
5
5
5
5
5
5
5
5
5
5
5
5
5
5
5
5
5
5
5
5
5
5
5
5
5
5
5
5
5
5
5
5
5
5
5
5
5
5
5
5
5
5
5
5
5
5
5
5
5
5
5
5
5
5
5
5
5
5
5
5
5
5
5
5
5
5
5
5
5
5
5
5
5
5
5
5
5
5
5
5
5
5
5
5
5
5
5
5
5
5
5
5
5
5
5
5
5
5
5
5
5
5
5
5
5
5
5
5
5
5
5
5
5
5
5
5
5
5
5
5
5
5
5
5
5
5
5
5
5
5
5
5
5
5
5
5
5
5
5
5
5
5
5
5
5
5
5
5
5
5
5
5
5
5
5
5
5
5
5
5
5
5
5
5
5
5
5
5
5
5
5
5
5
5
5
5
5
5
5
5
5
5
5
5
5
5
5
5
5
5
5
5
5
5
5
5
5
5
5
5
5
5
5
5
5
5
5
5
5
5
5
5
5
5
5
5
5
5
5
5
5
5
5
5
5
5
5
5
5
5
5
5
5
5
5
5
5
5
5
5
5
5
5
5
5
5
5
5
5
5
5
5
5
5
5
5
5
5
5
5
5
5
5
5
5
5
5
5
5
5
5
5
5
5
5
5
5
5
5
5
5
5
5
5
5
5
5
5
5
5
5
5
5
5
5
5
5
5
5
5
5
5
5
5
5
5
5
5
5
5
5
5
5
5
5
5
5
5
5
5
5
5
5
5
5
5
5
5
5
5
5
5
5
5
5
5
5
5
5
5
5
5
5
5
5
5
5
5
5
5
5
5
5
5
5
5
5
5
5
5
5
5
5
5
5
5
5
5
5
5
5
5
5
5
5
5
5
5
5
5
5
5
5
5
5
5
5
5
5
5
5
5
5
5
5
5
5
5
5
5
5
5
5
5
5
5
5
5
5
5
5
5
5
5
5
5
5
5
5
5
5
5
5
5
5
5
5
5
5
5
5
5
5
5
5
5
5
5
5
5
5
5
5
5
5
5
5
5
5
5
5
5
5
5
5
5
5
5
5
5
5
5
5
5
5
5
5
5
5
5
5
5
5
5
5
5
5
5
5
5
5
5
5
5
5
5
5
5
5
5
5
5
5
5
5
5
5
5
5
5
5
5
5
5
5
5
5
5
5
5
5
5
5
5
5
5
5
5
5
5
5
5
5
5
5
5
5
5
5
5
5
5
5
5
5
5
5
5
5
5
5
5
5
5
5
5
5
5
5
5
5
5
5
5
5
5
5
5
5
5
5
5
5
5
5
5
5
5
5
5
5
5
5
5
5
5
5
5
5
5
5
5
5
5
5
5
5
5
5
5
5
5
5
5
5
5
5
5
5
5
5
5
5
5
5
5
5
5
5
5
5
5
5
5
5
5
5
5
5
5
5
5
5
5
5
5
5
5
5
5
5
5
5
5
5
5
5
5
5
5
5
5
5
5
5
5
5
5
5
5
5
5
5
5
5
5
5
5
5
5
5
5
5
5
5
5
5
5
5
5
5
5
5
5
5
5
5
5
5
5
5
5
5
5
5
5
5
5
5
5
5
5
5
5
5
5
5
5
5
5
5
5
5
5
5
5
5
5
5
5
5
5
5
5
5
5
5
5
5
5
5
5
5
5
5
5
5
5
5
5
5
5
5
5
5
5
5
5
5
5
5
5
5
5
5
5
5
5
5
5
5
5
5
5
5
5
5
5
5
5
5
5
5
5
5
5
5
5
5
5
5
5
5
5
5
5
5
5
5
5
5
5
5
5
5
5
5
5
5
5
5
5
5
5
5
5
5
5
5
5
5
5
5
5
5
5
5
5
5
5
5
5
5
5
5
5
5
5
5
5
5
5
5
5
5
5
5
5
5
5
5
5
5
5
5
5
5
5
5
5
5
5
5
5
5
5
5
5
5
5
5
5
5
5
5
5
5
5
5
5
5
5
5
5
5
5
5
5
5
5
5
5
5
5
5
5
5
5
5
5
5
5
5
5
5
5
5
5
5
5
5
5
5
5
5
5
5
5
5
5
5
5
5
5
5
5
5
5
5
5
5
5
5
5
5
5
5
5
5
5
5
5
5
5
5
5
5
5
5
5
5
5
5
5
5
5
5
5
5
5
5
5
5
5
5
5
5
5
5
5
5
5
5
5
5
5
5
5
5
5
5
5
5
5
5
5
5
5
5
5
5
5
5
5
5
5
5
5
5
5
5
5
5
5
5
5
5
5
5
5
5
5
5
5
5
5
5
5
5
5
5
5
5
5
5
5
5
5
5
5
5
5
5
5
5
5
5
5
5
5
5
5
5
5
5
5
5
5
5
5
5
5
5
5
5
5
5
5
5
5
5
5
5
5
5
5
5
5
5
5
5
5
5
5
5
5
5
5
5
5
5
5
5
5
5
5
5
5
5
5
5
5
5
5
5
5
5
5
5
5
5
5
5
5
5
5
5
5
5
5
5
5
5
5
5
5
5
5
5
5
5
5
5
5
5
5
5
5
5
5
5
5
5
5
5
5
5
5
5
5
5
5
5
5
5
5
5
5
5
5
5
5
5
5
5
5
5
5
5
5
5
5
5
5
5
5
5
5
5
5
5
5
5
5
5
5
5
5
5
5
5
5
5
5
5
5
5
5
5
5
5
5
5
5
5
5
5
5
5
5
5
5
5
5
5
5
5
5
5
5
5
5
5
5
5
5
5
5
5
5
5
5
5
5
5
5
5
5
5
5
5
5
5
5
5
5
5
5
5
5
5
5
5
5
5
5
5
5
5
5
5
5
5
5
5
5
5
5
5
5
5
5
5
5
5
5
5
5
5
5
5
5
5
5
5
5
5
5
5
5
5
5
5
5
5
5
5
5
5
5
5
5
5
5
5
5
5
5
5
5
5
5
5
5
5
5
5
5
5
5
5
5
5
5
5
5
5
5
5
5
5
5
5
5
5
5
5
5
5
5
5
5
5
5
5
5
5
5
5
5
5
5
5
5
5
5
5
5
5
5
5
5
5
5
5
5
5
5
5
5
5
5
5
5
5
5
5
5
5
5
5
5
5
5
5
5
5
5
5
5
5
5
5
5
5
5
5
5
5
5
5
5
5
5
5
5
5
5
5
5
5
5
5
5
5
5
5
5
5
5
5
5
5
5
5
5
5
5
5
5
5
5
5
5
5
5
5
5
5
5
5
5
5
5
5
5
5
5
5
5
5
5
5
5
5
5
5
5
5
5
5
5
5
5
5
5
5
5
5
5
5
5
5
5
5
5
5
5
5
5
5
5
5
5
5
5
5
5
5
5
5
5
5
5
5
5
5
5
5
5
5
5
5
5
5
5
5
5
5
5
5
5
5
5
5
5
5
5
5
5
5
5
5
5
5
5
5
5
5
5
5
5
5
5
5
5
5
5
5
5
5
5
5
5
5
5
5
5
5
5
5
5
5
5
5
5
5
5
5
5
5
5
5
5
5
5
5
5
5
5
5
5
5
5
5
5
5
5
5
5
5
5
5
5
5
5
5
5
5
5
5
5
5
5
5
5
5
5
5
5
5
5
5
5
5
5
5
5
5
5
5
5
5
5
5
5
5
5
5
5
5
5
5
5
5
5
5
5
5
5
5
5
5
5
5
5
5
5
5
5
5
5
5
5
5
5
5
5
5
5
5
5
5
5
5
5
5
5
5
5
5
5
5
5
5
5
5
5
5
5
5
5
5
5
5
5
5
5
5
5
5
5
5
5
5
5
5
5
5
5
5
5
5
5
5
5
5
5
5
5
5
5
5
5
5
5
5
5
5
5
5
5
5
5
5
5
5
5
5
5
5
5
5
5
5
5
5
5
5
5
5
5
5
5
5
5
5
5
5
5
5
5
5
5
5
5
5
5
5
5
5
5
5
5
5
5
5
5
5
5
5
5
5
5
5
5
5
5
5
5
5
5
5
5
5
5
5
5
5
5
5
5
5
5
5
5
5
5
5
5
5
5
5
5
5
5
5
5
5
5
5
5
5
5
5
5
5
5
5
5
5
5
5
5
5
5
5
5
5
5
5
5
5
5
5
5
5
5
5
5
5
5
5
5
5
5
5
5
5
5
5
5
5
5
5
5
5
5
5
5
5
5
5
5
5
5
5
5
5
5
5
5
5
5
5
5
5
5
5
5
5
5
5
5
5
5
5
5
5
5
5
5
5
5
5
5
5
5
5
5
5
5
5
5
5
5
5
5
5
5
5
5
5
5
5
5
5
5
5
5
5
5
5
5
5
5
5
5
5
5
5
5
5
5
5
5
5
5
5
5
5
5
5
5
5
5
5
5
5
5
5
5
5
5
5
5
5
5
5
5
5
5
5
5
5
5
5
5
5
5
5
5
5
5
5
5
5
5
5
5
5
5
5
5
5
5
5
5
5
5
5
5
5
5
5
5
5
5
5
5
5
5
5
5
5
5
5
5
5
5
5
5
5
5
5
5
5
5
5
5
5
5
5
5
5
5
5
5
5
5
5
5
5
5
5
5
5
5
5
5
5
5
5
5
5
5
5
5
5
5
5
5
5
5
5
5
5
5
5
5
5
5
5
5
5
5
5
5
5
5
5
5
5
5
5
5
5
5
5
5
5
5
5
5
5
5
5
5
5
5
5
5
5
5
5
5
5
5
5
5
5
5
5
5
5
5
5
5
5
5
5
5
5
5
5
5
5
5
5
5
5
5
5
5
5
5
5
5
5
5
5
5
5
5
5
5
5
5
5
5
5
5
5
5
5
5
5
5
5
5
5
5
5
5
5
5
5
5
5
5
5
5
5
5
5
5
5
5
5
5
5
5
5
5
5
5
5
5
5
5
5
5
5
5
5
5
5
5
5
5
5
5
5
5
5
5
5
5
5
5
5
5
5
5
5
5
5
5
5
5
5
5
5
5
5
5
5
5
5
5
5
5
5
5
5
5
5
5
5
5
5
5
5
5
5
5
5
5
5
5
5
5
5
5
5
5
5
5
5
5
5
5
5
5
5
5
5
5
5
5
5
5
5
5
5
5
5
5
5
5
5
5
5
5
5
5
5
5
5
5
5
5
5
5
5
5
5
5
5
5
5
5
5
5
5
5
5
5
5
5
5
5
5
5
5
5
5
5
5
5
5
5
5
5
5
5
5
5
5
5
5
5
5
5
5
5
5
5
5
5
5
5
5
5
5
5
5
5
5
5
5
5
5
5
5
5
5
5
5
5
5
5
5
5
5
5
5
5
5
5
5
5
5
5
5
5
5
5
5
5
5
5
5
5
5
5
5
5
5
5
5
5
5
5
5
5
5
5
5
5
5
5
5
5
5
5
5
5
5
5
5
5
5
5
5
5
5
5
5
5
5
5
5
5
5
5
5
5
5
5
5
5
5
5
5
5
5
5
5
5
5
5
5
5
5
5
5
5
5
5
5
5
5
5
5
5
5
5
5
5
5
5
5
5
5
5
5
5
5
5
5
5
5
5
5
5
5
5
5
5
5
5
5
5
5
5
5
5
5
5
5
5
5
5
5
5
5
5
5
5
5
5
5
5
5
5
5
5
5
5
5
5
5
5
5
5
5
5
5
5
5
5
5
5
5
5
5
5
5
5
5
5
5
5
5
5
5
5
5
5
5
5
5
5
5
5
5
5
5
5
5
5
5
5
5
5
5
5
5
5
5
5
5
5
5
5
5
5
5
5
5
5
5
5
5
5
5
5
5
5
5
5
5
5
5
5
5
5
5
5
5
5
5
5
5
5
5
5
5
5
5
5
5
5
5
5
5
5
5
5
5
5
5
5
5
5
5
5
5
5
5
5
5
5
5
5
5
5
5
5
5
5
5
5
5
5
5
5
5
5
5
5
5
5
5
5
5
5
5
5
5
5
5
5
5
5
5
5
5
5
5
5
5
5
5
5
5
5
5
5
5
5
5
5
5
5
5
5
5
5
5
5
5
5
5
5
5
5
5
5
5
5
5
5
5
5
5
5
5
5
5
5
5
5
5
5
5
5
5
5
5
5
5
5
5
5
5
5
5
5
5
5
5
5
5
5
5
5
5
5
5
5
5
5
5
5
5
5
5
5
5
5
5
5
5
5
5
5
5
5
5
5
5
5
5
5
5
5
5
5
5
5
5
5
5
5
5
5
5
5
5
5
5
5
5
5
5
5
5
5
5
5
5
5
5
5
5
5
5
5
5
5
5
5
5
5
5
5
5
5
5
5
5
5
5
5
5
5
5
5
5
5
5
5
5
5
5
5
5
5
5
5
5
5
5
5
5
5
5
5
5
5
5
5
5
5
5
5
5
5
5
5
5
5
5
5
5
5
5
5
5
5
5
5
5
5
5
5
5
5
5
5
5
5
5
5
5
5
5
5
5
5
5
5
5
5
5
5
5
5
5
5
5
5
5
5
5
5
5
5
5
5
5
5
5
5
5
5
5
5
5
5
5
5
5
5
5
5
5
5
5
5
5
5
5
5
5
5
5
5
5
5
5
5
5
5
5
5
5
5
5
5
5
5
5
5
5
5
5
5
5
5
5
5
5
5
5
5
5
5
5
5
5
5
5
5
5
5
5
5
5
5
5
5
5
5
5
5
5
5
5
5
5
5
5
5
5
5
5
5
5
5
5
5
5
5
5
5
5
5
5
5
5
5
5
5
5
5
5
5
5
5
5
5
5
5
5
5
5
5
5
5
5
5
5
5
5
5
5
5
5
5
5
5
5
5
5
5
5
5
5
5
5
5
5
5
5
5
5
5
5
5
5
5
5
5
5
5
5
5
5
5
5
5
5
5
5
5
5
5
5
5
5
5
5
5
5
5
5
5
5
5
5
5
5
5
5
5
5
5
5
5
5
5
5
5
5
5
5
5
5
5
5
5
5
5
5
5
5
5
5
5
5
5
5
5
5
5
5
5
5
5
5
5
5
5
5
5
5
5
5
5
5
5
5
5
5
5
5
5
5
5
5
5
5
5
5
5
5
5
5
5
5
5
5
5
5
5
5
5
5
5
5
5
5
5
5
5
5
5
5
5
5
5
5
5
5
5
5
5
5
5
5
5
5
5
5
5
5
5
5
5
5
5
5
5
5
5
5
5
5
5
5
5
5
5
5
5
5
5
5
5
5
5
5
5
5
5
5
5
5
5
5
5
5
5
5
5
5
5
5
5
5
5
5
5
5
5
5
5
5
5
5
5
5
5
5
5
5
5
5
5
5
5
5
5
5
5
5
5
5
5
5
5
5
5
5
5
5
5
5
5
5
5
5
5
5
5
5
5
5
5
5
5
5
5
5
5
5
5
5
5
5
5
5
5
5
5
5
5
5
5
5
5
5
5
5
5
5
5
5
5
5
5
5
5
5
5
5
5
5
5
5
5
5
5
5
5
5
5
5
5
5
5
5
5
5
5
5
5
5
5
5
5
5
5
5
5
5
5
5
5
5
5
5
5
5
5
5
5
5
5
5
5
5
5
5
5
5
5
5
5
5
5
5
5
5
5
5
5
5
5
5
5
5
5
5
5
5
5
5
5
5
5
5
5
5
5
5
5
5
5
5
5
5
5
5
5
5
5
5
5
5
5
5
5
5
5
5
5
5
5
5
5
5
5
5
5
5
5
5
5
5
5
5
5
5
5
5
5
5
5
5
5
5
5
5
5
5
5
5
5
5
5
5
5
5
5
5
5
5
5
5
5
5
5
5
5
5
5
5
5
5
5
5
5
5
5
5
5
5
5
5
5
5
5
5
5
5
5
5
5
5
5
5
5
5
5
5
5
5
5
5
5
5
5
5
5
5
5
5
5
5
5
5
5
5
5
5
5
5
5
5
5
5
5
5
5
5
5
5
5
5
5
5
5
5
5
5
5
5
5
5
5
5
5
5
5
5
5
5
5
5
5
5
5
5
5
5
5
5
5
5
5
5
5
5
5
5
5
5
5
5
5
5
5
5
5
5
5
5
5
5
5
5
5
5
5
5
5
5
5
5
5
5
5
5
5
5
5
5
5
5
5
5
5
5
5
5
5
5
5
5
5
5
5
5
5
5
5
5
5
5
5
5
5
5
5
5
5
5
5
5
5
5
5
5
5
5
5
5
5
5
5
5
5
5
5
5
5
5
5
5
5
5
5
5
5
5
5
5
5
5
5
5
5
5
5
5
5
5
5
5
5
5
5
5
5
5
5
5
5
5
5
5
5
5
5
5
5
5
5
5
5
5
5
5
5
5
5
5
5
5
5
5
5
5
5
5
5
5
5
5
5
5
5
5
5
5
5
5
5
5
5
5
5
5
5
5
5
5
5
5
5
5
5
5
5
5
5
5
5
5
5
5
5
5
5
5
5
5
5
5
5
5
5
5
5
5
5
5
5
5
5
5
5
5
5
5
5
5
5
5
5
5
5
5
5
5
5
5
5
5
5
5
5
5
5
5
5
5
5
5
5
5
5
5
5
5
5
5
5
5
5
5
5
5
5
5
5
5
5
5
5
5
5
5
5
5
5
5
5
5
5
5
5
5
5
5
5
5
5
5
5
5
5
5
5
5
5
5
5
5
5
5
5
5
5
5
5
5
5
5
5
5
5
5
5
5
5
5
5
5
5
5
5
5
5
5
5
5
5
5
5
5
5
5
5
5
5
5
5
5
5
5
5
5
5
5
5
5
5
5
5
5
5
5
5
5
5
5
5
5
5
5
5
5
5
5
5
5
5
5
5
5
5
5
5
5
5
5
5
5
5
5
5
5
5
5
5
5
5
5
5
5
5
5
5
5
5
5
5
5
5
5
5
5
5
5
5
5
5
5
5
5
5
5
5
5
5
5
5
5
5
5
5
5
5
5
5
5
5
5
5
5
5
5
5
5
5
5
5
5
5
5
5
5
5
5
5
5
5
5
5
5
5
5
5
5
5
5
5
5
5
POINT_DATA 2538
VECTORS disp float
2.6912450212738985e-12 2.8858026269491255e-12 0.0
-6.93073513519527e-13 -1.1687443021396357e-12 0.0
0.0004000000002962172 4.97102227315381e-13 0.0
0.0003999999883658712 -1.1788222358389617e-11 0.0
0.00020840994028876016 8.209307947392081e-5 0.0
0.0002751866389139326 1.6332636850786504e-6 0.0
0.0002331019285395823 -2.0325952620118896e-6 0.0
-4.96471120673283e-13 -6.164128456436831e-13 0.0
1.7692235154103588e-13 1.6757312268908123e-13 0.0
1.167750035362809e-13 -1.1696582211811556e-13 0.0
7.856095467130837e-14 -4.3236202962178666e-14 0.0
-7.595695182000932e-15 -2.605872500586299e-13 0.0
5.180582090364748e-15 -3.4780381193178127e-13 0.0
1.3470833490724313e-14 -3.859622777575885e-13 0.0
3.5975094362857855e-14 -4.273890421763006e-13 0.0
-1.0276126953218962e-14 -4.648380535193875e-13 0.0
3.561816410482757e-14 -4.737014338879913e-13 0.0
2.1806673570611994e-14 -4.882359202503864e-13 0.0
2.435429120210792e-14 -4.961963616387089e-13 0.0
2.205793401869048e-14 -5.224141426248001e-13 0.0
1.7791766443100596e-14 -5.113555032160229e-13 0.0
-7.0865395280698856e-15 -5.665904632611276e-13 0.0
3.941938410613338e-14 -5.312914889568089e-13 0.0
4.525818598142738e-14 -5.408762491376477e-13 0.0
3.7340551259848684e-14 -4.983593126575336e-13 0.0
5.824406039884074e-14 -3.6374674974614267e-13 0.0
5.1996533822272477e-14 -2.9762014591734723e-13 0.0
5.794174198561143e-14 -2.72859685272509e-13 0.0
2.3095009667598242e-14 -2.679274452468746e-13 0.0
6.774669794744696e-14 -2.8430735441960906e-13 0.0
-1.645847332579812e-14 -3.690699552084849e-13 0.0
2.085683793143885e-13 -3.4743839456654547e-13 0.0
2.7194826399060773e-6 -1.5148010245452036e-6 0.0
8.239088900585634e-6 -3.2470269802951423e-6 0.0
1.4054240377877862e-5 -4.706625755902402e-6 0.0
1.9276857497012876e-5 -5.975980248742865e-6 0.0
2.374826343430378e-5 -7.076958010652091e-6 0.0
2.78135985745844e-5 -8.176006362141517e-6 0.0
3.1692458275103725e-5 -9.181647741999988e-6 0.0
3.5285380935017564e-5 -1.0194100121082262e-5 0.0
3.8716071662226e-5 -1.1231639204427346e-5 0.0
4.2047989665582164e-5 -1.2249752428546485e-5 0.0
4.527640078919524e-5 -1.3290255593381829e-5 0.0
4.845899422007866e-5 -1.4325373615230526e-5 0.0
5.156368495601588e-5 -1.535943421174538e-5 0.0
5.463928981876456e-5 -1.6426041962642272e-5 0.0
5.7698991945926754e-5 -1.7517687703103765e-5 0.0
6.071653985788584e-5 -1.862800258103999e-5 0.0
6.373297902051045e-5 -1.9742303431501047e-5 0.0
6.672882465369023e-5 -2.084147182164017e-5 0.0
6.969850733793696e-5 -2.1945737825564064e-5 0.0
7.268816459706293e-5 -2.3055335376996464e-5 0.0
7.569088749835205e-5 -2.4170826938628844e-5 0.0
7.869785774389401e-5 -2.5298191434293853e-5 0.0
8.172454237552435e-5 -2.6451928526934616e-5 0.0
8.475703956126318e-5 -2.7591811251627735e-5 0.0
8.784284469751588e-5 -2.873810352139017e-5 0.0
9.093013539732304e-5 -2.9861849088159267e-5 0.0
9.402116992461005e-5 -3.0966112975414595e-5 0.0
9.714537854310625e-5 -3.203235498014256e-5 0.0
0.00010030207412779906 -3.310975619351754e-5 0.0
0.0001034621762824647 -3.416613380504828e-5 0.0
0.00010668452768362483 -3.5190791545112855e-5 0.0
0.00010988102096243807 -3.617565550422784e-5 0.0
0.00011306591514594554 -3.712425755540652e-5 0.0
0.00011631517972586429 -3.804895271343509e-5 0.0
0.0001195742225049265 -3.899646126116135e-5 0.0
0.00012278847028116213 -3.992698101933384e-5 0.0
0.00012601855082474873 -4.0836600078889194e-5 0.0
0.00012920959484222358 -4.176284101507191e-5 0.0
0.00013231196485440216 -4.270653256910156e-5 0.0
0.00013531921059061936 -4.370049683043188e-5 0.0
0.000138196237761522 -4.471138134365563e-5 0.0
0.0001410619316794922 -4.577816606456837e-5 0.0
0.0001449288496231145 -4.644531921954455e-5 0.0
0.00014934698066398165 -4.771304051286655e-5 0.0
0.00015389593074656167 -4.920480181678401e-5 0.0
0.0001589372944195562 -5.075577338052769e-5 0.0
0.00016427754855284537 -5.233011625719139e-5 0.0
0.00017014679589110203 -5.30419508833514e-5 0.0
0.0001763922841287921 -5.365227071752279e-5 0.0
0.00018275407785305563 -5.3950072215213454e-5 0.0
0.00018869998582465177 -5.404591005955932e-5 0.0
0.0001945383212278972 -5.395440309515143e-5 0.0
0.00020002861870448556 -5.383457892259615e-5 0.0
0.00020541613407619973 -5.360589475464356e-5 0.0
0.0002106327501274869 -5.346879482916901e-5 0.0
0.00021578150512367928 -5.325004661232134e-5 0.0
0.00022089792773659448 -5.307773598201884e-5 0.0
0.0002258779457987145 -5.285675241117792e-5 0.0
0.00023065978621431016 -5.262111662842205e-5 0.0
0.00023528541769403152 -5.2369463460782704e-5 0.0
0.00023971244150430693 -5.2173781811363576e-5 0.0
0.00024403436421138722 -5.202279665504141e-5 0.0
0.00024822685908688224 -5.1919172513421715e-5 0.0
0.0002523188538051508 -5.187038005269683e-5 0.0
0.0002563120209182173 -5.18825911239947e-5 0.0
0.00026017979898499094 -5.201072753589523e-5 0.0
0.0002639345950302269 -5.222909524521584e-5 0.0
0.0002676396562649426 -5.252166693186104e-5 0.0
0.000271320174814657 -5.283403225191264e-5 0.0
0.0002749674101870001 -5.3142865345089544e-5 0.0
0.00027859398149592126 -5.339472682709239e-5 0.0
0.00028231313338614096 -5.35952742542301e-5 0.0
0.0002860372388451286 -5.373567773816499e-5 0.0
0.0002898615326478226 -5.381255520933496e-5 0.0
0.0002937363155111319 -5.384875743892657e-5 0.0
0.0002975166304457056 -5.3837525044256004e-5 0.0
0.0003011710827318473 -5.3799201921201206e-5 0.0
0.0003046404364959965 -5.3725678637257045e-5 0.0
0.0003080666675797776 -5.361993588662861e-5 0.0
0.00031139521466767107 -5.343469596197524e-5 0.0
0.0003146837390359058 -5.323618820897415e-5 0.0
0.00031782969115212977 -5.300768353465532e-5 0.0
0.0003209435867805422 -5.275725357574726e-5 0.0
0.00032402662084100853 -5.246711627190412e-5 0.0
0.00032700906028017946 -5.212430320430877e-5 0.0
0.0003299685636703496 -5.1743114584901906e-5 0.0
0.0003329192570442485 -5.1240116660361077e-5 0.0
0.00033574917508011413 -5.062617104920844e-5 0.0
0.0003386362226521935 -4.99111126929597e-5 0.0
0.00034164336649346577 -4.900829889799978e-5 0.0
0.00034463736912282135 -4.7810646545012865e-5 0.0
0.0003474152589134199 -4.6295350694055836e-5 0.0
0.00035028724994846553 -4.461983574537834e-5 0.0
0.00035328590619083 -4.282302421805942e-5 0.0
0.00035650272930412677 -4.086389854304978e-5 0.0
0.0003597298438711321 -3.814035915925342e-5 0.0
0.00036326712867270315 -3.403261688390221e-5 0.0
0.00037004808064403354 -2.976575675551786e-5 0.0
0.00037671261938739133 -2.0871207702020558e-5 0.0
0.000400000002573294 1.5277179514630623e-12 0.0
0.00039999999894914265 -1.432574011475792e-12 0.0
0.0003999999998165807 -1.965787963219577e-13 0.0
0.0003999999996394822 -4.576126258463639e-13 0.0
0.00039999999979545883 -1.3549064851243414e-13 0.0
0.0003999999998065023 5.3688242637858486e-14 0.0
0.0003999999998681293 2.3778444916989403e-13 0.0
0.0003999999999275753 4.0794579447977307e-13 0.0
0.00039999999995226536 4.909744814888648e-13 0.0
0.0003999999999734949 4.973311974296621e-13 0.0
0.00039999999999997736 4.2408394615961196e-13 0.0
0.00039999999994512063 4.443657664970651e-13 0.0
0.0003999999999644238 4.1015912216338123e-13 0.0
0.0003999999999510313 4.1560949850014797e-13 0.0
0.00039999999994778414 4.168690958533974e-13 0.0
0.00039999999994531845 4.1689401167716405e-13 0.0
0.0003999999999395388 4.2522207146075777e-13 0.0
0.00039999999993751804 4.108658230402181e-13 0.0
0.00039999999986535306 3.149345047591366e-13 0.0
0.0003999999998870907 1.669197549178222e-13 0.0
0.00039999999987524543 1.2006101782429614e-13 0.0
0.00039999999985519625 1.2047196986931135e-13 0.0
0.0003999999999086379 1.1871953651380998e-13 0.0
0.00039999999991605214 1.261954612536472e-13 0.0
0.0003999999998628427 1.8846280922370124e-13 0.0
0.0003698414353798036 5.490334185066801e-6 0.0
0.00033553551859942553 7.101812326975203e-6 0.0
0.000304641628296888 5.902551062675966e-6 0.0
0.0002867718898025408 2.312709221133236e-6 0.0
0.0002753788033674617 -7.398451889700139e-6 0.0
0.00027477658379085855 -1.3140214443536014e-5 0.0
0.0002733694722976537 -2.112543740872854e-5 0.0
0.00027104750993680156 -2.663325591793753e-5 0.0
0.00026848107831053405 -2.962835985173373e-5 0.0
0.00026533245411128776 -3.10066388929252e-5 0.0
0.0002623052579225625 -3.057976294753198e-5 0.0
0.000260131415986402 -2.6767782288743204e-5 0.0
0.00025827151053232857 -2.133079111567298e-5 0.0
0.0002546265217257733 -1.6036540624452473e-5 0.0
0.0002507894587969775 -1.191218263983013e-5 0.0
0.00024394265484555157 -8.530828154796914e-6 0.0
0.0002300552797510149 2.7949426888384516e-6 0.0
0.00022669886409656752 6.374182639500008e-6 0.0
0.0002225249934001361 9.214504014873305e-6 0.0
0.00021799934322656465 1.2131867796900716e-5 0.0
0.0002132552735855817 1.4771915762026602e-5 0.0
0.0002092356971987639 1.7993409223618308e-5 0.0
0.00020545380020129647 2.1538467593545456e-5 0.0
0.00020242917209439866 2.4109160372778645e-5 0.0
0.00020083720782335175 2.6893643947274686e-5 0.0
0.00020027162678538533 2.9705403406728562e-5 0.0
0.0002025233153853739 3.840462114579132e-5 0.0
0.00020555788338506956 5.607373339356673e-5 0.0
0.00017509229860262178 8.411005523810987e-5 0.0
0.00013858314820798097 8.39454527117555e-5 0.0
0.00010542263516644144 7.827367060100333e-5 0.0
6.993489345705255e-5 5.8564935269114126e-5 0.0
0.00010052155951866969 -3.165454713589562e-5 0.0
0.00027692599569535594 -4.9795879554192086e-5 0.0
0.00012343203800828297 -3.842728257184559e-5 0.0
0.0002504612135716858 -4.851555433924551e-5 0.0
0.00014645568328114895 -4.4144543534235364e-5 0.0
0.00021784088572526469 -4.811450488044077e-5 0.0
0.00017958577605076871 -4.800726349172396e-5 0.0
0.00030000564473106514 -5.036884902829197e-5 0.0
8.242383399950225e-5 -2.5612313509665248e-5 0.0
0.0003160855382302962 -4.942436369739831e-5 0.0
6.739462640650074e-5 -2.007353543108129e-5 0.0
8.013032138313689e-6 -1.1153502513492563e-6 0.0
0.0003876453282582389 8.656015447120298e-7 0.0
0.00023660306007894206 4.4060436955399145e-7 0.0
0.00025400798643148196 -2.2537673959302162e-5 0.0
0.00021990880089518076 1.7616303751336613e-6 0.0
0.00020795870603348437 1.6101996485108517e-5 0.0
0.00033184201886937606 -4.817739414891134e-5 0.0
5.2943589286352745e-5 -1.483714072574598e-5 0.0
5.425447693744835e-6 -8.778026908523093e-7 0.0
0.0003924587067454847 7.590048837631486e-7 0.0
0.0003821139186377453 1.0647977962031414e-6 0.0
1.045334437328233e-5 -1.30546744722504e-6 0.0
0.00034405447821786965 -4.466252398250529e-5 0.0
3.9812199607782916e-5 -1.013052155365578e-5 0.0
0.0002665760491803921 -2.751206146364755e-5 0.0
0.0001964364688262793 2.4565860772652062e-5 0.0
3.6853089369444133e-6 -3.6528643074845317e-7 0.0
0.00039437305254372897 6.850800345145192e-8 0.0
0.00013623154757529224 -4.235164656710155e-5 0.0
0.00016068724274960965 -4.6926924661262886e-5 0.0
0.00023761451875390976 -4.838681812331472e-5 0.0
0.0001978729885211965 -4.786563327145538e-5 0.0
0.00026209984572541056 -4.893736411950091e-5 0.0
0.0002876468181146698 -5.046693779383749e-5 0.0
0.00011443220276187766 -3.594829312135855e-5 0.0
9.15967730797973e-5 -2.8936813370981724e-5 0.0
0.0003527846312226216 -3.984906958769528e-5 0.0
2.9053547609548054e-5 -6.757129642077188e-6 0.0
0.0003790746945707653 -5.092260327769388e-7 0.0
1.1817387257021876e-5 -8.052916862813172e-7 0.0
0.00039458515733130725 -9.21943980174505e-7 0.0
2.7545936824201872e-6 -4.765432320966611e-8 0.0
0.00027573840565344365 -2.186731204656243e-5 0.0
0.00019195541840638682 2.8492815081026017e-5 0.0
0.00037495222616655343 -1.1352736406523988e-6 0.0
1.7213104366723992e-5 9.284217424330332e-7 0.0
6.589314499046267e-6 -1.0088711349137176e-6 0.0
0.0003900756937583939 8.174918425435531e-7 0.0
0.00024779311777052245 -1.1290357053592647e-5 0.0
0.00021483178820372914 9.7918283101509e-6 0.0
1.563143279239891e-5 -2.6610413729565176e-6 0.0
0.00036549450400343497 -2.9387583612000552e-5 0.0
0.0002692831574133485 -4.973251377073795e-5 0.0
0.0002080676190180573 -4.8272610368284006e-5 0.0
0.00013042887176182585 -4.04389469880472e-5 0.0
0.00010742684031662477 -3.4045030427877886e-5 0.0
0.00022842594869254348 -4.822459924048986e-5 0.0
0.00030643100115737153 -5.020714059102053e-5 0.0
7.643064869551622e-5 -2.334706381672937e-5 0.0
0.00032272386926091056 -4.92181996234183e-5 0.0
6.107161021945836e-5 -1.7681694524486844e-5 0.0
4.6191103614987174e-5 -1.2381350282420222e-5 0.0
0.00033776340269198093 -4.673156915067826e-5 0.0
0.0001190405639859354 4.462124351510444e-5 0.0
0.0003154678622044603 -3.8921702046551585e-6 0.0
0.00039430494093343837 -1.043416512491276e-6 0.0
1.7425750159085696e-6 -2.644303377470476e-8 0.0
0.00018985348965957209 4.310096892192966e-5 0.0
0.00028025257820863086 -1.0197308881853977e-5 0.0
1.9082691013211676e-5 1.7456146926239291e-6 0.0
0.00037798107805561053 -9.225071897162296e-7 0.0
4.417530345126752e-6 -6.306860456442035e-7 0.0
0.00038127890305477384 -1.3108447227606494e-5 0.0
0.00029283122142586345 -5.1583148983559875e-6 0.0
0.0002978420508703226 -8.38724364027145e-6 0.0
0.00032567492325066106 -5.6453953860521046e-6 0.0
0.0003079377413119904 -7.7794649140347e-6 0.0
0.00028783857144744167 -1.0907235566654591e-5 0.0
0.00029372529477482537 -8.826046976387214e-6 0.0
0.00031391407374347556 -6.4246179386599114e-6 0.0
0.0003003938546529026 -7.493807814816271e-6 0.0
0.0003195926666710353 -5.541465725960233e-6 0.0
0.0003068392396355344 -6.211380059993841e-6 0.0
0.00028971741601691215 -8.018133297230625e-6 0.0
0.0002953424821294762 -6.055505208227536e-6 0.0
0.0002811630380776597 -7.433261329672769e-6 0.0
0.0002854596393919899 -4.88308188687395e-6 0.0
0.00027312501647348624 -5.9933585298702144e-6 0.0
0.0002769238883021883 -1.8902081759913003e-6 0.0
0.00023421556097950113 -3.41542706415782e-7 0.0
0.00022969518594045067 -1.5813786388511623e-6 0.0
0.00023163061923414747 -7.276481889793463e-9 0.0
0.00022671082341840077 -1.2978728517390021e-6 0.0
0.00022903546466467159 2.4294607682779185e-7 0.0
0.0002241843908754517 -7.955758800097768e-7 0.0
0.00022676569144026548 5.353948957093768e-7 0.0
0.00022182947867569082 -5.21297187566712e-7 0.0
0.00022455541959120985 7.673155793690792e-7 0.0
0.00021957024983406998 -3.123190597561848e-7 0.0
0.00022244850191018565 9.396532201876763e-7 0.0
0.00021747732759696024 -9.943367679808167e-8 0.0
0.0002205005083153129 9.971340347851214e-7 0.0
0.00021569540883350634 1.4264535391713832e-7 0.0
0.0002186862487626416 1.230295709624275e-6 0.0
0.00021387074757479816 3.985298169103018e-7 0.0
0.00021698349291168873 1.333096937706199e-6 0.0
0.00021197249873447136 4.305963818302545e-7 0.0
0.00021532628608431962 1.3583429615890645e-6 0.0
0.00021030529020914522 5.685926561409758e-7 0.0
0.00021376057742257868 1.4558022037289171e-6 0.0
0.00020872792240486852 6.978152901742519e-7 0.0
0.00021212199725337234 1.5147185799200438e-6 0.0
0.00020717416496587336 7.558735168674302e-7 0.0
0.00021063861531116484 1.4970877948495095e-6 0.0
0.00020582211417786119 8.116479924031263e-7 0.0
0.00020921833441501315 1.5887140285361435e-6 0.0
0.00020422210565636698 8.196207074150825e-7 0.0
0.00020777112691011673 1.6068941466791175e-6 0.0
0.00020158983248573216 5.915961654304247e-7 0.0
0.00020660870905242569 1.5279044226221666e-6 0.0
0.00020127874398422874 8.115155707284237e-7 0.0
0.0002052601010343683 1.5070040224535625e-6 0.0
0.00020010485470489306 7.508752604101647e-7 0.0
0.00020399277132328834 1.3860744755045534e-6 0.0
0.00019910806039257013 6.529842642580739e-7 0.0
0.0002027148239609405 1.2498087798132821e-6 0.0
0.00019788719005506337 5.180240693568881e-7 0.0
0.00021431735612039817 -1.5251955484978057e-6 0.0
0.00020146541506680258 1.036585932541555e-6 0.0
0.0002056255700298132 -4.353458001367436e-7 0.0
0.00019555990679691587 -1.4298742076511888e-7 0.0
0.0001963387030945907 2.1004072348614405e-7 0.0
0.00020021097762183994 7.180148768398286e-7 0.0
0.00019479114151969092 -1.6726705927838247e-7 0.0
0.00019061385968306368 -6.735474194365857e-7 0.0
0.00018886057152429903 -1.1169855484923656e-6 0.0
0.00019874055999178085 3.0069354194061496e-7 0.0
0.0002038056162826182 1.152780963104783e-6 0.0
0.0002096404213091353 2.120955580640064e-6 0.0
0.00020246412943524883 6.771041070288776e-7 0.0
0.00020753906425308752 1.546008496849761e-6 0.0
0.00020610884796370185 9.464871084116082e-7 0.0
0.00018449138785319333 -1.6217827481316585e-6 0.0
0.00018295552816688455 -2.065896875007884e-6 0.0
0.00021112072697728157 1.8050407019185226e-6 0.0
0.0001780828588109014 -2.606910594410525e-6 0.0
0.00017686637095489064 -3.0588118711898165e-6 0.0
0.00020989654013825002 1.1438134948168616e-6 0.0
0.00021456161680738923 1.9152974005889335e-6 0.0
0.00017156642404495638 -3.602404100073297e-6 0.0
0.00017023471131614171 -4.120753381492827e-6 0.0
0.00021357008754999333 1.1968930102175468e-6 0.0
0.00021824559079637856 1.9559058591997545e-6 0.0
0.00016517074188399046 -4.581715340415036e-6 0.0
0.00016379065275623768 -5.1884789821204e-6 0.0
0.00021734745413654063 1.1209434648689025e-6 0.0
0.0002220806696783591 1.8914607033092099e-6 0.0
0.00015902702376838798 -5.524094530023103e-6 0.0
0.0001573135242237191 -6.220604955325832e-6 0.0
0.0002213533670031911 9.507795736631467e-7 0.0
0.00022604888361694186 1.7204905652257991e-6 0.0
0.00015248204851806086 -6.486133812421054e-6 0.0
0.00015093895032065914 -7.261696680526605e-6 0.0
0.0001459330365783797 -7.504146295943394e-6 0.0
0.00014748557867601985 -6.7490874499738905e-6 0.0
0.0002161357193636951 1.533999417853073e-7 0.0
0.00022540493201985754 6.385819254382215e-7 0.0
0.00023017356948201669 1.4382220316001853e-6 0.0
0.0002308368589321216 2.4839495205041287e-6 0.0
0.00021609091616440682 2.165190908211843e-6 0.0
0.00023511812064685544 2.221994987935452e-6 0.0
0.00023575957605956487 3.2004183713549315e-6 0.0
0.00024019722679957436 2.987263549930635e-6 0.0
0.00014486129456503576 -8.335103171233637e-6 0.0
0.00013995560362868877 -8.449653098346867e-6 0.0
0.00014976113129025828 -8.1460945286468e-6 0.0
0.00022949027650400342 1.8025848624277527e-7 0.0
0.00013900511065668432 -9.305696511272038e-6 0.0
0.00013422059146789614 -9.295868388573833e-6 0.0
0.0002225890149972981 2.017073300320696e-6 0.0
0.0001333510801999414 -1.0149169944808638e-5 0.0
0.00012867580484292716 -1.0027574909098979e-5 0.0
0.00012788366309834364 -1.091802722636561e-5 0.0
0.00012335793980589973 -1.0634488997461725e-5 0.0
0.00012401034550070633 -9.862507864036407e-6 0.0
0.00011825452076183655 -1.0439796963006764e-5 0.0
0.00011900445630493627 -9.642905682459434e-6 0.0
0.00012201103452623716 -1.1591196290731817e-5 0.0
0.00011280445166728863 -1.0175154674091984e-5 0.0
0.00011351356908794949 -9.419682682771796e-6 0.0
0.00012714396928474172 -1.1920331038836757e-5 0.0
0.00012213151454735957 -1.259377201011285e-5 0.0
0.000107490256666237 -9.799522244890818e-6 0.0
0.00010796988604286679 -9.144366320761128e-6 0.0
0.00024089755452551338 3.819574407426211e-6 0.0
0.0002455998089086377 3.6329192481614215e-6 0.0
0.0001264414624305136 -1.2974726382952378e-5 0.0
0.00012156448450034596 -1.3592926933625296e-5 0.0
0.00024629166896497016 4.3534931953917924e-6 0.0
0.00025137898300337235 4.190255920706545e-6 0.0
0.00025050087405090437 3.271559654616377e-6 0.0
0.0002565308244902645 3.932925062596019e-6 0.0
0.00025579305843028864 2.7905415963500477e-6 0.0
0.0002620044659014271 3.5945065209713045e-6 0.0
0.0002616106242614765 2.2554070890542053e-6 0.0
0.0002682059193415442 3.286789779890781e-6 0.0
0.00026728255048880144 1.7336062492086216e-6 0.0
0.00026856118268579364 4.299969704733485e-6 0.0
0.0002741912231887845 2.8466617671231977e-6 0.0
0.0002729421274091391 1.027478098652695e-6 0.0
0.00012584699113909784 -1.40357402533189e-5 0.0
0.00010158641069506937 -9.442407435290859e-6 0.0
0.00010193564802640984 -8.828944903900096e-6 0.0
0.00026660416376639924 -4.5964397802437304e-7 0.0
0.00027208270326599333 -1.428382568694969e-6 0.0
0.0002784282303495826 2.109809752766074e-7 0.0
0.00026624434251503636 -3.19930077458138e-6 0.0
0.00012113951333051572 -1.4605730760876347e-5 0.0
0.0002776430008404076 -2.6115919612318135e-6 0.0
0.0002839279055162821 -7.565813308340813e-7 0.0
0.0001252831037586756 -1.5107689914297142e-5 0.0
0.00012071629200400075 -1.5635380235169402e-5 0.0
0.00011661960514724337 -1.5057658473863814e-5 0.0
0.0002831931689357987 -4.007462787039858e-6 0.0
0.0002894140786406074 -1.9196657386327586e-6 0.0
0.00012474732764471364 -1.620292933406169e-5 0.0
0.00012922130442346945 -1.5615745068213267e-5 0.0
0.00011629665105706626 -1.6045176331119326e-5 0.0
0.00011217654825748344 -1.5415378752425948e-5 0.0
0.0002885562584606656 -5.578335417615704e-6 0.0
0.00029492295663694715 -3.3057927636344547e-6 0.0
0.00029586099064764866 2.1734413816040415e-7 0.0
0.0002824169173047563 -7.650769453049683e-6 0.0
0.00030143757804292315 -7.863246840791219e-7 0.0
0.00030264755703976226 2.0778298443571545e-6 0.0
9.505432971204047e-5 -9.046211774720698e-6 0.0
9.577868202311328e-5 -8.491575466169763e-6 0.0
0.00010405060177247534 -8.277190998335734e-6 0.0
9.631021057664789e-5 -8.01295380210508e-6 0.0
0.00010445330091596096 -7.831690066467904e-6 0.0
9.682246553041282e-5 -7.656064584750722e-6 0.0
0.00010489837538654246 -7.47590056922387e-6 0.0
0.0001286487187904001 -1.6746137610378728e-5 0.0
0.00013308349309360922 -1.609402444553321e-5 0.0
0.00011191851786055258 -1.6357740773854502e-5 0.0
0.00010777156561247154 -1.5681328678290345e-5 0.0
0.0003003205389762092 -4.900697647753159e-6 0.0
9.822688532355094e-5 -7.34742474159088e-6 0.0
0.00010602750446479626 -7.223613589061798e-6 0.0
0.00013250157194066972 -1.726839770860695e-5 0.0
0.00013691812829793717 -1.6557483109466715e-5 0.0
0.00017003383276478895 -4.567899958551851e-6 0.0
0.00030696268499695654 -1.9564191444191843e-6 0.0
0.00023025144447715238 1.4680229595989621e-6 0.0
0.0002375043184686943 1.5129289021951653e-6 0.0
0.0002012034241393458 -5.101120973165692e-8 0.0
0.00025177620863037453 4.750963775589651e-6 0.0
9.868536559894746e-5 -7.176703481815864e-6 0.0
0.00010792302622786239 -7.033122273208887e-6 0.0
0.00010758119709343883 -1.6584133794435406e-5 0.0
0.0001034552687313691 -1.586645940793468e-5 0.0
0.00013638037299720413 -1.7784171946788772e-5 0.0
0.00014095819043736084 -1.6987760616678387e-5 0.0
0.00030561306375788514 -6.558644238191239e-6 0.0
8.87171082783702e-5 -8.60997579079815e-6 0.0
8.82699465752976e-5 -9.202535177039931e-6 0.0
8.88277514791414e-5 -7.3994306959466515e-6 0.0
0.00031249674695897297 -3.2825780672282494e-6 0.0
9.977655323355771e-5 -6.9680485731892195e-6 0.0
0.00010933844826752742 -6.853134508314858e-6 0.0
0.00013208109996066744 -1.851264753054203e-5 0.0
0.00010335453042091045 -1.6743576390945327e-5 0.0
9.924040714745488e-5 -1.595683574444728e-5 0.0
0.00024677401274290884 4.79917248681606e-6 0.0
0.0002524053989922274 5.029592121266475e-6 0.0
0.0002471580756936856 5.044850103002692e-6 0.0
0.00025300309480502555 5.203529320237834e-6 0.0
0.00014033972259501723 -1.8275465600760384e-5 0.0
0.00014518524691405825 -1.7350612680025107e-5 0.0
0.0001667294144823799 -4.072269886890735e-6 0.0
0.0001008518145986798 -6.825196595340106e-6 0.0
0.00011045023840140365 -6.680364336322555e-6 0.0
0.0003110119517474386 -8.19373006775653e-6 0.0
0.0003052329651458697 -1.0779777845580559e-5 0.0
0.00010006272557979798 -6.562735675780903e-6 0.0
0.00011129067068928788 -6.301933927740317e-6 0.0
0.00031790828618043465 -4.7030373110892096e-6 0.0
0.0003188519623833714 -8.580049004514953e-7 0.0
0.00010234250379328135 -5.8327204478158065e-6 0.0
0.00010730199703907793 -1.7642752698303047e-5 0.0
0.00014445336928083639 -1.8766016176761112e-5 0.0
0.00014949510849645794 -1.7710492948808693e-5 0.0
0.00015035180195890977 -1.6327622416796456e-5 0.0
0.00015489059421304116 -1.6611264810427656e-5 0.0
0.00015581869945728515 -1.5253734887727628e-5 0.0
0.0001605850162630119 -1.5491174429034714e-5 0.0
0.00016155219555521514 -1.4122641171600789e-5 0.0
0.00016657500250842248 -1.4364800973133946e-5 0.0
0.00016757540038829448 -1.2972727092024369e-5 0.0
0.00017276692722467297 -1.3239315383553474e-5 0.0
0.00017182343391986994 -1.4670150279329728e-5 0.0
0.00017814344101747622 -1.3602851470687546e-5 0.0
0.00017728165036693153 -1.505461381150374e-5 0.0
0.00018356372556788147 -1.4074773654684505e-5 0.0
0.00018278357343187116 -1.5545629940777853e-5 0.0
0.00018888894345707167 -1.4658678419948997e-5 0.0
0.00017381221961956968 -1.1805099741253263e-5 0.0
0.00018956251528479273 -1.3162200257498425e-5 0.0
0.0001947183911763253 -1.3836477449769805e-5 0.0
0.00019413069300699263 -1.5350072582884097e-5 0.0
0.00019973599423304974 -1.460422814317402e-5 0.0
8.188818158678596e-5 -8.643510838052948e-6 0.0
8.148845388497109e-5 -9.27252514835431e-6 0.0
9.92153223192999e-5 -1.679095586911484e-5 0.0
9.51443179445388e-5 -1.5949955348714843e-5 0.0
0.00020028784261652959 -1.3041836495725185e-5 0.0
0.00020514968045627548 -1.3874340026721761e-5 0.0
0.00020467375695046612 -1.540309436475121e-5 0.0
0.00021002747925791184 -1.474879463497317e-5 0.0
7.529250488650595e-5 -8.595830313425398e-6 0.0
7.498028366960128e-5 -9.263893444822529e-6 0.0
0.00024755725613875634 5.1792002555055364e-6 0.0
0.0002536573952798998 5.259304035118034e-6 0.0
0.0002480713539648274 5.2337642138773545e-6 0.0
0.0003163902097094263 -9.670515865870146e-6 0.0
0.0003232692252785845 -6.016758400610905e-6 0.0
0.0001486960355544265 -1.9259906674165278e-5 0.0
0.0001157774922387543 -7.011729573910801e-6 0.0
0.0002050991739544138 3.1906236063099697e-7 0.0
0.00020961097006414446 -1.624479007006579e-5 0.0
0.00021485871524054952 -1.564642959446796e-5 0.0
0.00021507745862989045 -1.4080577015627108e-5 0.0
0.00021973288374218603 -1.5041637737898388e-5 0.0
0.00021584457143829965 2.5526215266133847e-6 0.0
0.0002545674789994326 5.3081698322191165e-6 0.0
0.00026018232533229097 5.292732992170456e-6 0.0
0.00011293806992364 -5.145796594748453e-6 0.0
9.516185306532299e-5 -1.675501070666868e-5 0.0
9.113104761588375e-5 -1.5840218608245815e-5 0.0
0.0002486690577753727 5.287888334755731e-6 0.0
0.00021950109534352603 -1.6564579255580462e-5 0.0
0.00022432612257044826 -1.6040366869269226e-5 0.0
0.00022451156706740195 -1.4418794792840626e-5 0.0
0.0002291598890873405 -1.550529076806313e-5 0.0
0.0002294020446576718 -1.37881732174119e-5 0.0
0.00023379349663830667 -1.4911288648697799e-5 0.0
0.00023352996816355476 -1.650758750106418e-5 0.0
0.0002380336200584344 -1.593827936449952e-5 0.0
0.00010313295460691622 -4.195453747258748e-6 0.0
6.898630475130514e-5 -8.4887916186002e-6 0.0
6.87283131938188e-5 -9.141040115461338e-6 0.0
0.00014385857255771155 -2.0402089394690684e-5 0.0
0.00032138025401012946 -1.1504009648204638e-5 0.0
0.00032866793404709107 -7.409728992030587e-6 0.0
0.00023774146258536845 -1.7446737405491102e-5 0.0
0.00024218020330980014 -1.687065658070947e-5 0.0
0.00011464567006141277 -2.5237085313625998e-6 0.0
9.124690370637473e-5 -1.6624886906123276e-5 0.0
8.727581339256417e-5 -1.5600665203153634e-5 0.0
0.0001204497976906773 -6.4149497599149844e-6 0.0
0.00028933992526564633 -1.1755547455450808e-6 0.0
0.00014791834574548585 -2.1083039225876743e-5 0.0
0.00010417299608008037 -1.2903599041501758e-6 0.0
9.227536016500286e-5 -6.848522227385876e-6 0.0
0.00032599485217920537 -1.4482013760554768e-5 0.0
0.0003340180560645004 -9.021490262149085e-6 0.0
0.0003365269784312582 -2.8231173007331953e-6 0.0
9.245437260194105e-5 -5.188455345427683e-6 0.0
0.00031913605338234306 -1.677531160884568e-5 0.0
6.885673344376959e-5 -7.910877190983081e-6 0.0
9.495835660282994e-5 -1.7691649800244805e-5 0.0
0.00025535155239019035 5.378498504394033e-6 0.0
0.00024930899844230903 5.361353177818984e-6 0.0
0.0002341313552414884 -1.3038526562087605e-5 0.0
8.751529950383545e-5 -1.6445021080282237e-5 0.0
8.354061185982166e-5 -1.5261924380183216e-5 0.0
6.293672383048171e-5 -8.292762043432545e-6 0.0
6.273855353238679e-5 -8.880280925299285e-6 0.0
0.00010361483721026544 -1.5024689412036238e-5 0.0
0.00024192607163442666 -1.847648791088172e-5 0.0
0.00024638696063081624 -1.7789964002459257e-5 0.0
8.331709056030263e-5 -1.4688651858277955e-5 0.0
7.95478102688661e-5 -1.4242714147989964e-5 0.0
0.00023773688457673435 -1.910696855234262e-5 0.0
0.00014331724460118394 -2.236699312213128e-5 0.0
7.992902173354895e-5 -1.4854144818351237e-5 0.0
7.595470288789365e-5 -1.3683613233445312e-5 0.0
0.00015665458997613923 -1.3972701219109285e-5 0.0
0.00034235651072765216 -3.88653079791614e-6 0.0
0.0003444219374702757 3.521758974717888e-7 0.0
0.00033973535914565275 -1.0400418078038388e-5 0.0
0.00024632153640206673 -2.0638338260795924e-5 0.0
0.0002507995853261841 -1.9565096281940083e-5 0.0
0.00022968000803136839 -1.1782486601702019e-5 0.0
0.00023449059665263508 -1.0875224054679203e-5 0.0
0.00014720663125579697 -2.3286301311961517e-5 0.0
0.0002509406709260052 -1.7156263105424017e-5 0.0
0.00025539056670078627 -1.8644202043331758e-5 0.0
5.707672755416974e-5 -7.946179863735063e-6 0.0
5.718102479703e-5 -8.521468776079839e-6 0.0
0.0002555041531285237 -2.2581308248480614e-5 0.0
0.0002599042914290357 -2.1259151380300064e-5 0.0
7.654571025502444e-5 -1.4488773921056754e-5 0.0
7.253598950731998e-5 -1.3119132968198842e-5 0.0
0.00025605724963053393 5.473749664388189e-6 0.0
0.00024997576970780405 5.493989006864502e-6 0.0
7.194562060239367e-5 -1.2699998228568254e-5 0.0
6.850419212904121e-5 -1.1968233675901626e-5 0.0
6.916155026460977e-5 -1.2618980881483504e-5 0.0
6.512299685212918e-5 -1.1257767848811893e-5 0.0
0.0003482318986869352 -4.931276522654858e-6 0.0
0.00034522471744809994 -1.1830207059261825e-5 0.0
0.00011607885624761602 1.4331261090340472e-6 0.0
0.0001046553254616507 2.626014392360253e-6 0.0
0.000242935082345498 5.162415922185775e-6 0.0
0.00014281796935432993 -2.4736900004928895e-5 0.0
0.00026003301908692617 -2.5650927641424985e-5 0.0
0.0002642773189220744 -2.405702412667649e-5 0.0
0.0002655066329273129 -2.867695836044154e-6 0.0
0.0002555993822320721 -1.6594516435206066e-5 0.0
0.00017647676744844267 -1.65521994255928e-5 0.0
6.440215280479883e-5 -1.1007531395471542e-5 0.0
6.111696537005244e-5 -1.0141852501264178e-5 0.0
6.191502138809399e-5 -1.070858581926853e-5 0.0
5.778320900324615e-5 -9.382570622954972e-6 0.0
5.7040688849530886e-5 -9.2718414895353e-6 0.0
5.356822418157967e-5 -8.294561704936038e-6 0.0
5.2841193392932905e-5 -8.517914610256815e-6 0.0
4.9261357754079035e-5 -7.37175215802713e-6 0.0
4.858919068158847e-5 -7.866801805366919e-6 0.0
4.516941778272228e-5 -6.735187075683792e-6 0.0
4.444740381560925e-5 -7.2539525794308776e-6 0.0
4.581384929728418e-5 -6.385238275186273e-6 0.0
4.115342129341873e-5 -5.591625243922038e-6 0.0
5.1645484782654596e-5 -7.524091072985077e-6 0.0
5.179574175434742e-5 -7.0390329748269805e-6 0.0
4.2208199399549416e-5 -5.5584971956937415e-6 0.0
3.790605933506923e-5 -4.684366763583517e-6 0.0
0.0001265792130649841 -3.791212739218922e-7 0.0
0.00011885676612055456 -8.926915076610727e-6 0.0
0.00023006114496106932 -9.600144730101997e-6 0.0
0.00023485507690343795 -8.56956920272845e-6 0.0
7.435015387019246e-5 -9.93726728892465e-6 0.0
0.0001465389089627424 -2.5968287201804337e-5 0.0
0.0001512622627227129 -2.4290591067570925e-5 0.0
0.00023922909390298666 -9.859464908986283e-6 0.0
0.0002396244549659363 -7.42334501304181e-6 0.0
0.00035405913816171795 -5.772935463569735e-6 0.0
0.0003502321436000814 -1.311015227347432e-5 0.0
0.0003421486761693032 -1.9022571058131404e-5 0.0
0.00024384127720787082 5.2988284029181205e-6 0.0
0.0002445597597503992 5.446724454228138e-6 0.0
0.00013914390319168645 -2.3612851644200186e-5 0.0
0.00013876544986173484 -2.6163010159064464e-5 0.0
0.0001353225597825806 -2.484033038754664e-5 0.0
5.882357950894342e-5 -1.0312780935927408e-5 0.0
0.0002506260039661086 5.684222477390668e-6 0.0
0.000245253345589196 5.628368531719018e-6 0.0
0.00010672075818438776 -1.0613820467597577e-5 0.0
0.00026420301063211316 -2.839698283107526e-5 0.0
0.0002684896325884366 -2.668941120341371e-5 0.0
0.00026867416007530663 -2.2595427058731687e-5 0.0
0.0002729185243232077 -2.5070252996836224e-5 0.0
0.00012109198095868048 6.352649892198433e-6 0.0
0.00010742288031128173 6.938459991847762e-6 0.0
0.00013741670376674582 -1.5408724179351664e-5 0.0
0.0002601410790706819 -3.008144285900135e-5 0.0
0.0003114659982553791 -4.501900324890691e-6 0.0
0.0002726560047865847 -2.9313708329948527e-5 0.0
0.00027726243649024143 -2.760651732013071e-5 0.0
0.00027755457527946876 -2.354731777331324e-5 0.0
0.00028203499551992 -2.5998718633732522e-5 0.0
0.0002824207775403216 -2.2172508013064443e-5 0.0
0.0002867667173140389 -2.4500302448883473e-5 0.0
0.0002863516072522841 -2.8559322875468473e-5 0.0
0.0002909193248719719 -2.6939342738519007e-5 0.0
3.8766649552420566e-5 -4.770788604333926e-6 0.0
3.433804675977304e-5 -3.847346124090978e-6 0.0
3.28995814500814e-5 -3.869649406373101e-6 0.0
0.00015056237208712484 -2.7317167022930977e-5 0.0
0.00015541520194368096 -2.5606511534120982e-5 0.0
0.00013509119745792035 -2.7556792158591776e-5 0.0
0.00013181621338040494 -2.6024602758180892e-5 0.0
0.0003463736624307498 -2.0693500552345456e-5 0.0
0.00035467072680380656 -1.427314570638065e-5 0.0
0.00026247650355127103 -7.029910455959599e-6 0.0
0.0002561035233370421 -3.7499241862379618e-6 0.0
9.2226877361525e-5 3.037841476623963e-6 0.0
9.481951652549931e-5 6.769053329164412e-6 0.0
4.318807261943646e-5 -6.0753545333721994e-6 0.0
0.00013151409625578833 -1.2220957403490148e-5 0.0
0.00024116642874656434 4.976807175160151e-6 0.0
0.0003396622128037043 -2.5504914579511305e-5 0.0
0.00011231471854564648 -7.494949734358064e-6 0.0
0.00023911088340139387 5.149041308275957e-6 0.0
0.0002904035631723779 -3.126802332516489e-5 0.0
0.0002948810591966916 -2.9570959965338794e-5 0.0
0.00027921304998206937 2.3385449996404497e-6 0.0
0.00029332037563072413 2.3631930313038632e-6 0.0
0.00012307125435214415 1.0963790657705921e-5 0.0
6.25145678539716e-5 -9.481847827572399e-6 0.0
4.56364756357237e-5 -6.473015551030186e-6 0.0
4.5823442879658373e-5 -6.057472874085319e-6 0.0
6.284947336796011e-5 -1.2029502165071684e-5 0.0
0.00027725478540291105 -3.21395304306727e-5 0.0
0.0002245258753663875 -6.352505172511917e-7 0.0
0.00020431338193175743 -1.694259030051276e-5 0.0
0.00012449791045037752 -1.7239239101189496e-5 0.0
3.520585992298063e-5 -4.132524877479629e-6 0.0
3.0729475378953165e-5 -3.1679397779866396e-6 0.0
8.054932112647417e-5 -1.6061535239505374e-5 0.0
0.00024407233846491673 -8.720084487842264e-6 0.0
0.0002445146732022206 -6.189001422429015e-6 0.0
0.00013832518625379016 -2.9258143742096727e-5 0.0
0.0002853653722226725 4.347131444950352e-6 0.0
0.000297577040497091 4.1707425837634e-6 0.0
0.00029016851964465667 5.13369839340123e-6 0.0
0.0003021086605177482 4.855597465948427e-6 0.0
0.0003096962747938808 3.920220201579204e-6 0.0
0.0003142268043033509 4.500564018261916e-6 0.0
0.0003065199761819723 4.9160656398268446e-6 0.0
0.00031835600968132996 4.539675161655694e-6 0.0
0.00031068214469581415 4.764087463854554e-6 0.0
0.00032242724128988827 4.394384856197723e-6 0.0
0.0003149080664209382 4.600251453273905e-6 0.0
0.00032636340202213876 4.2484544336031114e-6 0.0
0.0003189741628378695 4.539055910168816e-6 0.0
0.00033025660134718664 4.194812962111072e-6 0.0
0.00030757448330619196 4.800952495517776e-6 0.0
0.0003230000169793299 4.5051380949472155e-6 0.0
0.0003338393399295502 4.1714968530838555e-6 0.0
0.00032244081080754503 3.594270999301659e-6 0.0
7.920220285099875e-5 -1.384829203297655e-5 0.0
7.735195641941789e-5 -1.5982180786608608e-5 0.0
8.124181485452191e-5 -1.7813423284609624e-5 0.0
0.00032701492977016655 4.489430485462182e-6 0.0
0.00033755842174788527 4.141569272400746e-6 0.0
0.0003171324555160939 4.730316552619604e-6 0.0
0.00020920725997659702 -1.784407713432781e-5 0.0
0.00020386247966227945 -1.873208722775467e-5 0.0
0.0002087608049575532 -1.9860213683505602e-5 0.0
0.00020348115656031396 -2.1085795007631066e-5 0.0
0.00020839736100288932 -2.267171976513965e-5 0.0
0.00020328726518010093 -2.442072073251873e-5 0.0
0.00019811291475855427 -2.2602303456544186e-5 0.0
0.00019797062073161656 -2.638852303369276e-5 0.0
0.00019285215982823295 -2.42932720263837e-5 0.0
0.00021824376748456604 -2.6818914608999205e-6 0.0
0.00020830780744590172 -2.720300787035533e-5 0.0
0.0002134505625383471 -2.521448479569163e-5 0.0
0.0001810584827551527 -2.6806616216020774e-6 0.0
0.00016860319433053018 -1.159526236361957e-5 0.0
0.00017490432250277273 -1.0381395738429559e-5 0.0
0.00016967845052703857 -1.0239274943911984e-5 0.0
0.0001760449750535184 -8.98652954437694e-6 0.0
0.00017081002139404533 -8.926875687935085e-6 0.0
0.00017723557041760595 -7.657465755253404e-6 0.0
0.00018248503752731752 -7.745753522240736e-6 0.0
0.0001836867415016184 -6.4079841320759585e-6 0.0
0.00018875023681636424 -6.5559963805454e-6 0.0
0.00018992012977197588 -5.209495826227113e-6 0.0
0.0001944661858756948 -5.431521065839441e-6 0.0
0.00018498469785587797 -5.1274543750235965e-6 0.0
0.00017199675854566828 -7.679829655013324e-6 0.0
0.00016559668741568582 -8.951438353823122e-6 0.0
0.0001933697825640902 -6.9084919046615415e-6 0.0
0.00019913064392014396 -5.71761724500188e-6 0.0
7.825923655415601e-5 -1.7872507688165546e-5 0.0
0.00019443958519747484 -9.003402934127023e-8 0.0
0.00021051905322080883 -1.02141490775585e-6 0.0
0.0002056944503723917 -1.2238785214077016e-5 0.0
0.0003565003690295786 -1.3153790305756399e-6 0.0
0.00036230437902767045 -2.0045321064051175e-6 0.0
0.00021945042665519581 2.1090454591083934e-6 0.0
0.0002136248975397023 2.1919211870384663e-6 0.0
0.000277815914133381 -1.994313072250249e-5 0.0
0.00023918340421606962 1.84167996625174e-6 0.0
0.000350467845047901 -2.187453303562891e-5 0.0
0.00035874255219371637 -1.5139896304642385e-5 0.0
0.0002073729036324737 1.9543516472922263e-6 0.0
0.00013170716972793153 -2.890743448288779e-5 0.0
0.00012850101763248908 -2.720039380359901e-5 0.0
0.00022619139269678263 1.9648555579978506e-6 0.0
0.00019273065145719166 -2.8503448898764963e-5 0.0
0.00018697859043079895 -2.6046996835620353e-5 0.0
0.0001286107278401637 -2.457141751090604e-5 0.0
0.00012528177790289171 -2.5584462175739602e-5 0.0
0.00012536794439352137 -2.3209759850091753e-5 0.0
0.00012197935431002547 -2.4057620625110433e-5 0.0
0.00012201222974110332 -2.661943531631422e-5 0.0
0.00011865660108301951 -2.4931693403317426e-5 0.0
0.00011878693751621573 -2.762851723471004e-5 0.0
0.00011533616169282033 -2.5807658696923285e-5 0.0
6.003313398756098e-5 -1.1820302604304995e-5 0.0
0.0003640630407460258 4.872074843177206e-7 0.0
0.000251175439806385 5.807789998869351e-6 0.0
0.00024570135669311414 5.762446095029695e-6 0.0
0.00011784787495789918 -1.3122968976640862e-5 0.0
9.562657163092442e-5 -1.5221894170706249e-5 0.0
0.0003408605193874739 3.798489781603808e-6 0.0
0.00033462621707480326 3.930899429307742e-6 0.0
0.00015464715652430106 -2.891591343721623e-5 0.0
0.00015987813162188176 -2.701701225895471e-5 0.0
0.0002640572927954058 -3.269240369552149e-5 0.0
5.668480005071624e-5 -9.651598969450718e-6 0.0
0.0002228981714971884 2.650281675670467e-6 0.0
0.00024075959363579048 5.513566155805936e-6 0.0
0.0002412835072996804 5.60358155163959e-6 0.0
0.0002828772918174372 -1.8879623772604658e-5 0.0
0.00028466486996075004 1.7214720056299832e-6 0.0
0.0002954409438840293 -2.5528295248951037e-5 0.0
0.0002994563829292572 -2.797891583609378e-5 0.0
0.00029872249234875537 -3.2330731470963685e-5 0.0
0.00030338395607361124 -3.06526602646041e-5 0.0
0.00018028646162994604 -2.12912020698987e-6 0.0
6.38917918611751e-5 -1.3708506016940793e-5 0.0
0.00019530887784840857 -4.077176162588211e-6 0.0
0.0002992674346004961 5.057301790346436e-6 0.0
0.00015717538613937981 -2.268187229619468e-5 0.0
8.201587704791031e-5 -1.9834410247381178e-5 0.0
8.500524996484691e-5 -1.9760120433318294e-5 0.0
0.0002602175260810948 -3.4269305857882715e-5 0.0
0.0001220008389362768 -2.1959104980569428e-5 0.0
0.00023046258147853266 -7.374439045832292e-6 0.0
0.00022556021905762935 -8.398262609419194e-6 0.0
0.0003541243162458605 -2.3121188933047712e-5 0.0
0.0003629071125666526 -1.574176352517315e-5 0.0
0.0003681830154460729 -7.580608512990004e-6 0.0
0.00013723292884460484 1.1220327793776115e-5 0.0
3.1631629994742215e-5 -3.4807456428043227e-6 0.0
2.7049106014202155e-5 -2.507968733621463e-6 0.0
2.6617375877871305e-5 -2.5101085635998545e-6 0.0
0.0002541132174935974 -8.265676099814227e-6 0.0
0.0002597880649518505 -9.672608784207751e-6 0.0
0.000248735789175047 -4.632385298882943e-6 0.0
0.00026286284824210133 5.4248555080730256e-6 0.0
0.0003310645554134654 4.424467854998859e-6 0.0
0.0003417062800247114 4.070998872147583e-6 0.0
0.0001284998908040121 -3.0241862393872728e-5 0.0
0.00025914509422406953 5.185200826592908e-6 0.0
7.890056952561186e-5 3.038809379915757e-6 0.0
8.041078882397987e-5 5.938699404058777e-6 0.0
9.841305698852983e-5 9.423781953509265e-6 0.0
8.178782795419527e-5 7.295256608775568e-6 0.0
0.00010835628278672382 1.1689273902502537e-5 0.0
0.00018698691266652684 -2.254225170619708e-5 0.0
0.0001151391433264621 -2.336387009406227e-5 0.0
0.00011182900674635844 -2.408644671922656e-5 0.0
0.00011210461146238482 -2.6620296562716674e-5 0.0
0.00010854308404309248 -2.4793705469796236e-5 0.0
0.00030394755798997654 -2.6442871296413293e-5 0.0
0.0003076815497093252 -2.9063788995625733e-5 0.0
0.0003071727222047026 -3.346377642835781e-5 0.0
0.00031136156344602195 -3.1860517707913536e-5 0.0
0.00024002412925934436 -5.015393378454648e-6 0.0
0.0002449982389455354 -3.77861341779288e-6 0.0
0.0002132905649253194 -2.970362119957214e-5 0.0
0.00021796609173175554 -2.768554748930156e-5 0.0
0.00016677871760180734 -7.767457627099669e-6 0.0
0.00016047043979095963 -9.015892621238688e-6 0.0
0.00014931249760332342 -3.103972404095756e-5 0.0
0.0001089386724002008 -2.7287156645296714e-5 0.0
0.00010541705973337527 -2.5426336153129417e-5 0.0
0.000335548293323224 -2.370961284107624e-5 0.0
0.00033377176465795036 -2.9298952208088955e-5 0.0
0.00032992149445779177 -2.7434558495196577e-5 0.0
0.0003291737249309409 -3.208884597863759e-5 0.0
0.00015905261749946987 -3.081041106397687e-5 0.0
3.57577693334636e-5 -4.7171738741497844e-6 0.0
4.8201105656439254e-5 -8.198710726091476e-6 0.0
4.3481368119075776e-5 -7.271024836168589e-6 0.0
3.915747049563367e-5 -5.359900610687842e-6 0.0
3.890230668775012e-5 -5.007771099933044e-6 0.0
4.6110938152737615e-5 -5.739304452138599e-6 0.0
3.879964914127122e-5 -4.7686914340418085e-6 0.0
4.640210801500699e-5 -5.5024644835078575e-6 0.0
3.8699886904470563e-5 -4.566263985307042e-6 0.0
4.6819297394480434e-5 -5.309214268310124e-6 0.0
0.00033755007262492316 -3.104607670175943e-5 0.0
0.00010812682536506645 -2.2513699278012983e-5 0.0
0.0002782045824747107 -1.713340047092481e-5 0.0
0.00025623575830614395 -3.145959303159314e-5 0.0
0.00025653366480253245 -3.569734381505429e-5 0.0
0.0002526131345916677 -3.295827838670548e-5 0.0
0.00018693421124870718 -3.059544967830821e-5 0.0
0.0002561635276253771 5.792791525340426e-6 0.0
0.00031083712218392347 -3.6286484771804124e-5 0.0
0.0003730444193267733 -7.174603444333508e-6 0.0
0.00036671959966324966 -1.585551576776605e-5 0.0
0.00014003638248097442 1.5252373304308561e-5 0.0
0.0002502098021267881 5.670248528862024e-6 0.0
0.00020088121553250743 -1.1392017437709248e-5 0.0
0.0002061827676650234 -1.0495680865384245e-5 0.0
0.00019817238413346027 -3.1322951718360305e-5 0.0
0.00018113761959667087 -2.800797890582375e-5 0.0
8.835033294002096e-5 -1.0008133149290328e-5 0.0
0.0003482193291278348 3.6866043580214184e-6 0.0
0.00035240717925780104 3.5735173108646306e-6 0.0
0.00034565963868541885 3.919016899093681e-6 0.0
0.00035621524305887875 3.4260128822252377e-6 0.0
0.00028779021145600614 -9.378526161802176e-6 0.0
0.0002236475883895535 -1.754910407072729e-5 0.0
0.00022602102353664244 -6.294255833117259e-6 0.0
0.00015985711494069684 -1.6908503227135236e-5 0.0
0.00023623158907828414 3.919132867882752e-6 0.0
0.00024906591828872764 -7.491847486108454e-6 0.0
0.0002512821391418587 -1.5715959945611924e-5 0.0
0.0002559879677377639 -1.5013829552480414e-5 0.0
0.00025197095118011554 -1.1399729303789823e-5 0.0
0.0002583664672203429 -1.1873945684847122e-5 0.0
8.573807742939926e-5 -2.183257451472049e-5 0.0
8.858178662795736e-5 -2.1708927023756298e-5 0.0
3.862759238415705e-5 -4.408445515045257e-6 0.0
4.6933865208046964e-5 -5.153262321852472e-6 0.0
5.4986459437038996e-5 -5.908838575661515e-6 0.0
5.556496795209198e-5 -5.751400065470706e-6 0.0
4.721601123673275e-5 -5.011268994978793e-6 0.0
5.6414793072029196e-5 -5.64074435421099e-6 0.0
4.758395822497646e-5 -4.892307999807117e-6 0.0
5.7486686813937955e-5 -5.4797022710750765e-6 0.0
4.785278805799873e-5 -4.645836188815223e-6 0.0
2.8006884949180737e-5 -2.868910405038995e-6 0.0
0.0002210502749251015 -7.303552871038561e-6 0.0
2.3300592286493793e-5 -1.9149197197439344e-6 0.0
7.923407962971818e-5 -1.9879590474735558e-5 0.0
0.0003701214630873308 -1.3186320279658566e-7 0.0
0.00018019753371419276 -1.0640799669326121e-5 0.0
0.00023743602289408373 5.25360841968485e-6 0.0
0.0002384170140621213 5.277322291742922e-6 0.0
5.8366550790237594e-5 -5.053606787885834e-6 0.0
6.125637382263593e-5 -1.3593249909792711e-5 0.0
5.739765932075197e-5 -1.1668452475658762e-5 0.0
0.0001125717028677644 -2.9664247065304433e-5 0.0
0.00026360727686037893 -3.686455390264577e-5 0.0
0.00013165089633318045 -3.220588052650563e-5 0.0
0.0003149343422525972 -3.4611664090966366e-5 0.0
0.0003762576619065843 -3.620529571049492e-6 0.0
0.00015934853386185703 -1.0213670400623899e-5 0.0
0.00015438304927314385 -1.0227462675450313e-5 0.0
0.00015331087154774292 -1.1426240850680908e-5 0.0
0.0001530141375306335 1.5694403648456408e-5 0.0
0.00014885350840204464 -1.1337860337025405e-5 0.0
3.9992361936016835e-5 -5.848723064311e-6 0.0
0.00021786426380113568 -3.256529793668357e-5 0.0
0.00022245654691763447 -3.056711354269941e-5 0.0
0.00022219716846538036 -2.5976022132534886e-5 0.0
0.00022667674218398374 -2.8926273110698367e-5 0.0
0.00026041131892782767 -1.606902003841327e-5 0.0
0.00026085203216381767 -1.4118647769009404e-5 0.0
0.0003716401517037366 1.3227161538441396e-6 0.0
0.00036521551947807867 1.9331213999008377e-6 0.0
0.00024246357117522157 5.1674911219603045e-6 0.0
0.00023923810419162507 4.64634316541514e-6 0.0
7.553717716229905e-5 -1.790794575885125e-5 0.0
0.00010596890181344637 -2.7799258970849833e-5 0.0
0.00010247058801597569 -2.5944071696490437e-5 0.0
0.00019701834676628073 -2.8612861271352835e-7 0.0
0.00030669125775358995 -3.7976307706982965e-5 0.0
4.8152598312511225e-5 -4.124156316386201e-6 0.0
0.00010184965062943381 -2.357035628337769e-5 0.0
0.0002269778551975641 -3.3661300462953985e-5 0.0
0.00023118975238154294 -3.201867179833562e-5 0.0
0.00022151977087276904 -5.372201059707512e-6 0.0
0.00021657642436277136 -6.333088598559033e-6 0.0
0.00021714529602857163 -4.562836970141587e-6 0.0
0.00020842105494175365 1.9025910631008982e-6 0.0
3.900565763148026e-5 -6.288739513276392e-6 0.0
2.424906434604259e-5 -2.3221390037437486e-6 0.0
0.0002266110980771672 -2.4336783313907677e-5 0.0
0.00022890655080173196 -1.2637662468637939e-6 0.0
0.00018106773459682207 -3.269811064807333e-5 0.0
8.282731402867844e-5 -8.14356373294304e-6 0.0
0.00013527936455661287 -8.549457820519333e-6 0.0
6.502741564269237e-5 -1.562681007174534e-5 0.0
0.0003154762013070088 -3.0297938400553475e-5 0.0
8.334134545441922e-5 -1.4208995266599224e-5 0.0
7.899324855298205e-5 -1.3389033107898723e-5 0.0
8.354288536392674e-5 -1.3612665727809872e-5 0.0
7.902027314940854e-5 -1.277425898408403e-5 0.0
8.373382373901998e-5 -1.2888447691312373e-5 0.0
7.445286269622735e-5 -1.2542006673135988e-5 0.0
0.00025292170362265556 -3.709914756469655e-5 0.0
0.0002492771979757696 -3.447923906057286e-5 0.0
6.351493262181639e-5 2.333228196437135e-6 0.0
0.00018699742027035573 -3.5272167596169856e-5 0.0
0.00018200117662092646 -1.7103663896202338e-5 0.0
0.0001756548970223774 -1.8224500457283444e-5 0.0
8.937919319857212e-5 -2.382402554828979e-5 0.0
3.280191668639424e-5 -4.5992437365459045e-6 0.0
3.43224763783694e-5 -5.155459821321501e-6 0.0
0.0003379731188235935 1.0037568312067726e-6 0.0
0.00034573804887403714 2.4524051898740526e-6 0.0
6.35955938906747e-5 -6.364144087216584e-6 0.0
9.216294640351815e-5 -2.364895519492593e-5 0.0
9.164157782079547e-5 -2.1618509844726844e-5 0.0
9.29856915838459e-5 -2.5795800214382143e-5 0.0
8.66963152349155e-5 -2.3889731872872993e-5 0.0
8.727914578269255e-5 7.690062295299755e-6 0.0
0.0001356087126103653 -2.2592562740356107e-5 0.0
0.00022058086736393326 -9.353077147073935e-6 0.0
0.00033870852619907526 2.9060507787515185e-6 0.0
0.00021307431331834187 -3.471525603981704e-5 0.0
0.00012853178897709468 -3.356253815018699e-5 0.0
0.0003771677797050179 -6.571464575367577e-6 0.0
0.00036985457080108286 -1.5884895060576016e-5 0.0
0.00015073803140543327 1.1094812892820059e-5 0.0
0.00010320064848112892 -2.8260017538548386e-5 0.0
0.00024044305244008416 -2.684217905705339e-6 0.0
0.00024585057965833456 -1.5333324407484889e-6 0.0
4.78445449111172e-5 -8.046363684429893e-6 0.0
5.866941651082465e-5 -1.3435201988519614e-5 0.0
5.487062705630436e-5 -1.1538441294390404e-5 0.0
5.356693913685366e-5 -9.877316874636636e-6 0.0
7.658826833585368e-5 -1.9877716865516868e-5 0.0
1.9327186441101798e-5 -1.3996056488537671e-6 0.0
1.851458145663773e-5 -1.2514993330507316e-6 0.0
0.00023145067636812686 -3.6761736577487876e-5 0.0
0.00023560282013098066 -3.507580403647187e-5 0.0
0.00023510731495338322 -3.0130900974331218e-5 0.0
0.0003081849855069847 -2.4904296607324226e-5 0.0
0.00030436216781151037 -2.248972360283004e-5 0.0
0.0003101479801966567 -4.068911663606536e-5 0.0
7.440873794386286e-5 -1.1910058152594015e-5 0.0
6.994974386031401e-5 -1.1697647076251557e-5 0.0
0.0002503572228730727 -2.509896791980634e-6 0.0
0.00036289724088014205 2.9703596103799982e-6 0.0
0.00036658961831243555 2.8016787446877905e-6 0.0
0.00037210129015226897 2.0634801791952763e-6 0.0
0.0003593309006851408 -2.6140444239269967e-5 0.0
2.892181382144573e-5 -3.682270005383847e-6 0.0
0.0002381437950562555 5.060782656206568e-6 0.0
0.00023424108743391736 4.808982800226318e-6 0.0
0.00023304417166568854 4.7045338764293645e-6 0.0
0.0002294670334168508 4.356917758859373e-6 0.0
0.00022825727211063203 4.3073872873003365e-6 0.0
0.00023053064364640747 4.417774271990125e-6 0.0
0.00020152307056837482 -9.677979231463574e-6 0.0
0.0001616159820283442 -7.90497691424247e-6 0.0
0.00016802253504632166 -6.677684078568672e-6 0.0
5.61552027899236e-5 -1.3282574806566762e-5 0.0
5.234570585124597e-5 -1.134505683762663e-5 0.0
0.00031743981294668066 2.3422944608856287e-6 0.0
0.0003310758379573152 2.1351618958885247e-6 0.0
0.00033640071808684784 3.2176748911300448e-6 0.0
0.00034553720784713087 1.959030245934242e-6 0.0
0.0003423192011795573 6.003345904990611e-8 0.0
0.00017534471046106847 -3.027008538403917e-5 0.0
0.00017571611077075552 -2.6356785761708683e-5 0.0
0.0001749757429567298 -3.487895088421687e-5 0.0
0.00023506777997031684 4.760131227068168e-6 0.0
0.00023365462123933365 4.645338197458515e-6 0.0
6.312491540931676e-5 -6.590842645933297e-6 0.0
3.693821981323687e-5 -3.618168003136925e-6 0.0
0.0002493716918505169 -3.8532626040040605e-5 0.0
7.756817889599708e-5 -1.1052487854555007e-7 0.0
0.00024363099855346861 -1.1208942888536454e-5 0.0
0.00023256010584140943 4.714964469782692e-6 0.0
0.00022708617223072452 4.292547352032275e-6 0.0
0.00023068255031921022 4.622477276295795e-6 0.0
0.00022587998886460303 4.236956870001788e-6 0.0
0.00022943620552866875 4.524065209421773e-6 0.0
0.00022468117915559144 4.113427625498179e-6 0.0
0.00022829817370259708 4.3715110855770334e-6 0.0
0.00022352350290278468 3.942379457705414e-6 0.0
0.0002273711869629117 4.166475134176544e-6 0.0
0.0002222521691897019 3.817450903080301e-6 0.0
0.00021988190378429638 3.618081240855511e-6 0.0
0.00025667204266550497 -3.967763098029254e-5 0.0
0.00037900034449144584 7.743980170204739e-7 0.0
0.00012554217434697894 -2.1300715781978498e-5 0.0
0.00012201210190629266 -2.0319127525002697e-5 0.0
0.00034719816273724973 -2.866193589913826e-5 0.0
0.0001500274415207876 -1.0315856990526014e-5 0.0
0.00022495904856327883 3.861272851741835e-6 0.0
0.0001137407282738007 1.3562785250009407e-5 0.0
3.1179301428178744e-5 -3.925097235165581e-6 0.0
0.00016760140211228165 1.57573382778399e-5 0.0
0.00016284810620408437 1.036901429655595e-5 0.0
0.00027346350569436864 4.748926869493851e-6 0.0
0.0003504419531220785 -3.0047146596074776e-5 0.0
0.00034486289287566363 -3.441643392717662e-5 0.0
0.00014767538773689863 -1.2550926471237639e-5 0.0
0.00014396950820810855 -1.2183072953136833e-5 0.0
6.738282387430981e-5 -1.4211458322905122e-5 0.0
2.0295234012127087e-5 -1.8085514492586092e-6 0.0
2.590752642505316e-5 -3.688342548806793e-6 0.0
2.6730607648259357e-5 -3.978328516016316e-6 0.0
1.4798354326128018e-5 -9.449512764067364e-7 0.0
0.0002563492346839843 -1.275473081975677e-5 0.0
0.00026135340400640144 -1.1516655920640713e-5 0.0
0.0002660069142799221 -1.3041406086954483e-5 0.0
0.00026650140660211346 -9.995451592096463e-6 0.0
0.0002187116620291533 3.417216170098426e-6 0.0
0.00013325319549512788 1.729439800160194e-5 0.0
0.00016093153311326478 2.0169885220772165e-5 0.0
0.0002121047478461536 -5.515214147758258e-6 0.0
0.00021286387248523959 -3.842133728780576e-6 0.0
0.00016289146218154596 -6.921060327045961e-6 0.0
0.0001379391165907157 -1.0278643717764558e-5 0.0
0.00013170324169563247 -3.5672497986150167e-5 0.0
0.0002860131504966307 -3.309303540110957e-5 0.0
0.0002898922480179813 -3.5818626156525835e-5 0.0
0.0002856762920061057 -3.768352777339331e-5 0.0
0.0002894056068125275 -4.0330320163018156e-5 0.0
0.00028529335894045445 -4.213673480569677e-5 0.0
0.0002815579870541929 -3.9590267033927474e-5 0.0
0.00027231810493590785 -3.4434663511035844e-5 0.0
0.0002483296716371802 -2.9847749133662686e-5 0.0
0.0002506710294817842 5.927277995348213e-7 0.0
0.00019886723437282318 -1.7791443773276965e-5 0.0
6.65465403527546e-5 -6.102032850585611e-6 0.0
0.0003632255356132403 -2.5148698160017195e-5 0.0
0.00037258124179098554 -1.584464995356175e-5 0.0
0.0002935474910905924 -3.849170680680568e-5 0.0
0.000293067173959302 -4.2867893741233834e-5 0.0
0.000297071891068732 -4.115025436969353e-5 0.0
0.00013472154445263085 -3.428574678422352e-5 0.0
0.00017026963561184234 -1.768036418697925e-5 0.0
0.0001695622348274778 -1.9447060270163804e-5 0.0
0.00017486961777448797 -2.0225397418089943e-5 0.0
0.00011638660955626583 -1.7189764856752854e-5 0.0
0.0001644592643278517 -1.886790814498037e-5 0.0
0.00022232073318415583 -2.2038621670923952e-5 0.0
0.00030888969015089153 -2.0757720779904713e-5 0.0
0.00031898068709670544 -3.290258708007766e-5 0.0
0.000318288158858259 -3.727704578631415e-5 0.0
0.00032029755284661185 -2.8235063186748846e-5 0.0
5.421964698197406e-5 -6.414029206414975e-6 0.0
0.00012213655211174674 -2.954340261130323e-5 0.0
0.00011911401103300009 -3.0492056815884546e-5 0.0
0.00012240265080762984 -3.247187859030292e-5 0.0
0.000119664048918006 -3.3171426475649336e-5 0.0
0.0002712190336933488 -1.1498540554474917e-5 0.0
8.03145035528897e-5 -2.187472035903312e-5 0.0
7.3074888501885e-5 -1.7950087496900664e-5 0.0
0.00035981928597164474 3.1547110654845954e-6 0.0
2.9862544961350487e-5 -3.5211029933373565e-6 0.0
2.9570847079302098e-5 -3.4226160525483025e-6 0.0
0.00024535687559309923 -3.529162146256152e-5 0.0
0.000246090451912188 -4.0034408504954395e-5 0.0
0.00019599795877971513 -1.064086551330347e-5 0.0
0.00035120216548687236 2.665307497697175e-6 0.0
7.409642555251821e-5 -1.982927137333285e-5 0.0
0.00027968331577096913 -1.1082228134220909e-5 0.0
0.0003309661548661993 -2.176259387783662e-5 0.0
0.00033548911177740565 -4.304671473077941e-6 0.0
0.0003389560027519476 -3.7931052618657715e-6 0.0
0.00026194480917508594 -8.645113499016356e-6 0.0
0.0002834767166245751 -1.616911080520296e-5 0.0
0.0002880612366150427 -1.7841185385467015e-5 0.0
0.0002545689346410259 -1.5311272704514135e-5 0.0
0.00026119304709542256 -1.6323642901795513e-5 0.0
0.00026482693702920826 -1.209123301853692e-5 0.0
0.0002270313842215537 -3.8553207129365785e-5 0.0
0.00010648153818464627 -3.0061149510000686e-5 0.0
0.0001634786781074317 -1.148459027250952e-5 0.0
0.0002355315771635969 -4.004306729661942e-6 0.0
0.00021068264106734912 -1.1365728462528795e-5 0.0
0.00021768414721100402 -3.7592870761082456e-5 0.0
9.561050102996837e-5 -2.5608550432089125e-5 0.0
0.00011846854999210025 -2.079710933106413e-5 0.0
5.7401203990997686e-5 -9.1341413435684e-6 0.0
0.00035833194397917774 1.7559186380963943e-6 0.0
0.0002732490905444575 -1.8102204661595936e-5 0.0
4.2853412914887305e-5 -7.011009492352718e-6 0.0
0.000139670934051108 2.1333338799610295e-5 0.0
0.00021398753483060516 -1.8877123207907702e-5 0.0
0.0002812063768336848 -4.3913246545557595e-5 0.0
0.0002773413062094597 -4.136573769442237e-5 0.0
0.0002425342206950412 -1.532292961552255e-5 0.0
0.000250915926696766 -4.015038770138764e-7 0.0
0.00011250589548747122 -1.450234093407258e-5 0.0
0.00016866244787934882 -2.199924140560631e-5 0.0
0.0002336980092001046 -3.860623930869554e-7 0.0
0.00011843884401293457 -1.935311509241504e-5 0.0
0.00011475973892674374 -1.9706138707252363e-5 0.0
9.642342458403561e-5 -2.7717986423499238e-5 0.0
7.154905339822455e-5 -6.890239138510181e-6 0.0
7.259345661817818e-5 -6.705358686623359e-6 0.0
3.705029963621335e-5 -3.081902756900989e-6 0.0
4.923958033870058e-5 -2.958673162093854e-6 0.0
0.00030612620523954285 -4.236334531157487e-5 0.0
5.2470924916304554e-5 -9.005785611947928e-6 0.0
7.007882663468693e-5 -1.2157552075521794e-5 0.0
6.560494453509928e-5 -1.1302049927788554e-5 0.0
0.00031626305615396224 -2.5830241872391722e-5 0.0
0.0001533399036018221 -1.976193462357678e-5 0.0
0.00020673168923113135 -8.633090610983692e-6 0.0
0.00024400839332177157 9.680278036284189e-7 0.0
0.00024342793592252947 -5.013842485478437e-6 0.0
0.00024040654766264457 1.4503596857165567e-7 0.0
0.0002405487670967581 -5.575178543045039e-6 0.0
0.0002433392150381727 -9.89347792016453e-6 0.0
0.0002639496477258773 5.567258043311217e-6 0.0
0.0002710925330272271 5.462312888765446e-6 0.0
0.00027280987809382394 5.603474684055792e-6 0.0
0.0002798207707145109 5.454834327758294e-6 0.0
0.00027808386043413636 5.338783691882441e-6 0.0
2.4757692115594464e-5 -3.313734857382696e-6 0.0
0.000271963261013004 -8.375469992497244e-6 0.0
6.120673413213366e-5 4.476506570807217e-6 0.0
6.626347892750177e-5 4.713360748322616e-6 0.0
0.0002357105870426702 -3.966041764768252e-5 0.0
1.9414305493009566e-5 -2.3192129016235436e-6 0.0
0.0002965221926180769 2.589465383356418e-6 0.0
0.00030359848643334475 3.6689197185176437e-6 0.0
0.00029792628245188985 4.080062124233936e-6 0.0
0.0003100532916875414 3.3540789007689318e-6 0.0
0.0003110015887394545 4.308594292676869e-6 0.0
0.00031794057302701403 4.05643416720468e-6 0.0
8.838055903924457e-5 -1.3697619274961617e-5 0.0
8.880591936827735e-5 -1.2915952010111093e-5 0.0
8.390458071402471e-5 -1.210007103166855e-5 0.0
8.916685916645958e-5 -1.2113731245389774e-5 0.0
9.415643342890344e-5 -1.2870272560011147e-5 0.0
9.462465904059452e-5 -1.2033270088384934e-5 0.0
9.96042752429342e-5 -1.2715045118416296e-5 0.0
0.00010399817255477975 -3.0351145224255996e-5 0.0
0.0001001729462552396 -1.1825063975235773e-5 0.0
0.00010505765300455292 -1.2465208663861946e-5 0.0
3.813780331001434e-5 -4.111042917269874e-6 0.0
7.070235000944942e-5 -7.17689038543815e-6 0.0
0.00010429999525069067 -1.3367907783687595e-5 0.0
8.464838010183962e-5 -1.1395830873513807e-5 0.0
0.00030490427752418434 -1.8528268199113572e-5 0.0
0.00030040629827352667 -2.0346935155858154e-5 0.0
0.00016958754002686187 -3.259210480915553e-5 0.0
0.0001691215121119467 -3.713110703405231e-5 0.0
0.000239045471263124 5.588595534749064e-7 0.0
0.0001499146299846981 6.096482247146565e-6 0.0
0.00016096175604838407 4.827344881026167e-6 0.0
0.00017345724219910774 8.682607509848936e-6 0.0
0.00017154755072510623 2.737257345415533e-6 0.0
0.0001602690767753122 -2.3035065872258782e-7 0.0
0.00017043779605010076 -1.9838626111609597e-6 0.0
0.00015994017660898787 -3.3871114756268607e-6 0.0
0.00016983054234978871 -4.03712787024457e-6 0.0
0.00015958084247896792 -4.604802200052876e-6 0.0
0.00017077096772567883 -4.413489485437785e-6 0.0
0.00015894831493034524 -4.976951992237023e-6 0.0
0.00016791370243965988 -4.545751363511982e-6 0.0
0.00015791711888926994 -5.008331760704165e-6 0.0
0.00016648616649787398 -4.483796076038705e-6 0.0
0.00015738921433797862 -4.970487006783604e-6 0.0
0.0001654901094014721 -4.394198377269289e-6 0.0
0.0001566072826066186 -4.924867689592863e-6 0.0
0.00016418880615301523 -4.300437746362544e-6 0.0
0.00015581772106894296 -4.853868062463937e-6 0.0
0.00016310277770300306 -4.2470211731761115e-6 0.0
0.0001549774256127932 -4.842021833805236e-6 0.0
0.00016195628404804967 -4.222363031339115e-6 0.0
0.0001539330473680229 -4.8745016884180386e-6 0.0
0.00016084653679518442 -4.250410721089716e-6 0.0
0.00015290244944029028 -4.9575951762930565e-6 0.0
0.00014640997553014333 -5.503622979919106e-6 0.0
0.0001454598512099588 -5.659513575634222e-6 0.0
0.00016021292135641097 -4.292744424282849e-6 0.0
0.00014890217577191142 -5.398888493175222e-6 0.0
0.00016914499007794233 -3.5386909782336847e-6 0.0
0.00017243335536305468 -3.571582905900814e-6 0.0
0.00015067476139075914 -4.36420844293679e-6 0.0
0.00017503949782852706 -3.844956330628246e-6 0.0
0.0001390228653058236 -6.110313668693008e-6 0.0
0.00013827377301924986 -6.324244033168353e-6 0.0
0.00014454865244298694 -5.895704877893615e-6 0.0
0.00013754342270298398 -6.606699251129786e-6 0.0
0.00014935268618452527 -5.468822330487131e-6 0.0
0.00017937425775224882 -4.050026012596059e-6 0.0
0.000139937333587609 -5.96848856501256e-6 0.0
0.00018155957330319618 -3.324066867666853e-6 0.0
0.00014370288734216833 -6.197249290833477e-6 0.0
0.0001368047375999426 -6.970067920045762e-6 0.0
0.00013078876505192666 -7.249519378113607e-6 0.0
0.00013235275663350988 -6.491365584503441e-6 0.0
0.00013298597127731448 -6.3760530883766306e-6 0.0
0.00015089620975995067 -5.3669369612619025e-6 0.0
0.00014983141681476622 -5.710046055299654e-6 0.0
0.00015714502887471368 -4.8170967602128646e-6 0.0
0.00018466286483020142 5.659137450239664e-6 0.0
0.00018881787909268277 1.0931945662837158e-5 0.0
0.0001303530199546309 -7.658977987098313e-6 0.0
0.0001242105273767111 -7.808633763469913e-6 0.0
0.00012472761470966448 -7.44741391480374e-6 0.0
0.00011779590768243447 -7.88862627778776e-6 0.0
0.0002128770417101349 -3.9753767823855377e-5 0.0
0.00020824436562384428 -3.6903873517580353e-5 0.0
0.00034780807053683285 -3.571839986551575e-5 0.0
0.000226672830795817 -2.0691577097387925e-5 0.0
0.00023084266133615287 -2.3015753452063482e-5 0.0
0.0001251825140388403 -1.974256617525224e-5 0.0
0.0001287533904065349 -2.0571440431411536e-5 0.0
0.00030151203337564934 -4.0306983423217094e-7 0.0
0.00022646545099600394 -4.2500348740072e-6 0.0
0.00013628045362714175 -7.4172757998021945e-6 0.0
9.852878631625225e-5 -2.4001877568036715e-5 0.0
9.830010185544303e-5 -2.180948798493489e-5 0.0
0.00010141254614956452 -2.1429522327106176e-5 0.0
0.0002463223548870266 3.5303380970602015e-7 0.0
0.00023385305866096152 4.808367263556752e-6 0.0
0.00015241423871632898 -1.265083645328052e-5 0.0
0.00014692101349331676 -1.3756025787233192e-5 0.0
0.00023132116411453147 3.893777155230165e-6 0.0
0.00022975487355876011 3.816959187229803e-6 0.0
0.0002320574033004999 4.39861611368646e-6 0.0
0.00022786182384062196 3.695071937182855e-6 0.0
0.00023305033804066935 3.94344664971632e-6 0.0
0.0002320888774037563 4.53378071659136e-6 0.0
0.00023138403027046832 4.292305569845929e-6 0.0
0.00022608871839480192 3.818310099728688e-6 0.0
0.0001693618873824276 -5.715434858481323e-6 0.0
0.00017465330506467747 -5.423413780465001e-6 0.0
0.00017607807540932958 -4.495015860662948e-6 0.0
0.0001812457490241947 -4.172998674830472e-6 0.0
0.00018266145070834752 -3.3103354210160986e-6 0.0
0.00018765987343030759 -2.986904861450293e-6 0.0
0.00018907100232474526 -2.157989017254183e-6 0.0
0.00019394637611374618 -1.8413119128461839e-6 0.0
0.00019247588644804084 -2.802982300195412e-6 0.0
0.00019859665597902413 -1.5688273490983866e-6 0.0
0.00021802518432304945 -2.9428482620368705e-6 0.0
0.000213658369301993 -2.33377976782228e-6 0.0
0.00020857211916771164 -3.30071489717811e-6 0.0
0.00020943742697574126 -1.9335114487904946e-6 0.0
4.747331757257709e-5 -7.630662403380766e-6 0.0
5.3754429535998825e-5 -1.3109417954711257e-5 0.0
4.9974802616457664e-5 -1.1143495875032159e-5 0.0
4.863487115578218e-5 -9.397253190746697e-6 0.0
4.605586653102378e-5 -9.13597236068814e-6 0.0
0.00019674909015286103 -8.992896095966535e-6 0.0
0.0002556442749642969 -1.1807984135019598e-6 0.0
0.0002546886520339067 -3.59711209189086e-6 0.0
0.00012652517316114146 1.4213891241986988e-5 0.0
0.0002151450551922765 3.0448349585420532e-6 0.0
0.00021621949328280655 3.1795114509884227e-6 0.0
0.00023906664041678014 4.502786773097415e-7 0.0
0.000372006737363626 -3.138132898249913e-6 0.0
0.0003786388356196228 -1.466704537044187e-6 0.0
0.00038325456929640556 -1.6514155622815028e-6 0.0
1.9046808895597267e-5 -2.7166148949925947e-6 0.0
1.9698107330505533e-5 -2.8591544003392437e-6 0.0
2.689441235494669e-5 -4.1013512753982925e-6 0.0
2.0864372823630396e-5 -2.979368232402343e-6 0.0
2.7302048318177622e-5 -4.022626320146083e-6 0.0
2.1594406009557243e-5 -2.811191989619513e-6 0.0
1.3133051861019454e-5 -1.7332230894325283e-6 0.0
0.00019099195060715089 -1.0025769015822121e-5 0.0
9.53911492981809e-5 -1.1222145982850154e-5 0.0
6.007464030088575e-5 -1.524839754232933e-5 0.0
0.00015589568000482813 -5.173648590098381e-6 0.0
0.0003437067387591498 -3.9052082457538286e-5 0.0
0.0003405276387655852 -3.862356147470471e-5 0.0
0.00028863052189481573 -1.4731804807798989e-5 0.0
0.0002942286065512461 -1.6280255645101686e-5 0.0
0.00029420748843636904 -1.2224046720113797e-5 0.0
2.384032736561716e-5 -2.405962399381698e-6 0.0
0.00012902436225852932 -3.655602647763455e-5 0.0
9.39579212475799e-5 -2.7856652618002888e-5 0.0
1.589241854587815e-5 -1.3808590612735135e-6 0.0
2.1544146930402424e-5 -2.84883305011137e-6 0.0
7.920254150704411e-5 -1.1347519167162328e-5 0.0
0.00024277768716482912 -1.1369903120301426e-5 0.0
0.00024573924187910125 -1.4625657516678751e-5 0.0
0.0002782959595688033 -1.4717330642680275e-5 0.0
0.0002922701691233432 -1.9784696738025282e-5 0.0
0.00012295308237378035 -3.5031251691327736e-5 0.0
0.0001346768743788412 -3.7726434528925805e-5 0.0
0.00013781815437495003 -3.638447890147743e-5 0.0
0.00032225394509314577 -3.5517263559319536e-5 0.0
0.0003214104140892118 -3.982975832828106e-5 0.0
0.00031754924502197914 -4.224381187792703e-5 0.0
0.0003467013721184784 3.4033269635710194e-6 0.0
0.0003395657805436562 3.7362935061089836e-6 0.0
0.00033172438391471153 3.314146152740344e-6 0.0
0.00033194114763341595 4.059430085927275e-6 0.0
6.901112620085667e-5 -1.1055120416507384e-5 0.0
0.00031859241431667263 4.577330787041251e-6 0.0
0.00031056553873606173 4.774433640788664e-6 0.0
0.0002310173548735499 -1.9784256699819274e-5 0.0
4.714793694430646e-5 -1.0749952674588893e-5 0.0
4.3612137535931674e-5 -9.092019143164003e-6 0.0
4.2245721173641915e-5 -7.461484177995309e-6 0.0
3.978160905083641e-5 -7.302875389663112e-6 0.0
0.0003846782092065828 -5.262069959615638e-7 0.0
0.0003702784783780195 2.5197096183658595e-6 0.0
0.0003770050083662651 2.0329190978125754e-6 0.0
0.0003092545016588476 -4.470659487632071e-5 0.0
0.00015654097976888987 -8.054275350284577e-6 0.0
0.0003251656011767311 -3.8056676141529704e-5 0.0
0.00032440696043961744 -4.2160655999644135e-5 0.0
0.0003279259975603995 -4.0445190370642586e-5 0.0
0.00032747618081123783 -4.488179871411315e-5 0.0
0.000330997321635165 -4.2455914508673954e-5 0.0
0.0003317181078526956 -3.8335466075019634e-5 0.0
0.00033443303125656285 -4.054240464811504e-5 0.0
0.00017507405906314294 -3.958736238126922e-5 0.0
0.00016945267442172143 -4.2387956553885084e-5 0.0
0.00016284019170200776 -3.94920619843433e-5 0.0
0.00013000018459365337 -8.205441595123175e-6 0.0
1.5462926379569472e-5 -1.6333532007761439e-6 0.0
2.2068612953725238e-5 -2.3208399741438192e-6 0.0
1.6207698801678912e-5 -1.3319217506319654e-6 0.0
0.00012075492870735007 -3.5899748339048216e-5 0.0
0.00011719765733956387 -3.3785888421496204e-5 0.0
0.0003565440285225153 -3.217576006586597e-5 0.0
3.816184656149295e-5 -1.839275045398337e-6 0.0
0.00020429128944096683 -3.07049206241154e-6 0.0
0.00020550470478946715 -1.732811958095917e-6 0.0
0.0003412982150750732 3.484396963986945e-6 0.0
0.000356155369973804 2.727756047088034e-6 0.0
0.0003209875802860708 -2.3667456195376385e-5 0.0
7.081858466748199e-5 -1.7895103051899585e-5 0.0
7.226089042433237e-5 -1.9907947724914484e-5 0.0
0.00027126782543491893 -1.4535156723041585e-5 0.0
0.0002818629757548728 -1.637345135816482e-5 0.0
0.0003656187510624692 -2.4873832791001494e-5 0.0
0.0003753701203444451 -1.5099409675853587e-5 0.0
0.0003842592929410481 -4.8077453665725775e-6 0.0
0.0002681311662720318 -1.6214411405643308e-5 0.0
0.000309832545450137 -1.6612085487395215e-5 0.0
0.00016509201090784956 -2.783066277468981e-5 0.0
0.0003168427258608891 2.894155046209204e-6 0.0
0.0003001704478775708 -1.6890409391342237e-5 0.0
0.00011505541188025286 -1.835576647755382e-5 0.0
7.189137172361742e-5 -1.603287430779952e-5 0.0
0.00035476161218752034 3.0537899621974545e-6 0.0
0.0002844859983202119 -9.443129600729065e-6 0.0
0.00011748402890854867 -3.5819039658757856e-5 0.0
6.285531318274233e-5 -1.0191433531645388e-5 0.0
0.0002132029697319655 2.6961828914080026e-6 0.0
0.000302800885129899 -4.04084795282365e-5 0.0
0.00030265910851398327 -4.445417726630894e-5 0.0
1.0191387469656918e-5 -5.551391769719129e-7 0.0
0.00023962799020851936 -3.841021561362785e-5 0.0
0.00023881348541713565 -4.194686515047623e-5 0.0
0.00013753472779325337 -4.037952667489559e-5 0.0
0.0001410764601692826 -3.862678652815448e-5 0.0
0.00014119545068916822 -3.477818106706223e-5 0.0
0.00014448480454333826 -3.6868626131147296e-5 0.0
0.0001410277923963522 -4.1505232626352985e-5 0.0
0.000140928723502697 -5.895475085763304e-6 0.0
0.00013384765223581764 -6.3181274131972985e-6 0.0
6.226324005075028e-5 -6.860511556920678e-6 0.0
0.000157166275219066 2.3128269225084554e-5 0.0
0.00015028067261349298 2.035037896992696e-5 0.0
0.00023864203831201714 3.330972068668052e-6 0.0
0.00029625535782073814 -4.530275452858528e-5 0.0
0.0002925588802311327 -4.6956669413469144e-5 0.0
4.077044997848742e-5 -9.010300639349568e-6 0.0
3.694510333943738e-5 -7.071733546400247e-6 0.0
0.0003805020531890418 1.7584725872457668e-6 0.0
6.661956266830688e-5 -1.1674857239037271e-5 0.0
6.150229307265784e-5 -1.0743518048917661e-5 0.0
0.00035215893795344987 -2.009909674920148e-6 0.0
0.00035276071905274717 -3.1550354249378415e-5 0.0
0.0003500761038157748 -3.764929980142734e-5 0.0
0.00021736637426650928 3.068545098850861e-6 0.0
0.0002494396385483731 -4.2379776816162545e-5 0.0
0.0002451449528074874 -4.4414920334364286e-5 0.0
0.00010933492777494203 -1.3034160391064729e-5 0.0
0.00011046886728000621 -1.2073735517199712e-5 0.0
0.00014495081149044054 -3.297359892565382e-5 0.0
0.00032446769609895517 -3.1035463926739435e-5 0.0
0.00019528437778487705 -1.0325191694352748e-6 0.0
0.000190984749700116 -1.3600898794691694e-6 0.0
1.2188362619654802e-5 -1.1295255098291665e-6 0.0
0.00015609566437958577 5.613454743397123e-5 0.0
0.00017736023815126913 -3.695915584959942e-6 0.0
0.00012547812589899467 -6.773624758100444e-6 0.0
0.00012530396148630708 -6.93530058833922e-6 0.0
7.928797666767847e-5 -7.333669752447122e-6 0.0
0.0002365512036353359 4.665381021811228e-6 0.0
0.00016311644576045864 -4.2442589373920515e-6 0.0
0.00016460203202568188 -3.938549812979443e-6 0.0
0.0001705156639531287 -3.3005897007302967e-6 0.0
0.00017186873976042955 -3.0844269153053295e-6 0.0
0.000177755267248934 -2.3704898911484763e-6 0.0
0.00017922419794626492 -2.1858935358340095e-6 0.0
0.00017317545627198902 -2.9371126126113585e-6 0.0
0.0001806852747126625 -2.0648443885172e-6 0.0
0.00017457621812365856 -2.8126376303572966e-6 0.0
0.00018226457563816795 -1.988826909688258e-6 0.0
0.00018465511817407067 -1.4519098028299172e-6 0.0
2.0524359853263726e-5 -2.459823834922067e-6 0.0
0.00023022379526629777 3.82123508311532e-6 0.0
0.00015883897850317138 -7.028384216384461e-6 0.0
0.00018242522140369627 -1.2563539974594549e-7 0.0
0.0001957507322373007 -2.714405824762888e-6 0.0
0.00019267835516691086 -3.4549188793233986e-6 0.0
0.00019598776573154412 1.7474743774302124e-6 0.0
0.00018125241268998892 -3.893021257224279e-6 0.0
0.00019215354220338335 -3.4846754295770255e-6 0.0
0.0002048990056665977 -2.84479794230834e-6 0.0
0.0002078353649254136 -6.097418520721243e-7 0.0
3.2744419971461596e-5 -5.16660034546439e-6 0.0
3.330449017029352e-5 -4.953631064965749e-6 0.0
0.0003775332813517094 8.888441063803053e-8 0.0
0.0003596988082540908 -6.49067986663457e-7 0.0
0.0003600338663883929 -1.617413761912149e-6 0.0
0.0002853904669487465 -4.679637624923754e-5 0.0
0.00028080922796805446 -4.7955033118247935e-5 0.0
9.790580253310759e-5 -1.989982229527864e-5 0.0
0.00010120618984006612 -1.9607896502993414e-5 0.0
9.446325335806298e-5 -2.0158061789343403e-5 0.0
0.00011802401595544979 -7.164201869673765e-6 0.0
0.0002050011939752244 -3.1139669965029786e-6 0.0
0.00018858730138391757 -1.1269094567012621e-6 0.0
0.00018978057332271264 -1.1244928980278609e-6 0.0
0.00018378593892069112 -2.006550312355678e-6 0.0
0.00019111047910331353 -1.225322901643704e-6 0.0
0.00018561005915537256 -2.0193353035647462e-6 0.0
0.00010070238082094556 -2.8666462435670912e-5 0.0
0.0003783467692803338 -8.495284292929932e-7 0.0
0.00020136745754300388 7.762622591707672e-6 0.0
0.00023827409089172247 3.102076467008359e-6 0.0
0.00023720082122947057 3.941340730404819e-6 0.0
0.00023562665246617317 2.7610868333370748e-6 0.0
0.00013737265398842103 6.834219295024608e-6 0.0
0.00019937208951885778 2.194657757251146e-5 0.0
0.00018159883069310208 2.252533093809582e-5 0.0
0.00017948018468259664 2.4435567968022124e-5 0.0
0.00026162629847816454 -2.7971001015866038e-5 0.0
0.0003133563276103045 -4.328648569441038e-5 0.0
0.00031236281387080967 -4.757635121320419e-5 0.0
9.710588328289431e-5 -2.963155217808889e-5 0.0
0.00014843849622127043 -3.498577576848102e-5 0.0
0.00014803396402538632 -3.8954472440536264e-5 0.0
0.00015223121393222942 -3.705052255759204e-5 0.0
0.00015234310256313712 -4.168255331481188e-5 0.0
0.00025868069083523755 9.890117100404777e-7 0.0
0.0002527580051258463 3.5823518808140814e-6 0.0
0.00026080931341062734 3.5495601432507953e-6 0.0
0.00026799898587100525 1.2945536936308857e-6 0.0
0.00021072185981044664 -7.446857052608965e-7 0.0
0.0002074400573251615 -5.189878101298553e-7 0.0
0.00015663607704068954 -3.905514193187264e-5 0.0
0.00011831028311622404 -8.327910050330765e-6 0.0
8.175264177513697e-6 -3.3949046042371437e-7 0.0
0.00017687658221494004 -3.9725155849163595e-6 0.0
0.00018525985045125796 -3.2766618709528713e-6 0.0
0.00018372267336723788 -3.0820542289848305e-6 0.0
0.00019390214286923202 -2.353310850998173e-6 0.0
0.00019189762624574226 -2.158867709029183e-6 0.0
0.00019546971959718488 -2.609754084521987e-6 0.0
0.00018342715237081576 -2.829829471305961e-6 0.0
0.00019032139222909788 -1.9979003835014344e-6 0.0
0.000203113394654403 -1.5610455930664515e-6 0.0
0.00024632044659275823 3.5713343715741124e-6 0.0
0.00018263205084735384 -2.6244923933961686e-6 0.0
0.0003847971725722581 9.502055984238918e-7 0.0
0.00014868951001096608 -6.141247281215794e-6 0.0
0.0001741510359695988 -2.2774061797894468e-5 0.0
0.00018081258865416003 -2.1197200273093947e-5 0.0
0.00018761348028244163 -3.417749971527024e-6 0.0
0.0001985987125066542 -2.7643097484904e-6 0.0
0.00021922843174534642 -1.4927477369495437e-6 0.0
0.00027720487002260444 -3.686913911745966e-5 0.0
0.000273275469159226 -3.9086718335232265e-5 0.0
0.0002734895179103903 -4.316283632361057e-5 0.0
0.00026982849307969947 -4.108359995527894e-5 0.0
0.0002702480565637357 -4.4654529715532455e-5 0.0
0.00026656096872250976 -4.282667874957661e-5 0.0
0.00030362951342250506 4.881659921583881e-6 0.0
0.000297103473119215 5.002388526907257e-6 0.0
0.00030066102702488675 4.980880786680563e-6 0.0
0.00029096886236324875 5.109908191806706e-6 0.0
0.0002941649447418622 5.061030898190643e-6 0.0
0.0002848415888265937 5.1424995170996925e-6 0.0
0.00028811553267750245 5.042950330802637e-6 0.0
0.00028160478505614517 5.199049465007117e-6 0.0
0.0002759531748900134 5.1909586269967015e-6 0.0
0.00029704852109663 4.993963764994963e-6 0.0
0.00027277131764067987 5.254741965635066e-6 0.0
0.0002908681926873723 4.853837137448665e-6 0.0
0.00028261593721232235 4.827036377545121e-6 0.0
0.0002849022288327374 4.301074520257491e-6 0.0
0.00027839581415063403 5.228246121203243e-6 0.0
0.00029317473422118027 5.088083333119051e-6 0.0
0.0002997930978507736 4.832160700951441e-6 0.0
0.00031148016391968267 4.7872154438115184e-6 0.0
0.0003055269142620763 4.930448880265536e-6 0.0
0.00022736241013401496 2.9340258086186295e-6 0.0
0.00018350354843569042 1.988941327849538e-5 0.0
2.856045504238767e-5 -3.6899415233782934e-6 0.0
2.523932464596579e-5 -3.1734163478178807e-6 0.0
2.970857132028638e-5 -4.899406112456182e-6 0.0
0.00015695876221376144 -3.490755528139409e-5 0.0
0.00022392354070863518 -2.290450075673635e-6 0.0
0.00022620922825617595 3.885054675788283e-6 0.0
0.00022176688290282442 3.2852770919159176e-6 0.0
0.000223557988382165 3.3359160041134085e-6 0.0
0.00022068993602811256 3.3404268303476417e-6 0.0
0.00022369031500454602 3.856101072926292e-6 0.0
0.00021924063833825746 3.3409671154933722e-6 0.0
0.00021777692778328166 3.2744899861188993e-6 0.0
0.00021507841906543584 2.7815736590281723e-6 0.0
3.222534339505177e-5 -4.142567604258227e-6 0.0
0.0002400011207994497 5.308626090829675e-6 0.0
0.0002787915540068546 5.337377952547885e-6 0.0
0.0002675462222673856 5.582538621570993e-6 0.0
1.6966210375820774e-5 1.3052071584330474e-7 0.0
4.1406054131150486e-5 2.1762364261161174e-6 0.0
3.778369163959838e-5 4.383903052421493e-7 0.0
0.00024229268478630835 5.186442563753456e-6 0.0
3.972269240520519e-5 -5.5630206856114344e-6 0.0
4.462664114388313e-5 -7.496639977503662e-6 0.0
4.7536386711027526e-5 -7.996699136852397e-6 0.0
4.715310116385899e-5 -6.952004638699518e-6 0.0
5.014565433135603e-5 -7.496355833606955e-6 0.0
0.00017051143415609837 -3.539840419834138e-6 0.0
2.434532144371997e-5 -2.651487002399852e-6 0.0
8.088137406102211e-5 -1.0017203638628494e-5 0.0
6.820731410598466e-5 -9.724029181663395e-6 0.0
0.00020052752724524802 -2.9269022564601193e-6 0.0
6.654526217247106e-5 2.0959697125632036e-5 0.0
0.00026736881218773794 -3.537219475436264e-5 0.0
0.00023527233299954896 4.891534816654789e-6 0.0
0.00035871917147309426 -3.242904903166401e-5 0.0
0.0002794830840004661 5.068528293285897e-6 0.0
0.00027089005988487866 5.065277087391368e-6 0.0
0.0002771731276923616 -4.559326874694952e-5 0.0
0.0003863203948432314 9.008037296969205e-7 0.0
0.00037403072429319863 1.8183466137938651e-6 0.0
0.0003769876999686495 1.721992167758232e-6 0.0
0.0003716634047700955 1.8782055010330532e-6 0.0
0.0003635873303400209 2.657852735120913e-6 0.0
0.0003699816839946246 1.9133125668924792e-6 0.0
0.00035711898548092323 2.790218427573577e-6 0.0
0.00035993942696360443 2.7325527821000997e-6 0.0
5.135332880548794e-6 -8.098764985205537e-7 0.0
0.0003930980828448042 6.569304096663321e-7 0.0
0.00038514230512106274 1.3528604318859676e-6 0.0
0.0003891476971718079 9.762109784053865e-7 0.0
0.0003862717303885228 9.960467305366358e-7 0.0
0.00023627318273373622 4.810210679405106e-6 0.0
0.0002892079915658099 -4.4469163501984166e-5 0.0
3.407167787958407e-6 -2.305261990010776e-7 0.0
0.00039456040144289733 -3.044956046855268e-7 0.0
0.00014960070906058214 1.2088852287160151e-6 0.0
0.0002948052801460781 5.2288572269271e-6 0.0
0.00011917639620816096 -6.650388108658404e-6 0.0
0.00012908412461521315 -6.34571952567312e-6 0.0
0.00013052597957000436 -6.02714022111937e-6 0.0
0.00012759736263314705 -6.468889119704847e-6 0.0
0.00013598826896642598 -6.134705820162304e-6 0.0
0.00013971495656058263 -5.9100899481207335e-6 0.0
0.00014082192080889432 -5.588988490862598e-6 0.0
0.00013250673678119433 -5.297042738995849e-6 0.0
0.00012545222047954675 -3.974731394820262e-6 0.0
0.00011872966214110529 -6.785782241959598e-6 0.0
0.00032126622706169763 -4.391610300088527e-5 0.0
0.000384434543235828 7.306797232169228e-7 0.0
0.00014577371362743473 -2.927822393764226e-5 0.0
5.803786065664255e-5 -1.540215753309288e-5 0.0
0.00016437186995764343 -2.4787930112158904e-5 0.0
0.0001257176809730046 -3.446971618778341e-5 0.0
0.0001261509110458967 -3.701239409227444e-5 0.0
0.00019703192073057665 -2.688958342543661e-7 0.0
0.0002422439200695881 5.114141593608336e-6 0.0
0.0003243995238731578 -4.557641817351472e-6 0.0
0.0003287911911194723 -3.0998204786998334e-6 0.0
0.0003156228015193554 -2.0821774985352677e-6 0.0
3.2933342948692785e-5 -5.167910615175145e-6 0.0
5.501639065278298e-5 -1.481751281533324e-5 0.0
0.00019086686135856692 3.1795608784026435e-5 0.0
0.00016879172658824959 3.104300650311698e-5 0.0
0.00027942008819934985 -1.6082530014419797e-5 0.0
0.00017869409804491859 1.4173928932608955e-5 0.0
0.0003434684311823528 -2.7073331489644524e-5 0.0
0.00016505053666351693 -1.7242075399141814e-5 0.0
0.0002711790100777273 -2.589585271809454e-5 0.0
0.00027515675313645715 -2.041081401005785e-5 0.0
0.00013763873047548323 -1.8746022280742584e-6 0.0
9.482167267073905e-5 -2.978343571546591e-5 0.0
0.00034085425340537706 -3.361768078848838e-5 0.0
6.252449500160169e-5 -1.541270548802366e-5 0.0
6.564521974266932e-5 -1.7104409918045018e-5 0.0
6.424922581124132e-5 -1.7564647883157747e-5 0.0
9.502429227272754e-5 -9.724253356746753e-6 0.0
0.00022046272034145648 3.679395966351401e-6 0.0
0.0002378114643163052 5.012635891086657e-6 0.0
0.00015201574564976424 -5.119132131028686e-6 0.0
0.0001583768777139954 -4.541661803257757e-6 0.0
0.00037766540958160264 -1.1465062552982796e-6 0.0
0.0003535633831625097 -3.242185404572546e-6 0.0
1.9027272666710336e-5 2.2175441817789203e-7 0.0
5.032811933457995e-6 -7.203141518794562e-7 0.0
0.0001864925136435697 -1.260246029640277e-6 0.0
7.165765392489168e-6 -1.0271329766023658e-6 0.0
2.0195050367836105e-5 -2.5367757265107713e-6 0.0
0.00016238461647608772 -2.273295752513575e-5 0.0
0.0002572362285050688 -2.6784949738814567e-5 0.0
0.0002031590701539039 1.8685098739364973e-5 0.0
0.00023296139536989048 -1.885388239310839e-6 0.0
0.00019378016217885293 -1.1683243877046054e-6 0.0
0.0002997503518689384 -9.210306670086211e-6 0.0
0.00035718844540453523 -2.430685859062903e-5 0.0
0.00011098793608541609 -1.867585894302332e-5 0.0
0.00011100079623198514 -2.0117263862248827e-5 0.0
0.00010717718440540721 -1.8820648772649836e-5 0.0
0.00010321727895403846 -1.7723746329462864e-5 0.0
3.323412059666492e-6 -1.448751368660733e-7 0.0
8.638881698379293e-6 -4.116710595794561e-7 0.0
1.0318842909844154e-5 -6.328098381454218e-7 0.0
9.922359339527349e-5 -1.3571626325693811e-5 0.0
9.409872512830157e-5 -1.3794970859035611e-5 0.0
0.00039374823795005075 4.485804046626688e-7 0.0
0.0002081133237940829 -4.2157975760248184e-5 0.0
0.0002034501449232319 -3.918627725821616e-5 0.0
0.0002032114658014223 -4.463096638451885e-5 0.0
0.00019840615215224874 -4.1583633721347044e-5 0.0
0.00019308545901304403 -4.393358479151235e-5 0.0
0.00019281791240413854 -3.817753076606905e-5 0.0
0.0002034316786679494 -3.384122247010864e-5 0.0
0.0002675952494153644 -2.261930216181935e-5 0.0
5.452323331247522e-5 -6.1177775133564655e-6 0.0
6.0865128859628216e-5 -7.165082631398794e-6 0.0
5.4240129054092346e-5 -6.801375170672298e-6 0.0
0.00023800202622730675 -1.0669705933760814e-6 0.0
0.00011670091888650548 1.9482327649106178e-5 0.0
0.0001967277783684982 -2.750076629481664e-6 0.0
7.310751331654482e-6 -1.1457553525264294e-6 0.0
0.00011438889500284895 -3.391102869997447e-5 0.0
0.0001113251073012188 -3.3683386414288854e-5 0.0
0.0001116975946348343 -3.194547169662886e-5 0.0
0.00012538142630295343 -3.14976975913909e-5 0.0
0.00011159151777081267 -1.737779627425089e-5 0.0
5.714845992813276e-5 -9.627580373178857e-6 0.0
3.7846301275318986e-5 -5.527293941735384e-6 0.0
0.00038891950218806386 8.41267317959533e-7 0.0
0.0003801029241483944 1.585132427122557e-6 0.0
7.771496878080236e-5 -2.180680824370524e-5 0.0
9.036967930079246e-5 -2.5844196031428044e-5 0.0
8.772285113005222e-5 -2.5878915525694554e-5 0.0
8.401791478163952e-5 -2.386469962132739e-5 0.0
8.49091769738953e-5 -2.5679549423370297e-5 0.0
0.0002508664487246325 -1.6042987258522224e-5 0.0
0.0002119979319102241 1.2841412173105372e-5 0.0
0.00025311147794574996 -4.1050070343882664e-5 0.0
0.0002567074701590562 -4.354055430280508e-5 0.0
0.0002600560331013935 -4.227902560341686e-5 0.0
0.00025278965084934177 -4.5225326097346285e-5 0.0
0.00011925287469851889 -1.822731333099918e-5 0.0
0.00021875308697782983 -1.8136603623262963e-5 0.0
0.0001921866060989085 1.7474849380004355e-5 0.0
0.00017333049875221533 -3.7062595837498325e-6 0.0
0.00039451318479523964 -6.125805417375676e-7 0.0
0.0003897220451452946 -1.8995935538410177e-6 0.0
0.0003880850319042629 -1.4410742410965178e-6 0.0
8.135176712196143e-5 -2.375891281494235e-5 0.0
7.8782824585961e-5 -2.352706578653591e-5 0.0
0.00012480790668207404 -6.741144544053178e-6 0.0
9.928659846386196e-5 -1.792941478577804e-5 0.0
0.00035933202654783876 -6.563912622927607e-6 0.0
0.00028781535653327303 -1.2671889754263935e-5 0.0
0.00018260916561125656 -1.7191086308994966e-6 0.0
0.00018924925879184467 -7.720633092664385e-7 0.0
0.00024108152713281052 -4.945425845843001e-6 0.0
0.0002817666455763367 -3.036654349977321e-5 0.0
0.00015911800549689618 -1.8454359269517202e-5 0.0
0.0001585297460713274 -2.0275531690538793e-5 0.0
5.207610244565143e-5 -3.29016539974441e-7 0.0
9.156979265444626e-5 -1.796609865078923e-5 0.0
8.787798867916017e-5 -1.7753029193309477e-5 0.0
8.391315841231469e-5 -1.622590099861838e-5 0.0
8.43495635554722e-5 -1.776146547518633e-5 0.0
8.040883245822221e-5 -7.06934376252232e-6 0.0
8.161562731844304e-5 -6.9309552453421255e-6 0.0
8.724477017305957e-5 -7.744124754900198e-6 0.0
0.00025654168796769935 -4.729944464089177e-5 0.0
0.0002420406607299791 -2.1810662383255968e-5 0.0
0.00023765702619236312 -2.296074545405418e-5 0.0
0.00024331470652046318 -2.7176506733206315e-5 0.0
0.00023889338146846357 -2.8327640005535942e-5 0.0
0.0002428104785177946 -3.123280843228197e-5 0.0
0.00024711141555505537 -2.5146628555567454e-5 0.0
0.0002517314148498534 -2.7938209299670086e-5 0.0
2.1318946649621816e-6 -3.135484020969715e-8 0.0
0.00039480666543390095 -9.944459095232035e-7 0.0
0.0003144516651848793 -3.910938357386248e-5 0.0
0.00023129920362864712 -4.1238077994351206e-5 0.0
0.00035678625224508907 -2.6518742027871784e-6 0.0
0.0002224818189535961 -3.551472422176994e-5 0.0
0.00022209723639350664 -4.036846351533131e-5 0.0
0.00028086955036885514 -1.1406742906778532e-5 0.0
0.0002513235734216278 1.3951458490704657e-6 0.0
0.00024695055406465197 1.9813514985458727e-6 0.0
0.00011567099591880319 -2.8601761757340667e-5 0.0
7.326613407559205e-5 -1.4213710628969009e-5 0.0
0.00027656054272812744 4.1774429624881855e-6 0.0
0.0003023417571135007 -3.5806868406804815e-5 0.0
0.00013074964632134434 -1.333110477360467e-5 0.0
0.00013556979775731598 -1.2525588705113413e-5 0.0
0.00013454855124743768 -1.3715990131009883e-5 0.0
0.00013675168498863944 -1.1360581736272353e-5 0.0
0.00012984198723213876 -1.4480624455338586e-5 0.0
0.00014038320220703432 -1.1763855981205429e-5 0.0
0.00014188144266048266 -1.0616244753324505e-5 0.0
0.00014420862410698273 -9.35033550394626e-6 0.0
0.00027439174317490586 -9.85429603279398e-6 0.0
4.269379201216361e-5 2.189107472965776e-6 0.0
0.00026754318786293774 5.205823449372666e-6 0.0
0.00029361142822174245 -8.078025972920872e-6 0.0
8.207487872583479e-5 1.370761281891637e-5 0.0
6.493081203907611e-5 -6.234517910700889e-6 0.0
8.929701008827304e-5 -7.162984252752812e-6 0.0
6.592215811152777e-5 -1.22880545821525e-5 0.0
0.00013236159146114848 -1.1148875240907266e-5 0.0
0.00010580355250807071 -1.151474463120353e-5 0.0
0.0001126839001877086 -1.1086621300277783e-5 0.0
0.00011622805587630005 -1.1752796793469e-5 0.0
0.00018096569329891855 -3.7459836039040516e-5 0.0
0.00018715928566972716 -4.044771560440027e-5 0.0
0.0001869784269991891 -4.705943023054379e-5 0.0
0.0001929343748352988 -3.328947994779998e-5 0.0
0.0002975973535217614 -3.681059656206474e-5 0.0
0.00014276945774281035 -6.5938503146716095e-6 0.0
0.0002714805414093404 -4.4773401464522055e-6 0.0
0.00012528550246189378 -2.8379228366744145e-5 0.0
0.0002033843984529135 -2.924316412804552e-5 0.0
0.00013167418318224875 -3.877106235629805e-5 0.0
0.00034719166792374854 3.316556953881724e-6 0.0
0.00019119021526575015 -3.892452040320242e-6 0.0
5.2385079584883924e-5 -8.638605864923173e-6 0.0
0.00013594634499470277 -1.9091352589231948e-5 0.0
0.00013981450489642644 -1.9755354342862035e-5 0.0
0.00012835170822464946 -1.785622338604093e-5 0.0
0.00013482023760937495 -3.076255503299964e-5 0.0
0.00022511437782099302 -1.0532265105310656e-5 0.0
0.00022015152456612147 -1.1412091847128483e-5 0.0
0.00022473443737631814 -1.257213592842142e-5 0.0
0.0002645256502186779 5.278217466178592e-6 0.0
0.00016575735981821742 -1.5765479368641552e-5 0.0
0.00012059381568248407 -1.665404846282479e-5 0.0
0.00022232473650682106 3.6683626025709866e-6 0.0
0.00022082973989293975 3.23375943833167e-6 0.0
5.451467986091895e-5 -8.771015557727039e-6 0.0
9.996881653173013e-5 -2.654811262016549e-5 0.0
0.00026001445089270895 -3.8290864372341e-5 0.0
0.00022733426571188697 3.880549667421927e-6 0.0
0.00019925490952591904 -1.6126041845902602e-5 0.0
0.00019364205861431083 -1.691932290872249e-5 0.0
0.00019322173672194437 -1.8781111511482975e-5 0.0
0.0001876232653653309 -1.784090090652924e-5 0.0
0.00018719568401338296 -1.9931598340891573e-5 0.0
0.0001984773658735671 -1.9851181415100763e-5 0.0
0.0002364186987568865 5.089459024840081e-6 0.0
0.00015174244411968456 -1.3861437769185075e-5 0.0
0.00014654853004080414 -1.4898527717252843e-5 0.0
0.0002160478378922824 -8.332237202232991e-6 0.0
0.00012407604890240007 -1.8335832151256556e-5 0.0
0.0002173807234595119 -4.253247872138586e-5 0.0
0.0001541272921696391 -1.8077354035714648e-5 0.0
0.00018822576975737658 -1.616649055104523e-5 0.0
0.0002736303926338765 -4.687636751449232e-5 0.0
0.00017335674687247844 -6.481938811802248e-6 0.0
0.0003648357000898018 2.7027593758139765e-6 0.0
0.0001902171508504361 -1.1607971154069957e-5 0.0
8.765559821206547e-5 -1.4389097694502987e-5 0.0
0.0002168286700647465 6.290258173295878e-6 0.0
0.00026818524869719434 -3.108156544938175e-5 0.0
0.00034263310160426337 -2.9904820330452307e-6 0.0
6.820318868061266e-5 -5.831007035371749e-6 0.0
7.083445606255794e-5 -5.102572117894826e-6 0.0
7.69749885901026e-5 -6.3565569415125394e-6 0.0
8.167369527716776e-5 -5.921243709491332e-6 0.0
8.807510865987094e-5 -6.501810162029109e-6 0.0
0.00026278946520311565 5.029029171855407e-6 0.0
0.0001444718917010189 -4.1072291307863305e-5 0.0
0.0001798550649974487 -5.2201919103462655e-6 0.0
1.6340551193372763e-5 -2.153195159456052e-6 0.0
0.0001935211082944569 2.6294436467334442e-5 0.0
0.00017513526122334407 2.5184623128772927e-5 0.0
0.0002484634422453735 4.9800233625223606e-6 0.0
0.00014217524311921912 -2.7668726716214275e-5 0.0
0.00016440491013369656 -3.497291218843443e-5 0.0
0.0001551292917896756 -5.6097220127206595e-6 0.0
0.00021150756328630334 -7.414670221900895e-6 0.0
0.00020660428124535883 -6.544054016061542e-6 0.0
0.00020785138124742772 -4.770765250808976e-6 0.0
0.000234579384247369 3.4965561135578293e-6 0.0
0.0001358252398697513 -2.0681830279245737e-5 0.0
0.00010090213646779222 -1.0957256041318993e-5 0.0
0.00014276632949046628 -1.3388258211330004e-5 0.0
2.7526700788207954e-5 -2.9317977833486863e-6 0.0
0.00021047719550303356 2.4089917642472365e-6 0.0
8.296869135889546e-5 -2.1871783615736354e-5 0.0
0.0002021967847864501 -7.93427178954097e-6 0.0
0.00011638736574695198 -3.129073916913151e-5 0.0
0.0002612485319254493 2.8018558216150577e-7 0.0
0.00018126272886324736 -9.172302656510164e-6 0.0
0.00018141665229842133 -1.893581113912062e-5 0.0
0.0003319427525715914 -1.5530709895855013e-5 0.0
7.545856146814407e-5 -2.1658385351567064e-5 0.0
0.0003607445099496781 -3.305798125858649e-5 0.0
0.00015069227717054394 -8.801068745810996e-6 0.0
0.0001790779481604173 -1.2134491327653438e-5 0.0
4.214511753355313e-5 -6.550866922790711e-6 0.0
0.00033153168185559367 1.6587155310840367e-6 0.0
0.00021354423408201346 -2.125318653555922e-5 0.0
1.6494986460300078e-5 -2.2336195699508523e-6 0.0
0.00020097113267598496 1.0999885431286398e-8 0.0
0.00019986379702041006 -6.726052222989752e-7 0.0
0.0003585086838156899 3.105491316649761e-6 0.0
0.00021298101327226317 -4.500796419407514e-5 0.0
7.008377960831326e-5 -1.4051831082984212e-5 0.0
0.0003806952242198893 -3.465697553533519e-6 0.0
0.0002032849825120996 -4.341186720832937e-6 0.0
0.00018740642096621007 -8.026437359328196e-6 0.0
0.0002331868328799567 -1.8041448792359902e-5 0.0
0.0002285946997786585 -1.7029596187302223e-5 0.0
0.0002144316386811105 -1.7139594616026837e-5 0.0
0.0001785082584746997 -6.395906177536773e-6 0.0
0.00022351383031326796 -4.836514291043196e-5 0.0
0.0002421398285809897 -4.845793526597223e-5 0.0
0.0001553510104710043 -4.6056714246994374e-5 0.0
0.00017299551578154405 -4.805455593551244e-5 0.0
0.000265567663487229 -4.912945114922473e-5 0.0
0.0002635194413171327 -4.5123179719137014e-5 0.0
0.00012683377373582283 -3.9142464306776334e-5 0.0
0.00010410090976989765 -3.299906571032698e-5 0.0
0.00023312795418666855 -4.842200790639439e-5 0.0
0.00013341656757632673 -4.1434645203354783e-5 0.0
0.00016268457948348945 -5.883499208268187e-6 0.0
0.0003201558238321214 4.707327639695568e-6 0.0
0.0002653611927849091 -1.5435351244673382e-5 0.0
0.00026459276840266687 -1.7228032510191257e-5 0.0
0.0001336964671318256 -1.4950464464473529e-5 0.0
0.0002309089837134239 -5.287853448631826e-6 0.0
0.0001812384733563847 -2.3934338236252623e-5 0.0
9.500098633580598e-5 -2.3406981384591013e-5 0.0
7.490833604693223e-5 -1.3033262009733485e-5 0.0
0.00015840573528389375 -1.1434451715607967e-5 0.0
0.00032685351317485834 4.061408189462287e-6 0.0
0.00014920538712782922 -5.431628765515259e-6 0.0
0.00018631012491204847 -3.975119927827829e-6 0.0
0.00021563805315531022 -1.0415634020212622e-5 0.0
3.3027397210253114e-5 -5.3758002036319555e-6 0.0
3.394416776665944e-5 -6.933502999245652e-6 0.0
0.00015244474064157978 -2.17973516301916e-5 0.0
0.0001287367308318068 -2.242504100551891e-5 0.0
0.00019537011767967703 -1.2273532287330966e-5 0.0
0.0003579682701580633 -2.231958498471785e-6 0.0
0.00020829114421359619 -3.174073624019127e-5 0.0
0.00038809601465671605 -3.5441718114055435e-6 0.0
0.000376546606388778 -1.556949458629662e-5 0.0
0.00011178220904837038 -8.296070503811751e-6 0.0
0.00016252816013007955 -1.2793836386346645e-5 0.0
0.000171016402981676 -1.6111813931297204e-5 0.0
0.0003676278964275018 1.793443116746684e-6 0.0
0.0002161715727437966 -2.272312564942344e-6 0.0
0.00025578846111056993 -2.693149433567807e-5 0.0
0.0002599932912912397 -1.7845890830898874e-5 0.0
0.00010218831332744734 -3.0882702416777595e-5 0.0
0.00023885136442839387 -1.2186126113192924e-5 0.0
0.0001644786647028117 -1.0198135551604598e-5 0.0
0.0002484219714217347 -1.0105535157882334e-5 0.0
0.00024787448601945724 -1.2613863391270661e-5 0.0
0.00025337359271856524 -8.893370688866644e-6 0.0
8.83004502716263e-5 -2.765588961960649e-5 0.0
0.0002881765632098053 5.282177392032267e-6 0.0
0.00022641320759464456 -4.370553194443624e-5 0.0
0.00031562182932366105 -4.5819006700230224e-5 0.0
0.00027723765571441826 -6.0431566636730575e-6 0.0
0.0001928793547388288 -7.040244505362e-7 0.0
0.00024021259522119176 -3.368471115696209e-5 0.0
0.000139504559476889 -2.1504777832831547e-5 0.0
0.00015427742481725467 -9.179017213442677e-6 0.0
0.00035172016928598597 3.3127056608516343e-6 0.0
8.64924420160728e-5 -1.0712068162401218e-5 0.0
0.00026521802142579615 4.770737399377261e-6 0.0
0.00019653428594013783 1.5228385000418606e-7 0.0
0.00023524427608347752 -6.2814723613740675e-6 0.0
0.00033439983218194215 4.317360250878524e-6 0.0
3.816523064315616e-5 -6.230231674341234e-6 0.0
0.0002731419951642917 -2.122676343798399e-5 0.0
0.000225614093053557 2.989715480524381e-6 0.0
0.00022342941420799598 2.835638483333003e-6 0.0
0.0002308154318316778 -2.722898779581846e-5 0.0
0.0002103275442138663 -1.3141655045642094e-5 0.0
0.00021803977810908804 -2.3501028360551325e-5 0.0
0.000281694374708743 -3.49975203164214e-5 0.0
0.00026975980049272555 5.344021244220475e-6 0.0
0.0002157038137850195 -1.7502425302580826e-6 0.0
0.000247919394914503 -9.506347239347004e-6 0.0
0.00032533305312444877 -2.5540900327166576e-5 0.0
0.00032615912296786226 -2.021552421181055e-5 0.0
0.00020265002545581928 -1.4070431104275648e-7 0.0
0.00011852303569836205 -2.2632882460340583e-5 0.0
0.00025376972836762206 -2.1281807209509943e-5 0.0
0.00021205737737137783 -1.2765775397041761e-6 0.0
0.00023834752729761115 -1.4235706704391789e-5 0.0
0.00038070150216506577 -5.8870230487339095e-6 0.0
6.75806917785639e-5 -1.5735180948289712e-5 0.0
0.0002313447132175677 3.3224532988116644e-6 0.0
0.00020764160764606722 -5.825863708213092e-7 0.0
0.00020389232087435625 -2.7247075481134717e-7 0.0
7.575254026117383e-5 -6.596492503251297e-6 0.0
0.0003315092224901999 -5.223918138624507e-6 0.0
0.00020859915266604144 2.0787968791493227e-6 0.0
0.00033739151454594744 -1.72448772283738e-5 0.0
0.00011487326070972233 -2.130640070298078e-5 0.0
0.00029599741373590523 -4.9677289215277275e-5 0.0
0.00030338320148228545 -5.0268521617465774e-5 0.0
0.00010495897893318607 -2.3082998658704818e-5 0.0
0.0002466690373350317 -1.629946353500694e-5 0.0
0.00015062070517064303 -4.5155365146541994e-5 0.0
0.00023717954157232685 4.9138489518242855e-6 0.0
7.330683918730456e-5 -2.228171926249667e-5 0.0
0.00021776249874647785 2.1051385028591155e-6 0.0
0.00021276862672958813 2.4051227757224973e-6 0.0
0.00021778142716958912 2.7153910892811155e-6 0.0
0.00021992974608021868 -1.3368403334763359e-5 0.0
0.00026437196365446754 -2.0080922732358408e-5 0.0
1.0443358037207687e-5 -1.590294396113218e-6 0.0
2.0682295207577085e-5 -4.101173685639012e-6 0.0
2.486341855567531e-5 -5.321104795315125e-6 0.0
0.0003500892717377912 -4.1503898788863694e-5 0.0
3.2829469844486404e-5 -7.979888908486292e-6 0.0
0.00010761914170848044 -2.0425666134813768e-5 0.0
6.08818223375122e-5 -4.111436962403816e-6 0.0
0.0003195858339162932 -4.963343577478075e-5 0.0
6.415606038038568e-5 -1.8802210101319488e-5 0.0
7.036843072811843e-5 -2.1183729862084314e-5 0.0
0.00034714606740377294 -4.308428499147164e-5 0.0
0.00034081118653329673 -4.5975346015383215e-5 0.0
0.0002088781087644646 4.2118265692541723e-7 0.0
0.00013793491193282506 -3.281781632215927e-5 0.0
0.0002690926262446576 5.286152721293464e-6 0.0
0.0003257176018643384 -4.880714360750216e-5 0.0
0.00032875644845036347 -4.8550236082995215e-5 0.0
5.803244373476202e-5 -1.6681350746747508e-5 0.0
4.311538823030242e-5 -1.1227839426796176e-5 0.0
0.00033483487624140403 -4.74690104244616e-5 0.0
0.00033695293571656793 -4.273740641510488e-5 0.0
0.00023540155956717134 -4.426404478197736e-5 0.0
4.96527178055863e-5 -1.3582048679225688e-5 0.0
0.0002837286223193654 -5.0608172988939593e-5 0.0
7.453736055933484e-5 -1.6017165454215632e-5 0.0
0.0003118609215733673 -2.7538875266169156e-5 0.0
0.00010754914073451017 -3.239043244306362e-5 0.0
0.0002942146161632301 -3.400994138960377e-5 0.0
0.00028748897662515805 5.138565683183464e-6 0.0
0.00010803788072962216 -1.4812077165264412e-5 0.0
7.544988014570277e-5 -1.3346869543445512e-5 0.0
0.00013201880440899625 -2.3619049928748695e-5 0.0
0.0001843525440141342 -1.2591497199441512e-5 0.0
0.00030835215718970116 1.434450913088811e-6 0.0
0.0001982080235662556 -3.594828681556441e-5 0.0
0.00021183878661154988 2.6036743396803207e-6 0.0
0.00022097445316849375 2.104531851717739e-6 0.0
0.0002495861149221662 -4.910682710460393e-6 0.0
0.0002914914024696454 -2.322922052751973e-5 0.0
0.00012165178494490968 -5.862051505275779e-6 0.0
0.00024055665218982776 2.8426241905658464e-6 0.0
0.00011711117355999096 -1.4104291593249759e-5 0.0
0.00031359482868656966 -1.8941976232568278e-5 0.0
9.140072551391297e-5 -6.102392101698726e-7 0.0
7.76044373052414e-5 -3.4478341439797157e-6 0.0
0.00017734371587005928 -2.8061085593562827e-6 0.0
0.0003255575499801113 4.3225961566253584e-6 0.0
0.00022000604378181264 -2.8722396934457317e-6 0.0
0.00020489436967900047 1.4754625842018252e-6 0.0
0.00035239831656705444 1.9012641981061797e-6 0.0
9.947634174883155e-5 -1.518017039473885e-5 0.0
0.0001251796231927347 -9.006609158222191e-6 0.0
0.0002669798561359377 -6.868837277103137e-6 0.0
0.0002999715061818654 -2.410883381452275e-5 0.0
8.714027650805248e-5 -1.500725376207593e-5 0.0
5.6167808873043584e-5 -1.0052559421092972e-5 0.0
0.0002873054921456185 -2.096413984444494e-5 0.0
0.00013148862802339723 -6.922884389282767e-6 0.0
0.0002792616854330507 2.263363461720576e-6 0.0
0.0003898041570797164 -2.2604126462622337e-6 0.0
0.0003033196600399955 4.950383555239573e-6 0.0
0.00022823704102635262 1.7837710350775512e-6 0.0
0.0002295823631762535 2.9831112957045534e-6 0.0
0.0002343171329933746 1.0210390626400463e-6 0.0
0.000337496907331367 3.825707518488989e-6 0.0
0.0003299628945250061 4.096775483485484e-6 0.0
2.245296049677546e-5 -1.8147521679656838e-6 0.0
1.735845095832247e-5 -1.2544744582411396e-6 0.0
0.00014164755231657204 -3.1055206629892985e-5 0.0
0.00024300847582766385 -1.3466086999888721e-5 0.0
0.0001411067305653106 -7.697737365992268e-6 0.0
0.0001420072210968096 -7.082850958225865e-6 0.0
0.0001474061370110958 -5.42706770158932e-6 0.0
0.0001930015643503684 -2.115948407926505e-5 0.0
0.00022666313079088685 2.5884747251422062e-6 0.0
6.922141107713698e-5 -7.500160575732007e-6 0.0
0.0002580218424226917 4.680362505621183e-6 0.0
0.0002325260213758144 1.4407592041516933e-6 0.0
0.00015745596329483358 -1.2700214529135342e-5 0.0
8.326400456515468e-6 -1.124649223175936e-6 0.0
0.00018522387521808717 -1.1058357273161573e-5 0.0
0.00035044077146152973 -5.210723573303547e-7 0.0
0.0002902328156795196 9.494142597591443e-7 0.0
0.00027441053325511617 4.8065365953329995e-6 0.0
0.0003307502546159946 -1.954795739235946e-6 0.0
0.00024116612521382636 4.403533396414717e-6 0.0
0.00014946362354796406 -5.440727972446819e-6 0.0
5.219563381179019e-5 -8.118471178797602e-6 0.0
0.00017350209339666867 -3.1043050727190245e-6 0.0
0.00021238030284659052 3.300682135928191e-7 0.0
6.0477232614744846e-5 -1.0257398814118049e-5 0.0
0.00016684781163567091 -4.763655814741386e-5 0.0
0.00023528105390580828 4.311012059011571e-6 0.0
0.00011142143730810053 -2.1876222037995183e-5 0.0
0.0002611079979442903 -2.2731263103992365e-5 0.0
0.0003140966843892147 6.412896183251797e-7 0.0
0.00013189759444331913 -6.6747213630570285e-6 0.0
0.0002694334494787731 -8.541110501629147e-6 0.0
0.00021945508474354044 2.6646223022502657e-6 0.0
0.00018619110962597572 -9.528458662710659e-6 0.0
7.586594764558941e-5 -8.060913758852394e-6 0.0
0.00012960261482295544 -9.270882074954342e-6 0.0
0.0002080841003892892 3.5548483763025064e-6 0.0
6.314128139125402e-5 -1.9771057446606185e-6 0.0
0.00027657648893271707 -9.71720379839254e-6 0.0
7.906955086759874e-5 -1.2057680442583079e-5 0.0
0.0001920895005635843 -8.47834190846547e-6 0.0
0.00030506614491345894 2.4821405563547637e-6 0.0
0.00026229819460430294 -5.544927338434398e-6 0.0
0.00015091927063293981 -2.4299061540974167e-6 0.0
3.203688139897372e-5 -4.221005751694527e-6 0.0
0.00010147810590939476 -1.0144357936748025e-5 0.0
1.029104921967633e-5 -1.243479373514368e-6 0.0
2.493158898721354e-5 -2.7965983007382885e-6 0.0
0.0002606628365699434 -2.5218162629356936e-6 0.0
0.0002309097616806018 4.344142175686621e-6 0.0
0.00012024283997140774 -3.7756586271574645e-5 0.0
8.796332545264076e-5 -1.972318486826993e-5 0.0
0.0003043147131212976 4.478580929371804e-6 0.0
5.083693548102152e-5 -1.2844079056180133e-5 0.0
0.00025372187990512895 -6.224301218472886e-6 0.0
0.0002181206400320794 -2.011998724698075e-5 0.0
0.00029973004949913494 -3.5884578152500056e-6 0.0
0.00010918005047359677 -2.9730187225472262e-5 0.0
0.00033565871589755474 -3.598325173620229e-5 0.0
0.00020605947293990336 1.754409846102042e-6 0.0
6.79239061275624e-5 -1.9075248301238182e-5 0.0
0.00026771664610783757 -4.651856475344597e-5 0.0
6.769713070291209e-5 -1.1807058767587348e-5 0.0
0.0003639581857115808 -7.106971111955493e-6 0.0
5.251330588035161e-5 -8.955474012618907e-6 0.0
0.00025671160806897914 5.644484353995641e-6 0.0
0.00024166762633261076 4.772958360980927e-6 0.0
0.0002239528557888641 1.771336075859347e-6 0.0
1.005200249428771e-5 -1.098841405067248e-6 0.0
0.00019668521747985107 1.4530032506187485e-5 0.0
0.00011135133456162657 -7.88968058959178e-6 0.0
0.0003054542934216369 -4.654789510953041e-5 0.0
0.00030999177803579033 -5.055302934504384e-5 0.0
3.8752116479014284e-5 -4.317730055962263e-6 0.0
0.00022421852529443622 3.2982670148634046e-6 0.0
9.116751916947441e-5 -1.968758305279282e-5 0.0
0.0001512253843262885 -1.5069806493606824e-5 0.0
1.3914364575013944e-5 -7.860842023251127e-7 0.0
3.0097481967982072e-5 -3.665873832335694e-6 0.0
0.00021503336056566023 -1.014904141321256e-6 0.0
0.0001976724651810993 -7.401176285607503e-6 0.0
2.0054703232176492e-5 -2.4416990509862182e-6 0.0
4.649450820665904e-5 -7.029940034042337e-6 0.0
3.637011464049609e-5 -9.07356204416278e-6 0.0
0.0003124738644441075 -2.3208361683146027e-5 0.0
0.0002471607364892232 -1.4671651259248835e-5 0.0
5.198604876328506e-5 -8.502111238382345e-6 0.0
0.00028319306457150873 5.21253394792496e-6 0.0
0.00026189349192147927 5.345702067571035e-6 0.0
2.6846652146326595e-5 -4.685309759555843e-6 0.0
0.00016844872514449303 -3.447838842198455e-6 0.0
1.2125264455005316e-6 -4.982079046412327e-8 0.0
0.0003952747086954516 -1.1658118264581585e-6 0.0
0.0003789332246458152 1.5616204948775996e-6 0.0
0.00011085377345241167 -3.514717136072469e-5 0.0
0.0002829452688745009 5.4750901407152496e-6 0.0
0.00025098456291504915 -2.36065225799699e-5 0.0
5.6896990452552465e-5 -9.87179189502235e-6 0.0
0.0002462906655783452 -4.84187233901437e-5 0.0
6.259189914204306e-5 -7.705435244542523e-6 0.0
0.0003247446369374412 3.7119875899880055e-6 0.0
0.0001458449970250386 -1.6085575146741288e-5 0.0
2.1530134897943594e-5 -1.865761190113129e-6 0.0
0.00019996517931996217 -1.4169413081596181e-6 0.0
0.00019812502697415382 -1.2542059169834979e-6 0.0
0.0003442654911427701 -1.8384844741007208e-6 0.0
0.00021535414458023132 -1.2321462484630932e-5 0.0
3.693667361775307e-5 -3.8823994342566295e-6 0.0
0.0003334195938855338 -4.451084883719625e-5 0.0
0.0003495781609983323 3.6586405433008917e-6 0.0
0.00025815279685817465 5.785835805259418e-6 0.0
0.0002644767890612173 5.766463687047956e-6 0.0
0.0001532712542140601 -3.284094022131937e-5 0.0
0.0003697267665973496 -2.45044855869551e-5 0.0
0.0001758719838285691 -2.8033158316151774e-6 0.0
5.056222807886293e-5 1.5112138223466048e-6 0.0
5.1231504952023355e-5 -9.83290683389516e-6 0.0
0.0001377440285903235 2.422354667316479e-6 0.0
0.00033271325012818346 -3.395030545089197e-5 0.0
2.468057279579955e-5 -1.9313824954901652e-6 0.0
0.00021274854213801763 2.6463579486179856e-6 0.0
0.0002911619321367147 3.106527762476485e-6 0.0
0.0002383983163551016 3.611300740522275e-7 0.0
0.00038723413120722724 3.818694562103466e-7 0.0
1.2905973937041837e-5 -1.853279498427019e-6 0.0
0.00034870536051245115 3.3202478272184654e-6 0.0
0.00038893071764277507 -6.613233935784472e-7 0.0
0.00018115243864695853 -4.2503221543097496e-5 0.0
0.00022030203781525548 -1.6971237936466775e-7 0.0
0.00016911130817924889 1.923502657281498e-5 0.0
9.15043430527613e-5 -1.5149210791393548e-5 0.0
0.00012445068695859717 -8.316234840159392e-6 0.0
0.00016622320966494218 -3.717556745716182e-6 0.0
9.1617295054711e-5 -3.5376176837572937e-6 0.0
0.00013213157040539903 -2.151686640096678e-5 0.0
7.766265960508788e-5 -7.637526362274254e-6 0.0
5.8704556717247456e-5 4.021120312621468e-6 0.0
0.00018446585902391903 -2.5036622400012025e-6 0.0
0.0002687983914696891 -1.9022557432482445e-5 0.0
0.00031732365318867047 -2.1459370377952628e-5 0.0
0.00014217679795584568 -5.8187696410145406e-6 0.0
0.00011070385026098135 1.0517224074113212e-5 0.0
0.00023500362869732013 1.1114850415948942e-6 0.0
0.00011847244293399905 -7.551282998085167e-6 0.0
0.0002994414200892319 -1.3185360306501174e-5 0.0
0.0001443594056386314 1.8149675527265834e-5 0.0
0.0001311040802607021 1.6140971185208217e-5 0.0
0.00021115220025959158 -9.425028656795502e-6 0.0
0.00024361811086374147 -5.621700662769056e-6 0.0
0.00013884161236288087 -4.3222690759798916e-5 0.0
0.00029165706905434445 -5.058186767419299e-5 0.0
0.0001038158968324145 -1.4203883769484694e-5 0.0
0.0002729224554465773 -5.0152248167851114e-5 0.0
9.009369372664456e-5 -8.219165540890473e-6 0.0
0.00030498296669026427 -1.4816151615907524e-5 0.0
0.0001414293940446142 -1.5826392367780143e-5 0.0
0.00032486785674542385 -1.3453417553986108e-6 0.0
9.223496956666156e-5 -1.4495345920659795e-5 0.0
0.00020261152286633283 1.1569766234309074e-5 0.0
0.0001483339885623896 -5.3769370414473555e-6 0.0
0.00016410600526394276 -2.06407768635455e-5 0.0
0.00019243967046928256 -3.188871273108977e-7 0.0
0.00019644980580275944 -1.1360524486161958e-6 0.0
0.00010368326580802525 -1.9038125260459363e-5 0.0
0.00010446173077896883 -2.0906191365683004e-5 0.0
7.377766188212182e-5 -1.1207705081336205e-5 0.0
0.0001459521760391632 3.4658264132311217e-5 0.0
0.00017004742399256338 -2.8783837698469533e-5 0.0
0.00032523526609396213 1.701544148354791e-7 0.0
0.0002959960676803396 -2.1879695689019587e-5 0.0
0.0002314987332819122 2.6896141411322214e-6 0.0
9.949437313657246e-5 -1.44024449370379e-5 0.0
0.0002560575370816277 9.899270719605503e-7 0.0
0.00022272569384675366 -1.9220040174335727e-5 0.0
0.00014203114599401927 -1.4583643449775733e-5 0.0
0.0003580255837416335 1.1510963946973734e-6 0.0
0.00038383321549467797 -3.4163990302280815e-6 0.0
0.00013582223784400893 -7.91800081201869e-6 0.0
0.0002598032404907551 -4.592046617947464e-5 0.0
0.00034040604796702826 -4.264083112470851e-5 0.0
2.4746138088557695e-5 -3.185115467502904e-6 0.0
9.569702423506619e-5 -1.044202555788763e-5 0.0
0.00010849604705638876 -1.3945110191594088e-5 0.0
0.00034624452462264584 -4.0372002806099414e-5 0.0
0.00013217332161246167 -1.9749734752928513e-5 0.0
0.0002506700696542091 -2.1049206554246127e-5 0.0
4.4498761172668854e-5 -1.0538392552808998e-5 0.0
0.0002214197893697801 -3.857657358293486e-6 0.0
0.0003150483349360553 -1.4397716961600326e-5 0.0
0.0002517768083983821 -1.387624045696159e-5 0.0
0.0003678618986824306 -2.4849048712026e-6 0.0
0.00026317190262902017 -4.095545888154413e-5 0.0
8.454071816935126e-6 -1.1076102879270966e-6 0.0
0.00017510135752405695 -3.6080472520373668e-6 0.0
9.457285655539524e-6 -7.464251496079735e-7 0.0
0.00014204537276394844 -3.850149805709754e-6 0.0
9.15056578654175e-5 -7.020870996278791e-6 0.0
5.848701919569288e-6 -3.2688956132871785e-7 0.0
9.796599621820968e-5 -3.1249714402799984e-5 0.0
9.152193125495266e-5 -2.765086226162535e-5 0.0
0.00017914879467681943 -2.8106781199988547e-6 0.0
0.00019056157812162073 -3.5153483941330715e-6 0.0
7.102068971155137e-5 -2.0314982024563957e-5 0.0
0.00012509098683435198 -7.1585224283774326e-6 0.0
0.00022706652731189656 3.1822905506939002e-6 0.0
7.10556709169008e-5 -1.2494257566641098e-5 0.0
0.00024897114411280097 -1.4309265994129671e-5 0.0
0.00022773235491087046 -1.849295884290574e-5 0.0
5.767998165407568e-5 -7.5734292387907795e-6 0.0
3.614178728973393e-5 -5.7151127465542204e-6 0.0
0.00021081918070702674 2.184918795180145e-6 0.0
1.7382862647684785e-5 -2.229744617942636e-6 0.0
0.00036923324131871887 2.401364416474882e-6 0.0
0.00015023197144346985 -5.136802801876959e-6 0.0
0.00018700079398271594 -1.6726655824962836e-6 0.0
0.0003286703724327469 -3.629810506771872e-5 0.0
0.00035600722860858495 -3.760816273778326e-5 0.0
0.00029208272539123605 4.338052065215974e-6 0.0
0.0001698927642162363 -2.5265448027803594e-5 0.0
0.00022877367220714846 -2.6379491735446974e-6 0.0
0.0003238311015939378 -4.5957190343055385e-5 0.0
0.00019223852404571618 -4.908867902703977e-5 0.0
0.00031042443637277326 -1.2485319147425306e-5 0.0
0.00025230402505680213 -1.1514319116497421e-5 0.0
0.000128485410066678 -1.8992114107107424e-5 0.0
0.00024503122585270095 -1.0696696333557898e-5 0.0
0.00013761330874100523 -1.4188529146530148e-5 0.0
0.00011430049592108634 -3.1984622839519e-5 0.0
0.00018667276284203613 -1.1771743147560565e-6 0.0
0.00029974818065071874 -4.6755216584308365e-5 0.0
7.36284169446659e-5 -1.0541557340023816e-5 0.0
6.16453650765966e-5 -1.692770988106651e-5 0.0
0.0002634451988950674 5.036636224466877e-6 0.0
9.00859570576422e-5 -1.1394840180491206e-5 0.0
0.00023954261109881828 1.6244510876437272e-6 0.0
0.00018728215836760634 6.0781362826543766e-5 0.0
0.0002827520924291322 -5.683583326675414e-6 0.0
0.00032358449282099535 2.1610062176583082e-6 0.0
0.00021038603194533628 -4.912979717404005e-7 0.0
0.00028538750848435527 3.3763571274676426e-6 0.0
0.0002345167128646409 -2.539784537492651e-5 0.0
0.0002537318242416511 -4.8931920693993995e-5 0.0
0.00011331833468960368 -1.354206630311404e-5 0.0
0.00016192686107540508 2.1885357172201705e-5 0.0
7.978575435636261e-5 -1.0677535505084523e-5 0.0
8.563224688074069e-5 -2.7056007076104e-5 0.0
0.0001699516677674618 -5.063415906729871e-6 0.0
1.2827754344907786e-5 -1.8801529389105329e-6 0.0
6.867562284675014e-5 -1.7962101016759212e-5 0.0
0.0002010045798154738 1.191670300803776e-7 0.0
3.02997308900148e-5 -3.190943862302668e-6 0.0
3.0512128933354744e-5 -3.474574918048705e-6 0.0
0.00020184151482116966 -6.556357842463267e-6 0.0
0.00021379956506710758 2.7320772324851886e-6 0.0
0.0003527182543883633 -3.691661219698929e-5 0.0
0.0001684801762794936 -3.5102393474727142e-6 0.0
0.0002694584194880267 -1.6599174786448293e-5 0.0
0.0002199779446197515 2.758781190643728e-6 0.0
6.500421215524928e-5 5.588529430069083e-7 0.0
8.252369039809925e-5 -4.799900363633971e-6 0.0
0.00037556223781742306 -5.79280045323502e-7 0.0
0.0002467795099047081 -1.6000008792139193e-5 0.0
6.150341832321003e-5 -1.0519510479990971e-5 0.0
0.0002327090838488455 4.686110865196469e-6 0.0
0.00020334845507537122 -2.0318928525367875e-6 0.0
0.00020866244433076562 2.0733814644233174e-6 0.0
9.317393608500112e-5 1.0764012456053052e-5 0.0
0.00020290068147677857 -4.958527101854104e-5 0.0
0.0003437067145400141 3.7889876033443677e-6 0.0
0.00020057460655887867 -2.8613595646659294e-6 0.0
0.0002141393522171863 2.02713366731126e-6 0.0
0.00024433314750589737 2.7045760255676545e-6 0.0
0.00018798287540225703 -1.9955705490432476e-6 0.0
0.00020231143465368392 -1.5423669552899592e-6 0.0
9.494030507207633e-5 -2.179436700202491e-5 0.0
0.00025711786550869364 -1.0283016294261148e-5 0.0
0.0001614550477314326 -4.8587527589677215e-6 0.0
0.00021165280758180178 2.166352774552237e-6 0.0
0.00031290945878155246 -5.0821772966783116e-5 0.0
0.00017585122471677108 -2.65430565326611e-6 0.0
0.00023483020383543041 4.8813040224088515e-6 0.0
0.00022156414481783006 2.764183362150932e-6 0.0
3.754236466805347e-5 -8.336453439172257e-6 0.0
0.0002966082279879779 -1.903158422729668e-5 0.0
0.00021691519872680333 2.8631224128745405e-6 0.0
0.00010923762262179087 -3.177559826930983e-5 0.0
0.00024146981833955662 -4.5492743419567565e-6 0.0
0.00028046591211954486 -5.10640058651349e-5 0.0
0.0003823364862229838 -7.71658472684616e-9 0.0
2.1320361181977673e-5 4.515453730432594e-6 0.0
0.0001646953118651756 -6.1284006700328434e-6 0.0
0.0002213641380261105 -4.4638684026040564e-5 0.0
0.00012875959509977763 -3.8319236742447346e-5 0.0
0.0001432232451703568 -4.3762035222445754e-5 0.0
3.8082421458985054e-5 -6.040887740715098e-6 0.0
0.0002740426381656091 -1.6184274358884284e-5 0.0
0.00011450052274583733 -1.2561219748571906e-5 0.0
0.0001685728063895755 -3.6532233866589454e-6 0.0
0.00014134477827015224 -5.8622622108994275e-6 0.0
0.00014811164081877408 -4.2267775597758016e-5 0.0
0.00026502014089936437 -1.0378951479306022e-5 0.0
0.0003539299073371985 -2.6812418793216585e-6 0.0
0.0002335444094268896 -2.194418809204277e-5 0.0
0.0001991131056988211 -4.3674386917081125e-6 0.0
0.00012178837798253081 -1.917799388484351e-5 0.0
0.00021332690225299547 -4.9708621815796376e-5 0.0
0.00028484118099228836 -1.3208018086285746e-5 0.0
3.4133933733084335e-5 -4.6132283469580614e-6 0.0
0.000339120431923346 4.037344015802761e-6 0.0
0.0001580537526481131 -4.3001740200362826e-5 0.0
0.00016471466177870814 -3.1194192726248155e-5 0.0
0.0002666305868455425 -3.92570280292866e-5 0.0
0.00038883790678615024 -4.240957977663241e-6 0.0
0.00013467671763523804 -4.022794634602429e-5 0.0
0.00013456511827620994 -6.192752839444861e-6 0.0
0.00013093125724525332 -8.597033398521381e-6 0.0
0.00024293020403613253 1.1937584162282231e-6 0.0
0.0003732610242834595 2.2547231677468163e-6 0.0
3.873087159900443e-5 -6.1134690908976155e-6 0.0
0.0002037613472943347 -5.391074033330015e-7 0.0
0.00033763096453154096 -3.823034768589467e-5 0.0
0.00036896402640673455 1.924886168523624e-6 0.0
0.00011320639462266702 -8.820383828604075e-6 0.0
0.00016349969768771113 -4.375800151577467e-5 0.0
0.0003591040362198073 2.398832169923403e-6 0.0
7.010997145221235e-5 -1.63523373107052e-5 0.0
0.0003820385512273881 1.5293087769658975e-6 0.0
0.00011746851999914953 -3.7304231290967275e-5 0.0
0.0002577574648348532 -7.4278531252744325e-6 0.0
8.466836232791272e-5 -6.678372769940127e-6 0.0
0.00023850564851400245 5.0285671708579086e-6 0.0
0.0003681464660997325 -2.3609265225683318e-5 0.0
0.0002898442699592204 -1.1683407169450884e-5 0.0
0.00010506940024745219 -3.2157127184141844e-5 0.0
7.959458692143474e-5 -2.4879251216353692e-5 0.0
9.504666321763497e-5 -1.8813877035257977e-5 0.0
0.00031858343972926255 -4.661873878134508e-5 0.0
0.00028004250921874485 3.5013991195312437e-6 0.0
6.574848646466038e-5 -1.0989527140189083e-5 0.0
0.00015552221365668363 -7.018584089086936e-6 0.0
0.00024248528821739463 -6.988041513782484e-7 0.0
0.00014748585802469772 -9.89731880431849e-6 0.0
0.00035934068548641 6.83768932383403e-7 0.0
0.0002567215932294087 4.96872205191596e-6 0.0
0.00016153151377677402 -4.619746930636274e-6 0.0
6.775582432609103e-5 -1.0315377835292452e-5 0.0
0.0002756194494307258 -1.2423914054688331e-5 0.0
0.00024251443050837723 -4.1495051178468454e-5 0.0
0.00033062827048968774 -4.570009564087337e-5 0.0
0.0001239372799250544 -3.7073515975848116e-5 0.0
0.00024231681486002116 3.6375681507640817e-6 0.0
0.00013883857508119766 -1.2921172979850394e-5 0.0
0.00023083423097256057 -4.5190939765223376e-5 0.0
0.0003256442568069907 -3.45795913922902e-5 0.0
0.0002757930030528933 5.27474232414413e-6 0.0
0.0003587348630719418 2.6253023881266495e-6 0.0
0.00011484179420246473 1.257867910439648e-5 0.0
0.00034482594258079704 3.4522261883135473e-6 0.0
0.00012100597200252747 -1.7498663208155993e-5 0.0
0.0003129404659052798 4.6352288345500406e-7 0.0
0.0002336168570682372 4.751993934180473e-6 0.0
0.0002580634607810514 5.259860688616523e-6 0.0
0.00011854413224999566 -1.108395167121097e-5 0.0
0.00026205088024212474 4.319514202570035e-6 0.0
0.00017558916674618937 -4.393429699543542e-5 0.0
9.913477021275747e-5 -2.9312577375573194e-5 0.0
0.000216333148069492 3.1317006983647445e-6 0.0
0.00027329313557127656 5.615981896880437e-6 0.0
0.00016012743004157216 -3.6651703099452776e-5 0.0
8.792102350551374e-6 -9.75484357985287e-7 0.0
0.00037823587075718374 1.8606769485820587e-6 0.0
0.0003126746493317612 4.8426174551471935e-6 0.0
0.0001827129873316857 -3.935181146864421e-6 0.0
0.0003862258172856589 -3.2435736349212377e-6 0.0
0.00012712225958783503 3.4538122004462297e-6 0.0
0.00020600103711895703 -2.235294538371462e-6 0.0
0.000392510373734462 -3.87088633096515e-6 0.0
1.0992451066623035e-6 -1.8049664771637435e-7 0.0
1.3795954511032784e-5 -8.334144102689144e-7 0.0
0.00011889761576082481 -7.2992114337733265e-6 0.0
0.0002317422688034209 -3.5174704665434644e-6 0.0
0.0002554093299039459 4.866762216227231e-6 0.0
0.00029937843093567006 -4.3333314383077744e-5 0.0
0.00038129569834942796 -8.705678456207954e-8 0.0
3.681496433892747e-5 -4.768463234364463e-6 0.0
9.311189285447655e-5 -6.715667520184433e-6 0.0
0.00024315173454892246 -3.76689522886774e-5 0.0
0.00032594901453641945 4.5374166024045555e-6 0.0
9.783470681517902e-5 -1.876051060687271e-5 0.0
2.7144030399810405e-5 -1.075415612225066e-6 0.0
0.00023621304980196963 4.776961522114368e-6 0.0
0.00012778389181656712 -6.500839598732822e-6 0.0
0.0002720198930574056 -1.2011528823949655e-5 0.0
0.00019670009312474366 -5.661162530245096e-7 0.0
0.00014536817129428298 -1.1021760719338122e-5 0.0
0.00033165078029512686 -1.4316294252050445e-6 0.0
0.000343101244176697 -4.254171678801919e-5 0.0
0.0002895597659941906 -4.779050359115165e-5 0.0
9.122161837321185e-5 -1.0732171135388573e-5 0.0
0.00035271699529978106 3.3267772118921888e-6 0.0
6.3940157305006e-5 -1.1078637042643156e-5 0.0
0.000354490129172282 3.2743988957386642e-6 0.0
0.0003212091417328544 -4.7052270362220265e-5 0.0
0.00023756639816141886 4.35141625407301e-6 0.0
0.00027093084197621245 -4.766185751012372e-5 0.0
0.000274431401748295 -1.5447405495656685e-5 0.0
0.00018919561067969666 -8.340817797966758e-7 0.0
9.802754649524038e-5 -2.7217111353580152e-5 0.0
0.00017991177790419483 1.6880124951344398e-5 0.0
1.1480041151080067e-5 -1.4641058664158976e-6 0.0
0.00037272276020384565 2.294395865607704e-6 0.0
4.73417959925867e-5 -1.1880922196274292e-5 0.0
0.00026888705693996873 3.5681957565686457e-6 0.0
7.360214764777488e-5 -2.1485151382239408e-5 0.0
0.0002578337116032185 -5.042887768179567e-6 0.0
9.285972066827816e-5 -6.123949219371643e-6 0.0
4.167531685734503e-5 -6.358825702552008e-6 0.0
5.56596352579377e-5 -1.6053523331116395e-5 0.0
5.0416299788465014e-5 -8.663830860083132e-6 0.0
0.00017810602923536674 2.793609827708238e-5 0.0
0.000286726309689627 5.355851280191679e-6 0.0
5.1626704445340455e-6 -1.838729577792405e-7 0.0
0.0003096819946352073 4.8632628149898026e-6 0.0
0.0002871037263897336 -8.508422998721271e-6 0.0
0.00023647803414387133 -2.4875135818054677e-6 0.0
0.00019464094010089326 -4.2570106024574696e-7 0.0
0.00011080628673434044 -7.285283254112522e-6 0.0
0.00019496311129076806 6.736167497074767e-8 0.0
0.00024629795160172854 -3.1866816320762604e-5 0.0
0.00011869271977155434 -1.2268687048352386e-5 0.0
8.957573095303572e-5 -2.7409667415329408e-5 0.0
0.00032184513432132844 -1.9411715087108913e-5 0.0
0.0002468010573242927 -1.2036814666553836e-5 0.0
5.0556032849926686e-5 1.8988103875600713e-6 0.0
0.0001337585806271678 -4.018056246226626e-6 0.0
0.0002511060817833875 2.3963225835003213e-6 0.0
0.0002488721817782038 -4.5732798143839034e-5 0.0
0.00015406782171886914 -7.862435366190226e-6 0.0
0.000308718606745881 -4.789813590787109e-5 0.0
3.051216538684737e-5 -6.173348195776944e-6 0.0
0.0002699341489361081 -3.7801702569599374e-5 0.0
0.00014330739677446936 -5.801390442511816e-6 0.0
0.00035518803495773797 -3.5683649079549525e-5 0.0
0.00014321106287442991 -4.986755334020205e-6 0.0
0.0002365516620420383 4.93785237939438e-6 0.0
0.00020365524303451223 -5.446521714384163e-6 0.0
0.00020880404806517862 -2.3526781402133755e-6 0.0
0.0002247675397379752 3.3234059270214814e-6 0.0
0.00024018444935000044 -4.4994686029064424e-5 0.0
0.00030261168524050924 -4.724384720148141e-5 0.0
9.622596444088061e-5 -1.4620549336805818e-5 0.0
0.00023720879950017563 2.3206220205666148e-6 0.0
0.00023300312205675936 2.3275211239317555e-6 0.0
0.00029977189539160217 -3.9389993553718084e-5 0.0
0.00019127174131450337 -6.548584592730368e-7 0.0
0.00020963949385662236 -3.1461853059252315e-6 0.0
9.726556970176387e-5 -2.513368537786098e-5 0.0
0.00035396205724484134 -3.3455571806531334e-5 0.0
0.0002591716799937182 -4.9206292459170924e-5 0.0
0.00016098190395104892 -3.365165534980308e-5 0.0
0.00037425526828777447 8.654681442272501e-7 0.0
0.0001596649974102299 -2.463802998428854e-5 0.0
0.0002832436770295663 -1.2999525076086764e-5 0.0
0.00010764678988561984 -8.692872859491306e-6 0.0
0.0002452328335760124 5.573428213793626e-6 0.0
8.538504379112835e-5 -6.827316463183818e-6 0.0
0.00017801168986392285 -3.2031607416984904e-6 0.0
0.00017083532097713695 4.446102438370337e-5 0.0
0.00038881706401832 -2.3328465408620644e-7 0.0
0.00023439947318201675 -1.9772552088347742e-5 0.0
SCALARS damage float 1
LOOKUP_TABLE damage
0.9964978592958693
0.9952562324660417
0.9983670701341025
0.9607760861777135
0.9998482450095787
0.9999891738859024
0.9772180117791563
1.0003742613855084
0.9994417640596536
0.9994039549897752
0.9992539168209941
0.999244826876552
0.9992180739826915
0.9991859671411873
0.9991170537895052
0.9991111686381078
0.9990558727336949
0.9990765772072175
0.9990899134961503
0.9990777272426358
0.9990084076493019
0.9990072236327399
0.998946701558472
0.9988782310138272
0.9988522015754858
0.9988080825855917
0.9987056768622724
0.9986037670020766
0.9984219419001096
0.9982186597809571
0.9979314333604552
0.9974980841704958
0.9943554453282645
0.9963056021202077
0.997020268792683
0.9973521648780823
0.9975994858049612
0.9975960127966116
0.9976207469719635
0.9975620135423924
0.9975327032346577
0.9975240086808679
0.9974657188544028
0.9974494753037785
0.9974176142062263
0.9972884860845485
0.9972243366688036
0.9972298475241513
0.9972597479035537
0.9973035220023404
0.9972770377452215
0.9972486536858558
0.9972101195197944
0.9971497513117873
0.9971323710876439
0.9971745543192687
0.9971882286236041
0.9972690174622701
0.9973820351886561
0.997377716629415
0.9973617502345326
0.9974827773450778
0.9975836702724059
0.997772574111488
0.9978676603726078
0.9978359460543503
0.9979353039023633
0.99817514272934
0.9982858902462195
0.9984128882308986
0.9985337668129771
0.9986107572673947
0.9988775690730203
0.9995108932467678
0.9990877184338217
0.997978970310108
0.9982502657796919
0.9985247569046422
0.9993141105477176
0.9997753436652915
0.99986884412877
0.9998362865014544
0.9997042319584816
0.9995769866401193
0.9995686658366392
0.9996957289636991
0.9997580811599246
0.9998305584628877
0.9998811360096699
0.9999074163952182
0.9999210199150453
0.9999388782073757
0.999956812860249
0.9999709675979708
0.9999788814052349
0.9999825273586384
0.9999811414773921
0.999960341324021
0.9999363034365698
0.9999199472776605
0.999916269768373
0.9999278893803546
0.9999505100668837
0.9999575182857888
0.9999672713923978
0.999968360450117
0.9999625845018952
0.9999503649622482
0.9999305780393994
0.9999110455784949
0.9998893988304414
0.9998557862256525
0.9998354827270383
0.9997917667239958
0.9997664836989955
0.9997203299279239
0.9996634795669321
0.9996027866659847
0.9995066099223263
0.99939707119704
0.9992906049644026
0.99909810157943
0.9987803423199031
0.9984283593961234
0.9982672156813354
0.9978584634294059
0.9967735727320148
0.9942436006170102
0.9901469357777948
0.9769073047342836
0.9403497108493952
0.9971293996429553
0.9965889461614121
0.9965259985511769
0.9973447305244089
0.9978937213020578
0.9981735875385931
0.9984629746477738
0.9985668202791921
0.9985656385110271
0.9985132145987851
0.9983177371653746
0.998261267449761
0.9981088275596905
0.997979190046387
0.9978583113901669
0.9977386618677784
0.9976453673914663
0.9975677338470036
0.9974768725332853
0.9975405459501004
0.9977149862390745
0.9979647375671445
0.9982383548907972
0.9985128800986721
0.9990108072379802
0.9986566039036325
0.999497929666745
0.9999399070227709
1.0000166662953385
0.9999856205656703
1.0000033085454132
0.9999614025010338
0.9999030518577066
0.9998331294937788
0.9996826070964354
0.9995883930950309
0.9997319763086655
0.9988154277879804
0.9976815922529362
0.9948184164595607
0.9858198661471792
0.9626232317326041
0.9781449266236708
0.9842447014026527
0.9896273271404558
0.9933371894104668
0.9967077883716732
0.9981793649400577
0.9993506220429488
0.9999279322915835
1.000145483205798
1.000247803864408
1.000100188340429
0.9998911481709145
0.9999902735289353
0.9989232545044213
0.9952693727812328
0.9977363315653237
0.9999478677537842
0.9985052261772689
0.9999805806171511
0.9991849074844685
0.999881994109993
0.9999177725098508
0.9999507831109262
0.9973739484235062
0.9998461264307117
0.9973991517045327
0.9985660417024935
0.9976603059032827
0.9952393059583439
0.9988326422232215
0.9766427311175675
0.9916406041382337
0.9995994626122163
0.9974066741042021
0.9983948154579169
0.9981287841342621
0.9975093048449498
0.9986337671647949
0.999026917503305
0.9974711223883671
0.9995256673687649
0.9968130180708628
0.9980678326612835
0.9986214659652262
0.9992058361927332
0.9995163204405281
0.9999623556185888
0.9997497223449745
0.9999290287427656
0.9999756371258948
0.998205871152472
0.997479721780725
0.9978944953742604
0.9973626325693002
0.9977576762739573
0.9989328177232835
0.9979169987767242
0.997424200591748
0.9998951655403567
0.9986364863513736
0.9982166818237845
0.9982853217096453
0.9985166174509695
0.9978503868322331
0.9981117168869637
0.9858542547787967
0.996443558232796
0.9869050609382901
0.9999115185020409
0.9997886994131735
0.9987620389296439
0.997881322005821
0.9999357303306523
0.9999191643757837
0.9973324697803011
0.9997754480899269
0.9973374577577547
0.9974455052305337
0.9993510654914025
0.9996909128582071
0.9992562316472149
0.9975150464088212
0.9971221630355956
0.9996286990610164
0.9999936452750297
0.9981340040005044
0.9984753168011781
0.995386846322454
0.9711764224452325
0.9999230590361329
0.9994036934353914
0.9984899808419353
0.9988311379548277
0.9995047925002156
0.9989026293612969
0.9984740802379314
0.9985314028449548
0.9982876712217701
0.9981761962805843
0.9984224492472566
0.998004368599561
0.9982512156216478
0.997625496654694
0.9978706741048039
0.9971448367267026
1.000350677224155
0.9897903680067124
0.9989513586229015
0.9911036565804968
0.998893854044398
0.9929098049813997
0.9987789942108249
0.9942680342279854
0.9986133356925246
0.994799179971256
0.9984868250270447
0.9953187226117456
0.998377204963054
0.9956189645317363
0.9982462087072969
0.996023083640067
0.9982210694547503
0.9959506855848304
0.9980607291233556
0.9959790465784307
0.9979370242002749
0.9960673919168069
0.9978544147622468
0.9961493494893139
0.997801726729562
0.9961839841318818
0.9976993679530048
0.9961435078252404
0.9977390172856726
0.9958971497205905
0.9975804761064165
0.9962881974766618
0.9976094080442744
0.9964759245253798
0.9976223448183489
0.9964966231421075
0.9975942851064662
0.996656587628465
0.9890303457308798
0.9976317008322305
0.9932056511453441
0.9947346100186041
0.9966789515300853
0.9976212355422068
0.9967100132930656
0.9957225919012322
0.9957887786575357
0.9976118779571445
0.9981747375295479
0.9982740755586059
0.9981759990081199
0.9984919461320232
0.9984958570967252
0.9949108697640046
0.9950255667383369
0.998665898829784
0.9942465525497629
0.9944546778324702
0.9986852884175951
0.9987930476064075
0.9939562341791579
0.9942075201683702
0.9988157761214973
0.998877921120766
0.9939702825561447
0.9942348503938101
0.9989105003630476
0.9989471725991474
0.9941649574906084
0.9944201915234676
0.9989928030556163
0.9990008780824207
0.9944409168044914
0.9947086985451772
0.9947821238141378
0.9945094522594502
0.9989437144983091
0.9990611113852683
0.9990472290374074
0.9989670207978484
0.9985549883643808
0.9990210630290699
0.9989067295986205
0.998938714319027
0.9950113232968932
0.9952938008336844
0.9948863071602133
0.9991160678946137
0.9954922394450578
0.9959201690282087
0.9989218006102467
0.9961427569879108
0.9964220964910561
0.9966187996854003
0.9968506427543882
0.9966758681698521
0.9970426819434969
0.9969305959428169
0.9970331360638688
0.9972342567404873
0.9971115757346131
0.9967913331085541
0.997110253073078
0.997374403243606
0.9972583560757619
0.998819501835277
0.9988170989721084
0.9969159079001657
0.9972157609540059
0.998695426013209
0.9986764338216336
0.9988498533029225
0.9986728877865565
0.9989115709505891
0.9987344991160813
0.9989752283843494
0.9987709040947722
0.9990372586683538
0.998508478197807
0.9988277062543501
0.9991391789701113
0.997042870834797
0.9974867441053394
0.9973750575269498
0.9992735341464644
0.999381063974682
0.9992665360284267
0.9994808170911076
0.9973164484344957
0.999500378423454
0.9994039286532491
0.9971807632808313
0.9974367171935958
0.997542768660102
0.9995976001542997
0.9995535651862932
0.9973401142755127
0.9970186155199202
0.9976218870155078
0.9976554772116716
0.9996862897187493
0.9996797144462282
0.9993822082777855
0.9996694835692236
0.9995420445625711
0.9990562909211791
0.9976890555791315
0.9976021639727852
0.997213645341295
0.9975658990723313
0.9970966586390009
0.9974747194900461
0.9969706982223248
0.9972034061709804
0.9968218261387333
0.9977508273383513
0.9977663374768472
0.9997705859395639
0.9973871089217269
0.9968673546103218
0.9970569630481063
0.9966427283871866
0.994488884440668
0.9996431082619387
0.999034787630389
0.9994668220616031
0.994255498478026
0.9985087987209496
0.9973072027136768
0.9967721373385993
0.9979062585454569
0.9979133448697426
0.9968981763094825
0.9964930634478495
0.9998034419016448
0.9979065988767373
0.9979795200983724
0.9977537893258651
0.9996935328090655
0.9972494630046829
0.9966344564082551
0.9973288753574747
0.9980629683283873
0.9980286842535622
0.9985750042205869
0.9984308064073868
0.9985304484961951
0.9983822000238929
0.9967710831350162
0.9964096247701608
0.9936995636774905
0.9971492746272762
0.996656251142322
0.9998124079015694
0.9998652319195485
0.9973226272189062
0.9967906996132618
0.9997190264386064
0.9995153070965511
0.9975635991912338
0.9981329076918471
0.9967345964024555
0.9963695394474996
0.9961020372498051
0.9960765443071147
0.9958792536059835
0.9959987504118317
0.9958811044131262
0.9961941117472725
0.9961365497357675
0.9965155306418716
0.9965300121402265
0.99689043213809
0.9968464644982847
0.9973675240499561
0.9973019167661056
0.9978208270924205
0.9965078439007279
0.9979231578967318
0.9982149801896705
0.9981208182420871
0.9983622346775509
0.9980855070675095
0.9981592180640957
0.9982146845358386
0.9981202200925327
0.9984875340227745
0.9985497001542819
0.9984222995472489
0.9986073174698259
0.9982559733830498
0.9983111200595596
0.9985167589053652
0.9983799790516686
0.9985369479053159
0.9997935303112889
0.9996770516368899
0.9967327266651628
0.996238084886206
0.9985110726853671
0.998510562551696
0.9986904428325274
0.9988212470685645
0.9989223337366735
0.9987744762249716
0.998405389618357
0.9982370661050454
0.9972259350412367
0.9983215748418819
0.9982431020507103
0.9986143653300741
0.9988566581137732
0.998950769276502
0.999060941216452
0.9991053430783386
0.9992162226085919
0.9992762377043843
0.9992149304744884
0.9992772140745313
0.9980688822335141
0.9984104675524618
0.998426075696481
0.9971546150869546
0.9997617249762359
0.9995948556769928
0.999240774653802
0.999226664384612
0.9978795009327762
0.9984900543004461
0.9983748124976335
0.995984962954929
0.9970607314127785
0.9971983428573221
0.9985296210658388
0.9975723923917728
0.9997166470938679
0.999444750473721
0.9994401513977719
0.99797585923471
0.9998698181786575
0.9983771904578823
0.9985501160529036
0.9984605837943423
0.998694776400265
0.9993807454546019
0.9986137084725227
0.9984369710530365
0.998523391357024
0.9985354866749886
0.9978280941747489
0.9994503773075866
0.9993337112874542
0.9982614791170723
0.9983083312587406
0.9995362009999049
0.9976542914621207
0.9985122949688477
0.9983644292050546
0.9957339724353427
0.9993223361362782
0.9990118965065816
0.999175885792193
0.9995903723671551
0.9995668881899097
0.9993196838831364
0.9994488869260685
0.9977946476849053
0.9992264179080181
0.9995118185050893
0.9986073696251317
0.9986183052639777
0.9997694325983789
0.9997803660763839
0.9985806556270101
0.9984327151193975
0.9985451410242897
0.9988092967373253
0.9982458730384203
0.9983004502056769
0.9984828794191395
0.9983799666476088
0.9991251056545278
0.998767388932462
0.9982678904725026
0.9987038135352599
0.9987089585964641
0.9982507699729494
0.9998707499221691
0.9998765724341317
0.9973845836930861
0.9991816157893805
0.9968783244597731
0.9982189427947193
0.9982475091767647
0.9984238449090325
0.9982971091772735
0.9981206980064014
0.998203043679801
0.9981011115068301
0.9981600446507722
0.9981719564202264
0.9981012412638622
0.9982554443699644
0.9981940675940222
0.998138112046121
0.9986658888511858
0.9986635702541903
0.9981351478977301
0.9981631233124268
0.9976339065691217
0.9967964369409446
0.9993726640994361
0.999466140277657
0.998340598837286
0.9984462277425691
0.9978952523688768
0.999511287612212
0.9995027318195001
0.9988541059208644
0.9981770689353994
0.9990753135379209
0.998926458473629
0.9990591505441128
0.9981045008626415
0.9986853121634912
0.9986250727820458
0.9983373854403925
0.9989157818494293
0.9991611858674122
0.9974767294014893
0.9999375842818744
0.9999305801428294
0.9998462291801976
0.999892729425693
0.9980604771411127
0.9984762135054823
0.9964308084555958
0.9999133087961098
0.9978150057194239
0.9999494914114849
0.9999184341897929
0.9998234491414598
0.9998863902811869
0.9997712628782576
0.9998627539218472
0.999939680976004
0.999923665960196
0.9981105562451044
0.9980467084089829
0.998066702625141
0.9985455941634661
0.9981539158469603
0.9991317868484078
0.9990530163491994
0.9986572969820625
0.9973335025079587
0.9983191021513294
0.9977726487551614
0.9987191405193915
0.9984286472840113
0.9980493081138867
0.996546699277146
0.998636402175508
0.999274695295883
0.9966901220367929
0.9991505840717586
0.9999656056172375
0.9999568531473528
0.9972824563563547
0.99722057021683
0.9977313890576501
0.9985565661962416
0.9987097558136182
0.9987184179349465
0.998372103674041
0.9999607660137448
0.9991215271810615
0.9984129980409338
0.997502264501655
0.997954263839064
0.9979523807682401
0.998717450804275
0.9995345832088665
0.9995076226765026
0.9991976905090969
0.9976727473132565
0.9975955947975409
0.9978611195517191
0.9977634977300256
0.9975467610454226
0.9976836336463116
0.9978199020479486
0.9977196616832184
0.9977905982937727
0.9976799408600835
0.99771065574147
0.9975880702716149
0.9976097880015173
0.9974819340273648
0.9977249833298251
0.9975254904153422
0.9974096367941011
0.9974966026258651
0.9982260470947204
0.9986735758021607
0.9987046973867356
0.9974638106836352
0.9973536954823119
0.9975791914350397
0.998598318841734
0.9986166878692327
0.9989352726820793
0.999041372368914
0.9994874868939931
0.9996243149882019
0.9992201982175397
0.9997423588190545
0.9992900439509022
0.9800992457780832
0.9998517657573102
0.999776207563144
0.9951336535973053
0.9960799416024949
0.9964980380062978
0.9960128563428303
0.9964614880610151
0.9959198800446194
0.996401372351343
0.9970455901847498
0.9970299591147304
0.997714294474724
0.9977052913508306
0.9982261500423659
0.9969922807399897
0.9958012877862645
0.9954558768033738
0.9982212700821137
0.9985685437824738
0.9985387384022828
0.9952566874222697
0.9912803156971488
0.9986873092967118
0.9990881789317057
0.9990980162001886
0.998785344618991
0.9984333490164
0.9996416789660867
0.9990792778544704
0.9980862130698994
0.9963423368321666
0.998201990575974
0.9994585148084489
0.9993782051906882
0.9990403984760091
0.9997252798404548
0.9992851559184308
0.9989551480238614
0.9992835749286926
0.9988410597435761
0.9991600528305122
0.9995042894906719
0.9993760200981059
0.9995902611824699
0.9994798744339415
0.998216853290649
0.9984974064760466
0.9990073900866892
0.9992230031348307
0.9973784838062801
0.9980156904661649
0.9973989763898069
0.9975696921893483
0.998713480065668
0.9984045090230924
0.999949210405237
0.998142451123383
0.998900244796479
0.999423533436051
0.9994926139794964
0.9996155763941648
0.9990746088847965
0.9998998188181298
0.9999366355871075
0.9999711232875081
0.9999673215252437
0.994050132129107
0.9981798693189737
0.9981929583518862
0.9978890223356414
0.9973801699581468
0.9985007180261041
0.9986905860606077
0.9999064595400459
0.9987230722747117
0.9993786491727633
0.9992918855861566
0.9974100579160384
0.9950768367630134
0.9973257937742649
0.9965387561022393
0.9977765740084936
0.9977700814905575
0.9979112077712577
0.9987431228058457
0.9991399915207013
0.9980323587696741
0.9983161069204916
0.9974374498500175
0.9973026543765409
0.9996700796797235
0.9982586949313416
0.9986829330513117
0.9983698318078468
0.9979574444397332
0.9977360299284861
0.9977461619145105
0.9987036932984898
0.9992204954707531
0.99933317685991
0.9994433528540115
0.9993561452919625
0.999932599021959
0.9999600307601835
0.9999703892155962
0.9999562295906854
0.9994587312577861
0.9994422641657366
0.9999174631244859
0.9999146799649722
0.9952908230305055
0.9951992385980574
0.9991148334104369
0.9992505645645744
0.9992284472664273
0.999496816387144
0.9996247470428895
0.9997510809671789
0.99977339076501
0.998902162999335
0.9977338178560247
0.9983938273409706
0.9984612580728965
0.9987252185098845
0.9987195830080309
0.9986917569234283
0.9986830087416718
0.9986854647928735
0.9986686593710942
0.9986625827085577
0.999471897256866
0.9991865177123274
0.9994353451916149
0.9998499616717348
0.9998607055285654
0.9997938256688436
0.9995938158595852
0.9987292660715951
0.9999589105031073
0.9965735513903847
0.9934429818727888
0.995896111523715
0.9988977832866691
0.9986015165550713
0.9987914706338625
0.9998523298821556
0.9992925311112232
0.9980228808728743
0.9972704609860283
0.9972346205046525
0.9973311001507364
0.9972884513600204
0.9997307099928587
0.9989234866772569
0.9992877074704601
0.9961696707374224
0.9988204476218553
0.9995332186087948
0.9992173588496406
0.999328019281246
0.9995095345468852
0.9995799419779169
0.9984553096793303
0.9986792288263608
0.9986304620072496
0.9986259367429597
0.9985178992442032
0.9984688011087806
0.9985911410158494
0.9984029908676197
0.9985330796066236
0.99835699494415
0.9985332081447178
0.997626960316737
0.9992233306531583
0.9975748688645224
0.9982892060703406
0.9985985401243889
0.9970024303546814
0.999652945678676
0.9997712523491787
0.9984172935417405
0.9980125005841486
0.9980762936550014
0.99922742895155
0.99991634078952
0.9997273016223067
0.9999451400245448
0.9992085609850644
0.9953413294250656
0.9953014440240671
0.9954539826078204
0.9950459037388093
0.9955031087158025
0.9987138614838051
0.9999594210795046
0.9998466236921618
0.9998612508827707
0.999792528831664
0.9992203259201967
0.9994637792251777
0.9982175258922521
0.9980441673952565
0.9993111531766203
0.9996202565342184
0.9983465501935121
0.9990020057628218
0.9990281180524151
0.9975956743153245
0.9999681960204577
0.9986323419121154
0.9991964227611894
0.9998038395307587
0.9997569041701548
0.9992197197893493
0.9991322235229696
0.9991259475760641
0.9984834166165909
0.9983261928138032
0.9974291547466836
0.9998060605702023
0.9991812226574701
0.9994489610564301
0.9980071705952134
0.9957446300632659
0.9979116853565408
0.9999424745881025
0.998215190390295
0.9982545309400223
0.998224451074444
0.9982899679818523
0.9982224532460741
0.9983251494747778
0.9998339204475922
0.9997627809195603
0.9986039037850207
0.9996851732896187
0.9973476525597884
0.9970533965491772
0.9983824211653326
0.9986356984556571
0.9986321928687439
0.9989598845624443
0.9982816138579047
0.9983288059154075
0.9986278722064473
0.9988617658399314
0.998316351467352
0.9981437766589959
0.9974340583795892
0.998083278751149
0.9992008109914232
0.9982545203240609
0.9999614091015059
0.9997434028133664
0.9955626801014049
0.9916407350842485
0.9955930968149074
0.9987388050563842
0.9993778538711082
0.999331025349032
0.9985797965981652
0.9978567864902773
0.997906550405753
0.9981298085296164
0.99809897065398
0.9971360959480448
0.9972392673305069
0.9998358671873072
0.9998032911714849
0.9996310442358128
0.9999461804672832
0.999912713359733
0.9999510764164671
0.9983802979771156
0.9984080174424461
0.9993920679069425
0.9972648581061624
0.9973340805701566
0.9978432694827077
0.9953266382171143
0.9974069974117968
0.999045751872786
0.9991795187278095
0.9990895638368723
0.9991458169622027
0.9990380556362507
0.9992344943387955
0.9986761603553154
0.9950282592133356
0.9950977293342826
0.9976975765129981
0.9977418708392174
0.9972809748483713
0.9972704950901092
0.9974715700820649
0.9973295639022135
0.9973176372829353
0.9993385437594045
0.9987880261777519
0.9995005550513157
0.9997135852417642
0.9995872125311593
0.998391011932826
0.998516930272811
0.9998495091733732
0.998800811892104
0.9995212984230366
0.9989779794768089
0.9989595693384035
0.9989117526252481
0.9989070051254321
0.9988679123238494
0.9988589846289982
0.9988240179408981
0.9988232505579644
0.9988076878897354
0.9988960150158807
0.9987899011389149
0.999861545084773
0.9984192687840561
0.9983838491242248
0.9983219449742434
0.9986848527030954
0.9953523782265421
0.9990539570987387
0.9982427136931794
0.9985931748588021
0.9951404019924522
0.9957017055600729
0.9978211718207177
0.9982288453952999
0.9990190768269306
0.9956711987508033
0.9957482632179262
0.9983539237028406
0.9970181984137199
0.998491488362896
0.9984671594906973
0.9964517333609624
0.9995361266701696
0.9996071578710031
0.9995853492373835
0.9996310929333106
0.9987705440993452
0.997295847951102
0.9945364056769991
0.9990157863356247
0.9990185217286027
0.9948449411104012
0.9957334829321839
0.9997661821507611
0.9999698892273239
0.9999757728554314
0.9999768372301175
0.9999803663966929
0.9999814748239871
0.9999775282032894
0.9999678159022009
0.9996434185503947
0.9980003074193871
0.9984081895552624
0.9981806973560562
0.9934359370275075
0.9894116438613995
0.9999798174146143
0.9999807701019493
0.9999798468990281
0.9997846438835477
0.9967468788794528
0.9970365207523042
0.9973619867496212
0.9977749429414067
0.9966891927528735
0.9997246487962665
0.9999365250969233
0.9999266154298266
0.9999229575463779
0.9999092554138854
0.9985934739859438
0.999665588907887
0.9995427974696127
0.9995453758401924
0.9992725218482689
0.9996525142023369
0.9980145400526597
0.9981666123405858
0.9973968338530322
0.9985581415163151
0.9985019319519186
0.999751020282791
0.9999311894261133
0.9984238285394107
0.9974984001997266
0.997896031333648
0.9996060341063167
0.9996624935106023
0.9982012425328947
0.99808863789235
0.999601983888376
0.999544242903575
0.9996830424651085
0.9992974053122814
0.9994283888223959
0.9995059577256901
0.9999168962280266
0.9986683977444476
0.9956920541943146
0.9994047933203754
0.9988841396703264
0.9999446630686641
0.9985637610680271
0.9985777667745209
0.9986070942786719
0.997463621878555
0.9995100776699042
0.9986167254552244
0.9981781576659331
0.998844470534076
0.9999798135930367
0.9999700421772324
0.9993191817707948
0.9992571119373376
0.9975766243466058
0.9975624292102802
0.9991911248371567
0.9981923044655124
0.9984170647532377
0.998283536316585
0.9981962610478063
0.9981018682889524
0.9986040390005795
0.9988346429565802
0.9999587680565031
0.9984828176764146
0.9983112312419832
0.9983935380895871
0.9999344696707415
0.9967195479965131
0.9988577560367984
0.9984250543962931
0.998364259846511
0.998770299634024
0.9989775434405544
0.9993106837722803
0.9983841263150468
0.9982181838719824
0.9982549856066305
0.9981106856710824
0.9980992080585692
0.9984762117293918
0.9996379140940113
0.9980770016582791
0.9982265607793832
0.9999207601751451
0.9983407113770961
0.9988944576371785
0.9985450466361679
0.998416972816068
0.9985831799858071
0.9981516682529651
0.9981400122514485
0.9981346632937098
0.998117499206905
0.9981933380307424
0.9980875157727219
0.9979445866901543
0.9978951033399216
0.9977903084282146
0.9983833688816723
0.9977294610998707
0.9976558525218301
0.9985557939489146
0.9982690105583519
0.9977169135100178
0.9981523441676098
0.999907581947385
0.9998730057556257
0.9993616188316105
0.9996257276911198
0.9995240196519956
0.9961656483103453
0.996150161271366
0.9956336735055298
0.9958349753752564
0.9955432019848595
0.9942694767093871
0.9939120526867433
0.9921625450710444
0.9926684224771972
0.9912533459317396
0.9921993120451429
0.9912830053137713
0.9921534014922572
0.991503856275494
0.9922481642691826
0.9917337961317451
0.9923429612488394
0.9919414840311755
0.9925378559167377
0.9922022135291075
0.9927425792102473
0.9924611095625013
0.9929612712745077
0.9927114418286361
0.9932131274555731
0.9936409432672054
0.9938923089289804
0.9929883278144892
0.9930288305305034
0.9920270353123865
0.9912902599504834
0.9938610950099553
0.9905848963188837
0.9945196395231874
0.9947274614277692
0.9941118070868922
0.9949215991899326
0.9929098129375074
0.9896926120542822
0.9942549335073253
0.9910995552075833
0.9943294368486376
0.995144282334966
0.9955730279970332
0.9950123326202805
0.9948081933567569
0.9937146458255874
0.9939597794731143
0.9935607525001021
0.9948669876834892
0.993336970894781
0.9957910219096411
0.9962260611845754
0.9960460634825762
0.9965981338658676
0.9999361249463451
0.9999598201941701
0.9987677540017648
0.9995554114039336
0.9996927499783962
0.9980322640187496
0.9980313138194254
0.997094726580511
0.9992649471471386
0.9953627108541298
0.9990154919480317
0.9991258296275313
0.9991398904653241
0.9992053976996507
0.9988209960782902
0.9955956511344684
0.9958270180061863
0.9995123681674547
0.9994059276924976
0.9994842922214967
0.9993082116517188
0.9995434793174063
0.9987672565424082
0.9987873228378985
0.998823193791791
0.994914369490371
0.9955001869450525
0.9953103702978456
0.9961018664508733
0.9959658621141037
0.996837099849516
0.9967911306366287
0.9976333666450323
0.9976457037031642
0.9982011332114956
0.99911323922031
0.9989957818740335
0.9988874103326467
0.9988622006326335
0.9986762983824546
0.9975753690180447
0.997645898197039
0.997803112695542
0.9976749926570008
0.998486072736485
0.9993055253203396
0.9994409097279374
0.997211820023499
0.9986776826290954
0.9987039721709373
0.9992470249362079
0.9991974392433991
0.998652237634041
0.9987142344238256
0.9980683740282518
0.9980939538628174
0.9983358597329457
0.9979853341229331
0.9981981122967963
0.9978368096310309
0.9974176667750433
0.9980921573145541
0.9978496181978104
0.9976288400355785
0.9938176379846659
0.9991009327592356
0.9992934059653176
0.9997244179408216
0.9997955907599746
0.9998239391414036
0.9983516218254437
0.999477593120912
0.9980056047214778
0.9963141756305852
0.9968157843578801
0.9982632076568384
0.9998652193835122
0.9995394117999551
0.9995111476301523
0.999799278281877
0.9992058532579003
0.9997754130387291
0.9998310240634274
0.9998876123760589
0.9998818830661583
0.9999008556886589
0.9977373841866669
0.9977621319765141
0.998197813846596
0.997763102266876
0.9984688610482646
0.9978137459855337
0.9978819448169544
0.9995516250425734
0.9975338610530436
0.9975204208475819
0.9977301705707341
0.9975754456239008
0.9986991776621135
0.9974602276946267
0.9974797438266984
0.9999391558686407
0.9949366383437199
0.999839742586762
0.9998293669977266
0.999779218813978
0.9997620092077905
0.9997067833762093
0.999680797523556
0.9995844618287235
0.9997020386449554
0.9998671203037814
0.9996498745138236
0.9959755999421713
0.9973573641197582
0.9977777316174266
0.9972857960517435
0.9988413506055206
0.998963678441226
0.9960753627660843
0.9988208420977227
0.9987363753269878
0.9987199040364575
0.9975316652423799
0.9975459018209653
0.9998831288428404
0.9980007846607647
0.9976990610670485
0.9994765593398646
0.9999080111808225
0.9910885947098816
0.9865114098161543
0.9930515867507367
0.9995486185939816
0.9999108731299838
0.9985863354374296
0.9986515707562305
0.9998670972367973
0.9980550442690805
0.9983915535453084
0.9977221344859791
0.9990395463612799
0.9985414906164154
0.9985317702567809
0.9986429841053952
0.9999714618701587
0.9999648627632891
0.995807142296208
0.9998922965526316
0.9999705505844133
0.9997838644880267
0.9998527047898284
0.9996761067505168
0.9997894610428877
0.9998071418957166
0.994020337251644
0.9946330355406228
0.9984457180745296
0.9959095415190564
0.9953041820893239
0.9999092897009061
0.9999772117581874
0.9999791203158285
0.9974414569234482
0.9974370379638205
0.9977136979098583
0.998271206114142
0.9982723410378271
0.9985914513356502
0.9979130833680372
0.9984751517241865
0.9987593633626181
0.9999305536493687
0.9999779756710006
0.9975592546433586
0.9974772023318204
0.9994727198122979
0.9998657038363107
0.9975998858277896
0.9967491088779411
0.9955197758993746
0.999916955744807
0.9950929158390771
0.9956931931283872
0.9958024719968259
0.9980380329235546
0.9987135106558057
0.9934257725504648
0.9931424284712209
0.9931494694937583
0.9928546116362948
0.993072547359219
0.992766757196549
0.9925461982999157
0.9923899807267781
0.9921938414474015
0.9920373276439939
0.9936995927287041
0.998288357476951
0.9988295836045303
0.9947288573248192
0.9940129221734209
0.9881364994418069
0.9862639866547696
0.9926617208008469
0.9898718824437257
0.9868811571419899
0.9848047668232326
0.9890471595299211
0.9983835081538719
0.9981888373671957
0.9975192609573422
0.9976443689523855
0.997890490196512
0.9999824001181016
0.9999737801828956
0.9990302866631657
0.998920177610365
0.9990222455687344
0.9962960061368812
0.982029431749149
0.9932104374394333
0.9926908415759899
0.9915830284078204
0.9923584668654807
0.99109503641647
0.9984505229537528
0.9980400290064272
0.9909566782773228
0.9998701702333269
0.9998257578152377
0.9993611917257373
0.9970284196197455
0.9957610411906257
0.9944806457964926
0.9950508581310594
0.9990338730956723
0.9999259666065737
0.999903422459262
0.9979249647611514
0.99955818382649
0.9998243581971331
0.999628775442783
0.9998305296724818
0.99762852040288
0.9983548885892559
0.9980008230599082
0.9973246861177433
0.9988479956000099
0.998713469264889
0.9996564255132593
0.996717588708908
0.9962584341219184
0.990193008233588
0.9889754621974424
0.9895947266033922
0.9888402369904942
0.9896279958003021
0.9879826075829498
0.9901315728197448
0.99026833177625
0.9900341205175913
0.9988322383097308
0.9906079904050618
0.9975631005050347
0.9942254941830112
0.997987741764924
0.9979843442774949
0.9881086344738876
0.9868688727173467
0.9990774664021673
0.9999716699505803
0.9999616967926929
0.9999449834110209
0.9999303920973133
0.9999134179827746
0.9998933981629053
0.9978130516326039
0.9978074258407434
0.9977662311413673
0.9978454238571758
0.9978409880205198
0.9979224428615944
0.9979508496616293
0.9979294704859072
0.9980208968704415
0.9978761367490878
0.9980319443531307
0.9981031337932408
0.9981701569044117
0.9984169479606311
0.9979817110029914
0.9978952318642791
0.9980476536455356
0.9976726083983947
0.997799273363344
0.9992825733709887
0.9939735769071573
0.9980247168137976
0.9971825823121355
0.9972063958520957
0.9993905450077494
0.9991823128892484
0.9991462918258104
0.9990126896331527
0.9990887766135347
0.9989256067780312
0.9989591276762159
0.998856046656001
0.9987844802773974
0.9986218594156497
0.9975720253696679
0.9992881317693658
0.9979884454653049
0.99823125670641
0.998654840899028
0.9983535049038285
0.9986954499265899
0.9988310379416742
0.9979343751901046
0.997832381054911
0.9980410767001601
0.9981746280832023
0.9982443745920295
0.9916780352224641
0.9982971655476058
0.9982044786616818
0.9984481609388829
0.9860096390771299
0.9982929395522105
0.9999543987063481
0.9993100602361543
0.9948087116991242
0.9980401714626699
0.9981493847339147
0.9999618668288603
0.9976035445174875
0.997464802263615
0.9974592447946807
0.9975037175446713
0.9973728142362581
0.9975402940608834
0.9975027211225322
0.9974414928367061
0.9981583312831084
0.9983068156948923
0.9979978351555163
0.9979186447567703
0.9982199509927111
0.999770266096205
0.9999816298403504
0.9978503027057353
0.9985581396453254
0.9959773887799186
0.9979334387574247
0.9959419902765598
0.9949727922072124
0.9949949274535604
0.9950837026731959
0.9941604106504882
0.9938844048240185
0.9939208049255559
0.9952834724407662
0.9969521611657314
0.9960342186453115
0.9998516293384421
0.9974769356533222
0.9990256189341455
0.9974849698667183
0.9980855885770821
0.9995161235098001
0.9991426639114037
0.9940689208681163
0.9986555181331283
0.9980028272523129
0.9976948280834078
0.9973842272090717
0.9985381193202195
0.9974308265081838
0.9987767603748233
0.9979040144365532
0.99997661824113
0.9942694302799253
0.9990087647146166
0.9964317985293861
0.9997470693482086
0.9995819020648763
0.9964178882438139
0.9976256403859085
0.999306020811435
0.9977698484697912
0.9976923293004288
0.997536133603804
0.9977549706070588
0.9988362802417163
0.9988478386978789
0.993472120042835
0.9932870385608978
0.9984303748058525
0.99822482161517
0.9976091406029715
0.9980776878639825
0.9933672457211111
0.9985263774539048
0.9982790719542552
0.9975108957818299
0.9988978695343853
0.9937887125473415
0.9992644710081976
0.9922076724670098
0.9998351268786598
0.996452824107933
0.9982537446671502
0.9986577199351331
0.9984580705623599
0.9983041443458787
0.9976309528027211
0.9965727914454073
0.9968525079223954
0.9978283648087901
0.9979770821185283
0.998500028254368
0.9999066487668156
0.9999584541833475
0.9998670182211131
0.9999532669815403
0.999925618029141
0.9999173065509611
0.9998995797446274
0.999327715719779
0.9985620400015199
0.9984729348325825
0.998608620751484
0.9992668063121366
0.99910851489946
0.998191889142704
0.9983406307038474
0.9986977853536249
0.9984455594514584
0.9988157092644887
0.9997065986848476
0.9979478755774029
0.99854438511404
0.9981304672587756
0.9977485495086442
0.9974994904040061
0.99782686792175
0.998056108868127
0.9978046087277973
0.9979107100022352
0.9975866093176201
0.998407797356988
0.9888672593638159
0.9998732560651897
0.99988197364576
0.9998681862031547
0.9999348818616467
0.997913528810469
0.9989300759995993
0.9924096544124338
0.9909152224219167
0.9984885698085276
0.9983927530317805
0.9986679204894744
0.9977143289202993
0.9975147807458038
0.9954797494790256
0.9985452570440124
0.9984872872417616
1.0000858609898502
0.9938853921470097
0.9948518602095486
0.9997068154560415
0.9999511640944297
0.9964325874164293
0.9968091310148044
0.9989336945429224
0.9987813240274563
0.9988115623973612
0.9986794534911965
0.9988050215110583
0.9979360252182894
0.9978549846530702
0.9978541369174845
0.9999350149024759
0.999575227434682
0.9994762899247931
0.999385188682206
0.9993707388166718
0.9995179777148803
0.9995246891583047
0.9997240760315659
0.9973655326452837
0.9980468951824453
0.9999391641226647
0.9999498564658084
0.9981375674981687
0.999916674932303
0.9999508367633793
0.9996839101490471
0.9991132342140813
0.9990643106013366
0.9995024009663876
0.9985884235281742
0.9984989506425023
0.9999763107580499
0.9966991634339755
0.9962153797055731
0.9964314076410951
0.9959826710185021
0.9968523077808663
0.9957867562137003
0.9955509818240278
0.9952304069335361
0.9988597798125991
0.9976857707086995
0.9981286743041945
0.9997805694512019
0.9994869666614962
0.9982582948822494
0.9976501393971647
0.9984928206582093
0.9963492700495138
0.99758189237295
0.9973412391839311
0.9972700437868645
0.999569019727149
0.9999010967179339
0.9998826701412109
0.9998094786244579
0.9999780381369535
0.9945731757863613
0.9995636304561414
0.9995997170784036
0.9998542146579777
0.9993552379171278
0.997519326624163
0.9976777162545811
0.9986173710857709
0.9972390395765315
0.9971539112632621
0.9974039954456646
0.9995327353512002
0.9992596158050568
0.9991422186686202
0.9991802654728411
0.9981349923878132
0.9962800015637464
0.9975369780303103
0.9988207314496999
0.9988209111176622
0.9982832927576549
0.998791198060593
0.9998767853909084
0.9992333470064726
0.9983008378257449
0.9981433683536483
0.9983592912398667
0.9978987661931873
0.998221519132804
0.9987254370735652
0.9994987337494924
0.9957414912980767
0.9959830152448618
0.9991110109634729
0.997755352156203
0.9999315585337449
0.9963488325780255
0.9977824637628521
0.9999299848825586
0.995658793476721
0.997616323716723
0.9980215653234836
0.9981595930382897
0.985057780810822
0.999961525664266
0.9978903983212468
0.9981806324019374
0.9983333695380354
0.9979486557844225
0.9979892925822181
0.9976423255984427
0.9982504559993678
0.9998999559490619
0.9962284932804857
0.9981602700302136
0.9975663492871517
0.9952400863042218
0.9988248053551434
0.9988465401758411
0.9993644955678382
0.9941132222322533
0.9990076758195262
0.9988758337780652
0.998883971871261
0.999507228520629
0.9976187878816112
0.9976646642911244
0.9959336883997815
0.9979959828837076
0.9984860798490187
0.9982287567178416
0.9987300134927264
0.9992974862123029
0.9992126333676415
0.9970336410855959
0.9975823909781186
0.9995719038502644
0.997627550933713
0.9938082681576422
0.9950657316145297
0.9969488844818253
0.998696308709175
0.9988991444521484
0.9993319721827292
0.9980875086895358
0.9981718064006079
0.998182896066037
0.9972660756864962
0.999883954240319
0.9985071888071038
0.9993651170939439
0.9987234246288772
0.9976809120278869
0.9992634814898185
0.9990348170955404
0.9986558779802522
0.9963220081619456
0.9999230239338815
0.9999747576213519
0.9992749408299899
0.9999013716769609
0.9999192182930448
0.9998920962726467
0.9986600221237446
0.9977376009940202
0.9999501644319367
0.998884859354496
0.9945004063651807
0.9975905555928521
0.9993234290458657
0.999343850450769
0.9966321153340842
0.9993600649741995
0.998641750101162
0.9988082535678022
0.998251335087767
0.9954782886215167
0.9975937843829348
0.9928423870281927
0.996927391898196
0.9990565506364026
0.9973812366388943
0.9973336547028692
0.9972120048723035
0.9984662005588251
0.9983306920640663
0.9980485286281503
0.9999080917336398
0.9932722376394881
0.9828530867849389
0.9969780228392155
0.9957853789925933
0.9965919958210826
0.997503549474762
0.9837666880671535
0.9998206990278632
0.9994193598097254
0.9980906636115064
0.9994717166078729
0.995584648822471
0.9995429673153546
0.9994898897410714
0.9995566431945824
0.997419337699685
0.9979954632162964
0.9999603555089316
0.9998871522571793
0.9996180703628893
0.9967351422976368
0.9996984481037033
0.9975802432890164
0.9951554854999688
0.9973432724699126
0.9980982746504068
0.9983353841430513
0.9952857474682508
0.999444930656541
0.9974991174862052
0.9985200624919826
0.9997528113676143
0.9991881110225118
0.9991009564831435
0.9997150597064818
0.998755884110768
0.9998059510573875
0.9999716074281971
0.9981590728375609
0.9870633783835453
0.9989058731662662
0.9998354285948605
0.9997730480009326
0.994013038132561
0.9990088662840422
0.9985937109422003
0.9902457361220877
0.9993730356841962
0.9941264741172404
0.9981151974080529
0.998885860881809
0.9928538641368789
0.9936326378446099
0.9979924780125983
0.998359578151567
0.9982437451696052
0.999373326021144
0.9988373643067554
0.9999671358612976
0.9999324657543788
0.9992371972445617
0.9991937441134313
0.9990019405832988
0.9987264098870786
0.997342840515131
0.9986466259151074
0.9986588428356107
0.9987786731927183
0.9990431693282161
0.9997187934408289
0.9957908410312575
0.9968360922765269
0.9972577909024515
0.9982596654194534
0.9973961792434194
0.9988610564226156
0.9985887952645361
0.9998051922953821
0.9973515784178314
0.9974040224572474
0.998652599250074
0.9992260874173551
0.9987064192261703
0.9995848129548071
0.9980995918527668
0.9997296883138437
0.9996690570386854
0.9973026776597038
0.9974730469525269
0.9994838923806684
0.9994407539239104
0.9999748125342697
0.9974514599491606
0.9999715044804156
0.9985428464834152
0.9999479898292772
0.9982805631393982
0.9999735419564879
0.9978806984611334
0.997688869176858
0.9982312009907522
0.9985525791587975
0.9974643948557237
0.9991776791306023
0.9999152629181844
0.9985264918092736
0.9988546681352893
0.9994926174893679
0.9998536511697512
0.9962902458032789
0.999465592509065
0.997459389651377
0.9999151884838646
0.9987136004108268
0.9985961911330316
0.9914211062954744
0.9978291971525258
0.9796593069992614
0.9981781300439816
0.9983072782291592
0.9979363199330648
0.9965014895803904
0.9995938294960119
0.9998839163015546
0.9982174944356832
0.9982307092713025
0.9997640536334252
0.9953942059240373
0.9989605912718666
0.9995009435104031
0.9977809547631303
0.9990330582477848
0.9993344214709823
0.9991131054818375
0.9974895591793381
0.9976082480202194
0.9976838780657229
0.9972192948194225
0.9993218665691611
0.9994412881615397
0.9950730309129148
0.9948125690192723
0.9933947545752155
0.9987597394365821
0.9989411769303567
0.9983238618838683
0.9984581326708821
0.9990388799223893
0.995604074419028
0.9986482077930869
0.9975513390095362
0.9990429442454793
0.9992145465082777
0.9982455882383079
0.9994648707000484
0.9987221969655011
0.9928506139351451
0.9986601378331084
0.9936676278219094
0.9988349598954144
0.9981363563800327
0.9998807482901488
0.9987592441375285
0.9990424365777629
0.9989832950275536
0.9993081994603518
0.9952166366774969
0.9986588948457263
0.9988461900551926
0.9976169958367896
0.9981783910722636
0.996245679361278
0.9896757857532514
0.998802528279416
0.9996550471257241
0.9982925880607725
0.9981590807508741
0.9972495565538606
0.9995664249228678
0.9950920500627657
0.998616148606786
0.9975745713619987
0.998681458858758
0.9983544441036745
0.9994133294328404
0.9993604538023901
0.9983291326529705
0.9988232228828797
0.9982002707847198
0.9975154084081242
0.9995209888709908
0.9993363934756221
0.9974783545024148
0.9989218589183175
0.999583934497125
0.99816198013015
0.9975788120638557
0.9999036092245285
0.998188045267606
0.9979786865721595
0.9982626019981019
0.9986373506950198
0.9986466313980104
0.998952374879214
0.9987763645646414
0.9915985707064646
0.9968288316116377
0.9999467606224476
0.9998894333576254
0.9986080371389051
0.9988619764541491
0.9989211239905131
0.995894280082803
0.9966628221772214
0.9985973420581534
0.9989745146557711
0.9985402220053478
0.998313365797976
0.9987032353343399
0.9974624690119286
0.9999423293881171
0.9993584086362776
0.9982141153814322
0.9979789228702939
0.9982559751266631
0.9970654453658184
0.9926109055309421
0.9966116910010254
0.9923733864979191
0.9980811661623638
0.9980631358701741
0.9980645163234073
0.9996684415145177
0.9983673288659726
0.9999789596272006
0.9985235233953876
0.9982007468991714
0.996176399859933
0.997765911303851
0.9907175182543028
0.9913226880561018
0.9976163844478049
0.9989600129309383
0.9985055723838508
0.9996102210483347
0.9974465273459295
0.9986113276848324
0.9984251098752619
0.9992353345317474
0.9820273198203975
0.9918205928808035
0.9984223283035674
0.9979663185958881
0.9969785675762208
0.999675716801797
0.9984106382789596
0.9985473588258654
0.9987796584802251
0.9991757091649083
0.9985166155090318
0.9976485409301747
0.997417454135646
0.9986888427155461
0.9998427898685027
0.9990407046170738
0.9945843127947707
0.998122280503184
0.9963870239132244
0.9928583144077929
0.9984195951814597
0.9980533558920857
0.9981138020547533
0.9984167871646044
0.9959089196607287
0.999611415358655
0.9999139499957957
0.9936855348873458
0.9981685019851068
0.9983936032391544
0.9964663592572702
0.9998554774192187
0.9952794297377883
0.9970513118062452
0.9989648320787856
0.9953503034899851
0.9995338580698027
0.9999731998638954
0.9977654172295582
0.9999186379387813
0.9978289447011506
0.999891006526458
0.9962807912533707
0.99948736495092
0.9980568169012755
0.9894548074406886
0.9932375958445232
0.9969759427266408
0.9956841635024856
0.9918720395384056
0.9986883939791923
0.9990209582506621
0.9983880954902504
0.9995390636707567
0.9989642480359368
0.9971828945757844
0.9998547714443816
0.9993003798055008
0.9978903542774217
0.9991372124928191
0.9992046748273865
0.996099126733082
0.9984349986946873
0.9993758704795211
0.9955872274222127
0.9999004545907545
0.99928153193365
0.9985096860228047
0.9978215579312298
0.9976210380382666
0.9989765243491865
0.9976527758233363
0.998675499407349
0.9974338363630358
0.9992028422570531
0.9998681679363535
0.9994331609490741
0.9991850098909622
0.9998750132534753
0.9986879087399475
0.9945923680113649
0.9971083844031359
0.994909815422181
0.9976129900606115
0.9953799792401458
0.997547784907777
0.9977747444589057
0.9910079850195956
0.987253581180708
0.9975583175508883
0.9959070855832123
0.9988893262851992
0.9982117138912492
0.99932572925334
0.9991196126212145
0.9985902263614548
0.9975425076026517
0.9983423142729667
0.9962092793556836
0.9973625787789221
0.9930240179339753
0.9958644958986763
0.999763251588089
0.9972739234683294
0.9983997540019304
0.9984117197324093
0.9992421959841891
0.9998050341627797
0.9997632002153585
0.9998729550913424
0.9995419053359422
0.9976895274125762
0.9995458225215451
0.9962406672186629
0.9990307058237673
0.9948582067591024
0.9999664404532849
0.9983652111736051
0.9974402579303268
0.998159168521651
0.9980405494627744
0.9995780450650452
0.9997935330328414
0.9999878219135541
0.9988784710609018
0.992813061413993
0.9987138185677006
0.999460636922678
0.9999747345733255
0.997496590678189
0.9944363333143366
0.9982329889353336
0.9973166249419393
0.9947091384222784
0.9976857304709038
0.9977984216092728
0.9946625143498469
0.9980552786204003
0.9985141301138762
0.9987506431374275
0.9985931257827416
0.9978409393009119
0.9923122242846408
0.9993355090263276
0.9988904745089712
0.9988073606887178
0.9982104966710977
0.998656391486474
0.9992774065670127
0.9984571154416645
0.9987910861904253
0.9885704586331195
0.9984574999551278
0.9977568337263462
0.9996946726424943
0.9973417514650204
0.9985265612121337
0.9984496939216341
0.9989718023753628
0.9907356435443153
0.9985331780247392
0.9989743532527917
0.999595396748198
0.9939258773497902
0.9983155261923895
0.9998654622396723
0.9933808996647514
0.9988739434022309
0.9989935903534066
0.9974106842530978
0.9998376509427924
0.9987133721386495
0.9985890894009222
0.9990328992525327
0.9999615558599014
0.9985472182320464
0.996584161532867
0.9947081158777964
0.9999374834989825
0.999042022914302
0.9998125214792152
0.9986435406476414
0.9993500871355135
0.9974078015279747
0.993435954582787
0.9939488127231141
0.9997614661074941
0.9991543602364918
0.9981343148632367
0.9996359895160806
0.9985111541345247
0.9980480499844032
0.9998166203089633
0.999687349477158
0.9980589812879698
0.9975252232162657
0.9998569826881137
0.9990317124552455
0.9999135057435331
0.9892326459177654
0.9994637190223935
0.9944687236000483
0.9960934993332518
0.9991265661758781
0.9973727585017793
0.99772381244906
0.9985212309875463
0.9994469048991762
0.9975296452548553
0.9970287236490472
0.9999030918720577
0.9979884465845896
0.998247667101226
0.9975435381179563
0.9980855554480469
0.9995736381550193
0.9976959983066346
0.9987654831085
0.9884631240696895
0.9997855766746757
0.9980452266833368
0.9972451158950404
0.9988470028966046
0.9998534006050205
0.9986917593835722
0.9984716733855429
0.994638102173688
0.9992545021403698
0.9953047206686694
0.9974384300867104
0.9983462288368758
0.9936692865426247
0.9984663642431032
0.9996423253190851
0.999962347307802
0.9996826713745396
0.9988783696410072
0.9991415519059489
0.9960204166521446
0.9999649806357855
0.9998316944181221
0.998058649806487
0.9975407241046841
0.9978023239255037
0.9974976628824042
0.9977023592209701
0.9971396504778534
0.999409643269382
0.9982612024223847
0.997192760040312
0.9985430001886675
0.9998598088007911
0.9981884678390596
0.9987425267668074
0.9981799531778662
0.9994116293656595
0.9971922410730304
0.997827327512399
0.9976876556090382
0.989416123287937
0.9995407959689264
0.9977683571346176
0.987504177604678
0.9662445858574928
0.995583126510734
0.9968208870442038
0.9963405680059406
0.9993226004226519
0.998468789175171
0.9999742239924139
0.9986634586196959
0.9981244591521229
0.9975216787735196
0.9998627535186433
0.9976159371900185
0.9987752245024863
0.9983891206600075
0.9987344685434946
0.9952830821435369
0.9995536416904071
0.9935858107394114
0.9955496675185296
0.9973983466619614
0.9991553912665174
0.9999797365148114
0.9979836005088494
0.9975088627253975
0.9982019144742945
0.9972876706411
0.999818453044203
0.9998738844116191
0.9999081048558179
0.9996476018938644
0.994413976539389
0.9985156563682899
0.9943548867840091
0.9985849159364099
0.9975681939226981
0.9974464349347847
0.9977897945389488
0.997486793016327
0.9995276151868683
0.9977637632862453
0.9981261576070818
0.9972893760608956
0.9982016703142775
0.9963189689771201
0.9980506884653256
0.9962621376582287
0.9976986716758673
0.9999635567915046
0.9993335359592993
0.9941925639788346
0.9966052422530542
0.9957037581447908
0.9996063391401274
0.9972879088935471
0.9976249009363702
0.9998520336736543
0.999478307027479
0.9989189597159444
0.9959325065806177
0.998984363600628
0.9999735387761295
0.9948102046901222
0.9999278418424182
0.9971994414973977
0.9999520912581895
0.9935127042779948
0.9972393968712706
0.9943546861468592
0.9989954785413535
0.9987455502724878
0.9866077971621185
0.9991579053647978
0.9999823807777897
0.9999548858388356
0.9979515643454084
0.9993694722440011
0.9993124448556828
0.9999771300650443
0.9944161770894901
0.9819233362067115
0.9987833978669519
0.9972074660215764
0.9999472959863376
0.9992401092096076
0.997409245154217
0.9979746052695679
0.9999741381232982
0.9971537615446993
0.9992066104247992
0.9977841138588154
0.9906656447019092
0.9992086905464935
0.9987670997502388
0.9995934936567483
CELL_DATA 4886
TENSORS stress float
-208384.11457930465 -32560.144296001014 0.0
-32560.144296001014 418658.02195915475 0.0
0.0 0.0 0.0

-1.6968466964046294e6 194179.12887736078 0.0
194179.12887736078 1.021083701062039e6 0.0
0.0 0.0 0.0

-1.0442301905409994e6 2.632833979401805e6 0.0
2.632833979401805e6 502573.8006183058 0.0
0.0 0.0 0.0

-490946.2310569779 2.738502327740477e6 0.0
2.738502327740477e6 201776.47845230123 0.0
0.0 0.0 0.0

-1.6569337840719582e6 3.5399945995902065e6 0.0
3.5399945995902065e6 885664.3156748044 0.0
0.0 0.0 0.0

61850.59936741716 -414038.3557910459 0.0
-414038.3557910459 -460190.36240765796 0.0
0.0 0.0 0.0

73510.62130826985 4.967550837387382e6 0.0
4.967550837387382e6 603613.6918350118 0.0
0.0 0.0 0.0

1.3123076625945584e6 1.1784060918743534e6 0.0
1.1784060918743534e6 -1.8472077956589959e6 0.0
0.0 0.0 0.0

-11898.824050424795 89155.80755258218 0.0
89155.80755258218 551976.2974135592 0.0
0.0 0.0 0.0

56039.55555775181 3.2960387302805893e6 0.0
3.2960387302805893e6 -274016.28042217816 0.0
0.0 0.0 0.0

-1.1773350360808806e6 3.1108370715106176e6 0.0
3.1108370715106176e6 749131.7549180036 0.0
0.0 0.0 0.0

-1.8434773817309383e6 4.353237843634387e6 0.0
4.353237843634387e6 1.1886597197089354e6 0.0
0.0 0.0 0.0

914227.8075138469 1.6586921080129584e6 0.0
1.6586921080129584e6 -1.6090369426907806e6 0.0
0.0 0.0 0.0

1.3002783307713824e6 5.434649422058988e6 0.0
5.434649422058988e6 363550.47731039574 0.0
0.0 0.0 0.0

-1.0811713832561215e6 3.175036650066171e6 0.0
3.175036650066171e6 771298.9437118651 0.0
0.0 0.0 0.0

1.0205427520596129e6 462066.3623681599 0.0
462066.3623681599 -1.6259602816797113e6 0.0
0.0 0.0 0.0

-39552.19316527445 2.201064300352902e6 0.0
2.201064300352902e6 -1.0185855557785692e6 0.0
0.0 0.0 0.0

127190.07552581688 2.425875669193652e6 0.0
2.425875669193652e6 -1.1589813884984197e6 0.0
0.0 0.0 0.0

346877.7758017144 28047.185511039483 0.0
28047.185511039483 -212054.92093676692 0.0
0.0 0.0 0.0

-1.2079802229702245e6 3.5498144540703185e6 0.0
3.5498144540703185e6 733180.8922227395 0.0
0.0 0.0 0.0

51943.951231027604 1.6608717215051842e6 0.0
1.6608717215051842e6 -756343.47022641 0.0
0.0 0.0 0.0

-1.940375953258173e6 4.404782574831262e6 0.0
4.404782574831262e6 1.0940784768697517e6 0.0
0.0 0.0 0.0

932802.5610210254 222215.92601127175 0.0
222215.92601127175 -1.1618561973701047e6 0.0
0.0 0.0 0.0

-663801.1604022597 2.829171769974662e6 0.0
2.829171769974662e6 -222491.25450427952 0.0
0.0 0.0 0.0

423504.40688239114 2.1755028262928743e6 0.0
2.1755028262928743e6 -1.4463206932983003e6 0.0
0.0 0.0 0.0

-1.0151601152428379e6 7.296264639858006e6 0.0
7.296264639858006e6 880647.6198364205 0.0
0.0 0.0 0.0

-278828.6823485955 4.238197351040833e6 0.0
4.238197351040833e6 1.1013538426115222e6 0.0
0.0 0.0 0.0

-181932.7163587835 943910.756401838 0.0
943910.756401838 273243.77221485565 0.0
0.0 0.0 0.0

1.1402680579585538e6 535180.2082506409 0.0
535180.2082506409 -1.4644676669343149e6 0.0
0.0 0.0 0.0

-33183.17514865922 -194158.49948727508 0.0
-194158.49948727508 -201986.25121793867 0.0
0.0 0.0 0.0

885224.4633176799 282103.0526406596 0.0
282103.0526406596 -1.2374056089433967e6 0.0
0.0 0.0 0.0

-610436.5533639984 1.2975559611088277e6 0.0
1.2975559611088277e6 591112.5492870695 0.0
0.0 0.0 0.0

-207336.414548522 2.4072971739595425e6 0.0
2.4072971739595425e6 -33599.955090420306 0.0
0.0 0.0 0.0

-211735.36308877962 3.0393138520481363e6 0.0
3.0393138520481363e6 -430806.9762019625 0.0
0.0 0.0 0.0

-794959.355579449 2.2569640747790025e6 0.0
2.2569640747790025e6 154830.48260590783 0.0
0.0 0.0 0.0

798481.5959774628 182438.02730768127 0.0
182438.02730768127 -939454.8219468533 0.0
0.0 0.0 0.0

-897602.1533428996 2.6573388372925017e6 0.0
2.6573388372925017e6 685999.4137492271 0.0
0.0 0.0 0.0

-896488.6027396531 2.267160819460737e6 0.0
2.267160819460737e6 157843.28078139963 0.0
0.0 0.0 0.0

334837.36711924506 2.7893758722944343e6 0.0
2.7893758722944343e6 -951480.521115108 0.0
0.0 0.0 0.0

-1.56973318680372e6 2.87381533450433e6 0.0
2.87381533450433e6 542733.8529495632 0.0
0.0 0.0 0.0

818489.4271647988 1.7233366150104704e6 0.0
1.7233366150104704e6 -1.8099016944713772e6 0.0
0.0 0.0 0.0

-1.1226181997501808e6 2.6829320982358046e6 0.0
2.6829320982358046e6 501308.6717813357 0.0
0.0 0.0 0.0

-1.4910312821885718e6 2.84908111391562e6 0.0
2.84908111391562e6 522236.317333883 0.0
0.0 0.0 0.0

265728.76300668146 116529.43352045334 0.0
116529.43352045334 -169923.44868948788 0.0
0.0 0.0 0.0

-76273.10880531667 1.6921684921269459e6 0.0
1.6921684921269459e6 -1.1695188981702977e6 0.0
0.0 0.0 0.0

-193386.8188542052 1.0437589670603237e6 0.0
1.0437589670603237e6 712701.8026845586 0.0
0.0 0.0 0.0

-553292.3386276546 2.667969504590433e6 0.0
2.667969504590433e6 688.6762342063012 0.0
0.0 0.0 0.0

-1.0016532940696249e6 2.562445159221716e6 0.0
2.562445159221716e6 522305.5183145285 0.0
0.0 0.0 0.0

1.3224731264396948e6 1.1311950607682706e6 0.0
1.1311950607682706e6 -1.8118324177474014e6 0.0
0.0 0.0 0.0

-225882.03120553104 2.9295908294663033e6 0.0
2.9295908294663033e6 -752940.2381988639 0.0
0.0 0.0 0.0

-1.8325150151200707e6 3.5758216410048935e6 0.0
3.5758216410048935e6 942842.1068539667 0.0
0.0 0.0 0.0

-847083.1274902209 -95867.03319840363 0.0
-95867.03319840363 939375.2904614742 0.0
0.0 0.0 0.0

1.3357209203630765e6 1.1243245999639786e6 0.0
1.1243245999639786e6 -1.8255534415316028e6 0.0
0.0 0.0 0.0

-1.5903580823231987e6 2.9486772924720193e6 0.0
2.9486772924720193e6 619514.485918537 0.0
0.0 0.0 0.0

84094.09672028752 3.0465077349373153e6 0.0
3.0465077349373153e6 -634845.9905500966 0.0
0.0 0.0 0.0

-546108.3212010851 3.022526623423999e6 0.0
3.022526623423999e6 -188175.27436577418 0.0
0.0 0.0 0.0

1.263753449476946e6 1.2377475674701324e6 0.0
1.2377475674701324e6 -1.8322045625294913e6 0.0
0.0 0.0 0.0

-1.660376390556649e6 2.851696045831594e6 0.0
2.851696045831594e6 577676.7046922737 0.0
0.0 0.0 0.0

-812971.9109947394 2.582242159817669e6 0.0
2.582242159817669e6 1.7114726891012485e6 0.0
0.0 0.0 0.0

425457.21219415084 1.4495858443218272e6 0.0
1.4495858443218272e6 -1.285527167892298e6 0.0
0.0 0.0 0.0

-152752.27253248135 2.6242350360918646e6 0.0
2.6242350360918646e6 -898976.0263165467 0.0
0.0 0.0 0.0

3995.1296620602952 4.787733367158487e6 0.0
4.787733367158487e6 -644632.1964205578 0.0
0.0 0.0 0.0

-349920.6635433609 2.9394685893624625e6 0.0
2.9394685893624625e6 409652.4353096506 0.0
0.0 0.0 0.0

-13539.835211543199 37662.92714877976 0.0
37662.92714877976 -116658.92937027717 0.0
0.0 0.0 0.0

40119.10416670629 750670.4623362233 0.0
750670.4623362233 -70650.78283083155 0.0
0.0 0.0 0.0

1.271236684126072e6 1.11618643381265e6 0.0
1.11618643381265e6 -1.8074248607893544e6 0.0
0.0 0.0 0.0

1.0603367358056018e6 1.4608735476138047e6 0.0
1.4608735476138047e6 -1.7357272730580135e6 0.0
0.0 0.0 0.0

-1.4290372528091806e6 2.938598827781955e6 0.0
2.938598827781955e6 573254.6462724928 0.0
0.0 0.0 0.0

-526027.5696494534 2.4707361483459664e6 0.0
2.4707361483459664e6 1.0517981332415878e6 0.0
0.0 0.0 0.0

-292619.89691786596 3.49814577778942e6 0.0
3.49814577778942e6 1.264426888441009e6 0.0
0.0 0.0 0.0

133900.9398999135 166035.26681773132 0.0
166035.26681773132 -246526.05294349586 0.0
0.0 0.0 0.0

529237.5040087809 2.0489250642359992e6 0.0
2.0489250642359992e6 -1.1826240926715313e6 0.0
0.0 0.0 0.0

164892.3902816138 2.71346732059349e6 0.0
2.71346732059349e6 -1.0335073007399087e6 0.0
0.0 0.0 0.0

-1.1165685412984993e6 3.201501454055281e6 0.0
3.201501454055281e6 2.7035969801686252e6 0.0
0.0 0.0 0.0

-520401.1948816439 2.3693890630693673e6 0.0
2.3693890630693673e6 340233.87455978163 0.0
0.0 0.0 0.0

-266134.0056636031 1.0578545884273883e6 0.0
1.0578545884273883e6 472732.26621805294 0.0
0.0 0.0 0.0

-1.661380739093817e6 839033.0107236822 0.0
839033.0107236822 1.540507968281506e6 0.0
0.0 0.0 0.0

-115060.45271173981 2.1981133284568703e6 0.0
2.1981133284568703e6 -1.0344773860784258e6 0.0
0.0 0.0 0.0

-305729.51669545844 2.329048973429628e6 0.0
2.329048973429628e6 -622319.9573382265 0.0
0.0 0.0 0.0

-322304.28263481957 2.1444165787117025e6 0.0
2.1444165787117025e6 -546889.9133304072 0.0
0.0 0.0 0.0

-332433.1806113118 5.267014441507474e6 0.0
5.267014441507474e6 462877.41552914353 0.0
0.0 0.0 0.0

-32428.05716147162 -136031.31726264162 0.0
-136031.31726264162 54024.14771822426 0.0
0.0 0.0 0.0

-384855.17630207096 2.6357102316973316e6 0.0
2.6357102316973316e6 -411559.1971804019 0.0
0.0 0.0 0.0

-2.0359592545103254e6 4.852053947815037e6 0.0
4.852053947815037e6 1.1837478675365672e6 0.0
0.0 0.0 0.0

-484426.6039752386 2.6703587632464473e6 0.0
2.6703587632464473e6 111664.41265878745 0.0
0.0 0.0 0.0

1.051183421823734e6 979269.9294555008 0.0
979269.9294555008 -1.470030252144358e6 0.0
0.0 0.0 0.0

-747079.3478043972 970766.723939457 0.0
970766.723939457 189850.13414152456 0.0
0.0 0.0 0.0

-316340.27905878663 2.4473777186370315e6 0.0
2.4473777186370315e6 -33467.41201667483 0.0
0.0 0.0 0.0

-2.009572376304483e6 7.670097231145938e6 0.0
7.670097231145938e6 294458.6359245351 0.0
0.0 0.0 0.0

-2.108370512048887e6 -327057.63891746325 0.0
-327057.63891746325 2.369448539458621e6 0.0
0.0 0.0 0.0

-366943.71633918775 2.747256612238487e6 0.0
2.747256612238487e6 -257010.7219131692 0.0
0.0 0.0 0.0

-167618.56750852778 2.2276919162121876e6 0.0
2.2276919162121876e6 -704618.5473323183 0.0
0.0 0.0 0.0

-745352.9310085147 2.2956041578477295e6 0.0
2.2956041578477295e6 397914.43467024306 0.0
0.0 0.0 0.0

-99094.98000568469 311979.4118817257 0.0
311979.4118817257 -677111.9706958935 0.0
0.0 0.0 0.0

-576970.328162853 3.2713249317803993e6 0.0
3.2713249317803993e6 -28961.801130420907 0.0
0.0 0.0 0.0

50940.19447456725 2.4148201270620525e6 0.0
2.4148201270620525e6 -1.2688185135333643e6 0.0
0.0 0.0 0.0

1.2787647256362864e6 1.1695697280674656e6 0.0
1.1695697280674656e6 -1.7838120074477498e6 0.0
0.0 0.0 0.0

-569366.65580863 2.336802565956202e6 0.0
2.336802565956202e6 137815.31993310695 0.0
0.0 0.0 0.0

856377.5805697333 1.2991025297368742e6 0.0
1.2991025297368742e6 -1.6756202987048524e6 0.0
0.0 0.0 0.0

1.2994313490576046e6 1.2601336354018378e6 0.0
1.2601336354018378e6 -1.9523890186248964e6 0.0
0.0 0.0 0.0

-331991.6340193134 3.0751878470069594e6 0.0
3.0751878470069594e6 -129613.30213953537 0.0
0.0 0.0 0.0

-608946.1038146177 2.607039589955586e6 0.0
2.607039589955586e6 314894.1586748983 0.0
0.0 0.0 0.0

715985.4648649439 154655.29933781916 0.0
154655.29933781916 -806964.7799198446 0.0
0.0 0.0 0.0

-1.7044659457092083e6 2.986903887114806e6 0.0
2.986903887114806e6 661168.0677482883 0.0
0.0 0.0 0.0

-820476.5231349086 2.515110497697306e6 0.0
2.515110497697306e6 688788.248825886 0.0
0.0 0.0 0.0

-109290.6336189924 2.1685985075007626e6 0.0
2.1685985075007626e6 -255362.74737473234 0.0
0.0 0.0 0.0

35785.56687658066 -118684.52682992401 0.0
-118684.52682992401 73791.42493914036 0.0
0.0 0.0 0.0

-325654.3923021729 2.0985369022737322e6 0.0
2.0985369022737322e6 -448234.72697354056 0.0
0.0 0.0 0.0

-1.7444235067363707e6 4.398244510627615e6 0.0
4.398244510627615e6 1.1524855733187504e6 0.0
0.0 0.0 0.0

958983.827029661 180574.03833777923 0.0
180574.03833777923 -1.118634280045571e6 0.0
0.0 0.0 0.0

975448.6436834155 1.5792098949273415e6 0.0
1.5792098949273415e6 -1.9252383493176536e6 0.0
0.0 0.0 0.0

-624205.0844358425 2.758461480619434e6 0.0
2.758461480619434e6 149104.28952018663 0.0
0.0 0.0 0.0

-572604.4443052216 2.4526705016902164e6 0.0
2.4526705016902164e6 1.1636229548247405e6 0.0
0.0 0.0 0.0

408500.80687244073 4.464582837607751e6 0.0
4.464582837607751e6 1.1268822000610284e6 0.0
0.0 0.0 0.0

737364.9471539317 780020.5208599059 0.0
780020.5208599059 -1.3523352014675052e6 0.0
0.0 0.0 0.0

171065.27393673535 2.7986715981480824e6 0.0
2.7986715981480824e6 -937555.6364187966 0.0
0.0 0.0 0.0

839131.2562726346 863312.8685743996 0.0
863312.8685743996 -1.2818756513386113e6 0.0
0.0 0.0 0.0

1.089487549716351e6 972734.0278672933 0.0
972734.0278672933 -1.5445198028267757e6 0.0
0.0 0.0 0.0

1.0139925944789244e6 4.1762332879397464e6 0.0
4.1762332879397464e6 214274.34563542355 0.0
0.0 0.0 0.0

-2.3747749017441696e6 2.1547873947721682e6 0.0
2.1547873947721682e6 874551.7426782226 0.0
0.0 0.0 0.0

203811.0840243594 2.709871516877204e6 0.0
2.709871516877204e6 -1.1110303614721498e6 0.0
0.0 0.0 0.0

-691674.6650972879 2.864347676180081e6 0.0
2.864347676180081e6 -361255.08449181216 0.0
0.0 0.0 0.0

1.3102348884633058e6 1.1080933218942853e6 0.0
1.1080933218942853e6 -1.787316643930392e6 0.0
0.0 0.0 0.0

-583232.0509720708 3.030748800110199e6 0.0
3.030748800110199e6 -192843.33779861903 0.0
0.0 0.0 0.0

-879600.5901849677 5.397028039308539e6 0.0
5.397028039308539e6 775710.0760095931 0.0
0.0 0.0 0.0

-459949.7603011504 84621.03012097997 0.0
84621.03012097997 717241.6825255734 0.0
0.0 0.0 0.0

-2.4202345979884476e6 7.144363811618862e6 0.0
7.144363811618862e6 793145.1859000286 0.0
0.0 0.0 0.0

-138487.71286624024 3.040365896480467e6 0.0
3.040365896480467e6 -417231.7950690768 0.0
0.0 0.0 0.0

1.333603556291254e6 1.1421435971031752e6 0.0
1.1421435971031752e6 -1.8194885769443873e6 0.0
0.0 0.0 0.0

183266.36581563717 3.9490043072450683e6 0.0
3.9490043072450683e6 492120.1387760907 0.0
0.0 0.0 0.0

-340540.0273026922 2.9492702823102335e6 0.0
2.9492702823102335e6 -99366.66212413847 0.0
0.0 0.0 0.0

1.1646665848503606e6 1.1633683886905056e6 0.0
1.1633683886905056e6 -1.7741097701706458e6 0.0
0.0 0.0 0.0

-1.0323317524920761e6 3.6208680330446837e6 0.0
3.6208680330446837e6 845849.5662332138 0.0
0.0 0.0 0.0

-476933.9075608046 2.7035412317245086e6 0.0
2.7035412317245086e6 -322689.7743776384 0.0
0.0 0.0 0.0

-421620.4343218991 2.9736035777883376e6 0.0
2.9736035777883376e6 204897.21970569206 0.0
0.0 0.0 0.0

-222497.32515918813 2.373207902389588e6 0.0
2.373207902389588e6 -552123.3654323769 0.0
0.0 0.0 0.0

-671056.169129942 2.5480805869530253e6 0.0
2.5480805869530253e6 1.0568950600720705e6 0.0
0.0 0.0 0.0

878600.3241172886 2.0368742189770283e6 0.0
2.0368742189770283e6 -2.2589978756775367e6 0.0
0.0 0.0 0.0

-481878.3172479734 3.035195853338462e6 0.0
3.035195853338462e6 -54309.72375494207 0.0
0.0 0.0 0.0

-13490.243863397365 58335.04448196699 0.0
58335.04448196699 -291906.9735351168 0.0
0.0 0.0 0.0

6707.9098173472885 973765.6984562869 0.0
973765.6984562869 304801.07105075096 0.0
0.0 0.0 0.0

969859.1775918261 917185.7433071717 0.0
917185.7433071717 -1.4214518137184521e6 0.0
0.0 0.0 0.0

-233630.9767529671 -447923.7704716829 0.0
-447923.7704716829 338752.0258908298 0.0
0.0 0.0 0.0

-192580.48659010677 2.345363504831722e6 0.0
2.345363504831722e6 -712074.8702211689 0.0
0.0 0.0 0.0

-287530.016271535 -573751.0807103863 0.0
-573751.0807103863 -277934.6935726285 0.0
0.0 0.0 0.0

-80099.51947069936 3.0921644337239144e6 0.0
3.0921644337239144e6 -706722.2176448145 0.0
0.0 0.0 0.0

-1.420113472580629e6 2.6649157227286426e6 0.0
2.6649157227286426e6 357922.18010094494 0.0
0.0 0.0 0.0

-291083.7016561249 -376190.96417834674 0.0
-376190.96417834674 240957.87544561987 0.0
0.0 0.0 0.0

-280473.8063951569 3.103763316645461e6 0.0
3.103763316645461e6 -285789.74318202893 0.0
0.0 0.0 0.0

-483300.4193925318 3.410966680237708e6 0.0
3.410966680237708e6 63587.57472100391 0.0
0.0 0.0 0.0

-1.3740534780384423e6 2.911464477860209e6 0.0
2.911464477860209e6 537839.4821424668 0.0
0.0 0.0 0.0

-579820.1726915205 3.5703918540702243e6 0.0
3.5703918540702243e6 146391.01958046018 0.0
0.0 0.0 0.0

-1.4341777517432712e6 2.7419714338386e6 0.0
2.7419714338386e6 504952.6969711606 0.0
0.0 0.0 0.0

60545.56077641045 3.113914442325277e6 0.0
3.113914442325277e6 -1.0730653870942986e6 0.0
0.0 0.0 0.0

-564913.3824489379 5.121794054322219e6 0.0
5.121794054322219e6 189134.2792675749 0.0
0.0 0.0 0.0

-200392.72477541392 2.168470594098329e6 0.0
2.168470594098329e6 -779062.5869390048 0.0
0.0 0.0 0.0

-474647.5114066165 1.9522406489043762e6 0.0
1.9522406489043762e6 1.1236172411151105e6 0.0
0.0 0.0 0.0

-802087.6888389771 2.895305231214686e6 0.0
2.895305231214686e6 695114.9808355542 0.0
0.0 0.0 0.0

208232.55902630102 1.5627157800396476e6 0.0
1.5627157800396476e6 -1.1524427535711084e6 0.0
0.0 0.0 0.0

86030.14280776214 1.8722392731628662e6 0.0
1.8722392731628662e6 -505353.6607631335 0.0
0.0 0.0 0.0

-1.834471136287975e6 2.8548549631969193e6 0.0
2.8548549631969193e6 627321.278177494 0.0
0.0 0.0 0.0

-451205.1430020599 1.6511714576030727e6 0.0
1.6511714576030727e6 164620.36556403537 0.0
0.0 0.0 0.0

-1.8206341030019387e6 5.036947394048824e6 0.0
5.036947394048824e6 1.27578499701516e6 0.0
0.0 0.0 0.0

-216468.40964803047 2.3022677433531876e6 0.0
2.3022677433531876e6 -737339.1838952636 0.0
0.0 0.0 0.0

-1.2247911048612122e6 2.5125147256904924e6 0.0
2.5125147256904924e6 -663111.6287955289 0.0
0.0 0.0 0.0

1.259194993964814e6 1.228148009141004e6 0.0
1.228148009141004e6 -1.8344027675967342e6 0.0
0.0 0.0 0.0

-825398.2730067577 6.085695960245855e6 0.0
6.085695960245855e6 940798.4894476666 0.0
0.0 0.0 0.0

-1.3618601086942437e6 1.6029487541125864e6 0.0
1.6029487541125864e6 299199.8186016365 0.0
0.0 0.0 0.0

-17414.24540398075 3.2482772171908086e6 0.0
3.2482772171908086e6 -315354.3910947494 0.0
0.0 0.0 0.0

-2.5236644428235223e6 1.1856901195266976e6 0.0
1.1856901195266976e6 859661.5479443776 0.0
0.0 0.0 0.0

1.3401904017313905e6 1.1401219783439436e6 0.0
1.1401219783439436e6 -1.828216159766218e6 0.0
0.0 0.0 0.0

-373259.8978105195 1.6468456716674713e6 0.0
1.6468456716674713e6 438891.7541002742 0.0
0.0 0.0 0.0

940173.1777266338 243514.48203660696 0.0
243514.48203660696 -1.1355781167001345e6 0.0
0.0 0.0 0.0

1.0419836344382408e6 905643.4651798735 0.0
905643.4651798735 -1.4312006948299196e6 0.0
0.0 0.0 0.0

-435764.3431550347 2.619638107993365e6 0.0
2.619638107993365e6 -350720.0449330871 0.0
0.0 0.0 0.0

-2.708424318459011e6 2.0957964650605053e6 0.0
2.0957964650605053e6 1.0413815445945153e6 0.0
0.0 0.0 0.0

-1.8420512304115924e6 19921.34400546154 0.0
19921.34400546154 2.330911879670768e6 0.0
0.0 0.0 0.0

-1.4210317217290655e6 1.5516712694270893e6 0.0
1.5516712694270893e6 93181.12856075092 0.0
0.0 0.0 0.0

-285069.7094389151 3.770149856714506e6 0.0
3.770149856714506e6 1.0505063521644585e6 0.0
0.0 0.0 0.0

570492.7632120672 4.0353290652877307e6 0.0
4.0353290652877307e6 -1.6632440236368948e6 0.0
0.0 0.0 0.0

-326602.6132099115 2.378017371140056e6 0.0
2.378017371140056e6 -570627.5358720177 0.0
0.0 0.0 0.0

-480527.21028341923 2.085917410894375e6 0.0
2.085917410894375e6 1.4231800138023214e6 0.0
0.0 0.0 0.0

-744441.5020943701 2.9666333415884636e6 0.0
2.9666333415884636e6 311540.1250404944 0.0
0.0 0.0 0.0

-1.7906186334625022e6 3.5571450123849483e6 0.0
3.5571450123849483e6 928393.5535964244 0.0
0.0 0.0 0.0

58624.392616085795 3.243534180228292e6 0.0
3.243534180228292e6 -637474.9474693204 0.0
0.0 0.0 0.0

-1.8416765595301338e6 4.906887179683201e6 0.0
4.906887179683201e6 1.2516847454608737e6 0.0
0.0 0.0 0.0

973878.4074687898 193657.3924799904 0.0
193657.3924799904 -1.1331329671887518e6 0.0
0.0 0.0 0.0

4905.980534811621 5.413006150868495e6 0.0
5.413006150868495e6 -105199.9832530981 0.0
0.0 0.0 0.0

-1.15250341398059e6 3.9266263100965247e6 0.0
3.9266263100965247e6 713401.6578145488 0.0
0.0 0.0 0.0

-14468.276584957144 2.9743368103976864e6 0.0
2.9743368103976864e6 -673094.0293649496 0.0
0.0 0.0 0.0

-607556.0098112006 2.8233683485149974e6 0.0
2.8233683485149974e6 -196614.39632802375 0.0
0.0 0.0 0.0

-1.6153357073692053e6 1.5014966271860753e6 0.0
1.5014966271860753e6 1.4810461795410323e6 0.0
0.0 0.0 0.0

-1.082162861998325e6 3.717344309913149e6 0.0
3.717344309913149e6 903985.3702479103 0.0
0.0 0.0 0.0

988126.1617472225 1.1959569572458053e6 0.0
1.1959569572458053e6 -1.576931690672634e6 0.0
0.0 0.0 0.0

-729289.3580332345 2.151587863887092e6 0.0
2.151587863887092e6 38564.106448745326 0.0
0.0 0.0 0.0

-436489.6748841732 3.047060662023994e6 0.0
3.047060662023994e6 -245612.31448322049 0.0
0.0 0.0 0.0

-706780.627294898 449759.7275269131 0.0
449759.7275269131 -98036.23357130433 0.0
0.0 0.0 0.0

-520076.75307455636 2.906138397397077e6 0.0
2.906138397397077e6 -1872.7238130779588 0.0
0.0 0.0 0.0

-1.4155019724626406e6 -263246.6326919128 0.0
-263246.6326919128 2.318049504105998e6 0.0
0.0 0.0 0.0

-565620.1595729631 2.5643771144310003e6 0.0
2.5643771144310003e6 486817.8431660088 0.0
0.0 0.0 0.0

-936669.8122849488 2.576662486486261e6 0.0
2.576662486486261e6 533400.4011015298 0.0
0.0 0.0 0.0

219529.90153093796 4.357071835101074e6 0.0
4.357071835101074e6 1.4108173007866063e6 0.0
0.0 0.0 0.0

68345.27959282201 2.3828704253069847e6 0.0
2.3828704253069847e6 -1.2745041959967294e6 0.0
0.0 0.0 0.0

1.1671498286700086e6 1.102097660359037e6 0.0
1.102097660359037e6 -1.742419949662969e6 0.0
0.0 0.0 0.0

-388539.8079406253 3.1393252680565515e6 0.0
3.1393252680565515e6 -3051.0076189254323 0.0
0.0 0.0 0.0

-892582.9999265588 808301.3372919835 0.0
808301.3372919835 1.4103542406379473e6 0.0
0.0 0.0 0.0

-1.6802346531360701e6 3.197941888201353e6 0.0
3.197941888201353e6 758276.0867878313 0.0
0.0 0.0 0.0

-1.2983601754368804e6 3.254559635800798e6 0.0
3.254559635800798e6 798132.213978114 0.0
0.0 0.0 0.0

-1.0695423292888943e6 2.9975317538437992e6 0.0
2.9975317538437992e6 560795.4159574513 0.0
0.0 0.0 0.0

-171965.78932516192 3.2505781499774763e6 0.0
3.2505781499774763e6 -176255.1480108738 0.0
0.0 0.0 0.0

-370275.1079486493 729518.8950110085 0.0
729518.8950110085 324713.0373097374 0.0
0.0 0.0 0.0

-13514.356421809905 3.931976471998148e6 0.0
3.931976471998148e6 202257.45807632094 0.0
0.0 0.0 0.0

-41444.22785537271 3.2544808539867555e6 0.0
3.2544808539867555e6 -656994.9171470992 0.0
0.0 0.0 0.0

-1.7672690015679044e6 2.5695243022297123e6 0.0
2.5695243022297123e6 343235.7841380101 0.0
0.0 0.0 0.0

-3.8587456427153638e6 510727.97013785323 0.0
510727.97013785323 3.6081714559108987e6 0.0
0.0 0.0 0.0

971527.1456494606 811596.1315072562 0.0
811596.1315072562 -1.431424222244599e6 0.0
0.0 0.0 0.0

-75277.79815322181 3.1529585088537238e6 0.0
3.1529585088537238e6 -426632.98277281725 0.0
0.0 0.0 0.0

-83730.4231162474 3.0880071553983577e6 0.0
3.0880071553983577e6 -1.0856455517953911e6 0.0
0.0 0.0 0.0

-217270.07762353745 2.187266506650731e6 0.0
2.187266506650731e6 -756987.0914213393 0.0
0.0 0.0 0.0

230448.41563651495 -14323.174003487213 0.0
-14323.174003487213 -278003.91305932717 0.0
0.0 0.0 0.0

-266740.0461310415 2.1300079290752253e6 0.0
2.1300079290752253e6 -679007.332000922 0.0
0.0 0.0 0.0

223758.27360563885 3.7526723964086627e6 0.0
3.7526723964086627e6 -504829.2606745317 0.0
0.0 0.0 0.0

-209166.1274906745 2.071178303716375e6 0.0
2.071178303716375e6 -810721.166723966 0.0
0.0 0.0 0.0

-483984.291704569 2.817508504377976e6 0.0
2.817508504377976e6 -252684.29903457954 0.0
0.0 0.0 0.0

-350614.0632174294 3.4320891594808325e6 0.0
3.4320891594808325e6 1.2072542671344075e6 0.0
0.0 0.0 0.0

-1.079294286139876e6 389042.3052455897 0.0
389042.3052455897 2.3175547853345433e6 0.0
0.0 0.0 0.0

-593951.0319513595 3.26900128717459e6 0.0
3.26900128717459e6 300177.3079263574 0.0
0.0 0.0 0.0

-64216.308684361386 3.27973782890549e6 0.0
3.27973782890549e6 -580877.9184093539 0.0
0.0 0.0 0.0

-654566.8981832818 2.8494166874109977e6 0.0
2.8494166874109977e6 465910.98850479664 0.0
0.0 0.0 0.0

201652.50560823345 3.9608829052228164e6 0.0
3.9608829052228164e6 1.5406280325613494e6 0.0
0.0 0.0 0.0

-461868.93720408936 2.921565853017784e6 0.0
2.921565853017784e6 6366.699519573798 0.0
0.0 0.0 0.0

-304013.5201683528 2.732279500647666e6 0.0
2.732279500647666e6 -334981.930378523 0.0
0.0 0.0 0.0

-1.7875932940531839e6 4.196181737881085e6 0.0
4.196181737881085e6 1.1237643318882817e6 0.0
0.0 0.0 0.0

-620600.7496577069 2.0776559494966776e6 0.0
2.0776559494966776e6 130270.47995334334 0.0
0.0 0.0 0.0

-4.571003760733937e6 -1.7251856785938581e6 0.0
-1.7251856785938581e6 7.379373803340125e6 0.0
0.0 0.0 0.0

-598187.5769142606 2.6145583545530937e6 0.0
2.6145583545530937e6 -174714.19992666124 0.0
0.0 0.0 0.0

-1.6543973413567517e6 2.837541943859105e6 0.0
2.837541943859105e6 542513.3035197128 0.0
0.0 0.0 0.0

-50696.09159286403 -183082.38485970555 0.0
-183082.38485970555 2106.411465734389 0.0
0.0 0.0 0.0

-44834.02395937743 1.0377384262664205e6 0.0
1.0377384262664205e6 462838.0152997601 0.0
0.0 0.0 0.0

-546167.2715492533 2.6018443765888307e6 0.0
2.6018443765888307e6 530957.4121891479 0.0
0.0 0.0 0.0

1.1552289661433864e6 1.0115898156809185e6 0.0
1.0115898156809185e6 -1.5997148284084175e6 0.0
0.0 0.0 0.0

-2.1128295008512754e6 2.824601688978751e6 0.0
2.824601688978751e6 642903.1488333466 0.0
0.0 0.0 0.0

-220392.2244903657 2.1062676706881644e6 0.0
2.1062676706881644e6 -498508.7226437111 0.0
0.0 0.0 0.0

-357159.0972581296 1.5594794801263784e6 0.0
1.5594794801263784e6 415423.11958452757 0.0
0.0 0.0 0.0

1.1774918201911817e6 1.8434757480497933e6 0.0
1.8434757480497933e6 -1.8324643432461785e6 0.0
0.0 0.0 0.0

-1.526150698426157e6 2.58475694296103e6 0.0
2.58475694296103e6 404740.1198148995 0.0
0.0 0.0 0.0

-204706.7857232791 3.3730632527689645e6 0.0
3.3730632527689645e6 -1.132012164852281e6 0.0
0.0 0.0 0.0

353120.8482468875 559374.733141405 0.0
559374.733141405 -595160.3197220676 0.0
0.0 0.0 0.0

-653400.6902024057 2.4382804965170785e6 0.0
2.4382804965170785e6 622540.4514820413 0.0
0.0 0.0 0.0

-1.8327512325613392e6 1.6955938869521278e6 0.0
1.6955938869521278e6 196475.75849651278 0.0
0.0 0.0 0.0

76716.99846053531 2.8857117203786927e6 0.0
2.8857117203786927e6 -685409.1729828266 0.0
0.0 0.0 0.0

-2.125034742339951e6 2.271469864029499e6 0.0
2.271469864029499e6 757828.8446110305 0.0
0.0 0.0 0.0

182736.161202183 193584.11648661108 0.0
193584.11648661108 -91702.32115959446 0.0
0.0 0.0 0.0

1.181494341871294e6 2.996762418235292e6 0.0
2.996762418235292e6 -1.3455306651030309e6 0.0
0.0 0.0 0.0

1.0660645005210517e6 5.383104111104617e6 0.0
5.383104111104617e6 -217586.58097900578 0.0
0.0 0.0 0.0

-1.7499625311897919e6 3.2321507214066237e6 0.0
3.2321507214066237e6 783714.0209197499 0.0
0.0 0.0 0.0

-770247.7891180026 2.7259189747515107e6 0.0
2.7259189747515107e6 6941.966973845265 0.0
0.0 0.0 0.0

-1.1076607491686784e6 2.4423671976751965e6 0.0
2.4423671976751965e6 268848.0149432693 0.0
0.0 0.0 0.0

-774113.5218300931 3.2116413827388124e6 0.0
3.2116413827388124e6 3.8446668789751558e6 0.0
0.0 0.0 0.0

1.2575611587795438e6 1.078653343462649e6 0.0
1.078653343462649e6 -1.7485945111667472e6 0.0
0.0 0.0 0.0

-890528.8182453488 2.544824074150722e6 0.0
2.544824074150722e6 698953.6679839678 0.0
0.0 0.0 0.0

-1.1603848822166338e6 5.350339893193638e6 0.0
5.350339893193638e6 760213.7112927991 0.0
0.0 0.0 0.0

654684.6234292819 1.72592452759793e6 0.0
1.72592452759793e6 -1.6998969066421397e6 0.0
0.0 0.0 0.0

-2.3331155536330314e6 3725.383551474731 0.0
3725.383551474731 2.7459927258342775e6 0.0
0.0 0.0 0.0

-454666.0086724426 3.022491471694207e6 0.0
3.022491471694207e6 -217219.17915606446 0.0
0.0 0.0 0.0

-127425.67237535161 2.782952014584125e6 0.0
2.782952014584125e6 -756048.8546567085 0.0
0.0 0.0 0.0

-145207.25918526718 2.0788879626116853e6 0.0
2.0788879626116853e6 -598982.8873742716 0.0
0.0 0.0 0.0

-339494.4509132629 2.616790414656209e6 0.0
2.616790414656209e6 1.313787986642281e6 0.0
0.0 0.0 0.0

-764380.7163432026 5.531970525187869e6 0.0
5.531970525187869e6 719424.6773088563 0.0
0.0 0.0 0.0

-1.4428460320338644e6 -496817.06047803955 0.0
-496817.06047803955 1.6681548735554898e6 0.0
0.0 0.0 0.0

-295215.3312813166 7.73113413968665e6 0.0
7.73113413968665e6 703060.4059983505 0.0
0.0 0.0 0.0

-1.0812800807633852e6 5.641994568320409e6 0.0
5.641994568320409e6 562848.64767962 0.0
0.0 0.0 0.0

1.023267159624056e6 782615.899222017 0.0
782615.899222017 -1.3878936618417203e6 0.0
0.0 0.0 0.0

-1.3900186973867388e6 2.734402374218509e6 0.0
2.734402374218509e6 410154.737541994 0.0
0.0 0.0 0.0

140053.09209977358 4.430400578865116e6 0.0
4.430400578865116e6 -181871.2407934447 0.0
0.0 0.0 0.0

-3.464746289036797e6 -865641.3421102621 0.0
-865641.3421102621 4.622043042495067e6 0.0
0.0 0.0 0.0

-666868.2602497822 2.619845780408145e6 0.0
2.619845780408145e6 -75799.32710595248 0.0
0.0 0.0 0.0

-611466.2550168403 3.4182220817107134e6 0.0
3.4182220817107134e6 1.1997377338443918e6 0.0
0.0 0.0 0.0

-365263.0500268355 2.674058360707616e6 0.0
2.674058360707616e6 -297928.9961363083 0.0
0.0 0.0 0.0

1.2782559288387643e6 1.1068094670066703e6 0.0
1.1068094670066703e6 -1.813305181576625e6 0.0
0.0 0.0 0.0

-1.7089361195910359e6 3.8378723406591257e6 0.0
3.8378723406591257e6 1.0444715146294304e6 0.0
0.0 0.0 0.0

-53215.48078647611 2.719825218378526e6 0.0
2.719825218378526e6 -1.0594636810892762e6 0.0
0.0 0.0 0.0

-1.2495783825021717e6 4.390158294898129e6 0.0
4.390158294898129e6 820655.8320274921 0.0
0.0 0.0 0.0

-3.3085909743287195e6 -397874.19721556414 0.0
-397874.19721556414 4.945070391317315e6 0.0
0.0 0.0 0.0

-265321.8381447721 2.283287539860204e6 0.0
2.283287539860204e6 -675391.379193199 0.0
0.0 0.0 0.0

380096.9596313549 1.467948931802861e6 0.0
1.467948931802861e6 -1.5009127282879127e6 0.0
0.0 0.0 0.0

-604069.7281871804 3.3418880120435143e6 0.0
3.3418880120435143e6 135472.93040348956 0.0
0.0 0.0 0.0

-89263.83434737512 2.65324137085467e6 0.0
2.65324137085467e6 -851562.9149860877 0.0
0.0 0.0 0.0

-1.0832003556406624e6 -440457.19332101796 0.0
-440457.19332101796 1.7452254820737294e6 0.0
0.0 0.0 0.0

-709025.0922298834 2.8845236136253183e6 0.0
2.8845236136253183e6 2.408045567963032e6 0.0
0.0 0.0 0.0

734747.6462093561 1.7239033314457852e6 0.0
1.7239033314457852e6 -1.611455845268848e6 0.0
0.0 0.0 0.0

-1.0275443680103004e6 4.311042786718394e6 0.0
4.311042786718394e6 868734.8863464829 0.0
0.0 0.0 0.0

-520057.06321835384 2.6825982501077205e6 0.0
2.6825982501077205e6 979869.4581150415 0.0
0.0 0.0 0.0

655695.5819573813 1.1750777636259112e6 0.0
1.1750777636259112e6 -1.3303806513468383e6 0.0
0.0 0.0 0.0

235427.8159429014 4.483073099128284e6 0.0
4.483073099128284e6 883700.0870510911 0.0
0.0 0.0 0.0

-1.0769064837010584e6 4.1908837244726843e6 0.0
4.1908837244726843e6 904088.5109151194 0.0
0.0 0.0 0.0

51098.43895330402 -8098.211961392534 0.0
-8098.211961392534 46874.85499466879 0.0
0.0 0.0 0.0

-1.2085813432672564e6 -416904.1588547023 0.0
-416904.1588547023 1.3355464106800375e6 0.0
0.0 0.0 0.0

1.2823098449485672e6 1.0763765761571755e6 0.0
1.0763765761571755e6 -1.747791055976154e6 0.0
0.0 0.0 0.0

-925964.618575632 2.3891631319295494e6 0.0
2.3891631319295494e6 230327.09728185507 0.0
0.0 0.0 0.0

-295646.1798663878 3.337206331990301e6 0.0
3.337206331990301e6 -103748.73129338802 0.0
0.0 0.0 0.0

-775347.3710328608 2.91660908430648e6 0.0
2.91660908430648e6 104141.60410661536 0.0
0.0 0.0 0.0

630224.0482582467 1397.5511336135764 0.0
1397.5511336135764 -584790.6283803706 0.0
0.0 0.0 0.0

-1.0384522915553685e6 3.2228002524286914e6 0.0
3.2228002524286914e6 757782.0586286256 0.0
0.0 0.0 0.0

-1.3556720372367618e6 -565801.9335277769 0.0
-565801.9335277769 1.5443327083214596e6 0.0
0.0 0.0 0.0

-416040.78864809766 3.004097304909919e6 0.0
3.004097304909919e6 217360.4854291167 0.0
0.0 0.0 0.0

566538.7828779072 2.091713888097926e6 0.0
2.091713888097926e6 -1.2986932504242894e6 0.0
0.0 0.0 0.0

861325.5309250155 1.6972094160734646e6 0.0
1.6972094160734646e6 -1.5946225442117893e6 0.0
0.0 0.0 0.0

-90935.670278612 875671.7105492363 0.0
875671.7105492363 496248.71496124694 0.0
0.0 0.0 0.0

-710500.0293395339 2.3187080632783836e6 0.0
2.3187080632783836e6 -94625.75762954184 0.0
0.0 0.0 0.0

-9230.607375450723 51224.817257786235 0.0
51224.817257786235 -246481.5758579077 0.0
0.0 0.0 0.0

-196186.93399877122 2.3211131271127127e6 0.0
2.3211131271127127e6 -616009.0288769207 0.0
0.0 0.0 0.0

-916225.0491347688 2.560441733931193e6 0.0
2.560441733931193e6 150381.84747046028 0.0
0.0 0.0 0.0

-549565.5048502398 2.7550749623382716e6 0.0
2.7550749623382716e6 2.0402991460811698e6 0.0
0.0 0.0 0.0

-557156.0701240144 3.8234618799665733e6 0.0
3.8234618799665733e6 310295.5167920168 0.0
0.0 0.0 0.0

-3.92322375427921e6 -2.2683121427583997e6 0.0
-2.2683121427583997e6 4.27011164130303e6 0.0
0.0 0.0 0.0

-1.3786023582758193e6 5965.947633382158 0.0
5965.947633382158 2.4298261031562896e6 0.0
0.0 0.0 0.0

-133149.4341505929 1.975611424405285e6 0.0
1.975611424405285e6 -76229.09595290199 0.0
0.0 0.0 0.0

-300937.78022384446 2.0155005926088504e6 0.0
2.0155005926088504e6 -192080.34636324368 0.0
0.0 0.0 0.0

739412.7722103279 78934.88257367632 0.0
78934.88257367632 -903824.6187712823 0.0
0.0 0.0 0.0

-1.2911178351338152e6 2.335145992367045e6 0.0
2.335145992367045e6 532351.7993012322 0.0
0.0 0.0 0.0

1.2280145456340692e6 1.0916759397501417e6 0.0
1.0916759397501417e6 -1.7260872837678865e6 0.0
0.0 0.0 0.0

286747.37067861704 3.6277189054424544e6 0.0
3.6277189054424544e6 -772360.371798509 0.0
0.0 0.0 0.0

-42127.07792781337 3.2349387157447054e6 0.0
3.2349387157447054e6 -595085.3089925158 0.0
0.0 0.0 0.0

-868129.4752834116 5.343121145603549e6 0.0
5.343121145603549e6 294909.8113469862 0.0
0.0 0.0 0.0

-396093.1529086161 2.8523980656800326e6 0.0
2.8523980656800326e6 -198070.6185799937 0.0
0.0 0.0 0.0

-943686.7868348013 2.897430296206604e6 0.0
2.897430296206604e6 -310176.0439419913 0.0
0.0 0.0 0.0

-1.7219267628035052e6 3.9044299783723215e6 0.0
3.9044299783723215e6 1.0032071965840652e6 0.0
0.0 0.0 0.0

-276087.9580181595 1.086120374835736e6 0.0
1.086120374835736e6 -628071.0346521144 0.0
0.0 0.0 0.0

-2.536092221943913e6 2.25614964268714e6 0.0
2.25614964268714e6 763750.739602125 0.0
0.0 0.0 0.0

-865809.4926095828 2.4263300769967353e6 0.0
2.4263300769967353e6 24366.198632614512 0.0
0.0 0.0 0.0

653820.6751675399 211457.69821611096 0.0
211457.69821611096 -993987.4702901309 0.0
0.0 0.0 0.0

-891525.8744416204 2.569721830386037e6 0.0
2.569721830386037e6 83346.89563727786 0.0
0.0 0.0 0.0

-119795.32855818757 -233790.6856067562 0.0
-233790.6856067562 -239433.60559857645 0.0
0.0 0.0 0.0

-319743.57882761885 1.945291658369381e6 0.0
1.945291658369381e6 -418250.93481706653 0.0
0.0 0.0 0.0

431364.24204942654 2.219951966526808e6 0.0
2.219951966526808e6 -1.1640948649415954e6 0.0
0.0 0.0 0.0

-706009.5988558136 3.675287158745526e6 0.0
3.675287158745526e6 -149461.61335082818 0.0
0.0 0.0 0.0

-326286.74097183294 2.3996419569598637e6 0.0
2.3996419569598637e6 1.0388610988616821e6 0.0
0.0 0.0 0.0

-169212.51053728466 3.345593657585489e6 0.0
3.345593657585489e6 -346763.88425202615 0.0
0.0 0.0 0.0

216642.5777025414 642830.4371229638 0.0
642830.4371229638 -643310.9062731498 0.0
0.0 0.0 0.0

-1.44840652814786e6 3.797211632886724e6 0.0
3.797211632886724e6 1.0036290943148055e6 0.0
0.0 0.0 0.0

-1.7121296451090802e6 4.379218221819089e6 0.0
4.379218221819089e6 1.1184636632890888e6 0.0
0.0 0.0 0.0

-630490.7912966243 3.4051323344356427e6 0.0
3.4051323344356427e6 52849.866114165605 0.0
0.0 0.0 0.0

504521.4278046597 307808.0736613083 0.0
307808.0736613083 -1.0343763846634915e6 0.0
0.0 0.0 0.0

-124581.77690236614 2.1329928984810705e6 0.0
2.1329928984810705e6 -937981.227760913 0.0
0.0 0.0 0.0

-1.5999651889934796e6 2.4356422363978527e6 0.0
2.4356422363978527e6 415936.6229726318 0.0
0.0 0.0 0.0

-1.5581664667666338e6 2.5198546711572693e6 0.0
2.5198546711572693e6 383625.27047839155 0.0
0.0 0.0 0.0

110132.35264408268 2.521854233742068e6 0.0
2.521854233742068e6 -1.1568830993694025e6 0.0
0.0 0.0 0.0

1537.3284034777316 2.6114663493351927e6 0.0
2.6114663493351927e6 -853008.2318059574 0.0
0.0 0.0 0.0

-107359.3513817665 3.175027428266273e6 0.0
3.175027428266273e6 -503990.77168578235 0.0
0.0 0.0 0.0

711610.9604492552 1.384250234177466e6 0.0
1.384250234177466e6 -1.6328084201027323e6 0.0
0.0 0.0 0.0

-153367.87933437008 218478.4771176822 0.0
218478.4771176822 916344.0990650371 0.0
0.0 0.0 0.0

890730.6927824859 3.8286789739231877e6 0.0
3.8286789739231877e6 -992143.0030367674 0.0
0.0 0.0 0.0

-1.3837011713074655e6 6.283531731342957e6 0.0
6.283531731342957e6 703865.034116405 0.0
0.0 0.0 0.0

-270965.29786444263 2.564826631716975e6 0.0
2.564826631716975e6 190682.85538015197 0.0
0.0 0.0 0.0

-671772.9290881417 2.489716808606612e6 0.0
2.489716808606612e6 1.6809131502030226e6 0.0
0.0 0.0 0.0

-673277.2836915124 2.8936421564003597e6 0.0
2.8936421564003597e6 1.3105193737753378e6 0.0
0.0 0.0 0.0

-55228.95033550146 2.6580959336261307e6 0.0
2.6580959336261307e6 -677486.816338929 0.0
0.0 0.0 0.0

-1.4248201424104613e6 3.730566399574343e6 0.0
3.730566399574343e6 1.046161981711494e6 0.0
0.0 0.0 0.0

-1.419141567603717e6 1.7160798716591634e6 0.0
1.7160798716591634e6 -845250.0000750716 0.0
0.0 0.0 0.0

-170727.475665972 2.6240388528391737e6 0.0
2.6240388528391737e6 -723437.5398408943 0.0
0.0 0.0 0.0

-345756.9205118555 3.059620695328653e6 0.0
3.059620695328653e6 -256312.96913809836 0.0
0.0 0.0 0.0

1.1560278353229854e6 1.0146431778552037e6 0.0
1.0146431778552037e6 -1.5938416366150463e6 0.0
0.0 0.0 0.0

-1.458967271677981e6 2.0899829161041393e6 0.0
2.0899829161041393e6 448487.6177773648 0.0
0.0 0.0 0.0

-2.578513889281954e6 1.881399573904197e6 0.0
1.881399573904197e6 1.101421017557782e6 0.0
0.0 0.0 0.0

362627.37776246306 86534.33689312787 0.0
86534.33689312787 -242377.53812549767 0.0
0.0 0.0 0.0

-919028.8042153023 5.069241459953417e6 0.0
5.069241459953417e6 510749.4269492875 0.0
0.0 0.0 0.0

-1.08072765572632e7 -2.4674643788621407e6 0.0
-2.4674643788621407e6 1.0976345663498066e7 0.0
0.0 0.0 0.0

84607.08297898716 -21625.350231022076 0.0
-21625.350231022076 -68252.40865673643 0.0
0.0 0.0 0.0

182032.2300170994 3.745119859828115e6 0.0
3.745119859828115e6 -451159.25747133006 0.0
0.0 0.0 0.0

-239122.97364416003 2.418443120571415e6 0.0
2.418443120571415e6 -506368.3354085432 0.0
0.0 0.0 0.0

-1.8836999706152636e6 4.237949617998169e6 0.0
4.237949617998169e6 1.107576314709187e6 0.0
0.0 0.0 0.0

-1.0177025684847311e6 2.280723440303322e6 0.0
2.280723440303322e6 314525.7540379361 0.0
0.0 0.0 0.0

-463845.3813534939 2.0266908582187972e6 0.0
2.0266908582187972e6 436610.56333879835 0.0
0.0 0.0 0.0

-1.6517039672565004e6 3.9728891756840437e6 0.0
3.9728891756840437e6 1.050370000949528e6 0.0
0.0 0.0 0.0

-1.7304319451013561e6 2.6412996305040265e6 0.0
2.6412996305040265e6 407263.3686668518 0.0
0.0 0.0 0.0

-1.7314928872270195e6 4.334107831747973e6 0.0
4.334107831747973e6 1.1104167433238528e6 0.0
0.0 0.0 0.0

376513.5192841253 3.52045590510634e6 0.0
3.52045590510634e6 -2.1996813295802325e6 0.0
0.0 0.0 0.0

-447517.30231248244 2.615639187407133e6 0.0
2.615639187407133e6 277309.5955051687 0.0
0.0 0.0 0.0

-2.2978849238966755e6 -1.0085864778865125e6 0.0
-1.0085864778865125e6 2.7905670526427594e6 0.0
0.0 0.0 0.0

172292.5942571964 3.994211409530192e6 0.0
3.994211409530192e6 4.273890285487622e6 0.0
0.0 0.0 0.0

-3.2352006262415387e6 -408359.34327280486 0.0
-408359.34327280486 1.7985155873721542e6 0.0
0.0 0.0 0.0

-26963.98571792117 5.259955076351268e6 0.0
5.259955076351268e6 -673693.631995454 0.0
0.0 0.0 0.0

10324.068593014148 2.359133802885836e6 0.0
2.359133802885836e6 -1.2565728655633787e6 0.0
0.0 0.0 0.0

-405507.8905616242 612028.4594800516 0.0
612028.4594800516 -168354.4435025322 0.0
0.0 0.0 0.0

946457.7986675547 5.65714517113115e6 0.0
5.65714517113115e6 -52012.82433000038 0.0
0.0 0.0 0.0

-54415.043064583166 2.1164190828539715e6 0.0
2.1164190828539715e6 -64180.38492412488 0.0
0.0 0.0 0.0

-573455.6389891433 2.988613695611949e6 0.0
2.988613695611949e6 1.2275768926134706e6 0.0
0.0 0.0 0.0

-1.6992366137065275e6 3.5633488360610954e6 0.0
3.5633488360610954e6 910559.2658270492 0.0
0.0 0.0 0.0

-759583.21991615 2.683313809253041e6 0.0
2.683313809253041e6 47734.26989460396 0.0
0.0 0.0 0.0

-1.031176984648014e6 2.6868460132569955e6 0.0
2.6868460132569955e6 476784.4710105833 0.0
0.0 0.0 0.0

-1.1150030901085995e6 1.5904447997422672e6 0.0
1.5904447997422672e6 81267.9717118803 0.0
0.0 0.0 0.0

157918.39230498445 2.702295339383404e6 0.0
2.702295339383404e6 -1.0224043540221424e6 0.0
0.0 0.0 0.0

-251804.56000822966 3.0932669094951595e6 0.0
3.0932669094951595e6 -275192.90961858415 0.0
0.0 0.0 0.0

-411206.9589486707 2.2797271721675373e6 0.0
2.2797271721675373e6 300304.32870384416 0.0
0.0 0.0 0.0

-7.3389819499630155e6 -1.2193585533376478e6 0.0
-1.2193585533376478e6 1.219719294863778e7 0.0
0.0 0.0 0.0

-1.5421575615764642e6 3.188454181913163e6 0.0
3.188454181913163e6 710706.5802504094 0.0
0.0 0.0 0.0

1.2970369025160442e6 1.0858496887342478e6 0.0
1.0858496887342478e6 -1.7295224076290242e6 0.0
0.0 0.0 0.0

-382552.34061334067 2.9002772818411086e6 0.0
2.9002772818411086e6 -34415.08177480061 0.0
0.0 0.0 0.0

-240906.16843301526 2.2941941065322203e6 0.0
2.2941941065322203e6 199779.9981222656 0.0
0.0 0.0 0.0

-586932.6196343758 4.047434471348208e6 0.0
4.047434471348208e6 369563.33690054854 0.0
0.0 0.0 0.0

-1.1192864890164225e6 3.364498079121691e6 0.0
3.364498079121691e6 629934.7069367236 0.0
0.0 0.0 0.0

-1.9951042455010354e6 2.6355557743056975e6 0.0
2.6355557743056975e6 691816.2853068219 0.0
0.0 0.0 0.0

-90310.94675809327 889171.4880013696 0.0
889171.4880013696 -381969.4549941383 0.0
0.0 0.0 0.0

-1.2798098209065234e6 2.117913033515477e6 0.0
2.117913033515477e6 195796.78624601377 0.0
0.0 0.0 0.0

-1.5351729849418588e6 2.7336969974616887e6 0.0
2.7336969974616887e6 464723.8733431377 0.0
0.0 0.0 0.0

-167771.7919065204 1.573606650240573e6 0.0
1.573606650240573e6 -28466.18452545851 0.0
0.0 0.0 0.0

-413976.0351172191 5.728216174936888e6 0.0
5.728216174936888e6 241689.15656313516 0.0
0.0 0.0 0.0

-507699.5049498988 2.4275833043296086e6 0.0
2.4275833043296086e6 -155663.45955413659 0.0
0.0 0.0 0.0

-1.635557897277847e6 3.230527605940357e6 0.0
3.230527605940357e6 771454.9488674972 0.0
0.0 0.0 0.0

-1.0513231360262525e6 2.361362239499133e6 0.0
2.361362239499133e6 438258.99253745936 0.0
0.0 0.0 0.0

-192120.77129226693 3.1461948187701185e6 0.0
3.1461948187701185e6 -272868.84806450055 0.0
0.0 0.0 0.0

-596816.8897519924 528781.9249043495 0.0
528781.9249043495 468517.7914910073 0.0
0.0 0.0 0.0

-961871.8687222203 2.1509983934890847e6 0.0
2.1509983934890847e6 607537.5720492564 0.0
0.0 0.0 0.0

-384328.43761319143 2.4880812094063754e6 0.0
2.4880812094063754e6 -458982.0642495287 0.0
0.0 0.0 0.0

-971787.2228268627 3.3478648522293773e6 0.0
3.3478648522293773e6 1.4614212189142199e6 0.0
0.0 0.0 0.0

-326930.7472935263 2.3396191672782693e6 0.0
2.3396191672782693e6 -558440.9463874603 0.0
0.0 0.0 0.0

-489873.3832009476 1.9184428828748967e6 0.0
1.9184428828748967e6 858819.1517557282 0.0
0.0 0.0 0.0

-2.338765028821835e6 659727.8322649946 0.0
659727.8322649946 1.60932393503983e6 0.0
0.0 0.0 0.0

-322560.64160043566 3.034873739666163e6 0.0
3.034873739666163e6 -294960.53018230293 0.0
0.0 0.0 0.0

45214.993216347924 274358.862359369 0.0
274358.862359369 -231511.29659090302 0.0
0.0 0.0 0.0

60836.942607829755 3.278156882560266e6 0.0
3.278156882560266e6 -484226.07968849543 0.0
0.0 0.0 0.0

-1.0656234275696033e6 5.844089335728918e6 0.0
5.844089335728918e6 497495.54546957975 0.0
0.0 0.0 0.0

-4.285347538963556e6 1.1201120602647339e6 0.0
1.1201120602647339e6 2.6333750762573425e6 0.0
0.0 0.0 0.0

-1.8264200773923905e6 6.091550548377172e6 0.0
6.091550548377172e6 1.3478297047263214e6 0.0
0.0 0.0 0.0

-760296.455887637 2.7759255035494487e6 0.0
2.7759255035494487e6 -236444.3912758226 0.0
0.0 0.0 0.0

-1.921721284676019e6 5.319979739275843e6 0.0
5.319979739275843e6 1.2791895169662812e6 0.0
0.0 0.0 0.0

158370.57123013577 78370.42765870961 0.0
78370.42765870961 -229388.210009704 0.0
0.0 0.0 0.0

-606509.5403763051 4.075944750130009e6 0.0
4.075944750130009e6 321367.4274674634 0.0
0.0 0.0 0.0

-1.7966428546071993e6 2.491669714992996e6 0.0
2.491669714992996e6 337392.7900246815 0.0
0.0 0.0 0.0

-389735.397773944 3.013123081250664e6 0.0
3.013123081250664e6 -273800.04940558126 0.0
0.0 0.0 0.0

-152679.80533619953 2.132533677072549e6 0.0
2.132533677072549e6 -857064.3606010033 0.0
0.0 0.0 0.0

-927093.981007831 2.594568605495214e6 0.0
2.594568605495214e6 9963.947233554441 0.0
0.0 0.0 0.0

-721394.6631585613 2.0998995261011226e6 0.0
2.0998995261011226e6 693595.2447460525 0.0
0.0 0.0 0.0

-1.8083369058240072e6 5.802092619318245e6 0.0
5.802092619318245e6 1.0597405283725648e6 0.0
0.0 0.0 0.0

-1.31832614169757e6 1.903257977703383e6 0.0
1.903257977703383e6 154234.0121407183 0.0
0.0 0.0 0.0

-626397.0542118584 3.8202040273305774e6 0.0
3.8202040273305774e6 302289.3687167405 0.0
0.0 0.0 0.0

732579.1890969072 422229.51277840463 0.0
422229.51277840463 -1.4044747778733417e6 0.0
0.0 0.0 0.0

154546.69208576484 2.8124280566255506e6 0.0
2.8124280566255506e6 -1.1185735030707654e6 0.0
0.0 0.0 0.0

471100.6393221029 148575.49172888586 0.0
148575.49172888586 -1.5083655998461905e6 0.0
0.0 0.0 0.0

-150629.02220237302 2.6634909756627576e6 0.0
2.6634909756627576e6 110452.77091843124 0.0
0.0 0.0 0.0

-461382.9229305163 3.2904530239446647e6 0.0
3.2904530239446647e6 8135.935484174261 0.0
0.0 0.0 0.0

-994960.1798848491 4.962835020752361e6 0.0
4.962835020752361e6 592227.9545846351 0.0
0.0 0.0 0.0

-410348.50326006085 797156.1039278415 0.0
797156.1039278415 601499.9931809102 0.0
0.0 0.0 0.0

-943806.2235644453 2.8050854076583395e6 0.0
2.8050854076583395e6 654292.7574746871 0.0
0.0 0.0 0.0

-356310.76069313835 1.5358556326603345e6 0.0
1.5358556326603345e6 1.1183599348239256e6 0.0
0.0 0.0 0.0

726822.8300575577 2.488865854373817e6 0.0
2.488865854373817e6 -1.4714733078116549e6 0.0
0.0 0.0 0.0

-23464.15926435415 3.2134575434430023e6 0.0
3.2134575434430023e6 -572733.883648322 0.0
0.0 0.0 0.0

-1.1342379846368525e6 2.2500872979809083e6 0.0
2.2500872979809083e6 -79505.86578784563 0.0
0.0 0.0 0.0

-242905.7134629376 2.241630534154786e6 0.0
2.241630534154786e6 -727879.7003067007 0.0
0.0 0.0 0.0

-185842.53854359867 3.5273032305579977e6 0.0
3.5273032305579977e6 -107303.08380581756 0.0
0.0 0.0 0.0

45992.1637545348 105001.98728077623 0.0
105001.98728077623 -39826.344636083464 0.0
0.0 0.0 0.0

-1.8863732177550585e6 789689.7084608879 0.0
789689.7084608879 -38531.370250472566 0.0
0.0 0.0 0.0

-829253.9522414538 7.410761878404478e6 0.0
7.410761878404478e6 -840887.4323724248 0.0
0.0 0.0 0.0

-791253.2238235121 2.7417909626331953e6 0.0
2.7417909626331953e6 -43117.09367371377 0.0
0.0 0.0 0.0

-120308.24360744507 2.0925192899839336e6 0.0
2.0925192899839336e6 -711601.6165650231 0.0
0.0 0.0 0.0

-1.8368126682239873e6 397948.76132558374 0.0
397948.76132558374 2.4038402441237215e6 0.0
0.0 0.0 0.0

31159.444697781375 -30498.673400688505 0.0
-30498.673400688505 9200.793109400629 0.0
0.0 0.0 0.0

-533919.5795868385 2.4270070259976718e6 0.0
2.4270070259976718e6 -248581.64368753566 0.0
0.0 0.0 0.0

-920527.5210042924 3.2533668763292492e6 0.0
3.2533668763292492e6 352661.2438211996 0.0
0.0 0.0 0.0

-878315.0831440121 2.6463004304389516e6 0.0
2.6463004304389516e6 437314.48136748094 0.0
0.0 0.0 0.0

-2.7805080004292447e6 -183108.55229724658 0.0
-183108.55229724658 4.544740418018198e6 0.0
0.0 0.0 0.0

-7539.460813244223 2.2900405781992152e6 0.0
2.2900405781992152e6 -1.0435230126379655e6 0.0
0.0 0.0 0.0

-906399.8057914067 3.0081367122775484e6 0.0
3.0081367122775484e6 413194.24126089225 0.0
0.0 0.0 0.0

-141156.06921631307 2.14134674847991e6 0.0
2.14134674847991e6 -855942.1170548087 0.0
0.0 0.0 0.0

-325442.6313322085 2.554713677797792e6 0.0
2.554713677797792e6 1.0067790855436549e6 0.0
0.0 0.0 0.0

-1.6248952002619007e6 -140228.34871979328 0.0
-140228.34871979328 2.6552402143751625e6 0.0
0.0 0.0 0.0

-269567.7230012533 2.6610857105130223e6 0.0
2.6610857105130223e6 -367255.9823301229 0.0
0.0 0.0 0.0

-285948.9366828115 2.966853011834908e6 0.0
2.966853011834908e6 -30654.818573101453 0.0
0.0 0.0 0.0

-1.0299166496141781e6 4.485338408076237e6 0.0
4.485338408076237e6 822954.0680884595 0.0
0.0 0.0 0.0

687149.8208321813 1.3934299669057282e6 0.0
1.3934299669057282e6 -1.2726163233947158e6 0.0
0.0 0.0 0.0

-326663.4673263225 722486.1975936127 0.0
722486.1975936127 222795.9037970949 0.0
0.0 0.0 0.0

693881.7114005449 2.187145603154782e6 0.0
2.187145603154782e6 -1.4313616877477784e6 0.0
0.0 0.0 0.0

-534615.5711803219 3.212533634536682e6 0.0
3.212533634536682e6 -368054.908273153 0.0
0.0 0.0 0.0

-1.7677312781895348e6 -167978.45669207355 0.0
-167978.45669207355 2.186340497006072e6 0.0
0.0 0.0 0.0

-665930.518789227 3.468040539813437e6 0.0
3.468040539813437e6 -410105.3435108288 0.0
0.0 0.0 0.0

-858503.743724385 2.573546654931717e6 0.0
2.573546654931717e6 382247.9082992899 0.0
0.0 0.0 0.0

944066.5032752069 1.5426125321766827e6 0.0
1.5426125321766827e6 -1.8627035423794868e6 0.0
0.0 0.0 0.0

-853095.3383136619 510453.35669902695 0.0
510453.35669902695 2.0313618745033778e6 0.0
0.0 0.0 0.0

-31629.767229575256 3.214338163645688e6 0.0
3.214338163645688e6 -679135.7586033778 0.0
0.0 0.0 0.0

337662.97988255386 2.224653691609389e6 0.0
2.224653691609389e6 -1.476595400451671e6 0.0
0.0 0.0 0.0

1.3278460682348828e6 1.0995976115760799e6 0.0
1.0995976115760799e6 -1.805120892251925e6 0.0
0.0 0.0 0.0

-427205.1356787734 2.0227029029163052e6 0.0
2.0227029029163052e6 419503.16879388684 0.0
0.0 0.0 0.0

-884048.4972494812 3.2295527449821914e6 0.0
3.2295527449821914e6 408545.14856157353 0.0
0.0 0.0 0.0

-472618.2107668257 1.7671197603080152e6 0.0
1.7671197603080152e6 6605.293215500831 0.0
0.0 0.0 0.0

-139178.1962615138 -218747.28488445134 0.0
-218747.28488445134 244343.4521182711 0.0
0.0 0.0 0.0

-143630.08240553903 -414354.42869946035 0.0
-414354.42869946035 66222.19160043391 0.0
0.0 0.0 0.0

-424548.287972529 1.5691438059018247e6 0.0
1.5691438059018247e6 191005.39825401126 0.0
0.0 0.0 0.0

-121002.27690706745 3.342906863412818e6 0.0
3.342906863412818e6 1.0825975485379258e6 0.0
0.0 0.0 0.0

-537544.9621925172 2.492087492594497e6 0.0
2.492087492594497e6 1.1657254258935582e6 0.0
0.0 0.0 0.0

-1.0695888379990598e6 3.4215156012765835e6 0.0
3.4215156012765835e6 -247556.1098563639 0.0
0.0 0.0 0.0

-16344.654649856384 2.9287038122377656e6 0.0
2.9287038122377656e6 -913375.4924371059 0.0
0.0 0.0 0.0

-759478.4500817937 3.91635266825315e6 0.0
3.91635266825315e6 -345107.651873943 0.0
0.0 0.0 0.0

-960408.4880537598 2.5917759127348457e6 0.0
2.5917759127348457e6 494926.79560000845 0.0
0.0 0.0 0.0

623891.9983752881 2.0776624964868035e6 0.0
2.0776624964868035e6 -1.4191077062528143e6 0.0
0.0 0.0 0.0

-182903.2979079439 -118903.24535405204 0.0
-118903.24535405204 -495991.65542540554 0.0
0.0 0.0 0.0

-116103.82565016209 704346.990394426 0.0
704346.990394426 -58232.18781609762 0.0
0.0 0.0 0.0

-67155.35216359263 3.2854965331734666e6 0.0
3.2854965331734666e6 -586211.1246392358 0.0
0.0 0.0 0.0

-669753.9910217328 2.79631521602477e6 0.0
2.79631521602477e6 1.353295389718658e6 0.0
0.0 0.0 0.0

-212385.60609329227 1.9945862659167098e6 0.0
1.9945862659167098e6 -514821.5686548184 0.0
0.0 0.0 0.0

-436585.4137365609 1.6879192248455295e6 0.0
1.6879192248455295e6 130956.68061457275 0.0
0.0 0.0 0.0

-2.545387354543761e6 69842.91124380013 0.0
69842.91124380013 1.7190760970533243e6 0.0
0.0 0.0 0.0

37721.956296850694 3.2584651154688243e6 0.0
3.2584651154688243e6 -614425.8672202211 0.0
0.0 0.0 0.0

492405.3115597938 214788.92690952797 0.0
214788.92690952797 -1.1069801647559032e6 0.0
0.0 0.0 0.0

-1.0591700131881156e6 2.0556311894272526e6 0.0
2.0556311894272526e6 112104.57069571206 0.0
0.0 0.0 0.0

-269967.0622853737 -354106.5047085674 0.0
-354106.5047085674 381309.76686173887 0.0
0.0 0.0 0.0

-271259.81698112556 3.219228949657628e6 0.0
3.219228949657628e6 -34047.28128751488 0.0
0.0 0.0 0.0

-1.1069685680949043e6 3.1543026458393415e6 0.0
3.1543026458393415e6 1.4452728989799055e6 0.0
0.0 0.0 0.0

-830860.8899462202 2.9591839803343886e6 0.0
2.9591839803343886e6 458822.160176207 0.0
0.0 0.0 0.0

24837.381934006175 2.3422943272640435e6 0.0
2.3422943272640435e6 -1.1368960974323493e6 0.0
0.0 0.0 0.0

-398307.5804714216 2.8694317511683325e6 0.0
2.8694317511683325e6 1.4600370728116455e6 0.0
0.0 0.0 0.0

-41619.92697571573 2.1332809790242035e6 0.0
2.1332809790242035e6 -931512.9862072202 0.0
0.0 0.0 0.0

35191.33441652855 3.2685165039947033e6 0.0
3.2685165039947033e6 -561390.498524621 0.0
0.0 0.0 0.0

-554807.4421082825 2.6620857059620847e6 0.0
2.6620857059620847e6 600186.8957856253 0.0
0.0 0.0 0.0

-335799.0923276132 2.917646704602513e6 0.0
2.917646704602513e6 108458.189492851 0.0
0.0 0.0 0.0

-306447.87327399716 3.1135135019206563e6 0.0
3.1135135019206563e6 -238290.0500703226 0.0
0.0 0.0 0.0

1.1574817684797961e6 1.0614328967850842e6 0.0
1.0614328967850842e6 -1.6857037221738307e6 0.0
0.0 0.0 0.0

-1.9499683790071285e6 4.596352280198303e6 0.0
4.596352280198303e6 1.1059644163976016e6 0.0
0.0 0.0 0.0

-481034.98679712485 2.713883481489046e6 0.0
2.713883481489046e6 505888.54274135747 0.0
0.0 0.0 0.0

-112555.82159708551 3.129872957848317e6 0.0
3.129872957848317e6 857062.9743862179 0.0
0.0 0.0 0.0

-897429.0539927308 2.646570094527712e6 0.0
2.646570094527712e6 -138520.63976560248 0.0
0.0 0.0 0.0

1.2881044682206505e6 1.1273978998622699e6 0.0
1.1273978998622699e6 -1.7969213831087374e6 0.0
0.0 0.0 0.0

-463777.1816786409 2.2459159929641658e6 0.0
2.2459159929641658e6 -296923.7855946739 0.0
0.0 0.0 0.0

-175936.18203809136 2.52776619409199e6 0.0
2.52776619409199e6 533201.8765488248 0.0
0.0 0.0 0.0

265996.24050885596 4.215403455339371e6 0.0
4.215403455339371e6 519970.787293287 0.0
0.0 0.0 0.0

-1.6644141160005936e6 2.3703799238323895e6 0.0
2.3703799238323895e6 200043.37083154893 0.0
0.0 0.0 0.0

-250189.83172721037 2.385025845848187e6 0.0
2.385025845848187e6 -492800.6995814315 0.0
0.0 0.0 0.0

799497.6804730215 197092.26617953 0.0
197092.26617953 -861709.7090346292 0.0
0.0 0.0 0.0

-281041.43616029643 -366272.56000355474 0.0
-366272.56000355474 273725.1099725032 0.0
0.0 0.0 0.0

-50637.73629805478 3.276467533483706e6 0.0
3.276467533483706e6 -625673.1061919444 0.0
0.0 0.0 0.0

-916629.8783100288 3.2401985101196636e6 0.0
3.2401985101196636e6 1.7930759649706427e6 0.0
0.0 0.0 0.0

61556.41843220785 20960.094848827564 0.0
20960.094848827564 -86213.16430817719 0.0
0.0 0.0 0.0

-511188.938694685 2.8452920927905855e6 0.0
2.8452920927905855e6 16017.314228129078 0.0
0.0 0.0 0.0

-513516.19877484883 2.8715684176763776e6 0.0
2.8715684176763776e6 401806.7828324792 0.0
0.0 0.0 0.0

50802.875685595616 2.4380955133034335e6 0.0
2.4380955133034335e6 -1.1378295551211757e6 0.0
0.0 0.0 0.0

-1.7917276651280804e6 4.3543844367737975e6 0.0
4.3543844367737975e6 1.2222761206836835e6 0.0
0.0 0.0 0.0

-1.1454367911886787e6 4.638177212923098e6 0.0
4.638177212923098e6 705737.3027398728 0.0
0.0 0.0 0.0

-2.4329568635002016e6 5.907316420949145e6 0.0
5.907316420949145e6 1.1406790478698593e6 0.0
0.0 0.0 0.0

-2.686296732618073e6 1.7528479514390295e6 0.0
1.7528479514390295e6 763715.8032208257 0.0
0.0 0.0 0.0

-206543.1942872028 2.8154152286550077e6 0.0
2.8154152286550077e6 -202922.28339612042 0.0
0.0 0.0 0.0

471870.78809280484 4.1256404652541154e6 0.0
4.1256404652541154e6 -1.2208163363103902e6 0.0
0.0 0.0 0.0

555594.8927208532 -1789.7933297520888 0.0
-1789.7933297520888 -562375.789809802 0.0
0.0 0.0 0.0

-555246.4561087834 2.0460431354169317e6 0.0
2.0460431354169317e6 -788069.3339199538 0.0
0.0 0.0 0.0

-308427.53163631936 2.0143526618404575e6 0.0
2.0143526618404575e6 -875240.1609789528 0.0
0.0 0.0 0.0

-99982.35798177426 2.9084739272797494e6 0.0
2.9084739272797494e6 -167995.8589195888 0.0
0.0 0.0 0.0

134436.08637599042 3.573578826932354e6 0.0
3.573578826932354e6 -808754.3408711483 0.0
0.0 0.0 0.0

163231.13476864056 3.266414815442694e6 0.0
3.266414815442694e6 -1.0227825104757544e6 0.0
0.0 0.0 0.0

-590145.7245607771 3.0612654235243625e6 0.0
3.0612654235243625e6 1.552849050615884e6 0.0
0.0 0.0 0.0

-566018.6999420273 2.795618699320731e6 0.0
2.795618699320731e6 538899.7108772614 0.0
0.0 0.0 0.0

911441.0508425757 1.2835895002546436e6 0.0
1.2835895002546436e6 -1.4893941793019655e6 0.0
0.0 0.0 0.0

-58219.89084885456 3.282623655068928e6 0.0
3.282623655068928e6 -597571.1646477764 0.0
0.0 0.0 0.0

-792595.4129973388 2.7888542515729624e6 0.0
2.7888542515729624e6 494633.41148519295 0.0
0.0 0.0 0.0

162655.36852501868 3.1559989575321237e6 0.0
3.1559989575321237e6 -668766.4817952202 0.0
0.0 0.0 0.0

826024.3001364747 359722.71298945346 0.0
359722.71298945346 -1.1206323749509784e6 0.0
0.0 0.0 0.0

-1.5355519567393633e6 2.9831140980778793e6 0.0
2.9831140980778793e6 631645.9859040306 0.0
0.0 0.0 0.0

-1.5060307083931055e6 2.6903910855362467e6 0.0
2.6903910855362467e6 402047.4611252196 0.0
0.0 0.0 0.0

-955149.5656436335 309126.37203862116 0.0
309126.37203862116 1.2687623163599828e6 0.0
0.0 0.0 0.0

-17220.82105573293 2.6837320814739764e6 0.0
2.6837320814739764e6 -496266.34134858917 0.0
0.0 0.0 0.0

-324233.0540534302 2.767399750635039e6 0.0
2.767399750635039e6 773690.1760656795 0.0
0.0 0.0 0.0

-2.0914976901294214e6 2.4390712960121264e6 0.0
2.4390712960121264e6 531505.9460054951 0.0
0.0 0.0 0.0

-395569.0603492352 1.7141458162602237e6 0.0
1.7141458162602237e6 419608.5277640944 0.0
0.0 0.0 0.0

297838.99256579747 23750.614964952358 0.0
23750.614964952358 -377693.5891438918 0.0
0.0 0.0 0.0

-1.5172258321662159e6 2.592855381899138e6 0.0
2.592855381899138e6 256822.94021335652 0.0
0.0 0.0 0.0

-1.6243936314489841e6 3.948149554186338e6 0.0
3.948149554186338e6 1.1212716251584175e6 0.0
0.0 0.0 0.0

-697810.5685235423 2.427719850131851e6 0.0
2.427719850131851e6 -36126.242356318486 0.0
0.0 0.0 0.0

-1.7421386631960457e6 4.563606540192621e6 0.0
4.563606540192621e6 1.1661943996207619e6 0.0
0.0 0.0 0.0

-1.8077567892676564e6 4.375072300970768e6 0.0
4.375072300970768e6 1.0900823698839229e6 0.0
0.0 0.0 0.0

-211948.45226037744 3.1861912293584356e6 0.0
3.1861912293584356e6 125032.4079410971 0.0
0.0 0.0 0.0

14392.68965549814 2.182701942916555e6 0.0
2.182701942916555e6 47975.7191075942 0.0
0.0 0.0 0.0

701994.4450204227 1.227887084708161e6 0.0
1.227887084708161e6 -1.549408647112327e6 0.0
0.0 0.0 0.0

-343401.50053994294 1.7711800497632786e6 0.0
1.7711800497632786e6 -242470.64834014678 0.0
0.0 0.0 0.0

-370399.17001194425 3.025304034328128e6 0.0
3.025304034328128e6 -264222.74787992344 0.0
0.0 0.0 0.0

-1.2899387441812493e6 3.222596093792639e6 0.0
3.222596093792639e6 -917597.4387578815 0.0
0.0 0.0 0.0

-215228.68443611416 3.182913600424007e6 0.0
3.182913600424007e6 -1.1641270431658307e6 0.0
0.0 0.0 0.0

-855341.9622121076 1.4205968984275938e6 0.0
1.4205968984275938e6 -475668.0310290192 0.0
0.0 0.0 0.0

-434455.28082168486 3.065547221881169e6 0.0
3.065547221881169e6 -115270.28840737008 0.0
0.0 0.0 0.0

-496642.0812509933 -569299.7924751097 0.0
-569299.7924751097 596784.6341371037 0.0
0.0 0.0 0.0

-1.169993783907593e6 4.460117768720094e6 0.0
4.460117768720094e6 838966.9653796955 0.0
0.0 0.0 0.0

-1.070297066967175e6 3.9147562067282484e6 0.0
3.9147562067282484e6 -359141.6933515925 0.0
0.0 0.0 0.0

-303435.3066671755 2.443636486491047e6 0.0
2.443636486491047e6 -417198.9389652534 0.0
0.0 0.0 0.0

-1.3448488595405268e6 2.1381959336967207e6 0.0
2.1381959336967207e6 -14951.90292993869 0.0
0.0 0.0 0.0

235758.8151722816 171961.21094770732 0.0
171961.21094770732 -226177.12321019985 0.0
0.0 0.0 0.0

837716.9936645727 1.5377741332979107e6 0.0
1.5377741332979107e6 -1.5084583987689323e6 0.0
0.0 0.0 0.0

-1.3739792370682175e6 1.964069192683908e6 0.0
1.964069192683908e6 -10319.092148353055 0.0
0.0 0.0 0.0

7674.367023582134 3.2106124632559773e6 0.0
3.2106124632559773e6 -560117.1951039468 0.0
0.0 0.0 0.0

491674.5566918863 218585.46575144652 0.0
218585.46575144652 -883908.2437068988 0.0
0.0 0.0 0.0

-987448.0164382779 2.595927461462532e6 0.0
2.595927461462532e6 366518.13803882664 0.0
0.0 0.0 0.0

-968183.6042316267 3.980915358668019e6 0.0
3.980915358668019e6 798214.6866157355 0.0
0.0 0.0 0.0

-1.6633905458951234e6 -254331.8966506252 0.0
-254331.8966506252 2.094307480512378e6 0.0
0.0 0.0 0.0

-935827.4984638297 2.6488224990254617e6 0.0
2.6488224990254617e6 -50309.13605074957 0.0
0.0 0.0 0.0

-192982.34464021825 2.2717108277614145e6 0.0
2.2717108277614145e6 -626656.426635427 0.0
0.0 0.0 0.0

432120.6414166551 1.2275570625568482e6 0.0
1.2275570625568482e6 -1.3850588602123908e6 0.0
0.0 0.0 0.0

-113590.2200463448 216341.36927988054 0.0
216341.36927988054 -642002.8989335374 0.0
0.0 0.0 0.0

-234854.3682955011 2.3371439884761823e6 0.0
2.3371439884761823e6 -609539.9071296831 0.0
0.0 0.0 0.0

-889456.7604434686 2.725038700377751e6 0.0
2.725038700377751e6 -360720.6185870135 0.0
0.0 0.0 0.0

-1.7165769589233033e6 5.842527156288516e6 0.0
5.842527156288516e6 1.3538276794850775e6 0.0
0.0 0.0 0.0

-365449.377227688 2.447483149855933e6 0.0
2.447483149855933e6 1.0410108659106754e6 0.0
0.0 0.0 0.0

131229.1256903752 2.659207681051025e6 0.0
2.659207681051025e6 -192167.68966465618 0.0
0.0 0.0 0.0

-188594.06121601717 2.580194865492906e6 0.0
2.580194865492906e6 -345295.0366880136 0.0
0.0 0.0 0.0

104348.58020663631 3.102973227203265e6 0.0
3.102973227203265e6 347828.5804613338 0.0
0.0 0.0 0.0

-1.2707141828422765e6 274009.9904645127 0.0
274009.9904645127 1.6045510623725865e6 0.0
0.0 0.0 0.0

-203214.06266973546 2.7434488464715956e6 0.0
2.7434488464715956e6 -970139.9961582669 0.0
0.0 0.0 0.0

-2.784493155537202e6 1.227329393677944e6 0.0
1.227329393677944e6 768982.7971560555 0.0
0.0 0.0 0.0

-68191.39336399519 -130277.25238987844 0.0
-130277.25238987844 125397.41034664062 0.0
0.0 0.0 0.0

-553379.386780635 -527777.653480572 0.0
-527777.653480572 787611.1309120203 0.0
0.0 0.0 0.0

-570293.7786888612 1.682584483531423e6 0.0
1.682584483531423e6 -362747.7507972832 0.0
0.0 0.0 0.0

-296848.95760172454 437816.1544704165 0.0
437816.1544704165 9635.300670634359 0.0
0.0 0.0 0.0

890113.4942427613 1.7715738909498246e6 0.0
1.7715738909498246e6 -1.7094182222440827e6 0.0
0.0 0.0 0.0

-2.2953788986980915e6 -30930.14980997765 0.0
-30930.14980997765 2.704114763529741e6 0.0
0.0 0.0 0.0

442146.95200302533 2.0776331565223534e6 0.0
2.0776331565223534e6 -1.5207227321749055e6 0.0
0.0 0.0 0.0

-20869.510764589075 35305.83733908685 0.0
35305.83733908685 55470.99374058033 0.0
0.0 0.0 0.0

-1.2414313796027675e6 2.6524867052009124e6 0.0
2.6524867052009124e6 336038.04552449525 0.0
0.0 0.0 0.0

-940589.9085458966 4.0840924129805565e6 0.0
4.0840924129805565e6 757974.9280229569 0.0
0.0 0.0 0.0

-1.6954287625143211e6 2.6632748799130395e6 0.0
2.6632748799130395e6 541297.3142637253 0.0
0.0 0.0 0.0

-2.583489833903913e6 5.487625256593595e6 0.0
5.487625256593595e6 1.3076737797510696e6 0.0
0.0 0.0 0.0

-2.1172405528415134e6 4.956327136312517e6 0.0
4.956327136312517e6 1.1550908851584978e6 0.0
0.0 0.0 0.0

-199723.05474470946 -320131.09204152005 0.0
-320131.09204152005 177460.4404150499 0.0
0.0 0.0 0.0

1.2604283983191773e6 1.1689008706965114e6 0.0
1.1689008706965114e6 -1.8217849453838952e6 0.0
0.0 0.0 0.0

-316903.78781244333 2.582743992867037e6 0.0
2.582743992867037e6 -360194.9152658335 0.0
0.0 0.0 0.0

-933079.4730005325 2.9507101606632425e6 0.0
2.9507101606632425e6 628633.721527347 0.0
0.0 0.0 0.0

-2136.1417611774814 1.8214325771035685e6 0.0
1.8214325771035685e6 -761229.4084117394 0.0
0.0 0.0 0.0

-498230.46101641597 2.0652253379812827e6 0.0
2.0652253379812827e6 -1.0012333975658698e6 0.0
0.0 0.0 0.0

-182745.2285906327 3.237698658547817e6 0.0
3.237698658547817e6 -609150.7662009227 0.0
0.0 0.0 0.0

-628939.9407575548 2.301053524082928e6 0.0
2.301053524082928e6 99300.24060418215 0.0
0.0 0.0 0.0

-814804.3879305235 2.552042929943587e6 0.0
2.552042929943587e6 -26847.712426764512 0.0
0.0 0.0 0.0

-233157.3987490015 2.894948455205802e6 0.0
2.894948455205802e6 -907890.3144847098 0.0
0.0 0.0 0.0

-700352.6685017355 2.990482261494326e6 0.0
2.990482261494326e6 423894.46668518096 0.0
0.0 0.0 0.0

1.2902753853692338e6 1.0920792448065057e6 0.0
1.0920792448065057e6 -1.7554871788939969e6 0.0
0.0 0.0 0.0

-471353.28047120874 2.780353432757385e6 0.0
2.780353432757385e6 -307163.17418733763 0.0
0.0 0.0 0.0

535209.9919561123 1.357839870427838e6 0.0
1.357839870427838e6 -1.5319884104096992e6 0.0
0.0 0.0 0.0

-11398.530315703254 955107.285530953 0.0
955107.285530953 -169770.73804260168 0.0
0.0 0.0 0.0

-689838.4005368496 2.7299500239620684e6 0.0
2.7299500239620684e6 244092.63324714758 0.0
0.0 0.0 0.0

-207562.29434580624 -308339.0372832696 0.0
-308339.0372832696 -375640.4175479115 0.0
0.0 0.0 0.0

-1.2717055542810862e6 2.5578377503931983e6 0.0
2.5578377503931983e6 348599.51389732515 0.0
0.0 0.0 0.0

-164812.45931171178 2.1938154052329944e6 0.0
2.1938154052329944e6 -752809.7692955163 0.0
0.0 0.0 0.0

902559.024535375 1.9758956217773114e6 0.0
1.9758956217773114e6 -1.899407457604597e6 0.0
0.0 0.0 0.0

-524731.7502799769 3.2092935592238633e6 0.0
3.2092935592238633e6 -381674.7935963262 0.0
0.0 0.0 0.0

-1.2869298542593406e6 3.509594828977437e6 0.0
3.509594828977437e6 -690582.5390131412 0.0
0.0 0.0 0.0

-1.4984211668584822e6 1.7864511295111582e6 0.0
1.7864511295111582e6 -20112.10534927249 0.0
0.0 0.0 0.0

-933082.0917142943 3.7446889676101375e6 0.0
3.7446889676101375e6 99437.31195011706 0.0
0.0 0.0 0.0

273577.2095561803 2.868225460694137e6 0.0
2.868225460694137e6 -1.0372211370624187e6 0.0
0.0 0.0 0.0

-272799.63516505505 2.0180906544642174e6 0.0
2.0180906544642174e6 -909332.1342661328 0.0
0.0 0.0 0.0

-1.231527224490248e6 3.792477867588498e6 0.0
3.792477867588498e6 -340605.32015993196 0.0
0.0 0.0 0.0

-105151.5748142483 1.8131611155435052e6 0.0
1.8131611155435052e6 -350505.2255864083 0.0
0.0 0.0 0.0

-373134.1869419905 1.2797720720779502e6 0.0
1.2797720720779502e6 613942.7828977243 0.0
0.0 0.0 0.0

616055.2600130758 2214.114521933985 0.0
2214.114521933985 -632302.1673441096 0.0
0.0 0.0 0.0

-1.5185265210546767e6 3.9759653973658434e6 0.0
3.9759653973658434e6 1.0787734093666056e6 0.0
0.0 0.0 0.0

-505260.98087600817 2.0046063797801668e6 0.0
2.0046063797801668e6 160632.20346007645 0.0
0.0 0.0 0.0

86368.73542068551 40172.22108724697 0.0
40172.22108724697 -203809.1322049531 0.0
0.0 0.0 0.0

49588.88002800738 2.397882288281216e6 0.0
2.397882288281216e6 -1.1799103749953853e6 0.0
0.0 0.0 0.0

-1.5930212151783812e6 3.2171747532508858e6 0.0
3.2171747532508858e6 744911.9406616283 0.0
0.0 0.0 0.0

-74298.05497570042 3.2774889316239343e6 0.0
3.2774889316239343e6 -574800.2349659589 0.0
0.0 0.0 0.0

-840331.3995718483 2.618219958881617e6 0.0
2.618219958881617e6 108816.27558889048 0.0
0.0 0.0 0.0

-1.45659968397167e6 3.471709282008935e6 0.0
3.471709282008935e6 195710.65523344255 0.0
0.0 0.0 0.0

-249447.93051327424 2.03336689812244e6 0.0
2.03336689812244e6 -831493.0764505622 0.0
0.0 0.0 0.0

-557743.232615588 2.908823618059711e6 0.0
2.908823618059711e6 857215.5893285377 0.0
0.0 0.0 0.0

-1.1972309522230844e6 1.4469913269192234e6 0.0
1.4469913269192234e6 2357.1214138121577 0.0
0.0 0.0 0.0

952282.9810113523 214671.7856860906 0.0
214671.7856860906 -1.0610926144772354e6 0.0
0.0 0.0 0.0

-3.5852105126643684e6 -499505.72174275364 0.0
-499505.72174275364 4.0847254508744385e6 0.0
0.0 0.0 0.0

-405592.39908977237 3.269295399489096e6 0.0
3.269295399489096e6 52573.61196507985 0.0
0.0 0.0 0.0

-1.8270821197038474e6 5.422967885176022e6 0.0
5.422967885176022e6 1.0693044703530306e6 0.0
0.0 0.0 0.0

-165350.8368088984 2.6885349690567898e6 0.0
2.6885349690567898e6 -551169.3772587595 0.0
0.0 0.0 0.0

-542679.4172175052 3.449909867259426e6 0.0
3.449909867259426e6 1.28663350336321e6 0.0
0.0 0.0 0.0

-1.1265054316181426e6 3.641392628002975e6 0.0
3.641392628002975e6 136176.90627613314 0.0
0.0 0.0 0.0

-1.3099105574782193e6 5.152692985163773e6 0.0
5.152692985163773e6 834099.7106296105 0.0
0.0 0.0 0.0

-340647.0329317165 3.069597276983322e6 0.0
3.069597276983322e6 1.1003615731321059e6 0.0
0.0 0.0 0.0

1.1484707093143133e6 1.5769955008490002e6 0.0
1.5769955008490002e6 -1.8417851959420845e6 0.0
0.0 0.0 0.0

-816650.6479544387 2.743690057324387e6 0.0
2.743690057324387e6 -84281.51500949665 0.0
0.0 0.0 0.0

-69205.28327109685 3.323549133923108e6 0.0
3.323549133923108e6 -545933.359574052 0.0
0.0 0.0 0.0

-66961.63192781695 1.7921074990179422e6 0.0
1.7921074990179422e6 -223205.4644991545 0.0
0.0 0.0 0.0

-420123.76940606383 3.0615384753542654e6 0.0
3.0615384753542654e6 -339580.3589189382 0.0
0.0 0.0 0.0

1.2930752308822582e6 1.1508551562584317e6 0.0
1.1508551562584317e6 -1.8129343654262456e6 0.0
0.0 0.0 0.0

-1.117388160976076e6 2.9118411231976906e6 0.0
2.9118411231976906e6 583255.6648408533 0.0
0.0 0.0 0.0

-601402.0534420756 3.1914320255580926e6 0.0
3.1914320255580926e6 51609.11674150769 0.0
0.0 0.0 0.0

-237092.46088487015 4.500332349574223e6 0.0
4.500332349574223e6 -448461.9450070093 0.0
0.0 0.0 0.0

-56048.545148493315 1.3168274305144837e6 0.0
1.3168274305144837e6 391775.6388745727 0.0
0.0 0.0 0.0

-207124.55235108448 2.038852064977857e6 0.0
2.038852064977857e6 619070.6683100393 0.0
0.0 0.0 0.0

-875461.8298527839 3.7150948531754217e6 0.0
3.7150948531754217e6 345542.6448506581 0.0
0.0 0.0 0.0

-1.5764628719691718e6 4.0112865768484347e6 0.0
4.0112865768484347e6 1.0726825182837425e6 0.0
0.0 0.0 0.0

-821199.215004459 -453278.5400400432 0.0
-453278.5400400432 1.2522477068309318e6 0.0
0.0 0.0 0.0

-217840.47688142367 3.4273130609751293e6 0.0
3.4273130609751293e6 800.9935150657548 0.0
0.0 0.0 0.0

-908676.6865486348 2.400620665912245e6 0.0
2.400620665912245e6 -31607.44972817035 0.0
0.0 0.0 0.0

-598735.3988022469 459117.104952751 0.0
459117.104952751 -176508.0138463414 0.0
0.0 0.0 0.0

-1.0995293769278275e6 3.116877192494229e6 0.0
3.116877192494229e6 1.4774812290182125e6 0.0
0.0 0.0 0.0

-2.1936025855582766e6 1.1414416377485164e6 0.0
1.1414416377485164e6 956363.1559936688 0.0
0.0 0.0 0.0

-2250.826453021815 3.1424205628461237e6 0.0
3.1424205628461237e6 -594993.9832431868 0.0
0.0 0.0 0.0

422229.3088041039 245664.2871868609 0.0
245664.2871868609 -1.0584868761340284e6 0.0
0.0 0.0 0.0

-827085.6120083936 2.4472746624607155e6 0.0
2.4472746624607155e6 2.4960831999823167e6 0.0
0.0 0.0 0.0

-971180.3093748427 3.4339301610476878e6 0.0
3.4339301610476878e6 742519.4770247042 0.0
0.0 0.0 0.0

-371680.2617835563 5.807351892329317e6 0.0
5.807351892329317e6 630678.5548731454 0.0
0.0 0.0 0.0

-250561.3021912105 2.0393741468221345e6 0.0
2.0393741468221345e6 -835204.335932195 0.0
0.0 0.0 0.0

-275907.2233922095 2.3248024620440667e6 0.0
2.3248024620440667e6 -400552.15710395697 0.0
0.0 0.0 0.0

-855129.8041073084 999093.911633015 0.0
999093.911633015 167559.3075011833 0.0
0.0 0.0 0.0

33044.235664474836 2.416792018083016e6 0.0
2.416792018083016e6 -1.1672742150108877e6 0.0
0.0 0.0 0.0

-885862.8922771541 2.811608387066736e6 0.0
2.811608387066736e6 551521.2707779284 0.0
0.0 0.0 0.0

-515156.08197452663 2.7471473717913576e6 0.0
2.7471473717913576e6 1.5789090750191952e6 0.0
0.0 0.0 0.0

-779479.7616695769 2.779515867988437e6 0.0
2.779515867988437e6 458135.4765882646 0.0
0.0 0.0 0.0

-575376.1817597728 3.1975595456286366e6 0.0
3.1975595456286366e6 10295.633041259076 0.0
0.0 0.0 0.0

-449008.2668695974 54549.49425379666 0.0
54549.49425379666 1.2365133694172087e6 0.0
0.0 0.0 0.0

117036.22962625427 878654.5517994852 0.0
878654.5517994852 690834.8124300743 0.0
0.0 0.0 0.0

-588632.3552091973 3.676215331020117e6 0.0
3.676215331020117e6 193370.2703609687 0.0
0.0 0.0 0.0

15032.017158030561 3.277043349185408e6 0.0
3.277043349185408e6 -621826.3864424414 0.0
0.0 0.0 0.0

179312.40934348942 4.500070593440161e6 0.0
4.500070593440161e6 651204.04161609 0.0
0.0 0.0 0.0

-38757.6288098814 10618.356060440112 0.0
10618.356060440112 12803.930363348336 0.0
0.0 0.0 0.0

-880272.6098503158 3.262537557223397e6 0.0
3.262537557223397e6 -405047.07411736227 0.0
0.0 0.0 0.0

-1.6231736918693276e6 2.145717759626812e6 0.0
2.145717759626812e6 694451.2279485064 0.0
0.0 0.0 0.0

-1.4740388940799218e6 1.8505829963917073e6 0.0
1.8505829963917073e6 -938269.1282086347 0.0
0.0 0.0 0.0

1.3810797936034384e6 1.7398816893277555e6 0.0
1.7398816893277555e6 -1.457204241263608e6 0.0
0.0 0.0 0.0

-4.407718066698762e6 -1.3140035582185462e6 0.0
-1.3140035582185462e6 4.544707655194069e6 0.0
0.0 0.0 0.0

-556145.1690857997 2.6596600795198805e6 0.0
2.6596600795198805e6 355123.01668151526 0.0
0.0 0.0 0.0

-1.3035422298998004e6 3.832828323743965e6 0.0
3.832828323743965e6 231947.42767581908 0.0
0.0 0.0 0.0

-869429.0892390118 2.6714529317991678e6 0.0
2.6714529317991678e6 37142.8201098133 0.0
0.0 0.0 0.0

-980206.3788647803 2.662287675212107e6 0.0
2.662287675212107e6 327673.4099835117 0.0
0.0 0.0 0.0

-356749.7835963146 1.9402934224540319e6 0.0
1.9402934224540319e6 -386334.3326741244 0.0
0.0 0.0 0.0

-129621.17575387353 3.410733281508554e6 0.0
3.410733281508554e6 -321304.66862756625 0.0
0.0 0.0 0.0

-217411.6486967496 2.053016552049336e6 0.0
2.053016552049336e6 -856990.437178857 0.0
0.0 0.0 0.0

47317.70292473768 4.0547693698784434e6 0.0
4.0547693698784434e6 -733309.0112317307 0.0
0.0 0.0 0.0

116743.61075743151 1.3599307121561691e6 0.0
1.3599307121561691e6 -210038.30588186672 0.0
0.0 0.0 0.0

-1.1417200369405583e6 5.478684472018152e6 0.0
5.478684472018152e6 649128.1622901072 0.0
0.0 0.0 0.0

-281537.99968036235 2.0958205725909683e6 0.0
2.0958205725909683e6 -938459.9380818097 0.0
0.0 0.0 0.0

-770355.4743949065 3.4468506369144493e6 0.0
3.4468506369144493e6 1.402230735956421e6 0.0
0.0 0.0 0.0

-278714.51644091983 2.33354076193674e6 0.0
2.33354076193674e6 -633400.5590039738 0.0
0.0 0.0 0.0

-1.4692554628315337e6 3.9345343946748166e6 0.0
3.9345343946748166e6 1.1147099173778656e6 0.0
0.0 0.0 0.0

-49396.93057651009 2.7653560681914366e6 0.0
2.7653560681914366e6 -989222.9657114197 0.0
0.0 0.0 0.0

-2.7837854079975714e6 292008.84692615696 0.0
292008.84692615696 1.9185165023521732e6 0.0
0.0 0.0 0.0

-10967.149377542544 -152766.57687058224 0.0
-152766.57687058224 12975.032215588566 0.0
0.0 0.0 0.0

-291688.19546807033 1.4859936845835063e6 0.0
1.4859936845835063e6 413834.72206435085 0.0
0.0 0.0 0.0

-85825.48730493168 2.7842651167218257e6 0.0
2.7842651167218257e6 -759262.975267298 0.0
0.0 0.0 0.0

-538156.4875134671 2.462002365022983e6 0.0
2.462002365022983e6 139455.37931009135 0.0
0.0 0.0 0.0

-1.0971017475616578e6 3.0632120895782188e6 0.0
3.0632120895782188e6 689110.3787664839 0.0
0.0 0.0 0.0

-674954.244541538 3.1384685967914467e6 0.0
3.1384685967914467e6 139711.82091401544 0.0
0.0 0.0 0.0

-275140.2606074377 4.994906285523076e6 0.0
4.994906285523076e6 373903.0292468561 0.0
0.0 0.0 0.0

-1.6142478594553496e6 2.0413433645192946e6 0.0
2.0413433645192946e6 163947.0167151381 0.0
0.0 0.0 0.0

-712064.109997 3.5508917298180503e6 0.0
3.5508917298180503e6 214873.20742212233 0.0
0.0 0.0 0.0

-389353.0802961921 3.03760735000236e6 0.0
3.03760735000236e6 -318289.21610029635 0.0
0.0 0.0 0.0

-1.9333812959511245e6 2.626296538117601e6 0.0
2.626296538117601e6 484489.73447354755 0.0
0.0 0.0 0.0

-424042.1568537508 1.6287179514702393e6 0.0
1.6287179514702393e6 293454.7435389736 0.0
0.0 0.0 0.0

-456157.3386472527 1.2737288841023326e6 0.0
1.2737288841023326e6 362815.88543994026 0.0
0.0 0.0 0.0

19615.9157801119 866336.2578110998 0.0
866336.2578110998 -16298.117193805241 0.0
0.0 0.0 0.0

-135693.7356528462 1.839752010677009e6 0.0
1.839752010677009e6 -296110.670590703 0.0
0.0 0.0 0.0

-346392.27755628846 3.0771331201298623e6 0.0
3.0771331201298623e6 -261466.0442515772 0.0
0.0 0.0 0.0

-168888.82571882766 572385.9302010736 0.0
572385.9302010736 -431500.38559398154 0.0
0.0 0.0 0.0

-2.0212755859382425e6 2.8388822064202284e6 0.0
2.8388822064202284e6 929375.6531898112 0.0
0.0 0.0 0.0

868306.3263399373 2.2308181116043837e6 0.0
2.2308181116043837e6 -2.1439228334728475e6 0.0
0.0 0.0 0.0

-593344.7943996531 2.2403301253594654e6 0.0
2.2403301253594654e6 69939.59741188306 0.0
0.0 0.0 0.0

144338.63840713724 3.7252424102822975e6 0.0
3.7252424102822975e6 -556248.2386840768 0.0
0.0 0.0 0.0

1.2721604159036134e6 1.1375404639938176e6 0.0
1.1375404639938176e6 -1.8281982172795087e6 0.0
0.0 0.0 0.0

-553910.7058953169 6.836515532061015e6 0.0
6.836515532061015e6 726445.7118436443 0.0
0.0 0.0 0.0

601670.9700374523 1.3517344677810364e6 0.0
1.3517344677810364e6 -1.290431821854985e6 0.0
0.0 0.0 0.0

-4.71142364080112e6 -155321.4344989565 0.0
-155321.4344989565 5.276306943519177e6 0.0
0.0 0.0 0.0

-73277.40220666482 1.158533760071158e6 0.0
1.158533760071158e6 533723.7731848347 0.0
0.0 0.0 0.0

-496414.3276142419 3.0437183954325714e6 0.0
3.0437183954325714e6 -104743.61759711229 0.0
0.0 0.0 0.0

-789970.5915153247 2.6008542906732755e6 0.0
2.6008542906732755e6 544970.7733777824 0.0
0.0 0.0 0.0

-211805.64100401214 1.2567631226240469e6 0.0
1.2567631226240469e6 565057.4815933092 0.0
0.0 0.0 0.0

-1.2195508922934597e6 2.642496171241812e6 0.0
2.642496171241812e6 400476.2811523354 0.0
0.0 0.0 0.0

298862.4798032427 3.1230241781355296e6 0.0
3.1230241781355296e6 996208.311965947 0.0
0.0 0.0 0.0

514087.98556172627 3926.8983472770256 0.0
3926.8983472770256 -545971.1156437795 0.0
0.0 0.0 0.0

-482173.3945257882 2.5831526092753643e6 0.0
2.5831526092753643e6 -126930.5573053708 0.0
0.0 0.0 0.0

550244.0209802655 3.3561712370696883e6 0.0
3.3561712370696883e6 -1.7179184530679374e6 0.0
0.0 0.0 0.0

-1.9133010150638102e6 1.993100018051013e6 0.0
1.993100018051013e6 364590.334129978 0.0
0.0 0.0 0.0

-986157.0386207424 3.77349660290339e6 0.0
3.77349660290339e6 591520.2109262666 0.0
0.0 0.0 0.0

-285779.58856557147 2.794491603153637e6 0.0
2.794491603153637e6 -285222.78132710315 0.0
0.0 0.0 0.0

-177653.35593245848 1.2253167155804085e6 0.0
1.2253167155804085e6 316810.0138318051 0.0
0.0 0.0 0.0

-1.8328618874690745e6 1.564347206358672e6 0.0
1.564347206358672e6 594449.6363790743 0.0
0.0 0.0 0.0

-674539.8900603901 2.9644824938946124e6 0.0
2.9644824938946124e6 184951.25025099382 0.0
0.0 0.0 0.0

106619.95312444854 2.7990754800866204e6 0.0
2.7990754800866204e6 -1.0986437237742927e6 0.0
0.0 0.0 0.0

-2.18484719263499e6 1.8141874008500685e6 0.0
1.8141874008500685e6 795404.1017254108 0.0
0.0 0.0 0.0

203688.52546183296 6.864460907959256e6 0.0
6.864460907959256e6 155056.28353693313 0.0
0.0 0.0 0.0

-395778.70584240137 2.6809147329292228e6 0.0
2.6809147329292228e6 -291470.1487508604 0.0
0.0 0.0 0.0

-15393.610062043648 1.7809829624460016e6 0.0
1.7809829624460016e6 -1.1314312414811368e6 0.0
0.0 0.0 0.0

64451.95961271587 3.735243196876855e6 0.0
3.735243196876855e6 -534590.8255628502 0.0
0.0 0.0 0.0

-594715.9080708143 5.6960030069874665e6 0.0
5.6960030069874665e6 693709.0649710351 0.0
0.0 0.0 0.0

-244036.31779010495 2.284029706536184e6 0.0
2.284029706536184e6 -679412.5122604043 0.0
0.0 0.0 0.0

-1.678234845728105e6 4.672203317346893e6 0.0
4.672203317346893e6 1.1082969399825796e6 0.0
0.0 0.0 0.0

624983.3273442353 2.5607696891212473e6 0.0
2.5607696891212473e6 -1.57131460863364e6 0.0
0.0 0.0 0.0

-2445.6120402627857 3.2101060636231634e6 0.0
3.2101060636231634e6 -496498.6727829949 0.0
0.0 0.0 0.0

-1.3287356429072365e6 1.4217361393190043e6 0.0
1.4217361393190043e6 281389.9970743972 0.0
0.0 0.0 0.0

-1.40760271017623e6 2.6771446616497543e6 0.0
2.6771446616497543e6 434028.0555253582 0.0
0.0 0.0 0.0

-66749.08628188347 2.8353929995463733e6 0.0
2.8353929995463733e6 695339.735668796 0.0
0.0 0.0 0.0

-1.9817195906011602e6 2.7791706913589966e6 0.0
2.7791706913589966e6 709081.2573258671 0.0
0.0 0.0 0.0

-80163.73198989524 2.1339021704863897e6 0.0
2.1339021704863897e6 158809.79333825927 0.0
0.0 0.0 0.0

-240637.4038430549 -387377.1635783856 0.0
-387377.1635783856 -333155.99024096824 0.0
0.0 0.0 0.0

-996240.8421503853 5.852177584979124e6 0.0
5.852177584979124e6 994333.0012176981 0.0
0.0 0.0 0.0

-160867.77081171324 2.2249943054172937e6 0.0
2.2249943054172937e6 -697693.6892229565 0.0
0.0 0.0 0.0

1.2818677044445244e6 1.215801979734056e6 0.0
1.215801979734056e6 -1.870811336841758e6 0.0
0.0 0.0 0.0

-841210.1218549386 2.2682086485096593e6 0.0
2.2682086485096593e6 537734.8574018744 0.0
0.0 0.0 0.0

-239954.37881121872 927325.1188735473 0.0
927325.1188735473 -182662.55269614936 0.0
0.0 0.0 0.0

-416474.86502022785 2.0831379246328569e6 0.0
2.0831379246328569e6 -383685.7643967379 0.0
0.0 0.0 0.0

-1.0247560794750792e6 1.721295991516971e6 0.0
1.721295991516971e6 84470.63833363802 0.0
0.0 0.0 0.0

-306110.93410374585 3.011618674908041e6 0.0
3.011618674908041e6 -282615.96630113863 0.0
0.0 0.0 0.0

-611385.3182603023 3.515439814972019e6 0.0
3.515439814972019e6 269879.94862148806 0.0
0.0 0.0 0.0

1.2316434092464135e6 1.1979772049216144e6 0.0
1.1979772049216144e6 -1.7654864426285352e6 0.0
0.0 0.0 0.0

-936548.5778847862 2.8530665520352605e6 0.0
2.8530665520352605e6 596331.2609198894 0.0
0.0 0.0 0.0

-734172.3949740657 2.266311689528579e6 0.0
2.266311689528579e6 -70432.39392453802 0.0
0.0 0.0 0.0

-1.08650343756724e6 3.9454391421317086e6 0.0
3.9454391421317086e6 111466.64817223942 0.0
0.0 0.0 0.0

-589804.5633982106 5.10587402638823e6 0.0
5.10587402638823e6 560547.234992845 0.0
0.0 0.0 0.0

-524715.5622461304 2.9800248941771975e6 0.0
2.9800248941771975e6 -32568.529571830964 0.0
0.0 0.0 0.0

-354529.30971405527 2.8578596996177062e6 0.0
2.8578596996177062e6 210680.5352506045 0.0
0.0 0.0 0.0

-1.0577688571397562e7 1.3963766817791138e6 0.0
1.3963766817791138e6 1.5069564428947158e7 0.0
0.0 0.0 0.0

-2.4139457990575605e6 2.345010043586557e6 0.0
2.345010043586557e6 641421.5437648358 0.0
0.0 0.0 0.0

-342756.5889030639 2.6736749994349447e6 0.0
2.6736749994349447e6 -283085.4686417767 0.0
0.0 0.0 0.0

727518.507403408 1.5492428682823125e6 0.0
1.5492428682823125e6 -1.3359698771062694e6 0.0
0.0 0.0 0.0

859524.1315286906 1.3817471783008946e6 0.0
1.3817471783008946e6 -1.4547742627671408e6 0.0
0.0 0.0 0.0

1.2192472639448647e6 1.0579977519630522e6 0.0
1.0579977519630522e6 -1.7009394723428404e6 0.0
0.0 0.0 0.0

-562317.9973768346 2.3330570773991263e6 0.0
2.3330570773991263e6 294088.9963949378 0.0
0.0 0.0 0.0

1.1816319682835005e6 1.0135511516899709e6 0.0
1.0135511516899709e6 -1.633504131652778e6 0.0
0.0 0.0 0.0

-141091.3019814588 -163906.14927451182 0.0
-163906.14927451182 81117.63752284541 0.0
0.0 0.0 0.0

-438258.80483660917 2.721330607555238e6 0.0
2.721330607555238e6 134516.2372330786 0.0
0.0 0.0 0.0

-552700.8359866687 2.208713962240895e6 0.0
2.208713962240895e6 56248.07487062004 0.0
0.0 0.0 0.0

-1.1298383342345825e6 4.0445603546562283e6 0.0
4.0445603546562283e6 698282.6056271892 0.0
0.0 0.0 0.0

-985047.9419147675 5.05220184328292e6 0.0
5.05220184328292e6 882975.0698656926 0.0
0.0 0.0 0.0

-44769.295525933325 3.2736124563149814e6 0.0
3.2736124563149814e6 -557812.1149215887 0.0
0.0 0.0 0.0

645714.8733360394 2.245623853731341e6 0.0
2.245623853731341e6 -1.5187542987404887e6 0.0
0.0 0.0 0.0

1.2988993112821947e6 1.1799155991844928e6 0.0
1.1799155991844928e6 -1.8206086657389663e6 0.0
0.0 0.0 0.0

-2.515843303584232e6 2.6114430317581506e6 0.0
2.6114430317581506e6 -868665.4238592295 0.0
0.0 0.0 0.0

-386873.241562983 3.3255075754555687e6 0.0
3.3255075754555687e6 1.6058567831510436e6 0.0
0.0 0.0 0.0

-1.0468054909765581e6 4.920731339293983e6 0.0
4.920731339293983e6 918901.3553318984 0.0
0.0 0.0 0.0

-142674.70173535804 3.167138999919347e6 0.0
3.167138999919347e6 -231095.689276114 0.0
0.0 0.0 0.0

-93027.2394257838 3.190918922929477e6 0.0
3.190918922929477e6 -572962.5448683506 0.0
0.0 0.0 0.0

-1.16491681693511e6 -139850.90746350883 0.0
-139850.90746350883 1.436072169893975e6 0.0
0.0 0.0 0.0

-1.0411677281768974e6 2.207838503777843e6 0.0
2.207838503777843e6 80600.72727415536 0.0
0.0 0.0 0.0

-1.0589284489905317e6 2.8973019792631287e6 0.0
2.8973019792631287e6 504625.579937696 0.0
0.0 0.0 0.0

-95699.06798286962 60656.306405216514 0.0
60656.306405216514 16276.70267698697 0.0
0.0 0.0 0.0

-9.706423192669049e6 724033.6259538414 0.0
724033.6259538414 1.6404957308705952e7 0.0
0.0 0.0 0.0

-408747.13372862246 2.7253302051266427e6 0.0
2.7253302051266427e6 -195325.84442757966 0.0
0.0 0.0 0.0

272237.6821822811 436104.64588776784 0.0
436104.64588776784 -653531.4061541575 0.0
0.0 0.0 0.0

-5.496952171732633e6 -1.0920191801914861e6 0.0
-1.0920191801914861e6 5.822990301975604e6 0.0
0.0 0.0 0.0

1.3286748149665678e6 1.1203452747806357e6 0.0
1.1203452747806357e6 -1.8202738704386465e6 0.0
0.0 0.0 0.0

-576481.235605586 2.7538525047566514e6 0.0
2.7538525047566514e6 484968.9111866113 0.0
0.0 0.0 0.0

-1.3968634434100667e6 3.6875983498096843e6 0.0
3.6875983498096843e6 258726.8407981823 0.0
0.0 0.0 0.0

-357142.8073491074 2.3860703068514992e6 0.0
2.3860703068514992e6 -494995.16872697196 0.0
0.0 0.0 0.0

28818.661773380692 722050.8622161029 0.0
722050.8622161029 389784.20204749133 0.0
0.0 0.0 0.0

-395182.2901031981 3.0177509455824336e6 0.0
3.0177509455824336e6 -275984.23248011235 0.0
0.0 0.0 0.0

-384579.66288635053 5.178445774272243e6 0.0
5.178445774272243e6 464780.5845849663 0.0
0.0 0.0 0.0

150887.7419048819 -159191.9095974313 0.0
-159191.9095974313 -364747.7329930756 0.0
0.0 0.0 0.0

-340852.7686364078 3.0990236085144626e6 0.0
3.0990236085144626e6 166894.68261324457 0.0
0.0 0.0 0.0

-1.2935532272804454e6 6.802616160875223e6 0.0
6.802616160875223e6 582884.7107052482 0.0
0.0 0.0 0.0

1.2851936328401365e6 1.0780256078318537e6 0.0
1.0780256078318537e6 -1.7565524886973654e6 0.0
0.0 0.0 0.0

-421583.7506801762 2.4056248004191383e6 0.0
2.4056248004191383e6 -168483.57733182816 0.0
0.0 0.0 0.0

-111565.12262382742 3.012256002231786e6 0.0
3.012256002231786e6 1.837265964418475e6 0.0
0.0 0.0 0.0

1.7968726531180604e6 2.763287281002608e6 0.0
2.763287281002608e6 -2.2646233080646186e6 0.0
0.0 0.0 0.0

-1.578787815910974e6 3.3987515340620885e6 0.0
3.3987515340620885e6 262922.5934459802 0.0
0.0 0.0 0.0

-1.0792950387209815e6 2.514228628520481e6 0.0
2.514228628520481e6 315284.22208771657 0.0
0.0 0.0 0.0

549010.0386644033 2.096504183315603e6 0.0
2.096504183315603e6 -1.443029551254077e6 0.0
0.0 0.0 0.0

-924593.7324873767 2.2009951596729285e6 0.0
2.2009951596729285e6 -5041.907573588076 0.0
0.0 0.0 0.0

-295758.7766800163 2.5348355681198128e6 0.0
2.5348355681198128e6 519027.82483678963 0.0
0.0 0.0 0.0

-7.322295461080534e6 -2.534650675089496e6 0.0
-2.534650675089496e6 6.945344096266467e6 0.0
0.0 0.0 0.0

-417225.1948057115 3.1244368965275013e6 0.0
3.1244368965275013e6 -134824.19754460407 0.0
0.0 0.0 0.0

56414.31825638327 3.179536060341623e6 0.0
3.179536060341623e6 -706368.5156706728 0.0
0.0 0.0 0.0

-1.0436751084487399e6 2.6825166198191512e6 0.0
2.6825166198191512e6 438778.905447889 0.0
0.0 0.0 0.0

-461881.4847675422 3.500431931520062e6 0.0
3.500431931520062e6 62176.5955041073 0.0
0.0 0.0 0.0

-429665.48344642005 2.922402672113674e6 0.0
2.922402672113674e6 -166104.31568193564 0.0
0.0 0.0 0.0

-704080.6597909492 3.349714470505942e6 0.0
3.349714470505942e6 139102.29973966253 0.0
0.0 0.0 0.0

-9761.07990087774 3.104640277253015e6 0.0
3.104640277253015e6 -259800.77601625925 0.0
0.0 0.0 0.0

-23429.422554171266 3.168693392712846e6 0.0
3.168693392712846e6 -538357.1970001003 0.0
0.0 0.0 0.0

-103589.6078811278 3.3026429802265028e6 0.0
3.3026429802265028e6 -541669.8634154656 0.0
0.0 0.0 0.0

83652.24426443741 2.683289905947121e6 0.0
2.683289905947121e6 -1.169898299698867e6 0.0
0.0 0.0 0.0

-1.267648496154659e6 2.6036991761205057e6 0.0
2.6036991761205057e6 288923.1930342283 0.0
0.0 0.0 0.0

-1.2353141614807553e6 3.0546354536823584e6 0.0
3.0546354536823584e6 -473843.05947806215 0.0
0.0 0.0 0.0

-1.247866230754091e6 2.226309679807893e6 0.0
2.226309679807893e6 191530.67407300696 0.0
0.0 0.0 0.0

-233237.6792518051 3.124476883959462e6 0.0
3.124476883959462e6 -278419.3139299011 0.0
0.0 0.0 0.0

1.137499304664223e6 1.0838567080274157e6 0.0
1.0838567080274157e6 -1.645501937307887e6 0.0
0.0 0.0 0.0

-502340.57294086093 2.6800301021240526e6 0.0
2.6800301021240526e6 -267765.36562550504 0.0
0.0 0.0 0.0

-901206.2840352671 5.209089571594621e6 0.0
5.209089571594621e6 402051.43467879214 0.0
0.0 0.0 0.0

-49444.40527126566 -112032.67966922917 0.0
-112032.67966922917 5614.292733808692 0.0
0.0 0.0 0.0

-377651.91670666245 3.109284641317665e6 0.0
3.109284641317665e6 -223237.0002036256 0.0
0.0 0.0 0.0

-256414.22328562354 2.6872553840741715e6 0.0
2.6872553840741715e6 -353399.43874847493 0.0
0.0 0.0 0.0

-479812.87129266624 3.6494207939027855e6 0.0
3.6494207939027855e6 208504.16741644137 0.0
0.0 0.0 0.0

72935.82165714503 162764.30171674953 0.0
162764.30171674953 -85883.8104450639 0.0
0.0 0.0 0.0

15660.719017726922 2.9198123177867606e6 0.0
2.9198123177867606e6 -554580.0143055349 0.0
0.0 0.0 0.0

-867049.0136905047 2.653547896612241e6 0.0
2.653547896612241e6 440799.40265014337 0.0
0.0 0.0 0.0

-46935.68202627613 2.190967036775493e6 0.0
2.190967036775493e6 -1.0732926231510695e6 0.0
0.0 0.0 0.0

-1.3914321790169694e6 5.8888623772147605e6 0.0
5.8888623772147605e6 1.1905873888599044e6 0.0
0.0 0.0 0.0

-1.4838901593865957e6 2.177227862249493e6 0.0
2.177227862249493e6 328657.75457799516 0.0
0.0 0.0 0.0

141455.68737162137 421941.08778714074 0.0
421941.08778714074 -33689.35783495898 0.0
0.0 0.0 0.0

-574079.6082079422 3.537118288274704e6 0.0
3.537118288274704e6 -354427.3519771214 0.0
0.0 0.0 0.0

-1.672515701285444e6 2.3251656318999254e6 0.0
2.3251656318999254e6 438857.842116317 0.0
0.0 0.0 0.0

-1.4356881968469215e6 2.3034463971711546e6 0.0
2.3034463971711546e6 301593.989081865 0.0
0.0 0.0 0.0

79788.69398796532 3.203908598457389e6 0.0
3.203908598457389e6 -673721.1398225022 0.0
0.0 0.0 0.0

-49265.97173235743 2.1239438711534534e6 0.0
2.1239438711534534e6 -741348.7286865119 0.0
0.0 0.0 0.0

527258.3328303318 4.670043267961283e6 0.0
4.670043267961283e6 865033.0727893482 0.0
0.0 0.0 0.0

-2.5523561471235417e6 -332613.43537578214 0.0
-332613.43537578214 1.4759575443303927e6 0.0
0.0 0.0 0.0

-1.1396903981886148e6 2.140684754216755e6 0.0
2.140684754216755e6 -91285.0833618003 0.0
0.0 0.0 0.0

1.310343705180177e6 1.099555396078802e6 0.0
1.099555396078802e6 -1.7873914608193003e6 0.0
0.0 0.0 0.0

-879908.7742741073 2.5090495007695085e6 0.0
2.5090495007695085e6 157335.75800602534 0.0
0.0 0.0 0.0

-897012.1930153806 2.3066773297234545e6 0.0
2.3066773297234545e6 727.5413837948581 0.0
0.0 0.0 0.0

-70958.46650391282 -82551.10952278262 0.0
-82551.10952278262 13161.794832588264 0.0
0.0 0.0 0.0

373983.62761333026 1.573861688661688e6 0.0
1.573861688661688e6 -1.568342792052561e6 0.0
0.0 0.0 0.0

132618.11201290373 3.062380280434418e6 0.0
3.062380280434418e6 -1.0349021159411597e6 0.0
0.0 0.0 0.0

-363944.2398905302 2.65447880919382e6 0.0
2.65447880919382e6 250443.82424665388 0.0
0.0 0.0 0.0

-2.255864341142205e6 2.432515331319029e6 0.0
2.432515331319029e6 -94372.85991248011 0.0
0.0 0.0 0.0

-331684.2638042586 2.494419917620094e6 0.0
2.494419917620094e6 -108336.36141178368 0.0
0.0 0.0 0.0

-747161.9966319656 2.611001009671232e6 0.0
2.611001009671232e6 -81646.41589355303 0.0
0.0 0.0 0.0

-1.5519303803941114e6 2.7302905666433624e6 0.0
2.7302905666433624e6 428592.42769479356 0.0
0.0 0.0 0.0

-2.120149332925779e6 -415098.09744817857 0.0
-415098.09744817857 3.581219759250964e6 0.0
0.0 0.0 0.0

274609.5991382956 -52441.19770018691 0.0
-52441.19770018691 -282938.65489528596 0.0
0.0 0.0 0.0

-203259.27168288807 2.178344207068187e6 0.0
2.178344207068187e6 -826056.0942328481 0.0
0.0 0.0 0.0

-13939.46844632587 -45140.025794728266 0.0
-45140.025794728266 12789.793843628617 0.0
0.0 0.0 0.0

-312741.5816548794 2.329441146232874e6 0.0
2.329441146232874e6 -589421.5028144623 0.0
0.0 0.0 0.0

-514180.45499452535 3.313531883218737e6 0.0
3.313531883218737e6 -9420.313824421813 0.0
0.0 0.0 0.0

-841236.8392980293 902540.1868514539 0.0
902540.1868514539 58475.88566973369 0.0
0.0 0.0 0.0

-917349.9238574523 2.1232463324192646e6 0.0
2.1232463324192646e6 -59640.37727714956 0.0
0.0 0.0 0.0

-1.1422108044124846e6 3.6554142411363455e6 0.0
3.6554142411363455e6 408382.51288828615 0.0
0.0 0.0 0.0

-226819.69044677314 2.118931203085364e6 0.0
2.118931203085364e6 -756065.5683238676 0.0
0.0 0.0 0.0

-170257.340360202 3.336574795423006e6 0.0
3.336574795423006e6 -567524.4707727127 0.0
0.0 0.0 0.0

-145526.9643961735 2.1942160200553513e6 0.0
2.1942160200553513e6 -637746.5879915447 0.0
0.0 0.0 0.0

166020.814089476 3.0522171253016307e6 0.0
3.0522171253016307e6 -1.0301605437424976e6 0.0
0.0 0.0 0.0

216843.20246853563 54795.91619090997 0.0
54795.91619090997 -294170.01637333195 0.0
0.0 0.0 0.0

-151343.72819660456 2.412845148089922e6 0.0
2.412845148089922e6 -71942.43099887454 0.0
0.0 0.0 0.0

-624498.8826646087 2.9363902266014903e6 0.0
2.9363902266014903e6 81299.95596148216 0.0
0.0 0.0 0.0

501929.94501573156 713371.0324639806 0.0
713371.0324639806 -1.1796711952389688e6 0.0
0.0 0.0 0.0

-1.8719843182836566e6 691443.0553818105 0.0
691443.0553818105 -456027.6813538795 0.0
0.0 0.0 0.0

-462549.7378704108 3.32018326230115e6 0.0
3.32018326230115e6 -25582.64069434622 0.0
0.0 0.0 0.0

-51030.654729226284 3.7638864040213735e6 0.0
3.7638864040213735e6 416246.2381706188 0.0
0.0 0.0 0.0

-2.411679570665621e6 1.926010789393368e6 0.0
1.926010789393368e6 621577.8307457577 0.0
0.0 0.0 0.0

546322.4356054228 78832.01249366725 0.0
78832.01249366725 -607818.0144830077 0.0
0.0 0.0 0.0

-835838.4144378935 2.370118399317605e6 0.0
2.370118399317605e6 100495.54544121819 0.0
0.0 0.0 0.0

-702576.6157962655 3.1342790293590524e6 0.0
3.1342790293590524e6 -391445.1957474807 0.0
0.0 0.0 0.0

-1.9535662379019812e6 1.4985421684855048e6 0.0
1.4985421684855048e6 147559.77076561446 0.0
0.0 0.0 0.0

272304.1370934821 3.193733009917861e6 0.0
3.193733009917861e6 -944267.3968622608 0.0
0.0 0.0 0.0

34123.77079197156 3.2472969635044266e6 0.0
3.2472969635044266e6 -602897.3428850258 0.0
0.0 0.0 0.0

59703.1654385578 2.6369822349825315e6 0.0
2.6369822349825315e6 -1.1485619999673993e6 0.0
0.0 0.0 0.0

-2.2553235480168858e6 1.6560759318908947e6 0.0
1.6560759318908947e6 450708.6662670035 0.0
0.0 0.0 0.0

-1.0932436058206444e6 3.4987555834597643e6 0.0
3.4987555834597643e6 644192.5931748784 0.0
0.0 0.0 0.0

-495212.9750479659 2.979787870788242e6 0.0
2.979787870788242e6 -274867.0196242118 0.0
0.0 0.0 0.0

630275.059664735 1.767773583331936e6 0.0
1.767773583331936e6 -1.2829738789365012e6 0.0
0.0 0.0 0.0

-277808.61906893423 -97856.31533626544 0.0
-97856.31533626544 597143.3209740345 0.0
0.0 0.0 0.0

-1.1665547117464053e6 3.016396320648666e6 0.0
3.016396320648666e6 613959.8243896109 0.0
0.0 0.0 0.0

-549222.1466780031 3.517265376533059e6 0.0
3.517265376533059e6 80561.99703471662 0.0
0.0 0.0 0.0

132181.68096471578 2.7230445388523834e6 0.0
2.7230445388523834e6 -1.232123562185325e6 0.0
0.0 0.0 0.0

-892846.8186508591 2.5769110908332136e6 0.0
2.5769110908332136e6 -137284.21342621272 0.0
0.0 0.0 0.0

-1.1468408507639342e6 7.088539418605624e6 0.0
7.088539418605624e6 325460.2548628126 0.0
0.0 0.0 0.0

-471930.5867666069 3.2343395336579294e6 0.0
3.2343395336579294e6 -383934.37722532277 0.0
0.0 0.0 0.0

-1.0915484786517578e6 2.366626793169799e6 0.0
2.366626793169799e6 -91539.94311866583 0.0
0.0 0.0 0.0

-346571.1870420302 1.486040166108799e6 0.0
1.486040166108799e6 229604.76446197878 0.0
0.0 0.0 0.0

-499927.17043139675 2.9527990968463826e6 0.0
2.9527990968463826e6 -215006.73550246528 0.0
0.0 0.0 0.0

-1.116973803091749e6 2.6097915354560576e6 0.0
2.6097915354560576e6 204095.5855680767 0.0
0.0 0.0 0.0

181826.9693549382 3.2523570763485325e6 0.0
3.2523570763485325e6 -1.0272483279774147e6 0.0
0.0 0.0 0.0

1.1108354517335393e6 1.0396783990051036e6 0.0
1.0396783990051036e6 -1.614998753737371e6 0.0
0.0 0.0 0.0

149193.07102473488 2.671425300735126e6 0.0
2.671425300735126e6 -1.196835975516252e6 0.0
0.0 0.0 0.0

-1.344693095445598e6 2.56450502752553e6 0.0
2.56450502752553e6 297972.47204288736 0.0
0.0 0.0 0.0

68475.5807901053 3.282793530877035e6 0.0
3.282793530877035e6 228251.92290982633 0.0
0.0 0.0 0.0

-120628.70574175777 2.065217956990631e6 0.0
2.065217956990631e6 -402095.69988933153 0.0
0.0 0.0 0.0

-875155.0771726475 575037.7970377231 0.0
575037.7970377231 1.3142154399773702e6 0.0
0.0 0.0 0.0

-781941.5318360949 3.262961971322114e6 0.0
3.262961971322114e6 309915.8729015123 0.0
0.0 0.0 0.0

-263948.1886952176 3.4883703508665524e6 0.0
3.4883703508665524e6 1.6097415839722762e6 0.0
0.0 0.0 0.0

-301483.43400377536 -254230.66472152746 0.0
-254230.66472152746 254763.69261055815 0.0
0.0 0.0 0.0

1.2990002598304637e6 1.1879729581961147e6 0.0
1.1879729581961147e6 -1.846730704704512e6 0.0
0.0 0.0 0.0

-4035.326297193649 2.2884288385739974e6 0.0
2.2884288385739974e6 -1.2057013847321384e6 0.0
0.0 0.0 0.0

-1.0419549558017021e6 2.426636484876807e6 0.0
2.426636484876807e6 -38899.87392245815 0.0
0.0 0.0 0.0

-388677.6614996712 4.018185304345904e6 0.0
4.018185304345904e6 265804.5670432956 0.0
0.0 0.0 0.0

31041.850979162184 119253.8229853468 0.0
119253.8229853468 -140339.97806995927 0.0
0.0 0.0 0.0

-1.640487691735824e6 3.359007893827033e6 0.0
3.359007893827033e6 128312.49384118372 0.0
0.0 0.0 0.0

-372845.98187796643 3.0978965992725436e6 0.0
3.0978965992725436e6 -218397.35747685423 0.0
0.0 0.0 0.0

-2.4593665816436494e6 1.456408253520306e6 0.0
1.456408253520306e6 457119.67752340925 0.0
0.0 0.0 0.0

1.2615962176658292e6 1.2095834267280777e6 0.0
1.2095834267280777e6 -1.8651887478438863e6 0.0
0.0 0.0 0.0

-901828.5022659984 4.688771082944495e6 0.0
4.688771082944495e6 781927.4995759279 0.0
0.0 0.0 0.0

-6.082669006018308e6 -553878.1633194977 0.0
-553878.1633194977 7.022212443542663e6 0.0
0.0 0.0 0.0

-842760.0796281537 2.616954939357113e6 0.0
2.616954939357113e6 92645.51588054578 0.0
0.0 0.0 0.0

-83800.90235081647 3.4915906748037627e6 0.0
3.4915906748037627e6 -289397.456723714 0.0
0.0 0.0 0.0

-9179.0126805529 -5351.688290105593 0.0
-5351.688290105593 -456174.1347886249 0.0
0.0 0.0 0.0

16739.17380479724 2.3340089732358037e6 0.0
2.3340089732358037e6 198003.20985069586 0.0
0.0 0.0 0.0

-397098.03417335026 3.1239654209828484e6 0.0
3.1239654209828484e6 -187792.21759408916 0.0
0.0 0.0 0.0

-534927.7360024968 1.190446662000577e6 0.0
1.190446662000577e6 503864.7964855627 0.0
0.0 0.0 0.0

-337751.82442034036 2.995390672275904e6 0.0
2.995390672275904e6 -297601.32731486997 0.0
0.0 0.0 0.0

-537908.0772631878 3.3168484565371685e6 0.0
3.3168484565371685e6 -32377.938577749446 0.0
0.0 0.0 0.0

-524478.9062177383 2.895087537830621e6 0.0
2.895087537830621e6 127944.739283826 0.0
0.0 0.0 0.0

81194.8842155151 2.563624182308807e6 0.0
2.563624182308807e6 -1.133642580675977e6 0.0
0.0 0.0 0.0

-233415.4196929562 2.247974591093451e6 0.0
2.247974591093451e6 -265517.7221003581 0.0
0.0 0.0 0.0

-303972.08378766564 1.1976705334602436e6 0.0
1.1976705334602436e6 922223.2239851359 0.0
0.0 0.0 0.0

262506.03116593166 69321.62274507358 0.0
69321.62274507358 -149134.62681657012 0.0
0.0 0.0 0.0

-624030.8598199958 2.9230421240071435e6 0.0
2.9230421240071435e6 -234721.0172342662 0.0
0.0 0.0 0.0

-698488.6068546308 2.742457377453391e6 0.0
2.742457377453391e6 -90313.21420776715 0.0
0.0 0.0 0.0

-714921.3915945035 4.994124419344921e6 0.0
4.994124419344921e6 627730.6375360757 0.0
0.0 0.0 0.0

17067.751682022248 18342.12382726493 0.0
18342.12382726493 -72962.88302222721 0.0
0.0 0.0 0.0

119506.15044672816 2.628919301291527e6 0.0
2.628919301291527e6 -1.226143449943367e6 0.0
0.0 0.0 0.0

-910519.0657062316 2.672911379264395e6 0.0
2.672911379264395e6 3430.201849851699 0.0
0.0 0.0 0.0

-370838.38957402797 2.5054517314719316e6 0.0
2.5054517314719316e6 -479397.54210369795 0.0
0.0 0.0 0.0

-1.0540036897845753e6 3.1675529418638623e6 0.0
3.1675529418638623e6 527879.3708867463 0.0
0.0 0.0 0.0

482493.18882140296 19914.671471450172 0.0
19914.671471450172 -530142.9691498005 0.0
0.0 0.0 0.0

-1.2988319856786693e6 2.251786085122223e6 0.0
2.251786085122223e6 14370.944975116116 0.0
0.0 0.0 0.0

-1.4990198790018202e6 3.1240911157325874e6 0.0
3.1240911157325874e6 627485.5287445239 0.0
0.0 0.0 0.0

12053.116790165048 3.060973311823821e6 0.0
3.060973311823821e6 554366.5104792303 0.0
0.0 0.0 0.0

-112804.98046983912 -342682.8582414369 0.0
-342682.8582414369 -60073.70685482879 0.0
0.0 0.0 0.0

-350803.28730114695 2.7099100171552715e6 0.0
2.7099100171552715e6 -142843.33646129014 0.0
0.0 0.0 0.0

914148.257225031 2.0681976326033503e6 0.0
2.0681976326033503e6 -1.967956342672523e6 0.0
0.0 0.0 0.0

-1.506595194227627e6 5.776703392046486e6 0.0
5.776703392046486e6 884510.5392509324 0.0
0.0 0.0 0.0

-461828.85692275176 3.1034303930206117e6 0.0
3.1034303930206117e6 -116844.53125423461 0.0
0.0 0.0 0.0

958786.2479660576 381331.0464410804 0.0
381331.0464410804 -1.4230677145159976e6 0.0
0.0 0.0 0.0

-181385.77294016178 3.1015758717441494e6 0.0
3.1015758717441494e6 -430493.9718637791 0.0
0.0 0.0 0.0

689412.7022035536 2.3285910965868523e6 0.0
2.3285910965868523e6 -1.4787421186165218e6 0.0
0.0 0.0 0.0

-146143.36708360777 2.104477775337882e6 0.0
2.104477775337882e6 -891298.5880984263 0.0
0.0 0.0 0.0

-1.986663531878077e6 2.161509190088187e6 0.0
2.161509190088187e6 520115.3579765182 0.0
0.0 0.0 0.0

-11403.121940604664 3.3626786056689797e6 0.0
3.3626786056689797e6 -38010.38028809095 0.0
0.0 0.0 0.0

-560016.5722115174 3.023593148777475e6 0.0
3.023593148777475e6 361924.8144114867 0.0
0.0 0.0 0.0

-947687.5615844897 2.322127038795063e6 0.0
2.322127038795063e6 210681.74890612677 0.0
0.0 0.0 0.0

-618114.8701754357 2.3275253310018745e6 0.0
2.3275253310018745e6 26063.856539354863 0.0
0.0 0.0 0.0

-358687.0618229158 2.7951439867336163e6 0.0
2.7951439867336163e6 -26681.04307357139 0.0
0.0 0.0 0.0

-702725.7231390604 2.7170619205924384e6 0.0
2.7170619205924384e6 494125.73629690305 0.0
0.0 0.0 0.0

-280439.52536257816 3.0551083177736923e6 0.0
3.0551083177736923e6 -270483.7617829442 0.0
0.0 0.0 0.0

-4.0993783797401986e6 -451587.8148486827 0.0
-451587.8148486827 6.819158655475693e6 0.0
0.0 0.0 0.0

-1.0200423587312893e6 3.111438881888116e6 0.0
3.111438881888116e6 622288.5924915341 0.0
0.0 0.0 0.0

-274744.8810613193 2.0241234384038919e6 0.0
2.0241234384038919e6 -920970.0676443118 0.0
0.0 0.0 0.0

-414394.9681099903 2.5481641808445747e6 0.0
2.5481641808445747e6 -383276.6866316491 0.0
0.0 0.0 0.0

-594650.4634188069 2.782631066840483e6 0.0
2.782631066840483e6 399014.17686560104 0.0
0.0 0.0 0.0

-398829.4808160944 3.1041109898124165e6 0.0
3.1041109898124165e6 -181981.78840291224 0.0
0.0 0.0 0.0

-176501.39700004976 3.294594093710114e6 0.0
3.294594093710114e6 -588337.9990794918 0.0
0.0 0.0 0.0

-1.459442472804441e6 2.6540218147414406e6 0.0
2.6540218147414406e6 312392.429474433 0.0
0.0 0.0 0.0

-330794.02342119894 3.0011165726308436e6 0.0
3.0011165726308436e6 -297065.8332105227 0.0
0.0 0.0 0.0

-2.4119676591697354e6 -927194.7225479742 0.0
-927194.7225479742 3.4300927602127874e6 0.0
0.0 0.0 0.0

-13211.843064628978 572093.9702441451 0.0
572093.9702441451 -321751.6066957535 0.0
0.0 0.0 0.0

-428937.1237537382 2.6318335201132596e6 0.0
2.6318335201132596e6 -388254.4433839511 0.0
0.0 0.0 0.0

-1.4631436829583906e6 1.6491679535198666e6 0.0
1.6491679535198666e6 368.6474846705678 0.0
0.0 0.0 0.0

598228.4919603257 50226.66416258607 0.0
50226.66416258607 -647060.9681096905 0.0
0.0 0.0 0.0

-2.415257613833759e6 -467432.8645589059 0.0
-467432.8645589059 2.75016682219897e6 0.0
0.0 0.0 0.0

-246315.54278523545 42745.559300143745 0.0
42745.559300143745 -40970.86518482795 0.0
0.0 0.0 0.0

-860073.8985417783 357413.12577512435 0.0
357413.12577512435 460018.00276140246 0.0
0.0 0.0 0.0

-115162.33486949056 1.80629888540869e6 0.0
1.80629888540869e6 -1.0137176880560018e6 0.0
0.0 0.0 0.0

-1.4236901029430432e6 3.1225069229427585e6 0.0
3.1225069229427585e6 608835.1766171011 0.0
0.0 0.0 0.0

-725156.4170614856 2.7184556539745736e6 0.0
2.7184556539745736e6 407004.02065451455 0.0
0.0 0.0 0.0

-429928.98642888 2.932403722579786e6 0.0
2.932403722579786e6 -4769.555327311973 0.0
0.0 0.0 0.0

19748.223914347473 2.3821642955297143e6 0.0
2.3821642955297143e6 -1.0873619794552422e6 0.0
0.0 0.0 0.0

-47108.50917060136 2.782151400504869e6 0.0
2.782151400504869e6 338875.35453821596 0.0
0.0 0.0 0.0

-297633.0111832321 1.8983484994964458e6 0.0
1.8983484994964458e6 -485079.90931846766 0.0
0.0 0.0 0.0

-366875.0514561849 3.0484203187079434e6 0.0
3.0484203187079434e6 -266230.432978768 0.0
0.0 0.0 0.0

585962.0525177445 2.9788047435680917e6 0.0
2.9788047435680917e6 -1.565368851722581e6 0.0
0.0 0.0 0.0

673781.1320599522 2.1319107280574916e6 0.0
2.1319107280574916e6 -1.3917009268645039e6 0.0
0.0 0.0 0.0

-578242.3053154597 3.2512551207833136e6 0.0
3.2512551207833136e6 283231.5388988672 0.0
0.0 0.0 0.0

-1.4607923731896295e6 3.468315958086386e6 0.0
3.468315958086386e6 551263.654078731 0.0
0.0 0.0 0.0

-754007.7853125037 2.5364323217247077e6 0.0
2.5364323217247077e6 -75610.88382603688 0.0
0.0 0.0 0.0

-131221.14041433833 2.5158468058666564e6 0.0
2.5158468058666564e6 -297643.8394316898 0.0
0.0 0.0 0.0

-285770.18033519044 736689.2557440825 0.0
736689.2557440825 441065.9507370847 0.0
0.0 0.0 0.0

-322192.24148006755 2.443920671923722e6 0.0
2.443920671923722e6 -537376.3604411889 0.0
0.0 0.0 0.0

-449838.9813805166 3.6367940402786196e6 0.0
3.6367940402786196e6 186432.29367226656 0.0
0.0 0.0 0.0

-4.645756410348644e6 97761.39280539227 0.0
97761.39280539227 7.983662860792878e6 0.0
0.0 0.0 0.0

-223982.00567440633 3.1308715156028504e6 0.0
3.1308715156028504e6 -278405.8722965206 0.0
0.0 0.0 0.0

-834855.9202759243 2.7162706730542206e6 0.0
2.7162706730542206e6 -125724.06064866486 0.0
0.0 0.0 0.0

-184814.87635701636 2.9850186280124704e6 0.0
2.9850186280124704e6 -987837.4067944771 0.0
0.0 0.0 0.0

-3.1285444871039623e6 -356558.76431313995 0.0
-356558.76431313995 3.5422031164955804e6 0.0
0.0 0.0 0.0

-308135.2898682341 3.069024485194723e6 0.0
3.069024485194723e6 -284540.7922159794 0.0
0.0 0.0 0.0

-528807.4399018793 2.5519565215793992e6 0.0
2.5519565215793992e6 -263280.5172455185 0.0
0.0 0.0 0.0

-37867.24060339568 2.1510471065342464e6 0.0
2.1510471065342464e6 -1.0096078753076604e6 0.0
0.0 0.0 0.0

790437.586396964 1.7897254662668165e6 0.0
1.7897254662668165e6 -1.7761093088556726e6 0.0
0.0 0.0 0.0

543521.6207850677 1.8429674592880916e6 0.0
1.8429674592880916e6 -1.6177694835700274e6 0.0
0.0 0.0 0.0

197573.2404836391 3.8615074544240735e6 0.0
3.8615074544240735e6 -688983.3133438368 0.0
0.0 0.0 0.0

-1.2895123584634406e6 2.6196482947869645e6 0.0
2.6196482947869645e6 246004.8806792557 0.0
0.0 0.0 0.0

-660802.0525296876 2.997089745599616e6 0.0
2.997089745599616e6 404723.9186063172 0.0
0.0 0.0 0.0

-208967.60944598378 2.319009428180034e6 0.0
2.319009428180034e6 -610416.8453387199 0.0
0.0 0.0 0.0

-308647.0096358268 4.424067628378104e6 0.0
4.424067628378104e6 332747.26089318574 0.0
0.0 0.0 0.0

-1.7085981263288544e6 -442856.2653708444 0.0
-442856.2653708444 2.582368157064829e6 0.0
0.0 0.0 0.0

644934.9056047045 2.368161986662374e6 0.0
2.368161986662374e6 -1.534928997303663e6 0.0
0.0 0.0 0.0

686813.2992849259 1.8587615112753368e6 0.0
1.8587615112753368e6 -1.2979164706209102e6 0.0
0.0 0.0 0.0

-4.845109601854929e6 -794684.3799187634 0.0
-794684.3799187634 7.8229474127738355e6 0.0
0.0 0.0 0.0

-338858.95680581674 2.7684575247130794e6 0.0
2.7684575247130794e6 590681.2499734451 0.0
0.0 0.0 0.0

-1.8983623175371368e6 -270118.772556191 0.0
-270118.772556191 3.0405332424926944e6 0.0
0.0 0.0 0.0

-137398.3534369195 -203407.82260490276 0.0
-203407.82260490276 46865.62951288704 0.0
0.0 0.0 0.0

-1.4473378373089689e6 2.722620478173439e6 0.0
2.722620478173439e6 403999.8767143055 0.0
0.0 0.0 0.0

204517.9297600012 1.7811640265327522e6 0.0
1.7811640265327522e6 -1.4950344040081052e6 0.0
0.0 0.0 0.0

-1.4989814680750847e6 2.2894492206520913e6 0.0
2.2894492206520913e6 90479.95229899307 0.0
0.0 0.0 0.0

-1.6680681544720193e6 199679.91348722938 0.0
199679.91348722938 3.053795559011441e6 0.0
0.0 0.0 0.0

125216.09442317615 207586.4567951172 0.0
207586.4567951172 -267181.7679995569 0.0
0.0 0.0 0.0

-847326.3769793136 4.795286288560379e6 0.0
4.795286288560379e6 725979.1037434567 0.0
0.0 0.0 0.0

-403231.25992939516 3.0862595149564003e6 0.0
3.0862595149564003e6 -60698.54467613847 0.0
0.0 0.0 0.0

-945932.6986393862 3.544718102555574e6 0.0
3.544718102555574e6 714896.3393471524 0.0
0.0 0.0 0.0

-576678.9524764676 3.047348967825135e6 0.0
3.047348967825135e6 -181484.88877566677 0.0
0.0 0.0 0.0

-83299.3800690418 2.230521114623615e6 0.0
2.230521114623615e6 -1.1191445000896158e6 0.0
0.0 0.0 0.0

-539201.797592528 3.225476475968719e6 0.0
3.225476475968719e6 9207.07697963796 0.0
0.0 0.0 0.0

-803473.9531400804 3.008654863759814e6 0.0
3.008654863759814e6 1.7401523457805314e6 0.0
0.0 0.0 0.0

-1.258261616196429e6 -588175.5125355195 0.0
-588175.5125355195 756991.3842783448 0.0
0.0 0.0 0.0

-733803.8998160664 1.4296832175363998e6 0.0
1.4296832175363998e6 19735.070538992528 0.0
0.0 0.0 0.0

112109.50704798129 2.8857441675860486e6 0.0
2.8857441675860486e6 373698.40617377707 0.0
0.0 0.0 0.0

103829.92009226399 2.245862784967816e6 0.0
2.245862784967816e6 346099.76892712637 0.0
0.0 0.0 0.0

-1.5070747767134202e6 6.009287843468424e6 0.0
6.009287843468424e6 768098.5420341041 0.0
0.0 0.0 0.0

850025.7531212784 388735.01711448457 0.0
388735.01711448457 -1.6155130935779843e6 0.0
0.0 0.0 0.0

-1.867807927978675e6 2.384933692964464e6 0.0
2.384933692964464e6 346381.60681627924 0.0
0.0 0.0 0.0

-2.898658848948876e6 -445309.36414626386 0.0
-445309.36414626386 3.2336679528229516e6 0.0
0.0 0.0 0.0

-443739.96693341236 2.607424114328509e6 0.0
2.607424114328509e6 -354555.0670575376 0.0
0.0 0.0 0.0

-2.754249389238003e6 214699.18115094354 0.0
214699.18115094354 3.3685889225853914e6 0.0
0.0 0.0 0.0

-278854.54938753374 2.5465969849196617e6 0.0
2.5465969849196617e6 -415737.6399462607 0.0
0.0 0.0 0.0

-461296.668466907 3.100217723824638e6 0.0
3.100217723824638e6 -169861.28402970132 0.0
0.0 0.0 0.0

-1.4561914916758954e6 3.3518529594337894e6 0.0
3.3518529594337894e6 719279.7759447172 0.0
0.0 0.0 0.0

-316957.31527177314 2.606036140281155e6 0.0
2.606036140281155e6 -350828.6360954666 0.0
0.0 0.0 0.0

1.2890902386355703e6 1.191181623721396e6 0.0
1.191181623721396e6 -1.8461371477814512e6 0.0
0.0 0.0 0.0

-234885.9919882629 2.091621445670374e6 0.0
2.091621445670374e6 -782953.3787233919 0.0
0.0 0.0 0.0

-517197.89062299044 3.7394984377951766e6 0.0
3.7394984377951766e6 279579.81398281065 0.0
0.0 0.0 0.0

-229389.0349270936 2.2351967824577964e6 0.0
2.2351967824577964e6 -648794.8009285912 0.0
0.0 0.0 0.0

-513948.06325187295 2.217674258492926e6 0.0
2.217674258492926e6 590251.2477074186 0.0
0.0 0.0 0.0

618745.0723463868 2.1883132348724226e6 0.0
2.1883132348724226e6 -1.478541407987794e6 0.0
0.0 0.0 0.0

-1.1070344188710563e6 3.1920797221005843e6 0.0
3.1920797221005843e6 712141.0072817125 0.0
0.0 0.0 0.0

-380480.7237542693 3.130888370821498e6 0.0
3.130888370821498e6 1.041034858036663e6 0.0
0.0 0.0 0.0

-650503.5198986151 5.937988017540549e6 0.0
5.937988017540549e6 391257.12356695614 0.0
0.0 0.0 0.0

604676.4002289323 1.9656555225609331e6 0.0
1.9656555225609331e6 -1.280596895237294e6 0.0
0.0 0.0 0.0

-2.2003583108087266e6 -412542.8735154372 0.0
-412542.8735154372 2.827514892718323e6 0.0
0.0 0.0 0.0

34901.548472693656 3.283026585290668e6 0.0
3.283026585290668e6 -492859.5299562739 0.0
0.0 0.0 0.0

-1.7331568988232827e6 2.2427404061947437e6 0.0
2.2427404061947437e6 223264.16798053484 0.0
0.0 0.0 0.0

-801500.0319274568 2.6179667108427417e6 0.0
2.6179667108427417e6 386804.85726579657 0.0
0.0 0.0 0.0

-806512.4268522498 2.6720527793067703e6 0.0
2.6720527793067703e6 -27382.41618788161 0.0
0.0 0.0 0.0

-7.230681036296712e6 -658007.1121976684 0.0
-658007.1121976684 8.108363319326315e6 0.0
0.0 0.0 0.0

-313540.8003161907 2.2296408509271974e6 0.0
2.2296408509271974e6 -445169.9575355697 0.0
0.0 0.0 0.0

-1.1186692820202895e6 4.763430160983841e6 0.0
4.763430160983841e6 667300.393172509 0.0
0.0 0.0 0.0

-297111.27128447965 2.2380317226651777e6 0.0
2.2380317226651777e6 357237.81517626496 0.0
0.0 0.0 0.0

-3.063426002797788e6 19997.40778220807 0.0
19997.40778220807 2.0774113619646996e6 0.0
0.0 0.0 0.0

-518419.9525125814 3.0482055385454465e6 0.0
3.0482055385454465e6 -63165.29631770996 0.0
0.0 0.0 0.0

-37486.37688036551 -19202.318276355538 0.0
-19202.318276355538 -44151.48378944444 0.0
0.0 0.0 0.0

-1.9065468810842712e6 528044.5119577115 0.0
528044.5119577115 3.848159810582264e6 0.0
0.0 0.0 0.0

-1.3627456345455106e6 2.508463451327302e6 0.0
2.508463451327302e6 283652.14743267244 0.0
0.0 0.0 0.0

-1.9579702500444888e6 2.2908122118640323e6 0.0
2.2908122118640323e6 399795.2169600582 0.0
0.0 0.0 0.0

-2.3580908575611813e6 -75553.63341067203 0.0
-75553.63341067203 3.961936623965008e6 0.0
0.0 0.0 0.0

-432251.7153648039 1.8126387278098331e6 0.0
1.8126387278098331e6 -112463.3326805708 0.0
0.0 0.0 0.0

-457887.85466212494 3.2869171135408566e6 0.0
3.2869171135408566e6 -44619.11757326509 0.0
0.0 0.0 0.0

-324040.049716778 2.0512821595175653e6 0.0
2.0512821595175653e6 -851788.4952508761 0.0
0.0 0.0 0.0

-90215.71059213093 1.7956009060193237e6 0.0
1.7956009060193237e6 498666.3956953723 0.0
0.0 0.0 0.0

-1.585037270004985e6 2.541027400362813e6 0.0
2.541027400362813e6 246061.33627702552 0.0
0.0 0.0 0.0

-758044.5599242421 797826.4063936764 0.0
797826.4063936764 936073.2690933533 0.0
0.0 0.0 0.0

518514.95428359136 2.0880651281919433e6 0.0
2.0880651281919433e6 -1.4619722162132224e6 0.0
0.0 0.0 0.0

-1.1780768207959756e6 2.0771130576607909e6 0.0
2.0771130576607909e6 -116781.34701437151 0.0
0.0 0.0 0.0

-1.0034095267157846e6 3.8652586578294947e6 0.0
3.8652586578294947e6 810586.7608338133 0.0
0.0 0.0 0.0

1.1830056014271504e6 1.5043263089927505e6 0.0
1.5043263089927505e6 -2.005405617782709e6 0.0
0.0 0.0 0.0

-249477.92381133614 3.010466256518142e6 0.0
3.010466256518142e6 69262.8090237629 0.0
0.0 0.0 0.0

-1.3487692011034295e6 2.7225505885359338e6 0.0
2.7225505885359338e6 438859.69125559524 0.0
0.0 0.0 0.0

-366254.83848157583 2.5835949108769586e6 0.0
2.5835949108769586e6 -316834.358017092 0.0
0.0 0.0 0.0

-1.5480775797291042e6 2.1640477948474186e6 0.0
2.1640477948474186e6 109619.7956666163 0.0
0.0 0.0 0.0

-1.5616278336399852e6 3.3902259504011427e6 0.0
3.3902259504011427e6 789990.9715558758 0.0
0.0 0.0 0.0

-1.3796998896278676e6 2.423349759676228e6 0.0
2.423349759676228e6 282172.3204496626 0.0
0.0 0.0 0.0

22127.116766660612 776803.5323840018 0.0
776803.5323840018 -64712.19237549947 0.0
0.0 0.0 0.0

-55037.48081321921 3.0081083318375815e6 0.0
3.0081083318375815e6 -684829.90596514 0.0
0.0 0.0 0.0

-183992.82565381954 2.135878322314293e6 0.0
2.135878322314293e6 -822828.8211429919 0.0
0.0 0.0 0.0

-613061.7764644183 3.0345093622882245e6 0.0
3.0345093622882245e6 -25098.01947058481 0.0
0.0 0.0 0.0

-350522.087578629 2.3591366303654923e6 0.0
2.3591366303654923e6 -533158.7086751115 0.0
0.0 0.0 0.0

222508.9029773756 613774.3890369051 0.0
613774.3890369051 -1.0533213911713145e6 0.0
0.0 0.0 0.0

-705233.6586002209 3.0011508034073436e6 0.0
3.0011508034073436e6 1.6608826306145585e6 0.0
0.0 0.0 0.0

-186453.96511550137 -352386.8397421681 0.0
-352386.8397421681 281746.5175742225 0.0
0.0 0.0 0.0

-141008.42624892987 2.9200143526419606e6 0.0
2.9200143526419606e6 -530831.6064294688 0.0
0.0 0.0 0.0

-1.2767269837172648e6 2.645752063874505e6 0.0
2.645752063874505e6 298745.3658520184 0.0
0.0 0.0 0.0

-81837.56241393345 2.126999917629809e6 0.0
2.126999917629809e6 -923275.5119822404 0.0
0.0 0.0 0.0

-950666.7675155342 4.580671237522534e6 0.0
4.580671237522534e6 796825.7903637204 0.0
0.0 0.0 0.0

-226458.74929918075 3.033452379569477e6 0.0
3.033452379569477e6 -402789.0171057324 0.0
0.0 0.0 0.0

492868.4872712863 1.5808181017352934e6 0.0
1.5808181017352934e6 -1.1728114559195898e6 0.0
0.0 0.0 0.0

-1.0645584435060814e6 3.5963111991834925e6 0.0
3.5963111991834925e6 634670.9406514124 0.0
0.0 0.0 0.0

-240958.5885442007 2.1981092975195204e6 0.0
2.1981092975195204e6 -735274.3648744605 0.0
0.0 0.0 0.0

802598.6699353269 171522.6587935804 0.0
171522.6587935804 -1.1840583193882562e6 0.0
0.0 0.0 0.0

-341523.25954260514 3.714186681943286e6 0.0
3.714186681943286e6 439444.5882367282 0.0
0.0 0.0 0.0

-439266.22795267514 3.1262787574400543e6 0.0
3.1262787574400543e6 -171644.10241215024 0.0
0.0 0.0 0.0

-1.3059698753750909e6 2.6181710567624923e6 0.0
2.6181710567624923e6 292104.45796535973 0.0
0.0 0.0 0.0

-216076.31953174667 3.1595023846738874e6 0.0
3.1595023846738874e6 -345112.75784600753 0.0
0.0 0.0 0.0

80858.9114274407 100220.36961235509 0.0
100220.36961235509 -500587.35044916905 0.0
0.0 0.0 0.0

-1.5615056800388214e6 -56277.02795290882 0.0
-56277.02795290882 1.8616827350548382e6 0.0
0.0 0.0 0.0

-391453.79946449655 2.4648276846161704e6 0.0
2.4648276846161704e6 -449434.9657730552 0.0
0.0 0.0 0.0

819717.888489791 3.6225629949617507e6 0.0
3.6225629949617507e6 -1.0313165769351544e6 0.0
0.0 0.0 0.0

60493.13661962055 245766.0738962055 0.0
245766.0738962055 -410691.3858261651 0.0
0.0 0.0 0.0

325129.9888047654 28481.247128893276 0.0
28481.247128893276 -364979.20882945403 0.0
0.0 0.0 0.0

-211099.108173669 2.0898809231754753e6 0.0
2.0898809231754753e6 -248742.6128744343 0.0
0.0 0.0 0.0

-1.103813761391838e6 4.0681814917052784e6 0.0
4.0681814917052784e6 925330.8882933117 0.0
0.0 0.0 0.0

222853.3178961131 2.6200215708668777e6 0.0
2.6200215708668777e6 -964880.100141223 0.0
0.0 0.0 0.0

311626.31554644037 397763.79148610856 0.0
397763.79148610856 -957354.4278591585 0.0
0.0 0.0 0.0

-1.6258417406468883e6 2.729815743910022e6 0.0
2.729815743910022e6 408352.4485649703 0.0
0.0 0.0 0.0

-926503.729780197 3.641507044645977e6 0.0
3.641507044645977e6 704095.9303414039 0.0
0.0 0.0 0.0

-2.937482489638661e6 2.0078932281969867e6 0.0
2.0078932281969867e6 960220.1333708966 0.0
0.0 0.0 0.0

-1.4890239080122467e6 2.6379024325209833e6 0.0
2.6379024325209833e6 277851.73390829907 0.0
0.0 0.0 0.0

-1.9662573825325097e6 3.0918943144482723e6 0.0
3.0918943144482723e6 895284.6838836273 0.0
0.0 0.0 0.0

-363038.5218194751 3.0492589368761745e6 0.0
3.0492589368761745e6 -329794.42945540574 0.0
0.0 0.0 0.0

602781.8316404102 3.2527079399743625e6 0.0
3.2527079399743625e6 -1.030741136964322e6 0.0
0.0 0.0 0.0

-482333.93948121526 2.9988993920111535e6 0.0
2.9988993920111535e6 -73276.44695643589 0.0
0.0 0.0 0.0

-880256.5154414651 -390019.2048159417 0.0
-390019.2048159417 977639.9510215124 0.0
0.0 0.0 0.0

-2.3820788181983824e6 -745594.6030133566 0.0
-745594.6030133566 3.035717987056636e6 0.0
0.0 0.0 0.0

1.1652521323135234e6 1.226526487793058e6 0.0
1.226526487793058e6 -1.8086234889658308e6 0.0
0.0 0.0 0.0

-568986.7101472893 3.021245245840543e6 0.0
3.021245245840543e6 -141919.89025104698 0.0
0.0 0.0 0.0

-4.037883796464108e6 264050.79780276644 0.0
264050.79780276644 7.025395826756684e6 0.0
0.0 0.0 0.0

-294811.08707243076 2.2722260204556575e6 0.0
2.2722260204556575e6 -628351.3410871107 0.0
0.0 0.0 0.0

-6.292589798808889e6 360444.05018437357 0.0
360444.05018437357 8.046425010049588e6 0.0
0.0 0.0 0.0

-1.1845888654466264e6 3.813781451325804e6 0.0
3.813781451325804e6 733148.3622484475 0.0
0.0 0.0 0.0

-1.5120448183310998e6 5.236066149956473e6 0.0
5.236066149956473e6 958298.9167150614 0.0
0.0 0.0 0.0

-179312.95034880223 3.105305160908845e6 0.0
3.105305160908845e6 -392769.6058634668 0.0
0.0 0.0 0.0

279949.6835514966 63589.840739635205 0.0
63589.840739635205 -283949.6408942098 0.0
0.0 0.0 0.0

-104122.94490373394 3.241733426519676e6 0.0
3.241733426519676e6 -428041.04116551706 0.0
0.0 0.0 0.0

-279520.0100787139 2.176050671062215e6 0.0
2.176050671062215e6 -405437.502525209 0.0
0.0 0.0 0.0

1.256588348560697e6 1.1070958001471197e6 0.0
1.1070958001471197e6 -1.7821210603902948e6 0.0
0.0 0.0 0.0

-479384.54281429294 3.242132152290226e6 0.0
3.242132152290226e6 -865.2780347917869 0.0
0.0 0.0 0.0

-2.217847067784502e6 782779.2537812385 0.0
782779.2537812385 1.7496160093544247e6 0.0
0.0 0.0 0.0

-1.2781119884840494e6 2.525706244204894e6 0.0
2.525706244204894e6 -429001.2259856843 0.0
0.0 0.0 0.0

-1.7078401060866225e6 2.9824171421675775e6 0.0
2.9824171421675775e6 657624.0701360909 0.0
0.0 0.0 0.0

-752278.13454517 1.8731962636574698e6 0.0
1.8731962636574698e6 -52640.97629412668 0.0
0.0 0.0 0.0

-426198.79006893653 2.9876582125512217e6 0.0
2.9876582125512217e6 -270656.13181740075 0.0
0.0 0.0 0.0

-1.7212687287547588e6 4.790772744546128e6 0.0
4.790772744546128e6 1.1794490570095703e6 0.0
0.0 0.0 0.0

-285321.8336266199 2.798803279566965e6 0.0
2.798803279566965e6 402342.44681252184 0.0
0.0 0.0 0.0

-252736.45561932656 3.122963645112429e6 0.0
3.122963645112429e6 -281634.3026248296 0.0
0.0 0.0 0.0

-504724.1437645071 1.7409571972715065e6 0.0
1.7409571972715065e6 163188.59010996888 0.0
0.0 0.0 0.0

-2.0729929329356558e6 2.7480681906819004e6 0.0
2.7480681906819004e6 735610.3605319462 0.0
0.0 0.0 0.0

-156314.14850965654 -172061.0700491806 0.0
-172061.0700491806 69383.96007480784 0.0
0.0 0.0 0.0

1.120314143642221e6 1.0502613283071201e6 0.0
1.0502613283071201e6 -1.598201694359223e6 0.0
0.0 0.0 0.0

-1.6996379644108717e6 4.417443372702917e6 0.0
4.417443372702917e6 1.1924282168999193e6 0.0
0.0 0.0 0.0

-114821.57407586137 2.1395084912610585e6 0.0
2.1395084912610585e6 -828754.9671385821 0.0
0.0 0.0 0.0

-101308.24119625805 -203158.06728445712 0.0
-203158.06728445712 -224892.07901838986 0.0
0.0 0.0 0.0

-758093.7894638068 900642.0111442266 0.0
900642.0111442266 -60657.42475043924 0.0
0.0 0.0 0.0

-1.0617917470180767e6 2.879924267734783e6 0.0
2.879924267734783e6 557817.148780881 0.0
0.0 0.0 0.0

280097.99564937 1.977653897039767e6 0.0
1.977653897039767e6 -1.1579850567418463e6 0.0
0.0 0.0 0.0

-586405.6032762798 2.704035575679008e6 0.0
2.704035575679008e6 1.5102198841250117e6 0.0
0.0 0.0 0.0

117376.34213315985 790178.9126633257 0.0
790178.9126633257 -98863.9599946858 0.0
0.0 0.0 0.0

103724.88803978008 183541.33942753196 0.0
183541.33942753196 -496793.5520166361 0.0
0.0 0.0 0.0

-776320.8629354006 4.891555615575473e6 0.0
4.891555615575473e6 691192.0474424607 0.0
0.0 0.0 0.0

5726.560952399208 -93251.72829845051 0.0
-93251.72829845051 29900.692339529152 0.0
0.0 0.0 0.0

-472618.2345399489 2.2325787986638434e6 0.0
2.2325787986638434e6 -203846.78846095857 0.0
0.0 0.0 0.0

-312650.01000316127 2.5682036792865517e6 0.0
2.5682036792865517e6 -423323.25628610613 0.0
0.0 0.0 0.0

-725608.9161545943 4.565467235841053e6 0.0
4.565467235841053e6 351830.5015165181 0.0
0.0 0.0 0.0

-285343.3412973612 2.4038148618247896e6 0.0
2.4038148618247896e6 -492149.3789522145 0.0
0.0 0.0 0.0

-200301.0070203527 2.8218722084136065e6 0.0
2.8218722084136065e6 556124.8169097196 0.0
0.0 0.0 0.0

-709896.1571743488 2.686153704410218e6 0.0
2.686153704410218e6 -84778.50771950299 0.0
0.0 0.0 0.0

-232373.1385584892 -302480.42373878654 0.0
-302480.42373878654 477173.5314493129 0.0
0.0 0.0 0.0

-1.489904960750292e6 4.615629938030139e6 0.0
4.615629938030139e6 1.1915001148676532e6 0.0
0.0 0.0 0.0

-73518.3849353225 3.1761877610474452e6 0.0
3.1761877610474452e6 -210821.75990857513 0.0
0.0 0.0 0.0

-111379.49212519915 1.5959432887000153e6 0.0
1.5959432887000153e6 -993501.0821563127 0.0
0.0 0.0 0.0

1.2820547186144e6 1.1954884143262901e6 0.0
1.1954884143262901e6 -1.814573574712161e6 0.0
0.0 0.0 0.0

-1.522621388108633e6 3.5727898342376985e6 0.0
3.5727898342376985e6 869997.1749305162 0.0
0.0 0.0 0.0

403017.8590497221 740257.4243386152 0.0
740257.4243386152 -828429.5132251123 0.0
0.0 0.0 0.0

-787847.2093221563 640908.0468351922 0.0
640908.0468351922 1.5110920374266107e6 0.0
0.0 0.0 0.0

-55438.811659408384 2.1315478933873465e6 0.0
2.1315478933873465e6 -1.0437062043383837e6 0.0
0.0 0.0 0.0

538103.1085401478 2.781519168236288e6 0.0
2.781519168236288e6 -1.1220888703985089e6 0.0
0.0 0.0 0.0

-1.4912118309734897e6 4.72941221644071e6 0.0
4.72941221644071e6 1.196279250368123e6 0.0
0.0 0.0 0.0

-230108.56460478262 3.129744547339222e6 0.0
3.129744547339222e6 -332213.0371221615 0.0
0.0 0.0 0.0

-4.059444710606909e6 7990.879326316742 0.0
7990.879326316742 2.794979944316931e6 0.0
0.0 0.0 0.0

-201594.72065378132 2.9092812690819013e6 0.0
2.9092812690819013e6 1.0746153018013195e6 0.0
0.0 0.0 0.0

-2.7127502556337225e6 1.0786993263108747e6 0.0
1.0786993263108747e6 826216.5973506842 0.0
0.0 0.0 0.0

439599.53509544383 1.7712472858136124e6 0.0
1.7712472858136124e6 -1.6631604901997168e6 0.0
0.0 0.0 0.0

191484.0909861855 1.2827719251559179e6 0.0
1.2827719251559179e6 -71577.57280404746 0.0
0.0 0.0 0.0

-647970.4227183997 -155465.3827631808 0.0
-155465.3827631808 759839.7311007563 0.0
0.0 0.0 0.0

780021.204026201 472790.1709124845 0.0
472790.1709124845 -948096.04005635 0.0
0.0 0.0 0.0

-132197.56946723402 -193015.67842536626 0.0
-193015.67842536626 350477.0198054543 0.0
0.0 0.0 0.0

-84702.45864907608 -67756.35527473125 0.0
-67756.35527473125 -21024.919400654355 0.0
0.0 0.0 0.0

-246688.36101248505 2.347205616009048e6 0.0
2.347205616009048e6 -517908.810658308 0.0
0.0 0.0 0.0

-246983.8198241835 2.070146595429017e6 0.0
2.070146595429017e6 -823279.404191536 0.0
0.0 0.0 0.0

-190470.56281217388 3.171670438603352e6 0.0
3.171670438603352e6 -634901.8821300373 0.0
0.0 0.0 0.0

-338144.1448149857 2.5437178877778337e6 0.0
2.5437178877778337e6 -478582.70800602826 0.0
0.0 0.0 0.0

-1.476374850023991e6 4.842309439790659e6 0.0
4.842309439790659e6 1.1545844075517426e6 0.0
0.0 0.0 0.0

610404.0064797843 249389.56931201468 0.0
249389.56931201468 -658396.0846580926 0.0
0.0 0.0 0.0

-435541.5622670217 2.417728155166843e6 0.0
2.417728155166843e6 -390331.0810514208 0.0
0.0 0.0 0.0

-1.1232809703837028e6 2.55506054634155e6 0.0
2.55506054634155e6 335518.38170362974 0.0
0.0 0.0 0.0

893910.3939888518 1.3575899561887786e6 0.0
1.3575899561887786e6 -1.7498183324698892e6 0.0
0.0 0.0 0.0

-63852.98569347195 -132099.397860512 0.0
-132099.397860512 125657.32247187584 0.0
0.0 0.0 0.0

-1.3275753832948585e6 4.518082762783435e6 0.0
4.518082762783435e6 1.1057570937403734e6 0.0
0.0 0.0 0.0

-254942.51768217975 3.0893985781325363e6 0.0
3.0893985781325363e6 -329874.1905639785 0.0
0.0 0.0 0.0

-280469.7852223988 3.0466259211142496e6 0.0
3.0466259211142496e6 -333460.5551470958 0.0
0.0 0.0 0.0

-682072.2759682315 3.0174025030578254e6 0.0
3.0174025030578254e6 413147.5905179732 0.0
0.0 0.0 0.0

-111237.74563205472 2.6453443358215624e6 0.0
2.6453443358215624e6 -615861.9881462808 0.0
0.0 0.0 0.0

-657198.235982796 3.895866612932662e6 0.0
3.895866612932662e6 43521.61588234748 0.0
0.0 0.0 0.0

-3.3779845541084763e6 66334.25613934867 0.0
66334.25613934867 3.9056721606406467e6 0.0
0.0 0.0 0.0

-479183.4356281794 -348832.33020140586 0.0
-348832.33020140586 532154.4706996239 0.0
0.0 0.0 0.0

85047.47813181733 1.4509813275874618e6 0.0
1.4509813275874618e6 -752223.6096683036 0.0
0.0 0.0 0.0

1.203843174794097e6 1.213768451630066e6 0.0
1.213768451630066e6 -1.8459522698618267e6 0.0
0.0 0.0 0.0

-399117.8087961147 2.4482096347670993e6 0.0
2.4482096347670993e6 -290684.5957751769 0.0
0.0 0.0 0.0

-399991.28359419876 2.4901120887577706e6 0.0
2.4901120887577706e6 453863.45824840013 0.0
0.0 0.0 0.0

437197.2003354914 357089.93231786095 0.0
357089.93231786095 -1.0259981220761614e6 0.0
0.0 0.0 0.0

252998.0443804288 3.217143290190501e6 0.0
3.217143290190501e6 -1.129296828702639e6 0.0
0.0 0.0 0.0

506206.9033660457 2.5566926877890453e6 0.0
2.5566926877890453e6 -1.1413752802984016e6 0.0
0.0 0.0 0.0

-226794.11763803026 2.437021898338393e6 0.0
2.437021898338393e6 -254677.1194874429 0.0
0.0 0.0 0.0

-528034.6286309632 3.059954992010714e6 0.0
3.059954992010714e6 -134479.30052760176 0.0
0.0 0.0 0.0

-860864.4080710115 3.998383327350734e6 0.0
3.998383327350734e6 60593.609601761156 0.0
0.0 0.0 0.0

-1.2959416248198594e6 -447879.3084878586 0.0
-447879.3084878586 2.11621683165136e6 0.0
0.0 0.0 0.0

516016.64375524275 2.419337001294225e6 0.0
2.419337001294225e6 -1.158414420941065e6 0.0
0.0 0.0 0.0

-3.893100452059415e6 -127018.64501819467 0.0
-127018.64501819467 4.547416558748906e6 0.0
0.0 0.0 0.0

-289199.71833938267 2.9911099656730043e6 0.0
2.9911099656730043e6 -328387.14776857063 0.0
0.0 0.0 0.0

-1.6779547983469875e6 4.799206129642294e6 0.0
4.799206129642294e6 1.0870906249731514e6 0.0
0.0 0.0 0.0

-955116.1651258355 2.488657561490902e6 0.0
2.488657561490902e6 -147393.47406232514 0.0
0.0 0.0 0.0

-504807.0025975753 589704.9586042203 0.0
589704.9586042203 1.0671914865415515e6 0.0
0.0 0.0 0.0

-90554.49146785177 2.042148511585416e6 0.0
2.042148511585416e6 -856616.8203905952 0.0
0.0 0.0 0.0

39885.32135198824 3.184726092929264e6 0.0
3.184726092929264e6 -698757.9337107893 0.0
0.0 0.0 0.0

1.0874365763725122e6 1.209423594452704e6 0.0
1.209423594452704e6 -1.7792268606343667e6 0.0
0.0 0.0 0.0

-485101.58137662656 601473.2913377464 0.0
601473.2913377464 -238461.9172711349 0.0
0.0 0.0 0.0

-1.1029036342038235e6 113535.59525765067 0.0
113535.59525765067 2.116214651299749e6 0.0
0.0 0.0 0.0

-394302.9174494737 3.0663680297767017e6 0.0
3.0663680297767017e6 -135488.38571262738 0.0
0.0 0.0 0.0

-1.621285628253291e6 1.3609488369805028e6 0.0
1.3609488369805028e6 20760.49206491653 0.0
0.0 0.0 0.0

-22425.171221622964 2.2250678455594517e6 0.0
2.2250678455594517e6 -1.0134359554703753e6 0.0
0.0 0.0 0.0

642637.1364274739 1.613527276226499e6 0.0
1.613527276226499e6 -1.6940185970201597e6 0.0
0.0 0.0 0.0

500010.6769707966 2.3399453664258653e6 0.0
2.3399453664258653e6 -1.1584621457465051e6 0.0
0.0 0.0 0.0

366030.4703479565 420644.05390710226 0.0
420644.05390710226 -1.7571343734096452e6 0.0
0.0 0.0 0.0

-736844.1836791995 2.5825388999045067e6 0.0
2.5825388999045067e6 273158.60492504877 0.0
0.0 0.0 0.0

-491056.311376836 3.011754177278158e6 0.0
3.011754177278158e6 -18443.173002570693 0.0
0.0 0.0 0.0

-2.344105680928677e6 1.6423429460375032e6 0.0
1.6423429460375032e6 936163.6740353255 0.0
0.0 0.0 0.0

224527.01955204544 137431.52257313015 0.0
137431.52257313015 -284993.50746874616 0.0
0.0 0.0 0.0

-147627.06233264325 2.196354985370024e6 0.0
2.196354985370024e6 -725457.292938797 0.0
0.0 0.0 0.0

-452481.8029253271 963284.3912514092 0.0
963284.3912514092 1.1721159091863167e6 0.0
0.0 0.0 0.0

-8343.02386978237 74764.21104819 0.0
74764.21104819 43100.12760716424 0.0
0.0 0.0 0.0

1.1924593248360124e6 1.0864749407027184e6 0.0
1.0864749407027184e6 -1.7257385140643746e6 0.0
0.0 0.0 0.0

39974.269668835055 120304.3997595432 0.0
120304.3997595432 -45316.38924337618 0.0
0.0 0.0 0.0

25173.80313137174 -45567.37331916654 0.0
-45567.37331916654 19400.653119878247 0.0
0.0 0.0 0.0

1.0470254489299047e6 294300.78242835315 0.0
294300.78242835315 -1.252844107922275e6 0.0
0.0 0.0 0.0

-439045.0521590861 3.0751315218624976e6 0.0
3.0751315218624976e6 -59173.326594841594 0.0
0.0 0.0 0.0

-422000.9750619296 2.55473732659963e6 0.0
2.55473732659963e6 284095.7174163143 0.0
0.0 0.0 0.0

1.3820694421158377e6 1.4573004723001749e6 0.0
1.4573004723001749e6 -812513.7437286526 0.0
0.0 0.0 0.0

-1.2690975528915059e6 -351597.03785368975 0.0
-351597.03785368975 1.4131102338050432e6 0.0
0.0 0.0 0.0

-24354.080615416096 272168.5391635407 0.0
272168.5391635407 -281851.8908005741 0.0
0.0 0.0 0.0

876206.7031404213 1.4841361091035774e6 0.0
1.4841361091035774e6 -1.4981367038024622e6 0.0
0.0 0.0 0.0

1.0397652604675868e6 1.2807776520446804e6 0.0
1.2807776520446804e6 -1.6324150128595603e6 0.0
0.0 0.0 0.0

-683699.2763993614 142518.40916767422 0.0
142518.40916767422 400760.6139579449 0.0
0.0 0.0 0.0

-109489.40334245782 183725.16108556406 0.0
183725.16108556406 165841.85958685866 0.0
0.0 0.0 0.0

57932.40083485161 2.493216864639486e6 0.0
2.493216864639486e6 -1.244580520177739e6 0.0
0.0 0.0 0.0

1.2242299548885163e6 1.1712724427129668e6 0.0
1.1712724427129668e6 -1.8252141181888497e6 0.0
0.0 0.0 0.0

-1.3208142343663177e6 2.6427866570372772e6 0.0
2.6427866570372772e6 -249100.71369642214 0.0
0.0 0.0 0.0

-488273.5825670352 1.785767881726478e6 0.0
1.785767881726478e6 195846.60062463835 0.0
0.0 0.0 0.0

-1.2091146729465814e6 4.291643332336054e6 0.0
4.291643332336054e6 1.0141275999322461e6 0.0
0.0 0.0 0.0

-28426.14172135273 2.7413607471156046e6 0.0
2.7413607471156046e6 -711221.5361322023 0.0
0.0 0.0 0.0

-17990.37187903159 3.093788595293277e6 0.0
3.093788595293277e6 973865.8760327933 0.0
0.0 0.0 0.0

-1.142882203875124e6 2.933178008031561e6 0.0
2.933178008031561e6 418452.6303564577 0.0
0.0 0.0 0.0

-750126.0973777283 -178734.17119365803 0.0
-178734.17119365803 1.376557375248967e6 0.0
0.0 0.0 0.0

-486652.80780255893 3.1037908285263726e6 0.0
3.1037908285263726e6 -155234.95440765 0.0
0.0 0.0 0.0

-488354.3206170632 3.089329138090453e6 0.0
3.089329138090453e6 -13521.820135061047 0.0
0.0 0.0 0.0

-348962.298924592 1.064189656936813e6 0.0
1.064189656936813e6 1.0178797587674161e6 0.0
0.0 0.0 0.0

134416.54429673706 41272.720315017614 0.0
41272.720315017614 -37991.80002699316 0.0
0.0 0.0 0.0

-1.6800554628759862e6 4.566251360913188e6 0.0
4.566251360913188e6 1.116235684966603e6 0.0
0.0 0.0 0.0

620759.9679775189 1.5533238136313464e6 0.0
1.5533238136313464e6 -1.6921841326296453e6 0.0
0.0 0.0 0.0

-891490.9220141232 3.7275198966601714e6 0.0
3.7275198966601714e6 663785.8231698344 0.0
0.0 0.0 0.0

1.180810455942382e6 1.2018386260619976e6 0.0
1.2018386260619976e6 -1.7693493290481335e6 0.0
0.0 0.0 0.0

348884.4896986554 2.0733375385728534e6 0.0
2.0733375385728534e6 392544.49605271686 0.0
0.0 0.0 0.0

-1.072937081438221e6 2.8693139642321365e6 0.0
2.8693139642321365e6 524124.1331106077 0.0
0.0 0.0 0.0

517020.21888908255 105316.19321048025 0.0
105316.19321048025 -690727.6421702452 0.0
0.0 0.0 0.0

-91750.56945603943 2.900199156882145e6 0.0
2.900199156882145e6 -885915.5317102603 0.0
0.0 0.0 0.0

1.2777043591783652e6 1.1474773653377423e6 0.0
1.1474773653377423e6 -1.7882622308551273e6 0.0
0.0 0.0 0.0

-736286.844864521 4.54111913403921e6 0.0
4.54111913403921e6 395011.35629627685 0.0
0.0 0.0 0.0

-2514.4936896021827 139116.61116141063 0.0
139116.61116141063 -874385.6524026322 0.0
0.0 0.0 0.0

180435.8514852549 129837.8466457997 0.0
129837.8466457997 -347916.51804860635 0.0
0.0 0.0 0.0

-1.2541148640194163e6 2.6591952389928326e6 0.0
2.6591952389928326e6 329354.5158999339 0.0
0.0 0.0 0.0

450929.8414522729 2.266960535316706e6 0.0
2.266960535316706e6 -1.0900816704225722e6 0.0
0.0 0.0 0.0

-264900.7821977475 2.0185280408711089e6 0.0
2.0185280408711089e6 -883002.5977751142 0.0
0.0 0.0 0.0

-212080.61250626112 3.0037562304048394e6 0.0
3.0037562304048394e6 -706935.3318065957 0.0
0.0 0.0 0.0

-398666.08132581564 2.6764437255153325e6 0.0
2.6764437255153325e6 174848.76634814122 0.0
0.0 0.0 0.0

-98906.37068747812 2.3933336809303323e6 0.0
2.3933336809303323e6 -302321.6619627758 0.0
0.0 0.0 0.0

100098.62843480115 3.305220804469815e6 0.0
3.305220804469815e6 -486088.78543397906 0.0
0.0 0.0 0.0

499380.9452502646 59734.54975409173 0.0
59734.54975409173 -408294.90070974734 0.0
0.0 0.0 0.0

-236056.11912107695 2.6467217918851785e6 0.0
2.6467217918851785e6 -299299.5955175621 0.0
0.0 0.0 0.0

-551491.5999766428 2.2786990478074756e6 0.0
2.2786990478074756e6 143849.69966354495 0.0
0.0 0.0 0.0

-145495.7283049979 77066.8555012897 0.0
77066.8555012897 -589111.2556134815 0.0
0.0 0.0 0.0

-34241.15187610017 119994.35233689484 0.0
119994.35233689484 -52238.344964708514 0.0
0.0 0.0 0.0

-513931.79364824353 3.4971514250711515e6 0.0
3.4971514250711515e6 -228477.33589526115 0.0
0.0 0.0 0.0

-452467.35590742715 1.0504151059030457e6 0.0
1.0504151059030457e6 673237.715999235 0.0
0.0 0.0 0.0

-68289.62347600126 3.2231257337217093e6 0.0
3.2231257337217093e6 -315643.2188381153 0.0
0.0 0.0 0.0

43514.74590959401 261724.37571842727 0.0
261724.37571842727 -86192.89545877725 0.0
0.0 0.0 0.0

-606029.360818039 2.9687791116397106e6 0.0
2.9687791116397106e6 -79354.72443190853 0.0
0.0 0.0 0.0

-694744.3603894633 2.765169546744675e6 0.0
2.765169546744675e6 -61612.435234932345 0.0
0.0 0.0 0.0

-572592.7572841686 87453.67683941226 0.0
87453.67683941226 1.3940782232139884e6 0.0
0.0 0.0 0.0

162321.68011133798 991137.4274109135 0.0
991137.4274109135 -1.3213047243225444e6 0.0
0.0 0.0 0.0

-344352.8390563528 -256342.51750325318 0.0
-256342.51750325318 404106.87851894146 0.0
0.0 0.0 0.0

-370872.0812325781 2.4017381629935945e6 0.0
2.4017381629935945e6 -489827.92549917183 0.0
0.0 0.0 0.0

-501479.26786555594 3.059888592006851e6 0.0
3.059888592006851e6 -97181.44735522398 0.0
0.0 0.0 0.0

-305200.1318276471 2.973086891993375e6 0.0
2.973086891993375e6 -335536.593130753 0.0
0.0 0.0 0.0

253785.7721540889 725768.6803931398 0.0
725768.6803931398 -857106.5036150331 0.0
0.0 0.0 0.0

-44254.10835141166 -8106.067596104974 0.0
-8106.067596104974 28181.642806867858 0.0
0.0 0.0 0.0

-5.162960905835353e6 487808.9101923382 0.0
487808.9101923382 6.888155967472116e6 0.0
0.0 0.0 0.0

-2.0164206418664206e6 87678.13279853988 0.0
87678.13279853988 3.5461128290898176e6 0.0
0.0 0.0 0.0

-331617.32412096707 2.6321752816416146e6 0.0
2.6321752816416146e6 83613.33645494077 0.0
0.0 0.0 0.0

18372.36173504677 185885.21218523942 0.0
185885.21218523942 -186956.29608250264 0.0
0.0 0.0 0.0

-159770.87519325 2.410343450227425e6 0.0
2.410343450227425e6 -324710.066262426 0.0
0.0 0.0 0.0

-1.2163390875673082e6 3.279557031895081e6 0.0
3.279557031895081e6 831952.7719427084 0.0
0.0 0.0 0.0

-565890.43383501 2.1858316448348793e6 0.0
2.1858316448348793e6 -277439.406134407 0.0
0.0 0.0 0.0

-430957.39156329224 2.944833962644802e6 0.0
2.944833962644802e6 56016.72297799945 0.0
0.0 0.0 0.0

-1.6092714141485058e6 2.4712113730515656e6 0.0
2.4712113730515656e6 224250.8201403704 0.0
0.0 0.0 0.0

-702179.1196088098 179886.8394190161 0.0
179886.8394190161 1.0133034797982334e6 0.0
0.0 0.0 0.0

-308644.0461382695 2.64433082412622e6 0.0
2.64433082412622e6 73969.88742364751 0.0
0.0 0.0 0.0

-260707.92468630426 2.484343631383002e6 0.0
2.484343631383002e6 -450371.4091107527 0.0
0.0 0.0 0.0

315013.19737975555 1.7856209659777142e6 0.0
1.7856209659777142e6 -1.1270510350360603e6 0.0
0.0 0.0 0.0

1.3487184839711953e6 1.143722257020266e6 0.0
1.143722257020266e6 -1.8523163901205184e6 0.0
0.0 0.0 0.0

-175636.8839860919 -284201.3432685148 0.0
-284201.3432685148 164173.80639676284 0.0
0.0 0.0 0.0

-463602.1623157955 2.9244340596902026e6 0.0
2.9244340596902026e6 9703.602250383003 0.0
0.0 0.0 0.0

-1.608521490183534e6 1.3354707534905206e6 0.0
1.3354707534905206e6 2.591408083613023e6 0.0
0.0 0.0 0.0

-9.853435895849176e6 1.136740333519129e6 0.0
1.136740333519129e6 1.2768585695260482e7 0.0
0.0 0.0 0.0

-681304.7703630752 2.0853051073596103e6 0.0
2.0853051073596103e6 -168051.8944809936 0.0
0.0 0.0 0.0

-221953.75522253176 2.720570264485466e6 0.0
2.720570264485466e6 -739845.7887515738 0.0
0.0 0.0 0.0

-48285.98960110738 56948.835458317815 0.0
56948.835458317815 -31317.500965321015 0.0
0.0 0.0 0.0

-1.4510256895924364e6 -130822.55037298251 0.0
-130822.55037298251 891707.8428195587 0.0
0.0 0.0 0.0

595354.5949347918 1.3822511771960782e6 0.0
1.3822511771960782e6 -1.5787487276071813e6 0.0
0.0 0.0 0.0

253949.4897631145 48154.47620995719 0.0
48154.47620995719 -315609.0440709542 0.0
0.0 0.0 0.0

515174.1882813212 1.761319497266931e6 0.0
1.761319497266931e6 -1.668189702172148e6 0.0
0.0 0.0 0.0

-1.2862108605639292e6 690487.8073313095 0.0
690487.8073313095 2.8379308541014967e6 0.0
0.0 0.0 0.0

1.1692542345198095e6 1.0341163380174789e6 0.0
1.0341163380174789e6 -1.5791790473821177e6 0.0
0.0 0.0 0.0

-783549.706437021 4.499797120932209e6 0.0
4.499797120932209e6 477390.532598192 0.0
0.0 0.0 0.0

-719832.938962846 3.2154905296480726e6 0.0
3.2154905296480726e6 115199.23185034847 0.0
0.0 0.0 0.0

-86276.39412586768 1.3591524475156043e6 0.0
1.3591524475156043e6 58580.992909616325 0.0
0.0 0.0 0.0

2.089086875513909e6 1.525933194030289e6 0.0
1.525933194030289e6 -1.1262062495309452e6 0.0
0.0 0.0 0.0

-2.2981468030274436e6 687186.9191763259 0.0
687186.9191763259 3.5976159814280076e6 0.0
0.0 0.0 0.0

-761755.8509499955 2.4614693831379693e6 0.0
2.4614693831379693e6 226016.63787768688 0.0
0.0 0.0 0.0

-251713.14380798675 -128997.80359472896 0.0
-128997.80359472896 236240.89355253454 0.0
0.0 0.0 0.0

-147704.96314074122 227767.0018927007 0.0
227767.0018927007 -667705.1652502435 0.0
0.0 0.0 0.0

-433213.46401452826 3.209697496026177e6 0.0
3.209697496026177e6 -308328.63779261993 0.0
0.0 0.0 0.0

-402103.49925678456 1.9475873310448998e6 0.0
1.9475873310448998e6 482985.126128501 0.0
0.0 0.0 0.0

274791.1516775775 196714.95051600758 0.0
196714.95051600758 -254103.29237007396 0.0
0.0 0.0 0.0

858639.4523146804 1.146385290438614e6 0.0
1.146385290438614e6 -1.5835776724051894e6 0.0
0.0 0.0 0.0

326559.1546464883 3.1949014697635723e6 0.0
3.1949014697635723e6 -949435.6905167378 0.0
0.0 0.0 0.0

504453.68460561417 214026.0442530924 0.0
214026.0442530924 -408498.11349590577 0.0
0.0 0.0 0.0

987501.8486358143 927939.0565272422 0.0
927939.0565272422 -1.3760413560126834e6 0.0
0.0 0.0 0.0

-785482.0498337361 2.342307741591508e6 0.0
2.342307741591508e6 18876.55315873667 0.0
0.0 0.0 0.0

-363532.1617621643 3.360860330635987e6 0.0
3.360860330635987e6 -225551.70896982006 0.0
0.0 0.0 0.0

1.2522545385025376e6 1.2447721113056103e6 0.0
1.2447721113056103e6 -1.7952435966897726e6 0.0
0.0 0.0 0.0

-113587.78068391315 74961.69816551944 0.0
74961.69816551944 -27972.40070371324 0.0
0.0 0.0 0.0

-283143.7832551033 1.4521981884303375e6 0.0
1.4521981884303375e6 558962.6999866129 0.0
0.0 0.0 0.0

131055.85393608114 796355.9982954024 0.0
796355.9982954024 -409114.17960837274 0.0
0.0 0.0 0.0

196524.99474291454 278225.2346430762 0.0
278225.2346430762 -78705.09681396809 0.0
0.0 0.0 0.0

1.2037163501601703e6 1.4005882572401916e6 0.0
1.4005882572401916e6 -1.8418808136110315e6 0.0
0.0 0.0 0.0

138300.45014281143 2.8824130479368237e6 0.0
2.8824130479368237e6 461001.73518961767 0.0
0.0 0.0 0.0

-709508.8504549447 2.7285814986732253e6 0.0
2.7285814986732253e6 1.391453068809924e6 0.0
0.0 0.0 0.0

90495.3817861703 2.661508906673391e6 0.0
2.661508906673391e6 -1.1088437409893617e6 0.0
0.0 0.0 0.0

-878881.2484118285 2.17130532266807e6 0.0
2.17130532266807e6 125819.44879186811 0.0
0.0 0.0 0.0

-430319.0361979366 2.224441731823268e6 0.0
2.224441731823268e6 478578.7610189564 0.0
0.0 0.0 0.0

-505749.8575842844 3.4865978216266227e6 0.0
3.4865978216266227e6 100711.27859844128 0.0
0.0 0.0 0.0

330325.726228721 1.769740820118372e6 0.0
1.769740820118372e6 -1.604771964860218e6 0.0
0.0 0.0 0.0

-1.6811605965758658e6 4.887951983134227e6 0.0
4.887951983134227e6 1.0864271672090066e6 0.0
0.0 0.0 0.0

-112509.3739896651 2.6356091341955755e6 0.0
2.6356091341955755e6 -651338.6671666126 0.0
0.0 0.0 0.0

-1.2368937242696285e6 -520566.6782401875 0.0
-520566.6782401875 1.55037481039302e6 0.0
0.0 0.0 0.0

3.763511998390992e6 2.462070257996603e6 0.0
2.462070257996603e6 -1.9176922891700708e6 0.0
0.0 0.0 0.0

-406196.419890727 2.3103073642993253e6 0.0
2.3103073642993253e6 240297.92063434425 0.0
0.0 0.0 0.0

-3.562823548265979e6 -1.2727038835695775e6 0.0
-1.2727038835695775e6 2.87329421601598e6 0.0
0.0 0.0 0.0

8079.526307906694 3.280650743481189e6 0.0
3.280650743481189e6 -402130.2994245829 0.0
0.0 0.0 0.0

-983615.6729591524 3.4659177148724953e6 0.0
3.4659177148724953e6 501278.4503753111 0.0
0.0 0.0 0.0

22633.556617021462 2.265709452183528e6 0.0
2.265709452183528e6 75445.23955541836 0.0
0.0 0.0 0.0

413373.32965741795 140392.91311413972 0.0
140392.91311413972 -435311.5781294255 0.0
0.0 0.0 0.0

-436298.76950036426 1.7776782934607766e6 0.0
1.7776782934607766e6 72355.7869515965 0.0
0.0 0.0 0.0

-2.2690231468357416e6 2.434323399269063e6 0.0
2.434323399269063e6 -97062.31084114127 0.0
0.0 0.0 0.0

1.1202509039307798e6 1.0143059511950332e6 0.0
1.0143059511950332e6 -1.6106669370461367e6 0.0
0.0 0.0 0.0

-321349.6044586501 3.0124343109540064e6 0.0
3.0124343109540064e6 -337748.41809248773 0.0
0.0 0.0 0.0

-346021.51162902603 2.8477626333037294e6 0.0
2.8477626333037294e6 556476.9327467845 0.0
0.0 0.0 0.0

-279764.7697429522 2.017338712230387e6 0.0
2.017338712230387e6 -932549.3567644804 0.0
0.0 0.0 0.0

-241902.74674958535 2.804071431599849e6 0.0
2.804071431599849e6 -806342.418390446 0.0
0.0 0.0 0.0

434798.20783049264 2.255483657466618e6 0.0
2.255483657466618e6 -1.1283029295625496e6 0.0
0.0 0.0 0.0

79329.47866984604 69347.81283526763 0.0
69347.81283526763 -2328.7171756444477 0.0
0.0 0.0 0.0

-1.0452987144610344e6 1.8911364184560173e6 0.0
1.8911364184560173e6 98626.94728281518 0.0
0.0 0.0 0.0

6526.551277481194 353914.40098161105 0.0
353914.40098161105 -882147.7789321785 0.0
0.0 0.0 0.0

-1.8643507727374916e6 752215.0519426807 0.0
752215.0519426807 3.052470811615748e6 0.0
0.0 0.0 0.0

487597.7675921813 104242.26246571688 0.0
104242.26246571688 -648962.0470389992 0.0
0.0 0.0 0.0

-1.4123825988110742e6 2.4696275260334257e6 0.0
2.4696275260334257e6 125802.7620855411 0.0
0.0 0.0 0.0

-2.092781232834461e6 1.8515980960848571e6 0.0
1.8515980960848571e6 374044.510975874 0.0
0.0 0.0 0.0

-332352.7634572083 -100916.94002853648 0.0
-100916.94002853648 373845.0487798727 0.0
0.0 0.0 0.0

-158796.70659100468 2.9305481621414553e6 0.0
2.9305481621414553e6 -935144.663109839 0.0
0.0 0.0 0.0

-881289.2034667467 3.3064847064524875e6 0.0
3.3064847064524875e6 595871.8593206016 0.0
0.0 0.0 0.0

431823.37929539214 85826.84564474919 0.0
85826.84564474919 -632221.3584324094 0.0
0.0 0.0 0.0

-872401.116691752 4.464556878396741e6 0.0
4.464556878396741e6 537563.7194371277 0.0
0.0 0.0 0.0

331513.11547910585 96430.5222031593 0.0
96430.5222031593 -501176.02278985304 0.0
0.0 0.0 0.0

1.227055568030992e6 1.083125779958444e6 0.0
1.083125779958444e6 -1.7303066637724887e6 0.0
0.0 0.0 0.0

1.1131496221131776e6 1.0294087176920748e6 0.0
1.0294087176920748e6 -1.628572721006393e6 0.0
0.0 0.0 0.0

-514230.2279105043 1.7919897650498024e6 0.0
1.7919897650498024e6 -418341.3684780505 0.0
0.0 0.0 0.0

-614313.2485816592 2.8805701860375092e6 0.0
2.8805701860375092e6 -47381.08601618293 0.0
0.0 0.0 0.0

1.206808149845649e6 1.3885150825186705e6 0.0
1.3885150825186705e6 -1.8594971988695995e6 0.0
0.0 0.0 0.0

-625707.0130310848 2.8468912030816595e6 0.0
2.8468912030816595e6 464514.6078046409 0.0
0.0 0.0 0.0

-212475.50710606648 2.270698718943711e6 0.0
2.270698718943711e6 -733504.48558448 0.0
0.0 0.0 0.0

-308714.5917085133 942032.1429809052 0.0
942032.1429809052 518168.059941335 0.0
0.0 0.0 0.0

-708797.440251518 3.2420414414456533e6 0.0
3.2420414414456533e6 324545.8852763703 0.0
0.0 0.0 0.0

629121.7569945297 1.5593720292298698e6 0.0
1.5593720292298698e6 -1.275441957706383e6 0.0
0.0 0.0 0.0

-3.5445399999212474e6 481893.65882567695 0.0
481893.65882567695 3.6068852414599406e6 0.0
0.0 0.0 0.0

1.2762048415577216e6 1.0965105741023459e6 0.0
1.0965105741023459e6 -1.780059768994799e6 0.0
0.0 0.0 0.0

1.1644161654987014e6 1.0772967002823276e6 0.0
1.0772967002823276e6 -1.6588796846914282e6 0.0
0.0 0.0 0.0

-520983.37944481574 2.5350848521004715e6 0.0
2.5350848521004715e6 -115949.60210189427 0.0
0.0 0.0 0.0

-939306.059134724 -41585.37119969578 0.0
-41585.37119969578 580132.9095969562 0.0
0.0 0.0 0.0

-485055.6852862998 1.1979771615960533e6 0.0
1.1979771615960533e6 402047.82001278835 0.0
0.0 0.0 0.0

-2.217563737032579e6 1.3095201379293322e6 0.0
1.3095201379293322e6 3.5078792883896315e6 0.0
0.0 0.0 0.0

-1.3444114013708385e6 2.590192266309733e6 0.0
2.590192266309733e6 170153.9224242391 0.0
0.0 0.0 0.0

-1.4337023176411882e6 2.4002637315046084e6 0.0
2.4002637315046084e6 103538.87991247035 0.0
0.0 0.0 0.0

206055.63502118815 175433.08151644864 0.0
175433.08151644864 -472937.92304138275 0.0
0.0 0.0 0.0

-5.185279704594379e6 85589.11217893998 0.0
85589.11217893998 9.215376689286966e6 0.0
0.0 0.0 0.0

-1.6433318384369495e6 2.701053516942949e6 0.0
2.701053516942949e6 379083.6725422399 0.0
0.0 0.0 0.0

-360609.5861999793 2.9854800227485667e6 0.0
2.9854800227485667e6 -312422.8677046307 0.0
0.0 0.0 0.0

-238948.4867373627 2.477009520182793e6 0.0
2.477009520182793e6 -485777.3268002745 0.0
0.0 0.0 0.0

-482408.46026745846 3.4129216576824947e6 0.0
3.4129216576824947e6 1.1279779708338568e6 0.0
0.0 0.0 0.0

410163.2967496954 208272.72153629863 0.0
208272.72153629863 -416276.4366525099 0.0
0.0 0.0 0.0

1.2780858602541904e6 1.1123498430875535e6 0.0
1.1123498430875535e6 -1.7688092949745862e6 0.0
0.0 0.0 0.0

-669249.3202333103 2.401539832291898e6 0.0
2.401539832291898e6 112091.65022984473 0.0
0.0 0.0 0.0

-551426.0106223398 2.943105816215208e6 0.0
2.943105816215208e6 -146921.00640389445 0.0
0.0 0.0 0.0

-2.0471113420372612e6 723505.4027500739 0.0
723505.4027500739 1.1283074454962588e6 0.0
0.0 0.0 0.0

-24265.524304298866 -137265.35504584282 0.0
-137265.35504584282 96211.29537106249 0.0
0.0 0.0 0.0

-4.4717865661313245e6 4.38763357291452e6 0.0
4.38763357291452e6 -1.5620998531088345e6 0.0
0.0 0.0 0.0

-160203.8996936633 1.8856488573936666e6 0.0
1.8856488573936666e6 -534013.0718448331 0.0
0.0 0.0 0.0

-28478.780574781027 2.7289822700940743e6 0.0
2.7289822700940743e6 -94929.06136439093 0.0
0.0 0.0 0.0

-77136.65344403766 2.279112463448865e6 0.0
2.279112463448865e6 -949621.8575934364 0.0
0.0 0.0 0.0

-1.5467019328596685e6 2.3290410468881354e6 0.0
2.3290410468881354e6 735356.6871765841 0.0
0.0 0.0 0.0

88198.85966622649 520373.16367690626 0.0
520373.16367690626 -608588.7258545046 0.0
0.0 0.0 0.0

829989.5015480474 1.259741660865842e6 0.0
1.259741660865842e6 -1.3870046153957515e6 0.0
0.0 0.0 0.0

-386758.0298853372 1.7874120755349083e6 0.0
1.7874120755349083e6 534408.0417694999 0.0
0.0 0.0 0.0

180739.56681803614 1.9702518854243578e6 0.0
1.9702518854243578e6 -1.488585630578431e6 0.0
0.0 0.0 0.0

-1.3918896381428174e6 2.529127794269729e6 0.0
2.529127794269729e6 148528.44206299353 0.0
0.0 0.0 0.0

42110.40259707375 15014.885757601505 0.0
15014.885757601505 -131323.1216244587 0.0
0.0 0.0 0.0

443985.0271138124 54664.22397206466 0.0
54664.22397206466 -322955.78547972615 0.0
0.0 0.0 0.0

916609.8505704112 1.0879197412674145e6 0.0
1.0879197412674145e6 -1.557895152777991e6 0.0
0.0 0.0 0.0

-896363.3345804074 3.607906243691607e6 0.0
3.607906243691607e6 -240567.57643025822 0.0
0.0 0.0 0.0

-1.5540377360061086e6 5.585492606571527e6 0.0
5.585492606571527e6 944304.7070758626 0.0
0.0 0.0 0.0

-226083.7661936705 1.357389175442681e6 0.0
1.357389175442681e6 416075.52644816355 0.0
0.0 0.0 0.0

1.1270820214575762e6 1.0737344521279898e6 0.0
1.0737344521279898e6 -1.683425625257862e6 0.0
0.0 0.0 0.0

1.1892872401237667e6 1.3043003261844888e6 0.0
1.3043003261844888e6 -1.8155319792956244e6 0.0
0.0 0.0 0.0

-5.306142431956202e6 -273816.8755266764 0.0
-273816.8755266764 6.26836416048564e6 0.0
0.0 0.0 0.0

-19253.96331218932 50406.98941055899 0.0
50406.98941055899 -30168.86362945306 0.0
0.0 0.0 0.0

-922402.5110205264 4.386025649132336e6 0.0
4.386025649132336e6 559004.7794245785 0.0
0.0 0.0 0.0

-1.5114719401907106e6 3.5625056226110104e6 0.0
3.5625056226110104e6 887928.0110411718 0.0
0.0 0.0 0.0

-18249.85627163446 -115459.94601134982 0.0
-115459.94601134982 223751.78291239956 0.0
0.0 0.0 0.0

978427.8108353477 468948.5834005099 0.0
468948.5834005099 -1.3256541350123775e6 0.0
0.0 0.0 0.0

-1.2006268665340955e6 2.7126017090742593e6 0.0
2.7126017090742593e6 336581.2311128423 0.0
0.0 0.0 0.0

-1.1539126055124043e6 2.8727265587960677e6 0.0
2.8727265587960677e6 -431058.4352906134 0.0
0.0 0.0 0.0

1.0152946631579718e6 328841.303936691 0.0
328841.303936691 -1.345012241064633e6 0.0
0.0 0.0 0.0

1.1964942750295391e6 1.0938516374880571e6 0.0
1.0938516374880571e6 -1.7097750469006742e6 0.0
0.0 0.0 0.0

54146.22384191753 1.9034719491463231e6 0.0
1.9034719491463231e6 -1.3209885818066527e6 0.0
0.0 0.0 0.0

564131.8872493277 41288.598430379934 0.0
41288.598430379934 -633037.1473102993 0.0
0.0 0.0 0.0

58125.54519450957 511726.8160355228 0.0
511726.8160355228 -49361.87229119523 0.0
0.0 0.0 0.0

353926.2365168074 2.353192927106115e6 0.0
2.353192927106115e6 -1.0650934317046937e6 0.0
0.0 0.0 0.0

1.198808624804358e6 1.0705724089471817e6 0.0
1.0705724089471817e6 -1.6821783683453528e6 0.0
0.0 0.0 0.0

-1.5015677747180378e6 3.603384427664374e6 0.0
3.603384427664374e6 908866.5885365191 0.0
0.0 0.0 0.0

1.0212009958134065e6 1.121360333484249e6 0.0
1.121360333484249e6 -1.5449735469219864e6 0.0
0.0 0.0 0.0

541396.5547395124 71392.67063686694 0.0
71392.67063686694 -594364.6897480707 0.0
0.0 0.0 0.0

-24723.32710408513 1.6672874672703592e6 0.0
1.6672874672703592e6 -82410.93191158163 0.0
0.0 0.0 0.0

499884.7269547783 3.425297249240355e6 0.0
3.425297249240355e6 1.6662831323514292e6 0.0
0.0 0.0 0.0

-207158.36294782412 2.5670810356840123e6 0.0
2.5670810356840123e6 -439756.2601323665 0.0
0.0 0.0 0.0

-860667.0022940123 -213767.1536206779 0.0
-213767.1536206779 984075.1626468597 0.0
0.0 0.0 0.0

514103.2952691007 -26174.613304176743 0.0
-26174.613304176743 -498925.7526774892 0.0
0.0 0.0 0.0

169030.34340227288 2.155768961241549e6 0.0
2.155768961241549e6 563433.9571389466 0.0
0.0 0.0 0.0

85176.29173096934 2.371874279443081e6 0.0
2.371874279443081e6 283920.9312791297 0.0
0.0 0.0 0.0

-6.091234986972456e6 233538.02329831306 0.0
233538.02329831306 1.0598820296541091e7 0.0
0.0 0.0 0.0

1.0342273648744515e6 1.0720046903512168e6 0.0
1.0720046903512168e6 -1.6305146010979167e6 0.0
0.0 0.0 0.0

-939602.8416686927 3.162295476072717e6 0.0
3.162295476072717e6 349489.97408698354 0.0
0.0 0.0 0.0

263410.3159997451 3.637885362012659e6 0.0
3.637885362012659e6 -827554.2065874503 0.0
0.0 0.0 0.0

-1.1216647003727271e6 2.617052155965074e6 0.0
2.617052155965074e6 222809.0492809018 0.0
0.0 0.0 0.0

-424508.40795147227 3.1103503889837814e6 0.0
3.1103503889837814e6 -202326.23864017864 0.0
0.0 0.0 0.0

-1.5470688058519585e6 4.578188995782723e6 0.0
4.578188995782723e6 1.0139077200088839e6 0.0
0.0 0.0 0.0

-452783.1445010395 1.5902046368687218e6 0.0
1.5902046368687218e6 -202325.4556825459 0.0
0.0 0.0 0.0

-979659.5371650511 4.315419125615744e6 0.0
4.315419125615744e6 602878.7945714744 0.0
0.0 0.0 0.0

-1.550918463637444e6 494216.4307812882 0.0
494216.4307812882 2.0172718876298168e6 0.0
0.0 0.0 0.0

-139569.0904715018 638232.0126134732 0.0
638232.0126134732 -795967.4958371492 0.0
0.0 0.0 0.0

1.071006556506072e6 1.0515694140851372e6 0.0
1.0515694140851372e6 -1.6202664727892876e6 0.0
0.0 0.0 0.0

-775487.231668755 3.0218290869736075e6 0.0
3.0218290869736075e6 97717.99164155021 0.0
0.0 0.0 0.0

-1.0698086528336671e6 3.3352929378826614e6 0.0
3.3352929378826614e6 485209.6704654176 0.0
0.0 0.0 0.0

789816.8118356488 1.3883246356483698e6 0.0
1.3883246356483698e6 -1.6902438336745747e6 0.0
0.0 0.0 0.0

-1.0122886359361722e6 2.553836546163365e6 0.0
2.553836546163365e6 203803.21388602367 0.0
0.0 0.0 0.0

-982603.5936288948 3.079033535796651e6 0.0
3.079033535796651e6 -4714.549852074124 0.0
0.0 0.0 0.0

-555736.6046442487 2.171866943057637e6 0.0
2.171866943057637e6 -35803.80762224467 0.0
0.0 0.0 0.0

539805.2819442663 2.049753215941871e6 0.0
2.049753215941871e6 -1.207771271495069e6 0.0
0.0 0.0 0.0

-1.0386450860371249e6 4.142861328430652e6 0.0
4.142861328430652e6 666053.1540047715 0.0
0.0 0.0 0.0

-672979.2491653276 2.345880922911525e6 0.0
2.345880922911525e6 114036.73333888629 0.0
0.0 0.0 0.0

-98481.79923718402 2.8552586175457146e6 0.0
2.8552586175457146e6 -848813.5352751554 0.0
0.0 0.0 0.0

886886.5501609346 1.5522296463186217e6 0.0
1.5522296463186217e6 -942289.8582083541 0.0
0.0 0.0 0.0

-435884.97749859304 2.0906655184173163e6 0.0
2.0906655184173163e6 -267807.48342544015 0.0
0.0 0.0 0.0

1.0000568901053027e6 314884.4737755766 0.0
314884.4737755766 -1.310932051827817e6 0.0
0.0 0.0 0.0

-83816.47546026157 36141.733915335775 0.0
36141.733915335775 63251.17828460369 0.0
0.0 0.0 0.0

1.2169528880804782e6 1.054064890681719e6 0.0
1.054064890681719e6 -1.6816665168690383e6 0.0
0.0 0.0 0.0

728470.2871218144 804052.6234888571 0.0
804052.6234888571 -1.219777193181085e6 0.0
0.0 0.0 0.0

1.1218294823693233e6 1.0317581763421246e6 0.0
1.0317581763421246e6 -1.5800441117488141e6 0.0
0.0 0.0 0.0

27796.49714152288 2.4139406774262246e6 0.0
2.4139406774262246e6 -1.0496019749964767e6 0.0
0.0 0.0 0.0

-1.0199317070129581e6 4.229463554435847e6 0.0
4.229463554435847e6 636060.3543028753 0.0
0.0 0.0 0.0

-1.3609861549997854e6 659813.9121096358 0.0
659813.9121096358 1.9339806311707376e6 0.0
0.0 0.0 0.0

-394769.55163100705 2.0388988676006487e6 0.0
2.0388988676006487e6 -174547.31257695382 0.0
0.0 0.0 0.0

1.0228371745688615e6 1.0114410625811451e6 0.0
1.0114410625811451e6 -1.5402011162256375e6 0.0
0.0 0.0 0.0

530529.7015254883 118849.80663996121 0.0
118849.80663996121 -683916.0523695779 0.0
0.0 0.0 0.0

-563524.1042461684 904665.937668513 0.0
904665.937668513 780159.2444263073 0.0
0.0 0.0 0.0

-418573.79005994264 2.5292200464968784e6 0.0
2.5292200464968784e6 -238804.1608609354 0.0
0.0 0.0 0.0

-325123.5458126649 2.6764202012415994e6 0.0
2.6764202012415994e6 -319684.25277879694 0.0
0.0 0.0 0.0

-1.13695518752628e6 2.627871963656782e6 0.0
2.627871963656782e6 161679.99127026665 0.0
0.0 0.0 0.0

-140600.40214301465 2.307399727322059e6 0.0
2.307399727322059e6 -811518.0724075381 0.0
0.0 0.0 0.0

1.0845920812970302e6 1.0622311166007335e6 0.0
1.0622311166007335e6 -1.5733517715406015e6 0.0
0.0 0.0 0.0

1.0207575891091757e6 1.0196047748205072e6 0.0
1.0196047748205072e6 -1.5474397688931872e6 0.0
0.0 0.0 0.0

-308473.73975625174 320722.74942849495 0.0
320722.74942849495 -412619.6055775584 0.0
0.0 0.0 0.0

959380.0012550307 1.0469560844403192e6 0.0
1.0469560844403192e6 -1.543589966082633e6 0.0
0.0 0.0 0.0

977691.3200962639 964648.3800283362 0.0
964648.3800283362 -1.425641785644403e6 0.0
0.0 0.0 0.0

-1.8149699666900109e6 2.120010455600798e6 0.0
2.120010455600798e6 284453.9865676982 0.0
0.0 0.0 0.0

-1.0076715274355446e6 4.856851516140849e6 0.0
4.856851516140849e6 629096.945916486 0.0
0.0 0.0 0.0

-487620.0117691145 3.101369759975788e6 0.0
3.101369759975788e6 -194761.4385517866 0.0
0.0 0.0 0.0

859345.7344756881 928498.6505050561 0.0
928498.6505050561 -1.3619908222318082e6 0.0
0.0 0.0 0.0

-1.2777731977865489e6 3.228020478208582e6 0.0
3.228020478208582e6 750192.8664882291 0.0
0.0 0.0 0.0

-46990.90144858239 2.8244177907358254e6 0.0
2.8244177907358254e6 -781401.5136867049 0.0
0.0 0.0 0.0

-17715.11629480452 1.361986018969533e6 0.0
1.361986018969533e6 -59049.930611732765 0.0
0.0 0.0 0.0

675375.2553665446 4.300645780776327e6 0.0
4.300645780776327e6 2.2512555593868075e6 0.0
0.0 0.0 0.0

-524485.9695430016 3.651652972997481e6 0.0
3.651652972997481e6 179218.2508870218 0.0
0.0 0.0 0.0

-402571.6671924164 4.114930779993927e6 0.0
4.114930779993927e6 -155189.47966567922 0.0
0.0 0.0 0.0

1.0936364199455723e6 1.7098304112008682e6 0.0
1.7098304112008682e6 -2.042778279796442e6 0.0
0.0 0.0 0.0

-341911.49706778565 2.417233939381197e6 0.0
2.417233939381197e6 -398115.76744782255 0.0
0.0 0.0 0.0

-113011.91271793738 3.1994049447529805e6 0.0
3.1994049447529805e6 -321597.90584259585 0.0
0.0 0.0 0.0

-70631.67109269559 -62590.63818532101 0.0
-62590.63818532101 111596.00800280488 0.0
0.0 0.0 0.0

-1.5493003976290147e6 600725.1464417311 0.0
600725.1464417311 3.3061546204882856e6 0.0
0.0 0.0 0.0

-321881.59257023415 3.0880540929303374e6 0.0
3.0880540929303374e6 -252345.13420180182 0.0
0.0 0.0 0.0

-1.0521113207965265e6 3.306610086304521e6 0.0
3.306610086304521e6 534872.5511565818 0.0
0.0 0.0 0.0

-1.0767923626658968e6 3.1281921280907085e6 0.0
3.1281921280907085e6 382594.8672281843 0.0
0.0 0.0 0.0

-474803.8904149907 2.2972244499694402e6 0.0
2.2972244499694402e6 403384.4844993503 0.0
0.0 0.0 0.0

-106653.21529720414 1.9981788260109406e6 0.0
1.9981788260109406e6 -431216.7367361654 0.0
0.0 0.0 0.0

-709827.1378230959 2.159192087742038e6 0.0
2.159192087742038e6 145264.3660288562 0.0
0.0 0.0 0.0

1.1826183249983666e6 1.2629887803196246e6 0.0
1.2629887803196246e6 -1.7450262633111728e6 0.0
0.0 0.0 0.0

531689.3973839781 657116.6041387991 0.0
657116.6041387991 -1.1132068365061982e6 0.0
0.0 0.0 0.0

-625981.1927081649 2.5609871736255717e6 0.0
2.5609871736255717e6 -46957.7282624706 0.0
0.0 0.0 0.0

-22967.612988106557 2.0868927233176215e6 0.0
2.0868927233176215e6 -1.1482649340140428e6 0.0
0.0 0.0 0.0

-835305.9983587683 -914.7130740817158 0.0
-914.7130740817158 1.633989275289552e6 0.0
0.0 0.0 0.0

2758.0656371542427 86500.4153646978 0.0
86500.4153646978 -526376.4296639075 0.0
0.0 0.0 0.0

-2.2435587419657717e6 -462621.3089551242 0.0
-462621.3089551242 3.353433441365014e6 0.0
0.0 0.0 0.0

-831897.3035693243 2.4146170623189216e6 0.0
2.4146170623189216e6 99164.30733344337 0.0
0.0 0.0 0.0

-520372.4611577709 3.0709323160676626e6 0.0
3.0709323160676626e6 -157999.94123557926 0.0
0.0 0.0 0.0

390480.76041051454 987770.7054139045 0.0
987770.7054139045 -554638.6843754271 0.0
0.0 0.0 0.0

-944316.2099591064 3.5483476309367553e6 0.0
3.5483476309367553e6 490740.15082627785 0.0
0.0 0.0 0.0

991255.2895240028 286782.9485405523 0.0
286782.9485405523 -1.3489786433974607e6 0.0
0.0 0.0 0.0

-523237.7857203 2.0809950305556122e6 0.0
2.0809950305556122e6 251942.45818239052 0.0
0.0 0.0 0.0

-346330.36008261313 5.772334553492423e6 0.0
5.772334553492423e6 148402.7766207325 0.0
0.0 0.0 0.0

-235020.92163708797 1.353756371520874e6 0.0
1.353756371520874e6 424342.7024096788 0.0
0.0 0.0 0.0

-48858.1368597824 84028.39105687146 0.0
84028.39105687146 -303605.82915277383 0.0
0.0 0.0 0.0

-1.9075634424987724e6 -157936.12247895802 0.0
-157936.12247895802 1.1193423699177324e6 0.0
0.0 0.0 0.0

1.204186304702951e6 1.0620577074372985e6 0.0
1.0620577074372985e6 -1.6975829743528026e6 0.0
0.0 0.0 0.0

-1.0745794058429352e6 2.470217540301387e6 0.0
2.470217540301387e6 -41688.16695283301 0.0
0.0 0.0 0.0

491762.34788964374 91492.9814796468 0.0
91492.9814796468 -540478.0785546582 0.0
0.0 0.0 0.0

-469101.0668557907 2.756058592643825e6 0.0
2.756058592643825e6 -75007.41111238129 0.0
0.0 0.0 0.0

-47786.45494206531 62677.272172164376 0.0
62677.272172164376 -2522.3733924272237 0.0
0.0 0.0 0.0

-389059.01392520266 2.5015084490938103e6 0.0
2.5015084490938103e6 -349886.50836545473 0.0
0.0 0.0 0.0

21571.737641035266 7586.699414897123 0.0
7586.699414897123 -32046.21564007569 0.0
0.0 0.0 0.0

-515130.44165293034 2.223031209728043e6 0.0
2.223031209728043e6 -348383.79870630335 0.0
0.0 0.0 0.0

-1.2723608826741045e6 725725.2734356159 0.0
725725.2734356159 1.684626749052242e6 0.0
0.0 0.0 0.0

839728.0911781242 385512.73571593815 0.0
385512.73571593815 -1.3979744935808878e6 0.0
0.0 0.0 0.0

-2.942775814938877e6 654525.0689573529 0.0
654525.0689573529 4.231030463833595e6 0.0
0.0 0.0 0.0

-2821.0177261237695 2.073981529739969e6 0.0
2.073981529739969e6 -267615.24907974066 0.0
0.0 0.0 0.0

-1.2752090543387833e6 2.7273696133733722e6 0.0
2.7273696133733722e6 423203.47736300493 0.0
0.0 0.0 0.0

1.105745236336132e6 1.2703268090450715e6 0.0
1.2703268090450715e6 -1.714782097246529e6 0.0
0.0 0.0 0.0

-1.5772254636662398e6 836150.4655402118 0.0
836150.4655402118 2.594804259156781e6 0.0
0.0 0.0 0.0

-303928.1642532858 2.9500088733148878e6 0.0
2.9500088733148878e6 180911.3971314049 0.0
0.0 0.0 0.0

-1.232995666158779e6 -109088.4154964852 0.0
-109088.4154964852 1.6237911781312923e6 0.0
0.0 0.0 0.0

646837.9669992772 1.8284829152929997e6 0.0
1.8284829152929997e6 -1.276949080948115e6 0.0
0.0 0.0 0.0

-11075.369593161897 1.9521249739349734e6 0.0
1.9521249739349734e6 -111091.58250783065 0.0
0.0 0.0 0.0

-25546.17405365179 611072.744536127 0.0
611072.744536127 -412416.4152200962 0.0
0.0 0.0 0.0

276424.8215522702 7463.098638665232 0.0
7463.098638665232 -332717.6971901198 0.0
0.0 0.0 0.0

399073.32124430354 24024.551066485874 0.0
24024.551066485874 -464097.96197676205 0.0
0.0 0.0 0.0

-280403.84844456956 2.225443851581216e6 0.0
2.225443851581216e6 -674139.628401098 0.0
0.0 0.0 0.0

556418.1392317906 124723.0412809452 0.0
124723.0412809452 -616427.9291229724 0.0
0.0 0.0 0.0

-546918.7162052772 3.0710741687166807e6 0.0
3.0710741687166807e6 -185026.98685742 0.0
0.0 0.0 0.0

-1.2367697996509334e6 3.0265488864876963e6 0.0
3.0265488864876963e6 1.510886235051318e6 0.0
0.0 0.0 0.0

-32197.471244969172 1.2973287719394907e6 0.0
1.2973287719394907e6 -319628.577261011 0.0
0.0 0.0 0.0

-715622.9348329327 2.477860647971171e6 0.0
2.477860647971171e6 198649.87300072552 0.0
0.0 0.0 0.0

458037.5271032027 834353.1604676335 0.0
834353.1604676335 -1.1552058218003688e6 0.0
0.0 0.0 0.0

-1.4020151921479017e6 4.363107274145629e6 0.0
4.363107274145629e6 903061.0303517472 0.0
0.0 0.0 0.0

443588.97932114097 3.7093048070104057e6 0.0
3.7093048070104057e6 -1.1825450360237597e6 0.0
0.0 0.0 0.0

665725.4546387963 220211.27319408793 0.0
220211.27319408793 -1.0890385804257602e6 0.0
0.0 0.0 0.0

931237.0693230048 893152.548758622 0.0
893152.548758622 -1.3811616682554143e6 0.0
0.0 0.0 0.0

-22906.176591867057 2.2447875673669595e6 0.0
2.2447875673669595e6 -953297.2884048867 0.0
0.0 0.0 0.0

-13946.564295596036 834874.8424381466 0.0
834874.8424381466 -458212.8988271671 0.0
0.0 0.0 0.0

-319505.5552710146 1.4288524851912546e6 0.0
1.4288524851912546e6 -151268.06529502064 0.0
0.0 0.0 0.0

-441846.515373017 828225.3709024056 0.0
828225.3709024056 440210.1167238286 0.0
0.0 0.0 0.0

90139.44267870838 312076.47204188607 0.0
312076.47204188607 -597926.2650960322 0.0
0.0 0.0 0.0

-116995.93386308037 3.1037290258695716e6 0.0
3.1037290258695716e6 -478855.69755942136 0.0
0.0 0.0 0.0

-1.8975212436322528e6 84330.30993087101 0.0
84330.30993087101 2.3572313625929896e6 0.0
0.0 0.0 0.0

-1.5580086430191991e6 2.8352102030365774e6 0.0
2.8352102030365774e6 524564.3849382685 0.0
0.0 0.0 0.0

-571927.3399389684 87396.60972927278 0.0
87396.60972927278 507734.67012969824 0.0
0.0 0.0 0.0

-118110.63867998248 2.123601227483022e6 0.0
2.123601227483022e6 -970877.5425020864 0.0
0.0 0.0 0.0

49383.949979267956 3.293034094193246e6 0.0
3.293034094193246e6 -379733.6496241959 0.0
0.0 0.0 0.0

-1.2896625003526206e6 4.13641633761828e6 0.0
4.13641633761828e6 818509.0308916806 0.0
0.0 0.0 0.0

-1.0339828990701328e6 2.578457111170405e6 0.0
2.578457111170405e6 393402.6801572038 0.0
0.0 0.0 0.0

-1.0334976139911357e6 3.695629422314406e6 0.0
3.695629422314406e6 618955.2805417185 0.0
0.0 0.0 0.0

-699456.3977139464 2.307043713267401e6 0.0
2.307043713267401e6 336956.48470200744 0.0
0.0 0.0 0.0

518584.8796357429 -41047.632737417865 0.0
-41047.632737417865 -519214.32642961486 0.0
0.0 0.0 0.0

-770080.6094904706 2.44070970954752e6 0.0
2.44070970954752e6 26034.260987219925 0.0
0.0 0.0 0.0

-1.6245913219953147e6 6.782660382866353e6 0.0
6.782660382866353e6 1.232296598609807e6 0.0
0.0 0.0 0.0

-618514.9929077209 3.445661219614392e6 0.0
3.445661219614392e6 116964.24350996263 0.0
0.0 0.0 0.0

-381279.07405196526 2.4678863043159256e6 0.0
2.4678863043159256e6 -317033.96467519336 0.0
0.0 0.0 0.0

-209149.1163593756 2.546498535479947e6 0.0
2.546498535479947e6 -259838.80385389796 0.0
0.0 0.0 0.0

-847333.3986416976 3.011300693728401e6 0.0
3.011300693728401e6 105271.83481656376 0.0
0.0 0.0 0.0

1.269165458048652e6 1.0726930197453029e6 0.0
1.0726930197453029e6 -1.7427382254167683e6 0.0
0.0 0.0 0.0

209760.5537580279 521265.94958909554 0.0
521265.94958909554 -1.1446433012530059e6 0.0
0.0 0.0 0.0

142237.62326229337 870366.9190696675 0.0
870366.9190696675 -541568.600670869 0.0
0.0 0.0 0.0

-548566.1147227627 2.9839933894281136e6 0.0
2.9839933894281136e6 -272006.23535679403 0.0
0.0 0.0 0.0

665951.1817286286 562643.2682602607 0.0
562643.2682602607 -1.1760350660623983e6 0.0
0.0 0.0 0.0

-685821.5940757518 2.189509713685807e6 0.0
2.189509713685807e6 -143610.60229961993 0.0
0.0 0.0 0.0

-153633.56348224287 3.1597817639655196e6 0.0
3.1597817639655196e6 -328262.7580832176 0.0
0.0 0.0 0.0

154048.1833102518 1.9879124438561134e6 0.0
1.9879124438561134e6 -989698.1664646487 0.0
0.0 0.0 0.0

593705.7803042207 111615.06994987109 0.0
111615.06994987109 -690831.3471674912 0.0
0.0 0.0 0.0

-1.9678131328024557e6 1.2402056830191358e6 0.0
1.2402056830191358e6 46280.62631169928 0.0
0.0 0.0 0.0

449598.24944299716 1.7938340368535952e6 0.0
1.7938340368535952e6 -1.2025545551883033e6 0.0
0.0 0.0 0.0

-1.218556447247123e6 -382863.12194625405 0.0
-382863.12194625405 1.4920000411082474e6 0.0
0.0 0.0 0.0

295886.28424332145 461723.1584746909 0.0
461723.1584746909 -1.0195215493459493e6 0.0
0.0 0.0 0.0

-330968.62966650166 2.4879489135769065e6 0.0
2.4879489135769065e6 749358.8216265552 0.0
0.0 0.0 0.0

298190.4256036421 2.3976631391310333e6 0.0
2.3976631391310333e6 -1.1256245606897892e6 0.0
0.0 0.0 0.0

-42776.600925268256 2.275985267093035e6 0.0
2.275985267093035e6 -1.0657691749858984e6 0.0
0.0 0.0 0.0

448678.2589964675 33350.64262353795 0.0
33350.64262353795 -527414.6147145797 0.0
0.0 0.0 0.0

-19002.455557870504 395616.95793138037 0.0
395616.95793138037 -368096.1563496908 0.0
0.0 0.0 0.0

-750860.5588435496 3.4013539033668465e6 0.0
3.4013539033668465e6 141338.78488885003 0.0
0.0 0.0 0.0

-144225.46375380125 2.3897220966715133e6 0.0
2.3897220966715133e6 -192443.4050516756 0.0
0.0 0.0 0.0

75719.28299903132 103842.48460983191 0.0
103842.48460983191 -186147.13778125035 0.0
0.0 0.0 0.0

-866069.9912516964 3.3857967394868657e6 0.0
3.3857967394868657e6 183110.466393372 0.0
0.0 0.0 0.0

-721935.2808183404 2.369246526193481e6 0.0
2.369246526193481e6 -57620.67966903391 0.0
0.0 0.0 0.0

-766403.8398933293 2.513146602128935e6 0.0
2.513146602128935e6 290207.2040817015 0.0
0.0 0.0 0.0

-801281.4563790028 2.5280410011525988e6 0.0
2.5280410011525988e6 70151.11313563515 0.0
0.0 0.0 0.0

-417226.7878638095 2.2403669219369604e6 0.0
2.2403669219369604e6 -450191.85570038215 0.0
0.0 0.0 0.0

-315878.4040366641 420031.9275400132 0.0
420031.9275400132 -523960.72677908035 0.0
0.0 0.0 0.0

-201596.66392970883 2.369766439020008e6 0.0
2.369766439020008e6 -577727.9435366641 0.0
0.0 0.0 0.0

-896585.1257973204 2.4492145297228163e6 0.0
2.4492145297228163e6 188618.19090488448 0.0
0.0 0.0 0.0

-898993.8411867166 2.6935200624006055e6 0.0
2.6935200624006055e6 568794.8949000728 0.0
0.0 0.0 0.0

635608.4453962349 101041.36735416754 0.0
101041.36735416754 -692249.4835919815 0.0
0.0 0.0 0.0

-343873.6302785809 2.2525356960801063e6 0.0
2.2525356960801063e6 -554814.4940325264 0.0
0.0 0.0 0.0

-18810.950277475407 1.4921901772398115e6 0.0
1.4921901772398115e6 -62703.38940584163 0.0
0.0 0.0 0.0

545234.6069860673 50734.45093970564 0.0
50734.45093970564 -672129.195849505 0.0
0.0 0.0 0.0

-5974.952302447346 558817.1917097375 0.0
558817.1917097375 -924973.88590139 0.0
0.0 0.0 0.0

-58515.32451750418 1.5204322049228062e6 0.0
1.5204322049228062e6 -222545.07358555205 0.0
0.0 0.0 0.0

432101.69694629154 3.302299589564919e6 0.0
3.302299589564919e6 -1.1101350972748706e6 0.0
0.0 0.0 0.0

-159363.04694405413 2.2056758451232538e6 0.0
2.2056758451232538e6 -337762.833856176 0.0
0.0 0.0 0.0

566282.6086051053 556822.2239357776 0.0
556822.2239357776 -1.18222507478122e6 0.0
0.0 0.0 0.0

68969.40609332785 383771.352599032 0.0
383771.352599032 -268981.3480030024 0.0
0.0 0.0 0.0

-407553.60385048453 -342404.69436155295 0.0
-342404.69436155295 770245.7098464621 0.0
0.0 0.0 0.0

-174798.3418115588 3.065932620431592e6 0.0
3.065932620431592e6 -471704.4222780803 0.0
0.0 0.0 0.0

-32166.62803850646 3.2888771061384077e6 0.0
3.2888771061384077e6 -603177.0555602596 0.0
0.0 0.0 0.0

-519737.70917300554 3.09022466433487e6 0.0
3.09022466433487e6 -178299.5904635535 0.0
0.0 0.0 0.0

-638254.1779608536 2.2825396554426136e6 0.0
2.2825396554426136e6 -35592.5045342345 0.0
0.0 0.0 0.0

1.2626255193406702e6 1.1090173071355482e6 0.0
1.1090173071355482e6 -1.7588221370729804e6 0.0
0.0 0.0 0.0

1.252257134345557e6 1.1157889041004914e6 0.0
1.1157889041004914e6 -1.7603102273431532e6 0.0
0.0 0.0 0.0

-56611.923300176146 1.1981828760402303e6 0.0
1.1981828760402303e6 -224562.30709193778 0.0
0.0 0.0 0.0

-667786.3267689829 2.3078295502821356e6 0.0
2.3078295502821356e6 -135104.52163757777 0.0
0.0 0.0 0.0

-455246.17397711263 3.426372605139826e6 0.0
3.426372605139826e6 32227.97861210577 0.0
0.0 0.0 0.0

-1.8984766772872168e6 -635376.1970532084 0.0
-635376.1970532084 2.3322964772575716e6 0.0
0.0 0.0 0.0

-347103.2028389557 2.0353963528438823e6 0.0
2.0353963528438823e6 -332702.78408729803 0.0
0.0 0.0 0.0

-1.0872705925972653e6 2.8211509392035254e6 0.0
2.8211509392035254e6 504785.7447344034 0.0
0.0 0.0 0.0

-7.312736303372201e6 408735.28913812217 0.0
408735.28913812217 9.508765809732875e6 0.0
0.0 0.0 0.0

31652.45621562573 -11658.209242266536 0.0
-11658.209242266536 -337595.23355045874 0.0
0.0 0.0 0.0

-1.2308319955986089e6 3.3760102793250307e6 0.0
3.3760102793250307e6 801627.2906201382 0.0
0.0 0.0 0.0

-500870.8353961467 2.81741316681932e6 0.0
2.81741316681932e6 693760.3060662597 0.0
0.0 0.0 0.0

271161.06942475104 536463.1809243618 0.0
536463.1809243618 -896165.7467152359 0.0
0.0 0.0 0.0

-548201.4179689003 3.1422288148862077e6 0.0
3.1422288148862077e6 19031.807191365544 0.0
0.0 0.0 0.0

-2.3545286477568485e6 457293.4834850585 0.0
457293.4834850585 4.496578638395255e6 0.0
0.0 0.0 0.0

941306.1650802904 1.3293613751218342e6 0.0
1.3293613751218342e6 -1.5980596701013905e6 0.0
0.0 0.0 0.0

-308938.9342383313 2.448812421070877e6 0.0
2.448812421070877e6 -419726.8870203541 0.0
0.0 0.0 0.0

-99788.91827459188 -221667.13311994952 0.0
-221667.13311994952 163356.72850088528 0.0
0.0 0.0 0.0

744821.13410939 1.5644000631210583e6 0.0
1.5644000631210583e6 -1.3667421897607264e6 0.0
0.0 0.0 0.0

-746490.4695929801 1.9977429449981668e6 0.0
1.9977429449981668e6 629747.7987625177 0.0
0.0 0.0 0.0

901359.2659819834 1.1591782282103442e6 0.0
1.1591782282103442e6 -1.4425423056527888e6 0.0
0.0 0.0 0.0

-740182.9588716202 2.0813518651397747e6 0.0
2.0813518651397747e6 -86757.29278724568 0.0
0.0 0.0 0.0

-613543.4413628019 2.243289746725207e6 0.0
2.243289746725207e6 -214415.11091534625 0.0
0.0 0.0 0.0

-783.9909971731249 147523.62041497696 0.0
147523.62041497696 -150667.97624419868 0.0
0.0 0.0 0.0

-436752.88969754236 2.8530459226828506e6 0.0
2.8530459226828506e6 -216559.86681828537 0.0
0.0 0.0 0.0

537204.7851231869 48708.158942198745 0.0
48708.158942198745 -606083.992972741 0.0
0.0 0.0 0.0

-186415.7106609114 2.322524860338115e6 0.0
2.322524860338115e6 -707471.6995553516 0.0
0.0 0.0 0.0

-41689.32525404535 228863.77144271348 0.0
228863.77144271348 -254866.00802107106 0.0
0.0 0.0 0.0

-52862.54363263646 755906.1071530209 0.0
755906.1071530209 -734287.985828346 0.0
0.0 0.0 0.0

-739110.7369442433 2.2006606810119306e6 0.0
2.2006606810119306e6 -74286.22250261571 0.0
0.0 0.0 0.0

815643.1111521744 688157.2447254444 0.0
688157.2447254444 -1.3529794537975467e6 0.0
0.0 0.0 0.0

-32308.734755889192 109677.91964680748 0.0
109677.91964680748 -63533.940367639814 0.0
0.0 0.0 0.0

1.2865067363559767e6 1.2255268286303766e6 0.0
1.2255268286303766e6 -1.8166758749625161e6 0.0
0.0 0.0 0.0

-135731.524520264 3.3733597374085896e6 0.0
3.3733597374085896e6 -452438.5100307189 0.0
0.0 0.0 0.0

220709.88548715922 315628.9778025729 0.0
315628.9778025729 -599300.2563215105 0.0
0.0 0.0 0.0

-555988.7662065913 3.0533449760071523e6 0.0
3.0533449760071523e6 -222454.0230030742 0.0
0.0 0.0 0.0

-345385.1190727089 2.5727968238437693e6 0.0
2.5727968238437693e6 100564.74992982761 0.0
0.0 0.0 0.0

-1.1457142960317153e6 873580.6229192697 0.0
873580.6229192697 1.4110346257694447e6 0.0
0.0 0.0 0.0

-347889.16171746096 1.6286362842298278e6 0.0
1.6286362842298278e6 547304.0904910885 0.0
0.0 0.0 0.0

-126052.41802487039 -321600.36071845423 0.0
-321600.36071845423 159733.50180844887 0.0
0.0 0.0 0.0

-327851.6516081961 2.707067123702493e6 0.0
2.707067123702493e6 21895.050571898333 0.0
0.0 0.0 0.0

386667.7783254031 3.498737421455168e6 0.0
3.498737421455168e6 676118.5239882331 0.0
0.0 0.0 0.0

-378214.40682339814 3.1172121432203385e6 0.0
3.1172121432203385e6 -150613.2687693471 0.0
0.0 0.0 0.0

647.350254146193 339480.20103816304 0.0
339480.20103816304 -284600.38577745465 0.0
0.0 0.0 0.0

-141696.11555803753 2.2861873511616383e6 0.0
2.2861873511616383e6 -847143.1280705746 0.0
0.0 0.0 0.0

39065.134673516266 33424.00299248688 0.0
33424.00299248688 -791397.3715900189 0.0
0.0 0.0 0.0

-531930.8124122225 2.2985832867703494e6 0.0
2.2985832867703494e6 -126495.11142286158 0.0
0.0 0.0 0.0

-250549.74543523078 2.3449273914451157e6 0.0
2.3449273914451157e6 208265.74162686337 0.0
0.0 0.0 0.0

85592.52230883011 118519.22778664067 0.0
118519.22778664067 -899358.410017823 0.0
0.0 0.0 0.0

-1.3306184429156585e6 3.562596866636083e6 0.0
3.562596866636083e6 882573.7597100629 0.0
0.0 0.0 0.0

-270300.5808942296 -252949.33169221474 0.0
-252949.33169221474 660931.3466051669 0.0
0.0 0.0 0.0

-144735.78673646957 -220790.8528238282 0.0
-220790.8528238282 219511.34412629783 0.0
0.0 0.0 0.0

-1.2707664920536892e6 48290.04943894917 0.0
48290.04943894917 1.5973412860601563e6 0.0
0.0 0.0 0.0

-1.0254969708035968e6 2.7870960171010215e6 0.0
2.7870960171010215e6 380007.9811103415 0.0
0.0 0.0 0.0

27866.20770986991 1.246573875948601e6 0.0
1.246573875948601e6 -236111.6330716671 0.0
0.0 0.0 0.0

-411146.32362842094 2.536256189965194e6 0.0
2.536256189965194e6 1.081564851809197e6 0.0
0.0 0.0 0.0

-3353.8467101964634 3.40680348947541e6 0.0
3.40680348947541e6 2.4303012954033925e6 0.0
0.0 0.0 0.0

495470.23628433375 214464.89266773147 0.0
214464.89266773147 -1.0968053892385894e6 0.0
0.0 0.0 0.0

513238.9806508949 87179.65723708099 0.0
87179.65723708099 -536020.1520990429 0.0
0.0 0.0 0.0

-396559.49606819043 2.8427109299873845e6 0.0
2.8427109299873845e6 -161111.0254492809 0.0
0.0 0.0 0.0

-492476.4548013608 1.922039951786058e6 0.0
1.922039951786058e6 178352.31677905508 0.0
0.0 0.0 0.0

1.2282835149141299e6 1.15693401089483e6 0.0
1.15693401089483e6 -1.797739715190508e6 0.0
0.0 0.0 0.0

1.1039764113630038e6 1.1015285847505773e6 0.0
1.1015285847505773e6 -1.6326626655791982e6 0.0
0.0 0.0 0.0

86679.95232679285 259593.20178435123 0.0
259593.20178435123 -328945.1998536592 0.0
0.0 0.0 0.0

-414952.14091630705 1.9597188280575362e6 0.0
1.9597188280575362e6 -214101.1661220697 0.0
0.0 0.0 0.0

-4.279856996028224e6 1.130014189335098e6 0.0
1.130014189335098e6 9.176266696688702e6 0.0
0.0 0.0 0.0

-576500.7455770407 2.3610084661308276e6 0.0
2.3610084661308276e6 -50840.06072757204 0.0
0.0 0.0 0.0

-102087.33777628273 269232.2084520932 0.0
269232.2084520932 -322221.16856008035 0.0
0.0 0.0 0.0

1.1776000086153941e6 1.1027199834970378e6 0.0
1.1027199834970378e6 -1.6953804350692169e6 0.0
0.0 0.0 0.0

-480511.18323326204 1.8110607506754904e6 0.0
1.8110607506754904e6 17748.428045138717 0.0
0.0 0.0 0.0

180847.0047735005 771772.7131207701 0.0
771772.7131207701 -1.096131333173396e6 0.0
0.0 0.0 0.0

-382665.94118724146 493409.94749467826 0.0
493409.94749467826 28435.135482298545 0.0
0.0 0.0 0.0

-617597.9892173227 2.1021334049391793e6 0.0
2.1021334049391793e6 -246144.7437400365 0.0
0.0 0.0 0.0

-160091.32379212583 -82965.36658804886 0.0
-82965.36658804886 -455527.3918477426 0.0
0.0 0.0 0.0

39354.07935361087 1.6780063724917262e6 0.0
1.6780063724917262e6 448553.4688623846 0.0
0.0 0.0 0.0

213903.1464608241 666595.44269306 0.0
666595.44269306 -282005.6670994826 0.0
0.0 0.0 0.0

-794521.8250561982 2.217535783903801e6 0.0
2.217535783903801e6 8826.27668227104 0.0
0.0 0.0 0.0

-587976.1665592826 3.2581509217795874e6 0.0
3.2581509217795874e6 18369.614052930527 0.0
0.0 0.0 0.0

-11977.805469878513 271352.271774423 0.0
271352.271774423 -314940.5683334485 0.0
0.0 0.0 0.0

-3.340703014476753e6 306837.34961165476 0.0
306837.34961165476 5.983042785784294e6 0.0
0.0 0.0 0.0

-2.6588316407513386e6 -239936.64011522912 0.0
-239936.64011522912 3.101758903023541e6 0.0
0.0 0.0 0.0

-2.887426635421305e6 389135.5169964076 0.0
389135.5169964076 5.272335344762323e6 0.0
0.0 0.0 0.0

-6.210225988070465e6 -1.627013590222669e6 0.0
-1.627013590222669e6 6.681384216893701e6 0.0
0.0 0.0 0.0

-184350.66816670925 3.118366221432124e6 0.0
3.118366221432124e6 -314619.82072397065 0.0
0.0 0.0 0.0

-1.8701623437700483e6 -444321.59817942895 0.0
-444321.59817942895 2.0351503879919574e6 0.0
0.0 0.0 0.0

-1.4468339203776624e6 3.5385727942317543e6 0.0
3.5385727942317543e6 897278.4442166422 0.0
0.0 0.0 0.0

-185712.42970826165 2.2802622736445065e6 0.0
2.2802622736445065e6 -668535.0103107834 0.0
0.0 0.0 0.0

-2.6598385904794554e6 1.0551235487114154e6 0.0
1.0551235487114154e6 345367.60066840297 0.0
0.0 0.0 0.0

90459.13150335275 171622.20796562108 0.0
171622.20796562108 -572342.3645932467 0.0
0.0 0.0 0.0

45923.0571090444 2.0735150841672143e6 0.0
2.0735150841672143e6 -901476.8259598865 0.0
0.0 0.0 0.0

-1.2515048828492549e6 3.6178752741295467e6 0.0
3.6178752741295467e6 990048.8220796624 0.0
0.0 0.0 0.0

-1.080563015788121e6 2.4526226562246336e6 0.0
2.4526226562246336e6 204208.86698203883 0.0
0.0 0.0 0.0

946811.5840579767 1.0984283785190466e6 0.0
1.0984283785190466e6 -1.4593433829312124e6 0.0
0.0 0.0 0.0

-480733.62336560513 4.470479571142425e6 0.0
4.470479571142425e6 258132.34444235047 0.0
0.0 0.0 0.0

-179587.36230867385 2.0502313532351155e6 0.0
2.0502313532351155e6 -219552.42054701294 0.0
0.0 0.0 0.0

1.1637904313650266e6 1.47879868040365e6 0.0
1.47879868040365e6 -1.9978015224587382e6 0.0
0.0 0.0 0.0

76178.057053695 899457.7486142472 0.0
899457.7486142472 -704100.6203646493 0.0
0.0 0.0 0.0

-142437.6861436219 234778.17324809308 0.0
234778.17324809308 -668318.272856884 0.0
0.0 0.0 0.0

-922507.0232967278 993777.7119556299 0.0
993777.7119556299 1.1792347371336985e6 0.0
0.0 0.0 0.0

-1.4299715998623304e6 927267.1676781308 0.0
927267.1676781308 -44084.63956785883 0.0
0.0 0.0 0.0

-36670.41797751076 7638.962929093282 0.0
7638.962929093282 37708.49312183192 0.0
0.0 0.0 0.0

-619474.9569046231 2.4286398167836876e6 0.0
2.4286398167836876e6 36153.46200541919 0.0
0.0 0.0 0.0

-1.5110689548536853e6 2.3009576149675925e6 0.0
2.3009576149675925e6 671739.4002673883 0.0
0.0 0.0 0.0

605534.4950878234 158892.2809809253 0.0
158892.2809809253 -1.211651031568446e6 0.0
0.0 0.0 0.0

219686.23773604076 311449.0749745736 0.0
311449.0749745736 -125380.89519209316 0.0
0.0 0.0 0.0

-626343.8160120246 2.269012175136489e6 0.0
2.269012175136489e6 32694.919990592403 0.0
0.0 0.0 0.0

-1.0715985754253222e6 3.208345709331374e6 0.0
3.208345709331374e6 590860.5604517163 0.0
0.0 0.0 0.0

-297593.1217469476 2.5616372578549664e6 0.0
2.5616372578549664e6 -189448.84934059798 0.0
0.0 0.0 0.0

-704224.2347347534 40699.60695936639 0.0
40699.60695936639 963681.7364987971 0.0
0.0 0.0 0.0

1.2583324772290052e6 1.0963047759912962e6 0.0
1.0963047759912962e6 -1.7501186103712486e6 0.0
0.0 0.0 0.0

807153.8666229616 558949.1582001697 0.0
558949.1582001697 -1.2165094438642436e6 0.0
0.0 0.0 0.0

-467302.2015941346 1.8439339049157107e6 0.0
1.8439339049157107e6 -27691.238267251247 0.0
0.0 0.0 0.0

259708.10520701826 103119.90793878358 0.0
103119.90793878358 -543501.0387714554 0.0
0.0 0.0 0.0

-801488.9896302333 2.123672730573459e6 0.0
2.123672730573459e6 13707.18087815994 0.0
0.0 0.0 0.0

813023.955976786 947758.9559833701 0.0
947758.9559833701 -1.3234966592849533e6 0.0
0.0 0.0 0.0

-192954.96263261174 -172600.65194355368 0.0
-172600.65194355368 513502.5923524152 0.0
0.0 0.0 0.0

-208621.0352209748 3.0780226557438923e6 0.0
3.0780226557438923e6 -312539.4851163842 0.0
0.0 0.0 0.0

41338.33536509342 84786.30787703785 0.0
84786.30787703785 -144457.51971814563 0.0
0.0 0.0 0.0

513511.9674990779 1.9914743886903338e6 0.0
1.9914743886903338e6 -1.235702913684518e6 0.0
0.0 0.0 0.0

-259890.2588358567 2.221242355423549e6 0.0
2.221242355423549e6 -701899.0391264681 0.0
0.0 0.0 0.0

340839.9092313484 414073.78118229884 0.0
414073.78118229884 -944215.4658895564 0.0
0.0 0.0 0.0

-91068.15202072094 2.286277730074947e6 0.0
2.286277730074947e6 -936398.7996116559 0.0
0.0 0.0 0.0

-381272.56338577584 2.2200868460858213e6 0.0
2.2200868460858213e6 -338985.83320968674 0.0
0.0 0.0 0.0

-161128.84072400746 -493612.22609161906 0.0
-493612.22609161906 -13997.076239029731 0.0
0.0 0.0 0.0

468572.10024793487 3861.2333833759612 0.0
3861.2333833759612 -527417.0709586502 0.0
0.0 0.0 0.0

-952996.4861431835 1.84993190689173e6 0.0
1.84993190689173e6 145908.1114669987 0.0
0.0 0.0 0.0

-875094.2541202046 1.415976034485792e6 0.0
1.415976034485792e6 43642.87974162563 0.0
0.0 0.0 0.0

-565043.4393703104 2.2471352646120875e6 0.0
2.2471352646120875e6 -53316.76294259119 0.0
0.0 0.0 0.0

-230318.42392806098 3.017161930083348e6 0.0
3.017161930083348e6 -307461.58752233395 0.0
0.0 0.0 0.0

-471010.6847163507 721378.9301987397 0.0
721378.9301987397 -324905.9256401778 0.0
0.0 0.0 0.0

466767.30304149765 2.4512307092181747e6 0.0
2.4512307092181747e6 -1.204294588802508e6 0.0
0.0 0.0 0.0

583723.9166965997 117392.0399360372 0.0
117392.0399360372 -705405.0671097919 0.0
0.0 0.0 0.0

-194000.10137493256 3.65961645386177e6 0.0
3.65961645386177e6 -668859.8553607935 0.0
0.0 0.0 0.0

-4.0482940073068244e6 -1.0285749238648321e6 0.0
-1.0285749238648321e6 3.1820929680513125e6 0.0
0.0 0.0 0.0

4.936944723295318e6 4.471301750992114e6 0.0
4.471301750992114e6 -1.6757084318943454e6 0.0
0.0 0.0 0.0

449079.5445965273 2.8049792629616708e6 0.0
2.8049792629616708e6 -1.1603632605440859e6 0.0
0.0 0.0 0.0

-147073.63259289565 1.9790465606446057e6 0.0
1.9790465606446057e6 -405164.14531585155 0.0
0.0 0.0 0.0

-899631.115468018 2.703129144709183e6 0.0
2.703129144709183e6 114958.63698496268 0.0
0.0 0.0 0.0

-977292.6276464979 2.2054567947800015e6 0.0
2.2054567947800015e6 220094.34905105055 0.0
0.0 0.0 0.0

-84376.56486689308 946126.2473578033 0.0
946126.2473578033 -450442.6548968844 0.0
0.0 0.0 0.0

8318.052583516705 1.2904740258167244e6 0.0
1.2904740258167244e6 31458.015690025357 0.0
0.0 0.0 0.0

-281520.0115293187 2.819819555936545e6 0.0
2.819819555936545e6 -194048.88623794122 0.0
0.0 0.0 0.0

470243.06844574085 2.5939030893224855e6 0.0
2.5939030893224855e6 -1.1930741273661826e6 0.0
0.0 0.0 0.0

-618497.0102315038 1.6680149252720813e6 0.0
1.6680149252720813e6 442814.2119609913 0.0
0.0 0.0 0.0

-84518.12114458533 -66218.16871812237 0.0
-66218.16871812237 -19027.59404120142 0.0
0.0 0.0 0.0

647201.3253127538 4.944012833110925e6 0.0
4.944012833110925e6 -2.2599613483633706e6 0.0
0.0 0.0 0.0

-711986.6539285862 2.0539447248921897e6 0.0
2.0539447248921897e6 468288.19264367496 0.0
0.0 0.0 0.0

1.0228254317878442e6 1.0114515179599203e6 0.0
1.0114515179599203e6 -1.540182544249299e6 0.0
0.0 0.0 0.0

979047.259440369 1.059426697309783e6 0.0
1.059426697309783e6 -1.478841040757601e6 0.0
0.0 0.0 0.0

-745947.5078366777 1.1214707333859594e6 0.0
1.1214707333859594e6 972477.1033494587 0.0
0.0 0.0 0.0

-233465.23245171286 2.2245248489327e6 0.0
2.2245248489327e6 -516452.9939242307 0.0
0.0 0.0 0.0

-462279.15777152084 3.0629655128467716e6 0.0
3.0629655128467716e6 334308.3984629914 0.0
0.0 0.0 0.0

-508214.3313429766 3.504364055905395e6 0.0
3.504364055905395e6 100724.70339979281 0.0
0.0 0.0 0.0

-639069.9117752046 3.021960757365778e6 0.0
3.021960757365778e6 260396.8972013955 0.0
0.0 0.0 0.0

-185468.2499551795 1.0292536590887394e6 0.0
1.0292536590887394e6 -188258.71852402954 0.0
0.0 0.0 0.0

149178.06611534322 767425.4251458994 0.0
767425.4251458994 -351267.96566212433 0.0
0.0 0.0 0.0

415463.83533708664 90512.65547215931 0.0
90512.65547215931 -643917.3998663572 0.0
0.0 0.0 0.0

131558.68249877082 3.185921290645508e6 0.0
3.185921290645508e6 -1.1051684952203305e6 0.0
0.0 0.0 0.0

382766.88017420785 1.996130951665183e6 0.0
1.996130951665183e6 -1.2169939756426236e6 0.0
0.0 0.0 0.0

40054.396249628335 -95942.73596862385 0.0
-95942.73596862385 -786156.7080930157 0.0
0.0 0.0 0.0

-157289.80525414416 555645.5227931116 0.0
555645.5227931116 -48357.70816614677 0.0
0.0 0.0 0.0

-805148.631400833 3.248946121735243e6 0.0
3.248946121735243e6 -1292.801744395052 0.0
0.0 0.0 0.0

-157883.17211437295 404174.5988660368 0.0
404174.5988660368 -742297.5368809891 0.0
0.0 0.0 0.0

13296.681503578657 1.402635555689172e6 0.0
1.402635555689172e6 -163841.25230665057 0.0
0.0 0.0 0.0

878945.3146617967 835537.5420396713 0.0
835537.5420396713 -1.4050815375338048e6 0.0
0.0 0.0 0.0

-609627.5595001195 2.178139486394022e6 0.0
2.178139486394022e6 65042.53296785551 0.0
0.0 0.0 0.0

734483.2899925021 135782.16646727733 0.0
135782.16646727733 -862573.4605644137 0.0
0.0 0.0 0.0

-1.1707057570091514e6 3.2634226177424695e6 0.0
3.2634226177424695e6 694295.7602875449 0.0
0.0 0.0 0.0

1.21760654994822e6 1.2538773612705034e6 0.0
1.2538773612705034e6 -1.9061842263833384e6 0.0
0.0 0.0 0.0

-671749.1377530709 2.2947678611654174e6 0.0
2.2947678611654174e6 127715.210449545 0.0
0.0 0.0 0.0

422864.87671461125 909885.588190855 0.0
909885.588190855 -1.0327633948138611e6 0.0
0.0 0.0 0.0

6423.546961213877 155792.98762062704 0.0
155792.98762062704 -90651.58725790428 0.0
0.0 0.0 0.0

656615.3576072978 916164.9508922908 0.0
916164.9508922908 -1.22735556182391e6 0.0
0.0 0.0 0.0

-657652.0800209377 2.1550690273977756e6 0.0
2.1550690273977756e6 -78233.72551293603 0.0
0.0 0.0 0.0

-1.0123447126379688e6 3.366593306097233e6 0.0
3.366593306097233e6 504064.7502726834 0.0
0.0 0.0 0.0

-147867.10844252075 2.177427594172299e6 0.0
2.177427594172299e6 -755205.6559042031 0.0
0.0 0.0 0.0

-216920.35758445074 1.1852890064347459e6 0.0
1.1852890064347459e6 -412579.4988274368 0.0
0.0 0.0 0.0

-1.0206252978002338e6 3.754005124799642e6 0.0
3.754005124799642e6 825945.2444629928 0.0
0.0 0.0 0.0

-832179.3390019431 2.738306461978433e6 0.0
2.738306461978433e6 444398.70038915717 0.0
0.0 0.0 0.0

354674.0629442517 154179.24520395545 0.0
154179.24520395545 -639363.8277439949 0.0
0.0 0.0 0.0

-379419.32893821463 3.0794964782404127e6 0.0
3.0794964782404127e6 -95910.61766842734 0.0
0.0 0.0 0.0

-105879.71883267144 67120.74616939394 0.0
67120.74616939394 -486553.50526487187 0.0
0.0 0.0 0.0

70239.80534489956 1.5258801721283577e6 0.0
1.5258801721283577e6 433440.8584890499 0.0
0.0 0.0 0.0

-1.089923511554934e6 -154833.98224875113 0.0
-154833.98224875113 1.7513573178562373e6 0.0
0.0 0.0 0.0

-156120.07272350576 2.2643575692581087e6 0.0
2.2643575692581087e6 -355047.62257395557 0.0
0.0 0.0 0.0

-434724.6954284443 2.8359768419552897e6 0.0
2.8359768419552897e6 -285640.25322574005 0.0
0.0 0.0 0.0

-771324.559260824 2.3616350951130376e6 0.0
2.3616350951130376e6 464667.6609516257 0.0
0.0 0.0 0.0

-860880.9555392454 2.3079132781051043e6 0.0
2.3079132781051043e6 117873.88278171327 0.0
0.0 0.0 0.0

395026.17607931164 2.3759498783768304e6 0.0
2.3759498783768304e6 -1.2142967319549131e6 0.0
0.0 0.0 0.0

1.1521113447571e6 1.3870228428853233e6 0.0
1.3870228428853233e6 -1.91992270838121e6 0.0
0.0 0.0 0.0

-66413.6587152759 694169.8258184571 0.0
694169.8258184571 -413634.78768934944 0.0
0.0 0.0 0.0

-849534.4081137162 2.299804000761828e6 0.0
2.299804000761828e6 201554.5815930452 0.0
0.0 0.0 0.0

-187879.4903449088 -174014.15501171883 0.0
-174014.15501171883 133879.35630552244 0.0
0.0 0.0 0.0

-669198.3376280938 2.4975159211994344e6 0.0
2.4975159211994344e6 116565.71999334526 0.0
0.0 0.0 0.0

-547976.0770089839 2.526253971847462e6 0.0
2.526253971847462e6 -205361.54203685853 0.0
0.0 0.0 0.0

623555.834844342 1.3564830332285997e6 0.0
1.3564830332285997e6 -310055.2849992389 0.0
0.0 0.0 0.0

-562713.6640869046 1.258045458941157e6 0.0
1.258045458941157e6 553600.8005404469 0.0
0.0 0.0 0.0

61780.951185033715 1.3327722118913252e6 0.0
1.3327722118913252e6 -1.1600260140107546e6 0.0
0.0 0.0 0.0

-99353.00449843495 2.165182485603827e6 0.0
2.165182485603827e6 -882696.4441004505 0.0
0.0 0.0 0.0

-651093.5404559168 2.2497248067362886e6 0.0
2.2497248067362886e6 205121.64641485782 0.0
0.0 0.0 0.0

-522193.6405212877 2.177094971542966e6 0.0
2.177094971542966e6 -132532.36769607483 0.0
0.0 0.0 0.0

-535637.3118343167 295755.6878917358 0.0
295755.6878917358 1.5524237989492465e6 0.0
0.0 0.0 0.0

102838.01719948719 430983.59744109894 0.0
430983.59744109894 -351749.7710475669 0.0
0.0 0.0 0.0

-925517.8419407406 2.390900254157505e6 0.0
2.390900254157505e6 205507.97203373164 0.0
0.0 0.0 0.0

-1.1260379845857278e6 2.8809370613647606e6 0.0
2.8809370613647606e6 563455.1034042236 0.0
0.0 0.0 0.0

-509388.66843521234 2.5270368025593827e6 0.0
2.5270368025593827e6 581990.9321822613 0.0
0.0 0.0 0.0

-1.6243381506932527e6 3.7304148949578153e6 0.0
3.7304148949578153e6 967335.4477719486 0.0
0.0 0.0 0.0

471346.0585515558 2.00839697587318e6 0.0
2.00839697587318e6 -1.2485278067138582e6 0.0
0.0 0.0 0.0

-1.7778975693728304e6 2.8256046690689498e6 0.0
2.8256046690689498e6 497336.3228433882 0.0
0.0 0.0 0.0

-92505.28171064008 2.0528521364675916e6 0.0
2.0528521364675916e6 -295391.4491514656 0.0
0.0 0.0 0.0

-810133.3612803839 3.7228925429776674e6 0.0
3.7228925429776674e6 29871.866740588797 0.0
0.0 0.0 0.0

-110369.52364169346 3.316283563567111e6 0.0
3.316283563567111e6 -576992.2570706613 0.0
0.0 0.0 0.0

-182320.50082982844 2.2455081387383337e6 0.0
2.2455081387383337e6 -659421.2809369324 0.0
0.0 0.0 0.0

-417808.1957039458 3.20312658203227e6 0.0
3.20312658203227e6 137255.80811259296 0.0
0.0 0.0 0.0

-576233.0009007882 2.1410083957609744e6 0.0
2.1410083957609744e6 111763.63378724188 0.0
0.0 0.0 0.0

-718610.9934022601 2.428125190322367e6 0.0
2.428125190322367e6 193110.92679172152 0.0
0.0 0.0 0.0

-999199.9620337976 2.468661482980498e6 0.0
2.468661482980498e6 292894.8044756829 0.0
0.0 0.0 0.0

-122617.81863033361 2.159346229387278e6 0.0
2.159346229387278e6 -795551.335744932 0.0
0.0 0.0 0.0

-832481.1787112262 2.8738076978751956e6 0.0
2.8738076978751956e6 222581.19736383413 0.0
0.0 0.0 0.0

-1.0546065310449295e6 2.5652733392796083e6 0.0
2.5652733392796083e6 283096.71515178564 0.0
0.0 0.0 0.0

-1.5956198448214554e6 3.800660046554539e6 0.0
3.800660046554539e6 981285.0108530513 0.0
0.0 0.0 0.0

-38342.87931471093 -47242.85733958817 0.0
-47242.85733958817 -516.7103792731559 0.0
0.0 0.0 0.0

-897360.6406610506 1.3941994303803106e6 0.0
1.3941994303803106e6 170917.49025462795 0.0
0.0 0.0 0.0

-1.7342628793403704e6 3.5304176861785487e6 0.0
3.5304176861785487e6 915450.3577969697 0.0
0.0 0.0 0.0

-501088.26190464286 2.134018843432914e6 0.0
2.134018843432914e6 -116767.0865478817 0.0
0.0 0.0 0.0

-3.132798919128554e6 -823295.9141195196 0.0
-823295.9141195196 2.8280162685298007e6 0.0
0.0 0.0 0.0

-98848.2729153774 2.2430786931798737e6 0.0
2.2430786931798737e6 -938657.1622165883 0.0
0.0 0.0 0.0

-286362.1195552408 1.9635226927823771e6 0.0
1.9635226927823771e6 -203685.08368155797 0.0
0.0 0.0 0.0

-1.428617696097575e6 3.580330368560706e6 0.0
3.580330368560706e6 943290.2821682007 0.0
0.0 0.0 0.0

-371091.08335402654 1.9189188741517058e6 0.0
1.9189188741517058e6 -142888.06064446596 0.0
0.0 0.0 0.0

-259291.26941336383 2.993286282490323e6 0.0
2.993286282490323e6 -320996.27251093707 0.0
0.0 0.0 0.0

-854639.689445494 2.676139130519355e6 0.0
2.676139130519355e6 451949.0466760014 0.0
0.0 0.0 0.0

-163608.63948432583 2.141188974355687e6 0.0
2.141188974355687e6 -266049.1105616005 0.0
0.0 0.0 0.0

88639.6737468172 230532.88972972395 0.0
230532.88972972395 -75640.92993934575 0.0
0.0 0.0 0.0

-891862.9794721019 3.054861718918841e6 0.0
3.054861718918841e6 616623.6874372959 0.0
0.0 0.0 0.0

-86051.69834168506 72126.5812750418 0.0
72126.5812750418 -344267.08020905824 0.0
0.0 0.0 0.0

-1.1035556133424456e6 3.227314554159473e6 0.0
3.227314554159473e6 559783.1202634508 0.0
0.0 0.0 0.0

-915733.3695320929 2.627220684339101e6 0.0
2.627220684339101e6 210844.19334920996 0.0
0.0 0.0 0.0

-405408.0568423232 2.1832901069586743e6 0.0
2.1832901069586743e6 -194711.20952224376 0.0
0.0 0.0 0.0

-818641.7088476917 3.532872908675189e6 0.0
3.532872908675189e6 293949.4535256593 0.0
0.0 0.0 0.0

141238.82839504626 32732.64530260228 0.0
32732.64530260228 -360316.4244524258 0.0
0.0 0.0 0.0

-115561.34231570332 -112655.84134779661 0.0
-112655.84134779661 -434311.7268105859 0.0
0.0 0.0 0.0

91045.83801534193 -30122.75122273674 0.0
-30122.75122273674 94061.73038733451 0.0
0.0 0.0 0.0

553245.7043191108 35200.99536889527 0.0
35200.99536889527 -604321.0933913875 0.0
0.0 0.0 0.0

-236254.2474677299 2.7166336939920583e6 0.0
2.7166336939920583e6 623875.8188660035 0.0
0.0 0.0 0.0

-1.167297468226357e6 2.9454169939832375e6 0.0
2.9454169939832375e6 625925.8564705469 0.0
0.0 0.0 0.0

-886438.0698646684 1.419524202173505e6 0.0
1.419524202173505e6 283803.0655010078 0.0
0.0 0.0 0.0

4373.954372055159 -49046.09211002578 0.0
-49046.09211002578 360685.7033973385 0.0
0.0 0.0 0.0

-1.3558753659907565e6 3.6090884951606058e6 0.0
3.6090884951606058e6 1.0072439864312041e6 0.0
0.0 0.0 0.0

-354202.81917606044 2.831139669173743e6 0.0
2.831139669173743e6 -113694.60356640632 0.0
0.0 0.0 0.0

208007.14857596124 1.218467800958089e6 0.0
1.218467800958089e6 330514.61509258044 0.0
0.0 0.0 0.0

-898228.283258372 3.19008652574222e6 0.0
3.19008652574222e6 359273.06812085054 0.0
0.0 0.0 0.0

4842.416610590182 2.3095819039907125e6 0.0
2.3095819039907125e6 -1.2268343131968875e6 0.0
0.0 0.0 0.0

-516802.48211728135 2.0581053345225824e6 0.0
2.0581053345225824e6 -149145.38659753258 0.0
0.0 0.0 0.0

-443684.72472659586 2.5088168961887714e6 0.0
2.5088168961887714e6 -193488.9061680102 0.0
0.0 0.0 0.0

-6.0993482953777965e6 1.4271778092612305e6 0.0
1.4271778092612305e6 1.2361773120073037e7 0.0
0.0 0.0 0.0

-565619.8638892412 2.3268738229459072e6 0.0
2.3268738229459072e6 763923.7229483234 0.0
0.0 0.0 0.0

278288.2510601948 764492.5301160455 0.0
764492.5301160455 -1.3669216542366869e6 0.0
0.0 0.0 0.0

138176.8707487862 2.098002621747936e6 0.0
2.098002621747936e6 -1.0060422855900968e6 0.0
0.0 0.0 0.0

-995847.2546081876 3.5410227884756844e6 0.0
3.5410227884756844e6 303856.44069257827 0.0
0.0 0.0 0.0

-693476.1875713617 2.903111661153402e6 0.0
2.903111661153402e6 24837.220146324864 0.0
0.0 0.0 0.0

-1.1536439078745274e6 2.4929913072260483e6 0.0
2.4929913072260483e6 289766.304169031 0.0
0.0 0.0 0.0

-1.536879756851219e6 3.7662206514842454e6 0.0
3.7662206514842454e6 1.007049848541698e6 0.0
0.0 0.0 0.0

-236290.6717994555 2.3189189967214405e6 0.0
2.3189189967214405e6 -553827.5423506972 0.0
0.0 0.0 0.0

-918097.7379435289 3.4808451141502014e6 0.0
3.4808451141502014e6 399695.3043948302 0.0
0.0 0.0 0.0

-479943.45420499105 2.031296675290699e6 0.0
2.031296675290699e6 -103450.06843051949 0.0
0.0 0.0 0.0

508854.9155098731 167343.86861464157 0.0
167343.86861464157 -787403.8615372934 0.0
0.0 0.0 0.0

43730.904939948785 -65331.47492766537 0.0
-65331.47492766537 -594581.1190292718 0.0
0.0 0.0 0.0

-1.1119153505491873e6 3.3583403595248824e6 0.0
3.3583403595248824e6 520193.9527082431 0.0
0.0 0.0 0.0

91852.99551115616 741473.3146443052 0.0
741473.3146443052 -629663.5877747755 0.0
0.0 0.0 0.0

-928295.332719739 2.599879094836161e6 0.0
2.599879094836161e6 32641.505110083963 0.0
0.0 0.0 0.0

230678.53002004029 1.5100418129613195e6 0.0
1.5100418129613195e6 156699.86459784373 0.0
0.0 0.0 0.0

-1.6356233599367214e6 4.435926370895123e6 0.0
4.435926370895123e6 1.0941880697895428e6 0.0
0.0 0.0 0.0

-3.069047768733321e6 -434877.1677251935 0.0
-434877.1677251935 1.6289030733899656e6 0.0
0.0 0.0 0.0

89806.16866322354 1.4945256659920928e6 0.0
1.4945256659920928e6 -25062.01534343548 0.0
0.0 0.0 0.0

136816.41687120148 2.678379269028362e6 0.0
2.678379269028362e6 -1.1170575941837477e6 0.0
0.0 0.0 0.0

-469345.4257032734 2.7744091740659117e6 0.0
2.7744091740659117e6 -209106.54589872345 0.0
0.0 0.0 0.0

-648738.6756461684 2.0442000290356101e6 0.0
2.0442000290356101e6 331347.7585507076 0.0
0.0 0.0 0.0

-264003.22261709085 2.3699986848006677e6 0.0
2.3699986848006677e6 -529885.5268259504 0.0
0.0 0.0 0.0

-82690.6197848898 1.669190655368245e6 0.0
1.669190655368245e6 3751.0925972205696 0.0
0.0 0.0 0.0

477400.547894003 755934.76467594 0.0
755934.76467594 -1.08234436652074e6 0.0
0.0 0.0 0.0

-1.622798652466773e6 3.4986122461461416e6 0.0
3.4986122461461416e6 863938.6040789551 0.0
0.0 0.0 0.0

-70126.1249441077 994799.3548951102 0.0
994799.3548951102 -437167.610590918 0.0
0.0 0.0 0.0

-669685.8447130665 1.046701667505901e6 0.0
1.046701667505901e6 -135768.46092342085 0.0
0.0 0.0 0.0

-1.7783504605631363e6 4.44775252641857e6 0.0
4.44775252641857e6 1.144751568854027e6 0.0
0.0 0.0 0.0

-354587.3939342577 2.9144768266555117e6 0.0
2.9144768266555117e6 -214549.39443305548 0.0
0.0 0.0 0.0

-809940.8924739484 3.102408038271201e6 0.0
3.102408038271201e6 439317.5382526404 0.0
0.0 0.0 0.0

1.07828015371851e6 1.9625513363552724e6 0.0
1.9625513363552724e6 -1.8240933438195784e6 0.0
0.0 0.0 0.0

-326810.29450816015 807505.2434219575 0.0
807505.2434219575 883867.4057843909 0.0
0.0 0.0 0.0

-1.5594955060829876e6 2.923599181725965e6 0.0
2.923599181725965e6 607707.4956692301 0.0
0.0 0.0 0.0

-38704.670357717056 435657.0433339968 0.0
435657.0433339968 -347676.38868177816 0.0
0.0 0.0 0.0

-86352.26370853867 1.4443253492607214e6 0.0
1.4443253492607214e6 -8026.637220927834 0.0
0.0 0.0 0.0

-830947.4819960207 1.4364197831158997e6 0.0
1.4364197831158997e6 341034.5473921363 0.0
0.0 0.0 0.0

-1.308082638075306e6 2.6167955846502827e6 0.0
2.6167955846502827e6 206528.78107353207 0.0
0.0 0.0 0.0

578080.6202175493 16507.15443335126 0.0
16507.15443335126 -565249.0936844475 0.0
0.0 0.0 0.0

-38807.88708238177 1.1517120124428116e6 0.0
1.1517120124428116e6 -125083.2643649499 0.0
0.0 0.0 0.0

-1.52304728671232e6 3.7530505021847016e6 0.0
3.7530505021847016e6 1.0592148147132406e6 0.0
0.0 0.0 0.0

-464045.75515716494 2.0829113139777363e6 0.0
2.0829113139777363e6 -219336.92735146784 0.0
0.0 0.0 0.0

-365339.8674054401 2.7648277184880525e6 0.0
2.7648277184880525e6 154765.5107987542 0.0
0.0 0.0 0.0

-879750.3632992335 3.5339657603536826e6 0.0
3.5339657603536826e6 305107.62008688995 0.0
0.0 0.0 0.0

-717649.7010959922 2.393081922874874e6 0.0
2.393081922874874e6 247266.75448844527 0.0
0.0 0.0 0.0

18965.125197335263 2.258482908742232e6 0.0
2.258482908742232e6 -1.0601152155494238e6 0.0
0.0 0.0 0.0

-866332.6901379284 3.415700439655939e6 0.0
3.415700439655939e6 580161.6076521475 0.0
0.0 0.0 0.0

381046.4092642479 2.379488557898208e6 0.0
2.379488557898208e6 -1.2407345363229294e6 0.0
0.0 0.0 0.0

560344.8118551862 170178.2796872114 0.0
170178.2796872114 -820124.0538400359 0.0
0.0 0.0 0.0

168209.03548842762 4.0220510120914746e6 0.0
4.0220510120914746e6 4.36927066946858e6 0.0
0.0 0.0 0.0

-984791.1070544278 2.608226852001232e6 0.0
2.608226852001232e6 157590.17412162188 0.0
0.0 0.0 0.0

-1.0305933654382849e6 3.499288903199122e6 0.0
3.499288903199122e6 436363.4977000615 0.0
0.0 0.0 0.0

-574330.6056629407 3.203002755315688e6 0.0
3.203002755315688e6 -54614.82172961904 0.0
0.0 0.0 0.0

-1.3873772596883376e6 3.727227408556606e6 0.0
3.727227408556606e6 1.0646107587129413e6 0.0
0.0 0.0 0.0

118430.85043043451 318942.7224286693 0.0
318942.7224286693 -444727.04269064334 0.0
0.0 0.0 0.0

-284192.5161407349 2.410740813026974e6 0.0
2.410740813026974e6 -450912.9358791142 0.0
0.0 0.0 0.0

-158006.86038112213 2.274235551078001e6 0.0
2.274235551078001e6 -672349.3943646181 0.0
0.0 0.0 0.0

-241960.25121383934 2.299244015380929e6 0.0
2.299244015380929e6 -553110.5653374394 0.0
0.0 0.0 0.0

-1.0561694111002956e6 2.770269549891551e6 0.0
2.770269549891551e6 445560.8722209353 0.0
0.0 0.0 0.0

-532929.7571912741 4.532496856050801e6 0.0
4.532496856050801e6 395268.70428766403 0.0
0.0 0.0 0.0

-445127.588151183 1.3117090305645964e6 0.0
1.3117090305645964e6 278833.32054945757 0.0
0.0 0.0 0.0

248188.67900534015 218340.14374502245 0.0
218340.14374502245 -407995.7365325257 0.0
0.0 0.0 0.0

-64052.27800075698 2.2504591002269504e6 0.0
2.2504591002269504e6 -769916.7044695072 0.0
0.0 0.0 0.0

1.1442105553894504e6 1.2874119772671023e6 0.0
1.2874119772671023e6 -1.8603673957816337e6 0.0
0.0 0.0 0.0

739143.1180413878 183721.67438481888 0.0
183721.67438481888 -867724.0734912294 0.0
0.0 0.0 0.0

-882735.5724296 2.415745022143306e6 0.0
2.415745022143306e6 165605.22968086065 0.0
0.0 0.0 0.0

985542.5994179336 923960.792273912 0.0
923960.792273912 -1.470068579401456e6 0.0
0.0 0.0 0.0

-510728.88935348555 40522.70861643309 0.0
40522.70861643309 -286354.5269222491 0.0
0.0 0.0 0.0

-998847.5631659053 2.972458019727763e6 0.0
2.972458019727763e6 617220.6827364208 0.0
0.0 0.0 0.0

-1.3240320549649666e6 280740.7492845576 0.0
280740.7492845576 2.6638061799179176e6 0.0
0.0 0.0 0.0

-525059.2369954848 2.1795752341683144e6 0.0
2.1795752341683144e6 172797.0231122848 0.0
0.0 0.0 0.0

89815.83160388516 919234.0557871547 0.0
919234.0557871547 -171864.3630287858 0.0
0.0 0.0 0.0

-411240.28335928265 1.4997011178706498e6 0.0
1.4997011178706498e6 485332.11952263466 0.0
0.0 0.0 0.0

636842.3321793128 521581.8629815465 0.0
521581.8629815465 -1.276281140864494e6 0.0
0.0 0.0 0.0

-221.34019679250196 2.2322674092284897e6 0.0
2.2322674092284897e6 -914051.1402877325 0.0
0.0 0.0 0.0

-4.721298864151641e6 2.9828935719338087e6 0.0
2.9828935719338087e6 1.545659966075189e6 0.0
0.0 0.0 0.0

-89019.80539665105 2.237440656224586e6 0.0
2.237440656224586e6 -313017.2941358361 0.0
0.0 0.0 0.0

597778.1684977484 137816.9955418458 0.0
137816.9955418458 -849962.1354356648 0.0
0.0 0.0 0.0

-503933.91512954875 2.452440826899612e6 0.0
2.452440826899612e6 -281837.8912534758 0.0
0.0 0.0 0.0

-309713.8290680694 2.3065080484762397e6 0.0
2.3065080484762397e6 -468271.1950783445 0.0
0.0 0.0 0.0

-80891.4597527603 73949.87047233187 0.0
73949.87047233187 135660.88838568717 0.0
0.0 0.0 0.0

47758.4498109843 226501.67077666149 0.0
226501.67077666149 395035.5375027814 0.0
0.0 0.0 0.0

-1.13770396048265e6 2.610065698936012e6 0.0
2.610065698936012e6 200137.13992142025 0.0
0.0 0.0 0.0

-309145.0059046547 2.11221983608074e6 0.0
2.11221983608074e6 -232915.09253285627 0.0
0.0 0.0 0.0

-1.4154003418488773e6 2.7408231913375272e6 0.0
2.7408231913375272e6 419073.0381340368 0.0
0.0 0.0 0.0

238025.81460501184 920671.7535366011 0.0
920671.7535366011 -849584.1437085357 0.0
0.0 0.0 0.0

-588958.3826828953 2.1296403083034605e6 0.0
2.1296403083034605e6 -38485.497311596264 0.0
0.0 0.0 0.0

-28483.637196682965 71995.75222439058 0.0
71995.75222439058 11124.969940998917 0.0
0.0 0.0 0.0

-3.3771108154875548e6 -438232.7940980585 0.0
-438232.7940980585 2.1248925291735437e6 0.0
0.0 0.0 0.0

-972581.0514643627 2.43433575864242e6 0.0
2.43433575864242e6 226349.04784498602 0.0
0.0 0.0 0.0

-437586.1452753927 1.712766637808275e6 0.0
1.712766637808275e6 397190.2165151617 0.0
0.0 0.0 0.0

-1.1597633806764793e6 3.697329648699418e6 0.0
3.697329648699418e6 735772.7401814216 0.0
0.0 0.0 0.0

-443252.9969277921 213324.8897176648 0.0
213324.8897176648 -247252.28584605333 0.0
0.0 0.0 0.0

-148326.85712838414 2.448068170393514e6 0.0
2.448068170393514e6 -325059.5855024577 0.0
0.0 0.0 0.0

-801961.086695119 3.5010064037369536e6 0.0
3.5010064037369536e6 -406215.5842916358 0.0
0.0 0.0 0.0

-642006.7862435969 3.830615263096928e6 0.0
3.830615263096928e6 -317587.50505852903 0.0
0.0 0.0 0.0

109376.81961779381 48205.556854195514 0.0
48205.556854195514 -559997.2689388291 0.0
0.0 0.0 0.0

-510440.74747319636 1.9119712834189846e6 0.0
1.9119712834189846e6 313869.4575222577 0.0
0.0 0.0 0.0

-1.0126255808937805e6 2.8696088159825155e6 0.0
2.8696088159825155e6 582132.1183504169 0.0
0.0 0.0 0.0

1.2434890562032466e6 1.2556489452249387e6 0.0
1.2556489452249387e6 -1.886336333947313e6 0.0
0.0 0.0 0.0

-644858.7228185519 -408968.8213851481 0.0
-408968.8213851481 664310.2533253501 0.0
0.0 0.0 0.0

-153194.30468916037 651728.5505140884 0.0
651728.5505140884 -157572.3967594583 0.0
0.0 0.0 0.0

1.054555136535686e6 1.0875838373257837e6 0.0
1.0875838373257837e6 -1.560693361473036e6 0.0
0.0 0.0 0.0

-233173.1790913213 2.427158222573214e6 0.0
2.427158222573214e6 -512676.0980356407 0.0
0.0 0.0 0.0

565809.3995460575 1.9150848051788264e6 0.0
1.9150848051788264e6 -1.645928436926215e6 0.0
0.0 0.0 0.0

-1.7403713132667048e6 5.061904136752869e6 0.0
5.061904136752869e6 1.087226323214839e6 0.0
0.0 0.0 0.0

-1.8323597122564754e6 1.0335633106881694e6 0.0
1.0335633106881694e6 4.815278387141805e6 0.0
0.0 0.0 0.0

-394399.30282684637 -367503.682404444 0.0
-367503.682404444 380278.66911180306 0.0
0.0 0.0 0.0

-1.0437980366314973e6 2.9311300899998825e6 0.0
2.9311300899998825e6 643762.4389864556 0.0
0.0 0.0 0.0

1.0490120474451715e6 1.2101117513264678e6 0.0
1.2101117513264678e6 -1.7338500131905612e6 0.0
0.0 0.0 0.0

-1.0741985970389864e6 2.997645076443776e6 0.0
2.997645076443776e6 84152.10922164499 0.0
0.0 0.0 0.0

-800725.2574406257 2.4059075371861216e6 0.0
2.4059075371861216e6 55060.67006730719 0.0
0.0 0.0 0.0

370919.25507047726 106579.14273165242 0.0
106579.14273165242 -373772.3067484313 0.0
0.0 0.0 0.0

-844866.8302378482 3.504596534836837e6 0.0
3.504596534836837e6 560285.0048892263 0.0
0.0 0.0 0.0

-269640.05830262817 2.6085956582969883e6 0.0
2.6085956582969883e6 -398593.7935000622 0.0
0.0 0.0 0.0

-1.6007257059701155e6 3.711512065847365e6 0.0
3.711512065847365e6 998889.2674733881 0.0
0.0 0.0 0.0

1.3442987596097272e6 1.1496045920011124e6 0.0
1.1496045920011124e6 -1.8471112280369268e6 0.0
0.0 0.0 0.0

-737235.7498363291 2.2930805245593092e6 0.0
2.2930805245593092e6 43219.37354282322 0.0
0.0 0.0 0.0

-597435.1975115066 2.0184699538882612e6 0.0
2.0184699538882612e6 185621.91239546819 0.0
0.0 0.0 0.0

-138954.33765545915 1.8831573325262133e6 0.0
1.8831573325262133e6 -190204.44864045052 0.0
0.0 0.0 0.0

-942565.8200586818 3.3139487751134257e6 0.0
3.3139487751134257e6 542172.8281426674 0.0
0.0 0.0 0.0

579523.1791055913 117346.59672324268 0.0
117346.59672324268 -596720.9995269272 0.0
0.0 0.0 0.0

-384264.6420958144 2.5740218516423404e6 0.0
2.5740218516423404e6 -453555.7410273721 0.0
0.0 0.0 0.0

106916.63381622592 80876.06696402356 0.0
80876.06696402356 -49282.73582564272 0.0
0.0 0.0 0.0

-778299.9074592624 2.4935481635883185e6 0.0
2.4935481635883185e6 362200.0230735217 0.0
0.0 0.0 0.0

-71650.21946205958 319165.2386256606 0.0
319165.2386256606 -386894.9953134962 0.0
0.0 0.0 0.0

-1.165220267851626e6 2.5615621599269235e6 0.0
2.5615621599269235e6 200088.08733863692 0.0
0.0 0.0 0.0

-1.1589240573912545e6 3.499799484275864e6 0.0
3.499799484275864e6 941017.840994857 0.0
0.0 0.0 0.0

-197112.71505771857 2.288133975851701e6 0.0
2.288133975851701e6 -706021.7082200218 0.0
0.0 0.0 0.0

-294993.3851653816 965821.8762760105 0.0
965821.8762760105 62915.028864668755 0.0
0.0 0.0 0.0

-1.1481793510093144e6 2.4791116292940257e6 0.0
2.4791116292940257e6 283498.8422737878 0.0
0.0 0.0 0.0

-658394.3011761932 1.3303364412762218e6 0.0
1.3303364412762218e6 716385.3517254113 0.0
0.0 0.0 0.0

-1.2478624585016002e6 3.0971421132854414e6 0.0
3.0971421132854414e6 1.4488928696927503e6 0.0
0.0 0.0 0.0

993910.7820704816 1.3071947321469116e6 0.0
1.3071947321469116e6 -1.7726430244347283e6 0.0
0.0 0.0 0.0

-593467.3294167265 2.0718261991001107e6 0.0
2.0718261991001107e6 -43514.64317229437 0.0
0.0 0.0 0.0

-911918.4262092768 2.3306215335100126e6 0.0
2.3306215335100126e6 91446.18616765918 0.0
0.0 0.0 0.0

702099.8771542264 280545.61744797893 0.0
280545.61744797893 -1.1658663021456844e6 0.0
0.0 0.0 0.0

-1.672804622582665e6 5.175772519531366e6 0.0
5.175772519531366e6 1.078543351422741e6 0.0
0.0 0.0 0.0

-843870.3906135171 2.45458222266562e6 0.0
2.45458222266562e6 593661.964677153 0.0
0.0 0.0 0.0

-101285.80982934327 1.7826659474475044e6 0.0
1.7826659474475044e6 -10622.575667954348 0.0
0.0 0.0 0.0

-303606.873825361 862184.9383837959 0.0
862184.9383837959 170137.6954022449 0.0
0.0 0.0 0.0

136002.03956618794 848428.8101197989 0.0
848428.8101197989 -45349.38154831123 0.0
0.0 0.0 0.0

-1.299366238181844e6 2.6184232585888393e6 0.0
2.6184232585888393e6 394264.9346044066 0.0
0.0 0.0 0.0

-1.3638571756485912e6 2.657157728878112e6 0.0
2.657157728878112e6 414362.48513453366 0.0
0.0 0.0 0.0

-832687.1392593061 2.579797934791941e6 0.0
2.579797934791941e6 466021.8244735012 0.0
0.0 0.0 0.0

-375971.00374184235 2.8216288077851324e6 0.0
2.8216288077851324e6 -245246.4000796312 0.0
0.0 0.0 0.0

-653516.9338793283 4.495932632989059e6 0.0
4.495932632989059e6 468970.9921845596 0.0
0.0 0.0 0.0

-418235.2777274824 3.1215501433021985e6 0.0
3.1215501433021985e6 -203030.36780874355 0.0
0.0 0.0 0.0

193897.2401460916 3.5939613894623253e6 0.0
3.5939613894623253e6 -597276.587080151 0.0
0.0 0.0 0.0

-678409.8048251326 1.6823699443474205e6 0.0
1.6823699443474205e6 619641.6758908429 0.0
0.0 0.0 0.0

98522.03978040465 119238.3282006547 0.0
119238.3282006547 -41723.60384604379 0.0
0.0 0.0 0.0

-289835.41735064046 3.0238823604080724e6 0.0
3.0238823604080724e6 -350239.1869375736 0.0
0.0 0.0 0.0

-445856.1966141687 2.987456944653524e6 0.0
2.987456944653524e6 -274189.05000976333 0.0
0.0 0.0 0.0

-748024.3760853678 2.1778783843349693e6 0.0
2.1778783843349693e6 26615.12364581719 0.0
0.0 0.0 0.0

-58879.35108907172 31776.464249963712 0.0
31776.464249963712 -12591.640471973546 0.0
0.0 0.0 0.0

-1.1810071362245916e6 2.499628833968703e6 0.0
2.499628833968703e6 176365.0938267822 0.0
0.0 0.0 0.0

-1.1287856241032458e6 2.599459429254687e6 0.0
2.599459429254687e6 325381.0884306795 0.0
0.0 0.0 0.0

-383732.81565490586 2.6775624993278035e6 0.0
2.6775624993278035e6 -372413.9558814777 0.0
0.0 0.0 0.0

-201255.55829269168 3.092574416738779e6 0.0
3.092574416738779e6 -670851.8884165068 0.0
0.0 0.0 0.0

-483100.74185525114 1.9530027836653178e6 0.0
1.9530027836653178e6 -92914.3435160949 0.0
0.0 0.0 0.0

-244563.96684351016 1.6338068812451619e6 0.0
1.6338068812451619e6 -115548.69637060928 0.0
0.0 0.0 0.0

146263.34844115737 11889.791299649973 0.0
11889.791299649973 -480950.13665432937 0.0
0.0 0.0 0.0

-1.5491822255548872e6 3.8622705342677236e6 0.0
3.8622705342677236e6 1.0765448149442738e6 0.0
0.0 0.0 0.0

97032.0862106486 2.0363887970357805e6 0.0
2.0363887970357805e6 -210439.90199286022 0.0
0.0 0.0 0.0

917247.0470823457 869585.7439350727 0.0
869585.7439350727 -1.3066613195017737e6 0.0
0.0 0.0 0.0

-1.4941666865767098e6 3.650089739501227e6 0.0
3.650089739501227e6 945348.5931764934 0.0
0.0 0.0 0.0

-812753.786748991 2.308427426796858e6 0.0
2.308427426796858e6 22787.821002982208 0.0
0.0 0.0 0.0

-90876.31403675074 182794.2788888343 0.0
182794.2788888343 -422092.90560945176 0.0
0.0 0.0 0.0

-380396.10530929815 1.1655398832424656e6 0.0
1.1655398832424656e6 -620183.1066522568 0.0
0.0 0.0 0.0

-3.936408378345778e6 3.24466857061649e6 0.0
3.24466857061649e6 1.4653722840825478e6 0.0
0.0 0.0 0.0

1.2514991580654206e6 2.3755902560438495e6 0.0
2.3755902560438495e6 -2.0389990973801834e6 0.0
0.0 0.0 0.0

966611.6035487286 959460.70769538 0.0
959460.70769538 -1.4637567984233059e6 0.0
0.0 0.0 0.0

-103131.88831592881 1.8725617865624e6 0.0
1.8725617865624e6 -572416.0430416295 0.0
0.0 0.0 0.0

-405723.51661865396 3.0829672185666612e6 0.0
3.0829672185666612e6 -234474.94987864158 0.0
0.0 0.0 0.0

-85755.71475755482 2.241266237284014e6 0.0
2.241266237284014e6 -943197.3228840558 0.0
0.0 0.0 0.0

-710771.5825774111 1.7080256544780957e6 0.0
1.7080256544780957e6 700759.5947536335 0.0
0.0 0.0 0.0

-147758.4206239634 1.5874095631105653e6 0.0
1.5874095631105653e6 -303742.52136042056 0.0
0.0 0.0 0.0

85497.43628780288 3.257745431907206e6 0.0
3.257745431907206e6 -603412.2884590433 0.0
0.0 0.0 0.0

-1.4982874845719957e6 1.0208671946723888e6 0.0
1.0208671946723888e6 4.0958258464324474e6 0.0
0.0 0.0 0.0

-723872.5527865868 3.213152481819168e6 0.0
3.213152481819168e6 1.7127434625247973e6 0.0
0.0 0.0 0.0

-1.8212738991269097e6 2.4836179847335042e6 0.0
2.4836179847335042e6 569586.770407269 0.0
0.0 0.0 0.0

-1.0863681448490103e6 3.0208202534817695e6 0.0
3.0208202534817695e6 538608.5958604406 0.0
0.0 0.0 0.0

-1.3163410365422461e6 1.787240129727715e6 0.0
1.787240129727715e6 -116946.56525992497 0.0
0.0 0.0 0.0

-955811.4978401829 2.807107194754261e6 0.0
2.807107194754261e6 526761.8188058457 0.0
0.0 0.0 0.0

-991709.1306560363 2.4509046935637314e6 0.0
2.4509046935637314e6 115135.89526815235 0.0
0.0 0.0 0.0

-981207.9547515768 2.9342928623264716e6 0.0
2.9342928623264716e6 677335.5932008112 0.0
0.0 0.0 0.0

-52332.9881719898 2.1108429463596507e6 0.0
2.1108429463596507e6 -1.0282413678368031e6 0.0
0.0 0.0 0.0

826085.3318953745 754693.752173259 0.0
754693.752173259 -1.253747397945254e6 0.0
0.0 0.0 0.0

759877.5401440598 1.6788385451464343e6 0.0
1.6788385451464343e6 -1.3948656956802958e6 0.0
0.0 0.0 0.0

-190580.53769986698 3.090275792690398e6 0.0
3.090275792690398e6 -181362.17649632617 0.0
0.0 0.0 0.0

773057.0158639774 978016.4031607005 0.0
978016.4031607005 -1.3121320499800188e6 0.0
0.0 0.0 0.0

-1.4403619877927848e6 3.6036976774318037e6 0.0
3.6036976774318037e6 933715.2321535295 0.0
0.0 0.0 0.0

-939238.3758424955 2.540569603175618e6 0.0
2.540569603175618e6 265905.61747831624 0.0
0.0 0.0 0.0

-782326.3413251492 3.4086798539958494e6 0.0
3.4086798539958494e6 293868.1168081772 0.0
0.0 0.0 0.0

-304148.2766351808 2.850490297006825e6 0.0
2.850490297006825e6 -185301.41912514012 0.0
0.0 0.0 0.0

-211890.55593495385 1.541092106917498e6 0.0
1.541092106917498e6 48671.66310390571 0.0
0.0 0.0 0.0

-21592.32042416057 843052.6537180953 0.0
843052.6537180953 -464581.12447970983 0.0
0.0 0.0 0.0

-2.122983784645791e6 2.409303176316825e6 0.0
2.409303176316825e6 747421.7558858343 0.0
0.0 0.0 0.0

-1.2104224588183945e6 2.437069701838742e6 0.0
2.437069701838742e6 164760.7295565203 0.0
0.0 0.0 0.0

-226313.0763819593 1.4162274360360608e6 0.0
1.4162274360360608e6 299209.16267802124 0.0
0.0 0.0 0.0

-240908.98239181458 2.0808470529193305e6 0.0
2.0808470529193305e6 -803029.9176002989 0.0
0.0 0.0 0.0

-372630.0445982084 2.2891957870449503e6 0.0
2.2891957870449503e6 -372067.15206966526 0.0
0.0 0.0 0.0

694800.8811473353 862805.8279804434 0.0
862805.8279804434 -1.3069101705307076e6 0.0
0.0 0.0 0.0

-557063.8872002851 3.0006296824995554e6 0.0
3.0006296824995554e6 -98419.47296750173 0.0
0.0 0.0 0.0

136140.3010983369 267770.9768977674 0.0
267770.9768977674 -374739.5082855915 0.0
0.0 0.0 0.0

-885834.8115775944 4.178447200595354e6 0.0
4.178447200595354e6 715964.8719149133 0.0
0.0 0.0 0.0

-2.0291549791447448e6 -684256.4262050504 0.0
-684256.4262050504 2.506284451499502e6 0.0
0.0 0.0 0.0

-1.249931371473979e6 3.1435733532434027e6 0.0
3.1435733532434027e6 728494.0406493485 0.0
0.0 0.0 0.0

107263.29392283641 -2863.9111700551894 0.0
-2863.9111700551894 -75488.68088407736 0.0
0.0 0.0 0.0

637027.6283798264 84800.1427734074 0.0
84800.1427734074 -506573.923390091 0.0
0.0 0.0 0.0

97250.69210309518 114046.13909756078 0.0
114046.13909756078 -578772.6316910373 0.0
0.0 0.0 0.0

-1.530014907172709e6 183385.21159302967 0.0
183385.21159302967 1.9965734430975642e6 0.0
0.0 0.0 0.0

560667.5788031046 1.7814708534615755e6 0.0
1.7814708534615755e6 -1.2566318304206997e6 0.0
0.0 0.0 0.0

-1.4742747588968219e6 3.6666300979714375e6 0.0
3.6666300979714375e6 1.0076864361729124e6 0.0
0.0 0.0 0.0

-989577.7542052311 2.355786290816328e6 0.0
2.355786290816328e6 189602.04690562218 0.0
0.0 0.0 0.0

-1.0787057001803247e6 3.514405382290404e6 0.0
3.514405382290404e6 272239.3918420087 0.0
0.0 0.0 0.0

-791285.2217119015 2.2159037033509566e6 0.0
2.2159037033509566e6 167855.42620397196 0.0
0.0 0.0 0.0

-190461.84193829237 773787.5429699266 0.0
773787.5429699266 -339350.60139069095 0.0
0.0 0.0 0.0

-1.2574115554682883e6 3.4274615579395453e6 0.0
3.4274615579395453e6 614576.4043355299 0.0
0.0 0.0 0.0

-709364.1382102614 4.463553003726376e6 0.0
4.463553003726376e6 536217.9952658066 0.0
0.0 0.0 0.0

-754521.5355771786 1.6416419853309237e6 0.0
1.6416419853309237e6 635478.6845013399 0.0
0.0 0.0 0.0

-953131.7931721582 2.8457302620629105e6 0.0
2.8457302620629105e6 562656.4385577502 0.0
0.0 0.0 0.0

-499712.1937770563 3.479517539466553e6 0.0
3.479517539466553e6 -400322.06786524574 0.0
0.0 0.0 0.0

-951350.4417379025 3.381379955062972e6 0.0
3.381379955062972e6 106931.9653530026 0.0
0.0 0.0 0.0

-502098.5356840206 3.7685041547576184e6 0.0
3.7685041547576184e6 210958.14385206872 0.0
0.0 0.0 0.0

-159913.21237187707 77436.4377977304 0.0
77436.4377977304 -452053.0944637061 0.0
0.0 0.0 0.0

1.1960529418605692e6 1.056875637964878e6 0.0
1.056875637964878e6 -1.6936497137731593e6 0.0
0.0 0.0 0.0

-53763.8236821425 -154378.35395959695 0.0
-154378.35395959695 -114491.0710986542 0.0
0.0 0.0 0.0

84957.02682030265 1.711710212453461e6 0.0
1.711710212453461e6 -211512.85196477288 0.0
0.0 0.0 0.0

-1.1331027873358447e6 3.355865238790779e6 0.0
3.355865238790779e6 526571.7474686266 0.0
0.0 0.0 0.0

778185.6947048034 111533.48547246611 0.0
111533.48547246611 -703728.6919805391 0.0
0.0 0.0 0.0

-335832.50805103173 468682.5597314211 0.0
468682.5597314211 121718.19088678151 0.0
0.0 0.0 0.0

-332341.03258791426 2.52122552829537e6 0.0
2.52122552829537e6 -359729.55853650346 0.0
0.0 0.0 0.0

125286.73863001468 1.5882428811777267e6 0.0
1.5882428811777267e6 -209835.7491737086 0.0
0.0 0.0 0.0

-3.6487975819479073e6 3.2291198447283674e6 0.0
3.2291198447283674e6 1.3623099492871177e6 0.0
0.0 0.0 0.0

-530059.646055485 2.3493277840076247e6 0.0
2.3493277840076247e6 962493.5533285367 0.0
0.0 0.0 0.0

100573.5991242403 1.6681312646017943e6 0.0
1.6681312646017943e6 -16347.727546129572 0.0
0.0 0.0 0.0

-146511.15958092883 2.12853579790809e6 0.0
2.12853579790809e6 -244074.0625009733 0.0
0.0 0.0 0.0

377235.8087318877 66551.73844376637 0.0
66551.73844376637 -799356.1685347409 0.0
0.0 0.0 0.0

69775.06710741033 266271.9253399858 0.0
266271.9253399858 -10592.521582537152 0.0
0.0 0.0 0.0

-150304.1544454153 1.5388640376990244e6 0.0
1.5388640376990244e6 -169736.26955341184 0.0
0.0 0.0 0.0

-2.269336118761922e6 2.0792102617026132e6 0.0
2.0792102617026132e6 522936.0789071247 0.0
0.0 0.0 0.0

-846571.3329066904 4.262640942480708e6 0.0
4.262640942480708e6 686274.5208450911 0.0
0.0 0.0 0.0

859592.1525879137 910528.3565558391 0.0
910528.3565558391 -1.3535096583490458e6 0.0
0.0 0.0 0.0

-1.0262813097274357e6 2.7213796826478355e6 0.0
2.7213796826478355e6 441228.0188111487 0.0
0.0 0.0 0.0

990193.451061388 1.1121782828881133e6 0.0
1.1121782828881133e6 -1.6500579667210574e6 0.0
0.0 0.0 0.0

-1.1050364961593319e6 3.4686359191821404e6 0.0
3.4686359191821404e6 482785.64601324825 0.0
0.0 0.0 0.0

-356531.69963711133 2.2729473163590296e6 0.0
2.2729473163590296e6 289660.24348329543 0.0
0.0 0.0 0.0

-755679.935567176 4.418774020227359e6 0.0
4.418774020227359e6 609850.6046880749 0.0
0.0 0.0 0.0

-701612.6203125061 1.7813194131371772e6 0.0
1.7813194131371772e6 623203.9241080298 0.0
0.0 0.0 0.0

-161693.00080286423 454063.1454405584 0.0
454063.1454405584 807.9571198733538 0.0
0.0 0.0 0.0

-718982.2517009467 2.972287888997754e6 0.0
2.972287888997754e6 575042.3089434837 0.0
0.0 0.0 0.0

-1.2314952447809726e6 2.354608488811339e6 0.0
2.354608488811339e6 179991.9792854793 0.0
0.0 0.0 0.0

-375305.65665797645 2.9618840808050837e6 0.0
2.9618840808050837e6 -116734.61600468372 0.0
0.0 0.0 0.0

-1.1317945523818457e6 5.669080926318953e6 0.0
5.669080926318953e6 1.0529840187333054e6 0.0
0.0 0.0 0.0

-1.1513545584881958e6 3.4981893526524636e6 0.0
3.4981893526524636e6 432945.7459829054 0.0
0.0 0.0 0.0

4684.396092434676 3.024331483785675e6 0.0
3.024331483785675e6 -489983.79207478336 0.0
0.0 0.0 0.0

-412265.08433899574 3.2077878457151284e6 0.0
3.2077878457151284e6 -390901.4157589703 0.0
0.0 0.0 0.0

-1.6789837153787888e6 3.4910281090587648e6 0.0
3.4910281090587648e6 878254.8001009747 0.0
0.0 0.0 0.0

-261799.56549624744 2.3548043693939033e6 0.0
2.3548043693939033e6 -536300.9154345228 0.0
0.0 0.0 0.0

297461.84816378116 2.346553053637121e6 0.0
2.346553053637121e6 -1.2626974220184258e6 0.0
0.0 0.0 0.0

-1.1714005756914108e6 778766.8801693331 0.0
778766.8801693331 2.481074835006047e6 0.0
0.0 0.0 0.0

-769079.0123123976 1.504492094736666e6 0.0
1.504492094736666e6 -37681.019733058754 0.0
0.0 0.0 0.0

34860.3509842765 319618.9394532357 0.0
319618.9394532357 -102188.50894309259 0.0
0.0 0.0 0.0

223091.99589901214 2.1678430685840542e6 0.0
2.1678430685840542e6 -1.158350289898571e6 0.0
0.0 0.0 0.0

-734810.6154735476 3.1409056909749587e6 0.0
3.1409056909749587e6 281183.0472758235 0.0
0.0 0.0 0.0

347840.1262333838 570664.5262677311 0.0
570664.5262677311 -519122.8543451446 0.0
0.0 0.0 0.0

-789484.1605294598 2.7541509077196247e6 0.0
2.7541509077196247e6 47469.61937091028 0.0
0.0 0.0 0.0

-1.1695931283972962e6 2.629821187973693e6 0.0
2.629821187973693e6 369693.1737917515 0.0
0.0 0.0 0.0

-1.5480718440358422e6 4.701962629166109e6 0.0
4.701962629166109e6 1.0141731006832318e6 0.0
0.0 0.0 0.0

-1.1836980164005826e6 3.4410884084105026e6 0.0
3.4410884084105026e6 541193.1662459001 0.0
0.0 0.0 0.0

-410051.91065040446 521060.64193487144 0.0
521060.64193487144 34975.68439762975 0.0
0.0 0.0 0.0

-805810.1193788939 4.338081572202383e6 0.0
4.338081572202383e6 635060.6857984972 0.0
0.0 0.0 0.0

314672.27722072566 323626.63366985664 0.0
323626.63366985664 -286528.1053916132 0.0
0.0 0.0 0.0

1.0738707050051056e6 1.3010627314203368e6 0.0
1.3010627314203368e6 -1.8042102133147079e6 0.0
0.0 0.0 0.0

-531497.9959497247 2.409571134616992e6 0.0
2.409571134616992e6 802351.0785938936 0.0
0.0 0.0 0.0

-1.107433683707286e6 2.587747770899813e6 0.0
2.587747770899813e6 265156.5457607249 0.0
0.0 0.0 0.0

-349856.0507512542 3.214515688568439e6 0.0
3.214515688568439e6 165713.78728894147 0.0
0.0 0.0 0.0

-1.262559239820714e6 1.06495547160532e6 0.0
1.06495547160532e6 3.5050902438011304e6 0.0
0.0 0.0 0.0

116016.58385728266 2.63674655137009e6 0.0
2.63674655137009e6 386721.9524569802 0.0
0.0 0.0 0.0

-1.0263225916997764e6 2.2868522242344394e6 0.0
2.2868522242344394e6 343799.39709163737 0.0
0.0 0.0 0.0

78837.74095085033 3.314204585476769e6 0.0
3.314204585476769e6 -506841.1920050031 0.0
0.0 0.0 0.0

-3.466437168237155e6 3.27117936352874e6 0.0
3.27117936352874e6 1.4042274080483182e6 0.0
0.0 0.0 0.0

-466073.76270378684 3.507410370596903e6 0.0
3.507410370596903e6 -395.74015715013957 0.0
0.0 0.0 0.0

1.4972059725804687e6 4.988066795155902e6 0.0
4.988066795155902e6 -148153.28951602487 0.0
0.0 0.0 0.0

-929886.0064171412 3.4011436727508944e6 0.0
3.4011436727508944e6 383002.81675939576 0.0
0.0 0.0 0.0

-952295.1449535382 2.9377968789295447e6 0.0
2.9377968789295447e6 181223.94230294495 0.0
0.0 0.0 0.0

-379575.02343420277 2.108893728544544e6 0.0
2.108893728544544e6 -378440.63346410205 0.0
0.0 0.0 0.0

-1.5331437437942438e6 4.824990814568531e6 0.0
4.824990814568531e6 971720.5301403031 0.0
0.0 0.0 0.0

1.1661178871392207e6 1.1108031961392274e6 0.0
1.1108031961392274e6 -1.7329964229549873e6 0.0
0.0 0.0 0.0

-446759.7977853024 1.5079553477736472e6 0.0
1.5079553477736472e6 103520.94515650059 0.0
0.0 0.0 0.0

-213686.02020811493 1.4833293189508382e6 0.0
1.4833293189508382e6 -814112.1744388574 0.0
0.0 0.0 0.0

-501431.78068765876 2.385619495117511e6 0.0
2.385619495117511e6 190769.6046638619 0.0
0.0 0.0 0.0

-1.3265438692198745e6 3.437898576045434e6 0.0
3.437898576045434e6 684842.5196671946 0.0
0.0 0.0 0.0

-6815.9272760609165 2.668364567061215e6 0.0
2.668364567061215e6 -600554.9267416691 0.0
0.0 0.0 0.0

-848391.6704506507 3.3008236410185867e6 0.0
3.3008236410185867e6 494525.9845368964 0.0
0.0 0.0 0.0

-1.2878856807599112e6 3.456662308658009e6 0.0
3.456662308658009e6 563923.813418712 0.0
0.0 0.0 0.0

-435888.96568774304 2.7120913488547397e6 0.0
2.7120913488547397e6 -372047.5453501392 0.0
0.0 0.0 0.0

-3.1657541861107107e6 3.3356363357617874e6 0.0
3.3356363357617874e6 1.421248015178465e6 0.0
0.0 0.0 0.0

-1.350167533259915e6 3.4545839701659675e6 0.0
3.4545839701659675e6 656472.2955205108 0.0
0.0 0.0 0.0

-13522.860584011476 324791.4483502804 0.0
324791.4483502804 -377189.0862935636 0.0
0.0 0.0 0.0

707809.1134716574 3.875785398191784e6 0.0
3.875785398191784e6 549960.4419307648 0.0
0.0 0.0 0.0

880113.2514595785 1.908522228573458e6 0.0
1.908522228573458e6 -1.819065542727545e6 0.0
0.0 0.0 0.0

-1.4866592629617727e6 2.769270692526325e6 0.0
2.769270692526325e6 508334.67266117944 0.0
0.0 0.0 0.0

116562.71942257634 223036.68376898658 0.0
223036.68376898658 -413560.0563400191 0.0
0.0 0.0 0.0

-979704.0118288127 3.090431139000466e6 0.0
3.090431139000466e6 444812.124338247 0.0
0.0 0.0 0.0

-1.0435101289082005e6 1.889562866706196e6 0.0
1.889562866706196e6 276504.0853825958 0.0
0.0 0.0 0.0

-2.886057255818352e6 3.3781712528169765e6 0.0
3.3781712528169765e6 1.187533201879782e6 0.0
0.0 0.0 0.0

521967.8284908817 1.5610238866763995e6 0.0
1.5610238866763995e6 -1.6334575527175479e6 0.0
0.0 0.0 0.0

62802.55465186376 141369.79085985225 0.0
141369.79085985225 -169630.0897311209 0.0
0.0 0.0 0.0

-649912.2315435638 2.8624698981545414e6 0.0
2.8624698981545414e6 414791.41057214746 0.0
0.0 0.0 0.0

762492.7982115108 185669.35600962397 0.0
185669.35600962397 -790155.3177150227 0.0
0.0 0.0 0.0

-1.2111861728246526e6 3.073723540441908e6 0.0
3.073723540441908e6 672349.1157160886 0.0
0.0 0.0 0.0

-1.166192097361959e6 3.079148529334255e6 0.0
3.079148529334255e6 414284.49600506795 0.0
0.0 0.0 0.0

-269536.7032580088 2.312083913960671e6 0.0
2.312083913960671e6 -641968.3077241393 0.0
0.0 0.0 0.0

-2.7923755715982127e6 3.444577881019095e6 0.0
3.444577881019095e6 1.212144557368347e6 0.0
0.0 0.0 0.0

-540969.086316204 2.471007693556571e6 0.0
2.471007693556571e6 124950.56638300291 0.0
0.0 0.0 0.0

-1.4088520949184624e6 3.475170474012773e6 0.0
3.475170474012773e6 741132.2442509606 0.0
0.0 0.0 0.0

1.08572495897691e6 1.1025430467082663e6 0.0
1.1025430467082663e6 -1.6933977198407892e6 0.0
0.0 0.0 0.0

264224.39189453435 965403.1758695999 0.0
965403.1758695999 -98336.82435943348 0.0
0.0 0.0 0.0

-2.69756988740619e6 3.4052804886578685e6 0.0
3.4052804886578685e6 1.1395574397161268e6 0.0
0.0 0.0 0.0

966501.3115413317 1.8925523543737524e6 0.0
1.8925523543737524e6 -1.7662928659064358e6 0.0
0.0 0.0 0.0

-2.4753534691113643e6 3.529804013852553e6 0.0
3.529804013852553e6 1.0575692011415623e6 0.0
0.0 0.0 0.0

-2.361095752562861e6 3.56900710076211e6 0.0
3.56900710076211e6 1.017639800537179e6 0.0
0.0 0.0 0.0

-1.7527534856048026e6 3.5864790541071305e6 0.0
3.5864790541071305e6 915327.6878175227 0.0
0.0 0.0 0.0

-1.7891982561603473e6 3.5889309151833626e6 0.0
3.5889309151833626e6 930817.0331111775 0.0
0.0 0.0 0.0

-1.8463935300079724e6 3.617304073523018e6 0.0
3.617304073523018e6 899802.5797556766 0.0
0.0 0.0 0.0

-1.887898815841436e6 3.6465272271748064e6 0.0
3.6465272271748064e6 950410.8121284008 0.0
0.0 0.0 0.0

-1.9026560645373245e6 3.646658998478494e6 0.0
3.646658998478494e6 915017.0550527006 0.0
0.0 0.0 0.0

-1.9344636883257981e6 3.696402540312062e6 0.0
3.696402540312062e6 863438.5165773547 0.0
0.0 0.0 0.0

-26378.774628246407 2.395995723124934e6 0.0
2.395995723124934e6 -335685.8818958235 0.0
0.0 0.0 0.0

-2.0043110423255812e6 3.6559834119281066e6 0.0
3.6559834119281066e6 1.0660831744749867e6 0.0
0.0 0.0 0.0

-2.0347542473699916e6 3.648741908917548e6 0.0
3.648741908917548e6 1.041071851738675e6 0.0
0.0 0.0 0.0

-200053.03858201427 1.7857495238925784e6 0.0
1.7857495238925784e6 -353889.99995562684 0.0
0.0 0.0 0.0

-2.2814698547830684e6 3.575483726855599e6 0.0
3.575483726855599e6 1.0274958766851142e6 0.0
0.0 0.0 0.0

-2.089773090694468e6 3.6404646582253077e6 0.0
3.6404646582253077e6 990462.1850506465 0.0
0.0 0.0 0.0

-2.1381582267290866e6 3.5564459583986932e6 0.0
3.5564459583986932e6 994030.7254231658 0.0
0.0 0.0 0.0

-2.1596441720519266e6 3.5965598410311467e6 0.0
3.5965598410311467e6 921782.5325402507 0.0
0.0 0.0 0.0

-1.0816025045885844e6 3.5086495415424374e6 0.0
3.5086495415424374e6 424063.43761686137 0.0
0.0 0.0 0.0

-2.1997403021768034e6 3.572712195365379e6 0.0
3.572712195365379e6 1.0236899163608995e6 0.0
0.0 0.0 0.0

-2.1908854343326828e6 3.6379507882244717e6 0.0
3.6379507882244717e6 1.0117439443918585e6 0.0
0.0 0.0 0.0

-2.294823099203407e6 3.677168364775754e6 0.0
3.677168364775754e6 1.0403327560239066e6 0.0
0.0 0.0 0.0

-1.9048812909696195e6 3.7423660652013933e6 0.0
3.7423660652013933e6 930405.786705923 0.0
0.0 0.0 0.0

-1.9724248000010333e6 3.6581215788961058e6 0.0
3.6581215788961058e6 932709.9853515432 0.0
0.0 0.0 0.0

-1.9143160484663937e6 3.6362910223475504e6 0.0
3.6362910223475504e6 934310.8643838669 0.0
0.0 0.0 0.0

-1.9130696966461474e6 3.6455568657628405e6 0.0
3.6455568657628405e6 955543.9888851814 0.0
0.0 0.0 0.0

-1.9042180648045696e6 3.5964281683433196e6 0.0
3.5964281683433196e6 946667.343008122 0.0
0.0 0.0 0.0

-1.8493741115636353e6 3.592246090353268e6 0.0
3.592246090353268e6 929377.2887165429 0.0
0.0 0.0 0.0

-1.5508703832973347e6 3.69324663898898e6 0.0
3.69324663898898e6 966643.2842453892 0.0
0.0 0.0 0.0

-1.0666029307609205e6 911879.5649642391 0.0
911879.5649642391 2.271604638697623e6 0.0
0.0 0.0 0.0

-2.296545616919724e6 3.537158334147447e6 0.0
3.537158334147447e6 1.069271223837766e6 0.0
0.0 0.0 0.0

367324.5862486849 913140.5774585169 0.0
913140.5774585169 -1.218000024794378e6 0.0
0.0 0.0 0.0

-1.2215403603532175e6 2.5952766847746936e6 0.0
2.5952766847746936e6 326129.68458028784 0.0
0.0 0.0 0.0

-2.398979346069174e6 3.445406125485145e6 0.0
3.445406125485145e6 1.2024323901333897e6 0.0
0.0 0.0 0.0

468576.8956095271 377927.6702488675 0.0
377927.6702488675 -498523.8100482749 0.0
0.0 0.0 0.0

-2.5473211897407705e6 3.3996953626265205e6 0.0
3.3996953626265205e6 1.1341355491396745e6 0.0
0.0 0.0 0.0

195641.8716008258 512037.68557900476 0.0
512037.68557900476 -93198.72332828875 0.0
0.0 0.0 0.0

-2.733589417038191e6 3.419731300836909e6 0.0
3.419731300836909e6 1.2518358333959156e6 0.0
0.0 0.0 0.0

-485646.8047899445 2.477584121546566e6 0.0
2.477584121546566e6 -316909.061080539 0.0
0.0 0.0 0.0

-20983.25596724794 1.3315010810123184e6 0.0
1.3315010810123184e6 -569848.2561467368 0.0
0.0 0.0 0.0

237433.6051016671 2.493536423561449e6 0.0
2.493536423561449e6 -1.3045320370669805e6 0.0
0.0 0.0 0.0

-1.3799197238951456e6 3.3333022501166565e6 0.0
3.3333022501166565e6 545252.4821176776 0.0
0.0 0.0 0.0

-1.0931427856470381e6 2.888472405861585e6 0.0
2.888472405861585e6 497640.6256918635 0.0
0.0 0.0 0.0

-1.4006279689223566e6 3.484939352094944e6 0.0
3.484939352094944e6 890683.1908854507 0.0
0.0 0.0 0.0

-452375.862910015 2.5194461609636275e6 0.0
2.5194461609636275e6 -347197.75268008024 0.0
0.0 0.0 0.0

1.2793801622421662e6 1.0830140723668996e6 0.0
1.0830140723668996e6 -1.7051740270259576e6 0.0
0.0 0.0 0.0

-226622.87055417025 2.5130438682498056e6 0.0
2.5130438682498056e6 71419.0163528198 0.0
0.0 0.0 0.0

-2.9043738912671464e6 3.288831462155265e6 0.0
3.288831462155265e6 1.3479629372464677e6 0.0
0.0 0.0 0.0

-215288.68039402293 1.3765604466377143e6 0.0
1.3765604466377143e6 -285038.8220123819 0.0
0.0 0.0 0.0

4527.638685036705 602733.9960881557 0.0
602733.9960881557 -101748.21177172814 0.0
0.0 0.0 0.0

-1.2205159981404599e6 3.4722499592381935e6 0.0
3.4722499592381935e6 486779.92785706534 0.0
0.0 0.0 0.0

-2.0421015168029238e6 4.420898837353744e6 0.0
4.420898837353744e6 1.1418170806611609e6 0.0
0.0 0.0 0.0

636721.7059748031 929907.4291038704 0.0
929907.4291038704 -1.2941151456238278e6 0.0
0.0 0.0 0.0

-2.0012380390188617e6 1.9842814603314507e6 0.0
1.9842814603314507e6 665465.4398046066 0.0
0.0 0.0 0.0

-167421.15235034088 2.181864303339373e6 0.0
2.181864303339373e6 -291101.0921460531 0.0
0.0 0.0 0.0

-983634.3231872706 2.400944839804869e6 0.0
2.400944839804869e6 -132727.28898402653 0.0
0.0 0.0 0.0

75451.81243411242 3.3056522475503287e6 0.0
3.3056522475503287e6 -604566.883826379 0.0
0.0 0.0 0.0

-3.154227499797194e6 3.3102761809679107e6 0.0
3.3102761809679107e6 1.465405324303685e6 0.0
0.0 0.0 0.0

272424.13440228254 1.991550938888868e6 0.0
1.991550938888868e6 -1.5860682904267057e6 0.0
0.0 0.0 0.0

-164686.5210438366 2.55190358188995e6 0.0
2.55190358188995e6 -275167.98797411687 0.0
0.0 0.0 0.0

-215190.78868549436 2.0777423651034327e6 0.0
2.0777423651034327e6 -717302.658565389 0.0
0.0 0.0 0.0

-9787.580843216216 800486.795638524 0.0
800486.795638524 -972344.4196157543 0.0
0.0 0.0 0.0

-189045.39139903657 2.5683311309003574e6 0.0
2.5683311309003574e6 -417324.82703391224 0.0
0.0 0.0 0.0

153640.98804072058 974769.0536743158 0.0
974769.0536743158 -1.1315323947822847e6 0.0
0.0 0.0 0.0

-47979.72204848501 3.397035654770354e6 0.0
3.397035654770354e6 -470380.295609651 0.0
0.0 0.0 0.0

-1.3731101819182928e6 3.1024592662215433e6 0.0
3.1024592662215433e6 445244.52187299414 0.0
0.0 0.0 0.0

-1.396968927353196e6 3.4687552432331224e6 0.0
3.4687552432331224e6 751680.8753351852 0.0
0.0 0.0 0.0

-288321.15454332856 592375.7095916901 0.0
592375.7095916901 -601398.600628878 0.0
0.0 0.0 0.0

-521874.568276971 3.1497046167947864e6 0.0
3.1497046167947864e6 1.3837984341807072e6 0.0
0.0 0.0 0.0

-305268.3382868207 1.6744736991512715e6 0.0
1.6744736991512715e6 -235224.8719157295 0.0
0.0 0.0 0.0

-1.0428943019740416e6 3.0681922893739445e6 0.0
3.0681922893739445e6 611432.5161332022 0.0
0.0 0.0 0.0

-452834.78431052825 3.103849025600669e6 0.0
3.103849025600669e6 -215377.31854979764 0.0
0.0 0.0 0.0

-824716.8221066246 2.175295195296636e6 0.0
2.175295195296636e6 761629.5819392728 0.0
0.0 0.0 0.0

-558052.547388407 2.528478476782164e6 0.0
2.528478476782164e6 62917.56394333445 0.0
0.0 0.0 0.0

-51123.2907859142 2.865532222699688e6 0.0
2.865532222699688e6 -259658.97290921892 0.0
0.0 0.0 0.0

308700.9345785497 1.354454618717523e6 0.0
1.354454618717523e6 -338903.3209899834 0.0
0.0 0.0 0.0

-3.3502035730158654e6 3.2614972751668366e6 0.0
3.2614972751668366e6 1.4124064148099471e6 0.0
0.0 0.0 0.0

-1.6056309952080355e6 2.5605293010604884e6 0.0
2.5605293010604884e6 3.572299197080784e6 0.0
0.0 0.0 0.0

-652030.3433948581 3.223290471653722e6 0.0
3.223290471653722e6 28842.79012655787 0.0
0.0 0.0 0.0

-441449.2812221918 3.365350854247338e6 0.0
3.365350854247338e6 171085.7694718728 0.0
0.0 0.0 0.0

937416.2108074776 978045.0130521497 0.0
978045.0130521497 -1.473232079023615e6 0.0
0.0 0.0 0.0

400687.40865551797 2.0443575300476258e6 0.0
2.0443575300476258e6 -1.5947872309873216e6 0.0
0.0 0.0 0.0

-287394.67423842655 1.6150543759354781e6 0.0
1.6150543759354781e6 -116351.48012493283 0.0
0.0 0.0 0.0

-1.463808857819052e6 2.8657006947946115e6 0.0
2.8657006947946115e6 550190.2693115878 0.0
0.0 0.0 0.0

-904783.283215489 2.8196741617453676e6 0.0
2.8196741617453676e6 -60732.63187227308 0.0
0.0 0.0 0.0

-843548.8221776494 2.319264984686746e6 0.0
2.319264984686746e6 104852.77203174349 0.0
0.0 0.0 0.0

-1.7178829481912167e6 1.7276069836851975e6 0.0
1.7276069836851975e6 566516.2920033438 0.0
0.0 0.0 0.0

-197541.43133093024 1.7101450446870592e6 0.0
1.7101450446870592e6 -837946.6256018116 0.0
0.0 0.0 0.0

-1.0057995258226995e6 2.7500421648817854e6 0.0
2.7500421648817854e6 39742.296613325656 0.0
0.0 0.0 0.0

97802.5097221052 601033.2087460632 0.0
601033.2087460632 -31593.224731759066 0.0
0.0 0.0 0.0

-318844.2681517845 1.8340325779925992e6 0.0
1.8340325779925992e6 -264189.51247620396 0.0
0.0 0.0 0.0

-5.648217589262818e6 2.5931273449176e6 0.0
2.5931273449176e6 1.3637575541369382e6 0.0
0.0 0.0 0.0

-25262.802573735007 2.084602908366214e6 0.0
2.084602908366214e6 -83548.40277118754 0.0
0.0 0.0 0.0

-116832.12066800435 350252.3070626021 0.0
350252.3070626021 -725834.0216670503 0.0
0.0 0.0 0.0

-1.5037374041452657e6 3.3581143019829476e6 0.0
3.3581143019829476e6 714371.636166746 0.0
0.0 0.0 0.0

-803060.5613268779 2.2981074345616843e6 0.0
2.2981074345616843e6 139137.1699641642 0.0
0.0 0.0 0.0

-1.0703365593876247e6 3.000423017398418e6 0.0
3.000423017398418e6 712614.3510680837 0.0
0.0 0.0 0.0

-1.3813077223667265e6 3.3191611839483078e6 0.0
3.3191611839483078e6 656524.1603429338 0.0
0.0 0.0 0.0

332022.39405176375 105706.79903253967 0.0
105706.79903253967 -241890.1916101624 0.0
0.0 0.0 0.0

-281031.3707390255 2.382032587175882e6 0.0
2.382032587175882e6 -590993.1837353947 0.0
0.0 0.0 0.0

-859076.1782113211 2.3420196989592896e6 0.0
2.3420196989592896e6 198239.1325819572 0.0
0.0 0.0 0.0

-608135.8336086505 1.15108294218769e6 0.0
1.15108294218769e6 -239307.26526585972 0.0
0.0 0.0 0.0

-331582.28773665463 2.4979225424534758e6 0.0
2.4979225424534758e6 -511429.5973697606 0.0
0.0 0.0 0.0

-998847.6470274221 2.3494615440129335e6 0.0
2.3494615440129335e6 -185005.17809748836 0.0
0.0 0.0 0.0

-157515.4866904574 2.10180514044568e6 0.0
2.10180514044568e6 -229235.53761799657 0.0
0.0 0.0 0.0

-413982.7398254842 2.4560031805512016e6 0.0
2.4560031805512016e6 -421312.5616453805 0.0
0.0 0.0 0.0

-728924.775288748 2.233034285379813e6 0.0
2.233034285379813e6 128686.21959109278 0.0
0.0 0.0 0.0

1.1082361242325995e6 504015.89092684985 0.0
504015.89092684985 -1.689298189176335e6 0.0
0.0 0.0 0.0

-233611.73370989514 -347903.66804442473 0.0
-347903.66804442473 371883.6215689457 0.0
0.0 0.0 0.0

-219007.09447376692 -392185.6322759942 0.0
-392185.6322759942 278919.1322634121 0.0
0.0 0.0 0.0

346034.09988953173 -90364.12599467172 0.0
-90364.12599467172 -399912.7340374985 0.0
0.0 0.0 0.0

-256054.2675096056 -594864.2686338354 0.0
-594864.2686338354 197383.5706956246 0.0
0.0 0.0 0.0

454252.6028733043 -74936.99232672407 0.0
-74936.99232672407 -488454.8592399468 0.0
0.0 0.0 0.0

1.4827590994874085e6 605966.4745485635 0.0
605966.4745485635 -2.0906148567953692e6 0.0
0.0 0.0 0.0

-184907.22155343488 -287350.43554885045 0.0
-287350.43554885045 335891.13237233297 0.0
0.0 0.0 0.0

24310.04375609247 -202544.69896950907 0.0
-202544.69896950907 104877.93457630735 0.0
0.0 0.0 0.0

-341429.39352573146 -755607.6396361518 0.0
-755607.6396361518 137219.52705298562 0.0
0.0 0.0 0.0

340435.09627216123 -90930.6656533242 0.0
-90930.6656533242 -334604.8897584124 0.0
0.0 0.0 0.0

1.4120399510916257e6 -156927.49880145735 0.0
-156927.49880145735 -2.725073768002606e6 0.0
0.0 0.0 0.0

-118963.83995028303 -301561.8940487112 0.0
-301561.8940487112 -631292.1473662303 0.0
0.0 0.0 0.0

-243280.71934591804 -331434.58603551 0.0
-331434.58603551 398287.3497056925 0.0
0.0 0.0 0.0

1.1486249446471415e6 1.023311259271027e6 0.0
1.023311259271027e6 -1.6251404348407635e6 0.0
0.0 0.0 0.0

1.2615699885700631e6 1.0502254254744053e6 0.0
1.0502254254744053e6 -1.7342842264960092e6 0.0
0.0 0.0 0.0

1.0912786344242357e6 991845.1548912538 0.0
991845.1548912538 -1.522006725735763e6 0.0
0.0 0.0 0.0

1.0539029008101407e6 833354.5828223982 0.0
833354.5828223982 -1.5030672488719071e6 0.0
0.0 0.0 0.0

-255227.23205535294 -306686.82516178745 0.0
-306686.82516178745 426738.1656600975 0.0
0.0 0.0 0.0

430137.4145775832 -82150.63924746857 0.0
-82150.63924746857 -456102.1489157643 0.0
0.0 0.0 0.0

1.2172618061737018e6 1.064573663663708e6 0.0
1.064573663663708e6 -1.6841369382840302e6 0.0
0.0 0.0 0.0

1.1179277042978797e6 725426.7224154929 0.0
725426.7224154929 -1.552004796772245e6 0.0
0.0 0.0 0.0

1.1051057574850498e6 785519.955974014 0.0
785519.955974014 -1.5209501451246873e6 0.0
0.0 0.0 0.0

1.181852978678767e6 648344.3044264064 0.0
648344.3044264064 -1.6333726290640277e6 0.0
0.0 0.0 0.0

-446512.3468496779 2.276849600407762e6 0.0
2.276849600407762e6 -262574.69363373116 0.0
0.0 0.0 0.0

504075.66447836324 686750.613192938 0.0
686750.613192938 -564492.2780246038 0.0
0.0 0.0 0.0

42495.054800062266 198996.8395022342 0.0
198996.8395022342 -248037.01925286106 0.0
0.0 0.0 0.0

-573848.8900820302 2.574558344186828e6 0.0
2.574558344186828e6 58374.91995705213 0.0
0.0 0.0 0.0

-100598.95877662688 2.0812914364412045e6 0.0
2.0812914364412045e6 -956618.2158674359 0.0
0.0 0.0 0.0

-532239.8284650164 2.320493437416627e6 0.0
2.320493437416627e6 -121086.39925691194 0.0
0.0 0.0 0.0

-3.475362495755849e6 3.2028720197585444e6 0.0
3.2028720197585444e6 1.395861775472437e6 0.0
0.0 0.0 0.0

-741595.3409299452 3.117141506542508e6 0.0
3.117141506542508e6 55224.50923095978 0.0
0.0 0.0 0.0

-395430.27731384535 2.8281063951183935e6 0.0
2.8281063951183935e6 448244.9705502024 0.0
0.0 0.0 0.0

-415134.3043205324 2.4678808810154865e6 0.0
2.4678808810154865e6 757852.0349133704 0.0
0.0 0.0 0.0

-332196.2533132199 3.0790932458257563e6 0.0
3.0790932458257563e6 -247566.02936521143 0.0
0.0 0.0 0.0

-379583.6011919639 1.8037069878836584e6 0.0
1.8037069878836584e6 -137049.88271365105 0.0
0.0 0.0 0.0

-388259.68528963096 2.6633109733828073e6 0.0
2.6633109733828073e6 -264826.3186090305 0.0
0.0 0.0 0.0

-261017.150010998 1.765811604747577e6 0.0
1.765811604747577e6 -299338.67530446895 0.0
0.0 0.0 0.0

-1.3667033977218852e6 3.092894521358106e6 0.0
3.092894521358106e6 551859.9131085512 0.0
0.0 0.0 0.0

-1.3944735928771207e6 3.457031610818976e6 0.0
3.457031610818976e6 793865.818907962 0.0
0.0 0.0 0.0

-159187.05430006236 2.2118481307761064e6 0.0
2.2118481307761064e6 -329608.2973804162 0.0
0.0 0.0 0.0

-1.0290735911511001e6 2.6422984529619208e6 0.0
2.6422984529619208e6 369778.1844592166 0.0
0.0 0.0 0.0

-742525.7517816186 2.7408434479222647e6 0.0
2.7408434479222647e6 -169773.77684085557 0.0
0.0 0.0 0.0

-450618.8889097875 825062.3042017161 0.0
825062.3042017161 -439014.4328711617 0.0
0.0 0.0 0.0

-234554.81303874654 -334794.23060366506 0.0
-334794.23060366506 11391.927174852186 0.0
0.0 0.0 0.0

-234613.76118330474 -358462.70442583825 0.0
-358462.70442583825 15219.52494102619 0.0
0.0 0.0 0.0

375224.7448604433 -115819.17470481622 0.0
-115819.17470481622 -510822.9685889066 0.0
0.0 0.0 0.0

-250350.45766215818 -320509.78804674675 0.0
-320509.78804674675 97190.34949491227 0.0
0.0 0.0 0.0

-204897.0114397324 -314274.72755733336 0.0
-314274.72755733336 23359.569914266292 0.0
0.0 0.0 0.0

1.2089033408273165e6 1.0631689209620026e6 0.0
1.0631689209620026e6 -1.603680241487108e6 0.0
0.0 0.0 0.0

1.2219575619952874e6 1.0660553375513023e6 0.0
1.0660553375513023e6 -1.6406395025370363e6 0.0
0.0 0.0 0.0

439137.46658076963 -85756.28935011824 0.0
-85756.28935011824 -529373.9833691674 0.0
0.0 0.0 0.0

1.1229724071539731e6 795834.1861593337 0.0
795834.1861593337 -1.4574704860420264e6 0.0
0.0 0.0 0.0

1.2602510209559682e6 594495.837215015 0.0
594495.837215015 -1.525480010590009e6 0.0
0.0 0.0 0.0

1.1599915289287735e6 746152.8924135015 0.0
746152.8924135015 -1.5422833451990525e6 0.0
0.0 0.0 0.0

1.193242524835559e6 659009.2386945378 0.0
659009.2386945378 -1.5826782130156374e6 0.0
0.0 0.0 0.0

-433846.30295580934 2.9162260863743494e6 0.0
2.9162260863743494e6 -110291.72210929793 0.0
0.0 0.0 0.0

-951432.6384329564 979837.9894835039 0.0
979837.9894835039 2.0259485431081848e6 0.0
0.0 0.0 0.0

-251556.18542557958 1.7146575065081725e6 0.0
1.7146575065081725e6 -281827.84508562775 0.0
0.0 0.0 0.0

901264.3491192982 860871.0803689071 0.0
860871.0803689071 -1.4342941856869585e6 0.0
0.0 0.0 0.0

-1.4507600552272047e6 3.898584164102016e6 0.0
3.898584164102016e6 994019.7228630333 0.0
0.0 0.0 0.0

-199741.64430538623 2.9793634775175746e6 0.0
2.9793634775175746e6 37851.5910074624 0.0
0.0 0.0 0.0

-121633.67367717477 1.592484291065563e6 0.0
1.592484291065563e6 -730246.4802403797 0.0
0.0 0.0 0.0

-136466.2435217238 877898.663664523 0.0
877898.663664523 -850284.8440264047 0.0
0.0 0.0 0.0

-182113.8603418256 1.8942091443876033e6 0.0
1.8942091443876033e6 -836981.7150940858 0.0
0.0 0.0 0.0

-1.3337548613380643e6 3.4053866953363284e6 0.0
3.4053866953363284e6 724177.132568351 0.0
0.0 0.0 0.0

-325914.3319561442 2.6027265250902087e6 0.0
2.6027265250902087e6 454004.65608515986 0.0
0.0 0.0 0.0

-30830.977000247396 2.0142254494952792e6 0.0
2.0142254494952792e6 296440.9714130945 0.0
0.0 0.0 0.0

-1.148525995505537e6 3.2022901340928e6 0.0
3.2022901340928e6 820829.94389181 0.0
0.0 0.0 0.0

-1.6396139967237448e6 3.169653657626388e6 0.0
3.169653657626388e6 724579.4325502557 0.0
0.0 0.0 0.0

-410344.0512610348 1.8913510858695698e6 0.0
1.8913510858695698e6 -208751.03491014964 0.0
0.0 0.0 0.0

-1.4440129562006968e6 3.3363007146393713e6 0.0
3.3363007146393713e6 631343.5262311739 0.0
0.0 0.0 0.0

-524691.9931750147 668559.7279699079 0.0
668559.7279699079 624755.6655768072 0.0
0.0 0.0 0.0

-303661.181895184 2.663030521572803e6 0.0
2.663030521572803e6 386296.84986643115 0.0
0.0 0.0 0.0

722609.5395461285 1.6560472894404246e6 0.0
1.6560472894404246e6 -1.5843557066395427e6 0.0
0.0 0.0 0.0

357220.3674602092 2.0000950115842107e6 0.0
2.0000950115842107e6 -1.6306007624365857e6 0.0
0.0 0.0 0.0

-1.123993102234038e6 3.125750824571142e6 0.0
3.125750824571142e6 755017.021018885 0.0
0.0 0.0 0.0

-608292.5846741894 3.00225918336854e6 0.0
3.00225918336854e6 -220015.2972163362 0.0
0.0 0.0 0.0

-621.2967695573025 10478.70083005124 0.0
10478.70083005124 -241578.5462705238 0.0
0.0 0.0 0.0

-811175.4831139701 2.91812168520659e6 0.0
2.91812168520659e6 -123400.52950250922 0.0
0.0 0.0 0.0

-1.2961928744651414e6 3.3055694201062988e6 0.0
3.3055694201062988e6 586925.8389498964 0.0
0.0 0.0 0.0

-1.4607646727575888e6 3.511788901004606e6 0.0
3.511788901004606e6 816683.8776487705 0.0
0.0 0.0 0.0

-26965.857394202903 2.1943109727302934e6 0.0
2.1943109727302934e6 -1.172344186014809e6 0.0
0.0 0.0 0.0

45785.942141864216 2.0753162225964472e6 0.0
2.0753162225964472e6 -1.3119266374830694e6 0.0
0.0 0.0 0.0

-101298.29813939735 2.292465981948616e6 0.0
2.292465981948616e6 -238030.71963374672 0.0
0.0 0.0 0.0

-249199.75245856107 1.6959740547550565e6 0.0
1.6959740547550565e6 -169048.62037844356 0.0
0.0 0.0 0.0

-26016.887285494246 2.2306796563800126e6 0.0
2.2306796563800126e6 -1.0796387603571492e6 0.0
0.0 0.0 0.0

-1.2927944876336697e6 3.5579272218493163e6 0.0
3.5579272218493163e6 1.0041137296766301e6 0.0
0.0 0.0 0.0

265315.9521505996 -239957.64716789703 0.0
-239957.64716789703 -1.141044882696832e6 0.0
0.0 0.0 0.0

-1.2360781487162826e6 5.508015831304664e6 0.0
5.508015831304664e6 1.0615124497713274e6 0.0
0.0 0.0 0.0

-214027.84009193684 306418.557638616 0.0
306418.557638616 110152.11632996585 0.0
0.0 0.0 0.0

-1.0088921251448062e6 3.4587609876863807e6 0.0
3.4587609876863807e6 472392.06353968143 0.0
0.0 0.0 0.0

-490280.01531303953 1.883241002385232e6 0.0
1.883241002385232e6 101030.34805027378 0.0
0.0 0.0 0.0

-465310.9279435592 2.904814370900121e6 0.0
2.904814370900121e6 -1522.1935424995609 0.0
0.0 0.0 0.0

-823414.6794809238 3.346464822619572e6 0.0
3.346464822619572e6 158089.74750290194 0.0
0.0 0.0 0.0

-1.2753598746329404e6 3.0734938723981353e6 0.0
3.0734938723981353e6 486677.8080083958 0.0
0.0 0.0 0.0

286319.10073072044 1.2900317872583508e6 0.0
1.2900317872583508e6 -727637.2155997454 0.0
0.0 0.0 0.0

32741.927104636925 43610.92357040587 0.0
43610.92357040587 -351098.89846983406 0.0
0.0 0.0 0.0

-261023.23027305346 1.9463404740749141e6 0.0
1.9463404740749141e6 -372735.50876333925 0.0
0.0 0.0 0.0

-557219.3978075809 2.177002331603185e6 0.0
2.177002331603185e6 -188655.48968889104 0.0
0.0 0.0 0.0

-154374.33787575728 1.1623025732460702e6 0.0
1.1623025732460702e6 -74982.03584842107 0.0
0.0 0.0 0.0

-191249.52009455825 2.0916483661810618e6 0.0
2.0916483661810618e6 -338800.9356776601 0.0
0.0 0.0 0.0

-1.461432105023668e6 3.5149000561360596e6 0.0
3.5149000561360596e6 810913.6773219043 0.0
0.0 0.0 0.0

765263.352413191 1.245541066944724e6 0.0
1.245541066944724e6 -1.3412348503349936e6 0.0
0.0 0.0 0.0

-551995.6159518881 2.9788548000785867e6 0.0
2.9788548000785867e6 -182600.1202296972 0.0
0.0 0.0 0.0

-1.2687656019627482e6 3.3765731533862352e6 0.0
3.3765731533862352e6 649813.4467045072 0.0
0.0 0.0 0.0

90521.57495443046 -177345.34369258795 0.0
-177345.34369258795 -566985.7442991612 0.0
0.0 0.0 0.0

-737721.1760098715 2.60629443153098e6 0.0
2.60629443153098e6 56965.45731398306 0.0
0.0 0.0 0.0

324362.9648498866 232211.99212939633 0.0
232211.99212939633 -713778.2807144648 0.0
0.0 0.0 0.0

-1.0541887304690543e6 3.4024130670179958e6 0.0
3.4024130670179958e6 385809.17952892405 0.0
0.0 0.0 0.0

-1.5612975598406028e6 3.625168566091363e6 0.0
3.625168566091363e6 953400.5688931892 0.0
0.0 0.0 0.0

-1.4685369932920493e6 3.1519075715109315e6 0.0
3.1519075715109315e6 665222.7411769193 0.0
0.0 0.0 0.0

-1.4488819458288022e6 3.522661343342363e6 0.0
3.522661343342363e6 853323.6981033891 0.0
0.0 0.0 0.0

-1.3194798371375557e6 2.878902668191224e6 0.0
2.878902668191224e6 397191.71986433846 0.0
0.0 0.0 0.0

1.716035412076571e6 209041.9500881396 0.0
209041.9500881396 -2.5871325038627014e6 0.0
0.0 0.0 0.0

-1.5331618465882004e6 4.311669089454229e6 0.0
4.311669089454229e6 1.0131948776965879e6 0.0
0.0 0.0 0.0

-517990.30431082065 1.2351979620542878e6 0.0
1.2351979620542878e6 -241426.58102895174 0.0
0.0 0.0 0.0

462240.02919756685 4.1290370512680546e6 0.0
4.1290370512680546e6 2.5683700454999045e6 0.0
0.0 0.0 0.0

-336253.74469152966 2.3043147854773295e6 0.0
2.3043147854773295e6 -556504.0796391857 0.0
0.0 0.0 0.0

-1.2493012558213286e6 3.3491866143490453e6 0.0
3.3491866143490453e6 896245.3101672311 0.0
0.0 0.0 0.0

-19226.67977288016 2.6530022979486403e6 0.0
2.6530022979486403e6 -1.0955543921983114e6 0.0
0.0 0.0 0.0

-1.2018504957691138e6 3.362005251432795e6 0.0
3.362005251432795e6 581148.6970758189 0.0
0.0 0.0 0.0

-497533.93082873186 2.6761025571747003e6 0.0
2.6761025571747003e6 -76679.41859693057 0.0
0.0 0.0 0.0

-1.1341704127899837e6 3.0887928906409964e6 0.0
3.0887928906409964e6 582189.455981279 0.0
0.0 0.0 0.0

-1.124850604046815e6 2.847429473668366e6 0.0
2.847429473668366e6 328666.99182046007 0.0
0.0 0.0 0.0

941241.5633910636 1.8494214628787548e6 0.0
1.8494214628787548e6 -1.730938950241349e6 0.0
0.0 0.0 0.0

-557548.0587277838 3.0093493236266216e6 0.0
3.0093493236266216e6 -223631.5003626074 0.0
0.0 0.0 0.0

-551069.3533864814 2.0543174309065281e6 0.0
2.0543174309065281e6 -15837.17399125194 0.0
0.0 0.0 0.0

-1.1159626685244793e6 3.2529140301121105e6 0.0
3.2529140301121105e6 598383.817398712 0.0
0.0 0.0 0.0

-61120.530676049064 2.164385928421327e6 0.0
2.164385928421327e6 -1.1091448648646367e6 0.0
0.0 0.0 0.0

624386.594721184 3.804218257071951e6 0.0
3.804218257071951e6 2.0812877693058914e6 0.0
0.0 0.0 0.0

-962615.3814368261 3.0025132556446115e6 0.0
3.0025132556446115e6 667261.2997717669 0.0
0.0 0.0 0.0

-3.9958244189895676e6 3.100135511191782e6 0.0
3.100135511191782e6 1.723460613350957e6 0.0
0.0 0.0 0.0

-278350.3853958701 2.27873730829617e6 0.0
2.27873730829617e6 -672625.4023449881 0.0
0.0 0.0 0.0

-1.3871569501607015e6 3.508557655333701e6 0.0
3.508557655333701e6 873165.4569444294 0.0
0.0 0.0 0.0

1.7789446093960428e6 107922.19599265508 0.0
107922.19599265508 -1.3241784851626607e6 0.0
0.0 0.0 0.0

726445.7560170484 1.053603948974882e6 0.0
1.053603948974882e6 -1.4339367931755343e6 0.0
0.0 0.0 0.0

-1.5655987633159296e6 3.14788367654365e6 0.0
3.14788367654365e6 676764.0647809508 0.0
0.0 0.0 0.0

389534.6663804725 3.120654449806272e6 0.0
3.120654449806272e6 -823135.9374837413 0.0
0.0 0.0 0.0

-1.169888487567181e6 3.3746965087053105e6 0.0
3.3746965087053105e6 554888.0727514229 0.0
0.0 0.0 0.0

-558931.5521180714 1.72214049651578e6 0.0
1.72214049651578e6 309864.6722012822 0.0
0.0 0.0 0.0

-346326.7211971878 2.751689876188616e6 0.0
2.751689876188616e6 -287917.391477308 0.0
0.0 0.0 0.0

-195856.05812331493 2.271247404902241e6 0.0
2.271247404902241e6 -798268.7398380646 0.0
0.0 0.0 0.0

-162080.5560508056 2.784077243217639e6 0.0
2.784077243217639e6 -234249.11330365008 0.0
0.0 0.0 0.0

-351825.73169632093 2.3730396055440423e6 0.0
2.3730396055440423e6 -527871.5510825618 0.0
0.0 0.0 0.0

-1.859057370298463e6 2.581426499770177e6 0.0
2.581426499770177e6 617570.48126002 0.0
0.0 0.0 0.0

-136736.71804879478 -245438.17698618583 0.0
-245438.17698618583 260949.29722921373 0.0
0.0 0.0 0.0

-198085.4820637824 2.4301989743910637e6 0.0
2.4301989743910637e6 -352903.71424684586 0.0
0.0 0.0 0.0

-1.4344114389009196e6 3.1044640273075146e6 0.0
3.1044640273075146e6 538945.0611589509 0.0
0.0 0.0 0.0

-563242.6500172266 -424347.48726776335 0.0
-424347.48726776335 936055.0583782524 0.0
0.0 0.0 0.0

-28330.4662753328 3.2519440306871776e6 0.0
3.2519440306871776e6 -413525.39365879283 0.0
0.0 0.0 0.0

-1.166192847534787e6 3.2550274098114427e6 0.0
3.2550274098114427e6 599292.1029871971 0.0
0.0 0.0 0.0

-697161.8169067141 2.5894536434241724e6 0.0
2.5894536434241724e6 158994.59116833174 0.0
0.0 0.0 0.0

-1.082793873852246e6 2.776198808844194e6 0.0
2.776198808844194e6 510143.9978566374 0.0
0.0 0.0 0.0

-1.0120205693230629e6 3.0377040770012666e6 0.0
3.0377040770012666e6 512743.0470567178 0.0
0.0 0.0 0.0

-1.3239069867566933e6 3.2949035660825386e6 0.0
3.2949035660825386e6 811205.6712150427 0.0
0.0 0.0 0.0

-288625.7048396342 1.6277225845897242e6 0.0
1.6277225845897242e6 -126164.8097953128 0.0
0.0 0.0 0.0

-836161.3129159593 2.648259853851112e6 0.0
2.648259853851112e6 -84807.47257596141 0.0
0.0 0.0 0.0

-916275.8529076425 3.256685108985444e6 0.0
3.256685108985444e6 200391.67563983938 0.0
0.0 0.0 0.0

1.0399880676411043e6 1.1741421550253846e6 0.0
1.1741421550253846e6 -1.6927797652382995e6 0.0
0.0 0.0 0.0

-669939.5316463173 2.765252647362625e6 0.0
2.765252647362625e6 -31832.98273944942 0.0
0.0 0.0 0.0

-69222.18785633429 -66970.99104149919 0.0
-66970.99104149919 -146841.7678048317 0.0
0.0 0.0 0.0

-266132.7377529725 1.6657330497594185e6 0.0
1.6657330497594185e6 -213380.12453390122 0.0
0.0 0.0 0.0

-791899.5337345093 2.1193492728147423e6 0.0
2.1193492728147423e6 616115.196309533 0.0
0.0 0.0 0.0

1.0177320563051138e6 846787.5784393115 0.0
846787.5784393115 -1.3690911305296442e6 0.0
0.0 0.0 0.0

-113174.79113576675 2.2468549652811326e6 0.0
2.2468549652811326e6 -933234.5441493419 0.0
0.0 0.0 0.0

-171626.5067222491 464081.6330267939 0.0
464081.6330267939 -622222.8546920513 0.0
0.0 0.0 0.0

45553.87156460667 667259.1302816707 0.0
667259.1302816707 113170.74302901453 0.0
0.0 0.0 0.0

-1.2877339991056514e6 3.3175492601271407e6 0.0
3.3175492601271407e6 722450.0677518095 0.0
0.0 0.0 0.0

-168753.78105771978 -281699.1592988779 0.0
-281699.1592988779 49904.17308599363 0.0
0.0 0.0 0.0

-156236.45324626478 2.6694715729848533e6 0.0
2.6694715729848533e6 -241833.24346249725 0.0
0.0 0.0 0.0

-762670.1260414575 2.701758160910023e6 0.0
2.701758160910023e6 327151.96729467297 0.0
0.0 0.0 0.0

-100855.96107658182 2.1341416433054856e6 0.0
2.1341416433054856e6 -855048.1861373028 0.0
0.0 0.0 0.0

-466643.91896187636 1.516540436002249e6 0.0
1.516540436002249e6 -521766.6802676282 0.0
0.0 0.0 0.0

-719286.4962361082 1.9008210061370987e6 0.0
1.9008210061370987e6 301246.2656335531 0.0
0.0 0.0 0.0

-1.2308362329918891e6 3.389400492833217e6 0.0
3.389400492833217e6 623019.7892009427 0.0
0.0 0.0 0.0

-503891.60600668634 2.0854804718448964e6 0.0
2.0854804718448964e6 1.6580816854100714e6 0.0
0.0 0.0 0.0

-1.5651842726532093e6 3.4521990039993357e6 0.0
3.4521990039993357e6 825181.2710590546 0.0
0.0 0.0 0.0

-331205.5105245627 1.514357233217836e6 0.0
1.514357233217836e6 363575.71261843934 0.0
0.0 0.0 0.0

-439865.869566232 1.8097406481005694e6 0.0
1.8097406481005694e6 153415.33952260233 0.0
0.0 0.0 0.0

-947424.951874079 1.8744767497172444e6 0.0
1.8744767497172444e6 396545.9059280252 0.0
0.0 0.0 0.0

-274585.1047178117 2.7421824460149487e6 0.0
2.7421824460149487e6 -139770.038574584 0.0
0.0 0.0 0.0

-192216.20986046712 3.18376803824435e6 0.0
3.18376803824435e6 -333129.9938564813 0.0
0.0 0.0 0.0

-1.0191139339259535e6 3.2573073166244715e6 0.0
3.2573073166244715e6 457616.1097316307 0.0
0.0 0.0 0.0

-101620.416476729 2.1956983113197847e6 0.0
2.1956983113197847e6 -946460.4839864543 0.0
0.0 0.0 0.0

-1.2863118748699476e6 3.413059093128923e6 0.0
3.413059093128923e6 705989.9866100147 0.0
0.0 0.0 0.0

-398490.1416185049 2.3051948413137114e6 0.0
2.3051948413137114e6 -460706.2183180946 0.0
0.0 0.0 0.0

-492400.6499716404 2.7989368567344877e6 0.0
2.7989368567344877e6 -266878.27062565344 0.0
0.0 0.0 0.0

968.9641283901874 3.4685574554930944e6 0.0
3.4685574554930944e6 -1.0228005414151644e6 0.0
0.0 0.0 0.0

-1.3395555124066821e6 3.4525788115299144e6 0.0
3.4525788115299144e6 796992.0796638689 0.0
0.0 0.0 0.0

-502771.3388259185 3.1825387605473874e6 0.0
3.1825387605473874e6 -96438.90569867656 0.0
0.0 0.0 0.0

-607440.6883873458 -332657.467044372 0.0
-332657.467044372 1.0821957204220127e6 0.0
0.0 0.0 0.0

-2.0156902408467622e6 2.142647706567633e6 0.0
2.142647706567633e6 629539.0027174626 0.0
0.0 0.0 0.0

-366504.7938401256 3.0971847050961684e6 0.0
3.0971847050961684e6 -202846.7467942229 0.0
0.0 0.0 0.0

-743997.8532930199 424371.6783213958 0.0
424371.6783213958 1.4301427999475328e6 0.0
0.0 0.0 0.0

-611245.3780090768 2.3833692220947044e6 0.0
2.3833692220947044e6 78877.06912954568 0.0
0.0 0.0 0.0

-712359.3947332833 3.014255361758783e6 0.0
3.014255361758783e6 -118760.01549223579 0.0
0.0 0.0 0.0

-1.1000454200394603e6 3.1249124229106954e6 0.0
3.1249124229106954e6 638890.7302254981 0.0
0.0 0.0 0.0

-1.2142694679530368e6 3.318853978628373e6 0.0
3.318853978628373e6 715584.5706179268 0.0
0.0 0.0 0.0

-448445.4966274875 2.1611324357667114e6 0.0
2.1611324357667114e6 386775.5594420428 0.0
0.0 0.0 0.0

-852255.6275069207 2.868003778452415e6 0.0
2.868003778452415e6 503478.5992413877 0.0
0.0 0.0 0.0

570609.1671293895 635417.075622101 0.0
635417.075622101 -1.1571280003422878e6 0.0
0.0 0.0 0.0

-598528.6779538059 575610.3881060662 0.0
575610.3881060662 -50939.63315339212 0.0
0.0 0.0 0.0

-406296.0469269845 1.8042298019166267e6 0.0
1.8042298019166267e6 248634.45624312008 0.0
0.0 0.0 0.0

-1.5770373695225478e6 3.651379333768346e6 0.0
3.651379333768346e6 906431.070379187 0.0
0.0 0.0 0.0

-530778.4339316383 3.1534852692157244e6 0.0
3.1534852692157244e6 -131599.1402840616 0.0
0.0 0.0 0.0

-792014.8295896251 2.70384639318092e6 0.0
2.70384639318092e6 -186110.76190151408 0.0
0.0 0.0 0.0

-43854.08783434564 27294.023920995347 0.0
27294.023920995347 -392345.08934922423 0.0
0.0 0.0 0.0

-968931.9420846815 3.4943913255516933e6 0.0
3.4943913255516933e6 403810.97520393465 0.0
0.0 0.0 0.0

-50304.252078302685 4.676889594272669e6 0.0
4.676889594272669e6 -196269.46230809824 0.0
0.0 0.0 0.0

-787244.3059959048 1.9695223133931598e6 0.0
1.9695223133931598e6 414073.8492687376 0.0
0.0 0.0 0.0

800708.7513049464 958339.3690534473 0.0
958339.3690534473 -1.3630812027796954e6 0.0
0.0 0.0 0.0

-742164.4617942299 1.095559476021436e6 0.0
1.095559476021436e6 1.7351289100112703e6 0.0
0.0 0.0 0.0

-336200.21059805935 2.3726806085944325e6 0.0
2.3726806085944325e6 -545437.4316229952 0.0
0.0 0.0 0.0

932140.4119237764 330387.3334094452 0.0
330387.3334094452 -1.0926033934149172e6 0.0
0.0 0.0 0.0

-1.8176726936969426e6 1.9195921633623147e6 0.0
1.9195921633623147e6 451489.94410867617 0.0
0.0 0.0 0.0

-559862.7849940486 1.2368677261815853e6 0.0
1.2368677261815853e6 1.5356374456318805e6 0.0
0.0 0.0 0.0

-623416.7029667473 2.5905206620958084e6 0.0
2.5905206620958084e6 50702.16960655959 0.0
0.0 0.0 0.0

-1.632996641046444e6 3.357812947893654e6 0.0
3.357812947893654e6 861223.9146853555 0.0
0.0 0.0 0.0

-686748.0383161267 2.8505926238759416e6 0.0
2.8505926238759416e6 -11789.202525994508 0.0
0.0 0.0 0.0

2.687705580369357e6 1.8783528589942646e6 0.0
1.8783528589942646e6 -1.3055587442496843e6 0.0
0.0 0.0 0.0

-968049.5651623268 2.8305212248362517e6 0.0
2.8305212248362517e6 587816.5367322699 0.0
0.0 0.0 0.0

-461880.87307495385 2.179084263191333e6 0.0
2.179084263191333e6 -858813.3740482917 0.0
0.0 0.0 0.0

-949470.9405806069 3.061872587243821e6 0.0
3.061872587243821e6 663213.3716557075 0.0
0.0 0.0 0.0

-847915.613143058 2.9604251180507564e6 0.0
2.9604251180507564e6 -294716.1605803688 0.0
0.0 0.0 0.0

-418642.91759342805 1.9681062649809928e6 0.0
1.9681062649809928e6 527000.8592637372 0.0
0.0 0.0 0.0

-407832.43614032987 2.732848984925182e6 0.0
2.732848984925182e6 150964.58237840078 0.0
0.0 0.0 0.0

-110525.52449161396 2.4093909318918404e6 0.0
2.4093909318918404e6 -1.0431371695238701e6 0.0
0.0 0.0 0.0

-4701.795364840407 111414.31386390387 0.0
111414.31386390387 -88816.62457341609 0.0
0.0 0.0 0.0

-1.5130752433043248e6 3.3982542364059757e6 0.0
3.3982542364059757e6 772347.3086102252 0.0
0.0 0.0 0.0

-893883.2750855257 3.178602992870494e6 0.0
3.178602992870494e6 -42233.30049875489 0.0
0.0 0.0 0.0

-1.6134406404222166e6 3.4438331230600406e6 0.0
3.4438331230600406e6 844497.66467865 0.0
0.0 0.0 0.0

-737447.4672307196 2.378684489072368e6 0.0
2.378684489072368e6 194581.1924825427 0.0
0.0 0.0 0.0

672792.2914550435 289491.3087733508 0.0
289491.3087733508 -717506.0638987462 0.0
0.0 0.0 0.0

-782411.3622422032 2.324599723052423e6 0.0
2.324599723052423e6 147027.5165901765 0.0
0.0 0.0 0.0

-424778.7890006398 2.0890992029904306e6 0.0
2.0890992029904306e6 579188.0369981863 0.0
0.0 0.0 0.0

-375568.822794038 1.6971270835471344e6 0.0
1.6971270835471344e6 47432.27730240513 0.0
0.0 0.0 0.0

-994440.4616862123 3.1845854621444023e6 0.0
3.1845854621444023e6 585935.8767213251 0.0
0.0 0.0 0.0

138116.17563122534 2.136729084338046e6 0.0
2.136729084338046e6 -1.4412435785838093e6 0.0
0.0 0.0 0.0

-741794.4575130324 2.594164030218038e6 0.0
2.594164030218038e6 5394.046764386789 0.0
0.0 0.0 0.0

-667620.1464221796 2.405628573733373e6 0.0
2.405628573733373e6 -119675.16937422835 0.0
0.0 0.0 0.0

-794526.412319807 2.286072882493858e6 0.0
2.286072882493858e6 21527.563507043873 0.0
0.0 0.0 0.0

-1.364100320755201e6 3.6912499684190215e6 0.0
3.6912499684190215e6 880568.4866355825 0.0
0.0 0.0 0.0

-1.1315815497014325e6 2.8718411716790795e6 0.0
2.8718411716790795e6 574955.155839151 0.0
0.0 0.0 0.0

-135630.0284225919 1.9960908180995374e6 0.0
1.9960908180995374e6 -992589.0395973977 0.0
0.0 0.0 0.0

-155394.10045012558 1.0785849608255145e6 0.0
1.0785849608255145e6 73086.82748450723 0.0
0.0 0.0 0.0

-42178.2289846248 182286.9604209169 0.0
182286.9604209169 -422257.7650739815 0.0
0.0 0.0 0.0

-2.1573822415142893e6 4.419865903359625e6 0.0
4.419865903359625e6 1.110581976143127e6 0.0
0.0 0.0 0.0

-632238.2871646344 2.6700838009391674e6 0.0
2.6700838009391674e6 -50828.8117368439 0.0
0.0 0.0 0.0

-1.2897877473506704e6 3.2257477507025315e6 0.0
3.2257477507025315e6 790088.1995481724 0.0
0.0 0.0 0.0

235022.54420369843 630484.9155163731 0.0
630484.9155163731 -721810.3642415142 0.0
0.0 0.0 0.0

-1.469864394216689e6 -444381.61410785385 0.0
-444381.61410785385 1.6844760249612299e6 0.0
0.0 0.0 0.0

-275777.50304801273 775955.976011127 0.0
775955.976011127 -680315.1303197291 0.0
0.0 0.0 0.0

-790084.249328053 3.6089443280367204e6 0.0
3.6089443280367204e6 328136.38827232306 0.0
0.0 0.0 0.0

-1.1289794869714123e6 3.9462084741427274e6 0.0
3.9462084741427274e6 910413.9699921911 0.0
0.0 0.0 0.0

-904152.1115450716 2.4047678227506056e6 0.0
2.4047678227506056e6 197761.0233845989 0.0
0.0 0.0 0.0

1.2387451615416757e6 1.100725810916466e6 0.0
1.100725810916466e6 -1.723760201905015e6 0.0
0.0 0.0 0.0

-1.3279167829566654e6 3.506501740915959e6 0.0
3.506501740915959e6 944045.7892013037 0.0
0.0 0.0 0.0

-1.2569141692885782e6 3.5074693708386444e6 0.0
3.5074693708386444e6 956144.2534909628 0.0
0.0 0.0 0.0

825569.9395343341 1.055900566685617e6 0.0
1.055900566685617e6 -1.4647236506764614e6 0.0
0.0 0.0 0.0

-1.6279671756578505e6 4.112197075653365e6 0.0
4.112197075653365e6 1.0871993724142644e6 0.0
0.0 0.0 0.0

-527303.6450182032 2.987045126568078e6 0.0
2.987045126568078e6 -151915.72401479864 0.0
0.0 0.0 0.0

-1.398927540971713e6 3.4450175518702874e6 0.0
3.4450175518702874e6 848678.4096348732 0.0
0.0 0.0 0.0

-20248.66913312563 2.276014785063493e6 0.0
2.276014785063493e6 -1.199310413375212e6 0.0
0.0 0.0 0.0

-389869.20291482966 76848.52668721076 0.0
76848.52668721076 -328842.8377102833 0.0
0.0 0.0 0.0

-695791.1803252096 1.5542529782767969e6 0.0
1.5542529782767969e6 -150413.80066952988 0.0
0.0 0.0 0.0

-1.1808353506073914e6 3.105026967322605e6 0.0
3.105026967322605e6 735035.7688057782 0.0
0.0 0.0 0.0

-539332.9845233846 2.9256330546896793e6 0.0
2.9256330546896793e6 -190926.55975802493 0.0
0.0 0.0 0.0

-1.204351797676416e6 3.0259830961048394e6 0.0
3.0259830961048394e6 681702.4162158297 0.0
0.0 0.0 0.0

-24221.71525657901 199536.0926189538 0.0
199536.0926189538 -217424.95782590238 0.0
0.0 0.0 0.0

1.0791671930510402e6 1.0041358941926124e6 0.0
1.0041358941926124e6 -1.5147060185860922e6 0.0
0.0 0.0 0.0

-573694.116994111 2.281816246923145e6 0.0
2.281816246923145e6 -263149.27068895905 0.0
0.0 0.0 0.0

-838664.3482725706 1.8743056540520147e6 0.0
1.8743056540520147e6 61414.42179953895 0.0
0.0 0.0 0.0

-591037.1938248922 2.967373946142768e6 0.0
2.967373946142768e6 -44966.83804999356 0.0
0.0 0.0 0.0

-779360.0026372343 2.771940995587802e6 0.0
2.771940995587802e6 -171443.01790168925 0.0
0.0 0.0 0.0

-7.2237722754681185e6 402593.05656993994 0.0
402593.05656993994 1.2224601047210392e7 0.0
0.0 0.0 0.0

20575.695664513958 178626.9644246049 0.0
178626.9644246049 -151003.12857563805 0.0
0.0 0.0 0.0

-1.0318423305696186e6 3.2535325380383846e6 0.0
3.2535325380383846e6 514154.46918921574 0.0
0.0 0.0 0.0

-525748.6813619593 2.789641346896017e6 0.0
2.789641346896017e6 -92314.35408948055 0.0
0.0 0.0 0.0

136070.50846214895 28254.303892788063 0.0
28254.303892788063 240749.0590310752 0.0
0.0 0.0 0.0

923881.974983622 880461.9854043662 0.0
880461.9854043662 -1.4275833929295847e6 0.0
0.0 0.0 0.0

-684992.0430542073 2.5510393273004727e6 0.0
2.5510393273004727e6 -206927.1262942562 0.0
0.0 0.0 0.0

-264967.4566438345 2.2681403154746736e6 0.0
2.2681403154746736e6 -669013.9903052683 0.0
0.0 0.0 0.0

-1.0306184826746467e6 3.3321595535901543e6 0.0
3.3321595535901543e6 808202.8746673579 0.0
0.0 0.0 0.0

-1.2664573169795233e6 3.443465585651939e6 0.0
3.443465585651939e6 953657.4134216467 0.0
0.0 0.0 0.0

-178145.2174410617 2.396060441696715e6 0.0
2.396060441696715e6 -289612.97337359044 0.0
0.0 0.0 0.0

-1.1600639199846243e6 3.453175510145212e6 0.0
3.453175510145212e6 302649.83459715307 0.0
0.0 0.0 0.0

565984.6764679617 458152.37141396094 0.0
458152.37141396094 -1.112087102711889e6 0.0
0.0 0.0 0.0

-3.2222736366303316e6 721847.5274723665 0.0
721847.5274723665 1.9081090013699173e6 0.0
0.0 0.0 0.0

-612781.8886404989 2.251038567758226e6 0.0
2.251038567758226e6 579385.8524596447 0.0
0.0 0.0 0.0

-518166.3809268048 2.0675907396638775e6 0.0
2.0675907396638775e6 255087.4078172685 0.0
0.0 0.0 0.0

-1.6379084441713628e6 2.9673155159020456e6 0.0
2.9673155159020456e6 637708.7925963004 0.0
0.0 0.0 0.0

-27922.41900088673 1.032632401842034e6 0.0
1.032632401842034e6 -1.0265767457832862e6 0.0
0.0 0.0 0.0

601806.1088643337 975456.8271070981 0.0
975456.8271070981 -1.3195872538105918e6 0.0
0.0 0.0 0.0

787504.5682060481 1.3853898533185916e6 0.0
1.3853898533185916e6 -1.366333397432945e6 0.0
0.0 0.0 0.0

-225164.76650029258 2.7086845822905987e6 0.0
2.7086845822905987e6 -221293.8864776037 0.0
0.0 0.0 0.0

-108676.77134505166 1.0124189877830249e6 0.0
1.0124189877830249e6 -456364.6420521493 0.0
0.0 0.0 0.0

183369.42097673408 832062.5574078611 0.0
832062.5574078611 -594335.4943517979 0.0
0.0 0.0 0.0

-551489.5765417604 3.1170045020455723e6 0.0
3.1170045020455723e6 -108134.89119191538 0.0
0.0 0.0 0.0

-143851.81776374593 2.2492804900506586e6 0.0
2.2492804900506586e6 -967021.0619647162 0.0
0.0 0.0 0.0

-703102.7623537607 2.3675913658445785e6 0.0
2.3675913658445785e6 110449.2986823043 0.0
0.0 0.0 0.0

-1.1360454700089865e6 5.234309888158527e6 0.0
5.234309888158527e6 879700.0852250956 0.0
0.0 0.0 0.0

-737519.7987081897 2.82039706527539e6 0.0
2.82039706527539e6 -164229.05405228236 0.0
0.0 0.0 0.0

-333915.32942993887 1.682168099470787e6 0.0
1.682168099470787e6 755029.7755831657 0.0
0.0 0.0 0.0

1.093913838925973e6 1.4901480287529714e6 0.0
1.4901480287529714e6 -1.9568013002068382e6 0.0
0.0 0.0 0.0

-851589.4100162192 2.6013777286967905e6 0.0
2.6013777286967905e6 405444.16302684863 0.0
0.0 0.0 0.0

1.7339697203792678e6 444675.1442632141 0.0
444675.1442632141 -1.5205377568098535e6 0.0
0.0 0.0 0.0

964164.0601618587 1.1923218738912942e6 0.0
1.1923218738912942e6 -1.502983307092863e6 0.0
0.0 0.0 0.0

-1.0365172330233045e6 2.501331991375769e6 0.0
2.501331991375769e6 269069.84489440353 0.0
0.0 0.0 0.0

152111.3771950879 1.351302737802071e6 0.0
1.351302737802071e6 -309388.2714021967 0.0
0.0 0.0 0.0

-308077.6358273135 1.4580323073611013e6 0.0
1.4580323073611013e6 853809.2791226527 0.0
0.0 0.0 0.0

-543489.0746984154 2.2279954222409404e6 0.0
2.2279954222409404e6 258028.69847024934 0.0
0.0 0.0 0.0

-145836.19812918938 810497.3704281898 0.0
810497.3704281898 -252263.50840034193 0.0
0.0 0.0 0.0

-712476.8662902366 3.663033670734632e6 0.0
3.663033670734632e6 250180.0572050418 0.0
0.0 0.0 0.0

-1.8548298352934131e6 4.816728377474805e6 0.0
4.816728377474805e6 1.1385989219484094e6 0.0
0.0 0.0 0.0

-940090.2167387913 2.5912887302303007e6 0.0
2.5912887302303007e6 175384.61094408057 0.0
0.0 0.0 0.0

-453757.9970571985 1.394706556764933e6 0.0
1.394706556764933e6 1.3757728208329482e6 0.0
0.0 0.0 0.0

-4.647296667055651e6 7.664838548491636e6 0.0
7.664838548491636e6 1.0341466151450025e6 0.0
0.0 0.0 0.0

-554998.6112785478 2.7958894659717353e6 0.0
2.7958894659717353e6 472833.9988231172 0.0
0.0 0.0 0.0

-224978.83482439772 1.8625575443263396e6 0.0
1.8625575443263396e6 -219115.9639008663 0.0
0.0 0.0 0.0

430129.0039118872 144193.36942964204 0.0
144193.36942964204 -572148.2169231899 0.0
0.0 0.0 0.0

-1.1658357740315455e6 3.2846893422906473e6 0.0
3.2846893422906473e6 644961.5370397168 0.0
0.0 0.0 0.0

-617880.5871651015 3.436219633353734e6 0.0
3.436219633353734e6 -328736.34943465947 0.0
0.0 0.0 0.0

-1.7659083006851752e6 2.2325442710145074e6 0.0
2.2325442710145074e6 491571.6218658397 0.0
0.0 0.0 0.0

-1.1066324156516662e6 3.0831896117320596e6 0.0
3.0831896117320596e6 773124.686142324 0.0
0.0 0.0 0.0

-1.3606087196953534e6 3.422438767630889e6 0.0
3.422438767630889e6 832794.1952011843 0.0
0.0 0.0 0.0

573025.8561625534 42316.74437693166 0.0
42316.74437693166 -543360.9142499096 0.0
0.0 0.0 0.0

738159.2818122036 724225.0845015877 0.0
724225.0845015877 -1.3005226668533573e6 0.0
0.0 0.0 0.0

-1.6587455960772322e6 4.692409174906614e6 0.0
4.692409174906614e6 1.1394704380204629e6 0.0
0.0 0.0 0.0

-398056.5179309203 1.9121395159981607e6 0.0
1.9121395159981607e6 690343.7819715785 0.0
0.0 0.0 0.0

-723440.6550862965 2.8378253137644744e6 0.0
2.8378253137644744e6 -399268.16318716056 0.0
0.0 0.0 0.0

-100707.68483438216 225483.29214238175 0.0
225483.29214238175 -730723.4304419359 0.0
0.0 0.0 0.0

-889898.3606335088 3.973759832379338e6 0.0
3.973759832379338e6 -317663.2831249385 0.0
0.0 0.0 0.0

-1.3642886429577903e6 3.378727492195219e6 0.0
3.378727492195219e6 852678.7903897414 0.0
0.0 0.0 0.0

-476442.4597597891 2.2881178377186037e6 0.0
2.2881178377186037e6 -363944.2365139767 0.0
0.0 0.0 0.0

-1.2590035824571154e6 3.364194894509101e6 0.0
3.364194894509101e6 796743.4154918307 0.0
0.0 0.0 0.0

-246649.2700372381 1.007626359425315e6 0.0
1.007626359425315e6 -735104.3104320554 0.0
0.0 0.0 0.0

-1.2492138339799568e6 2.8919169836125644e6 0.0
2.8919169836125644e6 260393.2482172656 0.0
0.0 0.0 0.0

682239.5934150518 166148.72432184854 0.0
166148.72432184854 -750879.3801207021 0.0
0.0 0.0 0.0

245158.62165002472 1.6535876196627952e6 0.0
1.6535876196627952e6 -177221.67819804684 0.0
0.0 0.0 0.0

-212474.85670425132 2.334117629147445e6 0.0
2.334117629147445e6 -391966.05327012663 0.0
0.0 0.0 0.0

-299112.9630909085 3.071944762907669e6 0.0
3.071944762907669e6 -1.0627985010486383e6 0.0
0.0 0.0 0.0

-277967.46808879054 2.4979061087851683e6 0.0
2.4979061087851683e6 -359879.07164383365 0.0
0.0 0.0 0.0

-2.5822979471092736e6 2.363940770005235e6 0.0
2.363940770005235e6 1.6285587727741296e6 0.0
0.0 0.0 0.0

-476175.9870999389 2.5973313431065637e6 0.0
2.5973313431065637e6 -140192.08351958927 0.0
0.0 0.0 0.0

-266890.2547339727 2.999641524094988e6 0.0
2.999641524094988e6 -363963.999926176 0.0
0.0 0.0 0.0

-3.9001261783037586e6 1.2601467483675957e6 0.0
1.2601467483675957e6 2.379293423514139e6 0.0
0.0 0.0 0.0

-514459.22298724664 3.0603825716168387e6 0.0
3.0603825716168387e6 -148635.14239887247 0.0
0.0 0.0 0.0

-648016.7344899338 2.8567247143837553e6 0.0
2.8567247143837553e6 -203792.57695799222 0.0
0.0 0.0 0.0

-409307.5699357124 1.3812122832808327e6 0.0
1.3812122832808327e6 130934.29051902192 0.0
0.0 0.0 0.0

-1.56870680219265e6 2.81385010594849e6 0.0
2.81385010594849e6 540182.7445668618 0.0
0.0 0.0 0.0

-300667.06258377904 1.575114613022702e6 0.0
1.575114613022702e6 -702973.530325039 0.0
0.0 0.0 0.0

-253555.46105210972 1.966686629505487e6 0.0
1.966686629505487e6 -729580.950714599 0.0
0.0 0.0 0.0

700940.310305333 293148.2308044018 0.0
293148.2308044018 -624538.9131623125 0.0
0.0 0.0 0.0

-402514.1232660844 1.7114549294297912e6 0.0
1.7114549294297912e6 -45517.94975472927 0.0
0.0 0.0 0.0

843296.7628805406 1.0261482832233903e6 0.0
1.0261482832233903e6 -1.3923595563959517e6 0.0
0.0 0.0 0.0

730723.8403523717 145164.92043808117 0.0
145164.92043808117 -872073.0094162185 0.0
0.0 0.0 0.0

-268636.73253239074 1.7767616222055482e6 0.0
1.7767616222055482e6 -724936.329727834 0.0
0.0 0.0 0.0

-3.7310262748045567e6 -862120.9400140746 0.0
-862120.9400140746 2.839341107632447e6 0.0
0.0 0.0 0.0

1.1207606434797696e6 1.374829285422467e6 0.0
1.374829285422467e6 -1.9219733781850557e6 0.0
0.0 0.0 0.0

-297150.3478256125 1.7814544932299883e6 0.0
1.7814544932299883e6 -168563.7051482947 0.0
0.0 0.0 0.0

-455753.8002506664 1.9380602975592865e6 0.0
1.9380602975592865e6 -68336.57359554783 0.0
0.0 0.0 0.0

-683192.8531121915 2.832861006112365e6 0.0
2.832861006112365e6 -59017.7799988598 0.0
0.0 0.0 0.0

-1.2285441054727936e6 3.2812730934132948e6 0.0
3.2812730934132948e6 655793.5376537582 0.0
0.0 0.0 0.0

-477292.81425222626 2.345202092284665e6 0.0
2.345202092284665e6 281636.3936149754 0.0
0.0 0.0 0.0

-544820.8006581027 1.9953735600038802e6 0.0
1.9953735600038802e6 -347515.05832433 0.0
0.0 0.0 0.0

241202.83053000667 1.4186417402751201e6 0.0
1.4186417402751201e6 -1.2859553015494442e6 0.0
0.0 0.0 0.0

-1.4430173018489275e6 2.6966480316973957e6 0.0
2.6966480316973957e6 446226.2798093451 0.0
0.0 0.0 0.0

-1.2735264707215258e6 4.268388526786169e6 0.0
4.268388526786169e6 781997.7143688954 0.0
0.0 0.0 0.0

959191.1651989855 1.3941565401762521e6 0.0
1.3941565401762521e6 -1.58794744341498e6 0.0
0.0 0.0 0.0

-77716.15490151237 2.282980588227222e6 0.0
2.282980588227222e6 -98033.52015151744 0.0
0.0 0.0 0.0

-720798.6811858912 2.851689787467967e6 0.0
2.851689787467967e6 -148288.18382554292 0.0
0.0 0.0 0.0

-4.002095693980708e6 2.8484161724329935e6 0.0
2.8484161724329935e6 1.7300330022141736e6 0.0
0.0 0.0 0.0

28114.806358668713 252588.24221762113 0.0
252588.24221762113 -24704.32665201924 0.0
0.0 0.0 0.0

-28244.907857102284 3.0009226960099186e6 0.0
3.0009226960099186e6 -956014.9067869413 0.0
0.0 0.0 0.0

14671.095075761157 133700.0435411482 0.0
133700.0435411482 -363668.76074943366 0.0
0.0 0.0 0.0

124971.87618890246 -73752.2419884332 0.0
-73752.2419884332 -116263.37948324531 0.0
0.0 0.0 0.0

1.323846737261409e6 1.0749900073175747e6 0.0
1.0749900073175747e6 -1.811373753339943e6 0.0
0.0 0.0 0.0

-487944.4864212003 2.9933981737696845e6 0.0
2.9933981737696845e6 -206998.5562139665 0.0
0.0 0.0 0.0

-172290.78576667694 2.123972029274454e6 0.0
2.123972029274454e6 -838159.2503043842 0.0
0.0 0.0 0.0

-2.247485635390386e6 298667.98644981266 0.0
298667.98644981266 2.8533461273234813e6 0.0
0.0 0.0 0.0

-950166.6606005328 3.0600830516536618e6 0.0
3.0600830516536618e6 380325.7404494136 0.0
0.0 0.0 0.0

-328539.5944133615 1.3730055396519045e6 0.0
1.3730055396519045e6 -662484.0907890291 0.0
0.0 0.0 0.0

-3.5070257262097904e6 993873.6300280428 0.0
993873.6300280428 7.685959074014117e6 0.0
0.0 0.0 0.0

-1.129455193473272e6 3.2344918051804355e6 0.0
3.2344918051804355e6 169624.3935772376 0.0
0.0 0.0 0.0

-1.192420110747748e6 1.897668871820697e6 0.0
1.897668871820697e6 2.3690429898548974e6 0.0
0.0 0.0 0.0

-216713.7044208005 2.1802102133703497e6 0.0
2.1802102133703497e6 -756424.4786243377 0.0
0.0 0.0 0.0

4.423456570957915e6 3.228886260739961e6 0.0
3.228886260739961e6 -1.7249979426239603e6 0.0
0.0 0.0 0.0

-1.1005038300386271e6 3.570367235277451e6 0.0
3.570367235277451e6 910151.8420772476 0.0
0.0 0.0 0.0

-1.4731918817265544e6 4.973816204308214e6 0.0
4.973816204308214e6 1.2228851090484355e6 0.0
0.0 0.0 0.0

-394234.29083952995 1.6612582961068407e6 0.0
1.6612582961068407e6 -560631.7823880485 0.0
0.0 0.0 0.0

-110717.25291327173 1.434149738387165e6 0.0
1.434149738387165e6 -474665.90982688207 0.0
0.0 0.0 0.0

-1.181227895222505e6 3.1322668460083385e6 0.0
3.1322668460083385e6 629437.7273590713 0.0
0.0 0.0 0.0

114746.0664462364 723529.7207123896 0.0
723529.7207123896 -117527.9624657928 0.0
0.0 0.0 0.0

-21796.1048303633 2.2270262858795696e6 0.0
2.2270262858795696e6 -1.0977976586869769e6 0.0
0.0 0.0 0.0

1.7644409567661304e6 284079.6522366808 0.0
284079.6522366808 -1.33984029381508e6 0.0
0.0 0.0 0.0

-470530.86040630226 2.171809496645677e6 0.0
2.171809496645677e6 -424740.24998991477 0.0
0.0 0.0 0.0

-1.8142610671636274e6 1.3281439716160137e6 0.0
1.3281439716160137e6 687772.4551301444 0.0
0.0 0.0 0.0

-435214.8509015971 2.2952470304958e6 0.0
2.2952470304958e6 -114973.66182756532 0.0
0.0 0.0 0.0

-5.115825166109294e6 1.3144890247455337e6 0.0
1.3144890247455337e6 1.0828447658734718e7 0.0
0.0 0.0 0.0

-386477.6553490316 2.9182366213145847e6 0.0
2.9182366213145847e6 6376.853873268643 0.0
0.0 0.0 0.0

-408343.9359856595 3.106543772130804e6 0.0
3.106543772130804e6 -90912.54326885269 0.0
0.0 0.0 0.0

-711015.418883644 2.850261268397588e6 0.0
2.850261268397588e6 -91275.54477993719 0.0
0.0 0.0 0.0

-1.182215827457377e6 3.779763995271247e6 0.0
3.779763995271247e6 1.014120719339067e6 0.0
0.0 0.0 0.0

-799673.3346789456 2.5490733977538142e6 0.0
2.5490733977538142e6 110576.90621308872 0.0
0.0 0.0 0.0

250860.87986703916 508460.87441968283 0.0
508460.87441968283 -237141.9682678857 0.0
0.0 0.0 0.0

-101916.53443537856 2.145521782127559e6 0.0
2.145521782127559e6 -349638.722632446 0.0
0.0 0.0 0.0

760449.7338751619 183502.95240065144 0.0
183502.95240065144 -843185.6746460877 0.0
0.0 0.0 0.0

-645727.9719674212 3.3489889300428047e6 0.0
3.3489889300428047e6 593912.0812009224 0.0
0.0 0.0 0.0

-272107.26780530135 2.2466528976029083e6 0.0
2.2466528976029083e6 -657283.7852202117 0.0
0.0 0.0 0.0

-1.300189097798075e6 3.844516096188798e6 0.0
3.844516096188798e6 1.0746221356846893e6 0.0
0.0 0.0 0.0

-1.1779543132268575e6 2.589347833832874e6 0.0
2.589347833832874e6 347865.0180363489 0.0
0.0 0.0 0.0

509193.4531026569 -57486.59816811012 0.0
-57486.59816811012 -466418.6344956792 0.0
0.0 0.0 0.0

-1.1062977718564975e6 2.608437815464744e6 0.0
2.608437815464744e6 250035.8302266365 0.0
0.0 0.0 0.0

-591107.2961855675 2.6735858978786687e6 0.0
2.6735858978786687e6 -269944.90336156124 0.0
0.0 0.0 0.0

-990266.0182784466 2.6330862277893475e6 0.0
2.6330862277893475e6 130210.86235351779 0.0
0.0 0.0 0.0

-475303.5369607452 3.1375431195783233e6 0.0
3.1375431195783233e6 -72021.29617920947 0.0
0.0 0.0 0.0

-1.3272513759609768e6 4.638803227425128e6 0.0
4.638803227425128e6 1.1083574351517803e6 0.0
0.0 0.0 0.0

1.0274980054898948e6 946233.7850131246 0.0
946233.7850131246 -1.4595311379278796e6 0.0
0.0 0.0 0.0

57956.92937940397 463727.5660207778 0.0
463727.5660207778 -79836.70841695397 0.0
0.0 0.0 0.0

-286446.0285649874 2.534030560891224e6 0.0
2.534030560891224e6 -384797.3156134307 0.0
0.0 0.0 0.0

-325032.05057997303 2.3333224427795163e6 0.0
2.3333224427795163e6 -573269.7048904271 0.0
0.0 0.0 0.0

-1.0404594790419873e6 3.3142284175400534e6 0.0
3.3142284175400534e6 107188.04742449563 0.0
0.0 0.0 0.0

-395427.94475035905 3.099867288943384e6 0.0
3.099867288943384e6 -233261.2424279608 0.0
0.0 0.0 0.0

-789358.7081288941 3.2229423385311738e6 0.0
3.2229423385311738e6 445697.7131816582 0.0
0.0 0.0 0.0

-316521.64200449677 2.3872120221528034e6 0.0
2.3872120221528034e6 -573524.376341176 0.0
0.0 0.0 0.0

118409.55113925168 1.0675475563816745e6 0.0
1.0675475563816745e6 -1.2655603548821833e6 0.0
0.0 0.0 0.0

219580.1312772644 1.1337034070703876e6 0.0
1.1337034070703876e6 -863371.3119889242 0.0
0.0 0.0 0.0

-164777.09604858395 2.200170138057809e6 0.0
2.200170138057809e6 -740490.6034533279 0.0
0.0 0.0 0.0

-331545.8346079363 2.4009636825701986e6 0.0
2.4009636825701986e6 567402.3084563636 0.0
0.0 0.0 0.0

-1.3471113895183606e6 3.3712059098516954e6 0.0
3.3712059098516954e6 790076.9834539279 0.0
0.0 0.0 0.0

1.1088683352003081e6 1.1938492112973551e6 0.0
1.1938492112973551e6 -1.7100831584477345e6 0.0
0.0 0.0 0.0

1.2650383088996364e6 1.3221944940516676e6 0.0
1.3221944940516676e6 -1.8358330262642475e6 0.0
0.0 0.0 0.0

-149762.0279383185 2.2674182244807123e6 0.0
2.2674182244807123e6 -270961.7304078813 0.0
0.0 0.0 0.0

-1.3237926785020614e6 2.6973280435118815e6 0.0
2.6973280435118815e6 434947.44873582595 0.0
0.0 0.0 0.0

194487.26626336758 100731.93214421524 0.0
100731.93214421524 -108827.28702737814 0.0
0.0 0.0 0.0

-153805.7711596472 2.0886862561701292e6 0.0
2.0886862561701292e6 -204105.04102321115 0.0
0.0 0.0 0.0

-377770.4416247314 1.7827218164490785e6 0.0
1.7827218164490785e6 -98800.31821270566 0.0
0.0 0.0 0.0

83686.16483880812 992804.2025572686 0.0
992804.2025572686 -657695.5155016885 0.0
0.0 0.0 0.0

1.3596175484461943e6 1.0907860322759543e6 0.0
1.0907860322759543e6 -1.839605869010253e6 0.0
0.0 0.0 0.0

-306596.50836288073 1.6956091008958977e6 0.0
1.6956091008958977e6 -171832.9794489462 0.0
0.0 0.0 0.0

-7.169150491376718e6 1.7964815264116486e6 0.0
1.7964815264116486e6 1.3865318627266089e7 0.0
0.0 0.0 0.0

-550948.5230692838 1.9833469987615615e6 0.0
1.9833469987615615e6 -5999.896830142621 0.0
0.0 0.0 0.0

-1.3179729256199414e6 3.9602571370654725e6 0.0
3.9602571370654725e6 1.092156551345718e6 0.0
0.0 0.0 0.0

-299092.51250132965 1.9624236731924748e6 0.0
1.9624236731924748e6 -566304.6284243594 0.0
0.0 0.0 0.0

-1.7564488822951824e6 3.9348786619087486e6 0.0
3.9348786619087486e6 1.0503213467415113e6 0.0
0.0 0.0 0.0

-1.3046379246000815e6 2.58969002465998e6 0.0
2.58969002465998e6 361253.3523733646 0.0
0.0 0.0 0.0

-618760.1045123225 2.6887538792983196e6 0.0
2.6887538792983196e6 1.15475021198447e6 0.0
0.0 0.0 0.0

1.6961246386779584e6 378768.34261625714 0.0
378768.34261625714 -2.4746852162304334e6 0.0
0.0 0.0 0.0

-548976.1688579745 3.1286166269178404e6 0.0
3.1286166269178404e6 -70373.93818675075 0.0
0.0 0.0 0.0

1.0468681505085326e6 603271.7037151608 0.0
603271.7037151608 -1.5385702867649074e6 0.0
0.0 0.0 0.0

700157.2523067127 462058.4994717115 0.0
462058.4994717115 -836177.2876843936 0.0
0.0 0.0 0.0

-849296.6431769293 2.3305502674693675e6 0.0
2.3305502674693675e6 185111.11621764197 0.0
0.0 0.0 0.0

-1.296387149204956e6 3.4256280910009267e6 0.0
3.4256280910009267e6 875214.2424771847 0.0
0.0 0.0 0.0

-126632.44437943534 992340.5294694129 0.0
992340.5294694129 -332200.4148556877 0.0
0.0 0.0 0.0

-365113.7045859162 2.4337248072562832e6 0.0
2.4337248072562832e6 -528101.8117354016 0.0
0.0 0.0 0.0

-1.446083765562665e6 4.1201901379008265e6 0.0
4.1201901379008265e6 1.1320991567878795e6 0.0
0.0 0.0 0.0

5438.471465691936 76000.84024610421 0.0
76000.84024610421 -4492.288935556217 0.0
0.0 0.0 0.0

-226368.82373012532 1.6230562469728668e6 0.0
1.6230562469728668e6 -235432.16587274362 0.0
0.0 0.0 0.0

572005.8156369189 158786.18762421093 0.0
158786.18762421093 -613670.3866215555 0.0
0.0 0.0 0.0

-379012.58912667155 2.7388753207292026e6 0.0
2.7388753207292026e6 -167893.8216900009 0.0
0.0 0.0 0.0

-868546.0077925874 2.486420174790855e6 0.0
2.486420174790855e6 211477.95626133523 0.0
0.0 0.0 0.0

-1.2131993029264943e6 3.314505261882568e6 0.0
3.314505261882568e6 518490.7708691243 0.0
0.0 0.0 0.0

-1.684889353287314e6 3.245981769134249e6 0.0
3.245981769134249e6 781728.9270980745 0.0
0.0 0.0 0.0

409807.79791762924 373527.4920093504 0.0
373527.4920093504 -842933.0423103658 0.0
0.0 0.0 0.0

-59255.629938041566 2.230928786136784e6 0.0
2.230928786136784e6 -218130.56137654118 0.0
0.0 0.0 0.0

-1.4570668145717238e6 2.8241548093898287e6 0.0
2.8241548093898287e6 523921.5924627847 0.0
0.0 0.0 0.0

-657136.7728266974 3.0759105827904544e6 0.0
3.0759105827904544e6 187249.25218634476 0.0
0.0 0.0 0.0

-849854.8108017873 2.827819230652549e6 0.0
2.827819230652549e6 1.223680734413526e6 0.0
0.0 0.0 0.0

-435874.55273066217 2.6317602070330083e6 0.0
2.6317602070330083e6 -341773.4561139448 0.0
0.0 0.0 0.0

-731985.5800243184 3.740717538639923e6 0.0
3.740717538639923e6 489523.76921522664 0.0
0.0 0.0 0.0

-355779.512816367 2.1856139235644965e6 0.0
2.1856139235644965e6 -364648.18601952586 0.0
0.0 0.0 0.0

-215613.08210762634 1.7856593490324782e6 0.0
1.7856593490324782e6 -369617.8646320451 0.0
0.0 0.0 0.0

230395.11430334195 735115.7558044278 0.0
735115.7558044278 -322681.5030689751 0.0
0.0 0.0 0.0

-1.5724578126097748e6 2.993007128014754e6 0.0
2.993007128014754e6 640315.1714389547 0.0
0.0 0.0 0.0

964686.1371287381 987611.1943694907 0.0
987611.1943694907 -1.4082652791362912e6 0.0
0.0 0.0 0.0

634176.2893518648 977694.0098084016 0.0
977694.0098084016 -1.211337075312738e6 0.0
0.0 0.0 0.0

-661923.7070444028 2.763314550453737e6 0.0
2.763314550453737e6 57407.297914718714 0.0
0.0 0.0 0.0

-868513.9841011802 2.734839180189141e6 0.0
2.734839180189141e6 651587.8232676736 0.0
0.0 0.0 0.0

-121379.49742441524 1.2143368509305452e6 0.0
1.2143368509305452e6 -401002.7528933301 0.0
0.0 0.0 0.0

-1.9083267160632934e6 4.107899062946442e6 0.0
4.107899062946442e6 1.1034210989301666e6 0.0
0.0 0.0 0.0

-1.6731845487258066e6 4.0870884589672554e6 0.0
4.0870884589672554e6 1.1223175426461124e6 0.0
0.0 0.0 0.0

-1.3110597298663177e6 3.307394662664948e6 0.0
3.307394662664948e6 836211.318901063 0.0
0.0 0.0 0.0

-54904.04864285351 2.109883201683935e6 0.0
2.109883201683935e6 -1.0297397734117243e6 0.0
0.0 0.0 0.0

-1.604457724716915e6 2.808369773699885e6 0.0
2.808369773699885e6 513895.43537517637 0.0
0.0 0.0 0.0

-257768.0379616549 1.520167418190836e6 0.0
1.520167418190836e6 15752.460399817704 0.0
0.0 0.0 0.0

-137385.54603207903 25747.679817049182 0.0
25747.679817049182 -478454.9254356207 0.0
0.0 0.0 0.0

-1.7292796377066502e6 4.649105385976954e6 0.0
4.649105385976954e6 1.2317112922892666e6 0.0
0.0 0.0 0.0

-353496.57333321986 3.1086755234769466e6 0.0
3.1086755234769466e6 -165945.9096664553 0.0
0.0 0.0 0.0

-1.5612127355619236e6 4.1645489297286724e6 0.0
4.1645489297286724e6 1.1704527450019987e6 0.0
0.0 0.0 0.0

-378147.01617257146 2.441136194152255e6 0.0
2.441136194152255e6 -497792.90533587843 0.0
0.0 0.0 0.0

-1.83617352102957e6 3.2537755099105653e6 0.0
3.2537755099105653e6 801821.9799051443 0.0
0.0 0.0 0.0

-457838.46294863004 2.521020006519415e6 0.0
2.521020006519415e6 378157.59335428354 0.0
0.0 0.0 0.0

-1.7616695837577297e6 3.953151651395617e6 0.0
3.953151651395617e6 1.0131283629508736e6 0.0
0.0 0.0 0.0

-1.4370521895909011e6 5.681864588148005e6 0.0
5.681864588148005e6 1.1833143025599793e6 0.0
0.0 0.0 0.0

-47046.76935923441 1.5362206854669277e6 0.0
1.5362206854669277e6 -209885.0364951267 0.0
0.0 0.0 0.0

-203971.7008336031 1.547945676929473e6 0.0
1.547945676929473e6 -382920.7671572555 0.0
0.0 0.0 0.0

11285.321625311786 852376.7512969977 0.0
852376.7512969977 -200225.9573676171 0.0
0.0 0.0 0.0

33865.62957467581 1.6700475632064685e6 0.0
1.6700475632064685e6 -899720.5007026187 0.0
0.0 0.0 0.0

-550568.9717506485 -46559.676300995874 0.0
-46559.676300995874 275092.86667774204 0.0
0.0 0.0 0.0

16443.25570894074 42010.55608879965 0.0
42010.55608879965 -87954.62724595911 0.0
0.0 0.0 0.0

-76687.36287101697 1.301878283788722e6 0.0
1.301878283788722e6 50500.6708234507 0.0
0.0 0.0 0.0

-354032.9083327819 2.581493318958422e6 0.0
2.581493318958422e6 634946.7799090554 0.0
0.0 0.0 0.0

-1.4904695355296305e6 4.507981572095221e6 0.0
4.507981572095221e6 1.19831778563276e6 0.0
0.0 0.0 0.0

-1.1996291883418628e6 3.367840420570756e6 0.0
3.367840420570756e6 917097.9508579723 0.0
0.0 0.0 0.0

-186856.90766445588 1.7333709574075262e6 0.0
1.7333709574075262e6 -457592.1315703052 0.0
0.0 0.0 0.0

-488751.21868676384 2.677999633529056e6 0.0
2.677999633529056e6 600909.6312490676 0.0
0.0 0.0 0.0

-1.6665183478794384e6 2.6555659305765852e6 0.0
2.6555659305765852e6 424612.70840507804 0.0
0.0 0.0 0.0

-1.9416582629237797e6 4.153357398654571e6 0.0
4.153357398654571e6 1.0816473497522273e6 0.0
0.0 0.0 0.0

-2.104018323144218e6 4.286085956376611e6 0.0
4.286085956376611e6 1.096625483172199e6 0.0
0.0 0.0 0.0

-314829.05920240877 1.5970392403127053e6 0.0
1.5970392403127053e6 -62019.46898808803 0.0
0.0 0.0 0.0

-175582.17444796074 2.0270449288431462e6 0.0
2.0270449288431462e6 -252298.46618928414 0.0
0.0 0.0 0.0

208946.9238738136 982542.0971575605 0.0
982542.0971575605 -897865.9289484189 0.0
0.0 0.0 0.0

-568411.9646410618 2.120364963634654e6 0.0
2.120364963634654e6 173960.33410528832 0.0
0.0 0.0 0.0

-203774.26842718062 2.107098353750381e6 0.0
2.107098353750381e6 -400993.29647416057 0.0
0.0 0.0 0.0

15387.618125887442 767886.4577081613 0.0
767886.4577081613 257299.6839759159 0.0
0.0 0.0 0.0

-193464.72860927097 1.9212891836597424e6 0.0
1.9212891836597424e6 -503966.9826615005 0.0
0.0 0.0 0.0

-438956.3101539001 1.7194741696932293e6 0.0
1.7194741696932293e6 12763.05489100641 0.0
0.0 0.0 0.0

9772.735146170864 722778.4037121725 0.0
722778.4037121725 -2172.8012874237133 0.0
0.0 0.0 0.0

-505213.5730546127 3.2419939506337796e6 0.0
3.2419939506337796e6 274130.5995472487 0.0
0.0 0.0 0.0

-312880.44731094735 2.289738081078297e6 0.0
2.289738081078297e6 -231443.02146782284 0.0
0.0 0.0 0.0

-1.8605955997641564e6 3.2445381662204247e6 0.0
3.2445381662204247e6 774575.7126944183 0.0
0.0 0.0 0.0

-1.807741895887484e6 3.241250789459026e6 0.0
3.241250789459026e6 801177.7886832042 0.0
0.0 0.0 0.0

-495095.7109582557 2.5626242323304466e6 0.0
2.5626242323304466e6 277111.77712204383 0.0
0.0 0.0 0.0

-113281.72983141534 2.1242494372322117e6 0.0
2.1242494372322117e6 -840842.4820352021 0.0
0.0 0.0 0.0

-611258.8966555339 2.131921612712362e6 0.0
2.131921612712362e6 91412.4829098472 0.0
0.0 0.0 0.0

-270592.197145103 1.5343607916671757e6 0.0
1.5343607916671757e6 57821.14009231722 0.0
0.0 0.0 0.0

-1.2218564951337771e6 3.2812857717841263e6 0.0
3.2812857717841263e6 876833.2680348322 0.0
0.0 0.0 0.0

-1.4391390758237448e6 5.110776020062331e6 0.0
5.110776020062331e6 1.1627902127760998e6 0.0
0.0 0.0 0.0

-527193.7913861633 2.616688689266929e6 0.0
2.616688689266929e6 201712.00526606798 0.0
0.0 0.0 0.0

-1.1867670442274476e6 3.105346615819171e6 0.0
3.105346615819171e6 737933.9491954598 0.0
0.0 0.0 0.0

521346.67581644567 1.0609823648120274e6 0.0
1.0609823648120274e6 -1.1839748427163318e6 0.0
0.0 0.0 0.0

-314629.5085847306 1.6423428822436812e6 0.0
1.6423428822436812e6 -77347.05305440578 0.0
0.0 0.0 0.0

-812935.2668044448 3.582576964059382e6 0.0
3.582576964059382e6 543261.2304790757 0.0
0.0 0.0 0.0

1.0327117364592552e6 -14307.234424937256 0.0
-14307.234424937256 -712038.9520134127 0.0
0.0 0.0 0.0

764280.7431627676 1.2587240380791328e6 0.0
1.2587240380791328e6 -1.6069479523786015e6 0.0
0.0 0.0 0.0

-902660.0447771132 2.7423497457275935e6 0.0
2.7423497457275935e6 517907.73947463144 0.0
0.0 0.0 0.0

-488906.7207083336 2.49004799547338e6 0.0
2.49004799547338e6 1.252059662725619e6 0.0
0.0 0.0 0.0

300528.2231781664 1.149661965952566e6 0.0
1.149661965952566e6 -1.323408465595978e6 0.0
0.0 0.0 0.0

93971.82125469256 1.4459741991180521e6 0.0
1.4459741991180521e6 -1.2785201468467577e6 0.0
0.0 0.0 0.0

-297761.5783807502 2.5250145285376515e6 0.0
2.5250145285376515e6 -298382.1348031071 0.0
0.0 0.0 0.0

33380.45241339563 123403.35242065118 0.0
123403.35242065118 -69937.55998900233 0.0
0.0 0.0 0.0

286697.1573113122 836949.6203220998 0.0
836949.6203220998 -1.3106866240374525e6 0.0
0.0 0.0 0.0

142875.94697681195 3.777056345062228e6 0.0
3.777056345062228e6 -696392.4502107792 0.0
0.0 0.0 0.0

-171719.30741152665 1.902606960614221e6 0.0
1.902606960614221e6 -183157.03405539773 0.0
0.0 0.0 0.0

146477.32348728713 479890.7833049355 0.0
479890.7833049355 -571944.5812621667 0.0
0.0 0.0 0.0

-399175.0850783968 2.3856262742591873e6 0.0
2.3856262742591873e6 405174.81290606124 0.0
0.0 0.0 0.0

214359.24018283316 -88317.79216754898 0.0
-88317.79216754898 -216499.19581461497 0.0
0.0 0.0 0.0

-322731.22774726787 1.6640139936756883e6 0.0
1.6640139936756883e6 -111554.98777777438 0.0
0.0 0.0 0.0

-787575.8069348974 2.546583252023281e6 0.0
2.546583252023281e6 150432.8028073614 0.0
0.0 0.0 0.0

-620112.0188902593 2.3408707822382804e6 0.0
2.3408707822382804e6 -194729.7187423833 0.0
0.0 0.0 0.0

-86073.86882817687 -202362.4655194576 0.0
-202362.4655194576 58576.85452949909 0.0
0.0 0.0 0.0

144315.97790213622 994501.7381654261 0.0
994501.7381654261 -803176.7462687239 0.0
0.0 0.0 0.0

1.0165636583854597e6 1.7261382849575828e6 0.0
1.7261382849575828e6 -2.019559281540432e6 0.0
0.0 0.0 0.0

-1.1324386689191645e6 5.293415538030582e6 0.0
5.293415538030582e6 1.061556388712685e6 0.0
0.0 0.0 0.0

-796234.412856675 197879.14735974508 0.0
197879.14735974508 1.833331520652735e6 0.0
0.0 0.0 0.0

-472147.68672336737 2.7560753859097296e6 0.0
2.7560753859097296e6 204771.84638842096 0.0
0.0 0.0 0.0

19194.03931557297 683379.7602689082 0.0
683379.7602689082 -415273.9549445347 0.0
0.0 0.0 0.0

-1.2646629843968146e6 2.5755675264554378e6 0.0
2.5755675264554378e6 594070.8491773072 0.0
0.0 0.0 0.0

-205594.85622495878 3.2052176332200537e6 0.0
3.2052176332200537e6 -444063.9038955602 0.0
0.0 0.0 0.0

116714.91314880323 3.268795798331026e6 0.0
3.268795798331026e6 -592070.0537951529 0.0
0.0 0.0 0.0

915314.715863208 1.1931763951001724e6 0.0
1.1931763951001724e6 -1.6661714684449823e6 0.0
0.0 0.0 0.0

-788625.9034770675 2.4417126020892025e6 0.0
2.4417126020892025e6 166670.06892524636 0.0
0.0 0.0 0.0

-1.8794051431815845e6 6.028372121399719e6 0.0
6.028372121399719e6 990129.5654146973 0.0
0.0 0.0 0.0

-337717.20530827274 1.6442142163169917e6 0.0
1.6442142163169917e6 5652.2081446155935 0.0
0.0 0.0 0.0

-22118.71089448787 -152785.39675958882 0.0
-152785.39675958882 15829.176072804059 0.0
0.0 0.0 0.0

-228538.82428758728 3.0912712322899457e6 0.0
3.0912712322899457e6 -183279.49643687147 0.0
0.0 0.0 0.0

-1.0956195659290776e6 3.1384125138533986e6 0.0
3.1384125138533986e6 499916.643193973 0.0
0.0 0.0 0.0

270685.59132891695 757159.545879664 0.0
757159.545879664 -357218.93743755936 0.0
0.0 0.0 0.0

-504054.2609861244 2.4928656936898823e6 0.0
2.4928656936898823e6 1.5157341318043156e6 0.0
0.0 0.0 0.0

-42889.022252903815 1.9901169433173507e6 0.0
1.9901169433173507e6 -58978.43923234154 0.0
0.0 0.0 0.0

31918.21304578308 1.9181581496200608e6 0.0
1.9181581496200608e6 -664237.0358715731 0.0
0.0 0.0 0.0

-324396.2398450984 152420.178164272 0.0
152420.178164272 1.1377881166569765e6 0.0
0.0 0.0 0.0

-191291.77524916615 3.0145194984011124e6 0.0
3.0145194984011124e6 82220.1916101366 0.0
0.0 0.0 0.0

-1.0222347579020876e6 2.4367147545525543e6 0.0
2.4367147545525543e6 55139.61948320916 0.0
0.0 0.0 0.0

-2.0726908969497753e6 4.357579069767869e6 0.0
4.357579069767869e6 1.1409426693036468e6 0.0
0.0 0.0 0.0

-504011.27397508203 1.8624339422234779e6 0.0
1.8624339422234779e6 59531.62751166991 0.0
0.0 0.0 0.0

258093.46968270605 -229422.77868069854 0.0
-229422.77868069854 -839793.985787041 0.0
0.0 0.0 0.0

4950.950489194918 1.5665255416954271e6 0.0
1.5665255416954271e6 -618612.2284428668 0.0
0.0 0.0 0.0

-248910.98214511268 1.202441677345449e6 0.0
1.202441677345449e6 -183256.61542652792 0.0
0.0 0.0 0.0

-184743.43607357828 1.8335433970875978e6 0.0
1.8335433970875978e6 -200178.75869614954 0.0
0.0 0.0 0.0

-3.32691966525038e6 5.563918550936864e6 0.0
5.563918550936864e6 1.4566588972233683e6 0.0
0.0 0.0 0.0

678177.6185215017 227759.53803642822 0.0
227759.53803642822 -860026.6814384116 0.0
0.0 0.0 0.0

-1.3169409316455834e6 4.749780009471373e6 0.0
4.749780009471373e6 1.0884138798282868e6 0.0
0.0 0.0 0.0

-847644.7412442126 3.811653406847232e6 0.0
3.811653406847232e6 649384.432133083 0.0
0.0 0.0 0.0

426577.6677427835 953069.0752212221 0.0
953069.0752212221 -64732.39538010038 0.0
0.0 0.0 0.0

-231522.72390663688 2.8143878565937635e6 0.0
2.8143878565937635e6 -812368.7178885646 0.0
0.0 0.0 0.0

-776449.582980593 3.101371257525856e6 0.0
3.101371257525856e6 1.4508361633165455e6 0.0
0.0 0.0 0.0

-380230.21382417623 2.701079216327143e6 0.0
2.701079216327143e6 955777.04715112 0.0
0.0 0.0 0.0

-14325.77608961708 3.285461014557799e6 0.0
3.285461014557799e6 -507649.2286838363 0.0
0.0 0.0 0.0

-26277.515641099286 2.170519284881728e6 0.0
2.170519284881728e6 -109719.08217017504 0.0
0.0 0.0 0.0

-3.0725932745300056e6 5.211282694308157e6 0.0
5.211282694308157e6 1.3863008100327514e6 0.0
0.0 0.0 0.0

-1.812514996501326e6 2.5480651639345232e6 0.0
2.5480651639345232e6 710522.8774899933 0.0
0.0 0.0 0.0

30049.4560894873 2.0572730628507466e6 0.0
2.0572730628507466e6 -459421.7043428233 0.0
0.0 0.0 0.0

322632.99075348035 2.259640880978447e6 0.0
2.259640880978447e6 -1.493456753191831e6 0.0
0.0 0.0 0.0

1.363356653788784e6 1.121015720773469e6 0.0
1.121015720773469e6 -1.8219761271366826e6 0.0
0.0 0.0 0.0

-420651.13726723765 2.3296393497133455e6 0.0
2.3296393497133455e6 -297737.3460792454 0.0
0.0 0.0 0.0

-104641.08480929589 1.6601901369451084e6 0.0
1.6601901369451084e6 -536399.2102509245 0.0
0.0 0.0 0.0

-540291.8214311579 2.3900044435976427e6 0.0
2.3900044435976427e6 -113188.23544896493 0.0
0.0 0.0 0.0

-3.55171415747892e6 6.051130357108027e6 0.0
6.051130357108027e6 1.1848923562840887e6 0.0
0.0 0.0 0.0

-1.0603049122357017e6 2.4027659825483547e6 0.0
2.4027659825483547e6 223285.6880024394 0.0
0.0 0.0 0.0

-772136.9854395165 2.7992033080227464e6 0.0
2.7992033080227464e6 87520.53162753512 0.0
0.0 0.0 0.0

-834888.0221559416 2.627541148801655e6 0.0
2.627541148801655e6 105615.69016572 0.0
0.0 0.0 0.0

-23507.429455318023 1.0829404426824271e6 0.0
1.0829404426824271e6 -516043.66672800155 0.0
0.0 0.0 0.0

-574351.8750862969 2.145621447652274e6 0.0
2.145621447652274e6 113157.19468238822 0.0
0.0 0.0 0.0

-28038.134593177027 3.218412781569803e6 0.0
3.218412781569803e6 -267019.51811802894 0.0
0.0 0.0 0.0

-463942.23658455565 3.114820110137949e6 0.0
3.114820110137949e6 -189746.46429481322 0.0
0.0 0.0 0.0

-5.298401396323198e6 -1.1446463480534025e6 0.0
-1.1446463480534025e6 9.643206925226226e6 0.0
0.0 0.0 0.0

521008.8514343165 -58945.86636229322 0.0
-58945.86636229322 -488784.0881708601 0.0
0.0 0.0 0.0

-5.76589948222786e6 9.10235304721611e6 0.0
9.10235304721611e6 506765.44952038815 0.0
0.0 0.0 0.0

1389.369821659755 3.1091347055394957e6 0.0
3.1091347055394957e6 -579263.28098786 0.0
0.0 0.0 0.0

-2.8301083483190937e6 4.951667910544948e6 0.0
4.951667910544948e6 1.4216286200598239e6 0.0
0.0 0.0 0.0

-772104.7143815061 2.4629266647806833e6 0.0
2.4629266647806833e6 278333.7747053337 0.0
0.0 0.0 0.0

-523367.27921274025 2.84189034559436e6 0.0
2.84189034559436e6 -177021.11623515838 0.0
0.0 0.0 0.0

-896145.6562530394 2.377256882560684e6 0.0
2.377256882560684e6 226001.88065188855 0.0
0.0 0.0 0.0

1.06170939513769e6 883841.8129779951 0.0
883841.8129779951 -1.5425266978069013e6 0.0
0.0 0.0 0.0

-476111.14164767694 3.2400293848997187e6 0.0
3.2400293848997187e6 54562.1672681279 0.0
0.0 0.0 0.0

-15062.354854494886 1.802955983171981e6 0.0
1.802955983171981e6 -677045.2393189919 0.0
0.0 0.0 0.0

-648668.3135775583 3.430371740412441e6 0.0
3.430371740412441e6 284187.79987568595 0.0
0.0 0.0 0.0

1.0441746109236247e6 1.149207543897134e6 0.0
1.149207543897134e6 -1.5973187896885131e6 0.0
0.0 0.0 0.0

-448614.0817302553 1.8365702929534046e6 0.0
1.8365702929534046e6 -16095.608296450402 0.0
0.0 0.0 0.0

-37659.69356270875 165088.25589802832 0.0
165088.25589802832 -185196.17686214202 0.0
0.0 0.0 0.0

-274616.9539638795 2.016063386606861e6 0.0
2.016063386606861e6 376518.2414578855 0.0
0.0 0.0 0.0

-994173.6815582707 2.7349631746760467e6 0.0
2.7349631746760467e6 -414903.56062879 0.0
0.0 0.0 0.0

312588.1235186141 1.308506821781945e6 0.0
1.308506821781945e6 -1.0554205793846047e6 0.0
0.0 0.0 0.0

-962327.8530667005 3.4734332249651477e6 0.0
3.4734332249651477e6 335629.01720153424 0.0
0.0 0.0 0.0

-1.0240068312285992e6 2.9123472194448328e6 0.0
2.9123472194448328e6 441144.7393505674 0.0
0.0 0.0 0.0

-223950.4102756998 2.6772894212771165e6 0.0
2.6772894212771165e6 779512.3789972835 0.0
0.0 0.0 0.0

-223834.0681895113 2.5275798849337786e6 0.0
2.5275798849337786e6 -464571.34498761705 0.0
0.0 0.0 0.0

-159556.54251591547 2.0314084261813748e6 0.0
2.0314084261813748e6 -227262.67947767556 0.0
0.0 0.0 0.0

53359.08769658798 40573.8099971597 0.0
40573.8099971597 -66223.6880182978 0.0
0.0 0.0 0.0

-307820.2643535719 2.535846908608888e6 0.0
2.535846908608888e6 595538.7563285553 0.0
0.0 0.0 0.0

-177296.171874498 1.617245670213287e6 0.0
1.617245670213287e6 -65458.46673404106 0.0
0.0 0.0 0.0

1138.5246284383556 38607.995223559345 0.0
38607.995223559345 -48934.66688703017 0.0
0.0 0.0 0.0

-298319.4866161689 1.6278409334880805e6 0.0
1.6278409334880805e6 -27979.659565590482 0.0
0.0 0.0 0.0

-516872.4064885413 2.2668348090489283e6 0.0
2.2668348090489283e6 249994.7164892635 0.0
0.0 0.0 0.0

762497.4853682439 93522.67778548932 0.0
93522.67778548932 -823423.6606139645 0.0
0.0 0.0 0.0

-933996.9572436335 2.7470991463573156e6 0.0
2.7470991463573156e6 260275.3226299773 0.0
0.0 0.0 0.0

-979056.1937311229 2.44334625491605e6 0.0
2.44334625491605e6 254163.25657266885 0.0
0.0 0.0 0.0

-265005.2991405167 1.4989012200161328e6 0.0
1.4989012200161328e6 1179.378397540393 0.0
0.0 0.0 0.0

-689350.5575337792 -340621.59225194494 0.0
-340621.59225194494 810409.4288066068 0.0
0.0 0.0 0.0

-307684.9174742713 3.065965226407377e6 0.0
3.065965226407377e6 -178070.6086520699 0.0
0.0 0.0 0.0

182432.94306352563 1.8841319398181858e6 0.0
1.8841319398181858e6 -135194.10485747285 0.0
0.0 0.0 0.0

296081.8026573474 2.1930498952113865e6 0.0
2.1930498952113865e6 -1.5402644393393083e6 0.0
0.0 0.0 0.0

-927528.9984958102 1.953718635993212e6 0.0
1.953718635993212e6 2.4670857057822826e6 0.0
0.0 0.0 0.0

-81127.25684180262 1.842491020275884e6 0.0
1.842491020275884e6 -198121.9340578463 0.0
0.0 0.0 0.0

-268200.52835563663 1.053305682361084e6 0.0
1.053305682361084e6 -75259.49856970363 0.0
0.0 0.0 0.0

1.2155057837236873e6 1.0623770420723346e6 0.0
1.0623770420723346e6 -1.6881965942280549e6 0.0
0.0 0.0 0.0

-112776.5592477623 2.7175880859724176e6 0.0
2.7175880859724176e6 312354.9204733231 0.0
0.0 0.0 0.0

-256482.63154512428 2.5313590220828904e6 0.0
2.5313590220828904e6 978723.9783065524 0.0
0.0 0.0 0.0

-1.0677247251947485e6 3.005859124422588e6 0.0
3.005859124422588e6 630233.9371766164 0.0
0.0 0.0 0.0

-572786.4644546877 2.663619805393762e6 0.0
2.663619805393762e6 186541.1065207922 0.0
0.0 0.0 0.0

-2.3489750778511376e6 4.562410581538942e6 0.0
4.562410581538942e6 1.238955687212354e6 0.0
0.0 0.0 0.0

-434700.66685385257 2.550136486939232e6 0.0
2.550136486939232e6 -403660.82405481476 0.0
0.0 0.0 0.0

598106.1298814397 -35182.47542195106 0.0
-35182.47542195106 -532517.2404598368 0.0
0.0 0.0 0.0

26101.046884251 2.3992656158740646e6 0.0
2.3992656158740646e6 -1.134580328919963e6 0.0
0.0 0.0 0.0

-451942.20562133985 1.9976972054584401e6 0.0
1.9976972054584401e6 293004.34535691596 0.0
0.0 0.0 0.0

-5029.041799152896 1.5720218760811565e6 0.0
1.5720218760811565e6 -318900.0860951156 0.0
0.0 0.0 0.0

13565.239841377916 3.056912128972116e6 0.0
3.056912128972116e6 -623646.9643704046 0.0
0.0 0.0 0.0

790082.8470862567 1.515420162207128e6 0.0
1.515420162207128e6 -1.7688636921000995e6 0.0
0.0 0.0 0.0

218041.10416600312 2.179728449793581e6 0.0
2.179728449793581e6 -1.5130484421230645e6 0.0
0.0 0.0 0.0

-1.8497463924598868e6 6.352922895049628e6 0.0
6.352922895049628e6 1.0216590857847417e6 0.0
0.0 0.0 0.0

-1.2162061717115834e6 2.523373613646182e6 0.0
2.523373613646182e6 307417.208445294 0.0
0.0 0.0 0.0

-1.0400439845741396e6 2.4462600114218136e6 0.0
2.4462600114218136e6 260529.3823439295 0.0
0.0 0.0 0.0

-1.6438399820957081e6 3.7953132352517024e6 0.0
3.7953132352517024e6 969940.9919759289 0.0
0.0 0.0 0.0

966162.2274370684 614522.125427205 0.0
614522.125427205 -1.4638920022270135e6 0.0
0.0 0.0 0.0

-136274.98716203973 2.6523552751463694e6 0.0
2.6523552751463694e6 -850919.1574244748 0.0
0.0 0.0 0.0

-451808.5534936515 1.8769683745589403e6 0.0
1.8769683745589403e6 226571.74178846052 0.0
0.0 0.0 0.0

-666008.9436573578 2.862408416278913e6 0.0
2.862408416278913e6 189466.66238873487 0.0
0.0 0.0 0.0

-2.252483030809181e6 4.489451800847551e6 0.0
4.489451800847551e6 1.1956972972090943e6 0.0
0.0 0.0 0.0

424417.17726309825 298406.96220192336 0.0
298406.96220192336 -755077.0055126605 0.0
0.0 0.0 0.0

-38951.27062718212 473087.2798202233 0.0
473087.2798202233 -430435.6751864832 0.0
0.0 0.0 0.0

-2.177527117450946e6 4.397062579284671e6 0.0
4.397062579284671e6 1.1798924537482848e6 0.0
0.0 0.0 0.0

-1.107956445772206e6 3.1044696752189235e6 0.0
3.1044696752189235e6 601786.4051069242 0.0
0.0 0.0 0.0

-234169.98479280822 1.2438324497657008e6 0.0
1.2438324497657008e6 -778365.3386327937 0.0
0.0 0.0 0.0

-233449.56397077977 1.7939250548884927e6 0.0
1.7939250548884927e6 -336947.2778409911 0.0
0.0 0.0 0.0

898758.20069193 1.430432488486319e6 0.0
1.430432488486319e6 -1.768641128404984e6 0.0
0.0 0.0 0.0

-1.9605850589746148e6 3.252559822912749e6 0.0
3.252559822912749e6 779032.4096935375 0.0
0.0 0.0 0.0

-350110.2407200636 3.1091683627460077e6 0.0
3.1091683627460077e6 -202904.76648877308 0.0
0.0 0.0 0.0

252653.14307267638 2.4086648037130404e6 0.0
2.4086648037130404e6 -1.4301377112636312e6 0.0
0.0 0.0 0.0

-884061.7975960703 2.507422489851881e6 0.0
2.507422489851881e6 164687.72146796586 0.0
0.0 0.0 0.0

-3008.6449796927773 401979.92395878443 0.0
401979.92395878443 -306525.64787275984 0.0
0.0 0.0 0.0

-408189.2984069608 978938.9452663426 0.0
978938.9452663426 -531260.3557563284 0.0
0.0 0.0 0.0

-227231.44266056656 2.2777154080865122e6 0.0
2.2777154080865122e6 52658.93842619004 0.0
0.0 0.0 0.0

-714981.9134976391 2.1990684355676137e6 0.0
2.1990684355676137e6 180776.0518667295 0.0
0.0 0.0 0.0

176809.51693030907 2.491581402290192e6 0.0
2.491581402290192e6 -1.2745525133033826e6 0.0
0.0 0.0 0.0

-3.876775201770757e6 6.843992044000699e6 0.0
6.843992044000699e6 1.0784892875592248e6 0.0
0.0 0.0 0.0

-105679.97968730706 1.5274579052273894e6 0.0
1.5274579052273894e6 208642.95867927143 0.0
0.0 0.0 0.0

-91197.20613887037 3.7307307129770494e6 0.0
3.7307307129770494e6 -520483.86722217046 0.0
0.0 0.0 0.0

233703.97596684954 487649.13742977666 0.0
487649.13742977666 -355470.4005083842 0.0
0.0 0.0 0.0

-356605.126932608 1.6317088206263273e6 0.0
1.6317088206263273e6 -53425.198126300704 0.0
0.0 0.0 0.0

-1.1405766842377677e6 1.1443386346040634e6 0.0
1.1443386346040634e6 3.0392808169489894e6 0.0
0.0 0.0 0.0

-200778.63063039083 1.990192037838989e6 0.0
1.990192037838989e6 -347568.4669210181 0.0
0.0 0.0 0.0

-8.535543680128314e6 514354.191627186 0.0
514354.191627186 1.0981857674640125e7 0.0
0.0 0.0 0.0

-366815.9097620823 1.708642843916191e6 0.0
1.708642843916191e6 -42915.70487645939 0.0
0.0 0.0 0.0

-83277.25671250082 2.1025384144076584e6 0.0
2.1025384144076584e6 -921081.600373515 0.0
0.0 0.0 0.0

-406670.7721960242 2.6485059567106157e6 0.0
2.6485059567106157e6 -218364.44165988173 0.0
0.0 0.0 0.0

4.810813563987848e6 5.480306375502056e6 0.0
5.480306375502056e6 -1.3687009207021256e6 0.0
0.0 0.0 0.0

-88627.26758587635 -264416.2178295363 0.0
-264416.2178295363 50058.065833666464 0.0
0.0 0.0 0.0

1.3856282365227598e6 1.1082213204545705e6 0.0
1.1082213204545705e6 -1.8640769784325229e6 0.0
0.0 0.0 0.0

96240.85225522835 61863.1808076816 0.0
61863.1808076816 -538978.2555075946 0.0
0.0 0.0 0.0

-1.6133796306107556e6 3.881256215936246e6 0.0
3.881256215936246e6 1.0488380463651344e6 0.0
0.0 0.0 0.0

-502762.7575639675 -708662.1151732327 0.0
-708662.1151732327 534797.3079223647 0.0
0.0 0.0 0.0

127652.94639360416 3.539727456153507e6 0.0
3.539727456153507e6 -947537.6082714974 0.0
0.0 0.0 0.0

74397.89104393298 1.09976520789913e6 0.0
1.09976520789913e6 -277951.89186227624 0.0
0.0 0.0 0.0

-316394.1214359299 1.4733870746269906e6 0.0
1.4733870746269906e6 107447.40222752406 0.0
0.0 0.0 0.0

1.356234609752587e6 1.118998333435724e6 0.0
1.118998333435724e6 -1.81232471994548e6 0.0
0.0 0.0 0.0

-493611.55117114756 2.330879969669029e6 0.0
2.330879969669029e6 -185401.03914287835 0.0
0.0 0.0 0.0

-2.468172837742087e6 4.605486277960714e6 0.0
4.605486277960714e6 1.4226550056667714e6 0.0
0.0 0.0 0.0

-562367.0075190739 1.233883943601348e6 0.0
1.233883943601348e6 -368968.62793405505 0.0
0.0 0.0 0.0

-342810.402103168 3.1544059853071e6 0.0
3.1544059853071e6 -387426.57839770016 0.0
0.0 0.0 0.0

-1.341705197245374e7 -5.25633740262716e6 0.0
-5.25633740262716e6 1.3763982515253067e7 0.0
0.0 0.0 0.0

945630.6308407267 2.7682020713232793e6 0.0
2.7682020713232793e6 -3.180762722250021e6 0.0
0.0 0.0 0.0

197462.04070419288 3.360770775025001e6 0.0
3.360770775025001e6 -869692.5532355044 0.0
0.0 0.0 0.0

-302811.9879973226 2.341330116450798e6 0.0
2.341330116450798e6 -496683.9337294997 0.0
0.0 0.0 0.0

1.1691796078132503e6 1.302488145439894e6 0.0
1.302488145439894e6 -1.7999628238213263e6 0.0
0.0 0.0 0.0

-1.099783922976493e6 1.762217649153395e6 0.0
1.762217649153395e6 -179166.38492519903 0.0
0.0 0.0 0.0

-709327.2697794454 2.8070044156431598e6 0.0
2.8070044156431598e6 -13944.264748187677 0.0
0.0 0.0 0.0

-96441.27563220715 -403547.8118128378 0.0
-403547.8118128378 118114.18519841954 0.0
0.0 0.0 0.0

319588.38848199125 803860.6007424039 0.0
803860.6007424039 -1.1900756712335176e6 0.0
0.0 0.0 0.0

-1.1918062868189402e6 2.5299424663761216e6 0.0
2.5299424663761216e6 313130.34081810026 0.0
0.0 0.0 0.0

-519043.8174457111 1.95789512207088e6 0.0
1.95789512207088e6 78429.61461546517 0.0
0.0 0.0 0.0

-73558.96756691673 2.1569435221494352e6 0.0
2.1569435221494352e6 -217125.8230310166 0.0
0.0 0.0 0.0

666487.5905603413 157844.71006000752 0.0
157844.71006000752 -881780.8580688575 0.0
0.0 0.0 0.0

-407833.06258368737 2.964180964441497e6 0.0
2.964180964441497e6 27722.83591538205 0.0
0.0 0.0 0.0

-1.201738333528886e6 3.3974955197431115e6 0.0
3.3974955197431115e6 705505.7134016224 0.0
0.0 0.0 0.0

-139005.2669207017 359183.31105832953 0.0
359183.31105832953 -752295.4998066974 0.0
0.0 0.0 0.0

-1.598757532181682e6 4.2641066235849615e6 0.0
4.2641066235849615e6 1.1789277769407933e6 0.0
0.0 0.0 0.0

-63674.45792986537 1.444983898198159e6 0.0
1.444983898198159e6 -21595.311965818622 0.0
0.0 0.0 0.0

-226629.78491167887 1.9280569081232783e6 0.0
1.9280569081232783e6 -378736.7088922989 0.0
0.0 0.0 0.0

-126830.14236697747 -442750.8361342144 0.0
-442750.8361342144 173436.45854629646 0.0
0.0 0.0 0.0

1.383513045948829e6 1.1240197730576987e6 0.0
1.1240197730576987e6 -1.8396750775539768e6 0.0
0.0 0.0 0.0

1.1603757937644722e6 1.4497551202944128e6 0.0
1.4497551202944128e6 -1.764392012262443e6 0.0
0.0 0.0 0.0

-64802.18092466133 930492.0766884555 0.0
930492.0766884555 -515737.75289612287 0.0
0.0 0.0 0.0

822481.05345299 2.353401326448606e6 0.0
2.353401326448606e6 -2.6724532351809293e6 0.0
0.0 0.0 0.0

-2.1454985539370114e6 -1.278597000959992e6 0.0
-1.278597000959992e6 2.707380331160969e6 0.0
0.0 0.0 0.0

-138214.89782046495 1.1386622487943685e6 0.0
1.1386622487943685e6 -891482.5391269772 0.0
0.0 0.0 0.0

418906.363070498 1.025774478820753e6 0.0
1.025774478820753e6 -1.0288483151969595e6 0.0
0.0 0.0 0.0

-1.4919320398513037e6 5.501207073256816e6 0.0
5.501207073256816e6 1.1825402299218965e6 0.0
0.0 0.0 0.0

-1.1193276787151843e6 2.460608213919186e6 0.0
2.460608213919186e6 23026.36075736553 0.0
0.0 0.0 0.0

-604821.984398869 2.0677321845824225e6 0.0
2.0677321845824225e6 155760.08352836512 0.0
0.0 0.0 0.0

-1.3149672933565641e6 4.088644211547086e6 0.0
4.088644211547086e6 1.081987399606252e6 0.0
0.0 0.0 0.0

-2.3422446644936725e6 2.9556268333970853e6 0.0
2.9556268333970853e6 833689.4541667027 0.0
0.0 0.0 0.0

-705991.7168551262 2.3032272606187677e6 0.0
2.3032272606187677e6 230368.40457910686 0.0
0.0 0.0 0.0

-140275.00848286087 3.2128312616522936e6 0.0
3.2128312616522936e6 -414445.41665705247 0.0
0.0 0.0 0.0

1.1075426416001618e6 1.3758995316354758e6 0.0
1.3758995316354758e6 -1.8696927313407594e6 0.0
0.0 0.0 0.0

1.3581841092702746e6 1.1284159031637304e6 0.0
1.1284159031637304e6 -1.8131745230979864e6 0.0
0.0 0.0 0.0

1.2328853132496062e6 1.1547693179024267e6 0.0
1.1547693179024267e6 -1.6550391641911492e6 0.0
0.0 0.0 0.0

-1.414273442950102e6 2.796391913661218e6 0.0
2.796391913661218e6 517196.85252976476 0.0
0.0 0.0 0.0

122738.86861048179 638356.7001784963 0.0
638356.7001784963 -634108.561241381 0.0
0.0 0.0 0.0

-544861.8297743092 -741830.0271245555 0.0
-741830.0271245555 598918.6898810999 0.0
0.0 0.0 0.0

64614.89926752524 721803.7558159115 0.0
721803.7558159115 -635039.4613747367 0.0
0.0 0.0 0.0

1.0175648959940157e6 950545.6720996489 0.0
950545.6720996489 -1.4897213793232215e6 0.0
0.0 0.0 0.0

-783751.7628083881 2.4417126962723853e6 0.0
2.4417126962723853e6 -74785.63786536382 0.0
0.0 0.0 0.0

99450.08139150223 3.1296006978760585e6 0.0
3.1296006978760585e6 -1.1964712797377126e6 0.0
0.0 0.0 0.0

129278.80142541986 -72010.61178235237 0.0
-72010.61178235237 -61230.48806434009 0.0
0.0 0.0 0.0

408489.8053196399 33676.6711497462 0.0
33676.6711497462 -465033.57033594296 0.0
0.0 0.0 0.0

-102520.67126488616 67923.00929143972 0.0
67923.00929143972 234624.34093957534 0.0
0.0 0.0 0.0

-348942.49870368175 2.362431371918181e6 0.0
2.362431371918181e6 705284.3876972176 0.0
0.0 0.0 0.0

33803.5546173153 2.221492636391842e6 0.0
2.221492636391842e6 -1.2403016961581288e6 0.0
0.0 0.0 0.0

1.2671676868217369e6 1.2213284842130626e6 0.0
1.2213284842130626e6 -1.8179463969339847e6 0.0
0.0 0.0 0.0

1.3523405727004395e6 1.0930951877197814e6 0.0
1.0930951877197814e6 -1.7805714969096351e6 0.0
0.0 0.0 0.0

-1.429199731962791e6 6.561482381483245e6 0.0
6.561482381483245e6 748831.53434017 0.0
0.0 0.0 0.0

-1.9456988750915397e6 -1.2135639730918852e6 0.0
-1.2135639730918852e6 2.4468820393819506e6 0.0
0.0 0.0 0.0

1.0347839613488242e6 1.3613667464679256e6 0.0
1.3613667464679256e6 -1.66625665826948e6 0.0
0.0 0.0 0.0

-6.515372537552752e6 -2.811701355190241e6 0.0
-2.811701355190241e6 6.260872789409303e6 0.0
0.0 0.0 0.0

1.0413125873583256e6 1.7687411979362522e6 0.0
1.7687411979362522e6 -2.2263152094757473e6 0.0
0.0 0.0 0.0

-725416.0230053744 2.6330559542795615e6 0.0
2.6330559542795615e6 110712.41143280547 0.0
0.0 0.0 0.0

-953300.915518705 2.808925433374674e6 0.0
2.808925433374674e6 467957.6783661215 0.0
0.0 0.0 0.0

-957062.3062342234 2.5069144597380687e6 0.0
2.5069144597380687e6 279968.8770833722 0.0
0.0 0.0 0.0

-297860.95582363725 2.2971300621825536e6 0.0
2.2971300621825536e6 -612788.9544910876 0.0
0.0 0.0 0.0

-2.3550558854970485e6 -1.389901712865886e6 0.0
-1.389901712865886e6 2.8871062889682027e6 0.0
0.0 0.0 0.0

1.1884863470756388e6 1.203361588805003e6 0.0
1.203361588805003e6 -1.6547368555955412e6 0.0
0.0 0.0 0.0

-91567.27820062995 1.1092280836361016e6 0.0
1.1092280836361016e6 323770.47935601766 0.0
0.0 0.0 0.0

-85257.97799629209 1.6483223758870969e6 0.0
1.6483223758870969e6 -457255.6644413647 0.0
0.0 0.0 0.0

87418.53049487935 297688.10606209486 0.0
297688.10606209486 -156345.23225951524 0.0
0.0 0.0 0.0

-171613.1386222837 2.1170682450255803e6 0.0
2.1170682450255803e6 -278716.87580217933 0.0
0.0 0.0 0.0

-578360.3430566717 2.6345554360523266e6 0.0
2.6345554360523266e6 1.6577523047812788e6 0.0
0.0 0.0 0.0

-1.0059405593703509e6 3.48057632772963e6 0.0
3.48057632772963e6 835950.4439916424 0.0
0.0 0.0 0.0

-1.6283861700590309e6 3.0075679165286743e6 0.0
3.0075679165286743e6 659987.160630691 0.0
0.0 0.0 0.0

-1.2495210300796086e6 3.907578520901747e6 0.0
3.907578520901747e6 896092.0209725839 0.0
0.0 0.0 0.0

97828.60560946367 1.2310322581964105e6 0.0
1.2310322581964105e6 -696149.8015397714 0.0
0.0 0.0 0.0

-1.1641026372991735e6 2.62514273571855e6 0.0
2.62514273571855e6 110680.92528156337 0.0
0.0 0.0 0.0

-259954.7610634506 3.2502969061603704e6 0.0
3.2502969061603704e6 -404372.19102955004 0.0
0.0 0.0 0.0

-166570.73061730713 2.3302234417337347e6 0.0
2.3302234417337347e6 -701073.4301884997 0.0
0.0 0.0 0.0

-177348.9587852091 544391.2695327242 0.0
544391.2695327242 593911.8999379857 0.0
0.0 0.0 0.0

-105098.19704917801 1.0275563489644096e6 0.0
1.0275563489644096e6 -552296.8798442365 0.0
0.0 0.0 0.0

113814.7630931029 1.1440381896014193e6 0.0
1.1440381896014193e6 -1.214057735578612e6 0.0
0.0 0.0 0.0

-316265.35919990577 -600257.2274712254 0.0
-600257.2274712254 362129.74087723205 0.0
0.0 0.0 0.0

1.350473963863594e6 1.1118444969298593e6 0.0
1.1118444969298593e6 -1.8033898186945948e6 0.0
0.0 0.0 0.0

-115488.31359918026 3.043576701035917e6 0.0
3.043576701035917e6 104879.23661833056 0.0
0.0 0.0 0.0

-1.5301715963784643e6 -1.0250777668058081e6 0.0
-1.0250777668058081e6 1.936253227058602e6 0.0
0.0 0.0 0.0

1.2441206472545767e6 1.1505399742634185e6 0.0
1.1505399742634185e6 -1.662990254063168e6 0.0
0.0 0.0 0.0

1.3437247685939746e6 1.1218572956707852e6 0.0
1.1218572956707852e6 -1.7952193497059643e6 0.0
0.0 0.0 0.0

-350570.60518964275 -621755.609835213 0.0
-621755.609835213 395688.7362590339 0.0
0.0 0.0 0.0

-2.345248788225195e6 1.0823837029396864e6 0.0
1.0823837029396864e6 5.743742500610838e6 0.0
0.0 0.0 0.0

1.2845329845273537e6 1.136882300876145e6 0.0
1.136882300876145e6 -1.695646434313429e6 0.0
0.0 0.0 0.0

-1.1975863040993614e6 -943367.3485052997 0.0
-943367.3485052997 1.4463516986880004e6 0.0
0.0 0.0 0.0

-533472.2913578216 2.2790731908762907e6 0.0
2.2790731908762907e6 527831.2819854801 0.0
0.0 0.0 0.0

-147792.94399283716 -301915.77163506683 0.0
-301915.77163506683 198893.32953926583 0.0
0.0 0.0 0.0

-414640.44541596924 -643078.9178169338 0.0
-643078.9178169338 455882.4740592005 0.0
0.0 0.0 0.0

1.3712374131181743e6 1.1325030456701599e6 0.0
1.1325030456701599e6 -1.8172304769942658e6 0.0
0.0 0.0 0.0

1.278687855315336e6 1.1459804244886413e6 0.0
1.1459804244886413e6 -1.6866296871046792e6 0.0
0.0 0.0 0.0

-976867.0506850536 -920932.4634270427 0.0
-920932.4634270427 1.1370565972862896e6 0.0
0.0 0.0 0.0

-1.805995431298992e7 2.8396547827112977e6 0.0
2.8396547827112977e6 6.935040459025091e6 0.0
0.0 0.0 0.0

5.240556658302192e6 6.179396762475559e6 0.0
6.179396762475559e6 -1.3901032646024763e6 0.0
0.0 0.0 0.0

-41998.614237732254 2.2293716904980512e6 0.0
2.2293716904980512e6 -158861.2192854783 0.0
0.0 0.0 0.0

1.271378053074332e6 1.1383587701024516e6 0.0
1.1383587701024516e6 -1.6867077771117291e6 0.0
0.0 0.0 0.0

-858047.7086797729 -881371.3986633614 0.0
-881371.3986633614 970476.9096985563 0.0
0.0 0.0 0.0

-275799.02508507215 2.421027016847457e6 0.0
2.421027016847457e6 -576963.1875242261 0.0
0.0 0.0 0.0

-105993.92283651281 1.309353461930083e6 0.0
1.309353461930083e6 -680563.4285169718 0.0
0.0 0.0 0.0

-1.3455077895039897e6 2.612774138198617e6 0.0
2.612774138198617e6 381510.7590646832 0.0
0.0 0.0 0.0

-111576.03866002164 2.992081997995947e6 0.0
2.992081997995947e6 35577.374701996225 0.0
0.0 0.0 0.0

-714846.1191894932 -779425.804157639 0.0
-779425.804157639 791542.0133233418 0.0
0.0 0.0 0.0

1.321319827398814e6 1.1393174569493318e6 0.0
1.1393174569493318e6 -1.7368195535793097e6 0.0
0.0 0.0 0.0

-1.2857245423304178e6 3.6450797118662177e6 0.0
3.6450797118662177e6 791795.1147129241 0.0
0.0 0.0 0.0

466341.48117235774 3.856025503711587e6 0.0
3.856025503711587e6 -766137.0365432855 0.0
0.0 0.0 0.0

-1.7084272679826422e6 4.115818782561631e6 0.0
4.115818782561631e6 1.0693238039230816e6 0.0
0.0 0.0 0.0

-356163.8415812288 2.3427514071043436e6 0.0
2.3427514071043436e6 -400771.449787264 0.0
0.0 0.0 0.0

-156141.82193373796 2.2222191656164355e6 0.0
2.2222191656164355e6 -832528.3087656677 0.0
0.0 0.0 0.0

-200826.40936503644 3.1223389195805686e6 0.0
3.1223389195805686e6 -383835.0037166383 0.0
0.0 0.0 0.0

-925508.5293287726 3.273572133295719e6 0.0
3.273572133295719e6 366419.723695913 0.0
0.0 0.0 0.0

-722024.6515667434 2.800392376182461e6 0.0
2.800392376182461e6 256483.76866269403 0.0
0.0 0.0 0.0

265519.26695357915 3.0762444033470787e6 0.0
3.0762444033470787e6 -882710.321597731 0.0
0.0 0.0 0.0

-1.7488680553495814e6 2.9983246236927933e6 0.0
2.9983246236927933e6 667402.424992334 0.0
0.0 0.0 0.0

-544672.5277982227 1.9760190291599126e6 0.0
1.9760190291599126e6 131633.3406517961 0.0
0.0 0.0 0.0

-755349.1166860482 3.280759326015479e6 0.0
3.280759326015479e6 332269.59201032313 0.0
0.0 0.0 0.0

-152718.25602088013 2.17663815074297e6 0.0
2.17663815074297e6 -836625.4363484902 0.0
0.0 0.0 0.0

209244.8446872579 619319.916662152 0.0
619319.916662152 -943312.127410618 0.0
0.0 0.0 0.0

50440.120334702835 3.254572578287845e6 0.0
3.254572578287845e6 -644512.2934969645 0.0
0.0 0.0 0.0

29283.345454344817 1.3812695893413706e6 0.0
1.3812695893413706e6 -1.0819616182108533e6 0.0
0.0 0.0 0.0

-1.2382656843008904e6 3.3951914367155754e6 0.0
3.3951914367155754e6 376108.55256340647 0.0
0.0 0.0 0.0

-1.625497443695669e6 2.831637103076906e6 0.0
2.831637103076906e6 554197.1399316698 0.0
0.0 0.0 0.0

39153.14801077166 2.3579836392257838e6 0.0
2.3579836392257838e6 -1.1322430466442772e6 0.0
0.0 0.0 0.0

-354910.29172227386 2.6713698439752203e6 0.0
2.6713698439752203e6 267947.7613297545 0.0
0.0 0.0 0.0

-2.4149932135039056e6 2.878041060353263e6 0.0
2.878041060353263e6 820829.9908473354 0.0
0.0 0.0 0.0

-1.1433641531008694e6 3.3512031935534407e6 0.0
3.3512031935534407e6 448120.66119790886 0.0
0.0 0.0 0.0

-1.4996836057178383e6 4.0277356466108654e6 0.0
4.0277356466108654e6 986513.4365214271 0.0
0.0 0.0 0.0

-602482.6801880309 2.5197534930695016e6 0.0
2.5197534930695016e6 1.2061384410487139e6 0.0
0.0 0.0 0.0

-1.4877039673583475e6 2.7159181417934517e6 0.0
2.7159181417934517e6 465638.6724379946 0.0
0.0 0.0 0.0

-1.7723709721953447e6 840088.206418355 0.0
840088.206418355 800229.2720755356 0.0
0.0 0.0 0.0

-1.8560553262458628e6 3.004007826882449e6 0.0
3.004007826882449e6 642366.9393099247 0.0
0.0 0.0 0.0

1.1493416298224507e6 1.0165479883601019e6 0.0
1.0165479883601019e6 -1.5334091005861638e6 0.0
0.0 0.0 0.0

1.0771642377724622e6 991776.5958878984 0.0
991776.5958878984 -1.4619924671807168e6 0.0
0.0 0.0 0.0

-1.3815816662620767e6 3.8393780841483967e6 0.0
3.8393780841483967e6 934649.3955650735 0.0
0.0 0.0 0.0

-286630.2574875315 2.580606109814889e6 0.0
2.580606109814889e6 1.0377505866771206e6 0.0
0.0 0.0 0.0

-1.967316590012699e6 3.2055815451482898e6 0.0
3.2055815451482898e6 764269.1464571041 0.0
0.0 0.0 0.0

-66344.58626225273 623786.392805151 0.0
623786.392805151 -401218.5537861553 0.0
0.0 0.0 0.0

-2.1865301233089557e6 3.082563010399624e6 0.0
3.082563010399624e6 786846.5449879619 0.0
0.0 0.0 0.0

-368058.13643005193 3.0582877082846905e6 0.0
3.0582877082846905e6 -143017.43253926298 0.0
0.0 0.0 0.0

-35104.92402439934 2.738146579631958e6 0.0
2.738146579631958e6 -688734.8845666609 0.0
0.0 0.0 0.0

301838.0731192311 2.197995400765154e6 0.0
2.197995400765154e6 -1.2277317543005687e6 0.0
0.0 0.0 0.0

-1.0786411025901712e6 2.5473789935590713e6 0.0
2.5473789935590713e6 277548.2525890822 0.0
0.0 0.0 0.0

472689.12650033087 -1732.5690157060967 0.0
-1732.5690157060967 -407549.44876497635 0.0
0.0 0.0 0.0

-4.195503640247269e6 482410.6667911877 0.0
482410.6667911877 5.860068550186013e6 0.0
0.0 0.0 0.0

438469.9759216914 2.917958343307946e6 0.0
2.917958343307946e6 -914663.8617534947 0.0
0.0 0.0 0.0

94964.81054372306 457450.9996773222 0.0
457450.9996773222 35973.745552077016 0.0
0.0 0.0 0.0

-659024.5758828733 3.6347445078429095e6 0.0
3.6347445078429095e6 374341.2881522252 0.0
0.0 0.0 0.0

92576.99587575713 2.237974860751846e6 0.0
2.237974860751846e6 -1.0459534404675458e6 0.0
0.0 0.0 0.0

-1.0131779139369109e6 3.1794597849471504e6 0.0
3.1794597849471504e6 259631.9725679101 0.0
0.0 0.0 0.0

-1.6593065127885141e6 4.208956134847264e6 0.0
4.208956134847264e6 1.0983510533683132e6 0.0
0.0 0.0 0.0

-234289.84814138015 2.3387514717242e6 0.0
2.3387514717242e6 -684656.3559426714 0.0
0.0 0.0 0.0

202967.50630916958 813214.1076910107 0.0
813214.1076910107 -227002.78217352572 0.0
0.0 0.0 0.0

57444.61573261152 558015.7546033799 0.0
558015.7546033799 258622.9953232539 0.0
0.0 0.0 0.0

-1.5964622021496715e6 4.1719888199086282e6 0.0
4.1719888199086282e6 1.0516860174493324e6 0.0
0.0 0.0 0.0

-36096.108297944906 2.2057247515141685e6 0.0
2.2057247515141685e6 -114585.29246022753 0.0
0.0 0.0 0.0

1.3094736343427743e6 1.1756519057391288e6 0.0
1.1756519057391288e6 -1.8347609323774972e6 0.0
0.0 0.0 0.0

-182702.99603238373 1.811176885854413e6 0.0
1.811176885854413e6 -151384.9842804054 0.0
0.0 0.0 0.0

-214136.89647808194 2.2610252561125606e6 0.0
2.2610252561125606e6 -757457.1267244356 0.0
0.0 0.0 0.0

-260895.69996415963 2.4480136101271813e6 0.0
2.4480136101271813e6 -534661.0596782787 0.0
0.0 0.0 0.0

-452333.53606728325 2.9624018951154775e6 0.0
2.9624018951154775e6 395814.0661858762 0.0
0.0 0.0 0.0

-1.228042688867e6 3.1741420780218085e6 0.0
3.1741420780218085e6 688010.9848485764 0.0
0.0 0.0 0.0

-213563.65000428763 2.241592193667045e6 0.0
2.241592193667045e6 -745871.6151831483 0.0
0.0 0.0 0.0

757890.6026073672 1.133247799619274e6 0.0
1.133247799619274e6 -1.5038483430797318e6 0.0
0.0 0.0 0.0

-229732.04790901535 2.295344117769984e6 0.0
2.295344117769984e6 -718457.3099075439 0.0
0.0 0.0 0.0

-134159.01747049976 1.378706922572526e6 0.0
1.378706922572526e6 -931258.0970201666 0.0
0.0 0.0 0.0

974467.6765086709 754109.7787928144 0.0
754109.7787928144 -1.512655946880057e6 0.0
0.0 0.0 0.0

-1.3579074279101905e6 2.7239674984728117e6 0.0
2.7239674984728117e6 429796.1530956149 0.0
0.0 0.0 0.0

-980191.2719037393 2.816908623304654e6 0.0
2.816908623304654e6 491641.32025775936 0.0
0.0 0.0 0.0

-343685.9991994905 2.640574556048597e6 0.0
2.640574556048597e6 440885.18442926265 0.0
0.0 0.0 0.0

-28046.94306259678 -245662.88191910676 0.0
-245662.88191910676 -71111.73637702533 0.0
0.0 0.0 0.0

-498066.76139660313 2.9657494068697323e6 0.0
2.9657494068697323e6 -211833.17744577932 0.0
0.0 0.0 0.0

-534066.6042446515 2.843943314382593e6 0.0
2.843943314382593e6 456889.23827472585 0.0
0.0 0.0 0.0

339653.1580485826 1.0323091178582829e6 0.0
1.0323091178582829e6 -1.2924055091402198e6 0.0
0.0 0.0 0.0

-5.823423047342388e6 -95540.40274996238 0.0
-95540.40274996238 5.1012854292452475e6 0.0
0.0 0.0 0.0

-360317.66776326764 1.6150266057510723e6 0.0
1.6150266057510723e6 1.1419857094701861e6 0.0
0.0 0.0 0.0

-472652.2687502188 2.4645325791095844e6 0.0
2.4645325791095844e6 -186615.44415463787 0.0
0.0 0.0 0.0

-1.129538953158296e6 2.9625969966782876e6 0.0
2.9625969966782876e6 560972.6730116486 0.0
0.0 0.0 0.0

3180.050623931922 2.3507649439088427e6 0.0
2.3507649439088427e6 -1.061016153327507e6 0.0
0.0 0.0 0.0

-49077.62784138044 3.259149471550202e6 0.0
3.259149471550202e6 -506715.8220051858 0.0
0.0 0.0 0.0

413972.6330723449 2.26125324234292e6 0.0
2.26125324234292e6 -1.1866391444998623e6 0.0
0.0 0.0 0.0

33891.1925118872 3.2939933503996567e6 0.0
3.2939933503996567e6 -500700.37263285683 0.0
0.0 0.0 0.0

-526624.1120822333 2.3312277554297894e6 0.0
2.3312277554297894e6 -296130.54678729875 0.0
0.0 0.0 0.0

775941.7886574992 1.1183992510310817e6 0.0
1.1183992510310817e6 -1.3521766147853858e6 0.0
0.0 0.0 0.0

1.3442351031626975e6 1.1574984919392401e6 0.0
1.1574984919392401e6 -1.8122514684144966e6 0.0
0.0 0.0 0.0

-945372.6874156421 3.8630813886868055e6 0.0
3.8630813886868055e6 565940.5451732683 0.0
0.0 0.0 0.0

381209.7302583914 2.2154647085841154e6 0.0
2.2154647085841154e6 -1.2447605413455765e6 0.0
0.0 0.0 0.0

-1.0045909929911006e6 2.6505298191583054e6 0.0
2.6505298191583054e6 83292.74106931587 0.0
0.0 0.0 0.0

-495192.7389324638 3.0044186022988516e6 0.0
3.0044186022988516e6 -244541.29363962886 0.0
0.0 0.0 0.0

-163289.0789472444 316554.96578628384 0.0
316554.96578628384 37825.30546471194 0.0
0.0 0.0 0.0

-2.560434109493373e6 2.731848690867123e6 0.0
2.731848690867123e6 837357.8865105943 0.0
0.0 0.0 0.0

387164.47723067435 1.1907380312469152e6 0.0
1.1907380312469152e6 -1.0308235063725298e6 0.0
0.0 0.0 0.0

-1.7070929474342202e6 2.2534212540688575e6 0.0
2.2534212540688575e6 3.2296118908741223e6 0.0
0.0 0.0 0.0

-246986.01743331586 3.022924620130454e6 0.0
3.022924620130454e6 -373050.7248249561 0.0
0.0 0.0 0.0

-969066.4270609865 2.5900664511033064e6 0.0
2.5900664511033064e6 -90169.64901734304 0.0
0.0 0.0 0.0

366352.21286852815 1.023958588653703e6 0.0
1.023958588653703e6 -393898.29064230865 0.0
0.0 0.0 0.0

-58979.25485127067 2.2940596055568634e6 0.0
2.2940596055568634e6 -987949.4137937643 0.0
0.0 0.0 0.0

-401609.9258428799 2.370906693352529e6 0.0
2.370906693352529e6 -12312.627413345414 0.0
0.0 0.0 0.0

-1.1792298232306514e6 3.2195490514445603e6 0.0
3.2195490514445603e6 759952.0653343309 0.0
0.0 0.0 0.0

-325502.1813155812 3.280569872299801e6 0.0
3.280569872299801e6 154355.06609817568 0.0
0.0 0.0 0.0

-341096.3547819175 2.5072128341229134e6 0.0
2.5072128341229134e6 -343302.3337311394 0.0
0.0 0.0 0.0

-598764.2575613108 1.708688565124077e6 0.0
1.708688565124077e6 531466.9072483714 0.0
0.0 0.0 0.0

-152133.81100899723 2.2659997842835663e6 0.0
2.2659997842835663e6 -830614.2514748777 0.0
0.0 0.0 0.0

40182.8858687 -38469.40788247043 0.0
-38469.40788247043 25665.68598444747 0.0
0.0 0.0 0.0

-421047.8906224115 2.401815138296637e6 0.0
2.401815138296637e6 453008.3588772832 0.0
0.0 0.0 0.0

-92429.82538173103 1.3055145624670356e6 0.0
1.3055145624670356e6 -497842.35775291565 0.0
0.0 0.0 0.0

-1.6575977238827667e6 2.498630650501756e6 0.0
2.498630650501756e6 518588.2579990019 0.0
0.0 0.0 0.0

329241.83430135227 2.75686850937024e6 0.0
2.75686850937024e6 -905225.856251512 0.0
0.0 0.0 0.0

-749390.2304836616 2.4317973938540253e6 0.0
2.4317973938540253e6 217438.51226183918 0.0
0.0 0.0 0.0

-675985.8886058754 2.708701835554654e6 0.0
2.708701835554654e6 5324.529154028016 0.0
0.0 0.0 0.0

-679213.3642609261 2.9970898110266468e6 0.0
2.9970898110266468e6 -2432.157485187985 0.0
0.0 0.0 0.0

377124.8292883562 2.5437160539196585e6 0.0
2.5437160539196585e6 -1.0025031175939544e6 0.0
0.0 0.0 0.0

-320255.59237920935 2.846106964960785e6 0.0
2.846106964960785e6 257150.36611719418 0.0
0.0 0.0 0.0

-1.1978882782829548e6 -313286.5655866516 0.0
-313286.5655866516 1.650458087409502e6 0.0
0.0 0.0 0.0

500052.116348103 -335591.90470856044 0.0
-335591.90470856044 -1.2736536174126598e6 0.0
0.0 0.0 0.0

-134989.83037921783 2.0906873953873536e6 0.0
2.0906873953873536e6 -901811.6390993533 0.0
0.0 0.0 0.0

-848085.7614166348 3.1462753238437716e6 0.0
3.1462753238437716e6 219325.3384491824 0.0
0.0 0.0 0.0

-1.310187687539347e6 3.3536213929716763e6 0.0
3.3536213929716763e6 456403.47405700997 0.0
0.0 0.0 0.0

-967838.7190685289 2.5341436658205506e6 0.0
2.5341436658205506e6 303109.7549819718 0.0
0.0 0.0 0.0

61979.5858068011 3.547383610156418e6 0.0
3.547383610156418e6 -967516.8358526127 0.0
0.0 0.0 0.0

13837.538907903752 439212.3322585114 0.0
439212.3322585114 109535.3899592538 0.0
0.0 0.0 0.0

-1.9092566842405554e6 4.1248541352980277e6 0.0
4.1248541352980277e6 1.1333757253829003e6 0.0
0.0 0.0 0.0

-2.690103106117534e6 1.5968945411553765e6 0.0
1.5968945411553765e6 1.5920075109957408e6 0.0
0.0 0.0 0.0

-378473.9798509015 2.889634203076393e6 0.0
2.889634203076393e6 -197678.73998263013 0.0
0.0 0.0 0.0

-283011.70872352325 252858.337104165 0.0
252858.337104165 -321872.8372954662 0.0
0.0 0.0 0.0

-1.2136266200315896e6 3.1744194541278584e6 0.0
3.1744194541278584e6 257433.29898109764 0.0
0.0 0.0 0.0

119962.84971863225 171831.2667390605 0.0
171831.2667390605 381415.51867290674 0.0
0.0 0.0 0.0

-1.2087205747486672e6 2.5427992076873183e6 0.0
2.5427992076873183e6 57714.723659991985 0.0
0.0 0.0 0.0

-362263.4446443699 2.539277982944526e6 0.0
2.539277982944526e6 564915.3962374092 0.0
0.0 0.0 0.0

-1.7385336578333213e6 3.25548492580389e6 0.0
3.25548492580389e6 790839.9908053247 0.0
0.0 0.0 0.0

-448352.4917302405 2.339584216071752e6 0.0
2.339584216071752e6 -392192.78847706475 0.0
0.0 0.0 0.0

-972094.5906880412 104724.7762663164 0.0
104724.7762663164 1.2522312972461141e6 0.0
0.0 0.0 0.0

-290911.047685082 2.293305021179096e6 0.0
2.293305021179096e6 -633665.061373509 0.0
0.0 0.0 0.0

-483639.0085617598 3.0463953651539776e6 0.0
3.0463953651539776e6 -312053.09289318055 0.0
0.0 0.0 0.0

-1.8134652733246037e6 4.22369311652631e6 0.0
4.22369311652631e6 1.2079755689161369e6 0.0
0.0 0.0 0.0

883745.1440103791 688417.6525169535 0.0
688417.6525169535 -1.3831184605775112e6 0.0
0.0 0.0 0.0

-442289.28508765943 2.9685354158720057e6 0.0
2.9685354158720057e6 -124136.11714284305 0.0
0.0 0.0 0.0

-822174.8501880637 2.3899803754513036e6 0.0
2.3899803754513036e6 224904.31682220957 0.0
0.0 0.0 0.0

375051.87154271675 613655.7370435264 0.0
613655.7370435264 -375699.5537407073 0.0
0.0 0.0 0.0

-651515.069519262 3.6333366565801697e6 0.0
3.6333366565801697e6 13407.41511503086 0.0
0.0 0.0 0.0

-238331.9890708618 548023.6950425442 0.0
548023.6950425442 373838.6975962489 0.0
0.0 0.0 0.0

-305731.9344834043 791726.4143229604 0.0
791726.4143229604 916789.8470591712 0.0
0.0 0.0 0.0

-769511.205453485 2.29547466065141e6 0.0
2.29547466065141e6 197068.5029262813 0.0
0.0 0.0 0.0

-89589.54745421358 774480.4034845647 0.0
774480.4034845647 -458567.1118432431 0.0
0.0 0.0 0.0

-373164.5154852254 1.6414986891941316e6 0.0
1.6414986891941316e6 14691.795180140092 0.0
0.0 0.0 0.0

-198933.5567032827 2.61917827785001e6 0.0
2.61917827785001e6 627029.1140474343 0.0
0.0 0.0 0.0

326538.91873505054 2.4556613688259968e6 0.0
2.4556613688259968e6 -1.0659302258887733e6 0.0
0.0 0.0 0.0

-97734.48974015618 -260859.19665021563 0.0
-260859.19665021563 -15069.206011067936 0.0
0.0 0.0 0.0

-795936.4866661143 4.044621205394839e6 0.0
4.044621205394839e6 481774.7094739631 0.0
0.0 0.0 0.0

21075.037950889204 593986.5720902528 0.0
593986.5720902528 -68623.09325475499 0.0
0.0 0.0 0.0

-677224.7829746366 1.8660762663387042e6 0.0
1.8660762663387042e6 -158664.17221821472 0.0
0.0 0.0 0.0

-320260.6586664167 3.002265179156165e6 0.0
3.002265179156165e6 -13187.531455348028 0.0
0.0 0.0 0.0

-1.1437381527588372e6 3.170867644463668e6 0.0
3.170867644463668e6 691211.573257976 0.0
0.0 0.0 0.0

-505523.4839340259 2.1060811243906915e6 0.0
2.1060811243906915e6 327269.83026997955 0.0
0.0 0.0 0.0

-1.016815405212078e6 2.1682694490826456e6 0.0
2.1682694490826456e6 752964.7382197675 0.0
0.0 0.0 0.0

-518551.99480320816 3.087765161321664e6 0.0
3.087765161321664e6 -204340.3509542561 0.0
0.0 0.0 0.0

-379209.86551272334 1.6896311351402327e6 0.0
1.6896311351402327e6 78410.69045172964 0.0
0.0 0.0 0.0

-454791.3134030367 2.8824839618649217e6 0.0
2.8824839618649217e6 -121551.22944909292 0.0
0.0 0.0 0.0

-839457.7289781063 2.4119176482333816e6 0.0
2.4119176482333816e6 164600.31139263266 0.0
0.0 0.0 0.0

-2.004228595634025e6 3.2237996464869617e6 0.0
3.2237996464869617e6 761160.9894623369 0.0
0.0 0.0 0.0

150983.3835194445 2.6009672293506493e6 0.0
2.6009672293506493e6 -1.1423934685990796e6 0.0
0.0 0.0 0.0

-230055.78191014967 -571796.7246762087 0.0
-571796.7246762087 -7595.117981746167 0.0
0.0 0.0 0.0

-58448.75778705631 39650.43349768224 0.0
39650.43349768224 -385720.24543697 0.0
0.0 0.0 0.0

1.3362000503423882e6 1.3889583611165348e6 0.0
1.3889583611165348e6 -2.0609563407490952e6 0.0
0.0 0.0 0.0

-1.1002286630435775e6 3.4267550528525896e6 0.0
3.4267550528525896e6 877901.0544993691 0.0
0.0 0.0 0.0

-352942.0193088884 2.1847015475402144e6 0.0
2.1847015475402144e6 865639.1307076775 0.0
0.0 0.0 0.0

-61315.401341609715 1.0816625998867825e6 0.0
1.0816625998867825e6 -725896.7158150522 0.0
0.0 0.0 0.0

-2.6521136483208616e6 2.656845452903085e6 0.0
2.656845452903085e6 930874.5191074287 0.0
0.0 0.0 0.0

158137.21961475845 129246.34650288013 0.0
129246.34650288013 -189340.4389470015 0.0
0.0 0.0 0.0

-1.5364987178555778e6 8.2469861192825325e6 0.0
8.2469861192825325e6 1.9391409322278465e6 0.0
0.0 0.0 0.0

-765066.6768425051 2.714230063796379e6 0.0
2.714230063796379e6 48093.51519443252 0.0
0.0 0.0 0.0

-238167.2347826978 2.3306107381078345e6 0.0
2.3306107381078345e6 -589244.7861121419 0.0
0.0 0.0 0.0

-382124.3115086624 2.7238443757602484e6 0.0
2.7238443757602484e6 321966.1098084387 0.0
0.0 0.0 0.0

-294232.9924578106 168198.82213996816 0.0
168198.82213996816 473843.29693851335 0.0
0.0 0.0 0.0

-881082.7126982578 2.982752675160669e6 0.0
2.982752675160669e6 550415.9437427376 0.0
0.0 0.0 0.0

-222412.14520749243 2.437891080992855e6 0.0
2.437891080992855e6 -459108.66547862167 0.0
0.0 0.0 0.0

1.3564953488106637e6 1.112126746625405e6 0.0
1.112126746625405e6 -1.836332110611563e6 0.0
0.0 0.0 0.0

931945.9792798462 231931.41735908145 0.0
231931.41735908145 -1.156557865460493e6 0.0
0.0 0.0 0.0

-3.034977645423965e6 2.4415010826229723e6 0.0
2.4415010826229723e6 1.0878455211399589e6 0.0
0.0 0.0 0.0

-652955.9005767801 1.7309405605751884e6 0.0
1.7309405605751884e6 724877.0707607606 0.0
0.0 0.0 0.0

-166980.68364898508 2.1326741350409887e6 0.0
2.1326741350409887e6 -852030.6687865522 0.0
0.0 0.0 0.0

-309202.1878304813 2.6245240653180503e6 0.0
2.6245240653180503e6 280610.0867805085 0.0
0.0 0.0 0.0

680132.1104437826 81310.60435997315 0.0
81310.60435997315 -569169.8755374943 0.0
0.0 0.0 0.0

164478.2053964312 1.3396709693671472e6 0.0
1.3396709693671472e6 -795719.3696952634 0.0
0.0 0.0 0.0

-204349.0585566168 2.212468675976692e6 0.0
2.212468675976692e6 -821922.5911405889 0.0
0.0 0.0 0.0

-786151.6711487845 2.492459762347206e6 0.0
2.492459762347206e6 304735.0429983312 0.0
0.0 0.0 0.0

-361671.32821135665 1.5288633994309828e6 0.0
1.5288633994309828e6 73766.02152230161 0.0
0.0 0.0 0.0

-100187.15564735589 2.0764596527290759e6 0.0
2.0764596527290759e6 -977480.0904399882 0.0
0.0 0.0 0.0

160995.6676378181 2.2970651500048866e6 0.0
2.2970651500048866e6 -1.1696901606006941e6 0.0
0.0 0.0 0.0

-691991.2429297091 2.53373285798044e6 0.0
2.53373285798044e6 154941.21244057812 0.0
0.0 0.0 0.0

-227902.27266527107 2.299026145010803e6 0.0
2.299026145010803e6 -622040.5432040705 0.0
0.0 0.0 0.0

-21021.053172158514 1.210885041733163e6 0.0
1.210885041733163e6 -307951.50607454235 0.0
0.0 0.0 0.0

631277.532301002 83575.65014468675 0.0
83575.65014468675 -1.3178880735093094e6 0.0
0.0 0.0 0.0

-1.6962452497127617e6 3.0313048808974647e6 0.0
3.0313048808974647e6 196646.94726995542 0.0
0.0 0.0 0.0

-636899.2340735623 543113.5552065218 0.0
543113.5552065218 18057.372994616715 0.0
0.0 0.0 0.0

1.036689732724873e6 337787.85615940386 0.0
337787.85615940386 -1.8225625220087683e6 0.0
0.0 0.0 0.0

-623859.7397449287 2.833507524692023e6 0.0
2.833507524692023e6 -65429.411147483566 0.0
0.0 0.0 0.0

-190574.0494958676 2.0338938177790619e6 0.0
2.0338938177790619e6 -635246.8416375862 0.0
0.0 0.0 0.0

-444573.4909615941 3.1785706986510493e6 0.0
3.1785706986510493e6 -91974.70981855082 0.0
0.0 0.0 0.0

-1.4294303161693711e6 927075.4376425033 0.0
927075.4376425033 2.2184630115391836e6 0.0
0.0 0.0 0.0

-1.0630561146043276e6 1.8492390169696424e6 0.0
1.8492390169696424e6 2.112411731293653e6 0.0
0.0 0.0 0.0

-568847.2866965843 3.992588945629132e6 0.0
3.992588945629132e6 1.7979229142236335e6 0.0
0.0 0.0 0.0

-153084.68817493157 3.138445692258651e6 0.0
3.138445692258651e6 -494916.0381124137 0.0
0.0 0.0 0.0

-414420.5196423603 2.270144567380232e6 0.0
2.270144567380232e6 592650.344989096 0.0
0.0 0.0 0.0

-218660.5841013627 1.7030782892935686e6 0.0
1.7030782892935686e6 -158514.50881746778 0.0
0.0 0.0 0.0

-159102.43728863803 2.162270736068992e6 0.0
2.162270736068992e6 -877153.6640065674 0.0
0.0 0.0 0.0

-775024.0494295447 2.4444086100928686e6 0.0
2.4444086100928686e6 130614.93733942026 0.0
0.0 0.0 0.0

28646.816640130262 269928.4341067455 0.0
269928.4341067455 26824.708072094076 0.0
0.0 0.0 0.0

-652017.9520063434 4.0766626558438935e6 0.0
4.0766626558438935e6 411272.75741155696 0.0
0.0 0.0 0.0

-711140.6188001249 2.7107685083004604e6 0.0
2.7107685083004604e6 228468.35693217983 0.0
0.0 0.0 0.0

709674.9948588985 887065.4128265774 0.0
887065.4128265774 -1.27747488404395e6 0.0
0.0 0.0 0.0

-677668.3935837719 3.331113262597348e6 0.0
3.331113262597348e6 135184.4460239691 0.0
0.0 0.0 0.0

-1.7335006566685995e6 3.886215428446853e6 0.0
3.886215428446853e6 1.050750865826328e6 0.0
0.0 0.0 0.0

785.4546200475304 2.0977795430987584e6 0.0
2.0977795430987584e6 2618.4888709225643 0.0
0.0 0.0 0.0

460278.11758131464 2.535484550566414e6 0.0
2.535484550566414e6 1.5342626486564332e6 0.0
0.0 0.0 0.0

-427368.8652756172 -509777.24550220027 0.0
-509777.24550220027 487137.7119836111 0.0
0.0 0.0 0.0

-157027.99009021732 2.51344969585718e6 0.0
2.51344969585718e6 -287566.8618820954 0.0
0.0 0.0 0.0

-38613.59267674528 -280059.591416467 0.0
-280059.591416467 105325.25919236685 0.0
0.0 0.0 0.0

-1.4617788238924372e6 4.376700899143616e6 0.0
4.376700899143616e6 1.1686653199740706e6 0.0
0.0 0.0 0.0

-907905.3805453423 3.6306395112603046e6 0.0
3.6306395112603046e6 465730.7701965168 0.0
0.0 0.0 0.0

-2.843378553277218e6 2.6150524317435245e6 0.0
2.6150524317435245e6 1.0241219114265769e6 0.0
0.0 0.0 0.0

-1.1044064678110937e6 3.346699724969393e6 0.0
3.346699724969393e6 1.6034523116134906e6 0.0
0.0 0.0 0.0

117137.54006659842 276444.29389054904 0.0
276444.29389054904 -27606.070604819855 0.0
0.0 0.0 0.0

-1.6500174792954582e6 4.34309391702063e6 0.0
4.34309391702063e6 1.185132664862203e6 0.0
0.0 0.0 0.0

-466396.84363292076 1.7687457726717894e6 0.0
1.7687457726717894e6 68414.89571072435 0.0
0.0 0.0 0.0

-672345.8018787096 2.2363773391656843e6 0.0
2.2363773391656843e6 108765.8691581366 0.0
0.0 0.0 0.0

997510.0428014705 1.4701465056418297e6 0.0
1.4701465056418297e6 -1.7061565660754347e6 0.0
0.0 0.0 0.0

-635915.6625645388 2.6493978564569815e6 0.0
2.6493978564569815e6 132811.67744970138 0.0
0.0 0.0 0.0

-606608.7851002875 3.5196428314818265e6 0.0
3.5196428314818265e6 1.4043157331584508e6 0.0
0.0 0.0 0.0

-11002.043133879779 2.283073779854147e6 0.0
2.283073779854147e6 -922038.8615822342 0.0
0.0 0.0 0.0

-2.6321212590414453e6 -1.0935202064628713e6 0.0
-1.0935202064628713e6 3.1753518984468607e6 0.0
0.0 0.0 0.0

-1.8968944658955764e6 3.2620515422439333e6 0.0
3.2620515422439333e6 795952.0361982088 0.0
0.0 0.0 0.0

-334793.5830368587 2.711160069387921e6 0.0
2.711160069387921e6 -144833.80167417254 0.0
0.0 0.0 0.0

-3.172676810692425e6 1.3266498733710072e6 0.0
1.3266498733710072e6 3.3994531595079964e6 0.0
0.0 0.0 0.0

995803.1734557042 691281.0147154668 0.0
691281.0147154668 -1.3573430075694174e6 0.0
0.0 0.0 0.0

-1.295776615823179e6 3.128317329979579e6 0.0
3.128317329979579e6 337650.631294622 0.0
0.0 0.0 0.0

-833084.5452440763 2.3936092468581726e6 0.0
2.3936092468581726e6 -120403.2062584995 0.0
0.0 0.0 0.0

-264794.4327481879 2.3850961363246553e6 0.0
2.3850961363246553e6 -490164.2671599897 0.0
0.0 0.0 0.0

-690054.5432221236 2.7040954766245605e6 0.0
2.7040954766245605e6 -56807.47564016524 0.0
0.0 0.0 0.0

-400860.7834992812 3.528943279979711e6 0.0
3.528943279979711e6 100165.08455799927 0.0
0.0 0.0 0.0

-1.9683404287098618e6 2.5441651407904224e6 0.0
2.5441651407904224e6 473050.5037789036 0.0
0.0 0.0 0.0

-578653.4618449773 3.039172941740809e6 0.0
3.039172941740809e6 344166.90387841733 0.0
0.0 0.0 0.0

1.2502033575280625e6 1.1983905156584992e6 0.0
1.1983905156584992e6 -1.8307381014276138e6 0.0
0.0 0.0 0.0

-930160.3710909392 2.228864895226854e6 0.0
2.228864895226854e6 -563780.6543916285 0.0
0.0 0.0 0.0

-400531.53288807196 1.726492597071344e6 0.0
1.726492597071344e6 139300.7671936969 0.0
0.0 0.0 0.0

-863072.3930534645 3.445218884615059e6 0.0
3.445218884615059e6 366692.9574597288 0.0
0.0 0.0 0.0

-1.5623707422099237e6 2.4412909711913466e6 0.0
2.4412909711913466e6 3.456026819161012e6 0.0
0.0 0.0 0.0

-458429.19762487256 3.9920032637099074e6 0.0
3.9920032637099074e6 242903.13976043212 0.0
0.0 0.0 0.0

-531546.595873507 2.7079117542216894e6 0.0
2.7079117542216894e6 61903.208019988524 0.0
0.0 0.0 0.0

-883158.6126216652 2.404195295638056e6 0.0
2.404195295638056e6 178580.10758921818 0.0
0.0 0.0 0.0

-567917.1845100132 2.332819977567005e6 0.0
2.332819977567005e6 531675.7216747534 0.0
0.0 0.0 0.0

-432778.9043431483 3.025275889374786e6 0.0
3.025275889374786e6 -91922.33401544418 0.0
0.0 0.0 0.0

-1.0009847992892673e6 1.3324843954574114e6 0.0
1.3324843954574114e6 1.2886432813903943e6 0.0
0.0 0.0 0.0

-3.230710163714057e6 -807841.4383894891 0.0
-807841.4383894891 4.955965987315828e6 0.0
0.0 0.0 0.0

-3.1501848031031024e6 -1.6873992264617342e6 0.0
-1.6873992264617342e6 4.9565489055029005e6 0.0
0.0 0.0 0.0

-1.0001711617467671e6 2.613754948546937e6 0.0
2.613754948546937e6 359703.3061940468 0.0
0.0 0.0 0.0

-355445.3557668958 2.604749607427228e6 0.0
2.604749607427228e6 -319208.4593157027 0.0
0.0 0.0 0.0

-627039.4669632782 2.7112897912270986e6 0.0
2.7112897912270986e6 -125310.5543063654 0.0
0.0 0.0 0.0

-610141.6161318161 3.0812883946606303e6 0.0
3.0812883946606303e6 -307987.21967928635 0.0
0.0 0.0 0.0

-271354.44930098933 2.3960648087800243e6 0.0
2.3960648087800243e6 842537.8226371617 0.0
0.0 0.0 0.0

-532191.0354231213 1.6225482815730057e6 0.0
1.6225482815730057e6 562358.9491163354 0.0
0.0 0.0 0.0

-569432.4038234061 2.7321898638911336e6 0.0
2.7321898638911336e6 -176066.29888822316 0.0
0.0 0.0 0.0

-1.0087596122056398e6 2.624575151898896e6 0.0
2.624575151898896e6 370398.42006245756 0.0
0.0 0.0 0.0

493100.60321274085 -51107.55869103096 0.0
-51107.55869103096 -546384.3223428203 0.0
0.0 0.0 0.0

175057.70573861204 2.462402309440976e6 0.0
2.462402309440976e6 -1.3037854113309893e6 0.0
0.0 0.0 0.0

-100677.90052813299 -156568.06255519923 0.0
-156568.06255519923 66423.06858430563 0.0
0.0 0.0 0.0

402339.76522493653 -64438.27209767371 0.0
-64438.27209767371 -453616.7320260679 0.0
0.0 0.0 0.0

457844.1058318572 -74869.019591678 0.0
-74869.019591678 -523406.8642206839 0.0
0.0 0.0 0.0

363014.61419186305 1.0779804233031338e6 0.0
1.0779804233031338e6 3463.5140879641694 0.0
0.0 0.0 0.0

-381624.8080195236 2.336188046058927e6 0.0
2.336188046058927e6 -484469.0139912124 0.0
0.0 0.0 0.0

318544.9906560491 2.4029474618908195e6 0.0
2.4029474618908195e6 -1.2113955450586537e6 0.0
0.0 0.0 0.0

-243009.33087624714 3.1065322884551403e6 0.0
3.1065322884551403e6 -341897.4110289245 0.0
0.0 0.0 0.0

-609702.185548778 3.047126881859169e6 0.0
3.047126881859169e6 -74658.88982662029 0.0
0.0 0.0 0.0

-467636.6165112455 3.1673563971934956e6 0.0
3.1673563971934956e6 -119826.24943858254 0.0
0.0 0.0 0.0

-1.4471522254423937e6 4.0079226028664154e6 0.0
4.0079226028664154e6 1.1298953823522297e6 0.0
0.0 0.0 0.0

253795.4223334238 5.342501028854725e6 0.0
5.342501028854725e6 224302.25111230693 0.0
0.0 0.0 0.0

-987364.7801672634 2.7262445251937523e6 0.0
2.7262445251937523e6 2.230129730548065e6 0.0
0.0 0.0 0.0

-452013.09527449135 3.1262541067274185e6 0.0
3.1262541067274185e6 -89714.98798515667 0.0
0.0 0.0 0.0

-771027.1807338553 3.6658492863110006e6 0.0
3.6658492863110006e6 520856.3230616645 0.0
0.0 0.0 0.0

-1.8619773263656865e6 4.022235646345829e6 0.0
4.022235646345829e6 1.1010364058583556e6 0.0
0.0 0.0 0.0

-253169.59556054627 2.3392261554009914e6 0.0
2.3392261554009914e6 -552120.1562345803 0.0
0.0 0.0 0.0

-760066.2407937536 2.4202398241515714e6 0.0
2.4202398241515714e6 -245583.10228766783 0.0
0.0 0.0 0.0

-627288.9096172405 2.853283988602234e6 0.0
2.853283988602234e6 -95718.02616746466 0.0
0.0 0.0 0.0

1.1354047231593672e6 931923.1661374231 0.0
931923.1661374231 -1.432849964246932e6 0.0
0.0 0.0 0.0

-1.6842598484639605e6 4.0454243313570577e6 0.0
4.0454243313570577e6 1.0595099598162305e6 0.0
0.0 0.0 0.0

-3.284295335047153e6 2.333871927894865e6 0.0
2.333871927894865e6 1.2306336925168962e6 0.0
0.0 0.0 0.0

-271102.11704583996 2.0696778968813822e6 0.0
2.0696778968813822e6 -820356.9109635635 0.0
0.0 0.0 0.0

42986.39440793282 2.3318882107321313e6 0.0
2.3318882107321313e6 -1.0580657608737994e6 0.0
0.0 0.0 0.0

278640.28189572284 2.358029728948863e6 0.0
2.358029728948863e6 -1.2500137967344136e6 0.0
0.0 0.0 0.0

187040.77386250492 2.4982095713822017e6 0.0
2.4982095713822017e6 -1.237531783854541e6 0.0
0.0 0.0 0.0

-1.3250884308202858e6 6.151223525704335e6 0.0
6.151223525704335e6 1.1449296259591277e6 0.0
0.0 0.0 0.0

-515468.0573510929 2.7576084518885487e6 0.0
2.7576084518885487e6 -245845.4371291065 0.0
0.0 0.0 0.0

-302357.5608993167 2.72576084304071e6 0.0
2.72576084304071e6 727156.5295929628 0.0
0.0 0.0 0.0

-3.3679198308365466e6 510769.82527167024 0.0
510769.82527167024 2.5096971999779223e6 0.0
0.0 0.0 0.0

-2.450531354954156e6 1.3410785806521238e6 0.0
1.3410785806521238e6 1.0141971821175218e6 0.0
0.0 0.0 0.0

1.190824403585433e6 1.631516154854515e6 0.0
1.631516154854515e6 -1.9180538811875656e6 0.0
0.0 0.0 0.0

-464416.42689119454 3.097792378025966e6 0.0
3.097792378025966e6 -87817.5284649712 0.0
0.0 0.0 0.0

-775197.9573723455 3.3964710148343225e6 0.0
3.3964710148343225e6 232784.5395665855 0.0
0.0 0.0 0.0

1.0863211670933922e6 850383.3509277806 0.0
850383.3509277806 -1.3886679315098822e6 0.0
0.0 0.0 0.0

-709692.0695189058 3.063202071632928e6 0.0
3.063202071632928e6 -344517.7325305521 0.0
0.0 0.0 0.0

-170195.44523730045 3.030238381745753e6 0.0
3.030238381745753e6 104087.09831379198 0.0
0.0 0.0 0.0

-1.1514447939995918e6 2.851761687181282e6 0.0
2.851761687181282e6 1.8812976827633712e6 0.0
0.0 0.0 0.0

210496.0209940164 -136363.15803636808 0.0
-136363.15803636808 -329229.1022368298 0.0
0.0 0.0 0.0

-147008.91870191589 2.229675088298953e6 0.0
2.229675088298953e6 -820675.5368348164 0.0
0.0 0.0 0.0

-21528.56329309399 1.2723193039969667e6 0.0
1.2723193039969667e6 -1.0773662811722774e6 0.0
0.0 0.0 0.0

-349921.52135656273 1.8090495557521987e6 0.0
1.8090495557521987e6 324096.7029745898 0.0
0.0 0.0 0.0

222043.7206918351 -129441.1985287206 0.0
-129441.1985287206 -295406.9157801469 0.0
0.0 0.0 0.0

-1.1230202178230073e7 2.762453681728173e6 0.0
2.762453681728173e6 1.3623529014006129e7 0.0
0.0 0.0 0.0

-946255.3380990503 -320835.6220738407 0.0
-320835.6220738407 1.198706276243455e6 0.0
0.0 0.0 0.0

-1.2935645005764742e6 4.899284511200039e6 0.0
4.899284511200039e6 1.0879987024315875e6 0.0
0.0 0.0 0.0

-1.1690075020547137e6 2.940713741297063e6 0.0
2.940713741297063e6 186018.7703028053 0.0
0.0 0.0 0.0

-191006.7109422824 2.3715439583500368e6 0.0
2.3715439583500368e6 -856339.9725487602 0.0
0.0 0.0 0.0

-706408.3463089527 3.201558226969192e6 0.0
3.201558226969192e6 306485.67778485053 0.0
0.0 0.0 0.0

-714660.1255968957 2.511686046365938e6 0.0
2.511686046365938e6 84654.7515457074 0.0
0.0 0.0 0.0

-2.416941653638458e6 5.409572571178677e6 0.0
5.409572571178677e6 1.6599999936606814e6 0.0
0.0 0.0 0.0

131200.30526027357 589711.3610127883 0.0
589711.3610127883 -779471.0989681478 0.0
0.0 0.0 0.0

519747.31313426653 -35636.686721574384 0.0
-35636.686721574384 -514859.3225260405 0.0
0.0 0.0 0.0

-118740.19936500845 3.0931631326938043e6 0.0
3.0931631326938043e6 -468416.9402910923 0.0
0.0 0.0 0.0

-654228.7890373316 2.7984650369025106e6 0.0
2.7984650369025106e6 -131244.87439430546 0.0
0.0 0.0 0.0

-245822.9867852462 2.6897975875503304e6 0.0
2.6897975875503304e6 696357.2579064041 0.0
0.0 0.0 0.0

-53198.33714418026 925270.7553772975 0.0
925270.7553772975 -272849.9832820569 0.0
0.0 0.0 0.0

-74883.38988906489 2.32571651509923e6 0.0
2.32571651509923e6 -937265.2736413844 0.0
0.0 0.0 0.0

-8.74578348954456e6 -962770.3135243905 0.0
-962770.3135243905 6.367662803170462e6 0.0
0.0 0.0 0.0

-29392.196835864666 694951.6462598433 0.0
694951.6462598433 -162310.00583961266 0.0
0.0 0.0 0.0

-650351.9573001334 2.8406039414024525e6 0.0
2.8406039414024525e6 -133767.5258452948 0.0
0.0 0.0 0.0

-202674.79990400927 2.290243009785503e6 0.0
2.290243009785503e6 -632379.8328842969 0.0
0.0 0.0 0.0

72275.94461075531 2.3773065258224322e6 0.0
2.3773065258224322e6 -1.0966383997536139e6 0.0
0.0 0.0 0.0

-2.2938611098469133e6 5.098071591875545e6 0.0
5.098071591875545e6 1.606487790228453e6 0.0
0.0 0.0 0.0

-4130.319201752543 2.18006500645593e6 0.0
2.18006500645593e6 -1.0975482430054722e6 0.0
0.0 0.0 0.0

-483661.64277169184 2.6910565021793656e6 0.0
2.6910565021793656e6 -306370.10108386184 0.0
0.0 0.0 0.0

-44139.368673236066 3.149221630626829e6 0.0
3.149221630626829e6 -464753.8306796148 0.0
0.0 0.0 0.0

-2.0596012548821475e6 4.387262055238981e6 0.0
4.387262055238981e6 1.1877669822529587e6 0.0
0.0 0.0 0.0

-665929.46901544 2.7423256264043767e6 0.0
2.7423256264043767e6 -126415.47711981178 0.0
0.0 0.0 0.0

-147626.28220264392 2.2770549654656183e6 0.0
2.2770549654656183e6 -813393.974463158 0.0
0.0 0.0 0.0

-610970.9723641643 2.5703689153204034e6 0.0
2.5703689153204034e6 -13551.67823314201 0.0
0.0 0.0 0.0

-1.2713547124971799e6 2.6693561309194076e6 0.0
2.6693561309194076e6 420476.31211831555 0.0
0.0 0.0 0.0

-646266.2792366974 2.867273157548252e6 0.0
2.867273157548252e6 -126053.90014694104 0.0
0.0 0.0 0.0

44135.743229443615 -202332.0247960731 0.0
-202332.0247960731 104935.42600415599 0.0
0.0 0.0 0.0

-317209.84156276094 1.548079241232545e6 0.0
1.548079241232545e6 217044.55867274225 0.0
0.0 0.0 0.0

-59815.896355064586 2.092089917106121e6 0.0
2.092089917106121e6 -1.0496614592608484e6 0.0
0.0 0.0 0.0

-253874.01560622355 3.6427105419170936e6 0.0
3.6427105419170936e6 348294.30122900545 0.0
0.0 0.0 0.0

-138962.84002267173 2.1857102135748295e6 0.0
2.1857102135748295e6 -821498.5100575261 0.0
0.0 0.0 0.0

-201884.32559030884 2.404506243516372e6 0.0
2.404506243516372e6 -555410.5491383304 0.0
0.0 0.0 0.0

224210.61096051877 124933.54446755839 0.0
124933.54446755839 50630.71883601012 0.0
0.0 0.0 0.0

-734487.2111424892 2.739353775413386e6 0.0
2.739353775413386e6 449664.48287626664 0.0
0.0 0.0 0.0

-205397.0981034594 2.48262880103e6 0.0
2.48262880103e6 -782128.4987568252 0.0
0.0 0.0 0.0

-281872.2321763224 2.474085968981326e6 0.0
2.474085968981326e6 -440610.2183181718 0.0
0.0 0.0 0.0

-3.5794619898596457e6 2.190336541864493e6 0.0
2.190336541864493e6 1.2284560506194304e6 0.0
0.0 0.0 0.0

-4.549466515726383e6 134076.28283526565 0.0
134076.28283526565 2.981497112832137e6 0.0
0.0 0.0 0.0

-1.5019147564751809e6 5.10310196535327e6 0.0
5.10310196535327e6 954489.724388277 0.0
0.0 0.0 0.0

-3.4523702286021565e6 2.252344484619045e6 0.0
2.252344484619045e6 1.2698728915595396e6 0.0
0.0 0.0 0.0

-1.685550567440424e6 7.230184775738844e6 0.0
7.230184775738844e6 1.7238715691547603e6 0.0
0.0 0.0 0.0

54314.31599679892 2.341223495841876e6 0.0
2.341223495841876e6 -1.087550224104628e6 0.0
0.0 0.0 0.0

121770.75459946209 3.393220137129908e6 0.0
3.393220137129908e6 -843282.4527425091 0.0
0.0 0.0 0.0

-587739.0703822664 2.944930144080131e6 0.0
2.944930144080131e6 -82568.851149558 0.0
0.0 0.0 0.0

84612.57382971307 618909.2438402813 0.0
618909.2438402813 -142860.9322373213 0.0
0.0 0.0 0.0

-619694.4840316232 2.9581079653229336e6 0.0
2.9581079653229336e6 -215266.68116325059 0.0
0.0 0.0 0.0

-142361.75619765924 2.328319217460256e6 0.0
2.328319217460256e6 -273992.21100336214 0.0
0.0 0.0 0.0

-941462.1049332066 2.7529706684618033e6 0.0
2.7529706684618033e6 509631.9291868221 0.0
0.0 0.0 0.0

-2.392286810252295e6 5.729593976503289e6 0.0
5.729593976503289e6 1.6674611716515776e6 0.0
0.0 0.0 0.0

-763623.9134088866 3.1306268922639373e6 0.0
3.1306268922639373e6 103193.04433978183 0.0
0.0 0.0 0.0

-496083.8865226068 2.8419766583378837e6 0.0
2.8419766583378837e6 -253726.20418994347 0.0
0.0 0.0 0.0

1.3576784691872366e6 1.117753834556666e6 0.0
1.117753834556666e6 -1.79952291752573e6 0.0
0.0 0.0 0.0

-665587.344594882 2.598308450878302e6 0.0
2.598308450878302e6 46213.03935877612 0.0
0.0 0.0 0.0

-621679.2768249486 2.3730969763138066e6 0.0
2.3730969763138066e6 -209661.151008122 0.0
0.0 0.0 0.0

-352053.75229909935 1.5427057970159603e6 0.0
1.5427057970159603e6 -128704.11997281272 0.0
0.0 0.0 0.0

86348.79984844587 2.4835953455031244e6 0.0
2.4835953455031244e6 -1.272416620227572e6 0.0
0.0 0.0 0.0

-376533.1857246427 2.783392086930073e6 0.0
2.783392086930073e6 103597.92140013489 0.0
0.0 0.0 0.0

-572448.6488739727 2.0220882392926367e6 0.0
2.0220882392926367e6 1.8292982587254022e6 0.0
0.0 0.0 0.0

1563.3963536791562 3.3789871524935067e6 0.0
3.3789871524935067e6 -462420.8960042775 0.0
0.0 0.0 0.0

-688199.3001680243 3.5645063757804455e6 0.0
3.5645063757804455e6 399725.6746265463 0.0
0.0 0.0 0.0

-609840.6833667775 2.5260874338793545e6 0.0
2.5260874338793545e6 188291.00748960755 0.0
0.0 0.0 0.0

-1.4908355211714264e6 -584847.8955566384 0.0
-584847.8955566384 2.174251348060769e6 0.0
0.0 0.0 0.0

-32829.10325506988 2.0098599708497715e6 0.0
2.0098599708497715e6 177568.9607361209 0.0
0.0 0.0 0.0

-168736.79964785275 3.217570253245811e6 0.0
3.217570253245811e6 -428443.888039324 0.0
0.0 0.0 0.0

-626196.46432315 2.941763791737517e6 0.0
2.941763791737517e6 -99749.48432412473 0.0
0.0 0.0 0.0

-414333.3483384665 1.9252632957097644e6 0.0
1.9252632957097644e6 326289.6495008656 0.0
0.0 0.0 0.0

-47760.07247990262 1.9989045576670428e6 0.0
1.9989045576670428e6 -692621.8392461255 0.0
0.0 0.0 0.0

-1.7782857729007846e6 3.0093398076304323e6 0.0
3.0093398076304323e6 671907.3537642275 0.0
0.0 0.0 0.0

-2.148206932317294e6 4.536149585613574e6 0.0
4.536149585613574e6 1.2705332567381803e6 0.0
0.0 0.0 0.0

-838594.1598848009 2.209452661026896e6 0.0
2.209452661026896e6 75748.02921250928 0.0
0.0 0.0 0.0

-117910.05569345178 2.3242955321055693e6 0.0
2.3242955321055693e6 -804128.2887450517 0.0
0.0 0.0 0.0

-1.8017523591658333e6 3.9895563619658616e6 0.0
3.9895563619658616e6 1.0484255706188158e6 0.0
0.0 0.0 0.0

-895712.846576943 3.364118527825491e6 0.0
3.364118527825491e6 374476.21339199104 0.0
0.0 0.0 0.0

-279624.60284279106 2.5144777361683683e6 0.0
2.5144777361683683e6 920528.3181314525 0.0
0.0 0.0 0.0

-673669.4638849295 2.1094490618412695e6 0.0
2.1094490618412695e6 86121.38316723981 0.0
0.0 0.0 0.0

-867513.1165570779 2.6409698884125473e6 0.0
2.6409698884125473e6 74483.37483196304 0.0
0.0 0.0 0.0

-344298.1242684933 -422566.6708647687 0.0
-422566.6708647687 489294.4393005716 0.0
0.0 0.0 0.0

-2.0814262490435517e6 4.448887375145148e6 0.0
4.448887375145148e6 1.261072889053163e6 0.0
0.0 0.0 0.0

1.3713608948450284e6 1.1171290835727386e6 0.0
1.1171290835727386e6 -1.8305104504490728e6 0.0
0.0 0.0 0.0

-1.515549364004849e6 4.160527939518305e6 0.0
4.160527939518305e6 970370.1832475895 0.0
0.0 0.0 0.0

-132024.83737597277 -387878.7340717824 0.0
-387878.7340717824 193040.75726007498 0.0
0.0 0.0 0.0

-136508.0038802384 2.691149989256301e6 0.0
2.691149989256301e6 -826312.4627484614 0.0
0.0 0.0 0.0

-618075.5046591389 2.8645442049229452e6 0.0
2.8645442049229452e6 -168422.8739102679 0.0
0.0 0.0 0.0

-258224.76967800848 3.112281703806609e6 0.0
3.112281703806609e6 -401024.91698686895 0.0
0.0 0.0 0.0

-347164.519161116 3.161324411320479e6 0.0
3.161324411320479e6 -315078.0676911986 0.0
0.0 0.0 0.0

-142930.9367119722 2.1590970030080066e6 0.0
2.1590970030080066e6 -780063.4539971735 0.0
0.0 0.0 0.0

-227062.109304732 388743.708834221 0.0
388743.708834221 426166.6498265456 0.0
0.0 0.0 0.0

-225547.1236041713 2.2380969381800736e6 0.0
2.2380969381800736e6 102946.14259499004 0.0
0.0 0.0 0.0

803972.9157013136 1.1374958675495062e6 0.0
1.1374958675495062e6 -1.350770090180036e6 0.0
0.0 0.0 0.0

-76867.96485973867 2.840846457335294e6 0.0
2.840846457335294e6 235772.60762576744 0.0
0.0 0.0 0.0

198180.0876140079 3.616350838949147e6 0.0
3.616350838949147e6 -510413.062565231 0.0
0.0 0.0 0.0

-345166.3896921694 1.6788515433914384e6 0.0
1.6788515433914384e6 93469.35665123837 0.0
0.0 0.0 0.0

-1.7554620534407091e6 3.2412161908265897e6 0.0
3.2412161908265897e6 769633.6259442852 0.0
0.0 0.0 0.0

-951203.3806294892 2.5428103472660277e6 0.0
2.5428103472660277e6 175796.72133606317 0.0
0.0 0.0 0.0

-628732.7569798217 2.766465047104595e6 0.0
2.766465047104595e6 129733.62342662833 0.0
0.0 0.0 0.0

-513059.73225263564 2.875729962184871e6 0.0
2.875729962184871e6 -232191.73947614932 0.0
0.0 0.0 0.0

-616867.9782699094 2.728131603793962e6 0.0
2.728131603793962e6 -8309.441704526253 0.0
0.0 0.0 0.0

-457266.88420033676 2.5205609816729864e6 0.0
2.5205609816729864e6 254500.27635758292 0.0
0.0 0.0 0.0

-844350.0091027804 1.8026271564177608e6 0.0
1.8026271564177608e6 1.513478111764501e6 0.0
0.0 0.0 0.0

35645.08196996164 2.4612020271846005e6 0.0
2.4612020271846005e6 -962244.3208947044 0.0
0.0 0.0 0.0

-324209.29953965836 2.3214084939182857e6 0.0
2.3214084939182857e6 -566004.0471309522 0.0
0.0 0.0 0.0

-288321.13788682927 2.983456450262283e6 0.0
2.983456450262283e6 -38460.56287176183 0.0
0.0 0.0 0.0

761652.0328707311 1.6244077929133985e6 0.0
1.6244077929133985e6 -1.4773107941125068e6 0.0
0.0 0.0 0.0

-487792.1040462963 3.0827992829552433e6 0.0
3.0827992829552433e6 273815.34227193485 0.0
0.0 0.0 0.0

-2.218508440417665e6 4.619328905315604e6 0.0
4.619328905315604e6 1.3278740705455155e6 0.0
0.0 0.0 0.0

38103.099972959855 3.12605053577448e6 0.0
3.12605053577448e6 -185004.4454853861 0.0
0.0 0.0 0.0

941496.237801388 4.45207527153047e6 0.0
4.45207527153047e6 3.13829930046542e6 0.0
0.0 0.0 0.0

-40064.97095328569 1.137627522708192e6 0.0
1.137627522708192e6 -133551.23764822975 0.0
0.0 0.0 0.0

-582227.620024854 2.484309713528391e6 0.0
2.484309713528391e6 -95872.9231863478 0.0
0.0 0.0 0.0

-2.9193506299584536e6 1.5771499655392542e6 0.0
1.5771499655392542e6 1.163537486466501e6 0.0
0.0 0.0 0.0

-1.56252504069747e6 3.884036964074618e6 0.0
3.884036964074618e6 1.0294336988738504e6 0.0
0.0 0.0 0.0

-265891.1125987181 3.0876376921685426e6 0.0
3.0876376921685426e6 -190683.10338566918 0.0
0.0 0.0 0.0

-43798.51696541559 2.881213907485425e6 0.0
2.881213907485425e6 290526.08864223567 0.0
0.0 0.0 0.0

-554780.7139785083 2.985840491530227e6 0.0
2.985840491530227e6 2.6096867824354894e6 0.0
0.0 0.0 0.0

-382246.8156418614 2.316313315991242e6 0.0
2.316313315991242e6 584078.0463532764 0.0
0.0 0.0 0.0

-325968.47784645343 2.7050838309220537e6 0.0
2.7050838309220537e6 225939.20851825288 0.0
0.0 0.0 0.0

-829585.0160391603 3.5290518809133396e6 0.0
3.5290518809133396e6 343921.57557714026 0.0
0.0 0.0 0.0

-82199.35012391499 3.2497366380979037e6 0.0
3.2497366380979037e6 -403729.1779312917 0.0
0.0 0.0 0.0

-271899.28339581884 3.001275005053674e6 0.0
3.001275005053674e6 10134.786889300682 0.0
0.0 0.0 0.0

-1.460194851311829e6 5.2263881830277e6 0.0
5.2263881830277e6 1.1606845800126495e6 0.0
0.0 0.0 0.0

-399086.98773419013 2.427838255267872e6 0.0
2.427838255267872e6 462499.32452644676 0.0
0.0 0.0 0.0

1.2846009016859778e6 1.0644367836111889e6 0.0
1.0644367836111889e6 -1.6821576994171103e6 0.0
0.0 0.0 0.0

-56194.096108186175 1.990162404123744e6 0.0
1.990162404123744e6 -90064.48578241676 0.0
0.0 0.0 0.0

14573.610243272964 -352572.2186714893 0.0
-352572.2186714893 119012.78288749036 0.0
0.0 0.0 0.0

-575722.1555713183 1.952319872619104e6 0.0
1.952319872619104e6 508995.65213534766 0.0
0.0 0.0 0.0

-1.6830379120057155e6 4.489982459420891e6 0.0
4.489982459420891e6 1.206478426376958e6 0.0
0.0 0.0 0.0

509916.5337300563 3.67241147257797e6 0.0
3.67241147257797e6 339083.28163751063 0.0
0.0 0.0 0.0

31782.83220867405 3.023713074660468e6 0.0
3.023713074660468e6 -503607.66537385114 0.0
0.0 0.0 0.0

-989526.3110671161 2.6253619132120623e6 0.0
2.6253619132120623e6 132458.51482788607 0.0
0.0 0.0 0.0

1.0289528155951896e6 484967.2322733556 0.0
484967.2322733556 -1.4675718680314282e6 0.0
0.0 0.0 0.0

-1.6122583300286848e6 4.30632859051415e6 0.0
4.30632859051415e6 1.063348824665935e6 0.0
0.0 0.0 0.0

216953.38474405865 1.522044449403171e6 0.0
1.522044449403171e6 -881502.2841794223 0.0
0.0 0.0 0.0

-648456.1854624244 2.953818103055619e6 0.0
2.953818103055619e6 -172560.82164156195 0.0
0.0 0.0 0.0

-906686.3296260147 3.9352833202172294e6 0.0
3.9352833202172294e6 553854.7752650816 0.0
0.0 0.0 0.0

-562912.4580745321 2.9697633786589983e6 0.0
2.9697633786589983e6 -244079.16613353917 0.0
0.0 0.0 0.0

1.2771689322758494e6 1.1501307685524242e6 0.0
1.1501307685524242e6 -1.6919274870089372e6 0.0
0.0 0.0 0.0

-405546.7411657586 3.0546549708597367e6 0.0
3.0546549708597367e6 -166528.3506853133 0.0
0.0 0.0 0.0

-1.1696273447477894e6 4.424576056273322e6 0.0
4.424576056273322e6 1.0025992661583954e6 0.0
0.0 0.0 0.0

-956221.2430994974 3.308345561412119e6 0.0
3.308345561412119e6 717828.4514606887 0.0
0.0 0.0 0.0

-159520.21697938791 2.2572380870732507e6 0.0
2.2572380870732507e6 -753108.4395080779 0.0
0.0 0.0 0.0

1.1007738087848974e6 992829.9978913363 0.0
992829.9978913363 -1.5597887921981798e6 0.0
0.0 0.0 0.0

-665397.0520274679 2.1528742835584837e6 0.0
2.1528742835584837e6 57116.99463780344 0.0
0.0 0.0 0.0

228426.6915807511 2.4040079002972785e6 0.0
2.4040079002972785e6 -1.403364144412748e6 0.0
0.0 0.0 0.0

-252525.78129751407 -496141.8076713948 0.0
-496141.8076713948 294722.11491684 0.0
0.0 0.0 0.0

-327898.2256937625 1.6095100485223532e6 0.0
1.6095100485223532e6 228225.65071403875 0.0
0.0 0.0 0.0

-827762.2665270183 2.6302487769512064e6 0.0
2.6302487769512064e6 -190493.8222189799 0.0
0.0 0.0 0.0

1.1403631864882011e6 2.5707759186971523e6 0.0
2.5707759186971523e6 -1.466171037858261e6 0.0
0.0 0.0 0.0

-3.606636841885073e6 604064.7446132356 0.0
604064.7446132356 5.019775723687094e6 0.0
0.0 0.0 0.0

-144071.18274833343 2.9894990974009107e6 0.0
2.9894990974009107e6 51763.715135890714 0.0
0.0 0.0 0.0

-1.451464960874227e6 2.0267293986614025e6 0.0
2.0267293986614025e6 2.6302377606386254e6 0.0
0.0 0.0 0.0

-1.097255890403978e6 2.7114834127917937e6 0.0
2.7114834127917937e6 138131.1873467111 0.0
0.0 0.0 0.0

-342133.28244485 1.6191907749081533e6 0.0
1.6191907749081533e6 -1416.1358812911349 0.0
0.0 0.0 0.0

-167538.10860341912 2.290100813810932e6 0.0
2.290100813810932e6 -712305.7984804269 0.0
0.0 0.0 0.0

-261127.21389964607 2.325966722438974e6 0.0
2.325966722438974e6 -664518.7183862854 0.0
0.0 0.0 0.0

864357.8605373849 1.7866425345393491e6 0.0
1.7866425345393491e6 -1.7385845888861732e6 0.0
0.0 0.0 0.0

-77882.36230131876 -413347.89229368797 0.0
-413347.89229368797 175958.60505288438 0.0
0.0 0.0 0.0

-499071.8067660281 -713316.209531925 0.0
-713316.209531925 608120.5035190973 0.0
0.0 0.0 0.0

-557660.5584564429 2.9456725730813206e6 0.0
2.9456725730813206e6 -199282.89715063534 0.0
0.0 0.0 0.0

-571472.7786949861 2.7680388243030827e6 0.0
2.7680388243030827e6 44989.14871348842 0.0
0.0 0.0 0.0

-1.4322915864238495e6 2.275093658032952e6 0.0
2.275093658032952e6 3.2776985244223224e6 0.0
0.0 0.0 0.0

-170182.23640536726 2.327355475626871e6 0.0
2.327355475626871e6 -668634.4363749728 0.0
0.0 0.0 0.0

-742043.8007399829 3.4765978643793343e6 0.0
3.4765978643793343e6 210510.76346803346 0.0
0.0 0.0 0.0

-730987.4089758758 2.3289838112163628e6 0.0
2.3289838112163628e6 133743.4467710422 0.0
0.0 0.0 0.0

508973.3715805734 -29846.734132042853 0.0
-29846.734132042853 -546298.3780770318 0.0
0.0 0.0 0.0

-1.9472060639580819e6 6.425562972471015e6 0.0
6.425562972471015e6 1.7677609909961512e6 0.0
0.0 0.0 0.0

-429652.1901122271 2.5579706756893173e6 0.0
2.5579706756893173e6 -426042.7236785039 0.0
0.0 0.0 0.0

444511.9800855769 3.4238420188955422e6 0.0
3.4238420188955422e6 -849335.0190721564 0.0
0.0 0.0 0.0

1.355386479081347e6 1.1282777959999668e6 0.0
1.1282777959999668e6 -1.840870686087327e6 0.0
0.0 0.0 0.0

-179711.7517026327 3.19515998225323e6 0.0
3.19515998225323e6 -338147.36361031065 0.0
0.0 0.0 0.0

-282230.7416280224 1.4975111917861267e6 0.0
1.4975111917861267e6 205457.74964399624 0.0
0.0 0.0 0.0

-2.7261343734562155e6 165338.38506039442 0.0
165338.38506039442 3.0783116069212677e6 0.0
0.0 0.0 0.0

-512713.44505961234 3.7556594702022057e6 0.0
3.7556594702022057e6 7811.713040713425 0.0
0.0 0.0 0.0

-94399.65783625816 2.7648321586901145e6 0.0
2.7648321586901145e6 -309310.9381429868 0.0
0.0 0.0 0.0

-96388.35566243497 2.3583162002848582e6 0.0
2.3583162002848582e6 -834829.967252694 0.0
0.0 0.0 0.0

551238.0582573615 18226.780553120327 0.0
18226.780553120327 -533645.1540188399 0.0
0.0 0.0 0.0

-1.0897464735005759e6 2.7926702052054107e6 0.0
2.7926702052054107e6 513474.56806082313 0.0
0.0 0.0 0.0

-221771.03018121573 3.0798486908297515e6 0.0
3.0798486908297515e6 -380932.94799289684 0.0
0.0 0.0 0.0

-153244.28991610155 3.158497728184489e6 0.0
3.158497728184489e6 -251689.95441986734 0.0
0.0 0.0 0.0

-467590.90304782434 2.408117050454808e6 0.0
2.408117050454808e6 -354257.81400596496 0.0
0.0 0.0 0.0

-311251.62616218283 2.5916221168914437e6 0.0
2.5916221168914437e6 558568.3751825158 0.0
0.0 0.0 0.0

-210251.22781071728 2.3939212178669428e6 0.0
2.3939212178669428e6 -638093.2097803721 0.0
0.0 0.0 0.0

-525052.2722843066 2.7741930734257707e6 0.0
2.7741930734257707e6 -30167.425010646315 0.0
0.0 0.0 0.0

-502455.8761844292 3.0159871288078316e6 0.0
3.0159871288078316e6 -203552.19286605302 0.0
0.0 0.0 0.0

106120.56214181252 2.2814326314655356e6 0.0
2.2814326314655356e6 -1.3582280722213597e6 0.0
0.0 0.0 0.0

-489216.3062300725 1.863602106925534e6 0.0
1.863602106925534e6 426121.0650808937 0.0
0.0 0.0 0.0

-1.0032423610080592e6 2.9451433514114195e6 0.0
2.9451433514114195e6 585489.9720389575 0.0
0.0 0.0 0.0

-2.82362588058675e6 1.586233997759005e6 0.0
1.586233997759005e6 906781.2736091042 0.0
0.0 0.0 0.0

-1.2550282692930372e6 3.031865892030547e6 0.0
3.031865892030547e6 4.000060709731306e6 0.0
0.0 0.0 0.0

1.3467210226080264e6 1.1138285961182697e6 0.0
1.1138285961182697e6 -1.7914109804170479e6 0.0
0.0 0.0 0.0

-411368.9029654914 -645552.1444356139 0.0
-645552.1444356139 478928.4359428134 0.0
0.0 0.0 0.0

402794.5971560183 2.693828418498855e6 0.0
2.693828418498855e6 -965979.8890569364 0.0
0.0 0.0 0.0

22821.60174499004 2.290201216073617e6 0.0
2.290201216073617e6 -1.2639335684375798e6 0.0
0.0 0.0 0.0

-286648.445990987 3.1126980504449895e6 0.0
3.1126980504449895e6 -329099.35476691934 0.0
0.0 0.0 0.0

-1.4039528004780016e6 2.838457088298455e6 0.0
2.838457088298455e6 504823.23156610783 0.0
0.0 0.0 0.0

-1.231547540498728e6 1.0665523956884902e6 0.0
1.0665523956884902e6 1.9804895164693962e6 0.0
0.0 0.0 0.0

-472833.807833807 2.7809063086619945e6 0.0
2.7809063086619945e6 -102254.49943228635 0.0
0.0 0.0 0.0

-2.0076873226750959e6 -1.190310498202475e6 0.0
-1.190310498202475e6 2.898487166943631e6 0.0
0.0 0.0 0.0

-192206.78982002632 1.4721357193200556e6 0.0
1.4721357193200556e6 31192.969250242095 0.0
0.0 0.0 0.0

1.3825868594372591e6 2.003030972292316e6 0.0
2.003030972292316e6 -2.0169693702605222e6 0.0
0.0 0.0 0.0

-1.7802806154714797e6 3.2550273091688e6 0.0
3.2550273091688e6 791263.8115458535 0.0
0.0 0.0 0.0

1.31290830266181e6 1.2601135873234977e6 0.0
1.2601135873234977e6 -2.17958827658441e6 0.0
0.0 0.0 0.0

-4.079501220969195e6 2.0082751580542852e6 0.0
2.0082751580542852e6 1.5851004391159338e6 0.0
0.0 0.0 0.0

-2.1748289151825625e6 -1.2824617375063554e6 0.0
-1.2824617375063554e6 3.3272518281718837e6 0.0
0.0 0.0 0.0

218719.43797136896 2.337481643083125e6 0.0
2.337481643083125e6 -1.2412716787851364e6 0.0
0.0 0.0 0.0

-686395.6432347333 2.8884778717766404e6 0.0
2.8884778717766404e6 -205866.02836817064 0.0
0.0 0.0 0.0

-2.9897021710699685e6 672444.4706174682 0.0
672444.4706174682 609650.4868116499 0.0
0.0 0.0 0.0

1.405649113307281e6 1.5750162639395408e6 0.0
1.5750162639395408e6 -2.3771146386171123e6 0.0
0.0 0.0 0.0

-1.0173698726361422e6 2.475215884313177e6 0.0
2.475215884313177e6 278634.9657281498 0.0
0.0 0.0 0.0

-460654.4806378265 2.1320626260162103e6 0.0
2.1320626260162103e6 397597.69162095303 0.0
0.0 0.0 0.0

-791664.3683681499 3.4236169271466904e6 0.0
3.4236169271466904e6 1.5463524708015558e6 0.0
0.0 0.0 0.0

-85523.79881409756 2.1143633206014647e6 0.0
2.1143633206014647e6 -942158.9239147117 0.0
0.0 0.0 0.0

-22861.47320308414 2.156457105757931e6 0.0
2.156457105757931e6 -1.1400064983151592e6 0.0
0.0 0.0 0.0

-1.1276503307698485e6 3.240047582064631e6 0.0
3.240047582064631e6 610117.3438266194 0.0
0.0 0.0 0.0

-1.8307481503587703e6 3.2308472934826873e6 0.0
3.2308472934826873e6 803926.2587845895 0.0
0.0 0.0 0.0

96617.37824757051 310094.82087718043 0.0
310094.82087718043 217685.8278709182 0.0
0.0 0.0 0.0

1.2832127767734076e6 1.163110782891392e6 0.0
1.163110782891392e6 -1.996340614612902e6 0.0
0.0 0.0 0.0

-1.5789448281996907e6 2.0742866034043832e6 0.0
2.0742866034043832e6 371049.71518168505 0.0
0.0 0.0 0.0

870865.3794761228 824196.4991616657 0.0
824196.4991616657 -1.3661032690373892e6 0.0
0.0 0.0 0.0

-133134.85748122272 2.170260755337608e6 0.0
2.170260755337608e6 -793102.0986591366 0.0
0.0 0.0 0.0

1.258327280451042e6 1.2291497833435682e6 0.0
1.2291497833435682e6 -2.003783461040638e6 0.0
0.0 0.0 0.0

-39533.74471966887 2.1061481826729625e6 0.0
2.1061481826729625e6 -1.0251991073727355e6 0.0
0.0 0.0 0.0

-975181.5619529043 -47488.95667322492 0.0
-47488.95667322492 1.184464980287348e6 0.0
0.0 0.0 0.0

-202205.67222866084 -364555.54109258886 0.0
-364555.54109258886 -91501.09245988599 0.0
0.0 0.0 0.0

-313254.8556246404 2.5492206692729127e6 0.0
2.5492206692729127e6 -204059.98983434436 0.0
0.0 0.0 0.0

23759.024810559364 3.0913935618202738e6 0.0
3.0913935618202738e6 -236258.8569424023 0.0
0.0 0.0 0.0

1.3645884807258556e6 1.1277497469242723e6 0.0
1.1277497469242723e6 -1.824424578177834e6 0.0
0.0 0.0 0.0

-584772.0992771146 2.756040780480222e6 0.0
2.756040780480222e6 228.55769916894496 0.0
0.0 0.0 0.0

-41589.88192258443 -276595.7575725236 0.0
-276595.7575725236 103981.91331293076 0.0
0.0 0.0 0.0

-176619.30269138585 2.443956485722379e6 0.0
2.443956485722379e6 -539804.3047574349 0.0
0.0 0.0 0.0

13682.065010789898 2.292840802518972e6 0.0
2.292840802518972e6 -1.162969560578296e6 0.0
0.0 0.0 0.0

-478392.04513735906 2.391806618613899e6 0.0
2.391806618613899e6 358826.4578742547 0.0
0.0 0.0 0.0

-514105.89477845345 2.585343782575067e6 0.0
2.585343782575067e6 1.2543424848579804e6 0.0
0.0 0.0 0.0

-118016.04774416378 3.206094932637069e6 0.0
3.206094932637069e6 -508841.3729468529 0.0
0.0 0.0 0.0

-961323.1254911791 3.175148668646255e6 0.0
3.175148668646255e6 712489.544635097 0.0
0.0 0.0 0.0

-955658.005731656 2.472641721471058e6 0.0
2.472641721471058e6 211900.30235051515 0.0
0.0 0.0 0.0

-217857.46702468 3.232223587651179e6 0.0
3.232223587651179e6 -234333.59032627515 0.0
0.0 0.0 0.0

700779.9840495208 1.5094405503083803e6 0.0
1.5094405503083803e6 -600645.8180197417 0.0
0.0 0.0 0.0

-1.626965704331842e6 -974094.0163860961 0.0
-974094.0163860961 2.2537265435808725e6 0.0
0.0 0.0 0.0

-593545.7638339193 2.2399034894481017e6 0.0
2.2399034894481017e6 872323.8944789134 0.0
0.0 0.0 0.0

-601758.1729864099 -715262.6648233089 0.0
-715262.6648233089 770882.8068708912 0.0
0.0 0.0 0.0

-257831.33800490818 2.9837978053974053e6 0.0
2.9837978053974053e6 -374113.14778259885 0.0
0.0 0.0 0.0

-5.874514182415143e6 387591.50842276565 0.0
387591.50842276565 6.121030749141103e6 0.0
0.0 0.0 0.0

-371492.0640680496 2.3663931328209834e6 0.0
2.3663931328209834e6 -366316.4392697734 0.0
0.0 0.0 0.0

-301002.7383628275 -623600.7526367825 0.0
-623600.7526367825 -126442.43539160273 0.0
0.0 0.0 0.0

-373349.5043879142 -747420.6307797004 0.0
-747420.6307797004 -84297.24181244854 0.0
0.0 0.0 0.0

-463419.7806026162 2.7019843922614255e6 0.0
2.7019843922614255e6 -130034.71251736901 0.0
0.0 0.0 0.0

-574917.534640284 3.023207317253781e6 0.0
3.023207317253781e6 -350590.6656086298 0.0
0.0 0.0 0.0

-423544.1522231346 2.8194879483192596e6 0.0
2.8194879483192596e6 -152670.60419480337 0.0
0.0 0.0 0.0

23139.658750987473 162711.42461729905 0.0
162711.42461729905 43082.68940949829 0.0
0.0 0.0 0.0

-139500.38423700264 2.2047023297212063e6 0.0
2.2047023297212063e6 -810512.9238975672 0.0
0.0 0.0 0.0

174397.92871104786 2.3237271695239944e6 0.0
2.3237271695239944e6 -1.4069022752124383e6 0.0
0.0 0.0 0.0

-568653.0187144016 2.850420777852951e6 0.0
2.850420777852951e6 -23561.354267023504 0.0
0.0 0.0 0.0

-52096.82536427176 2.2503059963804134e6 0.0
2.2503059963804134e6 -1.0565873365779328e6 0.0
0.0 0.0 0.0

-5.920614724221999e6 1.063495714244925e6 0.0
1.063495714244925e6 3.546247404263439e6 0.0
0.0 0.0 0.0

-402000.2612234137 2.380912625407214e6 0.0
2.380912625407214e6 -453138.7802334658 0.0
0.0 0.0 0.0

-2.1860371875416506e6 2.9155346495287614e6 0.0
2.9155346495287614e6 876918.6585714672 0.0
0.0 0.0 0.0

-150218.55868160716 2.398323762710845e6 0.0
2.398323762710845e6 -492917.94583145046 0.0
0.0 0.0 0.0

-714543.4672697287 1.5093193768078182e6 0.0
1.5093193768078182e6 1.0035707140408144e6 0.0
0.0 0.0 0.0

-511966.4799076328 2.9079569709383496e6 0.0
2.9079569709383496e6 436242.2023819797 0.0
0.0 0.0 0.0

-1.3509748220203011e6 6.437128359155732e6 0.0
6.437128359155732e6 1.0903534806007063e6 0.0
0.0 0.0 0.0

-314620.09639437817 -602216.1764412854 0.0
-602216.1764412854 377204.83000454307 0.0
0.0 0.0 0.0

1.3573035221421896e6 1.1156145711118248e6 0.0
1.1156145711118248e6 -1.8180089314014937e6 0.0
0.0 0.0 0.0

-1.1756928237193413e6 3.6289904589667656e6 0.0
3.6289904589667656e6 976084.3834053271 0.0
0.0 0.0 0.0

236389.54503033392 -101075.90910537099 0.0
-101075.90910537099 -203780.68108095689 0.0
0.0 0.0 0.0

1.2694827206460545e6 1.1203432524317612e6 0.0
1.1203432524317612e6 -1.8364269093146122e6 0.0
0.0 0.0 0.0

-1.3127105961444094e6 -896473.7980182766 0.0
-896473.7980182766 1.8562700285988566e6 0.0
0.0 0.0 0.0

87286.59189272736 -63796.75953885413 0.0
-63796.75953885413 -9458.576534079446 0.0
0.0 0.0 0.0

-101034.43617936304 2.5197144582291716e6 0.0
2.5197144582291716e6 -724098.5489367134 0.0
0.0 0.0 0.0

-365582.47856394225 -614357.4238126788 0.0
-614357.4238126788 424741.62808524095 0.0
0.0 0.0 0.0

1.3618996191002051e6 1.1374333088623448e6 0.0
1.1374333088623448e6 -1.819452632350997e6 0.0
0.0 0.0 0.0

1.2723658289059019e6 1.1368412912933128e6 0.0
1.1368412912933128e6 -1.8024984663200022e6 0.0
0.0 0.0 0.0

-1.0763417144679958e6 -870499.245885355 0.0
-870499.245885355 1.5516972448185345e6 0.0
0.0 0.0 0.0

-547586.9461741333 2.8737736530829947e6 0.0
2.8737736530829947e6 392815.8918769456 0.0
0.0 0.0 0.0

-441862.3069418541 2.6091470780786495e6 0.0
2.6091470780786495e6 -174317.0564589299 0.0
0.0 0.0 0.0

-1.0861377405704772e6 2.501952703763508e6 0.0
2.501952703763508e6 261253.06033086707 0.0
0.0 0.0 0.0

1.2944247885567949e6 1.1359609733773186e6 0.0
1.1359609733773186e6 -1.7867606939408216e6 0.0
0.0 0.0 0.0

-891031.0665810341 -866947.5168319632 0.0
-866947.5168319632 1.250606455529698e6 0.0
0.0 0.0 0.0

-175317.07661424248 2.3639948834289694e6 0.0
2.3639948834289694e6 -645398.6487391754 0.0
0.0 0.0 0.0

-44699.79690808582 2.3204032791043376e6 0.0
2.3204032791043376e6 -949445.8499588843 0.0
0.0 0.0 0.0

-1.532472239121396e6 4.077433570549955e6 0.0
4.077433570549955e6 1.1379548570652069e6 0.0
0.0 0.0 0.0

-1.0413807357435127e6 2.8945166894299365e6 0.0
2.8945166894299365e6 258114.61847077362 0.0
0.0 0.0 0.0

-940771.8497013029 1.786630747137578e6 0.0
1.786630747137578e6 1.7985398157681108e6 0.0
0.0 0.0 0.0

-705089.3171214298 -789906.9113354309 0.0
-789906.9113354309 923187.4946569849 0.0
0.0 0.0 0.0

1.2836975602122876e6 1.1191229174978703e6 0.0
1.1191229174978703e6 -1.7731739469621342e6 0.0
0.0 0.0 0.0

-1.1523872841870799e6 4.5399129636142235e6 0.0
4.5399129636142235e6 748090.0379532429 0.0
0.0 0.0 0.0

-1.6404927143864464e6 2.5046189333386696e6 0.0
2.5046189333386696e6 3.561172017253416e6 0.0
0.0 0.0 0.0

367343.0804235928 7.468313379500126e6 0.0
7.468313379500126e6 -3.359634899298204e6 0.0
0.0 0.0 0.0

-819206.8197654824 2.253677795908379e6 0.0
2.253677795908379e6 561953.6875216265 0.0
0.0 0.0 0.0

-1.749457708312256e6 2.879075482394576e6 0.0
2.879075482394576e6 554449.027394635 0.0
0.0 0.0 0.0

12894.3623006298 70428.74264261853 0.0
70428.74264261853 -244513.58829194956 0.0
0.0 0.0 0.0

-1.2347095780123675e6 2.573165097466802e6 0.0
2.573165097466802e6 316228.91607451375 0.0
0.0 0.0 0.0

564938.0015526878 528331.7704662498 0.0
528331.7704662498 -1.1648249094865778e6 0.0
0.0 0.0 0.0

-733361.961511974 4.0710910212647165e6 0.0
4.0710910212647165e6 468910.0317458936 0.0
0.0 0.0 0.0

-777973.916986161 3.321621422873769e6 0.0
3.321621422873769e6 441012.19479695807 0.0
0.0 0.0 0.0

-133374.7288598964 1.806680568004259e6 0.0
1.806680568004259e6 -102991.94441392388 0.0
0.0 0.0 0.0

-208766.21285009763 3.017950220042731e6 0.0
3.017950220042731e6 -375396.293155518 0.0
0.0 0.0 0.0

-2.706078240789732e6 -1.6298010500096646e6 0.0
-1.6298010500096646e6 3.106427877780062e6 0.0
0.0 0.0 0.0

-225456.75438472044 -324492.047797336 0.0
-324492.047797336 8226.76858664972 0.0
0.0 0.0 0.0

-134732.87390142085 32328.103795641746 0.0
32328.103795641746 95482.83530988987 0.0
0.0 0.0 0.0

259429.15176703627 26980.236192537806 0.0
26980.236192537806 -325606.75085815147 0.0
0.0 0.0 0.0

-758163.2321076557 3.4030784063070384e6 0.0
3.4030784063070384e6 432993.72694116854 0.0
0.0 0.0 0.0

362742.99053491745 3.4434774138122015e6 0.0
3.4434774138122015e6 -881437.9721620666 0.0
0.0 0.0 0.0

-238454.8099390695 2.6174584770725765e6 0.0
2.6174584770725765e6 383536.34719851636 0.0
0.0 0.0 0.0

-270407.2735270992 3.0617310992023693e6 0.0
3.0617310992023693e6 330276.3976108136 0.0
0.0 0.0 0.0

1.098088439847741e6 987038.6619180419 0.0
987038.6619180419 -1.5677775704068716e6 0.0
0.0 0.0 0.0

-274169.2450095464 2.8396110454453006e6 0.0
2.8396110454453006e6 -887978.3539535376 0.0
0.0 0.0 0.0

-301947.8529546105 2.4991711271213572e6 0.0
2.4991711271213572e6 -406316.596938654 0.0
0.0 0.0 0.0

294156.11037356866 2.592757475876742e6 0.0
2.592757475876742e6 -1.0130544609410715e6 0.0
0.0 0.0 0.0

-1.4335247152576474e6 4.242066635658934e6 0.0
4.242066635658934e6 1.1599624406886343e6 0.0
0.0 0.0 0.0

-380337.67777304316 2.0112520728964903e6 0.0
2.0112520728964903e6 1.1324865305950907e6 0.0
0.0 0.0 0.0

-78734.32365839314 2.7187498386964034e6 0.0
2.7187498386964034e6 -785929.5435247705 0.0
0.0 0.0 0.0

-158091.6970063494 2.4597837417006823e6 0.0
2.4597837417006823e6 -512867.91121321695 0.0
0.0 0.0 0.0

65833.4241265626 3.11298915727927e6 0.0
3.11298915727927e6 -1.1570941963006514e6 0.0
0.0 0.0 0.0

-1.9189722407166138e6 2.2141817617029594e6 0.0
2.2141817617029594e6 1.3750442045379747e6 0.0
0.0 0.0 0.0

-1.7321571584175997e6 6.405998259794664e6 0.0
6.405998259794664e6 1.341048238280199e6 0.0
0.0 0.0 0.0

-291365.1176845015 -568737.3795187924 0.0
-568737.3795187924 20013.55738248065 0.0
0.0 0.0 0.0

-308760.2634789988 -439459.6762752908 0.0
-439459.6762752908 10759.557593516336 0.0
0.0 0.0 0.0

-500668.80833656597 2.184407125999873e6 0.0
2.184407125999873e6 372965.6152492892 0.0
0.0 0.0 0.0

-1.4255492725703425e6 3.5545170373983355e6 0.0
3.5545170373983355e6 904285.4637518196 0.0
0.0 0.0 0.0

-1.890979751708756e6 2.9715366569188735e6 0.0
2.9715366569188735e6 637833.8523889842 0.0
0.0 0.0 0.0

-1.387727929081743e6 2.6391645957993567e6 0.0
2.6391645957993567e6 374305.0482942271 0.0
0.0 0.0 0.0

-318757.0466953326 2.4164724987984938e6 0.0
2.4164724987984938e6 685687.4205965023 0.0
0.0 0.0 0.0

-412276.7537708834 2.9645436870137895e6 0.0
2.9645436870137895e6 -188549.34378505842 0.0
0.0 0.0 0.0

-1.5797573485472153e6 2.765235319479106e6 0.0
2.765235319479106e6 3.0613147538516107e6 0.0
0.0 0.0 0.0

-1.8419905077047944e6 746637.3010534463 0.0
746637.3010534463 -1.4638064778931374e6 0.0
0.0 0.0 0.0

-9.229017271702193e6 852199.1828047859 0.0
852199.1828047859 1.0117997111706832e7 0.0
0.0 0.0 0.0

-139585.53995512216 2.059502738857757e6 0.0
2.059502738857757e6 -168293.4178731394 0.0
0.0 0.0 0.0

-325351.74656960176 2.967021125442695e6 0.0
2.967021125442695e6 -57402.74671707444 0.0
0.0 0.0 0.0

903660.9200650488 837774.5368767859 0.0
837774.5368767859 -1.2682514186969202e6 0.0
0.0 0.0 0.0

-218611.7771737877 1.5805337413784757e6 0.0
1.5805337413784757e6 38447.804794787924 0.0
0.0 0.0 0.0

-71092.88534990391 -230854.93060159154 0.0
-230854.93060159154 185920.417634663 0.0
0.0 0.0 0.0

-820628.6022663877 2.4561115195649415e6 0.0
2.4561115195649415e6 985924.3872522158 0.0
0.0 0.0 0.0

178433.22515166423 2.5931809906673096e6 0.0
2.5931809906673096e6 -1.1712213456250234e6 0.0
0.0 0.0 0.0

1.207363384678588e6 1.07292280320993e6 0.0
1.07292280320993e6 -1.6761017558568493e6 0.0
0.0 0.0 0.0

-357940.6819717389 2.664302948746454e6 0.0
2.664302948746454e6 31004.795434137675 0.0
0.0 0.0 0.0

-6.834832869548162e6 -2.826404244980374e6 0.0
-2.826404244980374e6 6.483270395847906e6 0.0
0.0 0.0 0.0

-1.0456194082529261e6 2.643883750955218e6 0.0
2.643883750955218e6 27791.535268319887 0.0
0.0 0.0 0.0

-876838.434355033 2.5720285053249677e6 0.0
2.5720285053249677e6 -202552.210592161 0.0
0.0 0.0 0.0

-733645.0467481101 3.0834428405381273e6 0.0
3.0834428405381273e6 315978.7025013083 0.0
0.0 0.0 0.0

304467.290738884 -38519.00149440657 0.0
-38519.00149440657 -242262.50816624146 0.0
0.0 0.0 0.0

-83916.97463589406 2.627166884742288e6 0.0
2.627166884742288e6 -533857.6823397924 0.0
0.0 0.0 0.0

-122135.44567495624 -446594.9163608992 0.0
-446594.9163608992 219791.34659554914 0.0
0.0 0.0 0.0

-398488.8623827989 2.8432682435510284e6 0.0
2.8432682435510284e6 -142700.16224873214 0.0
0.0 0.0 0.0

-1.2045299967328415e6 2.699690559698854e6 0.0
2.699690559698854e6 345300.3570856536 0.0
0.0 0.0 0.0

1.3282521807354076e6 1.1175859238616442e6 0.0
1.1175859238616442e6 -1.8083852232400384e6 0.0
0.0 0.0 0.0

-603819.8030064718 2.8501747487785113e6 0.0
2.8501747487785113e6 438031.89399456384 0.0
0.0 0.0 0.0

1.097194141484928e6 989864.1209633871 0.0
989864.1209633871 -1.4958701022040695e6 0.0
0.0 0.0 0.0

-252700.9925809189 2.251305218039717e6 0.0
2.251305218039717e6 -694821.2970879717 0.0
0.0 0.0 0.0

-1.878344785127764e6 2.3646103891403987e6 0.0
2.3646103891403987e6 604799.2508947796 0.0
0.0 0.0 0.0

-70551.84553406283 2.152469928628278e6 0.0
2.152469928628278e6 -738237.2116073854 0.0
0.0 0.0 0.0

-1.0481573794966834e6 3.0223224705381547e6 0.0
3.0223224705381547e6 492563.67067681113 0.0
0.0 0.0 0.0

-1.7407877321016362e6 2.5827088088001204e6 0.0
2.5827088088001204e6 506212.7560703553 0.0
0.0 0.0 0.0

-947079.173678086 2.453303080100547e6 0.0
2.453303080100547e6 239613.13568499283 0.0
0.0 0.0 0.0

-1.2145775394412843e6 2.627123117793367e6 0.0
2.627123117793367e6 348748.8235180012 0.0
0.0 0.0 0.0

-2.0068727044759346e6 4.356882534844847e6 0.0
4.356882534844847e6 1.1973265599879986e6 0.0
0.0 0.0 0.0

-798834.0647270863 2.8268721366425455e6 0.0
2.8268721366425455e6 382155.69206441904 0.0
0.0 0.0 0.0

-2.2350761848820527e6 2.80072089222664e6 0.0
2.80072089222664e6 945397.0704902363 0.0
0.0 0.0 0.0

536413.2601967723 554941.0793853502 0.0
554941.0793853502 -1.4557538797022542e6 0.0
0.0 0.0 0.0

-460446.38762054045 1.8829319497634799e6 0.0
1.8829319497634799e6 -470718.8052354812 0.0
0.0 0.0 0.0

513280.5748545723 -588.5320880478516 0.0
-588.5320880478516 -566006.6046408983 0.0
0.0 0.0 0.0

-675482.0108456867 2.668959546155022e6 0.0
2.668959546155022e6 -131889.4164281473 0.0
0.0 0.0 0.0

-1.0218738895945032e6 -725243.9410693655 0.0
-725243.9410693655 1.209403866394179e6 0.0
0.0 0.0 0.0

-1.3336216384361652e6 4.871044793302514e6 0.0
4.871044793302514e6 838575.3764090373 0.0
0.0 0.0 0.0

-185020.9996019178 2.260636270098361e6 0.0
2.260636270098361e6 -716209.452960922 0.0
0.0 0.0 0.0

-132609.01692466793 2.37871366625892e6 0.0
2.37871366625892e6 -272691.95859364327 0.0
0.0 0.0 0.0

-1.0652372185248148e6 2.7495913316396447e6 0.0
2.7495913316396447e6 439063.4253343621 0.0
0.0 0.0 0.0

186825.53879253985 2.4712904847868076e6 0.0
2.4712904847868076e6 -1.2661478469073484e6 0.0
0.0 0.0 0.0

798835.6284617778 365163.1169536639 0.0
365163.1169536639 -1.6603629462664474e6 0.0
0.0 0.0 0.0

-726324.7012140828 3.480417069441065e6 0.0
3.480417069441065e6 420916.3287730689 0.0
0.0 0.0 0.0

-149555.59606558786 3.110108907277714e6 0.0
3.110108907277714e6 -363264.1867367976 0.0
0.0 0.0 0.0

-1.0944333184559692e6 3.1244189151702463e6 0.0
3.1244189151702463e6 337519.4698495931 0.0
0.0 0.0 0.0

1.2770445221050633e6 1.1372661484308394e6 0.0
1.1372661484308394e6 -1.9251585030143359e6 0.0
0.0 0.0 0.0

439895.1553566731 56824.377863363385 0.0
56824.377863363385 -399497.2924271654 0.0
0.0 0.0 0.0

1.2413510666832537e6 1.3379296344990225e6 0.0
1.3379296344990225e6 -1.9124159341291278e6 0.0
0.0 0.0 0.0

261774.52628816722 -76843.28266709877 0.0
-76843.28266709877 -177740.46591392596 0.0
0.0 0.0 0.0

-1.2554795536804243e6 2.8764991144055016e6 0.0
2.8764991144055016e6 399425.6910490863 0.0
0.0 0.0 0.0

-171335.08057572722 3.048810203918832e6 0.0
3.048810203918832e6 -352734.7237001949 0.0
0.0 0.0 0.0

-132768.27710852816 2.4454848476109714e6 0.0
2.4454848476109714e6 -444494.0181940208 0.0
0.0 0.0 0.0

-185449.07415275837 2.097527246973661e6 0.0
2.097527246973661e6 -354109.1086538184 0.0
0.0 0.0 0.0

87845.19174154833 -85559.06119296816 0.0
-85559.06119296816 12867.123559033278 0.0
0.0 0.0 0.0

-804152.143847231 3.895448815814732e6 0.0
3.895448815814732e6 616639.2253577111 0.0
0.0 0.0 0.0

-888877.0006023762 3.2565233361644777e6 0.0
3.2565233361644777e6 835865.5263018319 0.0
0.0 0.0 0.0

501112.95994081284 1.1533839747400223e6 0.0
1.1533839747400223e6 -1.3118483386392351e6 0.0
0.0 0.0 0.0

12181.234671875794 -262005.28392281046 0.0
-262005.28392281046 115244.90660358906 0.0
0.0 0.0 0.0

-608503.4198425942 2.3311291496455446e6 0.0
2.3311291496455446e6 540417.2985062065 0.0
0.0 0.0 0.0

-2.9011442338662148e6 1.1446469392946179e6 0.0
1.1446469392946179e6 6.781103442781184e6 0.0
0.0 0.0 0.0

-756456.6694317649 2.2857581662256503e6 0.0
2.2857581662256503e6 835120.7249248867 0.0
0.0 0.0 0.0

348285.54618918337 2.9650732209109906e6 0.0
2.9650732209109906e6 -985377.7351457186 0.0
0.0 0.0 0.0

-631743.6936160839 1.9779679387114157e6 0.0
1.9779679387114157e6 1.2089270914475122e6 0.0
0.0 0.0 0.0

-44795.06403103246 3.2322879443223467e6 0.0
3.2322879443223467e6 -336524.1205812754 0.0
0.0 0.0 0.0

-494936.78703270847 2.859009161510055e6 0.0
2.859009161510055e6 -103706.02312497067 0.0
0.0 0.0 0.0

-333421.3805002737 3.302512984074845e6 0.0
3.302512984074845e6 -392034.62288789696 0.0
0.0 0.0 0.0

990761.4585663803 1.397812125481259e6 0.0
1.397812125481259e6 -1.7879044423003192e6 0.0
0.0 0.0 0.0

1.0824980026419829e6 1.3542856847260988e6 0.0
1.3542856847260988e6 -1.8835022772697348e6 0.0
0.0 0.0 0.0

-908065.1017834335 2.717870182113811e6 0.0
2.717870182113811e6 487533.4188668432 0.0
0.0 0.0 0.0

-743569.814443842 749376.9537803815 0.0
749376.9537803815 1.5043930360263586e6 0.0
0.0 0.0 0.0

-545871.6389628904 2.6430679456971516e6 0.0
2.6430679456971516e6 -224857.66383295006 0.0
0.0 0.0 0.0

-2.954579573376965e6 -1.1604267056170125e6 0.0
-1.1604267056170125e6 3.723454899292386e6 0.0
0.0 0.0 0.0

267999.55032515764 1.9003124868697808e6 0.0
1.9003124868697808e6 -1.0177766901535606e6 0.0
0.0 0.0 0.0

-4.289559498386245e6 1.4000859115377162e6 0.0
1.4000859115377162e6 1.0427290042905753e7 0.0
0.0 0.0 0.0

1.2678497245409621e6 1.1537558225630382e6 0.0
1.1537558225630382e6 -1.846788449402893e6 0.0
0.0 0.0 0.0

-872274.9134942978 3.0037947386323037e6 0.0
3.0037947386323037e6 447033.11636416125 0.0
0.0 0.0 0.0

-847299.5783168797 2.428583838119955e6 0.0
2.428583838119955e6 779798.2380300721 0.0
0.0 0.0 0.0

414959.187053412 3.040116583848627e6 0.0
3.040116583848627e6 -823141.8332011536 0.0
0.0 0.0 0.0

-1.0242714455788878e6 2.790825289510269e6 0.0
2.790825289510269e6 655820.80151595 0.0
0.0 0.0 0.0

-310006.6589382688 3.3645575515725766e6 0.0
3.3645575515725766e6 -297500.12919068127 0.0
0.0 0.0 0.0

-772810.0402257673 2.535314371781308e6 0.0
2.535314371781308e6 730535.8418254396 0.0
0.0 0.0 0.0

-522654.8165919531 1.9792593943068085e6 0.0
1.9792593943068085e6 221262.00891270215 0.0
0.0 0.0 0.0

-402196.0352516646 2.8291666471724394e6 0.0
2.8291666471724394e6 -20827.878584454942 0.0
0.0 0.0 0.0

-627031.6299954948 1.59035538212712e6 0.0
1.59035538212712e6 -276532.9610135442 0.0
0.0 0.0 0.0

-190100.64738380583 740992.1307044565 0.0
740992.1307044565 291156.4032437972 0.0
0.0 0.0 0.0

384884.6157598142 2.715246501607074e6 0.0
2.715246501607074e6 -997975.5954052755 0.0
0.0 0.0 0.0

-364824.51106944843 3.096227234670224e6 0.0
3.096227234670224e6 277799.14258603647 0.0
0.0 0.0 0.0

-447478.9423689365 3.090227148174257e6 0.0
3.090227148174257e6 -213777.7916123585 0.0
0.0 0.0 0.0

-780865.2089208512 2.0505894469005463e6 0.0
2.0505894469005463e6 664102.1338648016 0.0
0.0 0.0 0.0

-9.563529508036572e6 -2.486381104340988e6 0.0
-2.486381104340988e6 1.4484752477303635e7 0.0
0.0 0.0 0.0

393375.13235506543 3.843006767825164e6 0.0
3.843006767825164e6 -761242.1790677336 0.0
0.0 0.0 0.0

-628310.507664199 1.9863440070509717e6 0.0
1.9863440070509717e6 2.0769295470734811e6 0.0
0.0 0.0 0.0

-1.8616081592436982e6 3.2153332691614716e6 0.0
3.2153332691614716e6 738382.3520197406 0.0
0.0 0.0 0.0

-546532.922192543 3.3548393880972904e6 0.0
3.3548393880972904e6 1.57882356572398e6 0.0
0.0 0.0 0.0

-1.2581808167591835e6 2.14129362356906e6 0.0
2.14129362356906e6 3.1193503644330786e6 0.0
0.0 0.0 0.0

-372680.29031091137 2.1018244042221843e6 0.0
2.1018244042221843e6 772442.6117847629 0.0
0.0 0.0 0.0

-504787.0959292264 2.0961286455191928e6 0.0
2.0961286455191928e6 -360591.1040269461 0.0
0.0 0.0 0.0

-498593.40228643187 3.0161414739666805e6 0.0
3.0161414739666805e6 318428.383559707 0.0
0.0 0.0 0.0

-275068.8530475124 1.599667795220912e6 0.0
1.599667795220912e6 -67422.5925270021 0.0
0.0 0.0 0.0

-246557.75854670518 1.7034241081972467e6 0.0
1.7034241081972467e6 -277993.1017577447 0.0
0.0 0.0 0.0

1.2233793614824521e6 1.050934768938693e6 0.0
1.050934768938693e6 -1.6891061274689315e6 0.0
0.0 0.0 0.0

-596983.9851610172 2.8015873104183725e6 0.0
2.8015873104183725e6 68918.9333928478 0.0
0.0 0.0 0.0

-67473.63542220384 2.7954220433203764e6 0.0
2.7954220433203764e6 -831595.1130706238 0.0
0.0 0.0 0.0

1.0165378936495314e6 886793.8488718938 0.0
886793.8488718938 -1.486772452310666e6 0.0
0.0 0.0 0.0

-1.398600801300522e6 4.623144798813221e6 0.0
4.623144798813221e6 864189.691471054 0.0
0.0 0.0 0.0

-999811.4800133416 2.766159720130432e6 0.0
2.766159720130432e6 864047.7999524185 0.0
0.0 0.0 0.0

-1.700130132452255e6 -806085.4237002954 0.0
-806085.4237002954 2.2596607291249074e6 0.0
0.0 0.0 0.0

-485233.72691555705 2.4177565636268267e6 0.0
2.4177565636268267e6 793112.7500535874 0.0
0.0 0.0 0.0

-395557.0498186102 2.5419677520986903e6 0.0
2.5419677520986903e6 157980.26649435124 0.0
0.0 0.0 0.0

-350952.50978423585 2.4153699483226985e6 0.0
2.4153699483226985e6 -537492.68153208 0.0
0.0 0.0 0.0

1.307589078639443e6 1.119831239700276e6 0.0
1.119831239700276e6 -1.8033226869039307e6 0.0
0.0 0.0 0.0

97471.0649165771 3.267112465653934e6 0.0
3.267112465653934e6 -650978.0921293176 0.0
0.0 0.0 0.0

-407624.82939977845 2.527794939653364e6 0.0
2.527794939653364e6 -442047.3683285601 0.0
0.0 0.0 0.0

-132539.9415257102 2.3464035325744953e6 0.0
2.3464035325744953e6 -247716.9809212984 0.0
0.0 0.0 0.0

788885.9130002677 106136.45909894608 0.0
106136.45909894608 -844100.6992282718 0.0
0.0 0.0 0.0

92580.39644590246 -154885.52126887313 0.0
-154885.52126887313 3351.9763380121112 0.0
0.0 0.0 0.0

-419218.0127770774 3.074734146269363e6 0.0
3.074734146269363e6 -228828.264105181 0.0
0.0 0.0 0.0

-33141.648602440895 2.3383861232852545e6 0.0
2.3383861232852545e6 -1.0569692628606658e6 0.0
0.0 0.0 0.0

-68435.37418392874 2.293637992275187e6 0.0
2.293637992275187e6 -894983.6632621688 0.0
0.0 0.0 0.0

-6.804633366045248e6 -2.263413722170983e6 0.0
-2.263413722170983e6 1.1934968079365011e7 0.0
0.0 0.0 0.0

-2.3033191731788004e6 2.662657187724342e6 0.0
2.662657187724342e6 939451.0007499113 0.0
0.0 0.0 0.0

58960.49677728194 707301.8098655922 0.0
707301.8098655922 -68951.16343689985 0.0
0.0 0.0 0.0

-177544.1106540947 3.0185092477067225e6 0.0
3.0185092477067225e6 -352846.5168653443 0.0
0.0 0.0 0.0

-449310.3365420599 2.323648213649643e6 0.0
2.323648213649643e6 385958.8662225263 0.0
0.0 0.0 0.0

-234293.78538953204 911612.0288553876 0.0
911612.0288553876 764401.0670854389 0.0
0.0 0.0 0.0

-667686.6124110809 2.612033258919992e6 0.0
2.612033258919992e6 -160859.88768884068 0.0
0.0 0.0 0.0

-397041.6918924067 2.4116902763490197e6 0.0
2.4116902763490197e6 341375.20137222216 0.0
0.0 0.0 0.0

-341368.9994171445 2.3780165074438946e6 0.0
2.3780165074438946e6 407841.0137597358 0.0
0.0 0.0 0.0

-277168.30748540105 2.3861883386416705e6 0.0
2.3861883386416705e6 -491610.58902828774 0.0
0.0 0.0 0.0

-184727.65553118303 23437.207095283848 0.0
23437.207095283848 -424653.2584719575 0.0
0.0 0.0 0.0

-225302.2691710326 2.287984821434923e6 0.0
2.287984821434923e6 -589596.0176063955 0.0
0.0 0.0 0.0

-869750.2328753499 2.74929957780542e6 0.0
2.74929957780542e6 177618.70400411024 0.0
0.0 0.0 0.0

-996347.0727781433 2.386310188733828e6 0.0
2.386310188733828e6 237990.35636389756 0.0
0.0 0.0 0.0

-586256.6202894184 3.0423237067971737e6 0.0
3.0423237067971737e6 74629.1468635182 0.0
0.0 0.0 0.0

-575346.747104473 2.899289009396193e6 0.0
2.899289009396193e6 -20134.701864326606 0.0
0.0 0.0 0.0

1.3059905899451128e6 1.1244818681969536e6 0.0
1.1244818681969536e6 -1.8067735152998655e6 0.0
0.0 0.0 0.0

-246956.51710942533 2.5023454973947583e6 0.0
2.5023454973947583e6 -144529.8688620376 0.0
0.0 0.0 0.0

-961754.0072581914 2.856064300505541e6 0.0
2.856064300505541e6 345704.42575169884 0.0
0.0 0.0 0.0

-47371.337892433134 1.2619005491309569e6 0.0
1.2619005491309569e6 -940882.247048952 0.0
0.0 0.0 0.0

-3.6495774486126867e6 1.0320581868593466e6 0.0
1.0320581868593466e6 1.8223378156113208e6 0.0
0.0 0.0 0.0

3.5109365523841004e6 7.925430774758985e6 0.0
7.925430774758985e6 1.1703213897154253e7 0.0
0.0 0.0 0.0

-163715.35764553997 1.16320883690841e6 0.0
1.16320883690841e6 -545712.0167010162 0.0
0.0 0.0 0.0

-412707.48605379224 1.8482582276559786e6 0.0
1.8482582276559786e6 1.4554131328466758e6 0.0
0.0 0.0 0.0

-184752.26853627004 2.3175697392033087e6 0.0
2.3175697392033087e6 -752043.7107005792 0.0
0.0 0.0 0.0

-545777.4734728278 2.9397651085963757e6 0.0
2.9397651085963757e6 395134.7057147287 0.0
0.0 0.0 0.0

-2.1359242048626444e6 5.356893284793454e6 0.0
5.356893284793454e6 1.415223896825328e6 0.0
0.0 0.0 0.0

-131384.57002246854 2.099143152727884e6 0.0
2.099143152727884e6 -915810.1238904479 0.0
0.0 0.0 0.0

-405075.0147679318 3.419931873936271e6 0.0
3.419931873936271e6 -202553.55061140953 0.0
0.0 0.0 0.0

-124009.32633418171 1.891395934240247e6 0.0
1.891395934240247e6 -346885.4046910212 0.0
0.0 0.0 0.0

-1.6517962628264558e6 3.7678112345185275e6 0.0
3.7678112345185275e6 1.0227469481657809e6 0.0
0.0 0.0 0.0

77447.00881796697 2.491971722568586e6 0.0
2.491971722568586e6 -1.1976315683133786e6 0.0
0.0 0.0 0.0

-277035.4746984742 3.2694213180817976e6 0.0
3.2694213180817976e6 -235783.70445648633 0.0
0.0 0.0 0.0

-540802.1511879645 2.0966436939223418e6 0.0
2.0966436939223418e6 127432.1475746161 0.0
0.0 0.0 0.0

-483902.83337974525 3.9635387912256257e6 0.0
3.9635387912256257e6 298098.84034563205 0.0
0.0 0.0 0.0

-220848.21756857872 2.379280427939609e6 0.0
2.379280427939609e6 -284573.06282521033 0.0
0.0 0.0 0.0

-340798.1168295277 1.860844223740632e6 0.0
1.860844223740632e6 925102.3387036889 0.0
0.0 0.0 0.0

-1.094201400953589e6 2.353828262198304e6 0.0
2.353828262198304e6 -274613.64204978634 0.0
0.0 0.0 0.0

-72357.08959577938 2.418054837092209e6 0.0
2.418054837092209e6 -461680.4958083272 0.0
0.0 0.0 0.0

-1.3658722762716473e6 4.758318788052302e6 0.0
4.758318788052302e6 888947.5106601726 0.0
0.0 0.0 0.0

-668761.0120806356 4.0532123721713913e6 0.0
4.0532123721713913e6 495827.89124573197 0.0
0.0 0.0 0.0

-283121.84742107394 1.9333821579686678e6 0.0
1.9333821579686678e6 -455473.24561942153 0.0
0.0 0.0 0.0

-995990.5263122069 1.2368449349842872e6 0.0
1.2368449349842872e6 2.672165470226111e6 0.0
0.0 0.0 0.0

-318148.6050686067 2.2934474037992675e6 0.0
2.2934474037992675e6 -597554.3775577669 0.0
0.0 0.0 0.0

-528590.9942361043 2.4857604438645826e6 0.0
2.4857604438645826e6 -300924.2519069239 0.0
0.0 0.0 0.0

-298206.417833723 1.5036333689626332e6 0.0
1.5036333689626332e6 -16643.712136722592 0.0
0.0 0.0 0.0

-423972.99526757246 850644.1430520547 0.0
850644.1430520547 369383.1211095217 0.0
0.0 0.0 0.0

-107548.95088546885 3.2144912272679447e6 0.0
3.2144912272679447e6 -462413.6875377231 0.0
0.0 0.0 0.0

-868581.311036149 3.713686262485906e6 0.0
3.713686262485906e6 442445.35545599286 0.0
0.0 0.0 0.0

795677.4627789756 2.956817439063891e6 0.0
2.956817439063891e6 -1.5337302403178776e6 0.0
0.0 0.0 0.0

66652.22336143674 928043.8682062429 0.0
928043.8682062429 -965977.6931242568 0.0
0.0 0.0 0.0

-1.3430180469262097e6 6.622966324439101e6 0.0
6.622966324439101e6 945644.3813212886 0.0
0.0 0.0 0.0

1.1309691409649672e6 1.355408020897239e6 0.0
1.355408020897239e6 -1.720556310835213e6 0.0
0.0 0.0 0.0

-146303.48883510535 3.17527052907216e6 0.0
3.17527052907216e6 -461803.50098875846 0.0
0.0 0.0 0.0

-835369.0995995176 3.240208341571374e6 0.0
3.240208341571374e6 246141.71804122836 0.0
0.0 0.0 0.0

-1.446218317639584e7 6.086101632924706e6 0.0
6.086101632924706e6 3.740373687454146e7 0.0
0.0 0.0 0.0

1.6255067170069143e6 1.1283818149268217e6 0.0
1.1283818149268217e6 -2.541947696502045e6 0.0
0.0 0.0 0.0

26089.800485845364 3.6008915112598343e6 0.0
3.6008915112598343e6 1.2099641715033934e6 0.0
0.0 0.0 0.0

-659564.1368201369 4.058882424859988e6 0.0
4.058882424859988e6 443151.70918647945 0.0
0.0 0.0 0.0

-840954.6874207751 2.0484913978374887e6 0.0
2.0484913978374887e6 674104.8497614104 0.0
0.0 0.0 0.0

-637381.4237044292 6.587644999341369e6 0.0
6.587644999341369e6 862242.2352142504 0.0
0.0 0.0 0.0

-213969.92927055564 2.9596262664554557e6 0.0
2.9596262664554557e6 6443.9090280997625 0.0
0.0 0.0 0.0

-495808.7099887798 3.7565296259042555e6 0.0
3.7565296259042555e6 233547.88596167893 0.0
0.0 0.0 0.0

-661940.533038176 2.2238999855537033e6 0.0
2.2238999855537033e6 113419.53392494927 0.0
0.0 0.0 0.0

-221371.47935434722 1.919178494183075e6 0.0
1.919178494183075e6 -363649.3886148853 0.0
0.0 0.0 0.0

-259604.65636818908 -88588.38882507672 0.0
-88588.38882507672 -463283.6286919014 0.0
0.0 0.0 0.0

-1.0321930634508191e6 3.140010373882285e6 0.0
3.140010373882285e6 1.0281015589635987e6 0.0
0.0 0.0 0.0

-1.29772180477055e6 3.8016458944449406e6 0.0
3.8016458944449406e6 876590.618866445 0.0
0.0 0.0 0.0

-464266.74305710767 1.669818865599651e6 0.0
1.669818865599651e6 1.7167963333516163e6 0.0
0.0 0.0 0.0

-542338.9722838537 3.003823463429259e6 0.0
3.003823463429259e6 -74669.3883793896 0.0
0.0 0.0 0.0

-652350.6387868068 2.190153663244693e6 0.0
2.190153663244693e6 187579.15117342077 0.0
0.0 0.0 0.0

-72278.87860122151 2.678920013373032e6 0.0
2.678920013373032e6 -809892.502740576 0.0
0.0 0.0 0.0

-755276.9166399543 1.9504489746293046e6 0.0
1.9504489746293046e6 2.2699664927086746e6 0.0
0.0 0.0 0.0

-660984.456047666 2.3830550701636057e6 0.0
2.3830550701636057e6 241979.5442621248 0.0
0.0 0.0 0.0

-42304.28792344121 2.077499943668063e6 0.0
2.077499943668063e6 22561.63398676317 0.0
0.0 0.0 0.0

-2.311531169066013e6 1.5737623782644507e6 0.0
1.5737623782644507e6 1.389975839964289e6 0.0
0.0 0.0 0.0

-1.8345498914225968e6 -669063.3733074198 0.0
-669063.3733074198 2.5626328012214624e6 0.0
0.0 0.0 0.0

-570116.6055517502 3.04031106281132e6 0.0
3.04031106281132e6 -148099.83342878686 0.0
0.0 0.0 0.0

-1.2828754133640416e6 2.3522970367839113e6 0.0
2.3522970367839113e6 -352.38972153828945 0.0
0.0 0.0 0.0

16160.30941388174 2.3970298544904017e6 0.0
2.3970298544904017e6 -1.282133526601405e6 0.0
0.0 0.0 0.0

-2.226909886489513e6 2.717901106139763e6 0.0
2.717901106139763e6 686164.9491163128 0.0
0.0 0.0 0.0

-2.4385674557995535e6 2.604163737384012e6 0.0
2.604163737384012e6 1.0071178801204796e6 0.0
0.0 0.0 0.0

-2.7898241391310175e6 2.5163748453699043e6 0.0
2.5163748453699043e6 1.1961242701807453e6 0.0
0.0 0.0 0.0

-1.681323803103838e6 4.300950154072909e6 0.0
4.300950154072909e6 1.1185974941013027e6 0.0
0.0 0.0 0.0

33849.74776706981 418974.21174979245 0.0
418974.21174979245 206729.24623069566 0.0
0.0 0.0 0.0

1.3811316877822073e6 1.1050884716501376e6 0.0
1.1050884716501376e6 -1.8060637237737011e6 0.0
0.0 0.0 0.0

-742441.6161650959 1.8801045813750543e6 0.0
1.8801045813750543e6 1.320200100192726e6 0.0
0.0 0.0 0.0

-1.5454927665382798e6 4.968494882114448e6 0.0
4.968494882114448e6 982539.3460233142 0.0
0.0 0.0 0.0

-201779.67546544303 2.1990299343441995e6 0.0
2.1990299343441995e6 -764858.8729439328 0.0
0.0 0.0 0.0

-392334.00348251266 -523802.6790320562 0.0
-523802.6790320562 494606.61806705943 0.0
0.0 0.0 0.0

-134453.2621229402 3.046287741900332e6 0.0
3.046287741900332e6 -417696.1389182478 0.0
0.0 0.0 0.0

-472305.6450657454 2.6342976756412126e6 0.0
2.6342976756412126e6 -352170.952670599 0.0
0.0 0.0 0.0

-296237.1032378678 2.3066036963454178e6 0.0
2.3066036963454178e6 -619530.924505542 0.0
0.0 0.0 0.0

-36527.41273874132 2.7406860165682817e6 0.0
2.7406860165682817e6 -944244.3494582877 0.0
0.0 0.0 0.0

458160.49453271326 -67775.57105795934 0.0
-67775.57105795934 -505304.8079363849 0.0
0.0 0.0 0.0

-229452.23650155496 2.3639554429328423e6 0.0
2.3639554429328423e6 -639420.3585287897 0.0
0.0 0.0 0.0

-342476.30533514556 2.566663777352368e6 0.0
2.566663777352368e6 -120798.49657201272 0.0
0.0 0.0 0.0

-117381.79029336714 2.9446192805091017e6 0.0
2.9446192805091017e6 602404.485508906 0.0
0.0 0.0 0.0

-2.688240079679968e6 2.323290788782298e6 0.0
2.323290788782298e6 1.2615276400181106e6 0.0
0.0 0.0 0.0

-233700.31119194374 1.8344032543201305e6 0.0
1.8344032543201305e6 -355893.5146219554 0.0
0.0 0.0 0.0

401146.5081182936 4.0252187821805784e6 0.0
4.0252187821805784e6 -632535.6234307112 0.0
0.0 0.0 0.0

1.13453681200702e6 1.1510771312058358e6 0.0
1.1510771312058358e6 -1.6576165472508904e6 0.0
0.0 0.0 0.0

240027.80159335647 -70400.89720770967 0.0
-70400.89720770967 -230439.23632162367 0.0
0.0 0.0 0.0

-1.6587347266046072e6 2.2574117342784484e6 0.0
2.2574117342784484e6 694341.5816323914 0.0
0.0 0.0 0.0

-1.1277857713806976e6 2.3563610533081377e6 0.0
2.3563610533081377e6 -472713.4080584604 0.0
0.0 0.0 0.0

-105617.25030524784 2.4667933253672593e6 0.0
2.4667933253672593e6 -757664.9847380719 0.0
0.0 0.0 0.0

-1.7481047033736326e6 4.535219582968817e6 0.0
4.535219582968817e6 1.096231710539165e6 0.0
0.0 0.0 0.0

1.104936700447927e6 1.79608804067265e6 0.0
1.79608804067265e6 -2.186392165989514e6 0.0
0.0 0.0 0.0

-633619.3872001118 3.64578703724628e6 0.0
3.64578703724628e6 187864.76806570543 0.0
0.0 0.0 0.0

-518406.3675575623 2.3533215431046006e6 0.0
2.3533215431046006e6 632250.7207366186 0.0
0.0 0.0 0.0

-109934.70827357721 2.326050540154329e6 0.0
2.326050540154329e6 -803651.353536784 0.0
0.0 0.0 0.0

-1.470246921598502e6 2.9121163529685726e6 0.0
2.9121163529685726e6 548070.7329644564 0.0
0.0 0.0 0.0

-273353.08011006436 1.784251908411782e6 0.0
1.784251908411782e6 -338608.7623188447 0.0
0.0 0.0 0.0

-149295.48642317188 2.272254438901241e6 0.0
2.272254438901241e6 -894570.7717083491 0.0
0.0 0.0 0.0

-175590.01093783727 2.307567456267513e6 0.0
2.307567456267513e6 -916173.2300200873 0.0
0.0 0.0 0.0

-920345.3558055823 2.5507834804424173e6 0.0
2.5507834804424173e6 83.43306139792548 0.0
0.0 0.0 0.0

267585.49878641265 3.611841657418354e6 0.0
3.611841657418354e6 -535513.5158968979 0.0
0.0 0.0 0.0

-651757.9862286565 6.364383903045502e6 0.0
6.364383903045502e6 918363.0179705828 0.0
0.0 0.0 0.0

-825174.1586310326 3.769575618337246e6 0.0
3.769575618337246e6 449926.55519535375 0.0
0.0 0.0 0.0

-1.8819673346575669e6 2.70795009522543e6 0.0
2.70795009522543e6 497102.287495979 0.0
0.0 0.0 0.0

-559429.608587648 2.416575217328473e6 0.0
2.416575217328473e6 199605.6034606971 0.0
0.0 0.0 0.0

1.0491862826020923e6 1.735721292996245e6 0.0
1.735721292996245e6 -2.1830241370744132e6 0.0
0.0 0.0 0.0

-425369.49282128294 2.6963903303300054e6 0.0
2.6963903303300054e6 284262.51915154635 0.0
0.0 0.0 0.0

1.2342121343414253e6 1.362108211799852e6 0.0
1.362108211799852e6 -1.9418347889494156e6 0.0
0.0 0.0 0.0

-1.0026758021516146e6 3.0376282665139884e6 0.0
3.0376282665139884e6 709303.7115427695 0.0
0.0 0.0 0.0

-1.0077417747042084e6 2.930097006253971e6 0.0
2.930097006253971e6 658716.9196807632 0.0
0.0 0.0 0.0

-198079.05437625234 2.5348539307804145e6 0.0
2.5348539307804145e6 -744980.6222577579 0.0
0.0 0.0 0.0

-344113.0661566121 2.828880558555117e6 0.0
2.828880558555117e6 173956.5683375549 0.0
0.0 0.0 0.0

-1.6894487184718354e6 3.849016789723704e6 0.0
3.849016789723704e6 1.0029761713544308e6 0.0
0.0 0.0 0.0

-377855.3411707408 1.7307793340269756e6 0.0
1.7307793340269756e6 159779.38736526377 0.0
0.0 0.0 0.0

72862.01733491363 -73362.90183595917 0.0
-73362.90183595917 -50545.853982496075 0.0
0.0 0.0 0.0

1.112681460247719e6 1.1078732266573985e6 0.0
1.1078732266573985e6 -1.7139428708652165e6 0.0
0.0 0.0 0.0

614966.2933001188 1.2189715331661534e6 0.0
1.2189715331661534e6 -1.480639925894224e6 0.0
0.0 0.0 0.0

-1.7998079582927092e6 4.81120222208389e6 0.0
4.81120222208389e6 1.2649214869364563e6 0.0
0.0 0.0 0.0

-499456.71672426106 3.2529794969941303e6 0.0
3.2529794969941303e6 180918.05251248152 0.0
0.0 0.0 0.0

82924.31692079309 2.466651456308057e6 0.0
2.466651456308057e6 -1.2805345284255873e6 0.0
0.0 0.0 0.0

-577376.776104981 2.8618177141074413e6 0.0
2.8618177141074413e6 1.4312494590220163e6 0.0
0.0 0.0 0.0

605423.0865398161 24633.376710865625 0.0
24633.376710865625 -600337.1163319896 0.0
0.0 0.0 0.0

-676649.7020766076 2.4228724619004265e6 0.0
2.4228724619004265e6 1.0272218296521031e6 0.0
0.0 0.0 0.0

-1.6029054950423394e6 1.8150050447226989e6 0.0
1.8150050447226989e6 323743.3675859473 0.0
0.0 0.0 0.0

-330714.3228449547 2.5395958771478706e6 0.0
2.5395958771478706e6 5928.429094103034 0.0
0.0 0.0 0.0

77276.29319196573 3.2963514342543315e6 0.0
3.2963514342543315e6 -594801.0646050975 0.0
0.0 0.0 0.0

-1.0467725501377818e6 2.6248454773009163e6 0.0
2.6248454773009163e6 18547.56840692344 0.0
0.0 0.0 0.0

-435664.7305690145 2.6281338099541813e6 0.0
2.6281338099541813e6 135137.15547643424 0.0
0.0 0.0 0.0

-1.6365833325299667e6 2.0556497832848763e6 0.0
2.0556497832848763e6 2.9720087719488014e6 0.0
0.0 0.0 0.0

-746676.1825092366 2.547374379376888e6 0.0
2.547374379376888e6 -309436.08164212503 0.0
0.0 0.0 0.0

-701880.0893657636 2.8322158788522505e6 0.0
2.8322158788522505e6 -219332.49621283854 0.0
0.0 0.0 0.0

-901027.6215987982 425969.29972310754 0.0
425969.29972310754 1.3043606322662705e6 0.0
0.0 0.0 0.0

-4.988886073059738e6 2.0226020064201192e6 0.0
2.0226020064201192e6 4.697503397264457e6 0.0
0.0 0.0 0.0

-362335.2549333296 2.7445983577886345e6 0.0
2.7445983577886345e6 380899.48504238005 0.0
0.0 0.0 0.0

60056.80358346796 2.501293756398773e6 0.0
2.501293756398773e6 -1.274977871918591e6 0.0
0.0 0.0 0.0

-593100.2527844734 2.1028272131185364e6 0.0
2.1028272131185364e6 92506.1442650267 0.0
0.0 0.0 0.0

-484982.3206705601 2.591745294535635e6 0.0
2.591745294535635e6 -313190.1492077552 0.0
0.0 0.0 0.0

1.1890012718062343e6 4.696564294706888e6 0.0
4.696564294706888e6 -55535.396360730636 0.0
0.0 0.0 0.0

-64843.14554002147 -194473.35996797853 0.0
-194473.35996797853 -237720.03044194065 0.0
0.0 0.0 0.0

1.2056891816326666e6 446654.0620443423 0.0
446654.0620443423 -1.334014259115179e6 0.0
0.0 0.0 0.0

-736622.2925351618 2.5996188300798247e6 0.0
2.5996188300798247e6 6399.290879491222 0.0
0.0 0.0 0.0

-153034.40186677335 2.3793475364783145e6 0.0
2.3793475364783145e6 -615326.4169424981 0.0
0.0 0.0 0.0

-473524.7412427877 -210232.49768200133 0.0
-210232.49768200133 980002.8910562729 0.0
0.0 0.0 0.0

-735805.0151178917 4.0060875468656817e6 0.0
4.0060875468656817e6 546591.4866784005 0.0
0.0 0.0 0.0

-3.072933419056736e6 2.2766410989278583e6 0.0
2.2766410989278583e6 1.3121883482261668e6 0.0
0.0 0.0 0.0

-294886.6318889407 3.28751899943493e6 0.0
3.28751899943493e6 151737.7319277515 0.0
0.0 0.0 0.0

439968.38953549985 -80879.1702302236 0.0
-80879.1702302236 -485675.66949311004 0.0
0.0 0.0 0.0

-2.820916021773163e6 1.6293859674033215e6 0.0
1.6293859674033215e6 1.5553619360780537e6 0.0
0.0 0.0 0.0

-113265.41132273586 2.7392091312505268e6 0.0
2.7392091312505268e6 -682441.660068377 0.0
0.0 0.0 0.0

-3.279117140556252e6 2.2332491413466483e6 0.0
2.2332491413466483e6 1.2900164253556787e6 0.0
0.0 0.0 0.0

-234088.31430272467 1.4825330936686336e6 0.0
1.4825330936686336e6 144155.14717550724 0.0
0.0 0.0 0.0

-457602.03009931516 2.7817921705496e6 0.0
2.7817921705496e6 -289040.8394972179 0.0
0.0 0.0 0.0

104062.4127138654 3.1155490712173227e6 0.0
3.1155490712173227e6 -1.1518116608123686e6 0.0
0.0 0.0 0.0

-66056.13028399384 2.4176050691668647e6 0.0
2.4176050691668647e6 -784158.7489675509 0.0
0.0 0.0 0.0

-567959.3969518222 3.500712935958755e6 0.0
3.500712935958755e6 121381.97093153125 0.0
0.0 0.0 0.0

-2.0831247723691296e6 8.049470489420483e6 0.0
8.049470489420483e6 198709.9334780079 0.0
0.0 0.0 0.0

497897.37258081365 -58019.82360502629 0.0
-58019.82360502629 -572453.8426935984 0.0
0.0 0.0 0.0

-2.1461569523844724e6 5.25177895487625e6 0.0
5.25177895487625e6 1.173559142192163e6 0.0
0.0 0.0 0.0

-1.2428748334400442e6 5.026488269244336e6 0.0
5.026488269244336e6 1.0702175524153826e6 0.0
0.0 0.0 0.0

-148859.90018320177 -252391.06840593813 0.0
-252391.06840593813 121225.68823236594 0.0
0.0 0.0 0.0

1.3692231668845734e6 1.1195599333479982e6 0.0
1.1195599333479982e6 -1.8067903949573725e6 0.0
0.0 0.0 0.0

-767468.4527955544 2.7126688620419414e6 0.0
2.7126688620419414e6 25925.848253992735 0.0
0.0 0.0 0.0

-747462.976953744 2.471401475010038e6 0.0
2.471401475010038e6 1.1041443849722072e6 0.0
0.0 0.0 0.0

-76314.21276747627 324994.0052201453 0.0
324994.0052201453 333842.0477399956 0.0
0.0 0.0 0.0

-109785.45153200667 1.9867115894825454e6 0.0
1.9867115894825454e6 -336248.04470370914 0.0
0.0 0.0 0.0

-674337.8753038449 2.6247878274375573e6 0.0
2.6247878274375573e6 1.091435754840969e6 0.0
0.0 0.0 0.0

-951066.032556358 2.5155587636302845e6 0.0
2.5155587636302845e6 293154.9258034289 0.0
0.0 0.0 0.0

-131477.22765136004 2.481641706972548e6 0.0
2.481641706972548e6 -997361.8810183989 0.0
0.0 0.0 0.0

-1.398181653952805e6 4.48804163200636e6 0.0
4.48804163200636e6 911089.0161283498 0.0
0.0 0.0 0.0

-52669.896575323095 -217469.94503745085 0.0
-217469.94503745085 -167427.7990308801 0.0
0.0 0.0 0.0

-776722.4089596481 2.46591641977017e6 0.0
2.46591641977017e6 -97344.20699003793 0.0
0.0 0.0 0.0

-629194.609517389 861488.5482168762 0.0
861488.5482168762 1.3842144843927217e6 0.0
0.0 0.0 0.0

-547271.3514238236 2.0018176355579814e6 0.0
2.0018176355579814e6 37692.0340625401 0.0
0.0 0.0 0.0

-862572.0825024896 3.0267753777460656e6 0.0
3.0267753777460656e6 224088.67780262977 0.0
0.0 0.0 0.0

-2.233571234360153e6 4.923971648439952e6 0.0
4.923971648439952e6 1.5157339600819717e6 0.0
0.0 0.0 0.0

113327.36330643925 2.457976621767511e6 0.0
2.457976621767511e6 -1.1782744044951221e6 0.0
0.0 0.0 0.0

-4.0921681538924864e6 1.9371834300514623e6 0.0
1.9371834300514623e6 1.4875569340834562e6 0.0
0.0 0.0 0.0

-281544.7997544148 -740980.1236844622 0.0
-740980.1236844622 -221829.8062843325 0.0
0.0 0.0 0.0

-444923.56174581463 -648508.0250641436 0.0
-648508.0250641436 49536.86029134219 0.0
0.0 0.0 0.0

-28685.665345926624 2.985310143559626e6 0.0
2.985310143559626e6 -180128.40566444176 0.0
0.0 0.0 0.0

-195663.41146914673 3.4133624991970942e6 0.0
3.4133624991970942e6 1.092857475166948e6 0.0
0.0 0.0 0.0

-110535.85860723363 3.1549665621595574e6 0.0
3.1549665621595574e6 -370487.5812586478 0.0
0.0 0.0 0.0

256112.62700683312 1.382237273003154e6 0.0
1.382237273003154e6 -309285.60864008043 0.0
0.0 0.0 0.0

-225894.48222908733 1.1493780323556545e6 0.0
1.1493780323556545e6 -262255.77791142574 0.0
0.0 0.0 0.0

-312004.03746797243 3.092832534528241e6 0.0
3.092832534528241e6 -222442.46360675414 0.0
0.0 0.0 0.0

-1.7875526599064171e6 4.1101723978354344e6 0.0
4.1101723978354344e6 1.10028296824219e6 0.0
0.0 0.0 0.0

134717.16346370667 2.586350271545056e6 0.0
2.586350271545056e6 -1.1749182474396382e6 0.0
0.0 0.0 0.0

-848657.5855983566 3.035293122794442e6 0.0
3.035293122794442e6 1.5186497791771023e6 0.0
0.0 0.0 0.0

-339206.54099377675 2.765683557289548e6 0.0
2.765683557289548e6 294680.8655591641 0.0
0.0 0.0 0.0

-3.446838374054621e6 2.0056061886631702e6 0.0
2.0056061886631702e6 1.5570268219895673e6 0.0
0.0 0.0 0.0

-237677.0260258225 2.258841472022732e6 0.0
2.258841472022732e6 31716.137589324368 0.0
0.0 0.0 0.0

938720.1210766863 285841.3475936329 0.0
285841.3475936329 -1.1487495492676976e6 0.0
0.0 0.0 0.0

-93994.54212168235 804547.7869851756 0.0
804547.7869851756 -395438.5272060131 0.0
0.0 0.0 0.0

-1.7569693915721108e6 4.1863255214677937e6 0.0
4.1863255214677937e6 1.11582210585349e6 0.0
0.0 0.0 0.0

-1.2131826518662376e6 3.2763415570553257e6 0.0
3.2763415570553257e6 1.548699881523943e6 0.0
0.0 0.0 0.0

-3.8709653028738825e6 -1.113077123836666e6 0.0
-1.113077123836666e6 4.605537407386706e6 0.0
0.0 0.0 0.0

-155408.99160833066 3.1757487170726666e6 0.0
3.1757487170726666e6 -321528.80038967455 0.0
0.0 0.0 0.0

-248038.21732148578 3.4804571283586565e6 0.0
3.4804571283586565e6 -754584.9677715672 0.0
0.0 0.0 0.0

-661494.664239352 3.0099073597000213e6 0.0
3.0099073597000213e6 1.2244593952952058e6 0.0
0.0 0.0 0.0

-775985.1565229489 1.3896446948010607e6 0.0
1.3896446948010607e6 2.0464097313200245e6 0.0
0.0 0.0 0.0

-903197.986802362 2.42564722871863e6 0.0
2.42564722871863e6 208113.21323516546 0.0
0.0 0.0 0.0

-7.534735205356413e6 2.9119335580677288e6 0.0
2.9119335580677288e6 1.6971758782178774e7 0.0
0.0 0.0 0.0

-768831.2193853635 3.8118394208541056e6 0.0
3.8118394208541056e6 404991.9570252166 0.0
0.0 0.0 0.0

-342896.7505817524 2.3457151290405756e6 0.0
2.3457151290405756e6 -549341.6907592083 0.0
0.0 0.0 0.0

-943017.4489125274 2.964244424308649e6 0.0
2.964244424308649e6 668196.7859204479 0.0
0.0 0.0 0.0

1.338351561984581e6 1.1452065758464301e6 0.0
1.1452065758464301e6 -1.826246636566443e6 0.0
0.0 0.0 0.0

-2.5307977720271973e6 4.646908961953592e6 0.0
4.646908961953592e6 1.4757851308365534e6 0.0
0.0 0.0 0.0

-18680.967617325266 799407.7130000587 0.0
799407.7130000587 -158736.7191319023 0.0
0.0 0.0 0.0

99192.61902401233 3.239682247072171e6 0.0
3.239682247072171e6 -585957.0420345694 0.0
0.0 0.0 0.0

-602971.1842266694 2.9117329998156233e6 0.0
2.9117329998156233e6 -169019.4289976665 0.0
0.0 0.0 0.0

-1.0946804670581464e6 2.6071673246496394e6 0.0
2.6071673246496394e6 138013.87909339694 0.0
0.0 0.0 0.0

-12625.755693367159 1.6092124862782108e6 0.0
1.6092124862782108e6 210206.9535978448 0.0
0.0 0.0 0.0

-27574.334881863324 1.4696013825608399e6 0.0
1.4696013825608399e6 -1.121814005600812e6 0.0
0.0 0.0 0.0

-3.1453527424794124e6 1.9178258881318728e6 0.0
1.9178258881318728e6 1.1015111664192225e6 0.0
0.0 0.0 0.0

-584380.2634990099 3.63878377393944e6 0.0
3.63878377393944e6 431411.0492573068 0.0
0.0 0.0 0.0

587908.010656982 -14459.53906911085 0.0
-14459.53906911085 -603956.3797027341 0.0
0.0 0.0 0.0

-1.2159683932861292e6 2.4931918352118246e6 0.0
2.4931918352118246e6 55602.997873053944 0.0
0.0 0.0 0.0

-3.810680955549899e6 691867.7707917267 0.0
691867.7707917267 3.0016137960005985e6 0.0
0.0 0.0 0.0

-493745.53064810846 3.2439245738263577e6 0.0
3.2439245738263577e6 172125.68490660377 0.0
0.0 0.0 0.0

-2.5261659040549244e6 1.0223973485871383e6 0.0
1.0223973485871383e6 906235.1604451962 0.0
0.0 0.0 0.0

-426623.10546874773 3.38637933262872e6 0.0
3.38637933262872e6 -393472.7744355637 0.0
0.0 0.0 0.0

-310983.11793654657 1.5534362241717598e6 0.0
1.5534362241717598e6 82766.76498741112 0.0
0.0 0.0 0.0

256467.16197335708 933347.0043093464 0.0
933347.0043093464 -327393.29128379235 0.0
0.0 0.0 0.0

-120191.76121469449 1.9826048427770906e6 0.0
1.9826048427770906e6 -135975.54219539056 0.0
0.0 0.0 0.0

-498233.333105958 2.8922317080393895e6 0.0
2.8922317080393895e6 32303.079700713773 0.0
0.0 0.0 0.0

-344655.63726619736 -383686.3626785987 0.0
-383686.3626785987 564490.4478069203 0.0
0.0 0.0 0.0

-184785.82822971055 2.687204139408924e6 0.0
2.687204139408924e6 -792838.3993768847 0.0
0.0 0.0 0.0

-380732.9863609822 1.4421060197384474e6 0.0
1.4421060197384474e6 -25414.332905399293 0.0
0.0 0.0 0.0

-281733.1887905861 2.369761267711391e6 0.0
2.369761267711391e6 -531821.7102116841 0.0
0.0 0.0 0.0

260192.659670788 475.10165723449455 0.0
475.10165723449455 -192457.37222095148 0.0
0.0 0.0 0.0

-37333.47729850857 2.596293780921351e6 0.0
2.596293780921351e6 -673548.8922321174 0.0
0.0 0.0 0.0

-607523.9142849188 2.942305388250138e6 0.0
2.942305388250138e6 -161602.37691122526 0.0
0.0 0.0 0.0

-91234.75646644947 2.8661147546760202e6 0.0
2.8661147546760202e6 141700.52381565445 0.0
0.0 0.0 0.0

-632605.3724786857 2.511472949299278e6 0.0
2.511472949299278e6 -26508.29656533472 0.0
0.0 0.0 0.0

-172524.6701686247 3.1189739425771656e6 0.0
3.1189739425771656e6 -436496.7168298426 0.0
0.0 0.0 0.0

-2.1243648015259183e6 5.107298040364511e6 0.0
5.107298040364511e6 1.1628334262696025e6 0.0
0.0 0.0 0.0

-495401.00077310274 2.756734788309442e6 0.0
2.756734788309442e6 -242509.96552490257 0.0
0.0 0.0 0.0

392239.3126515186 5.833315626617116e6 0.0
5.833315626617116e6 -1.7870891114684213e6 0.0
0.0 0.0 0.0

-505136.8560432342 2.975461758121915e6 0.0
2.975461758121915e6 -189971.24332634645 0.0
0.0 0.0 0.0

-80270.8249578606 2.1049257133896295e6 0.0
2.1049257133896295e6 -924912.2574130393 0.0
0.0 0.0 0.0

-677275.5535647504 3.0820693359977724e6 0.0
3.0820693359977724e6 12282.240032439906 0.0
0.0 0.0 0.0

-3.179164576123394e6 1.9317202345468705e6 0.0
1.9317202345468705e6 1.3407929064859839e6 0.0
0.0 0.0 0.0

-609892.562592668 3.019217794375588e6 0.0
3.019217794375588e6 -159391.84917671094 0.0
0.0 0.0 0.0

-378952.6998688709 3.371372360828904e6 0.0
3.371372360828904e6 -93651.59181273826 0.0
0.0 0.0 0.0

264528.1602852663 2.568728687302415e6 0.0
2.568728687302415e6 -1.0916958949146753e6 0.0
0.0 0.0 0.0

-349627.51317150757 2.557314528527475e6 0.0
2.557314528527475e6 803755.5725657505 0.0
0.0 0.0 0.0

1.0690686063727124e6 989197.7575229403 0.0
989197.7575229403 -1.5163170277106045e6 0.0
0.0 0.0 0.0

-625394.5056212415 3.176821267268868e6 0.0
3.176821267268868e6 175488.26832354092 0.0
0.0 0.0 0.0

1.2721965236330945e6 1.282498959661916e6 0.0
1.282498959661916e6 -1.9094455217879114e6 0.0
0.0 0.0 0.0

-843061.336266086 2.9224376236097636e6 0.0
2.9224376236097636e6 285790.43828740687 0.0
0.0 0.0 0.0

-778593.9884296969 3.9506268925807127e6 0.0
3.9506268925807127e6 578201.1329016695 0.0
0.0 0.0 0.0

-1.192687401651098e6 2.6887324205802707e6 0.0
2.6887324205802707e6 247782.80714738922 0.0
0.0 0.0 0.0

-1.4273946522926535e6 1.911682853653745e6 0.0
1.911682853653745e6 259352.30439640535 0.0
0.0 0.0 0.0

-1.0991323001390358e6 1.144503851453713e6 0.0
1.144503851453713e6 1.714407273261637e6 0.0
0.0 0.0 0.0

-48565.733947793575 2.6193207778947977e6 0.0
2.6193207778947977e6 -262849.31363240664 0.0
0.0 0.0 0.0

-3.163808966747658e6 1.3794171330451227e6 0.0
1.3794171330451227e6 1.3010213364699294e6 0.0
0.0 0.0 0.0

-402800.4012274835 2.325170315465752e6 0.0
2.325170315465752e6 1.0253404526377209e6 0.0
0.0 0.0 0.0

-2164.2764144709217 1.4977074592491456e6 0.0
1.4977074592491456e6 -776147.2095873528 0.0
0.0 0.0 0.0

-1.0383793045958516e6 2.558595654573736e6 0.0
2.558595654573736e6 92335.59833685338 0.0
0.0 0.0 0.0

-546827.5483486586 3.693782201641274e6 0.0
3.693782201641274e6 -331147.3984644522 0.0
0.0 0.0 0.0

-482934.67331286735 2.037118317154807e6 0.0
2.037118317154807e6 -100288.49436477397 0.0
0.0 0.0 0.0

1.399155391928021e6 1.1169069647557512e6 0.0
1.1169069647557512e6 -1.838151983573868e6 0.0
0.0 0.0 0.0

-198986.13635306773 2.4320116871420685e6 0.0
2.4320116871420685e6 -812154.5422718124 0.0
0.0 0.0 0.0

1.9224615392018463e6 2.3109409531205343e6 0.0
2.3109409531205343e6 -1.9994423103282247e6 0.0
0.0 0.0 0.0

-879670.5950374895 1.340655962318149e6 0.0
1.340655962318149e6 2.376985482432686e6 0.0
0.0 0.0 0.0

-811473.7976918377 2.627429521607422e6 0.0
2.627429521607422e6 -57221.57731706716 0.0
0.0 0.0 0.0

-234820.7773239235 -515216.25077150716 0.0
-515216.25077150716 279440.55416204483 0.0
0.0 0.0 0.0

-2.0521328123376605e6 2.952061997357194e6 0.0
2.952061997357194e6 844022.3339652063 0.0
0.0 0.0 0.0

-2.72039334727698e6 1.5648123461034514e6 0.0
1.5648123461034514e6 1.6523551991051247e6 0.0
0.0 0.0 0.0

-392572.2058125845 2.4289369873936055e6 0.0
2.4289369873936055e6 -455061.5617436541 0.0
0.0 0.0 0.0

21397.78613336984 3.151448817651195e6 0.0
3.151448817651195e6 -454814.04554424604 0.0
0.0 0.0 0.0

-90550.28079794213 2.435595981547987e6 0.0
2.435595981547987e6 -557368.2983072632 0.0
0.0 0.0 0.0

-577484.1214682903 1.9785329382918237e6 0.0
1.9785329382918237e6 120016.16003650823 0.0
0.0 0.0 0.0

-615727.0632749542 1.9133635408676532e6 0.0
1.9133635408676532e6 -273912.7390425198 0.0
0.0 0.0 0.0

212920.79291726783 1.3305228568743074e6 0.0
1.3305228568743074e6 -888551.3986852521 0.0
0.0 0.0 0.0

-555908.3584902858 1.9840087002825951e6 0.0
1.9840087002825951e6 67943.74222082834 0.0
0.0 0.0 0.0

-1.016036655275305e6 2.6070684200729993e6 0.0
2.6070684200729993e6 117981.9010974287 0.0
0.0 0.0 0.0

-1.0308859012386414e6 2.697983490241726e6 0.0
2.697983490241726e6 433228.52685897466 0.0
0.0 0.0 0.0

399028.12498327973 3.604396512513887e6 0.0
3.604396512513887e6 590261.2626374935 0.0
0.0 0.0 0.0

1.3837099593502767e6 1.123854959084174e6 0.0
1.123854959084174e6 -1.8401025679697287e6 0.0
0.0 0.0 0.0

20014.076364781213 2.9833020638672803e6 0.0
2.9833020638672803e6 -186796.30120535102 0.0
0.0 0.0 0.0

-661179.1207073579 1.6624194972635298e6 0.0
1.6624194972635298e6 324640.7834817023 0.0
0.0 0.0 0.0

-1.1359510307135233e6 4.537162306934548e6 0.0
4.537162306934548e6 985455.9063960924 0.0
0.0 0.0 0.0

-85215.83979224274 3.2021454402350015e6 0.0
3.2021454402350015e6 -394305.0542756167 0.0
0.0 0.0 0.0

-364016.83846504055 38110.98204985342 0.0
38110.98204985342 1.0218433774913418e6 0.0
0.0 0.0 0.0

-40434.18569331373 -93927.25854867825 0.0
-93927.25854867825 -174477.37197964982 0.0
0.0 0.0 0.0

-845223.9919994588 3.987522240068465e6 0.0
3.987522240068465e6 516391.49996215844 0.0
0.0 0.0 0.0

-2.8103983986731265e6 -524663.3429119269 0.0
-524663.3429119269 2.704704307820056e6 0.0
0.0 0.0 0.0

-234383.22081553657 2.2178069016216914e6 0.0
2.2178069016216914e6 -724185.5398157283 0.0
0.0 0.0 0.0

-1.2583987753305617e6 2.7016574518074696e6 0.0
2.7016574518074696e6 1.1874186586279445e6 0.0
0.0 0.0 0.0

-279698.15474008705 1.592203597075977e6 0.0
1.592203597075977e6 -72428.27907103841 0.0
0.0 0.0 0.0

-4.516190696510538e6 -40771.01946809368 0.0
-40771.01946809368 3.0564764695474645e6 0.0
0.0 0.0 0.0

-100134.44579471168 2.0934172594360323e6 0.0
2.0934172594360323e6 -1.0074172359883506e6 0.0
0.0 0.0 0.0

-604822.2346434798 2.864458709262652e6 0.0
2.864458709262652e6 85282.69340641296 0.0
0.0 0.0 0.0

80280.85803921509 849595.2508675923 0.0
849595.2508675923 -206420.49088399968 0.0
0.0 0.0 0.0

-739869.9842769423 3.610746130053236e6 0.0
3.610746130053236e6 -409542.3794375328 0.0
0.0 0.0 0.0

-1.0811655881660976e6 5.282544143775906e6 0.0
5.282544143775906e6 813066.969839067 0.0
0.0 0.0 0.0

-1.93161402103732e6 3.1634635307168853e6 0.0
3.1634635307168853e6 864875.3225804103 0.0
0.0 0.0 0.0

-701471.076809341 2.1659455381541695e6 0.0
2.1659455381541695e6 44163.25647049278 0.0
0.0 0.0 0.0

-105025.09751347583 701946.887870366 0.0
701946.887870366 567718.7702006442 0.0
0.0 0.0 0.0

-396796.12109215726 2.9528325795746534e6 0.0
2.9528325795746534e6 39617.60133312267 0.0
0.0 0.0 0.0

-2.169978339098716e6 3.0274690640790923e6 0.0
3.0274690640790923e6 863167.2128952352 0.0
0.0 0.0 0.0

-503152.22583107953 1.3628698060801874e6 0.0
1.3628698060801874e6 -451769.16250913544 0.0
0.0 0.0 0.0

-1.9668834009357658e6 3.115096152673562e6 0.0
3.115096152673562e6 808031.8754580162 0.0
0.0 0.0 0.0

-725744.9403195276 3.3674659934031963e6 0.0
3.3674659934031963e6 1.2948777104497512e6 0.0
0.0 0.0 0.0

-78489.7732498426 928055.6457866229 0.0
928055.6457866229 -228300.88097410832 0.0
0.0 0.0 0.0

1.3311372002980462e6 1.121477051563411e6 0.0
1.121477051563411e6 -1.812255693032307e6 0.0
0.0 0.0 0.0

-663207.3327192608 2.926246302754951e6 0.0
2.926246302754951e6 -187370.92568295702 0.0
0.0 0.0 0.0

-1.5624013074839846e6 4.065590729032425e6 0.0
4.065590729032425e6 1.0476710674300643e6 0.0
0.0 0.0 0.0

-1.2009041478413795e6 3.8905625512718246e6 0.0
3.8905625512718246e6 1.0166058954865506e6 0.0
0.0 0.0 0.0

-2.62916004246019e6 1.986361256355871e6 0.0
1.986361256355871e6 431712.120551273 0.0
0.0 0.0 0.0

-326746.50477408664 2.4743071139486986e6 0.0
2.4743071139486986e6 -382326.3914768482 0.0
0.0 0.0 0.0

-1.7954808477939009e6 3.9844710964587466e6 0.0
3.9844710964587466e6 1.057742241262658e6 0.0
0.0 0.0 0.0

-376894.75464574114 1.5648930679910593e6 0.0
1.5648930679910593e6 67789.18098713126 0.0
0.0 0.0 0.0

-4.0697815545673165e6 642369.6710483552 0.0
642369.6710483552 3.616771701706728e6 0.0
0.0 0.0 0.0

-101407.41873979321 3.0974865628759093e6 0.0
3.0974865628759093e6 -506769.16547309473 0.0
0.0 0.0 0.0

-722190.5982196907 2.9529644860574408e6 0.0
2.9529644860574408e6 1.8893124961044525e6 0.0
0.0 0.0 0.0

1.3703452667371528e6 1.1389506154215282e6 0.0
1.1389506154215282e6 -1.8238982838218454e6 0.0
0.0 0.0 0.0

-2.9608306546717025e6 1.6364516189595656e6 0.0
1.6364516189595656e6 1.0914720558030223e6 0.0
0.0 0.0 0.0

-222458.1212528339 -451288.8324055459 0.0
-451288.8324055459 350407.43080415943 0.0
0.0 0.0 0.0

-885618.4887140683 -592999.5300090546 0.0
-592999.5300090546 1.1475534996250933e6 0.0
0.0 0.0 0.0

-100951.9519885096 -241820.98727594205 0.0
-241820.98727594205 -168225.1088715189 0.0
0.0 0.0 0.0

-170245.8778531948 445099.969775973 0.0
445099.969775973 537855.3953873513 0.0
0.0 0.0 0.0

-1.2651327172117573e6 2.5395729012447977e6 0.0
2.5395729012447977e6 1.4355431168695472e6 0.0
0.0 0.0 0.0

-131450.3313286367 2.1326734769414496e6 0.0
2.1326734769414496e6 -894280.4544889302 0.0
0.0 0.0 0.0

-3.8180507977800076e6 1.998787239100164e6 0.0
1.998787239100164e6 1.5784446910534261e6 0.0
0.0 0.0 0.0

-30566.383256460125 903583.1823664622 0.0
903583.1823664622 -10305.683562105858 0.0
0.0 0.0 0.0

345604.2486232871 2.567170953278339e6 0.0
2.567170953278339e6 -1.0406725042633513e6 0.0
0.0 0.0 0.0

-2.745495173484617e6 1.2507247892582635e6 0.0
1.2507247892582635e6 1.6883396190707043e6 0.0
0.0 0.0 0.0

-737102.9584376481 -635450.2695151479 0.0
-635450.2695151479 927774.8620508093 0.0
0.0 0.0 0.0

-573323.5987450371 2.385374245024991e6 0.0
2.385374245024991e6 -222116.24149554875 0.0
0.0 0.0 0.0

341319.870260972 3.4981425451774267e6 0.0
3.4981425451774267e6 -749228.3680679668 0.0
0.0 0.0 0.0

-331015.7881870576 3.322629848139628e6 0.0
3.322629848139628e6 -249279.34903316275 0.0
0.0 0.0 0.0

-2.4357871020850083e6 887466.7364846502 0.0
887466.7364846502 1.6748195970418318e6 0.0
0.0 0.0 0.0

712456.6107107012 4.777210740774136e6 0.0
4.777210740774136e6 1.0178406986620952e6 0.0
0.0 0.0 0.0

-265873.344274505 2.0819790598553426e6 0.0
2.0819790598553426e6 -797243.2093650862 0.0
0.0 0.0 0.0

-339966.619533531 2.3716897673094943e6 0.0
2.3716897673094943e6 -428848.51100786205 0.0
0.0 0.0 0.0

-169114.87393010483 2.5486613745685355e6 0.0
2.5486613745685355e6 -944266.6028956797 0.0
0.0 0.0 0.0

1.3213834300347033e6 1.130724776285657e6 0.0
1.130724776285657e6 -1.801746052238374e6 0.0
0.0 0.0 0.0

-1.3053481681221998e6 4.384256485226959e6 0.0
4.384256485226959e6 1.125977609244573e6 0.0
0.0 0.0 0.0

-12752.33289100579 2.2416162492090873e6 0.0
2.2416162492090873e6 -1.094907073414022e6 0.0
0.0 0.0 0.0

-390996.8355156218 2.7446935096858945e6 0.0
2.7446935096858945e6 -224005.44207215877 0.0
0.0 0.0 0.0

-81154.17254650925 2.422682407313477e6 0.0
2.422682407313477e6 -594234.9767405988 0.0
0.0 0.0 0.0

242870.54821656414 1.527780507266956e6 0.0
1.527780507266956e6 40793.542727907676 0.0
0.0 0.0 0.0

-514881.4024947936 1.9184005798822823e6 0.0
1.9184005798822823e6 29081.260680590436 0.0
0.0 0.0 0.0

-177885.2501482966 2.637540522761477e6 0.0
2.637540522761477e6 898424.1912553305 0.0
0.0 0.0 0.0

1.2779627533046617e6 1.0778837436923983e6 0.0
1.0778837436923983e6 -1.7714136007695561e6 0.0
0.0 0.0 0.0

-868661.9726145667 444106.1845321309 0.0
444106.1845321309 195146.62990367354 0.0
0.0 0.0 0.0

-873433.8555278195 2.7732984083206956e6 0.0
2.7732984083206956e6 1.2850160811814272e6 0.0
0.0 0.0 0.0

-216055.85732866838 2.166301731312786e6 0.0
2.166301731312786e6 -780311.3162245745 0.0
0.0 0.0 0.0

1.4106675181925225e6 3.8383703241578806e6 0.0
3.8383703241578806e6 -2.5218261711918246e6 0.0
0.0 0.0 0.0

-175303.91474217834 2.2238369204951883e6 0.0
2.2238369204951883e6 -726403.2049174833 0.0
0.0 0.0 0.0

-1.4093691399695636e6 4.105515819743546e6 0.0
4.105515819743546e6 935033.9095723976 0.0
0.0 0.0 0.0

-1.310620027484446e6 2.900087739101716e6 0.0
2.900087739101716e6 460995.14359128865 0.0
0.0 0.0 0.0

-4.725447555197018e6 2.5110374271231373e6 0.0
2.5110374271231373e6 3.4763545180581016e6 0.0
0.0 0.0 0.0

-134253.59537972 318467.00439461006 0.0
318467.00439461006 667103.4796747837 0.0
0.0 0.0 0.0

-220203.0665325793 -514846.422721045 0.0
-514846.422721045 311218.3706363831 0.0
0.0 0.0 0.0

-851901.4561501066 -192691.93529173633 0.0
-192691.93529173633 1.0405638361401584e6 0.0
0.0 0.0 0.0

-1.7758192607566162e6 2.9733875543315737e6 0.0
2.9733875543315737e6 626218.9594816149 0.0
0.0 0.0 0.0

107129.06725305505 1.8706565746736457e6 0.0
1.8706565746736457e6 -1.0722245296450725e6 0.0
0.0 0.0 0.0

-526398.9543785093 2.36527267015038e6 0.0
2.36527267015038e6 208996.82577294056 0.0
0.0 0.0 0.0

-381998.2530502538 2.565535197988487e6 0.0
2.565535197988487e6 -274378.66625750175 0.0
0.0 0.0 0.0

-194615.0032852359 1.7147848679380852e6 0.0
1.7147848679380852e6 -109456.1834922738 0.0
0.0 0.0 0.0

-604389.2562683054 2.9330171617019745e6 0.0
2.9330171617019745e6 -111479.56636841598 0.0
0.0 0.0 0.0

-707279.9219448487 3.852366692225631e6 0.0
3.852366692225631e6 346615.4416899679 0.0
0.0 0.0 0.0

-487030.1189537864 2.48093375381372e6 0.0
2.48093375381372e6 215282.85247829524 0.0
0.0 0.0 0.0

-506688.27909754706 2.1905134454404153e6 0.0
2.1905134454404153e6 342249.7773500134 0.0
0.0 0.0 0.0

-45531.81934182829 2.533143711286895e6 0.0
2.533143711286895e6 -915561.5647522667 0.0
0.0 0.0 0.0

-77960.9882491209 913714.8125888498 0.0
913714.8125888498 -192505.93693083056 0.0
0.0 0.0 0.0

-1.7872991141881272e6 2.8020954337017057e6 0.0
2.8020954337017057e6 518558.34267746285 0.0
0.0 0.0 0.0

1.080255074107627e6 981115.0460844132 0.0
981115.0460844132 -1.5578169883521746e6 0.0
0.0 0.0 0.0

-2.792793172110537e6 -1.0391001106352141e6 0.0
-1.0391001106352141e6 3.9581364780930653e6 0.0
0.0 0.0 0.0

-310697.3011767561 3.409242281791675e6 0.0
3.409242281791675e6 -49014.36104294401 0.0
0.0 0.0 0.0

-1.7993769010574569e6 2.9197644226930784e6 0.0
2.9197644226930784e6 671307.084273441 0.0
0.0 0.0 0.0

99409.59636099165 2.3848556127631175e6 0.0
2.3848556127631175e6 -1.1743959409722677e6 0.0
0.0 0.0 0.0

-1.5621933550150322e6 4.454256740852959e6 0.0
4.454256740852959e6 1.0118128635478676e6 0.0
0.0 0.0 0.0

102832.27225850237 1.3315845132329941e6 0.0
1.3315845132329941e6 -1.2576701851094323e6 0.0
0.0 0.0 0.0

-28096.22868766392 803919.7882990775 0.0
803919.7882990775 -166346.97418069092 0.0
0.0 0.0 0.0

-3.3326195769484765e6 1.3743937014876101e6 0.0
1.3743937014876101e6 2.42709570082569e6 0.0
0.0 0.0 0.0

-784493.8425667565 2.593298282632062e6 0.0
2.593298282632062e6 -256159.21130434272 0.0
0.0 0.0 0.0

-521041.6947676175 2.7537091003970606e6 0.0
2.7537091003970606e6 139926.1857240682 0.0
0.0 0.0 0.0

26622.70776168516 -193899.51933981825 0.0
-193899.51933981825 -243288.80090217557 0.0
0.0 0.0 0.0

-899314.7573306657 2.616969363070372e6 0.0
2.616969363070372e6 -222751.95263610705 0.0
0.0 0.0 0.0

-626829.2219346224 2.9629002410576227e6 0.0
2.9629002410576227e6 -159711.9736562678 0.0
0.0 0.0 0.0

1.310584544295107e6 1.117979144659798e6 0.0
1.117979144659798e6 -1.7962628207616447e6 0.0
0.0 0.0 0.0

-200930.1821088353 1.976267044237889e6 0.0
1.976267044237889e6 -406516.4147866051 0.0
0.0 0.0 0.0

122156.41625569362 1.6744672988452718e6 0.0
1.6744672988452718e6 -315550.6606737676 0.0
0.0 0.0 0.0

-1.8261569477920337e6 5.183743934092364e6 0.0
5.183743934092364e6 1.2721582361044527e6 0.0
0.0 0.0 0.0

547700.0505865009 7597.507819682617 0.0
7597.507819682617 -599511.2177305171 0.0
0.0 0.0 0.0

-64098.73954818158 866971.1222323166 0.0
866971.1222323166 39868.725264924426 0.0
0.0 0.0 0.0

-2.0551985273223436e6 3.119097221166492e6 0.0
3.119097221166492e6 796452.4644822264 0.0
0.0 0.0 0.0

-1.1037033104176926e6 -639067.6558713515 0.0
-639067.6558713515 1.6519194671273045e6 0.0
0.0 0.0 0.0

237055.72331080047 -170426.75238675837 0.0
-170426.75238675837 -366156.284424105 0.0
0.0 0.0 0.0

838657.7128460457 991503.2740887126 0.0
991503.2740887126 -1.3779494172514477e6 0.0
0.0 0.0 0.0

-542127.579412569 1.9755646610980076e6 0.0
1.9755646610980076e6 68976.04845101328 0.0
0.0 0.0 0.0

-521193.0995129297 390299.52755059296 0.0
390299.52755059296 899848.0555588803 0.0
0.0 0.0 0.0

-566340.7197262162 2.4713487892610994e6 0.0
2.4713487892610994e6 -184086.55518482457 0.0
0.0 0.0 0.0

-434036.9956359349 2.4228887742739413e6 0.0
2.4228887742739413e6 -252617.48677937104 0.0
0.0 0.0 0.0

107071.59095559822 1.8653679238440434e6 0.0
1.8653679238440434e6 -1.3196013510180076e6 0.0
0.0 0.0 0.0

-180151.71608017822 2.1629406036179755e6 0.0
2.1629406036179755e6 -810288.1671255806 0.0
0.0 0.0 0.0

8394.171077182633 2.657906389770961e6 0.0
2.657906389770961e6 -485698.6497246954 0.0
0.0 0.0 0.0

-590415.8288226563 537228.2161015221 0.0
537228.2161015221 836567.9391227774 0.0
0.0 0.0 0.0

-1.4346888402233648e6 4.22572656748108e6 0.0
4.22572656748108e6 910449.1527196671 0.0
0.0 0.0 0.0

-921488.3181060337 2.6166549618919613e6 0.0
2.6166549618919613e6 43662.90932416561 0.0
0.0 0.0 0.0

-1.8853981932504636e6 2.959140807171739e6 0.0
2.959140807171739e6 608657.9300431001 0.0
0.0 0.0 0.0

1.4649101480030848e6 5.828899709691087e6 0.0
5.828899709691087e6 9.093910239899188e6 0.0
0.0 0.0 0.0

-629749.0311679897 2.0966598811858771e6 0.0
2.0966598811858771e6 151157.2535579966 0.0
0.0 0.0 0.0

-396267.5391353179 2.38001048181324e6 0.0
2.38001048181324e6 -327606.13676364464 0.0
0.0 0.0 0.0

-208096.39006939103 2.1517680486527337e6 0.0
2.1517680486527337e6 -802866.0325995781 0.0
0.0 0.0 0.0

-312258.961487251 2.3836572917592474e6 0.0
2.3836572917592474e6 -456665.660951667 0.0
0.0 0.0 0.0

-1.7244800880000973e6 4.559198531834835e6 0.0
4.559198531834835e6 1.1416272663982029e6 0.0
0.0 0.0 0.0

-506944.915359971 1.9695161436339119e6 0.0
1.9695161436339119e6 14654.77482548455 0.0
0.0 0.0 0.0

-184002.0407865806 2.414428699605645e6 0.0
2.414428699605645e6 -590326.2433840001 0.0
0.0 0.0 0.0

-244881.9983273227 2.216908045308597e6 0.0
2.216908045308597e6 -692037.337268032 0.0
0.0 0.0 0.0

43663.24327089789 1.872028067830263e6 0.0
1.872028067830263e6 -621349.2504117102 0.0
0.0 0.0 0.0

-2.4465833701543766e6 6.23529239993683e6 0.0
6.23529239993683e6 1.1491761248523206e6 0.0
0.0 0.0 0.0

1.230073503370509e6 1.2890166060179723e6 0.0
1.2890166060179723e6 -1.842604130931229e6 0.0
0.0 0.0 0.0

1.3309264169319253e6 5.117713647227346e6 0.0
5.117713647227346e6 405322.1169206966 0.0
0.0 0.0 0.0

-25867.1308980576 6.815140431081069e6 0.0
6.815140431081069e6 -2.14018079946786e6 0.0
0.0 0.0 0.0

-144551.37162534497 3.1560400411786246e6 0.0
3.1560400411786246e6 -164748.2765340345 0.0
0.0 0.0 0.0

-6160.182748045685 2.6588859903278057e6 0.0
2.6588859903278057e6 -168029.93959769743 0.0
0.0 0.0 0.0

-1.0292232125121847e6 2.232432121135097e6 0.0
2.232432121135097e6 -120149.73887793705 0.0
0.0 0.0 0.0

-2.4204319760165666e6 1.0362063735922093e6 0.0
1.0362063735922093e6 504049.85152395477 0.0
0.0 0.0 0.0

-35492.77982297159 1.7625819912926026e6 0.0
1.7625819912926026e6 -78317.00149097058 0.0
0.0 0.0 0.0

-1.646293683855933e6 4.0149652053931085e6 0.0
4.0149652053931085e6 1.1197874391897558e6 0.0
0.0 0.0 0.0

-295758.5837249815 2.3486999814747875e6 0.0
2.3486999814747875e6 -521019.6414006172 0.0
0.0 0.0 0.0

1.0778958501665145e6 1.5799768354282677e6 0.0
1.5799768354282677e6 -1.7654950583479987e6 0.0
0.0 0.0 0.0

-367473.961888695 2.346509826480612e6 0.0
2.346509826480612e6 -517779.2281335818 0.0
0.0 0.0 0.0

239715.13999038003 2.5117677171870796e6 0.0
2.5117677171870796e6 -1.1468782132492757e6 0.0
0.0 0.0 0.0

-30506.894545357878 1.6615119549987835e6 0.0
1.6615119549987835e6 -844422.8107900333 0.0
0.0 0.0 0.0

-46208.10194346658 2.9262128401182764e6 0.0
2.9262128401182764e6 233729.11963559722 0.0
0.0 0.0 0.0

-8722.559911547607 2.6561345857301718e6 0.0
2.6561345857301718e6 -542536.8323847917 0.0
0.0 0.0 0.0

-77609.66255877056 4522.698922193951 0.0
4522.698922193951 141481.7220552915 0.0
0.0 0.0 0.0

-561635.5015596326 -204053.33121865743 0.0
-204053.33121865743 676013.9782409568 0.0
0.0 0.0 0.0

-987524.4992988352 2.515144378941737e6 0.0
2.515144378941737e6 213200.15891226404 0.0
0.0 0.0 0.0

-289120.51959250966 2.536404065634265e6 0.0
2.536404065634265e6 757293.9932034087 0.0
0.0 0.0 0.0

-265454.5655356569 1.6575280471476014e6 0.0
1.6575280471476014e6 -202215.95198768732 0.0
0.0 0.0 0.0

-113389.95882874541 1731.2701433966429 0.0
1731.2701433966429 -422120.3266754718 0.0
0.0 0.0 0.0

-8.873908010578414e6 -747765.3154823052 0.0
-747765.3154823052 9.153418912925305e6 0.0
0.0 0.0 0.0

-990703.3255988903 2.5667215659956923e6 0.0
2.5667215659956923e6 184307.7290225951 0.0
0.0 0.0 0.0

-1.2953858892336274e6 4.003702370527635e6 0.0
4.003702370527635e6 824937.8015750402 0.0
0.0 0.0 0.0

-231941.31985198945 2.5385039035218866e6 0.0
2.5385039035218866e6 955873.1053394302 0.0
0.0 0.0 0.0

79320.81081136326 1.6943807979069382e6 0.0
1.6943807979069382e6 -24400.640385042167 0.0
0.0 0.0 0.0

-735097.1673841482 3.7767201670721252e6 0.0
3.7767201670721252e6 469584.2821173449 0.0
0.0 0.0 0.0

-3.7321391748438645e6 -1.1442020868876867e6 0.0
-1.1442020868876867e6 5.093603783020845e6 0.0
0.0 0.0 0.0

-519330.3551217619 3.525647430585333e6 0.0
3.525647430585333e6 236079.2774668118 0.0
0.0 0.0 0.0

-1.8499392672204631e6 2.746230750032515e6 0.0
2.746230750032515e6 494591.0072944267 0.0
0.0 0.0 0.0

68003.70340725483 3.0993927296165777e6 0.0
3.0993927296165777e6 -1.113758343927864e6 0.0
0.0 0.0 0.0

-397155.47424397105 2.4735199006940587e6 0.0
2.4735199006940587e6 517937.35585156956 0.0
0.0 0.0 0.0

-218231.11648455975 297510.45353660866 0.0
297510.45353660866 393741.7033267716 0.0
0.0 0.0 0.0

-1.116534764285731e6 4.803243293436101e6 0.0
4.803243293436101e6 944133.004984731 0.0
0.0 0.0 0.0

-334839.9374608141 495763.373662322 0.0
495763.373662322 -800514.8964587772 0.0
0.0 0.0 0.0

-2.71391111824065e6 4.756053668982644e6 0.0
4.756053668982644e6 1.2805035370533336e6 0.0
0.0 0.0 0.0

-367177.8587158391 2.6335330096195713e6 0.0
2.6335330096195713e6 -16502.469433277744 0.0
0.0 0.0 0.0

-1.4580471978695719e6 3.8314668990881485e6 0.0
3.8314668990881485e6 1.1034581722186557e6 0.0
0.0 0.0 0.0

1.249193549909497e6 1.0910136865857332e6 0.0
1.0910136865857332e6 -1.7930819269333584e6 0.0
0.0 0.0 0.0

-417634.12764216325 3.3956531198436264e6 0.0
3.3956531198436264e6 201558.0754457697 0.0
0.0 0.0 0.0

-1.0156014445724944e6 3.0952407426929045e6 0.0
3.0952407426929045e6 1.284675746714627e6 0.0
0.0 0.0 0.0

-1.806814377211255e6 3.0073072814106024e6 0.0
3.0073072814106024e6 655843.6654495487 0.0
0.0 0.0 0.0

-190343.4284509863 2.7474491438318947e6 0.0
2.7474491438318947e6 325201.7451691688 0.0
0.0 0.0 0.0

-82846.69547955084 -226023.2279631282 0.0
-226023.2279631282 -106613.3642384978 0.0
0.0 0.0 0.0

-1.0813595271233162e6 1.9937548375295345e6 0.0
1.9937548375295345e6 2.618843032111337e6 0.0
0.0 0.0 0.0

-500022.4352931008 3.0318763743731547e6 0.0
3.0318763743731547e6 -189069.48241155842 0.0
0.0 0.0 0.0

-600434.6780400154 3.6463474558540047e6 0.0
3.6463474558540047e6 364653.77424867044 0.0
0.0 0.0 0.0

-742026.6699927638 3.208322952375566e6 0.0
3.208322952375566e6 127670.33130207995 0.0
0.0 0.0 0.0

-958362.7839305048 5.239702003962371e6 0.0
5.239702003962371e6 806640.873793998 0.0
0.0 0.0 0.0

-98995.72256066868 2.0324292991458098e6 0.0
2.0324292991458098e6 -645941.7024842638 0.0
0.0 0.0 0.0

-533222.9277478001 2.8115342175223483e6 0.0
2.8115342175223483e6 111960.81385871983 0.0
0.0 0.0 0.0

-1.583158461730214e6 5.3971828960051825e6 0.0
5.3971828960051825e6 907085.129249331 0.0
0.0 0.0 0.0

408368.7846698598 3.806240163451833e6 0.0
3.806240163451833e6 -641636.7547769251 0.0
0.0 0.0 0.0

631542.0689061012 536478.0612682556 0.0
536478.0612682556 -1.3969894569998677e6 0.0
0.0 0.0 0.0

-99692.69254941263 2.591583842027583e6 0.0
2.591583842027583e6 -271809.9023442027 0.0
0.0 0.0 0.0

-1.319532024955116e6 5.012447744080178e6 0.0
5.012447744080178e6 780717.4409134658 0.0
0.0 0.0 0.0

-174112.5090869048 2.221556165080084e6 0.0
2.221556165080084e6 -690870.9667381635 0.0
0.0 0.0 0.0

1.148362420421906e6 1.0202010725382158e6 0.0
1.0202010725382158e6 -1.6191500169951224e6 0.0
0.0 0.0 0.0

-2.4351153667479875e6 -1.4794640496326648e6 0.0
-1.4794640496326648e6 3.888504212336034e6 0.0
0.0 0.0 0.0

157500.83766187017 2.412737363232796e6 0.0
2.412737363232796e6 -1.2511592111159007e6 0.0
0.0 0.0 0.0

-365194.5836013339 2.243568900915013e6 0.0
2.243568900915013e6 416085.6007463111 0.0
0.0 0.0 0.0

-10362.245766053791 2.0693909757803392e6 0.0
2.0693909757803392e6 -288121.07536041626 0.0
0.0 0.0 0.0

-700114.4716415203 3.704317676437004e6 0.0
3.704317676437004e6 264026.2843932153 0.0
0.0 0.0 0.0

739031.3978053681 786199.9210779554 0.0
786199.9210779554 -1.2642627234064573e6 0.0
0.0 0.0 0.0

-446601.08538769383 2.991310561293589e6 0.0
2.991310561293589e6 -164617.89075729216 0.0
0.0 0.0 0.0

-844700.6047873204 2.676152355272414e6 0.0
2.676152355272414e6 1.290588706611387e6 0.0
0.0 0.0 0.0

-1.7753467457689398e6 6.6094693947654795e6 0.0
6.6094693947654795e6 890107.8750230832 0.0
0.0 0.0 0.0

-561847.2365550469 3.1149744794019023e6 0.0
3.1149744794019023e6 64453.08426221169 0.0
0.0 0.0 0.0

-1.5188495245739666e6 2.682285347024433e6 0.0
2.682285347024433e6 3.730477671001788e6 0.0
0.0 0.0 0.0

1.379900750321023e6 1.1152150110914342e6 0.0
1.1152150110914342e6 -1.8786143144353214e6 0.0
0.0 0.0 0.0

-1.75818689409551e6 4.73063059654343e6 0.0
4.73063059654343e6 1.0813136282740023e6 0.0
0.0 0.0 0.0

-463015.7955692193 2.881746221675669e6 0.0
2.881746221675669e6 -114831.15756803512 0.0
0.0 0.0 0.0

-3.1503183748341477e6 -348814.8947404532 0.0
-348814.8947404532 2.818888426974374e6 0.0
0.0 0.0 0.0

-575544.7213915976 2.9680830729425913e6 0.0
2.9680830729425913e6 -143636.74421506748 0.0
0.0 0.0 0.0

558005.2353027705 323783.3006692088 0.0
323783.3006692088 -1.0108136971822828e6 0.0
0.0 0.0 0.0

-79806.10131985482 2.1293735949531035e6 0.0
2.1293735949531035e6 -965401.4869503262 0.0
0.0 0.0 0.0

-248096.76709899982 3.108331983329779e6 0.0
3.108331983329779e6 -154919.64348957856 0.0
0.0 0.0 0.0

151302.0621516779 2.537348110624168e6 0.0
2.537348110624168e6 -1.2035447415107833e6 0.0
0.0 0.0 0.0

1.337169691534731e6 1.143569716981406e6 0.0
1.143569716981406e6 -1.8290940751714883e6 0.0
0.0 0.0 0.0

193291.5984870573 5.063720558754602e6 0.0
5.063720558754602e6 -424873.92446592025 0.0
0.0 0.0 0.0

-1.0619902010242634e7 3.1053939056351813e6 0.0
3.1053939056351813e6 3.595289977472586e6 0.0
0.0 0.0 0.0

-807004.9465828225 3.289401704585484e6 0.0
3.289401704585484e6 1.6601711090416256e6 0.0
0.0 0.0 0.0

-1.032562239272118e6 3.1407164343197728e6 0.0
3.1407164343197728e6 479722.7032317841 0.0
0.0 0.0 0.0

-445111.54691053095 2.7247044710533083e6 0.0
2.7247044710533083e6 108071.33230513122 0.0
0.0 0.0 0.0

1.1240184169021384e6 1.0179465262135692e6 0.0
1.0179465262135692e6 -1.5409284962937892e6 0.0
0.0 0.0 0.0

-495875.05076162866 3.0757740786406444e6 0.0
3.0757740786406444e6 -193369.64998107316 0.0
0.0 0.0 0.0

-1.8075902585731195e6 4.8295424713057205e6 0.0
4.8295424713057205e6 1.1588090345778477e6 0.0
0.0 0.0 0.0

-24513.920882586623 2.2103907892468222e6 0.0
2.2103907892468222e6 -1.1244719481665606e6 0.0
0.0 0.0 0.0

-1.4674876891615717e6 3.709536630738771e6 0.0
3.709536630738771e6 1.0100313163054716e6 0.0
0.0 0.0 0.0

-114133.43717715712 640637.8915957505 0.0
640637.8915957505 -149553.96313263694 0.0
0.0 0.0 0.0

-991931.0712302554 2.758280166531491e6 0.0
2.758280166531491e6 1.1445371298550768e6 0.0
0.0 0.0 0.0

-571420.0598270547 3.0053831579642757e6 0.0
3.0053831579642757e6 -271116.6224089762 0.0
0.0 0.0 0.0

-578210.8562396565 2.458159996579449e6 0.0
2.458159996579449e6 -31453.172307244153 0.0
0.0 0.0 0.0

-1.3108424889230407e6 2.7493324583112886e6 0.0
2.7493324583112886e6 449952.3002188156 0.0
0.0 0.0 0.0

-19.154326807474717 2.3211385226993025e6 0.0
2.3211385226993025e6 -1.0895975375508089e6 0.0
0.0 0.0 0.0

-1.2559867707823603e6 -727975.2831532616 0.0
-727975.2831532616 1.4821685511337044e6 0.0
0.0 0.0 0.0

-425642.20543558244 2.369084276719046e6 0.0
2.369084276719046e6 -421377.03055390896 0.0
0.0 0.0 0.0

-480408.3238710358 2.907404021352856e6 0.0
2.907404021352856e6 -238818.37522687123 0.0
0.0 0.0 0.0

116721.81432134754 3.6398277083203564e6 0.0
3.6398277083203564e6 -419263.3899184199 0.0
0.0 0.0 0.0

932097.7065959288 979926.8624879707 0.0
979926.8624879707 -1.4108046029457834e6 0.0
0.0 0.0 0.0

-288905.115289777 2.4216533554282584e6 0.0
2.4216533554282584e6 -456695.02035590186 0.0
0.0 0.0 0.0

-552668.0758208396 2.901578524006927e6 0.0
2.901578524006927e6 -65259.01745563188 0.0
0.0 0.0 0.0

-1.7309048856117819e6 4.1622600185573287e6 0.0
4.1622600185573287e6 1.0872226311546273e6 0.0
0.0 0.0 0.0

-532253.9594647184 2.1373011943423157e6 0.0
2.1373011943423157e6 258133.5171594677 0.0
0.0 0.0 0.0

-369233.6766447575 2.3797505121587208e6 0.0
2.3797505121587208e6 288930.03683983313 0.0
0.0 0.0 0.0

-3.458222389421558e6 -117250.1832392253 0.0
-117250.1832392253 3.0180983964300845e6 0.0
0.0 0.0 0.0

-341088.8233615497 -670878.2252271073 0.0
-670878.2252271073 355041.68889508455 0.0
0.0 0.0 0.0

-89210.51630985219 2.707114936806439e6 0.0
2.707114936806439e6 -756307.7857744349 0.0
0.0 0.0 0.0

-460437.2909939718 3.530209383214862e6 0.0
3.530209383214862e6 130614.0119347205 0.0
0.0 0.0 0.0

-2.238073678134434e6 2.9945497054502163e6 0.0
2.9945497054502163e6 807205.8098092744 0.0
0.0 0.0 0.0

362237.21835893946 2.4791256906745434e6 0.0
2.4791256906745434e6 -985714.1438504155 0.0
0.0 0.0 0.0

-369238.97481744655 3.4458862802875843e6 0.0
3.4458862802875843e6 -282105.5242675096 0.0
0.0 0.0 0.0

-671397.4829144906 3.3550384969932614e6 0.0
3.3550384969932614e6 297436.3726539563 0.0
0.0 0.0 0.0

-425992.45382779266 2.173686930710393e6 0.0
2.173686930710393e6 -261077.2705565198 0.0
0.0 0.0 0.0

-635143.7232744197 3.306423383322049e6 0.0
3.306423383322049e6 165658.42368275544 0.0
0.0 0.0 0.0

-22838.22844313337 3.1989166663341974e6 0.0
3.1989166663341974e6 -431850.54817282705 0.0
0.0 0.0 0.0

-1.7370562273788839e6 4.149346869339366e6 0.0
4.149346869339366e6 1.1220923066509776e6 0.0
0.0 0.0 0.0

499435.1117106858 1.325402441435891e6 0.0
1.325402441435891e6 -1.1400694292691506e6 0.0
0.0 0.0 0.0

1.3245215848048427e6 1.1269830903694609e6 0.0
1.1269830903694609e6 -1.8097590291061173e6 0.0
0.0 0.0 0.0

-211896.93894526153 164022.53962192935 0.0
164022.53962192935 163822.60505393526 0.0
0.0 0.0 0.0

-201050.4681626064 251415.4503593723 0.0
251415.4503593723 25986.006960810046 0.0
0.0 0.0 0.0

-469927.7727918504 2.43234549851504e6 0.0
2.43234549851504e6 723883.216010004 0.0
0.0 0.0 0.0

25132.861991110665 3.2912924983839546e6 0.0
3.2912924983839546e6 -577985.7120776074 0.0
0.0 0.0 0.0

-173354.79237791113 3.1681959554204005e6 0.0
3.1681959554204005e6 -394568.03046112135 0.0
0.0 0.0 0.0

661564.5196631148 124099.12800268215 0.0
124099.12800268215 -1.2721890263350161e6 0.0
0.0 0.0 0.0

-459829.3481897828 3.1620349105022782e6 0.0
3.1620349105022782e6 -21090.307082035637 0.0
0.0 0.0 0.0

-162407.23641924077 312576.10777831165 0.0
312576.10777831165 -346930.6690632856 0.0
0.0 0.0 0.0

-610856.3315834173 3.240455148562259e6 0.0
3.240455148562259e6 178990.12515402093 0.0
0.0 0.0 0.0

-423831.6439161811 698908.8606102336 0.0
698908.8606102336 1.0301998336911091e6 0.0
0.0 0.0 0.0

-1.1899089228609293e6 4.1603349603680256e6 0.0
4.1603349603680256e6 1.0178175466124846e6 0.0
0.0 0.0 0.0

-1.19129315185735e6 5.167387096615461e6 0.0
5.167387096615461e6 1.0621578365573357e6 0.0
0.0 0.0 0.0

766456.201756948 956483.0860671663 0.0
956483.0860671663 -1.3796466963920835e6 0.0
0.0 0.0 0.0

944702.340642794 961820.6072550516 0.0
961820.6072550516 -1.4745774624561253e6 0.0
0.0 0.0 0.0

-378760.48588442017 3.7974353612667136e6 0.0
3.7974353612667136e6 104157.00186479391 0.0
0.0 0.0 0.0

-111725.98048605541 2.9306387078623036e6 0.0
2.9306387078623036e6 -88.33954953028297 0.0
0.0 0.0 0.0

-494333.45802844496 2.3814326443870305e6 0.0
2.3814326443870305e6 -321279.57996933477 0.0
0.0 0.0 0.0

-239971.9958610041 -523441.06554792007 0.0
-523441.06554792007 325023.9072432439 0.0
0.0 0.0 0.0

-2.1553270596254496e6 3.1458946837127698e6 0.0
3.1458946837127698e6 792523.5146045093 0.0
0.0 0.0 0.0

-119802.04427168112 1.0568151008396354e6 0.0
1.0568151008396354e6 -92616.57253097625 0.0
0.0 0.0 0.0

104291.0514870879 -140927.90468304732 0.0
-140927.90468304732 -35365.36042190684 0.0
0.0 0.0 0.0

-907809.5374245148 2.678719619452288e6 0.0
2.678719619452288e6 452123.23911796825 0.0
0.0 0.0 0.0

1.3438342510525382e6 1.1258331848171414e6 0.0
1.1258331848171414e6 -1.836735607437207e6 0.0
0.0 0.0 0.0

-1.1970979036463886e6 2.5871981598560205e6 0.0
2.5871981598560205e6 82457.27591960365 0.0
0.0 0.0 0.0

-1.3196898906839278e6 3.6837338968789e6 0.0
3.6837338968789e6 1.0597911053043713e6 0.0
0.0 0.0 0.0

81622.944529503 2.3539455147849126e6 0.0
2.3539455147849126e6 -1.2750341704896013e6 0.0
0.0 0.0 0.0

-213963.39337024343 3.1056806435482334e6 0.0
3.1056806435482334e6 435268.50819131726 0.0
0.0 0.0 0.0

-916341.6718943168 2.6857555795092997e6 0.0
2.6857555795092997e6 3959.387214939052 0.0
0.0 0.0 0.0

-272383.8319023008 -416319.8087374965 0.0
-416319.8087374965 264484.07647814584 0.0
0.0 0.0 0.0

261628.5236087577 -68816.78425931299 0.0
-68816.78425931299 -322606.2971927222 0.0
0.0 0.0 0.0

-428251.8219909118 2.9980947920449814e6 0.0
2.9980947920449814e6 -171583.13887609838 0.0
0.0 0.0 0.0

-900872.4369366417 3.076536080255434e6 0.0
3.076536080255434e6 577506.2776168352 0.0
0.0 0.0 0.0

-906842.4509442498 3.206360522679699e6 0.0
3.206360522679699e6 586672.2911943904 0.0
0.0 0.0 0.0

-2.375759550290287e6 -828221.9477410952 0.0
-828221.9477410952 3.171908807938461e6 0.0
0.0 0.0 0.0

807934.9816612041 348926.349463725 0.0
348926.349463725 -993597.0887765109 0.0
0.0 0.0 0.0

-498746.6832944187 3.0568657552194633e6 0.0
3.0568657552194633e6 -323273.5826206705 0.0
0.0 0.0 0.0

-962982.4639351506 3.2036538192657717e6 0.0
3.2036538192657717e6 -410638.1272084252 0.0
0.0 0.0 0.0

-2.703066765970777e6 2.1537450069770473e6 0.0
2.1537450069770473e6 1.3652752571841017e6 0.0
0.0 0.0 0.0

-2.0243914998286795e6 4.337127468489147e6 0.0
4.337127468489147e6 1.1732412147737285e6 0.0
0.0 0.0 0.0

-91839.58984013848 3.1547850455751084e6 0.0
3.1547850455751084e6 -554363.8753916529 0.0
0.0 0.0 0.0

-321833.0095909173 -478031.44904014043 0.0
-478031.44904014043 340297.04452436964 0.0
0.0 0.0 0.0

-402497.34119713947 3.6208995578286066e6 0.0
3.6208995578286066e6 114768.77857171785 0.0
0.0 0.0 0.0

-819508.7987978812 2.5683036891201935e6 0.0
2.5683036891201935e6 378273.9508466427 0.0
0.0 0.0 0.0

-31108.134297913566 7541.99883949115 0.0
7541.99883949115 36209.89969364378 0.0
0.0 0.0 0.0

-602071.2652542203 2.210536087026719e6 0.0
2.210536087026719e6 66379.32192409533 0.0
0.0 0.0 0.0

-659706.0450865439 2.48027436057846e6 0.0
2.48027436057846e6 73461.89820530178 0.0
0.0 0.0 0.0

-132621.22140833357 -198633.6158203665 0.0
-198633.6158203665 25580.11460899747 0.0
0.0 0.0 0.0

1.0617130601699557e6 991245.2712407667 0.0
991245.2712407667 -1.5398004976115809e6 0.0
0.0 0.0 0.0

934391.9039655827 1.6937816037925114e6 0.0
1.6937816037925114e6 -1.9202815880606668e6 0.0
0.0 0.0 0.0

-953900.131838361 2.555340650953145e6 0.0
2.555340650953145e6 970752.1611185952 0.0
0.0 0.0 0.0

557412.9142582718 501736.5421881578 0.0
501736.5421881578 -581733.4534072899 0.0
0.0 0.0 0.0

-666085.2015180902 5.882329237499366e6 0.0
5.882329237499366e6 459611.98555177706 0.0
0.0 0.0 0.0

1.1262289718799307e6 1.0123002420479418e6 0.0
1.0123002420479418e6 -1.589754575103816e6 0.0
0.0 0.0 0.0

888903.9697865745 664030.5917129867 0.0
664030.5917129867 -1.4028468520575867e6 0.0
0.0 0.0 0.0

971919.8479921148 922096.0083458269 0.0
922096.0083458269 -1.3706956202351956e6 0.0
0.0 0.0 0.0

-138778.89595340204 3.116585761717082e6 0.0
3.116585761717082e6 -474273.16818043607 0.0
0.0 0.0 0.0

-84248.88166823727 3.243698452589931e6 0.0
3.243698452589931e6 -548138.9523629916 0.0
0.0 0.0 0.0

-35459.825288009015 2.2348853890881096e6 0.0
2.2348853890881096e6 -1.0611650862327712e6 0.0
0.0 0.0 0.0

-895368.1011004803 5.9241513247448355e6 0.0
5.9241513247448355e6 499816.494037984 0.0
0.0 0.0 0.0

43556.694131098746 -20046.809154557253 0.0
-20046.809154557253 -25236.44213821234 0.0
0.0 0.0 0.0

-586831.3426879888 2.486490927479052e6 0.0
2.486490927479052e6 245035.25426971333 0.0
0.0 0.0 0.0

-1.9654634075406753e6 3.138211629251418e6 0.0
3.138211629251418e6 756010.4811265909 0.0
0.0 0.0 0.0

-1.3103742463799608e6 4.248567866362464e6 0.0
4.248567866362464e6 1.1070720124174948e6 0.0
0.0 0.0 0.0

479548.89313149755 -72841.94985258472 0.0
-72841.94985258472 -396557.52331568627 0.0
0.0 0.0 0.0

267949.6035411837 -22069.969454238402 0.0
-22069.969454238402 -376031.9426373027 0.0
0.0 0.0 0.0

33521.584416017475 3.13316236209744e6 0.0
3.13316236209744e6 -198531.579364751 0.0
0.0 0.0 0.0

-274663.03884513554 -508249.3925380884 0.0
-508249.3925380884 355097.52204237523 0.0
0.0 0.0 0.0

-759231.8358999692 3.6544030317585445e6 0.0
3.6544030317585445e6 349903.0630637147 0.0
0.0 0.0 0.0

-877751.2778155704 2.836814849967608e6 0.0
2.836814849967608e6 257603.3458838219 0.0
0.0 0.0 0.0

-224677.7700037573 2.3385860858079377e6 0.0
2.3385860858079377e6 -565368.1881092181 0.0
0.0 0.0 0.0

-1.378213025136184e6 2.898239656471761e6 0.0
2.898239656471761e6 481895.2566740682 0.0
0.0 0.0 0.0

-578158.6687975734 2.0519755089749566e6 0.0
2.0519755089749566e6 55893.133432371455 0.0
0.0 0.0 0.0

-11879.149170062097 1.8671939267818988e6 0.0
1.8671939267818988e6 -305236.13308580086 0.0
0.0 0.0 0.0

-2.98480241710735e6 1.8728093201682256e6 0.0
1.8728093201682256e6 1.1686424917011939e6 0.0
0.0 0.0 0.0

520633.94162568427 668563.1705211442 0.0
668563.1705211442 -1.890148871674365e6 0.0
0.0 0.0 0.0

-468559.625642314 2.3749236527018026e6 0.0
2.3749236527018026e6 -227012.5055679968 0.0
0.0 0.0 0.0

1.2836465236392089e6 1.3075308242142492e6 0.0
1.3075308242142492e6 -1.9029598351173084e6 0.0
0.0 0.0 0.0

-804634.6431176004 3.320567400114255e6 0.0
3.320567400114255e6 245515.61571310397 0.0
0.0 0.0 0.0

-96603.12171366041 1.7401629757473555e6 0.0
1.7401629757473555e6 -449785.8727294192 0.0
0.0 0.0 0.0

137070.7231873346 3.43456496778109e6 0.0
3.43456496778109e6 -758364.231938045 0.0
0.0 0.0 0.0

-167981.78870521084 4.366521895850259e6 0.0
4.366521895850259e6 1.167152752044323e6 0.0
0.0 0.0 0.0

409410.10418564593 29559.207861521845 0.0
29559.207861521845 -382007.6602364339 0.0
0.0 0.0 0.0

-967118.2134693087 3.329259390366938e6 0.0
3.329259390366938e6 1.6000658478152428e6 0.0
0.0 0.0 0.0

-649148.5792437191 2.0675068424513647e6 0.0
2.0675068424513647e6 832411.4260258833 0.0
0.0 0.0 0.0

-669231.3300028914 2.1190648775573275e6 0.0
2.1190648775573275e6 -95869.36791780153 0.0
0.0 0.0 0.0

-1.8266029872315777e6 5.598475941244019e6 0.0
5.598475941244019e6 1.0477859845750162e6 0.0
0.0 0.0 0.0

-1.2853137227698495e6 3.4881811675748075e6 0.0
3.4881811675748075e6 782003.343282801 0.0
0.0 0.0 0.0

-260762.26377691675 1.573594697091257e6 0.0
1.573594697091257e6 -132636.3464175134 0.0
0.0 0.0 0.0

717194.2138200488 2.6803438653566786e6 0.0
2.6803438653566786e6 -2.57802016621033e6 0.0
0.0 0.0 0.0

260926.3450024583 13709.45044813776 0.0
13709.45044813776 -416022.79814868735 0.0
0.0 0.0 0.0

-276327.03156613366 3.3596706499457047e6 0.0
3.3596706499457047e6 -171919.35809092713 0.0
0.0 0.0 0.0

-404250.907533091 2.364127792633755e6 0.0
2.364127792633755e6 773583.319385163 0.0
0.0 0.0 0.0

-1.525914356644108e6 1.8241300173186264e6 0.0
1.8241300173186264e6 1.2835515984951372e6 0.0
0.0 0.0 0.0

-480425.2409934117 2.5607645951375626e6 0.0
2.5607645951375626e6 125239.59460533038 0.0
0.0 0.0 0.0

-1.1187871584357605e6 2.5625268189997724e6 0.0
2.5625268189997724e6 251250.3127696906 0.0
0.0 0.0 0.0

-3.283307952279707e6 1.8789412509005344e6 0.0
1.8789412509005344e6 1.221427359172404e6 0.0
0.0 0.0 0.0

-416624.74213369004 1.353458100728119e6 0.0
1.353458100728119e6 300917.2303506137 0.0
0.0 0.0 0.0

-988869.2559558067 2.528834443144912e6 0.0
2.528834443144912e6 213754.85611135815 0.0
0.0 0.0 0.0

-1.1662249045168685e6 3.3615437865874115e6 0.0
3.3615437865874115e6 856961.8164404312 0.0
0.0 0.0 0.0

-938442.962000269 3.1180802012941567e6 0.0
3.1180802012941567e6 1.3568215806123635e6 0.0
0.0 0.0 0.0

-1.400490795774466e6 3.9724654439364206e6 0.0
3.9724654439364206e6 887498.0636037583 0.0
0.0 0.0 0.0

185483.53868773917 225443.37800183767 0.0
225443.37800183767 -1.7979596833289803e6 0.0
0.0 0.0 0.0

-713024.551493693 2.477999711645959e6 0.0
2.477999711645959e6 -54492.071285193815 0.0
0.0 0.0 0.0

589507.4923277386 34181.619773242055 0.0
34181.619773242055 -482382.9877197917 0.0
0.0 0.0 0.0

1.0299853965840639e6 992248.7814688899 0.0
992248.7814688899 -1.5157521069195657e6 0.0
0.0 0.0 0.0

1.3189780675795658e6 1.5140618288732287e6 0.0
1.5140618288732287e6 -1.944475057933305e6 0.0
0.0 0.0 0.0

-449111.43976018694 2.5192237163336673e6 0.0
2.5192237163336673e6 780636.2144323327 0.0
0.0 0.0 0.0

-295316.5369312907 2.4518700843148287e6 0.0
2.4518700843148287e6 -425046.7453485401 0.0
0.0 0.0 0.0

-238501.696525077 1.5905890039707618e6 0.0
1.5905890039707618e6 -74133.26738499007 0.0
0.0 0.0 0.0

1.08743784446047e6 973542.3715060633 0.0
973542.3715060633 -1.5687857421187884e6 0.0
0.0 0.0 0.0

-225444.54876340093 2.360774255626897e6 0.0
2.360774255626897e6 -609426.2955824306 0.0
0.0 0.0 0.0

-272732.8937757758 2.25365314485709e6 0.0
2.25365314485709e6 -659482.7192262397 0.0
0.0 0.0 0.0

-334988.3751669447 1.5732173498202555e6 0.0
1.5732173498202555e6 -10708.857271510002 0.0
0.0 0.0 0.0

-927547.1547946768 1.2026137573114985e6 0.0
1.2026137573114985e6 461591.27828572114 0.0
0.0 0.0 0.0

528249.4207222555 26203.53556900022 0.0
26203.53556900022 -479072.33913727873 0.0
0.0 0.0 0.0

-381528.43382442975 2.412111481557456e6 0.0
2.412111481557456e6 -478776.29271026014 0.0
0.0 0.0 0.0

174383.39799289498 778233.3284188089 0.0
778233.3284188089 -846197.8517504176 0.0
0.0 0.0 0.0

-944872.8285710936 3.324168992287298e6 0.0
3.324168992287298e6 1.6023444370315792e6 0.0
0.0 0.0 0.0

-959858.2929972496 2.948024338603895e6 0.0
2.948024338603895e6 348972.7363882907 0.0
0.0 0.0 0.0

81683.25500170392 295061.89825748594 0.0
295061.89825748594 -1.022623408723346e6 0.0
0.0 0.0 0.0

-269235.07407298824 -99946.39336832789 0.0
-99946.39336832789 829840.3379994512 0.0
0.0 0.0 0.0

-1.654238208533179e6 2.9943749242830127e6 0.0
2.9943749242830127e6 650730.6440818601 0.0
0.0 0.0 0.0

-1.081793127917061e6 2.296990178755901e6 0.0
2.296990178755901e6 89536.22383533418 0.0
0.0 0.0 0.0

538364.0820680796 87632.02731897948 0.0
87632.02731897948 -580964.6794954126 0.0
0.0 0.0 0.0

13832.584819209967 -26990.27131059122 0.0
-26990.27131059122 7702.486873694728 0.0
0.0 0.0 0.0

45820.54877225886 2.3788467067477037e6 0.0
2.3788467067477037e6 -1.227174386440704e6 0.0
0.0 0.0 0.0

-353710.6837762849 1.6200390083484212e6 0.0
1.6200390083484212e6 204977.25332539785 0.0
0.0 0.0 0.0

-573883.213421612 -85408.85013660103 0.0
-85408.85013660103 1.1988990050299738e6 0.0
0.0 0.0 0.0

-2.3856362724419627e6 -292258.172027637 0.0
-292258.172027637 2.9114087903256165e6 0.0
0.0 0.0 0.0

-352410.7746856783 1.8130478988800228e6 0.0
1.8130478988800228e6 -585521.2544493988 0.0
0.0 0.0 0.0

-40238.95584675326 3.146158713187152e6 0.0
3.146158713187152e6 -536167.2055921744 0.0
0.0 0.0 0.0

1.4012426167741492e6 1.1234188194205684e6 0.0
1.1234188194205684e6 -1.887101400257046e6 0.0
0.0 0.0 0.0

-1.2026250190546494e6 2.8502022252909564e6 0.0
2.8502022252909564e6 1.8815614411674784e6 0.0
0.0 0.0 0.0

-681041.9966935326 -76638.2300763897 0.0
-76638.2300763897 842396.5686093766 0.0
0.0 0.0 0.0

-288239.0972007889 929058.625220771 0.0
929058.625220771 -64801.33646470812 0.0
0.0 0.0 0.0

-1.1956826717371377e6 3.3444032253151597e6 0.0
3.3444032253151597e6 842561.2036224045 0.0
0.0 0.0 0.0

-1.4833996736245975e6 2.9586636239397917e6 0.0
2.9586636239397917e6 600009.79325241 0.0
0.0 0.0 0.0

-505237.9173248251 1.8733928021601983e6 0.0
1.8733928021601983e6 139015.34606795615 0.0
0.0 0.0 0.0

-1.0476247823198552e6 2.502135327452282e6 0.0
2.502135327452282e6 89922.1646375311 0.0
0.0 0.0 0.0

-1.0330875952360232e6 2.6680021049943715e6 0.0
2.6680021049943715e6 208370.8018985826 0.0
0.0 0.0 0.0

-676032.4825483037 -568962.0823053183 0.0
-568962.0823053183 822968.5924131887 0.0
0.0 0.0 0.0

84155.15453691359 3.2934138407580354e6 0.0
3.2934138407580354e6 -441403.0969365996 0.0
0.0 0.0 0.0

-370717.017357572 2.407449263662715e6 0.0
2.407449263662715e6 -361522.43168379285 0.0
0.0 0.0 0.0

-1.3794770158207132e6 2.240898214691001e6 0.0
2.240898214691001e6 709626.5676211916 0.0
0.0 0.0 0.0

-148677.83746325882 -208761.72431319658 0.0
-208761.72431319658 111323.12743123397 0.0
0.0 0.0 0.0

-1.9951893695204307e6 2.8960417793678544e6 0.0
2.8960417793678544e6 635809.4423494564 0.0
0.0 0.0 0.0

-120573.80393782508 3.1233197310442803e6 0.0
3.1233197310442803e6 -545459.1148560831 0.0
0.0 0.0 0.0

-858791.2528316518 687500.367637965 0.0
687500.367637965 1.154079619032898e6 0.0
0.0 0.0 0.0

184052.50832997006 1.853435047165971e6 0.0
1.853435047165971e6 -1.0561835103855461e6 0.0
0.0 0.0 0.0

-139429.34978464476 1.475945381536073e6 0.0
1.475945381536073e6 21736.747759183017 0.0
0.0 0.0 0.0

399883.48933585995 74421.03895878678 0.0
74421.03895878678 -452796.55656976637 0.0
0.0 0.0 0.0

934295.7163687771 984936.1670865574 0.0
984936.1670865574 -1.4865718410261057e6 0.0
0.0 0.0 0.0

-345615.83365010115 3.478459343385962e6 0.0
3.478459343385962e6 -33333.65118441975 0.0
0.0 0.0 0.0

-1.1289809506403028e6 2.60400881181431e6 0.0
2.60400881181431e6 221664.23861977813 0.0
0.0 0.0 0.0

-1.5288977923735077e6 2.789816341392783e6 0.0
2.789816341392783e6 533409.0910196367 0.0
0.0 0.0 0.0

-712476.7815617138 3.277662214506368e6 0.0
3.277662214506368e6 121189.61396210405 0.0
0.0 0.0 0.0

1.0246400471200307e6 928771.3052480359 0.0
928771.3052480359 -1.480862106377182e6 0.0
0.0 0.0 0.0

300696.40497372654 169069.81348102665 0.0
169069.81348102665 -458537.9084687531 0.0
0.0 0.0 0.0

918286.7816358835 993321.0727249281 0.0
993321.0727249281 -1.45539759736017e6 0.0
0.0 0.0 0.0

-514023.6179331038 993199.0968709817 0.0
993199.0968709817 200641.55515239618 0.0
0.0 0.0 0.0

-724858.5397173546 3.3714857935867677e6 0.0
3.3714857935867677e6 1.5125899539644197e6 0.0
0.0 0.0 0.0

-2.29317686007761e6 2.6093673293406605e6 0.0
2.6093673293406605e6 675273.7146784168 0.0
0.0 0.0 0.0

-108597.7280366703 -329807.9068130651 0.0
-329807.9068130651 210866.18498353515 0.0
0.0 0.0 0.0

1.0280209554497033e6 1.5986989322363904e6 0.0
1.5986989322363904e6 -1.6690621818767237e6 0.0
0.0 0.0 0.0

-695356.8205083951 3.280343658129384e6 0.0
3.280343658129384e6 308504.2598816959 0.0
0.0 0.0 0.0

-369884.48492023436 3.2586125234860154e6 0.0
3.2586125234860154e6 178502.15288224004 0.0
0.0 0.0 0.0

1.0149067065990748e6 1.1691618266634892e6 0.0
1.1691618266634892e6 -1.6831307556881215e6 0.0
0.0 0.0 0.0

-2.02889615097686e6 2.1955815047449553e6 0.0
2.1955815047449553e6 487996.842893698 0.0
0.0 0.0 0.0

-967363.3809175361 2.969245306392705e6 0.0
2.969245306392705e6 1.429413818292878e6 0.0
0.0 0.0 0.0

-3.853570549151946e6 1.5708099998882932e6 0.0
1.5708099998882932e6 1.5215400376763286e6 0.0
0.0 0.0 0.0

-269192.57787123066 2.751418801205426e6 0.0
2.751418801205426e6 503091.9216298326 0.0
0.0 0.0 0.0

203746.15932823217 1.5346864046022363e6 0.0
1.5346864046022363e6 -1.0971332936897865e6 0.0
0.0 0.0 0.0

1.7527331201116657e6 5.4496918208611505e6 0.0
5.4496918208611505e6 -66445.47828001191 0.0
0.0 0.0 0.0

-812881.7317913328 3.2047056376090194e6 0.0
3.2047056376090194e6 1.6470223283917555e6 0.0
0.0 0.0 0.0

435487.4924811232 69239.5077725663 0.0
69239.5077725663 -301285.7468590514 0.0
0.0 0.0 0.0

-6304.679059550195 3.2363930581370136e6 0.0
3.2363930581370136e6 -537900.7473698107 0.0
0.0 0.0 0.0

-67507.01262918627 2.1761305692528263e6 0.0
2.1761305692528263e6 -1.0737410879984787e6 0.0
0.0 0.0 0.0

-577524.2875835667 3.727881191934902e6 0.0
3.727881191934902e6 308826.5647684077 0.0
0.0 0.0 0.0

-648628.8214391979 2.0607514919236533e6 0.0
2.0607514919236533e6 64321.007957419584 0.0
0.0 0.0 0.0

-361149.28399242624 -152204.30158222027 0.0
-152204.30158222027 550074.9049397067 0.0
0.0 0.0 0.0

-2.2517028550558556e6 2.2215043843396837e6 0.0
2.2215043843396837e6 548864.2731907872 0.0
0.0 0.0 0.0

-501640.17157057585 3.0446500518897604e6 0.0
3.0446500518897604e6 -224562.56250194984 0.0
0.0 0.0 0.0

-1.3630498564929701e6 2.7747209059506794e6 0.0
2.7747209059506794e6 494901.59975138045 0.0
0.0 0.0 0.0

-1.202239606517044e6 4.698735786592565e6 0.0
4.698735786592565e6 981921.215750329 0.0
0.0 0.0 0.0

-1.712208607908367e6 3.01780479793223e6 0.0
3.01780479793223e6 661293.7973575452 0.0
0.0 0.0 0.0

-91696.61132830821 3.093191088859632e6 0.0
3.093191088859632e6 -504594.69334109104 0.0
0.0 0.0 0.0

-122699.69820794024 3.1366878835835154e6 0.0
3.1366878835835154e6 -180910.82693943442 0.0
0.0 0.0 0.0

-334809.65997304575 2.8195210813135235e6 0.0
2.8195210813135235e6 -284673.89959132014 0.0
0.0 0.0 0.0

424707.44302086724 3.6133700208586203e6 0.0
3.6133700208586203e6 -728377.6490283533 0.0
0.0 0.0 0.0

-198447.64352685024 3.058601933397584e6 0.0
3.058601933397584e6 -440922.7029587237 0.0
0.0 0.0 0.0

-1.173282604140911e6 2.6974842751755053e6 0.0
2.6974842751755053e6 253979.50777613808 0.0
0.0 0.0 0.0

-1.0901455551979854e6 1.7460848821578778e6 0.0
1.7460848821578778e6 2.7458134352889694e6 0.0
0.0 0.0 0.0

-635663.9291970652 2.675578303903022e6 0.0
2.675578303903022e6 108889.75867040912 0.0
0.0 0.0 0.0

-246722.2334336812 2.3340259350915425e6 0.0
2.3340259350915425e6 -650713.0984380427 0.0
0.0 0.0 0.0

1.097376144183533e6 1.0000712359539839e6 0.0
1.0000712359539839e6 -1.562227786319588e6 0.0
0.0 0.0 0.0

-882905.8713446552 3.176960884795042e6 0.0
3.176960884795042e6 1.4323612887715942e6 0.0
0.0 0.0 0.0

-257246.13880779414 3.1382052455861373e6 0.0
3.1382052455861373e6 -237781.70987264847 0.0
0.0 0.0 0.0

-163534.63059801143 1.1527741644799584e6 0.0
1.1527741644799584e6 419105.6733862309 0.0
0.0 0.0 0.0

-518524.6545943358 1.8846336028930654e6 0.0
1.8846336028930654e6 64692.90187621501 0.0
0.0 0.0 0.0

-492311.63620874815 3.4898979259851347e6 0.0
3.4898979259851347e6 -68855.92820647647 0.0
0.0 0.0 0.0

-79187.5639812373 1.3030297991451472e6 0.0
1.3030297991451472e6 421466.7671786012 0.0
0.0 0.0 0.0

-531806.2658596938 653523.5112582135 0.0
653523.5112582135 675659.848224979 0.0
0.0 0.0 0.0

-105656.40045089065 1.7898657695819146e6 0.0
1.7898657695819146e6 -515718.28399139014 0.0
0.0 0.0 0.0

505006.3347539986 -25157.913761679312 0.0
-25157.913761679312 -512500.4854066463 0.0
0.0 0.0 0.0

-616228.0938870307 2.240834770256933e6 0.0
2.240834770256933e6 259569.55117221168 0.0
0.0 0.0 0.0

136548.67748276587 2.6324841882374347e6 0.0
2.6324841882374347e6 -1.030028777893292e6 0.0
0.0 0.0 0.0

-100999.85825917398 2.1468595986285843e6 0.0
2.1468595986285843e6 -947045.3059403216 0.0
0.0 0.0 0.0

-1.844954594175223e6 2.4774222838803967e6 0.0
2.4774222838803967e6 521542.0082819689 0.0
0.0 0.0 0.0

-883254.7450827772 -350621.72499105777 0.0
-350621.72499105777 1.44972169845203e6 0.0
0.0 0.0 0.0

-88222.56428735916 2.2018773846697817e6 0.0
2.2018773846697817e6 -936492.3245344497 0.0
0.0 0.0 0.0

-1.8918194026712785e6 4.0588984065059996e6 0.0
4.0588984065059996e6 1.0122490247979595e6 0.0
0.0 0.0 0.0

99638.18308634116 3.2956110029951413e6 0.0
3.2956110029951413e6 -614657.3375266325 0.0
0.0 0.0 0.0

260794.32932827223 -143655.81216795067 0.0
-143655.81216795067 -486587.96360846184 0.0
0.0 0.0 0.0

-58931.967975237305 3.1555958630861975e6 0.0
3.1555958630861975e6 -532659.3300046567 0.0
0.0 0.0 0.0

-1.1713822369341282e6 2.980421195125085e6 0.0
2.980421195125085e6 627345.5650328188 0.0
0.0 0.0 0.0

684586.2011563826 182255.85564891365 0.0
182255.85564891365 -1.0053743266716803e6 0.0
0.0 0.0 0.0

1.3422175912585184e6 1.1421129234110191e6 0.0
1.1421129234110191e6 -1.7806262035526112e6 0.0
0.0 0.0 0.0

-806718.0810104492 1.757543824126123e6 0.0
1.757543824126123e6 420329.23594210274 0.0
0.0 0.0 0.0

-123.92484050228086 2229.1549255520476 0.0
2229.1549255520476 -78326.01672134447 0.0
0.0 0.0 0.0

-633679.5703192702 2.807535045424135e6 0.0
2.807535045424135e6 -78959.19137697131 0.0
0.0 0.0 0.0

-259922.29335070337 2.5643221900419784e6 0.0
2.5643221900419784e6 253540.0848165255 0.0
0.0 0.0 0.0

-713063.9568750449 2.192674371152956e6 0.0
2.192674371152956e6 570685.9849946207 0.0
0.0 0.0 0.0

-1.083547375252021e6 2.8701521305939467e6 0.0
2.8701521305939467e6 1.124043064038443e6 0.0
0.0 0.0 0.0

-2.380567078147452e6 2.472605827996134e6 0.0
2.472605827996134e6 662361.9370480973 0.0
0.0 0.0 0.0

374744.97838843905 15150.379735801529 0.0
15150.379735801529 -461842.1894169136 0.0
0.0 0.0 0.0

-34996.21929542076 3.2296722082129633e6 0.0
3.2296722082129633e6 -253665.54238839666 0.0
0.0 0.0 0.0

69632.73306933895 1.6856824481347215e6 0.0
1.6856824481347215e6 -1.330219728033161e6 0.0
0.0 0.0 0.0

-940879.772094825 2.1668835524460026e6 0.0
2.1668835524460026e6 -209454.79233404025 0.0
0.0 0.0 0.0

-68814.99248089825 -185004.03782209544 0.0
-185004.03782209544 73502.55277521622 0.0
0.0 0.0 0.0

-799133.7788835473 3.3509177247522823e6 0.0
3.3509177247522823e6 -363653.24113780004 0.0
0.0 0.0 0.0

-280213.71594550513 3.3825921219466426e6 0.0
3.3825921219466426e6 1.241006148066441e6 0.0
0.0 0.0 0.0

-1.327829029619163e6 3.4333477347243303e6 0.0
3.4333477347243303e6 838267.1243887658 0.0
0.0 0.0 0.0

169516.72692845872 1.6191018229862617e6 0.0
1.6191018229862617e6 -969223.9837042775 0.0
0.0 0.0 0.0

-553540.0242771424 2.7201565565531873e6 0.0
2.7201565565531873e6 12585.34917234999 0.0
0.0 0.0 0.0

-1.2917430351732895e6 -646097.3917257404 0.0
-646097.3917257404 1.927343170727737e6 0.0
0.0 0.0 0.0

-506365.63113341946 2.8741137748353365e6 0.0
2.8741137748353365e6 447719.301181 0.0
0.0 0.0 0.0

-1.955135006896341e6 2.8577493441636325e6 0.0
2.8577493441636325e6 610381.8719187786 0.0
0.0 0.0 0.0

308491.4631922498 2.4074911887274804e6 0.0
2.4074911887274804e6 -1.080312931812603e6 0.0
0.0 0.0 0.0

-205635.5538934076 2.2965665347077153e6 0.0
2.2965665347077153e6 -595508.9914873573 0.0
0.0 0.0 0.0

-193138.75964780635 2.2599799762525177e6 0.0
2.2599799762525177e6 -659449.886493873 0.0
0.0 0.0 0.0

-476182.59294051444 348434.89097972336 0.0
348434.89097972336 1.292094098536308e6 0.0
0.0 0.0 0.0

-520959.8729058424 1.9954077540523892e6 0.0
1.9954077540523892e6 91091.28675835373 0.0
0.0 0.0 0.0

-2.27805783308675e7 40092.05571404247 0.0
40092.05571404247 2.4229929458443142e7 0.0
0.0 0.0 0.0

472690.24127137905 2.421922644179382e6 0.0
2.421922644179382e6 -1.650359995033932e6 0.0
0.0 0.0 0.0

-1.3638215923964917e6 2.6344096911869855e6 0.0
2.6344096911869855e6 473954.5896001313 0.0
0.0 0.0 0.0

-289954.57046055474 3.0945212265318558e6 0.0
3.0945212265318558e6 -186331.09338680087 0.0
0.0 0.0 0.0

-1.0322117971473731e6 2.1639230226046173e6 0.0
2.1639230226046173e6 -510464.4079497099 0.0
0.0 0.0 0.0

-6093.3784932501 -233356.57273860733 0.0
-233356.57273860733 -265982.03300232027 0.0
0.0 0.0 0.0

-232101.62520721985 1.4737834071014754e6 0.0
1.4737834071014754e6 164553.7069889423 0.0
0.0 0.0 0.0

-698364.553322566 3.2624907028599256e6 0.0
3.2624907028599256e6 -461084.6265259532 0.0
0.0 0.0 0.0

5507.177966223477 30026.19641892096 0.0
30026.19641892096 -24185.0146487827 0.0
0.0 0.0 0.0

265355.1997367964 4.374701695785825e6 0.0
4.374701695785825e6 1.2772394441934647e6 0.0
0.0 0.0 0.0

-25920.42786517508 3.069184398276471e6 0.0
3.069184398276471e6 183367.3718837478 0.0
0.0 0.0 0.0

-314649.43829864456 1.6245845101506002e6 0.0
1.6245845101506002e6 89359.39876785252 0.0
0.0 0.0 0.0

-3.1675704194813166e6 1.5287574573069357e6 0.0
1.5287574573069357e6 1.2263104749245918e6 0.0
0.0 0.0 0.0

-386327.96821706323 2.8050847768114856e6 0.0
2.8050847768114856e6 -193733.8807044669 0.0
0.0 0.0 0.0

-405889.96068010665 2.8103450519162975e6 0.0
2.8103450519162975e6 -283599.2637564237 0.0
0.0 0.0 0.0

-614059.2256182866 2.9057311161220986e6 0.0
2.9057311161220986e6 -43705.457074945414 0.0
0.0 0.0 0.0

-470674.3439234755 3.014796752932829e6 0.0
3.014796752932829e6 -276607.87575254653 0.0
0.0 0.0 0.0

-121117.3541042849 2.55945336561523e6 0.0
2.55945336561523e6 -706404.6246538446 0.0
0.0 0.0 0.0

-366425.4752566293 2.8407452545621255e6 0.0
2.8407452545621255e6 -222386.77164779935 0.0
0.0 0.0 0.0

-410882.078565972 2.462665328885485e6 0.0
2.462665328885485e6 485985.63370204775 0.0
0.0 0.0 0.0

-1.522166058594754e6 5.344781383584213e6 0.0
5.344781383584213e6 1.19196243537629e6 0.0
0.0 0.0 0.0

-529734.3519340163 2.2962833366596117e6 0.0
2.2962833366596117e6 119368.83781976695 0.0
0.0 0.0 0.0

-2.0711439650175974e6 2.542246100891394e6 0.0
2.542246100891394e6 775342.5277219812 0.0
0.0 0.0 0.0

259514.3436593319 3.542661207891841e6 0.0
3.542661207891841e6 -821438.1355841504 0.0
0.0 0.0 0.0

-50781.95057442678 1.0213583303247793e6 0.0
1.0213583303247793e6 -372700.239718271 0.0
0.0 0.0 0.0

-6.3923511025166735e6 3.9488617395155616e6 0.0
3.9488617395155616e6 5.885668991663143e6 0.0
0.0 0.0 0.0

-111376.82648554185 2.706879504023318e6 0.0
2.706879504023318e6 162451.58468561972 0.0
0.0 0.0 0.0

757075.886110022 1.5847499437394158e6 0.0
1.5847499437394158e6 -1.714264162015322e6 0.0
0.0 0.0 0.0

-1.743022268305338e6 5.2806087177331885e6 0.0
5.2806087177331885e6 1.095597910462378e6 0.0
0.0 0.0 0.0

-806957.7741185742 2.902549411848629e6 0.0
2.902549411848629e6 419632.0232149866 0.0
0.0 0.0 0.0

-198645.90149733028 3.24693808136523e6 0.0
3.24693808136523e6 -385978.6006280342 0.0
0.0 0.0 0.0

-539620.3986264636 2.85407389785244e6 0.0
2.85407389785244e6 -6054.749540698511 0.0
0.0 0.0 0.0

-3.0753964296261296e6 1.4580388494937057e6 0.0
1.4580388494937057e6 1.417382558742343e6 0.0
0.0 0.0 0.0

-1.8275157703884672e6 2.882479701282127e6 0.0
2.882479701282127e6 644971.5232820908 0.0
0.0 0.0 0.0

-648496.9402193206 2.961082470747955e6 0.0
2.961082470747955e6 -144183.0114619465 0.0
0.0 0.0 0.0

1.2620244570895503e6 1.192506587426854e6 0.0
1.192506587426854e6 -1.7966868790141195e6 0.0
0.0 0.0 0.0

-619599.5145053649 3.8575276521885577e6 0.0
3.8575276521885577e6 360320.8751095078 0.0
0.0 0.0 0.0

116244.76114830177 2.562806565929291e6 0.0
2.562806565929291e6 -1.1225845078758227e6 0.0
0.0 0.0 0.0

-645169.8993636344 3.8103890183591503e6 0.0
3.8103890183591503e6 420221.51261711156 0.0
0.0 0.0 0.0

-206409.05979193043 2.553473979558942e6 0.0
2.553473979558942e6 -705350.3391209788 0.0
0.0 0.0 0.0

38.675160373648396 3.251708302926282e6 0.0
3.251708302926282e6 -224385.34197282995 0.0
0.0 0.0 0.0

-889063.8536195579 2.6624401942867674e6 0.0
2.6624401942867674e6 63986.62059080595 0.0
0.0 0.0 0.0

47247.57763433714 -28837.769552589427 0.0
-28837.769552589427 27832.178707001345 0.0
0.0 0.0 0.0

-338145.5357435954 3.5376918452195395e6 0.0
3.5376918452195395e6 263089.0174132098 0.0
0.0 0.0 0.0

-4.734379699665033e6 638343.3128771209 0.0
638343.3128771209 4.093096296156035e6 0.0
0.0 0.0 0.0

-612972.5008584799 309418.5963624534 0.0
309418.5963624534 853395.9133140757 0.0
0.0 0.0 0.0

-487399.97049512377 3.0659571888116645e6 0.0
3.0659571888116645e6 -215698.85414152488 0.0
0.0 0.0 0.0

-450984.56294383295 3.021491153777687e6 0.0
3.021491153777687e6 -197813.6811808115 0.0
0.0 0.0 0.0

1.3182422664324231e6 1.0753329469597784e6 0.0
1.0753329469597784e6 -1.7865445085236062e6 0.0
0.0 0.0 0.0

-348106.86071357346 3.0860405592860654e6 0.0
3.0860405592860654e6 -218702.28484969365 0.0
0.0 0.0 0.0

-648643.6524788999 -573859.4789354027 0.0
-573859.4789354027 746826.4513082387 0.0
0.0 0.0 0.0

375055.79856930027 3.3730244489049427e6 0.0
3.3730244489049427e6 -1.2039529076593942e6 0.0
0.0 0.0 0.0

-2.2146304008384524e6 8.091722387738737e6 0.0
8.091722387738737e6 2.411796685276934e7 0.0
0.0 0.0 0.0

156838.5663309396 2.373269535162948e6 0.0
2.373269535162948e6 -1.2676162357037843e6 0.0
0.0 0.0 0.0

74774.37446083143 294301.47063735814 0.0
294301.47063735814 -698471.2629700067 0.0
0.0 0.0 0.0

-905910.137262886 3.443755449278938e6 0.0
3.443755449278938e6 1.583759186760809e6 0.0
0.0 0.0 0.0

-1.607454424998523e6 -690751.2533586392 0.0
-690751.2533586392 2.064464791929509e6 0.0
0.0 0.0 0.0

-587813.909068605 1.3685938517081484e6 0.0
1.3685938517081484e6 484736.2506682946 0.0
0.0 0.0 0.0

-1.2731190444946247e6 5.263346821922352e6 0.0
5.263346821922352e6 881502.8204839132 0.0
0.0 0.0 0.0

-615553.010064927 2.451068398534518e6 0.0
2.451068398534518e6 -153487.50810304168 0.0
0.0 0.0 0.0

118231.95763788617 3.236328425772766e6 0.0
3.236328425772766e6 -589937.9982620646 0.0
0.0 0.0 0.0

-464706.47356451506 3.018770342388976e6 0.0
3.018770342388976e6 -271505.93162892933 0.0
0.0 0.0 0.0

-1.0000864816863476e6 2.287247692420766e6 0.0
2.287247692420766e6 -260521.6817838403 0.0
0.0 0.0 0.0

-1.6699635683918167e6 2.712748213201565e6 0.0
2.712748213201565e6 528357.1332326022 0.0
0.0 0.0 0.0

-2812.055636449426 3.2369619085465157e6 0.0
3.2369619085465157e6 -484090.1942068465 0.0
0.0 0.0 0.0

-229156.10974103166 3.069767633156267e6 0.0
3.069767633156267e6 -179784.66641284723 0.0
0.0 0.0 0.0

-244959.0212256842 2.340328017774315e6 0.0
2.340328017774315e6 -645067.4412937937 0.0
0.0 0.0 0.0

-568923.4549198508 2.814225545594459e6 0.0
2.814225545594459e6 -153320.1579634095 0.0
0.0 0.0 0.0

-1.5842064479756737e6 -605107.6221541872 0.0
-605107.6221541872 1.829491071190196e6 0.0
0.0 0.0 0.0

-3.2538378130466416e6 1.7853993395627774e6 0.0
1.7853993395627774e6 1.355862627512043e6 0.0
0.0 0.0 0.0

-1.8387804853864445e6 1.8404629775066073e6 0.0
1.8404629775066073e6 335941.061598805 0.0
0.0 0.0 0.0

-2.228900542338783e6 1.3050584249598046e6 0.0
1.3050584249598046e6 1.7848738311877297e6 0.0
0.0 0.0 0.0

-101053.43459572541 3.092075026216567e6 0.0
3.092075026216567e6 -401382.2803226739 0.0
0.0 0.0 0.0

-558275.9550970194 2.955071790606352e6 0.0
2.955071790606352e6 -304292.1580164883 0.0
0.0 0.0 0.0

-1.7368735224722647e6 2.305326443444764e6 0.0
2.305326443444764e6 603465.8247663582 0.0
0.0 0.0 0.0

-308001.3263906561 1.2148664468921395e6 0.0
1.2148664468921395e6 334798.13042741443 0.0
0.0 0.0 0.0

114990.34478670961 3.2127957180953803e6 0.0
3.2127957180953803e6 -464095.59582429356 0.0
0.0 0.0 0.0

933682.5575977399 1.4639238079657801e6 0.0
1.4639238079657801e6 -1.5870990148113603e6 0.0
0.0 0.0 0.0

-481460.8034890235 418600.77704559267 0.0
418600.77704559267 986989.308636049 0.0
0.0 0.0 0.0

-1.4430984129206585e6 -724767.8805547385 0.0
-724767.8805547385 1.83657364235905e6 0.0
0.0 0.0 0.0

1.299624871499288e6 1.2009972484266784e6 0.0
1.2009972484266784e6 -1.8318550539421686e6 0.0
0.0 0.0 0.0

-2.8186566152027557e6 1.853136223828402e6 0.0
1.853136223828402e6 1.5817779494578736e6 0.0
0.0 0.0 0.0

-385664.0642629338 -500179.5212690021 0.0
-500179.5212690021 429972.2005014849 0.0
0.0 0.0 0.0

-182192.6005545975 -357000.01480730757 0.0
-357000.01480730757 175656.3971030481 0.0
0.0 0.0 0.0

-455579.79163368465 1.0291436720488978e6 0.0
1.0291436720488978e6 103049.34855148027 0.0
0.0 0.0 0.0

-30752.344408325043 -201653.39218526272 0.0
-201653.39218526272 147843.44968684134 0.0
0.0 0.0 0.0

-2.6076183229877716e6 6.57263419720216e6 0.0
6.57263419720216e6 1.1867823744022222e6 0.0
0.0 0.0 0.0

-345469.84812490153 1.7208880978454577e6 0.0
1.7208880978454577e6 162009.4757632279 0.0
0.0 0.0 0.0

1.200725601227309e6 1.4553675929468723e6 0.0
1.4553675929468723e6 -2.0260541151165282e6 0.0
0.0 0.0 0.0

1.306807074480018e6 1.114711235575202e6 0.0
1.114711235575202e6 -1.8213417547710543e6 0.0
0.0 0.0 0.0

-558447.4460918372 2.035330117066736e6 0.0
2.035330117066736e6 83636.20664794664 0.0
0.0 0.0 0.0

-2.1940520014444785e6 2.334153102515528e6 0.0
2.334153102515528e6 542190.6438594789 0.0
0.0 0.0 0.0

-316749.9658438413 2.531415900049687e6 0.0
2.531415900049687e6 1.059359247376601e6 0.0
0.0 0.0 0.0

-1.11756181974899e6 3.067931546495943e6 0.0
3.067931546495943e6 1.2604772458071564e6 0.0
0.0 0.0 0.0

-669092.4716198258 3.7655739919753526e6 0.0
3.7655739919753526e6 253921.4479559051 0.0
0.0 0.0 0.0

-383851.63347455533 -499288.57976280927 0.0
-499288.57976280927 422581.4557021427 0.0
0.0 0.0 0.0

-2.6039683479690007e6 1.1673919136625738e6 0.0
1.1673919136625738e6 1.6509589555712303e6 0.0
0.0 0.0 0.0

-1.7095126356539424e6 2.7827201699832617e6 0.0
2.7827201699832617e6 550390.8724556707 0.0
0.0 0.0 0.0

-1.5504283708423777e6 2.697569612594494e6 0.0
2.697569612594494e6 3.562873687631318e6 0.0
0.0 0.0 0.0

-630021.0029825384 3.8475868773527197e6 0.0
3.8475868773527197e6 381517.23868114094 0.0
0.0 0.0 0.0

-424128.11672037863 3.6162455931268204e6 0.0
3.6162455931268204e6 -66820.35941086175 0.0
0.0 0.0 0.0

-407509.27125028253 2.5659870541889966e6 0.0
2.5659870541889966e6 368567.90532198374 0.0
0.0 0.0 0.0

-449409.368256566 3.3742403180301287e6 0.0
3.3742403180301287e6 -96696.24754904007 0.0
0.0 0.0 0.0

-4.856341740189316e6 2.4341208927856926e6 0.0
2.4341208927856926e6 -25897.339747351594 0.0
0.0 0.0 0.0

-403426.4814301089 1.6520897062226252e6 0.0
1.6520897062226252e6 48694.89317024534 0.0
0.0 0.0 0.0

-457071.9870351286 3.549618358498685e6 0.0
3.549618358498685e6 -321800.246402397 0.0
0.0 0.0 0.0

-409617.2894958356 2.749454612562212e6 0.0
2.749454612562212e6 163988.86221865888 0.0
0.0 0.0 0.0

-661703.8155419905 3.5699859481787602e6 0.0
3.5699859481787602e6 172250.06553593077 0.0
0.0 0.0 0.0

1.2773808145910874e6 1.0831444240114922e6 0.0
1.0831444240114922e6 -1.7383946712405717e6 0.0
0.0 0.0 0.0

-654535.0589804022 3.147275902924399e6 0.0
3.147275902924399e6 24408.376709948643 0.0
0.0 0.0 0.0

-3.594954121480896e6 1.6474267904718404e6 0.0
1.6474267904718404e6 1.1370203179219824e6 0.0
0.0 0.0 0.0

-1.0745801958180007e6 2.564911668443267e6 0.0
2.564911668443267e6 -27814.80965402152 0.0
0.0 0.0 0.0

448516.2908154343 -990.6427011507046 0.0
-990.6427011507046 -519923.6323367051 0.0
0.0 0.0 0.0

-418272.521580787 2.48177268049921e6 0.0
2.48177268049921e6 -388115.31701239385 0.0
0.0 0.0 0.0

-408215.7387394287 3.3773613115942874e6 0.0
3.3773613115942874e6 12105.01444457291 0.0
0.0 0.0 0.0

-3.6440141151503827e6 839802.0351795307 0.0
839802.0351795307 1.5360012152889837e6 0.0
0.0 0.0 0.0

158984.7914792881 3.2305770604400635e6 0.0
3.2305770604400635e6 -658311.6668618117 0.0
0.0 0.0 0.0

900006.3787994636 1.4755316655416007e6 0.0
1.4755316655416007e6 -1.697182490361196e6 0.0
0.0 0.0 0.0

-312163.48297306773 2.347783183329153e6 0.0
2.347783183329153e6 -575861.7807790458 0.0
0.0 0.0 0.0

-301476.98444825434 3.1119671765679177e6 0.0
3.1119671765679177e6 -192189.85098782994 0.0
0.0 0.0 0.0

-1.9779547439851775e6 2.2703743090469786e6 0.0
2.2703743090469786e6 635790.4744557238 0.0
0.0 0.0 0.0

-1.2616669396597426e6 4.0502280468035047e6 0.0
4.0502280468035047e6 1.020230721136722e6 0.0
0.0 0.0 0.0

1.3365279552500164e6 1.1180135228761006e6 0.0
1.1180135228761006e6 -1.8156700012103578e6 0.0
0.0 0.0 0.0

-856337.9715473569 2.7596258678021235e6 0.0
2.7596258678021235e6 1.948500821999048e6 0.0
0.0 0.0 0.0

83745.7323927469 2.8099276454870263e6 0.0
2.8099276454870263e6 -791144.6862679813 0.0
0.0 0.0 0.0

-2.9902747011441956e6 1.1864177249665884e6 0.0
1.1864177249665884e6 2.1204762619612645e6 0.0
0.0 0.0 0.0

-27287.782345159805 -43676.88784285329 0.0
-43676.88784285329 -18788.70065683511 0.0
0.0 0.0 0.0

34333.2775342157 -166092.9955504913 0.0
-166092.9955504913 70154.86151449342 0.0
0.0 0.0 0.0

-211500.56282513292 2.889415168023259e6 0.0
2.889415168023259e6 206871.2187884086 0.0
0.0 0.0 0.0

-321688.7519032969 -471025.37181871355 0.0
-471025.37181871355 430873.1595545524 0.0
0.0 0.0 0.0

55355.898235944886 3.244453103552144e6 0.0
3.244453103552144e6 -692888.0181282716 0.0
0.0 0.0 0.0

-299225.9877799691 2.7096148537806813e6 0.0
2.7096148537806813e6 319616.3562885559 0.0
0.0 0.0 0.0

-2.1853593762611155e6 4.662872805827474e6 0.0
4.662872805827474e6 1.118848896039451e6 0.0
0.0 0.0 0.0

-3.2022652607229864e6 -879681.0763617451 0.0
-879681.0763617451 3.220556186060181e6 0.0
0.0 0.0 0.0

230114.1411603692 2.6328306421266436e6 0.0
2.6328306421266436e6 -1.1083928774555651e6 0.0
0.0 0.0 0.0

-453035.0383699613 1.3083893781612695e6 0.0
1.3083893781612695e6 184993.1287311886 0.0
0.0 0.0 0.0

-306951.2688623694 3.112713261387379e6 0.0
3.112713261387379e6 -238300.95891983662 0.0
0.0 0.0 0.0

-190789.104577113 2.737457841638385e6 0.0
2.737457841638385e6 447960.2423283126 0.0
0.0 0.0 0.0

-386861.8886897646 -382675.18994741497 0.0
-382675.18994741497 365942.78243371955 0.0
0.0 0.0 0.0

-1.0085233363241192e6 879802.1042169466 0.0
879802.1042169466 812871.7330226039 0.0
0.0 0.0 0.0

-1.0477043310922431e6 2.6272368577491636e6 0.0
2.6272368577491636e6 294873.7511538859 0.0
0.0 0.0 0.0

-639742.1269781094 1.5790644215416263e6 0.0
1.5790644215416263e6 1.613749370422516e6 0.0
0.0 0.0 0.0

-490211.49672698753 2.8744233807331068e6 0.0
2.8744233807331068e6 -269152.6005471297 0.0
0.0 0.0 0.0

-56496.24479311996 -181755.43024410642 0.0
-181755.43024410642 60690.00461986506 0.0
0.0 0.0 0.0

-3.411935115383115e6 -1.1305170838520594e6 0.0
-1.1305170838520594e6 3.838337644722481e6 0.0
0.0 0.0 0.0

-422246.7323358904 2.900996588410632e6 0.0
2.900996588410632e6 -227296.31581839704 0.0
0.0 0.0 0.0

-534523.421448971 2.4887296816331507e6 0.0
2.4887296816331507e6 -101186.58777864046 0.0
0.0 0.0 0.0

-2.8908366830600845e6 -787991.5102107971 0.0
-787991.5102107971 4.537016987949302e6 0.0
0.0 0.0 0.0

-559999.8059188151 3.613831042896825e6 0.0
3.613831042896825e6 239348.42435426018 0.0
0.0 0.0 0.0

101950.09736601255 3.157087427687278e6 0.0
3.157087427687278e6 -450535.19076594635 0.0
0.0 0.0 0.0

310830.28165102564 701939.2656994261 0.0
701939.2656994261 -698545.9484680187 0.0
0.0 0.0 0.0

-259104.0928071082 157605.87258689638 0.0
157605.87258689638 549837.4124502599 0.0
0.0 0.0 0.0

-365993.20641426963 72727.529200986 0.0
72727.529200986 161100.30190918353 0.0
0.0 0.0 0.0

