# vtk DataFile Version 2.0
phase field modeling fracture
ASCII
DATASET UNSTRUCTURED_GRID
POINTS 2538 float
0.0 0.0 0.0
10.0 0.0 0.0
0.0 10.0 0.0
10.0 10.0 0.0
0.0 4.9995 0.0
0.0 5.0005 0.0
5.0 5.0 0.0
0.9416964895726688 0.0 0.0
1.803581725054446 0.0 0.0
2.592419885431098 0.0 0.0
3.314401822861676 0.0 0.0
3.975193910351406 0.0 0.0
4.579982132660152 0.0 0.0
5.133512780936812 0.0 0.0
5.640130319506143 0.0 0.0
6.103810708661955 0.0 0.0
6.528192895506818 0.0 0.0
6.916607540127679 0.0 0.0
7.272102969376355 0.0 0.0
7.597469242948583 0.0 0.0
7.895259826292669 0.0 0.0
8.167811885738017 0.0 0.0
8.417264413845215 0.0 0.0
8.645575169389538 0.0 0.0
8.854535961159101 0.0 0.0
9.045786767735546 0.0 0.0
9.220828555767493 0.0 0.0
9.38103509633881 0.0 0.0
9.527663687265145 0.0 0.0
9.661865124984566 0.0 0.0
9.784692609918062 0.0 0.0
9.897110148790482 0.0 0.0
10.0 0.09999999999992584 0.0
10.0 0.199999999999856 0.0
10.0 0.2999999999997771 0.0
10.0 0.3999999999996677 0.0
10.0 0.4999999999995511 0.0
10.0 0.5999999999994683 0.0
10.0 0.6999999999993983 0.0
10.0 0.7999999999993286 0.0
10.0 0.8999999999992587 0.0
10.0 0.9999999999991888 0.0
10.0 1.099999999999119 0.0
10.0 1.199999999999033 0.0
10.0 1.299999999998852 0.0
10.0 1.399999999998576 0.0
10.0 1.499999999998284 0.0
10.0 1.599999999997992 0.0
10.0 1.6999999999977 0.0
10.0 1.799999999997408 0.0
10.0 1.899999999997116 0.0
10.0 1.999999999996825 0.0
10.0 2.099999999996533 0.0
10.0 2.199999999996241 0.0
10.0 2.299999999995949 0.0
10.0 2.399999999995657 0.0
10.0 2.499999999995365 0.0
10.0 2.599999999995073 0.0
10.0 2.699999999994782 0.0
10.0 2.79999999999449 0.0
10.0 2.899999999994198 0.0
10.0 2.999999999993906 0.0
10.0 3.099999999993614 0.0
10.0 3.199999999993322 0.0
10.0 3.299999999993029 0.0
10.0 3.399999999992738 0.0
10.0 3.499999999992446 0.0
10.0 3.599999999992154 0.0
10.0 3.699999999991863 0.0
10.0 3.799999999991571 0.0
10.0 3.899999999991278 0.0
10.0 3.999999999991022 0.0
10.0 4.099999999991035 0.0
10.0 4.199999999991187 0.0
10.0 4.299999999991338 0.0
10.0 4.399999999991491 0.0
10.0 4.499999999991642 0.0
10.0 4.599999999991795 0.0
10.0 4.699999999991947 0.0
10.0 4.799999999992099 0.0
10.0 4.89999999999225 0.0
10.0 4.999999999992403 0.0
10.0 5.099999999992555 0.0
10.0 5.199999999992706 0.0
10.0 5.299999999992858 0.0
10.0 5.39999999999301 0.0
10.0 5.499999999993161 0.0
10.0 5.599999999993313 0.0
10.0 5.699999999993466 0.0
10.0 5.799999999993618 0.0
10.0 5.899999999993771 0.0
10.0 5.999999999993922 0.0
10.0 6.099999999994074 0.0
10.0 6.199999999994227 0.0
10.0 6.299999999994378 0.0
10.0 6.39999999999453 0.0
10.0 6.499999999994682 0.0
10.0 6.599999999994833 0.0
10.0 6.699999999994986 0.0
10.0 6.799999999995138 0.0
10.0 6.899999999995289 0.0
10.0 6.999999999995442 0.0
10.0 7.099999999995594 0.0
10.0 7.199999999995747 0.0
10.0 7.299999999995897 0.0
10.0 7.39999999999605 0.0
10.0 7.499999999996202 0.0
10.0 7.599999999996353 0.0
10.0 7.699999999996505 0.0
10.0 7.799999999996658 0.0
10.0 7.899999999996808 0.0
10.0 7.999999999996962 0.0
10.0 8.099999999997113 0.0
10.0 8.199999999997265 0.0
10.0 8.299999999997418 0.0
10.0 8.399999999997569 0.0
10.0 8.499999999997721 0.0
10.0 8.599999999997873 0.0
10.0 8.699999999998024 0.0
10.0 8.799999999998176 0.0
10.0 8.899999999998329 0.0
10.0 8.99999999999848 0.0
10.0 9.099999999998634 0.0
10.0 9.199999999998786 0.0
10.0 9.299999999998937 0.0
10.0 9.399999999999089 0.0
10.0 9.499999999999241 0.0
10.0 9.599999999999392 0.0
10.0 9.699999999999545 0.0
10.0 9.799999999999697 0.0
10.0 9.899999999999848 0.0
9.897110148790565 10.0 0.0
9.784692609918244 10.0 0.0
9.66186512498486 10.0 0.0
9.527663687265571 10.0 0.0
9.381035096339392 10.0 0.0
9.220828555768257 10.0 0.0
9.045786767736512 10.0 0.0
8.854535961160305 10.0 0.0
8.645575169391027 10.0 0.0
8.417264413847017 10.0 0.0
8.167811885740178 10.0 0.0
7.895259826295246 10.0 0.0
7.597469242951631 10.0 0.0
7.272102969379938 10.0 0.0
6.916607540131873 10.0 0.0
6.528192895511704 10.0 0.0
6.103810708667616 10.0 0.0
5.640130319512691 10.0 0.0
5.13351278094435 10.0 0.0
4.579982132668816 10.0 0.0
3.975193910361222 10.0 0.0
3.314401822869852 10.0 0.0
2.592419885437257 10.0 0.0
1.803581725058137 10.0 0.0
0.9416964895740705 10.0 0.0
0.0 9.00010000000243 0.0
0.0 8.000200000005481 0.0
0.0 7.000300000005135 0.0
0.0 6.000400000002569 0.0
0.901790731451151 5.000409820926855 0.0
1.657200899774397 5.000334279910023 0.0
2.289991063707192 5.000271000893629 0.0
2.820065163538221 5.000217993483646 0.0
3.264096435579811 5.000173590356442 0.0
3.636051481595835 5.00013639485184 0.0
3.947629914072366 5.000105237008593 0.0
4.208632181002628 5.0000791367819 0.0
4.427267949625672 5.000057273205037 0.0
4.610414277633563 5.000038958572237 0.0
4.763831845154243 5.000023616815485 0.0
4.892346298799659 5.00001076537012 0.0
4.892346298799748 4.99998923462988 0.0
4.763831845154455 4.999976383184515 0.0
4.610414277633943 4.999961041427763 0.0
4.427267949626277 4.999942726794963 0.0
4.208632181003523 4.9999208632181 0.0
3.94762991407365 4.999894762991407 0.0
3.636051481597624 4.99986360514816 0.0
3.264096435582253 4.999826409643559 0.0
2.820065163541503 4.999782006516354 0.0
2.289991063711534 4.999728999106371 0.0
1.657200899778495 4.999665720089978 0.0
0.9017907314530094 4.999590179073145 0.0
0.0 3.999600000002013 0.0
0.0 2.999700000005187 0.0
0.0 1.99980000000512 0.0
0.0 0.9999000000025537 0.0
9.897889398521345 2.93573355845387 0.0
9.906568249974548 7.060009441434234 0.0
9.913122631074113 3.64016132281653 0.0
9.922462129543863 6.354535290629151 0.0
9.917693659967533 4.354211663134567 0.0
9.909873057440208 5.637584487339942 0.0
9.914183254994697 4.950672966925282 0.0
9.913885043715895 7.666887930262611 0.0
9.91009668007573 2.351889069770817 0.0
9.905135696074536 8.138152454502785 0.0
9.913397459621809 1.849999999997262 0.0
7.099302372137626 0.297750452375005 0.0
7.095143729410097 9.700359990366296 0.0
4.942912558701401 5.095838627899509 0.0
4.315009232304429 5.165022115481685 0.0
4.946182472483878 4.906763777264103 0.0
4.317967462990024 4.825955043772673 0.0
9.916390871492647 8.64999999999792 0.0
9.921504649680616 1.368376469890358 0.0
8.292538149791614 0.206877570318844 0.0
8.292538149793597 9.793122429681448 0.0
5.884594439766573 9.587645267048616 0.0
5.794826292691579 0.3794853783929359 0.0
9.913397459621425 9.049999999998557 0.0
9.908526577714177 0.9568239351922434 0.0
3.456851160380649 5.315740054130451 0.0
3.457889657868442 4.707121019609468 0.0
8.945214200703926 0.1503383337970344 0.0
8.950161364448409 9.8413906539257 0.0
9.913862335499305 4.055887885208452 0.0
9.916697353372683 4.650158482607802 0.0
9.919076340414442 6.049999999994006 0.0
9.906994308667635 5.25749687748192 0.0
9.917490342358025 6.655979201891897 0.0
9.915757520293784 7.343848891656911 0.0
9.910049507471042 3.363474386285078 0.0
9.914471988502868 2.647400064832979 0.0
9.91474124160965 9.337490423485129 0.0
9.916971008170838 0.6499999999994355 0.0
4.307157269264427 9.509674045029644 0.0
4.331527375865619 0.4401616696422582 0.0
9.45434939180249 9.878397030523757 0.0
9.457696120412969 0.1270877537061785 0.0
2.555070293622606 5.422044496190925 0.0
2.566232917480916 4.608001224030952 0.0
3.026511860837692 9.332320638257093 0.0
2.945561971800619 0.5895662714727601 0.0
7.7395404387124 0.2511088946967771 0.0
7.736379255744154 9.745848826372828 0.0
4.687135269408529 5.122111433928926 0.0
4.688420821504113 4.871895064967488 0.0
9.910554884115975 0.3448356354522978 0.0
9.911230082250466 9.65764729394159 0.0
9.921953841410854 6.851023993342036 0.0
9.912065178606017 5.448170483544033 0.0
9.911660025326261 3.861846960030188 0.0
9.914847467973438 3.14501593945607 0.0
9.913397459621425 5.849999999993703 0.0
9.913397459621425 7.849999999996735 0.0
9.906916878988277 2.15455769998631 0.0
9.913397459621425 8.349999999997479 0.0
9.909472363117661 1.640528221515488 0.0
9.913987325695956 1.152857110636247 0.0
9.913397459621425 8.849999999998241 0.0
0.9100099990995943 2.614215977520411 0.0
0.8395284981715456 7.451196254860987 0.0
9.723278867451556 9.898135916635193 0.0
9.723316350887044 0.09841820909386662 0.0
1.385819164827588 4.454539963646463 0.0
1.338343629665047 5.523111536005823 0.0
1.377179700550677 0.6809168304959698 0.0
1.418060461092743 9.285896715136046 0.0
9.91268220142518 0.1457914080939694 0.0
9.906737126737994 9.845745933882352 0.0
0.7108351382691361 6.537941170074089 0.0
1.527735020267026 6.915620208855231 0.0
1.630993885659103 7.838271825205868 0.0
2.232760943566823 7.370850737296832 0.0
2.243414218068206 6.688299277952821 0.0
2.779655053105118 7.021588754814074 0.0
2.80227799359795 7.632420170547022 0.0
3.282022065908813 7.305859666021318 0.0
3.327597298795347 7.857554136825748 0.0
3.743210251018715 7.549183328204379 0.0
3.716353232200752 7.062036086888612 0.0
4.111978858674101 7.27497101169417 0.0
4.104192177581432 6.879858986267289 0.0
4.436230765617037 7.045693351607117 0.0
4.430360014817357 6.703971783962796 0.0
4.732390145036301 6.849841042423394 0.0
5.056161327708878 5.095276573498806 0.0
5.111586796021131 4.999081142133581 0.0
5.169267363407189 5.09444870412406 0.0
5.223795108752053 4.996986220359468 0.0
5.281480803887719 5.092780870372803 0.0
5.335670761900611 4.994887492556936 0.0
5.393485214772442 5.090486192743301 0.0
5.447323082877892 4.992601527033996 0.0
5.505243219343024 5.087953380710069 0.0
5.558739102026105 4.990287787962959 0.0
5.616491581184779 5.085335255235766 0.0
5.669852346908056 4.9879269227514 0.0
5.727502713908907 5.082679981817038 0.0
5.780766004135139 4.988313988715834 0.0
5.838244881129535 5.080480568766611 0.0
5.891357695677371 4.986433849408193 0.0
5.948696036767613 5.077969900389505 0.0
6.001601341641615 4.981313698556656 0.0
6.058851024265095 5.074871552128682 0.0
6.111614020704875 4.978360695880202 0.0
6.168801161530775 5.072044953270978 0.0
6.221368818778567 4.975825765213497 0.0
6.278268309066882 5.066182320461055 0.0
6.330814273567539 4.972837984645718 0.0
6.387565032421376 5.062889771971895 0.0
6.437476667631405 4.971693683589553 0.0
6.496181111585419 5.060210690175857 0.0
6.539454812256072 4.964658165361536 0.0
6.604198202576491 5.056387520850258 0.0
6.648506025747331 4.939374587506267 0.0
6.714026758992516 5.05873885840664 0.0
6.764418045981209 4.959246676066148 0.0
6.8219334571197 5.055299567406268 0.0
6.873708540948134 4.960426349093742 0.0
6.930181428849307 5.053461390218819 0.0
6.981893615341967 4.96435459462232 0.0
7.037791764774784 5.051219747103022 0.0
7.090993561518408 4.96392420322464 0.0
5.504417457283294 4.900897920552702 0.0
7.145434864123609 5.048960634292441 0.0
6.054532384032612 4.883956083938546 0.0
6.738027949040956 4.850032323068674 0.0
7.198432914526514 4.956325226333323 0.0
7.252637187936749 5.046012229327236 0.0
7.30926729605109 4.948903216650376 0.0
7.248106275544042 4.860306312845646 0.0
7.363100274863074 4.849952416808486 0.0
7.365733472701664 5.039519554615095 0.0
7.308483293090149 5.137557220352172 0.0
6.768399513646964 5.145609705119954 0.0
7.422800035311104 5.132251445551834 0.0
7.358273518796229 5.235980394389298 0.0
7.480824155801127 5.227946127939927 0.0
7.302193400058628 4.761917474298247 0.0
7.413570879789824 4.754555110721153 0.0
7.414392998903179 5.334729114426734 0.0
7.352769630272076 4.660405502266205 0.0
7.467556835255426 4.658352623795039 0.0
7.536246869015014 5.328986926716081 0.0
7.478865844607288 5.432598185493195 0.0
7.406396991826072 4.556956233957538 0.0
7.523581002009154 4.552005631348623 0.0
7.597792398573263 5.429506106314967 0.0
7.540511043402902 5.53619421580439 0.0
7.46214474876342 4.452580994318881 0.0
7.5852185078634 4.446021810672608 0.0
7.663329342323453 5.533453399066901 0.0
7.603478967594521 5.643227430483237 0.0
7.513450346818673 4.347641323140766 0.0
7.640744971722214 4.333388343316237 0.0
7.727671715775243 5.642390483050116 0.0
7.667774597993788 5.753188858425915 0.0
7.570065256728661 4.230515669344811 0.0
7.702881065467917 4.218307808529532 0.0
7.638288257073729 4.107994211855027 0.0
7.493362356301017 4.120843902105771 0.0
7.779018500630071 5.521233457321821 0.0
7.794641287388929 5.752364621610818 0.0
7.73369774483611 5.865894287356292 0.0
7.600834531784728 5.867752110500446 0.0
6.233038857278689 5.15645045634683 0.0
7.669727996028819 5.985665563643058 0.0
7.528582452554481 5.987393423295551 0.0
7.598722674572824 6.11001923494443 0.0
7.778305000222867 4.104318908265786 0.0
7.704329019832056 3.987744174608892 0.0
7.838453459801382 4.213322728668484 0.0
7.864495721576461 5.862306066517277 0.0
7.846552353360407 3.98481756181946 0.0
7.769730409703277 3.86544808681145 0.0
5.785249360396857 5.177248808588045 0.0
7.908837087876153 3.861484036275285 0.0
7.834824606222196 3.740586825753288 0.0
7.97685993406276 3.736209527152902 0.0
7.89665098770825 3.615501862931453 0.0
7.753228010315262 3.617800245018972 0.0
7.826063013090472 3.483173292579822 0.0
7.66789744383048 3.48859328808356 0.0
8.042515855796823 3.595394268381807 0.0
7.75200750488492 3.341279823834038 0.0
7.582870318332553 3.346584916806707 0.0
8.120807847415062 3.732493963388337 0.0
8.189783970303546 3.61159165475499 0.0
7.657801000286734 3.200439907646711 0.0
7.486781956172036 3.201402473247712 0.0
7.452595103886905 6.11418616185016 0.0
7.527098033550077 6.243191052852112 0.0
8.260502906807751 3.728437634721859 0.0
8.327629317451398 3.608173631356984 0.0
7.372763970891452 6.247552889754036 0.0
7.456170570815929 6.384992468962936 0.0
7.621837793616884 6.376077080857113 0.0
7.548039512904141 6.520750676893614 0.0
7.717475944451644 6.514856553988943 0.0
7.636658166268699 6.661648164052906 0.0
7.807468267259438 6.664076174524672 0.0
7.718022764310774 6.817938967122142 0.0
7.887785766941087 6.807440365887151 0.0
7.545993589083432 6.815070675854734 0.0
7.809874785067209 6.967537287475282 0.0
7.975643812145337 6.948729406725126 0.0
8.396477808021062 3.725446935061211 0.0
7.565651643157136 3.044354774611752 0.0
7.384328725505071 3.043048915147076 0.0
8.056405351948353 6.802790889114673 0.0
8.14128318237188 6.940027831915737 0.0
8.064621760266059 7.086348792208953 0.0
8.225003598857908 6.805225152373254 0.0
8.463085452993242 3.606998510553562 0.0
8.230426869720718 7.079551841000411 0.0
8.155262284174286 7.224761758176069 0.0
8.530696760758996 3.721683301125054 0.0
8.596669886994064 3.604516769862316 0.0
8.528531058025589 3.490411531312337 0.0
8.320451770844851 7.218191678954744 0.0
8.245273958732774 7.363444652121271 0.0
8.66324687389452 3.717094013035765 0.0
8.600103125209296 3.831913857228569 0.0
8.662131102573216 3.488322280861316 0.0
8.594166125380536 3.374071873435548 0.0
8.411074336066186 7.353871649576861 0.0
8.339644223432472 7.505172120620427 0.0
8.165883718619623 7.513159193685373 0.0
8.483453820080417 7.2082285366806 0.0
8.261200365730348 7.657400951288149 0.0
8.081570576666843 7.670933304838066 0.0
7.471613195794025 2.872548423100142 0.0
7.268733678357991 2.881209199257603 0.0
7.184255506995786 3.084448584600423 0.0
7.065899603697895 2.883902449336828 0.0
6.960163891183182 3.081014635802978 0.0
6.847612128388715 2.885646860602812 0.0
6.739800729737967 3.078895733381448 0.0
8.729373804596847 3.827689165637365 0.0
8.668550856907444 3.938702277545298 0.0
8.72770789162863 3.371798381178293 0.0
8.659764090070603 3.257493349874974 0.0
8.436453928793245 7.648724489148887 0.0
6.619080287792762 2.90880017416788 0.0
6.511740956842646 3.09340654756684 0.0
8.793527829963288 3.935174834810256 0.0
8.736430500996828 4.042719556852617 0.0
7.631260330584174 4.565300771328012 0.0
8.359058396840432 7.801678182761817 0.0
5.339436215072359 5.184870243702279 0.0
4.994031736761993 5.193306795607908 0.0
6.383387675268097 4.87760645722207 0.0
7.29117392392962 6.382172868329505 0.0
6.378196825372041 2.907113079755629 0.0
6.269817199014261 3.12412150658573 0.0
8.793149127377946 3.255386294257182 0.0
8.725774239201558 3.141596687892195 0.0
8.857434600673502 4.041295940541356 0.0
8.802868937128341 4.1471119953668 0.0
8.532045262478793 7.7905977476835 0.0
7.364542641624493 2.699128473342751 0.0
7.571677611088925 2.695732556686516 0.0
6.723058333614999 2.672341359410618 0.0
8.456744924757372 7.94483904450548 0.0
6.140831279784704 2.921247401137864 0.0
6.02419219050745 3.14358702955763 0.0
8.916255604212301 3.934279868822481 0.0
8.859287250884009 3.140226640574265 0.0
8.791092798057303 3.025929352146465 0.0
7.210445465986021 6.245773134960393 0.0
7.120884161792869 6.385155584680196 0.0
7.036931702064287 6.240721609143972 0.0
6.943722280007011 6.3869279517155 0.0
8.920094519678617 4.144837222494242 0.0
8.864374107136287 4.250930406527029 0.0
7.347569838739255 4.463467417508182 0.0
5.90383431757064 2.935113219563906 0.0
5.783476009580765 3.156456199832474 0.0
8.626013191558314 7.935092223505354 0.0
8.687240186957197 7.796697889991163 0.0
5.642059327424706 2.903018174330269 0.0
5.52647853955939 3.162549070310043 0.0
8.555300051897738 8.086169516016518 0.0
8.405624441178524 8.083972416481254 0.0
5.374124307190728 2.945480555950917 0.0
8.935805220807357 3.249260758206028 0.0
8.981625171409894 4.247375537584228 0.0
8.924725364486765 4.352101286657735 0.0
8.807208588134106 4.356163101450244 0.0
8.868277832430604 4.45657124153171 0.0
8.75099635287701 4.460644845248524 0.0
8.812385950597063 4.560891222623518 0.0
8.693833206943118 4.564602972998703 0.0
8.756474732548273 4.665720853686476 0.0
8.63721608225855 4.669394550615355 0.0
8.700108119351134 4.770682016274914 0.0
8.81920502916846 4.767536120893284 0.0
8.76355311338807 4.871451945248518 0.0
8.881442328033694 4.868382238751069 0.0
8.826433523510634 4.97132552240372 0.0
8.943387824985514 4.967694248194483 0.0
8.888718468126953 5.071044784833541 0.0
8.580377663835254 4.774669738817985 0.0
8.770572242937233 5.073880380431421 0.0
8.832915096600454 5.174518948293615 0.0
8.952224483821848 5.170970838320107 0.0
8.897282771771884 5.275476392171722 0.0
7.463928467290875 2.513944501591933 0.0
7.675935950092034 2.509420347143072 0.0
8.924252417741767 3.024418701372628 0.0
8.857265893102921 2.911213535286156 0.0
8.776981063213334 5.27944309004916 0.0
8.840710910770163 5.380165700477552 0.0
8.960876896785969 5.375521424256389 0.0
8.904555918255223 5.482125846038813 0.0
7.567193097677677 2.32750151280277 0.0
7.780880844888839 2.323064027160363 0.0
6.851602118390116 6.234522818184622 0.0
6.758680682687229 6.389359516748128 0.0
6.66345977321418 6.231254850996584 0.0
8.715764716958308 8.079994249772627 0.0
8.65189989696114 8.227534663647639 0.0
9.042229096541828 4.348551764001607 0.0
6.436774206993324 3.316782326998922 0.0
7.590527613340588 5.22651784724799 0.0
9.024366884701616 5.476726561488805 0.0
8.968734351641839 5.583879050892151 0.0
8.845941080047659 5.586406316932274 0.0
8.909881305857882 5.690482454668167 0.0
7.348726871578975 5.44047403999932 0.0
6.567070253986433 6.398115757512583 0.0
6.697077150072261 6.553426749743366 0.0
5.252377383990728 3.187782967482479 0.0
8.988440431820699 2.908621158637298 0.0
8.922541972760119 2.796420836075996 0.0
6.466806010659505 6.229115583261771 0.0
9.033851153821296 5.686506775615425 0.0
8.978340519963718 5.795772485582058 0.0
8.85111463793018 5.798672910287243 0.0
8.922171984280597 5.907237880910408 0.0
8.795190680908043 5.911854068712683 0.0
8.864373398892472 6.019728357749566 0.0
8.991346995940626 6.014539153309398 0.0
8.93374019140187 6.12698887312768 0.0
5.095192648098848 2.952353430985476 0.0
7.672651464908932 2.141715359830917 0.0
7.886266921042761 2.136211284120189 0.0
9.098474286589756 4.245971410451114 0.0
8.813172564986438 8.216887361735234 0.0
8.74802978243154 8.366104673219047 0.0
9.059985162956899 6.120982589539211 0.0
9.00342813739303 6.233245043891739 0.0
4.961413514304496 3.214209167276753 0.0
9.05248113004685 2.794651022570942 0.0
8.986028039118027 2.681341972594222 0.0
5.671890458441996 3.377122473800023 0.0
4.755829262593116 7.184480462344647 0.0
9.158258644940048 4.34465968221255 0.0
4.799687186662534 2.961354824469195 0.0
6.030554747591715 2.726787502996874 0.0
8.938327180212585 8.34758372042188 0.0
8.847392320655468 8.503370672816716 0.0
8.67342124373679 8.518117686968314 0.0
5.234423106934083 2.694925204361751 0.0
8.964923046453565 8.185313058214797 0.0
7.456650986668838 2.134076476407834 0.0
9.111732084821366 2.897226832609386 0.0
6.368055837513985 6.402805870976705 0.0
6.265629899005033 6.226581076317183 0.0
8.736327196352686 6.026404178766982 0.0
9.117473097358854 2.67987006607594 0.0
9.052137415465204 2.565428515518978 0.0
7.781001557847192 1.955874236406257 0.0
7.992134447300669 1.949184538864554 0.0
8.593074792993455 3.143159483125708 0.0
9.1291360203536 6.226877897052981 0.0
9.072154326613617 6.338696745620542 0.0
8.916532550320525 2.566986282201109 0.0
8.984021113721658 2.449252898983242 0.0
9.178032243215632 6.120533546076094 0.0
9.213703592343162 4.244823670856978 0.0
9.11972142641474 2.449071238668887 0.0
9.052853896812186 2.33190758581705 0.0
8.635035926402708 4.462329956179506 0.0
8.773614475966344 8.657865377672689 0.0
8.596400917257634 8.67759750279447 0.0
8.942023339420883 8.644678093589654 0.0
9.19471670675691 6.33096438039349 0.0
9.138460613363325 6.443043552768813 0.0
8.66620319432524 5.916297234509582 0.0
8.606669825267202 6.032658196729024 0.0
9.27222540210304 4.341341907533128 0.0
9.013782808177437 6.451040569407859 0.0
9.08360982569773 6.55729980456602 0.0
7.885622149776354 1.768093045890686 0.0
8.095672144455353 1.768790621151345 0.0
9.208772072925791 6.549717411809656 0.0
9.154272208194383 6.662613503537815 0.0
9.187669783927937 2.334640996932141 0.0
9.122379015831417 2.215832190697178 0.0
6.164077036161143 6.404611236428829 0.0
6.062367614988677 6.224307160647549 0.0
8.987075041759633 2.211477580983978 0.0
9.056972755801603 2.093573581203428 0.0
9.194557288902232 2.096029761809264 0.0
9.131223008370409 1.972713028695079 0.0
8.87381302587057 8.795793668920256 0.0
9.039169086943392 8.781606667490083 0.0
4.662813350519927 3.228118291851354 0.0
4.474181267994617 2.945703616023359 0.0
6.562627723301209 6.075544382232434 0.0
9.326886053211574 4.243083624343211 0.0
9.280374192897945 6.656072830232892 0.0
9.224718905178564 6.766740750539347 0.0
4.703284910421452 6.528907865005451 0.0
8.955136474970331 6.565989985649191 0.0
8.998148826814893 4.865480736169776 0.0
8.99429836796776 1.965972383552685 0.0
9.065669391141741 1.847195105148808 0.0
9.207236162050343 1.853010386995843 0.0
9.143218073349985 1.725630086781897 0.0
8.998867447699345 1.719378449325465 0.0
9.082595782768397 1.592017827427701 0.0
8.92804562738841 1.585238202229766 0.0
9.01637794607019 1.453847302675876 0.0
8.854253119154375 1.446306868730686 0.0
8.941620273019874 1.320083886766936 0.0
8.775393064215876 1.308487027359826 0.0
9.102170347200483 1.324733726345249 0.0
9.013857060361985 1.178821526410403 0.0
7.991031819452564 1.587689878441685 0.0
7.767218744640202 1.595993197647291 0.0
9.191539171305216 1.194087248761656 0.0
9.123965901037613 1.057102462689568 0.0
4.853921953226772 3.470213116851758 0.0
7.496563223334782 3.470157221608763 0.0
8.536691379028115 5.921845852206257 0.0
8.475496498707471 6.037633662010236 0.0
7.978668526342969 2.307231488316941 0.0
9.384721922092124 4.337357165846226 0.0
9.331039180200886 4.435926256444196 0.0
8.546261775564837 6.150267290476958 0.0
8.411727261785726 6.155319300628062 0.0
8.972203609044218 8.930944433074036 0.0
9.133480321468399 8.90955269607895 0.0
9.197778815538276 8.768743880012563 0.0
6.162231825784922 6.05277753404107 0.0
5.962111081146334 6.046949845237622 0.0
9.268727788642101 4.146883230687689 0.0
9.380694211527906 4.144811697563401 0.0
9.323823335199954 4.049557759546529 0.0
9.283324894520613 1.736313094621396 0.0
5.858151623803662 6.22041808248046 0.0
5.759668475561988 6.038806123495502 0.0
7.836860473863919 3.191674397465999 0.0
9.348591928839294 6.75855034547469 0.0
9.293979592221298 6.870213350675044 0.0
9.170543172728557 6.879819332293818 0.0
9.240028263813034 6.983394994050525 0.0
4.347372565145963 3.312731475520695 0.0
4.114183445909965 2.96879678229065 0.0
8.616264880152233 4.042035981070631 0.0
9.403174760076901 6.650407069150438 0.0
4.173860112179449 7.723461240865885 0.0
9.365302975518428 6.973476802087294 0.0
9.312420275675276 7.088420778208979 0.0
9.184876614539778 7.0978133687822 0.0
9.25921281729617 7.204979813006656 0.0
9.12816413817609 7.21569648263899 0.0
9.203944409919862 7.322703303071253 0.0
9.334311975087337 7.311477957762272 0.0
9.280415785210538 7.428795599957155 0.0
9.274060219641907 1.066603180421249 0.0
9.211820491509728 0.9316562593680151 0.0
9.050684011148748 0.9017681241401576 0.0
9.441953732403995 4.432092590771756 0.0
9.394725873909666 4.526051349391942 0.0
9.43453556160865 4.048003950509361 0.0
9.378043599351757 3.952631412328806 0.0
9.289691247910705 8.890746792319852 0.0
9.228148443138926 9.030109127390128 0.0
4.440757888677695 6.389562448928118 0.0
4.689874463978985 6.239329075084555 0.0
4.291519540095677 2.622920583112654 0.0
3.886073352912894 2.632778677714434 0.0
9.344015622314338 1.202401041544343 0.0
8.193292196814806 3.849649660906171 0.0
6.960946604527747 6.07044529864598 0.0
9.347708267319902 8.756364147482309 0.0
6.826423138602714 3.261415861395883 0.0
6.06309517882478 5.884563187328262 0.0
9.4085057714426 7.414123963607981 0.0
9.356416821537886 7.532359471354527 0.0
5.042074134251055 6.938947182785697 0.0
5.063988238156824 7.311205832605263 0.0
3.946666851334923 3.30681624613374 0.0
8.189857914071878 1.939951128540477 0.0
7.880690277686857 1.38928908049477 0.0
7.63766396748483 1.399736360041063 0.0
9.345004233592562 1.857695941115052 0.0
9.440465164139875 7.085860901905448 0.0
7.918332480761888 5.744468010879592 0.0
9.08007135068879 5.372457017512481 0.0
8.78639561093144 3.718391405525285 0.0
9.356843485085705 0.9414458825132457 0.0
9.29705128845331 0.8103081541678832 0.0
9.251825423225316 2.451701826351773 0.0
8.483895366325516 6.270717564685176 0.0
8.346386886249478 6.275973306650227 0.0
9.493299170161215 4.138582531223591 0.0
5.321115649032961 7.117073603021904 0.0
5.354076009109965 7.436189411362466 0.0
5.597984079819928 7.254284331170681 0.0
5.644042313435943 7.564172740776336 0.0
5.383963016128051 7.753854027984002 0.0
5.681168258142109 7.880444993178456 0.0
5.935548099874979 7.687258900444162 0.0
5.979508404301389 7.994332725561488 0.0
6.21936843555201 7.802335560754011 0.0
6.267092590637372 8.104873033518185 0.0
6.498845418385807 7.917606504106031 0.0
6.544600005636809 8.209910620392591 0.0
6.77336078689533 8.027284686082275 0.0
6.814840179123049 8.311778392637773 0.0
6.721304148677048 7.737863326704131 0.0
7.031320924898797 8.1335673274533 0.0
7.077388928622946 8.403901803728003 0.0
5.417471987089176 8.090112295667405 0.0
8.845427688507666 2.446352368201366 0.0
9.318512319918124 2.339233739859646 0.0
9.380241452597096 2.451895615249572 0.0
7.283805558009199 8.237518806365102 0.0
7.329200330160381 8.497045124353782 0.0
7.233272584416691 7.991590926766813 0.0
9.142592248414191 5.471315142785471 0.0
9.196303265878848 5.36738298742727 0.0
9.25795832955665 5.465260877691205 0.0
9.310581303233182 5.36341558704714 0.0
9.371094700882272 5.459458038195667 0.0
9.422767107822985 5.360687090455724 0.0
9.36402660964156 5.264821436196721 0.0
9.474220736978928 5.262802348886269 0.0
9.41680330511366 5.169477108906666 0.0
5.168675939028436 4.895496152382537 0.0
9.482591449057548 5.454699312257291 0.0
9.431567605310825 5.552723344040521 0.0
7.531449703396948 4.741663470323411 0.0
8.517293123442691 4.672601123164268 0.0
8.459978676626639 4.778466809901586 0.0
8.396595115309985 4.67568709170855 0.0
8.338966609235166 4.782101664607259 0.0
8.275355646032752 4.678829956447008 0.0
8.217675280223542 4.785699596769931 0.0
8.28149024865807 4.888803783902183 0.0
8.16019781596952 4.892696417098926 0.0
8.22433278506531 4.995725219088695 0.0
8.102825704443651 4.999629142625341 0.0
8.166887930010795 5.098242831115916 0.0
8.034904900788316 4.896825406879729 0.0
8.15353539905931 4.682103688185489 0.0
8.211891449058882 4.574219757233394 0.0
8.290305306104333 5.094007100958221 0.0
8.225684228618732 5.201525567655179 0.0
9.444618942559746 2.343141375196729 0.0
6.929446520625337 4.868116916840016 0.0
5.737810725167649 4.893891407574175 0.0
8.720389971487277 5.38508368411851 0.0
8.805734920311323 8.951818172412821 0.0
8.905272694453211 9.083303226359831 0.0
6.006155038818204 5.171375272745409 0.0
6.431496448228514 5.152985998213245 0.0
9.052675024457304 7.106590131831544 0.0
7.740007013494393 6.09727525827826 0.0
9.375852260355511 9.013078430361404 0.0
9.32035844773103 9.14584923943073 0.0
6.989707597683965 5.146377438798643 0.0
9.488190206836386 3.951168069367155 0.0
9.432429152094464 3.855725756072153 0.0
5.568386402814275 5.185723849666124 0.0
9.525561551078322 5.166162126187324 0.0
9.465026391994275 5.072601962964018 0.0
9.320357339516937 3.857795423728873 0.0
9.375955927831914 3.759314274140895 0.0
9.261783786753899 3.761412578759438 0.0
9.31820665563318 3.661845422072752 0.0
9.431798673168924 3.660830894813109 0.0
9.374584413615914 3.563138564686839 0.0
9.48759661134647 3.562294297118573 0.0
9.431339678707085 3.464016717943268 0.0
9.417896212887529 1.746970678437863 0.0
8.731705369070733 9.110902182838881 0.0
5.652297951447118 6.21188565774667 0.0
5.569122518069258 6.024400786163834 0.0
8.257007204149394 3.505875091031567 0.0
8.717428603143034 2.925525757227976 0.0
6.882852832747376 8.57686572931064 0.0
6.337330066435714 8.416819098143066 0.0
9.50188906539997 4.521022403818629 0.0
9.453500859905136 4.617181635748691 0.0
9.46806769570129 6.749352117850711 0.0
8.836822104875719 1.72282859852854 0.0
7.481071063421426 5.64593758994851 0.0
5.668814988976305 5.86611128457842 0.0
5.487644760735084 5.847591822776978 0.0
8.993992818065195 7.228173913870249 0.0
7.98322414937693 7.229980191466666 0.0
9.22810751684646 7.54864871395298 0.0
9.304103360459063 7.654622011545798 0.0
9.432787371848761 7.633691049023619 0.0
9.382619818023882 7.759136995934441 0.0
7.239096822516492 4.679179578301165 0.0
9.47692479956498 1.861231395362419 0.0
8.041243110813022 5.095895152648969 0.0
6.190208781188077 7.509864122823853 0.0
9.283062812782122 4.549418667685757 0.0
9.503847665760087 2.450295046295932 0.0
9.443345385250678 2.557904120404248 0.0
9.52009568463353 6.644015937008899 0.0
9.203119005973903 3.662458522935253 0.0
8.406198651282708 5.92630414760378 0.0
8.467263597743843 5.811987729136874 0.0
9.461423029059445 9.128120577356565 0.0
9.408445330070542 9.26024300250086 0.0
9.266505293379728 9.277952925446408 0.0
4.14874709022218 3.631681332690154 0.0
9.437448107949258 0.8198473430736303 0.0
9.376993771693973 0.6910550697058979 0.0
9.22882356848217 0.6931820370818127 0.0
4.451823867195988 6.103664366188579 0.0
4.200031743909027 6.232039028149317 0.0
4.687154754667774 5.975132870483986 0.0
6.268889397098538 6.592235545990395 0.0
7.509366161722768 8.340075462391164 0.0
7.564775703413765 8.59800936579159 0.0
9.542148732924264 3.854614593058991 0.0
7.036231103929761 6.550562550831048 0.0
4.089373665437328 2.268193930262139 0.0
3.642558884866483 2.250386188148396 0.0
3.442182385618804 2.651948803899947 0.0
3.146832503011753 2.222630466765926 0.0
2.948870467975985 2.805088883766417 0.0
9.352005315330274 5.067356449300542 0.0
9.31729677031493 3.462944187594675 0.0
9.37428383619102 3.365546369736205 0.0
9.4883538239391 3.365384871181599 0.0
9.432147665178338 3.267287636377487 0.0
9.25034519267688 7.775848812012313 0.0
9.332091350002502 7.881724023243533 0.0
9.462101000264603 7.86490055671988 0.0
9.413353271651825 7.98561007219363 0.0
8.273592814723814 6.158623919352561 0.0
8.207135014732339 6.280394934566054 0.0
9.541483811580331 5.548224291759592 0.0
9.491365919893726 5.644847811894615 0.0
8.088095771120983 4.577581369371366 0.0
8.14760102783746 4.468303741922308 0.0
9.556217963323956 4.414867468889523 0.0
9.543667331547693 3.266908751519594 0.0
9.489307652535885 3.169908976697059 0.0
9.26285575842982 8.635341362685686 0.0
9.403220742003983 8.621447866627538 0.0
9.326013417886902 8.506778946171965 0.0
9.455477927154853 8.503896705359047 0.0
9.566646674069602 4.611465258087684 0.0
9.499341049870914 0.9352184973273918 0.0
8.683891958597638 1.444705608998412 0.0
8.599973456173778 1.287265568270043 0.0
7.760988189317371 1.175381292562583 0.0
7.50927661322749 1.171223823957793 0.0
7.380927152434357 1.411062577009695 0.0
7.242417847270241 1.170759311509981 0.0
7.107236746116019 1.421234419770886 0.0
6.960799033544566 1.169618322344823 0.0
6.817786081200392 1.434174581170586 0.0
9.48095050141868 8.738557748483624 0.0
9.319762046171894 3.263060331456388 0.0
8.920653400180534 7.117307656029475 0.0
9.452431221190624 6.544166520883111 0.0
9.571407933653493 6.540336592280795 0.0
9.507586285214174 6.443281357841339 0.0
9.575252974749443 5.070210512157044 0.0
5.755172844377253 6.370710487467459 0.0
9.541351959064952 7.969072511059531 0.0
9.354607289792183 9.3921968735401 0.0
9.495213435762107 9.37218405175897 0.0
3.77688136092967 3.643094492921176 0.0
5.460967180339239 6.159077196937325 0.0
8.656589552918996 5.283032675040985 0.0
8.599307076390474 5.387421722684671 0.0
9.584017606465821 5.263931993965828 0.0
9.51536593891754 4.977534386249715 0.0
7.788544970111893 2.70578432810479 0.0
7.381746833264364 8.755477463411431 0.0
7.615969996822885 8.852710176548548 0.0
7.783643411970649 8.691528137204457 0.0
7.845017394185501 8.938777577473743 0.0
8.570520580943368 7.342304222498308 0.0
9.103648004226827 5.781084627507008 0.0
8.338082930126799 5.815990105349368 0.0
8.930848895071895 4.561111316304916 0.0
7.381089602119859 5.983657236035151 0.0
8.42066837692862 6.393608568217351 0.0
8.888256157021065 6.459558428285236 0.0
8.826495664731354 6.575679897210801 0.0
4.22522220414496 5.921354747981145 0.0
3.943296448343383 6.075578573904587 0.0
9.563175937841836 2.554860696349795 0.0
9.505342423182917 2.656889632284623 0.0
6.660863480070611 1.168750929063519 0.0
6.518316961679488 1.436478598119306 0.0
6.683474168246802 1.694104067636375 0.0
6.376799057174731 1.707382100972048 0.0
6.205091481342603 1.443621641108414 0.0
6.058670988071357 1.728841803855816 0.0
5.877457486049096 1.454297236926778 0.0
5.724979192982589 1.756666409586195 0.0
5.529885788012015 1.462283739157555 0.0
9.514953777019835 0.7018468683209754 0.0
8.398665270372675 5.702731562702358 0.0
9.456442249775696 0.5772068858285652 0.0
9.565795671866349 2.345573662774494 0.0
8.830758563027459 9.247271599108435 0.0
8.523580738257648 4.88015211128435 0.0
5.580123316488715 5.701889892660689 0.0
5.398591029446707 5.685938459654249 0.0
5.367686360823392 1.778740548277203 0.0
9.546603444041448 1.754984055696778 0.0
9.489649223089446 1.641312329051244 0.0
9.617973952467912 3.363804764345866 0.0
9.584322830999731 6.729956156156573 0.0
9.597221861144487 3.948534024289882 0.0
9.49401963819799 8.089507968561776 0.0
9.207321074262563 9.416906871900888 0.0
8.27185428346661 4.464932191097996 0.0
8.207416067213774 4.35878753684812 0.0
8.332747746635944 4.354903699457511 0.0
3.990181919126853 3.930792395858886 0.0
8.267392138262498 4.254008221702929 0.0
7.997788712685495 1.196805377512679 0.0
9.600316638269724 5.639973985281733 0.0
9.550939606739425 5.737313319038155 0.0
9.44084303195315 5.74233753256161 0.0
9.50112296154558 5.834555019909565 0.0
8.897429225733994 6.685415510921676 0.0
8.762930941408914 6.695907295903629 0.0
8.654628175336732 9.278157371342388 0.0
8.544676900803436 9.133790942553834 0.0
5.294904777716057 5.855935872688884 0.0
5.216749389964556 5.66865685845661 0.0
9.508453581298625 2.239460033375932 0.0
9.599691370793206 3.169496930704394 0.0
9.546615051106684 3.073514534194011 0.0
7.484714626923596 5.028675123117963 0.0
9.588496050271255 7.850836295555126 0.0
5.153197381012662 1.471340286561097 0.0
9.433168304679345 3.071871997104804 0.0
9.610464706874994 5.829217654498672 0.0
9.561407772947403 5.926179534044419 0.0
8.273381980676042 5.705233340662362 0.0
8.330794188929296 5.594351887246082 0.0
8.207319603076424 5.596747949305344 0.0
7.251338559467102 5.233758892662348 0.0
8.708518799790543 1.130513882092466 0.0
9.590155250193266 0.5878623138195824 0.0
9.389919385420015 5.841079912164009 0.0
7.991397852194216 5.859910582924319 0.0
9.624951589233206 4.975554514425905 0.0
7.240016788025947 2.531866266726309 0.0
7.635666783493215 3.873554782053258 0.0
9.608476620993713 1.863530872936442 0.0
9.365330459496413 8.10677840682376 0.0
8.775076110585598 2.572737931759856 0.0
8.699389445914996 2.444602334375113 0.0
8.625078713232146 2.580891022578613 0.0
8.54447196848446 2.447624719286678 0.0
8.468898498943965 2.586757328881282 0.0
8.62282309213608 2.307826916202421 0.0
9.622102662978762 6.439307895185218 0.0
9.561995355724862 6.35103962032292 0.0
3.898245450818314 1.856155797593496 0.0
9.681759177700954 5.07069253017652 0.0
9.059254996454502 4.963357716933865 0.0
9.113144532326562 4.861710138088372 0.0
9.62140874877204 2.656009146517733 0.0
7.884510615470827 0.9666888912541309 0.0
8.14902661050739 1.005010215149227 0.0
8.491263206618079 8.527197931363634 0.0
8.408859203395778 8.697060715788105 0.0
6.54422152733529 1.954566069381189 0.0
9.563546573097593 2.755667904356369 0.0
9.453065492925557 2.761122255953964 0.0
9.676889098520615 2.755084315170127 0.0
9.678287124781653 2.556838324720633 0.0
2.60254317790297 2.278874965850319 0.0
9.211706272534968 4.050470567310489 0.0
8.526711683538949 5.698821878547752 0.0
8.296604023060945 8.533761944401608 0.0
9.649704314258118 5.543946557831669 0.0
9.651176136337964 3.85122804518279 0.0
9.44590154800397 9.498503704959054 0.0
9.580491248736612 9.476376347552954 0.0
4.3239388803087 3.921156392977062 0.0
9.65737873521736 3.075324100817917 0.0
8.128000846282253 6.160273991836929 0.0
8.06242981852327 6.292371360998262 0.0
8.500465019503922 1.442700595221201 0.0
9.615253212967009 1.649819368149096 0.0
9.561768620580791 1.538553925606111 0.0
9.435477757657937 1.527391516499924 0.0
9.627993450010088 2.242685831452484 0.0
9.5338252733548 0.4673994795805215 0.0
9.398055066504014 0.4589059948533885 0.0
9.669486082509058 5.920177035588319 0.0
9.621072177439727 6.016493814615133 0.0
9.506185962103057 6.018397021409126 0.0
9.196884440497488 7.898824858961557 0.0
9.112591143666748 7.789491461180181 0.0
9.664357762385308 7.950712034233033 0.0
8.46233617997115 2.308903464128035 0.0
8.547917980328803 2.169381684694277 0.0
8.139931430059324 6.410762600521521 0.0
7.672499127532963 9.099143622036436 0.0
7.91372855627271 9.178704612763656 0.0
8.463425076318451 9.290653726808348 0.0
9.643938029094286 9.335632419679458 0.0
9.647017668702574 0.7068996148634754 0.0
6.241662276606473 5.884018212993202 0.0
6.157742245066693 5.73500474100449 0.0
6.318815619949124 5.730068085823802 0.0
6.247706374231452 5.593094310939028 0.0
6.406948541886973 5.593272398468375 0.0
6.092564106310554 5.587409338401505 0.0
8.535507922245372 5.286142900439676 0.0
8.022959839404006 4.471630490587016 0.0
7.963561162854596 4.581393556789843 0.0
9.683487139413305 1.546750704925431 0.0
9.630761777960082 1.435922217091829 0.0
5.121714348989337 7.950140247572198 0.0
5.136464096196084 8.310254432483559 0.0
5.47349124035624 8.455234262268478 0.0
5.176273618280354 8.687190323573228 0.0
4.796664658962938 8.592678692862421 0.0
9.568705729418735 4.887269869750176 0.0
9.462711651199594 4.88832222094458 0.0
9.674903475028225 4.882285174433025 0.0
5.4996067353406 5.546583260717527 0.0
5.663632234555963 5.557613452957074 0.0
6.829408195405585 1.947174574944512 0.0
5.336529198289861 1.127585641139875 0.0
9.672387559812332 6.34138351957329 0.0
4.463988917379896 2.271060678869338 0.0
8.618048281355405 6.263841736419089 0.0
6.480949808711781 5.74815588680617 0.0
6.562207427719153 5.592185077216444 0.0
6.643040463857446 5.721233693378952 0.0
6.712825900331884 5.588664360236 0.0
6.79240375630333 5.711383948285569 0.0
6.86115931532141 5.584697050428064 0.0
6.939210100691576 5.704407337029545 0.0
7.007668476576536 5.580801046893123 0.0
7.084627386867475 5.702817970154801 0.0
6.633257976075473 5.460881327825488 0.0
6.931430743764456 5.461960451448691 0.0
9.682652370938209 6.533133024505995 0.0
8.761108695241376 9.450742747770144 0.0
9.146031326900015 3.764292700000154 0.0
9.089378801805193 3.661317181076136 0.0
9.514354521818781 8.994988681611192 0.0
8.157650730500988 4.262987189670279 0.0
6.329633198899328 5.4647789391701 0.0
2.340685767996258 2.811285337457589 0.0
7.379572471323651 0.9290892725587991 0.0
4.171878172186605 4.222320767259098 0.0
4.4876601621649 4.16473354200826 0.0
5.336389369563535 6.806464508860387 0.0
9.595468321212476 9.108133206829102 0.0
9.645038675267227 8.982113951305912 0.0
8.393140678816192 4.246338342095281 0.0
8.309440721624494 4.155300532283633 0.0
9.418269339704423 1.9925512363779 0.0
9.662781807969623 0.477809346089035 0.0
8.011297869803792 0.7518828483803571 0.0
8.250149975885678 0.7646904662196189 0.0
9.608674873602773 0.3618049194050078 0.0
8.692696069692623 6.582927327365709 0.0
8.628225948401226 6.705702462696891 0.0
8.701883181418305 6.822086652299242 0.0
8.559276855155542 6.829564723911442 0.0
7.069268463354993 5.459534423493629 0.0
2.654575201159115 3.323490466195074 0.0
3.610801136544596 4.044075244426243 0.0
8.263757217166944 5.48730323490738 0.0
8.138838162809126 5.491254533497952 0.0
7.90196833683664 4.477386962763833 0.0
7.987943097943191 3.978756490171551 0.0
9.704623491880403 3.945605151832784 0.0
9.461009573830147 7.301728818091931 0.0
9.532468631193666 7.399916015174975 0.0
9.582688928417856 7.292330983701011 0.0
9.652579613269625 7.387768793572397 0.0
9.699264016151023 7.282867433965265 0.0
9.633305589700536 7.188543855060478 0.0
9.505576100168666 6.961225778216469 0.0
9.43876966151099 6.342441564206569 0.0
4.908483672172518 6.098703904450545 0.0
9.135448256237908 5.269827196966999 0.0
5.905650502271389 2.025036080946255 0.0
9.709890722072377 9.452748507541063 0.0
9.663337613522643 9.572126259365891 0.0
9.603900123387826 7.495180532331903 0.0
9.720147629525837 7.483400774981126 0.0
9.674588415444239 7.588303295299578 0.0
9.653186673863587 4.039274180923234 0.0
9.053164539680804 4.764545162185531 0.0
9.164908495749003 4.763017269285045 0.0
9.226019227262443 4.858029410614327 0.0
8.809947621994619 3.4964384919072 0.0
9.10538997155458 4.665865142902959 0.0
9.331074106432244 5.748993480915537 0.0
9.055854333858068 7.918554535314415 0.0
9.446431573964945 8.209836764658437 0.0
9.573844810886287 8.191100251691205 0.0
9.309704769895653 8.244395007943949 0.0
7.240329561730736 1.676197957122907 0.0
9.543389817573933 3.660019800390455 0.0
9.598599341122098 3.563130123982772 0.0
9.652615161407017 3.658119804270645 0.0
9.706336063693934 3.564815526226687 0.0
8.632284427755456 6.946688912416058 0.0
9.682863230715835 2.349655023034811 0.0
9.571538455120994 2.142369886250143 0.0
8.090821900439733 9.017409120951333 0.0
6.812258669899192 0.9007667548831626 0.0
6.50135254578461 0.8974046495177885 0.0
9.598335906230732 6.246437748035812 0.0
9.719677442549804 6.253968775436637 0.0
8.593026822691716 5.180101360605356 0.0
5.537586126848265 8.836083861509138 0.0
9.688689404995035 2.143487155934306 0.0
2.821389253975936 6.507820864074362 0.0
9.176571289960709 8.507736431357309 0.0
2.918303740542162 8.256728920338826 0.0
3.428955230180972 8.401446814887457 0.0
8.490587404589881 6.715350139132777 0.0
8.86049054904785 7.243279881821806 0.0
8.93696309213556 7.356650230611625 0.0
3.951931175165697 5.78308550088855 0.0
3.65055612573298 5.91672400098539 0.0
3.668142216548471 6.247526235973777 0.0
9.717269848920886 5.821831227352286 0.0
9.708364917734201 3.164198601626433 0.0
8.45581975650687 4.569560863828342 0.0
8.204448312099833 6.040774355519757 0.0
8.65969449127868 5.485991799508151 0.0
9.707534571012967 5.634423933296901 0.0
9.62102991883279 2.849662850313935 0.0
9.144093558002634 3.560383427867003 0.0
8.29763273805118 1.77155302934031 0.0
5.280452715709455 9.01633391004168 0.0
8.984558945859158 6.99932633710603 0.0
8.4157550875812 1.275784953143711 0.0
2.068078118650995 3.355462780535101 0.0
9.205703884756806 5.568274778556933 0.0
9.745857863753141 7.178456670302003 0.0
9.681628895748586 7.081494416756802 0.0
8.875818787971069 6.240744812097083 0.0
7.993733797566922 6.414830952863579 0.0
8.462810157069566 3.377071044664789 0.0
9.29428363519789 4.759591981903337 0.0
7.933956818298286 5.97437536746848 0.0
9.028281726378319 3.558713145763133 0.0
9.083461773461467 3.455531762175701 0.0
9.73231939683535 2.849247643393067 0.0
6.70072305037728 2.192432536215492 0.0
6.423245125077639 2.212870246546939 0.0
4.931537051605536 1.135086496804522 0.0
4.746426561586179 1.500381091957315 0.0
9.707706579932626 7.836419656220658 0.0
8.590593344701457 1.595639668013959 0.0
8.708946574109854 2.1688179918246 0.0
8.634728854549891 2.028564483452208 0.0
9.230357659411311 8.129337203173913 0.0
9.102841374461482 4.452881308250647 0.0
8.472081531214734 5.388993924853032 0.0
4.925996806199801 5.844046944846857 0.0
4.702806345752284 5.745688656289065 0.0
4.884357002239844 5.633237011762874 0.0
4.709628434300812 5.536404116679045 0.0
4.530800966746534 5.627044171217377 0.0
6.040296145349247 6.603808099703576 0.0
6.162203578696918 6.795213950202512 0.0
5.923135943221574 6.824060069869489 0.0
6.046693245732212 7.010423490915212 0.0
6.297337598588478 6.979895528204233 0.0
7.760448385794147 0.7294020304851334 0.0
8.492228348169641 6.958778476405878 0.0
2.89219822877093 1.704113597264478 0.0
2.26178643438086 1.7814602252425 0.0
9.726968895980871 6.009547057102511 0.0
6.63195110828313 0.6072886418835157 0.0
7.984023036954866 7.515675826210831 0.0
7.893857204140559 7.681876703427663 0.0
7.778465117872411 7.537836322197895 0.0
7.998204230811618 7.844922503023499 0.0
7.798554315988981 7.858161805718108 0.0
7.917846202023782 8.03040048103727 0.0
8.547520504556728 2.721261126162116 0.0
8.39253850806587 2.732073315877738 0.0
8.306047241032278 2.59069854402512 0.0
8.233011054235162 2.739783364361515 0.0
8.318836035587811 2.879838477099622 0.0
8.159530874574331 2.888511553151382 0.0
8.245490421394788 3.024568439743106 0.0
9.759103003747676 3.077839427881478 0.0
8.083610090773394 3.033523757291178 0.0
8.174562583800352 3.166768504406541 0.0
6.046769434852523 1.155662270344939 0.0
6.968371001421964 2.176347877216873 0.0
8.324858098380334 3.152966249334499 0.0
8.145556596142626 2.609897633546475 0.0
8.970652052821418 7.804556541250797 0.0
9.033737629244714 7.681328986528639 0.0
9.62347010002576 4.796939565664328 0.0
9.72520380348743 4.790261082613535 0.0
4.882631186210167 5.455006233451049 0.0
4.618356368594037 3.933076284395493 0.0
4.748083507220199 4.151025177732873 0.0
4.641724290430313 4.358202249373887 0.0
4.87055838101999 4.337900676660481 0.0
4.974114446887331 4.149149057174687 0.0
5.081577844806959 4.3240148266423 0.0
5.179521650033781 4.148725180298481 0.0
5.276261408871418 4.316673822529601 0.0
5.369189110897883 4.148362797753505 0.0
5.463892033849439 4.338819369807593 0.0
5.550828466075906 4.146274465971151 0.0
5.646554822352869 4.303571429647391 0.0
5.728109623160046 4.138582010823754 0.0
5.821689108984419 4.291959598724587 0.0
5.906082534948073 4.141649907302701 0.0
5.99655838673762 4.288752711512514 0.0
6.077312859438928 4.141011188943332 0.0
6.164215275138099 4.281164574562373 0.0
6.241782344986693 4.140701084167517 0.0
6.324316420613108 4.277393447415522 0.0
6.40284165425941 4.140026953305852 0.0
6.483655157361099 4.273418937894759 0.0
6.561170698911611 4.136221843106807 0.0
6.63512300179586 4.269917278694155 0.0
6.720306110251473 4.133393659385058 0.0
6.63777078218551 3.99617001426095 0.0
6.802492763973074 3.994355399489989 0.0
6.798834760478153 4.276914787769972 0.0
6.15377608509923 4.000134206628027 0.0
6.548727135071258 4.400510710520637 0.0
6.251479300130713 4.421887359316258 0.0
5.275876048175579 3.979624500657822 0.0
5.910905077162284 4.431174408784691 0.0
6.717070288412452 3.851239795555301 0.0
6.883499045994213 3.852555480300214 0.0
6.96664848901999 3.994033961856844 0.0
7.048208567116626 3.854750001965969 0.0
5.810004974283072 3.982497501655442 0.0
5.586615391658107 4.471070246359201 0.0
6.547331954052155 3.853872077215347 0.0
5.179081233207816 4.485638492900557 0.0
7.126615227065496 3.995337770596979 0.0
7.209459742762513 3.856893463870469 0.0
7.130226097876905 3.713620439679428 0.0
6.63075064074106 3.699684148676045 0.0
6.446985573861992 3.697358756862005 0.0
7.043151422977365 4.131713936060725 0.0
7.198322215260019 4.129850614748363 0.0
7.119378405252723 4.26005098890218 0.0
4.797146270976422 4.525762781577414 0.0
4.608329098388589 4.573584257851931 0.0
7.294442092743627 3.720853338661503 0.0
7.215753312764997 3.571378507508807 0.0
7.049631633956289 3.568047985538775 0.0
7.133765707749521 3.414282375958479 0.0
9.755079417839903 5.539705890434435 0.0
9.698955703441971 5.450920012703194 0.0
9.717604099406742 9.09084770432896 0.0
9.276716006673976 5.847248422342224 0.0
9.339081208926798 5.941174203394446 0.0
9.031261921742963 3.750271483819014 0.0
9.08721978689863 3.853416037308712 0.0
4.801461566647803 7.510704110489921 0.0
8.206553504932042 5.818005960412773 0.0
7.362361315389098 3.863102442315545 0.0
9.492826845316191 2.963845037486267 0.0
9.376710375304633 2.97229517374228 0.0
9.3192743723601 3.070687802230453 0.0
7.915389082113898 6.293241865913004 0.0
6.735006382384437 5.832450056405368 0.0
8.456481836836168 4.35369289249905 0.0
8.517718268476031 4.246675068616396 0.0
5.583512022030555 5.411069060406398 0.0
5.73625200174779 5.422617752052123 0.0
5.81006929286229 5.548584937688919 0.0
5.903438861894402 5.420604003204523 0.0
5.43801870974416 5.402925156167655 0.0
7.022641548594327 5.825217331839047 0.0
7.165095795605366 5.826005223633447 0.0
7.223078558430726 5.690146755650336 0.0
7.841396000338385 4.586693006493787 0.0
7.904793170875705 4.690826189066096 0.0
7.785999820520073 4.696719777099973 0.0
7.846448506395101 4.798518978096564 0.0
7.728149182067156 4.803800941124008 0.0
7.788983823826226 4.904802634695232 0.0
7.672018889153144 4.910077510508749 0.0
7.731996012352178 5.014717724244488 0.0
7.852072803124419 5.00743796185411 0.0
7.779278698005006 5.118909346425974 0.0
8.088113864063853 5.605434545811022 0.0
8.016457362785575 5.494849890158723 0.0
8.072290383394757 5.385594956317259 0.0
7.95068657972964 5.38825563681957 0.0
8.309366678475389 1.438342408757099 0.0
9.748160780780179 1.447794693754379 0.0
9.696454228162398 1.337889922375316 0.0
9.568813761940916 1.329560834053294 0.0
9.638326779791626 1.226729570935787 0.0
8.472132467407484 5.182856496818138 0.0
8.066211547412054 6.53691730655352 0.0
8.217035586462373 6.522976700918602 0.0
3.544839338670893 3.324491119989469 0.0
6.999740002965287 5.347729916247808 0.0
6.874544698914502 5.347027470386579 0.0
4.880451234715014 5.193043717957879 0.0
9.104510033763066 9.313204713465637 0.0
9.0466357104558 9.45359399494339 0.0
9.146803165140184 9.569652364413551 0.0
8.134107047896672 0.5527712356100052 0.0
8.369770412730738 0.5571215815175228 0.0
8.47386979744655 0.7564607169846485 0.0
8.585193608569258 0.5749174254532757 0.0
8.683868132726584 0.75505070091701 0.0
8.787381435061018 0.5813987798627239 0.0
8.697570280442534 0.3771156480326233 0.0
8.530048434259976 5.077280516000916 0.0
7.995091351438729 2.90367515012593 0.0
9.731083608815164 1.662638626153251 0.0
7.260488865351954 4.255073962371814 0.0
9.760728358076392 8.990038509880067 0.0
9.716710396257366 8.884160310398862 0.0
8.794627466210242 7.369659405098349 0.0
8.868068657550866 7.515048014893154 0.0
8.702594597629135 7.510501129643432 0.0
5.132320689147051 0.7610757801158905 0.0
9.755852887652699 3.853180024615871 0.0
9.787424819067885 2.757921105725315 0.0
9.731193479931608 0.3736343090103709 0.0
9.796526908308536 0.489684029254899 0.0
8.226019692057042 2.453349105940535 0.0
4.560989821496479 5.428206018250252 0.0
4.348810639659689 5.517048281386008 0.0
8.785190163106925 7.119142251269924 0.0
9.015515413043023 7.464769766852701 0.0
9.754861440190705 3.659036930324926 0.0
9.7543610723378 4.033687839160082 0.0
9.707881226943384 4.127219992296752 0.0
9.52841017383273 8.309020665649431 0.0
9.65186044414544 8.289498614805698 0.0
9.714051275521857 8.173576484362068 0.0
8.209758892476394 8.715513071423135 0.0
8.097084883671858 8.548851201381087 0.0
8.177989947800599 8.367872862579052 0.0
7.974142434808908 8.36779470623567 0.0
8.409012054919861 2.142624252464372 0.0
7.707002321497132 8.039129945341395 0.0
7.574653123518228 7.83895791570255 0.0
9.229858094382692 5.951357214361815 0.0
9.75307989876696 1.229893222503321 0.0
9.715811155868643 1.128779429890018 0.0
9.597960915003707 1.117058287635912 0.0
9.672063923518955 1.020806103150243 0.0
8.99090422125785 9.593878510105375 0.0
8.133165456134304 9.257620998029804 0.0
7.976779931497633 9.420725324095141 0.0
9.77231778617502 7.927819487779705 0.0
7.957213679655531 4.364530256281665 0.0
9.609903116082736 8.403725680286847 0.0
9.724891358972584 8.388392708395173 0.0
9.687487059868507 8.495935345161797 0.0
9.810055520269009 8.494090598382963 0.0
9.755967487162335 8.599790818513082 0.0
9.645698986824481 8.606121319182705 0.0
9.721376049217765 8.699989876681524 0.0
9.773009257015609 4.884557953188837 0.0
9.830105798750992 4.796546393900876 0.0
9.775335108731761 4.686093304257503 0.0
7.455611517737074 3.730099283949135 0.0
8.906943567829634 0.4197477661467797 0.0
8.980613334153533 0.5814185917581446 0.0
9.081059111759728 0.4263421860552371 0.0
9.821654809259165 3.576985724143072 0.0
9.761309244784803 3.4792267780002 0.0
9.763329553045937 9.353068233045157 0.0
4.463051839136694 1.164440352584939 0.0
8.0213168204867 5.283436382300235 0.0
7.89385412333227 5.290429544753158 0.0
5.806940001023414 8.583716119232427 0.0
5.88977793877374 8.96065112858812 0.0
9.177759062826041 8.25539130897928 0.0
9.626582559276994 2.05283181283147 0.0
9.747673294325121 2.064954301745188 0.0
8.775905508647185 6.951821187702613 0.0
2.3581644273991 6.029034686663493 0.0
9.777798009058461 9.548066962498762 0.0
9.737129197219856 9.662299853506903 0.0
9.615080366030512 9.683349544763068 0.0
3.315839678697904 6.042943273456425 0.0
8.915083018115329 7.937748428923896 0.0
9.489832173860055 4.712364754630572 0.0
8.118313727862493 8.013944064029838 0.0
8.902248750797776 7.67372145952523 0.0
8.954075939212636 3.463080912810881 0.0
9.45247551997678 2.133243108303608 0.0
8.311151553157742 8.899233004613622 0.0
3.28672004268868 6.826745674539142 0.0
9.86008383798735 3.468233656255824 0.0
8.389990589860254 1.947086063498656 0.0
7.144231739553659 5.329544660076687 0.0
9.654500729007207 7.743301971143119 0.0
9.761920842881946 7.740144345898896 0.0
9.692820773976567 0.2651585113981998 0.0
9.690951720399688 6.100517071814821 0.0
9.775704281989471 6.077882312279847 0.0
9.823117117198079 4.115168542267924 0.0
9.764391943581737 4.214465954230587 0.0
9.659455011849253 4.218716850797838 0.0
9.713462125022623 4.30742830316693 0.0
9.849638067150842 4.208845651573708 0.0
6.376241713254513 3.858766051594979 0.0
6.274931849158213 3.701528298009006 0.0
7.097780104117746 1.926449727602711 0.0
2.457742027508782 3.810157622192786 0.0
2.963634206580268 3.740748099915693 0.0
5.065585416063965 5.544355730437482 0.0
9.783560252464587 7.566507987677117 0.0
9.825819294611026 7.470942204664841 0.0
9.799976114123012 1.01659516618323 0.0
9.745559590633832 0.9150866860898854 0.0
8.20473400632469 9.495828670767946 0.0
8.784586030320169 2.054461500762216 0.0
8.758471587067168 1.888286802854785 0.0
0.9188935087347281 8.510730800272478 0.0
9.674192026048217 9.20389587377276 0.0
9.796314981283475 9.185916994648775 0.0
7.206882433199502 5.452024361489832 0.0
9.773927048949279 6.334665846819535 0.0
9.830288393591173 6.225300227041885 0.0
8.25177349297509 3.282767705830209 0.0
8.099233469407428 3.304040153764131 0.0
9.607860512870598 4.315652630490023 0.0
9.403674738018715 8.367349042046314 0.0
7.611756786273919 5.018691202305147 0.0
7.549513964643336 4.923310232561835 0.0
9.80986724662116 0.2915868356190958 0.0
0.7757562810577034 3.504187313079081 0.0
7.659562100664981 4.698467529240196 0.0
6.539424975891206 3.541729955691742 0.0
6.717348880400739 3.55221857686142 0.0
6.836337579501807 2.417476958454302 0.0
7.096480496160066 5.959124656438389 0.0
7.189742782777612 4.377051328076039 0.0
7.051723187622053 4.38470822973091 0.0
7.125489805519186 4.497018383456762 0.0
6.994915621927777 4.501504591168814 0.0
7.056755276274058 4.607929817497045 0.0
6.932937068803914 4.613249390039674 0.0
6.86629288290367 4.50541343988659 0.0
6.80427099775847 4.617607827251794 0.0
6.739195362053689 4.511124964201849 0.0
6.677260697693361 4.624288827143181 0.0
6.996760608675822 4.711715831373894 0.0
6.316045249462968 0.6456945497683586 0.0
7.321834163850416 5.816449323512759 0.0
7.833101485370825 4.390058096386987 0.0
4.996572652976738 4.498711166259074 0.0
5.112334577457371 4.663858846723513 0.0
5.271923064784868 4.629759173373871 0.0
4.93773508827367 4.668006487116195 0.0
5.348137647919096 4.485934621930562 0.0
5.413454827497575 4.62999925573761 0.0
5.356581113747675 4.770594395332836 0.0
5.013422223730484 4.793321773780133 0.0
8.58674425943957 0.9312335381466886 0.0
8.776450596582496 0.9362399987293505 0.0
4.783496233934828 9.486061758876032 0.0
4.544176394620909 9.034071856445296 0.0
4.082330493623582 9.015765881393772 0.0
9.820867469965414 7.285959215547852 0.0
9.852697883440127 7.166089674802766 0.0
9.260999083164238 2.971390964911171 0.0
9.197701900169713 3.073162109379564 0.0
9.31960210441945 2.867465579641856 0.0
6.660951583415121 3.383363199709994 0.0
5.210469976037585 4.761678854423166 0.0
6.740780285297665 4.733615686805694 0.0
6.611362405615225 4.731958642073806 0.0
6.549091884465382 4.629620704100811 0.0
6.491761716522486 4.733409494449344 0.0
6.425259228542098 4.640546096196947 0.0
9.715556659367534 2.986725573570596 0.0
3.710524324925069 9.463213827486557 0.0
4.768537031214573 4.727001037865238 0.0
5.039413681704655 5.378508462165627 0.0
5.188746429211535 5.440476671296013 0.0
5.172214816037712 5.298914527247826 0.0
4.469063601436893 3.667917323494335 0.0
3.799121596584382 4.741629285988305 0.0
3.661085664896249 4.442847704416992 0.0
3.316563386321876 4.380147387454913 0.0
3.802087298647255 5.26743535640985 0.0
9.738116341343215 8.047178982429934 0.0
9.85106076399546 8.021725551312715 0.0
9.837581050304836 2.844176011307251 0.0
9.664579962075123 4.402853107737106 0.0
9.76433159763034 4.39807801415352 0.0
9.718924973226878 4.487825491046641 0.0
9.826405563645343 4.494594135148365 0.0
4.931068003413168 6.359330991212394 0.0
5.130175746947236 6.201075257041828 0.0
5.143884286052002 6.445382329515047 0.0
4.953395875296406 6.628748468717369 0.0
7.833019185167153 5.400347121613631 0.0
7.766636138801143 5.313240048256084 0.0
9.767038723422333 4.578090619166644 0.0
7.315369355237483 3.441501197259575 0.0
9.556068971301514 0.2347811136726856 0.0
5.733871280791703 4.444861510772459 0.0
5.828809543126846 4.569791247698539 0.0
5.986701526182213 4.562881783985375 0.0
5.912543327921148 4.692966271273211 0.0
6.052130330528581 4.682477327897978 0.0
5.773525984744635 4.697697018456535 0.0
6.121646311546238 4.572302645403103 0.0
6.182349700936326 4.67713231096357 0.0
5.846371383601797 4.808939734754761 0.0
5.117807918383606 5.974361363083184 0.0
6.256132501905665 4.575863546153224 0.0
6.324770064521816 9.645040261272253 0.0
7.345522892050965 4.12581088034536 0.0
9.338523512844539 4.854480276600515 0.0
9.286984287289403 4.959628690044808 0.0
5.676298026114105 4.589279806918992 0.0
5.631257891894775 4.722749088404111 0.0
7.970415275563177 5.621040275419208 0.0
9.565118337557308 7.081391220827488 0.0
9.626201005045262 6.980441083020495 0.0
9.733729506193331 6.979928568877979 0.0
9.684556253529976 6.887102896543928 0.0
9.780785815410074 6.890287441101827 0.0
9.740054813822885 6.794211367612523 0.0
6.462628988057306 7.629921412015864 0.0
6.692564520952154 7.473594130811262 0.0
6.927983108788191 7.570982428592125 0.0
6.899878641134941 7.329306734748538 0.0
7.117542472438434 7.416951094809493 0.0
7.089537168123128 7.186691566729968 0.0
7.296585396514727 7.275888419524222 0.0
6.879678873774065 7.097443005287856 0.0
7.063454637059129 6.967740076426161 0.0
7.329105042924355 7.496317641003757 0.0
6.867084781778411 6.878842928865059 0.0
7.494278796275744 7.351949197351029 0.0
7.462564159480594 7.150140034494138 0.0
7.644835001206406 7.21506678718646 0.0
6.682478929414216 7.008358327294905 0.0
6.449199855715812 7.365660640952548 0.0
7.548139855358765 7.57299228324251 0.0
7.008502809092701 7.844601794812628 0.0
7.371739019901781 7.707688433423657 0.0
5.665345294602155 5.290628720253272 0.0
3.987583013016546 4.486920698115711 0.0
8.893480480320447 0.7785000884179994 0.0
9.715485963651112 0.5955299613117169 0.0
9.761785841543585 0.7048670948649375 0.0
9.670304314877074 4.578896619304786 0.0
8.058509626083154 5.744161686650483 0.0
6.181795443628869 5.462040811515966 0.0
6.256771804808641 5.338464817889848 0.0
6.124070400983443 5.352376180901929 0.0
6.399679261813415 5.349186390888865 0.0
6.477776305607503 5.46505688468465 0.0
6.541624525938461 5.346017118512589 0.0
6.673064575428321 5.339051516933525 0.0
6.599301548842115 5.241958624987057 0.0
9.573774011620444 0.815274945835158 0.0
5.86493292693426 5.877588788523632 0.0
5.552663040119136 6.957487930464628 0.0
5.535080960199246 6.663033131707637 0.0
3.708603689392072 0.5979254716153909 0.0
3.31896983256719 1.188583855309964 0.0
3.895664898001925 1.128137111173669 0.0
6.363360407965353 6.032416442205533 0.0
9.445959758065749 1.070139246426051 0.0
9.50632172780449 1.214052376665338 0.0
9.441030033980638 1.325047485624912 0.0
9.295799464644857 1.341410624832976 0.0
9.184164107767781 1.461677744200096 0.0
6.407191016756832 4.407273313799791 0.0
5.544591888593027 0.7652641669375747 0.0
7.883090151006535 2.497506182548758 0.0
8.073420508370992 2.120510489750234 0.0
5.494822040671399 4.732314720081375 0.0
0.8986976806403217 1.464611451578306 0.0
9.536325549598013 6.83286654168725 0.0
5.972289519322897 5.727532110854501 0.0
9.82203607053145 9.443411729566549 0.0
7.263199949874008 7.064207941227515 0.0
7.233659553805083 6.853135694774254 0.0
9.793310082768443 7.072747972018893 0.0
6.734168931095253 9.67499220075154 0.0
6.941134861034159 9.382328333169653 0.0
7.285822522704258 9.443989747444657 0.0
6.576263515512108 9.333035011158342 0.0
7.160560566479093 9.127732577621245 0.0
6.218711947378506 9.298064908857533 0.0
6.432383355119106 8.980985203293491 0.0
6.795390278360442 9.046043538032663 0.0
8.54677014121837 0.1957422484480979 0.0
8.528696320820908 9.804850950580938 0.0
8.42644965647489 9.604735484095604 0.0
8.010239224104339 9.715048083583248 0.0
8.644359648763341 9.628432815860457 0.0
5.344212921686536 5.526744195650314 0.0
9.760936589662048 7.38409687515441 0.0
9.128187788393989 0.1445485608215519 0.0
9.133307661752394 9.854833215426817 0.0
4.867351616228264 3.944459575003425 0.0
5.905323253270366 7.385600364255367 0.0
5.909045412185362 3.361969954191194 0.0
5.80580919758911 3.569999290452344 0.0
5.578230704221431 3.587842862412673 0.0
6.013352753603037 3.550699073477782 0.0
5.936624955014758 3.721630401607248 0.0
5.735413275357409 3.78528948606432 0.0
5.512538847486775 3.794760621907932 0.0
5.360571639388366 3.618649018042938 0.0
5.134141179590394 3.459385929220745 0.0
6.167399567008798 3.367365990358096 0.0
9.766756262206602 8.291756450136036 0.0
5.486063578307141 9.64505925252771 0.0
9.497624614180321 4.328873442170357 0.0
9.811387324954623 1.570516917365688 0.0
9.389210081887331 4.69150887571586 0.0
9.704395728912932 3.754226393630331 0.0
9.808172776193384 3.748784464356272 0.0
6.549660911932182 4.839747932361234 0.0
6.757415124099031 6.077939876843736 0.0
3.805578542126494 8.040840085419626 0.0
4.232580149691158 8.198659880701744 0.0
4.559765382564095 7.87091698350757 0.0
8.3829075948167 0.9495097054886067 0.0
9.8571301061408 1.456307792614791 0.0
2.005900212453279 4.535525273813588 0.0
1.85904408608185 3.956445706785572 0.0
1.979307922430775 5.474327285927505 0.0
4.387923194305381 4.427191306527721 0.0
9.429258370703248 8.873693567695483 0.0
8.99196583083892 4.664567567015693 0.0
3.050357122593155 5.368999067452741 0.0
2.861107385476722 5.785089447130829 0.0
5.005058958272409 3.711196438448062 0.0
9.8972295764837 2.755337284632969 0.0
9.581048890980513 8.853909321617065 0.0
9.668838904423916 1.762418716497425 0.0
9.716576458425756 1.852218615166234 0.0
9.799043132681442 1.780583141193779 0.0
7.661868217848455 2.880323287492419 0.0
6.780136552904057 5.443858690999834 0.0
6.489544866845868 5.913957888434588 0.0
6.880149522020364 4.134257616716107 0.0
6.970134365280068 4.264072319341612 0.0
2.225481516813409 9.348422240784 0.0
1.843418032490818 8.641605249943353 0.0
2.198000805242772 0.6459947140825729 0.0
8.740020306282506 0.1903932731609072 0.0
6.86957996016679 4.720776242956433 0.0
7.430920333506809 0.2702852342693345 0.0
7.302066064947383 0.6134316505458445 0.0
9.305398039877746 4.64854361125207 0.0
4.078151380865065 5.203425462519088 0.0
4.080704120371218 4.778853303303787 0.0
8.052525541571825 5.965483159581719 0.0
6.367194027835946 4.754896037842673 0.0
8.604191121620719 7.648182513679963 0.0
9.546446695207845 9.234701521982952 0.0
9.018652854946867 3.351011585453845 0.0
9.143853648154607 3.350173119015413 0.0
9.067079866763024 3.245174561579149 0.0
8.991492136849105 3.135578770028028 0.0
9.29603967712795 0.1426516429033488 0.0
9.392428271030795 0.2506306237151588 0.0
9.223973843394301 0.2912279164401488 0.0
8.39375191941536 3.018777714002827 0.0
8.4836475746111 2.88135207267795 0.0
8.741089053946197 9.821127577434911 0.0
9.803966507713174 5.448064463539533 0.0
9.748132240148552 5.359371181503531 0.0
9.850258990973547 5.355211921626304 0.0
9.7965346514158 5.266762244994661 0.0
9.84142096963129 5.171050273734619 0.0
9.738843612428232 5.167483913244169 0.0
9.64168976006725 5.359875132194057 0.0
3.335917453809221 5.671837672982919 0.0
6.962669142802881 1.683222554707996 0.0
7.365210844496719 1.887492842536114 0.0
7.517378971174123 1.677983072937792 0.0
8.00383870208024 6.089394601875145 0.0
1.725435941000569 2.759295503019395 0.0
7.907977929549089 5.102827208603365 0.0
8.052861051278896 0.2683271125209605 0.0
9.80169732768395 3.385443381464333 0.0
9.831597648680848 3.28491948963525 0.0
9.736335895866404 3.316207814499244 0.0
9.597256128490281 3.756160701977744 0.0
8.865819925321706 3.366235906378775 0.0
8.489614436807788 1.757152185195495 0.0
8.88089641144391 1.078983279100314 0.0
7.430923851187758 9.724389499796425 0.0
7.584252919312249 9.509430586267927 0.0
9.744026095940516 2.247117754488748 0.0
9.729961521243718 2.659836747108116 0.0
9.790866569780063 2.558993767350471 0.0
9.736606445116795 2.455104424879619 0.0
9.846806182714698 2.452157456754448 0.0
4.518102112052724 5.141350889745285 0.0
4.519880229178207 4.85678334497067 0.0
9.7302407894617 6.434012603549242 0.0
9.787537474544765 6.523591663056312 0.0
9.744262337067932 6.617499601377625 0.0
9.8406238811518 6.41591236129004 0.0
8.914967252734657 3.579360039684312 0.0
9.154797282599406 5.670753066089419 0.0
4.228839454580575 4.612979739018002 0.0
6.095037541675208 4.42126627187728 0.0
9.304166983880842 9.864854494751789 0.0
9.406445527105628 9.759007358529582 0.0
9.256225114941945 9.700832989525724 0.0
9.796206564635622 2.351215649506205 0.0
9.849373673349081 2.25090453834006 0.0
6.332048155295931 3.511675163099286 0.0
9.069679774213784 3.022879178706259 0.0
9.070599961450037 9.055284879641471 0.0
1.808685691036764 6.331557276533421 0.0
7.120156826652838 4.698481230214924 0.0
7.052894345811342 4.799848851879358 0.0
4.739957520484086 5.369107149361242 0.0
9.389197839958292 7.197139943834638 0.0
9.046688232613976 4.560364044038737 0.0
9.162685461967492 4.562194096410666 0.0
4.227377821420887 1.564128177298305 0.0
9.201090975245227 2.794301402811909 0.0
9.251941624303948 2.677556975242327 0.0
9.186758273070138 2.563916005021366 0.0
9.317609833868786 2.560335260954038 0.0
6.57599191748324 2.437689779955877 0.0
6.305556560534859 2.459112595979303 0.0
6.981058048792093 2.642476994448363 0.0
9.886113463139504 6.510498309609482 0.0
9.250462794607717 6.221362629571698 0.0
9.305373999084068 6.108271307139882 0.0
9.390477915810829 6.228015172491477 0.0
9.44452571968143 6.114582165110393 0.0
9.502105740270528 6.197677857389309 0.0
9.31559697209813 6.331647407124485 0.0
9.370938253597153 6.437386206819511 0.0
9.594764406124872 0.1099001288712305 0.0
9.602872681151728 9.894988341116305 0.0
9.622661196143387 8.076680696281343 0.0
9.769069277144705 5.9102532189237 0.0
2.615076109785583 8.807551523115547 0.0
9.658920005405456 5.730890135691177 0.0
9.76063135061807 5.720703211793342 0.0
8.63963723169499 7.177334225227945 0.0
7.841904391869763 6.41346852896409 0.0
7.764520718520185 6.297267738834625 0.0
9.546492996136271 3.465225175657335 0.0
9.25600964352143 2.219157062786616 0.0
7.625057159226293 7.012987957636062 0.0
9.529121062829038 7.730283486008674 0.0
8.329887090625894 3.845190321147069 0.0
8.265841850823831 3.95687001944245 0.0
8.402006523775544 3.947660780406651 0.0
8.128436391670505 3.968543393650448 0.0
8.46705122470662 3.835767362024195 0.0
8.218867047074696 4.063481375518748 0.0
8.089763413611255 4.08062363292928 0.0
7.939578083855268 4.111915744184436 0.0
3.74991304509639 6.615676756107112 0.0
2.627714335615619 1.170993030860914 0.0
7.046129971268607 6.759930788612616 0.0
8.534603732661887 7.486325780553722 0.0
1.569381386467569 2.042794535871475 0.0
6.228703743210918 1.986421863690014 0.0
6.467030855792859 2.67190498312861 0.0
9.272246093269825 1.975478263632296 0.0
8.05269609263041 3.854522845257449 0.0
8.008595521536957 3.177870309354594 0.0
7.929796740504207 3.350600835935766 0.0
8.048703574664067 3.449582532910417 0.0
9.72947480375618 4.973926800124758 0.0
9.784850360535604 5.072865219810449 0.0
9.896036387646596 5.069261557893528 0.0
9.633140953203334 5.168645132864771 0.0
9.558102991128836 7.602453108835212 0.0
7.278758746505716 3.994295887299482 0.0
8.306681733482405 6.936428510427854 0.0
9.487163072013963 3.757777670075558 0.0
9.532950522284125 5.359403698944497 0.0
9.816036650072329 3.927268437107025 0.0
6.173882586235392 8.734645960664665 0.0
7.972518459433741 5.003005338485466 0.0
8.398453459336153 1.601072016988848 0.0
8.97460527296194 4.040886705742754 0.0
9.037941657530773 4.143578781749325 0.0
8.849604200183613 3.828506169652706 0.0
9.545296177100065 4.042698359132156 0.0
8.595941796785514 5.806754902023664 0.0
8.65588412428292 5.694192853853139 0.0
8.723710665131787 5.801528918332044 0.0
6.861288985046249 6.673713222735126 0.0
8.87477249219366 4.664500928777609 0.0
8.72385765226959 3.608276264790996 0.0
7.145228858696953 5.573648565429618 0.0
7.282945121585866 5.558559688509987 0.0
9.224761401603633 1.602363370249125 0.0
9.609115686587552 2.986868833620756 0.0
9.633989947851914 6.628120633848649 0.0
6.046214325132457 5.45615093027661 0.0
9.017014346798927 5.271996636983457 0.0
9.070824864071271 5.168510834798647 0.0
9.189021391555556 5.166867900487267 0.0
9.123328759137758 5.064718588163964 0.0
9.240587446378079 5.06459430516883 0.0
9.250848280531756 5.267364371053135 0.0
5.773050603406019 5.7192906317521 0.0
8.576466432793914 4.3559007860436 0.0
8.634627802680399 4.253467736542067 0.0
8.461790117175607 5.591735227444779 0.0
8.907610717370224 3.713397213891439 0.0
9.80665594564509 5.628066492225966 0.0
8.985935132601089 4.455263493464225 0.0
9.00640209566022 5.067597672073404 0.0
9.833659276096986 6.976519563917422 0.0
8.0283368553477 4.687271895436317 0.0
8.326580191759327 9.127498457128247 0.0
8.650637373791266 5.07513089931925 0.0
8.701067313435203 2.700069743477523 0.0
4.825307249916392 4.884175191874744 0.0
9.418335984190309 6.858444798015129 0.0
3.91434687300816 8.542956908935874 0.0
5.569239724399552 2.064135034637056 0.0
5.234271567762738 2.128974435011933 0.0
5.757920427527626 2.312422707096966 0.0
5.43365689737979 2.427455772745759 0.0
5.673210219624612 2.602111218343444 0.0
7.214258468265766 6.652783071431555 0.0
9.823626269633962 4.30685540664529 0.0
7.96996639420014 4.794005510174826 0.0
7.616003332725032 0.502676560965646 0.0
3.050634530589821 4.659174799474146 0.0
2.870894249800723 4.246924313393336 0.0
5.285393339952368 6.079037173753393 0.0
9.439954241218905 4.23581687956071 0.0
9.67709722097145 4.710772408106511 0.0
7.40767785509217 4.259947873553335 0.0
8.396202587439676 5.486075637998701 0.0
8.323689688705493 5.372061002264632 0.0
8.191312386254125 5.384662546230823 0.0
5.304380054816289 5.369675374029755 0.0
9.093848379546637 4.047647920840374 0.0
7.916313220758624 3.045043876114836 0.0
8.435854831444637 4.144861908356168 0.0
9.060262453079693 0.7340576053322918 0.0
7.053195520344596 5.238809779682351 0.0
9.621762679347093 2.45205452967588 0.0
8.410730269104743 5.287995309529392 0.0
9.655094569234972 3.472720279371932 0.0
7.982140513923982 6.667914768024983 0.0
8.402690325256646 4.883576657130221 0.0
9.17488654147479 4.962006474835693 0.0
9.013188196102961 8.49700148123058 0.0
9.795977244531603 2.156818021002043 0.0
9.893813711206834 9.545820400859157 0.0
7.965349232662289 4.250048884270795 0.0
8.644264557989125 4.874751532150782 0.0
8.215430976121077 1.26077208565765 0.0
8.379717637669398 8.37324652769609 0.0
9.320026533461409 5.559861899725609 0.0
7.885778178744864 0.4977439426642278 0.0
7.547066983926719 5.125166613071239 0.0
7.657542898944819 5.122996245335209 0.0
7.423918840193691 9.000935553397358 0.0
9.854133000712425 5.541931969512857 0.0
9.328508174398952 2.101486405523264 0.0
9.300749600926641 9.530012105354274 0.0
8.130307182491519 5.277079344947874 0.0
8.346752967392757 4.987627363826086 0.0
9.118404185029991 6.007087846617186 0.0
9.048232213728614 5.89431792713258 0.0
9.088340967655858 5.576242562571367 0.0
8.094762487139027 4.789727191449318 0.0
9.915265904493378 5.749591413470928 0.0
9.92169805280126 6.154216704502091 0.0
9.918022441582268 4.549125436287157 0.0
9.919332362905616 4.849536560132457 0.0
9.914800786693318 6.750595509794719 0.0
9.811792900437824 6.703950687575952 0.0
9.900643083988882 3.749855087409844 0.0
9.912423171222734 3.043228996968949 0.0
9.91892875832665 5.949999999993851 0.0
9.913300070218703 3.960831593817277 0.0
7.709347001661226 4.444236534782706 0.0
7.479443107717332 8.071637285053104 0.0
8.839057072155848 6.807845119358974 0.0
8.972330068019902 6.78765448182788 0.0
8.542093772125282 3.941452413628317 0.0
8.279144752968262 5.930387616620717 0.0
9.393455876855919 4.973162505621418 0.0
9.507123333872533 2.855087674515822 0.0
8.77504684283825 2.317347145885344 0.0
8.394133129040345 4.464046960801843 0.0
5.725509852450801 8.210843960481027 0.0
5.62632390239664 3.967637659758752 0.0
7.910815814627989 4.900765971697654 0.0
8.595808444085467 5.590040244353608 0.0
9.705160502006024 0.8106158419444889 0.0
9.82021247904746 0.808810893177099 0.0
9.218352146075844 4.447736986422823 0.0
9.20781892622228 3.858281726888132 0.0
8.713609974387523 5.178241668554946 0.0
3.55755059259364 8.921522400238844 0.0
9.59122926011489 5.452844834281716 0.0
9.70565100407009 9.77887811062354 0.0
9.826938454219809 9.74303055702321 0.0
7.238962096855633 3.278078153406256 0.0
8.575609105166194 4.567807831727537 0.0
8.936449841121737 4.765835458965493 0.0
5.59323463391086 9.248527978398117 0.0
5.280809113285124 4.886132326418428 0.0
9.328132730893216 6.544753806716806 0.0
9.026944889277736 6.67247283515637 0.0
9.81946239021469 3.007926663525007 0.0
8.677633568960493 6.144049349297466 0.0
8.33427489656924 4.571212803519522 0.0
8.55734024448315 6.382535186588269 0.0
8.692399379422756 6.372347713955898 0.0
8.495817478252626 6.503308565233578 0.0
9.905494734661673 2.544078755559835 0.0
6.177101405266569 7.228490244483556 0.0
9.825373011845263 5.807482724503027 0.0
9.808678508609606 8.118683092442964 0.0
8.397717712407108 7.08010313863416 0.0
7.428555529689225 4.935946611338556 0.0
9.575504958128711 6.125633853639113 0.0
9.154066996197898 4.146562596982661 0.0
8.074381802159323 4.337569667261167 0.0
7.018337246891919 8.843475095716133 0.0
7.970627172560641 2.658650028065857 0.0
7.382546388883145 6.723381543491632 0.0
6.822972334933889 4.884555620881615 0.0
8.343732976791593 6.041576709398377 0.0
7.743680217306919 8.423336160305476 0.0
8.505717922983454 1.115022897794028 0.0
9.113973198216474 6.992972408167606 0.0
5.818882632841168 5.300437503812764 0.0
5.951991891717714 5.279516346785062 0.0
9.450183479138845 5.92934813870612 0.0
8.783346541536119 5.48419035750989 0.0
9.38074895894124 5.65076274999803 0.0
9.513658728876734 7.193620441323493 0.0
6.396040948797887 6.776064256962667 0.0
5.389661780244388 4.89715084345563 0.0
4.473247649068957 5.85935163892416 0.0
9.249586607512612 8.37680799459232 0.0
9.103796366487646 8.379197231055114 0.0
6.274057301184156 4.87985402946409 0.0
9.259628836118232 3.561431822636308 0.0
4.037922477011971 5.489409780163391 0.0
5.62712958624254 4.893925433488392 0.0
8.806426003347967 6.133410188141932 0.0
9.53304466499349 9.59279975429444 0.0
9.542890959420024 1.966631379116419 0.0
7.459736176874619 5.863847835420528 0.0
5.937613117200432 4.89232797168023 0.0
6.171611131472617 4.879541833448487 0.0
6.100695199816815 2.291172318314745 0.0
2.315194906726768 8.081958163666464 0.0
6.878489987598286 5.148099521847569 0.0
9.105264414399338 8.639184652727645 0.0
9.20047261316883 3.457820810661327 0.0
9.895329010385955 7.55944047105717 0.0
9.912742873006831 7.76210330502246 0.0
9.37761459375249 3.168397068877758 0.0
8.946121261512507 6.345629828835438 0.0
9.918632496443566 4.449809517365367 0.0
6.848211525651934 5.945010613369067 0.0
9.915721525903255 2.047407395915179 0.0
6.117255841708726 5.163321965161054 0.0
7.276595248786602 5.347247322210079 0.0
6.32682869954104 5.23674259421017 0.0
8.785886448438022 5.692775375342819 0.0
9.099994401883361 6.776698531382792 0.0
9.913397459621638 0.2499999999998165 0.0
9.910352525643928 0.4481571029410266 0.0
9.907850422008579 0.5479735220323012 0.0
9.911983631350465 9.24778487019403 0.0
9.917634740384067 0.7514684821956668 0.0
9.195214232985496 3.254172408378337 0.0
5.000896927376288 1.846006038077654 0.0
9.917172478547403 8.250155740683276 0.0
9.908120476950126 1.742986232208194 0.0
9.914524635720774 1.949567899316728 0.0
9.907358878377153 9.145625165175748 0.0
9.917695944922635 8.949999999998397 0.0
7.648387553139914 5.325741673607362 0.0
9.605343588986079 4.130627398479715 0.0
6.648113233057817 6.774798386229164 0.0
9.910347203087213 8.446729917003672 0.0
9.913623694530468 8.548470085896316 0.0
9.9201245863254 1.536225488581779 0.0
9.906538426683255 1.059019360781604 0.0
9.912867352010919 8.74999999999809 0.0
9.799662981388353 8.79550485462418 0.0
9.831828680383174 5.99966894118311 0.0
9.91414179906643 1.263025320602998 0.0
9.920690092699912 7.240982963665807 0.0
9.385889285950551 2.235126904097426 0.0
9.28133998925606 8.00415195851526 0.0
9.817074723108401 3.172398890123306 0.0
9.482030285089927 7.512954023388035 0.0
6.682432918504054 7.233889573028878 0.0
8.528699633246763 3.260502457553277 0.0
8.91699963742029 2.327016692708648 0.0
9.267676068834481 3.954520684561369 0.0
8.70811637467455 4.974101624783084 0.0
8.18184214270768 7.816666208279135 0.0
9.690393137288163 5.264344933127836 0.0
6.937111790104696 5.245184991960528 0.0
5.895846026722989 5.174232967273284 0.0
8.281683356622615 6.400073017261236 0.0
9.150883172924027 7.444273543454419 0.0
5.430406600793122 3.390815886517273 0.0
5.049583827974758 5.697634876048387 0.0
8.3966710383105 3.495813899905868 0.0
9.007538428392454 8.046563579784266 0.0
4.645155158868719 2.637132843684674 0.0
4.887444326771336 2.30020425915506 0.0
6.483736782775559 4.522536327482678 0.0
7.843169154548308 8.2116075844056 0.0
5.06295551628385 4.901632590583318 0.0
7.201400991012747 5.138239336380897 0.0
8.519791031104612 8.848807089071627 0.0
8.658623737989732 3.031313729049854 0.0
7.585566208322493 3.629882964874684 0.0
8.411818469596405 6.834326722716643 0.0
9.172363528634236 7.669230647622864 0.0
8.85455683341768 2.682483055215344 0.0
9.359398739738925 1.631421337140716 0.0
9.071793864444992 7.337030604117359 0.0
6.968394563521436 3.712808894519514 0.0
7.899236117684646 7.094583340182754 0.0
9.54362864504834 9.781852543872333 0.0
7.151298729743687 7.644795130415299 0.0
5.452218361466201 5.186873761308322 0.0
5.517642289161902 5.293540933999446 0.0
7.802500357665464 5.978295671754199 0.0
6.594850839687122 8.491429270558893 0.0
6.029132431949566 8.294997405201931 0.0
9.31286590869111 0.5672913838331921 0.0
9.25238720319541 0.4415953739444106 0.0
9.550589523211062 4.228044955453704 0.0
8.748611832783206 6.250900951984038 0.0
7.566980108995873 3.995148257893202 0.0
7.426142759241261 3.996743578498081 0.0
6.478912513785404 4.000296412419969 0.0
9.30435638148753 5.168210982711592 0.0
7.542154188520517 5.752525075248498 0.0
7.219033852073297 2.139582470800704 0.0
7.370913620388047 6.545121498197235 0.0
5.226731036024996 5.187572666585561 0.0
8.515591031124366 4.462223215179979 0.0
6.762864307079274 0.3078036604979366 0.0
8.587432696997471 4.977010533175154 0.0
8.703948448756302 8.815629076400704 0.0
8.081003990931544 7.370949680119862 0.0
7.424404567669909 6.949730915714445 0.0
8.578903262311433 8.377992954045473 0.0
7.301258690263783 6.106184350645308 0.0
5.991600556904204 3.99820087171043 0.0
8.203048538477193 1.601044215405025 0.0
7.289972483120081 4.572350254111052 0.0
7.714697186439165 5.420586967696794 0.0
8.918853780709807 1.841796898567452 0.0
9.919941345877513 4.749808449067644 0.0
7.245589454939737 5.94251251443003 0.0
9.258480524497795 3.358952871140391 0.0
3.705877615124628 5.574038727593425 0.0
8.287096858129765 7.962370605242409 0.0
6.799629860952143 3.705385600481528 0.0
4.146753450763018 6.544154457143895 0.0
7.413973555029582 5.545687501585183 0.0
8.466524978378082 4.980481756569235 0.0
7.336312153537934 2.337983522449311 0.0
7.695505222753409 3.747498713679684 0.0
4.898236813123799 4.795853653580084 0.0
4.59779105899602 1.896916774247134 0.0
8.560170375862322 7.072369101894893 0.0
8.386150468360862 2.449771437140704 0.0
8.41200018115259 5.084601315536367 0.0
5.102189912301071 7.621598618277815 0.0
8.336320418935243 6.71651223072348 0.0
5.081745734883095 3.977838926197614 0.0
7.63590698378166 0.9500570055008507 0.0
7.743369677149255 3.051233984704873 0.0
5.357527459690566 0.3809996753407537 0.0
5.967373112873382 0.7731113464301924 0.0
8.169449265206127 6.666271947462212 0.0
5.95122726745053 5.55758205410881 0.0
9.922289489207834 3.53923011719877 0.0
9.39154684476555 2.659037023454942 0.0
7.701415639167884 7.690060291860976 0.0
9.819179654793023 1.329863870021845 0.0
8.358229579054417 6.506108206863729 0.0
9.269720555169467 5.657096143475924 0.0
4.473187658045934 7.435037860084884 0.0
9.65807158077373 3.255496360750368 0.0
9.605155446454205 8.713645566904637 0.0
7.097383547728313 5.141197376985936 0.0
9.812212483832656 1.89920712759492 0.0
9.83875570675407 6.81603549325055 0.0
8.926246869879279 2.079976511571457 0.0
9.166785856141402 9.169070814302419 0.0
8.763479010228052 1.587152667342957 0.0
5.957377924852992 6.404530806530254 0.0
7.14506854375872 6.10342416684208 0.0
5.672595070581394 5.164323323112049 0.0
4.899782787268781 0.3801727265981219 0.0
4.447133848117348 4.673614099606824 0.0
7.044865074789195 3.253639989243549 0.0
9.818461337102992 7.819456450952447 0.0
9.925334577033155 7.954012377173311 0.0
6.352907898232792 1.173665225954276 0.0
7.351721385581032 5.660361289755705 0.0
9.337367583861807 2.76534436379692 0.0
8.693118347802024 4.360254099729149 0.0
9.476812970101324 0.3524826622168163 0.0
7.109868985890334 0.9024224571333925 0.0
7.899106846231403 5.511805431542581 0.0
8.352799544476607 5.187887629361129 0.0
6.957483547582747 0.6176251309213842 0.0
8.099559500483094 1.412323841044818 0.0
9.913030944540278 0.8542404645334569 0.0
9.143075088381442 8.022165366829135 0.0
8.819861450593166 6.356592599428041 0.0
9.319444417409162 1.49938505915629 0.0
6.490262520326714 7.118204362551877 0.0
6.490874470087819 6.582907761235813 0.0
9.82506653058937 0.6146757679104559 0.0
6.803129818897624 4.419048038171804 0.0
9.840901379354312 0.08198751964190581 0.0
9.839740374244226 9.918356239418472 0.0
8.551927134544655 9.449788917425456 0.0
9.92097857388158 3.249999999993177 0.0
5.797087413057367 7.077351493358238 0.0
9.255412859987286 6.433984412022419 0.0
8.668174522249984 1.740767926084485 0.0
9.920991430240607 6.25262219124529 0.0
7.57275248448898 1.94367954756322 0.0
8.052865444445507 8.19900054463639 0.0
8.748697149245206 4.25201068974208 0.0
9.158270227735827 0.5542256343091421 0.0
5.997487767477439 4.787924707603557 0.0
6.119759900601896 4.78043793682227 0.0
4.353034750397793 8.619182743639561 0.0
8.721093521611476 5.588932824583312 0.0
5.717101151444983 1.123034066822819 0.0
9.825602081347064 8.68753399402474 0.0
8.005502510832988 8.7824052910506 0.0
5.548184234622668 6.408009287230429 0.0
5.77830300433981 6.598697187164234 0.0
9.613093825495433 4.50282172481406 0.0
9.928981132641653 9.74928475696928 0.0
6.613628176297015 4.515513362596662 0.0
1.822126723816303 1.297795131355289 0.0
9.514164594137375 1.43081427463862 0.0
4.735494753432723 3.698541604583975 0.0
9.52844959749262 8.615213629960298 0.0
4.660704511759056 0.7947595073298008 0.0
6.82340845160293 5.239926830264399 0.0
7.885938077030673 7.380147032865134 0.0
7.884599891021201 6.09005968568029 0.0
8.846834820720167 9.653276456345532 0.0
8.457777199486827 0.3851010632068662 0.0
6.66485224572131 8.771510767670392 0.0
9.091499342133352 9.708315832477556 0.0
9.824286725109655 4.976315293637262 0.0
7.848197684391786 5.632217046637356 0.0
3.88430598115417 4.225391362015386 0.0
8.776890759183289 2.809688928468134 0.0
7.393884285023409 3.59397875231041 0.0
6.927568893329758 4.396788356869783 0.0
4.96854327720728 2.662368428358774 0.0
9.1480130720193 3.951479613991279 0.0
7.071049729490975 2.38092990636632 0.0
3.40193058782919 1.686321186206593 0.0
7.612042194200681 4.815904436723407 0.0
9.043395868401339 6.888481825015849 0.0
9.098933057562759 8.152197681006806 0.0
6.058682303253315 3.857501492181965 0.0
3.707092669281355 2.986685502034343 0.0
5.113272509841263 5.189455016444592 0.0
6.960565857079232 3.416349532571279 0.0
8.755151527375476 7.649255597361291 0.0
3.393680865444538 3.679982303262531 0.0
3.117424600120088 3.35605258976247 0.0
8.530814041264104 5.488376426140491 0.0
4.820719767306654 5.106646490188182 0.0
9.918899263509473 4.144927088739744 0.0
9.918194630017027 7.447268230913605 0.0
8.461970084137805 3.144844565847669 0.0
9.924415919486059 6.949999999995354 0.0
7.184050152099684 2.72771667662237 0.0
8.834356715215904 7.801565642745232 0.0
8.689015446783005 4.145232831954543 0.0
8.490778532265319 8.234414357968106 0.0
8.63666290918932 2.83060276219705 0.0
4.61028976098935 4.741894230894578 0.0
6.314735925012879 4.003132559161639 0.0
9.20786580425652 4.67001723737971 0.0
7.141401229301469 4.873205425098625 0.0
6.235177809922153 4.774126344778935 0.0
9.12491895896937 3.145675090615719 0.0
9.255747684068178 3.162525801823036 0.0
8.312852272796098 2.290855459722148 0.0
1.449266720542303 3.363629101350872 0.0
9.525687840398492 4.800807314407045 0.0
4.829905263804087 8.14474456977717 0.0
9.09338914689732 7.563794106183232 0.0
5.389401689694107 5.283808684471545 0.0
8.530979415204587 3.029374286908943 0.0
7.901489077080633 6.535344047486632 0.0
9.218572924671975 5.760893551533255 0.0
8.562382833959296 4.143913974026883 0.0
8.62959127904665 8.974877485888243 0.0
9.408442441596518 9.62276529745719 0.0
7.5034765601713 3.869833107932387 0.0
9.842813436634783 6.600620949014236 0.0
9.826116984327193 8.911617279149695 0.0
7.529907780698261 0.7369111006685982 0.0
7.832164962480427 2.905293639437395 0.0
8.39517908433056 3.267417602291069 0.0
9.823014010107707 9.085319632577246 0.0
9.022314123618541 3.944559746338292 0.0
4.243701230676532 5.332574856090426 0.0
9.816740542566388 1.127839952679595 0.0
8.166775715766304 5.693916696568397 0.0
8.865374421689054 8.068986769641638 0.0
8.761145809863661 6.470583506581853 0.0
8.998345275919851 9.209303502026401 0.0
9.698477487436316 6.706902829754045 0.0
6.439032098063426 0.3109134377713525 0.0
7.562681994382136 4.643158005207056 0.0
9.03999088074715 0.2799354672273258 0.0
5.180741540467516 3.805018725608906 0.0
6.243990330956698 2.718077286244967 0.0
9.79416634023361 0.1815240178579244 0.0
9.926540005061975 2.847049370876555 0.0
9.826476210374608 2.670192168078066 0.0
6.365816673179121 4.536333049275508 0.0
5.546353765219417 4.618331215552614 0.0
9.820703096450293 2.000649418331399 0.0
6.884388790679166 3.561583980715254 0.0
7.431303395649604 5.747824222777201 0.0
8.849816832721245 2.19318290395604 0.0
4.185147517585975 5.697469360586313 0.0
9.165905238119013 5.873664931582344 0.0
7.70479478158537 1.788324620089049 0.0
9.627376046933474 0.9196091445437269 0.0
6.657687963328663 5.144792385996769 0.0
9.83245016645186 0.3925568446109945 0.0
7.483092985762584 9.253837199159435 0.0
5.445348362202234 3.977855663863651 0.0
7.476680532833337 4.837183287808616 0.0
9.572749890969304 8.505160319814301 0.0
9.915853314998252 9.437014513917465 0.0
7.679469018350979 7.390484878021194 0.0
9.418139053434402 4.790576000488359 0.0
8.096967733471567 5.865447162201908 0.0
9.829153508938724 8.378494945652118 0.0
9.926595955569645 5.157718300415699 0.0
8.774484245600224 7.939747459426853 0.0
8.629764448155779 6.481031318922794 0.0
8.961169458302376 3.839036702328818 0.0
4.617199205561317 5.256318959792646 0.0
8.480815774219478 4.031210317621497 0.0
9.708341592512763 3.401018043990571 0.0
7.183974816647467 4.77882314543966 0.0
9.821437962294304 7.659391965474772 0.0
8.150320284869602 2.286501016204562 0.0
9.828114434347311 1.684891358832554 0.0
5.349187766238684 6.538177907133678 0.0
8.076053471314525 2.76180604769483 0.0
4.907713691134565 5.29818629967416 0.0
0.6874399366049438 4.328593906714074 0.0
0.6980011780697519 5.702671170050627 0.0
8.263861466707834 8.182284285231713 0.0
5.838783785156478 4.913981390426639 0.0
7.807619472656604 7.235706382002089 0.0
9.388504256318683 6.022122644748753 0.0
9.929839894767033 6.436189192303577 0.0
8.3205848711706 3.39107920408397 0.0
3.240770542267401 4.019899919523968 0.0
8.059047070496568 2.468855909103855 0.0
9.932479519490421 2.449625056415224 0.0
7.737639000139152 4.580708137963557 0.0
8.26141077223695 0.3940397126348397 0.0
9.69568953371801 1.959951226402445 0.0
6.469120930453264 4.892267070266994 0.0
9.167223997255698 0.8102256463122337 0.0
6.236889648241256 0.9291076084031108 0.0
8.306379082772498 5.268830342852036 0.0
6.716089118890225 5.239344620507032 0.0
9.82511981852641 9.282822358664017 0.0
6.68375719572285 4.404998642130821 0.0
8.913754712375674 6.908138360584365 0.0
6.173250048857013 5.251634416326969 0.0
4.235907497612446 1.924052997345291 0.0
5.151007663981651 2.438629730660893 0.0
8.924254300637541 9.3764975797567 0.0
4.438612423541503 5.287968640901957 0.0
8.571203234299599 1.897009944569934 0.0
6.878800676380218 5.821332862798138 0.0
5.710626178601224 4.792560699857408 0.0
7.149510071621283 5.216310009157644 0.0
2.099966541549645 2.334742113488256 0.0
9.93396330620579 5.350566393301629 0.0
7.143046479323961 8.646955109387985 0.0
7.965747313080266 5.193641450105844 0.0
6.3314394693073 5.135050228240639 0.0
7.665821333021348 6.222698255001823 0.0
6.305321657053551 4.659816230868476 0.0
7.833020917089713 5.208837056143474 0.0
9.41455902676429 2.869725681199307 0.0
8.567151507735133 6.598605357295113 0.0
7.405527786978573 4.377085529441429 0.0
6.552969697053132 5.137148974085434 0.0
9.93630620742063 8.042778076596578 0.0
7.166743296019233 4.593171678848165 0.0
6.595561806063966 5.839366735225723 0.0
6.066152182102007 5.262519562574559 0.0
9.834694151277489 0.9093455747994099 0.0
8.98259191950674 7.579732466796592 0.0
6.465071238839505 5.25485771955322 0.0
9.759759896588413 3.236659507608532 0.0
4.775529448101694 5.224235675150505 0.0
9.935991245222917 7.153416415978829 0.0
0.6530736820718381 9.352299998916202 0.0
0.6449439415299687 0.6468300344151556 0.0
7.804690364869245 4.495816547678174 0.0
9.84503784553893 5.70620404704573 0.0
9.83525329400959 3.826992990746767 0.0
9.922964894244684 4.265000406933376 0.0
8.333767638401964 1.121219971446645 0.0
8.876012546033895 7.019147158538482 0.0
8.172413577824324 3.413096916572049 0.0
7.232233017296214 4.478957103028363 0.0
6.214597295185415 3.852860083673202 0.0
9.85013791746415 4.400709747289421 0.0
3.941627380932058 6.342995010255737 0.0
3.097271569675528 8.77391871286929 0.0
9.292917152323044 6.010976049411984 0.0
8.104342196673183 5.184165973282902 0.0
8.994300084006271 3.652611812846807 0.0
9.937157897030163 5.549999999993244 0.0
8.721368888525245 7.274540720770752 0.0
8.920003648712827 0.9516585309368178 0.0
7.910527456030004 8.536826514867816 0.0
9.846441288756814 4.60515911863952 0.0
9.584942233925151 4.712073182517884 0.0
9.642357858573972 6.805672051759494 0.0
9.797024725252207 9.838837222258014 0.0
9.842451438022124 4.018973836958878 0.0
6.112723137676118 3.704473949316424 0.0
7.574641969193845 3.765362276156904 0.0
7.826594968121701 6.200366572362263 0.0
7.762805366733504 9.34009502796868 0.0
9.56854033867856 1.012566255816665 0.0
7.71256563655353 5.219373702836014 0.0
9.68039392238282 8.786964504862018 0.0
5.910362452777086 9.277662068919813 0.0
7.418090653922814 3.326443419100716 0.0
9.857704179097952 4.697553149694669 0.0
8.452469674653342 8.996585816905599 0.0
9.522351366699843 2.057525484575908 0.0
7.802315574700843 9.548878971475935 0.0
9.938875656926385 3.449999999992592 0.0
8.425189037911712 6.608575180629274 0.0
5.925965231566842 2.523669697740033 0.0
6.654918072256329 5.95749128982984 0.0
9.826748589235729 9.631118448471485 0.0
8.6684585637523 7.39633999085442 0.0
9.844673843931567 3.090088625379724 0.0
9.93613850661301 2.250382721159617 0.0
9.218291993658738 2.892108990205171 0.0
9.83502846611296 8.212781989607324 0.0
7.754136409732265 7.104288507262783 0.0
8.510570542791681 2.036933285735889 0.0
7.757745059307245 4.315798612475442 0.0
7.989231770559189 6.201656630465583 0.0
8.068934521422738 4.198631572122605 0.0
4.957478134450373 9.038766150325067 0.0
7.208661142641733 6.501402463831379 0.0
7.299506095906239 4.363561999234681 0.0
8.250303873550486 2.105322217421675 0.0
8.678637541413377 7.053471135702286 0.0
9.761528395137384 6.163503990672834 0.0
9.84494857233395 8.59999999999775 0.0
9.83825138794677 3.672838954969637 0.0
5.121008544047756 5.808127183024784 0.0
8.343911550360986 4.043535893276861 0.0
9.85324441775315 5.899999999993774 0.0
9.51114465213134 8.41035540646284 0.0
6.505812179224195 6.93390566262983 0.0
6.15572847138365 9.023097246950844 0.0
3.352081892333425 3.024853379890529 0.0
6.433163283162099 8.675072413910678 0.0
8.825744236698243 3.624446391299867 0.0
4.883007294861279 7.819620905924936 0.0
5.876659170760434 5.638247433601083 0.0
6.859400040348503 6.510797998354633 0.0
7.946400945409184 3.500317276373196 0.0
7.496830255505493 6.653194511698024 0.0
9.852183479755313 4.891525833556942 0.0
9.77998778436291 2.922486526124376 0.0
6.774672660492365 5.324728659740495 0.0
5.717254072187427 6.824125962512845 0.0
9.713440940838062 4.63793103997539 0.0
8.859858662536796 0.2721395536350836 0.0
8.37556017530946 9.436653414116012 0.0
7.395237381047616 7.885576562773319 0.0
5.4709157802033 4.511152089197594 0.0
9.489749416979361 9.691840729914848 0.0
4.599216022837964 3.46438688931078 0.0
5.572287492757569 4.807021644849729 0.0
9.926499336309957 9.92730688390086 0.0
9.926499336310107 0.07269311609890093 0.0
9.338127766332573 0.3585313952168247 0.0
6.810761948165162 3.414693294319008 0.0
8.166274345037138 5.943611545564389 0.0
5.2892644736731 6.301081312912763 0.0
9.731911074791544 7.649313380659622 0.0
8.90251102352767 9.50983415326544 0.0
8.997881406541017 1.033666784655452 0.0
5.835124768755703 2.738139962594905 0.0
9.665357480775825 6.185331297099201 0.0
7.656532192558493 8.217157287499347 0.0
9.170463887605525 2.975444721032631 0.0
4.208158615905443 0.8648302238584886 0.0
6.97015686031129 5.933674629077266 0.0
6.181941366523793 3.565885175921835 0.0
3.30313590337911 6.393402837735046 0.0
6.447482061767014 4.816169316820496 0.0
8.185341428749446 4.169172087371246 0.0
4.552595724340015 8.298301336212145 0.0
9.84850676569699 8.999999999998423 0.0
9.846941514449377 7.393642828194986 0.0
7.924592433490734 2.788309934035703 0.0
8.154308714226714 8.853640122009672 0.0
8.876629743004642 1.96110242719995 0.0
7.228849192966834 8.90811350348676 0.0
9.852301635085423 8.296637825215246 0.0
5.219795195341889 5.547413133147649 0.0
9.861497117995457 6.901363010201344 0.0
2.953911258021604 6.136007283255669 0.0
6.93158841067062 4.77708273647784 0.0
9.67540418457871 2.912802891506324 0.0
4.194055958522277 4.437353127730132 0.0
6.133959559341536 0.406856611599261 0.0
8.29952795189331 9.309744645643846 0.0
9.843692337952948 1.209647690818311 0.0
5.164986286280336 6.671544079402435 0.0
9.838533350075606 2.081705440779448 0.0
8.301244777513975 6.604088853319459 0.0
5.471494771710784 2.714598185146428 0.0
8.86534684892311 1.208599471795828 0.0
9.940610684232212 1.451558535868664 0.0
9.40896208432968 1.428353940655538 0.0
2.329177605337097 4.238803555614174 0.0
5.980761651517799 7.182207186682233 0.0
9.66541573964336 0.1719254072074424 0.0
7.220979380229172 7.806128737674462 0.0
1.251721227904697 6.151932667911503 0.0
8.104967286191181 6.057912607875576 0.0
6.650768762224724 4.817922869198292 0.0
6.634976350437587 3.213339182992986 0.0
7.034320437500567 4.898219100342838 0.0
9.502772020064167 6.283064492634301 0.0
8.13187938667684 3.518506862055515 0.0
9.855471943454193 2.599999999994991 0.0
9.056747742708522 8.263936599935574 0.0
4.352645795441222 5.724453640019 0.0
3.744263984699181 1.488951698361357 0.0
5.175860134287045 3.6375726667098 0.0
7.736434712114619 6.400417475661193 0.0
9.857658576695343 6.316607183405179 0.0
7.876525261950537 4.304285002335559 0.0
9.856114384785611 7.914602773442983 0.0
9.848334119947063 0.7059644476295188 0.0
9.59694321995579 6.895814046141667 0.0
5.906465212962551 3.869023950643881 0.0
9.840676994268005 9.364956386459765 0.0
5.355015287544095 3.83518170601625 0.0
6.374090407153147 5.855743754257685 0.0
8.227401290513832 5.297819733684674 0.0
5.451235131977493 4.825706629991923 0.0
6.022070213762754 5.355923882747634 0.0
9.845674433677614 6.108401449483281 0.0
9.835067400944396 7.739582406783081 0.0
8.602026805792988 2.941372356914139 0.0
5.059869081004962 5.269480960018243 0.0
5.284714507903736 5.26496663762182 0.0
9.627110479149561 7.660076105040499 0.0
6.820001127809743 4.792514421153957 0.0
5.120512795059439 4.806607659110254 0.0
9.56933817216883 2.911464407429096 0.0
9.74091654291531 9.267545397628387 0.0
9.93006767325302 6.576784040838644 0.0
9.642486276936268 4.650227701598451 0.0
5.185183328569137 9.410919109238325 0.0
9.37052946854105 4.605636695802024 0.0
1.677077220416309 5.871167715901136 0.0
7.345783833404538 3.184020711886284 0.0
5.419239942654976 5.982692039856376 0.0
6.133318300188262 2.551919945731369 0.0
6.187291396343277 4.499077117404439 0.0
1.231465237822878 3.921479198315213 0.0
8.969849937139944 9.699215363213542 0.0
9.218303154263054 6.037447959776716 0.0
CELLS 4886 19544
3 1113 1356 1450
3 1402 231 1659
3 272 269 1414
3 396 394 1777
3 1451 945 1452
3 194 81 1801
3 1847 1501 2104
3 2024 2121 2479
3 1115 1113 1450
3 1124 1413 1844
3 1061 1955 2409
3 307 305 1645
3 1592 1369 1593
3 238 1501 1847
3 1955 1883 2409
3 1808 243 1910
3 1885 978 2362
3 1440 793 2092
3 189 1488 1608
3 353 350 1864
3 2007 2231 2232
3 307 1645 2493
3 1096 1760 2496
3 2178 874 2179
3 621 625 1595
3 1493 1480 1938
3 1655 1268 2137
3 1341 1410 2212
3 243 1808 2360
3 1902 1446 2516
3 1760 1096 1763
3 856 790 2180
3 2008 2046 2105
3 789 1809 2067
3 694 1543 1575
3 1127 1762 1953
3 1748 807 2228
3 1543 1308 1575
3 820 1872 2170
3 1417 954 1998
3 1369 1592 2386
3 272 1414 1787
3 329 333 1998
3 1544 1095 1545
3 2231 1490 2232
3 1342 1683 1790
3 374 377 1797
3 807 1678 2228
3 1665 198 2128
3 141 142 1620
3 325 322 1952
3 231 1402 1654
3 198 1665 2010
3 1890 1307 2387
3 208 1438 1619
3 2016 1970 2156
3 1436 212 2020
3 954 1417 2333
3 1736 1894 2244
3 1491 1750 2143
3 1677 1064 2146
3 1474 1258 1475
3 1500 233 1930
3 1446 2415 2516
3 1700 973 1800
3 2128 2270 2316
3 1316 1315 1593
3 1307 2341 2387
3 2258 1324 2328
3 1083 1507 1508
3 693 1095 1544
3 621 1595 1596
3 667 1571 1872
3 1932 1766 2061
3 393 391 2240
3 1342 1790 2400
3 252 1707 2234
3 931 978 1885
3 1430 1116 1704
3 1411 1109 1714
3 1478 1227 2440
3 1990 195 2297
3 1792 1167 1985
3 1682 444 1975
3 394 397 1777
3 1711 2028 2162
3 1574 856 2180
3 2008 1851 2046
3 736 1493 1938
3 1069 1060 1662
3 1458 455 1754
3 862 691 1705
3 1161 1642 2286
3 1699 1700 1800
3 447 516 1637
3 955 1482 1483
3 2024 206 2121
3 391 1773 2240
3 1072 1412 1893
3 212 1436 2350
3 1566 1365 1568
3 259 1441 1672
3 872 870 1764
3 330 328 1889
3 1539 1161 2286
3 1897 1898 2275
3 1434 1990 2297
3 1109 1411 1730
3 319 307 2493
3 1762 1761 1953
3 1369 1316 1593
3 1540 834 1832
3 1505 652 2442
3 1732 1655 2137
3 921 1712 2295
3 1872 1388 2170
3 1712 921 2125
3 2028 244 2162
3 1506 1570 1680
3 1569 368 1964
3 1571 667 2375
3 1587 2178 2179
3 196 1723 1737
3 524 2016 2156
3 1528 1250 1733
3 1115 1450 1973
3 1938 1480 1971
3 1809 1396 2067
3 1641 249 2299
3 1223 1258 1474
3 1365 1566 2120
3 1981 962 2316
3 1538 353 1864
3 455 1458 1756
3 152 233 1500
3 1116 1430 1703
3 817 652 1505
3 1347 2003 2004
3 1607 1958 2085
3 194 1801 2195
3 1410 1341 2351
3 223 1415 1710
3 197 1511 2346
3 2198 787 2225
3 81 82 1801
3 1438 208 1620
3 1444 522 1823
3 1511 197 1950
3 726 718 1567
3 1637 516 1739
3 1708 2337 2341
3 1280 1649 2124
3 2337 1395 2341
3 1327 1709 2315
3 1225 1227 1478
3 691 624 1705
3 476 2224 2305
3 830 832 2204
3 1750 1491 2403
3 1366 1897 2275
3 2345 1583 2352
3 2054 405 2110
3 1984 2172 2230
3 1846 2198 2225
3 1177 2042 2418
3 2121 1367 2479
3 1527 1531 1541
3 916 1039 1834
3 1413 1124 2467
3 1622 1503 1868
3 249 1641 2019
3 1805 405 2054
3 1761 1007 1953
3 1415 223 2395
3 960 1756 2203
3 368 1569 2135
3 1402 1659 2473
3 941 1433 2471
3 1267 1477 1501
3 260 2002 2265
3 1704 558 2077
3 2224 1886 2305
3 2053 1386 2199
3 1452 945 1952
3 1717 1611 1718
3 1682 1975 2230
3 1760 1762 2496
3 1481 203 2104
3 1264 1266 1670
3 142 236 1620
3 2133 1182 2179
3 1791 1602 2183
3 350 346 1864
3 1412 1072 2393
3 1281 1575 2255
3 1565 1948 2155
3 849 1449 1513
3 1958 396 2085
3 1339 1069 1662
3 834 1540 1917
3 269 267 1414
3 1268 1267 1501
3 1440 2092 2468
3 1399 1981 2316
3 1635 1636 2041
3 1454 252 2234
3 1451 1305 1890
3 1375 1883 1955
3 362 366 1786
3 1484 2410 2528
3 1449 849 1640
3 1267 1474 1477
3 200 1611 1717
3 1054 1581 1582
3 1350 1977 2253
3 190 1390 2118
3 788 1956 2193
3 1709 1327 1888
3 2233 2298 2413
3 1488 189 2355
3 478 1685 1714
3 230 1525 1690
3 1687 478 1688
3 427 429 1756
3 1570 1065 2476
3 1880 1133 1988
3 1649 656 2124
3 1537 209 1614
3 1134 1769 1986
3 1220 1268 1655
3 396 1777 2085
3 1167 1755 1985
3 2229 1744 2296
3 1575 1281 2287
3 127 240 1882
3 377 647 1797
3 954 329 1998
3 220 1697 1698
3 1342 1341 2212
3 1441 264 1672
3 1512 188 2433
3 763 2345 2352
3 1685 1411 1714
3 1805 1188 1951
3 1347 2004 2157
3 1054 1582 1667
3 1333 1617 1674
3 2217 73 2361
3 1539 1036 1917
3 1039 1292 1834
3 208 141 1620
3 1965 1964 2038
3 693 1544 1969
3 1453 239 2279
3 203 1481 2049
3 945 1451 1889
3 680 1459 2134
3 354 2147 2196
3 1405 1932 2061
3 1723 1722 1737
3 1748 1175 1927
3 1532 1528 1733
3 2057 1824 2154
3 1406 1659 1702
3 1948 1186 2155
3 210 1598 2114
3 1685 478 1687
3 1324 1325 2328
3 1526 1250 1527
3 165 166 1509
3 1493 736 2523
3 1526 1527 1541
3 1390 190 2417
3 522 1444 1998
3 1680 1570 1732
3 1017 1442 2525
3 374 1797 2430
3 1507 1083 2197
3 1756 960 2221
3 2270 1400 2316
3 2205 1452 2282
3 1074 1187 1888
3 2158 1245 2200
3 1442 1017 1684
3 864 1116 1703
3 1750 1751 2143
3 1456 516 1492
3 1677 2146 2149
3 2022 1339 2388
3 1602 258 2183
3 678 1594 1595
3 1245 1670 2200
3 972 830 2204
3 2143 983 2342
3 1268 1501 2226
3 1266 1461 1670
3 1487 222 2465
3 1382 2022 2388
3 58 59 1661
3 2147 1543 2196
3 1484 1485 2410
3 628 2053 2199
3 1906 1549 2259
3 364 362 1786
3 1339 2022 2247
3 1636 525 2041
3 625 678 1595
3 678 1593 1594
3 2212 1410 2222
3 1837 1865 2215
3 1699 1800 1801
3 866 864 1703
3 893 1472 1982
3 1735 1736 2244
3 1633 1255 1922
3 126 127 1882
3 681 867 1656
3 1351 1401 2363
3 11 228 1588
3 1127 1953 2454
3 265 266 267
3 1722 1122 1737
3 1389 1691 2069
3 1613 1610 1616
3 1227 1256 2440
3 429 455 1756
3 1535 1177 2418
3 322 324 1952
3 973 1700 1802
3 1964 368 2038
3 1176 1865 1866
3 1096 872 1764
3 1176 1866 1875
3 193 1839 1892
3 156 157 1441
3 615 617 1596
3 686 1520 2480
3 1409 2097 2305
3 2410 1151 2528
3 1427 2217 2361
3 440 1911 2314
3 1744 1743 2296
3 516 1456 1739
3 1939 589 2164
3 690 931 2150
3 1062 1579 1580
3 1054 1580 1581
3 955 1483 1716
3 1064 1677 2248
3 1956 1616 2193
3 1776 1893 2026
3 1398 1115 1973
3 2002 1453 2265
3 1541 1531 1542
3 216 2191 2536
3 1736 1326 1894
3 1065 994 1066
3 1598 2115 2175
3 2314 1911 2358
3 1433 941 2042
3 2115 1209 2175
3 717 1550 1551
3 188 1941 2433
3 267 1132 1414
3 771 1569 2064
3 1157 1545 1546
3 1231 1250 1526
3 1933 240 2181
3 222 1487 2025
3 1525 230 1765
3 1430 1704 2077
3 757 1744 2495
3 264 263 265
3 883 773 1917
3 739 2205 2282
3 1667 1582 2434
3 1744 757 2474
3 239 1453 2002
3 1441 259 2356
3 2005 1443 2012
3 254 1766 1932
3 1509 166 1679
3 1477 1475 1481
3 793 1440 2165
3 1385 1523 2377
3 1481 1475 2523
3 156 1441 2356
3 1066 1220 1655
3 945 325 1952
3 2094 2087 2134
3 1747 1175 1748
3 253 262 263
3 1327 1074 1888
3 718 715 1567
3 2046 1043 2105
3 240 1933 2399
3 1305 1307 1890
3 224 58 1661
3 1195 1566 2285
3 1590 1393 1749
3 1255 1230 1922
3 353 1538 2073
3 358 1999 2325
3 882 1802 2036
3 1024 1020 1604
3 333 522 1998
3 1401 1351 2414
3 1475 1258 1476
3 2310 786 2364
3 328 945 1889
3 807 1748 1927
3 825 724 1912
3 1742 263 2491
3 267 266 1132
3 2077 2102 2203
3 1431 1432 1860
3 1212 1957 2312
3 2097 476 2305
3 1132 1402 2473
3 717 713 1550
3 1746 693 1969
3 1372 1124 1844
3 1256 1541 2269
3 1977 1350 2274
3 2332 1978 2443
3 874 2133 2179
3 1983 1534 2171
3 1157 1544 1545
3 1230 1228 1922
3 1580 1579 1581
3 1565 806 1948
3 1416 1363 2413
3 1287 1995 2398
3 265 263 266
3 1534 1529 2171
3 1604 1834 2428
3 1255 1633 2509
3 1344 1643 1644
3 1332 1388 1571
3 1423 217 2217
3 2191 1057 2451
3 458 447 1637
3 1250 1233 1733
3 472 2212 2222
3 1175 1747 1840
3 1652 256 1653
3 1073 1347 1572
3 200 145 1609
3 683 640 1585
3 1116 862 1705
3 1221 1223 1474
3 1778 801 1803
3 1503 1622 2471
3 1475 1493 2523
3 464 680 2134
3 14 210 2114
3 579 1880 1988
3 1434 1435 1990
3 1447 2310 2364
3 275 274 276
3 2294 1871 2419
3 814 1068 1684
3 1172 1439 2273
3 273 272 274
3 1363 1416 2406
3 1220 1219 1221
3 1060 1656 1662
3 1099 1792 1985
3 2048 1198 2168
3 1241 1245 2323
3 699 723 1753
3 1640 1862 2070
3 910 1018 1584
3 1586 1067 1587
3 1656 867 1662
3 1067 686 2480
3 654 2242 2294
3 1593 1315 1594
3 1880 553 1974
3 236 1717 1718
3 617 621 1596
3 1723 196 2313
3 402 1877 2116
3 273 274 275
3 2202 1869 2252
3 1510 1358 1767
3 193 1892 2373
3 1188 1805 2054
3 1220 1221 1267
3 1066 1218 1219
3 1517 1097 1518
3 1677 1676 1858
3 686 277 1520
3 268 267 269
3 697 857 1592
3 220 1698 1699
3 1802 1700 2036
3 1612 1537 1614
3 929 817 994
3 228 12 2136
3 2110 2116 2482
3 1659 1658 1702
3 1611 1613 2280
3 1344 991 1643
3 683 1585 1604
3 1638 1358 2404
3 1485 1034 2410
3 2214 833 2424
3 271 272 273
3 1482 955 1962
3 1066 1219 1220
3 931 1885 2150
3 1613 1891 2280
3 1189 1589 2204
3 1566 1195 2120
3 726 1567 2490
3 1122 1722 1874
3 1494 319 2493
3 1671 259 1672
3 1267 1221 1474
3 603 528 1591
3 1664 2128 2316
3 1817 1924 2174
3 1626 1660 2111
3 1474 1475 1477
3 1023 1062 1580
3 1957 1599 2312
3 1764 1939 2164
3 1358 1950 2404
3 200 1609 1610
3 1431 1082 1432
3 1778 1803 2521
3 1830 1832 2075
3 1930 233 2369
3 1329 1482 1650
3 757 1959 2522
3 1239 1247 1597
3 758 1978 2332
3 1569 1290 2064
3 216 1694 2191
3 1453 1420 2265
3 1549 1906 2129
3 24 215 1674
3 19 235 1676
3 1621 1057 2191
3 1691 1389 2262
3 1617 1333 2192
3 929 994 1065
3 1769 1672 1986
3 1893 1412 2026
3 1609 1537 1612
3 271 269 272
3 1373 1438 1620
3 217 1423 2381
3 517 330 1889
3 1322 1055 1667
3 1974 553 2499
3 228 2136 2187
3 1589 1189 1788
3 1999 1577 2325
3 2110 405 2116
3 189 1608 1842
3 1055 1050 1667
3 739 1455 2205
3 1865 1176 2215
3 319 1494 2522
3 2474 757 2522
3 1484 227 1485
3 10 11 1588
3 723 809 1753
3 27 230 1689
3 1550 806 1565
3 1179 1180 1217
3 207 1617 2192
3 1433 1217 1502
3 1562 1556 1606
3 1379 2017 2018
3 1245 2158 2323
3 675 1097 1517
3 884 501 1599
3 1020 683 1604
3 1603 1095 1848
3 1001 2057 2154
3 1604 1585 1834
3 1610 1612 1616
3 1764 870 1939
3 2242 1871 2294
3 1669 1264 1670
3 1658 213 1702
3 1995 1646 2398
3 631 539 1600
3 1491 2143 2342
3 1801 1800 2195
3 1200 1199 1693
3 1535 940 1861
3 1534 758 2332
3 914 2258 2328
3 1588 228 2457
3 216 138 1694
3 151 152 1500
3 1133 1880 1974
3 1677 1858 2248
3 1294 1622 1868
3 875 1010 1767
3 1379 2018 2416
3 1279 2202 2252
3 182 256 1652
3 1592 857 2386
3 672 681 1656
3 615 1596 1824
3 1093 1487 1623
3 1823 522 2100
3 1245 1242 1669
3 1582 1581 1583
3 758 1534 2306
3 1975 1984 2230
3 1358 1510 1950
3 1663 1336 1665
3 2102 960 2203
3 366 1087 1786
3 1740 1490 2231
3 21 207 1709
3 145 146 1609
3 2339 765 2384
3 603 1591 1668
3 2081 199 2149
3 1540 1832 1879
3 1721 1723 1947
3 1754 455 1793
3 1751 1753 2119
3 882 1701 1807
3 1540 1539 1917
3 242 1695 1697
3 1521 354 2091
3 1363 2233 2413
3 1584 1018 1925
3 703 1067 1586
3 1177 1178 1179
3 795 916 1834
3 277 276 607
3 1571 1388 1872
3 22 23 1617
3 1097 823 1177
3 25 26 1624
3 419 418 1790
3 1728 1906 2259
3 440 1455 2261
3 1877 1318 2116
3 1488 1156 1608
3 1439 2130 2273
3 1889 1451 1890
3 1614 209 2389
3 1472 893 2094
3 675 821 823
3 23 24 1674
3 1788 1190 2183
3 917 941 1622
3 1763 1096 1764
3 1068 1442 1684
3 1034 1485 2173
3 2172 1533 2230
3 138 139 1694
3 1065 1570 2197
3 607 674 675
3 1536 1248 2268
3 229 135 1734
3 1437 1925 1926
3 680 510 1646
3 147 209 1537
3 26 27 1689
3 1627 705 2163
3 206 1651 2121
3 2409 1785 2462
3 1492 682 2447
3 1223 1225 1258
3 889 1772 2374
3 253 263 264
3 275 276 277
3 1455 739 2261
3 2022 1382 2176
3 150 227 1484
3 639 1019 1591
3 1449 1640 2070
3 1082 833 2214
3 1503 1502 1504
3 144 200 1717
3 1643 991 1713
3 1190 1791 2183
3 1538 1804 2073
3 1256 2269 2440
3 18 19 1676
3 521 531 2000
3 790 849 2180
3 1075 1329 1650
3 1087 1782 1785
3 1066 994 1218
3 270 269 271
3 682 1492 2494
3 185 252 1454
3 253 158 262
3 1629 1632 1633
3 200 1610 1611
3 1477 1481 2104
3 1623 1487 2465
3 1518 1097 1535
3 1414 1132 2460
3 1179 1217 1433
3 177 1506 1680
3 1392 1017 2525
3 1832 834 2075
3 675 823 1097
3 1459 2094 2134
3 1782 1087 1795
3 1838 1730 2372
3 1639 149 2528
3 1617 23 1674
3 2265 1420 2489
3 180 232 1859
3 1527 1250 1528
3 20 21 1709
3 1083 1508 2311
3 903 866 1703
3 1455 440 2314
3 1187 1858 1888
3 1659 1406 2473
3 1446 1902 2166
3 421 1951 2106
3 1598 210 2115
3 154 259 1671
3 1288 1835 2080
3 1832 1831 1879
3 1258 1225 1478
3 1024 1604 2117
3 1263 1429 1739
3 706 705 1627
3 1583 1581 2352
3 407 1805 1951
3 856 1574 2527
3 1701 882 2036
3 1624 26 1689
3 717 1551 1552
3 1385 2377 2391
3 2302 1745 2354
3 1572 1347 2157
3 1036 883 1917
3 1689 1690 1691
3 1664 1665 2128
3 1476 1479 1480
3 1751 2119 2143
3 815 814 1684
3 1790 889 2400
3 1606 1607 2085
3 265 267 268
3 418 889 1790
3 1522 1521 2091
3 135 136 1734
3 1726 1445 1729
3 647 1796 1797
3 1346 1453 2279
3 1293 1827 2117
3 1242 1244 1669
3 1853 1852 1854
3 889 2374 2400
3 1039 1038 1290
3 1524 628 2199
3 1331 1332 1571
3 1291 1290 1569
3 1475 1476 1493
3 1850 1852 1853
3 1490 1740 2456
3 1689 230 1690
3 1256 1526 1541
3 1704 1705 2167
3 1465 1470 1675
3 956 1073 1572
3 1613 1616 1956
3 916 917 1038
3 2014 1522 2091
3 1221 1222 1223
3 1999 763 2352
3 234 10 1588
3 1697 220 2335
3 1527 1528 1529
3 2298 1600 2413
3 1436 2020 2254
3 1642 1161 1678
3 1523 1385 2436
3 1730 1838 2426
3 795 796 916
3 713 711 1550
3 1456 1263 1739
3 999 1336 1663
3 1785 1784 2462
3 409 415 1783
3 607 675 1517
3 1229 1231 1526
3 1958 1855 2078
3 1589 1588 1590
3 1933 261 2380
3 762 1965 2038
3 1756 1458 2203
3 1776 597 1893
3 1794 1072 1893
3 188 1512 2266
3 1774 2339 2384
3 188 1908 1941
3 1010 1510 1767
3 2189 2285 2307
3 773 834 1917
3 1245 1669 1670
3 1248 1597 2268
3 146 1537 1609
3 818 910 1584
3 1641 1313 1651
3 1217 1745 2302
3 1065 1066 1655
3 1597 1247 2047
3 1360 2177 2376
3 1612 1615 1616
3 2126 867 2186
3 1019 683 1020
3 1747 892 1840
3 1092 1093 1623
3 261 1933 2181
3 400 424 1666
3 1516 1903 2377
3 1100 1392 1605
3 247 1738 1881
3 268 1134 1986
3 1177 823 1178
3 884 1599 1957
3 263 262 2491
3 806 1627 1948
3 1227 1229 1256
3 191 1729 2504
3 1636 1635 2502
3 1480 1479 1601
3 1721 1947 2498
3 1924 1146 2174
3 229 1734 1735
3 175 204 1725
3 1179 1178 1180
3 354 1521 2147
3 665 697 1592
3 640 646 1585
3 627 545 1636
3 1882 240 2399
3 1556 1555 1606
3 1373 1620 2394
3 1871 1071 2419
3 548 1628 1629
3 455 436 1793
3 974 1831 1841
3 1844 1413 2392
3 1612 1614 1615
3 209 1639 1937
3 1329 1330 1331
3 1823 2100 2142
3 1097 1177 1535
3 1021 1020 1022
3 825 1912 2455
3 913 1122 1874
3 400 1666 2113
3 1256 1229 1526
3 1419 1418 2450
3 1552 1551 1553
3 1850 1099 1852
3 1629 1631 1632
3 801 685 2029
3 1618 1619 1621
3 265 268 1986
3 1715 2165 2330
3 1531 1529 1534
3 1022 1024 1576
3 658 693 1746
3 703 686 1067
3 1062 1576 1577
3 1023 1022 1062
3 236 1718 2394
3 1688 502 1740
3 1501 1477 2104
3 213 165 1509
3 646 795 1585
3 196 1737 1738
3 379 679 1795
3 639 640 683
3 924 875 1767
3 1752 699 1753
3 207 2192 2315
3 627 1636 1660
3 1217 1180 1745
3 730 728 1833
3 528 561 1591
3 1444 1417 1998
3 252 186 1602
3 1729 1445 2504
3 460 502 1688
3 1418 946 1778
3 1203 1200 1693
3 548 470 1628
3 849 668 1640
3 646 785 795
3 607 276 674
3 14 15 210
3 147 148 209
3 478 460 1688
3 1709 207 2315
3 1157 1546 1608
3 1155 1731 1899
3 1524 1934 2390
3 1775 921 1876
3 1433 1502 1503
3 470 458 1628
3 1223 1224 1225
3 1291 1569 1964
3 871 1056 1826
3 1781 1783 1915
3 1587 1067 2300
3 916 1038 1039
3 1388 1387 1389
3 1611 1610 1613
3 1075 1328 1329
3 1039 1290 1291
3 1538 1265 1804
3 1184 1185 2163
3 597 598 1794
3 1450 1356 2421
3 1835 576 2080
3 1629 1628 1631
3 1331 1330 1332
3 561 639 1591
3 1476 1480 1493
3 705 703 1586
3 639 683 1019
3 1951 1188 2106
3 436 446 1793
3 1472 1297 2142
3 1332 1387 1388
3 1345 984 1720
3 1329 1328 1330
3 1050 1048 1667
3 150 151 227
3 11 12 228
3 557 541 2256
3 1831 974 1879
3 134 229 1766
3 1357 1358 1638
3 1336 1641 2299
3 1650 1482 1962
3 1591 1019 2512
3 1506 1507 1570
3 1803 801 2029
3 1178 823 1972
3 1552 1553 1554
3 1290 1038 1294
3 1028 1313 1641
3 1237 1239 1597
3 993 1017 1100
3 893 2087 2094
3 149 1484 2528
3 1768 1142 1949
3 9 234 1673
3 1554 1553 1555
3 668 632 1640
3 711 806 1550
3 1628 458 1637
3 1098 1829 1830
3 1482 1331 1483
3 531 1818 2000
3 435 419 1790
3 1156 1157 1608
3 1182 1184 2179
3 510 512 1646
3 1231 1233 1250
3 946 841 1778
3 1483 1331 1571
3 1459 680 2458
3 1166 1040 1210
3 892 1657 1820
3 1042 1445 1726
3 1019 1020 1021
3 749 805 1810
3 234 1588 1589
3 1695 242 1892
3 556 1853 2483
3 1018 1572 1573
3 1529 1528 1530
3 1606 1558 1607
3 1761 1759 2308
3 1396 1032 1921
3 1018 956 1572
3 689 1150 1416
3 1827 1293 2515
3 149 150 1484
3 1647 656 1648
3 1543 694 2196
3 399 409 1783
3 545 525 1636
3 268 269 270
3 715 713 717
3 1100 1017 1392
3 1657 892 1747
3 207 22 1617
3 1666 884 2249
3 1671 1672 1769
3 1554 1555 1556
3 146 147 1537
3 1081 1444 1822
3 711 709 806
3 1443 2005 2322
3 660 658 1746
3 1166 1458 1754
3 916 796 917
3 1056 1728 1826
3 1068 1069 1275
3 184 185 1454
3 158 159 262
3 2007 1687 2231
3 805 1708 1810
3 1672 264 1986
3 1561 1562 1563
3 978 1075 1650
3 1590 1588 2457
3 215 25 1624
3 1551 1550 1565
3 1073 1346 1347
3 857 818 1584
3 1648 656 1649
3 675 674 821
3 561 594 639
3 1731 529 1899
3 2303 1454 2535
3 981 903 1040
3 1630 1629 1633
3 993 877 1017
3 724 718 726
3 512 603 1646
3 1676 235 1858
3 814 1060 1068
3 715 717 1567
3 1796 647 1870
3 1715 1171 2165
3 678 1592 1593
3 644 613 1824
3 1690 1525 2145
3 1297 1822 1823
3 271 656 1647
3 1704 1116 1705
3 1225 1226 1227
3 1275 1069 1338
3 910 956 1018
3 1824 1596 2154
3 1403 1100 1605
3 1221 1219 1222
3 1068 1060 1069
3 1901 245 1949
3 1081 1055 1321
3 1751 563 1752
3 1021 1022 1023
3 672 638 681
3 1095 657 1848
3 1235 1237 1248
3 1561 1556 1562
3 1265 1259 1804
3 524 1819 2016
3 978 1650 2362
3 1492 516 2494
3 229 1735 2061
3 185 186 252
3 157 158 253
3 152 153 233
3 9 10 234
3 1527 1529 1531
3 1808 1344 2360
3 1062 1577 1579
3 1509 1679 1977
3 424 454 1666
3 637 638 672
3 981 1040 1166
3 1555 1558 1606
3 751 749 1810
3 1166 1210 1458
3 1651 1313 2121
3 15 16 2260
3 1633 1632 2509
3 2167 1705 2276
3 551 602 2045
3 697 818 857
3 364 1786 1883
3 832 1189 2204
3 1476 1478 1479
3 678 665 1592
3 213 1509 2096
3 1015 888 1124
3 1062 1022 1576
3 679 1782 1795
3 680 1646 1995
3 1101 1100 1403
3 1109 433 1714
3 1248 1237 1597
3 733 730 1833
3 1702 213 2096
3 499 498 1828
3 1418 1778 2521
3 637 600 638
3 1048 1046 1054
3 1577 1576 1578
3 814 766 1060
3 1279 2252 2292
3 474 470 548
3 199 18 1676
3 157 253 1441
3 1048 1054 1667
3 471 472 2290
3 625 665 678
3 795 785 796
3 1264 1265 1266
3 1437 1926 2350
3 1362 2048 2168
3 1394 2337 2371
3 454 884 1666
3 1022 1020 1024
3 751 1810 1923
3 1046 1023 1580
3 1807 1701 1931
3 1618 208 1619
3 566 588 689
3 1828 498 1829
3 501 509 1599
3 1118 780 1775
3 878 817 929
3 1510 1511 1950
3 1618 1621 1694
3 1052 1081 1822
3 1416 1150 1715
3 1239 1241 1247
3 1396 1921 2067
3 1751 1752 1753
3 1264 1259 1265
3 539 566 1600
3 1762 1127 2496
3 1673 1788 2183
3 1555 1557 1558
3 1052 1050 1055
3 725 724 825
3 1142 1770 1771
3 681 853 867
3 454 501 884
3 1346 1420 1453
3 932 1147 1770
3 1546 1545 1547
3 533 582 1818
3 1266 1337 1460
3 1872 820 2318
3 1117 1119 1713
3 1081 1321 1417
3 1253 1259 1264
3 1569 771 2135
3 1052 1055 1081
3 1181 1178 1972
3 709 706 1627
3 1073 1076 1346
3 1098 1828 1829
3 1382 1380 2176
3 1442 1275 1443
3 919 999 1663
3 1789 828 1855
3 877 815 1684
3 509 539 631
3 992 877 993
3 1266 1265 1337
3 2268 1498 2340
3 1130 1032 1396
3 1095 1603 2508
3 886 826 887
3 531 533 1818
3 1131 1400 1881
3 447 437 516
3 2460 1132 2473
3 940 1535 2418
3 768 1873 2037
3 1813 1869 1954
3 1627 2163 2488
3 1497 1495 1645
3 1198 1409 2168
3 724 726 1912
3 1869 987 1954
3 763 1999 2338
3 1010 1170 1374
3 984 976 1720
3 1470 1743 1744
3 689 588 1150
3 1901 1949 2359
3 1640 632 1862
3 274 272 1787
3 563 564 1752
3 994 817 1505
3 737 1807 1931
3 1770 1147 1771
3 1233 1235 1733
3 2450 1418 2521
3 414 410 1821
3 908 1099 1850
3 1227 1228 1229
3 1692 1203 1693
3 1625 216 2194
3 512 528 603
3 1377 1357 1638
3 1465 1464 1470
3 1360 1359 2177
3 1686 2007 2095
3 1336 1028 1641
3 1857 751 1923
3 1758 572 1759
3 553 541 557
3 1171 1715 1811
3 956 1003 1073
3 1467 1465 1675
3 719 718 724
3 1509 1977 2096
3 1734 1625 1736
3 1503 1504 1868
3 592 597 1776
3 180 181 232
3 162 163 231
3 2308 1759 2370
3 1357 1114 1358
3 875 946 1010
3 509 631 1599
3 17 18 199
3 144 145 200
3 1099 906 1792
3 1469 1467 1494
3 605 589 1939
3 1208 1205 1211
3 354 344 2091
3 692 782 804
3 1010 946 1170
3 1463 1462 1464
3 716 715 718
3 714 713 715
3 271 273 656
3 139 1618 1694
3 549 277 686
3 673 672 766
3 1378 1377 1379
3 2007 868 2095
3 999 1028 1336
3 1208 1211 1447
3 601 545 627
3 1119 1643 1713
3 1332 1333 1387
3 910 912 956
3 520 521 2000
3 828 1789 1819
3 277 607 1520
3 1338 1339 2247
3 818 819 910
3 767 766 814
3 712 711 713
3 1494 1467 1675
3 639 594 640
3 2044 557 2256
3 235 20 1709
3 1620 236 2394
3 804 919 962
3 1862 702 2070
3 681 852 853
3 1559 1556 1561
3 1622 941 2471
3 2165 1440 2330
3 612 644 692
3 697 698 818
3 1903 1516 1994
3 371 379 1795
3 428 426 2138
3 1290 1294 2064
3 1384 1904 2432
3 566 689 1600
3 471 452 472
3 1092 1091 1093
3 1002 1131 1719
3 1090 1089 1091
3 875 841 946
3 1758 1760 1763
3 1562 1606 2085
3 1833 1830 2075
3 178 179 214
3 164 165 213
3 769 923 1815
3 692 644 782
3 804 782 919
3 182 183 256
3 160 161 257
3 1329 1331 1482
3 962 1663 1664
3 1177 1179 2042
3 403 405 1805
3 1461 1460 1462
3 140 208 1618
3 1859 232 1860
3 274 1787 2099
3 1381 2126 2186
3 1558 1560 1789
3 430 428 682
3 452 435 1683
3 1487 1156 1488
3 1470 1464 1743
3 597 1794 1893
3 1244 1253 1669
3 962 919 1663
3 258 8 1673
3 1087 1785 1786
3 970 1042 1726
3 199 1677 2149
3 1664 1663 1665
3 1229 1230 1231
3 991 827 1713
3 792 1603 1848
3 1822 1444 1823
3 665 666 697
3 19 20 235
3 142 143 236
3 728 1098 1833
3 532 530 1898
3 1015 1124 1372
3 1546 1547 1548
3 1851 1850 1853
3 1877 393 2240
3 923 1105 1815
3 1090 1091 1092
3 687 686 703
3 1683 435 1790
3 887 826 1961
3 684 663 1089
3 426 1934 2138
3 464 510 680
3 853 854 855
3 568 572 1758
3 1376 1357 1377
3 1205 1203 1692
3 1607 1789 1855
3 710 709 711
3 780 781 1775
3 1434 1103 1435
3 876 815 877
3 766 672 1656
3 1393 1590 2457
3 684 1089 1090
3 530 890 1898
3 926 1920 1943
3 696 414 1821
3 1563 1562 1777
3 1054 1046 1580
3 1398 1973 1974
3 137 216 1625
3 1210 1040 1430
3 1750 563 1751
3 2010 1665 2299
3 1510 1374 1511
3 1777 1562 2085
3 1707 252 1791
3 1932 1404 1933
3 459 438 1814
3 139 140 1618
3 1093 1156 1487
3 231 163 1658
3 699 722 723
3 1545 1095 2508
3 598 612 1794
3 579 554 1880
3 1941 1908 2401
3 1231 1232 1233
3 1831 1829 1841
3 1037 1383 1799
3 177 178 1506
3 636 600 637
3 1036 1539 2286
3 1356 1114 1357
3 1523 1516 2377
3 704 703 705
3 403 402 405
3 648 792 1848
3 723 756 808
3 1388 1389 2170
3 933 932 1770
3 223 1710 1711
3 1779 399 1783
3 1223 1222 1224
3 1028 1029 1313
3 257 161 1654
3 418 412 421
3 734 882 1807
3 693 657 1095
3 1368 1370 1436
3 136 137 1625
3 688 652 817
3 1075 1327 1328
3 540 479 1813
3 398 395 402
3 548 1629 1630
3 574 591 699
3 1469 1494 1495
3 1041 1598 2175
3 167 168 202
3 175 176 204
3 2045 2046 2201
3 186 187 1602
3 886 887 888
3 1253 1254 1259
3 8 9 1673
3 792 655 810
3 843 1145 1960
3 1180 1349 1745
3 1165 1345 1512
3 708 706 709
3 136 1625 1734
3 21 22 207
3 140 141 208
3 625 626 665
3 1093 1094 1156
3 1585 795 1834
3 1117 1713 1806
3 599 579 600
3 810 871 1826
3 1047 1046 1048
3 1292 1291 1293
3 161 162 1654
3 199 1676 1677
3 1260 1282 1804
3 1005 1142 1768
3 1233 1234 1235
3 792 810 922
3 1122 1719 1737
3 976 985 1720
3 1278 1279 2292
3 2390 1934 2531
3 1436 1437 2350
3 270 271 1647
3 1199 966 1846
3 1683 1342 2212
3 656 273 2124
3 699 591 722
3 1977 1139 2096
3 1738 1719 1881
3 1722 985 1874
3 1797 1448 1798
3 162 231 1654
3 632 604 1862
3 252 1602 1791
3 1051 1050 1052
3 1045 1023 1046
3 648 655 792
3 993 1100 1101
3 1321 1055 1322
3 806 709 1627
3 904 903 981
3 1220 1267 1268
3 648 605 655
3 1737 1719 1738
3 385 399 1779
3 506 499 1828
3 1132 266 1402
3 1170 1418 1419
3 1323 2302 2354
3 24 25 215
3 137 138 216
3 721 965 1919
3 1787 1414 2460
3 778 1117 1806
3 723 722 756
3 407 403 1805
3 564 574 1752
3 1049 1048 1050
3 842 841 875
3 1608 1546 1842
3 809 808 899
3 1517 1519 1520
3 1530 1532 1533
3 889 421 1772
3 913 1002 1122
3 1314 1316 1367
3 1017 877 1684
3 841 802 1778
3 1235 1236 1237
3 751 1857 1900
3 1114 924 1767
3 1344 1644 2360
3 1895 1394 2371
3 1518 1535 1861
3 1758 1759 1760
3 1122 1002 1719
3 546 563 1750
3 1056 1726 1727
3 663 660 1746
3 621 622 625
3 1720 985 1721
3 1857 1843 1900
3 808 756 913
3 1056 970 1726
3 27 28 230
3 134 135 229
3 908 906 1099
3 163 164 1658
3 1727 1726 1729
3 7 8 258
3 154 155 259
3 1101 1403 1404
3 808 913 1874
3 1260 1269 1282
3 1389 1387 2262
3 1297 1053 1822
3 1555 1553 1557
3 1463 1464 1465
3 230 28 1765
3 1237 1238 1239
3 554 553 1880
3 775 778 1806
3 985 899 1874
3 1270 1524 2199
3 489 1820 1936
3 692 1072 1794
3 1472 2142 2272
3 1845 496 1929
3 438 431 1814
3 613 615 1824
3 1241 1242 1245
3 1783 415 1915
3 1192 2081 2149
3 178 214 1506
3 1816 988 1817
3 1760 1759 1761
3 1103 1092 1623
3 1512 1345 1661
3 1876 921 2295
3 1165 984 1345
3 978 1074 1075
3 1239 1240 1241
3 542 541 553
3 813 988 1816
3 1148 984 1165
3 871 970 1056
3 472 452 1683
3 1207 1796 1870
3 1167 1166 1754
3 1296 1053 1297
3 966 964 1846
3 976 899 985
3 982 976 984
3 702 1815 2015
3 900 899 976
3 1143 995 1206
3 1576 1024 1827
3 1235 1248 1733
3 1558 1557 1560
3 943 995 1143
3 1920 1144 1943
3 1471 2115 2477
3 29 30 255
3 132 133 254
3 1630 1633 1634
3 1225 1224 1226
3 1925 1573 1926
3 1211 1205 1692
3 725 825 826
3 1113 924 1114
3 600 579 1988
3 717 1552 1567
3 1820 1657 1936
3 674 276 2099
3 395 393 1877
3 572 543 1897
3 1575 1308 2255
3 999 1000 1028
3 1118 1775 1876
3 1797 1798 2430
3 526 546 559
3 867 853 2186
3 1142 1771 1949
3 1068 1275 1442
3 679 385 1779
3 1607 1558 1789
3 580 568 1758
3 1244 1252 1253
3 1760 1761 1762
3 398 402 403
3 1476 1258 1478
3 418 421 889
3 1771 1147 1839
3 164 213 1658
3 1720 1721 2267
3 1668 1591 2512
3 1042 1128 1445
3 1098 1830 1833
3 1102 1092 1103
3 2249 884 2466
3 1104 1103 1434
3 410 416 1821
3 514 513 541
3 580 1758 1763
3 637 673 1741
3 1913 936 1914
3 1394 1395 2337
3 919 920 999
3 577 554 579
3 2111 1660 2263
3 231 1658 1659
3 612 613 644
3 568 543 572
3 770 775 1806
3 1445 1128 1446
3 1546 1548 1842
3 448 460 478
3 810 870 871
3 1789 1560 1819
3 1154 1082 1431
3 873 973 1802
3 379 385 679
3 837 850 921
3 1461 1462 1463
3 1346 1076 1420
3 1088 1344 1808
3 2125 1143 2353
3 931 977 978
3 882 772 1802
3 29 255 1765
3 849 1513 2180
3 1713 827 1806
3 1130 1396 1397
3 681 638 852
3 1417 1321 1873
3 1654 1402 2530
3 502 526 1740
3 1124 888 2177
3 1266 1460 1461
3 515 1175 1840
3 1253 1264 1669
3 479 466 1813
3 1727 1729 1757
3 379 380 385
3 1971 1480 2514
3 1637 1739 2459
3 1207 1205 1208
3 529 519 1899
3 1129 1845 1929
3 224 1661 2267
3 192 1856 2361
3 732 734 1807
3 1184 2163 2435
3 1119 1120 1353
3 415 414 431
3 719 724 725
3 559 546 1750
3 871 872 970
3 1038 917 1622
3 574 699 1752
3 166 167 1679
3 1117 1118 1119
3 1409 1196 2035
3 617 619 621
3 1172 1173 1439
3 1191 1005 1768
3 664 663 684
3 494 493 1841
3 890 529 1731
3 840 802 841
3 493 974 1841
3 385 386 399
3 679 1779 1780
3 371 376 379
3 416 433 1109
3 670 769 1815
3 902 866 903
3 1780 1779 1781
3 480 515 1840
3 970 971 1042
3 433 448 1714
3 28 29 1765
3 1005 949 1142
3 778 780 1117
3 959 1037 1799
3 1073 1003 1076
3 535 532 1898
3 1119 1118 1120
3 658 657 693
3 1378 1379 1380
3 1397 1396 1809
3 1610 1609 1612
3 1819 1560 2016
3 1837 952 1865
3 1719 1131 1881
3 1131 1399 1400
3 1352 1138 2058
3 399 406 409
3 548 1630 2041
3 1275 1338 2251
3 582 1816 1818
3 1835 1836 2144
3 993 1101 1980
3 1699 1698 1700
3 2407 364 2505
3 1189 1190 1788
3 1117 780 1118
3 1830 1829 1831
3 637 672 673
3 692 804 1072
3 1204 1203 1205
3 1374 1170 2139
3 612 692 1794
3 1642 1408 2286
3 723 808 809
3 450 459 1812
3 409 410 414
3 802 801 1778
3 1853 1854 2483
3 1042 1127 1128
3 1199 1846 2225
3 1147 990 1273
3 1383 1384 2432
3 432 431 438
3 1353 1120 1390
3 1093 1091 1094
3 2020 250 2254
3 148 149 1639
3 606 605 648
3 1970 2016 2422
3 2201 2046 2327
3 475 471 513
3 412 407 1951
3 1991 246 2139
3 727 695 728
3 1673 234 1788
3 1554 1556 1559
3 1089 663 1746
3 1846 964 2056
3 923 991 1088
3 409 406 410
3 729 728 730
3 1424 1427 1856
3 1473 1911 2407
3 1376 1377 1378
3 1010 1374 1510
3 853 852 854
3 366 369 1087
3 772 873 1802
3 1219 1218 1626
3 1766 229 2061
3 1088 991 1344
3 922 810 1826
3 518 506 695
3 405 402 2116
3 962 1664 2316
3 913 942 1002
3 932 990 1147
3 629 813 1816
3 876 877 992
3 399 386 406
3 932 845 990
3 1002 1123 1131
3 843 996 1145
3 781 837 1775
3 262 2304 2491
3 431 696 1814
3 1273 1695 1892
3 731 730 732
3 737 732 1807
3 439 438 450
3 1829 498 1841
3 800 685 801
3 767 814 815
3 1060 766 1656
3 673 766 767
3 1403 1605 1882
3 716 718 719
3 1338 1069 1339
3 847 752 1843
3 864 862 1116
3 2302 443 2519
3 923 827 991
3 526 559 1740
3 1911 1473 2358
3 1085 1310 1867
3 809 899 900
3 1227 1226 1228
3 729 730 731
3 1436 1370 1437
3 731 732 737
3 769 827 923
3 456 452 471
3 1433 1503 2471
3 1435 1103 1623
3 385 380 386
3 1141 1787 2460
3 1354 1088 1808
3 657 649 1848
3 415 431 432
3 484 892 1820
3 727 728 729
3 855 854 1450
3 1721 1722 1723
3 1643 1353 1644
3 1145 1916 1960
3 1421 1191 1422
3 466 1812 1813
3 943 944 995
3 1356 1357 1376
3 714 715 716
3 1156 1094 1157
3 598 611 612
3 631 1600 2298
3 590 589 605
3 965 969 1919
3 416 1109 1821
3 242 1697 2335
3 1548 1547 1549
3 550 573 584
3 584 604 632
3 409 414 415
3 712 713 714
3 642 670 702
3 818 698 819
3 1006 1005 1191
3 1624 1689 1691
3 169 170 237
3 173 174 238
3 956 912 1003
3 937 936 1913
3 1317 1025 1875
3 515 540 550
3 973 1799 1800
3 973 959 1799
3 518 695 727
3 910 819 912
3 584 573 604
3 1170 946 1418
3 173 238 1847
3 550 540 573
3 982 984 1148
3 900 976 982
3 441 435 452
3 448 478 1714
3 1849 1648 2173
3 1631 1628 1637
3 1830 1831 1832
3 1383 1216 1384
3 734 772 882
3 949 933 1770
3 1332 1330 1333
3 574 575 591
3 1105 1088 1354
3 702 670 1815
3 498 494 1841
3 827 770 1806
3 873 959 973
3 1390 1391 1415
3 450 438 459
3 950 949 1005
3 351 362 364
3 1313 1029 1314
3 432 438 439
3 837 838 850
3 1273 1274 1695
3 850 851 943
3 911 952 1837
3 1259 1260 1804
3 566 587 588
3 1037 1216 1383
3 1337 1265 1538
3 1087 369 1795
3 810 655 870
3 1559 1561 1566
3 1147 1273 1839
3 732 733 734
3 1662 867 2126
3 890 1731 2241
3 1854 1852 2397
3 515 479 540
3 451 450 466
3 697 666 698
3 1367 1316 1368
3 662 660 663
3 365 355 694
3 1358 1114 1767
3 379 376 380
3 1796 1448 1797
3 179 180 1859
3 790 668 849
3 569 568 580
3 690 860 931
3 466 450 1812
3 431 414 696
3 1973 1133 1974
3 651 649 657
3 467 466 479
3 1288 1289 1835
3 264 265 1986
3 1302 1303 1304
3 592 596 597
3 1873 1321 2037
3 544 543 568
3 275 277 549
3 209 1937 2389
3 539 565 566
3 1485 227 1486
3 2384 2190 2408
3 1781 1779 1783
3 480 479 515
3 689 1416 2413
3 1108 1161 1539
3 1867 1310 1895
3 1300 1301 1302
3 1695 1696 1697
3 633 632 668
3 1304 1451 1452
3 988 911 1837
3 168 169 1724
3 969 1012 1172
3 582 629 1816
3 1843 752 1900
3 629 812 813
3 710 711 712
3 1782 1780 1784
3 536 535 543
3 1089 1746 1969
3 1108 1107 1161
3 1514 1426 1856
3 486 484 1820
3 369 371 1795
3 1817 988 1924
3 493 609 974
3 1422 1191 2023
3 1426 1424 1856
3 842 875 924
3 922 1826 2259
3 989 1361 1886
3 928 1070 1288
3 669 668 790
3 1113 1114 1356
3 1027 847 1843
3 728 695 1098
3 734 735 772
3 975 1107 1108
3 955 859 1962
3 813 911 988
3 1208 1448 1796
3 1101 1405 1980
3 602 676 2045
3 586 581 589
3 546 547 563
3 493 491 609
3 628 1524 2390
3 348 344 354
3 1298 1299 1300
3 509 538 539
3 974 609 975
3 813 891 911
3 871 870 872
3 1355 1354 1423
3 489 486 1820
3 778 779 780
3 1025 1176 1875
3 772 773 873
3 803 1743 2347
3 167 202 1679
3 873 883 959
3 1483 1571 2375
3 427 1756 2221
3 540 1813 1954
3 1202 1200 1203
3 959 1035 1037
3 837 921 1775
3 1304 1305 1451
3 1799 1383 2195
3 604 642 1862
3 1470 1744 2474
3 1854 2397 2453
3 1282 1269 1386
3 1573 1572 2157
3 472 2222 2290
3 1307 1708 2341
3 769 770 827
3 1037 1215 1216
3 791 790 856
3 1053 1052 1822
3 1056 1727 1728
3 1341 1138 1352
3 1300 1299 1301
3 1814 696 1838
3 1198 1196 1409
3 492 491 493
3 439 450 451
3 1171 858 2132
3 1259 1254 1260
3 665 626 666
3 970 872 971
3 258 1602 2357
3 1296 1297 1472
3 490 489 491
3 516 437 2494
3 1298 1027 1299
3 846 845 932
3 501 508 509
3 460 461 502
3 448 449 460
3 482 480 1840
3 1229 1228 1230
3 604 641 642
3 1424 1423 1427
3 502 503 526
3 1028 1000 1029
3 935 933 949
3 1084 1085 1867
3 2028 1711 2353
3 1513 1426 1514
3 892 482 1840
3 852 638 1988
3 402 395 1877
3 738 737 845
3 413 412 418
3 1119 1353 1643
3 526 527 546
3 280 279 281
3 1731 1155 2123
3 1042 971 1127
3 1208 1447 1448
3 433 434 448
3 262 159 2304
3 184 1454 2303
3 1051 1052 1053
3 1816 1817 1818
3 1081 1417 1444
3 781 836 837
3 911 951 952
3 1090 1092 1102
3 202 168 1724
3 1085 1309 1310
3 408 407 412
3 1337 1538 1864
3 1515 1514 1516
3 530 529 890
3 1517 1518 1519
3 549 686 687
3 923 1088 1105
3 404 403 407
3 1835 1289 1836
3 1314 1367 2121
3 1380 1379 2416
3 670 671 769
3 899 808 1874
3 1040 903 1703
3 1596 1595 2154
3 1496 1495 1497
3 636 637 1741
3 1377 1638 2288
3 1288 1070 1289
3 1072 804 1981
3 1129 1334 1845
3 1865 1084 1866
3 792 922 1603
3 1253 1252 1254
3 981 1167 1792
3 1302 1301 1303
3 1641 1651 2019
3 952 953 1084
3 1813 1812 1869
3 732 730 733
3 975 1106 1107
3 1142 949 1770
3 981 1166 1167
3 840 841 842
3 451 466 467
3 1273 990 1274
3 1049 1050 1051
3 1473 2407 2505
3 968 966 1199
3 642 643 670
3 1310 1309 1311
3 422 419 435
3 1063 833 1082
3 919 782 920
3 911 891 951
3 1084 953 1085
3 1763 1764 2164
3 1498 1497 1682
3 515 550 1175
3 1079 937 1913
3 642 702 1862
3 845 737 1931
3 1394 1311 1395
3 1395 1521 1522
3 467 479 480
3 1755 1754 1793
3 1231 1230 1232
3 1557 1553 2030
3 1624 1691 2262
3 584 632 633
3 1094 1091 1969
3 708 709 710
3 1948 1627 2488
3 952 951 953
3 1102 1103 1104
3 1047 1048 1049
3 1310 1311 1394
3 1852 1099 1985
3 143 144 1717
3 813 812 891
3 1944 1044 1945
3 1105 1354 1355
3 1300 1302 1455
3 1914 936 1940
3 1415 1391 1710
3 1299 1027 1843
3 952 1084 1865
3 1695 1274 1696
3 776 774 1928
3 282 281 283
3 2003 1347 2279
3 1206 995 1499
3 1164 1685 1686
3 1551 1565 2030
3 969 1172 1919
3 633 668 669
3 734 733 735
3 1373 1372 1438
3 599 600 636
3 1431 1860 2487
3 1579 1577 1999
3 484 482 892
3 917 940 941
3 2144 1836 2169
3 1866 1084 1867
3 1110 1747 1748
3 998 1171 1811
3 1390 1120 1391
3 644 1824 2057
3 1362 1961 2048
3 944 1283 1825
3 1086 1027 1298
3 679 1780 1782
3 974 975 1879
3 507 506 518
3 1121 1079 1401
3 775 777 778
3 1965 762 2349
3 1045 1046 1047
3 1772 421 2106
3 16 17 2081
3 416 417 433
3 921 850 2125
3 1607 1855 1958
3 649 648 1848
3 1241 1240 1242
3 2012 1443 2251
3 926 928 1920
3 1487 1488 2025
3 1006 1191 1421
3 1355 1423 1424
3 1133 852 1988
3 591 592 1776
3 1299 1843 1857
3 1085 1308 1309
3 490 491 492
3 958 694 1575
3 1384 1216 1385
3 741 915 1878
3 1233 1232 1234
3 669 790 791
3 481 480 482
3 687 703 704
3 492 493 494
3 1634 1633 1922
3 1697 1696 1698
3 1721 985 1722
3 1839 1273 1892
3 772 735 773
3 488 486 489
3 950 1005 1006
3 1513 1514 1515
3 454 500 501
3 873 773 883
3 284 283 285
3 2185 1505 2442
3 959 883 1035
3 543 535 1897
3 1904 1384 2093
3 800 801 802
3 1037 1035 1215
3 1293 1964 1965
3 1239 1238 1240
3 943 1143 2125
3 1782 1784 1785
3 913 756 942
3 488 490 1884
3 1590 1749 2501
3 1235 1234 1236
3 791 856 1408
3 702 2015 2070
3 1108 1539 1540
3 1021 1023 1045
3 695 506 1828
3 1530 1528 1532
3 488 489 490
3 1621 1619 2161
3 704 705 706
3 1304 1303 1305
3 558 1704 2167
3 625 622 626
3 542 553 554
3 604 573 641
3 664 684 685
3 564 571 574
3 1108 1540 1879
3 1856 1427 2361
3 880 1025 1129
3 1395 1311 1521
3 1466 1465 1467
3 915 495 1884
3 1515 1516 1523
3 1237 1236 1238
3 606 648 649
3 999 920 1000
3 676 829 1043
3 2100 794 2142
3 227 151 1500
3 577 579 599
3 153 154 1671
3 1175 550 1927
3 1014 888 1015
3 286 285 287
3 1649 1280 2427
3 1725 204 2137
3 975 609 1106
3 1129 1317 1334
3 1109 1730 2426
3 1468 1467 1469
3 1131 1123 1399
3 1215 2235 2378
3 1976 1149 1989
3 397 395 398
3 746 743 1878
3 1041 1343 1598
3 975 1108 1879
3 741 495 915
3 1167 1754 1755
3 288 287 289
3 743 741 1878
3 1274 990 1931
3 1506 214 1507
3 857 1584 2277
3 2341 1522 2387
3 846 932 933
3 1107 1106 1110
3 584 633 1927
3 290 289 291
3 722 591 1776
3 1544 1094 1969
3 1135 270 1647
3 935 949 950
3 1920 1288 2080
3 754 1896 2108
3 1693 1199 2225
3 292 291 293
3 394 393 395
3 745 743 746
3 1002 942 1123
3 731 737 738
3 294 293 295
3 1018 1573 1925
3 296 295 297
3 298 297 299
3 321 322 325
3 317 320 321
3 314 315 317
3 312 313 314
3 310 311 312
3 308 309 310
3 1898 890 2275
3 306 307 308
3 304 305 306
3 1401 1079 1913
3 300 299 301
3 302 303 304
3 300 301 302
3 302 301 303
3 491 489 1936
3 298 299 300
3 304 303 305
3 306 305 307
3 308 307 309
3 310 309 311
3 312 311 313
3 314 313 315
3 317 315 320
3 321 320 322
3 1301 1299 1857
3 514 541 542
3 296 297 298
3 850 838 851
3 1310 1394 1895
3 294 295 296
3 590 605 606
3 292 293 294
3 651 657 658
3 290 291 292
3 1207 1208 1796
3 835 1976 1989
3 621 619 622
3 746 1878 1896
3 481 482 483
3 1026 847 1027
3 1335 1207 1870
3 1661 59 2266
3 727 729 1155
3 288 289 290
3 1058 776 1928
3 662 663 664
3 495 488 1884
3 1959 319 2522
3 943 851 944
3 1293 1291 1964
3 534 532 535
3 640 645 646
3 2280 1014 2385
3 286 287 288
3 591 575 592
3 521 519 529
3 13 14 2114
3 780 779 781
3 918 908 1850
3 837 836 838
3 209 148 1639
3 754 748 1896
3 745 746 747
3 769 671 770
3 929 1065 2197
3 1278 1058 1279
3 483 482 484
3 1564 1557 2030
3 633 807 1927
3 392 391 393
3 1057 1621 2161
3 569 580 581
3 284 285 286
3 876 992 1894
3 497 494 498
3 1630 1635 2041
3 982 1148 1918
3 612 611 613
3 700 634 1044
3 822 674 2099
3 880 1129 1929
3 432 439 654
3 1039 1291 1292
3 1164 1686 1989
3 1129 1025 1317
3 738 845 846
3 582 583 629
3 278 6 279
3 544 568 569
3 1701 1274 1931
3 747 749 751
3 1085 953 1308
3 928 930 1070
3 747 748 749
3 1421 1422 2415
3 902 903 904
3 1309 1308 1543
3 642 641 643
3 904 981 1792
3 646 784 785
3 536 543 544
3 1204 1205 1207
3 365 694 958
3 71 72 217
3 88 89 1901
3 87 88 193
3 101 102 189
3 85 86 242
3 99 100 241
3 74 75 192
3 91 92 219
3 94 95 191
3 83 84 220
3 97 98 221
3 77 78 218
3 80 81 194
3 89 90 245
3 62 63 244
3 60 61 188
3 64 65 223
3 67 68 190
3 90 91 1909
3 98 99 1905
3 61 62 1908
3 69 70 243
3 68 69 1907
3 70 71 1910
3 410 411 416
3 586 589 590
3 685 684 2029
3 390 389 391
3 1715 1150 1811
3 1924 1837 2215
3 282 283 284
3 496 497 1929
3 233 1671 1769
3 627 2185 2442
3 1567 1552 2062
3 629 630 812
3 424 453 454
3 583 562 1942
3 749 750 805
3 744 743 745
3 1897 535 1898
3 467 480 481
3 504 759 880
3 670 643 671
3 89 245 1901
3 193 88 1901
3 221 98 1905
3 245 90 1909
3 91 219 1909
3 62 244 1908
3 188 61 1908
3 99 241 1905
3 190 68 1907
3 71 217 1910
3 69 243 1907
3 243 70 1910
3 505 499 506
3 475 513 514
3 1945 1044 2071
3 1712 2125 2353
3 339 343 440
3 989 1360 1361
3 764 869 1152
3 778 777 779
3 1686 1685 1687
3 742 741 743
3 979 989 1886
3 729 731 1887
3 926 927 928
3 1305 1306 1307
3 1838 1278 2292
3 747 746 748
3 181 182 1652
3 1886 1361 2305
3 1595 1594 2486
3 597 596 598
3 928 1288 1920
3 1970 824 2156
3 1425 1424 1426
3 497 504 1929
3 748 746 1896
3 745 747 1900
3 998 858 1171
3 563 547 564
3 1155 729 1887
3 634 583 1942
3 1439 1173 1440
3 1026 1027 1086
3 79 80 1904
3 1533 1532 1536
3 1449 1426 1513
3 1106 609 1936
3 1318 1013 1319
3 1098 695 1828
3 492 494 496
3 750 748 754
3 731 738 1887
3 2415 1422 2516
3 533 562 582
3 988 1837 1924
3 1216 1215 1863
3 534 535 536
3 747 751 1900
3 1753 809 2119
3 1183 824 1970
3 740 495 741
3 80 194 1904
3 893 383 2087
3 655 605 1939
3 1884 2034 2082
3 1301 1857 1923
3 1307 1306 1708
3 752 745 1900
3 750 754 755
3 76 77 1903
3 2090 2347 2365
3 255 30 2159
3 132 254 2160
3 448 434 449
3 753 848 926
3 1075 1074 1327
3 487 488 495
3 377 381 647
3 483 484 485
3 755 754 2148
3 1584 1925 2277
3 1186 1183 1970
3 951 891 1281
3 485 484 486
3 546 527 547
3 133 134 1766
3 1786 1785 2409
3 280 281 282
3 460 449 461
3 744 745 752
3 77 218 1903
3 983 1918 2342
3 1708 1306 1810
3 1389 2069 2170
3 487 486 488
3 641 573 1954
3 507 518 519
3 502 461 503
3 519 518 1899
3 1202 1203 1204
3 821 897 1972
3 92 93 1902
3 521 529 530
3 749 748 750
3 2176 1380 2416
3 885 826 886
3 485 486 487
3 371 372 376
3 1289 1070 1871
3 1110 1657 1747
3 753 926 1943
3 700 1044 1944
3 880 881 1025
3 496 1845 2034
3 1072 1981 2393
3 462 464 2134
3 1949 1771 2359
3 1044 634 1942
3 550 584 1927
3 1390 1415 2118
3 526 503 527
3 990 845 1931
3 1009 1213 1214
3 740 742 1144
3 219 92 1902
3 727 1155 1899
3 369 370 371
3 623 690 2150
3 1279 1058 1928
3 1408 2235 2286
3 487 495 740
3 979 1886 2086
3 1305 1303 1306
3 421 412 1951
3 843 844 996
3 633 669 807
3 518 727 1899
3 826 825 1961
3 1657 1106 1936
3 1172 1012 1173
3 740 741 742
3 433 417 434
3 505 506 507
3 1333 1674 2437
3 742 743 744
3 469 458 470
3 1381 1380 1382
3 1293 1965 2515
3 1554 1559 2062
3 553 557 2499
3 1774 389 2339
3 497 498 499
3 483 485 576
3 740 1144 1935
3 773 735 834
3 366 367 369
3 1120 1118 1876
3 1515 1523 1574
3 1319 1013 2039
3 1303 1301 1923
3 457 447 458
3 561 593 594
3 1355 1424 1425
3 609 491 1936
3 204 1732 2137
3 791 1408 1642
3 995 944 1825
3 456 471 475
3 1692 1693 2239
3 580 1763 2164
3 1292 1293 2117
3 441 452 456
3 388 384 389
3 823 821 1972
3 504 880 1929
3 176 177 1680
3 1070 1071 1871
3 15 2260 2477
3 362 363 366
3 2178 2300 2449
3 1035 883 1036
3 2285 1563 2307
3 978 977 1074
3 1090 1102 2029
3 1810 1306 1923
3 496 494 497
3 1306 1303 1923
3 432 654 1915
3 934 933 935
3 356 355 365
3 398 403 404
3 635 701 843
3 1110 1106 1657
3 574 571 575
3 1025 881 1176
3 386 380 786
3 415 432 1915
3 343 347 1911
3 1070 930 1071
3 1688 1740 2231
3 1385 1216 1863
3 1696 1274 1701
3 1645 305 2317
3 880 759 881
3 926 848 927
3 1427 1423 2217
3 1339 1662 2388
3 770 774 775
3 1263 1257 1428
3 1337 1864 2412
3 349 348 355
3 2267 1721 2498
3 753 752 847
3 1375 1086 1473
3 900 982 983
3 332 335 739
3 429 428 430
3 744 752 753
3 1171 2132 2165
3 1425 1426 1449
3 987 641 1954
3 1883 1786 2409
3 427 426 428
3 928 927 930
3 1815 1105 2015
3 1206 1499 1941
3 410 406 411
3 573 540 1954
3 497 499 504
3 528 560 561
3 1933 1404 2399
3 1091 1089 1969
3 1804 1282 2073
3 504 505 759
3 963 924 1113
3 1711 1710 1712
3 881 759 1146
3 968 1199 1200
3 351 352 362
3 848 847 1026
3 521 530 531
3 1884 490 2034
3 1277 957 1966
3 1349 1350 2329
3 676 1043 2045
3 997 1159 1286
3 517 1889 1890
3 781 835 836
3 944 948 1283
3 722 1776 2026
3 507 519 520
3 2040 1352 2058
3 1276 957 1277
3 446 437 447
3 931 860 977
3 361 359 765
3 1248 1536 2534
3 512 523 528
3 408 412 413
3 1368 1369 1370
3 451 2169 2223
3 192 75 1994
3 942 756 2026
3 345 344 348
3 764 1152 1963
3 413 418 419
3 1286 1773 1774
3 770 671 774
3 275 549 2124
3 1497 1645 2461
3 1982 1472 2272
3 422 435 441
3 281 279 736
3 1134 270 1135
3 582 562 583
3 1421 2415 2454
3 485 487 1935
3 2300 1067 2480
3 1578 1576 1827
3 930 927 1061
3 1026 1086 1375
3 922 2259 2379
3 1391 1120 1876
3 1495 1494 2493
3 404 407 408
3 879 2178 2449
3 1700 1698 2036
3 607 1517 1520
3 753 847 848
3 416 411 417
3 1144 742 1943
3 775 776 777
3 754 2108 2148
3 1006 1421 1953
3 585 581 586
3 531 530 532
3 235 1709 1888
3 520 519 521
3 1180 1181 1349
3 1146 759 1967
3 708 710 1921
3 1350 2253 2329
3 436 430 437
3 504 499 505
3 643 641 987
3 336 330 517
3 811 1059 1149
3 1164 1411 1685
3 846 933 934
3 635 843 1960
3 983 982 1918
3 971 872 1096
3 1149 1163 1164
3 169 237 1724
3 1314 1315 1316
3 629 583 630
3 891 812 1916
3 462 463 464
3 487 740 1935
3 798 2084 2189
3 1814 1838 2292
3 1284 1489 1491
3 340 336 2014
3 1670 1461 2200
3 920 782 2057
3 890 2241 2275
3 510 511 512
3 278 279 280
3 839 802 840
3 1858 235 1888
3 1698 1696 2036
3 104 105 222
3 57 58 224
3 1185 1183 1186
3 588 587 623
3 638 600 1988
3 1282 1386 2245
3 811 776 1058
3 816 815 876
3 2034 1845 2082
3 761 636 1741
3 566 565 587
3 174 175 1725
3 347 350 351
3 1469 1495 1496
3 1059 1058 1278
3 811 1149 1976
3 576 485 1935
3 659 658 660
3 859 1153 1962
3 76 1903 1994
3 1821 1109 2426
3 1294 1038 1622
3 733 1833 2075
3 992 993 1980
3 1566 1561 2285
3 525 474 2041
3 464 465 510
3 343 346 347
3 360 893 1982
3 650 649 651
3 896 608 936
3 950 1006 1007
3 1508 1859 1860
3 539 538 565
3 440 343 1911
3 341 340 344
3 221 1905 1906
3 1297 1823 2142
3 759 505 1967
3 1295 1053 1296
3 473 470 474
3 1463 1465 1466
3 1143 1206 2028
3 799 685 800
3 1210 2077 2203
3 509 508 538
3 492 496 2034
3 1553 1551 2030
3 1260 1261 1269
3 1430 1040 1703
3 586 590 1940
3 838 836 868
3 1705 624 2276
3 1749 972 2501
3 742 744 1943
3 804 962 1981
3 1367 1368 2254
3 531 532 533
3 337 336 340
3 1157 1094 1544
3 536 544 1158
3 812 630 1960
3 781 779 835
3 56 57 1947
3 630 583 634
3 1405 1404 1932
3 1281 891 1916
3 339 342 343
3 1411 1163 1730
3 322 323 324
3 344 340 2091
3 1735 1734 1736
3 75 76 1994
3 430 682 2494
3 1907 243 2360
3 589 581 2164
3 694 355 2196
3 744 753 1943
3 775 774 776
3 1210 1430 2077
3 335 338 339
3 1102 1803 2029
3 1078 937 1079
3 870 655 1939
3 505 507 1967
3 357 360 1982
3 1896 1878 2101
3 326 325 328
3 934 935 957
3 585 608 895
3 333 330 336
3 1270 1272 1524
3 688 817 878
3 507 520 1967
3 1428 1257 2074
3 1818 1817 2000
3 896 937 1077
3 934 957 1111
3 329 328 330
3 1499 995 1825
3 944 851 948
3 387 445 462
3 1678 1161 2228
3 777 776 811
3 313 311 757
3 324 331 332
3 848 1026 1955
3 1312 998 1811
3 1321 1322 2037
3 1080 1079 1121
3 1105 1355 2015
3 1645 2317 2461
3 1559 1568 2062
3 332 334 335
3 501 500 508
3 321 325 326
3 394 395 397
3 322 320 323
3 1529 1530 2171
3 1137 797 1138
3 811 1058 1059
3 661 660 662
3 569 581 585
3 183 4 2303
3 5 160 2304
3 1340 1138 1341
3 1660 1626 2185
3 1743 1464 2347
3 1026 1375 1955
3 1149 1059 1163
3 1736 1625 2194
3 1322 1667 2434
3 311 309 1959
3 309 307 319
3 894 700 1944
3 533 534 562
3 1276 1277 1366
3 2190 1706 2408
3 533 532 534
3 1214 1213 1410
3 1164 1163 1411
3 843 701 844
3 1009 1214 2055
3 234 1589 1788
3 2000 1817 2174
3 317 321 2050
3 328 325 945
3 392 393 394
3 588 623 2089
3 1162 958 1681
3 1078 1080 1136
3 927 848 1955
3 1496 1497 1498
3 390 391 392
3 1061 927 1955
3 1283 948 1284
3 635 634 700
3 1244 1251 1252
3 218 78 2093
3 756 722 2026
3 1071 1784 2419
3 1218 1505 2185
3 1284 948 1285
3 1489 1285 1490
3 918 1850 1851
3 684 1090 2029
3 1759 572 2537
3 1691 1690 2446
3 1979 1158 2071
3 606 649 650
3 2045 1043 2046
3 103 104 2025
3 630 634 635
3 360 383 893
3 406 386 2043
3 1909 219 2023
3 1111 957 1276
3 1925 1437 2277
3 1536 2268 2340
3 854 852 1133
3 233 153 1671
3 651 658 659
3 2099 1787 2368
3 1033 1032 1130
3 1015 1372 1373
3 1412 942 2026
3 253 264 1441
3 1531 1534 2332
3 701 700 894
3 106 107 1990
3 2048 1961 2455
3 276 274 2099
3 738 846 1968
3 1325 925 1326
3 896 936 937
3 585 586 608
3 1450 854 1973
3 1361 1360 1362
3 1045 1668 2512
3 303 301 444
3 996 844 997
3 79 1904 2093
3 1989 1686 2095
3 1928 774 2033
3 1942 562 1979
3 287 285 316
3 935 950 1966
3 1466 1467 1468
3 1242 1243 1244
3 1887 738 1968
3 2115 210 2477
3 878 929 1083
3 1326 1736 2194
3 886 888 1014
3 895 608 896
3 289 287 1978
3 821 822 897
3 936 608 1940
3 613 614 615
3 51 52 1996
3 417 411 1160
3 1149 1164 1989
3 386 786 2043
3 285 283 1971
3 1309 1543 2147
3 375 373 2053
3 371 370 372
3 779 777 1976
3 1286 1159 1773
3 2177 887 2376
3 1560 1557 1564
3 1403 1882 2399
3 1727 1757 2246
3 279 6 2049
3 1619 1438 2438
3 291 289 758
3 1781 1915 2294
3 425 401 426
3 349 355 356
3 66 67 2118
3 474 548 2041
3 1686 1687 2007
3 1262 1456 1457
3 1123 942 1412
3 1916 812 1960
3 1355 1425 2015
3 735 733 2075
3 1861 879 2449
3 1284 1285 1489
3 490 492 2034
3 366 363 367
3 980 578 2051
3 906 904 1792
3 534 536 1979
3 842 924 963
3 2051 578 2083
3 1077 937 1078
3 1102 1104 1803
3 894 1944 1946
3 398 404 2060
3 1007 1006 1953
3 369 367 370
3 348 354 2196
3 1078 1079 1080
3 1378 1380 1381
3 1568 1365 2439
3 608 586 1940
3 598 610 611
3 760 636 761
3 869 1137 1351
3 671 643 2033
3 1661 1345 2267
3 938 914 1057
3 783 761 914
3 576 1835 2144
3 388 389 390
3 297 295 318
3 454 453 500
3 1906 1728 2246
3 1439 1440 2468
3 1159 1013 1318
3 764 797 869
3 236 143 1717
3 782 644 2057
3 592 595 596
3 1542 2332 2443
3 1521 1311 2147
3 345 348 349
3 1304 1452 2205
3 1644 1907 2360
3 2146 1125 2149
3 997 844 1013
3 628 375 2053
3 299 297 1984
3 957 935 1966
3 664 685 799
3 301 299 1975
3 362 352 363
3 777 811 1976
3 1942 1979 2071
3 1001 920 2057
3 312 314 768
3 1552 1554 2062
3 615 616 617
3 357 1982 2076
3 800 802 839
3 774 671 2033
3 1749 1169 2105
3 365 958 1162
3 617 618 619
3 283 281 1938
3 1351 1772 2414
3 1525 1765 2489
3 846 934 1968
3 635 700 701
3 555 554 577
3 536 1158 1979
3 1101 1404 1405
3 630 635 1960
3 1811 1150 2089
3 2113 1666 2249
3 172 173 1847
3 107 108 195
3 54 55 196
3 1191 1768 2023
3 1455 1302 2205
3 115 116 2017
3 1387 1333 2437
3 659 661 764
3 1080 1121 1188
3 50 51 2011
3 411 406 2043
3 295 293 1983
3 643 987 2033
3 707 706 708
3 129 130 261
3 32 33 260
3 2159 260 2265
3 449 434 567
3 1314 1029 1315
3 917 796 940
3 378 375 628
3 108 109 1991
3 2370 1759 2537
3 341 344 345
3 997 1013 1159
3 544 569 1993
3 950 1007 1966
3 477 474 525
3 351 350 352
3 1696 1701 2036
3 334 331 803
3 1137 1138 1340
3 562 534 1979
3 109 110 246
3 52 53 247
3 1368 1316 1369
3 659 660 661
3 33 34 2002
3 123 124 2005
3 835 779 1976
3 851 838 1992
3 1530 1533 2172
3 1668 1045 2348
3 1162 1681 1706
3 342 338 468
3 298 300 358
3 765 359 2065
3 725 826 885
3 35 36 2003
3 46 47 2019
3 38 39 2006
3 336 517 2014
3 934 1111 1968
3 116 117 2018
3 650 651 1963
3 223 1711 2162
3 640 594 645
3 1333 1330 2192
3 104 222 2025
3 1603 922 2379
3 963 1113 1115
3 2084 1193 2189
3 564 570 571
3 36 37 2004
3 57 224 1947
3 1542 1601 2269
3 122 123 2012
3 1000 920 1001
3 127 128 240
3 34 35 239
3 383 387 2087
3 1161 1107 2228
3 1781 2294 2419
3 1201 1200 1202
3 124 125 225
3 37 38 226
3 1340 1341 1342
3 869 797 1137
3 839 840 1008
3 1158 544 1993
3 1326 925 1894
3 352 350 353
3 326 329 954
3 1864 2344 2412
3 836 835 2095
3 1051 1053 1295
3 1031 720 1032
3 503 461 787
3 1407 1112 2044
3 661 662 2058
3 838 868 1992
3 112 113 197
3 49 50 198
3 1359 980 1413
3 121 122 211
3 40 41 212
3 48 49 2010
3 113 114 2009
3 1741 673 2131
3 41 42 2020
3 120 121 2013
3 1409 2035 2097
3 1511 1374 2506
3 114 115 248
3 47 48 249
3 42 43 250
3 119 120 251
3 171 6 201
3 6 172 203
3 585 895 1993
3 43 44 2024
3 118 119 2021
3 905 904 906
3 764 661 797
3 337 340 341
3 1413 980 2051
3 117 118 205
3 44 45 206
3 347 346 350
3 1420 1076 1525
3 324 323 331
3 434 417 2031
3 965 967 969
3 716 719 788
3 1260 1254 1261
3 2053 373 2103
3 2069 2068 2170
3 326 328 329
3 1706 996 2408
3 273 275 2124
3 969 1011 1012
3 590 606 2001
3 1718 1611 2280
3 1914 1940 2001
3 915 1884 2082
3 329 330 333
3 620 859 955
3 2168 1409 2305
3 296 298 1997
3 915 2082 2101
3 339 338 342
3 1218 994 1505
3 333 336 337
3 266 263 1742
3 1873 768 2127
3 244 63 2162
3 64 223 2162
3 343 342 346
3 914 761 2258
3 310 312 1987
3 799 800 2055
3 302 304 763
3 1559 1566 1568
3 1598 1343 2114
3 592 575 595
3 341 345 794
3 189 1842 2220
3 767 815 816
3 1003 912 1004
3 839 1008 1009
3 1263 1428 1429
3 564 547 570
3 1845 1334 2082
3 332 331 334
3 901 866 902
3 651 659 1963
3 1009 1112 1213
3 335 334 338
3 569 585 1993
3 1665 1336 2299
3 1945 2071 2153
3 863 862 864
3 907 906 908
3 1849 1486 1930
3 1935 1144 2080
3 967 966 968
3 809 900 2119
3 865 864 866
3 835 1989 2095
3 190 1907 2417
3 333 337 522
3 1110 1748 2228
3 1193 1194 1195
3 94 191 2166
3 473 1854 2453
3 1769 1134 2369
3 948 851 1992
3 237 170 2216
3 420 419 422
3 1448 1447 2364
3 483 576 2144
3 721 1919 2032
3 885 886 1891
3 613 611 614
3 886 1014 1891
3 1160 411 2043
3 1918 1283 2342
3 1651 206 2485
3 1242 1240 1243
3 598 596 610
3 1295 1296 1459
3 1185 1186 1948
3 1425 1449 2070
3 294 296 762
3 1285 948 1992
3 925 876 1894
3 712 714 789
3 603 1668 2398
3 1940 590 2001
3 721 570 964
3 834 735 2075
3 1144 1920 2080
3 2263 1635 2511
3 1204 1207 1335
3 2235 1408 2378
3 965 964 966
3 1990 1435 2218
3 397 398 2060
3 1138 797 2058
3 1787 1141 2368
3 2068 820 2170
3 360 359 361
3 387 462 2087
3 1524 1272 1934
3 819 698 820
3 1197 1196 1198
3 1662 2126 2388
3 78 79 2093
3 1150 588 2089
3 1269 1261 1270
3 1878 915 2101
3 451 467 2169
3 2262 1387 2437
3 1009 1008 1112
3 757 311 1959
3 897 898 1139
3 1854 473 2483
3 2015 1425 2070
3 2082 1334 2101
3 963 1115 1174
3 1047 1049 1287
3 1194 423 1196
3 321 326 2050
3 417 1160 2031
3 854 1133 1973
3 1201 1212 1348
3 705 1586 2163
3 309 319 1959
3 1353 1390 2417
3 427 428 429
3 357 356 359
3 606 650 2001
3 549 1280 2124
3 1213 1112 1407
3 256 2303 2535
3 356 365 2065
3 662 664 2040
3 701 894 2039
3 1325 1371 2451
3 666 626 667
3 1902 93 2166
3 1236 1234 1246
3 800 839 2055
3 1869 1812 2252
3 1197 1364 1365
3 576 1935 2080
3 404 408 798
3 1678 807 2529
3 1560 1564 2016
3 1319 2039 2122
3 425 426 427
3 349 356 357
3 308 310 327
3 1716 622 2484
3 1801 82 2289
3 1768 1949 2420
3 2006 1926 2507
3 351 364 2407
3 420 423 1193
3 659 764 1963
3 292 294 2038
3 840 842 2027
3 736 279 2049
3 372 373 374
3 461 449 2052
3 2189 1195 2285
3 1174 1115 1398
3 367 363 961
3 909 908 918
3 1738 247 2402
3 1007 1761 2308
3 288 290 2135
3 422 441 2035
3 623 624 690
3 537 525 545
3 1953 1421 2454
3 1887 1968 2123
3 861 691 862
3 654 439 2223
3 1136 1080 2054
3 1312 1811 2089
3 575 571 2032
3 383 361 384
3 968 1200 1201
3 797 661 2058
3 1423 1354 2381
3 1180 1178 1181
3 1513 1515 2180
3 72 73 2217
3 462 445 463
3 12 13 2136
3 457 458 469
3 542 554 555
3 599 636 760
3 254 133 1766
3 1130 1397 1937
3 404 798 2060
3 1044 1942 2071
3 690 691 860
3 357 359 360
3 1008 2027 2152
3 1232 1230 1255
3 372 370 373
3 850 943 2125
3 1457 1456 1492
3 1952 324 2282
3 155 2 2356
3 0 7 2357
3 2017 1379 2288
3 918 1851 2008
3 195 1991 2517
3 2090 803 2347
3 1244 1243 1251
3 290 292 368
3 1432 1082 2214
3 1008 840 2027
3 1743 803 2296
3 1013 844 2039
3 365 1162 2065
3 1594 1315 2184
3 387 384 388
3 1508 1860 2311
3 547 527 2056
3 2005 225 2322
3 314 317 2127
3 1853 556 2327
3 201 6 278
3 1907 1644 2417
3 1896 2101 2108
3 646 645 784
3 538 508 558
3 374 375 377
3 1630 1634 1635
3 1579 1999 2352
3 1647 1648 1849
3 1313 1314 2121
3 1179 1433 2042
3 844 701 2039
3 1252 1251 2098
3 816 876 925
3 1922 1228 2281
3 392 394 396
3 1915 654 2294
3 1652 1653 2487
3 429 430 436
3 456 475 476
3 1605 1392 2510
3 126 1882 2284
3 1784 1780 2419
3 500 453 960
3 377 378 381
3 2178 1587 2300
3 1222 1219 1626
3 413 419 420
3 381 382 400
3 2169 1836 2223
3 1906 1905 2129
3 616 614 793
3 1170 1419 2139
3 101 189 2220
3 241 100 2220
3 1968 1111 2123
3 567 434 2031
3 615 614 616
3 1032 720 1921
3 682 428 2138
3 469 470 473
3 339 440 2261
3 1501 238 2226
3 1154 1431 1653
3 446 447 457
3 1251 1243 1257
3 2229 315 2495
3 1201 1202 1212
3 785 784 879
3 464 463 465
3 66 2118 2395
3 324 332 2282
3 286 288 771
3 17 199 2081
3 571 570 721
3 611 610 2092
3 617 616 618
3 1542 1531 2332
3 400 401 424
3 1325 1326 1371
3 1140 1406 1702
3 1323 443 2302
3 1926 1573 2507
3 436 437 446
3 1262 1457 2098
3 67 190 2118
3 1518 1861 2449
3 989 1359 1360
3 1063 1082 1154
3 1757 96 2526
3 969 967 1011
3 868 836 2095
3 1215 1035 2235
3 96 1757 2309
3 261 2160 2380
3 1381 1382 2126
3 1468 1469 2182
3 1334 1317 2108
3 861 863 1064
3 1270 1261 1271
3 360 361 383
3 287 316 1978
3 1856 192 2367
3 1905 241 2129
3 1615 1809 2425
3 528 523 560
3 979 980 989
3 662 2040 2058
3 721 964 965
3 170 171 2216
3 664 799 2040
3 512 511 523
3 1201 1348 2107
3 620 618 858
3 758 289 1978
3 859 858 998
3 424 425 453
3 1616 1615 2193
3 444 301 1975
3 561 560 593
3 965 966 967
3 1798 376 2430
3 340 2014 2091
3 510 465 511
3 107 195 1990
3 1080 1188 2054
3 1153 998 1312
3 1226 1224 1249
3 1012 1011 1363
3 902 904 905
3 842 963 2027
3 268 270 1134
3 865 901 1125
3 2077 558 2102
3 282 284 442
3 1977 1679 2253
3 1496 1498 2047
3 284 286 2063
3 281 736 1938
3 2132 793 2165
3 1674 215 2437
3 2078 1855 2411
3 839 1009 2055
3 1182 824 1183
3 1168 947 1169
3 1289 1871 2242
3 316 285 1971
3 1270 1271 1272
3 1755 1793 2264
3 51 1996 2011
3 383 384 387
3 1146 1924 2215
3 1279 1928 2202
3 619 618 620
3 1194 1196 1197
3 555 578 979
3 1937 1639 2528
3 1262 1257 1263
3 389 384 2339
3 2251 1338 2464
3 1155 1887 2123
3 1151 1937 2528
3 465 463 828
3 1318 1319 2116
3 1687 1688 2231
3 326 954 2050
3 297 318 1984
3 1308 953 2255
3 1846 2056 2198
3 320 315 2229
3 1254 1252 2059
3 760 761 783
3 951 1281 2255
3 1459 1296 2094
3 2288 1638 2470
3 1975 299 1984
3 52 247 1996
3 468 338 2090
3 2140 1511 2506
3 1125 1126 1192
3 593 824 1182
3 720 708 1921
3 704 706 707
3 623 587 624
3 2044 1112 2152
3 1393 1169 1749
3 900 983 2119
3 783 914 938
3 255 2265 2489
3 2039 894 2122
3 317 2050 2127
3 1866 1867 2513
3 374 373 375
3 429 436 455
3 387 388 445
3 1193 423 1194
3 555 577 578
3 1074 977 1187
3 449 567 2052
3 1197 1198 1364
3 2154 1595 2486
3 1486 1849 2173
3 318 295 1983
3 939 1016 1844
3 131 132 2160
3 30 31 2159
3 881 1146 2215
3 1294 1868 2238
3 1300 1455 2314
3 1365 1364 1912
3 783 938 939
3 2061 1735 2441
3 551 545 601
3 2194 216 2536
3 1251 1257 1262
3 888 887 2177
3 1364 1198 2048
3 1498 1682 2340
3 1589 1590 2501
3 60 188 2266
3 1401 1913 2324
3 195 108 1991
3 420 422 423
3 1675 1470 2474
3 258 1673 2183
3 2161 1619 2438
3 1296 1472 2094
3 1808 1910 2381
3 334 803 2090
3 1490 1285 2232
3 523 511 524
3 1240 1238 2074
3 1184 1183 1185
3 39 40 2151
3 473 474 477
3 1461 1463 2200
3 2072 353 2073
3 861 862 863
3 1206 1941 2401
3 958 1575 2287
3 614 611 2092
3 110 111 2140
3 1136 2054 2110
3 645 594 2133
3 260 33 2002
3 673 767 2131
3 989 980 1359
3 1741 2131 2258
3 1317 1875 2148
3 894 1946 2122
3 863 864 865
3 787 461 2052
3 857 2277 2386
3 109 246 1991
3 2017 116 2018
3 1182 1183 1184
3 377 375 378
3 816 925 1324
3 865 866 901
3 1262 1263 1456
3 359 356 2065
3 2129 241 2472
3 283 1938 1971
3 1458 1210 2203
3 1076 1003 2145
3 196 1738 2402
3 1033 1130 1151
3 1188 1121 2106
3 1140 1702 2096
3 549 687 1280
3 1694 1621 2191
3 861 1064 2112
3 1548 1549 2129
3 1784 1071 2462
3 714 716 2066
3 1961 825 2455
3 1447 1211 2250
3 979 578 980
3 905 907 1209
3 381 378 382
3 457 469 552
3 595 575 2032
3 408 413 2084
3 481 483 2144
3 1745 1349 2293
3 1980 1405 2441
3 198 50 2011
3 248 115 2017
3 912 819 2068
3 620 858 859
3 707 708 720
3 821 674 822
3 514 542 2086
3 400 382 401
3 123 2005 2012
3 1772 1351 2374
3 34 239 2002
3 768 314 2127
3 2003 36 2004
3 280 282 2079
3 124 225 2005
3 596 595 2130
3 593 560 824
3 1504 1502 2519
3 239 35 2003
3 1311 1309 2147
3 1318 1877 2240
3 1860 1432 2311
3 1416 1715 2330
3 859 998 1153
3 352 353 2072
3 312 768 1987
3 2027 1174 2152
3 226 38 2006
3 1827 1024 2117
3 1710 1391 2295
3 690 624 691
3 37 226 2004
3 1153 1312 1885
3 853 855 2186
3 1892 242 2373
3 1967 520 2174
3 939 938 1016
3 47 249 2019
3 388 390 2078
3 1991 2139 2517
3 905 906 907
3 571 721 2032
3 1196 423 2035
3 1324 925 1325
3 1151 1130 1937
3 363 352 2072
3 345 349 2076
3 1031 1032 1033
3 214 179 1859
3 211 122 2012
3 602 601 652
3 117 205 2018
3 710 712 2067
3 1602 187 2357
3 520 2000 2174
3 85 242 2335
3 220 84 2335
3 381 400 2113
3 1586 1587 2435
3 424 401 425
3 963 1174 2027
3 860 691 861
3 610 596 2130
3 1958 2078 2431
3 570 547 2056
3 237 2216 2354
3 1211 1692 2219
3 298 358 1997
3 909 947 1041
3 441 456 2097
3 1135 1647 1849
3 1601 1542 2443
3 197 113 2009
3 49 198 2010
3 1911 347 2407
3 1729 191 2309
3 212 41 2020
3 121 211 2013
3 222 105 2218
3 1125 901 1126
3 114 248 2009
3 249 48 2010
3 42 250 2020
3 251 120 2013
3 233 1769 2369
3 1870 647 2113
3 794 345 2076
3 250 43 2024
3 119 251 2021
3 901 902 2141
3 964 570 2056
3 739 335 2261
3 2108 1317 2148
3 577 599 2083
3 205 118 2021
3 44 206 2024
3 1247 1241 2323
3 1894 992 2244
3 6 203 2049
3 1642 1678 2529
3 1417 1873 2333
3 1422 2023 2516
3 341 794 2100
3 73 74 2361
3 1234 1232 2088
3 1261 1254 2059
3 896 1077 2257
3 1921 710 2067
3 125 126 2284
3 220 1699 2289
3 159 5 2304
3 4 184 2303
3 2059 1252 2098
3 1003 1004 2145
3 2328 1325 2451
3 1486 227 1500
3 63 64 2162
3 2081 1192 2260
3 508 500 2102
3 667 1872 2318
3 338 334 2090
3 423 422 2035
3 1192 1126 1471
3 907 908 909
3 1330 1328 2192
3 1972 897 2500
3 2443 316 2514
3 242 86 2373
3 87 193 2373
3 420 1193 2084
3 1473 1086 2358
3 1987 768 2037
3 522 337 2100
3 627 1660 2185
3 1793 446 2264
3 1405 2061 2441
3 1502 1217 2302
3 171 201 2216
3 1158 1993 2153
3 1197 1365 2120
3 1712 1710 2295
3 1121 1401 2414
3 93 94 2166
3 653 652 688
3 622 1716 2452
3 1345 1720 2267
3 477 537 556
3 128 129 2181
3 2331 1295 2458
3 784 645 874
3 1269 1270 2199
3 189 102 2355
3 1041 1168 1343
3 246 110 2140
3 477 525 537
3 755 1895 2371
3 1947 1723 2313
3 1134 1135 2369
3 223 65 2395
3 968 1201 2107
3 1577 1578 2325
3 210 15 2477
3 961 363 2072
3 1581 1579 2352
3 349 357 2076
3 337 341 2100
3 305 303 2317
3 370 367 2103
3 762 296 1997
3 581 580 2164
3 1278 1838 2372
3 1548 2129 2472
3 594 593 2133
3 2021 251 2022
3 2047 1247 2182
3 967 968 2107
3 1169 947 2008
3 481 2144 2169
3 793 614 2092
3 1910 217 2381
3 1251 1262 2098
3 716 788 2066
3 2101 1334 2108
3 2006 39 2151
3 1603 2379 2508
3 1926 2006 2151
3 96 97 2526
3 750 755 2371
3 789 714 2066
3 909 918 947
3 1993 895 2153
3 106 1990 2218
3 1243 1240 2074
3 832 986 1189
3 1283 1284 2342
3 2297 195 2517
3 1043 829 2326
3 767 816 2131
3 602 653 676
3 1004 912 2068
3 2086 1886 2224
3 1124 2177 2467
3 426 401 2531
3 707 720 1030
3 1000 1001 2184
3 1315 1029 2184
3 467 481 2169
3 541 513 2256
3 647 381 2113
3 225 2284 2510
3 2 156 2356
3 187 0 2357
3 40 212 2151
3 2245 1386 2383
3 676 677 829
3 1004 2068 2069
3 1860 232 2487
3 1031 1033 1034
3 829 830 972
3 996 997 2408
3 1195 1194 2120
3 987 1869 2202
3 1410 1213 2222
3 819 820 2068
3 1485 1486 2173
3 1564 2030 2155
3 807 669 2529
3 129 261 2181
3 1525 1076 2145
3 578 577 2083
3 327 310 1987
3 1083 929 2197
3 2131 1324 2258
3 798 408 2084
3 1838 696 2426
3 1486 1500 1930
3 1946 1944 2291
3 2257 1077 2291
3 1512 1661 2266
3 445 388 2078
3 1192 1471 2260
3 2118 1415 2395
3 1466 1468 2158
3 830 677 831
3 211 2012 2251
3 652 601 2442
3 537 545 551
3 558 508 2102
3 198 2011 2128
3 1718 2280 2385
3 500 960 2102
3 1168 1169 1393
3 1127 971 2496
3 95 96 2309
3 2030 1565 2155
3 1919 1172 2273
3 977 860 2112
3 240 128 2181
3 294 762 2038
3 1800 1799 2195
3 712 789 2067
3 972 1749 2326
3 472 1683 2212
3 874 645 2133
3 551 2045 2201
3 2105 1043 2326
3 1957 1212 2301
3 1514 1856 2367
3 565 538 2167
3 373 370 2103
3 355 348 2196
3 1934 1272 2138
3 1934 426 2531
3 1881 1400 2481
3 2046 1851 2327
3 367 961 2103
3 1963 1152 2206
3 201 278 443
3 3 131 2444
3 31 1 2445
3 2035 441 2097
3 503 787 2198
3 1135 1849 1930
3 1534 1983 2306
3 2089 623 2150
3 687 704 2109
3 869 1351 2363
3 1302 1304 2205
3 955 1716 2484
3 1030 720 1031
3 1159 1318 2240
3 1228 1226 2281
3 947 918 2008
3 413 420 2084
3 785 879 2532
3 1041 947 1168
3 1468 2182 2323
3 1246 1234 2088
3 1730 1163 2372
3 542 555 2086
3 1599 631 2312
3 1146 1967 2174
3 1078 1136 2343
3 1515 1574 2180
3 2336 885 2469
3 1257 1243 2074
3 1347 1346 2279
3 2001 650 2206
3 1480 1601 2514
3 1029 1000 2184
3 1956 788 2336
3 1271 1261 2059
3 130 3 2444
3 1 32 2445
3 1570 1507 2197
3 1232 1255 2088
3 791 1642 2529
3 1601 1479 2269
3 1361 1362 2168
3 1634 1922 2281
3 765 2065 2190
3 2071 1158 2153
3 1699 1801 2289
3 832 831 833
3 1864 346 2344
3 456 476 2097
3 1855 828 2411
3 2065 1162 2190
3 1125 1192 2149
3 599 760 2083
3 361 765 2339
3 1731 2123 2241
3 1349 1181 1350
3 1443 1275 2251
3 1819 524 2429
3 1021 1045 2512
3 858 618 2132
3 1999 358 2338
3 368 292 2038
3 290 368 2135
3 803 331 2296
3 1112 1008 2152
3 56 1947 2313
3 555 979 2086
3 1469 1496 2182
3 1011 967 2107
3 248 2017 2288
3 1809 789 2425
3 960 453 2221
3 538 558 2167
3 1858 1187 2248
3 2246 1757 2526
3 902 905 2141
3 1851 1853 2327
3 1224 1222 2111
3 771 288 2135
3 1945 2153 2257
3 1420 1525 2489
3 1399 1123 2393
3 103 2025 2355
3 897 822 898
3 1861 940 2532
3 865 1125 2146
3 1675 2474 2522
3 1573 2157 2507
3 1632 1631 2382
3 551 601 602
3 527 503 2198
3 1708 805 2337
3 1059 1278 2372
3 2056 527 2198
3 860 861 2112
3 1668 2348 2398
3 255 2159 2265
3 1541 1542 2269
3 1428 2074 2227
3 1582 1583 2321
3 389 1774 2503
3 2004 226 2157
3 1777 397 2405
3 1368 1436 2254
3 1061 2409 2462
3 1071 930 2462
3 1126 901 2141
3 1194 1197 2120
3 1452 1952 2282
3 2116 1319 2482
3 105 106 2218
3 1981 1399 2393
3 2119 983 2143
3 444 1682 2461
3 2173 1648 2463
3 616 793 2132
3 1791 1190 2334
3 1826 1728 2259
3 602 652 653
3 1834 1292 2428
3 556 2201 2327
3 1014 1015 2385
3 1995 1287 2331
3 1193 1195 2189
3 816 1324 2131
3 879 1861 2532
3 593 1182 2133
3 1402 266 1742
3 2216 1323 2354
3 1660 1636 2502
3 620 955 2484
3 1162 1706 2190
3 1870 2113 2249
3 204 1680 1732
3 1909 2023 2420
3 217 72 2217
3 376 372 2430
3 905 1209 2141
3 1378 1381 2283
3 1236 1246 2227
3 286 771 2063
3 1635 2263 2502
3 100 101 2220
3 1139 898 1140
3 2114 1343 2136
3 442 284 2063
3 1772 2106 2414
3 1985 1755 2533
3 2192 1328 2315
3 1064 863 2146
3 1631 1637 2459
3 736 2049 2523
3 221 1906 2246
3 318 1983 2171
3 1496 2047 2182
3 1374 2139 2506
3 196 55 2313
3 2087 462 2134
3 676 653 677
3 2304 257 2491
3 1401 2324 2363
3 829 677 830
3 654 2223 2242
3 1187 977 2112
3 1463 1466 2200
3 2023 219 2516
3 1176 881 2215
3 513 471 2290
3 1812 459 2252
3 1386 1269 2199
3 291 758 2306
3 618 616 2132
3 278 280 2210
3 83 220 2289
3 82 83 2289
3 938 1057 2161
3 1189 986 1190
3 788 719 2336
3 1914 2001 2206
3 232 181 1652
3 1567 2062 2490
3 313 757 2495
3 622 619 2484
3 688 878 1320
3 1222 1626 2111
3 282 442 2079
3 1169 2008 2105
3 1966 1007 2308
3 2040 799 2237
3 1744 2229 2495
3 986 833 1063
3 2284 1605 2510
3 887 1961 2376
3 215 1624 2262
3 830 831 832
3 476 475 2224
3 439 451 2223
3 1932 1933 2380
3 2227 1246 2366
3 1212 1202 2301
3 1107 1110 2228
3 249 2010 2299
3 1983 293 2306
3 2055 1214 2237
3 1438 1372 2478
3 824 560 2156
3 2320 1866 2513
3 1351 1137 2374
3 868 2007 2232
3 2063 771 2064
3 1507 214 1508
3 1728 1727 2246
3 1045 1047 2348
3 1139 1140 2096
3 1648 1649 2463
3 1502 2302 2519
3 704 707 2109
3 2343 1136 2396
3 650 1963 2206
3 2153 895 2257
3 396 1958 2431
3 1379 1377 2288
3 2115 1471 2319
3 2033 987 2202
3 2239 1693 2518
3 2025 1488 2355
3 1209 2115 2319
3 523 524 2156
3 783 939 2243
3 376 1798 2497
3 2066 788 2193
3 1984 318 2172
3 425 427 2221
3 203 172 1847
3 446 457 2264
3 1312 2089 2150
3 2138 1272 2211
3 897 1139 2274
3 828 1819 2429
3 1249 1224 2111
3 666 667 2318
3 1371 1326 2194
3 2433 1499 2475
3 1272 1271 2211
3 1367 2254 2479
3 1386 2053 2383
3 2074 1238 2227
3 755 2148 2320
3 2117 1604 2428
3 475 514 2224
3 228 2187 2457
3 1868 1504 2520
3 1626 1218 2185
3 2123 1111 2241
3 1287 1049 2331
3 1280 687 2109
3 459 1814 2292
3 54 196 2402
3 863 865 2146
3 204 176 1680
3 514 2086 2224
3 1646 603 2398
3 112 197 2346
3 358 300 2338
3 1140 898 1141
3 1204 1335 2301
3 1016 2161 2438
3 909 1041 2175
3 1681 2448 2492
3 2252 459 2292
3 1992 868 2232
3 1035 1036 2235
3 1051 1295 2331
3 1836 1289 2242
3 1508 214 1859
3 247 53 2402
3 1016 938 2161
3 1408 856 2378
3 1466 2158 2200
3 725 885 2336
3 855 1450 2421
3 2023 1768 2420
3 1238 1236 2227
3 1679 202 2253
3 2107 1348 2233
3 1653 1431 2487
3 1946 2291 2343
3 2253 202 2329
3 1885 1312 2150
3 378 628 2390
3 2195 1383 2432
3 1520 1519 2480
3 1532 1733 2534
3 308 327 2278
3 953 951 2255
3 1213 1407 2222
3 1561 1563 2285
3 302 763 2338
3 1928 2033 2202
3 763 304 2345
3 832 833 986
3 1352 2040 2237
3 247 1881 2481
3 560 523 2156
3 335 339 2261
3 346 342 2344
3 201 443 1323
3 2301 1335 2466
3 323 320 2229
3 1136 2110 2396
3 1139 1977 2274
3 1809 1615 2423
3 1707 1791 2334
3 46 2019 2485
3 2064 1294 2238
3 1950 197 2404
3 2021 2022 2176
3 1949 245 2420
3 2044 2152 2207
3 1063 1154 1707
3 1012 1363 2406
3 280 2079 2210
3 2237 1214 2351
3 820 698 2318
3 1140 1141 1406
3 205 2021 2176
3 2043 786 2310
3 2145 1004 2446
3 707 1030 2109
3 1406 2460 2473
3 2137 1268 2226
3 16 2081 2260
3 567 2031 2219
3 2112 1064 2248
3 206 45 2485
3 2347 1462 2365
3 1650 1962 2362
3 453 425 2221
3 1209 907 2175
3 1111 1276 2241
3 2448 1145 2492
3 2051 2083 2243
3 59 60 2266
3 1402 1742 2530
3 831 677 2209
3 624 587 2276
3 238 174 1725
3 1011 2107 2233
3 468 2365 2412
3 2337 805 2371
3 254 1932 2380
3 1174 1398 2207
3 2140 111 2346
3 1381 2186 2283
3 1987 2037 2188
3 1740 559 2456
3 1773 391 2503
3 1335 1870 2249
3 1945 2257 2291
3 828 463 2411
3 1246 2088 2208
3 2060 798 2307
3 1773 1159 2240
3 1187 2112 2248
3 1352 2237 2351
3 2037 1322 2188
3 1941 1499 2433
3 2322 225 2510
3 1031 1034 2236
3 327 2188 2321
3 595 2032 2273
3 1464 1462 2347
3 1285 1992 2232
3 799 2055 2237
3 443 278 2210
3 784 874 2178
3 392 396 2431
3 191 95 2309
3 879 784 2178
3 524 511 2429
3 2128 2011 2270
3 895 896 2257
3 2206 1152 2324
3 318 2171 2172
3 2259 1549 2379
3 1214 1410 2351
3 306 308 2278
3 2022 251 2247
3 1757 1729 2309
3 1283 1918 2524
3 996 1706 2492
3 557 2044 2207
3 1798 1448 2364
3 1447 2250 2310
3 559 1750 2403
3 1363 1011 2233
3 1343 1168 2187
3 1407 2044 2256
3 1462 1460 2365
3 1995 2331 2458
3 327 1987 2188
3 2160 254 2380
3 1681 958 2287
3 2031 1160 2250
3 1600 689 2413
3 2219 1692 2239
3 1494 1675 2522
3 1281 1916 2448
3 907 909 2175
3 565 2167 2276
3 2241 1276 2275
3 1978 316 2443
3 2151 212 2350
3 203 1847 2104
3 2049 1481 2523
3 1961 1362 2376
3 2187 1393 2457
3 940 796 2532
3 2293 1349 2329
3 572 1897 2537
3 332 739 2282
3 2052 567 2239
3 1437 1370 2277
3 567 2219 2239
3 667 626 2452
3 1914 2206 2324
3 2243 939 2392
3 2136 1343 2187
3 257 1654 2530
3 1376 1378 2283
3 2076 1982 2272
3 2083 760 2243
3 1944 1945 2291
3 1771 1839 2359
3 1404 1403 2399
3 1875 1866 2320
3 1460 1337 2412
3 760 783 2243
3 1276 1366 2275
3 1428 2227 2366
3 1882 1605 2284
3 1739 1429 2459
3 2321 2188 2434
3 1328 1327 2315
3 798 2189 2307
3 2152 1174 2207
3 2182 1247 2323
3 1516 1514 2367
3 293 291 2306
3 556 537 2201
3 1298 1300 2314
3 1400 1399 2316
3 1649 2236 2463
3 833 831 2424
3 2127 2050 2333
3 1057 914 2328
3 1839 193 2359
3 761 1741 2258
3 1186 1970 2422
3 1429 2366 2382
3 2211 1271 2271
3 1733 1248 2534
3 13 2114 2136
3 2078 390 2431
3 1533 1536 2340
3 1690 2145 2446
3 1277 2308 2370
3 1168 1393 2187
3 1597 2047 2268
3 587 565 2276
3 1908 244 2401
3 225 125 2284
3 610 2130 2468
3 1749 2105 2326
3 1913 1914 2324
3 2366 2208 2382
3 1391 1876 2295
3 457 552 2264
3 653 688 2209
3 1601 2443 2514
3 682 2138 2211
3 992 1980 2244
3 55 56 2313
3 1645 1495 2493
3 473 477 2483
3 202 1724 2329
3 465 828 2429
3 1277 1966 2308
3 1416 2330 2406
3 1912 1364 2455
3 1716 1483 2375
3 2019 1651 2485
3 1725 2137 2226
3 201 1323 2216
3 878 1083 2213
3 2072 2073 2245
3 1563 1777 2405
3 244 2028 2401
3 2016 1564 2422
3 1682 1497 2461
3 1962 1153 2362
3 1298 2314 2358
3 1384 1385 2391
3 688 1320 2209
3 1587 2179 2435
3 786 380 2497
3 1395 1522 2341
3 2032 1919 2273
3 251 2013 2247
3 2219 2031 2250
3 2397 552 2453
3 1765 255 2489
3 2475 1825 2524
3 1202 1204 2301
3 445 2078 2411
3 323 2229 2296
3 1286 2384 2408
3 537 551 2201
3 1724 237 2293
3 84 85 2335
3 1471 1126 2319
3 1635 1634 2511
3 300 302 2338
3 698 666 2318
3 1030 1031 2236
3 2098 1457 2271
3 696 1821 2426
3 1457 1492 2447
3 1956 2336 2469
3 331 323 2296
3 1284 1491 2342
3 2011 1996 2270
3 256 183 2303
3 160 257 2304
3 2204 1589 2501
3 1891 1014 2280
3 719 725 2336
3 1354 1808 2381
3 437 430 2494
3 2377 218 2391
3 2211 2271 2447
3 1407 2256 2290
3 2365 1460 2412
3 2047 1498 2268
3 1825 1283 2524
3 1499 1825 2475
3 1226 1249 2281
3 2051 2243 2392
3 2250 1160 2310
3 111 112 2346
3 304 306 2345
3 1341 1352 2351
3 2166 191 2504
3 2223 1836 2242
3 1996 247 2481
3 1049 1051 2331
3 1086 1298 2358
3 2130 595 2273
3 1249 2111 2263
3 680 1995 2458
3 1511 2140 2346
3 102 103 2355
3 469 473 2453
3 961 2072 2245
3 2073 1282 2245
3 1442 1443 2525
3 74 192 2361
3 2163 1586 2435
3 1519 1518 2449
3 897 2274 2500
3 303 444 2317
3 1615 1614 2423
3 197 2009 2404
3 1634 2281 2511
3 1780 1781 2419
3 1435 1623 2465
3 1286 1774 2384
3 384 361 2339
3 193 1901 2359
3 1165 2433 2475
3 2277 1370 2386
3 677 653 2209
3 1994 1516 2367
3 1479 1478 2440
3 1165 1512 2433
3 1644 1353 2417
3 1711 1712 2353
3 2193 1615 2425
3 1613 1956 2469
3 1440 1173 2330
3 2269 1479 2440
3 222 2218 2465
3 391 389 2503
3 306 2278 2345
3 468 2090 2365
3 221 2246 2526
3 1445 1446 2504
3 939 1844 2392
3 86 87 2373
3 1429 1428 2366
3 2053 2103 2383
3 1348 1212 2312
3 805 750 2371
3 997 1286 2408
3 1152 869 2363
3 2063 2064 2238
3 192 1994 2367
3 1160 2043 2310
3 1926 2151 2350
3 2059 2098 2271
3 1897 1366 2537
3 215 2262 2437
3 1655 1732 2476
3 2415 1128 2454
3 1320 2213 2214
3 7 258 2357
3 259 155 2356
3 2171 1530 2172
3 347 351 2407
3 1077 1078 2343
3 239 2003 2279
3 1446 1128 2415
3 1034 1033 2410
3 601 627 2442
3 1154 1653 2234
3 397 2060 2405
3 2142 794 2272
3 442 2063 2238
3 1863 1215 2378
3 794 2076 2272
3 1883 1375 2505
3 1320 878 2213
3 342 468 2344
3 1903 218 2377
3 380 376 2497
3 1549 1547 2379
3 1148 1165 2475
3 2157 226 2507
3 829 972 2326
3 884 1957 2466
3 2291 1077 2343
3 65 66 2395
3 787 2052 2518
3 2298 1348 2312
3 1946 2343 2396
3 1653 256 2535
3 1842 1548 2472
3 1957 2301 2466
3 1366 1277 2370
3 2213 1432 2214
3 961 2245 2383
3 218 2093 2391
3 1376 2283 2421
3 1873 2127 2333
3 1019 1021 2512
3 1128 1127 2454
3 1104 1434 2450
3 2130 1439 2468
3 2396 2110 2482
3 2186 855 2283
3 1724 2293 2329
3 1163 1059 2372
3 1614 2389 2423
3 53 54 2402
3 1063 1707 2334
3 2283 855 2421
3 1385 1863 2436
3 364 1883 2505
3 517 1890 2387
3 1145 996 2492
3 1047 1287 2348
3 2148 1875 2320
3 205 2176 2416
3 1372 1844 2478
3 1211 2219 2250
3 1141 898 2368
3 245 1909 2420
3 2278 327 2321
3 2389 1397 2423
3 2256 513 2290
3 559 2403 2456
3 1137 1340 2374
3 2093 1384 2391
3 1918 1148 2524
3 1030 2236 2427
3 1867 1895 2513
3 2014 517 2387
3 2271 1457 2447
3 1143 2028 2353
3 1904 194 2432
3 1148 2475 2524
3 1574 1523 2436
3 2213 1083 2311
3 1997 358 2325
3 2139 246 2506
3 1370 1369 2386
3 1271 2059 2271
3 1034 2173 2463
3 1123 1412 2393
3 1578 1827 2515
3 2209 1320 2424
3 2079 1504 2210
3 1361 2168 2305
3 1491 1489 2403
3 238 1725 2226
3 1190 986 2334
3 1547 1545 2508
3 1891 1613 2469
3 1153 1885 2362
3 2208 1632 2382
3 2287 1281 2448
3 1356 1376 2421
3 1965 2349 2515
3 2155 1186 2422
3 1522 2014 2387
3 2158 1468 2323
3 2050 954 2333
3 1397 1809 2423
3 1362 1360 2376
3 1852 1985 2397
3 2069 1691 2446
3 789 2066 2425
3 1895 755 2513
3 1707 1154 2234
3 372 374 2430
3 2225 787 2518
3 2028 1206 2401
3 986 1063 2334
3 1912 726 2439
3 1340 1342 2400
3 1916 1145 2448
3 2236 1649 2427
3 2374 1340 2400
3 2222 1407 2290
3 2324 1152 2363
3 241 2220 2472
3 765 2190 2384
3 2375 667 2452
3 2330 1173 2406
3 1181 1972 2500
3 2126 1382 2388
3 1173 1012 2406
3 315 313 2495
3 1015 1373 2385
3 97 221 2526
3 1937 1397 2389
3 930 1061 2462
3 971 1096 2496
3 45 46 2485
3 669 791 2529
3 1104 2450 2521
3 382 378 2390
3 2191 1371 2536
3 2235 1036 2286
3 831 2209 2424
3 762 1997 2349
3 2379 1547 2508
3 2177 1359 2467
3 2403 1489 2456
3 796 785 2532
3 219 1902 2516
3 1519 2300 2480
3 1065 1655 2476
3 1375 1473 2505
3 1489 1490 2456
3 390 392 2431
3 2247 2013 2464
3 1135 1930 2369
3 2278 1583 2345
3 626 622 2452
3 631 2298 2312
3 2233 1348 2298
3 1398 1974 2499
3 1706 1681 2492
3 261 130 2444
3 32 260 2445
3 822 2099 2368
3 1365 1912 2439
3 941 940 2418
3 1446 2166 2504
3 2106 1121 2414
3 2300 1519 2449
3 1803 1104 2521
3 1732 1570 2476
3 1413 2051 2392
3 2122 1946 2396
3 2238 1868 2520
3 477 556 2483
3 2397 1985 2533
3 463 445 2411
3 2163 1185 2488
3 1126 2141 2319
3 1755 2264 2533
3 972 2204 2501
3 2230 1533 2340
3 1774 1773 2503
3 1997 2325 2349
3 1004 2069 2446
3 2159 31 2445
3 131 2160 2444
3 1371 2191 2451
3 1001 2154 2486
3 1682 2230 2340
3 2103 961 2383
3 1033 1151 2410
3 382 2390 2531
3 1504 2079 2520
3 1583 2278 2321
3 511 465 2429
3 250 2024 2479
3 2208 2088 2509
3 619 620 2484
3 1246 2208 2366
3 2141 1209 2319
3 1359 1413 2467
3 1295 1459 2458
3 2218 1435 2465
3 2281 1249 2511
3 2293 237 2354
3 2207 1398 2499
3 1564 2155 2422
3 552 469 2453
3 1947 224 2498
3 2062 1568 2490
3 2018 205 2416
3 260 2159 2445
3 2160 261 2444
3 2092 610 2468
3 194 2195 2432
3 1432 2213 2311
3 211 2251 2464
3 2378 856 2527
3 1536 1532 2534
3 2364 786 2497
3 2438 1438 2478
3 1185 1948 2488
3 2042 941 2418
3 1582 2321 2434
3 885 1891 2469
3 1364 2048 2455
3 1693 2225 2518
3 401 382 2531
3 1338 2247 2464
3 442 2238 2520
3 1292 2117 2428
3 2274 1350 2500
3 2066 2193 2425
3 2179 1184 2435
3 898 822 2368
3 2436 1863 2527
3 1844 1016 2478
3 2184 1001 2486
3 557 2207 2499
3 2013 211 2464
3 2254 250 2479
3 1350 1181 2500
3 2009 248 2470
3 246 2140 2506
3 1574 2436 2527
3 2139 1419 2517
3 316 1971 2514
3 1319 2122 2482
3 226 2006 2507
3 1400 2270 2481
3 1681 2287 2448
3 2325 1578 2349
3 232 1652 2487
3 1320 2214 2424
3 1632 2208 2509
3 248 2288 2470
3 1406 1141 2460
3 2188 1322 2434
3 2244 1980 2441
3 2088 1255 2509
3 1280 2109 2427
3 2060 2307 2405
3 2236 1034 2463
3 1745 2293 2354
3 2122 2396 2482
3 2109 1030 2427
3 2307 1563 2405
3 1429 2382 2459
3 224 2267 2498
3 682 2211 2447
3 2079 442 2520
3 2348 1287 2398
3 2220 1842 2472
3 1335 2249 2466
3 1249 2263 2511
3 443 2210 2519
3 2385 1373 2394
3 1594 2184 2486
3 2052 2239 2518
3 1568 2439 2490
3 2349 1578 2515
3 2344 468 2412
3 2270 1996 2481
3 1735 2244 2441
3 2260 1471 2477
3 2210 1504 2519
3 1434 2297 2450
3 2297 1419 2450
3 2263 1660 2502
3 2404 2009 2470
3 1718 2385 2394
3 1371 2194 2536
3 2317 444 2461
3 1443 2322 2525
3 1716 2375 2452
3 1863 2378 2527
3 2439 726 2490
3 1057 2328 2451
3 1638 2404 2470
3 1454 2234 2535
3 755 2320 2513
3 2234 1653 2535
3 2264 552 2533
3 1419 2297 2517
3 1392 2322 2510
3 552 2397 2533
3 1798 2364 2497
3 2322 1392 2525
3 2382 1631 2459
3 1016 2438 2478
3 1366 2370 2537
3 1742 2491 2530
3 2491 257 2530
CELL_TYPES 4886
5
5
5
5
5
5
5
5
5
5
5
5
5
5
5
5
5
5
5
5
5
5
5
5
5
5
5
5
5
5
5
5
5
5
5
5
5
5
5
5
5
5
5
5
5
5
5
5
5
5
5
5
5
5
5
5
5
5
5
5
5
5
5
5
5
5
5
5
5
5
5
5
5
5
5
5
5
5
5
5
5
5
5
5
5
5
5
5
5
5
5
5
5
5
5
5
5
5
5
5
5
5
5
5
5
5
5
5
5
5
5
5
5
5
5
5
5
5
5
5
5
5
5
5
5
5
5
5
5
5
5
5
5
5
5
5
5
5
5
5
5
5
5
5
5
5
5
5
5
5
5
5
5
5
5
5
5
5
5
5
5
5
5
5
5
5
5
5
5
5
5
5
5
5
5
5
5
5
5
5
5
5
5
5
5
5
5
5
5
5
5
5
5
5
5
5
5
5
5
5
5
5
5
5
5
5
5
5
5
5
5
5
5
5
5
5
5
5
5
5
5
5
5
5
5
5
5
5
5
5
5
5
5
5
5
5
5
5
5
5
5
5
5
5
5
5
5
5
5
5
5
5
5
5
5
5
5
5
5
5
5
5
5
5
5
5
5
5
5
5
5
5
5
5
5
5
5
5
5
5
5
5
5
5
5
5
5
5
5
5
5
5
5
5
5
5
5
5
5
5
5
5
5
5
5
5
5
5
5
5
5
5
5
5
5
5
5
5
5
5
5
5
5
5
5
5
5
5
5
5
5
5
5
5
5
5
5
5
5
5
5
5
5
5
5
5
5
5
5
5
5
5
5
5
5
5
5
5
5
5
5
5
5
5
5
5
5
5
5
5
5
5
5
5
5
5
5
5
5
5
5
5
5
5
5
5
5
5
5
5
5
5
5
5
5
5
5
5
5
5
5
5
5
5
5
5
5
5
5
5
5
5
5
5
5
5
5
5
5
5
5
5
5
5
5
5
5
5
5
5
5
5
5
5
5
5
5
5
5
5
5
5
5
5
5
5
5
5
5
5
5
5
5
5
5
5
5
5
5
5
5
5
5
5
5
5
5
5
5
5
5
5
5
5
5
5
5
5
5
5
5
5
5
5
5
5
5
5
5
5
5
5
5
5
5
5
5
5
5
5
5
5
5
5
5
5
5
5
5
5
5
5
5
5
5
5
5
5
5
5
5
5
5
5
5
5
5
5
5
5
5
5
5
5
5
5
5
5
5
5
5
5
5
5
5
5
5
5
5
5
5
5
5
5
5
5
5
5
5
5
5
5
5
5
5
5
5
5
5
5
5
5
5
5
5
5
5
5
5
5
5
5
5
5
5
5
5
5
5
5
5
5
5
5
5
5
5
5
5
5
5
5
5
5
5
5
5
5
5
5
5
5
5
5
5
5
5
5
5
5
5
5
5
5
5
5
5
5
5
5
5
5
5
5
5
5
5
5
5
5
5
5
5
5
5
5
5
5
5
5
5
5
5
5
5
5
5
5
5
5
5
5
5
5
5
5
5
5
5
5
5
5
5
5
5
5
5
5
5
5
5
5
5
5
5
5
5
5
5
5
5
5
5
5
5
5
5
5
5
5
5
5
5
5
5
5
5
5
5
5
5
5
5
5
5
5
5
5
5
5
5
5
5
5
5
5
5
5
5
5
5
5
5
5
5
5
5
5
5
5
5
5
5
5
5
5
5
5
5
5
5
5
5
5
5
5
5
5
5
5
5
5
5
5
5
5
5
5
5
5
5
5
5
5
5
5
5
5
5
5
5
5
5
5
5
5
5
5
5
5
5
5
5
5
5
5
5
5
5
5
5
5
5
5
5
5
5
5
5
5
5
5
5
5
5
5
5
5
5
5
5
5
5
5
5
5
5
5
5
5
5
5
5
5
5
5
5
5
5
5
5
5
5
5
5
5
5
5
5
5
5
5
5
5
5
5
5
5
5
5
5
5
5
5
5
5
5
5
5
5
5
5
5
5
5
5
5
5
5
5
5
5
5
5
5
5
5
5
5
5
5
5
5
5
5
5
5
5
5
5
5
5
5
5
5
5
5
5
5
5
5
5
5
5
5
5
5
5
5
5
5
5
5
5
5
5
5
5
5
5
5
5
5
5
5
5
5
5
5
5
5
5
5
5
5
5
5
5
5
5
5
5
5
5
5
5
5
5
5
5
5
5
5
5
5
5
5
5
5
5
5
5
5
5
5
5
5
5
5
5
5
5
5
5
5
5
5
5
5
5
5
5
5
5
5
5
5
5
5
5
5
5
5
5
5
5
5
5
5
5
5
5
5
5
5
5
5
5
5
5
5
5
5
5
5
5
5
5
5
5
5
5
5
5
5
5
5
5
5
5
5
5
5
5
5
5
5
5
5
5
5
5
5
5
5
5
5
5
5
5
5
5
5
5
5
5
5
5
5
5
5
5
5
5
5
5
5
5
5
5
5
5
5
5
5
5
5
5
5
5
5
5
5
5
5
5
5
5
5
5
5
5
5
5
5
5
5
5
5
5
5
5
5
5
5
5
5
5
5
5
5
5
5
5
5
5
5
5
5
5
5
5
5
5
5
5
5
5
5
5
5
5
5
5
5
5
5
5
5
5
5
5
5
5
5
5
5
5
5
5
5
5
5
5
5
5
5
5
5
5
5
5
5
5
5
5
5
5
5
5
5
5
5
5
5
5
5
5
5
5
5
5
5
5
5
5
5
5
5
5
5
5
5
5
5
5
5
5
5
5
5
5
5
5
5
5
5
5
5
5
5
5
5
5
5
5
5
5
5
5
5
5
5
5
5
5
5
5
5
5
5
5
5
5
5
5
5
5
5
5
5
5
5
5
5
5
5
5
5
5
5
5
5
5
5
5
5
5
5
5
5
5
5
5
5
5
5
5
5
5
5
5
5
5
5
5
5
5
5
5
5
5
5
5
5
5
5
5
5
5
5
5
5
5
5
5
5
5
5
5
5
5
5
5
5
5
5
5
5
5
5
5
5
5
5
5
5
5
5
5
5
5
5
5
5
5
5
5
5
5
5
5
5
5
5
5
5
5
5
5
5
5
5
5
5
5
5
5
5
5
5
5
5
5
5
5
5
5
5
5
5
5
5
5
5
5
5
5
5
5
5
5
5
5
5
5
5
5
5
5
5
5
5
5
5
5
5
5
5
5
5
5
5
5
5
5
5
5
5
5
5
5
5
5
5
5
5
5
5
5
5
5
5
5
5
5
5
5
5
5
5
5
5
5
5
5
5
5
5
5
5
5
5
5
5
5
5
5
5
5
5
5
5
5
5
5
5
5
5
5
5
5
5
5
5
5
5
5
5
5
5
5
5
5
5
5
5
5
5
5
5
5
5
5
5
5
5
5
5
5
5
5
5
5
5
5
5
5
5
5
5
5
5
5
5
5
5
5
5
5
5
5
5
5
5
5
5
5
5
5
5
5
5
5
5
5
5
5
5
5
5
5
5
5
5
5
5
5
5
5
5
5
5
5
5
5
5
5
5
5
5
5
5
5
5
5
5
5
5
5
5
5
5
5
5
5
5
5
5
5
5
5
5
5
5
5
5
5
5
5
5
5
5
5
5
5
5
5
5
5
5
5
5
5
5
5
5
5
5
5
5
5
5
5
5
5
5
5
5
5
5
5
5
5
5
5
5
5
5
5
5
5
5
5
5
5
5
5
5
5
5
5
5
5
5
5
5
5
5
5
5
5
5
5
5
5
5
5
5
5
5
5
5
5
5
5
5
5
5
5
5
5
5
5
5
5
5
5
5
5
5
5
5
5
5
5
5
5
5
5
5
5
5
5
5
5
5
5
5
5
5
5
5
5
5
5
5
5
5
5
5
5
5
5
5
5
5
5
5
5
5
5
5
5
5
5
5
5
5
5
5
5
5
5
5
5
5
5
5
5
5
5
5
5
5
5
5
5
5
5
5
5
5
5
5
5
5
5
5
5
5
5
5
5
5
5
5
5
5
5
5
5
5
5
5
5
5
5
5
5
5
5
5
5
5
5
5
5
5
5
5
5
5
5
5
5
5
5
5
5
5
5
5
5
5
5
5
5
5
5
5
5
5
5
5
5
5
5
5
5
5
5
5
5
5
5
5
5
5
5
5
5
5
5
5
5
5
5
5
5
5
5
5
5
5
5
5
5
5
5
5
5
5
5
5
5
5
5
5
5
5
5
5
5
5
5
5
5
5
5
5
5
5
5
5
5
5
5
5
5
5
5
5
5
5
5
5
5
5
5
5
5
5
5
5
5
5
5
5
5
5
5
5
5
5
5
5
5
5
5
5
5
5
5
5
5
5
5
5
5
5
5
5
5
5
5
5
5
5
5
5
5
5
5
5
5
5
5
5
5
5
5
5
5
5
5
5
5
5
5
5
5
5
5
5
5
5
5
5
5
5
5
5
5
5
5
5
5
5
5
5
5
5
5
5
5
5
5
5
5
5
5
5
5
5
5
5
5
5
5
5
5
5
5
5
5
5
5
5
5
5
5
5
5
5
5
5
5
5
5
5
5
5
5
5
5
5
5
5
5
5
5
5
5
5
5
5
5
5
5
5
5
5
5
5
5
5
5
5
5
5
5
5
5
5
5
5
5
5
5
5
5
5
5
5
5
5
5
5
5
5
5
5
5
5
5
5
5
5
5
5
5
5
5
5
5
5
5
5
5
5
5
5
5
5
5
5
5
5
5
5
5
5
5
5
5
5
5
5
5
5
5
5
5
5
5
5
5
5
5
5
5
5
5
5
5
5
5
5
5
5
5
5
5
5
5
5
5
5
5
5
5
5
5
5
5
5
5
5
5
5
5
5
5
5
5
5
5
5
5
5
5
5
5
5
5
5
5
5
5
5
5
5
5
5
5
5
5
5
5
5
5
5
5
5
5
5
5
5
5
5
5
5
5
5
5
5
5
5
5
5
5
5
5
5
5
5
5
5
5
5
5
5
5
5
5
5
5
5
5
5
5
5
5
5
5
5
5
5
5
5
5
5
5
5
5
5
5
5
5
5
5
5
5
5
5
5
5
5
5
5
5
5
5
5
5
5
5
5
5
5
5
5
5
5
5
5
5
5
5
5
5
5
5
5
5
5
5
5
5
5
5
5
5
5
5
5
5
5
5
5
5
5
5
5
5
5
5
5
5
5
5
5
5
5
5
5
5
5
5
5
5
5
5
5
5
5
5
5
5
5
5
5
5
5
5
5
5
5
5
5
5
5
5
5
5
5
5
5
5
5
5
5
5
5
5
5
5
5
5
5
5
5
5
5
5
5
5
5
5
5
5
5
5
5
5
5
5
5
5
5
5
5
5
5
5
5
5
5
5
5
5
5
5
5
5
5
5
5
5
5
5
5
5
5
5
5
5
5
5
5
5
5
5
5
5
5
5
5
5
5
5
5
5
5
5
5
5
5
5
5
5
5
5
5
5
5
5
5
5
5
5
5
5
5
5
5
5
5
5
5
5
5
5
5
5
5
5
5
5
5
5
5
5
5
5
5
5
5
5
5
5
5
5
5
5
5
5
5
5
5
5
5
5
5
5
5
5
5
5
5
5
5
5
5
5
5
5
5
5
5
5
5
5
5
5
5
5
5
5
5
5
5
5
5
5
5
5
5
5
5
5
5
5
5
5
5
5
5
5
5
5
5
5
5
5
5
5
5
5
5
5
5
5
5
5
5
5
5
5
5
5
5
5
5
5
5
5
5
5
5
5
5
5
5
5
5
5
5
5
5
5
5
5
5
5
5
5
5
5
5
5
5
5
5
5
5
5
5
5
5
5
5
5
5
5
5
5
5
5
5
5
5
5
5
5
5
5
5
5
5
5
5
5
5
5
5
5
5
5
5
5
5
5
5
5
5
5
5
5
5
5
5
5
5
5
5
5
5
5
5
5
5
5
5
5
5
5
5
5
5
5
5
5
5
5
5
5
5
5
5
5
5
5
5
5
5
5
5
5
5
5
5
5
5
5
5
5
5
5
5
5
5
5
5
5
5
5
5
5
5
5
5
5
5
5
5
5
5
5
5
5
5
5
5
5
5
5
5
5
5
5
5
5
5
5
5
5
5
5
5
5
5
5
5
5
5
5
5
5
5
5
5
5
5
5
5
5
5
5
5
5
5
5
5
5
5
5
5
5
5
5
5
5
5
5
5
5
5
5
5
5
5
5
5
5
5
5
5
5
5
5
5
5
5
5
5
5
5
5
5
5
5
5
5
5
5
5
5
5
5
5
5
5
5
5
5
5
5
5
5
5
5
5
5
5
5
5
5
5
5
5
5
5
5
5
5
5
5
5
5
5
5
5
5
5
5
5
5
5
5
5
5
5
5
5
5
5
5
5
5
5
5
5
5
5
5
5
5
5
5
5
5
5
5
5
5
5
5
5
5
5
5
5
5
5
5
5
5
5
5
5
5
5
5
5
5
5
5
5
5
5
5
5
5
5
5
5
5
5
5
5
5
5
5
5
5
5
5
5
5
5
5
5
5
5
5
5
5
5
5
5
5
5
5
5
5
5
5
5
5
5
5
5
5
5
5
5
5
5
5
5
5
5
5
5
5
5
5
5
5
5
5
5
5
5
5
5
5
5
5
5
5
5
5
5
5
5
5
5
5
5
5
5
5
5
5
5
5
5
5
5
5
5
5
5
5
5
5
5
5
5
5
5
5
5
5
5
5
5
5
5
5
5
5
5
5
5
5
5
5
5
5
5
5
5
5
5
5
5
5
5
5
5
5
5
5
5
5
5
5
5
5
5
5
5
5
5
5
5
5
5
5
5
5
5
5
5
5
5
5
5
5
5
5
5
5
5
5
5
5
5
5
5
5
5
5
5
5
5
5
5
5
5
5
5
5
5
5
5
5
5
5
5
5
5
5
5
5
5
5
5
5
5
5
5
5
5
5
5
5
5
5
5
5
5
5
5
5
5
5
5
5
5
5
5
5
5
5
5
5
5
5
5
5
5
5
5
5
5
5
5
5
5
5
5
5
5
5
5
5
5
5
5
5
5
5
5
5
5
5
5
5
5
5
5
5
5
5
5
5
5
5
5
5
5
5
5
5
5
5
5
5
5
5
5
5
5
5
5
5
5
5
5
5
5
5
5
5
5
5
5
5
5
5
5
5
5
5
5
5
5
5
5
5
5
5
5
5
5
5
5
5
5
5
5
5
5
5
5
5
5
5
5
5
5
5
5
5
5
5
5
5
5
5
5
5
5
5
5
5
5
5
5
5
5
5
5
5
5
5
5
5
5
5
5
5
5
5
5
5
5
5
5
5
5
5
5
5
5
5
5
5
5
5
5
5
5
5
5
5
5
5
5
5
5
5
5
5
5
5
5
5
5
5
5
5
5
5
5
5
5
5
5
5
5
5
5
5
5
5
5
5
5
5
5
5
5
5
5
5
5
5
5
5
5
5
5
5
5
5
5
5
5
5
5
5
5
5
5
5
5
5
5
5
5
5
5
5
5
5
5
5
5
5
5
5
5
5
5
5
5
5
5
5
5
5
5
5
5
5
5
5
5
5
5
5
5
5
5
5
5
5
5
5
5
5
5
5
5
5
5
5
5
5
5
5
5
5
5
5
5
5
5
5
5
5
5
5
5
5
5
5
5
5
5
5
5
5
5
5
5
5
5
5
5
5
5
5
5
5
5
5
5
5
5
5
5
5
5
5
5
5
5
5
5
5
5
5
5
5
5
5
5
5
5
5
5
5
5
5
5
5
5
5
5
5
5
5
5
5
5
5
5
5
5
5
5
5
5
5
5
5
5
5
5
5
5
5
5
5
5
5
5
5
5
5
5
5
5
5
5
5
5
5
5
5
5
5
5
5
5
5
5
5
5
5
5
5
5
5
5
5
5
5
5
5
5
5
5
5
5
5
5
5
5
5
5
5
5
5
5
5
5
5
5
5
5
5
5
5
5
5
5
5
5
5
5
5
5
5
5
5
5
5
5
5
5
5
5
5
5
5
5
5
5
5
5
5
5
5
5
5
5
5
5
5
5
5
5
5
5
5
5
5
5
5
5
5
5
5
5
5
5
5
5
5
5
5
5
5
5
5
5
5
5
5
5
5
5
5
5
5
5
5
5
5
5
5
5
5
5
5
5
5
5
5
5
5
5
5
5
5
5
5
5
5
5
5
5
5
5
5
5
5
5
5
5
5
5
5
5
5
5
5
5
5
5
5
5
5
5
5
5
5
5
5
5
5
5
5
5
5
5
5
5
5
5
5
5
5
5
5
5
5
5
5
5
5
5
5
5
5
5
5
5
5
5
5
5
5
5
5
5
5
5
5
5
5
5
5
5
5
5
5
5
5
5
5
5
5
5
5
5
5
5
5
5
5
5
5
5
5
5
5
5
5
5
5
5
5
5
5
5
5
5
5
5
5
5
5
5
5
5
5
5
5
5
5
5
5
5
5
5
5
5
5
5
5
5
5
5
5
5
5
5
5
5
5
5
5
5
5
5
5
5
5
5
5
5
5
5
5
5
5
5
5
5
5
5
5
5
5
5
5
5
5
5
5
5
5
5
5
5
5
5
5
5
5
5
5
5
5
5
5
5
5
5
5
5
5
5
5
5
5
5
5
5
5
5
5
5
5
5
5
5
5
5
5
5
5
5
5
5
5
5
5
5
5
5
5
5
5
5
5
5
5
5
5
5
5
5
5
5
5
5
5
5
5
5
5
5
5
5
5
5
5
5
5
5
5
5
5
5
5
5
5
5
5
5
5
5
5
5
5
5
5
5
5
5
5
5
5
5
5
5
5
5
5
5
5
5
5
5
5
5
5
5
5
5
5
5
5
5
5
5
5
5
5
5
5
5
5
5
5
5
5
5
5
5
5
5
5
5
5
5
5
5
5
5
5
5
5
5
5
5
5
5
5
5
5
5
5
5
5
5
5
5
5
5
5
5
5
5
5
5
5
5
5
5
5
5
5
5
5
5
5
5
5
5
5
5
5
5
5
5
5
5
5
5
5
5
5
5
5
5
5
5
5
5
5
5
5
5
5
5
5
5
5
5
5
5
5
5
5
5
5
5
5
5
5
5
5
5
5
5
5
5
5
5
5
5
5
5
5
5
5
5
5
5
5
5
5
5
5
5
5
5
5
5
5
5
5
5
5
5
5
5
5
5
5
5
5
5
5
5
5
5
5
5
5
5
5
5
5
5
5
5
5
5
5
5
5
5
5
5
5
5
5
5
5
5
5
5
5
5
5
5
5
5
5
5
5
5
5
5
5
5
5
5
5
5
5
5
5
5
5
5
5
5
5
5
5
5
5
5
5
5
5
5
5
5
5
5
5
5
5
5
5
5
5
5
5
5
5
5
5
5
5
5
5
5
5
5
5
5
5
5
5
5
5
5
5
5
5
5
5
5
5
5
5
5
5
5
5
5
5
5
5
5
5
5
5
5
5
5
5
5
5
5
5
5
5
5
5
5
5
5
5
5
5
5
5
5
5
5
5
5
5
5
5
5
5
5
5
5
5
5
5
5
5
5
5
5
5
5
5
5
5
5
5
5
5
5
5
5
5
5
5
5
5
5
5
5
5
5
5
5
5
5
5
5
5
5
5
5
5
5
5
5
5
5
5
5
5
5
5
5
5
5
5
5
5
5
5
5
5
5
5
5
5
5
5
5
5
5
5
5
5
5
5
5
5
5
5
5
5
5
5
5
5
5
5
5
5
5
5
5
5
5
5
5
5
5
5
5
5
5
5
5
5
5
5
5
5
5
5
5
5
5
5
5
5
5
5
5
5
5
5
5
5
5
5
5
5
5
5
5
5
5
5
5
5
5
5
5
5
5
5
5
5
5
5
5
5
5
5
5
5
5
5
5
5
5
5
5
5
5
5
5
5
5
5
5
5
5
5
5
5
5
5
5
5
5
5
5
5
5
5
5
5
5
5
5
5
5
5
5
5
5
5
5
5
5
5
5
5
5
5
5
5
5
5
5
5
5
5
5
5
5
5
5
5
5
5
5
5
5
5
5
5
5
5
5
5
5
5
5
5
5
5
5
5
5
5
5
5
5
5
5
5
5
5
5
5
5
5
5
5
5
5
5
5
5
5
5
5
5
5
5
5
5
5
5
5
5
5
5
5
5
5
5
5
5
5
5
5
5
5
5
5
5
5
5
5
5
5
5
5
5
5
5
5
5
5
5
5
5
5
5
5
5
5
5
5
5
5
5
5
5
5
5
5
5
5
5
5
5
5
5
5
5
5
5
5
5
5
5
5
5
5
5
5
5
5
5
5
5
5
5
5
5
5
5
5
5
5
5
5
5
5
5
5
5
5
5
5
5
5
5
5
5
5
5
5
5
5
5
5
5
5
5
5
5
5
5
5
5
5
5
5
5
5
5
5
5
5
5
5
5
5
5
5
5
5
5
5
5
5
5
5
5
5
5
5
5
5
5
5
5
5
5
5
5
5
5
5
5
5
5
5
5
5
5
5
5
5
5
5
5
5
5
5
5
5
5
5
5
5
5
5
5
5
5
5
5
5
5
5
5
5
5
5
5
5
5
5
5
5
5
5
5
5
5
5
5
5
5
5
5
5
5
5
5
5
5
5
5
5
5
5
5
5
5
5
5
5
5
5
5
5
5
5
5
5
5
5
5
5
5
5
5
5
5
5
5
5
5
5
5
5
5
5
5
5
5
5
5
5
5
5
5
5
5
5
5
5
5
5
5
5
5
5
5
5
5
5
5
5
5
5
5
5
5
5
5
5
5
5
5
5
5
5
5
5
5
5
5
5
5
5
5
5
5
5
5
5
5
5
5
5
5
5
5
5
5
5
5
5
5
5
5
5
5
5
5
5
5
5
5
5
5
5
5
5
5
5
5
5
5
5
5
5
5
5
5
5
5
5
5
5
5
5
5
5
5
5
5
5
5
5
5
5
5
5
5
5
5
5
5
5
5
5
5
5
5
5
5
5
5
5
5
5
5
5
5
5
5
5
5
5
5
5
5
5
5
5
5
5
5
5
5
5
5
5
5
5
5
5
5
5
5
5
5
5
5
POINT_DATA 2538
VECTORS disp float
1.9304853925330427e-11 5.0077746469297445e-11 0.0
4.0951023843585356e-11 -1.1205638145385645e-10 0.0
0.004599999983562314 4.409156227967343e-11 0.0
0.00459999995822564 -1.154977817024858e-10 0.0
0.0014536225811411898 0.0006078020861392099 0.0
0.0033135027589544807 0.00040684441655758027 0.0
0.0022657914950111944 0.00014628226050056997 0.0
5.526375828345874e-12 5.525392704609216e-12 0.0
9.892742234212199e-12 1.234752635740518e-11 0.0
9.184104547516303e-12 7.826269098085909e-12 0.0
9.114643225276777e-12 7.284858279028861e-12 0.0
8.655848753050844e-12 5.523566630066543e-12 0.0
8.169906643265671e-12 4.059752369260732e-12 0.0
7.725013618930595e-12 2.463412531760625e-12 0.0
7.364854657107513e-12 7.680721941413964e-13 0.0
6.5288397336239966e-12 -1.1030342987323112e-12 0.0
6.838527534061604e-12 -2.7521569806524294e-12 0.0
6.5255347053559555e-12 -4.627180355573061e-12 0.0
6.472010589533282e-12 -6.617945332070563e-12 0.0
6.600606340585572e-12 -8.599800732091216e-12 0.0
6.493325436751143e-12 -1.0495212365746139e-11 0.0
6.800681326950474e-12 -1.275614346317362e-11 0.0
6.768992158395277e-12 -1.4698469909169753e-11 0.0
7.112982401684687e-12 -1.694670230145977e-11 0.0
7.199116074410977e-12 -1.9520572830233835e-11 0.0
7.480967875236668e-12 -2.1929995010764495e-11 0.0
7.776042222381542e-12 -2.4789647585040373e-11 0.0
8.166797396532857e-12 -2.7970714357090103e-11 0.0
8.91568530283631e-12 -3.175462219988302e-11 0.0
8.909608373909584e-12 -3.5769718878459744e-11 0.0
1.2000408448572275e-11 -4.469281741842952e-11 0.0
5.06929945054818e-12 -4.111991443289677e-11 0.0
5.6572868540527984e-5 -7.710001442361145e-5 0.0
9.756272675151734e-5 -0.00013339022499664536 0.0
0.00013731465708610895 -0.00018258282066905187 0.0
0.00017542053387849753 -0.00022738524190602544 0.0
0.00021239672174865035 -0.0002690904413705558 0.0
0.0002490139395660703 -0.00030869548975418295 0.0
0.0002858690036266391 -0.00034637474154674115 0.0
0.00032260952950681205 -0.0003824131476135542 0.0
0.00035955047950174033 -0.00041711789229192925 0.0
0.00039677304744924603 -0.00045050103059377373 0.0
0.00043430074297600785 -0.00048283201296608403 0.0
0.00047239910295134686 -0.0005141331155015167 0.0
0.0005107773655155208 -0.0005443996581981906 0.0
0.0005496330196856887 -0.0005738501930201426 0.0
0.0005891860880828421 -0.0006024502919285558 0.0
0.0006290043264528764 -0.0006301536976765023 0.0
0.0006693605928093086 -0.000657116575017679 0.0
0.0007102370756852983 -0.0006832211569515059 0.0
0.0007516061614717541 -0.0007086054287659221 0.0
0.0007934866927417598 -0.000733268496454747 0.0
0.0008359287481891168 -0.0007572141989169309 0.0
0.0008788240048120146 -0.000780420011139763 0.0
0.000922422112445375 -0.0008030050752144703 0.0
0.0009663232358186254 -0.000824822026185024 0.0
0.0010109741324691214 -0.0008459979931074371 0.0
0.001055891907064208 -0.0008664149204894128 0.0
0.0011013893078395713 -0.0008861987009498172 0.0
0.0011473009055612744 -0.0009052105018376133 0.0
0.0011938697902057647 -0.000923619970349718 0.0
0.0012406767974754093 -0.0009412946321894037 0.0
0.0012881267192601025 -0.0009583347258257807 0.0
0.0013359529568089425 -0.0009746123427623786 0.0
0.0013842622699042793 -0.0009902186535698195 0.0
0.0014329021200434463 -0.0010050903448840414 0.0
0.0014821386512949163 -0.0010193083472336615 0.0
0.0015315683171593622 -0.0010327415037003997 0.0
0.0015814457613234478 -0.0010454735995624547 0.0
0.0016316359686940308 -0.0010574158010264595 0.0
0.0016821958981558642 -0.0010686008027753267 0.0
0.0017330420810138581 -0.0010790958250697493 0.0
0.0017841432941634533 -0.0010887509504348455 0.0
0.0018355662553204038 -0.0010977201089492697 0.0
0.0018872439851022815 -0.0011058641067950164 0.0
0.0019390698210909915 -0.0011132985677430912 0.0
0.0019911373147626314 -0.0011198465776048382 0.0
0.0020432057447087415 -0.0011256659611965862 0.0
0.0020954800254992653 -0.0011307100721583015 0.0
0.0021477764425993757 -0.0011348825758728958 0.0
0.0022000946987309404 -0.001138332601074336 0.0
0.0022525544292866166 -0.0011409056138044884 0.0
0.0023045189452132707 -0.0011424755633192413 0.0
0.0023569651803521867 -0.0011433780767589774 0.0
0.002407899737588804 -0.0011431393683851748 0.0
0.0024596255778814523 -0.001141962714732632 0.0
0.002509077127965107 -0.0011395743154242657 0.0
0.002560218440492505 -0.0011363488622339413 0.0
0.002609789056829738 -0.0011318561761314559 0.0
0.002659480357083641 -0.001125549473005268 0.0
0.0027094292853256704 -0.0011180813251249534 0.0
0.0027598288086833718 -0.0011089428552398138 0.0
0.002810329607461887 -0.0010988453878048733 0.0
0.0028611060762487065 -0.0010875133171875074 0.0
0.002911988038790761 -0.0010753569811868873 0.0
0.0029628658063275476 -0.001062102962084319 0.0
0.003013772183082837 -0.0010479867360468373 0.0
0.003064516031824967 -0.0010332728886177016 0.0
0.003114837477425358 -0.001017712118319559 0.0
0.003164874503593751 -0.0010015358106294555 0.0
0.0032146872898399016 -0.000984587500276924 0.0
0.0032641937642777993 -0.0009668644139471445 0.0
0.003313158389843709 -0.0009485452546189578 0.0
0.003362004455103214 -0.0009294458646058211 0.0
0.0034102005961640525 -0.0009096504853301741 0.0
0.0034579794318630847 -0.000889274485336844 0.0
0.0035055057661176 -0.0008680677659233657 0.0
0.003552348111813462 -0.0008462875815531959 0.0
0.003598872649655688 -0.0008238165518099775 0.0
0.003644884478877014 -0.0008006498831667442 0.0
0.003690531033967298 -0.0007767961330488922 0.0
0.0037357121842835255 -0.0007521500107663898 0.0
0.003780483730276142 -0.0007267543025954771 0.0
0.003824598041178991 -0.0007007155045928642 0.0
0.0038683816001661812 -0.0006739429608935638 0.0
0.003911789066565257 -0.0006463576808503998 0.0
0.003954653559542408 -0.0006179793664158581 0.0
0.003997163857379378 -0.0005888397004654501 0.0
0.004039428277591174 -0.0005587374976596751 0.0
0.004081159919577128 -0.0005277065410134083 0.0
0.0041224667429353695 -0.0004957981396897987 0.0
0.0041636884934333936 -0.00046283101354644833 0.0
0.004204784799399963 -0.00042864434871965173 0.0
0.004245520938090277 -0.0003931613255418742 0.0
0.00428600060676908 -0.00035632057578512284 0.0
0.004326582032743412 -0.0003178492518308296 0.0
0.0043677536168518225 -0.0002773278776434634 0.0
0.004408960331607111 -0.00023448939450767192 0.0
0.0044506991622515445 -0.00018837158916361143 0.0
0.004494990127979754 -0.00013753759257970822 0.0
0.004540470535983339 -7.938342696497242e-5 0.0
0.0045999999943651575 -3.906083947385135e-11 0.0
0.004599999987256268 -4.323360701332209e-11 0.0
0.004599999990740132 -3.1600213804503734e-11 0.0
0.004599999990668119 -2.8300961389221175e-11 0.0
0.004599999991220303 -2.441759450695555e-11 0.0
0.004599999991649629 -2.1350511663825053e-11 0.0
0.004599999991807785 -1.889979359447755e-11 0.0
0.004599999992106861 -1.668514428597106e-11 0.0
0.004599999992186632 -1.4601561072605842e-11 0.0
0.004599999992327983 -1.2566032742621962e-11 0.0
0.004599999992680513 -1.091737785110325e-11 0.0
0.0045999999925746896 -8.75111888431736e-12 0.0
0.004599999992738151 -7.134461195761977e-12 0.0
0.004599999992808033 -5.260076886747905e-12 0.0
0.004599999992805419 -3.4715912019298754e-12 0.0
0.004599999992729925 -1.6067018641345378e-12 0.0
0.004599999992715931 2.0119277787180088e-13 0.0
0.004599999992035602 2.2058228825968567e-12 0.0
0.00459999999245427 3.798820484974472e-12 0.0
0.004599999991384037 5.79344262656245e-12 0.0
0.004599999991363888 7.0955649316517314e-12 0.0
0.004599999990962167 8.5147947465488e-12 0.0
0.004599999991307824 8.946525797636903e-12 0.0
0.004599999991035281 1.2619394180950362e-11 0.0
0.004599999995178127 6.0952613184192855e-12 0.0
0.004263728703565045 0.00026128436451425756 0.0
0.003967108218378967 0.0003805262402214501 0.0
0.003694618220318996 0.00042789017274079205 0.0
0.0034632913480736427 0.00042630450076179007 0.0
0.0033047315105618267 0.00026653609441558125 0.0
0.0032805090076609583 0.00019222356486440047 0.0
0.003231685268226691 0.00015787331274991868 0.0
0.0031733379007806307 0.00014337144123575233 0.0
0.00310450586533066 0.00014194019365048647 0.0
0.003029068635525346 0.00014520998283620374 0.0
0.002948326014898191 0.00015009043906800997 0.0
0.0028637475965810465 0.00015722403430603428 0.0
0.002773756193951838 0.00016311279325137478 0.0
0.0026775960260520698 0.00016684944436152167 0.0
0.002570762870307138 0.0001682764324218316 0.0
0.002442080933766027 0.0001687966202251904 0.0
0.0020948294935279584 0.00018838368079086395 0.0
0.0019747144448466346 0.0002002048586034797 0.0
0.0018757660560775441 0.0002037384621834524 0.0
0.0017896491383281616 0.00020560460457181605 0.0
0.0017117551226831416 0.00020745864354785096 0.0
0.0016414257351895177 0.00021030600846802305 0.0
0.0015785053236042378 0.0002156930836774995 0.0
0.0015251209705601431 0.0002257505673802324 0.0
0.0014836152741399822 0.0002465256188087262 0.0
0.0014557656624439171 0.0002836306461252244 0.0
0.0014455375747128745 0.00034680309230729247 0.0
0.0014472020716322237 0.0004496628835721181 0.0
0.0012747725514297436 0.00061556593380878 0.0
0.0010245032779490982 0.0005752413776463844 0.0
0.0007112587633846109 0.0004755950991408476 0.0
0.00037540575397421795 0.00031207849736063274 0.0
0.0012038605821288611 -0.0008844071357685225 0.0
0.003302085914413335 -0.0009070223082448266 0.0
0.0015469426557948433 -0.0009968815121710298 0.0
0.0029457534330537007 -0.0010246556444971958 0.0
0.0019122722019259783 -0.0010699451792840606 0.0
0.0025818640116118483 -0.0010858829044068496 0.0
0.00222544869607775 -0.0010974387440457545 0.0
0.0035921555120308527 -0.0007891780693971272 0.0
0.0009383522056773672 -0.0007764696882765366 0.0
0.0038076245656120064 -0.0006731436546986244 0.0
0.000723575645793928 -0.0006615783584921039 0.0
7.486082823829985e-5 -1.468321126855899e-5 0.0
0.004523933353231034 -1.4340148927438398e-5 0.0
0.0024718683494623548 0.00018755345392760256 0.0
0.0028321159541655023 0.0001823976196628138 0.0
0.0020618070925139437 0.00019723620750185648 0.0
0.0017299312813159502 0.000224951298246116 0.0
0.004028149784289074 -0.0005374910500378585 0.0
0.0005298593554407733 -0.0005352204287314101 0.0
5.098088123334228e-5 -2.6733578839930475e-5 0.0
0.004547527163154961 -2.4742555585592372e-5 0.0
0.004490548553534614 3.2058320291911617e-6 0.0
0.00010110047190376107 3.860776787016447e-6 0.0
0.004195192295111458 -0.0004099046008124064 0.0
0.00037109309678428005 -0.0004038342795537582 0.0
0.003080657617261629 0.0001711301316980636 0.0
0.001520731263411211 0.00023523833844479563 0.0
3.7731696079397764e-5 -2.9290822176803712e-5 0.0
0.004558553595362935 -2.8182460084189753e-5 0.0
0.001757871511981766 -0.0010430811220475248 0.0
0.0020671460209411843 -0.0010875792078765235 0.0
0.0027902228513181884 -0.001057938813698893 0.0
0.002386815938373763 -0.0010969304349363672 0.0
0.0030996167268891243 -0.0009796319118216628 0.0
0.003439154759698632 -0.0008580357750086415 0.0
0.0014098953115440087 -0.0009580224112584212 0.0
0.001071360295455043 -0.0008386551321080878 0.0
0.004312755934592617 -0.0003078378673827373 0.0
0.0002577790777756678 -0.0002990607127983408 0.0
0.0044604860668904485 2.8835229591253464e-5 0.0
0.00012586498124559167 2.4351246360670794e-5 0.0
0.004565355674313481 -3.131605732969528e-5 0.0
3.481576726808314e-5 -3.5722391190520143e-5 0.0
0.003226951941542104 0.00017585275723488235 0.0
0.0014114370516601514 0.0002732440507555502 0.0
0.0044049427477647445 5.3723828698255966e-5 0.0
0.00017395093630141295 4.7930617090907694e-5 0.0
6.223898157365125e-5 -2.2229173233654323e-5 0.0
0.004535749031962086 -2.120239450355899e-5 0.0
0.002650712749123072 0.00019099372481102604 0.0
0.0018922359742692555 0.00022275692620889003 0.0
0.00014239642508897065 -0.00017280310172151177 0.0
0.004446769232574893 -0.0001742411897250952 0.0
0.003197107170209299 -0.0009511193022011979 0.0
0.0024854070572680777 -0.001095781471334214 0.0
0.0016587001419082433 -0.0010222220109775229 0.0
0.0013043887997664038 -0.0009269154647595008 0.0
0.0026888650728712363 -0.0010731372378839274 0.0
0.003676669041519676 -0.0007472813487010077 0.0
0.0008519484813213401 -0.000731605712297116 0.0
0.0038997955432096528 -0.0006211848647726152 0.0
0.0006372194468577065 -0.0006061372087942858 0.0
0.00044582190597282063 -0.00046819788986731726 0.0
0.0041123302540720455 -0.000475164110031655 0.0
0.0008567409435411128 0.0003347864773702726 0.0
0.003822821791490088 0.00028109702698605717 0.0
0.00456639038385312 -3.582549045565938e-5 0.0
3.0392717570423714e-5 -3.617854549114914e-5 0.0
0.001350740261249604 0.00037857909079642174 0.0
0.0033408906586403016 0.00023793535477360645 0.0
0.00019631116775327293 7.753380397703012e-5 0.0
0.0044001734212433955 7.449799495737163e-5 0.0
6.205679658495626e-5 -7.75251852035585e-5 0.0
0.0045313929879531225 -8.024571031286635e-5 0.0
0.0035740558556838753 0.00031916860035414025 0.0
0.003660919649064214 0.0002494645244495155 0.0
0.003943276722746726 0.00019632948120339234 0.0
0.0037839074771495807 0.00020369900910404277 0.0
0.003567443546351804 0.0002258014431823628 0.0
0.0036474680157535595 0.00021042070046372566 0.0
0.003854333201490327 0.00018059885422975233 0.0
0.0037253840678956127 0.00019297594082836334 0.0
0.003920516493846093 0.0001592653979268657 0.0
0.003801120725464432 0.00017051485066411098 0.0
0.0036181226902121592 0.00019859991909462928 0.0
0.003687394262987136 0.0001752777494897201 0.0
0.003529530624276347 0.00019730432148570758 0.0
0.0035853598441133614 0.00017249315684165405 0.0
0.003441191281059739 0.0001909905618539914 0.0
0.0034914592678892435 0.00016189093626100716 0.0
0.002411909452972023 0.0001263414718965141 0.0
0.002262183012254947 0.00010154823069174882 0.0
0.002379874498746464 9.008233444624173e-5 0.0
0.002258653731478238 7.220132371732163e-5 0.0
0.0023611378953167336 6.230481792513866e-5 0.0
0.0022570072303063566 4.8615445146950755e-5 0.0
0.002349053749023273 3.876221083438215e-5 0.0
0.002255112336540563 2.69098953215019e-5 0.0
0.002340260446790591 1.74878936533801e-5 0.0
0.0022534390298459186 6.812974184926455e-6 0.0
0.0023335919325016066 -2.1027745276859485e-6 0.0
0.002252161930006061 -1.1979397980065322e-5 0.0
0.0023284599327527177 -2.1045274428446407e-5 0.0
0.00225322636374483 -3.0206848521381893e-5 0.0
0.0023244589462749965 -3.920299419730849e-5 0.0
0.0022523136634186413 -4.804304532441351e-5 0.0
0.0023208349305060493 -5.6880082397517185e-5 0.0
0.0022491506830122007 -6.550472429608666e-5 0.0
0.002317281837314732 -7.429053114134e-5 0.0
0.0022477190685840395 -8.267389118921162e-5 0.0
0.002314333683880738 -9.156963090700854e-5 0.0
0.002246590865025347 -9.979438652818096e-5 0.0
0.0023095338945231195 -0.00010870021937464253 0.0
0.002245088656992207 -0.00011698364589343138 0.0
0.002306724774621329 -0.00012596201042707776 0.0
0.002244818648471462 -0.0001338711940540458 0.0
0.002304336920033482 -0.00014332685454448356 0.0
0.002240427698958683 -0.00015020698528166082 0.0
0.002301326922822344 -0.00016080235732114263 0.0
0.0022242013428439237 -0.00016790106726263088 0.0
0.002302491926353147 -0.00017886265067798462 0.0
0.0022375623313353734 -0.00018714516240514808 0.0
0.0022998240233784903 -0.0001970059428442746 0.0
0.0022385143653265265 -0.0002057974698489257 0.0
0.002298201900581109 -0.0002156994216047217 0.0
0.0022411814933844237 -0.0002246660030417394 0.0
0.0022963464986621132 -0.00023472377187921305 0.0
0.0022409195895997536 -0.0002442329880296081 0.0
0.002173340826159915 1.812676753993396e-5 0.0
0.0022944737537548268 -0.00025431068144411495 0.0
0.002179266734748361 -7.280998244317757e-5 0.0
0.002166588564437304 -0.00018196933000042036 0.0
0.0022361393905730546 -0.0002640406873302943 0.0
0.0022921866896813982 -0.0002744426940200542 0.0
0.002231475850673639 -0.0002851352750991563 0.0
0.0021762745368467283 -0.0002727784296016149 0.0
0.00217020661613611 -0.00029493586487794305 0.0
0.0022876654734569303 -0.0002963797133731804 0.0
0.0023490756225157485 -0.0002849047641040389 0.0
0.0023587586818390968 -0.00018750914955973776 0.0
0.002344876202843848 -0.00030749467559215845 0.0
0.002409930224998447 -0.00029384124542619926 0.0
0.002403588223528704 -0.0003185293506836102 0.0
0.002115552414816888 -0.0002819787051996604 0.0
0.0021117126142896855 -0.00030376222642282684 0.0
0.0024705435214185207 -0.0003036482018458672 0.0
0.002053564039833508 -0.0002900772452790139 0.0
0.0020533146425202394 -0.00031299266425284267 0.0
0.0024652712883910573 -0.0003286541318688401 0.0
0.0025300208010971283 -0.0003149123866350143 0.0
0.0019911665907784313 -0.00029835995236969964 0.0
0.0019894749145071716 -0.0003220259880379867 0.0
0.002526119113990294 -0.00033979966763742994 0.0
0.002592551049747134 -0.00032521943625759083 0.0
0.0019290334433770063 -0.00030667899058447535 0.0
0.001926793229699889 -0.0003318340285733585 0.0
0.002588479190906441 -0.0003514383313746096 0.0
0.0026565329509451027 -0.0003353974998272893 0.0
0.001867339529702214 -0.0003137383091790925 0.0
0.0018609688731174247 -0.00033974755413988865 0.0
0.002653295637079991 -0.00036233561658452777 0.0
0.0027215631414805796 -0.0003453731862831947 0.0
0.001799506461601177 -0.00032086347930484533 0.0
0.001794741206065729 -0.00034846026446082133 0.0
0.0017297963223017062 -0.00032973380156961865 0.0
0.0017341371506328501 -0.00030050702465809896 0.0
0.0025788704916937504 -0.0003773508960001621 0.0
0.0027180170154614248 -0.0003734164822673261 0.0
0.0027874909961890866 -0.0003552090730862552 0.0
0.0027921766544832943 -0.00032647368566298725 0.0
0.0023728995476092014 -0.00010094443628440245 0.0
0.002860589081142313 -0.00033580481523760977 0.0
0.0028658644424791563 -0.00030603797437165486 0.0
0.0029362740942342723 -0.0003144443773033055 0.0
0.0017304245652193261 -0.00035964673405142563 0.0
0.0016625865970117185 -0.0003377403529829053 0.0
0.0017941013914228665 -0.00037818847788382594 0.0
0.0027819678488895396 -0.00038477120811512903 0.0
0.0016639690034064058 -0.0003685397212596473 0.0
0.0015953830133317855 -0.00034494727909249213 0.0
0.0024006763320516275 -2.871259987771413e-5 0.0
0.0015964304351458968 -0.0003752124798887311 0.0
0.0015280173162224324 -0.00035123573698634606 0.0
0.001529193472978219 -0.00038234541878990545 0.0
0.0014617244742256568 -0.0003561014387128298 0.0
0.0014590462614066002 -0.00032577838909823777 0.0
0.001388909029442689 -0.00033152952434647315 0.0
0.0013872003146016495 -0.0002994994938000938 0.0
0.0014548159116925497 -0.00038703024333499653 0.0
0.001312008166157098 -0.0003056717728105807 0.0
0.0013097003154113433 -0.0002728795784155985 0.0
0.0015308040381139638 -0.0004153523953976081 0.0
0.0014674901864733614 -0.0004225861682775333 0.0
0.001236347694300511 -0.00027649293035257377 0.0
0.0012315626741673583 -0.00024461907105181884 0.0
0.002943567627124075 -0.00028436238206756305 0.0
0.0030166035413196775 -0.00029239917577569884 0.0
0.0015321325489414065 -0.00044886373387433546 0.0
0.0014695020885096487 -0.00045595667418925324 0.0
0.0030247438964126567 -0.00026144393777107497 0.0
0.0031011006844152687 -0.00026978207351947424 0.0
0.003089898988222438 -0.00030373732574500583 0.0
0.0031747282238315873 -0.00027929425027756844 0.0
0.003165022729327784 -0.0003141319592260173 0.0
0.003249747242754128 -0.0002870236552720947 0.0
0.0032444273983921103 -0.0003216949638840702 0.0
0.003331745309953496 -0.00029106466007979123 0.0
0.00331920137014278 -0.00032649595674349963 0.0
0.003337078156997874 -0.0002578629691533829 0.0
0.0034077640215560523 -0.0002964715707330867 0.0
0.0033907666523237253 -0.0003317936955814707 0.0
0.001534054183031633 -0.0004830656484627149 0.0
0.0011544189243429203 -0.0002474770878090015 0.0
0.0011481913011109684 -0.00021521346984433592 0.0
0.003309608258760373 -0.0003629464089252084 0.0
0.0033786384762070306 -0.0003677818065579242 0.0
0.0034584327396305617 -0.00033617688068766856 0.0
0.0033033063479276288 -0.0004003671474667137 0.0
0.0014727959599824044 -0.0004904180499195516 0.0
0.0034467255685988823 -0.00037175400775439984 0.0
0.003524601773178155 -0.00033929352143541124 0.0
0.0015356971428397003 -0.0005182934897229304 0.0
0.0014755047493870362 -0.0005259210880613926 0.0
0.0014136153472732935 -0.0004968985804289579 0.0
0.003512464137700322 -0.00037449362935287526 0.0
0.0035891842241342147 -0.0003407766598516229 0.0
0.0015370364221351284 -0.0005546466775340149 0.0
0.0015966371827580267 -0.0005465155753568711 0.0
0.0014169239848930816 -0.0005327227670315098 0.0
0.0013556164252530836 -0.0005027199218381086 0.0
0.0035748600343899553 -0.0003761781905900465 0.0
0.0036532023365139802 -0.0003410987734234701 0.0
0.0036666831843909647 -0.0003067458120303482 0.0
0.003497836667656509 -0.00041143410785167775 0.0
0.0037306728168518904 -0.00030581468564664895 0.0
0.0037463880119318897 -0.000272298695724525 0.0
0.0010665477952411621 -0.00021796252276025895 0.0
0.0010646994031251113 -0.00018477059152754768 0.0
0.001162521833683236 -0.00018382802728569896 0.0
0.001059783879636468 -0.0001524056914143239 0.0
0.001153481861391601 -0.00014675672906714178 0.0
0.0010538610417264028 -0.00011880521262289538 0.0
0.0011448192330745365 -0.00011150579961122108 0.0
0.0015977937648834393 -0.0005832279529445042 0.0
0.001655983772672126 -0.0005744077801385106 0.0
0.001359219856644571 -0.0005388519605503934 0.0
0.0012985008016402674 -0.0005077808168733152 0.0
0.0037163083654893074 -0.00034022554613805485 0.0
0.001057685779923552 -8.5472936158594e-5 0.0
0.0011435861103724963 -7.671538234001159e-5 0.0
0.0016571565344438571 -0.0006111577511542997 0.0
0.0017140170980255549 -0.0006021468264288574 0.0
0.0019985471330777695 -0.00034497518770395494 0.0
0.0037928538727546642 -0.00030377074084454004 0.0
0.00244272433247736 5.559629923420999e-5 0.0
0.0025414617360822577 0.00016647907163383602 0.0
0.002180691021578033 -0.00012451543375268187 0.0
0.003105919970673633 -0.00023809319722893906 0.0
0.0010489204581290528 -5.018158165501766e-5 0.0
0.0011490611553058576 -4.06495859630341e-5 0.0
0.0013025654575955605 -0.0005441882714172666 0.0
0.0012427403829178365 -0.0005122887833600725 0.0
0.0017159889495912042 -0.00063906391408068 0.0
0.0017724192629052146 -0.0006296664929850116 0.0
0.003777010464653534 -0.000337773553543742 0.0
0.0009799800976790535 -0.00018762639603747116 0.0
0.0009843132511129736 -0.0002210857150091085 0.0
0.0009495336431482719 -9.053176182179897e-5 0.0
0.0038529526116907885 -0.00030029095779751284 0.0
0.0010473788241916718 -1.636355332121248e-5 0.0
0.0011480743255978022 -3.709683397825386e-6 0.0
0.0016598855718344674 -0.0006490586938999259 0.0
0.0012475316936193194 -0.0005491813219663057 0.0
0.001188052975919876 -0.0005159101431231466 0.0
0.0030299531097486504 -0.00023043908889129475 0.0
0.0031146865679988027 -0.00020618306384296772 0.0
0.0030342842758009476 -0.00019867216847338322 0.0
0.0031237753096585697 -0.00017417994910697105 0.0
0.0017735776556414699 -0.0006664532375755707 0.0
0.0018305628913322602 -0.0006556629512984889 0.0
0.0019338756283284644 -0.00028420411095771847 0.0
0.00104556289257679 1.6723062138325466e-5 0.0
0.0011437037960199074 3.217999936955928e-5 0.0
0.0038375441709260056 -0.00033314628281091535 0.0
0.0037691141981242566 -0.0003679753609784626 0.0
0.0010220005743836634 5.185892896061047e-5 0.0
0.0011357408315048666 6.921566614596259e-5 0.0
0.00391073657135386 -0.0002957443034289542 0.0
0.003918618542678044 -0.0002708145368039056 0.0
0.0010327298131422304 8.573170004501504e-5 0.0
0.0013052546789634118 -0.0005847719102961591 0.0
0.0018307433998149894 -0.0006934661440974269 0.0
0.0018873600952338308 -0.0006811192278157486 0.0
0.0018879577121934247 -0.0006436815083102238 0.0
0.0019447161818585514 -0.0006682505633639517 0.0
0.0019458256022078266 -0.0006313044261149196 0.0
0.00200288868570431 -0.000654876639434653 0.0
0.002004288198859717 -0.0006179496687185973 0.0
0.002062234965023022 -0.0006408486006593461 0.0
0.00206407193454132 -0.0006041724133096908 0.0
0.002122494294076088 -0.0006260350550438658 0.0
0.0021205997309291374 -0.0006636595867800521 0.0
0.0021805881169885445 -0.000647893657808681 0.0
0.0021783697985726987 -0.0006861047920622211 0.0
0.002238088063705598 -0.0006693559281346624 0.0
0.0022351802783701926 -0.0007082108147542808 0.0
0.0022953767019592095 -0.0006903718262023709 0.0
0.002124938937098945 -0.0005897339280568938 0.0
0.002298225667089438 -0.0006517513632349992 0.0
0.0023562487689420793 -0.0006715851130089735 0.0
0.002352592154179278 -0.0007114878650481505 0.0
0.0024141737684612594 -0.0006917308310118171 0.0
0.0008961455269068284 -0.00018936377017405738 0.0
0.0008999216093359626 -0.0002225739951544685 0.0
0.0011931800314542583 -0.0005529162079169484 0.0
0.0011349131887544363 -0.0005190489248544845 0.0
0.0024184142110182318 -0.0006522405331502273 0.0
0.0024762491478372093 -0.00067093925545697 0.0
0.0024712256759214803 -0.0007112241659573703 0.0
0.002534335644104002 -0.000689170759253383 0.0
0.0008141127490201492 -0.00018996667052312502 0.0
0.0008178365840269834 -0.0002223745965345446 0.0
0.003039208808512957 -0.00016571156538419974 0.0
0.003134480430522581 -0.00014135822179627965 0.0
0.003047160275027631 -0.00013275187836342894 0.0
0.003897094226986919 -0.0003261706417108532 0.0
0.003967246705886981 -0.00028923571620098257 0.0
0.001887250129859588 -0.0007200705698410858 0.0
0.001252308548603376 -7.357615455612108e-5 0.0
0.002401535321807036 -0.0003413744922042104 0.0
0.0025284496824100463 -0.000730133723779528 0.0
0.002591676118691646 -0.0007069271876333937 0.0
0.0025962760495292342 -0.0006660230493376298 0.0
0.0026547056995006027 -0.0006822535591688501 0.0
0.002537214992295836 -0.000288623247494753 0.0
0.0031503830611902266 -0.00010761681221086151 0.0
0.003231361061186543 -0.00012217263499996256 0.0
0.0011362465270077524 0.00010643133359489316 0.0
0.0011397768515658685 -0.0005557343212085021 0.0
0.0010826643563218476 -0.0005211408639990454 0.0
0.0030576758685833733 -9.859946831460729e-5 0.0
0.0026486446463579636 -0.000724217723527988 0.0
0.0027127058510484523 -0.0006990720770083018 0.0
0.002718592972885482 -0.0006571972301889879 0.0
0.0027779276774184273 -0.0006731860614887379 0.0
0.002785086497605784 -0.0006324587375594556 0.0
0.002843490277047126 -0.0006463835270430085 0.0
0.00283512225030457 -0.0006874923712239489 0.0
0.0029000760012998263 -0.0006592320614974562 0.0
0.0010280176340886002 0.00011731901577356466 0.0
0.0007346107757399577 -0.00018919032060495962 0.0
0.0007378167479481187 -0.00022020461901767587 0.0
0.00183230265095936 -0.0007327951196734218 0.0
0.003951113184215879 -0.00032062438004182335 0.0
0.004021216609671838 -0.00028154093316180113 0.0
0.002890279031695766 -0.0007004436204570158 0.0
0.002954446097493991 -0.0006709910932722267 0.0
0.001137225660207973 0.0001417625523842924 0.0
0.0010881938215946568 -0.0005579134494199738 0.0
0.0010310820057497017 -0.0005219509244721121 0.0
0.0012440147928439818 4.767457405846944e-5 0.0
0.0036342303829419984 0.0001437172560229935 0.0
0.0018871494947409065 -0.0007600481320976432 0.0
0.0010245745870868423 0.0001460527828680174 0.0
0.0009548418924714754 1.8270276526978694e-6 0.0
0.0039989619359630645 -0.0003201818171273354 0.0
0.004073234627449561 -0.0002732681876552149 0.0
0.004090843725041979 -0.0002426479231898332 0.0
0.0009221103293093215 9.415779465013577e-5 0.0
0.003924863432049728 -0.0003573364262838995 0.0
0.0007261974053799925 -0.00015863975597772744 0.0
0.0011403586915358186 -0.0005908248294843012 0.0
0.0031658028672191165 -7.286941873310111e-5 0.0
0.003070023479035207 -6.330512244076886e-5 0.0
0.002852189532693731 -0.0006063903075475506 0.0
0.0010371999348099544 -0.0005595870458797119 0.0
0.000980232698177699 -0.0005225319866166431 0.0
0.000657507111143238 -0.00018680404532545286 0.0
0.0006600952568302112 -0.00021591881475653115 0.0
0.001238349439164539 -0.0004774553762236373 0.0
0.00294328556315653 -0.000712187030636073 0.0
0.0030068136880167483 -0.0006812545454289509 0.0
0.0009739594589854272 -0.00048565882627123115 0.0
0.0009229322093211169 -0.0004851570508113177 0.0
0.002883144340110317 -0.0007397186966175799 0.0
0.0018341933503601344 -0.0007731527850940981 0.0
0.0009302204340333022 -0.0005226030760152778 0.0
0.0008731536181541472 -0.0004841597087085648 0.0
0.0019457545317880368 -0.0005960621473096118 0.0
0.004142964384440373 -0.00023249895160745831 0.0
0.004160780333634976 -0.00020485949497970888 0.0
0.004126058862666706 -0.00026167777643169203 0.0
0.0029940780719977106 -0.0007218893287740307 0.0
0.003057358811458159 -0.000689887082457679 0.0
0.0027918519081139514 -0.0005927817649022785 0.0
0.0028603216348435153 -0.0005675586824370285 0.0
0.0018875882663471047 -0.0008008748458033974 0.0
0.003070476667901337 -0.0006498069999674721 0.0
0.0031213813681914373 -0.0006580318643253288 0.0
0.0005816897169799551 -0.00018156869956377557 0.0
0.0005873135912350178 -0.00020980051713693858 0.0
0.003107610751003048 -0.0006988520757735205 0.0
0.003170606053210289 -0.0006660371381931276 0.0
0.0008820955141418591 -0.0005222285207654647 0.0
0.0008249753421835704 -0.0004826249959784675 0.0
0.0031815541036465094 -3.704131612056104e-5 0.0
0.0030848354273550825 -2.6893169673384407e-5 0.0
0.0008154167138253524 -0.00044628350420929314 0.0
0.0007670917029429773 -0.00044322366438763786 0.0
0.0007763298165885127 -0.00048009632496890504 0.0
0.0007187927482815085 -0.0004395699352697939 0.0
0.0041931989604157855 -0.00022088430967851305 0.0
0.004175805069235508 -0.00024972846631906296 0.0
0.0011329034940972711 0.00017143354941930773 0.0
0.0010107687237196187 0.00016992939090352155 0.0
0.0029593787103807424 -0.0001227747029987734 0.0
0.0018359769487360672 -0.0008143294537635266 0.0
0.003156604304886379 -0.0007080066575932243 0.0
0.003218277153262559 -0.0006738502565106068 0.0
0.003349532377547673 0.00017976016241865955 0.0
0.003135191828605891 -0.0006180198373124061 0.0
0.0021763341389235127 -0.0007254646536679213 0.0
0.0007079289494230556 -0.00040447747240663154 0.0
0.0006611094998410969 -0.00039903828355126254 0.0
0.0006721878871584876 -0.00043543672493042904 0.0
0.0006143908198545949 -0.0003933585313521309 0.0
0.0006033074943485977 -0.0003589865818241726 0.0
0.000555219691779304 -0.0003519494339683027 0.0
0.0005437767819300473 -0.0003182779299661435 0.0
0.0004950771744152542 -0.00030954339937273005 0.0
0.0004836909019564295 -0.0002779374716801091 0.0
0.0004377988446944661 -0.00026844870027729 0.0
0.00042564835836544495 -0.0002392552262152082 0.0
0.0004482806977583195 -0.00029904836843817786 0.0
0.00038620305178937775 -0.0002513976829692064 0.0
0.0005112600524458711 -0.00017492787878587308 0.0
0.0005100162227381837 -0.0001497978283627467 0.0
0.0004021881985375904 -0.0002869968601790922 0.0
0.0003455130931150531 -0.00024305219309121774 0.0
0.001245756316777196 0.00016439844917369835 0.0
0.0013723197261209042 -0.0002647119488312742 0.0
0.00279900001666652 -0.0005545366796639581 0.0
0.002867481935460305 -0.0005300002959236422 0.0
0.0008165435617188722 -0.00025300990663470904 0.0
0.0018879274840010527 -0.0008427297281252443 0.0
0.0019399690916335947 -0.0008285732657133723 0.0
0.0029292074623183673 -0.0005417545272430627 0.0
0.0029368212310270127 -0.0005044274582738646 0.0
0.004241403559011576 -0.00020772764675100244 0.0
0.004221065455415998 -0.00023755126188284927 0.0
0.004157155012333547 -0.00028232008795573424 0.0
0.0029728626436489347 -5.349565382750881e-5 0.0
0.0029867107399053835 -1.7015001683815107e-5 0.0
0.0017830208469955281 -0.0007857082331751105 0.0
0.0017850559914914658 -0.0008269916430778935 0.0
0.0017329118112815356 -0.0007978759842367666 0.0
0.0006278667281731341 -0.00043075896556095763 0.0
0.003101057826893243 1.0661775434734693e-5 0.0
0.0030023147500071587 2.1617252342707626e-5 0.0
0.0012373767584873718 -0.00031083319515677084 0.0
0.003203091061238375 -0.0007167078990348635 0.0
0.0032648686998554915 -0.0006813358339914145 0.0
0.00328065391227124 -0.0006400329716470106 0.0
0.003326883488865407 -0.0006462392059665594 0.0
0.0011567946594254286 0.0001992199046933103 0.0
0.0010109943760763995 0.00019148680080703648 0.0
0.0017110856919555497 -0.0005668265925335654 0.0
0.003142822601958765 -0.0007517367179172437 0.0
0.0038589886868109382 0.00014567796434261163 0.0
0.003310354022518127 -0.0006896804459323104 0.0
0.0033727433516171786 -0.0006531943258157244 0.0
0.003389168028987387 -0.0006108012155739348 0.0
0.0034355442264868094 -0.0006165730170578747 0.0
0.003452831771897932 -0.0005746489614352211 0.0
0.0034985601537373024 -0.000579421366112925 0.0
0.003480677572023429 -0.0006228681778981163 0.0
0.00354290861287215 -0.0005845882820524046 0.0
0.0003582205935976377 -0.0002720127332421407 0.0
0.0003031339514088926 -0.00022750622798310932 0.0
0.00028362082967442725 -0.00019639709392201647 0.0
0.0019401331049515244 -0.000870963963455315 0.0
0.0019900668611003425 -0.0008579337447284125 0.0
0.0017356171824266333 -0.0008393348106152101 0.0
0.0016836865937343776 -0.0008093235661185378 0.0
0.004199657667523045 -0.00027186791474821415 0.0
0.004262472246802883 -0.00022549658756067722 0.0
0.0033030303346162897 0.00020574114985538554 0.0
0.0032153933412650305 0.00019429896296200894 0.0
0.0008791941914048351 0.00016137700130266073 0.0
0.0008765207436901832 0.00017997198056266624 0.0
0.00041563812667467766 -0.0003207250845034423 0.0
0.0015964193456322689 -0.0004410856173753912 0.0
0.002936241224877969 -0.0001933392322231095 0.0
0.004137569745431086 -0.00031873125040612313 0.0
0.0012401166103724194 -0.00013444088423664985 0.0
0.002875530344497122 -4.422247311773331e-5 0.0
0.0035232437362571313 -0.0006297981829038581 0.0
0.003585226514611205 -0.0005902482958125014 0.0
0.003519369071637946 0.0001291304782583451 0.0
0.00368029572913153 0.00011199544571739187 0.0
0.0011373470444988433 0.0002178672705231498 0.0
0.000662010472096602 -0.0002448561173235302 0.0
0.0004319371702241327 -0.00014093165011313844 0.0
0.0004322085770506358 -0.00011822651959574755 0.0
0.0006832455933408422 -0.00047371871144260294 0.0
0.0033592750229929115 -0.0006984170808606146 0.0
0.0027104055520494378 -0.0004021602301328604 0.0
0.00246702448160707 -0.0007528088941800477 0.0
0.001541402384804509 -0.0005903873887323612 0.0
0.00031593609038402275 -0.00025575324885609833 0.0
0.00026288442624127184 -0.0002104995375227994 0.0
0.0009390268954486865 -0.0005619407185657334 0.0
0.00299937846052716 -0.00051501115745668 0.0
0.003007499092313596 -0.0004781254918544548 0.0
0.0017851931849129617 -0.0008699094023669747 0.0
0.0035890650262617916 9.30654709369708e-5 0.0
0.0037269091810019973 8.055465798812639e-5 0.0
0.003641534588579931 5.8715234408088036e-5 0.0
0.0037753004124759246 4.888775029064091e-5 0.0
0.003857816429928956 6.854927289331275e-5 0.0
0.0039053565061596632 3.998125224450531e-5 0.0
0.00382177333837186 1.759739312990733e-5 0.0
0.003947740877017003 1.2145170061878433e-5 0.0
0.0038650463904976486 -1.2047708271020392e-5 0.0
0.003988683849201951 -1.3709517025187488e-5 0.0
0.003908323645737468 -3.996046681986371e-5 0.0
0.004026902563176935 -3.732830925116229e-5 0.0
0.003949009223290887 -6.578589204246724e-5 0.0
0.0040636297243052625 -5.881429324693998e-5 0.0
0.003825570006060465 -7.118753921899065e-5 0.0
0.003988004818761591 -8.855340872801221e-5 0.0
0.004095830914975623 -7.853389095554663e-5 0.0
0.0039895584627608685 5.591484374598573e-5 0.0
0.0009145244921865278 -0.000448854452342748 0.0
0.0008920976488762034 -0.0005620250412532796 0.0
0.0009469160565854356 -0.0006021926055992631 0.0
0.004025436779618283 -0.00010887725990833107 0.0
0.004127826799738763 -9.549956118151643e-5 0.0
0.003923108380907054 -0.00011991109448777731 0.0
0.0025224058577493656 -0.0007721967783572111 0.0
0.0024615897156726545 -0.0007950464407124084 0.0
0.002515865933313899 -0.0008149081615007904 0.0
0.0024566903788527114 -0.0008381819960716446 0.0
0.0025093157830650497 -0.0008584413508864947 0.0
0.002452400039417752 -0.0008821495424696834 0.0
0.0023997697099306 -0.0008610899730196917 0.0
0.0023964983704241965 -0.0009050886458839948 0.0
0.0023452890784236837 -0.0008830423021373407 0.0
0.0021312216188945168 9.21299373795579e-5 0.0
0.0025031761989258187 -0.0009030387105405702 0.0
0.0025593717236082037 -0.0008780468568256918 0.0
0.0021044385019364457 -0.00032758029420553765 0.0
0.0020657104219245904 -0.0005687525349333039 0.0
0.002127316471758331 -0.0005546976657499281 0.0
0.0020673159032650284 -0.0005345350043286457 0.0
0.0021296067880654736 -0.0005209263310014798 0.0
0.0020689576766821757 -0.0005015703653958904 0.0
0.002131864368666429 -0.0004884729389853107 0.0
0.0021927403149208527 -0.0005068518387242882 0.0
0.0021955054954171096 -0.00047493901327445935 0.0
0.0022566055456119858 -0.0004923777339194004 0.0
0.002259686385272515 -0.00046097774834546 0.0
0.0023183154872303503 -0.000477386563972245 0.0
0.002198384654933445 -0.0004433932749468016 0.0
0.0020706567660815174 -0.0004698201124663427 0.0
0.002007541085029822 -0.0004820504554188558 0.0
0.002314693541030801 -0.0005100938524662005 0.0
0.002379565049637191 -0.00049219588714288 0.0
0.0009018769547666313 -0.0006028262578156882 0.0
0.002179690432490017 -0.00021488560422808865 0.0
0.0021779110642008966 -2.208155734586394e-5 0.0
0.0024813266214293436 -0.0006322282226485269 0.0
0.004259151181166203 -0.00018219918314532217 0.0
0.004304874470290582 -0.0001684505994280668 0.0
0.0023884646742545995 -6.468034031995917e-5 0.0
0.0023675351024416784 -0.0001323905979760012 0.0
0.0034050923729125092 -0.0005701444980132696 0.0
0.0029243191309986922 -0.0003452965723331315 0.0
0.004242061801352214 -0.00025862716105861506 0.0
0.004301474346624237 -0.0002125209698394796 0.0
0.0023572396701693997 -0.00022579815600602064 0.0
0.0016868314821841008 -0.0008511958624779067 0.0
0.0016351722704611928 -0.000820405403310594 0.0
0.00241995134055995 9.561898655160878e-6 0.0
0.0023419929833846656 -0.0009272286416328654 0.0
0.0022907246078002572 -0.0009024684525186016 0.0
0.0016321179346773977 -0.0007790107559880874 0.0
0.0015831363465176648 -0.0007893581582070543 0.0
0.0015798729288824533 -0.0007483736469123699 0.0
0.0015306823627792175 -0.0007578694421679846 0.0
0.0015348516661775969 -0.0007993788646246756 0.0
0.0014826313997045423 -0.0007670034628175874 0.0
0.0014872168246473044 -0.0008089874202368045 0.0
0.0014350757898895742 -0.0007757989569919347 0.0
0.0006416637246413835 -0.0004700511467741851 0.0
0.0043227333548700436 -0.00014568348204534447 0.0
0.0031169166581650966 4.948365988193905e-5 0.0
0.003015574136568074 5.9684190623325847e-5 0.0
0.0014133592741386676 -0.0004299879982403879 0.0
0.0011357122929650614 -0.00048352951672734815 0.0
0.004164129322462196 -5.393531359998037e-5 0.0
0.00410846166191837 -1.6059611840082318e-5 0.0
0.0019892381926166196 -0.0008999988927177894 0.0
0.002040437311878565 -0.0008856236418928547 0.0
0.003187423831174773 -0.0007614430235763675 0.0
0.0005961434417694958 -0.00032578308031996564 0.0
0.0026609887070368223 -0.00030978101103540314 0.0
0.0029042372905872357 3.123515289743876e-5 0.0
0.0029162240471722186 6.920825029442695e-5 0.0
0.003470620966324036 -0.000534517414925912 0.0
0.0035356185435861734 -0.0003046893684323078 0.0
0.0036055708400414854 -0.0005467020658062791 0.0
0.0036485767034035318 -0.0005501882003214559 0.0
0.003625707780315468 -0.00059677818517293 0.0
0.0036898606809037237 -0.0005548470334200107 0.0
0.0020639629399654617 -0.00026852851806715317 0.0
0.0006940141547778723 -0.0005131647233820974 0.0
0.002317926259656271 -0.00044561326880960205 0.0
0.003738441627117394 -1.2007808497984775e-5 0.0
0.002001020642047768 -0.000816764668388666 0.0
0.000954039938999822 -0.0006430842445637172 0.0
0.0009993074797842718 -0.0006422022957450552 0.0
0.003128862603534385 -0.0007968887975389649 0.0
0.0015264794647296689 -0.0007176176577220149 0.0
0.002805358210969243 -0.0005177107241098794 0.0
0.0027371844781353834 -0.0005408267895569446 0.0
0.00428091767611076 -0.0002457443680647164 0.0
0.004339861926209245 -0.0001974713674268954 0.0
0.00435826455884811 -0.00017002567739424324 0.0
0.0012762755083843714 0.00022625513297433366 0.0
0.00027585137147221445 -0.00023738117014548318 0.0
0.00022397702197602824 -0.0001904757846098199 0.0
0.0002165477857568531 -0.00017045114222715118 0.0
0.0031720447028264877 0.00021730138467343851 0.0
0.0032531511066930838 0.00022223313827369684 0.0
0.0030869151010053534 0.00020594464324044984 0.0
0.0032790893801587077 -4.73640641990368e-5 0.0
0.004061996039590854 -0.00012488274038464082 0.0
0.004162224258410961 -0.0001085473267191871 0.0
0.00163887057376072 -0.000862815755510794 0.0
0.003212774920938521 -0.00018151254938956213 0.0
0.0007422118294244098 0.0001479270191832849 0.0
0.0007318021018877354 0.0001623773457323712 0.0
0.0008746837539891024 0.00019564860366188424 0.0
0.0007167611047213173 0.00017380545937045906 0.0
0.0009177372375643385 0.00021917776002000882 0.0
0.002288731251469586 -0.0008575839308483729 0.0
0.001429374936600394 -0.0007345043923524281 0.0
0.0013830728648788443 -0.000742525374057087 0.0
0.0013885089376023346 -0.0007843273463564566 0.0
0.0013370780616807952 -0.0007503533813736739 0.0
0.0037108944856253136 -0.0005104127950285721 0.0
0.003752005149003883 -0.0005139663794874377 0.0
0.0037308656792173897 -0.0005600097755115841 0.0
0.0037914741746371064 -0.0005179857843994049 0.0
0.0029433284931980686 -0.0004678907299512628 0.0
0.0030149605325967784 -0.0004424762069518719 0.0
0.002552502537946143 -0.0009227900678618061 0.0
0.0026074396238289508 -0.0008965645913053314 0.0
0.002008898534730605 -0.00045065253396780536 0.0
0.0019454420301877877 -0.00046212967693315594 0.0
0.001933522859814366 -0.000915560332048897 0.0
0.0013425859598032055 -0.0007919150414704166 0.0
0.00129216184220627 -0.0007576623398373635 0.0
0.004094472103704397 -0.00032802240100443715 0.0
0.004074198189851163 -0.00036701137522580766 0.0
0.004032691542126807 -0.000374276772446868 0.0
0.004017824220212981 -0.00041128897476145026 0.0
0.0020390769137590783 -0.0009310756527975054 0.0
0.00032426532248801146 -0.0002832677752651895 0.0
0.00047553685300760046 -0.00024938998890066815 0.0
0.00041064969329135474 -0.00021043770703240442 0.0
0.00035131758497136103 -0.00010841584778384677 0.0
0.0003474197406097124 -8.818176866229246e-5 0.0
0.00043339732591737926 -9.567627544320524e-5 0.0
0.0003454395894373814 -6.867250257080817e-5 0.0
0.00043474744578664575 -7.293786118797538e-5 0.0
0.00034389926102631606 -4.9535906311510885e-5 0.0
0.0004376573615598669 -5.0257501390581346e-5 0.0
0.004115965507526262 -0.0003584981854292251 0.0
0.0013294571332459586 -0.0007098350803588136 0.0
0.0034212661474934767 -0.0005317731564331046 0.0
0.003083712503284189 -0.0007847669259374018 0.0
0.0030710102074671826 -0.0008320581018745198 0.0
0.0030266764401421253 -0.0008193990424113352 0.0
0.0022887092023691747 -0.0009478484979976616 0.0
0.00319619826765323 3.460491114213569e-5 0.0
0.00377043392413216 -0.0005654898460774078 0.0
0.004396411378033489 -0.00015264206270373026 0.0
0.004376900270662781 -0.00018061668847831923 0.0
0.0012548730639596632 0.00023794401796870082 0.0
0.0031067870836434973 8.483979895936852e-5 0.0
0.002422369460780988 -0.0006143441370379954 0.0
0.0024848113173368963 -0.0005949284122114642 0.0
0.0023950243816261486 -0.000950616341081851 0.0
0.0022379718967823407 -0.000921932306702306 0.0
0.0009955281252927478 -0.00025938175358029754 0.0
0.004223825820377186 -8.162665105309209e-5 0.0
0.004255726044132214 -9.109309968331201e-5 0.0
0.004193266527072323 -0.00011921882055347049 0.0
0.004282915929412699 -9.954849546104631e-5 0.0
0.003558926601642784 -0.00041235269442157975 0.0
0.002699802137170785 -0.0007427653474179475 0.0
0.002742819192177444 -0.000504956212669616 0.0
0.0020038518226628186 -0.0006934232742215216 0.0
0.0028683100690399923 -0.0002764688589865923 0.0
0.003070474827222964 -0.0004877443546477775 0.0
0.0030831192481926882 -0.0006110390894243491 0.0
0.0031487473917373296 -0.0005795457235432747 0.0
0.0031162695107543807 0.00022900845921931966 0.0
0.0032149354133985445 0.00022786192413383068 0.0
0.0010055004593182838 -0.0006834160013015657 0.0
0.0010488366045911682 -0.0006812412785777639 0.0
0.00034304850674677327 -3.05739529325166e-5 0.0
0.0004372270917115693 -2.7787497370545872e-5 0.0
0.0005344468707317937 -4.825588465233407e-5 0.0
0.000537319714814879 -2.1893177236713e-5 0.0
0.0004392163189757864 -5.990953985017623e-6 0.0
0.0005438379568310116 3.814474080597752e-6 0.0
0.0004430643709799589 1.4970034012224271e-5 0.0
0.0005533906957408538 2.9110719052089993e-5 0.0
0.0004468075453951023 3.510415607655857e-5 0.0
0.0002375816910047513 -0.0002169570470535235 0.0
0.0026748335815951862 -0.0005266526357227144 0.0
0.00018743374217899318 -0.00016931096475258125 0.0
0.0009110311664545499 -0.000644315983182223 0.0
0.004368994655392918 -0.00012996904762836465 0.0
0.0021866571617723484 -0.0005747332983063651 0.0
0.0028071916576608734 4.0281972599194395e-5 0.0
0.0028238282219223212 8.109213269120097e-5 0.0
0.0005615042539319483 5.3891767512805186e-5 0.0
0.0006544940701408988 -0.000510412158205886 0.0
0.0006030406545475895 -0.0004663366102778591 0.0
0.001394263948400974 -0.0008341895345411184 0.0
0.003166709972111694 -0.0008103549326352416 0.0
0.0016895842414709431 -0.0008943474853473263 0.0
0.0038301935548081586 -0.0005219092046904157 0.0
0.004414766115710995 -0.00012905916346153885 0.0
0.0019444148000537231 -0.0004941285282837458 0.0
0.001882632887517333 -0.0004731337828342131 0.0
0.0018817387981158332 -0.00050584347049689 0.0
0.0013781687393913718 0.00024208398223069327 0.0
0.0018235247527184808 -0.0004838812793821697 0.0
0.00036220350446843194 -0.000131178333036375 0.0
0.002599308543275952 -0.0009418268549940147 0.0
0.0026540884688586075 -0.0009141085286575761 0.0
0.002663005294075369 -0.0008696682780524282 0.0
0.0027089788878437862 -0.0008858684641932349 0.0
0.003201824767338484 -0.0005860632125687047 0.0
0.0032162447594304357 -0.0005472258927876317 0.0
0.004385097050972998 -0.00011125259943218451 0.0
0.00433706743816255 -0.00012609168330721726 0.0
0.0029503637787632046 0.0001131578856316111 0.0
0.0028440793998202618 0.00012565266027940425 0.0
0.0008599672536375641 -0.0006035491516519111 0.0
0.0012979105165020594 -0.0007994500804679462 0.0
0.0012484652296984899 -0.0007647364227908402 0.0
0.002280454691656821 -0.0003202767017479249 0.0
0.0037111716100012883 -0.0006087782755386825 0.0
0.00045175051215268414 5.447800142406941e-5 0.0
0.0012414424381400628 -0.0007228384433978822 0.0
0.0026987831366997615 -0.0009310572473975896 0.0
0.002753044368262043 -0.0009014713805893932 0.0
0.0026791392999289333 -0.0004925265695043752 0.0
0.0026122826663153623 -0.0005120869671365627 0.0
0.002616172584385021 -0.00047904370250301254 0.0
0.002409805006823275 -0.00027312500579965816 0.0
0.0003547010998393659 -0.0001975237668163169 0.0
0.0002010997595656941 -0.00019473400603411606 0.0
0.0027193158946814573 -0.0008421174817639715 0.0
0.0027773523141815084 -0.0004146727079310117 0.0
0.002236913941121069 -0.0009677555778818908 0.0
0.0008985111784910193 -0.00015699007456014855 0.0
0.0015966870535675513 -0.0003171347249451453 0.0
0.0007047544936754537 -0.0005555880799144225 0.0
0.00385153061833108 -0.0004766589350294878 0.0
0.0009697556479942535 -0.0004501719771909329 0.0
0.0009067517207253571 -0.0004132613987280799 0.0
0.000966796661253856 -0.000415056686065633 0.0
0.0009013257230522134 -0.0003786003870669559 0.0
0.0009630106480197601 -0.00038039048296211576 0.0
0.0008407929720617449 -0.00037604021852317374 0.0
0.0030144528532008177 -0.0008670164200706475 0.0
0.0029740348258378755 -0.0008531019328920972 0.0
0.0005918247097723021 0.0001266579663270541 0.0
0.0022885021667841733 -0.0009934648183976549 0.0
0.0022319335367782973 -0.0007482259579901124 0.0
0.002173929868068918 -0.0007657309757521446 0.0
0.0010557419844034036 -0.0007232224526452139 0.0
0.0002796048643586697 -9.695305151403893e-5 0.0
0.00029579462233512017 -0.00012139646340072633 0.0
0.004104497769359808 -0.00021555318785895889 0.0
0.004176890336987286 -0.00017946603092776597 0.0
0.0006357014506066655 -4.2885982288625426e-5 0.0
0.0010984182349022902 -0.0007194334425078175 0.0
0.0010943292684028592 -0.0006807620560562556 0.0
0.0011052458281690864 -0.0007620289889052788 0.0
0.001013961847971436 -0.0007262026641046773 0.0
0.0007291000073592823 0.00019394598077111517 0.0
0.0017300713169038772 -0.0007575260949498328 0.0
0.0026695521306734356 -0.0005631540124672005 0.0
0.0041158916344318786 -0.0001901010381230152 0.0
0.0025454866409509985 -0.0009689946093371233 0.0
0.0016416050553761808 -0.0009066316009537488 0.0
0.004430917688930065 -0.00013536283739213 0.0
0.0044108325434976175 -0.0001639065934927957 0.0
0.0014075305305353118 0.000230964365859404 0.0
0.0012555867467343449 -0.0008077267468362335 0.0
0.002948958334372262 -0.00043125239260567353 0.0
0.00302672360151539 -0.0004065248016194099 0.0
0.00046792123839877256 -0.00022174683557145452 0.0
0.0006162948222547194 -0.0005066230131008627 0.0
0.0005665291237065919 -0.00046251768460973583 0.0
0.0005522569313997503 -0.000423729065506806 0.0
0.0008696855991874918 -0.0006453798101254619 0.0
0.00015254685744005604 -0.00014626546158477154 0.0
0.00014185415625258706 -0.00012715038926598932 0.0
0.0027417646488177697 -0.0009478683530481191 0.0
0.0027953379123972 -0.0009170224367555774 0.0
0.0028055060197661338 -0.0008696863528753877 0.0
0.003773317807114809 -0.00047093444136242794 0.0
0.003730432544869325 -0.000469111401865393 0.0
0.0037489924525976573 -0.0006161824028027694 0.0
0.0008344892604687684 -0.0003423282989933532 0.0
0.0007754175329023949 -0.00034016593486485227 0.0
0.0030909123670127205 -0.00041618314062803334 0.0
0.004340755443293398 -7.365093823632393e-5 0.0
0.004364587773811908 -7.961202100731231e-5 0.0
0.004393467319274194 -9.718365507534172e-5 0.0
0.004346587420116324 -0.00022429960847785083 0.0
0.0002506719381430618 -0.0002458997655159413 0.0
0.0028612363150544505 -7.604603266715008e-5 0.0
0.0027711826408723453 -6.86388877531094e-5 0.0
0.002757191924981008 -9.666796327207079e-5 0.0
0.002671402842386219 -9.054060719294233e-5 0.0
0.002663000142204634 -0.00011732420286625957 0.0
0.0026774818709747257 -6.43396497100096e-5 0.0
0.0024259788833977843 -0.0005778070481766227 0.0
0.0019463596615533641 -0.0004313612438354563 0.0
0.002010460381044139 -0.00042038427196529 0.0
0.0005797968152705992 -0.0005023814180569553 0.0
0.0005307555550350575 -0.00045691056508046277 0.0
0.003937402607113361 8.149740908552886e-5 0.0
0.004071983760144442 6.59507894324475e-5 0.0
0.0041245034745210655 4.150325831559911e-5 0.0
0.0042047098606098525 4.875278127288986e-5 0.0
0.00417137771104765 6.906055015477863e-5 0.0
0.002188615881049345 -0.0009421864646035988 0.0
0.0021888177429354974 -0.0008988877179069026 0.0
0.0021865934504839866 -0.000987123310182946 0.0
0.0027096674924816447 4.763869628562836e-5 0.0
0.0026958626987909204 1.3153013513489889e-5 0.0
0.0006363987989399433 -7.229993063800507e-5 0.0
0.0003335951164590994 3.398022393283222e-5 0.0
0.0029595123834900666 -0.000901734260958697 0.0
0.0007455233588698952 0.00013090245884172602 0.0
0.002990136825890514 -0.0005527155157978705 0.0
0.002759706735896993 -0.00012370118496367647 0.0
0.0026552004977258826 -0.00014344045667253686 0.0
0.002734590912307573 -0.00015248251473952692 0.0
0.002647093070240803 -0.00016908077391728272 0.0
0.002722127150984715 -0.00017860171924090652 0.0
0.0026395842379098784 -0.0001948524467845388 0.0
0.002712380243280565 -0.00020470995205747137 0.0
0.002632719306781514 -0.00022098272598689822 0.0
0.002706636956169858 -0.00023111518126529804 0.0
0.0025672699415750793 -0.00015939794268190338 0.0
0.0025595386272310827 -0.00021053356962466064 0.0
0.0030572992958067713 -0.0008811122461797963 0.0
0.004441331449203073 -8.917049611900952e-5 0.0
0.0015771847132281399 -0.0007086941191173692 0.0
0.001521639577535528 -0.0006793694211976534 0.0
0.004220201065136215 -0.000296779329577262 0.0
0.0018272316384366088 -0.00045630987615843385 0.0
0.0025812638434614104 -0.00010905993470161168 0.0
0.0009062321885481065 0.0002410715415799986 0.0
0.00026378933881002816 -6.165141130277657e-5 0.0
0.001509565937318308 0.00024436282404436576 0.0
0.0015280640426559365 0.00023180927515396372 0.0
0.0034462515728008332 9.918335438361343e-5 0.0
0.0042581690657271295 -0.0002847738288905139 0.0
0.004200002161187642 -0.0003376140961453591 0.0
0.0018208635894012169 -0.0005168777615619149 0.0
0.0017683893517784785 -0.0004896762047527488 0.0
0.0007459191154352353 -0.0005238446302855344 0.0
0.00016631363708605307 -0.0001703355982297407 0.0
0.00020927724808956968 -8.183642670802062e-5 0.0
0.00021579297913262792 -9.805998697801286e-5 0.0
0.00011898791709822815 -0.00012109584085057538 0.0
0.003160574980678131 -0.0005414669421888813 0.0
0.0032295389865720416 -0.0005100325170105227 0.0
0.0032861873433288904 -0.0005150440936132828 0.0
0.003298731038055869 -0.0004776299117051173 0.0
0.002554773677577616 -0.0002353358603490091 0.0
0.00108068212981733 0.0002560301532181452 0.0
0.0013776417423430555 0.0002489831279668591 0.0
0.0025498700059446303 -0.0004971945948568173 0.0
0.0025544130356655375 -0.0004644347992028274 0.0
0.001948711674357726 -0.00040284801871566495 0.0
0.0016634563128107526 -0.00040029745034547525 0.0
0.0016923818242645964 -0.0009387404035785666 0.0
0.003463498514929587 -0.0006688241640589667 0.0
0.0035039950745515643 -0.0006777654431264772 0.0
0.0034468404422178874 -0.0007172790408656016 0.0
0.003486095647900235 -0.0007283771935579703 0.0
0.003430731546660041 -0.0007680384623705732 0.0
0.003391208294455952 -0.0007566690486081073 0.0
0.003290870150535808 -0.0007431203201541199 0.0
0.0029805428484021125 -0.0008062002565410288 0.0
0.0031279576033771224 0.00017623360108885952 0.0
0.0024068391457558857 -0.0007748285211284996 0.0
0.000657256836967483 1.7425193835880516e-5 0.0
0.004387224106816074 -0.00019994239447911148 0.0
0.004441521534443897 -0.00014680133221117294 0.0
0.0035425292420616828 -0.000687713811550518 0.0
0.003525234702304115 -0.0007388352181514122 0.0
0.0035795832934757193 -0.000698308257689281 0.0
0.001738784528593169 -0.0009260530758267965 0.0
0.0021190061115686654 -0.0007421792539191427 0.0
0.0021184024970723023 -0.0007818382670620121 0.0
0.0021717500659456023 -0.0008068058744528641 0.0
0.0014262307297927385 -0.0005755027532269173 0.0
0.002063724874242944 -0.0007573401205247904 0.0
0.0026722288992988897 -0.0008271490861879804 0.0
0.0037956434250668775 -0.00042992620581490794 0.0
0.003889316357768752 -0.00047874618558590797 0.0
0.0038672400411237607 -0.0005262363401420957 0.0
0.003919041700263789 -0.00043007002772174456 0.0
0.0005333497349240947 -0.0001005234953442588 0.0
0.0015392665545047367 -0.0008420581911838527 0.0
0.0014927682512202434 -0.000852342415730491 0.0
0.0015432527096414632 -0.0008856580171260648 0.0
0.0014988188937579783 -0.0008965118324431408 0.0
0.0033551368655364336 -0.0004812125624070916 0.0
0.0009209284747320015 -0.0006872089774242386 0.0
0.0008216756678774953 -0.0006047851522488804 0.0
0.00430642759767429 -0.00010834400501908261 0.0
0.00025383648501045325 -3.0391713622835528e-5 0.0
0.00025335682751122235 -1.609637432664675e-5 0.0
0.0029168784458589933 -0.0008810597619287978 0.0
0.002910308748130777 -0.0009340660967658673 0.0
0.0023625669551641413 -0.0005961751779053605 0.0
0.004256493176521241 2.7692469690885627e-5 0.0
0.0008306277440369545 -0.000646115049074665 0.0
0.003473129986293704 0.00022060180508302017 0.0
0.004047741809180739 -0.0003372824889819832 0.0
0.0040623068891093945 0.00013751576038596765 0.0
0.004106158515877219 0.00011964786004790455 0.0
0.0032422175247557817 -0.000473678289520552 0.0
0.0034889657254503037 -0.000496723612270622 0.0
0.0035386893000330377 -0.0004985864416261355 0.0
0.0031024263502274813 0.00022309900318806598 0.0
0.003194485697231142 0.00022002316638799926 0.0
0.003310457412636403 0.000224859849113943 0.0
0.002687477156762928 -0.0009784835664440963 0.0
0.0013014114415653504 -0.0008418243713274768 0.0
0.0020059419075834535 -0.0005480566054364632 0.0
0.0028776117885556296 -0.00045780295859789994 0.0
0.0025417362062579835 -0.000610679413457841 0.0
0.002590565758785436 -0.0009889900703397346 0.0
0.0011460538390315469 -0.0007569923142783837 0.0
0.001471711347807214 -0.0006865583465995887 0.0
0.0005945208048196016 -0.00023968806527957623 0.0
0.004313949252059228 3.2246116459699193e-5 0.0
0.003356752890650779 -0.0005671343420994212 0.0
0.00040062853735485304 -0.00018521567412720924 0.0
0.0010711340848158872 0.00028508314351895426 0.0
0.0025759036375719033 -0.0007911771674804067 0.0
0.00337537268216307 -0.0008080345259789843 0.0
0.0033337998695611003 -0.0007961410959584415 0.0
0.0029654722193484208 -0.0006305584740451142 0.0
0.003098536981512035 -0.0003817350078251198 0.0
0.0013526960570934244 -0.00046891152855185796 0.0
0.002116968308717109 -0.0008295772385405712 0.0
0.0028464530355161465 -0.0003955519733181984 0.0
0.0014663872162942405 -0.0006487214328381427 0.0
0.0014157170531088814 -0.0006548289708140307 0.0
0.0011527598327425973 -0.0008003043257737165 0.0
0.0007363311614718908 -6.785961389543808e-5 0.0
0.0007401984450411977 -3.6656187966520884e-5 0.0
0.00033887817955091995 4.8672963540341275e-5 0.0
0.0004640389280570603 7.387035223412596e-5 0.0
0.003691949975922422 -0.0006593811703461655 0.0
0.0005326076015048194 -0.00025971103033722674 0.0
0.0007823122019040912 -0.00037389284920851933 0.0
0.0007171430442675217 -0.00033667719029309553 0.0
0.0038753913920715312 -0.0004330505593632972 0.0
0.0019455486815117956 -0.0007468075581812044 0.0
0.0024878447045956218 -0.000557406444147294 0.0
0.002992157750653422 0.00018275234765890896 0.0
0.002967785404520306 0.00021305637257050753 0.0
0.002878574820505505 0.00019511875273954218 0.0
0.0028534472420715215 0.00021776303421703662 0.0
0.002934521692668972 0.00022530573579522225 0.0
0.0033012260024844918 -8.22500300446223e-6 0.0
0.003394658729040649 -2.249911964014245e-5 0.0
0.003423738520757151 1.576108447416713e-5 0.0
0.003509516098063478 4.960611763367939e-8 0.0
0.003481957398924654 -3.812721239189352e-5 0.0
0.00020083324137742175 -6.620741902983276e-5 0.0
0.003369918853325871 -0.0004454827447489485 0.0
0.0005345133190075621 0.0001406535954078083 0.0
0.0005571191695583689 0.00016302816130040024 0.0
0.002783495496805925 -0.0009648459178286233 0.0
0.00016374708188522574 -1.47354702411325e-5 0.0
0.0036768809721379357 -0.00027347882681295096 0.0
0.0037601702970055705 -0.00023979948188444732 0.0
0.0036966523450937478 -0.00023592855073385175 0.0
0.003831148099788427 -0.0002378895714160104 0.0
0.003845567764780086 -0.0002062488191607007 0.0
0.0039179007418283915 -0.0002046185660261201 0.0
0.0010299396486913679 -0.00041541937357758867 0.0
0.0010289257609734156 -0.0003815528390155639 0.0
0.0009585412056750928 -0.00034620552351891 0.0
0.0010266869911139084 -0.0003482519104852946 0.0
0.0010976168406718306 -0.00038227489292085975 0.0
0.0010961755060391756 -0.00034890876650542504 0.0
0.0011663459502854387 -0.0003815525259156186 0.0
0.001262768055714258 -0.0008492689431842838 0.0
0.0011653176034969195 -0.00034744738352937777 0.0
0.0012354026144993048 -0.00037993345540170105 0.0
0.0003393163886005363 3.5645686642256517e-6 0.0
0.000734418910411953 -9.917825241150612e-5 0.0
0.0012335191707025742 -0.0004128524825339966 0.0
0.0009618260053201509 -0.00031621936527932807 0.0
0.0037502240936710214 -0.00043015287806590845 0.0
0.0036866474350078365 -0.0004682842248272839 0.0
0.0021400283492328323 -0.0009625159793339609 0.0
0.00213763065685517 -0.001006160012212804 0.0
0.002769685178360483 0.00019934585898172526 0.0
0.0014383653525380298 0.0002110000864147452 0.0
0.0015513929564842201 0.00020762863511785497 0.0
0.0016366258533991093 0.0002283225548275471 0.0
0.001659618719015769 0.00019787915876935645 0.0
0.0015748010748914054 0.00017338839528225765 0.0
0.00168166977139403 0.00015457494629201454 0.0
0.001597890816176742 0.00013288181597322874 0.0
0.0017057871888162893 0.00010783275228439119 0.0
0.0016200960423828233 9.186691273438259e-5 0.0
0.0017454933404175824 6.29463521578988e-5 0.0
0.0016398838798010646 5.313886196864337e-5 0.0
0.0017459651864604492 2.5747470512091222e-5 0.0
0.0016539169898207307 1.7830632989973683e-5 0.0
0.0017570560810749934 -8.0519454593407e-6 0.0
0.0016723373547789604 -1.6326579287369578e-5 0.0
0.0017705109290624477 -4.018636513291602e-5 0.0
0.0016858699636341555 -4.7430153850111075e-5 0.0
0.0017782180418007263 -6.930722819798252e-5 0.0
0.0016971951053090988 -7.62565732920937e-5 0.0
0.001785916221935137 -9.662289531221076e-5 0.0
0.0017065181127605387 -0.0001039622910479304 0.0
0.0017919440852941983 -0.0001234720175139995 0.0
0.0017124846791056658 -0.00013088001080296485 0.0
0.001796695093310017 -0.00014908574892911393 0.0
0.0017179647508504074 -0.00015813923039216564 0.0
0.0016334610730593725 -0.00013785161296702057 0.0
0.0016396261817478663 -0.0001663354050782193 0.0
0.0018072919396960932 -0.00017755144206682357 0.0
0.001607996978741916 -5.440580441587365e-5 0.0
0.0018738945495691073 -0.00013941470315070124 0.0
0.0018730171766572214 -9.047870528090902e-5 0.0
0.0015183324407883336 0.00011373186171713218 0.0
0.0018552685875262893 -3.197802976179316e-5 0.0
0.0015537799266215743 -0.0001448754948585792 0.0
0.001561529216089317 -0.00017392879708750568 0.0
0.0016457291593690551 -0.00019529566616488845 0.0
0.0015689195240847626 -0.00020331844435254363 0.0
0.0015707784073465435 8.861584372951664e-6 0.0
0.0018484213849135483 2.818644614626022e-5 0.0
0.0015471938957991648 -0.0001157751202123114 0.0
0.001794375502604502 0.00012641642810058744 0.0
0.0016518608372153478 -0.00022430572211043316 0.0
0.0015754934808270855 -0.000232905864225656 0.0
0.0014927766026504102 -0.00021093044636074393 0.0
0.0014649709280121132 -0.00012291251228315218 0.0
0.0014545148450466874 -9.146410849716983e-5 0.0
0.0017286823450622171 -0.00021507636356913264 0.0
0.0017321531350742343 -0.00024357765152489087 0.0
0.0018069726382179026 -0.0002341442759881094 0.0
0.001747839277169463 0.0002173096025488486 0.0
0.001731650878307458 0.0002364744385783731 0.0
0.0015021564197216918 -0.00024154650979034824 0.0
0.001417792589522287 -0.00021860955827971112 0.0
0.0014102265186269078 -0.0001887312721497843 0.0
0.0013309317354727802 -0.0001949429273251676 0.0
0.0025385317470578797 -0.0010163028113386384 0.0
0.002493762880482566 -0.0009951502675739014 0.0
0.004236590719607161 -0.00032618816477089895 0.0
0.002728918484007265 -0.0007996003868812453 0.0
0.002776422741382071 -0.0008142139319977049 0.0
0.0015659282299584042 -0.0006692898232132768 0.0
0.0016219880106113362 -0.0006974458453575009 0.0
0.003767584103159754 0.0001239817900256845 0.0
0.0027472412900689776 -0.00047007276362937705 0.0
0.0015835888458240878 -0.00026213981330113227 0.0
0.0011926606677626949 -0.0007278456952477121 0.0
0.001190347645600148 -0.000688005109743478 0.0
0.0012348859439207092 -0.0006829215077885503 0.0
0.0030322495729053346 -0.0003725418673508333 0.0
0.002800425103430492 -0.00016389778042973143 0.0
0.0018823835221577039 -0.0005396215947286481 0.0
0.0018227832344628854 -0.0005514079560377871 0.0
0.0025973931103744565 1.9826640204725112e-5 0.0
0.002589981385678038 -9.220186982526359e-6 0.0
0.0026738172815283143 -1.5865844328057883e-5 0.0
0.002574903548389919 -3.930820788732376e-5 0.0
0.0026106862173508262 5.086503693606715e-5 0.0
0.0027843979057068677 -0.00021523545012765288 0.0
0.0027799729211352387 -0.00024155681181593972 0.0
0.0026947129989477398 -0.00025749344468611266 0.0
0.0020128549570012306 -0.0003919612406945084 0.0
0.002075195069837975 -0.00040904134148204844 0.0
0.0020783298603705485 -0.00038177750884733783 0.0
0.002139616102299961 -0.0003972742020090855 0.0
0.0021426869557715266 -0.00037062119764823205 0.0
0.0022037925710547876 -0.0003853012053066893 0.0
0.0022072092764778973 -0.00035935723582422585 0.0
0.002270774867615099 -0.0003730092757293738 0.0
0.0022657449107017958 -0.00040027886727144423 0.0
0.0023339526863493834 -0.00038347147950708224 0.0
0.00262366900326462 -0.00044826627030535764 0.0
0.002558712835159189 -0.00043379692019361815 0.0
0.0024920882068714496 -0.0004500793666367629 0.0
0.002495504507910969 -0.00042029490104156296 0.0
0.0004603273187205655 -0.00019553678155724574 0.0
0.0005455704406939692 -0.0004973258220373743 0.0
0.0004974993031420105 -0.0004505205017939834 0.0
0.000483305469081765 -0.00041047861395591327 0.0
0.0004487007903095055 -0.0004021063925347828 0.0
0.002365656659042775 -0.0005605243452217537 0.0
0.0031640598366570725 -0.000388751057115686 0.0
0.00315033451706563 -0.0004252964267498874 0.0
0.0011241910666182906 0.00023048637956262915 0.0
0.002485458925330132 -0.00022506263591087232 0.0
0.0024874456745730676 -0.00020310370470571503 0.0
0.0025829800429092303 0.00019564439554235888 0.0
0.0043814602716997 -0.00014202477687948507 0.0
0.004434512631589362 -0.00010709196719928229 0.0
0.004471418654647265 -8.940812006383701e-5 0.0
0.00014809608161084052 -6.499058561258212e-5 0.0
0.0001510973377433734 -7.658446158065946e-5 0.0
0.0002161209488360177 -0.00011207093316157513 0.0
0.00015873555224187532 -9.075296070984713e-5 0.0
0.00021961441683315288 -0.00012812242190283945 0.0
0.0001639313245223048 -0.00010460469572873732 0.0
9.949987667073438e-5 -6.326496135176227e-5 0.0
0.0023025849221678064 -0.0005778618172253665 0.0
0.0010980853490091945 -0.0003168284385867396 0.0
0.0006310086516941764 -0.0005480054122314291 0.0
0.0018074943155208302 -0.00026036226867929034 0.0
0.004189365038494613 -0.00037292993944533346 0.0
0.0041503730887895995 -0.00039058102353628623 0.0
0.0035564548329981723 -0.00046066273264120094 0.0
0.003621403534446518 -0.00045521023329600735 0.0
0.003631847358800484 -0.00041699760120455105 0.0
0.0002179587948749599 2.6978118208814395e-5 0.0
0.0016471136253163121 -0.0009512677702099745 0.0
0.0011136735425968962 -0.0008063716283368659 0.0
0.0001333163892872766 -0.00014434441070753984 0.0
0.00018402022489836603 -0.00020304370760426365 0.0
0.0008915367689061622 -0.0003139583079357791 0.0
0.002831694250030571 0.00022003655044695996 0.0
0.00292384288476085 0.00022047044731292445 0.0
0.003432607782418661 -0.0004959826129186224 0.0
0.003584734013401646 -0.0005013458123249475 0.0
0.001548576908849693 -0.0009287678136897359 0.0
0.001739805456399064 -0.0009688123209967901 0.0
0.001786563609737815 -0.000957109389828926 0.0
0.003924657672595872 -0.00048223846520351776 0.0
0.0039024216740701466 -0.0005308823676332141 0.0
0.003844113004099652 -0.0005832861311183125 0.0
0.0041910985865575776 -0.00015597775671316542 0.0
0.004129276645978031 -0.00016540928974424898 0.0
0.004052290531210207 -0.00019800636109305585 0.0
0.00405980781687033 -0.0001732297117267597 0.0
0.0007579219238987684 -0.0003092304893908921 0.0
0.0039295081759447665 -0.00017523485237076717 0.0
0.0038453581094635763 -0.0001761530668530904 0.0
0.002788354140389419 -0.0007740224964454114 0.0
0.00046016914876202724 -0.00043776956058697524 0.0
0.00041743517390526754 -0.00039667450790767064 0.0
0.00040229168261771803 -0.0003596971642700254 0.0
0.0003719644085520747 -0.00035166094077686023 0.0
0.004483126824122645 -7.563493163776861e-5 0.0
0.004387907900243991 -8.274960385945765e-5 0.0
0.004441555438997358 -5.7809737781064996e-5 0.0
0.0037270484015731182 -0.0006659697791045108 0.0
0.0018833426555930548 -0.0004117772346350452 0.0
0.003957182476717639 -0.00048692505721391295 0.0
0.003937696580640738 -0.0005332985700585924 0.0
0.003988536318831714 -0.0004906867508342096 0.0
0.003973814433226956 -0.000538261635393543 0.0
0.004025440740818087 -0.0004878878724568631 0.0
0.004040811752491932 -0.00044599801758242653 0.0
0.004072307967843548 -0.00044659255321519934 0.0
0.002188744000218315 -0.001030505016874892 0.0
0.0021426280333808954 -0.0010534549615464025 0.0
0.0020829242534344747 -0.001024211461950635 0.0
0.0015121140505597779 -0.0002728858508429579 0.0
0.00011496474843533415 -8.102344198315307e-5 0.0
0.00016851712759286198 -0.00011913112166932026 0.0
0.00012034744438788446 -9.277552042695254e-5 0.0
0.0015106975963502663 -0.0009475591645202896 0.0
0.0014588877275571609 -0.000908730045046033 0.0
0.004339193955744502 -0.00025095467643677905 0.0
0.00035184284492698287 6.444667174384883e-5 0.0
0.002431244163050352 -0.00043917829495832667 0.0
0.0024370568460614474 -0.00040840255436446876 0.0
0.004170526402863387 1.9209698142649365e-5 0.0
0.004299122008605003 9.866496823899148e-6 0.0
0.003937014527667229 -0.00039266780546999666 0.0
0.0007867667364716344 -0.000604446016274612 0.0
0.0008011694079233969 -0.0006501270902642043 0.0
0.003348296002813883 -0.0005172427076235102 0.0
0.003368357438686972 0.0002145110459359385 0.0
0.004418393500675269 -0.00018114414248660788 0.0
0.0044711472382145704 -0.00012732348198725644 0.0
0.004490773832065393 -0.00010045245033112034 0.0
0.0032791533898094854 0.00021720314349352225 0.0
0.0038167514558963963 -0.000392921113907618 0.0
0.0020926986546872125 -0.0009043178890775167 0.0
0.0039020278795879808 -0.00023560596955259468 0.0
0.003694402960221354 -0.000436781851881971 0.0
0.0014144412950071942 -0.0006150536240504563 0.0
0.0008094151511501466 -0.0005637100321170573 0.0
0.0042581661444593775 -0.00014056491934967072 0.0
0.0035518304059560355 0.00021322819730686026 0.0
0.0014586409299790974 -0.0009503647335895177 0.0
0.0006718712129313511 -0.00027888014942929095 0.0
0.0024714285662000195 -0.00025166795978255564 0.0
0.003654255209538371 -0.0006577856120149102 0.0
0.003641678667704963 -0.0007036617749072038 0.0
8.90734662419252e-5 -9.659983558948815e-5 0.0
0.0028334846466390984 -0.0009387249948186165 0.0
0.0028150097453391015 -0.0009809971685380149 0.0
0.0017846430909398152 -0.0010067005620272634 0.0
0.0018340583377375493 -0.0009891270565893348 0.0
0.0018327098736513822 -0.0009441410834069954 0.0
0.001881047414604271 -0.0009740637647129579 0.0
0.001834245118877132 -0.0010268892025303944 0.0
0.0015407380852528927 -8.666343834487604e-5 0.0
0.001447297589949855 -6.248905175455286e-5 0.0
0.0006318737600933935 -0.00010061106908629828 0.0
0.0012155005730825567 0.000278727930762253 0.0
0.0012270069775629257 0.0002573346546002307 0.0
0.0027907448316730472 0.00016039057636014367 0.0
0.0035582470089637027 -0.0007500310613097869 0.0
0.003508767467458525 -0.0007890801153879302 0.0
0.000382544593176062 -0.00038774899526177 0.0
0.0003387555592559256 -0.00033940359241678994 0.0
0.004462954099919647 -5.8036844563625454e-5 0.0
0.0007355265850829377 -0.000371981237207893 0.0
0.0006622940374876608 -0.00033883871991014294 0.0
0.004151542842483018 0.0001792586440073808 0.0
0.004288540797643316 -0.000276047004277044 0.0
0.004266198944114011 -0.0003201634540948082 0.0
0.002547174095378559 -0.00026101336057095313 0.0
0.0029473731351576425 -0.000950229272405597 0.0
0.0028865402705435953 -0.0009914051464208701 0.0
0.001297191883533397 -0.00040857046691377666 0.0
0.0013033091772007715 -0.00037580117574645264 0.0
0.0018821861386595418 -0.0009299859946159136 0.0
0.003963694546693627 -0.00042889882763936827 0.0
0.0022737497248717627 -0.00034681170091632377 0.0
0.0022154591918490353 -0.0003333489456427231 0.0
0.00010980070507426114 -0.00012543302645721008 0.0
0.0011312873808954939 0.00042839262318679523 0.0
0.002078828681367439 -0.0003539486403102957 0.0
0.0013747652789690105 -0.00010015302326179124 0.0
0.0013885261073881786 -0.0001306259000265202 0.0
0.0008367878323633619 -9.43894623047063e-5 0.0
0.0028635286332763334 -0.0002232606180099016 0.0
0.0018788342489661648 -0.0002513528439412015 0.0
0.0018803074909149431 -0.00022617871320097706 0.0
0.001950363228604462 -0.00024307656437789254 0.0
0.0019504261021783909 -0.00021949713934861425 0.0
0.0020174832490196895 -0.00023333254248964283 0.0
0.0020186372702094865 -0.00021132993606673222 0.0
0.0019498370279068752 -0.00019690161169426127 0.0
0.0020187711813079343 -0.00018908884058756176 0.0
0.0019500134323531503 -0.00017515425554206517 0.0
0.0020200666162986376 -0.00016775004943856144 0.0
0.002081458678973687 -0.0002245966795204025 0.0
0.00017641953961941928 -6.037163632348301e-6 0.0
0.0027692748717397728 -0.0002719473284636662 0.0
0.001896857313333627 -0.0003840619787054871 0.0
0.001768655562620783 0.00017628001997431602 0.0
0.0019017890002684063 0.00013772544268932828 0.0
0.0019118359968809627 9.141313706691076e-5 0.0
0.0018630733566389168 0.00019459852735982162 0.0
0.0018238033186547997 8.190550535263494e-5 0.0
0.00193730128178867 5.499652539648309e-5 0.0
0.0020424664684601432 5.6579871697591464e-5 0.0
0.001977759891046372 0.0001674261259729678 0.0
0.00027838031246203536 -0.00014946907360309042 0.0
0.00028564705560149946 -0.00017017474270505069 0.0
0.004455814040121281 2.3614039652793864e-5 0.0
0.004315648006228223 5.2787428646984946e-5 0.0
0.004307639526240165 6.39637959128625e-5 0.0
0.0034204426165718896 -0.0008230929252106763 0.0
0.0033591350296938677 -0.0008609412728773606 0.0
0.001183775951826338 -0.0006489554775307097 0.0
0.0012299385002587887 -0.0006429265478243859 0.0
0.0011369719738250632 -0.0006525733151589228 0.0
0.0012967199734546036 -0.00011316921561975682 0.0
0.002007184478388128 9.582754989481834e-5 0.0
0.002091446006695526 -0.00018072142656708643 0.0
0.002087967826014608 -0.00015915744114605908 0.0
0.002020038624640424 -0.00014664076859573726 0.0
0.0020863546796974003 -0.000139666984832437 0.0
0.0020232630803859973 -0.0001266759491905044 0.0
0.001216583782827592 -0.0008167571831545184 0.0
0.004444569682937082 3.8166389338940076e-5 0.0
0.0018540179721873028 0.00022769909171436195 0.0
0.0026787892607499195 0.0001625384714660209 0.0
0.0026882107657614117 0.00012021977469208265 0.0
0.0025783508904492986 0.00011243429370145228 0.0
0.0013114025863120787 0.00020982966075574214 0.0
0.001584575993139946 0.00022978172512009765 0.0
0.001498735089798415 0.0002429135012717098 0.0
0.001436113437627843 0.0002494651459148472 0.0
0.0029999453383771414 0.00017514581618809793 0.0
0.0037848771723015765 -0.0006235055625660234 0.0
0.003761358981636573 -0.000677968142528212 0.0
0.0011570925447960377 -0.0008426544755686694 0.0
0.0019299459942964763 -0.0009598492494896228 0.0
0.0019303047233200125 -0.0010028506947868752 0.0
0.001976442746580875 -0.0009886302363801653 0.0
0.0019829431441409926 -0.0010368841175559206 0.0
0.003255597568157764 0.00016373374178882874 0.0
0.003161080979287745 0.0001416534807467769 0.0
0.00328329886979426 0.00013337483772858722 0.0
0.0033820272707737165 0.00015060765924181115 0.0
0.0025046003566634354 -0.00039243646095731097 0.0
0.00245254241303977 -0.00037879453507230163 0.0
0.0020254928502423807 -0.0010150607331861172 0.0
0.0013514194779439275 -0.00022904581907682705 0.0
7.118064957680435e-5 -7.312177094145791e-5 0.0
0.0018476259284331612 2.636141709831944e-7 0.0
0.0019424744498342888 -2.4436538780694885e-5 0.0
0.0019497683897697151 -5.171058216006498e-5 0.0
0.0020360017508087055 -4.4718982750041035e-5 0.0
0.0020364014957386734 -6.729866338903208e-5 0.0
0.0020300446713600027 -2.1079968706099012e-5 0.0
0.0019645858624824123 -7.474812465363713e-5 0.0
0.002038697385624354 -8.826461395007414e-5 0.0
0.002117226968314883 -3.7851884199472145e-5 0.0
0.003041235945644074 0.00014826203489256285 0.0
0.0019737572346861967 -9.703032887899692e-5 0.0
0.004507563942343218 -3.854127624895394e-6 0.0
0.001733619229665426 -0.0002714420050572375 0.0
0.002169895499001437 -0.0008492108131982728 0.0
0.002228625763068526 -0.000831590621921096 0.0
0.0019417192495013009 2.6667273745298676e-6 0.0
0.002036728685296989 3.1801163111102183e-6 0.0
0.00263538030606504 -0.0004189817269073476 0.0
0.003345022729370654 -0.0007469672471224978 0.0
0.0032888298296484754 -0.0007890407500728027 0.0
0.0032784665746426996 -0.0008368723105587557 0.0
0.0032367552386824328 -0.0008296874098079858 0.0
0.003229431947661716 -0.0008738109720005529 0.0
0.0031849058099378967 -0.0008696635877023847 0.0
0.003784510076401164 -4.301976260684645e-5 0.0
0.0037059868886566453 -7.795160827837266e-5 0.0
0.003743666939181724 -0.00010557633145123453 0.0
0.0036293446238757745 -0.00011434457408748046 0.0
0.0036637946483239754 -0.0001417777302192904 0.0
0.0035508168119130993 -0.00015198155009805717 0.0
0.0035874539498280305 -0.0001793479600543978 0.0
0.0035142043563123307 -0.0001237108382791772 0.0
0.0034388151656479958 -0.00016129316890114723 0.0
0.0036942800383113457 -0.00016826637367817185 0.0
0.0034006379034571283 -0.00013363533014858396 0.0
0.003617557204737549 -0.00020584505985613412 0.0
0.003517082527249445 -0.00021673696590333763 0.0
0.003542768153257301 -0.00024341057320036096 0.0
0.0034773921238789294 -9.699565642048413e-5 0.0
0.0036637876489663346 -4.857750215132743e-5 0.0
0.0037228579614647316 -0.00019565372143745313 0.0
0.0038652427736825443 -0.00010147927370295975 0.0
0.0037921256429233803 -0.00015850055002028694 0.0
0.0024962735533731006 -3.338666092222712e-6 0.0
0.0015666908508872907 0.00024245503303904286 0.0
0.00023317654066593404 -0.00015175745301257657 0.0
0.0002153274462852021 -0.00022340319685460182 0.0
0.00026118857248856765 -0.0002735363596429021 0.0
0.0020236765616807417 -0.0009729184056159456 0.0
0.0027070194283400975 -0.00043588503663821216 0.0
0.0025865425157102977 -8.472408081755073e-5 0.0
0.002498415865583656 -0.00010103016561933727 0.0
0.0025135842294413007 -7.908730495305238e-5 0.0
0.0025007919701722607 -0.0001238307133387303 0.0
0.0025753836189084493 -0.00013345082404639562 0.0
0.002494479781356975 -0.00014705265453665285 0.0
0.0024865981489029143 -0.00016891511671037238 0.0
0.002424325535945525 -0.00015837884856510887 0.0
0.0002850068735555937 -0.00026397528346710787 0.0
0.0028896170309898063 -7.476447895003191e-6 0.0
0.003507452588947325 6.845132270086973e-5 0.0
0.003366179929364265 7.365080289998367e-5 0.0
0.00017520331517407366 4.105243519131933e-5 0.0
0.00036350897459075013 9.091949706375737e-5 0.0
0.0003429123678563971 7.597393106945133e-5 0.0
0.0029455693985985985 -9.017801257378151e-5 0.0
0.0003717122542136019 -0.00030896812626332294 0.0
0.00043267086221441484 -0.0003626002672037594 0.0
0.00047129143692010327 -0.00037509474361856773 0.0
0.00046722204423297784 -0.00034383492250020004 0.0
0.0005081784091113979 -0.0003465982473724604 0.0
0.001871843679164828 -0.00011591857807269633 0.0
0.00021639517105608271 1.650954359490023e-5 0.0
0.0009005572839427843 -0.0002562509132428556 0.0
0.0007364595409034814 -0.00024795020281180114 0.0
0.0020299463578161104 2.932245115627787e-5 0.0
0.00047146580884838206 0.00020120696166777986 0.0
0.0032233505835040023 -0.00077530793542906 0.0
0.002781035972261872 -3.603575436426233e-5 0.0
0.004369114310687918 -0.00023487500875291205 0.0
0.00348083966450381 -0.00018879366660345354 0.0
0.003370474203893184 -0.00019795037827433673 0.0
0.003318874698408824 -0.0008489074542282096 0.0
0.004516669123386076 -9.696443572422769e-6 0.0
0.00443356807930885 -2.465856052172527e-5 0.0
0.004451497729133719 -3.236906640578895e-5 0.0
0.004418482346454896 -1.4581090736288752e-5 0.0
0.004353919689067891 -4.528634422028975e-5 0.0
0.004406781503807863 -3.7361213321520233e-6 0.0
0.004307414880114615 -1.5102780474227476e-5 0.0
0.004328398818751327 -3.111885013822418e-5 0.0
4.8369043369596784e-5 -2.9625054007860736e-5 0.0
0.004550070280163467 -2.688836976552428e-5 0.0
0.004493500423488448 -5.175033748696869e-5 0.0
0.0045273701098223545 -2.8534590648837072e-5 0.0
0.00449888149665494 -5.544465901712369e-5 0.0
0.002720968056250483 8.418185791498094e-5 0.0
0.003473592561806625 -0.0007765751950469119 0.0
3.689927235644464e-5 -3.184940710248738e-5 0.0
0.004561328649904411 -2.9033590081240846e-5 0.0
0.0014641732744917028 0.00018283059291346606 0.0
0.003691091763572391 2.162530209347644e-5 0.0
0.0012493935257621351 9.768839720455524e-6 0.0
0.001348201534251692 2.251022227862614e-5 0.0
0.0013421676924549734 6.137285141644967e-5 0.0
0.001351102794372074 -1.2213247243756984e-5 0.0
0.0014365133546711839 -4.4228541880858255e-6 0.0
0.0014556831710783214 2.971857363963334e-5 0.0
0.0014430927133058699 7.053330407183287e-5 0.0
0.001342946946862463 9.80108442276435e-5 0.0
0.001254444159636121 0.00012928629620382215 0.0
0.0012653599596095689 -3.2017463709061514e-5 0.0
0.003890725077920068 -0.0005748664159759931 0.0
0.0045042034115632635 8.354383936545103e-6 0.0
0.0018861694939196977 -0.0008861789183015874 0.0
0.0006003465727081993 -0.0005517658128714836 0.0
0.0020802521720488746 -0.000863587943976364 0.0
0.0015944058840576354 -0.0009183312571717322 0.0
0.001596450290409944 -0.0009624548803255087 0.0
0.002157605446531306 -0.0001508815842254638 0.0
0.002950273347056269 -0.0001567658495538506 0.0
0.003978951053286017 0.00013699361152006705 0.0
0.004032645518019879 0.00011347305121238801 0.0
0.003910973744331157 0.00011936091383090141 0.0
0.0002804509674151608 -0.00013365909887184713 0.0
0.0005586852805799145 -0.0005369684517491979 0.0
0.0013731192561743549 0.00031301459034953545 0.0
0.0012327820155505218 0.00031897668994345486 0.0
0.0032881883770067366 0.00019970176066397597 0.0
0.0016233545306380992 0.00024256252488213945 0.0
0.004178584514772671 -0.0003083974308406161 0.0
0.002062398720431237 -0.0007179309224932506 0.0
0.003155896398384914 0.00017078857571622996 0.0
0.0032598003287546188 0.00020103819570312356 0.0
0.0013639978452303862 0.00015492138347872775 0.0
0.0011197403925420136 -0.0008517179614256464 0.0
0.004153586824323639 -0.00035577352517333124 0.0
0.0006671361864992351 -0.0005515767643392082 0.0
0.0007084641445443985 -0.000589592340020664 0.0
0.0006852578288735142 -0.000601298484658352 0.0
0.0010760948066706067 -0.0002518787732763741 0.0
0.002551922504053255 -0.00018470934853456088 0.0
0.0028640882021863227 -0.00011781441594525512 0.0
0.001724690259470557 -0.00018609568139456425 0.0
0.001805166342689682 -0.00020719069588323168 0.0
0.004412735305159082 5.783894002101772e-5 0.0
0.0041953889746933915 0.0001230382494643503 0.0
0.0001895157920605597 5.999959161276336e-5 0.0
4.760969705315865e-5 -3.2706883692328075e-5 0.0
0.0020853743053319915 -0.00020246959218217953 0.0
6.732185659564567e-5 -1.866857942506506e-5 0.0
0.00016406214183188923 -3.759004103270642e-5 0.0
0.002055806308118141 -0.0008295912507790966 0.0
0.0029168392823072905 0.00017695832887914772 0.0
0.0016537663460803825 0.0002269501663124693 0.0
0.0028379729920680148 -0.0004241937829418308 0.0
0.002097419213232987 -0.00012006459695348889 0.0
0.003705026802834763 -0.00037421245769734754 0.0
0.004315807204088406 -0.0002335230619537281 0.0
0.0013599982285904648 -0.0006220791977849577 0.0
0.0013648886980188214 -0.0006618575332256014 0.0
0.0013088633867701178 -0.0006242493880626931 0.0
0.0012509892151460506 -0.0005871802993711267 0.0
3.766147770123472e-5 -3.548443987207197e-5 0.0
7.164812953183131e-5 -6.781517627215121e-5 0.0
8.067927577846398e-5 -6.954820642507608e-5 0.0
0.0011687933017170513 -0.00041474952673331344 0.0
0.0011045778554273067 -0.0004201195926332371 0.0
0.004553795367188599 -2.7956096136932943e-5 0.0
0.002488657099171699 -0.0010434034706697172 0.0
0.002443281422584038 -0.0010204793932792205 0.0
0.0024387233741453144 -0.0010684126952771975 0.0
0.002392923172078769 -0.0010445491460073198 0.0
0.002341663918569101 -0.0010660432253680383 0.0
0.002340401478581205 -0.0010189624851539357 0.0
0.0024462657347885572 -0.0009731390050471383 0.0
0.0031677410102421903 0.00019826006412638922 0.0
0.0005328679314562342 -7.368989597507707e-5 0.0
0.0006202572787359161 -0.00012863860374366388 0.0
0.0005379233351943261 -0.0001295474848949071 0.0
0.0029117214989313567 -0.00040571987591465886 0.0
0.0008847592328288241 0.0002703345366457614 0.0
0.002323182775654109 -0.0004132953353780854 0.0
6.655650453389528e-5 -2.9602547450238122e-5 0.0
0.0014146669363546823 -0.0009132696940510304 0.0
0.0013671426187567193 -0.0009117910168841271 0.0
0.0013771621238033683 -0.0008757601170660443 0.0
0.0015906290155541858 -0.0008743391119411677 0.0
0.0013615676998724102 -0.000577732758003948 0.0
0.0005952952152161218 -0.0002682827811807159 0.0
0.00034208918755108427 -0.00021073361152928536 0.0
0.004530328924835856 -1.8149369733032292e-5 0.0
0.004469940619117407 -3.6774901030458467e-5 0.0
0.0008799568326401927 -0.000688684965798725 0.0
0.0010645743138631703 -0.0007654906044662387 0.0
0.001022566372301994 -0.0007704178911169327 0.0
0.0009718766842886479 -0.0007286920599265692 0.0
0.0009783398268881191 -0.00077164608424822 0.0
0.002743011348951416 0.00018723124671814068 0.0
0.0018101302680491181 0.0002228335057629136 0.0
0.0030022634317302737 -0.0009163735101383356 0.0
0.0030432477229447585 -0.0009319828070324651 0.0
0.003095003484465326 -0.0008978614918364518 0.0
0.0029836223461010797 -0.0009730797497605008 0.0
0.0014728484024428478 -0.0006155538864112351 0.0
0.0026356789069168773 -0.0007674680330821509 0.0
0.0016525709527306634 0.00023829124419697388 0.0
0.0018627675719507565 -6.386943301549611e-5 0.0
0.0045628277390021696 -3.066371911143563e-5 0.0
0.0045277202032104604 -6.054193350793367e-5 0.0
0.004512666860603255 -6.631734578065397e-5 0.0
0.0009297018182139035 -0.000730617872386964 0.0
0.0008894123255227458 -0.0007301953490903829 0.0
0.0013485405199635426 -6.423461476391979e-5 0.0
0.001199174820200051 -0.0005957456070466349 0.0
0.004284397913139387 -0.0001949955010542021 0.0
0.0034910526807989724 0.0002412749631811769 0.0
0.0020746390809309044 -0.0002466841309439939 0.0
0.0021373710190391556 -0.00023599737033440363 0.0
0.0027512139197954652 0.000215052530906448 0.0
0.0034192893584059953 -0.0006613417897259597 0.0
0.0020044141775466106 -0.0007325636480877489 0.0
0.0020066125695828623 -0.0007733791913288338 0.0
0.0004885084784387327 9.667222102053213e-5 0.0
0.0010957193272434574 -0.0006028371070438157 0.0
0.0010434851551291509 -0.0006002254142053361 0.0
0.0009869030234364302 -0.0005614675682809424 0.0
0.0009927786431490626 -0.000601360131971753 0.0
0.0008398606642872526 -6.155504247986773e-5 0.0
0.0008432915169368861 -2.8406305318966787e-5 0.0
0.0009426385377979776 -0.00012589396411284703 0.0
0.003028353323206616 -0.0009839879273421629 0.0
0.0029319474872765206 -0.0007534556604189793 0.0
0.002867926022238181 -0.0007852624439249444 0.0
0.0029247123206488533 -0.0008022850792662622 0.0
0.002860593271667766 -0.0008353714361188527 0.0
0.002899728310246734 -0.0008482491427364525 0.0
0.0029851402979551383 -0.0007629988616980181 0.0
0.003035625106342562 -0.0007691144601991232 0.0
3.1794938507647865e-5 -3.508910807284225e-5 0.0
0.004568630900915999 -3.113244525434964e-5 0.0
0.003810604080171752 -0.0005711700181925632 0.0
0.0027292790288473007 -0.000994658566018714 0.0
0.0042427631311755965 9.910603077062529e-5 0.0
0.002644068542153737 -0.0009602594776477717 0.0
0.002632338492593905 -0.0010070777394199512 0.0
0.003472148545529191 -0.00045172119730170864 0.0
0.0031032533307977584 -0.0003479741792367433 0.0
0.003039654294910369 -0.0003388254242709802 0.0
0.0014411453446873776 -0.0008196017322159167 0.0
0.0008344997768350225 -0.0005208713018863836 0.0
0.0034394095667324587 -0.00025704509049991904 0.0
0.003661280037581093 -0.0006118062052386016 0.0
0.0015971644957888972 -0.0004750330431362102 0.0
0.001657025238488098 -0.0004663811759013351 0.0
0.0016548333735964605 -0.0005011177093394633 0.0
0.001660652620151877 -0.0004330107793509299 0.0
0.0015953530593312898 -0.000510326331712714 0.0
0.0017153837642101396 -0.00046114574336653336 0.0
0.0017226848134854734 -0.0004301893890653703 0.0
0.0017377047541855528 -0.000396333260660723 0.0
0.003443729708095028 0.00021762022126885515 0.0
0.0003572412598544513 0.0001008886356795064 0.0
0.0033282503453788584 -0.0001709600235908655 0.0
0.003631979992218776 -0.00038374958876514966 0.0
0.0006465394540504717 0.00021881948793878931 0.0
0.0006449562709276922 -1.2486753134553312e-5 0.0
0.0009422254920399103 -5.503728600211994e-5 0.0
0.0007287962419434533 -0.00047782219237109294 0.0
0.0015958802399679607 -0.00040771774968572185 0.0
0.0012356710591369992 -0.00034499785909739895 0.0
0.0013221854163388994 -0.00034303322685218295 0.0
0.0013775511734676474 -0.00037700114320523355 0.0
0.0022363800985731883 -0.0010131321470156582 0.0
0.002289527513631305 -0.0010393179882917745 0.0
0.002287865732422534 -0.0010909158303337725 0.0
0.0023420792954915426 -0.0009725668486711365 0.0
0.003598118615736352 -0.0006485543399882502 0.0
0.001655805273809636 -0.00025267032212543 0.0
0.0033685712284699113 -0.00040491983079757706 0.0
0.0015868102881847809 -0.0008311202023258811 0.0
0.0024488603938629537 -0.0009270389000018822 0.0
0.0016876457635180277 -0.0009854319634952835 0.0
0.004223921816955323 -3.320632282875171e-6 0.0
0.0022624345644805094 -0.00042878611930289743 0.0
0.0005278557823075725 -0.00023089654008934957 0.0
0.0017186086851827531 -0.0006763447271916301 0.0
0.001775510312426149 -0.0007050363991946392 0.0
0.0016015870830138788 -0.0006193171702027246 0.0
0.0017366195234337731 -0.0008822545238868633 0.0
0.0027307137125499974 -0.0005782164334625638 0.0
0.0026636923216567126 -0.0006016479283380712 0.0
0.0027241011643240874 -0.0006169966509433681 0.0
0.0032896515415027365 -0.00014396672340322384 0.0
0.0020618969320141743 -0.0006787906654802298 0.0
0.0014815023276263742 -0.0005619336840899956 0.0
0.002624525593859117 -0.0002464032949372881 0.0
0.002611811467971567 -0.00027292776708259857 0.0
0.0005683249969476192 -0.00038689887502525776 0.0
0.0012103404589287876 -0.0007749886281402918 0.0
0.003110301873888304 -0.0008462484374562379 0.0
0.002590328369752523 -6.223957285037275e-5 0.0
0.002410155054062627 -0.0007326742913131179 0.0
0.002349549893247052 -0.0007527848705252456 0.0
0.0023469649450788776 -0.0007956157910119782 0.0
0.002289360873359178 -0.0007718036304117726 0.0
0.0022881609367215957 -0.0008149759391093551 0.0
0.0024033403541085063 -0.0008175522143097694 0.0
0.0027952815491130135 1.375598209120723e-6 0.0
0.0018849705654339127 -0.0005739089645612904 0.0
0.0018282881302910607 -0.0005855219298203184 0.0
0.002608037458871734 -0.0005486811200922956 0.0
0.0015425450998276722 -0.0006265624684769232 0.0
0.0025820158297959884 -0.0010352289641813977 0.0
0.0019453310638386265 -0.0007069198548382672 0.0
0.002292183689497091 -0.0007304111456260547 0.0
0.003267531617692481 -0.0008851307109127513 0.0
0.0020734265396966617 -0.0004385961876313605 0.0
0.004340282080331118 -0.00011105694824913904 0.0
0.0023001523471262537 -0.0006141299288221895 0.0
0.0010264575332661382 -0.00044959324798596247 0.0
0.001970323477998238 0.00021726424324698443 0.0
0.0032474101763656084 -0.0007266023571208846 0.0
0.004152402460538343 9.978998022559879e-5 0.0
0.0006703232292953096 4.684595023473408e-5 0.0
0.0006939402317676855 7.508507985465044e-5 0.0
0.000771621788900977 3.349716953273397e-5 0.0
0.0008143019582038381 6.730569508703633e-5 0.0
0.0008914841860410069 4.542398119598301e-5 0.0
0.0032619300295638623 -0.00020738532596955536 0.0
0.0018843515169476412 -0.0010227521804360507 0.0
0.0021369371477850977 -0.0004263330173150089 0.0
0.00013201044443296691 -4.052442356188007e-5 0.0
0.0014617060138103694 0.00024803031927531663 0.0
0.0013588585328828734 0.00026363676124254684 0.0
0.0030807578178436586 0.000116796315863776 0.0
0.0018350746233636 -0.0008567671263670143 0.0
0.0020943812308700273 -0.000982169112476928 0.0
0.0018135959086925664 -0.0002891296452472631 0.0
0.0025467945545327316 -0.0005334911326253616 0.0
0.0024801478879009128 -0.0005160852292524243 0.0
0.002489745830178 -0.0004804377152016819 0.0
0.0026074467390963707 8.109851617470668e-5 0.0
0.0017253019154539776 -0.0007165071679565273 0.0
0.0011656743642727554 -0.0003141688158782728 0.0
0.0017645945269242197 -0.0005228789538434733 0.0
0.00022371337531333722 -0.00016030890114537543 0.0
0.0024153864295067325 -0.00023632259463141658 0.0
0.0009626406278825458 -0.000685115244541837 0.0
0.002428842520291889 -0.0005418355091670566 0.0
0.001450268696087412 -0.000863593326350254 0.0
0.0032395730145678386 -0.00035875082250925316 0.0
0.0021891693806275754 -0.0005401029085724181 0.0
0.0022304989470527323 -0.0007897743236040735 0.0
0.0040576279881256025 -0.0003049712947199758 0.0
0.0008444435614928606 -0.0006886790139115522 0.0
0.004401923066655216 -0.0002168662302485744 0.0
0.0018171828869614796 -0.00040896033551073317 0.0
0.002182995306084117 -0.0006107603718920799 0.0
0.00038994916126898217 -0.00016047416312152407 0.0
0.004045621541989005 -0.0002239390794959395 0.0
0.0025673971694583795 -0.000834326319785031 0.0
0.00013081138183537624 -4.920390631284671e-5 0.0
0.002339558001459485 -0.0003329746744313793 0.0
0.002337383790995038 -0.00035651937047637453 0.0
0.00430994161590355 -6.688245056175692e-5 0.0
0.002535387562592554 -0.0010633990639862653 0.0
0.0007872240212947583 -0.0005193709922252171 0.0
0.004451543073724712 -0.00011070889468277936 0.0
0.002426038416999685 -0.0004665827840171771 0.0
0.0022509942164045085 -0.0005253933522320681 0.0
0.0028248450416029683 -0.000730474696316841 0.0
0.002765614012505539 -0.0007158856817070931 0.0
0.0025839767772437225 -0.0007486094132563589 0.0
0.0021343475967953115 -0.00045697774739856086 0.0
0.0026383900286890342 -0.001081783486575136 0.0
0.002843355289812911 -0.0010482657423338422 0.0
0.0020142007478114276 -0.0010828280394339907 0.0
0.0021721218603157574 -0.0010971005407502952 0.0
0.003147378495505838 -0.0009635841957111311 0.0
0.0031329225766259 -0.0009179065802614292 0.0
0.0016014546174756151 -0.001004375791048315 0.0
0.0012555773253337525 -0.000909154993905956 0.0
0.0027395838026690886 -0.0010675011757830747 0.0
0.0017090893432104254 -0.0010334379822899793 0.0
0.0019272425862571828 -0.00035837939504802845 0.0
0.003950968155250096 -0.0001435141141592078 0.0
0.0032696109763681127 -0.0005536647125403717 0.0
0.0032494954556319565 -0.0005939045493509612 0.0
0.001654548588079046 -0.0005387203680321014 0.0
0.0028112800097145193 -0.00048343743661107984 0.0
0.002235857317639735 -0.0008729478753170115 0.0
0.0011417493659418405 -0.0007155717842228247 0.0
0.0008521662179503878 -0.000411877314900315 0.0
0.00194482249577634 -0.0005270610119509954 0.0
0.004034177156171929 3.0600234874195686e-5 0.0
0.0015459367623168747 4.4698607228446295e-5 0.0
0.0022010881243575576 -0.0004134532687746845 0.0
0.002604177149035106 -0.0005878539690533584 0.0
0.0002952828660392899 -0.0002942879496102253 0.0
0.0003062341927639212 -0.0003258235246023978 0.0
0.0019444395175924028 -0.0007876440101203903 0.0
0.0016284627640538662 -0.00073902825846576 0.0
0.0023599694117263778 -0.0006332880686423094 0.0
0.004276426484543189 7.943525670239192e-5 0.0
0.0024985090692162593 -0.0009482393688457925 0.0
0.00452221681262213 -7.728487823011588e-5 0.0
0.004495638974732174 -0.00011164340608547394 0.0
0.0012631972283462059 -0.00020524419920665458 0.0
0.0020055042173783106 -0.0005825554998837964 0.0
0.0021196228417516574 -0.0007022349410385412 0.0
0.0043891747790699214 1.5588791443261433e-5 0.0
0.002140108950210694 6.475737790809915e-5 0.0
0.003094997844562073 -0.0007396893564414439 0.0
0.003185710845379905 -0.0006255963422062884 0.0
0.0012330128387460985 -0.000863117954645488 0.0
0.0029207308477954327 -0.0005798801776924001 0.0
0.0020063513324323086 -0.0005144546444995252 0.0
0.00305852627976964 -0.0005251863289100947 0.0
0.003046676701420952 -0.0005636985486822771 0.0
0.0031276306403847853 -0.0004972467430512246 0.0
0.0010239122721785278 -0.0008143535381562907 0.0
0.0036093585668934064 -1.4362841603894789e-5 0.0
0.00267282049592092 -0.001031117014733726 0.0
0.003809357314164703 -0.0006358826693251838 0.0
0.0034379482325299525 -0.0004085892185327682 0.0
0.0022233660254252084 -0.00030859796955704476 0.0
0.002856022641741803 -0.0008857144372939848 0.0
0.0017798830322505728 -0.0007449323203106568 0.0
0.0018689830335006103 -0.00043889822738171297 0.0
0.004258921937459124 -5.1721034813209e-5 0.0
0.0009789941048815294 -0.0002880188193334163 0.0
0.0032938819946877218 -0.00023369473313971018 0.0
0.0021895296956823415 -0.0001966263717430772 0.0
0.0028738564658387705 -0.0004939227899245081 0.0
0.004089683607535147 -0.00014163958862895473 0.0
0.00034282784965054505 -0.00017089848564607376 0.0
0.0033428050118340597 -0.0006056645703249379 0.0
0.0024925767800108435 -2.987104243199543e-5 0.0
0.0024696611001758188 -5.305846123774878e-5 0.0
0.0027628173161203043 -0.0008571308709028264 0.0
0.0025381556426730856 -0.0006494946233855638 0.0
0.0026157248518525068 -0.0008526111569717842 0.0
0.0034053891969694212 -0.0007075950934635324 0.0
0.0033706335042507376 -6.109709911852891e-5 0.0
0.0021623404384265954 4.0656674418658586e-5 0.0
0.0030556510917646666 0.00022335560686978666 0.0
0.003983601016227608 -0.00038423479700101955 0.0
0.003998502751566348 -0.0003487402060712298 0.0
0.0021804982684990415 -0.00010731369121225258 0.0
0.0014769068375269268 -0.0007259407086847794 0.0
0.0029873578197657296 0.0002056644689447298 0.0
0.0021735824855132414 -3.379736721966469e-6 0.0
0.002909467341126431 -0.0006191856345084714 0.0
0.004461211141362355 -0.00011900245881216155 0.0
0.0007437526427604119 -0.0005573145009088436 0.0
0.002793792437303234 -0.0002974311408903209 0.0
0.002182604781021531 -5.459416852147295e-5 0.0
0.0021784965332213163 -9.114771988025405e-5 0.0
0.0007677101312102971 -2.3176014981976697e-6 0.0
0.004013122637379104 0.00015818792659721194 0.0
0.002359349689676816 -0.0002062968578675773 0.0
0.004110600266598441 -0.00029295838062655264 0.0
0.0014217274065587212 -0.0006936255145535693 0.0
0.0035437497513946497 -0.0008035337542187023 0.0
0.003636362278893853 -0.0007672661186199075 0.0
0.0012856200068658023 -0.0007170636102266821 0.0
0.0030185152434159114 -0.0006411947493387585 0.0
0.0019623122027028323 -0.0010769914047382017 0.0
0.0028649722286251014 -0.0001789577545909404 0.0
0.0008067328162198972 -0.0007103431709270541 0.0
0.0023799954869473134 -8.251068491555081e-5 0.0
0.002480395951736502 -0.00027635118713417365 0.0
0.002426466912546857 -0.00011456690241443558 0.0
0.002659496220403703 -0.0006420231636834218 0.0
0.00323385473429162 -0.0006332923482945164 0.0
0.00010523299004322049 -0.00012968382000741788 0.0
0.0001819628841637465 -0.00021748223116557254 0.0
0.00021867103234917613 -0.00025698923159742207 0.0
0.004276523789022237 -0.00034011004699570883 0.0
0.00029552583275783257 -0.00033645686195673576 0.0
0.00131916331926279 -0.0006665144968266188 0.0
0.0005868267374335075 7.849592864605277e-5 0.0
0.0038556809273217196 -0.0006495823455979452 0.0
0.0006789779785306424 -0.0006324385017749254 0.0
0.0007652558883630142 -0.0006864920465532795 0.0
0.004235396739506562 -0.0003746707277992711 0.0
0.004153250817259803 -0.00044486670195111364 0.0
0.002461746462632703 -0.00035253363437278524 0.0
0.0017847110497852794 -0.0009143440175686892 0.0
0.003355923222954041 -0.00010267675410523054 0.0
0.003942046487408052 -0.0005932853428447405 0.0
0.003985196038145969 -0.0005659586412308279 0.0
0.0005963033042567299 -0.0005819587824738229 0.0
0.0004093003680422582 -0.00043621528807687556 0.0
0.004070761172913577 -0.000505921776501018 0.0
0.004103376850831816 -0.00044718365443513876 0.0
0.002770646616230087 -0.0010166912241531944 0.0
0.0004882883902795018 -0.0005017072332002614 0.0
0.003389227183159084 -0.0008806116155519597 0.0
0.0008498686108968392 -0.0005631171775490411 0.0
0.0038134255086163488 -0.00047353843654446385 0.0
0.001311685351986513 -0.0008883944850150662 0.0
0.003563355772550052 -0.0006375962617003117 0.0
0.0035911208835394653 -8.661995841988861e-5 0.0
0.001295227717024179 -0.0004738025766478149 0.0
0.0008636563511983675 -0.0004479288332143752 0.0
0.0016810020756840998 -0.0007691037110778002 0.0
0.002240544018906366 -0.0006315875142690418 0.0
0.0038094204622761293 -0.0002709647106147337 0.0
0.0023932907162649386 -0.0009965694339750955 0.0
0.0024210496616715316 -0.00021557003435744904 0.0
0.0023939538405348903 -4.6874026302901086e-5 0.0
0.003079571106268483 -0.00045165613488847234 0.0
0.003562654915658028 -0.0005426261417931357 0.0
0.001237773830932104 8.512263278934264e-5 0.0
0.0028904375494512298 0.0001637104309296867 0.0
0.0014122903771958742 -0.00046344355298630124 0.0
0.0038586193208791403 -0.00039372840761220894 0.0
0.000889375396745802 0.00014106942356034084 0.0
0.0007585236913947043 0.00010712335105669658 0.0
0.0019487646360781075 -0.00013277062112019878 0.0
0.003999062591547718 -0.00017487221873120753 0.0
0.002111219411213169 0.00012801716814781738 0.0
0.00235035868371291 -0.0002644349890044231 0.0
0.004231774346408474 -0.00016827899008144706 0.0
0.001185221805790655 -0.00048133613265500706 0.0
0.0014608922854774044 -0.0002923441506614007 0.0
0.0033094239010232397 -0.0004410427233072977 0.0
0.0036682172950167633 -0.0005081478409225138 0.0
0.0010251696109758565 -0.0004864315373603202 0.0
0.0005894527211782856 -0.0004275443421207872 0.0
0.0035175474782295846 -0.0005383681537221619 0.0
0.0014865045321772147 -0.00018197612254176063 0.0
0.0034702144511789277 -0.00030219020914063155 0.0
0.004531202490625275 -6.233733428381951e-5 0.0
0.003770503857532738 -0.00013204006488167768 0.0
0.0024310432918934646 3.189504882907412e-5 0.0
0.0025130576681666288 2.545328113545935e-5 0.0
0.002852409102321928 -0.0003653068963873451 0.0
0.004134659483084288 -3.474115652361273e-5 0.0
0.004064670629102028 6.780495630826098e-6 0.0
0.00017582271572596497 -0.00014777168007444898 0.0
0.00013010370380695313 -0.00010876218667382292 0.0
0.0018341677165132288 -0.0008999717451705863 0.0
0.0029772197827273566 -0.0005914883826057206 0.0
0.0016636831774849534 -0.0003094642294401663 0.0
0.0016611441551742064 -0.00028129333924306274 0.0
0.00162790870355509 -0.00011072909499358036 0.0
0.002346120755316193 -0.0008390491934373436 0.0
0.002724311901052409 -0.0003187684473444725 0.0
0.000723522227668272 -0.00012825696843209825 0.0
0.0031953976359518346 -0.00024327603784900372 0.0
0.0024641575906192235 8.398068710435382e-5 0.0
0.0019447193680908687 -0.0005611042029454719 0.0
7.814967810316346e-5 -9.609616346982945e-6 0.0
0.002243096338088371 -0.0005946221453822785 0.0
0.004210699397845547 -0.00019466857586422523 0.0
0.003601417828168326 -0.00030778546433093366 0.0
0.003414157686409387 -0.00022525337889182644 0.0
0.004037030124612295 -0.0002520866422674663 0.0
0.0029441635928407353 -0.0002549984885421724 0.0
0.0015949595865472476 -2.539335321156394e-5 0.0
0.0005218951732615995 -0.00020353448781152417 0.0
0.0019990465986975486 -0.00027594328476006444 0.0
0.002518761622090204 -0.0003653291027164004 0.0
0.0006506465099608603 -0.00036450180013556277 0.0
0.00211971961600711 -0.0010936923935245223 0.0
0.002848078050138065 -0.00025198768686718 0.0
0.0013744024250736677 -0.0007012126582566779 0.0
0.003080243716516519 0.00020124957441966735 0.0
0.0038705244052339573 -0.00026881610010987943 0.0
0.0014756491716720495 -0.0001521703505451282 0.0
0.0033894802197034285 0.00021150093824723914 0.0
0.0026009697269010054 -0.0002990768615642652 0.0
0.0022459670586773067 -0.0005591007669464385 0.0
0.0008130727274082875 -0.00015743311459433606 0.0
0.001528225505397982 -0.0003221672002643658 0.0
0.001942665454953446 0.0002081489284225295 0.0
0.0006060162057249835 0.00010239893325093652 0.0
0.003424206649324552 -0.00044718651568375847 0.0
0.0008958905847040242 -0.00034530427879629296 0.0
0.002308004076757811 -0.0005437735683362991 0.0
0.00380794886670148 9.620630308407266e-5 0.0
0.003250552080899023 -0.00043569426451764637 0.0
0.0014989421252712284 0.0001500322966170463 0.0
0.00027211401447009933 -7.886197497024464e-5 0.0
0.0011633426395570978 -0.00028097801853327456 0.0
0.00010337852881515246 9.921187751547154e-6 0.0
0.00021620005055351943 4.3861001448101674e-6 0.0
0.0032309598598481747 -0.00040116981477825284 0.0
0.00266788027108375 -4.096887246567649e-5 0.0
0.0014972403377196044 -0.000988080167614855 0.0
0.0010429571834763137 -0.0006424534644784675 0.0
0.0037718605803464113 -0.00020867341549998212 0.0
0.000505309429697402 -0.0004881557710984171 0.0
0.003135243508719192 -0.00046160741451308103 0.0
0.0026237736020760663 -0.0008101625847224078 0.0
0.0037427356143295573 0.00014862273044823903 0.0
0.0013430559138067823 -0.0008350319992503785 0.0
0.0040914469108024884 -0.00040273570657678063 0.0
0.0023530428430701997 -0.00024514939551856436 0.0
0.0007358722165520302 -0.000635270098868512 0.0
0.0031869648880618728 -0.0009140878944297471 0.0
0.0007539266780148781 -0.00040860234086694637 0.0
0.004322638777174954 -0.00018247865819823086 0.0
0.000536484842365775 -0.0002876985562277527 0.0
0.003197960818566549 -2.0540504032936626e-7 0.0
0.002948350275121518 -0.00022547294842105556 0.0
0.0023961168504602905 -9.542885803558487e-6 0.0
0.00010542579557917703 1.5294371758285817e-5 0.0
0.0017293435568506087 0.0002366425983796816 0.0
0.0012440255350002142 -0.00017042186554847222 0.0
0.0036725490893172157 -0.0007107872455097266 0.0
0.0037228750107785057 -0.0007281367971824486 0.0
0.00034484550593880044 -1.28205695424768e-5 0.0
0.002672956143349459 -0.000283327499842764 0.0
0.001089596309010022 -0.0006421866211593766 0.0
0.001888782475717079 -0.0006087221270366437 0.0
0.00010835774232295759 -0.00010358279847402746 0.0
0.0002543505730685749 -4.5455895236304485e-5 0.0
0.002570992658965284 -0.00040524571704681097 0.0
0.0023700246994172018 -0.0005266919344145979 0.0
0.00016589825313506528 -2.5630038304507444e-5 0.0
0.0004449647239899408 -0.00016698613031315967 0.0
0.0003331053472913184 -0.0003708823326830259 0.0
0.003835137325057891 -0.00043190304418548527 0.0
0.0030315956482533475 -0.0006021370783597129 0.0
0.0005325578446494517 -0.0003868421390744886 0.0
0.0035420046444866408 -6.253852617678947e-5 0.0
0.003259727782119806 -8.552436899139652e-5 0.0
0.00023419023318467012 -0.00025813053590549107 0.0
0.0018944910730400982 -0.00018325355631899147 0.0
2.8325598759680506e-5 -3.576459637001521e-5 0.0
0.004570498075740604 -3.4835451383381696e-5 0.0
0.00444442132398973 -7.858861642443854e-5 0.0
0.0013553145331200416 -0.0009460889420654086 0.0
0.003553491886788882 3.5559353399847685e-5 0.0
0.003043529816014426 -0.0007294723967503567 0.0
0.0005957445954569078 -0.00029682048532997434 0.0
0.0028935535857107513 -0.0010364886680680298 0.0
0.0006476357987779037 -0.00015827372891995722 0.0
0.003985847659072617 -0.00020317444616612448 0.0
0.0018292435045471562 -0.0006196397434317465 0.0
0.0001648168506549333 -0.00012849742207318092 0.0
0.0021085088804750863 -6.173056542519346e-5 0.0
0.0021076890656646966 -8.108348965281365e-5 0.0
0.004178561692880017 8.284614692714425e-5 0.0
0.002600723605298395 -0.0006261517028886618 0.0
0.00032971306238344854 1.8275812896265333e-5 0.0
0.004054700736811846 -0.0004894336236861943 0.0
0.004222583874021391 -0.0001287327849892931 0.0
0.0032345425967229605 7.155311880048357e-5 0.0
0.003317275403698788 3.544970581307329e-5 0.0
0.0019818013488972002 -0.0009444345917598693 0.0
0.004483454151299346 -0.0001367342527288204 0.0
0.001948920297514908 -0.00015413970293262348 0.0
0.0003983800092160473 0.00012939357670762035 0.0
0.0005192076703494854 -0.0004216381745221277 0.0
0.0013413900398754224 0.0001878751026194466 0.0
0.004057959638512839 -0.0004051138945555112 0.0
0.000231607472965835 3.8967408039677514e-5 0.0
0.0024193184151078202 -0.00019589214222215338 0.0
0.003615103776311086 -0.0002706673230025929 0.0
0.0029156919936142575 -0.0003779923362745362 0.0
0.0045042133052570965 -5.8573669467457995e-5 0.0
0.00010033557878471103 -5.5525318819307056e-5 0.0
0.0042356005138172595 -3.2201922891893006e-5 0.0
0.00451777411851673 -5.747446013427754e-5 0.0
0.0022382063447338703 -0.0010559499627611243 0.0
0.002644612542256379 -0.00038986849520900323 0.0
0.0014690636249668659 0.00024661000209762093 0.0
0.0010822604177658226 -0.0004838202933479661 0.0
0.0014357429964814222 -0.00025294185690013767 0.0
0.001884427581271732 -0.00020437826033266372 0.0
0.0009040949249643222 0.00011755618393599915 0.0
0.0016756662993412488 -0.000726850002499855 0.0
0.0008259439180193042 -0.00012376880146477268 0.0
0.0005309341316026798 0.00012753375451755378 0.0
0.002149844343399866 -0.00034554001894212123 0.0
0.003295711961557202 -0.0006003335604860885 0.0
0.0038982231894470563 -0.00039463483571799404 0.0
0.0015198390199350118 -3.1289615149388294e-5 0.0
0.0010059237115843007 0.00020827868633767688 0.0
0.0024937619362384684 0.0001187580184467761 0.0
0.0013258283567803523 -0.00016507082902771664 0.0
0.0036945350380082247 -0.00040675858095831933 0.0
0.0012381425022024474 0.0002460805947273142 0.0
0.0011124162357156494 0.00024170567072811055 0.0
0.0025456414427401045 -0.0005719627008999158 0.0
0.002560899677265895 0.00019239706882362222 0.0
0.0018038219231483368 -0.0010536223093968997 0.0
0.0034884067620809707 -0.0008382397516168684 0.0
0.0012343069988551647 -0.0004447756160110435 0.0
0.003246161661205794 -0.0009356396335569138 0.0
0.000988523160226622 -0.0001613086022033047 0.0
0.00376017744347572 -0.00039894713589594676 0.0
0.0017692250532455218 -0.0005950061535901417 0.0
0.003980106493886926 -0.0002614768258718766 0.0
0.001086250360448198 -0.00045084735051411013 0.0
0.0018067931938927366 0.00023226207552197993 0.0
0.0016201878151762157 -8.257826124769876e-5 0.0
0.0020667317901658017 -0.0007944104914909093 0.0
0.0021839448739674415 -0.00025292903847599327 0.0
0.0021069391438067477 -9.927318662922445e-5 0.0
0.0012621202141786237 -0.000629507025087753 0.0
0.0012766467852647796 -0.000674389969128561 0.0
0.0008204900717976828 -0.0003106491836933294 0.0
0.0010671392295979166 0.0003312488242973408 0.0
0.002141191586467959 -0.0009219933183558916 0.0
0.004011731763334056 9.009732631230187e-5 0.0
0.0036254059425593144 -0.0005053222739814284 0.0
0.0025218406690182865 5.2267066617793977e-5 0.0
0.0011792599597007425 -0.00044881687034394806 0.0
0.003169485858365535 -0.0003519033565671261 0.0
0.0026838515889671425 -0.0007848398165242142 0.0
0.001766238445174971 -0.000558079507159133 0.0
0.004275779416209125 -0.0001591512231852871 0.0
0.0044800141162025416 -9.63740338143551e-5 0.0
0.001591246184907456 -0.000290072575389728 0.0
0.0030777910043300214 -0.0009488569944694213 0.0
0.0041486420258205646 -0.00042137448318671646 0.0
0.00020266194773937323 -5.563370350203447e-5 0.0
0.0010936587918742183 -0.00028530622543314766 0.0
0.0012940921838114551 -0.0004412187274483231 0.0
0.0042211777663760126 -0.00036376773982536674 0.0
0.0016683095849491685 -0.000684094723598388 0.0
0.0028916008958599655 0.0001997419342779863 0.0
0.0004267047003041977 -0.00042764325705236937 0.0
0.0026748057900914447 -0.00046512290523319786 0.0
0.0038807492013104277 -0.0003581230782875258 0.0
0.0030964501740434356 -0.0005730252533484304 0.0
0.0043480209141668015 -0.0001531694889199499 0.0
0.003144525637246348 -0.0008635028562286526 0.0
8.00278337534529e-5 -4.719206570999051e-6 0.0
0.002044841879092845 -0.00033230477274315257 0.0
7.470103576181761e-5 -5.856780826361898e-5 0.0
0.001422001954408682 0.00012970530476465143 0.0
0.0009570220619301721 -2.6323595121487147e-5 0.0
6.440351427554743e-5 -7.488014745721406e-5 0.0
0.0011642622806858677 -0.0008812758811246747 0.0
0.0010758137530577166 -0.0008061435237323153 0.0
0.0019528550987510788 -0.00011382540859088338 0.0
0.00194767136309693 2.6541608666678317e-5 0.0
0.0007793137339235437 -0.0006624597955500574 0.0
0.0014004992791365211 -0.00015959719003254052 0.0
0.0027243740032397144 -0.00029625986557484053 0.0
0.0008000336302434543 -0.0004096710041567504 0.0
0.0030290430942410142 0.0002250843291794529 0.0
0.002748835624238131 -0.000757920711046571 0.0
0.0005861764409960653 -0.00016088939715801332 0.0
0.0003293676428926141 -0.0003089636663971881 0.0
0.00235931672734989 -0.00016911193569205625 0.0
0.00015126136892633778 -0.00017307052710640084 0.0
0.004392561446838121 -5.208582829991072e-5 0.0
0.0015342250327417355 8.007720856014222e-5 0.0
0.0021626198571057524 -0.000317552018717429 0.0
0.0040054515548457546 -0.000448075920718698 0.0
0.004353441475361099 -0.0002695707330605551 0.0
0.0036290808409713904 -0.00023353246808451028 0.0
0.002134866044332243 -0.0008784694391242172 0.0
0.002777983862476938 -0.0004401308967532087 0.0
0.003921622922313697 -0.0005775177190252335 0.0
0.0023345981757740488 -0.001106434157043053 0.0
0.0038289085613878427 -0.0003621160683858874 0.0
0.003109039308442805 -0.0005352963988160877 0.0
0.0016105028906418823 -0.0006550323092711196 0.0
0.0027355010078432968 0.0002065085393109478 0.0
0.0017024103554030977 -0.000528048346403327 0.0
0.0014173397093129334 -0.0008760061559725407 0.0
0.0021252329171845253 -0.00025973462118251484 0.0
0.0035979756874093007 -0.0007476432660331217 0.0
0.0008127546350770868 -0.00028034659898208404 0.0
0.000648288379373136 -0.0005876769146302039 0.0
0.0033158385637099322 0.00010243310711602175 0.0
0.0010317785873557555 -0.0003188062710261191 0.0
0.0026562331018297573 0.0001955828465444756 0.0
0.00133613582730758 0.00047919138459502414 0.0
0.0033972367484190304 0.00030890818578013454 0.0
0.0039693740617665904 -0.00023475990347663066 0.0
0.0021964351821589603 -3.883457348227614e-5 0.0
0.003546373625152892 -0.00027096305633207674 0.0
0.0028163017955090833 -0.0008245992452528303 0.0
0.002986763369856727 -0.0010179858434579624 0.0
0.0013553410912013632 -0.00043503333403085124 0.0
0.0013311409119227439 0.000253472535644795 0.0
0.0008929194703720931 -0.00028450376578662245 0.0
0.0009834461427002663 -0.0008064661107575909 0.0
0.002008627066167274 -0.00036847336900168345 0.0
0.00010235974200805965 -5.025112882196643e-5 0.0
0.0007523190288528142 -0.0006074212010845125 0.0
0.0021915955165561205 -0.00013844281716251258 0.0
0.0002557679972330509 -0.00019132587913738423 0.0
0.00026452550961045447 -5.169522877399592e-6 0.0
0.0024187791523779356 -0.0005131205639065676 0.0
0.002420580774808497 -0.0001777344353911788 0.0
0.004302432008216097 -0.0002959664945550545 0.0
0.001881871260959498 -0.00016240297760834087 0.0
0.0033158946065283182 -0.0005605006131451862 0.0
0.00244104725440334 -8.976121777217122e-5 0.0
0.0006165734564015615 0.0001193710273576823 0.0
0.000815880378995024 9.283956907913546e-5 0.0
0.0044115689906835094 -0.00011307233679730495 0.0
0.0028147517381308545 0.00020285104695690206 0.0
0.0006577051315161905 -0.00030387619844447983 0.0
0.002787436812708241 -0.00018955320813891715 0.0
0.002097122514727882 -1.4400504077376824e-5 0.0
0.0024000061467272724 -0.00025409964679573956 0.0
0.0007438506023956487 0.00021735292302849473 0.0
0.0024348801954756755 -0.001108868743293492 0.0
0.004187131239763218 -7.062670102344623e-5 0.0
0.002377623485590112 -0.0004265790123899425 0.0
0.002356627412795516 -0.00011657663867513389 0.0
0.0029999192180981014 -0.0003222418279261994 0.0
0.0020317514491328447 -0.0001077762411905155 0.0
0.002388181155639741 -0.00039516029568542886 0.0
0.0011433002868799034 -0.0006852178231875211 0.0
0.0031757632019093294 -0.000506114463855135 0.0
0.0018830324484101332 -0.000292911279391805 0.0
0.0023553581835765464 -0.0001520620979386152 0.0
0.0037616383059046795 -0.0007114248686720953 0.0
0.002010066817010392 -0.00025314248544645033 0.0
0.002811446433993745 -0.00013947160619419579 0.0
0.0024524894950028213 -7.231825095589439e-5 0.0
0.0003455806739385948 -0.0003640681428287822 0.0
0.003642788259827646 -0.00047312440193956904 0.0
0.002435517307295912 -0.00013635597754757197 0.0
0.00133953864741232 -0.0008739954045944065 0.0
0.0026525557306986422 0.00020580488939370622 0.0
0.003345209184410524 -0.0009050444713275142 0.0
0.00441963711941622 9.433510485261174e-5 0.0
0.0001905400282248271 0.000106438954581833 0.0
0.0019587276823896257 -0.0003811373394833294 0.0
0.0026199616684921315 -0.0010487402312558372 0.0
0.0016374027217956836 -0.000983390018478548 0.0
0.001866180005207633 -0.001065652091070961 0.0
0.0003410869041109909 -0.00015371197958347757 0.0
0.003375231131892807 -0.0005343859114091808 0.0
0.0013622067469754179 -0.0004020065781671608 0.0
0.001941317117103753 -0.00026250604352679217 0.0
0.0015276598651571415 -5.850291501248119e-5 0.0
0.0019343557607228948 -0.0010416613035602316 0.0
0.0033221263396743645 0.0002232385628504593 0.0
0.004229582635574615 9.639575281033863e-5 0.0
0.0028167058022971346 -0.000790824450457666 0.0
0.0023704447371285624 -0.00046092434686892825 0.0
0.0015137400834191253 -0.0006478160774773288 0.0
0.0025362833755530516 -0.0011043385438195448 0.0
0.0035149356582273527 -0.0004572857385470967 0.0
0.0002967246053010828 -0.00019033562173620397 0.0
0.004130061821893507 -0.00014735478121846648 0.0
0.0020417625094069016 -0.0010524374629012477 0.0
0.0020937475816340404 -0.0009431432699527147 0.0
0.003199700468238444 -0.0008237470699354625 0.0
0.004539439412817333 -6.49743242902882e-5 0.0
0.0017358793642666336 -0.001006519597286705 0.0
0.0014389892806958762 -3.463949131559257e-5 0.0
0.0015349182439920637 -0.00029845587630210086 0.0
0.002981673461219102 -0.00035843266116412204 0.0
0.004417958545613987 -5.699988034915468e-5 0.0
0.00035971385752837736 -0.00032222968486422126 0.0
0.002395865135086172 -0.00036787865576398633 0.0
0.004113940653702053 -0.0004070949127160553 0.0
0.004398867626233173 5.623257839225356e-6 0.0
0.0012941223880136856 -0.00024054116756211768 0.0
0.0020906807467890942 -0.0010621177395469692 0.0
0.004289900342063185 -0.00013935220339867172 0.0
0.0007812799564109134 -0.0005704458197555515 0.0
0.004480422350200657 -3.9733569070605465e-5 0.0
0.0014540570405419035 -0.0009835886384795159 0.0
0.0031881880573457946 -0.00046861985553243096 0.0
0.0008631305307130763 1.6077264062803892e-5 0.0
0.002881871252564715 -0.00014441871986807417 0.0
0.00444704706336351 -0.00016049622986804473 0.0
0.003578794393008795 -0.00042675372299740374 0.0
0.0012737601870670546 -0.0008873209300914454 0.0
0.000895804085585439 -0.0007651161874691832 0.0
0.0011434848854833305 -0.0006232793184479776 0.0
0.0038482001543506832 -0.0006234061617232415 0.0
0.003481377685229506 -0.0002733857593156451 0.0
0.0007155345158360387 -0.00031358476555961326 0.0
0.001852368445614067 -0.0003644627691473357 0.0
0.002977244345110483 -0.00039542765966334495 0.0
0.001789198717248711 -0.00043131012192209077 0.0
0.004319558910871928 4.149065059218451e-5 0.0
0.0031773016696523965 -0.00021562637047199587 0.0
0.0018730023469354978 -0.0002717882586637797 0.0
0.0007356341425943842 -0.00027579996907783574 0.0
0.003406791219835374 -0.00047855599788990675 0.0
0.00286027476375147 -0.000964604985876488 0.0
0.004015200078369835 -0.000522607697054415 0.0
0.0015596192128421937 -0.0009668766934328786 0.0
0.00294605043361226 0.0001487610623952891 0.0
0.0017065925799307083 -0.0004920994790854165 0.0
0.002718219554739872 -0.0010371259149451106 0.0
0.003970851689313455 -0.0004519475024662308 0.0
0.0034474018862940044 -7.226081112027751e-5 0.0
0.004320043875620945 -2.0800786504788434e-6 0.0
0.0010079823757001049 0.00022067459603099644 0.0
0.004202116728798112 -1.97073980726453e-5 0.0
0.001493321924733775 -0.000593157821150868 0.0
0.003888423620982169 0.00010291569281852586 0.0
0.002729241839882408 -2.3183723770781736e-5 0.0
0.00319870402491201 -0.00015256982930069926 0.0
0.0014014738823733715 -0.00035844905674488586 0.0
0.0032505492932226403 -0.00026024852684924346 0.0
0.002193394817501525 -0.0010667674073246132 0.0
0.0011901482828675278 -0.0008322314226907623 0.0
0.0024750720354800642 -0.00018623742287833013 0.0
0.0034350357981078436 4.6344617541386777e-5 0.0
0.0020560225015401933 -0.000994709488806434 0.0
7.082754386935139e-5 -5.0564422778885664e-5 0.0
0.004442381037558397 -7.240906821693025e-5 0.0
0.003871878252948236 -0.00014786326747819568 0.0
0.0018602596500821285 5.059094782922074e-5 0.0
0.00450113636938143 -8.46088631556791e-5 0.0
0.00123164855285976 0.00018889461841463834 0.0
0.0020988162552688307 9.766940734648323e-6 0.0
0.004568570321145184 -3.95545857674556e-5 0.0
2.9972034170388135e-5 -3.963816254809945e-5 0.0
0.0001052693745335261 -9.381417060382254e-5 0.0
0.001319297162282727 -0.000139638537081007 0.0
0.002822037508188341 -0.00045352709796288976 0.0
0.0031995317653097126 0.00011476354708381563 0.0
0.0036023899091430058 -0.0007100938651345554 0.0
0.004457458810712235 -8.671172743449346e-5 0.0
0.00033043677838889043 -0.00021801142910399983 0.0
0.0009546218656611612 2.6714933931317382e-5 0.0
0.002879475505575356 -0.0009177322121280266 0.0
0.0040072062769985674 -0.00015194466616543824 0.0
0.0011811718532142657 -0.0006204413418488423 0.0
0.00025662268915822834 5.188248519862098e-5 0.0
0.00285290734109719 -0.00020119367263145627 0.0
0.001369023897898545 -4.1279548435443146e-5 0.0
0.003396738438188198 0.000221280852288771 0.0
0.0021402804719549673 -0.00013406025967324257 0.0
0.0017742808568494367 -0.0004585817373952658 0.0
0.004067464793847214 9.484072758610353e-5 0.0
0.004182592517384958 -0.0004014519887385416 0.0
0.003469712045159446 -0.0008146269064443302 0.0
0.001039626603676613 -0.00029210340686836733 0.0
0.004245071171217587 -0.0001334197556237706 0.0
0.0006995253798551443 -0.00037655401692120074 0.0
0.004279558672836959 -6.142007472508466e-5 0.0
0.003883270602130152 -0.0006090304462005814 0.0
0.0027596431720449633 0.00011813344361202464 0.0
0.0032275846120897816 -0.0009117086912448001 0.0
0.003346923000491438 0.00021503497562976742 0.0
0.002121856300739826 -0.0002141479157728015 0.0
0.0011791137958543278 -0.000788601292277158 0.0
0.0015886789619405553 0.00024130673946784652 0.0
0.00010790885618708134 -7.979110621530103e-7 0.0
0.0044024849688241476 -8.541581320320755e-5 0.0
0.00046088103286066916 -0.0004613117760703926 0.0
0.0033910214680575004 0.00012402398087383445 0.0
0.0008153469516392773 -0.0006881055387116403 0.0
0.003191359992465336 -0.00043835994132483414 0.0
0.0009354159827246559 6.965278063316215e-5 0.0
0.00039081404744544044 -0.0002340316423274166 0.0
0.0005644754384204453 -0.0005660448712739672 0.0
0.0005102033085071024 -0.00039264981987716975 0.0
0.0013193050193345448 0.00029044406172086377 0.0
0.0035948311855180403 1.1039251010022726e-5 0.0
5.415164226637965e-5 -5.9789859591019986e-5 0.0
0.0038416558365334877 -0.00013083159282103828 0.0
0.003468227670626113 0.0002699518670374922 0.0
0.0028904767003313657 -0.0004319077866282453 0.0
0.002144680290370525 -0.0001670269069915714 0.0
0.0012083037482479887 -0.00010111424044425993 0.0
0.0021992881417080804 -0.00023363259120089654 0.0
0.0029441048629839104 -0.000838279404424889 0.0
0.001416425732693098 -0.0004015663647112635 0.0
0.0010456503862972778 -0.0008047781796069106 0.0
0.0039519956446340395 -0.0003621478700240167 0.0
0.0030109430548000606 0.00022697827337019749 0.0
0.0004640459803297295 0.00010480541317302727 0.0
0.001340627360947985 0.0001270528776076855 0.0
0.0030994827780653064 -0.00032604349156322413 0.0
0.002931339682554192 -0.0009946469780002202 0.0
0.0018473630824503704 -0.0003907102464097553 0.0
0.0037121984075252795 -0.0007058107715687712 0.0
0.00027087916526184546 -0.0002982888197008892 0.0
0.0032494336643110002 -0.0007904914172491876 0.0
0.0015151583508182897 -4.4214907974959635e-6 0.0
0.0043339877664476546 -0.00027103561887395017 0.0
0.001451190789641569 9.906944183176175e-5 0.0
0.002834443414994969 -0.00010053033972215347 0.0
0.002437136467373685 -0.0004915119603905296 0.0
0.0021034816863435505 3.183798096642119e-5 0.0
0.0025211780184970323 -6.218540114035826e-5 0.0
0.0028253871494387747 -0.0010125794561297906 0.0
0.0036338371045988916 -0.0007363012582412334 0.0
0.0011386616357064218 -0.0004560860608300733 0.0
0.0025848782214916654 0.00014894725550176137 0.0
0.0025233870868462908 7.606485814367408e-5 0.0
0.003618279654682394 -0.0006642330668263195 0.0
0.002130440742516338 -0.0001951517141654918 0.0
0.0020259973682441048 0.00012005640885093518 0.0
0.0011721733981938235 -0.000747818422274574 0.0
0.0043069167863921416 -0.0002745245337101494 0.0
0.0030584833143602764 -0.0009982319775214564 0.0
0.0020612347451080515 -0.0009647287890156462 0.0
0.004435666155248377 2.079390255685588e-5 0.0
0.0020329583430332434 -0.0008526221985199391 0.0
0.003384899298016345 0.00023309317072421132 0.0
0.0012182955881353508 -0.0002180932439107735 0.0
0.003009195953678825 8.963427956431038e-5 0.0
0.0008800990717742176 -9.014067651415473e-6 0.0
0.0019198224394027415 -8.288162438654486e-5 0.0
0.00122384350134078 0.00038416399163763884 0.0
0.004516238560884866 -5.49843667547143e-5 0.0
0.0028355430873016115 -0.0007620572448922346 0.0
SCALARS damage float 1
LOOKUP_TABLE damage
0.26783461456454416
0.06358261249031938
0.28162807232874776
0.09498946261323064
0.9632563818622571
0.9652583013086217
0.01166065485771782
0.41949970446512713
0.41064557530044876
0.4102613273986151
0.4281090126723903
0.4443078197723627
0.4685809105661079
0.4924608872448728
0.5090850749592803
0.5251678144034527
0.5237177023738905
0.5214514733538362
0.5112570173020619
0.49305003289418287
0.47493009382314144
0.461843713538387
0.44005822072843825
0.4146649542988644
0.39777967739343517
0.3737974624063721
0.3435464876689171
0.3167302438939795
0.2810727106289852
0.2462509005482326
0.20626734539077923
0.1624119541401767
0.05239656776157467
0.1014856149150399
0.11384692743902063
0.1325170274508163
0.14593844626455216
0.15644499824698183
0.16852373214607022
0.1777608160206915
0.18739338842627415
0.19716570374251136
0.20507060027862956
0.21438260712100843
0.22388170575093408
0.23059168917901077
0.23803398753484104
0.2464611766532466
0.25611059270363484
0.26733809466906566
0.27423499509695826
0.28340416257734363
0.2924882512848809
0.3047911007134812
0.30990109919098213
0.32491616181473576
0.33188474013751684
0.34598183081182005
0.35557264680459444
0.37228185511343426
0.3774682224236938
0.39617685376069317
0.4082973734592628
0.4250502700589878
0.4369788263818048
0.4556081307740562
0.466492618577504
0.48235736864501394
0.5012873457200971
0.524802321351751
0.5474672932805136
0.5673952788552593
0.5895115814907513
0.6192119421187084
0.6400360654926581
0.6673395723812392
0.6985657362227126
0.7200720284667523
0.7537800186572305
0.779921478225412
0.8071966933448214
0.8394493832853703
0.8650704594652985
0.8761593014243578
0.9057508259661061
0.9137547719196631
0.9320837988550978
0.9276305109414358
0.9167972496551359
0.8950211313438609
0.8711984312672912
0.8403858570581416
0.815159001296228
0.7880119114212202
0.7671669355759251
0.7399943113992565
0.7274801029149379
0.7053360189725532
0.6815091036452569
0.6652637147863827
0.6463728978215281
0.636175060011136
0.6131768786198832
0.6067605431582455
0.5923229388856587
0.5791090812994979
0.5689070021590488
0.5495376144632466
0.5427940808691719
0.5311790792519282
0.5190192991671386
0.5038237025386302
0.5027319970926368
0.4832707642762794
0.4764129680548823
0.4621939651314085
0.45230816362502274
0.4425596470711947
0.4276243022010344
0.4170503084264399
0.4079831083591276
0.394618816816508
0.3787408230594876
0.3627568270121572
0.3505567246906863
0.33445861696643847
0.3200766874723684
0.2853895763089925
0.2574604463398812
0.24217285293415344
0.14838120989441836
0.19437090761653342
0.25125434423728016
0.31538324724141487
0.3561250182717317
0.38045286032347053
0.4010457687210316
0.4164653463895905
0.42755920202789804
0.4359441132322863
0.4470879425041598
0.4545552147145864
0.46143026065420695
0.4679894154488762
0.4740354341983556
0.47558589032595106
0.4722909027888794
0.4649396036503513
0.4584389167038207
0.4383737054569684
0.429563947467674
0.4172276661690009
0.4068480960002674
0.4132712385935219
0.42202515209562524
0.49371433338946313
0.34658843709017995
0.7214846335473689
0.9704514034082196
0.9945969335917926
0.9779923073238624
0.9035321563861228
0.7550237326161697
0.649546178994934
0.5319050872209409
0.43645748733079026
0.3446635164318673
0.2866481416000792
0.21868457906306835
0.15749586525612227
0.09691620650259535
0.07151070753004171
0.008828955100468267
0.03482877343152122
0.06758290219347333
0.1131972499127956
0.17183116406843157
0.2527126407770412
0.35391931540875166
0.49169453005146985
0.6521211344606406
0.8490048116532701
1.0066677564933648
1.005574614107704
1.0042892391273959
0.9330511491949594
0.7931548274566687
0.5060981757733211
0.3897130501012081
0.6444278865900332
0.4977564578734387
0.7647819371726944
0.6500928079764404
0.9206279972936834
0.8120714920742615
0.5623995731156388
0.3216202717512317
0.5067691981111301
0.2734217584312363
0.4932511873000139
0.4691415988298411
0.2998731246920867
0.33190750793698515
0.023000435919251987
0.14048552209926854
0.44712066291775504
0.2311975732238162
0.4335509696875801
0.4467011912753085
0.4481715182714138
0.5054240276661767
0.3980204034325415
0.19273548309784314
0.5869602315631939
0.3507704022981312
0.37030204952526335
0.4128421074037943
0.5754784059151918
0.7318321409240645
0.8383277048685464
0.8779371487646388
0.7119157264169923
0.5983197151436854
0.4509995476477545
0.3528906623474953
0.3497901516763687
0.16236805380064515
0.40899456086496855
0.4704493864091928
0.3616286859318332
0.27191640180674903
0.7543173108742459
0.621108737233987
0.4041615022907577
0.41482556575312596
0.4699269496408013
0.4654934084688198
0.25670237881116287
0.0648745268746749
0.1246415691415819
0.2874218193070271
0.6692513897959016
0.9138603903433185
0.5337422827269681
0.4164377718755864
0.8865823658920537
0.536717113119736
0.30180368972273974
0.4815567339837054
0.2540484154499425
0.21170628834928054
0.4209007194802849
0.6808634079182458
0.6568388904354107
0.2897241993367304
0.19798991232324556
0.9487025986054974
0.9296868527252611
0.3707214607205934
0.44180271186300346
0.09445739232689576
0.22877492480024064
0.8970868339848553
0.6201810716726486
0.4672572293671278
0.4862502984847862
0.5870218009214964
0.4668219529362221
0.4217690492606703
0.40664353490838157
0.385788822161038
0.3733669647020316
0.38402587556612683
0.3650306757159192
0.3748334187864636
0.36300773431239064
0.3729475376246789
0.37420385520023164
0.18080368234527006
0.0649661270798311
0.16064295883731033
0.08541043914164326
0.15461731564038517
0.11182599181437587
0.16049409039322152
0.13254704122483343
0.16852035732505827
0.14748342337834439
0.17336696028920215
0.16178576288338692
0.18528771074529662
0.17322622270339885
0.19281191563591302
0.18466424462352804
0.20053350374660353
0.19260511842869016
0.20684709737409368
0.201325901974879
0.21353529527701334
0.21014479636299846
0.2198766121729115
0.21757949197688314
0.22805456918750702
0.22691100344720022
0.23564728832829765
0.23379512846402994
0.24237408537135818
0.2398417798030583
0.24933814652006642
0.24966282364047976
0.25765429109760907
0.2581510122866153
0.2652638437879026
0.26617314071090986
0.2733037349974523
0.2750885622415135
0.12632132141484478
0.28184229376454334
0.19093939252336675
0.2454664381162488
0.2839145194678815
0.2910200619694881
0.2935077249652671
0.28654184711498515
0.2963676589596042
0.3007298208547347
0.2985346988690019
0.2573575327832477
0.3086769087366905
0.30635877184244337
0.316213173690585
0.2894772962225915
0.2997379581175419
0.3140285565834829
0.2931215163680382
0.3035432214871873
0.32529889652781624
0.3235183882928603
0.297922796423059
0.3083387503414019
0.3351507500925295
0.3338120566699463
0.30248477118476763
0.3128240078490423
0.3459994328631436
0.34489231226681216
0.30612804845522723
0.31759445418007465
0.35754066097145765
0.3564923738735996
0.31043753420852094
0.32371379613973716
0.3161480206653908
0.30444616744741043
0.35882793170299543
0.369684946908056
0.3682143528765854
0.35472720596698526
0.22491095993343202
0.3673998409054715
0.3537376498135805
0.3666475255130079
0.3294817514218966
0.32241888185288753
0.3345682109097871
0.3824844045854019
0.33347652867748495
0.326157054902205
0.20844235966761537
0.3368073970014587
0.32972107158599173
0.3397611447107871
0.3326262116680049
0.3231599534702539
0.3256315228227443
0.3188517010956572
0.3422703310229775
0.3237263006463665
0.3156584499428797
0.3508519894569226
0.3520740818114506
0.3200282878324586
0.3143051398163766
0.35541812125909855
0.3680061826967328
0.3611262454672567
0.3610236047314206
0.35789411718669306
0.3717067027757697
0.3828816914300932
0.385358312279656
0.40085656872828884
0.4006479267311614
0.4168550105430311
0.41473785050771234
0.4323141844636525
0.401650262379504
0.4282018579394843
0.44801865901066706
0.37120197878875394
0.3192094194270346
0.3144068227265435
0.45302387216945506
0.4695422449038985
0.4621578165615392
0.47972532955420527
0.37053271906735646
0.48489664498044455
0.47480692872971775
0.38146526725042534
0.3809105850898473
0.3702878630582917
0.49823556796244384
0.4867178381332602
0.39332308509313096
0.39476609453720846
0.379405759326548
0.3683653801088116
0.5074288011669531
0.4964501446413375
0.47297932306966195
0.5208619908927157
0.4803632857075038
0.4614446172419799
0.31976646160553907
0.316858992713197
0.30899049903798975
0.31662997900920187
0.30559000624699484
0.31454129873418646
0.30210495873271803
0.407377423211478
0.40884146436289515
0.3761480811248076
0.3655872428831837
0.502181479406284
0.31611038952617654
0.3029442647152031
0.42221910235054005
0.42393333108966436
0.3176268844935052
0.48676942781802696
0.21930220115025098
0.6422265591130353
0.21938356863352348
0.3623997006548544
0.31838189139454515
0.30423537989863203
0.3738584897913204
0.3636093098832592
0.43773819544167725
0.44081230567252844
0.508240168179447
0.3245928624751633
0.3255425251588804
0.328993825499027
0.4895182676718054
0.32543107844612595
0.3082997717239322
0.4348553416472804
0.3695307633111701
0.3592444967262658
0.349056870249584
0.3562923570866072
0.3428094393775951
0.3546173725761938
0.4551563928941093
0.4579749378246629
0.2915244076052522
0.33099854926190614
0.3210452404721666
0.5117819412954456
0.528474672805848
0.34840160222784905
0.332432038371906
0.4947225083528948
0.474165338053805
0.35845765007938124
0.38134408659270264
0.4743926190852314
0.47672072953438355
0.45947407725365463
0.4785129842972002
0.4600008445798365
0.4791777180320853
0.4594090232027353
0.4780576587755765
0.4570509221213667
0.4753255606723075
0.49822718057863186
0.49532791041103624
0.5202487587972382
0.51661431175095
0.5436066795649869
0.5390505210083978
0.45369833596114045
0.5109609959356636
0.532699274356438
0.563449302837189
0.5563522444771491
0.32916606646072166
0.32892464079667755
0.3651200644201169
0.35514811037687183
0.5251111508279459
0.5479307493688864
0.5820090809422395
0.5728125320191483
0.3341968556456328
0.33196965728229744
0.34144809651330615
0.3567642493152293
0.3447342711862028
0.5154987386851544
0.4971588319824857
0.49511261985462873
0.2858183180494577
0.32790120380688986
0.6099511505580765
0.5998179566354552
0.5626995570423389
0.5896147829066852
0.3125493123961663
0.3651675036374277
0.37596650907628215
0.3445055625619665
0.35992982156592307
0.3504203689674051
0.3517898776970944
0.6287094043065543
0.6183040724188988
0.5780464784547715
0.6076495112365417
0.5680096575747076
0.5955077947722025
0.6372070876916237
0.6228912125555238
0.3652806120130934
0.33739852111512625
0.33359884121790523
0.4923111108862143
0.5189815700977728
0.5015636681164878
0.6613902353834457
0.6482029753947653
0.34612352941908187
0.355928478639727
0.34568453991949216
0.30399132760185743
0.3675591231768287
0.5142035706425095
0.36308365274383236
0.345551772274773
0.5236486391476954
0.49974907260773616
0.47587363657807796
0.375718834990272
0.5368411148859308
0.34370740615939316
0.36215972295478477
0.3818760751388467
0.3691650835352648
0.5579768274445032
0.3485383810065316
0.33920887424794605
0.33995610013083144
0.3344196652095787
0.35684485311921427
0.6860309550112333
0.6663545735807915
0.33664410699174196
0.33106622510396083
0.7015357974133828
0.5093141885542303
0.3321354935635753
0.3243351396547034
0.4422842143505041
0.4753031056420186
0.4544735175671057
0.4991536786773083
0.7022735548168675
0.6819001188203636
0.5329078577148258
0.5240358461455837
0.5325305745746217
0.6485832615627888
0.6615766052825509
0.3431172306767195
0.3343111158566345
0.6923459620871043
0.6708585909850435
0.3242833517576829
0.3165809468508591
0.4051601251606215
0.3953414617748809
0.3175116506290268
0.3102910315142658
0.30737453160806355
0.301262926846944
0.47356394655505557
0.49629036951268046
0.3433816653715024
0.3583997340770577
0.33094353263508086
0.5273336494232569
0.6999742912688071
0.6781700987210618
0.3853222812519479
0.6300010773302228
0.5461594976431983
0.30502095451041916
0.296809753915561
0.29266542600686474
0.28744686851859186
0.29285479491615274
0.28374754173094113
0.2913136984294576
0.28237529403793465
0.29387990955965027
0.2844260042462604
0.29931781932888774
0.27235101912671505
0.27818290817721036
0.3442008535137306
0.35519495572846793
0.25748371822278476
0.2646143885528734
0.33190730982389643
0.31047576667729027
0.501328772347614
0.49386652814467014
0.3298772917536166
0.5518836878320164
0.5562641947403714
0.515408187531508
0.4863945222584021
0.47119819189757395
0.4895326281015403
0.507671615098253
0.3558638928109228
0.38529750907313914
0.5042139063280258
0.5207982356351227
0.4990737253851973
0.2820093794574106
0.4281663455331185
0.42545266654604497
0.325932124172684
0.704510015819397
0.6829154236777493
0.6587548922317089
0.6646019250809889
0.3275991828257942
0.3459784298915113
0.4100290952820199
0.7241046553101447
0.36287339084511855
0.68556445916501
0.6678530114643604
0.6448044759806939
0.6493171081898832
0.6266353894604886
0.6314159731317344
0.6499496166847826
0.6327887614870416
0.24773824328368407
0.2506768524497311
0.2744984612580302
0.5763956957915014
0.5843199931254908
0.513820353521443
0.492582207042323
0.49465479843048965
0.4785212272894471
0.38549385010047976
0.3959048587134763
0.372532041252508
0.3642487632738835
0.2449179082220744
0.35981819083809913
0.3290914651863866
0.5078035768772619
0.29452183603533705
0.3389604455046278
0.6465204838957984
0.6314152013251202
0.3845626045851346
0.37434205343372223
0.3207757938792196
0.32981604131386777
0.35779551703744117
0.37069644610058616
0.2878551495929121
0.6840519225108707
0.38522664289010344
0.6190527270875971
0.4044348405820475
0.23379634530293358
0.23916478285951406
0.3334497180814203
0.5072318581949097
0.4791247576537652
0.5361752255998204
0.39018957469922616
0.38274433446291206
0.39423495758690313
0.3903667752075654
0.3812926968547639
0.38880998676635237
0.39764687031834917
0.3947016878525578
0.4047267915510236
0.4067343379114117
0.41172655630233895
0.413908669563988
0.41988810387036707
0.4200236630253907
0.41635810991988675
0.4239040416198003
0.42690528561492025
0.38349457565022227
0.3294579947342048
0.32507228004091376
0.3342924557746326
0.43064828493377194
0.4313865473816726
0.4276647948488975
0.6500555943540945
0.6587859147227768
0.6921236107840854
0.7006266493771279
0.7358277071226763
0.7434678845787915
0.7066605745814716
0.7474623236181848
0.7086889028543173
0.059464124550707737
0.7811037373689875
0.7725501276631255
0.31135989140085696
0.43714250166974966
0.4331360922273765
0.4180660947642972
0.41356741830258553
0.39985256451028073
0.3951626548728218
0.40842038429342026
0.3899206052169523
0.40346789037497643
0.38391731223390363
0.3971487908808867
0.37248145370225433
0.3824773308883885
0.38733185766887984
0.4168414692649892
0.4105587180436187
0.3254514048107264
0.25934509606100625
0.15829884087836635
0.5169661641325044
0.447148188742943
0.44168590555687465
0.21474503266374378
0.23719456767464348
0.6203403250342335
0.3811154400689598
0.4807793177222913
0.465493612740137
0.27313108520784146
0.5062789275931857
0.48548222005666203
0.20559827560181707
0.7451873464381379
0.7043727228025469
0.47260684989053975
0.46672033517868045
0.4540529735484696
0.4492876561820658
0.4605663822856995
0.4434045067497944
0.4548189737098525
0.4373287352469839
0.2783644143542952
0.4277580545106578
0.4696182412527928
0.47195792142293647
0.35346771065131527
0.351769736814474
0.4243654552866864
0.41064789692267106
0.6056845230265372
0.612307397351945
0.7226424118811154
0.3002993038041308
0.3331885330942582
0.41448713456461406
0.4789198487786182
0.60273963344871
0.4544803912822085
0.615946827479943
0.6143997631142786
0.6243087326232183
0.6086791270071332
0.2827187714898058
0.2861910352435304
0.37871779115280824
0.40770032455053
0.5643749144943845
0.3354465005326369
0.3442944336356758
0.741665797312739
0.437557870416479
0.4729117758439989
0.47995139518070984
0.46202614992864643
0.4476689069451191
0.4475226238025078
0.29510890174785
0.21826255382949378
0.22578687236073397
0.25249172420801397
0.41041105009738826
0.40878689601527807
0.4175014421612892
0.40719900989540564
0.43199775355050357
0.43434141942691806
0.49846171419235863
0.3681488968056534
0.3872735414186354
0.38316829029275806
0.3591414250136728
0.37619353574893316
0.37260141129560626
0.6691797703520388
0.4277760340078917
0.42115430847537605
0.430683133117861
0.4155283614594827
0.5999457249832473
0.5962352867858978
0.5996007271595266
0.5862129557201432
0.45913794300413724
0.45316583079628225
0.8180489165792814
0.8062166782843306
0.37075649350597467
0.37573891188385405
0.5935434133715546
0.42245888934745884
0.4078903736815806
0.5208899972127117
0.521651552754995
0.5348300404188441
0.5305334210355388
0.6364048909782292
0.21582743840000082
0.3061251796914052
0.31359773024758314
0.37764879480309244
0.39169330727704826
0.3806521026074092
0.40606884076456473
0.3938380145584347
0.4198132167963734
0.40705891438492475
0.5044020799344355
0.40658112725644496
0.5948830858660468
0.7437255449519874
0.7614775483592997
0.7632662425266219
0.7399720721051495
0.45558712667121404
0.5833718080166505
0.4307623319026749
0.4252501241274794
0.2953169677445179
0.47295978910702446
0.49677291927563977
0.48829028799629126
0.7865142207814797
0.6993298733910318
0.3265952730542032
0.43239018153272923
0.4351046321403004
0.4317682732423605
0.4325596965668858
0.5304860506165158
0.660090390479646
0.4534193055884148
0.49995243902337644
0.34247979063695944
0.4993033944484086
0.6149606688164474
0.5979967250805073
0.45762747510657636
0.4634673514971079
0.3455274110244495
0.35549307910228484
0.4327129047689909
0.4201940646360003
0.39372223964152586
0.4062664681901414
0.431355131666708
0.4170653262230088
0.43963413341070756
0.4250648978558377
0.44492686473816884
0.20428437888851003
0.4603839708518915
0.2128909659295884
0.32575631134018984
0.4235855623397029
0.44916106773690495
0.3996873519282975
0.48564987359971196
0.4288671832167517
0.2746747829906325
0.2678718498211592
0.4390452568297907
0.7362774800687457
0.5189634544583451
0.5710060556099891
0.4216492259421678
0.3911498922658232
0.3789697198596747
0.394155076718123
0.2573417274155503
0.38283040205911584
0.3607980454790399
0.8482994834591845
0.8337631301010063
0.7937187735149862
0.8184732664823394
0.6120814955525431
0.5818976216834514
0.41848315979794054
0.42449238527893224
0.5264692111116065
0.5598156706315666
0.3162096903212972
0.4142270524194536
0.4003581195909716
0.3121193954808051
0.5947468491624613
0.44333714376802186
0.3942578841078064
0.8512006957405955
0.8334908769554865
0.4386233529803621
0.44307080531316695
0.42097930590712007
0.2972293389476
0.3085558254742639
0.18850403727611484
0.7769984720176261
0.39751047156496827
0.7324896086389094
0.3305891268346968
0.3165327309057462
0.28099194584077947
0.5744779361186882
0.3352496588464901
0.32917446476569295
0.33426465344146084
0.3291089789000559
0.33257006251324506
0.32446644262434016
0.7805469426963345
0.7822884350843541
0.39697722295982757
0.7745359930366057
0.5716784464247384
0.5723726430778963
0.35570356191521324
0.38480172172636457
0.3627617372003973
0.4553211913191107
0.44285430415587873
0.38168320819621454
0.36597596142694283
0.36411090169225657
0.36733201220006895
0.3461878722310493
0.3820373775350895
0.48344372118172935
0.4872173530767297
0.4459303695712321
0.8581807472957466
0.51198366336521
0.40889641451742686
0.3994163952972043
0.26267778782150036
0.40404574851709363
0.43504894441180536
0.43204881828194525
0.3190141793007744
0.26339417421905337
0.25654729698384826
0.2623058968548821
0.31669866388320544
0.1981185636503094
0.23045158333598506
0.8580912601848965
0.837935940594633
0.8098126819725862
0.5844542344554619
0.5829908591986601
0.5720899583412987
0.32555470155429655
0.3220388303857616
0.4489158264188169
0.4371479064544976
0.4347751449640611
0.4235413111718319
0.4081543176882785
0.18646633730762593
0.32218819964264495
0.30461412674453614
0.29634828995268536
0.2791160664190506
0.2789342156188549
0.2836609239635358
0.47005251346669363
0.3604729144697947
0.35513656121994064
0.25235354076764976
0.24516465211868382
0.3736085559062878
0.37718913882933397
0.38984534213607314
0.3902171325739175
0.3810782806439769
0.695532402574291
0.6661527239141356
0.7253229195301856
0.3682700800446399
0.32485670732719146
0.371311498027098
0.46457555962680547
0.7962089580312287
0.39771087626538676
0.5383647882468954
0.29601773945680965
0.27926067539852534
0.29387239967365336
0.28289321269626144
0.2957335183955621
0.2884166918553717
0.3010663725805146
0.2958538906942408
0.30816851574705695
0.2699756844715242
0.28460573763010905
0.7673593583778453
0.411396106143156
0.4420709731502472
0.4270594651504642
0.4727493382379598
0.37148313280482015
0.26214039603746886
0.4224603047925391
0.4196490712264076
0.2190809099426039
0.2325528302150874
0.40120154190238083
0.44673044535207235
0.4540610257435552
0.396810982966062
0.3832508528238136
0.2960967433005261
0.17145606023152898
0.39300532960347606
0.37168956918328994
0.18397994553464586
0.5677857570024148
0.5525128331196713
0.5656310015889561
0.53837371724902
0.2927441220149482
0.40548762392167237
0.27576709522463316
0.42717633023029233
0.40605488257285616
0.3478996556155318
0.3451734457873465
0.5343106053408009
0.6603254129227482
0.6495699562759067
0.6619431063680323
0.6450138937533012
0.6527696530262883
0.6733605084623375
0.7017435666582188
0.760714413119007
0.4220056280500558
0.6269300706568333
0.4006296311148836
0.3753888466978646
0.36599396322809347
0.6361037337031785
0.6257293294322388
0.6204080718584873
0.5440079391495013
0.5453457493684853
0.5724538026281021
0.5977942374474927
0.3903103624143827
0.5454272928657127
0.7491857553727843
0.567509994175441
0.5619833033120918
0.5536357611406629
0.5597753517951792
0.3740814776861826
0.47230969377777826
0.4637965602651868
0.4815156912275981
0.47366203804393125
0.551289132628391
0.3254736007728106
0.30790195448016416
0.43148951215877657
0.451075311345394
0.46287937144489655
0.8007900450359958
0.8080057951382583
0.4776967212014558
0.4034661351924937
0.30624001760346303
0.5392318953636895
0.5311697671051713
0.39805673510886963
0.3816060888034229
0.523182008726392
0.579569902137141
0.5859185573625691
0.5441318913445004
0.5593971885067921
0.471760384558807
0.8757836450085656
0.4174433969318235
0.4217630251815504
0.44372175160564303
0.5074389173606676
0.8808641302715631
0.3749241409395954
0.42214240571092176
0.32524926232474516
0.3991819019690735
0.6161377904952918
0.3287997706361443
0.4964204487285466
0.6823326245336078
0.6609144489989947
0.6846662328849102
0.6087798496885876
0.42722163916962486
0.3606130376575931
0.596701144527431
0.3967400247729618
0.4109096019833127
0.40721196110344315
0.37857273066777974
0.3601829270163379
0.36963153008355665
0.45612524369364665
0.4369817714807461
0.5793923688323285
0.31223943829279877
0.3186072258416373
0.31550702621944005
0.5675852482983971
0.5177570005200777
0.46022761475764684
0.45764941026784206
0.4414085608239376
0.49020713312203246
0.48692633933821217
0.4864391552204571
0.4260059014244659
0.4206162810331578
0.42715170928199164
0.4148329678573434
0.4178524978085601
0.41403387900106114
0.524692816076241
0.38898529679723737
0.40658401792004745
0.8555340602615399
0.47953383877301364
0.4543757771395297
0.44844435147284906
0.43997838465551053
0.45370203352902205
0.44436005073241186
0.4458795667738638
0.33727590612979963
0.33522117351168274
0.3310980806223582
0.3327350313935598
0.33766032912252175
0.3328771625831907
0.33838529804591994
0.407732830619986
0.333911996459827
0.33881681262008384
0.4583674699970248
0.35303098254338827
0.3448729479710868
0.33029828877229944
0.5648460140354912
0.5808501521427144
0.695544824426784
0.7224156352404355
0.5397425411916394
0.27889990384582725
0.25788355942227187
0.20342365354859554
0.23427974420448583
0.26488680993362496
0.225215889181884
0.2428372040945904
0.19492495468813723
0.21689805720942115
0.17704279941262266
0.20689244001923757
0.18033765704310875
0.2043748504558355
0.1873076931578746
0.20587490500644298
0.1968858027074542
0.21177310228691504
0.2060320418607925
0.2195497776332583
0.21653806437866271
0.22835819568720658
0.22727743657931526
0.238131433177367
0.23796370313358148
0.24812781138254025
0.2487198285467991
0.25821150730736886
0.2500679610665824
0.22649937120747687
0.22868515273116774
0.20615510244907181
0.26174453399812325
0.18070770057983498
0.2598256584153608
0.2682078447794005
0.26832822224669806
0.2775148929753567
0.22452042555533455
0.15577603325107317
0.25148075469608294
0.1678373734512901
0.2787819794878246
0.28729976813677455
0.28619044513231967
0.26322805701977153
0.258637919992775
0.2701945084044392
0.2813888494276256
0.27391563894097726
0.18235295549380273
0.14188610197006987
0.2952480205220576
0.29476938709411377
0.287066403527548
0.29579496501884617
0.8892985820854716
0.8618519406124896
0.4267645097802946
0.7315186000478647
0.762337305563033
0.4309808473412037
0.4462684380442792
0.36568340639669544
0.4303779244463878
0.29712213371719
0.3862696553099093
0.38297823679127646
0.3881306427724653
0.41198534308419804
0.3053133847268272
0.40986574476464854
0.4117498129393837
0.2883878444213172
0.2663267712695999
0.29906177583166427
0.25825672261799165
0.3213830971800592
0.3131584514156541
0.3199818407448338
0.31510810498659575
0.3422815469347936
0.3514948414149765
0.3374763305502429
0.34663218288326536
0.33267270299948887
0.3420493824246876
0.32849161817512645
0.33751998826758645
0.3516351579193485
0.34562546263168487
0.40187314907913024
0.38796324819053013
0.39146322902076314
0.3753475619546384
0.32999336348301533
0.24081363244652848
0.2346776974384375
0.23847736968540081
0.22803607657199393
0.45369585932486567
0.4437177862799872
0.465832325765151
0.3214920128917481
0.28292266936156535
0.2753060914370579
0.6696585667660779
0.42766924047675864
0.40917581004302994
0.39696425003631347
0.4037285727294752
0.38094913270303477
0.35286772956507023
0.3567199873429018
0.328586092075048
0.32937342228763467
0.3659231620707993
0.4598342951971642
0.32994284220499076
0.2611231147567803
0.2849029960580945
0.4308801959529057
0.451855835121282
0.5640400521053651
0.5668329925915413
0.5449561782757301
0.4765116531616813
0.5208356570971678
0.36871374382971633
0.15206256575798086
0.15213957318668178
0.3281535821461408
0.5412984464114317
0.5688996795662974
0.5721506723333272
0.5940587668654559
0.49002471851656815
0.5519648158945953
0.5669384135913258
0.5490757724602993
0.5348164188002259
0.5392717962666664
0.4321486741927135
0.44211684767353027
0.4461788418859685
0.4381365981280341
0.3238337821341158
0.43804628903996135
0.43537361842740624
0.7242677360976936
0.22271207862585662
0.21450981379771408
0.22337587835614556
0.20994129804705255
0.39979083209359245
0.4314168828791889
0.4401212574861377
0.5587403196167336
0.35082003868929323
0.5264482166149699
0.512095858395803
0.5040436051003218
0.48703573341746653
0.4839495616242171
0.4977934380844085
0.4759137070593657
0.7523302143938783
0.7455386187373532
0.7035623802510663
0.30403889827910546
0.3286922156208773
0.30065554596696736
0.2989625374613785
0.48236299745071043
0.46441513446221144
0.37694454922744447
0.44460133988127326
0.38091474459212965
0.3644370576041694
0.3989892503750087
0.41347168751955843
0.55346619525338
0.29846855277429
0.2956032120084346
0.5767866799545188
0.7488205636692948
0.3459371612757613
0.3285227617157604
0.3510978122690462
0.5923112250454851
0.5488164874914637
0.6362266315427405
0.45508939768829665
0.5623245029332888
0.3977959393386428
0.3080824713841826
0.429041578620714
0.4395210894589086
0.46384816364455833
0.321696818989935
0.2917695529672238
0.5948312160349437
0.5857433469151169
0.1641587452118614
0.8391016341877913
0.84682224777638
0.5757772628591347
0.5882019812661348
0.5751224358617738
0.6012792834228501
0.5975355567644838
0.2443895082084885
0.2534022156486292
0.3634458722870512
0.4580543965482628
0.36883592747327415
0.5775211309569108
0.6015145362623441
0.6069527940861107
0.2018591168434792
0.19524685919726886
0.4324154655242415
0.31275142835953684
0.3087746481516211
0.48087295505245176
0.4215825558747144
0.40202852482829743
0.3018042880470953
0.7989794984908214
0.8147069748036158
0.345601858668647
0.33897901264797553
0.5840869305889099
0.5477448033390305
0.324182941697734
0.3158945770761199
0.1317482920781096
0.8991941319006744
0.32337811829522456
0.2730429199176258
0.27576164126316777
0.3414589267392722
0.3257482956776735
0.27770169928138205
0.2674496117941545
0.27171148405018797
0.26219897002187026
0.2667988847373424
0.25666707363128066
0.252009597846281
0.24675088117764143
0.24156464191034202
0.23691021490591604
0.26334879752438733
0.48449018648721953
0.32944452093069565
0.3381566550138082
0.19439052251503738
0.12512222486685368
0.11791416460640815
0.15292149848504025
0.1529108286359542
0.12551165312422408
0.10326741350297466
0.09787075187330906
0.3260260554414139
0.30634113726369483
0.41863915468698804
0.38836936948627676
0.3843877332934251
0.6345539055190661
0.6481323291654879
0.3786636119792228
0.3830759074393751
0.37238195591052264
0.282603606493682
0.08415101854365942
0.2422966229985043
0.2323897502712544
0.2265627004784702
0.22256499778419245
0.21626629629889174
0.39416673588028067
0.4030878863532288
0.10149470281829566
0.6402604956038759
0.532769696630478
0.4210217244472259
0.3004256435712037
0.2649266436087989
0.2522503022495355
0.32554330198655107
0.5021318730467486
0.5514731375953726
0.5337138699847126
0.3777607579408134
0.6107635554331768
0.6286828950143474
0.6427881250430634
0.6651009472691346
0.408189151808417
0.4380085645760963
0.4119568237341638
0.39165060857103895
0.36073710992420777
0.3496650581645605
0.6710793397536907
0.30277272165248703
0.21515308922861556
0.1679785450097687
0.16538784260355455
0.17914677584431707
0.1712189683971833
0.18429739882424162
0.15621504072527967
0.19338044772298693
0.19616666506833003
0.16628572572223013
0.4852142720664704
0.20378265293924835
0.462105875211522
0.29286166817699266
0.6277512681326262
0.6299247751444456
0.1504850148388561
0.1400124821552801
0.38642591577660335
0.6906135303586847
0.698659241424567
0.6933500926056734
0.7098326463222578
0.6994570210146546
0.7224061034486317
0.4128497562630689
0.4150149468359099
0.4187224857232116
0.41364325341357616
0.41687451872410847
0.4075395130491914
0.41395213539976766
0.4045309673447422
0.3959078827754476
0.4219862640803373
0.39330768166259156
0.4230805454780453
0.41417352911757754
0.4244836165216665
0.40524805616855936
0.41415763443002956
0.4329038615174899
0.4230052838170983
0.42848029514714386
0.23566158368527723
0.21034251286274486
0.29911011660517894
0.1694445666504657
0.174682882993477
0.6534654488397466
0.4035229031534053
0.2616586429022531
0.24745131600184944
0.24528758759471428
0.251222484978852
0.26581402703486884
0.25706214636331637
0.26300609691946747
0.25300138697357255
0.20189798924814226
0.36952714810760595
0.4032128870038244
0.4247975791203934
0.438669228760451
0.40959931734220845
0.4326515438696535
0.33610870929364917
0.2310049968707949
0.23355210285144312
0.2466685684342549
0.25788646515921043
0.2713667274102411
0.21761753750473037
0.483277593063881
0.3281646972485617
0.32954158466709976
0.12256688297853024
0.5194797029431785
0.7204332253214314
0.3183042244856572
0.35029561444152774
0.4028948589985883
0.3907867492312199
0.6684841250074984
0.46584883824013473
0.44656423817561025
0.4479744928677818
0.43939218392239415
0.4399856462105835
0.4291705143246155
0.42787638952277846
0.4355883373597554
0.4109902038201382
0.4362555352727669
0.42884711592555524
0.4539763638121613
0.41949920395832135
0.43544638434667043
0.6321786602605867
0.3379278466331607
0.40016675927350986
0.2911367062854125
0.4019321288697301
0.2920474630307946
0.27460802380948746
0.2855081299129332
0.26931176821280506
0.25175586762940433
0.25114280399778505
0.26454603970769097
0.2977907014346511
0.32909964475327197
0.28528974828460935
0.5158775099162666
0.43762090683072385
0.5693451770788344
0.2499649699978427
0.6122955801026457
0.501372712099773
0.5111788263494798
0.2292372999499158
0.32832904560351467
0.3705163507342303
0.36815795437509374
0.3648107731583087
0.34735779777383585
0.23891851418901916
0.787959884714247
0.6468848300686038
0.8414694323507488
0.17657690796962497
0.4924155042559816
0.5226803796154319
0.656292356483497
0.7206414338411888
0.3097121546582264
0.36755417392945433
0.480063616767496
0.271353952404766
0.2770683402683342
0.2688773950653496
0.322085752085653
0.2759289299578112
0.31523567851981854
0.25884880689416945
0.2618932403670149
0.428653499330397
0.4311841023393651
0.386171832647213
0.39308898719876817
0.25248322195070505
0.48212496199123667
0.4499178688376466
0.584902312278708
0.41710965058274607
0.1887775577129653
0.41230571523014825
0.2132383150211322
0.5232423032757152
0.4363852561481835
0.393429912186746
0.4031111477317232
0.3884699838478409
0.3751396020043204
0.30818857610905753
0.259454043061045
0.2926779088560158
0.3423438967853095
0.34182454259013045
0.42665926598897447
0.8951145302323151
0.8623959030148646
0.8852725330099558
0.8562604705916591
0.8399798651979784
0.8169364671613665
0.8253347885982477
0.683667689698254
0.3824945162579371
0.354197411064426
0.3605169923095826
0.41137886351378783
0.52189647805742
0.3613393391614008
0.4445345533845847
0.4521765353742949
0.4381860020093766
0.43880396659185805
0.49057908237393644
0.38527906321205496
0.3178401942715524
0.2912469147174904
0.4682308645297493
0.44956921041343983
0.3151088960541397
0.3564728930430819
0.3458699934687354
0.33511438225050544
0.33256956930346726
0.28576700616172424
0.09610688219914457
0.7808421282216204
0.7649112719878212
0.7495943351459248
0.7750205519508785
0.40563217517881406
0.6710399904147291
0.16707778246163424
0.19325366512776473
0.38725793784101215
0.37174208087310845
0.3878881493743522
0.3241570932634962
0.31173051467662033
0.26769302725552174
0.37250229149495223
0.46653016936671976
0.7765178852277863
0.27312078950210683
0.269198295529172
0.5383521090555639
0.6660065310262065
0.5206543889728876
0.5431070241881967
0.4244661346168633
0.3593475697730189
0.35091392643974945
0.3415021999506798
0.34307941227850053
0.347078907740063
0.3526612236287213
0.3271483381385043
0.7441573646438279
0.7268280083313582
0.7452566485175595
0.7622606167898931
0.7850594256964251
0.7955644962966434
0.7363744520211772
0.7410874480692385
0.2424479548512883
0.3352688385302213
0.5647878332040908
0.872488272510004
0.3988951927865135
0.8676369025620472
0.8923779842687947
0.5457847452099929
0.40893965825396966
0.39513625962189153
0.4459864850267806
0.31569670423971785
0.4154563318847193
0.6120030048975778
0.3713981546906585
0.369824501122968
0.38290168583314454
0.35711356920369175
0.38260731162779094
0.36901739619311824
0.3568643510734533
0.34320174603348663
0.4076683127253908
0.3932701882552457
0.38228242122265244
0.5196754043733368
0.4533312950516381
0.3921466061287517
0.33279560280931547
0.29894135537708344
0.34784094179183406
0.3330801472469657
0.3314429020839418
0.3385296045970756
0.7655247281208194
0.8078211436066985
0.8348151317243192
0.7827370996089098
0.6264526188159208
0.2896011333338521
0.496414574551818
0.4787590059010548
0.7860404432792578
0.5391155363031982
0.40760344085793976
0.36724558655644074
0.3226591328143884
0.4531660143726304
0.47199177093850164
0.4179323824464791
0.5284582995733984
0.5088737318275172
0.5178434011677747
0.5415625113164082
0.37873132195172343
0.49996293339723774
0.3892928358045583
0.3038452915792955
0.3127317045019898
0.2764497448438613
0.3937859329058392
0.7519124496788253
0.2637593920354459
0.5903418305240095
0.5968361723986857
0.6324703141533191
0.6005541998024945
0.6341122170103232
0.6658561837384311
0.34947042788713917
0.426464787287112
0.4267119595387967
0.4685507022268511
0.41592245386890964
0.9042434281780013
0.49770595866201484
0.5687544831772927
0.6773138999823505
0.36621141390398504
0.4257691202030056
0.48445257720307805
0.3397656558720341
0.04557713081357115
0.7047806718707788
0.374961154072962
0.4096453035643155
0.41101464213910577
0.390046758829537
0.3909743140703375
0.36953217622424805
0.3780743291920845
0.6193601873719522
0.36164038110979535
0.4447562364171412
0.459628410556599
0.41364912655626185
0.475155041489413
0.5446520805466702
0.6909661568658394
0.29745698231577655
0.45050515063090274
0.433484011360849
0.41098320120068277
0.37190706599771933
0.4680797493729924
0.3289604940749018
0.3966775979605449
0.27740897493726113
0.28120470906891043
0.33572526132016384
0.44682352898324845
0.45761837503885067
0.4382501957582864
0.4280397431123349
0.6019438166455094
0.5197482813737277
0.3048151129068082
0.3183612170758683
0.3490588057216682
0.4715432393509229
0.3438520759614197
0.4570581951638585
0.7271019670579999
0.42457111506038503
0.3199124105503029
0.3321533458105016
0.4339731952981675
0.9124522641420658
0.3061604410305513
0.4097197755325427
0.3975237415971374
0.42271210937332854
0.680141016613541
0.649332190762315
0.6394761733516636
0.3776597408068992
0.9068194653307823
0.8109973909957943
0.7033603842366621
0.7896453445948696
0.6879760454908257
0.7263633859428301
0.5144716255946536
0.40293671866329583
0.8637155825542426
0.5564596184826981
0.3258649204164409
0.43418657591113374
0.5944438694901601
0.6229071242703261
0.3959481619971716
0.44872175133605413
0.6647911251338006
0.37381005724313277
0.32355503861243073
0.407368416142512
0.3924399057121199
0.22987838241733474
0.3565122883717687
0.49701681161754274
0.18917355731580304
0.18148859640983672
0.5387444732556305
0.45988307570454073
0.5040617495710131
0.3824372803487858
0.824243403609066
0.31581694102521024
0.2834191567887879
0.3051188654522716
0.4400711498116241
0.5220429438685037
0.4166736965124846
0.0832691906289883
0.7199433080410119
0.642022286339017
0.39801420750542277
0.5478362675560594
0.40431952322520204
0.5283772517887273
0.5610364868625591
0.51887115405492
0.33991860818690534
0.4123774370244223
0.891069199589652
0.530177382481042
0.5089867735883202
0.3042892428624968
0.813934483989014
0.48798305313254275
0.3641844878599419
0.43124387953951365
0.3287139780007982
0.38837345453267413
0.2531074940296172
0.46619883592609185
0.4380345996998775
0.32852330514216055
0.6399749715373405
0.23468188399940648
0.23051180274540095
0.8005571431812786
0.5388671204260317
0.7616292216689139
0.6758917137667578
0.407908388295011
0.10817689875894794
0.4300554833086511
0.5474323345326243
0.5371721211099622
0.20905747530657218
0.43320009646599
0.6089043350966741
0.14401923614677017
0.5834376337112889
0.3861015424049005
0.2924320556063226
0.3431297381788214
0.1798077332290745
0.20102310854566724
0.3763234327997197
0.4340663492099419
0.2653930058207045
0.515663718110769
0.4177541030422929
0.5772002446616509
0.5493723631838617
0.4009199891522043
0.6309405557753189
0.6735747145963262
0.31598103269560557
0.29086893047549495
0.21943453136440458
0.30317515412078305
0.2387745024694974
0.552097439114886
0.6510503182065278
0.1116522059873416
0.1352822077381893
0.1518714975942799
0.3659174478315453
0.171861779936155
0.39785181600485076
0.4242239926802895
0.49295498310220043
0.26193373142631177
0.28290292520122395
0.3860410532145043
0.4080989877513957
0.33677935930803676
0.5513089064791965
0.39444385776857693
0.4726457249001444
0.4571432193828821
0.24315410486399208
0.20349473864513698
0.4372930270895041
0.44922535950532605
0.8608304873977534
0.22039879267055668
0.617987421289523
0.31614787987560916
0.5822341092479999
0.42010190902890776
0.6378652970211732
0.4112479738175989
0.35846473548955443
0.32397290970094894
0.4786913756500004
0.49081001194943163
0.46681953527918174
0.8231706286139793
0.2734252656215578
0.2098421446776261
0.47281582530657956
0.6143249874988008
0.32031627389069334
0.538963178098501
0.361474736663927
0.5525759359203709
0.37830785711808324
0.4014678248991139
0.22146762596004388
0.44246094598830044
0.04353749187009995
0.2894816403501519
0.43522637104360196
0.35472135749042344
0.31358431475319193
0.5109264854547435
0.6000976652763675
0.3421297475187311
0.2720053429060293
0.6089603146070052
0.27810369791005946
0.44298955219324676
0.35609061466138336
0.42419898786269655
0.20841462083514598
0.2498295196192902
0.38136935677130324
0.4174730071162136
0.403413524065647
0.24109135600627976
0.2633471646511821
0.5601067391701052
0.5718902914957628
0.3107842417442321
0.30011024428959404
0.239812761070575
0.6698000327244531
0.3446071125685945
0.3475446977358809
0.37554784616395637
0.2517461808684086
0.42433859618797226
0.5075497744501242
0.4661882544202081
0.44957649854480947
0.4643193097118289
0.4005190153520977
0.4737143475152584
0.34437605261162646
0.22254182792053964
0.33318896525180536
0.28662206069432594
0.3473005073526021
0.3014078629267527
0.7567294349515523
0.3322595765208789
0.4121055017408876
0.6494410067955116
0.470375606264743
0.2703929313627288
0.3872647382066603
0.3227105716610517
0.44363828243908404
0.33595577330601023
0.32100110220326855
0.08858206089385905
0.41442230689140236
0.5335100607213612
0.3283858055471541
0.43768574537142374
0.3753991748641235
0.4977258574614399
0.2846599942665263
0.3999140027654087
0.32335959938138487
0.5026435420065833
0.4807176083244039
0.4638505633687883
0.28710510206550366
0.4762741034472828
0.3521247870352705
0.4391400550941499
0.22975527576969204
0.49085280367194595
0.7162587115582223
0.3625500954954174
0.42591664496479564
0.4926253871826277
0.2803460031969781
0.2796090078907308
0.7020795749483272
0.31188821722904536
0.4571342580175129
0.30212951917421893
0.42635368971616217
0.3366727359741375
0.1983710908644177
0.48875632829182786
0.12672480923234722
0.2983065219574605
0.5627731399529893
0.5213019889841144
0.44434977594732444
0.3228681644902814
0.3597140884866347
0.44250719499587204
0.22101147639053806
0.4329275326346018
0.3726728074469797
0.4314346225489799
0.46740398829234414
0.3452759343896693
0.18384372870178148
0.5698801717519368
0.5950434500963718
0.2646435339724945
0.411915587971013
0.3886676402969383
0.16039494532797505
0.24931658389293088
0.14136432592062023
0.23686878830090202
0.4184233705307591
0.43397553319413973
0.40962902299002196
0.7134155234988827
0.3083405688421714
0.7909988680861122
0.3477783526396999
0.44884866038568555
0.44241414319327654
0.2728843538157563
0.18037837520392278
0.19242019854054185
0.37620019881535544
0.5287426226095358
0.46131022825254375
0.4609217183451517
0.43299456133143416
0.4449995735039146
0.4367911951052781
0.6216544723751667
0.24758825371719376
0.23181903142164656
0.404873029305064
0.2503504704608626
0.310451925194436
0.5128078373638211
0.46298236060517484
0.2659396430323783
0.44690036167052855
0.3961931476629449
0.40846458660790086
0.39176307975019775
0.4198400462260842
0.39258043783779617
0.7919931354765397
0.37143545945933343
0.23147928629267858
0.34756875223334033
0.30374712852156743
0.2567811643525591
0.3810416890343861
0.46368907041678686
0.3386422425084625
0.39703203730918496
0.3205124434649765
0.6327929478747195
0.5560723447554737
0.23737318256329287
0.34440731129856283
0.33279201949117776
0.2898311118649345
0.5430361172624206
0.3134224955171591
0.34709704711333994
0.4775918921187239
0.2733227682622628
0.5992810105221964
0.5888220669246174
0.3500463927037351
0.6591494259771437
0.321414906744377
0.5459010761710881
0.4259622439929307
0.475795460020764
0.34460628391481846
0.09634474715327387
0.23262423595329842
0.5641701976505229
0.27711776193374255
0.2030256539727122
0.38521798301888105
0.3931807258428892
0.32630743232537923
0.6776890677683876
0.6661617970187055
0.37510659178132766
0.599784357350355
0.26875837499089905
0.34949326379057893
0.42228719412667187
0.7043117084970179
0.41091439112262895
0.4338172321228769
0.38600620494400517
0.30699955396798406
0.7450181739904724
0.43168824900359426
0.42194064412437743
0.32716486685637547
0.3520485213365326
0.4102163867990383
0.44919604737816593
0.5524476350971932
0.21051852477255878
0.41921156985015934
0.5340457571133229
0.5820599961295182
0.4395738820316501
0.7399981191765971
0.5164950172772192
0.3128838972031419
0.33067144886406963
0.29073045660100616
0.3360877800950205
0.133689258141129
0.3781067656042848
0.3587350669426671
0.21156228612498432
0.13588289623482003
0.29078422160276113
0.2808165471918434
0.33500125223936394
0.3177681045003167
0.5337937270828964
0.6888525251901831
0.34729012586172037
0.20307309946959284
0.24990585919974356
0.1367130347127607
0.44328528919239146
0.2401671883007534
0.3080582199119471
0.5183280139717802
0.3318559620291355
0.433913759232149
0.6361905658298966
0.41506295601730747
0.49690883402192176
0.8566796325117197
0.5309999732904215
0.5491647441031985
0.43156332844942175
0.5243446821613627
0.39538185092656974
0.45253688777949375
0.27954582587896937
0.5842269444343943
0.328032574466626
0.2600588358008801
0.4282341963116747
0.33025097383857077
0.6000339371402634
0.9658757399397018
0.9747639030669194
0.45899588874746794
0.1736990104274289
0.43751498640745556
0.781715169567746
0.7439604400679896
0.3530526974158396
0.32058089115664457
0.32832868492023204
0.3312337437052988
0.3318898828606784
0.4066177322893505
0.2880411566145156
0.22483939905659775
0.26094677418911805
0.4658642000252682
0.42585201341685636
0.25879063125350177
0.3776373777070143
0.23808855986671146
0.6063307713484136
0.23309969867807334
0.40578603904199045
0.3928593570967677
0.4120381985100167
0.5292575912465011
0.3159540526297066
0.30744257640049555
0.1494375733483042
0.2871559934778193
0.40784362632829324
0.8978940846422441
0.43217942759441247
0.3715493122956057
0.2282995594809178
0.37944351633467027
0.20780205500171317
0.3544690476959637
0.3727389596540391
0.5374693305394792
0.2977303211037237
0.24335382769844557
0.5097584390614539
0.27652334020317465
0.30610752430545046
0.23109539427234244
0.19067584312726768
0.5820806953631323
0.24655809175429944
0.4253943219366302
0.5501890694153545
0.6268819376555772
0.366342118400176
0.3737395498597718
0.33740352731737344
0.9084530558276004
0.5217044846311176
0.6246097633566331
0.3402301535643663
0.5964426505005402
0.34579829238211574
0.28190873991723303
0.24057905758737003
0.6474463849487042
0.41878041029415247
0.391981262426887
0.7473108460360033
0.3897243713151302
0.4185504721252153
0.9267382799358865
0.5550327842922208
0.2887606065201474
0.43793023250196134
0.7046034604790221
0.6643339485624417
0.7282887660343035
0.2751776354476288
0.5546931381508304
0.2524051587068962
0.31356477532183
0.394994834839471
0.44209019648151504
0.21478886100628616
0.34032524390032315
0.47415753015086975
0.43021363360967946
0.30971396118565364
0.7244571415230502
0.43104222972525696
0.3029068755944287
0.44313795200762696
0.4618667628672568
0.5100652552125702
0.3657020470812093
0.3162611567417607
0.315795506679576
0.544553309461383
0.4097566604216955
0.3098220097039021
0.36894678518890545
0.5120383062518802
0.430747190170302
0.3204744439994624
0.32867150395122485
0.4140455376044572
0.3581359229361828
0.3912829177586086
0.36671705422068457
0.28677379941682296
0.3251584114664415
0.5543292263524019
0.8281597605738047
0.4675417483436255
0.5010534396503163
0.49959269418026514
0.3816964504828601
0.8793209590267975
0.5347610479813097
0.40935123415179625
0.4202877950023738
0.3425501413238907
0.41635247898656963
0.40080664702059104
0.3679371956841003
0.30888364968550375
0.3668543958790269
0.33536411434348706
0.3915357212697728
0.7803877319420218
0.38758017944291717
0.26716644284373364
0.4179933192667579
0.6730184773337156
0.355263403085835
0.42428927921823945
0.43079202847255865
0.14808695137196703
0.3781225508613106
0.3232949444511059
0.13241203137954072
0.1567091493372484
0.07857656150870437
0.25499415972226636
0.28626170041789095
0.4302845254283023
0.44558302780979536
0.598845896006074
0.4171217542335714
0.27850929822624326
0.35406881706194865
0.8172886088522098
0.4377788922046455
0.3722958768303894
0.44487157666938454
0.3178992752115181
0.26624637985438265
0.4984675964646585
0.2213757931096279
0.37042210062649666
0.3660128585022558
0.41507416422020793
0.6140810349618879
0.3283822570868256
0.43524047137030186
0.30949692416525
0.4338527804236025
0.49855512820187586
0.5553382479515176
0.6846313269715781
0.6086667939114354
0.25835329549322733
0.385933414371004
0.18328082200367354
0.5123039553114356
0.4269694457255551
0.21731414426934695
0.4052984893724413
0.29663852242780125
0.4858444366738384
0.37193594917683404
0.29135692154224346
0.2359918516267292
0.25898987539369095
0.525963235265578
0.4142479203291977
0.1936938987351904
0.4264481600198553
0.8546971186833431
0.42450099211542297
0.23538402510437262
0.29446207610031727
0.26955967575768086
0.7789796641656943
0.34701652587861087
0.3507012943281335
0.5471306433426265
0.489082413269514
0.4110600533569903
0.31528737675945173
0.39679732617502633
0.7977433213617122
0.33886341963910516
0.5479047505421808
0.16932237920397017
0.7159968185742378
0.2336602692474647
0.3622459097720938
0.273779658971639
0.3123608981165856
0.4147605127921498
0.11425126751147237
0.24687601611616095
0.8379992686855575
0.5719787178994468
0.34881296899400177
0.568652210862062
0.29767319686994154
0.6126049140234148
0.25062601784245075
0.06689029988198737
0.38388431552598734
0.40510639649328706
0.7251631724929808
0.6662761891666034
0.4225852963898175
0.5924395701233406
0.8716987894046238
0.30923044028490737
0.5028820650901733
0.3553167578878963
0.19775783649970277
0.8553225485118171
0.4157024663556493
0.7202226960969116
CELL_DATA 4886
TENSORS stress float
-8.062960022413079e6 9.481713355917357e6 0.0
9.481713355917357e6 4.3485619271364614e7 0.0
0.0 0.0 0.0

-2.252154024169628e7 1.52490218234961e7 0.0
1.52490218234961e7 6.29715427045833e6 0.0
0.0 0.0 0.0

-1.2430625805142013e7 2.6997554904044278e7 0.0
2.6997554904044278e7 -1.2204492492432944e7 0.0
0.0 0.0 0.0

-3.3743223951480156e6 2.6047006965593096e7 0.0
2.6047006965593096e7 1.5342997727200437e7 0.0
0.0 0.0 0.0

-1.2969852934457704e6 3.114248983268459e7 0.0
3.114248983268459e7 -1.3110683664763332e6 0.0
0.0 0.0 0.0

1.327568103816422e6 2.5836456033393973e6 0.0
2.5836456033393973e6 -3.738505663148489e6 0.0
0.0 0.0 0.0

7.806033889606659e7 3.5938672663423076e7 0.0
3.5938672663423076e7 2.0462037800696265e7 0.0
0.0 0.0 0.0

1.3244334516155347e6 2.977496700557181e6 0.0
2.977496700557181e6 -5.854040116489741e7 0.0
0.0 0.0 0.0

-7.576253920061622e6 1.1328663185417991e7 0.0
1.1328663185417991e7 4.493125022012055e7 0.0
0.0 0.0 0.0

3.3200975437674336e6 2.209439403126756e7 0.0
2.209439403126756e7 2.7853343861053906e7 0.0
0.0 0.0 0.0

-210126.88040332543 2.4960613291557647e7 0.0
2.4960613291557647e7 -9.03147130377036e6 0.0
0.0 0.0 0.0

577236.6230416286 3.841180973814881e7 0.0
3.841180973814881e7 -1.4285232430880275e6 0.0
0.0 0.0 0.0

157527.7505697906 1.0647001362352252e7 0.0
1.0647001362352252e7 -5.3411613747839466e7 0.0
0.0 0.0 0.0

1.1095839070545156e8 3.9730798088335104e7 0.0
3.9730798088335104e7 2.256049571244348e7 0.0
0.0 0.0 0.0

223894.67746668216 2.580274930523883e7 0.0
2.580274930523883e7 -8.987756637245705e6 0.0
0.0 0.0 0.0

2.9322134972679606e6 3.9411040561733604e6 0.0
3.9411040561733604e6 -2.0267739173563875e7 0.0
0.0 0.0 0.0

-4.890330885531409e6 2.074755011780145e7 0.0
2.074755011780145e7 -2.7133651326970752e7 0.0
0.0 0.0 0.0

-798964.5226433966 1.6274524100438211e7 0.0
1.6274524100438211e7 -3.6097121576783106e7 0.0
0.0 0.0 0.0

-8.298260253715126e6 -142410.18982773458 0.0
-142410.18982773458 3.438100073059255e7 0.0
0.0 0.0 0.0

1.2845191977317743e6 2.919630939976305e7 0.0
2.919630939976305e7 -8.30115674541836e6 0.0
0.0 0.0 0.0

1.8397060894706305e6 1.2981988873141007e7 0.0
1.2981988873141007e7 -2.5375471104379814e7 0.0
0.0 0.0 0.0

2.305462187042633e6 3.7932159772436604e7 0.0
3.7932159772436604e7 -1.3511025791149372e6 0.0
0.0 0.0 0.0

-1.002482383406911e7 1.0792094751492295e7 0.0
1.0792094751492295e7 2.2477389339724906e7 0.0
0.0 0.0 0.0

-1.7915612801098876e7 2.810385746375352e7 0.0
2.810385746375352e7 -1.0899451287540281e6 0.0
0.0 0.0 0.0

-1.5988607744675614e6 1.4264456240466222e7 0.0
1.4264456240466222e7 -4.7785889973943084e7 0.0
0.0 0.0 0.0

3.3450464476364583e7 5.403319282026303e7 0.0
5.403319282026303e7 -1.0230939813276391e7 0.0
0.0 0.0 0.0

5.242246296229026e7 2.7494284669261154e7 0.0
2.7494284669261154e7 1.1589125355591547e7 0.0
0.0 0.0 0.0

-6.698268339288073e6 1.889483432779055e7 0.0
1.889483432779055e7 3.1201792445304163e7 0.0
0.0 0.0 0.0

3.0011155256585954e6 3.9280605221722075e6 0.0
3.9280605221722075e6 -2.0758176176196452e7 0.0
0.0 0.0 0.0

-8.777684363093734e6 -1.7342167273529747e6 0.0
-1.7342167273529747e6 1.9482600695153344e7 0.0
0.0 0.0 0.0

-1.0484740040744517e7 1.2455193928127455e7 0.0
1.2455193928127455e7 2.049025498650323e7 0.0
0.0 0.0 0.0

1.1929337635327093e6 9.853945796581116e6 0.0
9.853945796581116e6 -9.936142091739621e6 0.0
0.0 0.0 0.0

3.314171468422771e6 2.5003748858860824e7 0.0
2.5003748858860824e7 1.0951754280714972e7 0.0
0.0 0.0 0.0

-167253.0558357085 2.2144640912198763e7 0.0
2.2144640912198763e7 277258.7865702199 0.0
0.0 0.0 0.0

-2.7273538828689195e6 2.751500219382284e7 0.0
2.751500219382284e7 6.141349667301611e6 0.0
0.0 0.0 0.0

-1.121537529510396e7 9.322892733226728e6 0.0
9.322892733226728e6 1.94102513293561e7 0.0
0.0 0.0 0.0

-102894.48743616976 1.4429439044513715e7 0.0
1.4429439044513715e7 -8.46246427645414e6 0.0
0.0 0.0 0.0

-2.0340583374595316e6 2.712225895847981e7 0.0
2.712225895847981e7 6.83094470273336e6 0.0
0.0 0.0 0.0

-6.583678670235157e6 1.7840447034229673e7 0.0
1.7840447034229673e7 -5.029915881530931e7 0.0
0.0 0.0 0.0

-2.609335215075783e6 3.363608841197787e7 0.0
3.363608841197787e7 1.9121303987424704e6 0.0
0.0 0.0 0.0

-957634.3941366822 1.0764026336613825e7 0.0
1.0764026336613825e7 -5.824440922265482e7 0.0
0.0 0.0 0.0

-1.545607905052704e7 2.8931079489007525e7 0.0
2.8931079489007525e7 -1.3313942791796355e7 0.0
0.0 0.0 0.0

-2.4572259560752497e6 3.2720717277663916e7 0.0
3.2720717277663916e7 1.785815089103153e6 0.0
0.0 0.0 0.0

-9.954251483273821e6 6.968778362069334e6 0.0
6.968778362069334e6 3.102166498027892e7 0.0
0.0 0.0 0.0

1.1850223480200376e6 1.2829969546068622e7 0.0
1.2829969546068622e7 -2.7853619794088874e7 0.0
0.0 0.0 0.0

-5.278741234433735e6 2.0109553316493444e7 0.0
2.0109553316493444e7 2.911866519818301e7 0.0
0.0 0.0 0.0

1.5958850434352383e6 2.463527140706831e7 0.0
2.463527140706831e7 -1.4440898080520893e7 0.0
0.0 0.0 0.0

-998706.5095678857 1.3831890231832366e7 0.0
1.3831890231832366e7 -9.469066625096034e6 0.0
0.0 0.0 0.0

1.8177634056697208e6 2.9849729553811387e6 0.0
2.9849729553811387e6 -4.831968430968857e7 0.0
0.0 0.0 0.0

6.602520846203186e6 1.9606514521279484e7 0.0
1.9606514521279484e7 2.20084025618311e7 0.0
0.0 0.0 0.0

-224712.18295131554 3.258528199002485e7 0.0
3.258528199002485e7 -353011.54002661566 0.0
0.0 0.0 0.0

-1.5880393379201576e7 1.2904873387222199e7 0.0
1.2904873387222199e7 5.591209606537701e6 0.0
0.0 0.0 0.0

1.8597477311100718e6 3.043925454400062e6 0.0
3.043925454400062e6 -5.022344554784371e7 0.0
0.0 0.0 0.0

-1.1327639908212654e6 3.000419985934022e7 0.0
3.000419985934022e7 1.3352281968549248e6 0.0
0.0 0.0 0.0

7.486717994307964e6 1.953652467415817e7 0.0
1.953652467415817e7 2.6486000337895248e7 0.0
0.0 0.0 0.0

-9.216259578926696e6 2.939614488790233e7 0.0
2.939614488790233e7 6.353187416885784e6 0.0
0.0 0.0 0.0

987682.8476689644 3.8225198120984933e6 0.0
3.8225198120984933e6 -6.434344852657732e7 0.0
0.0 0.0 0.0

-1.7493959062378227e6 3.393780686772905e7 0.0
3.393780686772905e7 2.008051121954084e6 0.0
0.0 0.0 0.0

7.9975425380889755e6 2.1108925500368834e7 0.0
2.1108925500368834e7 5.051175905768439e7 0.0
0.0 0.0 0.0

1.8401139677146692e6 1.1641106727282194e7 0.0
1.1641106727282194e7 -3.100265188507685e7 0.0
0.0 0.0 0.0

-3.3079095977674713e6 2.0089974292665843e7 0.0
2.0089974292665843e7 -1.3594662910302274e7 0.0
0.0 0.0 0.0

3.894231782014254e7 3.057497379840872e7 0.0
3.057497379840872e7 3.6949000872392785e6 0.0
0.0 0.0 0.0

-5.20310348253667e6 2.3246900890656013e7 0.0
2.3246900890656013e7 -1.6310434930635056e7 0.0
0.0 0.0 0.0

-9.671369824750472e6 1.4343727004625832e6 0.0
1.4343727004625832e6 2.0318638512410924e7 0.0
0.0 0.0 0.0

-375605.3226078518 7.095971598468044e6 0.0
7.095971598468044e6 -337605.3100487062 0.0
0.0 0.0 0.0

1.6191662909050994e6 4.52023611964238e6 0.0
4.52023611964238e6 -4.704575823718101e7 0.0
0.0 0.0 0.0

825237.4615471475 9.184449042703884e6 0.0
9.184449042703884e6 -5.303833160684887e7 0.0
0.0 0.0 0.0

-1.9697465275981643e6 2.9481015806556653e7 0.0
2.9481015806556653e7 430194.314611649 0.0
0.0 0.0 0.0

4.42983285782567e6 2.09212058044057e7 0.0
2.09212058044057e7 4.127373867306746e7 0.0
0.0 0.0 0.0

2.758968275756682e7 2.082393457267535e7 0.0
2.082393457267535e7 5.652105542473352e6 0.0
0.0 0.0 0.0

-1.0772120733289745e7 8.818233525473844e6 0.0
8.818233525473844e6 2.840144942886004e7 0.0
0.0 0.0 0.0

-571984.6318877619 1.4389966226591794e7 0.0
1.4389966226591794e7 -4.418793491502635e7 0.0
0.0 0.0 0.0

-6.02296105077987e6 1.9165070654890798e7 0.0
1.9165070654890798e7 -4.6102990139710836e7 0.0
0.0 0.0 0.0

1.0416863511097297e7 2.0775383405884616e7 0.0
2.0775383405884616e7 6.73334564211006e7 0.0
0.0 0.0 0.0

-3.0767343200787576e6 2.6212664845064767e7 0.0
2.6212664845064767e7 1.4751161407864489e7 0.0
0.0 0.0 0.0

-5.5750719983971175e6 2.0476684578473542e7 0.0
2.0476684578473542e7 2.855608608573275e7 0.0
0.0 0.0 0.0

14116.199729107786 1.5687211604522487e7 0.0
1.5687211604522487e7 1.1966739000480145e7 0.0
0.0 0.0 0.0

-3.8228796309399493e6 2.043100082075639e7 0.0
2.043100082075639e7 -2.666215158121554e7 0.0
0.0 0.0 0.0

-982930.3485371261 2.2153869821404237e7 0.0
2.2153869821404237e7 -1.339123324056624e7 0.0
0.0 0.0 0.0

721280.6968110725 1.6319454150233928e7 0.0
1.6319454150233928e7 -2.21286470614467e7 0.0
0.0 0.0 0.0

3.141841514428669e7 3.2078639907156397e7 0.0
3.2078639907156397e7 -2.937974102864798e6 0.0
0.0 0.0 0.0

-8.052659413241604e6 98582.53800000122 0.0
98582.53800000122 4.042347294244859e7 0.0
0.0 0.0 0.0

2.2233761627942827e6 2.300887676740745e7 0.0
2.300887676740745e7 -1.8605141049099667e6 0.0
0.0 0.0 0.0

2.4244492928134743e6 3.9913920191481434e7 0.0
3.9913920191481434e7 -2.365840027831801e6 0.0
0.0 0.0 0.0

-3.4005674178238297e6 2.6135847052478153e7 0.0
2.6135847052478153e7 1.545909172955207e7 0.0
0.0 0.0 0.0

2.6568141489938144e6 3.293974459474616e6 0.0
3.293974459474616e6 -2.936289369466636e7 0.0
0.0 0.0 0.0

555082.3647895078 8.765270154848333e6 0.0
8.765270154848333e6 -1.1295571926609814e7 0.0
0.0 0.0 0.0

3.109872678880024e6 2.371280160408019e7 0.0
2.371280160408019e7 1.0047893833913093e7 0.0
0.0 0.0 0.0

2.8320722262767453e7 5.5702989938723564e7 0.0
5.5702989938723564e7 -1.2834481555617822e7 0.0
0.0 0.0 0.0

-6.203510549090255e6 1.0313775312789973e7 0.0
1.0313775312789973e7 5.4870210819122605e7 0.0
0.0 0.0 0.0

2.3370438672233014e6 2.487262787906488e7 0.0
2.487262787906488e7 -7.775281818614271e6 0.0
0.0 0.0 0.0

-2.5690545883991695e6 2.2608171529949382e7 0.0
2.2608171529949382e7 -1.680799289539616e7 0.0
0.0 0.0 0.0

-921848.9830429745 1.2606313302245734e7 0.0
1.2606313302245734e7 -7.815949416512553e6 0.0
0.0 0.0 0.0

-1.9014554769428538e6 5.839752991898272e6 0.0
5.839752991898272e6 -2.151379381020555e6 0.0
0.0 0.0 0.0

7.753504135496967e6 2.5901795317169607e7 0.0
2.5901795317169607e7 -4.074228234374512e6 0.0
0.0 0.0 0.0

-5.391441969975113e6 2.0077060981090523e7 0.0
2.0077060981090523e7 -3.7078335833974235e7 0.0
0.0 0.0 0.0

1.267711484332092e6 2.9706322484225957e6 0.0
2.9706322484225957e6 -5.835754180001555e7 0.0
0.0 0.0 0.0

-3.6763396403115056e6 2.683865511297153e7 0.0
2.683865511297153e7 1.3304151069087263e7 0.0
0.0 0.0 0.0

1.0493222812979985e6 1.0066188007890921e7 0.0
1.0066188007890921e7 -4.157276191840184e7 0.0
0.0 0.0 0.0

976483.8836082481 3.813674484878386e6 0.0
3.813674484878386e6 -6.512077013631057e7 0.0
0.0 0.0 0.0

-2.5902430342031177e6 2.4668319045708712e7 0.0
2.4668319045708712e7 1.6751851712143954e7 0.0
0.0 0.0 0.0

-6.474812670634946e6 2.103487911779429e7 0.0
2.103487911779429e7 -2.3065452667156197e7 0.0
0.0 0.0 0.0

-1.0144682033058506e7 1.1028957732378244e7 0.0
1.1028957732378244e7 2.472180256643109e7 0.0
0.0 0.0 0.0

-1.0860770204832237e6 3.18131317267567e7 0.0
3.18131317267567e7 1.4170210839158338e6 0.0
0.0 0.0 0.0

-470678.6818224434 1.2837345599966165e7 0.0
1.2837345599966165e7 -5.318383121335974e6 0.0
0.0 0.0 0.0

-4.463248772502794e6 1.623031862422405e7 0.0
1.623031862422405e7 1.5413894305018403e7 0.0
0.0 0.0 0.0

-7.796009209902216e6 266402.85161141277 0.0
266402.85161141277 4.073362186934189e7 0.0
0.0 0.0 0.0

1.3053403356520021e6 1.6631506709984059e7 0.0
1.6631506709984059e7 -2.0558671192453235e7 0.0
0.0 0.0 0.0

1.532285421084892e6 3.749974477379165e7 0.0
3.749974477379165e7 -1.6037597048494853e6 0.0
0.0 0.0 0.0

-9.623323311960828e6 1.0119499537128216e7 0.0
1.0119499537128216e7 2.0768416999788515e7 0.0
0.0 0.0 0.0

-493754.7366075739 9.276292718692936e6 0.0
9.276292718692936e6 -5.748300699159726e7 0.0
0.0 0.0 0.0

-2.6450582887393436e6 1.393269025139172e7 0.0
1.393269025139172e7 -2.9199073472146075e6 0.0
0.0 0.0 0.0

1.336851187976076e7 2.6601152385877382e7 0.0
2.6601152385877382e7 1.5077333038603218e7 0.0
0.0 0.0 0.0

5.311910280977787e7 2.8413748902701974e7 0.0
2.8413748902701974e7 1.1176330275625315e7 0.0
0.0 0.0 0.0

2.6270674317837246e6 6.533371949191071e6 0.0
6.533371949191071e6 -2.6615516472876314e7 0.0
0.0 0.0 0.0

-7.765804761011013e6 1.983624027666172e7 0.0
1.983624027666172e7 -4.719835917093553e7 0.0
0.0 0.0 0.0

2.3149218694574293e6 6.436619988496461e6 0.0
6.436619988496461e6 -2.8031693206379127e7 0.0
0.0 0.0 0.0

2.8848015789045636e6 3.3532107961066747e6 0.0
3.3532107961066747e6 -3.0545484939507823e7 0.0
0.0 0.0 0.0

4.389909570815918e7 1.7415753863222774e7 0.0
1.7415753863222774e7 2.749638597819859e6 0.0
0.0 0.0 0.0

-1.3511213006001465e7 4.5437194235797115e7 0.0
4.5437194235797115e7 3.636048427458929e6 0.0
0.0 0.0 0.0

-5.164087020612337e6 1.8234683544291764e7 0.0
1.8234683544291764e7 -4.230330901349558e7 0.0
0.0 0.0 0.0

-1.436807509561994e7 2.7368784142577846e7 0.0
2.7368784142577846e7 -4.278899608521584e6 0.0
0.0 0.0 0.0

2.5817284171845447e6 3.3618611301109307e6 0.0
3.3618611301109307e6 -4.027560383094448e7 0.0
0.0 0.0 0.0

-9.643970363428943e6 2.916201147642839e7 0.0
2.916201147642839e7 7.176776840324832e6 0.0
0.0 0.0 0.0

1.3705332406183943e7 3.8261364415378116e7 0.0
3.8261364415378116e7 -5.6165735974514065e6 0.0
0.0 0.0 0.0

-7.888838276373973e6 1.2683884524576157e7 0.0
1.2683884524576157e7 4.1773813333507866e7 0.0
0.0 0.0 0.0

1.9859938544533253e7 5.4135598539237164e7 0.0
5.4135598539237164e7 -8.000407378996217e6 0.0
0.0 0.0 0.0

-1.0937423496340814e6 2.3343070569377054e7 0.0
2.3343070569377054e7 -966593.4013919383 0.0
0.0 0.0 0.0

1.6840358843575493e6 2.9175924594961097e6 0.0
2.9175924594961097e6 -5.150590608718872e7 0.0
0.0 0.0 0.0

3.961832769756638e7 2.408441466889785e7 0.0
2.408441466889785e7 1.0083217112752834e7 0.0
0.0 0.0 0.0

-1.7949249587595258e6 2.396073449982423e7 0.0
2.396073449982423e7 1.7167177696083724e7 0.0
0.0 0.0 0.0

1.1292111337482221e6 6.745985412337174e6 0.0
6.745985412337174e6 -4.602052628099237e7 0.0
0.0 0.0 0.0

2.446631254703737e6 2.9811234647540092e7 0.0
2.9811234647540092e7 -7.293990395877821e6 0.0
0.0 0.0 0.0

2.489883610682339e6 2.393822888434439e7 0.0
2.393822888434439e7 -8.906473497613559e6 0.0
0.0 0.0 0.0

-4.591716458944359e6 2.178317316392772e7 0.0
2.178317316392772e7 -1.677967851661751e7 0.0
0.0 0.0 0.0

-1.0980896273408644e6 2.3261171802492194e7 0.0
2.3261171802492194e7 -1.157132272801663e7 0.0
0.0 0.0 0.0

1.7068910490512278e7 2.7453049472842053e7 0.0
2.7453049472842053e7 1.4991191527026398e7 0.0
0.0 0.0 0.0

-798285.711572092 7.457241470932368e6 0.0
7.457241470932368e6 -8.077122654406694e7 0.0
0.0 0.0 0.0

-5.0796500811538445e6 2.7752555607125487e7 0.0
2.7752555607125487e7 1.2546534429523114e7 0.0
0.0 0.0 0.0

811728.3214636508 4.728616137169913e6 0.0
4.728616137169913e6 -3.022748892822668e6 0.0
0.0 0.0 0.0

-7.048881754861129e6 1.7324415336378723e7 0.0
1.7324415336378723e7 3.2003583708119687e7 0.0
0.0 0.0 0.0

3.196178396317074e6 3.9255744507318167e6 0.0
3.9255744507318167e6 -2.6474015240024865e7 0.0
0.0 0.0 0.0

-6.887623486847438e6 -595365.102784146 0.0
-595365.102784146 4.8475991621344425e7 0.0
0.0 0.0 0.0

1.1683707963920776e6 1.7665633119807955e7 0.0
1.7665633119807955e7 -2.5247774261845104e7 0.0
0.0 0.0 0.0

402671.06943762116 2.1805210123475785e6 0.0
2.1805210123475785e6 -3.019097708664968e6 0.0
0.0 0.0 0.0

6.015261433244145e6 2.0593474546552535e7 0.0
2.0593474546552535e7 2.5331065474453885e7 0.0
0.0 0.0 0.0

-2.6305862399632465e6 3.2938508581371177e7 0.0
3.2938508581371177e7 4.340156547770958e6 0.0
0.0 0.0 0.0

-7.740208823295867e6 938999.3968614818 0.0
938999.3968614818 4.64180876193422e7 0.0
0.0 0.0 0.0

-1.1622695527461767e6 2.3785851803330585e7 0.0
2.3785851803330585e7 1.0450349067895787e7 0.0
0.0 0.0 0.0

8.257133078846412e6 2.7588065163386434e7 0.0
2.7588065163386434e7 -5.301822891691448e6 0.0
0.0 0.0 0.0

-1.9705782554505395e6 2.843734187305685e7 0.0
2.843734187305685e7 212231.7369566874 0.0
0.0 0.0 0.0

-6.665309796591261e6 2.509920435924118e7 0.0
2.509920435924118e7 -1.2945415746814474e7 0.0
0.0 0.0 0.0

-1.357880725142201e6 2.8564039563731316e7 0.0
2.8564039563731316e7 2.2080117653897107e6 0.0
0.0 0.0 0.0

-7.954343796805592e6 1.9849145697757106e7 0.0
1.9849145697757106e7 -2.561125944224852e7 0.0
0.0 0.0 0.0

2.6341618890831403e7 3.1277859924175896e7 0.0
3.1277859924175896e7 -2.9603270899288952e6 0.0
0.0 0.0 0.0

-2.4934401236062646e6 2.1266079685353972e7 0.0
2.1266079685353972e7 -1.839699640947475e7 0.0
0.0 0.0 0.0

-2.017186585507188e6 2.210046993420859e7 0.0
2.210046993420859e7 2.8984914155407764e7 0.0
0.0 0.0 0.0

7.179139481743528e6 2.495390704920278e7 0.0
2.495390704920278e7 1.6825529201152608e7 0.0
0.0 0.0 0.0

1.4880453564102873e6 1.1778945912598997e7 0.0
1.1778945912598997e7 -2.9886463288763117e7 0.0
0.0 0.0 0.0

-6.033358239643528e6 1.5465491846549096e7 0.0
1.5465491846549096e7 1.4395174290832337e7 0.0
0.0 0.0 0.0

-3.471386601642852e6 3.874066850330357e7 0.0
3.874066850330357e7 1.3103884104686687e6 0.0
0.0 0.0 0.0

-4.115523706044144e6 2.290619927275043e7 0.0
2.290619927275043e7 1.9679077520790126e7 0.0
0.0 0.0 0.0

5.735787395761616e6 4.148422112476048e7 0.0
4.148422112476048e7 -1.9923546167470736e6 0.0
0.0 0.0 0.0

516343.4130931962 1.7225785855942205e7 0.0
1.7225785855942205e7 -2.6965527185707327e7 0.0
0.0 0.0 0.0

-2.9560152718559366e7 3.140876098231335e7 0.0
3.140876098231335e7 -1.2911402993691491e7 0.0
0.0 0.0 0.0

1.73788914932134e6 4.954104767799393e6 0.0
4.954104767799393e6 -5.737106463706336e7 0.0
0.0 0.0 0.0

1.7974768013075043e7 4.1721805559147336e7 0.0
4.1721805559147336e7 -5.312562832664237e6 0.0
0.0 0.0 0.0

-2.296323775630618e7 3.781666140682428e7 0.0
3.781666140682428e7 6.6653080166993365e6 0.0
0.0 0.0 0.0

3.0062163892697645e6 2.1911740075959373e7 0.0
2.1911740075959373e7 2.524939678982662e7 0.0
0.0 0.0 0.0

-4.2668406163754046e7 3.819095178312258e7 0.0
3.819095178312258e7 5.4512177802147325e6 0.0
0.0 0.0 0.0

1.9248962786317542e6 2.9974857432342726e6 0.0
2.9974857432342726e6 -5.318772454982826e7 0.0
0.0 0.0 0.0

-3.526291181967836e6 2.2549935496553797e7 0.0
2.2549935496553797e7 2.1277173480410077e7 0.0
0.0 0.0 0.0

-1.0448394496891897e7 9.916655435202343e6 0.0
9.916655435202343e6 1.7805402124357022e7 0.0
0.0 0.0 0.0

2.741544866233306e6 2.837134032833368e6 0.0
2.837134032833368e6 -2.7958021922576174e7 0.0
0.0 0.0 0.0

1.3758295095421975e6 2.380530261260989e7 0.0
2.380530261260989e7 -1.1179361577889672e7 0.0
0.0 0.0 0.0

-8.450518965881532e6 4.734172828908491e7 0.0
4.734172828908491e7 5.284063189348415e6 0.0
0.0 0.0 0.0

-1.5843025950219993e7 2.031090991009333e7 0.0
2.031090991009333e7 3.5731954715456767e6 0.0
0.0 0.0 0.0

-4.370381194488907e7 3.199156327186629e7 0.0
3.199156327186629e7 -2.0899280350466222e6 0.0
0.0 0.0 0.0

5.6569506358316295e7 2.8942708262993474e7 0.0
2.8942708262993474e7 2.1982384687773235e7 0.0
0.0 0.0 0.0

-9.867971167050421e6 1.8518220976067577e7 0.0
1.8518220976067577e7 -1.0282737684778845e8 0.0
0.0 0.0 0.0

-231374.97416615207 2.2481667989047933e7 0.0
2.2481667989047933e7 -1.4793197387189593e7 0.0
0.0 0.0 0.0

-1.5326942700007353e6 2.1436115924186192e7 0.0
2.1436115924186192e7 2.9308511744096223e7 0.0
0.0 0.0 0.0

2.4309125780062894e6 2.7189569297390323e7 0.0
2.7189569297390323e7 -1.0920359026003515e7 0.0
0.0 0.0 0.0

-342581.3961689716 3.1648509590201937e7 0.0
3.1648509590201937e7 -482596.70837280276 0.0
0.0 0.0 0.0

4.377181989984832e6 1.937337587415393e7 0.0
1.937337587415393e7 1.4477355183837514e7 0.0
0.0 0.0 0.0

4.9635396557153575e6 4.04260746831745e7 0.0
4.04260746831745e7 -1.95344181764655e6 0.0
0.0 0.0 0.0

-1.0215679701018345e7 1.0856202503515884e7 0.0
1.0856202503515884e7 2.0879110048627622e7 0.0
0.0 0.0 0.0

7.502824358781564e7 4.471387049734652e7 0.0
4.471387049734652e7 3.3294172462741192e7 0.0
0.0 0.0 0.0

3.493104394032196e6 3.1665820451447465e7 0.0
3.1665820451447465e7 -7.083406775589265e6 0.0
0.0 0.0 0.0

5.726117998881581e6 1.829391203761973e7 0.0
1.829391203761973e7 2.0434216450023435e7 0.0
0.0 0.0 0.0

-1.387785456866449e7 2.9297135950657025e7 0.0
2.9297135950657025e7 1.708362883721291e6 0.0
0.0 0.0 0.0

2.1360817335259393e6 2.0499849597678006e7 0.0
2.0499849597678006e7 2.0593992546273112e7 0.0
0.0 0.0 0.0

1.95508653918357e6 2.9745512449872423e7 0.0
2.9745512449872423e7 -6.784585459592929e6 0.0
0.0 0.0 0.0

1.4652419378810227e6 8.874893589725113e6 0.0
8.874893589725113e6 -4.070411013834645e7 0.0
0.0 0.0 0.0

-2.416794286939916e6 2.615167559325458e7 0.0
2.615167559325458e7 7.401755125424626e6 0.0
0.0 0.0 0.0

-7.584713635486711e6 2.6345909169352382e7 0.0
2.6345909169352382e7 4.286159734414672e6 0.0
0.0 0.0 0.0

969748.0079745166 8.788461590909284e6 0.0
8.788461590909284e6 -1.4002291612047605e7 0.0
0.0 0.0 0.0

-3.533794329294675e6 2.6924900373819057e7 0.0
2.6924900373819057e7 1.336375577016766e7 0.0
0.0 0.0 0.0

-5.813734504188333e6 7.418240001865825e6 0.0
7.418240001865825e6 5.89527453761601e7 0.0
0.0 0.0 0.0

-1.2027719058240377e6 1.3262108967234002e7 0.0
1.3262108967234002e7 -1.8425701878221626e6 0.0
0.0 0.0 0.0

-1.369606553583573e7 2.7000463376585346e7 0.0
2.7000463376585346e7 -1.2583939536244882e7 0.0
0.0 0.0 0.0

5.2557583593425564e7 3.601936528105245e7 0.0
3.601936528105245e7 2.3484759176097512e7 0.0
0.0 0.0 0.0

-284248.2422540635 1.6688846888697736e7 0.0
1.6688846888697736e7 -3.5219787214935146e7 0.0
0.0 0.0 0.0

1.9741481839786973e6 6.843291923330828e6 0.0
6.843291923330828e6 -4.322474120663398e7 0.0
0.0 0.0 0.0

1.2735730753281804e7 2.5534661080860592e7 0.0
2.5534661080860592e7 6.1621572606704375e6 0.0
0.0 0.0 0.0

-1.3248190534977447e6 1.3647857255185077e7 0.0
1.3647857255185077e7 1.682902342802897e7 0.0
0.0 0.0 0.0

-825181.8073496474 3.0327954368967798e7 0.0
3.0327954368967798e7 259263.05008293194 0.0
0.0 0.0 0.0

-423285.71456843335 2.596822378233035e7 0.0
2.596822378233035e7 -8.47450026077984e6 0.0
0.0 0.0 0.0

491655.8200287968 2.628530634762711e7 0.0
2.628530634762711e7 -1.066114240949163e7 0.0
0.0 0.0 0.0

-1.418057061384481e6 2.2449903186332654e7 0.0
2.2449903186332654e7 -9.634881436570292e6 0.0
0.0 0.0 0.0

1.7549402390671289e6 9.735866273817e6 0.0
9.735866273817e6 -1.2581862973353667e7 0.0
0.0 0.0 0.0

4.406485371493569e7 3.2527868045507144e7 0.0
3.2527868045507144e7 2.092291457655982e7 0.0
0.0 0.0 0.0

3.6294713761807093e6 2.0474267479235634e7 0.0
2.0474267479235634e7 1.2840583988470351e7 0.0
0.0 0.0 0.0

-3.967793409228056e6 3.760381562749166e7 0.0
3.760381562749166e7 3.6478241287296927e6 0.0
0.0 0.0 0.0

-4.497502700785192e7 2.6643526259558704e7 0.0
2.6643526259558704e7 4.463055938167971e6 0.0
0.0 0.0 0.0

3.1615437997826748e6 3.5774492015811806e6 0.0
3.5774492015811806e6 -2.467911040731754e7 0.0
0.0 0.0 0.0

1.103417370986455e6 2.274647979747002e7 0.0
2.274647979747002e7 8.443591800305383e6 0.0
0.0 0.0 0.0

-6.05197852255336e6 1.8951703307176627e7 0.0
1.8951703307176627e7 -2.4502131129135914e7 0.0
0.0 0.0 0.0

-477617.1807903806 2.017521774213083e7 0.0
2.017521774213083e7 -2.536678258417047e7 0.0
0.0 0.0 0.0

-8.505990193658864e6 -876107.2712387152 0.0
-876107.2712387152 3.3321550612897612e7 0.0
0.0 0.0 0.0

854993.093607611 1.563143192893525e7 0.0
1.563143192893525e7 -2.3866309567043725e7 0.0
0.0 0.0 0.0

-1.3214986932808962e7 1.9379026658551868e7 0.0
1.9379026658551868e7 -6.233154647871927e7 0.0
0.0 0.0 0.0

1.0067596236026362e6 1.4899906997913849e7 0.0
1.4899906997913849e7 -2.5313331908858445e7 0.0
0.0 0.0 0.0

3.132903588118004e6 2.4614207652656447e7 0.0
2.4614207652656447e7 -1.017295336222863e7 0.0
0.0 0.0 0.0

4.090506455403285e7 2.611909022874681e7 0.0
2.611909022874681e7 9.609702807850096e6 0.0
0.0 0.0 0.0

-4.8711478901862055e6 1.674591360559252e7 0.0
1.674591360559252e7 4.293954976637402e7 0.0
0.0 0.0 0.0

-6.861162197380509e6 2.6360124782148e7 0.0
2.6360124782148e7 -1.3656035434029922e7 0.0
0.0 0.0 0.0

492427.20679070835 2.104248176888196e7 0.0
2.104248176888196e7 1.0980947924986337e6 0.0
0.0 0.0 0.0

-7.575181366781553e6 2.3778771678585753e7 0.0
2.3778771678585753e7 -1.7554755800778337e7 0.0
0.0 0.0 0.0

4.152175534140903e7 3.2402730168639075e7 0.0
3.2402730168639075e7 1.8542858772617348e7 0.0
0.0 0.0 0.0

-4.255486539349427e6 2.7020013344601925e7 0.0
2.7020013344601925e7 1.415162450348257e7 0.0
0.0 0.0 0.0

2.7665151187567823e6 2.4328289246139534e7 0.0
2.4328289246139534e7 -3.101839011589055e6 0.0
0.0 0.0 0.0

1.0204934891388279e6 3.406244681457309e7 0.0
3.406244681457309e7 -1.7589517092406985e6 0.0
0.0 0.0 0.0

-2.270012572374781e6 2.6086296864497676e7 0.0
2.6086296864497676e7 8.398607959464943e6 0.0
0.0 0.0 0.0

-3.8775931768599413e6 2.5287097547000297e6 0.0
2.5287097547000297e6 8.726748910576423e7 0.0
0.0 0.0 0.0

1.2129300400955435e6 2.3857411506553482e7 0.0
2.3857411506553482e7 -1.608486051689514e7 0.0
0.0 0.0 0.0

-1.6217733583426443e6 3.3123334931709256e7 0.0
3.3123334931709256e7 2.464385381267713e6 0.0
0.0 0.0 0.0

-1.3350035633369843e6 3.9927965848747897e6 0.0
3.9927965848747897e6 3.0703300988045293e6 0.0
0.0 0.0 0.0

-6.029795979252091e6 1.8868612723360438e7 0.0
1.8868612723360438e7 3.078278545756899e7 0.0
0.0 0.0 0.0

-4.462952281805616e6 2.0250068639421906e7 0.0
2.0250068639421906e7 -1.6954196401955307e7 0.0
0.0 0.0 0.0

2.2669633777236585e6 3.5636196773028905e6 0.0
3.5636196773028905e6 -3.485606544922747e7 0.0
0.0 0.0 0.0

-1.876810820117897e6 3.9336956230819546e7 0.0
3.9336956230819546e7 2.207346061129031e6 0.0
0.0 0.0 0.0

1.5786301622091308e6 1.5991990239243556e7 0.0
1.5991990239243556e7 -2.1701024513397515e7 0.0
0.0 0.0 0.0

-4.046862695739188e6 2.1880539387184784e7 0.0
2.1880539387184784e7 2.324890450754919e7 0.0
0.0 0.0 0.0

516990.4394154772 6.683426895564454e6 0.0
6.683426895564454e6 -7.482473502159333e7 0.0
0.0 0.0 0.0

-4.84373970131692e6 3.7157180256141745e7 0.0
3.7157180256141745e7 3.0809734395287842e6 0.0
0.0 0.0 0.0

-1.0267143472061513e7 1.9858012069471236e7 0.0
1.9858012069471236e7 -3.6748136761088125e7 0.0
0.0 0.0 0.0

3.19951104772205e6 2.3913555538869053e6 0.0
2.3913555538869053e6 -1.578027777091753e7 0.0
0.0 0.0 0.0

-891406.8419177199 1.2301656008546714e7 0.0
1.2301656008546714e7 -3.6679394771350427e6 0.0
0.0 0.0 0.0

-1.988506003050705e7 3.796578706060777e7 0.0
3.796578706060777e7 5.797216291968336e6 0.0
0.0 0.0 0.0

7.45270490213145e6 1.826561542513308e7 0.0
1.826561542513308e7 2.412557846682583e7 0.0
0.0 0.0 0.0

-9.91409803400538e6 4.4533348999430224e7 0.0
4.4533348999430224e7 3.3287203784153694e6 0.0
0.0 0.0 0.0

-9.693168169803716e6 8.490154361748163e6 0.0
8.490154361748163e6 3.2114437542307705e7 0.0
0.0 0.0 0.0

-847507.1928559579 1.0230352513815675e7 0.0
1.0230352513815675e7 -8.340433598851871e7 0.0
0.0 0.0 0.0

9.683718802417953e7 3.2419278609431073e7 0.0
3.2419278609431073e7 1.0863871788929094e7 0.0
0.0 0.0 0.0

-759051.0299030947 3.1289389110198703e7 0.0
3.1289389110198703e7 414188.9796709654 0.0
0.0 0.0 0.0

-6.195588379276859e6 3.2244201958241712e7 0.0
3.2244201958241712e7 7.385582545475282e6 0.0
0.0 0.0 0.0

-1.9892612921921366e6 2.87549826723062e7 0.0
2.87549826723062e7 5.505101134998303e6 0.0
0.0 0.0 0.0

1.0710155212179726e7 2.2222798173614435e7 0.0
2.2222798173614435e7 6.808154736698245e7 0.0
0.0 0.0 0.0

1.7816502755498178e6 3.9311349790828186e6 0.0
3.9311349790828186e6 -4.112019761294166e7 0.0
0.0 0.0 0.0

89029.00576031627 1.4982249467018278e7 0.0
1.4982249467018278e7 -9.644818185979139e6 0.0
0.0 0.0 0.0

1.116052641371119e7 3.8091291134581834e7 0.0
3.8091291134581834e7 -5.146467936810929e6 0.0
0.0 0.0 0.0

-270434.3808408566 1.218507867950658e7 0.0
1.218507867950658e7 -4.6495058590924814e7 0.0
0.0 0.0 0.0

-2.3837318627296396e7 2.3070944069073483e7 0.0
2.3070944069073483e7 3.1271271355692623e6 0.0
0.0 0.0 0.0

-7.480488407125213e6 2.672885868239025e7 0.0
2.672885868239025e7 2.8638265914154025e6 0.0
0.0 0.0 0.0

653111.8905791632 2.1720938786854036e7 0.0
2.1720938786854036e7 4.966284626429183e6 0.0
0.0 0.0 0.0

1.6499170442542005e6 1.526660730483425e7 0.0
1.526660730483425e7 -2.326239721298075e7 0.0
0.0 0.0 0.0

5.252738193182316e6 2.1207325636399638e7 0.0
2.1207325636399638e7 4.428015014171922e7 0.0
0.0 0.0 0.0

1.7452524436904673e7 3.8434245735083975e7 0.0
3.8434245735083975e7 -5.968411934545074e6 0.0
0.0 0.0 0.0

-5.0210560375643164e7 5.206521471215155e6 0.0
5.206521471215155e6 5.388395214167189e6 0.0
0.0 0.0 0.0

5.7362579281520724e7 5.272067408472536e7 0.0
5.272067408472536e7 -9.272313941864349e6 0.0
0.0 0.0 0.0

1.666093347205918e7 3.8736441220682934e7 0.0
3.8736441220682934e7 -6.424922719410827e6 0.0
0.0 0.0 0.0

2.820179117002775e6 3.646351101409742e6 0.0
3.646351101409742e6 -2.372582374569411e7 0.0
0.0 0.0 0.0

-3.0790164225470372e6 3.317360090654073e7 0.0
3.317360090654073e7 2.6449852062089415e6 0.0
0.0 0.0 0.0

4.9012445954940274e7 1.80201320756754e7 0.0
1.80201320756754e7 3.278258036445027e6 0.0
0.0 0.0 0.0

-4.59808328111371e6 9.590145777967181e6 0.0
9.590145777967181e6 6.392433636877418e7 0.0
0.0 0.0 0.0

1.2320919092017766e6 2.4149311838561933e7 0.0
2.4149311838561933e7 -1.5512836151787689e7 0.0
0.0 0.0 0.0

3.0868839066106476e7 2.2070295081898563e7 0.0
2.2070295081898563e7 6.177591742034852e6 0.0
0.0 0.0 0.0

2.2524092930206414e6 2.465569792472772e7 0.0
2.465569792472772e7 -1.2164516527335638e7 0.0
0.0 0.0 0.0

2.057737375875296e6 4.628201164186248e6 0.0
4.628201164186248e6 -4.4386138079085946e7 0.0
0.0 0.0 0.0

-98282.65936138207 3.107792254379224e7 0.0
3.107792254379224e7 -1.5412265586536126e6 0.0
0.0 0.0 0.0

-5.357564344054876e6 1.942354494181281e7 0.0
1.942354494181281e7 -2.2038000984988984e7 0.0
0.0 0.0 0.0

4.0170034582507345e6 3.358849598540819e7 0.0
3.358849598540819e7 -5.754918114437245e6 0.0
0.0 0.0 0.0

-2.8567298852259405e6 1.2496141558955925e7 0.0
1.2496141558955925e7 6.6124900164618246e7 0.0
0.0 0.0 0.0

-1.2591491352321417e6 2.1747115897382814e7 0.0
2.1747115897382814e7 -1.1776550503186533e7 0.0
0.0 0.0 0.0

1.3801548028033245e6 1.13888220922412e7 0.0
1.13888220922412e7 -3.2236126615677815e7 0.0
0.0 0.0 0.0

6.397080855704053e6 2.7802794326211926e7 0.0
2.7802794326211926e7 -6.768733180758828e6 0.0
0.0 0.0 0.0

-3.681865752858916e6 2.12367244690947e7 0.0
2.12367244690947e7 -1.1247010830086099e7 0.0
0.0 0.0 0.0

-6.043889313781738e6 4.714059112734953e6 0.0
4.714059112734953e6 5.890988989813461e7 0.0
0.0 0.0 0.0

4.292714194825457e6 2.1918796382369056e7 0.0
2.1918796382369056e7 2.6088550252920978e7 0.0
0.0 0.0 0.0

-558365.8175614383 1.1753721181304542e7 0.0
1.1753721181304542e7 -5.030787528101715e7 0.0
0.0 0.0 0.0

4.971177343830476e6 3.324612984482626e7 0.0
3.324612984482626e7 -5.538169304099631e6 0.0
0.0 0.0 0.0

5.040377536693336e6 2.5298216005887657e7 0.0
2.5298216005887657e7 1.6154602401209595e7 0.0
0.0 0.0 0.0

2.1352919539438244e6 1.0170668125222933e7 0.0
1.0170668125222933e7 -3.162562888621786e7 0.0
0.0 0.0 0.0

7.311404810830949e7 3.164112907026715e7 0.0
3.164112907026715e7 1.700131947035084e7 0.0
0.0 0.0 0.0

3.9520765674450463e6 3.247346966831193e7 0.0
3.247346966831193e7 -5.739182243456974e6 0.0
0.0 0.0 0.0

-8.148171665067257e6 -579351.598089336 0.0
-579351.598089336 3.69287094653409e7 0.0
0.0 0.0 0.0

-7.2546227132072635e6 5.082617026219917e6 0.0
5.082617026219917e6 5.50429496723311e7 0.0
0.0 0.0 0.0

2.552567303020939e6 1.6333564364895148e6 0.0
1.6333564364895148e6 -3.725783158477115e7 0.0
0.0 0.0 0.0

-2.635744384876305e6 2.824073904992291e7 0.0
2.824073904992291e7 4.824955842488301e6 0.0
0.0 0.0 0.0

-2.0079545022313194e6 2.1552584041678935e7 0.0
2.1552584041678935e7 -1.0677385013193877e7 0.0
0.0 0.0 0.0

2.4041878181211436e6 2.6475956996269252e7 0.0
2.6475956996269252e7 -1.2332058493275117e7 0.0
0.0 0.0 0.0

-9.318615973204292e6 2.227351814285181e6 0.0
2.227351814285181e6 2.8431110257453434e7 0.0
0.0 0.0 0.0

959246.9398177629 2.683546138030418e7 0.0
2.683546138030418e7 -8.86566369562358e6 0.0
0.0 0.0 0.0

-6.465650114552729e6 4.5853914137577675e6 0.0
4.5853914137577675e6 5.881454986752047e7 0.0
0.0 0.0 0.0

1.2276752558810959e7 2.4045689288203888e7 0.0
2.4045689288203888e7 7.965530933787755e6 0.0
0.0 0.0 0.0

-1.0601464250550084e6 1.4309340637351668e7 0.0
1.4309340637351668e7 -4.801040371844399e7 0.0
0.0 0.0 0.0

139992.90256475843 1.1791241135974947e7 0.0
1.1791241135974947e7 -5.068288378724401e7 0.0
0.0 0.0 0.0

-6.099497372521378e6 1.84252411982009e7 0.0
1.84252411982009e7 3.2636523472735718e7 0.0
0.0 0.0 0.0

-1.8615545848996462e6 2.344895576294678e7 0.0
2.344895576294678e7 6.242355704393439e6 0.0
0.0 0.0 0.0

176968.28656363126 5.038450262768787e6 0.0
5.038450262768787e6 -892025.1226382591 0.0
0.0 0.0 0.0

-1.6094567112844845e6 2.2910590202326998e7 0.0
2.2910590202326998e7 -9.93776359712304e6 0.0
0.0 0.0 0.0

-3.5668125126141645e6 3.0988407785548337e7 0.0
3.0988407785548337e7 7.68590653235631e6 0.0
0.0 0.0 0.0

9.54508018491798e6 2.2045727043124337e7 0.0
2.2045727043124337e7 5.527935142976513e7 0.0
0.0 0.0 0.0

1.778339565248055e7 2.7449224964001123e7 0.0
2.7449224964001123e7 -1.2598329799872376e6 0.0
0.0 0.0 0.0

-3.398111154045727e6 2.117467667575036e6 0.0
2.117467667575036e6 8.46575329252761e7 0.0
0.0 0.0 0.0

-5.383672212807637e6 1.2358335686460173e7 0.0
1.2358335686460173e7 5.246514223383547e7 0.0
0.0 0.0 0.0

-6.58760431927851e6 1.8558680417700265e7 0.0
1.8558680417700265e7 2.639538393693762e7 0.0
0.0 0.0 0.0

2.9774704359031944e6 2.1529770723485958e7 0.0
2.1529770723485958e7 1.3677698606857637e7 0.0
0.0 0.0 0.0

-1.0534941354360888e7 6.376921939808661e6 0.0
6.376921939808661e6 2.1055292471029464e7 0.0
0.0 0.0 0.0

-1.2565586616937932e7 2.368656381219474e7 0.0
2.368656381219474e7 -1.0272543615568299e7 0.0
0.0 0.0 0.0

2.499327920301039e6 5.123164199751992e6 0.0
5.123164199751992e6 -3.917056953893675e7 0.0
0.0 0.0 0.0

-1.0118558118004896e7 1.939068120616847e7 0.0
1.939068120616847e7 -5.2498847407531895e7 0.0
0.0 0.0 0.0

2.6126713157587186e6 2.03886458889308e7 0.0
2.03886458889308e7 8.762379622293482e6 0.0
0.0 0.0 0.0

2.3676276421857126e7 3.425836169352277e7 0.0
3.425836169352277e7 -5.48000244437229e6 0.0
0.0 0.0 0.0

2.909931476528489e6 2.5384107126068957e7 0.0
2.5384107126068957e7 -8.96505918544947e6 0.0
0.0 0.0 0.0

-2.9306641398088455e7 3.0353025868542407e7 0.0
3.0353025868542407e7 -1.0068108134293554e7 0.0
0.0 0.0 0.0

-728708.9084650651 3.2396761594092116e7 0.0
3.2396761594092116e7 -1.9108551095162765e6 0.0
0.0 0.0 0.0

-2.4788618460429567e6 7.928565147776594e6 0.0
7.928565147776594e6 -1.650732655753087e6 0.0
0.0 0.0 0.0

-6.503650253481677e6 4.56707066112899e7 0.0
4.56707066112899e7 5.082551478035703e6 0.0
0.0 0.0 0.0

-1.7780908072450547e6 2.409620863740145e7 0.0
2.409620863740145e7 4.7361840392884975e6 0.0
0.0 0.0 0.0

-1.1130409815606467e7 1.1083626453741852e7 0.0
1.1083626453741852e7 2.143794538080339e7 0.0
0.0 0.0 0.0

-2.4321610792080406e6 2.411896973479626e7 0.0
2.411896973479626e7 2.48946085472828e6 0.0
0.0 0.0 0.0

-7.200118633640932e6 1.4363838944655876e6 0.0
1.4363838944655876e6 8.602383389783092e6 0.0
0.0 0.0 0.0

26578.169471629895 1.1067243744719535e7 0.0
1.1067243744719535e7 -2.3842786766691554e7 0.0
0.0 0.0 0.0

-573816.3517949395 1.5054719110982688e7 0.0
1.5054719110982688e7 -4.130639439630326e7 0.0
0.0 0.0 0.0

-1.3305258423860937e7 2.6041786922399387e7 0.0
2.6041786922399387e7 -1.1064572560917746e7 0.0
0.0 0.0 0.0

-2.062542461801961e6 2.2283213749768496e7 0.0
2.2283213749768496e7 2.709028865932656e7 0.0
0.0 0.0 0.0

-1.503078304906093e6 2.140788328543424e7 0.0
2.140788328543424e7 -7.7603459224833725e6 0.0
0.0 0.0 0.0

2.9591389439127995e6 4.1601778481689985e6 0.0
4.1601778481689985e6 -1.6007910169530025e7 0.0
0.0 0.0 0.0

-15416.945121711586 2.9066938236671314e7 0.0
2.9066938236671314e7 -5.813173744155303e6 0.0
0.0 0.0 0.0

552224.9892316281 3.385165065880428e7 0.0
3.385165065880428e7 -3.13256447597111e6 0.0
0.0 0.0 0.0

8.432620593181651e6 2.7230981679549564e7 0.0
2.7230981679549564e7 -5.845861809855025e6 0.0
0.0 0.0 0.0

-9.977370035779275e6 1.4080562298635453e7 0.0
1.4080562298635453e7 2.2777947905383937e7 0.0
0.0 0.0 0.0

-3.2084846886256365e6 2.0588389670087066e7 0.0
2.0588389670087066e7 -2.409924749600121e7 0.0
0.0 0.0 0.0

-7.155618564220278e6 3.89735096694786e7 0.0
3.89735096694786e7 3.4495747091580643e6 0.0
0.0 0.0 0.0

-5.910608164365256e6 3.807412234424436e7 0.0
3.807412234424436e7 3.24995640047401e6 0.0
0.0 0.0 0.0

-4.2162572703250395e6 1.8138037349828057e7 0.0
1.8138037349828057e7 -3.86914902503474e7 0.0
0.0 0.0 0.0

-4.776482085557789e6 2.0980664928534143e7 0.0
2.0980664928534143e7 -1.4532272650164241e7 0.0
0.0 0.0 0.0

1.5134727238486698e6 2.1345506837459758e7 0.0
2.1345506837459758e7 7.1416981133616315e6 0.0
0.0 0.0 0.0

1.0184706749600489e6 1.0795067307468435e7 0.0
1.0795067307468435e7 -3.932295671583555e7 0.0
0.0 0.0 0.0

-6.9313994460320175e6 1.3678969576583425e7 0.0
1.3678969576583425e7 4.3121687427818805e7 0.0
0.0 0.0 0.0

-3.0084026624339223e6 1.4056275439340472e7 0.0
1.4056275439340472e7 -8.667782356322657e7 0.0
0.0 0.0 0.0

1.4547532976876874e7 4.3029579080131315e7 0.0
4.3029579080131315e7 -7.05382002089195e6 0.0
0.0 0.0 0.0

9.273120667286964e6 1.974373877290525e7 0.0
1.974373877290525e7 3.93990363039731e7 0.0
0.0 0.0 0.0

7.1083922795636095e6 2.0838816695691362e7 0.0
2.0838816695691362e7 5.01142699352718e7 0.0
0.0 0.0 0.0

3.090963009115237e7 2.852998492253425e7 0.0
2.852998492253425e7 1.4651488760484591e7 0.0
0.0 0.0 0.0

-157739.11680891202 2.2368610428168282e7 0.0
2.2368610428168282e7 3.7392867860955223e6 0.0
0.0 0.0 0.0

65660.21643790067 2.852249627849544e7 0.0
2.852249627849544e7 -5.49477163669262e6 0.0
0.0 0.0 0.0

-3.697796782654123e7 3.114347783968212e7 0.0
3.114347783968212e7 -1.1522809403603958e7 0.0
0.0 0.0 0.0

-131927.32067453326 2.1312577008640964e7 0.0
2.1312577008640964e7 1.4130679131909122e6 0.0
0.0 0.0 0.0

-4.342507415622074e6 2.5436602092077926e7 0.0
2.5436602092077926e7 6.54070345217028e6 0.0
0.0 0.0 0.0

2.9723827950573564e6 3.735303690336136e6 0.0
3.735303690336136e6 -3.2236147658506576e7 0.0
0.0 0.0 0.0

-1.4525828560803628e7 2.5561985689936087e7 0.0
2.5561985689936087e7 -8.355903169638519e6 0.0
0.0 0.0 0.0

-1.7727898505061373e7 4.798769279340477e7 0.0
4.798769279340477e7 5.915398922737203e6 0.0
0.0 0.0 0.0

-9.237021241692457e6 4.0443524622336007e6 0.0
4.0443524622336007e6 3.1883247690092098e7 0.0
0.0 0.0 0.0

1.6996936710726924e7 3.5355914318365276e7 0.0
3.5355914318365276e7 -5.410562622902123e6 0.0
0.0 0.0 0.0

-1.5273432806204334e6 1.1870601935589876e7 0.0
1.1870601935589876e7 9.202528550859827e7 0.0
0.0 0.0 0.0

-8.192454218874743e6 -546746.3225884385 0.0
-546746.3225884385 3.675721183731522e7 0.0
0.0 0.0 0.0

-1.679019055705135e7 2.200804892207838e7 0.0
2.200804892207838e7 -6.811173037217866e7 0.0
0.0 0.0 0.0

-370287.6688861884 2.3514370589659207e7 0.0
2.3514370589659207e7 -1.3055984935783606e7 0.0
0.0 0.0 0.0

685689.0352152283 3.495596135999586e7 0.0
3.495596135999586e7 -1.6369736604237023e6 0.0
0.0 0.0 0.0

-9.062139492208865e6 2.1456407415101245e7 0.0
2.1456407415101245e7 -1.3567559200486967e7 0.0
0.0 0.0 0.0

-1.0701690818157734e6 1.1695713926464021e7 0.0
1.1695713926464021e7 -1.896261583479399e6 0.0
0.0 0.0 0.0

-652243.6517257562 3.0835164617356494e7 0.0
3.0835164617356494e7 -3.1781809290152746e6 0.0
0.0 0.0 0.0

-3.561386582866004e6 3.681022022836663e7 0.0
3.681022022836663e7 3.034273886667792e6 0.0
0.0 0.0 0.0

1.0863557224176843e6 3.520705357774077e7 0.0
3.520705357774077e7 -2.1315076807180317e6 0.0
0.0 0.0 0.0

-5.223488314792071e6 1.2991351859861383e7 0.0
1.2991351859861383e7 -9.385915167712447e7 0.0
0.0 0.0 0.0

-6.89706925311636e6 2.1816428968533892e7 0.0
2.1816428968533892e7 -2.4504584414699167e7 0.0
0.0 0.0 0.0

-5.007422533575829e6 3.5586161924199318e6 0.0
3.5586161924199318e6 6.943688397302216e7 0.0
0.0 0.0 0.0

1.715001905584143e7 2.5103913941202242e7 0.0
2.5103913941202242e7 7.610044809769909e7 0.0
0.0 0.0 0.0

-5.711742544703634e7 5.061595030658274e6 0.0
5.061595030658274e6 5.135968280353501e6 0.0
0.0 0.0 0.0

5.1448852561387904e7 3.415409127849296e7 0.0
3.415409127849296e7 1.1472068038715852e7 0.0
0.0 0.0 0.0

-735028.7584023383 1.788508524210314e7 0.0
1.788508524210314e7 -3.396599959439007e7 0.0
0.0 0.0 0.0

2.0431581035292177e6 5.859469648271814e6 0.0
5.859469648271814e6 -9.3617531913924e6 0.0
0.0 0.0 0.0

6.92741111506602e7 3.2332523422199845e7 0.0
3.2332523422199845e7 954222.8794238977 0.0
0.0 0.0 0.0

2.3347168509625327e6 1.2669213627095921e7 0.0
1.2669213627095921e7 -3.0342911323477425e7 0.0
0.0 0.0 0.0

3.844999997652406e7 2.899257466090125e7 0.0
2.899257466090125e7 1.5917743834899336e7 0.0
0.0 0.0 0.0

-1.2045414026672456e6 3.207790216433924e7 0.0
3.207790216433924e7 -1.1776467387883482e6 0.0
0.0 0.0 0.0

-5.176013188585046e6 3.1533267945748776e7 0.0
3.1533267945748776e7 7.682884223577188e6 0.0
0.0 0.0 0.0

-1.1073895392543902e6 1.5534877056237204e7 0.0
1.5534877056237204e7 -1.0509517350459488e7 0.0
0.0 0.0 0.0

-6.700848151307721e6 1.5745572636092875e7 0.0
1.5745572636092875e7 -8.356442866645737e6 0.0
0.0 0.0 0.0

-6.888945482824528e6 2.0666067115611985e7 0.0
2.0666067115611985e7 -2.385219612794286e7 0.0
0.0 0.0 0.0

-1.8984275394491386e6 2.4346408548697017e7 0.0
2.4346408548697017e7 1.0118383854081629e7 0.0
0.0 0.0 0.0

4.690867634966139e6 2.4208126669952877e7 0.0
2.4208126669952877e7 1.2357949464426575e7 0.0
0.0 0.0 0.0

-1.8897327268146612e6 1.0345994784284607e7 0.0
1.0345994784284607e7 8.684054983494167e7 0.0
0.0 0.0 0.0

-1.6908466984043403e6 2.9881883745161884e7 0.0
2.9881883745161884e7 -495708.51013521064 0.0
0.0 0.0 0.0

2.5006593588531595e6 1.6009593483445935e6 0.0
1.6009593483445935e6 -3.746025654143069e7 0.0
0.0 0.0 0.0

-2.674446050897712e6 2.4954140778348755e7 0.0
2.4954140778348755e7 1.7558214853025895e7 0.0
0.0 0.0 0.0

3.061638890439775e6 2.4145706406996656e7 0.0
2.4145706406996656e7 1.4148812084378647e7 0.0
0.0 0.0 0.0

1.6588184998569395e7 2.9801030424134936e7 0.0
2.9801030424134936e7 -3.6390166802270804e6 0.0
0.0 0.0 0.0

1.8916776149748815e6 2.904675980429492e7 0.0
2.904675980429492e7 -8.92675691359023e6 0.0
0.0 0.0 0.0

-4.8453766387368925e6 4.146383778862439e7 0.0
4.146383778862439e7 1.9613589746474267e6 0.0
0.0 0.0 0.0

-3.5438978377333106e6 8.778847973707028e6 0.0
8.778847973707028e6 465455.0551131088 0.0
0.0 0.0 0.0

-1.4356558586334517e7 3.7880372467709735e7 0.0
3.7880372467709735e7 5.569991380647136e6 0.0
0.0 0.0 0.0

-1.979907713817701e6 3.268269297201693e7 0.0
3.268269297201693e7 3.4486164749002685e6 0.0
0.0 0.0 0.0

-6.242336791979039e6 1.9799193397989426e7 0.0
1.9799193397989426e7 2.631885643795744e7 0.0
0.0 0.0 0.0

4.2563811089404516e7 2.9234784403179605e7 0.0
2.9234784403179605e7 2.9364672542692516e6 0.0
0.0 0.0 0.0

1.1773745203863252e6 2.2076513252693895e7 0.0
2.2076513252693895e7 -1.697187481808254e7 0.0
0.0 0.0 0.0

-1.6119489626635541e6 3.1726035612038106e7 0.0
3.1726035612038106e7 -309851.31778032216 0.0
0.0 0.0 0.0

-927398.7040821812 1.4066134921674872e7 0.0
1.4066134921674872e7 -1.0961177763855208e7 0.0
0.0 0.0 0.0

-643570.6720271902 2.3743663998154484e7 0.0
2.3743663998154484e7 1.6095776627695061e7 0.0
0.0 0.0 0.0

-1.066223576569838e7 1.695039615811978e7 0.0
1.695039615811978e7 -5.059127834707232e6 0.0
0.0 0.0 0.0

-1.429301809953401e7 2.4537222501306664e7 0.0
2.4537222501306664e7 -8.504322322313689e6 0.0
0.0 0.0 0.0

590145.2011982827 2.312006621428114e7 0.0
2.312006621428114e7 -1.29721467249174e7 0.0
0.0 0.0 0.0

1.3503110757958945e7 1.7680818829199877e7 0.0
1.7680818829199877e7 5.0156873223258685e6 0.0
0.0 0.0 0.0

41289.80017427076 2.1341824229383502e7 0.0
2.1341824229383502e7 -2.1506388284814198e7 0.0
0.0 0.0 0.0

-1.8766000324139632e6 2.1973922582068082e7 0.0
2.1973922582068082e7 2.7058925892271467e7 0.0
0.0 0.0 0.0

-1.9074372728445932e7 2.348205904043041e7 0.0
2.348205904043041e7 -2.84908512968981e6 0.0
0.0 0.0 0.0

-3.1448324604226323e6 2.4118227789758664e7 0.0
2.4118227789758664e7 4.194995346609393e6 0.0
0.0 0.0 0.0

-1.0653960898157114e7 9.793181837640425e6 0.0
9.793181837640425e6 2.962356793141833e7 0.0
0.0 0.0 0.0

4.257822728602594e6 2.117595162904294e7 0.0
2.117595162904294e7 2.494070812577013e7 0.0
0.0 0.0 0.0

2.0237719249937065e7 3.893538001909414e7 0.0
3.893538001909414e7 -7.008666008318438e6 0.0
0.0 0.0 0.0

-4.7897002630730584e7 3.1541536208979506e7 0.0
3.1541536208979506e7 -1.6407463879019823e6 0.0
0.0 0.0 0.0

1.3479976921370605e7 4.889373497751412e7 0.0
4.889373497751412e7 -3.6546753045027265e6 0.0
0.0 0.0 0.0

-1.6490292812983269e7 2.796792665033019e7 0.0
2.796792665033019e7 -639773.8730576877 0.0
0.0 0.0 0.0

8.197648090602965e6 4.414480634283608e7 0.0
4.414480634283608e7 -2.3799728150376608e6 0.0
0.0 0.0 0.0

-1.0631251165269382e7 5.837804511232729e6 0.0
5.837804511232729e6 2.9073162293169737e7 0.0
0.0 0.0 0.0

2.0351319822716143e7 2.8385908799381796e7 0.0
2.8385908799381796e7 -1.4171510964570995e6 0.0
0.0 0.0 0.0

-4.746952900444983e6 3.851811394963159e7 0.0
3.851811394963159e7 3.9432905151122427e6 0.0
0.0 0.0 0.0

-6.069466859123274e6 2.516627175567987e7 0.0
2.516627175567987e7 1.09305768931113e6 0.0
0.0 0.0 0.0

-768544.2683387809 1.9857840761159938e7 0.0
1.9857840761159938e7 -2.780577620234806e7 0.0
0.0 0.0 0.0

-7.558731087873171e6 3.424142287287056e7 0.0
3.424142287287056e7 6.355581719973581e6 0.0
0.0 0.0 0.0

-8.77941814646104e6 2.1008106714307774e7 0.0
2.1008106714307774e7 -9.246234465142168e6 0.0
0.0 0.0 0.0

7.2625791758127175e6 4.3253566129498154e7 0.0
4.3253566129498154e7 -4.544145640874345e6 0.0
0.0 0.0 0.0

-1.801670021794767e7 3.822151455737869e7 0.0
3.822151455737869e7 6.5595239003366735e6 0.0
0.0 0.0 0.0

1.4274325569215132e7 2.872600994463294e7 0.0
2.872600994463294e7 -3.1471496638171617e6 0.0
0.0 0.0 0.0

3.0180027872215454e6 5.973679605980394e6 0.0
5.973679605980394e6 -2.085139806309195e7 0.0
0.0 0.0 0.0

-7.897819189476302e6 2.026199223429518e7 0.0
2.026199223429518e7 -4.212433724562894e7 0.0
0.0 0.0 0.0

2.8397121630695276e6 4.043714043156115e6 0.0
4.043714043156115e6 -1.7607678200430106e7 0.0
0.0 0.0 0.0

7.321279779723857e6 2.0228692937624287e7 0.0
2.0228692937624287e7 3.711490270513911e7 0.0
0.0 0.0 0.0

7.629829795823676e6 2.6438128851836875e7 0.0
2.6438128851836875e7 -3.470139442981723e6 0.0
0.0 0.0 0.0

1.3353156756189054e7 3.573439130712533e7 0.0
3.573439130712533e7 -5.610959880970162e6 0.0
0.0 0.0 0.0

-5.988010888693109e6 1.9594535242604293e7 0.0
1.9594535242604293e7 3.0919561914477993e7 0.0
0.0 0.0 0.0

-154987.47515544202 1.6339554286269156e7 0.0
1.6339554286269156e7 -9.29094142214668e6 0.0
0.0 0.0 0.0

2.1355125201573498e6 1.0247253899550444e7 0.0
1.0247253899550444e7 4.057619626272464e6 0.0
0.0 0.0 0.0

-1.5946538438792937e6 1.2220660948892241e7 0.0
1.2220660948892241e7 -7.156485646355163e7 0.0
0.0 0.0 0.0

3.025314817632743e6 1.843005399016494e7 0.0
1.843005399016494e7 8.623099732392132e6 0.0
0.0 0.0 0.0

-1.710139945905922e7 3.3808243858519666e7 0.0
3.3808243858519666e7 5.091998528355746e6 0.0
0.0 0.0 0.0

-1.7678952312308857e6 2.1549227765141096e7 0.0
2.1549227765141096e7 -1.5247160908517137e7 0.0
0.0 0.0 0.0

3.282690805352101e7 2.7951484403110456e7 0.0
2.7951484403110456e7 1.488736826388431e7 0.0
0.0 0.0 0.0

-9.04984099848299e6 8.371846430327076e6 0.0
8.371846430327076e6 3.8367250605423555e7 0.0
0.0 0.0 0.0

-3.815157520965726e7 3.5379545134976864e7 0.0
3.5379545134976864e7 -50840.24925394915 0.0
0.0 0.0 0.0

4.12252449256697e7 4.120123237461547e7 0.0
4.120123237461547e7 -8.698930678106353e6 0.0
0.0 0.0 0.0

-5.588907025053908e6 3.156324873846353e7 0.0
3.156324873846353e7 8.444579207205944e6 0.0
0.0 0.0 0.0

100983.79959443689 1.9565821192504052e7 0.0
1.9565821192504052e7 3.1904711789953993e6 0.0
0.0 0.0 0.0

-4.212789889307044e6 1.8452488096041415e7 0.0
1.8452488096041415e7 3.9562703405968845e7 0.0
0.0 0.0 0.0

-8.566671688971777e6 597002.951785468 0.0
597002.951785468 3.794954532494553e7 0.0
0.0 0.0 0.0

527521.8001666246 2.158579088885292e7 0.0
2.158579088885292e7 -1.861248553541683e7 0.0
0.0 0.0 0.0

-1.295126998299951e7 2.8809618707202956e7 0.0
2.8809618707202956e7 -1.4546114336607102e7 0.0
0.0 0.0 0.0

271909.20741533395 2.2060582816217456e7 0.0
2.2060582816217456e7 -1.202866213832019e7 0.0
0.0 0.0 0.0

-3.302703589698747e6 1.2970049867709288e7 0.0
1.2970049867709288e7 6.1021119904953346e7 0.0
0.0 0.0 0.0

-73771.73283113912 1.665197576695769e7 0.0
1.665197576695769e7 -3.3171273079564795e7 0.0
0.0 0.0 0.0

-1.2511733925057113e7 2.85447288527977e7 0.0
2.85447288527977e7 -1.4787741154033821e7 0.0
0.0 0.0 0.0

-938930.82259998 1.929769473241354e7 0.0
1.929769473241354e7 -2.77133444483155e7 0.0
0.0 0.0 0.0

3.372342009857781e7 2.7305857069001008e7 0.0
2.7305857069001008e7 1.6735992967671163e7 0.0
0.0 0.0 0.0

-5.142967492124524e6 1.1206652994729051e7 0.0
1.1206652994729051e7 5.6133522397906326e7 0.0
0.0 0.0 0.0

1.9468319082875375e6 2.4151411255865034e7 0.0
2.4151411255865034e7 -579079.301185132 0.0
0.0 0.0 0.0

-795788.607787325 2.341286110902199e7 0.0
2.341286110902199e7 2.2019793779001445e7 0.0
0.0 0.0 0.0

6.022696055236922e6 3.418662411757161e7 0.0
3.418662411757161e7 -5.502620977411537e6 0.0
0.0 0.0 0.0

1.9296282998517714e6 1.1140595964284893e7 0.0
1.1140595964284893e7 -3.406338413449076e7 0.0
0.0 0.0 0.0

1.7184899661705699e6 1.0425845494984992e7 0.0
1.0425845494984992e7 -1.3676326257690672e7 0.0
0.0 0.0 0.0

-1.6005244503066204e6 1.2824418456826435e7 0.0
1.2824418456826435e7 -6.187267991410899e7 0.0
0.0 0.0 0.0

-1.2567924509890834e7 2.6738966487304825e7 0.0
2.6738966487304825e7 -5.684850316418592e6 0.0
0.0 0.0 0.0

-6.681022921736859e6 1.1058282227843346e7 0.0
1.1058282227843346e7 5.0904280785109945e7 0.0
0.0 0.0 0.0

-1.1272612542051855e7 2.644270755159629e7 0.0
2.644270755159629e7 -1.0360468369620169e7 0.0
0.0 0.0 0.0

234728.5844341591 2.0818399615633957e7 0.0
2.0818399615633957e7 -1.250959980267344e7 0.0
0.0 0.0 0.0

-195345.04508707672 9.820981118646655e6 0.0
9.820981118646655e6 -5.402806489266204e7 0.0
0.0 0.0 0.0

-5.178755518704107e6 1.7181738003788617e7 0.0
1.7181738003788617e7 4.008609433100952e7 0.0
0.0 0.0 0.0

4.575823883904735e6 2.03278217016445e7 0.0
2.03278217016445e7 1.6517340972297143e7 0.0
0.0 0.0 0.0

-1.5436429556175917e6 1.4718650928925764e7 0.0
1.4718650928925764e7 -4.469758584275025e7 0.0
0.0 0.0 0.0

1.9842659592275247e6 2.46299841128402e6 0.0
2.46299841128402e6 -4.188424184349228e7 0.0
0.0 0.0 0.0

-2.9206163388001528e6 2.4331493766943097e7 0.0
2.4331493766943097e7 1.775154548963594e7 0.0
0.0 0.0 0.0

-1.0585501756899953e7 2.7139969399497874e7 0.0
2.7139969399497874e7 -1.413856471466865e7 0.0
0.0 0.0 0.0

1.0455143984304052e6 1.5148419585821033e7 0.0
1.5148419585821033e7 -1.5986395473701175e7 0.0
0.0 0.0 0.0

-7.741681501334358e6 4.385030301862627e6 0.0
4.385030301862627e6 4.642795901547576e7 0.0
0.0 0.0 0.0

-4.831976182655288e6 761914.1001532406 0.0
761914.1001532406 9.635830200748784e6 0.0
0.0 0.0 0.0

-4.675392257483289e6 2.2278761612880174e7 0.0
2.2278761612880174e7 2.149375933640416e7 0.0
0.0 0.0 0.0

3.587511413384845e7 3.067948787218169e7 0.0
3.067948787218169e7 2.142033696861227e7 0.0
0.0 0.0 0.0

2.7451625487261403e7 2.771705853330936e7 0.0
2.771705853330936e7 1.5953232011760429e7 0.0
0.0 0.0 0.0

-1.9934136666442253e7 2.7481095672141872e7 0.0
2.7481095672141872e7 -1.315622631900872e7 0.0
0.0 0.0 0.0

-5.125390409157324e6 1.904476168637639e7 0.0
1.904476168637639e7 -1.5059092373928962e7 0.0
0.0 0.0 0.0

-1.1727219825449757e7 2.775409401455885e7 0.0
2.775409401455885e7 -1.2016174831101906e7 0.0
0.0 0.0 0.0

-1.1403591829400461e7 2.5599477093121435e7 0.0
2.5599477093121435e7 -1.313171583407134e7 0.0
0.0 0.0 0.0

-1.396413344797641e6 1.3571534816890642e7 0.0
1.3571534816890642e7 -5.4734020129268035e7 0.0
0.0 0.0 0.0

-2.2222048976986087e6 4.344219075660532e6 0.0
4.344219075660532e6 -213245.2413943422 0.0
0.0 0.0 0.0

-1.4108799661288266e6 7.866790440449008e6 0.0
7.866790440449008e6 1.9163946037887163e6 0.0
0.0 0.0 0.0

1.584962035204921e6 1.9836015649496228e7 0.0
1.9836015649496228e7 2.3167493938015e6 0.0
0.0 0.0 0.0

2.4191363351419415e7 2.7771319503310077e7 0.0
2.7771319503310077e7 1.4418581927115731e7 0.0
0.0 0.0 0.0

1.8969508879779964e6 2.090338784102845e7 0.0
2.090338784102845e7 1.042157723350595e7 0.0
0.0 0.0 0.0

-3.5487815048398795e6 2.341886452671725e7 0.0
2.341886452671725e7 1.8417551128104277e7 0.0
0.0 0.0 0.0

-2.793446397550538e7 1.4928701814789766e7 0.0
1.4928701814789766e7 7.3318986988437455e6 0.0
0.0 0.0 0.0

3.622961457429893e6 2.039135169827775e7 0.0
2.039135169827775e7 1.2728525359819023e7 0.0
0.0 0.0 0.0

2.077400265544693e6 6.608169239114537e6 0.0
6.608169239114537e6 -2.1815271802737694e7 0.0
0.0 0.0 0.0

-1.6991294700739674e7 3.606191761410185e7 0.0
3.606191761410185e7 6.150680156992037e6 0.0
0.0 0.0 0.0

-7.268559976061959e6 2.214477545931867e6 0.0
2.214477545931867e6 4.905288835260277e7 0.0
0.0 0.0 0.0

-2.18375745452078e6 2.333689461779084e7 0.0
2.333689461779084e7 -1.1087907834437493e7 0.0
0.0 0.0 0.0

1.138318191270317e7 2.45835643279276e7 0.0
2.45835643279276e7 1.2956402146376938e7 0.0
0.0 0.0 0.0

-9.83281570864492e6 2.68013421952495e7 0.0
2.68013421952495e7 -1.4162996231124477e7 0.0
0.0 0.0 0.0

-4.376198298203085e6 1.8908578628099e7 0.0
1.8908578628099e7 -3.507159473580518e7 0.0
0.0 0.0 0.0

2.8665116313152865e7 2.923590865884133e7 0.0
2.923590865884133e7 1.933315296989415e7 0.0
0.0 0.0 0.0

-4.1229784212857047e6 2.1261360342444565e7 0.0
2.1261360342444565e7 -2.5060204025796406e7 0.0
0.0 0.0 0.0

2.687669203736772e6 2.156497293895105e7 0.0
2.156497293895105e7 1.4771930891886042e7 0.0
0.0 0.0 0.0

6.1346266653403845e6 2.4042574255764477e7 0.0
2.4042574255764477e7 1.7320609958217308e7 0.0
0.0 0.0 0.0

-2.6683427582198717e6 2.4087267685443882e7 0.0
2.4087267685443882e7 1.882341140759248e7 0.0
0.0 0.0 0.0

-2.4050654096907517e6 2.4252233823007677e7 0.0
2.4252233823007677e7 1.2724966484687997e7 0.0
0.0 0.0 0.0

1.6909990279732049e6 5.705526952888455e6 0.0
5.705526952888455e6 -4.004276590926948e7 0.0
0.0 0.0 0.0

1.9882020555241816e6 3.691735447208951e7 0.0
3.691735447208951e7 -2.3316272735105273e6 0.0
0.0 0.0 0.0

-7.4736277004936645e6 2.29291041377164e7 0.0
2.29291041377164e7 -1.9168794733826067e7 0.0
0.0 0.0 0.0

4.061222793677831e7 2.5886345663006566e7 0.0
2.5886345663006566e7 1.7047847783636104e7 0.0
0.0 0.0 0.0

-1.019027348999629e7 3.2913809554588027e7 0.0
3.2913809554588027e7 6.696174685071901e6 0.0
0.0 0.0 0.0

1.8370439449778777e6 4.658130098326676e6 0.0
4.658130098326676e6 -4.65778544352372e7 0.0
0.0 0.0 0.0

-2.0446181024299497e6 2.1464967171582557e7 0.0
2.1464967171582557e7 8.118176845643889e6 0.0
0.0 0.0 0.0

2.095540285019725e7 2.4909148542038687e7 0.0
2.4909148542038687e7 1.165959068952002e7 0.0
0.0 0.0 0.0

5.174311337684978e7 2.4169602570191227e7 0.0
2.4169602570191227e7 1.4514081366036536e7 0.0
0.0 0.0 0.0

-6.702314867091421e6 3.815634795239012e7 0.0
3.815634795239012e7 4.947315662719044e6 0.0
0.0 0.0 0.0

580144.6917675193 2.2449970298654698e7 0.0
2.2449970298654698e7 -2.0022823792457946e7 0.0
0.0 0.0 0.0

-9.456319223119907e6 1.3266583535031551e7 0.0
1.3266583535031551e7 2.429525451810029e7 0.0
0.0 0.0 0.0

-7.820135536636721e6 2.430168093028659e6 0.0
2.430168093028659e6 4.724519183132332e7 0.0
0.0 0.0 0.0

2.6752378805207745e6 2.064485893898906e7 0.0
2.064485893898906e7 8.809923215655051e6 0.0
0.0 0.0 0.0

1.6198619028199757e7 2.038780331640623e7 0.0
2.038780331640623e7 1.1113780782116324e7 0.0
0.0 0.0 0.0

-9.17367169581887e6 6.020837147679847e6 0.0
6.020837147679847e6 3.692841366792737e7 0.0
0.0 0.0 0.0

-3.0999517153684646e6 1.4720342413127616e7 0.0
1.4720342413127616e7 -1.0443847605067954e6 0.0
0.0 0.0 0.0

-4.912574718138743e6 2.325450827043822e7 0.0
2.325450827043822e7 -1.705794571532602e7 0.0
0.0 0.0 0.0

-5.68929188968881e6 1.9344682501850806e7 0.0
1.9344682501850806e7 -3.2690477281576265e7 0.0
0.0 0.0 0.0

778802.5318031315 3.605135771776094e7 0.0
3.605135771776094e7 -1.8531197304797722e6 0.0
0.0 0.0 0.0

7.115128218715212e6 3.4944558210069604e7 0.0
3.4944558210069604e7 -5.7612863284164425e6 0.0
0.0 0.0 0.0

6.639512660452308e6 4.751843892146154e7 0.0
4.751843892146154e7 -4.1018937999175466e6 0.0
0.0 0.0 0.0

-1.7623517865982864e7 4.4537743065948725e7 0.0
4.4537743065948725e7 6.854030425580999e6 0.0
0.0 0.0 0.0

1.0076535441833787e7 2.109427580283711e7 0.0
2.109427580283711e7 3.7276862840051666e7 0.0
0.0 0.0 0.0

-9.832533114521336e6 1.9439504124633417e7 0.0
1.9439504124633417e7 -9.060681949596925e7 0.0
0.0 0.0 0.0

-9.992335517566847e6 1.5853742358545063e6 0.0
1.5853742358545063e6 2.7070027506706957e7 0.0
0.0 0.0 0.0

-1.1917627000106575e7 1.779897428312978e7 0.0
1.779897428312978e7 -4.023388872432294e7 0.0
0.0 0.0 0.0

-5.449714016079519e6 1.7844747612510405e7 0.0
1.7844747612510405e7 -1.7477292404669125e7 0.0
0.0 0.0 0.0

8.23452947210368e6 2.152886376176573e7 0.0
2.152886376176573e7 3.571942549948637e7 0.0
0.0 0.0 0.0

-1.1565044758943398e7 2.0140811835827276e7 0.0
2.0140811835827276e7 -4.7610964598251484e7 0.0
0.0 0.0 0.0

-8.915441823491586e6 1.8439752136172686e7 0.0
1.8439752136172686e7 -3.3547343283576123e7 0.0
0.0 0.0 0.0

2.3653681840554304e7 2.7414217627592005e7 0.0
2.7414217627592005e7 1.2711368244986262e7 0.0
0.0 0.0 0.0

-6.573371978486761e6 2.34377462757757e7 0.0
2.34377462757757e7 -1.7032097927500743e7 0.0
0.0 0.0 0.0

1.6781531141024288e6 1.020579850229678e7 0.0
1.020579850229678e7 -3.854585410040046e7 0.0
0.0 0.0 0.0

1.705029943535954e6 2.082240004716213e7 0.0
2.082240004716213e7 4.832290240014644e6 0.0
0.0 0.0 0.0

-1.1423316056467898e7 2.759603451173981e7 0.0
2.759603451173981e7 -1.474975923481913e7 0.0
0.0 0.0 0.0

6.321367408669795e6 1.9749540654396247e7 0.0
1.9749540654396247e7 2.2587255806909826e7 0.0
0.0 0.0 0.0

2.884309266773102e6 4.0284108594478965e6 0.0
4.0284108594478965e6 -1.8119530400965758e7 0.0
0.0 0.0 0.0

-1.9289707484077152e6 3.1379517231297504e7 0.0
3.1379517231297504e7 698070.7983678412 0.0
0.0 0.0 0.0

-4.382220622805634e6 3.5926842617473215e7 0.0
3.5926842617473215e7 2.9025029649505154e6 0.0
0.0 0.0 0.0

-5.680788620670352e6 1.750461150433373e7 0.0
1.750461150433373e7 3.8810369625618786e7 0.0
0.0 0.0 0.0

2.465320915801251e6 2.241890296068947e7 0.0
2.241890296068947e7 1.0942600536504008e7 0.0
0.0 0.0 0.0

5.593358703106404e6 2.4283464359310094e7 0.0
2.4283464359310094e7 1.8235800731635746e7 0.0
0.0 0.0 0.0

-4.663467902743443e6 4.0662390655500405e7 0.0
4.0662390655500405e7 3.280875907940378e6 0.0
0.0 0.0 0.0

-3.1974116548501924e6 2.318114726919876e7 0.0
2.318114726919876e7 1.9161418531715967e7 0.0
0.0 0.0 0.0

-9.189690557623476e6 49929.42359133706 0.0
49929.42359133706 3.1094784767697636e7 0.0
0.0 0.0 0.0

-3.842144624996261e6 3.5637265804969735e7 0.0
3.5637265804969735e7 4.469527455151896e6 0.0
0.0 0.0 0.0

123798.2001893007 3.047692537937132e7 0.0
3.047692537937132e7 -2.6686259520674115e6 0.0
0.0 0.0 0.0

-2.6147025848751883e6 2.3570951244259644e7 0.0
2.3570951244259644e7 3.7477244770689877e6 0.0
0.0 0.0 0.0

1.692281812336206e6 3.650575303051075e7 0.0
3.650575303051075e7 -2.4455579876833083e6 0.0
0.0 0.0 0.0

1.608414470517775e6 3.566484140534956e7 0.0
3.566484140534956e7 -1.947143784389379e6 0.0
0.0 0.0 0.0

-2.58237483847164e6 2.2572283280836504e7 0.0
2.2572283280836504e7 -1.2222382689292789e7 0.0
0.0 0.0 0.0

4.526907775081942e6 2.25398948990008e7 0.0
2.25398948990008e7 1.5089693046479722e7 0.0
0.0 0.0 0.0

1.3608463669761587e6 9.976405218948355e6 0.0
9.976405218948355e6 -3.598481806893451e7 0.0
0.0 0.0 0.0

-1.5638390874162134e7 1.8613984570077047e7 0.0
1.8613984570077047e7 -5.7654886333496206e7 0.0
0.0 0.0 0.0

-5.434950791834569e6 2.5582924937363166e7 0.0
2.5582924937363166e7 3.855638786991753e6 0.0
0.0 0.0 0.0

-4.452699740753084e7 3.81355529391898e7 0.0
3.81355529391898e7 -1.787476605077603e7 0.0
0.0 0.0 0.0

-9.175789853355357e6 1.9811012145439915e7 0.0
1.9811012145439915e7 -3.177492894224701e7 0.0
0.0 0.0 0.0

-4.9620175312716424e7 3.752994108567155e7 0.0
3.752994108567155e7 -1.0411261930777915e7 0.0
0.0 0.0 0.0

-3.6033699979700204e6 2.604677923138927e7 0.0
2.604677923138927e7 1.3238068874288222e7 0.0
0.0 0.0 0.0

-6.623964493911967e6 948413.3875155393 0.0
948413.3875155393 5.4407488946437925e7 0.0
0.0 0.0 0.0

5.086329606237294e6 3.399488050561093e7 0.0
3.399488050561093e7 -5.466946741752821e6 0.0
0.0 0.0 0.0

-2.022773628743745e7 2.9939618115041316e7 0.0
2.9939618115041316e7 -1.3797450968619222e7 0.0
0.0 0.0 0.0

596943.6072843196 2.321689831341729e7 0.0
2.321689831341729e7 -1.806282073513513e7 0.0
0.0 0.0 0.0

-1.4068566134806987e7 3.613249418692671e7 0.0
3.613249418692671e7 5.921013803416324e6 0.0
0.0 0.0 0.0

-1.0273758560882984e7 9.633924702825006e6 0.0
9.633924702825006e6 2.8956423766782545e7 0.0
0.0 0.0 0.0

508594.0035966225 1.1288794903464321e7 0.0
1.1288794903464321e7 -4.560301631753775e7 0.0
0.0 0.0 0.0

-1.806671041612459e7 3.5622878396721125e7 0.0
3.5622878396721125e7 5.455011199781666e6 0.0
0.0 0.0 0.0

1.9724771791838324e6 2.1620121888389178e7 0.0
2.1620121888389178e7 7.21575412160782e6 0.0
0.0 0.0 0.0

-1.0863756548768913e7 1.1978521353257403e7 0.0
1.1978521353257403e7 2.268476631914108e7 0.0
0.0 0.0 0.0

-502681.39744914323 2.117231890865962e7 0.0
2.117231890865962e7 -1.3103939594849985e7 0.0
0.0 0.0 0.0

4.867724260127038e6 3.2161666448690537e7 0.0
3.2161666448690537e7 -6.307299765918851e6 0.0
0.0 0.0 0.0

-2.9927094491185293e7 1.5498275972341273e7 0.0
1.5498275972341273e7 7.028525488377046e6 0.0
0.0 0.0 0.0

-7.478083247929289e6 3.332184298016886e7 0.0
3.332184298016886e7 7.149698880264431e6 0.0
0.0 0.0 0.0

-451961.80549377576 2.2069781939823683e7 0.0
2.2069781939823683e7 -2.151110208612875e7 0.0
0.0 0.0 0.0

1.564422358563479e6 1.0276543474286309e7 0.0
1.0276543474286309e7 -3.1700555185673147e7 0.0
0.0 0.0 0.0

-646860.643240558 5.219978956005152e6 0.0
5.219978956005152e6 -3.698072519155817e6 0.0
0.0 0.0 0.0

927896.1489904672 1.96442074952934e7 0.0
1.96442074952934e7 -2.3697843444966868e7 0.0
0.0 0.0 0.0

-2.7132206462589e7 2.9714095798921943e7 0.0
2.9714095798921943e7 -6.521995832908468e6 0.0
0.0 0.0 0.0

9.782269604905345e6 4.721523309404195e7 0.0
4.721523309404195e7 -3.1532834677917375e6 0.0
0.0 0.0 0.0

3.543108489520464e6 2.056645300456619e7 0.0
2.056645300456619e7 4.074177686086604e7 0.0
0.0 0.0 0.0

3.769436494458128e6 2.2792654393529117e7 0.0
2.2792654393529117e7 1.3445086103723185e7 0.0
0.0 0.0 0.0

1.0494955759919167e7 1.865812378763471e7 0.0
1.865812378763471e7 3.6600198541397214e7 0.0
0.0 0.0 0.0

-4.688020636438196e6 2.227363162923543e7 0.0
2.227363162923543e7 -1.5626735860086685e7 0.0
0.0 0.0 0.0

-5.785920660222296e6 1.7073975672443405e7 0.0
1.7073975672443405e7 4.0039332203000665e7 0.0
0.0 0.0 0.0

-4.057048487765611e6 2.0504831316121507e7 0.0
2.0504831316121507e7 -1.68297638493657e7 0.0
0.0 0.0 0.0

-3.1077584458376512e7 3.985998674727202e7 0.0
3.985998674727202e7 7.114609071757892e6 0.0
0.0 0.0 0.0

-8.099437390770014e6 5.876965903908417e6 0.0
5.876965903908417e6 4.4050004289075464e7 0.0
0.0 0.0 0.0

-6.51260735919651e6 885882.934689719 0.0
885882.934689719 5.509781777781683e7 0.0
0.0 0.0 0.0

386324.37866954785 1.4930031258521482e7 0.0
1.4930031258521482e7 -1.8309359752038263e7 0.0
0.0 0.0 0.0

2.7461526340431673e6 4.756213302629264e6 0.0
4.756213302629264e6 -385280.3081626905 0.0
0.0 0.0 0.0

-728868.8883764632 1.0892218844801065e7 0.0
1.0892218844801065e7 -5.752552665511984e7 0.0
0.0 0.0 0.0

-5.525951997268649e6 1.443147689857296e7 0.0
1.443147689857296e7 4.811415907812009e7 0.0
0.0 0.0 0.0

-804497.8797968589 1.3823629190215332e7 0.0
1.3823629190215332e7 -4.426960348539089e7 0.0
0.0 0.0 0.0

-8.466891295113739e6 1.903236704799672e6 0.0
1.903236704799672e6 3.636117630258945e7 0.0
0.0 0.0 0.0

-3.2925048472070144e6 3.247824183544848e7 0.0
3.247824183544848e7 3.6126190694252755e6 0.0
0.0 0.0 0.0

5.917207613648493e6 3.2805293613329496e7 0.0
3.2805293613329496e7 -6.160214315389034e6 0.0
0.0 0.0 0.0

-4.356603577445744e6 3.807076128641621e7 0.0
3.807076128641621e7 2.1241570204475657e6 0.0
0.0 0.0 0.0

5.854853464548761e6 4.574730771991081e7 0.0
4.574730771991081e7 -2.4510772928365343e6 0.0
0.0 0.0 0.0

2.64314443507348e6 4.089106987897883e7 0.0
4.089106987897883e7 -2.815329074305836e6 0.0
0.0 0.0 0.0

-7.835979499942109e6 2.3759847653258815e6 0.0
2.3759847653258815e6 4.5397364589405045e7 0.0
0.0 0.0 0.0

1.3067445119829215e6 5.095919395357755e6 0.0
5.095919395357755e6 -5.0023085155296065e7 0.0
0.0 0.0 0.0

1.0990906045241076e6 2.4260985053151917e7 0.0
2.4260985053151917e7 -1.2882002403435659e7 0.0
0.0 0.0 0.0

1.0567450730964113e6 2.6015896323592763e7 0.0
2.6015896323592763e7 -1.020898565496637e7 0.0
0.0 0.0 0.0

1.660427929300433e6 1.34497290794463e7 0.0
1.34497290794463e7 -2.6017688130458325e7 0.0
0.0 0.0 0.0

-8.135287037258473e6 1.761882746480353e7 0.0
1.761882746480353e7 -2.6075427906572267e7 0.0
0.0 0.0 0.0

1.967109078767531e6 1.9722809023266442e7 0.0
1.9722809023266442e7 6.557030132981532e6 0.0
0.0 0.0 0.0

-3.4868674854439497e6 2.8164985070460957e7 0.0
2.8164985070460957e7 9.995136727333272e6 0.0
0.0 0.0 0.0

-1.1047911471738603e7 3.423047691087398e7 0.0
3.423047691087398e7 6.28273787506435e6 0.0
0.0 0.0 0.0

-3.0165884302790985e6 2.0593317922601495e7 0.0
2.0593317922601495e7 -9.196465173997372e6 0.0
0.0 0.0 0.0

-1.4775239625985217e6 1.4763376303492608e7 0.0
1.4763376303492608e7 -1.7760483554227625e6 0.0
0.0 0.0 0.0

2.086527533519812e6 3.163258691018664e6 0.0
3.163258691018664e6 -3.997928504654304e7 0.0
0.0 0.0 0.0

3.689207766222582e6 2.3954167519318536e7 0.0
2.3954167519318536e7 -6.22094413941225e6 0.0
0.0 0.0 0.0

1.3464282650167774e6 1.074074646620629e7 0.0
1.074074646620629e7 -3.4115821878052e7 0.0
0.0 0.0 0.0

-4.4400902007251475e6 9.67833189406606e6 0.0
9.67833189406606e6 2.6964792144546593e6 0.0
0.0 0.0 0.0

-2.0531214394043488e6 1.3186312148519138e7 0.0
1.3186312148519138e7 -4.912151866953006e6 0.0
0.0 0.0 0.0

-4.890198501836274e6 2.920268253545451e6 0.0
2.920268253545451e6 4.084667507993905e6 0.0
0.0 0.0 0.0

-1.8690675782186151e6 2.9414102458887037e7 0.0
2.9414102458887037e7 4.30112668830251e6 0.0
0.0 0.0 0.0

-503588.2271315316 2.0344715544241477e7 0.0
2.0344715544241477e7 -2.5525607805500522e7 0.0
0.0 0.0 0.0

-1.658775699287489e6 1.0485535429803558e7 0.0
1.0485535429803558e7 -6.662447116946553e7 0.0
0.0 0.0 0.0

-9.793941409508802e6 2.568394248056518e7 0.0
2.568394248056518e7 -8.097783778940186e6 0.0
0.0 0.0 0.0

-3.3172107761024877e7 3.4317936524128735e7 0.0
3.4317936524128735e7 -1.692732730689351e7 0.0
0.0 0.0 0.0

-2.2845955237535097e7 3.457575192076226e7 0.0
3.457575192076226e7 4.462219158808098e6 0.0
0.0 0.0 0.0

-1.4073602529547386e7 2.8774320850531213e7 0.0
2.8774320850531213e7 -1.4040384906504992e7 0.0
0.0 0.0 0.0

-6.422503645725227e6 1.8102901652554892e7 0.0
1.8102901652554892e7 -4.459699070931741e7 0.0
0.0 0.0 0.0

-9.97893485800509e6 1.9008134367219068e7 0.0
1.9008134367219068e7 -3.3263117197800696e7 0.0
0.0 0.0 0.0

-2.597879706428532e7 3.1562809342804916e7 0.0
3.1562809342804916e7 -1.4502058807188338e7 0.0
0.0 0.0 0.0

-1.4527708250251457e7 1.9636340769850455e7 0.0
1.9636340769850455e7 -4.842569529132925e7 0.0
0.0 0.0 0.0

-4.658747995776206e6 2.17661793089679e7 0.0
2.17661793089679e7 2.5546193721294828e7 0.0
0.0 0.0 0.0

-1.0343136201538334e7 2.446782822629868e6 0.0
2.446782822629868e6 2.495933872479645e7 0.0
0.0 0.0 0.0

165598.5386094381 3.0060323369281027e7 0.0
3.0060323369281027e7 -4.480889001417936e6 0.0
0.0 0.0 0.0

-3.497888666000615e6 2.4946524333956376e7 0.0
2.4946524333956376e7 1.5780093377847474e7 0.0
0.0 0.0 0.0

-9.459783651515026e6 1.2824372923363084e6 0.0
1.2824372923363084e6 3.1836733623392276e7 0.0
0.0 0.0 0.0

262542.5976963006 1.633396680751137e7 0.0
1.633396680751137e7 -3.2726438958416324e7 0.0
0.0 0.0 0.0

-1.645242977901059e6 3.0793410988627058e7 0.0
3.0793410988627058e7 -397958.41836684284 0.0
0.0 0.0 0.0

655489.0223825268 2.050699677423673e7 0.0
2.050699677423673e7 -1.856408939456296e6 0.0
0.0 0.0 0.0

-4.787546455620222e6 3.1627382916822597e7 0.0
3.1627382916822597e7 6.852861248964859e6 0.0
0.0 0.0 0.0

-2.38692549832323e7 3.195026282727731e7 0.0
3.195026282727731e7 -1.5828617438133348e7 0.0
0.0 0.0 0.0

-1.1326537848472625e7 1.9235362664651204e7 0.0
1.9235362664651204e7 -3.775512643637553e7 0.0
0.0 0.0 0.0

5.980514118370414e6 2.3565373747347444e7 0.0
2.3565373747347444e7 1.9589155738715548e7 0.0
0.0 0.0 0.0

-3.4864548157703936e7 3.5058423510545745e7 0.0
3.5058423510545745e7 2.8314777705516163e6 0.0
0.0 0.0 0.0

-9.547024874515217e6 1.2199020542403111e7 0.0
1.2199020542403111e7 2.349102518151281e7 0.0
0.0 0.0 0.0

-5.049013990840483e6 1.1665632733186003e7 0.0
1.1665632733186003e7 5.937138191484246e7 0.0
0.0 0.0 0.0

-2.971719540275325e6 2.2643994498148702e7 0.0
2.2643994498148702e7 -1.2206830057440732e7 0.0
0.0 0.0 0.0

5.053573398357821e6 4.0583579786235996e7 0.0
4.0583579786235996e7 -3.856094526251885e6 0.0
0.0 0.0 0.0

1.03048755027602e7 1.987003771714654e7 0.0
1.987003771714654e7 3.43495852637008e7 0.0
0.0 0.0 0.0

3.0856207797720235e7 2.3722398448832545e7 0.0
2.3722398448832545e7 6.707341173798407e6 0.0
0.0 0.0 0.0

-1.857202427625649e7 3.0180485479718234e7 0.0
3.0180485479718234e7 -1.492627820079741e7 0.0
0.0 0.0 0.0

7.360069996893844e6 3.740485087840542e7 0.0
3.740485087840542e7 -5.294702550066863e6 0.0
0.0 0.0 0.0

1.4094112088118456e7 1.9514420273044053e7 0.0
1.9514420273044053e7 5.258111313331087e7 0.0
0.0 0.0 0.0

864575.9627462663 7.526703229896343e6 0.0
7.526703229896343e6 -6.451857860110076e7 0.0
0.0 0.0 0.0

-7.039998182926124e6 3.2183267528615043e7 0.0
3.2183267528615043e7 7.858712940084184e6 0.0
0.0 0.0 0.0

1.0087873786712168e6 1.899805551600756e7 0.0
1.899805551600756e7 464279.1967199771 0.0
0.0 0.0 0.0

-1.6401013974484166e7 2.0308465133199066e7 0.0
2.0308465133199066e7 -5.467004820766143e7 0.0
0.0 0.0 0.0

-7.842963652918042e6 2.6101014048842814e7 0.0
2.6101014048842814e7 -3.0185796138113504e6 0.0
0.0 0.0 0.0

1.6460614920249842e6 3.0755429723557984e6 0.0
3.0755429723557984e6 -5.542126951777657e7 0.0
0.0 0.0 0.0

-176017.43727041315 2.45052232841896e7 0.0
2.45052232841896e7 -1.0697946993109548e7 0.0
0.0 0.0 0.0

5.827625928703113e6 2.7292785721662484e7 0.0
2.7292785721662484e7 -8.426891762904104e6 0.0
0.0 0.0 0.0

3.0377226880391758e7 2.8275110289112393e7 0.0
2.8275110289112393e7 3.3677196988285426e6 0.0
0.0 0.0 0.0

-5.732099133081369e6 2.019981571988746e7 0.0
2.019981571988746e7 2.6327794692897387e7 0.0
0.0 0.0 0.0

-2.593653018109671e6 1.70939168925406e7 0.0
1.70939168925406e7 -1.0426833069440389e7 0.0
0.0 0.0 0.0

-1.1760295355660561e7 2.70572460914622e7 0.0
2.70572460914622e7 -1.4110860287889266e7 0.0
0.0 0.0 0.0

-270252.4127228275 3.031604414454037e7 0.0
3.031604414454037e7 -3.954487350466091e6 0.0
0.0 0.0 0.0

-6.17455141004746e6 3.640387490309337e6 0.0
3.640387490309337e6 5.8389235764848046e7 0.0
0.0 0.0 0.0

-2.46318361098838e6 2.066945693765058e7 0.0
2.066945693765058e7 -1.099786926888951e7 0.0
0.0 0.0 0.0

-1.2555212111689206e7 3.462901135589389e7 0.0
3.462901135589389e7 6.267947192468675e6 0.0
0.0 0.0 0.0

969427.9023954356 9.504600171027916e6 0.0
9.504600171027916e6 -1.5067745585014695e7 0.0
0.0 0.0 0.0

1.3209836128580384e7 2.3469945344444554e7 0.0
2.3469945344444554e7 1.4255702300028034e7 0.0
0.0 0.0 0.0

-5.370568964799222e7 3.738709288804298e7 0.0
3.738709288804298e7 2.403668047931105e6 0.0
0.0 0.0 0.0

3.95785088158286e6 1.829973393928148e7 0.0
1.829973393928148e7 1.2580381148994906e7 0.0
0.0 0.0 0.0

2.8052165942634083e6 7.574537679603606e6 0.0
7.574537679603606e6 -2.030073491370292e7 0.0
0.0 0.0 0.0

6.1468959998707855e6 2.240904779082196e7 0.0
2.240904779082196e7 2.3106400408721335e7 0.0
0.0 0.0 0.0

2.91574483974248e6 2.959160974451805e7 0.0
2.959160974451805e7 -8.029168861985559e6 0.0
0.0 0.0 0.0

2.717427369193594e7 3.8108353896701574e7 0.0
3.8108353896701574e7 -6.011736774855914e6 0.0
0.0 0.0 0.0

-4.554058701820994e6 1.915977296426486e7 0.0
1.915977296426486e7 -1.5180195936225852e7 0.0
0.0 0.0 0.0

-2.4659371318795485e6 1.9375573268504877e7 0.0
1.9375573268504877e7 1.0444438054811653e7 0.0
0.0 0.0 0.0

396402.91251375154 9.657492820413072e6 0.0
9.657492820413072e6 -1.252215528970479e7 0.0
0.0 0.0 0.0

-6.413747932560839e6 2.0914939333092943e7 0.0
2.0914939333092943e7 -3.0690031632335313e7 0.0
0.0 0.0 0.0

840114.1488881023 2.4898398082184963e7 0.0
2.4898398082184963e7 -1.1065850625125604e7 0.0
0.0 0.0 0.0

2.2459813353182286e7 2.819035841600162e7 0.0
2.819035841600162e7 1.68217774356371e7 0.0
0.0 0.0 0.0

-9.080215139542706e6 2.6031992709823992e7 0.0
2.6031992709823992e7 -1.4660375931252955e7 0.0
0.0 0.0 0.0

5.094168137856256e6 2.706629086530046e7 0.0
2.706629086530046e7 -7.68669114158331e6 0.0
0.0 0.0 0.0

-8.001245689627294e6 5.012635452828763e6 0.0
5.012635452828763e6 1.1555162612712838e7 0.0
0.0 0.0 0.0

308165.97347944346 8.190121558528667e6 0.0
8.190121558528667e6 -3.5963619782890095e6 0.0
0.0 0.0 0.0

1.3746775869324334e7 2.651209389551573e7 0.0
2.651209389551573e7 -783653.3366959244 0.0
0.0 0.0 0.0

3.409754162718833e6 1.9435698203333028e7 0.0
1.9435698203333028e7 1.049929428893197e7 0.0
0.0 0.0 0.0

7.023321101002891e7 2.830568252769165e7 0.0
2.830568252769165e7 2.0418089335151304e7 0.0
0.0 0.0 0.0

-9.074347508914195e6 1.3676195741242252e6 0.0
1.3676195741242252e6 3.5453489529772304e7 0.0
0.0 0.0 0.0

-2.2744769397504304e7 2.982397349531761e7 0.0
2.982397349531761e7 -1.1058117418338586e7 0.0
0.0 0.0 0.0

-1.7548652062469643e7 2.708101737233205e7 0.0
2.708101737233205e7 -9.004089799233828e6 0.0
0.0 0.0 0.0

-4.190290346213268e7 3.1571755349061046e7 0.0
3.1571755349061046e7 -1.6922507555857126e7 0.0
0.0 0.0 0.0

4.655715632624829e7 6.555231492156609e6 0.0
6.555231492156609e6 -1.1039559407809079e6 0.0
0.0 0.0 0.0

-3.841718383691974e6 1.0408627875469776e7 0.0
1.0408627875469776e7 6.832797029615435e7 0.0
0.0 0.0 0.0

-1.7502711101565564e6 1.4026383518942881e7 0.0
1.4026383518942881e7 88460.04313650168 0.0
0.0 0.0 0.0

-2.1857481168170117e7 2.899438403618173e7 0.0
2.899438403618173e7 -1.5146162326538563e7 0.0
0.0 0.0 0.0

-4.929198910635006e6 3.1757931235954046e7 0.0
3.1757931235954046e7 8.070942148426351e6 0.0
0.0 0.0 0.0

250146.87204136048 2.4388512520955082e7 0.0
2.4388512520955082e7 -1.2737498797209356e7 0.0
0.0 0.0 0.0

833974.584094231 1.591915319471478e7 0.0
1.591915319471478e7 -1.9632324735914446e7 0.0
0.0 0.0 0.0

-200730.09582347656 2.052746481085462e7 0.0
2.052746481085462e7 -7.347844880595833e6 0.0
0.0 0.0 0.0

-1.0009916149107376e7 1.7551829408435155e7 0.0
1.7551829408435155e7 -3.5334079988534644e7 0.0
0.0 0.0 0.0

-1.267517554041161e7 2.071456142266672e7 0.0
2.071456142266672e7 -7.749035052060507e7 0.0
0.0 0.0 0.0

1.745175814969354e7 5.957701339040606e6 0.0
5.957701339040606e6 -2.165799648824214e6 0.0
0.0 0.0 0.0

1.3392505552921887e7 3.8388461407968365e7 0.0
3.8388461407968365e7 -5.816891843357613e6 0.0
0.0 0.0 0.0

-7.274015109271555e6 1.908018308516027e7 0.0
1.908018308516027e7 -2.4246717782702576e7 0.0
0.0 0.0 0.0

2.3188770219959635e7 1.9775280222035665e7 0.0
1.9775280222035665e7 5.218455819990402e6 0.0
0.0 0.0 0.0

-662564.0593641028 2.1875047839299127e7 0.0
2.1875047839299127e7 -8.234966352395812e6 0.0
0.0 0.0 0.0

296479.9991319687 2.949199991044832e7 0.0
2.949199991044832e7 -4.1287229849641854e6 0.0
0.0 0.0 0.0

-5.806799286285214e6 2.069269873958873e7 0.0
2.069269873958873e7 -2.0084520406714585e7 0.0
0.0 0.0 0.0

-2.3030893466991816e7 2.261856599819945e7 0.0
2.261856599819945e7 263366.00688138977 0.0
0.0 0.0 0.0

-9.102273458649457e6 -1.7211629974648184e6 0.0
-1.7211629974648184e6 2.0441176197054442e7 0.0
0.0 0.0 0.0

-4.536942239264118e6 2.1274203665791575e7 0.0
2.1274203665791575e7 2.5150714777490083e7 0.0
0.0 0.0 0.0

-380571.12310631236 2.046734014881288e7 0.0
2.046734014881288e7 2.689545035254586e6 0.0
0.0 0.0 0.0

-7.813928101825835e6 2.078235027421372e7 0.0
2.078235027421372e7 -2.1794330774642278e7 0.0
0.0 0.0 0.0

-377168.48638395313 2.1795199266937017e7 0.0
2.1795199266937017e7 -8.659634145903267e6 0.0
0.0 0.0 0.0

-2.766580190668417e6 1.5388606507223977e7 0.0
1.5388606507223977e7 -2.801293703734684e6 0.0
0.0 0.0 0.0

3.528725267332243e7 2.7736278016369235e7 0.0
2.7736278016369235e7 2.3052983898569476e6 0.0
0.0 0.0 0.0

-1.302685061909555e7 3.838210407707548e7 0.0
3.838210407707548e7 6.261864757221504e6 0.0
0.0 0.0 0.0

9.323486658889327e6 2.8253033615896042e7 0.0
2.8253033615896042e7 -5.557882656331932e6 0.0
0.0 0.0 0.0

-6.411667756686468e6 2.468789462920023e7 0.0
2.468789462920023e7 -4.865612451934296e6 0.0
0.0 0.0 0.0

-3.0687399825621936e6 3.8542032398475446e7 0.0
3.8542032398475446e7 2.8620195227427026e6 0.0
0.0 0.0 0.0

-4.37526487851409e6 2.2818270820729394e7 0.0
2.2818270820729394e7 2.1530402525760464e7 0.0
0.0 0.0 0.0

1.0221734223215473e6 8.854442262323098e6 0.0
8.854442262323098e6 -9.40562198080972e6 0.0
0.0 0.0 0.0

-2.399942236454552e6 8.697140826129422e6 0.0
8.697140826129422e6 4.276065678736851e6 0.0
0.0 0.0 0.0

-1.3911546117479615e7 1.813414867878778e7 0.0
1.813414867878778e7 -5.135847804955762e7 0.0
0.0 0.0 0.0

-3.597072957906756e6 2.4741331435966678e7 0.0
2.4741331435966678e7 6.953572719546901e6 0.0
0.0 0.0 0.0

1.3199700793103105e6 5.661366786175838e6 0.0
5.661366786175838e6 -9.506544270179078e6 0.0
0.0 0.0 0.0

-6.564515043049911e7 3.887465622146542e7 0.0
3.887465622146542e7 -1.1807749030862605e7 0.0
0.0 0.0 0.0

-1.9463124405605346e6 9.788478555543657e6 0.0
9.788478555543657e6 -7.731764651745793e7 0.0
0.0 0.0 0.0

-1.9672250253323708e6 1.1646385136683267e7 0.0
1.1646385136683267e7 -4.913560432098899e6 0.0
0.0 0.0 0.0

-1.272183716325334e7 1.903806207369802e7 0.0
1.903806207369802e7 -5.46095481764192e7 0.0
0.0 0.0 0.0

1.6136503463733774e6 4.714748615884908e6 0.0
4.714748615884908e6 -4.887976588241658e7 0.0
0.0 0.0 0.0

3.3122449234437667e7 4.331347822266535e7 0.0
4.331347822266535e7 -8.61512671952803e6 0.0
0.0 0.0 0.0

2.1034732437746953e6 1.1108204026743073e7 0.0
1.1108204026743073e7 -3.189803367770204e7 0.0
0.0 0.0 0.0

-3.2173369263818115e6 1.5173898858580917e7 0.0
1.5173898858580917e7 5.5335975705147326e7 0.0
0.0 0.0 0.0

-5.49079589824472e6 2.036763207343756e7 0.0
2.036763207343756e7 2.68220921229422e7 0.0
0.0 0.0 0.0

-3.962673553673818e6 2.6966676869894665e7 0.0
2.6966676869894665e7 1.2461601478193773e7 0.0
0.0 0.0 0.0

-1.0302428600862825e7 2.4723929666921835e7 0.0
2.4723929666921835e7 -1.271839691969045e7 0.0
0.0 0.0 0.0

-4.593844476931334e6 2.1140208726496976e7 0.0
2.1140208726496976e7 2.7549912986920625e7 0.0
0.0 0.0 0.0

-2.344952336549851e6 2.946327501044511e7 0.0
2.946327501044511e7 2.478056885242102e6 0.0
0.0 0.0 0.0

1.4960039414151227e7 2.115796473106241e7 0.0
2.115796473106241e7 4.986679983372084e7 0.0
0.0 0.0 0.0

-1.0377416416730426e7 1.6919863732569562e6 0.0
1.6919863732569562e6 2.164868145534544e7 0.0
0.0 0.0 0.0

1.4859408546842327e6 2.382024848845769e7 0.0
2.382024848845769e7 -1.603466379976014e7 0.0
0.0 0.0 0.0

-5.05009836468165e6 1.4085517533169182e7 0.0
1.4085517533169182e7 -8.674688323432736e7 0.0
0.0 0.0 0.0

-1.1501354329178762e7 4.072902905675543e7 0.0
4.072902905675543e7 6.166944402733691e6 0.0
0.0 0.0 0.0

5.630296401739143e6 3.1674598788471494e7 0.0
3.1674598788471494e7 -7.169640679538486e6 0.0
0.0 0.0 0.0

4.50372140700951e6 2.451350272952579e7 0.0
2.451350272952579e7 3.7349899656687016e6 0.0
0.0 0.0 0.0

-5.384427075927747e6 2.029502860443963e7 0.0
2.029502860443963e7 2.8521367898512505e7 0.0
0.0 0.0 0.0

-2.476232816146923e7 4.079002257803928e7 0.0
4.079002257803928e7 6.982698864581214e6 0.0
0.0 0.0 0.0

2.698482451025817e6 2.6929378140014816e7 0.0
2.6929378140014816e7 -1.1244104071837308e7 0.0
0.0 0.0 0.0

-6.585946121387054e6 1.8866636470525358e7 0.0
1.8866636470525358e7 -3.9970802462713294e7 0.0
0.0 0.0 0.0

-1.9455077218420435e7 4.403743594522914e7 0.0
4.403743594522914e7 6.171792244154594e6 0.0
0.0 0.0 0.0

4.5611801758352175e7 4.006959623815282e7 0.0
4.006959623815282e7 -8.909773248446085e6 0.0
0.0 0.0 0.0

3.5926631322884653e6 2.3307217495978795e7 0.0
2.3307217495978795e7 5.089911589955117e6 0.0
0.0 0.0 0.0

1.4987531021226346e6 1.3295306359868804e7 0.0
1.3295306359868804e7 -2.815781319617792e7 0.0
0.0 0.0 0.0

-1.5529263857498735e7 2.126243025886954e7 0.0
2.126243025886954e7 -5.956091120005242e7 0.0
0.0 0.0 0.0

2.1970408124622196e7 3.831223672682805e7 0.0
3.831223672682805e7 -6.100101896632204e6 0.0
0.0 0.0 0.0

-786808.4250968928 2.2166823958051022e7 0.0
2.2166823958051022e7 -1.6844687892888006e7 0.0
0.0 0.0 0.0

1.6962812747167086e6 3.487969736936226e7 0.0
3.487969736936226e7 -3.6898460261750277e6 0.0
0.0 0.0 0.0

-3.7207146188939586e6 1.2999435016352901e7 0.0
1.2999435016352901e7 -7.27545872718767e7 0.0
0.0 0.0 0.0

1.9159778393993385e6 2.2119429389357068e7 0.0
2.2119429389357068e7 1.0044314404080924e7 0.0
0.0 0.0 0.0

-2.903003661321731e7 3.665532204078989e7 0.0
3.665532204078989e7 5.787441709301956e6 0.0
0.0 0.0 0.0

-1.6730768310046024e6 3.0027559092580236e7 0.0
3.0027559092580236e7 3.2891591980449166e6 0.0
0.0 0.0 0.0

3.1742977314604573e7 2.4740594728625912e7 0.0
2.4740594728625912e7 1.3084096205583192e7 0.0
0.0 0.0 0.0

-4.151226973520174e6 3.965415453349585e7 0.0
3.965415453349585e7 1.476447103050999e6 0.0
0.0 0.0 0.0

4.60724145939463e6 2.1863310855198722e7 0.0
2.1863310855198722e7 1.6410914110382225e7 0.0
0.0 0.0 0.0

-2.9672244997444698e6 2.975114838641814e6 0.0
2.975114838641814e6 1.4285721383168576e6 0.0
0.0 0.0 0.0

1.3926889412518486e7 4.093278309145112e7 0.0
4.093278309145112e7 -4.996355820531762e6 0.0
0.0 0.0 0.0

-394800.8078846866 2.1276064226477463e7 0.0
2.1276064226477463e7 -2.362887361210869e7 0.0
0.0 0.0 0.0

1.4076177373612486e6 3.852733715612874e6 0.0
3.852733715612874e6 -6.129587591720749e7 0.0
0.0 0.0 0.0

-587858.604205858 1.2750911557416962e7 0.0
1.2750911557416962e7 -7.875677664469166e6 0.0
0.0 0.0 0.0

1.5018769513874538e6 7.170844641009097e6 0.0
7.170844641009097e6 -9.783601854274167e6 0.0
0.0 0.0 0.0

1.0218996411825446e6 1.7000072643420044e7 0.0
1.7000072643420044e7 -1.9422077009281967e7 0.0
0.0 0.0 0.0

-2.5387758316348102e7 3.441609539186853e7 0.0
3.441609539186853e7 4.684729578277614e6 0.0
0.0 0.0 0.0

-3.6389876195973214e6 2.4878195597732667e7 0.0
2.4878195597732667e7 3.803974716229652e6 0.0
0.0 0.0 0.0

7.70566475317183e6 2.8773317608014304e7 0.0
2.8773317608014304e7 -6.351968197472312e6 0.0
0.0 0.0 0.0

1.9240825219448917e6 6.3326971955415355e6 0.0
6.3326971955415355e6 -4.781428904110363e7 0.0
0.0 0.0 0.0

436076.2968276087 2.4313457270617638e7 0.0
2.4313457270617638e7 -1.0684624656339578e7 0.0
0.0 0.0 0.0

50197.75751974154 2.019752905695914e7 0.0
2.019752905695914e7 -1.663488560299072e7 0.0
0.0 0.0 0.0

-1.734040139792694e7 2.785381344877788e7 0.0
2.785381344877788e7 -1.4278869807217091e7 0.0
0.0 0.0 0.0

1.957260781613633e7 3.51321305309295e7 0.0
3.51321305309295e7 -5.8668157479995005e6 0.0
0.0 0.0 0.0

-5.133714739065633e6 2.856679930113773e7 0.0
2.856679930113773e7 1.1610102100186108e7 0.0
0.0 0.0 0.0

4.226331230448837e6 2.2987909164574157e7 0.0
2.2987909164574157e7 1.5734253602872476e7 0.0
0.0 0.0 0.0

6.674709073176496e6 1.994681243410115e7 0.0
1.994681243410115e7 8.902276223179159e7 0.0
0.0 0.0 0.0

-4.970921008899763e6 4.42102987722738e7 0.0
4.42102987722738e7 3.902776013880251e6 0.0
0.0 0.0 0.0

1.837855506967138e6 2.4695145067398157e7 0.0
2.4695145067398157e7 -1.0267000771878853e7 0.0
0.0 0.0 0.0

1.4889551717784107e6 1.1945511366362432e7 0.0
1.1945511366362432e7 -3.7285488985764496e7 0.0
0.0 0.0 0.0

1.471378196810497e6 1.0932728169407072e7 0.0
1.0932728169407072e7 -3.94423118989872e7 0.0
0.0 0.0 0.0

2.937306911840569e6 3.010021812197486e6 0.0
3.010021812197486e6 -3.386927165251499e7 0.0
0.0 0.0 0.0

-3.120005084492971e6 2.775014497096685e7 0.0
2.775014497096685e7 1.1828211535354095e7 0.0
0.0 0.0 0.0

2.5597829604644403e6 3.2828331919234586e6 0.0
3.2828331919234586e6 -3.365243556956387e7 0.0
0.0 0.0 0.0

-8.563093614247449e6 4.483322401848111e6 0.0
4.483322401848111e6 4.271854703088923e7 0.0
0.0 0.0 0.0

-2.9955701734797573e6 2.4922487031505007e7 0.0
2.4922487031505007e7 1.848885332599698e7 0.0
0.0 0.0 0.0

-2.56535120387151e6 1.239209704082939e7 0.0
1.239209704082939e7 -3.0532343521184875e6 0.0
0.0 0.0 0.0

4.449870176375516e6 3.2417124848439675e7 0.0
3.2417124848439675e7 -6.757123943800436e6 0.0
0.0 0.0 0.0

9.183677339308197e6 3.675454976818953e7 0.0
3.675454976818953e7 -4.7007444874062855e6 0.0
0.0 0.0 0.0

2.0414638880438935e6 1.8675498372484755e7 0.0
1.8675498372484755e7 4.58628213109629e6 0.0
0.0 0.0 0.0

-2.770583146194257e6 1.317854748820502e7 0.0
1.317854748820502e7 -6.243160860706907e7 0.0
0.0 0.0 0.0

1.9764563515991569e6 4.423904119288044e6 0.0
4.423904119288044e6 -5.279080409035421e7 0.0
0.0 0.0 0.0

-6.098179413594063e7 4.3476872069524854e7 0.0
4.3476872069524854e7 -1.712920572774753e7 0.0
0.0 0.0 0.0

3.1300773822470404e7 2.9179721957045797e7 0.0
2.9179721957045797e7 1.4948294758872092e7 0.0
0.0 0.0 0.0

7.5810404775443785e6 3.614055651141809e7 0.0
3.614055651141809e7 -4.696461507408317e6 0.0
0.0 0.0 0.0

1.2361942325377557e6 2.1829848056998342e7 0.0
2.1829848056998342e7 2.3601255977313068e7 0.0
0.0 0.0 0.0

1.6880435450150114e6 2.054125645159399e7 0.0
2.054125645159399e7 4.717587825859267e6 0.0
0.0 0.0 0.0

-7.347037806095511e6 9.494504708770351e6 0.0
9.494504708770351e6 4.9981676048061095e7 0.0
0.0 0.0 0.0

-1.3823852531787012e7 3.617209445124401e7 0.0
3.617209445124401e7 5.967119864093806e6 0.0
0.0 0.0 0.0

-1.3406634906478736e6 1.685199154795607e7 0.0
1.685199154795607e7 -1.010191062110821e7 0.0
0.0 0.0 0.0

-9.698948016414117e6 3.469734033356868e6 0.0
3.469734033356868e6 3.3667574438375995e7 0.0
0.0 0.0 0.0

1.9078847378345132e6 1.4234343556706307e7 0.0
1.4234343556706307e7 1.0487967136882557e8 0.0
0.0 0.0 0.0

1.576983655924403e6 2.4607437962437157e7 0.0
2.4607437962437157e7 -1.4709477276618104e7 0.0
0.0 0.0 0.0

2.3631952658514497e6 4.519287690574992e6 0.0
4.519287690574992e6 -1.0454628281799203e7 0.0
0.0 0.0 0.0

-4.126805639583431e6 1.017592074563554e7 0.0
1.017592074563554e7 7.093665039289366e7 0.0
0.0 0.0 0.0

2.365719766766807e6 3.317877223024599e6 0.0
3.317877223024599e6 -4.311561978406896e7 0.0
0.0 0.0 0.0

-7.845590020422306e6 2.4690645603950012e7 0.0
2.4690645603950012e7 -1.5594608471113183e7 0.0
0.0 0.0 0.0

-2.809800085468434e7 3.0210422309637513e7 0.0
3.0210422309637513e7 -1.6245918537058558e7 0.0
0.0 0.0 0.0

324665.1518136095 2.2104717785448354e7 0.0
2.2104717785448354e7 -1.948921105786329e7 0.0
0.0 0.0 0.0

-2.405841965028798e6 1.3018592003993427e7 0.0
1.3018592003993427e7 241727.98194824636 0.0
0.0 0.0 0.0

-6.671453502592539e6 2.5856797787915707e7 0.0
2.5856797787915707e7 829962.2591163339 0.0
0.0 0.0 0.0

2.434570464400336e7 3.40240494286623e7 0.0
3.40240494286623e7 -5.224224379150072e6 0.0
0.0 0.0 0.0

-8.86669410255741e6 -1.785646418009272e6 0.0
-1.785646418009272e6 2.2375768616896395e7 0.0
0.0 0.0 0.0

1.4893940622796841e7 2.4205125703588728e7 0.0
2.4205125703588728e7 9.210040686938351e6 0.0
0.0 0.0 0.0

2.3762465536573153e7 4.481264147041055e7 0.0
4.481264147041055e7 -8.29921749859919e6 0.0
0.0 0.0 0.0

2.694268169011848e6 3.327408862234217e6 0.0
3.327408862234217e6 -3.803940454211674e7 0.0
0.0 0.0 0.0

-2.8188978510262077e6 2.1612931646642625e7 0.0
2.1612931646642625e7 5.525294535562631e6 0.0
0.0 0.0 0.0

1.4221763338698685e7 2.251147275447889e7 0.0
2.251147275447889e7 5.542487626045921e7 0.0
0.0 0.0 0.0

7.618888023977073e7 8.52518455819139e6 0.0
8.52518455819139e6 -284253.68054350466 0.0
0.0 0.0 0.0

-3.604663405231148e7 3.278338047039641e7 0.0
3.278338047039641e7 -1.60619436298195e7 0.0
0.0 0.0 0.0

-2.518563434441834e6 2.8905041391366437e7 0.0
2.8905041391366437e7 3.602838240975978e6 0.0
0.0 0.0 0.0

-2.189283090817362e6 1.3467063232272211e7 0.0
1.3467063232272211e7 -5.434807587849014e7 0.0
0.0 0.0 0.0

-1.8939997854647063e7 3.3776272130387455e7 0.0
3.3776272130387455e7 5.20457223668598e6 0.0
0.0 0.0 0.0

1.2985716427385e7 2.463608593149151e7 0.0
2.463608593149151e7 1.1175379633743737e7 0.0
0.0 0.0 0.0

-1.679468381146375e6 9.636806466441937e6 0.0
9.636806466441937e6 8.497863930083477e7 0.0
0.0 0.0 0.0

-4.807083894207009e6 2.6768897629543275e7 0.0
2.6768897629543275e7 1.2606066718476634e7 0.0
0.0 0.0 0.0

5.023685212882267e6 2.032904612561163e7 0.0
2.032904612561163e7 2.2041318548353028e7 0.0
0.0 0.0 0.0

-487022.9479261958 2.232235043358049e7 0.0
2.232235043358049e7 -1.2321318239796476e7 0.0
0.0 0.0 0.0

1.0805492310787799e7 2.6240062777764313e7 0.0
2.6240062777764313e7 -491011.9583874475 0.0
0.0 0.0 0.0

3.4906626067864224e6 2.5462647428067654e7 0.0
2.5462647428067654e7 -6.860484337305645e6 0.0
0.0 0.0 0.0

-2.7789810658416254e6 1.6822209960976694e7 0.0
1.6822209960976694e7 -2.5732097921409532e6 0.0
0.0 0.0 0.0

3.5371885058770105e6 2.1306624309817467e7 0.0
2.1306624309817467e7 2.8056196897252142e7 0.0
0.0 0.0 0.0

1.3809611425286974e6 2.176517812837047e7 0.0
2.176517812837047e7 3.305454334989733e6 0.0
0.0 0.0 0.0

230378.7892377805 2.12328612957902e7 0.0
2.12328612957902e7 -4.454170572169686e6 0.0
0.0 0.0 0.0

-6.737898623837195e6 1.9238751872325905e7 0.0
1.9238751872325905e7 -3.501676673455021e7 0.0
0.0 0.0 0.0

-2.8724911246565245e6 3.2238970187051028e7 0.0
3.2238970187051028e7 5.2655030159283085e6 0.0
0.0 0.0 0.0

-2.473803030966183e7 2.8546197851026863e7 0.0
2.8546197851026863e7 -1.4675330568693548e7 0.0
0.0 0.0 0.0

-1.1678387900423167e7 3.75581637027341e7 0.0
3.75581637027341e7 5.474607396693087e6 0.0
0.0 0.0 0.0

26389.751079789363 2.3165579660663024e7 0.0
2.3165579660663024e7 1.6457330718305312e7 0.0
0.0 0.0 0.0

2.3444225897790045e6 6.833633317640477e6 0.0
6.833633317640477e6 -3.812434130082413e7 0.0
0.0 0.0 0.0

1.420096203124714e6 2.3873563467415597e7 0.0
2.3873563467415597e7 -1.5949818292497426e7 0.0
0.0 0.0 0.0

2.0533647522029515e7 3.472885882019701e7 0.0
3.472885882019701e7 -5.223909106244602e6 0.0
0.0 0.0 0.0

-8.87835288335566e6 3.5226246827306836e6 0.0
3.5226246827306836e6 3.931181051348077e7 0.0
0.0 0.0 0.0

-4.768829730695201e6 2.6027129003937922e7 0.0
2.6027129003937922e7 9.059363480985463e6 0.0
0.0 0.0 0.0

2.5013264959776e6 2.4300031497047827e7 0.0
2.4300031497047827e7 3.0835336845987756e6 0.0
0.0 0.0 0.0

1.1832022864324212e7 2.7524649895283077e7 0.0
2.7524649895283077e7 -2.6125620401399494e6 0.0
0.0 0.0 0.0

-9.154513089008361e6 9.909780968269473e6 0.0
9.909780968269473e6 3.660096716631875e7 0.0
0.0 0.0 0.0

7.870844945896741e6 1.9515494679438967e7 0.0
1.9515494679438967e7 3.050508111233475e7 0.0
0.0 0.0 0.0

-9.790259332172854e6 2.4117423220802467e7 0.0
2.4117423220802467e7 -1.5463680206341045e7 0.0
0.0 0.0 0.0

-1.0255862827980835e6 1.9100423159677096e7 0.0
1.9100423159677096e7 -3.0921431126979433e7 0.0
0.0 0.0 0.0

1.2403912124242602e7 4.367879363680983e7 0.0
4.367879363680983e7 -3.99067312585898e6 0.0
0.0 0.0 0.0

-1.1362146342675656e7 3.918161642799176e7 0.0
3.918161642799176e7 4.854428463041696e6 0.0
0.0 0.0 0.0

-9.596988874163855e6 1.1206008544376193e7 0.0
1.1206008544376193e7 3.1530058802235365e7 0.0
0.0 0.0 0.0

-1.0985015125742478e7 2.6506006851721507e7 0.0
2.6506006851721507e7 -8.347305123302737e6 0.0
0.0 0.0 0.0

-8.539327561176099e6 3.989157194920297e7 0.0
3.989157194920297e7 3.7825298223330504e6 0.0
0.0 0.0 0.0

-9.32762710122378e6 3.846745932288564e7 0.0
3.846745932288564e7 4.584047482196479e6 0.0
0.0 0.0 0.0

4.997450006306771e6 1.9321625404387627e7 0.0
1.9321625404387627e7 1.8384559972846497e7 0.0
0.0 0.0 0.0

1.6811864265435599e6 1.5084062968971794e7 0.0
1.5084062968971794e7 -2.5349347244916566e7 0.0
0.0 0.0 0.0

7.001507905002409e7 4.141642904258836e7 0.0
4.141642904258836e7 3.121405225107691e7 0.0
0.0 0.0 0.0

-4.4000592996276155e7 4.498851378818422e6 0.0
4.498851378818422e6 6.078052602953497e6 0.0
0.0 0.0 0.0

-2.1165855783955548e7 3.2779453296106186e7 0.0
3.2779453296106186e7 3.586585114188549e6 0.0
0.0 0.0 0.0

1.8184081266553178e6 3.015970479298461e6 0.0
3.015970479298461e6 -4.283800193329993e7 0.0
0.0 0.0 0.0

301908.17644089554 2.3552785024512276e7 0.0
2.3552785024512276e7 -1.416621511976944e7 0.0
0.0 0.0 0.0

-1.57330021160558e7 3.4336593398116894e7 0.0
3.4336593398116894e7 5.924138282947379e6 0.0
0.0 0.0 0.0

-9.01096126812649e6 7.165441183688423e6 0.0
7.165441183688423e6 4.12935368427162e7 0.0
0.0 0.0 0.0

1.074156374451043e6 1.1562933139296018e7 0.0
1.1562933139296018e7 -3.474641475267843e7 0.0
0.0 0.0 0.0

-8.160280181348745e6 1.86195909146369e7 0.0
1.86195909146369e7 -2.8670668081776354e7 0.0
0.0 0.0 0.0

1.3248149353308475e7 2.586523154909972e7 0.0
2.586523154909972e7 1.1640480874614665e7 0.0
0.0 0.0 0.0

-4.747294600360624e7 3.5697313438960016e7 0.0
3.5697313438960016e7 -1.491916100003864e7 0.0
0.0 0.0 0.0

-3.786644638392417e6 1.4846894852386884e7 0.0
1.4846894852386884e7 2.7715388673170675e6 0.0
0.0 0.0 0.0

-1.1885794532039866e7 3.3089766097754847e7 0.0
3.3089766097754847e7 6.390505343459789e6 0.0
0.0 0.0 0.0

-2.179143740964858e6 3.364833625491404e7 0.0
3.364833625491404e7 3.443935598623433e6 0.0
0.0 0.0 0.0

-6.879070088197225e6 7.773046647179856e6 0.0
7.773046647179856e6 2.1637478225963086e7 0.0
0.0 0.0 0.0

-9.147786635174759e6 798780.213448907 0.0
798780.213448907 2.3461957542986862e7 0.0
0.0 0.0 0.0

887062.3337657452 1.5514104806209844e7 0.0
1.5514104806209844e7 -2.6050295485220283e7 0.0
0.0 0.0 0.0

-8.634888989366688e6 5.846892673401333e6 0.0
5.846892673401333e6 4.077432894055301e7 0.0
0.0 0.0 0.0

468485.48743976187 1.9629617417990506e7 0.0
1.9629617417990506e7 -2.363428030157134e7 0.0
0.0 0.0 0.0

1.102489915816852e7 2.469815090375118e7 0.0
2.469815090375118e7 1.1151202677281266e6 0.0
0.0 0.0 0.0

486153.071541816 1.034361370837765e7 0.0
1.034361370837765e7 -1.359060348082016e7 0.0
0.0 0.0 0.0

-2.2361659466607675e7 3.276183773380274e7 0.0
3.276183773380274e7 3.5825729047563896e6 0.0
0.0 0.0 0.0

-1.5371274405883268e7 2.806316091153761e7 0.0
2.806316091153761e7 -1.4475848902504485e7 0.0
0.0 0.0 0.0

670794.0960754697 2.0493434417099897e7 0.0
2.0493434417099897e7 2.2359815222503897e6 0.0
0.0 0.0 0.0

-512600.7167369647 2.041771475096448e7 0.0
2.041771475096448e7 -1.7086700339472522e6 0.0
0.0 0.0 0.0

1.5769974365556678e6 1.5926209911861237e7 0.0
1.5926209911861237e7 -2.386793778034879e7 0.0
0.0 0.0 0.0

-7.278055572318901e6 1.9561953994878616e7 0.0
1.9561953994878616e7 -2.8017493621594176e7 0.0
0.0 0.0 0.0

-9.931781809669426e6 2.8195939995960966e6 0.0
2.8195939995960966e6 3.0081941256310858e7 0.0
0.0 0.0 0.0

-3.14624355189866e6 1.6091227712141471e7 0.0
1.6091227712141471e7 9.650136924639985e6 0.0
0.0 0.0 0.0

2.7238911600410235e6 2.6534088271813136e7 0.0
2.6534088271813136e7 -1.1432330624870572e7 0.0
0.0 0.0 0.0

2.0136178837796655e6 7.809117571321049e6 0.0
7.809117571321049e6 -2.6413741735332012e7 0.0
0.0 0.0 0.0

-4.8800804960715935e7 3.1862263807295643e7 0.0
3.1862263807295643e7 -7.841228499066911e6 0.0
0.0 0.0 0.0

8.569476722844327e6 2.5941220804581095e7 0.0
2.5941220804581095e7 -905940.2026271448 0.0
0.0 0.0 0.0

3.1158242327169433e7 2.4495929304677658e7 0.0
2.4495929304677658e7 7.223293077521604e6 0.0
0.0 0.0 0.0

-1.250648601229931e7 4.404558072579214e7 0.0
4.404558072579214e7 6.246046738642714e6 0.0
0.0 0.0 0.0

-1.017907227990015e7 6.178992208442924e6 0.0
6.178992208442924e6 2.6141020951891538e7 0.0
0.0 0.0 0.0

-134463.61068825424 2.0972808552589107e7 0.0
2.0972808552589107e7 -1.5178072384664103e7 0.0
0.0 0.0 0.0

-1.3102855727033654e7 2.6259982301782947e7 0.0
2.6259982301782947e7 -7.709612986406505e6 0.0
0.0 0.0 0.0

-2.4571095758231454e7 3.702291731551528e7 0.0
3.702291731551528e7 5.399926568445718e6 0.0
0.0 0.0 0.0

-9.642791399540938e6 2.0240679983639102e7 0.0
2.0240679983639102e7 -4.460373317347194e7 0.0
0.0 0.0 0.0

2.7754217154414873e6 2.138120015309836e7 0.0
2.138120015309836e7 1.1531544795328787e7 0.0
0.0 0.0 0.0

-6.496984074724378e6 1.9340346322729483e7 0.0
1.9340346322729483e7 -3.0464356200340804e7 0.0
0.0 0.0 0.0

-1.8753499517358553e7 4.106248771079586e7 0.0
4.106248771079586e7 6.564407955043003e6 0.0
0.0 0.0 0.0

2.645828178318325e6 2.9846134421979994e7 0.0
2.9846134421979994e7 -8.405636418923216e6 0.0
0.0 0.0 0.0

-9.285990832487471e6 2.6922323620562907e7 0.0
2.6922323620562907e7 -1.0853452928710144e6 0.0
0.0 0.0 0.0

1.1075132968348544e6 1.2848143510328218e7 0.0
1.2848143510328218e7 -3.791818080801539e7 0.0
0.0 0.0 0.0

-7.635437876129469e6 9.586175425877346e6 0.0
9.586175425877346e6 4.683562678434607e7 0.0
0.0 0.0 0.0

-1.3128722606899524e6 2.1077133358858097e7 0.0
2.1077133358858097e7 -9.816300173964996e6 0.0
0.0 0.0 0.0

1.189268555327076e7 2.583030629398512e7 0.0
2.583030629398512e7 -998813.1479230486 0.0
0.0 0.0 0.0

-8.078996424275691e6 2.0516400046209402e7 0.0
2.0516400046209402e7 -3.7016361508445874e7 0.0
0.0 0.0 0.0

-1.3161054887406433e7 3.276955341646016e7 0.0
3.276955341646016e7 5.872594211009845e6 0.0
0.0 0.0 0.0

3.630222085877813e7 4.223090472801053e7 0.0
4.223090472801053e7 -6.936221881135955e6 0.0
0.0 0.0 0.0

-9.162043763248645e6 2.6215886739312157e7 0.0
2.6215886739312157e7 -5.747301144963536e6 0.0
0.0 0.0 0.0

-1.3889605179926034e7 3.4354557258373186e7 0.0
3.4354557258373186e7 5.796013642746179e6 0.0
0.0 0.0 0.0

-5.064965125079494e6 2.170610614809466e7 0.0
2.170610614809466e7 2.319888519381886e7 0.0
0.0 0.0 0.0

4.998733663044364e6 2.460491945925391e7 0.0
2.460491945925391e7 -5.41992575504154e6 0.0
0.0 0.0 0.0

-3.6595960359688094e6 3.225754411805311e7 0.0
3.225754411805311e7 6.113073532628745e6 0.0
0.0 0.0 0.0

-8.074768527409102e6 1.886835480334852e7 0.0
1.886835480334852e7 -4.2715406757153355e7 0.0
0.0 0.0 0.0

1.97826216632328e6 5.111385261403793e6 0.0
5.111385261403793e6 -3.6315847614609994e7 0.0
0.0 0.0 0.0

-7.945397710308146e6 2.0629587013387706e7 0.0
2.0629587013387706e7 -3.2413877443951756e7 0.0
0.0 0.0 0.0

-5.539875040152723e6 3.6051603911851965e7 0.0
3.6051603911851965e7 3.839815709320512e6 0.0
0.0 0.0 0.0

-3.8774686216711653e6 2.1887155177015815e7 0.0
2.1887155177015815e7 -1.2924895427781371e7 0.0
0.0 0.0 0.0

3.647696764172128e6 2.1996283584584247e7 0.0
2.1996283584584247e7 1.2158989749567999e7 0.0
0.0 0.0 0.0

-5.585012728388723e6 1.8723295646659534e7 0.0
1.8723295646659534e7 3.462045814758112e7 0.0
0.0 0.0 0.0

-1.620590377783163e6 1.6216415720812194e7 0.0
1.6216415720812194e7 -1.573024996815878e6 0.0
0.0 0.0 0.0

1.5850123107251553e7 2.013038993219005e7 0.0
2.013038993219005e7 5.981989774910052e7 0.0
0.0 0.0 0.0

-8.195190340993738e6 4.314733995255921e6 0.0
4.314733995255921e6 4.636341839128408e7 0.0
0.0 0.0 0.0

1.296160981624253e6 4.478903721794648e6 0.0
4.478903721794648e6 -5.221218754448361e7 0.0
0.0 0.0 0.0

-5.4816398771197945e6 2.0676145766195875e7 0.0
2.0676145766195875e7 -3.3044076292824797e7 0.0
0.0 0.0 0.0

-1.1982862877197469e7 3.46281909525111e7 0.0
3.46281909525111e7 6.003031331108691e6 0.0
0.0 0.0 0.0

3.6651132879370004e7 1.6052961903118078e7 0.0
1.6052961903118078e7 1.7588481246876325e6 0.0
0.0 0.0 0.0

-9.922219501405537e6 8.369655457713804e6 0.0
8.369655457713804e6 3.477401265299146e7 0.0
0.0 0.0 0.0

-3.0911300475790184e7 3.446305762688917e7 0.0
3.446305762688917e7 -1.6322678651320549e7 0.0
0.0 0.0 0.0

-3.9016042459072843e6 2.5339720178332724e7 0.0
2.5339720178332724e7 9.517502812123831e6 0.0
0.0 0.0 0.0

-2.4597418808955945e7 4.06761394584112e7 0.0
4.06761394584112e7 6.760008877192577e6 0.0
0.0 0.0 0.0

1.0521215186618194e6 5.093633420576057e6 0.0
5.093633420576057e6 -5.3800255596312255e7 0.0
0.0 0.0 0.0

9.090334734973114e6 3.522727275792427e7 0.0
3.522727275792427e7 -5.353457564591987e6 0.0
0.0 0.0 0.0

-1.9229523927167244e6 1.4592634118056111e7 0.0
1.4592634118056111e7 6.558050549062446e7 0.0
0.0 0.0 0.0

-3.9291765641565444e6 3.0983824385727737e7 0.0
3.0983824385727737e7 8.424314871398203e6 0.0
0.0 0.0 0.0

-1.9544804211788995e6 2.0407386071869116e7 0.0
2.0407386071869116e7 -7.889111098093619e6 0.0
0.0 0.0 0.0

-8.593978039697232e6 2.9276027726961304e6 0.0
2.9276027726961304e6 1.6404906823922813e7 0.0
0.0 0.0 0.0

6.043450552007443e6 2.1895605261473652e7 0.0
2.1895605261473652e7 1.9219698439588856e7 0.0
0.0 0.0 0.0

-4.9459122848394755e6 2.649173016851247e7 0.0
2.649173016851247e7 1.105917178969835e7 0.0
0.0 0.0 0.0

1.2980815041078213e6 1.127597707697164e7 0.0
1.127597707697164e7 -1.215004112426642e7 0.0
0.0 0.0 0.0

-4.206923662960362e6 2.4317746415789697e7 0.0
2.4317746415789697e7 1.083670356312205e6 0.0
0.0 0.0 0.0

9.791513709594902e6 2.5375024792038538e7 0.0
2.5375024792038538e7 -1.7234556442601564e6 0.0
0.0 0.0 0.0

-2.1658213573731417e6 1.6317177322327694e7 0.0
1.6317177322327694e7 2.0386212747859224e6 0.0
0.0 0.0 0.0

-5.393301251668356e6 1.8857857114200704e7 0.0
1.8857857114200704e7 -3.736404976831491e7 0.0
0.0 0.0 0.0

-3.339441481120145e6 2.0178138110166702e7 0.0
2.0178138110166702e7 9.072325733809212e6 0.0
0.0 0.0 0.0

-4.1832430269625355e6 2.1291490229517307e7 0.0
2.1291490229517307e7 2.758805817196419e7 0.0
0.0 0.0 0.0

-8.97801402726229e6 2.5740387894594707e6 0.0
2.5740387894594707e6 3.349169715709308e7 0.0
0.0 0.0 0.0

-1.4365526670243427e7 2.7013982935612854e7 0.0
2.7013982935612854e7 -305587.3373758253 0.0
0.0 0.0 0.0

-8.363193018341811e6 3.258709241715224e7 0.0
3.258709241715224e7 7.242015680712396e6 0.0
0.0 0.0 0.0

1.5998751723916026e7 3.567699189333747e7 0.0
3.567699189333747e7 -5.894706962497195e6 0.0
0.0 0.0 0.0

-9.42146625469722e6 7.843328841765682e6 0.0
7.843328841765682e6 3.796841194381707e7 0.0
0.0 0.0 0.0

-6.62290882743143e6 1.995513517328893e7 0.0
1.995513517328893e7 -3.899760501932125e7 0.0
0.0 0.0 0.0

-5.415266650888313e6 3.253573318302411e7 0.0
3.253573318302411e7 7.386037210298253e6 0.0
0.0 0.0 0.0

988196.542703501 2.2857924554292925e7 0.0
2.2857924554292925e7 -8.643829542136379e6 0.0
0.0 0.0 0.0

-1.7405798800671636e6 1.7662453732564893e7 0.0
1.7662453732564893e7 -8.442772064762061e6 0.0
0.0 0.0 0.0

-9.907699536148682e6 3.55647304600052e6 0.0
3.55647304600052e6 2.3964816792459354e7 0.0
0.0 0.0 0.0

-1.163431473940264e7 3.6123514146047e7 0.0
3.6123514146047e7 6.004206689597266e6 0.0
0.0 0.0 0.0

-1.1051029476569286e6 2.726644354209476e7 0.0
2.726644354209476e7 -12811.665708901244 0.0
0.0 0.0 0.0

4.733425264492289e6 2.367124521173366e7 0.0
2.367124521173366e7 1.7003401591908872e7 0.0
0.0 0.0 0.0

-3.6882157164765256e6 2.2760088495690883e6 0.0
2.2760088495690883e6 8.085812252587778e6 0.0
0.0 0.0 0.0

6.146751550913271e6 2.4137112852245938e7 0.0
2.4137112852245938e7 6.251179320028673e6 0.0
0.0 0.0 0.0

-1.7238841448502429e6 1.0056874168146413e7 0.0
1.0056874168146413e7 -7.129605364964435e7 0.0
0.0 0.0 0.0

9.445321317258593e6 4.07304154291333e7 0.0
4.07304154291333e7 -5.204625437912364e6 0.0
0.0 0.0 0.0

-5.501909848824958e6 2.7621247896071833e7 0.0
2.7621247896071833e7 1.17878351463584e7 0.0
0.0 0.0 0.0

-9.924900285785e6 1.2350589344537027e7 0.0
1.2350589344537027e7 1.7933219856051218e7 0.0
0.0 0.0 0.0

-1.8385362618330042e6 2.355467097965233e7 0.0
2.355467097965233e7 -4.0340707110693753e6 0.0
0.0 0.0 0.0

-1.8393494444063604e6 1.265945212705875e7 0.0
1.265945212705875e7 -6.6593813738274604e7 0.0
0.0 0.0 0.0

-1.4751938278848957e6 1.9809153043287665e7 0.0
1.9809153043287665e7 -2.7719050852286592e7 0.0
0.0 0.0 0.0

-1.2226413136022579e7 4.11965652017831e7 0.0
4.11965652017831e7 4.448856292247049e6 0.0
0.0 0.0 0.0

-3.0294867570234626e6 2.1580855481322877e7 0.0
2.1580855481322877e7 -1.0098290479055237e7 0.0
0.0 0.0 0.0

-6.3582098233496435e6 2.5782697645709865e7 0.0
2.5782697645709865e7 -1.468395991998437e7 0.0
0.0 0.0 0.0

-2.1079296465160893e6 2.802190516420741e7 0.0
2.802190516420741e7 6.808663743031218e6 0.0
0.0 0.0 0.0

876822.4068815857 2.103941712627817e7 0.0
2.103941712627817e7 -1.5298211347437624e7 0.0
0.0 0.0 0.0

1.0422158189307211e7 2.5623465229296315e7 0.0
2.5623465229296315e7 9.641720584984537e6 0.0
0.0 0.0 0.0

-9.779221052805353e6 2.6225821456993017e7 0.0
2.6225821456993017e7 -1.4907444752289455e7 0.0
0.0 0.0 0.0

-2.7275330418697367e6 2.472384356799924e7 0.0
2.472384356799924e7 6.84969918055363e6 0.0
0.0 0.0 0.0

-2.9906665283059776e6 1.07469776334486e7 0.0
1.07469776334486e7 7.182339251783673e7 0.0
0.0 0.0 0.0

-586692.1461899625 1.7136900698662415e7 0.0
1.7136900698662415e7 -7.60428645892259e6 0.0
0.0 0.0 0.0

-9.098315846093656e6 1.763514714119432e7 0.0
1.763514714119432e7 -3.068389857128435e7 0.0
0.0 0.0 0.0

1.1146998291957723e6 2.3211355956472207e7 0.0
2.3211355956472207e7 -1.76470766236782e7 0.0
0.0 0.0 0.0

-6.808968739849243e6 2.2903819657453652e7 0.0
2.2903819657453652e7 -1.9124151910188634e7 0.0
0.0 0.0 0.0

-3.7824061972059812e6 2.580338582813072e7 0.0
2.580338582813072e7 1.1611133396036081e7 0.0
0.0 0.0 0.0

715907.2733802934 2.0031751553042635e7 0.0
2.0031751553042635e7 2.386357555950739e6 0.0
0.0 0.0 0.0

-2.905524964485934e6 3.385649919924375e7 0.0
3.385649919924375e7 4.381323495182586e6 0.0
0.0 0.0 0.0

-4.572501041286586e6 2.5113914030105695e7 0.0
2.5113914030105695e7 770312.2666434268 0.0
0.0 0.0 0.0

-5.341632786564492e6 3.783622596505592e6 0.0
3.783622596505592e6 6.996753112801838e7 0.0
0.0 0.0 0.0

-1.0275317932803473e7 1.2358794007816134e7 0.0
1.2358794007816134e7 2.9199514772482477e7 0.0
0.0 0.0 0.0

2.160003706093455e6 2.338494605030124e7 0.0
2.338494605030124e7 -7.354891117660399e6 0.0
0.0 0.0 0.0

-2.9278868278490234e7 3.2633941073053613e7 0.0
3.2633941073053613e7 1.7946803632239513e6 0.0
0.0 0.0 0.0

-1.0822643024649723e7 4.387444965838141e6 0.0
4.387444965838141e6 2.3524526182725295e7 0.0
0.0 0.0 0.0

-5.951897901479118e6 9.150469270396283e6 0.0
9.150469270396283e6 5.877007617209711e7 0.0
0.0 0.0 0.0

-2.8616245189296594e6 2.6746466919589164e6 0.0
2.6746466919589164e6 7.207230448606258e6 0.0
0.0 0.0 0.0

-4.0990221222446556e6 6.110187183149607e6 0.0
6.110187183149607e6 -912540.5242625761 0.0
0.0 0.0 0.0

1.2087739580958728e6 1.3521128113287117e7 0.0
1.3521128113287117e7 -2.6328064248170406e7 0.0
0.0 0.0 0.0

-1.8812079424592624e6 2.7750782426154844e7 0.0
2.7750782426154844e7 -897832.4012716985 0.0
0.0 0.0 0.0

-7.919291046936721e6 2.238400845385673e7 0.0
2.238400845385673e7 -1.9265008882218298e7 0.0
0.0 0.0 0.0

-3.104686074736621e6 2.5273092511137974e7 0.0
2.5273092511137974e7 1.537521564800769e7 0.0
0.0 0.0 0.0

-5.458905924335772e6 1.9639250162124302e7 0.0
1.9639250162124302e7 -2.8115201626396798e7 0.0
0.0 0.0 0.0

3.1012190726713277e6 2.325167086795994e7 0.0
2.325167086795994e7 1.5277771762720898e7 0.0
0.0 0.0 0.0

-1.2992366843254924e7 1.79009820480932e7 0.0
1.79009820480932e7 -4.561826907496819e7 0.0
0.0 0.0 0.0

-4.734862693131592e6 2.502489262288422e7 0.0
2.502489262288422e7 4.1378065157914776e6 0.0
0.0 0.0 0.0

-3.896061691639412e6 1.3176723508352121e7 0.0
1.3176723508352121e7 -7.866907882218243e7 0.0
0.0 0.0 0.0

-1.4442590098676868e6 1.3237996241337098e7 0.0
1.3237996241337098e7 -5.801273088174322e7 0.0
0.0 0.0 0.0

-5.24318697636744e6 2.474487205767082e7 0.0
2.474487205767082e7 -1.4030050149229543e7 0.0
0.0 0.0 0.0

-1.9838426089660626e7 2.947435846050522e7 0.0
2.947435846050522e7 -1.459582893151596e7 0.0
0.0 0.0 0.0

-1.4179103260259666e7 3.2824026319573063e7 0.0
3.2824026319573063e7 5.8397442595487675e6 0.0
0.0 0.0 0.0

-4.102018917033681e6 1.683091853452328e7 0.0
1.683091853452328e7 8.280494413960503e6 0.0
0.0 0.0 0.0

-1.8138450038022716e6 8.179135516040699e6 0.0
8.179135516040699e6 8.784974334119782e6 0.0
0.0 0.0 0.0

482135.0154477884 2.2422416964657035e7 0.0
2.2422416964657035e7 -6.85743520273914e6 0.0
0.0 0.0 0.0

1.3296997790712224e7 2.682380419983153e7 0.0
2.682380419983153e7 -599592.9660066376 0.0
0.0 0.0 0.0

-649076.641743876 1.525374980751475e7 0.0
1.525374980751475e7 6.6536980027579755e7 0.0
0.0 0.0 0.0

-1.11265073042057e6 2.408867603764183e7 0.0
2.408867603764183e7 1.308244717815671e7 0.0
0.0 0.0 0.0

-8.640258159678983e6 3.259055243297951e7 0.0
3.259055243297951e7 7.271820422648817e6 0.0
0.0 0.0 0.0

-5.158202692920621e6 2.0090163074632928e7 0.0
2.0090163074632928e7 -1.7719002334191903e7 0.0
0.0 0.0 0.0

-5.0071542576782815e6 1.2640388006955018e7 0.0
1.2640388006955018e7 5.538589215179895e7 0.0
0.0 0.0 0.0

-2.139566158660769e6 2.384373832985077e7 0.0
2.384373832985077e7 7.424223021235058e6 0.0
0.0 0.0 0.0

886870.513531588 2.304276895386742e7 0.0
2.304276895386742e7 -1.751802694438463e7 0.0
0.0 0.0 0.0

-1.811043505217418e6 1.836191291007967e7 0.0
1.836191291007967e7 -3.3004172796196662e7 0.0
0.0 0.0 0.0

-1.0881141646382064e6 1.1762969026175553e7 0.0
1.1762969026175553e7 -5.485957994123219e7 0.0
0.0 0.0 0.0

-211157.95432193764 1.277039561255569e7 0.0
1.277039561255569e7 -4.366247852949321e7 0.0
0.0 0.0 0.0

-1.3273258913413662e7 2.1102510931110777e7 0.0
2.1102510931110777e7 -6.402490935827178e7 0.0
0.0 0.0 0.0

-3.3293757602649215e6 3.305213888076642e7 0.0
3.305213888076642e7 5.246012168942782e6 0.0
0.0 0.0 0.0

-7.010196012951806e6 2.550702755028557e7 0.0
2.550702755028557e7 -1.4934605672090665e7 0.0
0.0 0.0 0.0

-1.6513913787148097e6 2.298358061857486e7 0.0
2.298358061857486e7 -1.4778657548271788e7 0.0
0.0 0.0 0.0

2.8961369267843775e7 2.712031896524144e7 0.0
2.712031896524144e7 1.699283839026452e6 0.0
0.0 0.0 0.0

-5.148162864687812e6 6.883650056211847e6 0.0
6.883650056211847e6 6.3175086881259605e7 0.0
0.0 0.0 0.0

-3.2136599488718174e6 1.3036895537116008e7 0.0
1.3036895537116008e7 -6.720299126210135e7 0.0
0.0 0.0 0.0

206495.75143610314 1.3207027098234836e7 0.0
1.3207027098234836e7 -4.357040369096802e7 0.0
0.0 0.0 0.0

-1.767809458071731e6 1.0672658898847107e7 0.0
1.0672658898847107e7 7.860231376830737e7 0.0
0.0 0.0 0.0

2.6777709938953444e7 2.7492198735814683e7 0.0
2.7492198735814683e7 1.7404223377500687e7 0.0
0.0 0.0 0.0

-4.612181614086892e6 1.0372193755414968e7 0.0
1.0372193755414968e7 6.028448231914283e7 0.0
0.0 0.0 0.0

-8.13967859839535e6 -981521.773531491 0.0
-981521.773531491 1.2866016514524631e7 0.0
0.0 0.0 0.0

-3.837871766658266e6 3.4994360728700645e7 0.0
3.4994360728700645e7 2.808022841724118e6 0.0
0.0 0.0 0.0

1.0867808864303064e6 1.2416780627138654e7 0.0
1.2416780627138654e7 -3.2887814170598537e7 0.0
0.0 0.0 0.0

-8.948544920044126e6 3.737301407781437e7 0.0
3.737301407781437e7 5.837051794269452e6 0.0
0.0 0.0 0.0

-4.402123752096171e6 1.5280572912576882e7 0.0
1.5280572912576882e7 4.925895893946061e7 0.0
0.0 0.0 0.0

-1.0879880346206153e7 1.0436479772726774e7 0.0
1.0436479772726774e7 2.702204606184032e7 0.0
0.0 0.0 0.0

1.0951417792431083e7 3.560932424231277e7 0.0
3.560932424231277e7 -5.515522324473485e6 0.0
0.0 0.0 0.0

-3.922473719590367e6 2.612936102218811e7 0.0
2.612936102218811e7 1.4795917584796833e7 0.0
0.0 0.0 0.0

3.6892409361021263e6 3.032596686000617e7 0.0
3.032596686000617e7 -7.638705184655562e6 0.0
0.0 0.0 0.0

-7.4869532099027075e6 2.9389640569677286e7 0.0
2.9389640569677286e7 7.859276977986684e6 0.0
0.0 0.0 0.0

-5.032414486421918e6 2.097939939867557e7 0.0
2.097939939867557e7 -2.9787699975001447e7 0.0
0.0 0.0 0.0

7.018594858601041e6 2.6929525444062114e7 0.0
2.6929525444062114e7 -7.095816821572283e6 0.0
0.0 0.0 0.0

1.1281744081318498e7 2.0706153660436146e7 0.0
2.0706153660436146e7 5.697438197091196e7 0.0
0.0 0.0 0.0

-4.780299856505058e6 7.01979931671401e6 0.0
7.01979931671401e6 1.8497158869037114e7 0.0
0.0 0.0 0.0

-1.7287674735867633e6 9.469711733509228e6 0.0
9.469711733509228e6 -9.992364119328856e6 0.0
0.0 0.0 0.0

-5.305285986170959e6 2.2472468317129478e7 0.0
2.2472468317129478e7 -1.7684286301395778e7 0.0
0.0 0.0 0.0

5.360313351397286e6 2.2696075341393262e7 0.0
2.2696075341393262e7 1.7867711235463772e7 0.0
0.0 0.0 0.0

1.1593293041248875e7 4.169144810225143e7 0.0
4.169144810225143e7 -6.113874228831577e6 0.0
0.0 0.0 0.0

3.1861120825557215e6 5.447049449780311e6 0.0
5.447049449780311e6 -1.994364520974413e7 0.0
0.0 0.0 0.0

-5.523066776689957e6 3.9519429128933385e7 0.0
3.9519429128933385e7 4.29287255864441e6 0.0
0.0 0.0 0.0

-4.849944632342707e7 1.861282537191636e7 0.0
1.861282537191636e7 6.393288363111092e6 0.0
0.0 0.0 0.0

1.333432540415002e6 2.364507093002975e7 0.0
2.364507093002975e7 -1.5868196950613722e7 0.0
0.0 0.0 0.0

-3.9802574655816294e6 1.7085094191949263e7 0.0
1.7085094191949263e7 4.4863010294567e7 0.0
0.0 0.0 0.0

490681.1883907616 2.386852242419402e7 0.0
2.386852242419402e7 -7.154447982753001e6 0.0
0.0 0.0 0.0

-4.425967549826284e6 2.679189745942959e7 0.0
2.679189745942959e7 1.1177471006335733e7 0.0
0.0 0.0 0.0

-1.7263724656981267e6 2.713221625527166e7 0.0
2.713221625527166e7 -2.0577282512707205e6 0.0
0.0 0.0 0.0

1.1601044601002121e6 2.4244492998470493e7 0.0
2.4244492998470493e7 -8.795422119663758e6 0.0
0.0 0.0 0.0

972018.7717723697 4.125264960731629e6 0.0
4.125264960731629e6 -5.6408601493647784e7 0.0
0.0 0.0 0.0

-1.0007810243188558e6 1.9799680071589112e7 0.0
1.9799680071589112e7 -3.3359372342215073e6 0.0
0.0 0.0 0.0

1.4834075685688887e7 2.8326124571139585e7 0.0
2.8326124571139585e7 -2.9724177476410465e6 0.0
0.0 0.0 0.0

-1.9099208458218337e6 2.241917003878185e7 0.0
2.241917003878185e7 -1.7275186613357887e7 0.0
0.0 0.0 0.0

8.426694312509822e6 2.5404441005747415e7 0.0
2.5404441005747415e7 1.2830450610091485e7 0.0
0.0 0.0 0.0

-2.4594597557408568e6 1.336435907338354e7 0.0
1.336435907338354e7 -5.8219197598291114e7 0.0
0.0 0.0 0.0

352616.39436293487 2.64592770696245e7 0.0
2.64592770696245e7 -9.655335888771404e6 0.0
0.0 0.0 0.0

6.097575264536789e6 2.506422867955839e7 0.0
2.506422867955839e7 1.68863224574704e7 0.0
0.0 0.0 0.0

3.46534989983765e7 3.4585341546511665e7 0.0
3.4585341546511665e7 -3.6398999438410923e6 0.0
0.0 0.0 0.0

-1.0221348981078621e6 1.3588700998225953e7 0.0
1.3588700998225953e7 -5.043086525391452e7 0.0
0.0 0.0 0.0

-3.919516903628546e7 1.706297462408761e7 0.0
1.706297462408761e7 6.814596957186975e6 0.0
0.0 0.0 0.0

3.571426855654344e6 2.122492133669054e7 0.0
2.122492133669054e7 2.162244722540351e7 0.0
0.0 0.0 0.0

-8.025759381867079e6 3.895455109836589e7 0.0
3.895455109836589e7 5.34562733387296e6 0.0
0.0 0.0 0.0

917640.992620179 2.4099674000620354e7 0.0
2.4099674000620354e7 -1.2271205709816767e7 0.0
0.0 0.0 0.0

-7.226157952135336e6 3.3225301750077624e7 0.0
3.3225301750077624e7 6.901562324328349e6 0.0
0.0 0.0 0.0

-1.918172971219346e6 1.420841224740868e7 0.0
1.420841224740868e7 7.09134852454769e7 0.0
0.0 0.0 0.0

1.3191842042733422e6 1.7463529662923977e7 0.0
1.7463529662923977e7 -2.070423340088527e7 0.0
0.0 0.0 0.0

8.556024029307133e6 3.549576636365833e7 0.0
3.549576636365833e7 -5.795654094935279e6 0.0
0.0 0.0 0.0

-2.5433719120833734e6 1.4075962368029162e7 0.0
1.4075962368029162e7 4.059671927360645e6 0.0
0.0 0.0 0.0

-3.577881894228543e7 1.6264023278372226e7 0.0
1.6264023278372226e7 6.609554044754302e6 0.0
0.0 0.0 0.0

-3.047989324313085e6 1.836949035270514e7 0.0
1.836949035270514e7 969101.9327369656 0.0
0.0 0.0 0.0

-9.4352765988646e6 6.048078934332846e6 0.0
6.048078934332846e6 3.820366032790243e7 0.0
0.0 0.0 0.0

-3.091025301192684e6 1.7612889972680137e7 0.0
1.7612889972680137e7 4.561823131225337e7 0.0
0.0 0.0 0.0

-6.5330586000478305e6 3.686265711374371e7 0.0
3.686265711374371e7 3.99844623499832e6 0.0
0.0 0.0 0.0

-7.0545585306456275e6 4.043849758610387e7 0.0
4.043849758610387e7 4.638713908615697e6 0.0
0.0 0.0 0.0

-3.737831995519787e6 1.362405780148983e7 0.0
1.362405780148983e7 5.664247565283022e7 0.0
0.0 0.0 0.0

1.0568523704471411e6 1.5645893886620333e7 0.0
1.5645893886620333e7 -1.6909894205733813e7 0.0
0.0 0.0 0.0

9.112594322603632e6 2.552182666600912e7 0.0
2.552182666600912e7 2.1962924825775763e6 0.0
0.0 0.0 0.0

-4.339865378586136e6 1.7949323768815067e7 0.0
1.7949323768815067e7 -1.3128085422316043e7 0.0
0.0 0.0 0.0

1.0154534631744586e6 1.040091301107128e7 0.0
1.040091301107128e7 -1.6329506771679046e7 0.0
0.0 0.0 0.0

-4.639689467411112e6 3.6491936251674615e7 0.0
3.6491936251674615e7 4.48966354878594e6 0.0
0.0 0.0 0.0

-5.216512354009617e6 2.0159792491756607e7 0.0
2.0159792491756607e7 3.1051047136983164e7 0.0
0.0 0.0 0.0

-1.8706790667950101e6 1.3908464741458217e7 0.0
1.3908464741458217e7 -5.092811813124085e7 0.0
0.0 0.0 0.0

-2.5552057987841677e7 3.1346061868444998e7 0.0
3.1346061868444998e7 1.3011291748667508e6 0.0
0.0 0.0 0.0

3.895057143593704e6 3.1413647002875853e7 0.0
3.1413647002875853e7 -6.671612116246157e6 0.0
0.0 0.0 0.0

-84243.46458258107 6.030882090931865e6 0.0
6.030882090931865e6 -6.750972844755967e7 0.0
0.0 0.0 0.0

-528996.3575700019 2.251391733088718e7 0.0
2.251391733088718e7 2.3393071884454582e7 0.0
0.0 0.0 0.0

-1.4880544497342613e6 2.7438797782275558e7 0.0
2.7438797782275558e7 2.056843013003034e6 0.0
0.0 0.0 0.0

1.0132310739815887e6 2.385517484890663e7 0.0
2.385517484890663e7 -1.6176826298823431e7 0.0
0.0 0.0 0.0

-1.0904277071801433e7 3.786943150439745e7 0.0
3.786943150439745e7 5.968309133287978e6 0.0
0.0 0.0 0.0

-870965.3439387995 2.7710106059648342e7 0.0
2.7710106059648342e7 -1.116078944054905e6 0.0
0.0 0.0 0.0

-7.853228488864707e6 3.770527022039766e7 0.0
3.770527022039766e7 4.240693697664453e6 0.0
0.0 0.0 0.0

-3.2848902067892896e6 9.506569957160197e6 0.0
9.506569957160197e6 6.540911253464422e6 0.0
0.0 0.0 0.0

7.981347452760317e6 2.0672842202692624e7 0.0
2.0672842202692624e7 2.884164167737162e7 0.0
0.0 0.0 0.0

-1.5463689980492434e6 2.063641477160886e7 0.0
2.063641477160886e7 -2.4696567956493493e7 0.0
0.0 0.0 0.0

-2.1155884594881283e6 1.773956689066054e7 0.0
1.773956689066054e7 2.04892485376423e6 0.0
0.0 0.0 0.0

139904.76698886044 2.2225277308279768e7 0.0
2.2225277308279768e7 -1.9101955370921027e7 0.0
0.0 0.0 0.0

1.782618122808746e6 8.696467480434382e6 0.0
8.696467480434382e6 -2.4875672340828024e7 0.0
0.0 0.0 0.0

1.7624406872894745e7 2.6692395701017458e7 0.0
2.6692395701017458e7 1.265851152407232e7 0.0
0.0 0.0 0.0

-7.235930488959396e6 1.6756871385726645e6 0.0
1.6756871385726645e6 4.736452617278349e7 0.0
0.0 0.0 0.0

8.972082062597753e6 2.0817375070069585e7 0.0
2.0817375070069585e7 3.2888667770736016e7 0.0
0.0 0.0 0.0

-4.243318104557441e6 3.427953369113886e7 0.0
3.427953369113886e7 3.7577132175526815e6 0.0
0.0 0.0 0.0

-1.3497020206821607e6 2.019114105309068e7 0.0
2.019114105309068e7 -2.8285774456256304e7 0.0
0.0 0.0 0.0

7.518769116832128e6 3.472360345925171e7 0.0
3.472360345925171e7 -5.425458500055784e6 0.0
0.0 0.0 0.0

-1.1566081786155195e6 2.241481877560542e7 0.0
2.241481877560542e7 -3.202910231544803e6 0.0
0.0 0.0 0.0

1.8765628829600085e6 1.1961850877663836e7 0.0
1.1961850877663836e7 -3.2160480858705644e7 0.0
0.0 0.0 0.0

3.47849587680728e6 3.054222456183793e7 0.0
3.054222456183793e7 -7.970023860733027e6 0.0
0.0 0.0 0.0

-1.0242814422509316e6 2.1100945403899703e7 0.0
2.1100945403899703e7 -2.2739206514534317e7 0.0
0.0 0.0 0.0

-1.0876605228674125e7 9.128421464451287e6 0.0
9.128421464451287e6 2.0715922942689516e7 0.0
0.0 0.0 0.0

6.088931030211778e6 2.304292489628805e7 0.0
2.304292489628805e7 2.075701243124537e7 0.0
0.0 0.0 0.0

-5.905954531162881e6 2.738374221647866e7 0.0
2.738374221647866e7 1.0568576103787124e7 0.0
0.0 0.0 0.0

-4.8695909185748175e6 3.518114662873564e7 0.0
3.518114662873564e7 3.748173758888704e6 0.0
0.0 0.0 0.0

450815.44837003155 2.271249918956834e7 0.0
2.271249918956834e7 1.4032098000707677e7 0.0
0.0 0.0 0.0

-8.061258901764047e6 5.127951082878121e6 0.0
5.127951082878121e6 1.5424544305041013e7 0.0
0.0 0.0 0.0

-6.710941269794777e6 1.2402147833465854e7 0.0
1.2402147833465854e7 4.773210797957614e7 0.0
0.0 0.0 0.0

743359.228547045 2.286380296435523e7 0.0
2.286380296435523e7 -1.748340869700247e7 0.0
0.0 0.0 0.0

-4.993636592613455e6 1.6574466449161533e7 0.0
1.6574466449161533e7 -7.822643928579792e7 0.0
0.0 0.0 0.0

-6.767137343066632e6 7.034972542542005e6 0.0
7.034972542542005e6 1.3607865798571521e7 0.0
0.0 0.0 0.0

-1.02517520528663e7 4.236226104246314e6 0.0
4.236226104246314e6 2.8492652030156635e7 0.0
0.0 0.0 0.0

-3.3676473627941986e6 2.0641613990684077e7 0.0
2.0641613990684077e7 1.0560857877024893e7 0.0
0.0 0.0 0.0

3.176021587875232e6 3.1711300875305943e7 0.0
3.1711300875305943e7 -5.968784009284104e6 0.0
0.0 0.0 0.0

-6.111140184061239e6 1.8455254454503495e7 0.0
1.8455254454503495e7 -4.998169432182964e7 0.0
0.0 0.0 0.0

2.6452542404857054e6 8.286936676614187e6 0.0
8.286936676614187e6 -2.141319422719254e7 0.0
0.0 0.0 0.0

-2.504767779933785e6 3.457499035648894e7 0.0
3.457499035648894e7 3.444293260953122e6 0.0
0.0 0.0 0.0

4.536898286133576e6 3.09887157683137e7 0.0
3.09887157683137e7 -7.258515802547289e6 0.0
0.0 0.0 0.0

-1.2074848769352075e7 4.721811095226318e7 0.0
4.721811095226318e7 4.189174605928814e6 0.0
0.0 0.0 0.0

-3.363984601284569e6 3.472174826417389e7 0.0
3.472174826417389e7 4.4307594999901885e6 0.0
0.0 0.0 0.0

-3.267614470655324e7 3.3104702324456617e7 0.0
3.3104702324456617e7 -1.4250381752354104e7 0.0
0.0 0.0 0.0

-5.570941057427578e6 2.534409788457364e7 0.0
2.534409788457364e7 -2.2137335773030007e6 0.0
0.0 0.0 0.0

-5.345777871030156e6 1.6484231110507203e7 0.0
1.6484231110507203e7 -7.196402514896606e7 0.0
0.0 0.0 0.0

-3.216097173368871e6 1.698550584495414e7 0.0
1.698550584495414e7 904007.3621072175 0.0
0.0 0.0 0.0

-7.327586207071111e6 3.821847577670981e6 0.0
3.821847577670981e6 5.417361384395479e7 0.0
0.0 0.0 0.0

-5.555410309775911e6 7.609989802322537e6 0.0
7.609989802322537e6 6.2949283776617505e7 0.0
0.0 0.0 0.0

966475.8982576132 7.115408923860064e6 0.0
7.115408923860064e6 -4.892889903287546e7 0.0
0.0 0.0 0.0

-5.285276705912624e6 2.879854055208188e7 0.0
2.879854055208188e7 1.018864002869709e7 0.0
0.0 0.0 0.0

-1.374418006693516e6 1.5648134030385932e7 0.0
1.5648134030385932e7 6.1340880134636976e7 0.0
0.0 0.0 0.0

-448462.2379188221 2.1650076560023807e7 0.0
2.1650076560023807e7 -2.086489139376478e7 0.0
0.0 0.0 0.0

871110.4962913394 1.7770247615111925e7 0.0
1.7770247615111925e7 5.913125197173165e7 0.0
0.0 0.0 0.0

2.6735987992663505e6 3.0942347533575315e7 0.0
3.0942347533575315e7 -7.413842420117497e6 0.0
0.0 0.0 0.0

5.586554879241336e6 3.79521312905934e7 0.0
3.79521312905934e7 -4.44833127217341e6 0.0
0.0 0.0 0.0

-709452.2973279685 2.22467150695705e7 0.0
2.22467150695705e7 -5.561975671698938e6 0.0
0.0 0.0 0.0

-1.0334983888507027e7 7.28225830490459e6 0.0
7.28225830490459e6 2.745091460690865e7 0.0
0.0 0.0 0.0

2.036856505406253e6 2.1925981703591976e7 0.0
2.1925981703591976e7 1.774859353862024e7 0.0
0.0 0.0 0.0

-2.5035109362040283e6 1.9873783505412236e7 0.0
1.9873783505412236e7 1.1922244685940223e7 0.0
0.0 0.0 0.0

1.6282519748842102e6 4.837192975300526e6 0.0
4.837192975300526e6 -4.467352073073957e7 0.0
0.0 0.0 0.0

6.512733028823972e6 2.666174609728492e7 0.0
2.666174609728492e7 -5.562155907320332e6 0.0
0.0 0.0 0.0

-1.7602471791104164e7 2.419285513115586e7 0.0
2.419285513115586e7 -1.8996239920335994e6 0.0
0.0 0.0 0.0

-2.944888231178557e7 2.8247686705582295e7 0.0
2.8247686705582295e7 -1.021613670653011e7 0.0
0.0 0.0 0.0

-2.447991009706509e6 3.53998274903458e7 0.0
3.53998274903458e7 986733.2976842414 0.0
0.0 0.0 0.0

2822.7310662399977 1.5058678729770254e7 0.0
1.5058678729770254e7 -1.5890506194076158e7 0.0
0.0 0.0 0.0

-8.044600440137867e6 2.498258925829792e7 0.0
2.498258925829792e7 -1.995304954045393e6 0.0
0.0 0.0 0.0

3.6236379231865914e6 3.809085992104326e7 0.0
3.809085992104326e7 -2.237225493787938e6 0.0
0.0 0.0 0.0

-1.3178252197002964e6 2.2558734630862266e7 0.0
2.2558734630862266e7 2.4442515778793577e7 0.0
0.0 0.0 0.0

-649047.5080157649 2.3275680648104e7 0.0
2.3275680648104e7 1.3643398055870024e7 0.0
0.0 0.0 0.0

1.0272241234782441e6 1.452008732635632e7 0.0
1.452008732635632e7 -1.5012745486880142e7 0.0
0.0 0.0 0.0

-2.2485184989797533e6 4.044992875295818e7 0.0
4.044992875295818e7 1.824508676716106e6 0.0
0.0 0.0 0.0

-8.726701789639998e6 3.428127689289929e6 0.0
3.428127689289929e6 4.154511460295893e7 0.0
0.0 0.0 0.0

2.612798211197417e6 6.16236988982109e6 0.0
6.16236988982109e6 -3.46441968094967e7 0.0
0.0 0.0 0.0

1.6809653025669726e6 3.43272313845025e7 0.0
3.43272313845025e7 -2.369668409228707e6 0.0
0.0 0.0 0.0

-1.6157258072688961e6 2.1050072980276525e7 0.0
2.1050072980276525e7 -2.5347318229498435e7 0.0
0.0 0.0 0.0

-6.915519675082695e6 -353806.9066453456 0.0
-353806.9066453456 1.268477591745596e7 0.0
0.0 0.0 0.0

507703.83052333817 1.1035037523256188e7 0.0
1.1035037523256188e7 -1.4670705090976462e7 0.0
0.0 0.0 0.0

-1.315979949323995e7 2.7922281649880704e7 0.0
2.7922281649880704e7 -1.283442882315188e7 0.0
0.0 0.0 0.0

1.6467609677263014e6 1.3500688982179558e7 0.0
1.3500688982179558e7 -3.103766703184629e7 0.0
0.0 0.0 0.0

1.711942868196208e7 2.7575309666719418e7 0.0
2.7575309666719418e7 1.529162127111714e7 0.0
0.0 0.0 0.0

-5.242301869011708e6 1.0518028132941447e7 0.0
1.0518028132941447e7 4.881243657674853e6 0.0
0.0 0.0 0.0

-9.263307564016616e6 5.349376296582414e6 0.0
5.349376296582414e6 1.109273108479292e7 0.0
0.0 0.0 0.0

1.3307962461539578e7 3.5740935157551475e7 0.0
3.5740935157551475e7 -5.61244861092543e6 0.0
0.0 0.0 0.0

-8.669716545027805e6 3.9077943717090124e6 0.0
3.9077943717090124e6 4.024824203550842e7 0.0
0.0 0.0 0.0

1.0480033814992569e6 1.9031367154291093e7 0.0
1.9031367154291093e7 -1.754058640823443e7 0.0
0.0 0.0 0.0

2.1893898014338026e6 2.2876155988539174e7 0.0
2.2876155988539174e7 3.500986627594891e6 0.0
0.0 0.0 0.0

2.3141590849699408e7 2.998480763997919e7 0.0
2.998480763997919e7 -2.043095100061451e6 0.0
0.0 0.0 0.0

1.0062172979907338e6 2.0256736728043634e7 0.0
2.0256736728043634e7 -2.1791453949076094e7 0.0
0.0 0.0 0.0

1.1665208117958305e7 2.1531486685472216e7 0.0
2.1531486685472216e7 4.3423461212138675e7 0.0
0.0 0.0 0.0

-9.980126696621176e6 3.2955594430744853e7 0.0
3.2955594430744853e7 6.75167312658554e6 0.0
0.0 0.0 0.0

-6.987236231386468e6 3.8665143319998723e6 0.0
3.8665143319998723e6 5.031822005203286e7 0.0
0.0 0.0 0.0

2.6138473935064897e6 3.446709734527376e7 0.0
3.446709734527376e7 -3.0203556032142937e6 0.0
0.0 0.0 0.0

2.0450276103750104e6 2.269149735012906e7 0.0
2.269149735012906e7 2.464621336728564e7 0.0
0.0 0.0 0.0

1.2589969708248675e6 1.2832478059044689e7 0.0
1.2832478059044689e7 -2.5592859664284214e7 0.0
0.0 0.0 0.0

1.909007699709203e6 5.243023531824787e6 0.0
5.243023531824787e6 -5.033402818565548e7 0.0
0.0 0.0 0.0

-1.4801887201986646e6 2.7512447305810817e7 0.0
2.7512447305810817e7 -3.09847365066014e6 0.0
0.0 0.0 0.0

-7.543342511315311e6 1.4324376493019039e7 0.0
1.4324376493019039e7 2.031099825531418e7 0.0
0.0 0.0 0.0

-4.817938590539472e6 1.8635580195660498e7 0.0
1.8635580195660498e7 3.7754616275598176e7 0.0
0.0 0.0 0.0

-1.8670666348185735e6 1.9743131096126124e7 0.0
1.9743131096126124e7 -3.045491486150512e7 0.0
0.0 0.0 0.0

-4.637053725109503e6 1.5904926018360427e7 0.0
1.5904926018360427e7 -6.6877313650626026e7 0.0
0.0 0.0 0.0

3.1727766444240613e6 3.531827848484442e7 0.0
3.531827848484442e7 -3.017596317670275e6 0.0
0.0 0.0 0.0

-172165.2572991876 2.2985167886285108e7 0.0
2.2985167886285108e7 1.0870822876207763e7 0.0
0.0 0.0 0.0

-4.447944792613134e7 1.7483860221450455e7 0.0
1.7483860221450455e7 6.071051332605172e6 0.0
0.0 0.0 0.0

1.2720258497166105e7 2.1989617731049042e7 0.0
2.1989617731049042e7 4.8616172704441994e7 0.0
0.0 0.0 0.0

-3.998198829070472e7 3.96977879255286e7 0.0
3.96977879255286e7 5.645292076322855e6 0.0
0.0 0.0 0.0

673196.5218452327 1.2376407216966316e7 0.0
1.2376407216966316e7 -3.7934678914695464e7 0.0
0.0 0.0 0.0

1.003738741414147e7 6.169517233452162e6 0.0
6.169517233452162e6 -1.5580896232856065e6 0.0
0.0 0.0 0.0

-2.024671935453234e7 2.353983940169469e6 0.0
2.353983940169469e6 5.889727208409998e6 0.0
0.0 0.0 0.0

-7.785334499631733e6 1.3038936088945879e7 0.0
1.3038936088945879e7 1.845580283684903e7 0.0
0.0 0.0 0.0

-7.527414528375179e6 5.285772185340681e6 0.0
5.285772185340681e6 4.78547975255405e7 0.0
0.0 0.0 0.0

-9.104308394312961e6 6.072963645658189e6 0.0
6.072963645658189e6 4.0182010063260004e7 0.0
0.0 0.0 0.0

81471.50555481669 2.2601240823713966e7 0.0
2.2601240823713966e7 -1.973763499231616e7 0.0
0.0 0.0 0.0

-3.251459232019416e6 1.934010368433607e7 0.0
1.934010368433607e7 -1.083819733969003e7 0.0
0.0 0.0 0.0

3.155466582741825e6 1.9527698782797605e7 0.0
1.9527698782797605e7 1.0518221937570423e7 0.0
0.0 0.0 0.0

1.670004121762352e6 2.264045341481386e7 0.0
2.264045341481386e7 99669.01694098895 0.0
0.0 0.0 0.0

3.80337231147533e6 3.6169612622353375e7 0.0
3.6169612622353375e7 -2.940987616932178e6 0.0
0.0 0.0 0.0

-9.24360553344252e6 1.3924535699289242e7 0.0
1.3924535699289242e7 2.5293292434105232e7 0.0
0.0 0.0 0.0

623471.4203505926 2.1072686160254367e7 0.0
2.1072686160254367e7 -2.0325187495540444e7 0.0
0.0 0.0 0.0

-2.648267328017717e6 2.9811168087830827e7 0.0
2.9811168087830827e7 3.645511658547337e6 0.0
0.0 0.0 0.0

555983.6084721461 9.913775577507313e6 0.0
9.913775577507313e6 -4.502937289630364e7 0.0
0.0 0.0 0.0

-8.244752585556965e6 4.769764253114673e6 0.0
4.769764253114673e6 4.300646073384186e7 0.0
0.0 0.0 0.0

2.9402631576167834e6 3.358472161871934e7 0.0
3.358472161871934e7 -4.034071516046985e6 0.0
0.0 0.0 0.0

-845401.4148460925 2.3119279680913407e7 0.0
2.3119279680913407e7 7.698821920799458e6 0.0
0.0 0.0 0.0

-1.5826743869341535e6 2.336888037818866e7 0.0
2.336888037818866e7 4.58796267077433e6 0.0
0.0 0.0 0.0

-8.81610335196162e6 2.7138401385136332e7 0.0
2.7138401385136332e7 -1.4939573177755697e7 0.0
0.0 0.0 0.0

9.253222546700692e6 1.8524373869192544e7 0.0
1.8524373869192544e7 3.2289487792922422e7 0.0
0.0 0.0 0.0

-1.0475908371154059e7 2.5919969828112073e7 0.0
2.5919969828112073e7 -1.2715423375715224e7 0.0
0.0 0.0 0.0

-3.7303377461337913e6 1.6515345259976523e7 0.0
1.6515345259976523e7 4.812553927334116e7 0.0
0.0 0.0 0.0

-7.650476509631947e6 3.771939597237524e6 0.0
3.771939597237524e6 5.022578698914321e7 0.0
0.0 0.0 0.0

1.9953502079609782e6 1.2306723638060119e7 0.0
1.2306723638060119e7 -2.4719519851082463e7 0.0
0.0 0.0 0.0

928997.8757133409 6.127737874441237e6 0.0
6.127737874441237e6 -5.146467755810505e7 0.0
0.0 0.0 0.0

1.2552688388467794e6 2.169763037755105e7 0.0
2.169763037755105e7 -1.8675540389132954e7 0.0
0.0 0.0 0.0

1.0811840835371833e7 2.6265309152458247e7 0.0
2.6265309152458247e7 1.2769395816600494e7 0.0
0.0 0.0 0.0

2.0109402601234978e6 7.352926623980537e6 0.0
7.352926623980537e6 -2.291623031987192e7 0.0
0.0 0.0 0.0

-9.626989340518167e6 2.02190102913064e7 0.0
2.02190102913064e7 -3.9149301996065296e7 0.0
0.0 0.0 0.0

-4.0554804249517843e6 1.5558532995381955e7 0.0
1.5558532995381955e7 -6.2096848077233e7 0.0
0.0 0.0 0.0

-3.311511550404537e6 1.9608943526954234e7 0.0
1.9608943526954234e7 7.585486041863493e6 0.0
0.0 0.0 0.0

-7.022744932632441e6 2.9270467172100626e7 0.0
2.9270467172100626e7 9.612884710484823e6 0.0
0.0 0.0 0.0

-1.37147520900069e7 2.6826341166003916e7 0.0
2.6826341166003916e7 -1.3474967228710482e7 0.0
0.0 0.0 0.0

-5.674991108750001e6 4.427527502132209e6 0.0
4.427527502132209e6 6.165278927694668e7 0.0
0.0 0.0 0.0

-3.4501859659752194e6 1.5414194221559994e7 0.0
1.5414194221559994e7 -5.794350467727138e7 0.0
0.0 0.0 0.0

-3.4423797904827e6 1.5807068372352544e7 0.0
1.5807068372352544e7 5.149076022408541e7 0.0
0.0 0.0 0.0

-2.4980724671158753e6 2.358296490685973e7 0.0
2.358296490685973e7 1.4458065394901687e6 0.0
0.0 0.0 0.0

2.144088072901965e6 3.571808923229505e7 0.0
3.571808923229505e7 -3.6477785893906467e6 0.0
0.0 0.0 0.0

-1.5889035149133358e7 3.219968737981651e7 0.0
3.219968737981651e7 4.86184357322495e6 0.0
0.0 0.0 0.0

-5.716706058437791e6 1.7828568575128667e7 0.0
1.7828568575128667e7 3.724472541365739e7 0.0
0.0 0.0 0.0

-6.541057777091581e6 1.768453381422745e7 0.0
1.768453381422745e7 -2.1906151067401547e7 0.0
0.0 0.0 0.0

6.059174450566626e6 2.03392030554673e7 0.0
2.03392030554673e7 1.9507509496800393e7 0.0
0.0 0.0 0.0

852315.8961679041 7.869398476653474e6 0.0
7.869398476653474e6 -4.6685621833259e7 0.0
0.0 0.0 0.0

940659.9699330637 1.0199701558525749e7 0.0
1.0199701558525749e7 -1.6168569899542747e7 0.0
0.0 0.0 0.0

-5.699362671231272e6 1.346631992293607e7 0.0
1.346631992293607e7 4.907075567931817e7 0.0
0.0 0.0 0.0

-3.068653723287225e6 2.5182423411182377e7 0.0
2.5182423411182377e7 1.3931670363539258e7 0.0
0.0 0.0 0.0

-3.9418948285427295e7 3.2908659229518756e7 0.0
3.2908659229518756e7 -747018.2146541178 0.0
0.0 0.0 0.0

-1.2069207252118867e6 1.766258100909572e7 0.0
1.766258100909572e7 -3.352734724914451e7 0.0
0.0 0.0 0.0

208003.12141626887 1.1711040302103488e7 0.0
1.1711040302103488e7 -4.3230081060456485e7 0.0
0.0 0.0 0.0

-2.8267316059744526e6 1.5433164267219778e7 0.0
1.5433164267219778e7 -5.405331442518677e7 0.0
0.0 0.0 0.0

2.5510032821680163e6 4.449573242600142e6 0.0
4.449573242600142e6 -1.1559386137198266e7 0.0
0.0 0.0 0.0

1.1879553119006632e6 2.433889199990111e7 0.0
2.433889199990111e7 -1.2919068183381062e7 0.0
0.0 0.0 0.0

3.438428862219182e6 2.6459528255209718e7 0.0
2.6459528255209718e7 -1.0237056092537649e7 0.0
0.0 0.0 0.0

-2.496448066690766e7 4.432365713604345e7 0.0
4.432365713604345e7 7.312846508361092e6 0.0
0.0 0.0 0.0

1.3207544672119343e6 4.6185346175532555e6 0.0
4.6185346175532555e6 -5.743050781564906e6 0.0
0.0 0.0 0.0

-1.0226694616766246e6 2.152660389350422e7 0.0
2.152660389350422e7 -2.3302187325257313e7 0.0
0.0 0.0 0.0

-4.459574549436973e6 2.0221369710907742e7 0.0
2.0221369710907742e7 3.121014801421089e7 0.0
0.0 0.0 0.0

-9.131829996027209e6 4.911796052254901e6 0.0
4.911796052254901e6 3.5503029245993674e7 0.0
0.0 0.0 0.0

1.5458415401749928e6 5.592190161549678e6 0.0
5.592190161549678e6 -4.271605253100172e7 0.0
0.0 0.0 0.0

-9.45133197295029e6 7.780067869904374e6 0.0
7.780067869904374e6 3.47997017723094e7 0.0
0.0 0.0 0.0

-8.362242294900717e6 7.565615454311155e6 0.0
7.565615454311155e6 4.191681662741926e7 0.0
0.0 0.0 0.0

-8.76463860069131e6 1.3312694061092084e7 0.0
1.3312694061092084e7 2.1947413601093866e7 0.0
0.0 0.0 0.0

-4.50580558515029e6 2.6856476451054405e7 0.0
2.6856476451054405e7 1.372202705997824e7 0.0
0.0 0.0 0.0

-2.1764729213219583e6 1.4831578428178623e7 0.0
1.4831578428178623e7 2.0463761167122715e6 0.0
0.0 0.0 0.0

2.822390859800079e7 6.3829868967392985e6 0.0
6.3829868967392985e6 -1.5954166978769805e6 0.0
0.0 0.0 0.0

-3.8828653703026995e7 4.392778254207971e6 0.0
4.392778254207971e6 5.776441136686403e6 0.0
0.0 0.0 0.0

2.309644320015222e6 9.414295212384509e6 0.0
9.414295212384509e6 -1.7513447160668135e7 0.0
0.0 0.0 0.0

1.0825992418092676e6 1.1235588588541085e7 0.0
1.1235588588541085e7 -4.2509567015063636e7 0.0
0.0 0.0 0.0

1.4905300001178235e6 9.265085314533437e6 0.0
9.265085314533437e6 -4.404858369770533e7 0.0
0.0 0.0 0.0

138017.80237033346 2.9877264224949745e6 0.0
2.9877264224949745e6 1.9406827933712287e6 0.0
0.0 0.0 0.0

-5.235933886863198e6 -186237.26830180374 0.0
-186237.26830180374 3.9174004962258027e6 0.0
0.0 0.0 0.0

-6.643124341257596e6 2.049675558410507e7 0.0
2.049675558410507e7 -3.477402550292963e7 0.0
0.0 0.0 0.0

1.1748833089767694e6 6.056596976524047e6 0.0
6.056596976524047e6 -4.817113445322606e7 0.0
0.0 0.0 0.0

-3.441528421793784e7 2.9783925720049933e7 0.0
2.9783925720049933e7 -1.4899557766150244e7 0.0
0.0 0.0 0.0

-4.0153312726560393e6 2.3529901099968776e7 0.0
2.3529901099968776e7 1.9530793378811017e7 0.0
0.0 0.0 0.0

3.1242705359661407e6 3.2659122272833202e7 0.0
3.2659122272833202e7 -4.978681136658828e6 0.0
0.0 0.0 0.0

8.087270629440302e6 1.8406784900266502e7 0.0
1.8406784900266502e7 2.8213940729464192e7 0.0
0.0 0.0 0.0

1.6788916175062124e7 1.2593946609461669e7 0.0
1.2593946609461669e7 1.8577639935969803e6 0.0
0.0 0.0 0.0

-1.6821289170066647e7 2.9663204361569084e7 0.0
2.9663204361569084e7 -1.4102108968934482e7 0.0
0.0 0.0 0.0

-6.446144546270687e6 7.787677425156586e6 0.0
7.787677425156586e6 5.38718101940766e7 0.0
0.0 0.0 0.0

-6.616096816326302e6 2.8293758305341344e7 0.0
2.8293758305341344e7 1.0124165711389042e7 0.0
0.0 0.0 0.0

4.276356004472984e6 2.6637261454083037e7 0.0
2.6637261454083037e7 -8.71044403527583e6 0.0
0.0 0.0 0.0

-4.327641120766494e6 2.0771237562128447e7 0.0
2.0771237562128447e7 2.939573439053668e7 0.0
0.0 0.0 0.0

-8.503996658398842e6 987876.8282079004 0.0
987876.8282079004 3.546754316978894e7 0.0
0.0 0.0 0.0

1.1848783796531665e6 3.399217392686548e7 0.0
3.399217392686548e7 -3.759429524280168e6 0.0
0.0 0.0 0.0

625866.9756683856 1.156411338403293e7 0.0
1.156411338403293e7 -4.031241194793903e7 0.0
0.0 0.0 0.0

5.5705453249206245e6 3.15574312825886e7 0.0
3.15574312825886e7 -6.982787704580953e6 0.0
0.0 0.0 0.0

1.819874215605501e6 7.380924436555423e6 0.0
7.380924436555423e6 -4.591021019882478e7 0.0
0.0 0.0 0.0

7.707351800103333e6 2.1069229818768736e7 0.0
2.1069229818768736e7 2.2960249478373602e7 0.0
0.0 0.0 0.0

127452.55334498454 2.513613056082109e7 0.0
2.513613056082109e7 -1.1236657975943282e7 0.0
0.0 0.0 0.0

-1.109204655775702e7 5.058077308519321e6 0.0
5.058077308519321e6 2.1324048736383744e7 0.0
0.0 0.0 0.0

-3.7008772038982953e6 1.911202954204055e7 0.0
1.911202954204055e7 -1.1086206224952629e7 0.0
0.0 0.0 0.0

2.1066928354696203e6 5.2691691449813275e6 0.0
5.2691691449813275e6 -4.696425042545442e7 0.0
0.0 0.0 0.0

1.9563041287318118e7 3.176384870484127e7 0.0
3.176384870484127e7 -3.9348665069793854e6 0.0
0.0 0.0 0.0

1.7738209525529435e6 8.281369737471349e6 0.0
8.281369737471349e6 -2.142964933412408e7 0.0
0.0 0.0 0.0

-1.106110398254285e7 9.675140934218476e6 0.0
9.675140934218476e6 2.579649790725028e7 0.0
0.0 0.0 0.0

-3.698123678841274e6 3.337256969725958e7 0.0
3.337256969725958e7 3.653276612568112e6 0.0
0.0 0.0 0.0

-2.5567918152596056e6 1.548060512998569e7 0.0
1.548060512998569e7 -5.030402630590719e7 0.0
0.0 0.0 0.0

-5.836747314974143e6 1.9065885126204528e7 0.0
1.9065885126204528e7 -1.9455824143076345e7 0.0
0.0 0.0 0.0

5.500503918273264e6 1.9446620747883003e7 0.0
1.9446620747883003e7 1.833501342685311e7 0.0
0.0 0.0 0.0

-2.436069509817036e6 1.5599286324196145e7 0.0
1.5599286324196145e7 3.9467151803399893e6 0.0
0.0 0.0 0.0

-4.460336206962463e6 1.792466745179151e7 0.0
1.792466745179151e7 1.164169925534445e7 0.0
0.0 0.0 0.0

3.990538744107362e6 2.1998562410862774e7 0.0
2.1998562410862774e7 2.4487587621153757e7 0.0
0.0 0.0 0.0

-9.244295689717233e6 2.638802001179996e6 0.0
2.638802001179996e6 3.0916380766742885e7 0.0
0.0 0.0 0.0

3.235753618480798e6 2.4589386756648414e7 0.0
2.4589386756648414e7 6.328317419976205e6 0.0
0.0 0.0 0.0

-3.6056782391450154e6 2.6085269320287436e7 0.0
2.6085269320287436e7 1.4610148673426084e7 0.0
0.0 0.0 0.0

1.6306258560623582e6 8.509676929432407e6 0.0
8.509676929432407e6 -1.8937574309229225e7 0.0
0.0 0.0 0.0

-1.0177714399393741e7 6.253370591994992e6 0.0
6.253370591994992e6 3.2753390940894764e7 0.0
0.0 0.0 0.0

-8.61269294750243e6 2.5395218234469395e7 0.0
2.5395218234469395e7 -1.0568138822458543e7 0.0
0.0 0.0 0.0

-4.825894900131747e6 2.133895924721533e7 0.0
2.133895924721533e7 2.7718937479033288e7 0.0
0.0 0.0 0.0

953457.9318071567 2.3053493894788224e7 0.0
2.3053493894788224e7 1.9694797823237065e7 0.0
0.0 0.0 0.0

-9.427652683835475e6 1.0550056278059864e7 0.0
1.0550056278059864e7 3.4053603554608315e7 0.0
0.0 0.0 0.0

3.494701758689349e6 2.6045774426356856e7 0.0
2.6045774426356856e7 -1.1376709139152013e7 0.0
0.0 0.0 0.0

-7.009433757773556e6 3.2082273470933713e7 0.0
3.2082273470933713e7 7.65174079250175e6 0.0
0.0 0.0 0.0

-6.501191833972933e6 1.1732873554286206e7 0.0
1.1732873554286206e7 4.846379967091541e7 0.0
0.0 0.0 0.0

-8.3040968361631585e6 1.5256511730026025e7 0.0
1.5256511730026025e7 1.84456059747953e7 0.0
0.0 0.0 0.0

-7.979290264343502e6 5.2722770735444715e6 0.0
5.2722770735444715e6 4.738214651627665e7 0.0
0.0 0.0 0.0

562899.2638605554 2.0366984062596727e7 0.0
2.0366984062596727e7 -2.1965279929962844e7 0.0
0.0 0.0 0.0

-5.956649080061628e6 2.8497004669838157e7 0.0
2.8497004669838157e7 1.1035893609293593e7 0.0
0.0 0.0 0.0

-3.4298922851295066e6 2.377549859822099e7 0.0
2.377549859822099e7 -1.6239957030496798e6 0.0
0.0 0.0 0.0

2.4661591101547107e6 9.56005727514837e6 0.0
9.56005727514837e6 -2.3396542109823503e7 0.0
0.0 0.0 0.0

-8.181661208257696e6 1.7478539053119707e6 0.0
1.7478539053119707e6 3.939787729630875e7 0.0
0.0 0.0 0.0

-46519.16512780264 1.8075532132246662e7 0.0
1.8075532132246662e7 5.4885979944483675e7 0.0
0.0 0.0 0.0

-4.221512603995431e6 1.4482044621802203e7 0.0
1.4482044621802203e7 5.261316058888018e7 0.0
0.0 0.0 0.0

3.0613001970022544e6 2.2894175299920935e7 0.0
2.2894175299920935e7 1.3444066875748714e7 0.0
0.0 0.0 0.0

-1.0313411152492931e7 9.092695898845034e6 0.0
9.092695898845034e6 3.2082053801080935e7 0.0
0.0 0.0 0.0

-3.457592689945751e6 1.7132500420129843e7 0.0
1.7132500420129843e7 1.3122322810255947e7 0.0
0.0 0.0 0.0

-518303.34800095856 2.3752744873143148e7 0.0
2.3752744873143148e7 -6.741714514333511e6 0.0
0.0 0.0 0.0

364882.40126058925 1.8289442065362938e7 0.0
1.8289442065362938e7 -1.871757910744574e7 0.0
0.0 0.0 0.0

-3.8108693958166568e6 2.6087167066952646e7 0.0
2.6087167066952646e7 1.5806437377968121e7 0.0
0.0 0.0 0.0

-5.537864517825865e6 3.729714096092399e7 0.0
3.729714096092399e7 4.67643718704365e6 0.0
0.0 0.0 0.0

-6.939460973937834e6 1.5376554873699242e7 0.0
1.5376554873699242e7 4.0204780659284316e7 0.0
0.0 0.0 0.0

1.1525022233914873e7 1.8872606243038047e7 0.0
1.8872606243038047e7 4.1226116187945664e7 0.0
0.0 0.0 0.0

36444.87696209829 2.3763136907878976e7 0.0
2.3763136907878976e7 -1.017547502201549e7 0.0
0.0 0.0 0.0

1.8236480353721827e6 1.2802298838569734e7 0.0
1.2802298838569734e7 -3.0486913979794867e7 0.0
0.0 0.0 0.0

1.6858689199110419e6 2.9468690587752624e6 0.0
2.9468690587752624e6 -5.06688354404796e7 0.0
0.0 0.0 0.0

-7.932713555015596e6 1.8746060159725798e6 0.0
1.8746060159725798e6 4.414348428076097e7 0.0
0.0 0.0 0.0

-3.3341077232613545e6 2.600506000207384e7 0.0
2.600506000207384e7 1.4460593091304393e7 0.0
0.0 0.0 0.0

443673.5503831366 1.8658415271179143e7 0.0
1.8658415271179143e7 1.8674236838213004e7 0.0
0.0 0.0 0.0

3.8610315185864754e6 1.8598257503867865e7 0.0
1.8598257503867865e7 7.782399242336336e7 0.0
0.0 0.0 0.0

61472.24912770279 1.7326445056910463e7 0.0
1.7326445056910463e7 -1.7218857805790763e7 0.0
0.0 0.0 0.0

9.08463879106618e6 1.9681094844527554e7 0.0
1.9681094844527554e7 3.028212971630016e7 0.0
0.0 0.0 0.0

-9.514588230974842e6 2.2793430329287145e6 0.0
2.2793430329287145e6 3.2945044812022492e7 0.0
0.0 0.0 0.0

-2.560811025825674e7 2.886269463857365e6 0.0
2.886269463857365e6 7.451462500702441e6 0.0
0.0 0.0 0.0

1.157782829194257e6 1.077835241096521e7 0.0
1.077835241096521e7 -3.6640957822534606e7 0.0
0.0 0.0 0.0

-1.080272478346112e7 7.160205581318174e6 0.0
7.160205581318174e6 2.824430634531657e7 0.0
0.0 0.0 0.0

275260.3375256974 1.244598641927147e7 0.0
1.244598641927147e7 -4.076402697582503e7 0.0
0.0 0.0 0.0

-3.588458553012494e6 1.86581801078954e7 0.0
1.86581801078954e7 3.9885203521855325e7 0.0
0.0 0.0 0.0

2.888552062977176e6 3.3167405865557585e6 0.0
3.3167405865557585e6 -3.1418447919827294e7 0.0
0.0 0.0 0.0

1.6175549913957061e7 3.2960548365292557e7 0.0
3.2960548365292557e7 -4.87255259818279e6 0.0
0.0 0.0 0.0

-1.9170092245625858e6 1.6995912649426002e7 0.0
1.6995912649426002e7 268181.423471467 0.0
0.0 0.0 0.0

710408.8689380018 7.37900737092485e6 0.0
7.37900737092485e6 -3.942270531593997e6 0.0
0.0 0.0 0.0

4.006351314407979e7 6.671063019903292e6 0.0
6.671063019903292e6 -1.0752516383901965e6 0.0
0.0 0.0 0.0

-1.9501868681494556e6 1.9228009738714915e7 0.0
1.9228009738714915e7 4.158835143272479e7 0.0
0.0 0.0 0.0

-1.5029607652579395e6 1.2243525499737663e7 0.0
1.2243525499737663e7 -6.499134424379244e6 0.0
0.0 0.0 0.0

-8.597086474190917e6 6.756672587704671e6 0.0
6.756672587704671e6 4.455114197488424e7 0.0
0.0 0.0 0.0

1.624201152892494e6 5.9104525867417175e6 0.0
5.9104525867417175e6 -1.1315994932325963e7 0.0
0.0 0.0 0.0

-7.522566363886563e6 2.4949766382175606e7 0.0
2.4949766382175606e7 -7.819544346523507e6 0.0
0.0 0.0 0.0

-3.1111307194854887e6 2.364766195392667e7 0.0
2.364766195392667e7 1.9658186416560978e7 0.0
0.0 0.0 0.0

-1.0066818313701339e7 1.1180534608342428e7 0.0
1.1180534608342428e7 2.7797159304373324e7 0.0
0.0 0.0 0.0

1.3277319718066938e6 9.108787522834063e6 0.0
9.108787522834063e6 -3.7896177953805886e7 0.0
0.0 0.0 0.0

-8.42024469126805e6 1.864832546338735e7 0.0
1.864832546338735e7 -4.7838658874787405e7 0.0
0.0 0.0 0.0

-8.822611247705726e6 8.347191814248674e6 0.0
8.347191814248674e6 1.136672122146391e7 0.0
0.0 0.0 0.0

2.4672182328721806e6 3.5735835599027616e6 0.0
3.5735835599027616e6 -2.853826064059389e7 0.0
0.0 0.0 0.0

45249.145604978316 2.135456618418841e7 0.0
2.135456618418841e7 -1.5792195551937884e7 0.0
0.0 0.0 0.0

2.584662408989929e7 2.6477389104421202e7 0.0
2.6477389104421202e7 1.0470889981653068e7 0.0
0.0 0.0 0.0

1.7297007376778126e6 6.44048421982381e6 0.0
6.44048421982381e6 -5.127404704260385e7 0.0
0.0 0.0 0.0

-1.3394352829692718e7 996749.0578261856 0.0
996749.0578261856 6.690398522533704e6 0.0
0.0 0.0 0.0

-4.211326018729271e6 2.161215206630711e7 0.0
2.161215206630711e7 2.543675557718519e7 0.0
0.0 0.0 0.0

-2.552472481826814e6 1.0673531013356188e7 0.0
1.0673531013356188e7 4.239154329059057e6 0.0
0.0 0.0 0.0

-9.918620953363752e6 1.0206724962666871e7 0.0
1.0206724962666871e7 3.0480758340183068e7 0.0
0.0 0.0 0.0

1.2585495506451167e6 6.965595937531029e6 0.0
6.965595937531029e6 -5.9342841668206505e7 0.0
0.0 0.0 0.0

1.3186909750671292e7 2.0491729249754217e7 0.0
2.0491729249754217e7 4.395636643792479e7 0.0
0.0 0.0 0.0

1.3009699382507239e7 2.7214699762731932e7 0.0
2.7214699762731932e7 1.495785099713957e7 0.0
0.0 0.0 0.0

-7.0812562620219495e6 2.0682676866140492e7 0.0
2.0682676866140492e7 -2.8209652325398818e7 0.0
0.0 0.0 0.0

-355114.46740875486 1.5805177648488747e7 0.0
1.5805177648488747e7 -1.4429067443475435e7 0.0
0.0 0.0 0.0

-2.9921693311993703e6 2.4555164310746588e7 0.0
2.4555164310746588e7 1.8160672143230706e7 0.0
0.0 0.0 0.0

1.3609762811376352e7 2.4859611078573696e7 0.0
2.4859611078573696e7 1.8254374082215768e6 0.0
0.0 0.0 0.0

925452.4162632842 1.2348822636487408e7 0.0
1.2348822636487408e7 -3.53200206447745e7 0.0
0.0 0.0 0.0

2.649237471940617e6 3.6593784886018716e7 0.0
3.6593784886018716e7 -3.6057067115928335e6 0.0
0.0 0.0 0.0

226769.61381661054 2.1449097355803408e7 0.0
2.1449097355803408e7 5.006383746126016e6 0.0
0.0 0.0 0.0

-8.154388617083296e7 7.740501672663817e6 0.0
7.740501672663817e6 2.5849402503550053e6 0.0
0.0 0.0 0.0

7.131834621741328e7 8.534986694989013e6 0.0
8.534986694989013e6 220465.93131083623 0.0
0.0 0.0 0.0

6.1910747275043465e6 2.480253961522108e7 0.0
2.480253961522108e7 1.1035414238151215e7 0.0
0.0 0.0 0.0

-3.898262958059266e6 9.842732732887633e6 0.0
9.842732732887633e6 3.153711212764277e7 0.0
0.0 0.0 0.0

2.2004167685467433e6 2.2592734227207977e7 0.0
2.2592734227207977e7 2.0229445088403273e7 0.0
0.0 0.0 0.0

4.212523189014802e6 3.001720390587953e7 0.0
3.001720390587953e7 -8.408624575464007e6 0.0
0.0 0.0 0.0

6.123914252795141e6 2.25669599370946e7 0.0
2.25669599370946e7 2.04130481082044e7 0.0
0.0 0.0 0.0

-1.0227740819909286e7 1.0213499383504469e7 0.0
1.0213499383504469e7 2.6892588616521034e7 0.0
0.0 0.0 0.0

-2.2512028647800516e6 2.428362939238404e7 0.0
2.428362939238404e7 1.2680043861513069e7 0.0
0.0 0.0 0.0

-5.717013724066575e7 4.1488837232732974e7 0.0
4.1488837232732974e7 -1.477838403495861e7 0.0
0.0 0.0 0.0

2.0109624108040538e6 4.253582288174344e6 0.0
4.253582288174344e6 -3.5718151765863106e7 0.0
0.0 0.0 0.0

-4.365209370887664e6 2.4041778286866028e7 0.0
2.4041778286866028e7 -4.583978636836381e6 0.0
0.0 0.0 0.0

1.250263360297854e7 1.9124855462413415e7 0.0
1.9124855462413415e7 4.6409993005725086e7 0.0
0.0 0.0 0.0

-8.52026949005499e6 1.8956166184930664e7 0.0
1.8956166184930664e7 -2.840089821549339e7 0.0
0.0 0.0 0.0

7.885709651423242e6 1.95109183514516e7 0.0
1.95109183514516e7 2.628569978021967e7 0.0
0.0 0.0 0.0

-2.0896639058357347e6 1.5826983068704067e7 0.0
1.5826983068704067e7 -4.7205236122381754e7 0.0
0.0 0.0 0.0

-9.009919074993761e6 3.6360072123596864e6 0.0
3.6360072123596864e6 3.4673282152592674e7 0.0
0.0 0.0 0.0

-2.0891841212583713e7 3.544156901412305e7 0.0
3.544156901412305e7 5.875393421876193e6 0.0
0.0 0.0 0.0

1.6976180573963616e6 8.950094130406952e6 0.0
8.950094130406952e6 -2.24651183019313e7 0.0
0.0 0.0 0.0

-2.219542546454763e6 1.9648593792212162e7 0.0
1.9648593792212162e7 3.911717558087465e7 0.0
0.0 0.0 0.0

-1.125475016039812e7 7.544162517729729e6 0.0
7.544162517729729e6 2.3419659459242202e7 0.0
0.0 0.0 0.0

-6.168651321390028e6 3.616606228825335e7 0.0
3.616606228825335e7 5.35653045980835e6 0.0
0.0 0.0 0.0

-1.4481957581191614e7 4.10781176887277e7 0.0
4.10781176887277e7 6.122336283181558e6 0.0
0.0 0.0 0.0

-1.3483659784242474e7 1.103894439899244e6 0.0
1.103894439899244e6 6.487416706983229e6 0.0
0.0 0.0 0.0

-3.9198947369901403e6 2.0387892384582993e7 0.0
2.0387892384582993e7 -1.3489711534779817e7 0.0
0.0 0.0 0.0

3.362353733036186e6 2.924859018118959e7 0.0
2.924859018118959e7 -8.67246646052768e6 0.0
0.0 0.0 0.0

-1.0501199238812078e7 4.223702153578516e6 0.0
4.223702153578516e6 1.4296016780327883e7 0.0
0.0 0.0 0.0

1.3099024046391284e7 3.3643962772824004e7 0.0
3.3643962772824004e7 -5.485069311474172e6 0.0
0.0 0.0 0.0

-1.1212786891233185e7 8.664258718861679e6 0.0
8.664258718861679e6 2.468638337905223e7 0.0
0.0 0.0 0.0

1.675685934428431e6 4.773534160180214e6 0.0
4.773534160180214e6 -4.195937094063305e7 0.0
0.0 0.0 0.0

1.837041205136709e6 5.845016852546917e6 0.0
5.845016852546917e6 -3.733722932801393e7 0.0
0.0 0.0 0.0

465151.7468391983 1.547579348571874e7 0.0
1.547579348571874e7 -1.9139412849215794e7 0.0
0.0 0.0 0.0

2.9591019943668162e6 2.5875052436134215e7 0.0
2.5875052436134215e7 -1.245647649665846e7 0.0
0.0 0.0 0.0

1.269764024551414e6 6.167602382537445e6 0.0
6.167602382537445e6 -6.301616706193755e7 0.0
0.0 0.0 0.0

-8.114124978742225e6 2.633781531174901e7 0.0
2.633781531174901e7 -1.5524879038270064e7 0.0
0.0 0.0 0.0

413470.02674448676 1.7852274469749838e7 0.0
1.7852274469749838e7 -2.7060077837372914e7 0.0
0.0 0.0 0.0

-5.746313483929684e6 2.0207889288292762e7 0.0
2.0207889288292762e7 2.945088678484834e7 0.0
0.0 0.0 0.0

-7.7442256418891335e6 2.596594002800955e7 0.0
2.596594002800955e7 -1.4213661501670022e7 0.0
0.0 0.0 0.0

1.7048379006092437e6 1.1937081809307517e7 0.0
1.1937081809307517e7 -3.467552258107878e7 0.0
0.0 0.0 0.0

-3.821376106528814e7 2.8124959468751542e7 0.0
2.8124959468751542e7 2.208195481343709e6 0.0
0.0 0.0 0.0

1.6344032458317056e6 3.8352802985054026e6 0.0
3.8352802985054026e6 -4.3942863345666446e7 0.0
0.0 0.0 0.0

2.494404085496355e6 6.037876212691548e6 0.0
6.037876212691548e6 -3.728233271247776e7 0.0
0.0 0.0 0.0

1.4950005068342872e6 2.3450217684483733e7 0.0
2.3450217684483733e7 -1.6219239818717778e7 0.0
0.0 0.0 0.0

-1.804236875182938e7 1.315024147679846e6 0.0
1.315024147679846e6 7.5781251823884975e6 0.0
0.0 0.0 0.0

1.2977301193320341e6 1.1934683741165752e7 0.0
1.1934683741165752e7 -1.3270862390999556e7 0.0
0.0 0.0 0.0

1.5303071886811517e6 2.006705180858086e7 0.0
2.006705180858086e7 2.384500559680989e7 0.0
0.0 0.0 0.0

-4.429507273113577e6 3.4638638845493495e7 0.0
3.4638638845493495e7 5.343598238906931e6 0.0
0.0 0.0 0.0

-7.470561337302862e6 3.6791183922780946e7 0.0
3.6791183922780946e7 5.571930283345796e6 0.0
0.0 0.0 0.0

-1.091863053806273e7 1.1334629321549395e7 0.0
1.1334629321549395e7 2.480081766221661e7 0.0
0.0 0.0 0.0

371668.9186988808 1.5444954469093645e7 0.0
1.5444954469093645e7 7.25820804363898e7 0.0
0.0 0.0 0.0

-2.8074282933879755e6 3.548936818073489e7 0.0
3.548936818073489e7 3.603657628075148e6 0.0
0.0 0.0 0.0

-5.334627440704935e6 2.447930796773991e7 0.0
2.447930796773991e7 -1.9190392452631323e6 0.0
0.0 0.0 0.0

-31218.354117061244 2.351913292509997e7 0.0
2.351913292509997e7 -5.197902243663409e6 0.0
0.0 0.0 0.0

4.669283070184018e7 2.9030218102012947e7 0.0
2.9030218102012947e7 1.8610785050694942e7 0.0
0.0 0.0 0.0

-9.735090754006669e6 1.2561405078939818e7 0.0
1.2561405078939818e7 2.6601907336954437e7 0.0
0.0 0.0 0.0

2.4587312325677034e6 4.177063336103429e6 0.0
4.177063336103429e6 -4.107735163018782e7 0.0
0.0 0.0 0.0

864444.2250977606 2.218285066121281e7 0.0
2.218285066121281e7 -1.4480473590613369e7 0.0
0.0 0.0 0.0

-2.2084054026869955e6 1.842684463730408e7 0.0
1.842684463730408e7 3.7604185107159447e6 0.0
0.0 0.0 0.0

-1.4924214688544711e7 2.1957319444990825e7 0.0
2.1957319444990825e7 -1.1864297739623943e6 0.0
0.0 0.0 0.0

-8.0218871938515995e6 3.3384036682934016e6 0.0
3.3384036682934016e6 4.222126772762165e7 0.0
0.0 0.0 0.0

-9.154580134186181e7 5.5108191051434845e7 0.0
5.5108191051434845e7 -2.290996951543828e7 0.0
0.0 0.0 0.0

-1.2846102127144635e7 1.930603710243485e7 0.0
1.930603710243485e7 -4.2820341406301245e7 0.0
0.0 0.0 0.0

1.1715469483509513e7 2.010085969737678e7 0.0
2.010085969737678e7 3.905156598755657e7 0.0
0.0 0.0 0.0

294702.63289247826 1.657383411846303e7 0.0
1.657383411846303e7 -3.0846889767398126e7 0.0
0.0 0.0 0.0

-1.694332132170457e7 2.7401471262306236e7 0.0
2.7401471262306236e7 -8.79170535059959e6 0.0
0.0 0.0 0.0

2.355169915170812e6 9.844899162665036e6 0.0
9.844899162665036e6 -2.1002066901106134e7 0.0
0.0 0.0 0.0

1.943672170669891e6 1.0296923724777807e7 0.0
1.0296923724777807e7 -3.5887424674406864e7 0.0
0.0 0.0 0.0

-3.414111227368146e6 2.289155830237219e7 0.0
2.289155830237219e7 2.1658325152307454e7 0.0
0.0 0.0 0.0

921229.6433113273 1.3114729256900227e7 0.0
1.3114729256900227e7 -3.341943336326949e7 0.0
0.0 0.0 0.0

-5.129515257572059e6 3.541925245075175e7 0.0
3.541925245075175e7 5.357584832775323e6 0.0
0.0 0.0 0.0

-9.28153947755115e6 8.892425000476914e6 0.0
8.892425000476914e6 3.905107339234223e7 0.0
0.0 0.0 0.0

-8.705535626593875e6 1.3726709093953655e6 0.0
1.3726709093953655e6 3.268060115170871e7 0.0
0.0 0.0 0.0

1.5187921179024018e6 8.271874104874085e6 0.0
8.271874104874085e6 -3.711640588633215e7 0.0
0.0 0.0 0.0

-1.6066196069390722e7 2.670487314685569e7 0.0
2.670487314685569e7 -1.245530486412029e7 0.0
0.0 0.0 0.0

7.715069904325744e6 3.98575786225182e7 0.0
3.98575786225182e7 -4.660699423046647e6 0.0
0.0 0.0 0.0

-5.092757568164166e6 2.06642347755562e7 0.0
2.06642347755562e7 2.6945812832340837e7 0.0
0.0 0.0 0.0

1.5470907677138094e6 6.494169721349005e6 0.0
6.494169721349005e6 -4.089493841089041e7 0.0
0.0 0.0 0.0

1.3224281125614978e6 6.864956967715796e6 0.0
6.864956967715796e6 -5.5006275278353184e7 0.0
0.0 0.0 0.0

-2.9024737847704664e6 1.4334021859571239e7 0.0
1.4334021859571239e7 5.975537082379373e7 0.0
0.0 0.0 0.0

-8.752783329522124e6 9.10623286217203e6 0.0
9.10623286217203e6 3.9772137114244066e7 0.0
0.0 0.0 0.0

1.0743534757714815e7 3.3819014154611945e7 0.0
3.3819014154611945e7 -5.8434824605927e6 0.0
0.0 0.0 0.0

-755680.6782158159 2.7066374719050262e7 0.0
2.7066374719050262e7 -2.3477933652150175e6 0.0
0.0 0.0 0.0

-7.832671576974861e6 6.928881593369682e6 0.0
6.928881593369682e6 4.555512370013516e7 0.0
0.0 0.0 0.0

2.3898651257450813e6 5.04915762287031e6 0.0
5.04915762287031e6 -2.2187431420561645e7 0.0
0.0 0.0 0.0

-2.174364545231828e6 2.6998007970766973e7 0.0
2.6998007970766973e7 1.1907651566882816e6 0.0
0.0 0.0 0.0

-2.2758260899686612e7 2.7570238094967917e7 0.0
2.7570238094967917e7 -1.0742180222588705e7 0.0
0.0 0.0 0.0

-9.66632230030607e6 1.3451746865623761e7 0.0
1.3451746865623761e7 1.897875689401212e7 0.0
0.0 0.0 0.0

2.3186720291845053e6 5.912579077775726e6 0.0
5.912579077775726e6 -4.002191930464805e7 0.0
0.0 0.0 0.0

1.0363238550667521e6 1.3147231222245222e7 0.0
1.3147231222245222e7 -3.104790869884834e7 0.0
0.0 0.0 0.0

-1.070851811323565e7 3.078403489974313e6 0.0
3.078403489974313e6 2.248662840112111e7 0.0
0.0 0.0 0.0

-9.352393675767114e6 1.2100525422907036e7 0.0
1.2100525422907036e7 3.244695099325433e7 0.0
0.0 0.0 0.0

-1.8963794918023087e6 1.6122897889569143e7 0.0
1.6122897889569143e7 -4.388271215585826e7 0.0
0.0 0.0 0.0

2.596883846146539e6 5.25055278368319e6 0.0
5.25055278368319e6 -3.645876587193239e7 0.0
0.0 0.0 0.0

-1.3818672830609104e6 2.6815914076118093e7 0.0
2.6815914076118093e7 -4.367844347874402e6 0.0
0.0 0.0 0.0

2.186556807544777e6 8.571997233025275e6 0.0
8.571997233025275e6 -3.7052118138325125e7 0.0
0.0 0.0 0.0

-1.0026800720293177e7 4.89334262444211e6 0.0
4.89334262444211e6 2.497137782243913e7 0.0
0.0 0.0 0.0

-1.8533023915159535e7 2.1073116448948774e7 0.0
2.1073116448948774e7 -6.1776749788785e7 0.0
0.0 0.0 0.0

1.69797921797292e7 2.1915148921666153e7 0.0
2.1915148921666153e7 5.659930977634371e7 0.0
0.0 0.0 0.0

1.2261317746907482e6 2.3806737932686992e7 0.0
2.3806737932686992e7 1.7866231409219748e6 0.0
0.0 0.0 0.0

-2.9034116013366174e7 3.5606828407922643e6 0.0
3.5606828407922643e6 6.56043877746696e6 0.0
0.0 0.0 0.0

-9.45905892125294e6 1.6181620822890685e6 0.0
1.6181620822890685e6 2.5099371485637583e7 0.0
0.0 0.0 0.0

7.507699738273499e6 2.2177244270383094e7 0.0
2.2177244270383094e7 2.5025662416868504e7 0.0
0.0 0.0 0.0

-6.878494932522041e6 2.152528280367211e7 0.0
2.152528280367211e7 -2.2928313237256583e7 0.0
0.0 0.0 0.0

1.0234670281092152e6 1.57031833221277e7 0.0
1.57031833221277e7 7.906672035746491e7 0.0
0.0 0.0 0.0

1.542932742431676e6 7.412839541980516e6 0.0
7.412839541980516e6 -3.9008144970445774e7 0.0
0.0 0.0 0.0

3.060313949532207e6 2.8386400142900284e7 0.0
2.8386400142900284e7 -9.989439910739396e6 0.0
0.0 0.0 0.0

-1.0064804251042653e7 1.9006510944325373e7 0.0
1.9006510944325373e7 -4.6423642394660115e7 0.0
0.0 0.0 0.0

-4.421489534810218e6 3.3402677868202224e7 0.0
3.3402677868202224e7 4.727571494483409e6 0.0
0.0 0.0 0.0

-4.812564478310764e6 2.632089206405572e7 0.0
2.632089206405572e7 9.383722676011266e6 0.0
0.0 0.0 0.0

2.0855652285873268e6 3.3938640481687635e7 0.0
3.3938640481687635e7 -4.593230699231714e6 0.0
0.0 0.0 0.0

-1.682034423130438e7 1.9102676853831578e7 0.0
1.9102676853831578e7 -6.488523648492643e7 0.0
0.0 0.0 0.0

8.780021590062164e6 3.374712718447799e7 0.0
3.374712718447799e7 -6.06914901359557e6 0.0
0.0 0.0 0.0

-4.262516888251627e6 1.9055219706695072e7 0.0
1.9055219706695072e7 3.74953916933523e7 0.0
0.0 0.0 0.0

1.429908464693375e6 1.045789561608861e7 0.0
1.045789561608861e7 -2.198415743060724e7 0.0
0.0 0.0 0.0

1.6880466937238313e6 6.612666684568919e6 0.0
6.612666684568919e6 -3.817356474211507e7 0.0
0.0 0.0 0.0

3.1425702278479715e6 2.7017388875807196e7 0.0
2.7017388875807196e7 -1.135530308720525e7 0.0
0.0 0.0 0.0

-2.0476281958809535e6 1.847968498876082e7 0.0
1.847968498876082e7 -6.779798539281944e6 0.0
0.0 0.0 0.0

652787.95470451 1.0623024889540683e7 0.0
1.0623024889540683e7 -4.261830008207109e7 0.0
0.0 0.0 0.0

-3.5499469468730097e6 3.165795376228827e7 0.0
3.165795376228827e7 5.84044985553214e6 0.0
0.0 0.0 0.0

-1.8090895732310198e6 2.096769546093611e7 0.0
2.096769546093611e7 604540.402887582 0.0
0.0 0.0 0.0

792417.9263172979 1.815461683572839e7 0.0
1.815461683572839e7 -1.5965709780864667e7 0.0
0.0 0.0 0.0

100528.44991625845 1.4139853545819845e7 0.0
1.4139853545819845e7 -4.100049801441656e7 0.0
0.0 0.0 0.0

5.8713796372032035e6 3.2993550779990517e7 0.0
3.2993550779990517e7 -6.454489178223114e6 0.0
0.0 0.0 0.0

691905.3430344183 2.06133889895198e7 0.0
2.06133889895198e7 -1.459507916406683e7 0.0
0.0 0.0 0.0

-2.599235276506509e6 1.9406068355767656e7 0.0
1.9406068355767656e7 -7.041830081025792e6 0.0
0.0 0.0 0.0

3.513667087446926e7 6.085859560216698e6 0.0
6.085859560216698e6 -1.6138893144891653e6 0.0
0.0 0.0 0.0

-2.0581514478577268e6 2.201358691518947e7 0.0
2.201358691518947e7 9.469026058789501e6 0.0
0.0 0.0 0.0

-9.100322411976982e6 1.2560813633679261e7 0.0
1.2560813633679261e7 2.078227968314655e7 0.0
0.0 0.0 0.0

-8.594981604603851e6 3.176295350603516e6 0.0
3.176295350603516e6 3.744684090376433e7 0.0
0.0 0.0 0.0

2.806409036352372e6 3.6714160846960405e6 0.0
3.6714160846960405e6 -3.477238422794341e7 0.0
0.0 0.0 0.0

2.538333655884847e6 6.765502840887975e6 0.0
6.765502840887975e6 -2.5355623175235555e7 0.0
0.0 0.0 0.0

2.721416142210854e6 5.387548684404127e6 0.0
5.387548684404127e6 -3.377214786825864e7 0.0
0.0 0.0 0.0

-6.077637235427769e6 2.1188036353077658e7 0.0
2.1188036353077658e7 -2.6406036722792376e7 0.0
0.0 0.0 0.0

7.190952404728686e6 3.3439010656392526e7 0.0
3.3439010656392526e7 -6.262118425816478e6 0.0
0.0 0.0 0.0

-4.416023738365356e6 1.9376336312168054e7 0.0
1.9376336312168054e7 3.486831980015048e7 0.0
0.0 0.0 0.0

-2.8265210797627727e6 2.269081400084892e7 0.0
2.269081400084892e7 8.278263692496919e6 0.0
0.0 0.0 0.0

1.957343160288671e6 6.019122261695161e6 0.0
6.019122261695161e6 -3.481125962876924e7 0.0
0.0 0.0 0.0

-1.1260992308118805e7 6.314237501267503e6 0.0
6.314237501267503e6 2.241112398906417e7 0.0
0.0 0.0 0.0

-5.077650600519311e6 2.074171402736968e7 0.0
2.074171402736968e7 2.931836462867681e7 0.0
0.0 0.0 0.0

1.2554576664682543e6 2.3018641114787243e7 0.0
2.3018641114787243e7 -1.754580210230379e7 0.0
0.0 0.0 0.0

1.7602377034039167e6 2.4332848627318896e7 0.0
2.4332848627318896e7 -6.013975019322593e6 0.0
0.0 0.0 0.0

-4.0920409043396316e6 3.2902036010940075e7 0.0
3.2902036010940075e7 6.26294320496311e6 0.0
0.0 0.0 0.0

1.0154711601289827e6 1.7706705281371977e7 0.0
1.7706705281371977e7 -2.6858282121128e7 0.0
0.0 0.0 0.0

2.465501597675437e6 6.949866858522948e6 0.0
6.949866858522948e6 -3.552946912973521e7 0.0
0.0 0.0 0.0

1.849494430106314e6 6.757252403355291e6 0.0
6.757252403355291e6 -3.5588816904538535e7 0.0
0.0 0.0 0.0

1.319179814027343e6 9.345537416467443e6 0.0
9.345537416467443e6 -1.7557722415933475e7 0.0
0.0 0.0 0.0

1.6785355742711704e6 7.488306919247635e6 0.0
7.488306919247635e6 -3.6396947852286026e7 0.0
0.0 0.0 0.0

2.9056237072754167e6 5.947263960198253e6 0.0
5.947263960198253e6 -2.943374878462084e7 0.0
0.0 0.0 0.0

-9.820877232731963e6 3.974049423233125e7 0.0
3.974049423233125e7 5.698535469631003e6 0.0
0.0 0.0 0.0

1.087309002088204e7 3.5744727688503616e7 0.0
3.5744727688503616e7 -5.754816022251647e6 0.0
0.0 0.0 0.0

-5.577830547274555e6 2.7400629817506846e7 0.0
2.7400629817506846e7 9.31621063883326e6 0.0
0.0 0.0 0.0

2.001913824124379e6 6.622608149620738e6 0.0
6.622608149620738e6 -3.05222426730027e7 0.0
0.0 0.0 0.0

-1.4616600897631845e6 2.3052384110759392e7 0.0
2.3052384110759392e7 -7.851363652358928e6 0.0
0.0 0.0 0.0

-1.5487847522716776e6 2.0209646078932025e7 0.0
2.0209646078932025e7 -330999.3336919226 0.0
0.0 0.0 0.0

-2.4237338076787863e7 2.3754750455279484e7 0.0
2.3754750455279484e7 -8.079114369845928e7 0.0
0.0 0.0 0.0

2.3188910848047595e7 2.538042275919096e7 0.0
2.538042275919096e7 7.72963884027504e7 0.0
0.0 0.0 0.0

1.6276303440469962e7 2.5298347801480845e7 0.0
2.5298347801480845e7 2.0712774574927296e6 0.0
0.0 0.0 0.0

2.4352476974746045e7 2.7544263539318446e7 0.0
2.7544263539318446e7 2.39364535900048e6 0.0
0.0 0.0 0.0

-589140.5542868711 7.462742919365179e6 0.0
7.462742919365179e6 -6.93592174729839e7 0.0
0.0 0.0 0.0

1.1439159575539287e6 2.0995537233303864e7 0.0
2.0995537233303864e7 -2.0233401696794584e7 0.0
0.0 0.0 0.0

494637.5685954988 2.3272200264669627e7 0.0
2.3272200264669627e7 1.6720139429599378e7 0.0
0.0 0.0 0.0

-8.77895519434945e6 8.399566235550981e6 0.0
8.399566235550981e6 4.223625491400802e7 0.0
0.0 0.0 0.0

-3.3287437461171895e6 1.8166254986342687e7 0.0
1.8166254986342687e7 4.260348231429929e7 0.0
0.0 0.0 0.0

-3.2559652364024357e6 2.527474229055242e7 0.0
2.527474229055242e7 9.355614954625994e6 0.0
0.0 0.0 0.0

-981784.4453314702 1.79448350100979e7 0.0
1.79448350100979e7 -5.912059885571213e6 0.0
0.0 0.0 0.0

-1.7279077283733025e7 3.0174425513478916e7 0.0
3.0174425513478916e7 -1.4864693797174277e7 0.0
0.0 0.0 0.0

-3.0361670581718488e6 2.5368258014337298e7 0.0
2.5368258014337298e7 1.6374523664612297e7 0.0
0.0 0.0 0.0

-6.682819211495592e6 1.6324798072999764e7 0.0
1.6324798072999764e7 1.663583367106863e7 0.0
0.0 0.0 0.0

-2.2493522709033466e6 2.635564779591107e7 0.0
2.635564779591107e7 6.34416596433121e6 0.0
0.0 0.0 0.0

1.6337646443444658e6 7.477407068925033e6 0.0
7.477407068925033e6 -4.8902054256915234e7 0.0
0.0 0.0 0.0

2.730977114228462e6 8.031297552098836e6 0.0
8.031297552098836e6 -2.385240344386889e7 0.0
0.0 0.0 0.0

820782.1955425981 2.3559284381832503e7 0.0
2.3559284381832503e7 -1.546084300343893e7 0.0
0.0 0.0 0.0

998120.1240460835 1.3988443379778039e7 0.0
1.3988443379778039e7 -2.9404396001917887e7 0.0
0.0 0.0 0.0

-6.280999395761862e6 1.0579167182379996e7 0.0
1.0579167182379996e7 5.128750467923166e7 0.0
0.0 0.0 0.0

-9.5582324507289e6 3.079110169984629e6 0.0
3.079110169984629e6 1.2823092015405623e7 0.0
0.0 0.0 0.0

-4.0998313860340007e6 9.385616380276522e6 0.0
9.385616380276522e6 6.5036496275231674e7 0.0
0.0 0.0 0.0

152006.1158039542 2.2480789230371464e7 0.0
2.2480789230371464e7 -1.4953013630943619e7 0.0
0.0 0.0 0.0

-4.980624460624899e6 2.7784526132653985e7 0.0
2.7784526132653985e7 1.07150522036198e7 0.0
0.0 0.0 0.0

-7.465038399987392e6 1.514181809586539e7 0.0
1.514181809586539e7 2.130561932990214e7 0.0
0.0 0.0 0.0

5.299643947560633e6 3.0470916152353555e7 0.0
3.0470916152353555e7 -7.867363936534865e6 0.0
0.0 0.0 0.0

-1.0489548513316968e7 1.1145256949317256e7 0.0
1.1145256949317256e7 1.879169346278231e7 0.0
0.0 0.0 0.0

-3.6301403638097784e6 2.452371245448188e7 0.0
2.452371245448188e7 1.8115227534527317e7 0.0
0.0 0.0 0.0

3.3150373779707577e7 3.388548759151703e7 0.0
3.388548759151703e7 -4.724345221192339e6 0.0
0.0 0.0 0.0

-5.190809053371543e6 2.1536004563402425e7 0.0
2.1536004563402425e7 2.5274397108863167e7 0.0
0.0 0.0 0.0

-6.760165729001893e6 4.240827432939112e6 0.0
4.240827432939112e6 1.287151263839781e7 0.0
0.0 0.0 0.0

-3.4064473874097735e7 3.5928452510572257e6 0.0
3.5928452510572257e6 6.814792207767848e6 0.0
0.0 0.0 0.0

2.0843360694426242e6 4.366915525250268e6 0.0
4.366915525250268e6 -3.7979560722948566e7 0.0
0.0 0.0 0.0

-9.709730827810522e6 3.473164828207217e7 0.0
3.473164828207217e7 6.693687275660913e6 0.0
0.0 0.0 0.0

-1.1138121104452506e7 3.595796316712157e6 0.0
3.595796316712157e6 1.9785271851336006e7 0.0
0.0 0.0 0.0

-3.3626801635501673e6 1.5545172612212272e7 0.0
1.5545172612212272e7 863763.365370424 0.0
0.0 0.0 0.0

-9.617906932157826e6 4.560925047208178e6 0.0
4.560925047208178e6 3.469489954732261e7 0.0
0.0 0.0 0.0

652276.7868499439 2.29956327120952e7 0.0
2.29956327120952e7 -1.764098259674763e7 0.0
0.0 0.0 0.0

-9.174279499900261e6 3.0055069441282037e6 0.0
3.0055069441282037e6 3.671427252855328e7 0.0
0.0 0.0 0.0

423481.70863865316 1.860192741015425e7 0.0
1.860192741015425e7 -1.9738191516228404e7 0.0
0.0 0.0 0.0

-4.2580943716965895e6 2.011903849424712e7 0.0
2.011903849424712e7 3.291760659144186e7 0.0
0.0 0.0 0.0

-9.342805685149912e6 1.4386081169905445e7 0.0
1.4386081169905445e7 2.0138046243716482e7 0.0
0.0 0.0 0.0

-1.694657579047041e6 1.8804053126621094e7 0.0
1.8804053126621094e7 4.427539502608605e7 0.0
0.0 0.0 0.0

-7.308601535385281e6 1.822965251091264e7 0.0
1.822965251091264e7 2.3820903026928592e7 0.0
0.0 0.0 0.0

-2.1486612973763943e6 2.7989686841327835e7 0.0
2.7989686841327835e7 1.1173287702045022e6 0.0
0.0 0.0 0.0

1.5365644232120905e6 8.384347012377335e6 0.0
8.384347012377335e6 -4.6541974065703645e7 0.0
0.0 0.0 0.0

-2.4423610432880875e6 2.0042161016261116e7 0.0
2.0042161016261116e7 3.690422012697402e7 0.0
0.0 0.0 0.0

1.733886448867418e7 2.5209814127142064e7 0.0
2.5209814127142064e7 1.0623226154617313e7 0.0
0.0 0.0 0.0

-2.2249568689946294e7 1.4718914259434955e7 0.0
1.4718914259434955e7 7.631870565034758e6 0.0
0.0 0.0 0.0

624619.8808562849 1.3089491609849565e7 0.0
1.3089491609849565e7 -4.0611416287690155e7 0.0
0.0 0.0 0.0

-5.837321148960779e6 1.5875555764554966e7 0.0
1.5875555764554966e7 1.9469095337628875e7 0.0
0.0 0.0 0.0

2.1533332858761055e6 1.0712722998823265e7 0.0
1.0712722998823265e7 -1.960187936273446e7 0.0
0.0 0.0 0.0

-9.616878329270262e6 2.1921185199488825e6 0.0
2.1921185199488825e6 2.235616729511626e7 0.0
0.0 0.0 0.0

-9.666681647825541e6 1.6215182441955486e6 0.0
1.6215182441955486e6 2.9391567858185332e7 0.0
0.0 0.0 0.0

757836.2851661947 1.625417836798925e7 0.0
1.625417836798925e7 -2.4385080766337886e7 0.0
0.0 0.0 0.0

-1.02853685935702e7 9.27014471002874e6 0.0
9.27014471002874e6 2.5874358458388448e7 0.0
0.0 0.0 0.0

-6.0581723099093195e6 2.850074705249433e7 0.0
2.850074705249433e7 9.226354044842573e6 0.0
0.0 0.0 0.0

8.846188367774881e6 1.8611452542631783e7 0.0
1.8611452542631783e7 8.094643372821456e6 0.0
0.0 0.0 0.0

-918788.2779713748 8.960044722322697e6 0.0
8.960044722322697e6 -123017.83202121142 0.0
0.0 0.0 0.0

950787.4860984981 2.3267999944501825e7 0.0
2.3267999944501825e7 -1.3709360817067824e7 0.0
0.0 0.0 0.0

1.853894169845717e6 8.328938303266636e6 0.0
8.328938303266636e6 -2.74397687422453e7 0.0
0.0 0.0 0.0

2.449174033027908e6 3.297394425856421e7 0.0
3.297394425856421e7 -5.49433307154731e6 0.0
0.0 0.0 0.0

-7.812974032610003e6 1.746023969059452e7 0.0
1.746023969059452e7 -7.958512527830854e7 0.0
0.0 0.0 0.0

2.19496021698663e6 5.878023987669382e6 0.0
5.878023987669382e6 -2.063382427063578e7 0.0
0.0 0.0 0.0

2.1793044602992255e6 5.79963870772157e6 0.0
5.79963870772157e6 -2.9787943656959757e7 0.0
0.0 0.0 0.0

-5.151647442812136e6 2.1366262064330567e7 0.0
2.1366262064330567e7 -2.377933544672052e7 0.0
0.0 0.0 0.0

-1.757779227104288e6 9.828902369635664e6 0.0
9.828902369635664e6 2.0613022701378844e6 0.0
0.0 0.0 0.0

-1.9155467544511788e7 1.998651811201571e7 0.0
1.998651811201571e7 -7.438065805201934e7 0.0
0.0 0.0 0.0

1.774384088276011e6 8.982090322270289e6 0.0
8.982090322270289e6 -1.1409894070897521e7 0.0
0.0 0.0 0.0

2.454624377169973e6 9.195462160567664e6 0.0
9.195462160567664e6 -1.99713669065536e7 0.0
0.0 0.0 0.0

-887998.4346698645 2.274600846731823e7 0.0
2.274600846731823e7 -3.229505109423768e6 0.0
0.0 0.0 0.0

-5.63263781762453e6 1.5355923650258323e7 0.0
1.5355923650258323e7 4.501527008798536e7 0.0
0.0 0.0 0.0

-2.864793482924723e6 3.480878891058798e7 0.0
3.480878891058798e7 1.9140988309312484e6 0.0
0.0 0.0 0.0

-1.1537963495535374e7 1.166528889425999e7 0.0
1.166528889425999e7 7.310078179883481e6 0.0
0.0 0.0 0.0

979431.7001810744 1.4684430889930423e7 0.0
1.4684430889930423e7 -2.765264637816232e7 0.0
0.0 0.0 0.0

2.84622823694876e6 2.249856003745318e7 0.0
2.249856003745318e7 2.3425391329392042e7 0.0
0.0 0.0 0.0

2.5911977092038575e6 3.2013779408657745e7 0.0
3.2013779408657745e7 -6.458854148265913e6 0.0
0.0 0.0 0.0

-905198.5410770094 1.6063288314366693e7 0.0
1.6063288314366693e7 -1.1745942856756222e7 0.0
0.0 0.0 0.0

4.451407052841698e6 3.1180634660666544e7 0.0
3.1180634660666544e7 -7.5632620396473445e6 0.0
0.0 0.0 0.0

493497.09385917895 1.6620563576732732e7 0.0
1.6620563576732732e7 -1.3162172539890286e7 0.0
0.0 0.0 0.0

-9.660176576433793e6 195124.78264452989 0.0
195124.78264452989 2.3119486298791815e7 0.0
0.0 0.0 0.0

359301.67716876976 2.27578899105301e7 0.0
2.27578899105301e7 -1.5557303772792231e7 0.0
0.0 0.0 0.0

1.96654935748366e7 5.358330781112756e7 0.0
5.358330781112756e7 -7.663198076261488e6 0.0
0.0 0.0 0.0

8.883441215449957e6 2.7159024472593244e7 0.0
2.7159024472593244e7 -4.243003082752526e6 0.0
0.0 0.0 0.0

1.1544914643879216e6 2.2050568625172276e7 0.0
2.2050568625172276e7 -1.8925345604877234e7 0.0
0.0 0.0 0.0

-2.7752744281121884e6 1.7498184954368733e7 0.0
1.7498184954368733e7 9.285483686440486e6 0.0
0.0 0.0 0.0

-2.600642486462479e6 2.1538391415285498e7 0.0
2.1538391415285498e7 -350786.7735522522 0.0
0.0 0.0 0.0

2.6304657542523574e6 3.155601592746917e6 0.0
3.155601592746917e6 -3.677367117729173e7 0.0
0.0 0.0 0.0

2.8562414017926613e6 4.238110624903627e6 0.0
4.238110624903627e6 -1.4247108631645087e7 0.0
0.0 0.0 0.0

-4.293338860568529e6 1.1573480228188176e7 0.0
1.1573480228188176e7 2.775502571788253e6 0.0
0.0 0.0 0.0

-1.1746209202411037e7 2.5883986320147e7 0.0
2.5883986320147e7 -2.6757765322260465e6 0.0
0.0 0.0 0.0

2.1585145199774355e6 6.392795770449632e6 0.0
6.392795770449632e6 -2.4508337033016395e7 0.0
0.0 0.0 0.0

67553.10187939275 1.8981069095545504e7 0.0
1.8981069095545504e7 -1.7364989284755863e7 0.0
0.0 0.0 0.0

30457.648028200492 2.3510355439973217e7 0.0
2.3510355439973217e7 1.355159510125428e7 0.0
0.0 0.0 0.0

1.7481794125191811e6 1.3539381092022968e7 0.0
1.3539381092022968e7 -2.8683012777923435e7 0.0
0.0 0.0 0.0

-1.031233299478191e7 8.020185886950739e6 0.0
8.020185886950739e6 2.4868104224564996e7 0.0
0.0 0.0 0.0

-3.1468435620930173e7 3.525142635349127e7 0.0
3.525142635349127e7 3.299012342920931e6 0.0
0.0 0.0 0.0

1.658306680400379e6 1.2733145356060602e7 0.0
1.2733145356060602e7 -3.280781698729894e7 0.0
0.0 0.0 0.0

-6.366357406702557e7 6.192489087983871e6 0.0
6.192489087983871e6 3.8194944988689646e6 0.0
0.0 0.0 0.0

1.875543436948073e6 8.031797108687373e6 0.0
8.031797108687373e6 -2.3942750994350012e7 0.0
0.0 0.0 0.0

-2.24704529611185e6 2.2563635319435433e7 0.0
2.2563635319435433e7 2.4836548902187284e7 0.0
0.0 0.0 0.0

-1.6363350582192745e6 1.6421461045193246e7 0.0
1.6421461045193246e7 -4.129148275361921e7 0.0
0.0 0.0 0.0

41605.753017071635 1.778038434741783e7 0.0
1.778038434741783e7 -3.0955796802617446e7 0.0
0.0 0.0 0.0

-9.33001653863652e6 4.250377928205538e6 0.0
4.250377928205538e6 1.8297758048408113e7 0.0
0.0 0.0 0.0

-1.0096600668045523e7 1.1719742973159136e7 0.0
1.1719742973159136e7 3.1623288977140147e7 0.0
0.0 0.0 0.0

-2.7415279203501353e6 1.8199243446413126e7 0.0
1.8199243446413126e7 -2.318455574499875e6 0.0
0.0 0.0 0.0

-3.290290377821549e6 1.6623126843698803e7 0.0
1.6623126843698803e7 1.1382482299446937e7 0.0
0.0 0.0 0.0

-9.460259946510157e6 1.0475691757515226e7 0.0
1.0475691757515226e7 3.677604781769194e7 0.0
0.0 0.0 0.0

-1.7137719941506959e6 1.7629146457240608e7 0.0
1.7629146457240608e7 -1.3710034762670188e6 0.0
0.0 0.0 0.0

258467.36081633717 2.1683810590013053e7 0.0
2.1683810590013053e7 -1.6408085140348256e7 0.0
0.0 0.0 0.0

770023.9506981317 2.2979057747468024e7 0.0
2.2979057747468024e7 -1.3027751194331517e7 0.0
0.0 0.0 0.0

607195.0062205177 2.3744991270020414e7 0.0
2.3744991270020414e7 -1.4725703924781114e7 0.0
0.0 0.0 0.0

573152.545307165 1.778468159670775e7 0.0
1.778468159670775e7 -2.1221792798998468e7 0.0
0.0 0.0 0.0

1.24548244993971e6 1.0049766378904337e7 0.0
1.0049766378904337e7 -1.8573027223128833e7 0.0
0.0 0.0 0.0

-1.1075996481917365e6 2.302516771937146e7 0.0
2.302516771937146e7 -6.571215084518818e6 0.0
0.0 0.0 0.0

-112832.53268701956 2.2159894095500723e7 0.0
2.2159894095500723e7 -1.435456385622131e7 0.0
0.0 0.0 0.0

3291.3993159094825 1.688582018609199e7 0.0
1.688582018609199e7 -1.0493482869618844e7 0.0
0.0 0.0 0.0

-1.0121166368043361e7 6.762747744299338e6 0.0
6.762747744299338e6 2.383377703009633e7 0.0
0.0 0.0 0.0

646678.8976574885 1.7044143163736254e7 0.0
1.7044143163736254e7 -2.280982451846843e7 0.0
0.0 0.0 0.0

-2.1051525271364424e7 2.225441941874022e7 0.0
2.225441941874022e7 -7.017175087436e7 0.0
0.0 0.0 0.0

-8.872908839047318e6 6.213162110248407e6 0.0
6.213162110248407e6 1.7112834587467615e7 0.0
0.0 0.0 0.0

1.6238390563096944e6 9.58353987988096e6 0.0
9.58353987988096e6 -2.3423760395505283e7 0.0
0.0 0.0 0.0

-922179.2074055 8.213682377745091e6 0.0
8.213682377745091e6 -5.28865200255726e6 0.0
0.0 0.0 0.0

-6.257341704997528e6 1.644879459339871e7 0.0
1.644879459339871e7 -7.19984582256136e7 0.0
0.0 0.0 0.0

-3.615720156223543e6 1.757794553516745e7 0.0
1.757794553516745e7 1.486919793439598e7 0.0
0.0 0.0 0.0

2.7870485130324885e6 7.377020768996483e6 0.0
7.377020768996483e6 -2.2894253150180105e7 0.0
0.0 0.0 0.0

-1.0614570961817063e7 1.1455736425065584e7 0.0
1.1455736425065584e7 2.8090674129059944e7 0.0
0.0 0.0 0.0

-6.506153581514854e6 3.564588639736551e6 0.0
3.564588639736551e6 5.406988696459014e7 0.0
0.0 0.0 0.0

435104.4997267743 2.1816482463187177e7 0.0
2.1816482463187177e7 -2.352645708288941e6 0.0
0.0 0.0 0.0

2.5001224253865276e6 1.9566050230471265e7 0.0
1.9566050230471265e7 6.517452875136433e6 0.0
0.0 0.0 0.0

-8.147066509084176e6 2.884666421086495e7 0.0
2.884666421086495e7 8.575786070694378e6 0.0
0.0 0.0 0.0

-2.5911843839680776e6 2.4125181517271407e7 0.0
2.4125181517271407e7 5.078712747294309e6 0.0
0.0 0.0 0.0

2.3411422465015575e6 5.071985310644561e6 0.0
5.071985310644561e6 -4.19133402355953e7 0.0
0.0 0.0 0.0

2.3942744924349245e6 5.872365269304502e6 0.0
5.872365269304502e6 -4.24837863412211e7 0.0
0.0 0.0 0.0

-7.589082331277985e6 1.676790245781447e7 0.0
1.676790245781447e7 3.1880436482741915e7 0.0
0.0 0.0 0.0

242655.5122964587 2.05807335692617e7 0.0
2.05807335692617e7 -1.7305392956535295e7 0.0
0.0 0.0 0.0

1.1516958910473334e7 2.5717051135292634e7 0.0
2.5717051135292634e7 2.6508503749276088e6 0.0
0.0 0.0 0.0

-6.363365494876552e6 5.801189404290184e6 0.0
5.801189404290184e6 6.175076429763963e7 0.0
0.0 0.0 0.0

-2.229736290835953e6 2.116492121116671e7 0.0
2.116492121116671e7 1.1358360830843076e7 0.0
0.0 0.0 0.0

-1.0324704977517631e6 2.0281624209120154e7 0.0
2.0281624209120154e7 -1.129310889951616e7 0.0
0.0 0.0 0.0

1.683634892886404e6 1.8008696073568355e7 0.0
1.8008696073568355e7 6.438508449866047e7 0.0
0.0 0.0 0.0

-760377.3980670716 5.642118416684591e6 0.0
5.642118416684591e6 1.606425147861053e6 0.0
0.0 0.0 0.0

225203.7010093839 2.726719452316256e7 0.0
2.726719452316256e7 -8.614382633809524e6 0.0
0.0 0.0 0.0

6.753233958069272e6 2.3490703911853217e7 0.0
2.3490703911853217e7 1.940735836902661e7 0.0
0.0 0.0 0.0

2.510960496974826e6 8.96401162422995e6 0.0
8.96401162422995e6 -2.2429984070145212e7 0.0
0.0 0.0 0.0

-3.0610441423130753e6 1.6191744625094557e7 0.0
1.6191744625094557e7 -932084.4653538852 0.0
0.0 0.0 0.0

-2.8002238912577014e6 1.7108448830751065e7 0.0
1.7108448830751065e7 4.895255491818871e7 0.0
0.0 0.0 0.0

1.4270496536297686e6 1.0252868531377617e7 0.0
1.0252868531377617e7 -4.2040529807433434e7 0.0
0.0 0.0 0.0

1.0297121930048866e6 2.138124321053138e7 0.0
2.138124321053138e7 -2.0495475798460796e7 0.0
0.0 0.0 0.0

-7.842858397321923e6 2.266501002289034e6 0.0
2.266501002289034e6 4.384900614763528e7 0.0
0.0 0.0 0.0

1.1113452313597053e6 1.2026512772510666e7 0.0
1.2026512772510666e7 -4.011498693080399e7 0.0
0.0 0.0 0.0

-40426.03431629483 1.158705418745247e7 0.0
1.158705418745247e7 -6.827539985738264e6 0.0
0.0 0.0 0.0

2.1561603401461877e6 9.480939198166233e6 0.0
9.480939198166233e6 -3.51751325204053e7 0.0
0.0 0.0 0.0

-56664.228884954005 1.6854813671972923e7 0.0
1.6854813671972923e7 -1.63461046757194e7 0.0
0.0 0.0 0.0

244936.1186463572 1.9410485181040127e7 0.0
1.9410485181040127e7 -1.8147227552332144e7 0.0
0.0 0.0 0.0

-9.718482950236669e6 9.219706828134697e6 0.0
9.219706828134697e6 3.589568930372961e7 0.0
0.0 0.0 0.0

5.040988283665937e6 2.4000531693233695e7 0.0
2.4000531693233695e7 5.984054034701215e6 0.0
0.0 0.0 0.0

-1.0422157639039557e7 5.492070725917214e6 0.0
5.492070725917214e6 2.271496386048215e7 0.0
0.0 0.0 0.0

1.1120522417209651e6 1.8406322281845096e7 0.0
1.8406322281845096e7 -2.5295438341435462e7 0.0
0.0 0.0 0.0

-5.606110357164318e6 6.192859639556336e6 0.0
6.192859639556336e6 1.1178424477684159e7 0.0
0.0 0.0 0.0

357182.52363529895 5.9035549226363655e6 0.0
5.9035549226363655e6 -6.773377633189963e6 0.0
0.0 0.0 0.0

-71166.58533227816 1.8556360360951316e7 0.0
1.8556360360951316e7 -1.660937017237911e7 0.0
0.0 0.0 0.0

3.0133014615245545e6 5.5731144310361305e6 0.0
5.5731144310361305e6 -2.3283584614139315e7 0.0
0.0 0.0 0.0

-1.0187682866812075e7 5.127366574292892e6 0.0
5.127366574292892e6 3.175651073516775e7 0.0
0.0 0.0 0.0

929741.2732748426 3.474447647859257e6 0.0
3.474447647859257e6 -6.254904701042848e7 0.0
0.0 0.0 0.0

-1.5519164601972594e6 2.076112056747936e7 0.0
2.076112056747936e7 -5.173054316391057e6 0.0
0.0 0.0 0.0

-1.0310751847297428e7 1.353085044745656e7 0.0
1.353085044745656e7 2.4761779728232734e7 0.0
0.0 0.0 0.0

-9.355986356822066e6 2.772182381048889e7 0.0
2.772182381048889e7 5.960273046808733e6 0.0
0.0 0.0 0.0

4.681757531692121e6 2.474852056171456e7 0.0
2.474852056171456e7 1.0684473781653529e7 0.0
0.0 0.0 0.0

-4.1915893743265662e6 2.072640952779978e7 0.0
2.072640952779978e7 3.108874867617212e7 0.0
0.0 0.0 0.0

-3.7586555252754698e6 2.2210287288502086e7 0.0
2.2210287288502086e7 2.3568469794419557e7 0.0
0.0 0.0 0.0

-7.725880559251679e6 53170.01033953247 0.0
53170.01033953247 4.3838692433509484e7 0.0
0.0 0.0 0.0

-2.6075823332199487e6 1.6305983062251639e7 0.0
1.6305983062251639e7 5.776807035909975e6 0.0
0.0 0.0 0.0

6.338905228411955e6 2.363617877656653e7 0.0
2.363617877656653e7 1.9061188912036084e7 0.0
0.0 0.0 0.0

-3.9751367171863625e6 2.6000929717709184e7 0.0
2.6000929717709184e7 1.336177539914406e7 0.0
0.0 0.0 0.0

-1.039857012186332e7 1.0781601424136491e7 0.0
1.0781601424136491e7 3.0600392259833075e7 0.0
0.0 0.0 0.0

505355.95118059404 1.6560285596913338e7 0.0
1.6560285596913338e7 -2.876465384551142e7 0.0
0.0 0.0 0.0

1.921547720568996e6 7.624949519829228e6 0.0
7.624949519829228e6 -2.032852040565532e7 0.0
0.0 0.0 0.0

990010.4643937098 2.0257187927660633e7 0.0
2.0257187927660633e7 -1.679141172958622e7 0.0
0.0 0.0 0.0

-2.831808053343078e6 1.4831755839409629e7 0.0
1.4831755839409629e7 5.970584131818867e6 0.0
0.0 0.0 0.0

2.9729877506698333e6 5.607776020484405e6 0.0
5.607776020484405e6 -1.4447725926919345e7 0.0
0.0 0.0 0.0

114256.21692318888 2.797190503084944e7 0.0
2.797190503084944e7 -7.351479591460154e6 0.0
0.0 0.0 0.0

-6.829630551241826e6 5.109792086337161e6 0.0
5.109792086337161e6 5.1633660353587165e7 0.0
0.0 0.0 0.0

-7.824566714058856e6 3.3188914233870464e6 0.0
3.3188914233870464e6 4.5270821084850654e7 0.0
0.0 0.0 0.0

-6.901380180908166e6 1.3537981800786935e7 0.0
1.3537981800786935e7 4.487738758768024e7 0.0
0.0 0.0 0.0

460637.4018667019 2.5434274249415305e7 0.0
2.5434274249415305e7 -1.1989740264102932e7 0.0
0.0 0.0 0.0

-2.8281338885918646e6 9.831354468833901e6 0.0
9.831354468833901e6 -1.5118308141497148e6 0.0
0.0 0.0 0.0

2.1576242487916943e7 2.7239540512453485e7 0.0
2.7239540512453485e7 1.7136981681186285e7 0.0
0.0 0.0 0.0

1.5791184517009176e7 2.366957059512263e7 0.0
2.366957059512263e7 6.3190810438771546e7 0.0
0.0 0.0 0.0

2.8816017287320346e6 6.852592875409056e6 0.0
6.852592875409056e6 -1.9092221453961637e7 0.0
0.0 0.0 0.0

-1.0218660351248676e7 7.448732337843055e6 0.0
7.448732337843055e6 2.7214947473044537e7 0.0
0.0 0.0 0.0

-2.4014601003618506e6 1.7703124974712525e7 0.0
1.7703124974712525e7 5.58255589621702e6 0.0
0.0 0.0 0.0

-3.6565571662666686e6 2.42602071836306e7 0.0
2.42602071836306e7 1.791564980528441e7 0.0
0.0 0.0 0.0

2.0126817138031852e6 6.426010345519528e6 0.0
6.426010345519528e6 -4.562992011009105e7 0.0
0.0 0.0 0.0

2.1828113792456463e6 7.628443633625736e6 0.0
7.628443633625736e6 -3.893934672712491e7 0.0
0.0 0.0 0.0

-8.021142901612358e6 7.374013286701362e6 0.0
7.374013286701362e6 9.24009390664973e6 0.0
0.0 0.0 0.0

-2.0899531385626676e6 2.2410438940986607e7 0.0
2.2410438940986607e7 1.084523729881992e7 0.0
0.0 0.0 0.0

1.460240754560504e6 1.836567743918423e7 0.0
1.836567743918423e7 5.985567592042117e7 0.0
0.0 0.0 0.0

995238.6567132976 2.1410216449521784e7 0.0
2.1410216449521784e7 -1.5979009244397398e7 0.0
0.0 0.0 0.0

-5.311207629534772e6 8.745268527225202e6 0.0
8.745268527225202e6 1.1336243219474772e7 0.0
0.0 0.0 0.0

2.2124402777481973e6 6.7013977589037875e6 0.0
6.7013977589037875e6 -4.078407039281213e7 0.0
0.0 0.0 0.0

-2.9984892157478635e6 2.5041085580844447e7 0.0
2.5041085580844447e7 1.1428364859164778e7 0.0
0.0 0.0 0.0

1.688465238835927e6 9.274668940729886e6 0.0
9.274668940729886e6 -2.6015687195352666e7 0.0
0.0 0.0 0.0

-8.799592804899823e6 1.0079551109353518e7 0.0
1.0079551109353518e7 66853.29677263973 0.0
0.0 0.0 0.0

156692.22252878454 1.7767057340082463e7 0.0
1.7767057340082463e7 -1.8107920290028993e7 0.0
0.0 0.0 0.0

-6.808006490385909e6 3.435377382496863e6 0.0
3.435377382496863e6 6.274792985013567e6 0.0
0.0 0.0 0.0

-3.056159050939985e6 1.3257402322885435e7 0.0
1.3257402322885435e7 6.173168188000043e6 0.0
0.0 0.0 0.0

-3.2108341045539505e6 1.1495600822840452e7 0.0
1.1495600822840452e7 6.393202668232919e6 0.0
0.0 0.0 0.0

-208063.15795342252 1.8056122366882388e7 0.0
1.8056122366882388e7 -1.5798622898320949e7 0.0
0.0 0.0 0.0

-2.9686731680291193e6 1.761634790060784e7 0.0
1.761634790060784e7 -776225.0659921616 0.0
0.0 0.0 0.0

-9.829561621630711e6 1.1025322193712391e7 0.0
1.1025322193712391e7 3.418409491641404e7 0.0
0.0 0.0 0.0

-1.9389538453842103e6 1.6047191511290602e7 0.0
1.6047191511290602e7 5.647954746368195e7 0.0
0.0 0.0 0.0

-5.297619800120704e6 1.345071677823858e7 0.0
1.345071677823858e7 5.1365966501513675e7 0.0
0.0 0.0 0.0

-2.4328480380489305e6 1.660496607529794e7 0.0
1.660496607529794e7 5.253929760729377e7 0.0
0.0 0.0 0.0

-3.96048052414798e6 8.755992955243517e6 0.0
8.755992955243517e6 7.609544936822721e7 0.0
0.0 0.0 0.0

-548361.6319359019 2.3713950472508114e7 0.0
2.3713950472508114e7 1.0442254076099237e7 0.0
0.0 0.0 0.0

-6.5796232224869095e6 7.11129939203395e6 0.0
7.11129939203395e6 5.847185443851692e7 0.0
0.0 0.0 0.0

-1.2649750404550552e6 2.6075860595792815e7 0.0
2.6075860595792815e7 -5.690343437039402e6 0.0
0.0 0.0 0.0

-2.157627089712005e6 2.2804057420437444e7 0.0
2.2804057420437444e7 -1.3365674013750037e7 0.0
0.0 0.0 0.0

-6.6328858915884726e7 4.1360878720932454e7 0.0
4.1360878720932454e7 -1.392243548907575e7 0.0
0.0 0.0 0.0

2.553583398496785e6 8.53345062280103e6 0.0
8.53345062280103e6 -1.889088869620523e7 0.0
0.0 0.0 0.0

1.735983067269303e6 1.440178913984137e7 0.0
1.440178913984137e7 -2.7220036625379976e7 0.0
0.0 0.0 0.0

537050.4797818246 2.821307772076674e7 0.0
2.821307772076674e7 -6.207223859452099e6 0.0
0.0 0.0 0.0

-1.6674421133123746e6 2.6494681656591784e7 0.0
2.6494681656591784e7 4.432061935924599e6 0.0
0.0 0.0 0.0

2.3140030815013926e6 8.635587574841373e6 0.0
8.635587574841373e6 -3.454073585054618e7 0.0
0.0 0.0 0.0

2.245647438095898e7 2.977395577666958e7 0.0
2.977395577666958e7 -2.3769008767918535e6 0.0
0.0 0.0 0.0

-4.330817565755348e6 1.406940756849875e7 0.0
1.406940756849875e7 4.803455452577205e6 0.0
0.0 0.0 0.0

-127787.39616436511 6.744893564911e6 0.0
6.744893564911e6 -6.3916014253181145e7 0.0
0.0 0.0 0.0

-4.774288147372045e6 1.2406939553659962e7 0.0
1.2406939553659962e7 4.8636434898975305e6 0.0
0.0 0.0 0.0

1.5592928134639068e6 9.199137253773984e6 0.0
9.199137253773984e6 -1.99739191651421e7 0.0
0.0 0.0 0.0

-4.116355180620972e6 2.1196630519008566e7 0.0
2.1196630519008566e7 2.9273201614163473e7 0.0
0.0 0.0 0.0

-4.3527969195296675e7 3.504101368692667e7 0.0
3.504101368692667e7 -978418.6560007371 0.0
0.0 0.0 0.0

-9.030529235278348e6 2.0499200785733869e6 0.0
2.0499200785733869e6 3.611957193312979e7 0.0
0.0 0.0 0.0

1.0396926098734168e6 2.2487942265324246e7 0.0
2.2487942265324246e7 -1.5130752702886254e7 0.0
0.0 0.0 0.0

-1.9834495364461485e7 2.9423119797646202e7 0.0
2.9423119797646202e7 -9.962724218179762e6 0.0
0.0 0.0 0.0

2.9508144289634107e6 6.132266223044183e6 0.0
6.132266223044183e6 -1.8285387249012526e7 0.0
0.0 0.0 0.0

-9.803943165083783e6 1.1970754251513312e7 0.0
1.1970754251513312e7 2.9086897617849167e7 0.0
0.0 0.0 0.0

723583.5276939627 1.9399257346385192e7 0.0
1.9399257346385192e7 -1.528998010954198e7 0.0
0.0 0.0 0.0

-746406.7041002968 1.8456634836157493e7 0.0
1.8456634836157493e7 -7.208072417517151e6 0.0
0.0 0.0 0.0

-3.936053479127338e6 1.558965130552555e7 0.0
1.558965130552555e7 4.68291747672861e6 0.0
0.0 0.0 0.0

-7.580915881225813e6 1.197324888561917e7 0.0
1.197324888561917e7 4.481284387892987e7 0.0
0.0 0.0 0.0

2.6616964192977957e6 4.306329997136315e6 0.0
4.306329997136315e6 -3.826749647010075e7 0.0
0.0 0.0 0.0

2.309226758477512e6 5.733750992549284e6 0.0
5.733750992549284e6 -2.3123825018912207e7 0.0
0.0 0.0 0.0

-2.9335046650601593e6 2.4672875384642866e7 0.0
2.4672875384642866e7 1.0424910680073902e7 0.0
0.0 0.0 0.0

-1.0894889471376207e7 3.5371116214891993e6 0.0
3.5371116214891993e6 1.6784346654941015e7 0.0
0.0 0.0 0.0

-201675.25404213928 1.632335359671412e7 0.0
1.632335359671412e7 -1.5452698960947948e7 0.0
0.0 0.0 0.0

2.609587459654879e6 7.5589006811652575e6 0.0
7.5589006811652575e6 -2.889338650742054e7 0.0
0.0 0.0 0.0

-7.5327653460525945e6 6.538267866048629e6 0.0
6.538267866048629e6 4.8719015594405495e7 0.0
0.0 0.0 0.0

-1.1946049340364472e6 2.3957752683742054e7 0.0
2.3957752683742054e7 7.280969434902094e6 0.0
0.0 0.0 0.0

-1.0036369861072509e7 3.963757876426136e6 0.0
3.963757876426136e6 3.0904548340879858e7 0.0
0.0 0.0 0.0

626000.587926019 1.3744479859295024e7 0.0
1.3744479859295024e7 -3.836631020010079e7 0.0
0.0 0.0 0.0

-620232.1514706723 2.0909624496437795e7 0.0
2.0909624496437795e7 -2.3177683096185643e7 0.0
0.0 0.0 0.0

-9.714416411168035e6 1.4726140844434967e7 0.0
1.4726140844434967e7 2.3752844680855803e7 0.0
0.0 0.0 0.0

558197.5898375027 1.769746398887391e7 0.0
1.769746398887391e7 -2.8919730300878827e7 0.0
0.0 0.0 0.0

1.1364042961245095e6 1.8200271118600592e7 0.0
1.8200271118600592e7 -1.9127171497047964e7 0.0
0.0 0.0 0.0

-2.111711670856214e6 2.452943570567843e6 0.0
2.452943570567843e6 4.560968549858512e6 0.0
0.0 0.0 0.0

-1.0269979506583618e7 3.012609995949472e6 0.0
3.012609995949472e6 2.7593639255830314e7 0.0
0.0 0.0 0.0

-226578.61958331335 1.3929604055646846e7 0.0
1.3929604055646846e7 -1.3827808213326342e7 0.0
0.0 0.0 0.0

136362.8620697921 1.253425191746306e7 0.0
1.253425191746306e7 -1.424896264603029e7 0.0
0.0 0.0 0.0

912583.3464699592 1.9825888886965524e7 0.0
1.9825888886965524e7 -1.6038760699434346e7 0.0
0.0 0.0 0.0

-2.1324718760668198e6 2.416994503772826e7 0.0
2.416994503772826e7 4.1069414304374917e6 0.0
0.0 0.0 0.0

935844.1969094016 1.089567394531697e7 0.0
1.089567394531697e7 -1.715023515654065e7 0.0
0.0 0.0 0.0

-3.9281397164117508e6 1.5311276564130077e7 0.0
1.5311276564130077e7 -5.784978478118034e7 0.0
0.0 0.0 0.0

-1.0765056205324752e7 5.521399607888097e6 0.0
5.521399607888097e6 1.6057309349221215e7 0.0
0.0 0.0 0.0

-1.41696754720483e7 2.0689471515691966e7 0.0
2.0689471515691966e7 -5.246962586069785e7 0.0
0.0 0.0 0.0

-1.403857369419304e8 1.7441034844517745e7 0.0
1.7441034844517745e7 -3.7299993140145615e6 0.0
0.0 0.0 0.0

1.3102800521392828e8 1.8555105745715164e7 0.0
1.8555105745715164e7 6.8034547157089785e6 0.0
0.0 0.0 0.0

-5.467047806407159e6 1.5755776611727975e7 0.0
1.5755776611727975e7 -6.675549802632455e7 0.0
0.0 0.0 0.0

-5.920430092378221e6 1.8730764145519752e7 0.0
1.8730764145519752e7 2.4595835894172538e7 0.0
0.0 0.0 0.0

-2.4853574132683445e6 2.3428229318239894e7 0.0
2.3428229318239894e7 1.1492844371812707e6 0.0
0.0 0.0 0.0

-528589.728002992 1.5264756045444742e7 0.0
1.5264756045444742e7 -1.3375946729404248e7 0.0
0.0 0.0 0.0

-1.355004327464466e6 7.192946157323445e6 0.0
7.192946157323445e6 -3.5889347279359982e6 0.0
0.0 0.0 0.0

7411.843268579571 8.151777388880877e6 0.0
8.151777388880877e6 -2.17937222097795e6 0.0
0.0 0.0 0.0

-3.590891731328327e6 1.7028412686820608e7 0.0
1.7028412686820608e7 4.5386326563373245e6 0.0
0.0 0.0 0.0

-4.679042284944968e6 1.5492201404509569e7 0.0
1.5492201404509569e7 -6.2063319295061745e7 0.0
0.0 0.0 0.0

930548.4521605233 1.33701535661387e7 0.0
1.33701535661387e7 -1.292449471808782e7 0.0
0.0 0.0 0.0

-9.181725769739723e6 5.064115259950759e6 0.0
5.064115259950759e6 3.9413241029665336e7 0.0
0.0 0.0 0.0

1.0834929945185918e8 2.3044478341107216e7 0.0
2.3044478341107216e7 314296.39555665106 0.0
0.0 0.0 0.0

600593.4877818339 1.474412047515045e7 0.0
1.474412047515045e7 -1.2539459416746307e7 0.0
0.0 0.0 0.0

2.61202614122756e6 7.060814498941155e6 0.0
7.060814498941155e6 -3.3060387402034312e7 0.0
0.0 0.0 0.0

2.461035491612846e6 7.8310601345779495e6 0.0
7.8310601345779495e6 -3.3810698305993035e7 0.0
0.0 0.0 0.0

-4.058751032707544e6 2.168822677599189e7 0.0
2.168822677599189e7 2.748811868641348e7 0.0
0.0 0.0 0.0

1.4693294837043928e6 1.6641891746019373e7 0.0
1.6641891746019373e7 -2.21452663976769e7 0.0
0.0 0.0 0.0

-4.438863018060448e6 2.4604440393455595e7 0.0
2.4604440393455595e7 -1.4332131852651315e7 0.0
0.0 0.0 0.0

9.431889275643373e6 2.688362701342887e7 0.0
2.688362701342887e7 -2.6503169355513453e6 0.0
0.0 0.0 0.0

-1.8746600093762306e6 1.5533583233062005e7 0.0
1.5533583233062005e7 170451.96071862231 0.0
0.0 0.0 0.0

1.4231705597550361e6 6.546210122939783e6 0.0
6.546210122939783e6 -5.6802135615162365e6 0.0
0.0 0.0 0.0

-3.6251646580536594e6 1.069999523746919e7 0.0
1.069999523746919e7 664725.8089532312 0.0
0.0 0.0 0.0

-7.649066141855545e6 8.0030048757744795e6 0.0
8.0030048757744795e6 1.5500583836573929e7 0.0
0.0 0.0 0.0

-8.0444635514123235e6 1.8887936667388e7 0.0
1.8887936667388e7 -3.735486592305465e7 0.0
0.0 0.0 0.0

1.4149520787301734e6 1.3501746854434498e7 0.0
1.3501746854434498e7 -3.3358288529056158e7 0.0
0.0 0.0 0.0

1.9161882815426253e6 6.804857389260495e6 0.0
6.804857389260495e6 -1.9355724681351416e7 0.0
0.0 0.0 0.0

2.0081662720640171e6 1.0279480269111129e7 0.0
1.0279480269111129e7 -1.6109016603589226e7 0.0
0.0 0.0 0.0

-1.9176978491027788e6 1.8381134899452724e7 0.0
1.8381134899452724e7 388504.914639245 0.0
0.0 0.0 0.0

1.4866174888551943e6 9.83725314030598e6 0.0
9.83725314030598e6 -2.099629564288596e7 0.0
0.0 0.0 0.0

-1.9272794687967682e6 8.972906878193254e6 0.0
8.972906878193254e6 -3.4843594790136237e6 0.0
0.0 0.0 0.0

3.16411982402071e6 4.73618791589396e6 0.0
4.73618791589396e6 -2.4688894933809757e7 0.0
0.0 0.0 0.0

696262.1882951492 1.7634832587077618e7 0.0
1.7634832587077618e7 -1.5122043454072746e7 0.0
0.0 0.0 0.0

-1.0607067905092977e7 7.476787450821946e6 0.0
7.476787450821946e6 1.4913042826880455e7 0.0
0.0 0.0 0.0

437280.7836328754 2.723514604083059e7 0.0
2.723514604083059e7 -9.494153501321327e6 0.0
0.0 0.0 0.0

643019.0610641204 6.205402599667592e6 0.0
6.205402599667592e6 -5.522596649648701e7 0.0
0.0 0.0 0.0

581798.3372500828 1.889924356172805e7 0.0
1.889924356172805e7 -1.4511644369608197e7 0.0
0.0 0.0 0.0

2.485776451949006e6 9.375983834250348e6 0.0
9.375983834250348e6 -2.576161407246529e7 0.0
0.0 0.0 0.0

-4.157736542436451e6 5.21674220855416e6 0.0
5.21674220855416e6 9.02085030513293e6 0.0
0.0 0.0 0.0

2.572436205186976e6 8.502653969406381e6 0.0
8.502653969406381e6 -2.7363021088197038e7 0.0
0.0 0.0 0.0

-1.891688238240438e6 2.396200636462968e7 0.0
2.396200636462968e7 7.441478498371983e6 0.0
0.0 0.0 0.0

3.2817798244451922e6 2.9437302843180966e7 0.0
2.9437302843180966e7 -8.944352035110448e6 0.0
0.0 0.0 0.0

-1.729342020878628e6 2.184559600632559e7 0.0
2.184559600632559e7 -2.2688276009964276e7 0.0
0.0 0.0 0.0

-185832.93534380593 7.372887385698991e6 0.0
7.372887385698991e6 -6.935846388259082e6 0.0
0.0 0.0 0.0

3.1337170828254353e6 3.0639207526263174e7 0.0
3.0639207526263174e7 -6.964719005656215e6 0.0
0.0 0.0 0.0

1.146201106392365e6 2.5164520950371977e7 0.0
2.5164520950371977e7 -1.1564923554703806e7 0.0
0.0 0.0 0.0

-1.1145551216122843e7 1.0405387261750368e7 0.0
1.0405387261750368e7 2.371339444437814e7 0.0
0.0 0.0 0.0

-3.1996297079169992e6 2.5515922671427768e7 0.0
2.5515922671427768e7 1.5782828282795336e7 0.0
0.0 0.0 0.0

-7.894316941959335e6 4.61521678496059e6 0.0
4.61521678496059e6 8.832176855193168e6 0.0
0.0 0.0 0.0

-2.637274874260303e6 1.2466408525327854e7 0.0
1.2466408525327854e7 4.1489478140367977e6 0.0
0.0 0.0 0.0

-6.024337181113955e6 9.567011083281584e6 0.0
9.567011083281584e6 5.486647336788237e7 0.0
0.0 0.0 0.0

-4.888629629766487e6 1.5917681297219336e7 0.0
1.5917681297219336e7 1.0328213619593533e7 0.0
0.0 0.0 0.0

4.446873872273267e6 2.3487677953135207e7 0.0
2.3487677953135207e7 2.922020210713339e6 0.0
0.0 0.0 0.0

360616.1921610618 1.6096914900362365e7 0.0
1.6096914900362365e7 -1.2072650323323896e7 0.0
0.0 0.0 0.0

-371539.81405739114 1.758320216107177e7 0.0
1.758320216107177e7 -1.4861599281259136e7 0.0
0.0 0.0 0.0

-3.608929028156543e6 1.5303159536079424e7 0.0
1.5303159536079424e7 -5.396578720021662e7 0.0
0.0 0.0 0.0

161021.18105657026 6.700370919801926e6 0.0
6.700370919801926e6 -5.892600479954353e7 0.0
0.0 0.0 0.0

-9.927013702490821e6 1.3210874336893095e7 0.0
1.3210874336893095e7 3.0187480365105994e7 0.0
0.0 0.0 0.0

-2.342198112724439e6 2.822456604912214e7 0.0
2.822456604912214e7 7.825701268962603e6 0.0
0.0 0.0 0.0

-8.671456288901933e6 5.427471615035642e6 0.0
5.427471615035642e6 4.368877692861838e7 0.0
0.0 0.0 0.0

1.0531035691616805e6 2.3506558385180436e7 0.0
2.3506558385180436e7 -1.4346204496502854e7 0.0
0.0 0.0 0.0

797682.5075024534 2.2846566716119055e7 0.0
2.2846566716119055e7 -1.7333913225352876e7 0.0
0.0 0.0 0.0

1.8161705487844255e7 6.216012159177772e6 0.0
6.216012159177772e6 -1.76895196883401e6 0.0
0.0 0.0 0.0

1.267696228552721e6 1.0590017533041216e7 0.0
1.0590017533041216e7 -1.1139469396404473e7 0.0
0.0 0.0 0.0

-8.121404368334343e6 1.5982359464067474e7 0.0
1.5982359464067474e7 1.981478644426426e7 0.0
0.0 0.0 0.0

-4.072718946327136e6 2.1778929239850707e7 0.0
2.1778929239850707e7 -2.1912806366593793e7 0.0
0.0 0.0 0.0

593924.1419763016 1.7160733075246777e7 0.0
1.7160733075246777e7 -1.4186656939743727e7 0.0
0.0 0.0 0.0

927764.2482902082 1.8630274493679635e7 0.0
1.8630274493679635e7 -1.6809543220478628e7 0.0
0.0 0.0 0.0

-6.062856508447604e6 1.5161935564341856e7 0.0
1.5161935564341856e7 4.3159688036712974e7 0.0
0.0 0.0 0.0

-1.0307143581731142e7 1.3014982012911653e7 0.0
1.3014982012911653e7 2.700244472531416e7 0.0
0.0 0.0 0.0

-550198.6886432939 1.7087796516041588e7 0.0
1.7087796516041588e7 -1.3909121998152178e7 0.0
0.0 0.0 0.0

-1.0224977767171571e6 2.1425592002567556e7 0.0
2.1425592002567556e7 -1.0871955104164712e7 0.0
0.0 0.0 0.0

-6.873026428274114e6 2.2269443279349033e7 0.0
2.2269443279349033e7 -1.4065091884673549e7 0.0
0.0 0.0 0.0

-1.166312961756493e6 2.9523123489873424e7 0.0
2.9523123489873424e7 -2.636818881910397e6 0.0
0.0 0.0 0.0

1.1143585800718516e6 1.361342870408291e7 0.0
1.361342870408291e7 -3.5791345367209695e7 0.0
0.0 0.0 0.0

-1.9790517662984275e6 3.5281754867161155e7 0.0
3.5281754867161155e7 2.621079426030612e6 0.0
0.0 0.0 0.0

-6.913583734346449e6 1.6768661053353487e7 0.0
1.6768661053353487e7 1.788634274442442e7 0.0
0.0 0.0 0.0

-1.0599163216788659e7 2.772619209118933e7 0.0
2.772619209118933e7 -1.3081267538273592e7 0.0
0.0 0.0 0.0

58912.39051419764 2.0428133011095945e7 0.0
2.0428133011095945e7 -2.0487030129081262e6 0.0
0.0 0.0 0.0

-1.089111952625325e6 2.2235612585485164e7 0.0
2.2235612585485164e7 -2.08902062825902e7 0.0
0.0 0.0 0.0

-2.900318507392671e6 2.1949094724555995e7 0.0
2.1949094724555995e7 -1.311261165135095e7 0.0
0.0 0.0 0.0

-3.209971204960154e6 2.719162541739735e7 0.0
2.719162541739735e7 1.0530132179939613e7 0.0
0.0 0.0 0.0

716372.1658816682 2.1813420070052795e7 0.0
2.1813420070052795e7 -1.3800143359916806e7 0.0
0.0 0.0 0.0

-730109.9587251334 1.6593993568490144e7 0.0
1.6593993568490144e7 -1.2868307977511412e7 0.0
0.0 0.0 0.0

-911667.8798961826 2.0564667685847607e7 0.0
2.0564667685847607e7 -2.5598929498621233e7 0.0
0.0 0.0 0.0

-1.7853030512968623e6 1.3798884358484175e7 0.0
1.3798884358484175e7 -6.681476056830734e6 0.0
0.0 0.0 0.0

-2.250600352040825e6 2.6593754381857432e7 0.0
2.6593754381857432e7 2.4811113764730883e6 0.0
0.0 0.0 0.0

-987273.1052894978 2.8876447530606516e7 0.0
2.8876447530606516e7 -3.889582428323838e6 0.0
0.0 0.0 0.0

-2.72037668501235e6 4.486592687586369e6 0.0
4.486592687586369e6 6.39922738720979e6 0.0
0.0 0.0 0.0

82557.00964145735 1.1881187123393347e7 0.0
1.1881187123393347e7 -1.3128860616635606e7 0.0
0.0 0.0 0.0

-433468.32067529357 3.0721375322257627e7 0.0
3.0721375322257627e7 -616509.4702328336 0.0
0.0 0.0 0.0

-2.6770506074166885e6 2.3431926601093434e7 0.0
2.3431926601093434e7 6.593832715374433e6 0.0
0.0 0.0 0.0

-1.0500269885696717e8 1.0796456880374761e7 0.0
1.0796456880374761e7 13387.072516307235 0.0
0.0 0.0 0.0

159852.9693834558 1.83262234163219e7 0.0
1.83262234163219e7 -2.905740666900868e7 0.0
0.0 0.0 0.0

-3.069090464637712e6 2.190023093967381e7 0.0
2.190023093967381e7 1.0066131839773202e7 0.0
0.0 0.0 0.0

-619230.118903804 2.6382600145931087e7 0.0
2.6382600145931087e7 -3.6370370324857873e6 0.0
0.0 0.0 0.0

-2.890286155971203e6 2.3116819305704586e7 0.0
2.3116819305704586e7 9.61693086221575e6 0.0
0.0 0.0 0.0

-2.832565207030651e6 2.4436970964859404e7 0.0
2.4436970964859404e7 1.0001933375033062e6 0.0
0.0 0.0 0.0

624453.3014142793 2.3740549028314456e7 0.0
2.3740549028314456e7 -1.184320372012474e7 0.0
0.0 0.0 0.0

-5.6085020107547855e6 1.7612750262257818e7 0.0
1.7612750262257818e7 1.5554095957087172e7 0.0
0.0 0.0 0.0

-9.624773749985417e6 9.486955088955095e6 0.0
9.486955088955095e6 3.3137784624448758e7 0.0
0.0 0.0 0.0

-832984.8946210672 1.457169436244049e7 0.0
1.457169436244049e7 -5.254470073877926e6 0.0
0.0 0.0 0.0

2.6195731456115274e6 6.361135245826424e6 0.0
6.361135245826424e6 -1.3083313511897156e7 0.0
0.0 0.0 0.0

-1.8107252730924916e6 1.8969222434732717e7 0.0
1.8969222434732717e7 -8.033773530506427e6 0.0
0.0 0.0 0.0

546494.7957481034 2.46036275305476e7 0.0
2.46036275305476e7 -1.3341181496261025e7 0.0
0.0 0.0 0.0

-2.810406781615605e6 2.2220603584218543e7 0.0
2.2220603584218543e7 6.887126946725684e6 0.0
0.0 0.0 0.0

-2.5434125599857992e6 1.7400404606635734e7 0.0
1.7400404606635734e7 -4.0737336187597048e6 0.0
0.0 0.0 0.0

-9.105155734464549e6 2.2971832529311883e6 0.0
2.2971832529311883e6 1.9056884147149738e7 0.0
0.0 0.0 0.0

1.8939204317618934e6 6.2312351775306e6 0.0
6.2312351775306e6 -1.5496499205683501e7 0.0
0.0 0.0 0.0

-8.212420363156298e6 8.688659068427255e6 0.0
8.688659068427255e6 4.304749533954788e7 0.0
0.0 0.0 0.0

-1.09354650505019e7 5.523581590097728e6 0.0
5.523581590097728e6 2.4538170273546755e7 0.0
0.0 0.0 0.0

-313806.95561189204 2.1737959691110272e7 0.0
2.1737959691110272e7 2.8362334814998716e7 0.0
0.0 0.0 0.0

-965474.8914165767 2.255567079671694e7 0.0
2.255567079671694e7 -1.038898928879369e7 0.0
0.0 0.0 0.0

-85678.03164433734 1.1150001041160049e7 0.0
1.1150001041160049e7 -1.2033885049505e7 0.0
0.0 0.0 0.0

-7.644413365728883e6 8.342018633918518e6 0.0
8.342018633918518e6 4.636443697221249e7 0.0
0.0 0.0 0.0

-286934.05865135463 2.6734646790029332e7 0.0
2.6734646790029332e7 -4.662550606003378e6 0.0
0.0 0.0 0.0

-3.5146190525211566e6 1.6321183974452356e7 0.0
1.6321183974452356e7 2.7299742368432297e6 0.0
0.0 0.0 0.0

-2.0414796609676117e6 1.161931098786644e7 0.0
1.161931098786644e7 2.0827475875552539e6 0.0
0.0 0.0 0.0

-2.0710253827584714e6 1.5176715956412436e7 0.0
1.5176715956412436e7 -6.2489037505934425e6 0.0
0.0 0.0 0.0

-4.32227394368221e6 1.9906416437288664e7 0.0
1.9906416437288664e7 -3.421492655373034e7 0.0
0.0 0.0 0.0

-1.950909436188683e6 2.321327239917509e7 0.0
2.321327239917509e7 9.079210680473007e6 0.0
0.0 0.0 0.0

1.3347476353799058e6 2.2783741796690956e7 0.0
2.2783741796690956e7 -1.7332375329158977e7 0.0
0.0 0.0 0.0

3.868314321124602e6 1.9002069994092856e7 0.0
1.9002069994092856e7 7.078325931760922e7 0.0
0.0 0.0 0.0

6.770640202109148e6 2.6199158189264074e7 0.0
2.6199158189264074e7 1.4104260236710347e7 0.0
0.0 0.0 0.0

-8.91994897675506e6 1.5708816283130793e7 0.0
1.5708816283130793e7 2.250358471971735e7 0.0
0.0 0.0 0.0

1.6047254142555185e6 1.427999872163416e7 0.0
1.427999872163416e7 -2.921575505112975e7 0.0
0.0 0.0 0.0

-1.4911101946302196e6 1.8189548217072617e7 0.0
1.8189548217072617e7 -2.855985838852441e6 0.0
0.0 0.0 0.0

2.6659794304076526e6 2.617533770395115e7 0.0
2.617533770395115e7 -1.2488940511519402e7 0.0
0.0 0.0 0.0

-2.1785317032355284e6 2.9649854942423526e7 0.0
2.9649854942423526e7 5.419711557578562e6 0.0
0.0 0.0 0.0

-848400.390249995 2.8155676624655537e7 0.0
2.8155676624655537e7 -4.971301994660383e6 0.0
0.0 0.0 0.0

-447694.02086050063 2.27325673732351e7 0.0
2.27325673732351e7 -1.9110058588207852e7 0.0
0.0 0.0 0.0

-1.392239951710549e6 1.6834361426342405e7 0.0
1.6834361426342405e7 -3.1502810229595895e6 0.0
0.0 0.0 0.0

-2.706480622026313e6 2.387216169116323e7 0.0
2.387216169116323e7 7.940071467156742e6 0.0
0.0 0.0 0.0

-1.1358455935903264e7 9.43964074010678e6 0.0
9.43964074010678e6 2.2238667698268972e7 0.0
0.0 0.0 0.0

2.0854070399076734e6 6.034685760359669e6 0.0
6.034685760359669e6 -1.8093929624061845e7 0.0
0.0 0.0 0.0

-1.064858769027641e6 1.925904641256033e7 0.0
1.925904641256033e7 -5.572661331062648e6 0.0
0.0 0.0 0.0

2.279880427664064e6 1.0477244662562834e7 0.0
1.0477244662562834e7 -2.1982912581141252e7 0.0
0.0 0.0 0.0

-1.7409693956227433e6 2.3446639117496055e7 0.0
2.3446639117496055e7 3.629867472471979e6 0.0
0.0 0.0 0.0

-1.2735631710906439e6 1.079940207159067e7 0.0
1.079940207159067e7 -40551.484191675845 0.0
0.0 0.0 0.0

892307.9852683845 3.3128378091875173e7 0.0
3.3128378091875173e7 -4.024227581764153e6 0.0
0.0 0.0 0.0

-6.913305435347323e7 6.032767497201709e6 0.0
6.032767497201709e6 4.212746987262245e6 0.0
0.0 0.0 0.0

-563447.6542787384 9.922991042197375e6 0.0
9.922991042197375e6 -2.0342812737240568e6 0.0
0.0 0.0 0.0

-5.057792537224811e6 1.8665626511314858e7 0.0
1.8665626511314858e7 -4.244654547929583e7 0.0
0.0 0.0 0.0

1.994816551079854e6 2.5035804423761282e7 0.0
2.5035804423761282e7 -1.0781588755028667e7 0.0
0.0 0.0 0.0

670628.4011907978 1.5293723907135181e7 0.0
1.5293723907135181e7 -1.3607562262970593e7 0.0
0.0 0.0 0.0

855636.4156717276 2.07212705924797e7 0.0
2.07212705924797e7 -2.2082980973891273e7 0.0
0.0 0.0 0.0

132932.20122996136 9.147050158407824e6 0.0
9.147050158407824e6 -3.851394066154021e6 0.0
0.0 0.0 0.0

2.6265331585702896e6 8.582550480204856e6 0.0
8.582550480204856e6 -2.48899511431755e7 0.0
0.0 0.0 0.0

-1.3678624320335174e6 3.01564017644128e7 0.0
3.01564017644128e7 -1.5063739475196227e6 0.0
0.0 0.0 0.0

-400691.2595687667 6.528037260064194e6 0.0
6.528037260064194e6 -5.177677818745405e6 0.0
0.0 0.0 0.0

529249.5971566737 1.1699951812060956e7 0.0
1.1699951812060956e7 -1.573243684776365e7 0.0
0.0 0.0 0.0

1.109236614780202e6 3.469375725831085e7 0.0
3.469375725831085e7 -2.9919516500656963e6 0.0
0.0 0.0 0.0

5.1466995441818265e6 2.4653263222411696e7 0.0
2.4653263222411696e7 1.641094245218501e6 0.0
0.0 0.0 0.0

3.020041216072118e6 2.822064131252219e7 0.0
2.822064131252219e7 -9.771671610592926e6 0.0
0.0 0.0 0.0

369050.9029631838 9.117219066513453e6 0.0
9.117219066513453e6 -6.99357397807133e7 0.0
0.0 0.0 0.0

-5.331704056792496e6 1.9090238549026337e7 0.0
1.9090238549026337e7 3.296940105675133e7 0.0
0.0 0.0 0.0

-1.1815364018938423e6 2.8993162004652075e7 0.0
2.8993162004652075e7 1.2287388559585589e6 0.0
0.0 0.0 0.0

2.218600337239505e6 1.007630997923768e7 0.0
1.007630997923768e7 -1.8576582652783472e7 0.0
0.0 0.0 0.0

700325.0071319544 8.278588970829823e6 0.0
8.278588970829823e6 -5.520776991053349e6 0.0
0.0 0.0 0.0

-207146.15288116643 1.0437011120224826e7 0.0
1.0437011120224826e7 -1.086700420006302e7 0.0
0.0 0.0 0.0

-3.832937767881203e6 3.383304186591439e7 0.0
3.383304186591439e7 5.3399977026415905e6 0.0
0.0 0.0 0.0

-9.607574409779413e6 3.0057876538965343e6 0.0
3.0057876538965343e6 2.631004928255297e7 0.0
0.0 0.0 0.0

-7.562900804130293e6 1.7567459550993264e7 0.0
1.7567459550993264e7 3.007882754935412e7 0.0
0.0 0.0 0.0

-278503.63855402404 2.84422182177388e7 0.0
2.84422182177388e7 -3.1815696915188516e6 0.0
0.0 0.0 0.0

970896.4212719733 1.742559984515845e7 0.0
1.742559984515845e7 -1.7569063028974418e7 0.0
0.0 0.0 0.0

-1.6089958300969107e6 2.3415085921816055e7 0.0
2.3415085921816055e7 2.2828402257429324e7 0.0
0.0 0.0 0.0

-2.5251965527178473e6 1.8745756015251234e7 0.0
1.8745756015251234e7 -3.772940251314237e6 0.0
0.0 0.0 0.0

445639.3835721621 1.839198875123188e7 0.0
1.839198875123188e7 -1.3652961060989037e7 0.0
0.0 0.0 0.0

-2.1637089525380284e6 1.7987239515722618e7 0.0
1.7987239515722618e7 -3.539315599702955e7 0.0
0.0 0.0 0.0

4.1718087565077716e6 2.9892537706526984e7 0.0
2.9892537706526984e7 -8.208754757542174e6 0.0
0.0 0.0 0.0

-3.038245707724206e6 1.5616595450267866e7 0.0
1.5616595450267866e7 -5.052310244088007e7 0.0
0.0 0.0 0.0

-1.142213220347254e7 8.21390670714203e6 0.0
8.21390670714203e6 2.1096720089849025e7 0.0
0.0 0.0 0.0

6.763630975720133e6 2.311906005349937e7 0.0
2.311906005349937e7 2.8031334391372517e7 0.0
0.0 0.0 0.0

-4.429042155000596e6 3.2514694965108745e7 0.0
3.2514694965108745e7 5.766274234687726e6 0.0
0.0 0.0 0.0

-2.3059009472278873e6 1.927060294289665e7 0.0
1.927060294289665e7 -5.127135400733849e6 0.0
0.0 0.0 0.0

5.923870644309731e6 2.616887437785046e7 0.0
2.616887437785046e7 -6.12145881743179e6 0.0
0.0 0.0 0.0

-73766.85825646599 2.779029675256779e7 0.0
2.779029675256779e7 -4.382158101971052e6 0.0
0.0 0.0 0.0

-7.293619859445214e6 9.966784812102333e6 0.0
9.966784812102333e6 9.264582435697747e6 0.0
0.0 0.0 0.0

140249.46955220215 2.3241384249208204e7 0.0
2.3241384249208204e7 -1.745778789398774e7 0.0
0.0 0.0 0.0

1.4892603024788126e6 1.6519236162298145e7 0.0
1.6519236162298145e7 -2.4441218874904588e7 0.0
0.0 0.0 0.0

1.368239248589431e6 1.7226480659128677e7 0.0
1.7226480659128677e7 -2.2793988612227306e7 0.0
0.0 0.0 0.0

-1.1038470948729166e6 1.7377628706311215e7 0.0
1.7377628706311215e7 -1.1277345915647274e7 0.0
0.0 0.0 0.0

1.9815404941774033e7 3.1439584630453914e7 0.0
3.1439584630453914e7 -4.36941174128614e6 0.0
0.0 0.0 0.0

1.299281762052061e6 1.2572567498238262e7 0.0
1.2572567498238262e7 -1.436723038167419e7 0.0
0.0 0.0 0.0

2.1727907093057185e6 5.4137916817944255e6 0.0
5.4137916817944255e6 -1.703826444930515e7 0.0
0.0 0.0 0.0

1.5523436121420301e6 1.5752737436140483e7 0.0
1.5752737436140483e7 -2.5961238823207967e7 0.0
0.0 0.0 0.0

649917.8314420283 7.212737186587845e6 0.0
7.212737186587845e6 -5.2384189370162465e7 0.0
0.0 0.0 0.0

-9.486910276010036e6 9.278162028276997e6 0.0
9.278162028276997e6 1.3295328782656029e7 0.0
0.0 0.0 0.0

-2.4265614150299435e6 2.5885924301977966e7 0.0
2.5885924301977966e7 3.544593040784329e6 0.0
0.0 0.0 0.0

2.6821704179218262e6 4.7865325790270325e6 0.0
4.7865325790270325e6 -2.985906079341903e7 0.0
0.0 0.0 0.0

1.479397601766521e6 7.12220892914525e6 0.0
7.12220892914525e6 -1.4290822380283171e7 0.0
0.0 0.0 0.0

-373432.75447770255 1.7667816911004975e7 0.0
1.7667816911004975e7 -8.869683757557733e6 0.0
0.0 0.0 0.0

-4.597055686118554e6 1.602204297309999e7 0.0
1.602204297309999e7 4.599426427879486e7 0.0
0.0 0.0 0.0

-3.506840298445232e6 2.527428818260606e7 0.0
2.527428818260606e7 1.6268848049976505e7 0.0
0.0 0.0 0.0

-5.86310633570561e6 1.132768264007195e7 0.0
1.132768264007195e7 7.042297627364671e6 0.0
0.0 0.0 0.0

-4.39805179910922e6 2.2467674068591915e7 0.0
2.2467674068591915e7 2.3753019308827158e7 0.0
0.0 0.0 0.0

2.971961073993705e6 6.618241451256326e6 0.0
6.618241451256326e6 -2.1778656188778963e7 0.0
0.0 0.0 0.0

1.4947766199556813e6 1.5020711749928962e7 0.0
1.5020711749928962e7 -2.774713108014126e7 0.0
0.0 0.0 0.0

646407.1021473084 7.525196950643267e7 0.0
7.525196950643267e7 7.7005248257870255e6 0.0
0.0 0.0 0.0

-4.726045708830921e6 1.5354474104372155e7 0.0
1.5354474104372155e7 8.5316738514608e6 0.0
0.0 0.0 0.0

-1.1217706494274165e7 6.628523968509848e6 0.0
6.628523968509848e6 2.0196008478793666e7 0.0
0.0 0.0 0.0

606532.6311423769 2.182850494005896e7 0.0
2.182850494005896e7 -1.8829727454029553e7 0.0
0.0 0.0 0.0

1.30413132775056e6 1.7973117446347974e7 0.0
1.7973117446347974e7 -2.132146723994733e7 0.0
0.0 0.0 0.0

26685.197732083965 3.8360428936606287e6 0.0
3.8360428936606287e6 2.962280641171648e6 0.0
0.0 0.0 0.0

-3.6677046204777313e6 2.2077926573543474e6 0.0
2.2077926573543474e6 6.57929596319896e6 0.0
0.0 0.0 0.0

-5.11374930412386e6 3.4242316508033626e7 0.0
3.4242316508033626e7 4.720138531977575e6 0.0
0.0 0.0 0.0

-3.0196873188823885e6 2.1456012266722452e7 0.0
2.1456012266722452e7 8.60798797824829e6 0.0
0.0 0.0 0.0

-3.3634648591513806e6 3.411883624038695e7 0.0
3.411883624038695e7 2.715607204184668e6 0.0
0.0 0.0 0.0

2.356785605802142e6 1.0265224438616415e7 0.0
1.0265224438616415e7 -2.438645028662646e7 0.0
0.0 0.0 0.0

-2.6019829051406235e6 2.458437996384568e7 0.0
2.458437996384568e7 6.367201880877293e6 0.0
0.0 0.0 0.0

-9.12306496937834e6 6.027680806273331e6 0.0
6.027680806273331e6 3.658660299310215e7 0.0
0.0 0.0 0.0

-8.535815317067066e7 7.7396116852547275e6 0.0
7.7396116852547275e6 3.305505845112916e6 0.0
0.0 0.0 0.0

-2.430087194342677e6 2.7011961967403032e7 0.0
2.7011961967403032e7 3.5542571748127383e6 0.0
0.0 0.0 0.0

-4.0783484257478444e6 2.3096171795931205e7 0.0
2.3096171795931205e7 2.190077247733917e7 0.0
0.0 0.0 0.0

2.0805376827516924e6 3.0150621291030597e7 0.0
3.0150621291030597e7 -7.76439387207965e6 0.0
0.0 0.0 0.0

1.5967873418009216e6 6.392723722319082e6 0.0
6.392723722319082e6 -1.2835390203890756e7 0.0
0.0 0.0 0.0

-4.290344340473908e6 1.7361498107986405e7 0.0
1.7361498107986405e7 9.981451933927406e6 0.0
0.0 0.0 0.0

-1.796327836987951e7 2.8650676883178234e7 0.0
2.8650676883178234e7 -1.068548975307104e7 0.0
0.0 0.0 0.0

-9.072573005909076e6 2.676228584468101e7 0.0
2.676228584468101e7 -1.0914107654201575e7 0.0
0.0 0.0 0.0

2.6995200261656586e6 7.813305358028069e6 0.0
7.813305358028069e6 -1.7774042134547357e7 0.0
0.0 0.0 0.0

-3.858583070602931e6 2.3789900415982045e7 0.0
2.3789900415982045e7 2.001257596705037e7 0.0
0.0 0.0 0.0

-161256.37535549793 2.097804582248125e7 0.0
2.097804582248125e7 -1.0176513335367631e7 0.0
0.0 0.0 0.0

588718.9819812253 5.149184414994492e6 0.0
5.149184414994492e6 -5.757561645732856e7 0.0
0.0 0.0 0.0

-7.280173202557944e6 2.9361888325747014e6 0.0
2.9361888325747014e6 5.313051008524926e7 0.0
0.0 0.0 0.0

1.9486080669112252e6 1.093390273327845e7 0.0
1.093390273327845e7 -1.7175552806557737e7 0.0
0.0 0.0 0.0

2.34000307389725e6 7.762280565908346e6 0.0
7.762280565908346e6 -3.630422456464132e7 0.0
0.0 0.0 0.0

-579776.5914417775 2.342132663884681e7 0.0
2.342132663884681e7 -8.482690075168017e6 0.0
0.0 0.0 0.0

-775370.606933469 1.3245596992796747e7 0.0
1.3245596992796747e7 -4.77584374602099e7 0.0
0.0 0.0 0.0

3.18430509662948e6 3.750164499114184e7 0.0
3.750164499114184e7 -3.6403455574530587e6 0.0
0.0 0.0 0.0

-1.11828694686261e6 1.909101317226662e7 0.0
1.909101317226662e7 4.468585054170615e7 0.0
0.0 0.0 0.0

-7.815809184631959e6 2.8877263304323927e6 0.0
2.8877263304323927e6 4.905134162183549e7 0.0
0.0 0.0 0.0

-139735.82839600137 2.2139653122011013e7 0.0
2.2139653122011013e7 -9.720745171820767e6 0.0
0.0 0.0 0.0

1.075245422149295e6 8.65005400678189e6 0.0
8.65005400678189e6 -4.4058012610763334e7 0.0
0.0 0.0 0.0

-1.726505200952119e6 2.2202740769546945e7 0.0
2.2202740769546945e7 690215.7020312336 0.0
0.0 0.0 0.0

-2.4718914692636793e6 2.476546402506494e7 0.0
2.476546402506494e7 3.5591793064531386e6 0.0
0.0 0.0 0.0

-1.0259929422501022e7 8.623013477720346e6 0.0
8.623013477720346e6 2.822391980003404e7 0.0
0.0 0.0 0.0

5.115250814701409e6 3.0419116257743828e7 0.0
3.0419116257743828e7 -7.769718085825391e6 0.0
0.0 0.0 0.0

1.2020850078243173e6 2.397203733223842e7 0.0
2.397203733223842e7 -4.0490896589015923e6 0.0
0.0 0.0 0.0

-393471.7505451863 2.9127458499356855e7 0.0
2.9127458499356855e7 -1.99597605254217e6 0.0
0.0 0.0 0.0

1.4139930709271133e6 2.7610203840564177e6 0.0
2.7610203840564177e6 -5.469246979117631e7 0.0
0.0 0.0 0.0

-2.5295566335582696e6 2.5265879399365302e7 0.0
2.5265879399365302e7 4.866477441543603e6 0.0
0.0 0.0 0.0

731953.0140816653 1.5823417192511585e7 0.0
1.5823417192511585e7 -1.4632466788615964e7 0.0
0.0 0.0 0.0

-4.0606797683342877e6 1.327705185033156e7 0.0
1.327705185033156e7 2.8145959543736693e6 0.0
0.0 0.0 0.0

-1.0164213511985264e6 1.6047131935317708e7 0.0
1.6047131935317708e7 -4.926529576229892e6 0.0
0.0 0.0 0.0

-9.994047080586728e6 6.433174054982899e6 0.0
6.433174054982899e6 1.3186606079690255e7 0.0
0.0 0.0 0.0

1.6606116821595465e6 2.2893220999963213e7 0.0
2.2893220999963213e7 -5.415722669138609e6 0.0
0.0 0.0 0.0

-8.3693936351607945e6 1.0334998139535965e7 0.0
1.0334998139535965e7 4.077499279611377e7 0.0
0.0 0.0 0.0

304646.96054817736 1.79114953100331e7 0.0
1.79114953100331e7 -1.2660346496019885e7 0.0
0.0 0.0 0.0

-6.867933864561794e6 6.557563003792342e6 0.0
6.557563003792342e6 6.823680439794626e6 0.0
0.0 0.0 0.0

-5.843601111546516e6 3.504006737800736e7 0.0
3.504006737800736e7 4.766392044804829e6 0.0
0.0 0.0 0.0

805494.7005285714 2.7684812817448005e7 0.0
2.7684812817448005e7 -6.985342934716823e6 0.0
0.0 0.0 0.0

801305.2370367404 1.8944413117469624e7 0.0
1.8944413117469624e7 -2.5335223250746455e7 0.0
0.0 0.0 0.0

1.6331693815819519e6 1.1753035288161311e7 0.0
1.1753035288161311e7 -1.57908102144536e7 0.0
0.0 0.0 0.0

-1.687435347552781e6 2.7521766185286723e7 0.0
2.7521766185286723e7 4.32050949441135e6 0.0
0.0 0.0 0.0

-3.966585501589885e6 2.224426171278718e7 0.0
2.224426171278718e7 2.5614682113546643e7 0.0
0.0 0.0 0.0

8.248840880063022e6 2.242095927244831e7 0.0
2.242095927244831e7 1.2664028206042392e7 0.0
0.0 0.0 0.0

525624.5060255937 8.99249483155107e6 0.0
8.99249483155107e6 -4.745226212667117e7 0.0
0.0 0.0 0.0

-1.9154789036747948e6 2.4361745980230767e7 0.0
2.4361745980230767e7 8.69690145019412e6 0.0
0.0 0.0 0.0

-1.792350911164645e6 2.5809650702164594e7 0.0
2.5809650702164594e7 5.686044549206467e6 0.0
0.0 0.0 0.0

-1.0258252005983196e7 1.3423573369117796e7 0.0
1.3423573369117796e7 2.1655274298306488e7 0.0
0.0 0.0 0.0

3.952545377225115e6 3.844480738205857e7 0.0
3.844480738205857e7 -3.6563274164862647e6 0.0
0.0 0.0 0.0

225433.15580833796 1.5554822866989713e7 0.0
1.5554822866989713e7 -1.0938570203233296e7 0.0
0.0 0.0 0.0

-6.396778306545121e6 1.9501066237961188e7 0.0
1.9501066237961188e7 2.310423887014179e7 0.0
0.0 0.0 0.0

1.6807710655785957e6 1.1107247400506381e7 0.0
1.1107247400506381e7 -1.4746338625723535e7 0.0
0.0 0.0 0.0

-4.0694197658318253e6 1.0258429236699237e7 0.0
1.0258429236699237e7 8.832752750092665e6 0.0
0.0 0.0 0.0

-1.536115409473734e6 2.801770744071869e7 0.0
2.801770744071869e7 3.16452187763301e6 0.0
0.0 0.0 0.0

-1.6130045802842611e6 2.907215859027891e7 0.0
2.907215859027891e7 3.1676632818772485e6 0.0
0.0 0.0 0.0

167010.38718408532 1.7411211237961445e7 0.0
1.7411211237961445e7 -1.1596980264049124e7 0.0
0.0 0.0 0.0

3.0067320182009833e6 2.4820998921533547e7 0.0
2.4820998921533547e7 -5.160647256726167e6 0.0
0.0 0.0 0.0

1.6972621809543546e7 3.2673556089784417e7 0.0
3.2673556089784417e7 -5.348682776704519e6 0.0
0.0 0.0 0.0

-6.094573809217685e6 2.6877045235623877e7 0.0
2.6877045235623877e7 8.881732891425911e6 0.0
0.0 0.0 0.0

-1.173143432976561e7 1.8699374528857987e7 0.0
1.8699374528857987e7 -4.894852407769029e7 0.0
0.0 0.0 0.0

899533.9246210144 1.2757280655570358e7 0.0
1.2757280655570358e7 -1.1764090325944437e7 0.0
0.0 0.0 0.0

-9.410394438432064e6 6.611027436296941e6 0.0
6.611027436296941e6 3.3834385966666564e7 0.0
0.0 0.0 0.0

-3.6845105029621767e6 2.468400826763308e7 0.0
2.468400826763308e7 -2.035854032371453e6 0.0
0.0 0.0 0.0

-7.347718898129522e6 2.539995015258395e7 0.0
2.539995015258395e7 -1.457432898595441e6 0.0
0.0 0.0 0.0

-1.8759964951168941e6 2.5056009597990867e7 0.0
2.5056009597990867e7 7.08284291260127e6 0.0
0.0 0.0 0.0

-8.66068089319975e6 4.253249827551811e6 0.0
4.253249827551811e6 3.826834380568106e7 0.0
0.0 0.0 0.0

-6.825025762362093e6 3.5818430499236375e7 0.0
3.5818430499236375e7 4.821211428772984e6 0.0
0.0 0.0 0.0

-2.263435469561287e6 2.7571071941587042e7 0.0
2.7571071941587042e7 2.3883519118381413e6 0.0
0.0 0.0 0.0

3.1608358444705987e6 2.3126552883101627e7 0.0
2.3126552883101627e7 1.4057321544724961e6 0.0
0.0 0.0 0.0

4.341856785575861e6 1.9445241716907587e7 0.0
1.9445241716907587e7 1.4472856095107082e7 0.0
0.0 0.0 0.0

-2.006194387381501e6 2.3594127966018904e7 0.0
2.3594127966018904e7 1.0356074255514225e7 0.0
0.0 0.0 0.0

-4.21718271158887e6 2.1095015532512464e7 0.0
2.1095015532512464e7 1.6643635690254636e7 0.0
0.0 0.0 0.0

2.7623495872484855e6 7.055856158762944e6 0.0
7.055856158762944e6 -1.6630179225333836e7 0.0
0.0 0.0 0.0

-12035.101585255587 2.9467881463497646e7 0.0
2.9467881463497646e7 -2.9704123750966527e6 0.0
0.0 0.0 0.0

-6.910588382790307e6 1.7525647245731443e7 0.0
1.7525647245731443e7 2.5306930421604753e7 0.0
0.0 0.0 0.0

2.3184596341892257e6 4.388785578990948e6 0.0
4.388785578990948e6 -2.7268715257793438e7 0.0
0.0 0.0 0.0

-1.0585162120863167e6 2.715937570564457e7 0.0
2.715937570564457e7 -5.359035959911173e6 0.0
0.0 0.0 0.0

-1.7626639481397043e6 2.4644156565098174e7 0.0
2.4644156565098174e7 5.9336345491192695e6 0.0
0.0 0.0 0.0

-5.503190096028319e6 5.7231801076832535e6 0.0
5.7231801076832535e6 4.40627263003408e6 0.0
0.0 0.0 0.0

928051.6438664477 1.271020680071802e7 0.0
1.271020680071802e7 -2.0060133207659695e7 0.0
0.0 0.0 0.0

2.704675062160128e6 6.586624010547999e7 0.0
6.586624010547999e7 5.487285767294496e6 0.0
0.0 0.0 0.0

-426689.80101381615 8.106092411079618e6 0.0
8.106092411079618e6 -8.232134237048858e7 0.0
0.0 0.0 0.0

2.128005729437817e6 5.728311941056969e6 0.0
5.728311941056969e6 -3.207764309108589e7 0.0
0.0 0.0 0.0

1.6922810450058784e6 1.4482677805979569e7 0.0
1.4482677805979569e7 -2.2662273269350626e7 0.0
0.0 0.0 0.0

-5.991080296322261e6 2.6271781549012326e7 0.0
2.6271781549012326e7 6.613190991494556e6 0.0
0.0 0.0 0.0

2434.471490036696 1.721967158065511e7 0.0
1.721967158065511e7 -3.105693912232422e7 0.0
0.0 0.0 0.0

854314.0814399426 1.2117256247284133e7 0.0
1.2117256247284133e7 -1.0617975924143009e7 0.0
0.0 0.0 0.0

-3.6523980815517716e6 1.242694794979873e7 0.0
1.242694794979873e7 768027.2980029143 0.0
0.0 0.0 0.0

5.192895799418425e6 2.14856372960856e7 0.0
2.14856372960856e7 2.4652748355944548e7 0.0
0.0 0.0 0.0

-1.507487314006554e6 1.9343171031243578e7 0.0
1.9343171031243578e7 4.177783956889518e7 0.0
0.0 0.0 0.0

1.6001022992404073e7 1.6401045015871927e7 0.0
1.6401045015871927e7 7.287230371195e6 0.0
0.0 0.0 0.0

-6.160893676624488e6 4.017255883187785e7 0.0
4.017255883187785e7 2.562582286384079e6 0.0
0.0 0.0 0.0

-1.481170378071538e6 1.8163711287580844e7 0.0
1.8163711287580844e7 -9.662026989195378e6 0.0
0.0 0.0 0.0

-3.5389939591957144e7 3.0060208279671576e7 0.0
3.0060208279671576e7 -3.213866012956124e6 0.0
0.0 0.0 0.0

-91280.59658065159 1.9864028735746868e7 0.0
1.9864028735746868e7 -1.0639601273181425e7 0.0
0.0 0.0 0.0

-1.7916776670648768e6 2.5380789809762254e7 0.0
2.5380789809762254e7 4.486527329068093e6 0.0
0.0 0.0 0.0

-362843.3675975534 1.5790480680985969e7 0.0
1.5790480680985969e7 -7.990843385562125e6 0.0
0.0 0.0 0.0

-2.4357106301851748e6 1.902126921602972e7 0.0
1.902126921602972e7 -3.217765153869229e7 0.0
0.0 0.0 0.0

2.326039178081492e6 5.401514015372163e6 0.0
5.401514015372163e6 -2.5817842859596852e7 0.0
0.0 0.0 0.0

570971.7626917008 1.2288849210000986e7 0.0
1.2288849210000986e7 -4.2991474222070105e7 0.0
0.0 0.0 0.0

317272.87684543245 2.3234723041221626e7 0.0
2.3234723041221626e7 2.0968912285427958e7 0.0
0.0 0.0 0.0

2.4397773292693757e6 8.1346328705875855e6 0.0
8.1346328705875855e6 -2.973713925016619e7 0.0
0.0 0.0 0.0

-663045.2901436936 2.7398682625768736e7 0.0
2.7398682625768736e7 -6.209543898233675e6 0.0
0.0 0.0 0.0

29976.875988063402 2.3292229123222742e7 0.0
2.3292229123222742e7 -1.3531016851806566e7 0.0
0.0 0.0 0.0

-2.481991472823328e6 1.6003231168508757e7 0.0
1.6003231168508757e7 -4.423951464748452e6 0.0
0.0 0.0 0.0

-3.281664916832532e6 1.8397462251940243e7 0.0
1.8397462251940243e7 4.391792503843033e6 0.0
0.0 0.0 0.0

-6.031011556452688e6 2.0074653634212192e7 0.0
2.0074653634212192e7 2.395418829502183e7 0.0
0.0 0.0 0.0

2.0866735354963662e6 1.1332625950125981e7 0.0
1.1332625950125981e7 -2.057254318998901e7 0.0
0.0 0.0 0.0

-7.537126291142928e6 4.3455330334806584e7 0.0
4.3455330334806584e7 2.7032526134266453e6 0.0
0.0 0.0 0.0

-8.046917522032868e6 3.644341602206047e7 0.0
3.644341602206047e7 5.041172449367663e6 0.0
0.0 0.0 0.0

-5.448203490670588e6 2.1059185142506916e7 0.0
2.1059185142506916e7 2.4820645474887688e7 0.0
0.0 0.0 0.0

-2.0584578986393313e6 1.9530349524516806e7 0.0
1.9530349524516806e7 -6.861525791583512e6 0.0
0.0 0.0 0.0

1.22355642777183e6 1.8696567969622258e7 0.0
1.8696567969622258e7 -1.9759432229819983e7 0.0
0.0 0.0 0.0

2.680721223773986e6 7.844520550144162e6 0.0
7.844520550144162e6 -2.6556226335911706e7 0.0
0.0 0.0 0.0

-4.293568759469935e6 2.7845721740699824e7 0.0
2.7845721740699824e7 1.1685022768415816e7 0.0
0.0 0.0 0.0

-1.069499138274701e7 1.214358865270422e7 0.0
1.214358865270422e7 2.588744914444739e7 0.0
0.0 0.0 0.0

7.226509279473338e6 3.3296026412896343e7 0.0
3.3296026412896343e7 -6.035934421801399e6 0.0
0.0 0.0 0.0

-5.848312181302384e6 3.4331382368581933e6 0.0
3.4331382368581933e6 6.534225670283529e7 0.0
0.0 0.0 0.0

-1.173082239749078e6 2.339585177367033e7 0.0
2.339585177367033e7 -8.902261828963693e6 0.0
0.0 0.0 0.0

-8.34989362667199e6 -483253.61291776644 0.0
-483253.61291776644 3.446603978279839e7 0.0
0.0 0.0 0.0

-9.765997045680266e6 5.7230579396431465e6 0.0
5.7230579396431465e6 1.9315292286214363e7 0.0
0.0 0.0 0.0

2.839200090235453e6 6.227983552576131e6 0.0
6.227983552576131e6 -1.567660024890199e7 0.0
0.0 0.0 0.0

-5.730744204097154e6 1.6246145015795253e7 0.0
1.6246145015795253e7 4.2161011056833e7 0.0
0.0 0.0 0.0

1.4475090579713825e6 1.276610219856751e7 0.0
1.276610219856751e7 -3.526457434376363e7 0.0
0.0 0.0 0.0

-441194.463485418 2.7454218664911702e7 0.0
2.7454218664911702e7 -3.369834574112664e6 0.0
0.0 0.0 0.0

-1.8256994618630707e6 2.687020198480944e7 0.0
2.687020198480944e7 5.610370646750543e6 0.0
0.0 0.0 0.0

-1.5293827870111268e6 1.9514794834070213e7 0.0
1.9514794834070213e7 -2.5886377340782927e6 0.0
0.0 0.0 0.0

-2.1340829844359774e6 2.7222256940373715e7 0.0
2.7222256940373715e7 8.124492355194798e6 0.0
0.0 0.0 0.0

655313.6603342639 6.495046025056154e6 0.0
6.495046025056154e6 -8.294835814443535e6 0.0
0.0 0.0 0.0

-2.074837661153347e6 2.3017357435746107e7 0.0
2.3017357435746107e7 -4.132306197591647e6 0.0
0.0 0.0 0.0

1.455527727149274e7 3.3501567009114955e7 0.0
3.3501567009114955e7 -5.705379951593712e6 0.0
0.0 0.0 0.0

640151.0590463597 1.126854156133388e7 0.0
1.126854156133388e7 -9.646741179409977e6 0.0
0.0 0.0 0.0

-178012.0782663743 1.8182361931640774e7 0.0
1.8182361931640774e7 -1.003013384822282e7 0.0
0.0 0.0 0.0

-7.779828847828509e6 2.6073133790374868e7 0.0
2.6073133790374868e7 -8.196860799393808e6 0.0
0.0 0.0 0.0

-1.724390558102418e6 1.8960159601800814e7 0.0
1.8960159601800814e7 -1.1536355745673592e6 0.0
0.0 0.0 0.0

1.5628695867949551e7 2.7555140685917128e7 0.0
2.7555140685917128e7 -935506.2694588201 0.0
0.0 0.0 0.0

-4.065783550897368e6 4.847838414106168e6 0.0
4.847838414106168e6 1.7636338444989533e6 0.0
0.0 0.0 0.0

1.8061636302855723e6 4.890755120494361e6 0.0
4.890755120494361e6 -3.915720913417369e7 0.0
0.0 0.0 0.0

-5.300443576937122e6 3.117829702453774e6 0.0
3.117829702453774e6 1.1245761216798965e7 0.0
0.0 0.0 0.0

-3.0468060009095874e6 1.1559298359237084e7 0.0
1.1559298359237084e7 -1.2619109574574893e6 0.0
0.0 0.0 0.0

-2.0731330387121397e6 1.9771276895373106e7 0.0
1.9771276895373106e7 -6.408085554608428e6 0.0
0.0 0.0 0.0

-9.52601491057559e6 7.300385860446574e6 0.0
7.300385860446574e6 1.863640879031547e7 0.0
0.0 0.0 0.0

2.32211524615045e6 7.284615024690393e6 0.0
7.284615024690393e6 -1.1529983994254636e7 0.0
0.0 0.0 0.0

795464.5576085271 2.3857902642550305e7 0.0
2.3857902642550305e7 -1.5887855921396444e7 0.0
0.0 0.0 0.0

-2.2731516714556287e6 1.0735589617771238e7 0.0
1.0735589617771238e7 -3.3652605228056004e6 0.0
0.0 0.0 0.0

1.5395057153305772e6 5.9007315077615246e7 0.0
5.9007315077615246e7 3.326155133615032e6 0.0
0.0 0.0 0.0

1.6902939679998353e7 2.6484264191362858e7 0.0
2.6484264191362858e7 1.4416986229478389e7 0.0
0.0 0.0 0.0

-1.4635902662965981e6 9.874024437167294e6 0.0
9.874024437167294e6 -5.030055179356174e6 0.0
0.0 0.0 0.0

-4.565197650227846e6 1.6670414735276716e7 0.0
1.6670414735276716e7 1.722110513530011e7 0.0
0.0 0.0 0.0

1.6084103981082519e6 4.492218355318506e6 0.0
4.492218355318506e6 -6.922896625800106e6 0.0
0.0 0.0 0.0

-8.860370267548934e6 1.0913531121463798e7 0.0
1.0913531121463798e7 3.7871898679916784e7 0.0
0.0 0.0 0.0

-733149.0558693004 9.00725888515688e6 0.0
9.00725888515688e6 -6.700480445342106e6 0.0
0.0 0.0 0.0

-1.0144885119990015e7 4.2922464740110435e7 0.0
4.2922464740110435e7 4.887801994868086e6 0.0
0.0 0.0 0.0

8.686195910224611e6 3.366796184367393e7 0.0
3.366796184367393e7 -5.921952519613128e6 0.0
0.0 0.0 0.0

2.7856077458760403e6 6.923633625380021e6 0.0
6.923633625380021e6 -2.801915471443986e7 0.0
0.0 0.0 0.0

-76538.93618551455 2.398443462476166e7 0.0
2.398443462476166e7 -1.2088163773154011e7 0.0
0.0 0.0 0.0

1.3636983889485076e6 8.221282548785012e6 0.0
8.221282548785012e6 -3.985942827521907e7 0.0
0.0 0.0 0.0

-2.2706592681456804e6 2.0558514803107575e7 0.0
2.0558514803107575e7 -4.795002999553877e6 0.0
0.0 0.0 0.0

4.1770697637079037e6 2.3662682216365986e7 0.0
2.3662682216365986e7 1.4928691987718945e7 0.0
0.0 0.0 0.0

1.2266019758709446e7 3.385640832733466e7 0.0
3.385640832733466e7 -5.792680601565079e6 0.0
0.0 0.0 0.0

602750.3132945606 1.0717613544787724e7 0.0
1.0717613544787724e7 -8.270186387028062e6 0.0
0.0 0.0 0.0

2.0903789390418874e6 9.546580708749216e6 0.0
9.546580708749216e6 -1.507290151947089e7 0.0
0.0 0.0 0.0

-896623.0412934572 1.3972547176837943e7 0.0
1.3972547176837943e7 -3.757875459156247e6 0.0
0.0 0.0 0.0

-9.88950619400702e6 3.69569393696623e7 0.0
3.69569393696623e7 5.164642148055119e6 0.0
0.0 0.0 0.0

-3.2711737120713685e6 1.7727582948847815e7 0.0
1.7727582948847815e7 2.6722236724519134e6 0.0
0.0 0.0 0.0

1.100262949549362e7 4.020424309164912e7 0.0
4.020424309164912e7 -4.381160359332996e6 0.0
0.0 0.0 0.0

-1.3153162306390177e6 2.00413249888633e7 0.0
2.00413249888633e7 -3.9386360513191484e6 0.0
0.0 0.0 0.0

7.694351160137394e6 2.1276739279294126e7 0.0
2.1276739279294126e7 3.1622865925825052e7 0.0
0.0 0.0 0.0

-6.651971833511357e6 2.5655509970846362e7 0.0
2.5655509970846362e7 -5.30925476580959e6 0.0
0.0 0.0 0.0

-603097.7472059861 2.973280140297576e7 0.0
2.973280140297576e7 -830285.4191611655 0.0
0.0 0.0 0.0

-1.2236548986177873e6 2.3160507448039718e7 0.0
2.3160507448039718e7 -1.5644035147770414e7 0.0
0.0 0.0 0.0

-2.793462444539247e6 1.5789381986007756e7 0.0
1.5789381986007756e7 -4.719623400988055e7 0.0
0.0 0.0 0.0

-3.6727326966223326e6 1.914521524946868e7 0.0
1.914521524946868e7 3.762077331365803e7 0.0
0.0 0.0 0.0

206632.16212807503 1.3152238498710612e7 0.0
1.3152238498710612e7 -1.531022255764845e7 0.0
0.0 0.0 0.0

-9.206501596194396e6 1.1500018961276751e7 0.0
1.1500018961276751e7 3.4941856364319935e7 0.0
0.0 0.0 0.0

1.4040286283874717e6 1.4246936680798173e7 0.0
1.4246936680798173e7 -3.1537150700375184e7 0.0
0.0 0.0 0.0

-2.3584395905693406e6 1.4554930378838295e7 0.0
1.4554930378838295e7 -4.678070227723843e6 0.0
0.0 0.0 0.0

2.661949367572979e6 4.210875658172926e6 0.0
4.210875658172926e6 -1.5505396006513946e7 0.0
0.0 0.0 0.0

-2.582732340317257e6 2.219505880331821e7 0.0
2.219505880331821e7 1.159814133943823e6 0.0
0.0 0.0 0.0

-2.304725117976119e6 2.853681421361141e7 0.0
2.853681421361141e7 2.324161578899238e6 0.0
0.0 0.0 0.0

2.6866824308678545e6 3.4753995428752325e7 0.0
3.4753995428752325e7 -4.477276310172648e6 0.0
0.0 0.0 0.0

-2.18864519767032e6 2.180273980674116e7 0.0
2.180273980674116e7 -4.454201489429732e6 0.0
0.0 0.0 0.0

2.3213012208392154e6 6.419207901494393e6 0.0
6.419207901494393e6 -1.0376253480324108e7 0.0
0.0 0.0 0.0

1.0317625489477996e7 3.3872889512662336e7 0.0
3.3872889512662336e7 -5.9075687028605e6 0.0
0.0 0.0 0.0

-9.481263550054472e6 1.337535728444725e7 0.0
1.337535728444725e7 2.7654369786483895e7 0.0
0.0 0.0 0.0

582613.3648180831 8.162020286300943e6 0.0
8.162020286300943e6 -4.989927303045737e7 0.0
0.0 0.0 0.0

5.524962342982076e6 2.5912235033452656e7 0.0
2.5912235033452656e7 1.4476227383841647e7 0.0
0.0 0.0 0.0

-3.421271403177551e6 3.1796057343852356e7 0.0
3.1796057343852356e7 4.5765363446234595e6 0.0
0.0 0.0 0.0

-3.402758049287087e6 2.1302593265049886e7 0.0
2.1302593265049886e7 -1.420509725772054e7 0.0
0.0 0.0 0.0

-1.8387170946605e6 1.9685148614423707e7 0.0
1.9685148614423707e7 3.920191238581702e7 0.0
0.0 0.0 0.0

-5.852802185093097e6 2.210783810639656e7 0.0
2.210783810639656e7 -1.9509340847309526e7 0.0
0.0 0.0 0.0

-714197.4099527746 1.4691048868019575e7 0.0
1.4691048868019575e7 -1.2225311207722368e7 0.0
0.0 0.0 0.0

3.29512542958639e6 2.2085485832675852e7 0.0
2.2085485832675852e7 2.0903760776112095e7 0.0
0.0 0.0 0.0

1.4655226877127192e6 5.467051710792884e7 0.0
5.467051710792884e7 2.5637932619544277e6 0.0
0.0 0.0 0.0

-5.086993494327202e6 2.568477650626958e7 0.0
2.568477650626958e7 -1.2038443285677243e7 0.0
0.0 0.0 0.0

7.217639895250541e7 2.3282861730328254e7 0.0
2.3282861730328254e7 6.488544663325772e6 0.0
0.0 0.0 0.0

-2.2068694085649718e6 1.6592343943516131e7 0.0
1.6592343943516131e7 -5.80557810219018e6 0.0
0.0 0.0 0.0

-2.4944561844686265e6 2.276430568117285e7 0.0
2.276430568117285e7 -252460.60598295683 0.0
0.0 0.0 0.0

682658.5661377488 1.6778869675170965e7 0.0
1.6778869675170965e7 -1.992888456967833e7 0.0
0.0 0.0 0.0

3.2601902292785915e6 3.555380814459945e7 0.0
3.555380814459945e7 -4.483583750276811e6 0.0
0.0 0.0 0.0

1.4193745446846802e6 6.431440032799712e6 0.0
6.431440032799712e6 -4.345067227598917e7 0.0
0.0 0.0 0.0

-510826.2542992474 9.618883940050129e6 0.0
9.618883940050129e6 -8.038607965643086e6 0.0
0.0 0.0 0.0

1.0945942654448543e6 1.305610885896625e7 0.0
1.305610885896625e7 -2.3248203636501938e7 0.0
0.0 0.0 0.0

-3.4010511807056684e6 2.5360226420565967e7 0.0
2.5360226420565967e7 1.6728366130239923e7 0.0
0.0 0.0 0.0

-1.9593838001398207e6 2.4188841351090398e7 0.0
2.4188841351090398e7 -3.8386553948632646e6 0.0
0.0 0.0 0.0

658184.901388549 2.2591985646334216e7 0.0
2.2591985646334216e7 6.8858642540004775e6 0.0
0.0 0.0 0.0

-1.21350120294221e6 1.5397998973815588e7 0.0
1.5397998973815588e7 -3.443996746670558e6 0.0
0.0 0.0 0.0

-1.260605130837942e6 2.253305769617215e7 0.0
2.253305769617215e7 -3.324141231966641e6 0.0
0.0 0.0 0.0

2.9591721065091407e6 2.3399792612143707e7 0.0
2.3399792612143707e7 -4.32570362573229e6 0.0
0.0 0.0 0.0

1.9772655610062056e6 5.1576896874707535e7 0.0
5.1576896874707535e7 2.362740562774773e6 0.0
0.0 0.0 0.0

-1.1677712827141038e6 2.3714452498384114e7 0.0
2.3714452498384114e7 -3.044887733727137e6 0.0
0.0 0.0 0.0

-4.202128041051954e6 7.940162092518044e6 0.0
7.940162092518044e6 8.958936239988655e6 0.0
0.0 0.0 0.0

3.390890444603774e7 1.5276598158539357e7 0.0
1.5276598158539357e7 2.501602406248424e6 0.0
0.0 0.0 0.0

-1.39393520024601e6 1.096279344416378e7 0.0
1.096279344416378e7 -6.216806114570088e7 0.0
0.0 0.0 0.0

-1.4064552649051624e6 2.957838968519856e7 0.0
2.957838968519856e7 2.276800669415501e6 0.0
0.0 0.0 0.0

-6.127859694855561e6 9.619484711570801e6 0.0
9.619484711570801e6 1.3309747171262115e7 0.0
0.0 0.0 0.0

-1.7712159646920473e6 1.5848468096533686e7 0.0
1.5848468096533686e7 -7.420382831954092e6 0.0
0.0 0.0 0.0

-356027.9361708765 1.3328540409399338e7 0.0
1.3328540409399338e7 -1.2685768049102448e7 0.0
0.0 0.0 0.0

1.7795374777571005e6 4.897982252091356e7 0.0
4.897982252091356e7 1.3975838554710886e6 0.0
0.0 0.0 0.0

959107.0716733597 1.157763270422848e7 0.0
1.157763270422848e7 -3.728041998203156e7 0.0
0.0 0.0 0.0

-1.050653766754987e7 6.924607158066911e6 0.0
6.924607158066911e6 3.004449469812696e7 0.0
0.0 0.0 0.0

-6.598286701502022e6 2.484249922729375e7 0.0
2.484249922729375e7 -1.5798459099504275e7 0.0
0.0 0.0 0.0

-8.364772565562132e6 8.99531011666194e6 0.0
8.99531011666194e6 1.7183658187710203e7 0.0
0.0 0.0 0.0

-1.2667504043193986e6 2.2246201914370444e7 0.0
2.2246201914370444e7 -9.363952329071738e6 0.0
0.0 0.0 0.0

-2.199803936300319e6 2.438342003833466e7 0.0
2.438342003833466e7 -1.2925741162782875e6 0.0
0.0 0.0 0.0

508824.77981790993 1.8429776070561007e7 0.0
1.8429776070561007e7 -2.5082778167414784e7 0.0
0.0 0.0 0.0

1.256654064823625e6 4.681713037779818e7 0.0
4.681713037779818e7 965401.4479185464 0.0
0.0 0.0 0.0

-3.52708367028609e6 2.61837084133655e7 0.0
2.61837084133655e7 1.5070777914383277e7 0.0
0.0 0.0 0.0

-1.0560841329175793e6 2.4858843195462633e7 0.0
2.4858843195462633e7 -2.8010959065029197e6 0.0
0.0 0.0 0.0

1.3528810075308867e6 7.328560687586726e6 0.0
7.328560687586726e6 -4.178221144208568e7 0.0
0.0 0.0 0.0

-3.724783516301264e6 1.2234423350448303e7 0.0
1.2234423350448303e7 8.445643762645384e6 0.0
0.0 0.0 0.0

1.4689922256871683e6 4.512323887305116e7 0.0
4.512323887305116e7 960618.9212043309 0.0
0.0 0.0 0.0

-46580.25068227947 9.878037451166958e6 0.0
9.878037451166958e6 -6.5672238562913276e7 0.0
0.0 0.0 0.0

1.5160921484499348e6 4.371290825023754e7 0.0
4.371290825023754e7 767957.4396214816 0.0
0.0 0.0 0.0

1.3486442774176653e6 4.241338571077337e7 0.0
4.241338571077337e7 456803.75739158003 0.0
0.0 0.0 0.0

-1.1341312154527237e6 3.2966990205716357e7 0.0
3.2966990205716357e7 -962088.0954054211 0.0
0.0 0.0 0.0

-1.057548335668187e6 3.3809581245789506e7 0.0
3.3809581245789506e7 -805846.9477667788 0.0
0.0 0.0 0.0

-1.0377985752572862e6 3.4647434201967075e7 0.0
3.4647434201967075e7 -709272.745276006 0.0
0.0 0.0 0.0

-1.0017639829436499e6 3.5444778756966494e7 0.0
3.5444778756966494e7 -699433.961751617 0.0
0.0 0.0 0.0

-994831.4575200003 3.6253788944272205e7 0.0
3.6253788944272205e7 -616719.7389826375 0.0
0.0 0.0 0.0

-1.0046122380326431e6 3.710688531199468e7 0.0
3.710688531199468e7 -690027.045141096 0.0
0.0 0.0 0.0

-5.243286200968339e6 1.648272525287387e7 0.0
1.648272525287387e7 1.2115142068206964e7 0.0
0.0 0.0 0.0

-868551.874661041 3.7953638390000544e7 0.0
3.7953638390000544e7 -578131.8315008017 0.0
0.0 0.0 0.0

-1.0213220212689441e6 3.88522061682306e7 0.0
3.88522061682306e7 -563547.9336955249 0.0
0.0 0.0 0.0

-5.816141670122515e6 1.919964332955035e7 0.0
1.919964332955035e7 2.538665648172472e7 0.0
0.0 0.0 0.0

1.165260031347927e6 4.125252872403827e7 0.0
4.125252872403827e7 416326.8105720625 0.0
0.0 0.0 0.0

-1.2191453287259482e6 3.969415018464554e7 0.0
3.969415018464554e7 -522180.9383190062 0.0
0.0 0.0 0.0

-1.107361813977293e6 4.074270821002574e7 0.0
4.074270821002574e7 -365831.96101749217 0.0
0.0 0.0 0.0

1.0553391506504784e6 4.02395178457592e7 0.0
4.02395178457592e7 331644.3802199053 0.0
0.0 0.0 0.0

-1.2803308333927558e6 1.8736269399781026e7 0.0
1.8736269399781026e7 -4.252785532314023e6 0.0
0.0 0.0 0.0

-1.391441043181443e6 4.1853785879132286e7 0.0
4.1853785879132286e7 -420843.0096505326 0.0
0.0 0.0 0.0

663125.8173398566 3.9234876530528486e7 0.0
3.9234876530528486e7 86919.19971245684 0.0
0.0 0.0 0.0

913060.1680063738 3.83337107936027e7 0.0
3.83337107936027e7 104447.2282277018 0.0
0.0 0.0 0.0

633361.7676635146 3.7561260111423776e7 0.0
3.7561260111423776e7 35352.8609369382 0.0
0.0 0.0 0.0

348300.718354249 3.665436508246867e7 0.0
3.665436508246867e7 10635.397848936162 0.0
0.0 0.0 0.0

267139.7674835629 3.587138318364582e7 0.0
3.587138318364582e7 -35325.57167076747 0.0
0.0 0.0 0.0

-1640.1873864738045 3.504976968301885e7 0.0
3.504976968301885e7 -75089.9412136102 0.0
0.0 0.0 0.0

-19547.450405637755 3.425797659465184e7 0.0
3.425797659465184e7 -97674.2521241458 0.0
0.0 0.0 0.0

-108804.64405090743 3.3435948739699177e7 0.0
3.3435948739699177e7 -216020.35039284348 0.0
0.0 0.0 0.0

-1.1855574065410262e6 2.7872949553516842e7 0.0
2.7872949553516842e7 -4.0673188644309747e6 0.0
0.0 0.0 0.0

-3.606263609813856e6 1.970609513221535e7 0.0
1.970609513221535e7 3.535928684523749e7 0.0
0.0 0.0 0.0

-1.7832081572967677e6 4.300415360633445e7 0.0
4.300415360633445e7 -342756.82762004784 0.0
0.0 0.0 0.0

1.7277137158586588e6 9.080771535965709e6 0.0
9.080771535965709e6 -2.8279885549850535e7 0.0
0.0 0.0 0.0

-1.5802284888241917e6 2.704021335700815e7 0.0
2.704021335700815e7 3.1703107232836117e6 0.0
0.0 0.0 0.0

-2.361551241674515e6 4.4410023119163565e7 0.0
4.4410023119163565e7 -156303.79538337793 0.0
0.0 0.0 0.0

-8.970641210427104e6 1.458229603490215e7 0.0
1.458229603490215e7 2.631775732691929e7 0.0
0.0 0.0 0.0

-3.181530656674739e6 4.602810706224079e7 0.0
4.602810706224079e7 -222780.8259254275 0.0
0.0 0.0 0.0

-9.490080838074075e6 1.2807971158732587e7 0.0
1.2807971158732587e7 2.9923948178156156e7 0.0
0.0 0.0 0.0

-4.20831922996827e6 4.783040475292486e7 0.0
4.783040475292486e7 -344427.45760149055 0.0
0.0 0.0 0.0

741913.7783724824 2.209022672161856e7 0.0
2.209022672161856e7 -1.8927578300564583e7 0.0
0.0 0.0 0.0

1.9103440311040366e6 1.254079933612919e7 0.0
1.254079933612919e7 -2.2423821066051446e7 0.0
0.0 0.0 0.0

-2.326279769063309e6 1.6034585136309236e7 0.0
1.6034585136309236e7 -4.369454580247961e7 0.0
0.0 0.0 0.0

-1.2764668549621776e6 2.4419168996132407e7 0.0
2.4419168996132407e7 -1.635970053266823e6 0.0
0.0 0.0 0.0

-1.238285698744766e6 1.8645404391348492e7 0.0
1.8645404391348492e7 -1.0770379923371796e7 0.0
0.0 0.0 0.0

-921010.532231895 2.6376569357682623e7 0.0
2.6376569357682623e7 -6.686869995270084e6 0.0
0.0 0.0 0.0

726663.3145626374 2.2341321391698953e7 0.0
2.2341321391698953e7 -1.8923500834457926e7 0.0
0.0 0.0 0.0

2.6598940820776615e6 1.7244445400276082e6 0.0
1.7244445400276082e6 -3.5420691798148915e7 0.0
0.0 0.0 0.0

-3.010426921650462e6 1.54829808368969e7 0.0
1.54829808368969e7 7.843318196469727e6 0.0
0.0 0.0 0.0

-5.313250295616172e6 5.00737963873081e7 0.0
5.00737963873081e7 10805.438744658371 0.0
0.0 0.0 0.0

1.63949887146982e6 1.358403178913407e7 0.0
1.358403178913407e7 -1.867263509809329e7 0.0
0.0 0.0 0.0

-9.047791298495868e6 1.2995931930034364e7 0.0
1.2995931930034364e7 3.3350267440044656e7 0.0
0.0 0.0 0.0

-1.3048128250184027e6 2.1311155225364964e7 0.0
2.1311155225364964e7 -3.6329194601171496e6 0.0
0.0 0.0 0.0

1.3407407492346265e6 3.641844664568078e7 0.0
3.641844664568078e7 -1.715891204041353e6 0.0
0.0 0.0 0.0

1.821302301894119e6 8.170279286229879e6 0.0
8.170279286229879e6 -2.985615331994743e7 0.0
0.0 0.0 0.0

-1.4711192295585837e7 4.3298662592997134e7 0.0
4.3298662592997134e7 5.1259712458461765e6 0.0
0.0 0.0 0.0

-4.604382664788259e6 1.8460302448739186e7 0.0
1.8460302448739186e7 1.3310130345327985e7 0.0
0.0 0.0 0.0

-1.9323240416506022e7 3.1227136164733056e7 0.0
3.1227136164733056e7 3.0272501179996943e6 0.0
0.0 0.0 0.0

3.6520152910960075e6 2.1526489972722996e7 0.0
2.1526489972722996e7 1.8211836808774572e7 0.0
0.0 0.0 0.0

-7.830284254147794e6 5.3193919914557576e7 0.0
5.3193919914557576e7 253174.83731639385 0.0
0.0 0.0 0.0

695887.6942203008 1.3123652486814745e7 0.0
1.3123652486814745e7 -3.5824691801894896e7 0.0
0.0 0.0 0.0

-3.704701436108571e6 1.8260291418843694e7 0.0
1.8260291418843694e7 7.963986451126985e6 0.0
0.0 0.0 0.0

1.7169150452554962e6 2.087191763896882e7 0.0
2.087191763896882e7 5.72305062479098e6 0.0
0.0 0.0 0.0

1.5373436850942373e6 1.0210212503582252e7 0.0
1.0210212503582252e7 -2.4441161906535964e7 0.0
0.0 0.0 0.0

1.7135443214439908e6 2.4061492535012256e7 0.0
2.4061492535012256e7 5.169801097994598e6 0.0
0.0 0.0 0.0

1.6446732337924913e6 9.994232984278452e6 0.0
9.994232984278452e6 -2.6756847501984224e7 0.0
0.0 0.0 0.0

-157164.3958543355 1.9435209577648375e7 0.0
1.9435209577648375e7 -3.422067642018195e6 0.0
0.0 0.0 0.0

-1.369653832198115e6 2.505578132334902e7 0.0
2.505578132334902e7 -262668.0889588265 0.0
0.0 0.0 0.0

-1.8256583644555472e6 2.5321218398980148e7 0.0
2.5321218398980148e7 -3.569541691308747e6 0.0
0.0 0.0 0.0

1.2190780350011913e6 1.0697236316001173e7 0.0
1.0697236316001173e7 -1.9581356422012832e7 0.0
0.0 0.0 0.0

3.2631414967946947e7 2.714298494723468e7 0.0
2.714298494723468e7 1.2310085508869926e7 0.0
0.0 0.0 0.0

1.333759106502585e6 1.4854688896195473e7 0.0
1.4854688896195473e7 -1.8173059426712647e7 0.0
0.0 0.0 0.0

-507128.5287178969 1.896829272019672e7 0.0
1.896829272019672e7 -8.421824160383942e6 0.0
0.0 0.0 0.0

-6.00717160536859e6 2.6770849145167585e7 0.0
2.6770849145167585e7 7.392591510043995e6 0.0
0.0 0.0 0.0

428243.20459099114 1.3591288687628454e7 0.0
1.3591288687628454e7 -1.0228849233308813e7 0.0
0.0 0.0 0.0

-3.8105493128684163e6 2.7051499357667554e7 0.0
2.7051499357667554e7 1.332723128333428e7 0.0
0.0 0.0 0.0

6.7317169282243885e6 2.014894342478062e7 0.0
2.014894342478062e7 3.3238758887172807e7 0.0
0.0 0.0 0.0

-7.388833391725955e6 1.5802044565633625e7 0.0
1.5802044565633625e7 2.238648526218124e7 0.0
0.0 0.0 0.0

-1.1576425330076762e7 5.677096488426883e7 0.0
5.677096488426883e7 -154836.52345721005 0.0
0.0 0.0 0.0

3.8690439864741936e6 2.0232481039819725e7 0.0
2.0232481039819725e7 5.314989679592892e7 0.0
0.0 0.0 0.0

-2.8580596172021003e6 1.897399078609798e7 0.0
1.897399078609798e7 -615010.6131444809 0.0
0.0 0.0 0.0

1.453087745537776e7 2.4139949936443888e7 0.0
2.4139949936443888e7 5.399020889243175e6 0.0
0.0 0.0 0.0

1.8719767591181528e6 7.550271346505492e6 0.0
7.550271346505492e6 -3.3875318590162836e7 0.0
0.0 0.0 0.0

-161190.55187726952 1.3420532747252326e7 0.0
1.3420532747252326e7 -4.111976790462287e7 0.0
0.0 0.0 0.0

-3.6300776199958166e6 2.190658472813619e7 0.0
2.190658472813619e7 1.4628976784166552e7 0.0
0.0 0.0 0.0

-1.8275629922703315e7 2.94871582604095e7 0.0
2.94871582604095e7 -1.3772677423984297e7 0.0
0.0 0.0 0.0

-1.8543015610921027e6 2.1624514963196017e7 0.0
2.1624514963196017e7 2.1272921136100343e6 0.0
0.0 0.0 0.0

-273200.59657279775 1.9270610797272317e7 0.0
1.9270610797272317e7 -1.5110665271143038e7 0.0
0.0 0.0 0.0

-1.9196791601395205e7 4.100607104153652e7 0.0
4.100607104153652e7 6.472844540133148e6 0.0
0.0 0.0 0.0

1.07049923607291e6 1.3617003385225749e7 0.0
1.3617003385225749e7 -2.407378288191136e7 0.0
0.0 0.0 0.0

-1.7692763950242596e6 2.283487794608938e7 0.0
2.283487794608938e7 2.154657250980227e6 0.0
0.0 0.0 0.0

-4.746767818673287e6 1.1018234266869716e7 0.0
1.1018234266869716e7 1.0892833698802851e7 0.0
0.0 0.0 0.0

-2.309662210837638e6 2.1562803332898144e7 0.0
2.1562803332898144e7 1.2737799057488788e7 0.0
0.0 0.0 0.0

-2.538317559137824e6 8.803938434093857e7 0.0
8.803938434093857e7 4.615048816445854e6 0.0
0.0 0.0 0.0

-6.11739269800632e6 1.651803578682578e7 0.0
1.651803578682578e7 2.0672109694471516e7 0.0
0.0 0.0 0.0

-5.454129031804219e6 8.338455551766544e6 0.0
8.338455551766544e6 4.71981109247236e6 0.0
0.0 0.0 0.0

-1.0195530232992985e6 2.665563837907052e7 0.0
2.665563837907052e7 -1.22673702934464e6 0.0
0.0 0.0 0.0

-2.4109744569032323e6 2.629309363448333e7 0.0
2.629309363448333e7 4.83797831535539e6 0.0
0.0 0.0 0.0

-59443.340258257 2.3310172264060598e7 0.0
2.3310172264060598e7 -9.195492587944448e6 0.0
0.0 0.0 0.0

-1.9004069724950735e6 2.6015288094460104e7 0.0
2.6015288094460104e7 -2.2161405836874307e6 0.0
0.0 0.0 0.0

-1.0148954594276223e7 3.6161024897491485e6 0.0
3.6161024897491485e6 1.973668554299235e7 0.0
0.0 0.0 0.0

-70850.42128036916 2.2002455343782533e7 0.0
2.2002455343782533e7 -4.758070744698378e6 0.0
0.0 0.0 0.0

-2.531208801450207e6 2.7322258312745955e7 0.0
2.7322258312745955e7 4.835774735870661e6 0.0
0.0 0.0 0.0

575346.9301794702 1.234084293320598e7 0.0
1.234084293320598e7 -1.6745656536877915e7 0.0
0.0 0.0 0.0

1.0185498109036451e6 2.2532630426155627e7 0.0
2.2532630426155627e7 -3.3766479125872543e6 0.0
0.0 0.0 0.0

-2.2782676083926845e7 2.990635359163095e7 0.0
2.990635359163095e7 247124.22257685754 0.0
0.0 0.0 0.0

-4.73783302739983e6 1.7222471817400817e7 0.0
1.7222471817400817e7 1.8638550604402207e7 0.0
0.0 0.0 0.0

602571.1431749286 2.1389033263103273e7 0.0
2.1389033263103273e7 -2.0461895657505006e7 0.0
0.0 0.0 0.0

-2.866985790878912e6 2.7765294580141436e7 0.0
2.7765294580141436e7 7.192608551466456e6 0.0
0.0 0.0 0.0

3.1509656333046528e6 2.3277971549898726e6 0.0
2.3277971549898726e6 -1.8364961040188093e7 0.0
0.0 0.0 0.0

-6.1087682498701755e6 -4.393502074144784e6 0.0
-4.393502074144784e6 1.0780775777417421e7 0.0
0.0 0.0 0.0

-4.389347180642845e6 -3.500126307486803e6 0.0
-3.500126307486803e6 7.668568050792279e6 0.0
0.0 0.0 0.0

-7.936635382956697e6 -2.5525616726730647e6 0.0
-2.5525616726730647e6 3.4257328041388616e7 0.0
0.0 0.0 0.0

-3.3250356381052886e6 -1.352057069434118e6 0.0
-1.352057069434118e6 3.7792879252909054e6 0.0
0.0 0.0 0.0

-8.019887216922583e6 -2.8502240829447955e6 0.0
-2.8502240829447955e6 3.1490654539918542e7 0.0
0.0 0.0 0.0

3.289028646946721e6 2.529645632654757e6 0.0
2.529645632654757e6 -1.388221330205163e7 0.0
0.0 0.0 0.0

-7.311927780182084e6 -4.836669863221298e6 0.0
-4.836669863221298e6 1.8001356535831857e7 0.0
0.0 0.0 0.0

-8.322032316313941e6 -3.991777818289141e6 0.0
-3.991777818289141e6 2.4011428510163773e7 0.0
0.0 0.0 0.0

-1.1777001971039611e6 878064.646737846 0.0
878064.646737846 124106.68847445014 0.0
0.0 0.0 0.0

-8.202596079931375e6 -3.1792355597732654e6 0.0
-3.1792355597732654e6 2.8660761772224084e7 0.0
0.0 0.0 0.0

2.688848863417672e6 2.7047405154650607e6 0.0
2.7047405154650607e6 -9.281567264413811e6 0.0
0.0 0.0 0.0

1.4507833291227065e6 2.5291408702269876e6 0.0
2.5291408702269876e6 -4.710790461566121e6 0.0
0.0 0.0 0.0

-6.268298043242119e6 -4.815208216280783e6 0.0
-4.815208216280783e6 1.3055806347584845e7 0.0
0.0 0.0 0.0

2.8626296550206933e6 1.7872624449481412e6 0.0
1.7872624449481412e6 -3.1696444976771217e7 0.0
0.0 0.0 0.0

2.8426541709286235e6 1.707271272721931e6 0.0
1.707271272721931e6 -3.4496527428185344e7 0.0
0.0 0.0 0.0

2.999591059979329e6 1.8093950279615154e6 0.0
1.8093950279615154e6 -2.884350531054456e7 0.0
0.0 0.0 0.0

3.386634859115051e6 2.0885686391771277e6 0.0
2.0885686391771277e6 -2.4448201266434707e7 0.0
0.0 0.0 0.0

-7.406738492448987e6 -4.887814061854811e6 0.0
-4.887814061854811e6 1.60549182224725e7 0.0
0.0 0.0 0.0

-7.970727092407651e6 -2.99053376003963e6 0.0
-2.99053376003963e6 2.9961397252410054e7 0.0
0.0 0.0 0.0

2.8474723086547162e6 1.7999465234194498e6 0.0
1.7999465234194498e6 -3.322594558027359e7 0.0
0.0 0.0 0.0

3.0883628884040713e6 2.2232772007345036e6 0.0
2.2232772007345036e6 -2.144349463124061e7 0.0
0.0 0.0 0.0

3.2160548662792034e6 2.1800493091898747e6 0.0
2.1800493091898747e6 -2.2919586468187414e7 0.0
0.0 0.0 0.0

3.314058452409758e6 2.250463196993029e6 0.0
2.250463196993029e6 -1.9995827053195987e7 0.0
0.0 0.0 0.0

1.084391315939295e6 1.947029250973191e7 0.0
1.947029250973191e7 -1.8345074697727427e7 0.0
0.0 0.0 0.0

-8.207378988324491e6 1.5558976166779004e7 0.0
1.5558976166779004e7 2.4985232411253106e7 0.0
0.0 0.0 0.0

-1.004468416074648e7 1.0092082528939085e7 0.0
1.0092082528939085e7 3.313518451301147e7 0.0
0.0 0.0 0.0

-3.951986466023037e6 2.798880369701935e7 0.0
2.798880369701935e7 1.186020808893631e7 0.0
0.0 0.0 0.0

-1.961682521197671e6 1.936787189397122e7 0.0
1.936787189397122e7 -2.9815754631141786e7 0.0
0.0 0.0 0.0

-2.6938259626248395e6 2.2885751198209405e7 0.0
2.2885751198209405e7 5.2536706882813955e6 0.0
0.0 0.0 0.0

-1.7573316040025067e7 6.198472645813347e7 0.0
6.198472645813347e7 -521185.2286752388 0.0
0.0 0.0 0.0

-2.730514140895914e6 2.0278624508123543e7 0.0
2.0278624508123543e7 -471422.0483055676 0.0
0.0 0.0 0.0

-6.112824956110584e6 2.3461104202945143e7 0.0
2.3461104202945143e7 -1.806849798491562e7 0.0
0.0 0.0 0.0

1.3398999744365703e7 2.6534785108736534e7 0.0
2.6534785108736534e7 1.4482938020555783e7 0.0
0.0 0.0 0.0

-2.8568330292041083e6 2.432845039289273e7 0.0
2.432845039289273e7 1.0186399131640527e7 0.0
0.0 0.0 0.0

-2.168833767760776e6 2.2774680049190614e7 0.0
2.2774680049190614e7 1.2132022418742875e7 0.0
0.0 0.0 0.0

1.4239097787290923e6 2.451051275435469e7 0.0
2.451051275435469e7 -1.4461455552698482e7 0.0
0.0 0.0 0.0

-2.6666919078662936e6 2.0705532548693847e7 0.0
2.0705532548693847e7 1.4758591021641452e7 0.0
0.0 0.0 0.0

-1.9235146224253748e6 2.6689184761217687e7 0.0
2.6689184761217687e7 -1.0054021286133067e6 0.0
0.0 0.0 0.0

-1.721883223635579e6 2.4597977679845333e7 0.0
2.4597977679845333e7 -4.959105597675319e6 0.0
0.0 0.0 0.0

-5.458681745493702e6 1.704654399102076e7 0.0
1.704654399102076e7 1.4018005487216117e7 0.0
0.0 0.0 0.0

-894731.7087291647 1.7874693807743616e7 0.0
1.7874693807743616e7 -1.2335360219239408e7 0.0
0.0 0.0 0.0

-1.9772405744541308e6 2.1012945242619358e7 0.0
2.1012945242619358e7 3.6371419867918454e6 0.0
0.0 0.0 0.0

919689.1248149378 1.153016396984596e7 0.0
1.153016396984596e7 -1.814337315254872e7 0.0
0.0 0.0 0.0

-5.913841301687866e6 -4.59597722530962e6 0.0
-4.59597722530962e6 1.3358173914729938e7 0.0
0.0 0.0 0.0

-4.844219630813111e6 -3.636140464168312e6 0.0
-3.636140464168312e6 1.1200543295178283e7 0.0
0.0 0.0 0.0

-8.205285215934647e6 -3.1806954518804415e6 0.0
-3.1806954518804415e6 2.8368666736753188e7 0.0
0.0 0.0 0.0

-6.776798575676325e6 -4.565529928387674e6 0.0
-4.565529928387674e6 1.554147823713627e7 0.0
0.0 0.0 0.0

-7.408922533875676e6 -4.937508668618441e6 0.0
-4.937508668618441e6 1.707048891350696e7 0.0
0.0 0.0 0.0

2.7839700117437225e6 1.7377600791952822e6 0.0
1.7377600791952822e6 -3.1892470737204477e7 0.0
0.0 0.0 0.0

2.7106094585096575e6 1.6932810538751453e6 0.0
1.6932810538751453e6 -3.304785486814951e7 0.0
0.0 0.0 0.0

-8.02923244835275e6 -2.9590435565825137e6 0.0
-2.9590435565825137e6 3.010283448262779e7 0.0
0.0 0.0 0.0

3.113951442360515e6 2.130574971046229e6 0.0
2.130574971046229e6 -2.3538548542287596e7 0.0
0.0 0.0 0.0

3.289538389116098e6 2.3732364967776486e6 0.0
2.3732364967776486e6 -1.8732158739784192e7 0.0
0.0 0.0 0.0

3.1768105432100045e6 2.255594044874875e6 0.0
2.255594044874875e6 -2.153088644017301e7 0.0
0.0 0.0 0.0

3.260378686530783e6 2.2149292330971016e6 0.0
2.2149292330971016e6 -2.0095004332063235e7 0.0
0.0 0.0 0.0

-3.0649900426717717e6 1.90745467214968e7 0.0
1.90745467214968e7 2.6437315500817625e6 0.0
0.0 0.0 0.0

-3.629989096045075e6 2.0237007760512456e7 0.0
2.0237007760512456e7 3.3133238499339394e7 0.0
0.0 0.0 0.0

-3.417616023329567e6 2.030335712078389e7 0.0
2.030335712078389e7 1.812750893090411e7 0.0
0.0 0.0 0.0

2.9104156971931383e6 6.143114517499503e6 0.0
6.143114517499503e6 -2.768712404586667e7 0.0
0.0 0.0 0.0

370575.0740504216 2.984709785234126e7 0.0
2.984709785234126e7 -5.749122674615159e6 0.0
0.0 0.0 0.0

573780.5897653466 2.2711198607858837e7 0.0
2.2711198607858837e7 2.600377911157131e7 0.0
0.0 0.0 0.0

-8.145408937629905e6 1.7229790270646214e7 0.0
1.7229790270646214e7 2.7322993831821207e7 0.0
0.0 0.0 0.0

1.3691240599467475e6 1.1069526875599675e7 0.0
1.1069526875599675e7 -2.2944583115071274e7 0.0
0.0 0.0 0.0

1.0660477326832665e6 1.4154207100998806e7 0.0
1.4154207100998806e7 -2.4730934234359406e7 0.0
0.0 0.0 0.0

-1.8584211449782709e6 2.3448980336796414e7 0.0
2.3448980336796414e7 -5.284056780844938e6 0.0
0.0 0.0 0.0

-187546.1816884298 2.222078372839376e7 0.0
2.222078372839376e7 2.9073574742276765e7 0.0
0.0 0.0 0.0

-3.359093692228576e6 1.3945658132884176e7 0.0
1.3945658132884176e7 8.124106818186685e6 0.0
0.0 0.0 0.0

-194875.95271228114 2.4105771018717848e7 0.0
2.4105771018717848e7 -7.78415196799151e6 0.0
0.0 0.0 0.0

-927086.255573094 2.9360123445430335e7 0.0
2.9360123445430335e7 237022.30805469118 0.0
0.0 0.0 0.0

1.0109905111965174e6 1.6066153958715644e7 0.0
1.6066153958715644e7 -1.786570305986805e7 0.0
0.0 0.0 0.0

-1.1654380187574602e6 2.554289612758926e7 0.0
2.554289612758926e7 -1.4237776002408112e6 0.0
0.0 0.0 0.0

3.4034456519946544e6 5.255848185069238e6 0.0
5.255848185069238e6 580379.6109058356 0.0
0.0 0.0 0.0

-736795.2008321639 2.2617440493343607e7 0.0
2.2617440493343607e7 2.7152854250431664e7 0.0
0.0 0.0 0.0

-128674.44829960726 1.2034232677670242e7 0.0
1.2034232677670242e7 -4.9103995265946664e7 0.0
0.0 0.0 0.0

336545.7528799325 1.319493241578203e7 0.0
1.319493241578203e7 -3.8451381940703124e7 0.0
0.0 0.0 0.0

-304372.3092200528 2.296341080830275e7 0.0
2.296341080830275e7 -8.219264444175861e6 0.0
0.0 0.0 0.0

-1.1326930926748257e7 2.8649695306780882e7 0.0
2.8649695306780882e7 5.191931060754334e6 0.0
0.0 0.0 0.0

2.579951847257466e6 7.109488478674779e6 0.0
7.109488478674779e6 -1.4121814564197626e7 0.0
0.0 0.0 0.0

-1.9500456297780583e6 2.0385792956319362e7 0.0
2.0385792956319362e7 2.108772302885141e6 0.0
0.0 0.0 0.0

-2.0426256528091938e6 2.48853869679895e7 0.0
2.48853869679895e7 -2.436991637020862e6 0.0
0.0 0.0 0.0

-908534.2190584746 2.598402239670154e7 0.0
2.598402239670154e7 -2.5445976243728986e6 0.0
0.0 0.0 0.0

-2.4179189481894057e6 1.9393958087931734e7 0.0
1.9393958087931734e7 -3.2816038263117928e7 0.0
0.0 0.0 0.0

878004.8798294384 1.385456324750577e7 0.0
1.385456324750577e7 -3.1597773530646585e7 0.0
0.0 0.0 0.0

-4.530796063009368e6 1.4749604722918507e7 0.0
1.4749604722918507e7 6.724849370637279e6 0.0
0.0 0.0 0.0

-3.536134539287489e6 2.150351493192333e7 0.0
2.150351493192333e7 1.335838204004471e7 0.0
0.0 0.0 0.0

-499276.0002828259 1.741916823716694e7 0.0
1.741916823716694e7 -3.3540913566187896e7 0.0
0.0 0.0 0.0

19901.739249083446 2.7047693466034323e7 0.0
2.7047693466034323e7 -5.6442721162217455e6 0.0
0.0 0.0 0.0

2.006143935549744e6 2.586912991292945e6 0.0
2.586912991292945e6 -6.298207222211355e6 0.0
0.0 0.0 0.0

8.833892118640952e6 3.946752462355496e7 0.0
3.946752462355496e7 -4.051696390700908e6 0.0
0.0 0.0 0.0

2.2133219144956833e6 8.100964447341101e6 0.0
8.100964447341101e6 -1.284590879758506e7 0.0
0.0 0.0 0.0

-1.1692674025714514e6 1.7387708737669498e7 0.0
1.7387708737669498e7 -4.564821081568253e6 0.0
0.0 0.0 0.0

-3.404307377269878e6 2.4755514288073234e7 0.0
2.4755514288073234e7 1.5015823054715477e7 0.0
0.0 0.0 0.0

-2.3319479866051953e6 1.7039483856037978e7 0.0
1.7039483856037978e7 3.845595505616557e6 0.0
0.0 0.0 0.0

-2.663004386344814e6 1.9523908807468306e7 0.0
1.9523908807468306e7 -2.0946895644508968e6 0.0
0.0 0.0 0.0

-2.0993928169989833e6 2.5529844586004596e7 0.0
2.5529844586004596e7 -1.0922931126235006e6 0.0
0.0 0.0 0.0

-5.153248295751896e6 1.3142019305260822e7 0.0
1.3142019305260822e7 6.891598718697652e6 0.0
0.0 0.0 0.0

-9.687549229777731e6 1.3161252500385765e6 0.0
1.3161252500385765e6 1.88652286783023e7 0.0
0.0 0.0 0.0

-2.5551047774239173e6 2.0288334140843447e7 0.0
2.0288334140843447e7 1.3385005937126603e7 0.0
0.0 0.0 0.0

-1.9462261512573473e6 2.2740785528986134e7 0.0
2.2740785528986134e7 7.762778104367059e6 0.0
0.0 0.0 0.0

-106758.4765770305 8.104410946592958e6 0.0
8.104410946592958e6 -8.146194669537472e6 0.0
0.0 0.0 0.0

-3.7398508267277908e6 1.8100099449378278e7 0.0
1.8100099449378278e7 1.633488043824463e7 0.0
0.0 0.0 0.0

-1.6654105616222697e6 2.6447833515871394e7 0.0
2.6447833515871394e7 -3.327147051790124e6 0.0
0.0 0.0 0.0

2.134163273780817e6 1.0358629475253947e7 0.0
1.0358629475253947e7 -3.346829857393713e7 0.0
0.0 0.0 0.0

-1.042524215307891e7 2.8964755192563243e7 0.0
2.8964755192563243e7 4.3425342294901e6 0.0
0.0 0.0 0.0

-1.9743017977451493e6 2.2258603614786785e7 0.0
2.2258603614786785e7 -5.635066895982e6 0.0
0.0 0.0 0.0

1.7267421590098906e6 2.675401171723438e6 0.0
2.675401171723438e6 -5.174125482974399e6 0.0
0.0 0.0 0.0

-4.680042149339611e6 3.0727148687774323e7 0.0
3.0727148687774323e7 8.033179082584048e6 0.0
0.0 0.0 0.0

-1.0570670022645827e7 1.273664877502526e7 0.0
1.273664877502526e7 2.3727955878403295e7 0.0
0.0 0.0 0.0

-2.38498016115957e6 2.1322866665573075e7 0.0
2.1322866665573075e7 -3.2318259441480134e6 0.0
0.0 0.0 0.0

-592885.602893936 2.8108985025909375e7 0.0
2.8108985025909375e7 -2.158792819341331e6 0.0
0.0 0.0 0.0

-1.7678522277746983e6 2.884175034257927e7 0.0
2.884175034257927e7 -650320.0233707556 0.0
0.0 0.0 0.0

-1.564914226564636e6 2.572416636929301e7 0.0
2.572416636929301e7 -4.665621474861961e6 0.0
0.0 0.0 0.0

-1.4551637960852874e6 2.5637558405598298e7 0.0
2.5637558405598298e7 1.0306747763479309e6 0.0
0.0 0.0 0.0

2.906809357683226e6 2.634015267655619e6 0.0
2.634015267655619e6 -1.0766724376184613e7 0.0
0.0 0.0 0.0

1.2274728108987517e6 3.2322373692077775e7 0.0
3.2322373692077775e7 -4.971304604116018e6 0.0
0.0 0.0 0.0

-2.0235781123890527e7 2.106677869928412e7 0.0
2.106677869928412e7 -8.61279459233797e7 0.0
0.0 0.0 0.0

2.0118428603880003e7 2.200486752951979e7 0.0
2.200486752951979e7 8.345410780233425e7 0.0
0.0 0.0 0.0

688335.8639591094 1.755351113073644e7 0.0
1.755351113073644e7 -2.33181795539505e7 0.0
0.0 0.0 0.0

-407954.2108225669 2.4874162159954183e7 0.0
2.4874162159954183e7 -6.371869635946548e6 0.0
0.0 0.0 0.0

-5.775293812348495e6 1.9412570991014503e7 0.0
1.9412570991014503e7 -2.6222429185969193e7 0.0
0.0 0.0 0.0

-2.0421075663404835e6 2.1033941253951013e7 0.0
2.1033941253951013e7 -6.018553876785568e6 0.0
0.0 0.0 0.0

1.7825322209651442e6 2.4687142536309544e7 0.0
2.4687142536309544e7 -1.4744264091979407e7 0.0
0.0 0.0 0.0

-1.574595526101874e6 1.9443679524600983e7 0.0
1.9443679524600983e7 -9.184459510160817e6 0.0
0.0 0.0 0.0

-2.1876710297464407e6 2.5056260793902162e7 0.0
2.5056260793902162e7 62202.790443684324 0.0
0.0 0.0 0.0

-110138.05472049862 1.0500512612399768e7 0.0
1.0500512612399768e7 -6.144719481825608e7 0.0
0.0 0.0 0.0

-1.1028247875525154e7 2.72794782340154e7 0.0
2.72794782340154e7 3.5141511490913257e6 0.0
0.0 0.0 0.0

-2.613301544910246e6 2.498086530463687e7 0.0
2.498086530463687e7 7.681378026948645e6 0.0
0.0 0.0 0.0

-843537.061382836 1.9755530115780372e7 0.0
1.9755530115780372e7 -6.825224417810559e6 0.0
0.0 0.0 0.0

871208.1539371405 1.4633670854915163e7 0.0
1.4633670854915163e7 -2.978114734697421e7 0.0
0.0 0.0 0.0

1.9547226892632686e7 2.2978464812217448e7 0.0
2.2978464812217448e7 6.51574226177053e7 0.0
0.0 0.0 0.0

602995.1375902132 2.544174683935476e7 0.0
2.544174683935476e7 -1.0052701026665743e7 0.0
0.0 0.0 0.0

-2.9918015877239853e7 7.024074273775777e7 0.0
7.024074273775777e7 94481.32176478766 0.0
0.0 0.0 0.0

733504.7590850098 1.6794561080957465e7 0.0
1.6794561080957465e7 -2.487202078555308e7 0.0
0.0 0.0 0.0

-794696.1818602036 2.5271452902501944e7 0.0
2.5271452902501944e7 -3.914690309193554e6 0.0
0.0 0.0 0.0

2.711623086741946e6 2.6939782626426932e6 0.0
2.6939782626426932e6 -9.87539746724265e6 0.0
0.0 0.0 0.0

1.714443762253685e6 9.010137113438793e6 0.0
9.010137113438793e6 -3.2813624676107477e7 0.0
0.0 0.0 0.0

-999816.3543855634 2.8353559015658207e7 0.0
2.8353559015658207e7 141810.6651368537 0.0
0.0 0.0 0.0

-9.502406571982931e6 1.9909501050391376e7 0.0
1.9909501050391376e7 -4.998311143148508e7 0.0
0.0 0.0 0.0

-1.1004076090104333e6 2.054381555458354e7 0.0
2.054381555458354e7 -5.214898113246827e6 0.0
0.0 0.0 0.0

971112.0494071599 1.3968820813000252e7 0.0
1.3968820813000252e7 -1.4005872431465011e7 0.0
0.0 0.0 0.0

-2.4341719358902527e6 1.8306586085732013e7 0.0
1.8306586085732013e7 7.270025151104911e6 0.0
0.0 0.0 0.0

857017.1564483121 1.6093233022664743e7 0.0
1.6093233022664743e7 -2.6507616353607237e7 0.0
0.0 0.0 0.0

-3.6385909026157623e6 1.7660196131789967e7 0.0
1.7660196131789967e7 6.2808068040869385e6 0.0
0.0 0.0 0.0

477858.9142795019 2.0710922502099052e7 0.0
2.0710922502099052e7 -2.203225003237694e7 0.0
0.0 0.0 0.0

-2.9962520617472757e7 3.3503232367030963e7 0.0
3.3503232367030963e7 -1.4464635873050785e7 0.0
0.0 0.0 0.0

-7.9556348194308495e6 -4.594449502919788e6 0.0
-4.594449502919788e6 2.0277450788865883e7 0.0
0.0 0.0 0.0

-2.8241651455017035e6 1.8010915553063046e7 0.0
1.8010915553063046e7 1.0977844936124045e7 0.0
0.0 0.0 0.0

-1.250506805760926e6 2.616446402571101e7 0.0
2.616446402571101e7 -84681.81336299179 0.0
0.0 0.0 0.0

-6.222089076677602e6 2.670928947100889e6 0.0
2.670928947100889e6 5.66521117763859e7 0.0
0.0 0.0 0.0

1.6295858024137318e6 2.2732563720911365e7 0.0
2.2732563720911365e7 1.721488243780488e7 0.0
0.0 0.0 0.0

-1.8403315260699468e6 2.0236362778419748e7 0.0
2.0236362778419748e7 -7.606091254388521e6 0.0
0.0 0.0 0.0

1.3554058662396576e6 2.4551735458772734e7 0.0
2.4551735458772734e7 -1.3613364975263337e7 0.0
0.0 0.0 0.0

-735306.651059804 2.179457533832472e7 0.0
2.179457533832472e7 -1.1714109071901496e7 0.0
0.0 0.0 0.0

-1.5916316881398559e6 1.632794302215583e7 0.0
1.632794302215583e7 -8.834986904645294e6 0.0
0.0 0.0 0.0

-1.327117866713699e6 2.4189315158748973e7 0.0
2.4189315158748973e7 -7.444773838740124e6 0.0
0.0 0.0 0.0

-2.911925090015892e6 2.1469233584104706e7 0.0
2.1469233584104706e7 1.7238048927165713e7 0.0
0.0 0.0 0.0

-1.8552206510327798e6 2.2223151204988334e7 0.0
2.2223151204988334e7 3.583449682473242e6 0.0
0.0 0.0 0.0

-2.5674760505355527e6 2.0815043188214637e7 0.0
2.0815043188214637e7 -1.9104491483804416e6 0.0
0.0 0.0 0.0

1.6004965523293335e6 8.904704815648569e6 0.0
8.904704815648569e6 -4.257508885713242e7 0.0
0.0 0.0 0.0

-5.990407073144818e6 3.139350648302194e7 0.0
3.139350648302194e7 8.175525036083439e6 0.0
0.0 0.0 0.0

-7.623428541128202e6 2.3666765139494673e6 0.0
2.3666765139494673e6 1.388606131822969e7 0.0
0.0 0.0 0.0

-2.7859161511036577e6 2.109763166424398e7 0.0
2.109763166424398e7 1.6043977356879346e7 0.0
0.0 0.0 0.0

511886.5675361082 1.4184249961896151e7 0.0
1.4184249961896151e7 -1.142434136365978e7 0.0
0.0 0.0 0.0

2.7659189273037016e6 3.409196738001515e6 0.0
3.409196738001515e6 -2.602796182109424e7 0.0
0.0 0.0 0.0

851458.9644086752 1.5320926861040264e7 0.0
1.5320926861040264e7 -2.8226236534895685e7 0.0
0.0 0.0 0.0

-6.554820391968921e6 9.101312469079597e6 0.0
9.101312469079597e6 7.04850713920876e6 0.0
0.0 0.0 0.0

-7.901980662220867e6 1.6505675657140004e7 0.0
1.6505675657140004e7 3.3355320260252915e7 0.0
0.0 0.0 0.0

-1.7290162405121336e6 2.2681216043024905e7 0.0
2.2681216043024905e7 -6.7673396513162255e6 0.0
0.0 0.0 0.0

-7.786717803878541e6 -4.63107949808453e6 0.0
-4.63107949808453e6 1.9103897301950477e7 0.0
0.0 0.0 0.0

-4.0476016789236623e6 1.6246359738887392e7 0.0
1.6246359738887392e7 6.510247596816197e6 0.0
0.0 0.0 0.0

1.3912002838234683e6 2.5342574129515074e7 0.0
2.5342574129515074e7 -1.2191943440419981e7 0.0
0.0 0.0 0.0

-3.291464240195652e6 2.170916624319155e7 0.0
2.170916624319155e7 -2.3324023984148797e7 0.0
0.0 0.0 0.0

644433.0381276533 1.4105142995306801e7 0.0
1.4105142995306801e7 -1.9544905308274645e7 0.0
0.0 0.0 0.0

-932884.3685160528 1.1103363266240293e7 0.0
1.1103363266240293e7 -7.724191384980637e6 0.0
0.0 0.0 0.0

-1.0921100141922806e6 2.178415571817525e7 0.0
2.178415571817525e7 -4.855669551802013e6 0.0
0.0 0.0 0.0

-1.160233188592067e6 2.121822299700167e7 0.0
2.121822299700167e7 3.157501587618138e7 0.0
0.0 0.0 0.0

-1.524481735185454e6 2.9175566479897317e7 0.0
2.9175566479897317e7 -1.6785990462818607e6 0.0
0.0 0.0 0.0

-4.715811579792917e6 2.2132184340133194e7 0.0
2.2132184340133194e7 2.3456888674380027e7 0.0
0.0 0.0 0.0

-2.3423379182085684e6 2.4603160702418696e7 0.0
2.4603160702418696e7 1.3659421568003397e7 0.0
0.0 0.0 0.0

-257370.04456363106 1.2620296333595527e7 0.0
1.2620296333595527e7 -1.1444389212753478e7 0.0
0.0 0.0 0.0

-2.7034837582833944e6 1.6928800231179584e7 0.0
1.6928800231179584e7 7.555383222279771e6 0.0
0.0 0.0 0.0

879225.2513101138 2.2417209692455977e7 0.0
2.2417209692455977e7 1.730338361223315e7 0.0
0.0 0.0 0.0

-1.951220415014449e6 1.715430499869136e7 0.0
1.715430499869136e7 -7.149926007429736e6 0.0
0.0 0.0 0.0

-419210.4013218116 1.7783972377108302e7 0.0
1.7783972377108302e7 -3.0971237993103072e7 0.0
0.0 0.0 0.0

-1.0339442348800031e6 2.2981378401038643e7 0.0
2.2981378401038643e7 -4.51248591906656e6 0.0
0.0 0.0 0.0

593395.6362054395 1.8274124348671596e7 0.0
1.8274124348671596e7 -2.1799426426846102e7 0.0
0.0 0.0 0.0

-2.243032856671588e6 1.9055779001179993e7 0.0
1.9055779001179993e7 5.402383053819474e6 0.0
0.0 0.0 0.0

-1.0480779004235305e7 1.8950954663751107e7 0.0
1.8950954663751107e7 -3.734661965708339e7 0.0
0.0 0.0 0.0

-930833.6001992421 2.4142401300021157e7 0.0
2.4142401300021157e7 -4.20667460686169e6 0.0
0.0 0.0 0.0

8.712336622984402e6 2.439368774518264e7 0.0
2.439368774518264e7 298354.7503901152 0.0
0.0 0.0 0.0

-6.333857344814535e6 4.974651640675184e6 0.0
4.974651640675184e6 5.543307574559958e7 0.0
0.0 0.0 0.0

-9.969530812116275e6 4.264624616612309e7 0.0
4.264624616612309e7 4.664564152418893e6 0.0
0.0 0.0 0.0

-3.0750116469843956e6 2.4903902478672985e7 0.0
2.4903902478672985e7 1.2056466240210008e7 0.0
0.0 0.0 0.0

-5.665411323991934e6 1.7310423111091115e7 0.0
1.7310423111091115e7 3.695197530758778e7 0.0
0.0 0.0 0.0

-3.4143469464783045e6 2.8004007200226802e7 0.0
2.8004007200226802e7 1.0887567877579499e7 0.0
0.0 0.0 0.0

-2.0445276686838355e6 1.9092989115562093e7 0.0
1.9092989115562093e7 2.0732980156304175e6 0.0
0.0 0.0 0.0

-622592.0803237117 2.0211821936636955e7 0.0
2.0211821936636955e7 -7.979197576848722e6 0.0
0.0 0.0 0.0

-844464.1363126759 2.2213314359114554e7 0.0
2.2213314359114554e7 -6.010176019318296e6 0.0
0.0 0.0 0.0

-1.6438303645746186e6 1.2449592720139775e7 0.0
1.2449592720139775e7 62011.645515921526 0.0
0.0 0.0 0.0

1.427864347587443e6 2.6175552755491827e7 0.0
2.6175552755491827e7 -1.08886882386027e7 0.0
0.0 0.0 0.0

2.020929177455742e6 7.103517520211805e6 0.0
7.103517520211805e6 -2.5486993065598376e7 0.0
0.0 0.0 0.0

1.1213382996467948e6 7.298562087774161e6 0.0
7.298562087774161e6 -1.17293105855556e7 0.0
0.0 0.0 0.0

-2.6859039232652327e6 2.399849674780685e7 0.0
2.399849674780685e7 1.6447336671722248e7 0.0
0.0 0.0 0.0

-1.3151489763982026e6 2.8548361562398378e7 0.0
2.8548361562398378e7 -2.8960477111427383e6 0.0
0.0 0.0 0.0

7.639327094293276e6 2.48096581499459e7 0.0
2.48096581499459e7 -2.295477202533654e6 0.0
0.0 0.0 0.0

-1.4474130652095953e7 3.0888636719582655e7 0.0
3.0888636719582655e7 4.6682223636264205e6 0.0
0.0 0.0 0.0

1.736838723840272e6 6.932910026272645e6 0.0
6.932910026272645e6 -1.6883923794245437e7 0.0
0.0 0.0 0.0

-2.290708767932715e6 1.7945372190032244e7 0.0
1.7945372190032244e7 -5.473601527693326e6 0.0
0.0 0.0 0.0

5.7933466514747605e7 1.9662686911194008e7 0.0
1.9662686911194008e7 3.920364208790293e6 0.0
0.0 0.0 0.0

-639065.1763283098 1.150845794465984e7 0.0
1.150845794465984e7 -9.291284114885582e6 0.0
0.0 0.0 0.0

1.8707764406032674e6 7.32339717961924e6 0.0
7.32339717961924e6 -3.1391459882386215e7 0.0
0.0 0.0 0.0

-3.6404814998425543e6 2.071334029642371e7 0.0
2.071334029642371e7 3.111945826483361e7 0.0
0.0 0.0 0.0

668375.3760084929 1.946999141239751e7 0.0
1.946999141239751e7 -2.327701407225739e7 0.0
0.0 0.0 0.0

-8.517045352067936e6 1.4194516880941052e7 0.0
1.4194516880941052e7 2.288146529527042e7 0.0
0.0 0.0 0.0

-1.581249261694277e7 4.0624961922303215e7 0.0
4.0624961922303215e7 5.467177404498478e6 0.0
0.0 0.0 0.0

-3.615169493246015e6 2.1173613392092325e7 0.0
2.1173613392092325e7 2.9275019956644118e7 0.0
0.0 0.0 0.0

-4.1680870038398346e6 2.8907813730659466e7 0.0
2.8907813730659466e7 1.0460701235610226e7 0.0
0.0 0.0 0.0

-2.5448309674484067e7 3.0935298991965365e7 0.0
3.0935298991965365e7 -1.3728860813501816e7 0.0
0.0 0.0 0.0

-2.736582859339521e6 2.097167194690434e7 0.0
2.097167194690434e7 1.1098521840364437e6 0.0
0.0 0.0 0.0

5.382192895097698e7 7.345087598965488e6 0.0
7.345087598965488e6 -225753.91968058795 0.0
0.0 0.0 0.0

78253.48604311654 2.2640846612643823e7 0.0
2.2640846612643823e7 -1.0630417241554977e7 0.0
0.0 0.0 0.0

-1.7788561995631936e6 1.943384268141353e7 0.0
1.943384268141353e7 -730798.1184822274 0.0
0.0 0.0 0.0

1.4201792446226384e6 2.698117754280515e7 0.0
2.698117754280515e7 -9.542721964234613e6 0.0
0.0 0.0 0.0

-1.725449566189617e7 2.6707699243217025e7 0.0
2.6707699243217025e7 -7.370844098406639e6 0.0
0.0 0.0 0.0

-348886.8792996658 1.078589170703587e7 0.0
1.078589170703587e7 -3.5263654863293828e6 0.0
0.0 0.0 0.0

-3.002323816782686e6 2.4558594870626092e7 0.0
2.4558594870626092e7 1.7505972664437067e7 0.0
0.0 0.0 0.0

-4.798739686112818e6 1.993486743621285e7 0.0
1.993486743621285e7 -2.4454858471947834e7 0.0
0.0 0.0 0.0

-1.0048765639709702e7 7.361641967864083e6 0.0
7.361641967864083e6 3.3750353222814366e7 0.0
0.0 0.0 0.0

-1.621364317495227e6 2.8175290983481906e7 0.0
2.8175290983481906e7 -1.881449774996636e6 0.0
0.0 0.0 0.0

-1.8734022531118647e6 1.9697164708675526e7 0.0
1.9697164708675526e7 505817.66237501777 0.0
0.0 0.0 0.0

-725078.284637837 2.8749334482242305e7 0.0
2.8749334482242305e7 -980493.5090091029 0.0
0.0 0.0 0.0

470458.2752044825 2.0095822861567035e7 0.0
2.0095822861567035e7 -1.3899290329782598e7 0.0
0.0 0.0 0.0

-6.783730482730241e6 1.0443187695276191e7 0.0
1.0443187695276191e7 1.508991576537905e7 0.0
0.0 0.0 0.0

-3.0613148950459757e6 2.8704563257481776e7 0.0
2.8704563257481776e7 7.008337774536369e6 0.0
0.0 0.0 0.0

-3.146508776563188e6 2.381345384329274e7 0.0
2.381345384329274e7 2.0067328131627023e7 0.0
0.0 0.0 0.0

-2.375399526702403e6 2.345713414458309e7 0.0
2.345713414458309e7 1.4434400582474902e7 0.0
0.0 0.0 0.0

-828200.7418245319 1.660618307971906e7 0.0
1.660618307971906e7 -6.261607712741835e6 0.0
0.0 0.0 0.0

696522.1001339499 1.3837983425868433e7 0.0
1.3837983425868433e7 -3.389077392761266e7 0.0
0.0 0.0 0.0

-2.539472337263849e6 2.281479449082196e7 0.0
2.281479449082196e7 2.558692415982775e6 0.0
0.0 0.0 0.0

472305.24731876235 2.1959209382675275e7 0.0
2.1959209382675275e7 -1.691172079241679e7 0.0
0.0 0.0 0.0

-142231.13588449173 1.9768707876869168e7 0.0
1.9768707876869168e7 -1.5882771271982934e7 0.0
0.0 0.0 0.0

326527.45954048075 2.892456729882919e7 0.0
2.892456729882919e7 -6.985749110184444e6 0.0
0.0 0.0 0.0

-680272.7935796236 2.296103317256248e7 0.0
2.296103317256248e7 -1.1101693494127983e7 0.0
0.0 0.0 0.0

1.129674962103285e6 1.422659402984801e7 0.0
1.422659402984801e7 -2.7040205487211898e7 0.0
0.0 0.0 0.0

1.3770830639726706e6 7.404326406625537e6 0.0
7.404326406625537e6 -7.019079713140557e6 0.0
0.0 0.0 0.0

-3.105728001822653e6 7.16547940520592e6 0.0
7.16547940520592e6 6.641580492583372e6 0.0
0.0 0.0 0.0

1.898219381740765e6 3.881020745307308e7 0.0
3.881020745307308e7 -955464.600923985 0.0
0.0 0.0 0.0

-2.697414385609402e6 2.1606786328948405e7 0.0
2.1606786328948405e7 2.617772208702709e6 0.0
0.0 0.0 0.0

-1.0615016607586602e6 2.4532532395747066e7 0.0
2.4532532395747066e7 -8.474701248934217e6 0.0
0.0 0.0 0.0

3.054780364410231e6 4.20777189401338e6 0.0
4.20777189401338e6 -1.5929975934085757e7 0.0
0.0 0.0 0.0

-6.60340356064846e6 7.48722101217644e6 0.0
7.48722101217644e6 5.600441560965436e7 0.0
0.0 0.0 0.0

1.199739145099056e6 1.129767343453182e7 0.0
1.129767343453182e7 -2.0549129662993625e7 0.0
0.0 0.0 0.0

8.805651691550016e6 2.9713432387572315e7 0.0
2.9713432387572315e7 -6.4391304223282635e6 0.0
0.0 0.0 0.0

2.43574243458104e6 3.09034751381872e7 0.0
3.09034751381872e7 -6.359577591311658e6 0.0
0.0 0.0 0.0

-3.059011288719474e6 2.940948202342892e7 0.0
2.940948202342892e7 5.825299705775675e6 0.0
0.0 0.0 0.0

2.2300519465490784e6 3.5239915808403413e6 0.0
3.5239915808403413e6 -3.722577056566292e7 0.0
0.0 0.0 0.0

-496617.5011132802 2.5650091678221695e7 0.0
2.5650091678221695e7 -4.984999396757069e6 0.0
0.0 0.0 0.0

290254.9814212541 2.7275747377695337e7 0.0
2.7275747377695337e7 -6.6276601947926525e6 0.0
0.0 0.0 0.0

1.6386511850464158e6 8.2989706220184555e6 0.0
8.2989706220184555e6 -3.456756506968269e7 0.0
0.0 0.0 0.0

-129511.88508479274 3.121089174106747e7 0.0
3.121089174106747e7 -3.75480632468352e6 0.0
0.0 0.0 0.0

4.228587949913826e6 2.5423571592002273e7 0.0
2.5423571592002273e7 -8.970888791159723e6 0.0
0.0 0.0 0.0

-1.451841623341201e6 2.4970931756733693e7 0.0
2.4970931756733693e7 -6.039823942156575e6 0.0
0.0 0.0 0.0

-1.4917910141684636e6 1.863536125113209e7 0.0
1.863536125113209e7 -3.3414900383888356e7 0.0
0.0 0.0 0.0

1.4047219719806816e6 7.915733924113422e6 0.0
7.915733924113422e6 -1.5464250805975676e7 0.0
0.0 0.0 0.0

272086.81302760914 1.3730937391888997e7 0.0
1.3730937391888997e7 -1.6341777121826328e7 0.0
0.0 0.0 0.0

19834.228778163902 2.5671720326364875e7 0.0
2.5671720326364875e7 -9.358462840965498e6 0.0
0.0 0.0 0.0

3.2767553697033618e6 2.526347266209699e7 0.0
2.526347266209699e7 -1.0935320638107138e7 0.0
0.0 0.0 0.0

-827287.1024172753 2.3668321639791917e7 0.0
2.3668321639791917e7 -9.780487646468055e6 0.0
0.0 0.0 0.0

2.3898440000068564e6 8.710868954828145e6 0.0
8.710868954828145e6 -1.6454614791618897e7 0.0
0.0 0.0 0.0

2.828604996207066e6 4.938779171409155e6 0.0
4.938779171409155e6 -3.097053414349185e7 0.0
0.0 0.0 0.0

361284.2866618177 1.9763984434996493e7 0.0
1.9763984434996493e7 -1.88098601866099e7 0.0
0.0 0.0 0.0

-104053.11500125937 1.4501378245360877e7 0.0
1.4501378245360877e7 -1.4868027057660352e7 0.0
0.0 0.0 0.0

-2.885927463982097e6 1.9692916990288295e7 0.0
1.9692916990288295e7 1.0427359429369101e6 0.0
0.0 0.0 0.0

-1.1936968778027726e7 3.1339049795272224e7 0.0
3.1339049795272224e7 6.028586481360864e6 0.0
0.0 0.0 0.0

2.9215279875864647e6 1.6635092769697258e7 0.0
1.6635092769697258e7 8.825617395146619e7 0.0
0.0 0.0 0.0

-1.050001673972554e7 8.018468695984394e6 0.0
8.018468695984394e6 3.107673741540026e7 0.0
0.0 0.0 0.0

2.524724853248709e6 2.878274263265986e7 0.0
2.878274263265986e7 -9.450189540235898e6 0.0
0.0 0.0 0.0

-2.8607315870645186e6 2.036420956203387e7 0.0
2.036420956203387e7 2.6358655742810275e6 0.0
0.0 0.0 0.0

-7.884222970556734e6 9.933900500254389e6 0.0
9.933900500254389e6 4.4026420909184694e7 0.0
0.0 0.0 0.0

2.907262431344928e6 4.980378251227263e6 0.0
4.980378251227263e6 -2.73250236011055e7 0.0
0.0 0.0 0.0

-1.9439606982628342e6 2.1590793734841224e7 0.0
2.1590793734841224e7 5.13480818581629e6 0.0
0.0 0.0 0.0

305554.86404474825 1.900110340942925e7 0.0
1.900110340942925e7 -2.5408197933464635e7 0.0
0.0 0.0 0.0

1.4159313490074198e6 2.787981415545928e7 0.0
2.787981415545928e7 -8.372663520738948e6 0.0
0.0 0.0 0.0

-151956.50053949957 2.5964203999022517e7 0.0
2.5964203999022517e7 -6.011059068058501e6 0.0
0.0 0.0 0.0

-3.7756898438825565e6 1.881101346020409e7 0.0
1.881101346020409e7 9.562582538338546e6 0.0
0.0 0.0 0.0

-1.5176346187897874e6 2.079439666608699e7 0.0
2.079439666608699e7 -2.3357717925078375e6 0.0
0.0 0.0 0.0

-8.586418692175508e6 1.2338082184919486e7 0.0
1.2338082184919486e7 1.488364773680386e7 0.0
0.0 0.0 0.0

-5.576020716082679e7 3.0933222805914823e7 0.0
3.0933222805914823e7 1.48365976608181e6 0.0
0.0 0.0 0.0

6.694715222713744e6 2.512836487200675e7 0.0
2.512836487200675e7 1.3474949210610274e7 0.0
0.0 0.0 0.0

-2.70653148832866e6 2.5888226884670857e7 0.0
2.5888226884670857e7 1.3793663200302664e7 0.0
0.0 0.0 0.0

-1.1145202226370084e6 3.0908894945023835e7 0.0
3.0908894945023835e7 1.3535033244153154e6 0.0
0.0 0.0 0.0

1.4568701239162665e6 1.0845567276070112e7 0.0
1.0845567276070112e7 -2.5322899093457263e7 0.0
0.0 0.0 0.0

1.762579304918753e6 8.83455546142782e6 0.0
8.83455546142782e6 -3.0742483540050156e7 0.0
0.0 0.0 0.0

1.7200741777646765e6 1.1090900950802403e7 0.0
1.1090900950802403e7 -3.653934964436812e7 0.0
0.0 0.0 0.0

-3.2941493578828247e6 1.9018279212395377e7 0.0
1.9018279212395377e7 6.040283892499926e6 0.0
0.0 0.0 0.0

-8.671814203453561e6 1.5910661083251564e7 0.0
1.5910661083251564e7 3.071601255920288e7 0.0
0.0 0.0 0.0

-6.1783267449241085e6 1.3216240767416075e7 0.0
1.3216240767416075e7 1.6250284664289666e7 0.0
0.0 0.0 0.0

6.288272959973743e6 2.5185809240598295e7 0.0
2.5185809240598295e7 -4.632782555205379e6 0.0
0.0 0.0 0.0

-3.8936785899185184e6 2.0420530081673894e7 0.0
2.0420530081673894e7 -2.2395769589244694e7 0.0
0.0 0.0 0.0

-3.6130053969625486e6 2.8988088488016818e7 0.0
2.8988088488016818e7 8.844190599098986e6 0.0
0.0 0.0 0.0

9.734180225013107e6 3.761518990355261e7 0.0
3.761518990355261e7 -4.600974510356162e6 0.0
0.0 0.0 0.0

-9.851971877122149e6 3.152651546583635e7 0.0
3.152651546583635e7 7.044223954780647e6 0.0
0.0 0.0 0.0

-3.5720227733893655e6 2.2485676891239613e7 0.0
2.2485676891239613e7 2.3808218718635123e7 0.0
0.0 0.0 0.0

-72657.5887622051 7.755971438873034e6 0.0
7.755971438873034e6 -6.040877631808936e7 0.0
0.0 0.0 0.0

136426.59421133203 1.9082528862913392e7 0.0
1.9082528862913392e7 -1.218056550796472e7 0.0
0.0 0.0 0.0

3.054954068523977e6 2.66978230155368e6 0.0
2.66978230155368e6 -1.286562533800245e7 0.0
0.0 0.0 0.0

1.992828130373435e6 9.396617445850648e6 0.0
9.396617445850648e6 -3.7792701528596275e7 0.0
0.0 0.0 0.0

-2.9844248500238312e6 3.0096049333130684e7 0.0
3.0096049333130684e7 4.698389034532515e6 0.0
0.0 0.0 0.0

-7.960480647821264e6 1.641110193567474e7 0.0
1.641110193567474e7 2.8839032711695515e7 0.0
0.0 0.0 0.0

-3.882353651732765e6 2.18947613055265e7 0.0
2.18947613055265e7 2.5779496649626814e7 0.0
0.0 0.0 0.0

-2.903781246008914e6 2.678719631149344e7 0.0
2.678719631149344e7 1.2903173065889208e7 0.0
0.0 0.0 0.0

1.913969978633131e6 1.155696445944684e7 0.0
1.155696445944684e7 -1.8207441339493014e7 0.0
0.0 0.0 0.0

-8.812774596012976e6 2.617737988919004e7 0.0
2.617737988919004e7 -1.3650071290267784e7 0.0
0.0 0.0 0.0

2.561620046820106e6 3.84835009435027e7 0.0
3.84835009435027e7 -2.8514563476878367e6 0.0
0.0 0.0 0.0

-4.1519064914084845e6 3.1366381921235107e7 0.0
3.1366381921235107e7 6.440014373371611e6 0.0
0.0 0.0 0.0

-3.4923378716648277e6 2.1652059240769282e7 0.0
2.1652059240769282e7 2.746354683370191e7 0.0
0.0 0.0 0.0

-5.2884112700064145e6 7.672116686919655e7 0.0
7.672116686919655e7 -1.2341145666771643e7 0.0
0.0 0.0 0.0

-7.135536183264958e6 2.5254578240062397e7 0.0
2.5254578240062397e7 -1.6144241883507298e7 0.0
0.0 0.0 0.0

-3.4423746857395014e6 2.1081610388702173e7 0.0
2.1081610388702173e7 1.1996148515604824e7 0.0
0.0 0.0 0.0

-1.0959287370436916e7 4.194342897165889e6 0.0
4.194342897165889e6 1.8276341450146616e7 0.0
0.0 0.0 0.0

-870731.7984471405 2.1009723942226864e7 0.0
2.1009723942226864e7 -6.406855588302939e6 0.0
0.0 0.0 0.0

-1.4005133299448283e7 2.71406146546358e7 0.0
2.71406146546358e7 -7.869126222491907e6 0.0
0.0 0.0 0.0

-1.035914915076076e7 4.065097860375477e7 0.0
4.065097860375477e7 4.238922669577942e6 0.0
0.0 0.0 0.0

1431.582109305542 2.436721280075221e7 0.0
2.436721280075221e7 -8.652388726254424e6 0.0
0.0 0.0 0.0

-619699.886327106 2.6604756988271527e7 0.0
2.6604756988271527e7 -7.606999614090898e6 0.0
0.0 0.0 0.0

-9.96302002640495e6 5.553592035661436e6 0.0
5.553592035661436e6 2.8182954582830623e7 0.0
0.0 0.0 0.0

2.856755484656832e6 6.288351371855482e6 0.0
6.288351371855482e6 -2.41958394482597e7 0.0
0.0 0.0 0.0

3.0685062507456737e6 3.729203208834607e7 0.0
3.729203208834607e7 -2.129924316917934e6 0.0
0.0 0.0 0.0

-3.3414637902637357e6 2.3132714095401894e7 0.0
2.3132714095401894e7 2.1979942123698555e7 0.0
0.0 0.0 0.0

-1.932291268529054e7 2.88689408748227e7 0.0
2.88689408748227e7 -4.605082949156638e6 0.0
0.0 0.0 0.0

-3.1238336051922985e6 6.616901609289518e6 0.0
6.616901609289518e6 66735.95556803897 0.0
0.0 0.0 0.0

-1.5711451113757646e7 2.875063769664889e7 0.0
2.875063769664889e7 -1.2792822390744483e7 0.0
0.0 0.0 0.0

-1.1424118565321686e6 2.5292823540751025e7 0.0
2.5292823540751025e7 -7.05818754865595e6 0.0
0.0 0.0 0.0

485367.2451313734 1.902478361706343e7 0.0
1.902478361706343e7 -2.0282874842018973e7 0.0
0.0 0.0 0.0

-790434.8705696404 2.3385513955026407e7 0.0
2.3385513955026407e7 -5.651955469651547e6 0.0
0.0 0.0 0.0

1.1654533422869584e6 1.18949042959984e7 0.0
1.18949042959984e7 -2.14881170064024e7 0.0
0.0 0.0 0.0

-1.5022966656823563e6 2.4548507063881304e7 0.0
2.4548507063881304e7 962606.6740111213 0.0
0.0 0.0 0.0

-1.1049741800731879e7 6.578334309746157e6 0.0
6.578334309746157e6 1.7616121734830458e7 0.0
0.0 0.0 0.0

-7.240430652258884e6 1.6369088297123136e7 0.0
1.6369088297123136e7 2.3514392659954417e7 0.0
0.0 0.0 0.0

-2.8948304450374553e6 1.851810438963471e7 0.0
1.851810438963471e7 1.2561390238995206e7 0.0
0.0 0.0 0.0

-6.843731459383275e6 2.0064448363804344e7 0.0
2.0064448363804344e7 -2.1779396375336226e7 0.0
0.0 0.0 0.0

-2.4514315318845236e6 1.88465777190977e7 0.0
1.88465777190977e7 8.88362797827085e6 0.0
0.0 0.0 0.0

-4.4101736570895866e7 3.496463369870012e7 0.0
3.496463369870012e7 -8.876230999052523e6 0.0
0.0 0.0 0.0

-2.8412129595433744e6 2.098748436843534e7 0.0
2.098748436843534e7 4.1386247746806033e6 0.0
0.0 0.0 0.0

-2.6712385641149078e6 2.3379574939991236e7 0.0
2.3379574939991236e7 -4.147000040663695e6 0.0
0.0 0.0 0.0

-6.285762773279403e7 3.001650449118797e7 0.0
3.001650449118797e7 -584581.7898178548 0.0
0.0 0.0 0.0

5.165966095647225e6 2.547548739832579e7 0.0
2.547548739832579e7 -7.019403903590565e6 0.0
0.0 0.0 0.0

-2.0881600136945567e6 1.9751086935565326e7 0.0
1.9751086935565326e7 3.6940790677319905e6 0.0
0.0 0.0 0.0

1.3056711380725615e6 1.3162950487180404e7 0.0
1.3162950487180404e7 -1.5423469701116625e7 0.0
0.0 0.0 0.0

-1.4312741660458813e6 3.1405888706389837e7 0.0
3.1405888706389837e7 2.3549355724647464e6 0.0
0.0 0.0 0.0

933009.3445424167 1.3827733200265635e7 0.0
1.3827733200265635e7 -2.181329848037533e7 0.0
0.0 0.0 0.0

879962.8524732804 1.4942435394443681e7 0.0
1.4942435394443681e7 -2.3422546419572216e7 0.0
0.0 0.0 0.0

-7.871868596677826e6 1.078852784795614e7 0.0
1.078852784795614e7 1.13021793721781e7 0.0
0.0 0.0 0.0

-3.063106646216886e6 2.3890847631831948e7 0.0
2.3890847631831948e7 1.2047960671589702e7 0.0
0.0 0.0 0.0

2.393520688447375e6 8.605335196179243e6 0.0
8.605335196179243e6 -3.2164734625041936e7 0.0
0.0 0.0 0.0

-1.0633425297712838e7 9.858074182345705e6 0.0
9.858074182345705e6 2.386990413279571e7 0.0
0.0 0.0 0.0

922839.8161460087 1.4358481039314123e7 0.0
1.4358481039314123e7 -2.2651921564334445e7 0.0
0.0 0.0 0.0

-1.058285498713312e8 1.204062022161674e7 0.0
1.204062022161674e7 2.5568182612561136e6 0.0
0.0 0.0 0.0

252175.91473389044 7.610063516893109e6 0.0
7.610063516893109e6 -5.614080000584233e7 0.0
0.0 0.0 0.0

-3.134977131498281e6 2.2317006543500047e7 0.0
2.2317006543500047e7 1.1423797695524627e7 0.0
0.0 0.0 0.0

-2.8240529959199913e6 2.430440574197564e7 0.0
2.430440574197564e7 9.143555285475962e6 0.0
0.0 0.0 0.0

-5.554199961639123e6 3.0486223335721016e7 0.0
3.0486223335721016e7 9.403729081426818e6 0.0
0.0 0.0 0.0

-1.8058487316650513e6 2.1480149461567856e7 0.0
2.1480149461567856e7 -7.169353478222218e6 0.0
0.0 0.0 0.0

-3.2233189185650563e6 2.4141769248539425e7 0.0
2.4141769248539425e7 2.0340840484451946e7 0.0
0.0 0.0 0.0

417074.2750960132 1.6677891999426242e7 0.0
1.6677891999426242e7 -1.8657116129631698e7 0.0
0.0 0.0 0.0

1.4503262047923077e6 1.1077375322525958e7 0.0
1.1077375322525958e7 -3.0526165196843203e7 0.0
0.0 0.0 0.0

-1.7415216478083266e6 3.0870666975712255e7 0.0
3.0870666975712255e7 3.3096256273930967e6 0.0
0.0 0.0 0.0

3.2637500877484395e6 3.279663406787059e7 0.0
3.279663406787059e7 -6.272244867998845e6 0.0
0.0 0.0 0.0

1.1158296181799322e6 1.033132625294374e7 0.0
1.033132625294374e7 -4.48191549247473e7 0.0
0.0 0.0 0.0

-4.126217089538878e6 1.5692205182685854e7 0.0
1.5692205182685854e7 1.351751931786107e7 0.0
0.0 0.0 0.0

-8.1143820147992e6 3.136717960543425e7 0.0
3.136717960543425e7 7.888318598248841e6 0.0
0.0 0.0 0.0

-5.516184367411951e7 8.301176914175946e7 0.0
8.301176914175946e7 -1.8807240462421793e6 0.0
0.0 0.0 0.0

-8.45392853704012e6 1.1978105739852332e7 0.0
1.1978105739852332e7 3.861058618546486e7 0.0
0.0 0.0 0.0

-5.750725742121425e6 1.875775138227216e7 0.0
1.875775138227216e7 -1.9590459011786684e7 0.0
0.0 0.0 0.0

-1.9009004980983085e6 6.3861949003763385e6 0.0
6.3861949003763385e6 4.1039888996497416e6 0.0
0.0 0.0 0.0

-7.446060243559616e6 -2.2188551616693204e6 0.0
-2.2188551616693204e6 3.851818191358392e7 0.0
0.0 0.0 0.0

2.6241820196893346e6 1.5970557374732138e6 0.0
1.5970557374732138e6 -3.878030631504012e7 0.0
0.0 0.0 0.0

-8.945423792265413e6 2.7582562003609736e7 0.0
2.7582562003609736e7 2.243079783020257e6 0.0
0.0 0.0 0.0

-2.001776439336107e6 2.086432566944595e7 0.0
2.086432566944595e7 -2.362466504989907e7 0.0
0.0 0.0 0.0

-4.1116901695333794e6 1.777608847572974e7 0.0
1.777608847572974e7 4.202934790404598e7 0.0
0.0 0.0 0.0

2.389538654364889e6 2.7811484304818384e7 0.0
2.7811484304818384e7 -1.0504864947246686e7 0.0
0.0 0.0 0.0

947377.3584057773 1.3287092393927226e7 0.0
1.3287092393927226e7 -2.0919883390593205e7 0.0
0.0 0.0 0.0

480002.2453473434 1.821042878028085e7 0.0
1.821042878028085e7 5.51106053276778e7 0.0
0.0 0.0 0.0

-1.6417624995190625e6 2.151375941046665e7 0.0
2.151375941046665e7 -790013.7517774734 0.0
0.0 0.0 0.0

694153.4249121677 2.038770856085387e7 0.0
2.038770856085387e7 4.06726795572705e7 0.0
0.0 0.0 0.0

-1.4232219608896775e6 2.128359074383597e7 0.0
2.128359074383597e7 -2.1745004907648373e7 0.0
0.0 0.0 0.0

9.49698489616881e7 1.161027302328711e7 0.0
1.161027302328711e7 3.104724978070829e6 0.0
0.0 0.0 0.0

1.404665494059526e6 2.8757508812211227e7 0.0
2.8757508812211227e7 -7.255484362241198e6 0.0
0.0 0.0 0.0

4.545224531312691e6 3.705085760987922e7 0.0
3.705085760987922e7 -2.9456128807914667e6 0.0
0.0 0.0 0.0

804715.701503125 1.458806517068743e7 0.0
1.458806517068743e7 -2.0317634900902312e7 0.0
0.0 0.0 0.0

1.756274354367286e6 1.3334292013998447e7 0.0
1.3334292013998447e7 -2.102016901788902e7 0.0
0.0 0.0 0.0

-1.5882582773961292e6 2.0682090265923306e7 0.0
2.0682090265923306e7 -8.726792111075863e6 0.0
0.0 0.0 0.0

-9.179186944748843e6 1.3592452779317014e7 0.0
1.3592452779317014e7 3.086845706413796e7 0.0
0.0 0.0 0.0

-3.761417329418892e6 1.9223405782518867e7 0.0
1.9223405782518867e7 -3.314689507875627e7 0.0
0.0 0.0 0.0

2.930629232218379e6 2.6207981350933253e6 0.0
2.6207981350933253e6 -1.1474718497316878e7 0.0
0.0 0.0 0.0

626588.1450574901 1.7671583600800715e7 0.0
1.7671583600800715e7 -2.0232665977502856e7 0.0
0.0 0.0 0.0

-3.189502479716575e7 3.9702696307550915e7 0.0
3.9702696307550915e7 7.010869133698937e6 0.0
0.0 0.0 0.0

-3.5194530075274426e6 1.4035158330826662e7 0.0
1.4035158330826662e7 809036.5932582598 0.0
0.0 0.0 0.0

2.7535552514485307e6 1.8404878911424052e7 0.0
1.8404878911424052e7 6.497768120332639e7 0.0
0.0 0.0 0.0

-2.8111083817625837e6 2.4481039224643905e7 0.0
2.4481039224643905e7 1.6545538088510318e7 0.0
0.0 0.0 0.0

9.846993198634528e6 2.535593581937099e7 0.0
2.535593581937099e7 5.563626906279247e6 0.0
0.0 0.0 0.0

-6.628679905207906e6 3.1007701876115818e7 0.0
3.1007701876115818e7 8.612583409312412e6 0.0
0.0 0.0 0.0

1.4535252044312456e6 2.9577525181188248e7 0.0
2.9577525181188248e7 -6.013744895623375e6 0.0
0.0 0.0 0.0

-4.178335310825933e6 3.0733063702456173e7 0.0
3.0733063702456173e7 7.277339173480507e6 0.0
0.0 0.0 0.0

-9.14453651571729e6 1.4098983484484337e7 0.0
1.4098983484484337e7 2.8534999604844313e7 0.0
0.0 0.0 0.0

-6.027635863113238e6 1.820905797455311e7 0.0
1.820905797455311e7 2.373499547303307e7 0.0
0.0 0.0 0.0

-1.1032126784214357e7 8.513326169691473e6 0.0
8.513326169691473e6 1.647558000887064e7 0.0
0.0 0.0 0.0

2.31418457996068e7 1.3569957333906125e7 0.0
1.3569957333906125e7 1.4249036052663205e6 0.0
0.0 0.0 0.0

-791717.606056394 2.1720289311450608e7 0.0
2.1720289311450608e7 -2.003256744153935e7 0.0
0.0 0.0 0.0

870976.1242538465 2.943106686856814e7 0.0
2.943106686856814e7 -5.23295851753649e6 0.0
0.0 0.0 0.0

-2.812668898152858e6 3.0709999917728767e7 0.0
3.0709999917728767e7 3.618731319691303e6 0.0
0.0 0.0 0.0

-8.92812386883317e6 -870176.6309887188 0.0
-870176.6309887188 2.8323152609751925e7 0.0
0.0 0.0 0.0

-3.801954702537885e6 3.2621320464560643e7 0.0
3.2621320464560643e7 4.655794957804108e6 0.0
0.0 0.0 0.0

-2.081101282798338e6 2.0346096152405895e7 0.0
2.0346096152405895e7 5.254329244525998e6 0.0
0.0 0.0 0.0

-5.200111620552561e6 3.329798335997635e7 0.0
3.329798335997635e7 5.652756568023572e6 0.0
0.0 0.0 0.0

9.37022808262098e6 2.4063959062660232e7 0.0
2.4063959062660232e7 3.35664668454196e6 0.0
0.0 0.0 0.0

3.5379097568337955e6 3.438790928430254e7 0.0
3.438790928430254e7 -3.8916883073253846e6 0.0
0.0 0.0 0.0

2.3377697668518294e6 5.016627132000292e6 0.0
5.016627132000292e6 -3.099095324101429e7 0.0
0.0 0.0 0.0

-8.841617606001625e6 1.2406046965669129e7 0.0
1.2406046965669129e7 3.593161937664325e7 0.0
0.0 0.0 0.0

727477.9068553587 2.4042190452967726e7 0.0
2.4042190452967726e7 -1.1326959623395244e7 0.0
0.0 0.0 0.0

-170577.20067189168 2.2267623986135826e7 0.0
2.2267623986135826e7 -1.8319730362150922e7 0.0
0.0 0.0 0.0

-1.7059820226348718e6 2.0251307200191744e7 0.0
2.0251307200191744e7 -960416.5922076537 0.0
0.0 0.0 0.0

-4.932321789314698e6 2.5738806427011617e7 0.0
2.5738806427011617e7 6.987698718216821e6 0.0
0.0 0.0 0.0

3.7410062578043374e6 2.88620375420645e7 0.0
2.88620375420645e7 -9.18405149844847e6 0.0
0.0 0.0 0.0

-221648.44633081695 2.2303055741303694e7 0.0
2.2303055741303694e7 -1.0054645179148495e7 0.0
0.0 0.0 0.0

-8.630313431423899e6 1.6343794842948264e7 0.0
1.6343794842948264e7 2.3475752330303255e7 0.0
0.0 0.0 0.0

2.2382510526645277e6 1.0874967367170468e7 0.0
1.0874967367170468e7 -2.5282750631903462e7 0.0
0.0 0.0 0.0

-1.7077839693154609e6 2.236282652293636e7 0.0
2.236282652293636e7 -1.930970117634312e7 0.0
0.0 0.0 0.0

3.8696343223685166e6 2.4741267767127678e7 0.0
2.4741267767127678e7 1.5404326625583699e7 0.0
0.0 0.0 0.0

-1.6056895626817178e6 2.384170884912457e7 0.0
2.384170884912457e7 -6.393083663239515e6 0.0
0.0 0.0 0.0

1.8400504966580793e6 8.216217946086984e6 0.0
8.216217946086984e6 -4.333752532264267e7 0.0
0.0 0.0 0.0

1.7033416288192123e6 5.991933649155246e6 0.0
5.991933649155246e6 -5.7954330726199664e7 0.0
0.0 0.0 0.0

-3.80253201122041e6 1.9335865034451786e7 0.0
1.9335865034451786e7 1.1098281194048455e7 0.0
0.0 0.0 0.0

-2.573144975464889e6 3.1292158014533285e7 0.0
3.1292158014533285e7 2.623787512262417e6 0.0
0.0 0.0 0.0

-9.52096726724894e6 5.414449859966645e6 0.0
5.414449859966645e6 3.2770867640249293e7 0.0
0.0 0.0 0.0

-5.754383878577358e6 1.814718707402388e7 0.0
1.814718707402388e7 1.6979988969199684e7 0.0
0.0 0.0 0.0

-2.9488110105434577e6 2.3487258890718076e7 0.0
2.3487258890718076e7 1.090429875532685e7 0.0
0.0 0.0 0.0

2.163729038382275e6 1.1129339866827335e7 0.0
1.1129339866827335e7 -2.294293419084417e7 0.0
0.0 0.0 0.0

2.494273351921892e6 1.4697427729947562e6 0.0
1.4697427729947562e6 -4.0085572758482456e7 0.0
0.0 0.0 0.0

-2.3912585067363316e6 2.194106417420943e7 0.0
2.194106417420943e7 1.403791016008079e7 0.0
0.0 0.0 0.0

5.919209892509513e6 2.0050050084181014e7 0.0
2.0050050084181014e7 7.934385400034003e7 0.0
0.0 0.0 0.0

-1.9957461005506995e6 2.4717803471050862e7 0.0
2.4717803471050862e7 9.776333309744403e6 0.0
0.0 0.0 0.0

1.2293514492864623e6 3.027554720878217e7 0.0
3.027554720878217e7 -5.064643972814085e6 0.0
0.0 0.0 0.0

861385.2125573084 1.5539678190548502e7 0.0
1.5539678190548502e7 -2.163286222785898e7 0.0
0.0 0.0 0.0

288646.6379814444 3.2897296551847927e7 0.0
3.2897296551847927e7 -1.1293656657765536e6 0.0
0.0 0.0 0.0

-1.9817023310921185e6 3.0287687227732353e7 0.0
3.0287687227732353e7 4.312746222282352e6 0.0
0.0 0.0 0.0

1.0809774990033768e7 2.0019593354597952e7 0.0
2.0019593354597952e7 4.973197366798844e7 0.0
0.0 0.0 0.0

2.954442551732011e6 2.644530185294936e6 0.0
2.644530185294936e6 -1.22096869579695e7 0.0
0.0 0.0 0.0

5.524801525303274e6 2.6263518786500763e7 0.0
2.6263518786500763e7 -8.115747003904268e6 0.0
0.0 0.0 0.0

2.935864404595023e6 3.8819904624656998e6 0.0
3.8819904624656998e6 -2.2018235209909864e7 0.0
0.0 0.0 0.0

-8.372137581575513e6 1.4932552083037224e7 0.0
1.4932552083037224e7 2.3948568158867747e7 0.0
0.0 0.0 0.0

-2.8341176793040955e6 2.8494054563951816e7 0.0
2.8494054563951816e7 6.014258835770334e6 0.0
0.0 0.0 0.0

-668231.8667917539 2.4529493257387422e7 0.0
2.4529493257387422e7 -5.317040691680955e6 0.0
0.0 0.0 0.0

1.875912933699512e6 1.2162115294257505e7 0.0
1.2162115294257505e7 -1.9160098540892918e7 0.0
0.0 0.0 0.0

98282.94628487388 2.2698661762532208e7 0.0
2.2698661762532208e7 -1.1731936144692358e7 0.0
0.0 0.0 0.0

1.0091429173221115e6 3.1023038507972665e7 0.0
3.1023038507972665e7 -4.0848305374158653e6 0.0
0.0 0.0 0.0

-9.016920269486722e6 7.157096303066839e6 0.0
7.157096303066839e6 3.770693843136174e7 0.0
0.0 0.0 0.0

-4.999157028628672e6 1.9852139885537673e7 0.0
1.9852139885537673e7 2.367830886246732e7 0.0
0.0 0.0 0.0

-9.985612809206203e6 1.1802686733167587e7 0.0
1.1802686733167587e7 2.5619311008063454e7 0.0
0.0 0.0 0.0

-3.0367072977665607e6 1.9716735755075205e7 0.0
1.9716735755075205e7 4.26569434473658e6 0.0
0.0 0.0 0.0

-3.143606320864051e6 3.014488106608572e7 0.0
3.014488106608572e7 8.205062247281607e6 0.0
0.0 0.0 0.0

-2.1575350074168867e6 2.3731904362396926e7 0.0
2.3731904362396926e7 -2.698393785120947e6 0.0
0.0 0.0 0.0

-1.619028862461617e6 3.2635771645733163e7 0.0
3.2635771645733163e7 -146328.18876487797 0.0
0.0 0.0 0.0

-8.30852901445921e6 1.1523990219511284e7 0.0
1.1523990219511284e7 1.320558381776271e7 0.0
0.0 0.0 0.0

-6.106980598740371e6 1.7651560516426746e7 0.0
1.7651560516426746e7 2.2813712579987578e7 0.0
0.0 0.0 0.0

-2.3120295365646794e6 3.181420213912148e7 0.0
3.181420213912148e7 1.7156892475900105e6 0.0
0.0 0.0 0.0

3.3740179990727226e6 2.7441064123346366e7 0.0
2.7441064123346366e7 -1.041036308963507e7 0.0
0.0 0.0 0.0

1.817847681746681e7 2.726469459900652e7 0.0
2.726469459900652e7 1.4357997588467188e7 0.0
0.0 0.0 0.0

-2.219821218524082e6 1.9627109481607966e7 0.0
1.9627109481607966e7 7.004289529343509e6 0.0
0.0 0.0 0.0

8.90754053130382e6 3.1162864953176968e7 0.0
3.1162864953176968e7 -6.458962693642751e6 0.0
0.0 0.0 0.0

-2.2184672366095716e6 2.070845855927858e7 0.0
2.070845855927858e7 9.912946369332954e6 0.0
0.0 0.0 0.0

-5.086632182091727e6 1.9373541167116605e7 0.0
1.9373541167116605e7 2.2843011522630468e7 0.0
0.0 0.0 0.0

-5.824515606260935e6 1.2427847633491458e7 0.0
1.2427847633491458e7 1.461449693231198e7 0.0
0.0 0.0 0.0

-2.002993210774041e6 3.2248934991247963e7 0.0
3.2248934991247963e7 714529.2218188761 0.0
0.0 0.0 0.0

2.75471266995853e6 6.656946972490457e6 0.0
6.656946972490457e6 -3.0351075435367286e7 0.0
0.0 0.0 0.0

2.503216792124504e6 9.131546646292897e6 0.0
9.131546646292897e6 -2.8234828420464683e7 0.0
0.0 0.0 0.0

-4.671733452007207e6 2.9850619860350616e7 0.0
2.9850619860350616e7 1.006002017049909e7 0.0
0.0 0.0 0.0

-348195.741555308 1.4069745487669425e7 0.0
1.4069745487669425e7 -7.461743370105453e6 0.0
0.0 0.0 0.0

1.830437814175603e6 1.276915717818768e7 0.0
1.276915717818768e7 -2.0078241981611006e7 0.0
0.0 0.0 0.0

-116761.55769683263 3.56904732799575e7 0.0
3.56904732799575e7 -1.3773189178545321e6 0.0
0.0 0.0 0.0

630961.6830806438 3.231916367788475e7 0.0
3.231916367788475e7 -2.0805562334005518e6 0.0
0.0 0.0 0.0

-776509.1774539046 2.5569164348802987e7 0.0
2.5569164348802987e7 -8.005813191262631e6 0.0
0.0 0.0 0.0

-2.7569062663974315e6 2.0332263685557205e7 0.0
2.0332263685557205e7 -2.9627796482812636e7 0.0
0.0 0.0 0.0

-3.3141731058713794e6 3.573180519893542e7 0.0
3.573180519893542e7 1.9261371416973728e6 0.0
0.0 0.0 0.0

-4.856965358295264e6 2.0294685762974747e7 0.0
2.0294685762974747e7 2.4291193294509348e7 0.0
0.0 0.0 0.0

1.7217602200284228e6 7.780563420488649e6 0.0
7.780563420488649e6 -1.785367885950797e7 0.0
0.0 0.0 0.0

2.5201866195423105e6 3.908627102424245e7 0.0
3.908627102424245e7 -1.5510610270296982e6 0.0
0.0 0.0 0.0

-2.999672225125091e6 2.5294823982572567e7 0.0
2.5294823982572567e7 1.4042726927324489e7 0.0
0.0 0.0 0.0

856824.3128943953 3.1694598981972173e7 0.0
3.1694598981972173e7 -2.9916688449630435e6 0.0
0.0 0.0 0.0

476393.69371358026 2.2829524263994846e7 0.0
2.2829524263994846e7 -1.6762416119238798e7 0.0
0.0 0.0 0.0

-655703.2179281029 3.3094100502928965e7 0.0
3.3094100502928965e7 584846.9892131714 0.0
0.0 0.0 0.0

-3.1473850634520836e6 2.538792107600591e7 0.0
2.538792107600591e7 1.678333831323476e7 0.0
0.0 0.0 0.0

-583802.2187944358 3.3265523202613715e7 0.0
3.3265523202613715e7 -1.7207999449438031e6 0.0
0.0 0.0 0.0

1.027762033301804e7 4.222212599055841e7 0.0
4.222212599055841e7 -3.3719581386942915e6 0.0
0.0 0.0 0.0

-7.233822191018961e6 1.7604734348461438e7 0.0
1.7604734348461438e7 3.0259969023686662e7 0.0
0.0 0.0 0.0

1.5931423638186278e6 1.4121923057381082e7 0.0
1.4121923057381082e7 -1.9586589396127988e7 0.0
0.0 0.0 0.0

-8.80514981907836e6 1.433903578402875e7 0.0
1.433903578402875e7 3.175767428072119e7 0.0
0.0 0.0 0.0

-7.95711759258674e6 1.6591249917664915e7 0.0
1.6591249917664915e7 2.096999344529071e7 0.0
0.0 0.0 0.0

-776407.0621990993 -581411.9878305686 0.0
-581411.9878305686 2.1696522759564756e6 0.0
0.0 0.0 0.0

-1.1335294274973767e6 -2.0523869220983107e6 0.0
-2.0523869220983107e6 2.6972940121446084e6 0.0
0.0 0.0 0.0

-6.797674237682834e6 1.8144030944406345e7 0.0
1.8144030944406345e7 3.08599858453417e7 0.0
0.0 0.0 0.0

1.6669947734470028e7 2.6279306493545897e7 0.0
2.6279306493545897e7 1.424041427786732e7 0.0
0.0 0.0 0.0

2.182322097185007e6 3.364771177690668e7 0.0
3.364771177690668e7 -3.2467006587259015e6 0.0
0.0 0.0 0.0

116641.35706297448 2.6292290231356185e7 0.0
2.6292290231356185e7 -7.108505401683267e6 0.0
0.0 0.0 0.0

1.5426198753173994e6 1.4642964117246114e7 0.0
1.4642964117246114e7 -2.0549100296415873e7 0.0
0.0 0.0 0.0

9.834762722428758e6 1.9838819559645962e7 0.0
1.9838819559645962e7 4.4300587619423315e7 0.0
0.0 0.0 0.0

-3.101351946739426e6 3.634698499432716e7 0.0
3.634698499432716e7 3.2266782468918134e6 0.0
0.0 0.0 0.0

-62589.175542704295 3.645123006779826e7 0.0
3.645123006779826e7 -1.3784919306806556e6 0.0
0.0 0.0 0.0

383754.79098088614 3.724332322052657e7 0.0
3.724332322052657e7 -1.402614717014244e6 0.0
0.0 0.0 0.0

-3.7320036467701243e6 2.2280597491744705e7 0.0
2.2280597491744705e7 1.5770244752571672e7 0.0
0.0 0.0 0.0

-3.9012399544672472e6 1.979300304916514e7 0.0
1.979300304916514e7 1.2613737574702201e7 0.0
0.0 0.0 0.0

-7.339635354342701e6 1.4184644701727785e7 0.0
1.4184644701727785e7 1.4512186640428908e7 0.0
0.0 0.0 0.0

-2.554833139431995e6 2.673484628962219e7 0.0
2.673484628962219e7 1.1527216206628699e7 0.0
0.0 0.0 0.0

-2.944823536911601e6 1.895308950098005e7 0.0
1.895308950098005e7 1.408995281150435e7 0.0
0.0 0.0 0.0

-7.000683737529557e6 1.7052462262877855e7 0.0
1.7052462262877855e7 3.418231744556452e7 0.0
0.0 0.0 0.0

1.5765709977085413e6 1.5275774398117702e7 0.0
1.5275774398117702e7 -2.1246758967868965e7 0.0
0.0 0.0 0.0

-3.177442192813662e6 2.42377248070668e7 0.0
2.42377248070668e7 1.3088026904461503e7 0.0
0.0 0.0 0.0

-7.649902896337926e6 1.5440823305667875e7 0.0
1.5440823305667875e7 3.5687169473881796e7 0.0
0.0 0.0 0.0

5.636891074117996e6 2.3022752840783145e7 0.0
2.3022752840783145e7 1.8102547597326014e7 0.0
0.0 0.0 0.0

-3.0176017215010677e6 2.0925170624861624e7 0.0
2.0925170624861624e7 7.227717024719071e6 0.0
0.0 0.0 0.0

-609645.3201660335 3.390926766250137e7 0.0
3.390926766250137e7 666776.0503749483 0.0
0.0 0.0 0.0

-676704.8328088493 3.222860528142734e7 0.0
3.222860528142734e7 504974.0427363449 0.0
0.0 0.0 0.0

-3.2454933539678e6 2.6213246321578074e7 0.0
2.6213246321578074e7 1.5108569109925708e7 0.0
0.0 0.0 0.0

-2.433506477093581e6 2.140761971769709e7 0.0
2.140761971769709e7 -2.451544889159225e7 0.0
0.0 0.0 0.0

-2.854474636182591e6 2.7077503063426737e7 0.0
2.7077503063426737e7 8.666635046757672e6 0.0
0.0 0.0 0.0

-4.250888954167288e6 2.0936366229307007e7 0.0
2.0936366229307007e7 2.256961739515134e7 0.0
0.0 0.0 0.0

-179827.88167617423 2.520336128515145e7 0.0
2.520336128515145e7 -7.426817111012022e6 0.0
0.0 0.0 0.0

5.49294302992736e6 3.794724097833382e7 0.0
3.794724097833382e7 -2.9489154648976405e6 0.0
0.0 0.0 0.0

-3.531727789414308e6 2.7170648371682968e7 0.0
2.7170648371682968e7 1.351389311611151e7 0.0
0.0 0.0 0.0

-529469.4467229573 2.4797963108996145e7 0.0
2.4797963108996145e7 -9.302832672856938e6 0.0
0.0 0.0 0.0

2.2537250424254853e6 9.844531512355201e6 0.0
9.844531512355201e6 -2.9148939884436972e7 0.0
0.0 0.0 0.0

-2.5117007976505263e6 2.2291393465948794e7 0.0
2.2291393465948794e7 1.5231127862481952e7 0.0
0.0 0.0 0.0

6.203934748459484e6 3.0811772231873244e7 0.0
3.0811772231873244e7 -7.332557011735838e6 0.0
0.0 0.0 0.0

2.4932614211360444e6 2.7813885745740035e6 0.0
2.7813885745740035e6 -8.327074186010525e6 0.0
0.0 0.0 0.0

1.1434864055343308e6 9.950418206825895e6 0.0
9.950418206825895e6 -3.8655857589637935e7 0.0
0.0 0.0 0.0

344485.25005894434 2.3231501737337068e7 0.0
2.3231501737337068e7 -1.1395493086930864e7 0.0
0.0 0.0 0.0

1.709737513928622e7 2.7349769960503038e7 0.0
2.7349769960503038e7 1.5994184262783263e7 0.0
0.0 0.0 0.0

1.525692280772971e6 1.0341173150800036e7 0.0
1.0341173150800036e7 -2.994190769216592e7 0.0
0.0 0.0 0.0

1.4058792466947176e6 1.1774256701028941e7 0.0
1.1774256701028941e7 -2.9025245670034856e7 0.0
0.0 0.0 0.0

2.659741774539732e6 2.3144058615547694e7 0.0
2.3144058615547694e7 6.929641319856827e6 0.0
0.0 0.0 0.0

-9.32961978513616e6 8.887936852557762e6 0.0
8.887936852557762e6 3.5710720538755566e7 0.0
0.0 0.0 0.0

-8.226950299548502e6 1.4784973885851828e7 0.0
1.4784973885851828e7 1.7569519268267225e7 0.0
0.0 0.0 0.0

-1.2318309784878135e7 2.0732352569074724e7 0.0
2.0732352569074724e7 -5.735897471638834e7 0.0
0.0 0.0 0.0

-4.78766915522182e6 1.9448866477487415e7 0.0
1.9448866477487415e7 1.6176687831280826e7 0.0
0.0 0.0 0.0

-9.89151193611552e6 1.4304103602860505e7 0.0
1.4304103602860505e7 2.585720470269732e7 0.0
0.0 0.0 0.0

4.62451614714766e6 2.545954097226143e7 0.0
2.545954097226143e7 1.289195225174875e7 0.0
0.0 0.0 0.0

-7.650089758504845e6 -2.4220479309816207e6 0.0
-2.4220479309816207e6 3.729573162370102e7 0.0
0.0 0.0 0.0

-3.2263647395633804e6 2.2710688974926293e7 0.0
2.2710688974926293e7 1.2701573247643337e7 0.0
0.0 0.0 0.0

-3.6508604321668204e6 3.0164395303936344e7 0.0
3.0164395303936344e7 8.91390644510063e6 0.0
0.0 0.0 0.0

403456.38841948844 2.090324622028815e7 0.0
2.090324622028815e7 -1.7913940709958714e7 0.0
0.0 0.0 0.0

-8.54629000759591e6 -1.6835887896761221e6 0.0
-1.6835887896761221e6 1.6716795190004254e7 0.0
0.0 0.0 0.0

-7.162847175133772e6 1.3462139479065992e7 0.0
1.3462139479065992e7 1.282141031538859e7 0.0
0.0 0.0 0.0

-934719.7876584977 8.43782281067052e6 0.0
8.43782281067052e6 -6.576110785533222e7 0.0
0.0 0.0 0.0

8.51302147055483e6 3.83101186213267e7 0.0
3.83101186213267e7 -3.767774384692757e6 0.0
0.0 0.0 0.0

-5.771944753022283e6 1.4339779402764915e7 0.0
1.4339779402764915e7 4.6052867928845696e7 0.0
0.0 0.0 0.0

-6.457320193426582e6 2.1750610032847386e7 0.0
2.1750610032847386e7 -1.891983827120034e7 0.0
0.0 0.0 0.0

-9.988948750725515e6 1.377453976831263e7 0.0
1.377453976831263e7 2.8005677658637635e7 0.0
0.0 0.0 0.0

-1.6550656150995862e7 2.9130275011880595e7 0.0
2.9130275011880595e7 -1.2166815877990875e7 0.0
0.0 0.0 0.0

-1.7553328626628555e6 2.3069287155071516e7 0.0
2.3069287155071516e7 -6.211566137645923e6 0.0
0.0 0.0 0.0

4.860941852697985e6 2.0678920146257732e7 0.0
2.0678920146257732e7 2.215970300616896e7 0.0
0.0 0.0 0.0

1.1651963034129534e6 9.083540527135879e6 0.0
9.083540527135879e6 -4.0658305883143604e7 0.0
0.0 0.0 0.0

-5.924156482306424e6 1.906416368716401e7 0.0
1.906416368716401e7 -2.0065948376881115e7 0.0
0.0 0.0 0.0

1.0082254891900161e7 4.444728614923446e7 0.0
4.444728614923446e7 -5.14905459674185e6 0.0
0.0 0.0 0.0

-2.641598977794965e6 2.2628494832550164e7 0.0
2.2628494832550164e7 1.6317572264913317e7 0.0
0.0 0.0 0.0

-7.47798746245526e6 -1.8794574447952877e6 0.0
-1.8794574447952877e6 4.131697250162437e7 0.0
0.0 0.0 0.0

-253325.54966036882 2.2571063732391767e7 0.0
2.2571063732391767e7 2.005219613182046e7 0.0
0.0 0.0 0.0

-1.3988289995563209e7 2.8129616420980766e7 0.0
2.8129616420980766e7 -1.3801819140955042e7 0.0
0.0 0.0 0.0

-6.356557637151962e6 1.2065289221288683e7 0.0
1.2065289221288683e7 9.093659057125997e6 0.0
0.0 0.0 0.0

5.659057199807465e6 2.070065756174767e7 0.0
2.070065756174767e7 4.686877014228132e7 0.0
0.0 0.0 0.0

-6.549781290456898e6 1.901043281210893e7 0.0
1.901043281210893e7 2.2265487898425438e7 0.0
0.0 0.0 0.0

-7.7679048111309195e6 1.716204213125073e7 0.0
1.716204213125073e7 2.203783399236663e7 0.0
0.0 0.0 0.0

-6.76327943442056e6 1.251098334258234e7 0.0
1.251098334258234e7 4.566226422171612e7 0.0
0.0 0.0 0.0

152482.24046794232 2.2095357910496533e7 0.0
2.2095357910496533e7 2.5197443121256433e7 0.0
0.0 0.0 0.0

-1.076191088016215e7 3.543683459286617e7 0.0
3.543683459286617e7 5.656753494327586e6 0.0
0.0 0.0 0.0

492643.8206971517 4.00329223192511e7 0.0
4.00329223192511e7 -1.5254455538643594e6 0.0
0.0 0.0 0.0

-3.0727288310795687e6 2.5300377173088167e7 0.0
2.5300377173088167e7 1.2398956305995619e7 0.0
0.0 0.0 0.0

2.15329650740262e6 2.644963242542316e6 0.0
2.644963242542316e6 -6.788777970890603e6 0.0
0.0 0.0 0.0

1.8769794073592592e6 1.3114830387129351e7 0.0
1.3114830387129351e7 -2.330436075314006e7 0.0
0.0 0.0 0.0

1.6169922769820811e6 1.2972486093991164e7 0.0
1.2972486093991164e7 -1.7773357467347875e7 0.0
0.0 0.0 0.0

-3.9891053945851736e6 2.0250680002820514e7 0.0
2.0250680002820514e7 1.4047945403764121e7 0.0
0.0 0.0 0.0

-324758.27086500893 5.485965459252046e7 0.0
5.485965459252046e7 -3.4457171655349373e6 0.0
0.0 0.0 0.0

-1.0045487440426452e7 1.0211532164239045e7 0.0
1.0211532164239045e7 1.5049266221959464e7 0.0
0.0 0.0 0.0

4.222871439807165e6 3.515577030977349e7 0.0
3.515577030977349e7 -3.850984423441298e6 0.0
0.0 0.0 0.0

6.781426904742463e6 3.1999477498515923e7 0.0
3.1999477498515923e7 -6.675410190943006e6 0.0
0.0 0.0 0.0

-4.1562351777658444e6 1.29003748946978e7 0.0
1.29003748946978e7 1.0392723879455628e7 0.0
0.0 0.0 0.0

-300157.3079598229 2.1512115139414866e7 0.0
2.1512115139414866e7 1.4351609129180745e6 0.0
0.0 0.0 0.0

2.478157763418906e7 2.60512510378681e7 0.0
2.60512510378681e7 1.1998581792135164e7 0.0
0.0 0.0 0.0

1.048605116739571e7 2.1835229238789238e7 0.0
2.1835229238789238e7 4.569381680204166e7 0.0
0.0 0.0 0.0

3.085616968146657e6 2.1406557146637574e7 0.0
2.1406557146637574e7 1.8269967634291895e7 0.0
0.0 0.0 0.0

-6.676635395528163e6 1.8468378938401606e7 0.0
1.8468378938401606e7 2.136115987433681e7 0.0
0.0 0.0 0.0

409811.64037197805 5.105239744959048e7 0.0
5.105239744959048e7 -2.7725425787210586e6 0.0
0.0 0.0 0.0

-2.3959172868124533e7 3.0792809138295334e7 0.0
3.0792809138295334e7 -1.2068688117571756e7 0.0
0.0 0.0 0.0

-7.535897291512519e6 1.772743869678593e7 0.0
1.772743869678593e7 2.297647064592458e7 0.0
0.0 0.0 0.0

-664467.2169605959 1.4384830997431887e7 0.0
1.4384830997431887e7 -4.138526915495681e7 0.0
0.0 0.0 0.0

2.138979018888423e6 1.3619293045787392e6 0.0
1.3619293045787392e6 -4.724971121888474e7 0.0
0.0 0.0 0.0

1.1276548699088786e6 1.9858598929590553e7 0.0
1.9858598929590553e7 -1.8943674753944755e7 0.0
0.0 0.0 0.0

1.701508518530842e6 1.3902404804570537e7 0.0
1.3902404804570537e7 -2.191952404373899e7 0.0
0.0 0.0 0.0

1.1175466079070773e6 2.1710036497526925e7 0.0
2.1710036497526925e7 -1.6522812777665762e7 0.0
0.0 0.0 0.0

-1.0955784251983003e6 5.9634431056764446e7 0.0
5.9634431056764446e7 -5.580074653505781e6 0.0
0.0 0.0 0.0

-1.9185264055364213e6 2.785609780825613e7 0.0
2.785609780825613e7 5.469758369311011e6 0.0
0.0 0.0 0.0

1.5850950457812743e6 2.564505107882842e7 0.0
2.564505107882842e7 -1.3210889274907358e7 0.0
0.0 0.0 0.0

849354.6928682653 2.470294790724693e7 0.0
2.470294790724693e7 -1.3831933394457411e7 0.0
0.0 0.0 0.0

1.9885660435137684e6 1.1950065341400113e7 0.0
1.1950065341400113e7 -2.1513112220745116e7 0.0
0.0 0.0 0.0

-3.4607441971881175e6 2.6577458545642413e7 0.0
2.6577458545642413e7 1.2573952442867327e7 0.0
0.0 0.0 0.0

1.4479772659361763e6 2.3006218132464375e7 0.0
2.3006218132464375e7 2.2396175385983404e7 0.0
0.0 0.0 0.0

-7.233210822755415e6 2.786208407042094e7 0.0
2.786208407042094e7 8.755410309000943e6 0.0
0.0 0.0 0.0

-1.3597459819694012e6 9.551913545301642e6 0.0
9.551913545301642e6 8.464069571078967e7 0.0
0.0 0.0 0.0

-8.763862402946677e6 14644.759146817612 0.0
14644.759146817612 2.6497820470060103e7 0.0
0.0 0.0 0.0

-8.984733632933468e6 8.90320980653607e7 0.0
8.90320980653607e7 -1.6948286831062224e7 0.0
0.0 0.0 0.0

5.85522811278498e6 2.081946196172466e7 0.0
2.081946196172466e7 2.86158425828556e7 0.0
0.0 0.0 0.0

754222.6981003733 4.847974040187874e7 0.0
4.847974040187874e7 -2.0353838831985192e6 0.0
0.0 0.0 0.0

519484.17179737985 2.1313321277104646e7 0.0
2.1313321277104646e7 -1.3116822918619683e7 0.0
0.0 0.0 0.0

2.356243848439797e6 2.4881079426164597e7 0.0
2.4881079426164597e7 -1.2546333449053414e7 0.0
0.0 0.0 0.0

-2.5276616595868273e6 2.9096673027329467e7 0.0
2.9096673027329467e7 7.614307514957597e6 0.0
0.0 0.0 0.0

3.274868002606945e6 1.8946285500342837e6 0.0
1.8946285500342837e6 -2.5883852532740805e7 0.0
0.0 0.0 0.0

1.182428859805858e7 2.4172595097328275e7 0.0
2.4172595097328275e7 4.452622926116875e6 0.0
0.0 0.0 0.0

1.8108107759227837e6 1.3793462279048966e7 0.0
1.3793462279048966e7 -2.4122246422869682e7 0.0
0.0 0.0 0.0

6.861544883478319e6 2.895579357719025e7 0.0
2.895579357719025e7 -7.272590240038747e6 0.0
0.0 0.0 0.0

1.950115763332652e6 8.451242212931868e6 0.0
8.451242212931868e6 -3.969409456651357e7 0.0
0.0 0.0 0.0

-2.11486077609397e6 2.3943950473397996e7 0.0
2.3943950473397996e7 1.161571144474738e7 0.0
0.0 0.0 0.0

2.488863489392559e6 7.951415057439437e6 0.0
7.951415057439437e6 -1.533745827418573e7 0.0
0.0 0.0 0.0

-2.124394483475592e6 1.3262590779100515e7 0.0
1.3262590779100515e7 2.0816471504778257e6 0.0
0.0 0.0 0.0

-2.1577117809112452e7 2.748679809210433e7 0.0
2.748679809210433e7 -7.6790372570878295e6 0.0
0.0 0.0 0.0

2.112792088555107e6 1.1327826881775603e7 0.0
1.1327826881775603e7 -2.830057134543703e7 0.0
0.0 0.0 0.0

-2.4742747685784837e6 2.0053052077866435e7 0.0
2.0053052077866435e7 -3.485288002869832e6 0.0
0.0 0.0 0.0

880851.0603154534 2.6395834330155946e7 0.0
2.6395834330155946e7 -1.1238257816439487e7 0.0
0.0 0.0 0.0

704025.0986663047 2.1215675807679757e7 0.0
2.1215675807679757e7 3.2316517545897577e7 0.0
0.0 0.0 0.0

633155.6056796238 2.3640957427730132e7 0.0
2.3640957427730132e7 -1.7138113929544669e6 0.0
0.0 0.0 0.0

-4.696623223300038e6 1.8971134755632237e7 0.0
1.8971134755632237e7 1.4789500146508306e7 0.0
0.0 0.0 0.0

-9.000309431926982e6 1.0080777274479207e7 0.0
1.0080777274479207e7 3.990816517693386e7 0.0
0.0 0.0 0.0

1.2257354216368403e6 2.1640554044730887e7 0.0
2.1640554044730887e7 3.289779219124322e7 0.0
0.0 0.0 0.0

-5.605862311188435e6 2.0185685265559062e7 0.0
2.0185685265559062e7 2.1408967037740394e7 0.0
0.0 0.0 0.0

-9.588312685877059e6 5.47563297075805e6 0.0
5.47563297075805e6 3.566139212173287e7 0.0
0.0 0.0 0.0

-3.10178571923629e6 2.1858742350650102e7 0.0
2.1858742350650102e7 1.821658570126691e7 0.0
0.0 0.0 0.0

-3.503015078646331e6 2.464238147064427e7 0.0
2.464238147064427e7 1.8522176535559878e7 0.0
0.0 0.0 0.0

-9.924503019747294e6 8.659926841168787e6 0.0
8.659926841168787e6 2.0149668453086603e7 0.0
0.0 0.0 0.0

889174.3069262663 2.5557902610006806e7 0.0
2.5557902610006806e7 -1.2535801984983474e7 0.0
0.0 0.0 0.0

-2.748097763032178e6 2.9180480822145898e7 0.0
2.9180480822145898e7 4.800582410803529e6 0.0
0.0 0.0 0.0

-5.433319856683732e6 2.0681797332954694e7 0.0
2.0681797332954694e7 2.2176281525409184e7 0.0
0.0 0.0 0.0

-7.5733826155412495e6 5.107944275398446e6 0.0
5.107944275398446e6 5.119250187015867e7 0.0
0.0 0.0 0.0

-1.515840152600917e6 2.422364164279475e7 0.0
2.422364164279475e7 1.5135380113098664e7 0.0
0.0 0.0 0.0

-7.092517979075221e6 1.696979101431277e7 0.0
1.696979101431277e7 2.4435301361009184e7 0.0
0.0 0.0 0.0

-315.2904915176332 1.4032395177605476e7 0.0
1.4032395177605476e7 -3.881069047539355e7 0.0
0.0 0.0 0.0

640063.2143681906 2.0248114090745885e7 0.0
2.0248114090745885e7 4.0497295874698944e7 0.0
0.0 0.0 0.0

-6.8203092895868495e6 1.834870409621392e7 0.0
1.834870409621392e7 2.8561766310187258e7 0.0
0.0 0.0 0.0

1.618279299985298e6 1.235467623013927e7 0.0
1.235467623013927e7 -1.682990053867559e7 0.0
0.0 0.0 0.0

2.1049846726874225e6 3.351643576188197e6 0.0
3.351643576188197e6 -3.7049066079917744e7 0.0
0.0 0.0 0.0

4.713727566194227e6 2.0713797393160243e7 0.0
2.0713797393160243e7 3.633794859576536e7 0.0
0.0 0.0 0.0

2.798199035183931e6 2.076507198542301e7 0.0
2.076507198542301e7 3.858259924659758e7 0.0
0.0 0.0 0.0

-406293.95602987986 2.061333434782572e7 0.0
2.061333434782572e7 -9.089209650669359e6 0.0
0.0 0.0 0.0

-3.783081892950956e6 2.815677296487353e7 0.0
2.815677296487353e7 1.210913295549983e7 0.0
0.0 0.0 0.0

738322.4530439086 4.345575347227142e7 0.0
4.345575347227142e7 -1.7703210870126295e6 0.0
0.0 0.0 0.0

1.1415014942062013e6 2.3480195830572378e7 0.0
2.3480195830572378e7 -1.5257058322687116e7 0.0
0.0 0.0 0.0

-9.272206820003923e6 1.213498720962406e6 0.0
1.213498720962406e6 2.7618731174958657e7 0.0
0.0 0.0 0.0

-308725.05494434386 1.6599365370850783e7 0.0
1.6599365370850783e7 -3.3150597979188655e7 0.0
0.0 0.0 0.0

-2.7012013741825055e6 2.500441021247184e7 0.0
2.500441021247184e7 1.5404649661119565e7 0.0
0.0 0.0 0.0

-7.532969412080428e6 1.705062348749136e7 0.0
1.705062348749136e7 2.9535070959704295e7 0.0
0.0 0.0 0.0

4.946809248608576e6 1.827138725441676e7 0.0
1.827138725441676e7 1.6499749306586558e7 0.0
0.0 0.0 0.0

166087.35232210346 1.0986620273955418e7 0.0
1.0986620273955418e7 -4.579850433798294e7 0.0
0.0 0.0 0.0

409693.59305247106 1.3888280371898334e7 0.0
1.3888280371898334e7 -3.6220193203788e7 0.0
0.0 0.0 0.0

1.2222713253611133e7 4.661372661013674e7 0.0
4.661372661013674e7 -5.846056436152963e6 0.0
0.0 0.0 0.0

-1.7511867604510486e6 2.849015070874557e7 0.0
2.849015070874557e7 4.273620414974516e6 0.0
0.0 0.0 0.0

-2.4626559515284854e6 2.9814472794630703e7 0.0
2.9814472794630703e7 6.454306448772123e6 0.0
0.0 0.0 0.0

-1.0277786480819844e6 3.0507470404481255e7 0.0
3.0507470404481255e7 -2.4621434251790117e6 0.0
0.0 0.0 0.0

3.2753511963326214e6 4.220534295913626e6 0.0
4.220534295913626e6 -2.1248177558138527e7 0.0
0.0 0.0 0.0

-2.812677656606781e6 2.001540887571319e7 0.0
2.001540887571319e7 -9.375278202211432e6 0.0
0.0 0.0 0.0

-2.522581031472462e6 2.4823641098926023e7 0.0
2.4823641098926023e7 1.4621724907497061e7 0.0
0.0 0.0 0.0

2.1566522169046598e6 2.632531601973067e7 0.0
2.632531601973067e7 -1.2088529229008326e7 0.0
0.0 0.0 0.0

716151.0254465942 4.214874588252361e7 0.0
4.214874588252361e7 -1.6018578299446874e6 0.0
0.0 0.0 0.0

-7.286552895582222e6 1.1307425623883823e7 0.0
1.1307425623883823e7 1.6759564767359823e7 0.0
0.0 0.0 0.0

-9.722672272276625e6 1.257121409686919e7 0.0
1.257121409686919e7 3.265099744393848e7 0.0
0.0 0.0 0.0

605071.0900086417 4.109381082912532e7 0.0
4.109381082912532e7 -1.4175562062657562e6 0.0
0.0 0.0 0.0

877249.4104731069 2.7277077987542935e7 0.0
2.7277077987542935e7 -1.0034598391403148e7 0.0
0.0 0.0 0.0

1.1370888347025486e6 1.2483773899124237e7 0.0
1.2483773899124237e7 -2.237642696765977e7 0.0
0.0 0.0 0.0

-3.241310434141592e6 1.9878570095729053e7 0.0
1.9878570095729053e7 1.68659966870742e7 0.0
0.0 0.0 0.0

171817.85149273463 1.01150655174302e7 0.0
1.01150655174302e7 -4.816709939954728e7 0.0
0.0 0.0 0.0

-571338.2079344636 3.547889780881111e7 0.0
3.547889780881111e7 731041.2289447726 0.0
0.0 0.0 0.0

-3.821992494953459e6 2.5713707673489645e7 0.0
2.5713707673489645e7 1.1533384067088755e7 0.0
0.0 0.0 0.0

-1.3029151056607272e6 1.535271158158745e7 0.0
1.535271158158745e7 -4.176024967027515e7 0.0
0.0 0.0 0.0

-3.647667688682883e6 3.049243101291448e7 0.0
3.049243101291448e7 6.604505256663303e6 0.0
0.0 0.0 0.0

-9.389010266412193e6 1.2147755989899166e7 0.0
1.2147755989899166e7 3.5138047299084514e7 0.0
0.0 0.0 0.0

922509.7308557425 1.2111009988480408e7 0.0
1.2111009988480408e7 -1.9115011182792474e7 0.0
0.0 0.0 0.0

3.104131227026799e6 2.4616221941838577e7 0.0
2.4616221941838577e7 1.2562279801134275e7 0.0
0.0 0.0 0.0

-2.2930817623944245e6 2.741045863239156e7 0.0
2.741045863239156e7 9.165811402500276e6 0.0
0.0 0.0 0.0

-2.0679039260912035e6 1.6450368123346893e7 0.0
1.6450368123346893e7 -4.13319508631211e7 0.0
0.0 0.0 0.0

-1.5622823174535197e6 6.619612070953338e7 0.0
6.619612070953338e7 -8.804802009373711e6 0.0
0.0 0.0 0.0

-6.142844449750166e6 1.976906510719275e7 0.0
1.976906510719275e7 2.581952226309205e7 0.0
0.0 0.0 0.0

-1.4566536120106535e7 2.0027970251564104e7 0.0
2.0027970251564104e7 -6.92872051514146e7 0.0
0.0 0.0 0.0

-5.296789327490815e6 1.1752810962676175e7 0.0
1.1752810962676175e7 1.2803357432755163e7 0.0
0.0 0.0 0.0

-3.332185227019636e6 2.3085313130512584e7 0.0
2.3085313130512584e7 1.3853305784199517e7 0.0
0.0 0.0 0.0

-2.063488908815451e6 1.999122348084032e7 0.0
1.999122348084032e7 3.686559382728459e7 0.0
0.0 0.0 0.0

-3.879624442117069e6 1.8591906729761478e7 0.0
1.8591906729761478e7 1.770120869065258e7 0.0
0.0 0.0 0.0

2.8322495709257796e6 1.8687403644563157e7 0.0
1.8687403644563157e7 7.028433264593615e7 0.0
0.0 0.0 0.0

-2.248955563783345e6 2.311904079394434e7 0.0
2.311904079394434e7 1.3339290040081501e7 0.0
0.0 0.0 0.0

-2.1680973084660443e6 2.0695206468835294e7 0.0
2.0695206468835294e7 -2.7524115217916142e7 0.0
0.0 0.0 0.0

1.249713361398209e6 2.398315271039193e7 0.0
2.398315271039193e7 -1.6108915941146916e7 0.0
0.0 0.0 0.0

1.9247205620233428e8 3.4007687928363204e7 0.0
3.4007687928363204e7 1.8514236754690282e7 0.0
0.0 0.0 0.0

-7.357465439592889e6 -1.7994908863771977e6 0.0
-1.7994908863771977e6 4.27348198544615e7 0.0
0.0 0.0 0.0

2.360392336407425e6 1.379745014504886e6 0.0
1.379745014504886e6 -4.292578424024453e7 0.0
0.0 0.0 0.0

-1.0052883757468818e7 2.2374797764397496e6 0.0
2.2374797764397496e6 1.5860389934615675e7 0.0
0.0 0.0 0.0

-768558.9089197101 2.9812578185935613e7 0.0
2.9812578185935613e7 -3.5315493633877547e6 0.0
0.0 0.0 0.0

-6.359804938061953e6 -1.1857353580762157e6 0.0
-1.1857353580762157e6 5.4848687387736596e7 0.0
0.0 0.0 0.0

-9.592434879270628e6 1.91396064618342e7 0.0
1.91396064618342e7 -4.1227582931896746e7 0.0
0.0 0.0 0.0

-8.396325239661021e6 1.5489557035380635e7 0.0
1.5489557035380635e7 3.0273714610849224e7 0.0
0.0 0.0 0.0

-5.306457496355098e6 2.1141505856779702e7 0.0
2.1141505856779702e7 2.2782747739296533e7 0.0
0.0 0.0 0.0

2.0192659675094895e6 1.313189796956712e6 0.0
1.313189796956712e6 -4.872035558754057e7 0.0
0.0 0.0 0.0

1.0784626385452487e6 2.061337198702347e7 0.0
2.061337198702347e7 -1.74527218642632e7 0.0
0.0 0.0 0.0

728897.7579361539 4.498766511978384e7 0.0
4.498766511978384e7 -1.4676554774622933e6 0.0
0.0 0.0 0.0

600185.3723730668 1.2928717946363341e7 0.0
1.2928717946363341e7 -1.7759030707886573e7 0.0
0.0 0.0 0.0

-4.686747578534044e6 2.4964470554091334e7 0.0
2.4964470554091334e7 -4.959169528497608e6 0.0
0.0 0.0 0.0

1.5870327921468243e6 9.672922560327219e6 0.0
9.672922560327219e6 1.167844410670802e8 0.0
0.0 0.0 0.0

-3.6736001874426566e6 9.197642439142367e6 0.0
9.197642439142367e6 -1.1368250120237738e8 0.0
0.0 0.0 0.0

-8.079069899906348e6 1.902932548347679e7 0.0
1.902932548347679e7 -9.642145738564152e7 0.0
0.0 0.0 0.0

1.232850279176454e6 1.8425736051761307e7 0.0
1.8425736051761307e7 -2.1902002861996412e7 0.0
0.0 0.0 0.0

1.3569740060056522e6 7.6869589263706375e6 0.0
7.6869589263706375e6 -5.236577512227603e7 0.0
0.0 0.0 0.0

-2.9355575934525494e7 3.290286075934219e7 0.0
3.290286075934219e7 1.3712133751217593e6 0.0
0.0 0.0 0.0

1.964483681771364e6 2.5559978482226983e7 0.0
2.5559978482226983e7 -1.349486534293019e7 0.0
0.0 0.0 0.0

-7.179467693476604e6 -1.7759766338178215e6 0.0
-1.7759766338178215e6 4.417949697835007e7 0.0
0.0 0.0 0.0

-7.0913697053999435e6 1.4237803920173496e7 0.0
1.4237803920173496e7 1.825253614455709e7 0.0
0.0 0.0 0.0

-2.3134857832517996e6 3.049815951346553e7 0.0
3.049815951346553e7 5.326232038298271e6 0.0
0.0 0.0 0.0

-3.2949555656260755e6 2.5566420309312295e7 0.0
2.5566420309312295e7 1.3284915018755427e7 0.0
0.0 0.0 0.0

-6.9124818772125095e6 1.7370110562040284e7 0.0
1.7370110562040284e7 1.9131091986682497e7 0.0
0.0 0.0 0.0

-8.915930867673963e6 9.9727897202716e6 0.0
9.9727897202716e6 1.888285449798498e7 0.0
0.0 0.0 0.0

9.827739198905418e6 2.4065923291444663e7 0.0
2.4065923291444663e7 6.556917720641887e6 0.0
0.0 0.0 0.0

794012.149883586 2.8201592462293435e7 0.0
2.8201592462293435e7 -8.888994177643573e6 0.0
0.0 0.0 0.0

-4.374149324584819e6 7.452866358883344e6 0.0
7.452866358883344e6 2.4014289050680194e6 0.0
0.0 0.0 0.0

1.1908961830187305e6 3.2579367004606586e7 0.0
3.2579367004606586e7 -2.8396250209662416e6 0.0
0.0 0.0 0.0

-7.398874782635264e6 1.8465118906630896e7 0.0
1.8465118906630896e7 2.854212626200521e7 0.0
0.0 0.0 0.0

-3.0861600491823414e6 1.942978088558699e7 0.0
1.942978088558699e7 1.5518897771001894e7 0.0
0.0 0.0 0.0

-7.014232288600037e6 -1.6970394908334364e6 0.0
-1.6970394908334364e6 4.560323054901248e7 0.0
0.0 0.0 0.0

2.1314377714795116e6 1.3711480333920459e6 0.0
1.3711480333920459e6 -4.5772193114397734e7 0.0
0.0 0.0 0.0

1.15159741158567e6 8.029679978196888e6 0.0
8.029679978196888e6 -5.59573310393623e7 0.0
0.0 0.0 0.0

-9.590818555372749e6 1.4554214428715924e7 0.0
1.4554214428715924e7 2.8928463046854112e7 0.0
0.0 0.0 0.0

-1.4590069773115665e6 5.439064726522397e6 0.0
5.439064726522397e6 -9.88228934380842e7 0.0
0.0 0.0 0.0

-4.82409459743816e6 158851.8478541434 0.0
158851.8478541434 7.223427113398719e7 0.0
0.0 0.0 0.0

1.3010689293566681e6 1.168915476736408e7 0.0
1.168915476736408e7 -2.3839899726852346e7 0.0
0.0 0.0 0.0

2.3625466478617657e6 1.0007567402652418e7 0.0
1.0007567402652418e7 -2.67339257925864e7 0.0
0.0 0.0 0.0

8.2565139379952755e6 4.104938048692241e7 0.0
4.104938048692241e7 -3.272969383249104e6 0.0
0.0 0.0 0.0

-8.433490619968088e6 3.532655005602362e7 0.0
3.532655005602362e7 6.364457314461963e6 0.0
0.0 0.0 0.0

-2.4076080915821735e6 2.6685413997387502e7 0.0
2.6685413997387502e7 1.0441802981530182e7 0.0
0.0 0.0 0.0

1.5696122865585699e6 3.112800830312547e7 0.0
3.112800830312547e7 -4.810546476726775e6 0.0
0.0 0.0 0.0

-903225.1887922268 4.174423034682235e7 0.0
4.174423034682235e7 1.2721800932964387e6 0.0
0.0 0.0 0.0

-2.856639430458578e6 2.8457751422681715e7 0.0
2.8457751422681715e7 9.746826496826278e6 0.0
0.0 0.0 0.0

1.5148984655454252e6 2.2194419457529027e7 0.0
2.2194419457529027e7 1.468292505652362e7 0.0
0.0 0.0 0.0

117709.34665956348 2.712498194463114e6 0.0
2.712498194463114e6 -8.337508612515217e7 0.0
0.0 0.0 0.0

1.8398769369198196e6 1.2305500972741237e6 0.0
1.2305500972741237e6 -5.485484841498229e7 0.0
0.0 0.0 0.0

928653.2215002328 1.6765183744854983e6 0.0
1.6765183744854983e6 -7.17982161672289e7 0.0
0.0 0.0 0.0

-2.238913502463127e6 3.0935899587181818e7 0.0
3.0935899587181818e7 1.6310226694065607e6 0.0
0.0 0.0 0.0

-6.836255778280262e6 1.2783583667353416e7 0.0
1.2783583667353416e7 1.101468767985555e7 0.0
0.0 0.0 0.0

-6.073019426524572e6 -1.0489694316323462e6 0.0
-1.0489694316323462e6 5.6457426072832264e7 0.0
0.0 0.0 0.0

-9.533626797990415e6 1.4977913328992449e7 0.0
1.4977913328992449e7 2.683013062622808e7 0.0
0.0 0.0 0.0

2.956599033874098e6 3.4720002829911355e6 0.0
3.4720002829911355e6 -2.864886994623091e7 0.0
0.0 0.0 0.0

-1.6773193492700271e7 3.2295886118926257e7 0.0
3.2295886118926257e7 4.724576565951834e6 0.0
0.0 0.0 0.0

-9.11838530490324e6 2.0431613036316402e7 0.0
2.0431613036316402e7 -3.480311160191768e7 0.0
0.0 0.0 0.0

-7.672117753627177e6 -2.3330318903850266e6 0.0
-2.3330318903850266e6 3.668936649833825e7 0.0
0.0 0.0 0.0

-1.0894102288730463e7 6.716471374968265e6 0.0
6.716471374968265e6 2.5694616722869188e7 0.0
0.0 0.0 0.0

-8.572669902090712e6 1.1330974078930596e7 0.0
1.1330974078930596e7 4.0785659498569965e7 0.0
0.0 0.0 0.0

-2.885708028968525e6 2.3456273311558172e7 0.0
2.3456273311558172e7 2.1756063268517684e7 0.0
0.0 0.0 0.0

707980.4801222347 1.4554830588284804e7 0.0
1.4554830588284804e7 -3.202651643699081e7 0.0
0.0 0.0 0.0

819243.6968353726 2.2049980402309294e6 0.0
2.2049980402309294e6 -7.89643236582633e7 0.0
0.0 0.0 0.0

2.421399411429286e6 1.4693329075415472e6 0.0
1.4693329075415472e6 -3.877225445099966e7 0.0
0.0 0.0 0.0

1.853226051625613e7 4.4041406940251e7 0.0
4.4041406940251e7 -7.293564801391711e6 0.0
0.0 0.0 0.0

-5.134900405593935e6 -38209.645346903635 0.0
-38209.645346903635 6.942557623376796e7 0.0
0.0 0.0 0.0

1.1978722361466996e6 9.472155210654644e6 0.0
9.472155210654644e6 -4.7233071117267795e7 0.0
0.0 0.0 0.0

-3.629516889474038e6 2.936708344361022e6 0.0
2.936708344361022e6 9.11467556209724e7 0.0
0.0 0.0 0.0

-46266.3890504241 3.626354816464334e6 0.0
3.626354816464334e6 -8.961872239074408e7 0.0
0.0 0.0 0.0

-4.1351636676323493e6 3.0063539797628116e7 0.0
3.0063539797628116e7 9.558032546072526e6 0.0
0.0 0.0 0.0

-1.5469795498715052e6 1.4411703875223296e7 0.0
1.4411703875223296e7 -7.602727868243554e6 0.0
0.0 0.0 0.0

-339219.03694232926 2.174263147089648e7 0.0
2.174263147089648e7 -1.3862257063760329e7 0.0
0.0 0.0 0.0

298961.46469385177 2.005629017447926e7 0.0
2.005629017447926e7 -2.3671092265196342e7 0.0
0.0 0.0 0.0

-4.385170120546229e6 486820.0881347166 0.0
486820.0881347166 7.56270968719834e7 0.0
0.0 0.0 0.0

733182.1446183883 1.9696412695455137e6 0.0
1.9696412695455137e6 -7.513854894177921e7 0.0
0.0 0.0 0.0

-6.495351054524576e6 1.923994573559823e7 0.0
1.923994573559823e7 2.9316025211609304e7 0.0
0.0 0.0 0.0

-7.828146364551077e6 1.790432119243824e7 0.0
1.790432119243824e7 2.7891634760128383e7 0.0
0.0 0.0 0.0

-8.983784792761723e6 1.3139002699646749e7 0.0
1.3139002699646749e7 3.5963666663391836e7 0.0
0.0 0.0 0.0

-4.946429014982868e6 1.7823603346387684e7 0.0
1.7823603346387684e7 1.986845543556119e7 0.0
0.0 0.0 0.0

6.810557930349409e6 2.1263121739379793e7 0.0
2.1263121739379793e7 4.764964362951265e7 0.0
0.0 0.0 0.0

1.9711264567012978e6 2.8890703556741208e7 0.0
2.8890703556741208e7 -7.802070359191827e6 0.0
0.0 0.0 0.0

-2.112719226093902e6 3.3106530852807384e7 0.0
3.3106530852807384e7 822723.9040847 0.0
0.0 0.0 0.0

1.8003398331921278e6 3.0651210231414404e7 0.0
3.0651210231414404e7 -6.631229842051907e6 0.0
0.0 0.0 0.0

2.103734273538405e6 1.1744197467240773e7 0.0
1.1744197467240773e7 -2.3829913536236655e7 0.0
0.0 0.0 0.0

-4.689177882976092e6 3.365856558115e7 0.0
3.365856558115e7 6.191206901365856e6 0.0
0.0 0.0 0.0

-2.74303237593458e6 2.389395788033594e7 0.0
2.389395788033594e7 -6.891701133761164e6 0.0
0.0 0.0 0.0

1.3894242924266495e6 1.706346138064758e7 0.0
1.706346138064758e7 -2.4910475782649383e7 0.0
0.0 0.0 0.0

-6.441475917038076e6 1.711550102354394e7 0.0
1.711550102354394e7 3.6770517650539234e7 0.0
0.0 0.0 0.0

-9.129468028115021e6 1.5259322195650073e7 0.0
1.5259322195650073e7 2.9840008206466272e7 0.0
0.0 0.0 0.0

1.5468292213203534e6 1.0611841298561646e7 0.0
1.0611841298561646e7 -2.768361115235781e7 0.0
0.0 0.0 0.0

-6.717948807900518e6 -1.4818521663515312e6 0.0
-1.4818521663515312e6 5.006221136280218e7 0.0
0.0 0.0 0.0

1.9057520548843313e6 1.3250142985534645e6 0.0
1.3250142985534645e6 -5.019681801250257e7 0.0
0.0 0.0 0.0

1.4992503227664493e6 2.1532513004971955e7 0.0
2.1532513004971955e7 2.8799797889778897e7 0.0
0.0 0.0 0.0

-5.262624171682309e6 -215516.28574258077 0.0
-215516.28574258077 6.679454240204096e7 0.0
0.0 0.0 0.0

1.0756763678105958e6 1.5099225269656416e6 0.0
1.5099225269656416e6 -6.644357369338725e7 0.0
0.0 0.0 0.0

1.8142356056332886e6 1.3878274846042714e6 0.0
1.3878274846042714e6 -5.166489318610412e7 0.0
0.0 0.0 0.0

-6.555148559918627e6 -1.3376775330048867e6 0.0
-1.3376775330048867e6 5.1578542830604605e7 0.0
0.0 0.0 0.0

-651884.7349511702 1.881934990802034e7 0.0
1.881934990802034e7 4.8022428065945715e7 0.0
0.0 0.0 0.0

1.3078701414928697e6 1.404685090239735e6 0.0
1.404685090239735e6 -6.4269603702202335e7 0.0
0.0 0.0 0.0

-5.429384328291755e6 -486659.29393548047 0.0
-486659.29393548047 6.430543698813909e7 0.0
0.0 0.0 0.0

-2.0601210384797603e6 2.280766109313825e7 0.0
2.280766109313825e7 2.5085294887725547e7 0.0
0.0 0.0 0.0

-7.437192685166359e6 1.248012533032472e6 0.0
1.248012533032472e6 4.562160150592573e7 0.0
0.0 0.0 0.0

-6.454506640903074e6 -1.2199744131179883e6 0.0
-1.2199744131179883e6 5.323420809383752e7 0.0
0.0 0.0 0.0

1.9856723177278414e6 1.3506378848214753e6 0.0
1.3506378848214753e6 -5.3330052987219095e7 0.0
0.0 0.0 0.0

1.3789296009549797e6 1.422363530537859e6 0.0
1.422363530537859e6 -6.2188526190635875e7 0.0
0.0 0.0 0.0

-5.651375912979662e6 -724327.6081139379 0.0
-724327.6081139379 6.212138987307136e7 0.0
0.0 0.0 0.0

-3.396967656443086e8 7.429072042879604e7 0.0
7.429072042879604e7 -4.069393984443301e7 0.0
0.0 0.0 0.0

3.2784868955340624e8 6.770646465421511e7 0.0
6.770646465421511e7 3.419797665496221e7 0.0
0.0 0.0 0.0

-6.803650765914098e6 1.792719968627751e7 0.0
1.792719968627751e7 2.029390951443763e7 0.0
0.0 0.0 0.0

1.28717979042124e6 1.2985793390074605e6 0.0
1.2985793390074605e6 -6.014693145634781e7 0.0
0.0 0.0 0.0

-5.941795886482555e6 -828408.1318747771 0.0
-828408.1318747771 6.02793745264484e7 0.0
0.0 0.0 0.0

483225.45551820897 2.213590462216642e7 0.0
2.213590462216642e7 -1.327147234094366e6 0.0
0.0 0.0 0.0

-8.713307651318822e6 1.6358035508982476e7 0.0
1.6358035508982476e7 2.8515561659995943e7 0.0
0.0 0.0 0.0

-2.078726740312379e6 3.1153886694629688e7 0.0
3.1153886694629688e7 4.306462696652162e6 0.0
0.0 0.0 0.0

2.272754112225931e6 2.2170532124740545e7 0.0
2.2170532124740545e7 2.9717167477782853e7 0.0
0.0 0.0 0.0

-6.054494200384997e6 -883815.5447921556 0.0
-883815.5447921556 5.838805735134627e7 0.0
0.0 0.0 0.0

1.5425974411720857e6 1.1597123149283715e6 0.0
1.1597123149283715e6 -5.843829041169508e7 0.0
0.0 0.0 0.0

794829.7902607606 2.9069055792277202e7 0.0
2.9069055792277202e7 -7.78160138490428e6 0.0
0.0 0.0 0.0

-1.0828046325029572e7 1.9856682729853153e7 0.0
1.9856682729853153e7 -7.077590654252368e7 0.0
0.0 0.0 0.0

-213397.00126705866 3.2686580972351942e7 0.0
3.2686580972351942e7 -2.6761446644306947e6 0.0
0.0 0.0 0.0

1.220564983554245e6 1.914994999786602e7 0.0
1.914994999786602e7 -2.0395126556285173e7 0.0
0.0 0.0 0.0

79954.9941129405 1.777407902074005e7 0.0
1.777407902074005e7 -2.903575379172725e7 0.0
0.0 0.0 0.0

223510.5169495754 2.2492991978798274e7 0.0
2.2492991978798274e7 8.34760459790864e6 0.0
0.0 0.0 0.0

3.8793887691874043e6 2.893143082592428e7 0.0
2.893143082592428e7 -9.294798741153583e6 0.0
0.0 0.0 0.0

2.079067154322179e6 2.6311332371842403e7 0.0
2.6311332371842403e7 -1.1961390871824197e7 0.0
0.0 0.0 0.0

-7.939887308317931e6 1.8524612817039464e7 0.0
1.8524612817039464e7 -5.457650965207817e7 0.0
0.0 0.0 0.0

-1.135377722784034e6 3.2698169086650737e7 0.0
3.2698169086650737e7 1.451172237246675e6 0.0
0.0 0.0 0.0

-2.8246879253704012e6 2.611463207651922e7 0.0
2.611463207651922e7 1.1239550082131058e7 0.0
0.0 0.0 0.0

-9.682220604478918e6 2.754629171232105e7 0.0
2.754629171232105e7 -1.4242512116515383e7 0.0
0.0 0.0 0.0

-261662.81649056077 1.833051824605187e7 0.0
1.833051824605187e7 -2.9067389470533226e7 0.0
0.0 0.0 0.0

-9.353134411334338e6 1.540943298722635e7 0.0
1.540943298722635e7 2.470115279830359e7 0.0
0.0 0.0 0.0

3.642991499059462e6 2.109081304189321e7 0.0
2.109081304189321e7 1.549188447497413e7 0.0
0.0 0.0 0.0

-8.324227340496162e6 1.6900696996841233e7 0.0
1.6900696996841233e7 2.436680392984915e7 0.0
0.0 0.0 0.0

-1.4580598144041428e6 2.2041087374260757e7 0.0
2.2041087374260757e7 -2.0970845484889767e6 0.0
0.0 0.0 0.0

-1.4740732941722064e6 3.227893031209969e7 0.0
3.227893031209969e7 2.4836246665490093e6 0.0
0.0 0.0 0.0

-3.3501154698170535e6 1.8583319195044026e7 0.0
1.8583319195044026e7 -3.720113714740431e7 0.0
0.0 0.0 0.0

-1.2432099466486275e6 2.291248989899323e7 0.0
2.291248989899323e7 2.4794048013917547e7 0.0
0.0 0.0 0.0

-1.1530173476278586e6 4.290159696284304e7 0.0
4.290159696284304e7 1.7850000698670777e6 0.0
0.0 0.0 0.0

-2.2677259436840415e6 2.2547521086346246e7 0.0
2.2547521086346246e7 -2.969941489410936e6 0.0
0.0 0.0 0.0

508979.63204061054 3.061281677619753e7 0.0
3.061281677619753e7 -5.610025774395065e6 0.0
0.0 0.0 0.0

2.2068753185093828e7 2.7697698697010774e7 0.0
2.7697698697010774e7 1.5337911667607438e7 0.0
0.0 0.0 0.0

-1.8334141620816155e6 3.1751970834643714e7 0.0
3.1751970834643714e7 3.3475053889391115e6 0.0
0.0 0.0 0.0

-1.0064885957590526e7 1.810453461397057e7 0.0
1.810453461397057e7 -3.463961987365465e6 0.0
0.0 0.0 0.0

-1.2422994756180006e6 3.504582156073942e7 0.0
3.504582156073942e7 1.4819040610499103e6 0.0
0.0 0.0 0.0

2.8501430880341567e6 1.6967755945834985e6 0.0
1.6967755945834985e6 -3.0304002570968583e7 0.0
0.0 0.0 0.0

2.96168430237717e6 1.7667800491161128e6 0.0
1.7667800491161128e6 -2.9075590025873102e7 0.0
0.0 0.0 0.0

752027.8453881857 2.987021811648716e7 0.0
2.987021811648716e7 -6.480555884101835e6 0.0
0.0 0.0 0.0

3.669536137244921e6 2.1344515507358417e7 0.0
2.1344515507358417e7 3.939929362421078e7 0.0
0.0 0.0 0.0

-555645.9674765214 3.625418664632632e7 0.0
3.625418664632632e7 848455.047672604 0.0
0.0 0.0 0.0

-9.222691923900481e6 1.3536377790150281e7 0.0
1.3536377790150281e7 3.3536180246233087e7 0.0
0.0 0.0 0.0

-728708.2312192885 3.983131481729328e7 0.0
3.983131481729328e7 1.0862513743261665e6 0.0
0.0 0.0 0.0

-2.399284383884617e6 2.4447999199756946e7 0.0
2.4447999199756946e7 1.4649925087743463e7 0.0
0.0 0.0 0.0

457501.5574751003 2.0902708275845334e7 0.0
2.0902708275845334e7 6.067922828215198e6 0.0
0.0 0.0 0.0

1.0905689537734725e6 1.427923899580217e7 0.0
1.427923899580217e7 -3.383402628259865e7 0.0
0.0 0.0 0.0

-3.2020633855989743e6 3.096695208643899e7 0.0
3.096695208643899e7 4.5718042595818695e6 0.0
0.0 0.0 0.0

-8.297966295910221e6 -836668.7987085072 0.0
-836668.7987085072 3.317007608951765e7 0.0
0.0 0.0 0.0

-730845.2781993933 1.813901551639034e7 0.0
1.813901551639034e7 5.0954868891389295e7 0.0
0.0 0.0 0.0

-7.124594376856171e6 1.809087950225618e7 0.0
1.809087950225618e7 -6.134496403977776e7 0.0
0.0 0.0 0.0

-7.890454162654772e6 1.4301942286837049e7 0.0
1.4301942286837049e7 3.748579292061229e7 0.0
0.0 0.0 0.0

9.257141521480944e6 2.9925226479609728e7 0.0
2.9925226479609728e7 -6.131323306568727e6 0.0
0.0 0.0 0.0

1.3892157421712298e6 1.4960252270829719e7 0.0
1.4960252270829719e7 -2.9795203878497787e7 0.0
0.0 0.0 0.0

-2.4620253871229575e6 2.2068280460896045e7 0.0
2.2068280460896045e7 -1.7430889066192908e6 0.0
0.0 0.0 0.0

134178.50310488837 3.2068856043443877e7 0.0
3.2068856043443877e7 -3.613254615589625e6 0.0
0.0 0.0 0.0

-1.0415010171330866e6 2.144031560986383e7 0.0
2.144031560986383e7 -6.245150355503112e6 0.0
0.0 0.0 0.0

-8.800441220639646e6 1.4781971108011348e7 0.0
1.4781971108011348e7 2.9449271426747717e7 0.0
0.0 0.0 0.0

-7.129026429493947e6 1.6276167010251412e7 0.0
1.6276167010251412e7 3.624266428475642e7 0.0
0.0 0.0 0.0

352166.06659411034 3.1355408117701497e7 0.0
3.1355408117701497e7 -4.622867296870179e6 0.0
0.0 0.0 0.0

-6.162975624893483e6 1.710319066954861e7 0.0
1.710319066954861e7 2.1781164419538066e7 0.0
0.0 0.0 0.0

1.9551106538906302e6 4.619122746016253e6 0.0
4.619122746016253e6 -4.9252819148547634e7 0.0
0.0 0.0 0.0

-4.86140972191619e6 1.9897108922331646e7 0.0
1.9897108922331646e7 1.747270908681815e7 0.0
0.0 0.0 0.0

-2.2970225489731557e6 2.120830722576494e7 0.0
2.120830722576494e7 -1.331591104728647e7 0.0
0.0 0.0 0.0

1.0000024194755994e6 2.236576845917596e7 0.0
2.236576845917596e7 2.0826259148422615e6 0.0
0.0 0.0 0.0

-4.477978424877246e6 2.393678117495069e7 0.0
2.393678117495069e7 -1.5293162658631703e7 0.0
0.0 0.0 0.0

-1.5403155824658652e6 2.187994148553245e7 0.0
2.187994148553245e7 -8.288876668138628e6 0.0
0.0 0.0 0.0

194043.34106585756 1.838075285567857e7 0.0
1.838075285567857e7 -2.7183777959677108e7 0.0
0.0 0.0 0.0

1.4851419368435908e6 9.100883968057806e6 0.0
9.100883968057806e6 -3.531281772448091e7 0.0
0.0 0.0 0.0

-1.7421356014831518e6 2.1321786489668388e7 0.0
2.1321786489668388e7 -9.763012965826808e6 0.0
0.0 0.0 0.0

1.2642650312689207e6 1.2283399247898715e7 0.0
1.2283399247898715e7 -2.4688526955856595e7 0.0
0.0 0.0 0.0

3.1007260155191533e6 3.813517525960601e6 0.0
3.813517525960601e6 -2.304261402764579e7 0.0
0.0 0.0 0.0

-2.770353069929883e6 3.2190966410097696e7 0.0
3.2190966410097696e7 2.6273652423513685e6 0.0
0.0 0.0 0.0

-1.406497106394875e6 1.4979940441171486e7 0.0
1.4979940441171486e7 -9.26677337234025e6 0.0
0.0 0.0 0.0

-2.590258417659173e6 2.35403971057467e7 0.0
2.35403971057467e7 2.121712492420176e7 0.0
0.0 0.0 0.0

-8.17134475572645e6 -4.0925900644424306e6 0.0
-4.0925900644424306e6 2.2405346547444887e7 0.0
0.0 0.0 0.0

5.73667356125488e6 2.410339575819452e7 0.0
2.410339575819452e7 3.4548390050768764e6 0.0
0.0 0.0 0.0

-6.018187472911821e6 2.41648005932408e7 0.0
2.41648005932408e7 -1.6952200256395362e7 0.0
0.0 0.0 0.0

1.649353483311601e6 9.700895164216297e6 0.0
9.700895164216297e6 -2.914855750564736e7 0.0
0.0 0.0 0.0

-1.2768570055313411e8 2.194508488042238e7 0.0
2.194508488042238e7 3.251176786941156e6 0.0
0.0 0.0 0.0

-3.4258776887127645e6 2.220918012960307e7 0.0
2.220918012960307e7 2.5583859701433923e7 0.0
0.0 0.0 0.0

1.2802162783444729e6 2.2413337810607452e7 0.0
2.2413337810607452e7 -1.7198292381681208e7 0.0
0.0 0.0 0.0

-1.3182686120914798e6 1.9885125784048174e7 0.0
1.9885125784048174e7 -1.0258432028120318e7 0.0
0.0 0.0 0.0

820300.1299513895 1.6359863872236744e7 0.0
1.6359863872236744e7 -3.0512259837722577e7 0.0
0.0 0.0 0.0

2.5220773849250837e6 2.1708714181509692e7 0.0
2.1708714181509692e7 1.5188337859762425e7 0.0
0.0 0.0 0.0

117781.35424298234 1.4761351319355538e7 0.0
1.4761351319355538e7 -3.862063232440702e7 0.0
0.0 0.0 0.0

2.5979897214435195e6 2.211273736564345e7 0.0
2.211273736564345e7 1.771947409833573e7 0.0
0.0 0.0 0.0

456472.72476847284 2.012419207119906e7 0.0
2.012419207119906e7 -1.9361963447465315e7 0.0
0.0 0.0 0.0

2.3530606147075947e6 9.438188124629691e6 0.0
9.438188124629691e6 -3.1148748248540636e7 0.0
0.0 0.0 0.0

1.2723447131541818e6 2.3412509628935503e6 0.0
2.3412509628935503e6 -5.6981679469391316e7 0.0
0.0 0.0 0.0

6.944741644444309e6 3.2055367325980645e7 0.0
3.2055367325980645e7 -6.784766023994049e6 0.0
0.0 0.0 0.0

717579.563851878 1.4452631149177227e7 0.0
1.4452631149177227e7 -3.6219219062948205e7 0.0
0.0 0.0 0.0

-4.793592890596265e6 3.2686284928837452e7 0.0
3.2686284928837452e7 6.9786206351323435e6 0.0
0.0 0.0 0.0

-9.564307643180585e6 2.604461342034354e7 0.0
2.604461342034354e7 1.7903588404297302e6 0.0
0.0 0.0 0.0

2.156724269859814e6 8.870964899652064e6 0.0
8.870964899652064e6 -1.4005832333685346e7 0.0
0.0 0.0 0.0

-1.6796242718342151e6 4.412004436665357e7 0.0
4.412004436665357e7 2.193130138206266e6 0.0
0.0 0.0 0.0

2.2377965441008396e6 1.068335960716227e7 0.0
1.068335960716227e7 -2.7536602504044607e7 0.0
0.0 0.0 0.0

3.5289915269108936e6 1.9943794883411594e7 0.0
1.9943794883411594e7 5.2789999754354164e7 0.0
0.0 0.0 0.0

-990715.994744871 2.2763142138612874e7 0.0
2.2763142138612874e7 2.245425739511246e6 0.0
0.0 0.0 0.0

-8.753788664253622e6 3.390519753521755e7 0.0
3.390519753521755e7 6.923520117184255e6 0.0
0.0 0.0 0.0

-7.969965123090776e6 1.6178438146836093e7 0.0
1.6178438146836093e7 2.5830994889555953e7 0.0
0.0 0.0 0.0

554598.436503334 1.5918442595626196e7 0.0
1.5918442595626196e7 -3.0542309301441163e7 0.0
0.0 0.0 0.0

-3.0873391452611187e6 1.3178693872230412e7 0.0
1.3178693872230412e7 -1.1375938312846965e6 0.0
0.0 0.0 0.0

-585431.3886967567 2.260732304956554e7 0.0
2.260732304956554e7 -7.138364040207813e6 0.0
0.0 0.0 0.0

1.774114292334986e7 2.5085217540398967e7 0.0
2.5085217540398967e7 5.397597750020456e6 0.0
0.0 0.0 0.0

1.0935115713792816e6 2.2353148640913777e7 0.0
2.2353148640913777e7 -1.901807872408598e7 0.0
0.0 0.0 0.0

527348.4598488063 1.0371688707800929e7 0.0
1.0371688707800929e7 -6.704613804257769e6 0.0
0.0 0.0 0.0

323612.33523730934 1.716293911576497e7 0.0
1.716293911576497e7 -2.8926648785001338e7 0.0
0.0 0.0 0.0

-7.813642037413964e6 -359922.08930981136 0.0
-359922.08930981136 4.0054673716299735e7 0.0
0.0 0.0 0.0

-3.11535642577478e6 2.4612148210009146e7 0.0
2.4612148210009146e7 1.8488102998518616e7 0.0
0.0 0.0 0.0

-8.246541758491082e6 1.6928456208096996e7 0.0
1.6928456208096996e7 2.9319606172136866e7 0.0
0.0 0.0 0.0

-2.125371344737721e7 2.947491624803516e7 0.0
2.947491624803516e7 -1.035417967204438e7 0.0
0.0 0.0 0.0

-7.315609566744875e6 1.9046309183800425e7 0.0
1.9046309183800425e7 -5.205795077891931e7 0.0
0.0 0.0 0.0

-3.2134825269550607e6 2.9319873681294117e7 0.0
2.9319873681294117e7 9.378626349944511e6 0.0
0.0 0.0 0.0

-5.091022544341157e6 3.0609901809622254e7 0.0
3.0609901809622254e7 8.734060727744572e6 0.0
0.0 0.0 0.0

3.4389331111637014e6 2.6564213788297582e7 0.0
2.6564213788297582e7 -1.1409229471330639e7 0.0
0.0 0.0 0.0

-5.043834154648829e6 1.7267263707375962e7 0.0
1.7267263707375962e7 -5.371676852585672e7 0.0
0.0 0.0 0.0

-1.8087286378823137e6 2.295546574953214e7 0.0
2.295546574953214e7 2.2256003423891194e7 0.0
0.0 0.0 0.0

-6.644627984858286e6 7.260472434190712e6 0.0
7.260472434190712e6 5.365731355345158e7 0.0
0.0 0.0 0.0

2.2135108330186214e6 2.6633066173662166e6 0.0
2.6633066173662166e6 -7.680954179265808e6 0.0
0.0 0.0 0.0

-2.0202587244310128e6 2.0234461232191544e7 0.0
2.0234461232191544e7 -2.679327181522561e7 0.0
0.0 0.0 0.0

3.525441363885183e6 2.7928591876711484e7 0.0
2.7928591876711484e7 -1.02654944223528e7 0.0
0.0 0.0 0.0

-1.3767238593219235e6 2.3242522290983405e7 0.0
2.3242522290983405e7 -1.8550084103002097e6 0.0
0.0 0.0 0.0

-685868.210872808 1.832503814534171e7 0.0
1.832503814534171e7 -1.3315865025805132e7 0.0
0.0 0.0 0.0

-1.0940213537059998e7 2.001918403275148e7 0.0
2.001918403275148e7 -4.22556487016623e7 0.0
0.0 0.0 0.0

-8.169056774225315e6 1.5357593827351637e7 0.0
1.5357593827351637e7 3.5010291057151996e7 0.0
0.0 0.0 0.0

1.0778550049112434e6 3.60668538568867e7 0.0
3.60668538568867e7 -800505.0649160054 0.0
0.0 0.0 0.0

-3.0074526287672963e7 3.028121700796988e7 0.0
3.028121700796988e7 -5.687719801362447e6 0.0
0.0 0.0 0.0

6.244438886025694e6 2.4736386360515967e7 0.0
2.4736386360515967e7 3.7731263521473687e6 0.0
0.0 0.0 0.0

1.3754539260977963e6 8.652698140383929e6 0.0
8.652698140383929e6 -1.6503367700318964e7 0.0
0.0 0.0 0.0

-1.5652591904842835e6 2.2735531685799576e7 0.0
2.2735531685799576e7 -669424.3034599626 0.0
0.0 0.0 0.0

-7.638190336066632e6 1.2589706819352595e7 0.0
1.2589706819352595e7 4.2310938905435674e7 0.0
0.0 0.0 0.0

-6.63208974374371e6 3.4963454722173944e7 0.0
3.4963454722173944e7 5.968764874628518e6 0.0
0.0 0.0 0.0

-2.3917331780520156e6 2.297837569259791e7 0.0
2.297837569259791e7 2.2904359252220094e7 0.0
0.0 0.0 0.0

-1.6034508597425062e6 3.3474048275240593e7 0.0
3.3474048275240593e7 -16554.036317285965 0.0
0.0 0.0 0.0

541452.6016392652 1.9415575502751812e7 0.0
1.9415575502751812e7 -2.081295921645343e7 0.0
0.0 0.0 0.0

-6.926562239654003e6 1.4550242131163336e7 0.0
1.4550242131163336e7 4.2191975516768895e7 0.0
0.0 0.0 0.0

23874.931951803155 2.0482891460444942e7 0.0
2.0482891460444942e7 -2.3535555105973408e7 0.0
0.0 0.0 0.0

-8.756766416087031e6 2.5320664967440803e7 0.0
2.5320664967440803e7 -5.2764515453325175e6 0.0
0.0 0.0 0.0

1.034927480431333e6 3.6790828617310666e7 0.0
3.6790828617310666e7 -953129.0145531988 0.0
0.0 0.0 0.0

2.5391479678918757e6 5.053499690870468e6 0.0
5.053499690870468e6 -2.4441614275071483e7 0.0
0.0 0.0 0.0

3.25755864567272e6 2.5973637893337056e7 0.0
2.5973637893337056e7 -9.851527941045484e6 0.0
0.0 0.0 0.0

-2.830737866656632e6 2.925428249753277e7 0.0
2.925428249753277e7 8.520159843279552e6 0.0
0.0 0.0 0.0

-8.655294732626852e6 1.523522790894018e7 0.0
1.523522790894018e7 2.719639151620195e7 0.0
0.0 0.0 0.0

-7.614161501006268e6 2.6792625706008416e7 0.0
2.6792625706008416e7 -1.2616793517437175e7 0.0
0.0 0.0 0.0

-7.196964322638499e6 1.7304901214957666e7 0.0
1.7304901214957666e7 3.3862232720956825e7 0.0
0.0 0.0 0.0

-2.93272507712593e6 7.29005537037149e6 0.0
7.29005537037149e6 5.712167530048461e6 0.0
0.0 0.0 0.0

-2.556951470999839e6 2.8364114869516414e7 0.0
2.8364114869516414e7 8.77454376523924e6 0.0
0.0 0.0 0.0

-9.521268296988765e6 1.4032095690675829e7 0.0
1.4032095690675829e7 3.1173004671216745e7 0.0
0.0 0.0 0.0

-3.392702155274069e6 2.340611484897287e7 0.0
2.340611484897287e7 1.495165610567395e7 0.0
0.0 0.0 0.0

6.87549034560336e6 2.0882184813340757e7 0.0
2.0882184813340757e7 4.184128917115447e7 0.0
0.0 0.0 0.0

-3.754942350726925e6 1.71942331751466e7 0.0
1.71942331751466e7 -4.6994741759610355e7 0.0
0.0 0.0 0.0

-8.042214695258214e6 -4.555149932301721e6 0.0
-4.555149932301721e6 2.0706233069759075e7 0.0
0.0 0.0 0.0

1.2367954904063463e7 3.1953571146853264e7 0.0
3.1953571146853264e7 -5.421798733306255e6 0.0
0.0 0.0 0.0

-8.345252010312684e6 1.3366058770750651e7 0.0
1.3366058770750651e7 3.674541740065285e7 0.0
0.0 0.0 0.0

131478.68888309225 1.5607673838005172e7 0.0
1.5607673838005172e7 -1.6760945981879111e7 0.0
0.0 0.0 0.0

-1.6501273030658653e6 2.3237858212884173e7 0.0
2.3237858212884173e7 1.9320580015944935e7 0.0
0.0 0.0 0.0

-635232.0385672881 2.1417275455013704e7 0.0
2.1417275455013704e7 -7.55485958857924e6 0.0
0.0 0.0 0.0

-3.6150640781506915e6 2.3997525547850925e7 0.0
2.3997525547850925e7 2.033054604800074e7 0.0
0.0 0.0 0.0

-308957.5834123492 1.291954171539649e7 0.0
1.291954171539649e7 -8.75174296528393e6 0.0
0.0 0.0 0.0

-6.940961865569254e6 2.787915347358562e7 0.0
2.787915347358562e7 7.621461771851412e6 0.0
0.0 0.0 0.0

-3.3616350551001513e6 2.363902640286745e7 0.0
2.363902640286745e7 1.5894037491807245e7 0.0
0.0 0.0 0.0

2.678368644001991e6 2.5671501463711113e7 0.0
2.5671501463711113e7 -1.1602195374606056e7 0.0
0.0 0.0 0.0

-3.339121741027036e6 2.961066658286452e7 0.0
2.961066658286452e7 6.781324363491989e6 0.0
0.0 0.0 0.0

-510307.3755274292 3.709608897460421e7 0.0
3.709608897460421e7 965742.8220533265 0.0
0.0 0.0 0.0

-3.108911686285047e6 1.7278360511431582e7 0.0
1.7278360511431582e7 -4.0642791775610134e7 0.0
0.0 0.0 0.0

673347.487813734 2.4758860565888574e6 0.0
2.4758860565888574e6 -711123.1452714945 0.0
0.0 0.0 0.0

-9.646584871658318e6 1.3257288313249568e6 0.0
1.3257288313249568e6 1.3897524810991071e7 0.0
0.0 0.0 0.0

825315.1149391793 4.307073812855169e6 0.0
4.307073812855169e6 -7.068211965646833e7 0.0
0.0 0.0 0.0

1.0321181453968999e6 2.7767355720561568e7 0.0
2.7767355720561568e7 -7.673565158301892e6 0.0
0.0 0.0 0.0

-2.858610174219776e6 2.2885624422596294e7 0.0
2.2885624422596294e7 2.3437671685522288e7 0.0
0.0 0.0 0.0

-9.128415555379655e6 1.5672994757737948e7 0.0
1.5672994757737948e7 2.7693182495724026e7 0.0
0.0 0.0 0.0

-2.3862099578193882e6 4.548132097129894e7 0.0
4.548132097129894e7 2.540354354051781e6 0.0
0.0 0.0 0.0

-9.013356431576632e6 1.1634953987167524e7 0.0
1.1634953987167524e7 3.7782745896564715e7 0.0
0.0 0.0 0.0

5.306801470063424e7 8.219771039183636e7 0.0
8.219771039183636e7 -3.9473934632640965e6 0.0
0.0 0.0 0.0

1.2244627467745654e6 2.4856886285680313e7 0.0
2.4856886285680313e7 -1.4090843251095181e7 0.0
0.0 0.0 0.0

1.2970379626040775e6 1.7725626426597144e7 0.0
1.7725626426597144e7 -2.337214393493729e7 0.0
0.0 0.0 0.0

-2.8413499310904844e6 2.4066083908940498e7 0.0
2.4066083908940498e7 1.9381620047372848e7 0.0
0.0 0.0 0.0

-7.9349978144820705e6 1.3966979810870664e7 0.0
1.3966979810870664e7 3.9491256637760215e7 0.0
0.0 0.0 0.0

1.7937037716561272e6 2.706118274146008e7 0.0
2.706118274146008e7 -1.0212328839185353e7 0.0
0.0 0.0 0.0

1.5500862810001648e6 2.2648833584029455e7 0.0
2.2648833584029455e7 5.384694422222308e6 0.0
0.0 0.0 0.0

1.8271907894754838e6 2.3509623905486516e6 0.0
2.3509623905486516e6 -4.476282771533912e7 0.0
0.0 0.0 0.0

-9.03164485911382e6 1.1155561937077805e7 0.0
1.1155561937077805e7 1.9981429252426945e7 0.0
0.0 0.0 0.0

-4.1480105258301045e6 4.927978307110618e7 0.0
4.927978307110618e7 4.0666032536918223e6 0.0
0.0 0.0 0.0

-3.1415908033453245e6 2.2586527906488206e7 0.0
2.2586527906488206e7 2.54866541833124e7 0.0
0.0 0.0 0.0

-2.644650578616102e6 2.0958491749345776e7 0.0
2.0958491749345776e7 -2.2134156886865027e7 0.0
0.0 0.0 0.0

1.0119268265530657e7 2.4392179729961965e7 0.0
2.4392179729961965e7 9.602697618238173e6 0.0
0.0 0.0 0.0

-1.0482865260623679e7 6.422737857470153e6 0.0
6.422737857470153e6 2.0176178160422117e7 0.0
0.0 0.0 0.0

-5.48187589691931e6 1.380342889920995e7 0.0
1.380342889920995e7 8.8056780130369e6 0.0
0.0 0.0 0.0

-2.766678382502345e6 2.1018550457367957e7 0.0
2.1018550457367957e7 -1.6858910136247396e7 0.0
0.0 0.0 0.0

316297.9904370317 1.960240682012457e7 0.0
1.960240682012457e7 -1.3129117331218587e7 0.0
0.0 0.0 0.0

-4.775121351719581e6 2.182050347138783e7 0.0
2.182050347138783e7 2.105513716796574e7 0.0
0.0 0.0 0.0

-2.5815367585896123e6 1.98690445614518e7 0.0
1.98690445614518e7 -2.890326551473436e7 0.0
0.0 0.0 0.0

1.109646397764204e6 1.4978268229462272e7 0.0
1.4978268229462272e7 -3.1971837367017377e7 0.0
0.0 0.0 0.0

-3.6304968631651164e6 2.9312348930062816e7 0.0
2.9312348930062816e7 1.0045605281029806e7 0.0
0.0 0.0 0.0

652557.8356591677 2.0094883189177856e7 0.0
2.0094883189177856e7 -2.376983367177225e7 0.0
0.0 0.0 0.0

-8.0323320830906555e6 1.6117166418353243e7 0.0
1.6117166418353243e7 3.104669018970089e7 0.0
0.0 0.0 0.0

3.12237954343184e6 5.540063560251805e6 0.0
5.540063560251805e6 -1.7257321024334475e7 0.0
0.0 0.0 0.0

-4.1032957451385945e7 3.738481134403043e7 0.0
3.738481134403043e7 -1.7162909555544898e7 0.0
0.0 0.0 0.0

1.091525352790838e6 8.039231237356469e6 0.0
8.039231237356469e6 -1.280737281518469e7 0.0
0.0 0.0 0.0

3.3657621139219776e6 2.415018739864497e6 0.0
2.415018739864497e6 -1.6928588394678295e7 0.0
0.0 0.0 0.0

-5.500830252698238e6 3.0380560433665276e7 0.0
3.0380560433665276e7 9.195370717625286e6 0.0
0.0 0.0 0.0

2.652530734996298e6 2.1331556218040615e7 0.0
2.1331556218040615e7 8.841769652478946e6 0.0
0.0 0.0 0.0

6.6347335465558525e6 2.54449703794439e7 0.0
2.54449703794439e7 -1.3781099807254379e6 0.0
0.0 0.0 0.0

-2.64911117594919e6 2.0389484802217532e7 0.0
2.0389484802217532e7 3.457016685606668e7 0.0
0.0 0.0 0.0

162787.68809872307 2.0663058443067785e7 0.0
2.0663058443067785e7 3.83504340971323e7 0.0
0.0 0.0 0.0

1.5411322616762666e7 2.0489097904702377e7 0.0
2.0489097904702377e7 6.924484151776922e7 0.0
0.0 0.0 0.0

115950.5398815507 2.1416654296071444e7 0.0
2.1416654296071444e7 -4.694323048021275e6 0.0
0.0 0.0 0.0

-3.087479256105262e6 2.3939524826657224e7 0.0
2.3939524826657224e7 2.022361752297897e7 0.0
0.0 0.0 0.0

-4.1130003929005945e6 2.068808578971555e7 0.0
2.068808578971555e7 1.5396482495830297e7 0.0
0.0 0.0 0.0

-3.183448655152886e6 2.0848704997437958e7 0.0
2.0848704997437958e7 -2.0431949436518975e7 0.0
0.0 0.0 0.0

-3.7200972237197766e6 2.9799613013138473e7 0.0
2.9799613013138473e7 7.638219464819908e6 0.0
0.0 0.0 0.0

-8.43732883828979e6 1.409360669932327e7 0.0
1.409360669932327e7 3.671557487282319e7 0.0
0.0 0.0 0.0

1.771843652099454e7 3.003926067738179e7 0.0
3.003926067738179e7 -3.2543340378491282e6 0.0
0.0 0.0 0.0

1.6583843036608482e6 2.5464144113795698e7 0.0
2.5464144113795698e7 -1.2727721682290183e7 0.0
0.0 0.0 0.0

1.87392405357497e6 7.493023884600403e6 0.0
7.493023884600403e6 -2.901520245059878e7 0.0
0.0 0.0 0.0

7.047876378566077e6 2.767492238001608e7 0.0
2.767492238001608e7 -7.306928068401482e6 0.0
0.0 0.0 0.0

102859.5765241824 3.2030999860082746e7 0.0
3.2030999860082746e7 -1.315910560978225e6 0.0
0.0 0.0 0.0

-9.603047841917723e6 2.1420511130039427e7 0.0
2.1420511130039427e7 -3.20101676963833e7 0.0
0.0 0.0 0.0

1.0849758523769297e7 2.2659618995913915e7 0.0
2.2659618995913915e7 3.61658715002635e7 0.0
0.0 0.0 0.0

-6.878850715277601e6 909393.3852248283 0.0
909393.3852248283 5.194090237454423e7 0.0
0.0 0.0 0.0

2.550916341904291e6 2.44672975863634e7 0.0
2.44672975863634e7 8.282228178734783e6 0.0
0.0 0.0 0.0

-7.55572209745775e6 -53294.741562345385 0.0
-53294.741562345385 4.2646753446885705e7 0.0
0.0 0.0 0.0

1.8243241597815363e6 3.2773738837715596e7 0.0
3.2773738837715596e7 -3.5218683823135025e6 0.0
0.0 0.0 0.0

6.553519148012398e6 3.079189645772479e7 0.0
3.079189645772479e7 -7.320043270203618e6 0.0
0.0 0.0 0.0

-3.3112809872905104e6 4.713040559242442e7 0.0
4.713040559242442e7 2.769928890834756e6 0.0
0.0 0.0 0.0

1.1988756195356082e7 2.1807937929629285e7 0.0
2.1807937929629285e7 9.092958998185419e6 0.0
0.0 0.0 0.0

-8.046536254158992e6 1.2975724498696618e7 0.0
1.2975724498696618e7 3.943702322625254e7 0.0
0.0 0.0 0.0

1.453734554380204e6 3.345735025163201e7 0.0
3.345735025163201e7 -2.4961259340219027e6 0.0
0.0 0.0 0.0

-3.2628451574725034e6 2.4515771063037995e7 0.0
2.4515771063037995e7 1.4145783758682035e7 0.0
0.0 0.0 0.0

-3.070047570802791e6 2.798588852692071e7 0.0
2.798588852692071e7 8.191625949478146e6 0.0
0.0 0.0 0.0

775264.4657829627 9.98732425596786e6 0.0
9.98732425596786e6 -5.0729273995399326e7 0.0
0.0 0.0 0.0

-4.0466010776093216e6 2.9137752449789833e7 0.0
2.9137752449789833e7 1.0790542508739201e7 0.0
0.0 0.0 0.0

1.9914200329329383e7 1.85879850445938e7 0.0
1.85879850445938e7 5.027972554510913e6 0.0
0.0 0.0 0.0

1.3823618999265954e6 1.5685619729751147e7 0.0
1.5685619729751147e7 -2.8123117840548497e7 0.0
0.0 0.0 0.0

-4.934620946662746e6 3.7981997086825864e6 0.0
3.7981997086825864e6 7.267589669655018e7 0.0
0.0 0.0 0.0

-602710.8063335281 3.4690513931333e7 0.0
3.4690513931333e7 735113.1312947926 0.0
0.0 0.0 0.0

4.592534738584524e6 2.4770938165993154e7 0.0
2.4770938165993154e7 8.199036852061104e6 0.0
0.0 0.0 0.0

-1.0716759119395503e8 1.0002699670306969e8 0.0
1.0002699670306969e8 -1.0351558174423572e7 0.0
0.0 0.0 0.0

2.6483958401628835e6 4.011013468522583e6 0.0
4.011013468522583e6 -2.335991221335289e7 0.0
0.0 0.0 0.0

-1.469376034173001e6 2.391623103426106e7 0.0
2.391623103426106e7 -475918.3919148964 0.0
0.0 0.0 0.0

-1.9558795483789004e7 3.142876295018581e7 0.0
3.142876295018581e7 2.713935592099363e6 0.0
0.0 0.0 0.0

-327881.1574446326 2.328200847313851e7 0.0
2.328200847313851e7 -1.665859252168896e7 0.0
0.0 0.0 0.0

1.3846019679673817e6 2.4754908178320035e7 0.0
2.4754908178320035e7 -1.4624040349679504e7 0.0
0.0 0.0 0.0

1.4429209454551617e7 2.6140443829740636e7 0.0
2.6140443829740636e7 2.408625128516673e6 0.0
0.0 0.0 0.0

-3.6577286237283573e6 3.9656187484149024e7 0.0
3.9656187484149024e7 3.2147732705727173e6 0.0
0.0 0.0 0.0

-4.915651048957808e6 2.429118831296138e7 0.0
2.429118831296138e7 -1.4988985461389966e7 0.0
0.0 0.0 0.0

1.6555357543034106e6 5.442935840098791e6 0.0
5.442935840098791e6 -5.4141661374114305e7 0.0
0.0 0.0 0.0

-3.82576858715129e7 3.395394252004334e7 0.0
3.395394252004334e7 -1.1128652776364371e7 0.0
0.0 0.0 0.0

-2.502414352145547e6 2.3746107287847377e7 0.0
2.3746107287847377e7 1.5480769028249402e7 0.0
0.0 0.0 0.0

6.058137666073145e6 2.964188845451454e7 0.0
2.964188845451454e7 -7.898808857698036e6 0.0
0.0 0.0 0.0

2.7422317271343973e6 2.0121474866486225e7 0.0
2.0121474866486225e7 4.963528758529865e7 0.0
0.0 0.0 0.0

1.8867124606433176e7 2.8403932084761564e7 0.0
2.8403932084761564e7 -1.586596446759642e6 0.0
0.0 0.0 0.0

-3.849096184251354e6 2.702067369915515e7 0.0
2.702067369915515e7 1.3899909751796138e7 0.0
0.0 0.0 0.0

-320158.20098205283 2.050874638206834e7 0.0
2.050874638206834e7 -1.4614997490973825e7 0.0
0.0 0.0 0.0

1.0375329569107909e7 1.2810002847854123e7 0.0
1.2810002847854123e7 4.314796631848499e6 0.0
0.0 0.0 0.0

4.162862292615421e6 2.603418264703455e7 0.0
2.603418264703455e7 -7.993159360777358e6 0.0
0.0 0.0 0.0

-3.1457349525359515e6 2.1648387523071237e7 0.0
2.1648387523071237e7 2.9026678661857035e7 0.0
0.0 0.0 0.0

-3.4683790507891327e6 7.515803343675375e6 0.0
7.515803343675375e6 7.599070325198165e7 0.0
0.0 0.0 0.0

-4.527576933926802e6 1.687880293062485e6 0.0
1.687880293062485e6 7.952210649176608e7 0.0
0.0 0.0 0.0

-231696.26030955603 2.289435365276232e7 0.0
2.289435365276232e7 -1.2968796167992055e7 0.0
0.0 0.0 0.0

1.1953997797833635e6 2.437055520865538e7 0.0
2.437055520865538e7 -1.3896448022022396e7 0.0
0.0 0.0 0.0

1.5599620330442535e6 2.4690043446717933e7 0.0
2.4690043446717933e7 -1.4712194462577756e7 0.0
0.0 0.0 0.0

-1.6103849486332163e7 2.749230338901345e7 0.0
2.749230338901345e7 -4.778944696159326e6 0.0
0.0 0.0 0.0

2.5803104216703415e7 2.562619010543154e7 0.0
2.562619010543154e7 1.4289122184777752e7 0.0
0.0 0.0 0.0

-3.8405619354269905e6 2.2805866040299643e7 0.0
2.2805866040299643e7 2.3953268058132954e7 0.0
0.0 0.0 0.0

1.790596126174069e6 2.4607240743061043e7 0.0
2.4607240743061043e7 -1.4585579858020797e7 0.0
0.0 0.0 0.0

-764238.2383540585 1.950397126501744e7 0.0
1.950397126501744e7 -1.2844023322942737e7 0.0
0.0 0.0 0.0

-8.823295217135375e6 -903794.6163713818 0.0
-903794.6163713818 2.8942443030929305e7 0.0
0.0 0.0 0.0

-1.0714164548956044e6 1.5904980881408326e7 0.0
1.5904980881408326e7 -3.894647759884963e7 0.0
0.0 0.0 0.0

-8.568531846844902e6 2.510497401513312e6 0.0
2.510497401513312e6 4.0892023430609696e7 0.0
0.0 0.0 0.0

-7.896076359680129e6 -2.648993896195173e6 0.0
-2.648993896195173e6 3.2510384790534087e7 0.0
0.0 0.0 0.0

-7.957636583989676e6 -2.8876067280177483e6 0.0
-2.8876067280177483e6 3.1555649111961566e7 0.0
0.0 0.0 0.0

-4.508079671987247e6 1.3546345410082845e7 0.0
1.3546345410082845e7 1.2212543894395027e7 0.0
0.0 0.0 0.0

617199.8476775493 1.86880777566645e7 0.0
1.86880777566645e7 -2.2317500963957768e7 0.0
0.0 0.0 0.0

-441666.30545034073 1.576107288383367e7 0.0
1.576107288383367e7 -3.871630229054459e7 0.0
0.0 0.0 0.0

-1.8862506136804475e6 2.297013725006294e7 0.0
2.297013725006294e7 -6.282009923176824e6 0.0
0.0 0.0 0.0

4.252068067743294e6 2.6168553918694157e7 0.0
2.6168553918694157e7 -9.784994923541285e6 0.0
0.0 0.0 0.0

7.150181032295884e6 2.5207817039644253e7 0.0
2.5207817039644253e7 1.5539888556445832e6 0.0
0.0 0.0 0.0

662030.1309547494 3.0221227593235e7 0.0
3.0221227593235e7 -4.308496784697561e6 0.0
0.0 0.0 0.0

7.146207614147763e7 3.2192794909857687e7 0.0
3.2192794909857687e7 1.0878643554748425e7 0.0
0.0 0.0 0.0

1.1231671525858881e7 1.7274740366034135e7 0.0
1.7274740366034135e7 1.058555485468089e7 0.0
0.0 0.0 0.0

5.845081633910393e6 2.5754121111539327e7 0.0
2.5754121111539327e7 -3.8593662033894765e6 0.0
0.0 0.0 0.0

7.475419403130885e6 3.105807420490818e7 0.0
3.105807420490818e7 -6.90338371220438e6 0.0
0.0 0.0 0.0

540050.7412657901 3.45283775832889e7 0.0
3.45283775832889e7 -820054.5882555532 0.0
0.0 0.0 0.0

615428.6290961811 2.1129418371779233e7 0.0
2.1129418371779233e7 -2.2177702753556993e7 0.0
0.0 0.0 0.0

-2.203351796275027e7 3.0440909113749992e7 0.0
3.0440909113749992e7 -326001.52619549073 0.0
0.0 0.0 0.0

-6.518961904294517e6 3.0998767689295176e7 0.0
3.0998767689295176e7 8.582419197437357e6 0.0
0.0 0.0 0.0

3.024244441466052e6 1.745976726946763e6 0.0
1.745976726946763e6 -2.6688908181780376e7 0.0
0.0 0.0 0.0

-399500.79324144917 3.1823926547725294e7 0.0
3.1823926547725294e7 -2.8468343632770646e6 0.0
0.0 0.0 0.0

-6.702885735600437e6 5.120541015626493e7 0.0
5.120541015626493e7 4.423825342625903e6 0.0
0.0 0.0 0.0

-3.0821553343699067e6 1.8194528789992884e7 0.0
1.8194528789992884e7 -8.792543236012045e6 0.0
0.0 0.0 0.0

1.1445911666230354e6 1.568428286914836e7 0.0
1.568428286914836e7 -3.017293856930829e7 0.0
0.0 0.0 0.0

135464.09190660156 1.5311531311048899e7 0.0
1.5311531311048899e7 -3.657885105960435e7 0.0
0.0 0.0 0.0

-1.335985262566762e6 1.685797523688003e7 0.0
1.685797523688003e7 -3.8710602551346295e7 0.0
0.0 0.0 0.0

1.6108163190266974e7 4.509788639110937e7 0.0
4.509788639110937e7 -4.826363725465768e6 0.0
0.0 0.0 0.0

1.8408774526183922e6 2.4400651714693103e7 0.0
2.4400651714693103e7 -1.4386017773136318e7 0.0
0.0 0.0 0.0

8.31366119347825e6 2.157854097789729e7 0.0
2.157854097789729e7 4.281094559760359e7 0.0
0.0 0.0 0.0

-2.7886135101718582e7 2.4673052611472633e7 0.0
2.4673052611472633e7 2.148837770096792e6 0.0
0.0 0.0 0.0

-7.638782585496306e7 4.115576239598153e7 0.0
4.115576239598153e7 -9.709322170031378e6 0.0
0.0 0.0 0.0

839003.2195394635 7.035559492548498e6 0.0
7.035559492548498e6 -6.869470664632061e7 0.0
0.0 0.0 0.0

4.77284059551801e6 2.6019718760190077e7 0.0
2.6019718760190077e7 -6.087123171464275e6 0.0
0.0 0.0 0.0

6.659041730689039e6 2.8700940335415263e7 0.0
2.8700940335415263e7 -7.696479601634802e6 0.0
0.0 0.0 0.0

3.044093762293268e6 1.8699143596053543e6 0.0
1.8699143596053543e6 -2.511767809285581e7 0.0
0.0 0.0 0.0

-2.1426790323089555e7 2.8576863698240172e7 0.0
2.8576863698240172e7 -7.683396236904157e6 0.0
0.0 0.0 0.0

636614.5053434111 2.1721728733313862e7 0.0
2.1721728733313862e7 2.6878076705258522e7 0.0
0.0 0.0 0.0

1.1211153487634351e7 2.104056149028377e7 0.0
2.104056149028377e7 1.4890507325071163e7 0.0
0.0 0.0 0.0

-8.037917190258574e6 -3.067546397247186e6 0.0
-3.067546397247186e6 2.7319901128749486e7 0.0
0.0 0.0 0.0

302258.8762691673 1.890439615529304e7 0.0
1.890439615529304e7 -2.7220761910892207e7 0.0
0.0 0.0 0.0

1.4346192354438677e6 1.148103506722465e7 0.0
1.148103506722465e7 -2.6213746402159836e7 0.0
0.0 0.0 0.0

342871.6287117603 9.864235159614056e6 0.0
9.864235159614056e6 -5.2639215783335725e6 0.0
0.0 0.0 0.0

-8.920204578799548e6 -2.8815304375688527e6 0.0
-2.8815304375688527e6 2.4147984915235244e7 0.0
0.0 0.0 0.0

8.68944100644631e6 2.125091361473665e7 0.0
2.125091361473665e7 9.654164249222387e7 0.0
0.0 0.0 0.0

-7.204334851122972e6 6.337797102678156e6 0.0
6.337797102678156e6 5.226207570121049e7 0.0
0.0 0.0 0.0

5.0393714147091815e6 3.5975516677817374e7 0.0
3.5975516677817374e7 -3.82334864726373e6 0.0
0.0 0.0 0.0

-1.618826619077008e6 2.33833354155263e7 0.0
2.33833354155263e7 717175.7720450328 0.0
0.0 0.0 0.0

-3.146495714033821e6 2.0672890419124976e7 0.0
2.0672890419124976e7 -1.5038572194697805e7 0.0
0.0 0.0 0.0

4.067219342228561e6 2.8396423131665964e7 0.0
2.8396423131665964e7 -9.482540331547853e6 0.0
0.0 0.0 0.0

-4.061223077447722e6 2.989061635454896e7 0.0
2.989061635454896e7 8.463001227673633e6 0.0
0.0 0.0 0.0

9.95606123429982e6 5.297144967092064e7 0.0
5.297144967092064e7 -891775.4534275704 0.0
0.0 0.0 0.0

2.73358729865205e6 4.365050657080858e6 0.0
4.365050657080858e6 -1.3112524167981066e7 0.0
0.0 0.0 0.0

-8.969283248839168e6 -857488.5850262777 0.0
-857488.5850262777 2.943539396588016e7 0.0
0.0 0.0 0.0

-119602.82237380277 2.1878420520831045e7 0.0
2.1878420520831045e7 2.9440504555911017e6 0.0
0.0 0.0 0.0

-1.072578466497202e7 3.176173784938503e7 0.0
3.176173784938503e7 6.689333945447836e6 0.0
0.0 0.0 0.0

121588.01547886431 2.1442996235702626e7 0.0
2.1442996235702626e7 3.0335758815905493e7 0.0
0.0 0.0 0.0

-8.396636737069061e6 1.5072629587756049e7 0.0
1.5072629587756049e7 3.2555997289864242e7 0.0
0.0 0.0 0.0

908193.3311698548 1.7042690036929104e7 0.0
1.7042690036929104e7 -2.8752312715979643e7 0.0
0.0 0.0 0.0

-2.0528425731306902e8 3.429075164167503e7 0.0
3.429075164167503e7 -1.6774823520101763e7 0.0
0.0 0.0 0.0

-8.707612644213852e6 1.3805731930028085e7 0.0
1.3805731930028085e7 3.425465842680637e7 0.0
0.0 0.0 0.0

-9.041190554534702e6 3.1719071697521616e7 0.0
3.1719071697521616e7 7.335242978862936e6 0.0
0.0 0.0 0.0

405867.0076536592 2.0578223478184205e7 0.0
2.0578223478184205e7 -2.3713145584880423e7 0.0
0.0 0.0 0.0

-2.5481986895453148e6 1.7697368489962347e7 0.0
1.7697368489962347e7 -3.792216801381734e7 0.0
0.0 0.0 0.0

7.68218885382758e6 4.992882825592308e7 0.0
4.992882825592308e7 -632727.5708302627 0.0
0.0 0.0 0.0

-2.8984677665522955e6 1.87251942363788e7 0.0
1.87251942363788e7 -3.448182843078206e7 0.0
0.0 0.0 0.0

1.7655214340247158e6 2.416934671733763e7 0.0
2.416934671733763e7 -1.3874398061619112e7 0.0
0.0 0.0 0.0

1.1297902804163536e6 2.234318218367145e7 0.0
2.234318218367145e7 5.7881271320545515e6 0.0
0.0 0.0 0.0

2.96407562270372e6 4.0574614205428325e7 0.0
4.0574614205428325e7 -682655.7494980749 0.0
0.0 0.0 0.0

-1.2696140645279322e7 3.155018607058987e7 0.0
3.155018607058987e7 5.705489010664718e6 0.0
0.0 0.0 0.0

682196.7667101398 1.832364312275955e7 0.0
1.832364312275955e7 -2.7119000826156553e7 0.0
0.0 0.0 0.0

1.3478413530224347e6 2.392777955845392e7 0.0
2.392777955845392e7 -1.5219821600717334e7 0.0
0.0 0.0 0.0

-2.4500687808140246e6 3.041376182465848e7 0.0
3.041376182465848e7 2.638401928751199e6 0.0
0.0 0.0 0.0

-7.646222447609413e6 3.142296224976928e7 0.0
3.142296224976928e7 7.954329879319024e6 0.0
0.0 0.0 0.0

-7.343873107088413e6 -1.9712533404809893e6 0.0
-1.9712533404809893e6 4.1554479577463366e7 0.0
0.0 0.0 0.0

-4.1821567908321926e6 2.1375018920785636e7 0.0
2.1375018920785636e7 2.3163077383409537e7 0.0
0.0 0.0 0.0

-3.1645769616341675e6 1.952002158145107e7 0.0
1.952002158145107e7 -3.11496664385916e7 0.0
0.0 0.0 0.0

2.529824711797859e7 2.473145947071834e7 0.0
2.473145947071834e7 5.592824389454616e6 0.0
0.0 0.0 0.0

-242922.0645079892 1.932597848641768e7 0.0
1.932597848641768e7 -2.7279416041686345e7 0.0
0.0 0.0 0.0

-512280.51375895366 2.3126914588625584e7 0.0
2.3126914588625584e7 -3.107656991071787e6 0.0
0.0 0.0 0.0

-8.0007055643243715e6 1.1482142843943963e7 0.0
1.1482142843943963e7 4.157356283983215e7 0.0
0.0 0.0 0.0

-8.410156882587472e6 2.496340353219281e7 0.0
2.496340353219281e7 -1.5879225109468222e7 0.0
0.0 0.0 0.0

-1.9846612822356836e6 2.0834011309781685e7 0.0
2.0834011309781685e7 -7.862654593252087e6 0.0
0.0 0.0 0.0

59645.89539639931 2.3784525860278815e7 0.0
2.3784525860278815e7 -1.4083655980388489e7 0.0
0.0 0.0 0.0

-1.5602918723840483e7 5.636265053132269e7 0.0
5.636265053132269e7 7.05481933800471e6 0.0
0.0 0.0 0.0

-6.117577224559163e7 1.9717347693610974e7 0.0
1.9717347693610974e7 3.226389515034236e6 0.0
0.0 0.0 0.0

4.868734680400937e6 3.7140669453166656e7 0.0
3.7140669453166656e7 -4.446886052919701e6 0.0
0.0 0.0 0.0

-9.967567077365665e6 5.361289088731333e7 0.0
5.361289088731333e7 5.837753460012572e6 0.0
0.0 0.0 0.0

3.468471418263275e7 7.005827078909038e7 0.0
7.005827078909038e7 -1.7982446271994822e6 0.0
0.0 0.0 0.0

-1.5009306987760067e6 1.7227997074605804e7 0.0
1.7227997074605804e7 -3.598056035867854e7 0.0
0.0 0.0 0.0

-1.1201849639404237e7 1.9652939770461455e7 0.0
1.9652939770461455e7 -4.112491518134865e7 0.0
0.0 0.0 0.0

-4.635838019784434e6 2.8735499958049137e7 0.0
2.8735499958049137e7 1.0879542737090047e7 0.0
0.0 0.0 0.0

-8.76637486361356e6 1.4495758290805733e7 0.0
1.4495758290805733e7 3.430427703629011e7 0.0
0.0 0.0 0.0

-1.3154789289175898e7 2.7931984333923932e7 0.0
2.7931984333923932e7 2.732984129802224e6 0.0
0.0 0.0 0.0

1.7553322868963664e6 2.2711808685177978e7 0.0
2.2711808685177978e7 9.827043304980667e6 0.0
0.0 0.0 0.0

69662.00856567454 2.1468732338528942e7 0.0
2.1468732338528942e7 -1.1215053013409607e7 0.0
0.0 0.0 0.0

1.26668937326781e7 5.668745387576227e7 0.0
5.668745387576227e7 -1.3858420368082728e6 0.0
0.0 0.0 0.0

3.8701614875222174e6 2.7387170568065792e7 0.0
2.7387170568065792e7 -1.0315800060580283e7 0.0
0.0 0.0 0.0

4.115834448101436e6 2.397449233369537e7 0.0
2.397449233369537e7 -3.5115603543538e6 0.0
0.0 0.0 0.0

1.9988646714577023e6 1.276207427251098e6 0.0
1.276207427251098e6 -4.716176412603289e7 0.0
0.0 0.0 0.0

-4.472797372808644e6 2.984184965709815e7 0.0
2.984184965709815e7 9.193514914779458e6 0.0
0.0 0.0 0.0

-1.9387243135932083e6 2.2187457974263914e7 0.0
2.2187457974263914e7 6.4830181361464765e6 0.0
0.0 0.0 0.0

1.3018457469929364e6 1.431167528565621e7 0.0
1.431167528565621e7 -1.7270039208973758e7 0.0
0.0 0.0 0.0

-2.367043904366387e6 1.7889530241635904e7 0.0
1.7889530241635904e7 -3.824469387569962e7 0.0
0.0 0.0 0.0

-1.9850659390450707e6 2.3896821628618386e7 0.0
2.3896821628618386e7 2.1111201697254416e7 0.0
0.0 0.0 0.0

-802469.525639601 2.091880028472829e7 0.0
2.091880028472829e7 3.359645940592696e7 0.0
0.0 0.0 0.0

-1.230709363522012e6 2.062426237106351e7 0.0
2.062426237106351e7 -5.230446638594714e6 0.0
0.0 0.0 0.0

7.915529200981701e6 2.9973924234619237e7 0.0
2.9973924234619237e7 -6.8216799607525e6 0.0
0.0 0.0 0.0

-3.653951550497176e6 2.8504427844888765e7 0.0
2.8504427844888765e7 1.1216614613357766e7 0.0
0.0 0.0 0.0

-5.335246677905746e6 4.027565233905017e6 0.0
4.027565233905017e6 6.505839445151357e7 0.0
0.0 0.0 0.0

-3.602925184416835e6 1.4566791630217351e7 0.0
1.4566791630217351e7 9.988227921646213e6 0.0
0.0 0.0 0.0

-195946.07335712062 2.1841158948759478e7 0.0
2.1841158948759478e7 -7.161951270320056e6 0.0
0.0 0.0 0.0

-6.264913161404278e6 2.9969242662410345e7 0.0
2.9969242662410345e7 9.518798489622464e6 0.0
0.0 0.0 0.0

-2.8626625195793724e6 2.4259166821556866e7 0.0
2.4259166821556866e7 1.7278722473217513e7 0.0
0.0 0.0 0.0

1.7697652716858163e6 1.4519128815663628e7 0.0
1.4519128815663628e7 -2.4673214794071484e7 0.0
0.0 0.0 0.0

-1.1673551156805055e6 3.349403663920085e7 0.0
3.349403663920085e7 1.4361737462214096e6 0.0
0.0 0.0 0.0

3.8304122534550284e6 4.275650732521518e7 0.0
4.275650732521518e7 -763453.7780383448 0.0
0.0 0.0 0.0

-1.871095892261752e6 2.6135352743351936e7 0.0
2.6135352743351936e7 6.7684982664227635e6 0.0
0.0 0.0 0.0

1.235988114297513e6 1.7040567913280856e7 0.0
1.7040567913280856e7 -2.672654448172029e7 0.0
0.0 0.0 0.0

-468322.25031687657 3.4088347644436166e7 0.0
3.4088347644436166e7 -1.5109325991578994e6 0.0
0.0 0.0 0.0

4.899267327476525e6 2.93714602601577e7 0.0
2.93714602601577e7 -8.611096547221191e6 0.0
0.0 0.0 0.0

2.660251397583751e6 2.1359131735477403e7 0.0
2.1359131735477403e7 3.719024696467827e7 0.0
0.0 0.0 0.0

-1.9482067388538625e6 2.5314167402839024e7 0.0
2.5314167402839024e7 8.217344488912709e6 0.0
0.0 0.0 0.0

-5.187840185827401e6 3.2392373809697747e7 0.0
3.2392373809697747e7 6.535920651917794e6 0.0
0.0 0.0 0.0

-6.978537139215276e6 1.707128769329965e6 0.0
1.707128769329965e6 5.1449737366557464e7 0.0
0.0 0.0 0.0

3.281515136718464e6 4.15732158703311e7 0.0
4.15732158703311e7 -669350.1221263465 0.0
0.0 0.0 0.0

2.0591527318659592e6 1.3270152198911381e6 0.0
1.3270152198911381e6 -4.582775798278362e7 0.0
0.0 0.0 0.0

865555.0546686419 3.1447885481922712e7 0.0
3.1447885481922712e7 -5.32776041645193e6 0.0
0.0 0.0 0.0

-7.197576058197726e6 -323614.7699099156 0.0
-323614.7699099156 4.5500100182915784e7 0.0
0.0 0.0 0.0

-2.0590083155458912e6 2.0181846366912585e7 0.0
2.0181846366912585e7 -5.67091628057767e6 0.0
0.0 0.0 0.0

-1.2467792141341535e7 2.9918345419677407e7 0.0
2.9918345419677407e7 4.1619037177059e6 0.0
0.0 0.0 0.0

-3.056453146977449e6 2.4309687143279646e7 0.0
2.4309687143279646e7 -4.582529308387053e6 0.0
0.0 0.0 0.0

-5.33271316834127e6 2.438677387173356e7 0.0
2.438677387173356e7 -7.3418329646784365e6 0.0
0.0 0.0 0.0

-2.4001693587107323e6 2.2015826899555724e7 0.0
2.2015826899555724e7 -2.1657330887990285e7 0.0
0.0 0.0 0.0

-7.487277513204947e6 1.6161082442554764e7 0.0
1.6161082442554764e7 3.561997528841877e7 0.0
0.0 0.0 0.0

2.6699059541248744e6 2.3228729068366002e7 0.0
2.3228729068366002e7 1.260016199725675e7 0.0
0.0 0.0 0.0

2.2179334600871727e6 9.443038273333358e6 0.0
9.443038273333358e6 -3.2923561919453856e7 0.0
0.0 0.0 0.0

5.02782513603903e6 2.1805889148048997e7 0.0
2.1805889148048997e7 3.564447854612491e7 0.0
0.0 0.0 0.0

-1.4226219772218788e7 2.126512241797983e7 0.0
2.126512241797983e7 -8.238686646543533e7 0.0
0.0 0.0 0.0

-2.753474181082096e6 2.2942214824168224e7 0.0
2.2942214824168224e7 1.728485757230716e7 0.0
0.0 0.0 0.0

-1.5452769217817448e6 3.427396313633617e7 0.0
3.427396313633617e7 91540.24609492859 0.0
0.0 0.0 0.0

-2.323026912768038e6 2.551084752597724e7 0.0
2.551084752597724e7 2.5545195047601266e6 0.0
0.0 0.0 0.0

1.9266232561794473e6 2.5532887298298854e7 0.0
2.5532887298298854e7 -1.304280033551285e7 0.0
0.0 0.0 0.0

3.8599001768834693e6 2.466311669531142e7 0.0
2.466311669531142e7 -7.789078338917657e6 0.0
0.0 0.0 0.0

-4.87184569801902e6 2.9713581916740075e7 0.0
2.9713581916740075e7 9.832473885294318e6 0.0
0.0 0.0 0.0

-2.63081019513339e6 2.382950571875952e7 0.0
2.382950571875952e7 2.1664161987415843e7 0.0
0.0 0.0 0.0

-747386.7678906266 2.1168595493166357e7 0.0
2.1168595493166357e7 3.393767036254419e7 0.0
0.0 0.0 0.0

-5.807934940941991e6 2.1279864517808698e7 0.0
2.1279864517808698e7 -2.2095358995722935e7 0.0
0.0 0.0 0.0

650723.2644031979 1.7994252809265185e7 0.0
1.7994252809265185e7 -2.3799182442843925e7 0.0
0.0 0.0 0.0

-1.2539049469557693e6 2.3863125036549125e7 0.0
2.3863125036549125e7 2.0230330935576487e7 0.0
0.0 0.0 0.0

-60362.34615682438 1.1693124466025347e7 0.0
1.1693124466025347e7 -4.69503665274325e7 0.0
0.0 0.0 0.0

-3.7559572408093973e6 2.3093808378922366e7 0.0
2.3093808378922366e7 -1.4353413309520666e7 0.0
0.0 0.0 0.0

4.5615951264984235e6 4.417023986687278e7 0.0
4.417023986687278e7 -643552.900161755 0.0
0.0 0.0 0.0

4.214197925825155e6 2.1044058464517392e7 0.0
2.1044058464517392e7 3.0542919302542355e7 0.0
0.0 0.0 0.0

2.8132478842864145e7 2.7796102159252547e7 0.0
2.7796102159252547e7 9.377488731855682e7 0.0
0.0 0.0 0.0

-2.8761737730948728e7 2.6575895523072857e7 0.0
2.6575895523072857e7 -9.587241799979566e7 0.0
0.0 0.0 0.0

-2.6821808185773604e6 2.2263465687615003e7 0.0
2.2263465687615003e7 3.9900511401955765e6 0.0
0.0 0.0 0.0

-3.355347050958571e7 4.3893718572592966e7 0.0
4.3893718572592966e7 7.868386887465291e6 0.0
0.0 0.0 0.0

-550334.977052905 2.9123400713186212e7 0.0
2.9123400713186212e7 -4.724490997646654e6 0.0
0.0 0.0 0.0

-1.0494264441711763e6 2.4177976687399182e7 0.0
2.4177976687399182e7 1.7365692879120357e7 0.0
0.0 0.0 0.0

3.7885809894562587e6 2.1031241973912474e7 0.0
2.1031241973912474e7 3.4537174291570775e7 0.0
0.0 0.0 0.0

1.1311718970336108e7 2.2602058329217296e7 0.0
2.2602058329217296e7 6.009856396324483e7 0.0
0.0 0.0 0.0

1.0501182822845388e7 2.510602332732875e7 0.0
2.510602332732875e7 1.219842052877091e7 0.0
0.0 0.0 0.0

1.0019557858260687e7 2.016052286320556e7 0.0
2.016052286320556e7 3.976079763029399e7 0.0
0.0 0.0 0.0

7.343328432609516e6 2.9752088997341022e7 0.0
2.9752088997341022e7 -7.168341050339164e6 0.0
0.0 0.0 0.0

2.6136157509265942e6 2.177688600639351e7 0.0
2.177688600639351e7 2.0866256716258503e7 0.0
0.0 0.0 0.0

-1.0041732218210548e6 2.290168452174549e7 0.0
2.290168452174549e7 2.1414091525387555e7 0.0
0.0 0.0 0.0

6.403855603318084e6 3.888587429944706e7 0.0
3.888587429944706e7 -2.91319545035036e6 0.0
0.0 0.0 0.0

4.6400689353034375e6 2.439572549261756e7 0.0
2.439572549261756e7 1.5833607059833424e7 0.0
0.0 0.0 0.0

2.6269514555425234e6 1.6062566894380176e6 0.0
1.6062566894380176e6 -3.514917451308034e7 0.0
0.0 0.0 0.0

-6.960070049264757e6 1.8741436690690756e7 0.0
1.8741436690690756e7 2.4701462310041256e7 0.0
0.0 0.0 0.0

-7.203579175682768e6 -1.952941363014826e6 0.0
-1.952941363014826e6 4.2693100141785026e7 0.0
0.0 0.0 0.0

-3.169767640193659e6 2.3106805468883667e7 0.0
2.3106805468883667e7 2.3768870460864186e7 0.0
0.0 0.0 0.0

2.1659406675678017e6 3.51690148993376e7 0.0
3.51690148993376e7 -2.2815026128830435e6 0.0
0.0 0.0 0.0

7.570006601833388e6 2.3565530914495215e7 0.0
2.3565530914495215e7 2.157386383487748e7 0.0
0.0 0.0 0.0

6.514402983156055e6 2.0181145777902827e7 0.0
2.0181145777902827e7 2.9273739257474516e7 0.0
0.0 0.0 0.0

-4.067501964483666e6 3.191427594123074e7 0.0
3.191427594123074e7 7.306397350859535e6 0.0
0.0 0.0 0.0

3.0840895273161177e6 4.1204344907354093e6 0.0
4.1204344907354093e6 -1.8568982159176048e7 0.0
0.0 0.0 0.0

624709.1975987202 3.2226524075400647e7 0.0
3.2226524075400647e7 -4.343125079221536e6 0.0
0.0 0.0 0.0

2.128929155441897e6 1.2154443232740505e7 0.0
1.2154443232740505e7 -2.667920006868774e7 0.0
0.0 0.0 0.0

-9.115689854398616e6 3.0412677702493977e7 0.0
3.0412677702493977e7 7.606352861386886e6 0.0
0.0 0.0 0.0

8.454898743918441e6 3.2287605258055314e7 0.0
3.2287605258055314e7 -6.406233788644794e6 0.0
0.0 0.0 0.0

-1.2120908642646292e7 2.640348720544015e7 0.0
2.640348720544015e7 400592.9551533824 0.0
0.0 0.0 0.0

1.229206951076027e6 1.5676359469873062e6 0.0
1.5676359469873062e6 -6.904072727147833e7 0.0
0.0 0.0 0.0

7.704919857704174e6 2.520979722021185e7 0.0
2.520979722021185e7 4.587325981183558e6 0.0
0.0 0.0 0.0

3.8685952408550903e6 3.344291673398611e7 0.0
3.344291673398611e7 -4.75905321448625e6 0.0
0.0 0.0 0.0

2.347505424734178e6 2.8795194632197306e7 0.0
2.8795194632197306e7 -8.53498092057245e6 0.0
0.0 0.0 0.0

-3.1432610622145142e6 2.2240745566467773e7 0.0
2.2240745566467773e7 -1.5004137354917761e7 0.0
0.0 0.0 0.0

2.3049603383758813e6 4.345168952084711e6 0.0
4.345168952084711e6 -3.238641047471258e7 0.0
0.0 0.0 0.0

-2.7413415834405483e6 2.6900529521527827e7 0.0
2.6900529521527827e7 7.609521521186067e6 0.0
0.0 0.0 0.0

-556661.5380165689 1.5000871947061818e7 0.0
1.5000871947061818e7 -3.899488360907598e7 0.0
0.0 0.0 0.0

-7.123129015588565e6 -1.6614449355243451e6 0.0
-1.6614449355243451e6 4.715530586024392e7 0.0
0.0 0.0 0.0

-3.619092990840952e6 2.2028755731963977e7 0.0
2.2028755731963977e7 2.1283778591846373e7 0.0
0.0 0.0 0.0

-1.7195150543221366e7 3.0028386508030225e7 0.0
3.0028386508030225e7 2.9418056924199723e6 0.0
0.0 0.0 0.0

125567.83281862736 6.371561754001396e6 0.0
6.371561754001396e6 -9.9612975344574e7 0.0
0.0 0.0 0.0

-1.2692255486630257e6 1.84061306226443e7 0.0
1.84061306226443e7 4.744967845845056e7 0.0
0.0 0.0 0.0

1.4718917600752218e6 2.2465666503148302e7 0.0
2.2465666503148302e7 2.7934541231345758e7 0.0
0.0 0.0 0.0

1.2273624391737971e6 2.0206952296122745e7 0.0
2.0206952296122745e7 4.31488647021424e7 0.0
0.0 0.0 0.0

-1.7153300811185301e6 2.394180467173911e7 0.0
2.394180467173911e7 1.982770470981599e6 0.0
0.0 0.0 0.0

-3.7893509189353827e6 2.2617892030475277e7 0.0
2.2617892030475277e7 1.6778371408910505e7 0.0
0.0 0.0 0.0

-2.650438481509248e6 2.238356352954443e7 0.0
2.238356352954443e7 -1.1512246841722907e7 0.0
0.0 0.0 0.0

694982.6391754067 1.7293284326239858e7 0.0
1.7293284326239858e7 -2.523596428596045e7 0.0
0.0 0.0 0.0

-302624.0035462864 1.113491420259205e7 0.0
1.113491420259205e7 -5.85491436817209e7 0.0
0.0 0.0 0.0

-7.150441587898297e6 -1.8132522570465296e6 0.0
-1.8132522570465296e6 4.404743482502433e7 0.0
0.0 0.0 0.0

-6.305609903173588e6 -1.2114310461457858e6 0.0
-1.2114310461457858e6 5.468359851245606e7 0.0
0.0 0.0 0.0

-1.1129858186090969e7 2.832864173046965e7 0.0
2.832864173046965e7 1.7415549996475508e6 0.0
0.0 0.0 0.0

2.017465682315643e6 2.5506659812114958e7 0.0
2.5506659812114958e7 -1.3405331969142959e7 0.0
0.0 0.0 0.0

2.8236762697603814e6 2.0087958018039726e7 0.0
2.0087958018039726e7 4.960624847668545e7 0.0
0.0 0.0 0.0

-2.0318346041750254e6 2.2481677844028536e7 0.0
2.2481677844028536e7 -7.978605691959695e6 0.0
0.0 0.0 0.0

7.99908335121144e6 2.8584450482921433e7 0.0
2.8584450482921433e7 -6.695494838892088e6 0.0
0.0 0.0 0.0

-3.3366691189649138e6 2.8871403672317017e7 0.0
2.8871403672317017e7 7.930558402930609e6 0.0
0.0 0.0 0.0

-8.499855551382173e6 -1.1496521965067051e6 0.0
-1.1496521965067051e6 3.0451006240368977e7 0.0
0.0 0.0 0.0

1.9550055661141977e7 6.205052155369212e7 0.0
6.205052155369212e7 -1.8774794221792445e6 0.0
0.0 0.0 0.0

1.2734946688474524e6 2.33074166078898e7 0.0
2.33074166078898e7 -1.0261340586986681e7 0.0
0.0 0.0 0.0

-8.707293916301792e6 1.8971664942502573e7 0.0
1.8971664942502573e7 -6.593955494095955e7 0.0
0.0 0.0 0.0

2.565815813500991e6 2.6900916935782484e6 0.0
2.6900916935782484e6 -4.231815259892375e7 0.0
0.0 0.0 0.0

-747886.2537688713 2.2018468257350747e7 0.0
2.2018468257350747e7 -7.51562134997682e6 0.0
0.0 0.0 0.0

-4.809282991623012e6 2.0821016498319462e7 0.0
2.0821016498319462e7 2.472427161015848e7 0.0
0.0 0.0 0.0

-3.0201166273731124e7 2.553232670778354e7 0.0
2.553232670778354e7 2.6573623189498335e6 0.0
0.0 0.0 0.0

-7.566631396695181e6 2.528595957049093e7 0.0
2.528595957049093e7 -1.2052192221882796e7 0.0
0.0 0.0 0.0

8.546083396521859e6 1.957510914333757e7 0.0
1.957510914333757e7 3.462048121756251e7 0.0
0.0 0.0 0.0

-4.104532081898528e6 2.170595825533294e7 0.0
2.170595825533294e7 -1.6626578045971025e7 0.0
0.0 0.0 0.0

-9.050326628255364e6 1.1931691452216278e6 0.0
1.1931691452216278e6 2.986847700211265e7 0.0
0.0 0.0 0.0

-398941.85782943433 2.3474666338216797e7 0.0
2.3474666338216797e7 -1.1569603607804881e7 0.0
0.0 0.0 0.0

-321884.1011544168 2.2724402840417147e7 0.0
2.2724402840417147e7 4.917170954152649e6 0.0
0.0 0.0 0.0

21181.48169967439 2.3607893573193543e7 0.0
2.3607893573193543e7 1.888341328890907e7 0.0
0.0 0.0 0.0

545682.7992588393 2.081088737004344e7 0.0
2.081088737004344e7 -2.009675594892575e7 0.0
0.0 0.0 0.0

545584.9796997532 2.1964012619901367e7 0.0
2.1964012619901367e7 3.1072343925376464e7 0.0
0.0 0.0 0.0

33802.48908728242 2.178836266531693e7 0.0
2.178836266531693e7 401397.1658432544 0.0
0.0 0.0 0.0

2.1059582493216293e6 2.5460030025280625e7 0.0
2.5460030025280625e7 -1.3575874843042692e7 0.0
0.0 0.0 0.0

6.635092269048378e6 2.4304426370631807e7 0.0
2.4304426370631807e7 -791908.7191561116 0.0
0.0 0.0 0.0

447329.7697460875 1.4584684621103376e7 0.0
1.4584684621103376e7 -3.431161104419224e7 0.0
0.0 0.0 0.0

-3.692626606790565e6 2.3360868346750986e7 0.0
2.3360868346750986e7 2.2134404961038552e7 0.0
0.0 0.0 0.0

-288534.2871644073 1.9436207038390048e7 0.0
1.9436207038390048e7 -9.548024080248212e6 0.0
0.0 0.0 0.0

-6.012117778849089e7 3.541822054373065e7 0.0
3.541822054373065e7 -2.4321014073804915e6 0.0
0.0 0.0 0.0

7.300036297445377e6 2.093445901151279e7 0.0
2.093445901151279e7 6.2373460436293446e7 0.0
0.0 0.0 0.0

1.9383811290581413e6 1.2689662579541735e6 0.0
1.2689662579541735e6 -4.855377361163568e7 0.0
0.0 0.0 0.0

-6.457147102482371e6 -1.2113343289132724e6 0.0
-1.2113343289132724e6 5.2916408870252214e7 0.0
0.0 0.0 0.0

-5.97063216291884e6 1.763005689770909e7 0.0
1.763005689770909e7 -5.7237906889889404e7 0.0
0.0 0.0 0.0

-2.8922527394265737e6 1.909413909496009e7 0.0
1.909413909496009e7 -3.504066243078871e7 0.0
0.0 0.0 0.0

-3.516012481328458e6 2.3756833331538968e7 0.0
2.3756833331538968e7 -6.9019443348311195e6 0.0
0.0 0.0 0.0

-2.26193174096727e7 3.181907920197571e7 0.0
3.181907920197571e7 -1.519023473629376e7 0.0
0.0 0.0 0.0

-2.7703869312004074e6 2.0836973871596918e7 0.0
2.0836973871596918e7 3.279826559562151e7 0.0
0.0 0.0 0.0

2.0715475433110837e6 2.5323407334588606e7 0.0
2.5323407334588606e7 -1.3559391818850791e7 0.0
0.0 0.0 0.0

-5.148519246465046e6 -41675.17783061518 0.0
-41675.17783061518 6.981883889452548e7 0.0
0.0 0.0 0.0

-5.94610250127146e6 1.9666184578201193e7 0.0
1.9666184578201193e7 2.7918901287489623e7 0.0
0.0 0.0 0.0

497973.8077480793 4.132844415485492e6 0.0
4.132844415485492e6 -9.283793607523572e7 0.0
0.0 0.0 0.0

-1.643423571146235e6 3.5085081322406344e7 0.0
3.5085081322406344e7 118868.10019312717 0.0
0.0 0.0 0.0

810808.0889791287 2.234919819328807e6 0.0
2.234919819328807e6 -8.062984421627629e7 0.0
0.0 0.0 0.0

-2.773518954666313e7 5.789830513168795e7 0.0
5.789830513168795e7 8.966487372091796e6 0.0
0.0 0.0 0.0

-4.995466851493627e6 234374.5127862993 0.0
234374.5127862993 7.294261756118204e7 0.0
0.0 0.0 0.0

660073.1759847011 1.502944217335089e7 0.0
1.502944217335089e7 -3.426832213235803e7 0.0
0.0 0.0 0.0

-1.305372301798543e7 2.961110503944926e7 0.0
2.961110503944926e7 4.6620434414553745e6 0.0
0.0 0.0 0.0

-5.544229911374717e7 3.613068676751265e7 0.0
3.613068676751265e7 -4.492980379770609e6 0.0
0.0 0.0 0.0

646751.5794739015 3.083471163443976e6 0.0
3.083471163443976e6 -8.642604261386308e7 0.0
0.0 0.0 0.0

-2.407139559664745e6 2.7964394475932933e7 0.0
2.7964394475932933e7 3.584442988926147e6 0.0
0.0 0.0 0.0

-2.798366719029216e6 2.5185954104903873e7 0.0
2.5185954104903873e7 1.614664188771562e7 0.0
0.0 0.0 0.0

2.1585457210927047e7 1.9666837190959167e7 0.0
1.9666837190959167e7 8.146677415905518e6 0.0
0.0 0.0 0.0

-1.3379939236418474e6 1.8785317627533678e7 0.0
1.8785317627533678e7 -3.037511837360052e7 0.0
0.0 0.0 0.0

-3.5268001420387803e6 2.0039378664888196e7 0.0
2.0039378664888196e7 -3.1909005768752746e7 0.0
0.0 0.0 0.0

1.3189534518762594e6 2.820474025249794e7 0.0
2.820474025249794e7 -9.487921944387821e6 0.0
0.0 0.0 0.0

-1.7496352811525255e6 3.583804313515728e7 0.0
3.583804313515728e7 197205.63376389956 0.0
0.0 0.0 0.0

-7.497939758897588e6 1.397620611394717e7 0.0
1.397620611394717e7 4.015826544200799e7 0.0
0.0 0.0 0.0

1.0695149891226776e6 1.6899201039361146e6 0.0
1.6899201039361146e6 -7.293207395193917e7 0.0
0.0 0.0 0.0

-1.4123686744609537e7 3.973133169253353e7 0.0
3.973133169253353e7 4.923646968797812e6 0.0
0.0 0.0 0.0

3.075175224355068e6 5.64479538737318e6 0.0
5.64479538737318e6 -2.5687727807344582e7 0.0
0.0 0.0 0.0

-2.956077086086765e6 2.2204758288117595e7 0.0
2.2204758288117595e7 -2.0178118747891553e7 0.0
0.0 0.0 0.0

973510.7886143029 2.072049207987726e6 0.0
2.072049207987726e6 -7.599801778685418e7 0.0
0.0 0.0 0.0

-3.6682436594981644e6 2.077987889618201e7 0.0
2.077987889618201e7 -2.86156240699808e7 0.0
0.0 0.0 0.0

-7.501087727210181e6 1.0730790276662413e7 0.0
1.0730790276662413e7 4.712375242395749e7 0.0
0.0 0.0 0.0

-5.971336512664147e6 948159.3352171101 0.0
948159.3352171101 5.8875915940587465e6 0.0
0.0 0.0 0.0

-3.0299244988399227e6 2.034682802364552e7 0.0
2.034682802364552e7 5.781574874825622e6 0.0
0.0 0.0 0.0

5.36276203418256e6 2.192189175203366e7 0.0
2.192189175203366e7 3.1868220410557088e7 0.0
0.0 0.0 0.0

1.6587499377102442e6 1.1237950687602037e6 0.0
1.1237950687602037e6 -5.376412211971578e7 0.0
0.0 0.0 0.0

-4.385100465787385e6 2.873400358733243e7 0.0
2.873400358733243e7 1.1042004345555112e7 0.0
0.0 0.0 0.0

-7.679341536961243e6 11901.516456119381 0.0
11901.516456119381 4.231631109914931e7 0.0
0.0 0.0 0.0

149251.34853880887 2.3307098912307594e7 0.0
2.3307098912307594e7 357065.43280564697 0.0
0.0 0.0 0.0

496554.1514073871 1.5260085680418402e7 0.0
1.5260085680418402e7 -3.2412989007844426e7 0.0
0.0 0.0 0.0

-2.3535618399553923e6 2.3318001457321577e7 0.0
2.3318001457321577e7 2.3361641750429433e7 0.0
0.0 0.0 0.0

5.126838407682739e6 2.1002713326680776e7 0.0
2.1002713326680776e7 4.403180535314336e7 0.0
0.0 0.0 0.0

-1.210213101804719e6 2.2036071525996245e7 0.0
2.2036071525996245e7 -5.288568117288497e6 0.0
0.0 0.0 0.0

1.8575087841411228e6 2.7922844518644053e7 0.0
2.7922844518644053e7 -9.022508251123741e6 0.0
0.0 0.0 0.0

-3.3228307494246853e6 3.0315036935196795e7 0.0
3.0315036935196795e7 5.646501346499957e6 0.0
0.0 0.0 0.0

-1.618324237381586e6 2.2785073671981636e7 0.0
2.2785073671981636e7 -8.439827569553835e6 0.0
0.0 0.0 0.0

2.59357080830593e7 5.948664674889824e6 0.0
5.948664674889824e6 -2.0917697318608146e6 0.0
0.0 0.0 0.0

-5.415133591107026e6 -125045.91391141973 0.0
-125045.91391141973 6.683811543114173e7 0.0
0.0 0.0 0.0

1.1092500974649044e7 2.5858978698931523e7 0.0
2.5858978698931523e7 1.421036967231736e7 0.0
0.0 0.0 0.0

-6.155822552271567e6 -1.0073315546843328e6 0.0
-1.0073315546843328e6 5.662518490415881e7 0.0
0.0 0.0 0.0

-1.8815433653598132e6 2.3191411913597513e7 0.0
2.3191411913597513e7 -1.206050489362428e6 0.0
0.0 0.0 0.0

-6.412551461916007e6 1.1642048242622366e7 0.0
1.1642048242622366e7 3.480197779425179e7 0.0
0.0 0.0 0.0

-2.223144115265005e6 2.018759922731704e7 0.0
2.018759922731704e7 8.50215260017957e6 0.0
0.0 0.0 0.0

-1.1856532937538072e6 14779.910346878029 0.0
14779.910346878029 3.351663167098879e6 0.0
0.0 0.0 0.0

-1.166505310005853e6 1.110486294774961e6 0.0
1.110486294774961e6 3.2687677359408597e6 0.0
0.0 0.0 0.0

1.6897050517840022e6 2.471426173910668e7 0.0
2.471426173910668e7 -1.4763568758012138e7 0.0
0.0 0.0 0.0

-1.134688134367114e7 2.6225632258903723e7 0.0
2.6225632258903723e7 -5.242724002614697e6 0.0
0.0 0.0 0.0

2.081353470647784e6 2.5212091454900328e7 0.0
2.5212091454900328e7 -1.32039152679344e7 0.0
0.0 0.0 0.0

-8.607379586859219e6 1.2708382400880355e7 0.0
1.2708382400880355e7 3.8588902777770676e7 0.0
0.0 0.0 0.0

-3.6687351122279754e6 2.206103931926447e7 0.0
2.206103931926447e7 -1.8525450012478802e7 0.0
0.0 0.0 0.0

95179.88631753065 1.466725478087374e7 0.0
1.466725478087374e7 -3.65541072054895e7 0.0
0.0 0.0 0.0

-4.055649131727944e6 2.794758669303802e7 0.0
2.794758669303802e7 1.2034534224116124e7 0.0
0.0 0.0 0.0

733177.1859640125 1.5247567228570221e7 0.0
1.5247567228570221e7 -3.0254602500916902e7 0.0
0.0 0.0 0.0

-1.2574304890526253e8 4.38577193621278e7 0.0
4.38577193621278e7 -1.3011520727132719e7 0.0
0.0 0.0 0.0

611573.7886447525 2.0096733901664995e7 0.0
2.0096733901664995e7 -2.1557253966538318e7 0.0
0.0 0.0 0.0

-3.591036562677846e6 4.229757454293209e7 0.0
4.229757454293209e7 855275.3691083083 0.0
0.0 0.0 0.0

1.0689876919493375e6 2.2342127920328107e7 0.0
2.2342127920328107e7 6.844199272236386e6 0.0
0.0 0.0 0.0

-3.0640078553836495e6 2.209268287673112e7 0.0
2.209268287673112e7 2.7273643448954776e7 0.0
0.0 0.0 0.0

-5.866532561977501e6 2.508353758588439e7 0.0
2.508353758588439e7 -1.5685698222309953e7 0.0
0.0 0.0 0.0

1.9550134429635894e7 4.735427949421622e7 0.0
4.735427949421622e7 -5.895743346903432e6 0.0
0.0 0.0 0.0

-6.694878168874852e6 -1.4855711157853275e6 0.0
-1.4855711157853275e6 4.995165627845603e7 0.0
0.0 0.0 0.0

1.836813487092385e6 1.287941735157527e6 0.0
1.287941735157527e6 -5.000497732970953e7 0.0
0.0 0.0 0.0

1.0398522008817988e6 2.863286621993511e7 0.0
2.863286621993511e7 -6.522344151628661e6 0.0
0.0 0.0 0.0

-9.153357995547691e6 -1.7942460718519383e6 0.0
-1.7942460718519383e6 2.3219761061228305e7 0.0
0.0 0.0 0.0

1.358172949987162e6 1.4266027055287322e6 0.0
1.4266027055287322e6 -6.435363183121844e7 0.0
0.0 0.0 0.0

-5.548687736057308e6 -434617.2292260744 0.0
-434617.2292260744 6.4651415521616176e7 0.0
0.0 0.0 0.0

-7.575412721110353e6 -2.144065744305697e6 0.0
-2.144065744305697e6 3.83968969880066e7 0.0
0.0 0.0 0.0

-2.1962338179378016e6 2.2004008706275184e7 0.0
2.2004008706275184e7 -5.957656561918315e6 0.0
0.0 0.0 0.0

-6.567194739939321e6 -1.326637924408488e6 0.0
-1.326637924408488e6 5.147337462503504e7 0.0
0.0 0.0 0.0

1.7545917395224907e6 1.3541142205718549e6 0.0
1.3541142205718549e6 -5.184634208945287e7 0.0
0.0 0.0 0.0

1.472979371187076e6 1.4847992652837455e6 0.0
1.4847992652837455e6 -6.1977775984582394e7 0.0
0.0 0.0 0.0

-5.689365900893398e6 -710635.7509843623 0.0
-710635.7509843623 6.2530529749237694e7 0.0
0.0 0.0 0.0

-6.334974439410734e6 2.3253578498726007e7 0.0
2.3253578498726007e7 -1.746408825195883e7 0.0
0.0 0.0 0.0

1.4819937488370677e6 2.3941516485414412e7 0.0
2.3941516485414412e7 -1.61253744573176e7 0.0
0.0 0.0 0.0

-2.7268362031745496e6 3.06737409390209e7 0.0
3.06737409390209e7 6.214608600381225e6 0.0
0.0 0.0 0.0

1.4723004626125507e6 1.362206504234063e6 0.0
1.362206504234063e6 -6.028827047844956e7 0.0
0.0 0.0 0.0

-5.847369098975826e6 -884175.9920923013 0.0
-884175.9920923013 6.021470230827809e7 0.0
0.0 0.0 0.0

-1.398186521223018e6 2.2590409555693228e7 0.0
2.2590409555693228e7 -4.511505415400528e6 0.0
0.0 0.0 0.0

1.2030694384060595e6 1.6372400264777593e7 0.0
1.6372400264777593e7 -2.8530695174085632e7 0.0
0.0 0.0 0.0

612984.822572493 3.090446093565516e7 0.0
3.090446093565516e7 -3.2726767192399027e6 0.0
0.0 0.0 0.0

-2.3476111178703504e6 2.388111710803978e7 0.0
2.388111710803978e7 -113957.57848836074 0.0
0.0 0.0 0.0

-324039.3840703964 2.0886048874861296e7 0.0
2.0886048874861296e7 3.609718834213262e7 0.0
0.0 0.0 0.0

-6.0070133109447695e6 -907059.1666265038 0.0
-907059.1666265038 5.8279669279480994e7 0.0
0.0 0.0 0.0

1.5845997967311367e6 1.271984731389117e6 0.0
1.271984731389117e6 -5.7954770816864245e7 0.0
0.0 0.0 0.0

5.990032849771281e6 3.4436462273788296e7 0.0
3.4436462273788296e7 -5.751745958722635e6 0.0
0.0 0.0 0.0

5.277146499816932e6 2.0620945786365397e7 0.0
2.0620945786365397e7 5.777246077820051e7 0.0
0.0 0.0 0.0

9.816506710653222e7 9.95365571444295e7 0.0
9.95365571444295e7 -1.0409394329342823e7 0.0
0.0 0.0 0.0

-617528.0177119267 1.2738155752510633e7 0.0
1.2738155752510633e7 -9.067335336964892e6 0.0
0.0 0.0 0.0

-1.8841873986062554e6 3.4510187984353125e7 0.0
3.4510187984353125e7 2.0372963122674637e6 0.0
0.0 0.0 0.0

-9.933911757175151e6 1.3597042261699557e6 0.0
1.3597042261699557e6 1.7198927620364234e7 0.0
0.0 0.0 0.0

-2.5456343245820655e6 3.139375699047086e7 0.0
3.139375699047086e7 5.235624077298397e6 0.0
0.0 0.0 0.0

3.1236324303136896e6 2.444783648615901e6 0.0
2.444783648615901e6 -1.5350905962399628e7 0.0
0.0 0.0 0.0

1.4872252483706525e7 3.1231978351217233e7 0.0
3.1231978351217233e7 -4.575376315158231e6 0.0
0.0 0.0 0.0

4.610489471593089e6 2.936530931997823e7 0.0
2.936530931997823e7 -8.59599774560984e6 0.0
0.0 0.0 0.0

-5.733824236194409e6 1.969229470424669e7 0.0
1.969229470424669e7 2.0515201545765318e7 0.0
0.0 0.0 0.0

-2.0329203911778065e6 2.4088205178488348e7 0.0
2.4088205178488348e7 -1.6356866949202495e6 0.0
0.0 0.0 0.0

-3.632492340385113e6 1.2476327755300845e6 0.0
1.2476327755300845e6 7.9953000672569e7 0.0
0.0 0.0 0.0

-93884.25310922909 3.7885843369912156e6 0.0
3.7885843369912156e6 402815.60231378756 0.0
0.0 0.0 0.0

-5.471952144453861e6 -775713.8623468361 0.0
-775713.8623468361 2.250820438103943e6 0.0
0.0 0.0 0.0

292695.2777900178 -1.215108787792258e6 0.0
-1.215108787792258e6 -1.4651162430627868e6 0.0
0.0 0.0 0.0

5.5219643830199e6 2.9728211690267775e7 0.0
2.9728211690267775e7 -8.025809051088547e6 0.0
0.0 0.0 0.0

-8.1137333124001995e6 1.8092645599076252e7 0.0
1.8092645599076252e7 -6.468078081299792e7 0.0
0.0 0.0 0.0

6.450294411491038e6 2.0861472848141473e7 0.0
2.0861472848141473e7 3.923680427561344e7 0.0
0.0 0.0 0.0

-3.787546467017962e6 2.290569042375454e7 0.0
2.290569042375454e7 -1.4407587849892732e7 0.0
0.0 0.0 0.0

3.0409930847669486e6 1.7990758924992606e6 0.0
1.7990758924992606e6 -3.0300323689515103e7 0.0
0.0 0.0 0.0

-2.244622031119534e6 2.0703374110610515e7 0.0
2.0703374110610515e7 -5.436767164241896e6 0.0
0.0 0.0 0.0

459124.45990931336 2.3807875366452288e7 0.0
2.3807875366452288e7 -1.5210606457224736e7 0.0
0.0 0.0 0.0

-5.112770823625181e6 1.7560642756552722e7 0.0
1.7560642756552722e7 -4.6071118195282325e7 0.0
0.0 0.0 0.0

1.450030551278488e6 3.1887774280343574e7 0.0
3.1887774280343574e7 -3.8050738475339734e6 0.0
0.0 0.0 0.0

-2.8507004624650627e6 2.2438566669052653e7 0.0
2.2438566669052653e7 2.5295796378652226e7 0.0
0.0 0.0 0.0

-1.7877754164063851e6 2.1378680638696313e7 0.0
2.1378680638696313e7 -4.1513367123371228e6 0.0
0.0 0.0 0.0

640584.1415711297 2.354892449657299e7 0.0
2.354892449657299e7 3.7442258786968575e6 0.0
0.0 0.0 0.0

-7.53677084703465e6 1.9009951315601807e7 0.0
1.9009951315601807e7 -3.2209493485430464e7 0.0
0.0 0.0 0.0

-2.936945834266976e7 3.271959865152495e7 0.0
3.271959865152495e7 -9.869904924625518e6 0.0
0.0 0.0 0.0

1.760545006190879e7 5.172746898775469e7 0.0
5.172746898775469e7 -4.345849532223468e6 0.0
0.0 0.0 0.0

-3.5221401764267497e6 -1.3672581541193235e6 0.0
-1.3672581541193235e6 7.995491557137366e6 0.0
0.0 0.0 0.0

-3.0966885048224595e6 -2.3401136477671927e6 0.0
-2.3401136477671927e6 7.410684053572878e6 0.0
0.0 0.0 0.0

-3.220890950195102e6 2.3618959078745462e7 0.0
2.3618959078745462e7 2.2141361120794334e7 0.0
0.0 0.0 0.0

-421555.468154656 2.750874842066926e7 0.0
2.750874842066926e7 -6.933296098038243e6 0.0
0.0 0.0 0.0

-1.3116262558346582e6 3.583078936895086e7 0.0
3.583078936895086e7 1.6592725574764314e6 0.0
0.0 0.0 0.0

-2.2950095798252197e6 3.204479240589147e7 0.0
3.204479240589147e7 4.307279397897825e6 0.0
0.0 0.0 0.0

1.6312503789723031e7 2.517677152537112e7 0.0
2.517677152537112e7 1.258901182450402e7 0.0
0.0 0.0 0.0

4.570912010203484e6 2.537636168107908e7 0.0
2.537636168107908e7 -4.698851849985231e6 0.0
0.0 0.0 0.0

7.789198852302145e6 2.0245497508342147e7 0.0
2.0245497508342147e7 6.443787899080114e7 0.0
0.0 0.0 0.0

-5.5027164390587755e7 3.4013357136876635e7 0.0
3.4013357136876635e7 -1.9448408583245244e7 0.0
0.0 0.0 0.0

-1.3357331745694876e8 4.946001320366422e7 0.0
4.946001320366422e7 1.3261119627875388e6 0.0
0.0 0.0 0.0

-5.796069884838655e6 1.868322699141215e7 0.0
1.868322699141215e7 1.828357956433197e7 0.0
0.0 0.0 0.0

-2.0908689237266593e6 2.4464425407144554e7 0.0
2.4464425407144554e7 1.87525045636813e7 0.0
0.0 0.0 0.0

2.3275834643625803e6 5.2624483244854435e6 0.0
5.2624483244854435e6 -2.780224367085204e7 0.0
0.0 0.0 0.0

-5.532868595693607e6 1.9741096826561127e7 0.0
1.9741096826561127e7 2.5517379412036315e7 0.0
0.0 0.0 0.0

-7.763635930764658e6 -4.3097641021097265e6 0.0
-4.3097641021097265e6 2.1983581222040802e7 0.0
0.0 0.0 0.0

1.2984090802412057e7 2.6740285014502104e7 0.0
2.6740285014502104e7 1.481169299887827e7 0.0
0.0 0.0 0.0

-3.7376812837629374e6 1.7989879847536813e7 0.0
1.7989879847536813e7 -4.392782180849272e7 0.0
0.0 0.0 0.0

2.7523410509571265e6 4.585685195890737e6 0.0
4.585685195890737e6 -3.546047283413782e7 0.0
0.0 0.0 0.0

7.940482106422033e6 2.4130431320195682e7 0.0
2.4130431320195682e7 8.204418458800242e6 0.0
0.0 0.0 0.0

-296394.37449137866 5.2759733194975965e6 0.0
5.2759733194975965e6 1.0157907485478766e8 0.0
0.0 0.0 0.0

-5.481233673727807e6 3.3364419580644734e7 0.0
3.3364419580644734e7 6.857745675259609e6 0.0
0.0 0.0 0.0

-2.0142413782445785e7 2.8801717698318016e7 0.0
2.8801717698318016e7 -190789.6348243188 0.0
0.0 0.0 0.0

3.195079684525672e6 2.7867855762604136e7 0.0
2.7867855762604136e7 -1.0183063853932664e7 0.0
0.0 0.0 0.0

-7.810247959015345e6 -2.5910584187772656e6 0.0
-2.5910584187772656e6 3.4913151908183426e7 0.0
0.0 0.0 0.0

999396.72724506 2.1839986196871947e7 0.0
2.1839986196871947e7 8.083190477307872e6 0.0
0.0 0.0 0.0

-6.9348480813270565e6 -1.747264035156579e6 0.0
-1.747264035156579e6 4.5721634978613704e7 0.0
0.0 0.0 0.0

8.006589575393375e6 2.5279946345316257e7 0.0
2.5279946345316257e7 8.179210473326571e6 0.0
0.0 0.0 0.0

-1.6260240172753031e6 2.6308183950985312e7 0.0
2.6308183950985312e7 1.8286004912195182e6 0.0
0.0 0.0 0.0

2.7440499835052565e6 2.8358492517150687e6 0.0
2.8358492517150687e6 -3.944069116498668e7 0.0
0.0 0.0 0.0

-6.337025904347327e6 2.398762213064563e7 0.0
2.398762213064563e7 -1.6846467182618115e7 0.0
0.0 0.0 0.0

3.094881867587691e6 1.947749571265907e6 0.0
1.947749571265907e6 -2.7092022823116492e7 0.0
0.0 0.0 0.0

109303.6713511236 1.950603582675869e7 0.0
1.950603582675869e7 -2.5460155144145727e7 0.0
0.0 0.0 0.0

-7.239292142732977e6 4.134515510393749e7 0.0
4.134515510393749e7 3.146565376508428e6 0.0
0.0 0.0 0.0

-356711.75433794624 1.9358805215438865e7 0.0
1.9358805215438865e7 -296791.8709885294 0.0
0.0 0.0 0.0

1.3045274831685764e6 2.7292988212723665e7 0.0
2.7292988212723665e7 -1.0585042223775575e7 0.0
0.0 0.0 0.0

-5.180707744492086e6 3.910769972051874e7 0.0
3.910769972051874e7 2.380973729081746e6 0.0
0.0 0.0 0.0

-2.798375808368398e6 2.9978783254435085e7 0.0
2.9978783254435085e7 7.3794323846198e6 0.0
0.0 0.0 0.0

-2.9903726472366108e6 3.1598780796195127e7 0.0
3.1598780796195127e7 3.591512570034598e6 0.0
0.0 0.0 0.0

292277.9622908129 3.9289079727307595e7 0.0
3.9289079727307595e7 -1.2003068490374633e6 0.0
0.0 0.0 0.0

1.7483502238098374e6 2.626369316008398e7 0.0
2.626369316008398e7 -1.1467808698390171e7 0.0
0.0 0.0 0.0

-4.388600013355746e6 4.346843582425492e7 0.0
4.346843582425492e7 1.1716991848416207e6 0.0
0.0 0.0 0.0

-9.10515771147224e6 1.5118566532914393e7 0.0
1.5118566532914393e7 2.1332365683960006e7 0.0
0.0 0.0 0.0

746711.0893573407 1.5854032289941529e7 0.0
1.5854032289941529e7 -1.9863610017594818e7 0.0
0.0 0.0 0.0

-9.650830507319752e6 700392.4815102788 0.0
700392.4815102788 2.8871830762861196e7 0.0
0.0 0.0 0.0

-1.4576859957540866e7 3.100732264217282e7 0.0
3.100732264217282e7 4.477847514533168e6 0.0
0.0 0.0 0.0

-6.123104591954239e6 1.687711209234283e6 0.0
1.687711209234283e6 6.009654061129157e7 0.0
0.0 0.0 0.0

5.526355859329272e6 3.584985203809131e7 0.0
3.584985203809131e7 -5.1731566642575655e6 0.0
0.0 0.0 0.0

489619.7180647738 1.9491182600267723e7 0.0
1.9491182600267723e7 -2.5461672584495343e7 0.0
0.0 0.0 0.0

2.0251781687953218e6 2.417443798481914e7 0.0
2.417443798481914e7 9.820042196197405e6 0.0
0.0 0.0 0.0

-995789.0632206844 1.9084701528684378e7 0.0
1.9084701528684378e7 -1.1805068255477833e7 0.0
0.0 0.0 0.0

-278594.0034606494 1.6360969371092863e7 0.0
1.6360969371092863e7 -3.638436491906213e7 0.0
0.0 0.0 0.0

2.900966350145366e6 3.9986112845408632e6 0.0
3.9986112845408632e6 -1.8873715206109226e7 0.0
0.0 0.0 0.0

6.627244286192341e6 2.9930519032891378e7 0.0
2.9930519032891378e7 -7.441702913145898e6 0.0
0.0 0.0 0.0

121308.11759340996 2.3376082655596342e7 0.0
2.3376082655596342e7 7.72223479545911e6 0.0
0.0 0.0 0.0

-2.3077941608599597e6 2.3227296941607118e7 0.0
2.3227296941607118e7 -1.5215675547227103e6 0.0
0.0 0.0 0.0

1.1520766721966863e6 1.4841942505387783e6 0.0
1.4841942505387783e6 -6.979575424075213e7 0.0
0.0 0.0 0.0

-1.0074142267575229e7 6.8137429781493675e6 0.0
6.8137429781493675e6 2.8849391881055553e7 0.0
0.0 0.0 0.0

756454.3074954934 4.3000342175534535e6 0.0
4.3000342175534535e6 -6.958555918421538e7 0.0
0.0 0.0 0.0

-8.36297659942992e6 -3.2674641301668985e6 0.0
-3.2674641301668985e6 2.691880187836485e7 0.0
0.0 0.0 0.0

-2.0771605338404535e6 2.62149729136752e7 0.0
2.62149729136752e7 100583.09902420943 0.0
0.0 0.0 0.0

-585304.8577702481 2.3475984051879343e7 0.0
2.3475984051879343e7 4.493682736985754e6 0.0
0.0 0.0 0.0

1.2225372666862933e6 2.3809553167933535e7 0.0
2.3809553167933535e7 7.050574570141674e6 0.0
0.0 0.0 0.0

-5.079340259750321e6 1.8353771348772112e7 0.0
1.8353771348772112e7 2.098302734622276e7 0.0
0.0 0.0 0.0

-7.476351431150133e6 -1.9089984687198144e6 0.0
-1.9089984687198144e6 3.931158139150932e7 0.0
0.0 0.0 0.0

8.143690747298296e6 3.22989414163465e7 0.0
3.22989414163465e7 -6.403116002411091e6 0.0
0.0 0.0 0.0

8.007463984206187e6 2.432082557227729e7 0.0
2.432082557227729e7 1.803067651910004e7 0.0
0.0 0.0 0.0

1.6181451289432812e6 9.560721341286052e6 0.0
9.560721341286052e6 -3.1119969489573058e7 0.0
0.0 0.0 0.0

-7.549719259003252e6 -222045.0574348558 0.0
-222045.0574348558 4.190376089469699e7 0.0
0.0 0.0 0.0

5.506055302316982e6 2.4747192435331885e7 0.0
2.4747192435331885e7 1.4335909919578424e7 0.0
0.0 0.0 0.0

-53908.341884132475 1.858634896030929e7 0.0
1.858634896030929e7 5.15492185017265e7 0.0
0.0 0.0 0.0

9.254471181129389e6 2.5964951074195076e7 0.0
2.5964951074195076e7 1.4429868655494908e7 0.0
0.0 0.0 0.0

-6.926359914379096e6 1.7517418909998666e7 0.0
1.7517418909998666e7 -6.0539005573046446e7 0.0
0.0 0.0 0.0

-1.5478053431288376e6 2.1863246166283842e7 0.0
2.1863246166283842e7 3.041434168353886e7 0.0
0.0 0.0 0.0

2.60282455673517e6 2.1309942068394653e7 0.0
2.1309942068394653e7 2.455094930304975e7 0.0
0.0 0.0 0.0

2.860471304648635e6 2.581532360134465e7 0.0
2.581532360134465e7 -1.256527553850933e7 0.0
0.0 0.0 0.0

-4.0964049293238646e6 2.4663066764845576e7 0.0
2.4663066764845576e7 -7.306304947450646e6 0.0
0.0 0.0 0.0

245333.103197122 9.260631770263959e6 0.0
9.260631770263959e6 -5.06518167324775e7 0.0
0.0 0.0 0.0

313577.81420273706 8.292086012307874e6 0.0
8.292086012307874e6 -5.33403864323239e7 0.0
0.0 0.0 0.0

-20819.10214225948 1.865276241984675e7 0.0
1.865276241984675e7 -1.1124980512466498e7 0.0
0.0 0.0 0.0

-4.693324953073865e6 1.9133289812659685e7 0.0
1.9133289812659685e7 3.517380396306577e7 0.0
0.0 0.0 0.0

1.2938218091240441e6 2.3923692360080004e7 0.0
2.3923692360080004e7 -1.6058726289062979e7 0.0
0.0 0.0 0.0

-3.9511216711423583e6 4.419852487706325e6 0.0
4.419852487706325e6 7.650344145166616e7 0.0
0.0 0.0 0.0

-4.622155487148039e6 1.7045569544852346e7 0.0
1.7045569544852346e7 -5.364873693983981e7 0.0
0.0 0.0 0.0

2.753451609794166e6 1.749667532190074e7 0.0
1.749667532190074e7 6.324796713252106e7 0.0
0.0 0.0 0.0

1.2596160671761744e6 1.582155829963722e6 0.0
1.582155829963722e6 -6.697883892695819e7 0.0
0.0 0.0 0.0

2.1990403208284783e6 2.759229958422751e7 0.0
2.759229958422751e7 -1.0338600000660362e7 0.0
0.0 0.0 0.0

7.630260173783518e6 2.560404123355031e7 0.0
2.560404123355031e7 1.4924432035439573e7 0.0
0.0 0.0 0.0

-8.727834100180881e6 1.9218992883995313e7 0.0
1.9218992883995313e7 -5.5568003941116616e7 0.0
0.0 0.0 0.0

1.4386866574480135e7 1.1951766039012067e7 0.0
1.1951766039012067e7 1.3245542680661976e6 0.0
0.0 0.0 0.0

-2.6755212480791635e6 2.375603491709725e7 0.0
2.375603491709725e7 -9.01373614407673e6 0.0
0.0 0.0 0.0

6.434893857208526e6 2.5061672984548464e7 0.0
2.5061672984548464e7 1.5505579573031994e7 0.0
0.0 0.0 0.0

-2.725418196073125e6 2.5748246786134113e7 0.0
2.5748246786134113e7 1.304321615629299e7 0.0
0.0 0.0 0.0

-2.37721683041655e6 2.430675173553878e7 0.0
2.430675173553878e7 1.9150117786774244e7 0.0
0.0 0.0 0.0

339102.40625690017 1.4292760202661121e7 0.0
1.4292760202661121e7 -1.7357758070832934e7 0.0
0.0 0.0 0.0

-6.954375264095552e6 1.8268397442060802e7 0.0
1.8268397442060802e7 3.238315396878119e7 0.0
0.0 0.0 0.0

-5.842439911212115e6 1.7027466509218913e7 0.0
1.7027466509218913e7 -5.63505993212625e7 0.0
0.0 0.0 0.0

-3.1670174893267257e6 2.3592382302819505e7 0.0
2.3592382302819505e7 -1.3438398616830805e7 0.0
0.0 0.0 0.0

-7.512559008114977e6 2.7020890544120226e7 0.0
2.7020890544120226e7 6.941107975512566e6 0.0
0.0 0.0 0.0

253192.94754283084 1.2682995350458276e7 0.0
1.2682995350458276e7 -9.610949113377407e6 0.0
0.0 0.0 0.0

-3.3135315979074687e6 6.930465060897455e6 0.0
6.930465060897455e6 9.911989323976566e7 0.0
0.0 0.0 0.0

-9.688992167452175e6 1.8769973974586397e7 0.0
1.8769973974586397e7 -6.938800573135686e7 0.0
0.0 0.0 0.0

-335640.86323252507 2.0685028069436185e7 0.0
2.0685028069436185e7 3.58507581860116e7 0.0
0.0 0.0 0.0

-1.776564534070526e6 3.66416758476127e7 0.0
3.66416758476127e7 255598.17910180578 0.0
0.0 0.0 0.0

2.3676297685203053e7 2.54580857901578e7 0.0
2.54580857901578e7 9.080676191486508e6 0.0
0.0 0.0 0.0

2.0670038593976256e6 2.0245594245714534e7 0.0
2.0245594245714534e7 4.6446980057163864e7 0.0
0.0 0.0 0.0

-3.1452942969389204e6 2.3307428053102233e7 0.0
2.3307428053102233e7 2.208280420041352e7 0.0
0.0 0.0 0.0

416129.324115864 1.7104411336052984e7 0.0
1.7104411336052984e7 -1.931252150623556e7 0.0
0.0 0.0 0.0

-3.8488063487464543e6 2.2511473694325116e7 0.0
2.2511473694325116e7 -1.5451623418794684e7 0.0
0.0 0.0 0.0

-4.236763997601542e6 2.1505697782099918e7 0.0
2.1505697782099918e7 1.76596656998882e7 0.0
0.0 0.0 0.0

-4.307342451314486e6 2.00140332229632e7 0.0
2.00140332229632e7 2.0974414645415105e7 0.0
0.0 0.0 0.0

2.1882921699958816e6 2.79471824304851e6 0.0
2.79471824304851e6 -3.643439683876674e7 0.0
0.0 0.0 0.0

-4.41911055290739e6 2.884854551751536e7 0.0
2.884854551751536e7 1.1214689613471903e7 0.0
0.0 0.0 0.0

-2.145525893668214e6 1.974128057619717e7 0.0
1.974128057619717e7 -3.585439405063404e6 0.0
0.0 0.0 0.0

3.491385667893419e6 3.20113523206775e6 0.0
3.20113523206775e6 -2.5852977726301182e7 0.0
0.0 0.0 0.0

3.7330508682920765e6 3.452984156380398e7 0.0
3.452984156380398e7 -5.248360309186661e6 0.0
0.0 0.0 0.0

8.77690601012668e6 2.5640308657720584e7 0.0
2.5640308657720584e7 1.5966786231242742e7 0.0
0.0 0.0 0.0

-5.033812072194517e6 2.824311261734865e6 0.0
2.824311261734865e6 6.743594957151797e7 0.0
0.0 0.0 0.0

1.2181749944461163e7 2.730080327178229e7 0.0
2.730080327178229e7 1.4474268491256103e7 0.0
0.0 0.0 0.0

8.3623211785137225e6 2.567761414030264e7 0.0
2.567761414030264e7 1.1380881209522793e7 0.0
0.0 0.0 0.0

152339.9201506721 2.2769311331383657e7 0.0
2.2769311331383657e7 -1.5828191501249025e7 0.0
0.0 0.0 0.0

1.7193701341820043e6 2.930187552480237e6 0.0
2.930187552480237e6 -4.86683492396216e7 0.0
0.0 0.0 0.0

4.379369383752794e6 2.0218990708758883e7 0.0
2.0218990708758883e7 1.654403189978816e7 0.0
0.0 0.0 0.0

880866.056679708 2.3313220748706672e7 0.0
2.3313220748706672e7 -1.4216261556992067e7 0.0
0.0 0.0 0.0

2.126751344762738e6 2.3774763870104615e7 0.0
2.3774763870104615e7 1.1361802797064861e7 0.0
0.0 0.0 0.0

-1.0636370747606467e7 9.070502851291766e6 0.0
9.070502851291766e6 2.25928369234898e7 0.0
0.0 0.0 0.0

-7.843188816256182e6 -3.6099881573715373e6 0.0
-3.6099881573715373e6 2.5879495430124447e7 0.0
0.0 0.0 0.0

-5.992663877945427e6 2.624554001669622e7 0.0
2.624554001669622e7 4.679885374297677e6 0.0
0.0 0.0 0.0

391256.98686405085 1.7048670416499436e7 0.0
1.7048670416499436e7 -3.080443457775504e7 0.0
0.0 0.0 0.0

-4.705357444866205e6 2.163316123030802e7 0.0
2.163316123030802e7 -2.026482973890614e7 0.0
0.0 0.0 0.0

-3.5568542086208276e6 3.160784877223492e6 0.0
3.160784877223492e6 9.592311831241111e7 0.0
0.0 0.0 0.0

-5.682480044818501e6 4.4753806703607164e7 0.0
4.4753806703607164e7 1.403770624079738e6 0.0
0.0 0.0 0.0

481058.79998866573 6.355419039395686e6 0.0
6.355419039395686e6 -2.2706085246989196e6 0.0
0.0 0.0 0.0

-1.67402174316575e6 2.3714109733169798e7 0.0
2.3714109733169798e7 1.507137410622266e6 0.0
0.0 0.0 0.0

4.597957132443991e6 2.471868463656263e7 0.0
2.471868463656263e7 1.4155637211064829e7 0.0
0.0 0.0 0.0

-5.251851061167231e6 1.9654440520871475e7 0.0
1.9654440520871475e7 3.106524604802137e7 0.0
0.0 0.0 0.0

-1.6712703061479354e7 3.0380512466138825e7 0.0
3.0380512466138825e7 2.4063308626467306e6 0.0
0.0 0.0 0.0

6.387889229913859e6 2.5677572892029863e7 0.0
2.5677572892029863e7 1.2307880607793052e7 0.0
0.0 0.0 0.0

3.7512199251311906e6 2.5392538921596535e7 0.0
2.5392538921596535e7 1.3335005114068009e7 0.0
0.0 0.0 0.0

745197.1585800685 2.2008809686633155e7 0.0
2.2008809686633155e7 -2.0587931219696477e7 0.0
0.0 0.0 0.0

1.941715908456563e6 5.689603582258387e6 0.0
5.689603582258387e6 -1.4287837605984e7 0.0
0.0 0.0 0.0

-1.0006451775708338e6 2.2782006406300973e7 0.0
2.2782006406300973e7 -1.823110089512161e7 0.0
0.0 0.0 0.0

1.227782263675509e6 2.5600230710286167e7 0.0
2.5600230710286167e7 -1.2928469501129054e7 0.0
0.0 0.0 0.0

-2.27060946471142e6 2.8931466754959404e7 0.0
2.8931466754959404e7 6.6140408155102795e6 0.0
0.0 0.0 0.0

3.461288229866637e6 2.6966810135368373e7 0.0
2.6966810135368373e7 -1.0432643439249216e7 0.0
0.0 0.0 0.0

2.5488387243241617e6 2.5934751324219946e7 0.0
2.5934751324219946e7 -1.1506517860488512e7 0.0
0.0 0.0 0.0

2.245571913217794e6 4.123001165352644e6 0.0
4.123001165352644e6 -4.3592981765629336e7 0.0
0.0 0.0 0.0

4.549974566824822e6 2.480475336016188e7 0.0
2.480475336016188e7 8.859351211650744e6 0.0
0.0 0.0 0.0

1.2551040857417528e6 2.6407455050460912e7 0.0
2.6407455050460912e7 -1.168099669445809e7 0.0
0.0 0.0 0.0

-8.642076524792163e6 1.6622311213035634e7 0.0
1.6622311213035634e7 2.6459698765136875e7 0.0
0.0 0.0 0.0

-1.1085904613182053e8 3.4533736961429164e7 0.0
3.4533736961429164e7 -1.9840052532616116e7 0.0
0.0 0.0 0.0

3.587664388714145e7 3.3258475524432547e7 0.0
3.3258475524432547e7 1.1958904712029001e8 0.0
0.0 0.0 0.0

-3.595244975596681e7 3.1716016319201566e7 0.0
3.1716016319201566e7 -1.1984173167935602e8 0.0
0.0 0.0 0.0

-2.7904544314013645e6 2.196771962498314e7 0.0
2.196771962498314e7 2.7147778229901742e7 0.0
0.0 0.0 0.0

730768.7977467049 1.6624126258525742e7 0.0
1.6624126258525742e7 -2.6774479877247073e7 0.0
0.0 0.0 0.0

-4.816884896298243e6 2.366472301017019e7 0.0
2.366472301017019e7 -1.5930232380952574e7 0.0
0.0 0.0 0.0

4.245316926935312e6 4.55238436739686e7 0.0
4.55238436739686e7 -2.9683182376806736e6 0.0
0.0 0.0 0.0

-2.5989633232551953e6 2.050895658667123e7 0.0
2.050895658667123e7 -2.5570842748445608e7 0.0
0.0 0.0 0.0

-6.443427443365592e6 2.4776860021772537e7 0.0
2.4776860021772537e7 -9.859104042531062e6 0.0
0.0 0.0 0.0

-7.282987986155475e6 1.8593544628759265e7 0.0
1.8593544628759265e7 2.698988997934874e7 0.0
0.0 0.0 0.0

-183093.89524659514 3.0086466510469425e7 0.0
3.0086466510469425e7 -1.7699975680130883e6 0.0
0.0 0.0 0.0

-3.982333742843859e6 1.8890751929912504e7 0.0
1.8890751929912504e7 -4.038822464850736e7 0.0
0.0 0.0 0.0

-2.7813851999720833e6 2.356668733437128e7 0.0
2.356668733437128e7 -8.91678934134297e6 0.0
0.0 0.0 0.0

-3.4187179739709664e6 2.576928976735795e7 0.0
2.576928976735795e7 1.4126532348494068e7 0.0
0.0 0.0 0.0

2.3616550556108e7 2.6278162213937834e7 0.0
2.6278162213937834e7 1.8400516334012663e6 0.0
0.0 0.0 0.0

1.9306376143021467e6 2.303548253415481e7 0.0
2.303548253415481e7 8.540099967297208e6 0.0
0.0 0.0 0.0

-3.284153565517965e6 2.2680510117257677e7 0.0
2.2680510117257677e7 2.377594200515777e7 0.0
0.0 0.0 0.0

-2.4793565353516843e7 2.889921304382133e7 0.0
2.889921304382133e7 -3.1368795180611275e6 0.0
0.0 0.0 0.0

1.1998487730187003e6 2.3430542920451723e7 0.0
2.3430542920451723e7 8.496459133414354e6 0.0
0.0 0.0 0.0

4.60324654352184e6 3.520208183059993e7 0.0
3.520208183059993e7 -5.047284518153918e6 0.0
0.0 0.0 0.0

1.2998565586048253e7 3.186463530376416e7 0.0
3.186463530376416e7 -5.5557325488721365e6 0.0
0.0 0.0 0.0

1.4074192734255325e6 1.5870802161431123e7 0.0
1.5870802161431123e7 -2.0194601362554543e7 0.0
0.0 0.0 0.0

-2.3199829632101096e6 2.0393759773872383e7 0.0
2.0393759773872383e7 3.459701789214096e7 0.0
0.0 0.0 0.0

-196305.79084591102 2.147946557444446e7 0.0
2.147946557444446e7 -2.1337014822451763e7 0.0
0.0 0.0 0.0

-2.0765923822800429e6 2.0910307828213826e7 0.0
2.0910307828213826e7 6.698753423626883e6 0.0
0.0 0.0 0.0

-4.79865678023442e6 2.1299342248876672e7 0.0
2.1299342248876672e7 2.049188609454876e7 0.0
0.0 0.0 0.0

1.8380968667385126e6 8.193420671376294e6 0.0
8.193420671376294e6 -1.0359297862722928e7 0.0
0.0 0.0 0.0

2.0519899347304231e6 2.182065044964352e7 0.0
2.182065044964352e7 1.246407140765636e7 0.0
0.0 0.0 0.0

7.937051538740935e6 3.0970669721861657e7 0.0
3.0970669721861657e7 -6.793632180349792e6 0.0
0.0 0.0 0.0

-2.0277832164958268e6 1.2720683546014046e7 0.0
1.2720683546014046e7 -7.796639677796538e7 0.0
0.0 0.0 0.0

-9.037635070809232e6 1.6034626743547792e7 0.0
1.6034626743547792e7 2.561692808977492e7 0.0
0.0 0.0 0.0

2.7243301745335482e7 4.9063893692898095e7 0.0
4.9063893692898095e7 -6.776496926548172e6 0.0
0.0 0.0 0.0

1.3603847724304236e6 8.594601329254908e6 0.0
8.594601329254908e6 -4.971498929480128e7 0.0
0.0 0.0 0.0

1.247454668466873e6 2.1767178491077546e7 0.0
2.1767178491077546e7 9.852681140852246e6 0.0
0.0 0.0 0.0

4.3815804969481435e6 2.8345095155851144e7 0.0
2.8345095155851144e7 -9.40342931181375e6 0.0
0.0 0.0 0.0

1.6924488852808215e7 2.6794931192596126e7 0.0
2.6794931192596126e7 1.638439695897059e8 0.0
0.0 0.0 0.0

-1.748694372624302e7 2.6345269902690616e7 0.0
2.6345269902690616e7 -1.5944588785245076e8 0.0
0.0 0.0 0.0

3.555369234240067e7 2.371344505542473e7 0.0
2.371344505542473e7 7.426901270828461e6 0.0
0.0 0.0 0.0

1.4993977900157249e7 3.1067227560036123e7 0.0
3.1067227560036123e7 -4.8687662947136e6 0.0
0.0 0.0 0.0

261606.13843926135 1.199076270676425e7 0.0
1.199076270676425e7 -8.413183776498066e6 0.0
0.0 0.0 0.0

2.73909673448127e7 4.366587012330382e7 0.0
4.366587012330382e7 -6.861543651664369e6 0.0
0.0 0.0 0.0

-182355.28012838867 2.3023255780123528e7 0.0
2.3023255780123528e7 2.408440082310063e7 0.0
0.0 0.0 0.0

1.951036045863102e7 2.5838068013940215e7 0.0
2.5838068013940215e7 1.8475074249659078e6 0.0
0.0 0.0 0.0

-3.313315525807948e6 2.806806207974007e7 0.0
2.806806207974007e7 9.154625546427596e6 0.0
0.0 0.0 0.0

-4.0428828182403697e6 1.9091684856323287e7 0.0
1.9091684856323287e7 1.896086828281225e7 0.0
0.0 0.0 0.0

-780688.7175568859 4.0353691169505357e6 0.0
4.0353691169505357e6 -2.4363448585855276e6 0.0
0.0 0.0 0.0

9.421747997079074e6 2.509989070221804e7 0.0
2.509989070221804e7 1.661920330808665e7 0.0
0.0 0.0 0.0

1.2300983046200974e6 3.0021043493142314e7 0.0
3.0021043493142314e7 -6.832204031940857e6 0.0
0.0 0.0 0.0

-2.6724426641332563e6 2.161057682698251e7 0.0
2.161057682698251e7 2.9070424184253823e7 0.0
0.0 0.0 0.0

-6.049391135381992e6 2.9255408837333843e7 0.0
2.9255408837333843e7 1.0407233957355326e7 0.0
0.0 0.0 0.0

-2.5313976336535676e6 2.75533024864228e7 0.0
2.75533024864228e7 1.0104121632192507e7 0.0
0.0 0.0 0.0

-2.9083178780540875e6 2.1271782598834585e7 0.0
2.1271782598834585e7 -7.560111811020387e6 0.0
0.0 0.0 0.0

119242.41657158174 2.0455345979482662e7 0.0
2.0455345979482662e7 3.8095456946825616e7 0.0
0.0 0.0 0.0

-3.21564710973308e6 2.8515411643908385e7 0.0
2.8515411643908385e7 1.0582130342432689e7 0.0
0.0 0.0 0.0

-3.8617215272598695e6 1.51355230337341e7 0.0
1.51355230337341e7 1.1778902964456875e7 0.0
0.0 0.0 0.0

-4.926492212023471e7 3.780770901370693e7 0.0
3.780770901370693e7 -9.186012068891581e6 0.0
0.0 0.0 0.0

-4.702460508792657e6 5.84707503078827e6 0.0
5.84707503078827e6 6.731268101345532e7 0.0
0.0 0.0 0.0

-8.345139780945364e6 2.9693244833476115e7 0.0
2.9693244833476115e7 8.458780917795137e6 0.0
0.0 0.0 0.0

-9.310568626968825e6 3.59616223106346e7 0.0
3.59616223106346e7 6.166458496275816e6 0.0
0.0 0.0 0.0

-1.9333905455373581e6 1.8255843898252066e7 0.0
1.8255843898252066e7 -3.5826751493818715e7 0.0
0.0 0.0 0.0

-2.7165709185088747e6 4.076424852054978e7 0.0
4.076424852054978e7 1.7220455337736467e6 0.0
0.0 0.0 0.0

-7.533054889108282e6 4.6313375678571336e7 0.0
4.6313375678571336e7 1.491184606276656e6 0.0
0.0 0.0 0.0

-9.523080948301692e6 4.781643662068252e7 0.0
4.781643662068252e7 2.0532435826767678e6 0.0
0.0 0.0 0.0

308955.80451018945 3.2915628456302837e7 0.0
3.2915628456302837e7 -3.3464565277309557e6 0.0
0.0 0.0 0.0

-7.327961025287399e6 1.5208331514539639e7 0.0
1.5208331514539639e7 3.818560218744569e7 0.0
0.0 0.0 0.0

2.324940468519928e6 1.3772688334862436e6 0.0
1.3772688334862436e6 -4.064514566713365e7 0.0
0.0 0.0 0.0

-1.17078977128876e6 2.1523679075257085e7 0.0
2.1523679075257085e7 3.2095893388215348e7 0.0
0.0 0.0 0.0

4.032629926821209e6 3.634879797048124e7 0.0
3.634879797048124e7 -4.408696003330774e6 0.0
0.0 0.0 0.0

-48708.954230768606 1.8896397087924723e7 0.0
1.8896397087924723e7 -2.7187164742527667e7 0.0
0.0 0.0 0.0

-6.604622445709933e6 609539.3630935571 0.0
609539.3630935571 5.3021633616416454e7 0.0
0.0 0.0 0.0

409826.1778313806 2.3206686286174364e7 0.0
2.3206686286174364e7 1.8419586909109948e6 0.0
0.0 0.0 0.0

1.4613431950127222e6 2.3910410832614973e7 0.0
2.3910410832614973e7 -1.2909216149738213e7 0.0
0.0 0.0 0.0

-450159.7910704408 2.2213444176439077e7 0.0
2.2213444176439077e7 -1.7396624400867272e7 0.0
0.0 0.0 0.0

-5.008690088628811e6 1.952184650413219e7 0.0
1.952184650413219e7 -1.7972398386965502e7 0.0
0.0 0.0 0.0

-9.117604675901547e6 -1.517500387381528e6 0.0
-1.517500387381528e6 2.4415193467712667e7 0.0
0.0 0.0 0.0

-494071.2213508365 2.1584142096829418e7 0.0
2.1584142096829418e7 -2.741417971623285e6 0.0
0.0 0.0 0.0

4.419948667766929e6 2.3653018293636e7 0.0
2.3653018293636e7 8.006034702497388e6 0.0
0.0 0.0 0.0

2.5759844253976498e7 2.437941925848422e7 0.0
2.437941925848422e7 1.0219141743173812e7 0.0
0.0 0.0 0.0

-1.0616731153716907e7 5.0439087955776356e7 0.0
5.0439087955776356e7 3.102609718671344e6 0.0
0.0 0.0 0.0

-4.219681883500765e6 1.955252142797839e7 0.0
1.955252142797839e7 2.0105207037060376e7 0.0
0.0 0.0 0.0

-1.3089387770808607e7 2.0748938173935108e7 0.0
2.0748938173935108e7 -7.76081514684712e7 0.0
0.0 0.0 0.0

2.0119397231674362e6 7.58448365206803e6 0.0
7.58448365206803e6 -4.142409294061616e7 0.0
0.0 0.0 0.0

-7.745352024339139e6 -2.4398854953425624e6 0.0
-2.4398854953425624e6 3.5365010301941276e7 0.0
0.0 0.0 0.0

-2.6539899807097618e7 3.254683935815201e7 0.0
3.254683935815201e7 -1.2456939836072057e7 0.0
0.0 0.0 0.0

-2.5316105743152205e7 2.9400092020817053e7 0.0
2.9400092020817053e7 -6.014995887524672e6 0.0
0.0 0.0 0.0

-2.88991142851763e6 2.189926158476221e7 0.0
2.189926158476221e7 -9.541908076477626e6 0.0
0.0 0.0 0.0

1.2765077705857882e6 3.5629160837671064e7 0.0
3.5629160837671064e7 -3.0763751977765015e6 0.0
0.0 0.0 0.0

-712457.328498207 7.172682597903281e6 0.0
7.172682597903281e6 -7.385368908202897e7 0.0
0.0 0.0 0.0

1.2251641049887743e7 2.7256566705259115e7 0.0
2.7256566705259115e7 -2.9015746925975457e6 0.0
0.0 0.0 0.0

8.609557197394315e6 2.626892021652791e7 0.0
2.626892021652791e7 1.3807342265854381e7 0.0
0.0 0.0 0.0

1.3887700125843752e6 1.6400540464843867e7 0.0
1.6400540464843867e7 -2.6472481130928546e7 0.0
0.0 0.0 0.0

-1.247362193170505e6 2.7881087365127582e7 0.0
2.7881087365127582e7 1.1732076101731658e6 0.0
0.0 0.0 0.0

1.3367135368812326e6 1.5236425769778676e7 0.0
1.5236425769778676e7 -1.913193314286643e7 0.0
0.0 0.0 0.0

670826.6116797216 1.5976033784606066e7 0.0
1.5976033784606066e7 -2.8582900706832707e7 0.0
0.0 0.0 0.0

-3.611536833160868e6 2.0549448634200685e7 0.0
2.0549448634200685e7 -1.855120560245561e7 0.0
0.0 0.0 0.0

-9.554732245641977e6 3.477780364051443e7 0.0
3.477780364051443e7 6.112726579226706e6 0.0
0.0 0.0 0.0

-1.983519932079487e7 2.492886428176808e7 0.0
2.492886428176808e7 -8.971079954117043e7 0.0
0.0 0.0 0.0

2.2795461017672494e7 4.272456682177234e7 0.0
4.272456682177234e7 -5.741472575593034e6 0.0
0.0 0.0 0.0

9.544676930843199e6 3.095019689614556e7 0.0
3.095019689614556e7 -6.1538239897555355e6 0.0
0.0 0.0 0.0

-2.699447141938864e6 3.763461573785046e7 0.0
3.763461573785046e7 2.6105697571593663e6 0.0
0.0 0.0 0.0

-3.8000182403908474e6 2.7764909619487736e7 0.0
2.7764909619487736e7 1.2267881936700359e7 0.0
0.0 0.0 0.0

-552211.5522287749 5.855485558372579e6 0.0
5.855485558372579e6 -7.732609177923892e7 0.0
0.0 0.0 0.0

-3.4893883321903963e6 2.5365842378068425e7 0.0
2.5365842378068425e7 1.715049387923683e7 0.0
0.0 0.0 0.0

400225.1048802398 5.603606828002235e6 0.0
5.603606828002235e6 -6.226785841771562e7 0.0
0.0 0.0 0.0

286426.786865714 2.481024764128846e7 0.0
2.481024764128846e7 -9.62631508254635e6 0.0
0.0 0.0 0.0

127676.18441341817 2.3774356553704105e7 0.0
2.3774356553704105e7 -1.0047729765065864e7 0.0
0.0 0.0 0.0

-1.3935590214405062e6 2.099328967137988e7 0.0
2.099328967137988e7 -4.274997518099183e6 0.0
0.0 0.0 0.0

-2.0882395039082682e6 2.3457560291670263e7 0.0
2.3457560291670263e7 2.043355938596438e7 0.0
0.0 0.0 0.0

-886156.440812841 3.1452090862378173e7 0.0
3.1452090862378173e7 -2.1722109769617906e6 0.0
0.0 0.0 0.0

-3.283304340129588e6 2.3727810987409e7 0.0
2.3727810987409e7 1.6721705267437847e7 0.0
0.0 0.0 0.0

-7.409713232385967e6 -2.0043813390795994e6 0.0
-2.0043813390795994e6 4.0190524857100934e7 0.0
0.0 0.0 0.0

1.2830182005457021e6 7.154215359692287e6 0.0
7.154215359692287e6 -4.369981420426101e7 0.0
0.0 0.0 0.0

1.4990172405508254e6 9.89517017588555e6 0.0
9.89517017588555e6 -3.3667630422042474e7 0.0
0.0 0.0 0.0

2.9264666433675857e6 3.947720048725504e7 0.0
3.947720048725504e7 -2.072601474083728e6 0.0
0.0 0.0 0.0

-3.880252379307178e6 2.3670748491552766e7 0.0
2.3670748491552766e7 -1.3494399619283533e7 0.0
0.0 0.0 0.0

-1.0157642013523765e6 1.7327796209849242e7 0.0
1.7327796209849242e7 -3.6130169794549786e7 0.0
0.0 0.0 0.0

5.095020925065723e6 2.2153902079914287e7 0.0
2.2153902079914287e7 1.8304376335380103e7 0.0
0.0 0.0 0.0

-9.708984786055934e6 4.194318245196855e6 0.0
4.194318245196855e6 2.751086881927231e7 0.0
0.0 0.0 0.0

9.581534973703269e6 2.697330247501632e7 0.0
2.697330247501632e7 1.4965489405331535e7 0.0
0.0 0.0 0.0

-1.745406082770583e7 3.8470395877009906e7 0.0
3.8470395877009906e7 6.709577833763955e6 0.0
0.0 0.0 0.0

6.212493640298514e6 2.4338910481238596e7 0.0
2.4338910481238596e7 8.901329923614847e6 0.0
0.0 0.0 0.0

4.1703795803596536e6 2.070372775059762e7 0.0
2.070372775059762e7 1.9135187414933454e7 0.0
0.0 0.0 0.0

-6.586190640871105e6 3.393979997864388e7 0.0
3.393979997864388e7 6.494496334865257e6 0.0
0.0 0.0 0.0

-2.7736857757793497e6 2.4298235261612594e7 0.0
2.4298235261612594e7 1.9846673637592517e7 0.0
0.0 0.0 0.0

1.798889300264947e6 1.9907303014495004e7 0.0
1.9907303014495004e7 4.601221993508446e7 0.0
0.0 0.0 0.0

-2.4441146337286476e7 3.0056225574671913e7 0.0
3.0056225574671913e7 -3.773214791678542e6 0.0
0.0 0.0 0.0

-1.5256057855912158e7 2.8699359373500995e7 0.0
2.8699359373500995e7 2.206070245617872e6 0.0
0.0 0.0 0.0

-1.3232805877071984e7 1.90431310597159e7 0.0
1.90431310597159e7 -2.056980122983513e6 0.0
0.0 0.0 0.0

-1.0132433171037757e8 4.009441454426323e7 0.0
4.009441454426323e7 -1.3054538253439605e7 0.0
0.0 0.0 0.0

1.5842158600907281e7 2.425501280487355e7 0.0
2.425501280487355e7 9.415538716757212e6 0.0
0.0 0.0 0.0

-3.3301459496922344e6 1.8554005003003504e7 0.0
1.8554005003003504e7 -3.716791995805437e7 0.0
0.0 0.0 0.0

-3.1255348339413516e6 2.7189180139796086e7 0.0
2.7189180139796086e7 9.602732693366459e6 0.0
0.0 0.0 0.0

997414.0147266444 2.318408963946313e7 0.0
2.318408963946313e7 -1.7510980412963077e7 0.0
0.0 0.0 0.0

5.541029310973383e7 1.9539036979268778e7 0.0
1.9539036979268778e7 3.729834868040573e6 0.0
0.0 0.0 0.0

-8.207903089041851e6 -1.494908141148407e6 0.0
-1.494908141148407e6 1.5699304201647133e7 0.0
0.0 0.0 0.0

3.212593564131297e6 2.3169651036581183e6 0.0
2.3169651036581183e6 -1.724268395040238e7 0.0
0.0 0.0 0.0

790782.0274939751 2.399759101960341e7 0.0
2.399759101960341e7 -1.49044559572724e7 0.0
0.0 0.0 0.0

-787574.924874723 2.2689221115520824e7 0.0
2.2689221115520824e7 -1.012742157391102e6 0.0
0.0 0.0 0.0

-6.769560688625995e6 6.327450451125533e6 0.0
6.327450451125533e6 5.258041683683343e7 0.0
0.0 0.0 0.0

1.1153831859940773e7 3.230051652503361e7 0.0
3.230051652503361e7 -5.93526876533061e6 0.0
0.0 0.0 0.0

-1.626653528432858e7 5.225788312837304e7 0.0
5.225788312837304e7 3.6838399679662036e6 0.0
0.0 0.0 0.0

1.5004224754427042e7 2.5309224859941233e7 0.0
2.5309224859941233e7 8.573913753530521e6 0.0
0.0 0.0 0.0

-7.857880602672212e6 -2.7145623159440234e6 0.0
-2.7145623159440234e6 3.3088808478753828e7 0.0
0.0 0.0 0.0

-2.8932893921083804e7 3.0636788858539205e7 0.0
3.0636788858539205e7 -5.318836678851416e6 0.0
0.0 0.0 0.0

1.3962121446720967e6 2.2053091702416394e7 0.0
2.2053091702416394e7 7.9952168097260315e6 0.0
0.0 0.0 0.0

-2.258291588953301e7 5.481250412011368e7 0.0
5.481250412011368e7 4.71119658717731e6 0.0
0.0 0.0 0.0

-5.2879880140059795e6 2.033974907318552e7 0.0
2.033974907318552e7 2.647800455092915e7 0.0
0.0 0.0 0.0

3.102936112337033e6 2.3877592832590047e7 0.0
2.3877592832590047e7 -1.2417113630773532e6 0.0
0.0 0.0 0.0

-8.48878989128925e6 2.0271003806096554e7 0.0
2.0271003806096554e7 -3.0428659165871058e7 0.0
0.0 0.0 0.0

-3.610250312317529e6 2.1890356203005426e7 0.0
2.1890356203005426e7 -1.3038619092582447e7 0.0
0.0 0.0 0.0

1.0853019788228415e7 2.680706195820581e7 0.0
2.680706195820581e7 -3.594621579353124e6 0.0
0.0 0.0 0.0

4.6629478447985545e7 5.396231085961991e7 0.0
5.396231085961991e7 -1.1265912600924004e7 0.0
0.0 0.0 0.0

-9.080327312581064e6 -809090.788901356 0.0
-809090.788901356 2.6037529945088543e7 0.0
0.0 0.0 0.0

3.660059413124253e6 4.351231855470594e7 0.0
4.351231855470594e7 -3.2808370707406886e6 0.0
0.0 0.0 0.0

6.05289504779558e6 3.673679018486768e7 0.0
3.673679018486768e7 -3.8220086262720814e6 0.0
0.0 0.0 0.0

-8.140506925929539e6 1.4227897794442892e6 0.0
1.4227897794442892e6 4.2823806562209256e7 0.0
0.0 0.0 0.0

2.2779346318123545e6 1.4508352748813748e6 0.0
1.4508352748813748e6 -4.119807010131709e7 0.0
0.0 0.0 0.0

-4.732052058778623e6 3.080001960901663e7 0.0
3.080001960901663e7 9.051738959895736e6 0.0
0.0 0.0 0.0

7.771775706143502e6 2.6538227692588888e7 0.0
2.6538227692588888e7 1.519975483237417e7 0.0
0.0 0.0 0.0

-4.690140150278502e6 7.506992244238769e6 0.0
7.506992244238769e6 6.008838149172302e6 0.0
0.0 0.0 0.0

-6.674952939032946e6 1.856542746330277e7 0.0
1.856542746330277e7 2.681359803015672e7 0.0
0.0 0.0 0.0

6.358406528957759e6 2.6001846472233724e7 0.0
2.6001846472233724e7 1.5575859629895872e7 0.0
0.0 0.0 0.0

-560357.4374427116 1.9992628097169288e7 0.0
1.9992628097169288e7 -1.3766743192798771e7 0.0
0.0 0.0 0.0

-4.448950652752645e6 2.0096137453009408e7 0.0
2.0096137453009408e7 -2.0303040740254924e7 0.0
0.0 0.0 0.0

3.0856445146621056e6 3.374466269502848e7 0.0
3.374466269502848e7 -5.23353386585e6 0.0
0.0 0.0 0.0

-8.691957872853e6 -1.63623316463861e6 0.0
-1.63623316463861e6 1.85498365134964e7 0.0
0.0 0.0 0.0

-1.8127246093725716e6 2.2826687188835576e7 0.0
2.2826687188835576e7 4.981033216338872e6 0.0
0.0 0.0 0.0

-4.561138751862664e6 1.9640178347998485e7 0.0
1.9640178347998485e7 3.3100498157859616e7 0.0
0.0 0.0 0.0

811203.6295534391 1.6394890187762149e7 0.0
1.6394890187762149e7 -1.5626565606080307e7 0.0
0.0 0.0 0.0

2.7293278088721395e6 2.7404700733992435e7 0.0
2.7404700733992435e7 -1.1160673195811886e7 0.0
0.0 0.0 0.0

5.215477706833959e6 4.781968420221848e7 0.0
4.781968420221848e7 -760419.5473342687 0.0
0.0 0.0 0.0

-1.7821274255422466e6 1.6800475793188978e7 0.0
1.6800475793188978e7 -3.863257323331378e7 0.0
0.0 0.0 0.0

-5.31058045872068e7 5.511764586404957e7 0.0
5.511764586404957e7 6.743629947631028e6 0.0
0.0 0.0 0.0

429350.3105231233 1.7301902261865663e6 0.0
1.7301902261865663e6 -522494.2663397534 0.0
0.0 0.0 0.0

-20657.641281666816 2.0281171820786162e6 0.0
2.0281171820786162e6 -1.8112241718500294e6 0.0
0.0 0.0 0.0

6.940604308326259e6 2.1890679348985154e7 0.0
2.1890679348985154e7 3.400392953476944e7 0.0
0.0 0.0 0.0

6.5896903701364305e6 2.4299800112746786e7 0.0
2.4299800112746786e7 1.793021661986828e7 0.0
0.0 0.0 0.0

515366.6554759876 2.313293629995126e7 0.0
2.313293629995126e7 1.090961825149267e7 0.0
0.0 0.0 0.0

-7.682372246956803e6 1.6735844327133676e7 0.0
1.6735844327133676e7 2.6681016910370953e7 0.0
0.0 0.0 0.0

9.402997804718059e6 6.13144351481992e6 0.0
6.13144351481992e6 -1.4930326333499295e6 0.0
0.0 0.0 0.0

-2.243642126991843e6 2.512594955134064e7 0.0
2.512594955134064e7 1.1783797653667986e7 0.0
0.0 0.0 0.0

575072.8784596986 3.5337158047402225e7 0.0
3.5337158047402225e7 -825445.7317520266 0.0
0.0 0.0 0.0

-2.9294773963886574e6 1.7847982528345313e7 0.0
1.7847982528345313e7 -4.110350192942681e7 0.0
0.0 0.0 0.0

1.377115239901347e7 2.6530956342087522e7 0.0
2.6530956342087522e7 1.30999008193892e7 0.0
0.0 0.0 0.0

2.1080082303011663e7 2.5960493630469516e7 0.0
2.5960493630469516e7 1.365173931789092e7 0.0
0.0 0.0 0.0

-3.101186936150336e7 5.698905298726636e7 0.0
5.698905298726636e7 7.571541835629126e6 0.0
0.0 0.0 0.0

2.890910449984428e6 2.3415391028641094e7 0.0
2.3415391028641094e7 1.130498031016671e7 0.0
0.0 0.0 0.0

-1.0036412891149072e7 1.1274514225644123e7 0.0
1.1274514225644123e7 1.6589239323546981e7 0.0
0.0 0.0 0.0

-9.038714561568338e6 1.481084402382277e7 0.0
1.481084402382277e7 3.203925198583955e7 0.0
0.0 0.0 0.0

172378.98069321632 3.44249479466475e7 0.0
3.44249479466475e7 -2.0376380451888426e6 0.0
0.0 0.0 0.0

9.619455575530842e6 2.3727040484032545e7 0.0
2.3727040484032545e7 1.7118816268717226e7 0.0
0.0 0.0 0.0

-5.499261768059328e6 5.445131581615017e6 0.0
5.445131581615017e6 7.418635648707241e7 0.0
0.0 0.0 0.0

1.4441335782937193e6 2.217415349152098e7 0.0
2.217415349152098e7 2.0174982757610552e7 0.0
0.0 0.0 0.0

-1.2937394981624398e7 2.0108439345539603e7 0.0
2.0108439345539603e7 -4.60418636532955e7 0.0
0.0 0.0 0.0

6.804318594596946e6 2.5687102094385844e7 0.0
2.5687102094385844e7 1.5923657531157734e7 0.0
0.0 0.0 0.0

-2.6054708311704155e6 2.102491214559526e7 0.0
2.102491214559526e7 3.0749362275274005e7 0.0
0.0 0.0 0.0

-475143.78454295686 1.8775271070687786e7 0.0
1.8775271070687786e7 -1.426481090565928e7 0.0
0.0 0.0 0.0

8.617571862996433e6 2.113889088670856e7 0.0
2.113889088670856e7 9.04249521330478e7 0.0
0.0 0.0 0.0

1.139321958749734e7 3.062792413397389e7 0.0
3.062792413397389e7 -5.40680860039341e6 0.0
0.0 0.0 0.0

308383.5703570703 2.1015079677777093e7 0.0
2.1015079677777093e7 -2.1891528748853583e7 0.0
0.0 0.0 0.0

-591445.4594707943 1.5247522937220251e7 0.0
1.5247522937220251e7 -6.44185105969883e6 0.0
0.0 0.0 0.0

1.8325961751095615e6 3.013521469897939e6 0.0
3.013521469897939e6 -5.176602285065459e7 0.0
0.0 0.0 0.0

4.858527881534538e6 4.549606252063687e7 0.0
4.549606252063687e7 -507141.530449925 0.0
0.0 0.0 0.0

-8.444621847345732e6 1.5575621865362667e7 0.0
1.5575621865362667e7 3.287069520279692e7 0.0
0.0 0.0 0.0

5.211996443003282e6 2.0395981500900827e7 0.0
2.0395981500900827e7 2.553175331074265e7 0.0
0.0 0.0 0.0

-1.094302608592238e7 3.0370612082335986e7 0.0
3.0370612082335986e7 5.848087751388742e6 0.0
0.0 0.0 0.0

-1.8796983872620873e6 2.5312272796938572e7 0.0
2.5312272796938572e7 2.6693494440362896e6 0.0
0.0 0.0 0.0

-6.742855816295592e6 1.911796293361998e7 0.0
1.911796293361998e7 2.7192092337405782e7 0.0
0.0 0.0 0.0

1.3435704918784723e6 1.2088207460097153e7 0.0
1.2088207460097153e7 -2.706373755203588e7 0.0
0.0 0.0 0.0

-1.5425885634034796e7 4.852066049500359e7 0.0
4.852066049500359e7 6.807554677957081e6 0.0
0.0 0.0 0.0

2.9598241915289473e7 1.4120767082815146e7 0.0
1.4120767082815146e7 1.2186379659232702e6 0.0
0.0 0.0 0.0

-1.0211636222182855e7 1.2882085276898374e6 0.0
1.2882085276898374e6 2.4055571656094722e7 0.0
0.0 0.0 0.0

-8.303607299419009e6 3.5363684176848784e7 0.0
3.5363684176848784e7 5.818335057009479e6 0.0
0.0 0.0 0.0

-3.3309213424223363e7 2.6393944309961777e7 0.0
2.6393944309961777e7 2.1637369248678833e6 0.0
0.0 0.0 0.0

-4.965069180463158e6 2.5071037327142086e7 0.0
2.5071037327142086e7 -1.3098764457045479e7 0.0
0.0 0.0 0.0

-6.523504475112581e7 3.910610074210112e7 0.0
3.910610074210112e7 -5.646865107655333e6 0.0
0.0 0.0 0.0

-5.751332889860356e6 2.5352410057507332e7 0.0
2.5352410057507332e7 -7.700878016763548e6 0.0
0.0 0.0 0.0

-3.722847196105391e6 2.154815251003849e7 0.0
2.154815251003849e7 2.0818290785660565e7 0.0
0.0 0.0 0.0

-8.354431043449137e6 1.58091792796558e7 0.0
1.58091792796558e7 2.806205183417489e7 0.0
0.0 0.0 0.0

-5.780365688650528e6 1.9164950502223603e7 0.0
1.9164950502223603e7 1.948246355254954e7 0.0
0.0 0.0 0.0

-4.684837102067306e6 2.7643511313954856e7 0.0
2.7643511313954856e7 1.2973323638729226e7 0.0
0.0 0.0 0.0

-6.797955153776724e6 2.669079929313717e6 0.0
2.669079929313717e6 5.272526924605562e7 0.0
0.0 0.0 0.0

-507506.6512378071 2.1436698517905362e7 0.0
2.1436698517905362e7 -1.3300338724717922e6 0.0
0.0 0.0 0.0

1.2993884737683227e6 1.373810564197652e7 0.0
1.373810564197652e7 -1.6423281738481957e7 0.0
0.0 0.0 0.0

812464.7538576126 1.8998526936143395e7 0.0
1.8998526936143395e7 -2.284324821440791e7 0.0
0.0 0.0 0.0

-7.847530889868511e6 -1.072569320292764e6 0.0
-1.072569320292764e6 3.596416004618202e7 0.0
0.0 0.0 0.0

-1.350782610349058e6 2.1891670812612068e7 0.0
2.1891670812612068e7 779234.4595746713 0.0
0.0 0.0 0.0

-9.12889855316177e6 3.0600704018432643e7 0.0
3.0600704018432643e7 7.094918430479743e6 0.0
0.0 0.0 0.0

3.803842101874969e6 2.1845721614888072e7 0.0
2.1845721614888072e7 3.36812164402864e7 0.0
0.0 0.0 0.0

824402.9853862422 2.3138840485944733e7 0.0
2.3138840485944733e7 -1.5463089126460306e7 0.0
0.0 0.0 0.0

742737.8871161393 2.2057655021213822e7 0.0
2.2057655021213822e7 5.7794069536038e6 0.0
0.0 0.0 0.0

3.1204662260867152e6 4.205221368544082e7 0.0
4.205221368544082e7 -2.908961600713025e6 0.0
0.0 0.0 0.0

2.4823722527960334e6 2.453740250096227e7 0.0
2.453740250096227e7 -1.2125281032171981e7 0.0
0.0 0.0 0.0

1.2566008698006596e8 4.466724590583973e7 0.0
4.466724590583973e7 3.2834446001506746e6 0.0
0.0 0.0 0.0

5.88840362400257e6 2.4468965979838163e7 0.0
2.4468965979838163e7 -3.0422239245319865e6 0.0
0.0 0.0 0.0

-3.075627302363258e6 2.1081778765205316e7 0.0
2.1081778765205316e7 -2.646816565887244e7 0.0
0.0 0.0 0.0

4.0966897734879204e6 2.6776355913566303e7 0.0
2.6776355913566303e7 -1.013526117638291e7 0.0
0.0 0.0 0.0

-3.440492534712232e7 3.326581297009309e7 0.0
3.326581297009309e7 -7.318104885050988e6 0.0
0.0 0.0 0.0

-6.511815653241114e6 2.9444356385433182e7 0.0
2.9444356385433182e7 9.016057179293241e6 0.0
0.0 0.0 0.0

2.133106513624516e7 2.5968630112278003e7 0.0
2.5968630112278003e7 7.73194149064693e6 0.0
0.0 0.0 0.0

-4.5679008927714955e6 1.7152779908889517e7 0.0
1.7152779908889517e7 -5.009930345070891e7 0.0
0.0 0.0 0.0

8.286409015625878e6 2.0648129578921556e7 0.0
2.0648129578921556e7 4.407561002874828e7 0.0
0.0 0.0 0.0

2.844199030020291e6 5.480160863603102e6 0.0
5.480160863603102e6 -3.1637655581956852e7 0.0
0.0 0.0 0.0

4.298022152924279e6 2.7860285666252248e7 0.0
2.7860285666252248e7 -9.576035361267822e6 0.0
0.0 0.0 0.0

697886.9477495216 4.543228192296971e6 0.0
4.543228192296971e6 -6.05130362005712e7 0.0
0.0 0.0 0.0

2.357018511376976e6 2.707581669955234e7 0.0
2.707581669955234e7 -1.1488292206778534e7 0.0
0.0 0.0 0.0

9.60022327703206e6 3.242424035794193e7 0.0
3.242424035794193e7 -6.189410053713754e6 0.0
0.0 0.0 0.0

-1.5971344434842071e6 2.5073759227671307e7 0.0
2.5073759227671307e7 2.0852108295811843e6 0.0
0.0 0.0 0.0

-1.648399756887999e7 3.803142134780587e7 0.0
3.803142134780587e7 5.386785464312605e6 0.0
0.0 0.0 0.0

-2.9074011083681174e6 2.1224274052997686e7 0.0
2.1224274052997686e7 3.095316042718512e7 0.0
0.0 0.0 0.0

2.1540772340321997e6 2.201699791931167e7 0.0
2.201699791931167e7 1.248667390655735e7 0.0
0.0 0.0 0.0

-4.444388163793462e7 4.264292239484325e7 0.0
4.264292239484325e7 7.25779685510573e6 0.0
0.0 0.0 0.0

2.09230989857987e7 2.614204823165688e7 0.0
2.614204823165688e7 1.4508045693958687e7 0.0
0.0 0.0 0.0

-5.679350991161903e6 1.441436168376679e7 0.0
1.441436168376679e7 1.0670263417620799e7 0.0
0.0 0.0 0.0

-6.676444529538105e6 3.472563185231593e7 0.0
3.472563185231593e7 5.650835352570014e6 0.0
0.0 0.0 0.0

-6.741457484927082e6 2.587757303660735e7 0.0
2.587757303660735e7 -1.0298217500504961e7 0.0
0.0 0.0 0.0

947471.038187067 1.6947830896016847e7 0.0
1.6947830896016847e7 -1.661230614256984e7 0.0
0.0 0.0 0.0

2.183889424574781e6 1.2638573091548353e6 0.0
1.2638573091548353e6 -4.337991238346606e7 0.0
0.0 0.0 0.0

-2.5968697140374486e6 2.0745701192963824e7 0.0
2.0745701192963824e7 -1.1391189330521142e7 0.0
0.0 0.0 0.0

6.057453712898195e7 7.441482665132679e6 0.0
7.441482665132679e6 -648776.7799969539 0.0
0.0 0.0 0.0

-2.471959365097724e6 2.0685430925889775e7 0.0
2.0685430925889775e7 3.2613330799309295e7 0.0
0.0 0.0 0.0

-8.869341057517726e6 3.377108447423718e7 0.0
3.377108447423718e7 6.633747943451356e6 0.0
0.0 0.0 0.0

-6.877697279435227e6 -1.3322270233362836e6 0.0
-1.3322270233362836e6 4.783110419311042e7 0.0
0.0 0.0 0.0

-2.66513904756617e6 4.134684370229319e7 0.0
4.134684370229319e7 619062.6713405151 0.0
0.0 0.0 0.0

-2.63478057616949e7 2.8966918163069673e7 0.0
2.8966918163069673e7 -5.18642613153313e6 0.0
0.0 0.0 0.0

525892.7582093719 2.1675147720475055e7 0.0
2.1675147720475055e7 -2.040271252832118e7 0.0
0.0 0.0 0.0

6.562369547091061e6 2.1668174416221775e7 0.0
2.1668174416221775e7 3.0414295232215367e7 0.0
0.0 0.0 0.0

437421.22269971156 2.3141660611135863e7 0.0
2.3141660611135863e7 5.533339622714754e6 0.0
0.0 0.0 0.0

-2.3808235712164044e6 2.5911694164217014e7 0.0
2.5911694164217014e7 1.0620066024297493e7 0.0
0.0 0.0 0.0

263549.059312528 1.6148138990669684e7 0.0
1.6148138990669684e7 -1.7719764209963005e7 0.0
0.0 0.0 0.0

2.1411176743709e6 1.1525209685306787e7 0.0
1.1525209685306787e7 -2.60983516283929e7 0.0
0.0 0.0 0.0

-1.2138650264150896e6 1.0610846347678479e7 0.0
1.0610846347678479e7 -6.39542144805948e6 0.0
0.0 0.0 0.0

-5.906072502388398e6 3.405984483762615e7 0.0
3.405984483762615e7 5.601634106200293e6 0.0
0.0 0.0 0.0

-740792.2282803436 2.064409659729235e7 0.0
2.064409659729235e7 -1.229838009757113e7 0.0
0.0 0.0 0.0

2.4426838785477027e7 1.3766600732154584e7 0.0
1.3766600732154584e7 1.0202183724435838e6 0.0
0.0 0.0 0.0

2.1596532892935555e6 1.4391229411018577e6 0.0
1.4391229411018577e6 -4.394831765879636e7 0.0
0.0 0.0 0.0

5.191844993835969e6 2.0678776498274803e7 0.0
2.0678776498274803e7 3.200530739831788e7 0.0
0.0 0.0 0.0

-223933.9937407812 1.0210819105339324e7 0.0
1.0210819105339324e7 -9.204685799335768e6 0.0
0.0 0.0 0.0

4.586686510163478e6 3.414476742884907e7 0.0
3.414476742884907e7 -4.615004448671224e6 0.0
0.0 0.0 0.0

910244.1808838081 2.2861123011107463e7 0.0
2.2861123011107463e7 1.4167681619139103e7 0.0
0.0 0.0 0.0

-7.498616909345731e6 9.529529177599017e6 0.0
9.529529177599017e6 4.7345487285541266e7 0.0
0.0 0.0 0.0

-8.649986912156658e6 1.4410402255323024e6 0.0
1.4410402255323024e6 1.7248743021804802e7 0.0
0.0 0.0 0.0

1.0274922494032793e7 3.227484540613479e7 0.0
3.227484540613479e7 -5.991946743362133e6 0.0
0.0 0.0 0.0

-6.282952743389214e7 2.003969404926198e7 0.0
2.003969404926198e7 5.488245719118662e6 0.0
0.0 0.0 0.0

-118605.47164814081 1.9895178666175213e7 0.0
1.9895178666175213e7 -2.5331558851326685e7 0.0
0.0 0.0 0.0

7.697781600762451e6 1.4356954096253214e7 0.0
1.4356954096253214e7 3.856596767826481e6 0.0
0.0 0.0 0.0

-3.6978127445092686e6 2.1167459388296455e7 0.0
2.1167459388296455e7 2.0159260141738508e7 0.0
0.0 0.0 0.0

-6.816384372060862e7 1.9334225048749123e7 0.0
1.9334225048749123e7 3.992211007692717e6 0.0
0.0 0.0 0.0

-3.1916802139416104e6 2.025256645746902e7 0.0
2.025256645746902e7 -2.7813396309132196e7 0.0
0.0 0.0 0.0

2.2892284049071185e6 2.611229301533683e7 0.0
2.611229301533683e7 -1.2391408929018889e7 0.0
0.0 0.0 0.0

1.1313310512561074e6 5.875617780042938e6 0.0
5.875617780042938e6 -4.1525232520454945e6 0.0
0.0 0.0 0.0

-1.404884067845146e7 2.783816846872493e7 0.0
2.783816846872493e7 -1.0253268631421307e7 0.0
0.0 0.0 0.0

1.0105648367083123e7 3.7931778455145024e7 0.0
3.7931778455145024e7 -5.359105101237819e6 0.0
0.0 0.0 0.0

-1.8723078814021747e6 3.751357216143278e7 0.0
3.751357216143278e7 337485.5860539895 0.0
0.0 0.0 0.0

-2.652398057919277e6 2.5642272234180577e7 0.0
2.5642272234180577e7 6.100311242488087e6 0.0
0.0 0.0 0.0

-6.269009911418073e6 1.7831070759596303e7 0.0
1.7831070759596303e7 3.458774153046878e7 0.0
0.0 0.0 0.0

-3.3032044892852018e6 2.5551966520539608e7 0.0
2.5551966520539608e7 1.6910540410321467e7 0.0
0.0 0.0 0.0

-2.470800763377756e6 4.016726342382336e7 0.0
4.016726342382336e7 510874.68412930565 0.0
0.0 0.0 0.0

636292.7390826037 1.352362893805314e7 0.0
1.352362893805314e7 -1.868528111605171e7 0.0
0.0 0.0 0.0

-2.403476138562009e6 3.93230525702061e7 0.0
3.93230525702061e7 372497.26859525335 0.0
0.0 0.0 0.0

7.4216361607286595e6 2.458574518859908e7 0.0
2.458574518859908e7 1.5766319157169744e7 0.0
0.0 0.0 0.0

-8.055772071481096e6 1.566986047628605e7 0.0
1.566986047628605e7 3.326623245861077e7 0.0
0.0 0.0 0.0

1.663868037825603e6 3.0045014796458306e6 0.0
3.0045014796458306e6 -4.5402663687085144e7 0.0
0.0 0.0 0.0

-1.0934332625879755e7 3.013825007623756e7 0.0
3.013825007623756e7 6.325204645837525e6 0.0
0.0 0.0 0.0

51544.10681264871 3.056627139431037e7 0.0
3.056627139431037e7 -4.790758333943979e6 0.0
0.0 0.0 0.0

1.7402356850475415e6 3.0372829940983657e7 0.0
3.0372829940983657e7 -5.72739833546715e6 0.0
0.0 0.0 0.0

-8.618333273299463e7 5.001818687041774e7 0.0
5.001818687041774e7 -4.2183636317987606e7 0.0
0.0 0.0 0.0

969135.2004074585 2.255616484709998e7 0.0
2.255616484709998e7 -1.89665465828893e7 0.0
0.0 0.0 0.0

448911.7809474236 3.3745886407481425e7 0.0
3.3745886407481425e7 -981932.3927155882 0.0
0.0 0.0 0.0

-4.197106438105075e6 2.239848685619571e7 0.0
2.239848685619571e7 1.9332592595276218e7 0.0
0.0 0.0 0.0

-3.749358501487222e7 2.844140162064857e7 0.0
2.844140162064857e7 2.613845400278369e6 0.0
0.0 0.0 0.0

1.2154092998808038e6 2.2053167080902908e7 0.0
2.2053167080902908e7 634849.8067918012 0.0
0.0 0.0 0.0

5.5466017744366145e6 2.186723809994596e7 0.0
2.186723809994596e7 1.8138320107454207e7 0.0
0.0 0.0 0.0

1.5737161548560187e6 1.0862172680771628e6 0.0
1.0862172680771628e6 -5.569824434579432e7 0.0
0.0 0.0 0.0

-2.336601760467025e7 4.49006318658522e7 0.0
4.49006318658522e7 8.174328352120349e6 0.0
0.0 0.0 0.0

-6.768128242278177e6 388066.55397033854 0.0
388066.55397033854 4.900651366958605e7 0.0
0.0 0.0 0.0

-6.543461803446442e6 1.7060131480316315e6 0.0
1.7060131480316315e6 5.706872525949724e7 0.0
0.0 0.0 0.0

-7.996048828017526e6 -918292.0372014386 0.0
-918292.0372014386 1.6059417386851393e7 0.0
0.0 0.0 0.0

-6.699535275291197e6 1.608105816529902e7 0.0
1.608105816529902e7 3.867509976036861e7 0.0
0.0 0.0 0.0

5.568613590692431e6 1.9639140101278517e7 0.0
1.9639140101278517e7 1.2617302449722322e7 0.0
0.0 0.0 0.0

-582681.7689158581 1.891662660009022e7 0.0
1.891662660009022e7 -2.933726808637755e7 0.0
0.0 0.0 0.0

-4.5430406290626906e7 5.775223673140276e7 0.0
5.775223673140276e7 1.0844639656584272e7 0.0
0.0 0.0 0.0

-7.501298802335322e6 1.6277354032754673e7 0.0
1.6277354032754673e7 3.3917584734561965e7 0.0
0.0 0.0 0.0

-4.882177724734824e6 1.6638030118451545e7 0.0
1.6638030118451545e7 -5.266283973748549e7 0.0
0.0 0.0 0.0

-2.5101469444315378e7 2.8502705900845416e7 0.0
2.8502705900845416e7 -4.751514968246121e6 0.0
0.0 0.0 0.0

-6.059823893505596e6 1.3263434876708766e6 0.0
1.3263434876708766e6 5.846856740833176e7 0.0
0.0 0.0 0.0

489934.8372931648 2.121463777677627e7 0.0
2.121463777677627e7 -1.8333624743825484e7 0.0
0.0 0.0 0.0

-1.0464552436493594e7 1.9962073115524422e7 0.0
1.9962073115524422e7 -5.967994138687603e7 0.0
0.0 0.0 0.0

-4.441816555833545e6 2.4243006893740833e7 0.0
2.4243006893740833e7 -9.343442584066276e6 0.0
0.0 0.0 0.0

-2.1611875181266926e7 2.6222236270074893e7 0.0
2.6222236270074893e7 -4.090765422448323e6 0.0
0.0 0.0 0.0

6.193805298075058e7 3.281747597183168e7 0.0
3.281747597183168e7 1.3614270799913399e7 0.0
0.0 0.0 0.0

-2.0233221908282912e6 1.8549945760200314e7 0.0
1.8549945760200314e7 -4.5196173274783725e6 0.0
0.0 0.0 0.0

1.190380066412028e6 1.9581869176716994e7 0.0
1.9581869176716994e7 -2.09166921922792e7 0.0
0.0 0.0 0.0

-3.8612734841938745e6 2.016374438625807e7 0.0
2.016374438625807e7 -1.6917128282332808e7 0.0
0.0 0.0 0.0

1.6942839948984198e6 1.3096506347556934e6 0.0
1.3096506347556934e6 -5.624970922990848e7 0.0
0.0 0.0 0.0

2.528033921688986e6 3.2813773783084206e7 0.0
3.2813773783084206e7 -4.200074863226034e6 0.0
0.0 0.0 0.0

-4.611217939516503e6 1.957633495567222e7 0.0
1.957633495567222e7 -3.0763792160528213e7 0.0
0.0 0.0 0.0

1.9306747775763394e6 2.4927703110192537e7 0.0
2.4927703110192537e7 -1.2738746994151121e7 0.0
0.0 0.0 0.0

-288430.0455777211 2.2981115047217913e7 0.0
2.2981115047217913e7 2.354890425956874e6 0.0
0.0 0.0 0.0

-4.805624372790584e6 1.4166553308364687e7 0.0
1.4166553308364687e7 1.3921336917796237e7 0.0
0.0 0.0 0.0

-2.7386802457370926e6 2.5568965505333386e7 0.0
2.5568965505333386e7 1.0092145311429705e7 0.0
0.0 0.0 0.0

1.4452961141848024e6 2.117491916727555e7 0.0
2.117491916727555e7 3.4525704925531596e7 0.0
0.0 0.0 0.0

2.6684591683753394e6 1.6893972472426766e6 0.0
1.6893972472426766e6 -3.6018399273884624e7 0.0
0.0 0.0 0.0

-1.649044332404305e7 1.6979975555020213e7 0.0
1.6979975555020213e7 529906.3838705812 0.0
0.0 0.0 0.0

8.665316934720658e6 2.641319509811358e7 0.0
2.641319509811358e7 1.5301616764044382e7 0.0
0.0 0.0 0.0

-2.039775391296262e6 2.132192843773574e7 0.0
2.132192843773574e7 -2.0283480339102414e7 0.0
0.0 0.0 0.0

9.462409650302155e7 1.3201264563179934e7 0.0
1.3201264563179934e7 171802.52328957617 0.0
0.0 0.0 0.0

62300.245914556086 2.0012814600390572e7 0.0
2.0012814600390572e7 -2.5465385801122546e7 0.0
0.0 0.0 0.0

1.482164036062658e6 3.1469143370481398e7 0.0
3.1469143370481398e7 -5.899300895379059e6 0.0
0.0 0.0 0.0

-2.0981523252137406e6 2.730597127878313e7 0.0
2.730597127878313e7 73841.52801547141 0.0
0.0 0.0 0.0

1.0647381282628316e7 2.122377952239692e7 0.0
2.122377952239692e7 7.578082597831862e7 0.0
0.0 0.0 0.0

-6.91354276706782e6 1.4912731605809659e7 0.0
1.4912731605809659e7 4.07095267376383e7 0.0
0.0 0.0 0.0

-6.810770066006258e6 -1.8424151825141993e6 0.0
-1.8424151825141993e6 4.7319027069762446e7 0.0
0.0 0.0 0.0

-7.769714049143132e6 7.926052540504512e6 0.0
7.926052540504512e6 4.92828881498296e7 0.0
0.0 0.0 0.0

-2.5929678504956216e6 3.621763048959694e7 0.0
3.621763048959694e7 1.0703094619844197e6 0.0
0.0 0.0 0.0

1.3896943307284452e6 1.3224281212393029e7 0.0
1.3224281212393029e7 -2.8347630985105224e7 0.0
0.0 0.0 0.0

-3.0638408387586316e6 2.6971334846400972e7 0.0
2.6971334846400972e7 1.2728769352957819e7 0.0
0.0 0.0 0.0

1.153223227788506e6 2.3201991117446396e7 0.0
2.3201991117446396e7 -1.755336416843822e7 0.0
0.0 0.0 0.0

-4.93885212519979e6 2.0330852573711444e7 0.0
2.0330852573711444e7 1.860508030719613e7 0.0
0.0 0.0 0.0

-5.735148395922698e6 2.993799599718408e7 0.0
2.993799599718408e7 9.495565206471482e6 0.0
0.0 0.0 0.0

1.3333018326735187e7 3.004779123986362e7 0.0
3.004779123986362e7 -4.628210001560708e6 0.0
0.0 0.0 0.0

-3.2940427572083026e6 2.4759655325192213e7 0.0
2.4759655325192213e7 1.87480914554976e7 0.0
0.0 0.0 0.0

-2.8693681203805096e6 2.6003305693753034e7 0.0
2.6003305693753034e7 1.4501024157786801e7 0.0
0.0 0.0 0.0

-5.011099169844662e6 2.1223386387445174e7 0.0
2.1223386387445174e7 -1.8462481745476548e7 0.0
0.0 0.0 0.0

-8.15199945139993e6 1.6427979980579272e7 0.0
1.6427979980579272e7 3.140064788982889e7 0.0
0.0 0.0 0.0

-2.1578632926008464e6 3.6095891679431826e7 0.0
3.6095891679431826e7 2.4809923498714115e6 0.0
0.0 0.0 0.0

2.218383707850609e6 4.774678071086049e6 0.0
4.774678071086049e6 -3.363982461988552e7 0.0
0.0 0.0 0.0

-5.112255282348238e6 3.8930608890998573e6 0.0
3.8930608890998573e6 7.27779780493921e7 0.0
0.0 0.0 0.0

-2.476878119006376e6 2.348813587873007e7 0.0
2.348813587873007e7 -1.0898034292787889e7 0.0
0.0 0.0 0.0

-2.7133079177665957e6 3.705845488518808e7 0.0
3.705845488518808e7 1.1518897260466607e6 0.0
0.0 0.0 0.0

735708.4087902214 1.5703457850699585e7 0.0
1.5703457850699585e7 -3.235054666465053e7 0.0
0.0 0.0 0.0

1.5922501197401655e6 3.3145269095491797e7 0.0
3.3145269095491797e7 -4.706294155277653e6 0.0
0.0 0.0 0.0

1.4734272588712592e6 1.124182138003621e7 0.0
1.124182138003621e7 -2.8459027012111094e7 0.0
0.0 0.0 0.0

-8.231068249380052e6 1.4626074164097894e7 0.0
1.4626074164097894e7 3.502710192690412e7 0.0
0.0 0.0 0.0

-6.969058773501681e7 5.3482818564885736e7 0.0
5.3482818564885736e7 1.0903590547483642e7 0.0
0.0 0.0 0.0

-1.7460087339925535e7 2.9191442659779683e7 0.0
2.9191442659779683e7 -1.3084631707684686e6 0.0
0.0 0.0 0.0

-3.623647688429011e6 2.6948838849371705e7 0.0
2.6948838849371705e7 1.376422714552435e7 0.0
0.0 0.0 0.0

-8.400727152260054e6 -3.943605670426581e6 0.0
-3.943605670426581e6 2.3946113896583367e7 0.0
0.0 0.0 0.0

-2.075344902727877e7 2.764284413914827e7 0.0
2.764284413914827e7 -3.708716305689196e6 0.0
0.0 0.0 0.0

-7.832760582302628e6 3.0585028120609514e7 0.0
3.0585028120609514e7 7.9950558557151e6 0.0
0.0 0.0 0.0

1.9638599556066412e6 2.8472228581806268e6 0.0
2.8472228581806268e6 -4.657970886651456e7 0.0
0.0 0.0 0.0

-5.117587626299949e6 1.8858452537997663e7 0.0
1.8858452537997663e7 2.1979761926506586e7 0.0
0.0 0.0 0.0

-7.471243324942989e6 1.725073856579336e7 0.0
1.725073856579336e7 2.743040038287594e7 0.0
0.0 0.0 0.0

6.78722417126038e6 4.2712693140204325e7 0.0
4.2712693140204325e7 -2.084515827288067e6 0.0
0.0 0.0 0.0

-1.0658131638659693e7 4.1051003223855225e6 0.0
4.1051003223855225e6 2.5831214172827587e7 0.0
0.0 0.0 0.0

-7.579819524900077e6 1.7355824228890684e7 0.0
1.7355824228890684e7 3.238587210790535e7 0.0
0.0 0.0 0.0

-397613.3631901657 3.7961794552366294e7 0.0
3.7961794552366294e7 995364.7475499057 0.0
0.0 0.0 0.0

-6.0614127207717e6 1.673924008866862e6 0.0
1.673924008866862e6 6.066834392420843e7 0.0
0.0 0.0 0.0

-8.45158449662772e6 -1.8264820610819354e6 0.0
-1.8264820610819354e6 2.5925070749104246e7 0.0
0.0 0.0 0.0

2.0675305453651473e6 7.997750637026466e6 0.0
7.997750637026466e6 -3.1724769206742045e7 0.0
0.0 0.0 0.0

-2.6326585906736297e6 2.5996879758710142e7 0.0
2.5996879758710142e7 1.129816336938622e7 0.0
0.0 0.0 0.0

-6.605200264558043e6 1.68868974701611e7 0.0
1.68868974701611e7 3.6282787257057324e7 0.0
0.0 0.0 0.0

705922.3133813869 2.249416413850611e7 0.0
2.249416413850611e7 -1.7261548872612726e7 0.0
0.0 0.0 0.0

1.2236271281931186e6 2.1376072443339422e7 0.0
2.1376072443339422e7 -1.8300413504057515e7 0.0
0.0 0.0 0.0

1.3424926389689632e6 1.286055555611035e7 0.0
1.286055555611035e7 -3.0425193447441194e7 0.0
0.0 0.0 0.0

-290777.33487554826 1.94092625494402e7 0.0
1.94092625494402e7 -2.7360803923218757e7 0.0
0.0 0.0 0.0

1.704560526629588e6 2.2916315848376777e7 0.0
2.2916315848376777e7 9.736805350023491e6 0.0
0.0 0.0 0.0

-6.466015808167091e6 1.8002750890293453e7 0.0
1.8002750890293453e7 3.428186496215787e7 0.0
0.0 0.0 0.0

1.834085303560698e6 3.2186160138961807e7 0.0
3.2186160138961807e7 -5.717866271931188e6 0.0
0.0 0.0 0.0

-6.408402704770021e6 3.370298961736919e7 0.0
3.370298961736919e7 6.3826215584161095e6 0.0
0.0 0.0 0.0

-1.3268422569699138e6 3.666114905700985e7 0.0
3.666114905700985e7 1.7608256293288283e6 0.0
0.0 0.0 0.0

1.9340399670592383e7 2.666632436752854e7 0.0
2.666632436752854e7 8.839480571041925e7 0.0
0.0 0.0 0.0

-2.1077106967842844e6 2.652264802624642e7 0.0
2.652264802624642e7 9.566064662764689e6 0.0
0.0 0.0 0.0

1.1870953038760712e6 2.0281752497101255e7 0.0
2.0281752497101255e7 -1.941897640182731e7 0.0
0.0 0.0 0.0

-1.131299579042824e6 2.0390369296807382e7 0.0
2.0390369296807382e7 -2.5464441725211155e7 0.0
0.0 0.0 0.0

1.14497511852392e6 1.995204549652965e7 0.0
1.995204549652965e7 -2.1329883312732473e7 0.0
0.0 0.0 0.0

2.6144533898447547e6 3.609798452795665e7 0.0
3.609798452795665e7 -2.3704653995153555e6 0.0
0.0 0.0 0.0

-2.6299876467940332e6 2.5205242844103366e7 0.0
2.5205242844103366e7 8.925577094709894e6 0.0
0.0 0.0 0.0

545958.662108374 2.2004093085985996e7 0.0
2.2004093085985996e7 3.7364857898739986e6 0.0
0.0 0.0 0.0

-1.182098068548372e6 2.1829497574508257e7 0.0
2.1829497574508257e7 -1.9331299490012508e7 0.0
0.0 0.0 0.0

-5.800890988516637e6 1.4981318090711538e7 0.0
1.4981318090711538e7 1.2447136503586998e7 0.0
0.0 0.0 0.0

8.2004567701936625e6 5.014317671136305e7 0.0
5.014317671136305e7 -5.393820318026181e6 0.0
0.0 0.0 0.0

845041.1613795459 3.998351496054667e6 0.0
3.998351496054667e6 -6.6826481061646044e7 0.0
0.0 0.0 0.0

1.3104087710337254e8 5.0187893089261346e7 0.0
5.0187893089261346e7 3.3488801582873486e7 0.0
0.0 0.0 0.0

5.8040272322854996e7 5.129500843425751e7 0.0
5.129500843425751e7 -1.684354892241143e7 0.0
0.0 0.0 0.0

236564.52363619674 2.2558101019342978e7 0.0
2.2558101019342978e7 2.2393645061141394e7 0.0
0.0 0.0 0.0

2.6793410097693205e6 2.3299613533470426e7 0.0
2.3299613533470426e7 1.250528219869016e7 0.0
0.0 0.0 0.0

-3.069827509723893e7 2.9650307350721184e7 0.0
2.9650307350721184e7 -1.9020407490051324e6 0.0
0.0 0.0 0.0

-7.441520610884966e7 3.665845595656154e7 0.0
3.665845595656154e7 -4.193762655228976e6 0.0
0.0 0.0 0.0

-6.194600013623535e6 1.5217582541291708e7 0.0
1.5217582541291708e7 1.8298308421708122e7 0.0
0.0 0.0 0.0

385654.56552125385 3.14445778596737e7 0.0
3.14445778596737e7 -2.2033861903698193e6 0.0
0.0 0.0 0.0

1.1122850813569287e6 1.8839118353106823e7 0.0
1.8839118353106823e7 -2.2386278435654037e7 0.0
0.0 0.0 0.0

667275.4147384875 8.482888327759435e6 0.0
8.482888327759435e6 -6.041230749893632e7 0.0
0.0 0.0 0.0

613387.578032772 1.9095372783526625e7 0.0
1.9095372783526625e7 -2.2786742999018714e7 0.0
0.0 0.0 0.0

-3.9711939521957133e6 1.680086472447012e7 0.0
1.680086472447012e7 -4.6495658081241086e7 0.0
0.0 0.0 0.0

-8.010206548532812e6 1.7455876225736286e7 0.0
1.7455876225736286e7 2.520624257439425e7 0.0
0.0 0.0 0.0

2.830481918289207e6 2.1136867624900468e7 0.0
2.1136867624900468e7 3.2588741034947783e7 0.0
0.0 0.0 0.0

1.2674896188007954e6 2.136638858760861e7 0.0
2.136638858760861e7 9.232953828848762e6 0.0
0.0 0.0 0.0

-1.2145991241561921e7 1.043858563865726e7 0.0
1.043858563865726e7 4.57545105781313e6 0.0
0.0 0.0 0.0

-7.942746677790932e6 6.442066574491845e6 0.0
6.442066574491845e6 4.850980292220957e7 0.0
0.0 0.0 0.0

-3.116649445894117e6 3.0767857359856907e7 0.0
3.0767857359856907e7 7.08132770686435e6 0.0
0.0 0.0 0.0

1.7975081026246008e6 2.1543094795523398e7 0.0
2.1543094795523398e7 3.503484805551144e7 0.0
0.0 0.0 0.0

-3.5283755685402397e6 2.0731831211257204e7 0.0
2.0731831211257204e7 1.9222063943071634e7 0.0
0.0 0.0 0.0

-8.58361802481221e6 2.437398452535288e6 0.0
2.437398452535288e6 1.0250928883979574e7 0.0
0.0 0.0 0.0

-1.6126529698482044e6 1.4034233668054832e7 0.0
1.4034233668054832e7 7.698603824956755e7 0.0
0.0 0.0 0.0

-1.7044730902784131e6 2.447758721574856e7 0.0
2.447758721574856e7 3.0844060338710938e6 0.0
0.0 0.0 0.0

2.0135935434758728e6 3.1221250214978755e7 0.0
3.1221250214978755e7 -6.743668057729431e6 0.0
0.0 0.0 0.0

1.992866791831756e6 2.088366586850575e7 0.0
2.088366586850575e7 3.651544560623705e7 0.0
0.0 0.0 0.0

-5.1022193616470825e6 1.4858645086336983e7 0.0
1.4858645086336983e7 1.558403217094221e7 0.0
0.0 0.0 0.0

1.0176245972166419e7 3.1021467259080086e7 0.0
3.1021467259080086e7 -5.991186606233477e6 0.0
0.0 0.0 0.0

-3.082161062829431e6 5.845898854182373e6 0.0
5.845898854182373e6 8.21182150928259e7 0.0
0.0 0.0 0.0

9.950446145300934e6 2.8437249057868592e7 0.0
2.8437249057868592e7 -5.274759308641698e6 0.0
0.0 0.0 0.0

-2.2665550656922646e6 3.6876323629240446e7 0.0
3.6876323629240446e7 2.632634777128448e6 0.0
0.0 0.0 0.0

-6.990531204408233e6 1.9015981908189036e7 0.0
1.9015981908189036e7 -2.817387472572508e7 0.0
0.0 0.0 0.0

-2.996285301431521e6 2.3965045948497534e7 0.0
2.3965045948497534e7 1.9969189314800974e7 0.0
0.0 0.0 0.0

-7.736361527439572e6 1.5020141938538583e7 0.0
1.5020141938538583e7 3.7506756376334615e7 0.0
0.0 0.0 0.0

6.227044723687556e6 3.551655974946525e7 0.0
3.551655974946525e7 -4.646777391401811e6 0.0
0.0 0.0 0.0

2.683219046973368e6 5.770063273318503e6 0.0
5.770063273318503e6 -1.1787631138701031e7 0.0
0.0 0.0 0.0

399200.2190201923 4.663937510939656e7 0.0
4.663937510939656e7 -1.8690705897796035e6 0.0
0.0 0.0 0.0

6.203214749299794e6 2.5180920554123726e7 0.0
2.5180920554123726e7 9.809492204085752e6 0.0
0.0 0.0 0.0

-542.2245199768804 2.8696209157828003e7 0.0
2.8696209157828003e7 -4.162803160000595e6 0.0
0.0 0.0 0.0

1.4758901176184546e6 5.650308713110836e6 0.0
5.650308713110836e6 -4.584066980000871e7 0.0
0.0 0.0 0.0

-3.4427417687054407e6 2.4373641857251585e7 0.0
2.4373641857251585e7 -1.2672876810733179e7 0.0
0.0 0.0 0.0

9.591745654486202e6 2.5739086765272e7 0.0
2.5739086765272e7 1.4896347370169636e7 0.0
0.0 0.0 0.0

-1.1145207440038314e6 3.427364211141718e7 0.0
3.427364211141718e7 1.5310053268624628e6 0.0
0.0 0.0 0.0

6.370141327508934e6 2.1668697405155852e7 0.0
2.1668697405155852e7 3.753264147612744e7 0.0
0.0 0.0 0.0

-5.941369705691234e6 930213.159929826 0.0
930213.159929826 1.2493271570031859e7 0.0
0.0 0.0 0.0

1.1996169644755628e6 2.0093305061697196e7 0.0
2.0093305061697196e7 4.299807155848398e7 0.0
0.0 0.0 0.0

-8.673604216841994e6 2.816413438027039e7 0.0
2.816413438027039e7 4.878164793932484e6 0.0
0.0 0.0 0.0

1.0677315213436376e7 2.9462791293569226e7 0.0
2.9462791293569226e7 -5.280361209782308e6 0.0
0.0 0.0 0.0

4.806325962928807e6 2.7680635675935045e7 0.0
2.7680635675935045e7 -9.29551430882867e6 0.0
0.0 0.0 0.0

1.0997503256897537e7 3.759636178763249e7 0.0
3.759636178763249e7 -5.276372101455788e6 0.0
0.0 0.0 0.0

1.0824243490950598e6 2.0189074353457443e7 0.0
2.0189074353457443e7 6.920061977315783e6 0.0
0.0 0.0 0.0

-4.264818115160962e6 2.7931755633106034e7 0.0
2.7931755633106034e7 1.2488594280489681e7 0.0
0.0 0.0 0.0

6.147559470409008e6 3.888417367490643e7 0.0
3.888417367490643e7 -4.628507613714457e6 0.0
0.0 0.0 0.0

-1.0575188970735982e7 1.9021681578413058e7 0.0
1.9021681578413058e7 -5.969313949876449e7 0.0
0.0 0.0 0.0

-8.387072032792869e6 1.2990124257199198e7 0.0
1.2990124257199198e7 1.6311674032536253e7 0.0
0.0 0.0 0.0

1.8149120314074955e6 2.2372079230514113e7 0.0
2.2372079230514113e7 1.1081591255317498e7 0.0
0.0 0.0 0.0

6.431887294893598e6 3.658936826573768e7 0.0
3.658936826573768e7 -5.402797768994829e6 0.0
0.0 0.0 0.0

-1.6681936711098477e6 2.2351045656693283e7 0.0
2.2351045656693283e7 -2.003713650831035e7 0.0
0.0 0.0 0.0

2.8661277408083156e6 3.2521729487276506e6 0.0
3.2521729487276506e6 -3.196166204102739e7 0.0
0.0 0.0 0.0

-4.833500817349568e6 594000.636282288 0.0
594000.636282288 7.634998142916036e7 0.0
0.0 0.0 0.0

293461.77120517753 1.5786632957905311e7 0.0
1.5786632957905311e7 -3.462140866055749e7 0.0
0.0 0.0 0.0

3.6771608022628697e6 2.4136447856379222e7 0.0
2.4136447856379222e7 1.3915750181468436e7 0.0
0.0 0.0 0.0

-6.715801346497392e6 1.8085250713141702e7 0.0
1.8085250713141702e7 2.615117468896538e7 0.0
0.0 0.0 0.0

1.1986401657694515e7 2.893191751708868e7 0.0
2.893191751708868e7 -4.437923431882031e6 0.0
0.0 0.0 0.0

2.160186118686551e6 6.17634859973091e6 0.0
6.17634859973091e6 -2.6604717389579482e7 0.0
0.0 0.0 0.0

5.15754250437715e6 2.513849023117183e7 0.0
2.513849023117183e7 -2.1176878801513417e6 0.0
0.0 0.0 0.0

1.0371460570185795e7 2.6905689120924365e7 0.0
2.6905689120924365e7 1.4888345113228139e7 0.0
0.0 0.0 0.0

1.5524588086985946e7 4.9009695094612576e7 0.0
4.9009695094612576e7 -7.877262030956514e6 0.0
0.0 0.0 0.0

4.490620691872336e6 2.730974255585261e7 0.0
2.730974255585261e7 -9.340308332889665e6 0.0
0.0 0.0 0.0

5.170502301397087e6 2.0192045234418314e7 0.0
2.0192045234418314e7 5.740394883807016e7 0.0
0.0 0.0 0.0

2.4272371256058346e6 1.4628028990360028e6 0.0
1.4628028990360028e6 -4.162376270726912e7 0.0
0.0 0.0 0.0

1.8136370384462764e6 3.771970285362228e7 0.0
3.771970285362228e7 -2.7942958598110545e6 0.0
0.0 0.0 0.0

7.454405291656837e6 2.3840636498544306e7 0.0
2.3840636498544306e7 5.73520443970948e6 0.0
0.0 0.0 0.0

-8.114445655838645e7 2.3619828583534412e7 0.0
2.3619828583534412e7 1.155443083882384e6 0.0
0.0 0.0 0.0

-7.155392999331538e6 3.0430918578104965e7 0.0
3.0430918578104965e7 8.787535589989245e6 0.0
0.0 0.0 0.0

-7.791395106130763e6 1.2096573100308564e7 0.0
1.2096573100308564e7 1.785991733404927e7 0.0
0.0 0.0 0.0

-677097.5078096222 1.9426811775650244e7 0.0
1.9426811775650244e7 -2.954853529622715e7 0.0
0.0 0.0 0.0

-1.0461199408845715e6 2.3168825276455574e7 0.0
2.3168825276455574e7 1.8718018199665867e7 0.0
0.0 0.0 0.0

-4.7026940196773745e6 1.9119776407085724e7 0.0
1.9119776407085724e7 -4.078015264616537e7 0.0
0.0 0.0 0.0

2.0223985930747092e6 2.6289546161646745e6 0.0
2.6289546161646745e6 -5.460008646403785e7 0.0
0.0 0.0 0.0

7.135447987253426e7 2.3730619163746767e7 0.0
2.3730619163746767e7 5.880483792151857e6 0.0
0.0 0.0 0.0

-1.4218690291688496e8 5.240950409529281e7 0.0
5.240950409529281e7 -3.040693660455759e7 0.0
0.0 0.0 0.0

1.80272323312095e7 2.4489585674644668e7 0.0
2.4489585674644668e7 9.310933934699634e6 0.0
0.0 0.0 0.0

1.8709154244500855e6 2.8079262016142655e7 0.0
2.8079262016142655e7 -1.0053919092656774e7 0.0
0.0 0.0 0.0

-2.9953980587957622e6 2.5234363238470864e7 0.0
2.5234363238470864e7 1.6261585812513025e7 0.0
0.0 0.0 0.0

2.636923722984817e6 3.2343325732489172e6 0.0
3.2343325732489172e6 -3.1247232546746362e7 0.0
0.0 0.0 0.0

-8.421601376625914e6 2.827965386546042e7 0.0
2.827965386546042e7 7.052413881160569e6 0.0
0.0 0.0 0.0

4.511940111447164e6 3.884595765855898e7 0.0
3.884595765855898e7 -2.2705706594320033e6 0.0
0.0 0.0 0.0

-4.579091512401549e6 2.057241063781927e7 0.0
2.057241063781927e7 -3.0968753381282374e7 0.0
0.0 0.0 0.0

-429670.23917558463 2.832544671301405e7 0.0
2.832544671301405e7 -5.795253649409334e6 0.0
0.0 0.0 0.0

1.8876788011722285e6 5.822882467018941e6 0.0
5.822882467018941e6 -7.287224001225665e6 0.0
0.0 0.0 0.0

1.4220723519309593e7 2.6507561347439416e7 0.0
2.6507561347439416e7 1.4616299592025075e7 0.0
0.0 0.0 0.0

-1.4477131746325564e7 2.681744369875111e7 0.0
2.681744369875111e7 -3.094666099017214e6 0.0
0.0 0.0 0.0

1.141038799972998e6 2.2718535880456157e7 0.0
2.2718535880456157e7 -1.5562438434327083e7 0.0
0.0 0.0 0.0

-2.1231139288148084e6 2.903685528727014e7 0.0
2.903685528727014e7 1.3430211373886515e6 0.0
0.0 0.0 0.0

238797.21824300662 1.594981765111683e7 0.0
1.594981765111683e7 -3.272418975413657e7 0.0
0.0 0.0 0.0

-6.038642867048472e6 1.8436149590121685e6 0.0
1.8436149590121685e6 6.2140711300270505e7 0.0
0.0 0.0 0.0

583052.1349906931 1.9777562933079626e7 0.0
1.9777562933079626e7 -2.122063441134958e7 0.0
0.0 0.0 0.0

5.5439726012501465e6 2.386414398056546e7 0.0
2.386414398056546e7 773282.2566645847 0.0
0.0 0.0 0.0

-1.9008687512432847e7 2.295850796376158e7 0.0
2.295850796376158e7 -7.62426451769358e7 0.0
0.0 0.0 0.0

2.610727087104369e6 7.100262232487862e6 0.0
7.100262232487862e6 -3.092620369621145e7 0.0
0.0 0.0 0.0

941089.1107323775 2.1735092173691344e7 0.0
2.1735092173691344e7 -2.0584760699024916e7 0.0
0.0 0.0 0.0

-5.304847159574289e6 2.9479114225379143e7 0.0
2.9479114225379143e7 1.0292539918808019e7 0.0
0.0 0.0 0.0

-52457.71642101125 3.3547455607524954e7 0.0
3.3547455607524954e7 -2.5125020172126144e6 0.0
0.0 0.0 0.0

-2.6320597037259173e6 2.668938853040591e7 0.0
2.668938853040591e7 1.2422337952919666e7 0.0
0.0 0.0 0.0

8.060560630620126e6 2.46711827289388e7 0.0
2.46711827289388e7 1.0638690426851807e7 0.0
0.0 0.0 0.0

-1.0185892552326332e8 3.1290028938829485e7 0.0
3.1290028938829485e7 -3.5131384126024283e6 0.0
0.0 0.0 0.0

-1.9684663424199705e6 561926.5021299754 0.0
561926.5021299754 1.7627674023513047e6 0.0
0.0 0.0 0.0

-1.7073552020154386e6 2.054395197858015e7 0.0
2.054395197858015e7 -2.266591963118735e6 0.0
0.0 0.0 0.0

1.702163527755156e7 2.46760723819788e7 0.0
2.46760723819788e7 5.15487414622596e6 0.0
0.0 0.0 0.0

-608131.9119865126 4.0766221337043546e7 0.0
4.0766221337043546e7 1.2967050147103248e6 0.0
0.0 0.0 0.0

-4.077184022049343e6 1.7114634634245276e7 0.0
1.7114634634245276e7 -4.997689904237901e7 0.0
0.0 0.0 0.0

-3.8678095951143648e6 2.4401878270566218e7 0.0
2.4401878270566218e7 -9.330043354952406e6 0.0
0.0 0.0 0.0

5.7876091581389215e6 2.892919033970025e7 0.0
2.892919033970025e7 -8.056389090179866e6 0.0
0.0 0.0 0.0

1.0553661322959438e6 1.7977502104336157e7 0.0
1.7977502104336157e7 -1.8224851060283877e7 0.0
0.0 0.0 0.0

5.5975596168666715e6 2.7977003566968177e7 0.0
2.7977003566968177e7 -7.861105581935625e6 0.0
0.0 0.0 0.0

1.0946022118390696e6 2.2655292968365543e7 0.0
2.2655292968365543e7 1.1537214619201824e7 0.0
0.0 0.0 0.0

809073.1206595344 3.3174149276365437e7 0.0
3.3174149276365437e7 -1.9122633443653116e6 0.0
0.0 0.0 0.0

2.0734524096310176e6 1.0686460402969489e7 0.0
1.0686460402969489e7 -2.9916150200829748e7 0.0
0.0 0.0 0.0

1.9169216289929543e6 2.818666738246929e6 0.0
2.818666738246929e6 -4.72353980383659e7 0.0
0.0 0.0 0.0

-1.9437051331464536e6 1.854112922555339e6 0.0
1.854112922555339e6 -155482.40817342693 0.0
0.0 0.0 0.0

-1.0193072804423794e7 1.0277245709924137e6 0.0
1.0277245709924137e6 3.075832277676093e6 0.0
0.0 0.0 0.0

4.798670835334677e6 2.4208860764724035e7 0.0
2.4208860764724035e7 1.688121368864605e7 0.0
0.0 0.0 0.0

3.4766310588777484e6 2.096408198106048e7 0.0
2.096408198106048e7 1.534031346046106e7 0.0
0.0 0.0 0.0

814694.4830229986 2.238323307610491e7 0.0
2.238323307610491e7 1.1517437573219141e7 0.0
0.0 0.0 0.0

2.367013552656832e6 5.309082745120667e6 0.0
5.309082745120667e6 -1.964148840700455e7 0.0
0.0 0.0 0.0

5.308965063892724e6 2.661145797171674e7 0.0
2.661145797171674e7 -7.171791197799061e6 0.0
0.0 0.0 0.0

2.1559736709161224e6 4.365567488691486e6 0.0
4.365567488691486e6 -8.854566796009231e6 0.0
0.0 0.0 0.0

4.917956420395905e6 2.805432205518168e7 0.0
2.805432205518168e7 -8.737036030738704e6 0.0
0.0 0.0 0.0

-5.498633867125107e6 1.8527895619962692e7 0.0
1.8527895619962692e7 3.4980522951239325e7 0.0
0.0 0.0 0.0

2.6499102865034463e6 3.1879490521694724e7 0.0
3.1879490521694724e7 -5.258539169502e6 0.0
0.0 0.0 0.0

7.18182157631806e6 3.752012270183449e7 0.0
3.752012270183449e7 -3.783168057507592e6 0.0
0.0 0.0 0.0

1.9332196115689687e6 7.894430912831068e6 0.0
7.894430912831068e6 -3.213072590845413e7 0.0
0.0 0.0 0.0

1.980113706667276e6 6.310613915018737e6 0.0
6.310613915018737e6 -3.2929046320295602e7 0.0
0.0 0.0 0.0

2.057210040957775e7 2.686714854345311e7 0.0
2.686714854345311e7 2.2421810808914397e6 0.0
0.0 0.0 0.0

2.7768434997779727e6 2.1933962563032106e7 0.0
2.1933962563032106e7 3.151006580283205e7 0.0
0.0 0.0 0.0

487257.61823187675 2.0511048393297147e7 0.0
2.0511048393297147e7 -1.977052418336843e7 0.0
0.0 0.0 0.0

-6.628791200915506e6 -1.6239367308660941e6 0.0
-1.6239367308660941e6 4.8802778981469795e7 0.0
0.0 0.0 0.0

-563512.8179813975 3.882496184871319e7 0.0
3.882496184871319e7 976698.1710828915 0.0
0.0 0.0 0.0

-7.243338277673611e6 1.743933970159161e7 0.0
1.743933970159161e7 3.2375771474447332e7 0.0
0.0 0.0 0.0

-8.981258703798702e6 -1.7096341692180524e6 0.0
-1.7096341692180524e6 2.2073110862107053e7 0.0
0.0 0.0 0.0

50360.55483216373 2.0280598469234362e7 0.0
2.0280598469234362e7 -1.1704344352176707e7 0.0
0.0 0.0 0.0

2.115358020583207e6 2.9175261169876996e6 0.0
2.9175261169876996e6 -4.54707486959844e7 0.0
0.0 0.0 0.0

-5.534487728563809e6 3.4377499409205996e7 0.0
3.4377499409205996e7 6.078838564915735e6 0.0
0.0 0.0 0.0

242880.05808546278 2.797146563402549e7 0.0
2.797146563402549e7 -5.307606315196397e6 0.0
0.0 0.0 0.0

187618.73761118576 1.5346987813031241e7 0.0
1.5346987813031241e7 -3.471985685386026e7 0.0
0.0 0.0 0.0

2.1631104671669185e7 2.40538211329885e7 0.0
2.40538211329885e7 8.579649123668442e6 0.0
0.0 0.0 0.0

-6.35900000570867e6 3.2946946827474106e7 0.0
3.2946946827474106e7 7.178912918386223e6 0.0
0.0 0.0 0.0

-7.602653014599774e6 -212950.43551604863 0.0
-212950.43551604863 4.656645709773442e7 0.0
0.0 0.0 0.0

-7.867717158914827e6 -2.4429537306761006e6 0.0
-2.4429537306761006e6 3.583846487859383e7 0.0
0.0 0.0 0.0

7.400398651355539e6 2.4292175585290108e7 0.0
2.4292175585290108e7 1.4038187557802955e6 0.0
0.0 0.0 0.0

2.1371277536917906e6 2.7844676143564105e7 0.0
2.7844676143564105e7 -9.706580040598864e6 0.0
0.0 0.0 0.0

2.6827239383026026e6 2.859874111165382e7 0.0
2.859874111165382e7 -9.19287240696934e6 0.0
0.0 0.0 0.0

-3.742620935322117e6 8.180889945490957e6 0.0
8.180889945490957e6 6.863497700694712e7 0.0
0.0 0.0 0.0

3.2118979022829244e6 2.4486962083763196e6 0.0
2.4486962083763196e6 -1.4416732436348561e7 0.0
0.0 0.0 0.0

-1.0682668135569962e7 2.681704516340616e7 0.0
2.681704516340616e7 -3.2441909892069595e6 0.0
0.0 0.0 0.0

-1.824834372126453e7 2.7028628869711276e7 0.0
2.7028628869711276e7 -1.0533325890904639e7 0.0
0.0 0.0 0.0

-3.760659537334925e7 3.3063366219990004e7 0.0
3.3063366219990004e7 -8.089220323829994e6 0.0
0.0 0.0 0.0

2.1511051865974674e6 3.9499205795930505e7 0.0
3.9499205795930505e7 -696034.8863211074 0.0
0.0 0.0 0.0

806138.227166553 2.065773804365935e7 0.0
2.065773804365935e7 1.1616752885224205e6 0.0
0.0 0.0 0.0

-7.108537296421763e6 396501.4539414015 0.0
396501.4539414015 4.93042094908909e7 0.0
0.0 0.0 0.0

1.7470446868108388e7 2.6417443817786876e7 0.0
2.6417443817786876e7 2.0721132805281328e6 0.0
0.0 0.0 0.0

517888.10072046984 2.256808679503889e7 0.0
2.256808679503889e7 -1.2465507098939287e7 0.0
0.0 0.0 0.0

-8.174147656028988e6 1.0303731656379681e6 0.0
1.0303731656379681e6 3.823278637781771e7 0.0
0.0 0.0 0.0

-3.4344319815519964e6 2.729945552440518e7 0.0
2.729945552440518e7 1.1011756993252516e7 0.0
0.0 0.0 0.0

-3.870490059988218e6 2.906681100680378e7 0.0
2.906681100680378e7 9.666803101615313e6 0.0
0.0 0.0 0.0

-7.1584673174426565e6 -86732.13845146359 0.0
-86732.13845146359 1.0066518334311e7 0.0
0.0 0.0 0.0

2.0859196408641674e6 5.321692249573807e6 0.0
5.321692249573807e6 -3.436382619755941e7 0.0
0.0 0.0 0.0

-929706.4070051014 9.404417029203087e6 0.0
9.404417029203087e6 -6.171419123531394e7 0.0
0.0 0.0 0.0

1.0398125192552198e7 2.6292519204307094e7 0.0
2.6292519204307094e7 1.5212782267945535e7 0.0
0.0 0.0 0.0

2.478734585575682e6 4.45529061997403e6 0.0
4.45529061997403e6 -1.2717857090546317e7 0.0
0.0 0.0 0.0

2.7572458392082635e7 3.702613055510115e7 0.0
3.702613055510115e7 -7.418896102976328e6 0.0
0.0 0.0 0.0

2.8847770515874587e6 4.502930433782215e6 0.0
4.502930433782215e6 -3.288969835364085e7 0.0
0.0 0.0 0.0

3.1595299673132654e6 5.109602334855807e6 0.0
5.109602334855807e6 -2.2096006892889332e7 0.0
0.0 0.0 0.0

2.456642345349647e6 4.809446571023332e6 0.0
4.809446571023332e6 -2.8834824528390143e7 0.0
0.0 0.0 0.0

1.25597042521899e6 2.185256933004767e7 0.0
2.185256933004767e7 3.3565429324623165e6 0.0
0.0 0.0 0.0

2.368694199769603e6 2.1096729864271946e7 0.0
2.1096729864271946e7 1.150704444558895e7 0.0
0.0 0.0 0.0

-473714.0414514225 1.8180861163270637e7 0.0
1.8180861163270637e7 -3.1277876906183835e7 0.0
0.0 0.0 0.0

2.6397021862573788e7 3.8167263650597624e7 0.0
3.8167263650597624e7 -5.959970225270744e6 0.0
0.0 0.0 0.0

-8.1174445153483655e6 -422934.5784201844 0.0
-422934.5784201844 3.812909042413006e7 0.0
0.0 0.0 0.0

-3.494736611548568e6 2.7479521020367466e7 0.0
2.7479521020367466e7 1.283106206050273e7 0.0
0.0 0.0 0.0

-2.0053049777583992e6 3.839803706780914e7 0.0
3.839803706780914e7 343786.21211607696 0.0
0.0 0.0 0.0

2.0748740092703523e6 3.2002256766092487e7 0.0
3.2002256766092487e7 -4.468793923568575e6 0.0
0.0 0.0 0.0

-8.2456467786834e6 -1.4041747762631623e6 0.0
-1.4041747762631623e6 2.784044373156582e7 0.0
0.0 0.0 0.0

-1.0035534664186157e7 716096.9091510744 0.0
716096.9091510744 2.019156574442722e7 0.0
0.0 0.0 0.0

4.0868505026136003e6 2.2117435578951027e7 0.0
2.2117435578951027e7 3.0386496786586046e7 0.0
0.0 0.0 0.0

-3.593547033152098e6 -1.8174595360679633e6 0.0
-1.8174595360679633e6 5.372842270711564e6 0.0
0.0 0.0 0.0

1.0521480630155813e7 2.9426388157937147e7 0.0
2.9426388157937147e7 -5.343066535843529e6 0.0
0.0 0.0 0.0

1.5801791718304702e6 2.6398050255547177e7 0.0
2.6398050255547177e7 -1.1859109074592628e7 0.0
0.0 0.0 0.0

434764.1951898793 2.1567352073464062e7 0.0
2.1567352073464062e7 -2.194560548242786e7 0.0
0.0 0.0 0.0

-1.2976079481184315e6 2.675073146637925e7 0.0
2.675073146637925e7 1.093143841628161e6 0.0
0.0 0.0 0.0

-3.304117225292919e6 2.6330050982634936e7 0.0
2.6330050982634936e7 1.177882715911787e7 0.0
0.0 0.0 0.0

-7.1939280805832e6 1.7724659784507688e7 0.0
1.7724659784507688e7 2.809407949522621e7 0.0
0.0 0.0 0.0

-2.4545452440907996e7 4.892192706144535e7 0.0
4.892192706144535e7 6.869500333368542e6 0.0
0.0 0.0 0.0

2.7307785720667783e6 4.374010954538923e6 0.0
4.374010954538923e6 -1.3006366197870748e7 0.0
0.0 0.0 0.0

1.1267454872853644e6 2.0986140805821944e7 0.0
2.0986140805821944e7 -1.799316954444875e7 0.0
0.0 0.0 0.0

1.1353217040472738e6 4.171860103194525e6 0.0
4.171860103194525e6 -6.646642703956778e7 0.0
0.0 0.0 0.0

5.484247133013752e6 2.8613827673855048e7 0.0
2.8613827673855048e7 -8.579850514498942e6 0.0
0.0 0.0 0.0

-6.446306120792101e6 1.5086190724889833e7 0.0
1.5086190724889833e7 1.6619668274822306e7 0.0
0.0 0.0 0.0

-1.1090970457504027e7 1.865855405436822e7 0.0
1.865855405436822e7 -4.32746008126445e7 0.0
0.0 0.0 0.0

4.185024419702871e7 2.542434612690437e7 0.0
2.542434612690437e7 8.902427201917538e6 0.0
0.0 0.0 0.0

-9.943812625569543e6 4.292301870549281e6 0.0
4.292301870549281e6 2.2067179150958e7 0.0
0.0 0.0 0.0

1.3848121926739555e7 2.4559647268425573e7 0.0
2.4559647268425573e7 1.0907524329984441e7 0.0
0.0 0.0 0.0

8.198932023299264e6 1.890814059900594e7 0.0
1.890814059900594e7 3.113610205492343e7 0.0
0.0 0.0 0.0

-8.780938584121978e6 1.860575079563833e7 0.0
1.860575079563833e7 -2.8453767249951195e7 0.0
0.0 0.0 0.0

5.992693725713379e6 4.173219501853336e7 0.0
4.173219501853336e7 -4.236551780371798e6 0.0
0.0 0.0 0.0

360441.4715797333 2.812462208880591e7 0.0
2.812462208880591e7 -8.238795079446223e6 0.0
0.0 0.0 0.0

-4.323636334049448e6 2.0462070894106228e7 0.0
2.0462070894106228e7 2.1854255112061884e7 0.0
0.0 0.0 0.0

-2.0357358867287226e6 9.391037941113645e6 0.0
9.391037941113645e6 -8.719866015624718e7 0.0
0.0 0.0 0.0

-1.0539959138030063e7 1.9907644990087613e6 0.0
1.9907644990087613e6 1.905414222187789e7 0.0
0.0 0.0 0.0

-1.847610988826772e6 2.2176279565125275e7 0.0
2.2176279565125275e7 -9.896459985339746e6 0.0
0.0 0.0 0.0

1.3157055568644563e7 2.5610000348265916e7 0.0
2.5610000348265916e7 1.3491521672777006e7 0.0
0.0 0.0 0.0

4.225926480677088e6 1.525142594269052e7 0.0
1.525142594269052e7 7.385487339200031e6 0.0
0.0 0.0 0.0

-3.2894091736554746e6 2.5283295358183566e7 0.0
2.5283295358183566e7 1.708660320021602e7 0.0
0.0 0.0 0.0

-3.0925683329465934e6 3.1501192687772006e7 0.0
3.1501192687772006e7 6.012609569637869e6 0.0
0.0 0.0 0.0

-2.129725450829808e7 4.986307256526992e7 0.0
4.986307256526992e7 8.238029543685752e6 0.0
0.0 0.0 0.0

822706.8339761999 8.82901648479109e6 0.0
8.82901648479109e6 -6.911368304594139e6 0.0
0.0 0.0 0.0

-3.635688077359614e6 3.1136687656195324e7 0.0
3.1136687656195324e7 5.478076932206227e6 0.0
0.0 0.0 0.0

306688.8446708312 2.6799403348527946e7 0.0
2.6799403348527946e7 -8.105059679424659e6 0.0
0.0 0.0 0.0

1.9471298175373893e7 2.583442208919191e7 0.0
2.583442208919191e7 1.3106377157620879e7 0.0
0.0 0.0 0.0

1.0372243517816928e6 3.0699333738707557e7 0.0
3.0699333738707557e7 -6.2713255815944625e6 0.0
0.0 0.0 0.0

2.0867259730008277e6 4.477989721187277e6 0.0
4.477989721187277e6 -1.0001930805965222e7 0.0
0.0 0.0 0.0

717015.6155000608 2.2991759988051374e7 0.0
2.2991759988051374e7 -1.6020661607159711e7 0.0
0.0 0.0 0.0

-9.711217985508582e6 3.986429156439045e6 0.0
3.986429156439045e6 2.9252132933199544e7 0.0
0.0 0.0 0.0

2.754099421855161e6 6.184328768006299e6 0.0
6.184328768006299e6 -3.2160635355902933e7 0.0
0.0 0.0 0.0

1.0417664216744564e6 5.134219725918737e6 0.0
5.134219725918737e6 -7.205547606106886e7 0.0
0.0 0.0 0.0

4.458077392957939e6 2.536808189972537e7 0.0
2.536808189972537e7 1.493126700022311e7 0.0
0.0 0.0 0.0

978620.5124175176 2.2867643144035757e7 0.0
2.2867643144035757e7 -1.8942719024959665e7 0.0
0.0 0.0 0.0

-4.858566702579011e6 2.080528485171147e7 0.0
2.080528485171147e7 1.959035165309391e7 0.0
0.0 0.0 0.0

3.0783834900914393e6 1.8685727961488753e6 0.0
1.8685727961488753e6 -2.7512489652278878e7 0.0
0.0 0.0 0.0

1.2541360640567066e6 1.822494635292302e7 0.0
1.822494635292302e7 -2.3757428756165333e7 0.0
0.0 0.0 0.0

-180206.12881288026 2.0728419772295486e7 0.0
2.0728419772295486e7 -2.33554998256619e7 0.0
0.0 0.0 0.0

-4.313080948595907e6 2.1920248748603772e7 0.0
2.1920248748603772e7 1.8590657788272046e7 0.0
0.0 0.0 0.0

1.5322759986052136e6 1.0214138560400309e7 0.0
1.0214138560400309e7 4.443970056881799e6 0.0
0.0 0.0 0.0

-8.765599635458961e6 363488.1858389953 0.0
363488.1858389953 3.1574927154123303e7 0.0
0.0 0.0 0.0

418231.63586746063 2.19331381722854e7 0.0
2.19331381722854e7 -1.9940582207273558e7 0.0
0.0 0.0 0.0

-6.539107438263569e6 1.3782488411789754e7 0.0
1.3782488411789754e7 1.7587707683095444e7 0.0
0.0 0.0 0.0

1.794394894328535e7 2.346361697637768e7 0.0
2.346361697637768e7 1.1777403036857825e7 0.0
0.0 0.0 0.0

1.7718153385166824e6 2.718864874343114e7 0.0
2.718864874343114e7 -1.1087718853434023e7 0.0
0.0 0.0 0.0

2.297534892909559e6 4.474070131260612e6 0.0
4.474070131260612e6 -8.52891758555448e6 0.0
0.0 0.0 0.0

-6.86869049518713e6 7.626390449474995e6 0.0
7.626390449474995e6 4.9870549309777856e7 0.0
0.0 0.0 0.0

-2.0705517255532672e6 3.4661470949667685e7 0.0
3.4661470949667685e7 915991.3918570477 0.0
0.0 0.0 0.0

-1.1231842627260134e7 3.6019487427881554e7 0.0
3.6019487427881554e7 5.878872039677193e6 0.0
0.0 0.0 0.0

-1.1487484931651823e7 5.66283921475354e6 0.0
5.66283921475354e6 1.9214890658523228e7 0.0
0.0 0.0 0.0

-8.361671427519886e6 2.8815209558836506e6 0.0
2.8815209558836506e6 4.005020692330149e7 0.0
0.0 0.0 0.0

-248981.78676700778 1.6092029235779865e7 0.0
1.6092029235779865e7 -3.504310105168004e7 0.0
0.0 0.0 0.0

-3.2642759029024e6 2.252323569431928e7 0.0
2.252323569431928e7 1.922532224239105e7 0.0
0.0 0.0 0.0

-6.874321965233527e6 8.942018471023353e6 0.0
8.942018471023353e6 5.053036202845083e7 0.0
0.0 0.0 0.0

-7.823310736418015e7 2.4514861017987594e7 0.0
2.4514861017987594e7 2.558467189650219e6 0.0
0.0 0.0 0.0

802564.8482027529 1.5011590077264965e7 0.0
1.5011590077264965e7 -2.1142546020498864e7 0.0
0.0 0.0 0.0

1.1318410426865672e6 2.1839714397585418e7 0.0
2.1839714397585418e7 528403.2656942899 0.0
0.0 0.0 0.0

2.2675600817330647e6 1.3967838035923387e6 0.0
1.3967838035923387e6 -4.448986012504667e7 0.0
0.0 0.0 0.0

6.484852185575396e6 2.1803804868324008e7 0.0
2.1803804868324008e7 1.7363142371491294e7 0.0
0.0 0.0 0.0

-7.975339988723598e6 9.248370788037721e6 0.0
9.248370788037721e6 4.688762842051359e7 0.0
0.0 0.0 0.0

818412.482074629 7.361320359201306e6 0.0
7.361320359201306e6 -9.214207950490301e6 0.0
0.0 0.0 0.0

394786.3468610244 2.6848414382953953e7 0.0
2.6848414382953953e7 -8.111038967164294e6 0.0
0.0 0.0 0.0

-1.93581363381565e6 3.0462031205803495e7 0.0
3.0462031205803495e7 605073.646717979 0.0
0.0 0.0 0.0

-2.412274078411399e6 2.5268552587051734e7 0.0
2.5268552587051734e7 1.1786652958391482e7 0.0
0.0 0.0 0.0

-7.814324884375699e6 3.524995612822522e7 0.0
3.524995612822522e7 5.764642474337284e6 0.0
0.0 0.0 0.0

-2.232918906799735e6 2.447378404092915e7 0.0
2.447378404092915e7 1.1130414799743956e6 0.0
0.0 0.0 0.0

-6.600631766799223e6 1.182948546181984e6 0.0
1.182948546181984e6 5.5687850518627875e7 0.0
0.0 0.0 0.0

4.657941443388956e6 2.16258272548058e7 0.0
2.16258272548058e7 2.783122730009725e7 0.0
0.0 0.0 0.0

1.1996869075722368e6 2.0649275523841575e7 0.0
2.0649275523841575e7 -1.9862775795516293e7 0.0
0.0 0.0 0.0

-2.2468849106568284e7 3.0795388526464466e7 0.0
3.0795388526464466e7 -1.0198320299591038e7 0.0
0.0 0.0 0.0

-8.315179560777545e6 -1.296849610392979e6 0.0
-1.296849610392979e6 1.4613737897675533e7 0.0
0.0 0.0 0.0

-1.4109042324330271e6 3.752130042846872e7 0.0
3.752130042846872e7 1.8762466069592447e6 0.0
0.0 0.0 0.0

367856.69804401975 2.091569930982628e7 0.0
2.091569930982628e7 -2.0157252950223724e6 0.0
0.0 0.0 0.0

-5.309925129757607e6 1.9502835202328537e7 0.0
1.9502835202328537e7 3.2844131550412547e7 0.0
0.0 0.0 0.0

1.9966956504427213e6 1.3142087602719458e7 0.0
1.3142087602719458e7 -2.8347233789626893e7 0.0
0.0 0.0 0.0

-6.321582672339527e6 1.8938858984916177e7 0.0
1.8938858984916177e7 2.92742948754536e7 0.0
0.0 0.0 0.0

1.7474403467811057e6 4.614686191910458e6 0.0
4.614686191910458e6 -8.215815428909706e6 0.0
0.0 0.0 0.0

2.564757390929388e6 7.825351107782037e6 0.0
7.825351107782037e6 -3.166444542982865e7 0.0
0.0 0.0 0.0

-3.7150609336750885e6 2.4335146003592957e7 0.0
2.4335146003592957e7 -1.1043974683769971e7 0.0
0.0 0.0 0.0

-1.7878353354525224e6 2.609207391324224e7 0.0
2.609207391324224e7 3.288686502555605e6 0.0
0.0 0.0 0.0

-1.4208101386392592e6 3.0508667516630113e7 0.0
3.0508667516630113e7 2.315868964641873e6 0.0
0.0 0.0 0.0

5.880040598705414e6 2.778525043426439e7 0.0
2.778525043426439e7 -8.3070564788945075e6 0.0
0.0 0.0 0.0

2.967004034568727e6 5.221291208519336e6 0.0
5.221291208519336e6 -2.8720217572110057e7 0.0
0.0 0.0 0.0

1.137011667842241e6 4.554738848874672e6 0.0
4.554738848874672e6 -5.100686235934129e6 0.0
0.0 0.0 0.0

1.7729400235559512e6 6.926024008564414e6 0.0
6.926024008564414e6 -3.3739243094621554e7 0.0
0.0 0.0 0.0

1.7701015510625588e6 7.299520472464413e6 0.0
7.299520472464413e6 -9.566380130758394e6 0.0
0.0 0.0 0.0

2.4057667525034826e7 2.365618450264073e7 0.0
2.365618450264073e7 1.0381992438807439e7 0.0
0.0 0.0 0.0

-3.0934071531244214e6 4.196636745072034e7 0.0
4.196636745072034e7 2.704353351471302e6 0.0
0.0 0.0 0.0

-7.390283020888522e6 -148865.299589488 0.0
-148865.299589488 4.463351372753259e7 0.0
0.0 0.0 0.0

527582.312256787 9.316524406544663e6 0.0
9.316524406544663e6 -5.682313807234749e7 0.0
0.0 0.0 0.0

4.854011759455143e6 2.8740060110961203e7 0.0
2.8740060110961203e7 -8.77480775613717e6 0.0
0.0 0.0 0.0

-2.857993512843369e6 2.419476247000402e7 0.0
2.419476247000402e7 -1.2636211276199153e7 0.0
0.0 0.0 0.0

1.1634754744239282e6 8.247708033829171e6 0.0
8.247708033829171e6 -4.2501817196426325e7 0.0
0.0 0.0 0.0

-8.421486447636638e6 4.1357166330027886e7 0.0
4.1357166330027886e7 5.283475815261047e6 0.0
0.0 0.0 0.0

1.0783795181700505e7 2.591277381971503e7 0.0
2.591277381971503e7 1.3562407379834428e7 0.0
0.0 0.0 0.0

-4.703480219557426e7 4.618843651870502e7 0.0
4.618843651870502e7 7.15641857679799e6 0.0
0.0 0.0 0.0

-923389.5298737306 2.2089999736661218e7 0.0
2.2089999736661218e7 2.6457653856829688e7 0.0
0.0 0.0 0.0

1.7296633919208124e6 1.1895186619864674e7 0.0
1.1895186619864674e7 -2.9206261494713046e7 0.0
0.0 0.0 0.0

9.439985449186662e7 3.0128625207937095e7 0.0
3.0128625207937095e7 1.2921581137518454e7 0.0
0.0 0.0 0.0

7.618288072486843e6 2.331607846093417e7 0.0
2.331607846093417e7 1.976679705765612e7 0.0
0.0 0.0 0.0

-9.96082434567868e6 5.197109103283353e6 0.0
5.197109103283353e6 3.0232130510791317e7 0.0
0.0 0.0 0.0

2.69291262539892e6 2.171499029708859e7 0.0
2.171499029708859e7 1.2089693962267414e7 0.0
0.0 0.0 0.0

-3.9027468921817485e6 1.992357639431397e7 0.0
1.992357639431397e7 -2.9977656450595196e7 0.0
0.0 0.0 0.0

1.2273159537000507e7 2.8985144587826956e7 0.0
2.8985144587826956e7 -4.334932921703084e6 0.0
0.0 0.0 0.0

-2.4265712508454937e6 2.5843272015030175e7 0.0
2.5843272015030175e7 9.515862050973572e6 0.0
0.0 0.0 0.0

-8.056095205651952e6 7.638685963748393e6 0.0
7.638685963748393e6 4.5850340486598894e7 0.0
0.0 0.0 0.0

-7.628167267028729e6 4.2348233981016465e7 0.0
4.2348233981016465e7 3.9202537539307335e6 0.0
0.0 0.0 0.0

-9.144919556404153e6 2.7216903288378168e7 0.0
2.7216903288378168e7 5.191945084455436e6 0.0
0.0 0.0 0.0

-2.1771082480717297e6 3.003747764594268e7 0.0
3.003747764594268e7 1.540446611364215e6 0.0
0.0 0.0 0.0

5.029139863668029e6 3.49432436637245e7 0.0
3.49432436637245e7 -4.651808776135325e6 0.0
0.0 0.0 0.0

-2.0285343312945894e6 3.386371866690099e7 0.0
3.386371866690099e7 863760.5338814888 0.0
0.0 0.0 0.0

187472.70516051562 2.2153844980390996e7 0.0
2.2153844980390996e7 346672.46558607084 0.0
0.0 0.0 0.0

857948.8446564367 2.3085988528512396e7 0.0
2.3085988528512396e7 2.3035879939302526e7 0.0
0.0 0.0 0.0

3.2757833948197546e6 2.4386896214872584e7 0.0
2.4386896214872584e7 1.1074555439282123e6 0.0
0.0 0.0 0.0

-1.1022657825808357e7 1.983873997341239e7 0.0
1.983873997341239e7 -5.296289545961476e7 0.0
0.0 0.0 0.0

123424.88519375853 2.210294315070798e7 0.0
2.210294315070798e7 2.9042675760713415e6 0.0
0.0 0.0 0.0

-2.1853710101583367e6 2.606560682747855e7 0.0
2.606560682747855e7 1.6894689798959382e6 0.0
0.0 0.0 0.0

6.732753319036955e6 1.791290930598255e7 0.0
1.791290930598255e7 1.5441417295705173e7 0.0
0.0 0.0 0.0

1.4536633758077575e6 2.4751800218672648e7 0.0
2.4751800218672648e7 -1.3927622607829832e7 0.0
0.0 0.0 0.0

670357.7734766202 1.7751611108438168e7 0.0
1.7751611108438168e7 -2.5221034605126787e7 0.0
0.0 0.0 0.0

2.905793618894264e6 4.478418390395847e6 0.0
4.478418390395847e6 -3.0072592838992942e7 0.0
0.0 0.0 0.0

6.350593757091766e6 2.2908532866600756e7 0.0
2.2908532866600756e7 1.5785453390684992e7 0.0
0.0 0.0 0.0

-1.2929814147578105e6 2.43869215213271e7 0.0
2.43869215213271e7 1.5269875289298657e7 0.0
0.0 0.0 0.0

-6.0030429354115315e6 1.9315343427422434e7 0.0
1.9315343427422434e7 2.9391237052648008e7 0.0
0.0 0.0 0.0

-2.15658900758334e6 2.4948747870498497e7 0.0
2.4948747870498497e7 1.0845356346730052e7 0.0
0.0 0.0 0.0

-5.391722099321233e6 2.4538999231379624e7 0.0
2.4538999231379624e7 -1.1418677444889333e7 0.0
0.0 0.0 0.0

-6.295276627279919e6 1.9619982098971423e7 0.0
1.9619982098971423e7 2.7605726362204522e7 0.0
0.0 0.0 0.0

-6.172610398442877e6 1.8933719724022724e7 0.0
1.8933719724022724e7 3.268251562026835e7 0.0
0.0 0.0 0.0

-7.6922546358195e6 1.787102831385363e7 0.0
1.787102831385363e7 2.5983376190708436e7 0.0
0.0 0.0 0.0

-8.539603681025237e6 -1.0171512028678595e6 0.0
-1.0171512028678595e6 3.1260390124150604e7 0.0
0.0 0.0 0.0

-2.7741130967703136e6 2.761019744872273e7 0.0
2.761019744872273e7 1.1165336817468671e7 0.0
0.0 0.0 0.0

-5.058585002821693e6 1.8691379702046312e7 0.0
1.8691379702046312e7 -4.458815499633461e7 0.0
0.0 0.0 0.0

-946524.0735525172 1.8085053018458694e7 0.0
1.8085053018458694e7 -3.1182513349899508e7 0.0
0.0 0.0 0.0

-3.739038172599662e7 3.5694139395298496e7 0.0
3.5694139395298496e7 -1.3697153424385432e7 0.0
0.0 0.0 0.0

-5.941874331669275e6 6.276840464047754e6 0.0
6.276840464047754e6 5.672007522938796e7 0.0
0.0 0.0 0.0

-224971.33641371317 1.8792893071625646e7 0.0
1.8792893071625646e7 -2.9163538799073264e7 0.0
0.0 0.0 0.0

-414478.4929156269 3.493463357870694e7 0.0
3.493463357870694e7 -1.4473459558566974e6 0.0
0.0 0.0 0.0

4.32888214452772e6 2.145726029890092e7 0.0
2.145726029890092e7 2.149546023656114e7 0.0
0.0 0.0 0.0

-8.262342157574549e6 -3.3572408765919493e6 0.0
-3.3572408765919493e6 2.702321759902018e7 0.0
0.0 0.0 0.0

-385781.1341865154 2.1858451807309914e7 0.0
2.1858451807309914e7 -2.398284242945985e6 0.0
0.0 0.0 0.0

-581122.6326956777 2.4056968602496415e7 0.0
2.4056968602496415e7 -1.0409552373967147e7 0.0
0.0 0.0 0.0

-1.157629979748163e7 9.903637087716658e6 0.0
9.903637087716658e6 2.070781639467537e7 0.0
0.0 0.0 0.0

1.683594747449737e6 1.2164615979885291e6 0.0
1.2164615979885291e6 -5.669511939277955e7 0.0
0.0 0.0 0.0

-233306.19944241364 1.1757287769091735e7 0.0
1.1757287769091735e7 -1.046743377386432e7 0.0
0.0 0.0 0.0

-9.58816887339132e6 4.1273759911267245e6 0.0
4.1273759911267245e6 3.688266482864649e7 0.0
0.0 0.0 0.0

2.2291017386097554e6 2.5373834709308557e7 0.0
2.5373834709308557e7 -1.3424679938026046e7 0.0
0.0 0.0 0.0

8.37054324713407e6 2.0747328334706556e7 0.0
2.0747328334706556e7 4.008182725208855e7 0.0
0.0 0.0 0.0

-229376.67067149188 1.1283266296349373e7 0.0
1.1283266296349373e7 -5.159848550323377e6 0.0
0.0 0.0 0.0

1.1335038491433313e7 2.5931899470700517e7 0.0
2.5931899470700517e7 1.5448357082155652e7 0.0
0.0 0.0 0.0

-3.9349169169577872e6 4.302935361167731e7 0.0
4.302935361167731e7 2.9892643731970433e6 0.0
0.0 0.0 0.0

-1.0826658205769964e7 5.516273536693844e6 0.0
5.516273536693844e6 2.6972125111959174e7 0.0
0.0 0.0 0.0

1.708069190871248e6 2.2049854833526026e7 0.0
2.2049854833526026e7 2.5788773043119878e7 0.0
0.0 0.0 0.0

1.1282453396244403e6 1.2262223602542927e7 0.0
1.2262223602542927e7 -2.9775807331580833e7 0.0
0.0 0.0 0.0

-2.5802304787283197e7 3.1541918045640223e7 0.0
3.1541918045640223e7 1.0270743766079824e6 0.0
0.0 0.0 0.0

-8.816583026754607e6 -1.6765977721134603e6 0.0
-1.6765977721134603e6 1.86022518636443e7 0.0
0.0 0.0 0.0

-1.490942265034116e7 2.6461759737466104e7 0.0
2.6461759737466104e7 -1.0169826457084555e7 0.0
0.0 0.0 0.0

4.233880456621695e7 2.717596566460171e7 0.0
2.717596566460171e7 9.741587026188362e6 0.0
0.0 0.0 0.0

-212572.23110099463 2.700803125449856e7 0.0
2.700803125449856e7 -7.99857531021823e6 0.0
0.0 0.0 0.0

1.8265841388800163e6 1.2595609282958882e7 0.0
1.2595609282958882e7 -2.756400199685902e7 0.0
0.0 0.0 0.0

-4.1700499217524184e6 2.781736982733885e7 0.0
2.781736982733885e7 1.2383136899578372e7 0.0
0.0 0.0 0.0

-5.7912836110017e6 1.7541212531871565e6 0.0
1.7541212531871565e6 6.3240953976914376e7 0.0
0.0 0.0 0.0

-5.65232387532689e6 2.4243354930588003e7 0.0
2.4243354930588003e7 -1.6512458076482432e7 0.0
0.0 0.0 0.0

-1.525247777226407e6 3.838443063440582e7 0.0
3.838443063440582e7 1.961541194168397e6 0.0
0.0 0.0 0.0

-3.20408703297201e6 1.689747206715412e7 0.0
1.689747206715412e7 -4.3459909113549456e7 0.0
0.0 0.0 0.0

62159.52452501189 2.1823078690658096e7 0.0
2.1823078690658096e7 -2.1802216496118657e7 0.0
0.0 0.0 0.0

-25733.214244531468 2.0989128552876398e7 0.0
2.0989128552876398e7 -2.3667779051386777e7 0.0
0.0 0.0 0.0

-6.306995518989293e6 1.5703972786998581e7 0.0
1.5703972786998581e7 4.073402705063267e7 0.0
0.0 0.0 0.0

-2.652845439794646e6 2.6300411334536478e7 0.0
2.6300411334536478e7 9.991945116366077e6 0.0
0.0 0.0 0.0

-4.818733143431522e6 1.3544145166512307e7 0.0
1.3544145166512307e7 1.1418593593744159e8 0.0
0.0 0.0 0.0

2.9675535643179193e6 1.3671763276351467e7 0.0
1.3671763276351467e7 -1.1397210593959285e8 0.0
0.0 0.0 0.0

-2.131846135324975e7 3.0926047625359546e7 0.0
3.0926047625359546e7 -1.3959889092370117e7 0.0
0.0 0.0 0.0

-1.7587699826286836e6 2.3427270153496806e7 0.0
2.3427270153496806e7 1.6425775035892356e7 0.0
0.0 0.0 0.0

-3.1183144612183437e7 3.221728999342489e7 0.0
3.221728999342489e7 -5.12481530649643e6 0.0
0.0 0.0 0.0

-8.800337951358758e6 -1.5966461672810828e6 0.0
-1.5966461672810828e6 2.2310758604758576e7 0.0
0.0 0.0 0.0

-5.733443484763358e6 2.0627282971307803e7 0.0
2.0627282971307803e7 2.4433552900684092e7 0.0
0.0 0.0 0.0

-1.672411906933357e7 2.8075041499786515e7 0.0
2.8075041499786515e7 -8.159223251506233e6 0.0
0.0 0.0 0.0

-8.594649096261792e6 5.389763565126066e6 0.0
5.389763565126066e6 3.922460034198414e7 0.0
0.0 0.0 0.0

3.965495224660764e7 2.445418023366107e7 0.0
2.445418023366107e7 8.8286592385566e6 0.0
0.0 0.0 0.0

2.256989969515902e6 2.162590249791455e7 0.0
2.162590249791455e7 3.106969862294016e7 0.0
0.0 0.0 0.0

-3.159590762620922e6 2.2199728541604437e7 0.0
2.2199728541604437e7 1.895405686636611e7 0.0
0.0 0.0 0.0

-3.003328944205953e7 4.534783103687587e7 0.0
4.534783103687587e7 9.778502821288286e6 0.0
0.0 0.0 0.0

6.150318030985579e6 2.497309035719013e7 0.0
2.497309035719013e7 6.878671773635985e6 0.0
0.0 0.0 0.0

4.460094708480749e6 2.373366350222509e7 0.0
2.373366350222509e7 -806946.7329897543 0.0
0.0 0.0 0.0

-5.198945878168411e6 2.950980798292997e7 0.0
2.950980798292997e7 1.0334906051310625e7 0.0
0.0 0.0 0.0

-9.849235012152229e6 2.605982491146554e7 0.0
2.605982491146554e7 -865288.90875718 0.0
0.0 0.0 0.0

-1.323789310119796e6 2.2082405736315772e7 0.0
2.2082405736315772e7 -2.608266616288446e6 0.0
0.0 0.0 0.0

4.36633870515386e6 2.4712878000184827e7 0.0
2.4712878000184827e7 -2.9852294985586666e6 0.0
0.0 0.0 0.0

5.564570098750944e6 2.464414322157674e7 0.0
2.464414322157674e7 1.5738275660115302e7 0.0
0.0 0.0 0.0

7.0349530658440115e6 3.998573867399723e7 0.0
3.998573867399723e7 -2.9194977573155607e6 0.0
0.0 0.0 0.0

-3.3662604163211593e6 2.727210396714972e7 0.0
2.727210396714972e7 1.2011267799154054e7 0.0
0.0 0.0 0.0

-6.240864691050977e6 4.248105790595026e7 0.0
4.248105790595026e7 2.1046345475011203e6 0.0
0.0 0.0 0.0

-9.385274381396819e6 1.900665102352827e7 0.0
1.900665102352827e7 -5.808748165523975e7 0.0
0.0 0.0 0.0

-1.98098385456656e7 2.2111782416408874e7 0.0
2.2111782416408874e7 -1.0690769558425617e8 0.0
0.0 0.0 0.0

1.8949610398271788e7 2.3101674620024636e7 0.0
2.3101674620024636e7 1.0593159131386562e8 0.0
0.0 0.0 0.0

8.655250682154916e6 2.1208349968129918e7 0.0
2.1208349968129918e7 3.835899650126535e7 0.0
0.0 0.0 0.0

-312162.40040497854 1.12676539255988e7 0.0
1.12676539255988e7 -4.89937250943732e7 0.0
0.0 0.0 0.0

4.1087709635137552e6 3.943625409644e7 0.0
3.943625409644e7 -3.6553154179226514e6 0.0
0.0 0.0 0.0

2.111830978369764e6 2.7013362222968876e7 0.0
2.7013362222968876e7 -1.0810356784268154e7 0.0
0.0 0.0 0.0

-1.4289150041267963e6 2.297801000677294e7 0.0
2.297801000677294e7 -8.470033524754636e6 0.0
0.0 0.0 0.0

2.3046393051659055e6 2.592544125826476e7 0.0
2.592544125826476e7 -1.2558531604743477e7 0.0
0.0 0.0 0.0

-3.865709788772616e7 4.8759903466444395e7 0.0
4.8759903466444395e7 1.122766420923122e7 0.0
0.0 0.0 0.0

-3.0804974447226184e6 3.793473979031956e7 0.0
3.793473979031956e7 1.2801525633341374e6 0.0
0.0 0.0 0.0

-7.493351413269849e6 3.030441727317511e7 0.0
3.030441727317511e7 8.591626523992931e6 0.0
0.0 0.0 0.0

1.3129666772353463e6 3.233085269626084e6 0.0
3.233085269626084e6 -6.0342890834741235e7 0.0
0.0 0.0 0.0

1.3336414095058627e7 2.994451766187293e7 0.0
2.994451766187293e7 -4.765333237585552e6 0.0
0.0 0.0 0.0

-2.9714972059509754e6 1.755738287675271e7 0.0
1.755738287675271e7 -4.0493913938229315e7 0.0
0.0 0.0 0.0

1.1820307792227197e7 3.0567955499466646e7 0.0
3.0567955499466646e7 -5.416405106857137e6 0.0
0.0 0.0 0.0

-683080.7321268104 2.1221216709323265e7 0.0
2.1221216709323265e7 -1.4176356485091685e6 0.0
0.0 0.0 0.0

2.6396696706117652e6 2.2816814555187743e7 0.0
2.2816814555187743e7 2.6765875684544843e7 0.0
0.0 0.0 0.0

-5.947754793961841e6 3.3053671108613826e7 0.0
3.3053671108613826e7 6.404193539602904e6 0.0
0.0 0.0 0.0

-8.367323804534091e6 -202958.58418948404 0.0
-202958.58418948404 3.729195533573208e7 0.0
0.0 0.0 0.0

2.131763724808125e7 2.465533120807128e7 0.0
2.465533120807128e7 4.928271908786109e6 0.0
0.0 0.0 0.0

-8.892147323006888e7 3.2488901557817437e7 0.0
3.2488901557817437e7 -1.3440362696903646e6 0.0
0.0 0.0 0.0

-7.035893685419781e6 1.6028706009512266e7 0.0
1.6028706009512266e7 3.806489778631724e7 0.0
0.0 0.0 0.0

-7.276886886061449e6 2.7142188982635394e7 0.0
2.7142188982635394e7 5.723802982954164e6 0.0
0.0 0.0 0.0

5.612462748538967e6 2.4956103154055532e7 0.0
2.4956103154055532e7 447952.39594696905 0.0
0.0 0.0 0.0

2.6526678099699747e6 2.988740967755344e6 0.0
2.988740967755344e6 -3.904848821487831e7 0.0
0.0 0.0 0.0

-2.4923412015390936e6 2.4257531519679517e7 0.0
2.4257531519679517e7 1.2786907598669162e7 0.0
0.0 0.0 0.0

-6.4994151077837385e6 1.0637631302577027e6 0.0
1.0637631302577027e6 5.637554385729659e7 0.0
0.0 0.0 0.0

-2.045562282899771e7 2.678282669577205e7 0.0
2.678282669577205e7 -1.1371592194124293e8 0.0
0.0 0.0 0.0

1.902046913589664e7 2.803483577732925e7 0.0
2.803483577732925e7 1.1074873528124079e8 0.0
0.0 0.0 0.0

-225398.88844329305 1.530244319842363e7 0.0
1.530244319842363e7 -3.653465225582629e7 0.0
0.0 0.0 0.0

377775.5470709023 4.8120703158043325e6 0.0
4.8120703158043325e6 -5.242196969302596e6 0.0
0.0 0.0 0.0

1.585259555580184e7 2.15335586836723e7 0.0
2.15335586836723e7 6.886001796699433e6 0.0
0.0 0.0 0.0

-5.978972103610337e6 2.4805755199614987e6 0.0
2.4805755199614987e6 6.368415000032372e7 0.0
0.0 0.0 0.0

642573.3185020653 9.145229049194342e6 0.0
9.145229049194342e6 -8.462200578608824e6 0.0
0.0 0.0 0.0

8.753172061897252e6 3.785677983513087e7 0.0
3.785677983513087e7 -4.691827305675894e6 0.0
0.0 0.0 0.0

564408.8243476218 2.226590120158619e7 0.0
2.226590120158619e7 -1.7136106063766796e7 0.0
0.0 0.0 0.0

6.249147997114508e6 2.1524434514342837e7 0.0
2.1524434514342837e7 2.719809217445157e7 0.0
0.0 0.0 0.0

-7.817334379792981e6 2.684660755229117e7 0.0
2.684660755229117e7 280740.3080581073 0.0
0.0 0.0 0.0

-3.686028002938724e7 2.984526899086994e7 0.0
2.984526899086994e7 -8.923291935988065e6 0.0
0.0 0.0 0.0

-3.6594642742279805e6 3.7279261478191234e7 0.0
3.7279261478191234e7 2.0725875953012877e6 0.0
0.0 0.0 0.0

1.9807399391406756e6 2.240826957108641e7 0.0
2.240826957108641e7 1.472532132028345e7 0.0
0.0 0.0 0.0

-411600.1918988526 2.366979916348772e7 0.0
2.366979916348772e7 1.9239207332718614e7 0.0
0.0 0.0 0.0

1.0118176978307636e6 1.8812785235412344e7 0.0
1.8812785235412344e7 -2.4261108498791568e7 0.0
0.0 0.0 0.0

2.387540998186969e6 2.5108285340671342e7 0.0
2.5108285340671342e7 -1.3188406796512038e7 0.0
0.0 0.0 0.0

-6.433257795564659e6 4.210485197671254e6 0.0
4.210485197671254e6 6.1436940277828954e7 0.0
0.0 0.0 0.0

-3.2479949682075836e7 4.9570780989457384e7 0.0
4.9570780989457384e7 8.109199938042305e6 0.0
0.0 0.0 0.0

-1.5300349584221916e7 3.849517954502151e7 0.0
3.849517954502151e7 6.00301453849469e6 0.0
0.0 0.0 0.0

-3.667309660860979e7 3.3037020803246994e7 0.0
3.3037020803246994e7 -4.749654780377122e6 0.0
0.0 0.0 0.0

311806.8244604487 2.2886873844043404e7 0.0
2.2886873844043404e7 5.125954414196392e6 0.0
0.0 0.0 0.0

-1.1490047152502412e7 2.76170382621865e7 0.0
2.76170382621865e7 -1.8267098615464703e6 0.0
0.0 0.0 0.0

-2.2038330356261652e7 2.991543097896367e7 0.0
2.991543097896367e7 -1.0083459861392839e7 0.0
0.0 0.0 0.0

1.492987051376409e6 8.189460341782781e6 0.0
8.189460341782781e6 -8.015971994287742e6 0.0
0.0 0.0 0.0

5.311042389756934e6 2.174000358075888e7 0.0
2.174000358075888e7 2.805833352983927e7 0.0
0.0 0.0 0.0

806916.624886334 1.0333803334969249e7 0.0
1.0333803334969249e7 -4.806825677614836e7 0.0
0.0 0.0 0.0

-5.860148017112065e6 1.6942233636464365e7 0.0
1.6942233636464365e7 3.9195075387033194e7 0.0
0.0 0.0 0.0

-5.4873523346847445e6 2.0929579310615764e6 0.0
2.0929579310615764e6 6.495235298691109e7 0.0
0.0 0.0 0.0

1.6480657881141268e6 3.5169552602677383e6 0.0
3.5169552602677383e6 -5.9416320917365514e7 0.0
0.0 0.0 0.0

-4.131383516032424e7 3.3176219196105722e7 0.0
3.3176219196105722e7 -6.147125152379166e6 0.0
0.0 0.0 0.0

-6.885006672180623e6 350349.96625835303 0.0
350349.96625835303 5.154336931478281e7 0.0
0.0 0.0 0.0

-7.608191209764183e6 -65430.976354177925 0.0
-65430.976354177925 4.502389757346426e7 0.0
0.0 0.0 0.0

659986.1734952768 7.85795941773463e6 0.0
7.85795941773463e6 -1.0520453806123758e7 0.0
0.0 0.0 0.0

-7.810902653219225e6 1.4337176702201965e6 0.0
1.4337176702201965e6 4.306074252772458e7 0.0
0.0 0.0 0.0

1.1805735767507914e7 5.282852313000775e7 0.0
5.282852313000775e7 -5.361617710677935e6 0.0
0.0 0.0 0.0

-2.869231197789251e6 2.329095920728631e7 0.0
2.329095920728631e7 1.7988391132099286e7 0.0
0.0 0.0 0.0

419287.35198278725 4.705907801898504e6 0.0
4.705907801898504e6 -7.317841135618764e7 0.0
0.0 0.0 0.0

1.54508139348525e6 4.0540869248367827e6 0.0
4.0540869248367827e6 -4.6323628642068535e7 0.0
0.0 0.0 0.0

-2.730754600684027e6 2.608956215818509e7 0.0
2.608956215818509e7 8.966362814118464e6 0.0
0.0 0.0 0.0

-5.948776339969916e6 4.174607891574035e7 0.0
4.174607891574035e7 3.780358277687921e6 0.0
0.0 0.0 0.0

8.581270765324894e6 1.1802306337908458e7 0.0
1.1802306337908458e7 2.3530643609600742e6 0.0
0.0 0.0 0.0

1.4912891662241977e7 2.542875830194779e7 0.0
2.542875830194779e7 1.3950045961159281e7 0.0
0.0 0.0 0.0

1.3462902995224737e7 2.8389922856749143e7 0.0
2.8389922856749143e7 -3.2964882401086995e6 0.0
0.0 0.0 0.0

-7.072871463829543e6 606550.3719250682 0.0
606550.3719250682 5.059938444814883e7 0.0
0.0 0.0 0.0

-2.2009872337859947e7 2.6647860576952484e7 0.0
2.6647860576952484e7 -4.169558789088861e6 0.0
0.0 0.0 0.0

-3.4787975838310993e6 3.643017497119614e7 0.0
3.643017497119614e7 1.933415903752627e6 0.0
0.0 0.0 0.0

6.4851406809114665e6 2.0549585864398707e7 0.0
2.0549585864398707e7 6.181527701477179e7 0.0
0.0 0.0 0.0

1.5925109925136715e7 2.899174448198779e7 0.0
2.899174448198779e7 -3.2880138629575213e6 0.0
0.0 0.0 0.0

-5.6405387565410035e6 2.458771299422635e7 0.0
2.458771299422635e7 -1.1399633093806121e7 0.0
0.0 0.0 0.0

-3.0140706983195255e6 2.460732098525648e7 0.0
2.460732098525648e7 1.8414822500297327e7 0.0
0.0 0.0 0.0

-4.146841757499903e6 2.3935873766113315e7 0.0
2.3935873766113315e7 -1.1304110170864765e7 0.0
0.0 0.0 0.0

-8.489586404634619e7 4.5402287494361594e7 0.0
4.5402287494361594e7 -1.226327910872469e7 0.0
0.0 0.0 0.0

-3.818470309627326e6 2.2986629263005164e7 0.0
2.2986629263005164e7 1.7516638668929752e7 0.0
0.0 0.0 0.0

-5.018140774351357e6 2.5170562403255966e7 0.0
2.5170562403255966e7 -9.657955911234535e6 0.0
0.0 0.0 0.0

-3.328569534858126e6 2.546522734925683e7 0.0
2.546522734925683e7 1.74151206016143e7 0.0
0.0 0.0 0.0

1.0875794989568343e7 2.7915016591774046e7 0.0
2.7915016591774046e7 -4.374237129233938e6 0.0
0.0 0.0 0.0

2.2328103620288745e6 2.9557131733690496e6 0.0
2.9557131733690496e6 -3.786867759590152e7 0.0
0.0 0.0 0.0

4.941666337435879e6 2.7018883362599593e7 0.0
2.7018883362599593e7 -8.757228828216136e6 0.0
0.0 0.0 0.0

-3.1500026634570327e7 4.938028617533988e7 0.0
4.938028617533988e7 7.52570368288783e6 0.0
0.0 0.0 0.0

-7.638948577329492e6 3.4423677901789226e7 0.0
3.4423677901789226e7 6.7117672898989655e6 0.0
0.0 0.0 0.0

-8.8485171694262e6 -767338.2225486012 0.0
-767338.2225486012 3.0425076333717797e7 0.0
0.0 0.0 0.0

737578.708293315 2.2518731360969063e7 0.0
2.2518731360969063e7 -1.8880417161349457e7 0.0
0.0 0.0 0.0

1.7784850912640773e7 2.552118292489909e7 0.0
2.552118292489909e7 6.284494219847414e6 0.0
0.0 0.0 0.0

-7.416979476605937e7 3.802055383136991e7 0.0
3.802055383136991e7 269329.34503943473 0.0
0.0 0.0 0.0

5.340478641645726e6 2.01576024894038e7 0.0
2.01576024894038e7 1.9566293117108278e7 0.0
0.0 0.0 0.0

30957.318332945928 1.0054638533768654e7 0.0
1.0054638533768654e7 -5.0715772446390755e7 0.0
0.0 0.0 0.0

602172.4147403352 1.8467530804583624e7 0.0
1.8467530804583624e7 -2.4136814832716223e7 0.0
0.0 0.0 0.0

-2.141162709335766e6 2.459008786094733e7 0.0
2.459008786094733e7 1.4831246701965839e7 0.0
0.0 0.0 0.0

-8.89033636861967e6 4.210044550291371e7 0.0
4.210044550291371e7 3.489924782691547e6 0.0
0.0 0.0 0.0

1.9566015366794055e6 3.1175782545533855e7 0.0
3.1175782545533855e7 -5.4700237637516e6 0.0
0.0 0.0 0.0

2.0072933297909666e6 2.8317915058255056e6 0.0
2.8317915058255056e6 -4.549624838188444e7 0.0
0.0 0.0 0.0

9.08268742824889e6 2.091093872106152e7 0.0
2.091093872106152e7 5.509747616078374e7 0.0
0.0 0.0 0.0

-854509.7711622175 2.0895592084831107e7 0.0
2.0895592084831107e7 -2.2143139972793595e6 0.0
0.0 0.0 0.0

-5.7673199534721464e7 4.42598095745391e7 0.0
4.42598095745391e7 9.996968468941059e6 0.0
0.0 0.0 0.0

-8.85347586187995e6 2.0572217993030362e6 0.0
2.0572217993030362e6 3.858636001574473e7 0.0
0.0 0.0 0.0

-8.031617819513626e6 1.7134261972432374e6 0.0
1.7134261972432374e6 4.108562408933199e7 0.0
0.0 0.0 0.0

1.7110227848668948e7 2.534523599660774e7 0.0
2.534523599660774e7 9.201355391138103e6 0.0
0.0 0.0 0.0

-6.812373349429786e6 237945.4070273905 0.0
237945.4070273905 5.027425223449035e7 0.0
0.0 0.0 0.0

4.443310754453127e6 2.0832750673681878e7 0.0
2.0832750673681878e7 1.899090154374555e7 0.0
0.0 0.0 0.0

1.0110965105289508e7 2.135220861682159e7 0.0
2.135220861682159e7 4.085806909418448e7 0.0
0.0 0.0 0.0

1.9542378733195292e6 3.925989405531571e7 0.0
3.925989405531571e7 -1.8097224450951475e6 0.0
0.0 0.0 0.0

-5.454905619992729e6 7.300294479905886e6 0.0
7.300294479905886e6 6.715106910244982e7 0.0
0.0 0.0 0.0

-3.837579066416152e6 1.7586839123330858e7 0.0
1.7586839123330858e7 -4.1856875527501464e7 0.0
0.0 0.0 0.0

177118.90176432906 8.851202168138424e6 0.0
8.851202168138424e6 -9.06734526590162e6 0.0
0.0 0.0 0.0

-1.6297165712193232e6 2.4042474605688643e7 0.0
2.4042474605688643e7 1.2990664433937917e7 0.0
0.0 0.0 0.0

6.252684034896408e6 2.142709465455357e7 0.0
2.142709465455357e7 3.9424084440460056e7 0.0
0.0 0.0 0.0

-7.760622340820506e6 2.1034317870485177e6 0.0
2.1034317870485177e6 4.901489263774993e7 0.0
0.0 0.0 0.0

-5.995785733138241e6 9.989491266626915e6 0.0
9.989491266626915e6 6.593430666165084e6 0.0
0.0 0.0 0.0

-2.0501619550621577e6 2.529737888716788e7 0.0
2.529737888716788e7 1.7656123193847118e6 0.0
0.0 0.0 0.0

3.201134770768763e6 1.3349014784318315e7 0.0
1.3349014784318315e7 1.1589348700210465e7 0.0
0.0 0.0 0.0

5.180023802533957e6 2.3964361322904136e7 0.0
2.3964361322904136e7 -1.6247818615549756e6 0.0
0.0 0.0 0.0

-8.468943753650084e6 1.55873589356543e6 0.0
1.55873589356543e6 4.085855401020988e7 0.0
0.0 0.0 0.0

-4.6508823106772415e6 7.184080724364515e6 0.0
7.184080724364515e6 7.126279623685853e7 0.0
0.0 0.0 0.0

4.245952599629265e6 2.464681728332321e7 0.0
2.464681728332321e7 -414261.0978912953 0.0
0.0 0.0 0.0

1.3881619878692264e6 2.3058905341020446e7 0.0
2.3058905341020446e7 -1.617532128946915e7 0.0
0.0 0.0 0.0

-4.3923545317147635e6 7.003900243576883e6 0.0
7.003900243576883e6 7.056664833738461e7 0.0
0.0 0.0 0.0

1.0382627257743342e7 2.8061246299949683e7 0.0
2.8061246299949683e7 -4.195933270337079e6 0.0
0.0 0.0 0.0

5.187299394827275e6 2.067051430936207e7 0.0
2.067051430936207e7 2.875887099770144e7 0.0
0.0 0.0 0.0

-7.3439573082180545e6 1.4377530367365656e7 0.0
1.4377530367365656e7 1.6116525299164142e7 0.0
0.0 0.0 0.0

-5.721596270638708e6 1.3696461141187608e7 0.0
1.3696461141187608e7 5.441415309182127e6 0.0
0.0 0.0 0.0

-1.2219703894014152e7 1.0362939809579689e7 0.0
1.0362939809579689e7 4.909476731471877e6 0.0
0.0 0.0 0.0

