# vtk DataFile Version 2.0
phase field modeling fracture
ASCII
DATASET UNSTRUCTURED_GRID
POINTS 2538 float
0.0 0.0 0.0
10.0 0.0 0.0
0.0 10.0 0.0
10.0 10.0 0.0
0.0 4.9995 0.0
0.0 5.0005 0.0
5.0 5.0 0.0
0.9416964895726688 0.0 0.0
1.803581725054446 0.0 0.0
2.592419885431098 0.0 0.0
3.314401822861676 0.0 0.0
3.975193910351406 0.0 0.0
4.579982132660152 0.0 0.0
5.133512780936812 0.0 0.0
5.640130319506143 0.0 0.0
6.103810708661955 0.0 0.0
6.528192895506818 0.0 0.0
6.916607540127679 0.0 0.0
7.272102969376355 0.0 0.0
7.597469242948583 0.0 0.0
7.895259826292669 0.0 0.0
8.167811885738017 0.0 0.0
8.417264413845215 0.0 0.0
8.645575169389538 0.0 0.0
8.854535961159101 0.0 0.0
9.045786767735546 0.0 0.0
9.220828555767493 0.0 0.0
9.38103509633881 0.0 0.0
9.527663687265145 0.0 0.0
9.661865124984566 0.0 0.0
9.784692609918062 0.0 0.0
9.897110148790482 0.0 0.0
10.0 0.09999999999992584 0.0
10.0 0.199999999999856 0.0
10.0 0.2999999999997771 0.0
10.0 0.3999999999996677 0.0
10.0 0.4999999999995511 0.0
10.0 0.5999999999994683 0.0
10.0 0.6999999999993983 0.0
10.0 0.7999999999993286 0.0
10.0 0.8999999999992587 0.0
10.0 0.9999999999991888 0.0
10.0 1.099999999999119 0.0
10.0 1.199999999999033 0.0
10.0 1.299999999998852 0.0
10.0 1.399999999998576 0.0
10.0 1.499999999998284 0.0
10.0 1.599999999997992 0.0
10.0 1.6999999999977 0.0
10.0 1.799999999997408 0.0
10.0 1.899999999997116 0.0
10.0 1.999999999996825 0.0
10.0 2.099999999996533 0.0
10.0 2.199999999996241 0.0
10.0 2.299999999995949 0.0
10.0 2.399999999995657 0.0
10.0 2.499999999995365 0.0
10.0 2.599999999995073 0.0
10.0 2.699999999994782 0.0
10.0 2.79999999999449 0.0
10.0 2.899999999994198 0.0
10.0 2.999999999993906 0.0
10.0 3.099999999993614 0.0
10.0 3.199999999993322 0.0
10.0 3.299999999993029 0.0
10.0 3.399999999992738 0.0
10.0 3.499999999992446 0.0
10.0 3.599999999992154 0.0
10.0 3.699999999991863 0.0
10.0 3.799999999991571 0.0
10.0 3.899999999991278 0.0
10.0 3.999999999991022 0.0
10.0 4.099999999991035 0.0
10.0 4.199999999991187 0.0
10.0 4.299999999991338 0.0
10.0 4.399999999991491 0.0
10.0 4.499999999991642 0.0
10.0 4.599999999991795 0.0
10.0 4.699999999991947 0.0
10.0 4.799999999992099 0.0
10.0 4.89999999999225 0.0
10.0 4.999999999992403 0.0
10.0 5.099999999992555 0.0
10.0 5.199999999992706 0.0
10.0 5.299999999992858 0.0
10.0 5.39999999999301 0.0
10.0 5.499999999993161 0.0
10.0 5.599999999993313 0.0
10.0 5.699999999993466 0.0
10.0 5.799999999993618 0.0
10.0 5.899999999993771 0.0
10.0 5.999999999993922 0.0
10.0 6.099999999994074 0.0
10.0 6.199999999994227 0.0
10.0 6.299999999994378 0.0
10.0 6.39999999999453 0.0
10.0 6.499999999994682 0.0
10.0 6.599999999994833 0.0
10.0 6.699999999994986 0.0
10.0 6.799999999995138 0.0
10.0 6.899999999995289 0.0
10.0 6.999999999995442 0.0
10.0 7.099999999995594 0.0
10.0 7.199999999995747 0.0
10.0 7.299999999995897 0.0
10.0 7.39999999999605 0.0
10.0 7.499999999996202 0.0
10.0 7.599999999996353 0.0
10.0 7.699999999996505 0.0
10.0 7.799999999996658 0.0
10.0 7.899999999996808 0.0
10.0 7.999999999996962 0.0
10.0 8.099999999997113 0.0
10.0 8.199999999997265 0.0
10.0 8.299999999997418 0.0
10.0 8.399999999997569 0.0
10.0 8.499999999997721 0.0
10.0 8.599999999997873 0.0
10.0 8.699999999998024 0.0
10.0 8.799999999998176 0.0
10.0 8.899999999998329 0.0
10.0 8.99999999999848 0.0
10.0 9.099999999998634 0.0
10.0 9.199999999998786 0.0
10.0 9.299999999998937 0.0
10.0 9.399999999999089 0.0
10.0 9.499999999999241 0.0
10.0 9.599999999999392 0.0
10.0 9.699999999999545 0.0
10.0 9.799999999999697 0.0
10.0 9.899999999999848 0.0
9.897110148790565 10.0 0.0
9.784692609918244 10.0 0.0
9.66186512498486 10.0 0.0
9.527663687265571 10.0 0.0
9.381035096339392 10.0 0.0
9.220828555768257 10.0 0.0
9.045786767736512 10.0 0.0
8.854535961160305 10.0 0.0
8.645575169391027 10.0 0.0
8.417264413847017 10.0 0.0
8.167811885740178 10.0 0.0
7.895259826295246 10.0 0.0
7.597469242951631 10.0 0.0
7.272102969379938 10.0 0.0
6.916607540131873 10.0 0.0
6.528192895511704 10.0 0.0
6.103810708667616 10.0 0.0
5.640130319512691 10.0 0.0
5.13351278094435 10.0 0.0
4.579982132668816 10.0 0.0
3.975193910361222 10.0 0.0
3.314401822869852 10.0 0.0
2.592419885437257 10.0 0.0
1.803581725058137 10.0 0.0
0.9416964895740705 10.0 0.0
0.0 9.00010000000243 0.0
0.0 8.000200000005481 0.0
0.0 7.000300000005135 0.0
0.0 6.000400000002569 0.0
0.901790731451151 5.000409820926855 0.0
1.657200899774397 5.000334279910023 0.0
2.289991063707192 5.000271000893629 0.0
2.820065163538221 5.000217993483646 0.0
3.264096435579811 5.000173590356442 0.0
3.636051481595835 5.00013639485184 0.0
3.947629914072366 5.000105237008593 0.0
4.208632181002628 5.0000791367819 0.0
4.427267949625672 5.000057273205037 0.0
4.610414277633563 5.000038958572237 0.0
4.763831845154243 5.000023616815485 0.0
4.892346298799659 5.00001076537012 0.0
4.892346298799748 4.99998923462988 0.0
4.763831845154455 4.999976383184515 0.0
4.610414277633943 4.999961041427763 0.0
4.427267949626277 4.999942726794963 0.0
4.208632181003523 4.9999208632181 0.0
3.94762991407365 4.999894762991407 0.0
3.636051481597624 4.99986360514816 0.0
3.264096435582253 4.999826409643559 0.0
2.820065163541503 4.999782006516354 0.0
2.289991063711534 4.999728999106371 0.0
1.657200899778495 4.999665720089978 0.0
0.9017907314530094 4.999590179073145 0.0
0.0 3.999600000002013 0.0
0.0 2.999700000005187 0.0
0.0 1.99980000000512 0.0
0.0 0.9999000000025537 0.0
9.897889398521345 2.93573355845387 0.0
9.906568249974548 7.060009441434234 0.0
9.913122631074113 3.64016132281653 0.0
9.922462129543863 6.354535290629151 0.0
9.917693659967533 4.354211663134567 0.0
9.909873057440208 5.637584487339942 0.0
9.914183254994697 4.950672966925282 0.0
9.913885043715895 7.666887930262611 0.0
9.91009668007573 2.351889069770817 0.0
9.905135696074536 8.138152454502785 0.0
9.913397459621809 1.849999999997262 0.0
7.099302372137626 0.297750452375005 0.0
7.095143729410097 9.700359990366296 0.0
4.942912558701401 5.095838627899509 0.0
4.315009232304429 5.165022115481685 0.0
4.946182472483878 4.906763777264103 0.0
4.317967462990024 4.825955043772673 0.0
9.916390871492647 8.64999999999792 0.0
9.921504649680616 1.368376469890358 0.0
8.292538149791614 0.206877570318844 0.0
8.292538149793597 9.793122429681448 0.0
5.884594439766573 9.587645267048616 0.0
5.794826292691579 0.3794853783929359 0.0
9.913397459621425 9.049999999998557 0.0
9.908526577714177 0.9568239351922434 0.0
3.456851160380649 5.315740054130451 0.0
3.457889657868442 4.707121019609468 0.0
8.945214200703926 0.1503383337970344 0.0
8.950161364448409 9.8413906539257 0.0
9.913862335499305 4.055887885208452 0.0
9.916697353372683 4.650158482607802 0.0
9.919076340414442 6.049999999994006 0.0
9.906994308667635 5.25749687748192 0.0
9.917490342358025 6.655979201891897 0.0
9.915757520293784 7.343848891656911 0.0
9.910049507471042 3.363474386285078 0.0
9.914471988502868 2.647400064832979 0.0
9.91474124160965 9.337490423485129 0.0
9.916971008170838 0.6499999999994355 0.0
4.307157269264427 9.509674045029644 0.0
4.331527375865619 0.4401616696422582 0.0
9.45434939180249 9.878397030523757 0.0
9.457696120412969 0.1270877537061785 0.0
2.555070293622606 5.422044496190925 0.0
2.566232917480916 4.608001224030952 0.0
3.026511860837692 9.332320638257093 0.0
2.945561971800619 0.5895662714727601 0.0
7.7395404387124 0.2511088946967771 0.0
7.736379255744154 9.745848826372828 0.0
4.687135269408529 5.122111433928926 0.0
4.688420821504113 4.871895064967488 0.0
9.910554884115975 0.3448356354522978 0.0
9.911230082250466 9.65764729394159 0.0
9.921953841410854 6.851023993342036 0.0
9.912065178606017 5.448170483544033 0.0
9.911660025326261 3.861846960030188 0.0
9.914847467973438 3.14501593945607 0.0
9.913397459621425 5.849999999993703 0.0
9.913397459621425 7.849999999996735 0.0
9.906916878988277 2.15455769998631 0.0
9.913397459621425 8.349999999997479 0.0
9.909472363117661 1.640528221515488 0.0
9.913987325695956 1.152857110636247 0.0
9.913397459621425 8.849999999998241 0.0
0.9100099990995943 2.614215977520411 0.0
0.8395284981715456 7.451196254860987 0.0
9.723278867451556 9.898135916635193 0.0
9.723316350887044 0.09841820909386662 0.0
1.385819164827588 4.454539963646463 0.0
1.338343629665047 5.523111536005823 0.0
1.377179700550677 0.6809168304959698 0.0
1.418060461092743 9.285896715136046 0.0
9.91268220142518 0.1457914080939694 0.0
9.906737126737994 9.845745933882352 0.0
0.7108351382691361 6.537941170074089 0.0
1.527735020267026 6.915620208855231 0.0
1.630993885659103 7.838271825205868 0.0
2.232760943566823 7.370850737296832 0.0
2.243414218068206 6.688299277952821 0.0
2.779655053105118 7.021588754814074 0.0
2.80227799359795 7.632420170547022 0.0
3.282022065908813 7.305859666021318 0.0
3.327597298795347 7.857554136825748 0.0
3.743210251018715 7.549183328204379 0.0
3.716353232200752 7.062036086888612 0.0
4.111978858674101 7.27497101169417 0.0
4.104192177581432 6.879858986267289 0.0
4.436230765617037 7.045693351607117 0.0
4.430360014817357 6.703971783962796 0.0
4.732390145036301 6.849841042423394 0.0
5.056161327708878 5.095276573498806 0.0
5.111586796021131 4.999081142133581 0.0
5.169267363407189 5.09444870412406 0.0
5.223795108752053 4.996986220359468 0.0
5.281480803887719 5.092780870372803 0.0
5.335670761900611 4.994887492556936 0.0
5.393485214772442 5.090486192743301 0.0
5.447323082877892 4.992601527033996 0.0
5.505243219343024 5.087953380710069 0.0
5.558739102026105 4.990287787962959 0.0
5.616491581184779 5.085335255235766 0.0
5.669852346908056 4.9879269227514 0.0
5.727502713908907 5.082679981817038 0.0
5.780766004135139 4.988313988715834 0.0
5.838244881129535 5.080480568766611 0.0
5.891357695677371 4.986433849408193 0.0
5.948696036767613 5.077969900389505 0.0
6.001601341641615 4.981313698556656 0.0
6.058851024265095 5.074871552128682 0.0
6.111614020704875 4.978360695880202 0.0
6.168801161530775 5.072044953270978 0.0
6.221368818778567 4.975825765213497 0.0
6.278268309066882 5.066182320461055 0.0
6.330814273567539 4.972837984645718 0.0
6.387565032421376 5.062889771971895 0.0
6.437476667631405 4.971693683589553 0.0
6.496181111585419 5.060210690175857 0.0
6.539454812256072 4.964658165361536 0.0
6.604198202576491 5.056387520850258 0.0
6.648506025747331 4.939374587506267 0.0
6.714026758992516 5.05873885840664 0.0
6.764418045981209 4.959246676066148 0.0
6.8219334571197 5.055299567406268 0.0
6.873708540948134 4.960426349093742 0.0
6.930181428849307 5.053461390218819 0.0
6.981893615341967 4.96435459462232 0.0
7.037791764774784 5.051219747103022 0.0
7.090993561518408 4.96392420322464 0.0
5.504417457283294 4.900897920552702 0.0
7.145434864123609 5.048960634292441 0.0
6.054532384032612 4.883956083938546 0.0
6.738027949040956 4.850032323068674 0.0
7.198432914526514 4.956325226333323 0.0
7.252637187936749 5.046012229327236 0.0
7.30926729605109 4.948903216650376 0.0
7.248106275544042 4.860306312845646 0.0
7.363100274863074 4.849952416808486 0.0
7.365733472701664 5.039519554615095 0.0
7.308483293090149 5.137557220352172 0.0
6.768399513646964 5.145609705119954 0.0
7.422800035311104 5.132251445551834 0.0
7.358273518796229 5.235980394389298 0.0
7.480824155801127 5.227946127939927 0.0
7.302193400058628 4.761917474298247 0.0
7.413570879789824 4.754555110721153 0.0
7.414392998903179 5.334729114426734 0.0
7.352769630272076 4.660405502266205 0.0
7.467556835255426 4.658352623795039 0.0
7.536246869015014 5.328986926716081 0.0
7.478865844607288 5.432598185493195 0.0
7.406396991826072 4.556956233957538 0.0
7.523581002009154 4.552005631348623 0.0
7.597792398573263 5.429506106314967 0.0
7.540511043402902 5.53619421580439 0.0
7.46214474876342 4.452580994318881 0.0
7.5852185078634 4.446021810672608 0.0
7.663329342323453 5.533453399066901 0.0
7.603478967594521 5.643227430483237 0.0
7.513450346818673 4.347641323140766 0.0
7.640744971722214 4.333388343316237 0.0
7.727671715775243 5.642390483050116 0.0
7.667774597993788 5.753188858425915 0.0
7.570065256728661 4.230515669344811 0.0
7.702881065467917 4.218307808529532 0.0
7.638288257073729 4.107994211855027 0.0
7.493362356301017 4.120843902105771 0.0
7.779018500630071 5.521233457321821 0.0
7.794641287388929 5.752364621610818 0.0
7.73369774483611 5.865894287356292 0.0
7.600834531784728 5.867752110500446 0.0
6.233038857278689 5.15645045634683 0.0
7.669727996028819 5.985665563643058 0.0
7.528582452554481 5.987393423295551 0.0
7.598722674572824 6.11001923494443 0.0
7.778305000222867 4.104318908265786 0.0
7.704329019832056 3.987744174608892 0.0
7.838453459801382 4.213322728668484 0.0
7.864495721576461 5.862306066517277 0.0
7.846552353360407 3.98481756181946 0.0
7.769730409703277 3.86544808681145 0.0
5.785249360396857 5.177248808588045 0.0
7.908837087876153 3.861484036275285 0.0
7.834824606222196 3.740586825753288 0.0
7.97685993406276 3.736209527152902 0.0
7.89665098770825 3.615501862931453 0.0
7.753228010315262 3.617800245018972 0.0
7.826063013090472 3.483173292579822 0.0
7.66789744383048 3.48859328808356 0.0
8.042515855796823 3.595394268381807 0.0
7.75200750488492 3.341279823834038 0.0
7.582870318332553 3.346584916806707 0.0
8.120807847415062 3.732493963388337 0.0
8.189783970303546 3.61159165475499 0.0
7.657801000286734 3.200439907646711 0.0
7.486781956172036 3.201402473247712 0.0
7.452595103886905 6.11418616185016 0.0
7.527098033550077 6.243191052852112 0.0
8.260502906807751 3.728437634721859 0.0
8.327629317451398 3.608173631356984 0.0
7.372763970891452 6.247552889754036 0.0
7.456170570815929 6.384992468962936 0.0
7.621837793616884 6.376077080857113 0.0
7.548039512904141 6.520750676893614 0.0
7.717475944451644 6.514856553988943 0.0
7.636658166268699 6.661648164052906 0.0
7.807468267259438 6.664076174524672 0.0
7.718022764310774 6.817938967122142 0.0
7.887785766941087 6.807440365887151 0.0
7.545993589083432 6.815070675854734 0.0
7.809874785067209 6.967537287475282 0.0
7.975643812145337 6.948729406725126 0.0
8.396477808021062 3.725446935061211 0.0
7.565651643157136 3.044354774611752 0.0
7.384328725505071 3.043048915147076 0.0
8.056405351948353 6.802790889114673 0.0
8.14128318237188 6.940027831915737 0.0
8.064621760266059 7.086348792208953 0.0
8.225003598857908 6.805225152373254 0.0
8.463085452993242 3.606998510553562 0.0
8.230426869720718 7.079551841000411 0.0
8.155262284174286 7.224761758176069 0.0
8.530696760758996 3.721683301125054 0.0
8.596669886994064 3.604516769862316 0.0
8.528531058025589 3.490411531312337 0.0
8.320451770844851 7.218191678954744 0.0
8.245273958732774 7.363444652121271 0.0
8.66324687389452 3.717094013035765 0.0
8.600103125209296 3.831913857228569 0.0
8.662131102573216 3.488322280861316 0.0
8.594166125380536 3.374071873435548 0.0
8.411074336066186 7.353871649576861 0.0
8.339644223432472 7.505172120620427 0.0
8.165883718619623 7.513159193685373 0.0
8.483453820080417 7.2082285366806 0.0
8.261200365730348 7.657400951288149 0.0
8.081570576666843 7.670933304838066 0.0
7.471613195794025 2.872548423100142 0.0
7.268733678357991 2.881209199257603 0.0
7.184255506995786 3.084448584600423 0.0
7.065899603697895 2.883902449336828 0.0
6.960163891183182 3.081014635802978 0.0
6.847612128388715 2.885646860602812 0.0
6.739800729737967 3.078895733381448 0.0
8.729373804596847 3.827689165637365 0.0
8.668550856907444 3.938702277545298 0.0
8.72770789162863 3.371798381178293 0.0
8.659764090070603 3.257493349874974 0.0
8.436453928793245 7.648724489148887 0.0
6.619080287792762 2.90880017416788 0.0
6.511740956842646 3.09340654756684 0.0
8.793527829963288 3.935174834810256 0.0
8.736430500996828 4.042719556852617 0.0
7.631260330584174 4.565300771328012 0.0
8.359058396840432 7.801678182761817 0.0
5.339436215072359 5.184870243702279 0.0
4.994031736761993 5.193306795607908 0.0
6.383387675268097 4.87760645722207 0.0
7.29117392392962 6.382172868329505 0.0
6.378196825372041 2.907113079755629 0.0
6.269817199014261 3.12412150658573 0.0
8.793149127377946 3.255386294257182 0.0
8.725774239201558 3.141596687892195 0.0
8.857434600673502 4.041295940541356 0.0
8.802868937128341 4.1471119953668 0.0
8.532045262478793 7.7905977476835 0.0
7.364542641624493 2.699128473342751 0.0
7.571677611088925 2.695732556686516 0.0
6.723058333614999 2.672341359410618 0.0
8.456744924757372 7.94483904450548 0.0
6.140831279784704 2.921247401137864 0.0
6.02419219050745 3.14358702955763 0.0
8.916255604212301 3.934279868822481 0.0
8.859287250884009 3.140226640574265 0.0
8.791092798057303 3.025929352146465 0.0
7.210445465986021 6.245773134960393 0.0
7.120884161792869 6.385155584680196 0.0
7.036931702064287 6.240721609143972 0.0
6.943722280007011 6.3869279517155 0.0
8.920094519678617 4.144837222494242 0.0
8.864374107136287 4.250930406527029 0.0
7.347569838739255 4.463467417508182 0.0
5.90383431757064 2.935113219563906 0.0
5.783476009580765 3.156456199832474 0.0
8.626013191558314 7.935092223505354 0.0
8.687240186957197 7.796697889991163 0.0
5.642059327424706 2.903018174330269 0.0
5.52647853955939 3.162549070310043 0.0
8.555300051897738 8.086169516016518 0.0
8.405624441178524 8.083972416481254 0.0
5.374124307190728 2.945480555950917 0.0
8.935805220807357 3.249260758206028 0.0
8.981625171409894 4.247375537584228 0.0
8.924725364486765 4.352101286657735 0.0
8.807208588134106 4.356163101450244 0.0
8.868277832430604 4.45657124153171 0.0
8.75099635287701 4.460644845248524 0.0
8.812385950597063 4.560891222623518 0.0
8.693833206943118 4.564602972998703 0.0
8.756474732548273 4.665720853686476 0.0
8.63721608225855 4.669394550615355 0.0
8.700108119351134 4.770682016274914 0.0
8.81920502916846 4.767536120893284 0.0
8.76355311338807 4.871451945248518 0.0
8.881442328033694 4.868382238751069 0.0
8.826433523510634 4.97132552240372 0.0
8.943387824985514 4.967694248194483 0.0
8.888718468126953 5.071044784833541 0.0
8.580377663835254 4.774669738817985 0.0
8.770572242937233 5.073880380431421 0.0
8.832915096600454 5.174518948293615 0.0
8.952224483821848 5.170970838320107 0.0
8.897282771771884 5.275476392171722 0.0
7.463928467290875 2.513944501591933 0.0
7.675935950092034 2.509420347143072 0.0
8.924252417741767 3.024418701372628 0.0
8.857265893102921 2.911213535286156 0.0
8.776981063213334 5.27944309004916 0.0
8.840710910770163 5.380165700477552 0.0
8.960876896785969 5.375521424256389 0.0
8.904555918255223 5.482125846038813 0.0
7.567193097677677 2.32750151280277 0.0
7.780880844888839 2.323064027160363 0.0
6.851602118390116 6.234522818184622 0.0
6.758680682687229 6.389359516748128 0.0
6.66345977321418 6.231254850996584 0.0
8.715764716958308 8.079994249772627 0.0
8.65189989696114 8.227534663647639 0.0
9.042229096541828 4.348551764001607 0.0
6.436774206993324 3.316782326998922 0.0
7.590527613340588 5.22651784724799 0.0
9.024366884701616 5.476726561488805 0.0
8.968734351641839 5.583879050892151 0.0
8.845941080047659 5.586406316932274 0.0
8.909881305857882 5.690482454668167 0.0
7.348726871578975 5.44047403999932 0.0
6.567070253986433 6.398115757512583 0.0
6.697077150072261 6.553426749743366 0.0
5.252377383990728 3.187782967482479 0.0
8.988440431820699 2.908621158637298 0.0
8.922541972760119 2.796420836075996 0.0
6.466806010659505 6.229115583261771 0.0
9.033851153821296 5.686506775615425 0.0
8.978340519963718 5.795772485582058 0.0
8.85111463793018 5.798672910287243 0.0
8.922171984280597 5.907237880910408 0.0
8.795190680908043 5.911854068712683 0.0
8.864373398892472 6.019728357749566 0.0
8.991346995940626 6.014539153309398 0.0
8.93374019140187 6.12698887312768 0.0
5.095192648098848 2.952353430985476 0.0
7.672651464908932 2.141715359830917 0.0
7.886266921042761 2.136211284120189 0.0
9.098474286589756 4.245971410451114 0.0
8.813172564986438 8.216887361735234 0.0
8.74802978243154 8.366104673219047 0.0
9.059985162956899 6.120982589539211 0.0
9.00342813739303 6.233245043891739 0.0
4.961413514304496 3.214209167276753 0.0
9.05248113004685 2.794651022570942 0.0
8.986028039118027 2.681341972594222 0.0
5.671890458441996 3.377122473800023 0.0
4.755829262593116 7.184480462344647 0.0
9.158258644940048 4.34465968221255 0.0
4.799687186662534 2.961354824469195 0.0
6.030554747591715 2.726787502996874 0.0
8.938327180212585 8.34758372042188 0.0
8.847392320655468 8.503370672816716 0.0
8.67342124373679 8.518117686968314 0.0
5.234423106934083 2.694925204361751 0.0
8.964923046453565 8.185313058214797 0.0
7.456650986668838 2.134076476407834 0.0
9.111732084821366 2.897226832609386 0.0
6.368055837513985 6.402805870976705 0.0
6.265629899005033 6.226581076317183 0.0
8.736327196352686 6.026404178766982 0.0
9.117473097358854 2.67987006607594 0.0
9.052137415465204 2.565428515518978 0.0
7.781001557847192 1.955874236406257 0.0
7.992134447300669 1.949184538864554 0.0
8.593074792993455 3.143159483125708 0.0
9.1291360203536 6.226877897052981 0.0
9.072154326613617 6.338696745620542 0.0
8.916532550320525 2.566986282201109 0.0
8.984021113721658 2.449252898983242 0.0
9.178032243215632 6.120533546076094 0.0
9.213703592343162 4.244823670856978 0.0
9.11972142641474 2.449071238668887 0.0
9.052853896812186 2.33190758581705 0.0
8.635035926402708 4.462329956179506 0.0
8.773614475966344 8.657865377672689 0.0
8.596400917257634 8.67759750279447 0.0
8.942023339420883 8.644678093589654 0.0
9.19471670675691 6.33096438039349 0.0
9.138460613363325 6.443043552768813 0.0
8.66620319432524 5.916297234509582 0.0
8.606669825267202 6.032658196729024 0.0
9.27222540210304 4.341341907533128 0.0
9.013782808177437 6.451040569407859 0.0
9.08360982569773 6.55729980456602 0.0
7.885622149776354 1.768093045890686 0.0
8.095672144455353 1.768790621151345 0.0
9.208772072925791 6.549717411809656 0.0
9.154272208194383 6.662613503537815 0.0
9.187669783927937 2.334640996932141 0.0
9.122379015831417 2.215832190697178 0.0
6.164077036161143 6.404611236428829 0.0
6.062367614988677 6.224307160647549 0.0
8.987075041759633 2.211477580983978 0.0
9.056972755801603 2.093573581203428 0.0
9.194557288902232 2.096029761809264 0.0
9.131223008370409 1.972713028695079 0.0
8.87381302587057 8.795793668920256 0.0
9.039169086943392 8.781606667490083 0.0
4.662813350519927 3.228118291851354 0.0
4.474181267994617 2.945703616023359 0.0
6.562627723301209 6.075544382232434 0.0
9.326886053211574 4.243083624343211 0.0
9.280374192897945 6.656072830232892 0.0
9.224718905178564 6.766740750539347 0.0
4.703284910421452 6.528907865005451 0.0
8.955136474970331 6.565989985649191 0.0
8.998148826814893 4.865480736169776 0.0
8.99429836796776 1.965972383552685 0.0
9.065669391141741 1.847195105148808 0.0
9.207236162050343 1.853010386995843 0.0
9.143218073349985 1.725630086781897 0.0
8.998867447699345 1.719378449325465 0.0
9.082595782768397 1.592017827427701 0.0
8.92804562738841 1.585238202229766 0.0
9.01637794607019 1.453847302675876 0.0
8.854253119154375 1.446306868730686 0.0
8.941620273019874 1.320083886766936 0.0
8.775393064215876 1.308487027359826 0.0
9.102170347200483 1.324733726345249 0.0
9.013857060361985 1.178821526410403 0.0
7.991031819452564 1.587689878441685 0.0
7.767218744640202 1.595993197647291 0.0
9.191539171305216 1.194087248761656 0.0
9.123965901037613 1.057102462689568 0.0
4.853921953226772 3.470213116851758 0.0
7.496563223334782 3.470157221608763 0.0
8.536691379028115 5.921845852206257 0.0
8.475496498707471 6.037633662010236 0.0
7.978668526342969 2.307231488316941 0.0
9.384721922092124 4.337357165846226 0.0
9.331039180200886 4.435926256444196 0.0
8.546261775564837 6.150267290476958 0.0
8.411727261785726 6.155319300628062 0.0
8.972203609044218 8.930944433074036 0.0
9.133480321468399 8.90955269607895 0.0
9.197778815538276 8.768743880012563 0.0
6.162231825784922 6.05277753404107 0.0
5.962111081146334 6.046949845237622 0.0
9.268727788642101 4.146883230687689 0.0
9.380694211527906 4.144811697563401 0.0
9.323823335199954 4.049557759546529 0.0
9.283324894520613 1.736313094621396 0.0
5.858151623803662 6.22041808248046 0.0
5.759668475561988 6.038806123495502 0.0
7.836860473863919 3.191674397465999 0.0
9.348591928839294 6.75855034547469 0.0
9.293979592221298 6.870213350675044 0.0
9.170543172728557 6.879819332293818 0.0
9.240028263813034 6.983394994050525 0.0
4.347372565145963 3.312731475520695 0.0
4.114183445909965 2.96879678229065 0.0
8.616264880152233 4.042035981070631 0.0
9.403174760076901 6.650407069150438 0.0
4.173860112179449 7.723461240865885 0.0
9.365302975518428 6.973476802087294 0.0
9.312420275675276 7.088420778208979 0.0
9.184876614539778 7.0978133687822 0.0
9.25921281729617 7.204979813006656 0.0
9.12816413817609 7.21569648263899 0.0
9.203944409919862 7.322703303071253 0.0
9.334311975087337 7.311477957762272 0.0
9.280415785210538 7.428795599957155 0.0
9.274060219641907 1.066603180421249 0.0
9.211820491509728 0.9316562593680151 0.0
9.050684011148748 0.9017681241401576 0.0
9.441953732403995 4.432092590771756 0.0
9.394725873909666 4.526051349391942 0.0
9.43453556160865 4.048003950509361 0.0
9.378043599351757 3.952631412328806 0.0
9.289691247910705 8.890746792319852 0.0
9.228148443138926 9.030109127390128 0.0
4.440757888677695 6.389562448928118 0.0
4.689874463978985 6.239329075084555 0.0
4.291519540095677 2.622920583112654 0.0
3.886073352912894 2.632778677714434 0.0
9.344015622314338 1.202401041544343 0.0
8.193292196814806 3.849649660906171 0.0
6.960946604527747 6.07044529864598 0.0
9.347708267319902 8.756364147482309 0.0
6.826423138602714 3.261415861395883 0.0
6.06309517882478 5.884563187328262 0.0
9.4085057714426 7.414123963607981 0.0
9.356416821537886 7.532359471354527 0.0
5.042074134251055 6.938947182785697 0.0
5.063988238156824 7.311205832605263 0.0
3.946666851334923 3.30681624613374 0.0
8.189857914071878 1.939951128540477 0.0
7.880690277686857 1.38928908049477 0.0
7.63766396748483 1.399736360041063 0.0
9.345004233592562 1.857695941115052 0.0
9.440465164139875 7.085860901905448 0.0
7.918332480761888 5.744468010879592 0.0
9.08007135068879 5.372457017512481 0.0
8.78639561093144 3.718391405525285 0.0
9.356843485085705 0.9414458825132457 0.0
9.29705128845331 0.8103081541678832 0.0
9.251825423225316 2.451701826351773 0.0
8.483895366325516 6.270717564685176 0.0
8.346386886249478 6.275973306650227 0.0
9.493299170161215 4.138582531223591 0.0
5.321115649032961 7.117073603021904 0.0
5.354076009109965 7.436189411362466 0.0
5.597984079819928 7.254284331170681 0.0
5.644042313435943 7.564172740776336 0.0
5.383963016128051 7.753854027984002 0.0
5.681168258142109 7.880444993178456 0.0
5.935548099874979 7.687258900444162 0.0
5.979508404301389 7.994332725561488 0.0
6.21936843555201 7.802335560754011 0.0
6.267092590637372 8.104873033518185 0.0
6.498845418385807 7.917606504106031 0.0
6.544600005636809 8.209910620392591 0.0
6.77336078689533 8.027284686082275 0.0
6.814840179123049 8.311778392637773 0.0
6.721304148677048 7.737863326704131 0.0
7.031320924898797 8.1335673274533 0.0
7.077388928622946 8.403901803728003 0.0
5.417471987089176 8.090112295667405 0.0
8.845427688507666 2.446352368201366 0.0
9.318512319918124 2.339233739859646 0.0
9.380241452597096 2.451895615249572 0.0
7.283805558009199 8.237518806365102 0.0
7.329200330160381 8.497045124353782 0.0
7.233272584416691 7.991590926766813 0.0
9.142592248414191 5.471315142785471 0.0
9.196303265878848 5.36738298742727 0.0
9.25795832955665 5.465260877691205 0.0
9.310581303233182 5.36341558704714 0.0
9.371094700882272 5.459458038195667 0.0
9.422767107822985 5.360687090455724 0.0
9.36402660964156 5.264821436196721 0.0
9.474220736978928 5.262802348886269 0.0
9.41680330511366 5.169477108906666 0.0
5.168675939028436 4.895496152382537 0.0
9.482591449057548 5.454699312257291 0.0
9.431567605310825 5.552723344040521 0.0
7.531449703396948 4.741663470323411 0.0
8.517293123442691 4.672601123164268 0.0
8.459978676626639 4.778466809901586 0.0
8.396595115309985 4.67568709170855 0.0
8.338966609235166 4.782101664607259 0.0
8.275355646032752 4.678829956447008 0.0
8.217675280223542 4.785699596769931 0.0
8.28149024865807 4.888803783902183 0.0
8.16019781596952 4.892696417098926 0.0
8.22433278506531 4.995725219088695 0.0
8.102825704443651 4.999629142625341 0.0
8.166887930010795 5.098242831115916 0.0
8.034904900788316 4.896825406879729 0.0
8.15353539905931 4.682103688185489 0.0
8.211891449058882 4.574219757233394 0.0
8.290305306104333 5.094007100958221 0.0
8.225684228618732 5.201525567655179 0.0
9.444618942559746 2.343141375196729 0.0
6.929446520625337 4.868116916840016 0.0
5.737810725167649 4.893891407574175 0.0
8.720389971487277 5.38508368411851 0.0
8.805734920311323 8.951818172412821 0.0
8.905272694453211 9.083303226359831 0.0
6.006155038818204 5.171375272745409 0.0
6.431496448228514 5.152985998213245 0.0
9.052675024457304 7.106590131831544 0.0
7.740007013494393 6.09727525827826 0.0
9.375852260355511 9.013078430361404 0.0
9.32035844773103 9.14584923943073 0.0
6.989707597683965 5.146377438798643 0.0
9.488190206836386 3.951168069367155 0.0
9.432429152094464 3.855725756072153 0.0
5.568386402814275 5.185723849666124 0.0
9.525561551078322 5.166162126187324 0.0
9.465026391994275 5.072601962964018 0.0
9.320357339516937 3.857795423728873 0.0
9.375955927831914 3.759314274140895 0.0
9.261783786753899 3.761412578759438 0.0
9.31820665563318 3.661845422072752 0.0
9.431798673168924 3.660830894813109 0.0
9.374584413615914 3.563138564686839 0.0
9.48759661134647 3.562294297118573 0.0
9.431339678707085 3.464016717943268 0.0
9.417896212887529 1.746970678437863 0.0
8.731705369070733 9.110902182838881 0.0
5.652297951447118 6.21188565774667 0.0
5.569122518069258 6.024400786163834 0.0
8.257007204149394 3.505875091031567 0.0
8.717428603143034 2.925525757227976 0.0
6.882852832747376 8.57686572931064 0.0
6.337330066435714 8.416819098143066 0.0
9.50188906539997 4.521022403818629 0.0
9.453500859905136 4.617181635748691 0.0
9.46806769570129 6.749352117850711 0.0
8.836822104875719 1.72282859852854 0.0
7.481071063421426 5.64593758994851 0.0
5.668814988976305 5.86611128457842 0.0
5.487644760735084 5.847591822776978 0.0
8.993992818065195 7.228173913870249 0.0
7.98322414937693 7.229980191466666 0.0
9.22810751684646 7.54864871395298 0.0
9.304103360459063 7.654622011545798 0.0
9.432787371848761 7.633691049023619 0.0
9.382619818023882 7.759136995934441 0.0
7.239096822516492 4.679179578301165 0.0
9.47692479956498 1.861231395362419 0.0
8.041243110813022 5.095895152648969 0.0
6.190208781188077 7.509864122823853 0.0
9.283062812782122 4.549418667685757 0.0
9.503847665760087 2.450295046295932 0.0
9.443345385250678 2.557904120404248 0.0
9.52009568463353 6.644015937008899 0.0
9.203119005973903 3.662458522935253 0.0
8.406198651282708 5.92630414760378 0.0
8.467263597743843 5.811987729136874 0.0
9.461423029059445 9.128120577356565 0.0
9.408445330070542 9.26024300250086 0.0
9.266505293379728 9.277952925446408 0.0
4.14874709022218 3.631681332690154 0.0
9.437448107949258 0.8198473430736303 0.0
9.376993771693973 0.6910550697058979 0.0
9.22882356848217 0.6931820370818127 0.0
4.451823867195988 6.103664366188579 0.0
4.200031743909027 6.232039028149317 0.0
4.687154754667774 5.975132870483986 0.0
6.268889397098538 6.592235545990395 0.0
7.509366161722768 8.340075462391164 0.0
7.564775703413765 8.59800936579159 0.0
9.542148732924264 3.854614593058991 0.0
7.036231103929761 6.550562550831048 0.0
4.089373665437328 2.268193930262139 0.0
3.642558884866483 2.250386188148396 0.0
3.442182385618804 2.651948803899947 0.0
3.146832503011753 2.222630466765926 0.0
2.948870467975985 2.805088883766417 0.0
9.352005315330274 5.067356449300542 0.0
9.31729677031493 3.462944187594675 0.0
9.37428383619102 3.365546369736205 0.0
9.4883538239391 3.365384871181599 0.0
9.432147665178338 3.267287636377487 0.0
9.25034519267688 7.775848812012313 0.0
9.332091350002502 7.881724023243533 0.0
9.462101000264603 7.86490055671988 0.0
9.413353271651825 7.98561007219363 0.0
8.273592814723814 6.158623919352561 0.0
8.207135014732339 6.280394934566054 0.0
9.541483811580331 5.548224291759592 0.0
9.491365919893726 5.644847811894615 0.0
8.088095771120983 4.577581369371366 0.0
8.14760102783746 4.468303741922308 0.0
9.556217963323956 4.414867468889523 0.0
9.543667331547693 3.266908751519594 0.0
9.489307652535885 3.169908976697059 0.0
9.26285575842982 8.635341362685686 0.0
9.403220742003983 8.621447866627538 0.0
9.326013417886902 8.506778946171965 0.0
9.455477927154853 8.503896705359047 0.0
9.566646674069602 4.611465258087684 0.0
9.499341049870914 0.9352184973273918 0.0
8.683891958597638 1.444705608998412 0.0
8.599973456173778 1.287265568270043 0.0
7.760988189317371 1.175381292562583 0.0
7.50927661322749 1.171223823957793 0.0
7.380927152434357 1.411062577009695 0.0
7.242417847270241 1.170759311509981 0.0
7.107236746116019 1.421234419770886 0.0
6.960799033544566 1.169618322344823 0.0
6.817786081200392 1.434174581170586 0.0
9.48095050141868 8.738557748483624 0.0
9.319762046171894 3.263060331456388 0.0
8.920653400180534 7.117307656029475 0.0
9.452431221190624 6.544166520883111 0.0
9.571407933653493 6.540336592280795 0.0
9.507586285214174 6.443281357841339 0.0
9.575252974749443 5.070210512157044 0.0
5.755172844377253 6.370710487467459 0.0
9.541351959064952 7.969072511059531 0.0
9.354607289792183 9.3921968735401 0.0
9.495213435762107 9.37218405175897 0.0
3.77688136092967 3.643094492921176 0.0
5.460967180339239 6.159077196937325 0.0
8.656589552918996 5.283032675040985 0.0
8.599307076390474 5.387421722684671 0.0
9.584017606465821 5.263931993965828 0.0
9.51536593891754 4.977534386249715 0.0
7.788544970111893 2.70578432810479 0.0
7.381746833264364 8.755477463411431 0.0
7.615969996822885 8.852710176548548 0.0
7.783643411970649 8.691528137204457 0.0
7.845017394185501 8.938777577473743 0.0
8.570520580943368 7.342304222498308 0.0
9.103648004226827 5.781084627507008 0.0
8.338082930126799 5.815990105349368 0.0
8.930848895071895 4.561111316304916 0.0
7.381089602119859 5.983657236035151 0.0
8.42066837692862 6.393608568217351 0.0
8.888256157021065 6.459558428285236 0.0
8.826495664731354 6.575679897210801 0.0
4.22522220414496 5.921354747981145 0.0
3.943296448343383 6.075578573904587 0.0
9.563175937841836 2.554860696349795 0.0
9.505342423182917 2.656889632284623 0.0
6.660863480070611 1.168750929063519 0.0
6.518316961679488 1.436478598119306 0.0
6.683474168246802 1.694104067636375 0.0
6.376799057174731 1.707382100972048 0.0
6.205091481342603 1.443621641108414 0.0
6.058670988071357 1.728841803855816 0.0
5.877457486049096 1.454297236926778 0.0
5.724979192982589 1.756666409586195 0.0
5.529885788012015 1.462283739157555 0.0
9.514953777019835 0.7018468683209754 0.0
8.398665270372675 5.702731562702358 0.0
9.456442249775696 0.5772068858285652 0.0
9.565795671866349 2.345573662774494 0.0
8.830758563027459 9.247271599108435 0.0
8.523580738257648 4.88015211128435 0.0
5.580123316488715 5.701889892660689 0.0
5.398591029446707 5.685938459654249 0.0
5.367686360823392 1.778740548277203 0.0
9.546603444041448 1.754984055696778 0.0
9.489649223089446 1.641312329051244 0.0
9.617973952467912 3.363804764345866 0.0
9.584322830999731 6.729956156156573 0.0
9.597221861144487 3.948534024289882 0.0
9.49401963819799 8.089507968561776 0.0
9.207321074262563 9.416906871900888 0.0
8.27185428346661 4.464932191097996 0.0
8.207416067213774 4.35878753684812 0.0
8.332747746635944 4.354903699457511 0.0
3.990181919126853 3.930792395858886 0.0
8.267392138262498 4.254008221702929 0.0
7.997788712685495 1.196805377512679 0.0
9.600316638269724 5.639973985281733 0.0
9.550939606739425 5.737313319038155 0.0
9.44084303195315 5.74233753256161 0.0
9.50112296154558 5.834555019909565 0.0
8.897429225733994 6.685415510921676 0.0
8.762930941408914 6.695907295903629 0.0
8.654628175336732 9.278157371342388 0.0
8.544676900803436 9.133790942553834 0.0
5.294904777716057 5.855935872688884 0.0
5.216749389964556 5.66865685845661 0.0
9.508453581298625 2.239460033375932 0.0
9.599691370793206 3.169496930704394 0.0
9.546615051106684 3.073514534194011 0.0
7.484714626923596 5.028675123117963 0.0
9.588496050271255 7.850836295555126 0.0
5.153197381012662 1.471340286561097 0.0
9.433168304679345 3.071871997104804 0.0
9.610464706874994 5.829217654498672 0.0
9.561407772947403 5.926179534044419 0.0
8.273381980676042 5.705233340662362 0.0
8.330794188929296 5.594351887246082 0.0
8.207319603076424 5.596747949305344 0.0
7.251338559467102 5.233758892662348 0.0
8.708518799790543 1.130513882092466 0.0
9.590155250193266 0.5878623138195824 0.0
9.389919385420015 5.841079912164009 0.0
7.991397852194216 5.859910582924319 0.0
9.624951589233206 4.975554514425905 0.0
7.240016788025947 2.531866266726309 0.0
7.635666783493215 3.873554782053258 0.0
9.608476620993713 1.863530872936442 0.0
9.365330459496413 8.10677840682376 0.0
8.775076110585598 2.572737931759856 0.0
8.699389445914996 2.444602334375113 0.0
8.625078713232146 2.580891022578613 0.0
8.54447196848446 2.447624719286678 0.0
8.468898498943965 2.586757328881282 0.0
8.62282309213608 2.307826916202421 0.0
9.622102662978762 6.439307895185218 0.0
9.561995355724862 6.35103962032292 0.0
3.898245450818314 1.856155797593496 0.0
9.681759177700954 5.07069253017652 0.0
9.059254996454502 4.963357716933865 0.0
9.113144532326562 4.861710138088372 0.0
9.62140874877204 2.656009146517733 0.0
7.884510615470827 0.9666888912541309 0.0
8.14902661050739 1.005010215149227 0.0
8.491263206618079 8.527197931363634 0.0
8.408859203395778 8.697060715788105 0.0
6.54422152733529 1.954566069381189 0.0
9.563546573097593 2.755667904356369 0.0
9.453065492925557 2.761122255953964 0.0
9.676889098520615 2.755084315170127 0.0
9.678287124781653 2.556838324720633 0.0
2.60254317790297 2.278874965850319 0.0
9.211706272534968 4.050470567310489 0.0
8.526711683538949 5.698821878547752 0.0
8.296604023060945 8.533761944401608 0.0
9.649704314258118 5.543946557831669 0.0
9.651176136337964 3.85122804518279 0.0
9.44590154800397 9.498503704959054 0.0
9.580491248736612 9.476376347552954 0.0
4.3239388803087 3.921156392977062 0.0
9.65737873521736 3.075324100817917 0.0
8.128000846282253 6.160273991836929 0.0
8.06242981852327 6.292371360998262 0.0
8.500465019503922 1.442700595221201 0.0
9.615253212967009 1.649819368149096 0.0
9.561768620580791 1.538553925606111 0.0
9.435477757657937 1.527391516499924 0.0
9.627993450010088 2.242685831452484 0.0
9.5338252733548 0.4673994795805215 0.0
9.398055066504014 0.4589059948533885 0.0
9.669486082509058 5.920177035588319 0.0
9.621072177439727 6.016493814615133 0.0
9.506185962103057 6.018397021409126 0.0
9.196884440497488 7.898824858961557 0.0
9.112591143666748 7.789491461180181 0.0
9.664357762385308 7.950712034233033 0.0
8.46233617997115 2.308903464128035 0.0
8.547917980328803 2.169381684694277 0.0
8.139931430059324 6.410762600521521 0.0
7.672499127532963 9.099143622036436 0.0
7.91372855627271 9.178704612763656 0.0
8.463425076318451 9.290653726808348 0.0
9.643938029094286 9.335632419679458 0.0
9.647017668702574 0.7068996148634754 0.0
6.241662276606473 5.884018212993202 0.0
6.157742245066693 5.73500474100449 0.0
6.318815619949124 5.730068085823802 0.0
6.247706374231452 5.593094310939028 0.0
6.406948541886973 5.593272398468375 0.0
6.092564106310554 5.587409338401505 0.0
8.535507922245372 5.286142900439676 0.0
8.022959839404006 4.471630490587016 0.0
7.963561162854596 4.581393556789843 0.0
9.683487139413305 1.546750704925431 0.0
9.630761777960082 1.435922217091829 0.0
5.121714348989337 7.950140247572198 0.0
5.136464096196084 8.310254432483559 0.0
5.47349124035624 8.455234262268478 0.0
5.176273618280354 8.687190323573228 0.0
4.796664658962938 8.592678692862421 0.0
9.568705729418735 4.887269869750176 0.0
9.462711651199594 4.88832222094458 0.0
9.674903475028225 4.882285174433025 0.0
5.4996067353406 5.546583260717527 0.0
5.663632234555963 5.557613452957074 0.0
6.829408195405585 1.947174574944512 0.0
5.336529198289861 1.127585641139875 0.0
9.672387559812332 6.34138351957329 0.0
4.463988917379896 2.271060678869338 0.0
8.618048281355405 6.263841736419089 0.0
6.480949808711781 5.74815588680617 0.0
6.562207427719153 5.592185077216444 0.0
6.643040463857446 5.721233693378952 0.0
6.712825900331884 5.588664360236 0.0
6.79240375630333 5.711383948285569 0.0
6.86115931532141 5.584697050428064 0.0
6.939210100691576 5.704407337029545 0.0
7.007668476576536 5.580801046893123 0.0
7.084627386867475 5.702817970154801 0.0
6.633257976075473 5.460881327825488 0.0
6.931430743764456 5.461960451448691 0.0
9.682652370938209 6.533133024505995 0.0
8.761108695241376 9.450742747770144 0.0
9.146031326900015 3.764292700000154 0.0
9.089378801805193 3.661317181076136 0.0
9.514354521818781 8.994988681611192 0.0
8.157650730500988 4.262987189670279 0.0
6.329633198899328 5.4647789391701 0.0
2.340685767996258 2.811285337457589 0.0
7.379572471323651 0.9290892725587991 0.0
4.171878172186605 4.222320767259098 0.0
4.4876601621649 4.16473354200826 0.0
5.336389369563535 6.806464508860387 0.0
9.595468321212476 9.108133206829102 0.0
9.645038675267227 8.982113951305912 0.0
8.393140678816192 4.246338342095281 0.0
8.309440721624494 4.155300532283633 0.0
9.418269339704423 1.9925512363779 0.0
9.662781807969623 0.477809346089035 0.0
8.011297869803792 0.7518828483803571 0.0
8.250149975885678 0.7646904662196189 0.0
9.608674873602773 0.3618049194050078 0.0
8.692696069692623 6.582927327365709 0.0
8.628225948401226 6.705702462696891 0.0
8.701883181418305 6.822086652299242 0.0
8.559276855155542 6.829564723911442 0.0
7.069268463354993 5.459534423493629 0.0
2.654575201159115 3.323490466195074 0.0
3.610801136544596 4.044075244426243 0.0
8.263757217166944 5.48730323490738 0.0
8.138838162809126 5.491254533497952 0.0
7.90196833683664 4.477386962763833 0.0
7.987943097943191 3.978756490171551 0.0
9.704623491880403 3.945605151832784 0.0
9.461009573830147 7.301728818091931 0.0
9.532468631193666 7.399916015174975 0.0
9.582688928417856 7.292330983701011 0.0
9.652579613269625 7.387768793572397 0.0
9.699264016151023 7.282867433965265 0.0
9.633305589700536 7.188543855060478 0.0
9.505576100168666 6.961225778216469 0.0
9.43876966151099 6.342441564206569 0.0
4.908483672172518 6.098703904450545 0.0
9.135448256237908 5.269827196966999 0.0
5.905650502271389 2.025036080946255 0.0
9.709890722072377 9.452748507541063 0.0
9.663337613522643 9.572126259365891 0.0
9.603900123387826 7.495180532331903 0.0
9.720147629525837 7.483400774981126 0.0
9.674588415444239 7.588303295299578 0.0
9.653186673863587 4.039274180923234 0.0
9.053164539680804 4.764545162185531 0.0
9.164908495749003 4.763017269285045 0.0
9.226019227262443 4.858029410614327 0.0
8.809947621994619 3.4964384919072 0.0
9.10538997155458 4.665865142902959 0.0
9.331074106432244 5.748993480915537 0.0
9.055854333858068 7.918554535314415 0.0
9.446431573964945 8.209836764658437 0.0
9.573844810886287 8.191100251691205 0.0
9.309704769895653 8.244395007943949 0.0
7.240329561730736 1.676197957122907 0.0
9.543389817573933 3.660019800390455 0.0
9.598599341122098 3.563130123982772 0.0
9.652615161407017 3.658119804270645 0.0
9.706336063693934 3.564815526226687 0.0
8.632284427755456 6.946688912416058 0.0
9.682863230715835 2.349655023034811 0.0
9.571538455120994 2.142369886250143 0.0
8.090821900439733 9.017409120951333 0.0
6.812258669899192 0.9007667548831626 0.0
6.50135254578461 0.8974046495177885 0.0
9.598335906230732 6.246437748035812 0.0
9.719677442549804 6.253968775436637 0.0
8.593026822691716 5.180101360605356 0.0
5.537586126848265 8.836083861509138 0.0
9.688689404995035 2.143487155934306 0.0
2.821389253975936 6.507820864074362 0.0
9.176571289960709 8.507736431357309 0.0
2.918303740542162 8.256728920338826 0.0
3.428955230180972 8.401446814887457 0.0
8.490587404589881 6.715350139132777 0.0
8.86049054904785 7.243279881821806 0.0
8.93696309213556 7.356650230611625 0.0
3.951931175165697 5.78308550088855 0.0
3.65055612573298 5.91672400098539 0.0
3.668142216548471 6.247526235973777 0.0
9.717269848920886 5.821831227352286 0.0
9.708364917734201 3.164198601626433 0.0
8.45581975650687 4.569560863828342 0.0
8.204448312099833 6.040774355519757 0.0
8.65969449127868 5.485991799508151 0.0
9.707534571012967 5.634423933296901 0.0
9.62102991883279 2.849662850313935 0.0
9.144093558002634 3.560383427867003 0.0
8.29763273805118 1.77155302934031 0.0
5.280452715709455 9.01633391004168 0.0
8.984558945859158 6.99932633710603 0.0
8.4157550875812 1.275784953143711 0.0
2.068078118650995 3.355462780535101 0.0
9.205703884756806 5.568274778556933 0.0
9.745857863753141 7.178456670302003 0.0
9.681628895748586 7.081494416756802 0.0
8.875818787971069 6.240744812097083 0.0
7.993733797566922 6.414830952863579 0.0
8.462810157069566 3.377071044664789 0.0
9.29428363519789 4.759591981903337 0.0
7.933956818298286 5.97437536746848 0.0
9.028281726378319 3.558713145763133 0.0
9.083461773461467 3.455531762175701 0.0
9.73231939683535 2.849247643393067 0.0
6.70072305037728 2.192432536215492 0.0
6.423245125077639 2.212870246546939 0.0
4.931537051605536 1.135086496804522 0.0
4.746426561586179 1.500381091957315 0.0
9.707706579932626 7.836419656220658 0.0
8.590593344701457 1.595639668013959 0.0
8.708946574109854 2.1688179918246 0.0
8.634728854549891 2.028564483452208 0.0
9.230357659411311 8.129337203173913 0.0
9.102841374461482 4.452881308250647 0.0
8.472081531214734 5.388993924853032 0.0
4.925996806199801 5.844046944846857 0.0
4.702806345752284 5.745688656289065 0.0
4.884357002239844 5.633237011762874 0.0
4.709628434300812 5.536404116679045 0.0
4.530800966746534 5.627044171217377 0.0
6.040296145349247 6.603808099703576 0.0
6.162203578696918 6.795213950202512 0.0
5.923135943221574 6.824060069869489 0.0
6.046693245732212 7.010423490915212 0.0
6.297337598588478 6.979895528204233 0.0
7.760448385794147 0.7294020304851334 0.0
8.492228348169641 6.958778476405878 0.0
2.89219822877093 1.704113597264478 0.0
2.26178643438086 1.7814602252425 0.0
9.726968895980871 6.009547057102511 0.0
6.63195110828313 0.6072886418835157 0.0
7.984023036954866 7.515675826210831 0.0
7.893857204140559 7.681876703427663 0.0
7.778465117872411 7.537836322197895 0.0
7.998204230811618 7.844922503023499 0.0
7.798554315988981 7.858161805718108 0.0
7.917846202023782 8.03040048103727 0.0
8.547520504556728 2.721261126162116 0.0
8.39253850806587 2.732073315877738 0.0
8.306047241032278 2.59069854402512 0.0
8.233011054235162 2.739783364361515 0.0
8.318836035587811 2.879838477099622 0.0
8.159530874574331 2.888511553151382 0.0
8.245490421394788 3.024568439743106 0.0
9.759103003747676 3.077839427881478 0.0
8.083610090773394 3.033523757291178 0.0
8.174562583800352 3.166768504406541 0.0
6.046769434852523 1.155662270344939 0.0
6.968371001421964 2.176347877216873 0.0
8.324858098380334 3.152966249334499 0.0
8.145556596142626 2.609897633546475 0.0
8.970652052821418 7.804556541250797 0.0
9.033737629244714 7.681328986528639 0.0
9.62347010002576 4.796939565664328 0.0
9.72520380348743 4.790261082613535 0.0
4.882631186210167 5.455006233451049 0.0
4.618356368594037 3.933076284395493 0.0
4.748083507220199 4.151025177732873 0.0
4.641724290430313 4.358202249373887 0.0
4.87055838101999 4.337900676660481 0.0
4.974114446887331 4.149149057174687 0.0
5.081577844806959 4.3240148266423 0.0
5.179521650033781 4.148725180298481 0.0
5.276261408871418 4.316673822529601 0.0
5.369189110897883 4.148362797753505 0.0
5.463892033849439 4.338819369807593 0.0
5.550828466075906 4.146274465971151 0.0
5.646554822352869 4.303571429647391 0.0
5.728109623160046 4.138582010823754 0.0
5.821689108984419 4.291959598724587 0.0
5.906082534948073 4.141649907302701 0.0
5.99655838673762 4.288752711512514 0.0
6.077312859438928 4.141011188943332 0.0
6.164215275138099 4.281164574562373 0.0
6.241782344986693 4.140701084167517 0.0
6.324316420613108 4.277393447415522 0.0
6.40284165425941 4.140026953305852 0.0
6.483655157361099 4.273418937894759 0.0
6.561170698911611 4.136221843106807 0.0
6.63512300179586 4.269917278694155 0.0
6.720306110251473 4.133393659385058 0.0
6.63777078218551 3.99617001426095 0.0
6.802492763973074 3.994355399489989 0.0
6.798834760478153 4.276914787769972 0.0
6.15377608509923 4.000134206628027 0.0
6.548727135071258 4.400510710520637 0.0
6.251479300130713 4.421887359316258 0.0
5.275876048175579 3.979624500657822 0.0
5.910905077162284 4.431174408784691 0.0
6.717070288412452 3.851239795555301 0.0
6.883499045994213 3.852555480300214 0.0
6.96664848901999 3.994033961856844 0.0
7.048208567116626 3.854750001965969 0.0
5.810004974283072 3.982497501655442 0.0
5.586615391658107 4.471070246359201 0.0
6.547331954052155 3.853872077215347 0.0
5.179081233207816 4.485638492900557 0.0
7.126615227065496 3.995337770596979 0.0
7.209459742762513 3.856893463870469 0.0
7.130226097876905 3.713620439679428 0.0
6.63075064074106 3.699684148676045 0.0
6.446985573861992 3.697358756862005 0.0
7.043151422977365 4.131713936060725 0.0
7.198322215260019 4.129850614748363 0.0
7.119378405252723 4.26005098890218 0.0
4.797146270976422 4.525762781577414 0.0
4.608329098388589 4.573584257851931 0.0
7.294442092743627 3.720853338661503 0.0
7.215753312764997 3.571378507508807 0.0
7.049631633956289 3.568047985538775 0.0
7.133765707749521 3.414282375958479 0.0
9.755079417839903 5.539705890434435 0.0
9.698955703441971 5.450920012703194 0.0
9.717604099406742 9.09084770432896 0.0
9.276716006673976 5.847248422342224 0.0
9.339081208926798 5.941174203394446 0.0
9.031261921742963 3.750271483819014 0.0
9.08721978689863 3.853416037308712 0.0
4.801461566647803 7.510704110489921 0.0
8.206553504932042 5.818005960412773 0.0
7.362361315389098 3.863102442315545 0.0
9.492826845316191 2.963845037486267 0.0
9.376710375304633 2.97229517374228 0.0
9.3192743723601 3.070687802230453 0.0
7.915389082113898 6.293241865913004 0.0
6.735006382384437 5.832450056405368 0.0
8.456481836836168 4.35369289249905 0.0
8.517718268476031 4.246675068616396 0.0
5.583512022030555 5.411069060406398 0.0
5.73625200174779 5.422617752052123 0.0
5.81006929286229 5.548584937688919 0.0
5.903438861894402 5.420604003204523 0.0
5.43801870974416 5.402925156167655 0.0
7.022641548594327 5.825217331839047 0.0
7.165095795605366 5.826005223633447 0.0
7.223078558430726 5.690146755650336 0.0
7.841396000338385 4.586693006493787 0.0
7.904793170875705 4.690826189066096 0.0
7.785999820520073 4.696719777099973 0.0
7.846448506395101 4.798518978096564 0.0
7.728149182067156 4.803800941124008 0.0
7.788983823826226 4.904802634695232 0.0
7.672018889153144 4.910077510508749 0.0
7.731996012352178 5.014717724244488 0.0
7.852072803124419 5.00743796185411 0.0
7.779278698005006 5.118909346425974 0.0
8.088113864063853 5.605434545811022 0.0
8.016457362785575 5.494849890158723 0.0
8.072290383394757 5.385594956317259 0.0
7.95068657972964 5.38825563681957 0.0
8.309366678475389 1.438342408757099 0.0
9.748160780780179 1.447794693754379 0.0
9.696454228162398 1.337889922375316 0.0
9.568813761940916 1.329560834053294 0.0
9.638326779791626 1.226729570935787 0.0
8.472132467407484 5.182856496818138 0.0
8.066211547412054 6.53691730655352 0.0
8.217035586462373 6.522976700918602 0.0
3.544839338670893 3.324491119989469 0.0
6.999740002965287 5.347729916247808 0.0
6.874544698914502 5.347027470386579 0.0
4.880451234715014 5.193043717957879 0.0
9.104510033763066 9.313204713465637 0.0
9.0466357104558 9.45359399494339 0.0
9.146803165140184 9.569652364413551 0.0
8.134107047896672 0.5527712356100052 0.0
8.369770412730738 0.5571215815175228 0.0
8.47386979744655 0.7564607169846485 0.0
8.585193608569258 0.5749174254532757 0.0
8.683868132726584 0.75505070091701 0.0
8.787381435061018 0.5813987798627239 0.0
8.697570280442534 0.3771156480326233 0.0
8.530048434259976 5.077280516000916 0.0
7.995091351438729 2.90367515012593 0.0
9.731083608815164 1.662638626153251 0.0
7.260488865351954 4.255073962371814 0.0
9.760728358076392 8.990038509880067 0.0
9.716710396257366 8.884160310398862 0.0
8.794627466210242 7.369659405098349 0.0
8.868068657550866 7.515048014893154 0.0
8.702594597629135 7.510501129643432 0.0
5.132320689147051 0.7610757801158905 0.0
9.755852887652699 3.853180024615871 0.0
9.787424819067885 2.757921105725315 0.0
9.731193479931608 0.3736343090103709 0.0
9.796526908308536 0.489684029254899 0.0
8.226019692057042 2.453349105940535 0.0
4.560989821496479 5.428206018250252 0.0
4.348810639659689 5.517048281386008 0.0
8.785190163106925 7.119142251269924 0.0
9.015515413043023 7.464769766852701 0.0
9.754861440190705 3.659036930324926 0.0
9.7543610723378 4.033687839160082 0.0
9.707881226943384 4.127219992296752 0.0
9.52841017383273 8.309020665649431 0.0
9.65186044414544 8.289498614805698 0.0
9.714051275521857 8.173576484362068 0.0
8.209758892476394 8.715513071423135 0.0
8.097084883671858 8.548851201381087 0.0
8.177989947800599 8.367872862579052 0.0
7.974142434808908 8.36779470623567 0.0
8.409012054919861 2.142624252464372 0.0
7.707002321497132 8.039129945341395 0.0
7.574653123518228 7.83895791570255 0.0
9.229858094382692 5.951357214361815 0.0
9.75307989876696 1.229893222503321 0.0
9.715811155868643 1.128779429890018 0.0
9.597960915003707 1.117058287635912 0.0
9.672063923518955 1.020806103150243 0.0
8.99090422125785 9.593878510105375 0.0
8.133165456134304 9.257620998029804 0.0
7.976779931497633 9.420725324095141 0.0
9.77231778617502 7.927819487779705 0.0
7.957213679655531 4.364530256281665 0.0
9.609903116082736 8.403725680286847 0.0
9.724891358972584 8.388392708395173 0.0
9.687487059868507 8.495935345161797 0.0
9.810055520269009 8.494090598382963 0.0
9.755967487162335 8.599790818513082 0.0
9.645698986824481 8.606121319182705 0.0
9.721376049217765 8.699989876681524 0.0
9.773009257015609 4.884557953188837 0.0
9.830105798750992 4.796546393900876 0.0
9.775335108731761 4.686093304257503 0.0
7.455611517737074 3.730099283949135 0.0
8.906943567829634 0.4197477661467797 0.0
8.980613334153533 0.5814185917581446 0.0
9.081059111759728 0.4263421860552371 0.0
9.821654809259165 3.576985724143072 0.0
9.761309244784803 3.4792267780002 0.0
9.763329553045937 9.353068233045157 0.0
4.463051839136694 1.164440352584939 0.0
8.0213168204867 5.283436382300235 0.0
7.89385412333227 5.290429544753158 0.0
5.806940001023414 8.583716119232427 0.0
5.88977793877374 8.96065112858812 0.0
9.177759062826041 8.25539130897928 0.0
9.626582559276994 2.05283181283147 0.0
9.747673294325121 2.064954301745188 0.0
8.775905508647185 6.951821187702613 0.0
2.3581644273991 6.029034686663493 0.0
9.777798009058461 9.548066962498762 0.0
9.737129197219856 9.662299853506903 0.0
9.615080366030512 9.683349544763068 0.0
3.315839678697904 6.042943273456425 0.0
8.915083018115329 7.937748428923896 0.0
9.489832173860055 4.712364754630572 0.0
8.118313727862493 8.013944064029838 0.0
8.902248750797776 7.67372145952523 0.0
8.954075939212636 3.463080912810881 0.0
9.45247551997678 2.133243108303608 0.0
8.311151553157742 8.899233004613622 0.0
3.28672004268868 6.826745674539142 0.0
9.86008383798735 3.468233656255824 0.0
8.389990589860254 1.947086063498656 0.0
7.144231739553659 5.329544660076687 0.0
9.654500729007207 7.743301971143119 0.0
9.761920842881946 7.740144345898896 0.0
9.692820773976567 0.2651585113981998 0.0
9.690951720399688 6.100517071814821 0.0
9.775704281989471 6.077882312279847 0.0
9.823117117198079 4.115168542267924 0.0
9.764391943581737 4.214465954230587 0.0
9.659455011849253 4.218716850797838 0.0
9.713462125022623 4.30742830316693 0.0
9.849638067150842 4.208845651573708 0.0
6.376241713254513 3.858766051594979 0.0
6.274931849158213 3.701528298009006 0.0
7.097780104117746 1.926449727602711 0.0
2.457742027508782 3.810157622192786 0.0
2.963634206580268 3.740748099915693 0.0
5.065585416063965 5.544355730437482 0.0
9.783560252464587 7.566507987677117 0.0
9.825819294611026 7.470942204664841 0.0
9.799976114123012 1.01659516618323 0.0
9.745559590633832 0.9150866860898854 0.0
8.20473400632469 9.495828670767946 0.0
8.784586030320169 2.054461500762216 0.0
8.758471587067168 1.888286802854785 0.0
0.9188935087347281 8.510730800272478 0.0
9.674192026048217 9.20389587377276 0.0
9.796314981283475 9.185916994648775 0.0
7.206882433199502 5.452024361489832 0.0
9.773927048949279 6.334665846819535 0.0
9.830288393591173 6.225300227041885 0.0
8.25177349297509 3.282767705830209 0.0
8.099233469407428 3.304040153764131 0.0
9.607860512870598 4.315652630490023 0.0
9.403674738018715 8.367349042046314 0.0
7.611756786273919 5.018691202305147 0.0
7.549513964643336 4.923310232561835 0.0
9.80986724662116 0.2915868356190958 0.0
0.7757562810577034 3.504187313079081 0.0
7.659562100664981 4.698467529240196 0.0
6.539424975891206 3.541729955691742 0.0
6.717348880400739 3.55221857686142 0.0
6.836337579501807 2.417476958454302 0.0
7.096480496160066 5.959124656438389 0.0
7.189742782777612 4.377051328076039 0.0
7.051723187622053 4.38470822973091 0.0
7.125489805519186 4.497018383456762 0.0
6.994915621927777 4.501504591168814 0.0
7.056755276274058 4.607929817497045 0.0
6.932937068803914 4.613249390039674 0.0
6.86629288290367 4.50541343988659 0.0
6.80427099775847 4.617607827251794 0.0
6.739195362053689 4.511124964201849 0.0
6.677260697693361 4.624288827143181 0.0
6.996760608675822 4.711715831373894 0.0
6.316045249462968 0.6456945497683586 0.0
7.321834163850416 5.816449323512759 0.0
7.833101485370825 4.390058096386987 0.0
4.996572652976738 4.498711166259074 0.0
5.112334577457371 4.663858846723513 0.0
5.271923064784868 4.629759173373871 0.0
4.93773508827367 4.668006487116195 0.0
5.348137647919096 4.485934621930562 0.0
5.413454827497575 4.62999925573761 0.0
5.356581113747675 4.770594395332836 0.0
5.013422223730484 4.793321773780133 0.0
8.58674425943957 0.9312335381466886 0.0
8.776450596582496 0.9362399987293505 0.0
4.783496233934828 9.486061758876032 0.0
4.544176394620909 9.034071856445296 0.0
4.082330493623582 9.015765881393772 0.0
9.820867469965414 7.285959215547852 0.0
9.852697883440127 7.166089674802766 0.0
9.260999083164238 2.971390964911171 0.0
9.197701900169713 3.073162109379564 0.0
9.31960210441945 2.867465579641856 0.0
6.660951583415121 3.383363199709994 0.0
5.210469976037585 4.761678854423166 0.0
6.740780285297665 4.733615686805694 0.0
6.611362405615225 4.731958642073806 0.0
6.549091884465382 4.629620704100811 0.0
6.491761716522486 4.733409494449344 0.0
6.425259228542098 4.640546096196947 0.0
9.715556659367534 2.986725573570596 0.0
3.710524324925069 9.463213827486557 0.0
4.768537031214573 4.727001037865238 0.0
5.039413681704655 5.378508462165627 0.0
5.188746429211535 5.440476671296013 0.0
5.172214816037712 5.298914527247826 0.0
4.469063601436893 3.667917323494335 0.0
3.799121596584382 4.741629285988305 0.0
3.661085664896249 4.442847704416992 0.0
3.316563386321876 4.380147387454913 0.0
3.802087298647255 5.26743535640985 0.0
9.738116341343215 8.047178982429934 0.0
9.85106076399546 8.021725551312715 0.0
9.837581050304836 2.844176011307251 0.0
9.664579962075123 4.402853107737106 0.0
9.76433159763034 4.39807801415352 0.0
9.718924973226878 4.487825491046641 0.0
9.826405563645343 4.494594135148365 0.0
4.931068003413168 6.359330991212394 0.0
5.130175746947236 6.201075257041828 0.0
5.143884286052002 6.445382329515047 0.0
4.953395875296406 6.628748468717369 0.0
7.833019185167153 5.400347121613631 0.0
7.766636138801143 5.313240048256084 0.0
9.767038723422333 4.578090619166644 0.0
7.315369355237483 3.441501197259575 0.0
9.556068971301514 0.2347811136726856 0.0
5.733871280791703 4.444861510772459 0.0
5.828809543126846 4.569791247698539 0.0
5.986701526182213 4.562881783985375 0.0
5.912543327921148 4.692966271273211 0.0
6.052130330528581 4.682477327897978 0.0
5.773525984744635 4.697697018456535 0.0
6.121646311546238 4.572302645403103 0.0
6.182349700936326 4.67713231096357 0.0
5.846371383601797 4.808939734754761 0.0
5.117807918383606 5.974361363083184 0.0
6.256132501905665 4.575863546153224 0.0
6.324770064521816 9.645040261272253 0.0
7.345522892050965 4.12581088034536 0.0
9.338523512844539 4.854480276600515 0.0
9.286984287289403 4.959628690044808 0.0
5.676298026114105 4.589279806918992 0.0
5.631257891894775 4.722749088404111 0.0
7.970415275563177 5.621040275419208 0.0
9.565118337557308 7.081391220827488 0.0
9.626201005045262 6.980441083020495 0.0
9.733729506193331 6.979928568877979 0.0
9.684556253529976 6.887102896543928 0.0
9.780785815410074 6.890287441101827 0.0
9.740054813822885 6.794211367612523 0.0
6.462628988057306 7.629921412015864 0.0
6.692564520952154 7.473594130811262 0.0
6.927983108788191 7.570982428592125 0.0
6.899878641134941 7.329306734748538 0.0
7.117542472438434 7.416951094809493 0.0
7.089537168123128 7.186691566729968 0.0
7.296585396514727 7.275888419524222 0.0
6.879678873774065 7.097443005287856 0.0
7.063454637059129 6.967740076426161 0.0
7.329105042924355 7.496317641003757 0.0
6.867084781778411 6.878842928865059 0.0
7.494278796275744 7.351949197351029 0.0
7.462564159480594 7.150140034494138 0.0
7.644835001206406 7.21506678718646 0.0
6.682478929414216 7.008358327294905 0.0
6.449199855715812 7.365660640952548 0.0
7.548139855358765 7.57299228324251 0.0
7.008502809092701 7.844601794812628 0.0
7.371739019901781 7.707688433423657 0.0
5.665345294602155 5.290628720253272 0.0
3.987583013016546 4.486920698115711 0.0
8.893480480320447 0.7785000884179994 0.0
9.715485963651112 0.5955299613117169 0.0
9.761785841543585 0.7048670948649375 0.0
9.670304314877074 4.578896619304786 0.0
8.058509626083154 5.744161686650483 0.0
6.181795443628869 5.462040811515966 0.0
6.256771804808641 5.338464817889848 0.0
6.124070400983443 5.352376180901929 0.0
6.399679261813415 5.349186390888865 0.0
6.477776305607503 5.46505688468465 0.0
6.541624525938461 5.346017118512589 0.0
6.673064575428321 5.339051516933525 0.0
6.599301548842115 5.241958624987057 0.0
9.573774011620444 0.815274945835158 0.0
5.86493292693426 5.877588788523632 0.0
5.552663040119136 6.957487930464628 0.0
5.535080960199246 6.663033131707637 0.0
3.708603689392072 0.5979254716153909 0.0
3.31896983256719 1.188583855309964 0.0
3.895664898001925 1.128137111173669 0.0
6.363360407965353 6.032416442205533 0.0
9.445959758065749 1.070139246426051 0.0
9.50632172780449 1.214052376665338 0.0
9.441030033980638 1.325047485624912 0.0
9.295799464644857 1.341410624832976 0.0
9.184164107767781 1.461677744200096 0.0
6.407191016756832 4.407273313799791 0.0
5.544591888593027 0.7652641669375747 0.0
7.883090151006535 2.497506182548758 0.0
8.073420508370992 2.120510489750234 0.0
5.494822040671399 4.732314720081375 0.0
0.8986976806403217 1.464611451578306 0.0
9.536325549598013 6.83286654168725 0.0
5.972289519322897 5.727532110854501 0.0
9.82203607053145 9.443411729566549 0.0
7.263199949874008 7.064207941227515 0.0
7.233659553805083 6.853135694774254 0.0
9.793310082768443 7.072747972018893 0.0
6.734168931095253 9.67499220075154 0.0
6.941134861034159 9.382328333169653 0.0
7.285822522704258 9.443989747444657 0.0
6.576263515512108 9.333035011158342 0.0
7.160560566479093 9.127732577621245 0.0
6.218711947378506 9.298064908857533 0.0
6.432383355119106 8.980985203293491 0.0
6.795390278360442 9.046043538032663 0.0
8.54677014121837 0.1957422484480979 0.0
8.528696320820908 9.804850950580938 0.0
8.42644965647489 9.604735484095604 0.0
8.010239224104339 9.715048083583248 0.0
8.644359648763341 9.628432815860457 0.0
5.344212921686536 5.526744195650314 0.0
9.760936589662048 7.38409687515441 0.0
9.128187788393989 0.1445485608215519 0.0
9.133307661752394 9.854833215426817 0.0
4.867351616228264 3.944459575003425 0.0
5.905323253270366 7.385600364255367 0.0
5.909045412185362 3.361969954191194 0.0
5.80580919758911 3.569999290452344 0.0
5.578230704221431 3.587842862412673 0.0
6.013352753603037 3.550699073477782 0.0
5.936624955014758 3.721630401607248 0.0
5.735413275357409 3.78528948606432 0.0
5.512538847486775 3.794760621907932 0.0
5.360571639388366 3.618649018042938 0.0
5.134141179590394 3.459385929220745 0.0
6.167399567008798 3.367365990358096 0.0
9.766756262206602 8.291756450136036 0.0
5.486063578307141 9.64505925252771 0.0
9.497624614180321 4.328873442170357 0.0
9.811387324954623 1.570516917365688 0.0
9.389210081887331 4.69150887571586 0.0
9.704395728912932 3.754226393630331 0.0
9.808172776193384 3.748784464356272 0.0
6.549660911932182 4.839747932361234 0.0
6.757415124099031 6.077939876843736 0.0
3.805578542126494 8.040840085419626 0.0
4.232580149691158 8.198659880701744 0.0
4.559765382564095 7.87091698350757 0.0
8.3829075948167 0.9495097054886067 0.0
9.8571301061408 1.456307792614791 0.0
2.005900212453279 4.535525273813588 0.0
1.85904408608185 3.956445706785572 0.0
1.979307922430775 5.474327285927505 0.0
4.387923194305381 4.427191306527721 0.0
9.429258370703248 8.873693567695483 0.0
8.99196583083892 4.664567567015693 0.0
3.050357122593155 5.368999067452741 0.0
2.861107385476722 5.785089447130829 0.0
5.005058958272409 3.711196438448062 0.0
9.8972295764837 2.755337284632969 0.0
9.581048890980513 8.853909321617065 0.0
9.668838904423916 1.762418716497425 0.0
9.716576458425756 1.852218615166234 0.0
9.799043132681442 1.780583141193779 0.0
7.661868217848455 2.880323287492419 0.0
6.780136552904057 5.443858690999834 0.0
6.489544866845868 5.913957888434588 0.0
6.880149522020364 4.134257616716107 0.0
6.970134365280068 4.264072319341612 0.0
2.225481516813409 9.348422240784 0.0
1.843418032490818 8.641605249943353 0.0
2.198000805242772 0.6459947140825729 0.0
8.740020306282506 0.1903932731609072 0.0
6.86957996016679 4.720776242956433 0.0
7.430920333506809 0.2702852342693345 0.0
7.302066064947383 0.6134316505458445 0.0
9.305398039877746 4.64854361125207 0.0
4.078151380865065 5.203425462519088 0.0
4.080704120371218 4.778853303303787 0.0
8.052525541571825 5.965483159581719 0.0
6.367194027835946 4.754896037842673 0.0
8.604191121620719 7.648182513679963 0.0
9.546446695207845 9.234701521982952 0.0
9.018652854946867 3.351011585453845 0.0
9.143853648154607 3.350173119015413 0.0
9.067079866763024 3.245174561579149 0.0
8.991492136849105 3.135578770028028 0.0
9.29603967712795 0.1426516429033488 0.0
9.392428271030795 0.2506306237151588 0.0
9.223973843394301 0.2912279164401488 0.0
8.39375191941536 3.018777714002827 0.0
8.4836475746111 2.88135207267795 0.0
8.741089053946197 9.821127577434911 0.0
9.803966507713174 5.448064463539533 0.0
9.748132240148552 5.359371181503531 0.0
9.850258990973547 5.355211921626304 0.0
9.7965346514158 5.266762244994661 0.0
9.84142096963129 5.171050273734619 0.0
9.738843612428232 5.167483913244169 0.0
9.64168976006725 5.359875132194057 0.0
3.335917453809221 5.671837672982919 0.0
6.962669142802881 1.683222554707996 0.0
7.365210844496719 1.887492842536114 0.0
7.517378971174123 1.677983072937792 0.0
8.00383870208024 6.089394601875145 0.0
1.725435941000569 2.759295503019395 0.0
7.907977929549089 5.102827208603365 0.0
8.052861051278896 0.2683271125209605 0.0
9.80169732768395 3.385443381464333 0.0
9.831597648680848 3.28491948963525 0.0
9.736335895866404 3.316207814499244 0.0
9.597256128490281 3.756160701977744 0.0
8.865819925321706 3.366235906378775 0.0
8.489614436807788 1.757152185195495 0.0
8.88089641144391 1.078983279100314 0.0
7.430923851187758 9.724389499796425 0.0
7.584252919312249 9.509430586267927 0.0
9.744026095940516 2.247117754488748 0.0
9.729961521243718 2.659836747108116 0.0
9.790866569780063 2.558993767350471 0.0
9.736606445116795 2.455104424879619 0.0
9.846806182714698 2.452157456754448 0.0
4.518102112052724 5.141350889745285 0.0
4.519880229178207 4.85678334497067 0.0
9.7302407894617 6.434012603549242 0.0
9.787537474544765 6.523591663056312 0.0
9.744262337067932 6.617499601377625 0.0
9.8406238811518 6.41591236129004 0.0
8.914967252734657 3.579360039684312 0.0
9.154797282599406 5.670753066089419 0.0
4.228839454580575 4.612979739018002 0.0
6.095037541675208 4.42126627187728 0.0
9.304166983880842 9.864854494751789 0.0
9.406445527105628 9.759007358529582 0.0
9.256225114941945 9.700832989525724 0.0
9.796206564635622 2.351215649506205 0.0
9.849373673349081 2.25090453834006 0.0
6.332048155295931 3.511675163099286 0.0
9.069679774213784 3.022879178706259 0.0
9.070599961450037 9.055284879641471 0.0
1.808685691036764 6.331557276533421 0.0
7.120156826652838 4.698481230214924 0.0
7.052894345811342 4.799848851879358 0.0
4.739957520484086 5.369107149361242 0.0
9.389197839958292 7.197139943834638 0.0
9.046688232613976 4.560364044038737 0.0
9.162685461967492 4.562194096410666 0.0
4.227377821420887 1.564128177298305 0.0
9.201090975245227 2.794301402811909 0.0
9.251941624303948 2.677556975242327 0.0
9.186758273070138 2.563916005021366 0.0
9.317609833868786 2.560335260954038 0.0
6.57599191748324 2.437689779955877 0.0
6.305556560534859 2.459112595979303 0.0
6.981058048792093 2.642476994448363 0.0
9.886113463139504 6.510498309609482 0.0
9.250462794607717 6.221362629571698 0.0
9.305373999084068 6.108271307139882 0.0
9.390477915810829 6.228015172491477 0.0
9.44452571968143 6.114582165110393 0.0
9.502105740270528 6.197677857389309 0.0
9.31559697209813 6.331647407124485 0.0
9.370938253597153 6.437386206819511 0.0
9.594764406124872 0.1099001288712305 0.0
9.602872681151728 9.894988341116305 0.0
9.622661196143387 8.076680696281343 0.0
9.769069277144705 5.9102532189237 0.0
2.615076109785583 8.807551523115547 0.0
9.658920005405456 5.730890135691177 0.0
9.76063135061807 5.720703211793342 0.0
8.63963723169499 7.177334225227945 0.0
7.841904391869763 6.41346852896409 0.0
7.764520718520185 6.297267738834625 0.0
9.546492996136271 3.465225175657335 0.0
9.25600964352143 2.219157062786616 0.0
7.625057159226293 7.012987957636062 0.0
9.529121062829038 7.730283486008674 0.0
8.329887090625894 3.845190321147069 0.0
8.265841850823831 3.95687001944245 0.0
8.402006523775544 3.947660780406651 0.0
8.128436391670505 3.968543393650448 0.0
8.46705122470662 3.835767362024195 0.0
8.218867047074696 4.063481375518748 0.0
8.089763413611255 4.08062363292928 0.0
7.939578083855268 4.111915744184436 0.0
3.74991304509639 6.615676756107112 0.0
2.627714335615619 1.170993030860914 0.0
7.046129971268607 6.759930788612616 0.0
8.534603732661887 7.486325780553722 0.0
1.569381386467569 2.042794535871475 0.0
6.228703743210918 1.986421863690014 0.0
6.467030855792859 2.67190498312861 0.0
9.272246093269825 1.975478263632296 0.0
8.05269609263041 3.854522845257449 0.0
8.008595521536957 3.177870309354594 0.0
7.929796740504207 3.350600835935766 0.0
8.048703574664067 3.449582532910417 0.0
9.72947480375618 4.973926800124758 0.0
9.784850360535604 5.072865219810449 0.0
9.896036387646596 5.069261557893528 0.0
9.633140953203334 5.168645132864771 0.0
9.558102991128836 7.602453108835212 0.0
7.278758746505716 3.994295887299482 0.0
8.306681733482405 6.936428510427854 0.0
9.487163072013963 3.757777670075558 0.0
9.532950522284125 5.359403698944497 0.0
9.816036650072329 3.927268437107025 0.0
6.173882586235392 8.734645960664665 0.0
7.972518459433741 5.003005338485466 0.0
8.398453459336153 1.601072016988848 0.0
8.97460527296194 4.040886705742754 0.0
9.037941657530773 4.143578781749325 0.0
8.849604200183613 3.828506169652706 0.0
9.545296177100065 4.042698359132156 0.0
8.595941796785514 5.806754902023664 0.0
8.65588412428292 5.694192853853139 0.0
8.723710665131787 5.801528918332044 0.0
6.861288985046249 6.673713222735126 0.0
8.87477249219366 4.664500928777609 0.0
8.72385765226959 3.608276264790996 0.0
7.145228858696953 5.573648565429618 0.0
7.282945121585866 5.558559688509987 0.0
9.224761401603633 1.602363370249125 0.0
9.609115686587552 2.986868833620756 0.0
9.633989947851914 6.628120633848649 0.0
6.046214325132457 5.45615093027661 0.0
9.017014346798927 5.271996636983457 0.0
9.070824864071271 5.168510834798647 0.0
9.189021391555556 5.166867900487267 0.0
9.123328759137758 5.064718588163964 0.0
9.240587446378079 5.06459430516883 0.0
9.250848280531756 5.267364371053135 0.0
5.773050603406019 5.7192906317521 0.0
8.576466432793914 4.3559007860436 0.0
8.634627802680399 4.253467736542067 0.0
8.461790117175607 5.591735227444779 0.0
8.907610717370224 3.713397213891439 0.0
9.80665594564509 5.628066492225966 0.0
8.985935132601089 4.455263493464225 0.0
9.00640209566022 5.067597672073404 0.0
9.833659276096986 6.976519563917422 0.0
8.0283368553477 4.687271895436317 0.0
8.326580191759327 9.127498457128247 0.0
8.650637373791266 5.07513089931925 0.0
8.701067313435203 2.700069743477523 0.0
4.825307249916392 4.884175191874744 0.0
9.418335984190309 6.858444798015129 0.0
3.91434687300816 8.542956908935874 0.0
5.569239724399552 2.064135034637056 0.0
5.234271567762738 2.128974435011933 0.0
5.757920427527626 2.312422707096966 0.0
5.43365689737979 2.427455772745759 0.0
5.673210219624612 2.602111218343444 0.0
7.214258468265766 6.652783071431555 0.0
9.823626269633962 4.30685540664529 0.0
7.96996639420014 4.794005510174826 0.0
7.616003332725032 0.502676560965646 0.0
3.050634530589821 4.659174799474146 0.0
2.870894249800723 4.246924313393336 0.0
5.285393339952368 6.079037173753393 0.0
9.439954241218905 4.23581687956071 0.0
9.67709722097145 4.710772408106511 0.0
7.40767785509217 4.259947873553335 0.0
8.396202587439676 5.486075637998701 0.0
8.323689688705493 5.372061002264632 0.0
8.191312386254125 5.384662546230823 0.0
5.304380054816289 5.369675374029755 0.0
9.093848379546637 4.047647920840374 0.0
7.916313220758624 3.045043876114836 0.0
8.435854831444637 4.144861908356168 0.0
9.060262453079693 0.7340576053322918 0.0
7.053195520344596 5.238809779682351 0.0
9.621762679347093 2.45205452967588 0.0
8.410730269104743 5.287995309529392 0.0
9.655094569234972 3.472720279371932 0.0
7.982140513923982 6.667914768024983 0.0
8.402690325256646 4.883576657130221 0.0
9.17488654147479 4.962006474835693 0.0
9.013188196102961 8.49700148123058 0.0
9.795977244531603 2.156818021002043 0.0
9.893813711206834 9.545820400859157 0.0
7.965349232662289 4.250048884270795 0.0
8.644264557989125 4.874751532150782 0.0
8.215430976121077 1.26077208565765 0.0
8.379717637669398 8.37324652769609 0.0
9.320026533461409 5.559861899725609 0.0
7.885778178744864 0.4977439426642278 0.0
7.547066983926719 5.125166613071239 0.0
7.657542898944819 5.122996245335209 0.0
7.423918840193691 9.000935553397358 0.0
9.854133000712425 5.541931969512857 0.0
9.328508174398952 2.101486405523264 0.0
9.300749600926641 9.530012105354274 0.0
8.130307182491519 5.277079344947874 0.0
8.346752967392757 4.987627363826086 0.0
9.118404185029991 6.007087846617186 0.0
9.048232213728614 5.89431792713258 0.0
9.088340967655858 5.576242562571367 0.0
8.094762487139027 4.789727191449318 0.0
9.915265904493378 5.749591413470928 0.0
9.92169805280126 6.154216704502091 0.0
9.918022441582268 4.549125436287157 0.0
9.919332362905616 4.849536560132457 0.0
9.914800786693318 6.750595509794719 0.0
9.811792900437824 6.703950687575952 0.0
9.900643083988882 3.749855087409844 0.0
9.912423171222734 3.043228996968949 0.0
9.91892875832665 5.949999999993851 0.0
9.913300070218703 3.960831593817277 0.0
7.709347001661226 4.444236534782706 0.0
7.479443107717332 8.071637285053104 0.0
8.839057072155848 6.807845119358974 0.0
8.972330068019902 6.78765448182788 0.0
8.542093772125282 3.941452413628317 0.0
8.279144752968262 5.930387616620717 0.0
9.393455876855919 4.973162505621418 0.0
9.507123333872533 2.855087674515822 0.0
8.77504684283825 2.317347145885344 0.0
8.394133129040345 4.464046960801843 0.0
5.725509852450801 8.210843960481027 0.0
5.62632390239664 3.967637659758752 0.0
7.910815814627989 4.900765971697654 0.0
8.595808444085467 5.590040244353608 0.0
9.705160502006024 0.8106158419444889 0.0
9.82021247904746 0.808810893177099 0.0
9.218352146075844 4.447736986422823 0.0
9.20781892622228 3.858281726888132 0.0
8.713609974387523 5.178241668554946 0.0
3.55755059259364 8.921522400238844 0.0
9.59122926011489 5.452844834281716 0.0
9.70565100407009 9.77887811062354 0.0
9.826938454219809 9.74303055702321 0.0
7.238962096855633 3.278078153406256 0.0
8.575609105166194 4.567807831727537 0.0
8.936449841121737 4.765835458965493 0.0
5.59323463391086 9.248527978398117 0.0
5.280809113285124 4.886132326418428 0.0
9.328132730893216 6.544753806716806 0.0
9.026944889277736 6.67247283515637 0.0
9.81946239021469 3.007926663525007 0.0
8.677633568960493 6.144049349297466 0.0
8.33427489656924 4.571212803519522 0.0
8.55734024448315 6.382535186588269 0.0
8.692399379422756 6.372347713955898 0.0
8.495817478252626 6.503308565233578 0.0
9.905494734661673 2.544078755559835 0.0
6.177101405266569 7.228490244483556 0.0
9.825373011845263 5.807482724503027 0.0
9.808678508609606 8.118683092442964 0.0
8.397717712407108 7.08010313863416 0.0
7.428555529689225 4.935946611338556 0.0
9.575504958128711 6.125633853639113 0.0
9.154066996197898 4.146562596982661 0.0
8.074381802159323 4.337569667261167 0.0
7.018337246891919 8.843475095716133 0.0
7.970627172560641 2.658650028065857 0.0
7.382546388883145 6.723381543491632 0.0
6.822972334933889 4.884555620881615 0.0
8.343732976791593 6.041576709398377 0.0
7.743680217306919 8.423336160305476 0.0
8.505717922983454 1.115022897794028 0.0
9.113973198216474 6.992972408167606 0.0
5.818882632841168 5.300437503812764 0.0
5.951991891717714 5.279516346785062 0.0
9.450183479138845 5.92934813870612 0.0
8.783346541536119 5.48419035750989 0.0
9.38074895894124 5.65076274999803 0.0
9.513658728876734 7.193620441323493 0.0
6.396040948797887 6.776064256962667 0.0
5.389661780244388 4.89715084345563 0.0
4.473247649068957 5.85935163892416 0.0
9.249586607512612 8.37680799459232 0.0
9.103796366487646 8.379197231055114 0.0
6.274057301184156 4.87985402946409 0.0
9.259628836118232 3.561431822636308 0.0
4.037922477011971 5.489409780163391 0.0
5.62712958624254 4.893925433488392 0.0
8.806426003347967 6.133410188141932 0.0
9.53304466499349 9.59279975429444 0.0
9.542890959420024 1.966631379116419 0.0
7.459736176874619 5.863847835420528 0.0
5.937613117200432 4.89232797168023 0.0
6.171611131472617 4.879541833448487 0.0
6.100695199816815 2.291172318314745 0.0
2.315194906726768 8.081958163666464 0.0
6.878489987598286 5.148099521847569 0.0
9.105264414399338 8.639184652727645 0.0
9.20047261316883 3.457820810661327 0.0
9.895329010385955 7.55944047105717 0.0
9.912742873006831 7.76210330502246 0.0
9.37761459375249 3.168397068877758 0.0
8.946121261512507 6.345629828835438 0.0
9.918632496443566 4.449809517365367 0.0
6.848211525651934 5.945010613369067 0.0
9.915721525903255 2.047407395915179 0.0
6.117255841708726 5.163321965161054 0.0
7.276595248786602 5.347247322210079 0.0
6.32682869954104 5.23674259421017 0.0
8.785886448438022 5.692775375342819 0.0
9.099994401883361 6.776698531382792 0.0
9.913397459621638 0.2499999999998165 0.0
9.910352525643928 0.4481571029410266 0.0
9.907850422008579 0.5479735220323012 0.0
9.911983631350465 9.24778487019403 0.0
9.917634740384067 0.7514684821956668 0.0
9.195214232985496 3.254172408378337 0.0
5.000896927376288 1.846006038077654 0.0
9.917172478547403 8.250155740683276 0.0
9.908120476950126 1.742986232208194 0.0
9.914524635720774 1.949567899316728 0.0
9.907358878377153 9.145625165175748 0.0
9.917695944922635 8.949999999998397 0.0
7.648387553139914 5.325741673607362 0.0
9.605343588986079 4.130627398479715 0.0
6.648113233057817 6.774798386229164 0.0
9.910347203087213 8.446729917003672 0.0
9.913623694530468 8.548470085896316 0.0
9.9201245863254 1.536225488581779 0.0
9.906538426683255 1.059019360781604 0.0
9.912867352010919 8.74999999999809 0.0
9.799662981388353 8.79550485462418 0.0
9.831828680383174 5.99966894118311 0.0
9.91414179906643 1.263025320602998 0.0
9.920690092699912 7.240982963665807 0.0
9.385889285950551 2.235126904097426 0.0
9.28133998925606 8.00415195851526 0.0
9.817074723108401 3.172398890123306 0.0
9.482030285089927 7.512954023388035 0.0
6.682432918504054 7.233889573028878 0.0
8.528699633246763 3.260502457553277 0.0
8.91699963742029 2.327016692708648 0.0
9.267676068834481 3.954520684561369 0.0
8.70811637467455 4.974101624783084 0.0
8.18184214270768 7.816666208279135 0.0
9.690393137288163 5.264344933127836 0.0
6.937111790104696 5.245184991960528 0.0
5.895846026722989 5.174232967273284 0.0
8.281683356622615 6.400073017261236 0.0
9.150883172924027 7.444273543454419 0.0
5.430406600793122 3.390815886517273 0.0
5.049583827974758 5.697634876048387 0.0
8.3966710383105 3.495813899905868 0.0
9.007538428392454 8.046563579784266 0.0
4.645155158868719 2.637132843684674 0.0
4.887444326771336 2.30020425915506 0.0
6.483736782775559 4.522536327482678 0.0
7.843169154548308 8.2116075844056 0.0
5.06295551628385 4.901632590583318 0.0
7.201400991012747 5.138239336380897 0.0
8.519791031104612 8.848807089071627 0.0
8.658623737989732 3.031313729049854 0.0
7.585566208322493 3.629882964874684 0.0
8.411818469596405 6.834326722716643 0.0
9.172363528634236 7.669230647622864 0.0
8.85455683341768 2.682483055215344 0.0
9.359398739738925 1.631421337140716 0.0
9.071793864444992 7.337030604117359 0.0
6.968394563521436 3.712808894519514 0.0
7.899236117684646 7.094583340182754 0.0
9.54362864504834 9.781852543872333 0.0
7.151298729743687 7.644795130415299 0.0
5.452218361466201 5.186873761308322 0.0
5.517642289161902 5.293540933999446 0.0
7.802500357665464 5.978295671754199 0.0
6.594850839687122 8.491429270558893 0.0
6.029132431949566 8.294997405201931 0.0
9.31286590869111 0.5672913838331921 0.0
9.25238720319541 0.4415953739444106 0.0
9.550589523211062 4.228044955453704 0.0
8.748611832783206 6.250900951984038 0.0
7.566980108995873 3.995148257893202 0.0
7.426142759241261 3.996743578498081 0.0
6.478912513785404 4.000296412419969 0.0
9.30435638148753 5.168210982711592 0.0
7.542154188520517 5.752525075248498 0.0
7.219033852073297 2.139582470800704 0.0
7.370913620388047 6.545121498197235 0.0
5.226731036024996 5.187572666585561 0.0
8.515591031124366 4.462223215179979 0.0
6.762864307079274 0.3078036604979366 0.0
8.587432696997471 4.977010533175154 0.0
8.703948448756302 8.815629076400704 0.0
8.081003990931544 7.370949680119862 0.0
7.424404567669909 6.949730915714445 0.0
8.578903262311433 8.377992954045473 0.0
7.301258690263783 6.106184350645308 0.0
5.991600556904204 3.99820087171043 0.0
8.203048538477193 1.601044215405025 0.0
7.289972483120081 4.572350254111052 0.0
7.714697186439165 5.420586967696794 0.0
8.918853780709807 1.841796898567452 0.0
9.919941345877513 4.749808449067644 0.0
7.245589454939737 5.94251251443003 0.0
9.258480524497795 3.358952871140391 0.0
3.705877615124628 5.574038727593425 0.0
8.287096858129765 7.962370605242409 0.0
6.799629860952143 3.705385600481528 0.0
4.146753450763018 6.544154457143895 0.0
7.413973555029582 5.545687501585183 0.0
8.466524978378082 4.980481756569235 0.0
7.336312153537934 2.337983522449311 0.0
7.695505222753409 3.747498713679684 0.0
4.898236813123799 4.795853653580084 0.0
4.59779105899602 1.896916774247134 0.0
8.560170375862322 7.072369101894893 0.0
8.386150468360862 2.449771437140704 0.0
8.41200018115259 5.084601315536367 0.0
5.102189912301071 7.621598618277815 0.0
8.336320418935243 6.71651223072348 0.0
5.081745734883095 3.977838926197614 0.0
7.63590698378166 0.9500570055008507 0.0
7.743369677149255 3.051233984704873 0.0
5.357527459690566 0.3809996753407537 0.0
5.967373112873382 0.7731113464301924 0.0
8.169449265206127 6.666271947462212 0.0
5.95122726745053 5.55758205410881 0.0
9.922289489207834 3.53923011719877 0.0
9.39154684476555 2.659037023454942 0.0
7.701415639167884 7.690060291860976 0.0
9.819179654793023 1.329863870021845 0.0
8.358229579054417 6.506108206863729 0.0
9.269720555169467 5.657096143475924 0.0
4.473187658045934 7.435037860084884 0.0
9.65807158077373 3.255496360750368 0.0
9.605155446454205 8.713645566904637 0.0
7.097383547728313 5.141197376985936 0.0
9.812212483832656 1.89920712759492 0.0
9.83875570675407 6.81603549325055 0.0
8.926246869879279 2.079976511571457 0.0
9.166785856141402 9.169070814302419 0.0
8.763479010228052 1.587152667342957 0.0
5.957377924852992 6.404530806530254 0.0
7.14506854375872 6.10342416684208 0.0
5.672595070581394 5.164323323112049 0.0
4.899782787268781 0.3801727265981219 0.0
4.447133848117348 4.673614099606824 0.0
7.044865074789195 3.253639989243549 0.0
9.818461337102992 7.819456450952447 0.0
9.925334577033155 7.954012377173311 0.0
6.352907898232792 1.173665225954276 0.0
7.351721385581032 5.660361289755705 0.0
9.337367583861807 2.76534436379692 0.0
8.693118347802024 4.360254099729149 0.0
9.476812970101324 0.3524826622168163 0.0
7.109868985890334 0.9024224571333925 0.0
7.899106846231403 5.511805431542581 0.0
8.352799544476607 5.187887629361129 0.0
6.957483547582747 0.6176251309213842 0.0
8.099559500483094 1.412323841044818 0.0
9.913030944540278 0.8542404645334569 0.0
9.143075088381442 8.022165366829135 0.0
8.819861450593166 6.356592599428041 0.0
9.319444417409162 1.49938505915629 0.0
6.490262520326714 7.118204362551877 0.0
6.490874470087819 6.582907761235813 0.0
9.82506653058937 0.6146757679104559 0.0
6.803129818897624 4.419048038171804 0.0
9.840901379354312 0.08198751964190581 0.0
9.839740374244226 9.918356239418472 0.0
8.551927134544655 9.449788917425456 0.0
9.92097857388158 3.249999999993177 0.0
5.797087413057367 7.077351493358238 0.0
9.255412859987286 6.433984412022419 0.0
8.668174522249984 1.740767926084485 0.0
9.920991430240607 6.25262219124529 0.0
7.57275248448898 1.94367954756322 0.0
8.052865444445507 8.19900054463639 0.0
8.748697149245206 4.25201068974208 0.0
9.158270227735827 0.5542256343091421 0.0
5.997487767477439 4.787924707603557 0.0
6.119759900601896 4.78043793682227 0.0
4.353034750397793 8.619182743639561 0.0
8.721093521611476 5.588932824583312 0.0
5.717101151444983 1.123034066822819 0.0
9.825602081347064 8.68753399402474 0.0
8.005502510832988 8.7824052910506 0.0
5.548184234622668 6.408009287230429 0.0
5.77830300433981 6.598697187164234 0.0
9.613093825495433 4.50282172481406 0.0
9.928981132641653 9.74928475696928 0.0
6.613628176297015 4.515513362596662 0.0
1.822126723816303 1.297795131355289 0.0
9.514164594137375 1.43081427463862 0.0
4.735494753432723 3.698541604583975 0.0
9.52844959749262 8.615213629960298 0.0
4.660704511759056 0.7947595073298008 0.0
6.82340845160293 5.239926830264399 0.0
7.885938077030673 7.380147032865134 0.0
7.884599891021201 6.09005968568029 0.0
8.846834820720167 9.653276456345532 0.0
8.457777199486827 0.3851010632068662 0.0
6.66485224572131 8.771510767670392 0.0
9.091499342133352 9.708315832477556 0.0
9.824286725109655 4.976315293637262 0.0
7.848197684391786 5.632217046637356 0.0
3.88430598115417 4.225391362015386 0.0
8.776890759183289 2.809688928468134 0.0
7.393884285023409 3.59397875231041 0.0
6.927568893329758 4.396788356869783 0.0
4.96854327720728 2.662368428358774 0.0
9.1480130720193 3.951479613991279 0.0
7.071049729490975 2.38092990636632 0.0
3.40193058782919 1.686321186206593 0.0
7.612042194200681 4.815904436723407 0.0
9.043395868401339 6.888481825015849 0.0
9.098933057562759 8.152197681006806 0.0
6.058682303253315 3.857501492181965 0.0
3.707092669281355 2.986685502034343 0.0
5.113272509841263 5.189455016444592 0.0
6.960565857079232 3.416349532571279 0.0
8.755151527375476 7.649255597361291 0.0
3.393680865444538 3.679982303262531 0.0
3.117424600120088 3.35605258976247 0.0
8.530814041264104 5.488376426140491 0.0
4.820719767306654 5.106646490188182 0.0
9.918899263509473 4.144927088739744 0.0
9.918194630017027 7.447268230913605 0.0
8.461970084137805 3.144844565847669 0.0
9.924415919486059 6.949999999995354 0.0
7.184050152099684 2.72771667662237 0.0
8.834356715215904 7.801565642745232 0.0
8.689015446783005 4.145232831954543 0.0
8.490778532265319 8.234414357968106 0.0
8.63666290918932 2.83060276219705 0.0
4.61028976098935 4.741894230894578 0.0
6.314735925012879 4.003132559161639 0.0
9.20786580425652 4.67001723737971 0.0
7.141401229301469 4.873205425098625 0.0
6.235177809922153 4.774126344778935 0.0
9.12491895896937 3.145675090615719 0.0
9.255747684068178 3.162525801823036 0.0
8.312852272796098 2.290855459722148 0.0
1.449266720542303 3.363629101350872 0.0
9.525687840398492 4.800807314407045 0.0
4.829905263804087 8.14474456977717 0.0
9.09338914689732 7.563794106183232 0.0
5.389401689694107 5.283808684471545 0.0
8.530979415204587 3.029374286908943 0.0
7.901489077080633 6.535344047486632 0.0
9.218572924671975 5.760893551533255 0.0
8.562382833959296 4.143913974026883 0.0
8.62959127904665 8.974877485888243 0.0
9.408442441596518 9.62276529745719 0.0
7.5034765601713 3.869833107932387 0.0
9.842813436634783 6.600620949014236 0.0
9.826116984327193 8.911617279149695 0.0
7.529907780698261 0.7369111006685982 0.0
7.832164962480427 2.905293639437395 0.0
8.39517908433056 3.267417602291069 0.0
9.823014010107707 9.085319632577246 0.0
9.022314123618541 3.944559746338292 0.0
4.243701230676532 5.332574856090426 0.0
9.816740542566388 1.127839952679595 0.0
8.166775715766304 5.693916696568397 0.0
8.865374421689054 8.068986769641638 0.0
8.761145809863661 6.470583506581853 0.0
8.998345275919851 9.209303502026401 0.0
9.698477487436316 6.706902829754045 0.0
6.439032098063426 0.3109134377713525 0.0
7.562681994382136 4.643158005207056 0.0
9.03999088074715 0.2799354672273258 0.0
5.180741540467516 3.805018725608906 0.0
6.243990330956698 2.718077286244967 0.0
9.79416634023361 0.1815240178579244 0.0
9.926540005061975 2.847049370876555 0.0
9.826476210374608 2.670192168078066 0.0
6.365816673179121 4.536333049275508 0.0
5.546353765219417 4.618331215552614 0.0
9.820703096450293 2.000649418331399 0.0
6.884388790679166 3.561583980715254 0.0
7.431303395649604 5.747824222777201 0.0
8.849816832721245 2.19318290395604 0.0
4.185147517585975 5.697469360586313 0.0
9.165905238119013 5.873664931582344 0.0
7.70479478158537 1.788324620089049 0.0
9.627376046933474 0.9196091445437269 0.0
6.657687963328663 5.144792385996769 0.0
9.83245016645186 0.3925568446109945 0.0
7.483092985762584 9.253837199159435 0.0
5.445348362202234 3.977855663863651 0.0
7.476680532833337 4.837183287808616 0.0
9.572749890969304 8.505160319814301 0.0
9.915853314998252 9.437014513917465 0.0
7.679469018350979 7.390484878021194 0.0
9.418139053434402 4.790576000488359 0.0
8.096967733471567 5.865447162201908 0.0
9.829153508938724 8.378494945652118 0.0
9.926595955569645 5.157718300415699 0.0
8.774484245600224 7.939747459426853 0.0
8.629764448155779 6.481031318922794 0.0
8.961169458302376 3.839036702328818 0.0
4.617199205561317 5.256318959792646 0.0
8.480815774219478 4.031210317621497 0.0
9.708341592512763 3.401018043990571 0.0
7.183974816647467 4.77882314543966 0.0
9.821437962294304 7.659391965474772 0.0
8.150320284869602 2.286501016204562 0.0
9.828114434347311 1.684891358832554 0.0
5.349187766238684 6.538177907133678 0.0
8.076053471314525 2.76180604769483 0.0
4.907713691134565 5.29818629967416 0.0
0.6874399366049438 4.328593906714074 0.0
0.6980011780697519 5.702671170050627 0.0
8.263861466707834 8.182284285231713 0.0
5.838783785156478 4.913981390426639 0.0
7.807619472656604 7.235706382002089 0.0
9.388504256318683 6.022122644748753 0.0
9.929839894767033 6.436189192303577 0.0
8.3205848711706 3.39107920408397 0.0
3.240770542267401 4.019899919523968 0.0
8.059047070496568 2.468855909103855 0.0
9.932479519490421 2.449625056415224 0.0
7.737639000139152 4.580708137963557 0.0
8.26141077223695 0.3940397126348397 0.0
9.69568953371801 1.959951226402445 0.0
6.469120930453264 4.892267070266994 0.0
9.167223997255698 0.8102256463122337 0.0
6.236889648241256 0.9291076084031108 0.0
8.306379082772498 5.268830342852036 0.0
6.716089118890225 5.239344620507032 0.0
9.82511981852641 9.282822358664017 0.0
6.68375719572285 4.404998642130821 0.0
8.913754712375674 6.908138360584365 0.0
6.173250048857013 5.251634416326969 0.0
4.235907497612446 1.924052997345291 0.0
5.151007663981651 2.438629730660893 0.0
8.924254300637541 9.3764975797567 0.0
4.438612423541503 5.287968640901957 0.0
8.571203234299599 1.897009944569934 0.0
6.878800676380218 5.821332862798138 0.0
5.710626178601224 4.792560699857408 0.0
7.149510071621283 5.216310009157644 0.0
2.099966541549645 2.334742113488256 0.0
9.93396330620579 5.350566393301629 0.0
7.143046479323961 8.646955109387985 0.0
7.965747313080266 5.193641450105844 0.0
6.3314394693073 5.135050228240639 0.0
7.665821333021348 6.222698255001823 0.0
6.305321657053551 4.659816230868476 0.0
7.833020917089713 5.208837056143474 0.0
9.41455902676429 2.869725681199307 0.0
8.567151507735133 6.598605357295113 0.0
7.405527786978573 4.377085529441429 0.0
6.552969697053132 5.137148974085434 0.0
9.93630620742063 8.042778076596578 0.0
7.166743296019233 4.593171678848165 0.0
6.595561806063966 5.839366735225723 0.0
6.066152182102007 5.262519562574559 0.0
9.834694151277489 0.9093455747994099 0.0
8.98259191950674 7.579732466796592 0.0
6.465071238839505 5.25485771955322 0.0
9.759759896588413 3.236659507608532 0.0
4.775529448101694 5.224235675150505 0.0
9.935991245222917 7.153416415978829 0.0
0.6530736820718381 9.352299998916202 0.0
0.6449439415299687 0.6468300344151556 0.0
7.804690364869245 4.495816547678174 0.0
9.84503784553893 5.70620404704573 0.0
9.83525329400959 3.826992990746767 0.0
9.922964894244684 4.265000406933376 0.0
8.333767638401964 1.121219971446645 0.0
8.876012546033895 7.019147158538482 0.0
8.172413577824324 3.413096916572049 0.0
7.232233017296214 4.478957103028363 0.0
6.214597295185415 3.852860083673202 0.0
9.85013791746415 4.400709747289421 0.0
3.941627380932058 6.342995010255737 0.0
3.097271569675528 8.77391871286929 0.0
9.292917152323044 6.010976049411984 0.0
8.104342196673183 5.184165973282902 0.0
8.994300084006271 3.652611812846807 0.0
9.937157897030163 5.549999999993244 0.0
8.721368888525245 7.274540720770752 0.0
8.920003648712827 0.9516585309368178 0.0
7.910527456030004 8.536826514867816 0.0
9.846441288756814 4.60515911863952 0.0
9.584942233925151 4.712073182517884 0.0
9.642357858573972 6.805672051759494 0.0
9.797024725252207 9.838837222258014 0.0
9.842451438022124 4.018973836958878 0.0
6.112723137676118 3.704473949316424 0.0
7.574641969193845 3.765362276156904 0.0
7.826594968121701 6.200366572362263 0.0
7.762805366733504 9.34009502796868 0.0
9.56854033867856 1.012566255816665 0.0
7.71256563655353 5.219373702836014 0.0
9.68039392238282 8.786964504862018 0.0
5.910362452777086 9.277662068919813 0.0
7.418090653922814 3.326443419100716 0.0
9.857704179097952 4.697553149694669 0.0
8.452469674653342 8.996585816905599 0.0
9.522351366699843 2.057525484575908 0.0
7.802315574700843 9.548878971475935 0.0
9.938875656926385 3.449999999992592 0.0
8.425189037911712 6.608575180629274 0.0
5.925965231566842 2.523669697740033 0.0
6.654918072256329 5.95749128982984 0.0
9.826748589235729 9.631118448471485 0.0
8.6684585637523 7.39633999085442 0.0
9.844673843931567 3.090088625379724 0.0
9.93613850661301 2.250382721159617 0.0
9.218291993658738 2.892108990205171 0.0
9.83502846611296 8.212781989607324 0.0
7.754136409732265 7.104288507262783 0.0
8.510570542791681 2.036933285735889 0.0
7.757745059307245 4.315798612475442 0.0
7.989231770559189 6.201656630465583 0.0
8.068934521422738 4.198631572122605 0.0
4.957478134450373 9.038766150325067 0.0
7.208661142641733 6.501402463831379 0.0
7.299506095906239 4.363561999234681 0.0
8.250303873550486 2.105322217421675 0.0
8.678637541413377 7.053471135702286 0.0
9.761528395137384 6.163503990672834 0.0
9.84494857233395 8.59999999999775 0.0
9.83825138794677 3.672838954969637 0.0
5.121008544047756 5.808127183024784 0.0
8.343911550360986 4.043535893276861 0.0
9.85324441775315 5.899999999993774 0.0
9.51114465213134 8.41035540646284 0.0
6.505812179224195 6.93390566262983 0.0
6.15572847138365 9.023097246950844 0.0
3.352081892333425 3.024853379890529 0.0
6.433163283162099 8.675072413910678 0.0
8.825744236698243 3.624446391299867 0.0
4.883007294861279 7.819620905924936 0.0
5.876659170760434 5.638247433601083 0.0
6.859400040348503 6.510797998354633 0.0
7.946400945409184 3.500317276373196 0.0
7.496830255505493 6.653194511698024 0.0
9.852183479755313 4.891525833556942 0.0
9.77998778436291 2.922486526124376 0.0
6.774672660492365 5.324728659740495 0.0
5.717254072187427 6.824125962512845 0.0
9.713440940838062 4.63793103997539 0.0
8.859858662536796 0.2721395536350836 0.0
8.37556017530946 9.436653414116012 0.0
7.395237381047616 7.885576562773319 0.0
5.4709157802033 4.511152089197594 0.0
9.489749416979361 9.691840729914848 0.0
4.599216022837964 3.46438688931078 0.0
5.572287492757569 4.807021644849729 0.0
9.926499336309957 9.92730688390086 0.0
9.926499336310107 0.07269311609890093 0.0
9.338127766332573 0.3585313952168247 0.0
6.810761948165162 3.414693294319008 0.0
8.166274345037138 5.943611545564389 0.0
5.2892644736731 6.301081312912763 0.0
9.731911074791544 7.649313380659622 0.0
8.90251102352767 9.50983415326544 0.0
8.997881406541017 1.033666784655452 0.0
5.835124768755703 2.738139962594905 0.0
9.665357480775825 6.185331297099201 0.0
7.656532192558493 8.217157287499347 0.0
9.170463887605525 2.975444721032631 0.0
4.208158615905443 0.8648302238584886 0.0
6.97015686031129 5.933674629077266 0.0
6.181941366523793 3.565885175921835 0.0
3.30313590337911 6.393402837735046 0.0
6.447482061767014 4.816169316820496 0.0
8.185341428749446 4.169172087371246 0.0
4.552595724340015 8.298301336212145 0.0
9.84850676569699 8.999999999998423 0.0
9.846941514449377 7.393642828194986 0.0
7.924592433490734 2.788309934035703 0.0
8.154308714226714 8.853640122009672 0.0
8.876629743004642 1.96110242719995 0.0
7.228849192966834 8.90811350348676 0.0
9.852301635085423 8.296637825215246 0.0
5.219795195341889 5.547413133147649 0.0
9.861497117995457 6.901363010201344 0.0
2.953911258021604 6.136007283255669 0.0
6.93158841067062 4.77708273647784 0.0
9.67540418457871 2.912802891506324 0.0
4.194055958522277 4.437353127730132 0.0
6.133959559341536 0.406856611599261 0.0
8.29952795189331 9.309744645643846 0.0
9.843692337952948 1.209647690818311 0.0
5.164986286280336 6.671544079402435 0.0
9.838533350075606 2.081705440779448 0.0
8.301244777513975 6.604088853319459 0.0
5.471494771710784 2.714598185146428 0.0
8.86534684892311 1.208599471795828 0.0
9.940610684232212 1.451558535868664 0.0
9.40896208432968 1.428353940655538 0.0
2.329177605337097 4.238803555614174 0.0
5.980761651517799 7.182207186682233 0.0
9.66541573964336 0.1719254072074424 0.0
7.220979380229172 7.806128737674462 0.0
1.251721227904697 6.151932667911503 0.0
8.104967286191181 6.057912607875576 0.0
6.650768762224724 4.817922869198292 0.0
6.634976350437587 3.213339182992986 0.0
7.034320437500567 4.898219100342838 0.0
9.502772020064167 6.283064492634301 0.0
8.13187938667684 3.518506862055515 0.0
9.855471943454193 2.599999999994991 0.0
9.056747742708522 8.263936599935574 0.0
4.352645795441222 5.724453640019 0.0
3.744263984699181 1.488951698361357 0.0
5.175860134287045 3.6375726667098 0.0
7.736434712114619 6.400417475661193 0.0
9.857658576695343 6.316607183405179 0.0
7.876525261950537 4.304285002335559 0.0
9.856114384785611 7.914602773442983 0.0
9.848334119947063 0.7059644476295188 0.0
9.59694321995579 6.895814046141667 0.0
5.906465212962551 3.869023950643881 0.0
9.840676994268005 9.364956386459765 0.0
5.355015287544095 3.83518170601625 0.0
6.374090407153147 5.855743754257685 0.0
8.227401290513832 5.297819733684674 0.0
5.451235131977493 4.825706629991923 0.0
6.022070213762754 5.355923882747634 0.0
9.845674433677614 6.108401449483281 0.0
9.835067400944396 7.739582406783081 0.0
8.602026805792988 2.941372356914139 0.0
5.059869081004962 5.269480960018243 0.0
5.284714507903736 5.26496663762182 0.0
9.627110479149561 7.660076105040499 0.0
6.820001127809743 4.792514421153957 0.0
5.120512795059439 4.806607659110254 0.0
9.56933817216883 2.911464407429096 0.0
9.74091654291531 9.267545397628387 0.0
9.93006767325302 6.576784040838644 0.0
9.642486276936268 4.650227701598451 0.0
5.185183328569137 9.410919109238325 0.0
9.37052946854105 4.605636695802024 0.0
1.677077220416309 5.871167715901136 0.0
7.345783833404538 3.184020711886284 0.0
5.419239942654976 5.982692039856376 0.0
6.133318300188262 2.551919945731369 0.0
6.187291396343277 4.499077117404439 0.0
1.231465237822878 3.921479198315213 0.0
8.969849937139944 9.699215363213542 0.0
9.218303154263054 6.037447959776716 0.0
CELLS 4886 19544
3 1113 1356 1450
3 1402 231 1659
3 272 269 1414
3 396 394 1777
3 1451 945 1452
3 194 81 1801
3 1847 1501 2104
3 2024 2121 2479
3 1115 1113 1450
3 1124 1413 1844
3 1061 1955 2409
3 307 305 1645
3 1592 1369 1593
3 238 1501 1847
3 1955 1883 2409
3 1808 243 1910
3 1885 978 2362
3 1440 793 2092
3 189 1488 1608
3 353 350 1864
3 2007 2231 2232
3 307 1645 2493
3 1096 1760 2496
3 2178 874 2179
3 621 625 1595
3 1493 1480 1938
3 1655 1268 2137
3 1341 1410 2212
3 243 1808 2360
3 1902 1446 2516
3 1760 1096 1763
3 856 790 2180
3 2008 2046 2105
3 789 1809 2067
3 694 1543 1575
3 1127 1762 1953
3 1748 807 2228
3 1543 1308 1575
3 820 1872 2170
3 1417 954 1998
3 1369 1592 2386
3 272 1414 1787
3 329 333 1998
3 1544 1095 1545
3 2231 1490 2232
3 1342 1683 1790
3 374 377 1797
3 807 1678 2228
3 1665 198 2128
3 141 142 1620
3 325 322 1952
3 231 1402 1654
3 198 1665 2010
3 1890 1307 2387
3 208 1438 1619
3 2016 1970 2156
3 1436 212 2020
3 954 1417 2333
3 1736 1894 2244
3 1491 1750 2143
3 1677 1064 2146
3 1474 1258 1475
3 1500 233 1930
3 1446 2415 2516
3 1700 973 1800
3 2128 2270 2316
3 1316 1315 1593
3 1307 2341 2387
3 2258 1324 2328
3 1083 1507 1508
3 693 1095 1544
3 621 1595 1596
3 667 1571 1872
3 1932 1766 2061
3 393 391 2240
3 1342 1790 2400
3 252 1707 2234
3 931 978 1885
3 1430 1116 1704
3 1411 1109 1714
3 1478 1227 2440
3 1990 195 2297
3 1792 1167 1985
3 1682 444 1975
3 394 397 1777
3 1711 2028 2162
3 1574 856 2180
3 2008 1851 2046
3 736 1493 1938
3 1069 1060 1662
3 1458 455 1754
3 862 691 1705
3 1161 1642 2286
3 1699 1700 1800
3 447 516 1637
3 955 1482 1483
3 2024 206 2121
3 391 1773 2240
3 1072 1412 1893
3 212 1436 2350
3 1566 1365 1568
3 259 1441 1672
3 872 870 1764
3 330 328 1889
3 1539 1161 2286
3 1897 1898 2275
3 1434 1990 2297
3 1109 1411 1730
3 319 307 2493
3 1762 1761 1953
3 1369 1316 1593
3 1540 834 1832
3 1505 652 2442
3 1732 1655 2137
3 921 1712 2295
3 1872 1388 2170
3 1712 921 2125
3 2028 244 2162
3 1506 1570 1680
3 1569 368 1964
3 1571 667 2375
3 1587 2178 2179
3 196 1723 1737
3 524 2016 2156
3 1528 1250 1733
3 1115 1450 1973
3 1938 1480 1971
3 1809 1396 2067
3 1641 249 2299
3 1223 1258 1474
3 1365 1566 2120
3 1981 962 2316
3 1538 353 1864
3 455 1458 1756
3 152 233 1500
3 1116 1430 1703
3 817 652 1505
3 1347 2003 2004
3 1607 1958 2085
3 194 1801 2195
3 1410 1341 2351
3 223 1415 1710
3 197 1511 2346
3 2198 787 2225
3 81 82 1801
3 1438 208 1620
3 1444 522 1823
3 1511 197 1950
3 726 718 1567
3 1637 516 1739
3 1708 2337 2341
3 1280 1649 2124
3 2337 1395 2341
3 1327 1709 2315
3 1225 1227 1478
3 691 624 1705
3 476 2224 2305
3 830 832 2204
3 1750 1491 2403
3 1366 1897 2275
3 2345 1583 2352
3 2054 405 2110
3 1984 2172 2230
3 1846 2198 2225
3 1177 2042 2418
3 2121 1367 2479
3 1527 1531 1541
3 916 1039 1834
3 1413 1124 2467
3 1622 1503 1868
3 249 1641 2019
3 1805 405 2054
3 1761 1007 1953
3 1415 223 2395
3 960 1756 2203
3 368 1569 2135
3 1402 1659 2473
3 941 1433 2471
3 1267 1477 1501
3 260 2002 2265
3 1704 558 2077
3 2224 1886 2305
3 2053 1386 2199
3 1452 945 1952
3 1717 1611 1718
3 1682 1975 2230
3 1760 1762 2496
3 1481 203 2104
3 1264 1266 1670
3 142 236 1620
3 2133 1182 2179
3 1791 1602 2183
3 350 346 1864
3 1412 1072 2393
3 1281 1575 2255
3 1565 1948 2155
3 849 1449 1513
3 1958 396 2085
3 1339 1069 1662
3 834 1540 1917
3 269 267 1414
3 1268 1267 1501
3 1440 2092 2468
3 1399 1981 2316
3 1635 1636 2041
3 1454 252 2234
3 1451 1305 1890
3 1375 1883 1955
3 362 366 1786
3 1484 2410 2528
3 1449 849 1640
3 1267 1474 1477
3 200 1611 1717
3 1054 1581 1582
3 1350 1977 2253
3 190 1390 2118
3 788 1956 2193
3 1709 1327 1888
3 2233 2298 2413
3 1488 189 2355
3 478 1685 1714
3 230 1525 1690
3 1687 478 1688
3 427 429 1756
3 1570 1065 2476
3 1880 1133 1988
3 1649 656 2124
3 1537 209 1614
3 1134 1769 1986
3 1220 1268 1655
3 396 1777 2085
3 1167 1755 1985
3 2229 1744 2296
3 1575 1281 2287
3 127 240 1882
3 377 647 1797
3 954 329 1998
3 220 1697 1698
3 1342 1341 2212
3 1441 264 1672
3 1512 188 2433
3 763 2345 2352
3 1685 1411 1714
3 1805 1188 1951
3 1347 2004 2157
3 1054 1582 1667
3 1333 1617 1674
3 2217 73 2361
3 1539 1036 1917
3 1039 1292 1834
3 208 141 1620
3 1965 1964 2038
3 693 1544 1969
3 1453 239 2279
3 203 1481 2049
3 945 1451 1889
3 680 1459 2134
3 354 2147 2196
3 1405 1932 2061
3 1723 1722 1737
3 1748 1175 1927
3 1532 1528 1733
3 2057 1824 2154
3 1406 1659 1702
3 1948 1186 2155
3 210 1598 2114
3 1685 478 1687
3 1324 1325 2328
3 1526 1250 1527
3 165 166 1509
3 1493 736 2523
3 1526 1527 1541
3 1390 190 2417
3 522 1444 1998
3 1680 1570 1732
3 1017 1442 2525
3 374 1797 2430
3 1507 1083 2197
3 1756 960 2221
3 2270 1400 2316
3 2205 1452 2282
3 1074 1187 1888
3 2158 1245 2200
3 1442 1017 1684
3 864 1116 1703
3 1750 1751 2143
3 1456 516 1492
3 1677 2146 2149
3 2022 1339 2388
3 1602 258 2183
3 678 1594 1595
3 1245 1670 2200
3 972 830 2204
3 2143 983 2342
3 1268 1501 2226
3 1266 1461 1670
3 1487 222 2465
3 1382 2022 2388
3 58 59 1661
3 2147 1543 2196
3 1484 1485 2410
3 628 2053 2199
3 1906 1549 2259
3 364 362 1786
3 1339 2022 2247
3 1636 525 2041
3 625 678 1595
3 678 1593 1594
3 2212 1410 2222
3 1837 1865 2215
3 1699 1800 1801
3 866 864 1703
3 893 1472 1982
3 1735 1736 2244
3 1633 1255 1922
3 126 127 1882
3 681 867 1656
3 1351 1401 2363
3 11 228 1588
3 1127 1953 2454
3 265 266 267
3 1722 1122 1737
3 1389 1691 2069
3 1613 1610 1616
3 1227 1256 2440
3 429 455 1756
3 1535 1177 2418
3 322 324 1952
3 973 1700 1802
3 1964 368 2038
3 1176 1865 1866
3 1096 872 1764
3 1176 1866 1875
3 193 1839 1892
3 156 157 1441
3 615 617 1596
3 686 1520 2480
3 1409 2097 2305
3 2410 1151 2528
3 1427 2217 2361
3 440 1911 2314
3 1744 1743 2296
3 516 1456 1739
3 1939 589 2164
3 690 931 2150
3 1062 1579 1580
3 1054 1580 1581
3 955 1483 1716
3 1064 1677 2248
3 1956 1616 2193
3 1776 1893 2026
3 1398 1115 1973
3 2002 1453 2265
3 1541 1531 1542
3 216 2191 2536
3 1736 1326 1894
3 1065 994 1066
3 1598 2115 2175
3 2314 1911 2358
3 1433 941 2042
3 2115 1209 2175
3 717 1550 1551
3 188 1941 2433
3 267 1132 1414
3 771 1569 2064
3 1157 1545 1546
3 1231 1250 1526
3 1933 240 2181
3 222 1487 2025
3 1525 230 1765
3 1430 1704 2077
3 757 1744 2495
3 264 263 265
3 883 773 1917
3 739 2205 2282
3 1667 1582 2434
3 1744 757 2474
3 239 1453 2002
3 1441 259 2356
3 2005 1443 2012
3 254 1766 1932
3 1509 166 1679
3 1477 1475 1481
3 793 1440 2165
3 1385 1523 2377
3 1481 1475 2523
3 156 1441 2356
3 1066 1220 1655
3 945 325 1952
3 2094 2087 2134
3 1747 1175 1748
3 253 262 263
3 1327 1074 1888
3 718 715 1567
3 2046 1043 2105
3 240 1933 2399
3 1305 1307 1890
3 224 58 1661
3 1195 1566 2285
3 1590 1393 1749
3 1255 1230 1922
3 353 1538 2073
3 358 1999 2325
3 882 1802 2036
3 1024 1020 1604
3 333 522 1998
3 1401 1351 2414
3 1475 1258 1476
3 2310 786 2364
3 328 945 1889
3 807 1748 1927
3 825 724 1912
3 1742 263 2491
3 267 266 1132
3 2077 2102 2203
3 1431 1432 1860
3 1212 1957 2312
3 2097 476 2305
3 1132 1402 2473
3 717 713 1550
3 1746 693 1969
3 1372 1124 1844
3 1256 1541 2269
3 1977 1350 2274
3 2332 1978 2443
3 874 2133 2179
3 1983 1534 2171
3 1157 1544 1545
3 1230 1228 1922
3 1580 1579 1581
3 1565 806 1948
3 1416 1363 2413
3 1287 1995 2398
3 265 263 266
3 1534 1529 2171
3 1604 1834 2428
3 1255 1633 2509
3 1344 1643 1644
3 1332 1388 1571
3 1423 217 2217
3 2191 1057 2451
3 458 447 1637
3 1250 1233 1733
3 472 2212 2222
3 1175 1747 1840
3 1652 256 1653
3 1073 1347 1572
3 200 145 1609
3 683 640 1585
3 1116 862 1705
3 1221 1223 1474
3 1778 801 1803
3 1503 1622 2471
3 1475 1493 2523
3 464 680 2134
3 14 210 2114
3 579 1880 1988
3 1434 1435 1990
3 1447 2310 2364
3 275 274 276
3 2294 1871 2419
3 814 1068 1684
3 1172 1439 2273
3 273 272 274
3 1363 1416 2406
3 1220 1219 1221
3 1060 1656 1662
3 1099 1792 1985
3 2048 1198 2168
3 1241 1245 2323
3 699 723 1753
3 1640 1862 2070
3 910 1018 1584
3 1586 1067 1587
3 1656 867 1662
3 1067 686 2480
3 654 2242 2294
3 1593 1315 1594
3 1880 553 1974
3 236 1717 1718
3 617 621 1596
3 1723 196 2313
3 402 1877 2116
3 273 274 275
3 2202 1869 2252
3 1510 1358 1767
3 193 1892 2373
3 1188 1805 2054
3 1220 1221 1267
3 1066 1218 1219
3 1517 1097 1518
3 1677 1676 1858
3 686 277 1520
3 268 267 269
3 697 857 1592
3 220 1698 1699
3 1802 1700 2036
3 1612 1537 1614
3 929 817 994
3 228 12 2136
3 2110 2116 2482
3 1659 1658 1702
3 1611 1613 2280
3 1344 991 1643
3 683 1585 1604
3 1638 1358 2404
3 1485 1034 2410
3 2214 833 2424
3 271 272 273
3 1482 955 1962
3 1066 1219 1220
3 931 1885 2150
3 1613 1891 2280
3 1189 1589 2204
3 1566 1195 2120
3 726 1567 2490
3 1122 1722 1874
3 1494 319 2493
3 1671 259 1672
3 1267 1221 1474
3 603 528 1591
3 1664 2128 2316
3 1817 1924 2174
3 1626 1660 2111
3 1474 1475 1477
3 1023 1062 1580
3 1957 1599 2312
3 1764 1939 2164
3 1358 1950 2404
3 200 1609 1610
3 1431 1082 1432
3 1778 1803 2521
3 1830 1832 2075
3 1930 233 2369
3 1329 1482 1650
3 757 1959 2522
3 1239 1247 1597
3 758 1978 2332
3 1569 1290 2064
3 216 1694 2191
3 1453 1420 2265
3 1549 1906 2129
3 24 215 1674
3 19 235 1676
3 1621 1057 2191
3 1691 1389 2262
3 1617 1333 2192
3 929 994 1065
3 1769 1672 1986
3 1893 1412 2026
3 1609 1537 1612
3 271 269 272
3 1373 1438 1620
3 217 1423 2381
3 517 330 1889
3 1322 1055 1667
3 1974 553 2499
3 228 2136 2187
3 1589 1189 1788
3 1999 1577 2325
3 2110 405 2116
3 189 1608 1842
3 1055 1050 1667
3 739 1455 2205
3 1865 1176 2215
3 319 1494 2522
3 2474 757 2522
3 1484 227 1485
3 10 11 1588
3 723 809 1753
3 27 230 1689
3 1550 806 1565
3 1179 1180 1217
3 207 1617 2192
3 1433 1217 1502
3 1562 1556 1606
3 1379 2017 2018
3 1245 2158 2323
3 675 1097 1517
3 884 501 1599
3 1020 683 1604
3 1603 1095 1848
3 1001 2057 2154
3 1604 1585 1834
3 1610 1612 1616
3 1764 870 1939
3 2242 1871 2294
3 1669 1264 1670
3 1658 213 1702
3 1995 1646 2398
3 631 539 1600
3 1491 2143 2342
3 1801 1800 2195
3 1200 1199 1693
3 1535 940 1861
3 1534 758 2332
3 914 2258 2328
3 1588 228 2457
3 216 138 1694
3 151 152 1500
3 1133 1880 1974
3 1677 1858 2248
3 1294 1622 1868
3 875 1010 1767
3 1379 2018 2416
3 1279 2202 2252
3 182 256 1652
3 1592 857 2386
3 672 681 1656
3 615 1596 1824
3 1093 1487 1623
3 1823 522 2100
3 1245 1242 1669
3 1582 1581 1583
3 758 1534 2306
3 1975 1984 2230
3 1358 1510 1950
3 1663 1336 1665
3 2102 960 2203
3 366 1087 1786
3 1740 1490 2231
3 21 207 1709
3 145 146 1609
3 2339 765 2384
3 603 1591 1668
3 2081 199 2149
3 1540 1832 1879
3 1721 1723 1947
3 1754 455 1793
3 1751 1753 2119
3 882 1701 1807
3 1540 1539 1917
3 242 1695 1697
3 1521 354 2091
3 1363 2233 2413
3 1584 1018 1925
3 703 1067 1586
3 1177 1178 1179
3 795 916 1834
3 277 276 607
3 1571 1388 1872
3 22 23 1617
3 1097 823 1177
3 25 26 1624
3 419 418 1790
3 1728 1906 2259
3 440 1455 2261
3 1877 1318 2116
3 1488 1156 1608
3 1439 2130 2273
3 1889 1451 1890
3 1614 209 2389
3 1472 893 2094
3 675 821 823
3 23 24 1674
3 1788 1190 2183
3 917 941 1622
3 1763 1096 1764
3 1068 1442 1684
3 1034 1485 2173
3 2172 1533 2230
3 138 139 1694
3 1065 1570 2197
3 607 674 675
3 1536 1248 2268
3 229 135 1734
3 1437 1925 1926
3 680 510 1646
3 147 209 1537
3 26 27 1689
3 1627 705 2163
3 206 1651 2121
3 2409 1785 2462
3 1492 682 2447
3 1223 1225 1258
3 889 1772 2374
3 253 263 264
3 275 276 277
3 1455 739 2261
3 2022 1382 2176
3 150 227 1484
3 639 1019 1591
3 1449 1640 2070
3 1082 833 2214
3 1503 1502 1504
3 144 200 1717
3 1643 991 1713
3 1190 1791 2183
3 1538 1804 2073
3 1256 2269 2440
3 18 19 1676
3 521 531 2000
3 790 849 2180
3 1075 1329 1650
3 1087 1782 1785
3 1066 994 1218
3 270 269 271
3 682 1492 2494
3 185 252 1454
3 253 158 262
3 1629 1632 1633
3 200 1610 1611
3 1477 1481 2104
3 1623 1487 2465
3 1518 1097 1535
3 1414 1132 2460
3 1179 1217 1433
3 177 1506 1680
3 1392 1017 2525
3 1832 834 2075
3 675 823 1097
3 1459 2094 2134
3 1782 1087 1795
3 1838 1730 2372
3 1639 149 2528
3 1617 23 1674
3 2265 1420 2489
3 180 232 1859
3 1527 1250 1528
3 20 21 1709
3 1083 1508 2311
3 903 866 1703
3 1455 440 2314
3 1187 1858 1888
3 1659 1406 2473
3 1446 1902 2166
3 421 1951 2106
3 1598 210 2115
3 154 259 1671
3 1288 1835 2080
3 1832 1831 1879
3 1258 1225 1478
3 1024 1604 2117
3 1263 1429 1739
3 706 705 1627
3 1583 1581 2352
3 407 1805 1951
3 856 1574 2527
3 1701 882 2036
3 1624 26 1689
3 717 1551 1552
3 1385 2377 2391
3 2302 1745 2354
3 1572 1347 2157
3 1036 883 1917
3 1689 1690 1691
3 1664 1665 2128
3 1476 1479 1480
3 1751 2119 2143
3 815 814 1684
3 1790 889 2400
3 1606 1607 2085
3 265 267 268
3 418 889 1790
3 1522 1521 2091
3 135 136 1734
3 1726 1445 1729
3 647 1796 1797
3 1346 1453 2279
3 1293 1827 2117
3 1242 1244 1669
3 1853 1852 1854
3 889 2374 2400
3 1039 1038 1290
3 1524 628 2199
3 1331 1332 1571
3 1291 1290 1569
3 1475 1476 1493
3 1850 1852 1853
3 1490 1740 2456
3 1689 230 1690
3 1256 1526 1541
3 1704 1705 2167
3 1465 1470 1675
3 956 1073 1572
3 1613 1616 1956
3 916 917 1038
3 2014 1522 2091
3 1221 1222 1223
3 1999 763 2352
3 234 10 1588
3 1697 220 2335
3 1527 1528 1529
3 2298 1600 2413
3 1436 2020 2254
3 1642 1161 1678
3 1523 1385 2436
3 1730 1838 2426
3 795 796 916
3 713 711 1550
3 1456 1263 1739
3 999 1336 1663
3 1785 1784 2462
3 409 415 1783
3 607 675 1517
3 1229 1231 1526
3 1958 1855 2078
3 1589 1588 1590
3 1933 261 2380
3 762 1965 2038
3 1756 1458 2203
3 1776 597 1893
3 1794 1072 1893
3 188 1512 2266
3 1774 2339 2384
3 188 1908 1941
3 1010 1510 1767
3 2189 2285 2307
3 773 834 1917
3 1245 1669 1670
3 1248 1597 2268
3 146 1537 1609
3 818 910 1584
3 1641 1313 1651
3 1217 1745 2302
3 1065 1066 1655
3 1597 1247 2047
3 1360 2177 2376
3 1612 1615 1616
3 2126 867 2186
3 1019 683 1020
3 1747 892 1840
3 1092 1093 1623
3 261 1933 2181
3 400 424 1666
3 1516 1903 2377
3 1100 1392 1605
3 247 1738 1881
3 268 1134 1986
3 1177 823 1178
3 884 1599 1957
3 263 262 2491
3 806 1627 1948
3 1227 1229 1256
3 191 1729 2504
3 1636 1635 2502
3 1480 1479 1601
3 1721 1947 2498
3 1924 1146 2174
3 229 1734 1735
3 175 204 1725
3 1179 1178 1180
3 354 1521 2147
3 665 697 1592
3 640 646 1585
3 627 545 1636
3 1882 240 2399
3 1556 1555 1606
3 1373 1620 2394
3 1871 1071 2419
3 548 1628 1629
3 455 436 1793
3 974 1831 1841
3 1844 1413 2392
3 1612 1614 1615
3 209 1639 1937
3 1329 1330 1331
3 1823 2100 2142
3 1097 1177 1535
3 1021 1020 1022
3 825 1912 2455
3 913 1122 1874
3 400 1666 2113
3 1256 1229 1526
3 1419 1418 2450
3 1552 1551 1553
3 1850 1099 1852
3 1629 1631 1632
3 801 685 2029
3 1618 1619 1621
3 265 268 1986
3 1715 2165 2330
3 1531 1529 1534
3 1022 1024 1576
3 658 693 1746
3 703 686 1067
3 1062 1576 1577
3 1023 1022 1062
3 236 1718 2394
3 1688 502 1740
3 1501 1477 2104
3 213 165 1509
3 646 795 1585
3 196 1737 1738
3 379 679 1795
3 639 640 683
3 924 875 1767
3 1752 699 1753
3 207 2192 2315
3 627 1636 1660
3 1217 1180 1745
3 730 728 1833
3 528 561 1591
3 1444 1417 1998
3 252 186 1602
3 1729 1445 2504
3 460 502 1688
3 1418 946 1778
3 1203 1200 1693
3 548 470 1628
3 849 668 1640
3 646 785 795
3 607 276 674
3 14 15 210
3 147 148 209
3 478 460 1688
3 1709 207 2315
3 1157 1546 1608
3 1155 1731 1899
3 1524 1934 2390
3 1775 921 1876
3 1433 1502 1503
3 470 458 1628
3 1223 1224 1225
3 1291 1569 1964
3 871 1056 1826
3 1781 1783 1915
3 1587 1067 2300
3 916 1038 1039
3 1388 1387 1389
3 1611 1610 1613
3 1075 1328 1329
3 1039 1290 1291
3 1538 1265 1804
3 1184 1185 2163
3 597 598 1794
3 1450 1356 2421
3 1835 576 2080
3 1629 1628 1631
3 1331 1330 1332
3 561 639 1591
3 1476 1480 1493
3 705 703 1586
3 639 683 1019
3 1951 1188 2106
3 436 446 1793
3 1472 1297 2142
3 1332 1387 1388
3 1345 984 1720
3 1329 1328 1330
3 1050 1048 1667
3 150 151 227
3 11 12 228
3 557 541 2256
3 1831 974 1879
3 134 229 1766
3 1357 1358 1638
3 1336 1641 2299
3 1650 1482 1962
3 1591 1019 2512
3 1506 1507 1570
3 1803 801 2029
3 1178 823 1972
3 1552 1553 1554
3 1290 1038 1294
3 1028 1313 1641
3 1237 1239 1597
3 993 1017 1100
3 893 2087 2094
3 149 1484 2528
3 1768 1142 1949
3 9 234 1673
3 1554 1553 1555
3 668 632 1640
3 711 806 1550
3 1628 458 1637
3 1098 1829 1830
3 1482 1331 1483
3 531 1818 2000
3 435 419 1790
3 1156 1157 1608
3 1182 1184 2179
3 510 512 1646
3 1231 1233 1250
3 946 841 1778
3 1483 1331 1571
3 1459 680 2458
3 1166 1040 1210
3 892 1657 1820
3 1042 1445 1726
3 1019 1020 1021
3 749 805 1810
3 234 1588 1589
3 1695 242 1892
3 556 1853 2483
3 1018 1572 1573
3 1529 1528 1530
3 1606 1558 1607
3 1761 1759 2308
3 1396 1032 1921
3 1018 956 1572
3 689 1150 1416
3 1827 1293 2515
3 149 150 1484
3 1647 656 1648
3 1543 694 2196
3 399 409 1783
3 545 525 1636
3 268 269 270
3 715 713 717
3 1100 1017 1392
3 1657 892 1747
3 207 22 1617
3 1666 884 2249
3 1671 1672 1769
3 1554 1555 1556
3 146 147 1537
3 1081 1444 1822
3 711 709 806
3 1443 2005 2322
3 660 658 1746
3 1166 1458 1754
3 916 796 917
3 1056 1728 1826
3 1068 1069 1275
3 184 185 1454
3 158 159 262
3 2007 1687 2231
3 805 1708 1810
3 1672 264 1986
3 1561 1562 1563
3 978 1075 1650
3 1590 1588 2457
3 215 25 1624
3 1551 1550 1565
3 1073 1346 1347
3 857 818 1584
3 1648 656 1649
3 675 674 821
3 561 594 639
3 1731 529 1899
3 2303 1454 2535
3 981 903 1040
3 1630 1629 1633
3 993 877 1017
3 724 718 726
3 512 603 1646
3 1676 235 1858
3 814 1060 1068
3 715 717 1567
3 1796 647 1870
3 1715 1171 2165
3 678 1592 1593
3 644 613 1824
3 1690 1525 2145
3 1297 1822 1823
3 271 656 1647
3 1704 1116 1705
3 1225 1226 1227
3 1275 1069 1338
3 910 956 1018
3 1824 1596 2154
3 1403 1100 1605
3 1221 1219 1222
3 1068 1060 1069
3 1901 245 1949
3 1081 1055 1321
3 1751 563 1752
3 1021 1022 1023
3 672 638 681
3 1095 657 1848
3 1235 1237 1248
3 1561 1556 1562
3 1265 1259 1804
3 524 1819 2016
3 978 1650 2362
3 1492 516 2494
3 229 1735 2061
3 185 186 252
3 157 158 253
3 152 153 233
3 9 10 234
3 1527 1529 1531
3 1808 1344 2360
3 1062 1577 1579
3 1509 1679 1977
3 424 454 1666
3 637 638 672
3 981 1040 1166
3 1555 1558 1606
3 751 749 1810
3 1166 1210 1458
3 1651 1313 2121
3 15 16 2260
3 1633 1632 2509
3 2167 1705 2276
3 551 602 2045
3 697 818 857
3 364 1786 1883
3 832 1189 2204
3 1476 1478 1479
3 678 665 1592
3 213 1509 2096
3 1015 888 1124
3 1062 1022 1576
3 679 1782 1795
3 680 1646 1995
3 1101 1100 1403
3 1109 433 1714
3 1248 1237 1597
3 733 730 1833
3 1702 213 2096
3 499 498 1828
3 1418 1778 2521
3 637 600 638
3 1048 1046 1054
3 1577 1576 1578
3 814 766 1060
3 1279 2252 2292
3 474 470 548
3 199 18 1676
3 157 253 1441
3 1048 1054 1667
3 471 472 2290
3 625 665 678
3 795 785 796
3 1264 1265 1266
3 1437 1926 2350
3 1362 2048 2168
3 1394 2337 2371
3 454 884 1666
3 1022 1020 1024
3 751 1810 1923
3 1046 1023 1580
3 1807 1701 1931
3 1618 208 1619
3 566 588 689
3 1828 498 1829
3 501 509 1599
3 1118 780 1775
3 878 817 929
3 1510 1511 1950
3 1618 1621 1694
3 1052 1081 1822
3 1416 1150 1715
3 1239 1241 1247
3 1396 1921 2067
3 1751 1752 1753
3 1264 1259 1265
3 539 566 1600
3 1762 1127 2496
3 1673 1788 2183
3 1555 1557 1558
3 1052 1050 1055
3 725 724 825
3 1142 1770 1771
3 681 853 867
3 454 501 884
3 1346 1420 1453
3 932 1147 1770
3 1546 1545 1547
3 533 582 1818
3 1266 1337 1460
3 1872 820 2318
3 1117 1119 1713
3 1081 1321 1417
3 1253 1259 1264
3 1569 771 2135
3 1052 1055 1081
3 1181 1178 1972
3 709 706 1627
3 1073 1076 1346
3 1098 1828 1829
3 1382 1380 2176
3 1442 1275 1443
3 919 999 1663
3 1789 828 1855
3 877 815 1684
3 509 539 631
3 992 877 993
3 1266 1265 1337
3 2268 1498 2340
3 1130 1032 1396
3 1095 1603 2508
3 886 826 887
3 531 533 1818
3 1131 1400 1881
3 447 437 516
3 2460 1132 2473
3 940 1535 2418
3 768 1873 2037
3 1813 1869 1954
3 1627 2163 2488
3 1497 1495 1645
3 1198 1409 2168
3 724 726 1912
3 1869 987 1954
3 763 1999 2338
3 1010 1170 1374
3 984 976 1720
3 1470 1743 1744
3 689 588 1150
3 1901 1949 2359
3 1640 632 1862
3 274 272 1787
3 563 564 1752
3 994 817 1505
3 737 1807 1931
3 1770 1147 1771
3 1233 1235 1733
3 2450 1418 2521
3 414 410 1821
3 908 1099 1850
3 1227 1228 1229
3 1692 1203 1693
3 1625 216 2194
3 512 528 603
3 1377 1357 1638
3 1465 1464 1470
3 1360 1359 2177
3 1686 2007 2095
3 1336 1028 1641
3 1857 751 1923
3 1758 572 1759
3 553 541 557
3 1171 1715 1811
3 956 1003 1073
3 1467 1465 1675
3 719 718 724
3 1509 1977 2096
3 1734 1625 1736
3 1503 1504 1868
3 592 597 1776
3 180 181 232
3 162 163 231
3 2308 1759 2370
3 1357 1114 1358
3 875 946 1010
3 509 631 1599
3 17 18 199
3 144 145 200
3 1099 906 1792
3 1469 1467 1494
3 605 589 1939
3 1208 1205 1211
3 354 344 2091
3 692 782 804
3 1010 946 1170
3 1463 1462 1464
3 716 715 718
3 714 713 715
3 271 273 656
3 139 1618 1694
3 549 277 686
3 673 672 766
3 1378 1377 1379
3 2007 868 2095
3 999 1028 1336
3 1208 1211 1447
3 601 545 627
3 1119 1643 1713
3 1332 1333 1387
3 910 912 956
3 520 521 2000
3 828 1789 1819
3 277 607 1520
3 1338 1339 2247
3 818 819 910
3 767 766 814
3 712 711 713
3 1494 1467 1675
3 639 594 640
3 2044 557 2256
3 235 20 1709
3 1620 236 2394
3 804 919 962
3 1862 702 2070
3 681 852 853
3 1559 1556 1561
3 1622 941 2471
3 2165 1440 2330
3 612 644 692
3 697 698 818
3 1903 1516 1994
3 371 379 1795
3 428 426 2138
3 1290 1294 2064
3 1384 1904 2432
3 566 689 1600
3 471 452 472
3 1092 1091 1093
3 1002 1131 1719
3 1090 1089 1091
3 875 841 946
3 1758 1760 1763
3 1562 1606 2085
3 1833 1830 2075
3 178 179 214
3 164 165 213
3 769 923 1815
3 692 644 782
3 804 782 919
3 182 183 256
3 160 161 257
3 1329 1331 1482
3 962 1663 1664
3 1177 1179 2042
3 403 405 1805
3 1461 1460 1462
3 140 208 1618
3 1859 232 1860
3 274 1787 2099
3 1381 2126 2186
3 1558 1560 1789
3 430 428 682
3 452 435 1683
3 1487 1156 1488
3 1470 1464 1743
3 597 1794 1893
3 1244 1253 1669
3 962 919 1663
3 258 8 1673
3 1087 1785 1786
3 970 1042 1726
3 199 1677 2149
3 1664 1663 1665
3 1229 1230 1231
3 991 827 1713
3 792 1603 1848
3 1822 1444 1823
3 665 666 697
3 19 20 235
3 142 143 236
3 728 1098 1833
3 532 530 1898
3 1015 1124 1372
3 1546 1547 1548
3 1851 1850 1853
3 1877 393 2240
3 923 1105 1815
3 1090 1091 1092
3 687 686 703
3 1683 435 1790
3 887 826 1961
3 684 663 1089
3 426 1934 2138
3 464 510 680
3 853 854 855
3 568 572 1758
3 1376 1357 1377
3 1205 1203 1692
3 1607 1789 1855
3 710 709 711
3 780 781 1775
3 1434 1103 1435
3 876 815 877
3 766 672 1656
3 1393 1590 2457
3 684 1089 1090
3 530 890 1898
3 926 1920 1943
3 696 414 1821
3 1563 1562 1777
3 1054 1046 1580
3 1398 1973 1974
3 137 216 1625
3 1210 1040 1430
3 1750 563 1751
3 2010 1665 2299
3 1510 1374 1511
3 1777 1562 2085
3 1707 252 1791
3 1932 1404 1933
3 459 438 1814
3 139 140 1618
3 1093 1156 1487
3 231 163 1658
3 699 722 723
3 1545 1095 2508
3 598 612 1794
3 579 554 1880
3 1941 1908 2401
3 1231 1232 1233
3 1831 1829 1841
3 1037 1383 1799
3 177 178 1506
3 636 600 637
3 1036 1539 2286
3 1356 1114 1357
3 1523 1516 2377
3 704 703 705
3 403 402 405
3 648 792 1848
3 723 756 808
3 1388 1389 2170
3 933 932 1770
3 223 1710 1711
3 1779 399 1783
3 1223 1222 1224
3 1028 1029 1313
3 257 161 1654
3 418 412 421
3 734 882 1807
3 693 657 1095
3 1368 1370 1436
3 136 137 1625
3 688 652 817
3 1075 1327 1328
3 540 479 1813
3 398 395 402
3 548 1629 1630
3 574 591 699
3 1469 1494 1495
3 1041 1598 2175
3 167 168 202
3 175 176 204
3 2045 2046 2201
3 186 187 1602
3 886 887 888
3 1253 1254 1259
3 8 9 1673
3 792 655 810
3 843 1145 1960
3 1180 1349 1745
3 1165 1345 1512
3 708 706 709
3 136 1625 1734
3 21 22 207
3 140 141 208
3 625 626 665
3 1093 1094 1156
3 1585 795 1834
3 1117 1713 1806
3 599 579 600
3 810 871 1826
3 1047 1046 1048
3 1292 1291 1293
3 161 162 1654
3 199 1676 1677
3 1260 1282 1804
3 1005 1142 1768
3 1233 1234 1235
3 792 810 922
3 1122 1719 1737
3 976 985 1720
3 1278 1279 2292
3 2390 1934 2531
3 1436 1437 2350
3 270 271 1647
3 1199 966 1846
3 1683 1342 2212
3 656 273 2124
3 699 591 722
3 1977 1139 2096
3 1738 1719 1881
3 1722 985 1874
3 1797 1448 1798
3 162 231 1654
3 632 604 1862
3 252 1602 1791
3 1051 1050 1052
3 1045 1023 1046
3 648 655 792
3 993 1100 1101
3 1321 1055 1322
3 806 709 1627
3 904 903 981
3 1220 1267 1268
3 648 605 655
3 1737 1719 1738
3 385 399 1779
3 506 499 1828
3 1132 266 1402
3 1170 1418 1419
3 1323 2302 2354
3 24 25 215
3 137 138 216
3 721 965 1919
3 1787 1414 2460
3 778 1117 1806
3 723 722 756
3 407 403 1805
3 564 574 1752
3 1049 1048 1050
3 842 841 875
3 1608 1546 1842
3 809 808 899
3 1517 1519 1520
3 1530 1532 1533
3 889 421 1772
3 913 1002 1122
3 1314 1316 1367
3 1017 877 1684
3 841 802 1778
3 1235 1236 1237
3 751 1857 1900
3 1114 924 1767
3 1344 1644 2360
3 1895 1394 2371
3 1518 1535 1861
3 1758 1759 1760
3 1122 1002 1719
3 546 563 1750
3 1056 1726 1727
3 663 660 1746
3 621 622 625
3 1720 985 1721
3 1857 1843 1900
3 808 756 913
3 1056 970 1726
3 27 28 230
3 134 135 229
3 908 906 1099
3 163 164 1658
3 1727 1726 1729
3 7 8 258
3 154 155 259
3 1101 1403 1404
3 808 913 1874
3 1260 1269 1282
3 1389 1387 2262
3 1297 1053 1822
3 1555 1553 1557
3 1463 1464 1465
3 230 28 1765
3 1237 1238 1239
3 554 553 1880
3 775 778 1806
3 985 899 1874
3 1270 1524 2199
3 489 1820 1936
3 692 1072 1794
3 1472 2142 2272
3 1845 496 1929
3 438 431 1814
3 613 615 1824
3 1241 1242 1245
3 1783 415 1915
3 1192 2081 2149
3 178 214 1506
3 1816 988 1817
3 1760 1759 1761
3 1103 1092 1623
3 1512 1345 1661
3 1876 921 2295
3 1165 984 1345
3 978 1074 1075
3 1239 1240 1241
3 542 541 553
3 813 988 1816
3 1148 984 1165
3 871 970 1056
3 472 452 1683
3 1207 1796 1870
3 1167 1166 1754
3 1296 1053 1297
3 966 964 1846
3 976 899 985
3 982 976 984
3 702 1815 2015
3 900 899 976
3 1143 995 1206
3 1576 1024 1827
3 1235 1248 1733
3 1558 1557 1560
3 943 995 1143
3 1920 1144 1943
3 1471 2115 2477
3 29 30 255
3 132 133 254
3 1630 1633 1634
3 1225 1224 1226
3 1925 1573 1926
3 1211 1205 1692
3 725 825 826
3 1113 924 1114
3 600 579 1988
3 717 1552 1567
3 1820 1657 1936
3 674 276 2099
3 395 393 1877
3 572 543 1897
3 1575 1308 2255
3 999 1000 1028
3 1118 1775 1876
3 1797 1798 2430
3 526 546 559
3 867 853 2186
3 1142 1771 1949
3 1068 1275 1442
3 679 385 1779
3 1607 1558 1789
3 580 568 1758
3 1244 1252 1253
3 1760 1761 1762
3 398 402 403
3 1476 1258 1478
3 418 421 889
3 1771 1147 1839
3 164 213 1658
3 1720 1721 2267
3 1668 1591 2512
3 1042 1128 1445
3 1098 1830 1833
3 1102 1092 1103
3 2249 884 2466
3 1104 1103 1434
3 410 416 1821
3 514 513 541
3 580 1758 1763
3 637 673 1741
3 1913 936 1914
3 1394 1395 2337
3 919 920 999
3 577 554 579
3 2111 1660 2263
3 231 1658 1659
3 612 613 644
3 568 543 572
3 770 775 1806
3 1445 1128 1446
3 1546 1548 1842
3 448 460 478
3 810 870 871
3 1789 1560 1819
3 1154 1082 1431
3 873 973 1802
3 379 385 679
3 837 850 921
3 1461 1462 1463
3 1346 1076 1420
3 1088 1344 1808
3 2125 1143 2353
3 931 977 978
3 882 772 1802
3 29 255 1765
3 849 1513 2180
3 1713 827 1806
3 1130 1396 1397
3 681 638 852
3 1417 1321 1873
3 1654 1402 2530
3 502 526 1740
3 1124 888 2177
3 1266 1460 1461
3 515 1175 1840
3 1253 1264 1669
3 479 466 1813
3 1727 1729 1757
3 379 380 385
3 1971 1480 2514
3 1637 1739 2459
3 1207 1205 1208
3 529 519 1899
3 1129 1845 1929
3 224 1661 2267
3 192 1856 2361
3 732 734 1807
3 1184 2163 2435
3 1119 1120 1353
3 415 414 431
3 719 724 725
3 559 546 1750
3 871 872 970
3 1038 917 1622
3 574 699 1752
3 166 167 1679
3 1117 1118 1119
3 1409 1196 2035
3 617 619 621
3 1172 1173 1439
3 1191 1005 1768
3 664 663 684
3 494 493 1841
3 890 529 1731
3 840 802 841
3 493 974 1841
3 385 386 399
3 679 1779 1780
3 371 376 379
3 416 433 1109
3 670 769 1815
3 902 866 903
3 1780 1779 1781
3 480 515 1840
3 970 971 1042
3 433 448 1714
3 28 29 1765
3 1005 949 1142
3 778 780 1117
3 959 1037 1799
3 1073 1003 1076
3 535 532 1898
3 1119 1118 1120
3 658 657 693
3 1378 1379 1380
3 1397 1396 1809
3 1610 1609 1612
3 1819 1560 2016
3 1837 952 1865
3 1719 1131 1881
3 1131 1399 1400
3 1352 1138 2058
3 399 406 409
3 548 1630 2041
3 1275 1338 2251
3 582 1816 1818
3 1835 1836 2144
3 993 1101 1980
3 1699 1698 1700
3 2407 364 2505
3 1189 1190 1788
3 1117 780 1118
3 1830 1829 1831
3 637 672 673
3 692 804 1072
3 1204 1203 1205
3 1374 1170 2139
3 612 692 1794
3 1642 1408 2286
3 723 808 809
3 450 459 1812
3 409 410 414
3 802 801 1778
3 1853 1854 2483
3 1042 1127 1128
3 1199 1846 2225
3 1147 990 1273
3 1383 1384 2432
3 432 431 438
3 1353 1120 1390
3 1093 1091 1094
3 2020 250 2254
3 148 149 1639
3 606 605 648
3 1970 2016 2422
3 2201 2046 2327
3 475 471 513
3 412 407 1951
3 1991 246 2139
3 727 695 728
3 1673 234 1788
3 1554 1556 1559
3 1089 663 1746
3 1846 964 2056
3 923 991 1088
3 409 406 410
3 729 728 730
3 1424 1427 1856
3 1473 1911 2407
3 1376 1377 1378
3 1010 1374 1510
3 853 852 854
3 366 369 1087
3 772 873 1802
3 1219 1218 1626
3 1766 229 2061
3 1088 991 1344
3 922 810 1826
3 518 506 695
3 405 402 2116
3 962 1664 2316
3 913 942 1002
3 932 990 1147
3 629 813 1816
3 876 877 992
3 399 386 406
3 932 845 990
3 1002 1123 1131
3 843 996 1145
3 781 837 1775
3 262 2304 2491
3 431 696 1814
3 1273 1695 1892
3 731 730 732
3 737 732 1807
3 439 438 450
3 1829 498 1841
3 800 685 801
3 767 814 815
3 1060 766 1656
3 673 766 767
3 1403 1605 1882
3 716 718 719
3 1338 1069 1339
3 847 752 1843
3 864 862 1116
3 2302 443 2519
3 923 827 991
3 526 559 1740
3 1911 1473 2358
3 1085 1310 1867
3 809 899 900
3 1227 1226 1228
3 729 730 731
3 1436 1370 1437
3 731 732 737
3 769 827 923
3 456 452 471
3 1433 1503 2471
3 1435 1103 1623
3 385 380 386
3 1141 1787 2460
3 1354 1088 1808
3 657 649 1848
3 415 431 432
3 484 892 1820
3 727 728 729
3 855 854 1450
3 1721 1722 1723
3 1643 1353 1644
3 1145 1916 1960
3 1421 1191 1422
3 466 1812 1813
3 943 944 995
3 1356 1357 1376
3 714 715 716
3 1156 1094 1157
3 598 611 612
3 631 1600 2298
3 590 589 605
3 965 969 1919
3 416 1109 1821
3 242 1697 2335
3 1548 1547 1549
3 550 573 584
3 584 604 632
3 409 414 415
3 712 713 714
3 642 670 702
3 818 698 819
3 1006 1005 1191
3 1624 1689 1691
3 169 170 237
3 173 174 238
3 956 912 1003
3 937 936 1913
3 1317 1025 1875
3 515 540 550
3 973 1799 1800
3 973 959 1799
3 518 695 727
3 910 819 912
3 584 573 604
3 1170 946 1418
3 173 238 1847
3 550 540 573
3 982 984 1148
3 900 976 982
3 441 435 452
3 448 478 1714
3 1849 1648 2173
3 1631 1628 1637
3 1830 1831 1832
3 1383 1216 1384
3 734 772 882
3 949 933 1770
3 1332 1330 1333
3 574 575 591
3 1105 1088 1354
3 702 670 1815
3 498 494 1841
3 827 770 1806
3 873 959 973
3 1390 1391 1415
3 450 438 459
3 950 949 1005
3 351 362 364
3 1313 1029 1314
3 432 438 439
3 837 838 850
3 1273 1274 1695
3 850 851 943
3 911 952 1837
3 1259 1260 1804
3 566 587 588
3 1037 1216 1383
3 1337 1265 1538
3 1087 369 1795
3 810 655 870
3 1559 1561 1566
3 1147 1273 1839
3 732 733 734
3 1662 867 2126
3 890 1731 2241
3 1854 1852 2397
3 515 479 540
3 451 450 466
3 697 666 698
3 1367 1316 1368
3 662 660 663
3 365 355 694
3 1358 1114 1767
3 379 376 380
3 1796 1448 1797
3 179 180 1859
3 790 668 849
3 569 568 580
3 690 860 931
3 466 450 1812
3 431 414 696
3 1973 1133 1974
3 651 649 657
3 467 466 479
3 1288 1289 1835
3 264 265 1986
3 1302 1303 1304
3 592 596 597
3 1873 1321 2037
3 544 543 568
3 275 277 549
3 209 1937 2389
3 539 565 566
3 1485 227 1486
3 2384 2190 2408
3 1781 1779 1783
3 480 479 515
3 689 1416 2413
3 1108 1161 1539
3 1867 1310 1895
3 1300 1301 1302
3 1695 1696 1697
3 633 632 668
3 1304 1451 1452
3 988 911 1837
3 168 169 1724
3 969 1012 1172
3 582 629 1816
3 1843 752 1900
3 629 812 813
3 710 711 712
3 1782 1780 1784
3 536 535 543
3 1089 1746 1969
3 1108 1107 1161
3 1514 1426 1856
3 486 484 1820
3 369 371 1795
3 1817 988 1924
3 493 609 974
3 1422 1191 2023
3 1426 1424 1856
3 842 875 924
3 922 1826 2259
3 989 1361 1886
3 928 1070 1288
3 669 668 790
3 1113 1114 1356
3 1027 847 1843
3 728 695 1098
3 734 735 772
3 975 1107 1108
3 955 859 1962
3 813 911 988
3 1208 1448 1796
3 1101 1405 1980
3 602 676 2045
3 586 581 589
3 546 547 563
3 493 491 609
3 628 1524 2390
3 348 344 354
3 1298 1299 1300
3 509 538 539
3 974 609 975
3 813 891 911
3 871 870 872
3 1355 1354 1423
3 489 486 1820
3 778 779 780
3 1025 1176 1875
3 772 773 873
3 803 1743 2347
3 167 202 1679
3 873 883 959
3 1483 1571 2375
3 427 1756 2221
3 540 1813 1954
3 1202 1200 1203
3 959 1035 1037
3 837 921 1775
3 1304 1305 1451
3 1799 1383 2195
3 604 642 1862
3 1470 1744 2474
3 1854 2397 2453
3 1282 1269 1386
3 1573 1572 2157
3 472 2222 2290
3 1307 1708 2341
3 769 770 827
3 1037 1215 1216
3 791 790 856
3 1053 1052 1822
3 1056 1727 1728
3 1341 1138 1352
3 1300 1299 1301
3 1814 696 1838
3 1198 1196 1409
3 492 491 493
3 439 450 451
3 1171 858 2132
3 1259 1254 1260
3 665 626 666
3 970 872 971
3 258 1602 2357
3 1296 1297 1472
3 490 489 491
3 516 437 2494
3 1298 1027 1299
3 846 845 932
3 501 508 509
3 460 461 502
3 448 449 460
3 482 480 1840
3 1229 1228 1230
3 604 641 642
3 1424 1423 1427
3 502 503 526
3 1028 1000 1029
3 935 933 949
3 1084 1085 1867
3 2028 1711 2353
3 1513 1426 1514
3 892 482 1840
3 852 638 1988
3 402 395 1877
3 738 737 845
3 413 412 418
3 1119 1353 1643
3 526 527 546
3 280 279 281
3 1731 1155 2123
3 1042 971 1127
3 1208 1447 1448
3 433 434 448
3 262 159 2304
3 184 1454 2303
3 1051 1052 1053
3 1816 1817 1818
3 1081 1417 1444
3 781 836 837
3 911 951 952
3 1090 1092 1102
3 202 168 1724
3 1085 1309 1310
3 408 407 412
3 1337 1538 1864
3 1515 1514 1516
3 530 529 890
3 1517 1518 1519
3 549 686 687
3 923 1088 1105
3 404 403 407
3 1835 1289 1836
3 1314 1367 2121
3 1380 1379 2416
3 670 671 769
3 899 808 1874
3 1040 903 1703
3 1596 1595 2154
3 1496 1495 1497
3 636 637 1741
3 1377 1638 2288
3 1288 1070 1289
3 1072 804 1981
3 1129 1334 1845
3 1865 1084 1866
3 792 922 1603
3 1253 1252 1254
3 981 1167 1792
3 1302 1301 1303
3 1641 1651 2019
3 952 953 1084
3 1813 1812 1869
3 732 730 733
3 975 1106 1107
3 1142 949 1770
3 981 1166 1167
3 840 841 842
3 451 466 467
3 1273 990 1274
3 1049 1050 1051
3 1473 2407 2505
3 968 966 1199
3 642 643 670
3 1310 1309 1311
3 422 419 435
3 1063 833 1082
3 919 782 920
3 911 891 951
3 1084 953 1085
3 1763 1764 2164
3 1498 1497 1682
3 515 550 1175
3 1079 937 1913
3 642 702 1862
3 845 737 1931
3 1394 1311 1395
3 1395 1521 1522
3 467 479 480
3 1755 1754 1793
3 1231 1230 1232
3 1557 1553 2030
3 1624 1691 2262
3 584 632 633
3 1094 1091 1969
3 708 709 710
3 1948 1627 2488
3 952 951 953
3 1102 1103 1104
3 1047 1048 1049
3 1310 1311 1394
3 1852 1099 1985
3 143 144 1717
3 813 812 891
3 1944 1044 1945
3 1105 1354 1355
3 1300 1302 1455
3 1914 936 1940
3 1415 1391 1710
3 1299 1027 1843
3 952 1084 1865
3 1695 1274 1696
3 776 774 1928
3 282 281 283
3 2003 1347 2279
3 1206 995 1499
3 1164 1685 1686
3 1551 1565 2030
3 969 1172 1919
3 633 668 669
3 734 733 735
3 1373 1372 1438
3 599 600 636
3 1431 1860 2487
3 1579 1577 1999
3 484 482 892
3 917 940 941
3 2144 1836 2169
3 1866 1084 1867
3 1110 1747 1748
3 998 1171 1811
3 1390 1120 1391
3 644 1824 2057
3 1362 1961 2048
3 944 1283 1825
3 1086 1027 1298
3 679 1780 1782
3 974 975 1879
3 507 506 518
3 1121 1079 1401
3 775 777 778
3 1965 762 2349
3 1045 1046 1047
3 1772 421 2106
3 16 17 2081
3 416 417 433
3 921 850 2125
3 1607 1855 1958
3 649 648 1848
3 1241 1240 1242
3 2012 1443 2251
3 926 928 1920
3 1487 1488 2025
3 1006 1191 1421
3 1355 1423 1424
3 1133 852 1988
3 591 592 1776
3 1299 1843 1857
3 1085 1308 1309
3 490 491 492
3 958 694 1575
3 1384 1216 1385
3 741 915 1878
3 1233 1232 1234
3 669 790 791
3 481 480 482
3 687 703 704
3 492 493 494
3 1634 1633 1922
3 1697 1696 1698
3 1721 985 1722
3 1839 1273 1892
3 772 735 773
3 488 486 489
3 950 1005 1006
3 1513 1514 1515
3 454 500 501
3 873 773 883
3 284 283 285
3 2185 1505 2442
3 959 883 1035
3 543 535 1897
3 1904 1384 2093
3 800 801 802
3 1037 1035 1215
3 1293 1964 1965
3 1239 1238 1240
3 943 1143 2125
3 1782 1784 1785
3 913 756 942
3 488 490 1884
3 1590 1749 2501
3 1235 1234 1236
3 791 856 1408
3 702 2015 2070
3 1108 1539 1540
3 1021 1023 1045
3 695 506 1828
3 1530 1528 1532
3 488 489 490
3 1621 1619 2161
3 704 705 706
3 1304 1303 1305
3 558 1704 2167
3 625 622 626
3 542 553 554
3 604 573 641
3 664 684 685
3 564 571 574
3 1108 1540 1879
3 1856 1427 2361
3 880 1025 1129
3 1395 1311 1521
3 1466 1465 1467
3 915 495 1884
3 1515 1516 1523
3 1237 1236 1238
3 606 648 649
3 999 920 1000
3 676 829 1043
3 2100 794 2142
3 227 151 1500
3 577 579 599
3 153 154 1671
3 1175 550 1927
3 1014 888 1015
3 286 285 287
3 1649 1280 2427
3 1725 204 2137
3 975 609 1106
3 1129 1317 1334
3 1109 1730 2426
3 1468 1467 1469
3 1131 1123 1399
3 1215 2235 2378
3 1976 1149 1989
3 397 395 398
3 746 743 1878
3 1041 1343 1598
3 975 1108 1879
3 741 495 915
3 1167 1754 1755
3 288 287 289
3 743 741 1878
3 1274 990 1931
3 1506 214 1507
3 857 1584 2277
3 2341 1522 2387
3 846 932 933
3 1107 1106 1110
3 584 633 1927
3 290 289 291
3 722 591 1776
3 1544 1094 1969
3 1135 270 1647
3 935 949 950
3 1920 1288 2080
3 754 1896 2108
3 1693 1199 2225
3 292 291 293
3 394 393 395
3 745 743 746
3 1002 942 1123
3 731 737 738
3 294 293 295
3 1018 1573 1925
3 296 295 297
3 298 297 299
3 321 322 325
3 317 320 321
3 314 315 317
3 312 313 314
3 310 311 312
3 308 309 310
3 1898 890 2275
3 306 307 308
3 304 305 306
3 1401 1079 1913
3 300 299 301
3 302 303 304
3 300 301 302
3 302 301 303
3 491 489 1936
3 298 299 300
3 304 303 305
3 306 305 307
3 308 307 309
3 310 309 311
3 312 311 313
3 314 313 315
3 317 315 320
3 321 320 322
3 1301 1299 1857
3 514 541 542
3 296 297 298
3 850 838 851
3 1310 1394 1895
3 294 295 296
3 590 605 606
3 292 293 294
3 651 657 658
3 290 291 292
3 1207 1208 1796
3 835 1976 1989
3 621 619 622
3 746 1878 1896
3 481 482 483
3 1026 847 1027
3 1335 1207 1870
3 1661 59 2266
3 727 729 1155
3 288 289 290
3 1058 776 1928
3 662 663 664
3 495 488 1884
3 1959 319 2522
3 943 851 944
3 1293 1291 1964
3 534 532 535
3 640 645 646
3 2280 1014 2385
3 286 287 288
3 591 575 592
3 521 519 529
3 13 14 2114
3 780 779 781
3 918 908 1850
3 837 836 838
3 209 148 1639
3 754 748 1896
3 745 746 747
3 769 671 770
3 929 1065 2197
3 1278 1058 1279
3 483 482 484
3 1564 1557 2030
3 633 807 1927
3 392 391 393
3 1057 1621 2161
3 569 580 581
3 284 285 286
3 876 992 1894
3 497 494 498
3 1630 1635 2041
3 982 1148 1918
3 612 611 613
3 700 634 1044
3 822 674 2099
3 880 1129 1929
3 432 439 654
3 1039 1291 1292
3 1164 1686 1989
3 1129 1025 1317
3 738 845 846
3 582 583 629
3 278 6 279
3 544 568 569
3 1701 1274 1931
3 747 749 751
3 1085 953 1308
3 928 930 1070
3 747 748 749
3 1421 1422 2415
3 902 903 904
3 1309 1308 1543
3 642 641 643
3 904 981 1792
3 646 784 785
3 536 543 544
3 1204 1205 1207
3 365 694 958
3 71 72 217
3 88 89 1901
3 87 88 193
3 101 102 189
3 85 86 242
3 99 100 241
3 74 75 192
3 91 92 219
3 94 95 191
3 83 84 220
3 97 98 221
3 77 78 218
3 80 81 194
3 89 90 245
3 62 63 244
3 60 61 188
3 64 65 223
3 67 68 190
3 90 91 1909
3 98 99 1905
3 61 62 1908
3 69 70 243
3 68 69 1907
3 70 71 1910
3 410 411 416
3 586 589 590
3 685 684 2029
3 390 389 391
3 1715 1150 1811
3 1924 1837 2215
3 282 283 284
3 496 497 1929
3 233 1671 1769
3 627 2185 2442
3 1567 1552 2062
3 629 630 812
3 424 453 454
3 583 562 1942
3 749 750 805
3 744 743 745
3 1897 535 1898
3 467 480 481
3 504 759 880
3 670 643 671
3 89 245 1901
3 193 88 1901
3 221 98 1905
3 245 90 1909
3 91 219 1909
3 62 244 1908
3 188 61 1908
3 99 241 1905
3 190 68 1907
3 71 217 1910
3 69 243 1907
3 243 70 1910
3 505 499 506
3 475 513 514
3 1945 1044 2071
3 1712 2125 2353
3 339 343 440
3 989 1360 1361
3 764 869 1152
3 778 777 779
3 1686 1685 1687
3 742 741 743
3 979 989 1886
3 729 731 1887
3 926 927 928
3 1305 1306 1307
3 1838 1278 2292
3 747 746 748
3 181 182 1652
3 1886 1361 2305
3 1595 1594 2486
3 597 596 598
3 928 1288 1920
3 1970 824 2156
3 1425 1424 1426
3 497 504 1929
3 748 746 1896
3 745 747 1900
3 998 858 1171
3 563 547 564
3 1155 729 1887
3 634 583 1942
3 1439 1173 1440
3 1026 1027 1086
3 79 80 1904
3 1533 1532 1536
3 1449 1426 1513
3 1106 609 1936
3 1318 1013 1319
3 1098 695 1828
3 492 494 496
3 750 748 754
3 731 738 1887
3 2415 1422 2516
3 533 562 582
3 988 1837 1924
3 1216 1215 1863
3 534 535 536
3 747 751 1900
3 1753 809 2119
3 1183 824 1970
3 740 495 741
3 80 194 1904
3 893 383 2087
3 655 605 1939
3 1884 2034 2082
3 1301 1857 1923
3 1307 1306 1708
3 752 745 1900
3 750 754 755
3 76 77 1903
3 2090 2347 2365
3 255 30 2159
3 132 254 2160
3 448 434 449
3 753 848 926
3 1075 1074 1327
3 487 488 495
3 377 381 647
3 483 484 485
3 755 754 2148
3 1584 1925 2277
3 1186 1183 1970
3 951 891 1281
3 485 484 486
3 546 527 547
3 133 134 1766
3 1786 1785 2409
3 280 281 282
3 460 449 461
3 744 745 752
3 77 218 1903
3 983 1918 2342
3 1708 1306 1810
3 1389 2069 2170
3 487 486 488
3 641 573 1954
3 507 518 519
3 502 461 503
3 519 518 1899
3 1202 1203 1204
3 821 897 1972
3 92 93 1902
3 521 529 530
3 749 748 750
3 2176 1380 2416
3 885 826 886
3 485 486 487
3 371 372 376
3 1289 1070 1871
3 1110 1657 1747
3 753 926 1943
3 700 1044 1944
3 880 881 1025
3 496 1845 2034
3 1072 1981 2393
3 462 464 2134
3 1949 1771 2359
3 1044 634 1942
3 550 584 1927
3 1390 1415 2118
3 526 503 527
3 990 845 1931
3 1009 1213 1214
3 740 742 1144
3 219 92 1902
3 727 1155 1899
3 369 370 371
3 623 690 2150
3 1279 1058 1928
3 1408 2235 2286
3 487 495 740
3 979 1886 2086
3 1305 1303 1306
3 421 412 1951
3 843 844 996
3 633 669 807
3 518 727 1899
3 826 825 1961
3 1657 1106 1936
3 1172 1012 1173
3 740 741 742
3 433 417 434
3 505 506 507
3 1333 1674 2437
3 742 743 744
3 469 458 470
3 1381 1380 1382
3 1293 1965 2515
3 1554 1559 2062
3 553 557 2499
3 1774 389 2339
3 497 498 499
3 483 485 576
3 740 1144 1935
3 773 735 834
3 366 367 369
3 1120 1118 1876
3 1515 1523 1574
3 1319 1013 2039
3 1303 1301 1923
3 457 447 458
3 561 593 594
3 1355 1424 1425
3 609 491 1936
3 204 1732 2137
3 791 1408 1642
3 995 944 1825
3 456 471 475
3 1692 1693 2239
3 580 1763 2164
3 1292 1293 2117
3 441 452 456
3 388 384 389
3 823 821 1972
3 504 880 1929
3 176 177 1680
3 1070 1071 1871
3 15 2260 2477
3 362 363 366
3 2178 2300 2449
3 1035 883 1036
3 2285 1563 2307
3 978 977 1074
3 1090 1102 2029
3 1810 1306 1923
3 496 494 497
3 1306 1303 1923
3 432 654 1915
3 934 933 935
3 356 355 365
3 398 403 404
3 635 701 843
3 1110 1106 1657
3 574 571 575
3 1025 881 1176
3 386 380 786
3 415 432 1915
3 343 347 1911
3 1070 930 1071
3 1688 1740 2231
3 1385 1216 1863
3 1696 1274 1701
3 1645 305 2317
3 880 759 881
3 926 848 927
3 1427 1423 2217
3 1339 1662 2388
3 770 774 775
3 1263 1257 1428
3 1337 1864 2412
3 349 348 355
3 2267 1721 2498
3 753 752 847
3 1375 1086 1473
3 900 982 983
3 332 335 739
3 429 428 430
3 744 752 753
3 1171 2132 2165
3 1425 1426 1449
3 987 641 1954
3 1883 1786 2409
3 427 426 428
3 928 927 930
3 1815 1105 2015
3 1206 1499 1941
3 410 406 411
3 573 540 1954
3 497 499 504
3 528 560 561
3 1933 1404 2399
3 1091 1089 1969
3 1804 1282 2073
3 504 505 759
3 963 924 1113
3 1711 1710 1712
3 881 759 1146
3 968 1199 1200
3 351 352 362
3 848 847 1026
3 521 530 531
3 1884 490 2034
3 1277 957 1966
3 1349 1350 2329
3 676 1043 2045
3 997 1159 1286
3 517 1889 1890
3 781 835 836
3 944 948 1283
3 722 1776 2026
3 507 519 520
3 2040 1352 2058
3 1276 957 1277
3 446 437 447
3 931 860 977
3 361 359 765
3 1248 1536 2534
3 512 523 528
3 408 412 413
3 1368 1369 1370
3 451 2169 2223
3 192 75 1994
3 942 756 2026
3 345 344 348
3 764 1152 1963
3 413 418 419
3 1286 1773 1774
3 770 671 774
3 275 549 2124
3 1497 1645 2461
3 1982 1472 2272
3 422 435 441
3 281 279 736
3 1134 270 1135
3 582 562 583
3 1421 2415 2454
3 485 487 1935
3 2300 1067 2480
3 1578 1576 1827
3 930 927 1061
3 1026 1086 1375
3 922 2259 2379
3 1391 1120 1876
3 1495 1494 2493
3 404 407 408
3 879 2178 2449
3 1700 1698 2036
3 607 1517 1520
3 753 847 848
3 416 411 417
3 1144 742 1943
3 775 776 777
3 754 2108 2148
3 1006 1421 1953
3 585 581 586
3 531 530 532
3 235 1709 1888
3 520 519 521
3 1180 1181 1349
3 1146 759 1967
3 708 710 1921
3 1350 2253 2329
3 436 430 437
3 504 499 505
3 643 641 987
3 336 330 517
3 811 1059 1149
3 1164 1411 1685
3 846 933 934
3 635 843 1960
3 983 982 1918
3 971 872 1096
3 1149 1163 1164
3 169 237 1724
3 1314 1315 1316
3 629 583 630
3 891 812 1916
3 462 463 464
3 487 740 1935
3 798 2084 2189
3 1814 1838 2292
3 1284 1489 1491
3 340 336 2014
3 1670 1461 2200
3 920 782 2057
3 890 2241 2275
3 510 511 512
3 278 279 280
3 839 802 840
3 1858 235 1888
3 1698 1696 2036
3 104 105 222
3 57 58 224
3 1185 1183 1186
3 588 587 623
3 638 600 1988
3 1282 1386 2245
3 811 776 1058
3 816 815 876
3 2034 1845 2082
3 761 636 1741
3 566 565 587
3 174 175 1725
3 347 350 351
3 1469 1495 1496
3 1059 1058 1278
3 811 1149 1976
3 576 485 1935
3 659 658 660
3 859 1153 1962
3 76 1903 1994
3 1821 1109 2426
3 1294 1038 1622
3 733 1833 2075
3 992 993 1980
3 1566 1561 2285
3 525 474 2041
3 464 465 510
3 343 346 347
3 360 893 1982
3 650 649 651
3 896 608 936
3 950 1006 1007
3 1508 1859 1860
3 539 538 565
3 440 343 1911
3 341 340 344
3 221 1905 1906
3 1297 1823 2142
3 759 505 1967
3 1295 1053 1296
3 473 470 474
3 1463 1465 1466
3 1143 1206 2028
3 799 685 800
3 1210 2077 2203
3 509 508 538
3 492 496 2034
3 1553 1551 2030
3 1260 1261 1269
3 1430 1040 1703
3 586 590 1940
3 838 836 868
3 1705 624 2276
3 1749 972 2501
3 742 744 1943
3 804 962 1981
3 1367 1368 2254
3 531 532 533
3 337 336 340
3 1157 1094 1544
3 536 544 1158
3 812 630 1960
3 781 779 835
3 56 57 1947
3 630 583 634
3 1405 1404 1932
3 1281 891 1916
3 339 342 343
3 1411 1163 1730
3 322 323 324
3 344 340 2091
3 1735 1734 1736
3 75 76 1994
3 430 682 2494
3 1907 243 2360
3 589 581 2164
3 694 355 2196
3 744 753 1943
3 775 774 776
3 1210 1430 2077
3 335 338 339
3 1102 1803 2029
3 1078 937 1079
3 870 655 1939
3 505 507 1967
3 357 360 1982
3 1896 1878 2101
3 326 325 328
3 934 935 957
3 585 608 895
3 333 330 336
3 1270 1272 1524
3 688 817 878
3 507 520 1967
3 1428 1257 2074
3 1818 1817 2000
3 896 937 1077
3 934 957 1111
3 329 328 330
3 1499 995 1825
3 944 851 948
3 387 445 462
3 1678 1161 2228
3 777 776 811
3 313 311 757
3 324 331 332
3 848 1026 1955
3 1312 998 1811
3 1321 1322 2037
3 1080 1079 1121
3 1105 1355 2015
3 1645 2317 2461
3 1559 1568 2062
3 332 334 335
3 501 500 508
3 321 325 326
3 394 395 397
3 322 320 323
3 1529 1530 2171
3 1137 797 1138
3 811 1058 1059
3 661 660 662
3 569 581 585
3 183 4 2303
3 5 160 2304
3 1340 1138 1341
3 1660 1626 2185
3 1743 1464 2347
3 1026 1375 1955
3 1149 1059 1163
3 1736 1625 2194
3 1322 1667 2434
3 311 309 1959
3 309 307 319
3 894 700 1944
3 533 534 562
3 1276 1277 1366
3 2190 1706 2408
3 533 532 534
3 1214 1213 1410
3 1164 1163 1411
3 843 701 844
3 1009 1214 2055
3 234 1589 1788
3 2000 1817 2174
3 317 321 2050
3 328 325 945
3 392 393 394
3 588 623 2089
3 1162 958 1681
3 1078 1080 1136
3 927 848 1955
3 1496 1497 1498
3 390 391 392
3 1061 927 1955
3 1283 948 1284
3 635 634 700
3 1244 1251 1252
3 218 78 2093
3 756 722 2026
3 1071 1784 2419
3 1218 1505 2185
3 1284 948 1285
3 1489 1285 1490
3 918 1850 1851
3 684 1090 2029
3 1759 572 2537
3 1691 1690 2446
3 1979 1158 2071
3 606 649 650
3 2045 1043 2046
3 103 104 2025
3 630 634 635
3 360 383 893
3 406 386 2043
3 1909 219 2023
3 1111 957 1276
3 1925 1437 2277
3 1536 2268 2340
3 854 852 1133
3 233 153 1671
3 651 658 659
3 2099 1787 2368
3 1033 1032 1130
3 1015 1372 1373
3 1412 942 2026
3 253 264 1441
3 1531 1534 2332
3 701 700 894
3 106 107 1990
3 2048 1961 2455
3 276 274 2099
3 738 846 1968
3 1325 925 1326
3 896 936 937
3 585 586 608
3 1450 854 1973
3 1361 1360 1362
3 1045 1668 2512
3 303 301 444
3 996 844 997
3 79 1904 2093
3 1989 1686 2095
3 1928 774 2033
3 1942 562 1979
3 287 285 316
3 935 950 1966
3 1466 1467 1468
3 1242 1243 1244
3 1887 738 1968
3 2115 210 2477
3 878 929 1083
3 1326 1736 2194
3 886 888 1014
3 895 608 896
3 289 287 1978
3 821 822 897
3 936 608 1940
3 613 614 615
3 51 52 1996
3 417 411 1160
3 1149 1164 1989
3 386 786 2043
3 285 283 1971
3 1309 1543 2147
3 375 373 2053
3 371 370 372
3 779 777 1976
3 1286 1159 1773
3 2177 887 2376
3 1560 1557 1564
3 1403 1882 2399
3 1727 1757 2246
3 279 6 2049
3 1619 1438 2438
3 291 289 758
3 1781 1915 2294
3 425 401 426
3 349 355 356
3 66 67 2118
3 474 548 2041
3 1686 1687 2007
3 1262 1456 1457
3 1123 942 1412
3 1916 812 1960
3 1355 1425 2015
3 735 733 2075
3 1861 879 2449
3 1284 1285 1489
3 490 492 2034
3 366 363 367
3 980 578 2051
3 906 904 1792
3 534 536 1979
3 842 924 963
3 2051 578 2083
3 1077 937 1078
3 1102 1104 1803
3 894 1944 1946
3 398 404 2060
3 1007 1006 1953
3 369 367 370
3 348 354 2196
3 1078 1079 1080
3 1378 1380 1381
3 1568 1365 2439
3 608 586 1940
3 598 610 611
3 760 636 761
3 869 1137 1351
3 671 643 2033
3 1661 1345 2267
3 938 914 1057
3 783 761 914
3 576 1835 2144
3 388 389 390
3 297 295 318
3 454 453 500
3 1906 1728 2246
3 1439 1440 2468
3 1159 1013 1318
3 764 797 869
3 236 143 1717
3 782 644 2057
3 592 595 596
3 1542 2332 2443
3 1521 1311 2147
3 345 348 349
3 1304 1452 2205
3 1644 1907 2360
3 2146 1125 2149
3 997 844 1013
3 628 375 2053
3 299 297 1984
3 957 935 1966
3 664 685 799
3 301 299 1975
3 362 352 363
3 777 811 1976
3 1942 1979 2071
3 1001 920 2057
3 312 314 768
3 1552 1554 2062
3 615 616 617
3 357 1982 2076
3 800 802 839
3 774 671 2033
3 1749 1169 2105
3 365 958 1162
3 617 618 619
3 283 281 1938
3 1351 1772 2414
3 1525 1765 2489
3 846 934 1968
3 635 700 701
3 555 554 577
3 536 1158 1979
3 1101 1404 1405
3 630 635 1960
3 1811 1150 2089
3 2113 1666 2249
3 172 173 1847
3 107 108 195
3 54 55 196
3 1191 1768 2023
3 1455 1302 2205
3 115 116 2017
3 1387 1333 2437
3 659 661 764
3 1080 1121 1188
3 50 51 2011
3 411 406 2043
3 295 293 1983
3 643 987 2033
3 707 706 708
3 129 130 261
3 32 33 260
3 2159 260 2265
3 449 434 567
3 1314 1029 1315
3 917 796 940
3 378 375 628
3 108 109 1991
3 2370 1759 2537
3 341 344 345
3 997 1013 1159
3 544 569 1993
3 950 1007 1966
3 477 474 525
3 351 350 352
3 1696 1701 2036
3 334 331 803
3 1137 1138 1340
3 562 534 1979
3 109 110 246
3 52 53 247
3 1368 1316 1369
3 659 660 661
3 33 34 2002
3 123 124 2005
3 835 779 1976
3 851 838 1992
3 1530 1533 2172
3 1668 1045 2348
3 1162 1681 1706
3 342 338 468
3 298 300 358
3 765 359 2065
3 725 826 885
3 35 36 2003
3 46 47 2019
3 38 39 2006
3 336 517 2014
3 934 1111 1968
3 116 117 2018
3 650 651 1963
3 223 1711 2162
3 640 594 645
3 1333 1330 2192
3 104 222 2025
3 1603 922 2379
3 963 1113 1115
3 2084 1193 2189
3 564 570 571
3 36 37 2004
3 57 224 1947
3 1542 1601 2269
3 122 123 2012
3 1000 920 1001
3 127 128 240
3 34 35 239
3 383 387 2087
3 1161 1107 2228
3 1781 2294 2419
3 1201 1200 1202
3 124 125 225
3 37 38 226
3 1340 1341 1342
3 869 797 1137
3 839 840 1008
3 1158 544 1993
3 1326 925 1894
3 352 350 353
3 326 329 954
3 1864 2344 2412
3 836 835 2095
3 1051 1053 1295
3 1031 720 1032
3 503 461 787
3 1407 1112 2044
3 661 662 2058
3 838 868 1992
3 112 113 197
3 49 50 198
3 1359 980 1413
3 121 122 211
3 40 41 212
3 48 49 2010
3 113 114 2009
3 1741 673 2131
3 41 42 2020
3 120 121 2013
3 1409 2035 2097
3 1511 1374 2506
3 114 115 248
3 47 48 249
3 42 43 250
3 119 120 251
3 171 6 201
3 6 172 203
3 585 895 1993
3 43 44 2024
3 118 119 2021
3 905 904 906
3 764 661 797
3 337 340 341
3 1413 980 2051
3 117 118 205
3 44 45 206
3 347 346 350
3 1420 1076 1525
3 324 323 331
3 434 417 2031
3 965 967 969
3 716 719 788
3 1260 1254 1261
3 2053 373 2103
3 2069 2068 2170
3 326 328 329
3 1706 996 2408
3 273 275 2124
3 969 1011 1012
3 590 606 2001
3 1718 1611 2280
3 1914 1940 2001
3 915 1884 2082
3 329 330 333
3 620 859 955
3 2168 1409 2305
3 296 298 1997
3 915 2082 2101
3 339 338 342
3 1218 994 1505
3 333 336 337
3 266 263 1742
3 1873 768 2127
3 244 63 2162
3 64 223 2162
3 343 342 346
3 914 761 2258
3 310 312 1987
3 799 800 2055
3 302 304 763
3 1559 1566 1568
3 1598 1343 2114
3 592 575 595
3 341 345 794
3 189 1842 2220
3 767 815 816
3 1003 912 1004
3 839 1008 1009
3 1263 1428 1429
3 564 547 570
3 1845 1334 2082
3 332 331 334
3 901 866 902
3 651 659 1963
3 1009 1112 1213
3 335 334 338
3 569 585 1993
3 1665 1336 2299
3 1945 2071 2153
3 863 862 864
3 907 906 908
3 1849 1486 1930
3 1935 1144 2080
3 967 966 968
3 809 900 2119
3 865 864 866
3 835 1989 2095
3 190 1907 2417
3 333 337 522
3 1110 1748 2228
3 1193 1194 1195
3 94 191 2166
3 473 1854 2453
3 1769 1134 2369
3 948 851 1992
3 237 170 2216
3 420 419 422
3 1448 1447 2364
3 483 576 2144
3 721 1919 2032
3 885 886 1891
3 613 611 614
3 886 1014 1891
3 1160 411 2043
3 1918 1283 2342
3 1651 206 2485
3 1242 1240 1243
3 598 596 610
3 1295 1296 1459
3 1185 1186 1948
3 1425 1449 2070
3 294 296 762
3 1285 948 1992
3 925 876 1894
3 712 714 789
3 603 1668 2398
3 1940 590 2001
3 721 570 964
3 834 735 2075
3 1144 1920 2080
3 2263 1635 2511
3 1204 1207 1335
3 2235 1408 2378
3 965 964 966
3 1990 1435 2218
3 397 398 2060
3 1138 797 2058
3 1787 1141 2368
3 2068 820 2170
3 360 359 361
3 387 462 2087
3 1524 1272 1934
3 819 698 820
3 1197 1196 1198
3 1662 2126 2388
3 78 79 2093
3 1150 588 2089
3 1269 1261 1270
3 1878 915 2101
3 451 467 2169
3 2262 1387 2437
3 1009 1008 1112
3 757 311 1959
3 897 898 1139
3 1854 473 2483
3 2015 1425 2070
3 2082 1334 2101
3 963 1115 1174
3 1047 1049 1287
3 1194 423 1196
3 321 326 2050
3 417 1160 2031
3 854 1133 1973
3 1201 1212 1348
3 705 1586 2163
3 309 319 1959
3 1353 1390 2417
3 427 428 429
3 357 356 359
3 606 650 2001
3 549 1280 2124
3 1213 1112 1407
3 256 2303 2535
3 356 365 2065
3 662 664 2040
3 701 894 2039
3 1325 1371 2451
3 666 626 667
3 1902 93 2166
3 1236 1234 1246
3 800 839 2055
3 1869 1812 2252
3 1197 1364 1365
3 576 1935 2080
3 404 408 798
3 1678 807 2529
3 1560 1564 2016
3 1319 2039 2122
3 425 426 427
3 349 356 357
3 308 310 327
3 1716 622 2484
3 1801 82 2289
3 1768 1949 2420
3 2006 1926 2507
3 351 364 2407
3 420 423 1193
3 659 764 1963
3 292 294 2038
3 840 842 2027
3 736 279 2049
3 372 373 374
3 461 449 2052
3 2189 1195 2285
3 1174 1115 1398
3 367 363 961
3 909 908 918
3 1738 247 2402
3 1007 1761 2308
3 288 290 2135
3 422 441 2035
3 623 624 690
3 537 525 545
3 1953 1421 2454
3 1887 1968 2123
3 861 691 862
3 654 439 2223
3 1136 1080 2054
3 1312 1811 2089
3 575 571 2032
3 383 361 384
3 968 1200 1201
3 797 661 2058
3 1423 1354 2381
3 1180 1178 1181
3 1513 1515 2180
3 72 73 2217
3 462 445 463
3 12 13 2136
3 457 458 469
3 542 554 555
3 599 636 760
3 254 133 1766
3 1130 1397 1937
3 404 798 2060
3 1044 1942 2071
3 690 691 860
3 357 359 360
3 1008 2027 2152
3 1232 1230 1255
3 372 370 373
3 850 943 2125
3 1457 1456 1492
3 1952 324 2282
3 155 2 2356
3 0 7 2357
3 2017 1379 2288
3 918 1851 2008
3 195 1991 2517
3 2090 803 2347
3 1244 1243 1251
3 290 292 368
3 1432 1082 2214
3 1008 840 2027
3 1743 803 2296
3 1013 844 2039
3 365 1162 2065
3 1594 1315 2184
3 387 384 388
3 1508 1860 2311
3 547 527 2056
3 2005 225 2322
3 314 317 2127
3 1853 556 2327
3 201 6 278
3 1907 1644 2417
3 1896 2101 2108
3 646 645 784
3 538 508 558
3 374 375 377
3 1630 1634 1635
3 1579 1999 2352
3 1647 1648 1849
3 1313 1314 2121
3 1179 1433 2042
3 844 701 2039
3 1252 1251 2098
3 816 876 925
3 1922 1228 2281
3 392 394 396
3 1915 654 2294
3 1652 1653 2487
3 429 430 436
3 456 475 476
3 1605 1392 2510
3 126 1882 2284
3 1784 1780 2419
3 500 453 960
3 377 378 381
3 2178 1587 2300
3 1222 1219 1626
3 413 419 420
3 381 382 400
3 2169 1836 2223
3 1906 1905 2129
3 616 614 793
3 1170 1419 2139
3 101 189 2220
3 241 100 2220
3 1968 1111 2123
3 567 434 2031
3 615 614 616
3 1032 720 1921
3 682 428 2138
3 469 470 473
3 339 440 2261
3 1501 238 2226
3 1154 1431 1653
3 446 447 457
3 1251 1243 1257
3 2229 315 2495
3 1201 1202 1212
3 785 784 879
3 464 463 465
3 66 2118 2395
3 324 332 2282
3 286 288 771
3 17 199 2081
3 571 570 721
3 611 610 2092
3 617 616 618
3 1542 1531 2332
3 400 401 424
3 1325 1326 1371
3 1140 1406 1702
3 1323 443 2302
3 1926 1573 2507
3 436 437 446
3 1262 1457 2098
3 67 190 2118
3 1518 1861 2449
3 989 1359 1360
3 1063 1082 1154
3 1757 96 2526
3 969 967 1011
3 868 836 2095
3 1215 1035 2235
3 96 1757 2309
3 261 2160 2380
3 1381 1382 2126
3 1468 1469 2182
3 1334 1317 2108
3 861 863 1064
3 1270 1261 1271
3 360 361 383
3 287 316 1978
3 1856 192 2367
3 1905 241 2129
3 1615 1809 2425
3 528 523 560
3 979 980 989
3 662 2040 2058
3 721 964 965
3 170 171 2216
3 664 799 2040
3 512 511 523
3 1201 1348 2107
3 620 618 858
3 758 289 1978
3 859 858 998
3 424 425 453
3 1616 1615 2193
3 444 301 1975
3 561 560 593
3 965 966 967
3 1798 376 2430
3 340 2014 2091
3 510 465 511
3 107 195 1990
3 1080 1188 2054
3 1153 998 1312
3 1226 1224 1249
3 1012 1011 1363
3 902 904 905
3 842 963 2027
3 268 270 1134
3 865 901 1125
3 2077 558 2102
3 282 284 442
3 1977 1679 2253
3 1496 1498 2047
3 284 286 2063
3 281 736 1938
3 2132 793 2165
3 1674 215 2437
3 2078 1855 2411
3 839 1009 2055
3 1182 824 1183
3 1168 947 1169
3 1289 1871 2242
3 316 285 1971
3 1270 1271 1272
3 1755 1793 2264
3 51 1996 2011
3 383 384 387
3 1146 1924 2215
3 1279 1928 2202
3 619 618 620
3 1194 1196 1197
3 555 578 979
3 1937 1639 2528
3 1262 1257 1263
3 389 384 2339
3 2251 1338 2464
3 1155 1887 2123
3 1151 1937 2528
3 465 463 828
3 1318 1319 2116
3 1687 1688 2231
3 326 954 2050
3 297 318 1984
3 1308 953 2255
3 1846 2056 2198
3 320 315 2229
3 1254 1252 2059
3 760 761 783
3 951 1281 2255
3 1459 1296 2094
3 2288 1638 2470
3 1975 299 1984
3 52 247 1996
3 468 338 2090
3 2140 1511 2506
3 1125 1126 1192
3 593 824 1182
3 720 708 1921
3 704 706 707
3 623 587 624
3 2044 1112 2152
3 1393 1169 1749
3 900 983 2119
3 783 914 938
3 255 2265 2489
3 2039 894 2122
3 317 2050 2127
3 1866 1867 2513
3 374 373 375
3 429 436 455
3 387 388 445
3 1193 423 1194
3 555 577 578
3 1074 977 1187
3 449 567 2052
3 1197 1198 1364
3 2154 1595 2486
3 1486 1849 2173
3 318 295 1983
3 939 1016 1844
3 131 132 2160
3 30 31 2159
3 881 1146 2215
3 1294 1868 2238
3 1300 1455 2314
3 1365 1364 1912
3 783 938 939
3 2061 1735 2441
3 551 545 601
3 2194 216 2536
3 1251 1257 1262
3 888 887 2177
3 1364 1198 2048
3 1498 1682 2340
3 1589 1590 2501
3 60 188 2266
3 1401 1913 2324
3 195 108 1991
3 420 422 423
3 1675 1470 2474
3 258 1673 2183
3 2161 1619 2438
3 1296 1472 2094
3 1808 1910 2381
3 334 803 2090
3 1490 1285 2232
3 523 511 524
3 1240 1238 2074
3 1184 1183 1185
3 39 40 2151
3 473 474 477
3 1461 1463 2200
3 2072 353 2073
3 861 862 863
3 1206 1941 2401
3 958 1575 2287
3 614 611 2092
3 110 111 2140
3 1136 2054 2110
3 645 594 2133
3 260 33 2002
3 673 767 2131
3 989 980 1359
3 1741 2131 2258
3 1317 1875 2148
3 894 1946 2122
3 863 864 865
3 787 461 2052
3 857 2277 2386
3 109 246 1991
3 2017 116 2018
3 1182 1183 1184
3 377 375 378
3 816 925 1324
3 865 866 901
3 1262 1263 1456
3 359 356 2065
3 2129 241 2472
3 283 1938 1971
3 1458 1210 2203
3 1076 1003 2145
3 196 1738 2402
3 1033 1130 1151
3 1188 1121 2106
3 1140 1702 2096
3 549 687 1280
3 1694 1621 2191
3 861 1064 2112
3 1548 1549 2129
3 1784 1071 2462
3 714 716 2066
3 1961 825 2455
3 1447 1211 2250
3 979 578 980
3 905 907 1209
3 381 378 382
3 457 469 552
3 595 575 2032
3 408 413 2084
3 481 483 2144
3 1745 1349 2293
3 1980 1405 2441
3 198 50 2011
3 248 115 2017
3 912 819 2068
3 620 858 859
3 707 708 720
3 821 674 822
3 514 542 2086
3 400 382 401
3 123 2005 2012
3 1772 1351 2374
3 34 239 2002
3 768 314 2127
3 2003 36 2004
3 280 282 2079
3 124 225 2005
3 596 595 2130
3 593 560 824
3 1504 1502 2519
3 239 35 2003
3 1311 1309 2147
3 1318 1877 2240
3 1860 1432 2311
3 1416 1715 2330
3 859 998 1153
3 352 353 2072
3 312 768 1987
3 2027 1174 2152
3 226 38 2006
3 1827 1024 2117
3 1710 1391 2295
3 690 624 691
3 37 226 2004
3 1153 1312 1885
3 853 855 2186
3 1892 242 2373
3 1967 520 2174
3 939 938 1016
3 47 249 2019
3 388 390 2078
3 1991 2139 2517
3 905 906 907
3 571 721 2032
3 1196 423 2035
3 1324 925 1325
3 1151 1130 1937
3 363 352 2072
3 345 349 2076
3 1031 1032 1033
3 214 179 1859
3 211 122 2012
3 602 601 652
3 117 205 2018
3 710 712 2067
3 1602 187 2357
3 520 2000 2174
3 85 242 2335
3 220 84 2335
3 381 400 2113
3 1586 1587 2435
3 424 401 425
3 963 1174 2027
3 860 691 861
3 610 596 2130
3 1958 2078 2431
3 570 547 2056
3 237 2216 2354
3 1211 1692 2219
3 298 358 1997
3 909 947 1041
3 441 456 2097
3 1135 1647 1849
3 1601 1542 2443
3 197 113 2009
3 49 198 2010
3 1911 347 2407
3 1729 191 2309
3 212 41 2020
3 121 211 2013
3 222 105 2218
3 1125 901 1126
3 114 248 2009
3 249 48 2010
3 42 250 2020
3 251 120 2013
3 233 1769 2369
3 1870 647 2113
3 794 345 2076
3 250 43 2024
3 119 251 2021
3 901 902 2141
3 964 570 2056
3 739 335 2261
3 2108 1317 2148
3 577 599 2083
3 205 118 2021
3 44 206 2024
3 1247 1241 2323
3 1894 992 2244
3 6 203 2049
3 1642 1678 2529
3 1417 1873 2333
3 1422 2023 2516
3 341 794 2100
3 73 74 2361
3 1234 1232 2088
3 1261 1254 2059
3 896 1077 2257
3 1921 710 2067
3 125 126 2284
3 220 1699 2289
3 159 5 2304
3 4 184 2303
3 2059 1252 2098
3 1003 1004 2145
3 2328 1325 2451
3 1486 227 1500
3 63 64 2162
3 2081 1192 2260
3 508 500 2102
3 667 1872 2318
3 338 334 2090
3 423 422 2035
3 1192 1126 1471
3 907 908 909
3 1330 1328 2192
3 1972 897 2500
3 2443 316 2514
3 242 86 2373
3 87 193 2373
3 420 1193 2084
3 1473 1086 2358
3 1987 768 2037
3 522 337 2100
3 627 1660 2185
3 1793 446 2264
3 1405 2061 2441
3 1502 1217 2302
3 171 201 2216
3 1158 1993 2153
3 1197 1365 2120
3 1712 1710 2295
3 1121 1401 2414
3 93 94 2166
3 653 652 688
3 622 1716 2452
3 1345 1720 2267
3 477 537 556
3 128 129 2181
3 2331 1295 2458
3 784 645 874
3 1269 1270 2199
3 189 102 2355
3 1041 1168 1343
3 246 110 2140
3 477 525 537
3 755 1895 2371
3 1947 1723 2313
3 1134 1135 2369
3 223 65 2395
3 968 1201 2107
3 1577 1578 2325
3 210 15 2477
3 961 363 2072
3 1581 1579 2352
3 349 357 2076
3 337 341 2100
3 305 303 2317
3 370 367 2103
3 762 296 1997
3 581 580 2164
3 1278 1838 2372
3 1548 2129 2472
3 594 593 2133
3 2021 251 2022
3 2047 1247 2182
3 967 968 2107
3 1169 947 2008
3 481 2144 2169
3 793 614 2092
3 1910 217 2381
3 1251 1262 2098
3 716 788 2066
3 2101 1334 2108
3 2006 39 2151
3 1603 2379 2508
3 1926 2006 2151
3 96 97 2526
3 750 755 2371
3 789 714 2066
3 909 918 947
3 1993 895 2153
3 106 1990 2218
3 1243 1240 2074
3 832 986 1189
3 1283 1284 2342
3 2297 195 2517
3 1043 829 2326
3 767 816 2131
3 602 653 676
3 1004 912 2068
3 2086 1886 2224
3 1124 2177 2467
3 426 401 2531
3 707 720 1030
3 1000 1001 2184
3 1315 1029 2184
3 467 481 2169
3 541 513 2256
3 647 381 2113
3 225 2284 2510
3 2 156 2356
3 187 0 2357
3 40 212 2151
3 2245 1386 2383
3 676 677 829
3 1004 2068 2069
3 1860 232 2487
3 1031 1033 1034
3 829 830 972
3 996 997 2408
3 1195 1194 2120
3 987 1869 2202
3 1410 1213 2222
3 819 820 2068
3 1485 1486 2173
3 1564 2030 2155
3 807 669 2529
3 129 261 2181
3 1525 1076 2145
3 578 577 2083
3 327 310 1987
3 1083 929 2197
3 2131 1324 2258
3 798 408 2084
3 1838 696 2426
3 1486 1500 1930
3 1946 1944 2291
3 2257 1077 2291
3 1512 1661 2266
3 445 388 2078
3 1192 1471 2260
3 2118 1415 2395
3 1466 1468 2158
3 830 677 831
3 211 2012 2251
3 652 601 2442
3 537 545 551
3 558 508 2102
3 198 2011 2128
3 1718 2280 2385
3 500 960 2102
3 1168 1169 1393
3 1127 971 2496
3 95 96 2309
3 2030 1565 2155
3 1919 1172 2273
3 977 860 2112
3 240 128 2181
3 294 762 2038
3 1800 1799 2195
3 712 789 2067
3 972 1749 2326
3 472 1683 2212
3 874 645 2133
3 551 2045 2201
3 2105 1043 2326
3 1957 1212 2301
3 1514 1856 2367
3 565 538 2167
3 373 370 2103
3 355 348 2196
3 1934 1272 2138
3 1934 426 2531
3 1881 1400 2481
3 2046 1851 2327
3 367 961 2103
3 1963 1152 2206
3 201 278 443
3 3 131 2444
3 31 1 2445
3 2035 441 2097
3 503 787 2198
3 1135 1849 1930
3 1534 1983 2306
3 2089 623 2150
3 687 704 2109
3 869 1351 2363
3 1302 1304 2205
3 955 1716 2484
3 1030 720 1031
3 1159 1318 2240
3 1228 1226 2281
3 947 918 2008
3 413 420 2084
3 785 879 2532
3 1041 947 1168
3 1468 2182 2323
3 1246 1234 2088
3 1730 1163 2372
3 542 555 2086
3 1599 631 2312
3 1146 1967 2174
3 1078 1136 2343
3 1515 1574 2180
3 2336 885 2469
3 1257 1243 2074
3 1347 1346 2279
3 2001 650 2206
3 1480 1601 2514
3 1029 1000 2184
3 1956 788 2336
3 1271 1261 2059
3 130 3 2444
3 1 32 2445
3 1570 1507 2197
3 1232 1255 2088
3 791 1642 2529
3 1601 1479 2269
3 1361 1362 2168
3 1634 1922 2281
3 765 2065 2190
3 2071 1158 2153
3 1699 1801 2289
3 832 831 833
3 1864 346 2344
3 456 476 2097
3 1855 828 2411
3 2065 1162 2190
3 1125 1192 2149
3 599 760 2083
3 361 765 2339
3 1731 2123 2241
3 1349 1181 1350
3 1443 1275 2251
3 1819 524 2429
3 1021 1045 2512
3 858 618 2132
3 1999 358 2338
3 368 292 2038
3 290 368 2135
3 803 331 2296
3 1112 1008 2152
3 56 1947 2313
3 555 979 2086
3 1469 1496 2182
3 1011 967 2107
3 248 2017 2288
3 1809 789 2425
3 960 453 2221
3 538 558 2167
3 1858 1187 2248
3 2246 1757 2526
3 902 905 2141
3 1851 1853 2327
3 1224 1222 2111
3 771 288 2135
3 1945 2153 2257
3 1420 1525 2489
3 1399 1123 2393
3 103 2025 2355
3 897 822 898
3 1861 940 2532
3 865 1125 2146
3 1675 2474 2522
3 1573 2157 2507
3 1632 1631 2382
3 551 601 602
3 527 503 2198
3 1708 805 2337
3 1059 1278 2372
3 2056 527 2198
3 860 861 2112
3 1668 2348 2398
3 255 2159 2265
3 1541 1542 2269
3 1428 2074 2227
3 1582 1583 2321
3 389 1774 2503
3 2004 226 2157
3 1777 397 2405
3 1368 1436 2254
3 1061 2409 2462
3 1071 930 2462
3 1126 901 2141
3 1194 1197 2120
3 1452 1952 2282
3 2116 1319 2482
3 105 106 2218
3 1981 1399 2393
3 2119 983 2143
3 444 1682 2461
3 2173 1648 2463
3 616 793 2132
3 1791 1190 2334
3 1826 1728 2259
3 602 652 653
3 1834 1292 2428
3 556 2201 2327
3 1014 1015 2385
3 1995 1287 2331
3 1193 1195 2189
3 816 1324 2131
3 879 1861 2532
3 593 1182 2133
3 1402 266 1742
3 2216 1323 2354
3 1660 1636 2502
3 620 955 2484
3 1162 1706 2190
3 1870 2113 2249
3 204 1680 1732
3 1909 2023 2420
3 217 72 2217
3 376 372 2430
3 905 1209 2141
3 1378 1381 2283
3 1236 1246 2227
3 286 771 2063
3 1635 2263 2502
3 100 101 2220
3 1139 898 1140
3 2114 1343 2136
3 442 284 2063
3 1772 2106 2414
3 1985 1755 2533
3 2192 1328 2315
3 1064 863 2146
3 1631 1637 2459
3 736 2049 2523
3 221 1906 2246
3 318 1983 2171
3 1496 2047 2182
3 1374 2139 2506
3 196 55 2313
3 2087 462 2134
3 676 653 677
3 2304 257 2491
3 1401 2324 2363
3 829 677 830
3 654 2223 2242
3 1187 977 2112
3 1463 1466 2200
3 2023 219 2516
3 1176 881 2215
3 513 471 2290
3 1812 459 2252
3 1386 1269 2199
3 291 758 2306
3 618 616 2132
3 278 280 2210
3 83 220 2289
3 82 83 2289
3 938 1057 2161
3 1189 986 1190
3 788 719 2336
3 1914 2001 2206
3 232 181 1652
3 1567 2062 2490
3 313 757 2495
3 622 619 2484
3 688 878 1320
3 1222 1626 2111
3 282 442 2079
3 1169 2008 2105
3 1966 1007 2308
3 2040 799 2237
3 1744 2229 2495
3 986 833 1063
3 2284 1605 2510
3 887 1961 2376
3 215 1624 2262
3 830 831 832
3 476 475 2224
3 439 451 2223
3 1932 1933 2380
3 2227 1246 2366
3 1212 1202 2301
3 1107 1110 2228
3 249 2010 2299
3 1983 293 2306
3 2055 1214 2237
3 1438 1372 2478
3 824 560 2156
3 2320 1866 2513
3 1351 1137 2374
3 868 2007 2232
3 2063 771 2064
3 1507 214 1508
3 1728 1727 2246
3 1045 1047 2348
3 1139 1140 2096
3 1648 1649 2463
3 1502 2302 2519
3 704 707 2109
3 2343 1136 2396
3 650 1963 2206
3 2153 895 2257
3 396 1958 2431
3 1379 1377 2288
3 2115 1471 2319
3 2033 987 2202
3 2239 1693 2518
3 2025 1488 2355
3 1209 2115 2319
3 523 524 2156
3 783 939 2243
3 376 1798 2497
3 2066 788 2193
3 1984 318 2172
3 425 427 2221
3 203 172 1847
3 446 457 2264
3 1312 2089 2150
3 2138 1272 2211
3 897 1139 2274
3 828 1819 2429
3 1249 1224 2111
3 666 667 2318
3 1371 1326 2194
3 2433 1499 2475
3 1272 1271 2211
3 1367 2254 2479
3 1386 2053 2383
3 2074 1238 2227
3 755 2148 2320
3 2117 1604 2428
3 475 514 2224
3 228 2187 2457
3 1868 1504 2520
3 1626 1218 2185
3 2123 1111 2241
3 1287 1049 2331
3 1280 687 2109
3 459 1814 2292
3 54 196 2402
3 863 865 2146
3 204 176 1680
3 514 2086 2224
3 1646 603 2398
3 112 197 2346
3 358 300 2338
3 1140 898 1141
3 1204 1335 2301
3 1016 2161 2438
3 909 1041 2175
3 1681 2448 2492
3 2252 459 2292
3 1992 868 2232
3 1035 1036 2235
3 1051 1295 2331
3 1836 1289 2242
3 1508 214 1859
3 247 53 2402
3 1016 938 2161
3 1408 856 2378
3 1466 2158 2200
3 725 885 2336
3 855 1450 2421
3 2023 1768 2420
3 1238 1236 2227
3 1679 202 2253
3 2107 1348 2233
3 1653 1431 2487
3 1946 2291 2343
3 2253 202 2329
3 1885 1312 2150
3 378 628 2390
3 2195 1383 2432
3 1520 1519 2480
3 1532 1733 2534
3 308 327 2278
3 953 951 2255
3 1213 1407 2222
3 1561 1563 2285
3 302 763 2338
3 1928 2033 2202
3 763 304 2345
3 832 833 986
3 1352 2040 2237
3 247 1881 2481
3 560 523 2156
3 335 339 2261
3 346 342 2344
3 201 443 1323
3 2301 1335 2466
3 323 320 2229
3 1136 2110 2396
3 1139 1977 2274
3 1809 1615 2423
3 1707 1791 2334
3 46 2019 2485
3 2064 1294 2238
3 1950 197 2404
3 2021 2022 2176
3 1949 245 2420
3 2044 2152 2207
3 1063 1154 1707
3 1012 1363 2406
3 280 2079 2210
3 2237 1214 2351
3 820 698 2318
3 1140 1141 1406
3 205 2021 2176
3 2043 786 2310
3 2145 1004 2446
3 707 1030 2109
3 1406 2460 2473
3 2137 1268 2226
3 16 2081 2260
3 567 2031 2219
3 2112 1064 2248
3 206 45 2485
3 2347 1462 2365
3 1650 1962 2362
3 453 425 2221
3 1209 907 2175
3 1111 1276 2241
3 2448 1145 2492
3 2051 2083 2243
3 59 60 2266
3 1402 1742 2530
3 831 677 2209
3 624 587 2276
3 238 174 1725
3 1011 2107 2233
3 468 2365 2412
3 2337 805 2371
3 254 1932 2380
3 1174 1398 2207
3 2140 111 2346
3 1381 2186 2283
3 1987 2037 2188
3 1740 559 2456
3 1773 391 2503
3 1335 1870 2249
3 1945 2257 2291
3 828 463 2411
3 1246 2088 2208
3 2060 798 2307
3 1773 1159 2240
3 1187 2112 2248
3 1352 2237 2351
3 2037 1322 2188
3 1941 1499 2433
3 2322 225 2510
3 1031 1034 2236
3 327 2188 2321
3 595 2032 2273
3 1464 1462 2347
3 1285 1992 2232
3 799 2055 2237
3 443 278 2210
3 784 874 2178
3 392 396 2431
3 191 95 2309
3 879 784 2178
3 524 511 2429
3 2128 2011 2270
3 895 896 2257
3 2206 1152 2324
3 318 2171 2172
3 2259 1549 2379
3 1214 1410 2351
3 306 308 2278
3 2022 251 2247
3 1757 1729 2309
3 1283 1918 2524
3 996 1706 2492
3 557 2044 2207
3 1798 1448 2364
3 1447 2250 2310
3 559 1750 2403
3 1363 1011 2233
3 1343 1168 2187
3 1407 2044 2256
3 1462 1460 2365
3 1995 2331 2458
3 327 1987 2188
3 2160 254 2380
3 1681 958 2287
3 2031 1160 2250
3 1600 689 2413
3 2219 1692 2239
3 1494 1675 2522
3 1281 1916 2448
3 907 909 2175
3 565 2167 2276
3 2241 1276 2275
3 1978 316 2443
3 2151 212 2350
3 203 1847 2104
3 2049 1481 2523
3 1961 1362 2376
3 2187 1393 2457
3 940 796 2532
3 2293 1349 2329
3 572 1897 2537
3 332 739 2282
3 2052 567 2239
3 1437 1370 2277
3 567 2219 2239
3 667 626 2452
3 1914 2206 2324
3 2243 939 2392
3 2136 1343 2187
3 257 1654 2530
3 1376 1378 2283
3 2076 1982 2272
3 2083 760 2243
3 1944 1945 2291
3 1771 1839 2359
3 1404 1403 2399
3 1875 1866 2320
3 1460 1337 2412
3 760 783 2243
3 1276 1366 2275
3 1428 2227 2366
3 1882 1605 2284
3 1739 1429 2459
3 2321 2188 2434
3 1328 1327 2315
3 798 2189 2307
3 2152 1174 2207
3 2182 1247 2323
3 1516 1514 2367
3 293 291 2306
3 556 537 2201
3 1298 1300 2314
3 1400 1399 2316
3 1649 2236 2463
3 833 831 2424
3 2127 2050 2333
3 1057 914 2328
3 1839 193 2359
3 761 1741 2258
3 1186 1970 2422
3 1429 2366 2382
3 2211 1271 2271
3 1733 1248 2534
3 13 2114 2136
3 2078 390 2431
3 1533 1536 2340
3 1690 2145 2446
3 1277 2308 2370
3 1168 1393 2187
3 1597 2047 2268
3 587 565 2276
3 1908 244 2401
3 225 125 2284
3 610 2130 2468
3 1749 2105 2326
3 1913 1914 2324
3 2366 2208 2382
3 1391 1876 2295
3 457 552 2264
3 653 688 2209
3 1601 2443 2514
3 682 2138 2211
3 992 1980 2244
3 55 56 2313
3 1645 1495 2493
3 473 477 2483
3 202 1724 2329
3 465 828 2429
3 1277 1966 2308
3 1416 2330 2406
3 1912 1364 2455
3 1716 1483 2375
3 2019 1651 2485
3 1725 2137 2226
3 201 1323 2216
3 878 1083 2213
3 2072 2073 2245
3 1563 1777 2405
3 244 2028 2401
3 2016 1564 2422
3 1682 1497 2461
3 1962 1153 2362
3 1298 2314 2358
3 1384 1385 2391
3 688 1320 2209
3 1587 2179 2435
3 786 380 2497
3 1395 1522 2341
3 2032 1919 2273
3 251 2013 2247
3 2219 2031 2250
3 2397 552 2453
3 1765 255 2489
3 2475 1825 2524
3 1202 1204 2301
3 445 2078 2411
3 323 2229 2296
3 1286 2384 2408
3 537 551 2201
3 1724 237 2293
3 84 85 2335
3 1471 1126 2319
3 1635 1634 2511
3 300 302 2338
3 698 666 2318
3 1030 1031 2236
3 2098 1457 2271
3 696 1821 2426
3 1457 1492 2447
3 1956 2336 2469
3 331 323 2296
3 1284 1491 2342
3 2011 1996 2270
3 256 183 2303
3 160 257 2304
3 2204 1589 2501
3 1891 1014 2280
3 719 725 2336
3 1354 1808 2381
3 437 430 2494
3 2377 218 2391
3 2211 2271 2447
3 1407 2256 2290
3 2365 1460 2412
3 2047 1498 2268
3 1825 1283 2524
3 1499 1825 2475
3 1226 1249 2281
3 2051 2243 2392
3 2250 1160 2310
3 111 112 2346
3 304 306 2345
3 1341 1352 2351
3 2166 191 2504
3 2223 1836 2242
3 1996 247 2481
3 1049 1051 2331
3 1086 1298 2358
3 2130 595 2273
3 1249 2111 2263
3 680 1995 2458
3 1511 2140 2346
3 102 103 2355
3 469 473 2453
3 961 2072 2245
3 2073 1282 2245
3 1442 1443 2525
3 74 192 2361
3 2163 1586 2435
3 1519 1518 2449
3 897 2274 2500
3 303 444 2317
3 1615 1614 2423
3 197 2009 2404
3 1634 2281 2511
3 1780 1781 2419
3 1435 1623 2465
3 1286 1774 2384
3 384 361 2339
3 193 1901 2359
3 1165 2433 2475
3 2277 1370 2386
3 677 653 2209
3 1994 1516 2367
3 1479 1478 2440
3 1165 1512 2433
3 1644 1353 2417
3 1711 1712 2353
3 2193 1615 2425
3 1613 1956 2469
3 1440 1173 2330
3 2269 1479 2440
3 222 2218 2465
3 391 389 2503
3 306 2278 2345
3 468 2090 2365
3 221 2246 2526
3 1445 1446 2504
3 939 1844 2392
3 86 87 2373
3 1429 1428 2366
3 2053 2103 2383
3 1348 1212 2312
3 805 750 2371
3 997 1286 2408
3 1152 869 2363
3 2063 2064 2238
3 192 1994 2367
3 1160 2043 2310
3 1926 2151 2350
3 2059 2098 2271
3 1897 1366 2537
3 215 2262 2437
3 1655 1732 2476
3 2415 1128 2454
3 1320 2213 2214
3 7 258 2357
3 259 155 2356
3 2171 1530 2172
3 347 351 2407
3 1077 1078 2343
3 239 2003 2279
3 1446 1128 2415
3 1034 1033 2410
3 601 627 2442
3 1154 1653 2234
3 397 2060 2405
3 2142 794 2272
3 442 2063 2238
3 1863 1215 2378
3 794 2076 2272
3 1883 1375 2505
3 1320 878 2213
3 342 468 2344
3 1903 218 2377
3 380 376 2497
3 1549 1547 2379
3 1148 1165 2475
3 2157 226 2507
3 829 972 2326
3 884 1957 2466
3 2291 1077 2343
3 65 66 2395
3 787 2052 2518
3 2298 1348 2312
3 1946 2343 2396
3 1653 256 2535
3 1842 1548 2472
3 1957 2301 2466
3 1366 1277 2370
3 2213 1432 2214
3 961 2245 2383
3 218 2093 2391
3 1376 2283 2421
3 1873 2127 2333
3 1019 1021 2512
3 1128 1127 2454
3 1104 1434 2450
3 2130 1439 2468
3 2396 2110 2482
3 2186 855 2283
3 1724 2293 2329
3 1163 1059 2372
3 1614 2389 2423
3 53 54 2402
3 1063 1707 2334
3 2283 855 2421
3 1385 1863 2436
3 364 1883 2505
3 517 1890 2387
3 1145 996 2492
3 1047 1287 2348
3 2148 1875 2320
3 205 2176 2416
3 1372 1844 2478
3 1211 2219 2250
3 1141 898 2368
3 245 1909 2420
3 2278 327 2321
3 2389 1397 2423
3 2256 513 2290
3 559 2403 2456
3 1137 1340 2374
3 2093 1384 2391
3 1918 1148 2524
3 1030 2236 2427
3 1867 1895 2513
3 2014 517 2387
3 2271 1457 2447
3 1143 2028 2353
3 1904 194 2432
3 1148 2475 2524
3 1574 1523 2436
3 2213 1083 2311
3 1997 358 2325
3 2139 246 2506
3 1370 1369 2386
3 1271 2059 2271
3 1034 2173 2463
3 1123 1412 2393
3 1578 1827 2515
3 2209 1320 2424
3 2079 1504 2210
3 1361 2168 2305
3 1491 1489 2403
3 238 1725 2226
3 1190 986 2334
3 1547 1545 2508
3 1891 1613 2469
3 1153 1885 2362
3 2208 1632 2382
3 2287 1281 2448
3 1356 1376 2421
3 1965 2349 2515
3 2155 1186 2422
3 1522 2014 2387
3 2158 1468 2323
3 2050 954 2333
3 1397 1809 2423
3 1362 1360 2376
3 1852 1985 2397
3 2069 1691 2446
3 789 2066 2425
3 1895 755 2513
3 1707 1154 2234
3 372 374 2430
3 2225 787 2518
3 2028 1206 2401
3 986 1063 2334
3 1912 726 2439
3 1340 1342 2400
3 1916 1145 2448
3 2236 1649 2427
3 2374 1340 2400
3 2222 1407 2290
3 2324 1152 2363
3 241 2220 2472
3 765 2190 2384
3 2375 667 2452
3 2330 1173 2406
3 1181 1972 2500
3 2126 1382 2388
3 1173 1012 2406
3 315 313 2495
3 1015 1373 2385
3 97 221 2526
3 1937 1397 2389
3 930 1061 2462
3 971 1096 2496
3 45 46 2485
3 669 791 2529
3 1104 2450 2521
3 382 378 2390
3 2191 1371 2536
3 2235 1036 2286
3 831 2209 2424
3 762 1997 2349
3 2379 1547 2508
3 2177 1359 2467
3 2403 1489 2456
3 796 785 2532
3 219 1902 2516
3 1519 2300 2480
3 1065 1655 2476
3 1375 1473 2505
3 1489 1490 2456
3 390 392 2431
3 2247 2013 2464
3 1135 1930 2369
3 2278 1583 2345
3 626 622 2452
3 631 2298 2312
3 2233 1348 2298
3 1398 1974 2499
3 1706 1681 2492
3 261 130 2444
3 32 260 2445
3 822 2099 2368
3 1365 1912 2439
3 941 940 2418
3 1446 2166 2504
3 2106 1121 2414
3 2300 1519 2449
3 1803 1104 2521
3 1732 1570 2476
3 1413 2051 2392
3 2122 1946 2396
3 2238 1868 2520
3 477 556 2483
3 2397 1985 2533
3 463 445 2411
3 2163 1185 2488
3 1126 2141 2319
3 1755 2264 2533
3 972 2204 2501
3 2230 1533 2340
3 1774 1773 2503
3 1997 2325 2349
3 1004 2069 2446
3 2159 31 2445
3 131 2160 2444
3 1371 2191 2451
3 1001 2154 2486
3 1682 2230 2340
3 2103 961 2383
3 1033 1151 2410
3 382 2390 2531
3 1504 2079 2520
3 1583 2278 2321
3 511 465 2429
3 250 2024 2479
3 2208 2088 2509
3 619 620 2484
3 1246 2208 2366
3 2141 1209 2319
3 1359 1413 2467
3 1295 1459 2458
3 2218 1435 2465
3 2281 1249 2511
3 2293 237 2354
3 2207 1398 2499
3 1564 2155 2422
3 552 469 2453
3 1947 224 2498
3 2062 1568 2490
3 2018 205 2416
3 260 2159 2445
3 2160 261 2444
3 2092 610 2468
3 194 2195 2432
3 1432 2213 2311
3 211 2251 2464
3 2378 856 2527
3 1536 1532 2534
3 2364 786 2497
3 2438 1438 2478
3 1185 1948 2488
3 2042 941 2418
3 1582 2321 2434
3 885 1891 2469
3 1364 2048 2455
3 1693 2225 2518
3 401 382 2531
3 1338 2247 2464
3 442 2238 2520
3 1292 2117 2428
3 2274 1350 2500
3 2066 2193 2425
3 2179 1184 2435
3 898 822 2368
3 2436 1863 2527
3 1844 1016 2478
3 2184 1001 2486
3 557 2207 2499
3 2013 211 2464
3 2254 250 2479
3 1350 1181 2500
3 2009 248 2470
3 246 2140 2506
3 1574 2436 2527
3 2139 1419 2517
3 316 1971 2514
3 1319 2122 2482
3 226 2006 2507
3 1400 2270 2481
3 1681 2287 2448
3 2325 1578 2349
3 232 1652 2487
3 1320 2214 2424
3 1632 2208 2509
3 248 2288 2470
3 1406 1141 2460
3 2188 1322 2434
3 2244 1980 2441
3 2088 1255 2509
3 1280 2109 2427
3 2060 2307 2405
3 2236 1034 2463
3 1745 2293 2354
3 2122 2396 2482
3 2109 1030 2427
3 2307 1563 2405
3 1429 2382 2459
3 224 2267 2498
3 682 2211 2447
3 2079 442 2520
3 2348 1287 2398
3 2220 1842 2472
3 1335 2249 2466
3 1249 2263 2511
3 443 2210 2519
3 2385 1373 2394
3 1594 2184 2486
3 2052 2239 2518
3 1568 2439 2490
3 2349 1578 2515
3 2344 468 2412
3 2270 1996 2481
3 1735 2244 2441
3 2260 1471 2477
3 2210 1504 2519
3 1434 2297 2450
3 2297 1419 2450
3 2263 1660 2502
3 2404 2009 2470
3 1718 2385 2394
3 1371 2194 2536
3 2317 444 2461
3 1443 2322 2525
3 1716 2375 2452
3 1863 2378 2527
3 2439 726 2490
3 1057 2328 2451
3 1638 2404 2470
3 1454 2234 2535
3 755 2320 2513
3 2234 1653 2535
3 2264 552 2533
3 1419 2297 2517
3 1392 2322 2510
3 552 2397 2533
3 1798 2364 2497
3 2322 1392 2525
3 2382 1631 2459
3 1016 2438 2478
3 1366 2370 2537
3 1742 2491 2530
3 2491 257 2530
CELL_TYPES 4886
5
5
5
5
5
5
5
5
5
5
5
5
5
5
5
5
5
5
5
5
5
5
5
5
5
5
5
5
5
5
5
5
5
5
5
5
5
5
5
5
5
5
5
5
5
5
5
5
5
5
5
5
5
5
5
5
5
5
5
5
5
5
5
5
5
5
5
5
5
5
5
5
5
5
5
5
5
5
5
5
5
5
5
5
5
5
5
5
5
5
5
5
5
5
5
5
5
5
5
5
5
5
5
5
5
5
5
5
5
5
5
5
5
5
5
5
5
5
5
5
5
5
5
5
5
5
5
5
5
5
5
5
5
5
5
5
5
5
5
5
5
5
5
5
5
5
5
5
5
5
5
5
5
5
5
5
5
5
5
5
5
5
5
5
5
5
5
5
5
5
5
5
5
5
5
5
5
5
5
5
5
5
5
5
5
5
5
5
5
5
5
5
5
5
5
5
5
5
5
5
5
5
5
5
5
5
5
5
5
5
5
5
5
5
5
5
5
5
5
5
5
5
5
5
5
5
5
5
5
5
5
5
5
5
5
5
5
5
5
5
5
5
5
5
5
5
5
5
5
5
5
5
5
5
5
5
5
5
5
5
5
5
5
5
5
5
5
5
5
5
5
5
5
5
5
5
5
5
5
5
5
5
5
5
5
5
5
5
5
5
5
5
5
5
5
5
5
5
5
5
5
5
5
5
5
5
5
5
5
5
5
5
5
5
5
5
5
5
5
5
5
5
5
5
5
5
5
5
5
5
5
5
5
5
5
5
5
5
5
5
5
5
5
5
5
5
5
5
5
5
5
5
5
5
5
5
5
5
5
5
5
5
5
5
5
5
5
5
5
5
5
5
5
5
5
5
5
5
5
5
5
5
5
5
5
5
5
5
5
5
5
5
5
5
5
5
5
5
5
5
5
5
5
5
5
5
5
5
5
5
5
5
5
5
5
5
5
5
5
5
5
5
5
5
5
5
5
5
5
5
5
5
5
5
5
5
5
5
5
5
5
5
5
5
5
5
5
5
5
5
5
5
5
5
5
5
5
5
5
5
5
5
5
5
5
5
5
5
5
5
5
5
5
5
5
5
5
5
5
5
5
5
5
5
5
5
5
5
5
5
5
5
5
5
5
5
5
5
5
5
5
5
5
5
5
5
5
5
5
5
5
5
5
5
5
5
5
5
5
5
5
5
5
5
5
5
5
5
5
5
5
5
5
5
5
5
5
5
5
5
5
5
5
5
5
5
5
5
5
5
5
5
5
5
5
5
5
5
5
5
5
5
5
5
5
5
5
5
5
5
5
5
5
5
5
5
5
5
5
5
5
5
5
5
5
5
5
5
5
5
5
5
5
5
5
5
5
5
5
5
5
5
5
5
5
5
5
5
5
5
5
5
5
5
5
5
5
5
5
5
5
5
5
5
5
5
5
5
5
5
5
5
5
5
5
5
5
5
5
5
5
5
5
5
5
5
5
5
5
5
5
5
5
5
5
5
5
5
5
5
5
5
5
5
5
5
5
5
5
5
5
5
5
5
5
5
5
5
5
5
5
5
5
5
5
5
5
5
5
5
5
5
5
5
5
5
5
5
5
5
5
5
5
5
5
5
5
5
5
5
5
5
5
5
5
5
5
5
5
5
5
5
5
5
5
5
5
5
5
5
5
5
5
5
5
5
5
5
5
5
5
5
5
5
5
5
5
5
5
5
5
5
5
5
5
5
5
5
5
5
5
5
5
5
5
5
5
5
5
5
5
5
5
5
5
5
5
5
5
5
5
5
5
5
5
5
5
5
5
5
5
5
5
5
5
5
5
5
5
5
5
5
5
5
5
5
5
5
5
5
5
5
5
5
5
5
5
5
5
5
5
5
5
5
5
5
5
5
5
5
5
5
5
5
5
5
5
5
5
5
5
5
5
5
5
5
5
5
5
5
5
5
5
5
5
5
5
5
5
5
5
5
5
5
5
5
5
5
5
5
5
5
5
5
5
5
5
5
5
5
5
5
5
5
5
5
5
5
5
5
5
5
5
5
5
5
5
5
5
5
5
5
5
5
5
5
5
5
5
5
5
5
5
5
5
5
5
5
5
5
5
5
5
5
5
5
5
5
5
5
5
5
5
5
5
5
5
5
5
5
5
5
5
5
5
5
5
5
5
5
5
5
5
5
5
5
5
5
5
5
5
5
5
5
5
5
5
5
5
5
5
5
5
5
5
5
5
5
5
5
5
5
5
5
5
5
5
5
5
5
5
5
5
5
5
5
5
5
5
5
5
5
5
5
5
5
5
5
5
5
5
5
5
5
5
5
5
5
5
5
5
5
5
5
5
5
5
5
5
5
5
5
5
5
5
5
5
5
5
5
5
5
5
5
5
5
5
5
5
5
5
5
5
5
5
5
5
5
5
5
5
5
5
5
5
5
5
5
5
5
5
5
5
5
5
5
5
5
5
5
5
5
5
5
5
5
5
5
5
5
5
5
5
5
5
5
5
5
5
5
5
5
5
5
5
5
5
5
5
5
5
5
5
5
5
5
5
5
5
5
5
5
5
5
5
5
5
5
5
5
5
5
5
5
5
5
5
5
5
5
5
5
5
5
5
5
5
5
5
5
5
5
5
5
5
5
5
5
5
5
5
5
5
5
5
5
5
5
5
5
5
5
5
5
5
5
5
5
5
5
5
5
5
5
5
5
5
5
5
5
5
5
5
5
5
5
5
5
5
5
5
5
5
5
5
5
5
5
5
5
5
5
5
5
5
5
5
5
5
5
5
5
5
5
5
5
5
5
5
5
5
5
5
5
5
5
5
5
5
5
5
5
5
5
5
5
5
5
5
5
5
5
5
5
5
5
5
5
5
5
5
5
5
5
5
5
5
5
5
5
5
5
5
5
5
5
5
5
5
5
5
5
5
5
5
5
5
5
5
5
5
5
5
5
5
5
5
5
5
5
5
5
5
5
5
5
5
5
5
5
5
5
5
5
5
5
5
5
5
5
5
5
5
5
5
5
5
5
5
5
5
5
5
5
5
5
5
5
5
5
5
5
5
5
5
5
5
5
5
5
5
5
5
5
5
5
5
5
5
5
5
5
5
5
5
5
5
5
5
5
5
5
5
5
5
5
5
5
5
5
5
5
5
5
5
5
5
5
5
5
5
5
5
5
5
5
5
5
5
5
5
5
5
5
5
5
5
5
5
5
5
5
5
5
5
5
5
5
5
5
5
5
5
5
5
5
5
5
5
5
5
5
5
5
5
5
5
5
5
5
5
5
5
5
5
5
5
5
5
5
5
5
5
5
5
5
5
5
5
5
5
5
5
5
5
5
5
5
5
5
5
5
5
5
5
5
5
5
5
5
5
5
5
5
5
5
5
5
5
5
5
5
5
5
5
5
5
5
5
5
5
5
5
5
5
5
5
5
5
5
5
5
5
5
5
5
5
5
5
5
5
5
5
5
5
5
5
5
5
5
5
5
5
5
5
5
5
5
5
5
5
5
5
5
5
5
5
5
5
5
5
5
5
5
5
5
5
5
5
5
5
5
5
5
5
5
5
5
5
5
5
5
5
5
5
5
5
5
5
5
5
5
5
5
5
5
5
5
5
5
5
5
5
5
5
5
5
5
5
5
5
5
5
5
5
5
5
5
5
5
5
5
5
5
5
5
5
5
5
5
5
5
5
5
5
5
5
5
5
5
5
5
5
5
5
5
5
5
5
5
5
5
5
5
5
5
5
5
5
5
5
5
5
5
5
5
5
5
5
5
5
5
5
5
5
5
5
5
5
5
5
5
5
5
5
5
5
5
5
5
5
5
5
5
5
5
5
5
5
5
5
5
5
5
5
5
5
5
5
5
5
5
5
5
5
5
5
5
5
5
5
5
5
5
5
5
5
5
5
5
5
5
5
5
5
5
5
5
5
5
5
5
5
5
5
5
5
5
5
5
5
5
5
5
5
5
5
5
5
5
5
5
5
5
5
5
5
5
5
5
5
5
5
5
5
5
5
5
5
5
5
5
5
5
5
5
5
5
5
5
5
5
5
5
5
5
5
5
5
5
5
5
5
5
5
5
5
5
5
5
5
5
5
5
5
5
5
5
5
5
5
5
5
5
5
5
5
5
5
5
5
5
5
5
5
5
5
5
5
5
5
5
5
5
5
5
5
5
5
5
5
5
5
5
5
5
5
5
5
5
5
5
5
5
5
5
5
5
5
5
5
5
5
5
5
5
5
5
5
5
5
5
5
5
5
5
5
5
5
5
5
5
5
5
5
5
5
5
5
5
5
5
5
5
5
5
5
5
5
5
5
5
5
5
5
5
5
5
5
5
5
5
5
5
5
5
5
5
5
5
5
5
5
5
5
5
5
5
5
5
5
5
5
5
5
5
5
5
5
5
5
5
5
5
5
5
5
5
5
5
5
5
5
5
5
5
5
5
5
5
5
5
5
5
5
5
5
5
5
5
5
5
5
5
5
5
5
5
5
5
5
5
5
5
5
5
5
5
5
5
5
5
5
5
5
5
5
5
5
5
5
5
5
5
5
5
5
5
5
5
5
5
5
5
5
5
5
5
5
5
5
5
5
5
5
5
5
5
5
5
5
5
5
5
5
5
5
5
5
5
5
5
5
5
5
5
5
5
5
5
5
5
5
5
5
5
5
5
5
5
5
5
5
5
5
5
5
5
5
5
5
5
5
5
5
5
5
5
5
5
5
5
5
5
5
5
5
5
5
5
5
5
5
5
5
5
5
5
5
5
5
5
5
5
5
5
5
5
5
5
5
5
5
5
5
5
5
5
5
5
5
5
5
5
5
5
5
5
5
5
5
5
5
5
5
5
5
5
5
5
5
5
5
5
5
5
5
5
5
5
5
5
5
5
5
5
5
5
5
5
5
5
5
5
5
5
5
5
5
5
5
5
5
5
5
5
5
5
5
5
5
5
5
5
5
5
5
5
5
5
5
5
5
5
5
5
5
5
5
5
5
5
5
5
5
5
5
5
5
5
5
5
5
5
5
5
5
5
5
5
5
5
5
5
5
5
5
5
5
5
5
5
5
5
5
5
5
5
5
5
5
5
5
5
5
5
5
5
5
5
5
5
5
5
5
5
5
5
5
5
5
5
5
5
5
5
5
5
5
5
5
5
5
5
5
5
5
5
5
5
5
5
5
5
5
5
5
5
5
5
5
5
5
5
5
5
5
5
5
5
5
5
5
5
5
5
5
5
5
5
5
5
5
5
5
5
5
5
5
5
5
5
5
5
5
5
5
5
5
5
5
5
5
5
5
5
5
5
5
5
5
5
5
5
5
5
5
5
5
5
5
5
5
5
5
5
5
5
5
5
5
5
5
5
5
5
5
5
5
5
5
5
5
5
5
5
5
5
5
5
5
5
5
5
5
5
5
5
5
5
5
5
5
5
5
5
5
5
5
5
5
5
5
5
5
5
5
5
5
5
5
5
5
5
5
5
5
5
5
5
5
5
5
5
5
5
5
5
5
5
5
5
5
5
5
5
5
5
5
5
5
5
5
5
5
5
5
5
5
5
5
5
5
5
5
5
5
5
5
5
5
5
5
5
5
5
5
5
5
5
5
5
5
5
5
5
5
5
5
5
5
5
5
5
5
5
5
5
5
5
5
5
5
5
5
5
5
5
5
5
5
5
5
5
5
5
5
5
5
5
5
5
5
5
5
5
5
5
5
5
5
5
5
5
5
5
5
5
5
5
5
5
5
5
5
5
5
5
5
5
5
5
5
5
5
5
5
5
5
5
5
5
5
5
5
5
5
5
5
5
5
5
5
5
5
5
5
5
5
5
5
5
5
5
5
5
5
5
5
5
5
5
5
5
5
5
5
5
5
5
5
5
5
5
5
5
5
5
5
5
5
5
5
5
5
5
5
5
5
5
5
5
5
5
5
5
5
5
5
5
5
5
5
5
5
5
5
5
5
5
5
5
5
5
5
5
5
5
5
5
5
5
5
5
5
5
5
5
5
5
5
5
5
5
5
5
5
5
5
5
5
5
5
5
5
5
5
5
5
5
5
5
5
5
5
5
5
5
5
5
5
5
5
5
5
5
5
5
5
5
5
5
5
5
5
5
5
5
5
5
5
5
5
5
5
5
5
5
5
5
5
5
5
5
5
5
5
5
5
5
5
5
5
5
5
5
5
5
5
5
5
5
5
5
5
5
5
5
5
5
5
5
5
5
5
5
5
5
5
5
5
5
5
5
5
5
5
5
5
5
5
5
5
5
5
5
5
5
5
5
5
5
5
5
5
5
5
5
5
5
5
5
5
5
5
5
5
5
5
5
5
5
5
5
5
5
5
5
5
5
5
5
5
5
5
5
5
5
5
5
5
5
5
5
5
5
5
5
5
5
5
5
5
5
5
5
5
5
5
5
5
5
5
5
5
5
5
5
5
5
5
5
5
5
5
5
5
5
5
5
5
5
5
5
5
5
5
5
5
5
5
5
5
5
5
5
5
5
5
5
5
5
5
5
5
5
5
5
5
5
5
5
5
5
5
5
5
5
5
5
5
5
5
5
5
5
5
5
5
5
5
5
5
5
5
5
5
5
5
5
5
5
5
5
5
5
5
5
5
5
5
5
5
5
5
5
5
5
5
5
5
5
5
5
5
5
5
5
5
5
5
5
5
5
5
5
5
5
5
5
5
5
5
5
5
5
5
5
5
5
5
5
5
5
5
5
5
5
5
5
5
5
5
5
5
5
5
5
5
5
5
5
5
5
5
5
5
5
5
5
5
5
5
5
5
5
5
5
5
5
5
5
5
5
5
5
5
5
5
5
5
5
5
5
5
5
5
5
5
5
5
5
5
5
5
5
5
5
5
5
5
5
5
5
5
5
5
5
5
5
5
5
5
5
5
5
5
5
5
5
5
5
5
5
5
5
5
5
5
5
5
5
5
5
5
5
5
5
5
5
5
5
5
5
5
5
5
5
5
5
5
5
5
5
5
5
5
5
5
5
5
5
5
5
5
5
5
5
5
5
5
5
5
5
5
5
5
5
5
5
5
5
5
5
5
5
5
5
5
5
5
5
5
5
5
5
5
5
5
5
5
5
5
5
5
5
5
5
5
5
5
5
5
5
5
5
5
5
5
5
5
5
5
5
5
5
5
5
5
5
5
5
5
5
5
5
5
5
5
5
5
5
5
5
5
5
5
5
5
5
5
5
5
5
5
5
5
5
5
5
5
5
5
5
5
5
5
5
5
5
5
5
5
5
5
5
5
5
5
5
5
5
5
5
5
5
5
5
5
5
5
5
5
5
5
5
5
5
5
5
5
5
5
5
5
5
5
5
5
5
5
5
5
5
5
5
5
5
5
5
5
5
5
5
5
5
5
5
5
5
5
5
5
5
5
5
5
5
5
5
5
5
5
5
5
5
5
5
5
5
5
5
5
5
5
5
5
5
5
5
5
5
5
5
5
5
5
5
5
5
5
5
5
5
5
5
5
5
5
5
5
5
5
5
5
5
5
5
5
5
5
5
5
5
5
5
5
5
5
5
5
5
5
5
5
5
5
5
5
5
5
5
5
5
5
5
5
5
5
5
5
5
5
5
5
5
5
5
5
5
5
5
5
5
5
5
5
5
5
5
5
5
5
5
5
5
5
5
5
5
5
5
5
5
5
5
5
5
5
5
5
5
5
5
5
5
5
5
5
5
5
5
5
5
5
5
5
5
5
5
5
5
5
5
5
5
5
5
5
5
5
5
5
5
5
5
5
5
5
5
5
5
5
5
5
5
5
5
5
5
5
5
5
5
5
5
5
5
5
5
5
5
5
5
5
5
5
5
5
5
5
5
5
5
5
5
5
5
5
5
5
5
5
5
5
5
5
5
5
5
5
5
5
5
5
5
5
5
5
5
5
5
5
5
5
5
5
5
5
5
5
5
5
5
5
5
5
5
5
5
5
5
5
5
5
5
5
5
5
5
5
5
5
5
5
5
5
5
5
5
5
5
5
5
5
5
5
5
5
5
5
5
5
5
5
5
5
5
5
5
5
5
5
5
5
5
5
5
5
5
5
5
5
5
5
5
5
5
5
5
5
5
5
5
5
5
5
5
5
5
5
5
5
5
5
5
5
5
5
5
5
5
5
5
5
5
5
5
5
5
5
5
5
5
5
5
5
5
5
5
5
5
5
5
5
5
5
5
5
5
5
5
5
5
5
5
5
5
5
5
5
5
5
5
5
5
5
5
5
5
5
5
5
5
5
5
5
5
5
5
5
5
5
5
5
5
5
5
5
5
5
5
5
5
5
5
5
5
5
5
5
5
5
5
5
5
5
5
5
5
5
5
5
5
5
5
5
5
5
5
5
5
5
5
5
5
5
5
5
5
5
5
5
5
5
5
5
5
5
5
5
5
5
5
5
5
5
5
5
5
5
5
5
5
5
5
5
5
5
5
5
5
5
5
5
5
5
5
5
5
5
5
5
5
5
5
5
5
5
5
5
5
5
5
5
5
5
5
5
5
5
5
5
5
5
5
5
5
5
5
5
5
5
5
5
5
5
5
5
5
5
5
5
5
5
5
5
5
5
5
5
5
5
5
5
5
5
5
5
5
5
5
5
5
5
5
5
5
5
5
5
5
5
5
5
5
5
5
5
5
5
5
5
5
5
5
5
5
5
5
5
5
5
5
5
5
5
5
5
5
5
5
5
5
5
5
5
5
5
5
5
5
5
5
5
5
5
5
5
5
5
5
5
5
5
5
5
5
5
5
5
5
5
5
5
5
5
5
5
5
5
5
5
5
5
5
5
5
5
5
5
5
5
5
5
5
5
5
5
5
5
5
5
5
5
5
5
5
5
5
5
5
5
5
5
5
5
5
5
5
5
5
5
5
5
5
5
5
5
5
5
5
5
5
5
5
5
5
5
5
5
5
5
5
5
5
5
5
5
5
5
5
5
5
5
5
5
5
5
5
5
5
5
5
5
5
5
5
5
5
5
5
5
5
5
5
5
5
5
5
5
5
5
5
5
5
5
5
5
5
5
5
5
5
5
5
5
5
5
5
5
5
5
5
5
5
5
5
5
5
5
5
5
5
5
5
5
5
5
5
5
5
5
5
5
5
5
5
5
5
5
5
5
5
5
5
5
5
5
5
5
5
5
5
5
5
5
5
5
5
5
5
5
5
5
5
5
5
5
5
5
5
5
5
5
5
5
5
5
5
5
5
5
5
5
5
5
5
5
5
5
5
5
5
5
5
5
5
5
5
5
5
5
5
5
5
5
5
5
5
5
5
5
5
5
5
5
5
5
5
5
5
5
5
5
5
5
5
5
5
5
5
5
5
5
5
5
5
5
5
5
5
5
5
5
5
5
5
5
5
5
5
5
5
5
5
5
5
5
5
5
5
5
5
5
5
5
5
5
5
5
5
5
5
5
5
5
5
5
5
5
5
5
5
5
5
5
5
5
5
5
5
5
5
5
5
5
5
5
5
5
5
5
5
5
5
5
5
5
5
5
5
5
5
5
5
5
5
5
5
5
5
5
5
5
5
5
5
5
5
5
5
5
5
5
5
5
5
5
5
5
5
5
5
5
5
5
5
5
5
5
5
5
5
5
5
5
5
5
5
5
5
5
5
5
5
5
5
5
5
5
5
5
5
5
5
5
5
5
5
5
5
5
5
5
5
5
5
5
5
5
5
5
5
5
5
5
5
5
5
5
5
5
5
5
5
5
5
5
5
5
5
5
5
5
5
5
5
5
5
5
5
5
5
5
5
5
5
5
5
5
5
5
5
5
5
5
5
5
5
5
5
5
5
5
5
5
5
5
5
5
5
5
5
5
5
5
5
5
5
5
5
5
5
5
5
5
5
5
5
5
5
5
5
5
5
5
5
5
5
5
5
5
5
5
5
5
5
5
5
5
5
5
5
5
5
5
5
5
5
5
5
5
5
5
5
5
5
5
5
5
5
5
5
5
5
5
5
5
5
5
5
5
5
5
5
5
5
5
5
5
5
5
5
5
5
5
5
5
5
5
5
5
5
5
5
5
5
5
5
5
5
5
5
5
5
5
5
5
5
5
5
5
5
5
5
5
5
5
5
5
5
5
5
5
5
5
5
5
5
5
5
5
5
5
5
5
5
5
5
5
5
5
5
5
5
5
5
5
5
5
5
5
5
5
5
5
5
5
5
5
5
5
5
5
5
5
5
5
5
5
5
5
5
5
5
5
5
5
5
5
5
5
5
5
5
5
5
5
5
5
5
5
5
5
5
5
5
5
5
5
5
5
5
5
5
5
5
5
5
5
5
5
5
5
5
5
5
5
5
5
5
5
5
5
5
5
5
5
5
5
5
5
5
5
5
5
5
5
5
5
5
5
5
5
5
5
5
5
5
5
5
5
5
5
5
5
5
5
5
5
5
5
5
5
5
5
5
5
5
5
5
5
5
5
5
5
5
5
5
5
5
5
5
5
5
5
5
5
5
5
5
5
5
5
5
5
5
5
5
5
5
5
5
5
5
5
5
5
5
5
5
5
5
5
5
5
5
5
5
5
5
5
5
5
5
5
5
5
5
5
5
5
5
5
5
5
5
5
5
5
5
5
5
5
5
5
5
5
5
5
5
5
5
5
5
5
5
5
5
5
5
5
5
5
5
5
5
5
5
5
5
5
5
5
5
5
5
5
5
5
5
5
5
5
5
5
5
5
5
5
5
5
5
5
5
5
5
5
5
5
5
5
5
5
5
5
5
5
5
5
5
5
5
5
5
5
5
5
5
5
5
5
5
5
5
5
5
5
5
5
5
5
5
5
5
5
5
5
5
5
5
5
5
5
5
5
5
5
5
5
5
5
5
5
5
5
5
5
5
5
5
5
5
5
5
5
5
5
5
5
5
5
5
5
5
5
5
5
5
5
5
5
5
5
5
5
5
5
5
5
5
5
5
5
5
5
5
5
5
5
5
5
5
5
5
5
5
5
5
5
5
5
5
5
5
5
5
5
5
5
5
5
5
5
5
5
5
5
5
5
5
5
5
5
5
5
5
5
5
5
5
5
5
5
5
POINT_DATA 2538
VECTORS disp float
1.9640918731156624e-11 5.126005758567736e-11 0.0
4.1872141198531847e-11 -1.146004420438251e-10 0.0
0.0046999999830533885 4.572084462081778e-11 0.0
0.004699999957413203 -1.1775853899117177e-10 0.0
0.001481444773867256 0.0006214715234933901 0.0
0.003384927570598465 0.000422754072842575 0.0
0.0023158078807800505 0.00015117466590920474 0.0
5.689385653540906e-12 5.872359264203087e-12 0.0
1.0149203073909409e-11 1.273986982528989e-11 0.0
9.458969021874292e-12 8.11851754428682e-12 0.0
9.414923172318557e-12 7.566799076106995e-12 0.0
8.970788264101431e-12 5.76412217743817e-12 0.0
8.486345872719081e-12 4.263195531969004e-12 0.0
8.04261014201148e-12 2.6119311596646753e-12 0.0
7.681694635307253e-12 8.541071872695101e-13 0.0
6.823619748269052e-12 -1.0886122339085258e-12 0.0
7.1414634051863e-12 -2.8004840571401307e-12 0.0
6.809739289224044e-12 -4.7400128258060525e-12 0.0
6.742547264581185e-12 -6.7964787764111675e-12 0.0
6.8625051484469034e-12 -8.840923377690406e-12 0.0
6.740130595605346e-12 -1.0799954071899224e-11 0.0
7.04363089485875e-12 -1.3134732533559448e-11 0.0
7.000941000573404e-12 -1.5146933703646217e-11 0.0
7.345900136520894e-12 -1.7468704573346988e-11 0.0
7.422042200436737e-12 -2.013073161875235e-11 0.0
7.702497341682276e-12 -2.261851003120294e-11 0.0
7.992573790634014e-12 -2.55645387557069e-11 0.0
8.379730854121475e-12 -2.8836665490485463e-11 0.0
9.133998321321208e-12 -3.271555983180964e-11 0.0
9.114758766939443e-12 -3.682770965901369e-11 0.0
1.226370593925847e-11 -4.593062878669673e-11 0.0
5.146906435082136e-12 -4.228188941346375e-11 0.0
5.7693889301973056e-5 -7.891619504657877e-5 0.0
9.944406617209739e-5 -0.00013660569682027036 0.0
0.00013993056517778196 -0.0001870500452748425 0.0
0.00017874650157537094 -0.00023301301048356328 0.0
0.00021641978621969246 -0.00027581089789185183 0.0
0.0002537388205817818 -0.0003164580784390782 0.0
0.0002913119286206162 -0.00035513420083354696 0.0
0.00032877958902264296 -0.0003921287137656212 0.0
0.0003664629950405436 -0.00042775401529921683 0.0
0.00040444385085214925 -0.00046202309915350517 0.0
0.00044274689643582996 -0.0004952103800280794 0.0
0.00048164129287056666 -0.0005273400646175317 0.0
0.0005208298909855287 -0.0005584065813900485 0.0
0.0005605154738076155 -0.0005886328696114539 0.0
0.0006009213522899894 -0.000617986330286324 0.0
0.0006416058255002298 -0.000646417491796246 0.0
0.0006828473196567616 -0.0006740854996107198 0.0
0.0007246267383502627 -0.0007008711196677867 0.0
0.0007669166097019211 -0.0007269147416030785 0.0
0.0008097361342547578 -0.0007522162192756241 0.0
0.0008531362528398842 -0.0007767795564547856 0.0
0.000897005838025984 -0.0008005806791474826 0.0
0.0009415992926618863 -0.0008237435951096943 0.0
0.0009865097038800463 -0.0008461147399770968 0.0
0.0010321912882335679 -0.0008678264170544402 0.0
0.0010781527076801794 -0.0008887564038274858 0.0
0.001124710920342414 -0.0009090342472981305 0.0
0.0011716991880109586 -0.0009285165229021869 0.0
0.0012193635746217597 -0.0009473792075896936 0.0
0.0012672790500508912 -0.000965483645052152 0.0
0.0013158550549591964 -0.0009829342529954358 0.0
0.001364821227225414 -0.0009995998120421144 0.0
0.0014142856438626077 -0.0010155724999112792 0.0
0.0014640942149171607 -0.0010307881827150633 0.0
0.0015145162724878515 -0.0010453307925954451 0.0
0.0015651422844997912 -0.0010590647866497653 0.0
0.0016162289121931987 -0.0010720757127262498 0.0
0.0016676416592388444 -0.0010842749041439523 0.0
0.0017194359306566904 -0.0010956959572591485 0.0
0.001771526429702883 -0.0011064035600765157 0.0
0.0018238816547689277 -0.0011162490030026406 0.0
0.001876565687649791 -0.001125385594474575 0.0
0.0019295120612396928 -0.001133673850097351 0.0
0.001982612340964708 -0.0011412285183632967 0.0
0.002035959352664796 -0.0011478728405037572 0.0
0.002089311390597505 -0.0011537648663921755 0.0
0.002142870969146742 -0.0011588575269009535 0.0
0.0021964548060230743 -0.001163052777781351 0.0
0.0022500579412801282 -0.001166501037175018 0.0
0.0023038013008624906 -0.001169046171164395 0.0
0.002357031936982805 -0.0011705553762386047 0.0
0.0024107514549226647 -0.0011713798138694566 0.0
0.0024628921145122234 -0.0011709818012639829 0.0
0.00251587377822711 -0.0011696507226447868 0.0
0.002566537327048454 -0.0011670508201754388 0.0
0.0026189090966567265 -0.001163523880474532 0.0
0.002669770186447262 -0.0011586610434524264 0.0
0.002720835418727107 -0.0011519494786160363 0.0
0.0027721967867598736 -0.001144053542199778 0.0
0.002824039514918302 -0.0011345132865699765 0.0
0.0028759684836906574 -0.0011240267720559445 0.0
0.0029281378678884607 -0.0011123351171358573 0.0
0.002980358872466573 -0.0010998275376970762 0.0
0.003032533470157979 -0.0010862386509101212 0.0
0.0030846818788770156 -0.0010717806989063016 0.0
0.003136633954407289 -0.0010567271047479561 0.0
0.003188131025993522 -0.0010408142100193551 0.0
0.003239306944095981 -0.001024270459530142 0.0
0.0032902325798786513 -0.00100693960648906 0.0
0.003340827383449084 -0.0009888178509941086 0.0
0.0033908561961269626 -0.0009700863659624028 0.0
0.0034407457470740574 -0.0009505591939352292 0.0
0.0034899611200528797 -0.0009303183086280726 0.0
0.003538738343481939 -0.0009094770680483251 0.0
0.003587242573540848 -0.000887786772667319 0.0
0.00363503910120513 -0.0008655067832270182 0.0
0.0036825000652257454 -0.0008425175626233124 0.0
0.003729426846766727 -0.000818813910961354 0.0
0.0037759657925152236 -0.0007944055892953881 0.0
0.003822018428482581 -0.0007691836643938281 0.0
0.003867643703988927 -0.0007431925710671676 0.0
0.003912587400267508 -0.0007165439717375315 0.0
0.003957181344513537 -0.0006891410817128391 0.0
0.004001378013700151 -0.0006609066502301986 0.0
0.004045009939071298 -0.0006318586892937873 0.0
0.004088265513876975 -0.0006020290107579678 0.0
0.004131253257439889 -0.0005712153377988656 0.0
0.004173683385106385 -0.0005394515580676452 0.0
0.004215666081435774 -0.0005067888312719108 0.0
0.004257544517873031 -0.00047304422012449854 0.0
0.004299276487223773 -0.00043805507407195535 0.0
0.00434062353838754 -0.00040174247576321514 0.0
0.004381689701856734 -0.00036404226484586103 0.0
0.004422841125338566 -0.0003246815177468443 0.0
0.004464573108439273 -0.00028323477592060483 0.0
0.004506321790819876 -0.00023943007745419226 0.0
0.0045485940933537574 -0.0001922879922046185 0.0
0.004593455032534998 -0.0001403594050068641 0.0
0.004639530936852534 -8.098275968660906e-5 0.0
0.004699999994294801 -4.0214258241542586e-11 0.0
0.004699999987015363 -4.451403408974373e-11 0.0
0.00469999999054506 -3.272831744462206e-11 0.0
0.004699999990458412 -2.935668768680645e-11 0.0
0.0046999999910131394 -2.537887296914569e-11 0.0
0.004699999991449541 -2.2215298997182522e-11 0.0
0.004699999991606553 -1.967436437306636e-11 0.0
0.004699999991909324 -1.7377433779137966e-11 0.0
0.004699999991984319 -1.521129054497517e-11 0.0
0.004699999992118353 -1.3094297417956355e-11 0.0
0.004699999992479658 -1.1379975971666012e-11 0.0
0.00469999999235034 -9.124401971140143e-12 0.0
0.0046999999925134844 -7.442415598090826e-12 0.0
0.004699999992573951 -5.493521887917093e-12 0.0
0.004699999992561904 -3.634339344683872e-12 0.0
0.004699999992475927 -1.7000594711463097e-12 0.0
0.004699999992455029 1.7103052019742443e-13 0.0
0.0046999999917519105 2.2405489072620443e-12 0.0
0.004699999992179428 3.879922056800962e-12 0.0
0.004699999991080231 5.926653555927547e-12 0.0
0.004699999991060157 7.259783926078159e-12 0.0
0.004699999990647727 8.709501565063083e-12 0.0
0.004699999991008363 9.158040175017663e-12 0.0
0.004699999990718 1.295515347943586e-11 0.0
0.004699999994992241 6.354089198806287e-12 0.0
0.004357121777453488 0.0002699621803268046 0.0
0.004054106206489734 0.00039330045036868204 0.0
0.0037751887301242333 0.0004429914734972196 0.0
0.003538550134877898 0.0004422267276427603 0.0
0.0033759627590056254 0.0002789737049824524 0.0
0.003351402820920265 0.00020263467895306742 0.0
0.0033024116536776093 0.00016669999521351863 0.0
0.003243594564537657 0.00015100220314421438 0.0
0.003173926978419919 0.00014887188045104241 0.0
0.0030972941347994073 0.00015179508363081487 0.0
0.0030150576572698135 0.00015650144363093594 0.0
0.002928743904391096 0.0001635782656375836 0.0
0.002836755800689219 0.00016942630206463356 0.0
0.0027383130344682182 0.00017308837827689972 0.0
0.0026288136373569214 0.0001743412859577996 0.0
0.002496793636336934 0.0001746795434659991 0.0
0.002139699917417292 0.0001938030189800434 0.0
0.0020159859386448794 0.00020553450257058313 0.0
0.0019140541682417566 0.00020880431704343482 0.0
0.0018253113456644689 0.00021039061485751071 0.0
0.0017450124694409444 0.0002119751907485268 0.0
0.0016724831176778744 0.0002145755676225217 0.0
0.0016075778517711556 0.0002197644004888679 0.0
0.0015524809405278316 0.0002297272734446721 0.0
0.0015095831163506736 0.00025065272688957904 0.0
0.0014807133222677791 0.0002882502670436747 0.0
0.0014700523909020947 0.0003527208297457544 0.0
0.0014724673510601817 0.00045913163894269253 0.0
0.0012964371417398502 0.0006272712260697677 0.0
0.001040124838389635 0.0005852480341350275 0.0
0.0007216544383043814 0.0004844300768898107 0.0
0.0003806579686569325 0.0003181569547119486 0.0
0.001229678187889944 -0.0009071386586614228 0.0
0.0033794134036940937 -0.0009279471265070768 0.0
0.0015809669296289954 -0.001022224368322201 0.0
0.0030148918358646397 -0.0010482090096617627 0.0
0.001955215962672576 -0.00109673915742143 0.0
0.0026412406961616014 -0.0011116367264595666 0.0
0.002276082606958388 -0.0011244709564610673 0.0
0.003675539446500953 -0.0008074000500290911 0.0
0.0009579586517247223 -0.0007965472362748007 0.0
0.0038951922551471382 -0.0006887082056913 0.0
0.0007383071698034722 -0.0006787284264863224 0.0
7.635038177564579e-5 -1.5082346843835063e-5 0.0
0.0046224991023369735 -1.4781122518545027e-5 0.0
0.0025275943247900774 0.00019371239110893307 0.0
0.002896695340350566 0.00018902470526217845 0.0
0.0021061060485082434 0.00020316834160850815 0.0
0.0017641933917045194 0.00023009658567696558 0.0
0.0041197157065679365 -0.0005498336144592635 0.0
0.0005403413131443221 -0.0005490814954712754 0.0
5.186087667328895e-5 -2.747438842645447e-5 0.0
0.004646685165117355 -2.5582961292336592e-5 0.0
0.004588346591071756 3.297806788526845e-6 0.0
0.00010320595784934839 3.971988136841444e-6 0.0
0.004289493698002896 -0.0004192740213162685 0.0
0.00037824160084137765 -0.00041426660518126843 0.0
0.003150561311998142 0.00017798603448472097 0.0
0.0015488598033415962 0.00023951404799240993 0.0
3.8319071170561445e-5 -3.0130159553897524e-5 0.0
0.004657943507898807 -2.916259086372621e-5 0.0
0.0017970334742816957 -0.0010693773690750228 0.0
0.002113891785525735 -0.0011146097677061687 0.0
0.0028552772149672808 -0.0010824238972758358 0.0
0.002441411181049452 -0.00112360545796978 0.0
0.0031724398648764504 -0.001002153642505375 0.0
0.003519409218355715 -0.0008778248709245824 0.0
0.0014406156616634193 -0.0009824952319812796 0.0
0.0010940490867291219 -0.0008602834135111317 0.0
0.004408806731762943 -0.0003148361119035392 0.0
0.000262653012854123 -0.00030672881671052027 0.0
0.0045576895140891725 2.953288397852712e-5 0.0
0.00012839401219519398 2.5044379752640686e-5 0.0
0.004664844911960104 -3.2350782191585706e-5 0.0
3.5340270090799597e-5 -3.673250729034546e-5 0.0
0.003299389789231049 0.00018400138767932366 0.0
0.0014364374702900552 0.0002777993591373885 0.0
0.004501128395301617 5.496425417899714e-5 0.0
0.0001771754705655501 4.9171455821176825e-5 0.0
6.339653168085487e-5 -2.282789157042679e-5 0.0
0.004634627237801616 -2.1894231934492256e-5 0.0
0.002711014250096717 0.00019759532334087828 0.0
0.0019314011546220627 0.00022856209562929772 0.0
0.00014505397701565663 -0.0001771994336098101 0.0
0.0045446372983327646 -0.0001782187027391482 0.0
0.0032721526617639205 -0.0009729837919632908 0.0
0.0025423666974729413 -0.0011221059329024432 0.0
0.0016954405567353044 -0.001048095837894943 0.0
0.001332579778174163 -0.0009506759032292037 0.0
0.002751119973367705 -0.0010982270666563757 0.0
0.0037617307018290758 -0.0007645380196234419 0.0
0.000869578833302897 -0.0007505497708634116 0.0
0.003989081428764218 -0.0006355019500799216 0.0
0.0006500394859817418 -0.0006218567374198008 0.0
0.00045452187020117966 -0.00048031199090250136 0.0
0.004205307821935615 -0.00048605825998956616 0.0
0.0008705907571300231 0.0003422613735895197 0.0
0.003907007090547684 0.0002906873100630915 0.0
0.004665899605327465 -3.685907772897153e-5 0.0
3.087485961354112e-5 -3.71603902429224e-5 0.0
0.0013732298594072172 0.0003852074506213427 0.0
0.0034141707862289645 0.00024921161823537646 0.0
0.00019957440820890754 7.975168846381626e-5 0.0
0.004496398561621921 7.676842622355633e-5 0.0
6.320936134252576e-5 -7.94839390475463e-5 0.0
0.004630381102095004 -8.21332891227986e-5 0.0
0.003652634744383356 0.0003315850064824399 0.0
0.0037422470396322486 0.00025775542580250044 0.0
0.0040300385505578585 0.00020227811412223804 0.0
0.003867748208692351 0.00020948183512028214 0.0
0.0036473042222851704 0.00023286666149533217 0.0
0.003728870374320428 0.00021616815299965714 0.0
0.003939622669181263 0.00018520199519516485 0.0
0.003808233518242804 0.00019782808604661763 0.0
0.004007089256142428 0.00016310117776736723 0.0
0.0038853444229911284 0.0001746716539132045 0.0
0.003698872511299636 0.00020360314015134456 0.0
0.003769335911607216 0.00017964415170308232 0.0
0.0036084436131877512 0.0002023327136722854 0.0
0.0036651899767204863 0.00017688384557241357 0.0
0.0035182151947514284 0.0001959356712988781 0.0
0.0035692873082727307 0.00016609012135399898 0.0
0.002466179649658271 0.00013080978803790692 0.0
0.00231227946996812 0.00010521634893780598 0.0
0.002433400962748354 9.346100378993201e-5 0.0
0.0023087813808112655 7.502098514060803e-5 0.0
0.00241421127180026 6.486708226685896e-5 0.0
0.0023071835537851536 5.0770805542746985e-5 0.0
0.0024018265150100152 4.065994756580361e-5 0.0
0.002305306178061023 2.847163241799876e-5 0.0
0.002392810132154556 1.8808143750491718e-5 0.0
0.00230364059287164 7.844828978385065e-6 0.0
0.0023859707073323414 -1.2937494523165189e-6 0.0
0.00230237351361249 -1.1424894606838003e-5 0.0
0.002380709831895391 -2.0714953261803158e-5 0.0
0.0023035042753982537 -3.0103002688488937e-5 0.0
0.0023766096972146137 -3.931843809050092e-5 0.0
0.0023025997159330574 -4.8370449911498444e-5 0.0
0.002372898184068398 -5.741959545749524e-5 0.0
0.0022993863474276093 -6.624499672916264e-5 0.0
0.0023692627607641054 -7.523837985187028e-5 0.0
0.0022979485953489513 -8.381179159254214e-5 0.0
0.002366250679168996 -9.291564182799723e-5 0.0
0.0022968223217057606 -0.00010132333801513404 0.0
0.002361343941233804 -0.00011043543488903771 0.0
0.002295313806508718 -0.00011890111661630589 0.0
0.002358481817222624 -0.00012808660194504705 0.0
0.0022950691832797406 -0.00013616796379642106 0.0
0.0023560537983320527 -0.00014584035780581406 0.0
0.0022906020711649312 -0.00015286844116872174 0.0
0.0023529923488078666 -0.00016370537669337226 0.0
0.002274019919616518 -0.00017095498696043896 0.0
0.00235421034608252 -0.00018216697617034984 0.0
0.0022877422468963126 -0.00019062743181698033 0.0
0.002351505269294655 -0.00020071315751780318 0.0
0.002288755415626786 -0.00020969622526382175 0.0
0.002349874109678607 -0.0002198234029083379 0.0
0.0022915257522962344 -0.00022898678031883858 0.0
0.0023480067615023526 -0.00023927279478441028 0.0
0.0022912988924207694 -0.0002489929362981258 0.0
0.002221328535333167 1.9445747306675903e-5 0.0
0.0023461247080514133 -0.0002592996108318064 0.0
0.0022277347067003674 -7.371240580035831e-5 0.0
0.002215054914897629 -0.00018532864968983138 0.0
0.0022864497909110787 -0.0002692481548515155 0.0
0.0023438216658184805 -0.0002798873743803198 0.0
0.0022817241507350943 -0.000290823324374667 0.0
0.0022252091270111374 -0.00027818380723542574 0.0
0.002219055431887506 -0.0003008497046769402 0.0
0.0023392377440950448 -0.00030232509151925744 0.0
0.002402043293583531 -0.00029058814289281915 0.0
0.002411825109976572 -0.00019100846405240653 0.0
0.0023977849262731853 -0.000313695028428693 0.0
0.0024643069717179148 -0.0002997293514176924 0.0
0.002457856227750322 -0.00032498357756009544 0.0
0.0021630954036044063 -0.0002875950034320112 0.0
0.0021592259165524983 -0.00030988300876702416 0.0
0.0025263123837022086 -0.00030976168062227434 0.0
0.0020996857913757935 -0.0002958829668780517 0.0
0.002099497098344386 -0.0003193344477648033 0.0
0.0025209527970149474 -0.0003353425664396298 0.0
0.0025871446119758606 -0.0003212863478403476 0.0
0.002035861065147221 -0.0003043642670303672 0.0
0.0020342012582524995 -0.0003285904952215603 0.0
0.002583184353858605 -0.00034674861036623175 0.0
0.0026510842092869707 -0.0003318352010044638 0.0
0.001972309200439743 -0.00031288911837452747 0.0
0.0019700935909672222 -0.0003386468731783416 0.0
0.002646950603671757 -0.0003586629838785026 0.0
0.002716494547842184 -0.00034225637583067283 0.0
0.0019092048190916479 -0.00032013096166319966 0.0
0.0019027647064659503 -0.0003467723506444698 0.0
0.00271321516080878 -0.00036982396786073467 0.0
0.0027829637961866265 -0.0003524762964709253 0.0
0.0018398198990724536 -0.00032744929859973695 0.0
0.0018350233663504422 -0.0003557274403441973 0.0
0.0017685188915336956 -0.00033656810674956484 0.0
0.0017728697277099234 -0.0003066201205847268 0.0
0.002637162491601259 -0.00038518387353062423 0.0
0.0027793718187034415 -0.0003811789023321542 0.0
0.002850339686744574 -0.0003625596309972336 0.0
0.0028550995810656863 -0.00033315328262370004 0.0
0.002426273182658401 -0.00010250546484601867 0.0
0.0029249994123911175 -0.00034272389336303493 0.0
0.002930365360163472 -0.00031226672781912876 0.0
0.00300228833898333 -0.0003208961192258977 0.0
0.0017692411616369878 -0.0003672295929595431 0.0
0.0016997718762595516 -0.0003448139358785892 0.0
0.0018344425292307032 -0.00038619918085808886 0.0
0.0028447330535307127 -0.00039282153102899894 0.0
0.0017012601470923418 -0.0003763957204968482 0.0
0.0016310263234811614 -0.00035225288417859183 0.0
0.002454797749503242 -2.856905904066904e-5 0.0
0.0016321611585130946 -0.00038329903060428655 0.0
0.0015621090958845936 -0.0003587630860701218 0.0
0.001563366676534943 -0.0003906878707433237 0.0
0.0014942824697169756 -0.0003638251264961832 0.0
0.0014914852258901194 -0.00033271045522987073 0.0
0.0014197339878508246 -0.0003386865792930203 0.0
0.0014179222610260455 -0.00030582046335795687 0.0
0.0014872554422810354 -0.0003955861842356831 0.0
0.0013410093001954763 -0.0003122362355670892 0.0
0.0013385806718645614 -0.0002785895733514492 0.0
0.001565056327888546 -0.00042457268503738306 0.0
0.0015002602845368771 -0.0004320858330780181 0.0
0.0012635551870780297 -0.0002823790042399807 0.0
0.0012585933261929074 -0.0002496823185685478 0.0
0.0030097191376513483 -0.000290121614769024 0.0
0.003084305760576222 -0.00029837975809441963 0.0
0.001566443602214647 -0.0004589877088535775 0.0
0.001502336028428973 -0.0004663658042147926 0.0
0.0030926019089802647 -0.0002667171713893033 0.0
0.0031705602708641217 -0.0002752924109522397 0.0
0.003159153786864075 -0.00031002844357415024 0.0
0.003245728774504704 -0.0002850810695295236 0.0
0.0032358675467496654 -0.0003207319539651776 0.0
0.0033223213778408437 -0.0002930644585605879 0.0
0.0033169581288287255 -0.0003285651624857929 0.0
0.003406041139563754 -0.000297303114754879 0.0
0.0033933263777987267 -0.0003335892957510026 0.0
0.003411415921054357 -0.00026331058950480364 0.0
0.0034836748369994975 -0.00030296047090743995 0.0
0.003466439601929807 -0.0003391480517760629 0.0
0.0015684246516713542 -0.0004941219028645658 0.0
0.0011797007749785302 -0.0002527023218395186 0.0
0.0011732639255950898 -0.0002196135730318255 0.0
0.0033836502540881596 -0.0003709454056410493 0.0
0.003454206115012048 -0.00037605308195605864 0.0
0.003535598601690882 -0.0003437994459580005 0.0
0.003377369418677833 -0.0004093329152766566 0.0
0.0015057116734318759 -0.0005017736497632317 0.0
0.003523830338977246 -0.00038031437708221043 0.0
0.0036032520871375623 -0.00034718432079976365 0.0
0.0015701077612800406 -0.000530320009432295 0.0
0.0015084765696247659 -0.0005382607928642851 0.0
0.0014451203804059201 -0.0005085347064086739 0.0
0.003591078363071187 -0.0003833406158724886 0.0
0.003669301781970671 -0.0003489198863393498 0.0
0.0015714678485687873 -0.0005676832615900444 0.0
0.0016324967191451414 -0.0005592269682399792 0.0
0.0014484906446993536 -0.0005453571437569714 0.0
0.0013857349908882124 -0.0005146232894747857 0.0
0.003654929568773862 -0.0003853035332534237 0.0
0.003734793849398022 -0.00034949000904169143 0.0
0.003748309973319209 -0.00031417633713538596 0.0
0.003576400411354223 -0.00042130384894915304 0.0
0.003813752793725377 -0.0003134549413413882 0.0
0.003829564867189213 -0.00027900321651406107 0.0
0.001089783075922931 -0.00022252801293364577 0.0
0.0010878264943079204 -0.00018849235313762606 0.0
0.0011878325421118153 -0.0001874269768568042 0.0
0.0010827197586041873 -0.0001553336132268675 0.0
0.0011784729427247052 -0.0001494661024998214 0.0
0.001076570614139365 -0.00012094066688526396 0.0
0.0011694928715671087 -0.00011340121257291924 0.0
0.0016336674331373139 -0.0005969606492660655 0.0
0.001693254210264722 -0.0005877993112664014 0.0
0.001389398692250673 -0.0005517661614861134 0.0
0.001327250519758433 -0.0005199340912673802 0.0
0.00379936013878617 -0.00034884322461992324 0.0
0.0010803717193191382 -8.684728382968373e-5 0.0
0.001168097551721477 -7.783230967424761e-5 0.0
0.0016944393690853483 -0.0006255721016252097 0.0
0.0017526671464351993 -0.0006162176645766206 0.0
0.0020435482844764685 -0.00035208580790711043 0.0
0.003877352291988343 -0.0003115966163825778 0.0
0.0024980396397696154 5.796324367425016e-5 0.0
0.0025991280568307133 0.00017202066918535245 0.0
0.0022293427972994878 -0.00012659371441558999 0.0
0.0031754647390040244 -0.00024288126557945146 0.0
0.0010712956886421063 -5.079153321567036e-5 0.0
0.001173539954461168 -4.0982322194745996e-5 0.0
0.0013313788552237436 -0.0005573628191348668 0.0
0.0012701513121915508 -0.0005246785095722367 0.0
0.0017546685279746178 -0.0006541613903291989 0.0
0.0018124572530829484 -0.0006444116361866394 0.0
0.003861464996626743 -0.0003465686277986254 0.0
0.0010012151673675245 -0.00019151798708903872 0.0
0.0010056919397450114 -0.00022584160886711244 0.0
0.000969891324304336 -9.210992208387824e-5 0.0
0.003938818512143704 -0.0003082558621220829 0.0
0.0010695967307886743 -1.626024900281089e-5 0.0
0.0011723733080506902 -3.267068954421728e-6 0.0
0.0016972081630839992 -0.0006645308586781149 0.0
0.0012750168854165397 -0.0005626059038973985 0.0
0.0012141497327305367 -0.0005285120261689163 0.0
0.0030979172385272604 -0.00023501042701131215 0.0
0.0031844102526307682 -0.00021025513026365553 0.0
0.003102347209936779 -0.00020253163752234485 0.0
0.0031936899657068383 -0.00017754344378674238 0.0
0.0018136244718211087 -0.0006822235933398115 0.0
0.0018719831425972507 -0.000671042684365165 0.0
0.001977190309355539 -0.0002898812819458224 0.0
0.0010676144397456695 1.7507265666702274e-5 0.0
0.0011677528954362085 3.335826548848451e-5 0.0
0.003923380276692094 -0.0003420454255138265 0.0
0.003853692148096359 -0.0003776456240047002 0.0
0.0010434110387288528 5.334701243669649e-5 0.0
0.0011594505323152626 7.115028969949349e-5 0.0
0.003997906509586631 -0.0003037990530752649 0.0
0.0040057297315601315 -0.00027813230581641245 0.0
0.0010542008221005787 8.793702948790681e-5 0.0
0.0013340858362804093 -0.0005990890006871056 0.0
0.0018721475853892232 -0.0007099016649113906 0.0
0.0019301306017995604 -0.0006971228167500638 0.0
0.0019307542762099271 -0.0006586447033332068 0.0
0.001988863450518432 -0.0006838145068287369 0.0
0.0019900012701967646 -0.000645848980041496 0.0
0.002048422488470871 -0.0006699960103933331 0.0
0.0020498457905486537 -0.0006320599639506025 0.0
0.0021091707922236912 -0.0006555165521450293 0.0
0.0021110296525980758 -0.0006178488473214937 0.0
0.0021708386175359725 -0.0006402436466869618 0.0
0.00216892395958643 -0.0006788863207596701 0.0
0.002230311063610162 -0.0006626392553083627 0.0
0.0022280695967827687 -0.0007018854862364765 0.0
0.0022891756007157155 -0.0006846337797270672 0.0
0.002286234625659437 -0.000724541951661806 0.0
0.002347824302550166 -0.0007061759688141353 0.0
0.0021733068595742727 -0.0006029725754357942 0.0
0.0023506889579201647 -0.0006665201870226665 0.0
0.0024100803471995185 -0.0006868544317774269 0.0
0.0024063993942934564 -0.000727827820450815 0.0
0.0024693719914298394 -0.000707516900324548 0.0
0.0009154996951494816 -0.00019340924724697543 0.0
0.0009193853807644296 -0.00022749492941888727 0.0
0.0012193526905478853 -0.0005665561819890623 0.0
0.0011597313483673252 -0.0005318488296759801 0.0
0.002473636025518916 -0.0006669766928837256 0.0
0.0025328244166019274 -0.000686160738903432 0.0
0.002527770387480748 -0.0007275185214400898 0.0
0.0025922709525289848 -0.0007048748414484189 0.0
0.0008316168467516581 -0.00019414624208419256 0.0
0.0008354299948482587 -0.00022742440603529165 0.0
0.003107393597696455 -0.00016883951040723427 0.0
0.0032046233896031646 -0.00014400537422054125 0.0
0.0031155337825802256 -0.00013515658175362405 0.0
0.0039842653450513415 -0.0003350869720488983 0.0
0.004055674675080768 -0.00029730802717874036 0.0
0.0019299964342502183 -0.0007371634458796779 0.0
0.0012791569193359503 -7.455239782851789e-5 0.0
0.0024557926160621996 -0.0003483577003219621 0.0
0.002586346683097989 -0.0007469300550528335 0.0
0.002650957781763459 -0.000723111731009989 0.0
0.0026555551171187153 -0.0006811225626138441 0.0
0.002715347664283184 -0.0006978021222354354 0.0
0.0025944757498129103 -0.0002943963087334251 0.0
0.0032208558070599136 -0.00010953866200025281 0.0
0.0033034489437981053 -0.00012447076883180712 0.0
0.0011597681891152604 0.00010914677862237507 0.0
0.0011646594136860758 -0.0005695625613511814 0.0
0.0011062255529763205 -0.0005341083189965216 0.0
0.003126291234810739 -0.00010026233634917756 0.0
0.0027092717481319367 -0.0007408809346733461 0.0
0.0027747150946613825 -0.0007150979670501381 0.0
0.0027806009792714923 -0.0006721147607818731 0.0
0.002841331259479108 -0.0006885720677656438 0.0
0.0028485109812131865 -0.0006467688009970913 0.0
0.0029082877892452185 -0.0006611202127117773 0.0
0.0028998967106217384 -0.0007033212437183951 0.0
0.002966233223215262 -0.0006743905460872807 0.0
0.0010492054681104808 0.00012018968943452887 0.0
0.0007503160172214412 -0.000193473675206454 0.0
0.0007535824445148615 -0.00022533570913219585 0.0
0.001873714714651504 -0.0007503325741442376 0.0
0.0040395035100765616 -0.00032956048693950365 0.0
0.004110833129620884 -0.0002895708020017405 0.0
0.0029564104375515107 -0.0007167008686075205 0.0
0.0030219527238606525 -0.0006865706861292982 0.0
0.0011605385530051534 0.00014522223491817324 0.0
0.00111183040973889 -0.0005719082786311895 0.0
0.0010534038165523575 -0.0005350481175470399 0.0
0.0012701015705146328 4.925274829053474e-5 0.0
0.003714877783343803 0.00014739684503205173 0.0
0.0019298630154485404 -0.0007782641162564616 0.0
0.001045481507975803 0.00014951531029828673 0.0
0.0009750383901938818 2.236339918951268e-6 0.0
0.004088483077717608 -0.00032923231132983306 0.0
0.00416398362709237 -0.0002812063445959334 0.0
0.004181677445791631 -0.0002497347593050528 0.0
0.0009412210138554299 9.647706307323902e-5 0.0
0.004013035497296588 -0.00036720844210424454 0.0
0.0007417166003418294 -0.00016212111997754763 0.0
0.0011651993790114802 -0.0006056413363593368 0.0
0.0032365846847217496 -7.405440353547314e-5 0.0
0.003138910794333499 -6.420724330411566e-5 0.0
0.002917033913007487 -0.000620072564680792 0.0
0.0010596054870488031 -0.0005737307031591633 0.0
0.0010013328395510775 -0.0005357496980742201 0.0
0.0006714630023699165 -0.0001911517968075147 0.0
0.0006740831980922863 -0.00022107596077621308 0.0
0.001265685710895884 -0.0004888684835514974 0.0
0.003010777587146883 -0.0007288749789492703 0.0
0.003075663822588168 -0.0006972485672214759 0.0
0.0009949703085448411 -0.0004978493353744152 0.0
0.0009427236761398044 -0.0004974401004421287 0.0
0.0029493182007241537 -0.0007570299145459502 0.0
0.001875613205522443 -0.0007918236706107954 0.0
0.0009501206967425597 -0.0005359224699209908 0.0
0.0008917573808847589 -0.000496516380942893 0.0
0.0019899201071073413 -0.000609646204805246 0.0
0.0042349020835907155 -0.0002394367345125093 0.0
0.004252861806550872 -0.00021098894720769849 0.0
0.004217919172647865 -0.00026940230777301483 0.0
0.003062909459882888 -0.0007389762513094645 0.0
0.0031275383189610802 -0.0007062727185443114 0.0
0.002855300421838756 -0.0006060524416366392 0.0
0.002925215427410218 -0.0005802272021288176 0.0
0.0019302741140260781 -0.0008202398739203272 0.0
0.0031406679446837876 -0.0006651024528631141 0.0
0.0031929090635519903 -0.000673727670687717 0.0
0.0005939240211780379 -0.00018590534302020465 0.0
0.00059963769735609 -0.00021492827613033453 0.0
0.0031791393812621986 -0.0007156437502153105 0.0
0.00324344146456564 -0.000682123502644899 0.0
0.0009008435516317298 -0.0005356288004107411 0.0
0.0008424323752895202 -0.0004950328086401237 0.0
0.0032526346444802625 -3.747371466411135e-5 0.0
0.0031540220530427714 -2.702141200455706e-5 0.0
0.0008327118339959726 -0.000457693770023404 0.0
0.0007832441648117335 -0.00045464490730873897 0.0
0.0007926333026372115 -0.0004925227633113205 0.0
0.0007338071621156931 -0.0004509804416428434 0.0
0.004286176010572967 -0.00022759739724135776 0.0
0.004268693169129551 -0.00025718584158414504 0.0
0.0011558771881019865 0.0001754761657753643 0.0
0.0010311548904069609 0.0001738250570225865 0.0
0.003025957208678978 -0.00012491506096008363 0.0
0.0018773949265339948 -0.0008341576443201572 0.0
0.003229449400512386 -0.0007251820203737805 0.0
0.003292376470072941 -0.0006902938389307356 0.0
0.003424578526351405 0.00018449826362295317 0.0
0.003206732940119379 -0.0006326154636573831 0.0
0.002226004574868312 -0.000742323302593942 0.0
0.0007227512966805287 -0.00041493100539102926 0.0
0.0006748371723973517 -0.0004094309122475562 0.0
0.0006861088997149587 -0.0004468128535451445 0.0
0.0006270310071780711 -0.00040367624774146504 0.0
0.0006157509764066283 -0.00036837085159465815 0.0
0.0005665519106785626 -0.0003612252246572223 0.0
0.0005549037113316057 -0.00032663389005115626 0.0
0.0005050888703993366 -0.00031774649158781515 0.0
0.000493496550223036 -0.00028526839500803256 0.0
0.000446562536693741 -0.00027560046471663624 0.0
0.0004341867580009587 -0.00024559363474840575 0.0
0.00045723201556252584 -0.00030703684148467866 0.0
0.00039381639420001276 -0.00025815953187235377 0.0
0.0005218962338727956 -0.0001792082914416708 0.0
0.0005206682066291721 -0.0001533724334444959 0.0
0.0004101079760889151 -0.0002947150351133703 0.0
0.00035222074008782163 -0.00024963869445528944 0.0
0.00127117959618943 0.00016841819802279013 0.0
0.0014026116527028616 -0.00027015308466566665 0.0
0.0028624944360884676 -0.0005668175502382156 0.0
0.0029324188270982068 -0.0005416997418969273 0.0
0.0008341006245243822 -0.00025891161794609844 0.0
0.001930576239070826 -0.0008632723029643914 0.0
0.00198389824533499 -0.0008486353712883861 0.0
0.0029955474835989195 -0.0005538194643247774 0.0
0.0030032093842376653 -0.000515532116481807 0.0
0.004335350644993326 -0.0002141366166246719 0.0
0.004314868354537955 -0.00024468956621176365 0.0
0.004249964760282159 -0.0002905063469231013 0.0
0.003039807792451699 -5.411035921387584e-5 0.0
0.003053961811506096 -1.6835012163433567e-5 0.0
0.0018231852313251333 -0.0008048186566913509 0.0
0.0018252186092506814 -0.0008472609186233514 0.0
0.0017718418515841332 -0.0008174147020690986 0.0
0.0006407544340507113 -0.0004420723770023372 0.0
0.0031705520647880726 1.1331328161598936e-5 0.0
0.0030698766598457926 2.2636918282301945e-5 0.0
0.0012646622483143315 -0.00031763013665863244 0.0
0.003277165325813667 -0.0007341997580698963 0.0
0.003340186073626859 -0.0006980827110795999 0.0
0.0033560081544365215 -0.000655746713457675 0.0
0.0034034330440046385 -0.0006622356640633932 0.0
0.0011799537008313314 0.00020373495931617582 0.0
0.0010310988255945192 0.00019568749147462594 0.0
0.0017496731457843945 -0.0005799238069138674 0.0
0.0032156635293872984 -0.0007699596612243952 0.0
0.00394424616234152 0.00014924053280028496 0.0
0.003386847380176798 -0.000706696836439387 0.0
0.003450466624392783 -0.00066944278610712 0.0
0.0034669351389639944 -0.0006260318565889377 0.0
0.0035144857824361744 -0.0006320416175863298 0.0
0.003531826100411939 -0.0005890912472079425 0.0
0.0035787042076118403 -0.0005940889106865794 0.0
0.0035607474971183456 -0.0006385290892022463 0.0
0.0036241545160166735 -0.0005994371719290983 0.0
0.00036517361425044727 -0.0002793670047870445 0.0
0.0003089217174610901 -0.00023371069824328305 0.0
0.00028901766862296453 -0.0002017683441497075 0.0
0.001984021302230649 -0.0008922159315025188 0.0
0.0020351840550246036 -0.0008787433733487989 0.0
0.0017745562429466988 -0.0008600340438212048 0.0
0.0017214003847256093 -0.0008292691348622401 0.0
0.00429332823940306 -0.00027971907656625247 0.0
0.00435709323490851 -0.00023227312666262813 0.0
0.0033773655251190635 0.0002111757264483445 0.0
0.003287806215231992 0.00019952071072362482 0.0
0.0008968397977578331 0.0001650184372535632 0.0
0.0008938317323240822 0.00018386531693135688 0.0
0.00042381408178267027 -0.0003293246990921051 0.0
0.0016322399639432735 -0.00045091490078424614 0.0
0.0030022563044853085 -0.00019703711148570647 0.0
0.004230280927162893 -0.0003276234985123659 0.0
0.001266973586663231 -0.00013679839417648669 0.0
0.0029405021157802164 -4.45618939862305e-5 0.0
0.0036043629274177713 -0.0006456069930618718 0.0
0.0036675115183251814 -0.0006052316260889395 0.0
0.0035975829403232765 0.00013249848479657337 0.0
0.003761728174850619 0.00011488553821540304 0.0
0.0011597354240187548 0.00022250088573827335 0.0
0.0006760095051205434 -0.0002508351763311328 0.0
0.00044083369736038126 -0.00014439138466364217 0.0
0.0004411634652460011 -0.00012105606697503072 0.0
0.0006973560396570008 -0.00048611262566005965 0.0
0.003437001424927176 -0.0007156500237498915 0.0
0.002771633380182284 -0.0004106065663077148 0.0
0.0025235557425167298 -0.0007702188272700263 0.0
0.0015759174020978195 -0.0006044183114857475 0.0
0.0003219770243822964 -0.00026269134942449033 0.0
0.0002678174436784532 -0.00021626530839063542 0.0
0.0009590658101686086 -0.0005763363889567267 0.0
0.0030671832477206047 -0.0005264627846232239 0.0
0.0030753586737194793 -0.0004886304775626459 0.0
0.0018253005399733587 -0.000891382304650306 0.0
0.0036685421854753164 9.550247415157825e-5 0.0
0.0038091663901436692 8.265647223892279e-5 0.0
0.0037219562125758465 6.028523992291713e-5 0.0
0.0038584417209869947 5.0199326195981106e-5 0.0
0.003942725855649331 7.033571495734906e-5 0.0
0.0039911583805340295 4.105919442405439e-5 0.0
0.003905787102990098 1.8133158303003024e-5 0.0
0.004034354301022252 1.2533048694124044e-5 0.0
0.003949900824830687 -1.2241150671724538e-5 0.0
0.00407611064738689 -1.3968673366540404e-5 0.0
0.003994058100941399 -4.084509630581956e-5 0.0
0.0041151231371044 -3.819279743156653e-5 0.0
0.004035613606804533 -6.733158377194717e-5 0.0
0.0041526511641379335 -6.0255212379151305e-5 0.0
0.003909593362442819 -7.278925063139152e-5 0.0
0.004075484999406536 -9.071002529789212e-5 0.0
0.004185595178251172 -8.052994319587706e-5 0.0
0.004077146833372818 5.737383097422988e-5 0.0
0.0009341744046400414 -0.00046012807468783114 0.0
0.0009110098636944079 -0.0005765034552653816 0.0
0.0009670674963625448 -0.0006176802829006479 0.0
0.004113796426544523 -0.00011162652400713031 0.0
0.004218359072002096 -9.8018089240376e-5 0.0
0.004009302909157489 -0.00012281512529133007 0.0
0.00258026025061542 -0.0007901201278389127 0.0
0.002518073126843806 -0.0008135951015565585 0.0
0.002573659653824757 -0.0008339760189277723 0.0
0.0025131284273198226 -0.000857894066098045 0.0
0.002567035004077356 -0.0008786675197324238 0.0
0.002508789957971164 -0.0009030402497402826 0.0
0.0024548687479281806 -0.0008814578734168422 0.0
0.00245154325468948 -0.0009266481710088158 0.0
0.002399072489973622 -0.000904061592308433 0.0
0.0021777095495740207 9.543351335471307e-5 0.0
0.0025608062553012915 -0.0009244312065596019 0.0
0.0026183069246242074 -0.0008987547259758798 0.0
0.002151846110918722 -0.0003342593214368362 0.0
0.0021126756854168123 -0.000581484172269035 0.0
0.0021756982403412055 -0.0005670130504050076 0.0
0.0021142793820240658 -0.0005463666188730309 0.0
0.0021779938814933094 -0.0005323643002481251 0.0
0.0021159131169046267 -0.0005125471878782333 0.0
0.0021802509963260693 -0.0004990800861840656 0.0
0.0022425569941767125 -0.0005178975271885521 0.0
0.002245328484701233 -0.0004851779648493611 0.0
0.0023078557327373224 -0.0005030336449422083 0.0
0.002310947705816331 -0.0004708492814100306 0.0
0.0023709395613796627 -0.000487651625650528 0.0
0.0022482130346091205 -0.00045284678475545807 0.0
0.002117599609303407 -0.00047998565890087396 0.0
0.002053042222905714 -0.0004925657918888118 0.0
0.0023672970390671297 -0.0005211796243166069 0.0
0.0024336015086464297 -0.0005028187316491327 0.0
0.000920944720537467 -0.0006183978976124027 0.0
0.0022285570040823034 -0.00021898274578308497 0.0
0.002226178554834086 -2.1776326793345117e-5 0.0
0.002537934822418545 -0.000646428677129089 0.0
0.004353256955966889 -0.00018789119166282998 0.0
0.004399879706008735 -0.0001738048981196084 0.0
0.0024422413294246906 -6.540277263252994e-5 0.0
0.002420778241308976 -0.000134662707210726 0.0
0.003482878336527757 -0.0005843222644985722 0.0
0.0029901079043232986 -0.0003524665579490356 0.0
0.004336548979099144 -0.0002660375802054464 0.0
0.004396838994315281 -0.00021887204897140611 0.0
0.0024103118621376096 -0.00023015019116867424 0.0
0.0017245595150531625 -0.0008723097053440855 0.0
0.0016716835000707528 -0.0008407459147338818 0.0
0.0024746231285783823 1.0678350783696744e-5 0.0
0.00239569211350663 -0.0009494583035100683 0.0
0.002343164528961632 -0.0009240897535031139 0.0
0.0016686168574067343 -0.0007981943850152991 0.0
0.0016184234147931101 -0.0008089192388948834 0.0
0.0016151420028480338 -0.0007667883523182185 0.0
0.0015647374876237544 -0.0007766402501801641 0.0
0.0015689417820337558 -0.0008193058181601899 0.0
0.0015154987877214728 -0.0007861172131763787 0.0
0.0015201246355217115 -0.0008292656813232303 0.0
0.0014667661710164085 -0.0007952436074676696 0.0
0.0006548036154428433 -0.00048239240645926517 0.0
0.00441795884482436 -0.0001503455268642263 0.0
0.003186710369691001 5.100800420377605e-5 0.0
0.0030833864209281305 6.154329713614867e-5 0.0
0.0014448573488997387 -0.00043976960138141034 0.0
0.0011605934729860916 -0.0004953200061411688 0.0
0.004255282973774113 -5.531573889819019e-5 0.0
0.0041983928834873965 -1.640705198870998e-5 0.0
0.002034291921708547 -0.0009219867063338037 0.0
0.0020867550794295094 -0.0009071319674640236 0.0
0.003261431330880965 -0.0007799343288935324 0.0
0.0006084796274636105 -0.00033424387234477 0.0
0.0027210271547787367 -0.0003160486001074553 0.0
0.0029698677430164957 3.258281200073931e-5 0.0
0.002982085701676441 7.141407099355869e-5 0.0
0.003549673166155295 -0.0005479118934284993 0.0
0.0036143154097427487 -0.00031166485664148026 0.0
0.0036879902884410214 -0.0005607394923013706 0.0
0.003732037306619999 -0.0005643268669730931 0.0
0.0037089747344872842 -0.0006118578912904866 0.0
0.003774311802077376 -0.0005690568078547462 0.0
0.002110261846603912 -0.00027383556069745 0.0
0.0007083055590534608 -0.0005265909113399572 0.0
0.002370480705583933 -0.0004550937626086056 0.0
0.0038206788816532397 -1.2176079105977631e-5 0.0
0.0020464419336611883 -0.000836400506630211 0.0
0.000974282856314037 -0.0006596693888329503 0.0
0.0010206439219654661 -0.0006586990572699396 0.0
0.0032016580998679603 -0.0008160935181089106 0.0
0.001560492192821418 -0.0007352631636769314 0.0
0.002868894290334104 -0.0005290508538291827 0.0
0.0027992773140249195 -0.0005527198958798832 0.0
0.004376129455638984 -0.00025268450416195706 0.0
0.004435922424568131 -0.00020331245754869062 0.0
0.00445446797523903 -0.00017532947008311878 0.0
0.001301536413880246 0.00023123438276683692 0.0
0.00028104708872530936 -0.00024383233377702978 0.0
0.00022810410319863377 -0.0001957093597947242 0.0
0.000220526217433661 -0.00017516361128679236 0.0
0.003243838686769763 0.0002231813050347289 0.0
0.00332673624760492 0.00022818348850437778 0.0
0.0031567942699070495 0.00021160813752127205 0.0
0.003352085689475123 -4.80993361999806e-5 0.0
0.004151237979049272 -0.000128147639398095 0.0
0.0042535917128639624 -0.00011152090670906207 0.0
0.001675404161636257 -0.000884334856865993 0.0
0.0032845008025284015 -0.0001850985014625371 0.0
0.0007570120026974193 0.00015125940277757483 0.0
0.0007461217910933095 0.00016591089582948027 0.0
0.0008916394195989288 0.00019969568966989355 0.0
0.0007304792080260714 0.00017749846811961778 0.0
0.0009351407906965754 0.00022350334358309332 0.0
0.002341129640911069 -0.0008779679244622212 0.0
0.0014609962389025928 -0.0007528037662197908 0.0
0.0014135508866276658 -0.0007611339082068732 0.0
0.0014190448092296394 -0.0008040910905683026 0.0
0.0013664189392686285 -0.0007692625601897807 0.0
0.0037954892431211673 -0.0005237001939906053 0.0
0.0038375825375209253 -0.0005273144846456924 0.0
0.0038162823358855492 -0.0005742415809490715 0.0
0.0038779786771883113 -0.0005313471649782207 0.0
0.003009755879847302 -0.000478069716381139 0.0
0.0030828798014690254 -0.00045208036772610276 0.0
0.0026113239627267816 -0.0009446230447769856 0.0
0.0026675381272644083 -0.000917699608363325 0.0
0.0020543782237651877 -0.0004603665546372777 0.0
0.0019894677934184516 -0.00047217632175185106 0.0
0.0019771972176960448 -0.0009380697152967825 0.0
0.001371983768531259 -0.0008119663239427055 0.0
0.0013203920906640746 -0.0007768517649849432 0.0
0.004186300429863721 -0.00033723291499602537 0.0
0.004165904973117989 -0.00037694417874334314 0.0
0.004123535737609492 -0.0003844888734113982 0.0
0.00410862116811896 -0.0004221523818129417 0.0
0.0020853159142648204 -0.0009538550576842134 0.0
0.0003304676249828143 -0.00029089295616999594 0.0
0.0004852075381938674 -0.0002559143541147196 0.0
0.00041890133053400995 -0.00021596829392361367 0.0
0.0003584731034144775 -0.0001110938579836734 0.0
0.00035455003291326383 -9.0314910280466e-5 0.0
0.0004424288708728608 -9.790659219607734e-5 0.0
0.0003525853640023609 -7.030380144730019e-5 0.0
0.000443856152546614 -7.459453336490741e-5 0.0
0.0003510665564512921 -5.0699281888717863e-5 0.0
0.0004468698421003182 -5.137048270760434e-5 0.0
0.004208511415931566 -0.0003680780517194767 0.0
0.0013586843541763072 -0.0007276274688952935 0.0
0.0034990861492497478 -0.0005449111487050483 0.0
0.003155309448368143 -0.0008036643764253075 0.0
0.003142577303946206 -0.0008519643126464574 0.0
0.003097057918881313 -0.0008390065608839302 0.0
0.0023410735335329183 -0.0009707227474487303 0.0
0.003267555036758067 3.572477922797489e-5 0.0
0.0038567645372513575 -0.0005797024509946849 0.0
0.004493284503515314 -0.00015738472857814093 0.0
0.0044736034915412734 -0.00018587868607268063 0.0
0.0012792792499214322 0.00024280992135523812 0.0
0.003176421074479686 8.721385775134872e-5 0.0
0.00247760787061809 -0.0006280838886345146 0.0
0.002541418773484322 -0.0006081563556560119 0.0
0.0024500307292750377 -0.0009733956413384284 0.0
0.0022890990310519164 -0.0009441672177264468 0.0
0.0010171966834137197 -0.0002651473418438026 0.0
0.00431639166655026 -8.387707832093506e-5 0.0
0.004349060220751571 -9.370004001392421e-5 0.0
0.004285399816543625 -0.00012259938530655734 0.0
0.004376918578408325 -0.000102492555195731 0.0
0.003638943271585885 -0.0004224924506805326 0.0
0.0027616594645814446 -0.0007599467014918578 0.0
0.002804950660634218 -0.0005159412037301334 0.0
0.002049407212288008 -0.0007096044029156069 0.0
0.0029328516936781247 -0.00028201918387025344 0.0
0.003139755254678351 -0.0004985834941700728 0.0
0.003153337626163903 -0.000625272385748716 0.0
0.0032203250565542643 -0.0005930795564895271 0.0
0.0031872299199282228 0.00023538874578554503 0.0
0.0032880387968273563 0.00023419300927049537 0.0
0.0010269050703290467 -0.0007010181355948354 0.0
0.0010712939486059697 -0.0006987252484099372 0.0
0.00035024297241614485 -3.128906739995594e-5 0.0
0.0004464569285010184 -2.8384073904527627e-5 0.0
0.0005457625685419763 -4.924813030059948e-5 0.0
0.0005486990861993406 -2.229366309809083e-5 0.0
0.0004484935561075877 -6.090779829688529e-6 0.0
0.0005553339085250982 3.987607490755e-6 0.0
0.00045239989904771825 1.536007791892417e-5 0.0
0.0005650330234837725 2.985866272189736e-5 0.0
0.0004561641423345734 3.598061063787954e-5 0.0
0.00024199133035378555 -0.00022285187362112562 0.0
0.002735517267678317 -0.0005381609233470424 0.0
0.00019082422448872424 -0.0001739678761033843 0.0
0.0009302373457658256 -0.0006609862770261923 0.0
0.00446510769775295 -0.00013420865520983889 0.0
0.0022364385018689347 -0.0005875340014538262 0.0
0.0028708700675363656 4.1957341324474135e-5 0.0
0.0028878370507301973 8.372491471424581e-5 0.0
0.0005732216412842371 5.521924433169886e-5 0.0
0.0006678632267548924 -0.0005237907392211158 0.0
0.0006152856919593634 -0.00047860691986628695 0.0
0.0014248468156042445 -0.0008553225771101349 0.0
0.003240503571067083 -0.000829838747760613 0.0
0.0017273108268858848 -0.0009166596531232266 0.0
0.00391758888690027 -0.0005352301226374468 0.0
0.004511830167499196 -0.00013325406658423153 0.0
0.0019884636143304235 -0.0005050030669832214 0.0
0.0019252105842174996 -0.0004835131457649722 0.0
0.0019243345360725856 -0.0005170814236942458 0.0
0.0014051410890556007 0.00024724049486012035 0.0
0.0018647307058756953 -0.000494596762255286 0.0
0.00036953857419204155 -0.0001344834766822586 0.0
0.0026592491682704607 -0.0009640423760158032 0.0
0.0027153222761977093 -0.0009356155218080857 0.0
0.002724375128836994 -0.0008901158855675372 0.0
0.0027714971022955513 -0.0009066874182399125 0.0
0.003274743896682971 -0.0005999639811571902 0.0
0.0032892054359180824 -0.0005600492817115441 0.0
0.0044814428271605115 -0.00011488836727179265 0.0
0.004432471109681958 -0.00013011704328799842 0.0
0.003016914080370534 0.0001163900327256329 0.0
0.0029085008568105904 0.00012935540082508124 0.0
0.0008780292489433124 -0.0006191932347397784 0.0
0.001326200407095476 -0.0008197806898009544 0.0
0.0012756142679051 -0.0007841929208831943 0.0
0.002331908139722272 -0.00032677323318566277 0.0
0.0037964272654824123 -0.0006238679743984237 0.0
0.0004611163594385425 5.583550942203272e-5 0.0
0.001268500907700829 -0.000741151683340933 0.0
0.0027611488107617743 -0.0009529155299236743 0.0
0.002816725976295701 -0.0009226527838343777 0.0
0.0027398434969009627 -0.0005031771354475559 0.0
0.0026715527381314217 -0.0005232120196193835 0.0
0.002675461811737934 -0.0004893446826517669 0.0
0.0024641518075769913 -0.00027854190118010096 0.0
0.0003616982392864084 -0.00020279729009667108 0.0
0.00020478174903418094 -0.00020001152840569894 0.0
0.0027819612330639534 -0.0008618881620743534 0.0
0.002840061334344369 -0.0004234401337566577 0.0
0.002287976767433658 -0.0009912579805269022 0.0
0.0009178803077967342 -0.00016020392788462082 0.0
0.001632289557166431 -0.0003237322665298572 0.0
0.0007192224696979966 -0.0005701025609703396 0.0
0.003939096905795321 -0.0004891501787173861 0.0
0.0009907192970744758 -0.0004613641295097985 0.0
0.0009262693289554825 -0.0004235385481576228 0.0
0.0009877356931908754 -0.00042525491537926785 0.0
0.0009207593166380556 -0.0003878989020187448 0.0
0.0009838971519960929 -0.0003896079555266714 0.0
0.0008588012327251386 -0.0003853983306352336 0.0
0.00308478601479537 -0.0008876100660194329 0.0
0.003043274810058089 -0.0008733892546185502 0.0
0.0006035298479911648 0.00012956599109284036 0.0
0.0023408188774467183 -0.0010175860033365132 0.0
0.0022829363598129504 -0.0007656536314292063 0.0
0.0022235503779286267 -0.0007837037526901274 0.0
0.0010782828702046586 -0.0007418294273072862 0.0
0.00028517955215802003 -9.941630808679562e-5 0.0
0.00030164891172823025 -0.00012453902748327142 0.0
0.004195387534944548 -0.0002218288232722687 0.0
0.004269120907526016 -0.00018481208674307124 0.0
0.00064920268848689 -4.3676424475274517e-5 0.0
0.0011220019815705597 -0.0007378817615150559 0.0
0.0011178901163159548 -0.0006981633711979874 0.0
0.0011289098990293327 -0.0007816152436997565 0.0
0.001035485703350353 -0.0007449358767945304 0.0
0.0007426980175438124 0.00019804588009902124 0.0
0.0017689826169265657 -0.0007759326657277107 0.0
0.002730205082859626 -0.0005755915986617052 0.0
0.00420682159717815 -0.00019558540754559004 0.0
0.0026041373276919667 -0.0009919480391599059 0.0
0.0016781313398425677 -0.0009293630365473103 0.0
0.004528379416600907 -0.0001395237027915465 0.0
0.004508096454251777 -0.000168569539441174 0.0
0.0014355694142992484 0.00023626994352149587 0.0
0.0012828248022995845 -0.000828346882994937 0.0
0.0030154191564542117 -0.0004405157682988084 0.0
0.0030948091130016202 -0.00041524124793245295 0.0
0.0004774702128012334 -0.00022748082887783351 0.0
0.0006287807177479964 -0.0005199122916783476 0.0
0.0005779355869952415 -0.0004746983311204638 0.0
0.0005633961826547003 -0.0004349270201459086 0.0
0.0008878989299783035 -0.0006621177346996114 0.0
0.0001552561371056973 -0.00015028362647348902 0.0
0.0001443339346179758 -0.0001306901921044189 0.0
0.002805290336820348 -0.0009700829056966409 0.0
0.0028601968582493624 -0.000938563478403951 0.0
0.0028704280776918746 -0.0008901742840014087 0.0
0.003859032777651555 -0.0004833679716188962 0.0
0.00381511879123578 -0.00048145559853165283 0.0
0.0038351105784935765 -0.0006312449434644798 0.0
0.0008523918748373199 -0.00035073412083377333 0.0
0.0007919360421537957 -0.0003486403550013268 0.0
0.0031604054835379504 -0.0004252073595325157 0.0
0.004435850730933147 -7.584715745601849e-5 0.0
0.004460259333504985 -8.206171387180002e-5 0.0
0.0044899042764031645 -0.00010033625414558832 0.0
0.00444297519951129 -0.00023029015801270992 0.0
0.0002553581701828798 -0.000252482348762997 0.0
0.0029258485809207442 -7.709732335847191e-5 0.0
0.0028338938084327228 -6.948650356794524e-5 0.0
0.002819529831402566 -9.815185111611467e-5 0.0
0.0027318549138425807 -9.186872060086238e-5 0.0
0.002723200261196751 -0.00011926243620096853 0.0
0.0027381403693480123 -6.506139397149557e-5 0.0
0.002481227053921192 -0.0005905982643893426 0.0
0.0019903527079757665 -0.0004406233635448407 0.0
0.002055917385188969 -0.0004293376360220197 0.0
0.0005914478727080488 -0.0005155524523244544 0.0
0.0005413513165246613 -0.0004689392035548853 0.0
0.00402399734871728 8.358160908377383e-5 0.0
0.004161302335648341 6.763329900859299e-5 0.0
0.004214843379839742 4.259382892769864e-5 0.0
0.00429671479921361 4.99990584012918e-5 0.0
0.004262745196827652 7.077738952357444e-5 0.0
0.002238510386106012 -0.0009650550189236025 0.0
0.002238751948480466 -0.0009205508916920935 0.0
0.002236394624279911 -0.001011236000564049 0.0
0.0027713203727932024 4.961461791393315e-5 0.0
0.002757154230261761 1.4282426376397982e-5 0.0
0.0006499257119825461 -7.375402062489003e-5 0.0
0.0003405364162323898 3.485102548304369e-5 0.0
0.0030286125736602235 -0.0009230117333264851 0.0
0.0007606065271067768 0.00013393240687615412 0.0
0.0030578802714776093 -0.000565149124027836 0.0
0.0028220405745119055 -0.0001257967142789679 0.0
0.002715174903243404 -0.00014596571715545892 0.0
0.002796316955929681 -0.00015521887455887992 0.0
0.0027068461768334435 -0.00017217906879920416 0.0
0.0027835405749341 -0.00018192001231951186 0.0
0.00269914239161613 -0.0001985258762864688 0.0
0.002773552292569738 -0.00020861048196310674 0.0
0.0026921090948458706 -0.0002252388090508649 0.0
0.0027676677305392646 -0.0002356058657457457 0.0
0.0026252178016149172 -0.00016227703061906282 0.0
0.002617277224406507 -0.0002145519027217135 0.0
0.0031287640647860143 -0.0009019763159153223 0.0
0.004538727493053244 -9.215407216073836e-5 0.0
0.0016124427614444359 -0.0007259948973926744 0.0
0.0015555865285676216 -0.0006959449028445447 0.0
0.004314518698944312 -0.00030482843203981553 0.0
0.001868489528285346 -0.0004662987113798423 0.0
0.002639613719648953 -0.00011080556364020987 0.0
0.0009228838683589327 0.00024588242565388546 0.0
0.00026915212450726814 -6.317281130643966e-5 0.0
0.0015393365258587358 0.00024981200354093043 0.0
0.0015587774014199187 0.00023739523922732006 0.0
0.0035228300656119983 0.00010180559171207167 0.0
0.004353180137752225 -0.000292333196319077 0.0
0.004294151308711809 -0.0003462764655028462 0.0
0.0018620372059861255 -0.0005284730513791035 0.0
0.0018083048061258158 -0.0005006033333408095 0.0
0.0007614175345252495 -0.0005375002964853315 0.0
0.00016932447404432497 -0.0001749279777248706 0.0
0.00021333098356067582 -8.397291871742801e-5 0.0
0.00021992413436109972 -0.00010066270008747597 0.0
0.00012106394792123153 -0.0001244102202551124 0.0
0.0032321724575277207 -0.0005539535691133072 0.0
0.0033025494239049633 -0.0005218317773416292 0.0
0.003360575989550898 -0.0005271742894334617 0.0
0.0033731406545587294 -0.0004887200973161666 0.0
0.002612403860821662 -0.0002399078790137648 0.0
0.0011007483850370384 0.00026077245654985965 0.0
0.0014040205455939936 0.00025382318156084825 0.0
0.0026077261827271965 -0.0005079383060954543 0.0
0.0026123068264300923 -0.0004743670320713421 0.0
0.0019927008668900875 -0.000411393137944307 0.0
0.0017007965042200362 -0.00040897465460965727 0.0
0.0017301024339641 -0.0009622778437261498 0.0
0.003543482752174306 -0.0006854361314327803 0.0
0.0035849653313854766 -0.0006944987435618901 0.0
0.0035267153942338475 -0.0007347999892478992 0.0
0.003566914540183984 -0.000746008181979047 0.0
0.003510474468880092 -0.000786444794513955 0.0
0.0034700003651581095 -0.0007749656375042687 0.0
0.003367255303799082 -0.0007612653220474302 0.0
0.0030496449818875663 -0.0008254303778061073 0.0
0.0031984277877114553 0.0001810529750239248 0.0
0.0024620049311939686 -0.0007928526900947343 0.0
0.0006711298352798938 1.7957552948110213e-5 0.0
0.004484238198172942 -0.000205166204870728 0.0
0.0045392670269045225 -0.00015085401772440792 0.0
0.0036244255683496904 -0.0007045446507781999 0.0
0.00360697325383614 -0.0007565312784392155 0.0
0.0036623575092789564 -0.0007152101511699653 0.0
0.0017776686380549514 -0.0009491651829888142 0.0
0.002167309966113814 -0.0007595647618329689 0.0
0.002166684377484583 -0.0008003281965175527 0.0
0.0022213134828811248 -0.0008259227308362655 0.0
0.0014579874570286844 -0.000589324445587727 0.0
0.0021106983114327913 -0.0007752190923379908 0.0
0.002733706916250475 -0.0008465315034482019 0.0
0.0038814985622863682 -0.0004414072200462334 0.0
0.003977745242646925 -0.0004911731599014078 0.0
0.003955470318465274 -0.0005394783926714725 0.0
0.0040077756991447255 -0.0004415688717639719 0.0
0.0005445970076763013 -0.0001027625983718287 0.0
0.001573391770920038 -0.0008631677678659317 0.0
0.0015257343173899181 -0.0008738150021333887 0.0
0.0015773974771602802 -0.0009079690187247213 0.0
0.001531850586690647 -0.0009191925914467116 0.0
0.003430902272091606 -0.0004925994992217522 0.0
0.000940288239341897 -0.0007050000434363786 0.0
0.0008388210925614173 -0.0006205004420120582 0.0
0.004401025163405797 -0.00011165347773603954 0.0
0.0002591024882563658 -3.114561357748728e-5 0.0
0.0002586536141169436 -1.6505600643369974e-5 0.0
0.002984774761028011 -0.0009019050743083619 0.0
0.0029782684918822203 -0.0009559800566545058 0.0
0.0024164143449226746 -0.0006094554948510676 0.0
0.004349528806969719 2.842702379600858e-5 0.0
0.000847908085276677 -0.0006628975872136587 0.0
0.0035514481573571395 0.0002271788229464878 0.0
0.004138591288913364 -0.00034676487396072725 0.0
0.0041516664409192335 0.00014083388454713528 0.0
0.004196366037945137 0.0001224515492524943 0.0
0.0033152939044578337 -0.00048449166517631744 0.0
0.003568100092819013 -0.0005090950899718525 0.0
0.0036190514979645223 -0.0005111969957289056 0.0
0.0031733609196837316 0.0002297467150826065 0.0
0.0032674219325196743 0.00022665610501515311 0.0
0.0033855347342564646 0.00023110491623713487 0.0
0.0027496279341160546 -0.0010014070701960035 0.0
0.0013297029591657786 -0.0008633056996229706 0.0
0.002051490007191169 -0.0005602931277561243 0.0
0.0029425834585030835 -0.00046767756770469684 0.0
0.0025996557575216463 -0.0006243176440972793 0.0
0.002650282596742106 -0.0010123062770279994 0.0
0.0011707208684008615 -0.0007763905345947258 0.0
0.0015044363297863964 -0.0007034298371934622 0.0
0.000606966201694398 -0.00024566292710713776 0.0
0.004408169412839705 3.30792999491282e-5 0.0
0.0034333195840046925 -0.0005810576953789578 0.0
0.0004087052373959732 -0.000190025115202089 0.0
0.0010903795966368656 0.0002905442839970091 0.0
0.0026350424102924773 -0.0008096081337285118 0.0
0.0034540207210808816 -0.0008272148521472699 0.0
0.0034114516806089843 -0.0008152063979353707 0.0
0.0030330140733022563 -0.0006450521633674448 0.0
0.0031681064845726905 -0.00038990938584467796 0.0
0.001382759410391206 -0.00047987238272691294 0.0
0.002165194410276898 -0.0008494042790667243 0.0
0.002910632994266579 -0.0004038848587365828 0.0
0.0014990333774771508 -0.0006645351306186157 0.0
0.0014471270076198593 -0.0006709111644389653 0.0
0.0011775023870934196 -0.0008208586271750676 0.0
0.0007520255118664806 -6.911964602507286e-5 0.0
0.0007559351245781712 -3.7225052578272726e-5 0.0
0.0003458473713390881 4.9926678344669e-5 0.0
0.0004735296007916367 7.56922718393257e-5 0.0
0.00377702224161471 -0.0006753068058938311 0.0
0.0005435821723609666 -0.0002664075916787104 0.0
0.0007989436651849829 -0.00038331890003271443 0.0
0.0007322985232203721 -0.0003451811604723915 0.0
0.003963148428474589 -0.0004446620488564653 0.0
0.0019896812943018647 -0.0007645613973435494 0.0
0.0025444417810678434 -0.0005696687344063337 0.0
0.003059867574298509 0.00018788331464189155 0.0
0.0030352631727725648 0.00021907801840422922 0.0
0.0029440096220986756 0.0002007675115425859 0.0
0.002918587848798388 0.00022415273747010967 0.0
0.0030015564065330467 0.00023183515435807372 0.0
0.0033746412114637274 -8.133844222456589e-6 0.0
0.003469924022944317 -2.2781331161209987e-5 0.0
0.003499607667801785 1.6327490349409258e-5 0.0
0.0035870972889194574 2.2320850727421748e-7 0.0
0.003558963812869635 -3.8801804559217775e-5 0.0
0.00020477336628941343 -6.7910877853559e-5 0.0
0.003445760479009482 -0.0004558841480496554 0.0
0.000544569239603057 0.00014381677336338766 0.0
0.0005672601458486416 0.00016675508009968392 0.0
0.0028481839421721144 -0.0009874127761244154 0.0
0.00016712785987462773 -1.5132354476525444e-5 0.0
0.0037585119712017384 -0.00027999347439988507 0.0
0.003843436377961948 -0.00024561294685212777 0.0
0.0037785046484034453 -0.00024146469241112525 0.0
0.003915984645621419 -0.0002438696510748646 0.0
0.003930512616476306 -0.00021135250301997815 0.0
0.0040044496065418135 -0.00020988771858270215 0.0
0.0010523748567195887 -0.00042549393221260603 0.0
0.001051364681934873 -0.0003906669568721058 0.0
0.0009793496580578426 -0.0003544595892395335 0.0
0.0010490899762361304 -0.00035642904767123655 0.0
0.0011216722474102524 -0.0003912741709417605 0.0
0.001120203312596094 -0.00035697468787047713 0.0
0.0011920173756970313 -0.00039040386407771487 0.0
0.0012900978137814169 -0.0008710027159208536 0.0
0.001190959596486879 -0.0003553526286969265 0.0
0.0012626953644594616 -0.0003886198990267088 0.0
0.0003464600691785708 3.6558315100644194e-6 0.0
0.0007500999337740164 -0.00010116520282634177 0.0
0.0012607699226462716 -0.0004224577879153852 0.0
0.0009827251315808053 -0.0003236192234046717 0.0
0.0038349989047433866 -0.0004415349192574431 0.0
0.0037702814060362856 -0.00048051641253177616 0.0
0.002188708151741355 -0.0009860194514404313 0.0
0.0021862070557810806 -0.0010308676972071984 0.0
0.002832810782914947 0.00020533707391280618 0.0
0.0014674411859345211 0.00021614635222406124 0.0
0.0015830119259064347 0.00021291648944179163 0.0
0.0016699018136764156 0.00023410808361478547 0.0
0.0016937919967947744 0.0002031609284570128 0.0
0.0016072430045686056 0.0001780075959915008 0.0
0.0017166425201487567 0.00015893183532521548 0.0
0.0016311006556931598 0.00013663300717090665 0.0
0.0017415691522429074 0.00011114499058435286 0.0
0.0016540322624827896 9.472720491423963e-5 0.0
0.0017824485470663493 6.524775134922635e-5 0.0
0.0016744908942474494 5.5142657502650044e-5 0.0
0.0017831680816034574 2.717900656859618e-5 0.0
0.0016890610623047193 1.9044374988873397e-5 0.0
0.001794740767439829 -7.4007232198460595e-6 0.0
0.00170812238352988 -1.5880874590890145e-5 0.0
0.0018087255886320396 -4.027390644986438e-5 0.0
0.0017221714673798588 -4.768602561885898e-5 0.0
0.0018168069102551497 -7.005886815146781e-5 0.0
0.0017339462740573312 -7.716242162248883e-5 0.0
0.0018248604738832538 -9.799498216343614e-5 0.0
0.0017436607578194465 -0.00010549388821361986 0.0
0.0018311935801187341 -0.00012545218088854103 0.0
0.0017499292019358046 -0.00013302099754315056 0.0
0.001836203034316852 -0.0001516464568667942 0.0
0.001755692181211915 -0.00016090086234650058 0.0
0.0016691311769061988 -0.00014015170763854732 0.0
0.0016755962539887754 -0.00016928795914381372 0.0
0.001847199759060724 -0.00018076104815357188 0.0
0.001642573225835549 -5.482784143774322e-5 0.0
0.0019151671311376393 -0.0001417679013128371 0.0
0.0019139872062804118 -9.17247701859594e-5 0.0
0.0015499081551902973 0.00011696659953616193 0.0
0.0018954407057228929 -3.187786938159485e-5 0.0
0.0015876786995148622 -0.00014734584808611593 0.0
0.001595758364546566 -0.0001770691273142179 0.0
0.001681988688377364 -0.00019891924743042867 0.0
0.00160346096191527 -0.00020714659024044543 0.0
0.0016041166407270407 9.8372557025858e-6 0.0
0.0018880308437861954 2.9708589641077844e-5 0.0
0.001580778570616319 -0.00011758328362809447 0.0
0.001832122728630599 0.0001302704920338899 0.0
0.0016883977888264988 -0.0002286102360865594 0.0
0.001610316113782889 -0.00023743758281222603 0.0
0.0015256193835187955 -0.0002149664497405716 0.0
0.001496752178696588 -0.0001249018203241071 0.0
0.0014858873830076982 -9.27465689520517e-5 0.0
0.001766948230298273 -0.00021915222053684147 0.0
0.0017706255807582946 -0.00024832285343092064 0.0
0.0018471396202915566 -0.00023865943146908036 0.0
0.0017839068863763768 0.00022313382635607857 0.0
0.0017669443707639826 0.0002424815956665373 0.0
0.001535336810722653 -0.0002463201738825336 0.0
0.0014489656670624343 -0.00022286907268552228 0.0
0.001441106360203388 -0.0001922737721721682 0.0
0.0013600532402069706 -0.0001986804785674199 0.0
0.0025969525924695604 -0.0010404098957356657 0.0
0.002551145073822823 -0.0010188677040845835 0.0
0.004331388112832853 -0.0003343536646927709 0.0
0.0027916474759312813 -0.000818293886035513 0.0
0.002840351150109589 -0.0008333189341525696 0.0
0.0016009611099796523 -0.0006854992486320387 0.0
0.0016583466723448551 -0.0007143485273712012 0.0
0.003850864977310435 0.00012712766727113336 0.0
0.002809395039637883 -0.00048018609055926485 0.0
0.0016187118662453978 -0.0002673773895909754 0.0
0.0012185210618961436 -0.0007463793560439568 0.0
0.0012162273387850652 -0.0007054427397685603 0.0
0.0012618584569950317 -0.0007001365636230974 0.0
0.003100383431521863 -0.0003804306233012353 0.0
0.0028635717353799406 -0.0001668999632071247 0.0
0.0019250233652715796 -0.0005517571133376663 0.0
0.0018640218202896418 -0.0005639309049258382 0.0
0.0026564835626692747 2.118126010389306e-5 0.0
0.0026488118207129573 -8.599693277833352e-6 0.0
0.002734542845422028 -1.5434301116204672e-5 0.0
0.0026332867986709352 -3.94235526442761e-5 0.0
0.0026701554155554156 5.3016715888384755e-5 0.0
0.002847141137036059 -0.00021938308639529898 0.0
0.0028426078122989144 -0.0002462933763782184 0.0
0.002755476457313573 -0.00026257542012139104 0.0
0.0020583050313835905 -0.00040020997851318823 0.0
0.0021221232578169076 -0.0004176879090381752 0.0
0.002125268757274119 -0.00038975701084714926 0.0
0.0021880015321820556 -0.0004056139765586514 0.0
0.002191083167721135 -0.00037831691057440864 0.0
0.0022536247695842497 -0.0003933380669808164 0.0
0.0022570631686517953 -0.0003667748010370694 0.0
0.002322113477588996 -0.00038074349964379743 0.0
0.0023170242517849267 -0.0004086660066777263 0.0
0.0023867506696120823 -0.0003914485458755309 0.0
0.0026830665454736138 -0.00045781095870835533 0.0
0.0026166466022804103 -0.0004429806689438252 0.0
0.0025485676388904907 -0.0004596560422533578 0.0
0.0025520073202900105 -0.00042914854320552973 0.0
0.00046975440550309 -0.00020051859045029815 0.0
0.0005564479527387629 -0.0005103414920688236 0.0
0.0005073520188704394 -0.0004623618376090945 0.0
0.0004928887846567358 -0.00042134164329059304 0.0
0.00045751888560623864 -0.0004127332675446167 0.0
0.0024195085187700355 -0.0005728818831173052 0.0
0.0032350529385205477 -0.00039717646903595445 0.0
0.0032211465778432076 -0.0004346326235211108 0.0
0.0011459295926538147 0.00023507749065188917 0.0
0.00254150361523047 -0.000229402566660442 0.0
0.002543530846202459 -0.0002069545007379944 0.0
0.002641758457763071 0.00020203240489515326 0.0
0.0044779216977522815 -0.000146639132436005 0.0
0.004531850267358279 -0.0001106631428855319 0.0
0.0045693976448279916 -9.241346541297796e-5 0.0
0.00015086417052083873 -6.672803181527654e-5 0.0
0.00015387452412231982 -7.866461405439149e-5 0.0
0.00022020676958720456 -0.0001150941884243019 0.0
0.00016162051454135678 -9.324919839481252e-5 0.0
0.00022372774756306568 -0.000131622250910001 0.0
0.00016688505169579763 -0.00010750731184301507 0.0
0.00010120779895617322 -6.503783475325883e-5 0.0
0.0023550335505539326 -0.0005906861935136151 0.0
0.00112215052929481 -0.0003240009213793987 0.0
0.0006437695433865574 -0.0005623229325934404 0.0
0.001847781256719862 -0.0002654925796240169 0.0
0.004283460034692095 -0.0003820354820657184 0.0
0.004243797959416706 -0.0004002505960637852 0.0
0.0036368731027896705 -0.00047223651485233303 0.0
0.0037033357414770133 -0.0004668757720906357 0.0
0.0037136464944856266 -0.00042757694515100156 0.0
0.00022245429596331068 2.770996985291202e-5 0.0
0.001683696711818536 -0.00097522034675649 0.0
0.0011374531181500068 -0.0008271274956271767 0.0
0.00013571195536634997 -0.00014820160678912948 0.0
0.00018741970602692204 -0.00020837692062453713 0.0
0.0009107999282130013 -0.00032143301625295215 0.0
0.002896513652138182 0.00022678954796129532 0.0
0.0029908097005306 0.0002272465291805581 0.0
0.0035103658656504798 -0.0005081093412662851 0.0
0.003666235831951072 -0.0005141849176942918 0.0
0.001582772019981388 -0.0009522554684363041 0.0
0.0017786446749218452 -0.0009931032720904228 0.0
0.0018265740675211743 -0.0009810045859272476 0.0
0.004013880340878723 -0.0004945794267575381 0.0
0.003991425526151322 -0.0005440166115232458 0.0
0.003932123095033952 -0.000597444166433145 0.0
0.004283465079601722 -0.000160577529541892 0.0
0.0042203097223064215 -0.00017012244919538253 0.0
0.0041418341012744025 -0.000203520326964483 0.0
0.004149328656773165 -0.00017797561601856103 0.0
0.0007740708409252889 -0.00031685406112995303 0.0
0.004016119712219356 -0.0001796709336725862 0.0
0.0039301264730298635 -0.0001804181005096601 0.0
0.002852398663334889 -0.0007920953125305 0.0
0.00046920521182349136 -0.00044924822564459016 0.0
0.00042557080547309226 -0.00040711776118539534 0.0
0.0004101283086702436 -0.000369253808812267 0.0
0.0003791497141772051 -0.0003609710906650786 0.0
0.004581284769605195 -7.82043089168543e-5 0.0
0.004484123508125774 -8.536892626344534e-5 0.0
0.0045387446568625 -5.965574078488709e-5 0.0
0.0038129034164495527 -0.000681844708929382 0.0
0.0019258325278372185 -0.0004205815188163102 0.0
0.0040471285928796496 -0.0004991635883234819 0.0
0.004027448348023579 -0.0005462590061819665 0.0
0.004079154065477376 -0.0005027801665859317 0.0
0.004064322671147439 -0.0005510401396710069 0.0
0.004116794035361607 -0.000499685658933266 0.0
0.0041322952678772866 -0.0004571842963583623 0.0
0.004164428562062576 -0.0004575498317217176 0.0
0.002238552107151366 -0.001055797519839259 0.0
0.0021912749311200908 -0.0010794424995239124 0.0
0.002130135061911235 -0.0010494941615373933 0.0
0.0015456331032520497 -0.0002784274706417806 0.0
0.00011693931228946912 -8.330482478105426e-5 0.0
0.00017153681223253697 -0.0001224535458793374 0.0
0.00012240741279376154 -9.53912979897122e-5 0.0
0.0015439228540378488 -0.0009716170333579022 0.0
0.0014909129473587841 -0.0009318055201240254 0.0
0.004435558176915049 -0.0002572106445586579 0.0
0.00035895843598541166 6.608456341243571e-5 0.0
0.002486341513645212 -0.00044849030459968614 0.0
0.002492229324950166 -0.00041697003628967413 0.0
0.004261777494057694 1.974557292765119e-5 0.0
0.004393022287773338 1.0152520332878008e-5 0.0
0.004025831006920301 -0.0004033958623999351 0.0
0.0008030829818516691 -0.0006201772893358573 0.0
0.0008177426058375632 -0.0006670225647315572 0.0
0.0034241982961733535 -0.0005296676634285472 0.0
0.0034446778820045798 0.0002225297324386316 0.0
0.004515868759167516 -0.00018572435733504023 0.0
0.004569325308077273 -0.00013072260323907978 0.0
0.004589186008409591 -0.0001034060784834446 0.0
0.0033538427593924093 0.00022389975297739794 0.0
0.003902729312461901 -0.0004034762284244733 0.0
0.002140273610552735 -0.0009262708529662526 0.0
0.003988452594260016 -0.0002417642469315812 0.0
0.0037779067240086947 -0.0004481770839599703 0.0
0.0014458715551383923 -0.0006300152133793731 0.0
0.0008263471676034173 -0.0005783525122167668 0.0
0.0043519268422514456 -0.00014485717357969348 0.0
0.0036314761575346813 0.0002188805160906065 0.0
0.001490577449425966 -0.0009745699656966031 0.0
0.00068605375108448 -0.00028581849218523383 0.0
0.002527166671919573 -0.00025660256777615317 0.0
0.0037384990709132706 -0.0006738218717536122 0.0
0.0037258399625006 -0.0007204347561612432 0.0
9.061093717438591e-5 -9.921949868760626e-5 0.0
0.002899428340425256 -0.0009607299901020031 0.0
0.0028805892582624833 -0.0010038875491529783 0.0
0.0018245280825452018 -0.0010319630916103637 0.0
0.0018751901540739388 -0.0010138296713218054 0.0
0.0018738748851044897 -0.0009676047893028818 0.0
0.0019233580320616136 -0.0009982788776233056 0.0
0.001875324162334774 -0.0010526285266607362 0.0
0.0015740039541726643 -8.781773872825679e-5 0.0
0.0014783438899705218 -6.31328197425943e-5 0.0
0.0006453002293647639 -0.00010274215950140174 0.0
0.0012376135762321226 0.0002836718497263317 0.0
0.00124992664356157 0.00026195102647387795 0.0
0.002854126338299531 0.00016514887222393926 0.0
0.0036407612867647757 -0.00076779742545944 0.0
0.003590333192406684 -0.0008076012207844489 0.0
0.00038993678786613904 -0.000397891488778666 0.0
0.00034524453956936735 -0.00034833933480201367 0.0
0.004560611399603769 -5.9937978274410487e-5 0.0
0.0007510570563138701 -0.00038145657142194396 0.0
0.0006761578039229138 -0.0003475281924472797 0.0
0.0042423890916902475 0.00018532861315867944 0.0
0.004384093616626835 -0.00028317725013551816 0.0
0.004361513208386603 -0.0003279181731967064 0.0
0.0026046412367749794 -0.00026616180818041284 0.0
0.0030163515541317184 -0.0009724424616652321 0.0
0.0029540668642781473 -0.0010144533101458266 0.0
0.0013259442664235355 -0.0004179467578619376 0.0
0.0013321917610136427 -0.000384265157651384 0.0
0.0019245849636692581 -0.0009529782438548308 0.0
0.0040534276200674384 -0.00044025899462308676 0.0
0.0023251030019240263 -0.0003539271540658568 0.0
0.0022654447933147877 -0.00034015334849930607 0.0
0.000111786676005105 -0.00012872813361367648 0.0
0.0011493557395550098 0.00043638943102108175 0.0
0.0021257116437773285 -0.0003612568576719826 0.0
0.001404423334060785 -0.00010165914213532555 0.0
0.001418646414145922 -0.00013281852733412048 0.0
0.0008547011671832354 -9.616064862418597e-5 0.0
0.00292797538236898 -0.0002276062034320583 0.0
0.0019207454981937802 -0.00025626540800760214 0.0
0.0019221505262647458 -0.00023050809591083058 0.0
0.0019939142517030983 -0.0002477965539558402 0.0
0.001993885862369488 -0.00022367664335510039 0.0
0.0020625742968172975 -0.00023783231201243235 0.0
0.0020636745427200535 -0.00021533001723939151 0.0
0.0019931882064202705 -0.0002005669219083304 0.0
0.0020637255827634497 -0.00019258648500547967 0.0
0.001993272786798667 -0.00017832683251822252 0.0
0.0020649654588621377 -0.00017076811598997253 0.0
0.002128028997560049 -0.00022890295664758766 0.0
0.00018009462452504323 -6.2112174791263844e-6 0.0
0.002831674929408093 -0.00027736870026946823 0.0
0.0019396005870658648 -0.00039216346985681253 0.0
0.0018055369358336436 0.00018127236803658676 0.0
0.0019421013442768031 0.00014199497342633116 0.0
0.0019526186783251102 9.453333299071337e-5 0.0
0.0019021701351774577 0.00020016836332453533 0.0
0.0018624921913551538 8.471690498718553e-5 0.0
0.0019789231444802126 5.720946680964201e-5 0.0
0.002086765564082513 5.8879210736330814e-5 0.0
0.0020199092741166836 0.00017253132537432917 0.0
0.0002837572247811849 -0.00015348356592988506 0.0
0.0002911377660633015 -0.00017478799309766485 0.0
0.004552910206689645 2.420823153159615e-5 0.0
0.004409943340523276 5.407716354384173e-5 0.0
0.004401806313294092 6.5478709312536e-5 0.0
0.003500164570953415 -0.0008423991315913751 0.0
0.0034376049495559564 -0.000881000532723215 0.0
0.0012095674934301823 -0.0006653175150643718 0.0
0.0012568611101503454 -0.0006590311496655553 0.0
0.0011616221182577933 -0.0006691224234399848 0.0
0.0013247282545030764 -0.00011500656430232934 0.0
0.0020503624411580467 9.913493572164899e-5 0.0
0.0021381056157587387 -0.00018404207244210173 0.0
0.002134466762166608 -0.00016199554415871064 0.0
0.002064846603760237 -0.00014918546302166425 0.0
0.002132742711929499 -0.00014206905656369387 0.0
0.0020680598175183 -0.00012877322070269282 0.0
0.0012428507753967145 -0.0008376747541005718 0.0
0.0045414850852066296 3.905460023344968e-5 0.0
0.0018925509689438256 0.0002338485543725328 0.0
0.0027397610128029595 0.00016758717753282144 0.0
0.002749383790883375 0.00012408931802288504 0.0
0.00263707874484957 0.00011630581470280329 0.0
0.0013377315297191685 0.00021473414393294668 0.0
0.0016145743734798782 0.00023431209476367935 0.0
0.0015271922960464386 0.0002476005312935986 0.0
0.0014628874434868908 0.00025394079805703335 0.0
0.003068222468940885 0.0001818285940690443 0.0
0.0038717973005700404 -0.0006385149814269268 0.0
0.0038479824970143197 -0.0006938471324696879 0.0
0.0011818544690486818 -0.0008643271759425941 0.0
0.0019734770726776924 -0.0009835957105259342 0.0
0.0019737875542671507 -0.001027781419454545 0.0
0.002021078128388253 -0.0010130998713142466 0.0
0.002027676036981249 -0.0010626669445904162 0.0
0.003328608854000728 0.000168122484510972 0.0
0.0032320277140097994 0.00014550167136069124 0.0
0.0033567066459616024 0.00013694225225802057 0.0
0.0034575478076454644 0.0001545812458193509 0.0
0.002561259963061082 -0.00040062255564213235 0.0
0.002508012646429344 -0.0003866557829489128 0.0
0.002071300369763715 -0.0010401814183582266 0.0
0.0013811255170680305 -0.00023360710057551028 0.0
7.234313818118177e-5 -7.515432867181124e-5 0.0
0.0018874003321393132 1.1207226108334552e-6 0.0
0.0019847234637518623 -2.4165530119955125e-5 0.0
0.0019923650405883 -5.208080238952445e-5 0.0
0.0020807077490999286 -4.494100676429214e-5 0.0
0.002081236882088809 -6.804676701206887e-5 0.0
0.0020744708989529222 -2.073730089368693e-5 0.0
0.002007683054277414 -7.565248588291756e-5 0.0
0.002083693865533676 -8.949454749340473e-5 0.0
0.0021639736384705247 -3.792370548331235e-5 0.0
0.003109757869409405 0.00015237331656551612 0.0
0.002017200752579432 -9.844592452989503e-5 0.0
0.00460572683775479 -3.959685888963916e-6 0.0
0.0017722368113926208 -0.0002768512844095283 0.0
0.0022193966694084777 -0.0008695140289002138 0.0
0.0022795633597133915 -0.0008513256612339348 0.0
0.001983777820218675 3.5870941542780476e-6 0.0
0.0020811862769512606 4.114150223814318e-6 0.0
0.002694985990912339 -0.0004278167593324668 0.0
0.003422699555948726 -0.0007651540104849934 0.0
0.0033654120835621324 -0.0008080448406611794 0.0
0.0033550118263496274 -0.000856716972607383 0.0
0.0033122979297771746 -0.0008494701126339825 0.0
0.003304977058562117 -0.0008943564749022473 0.0
0.00325939400972089 -0.000890206565968238 0.0
0.003867671887483757 -4.393389394478033e-5 0.0
0.0037875454193993983 -7.964146137635393e-5 0.0
0.0038260414273894212 -0.00010793464617698009 0.0
0.0037093887505057033 -0.00011680523909093538 0.0
0.0037446023848638436 -0.00014490129520838027 0.0
0.003629335794562689 -0.00015521714662555488 0.0
0.003666784819351958 -0.00018325989307699044 0.0
0.003591934917163981 -0.00012627936114409244 0.0
0.0035150838328030366 -0.00016462455337645844 0.0
0.0037757961499476234 -0.0001720606903399945 0.0
0.003476106501724006 -0.00013632174165718931 0.0
0.003697593205459362 -0.0002104418715430233 0.0
0.0035950575357697008 -0.00022144158135493276 0.0
0.0036213602273942416 -0.00024881075152462766 0.0
0.0035543509308919104 -9.894953945941653e-5 0.0
0.0037444692218945 -4.9573809723595874e-5 0.0
0.0038050826529546604 -0.00020018457215129846 0.0
0.003950147618499311 -0.00010384702620644473 0.0
0.003875671275973575 -0.0001622048194283872 0.0
0.002552861945501468 -2.5571135636510615e-6 0.0
0.0015970864827761007 0.0002475631518323868 0.0
0.00023753419591994996 -0.00015592985231335584 0.0
0.0002193170131218043 -0.00022934571296136453 0.0
0.0002661009030265317 -0.0002807420325321716 0.0
0.0020694909880084357 -0.0009968810885300234 0.0
0.002768227858655324 -0.00044514459925664807 0.0
0.0026450688199196825 -8.591060593036714e-5 0.0
0.0025548334149044813 -0.0001025916621992154 0.0
0.0025704036737174514 -8.014292065590514e-5 0.0
0.0025572329428477833 -0.00012591087308347636 0.0
0.0026335533850510274 -0.00013574820257660207 0.0
0.002550748084101902 -0.00014965451644541049 0.0
0.0025426689308959524 -0.00017200468638863293 0.0
0.0024789328335685663 -0.00016123304207034587 0.0
0.00029039043028147296 -0.0002710711149941771 0.0
0.0029549302233651603 -6.9921725778053484e-6 0.0
0.003585161808986882 7.028209133099522e-5 0.0
0.003441026735127042 7.563944876005814e-5 0.0
0.00017862251131672371 4.215456610303858e-5 0.0
0.0003704634290602056 9.31237717812324e-5 0.0
0.0003496581315117635 7.786535861590574e-5 0.0
0.0030119106284392967 -9.158821900969542e-5 0.0
0.0003789239828493367 -0.0003172663721322373 0.0
0.000441176291998808 -0.00037225740523970716 0.0
0.0004806510451684909 -0.00038507295826277764 0.0
0.0004765348882358175 -0.000353008558503487 0.0
0.0005184282112369955 -0.0003557993471911869 0.0
0.0019129364842365953 -0.00011774077696145784 0.0
0.00022090282064609793 1.694823106118336e-5 0.0
0.0009200459219026535 -0.00026209029076208935 0.0
0.0007521744964585158 -0.0002538646299418828 0.0
0.0020740795071539364 3.091214859322894e-5 0.0
0.00047906179700751855 0.00020653660282956028 0.0
0.003298313366908723 -0.0007940997373291468 0.0
0.002844043066996997 -3.6132098904404956e-5 0.0
0.004465926764652592 -0.00024055838811832934 0.0
0.003558006320689844 -0.00019279368212994524 0.0
0.0034454086744322675 -0.00020204085452065138 0.0
0.0033963914665903127 -0.0008688715906296284 0.0
0.004615049600745038 -9.981995125098784e-6 0.0
0.004530326347378939 -2.536936925500652e-5 0.0
0.004548688049557156 -3.334443797849142e-5 0.0
0.004514877256730607 -1.4978008399390644e-5 0.0
0.004449107040371034 -4.6574920938360895e-5 0.0
0.004502902296982711 -3.820858993115857e-6 0.0
0.004401506391378016 -1.547825027259456e-5 0.0
0.004422974944995618 -3.195837595718225e-5 0.0
4.9171128113459885e-5 -3.0459033704450703e-5 0.0
0.0046492972407777625 -2.781248213401938e-5 0.0
0.004591751202693276 -5.3485663065457175e-5 0.0
0.004626143665073716 -2.9484255176185728e-5 0.0
0.004597266892034141 -5.7326456126519726e-5 0.0
0.002782879447560568 8.704428831054142e-5 0.0
0.003554331179882896 -0.0007950066233460037 0.0
3.74602928373386e-5 -3.276364118779765e-5 0.0
0.0046607621258606775 -3.0038391503107242e-5 0.0
0.001494111918393978 0.0001874907267844496 0.0
0.0037724192673142293 2.2275587128523208e-5 0.0
0.0012757778593277525 1.0565263047712052e-5 0.0
0.0013766243854403419 2.3645066183221587e-5 0.0
0.001370258714136615 6.331954387128375e-5 0.0
0.001379772646039195 -1.1810883848622641e-5 0.0
0.0014669863374749037 -3.8045229114258754e-6 0.0
0.0014863748876266273 3.1083778019666616e-5 0.0
0.0014732876411665543 7.276131952831719e-5 0.0
0.0013708591180893773 0.00010072670979303775 0.0
0.0012803071737604518 0.00013258376783607456 0.0
0.0012922888936005251 -3.208870916713962e-5 0.0
0.0039796707119051766 -0.0005886503434580581 0.0
0.004602269148525426 8.57861525591588e-6 0.0
0.0019287229025945272 -0.000907942621971326 0.0
0.0006123971775602568 -0.0005661465270971636 0.0
0.002127558963983957 -0.0008844204479267578 0.0
0.0016297494275457234 -0.0009414609624339998 0.0
0.0016317624727239016 -0.000986792843405957 0.0
0.002205766332489609 -0.00015354767271148138 0.0
0.0030166193684889905 -0.00015965468352855414 0.0
0.004066618888911341 0.00014025922831618188 0.0
0.004121313721696531 0.00011621170189599468 0.0
0.003997170976084403 0.00012232121827918221 0.0
0.00028592050053461126 -0.00013719537357156775 0.0
0.0005698098085502868 -0.000550934922435565 0.0
0.0013967584799998586 0.00031832526129427875 0.0
0.0012543845026219624 0.0003249202283778711 0.0
0.003361253727063685 0.0002091623524664791 0.0
0.001655820638796811 0.00024831355545262514 0.0
0.004272108491546794 -0.00031690705261891753 0.0
0.002109350188964554 -0.0007347149946329346 0.0
0.0032272138271629953 0.00017806880671923737 0.0
0.0033339893597257577 0.00020848350331557073 0.0
0.0013920014655972378 0.0001588716887970734 0.0
0.0011435757366976512 -0.0008736578288093566 0.0
0.004246905717740018 -0.0003650471455664883 0.0
0.0006807302995432043 -0.000565995411062257 0.0
0.0007229604685308251 -0.0006049659551245886 0.0
0.000699192991050736 -0.0006169541806696115 0.0
0.0010995983972976462 -0.0002573223837470258 0.0
0.002609497320789975 -0.00018815217581293455 0.0
0.002928677640893645 -0.0001198054227560182 0.0
0.0017627219587887887 -0.00018949941730315474 0.0
0.0018451702992587063 -0.00021108071007061555 0.0
0.004509149930976993 5.929551783766755e-5 0.0
0.004287388385262166 0.00012648854005311688 0.0
0.0001928461038969911 6.15822839221007e-5 0.0
4.8377990007295294e-5 -3.363600538463756e-5 0.0
0.0021319637031299334 -0.00020627752240362447 0.0
6.861781688332274e-5 -1.9170122255388502e-5 0.0
0.00016733917542240847 -3.8557052640538064e-5 0.0
0.002102545648403454 -0.0008495083785830961 0.0
0.002983305962661963 0.00018357240968309995 0.0
0.0016857959161109628 0.00023178584977074547 0.0
0.0029020169573802774 -0.0004332182189680002 0.0
0.002144002065182111 -0.00012202909837702047 0.0
0.0037881441774443945 -0.0003838103855556287 0.0
0.004411648007058774 -0.00023997933801738917 0.0
0.0013901031628898676 -0.0006373439695410649 0.0
0.001395055705646816 -0.0006782348061303468 0.0
0.001337727847594362 -0.0006396745219036006 0.0
0.0012785076088409073 -0.0006016727317434563 0.0
3.822964630169449e-5 -3.649812728621288e-5 0.0
7.280043153592096e-5 -6.972817338513548e-5 0.0
8.198819041645764e-5 -7.152173699917051e-5 0.0
0.0011945144050040204 -0.00042452719027949085 0.0
0.0011287769729962027 -0.0004301741698959778 0.0
0.0046531003547728225 -2.8925227330930852e-5 0.0
0.0025458230912941793 -0.001068339693114191 0.0
0.002499402578271963 -0.0010449741723047733 0.0
0.0024946275343282033 -0.0010941677478248008 0.0
0.002447768502167323 -0.0010698127561271976 0.0
0.0023951983009538906 -0.0010920097913130642 0.0
0.002393979514215955 -0.001043672219314342 0.0
0.0025025216997279316 -0.0009964145437985257 0.0
0.003240081994928611 0.0002052352311582765 0.0
0.0005441323841015221 -7.527341209189824e-5 0.0
0.0006334145253858117 -0.00013148658882583398 0.0
0.0005492350844046014 -0.00013253033323451144 0.0
0.0029773285955762667 -0.0004143317676204329 0.0
0.0009003111012867163 0.0002761066637360406 0.0
0.002375793644989587 -0.0004219887346041395 0.0
6.774883195076593e-5 -3.041076304459754e-5 0.0
0.001445595370625486 -0.0009365317452074341 0.0
0.0013969055002355497 -0.0009350758055230823 0.0
0.0014072433740660762 -0.0008980561655346449 0.0
0.0016259583844065737 -0.0008962592808344634 0.0
0.0013917647165532833 -0.0005917411964769428 0.0
0.0006077122141925357 -0.00027508661604172584 0.0
0.0003487742756417177 -0.00021641495939880083 0.0
0.004629063106203035 -1.8726444159042977e-5 0.0
0.004567562025584419 -3.7926629324663713e-5 0.0
0.0008983327070885358 -0.0007065400531622454 0.0
0.001087244517889498 -0.0007852128116093421 0.0
0.001044210042626334 -0.0007903059906388466 0.0
0.0009923799275523453 -0.0007475281314934224 0.0
0.0009989146793404386 -0.0007915906538176926 0.0
0.0028055229976806286 0.00019387681272340347 0.0
0.0018467946754693835 0.00022827485597647288 0.0
0.003072503615896962 -0.0009379245826259367 0.0
0.0031145594401797362 -0.0009537848866919522 0.0
0.003167453023326348 -0.0009190043581998789 0.0
0.0030535906160202614 -0.0009956808659072514 0.0
0.0015056894129134434 -0.0006304190675085873 0.0
0.0026961344508022417 -0.0007852796163318484 0.0
0.001685169793726465 0.00024366003705367256 0.0
0.0019033259838617384 -6.45066125238428e-5 0.0
0.004662282212536978 -3.171066570102482e-5 0.0
0.004626634977642182 -6.253234844206e-5 0.0
0.004611334896616226 -6.85606553023422e-5 0.0
0.0009491880089215493 -0.0007495290158339416 0.0
0.0009079358170655295 -0.0007491064553492861 0.0
0.001377433864267955 -6.495646762883844e-5 0.0
0.0012254290572615224 -0.0006105834174253229 0.0
0.0043791941777994925 -0.00020107133113431524 0.0
0.0035692093107304364 0.0002499725008526627 0.0
0.002121119681078532 -0.0002514912508431087 0.0
0.0021852950580273775 -0.00024056571506189103 0.0
0.002814096128815893 0.0002216515481894747 0.0
0.0034981850992279917 -0.0006778095094799041 0.0
0.0020499712832580935 -0.0007498327905011877 0.0
0.0020522008075827855 -0.000791788026743335 0.0
0.0004982909372212698 9.89937115843704e-5 0.0
0.0011194609850071883 -0.0006180777736672153 0.0
0.0010659688777997485 -0.0006154922671433241 0.0
0.0010080939818734858 -0.0005757618926709179 0.0
0.0010140365793535782 -0.0006167488624464968 0.0
0.0008577802153503405 -6.258156511242096e-5 0.0
0.0008612120877362619 -2.8716747231601723e-5 0.0
0.0009629284170966814 -0.00012829896391257985 0.0
0.003099456267956978 -0.0010067144618911138 0.0
0.002999433989661254 -0.0007712404758683169 0.0
0.0029339978517016643 -0.0008037444339897431 0.0
0.002992347368652717 -0.0008213155263880715 0.0
0.002926784743258472 -0.0008551058742125619 0.0
0.0029669925464139604 -0.0008683312292000312 0.0
0.0030540521678248437 -0.0007811619514120703 0.0
0.0031058860113206796 -0.0007875523232931466 0.0
3.228193880520083e-5 -3.606570135904893e-5 0.0
0.004668169181646739 -3.2112124778250734e-5 0.0
0.003897840991192779 -0.0005853151476858055 0.0
0.0027925706171422772 -0.0010179015170121515 0.0
0.004335757598211373 0.00010150977421021016 0.0
0.0027051014761190267 -0.0009828253738252946 0.0
0.002693091028454622 -0.0010307271178427977 0.0
0.003550453688545631 -0.00046268557112400595 0.0
0.003172853682262555 -0.00035532953384349197 0.0
0.00310789071689743 -0.00034591049591912537 0.0
0.0014729053509382724 -0.0008402536306218277 0.0
0.0008521123815888963 -0.000534318189822759 0.0
0.0035158735226341583 -0.0002626099714107027 0.0
0.0037454462952853694 -0.0006270888278991432 0.0
0.0016330269615257608 -0.0004857787657739058 0.0
0.001694295836413398 -0.000476814947353574 0.0
0.0016920731354764336 -0.0005124941769977065 0.0
0.0016979747834646982 -0.00044255003842646123 0.0
0.0016311838044649734 -0.0005220399142159028 0.0
0.0017540241553235967 -0.00047137157646863525 0.0
0.0017614579340760879 -0.0004395911413122649 0.0
0.0017767714847245558 -0.00040484399227951745 0.0
0.0035212146512450518 0.00022331343054550717 0.0
0.0003638150080591313 0.00010331941581649711 0.0
0.003402302794073911 -0.0001744045418966335 0.0
0.00371345755100572 -0.0003933308434751382 0.0
0.000657816046399473 0.0002240422044532271 0.0
0.0006586258640687952 -1.2607909995093708e-5 0.0
0.0009623298122889294 -5.5835345819166716e-5 0.0
0.0007439757366070723 -0.000490264175555363 0.0
0.0016316501671743537 -0.00041665807794904065 0.0
0.001262952074541308 -0.0003527230841457186 0.0
0.0013514784482970986 -0.00035057987884062685 0.0
0.0014081725953948283 -0.0003853897792832906 0.0
0.002287382295932395 -0.001037877664649187 0.0
0.0023418134344137973 -0.0010646789232796644 0.0
0.002340040875974107 -0.0011176579600535373 0.0
0.002395752859555403 -0.0009960257435886637 0.0
0.0036810672316413963 -0.0006646045678769779 0.0
0.0016925530776331812 -0.00025765063412716387 0.0
0.0034441149138752652 -0.00041417497733010715 0.0
0.0016221198264135485 -0.0008518438165800854 0.0
0.0025051921560762416 -0.0009491159563196356 0.0
0.0017251689691737797 -0.0010102599238467791 0.0
0.004316263561842629 -3.3640720928132576e-6 0.0
0.002313695726297972 -0.0004378651974690637 0.0
0.000538773072327036 -0.00023676343237199001 0.0
0.0017573246809718763 -0.00069248371762501 0.0
0.0018155750444717924 -0.0007218865252200322 0.0
0.0016375287299749547 -0.0006340548608452991 0.0
0.001775519540080527 -0.0009041522548610863 0.0
0.0027927609913271927 -0.0005910690386214314 0.0
0.0027243127972029703 -0.0006150789198313898 0.0
0.0027861107098669214 -0.0006308571463859963 0.0
0.003362911180715227 -0.0001467846002717467 0.0
0.002108835885527137 -0.0006944952171164888 0.0
0.0015145982303118308 -0.0005752715491466277 0.0
0.0026837286875611445 -0.00025122825652936116 0.0
0.002670736725285261 -0.00027834963883917953 0.0
0.0005799000399093984 -0.0003971096884647446 0.0
0.0012365391810776275 -0.0007947835096524094 0.0
0.0031829065800125073 -0.0008664351835326839 0.0
0.002649001555601653 -6.290153219822733e-5 0.0
0.002465331869772758 -0.0007495592445452862 0.0
0.002403340213970195 -0.0007702428993291377 0.0
0.0024007395151489355 -0.0008142415308633851 0.0
0.0023417443561160093 -0.0007898249563825112 0.0
0.0023405378444674046 -0.0008341846321209524 0.0
0.0024584805659570975 -0.0008367365848770113 0.0
0.0028586679665269354 2.144762365475704e-6 0.0
0.0019276898818929985 -0.0005869650869987884 0.0
0.001869665832592063 -0.0005989669789356595 0.0
0.0026672933597689462 -0.0005607319138218644 0.0
0.0015770571526759636 -0.0006416097577035989 0.0
0.0026414682192374165 -0.0010596795672744872 0.0
0.001989480671407343 -0.0007235577738751468 0.0
0.0023446000380251118 -0.0007473006114717099 0.0
0.0033439984541684367 -0.0009057881491003376 0.0
0.002120375233373446 -0.00044797555429117484 0.0
0.00443565394801657 -0.00011455753174050454 0.0
0.002352604242176683 -0.0006279026400166089 0.0
0.001048772387057137 -0.0004606478966201337 0.0
0.0020118707896799115 0.00022329097479675128 0.0
0.0033226439213798883 -0.0007443811510549779 0.0
0.004243482946625982 0.0001021420522383294 0.0
0.0006843772953039525 4.803097624108001e-5 0.0
0.0007083566971280986 7.691107706249444e-5 0.0
0.0007878563191437754 3.4439221730713326e-5 0.0
0.0008312945768481179 6.899536455712178e-5 0.0
0.0009101890342458422 4.6689072463341256e-5 0.0
0.003334665528216913 -0.00021159020395055737 0.0
0.0019266741716494494 -0.0010483007343677524 0.0
0.002185322775329019 -0.0004353846347665312 0.0
0.0001345683629815461 -4.158379659325519e-5 0.0
0.0014881630719460648 0.0002522643932103254 0.0
0.001383767433927007 0.00026815577391306033 0.0
0.0031499571364484087 0.00012001850046497957 0.0
0.0018764184872147858 -0.0008777896436426735 0.0
0.002141919582227873 -0.0010062811580561905 0.0
0.0018541316437318347 -0.00029494316743555456 0.0
0.0026046569063477697 -0.0005451472965118535 0.0
0.0025364883416671468 -0.0005272991421861208 0.0
0.002546230083947721 -0.0004907621114824311 0.0
0.002666868272797149 8.405777495509648e-5 0.0
0.0017641427247874729 -0.0007337653011518414 0.0
0.0011913041801755854 -0.00032116011911036574 0.0
0.0018044430711018113 -0.0005347024817248246 0.0
0.00022785260176405746 -0.00016473795048103294 0.0
0.0024698223987473194 -0.00024091177396091414 0.0
0.0009830075873509027 -0.0007028127791485954 0.0
0.002484083902943249 -0.0005537045566248296 0.0
0.0014821695144761663 -0.0008854461401490436 0.0
0.0033120975649981715 -0.0003665294596876542 0.0
0.002238958344067008 -0.000552002250573336 0.0
0.002281481149430853 -0.0008083483451386839 0.0
0.004148366196186465 -0.0003137197766728282 0.0
0.0008619733904922268 -0.0007065449917166951 0.0
0.004499200383934031 -0.0002218769413127867 0.0
0.0018581268116974825 -0.0004177359597224394 0.0
0.0022327366912680575 -0.0006245126094857786 0.0
0.0003978394849224468 -0.00016457714104542632 0.0
0.004135235164161467 -0.00023026677606508074 0.0
0.0026264389092949597 -0.000853898919651114 0.0
0.00013328653291709263 -5.050824763954026e-5 0.0
0.0023923898783488056 -0.0003397639553779947 0.0
0.002390209139833141 -0.0003638587552064907 0.0
0.00440431148536614 -6.880418045450296e-5 0.0
0.002593643963639724 -0.0010886967996507342 0.0
0.0008037122368835409 -0.000532851582127943 0.0
0.004549240267378816 -0.00011431008400779155 0.0
0.002481070371217219 -0.0004765659409936663 0.0
0.002302175643724392 -0.0005368875255738927 0.0
0.0028895682875664697 -0.0007474398596848436 0.0
0.0028288937107780847 -0.0007323987028801645 0.0
0.002643192350379542 -0.0007659055200502895 0.0
0.002182734411542255 -0.0004667906652881241 0.0
0.0026992389655882097 -0.001107234547935569 0.0
0.0029098444262666847 -0.001072442647290414 0.0
0.0020596442649022757 -0.0011098127325196 0.0
0.0022214455128400476 -0.0011242151769656243 0.0
0.003221297967079852 -0.0009857524755540953 0.0
0.003206354860729639 -0.0009393489374944831 0.0
0.0016368108097247953 -0.0010298468487481415 0.0
0.0012826094099778454 -0.0009324923975345204 0.0
0.0028032202271947118 -0.001092313715526089 0.0
0.001747060213218357 -0.0010595431697585297 0.0
0.001970627010537325 -0.00036583469275904885 0.0
0.004037869561540051 -0.00014709779039765383 0.0
0.003343915902602387 -0.0005668646931709562 0.0
0.0033236579080414804 -0.0006082072952205572 0.0
0.0016917894806625616 -0.0005511269427459792 0.0
0.0028748634367133457 -0.0004939137533186861 0.0
0.0022869592398898756 -0.0008938241887946844 0.0
0.0011663944511816832 -0.0007338508803668628 0.0
0.0008703913138323676 -0.0004222343739621945 0.0
0.0019889188538020795 -0.0005387989351796274 0.0
0.004122622670178884 3.143359361980436e-5 0.0
0.0015785096868272672 4.645085221015943e-5 0.0
0.002250917833259064 -0.00042217171318051784 0.0
0.0026634382384540466 -0.0006009094892952209 0.0
0.00030087998685253783 -0.00030208659601609235 0.0
0.0003120597213885846 -0.0003343292696844209 0.0
0.001988514686212709 -0.0008065467094748582 0.0
0.0016649278118159084 -0.0007570920841417015 0.0
0.0024138229314292856 -0.0006475410015219193 0.0
0.004370016482984738 8.12769738553051e-5 0.0
0.002556045257997483 -0.0009707828522429747 0.0
0.004621092636128423 -7.948327516295526e-5 0.0
0.0045941597174352575 -0.00011445456370659803 0.0
0.0012908317396314887 -0.0002092850808628241 0.0
0.0020510710888193696 -0.0005957103655721886 0.0
0.002167938153391147 -0.0007185171087257353 0.0
0.004484917145648778 1.6007974357706763e-5 0.0
0.002186971729299523 6.731701197981984e-5 0.0
0.0031665452806489696 -0.0007575260470836552 0.0
0.0032585684490779292 -0.0006405863712221394 0.0
0.001259586887492607 -0.0008852572070325847 0.0
0.0029870195716392785 -0.000592938972438943 0.0
0.002051870786194218 -0.0005258090700287025 0.0
0.0031276934779066296 -0.0005369971333083955 0.0
0.003115755814567193 -0.000576526562262873 0.0
0.0031982271725729716 -0.0005084372580050949 0.0
0.0010455016979345896 -0.000835377120761133 0.0
0.003688947989114082 -1.4556562625549583e-5 0.0
0.002734629033738266 -0.0010552566398053615 0.0
0.003896838516535258 -0.0006509354287517127 0.0
0.003515097334943018 -0.0004181621063076129 0.0
0.0022734786921737356 -0.00031482582966712555 0.0
0.0029223459611653793 -0.00090661070923515 0.0
0.0018200162274633028 -0.0007628985013793823 0.0
0.0019111894949362382 -0.0004484028783655898 0.0
0.0043520998037516025 -5.3113836894484016e-5 0.0
0.0010002935216009046 -0.0002945989846994264 0.0
0.003367294878550827 -0.00023853084952051815 0.0
0.0022385832210059086 -0.00020031560977577012 0.0
0.002938834491170899 -0.0005047045581042143 0.0
0.004179648373758856 -0.00014547664964645953 0.0
0.000349615008508555 -0.00017541113281329066 0.0
0.0034193866786808853 -0.0006206284286474639 0.0
0.0025490041212490634 -2.9752911990374613e-5 0.0
0.002525472984514519 -5.350229692397757e-5 0.0
0.0028265794537209185 -0.000877281325704529 0.0
0.002596084434663808 -0.0006641489852607989 0.0
0.0026759398748239936 -0.0008726460994906935 0.0
0.003484255168459248 -0.0007249921285692541 0.0
0.0034454403274432215 -6.219614009784268e-5 0.0
0.002209928816935054 4.257089910070498e-5 0.0
0.0031251604055993437 0.0002295878170891733 0.0
0.004073418951083093 -0.00039474744937384324 0.0
0.004088321353735592 -0.00035849258161143867 0.0
0.0022290959824190723 -0.00010900495836261557 0.0
0.0015097001755533393 -0.0007439120033961868 0.0
0.003055755636911174 0.0002124324161380829 0.0
0.0022216649475585186 -2.6103185329981594e-6 0.0
0.0029756600833591653 -0.0006332783248194701 0.0
0.004559167276162721 -0.00012258696174242262 0.0
0.0007591368481846483 -0.0005718533795661725 0.0
0.002856731701573832 -0.0003034397957630651 0.0
0.0022311026005472933 -5.50724353841456e-5 0.0
0.0022269985886828707 -9.247135460872735e-5 0.0
0.0007839655097492571 -2.1352140116020155e-6 0.0
0.004101460337133767 0.00016237344409176735 0.0
0.002412448955966382 -0.0002102143010435037 0.0
0.004202447400729308 -0.0003014359071192998 0.0
0.0014532271721619616 -0.0007107899913497861 0.0
0.0036261303611768445 -0.000822151923234195 0.0
0.0037206288035000197 -0.0007849869720220159 0.0
0.0013137662351692628 -0.0007351380929143572 0.0
0.0030873778020963144 -0.000656100738877147 0.0
0.00200648046985666 -0.0011038997559497854 0.0
0.0029294884311570936 -0.00018231173718046784 0.0
0.0008233316884963793 -0.0007287425602717967 0.0
0.002433550090113293 -8.364904628803967e-5 0.0
0.002536359347867195 -0.00028184294326579634 0.0
0.0024811409777130275 -0.00011643806749481449 0.0
0.002720131823459324 -0.000656509740489642 0.0
0.003307982864498325 -0.0006486703848418232 0.0
0.00010719551543322933 -0.00013296969488898731 0.0
0.00018536895163190413 -0.00022303370625826997 0.0
0.00022278080196432354 -0.00026357319671485905 0.0
0.004372053048534784 -0.00034786569969341816 0.0
0.0003011461784339575 -0.0003451050180396328 0.0
0.001348212440996061 -0.000683110967237034 0.0
0.0005989373784476404 8.039946029285459e-5 0.0
0.003944160948685512 -0.0006645482336685227 0.0
0.0006927200482970303 -0.0006488404191899978 0.0
0.0007809201543681857 -0.0007042817129598725 0.0
0.0043303116349177806 -0.0003832473523982396 0.0
0.0042468940221379245 -0.0004550329961931852 0.0
0.002517382637454652 -0.0003597772452987807 0.0
0.0018247414986365823 -0.0009370568338094207 0.0
0.003430473130548105 -0.00010465523338195118 0.0
0.004032094092289403 -0.000606960977132659 0.0
0.004076014182803184 -0.000578980140754866 0.0
0.0006082226737047546 -0.000597041276903807 0.0
0.00041723819634548247 -0.000447500024690487 0.0
0.00416304750488754 -0.0005175392827609376 0.0
0.004196108445995418 -0.0004578801860303111 0.0
0.0028350984576826737 -0.0010403723593398768 0.0
0.0004978846745566221 -0.0005146998138671553 0.0
0.003468435889596938 -0.0009008962763098493 0.0
0.0008677675125995127 -0.0005776901813503001 0.0
0.0039000965154963292 -0.0004860238577770532 0.0
0.0013401343455202793 -0.0009111196798908316 0.0
0.003645450052017352 -0.0006535162443072379 0.0
0.0036703501348624473 -8.84312970634451e-5 0.0
0.0013239218984693955 -0.0004850045238268206 0.0
0.0008820964394203916 -0.00045928470326850253 0.0
0.0017187059732664616 -0.0007879222299072372 0.0
0.002291645607863665 -0.0006458538450296325 0.0
0.0038940179167905524 -0.0002778577696029909 0.0
0.002448218134711175 -0.0010205677913058136 0.0
0.0024756001417507198 -0.00021969633961906485 0.0
0.002447884633784796 -4.717235044942303e-5 0.0
0.003148924731872711 -0.0004615704785517469 0.0
0.003644012776329084 -0.0005564958471377495 0.0
0.001263539982838682 8.747290844516487e-5 0.0
0.002955932534506071 0.00016842262787924403 0.0
0.0014437695685850284 -0.0004741504250551155 0.0
0.0039456028580854945 -0.00040440866836706865 0.0
0.0009074577319599659 0.0001443517560896032 0.0
0.0007741005323527067 0.00010966646352207216 0.0
0.0019917895162776013 -0.00013498869802434989 0.0
0.004087222026750059 -0.00017948651043245826 0.0
0.002157020790808774 0.00013228286715719035 0.0
0.0024033241376406086 -0.00026965402193933894 0.0
0.004325157254868275 -0.00017343498711510394 0.0
0.0012112873400336747 -0.0004929639574591852 0.0
0.0014932931580679482 -0.0002984134703046754 0.0
0.003383842288914589 -0.00045113262811918105 0.0
0.0037517868424148267 -0.0005213485989780691 0.0
0.0010474042916929478 -0.0004985356741369628 0.0
0.0006014483493984588 -0.00043881554227458256 0.0
0.0035977789495813474 -0.0005520159538764744 0.0
0.001519073796906807 -0.00018532622079856214 0.0
0.0035474804157583253 -0.00030894494691102183 0.0
0.004630185274903561 -6.429629889863055e-5 0.0
0.003853500652029954 -0.00013505436704810302 0.0
0.0024860325191340786 3.3607456177375366e-5 0.0
0.0025701333647729406 2.698144789881797e-5 0.0
0.0029166756252458586 -0.00037291893102248716 0.0
0.004225149568587071 -3.558279167399682e-5 0.0
0.004153705404874575 7.019485480486954e-6 0.0
0.00017897146002876488 -0.00015187753337328211 0.0
0.00013234674153273044 -0.00011181551608530942 0.0
0.001875431339612193 -0.0009222045016054736 0.0
0.0030448401103959177 -0.000604941234124687 0.0
0.0017008133546532194 -0.0003158294485670726 0.0
0.001698122719825099 -0.0002869657230007883 0.0
0.001663290997836826 -0.00011241410434982828 0.0
0.002399907748980959 -0.0008588633348196665 0.0
0.0027857492142060293 -0.00032525347932379567 0.0
0.0007389780678630398 -0.00013096512962054377 0.0
0.0032667947211073326 -0.00024824513989369875 0.0
0.002520043920688636 8.715749262186826e-5 0.0
0.001988841883997129 -0.000573747581238853 0.0
7.974157113543229e-5 -9.878615212109344e-6 0.0
0.002294207155730029 -0.0006079110170562283 0.0
0.004303825386202418 -0.00020062826554847273 0.0
0.0036815853091170725 -0.0003150317415559535 0.0
0.0034900275321705252 -0.00023002352401071206 0.0
0.004126708176304946 -0.00025927534131277026 0.0
0.00301032112093612 -0.00026008770716203644 0.0
0.001629056155272511 -2.517065150684691e-5 0.0
0.0005327242868603345 -0.00020861725626014182 0.0
0.00204385269647945 -0.0002814228006636963 0.0
0.002575696587112233 -0.00037287430053636205 0.0
0.0006641913926001329 -0.0003739464925525788 0.0
0.0021677539873812017 -0.001120802139945984 0.0
0.002912183937530514 -0.0002569754470823794 0.0
0.001404738880029423 -0.0007186794098027053 0.0
0.0031506976578132466 0.00020805042803163763 0.0
0.003956507031881662 -0.0002758801571446411 0.0
0.0015078256895709181 -0.0001548279685234209 0.0
0.0034656966342861972 0.00021702023457715927 0.0
0.0026596680231562083 -0.0003050927786529474 0.0
0.0022970898577283137 -0.0005714630904195301 0.0
0.0008305366318234688 -0.00016076447324873827 0.0
0.0015622574745439725 -0.00032894391466963555 0.0
0.0019837151035255046 0.00021412062291627042 0.0
0.0006183436999874567 0.00010483086121166464 0.0
0.0035013321436363977 -0.00045782956068119427 0.0
0.0009152311153919743 -0.00035366265043875643 0.0
0.0023605172095836346 -0.000555717705185328 0.0
0.0038919355666895404 9.867664923781125e-5 0.0
0.003323612077113606 -0.0004454888224924536 0.0
0.0015298772498693128 0.00015403637452653657 0.0
0.0002775918993797072 -8.083204386234121e-5 0.0
0.0011888821835619957 -0.0002870767287704791 0.0
0.00010552490828741998 1.021215488736647e-5 0.0
0.00022072646300165617 4.490313338382942e-6 0.0
0.003303439445971154 -0.0004100112212033277 0.0
0.0027283905315760157 -4.114090937369013e-5 0.0
0.001530053237130467 -0.0010132509887378395 0.0
0.0010653480584237138 -0.0006588876577203836 0.0
0.0038552034870938975 -0.00021365627408263875 0.0
0.0005152939771645834 -0.0005008881840198327 0.0
0.003205857123967403 -0.0004718646673726975 0.0
0.002684073018865179 -0.0008290997511108219 0.0
0.0038256340993983997 0.00015234871661066448 0.0
0.001372381713852632 -0.0008562678400430266 0.0
0.004183749553852227 -0.0004130374416623409 0.0
0.002406042447335593 -0.00024993413678644626 0.0
0.0007509330891104543 -0.000651786985844696 0.0
0.0032616598399455915 -0.0009353749215993279 0.0
0.0007698291941809842 -0.00041907780531832067 0.0
0.004418173561799875 -0.00018819014562295938 0.0
0.0005474979286491742 -0.0002951971101955497 0.0
0.0032693476928454426 1.346624323638609e-7 0.0
0.003014601606002723 -0.000229895652523826 0.0
0.002450142793229818 -8.919261639453144e-6 0.0
0.00010759171724069421 1.574423672815886e-5 0.0
0.001764127749249385 0.00024234503578578838 0.0
0.0012711104026591447 -0.00017362763194351795 0.0
0.0037574036998004857 -0.0007275412211990387 0.0
0.0038088493720544463 -0.0007449033452416984 0.0
0.0003521053724824902 -1.3119550111991227e-5 0.0
0.0027332448013973718 -0.00028899201783715413 0.0
0.0011131170090601381 -0.0006585331131324973 0.0
0.0019316004394093428 -0.0006227218563574926 0.0
0.00011020035591930122 -0.00010646665667425792 0.0
0.0002595718170287452 -4.657626717521555e-5 0.0
0.002629151609046397 -0.00041374204847237557 0.0
0.002423911678978238 -0.0005381858002171525 0.0
0.00016927883055836075 -2.6295879811406907e-5 0.0
0.0004540996947369699 -0.0001711673921572572 0.0
0.00033948006666179503 -0.00038044183836825256 0.0
0.00392194475517365 -0.00044348358187348526 0.0
0.003100531154383325 -0.0006159883898724603 0.0
0.0005433027853502207 -0.0003970923307143807 0.0
0.003620224714442636 -6.378887884603062e-5 0.0
0.0033323645753203586 -8.705592284976014e-5 0.0
0.00023857866709319942 -0.0002648633589229725 0.0
0.0019364740344726113 -0.00018660180403310566 0.0
2.8807214138850695e-5 -3.670275692935257e-5 0.0
0.004670057888895663 -3.57483139321773e-5 0.0
0.004541824796466212 -8.119739486373694e-5 0.0
0.001384716978520982 -0.0009703050929108394 0.0
0.003632037237855369 3.6569268961773584e-5 0.0
0.0031136795149952737 -0.0007469039657213517 0.0
0.0006081231391044995 -0.00030445003213335257 0.0
0.0029613731936467273 -0.0010603510712691964 0.0
0.0006613885604741432 -0.00016186132368547902 0.0
0.0040739214880181965 -0.00020862257959926224 0.0
0.0018706428085404907 -0.0006340220459781109 0.0
0.00016774671556621677 -0.00013208715067346348 0.0
0.002155136089023543 -6.236422581448575e-5 0.0
0.002154375504284748 -8.216407468057284e-5 0.0
0.004270118919912553 8.484562862216523e-5 0.0
0.0026600010673995867 -0.0006402029354763828 0.0
0.0003366294258670509 1.873769479844439e-5 0.0
0.0041466356937037395 -0.000501015525962219 0.0
0.004315449064111205 -0.00013250957070761238 0.0
0.003306711771769275 7.35279791561084e-5 0.0
0.003391034384588306 3.651306019661494e-5 0.0
0.0020266231208795203 -0.0009676730911376619 0.0
0.0045817954587801975 -0.00013980511380712836 0.0
0.001992054911347554 -0.00015683861916228358 0.0
0.00040535017642649994 0.00013270526509624218 0.0
0.0005295908922906496 -0.00043278985806478166 0.0
0.0013686341878293088 0.0001924668659204431 0.0
0.004149576486638995 -0.0004156707026886753 0.0
0.0002363148781791175 4.001710242624903e-5 0.0
0.0024738170470061443 -0.0001995803413416184 0.0
0.0036953615023842014 -0.0002769328974666062 0.0
0.0029813387155077334 -0.0003859366475557357 0.0
0.00460271741028669 -6.0577786233821754e-5 0.0
0.0001021006235776386 -5.7059980255297964e-5 0.0
0.004328220826413065 -3.302214605765685e-5 0.0
0.0046165168155836355 -5.9442616328772575e-5 0.0
0.0022892048395692843 -0.001081849600689268 0.0
0.0027043769494344383 -0.0003980072384240975 0.0
0.0014975187457723714 0.00025170435727339067 0.0
0.001105863726914422 -0.0004957302116497306 0.0
0.001467447944791489 -0.0002580369835881486 0.0
0.001926271758073739 -0.0002082077108300346 0.0
0.0009226766968887439 0.00012036580978020295 0.0
0.0017132929715281907 -0.0007444867152134378 0.0
0.0008436616974994743 -0.00012624782350980778 0.0
0.0005411794492935332 0.00013043795061144653 0.0
0.0021983462259336493 -0.0003526375129790711 0.0
0.0033710777386734597 -0.0006149899043901758 0.0
0.003986151260635627 -0.00040539466226086307 0.0
0.0015522991213474133 -3.1219998382368965e-5 0.0
0.0010255923466494568 0.00021260856084197256 0.0
0.002550359582575781 0.00012293586746952768 0.0
0.0013547149381012357 -0.0001680960865555478 0.0
0.003777733315048935 -0.0004172849407213413 0.0
0.0012617731876172144 0.0002507566827706077 0.0
0.0011335114999847002 0.0002462530874982042 0.0
0.002603561360147279 -0.0005845997952846463 0.0
0.0026189642876859954 0.00019885814241870858 0.0
0.0018441066501265913 -0.001080137695191194 0.0
0.0035696852042898493 -0.0008575707973023874 0.0
0.0012615668717577116 -0.000455274611849444 0.0
0.0033222957960283225 -0.0009571489670161799 0.0
0.0010099010266591752 -0.00016452935126118557 0.0
0.0038448670938066795 -0.0004094900090534175 0.0
0.0018091959042737824 -0.0006087952893763691 0.0
0.0040685530901374 -0.0002687430097699903 0.0
0.0011099873795682416 -0.0004618117637381552 0.0
0.0018437631292127184 0.00023816813758328168 0.0
0.0016552195880439686 -8.362991117365012e-5 0.0
0.002113760012948134 -0.0008133215922876019 0.0
0.0022330088871201684 -0.00025788325696441983 0.0
0.0021536789059472105 -0.00010076864918088716 0.0
0.0012898441673574396 -0.0006451723067215926 0.0
0.0013046498340710177 -0.0006912882748960565 0.0
0.0008380987373161108 -0.0003181771998392335 0.0
0.001085448601806679 0.0003380264155267093 0.0
0.002189938791746023 -0.0009443691589306467 0.0
0.004099885290768863 9.23553268057853e-5 0.0
0.0037079260540162024 -0.0005183739918477721 0.0
0.0025791858736658423 5.451594892634494e-5 0.0
0.0012052098962255316 -0.0004595358878384862 0.0
0.0032404996946149194 -0.0003594218470556292 0.0
0.002745475363094254 -0.0008031287298556058 0.0
0.0018061375792439505 -0.0005708581967599747 0.0
0.004370070916958951 -0.0001641355488867103 0.0
0.004578196019366641 -9.947068987108068e-5 0.0
0.0016266418372611043 -0.0002959953366074747 0.0
0.003149999229974449 -0.0009709066027104093 0.0
0.004242142017796436 -0.0004313662003661579 0.0
0.00020669565339836418 -5.704837818679477e-5 0.0
0.0011176004422859115 -0.00029162324259435516 0.0
0.001322771151100355 -0.0004515090317141538 0.0
0.004315822937272506 -0.0003724319976295416 0.0
0.0017058041507749453 -0.0007005384175373888 0.0
0.002957715695896388 0.00020650256546337367 0.0
0.0004350191421336008 -0.0004388062143361307 0.0
0.002735359937196492 -0.0004750925945512011 0.0
0.003967880022170202 -0.00036790240563905737 0.0
0.0031667383063866458 -0.0005862242328383046 0.0
0.004443845934226741 -0.0001581115325615645 0.0
0.003218031726689677 -0.0008839851945681739 0.0
8.168080730900544e-5 -4.858386839789348e-6 0.0
0.002090881210167937 -0.0003391039816963977 0.0
7.591436805900273e-5 -6.023517668558378e-5 0.0
0.0014514129567802275 0.00013317774275270364 0.0
0.0009773572892644157 -2.649991976155294e-5 0.0
6.552545315269055e-5 -7.68697831723156e-5 0.0
0.0011891205291832939 -0.00090395471141266 0.0
0.0010986747450240726 -0.0008269250042337487 0.0
0.0019958802034210914 -0.00011561772107151421 0.0
0.0019897267501203042 2.8046006427141245e-5 0.0
0.0007953493360822731 -0.0006796642108336527 0.0
0.001431028580092276 -0.0001624560273291253 0.0
0.0027857985090560785 -0.0003022274420982992 0.0
0.0008170265712659975 -0.0004200784728372749 0.0
0.0030983386222138694 0.0002317447048535686 0.0
0.0028118849532633976 -0.0007755374311554561 0.0
0.0005985382298110476 -0.0001646454748987439 0.0
0.000335667916183882 -0.0003171967772302934 0.0
0.0024123809246412516 -0.00017220307160361153 0.0
0.00015404649621827979 -0.0001775790530995594 0.0
0.004488628735228366 -5.36451583327195e-5 0.0
0.0015663371113983613 8.259333267195491e-5 0.0
0.0022113487573877603 -0.0003239907698735974 0.0
0.004096210120512218 -0.0004595158949632346 0.0
0.004450061588284783 -0.00027568602755420987 0.0
0.0037094659658146495 -0.0002388500117023207 0.0
0.0021834939500265885 -0.0008996388511833331 0.0
0.002840751124945613 -0.0004495193168739485 0.0
0.00401121259299501 -0.0005911398521478786 0.0
0.002387892594876939 -0.0011334899664409604 0.0
0.0039148475521138095 -0.0003718386021713355 0.0
0.003179403538873799 -0.0005474811940105902 0.0
0.0016466282818923279 -0.0006707595666802118 0.0
0.002798018571918486 0.0002132784286824641 0.0
0.0017407874707111406 -0.0005400939001382977 0.0
0.00144840837143932 -0.000898249137735617 0.0
0.0021729396715762335 -0.00026484122418115127 0.0
0.0036813489978423136 -0.0007652308503775394 0.0
0.0008302088790524012 -0.00028702691220998475 0.0
0.0006613888380258877 -0.0006029713177824319 0.0
0.0033897674621247505 0.00010517250594098186 0.0
0.0010543045030377493 -0.00032614862410124265 0.0
0.002716756572752012 0.00020176137357499877 0.0
0.0013588810857795485 0.0004880164470768287 0.0
0.0034713282872667873 0.0003221999438746554 0.0
0.004057331665760756 -0.00024114227695940147 0.0
0.002245244499934676 -3.893663612082566e-5 0.0
0.0036251466123281163 -0.0002770726913547137 0.0
0.0028812765867913385 -0.0008439984308034342 0.0
0.0030569310231362582 -0.0010413488353103123 0.0
0.0013854699772440355 -0.0004450465986955511 0.0
0.0013561601015828176 0.0002580631247210698 0.0
0.0009122288000095525 -0.0002911440066848156 0.0
0.0010040772653887272 -0.0008272977284773131 0.0
0.0020539226680166946 -0.0003761489569445543 0.0
0.00010420116431787643 -5.162335967936435e-5 0.0
0.0007678144797989892 -0.0006232432755379821 0.0
0.0022405512714421556 -0.0001408358178203591 0.0
0.00026056407444033933 -0.00019658384197962202 0.0
0.00027007803304199095 -5.307481640628452e-6 0.0
0.0024737386741994333 -0.0005242645189906106 0.0
0.002475101771561281 -0.0001810188823278042 0.0
0.004398298282149175 -0.00030305082262029547 0.0
0.0019234532820144375 -0.00016527662849646972 0.0
0.003391392165905998 -0.0005740761090904588 0.0
0.002496098446194098 -9.10652244484568e-5 0.0
0.0006289398219400386 0.00012215034535276916 0.0
0.0008327639501457136 9.50854313989667e-5 0.0
0.004508476441614652 -0.0001168258697465158 0.0
0.0028791041284158816 0.00020964394158575663 0.0
0.0006715196779979196 -0.0003115697485472743 0.0
0.002850268366707106 -0.0001931266218766674 0.0
0.0021432384861441458 -1.3902065762849967e-5 0.0
0.0024541051291493824 -0.00025908674972245464 0.0
0.0007573480303286812 0.00022206402659393133 0.0
0.00249058852828749 -0.0011357062289729623 0.0
0.00427883924405585 -7.249767314475908e-5 0.0
0.002431490899407595 -0.0004355884232257298 0.0
0.0024096015723685683 -0.00011849150676980438 0.0
0.00306729453706555 -0.0003289092658515137 0.0
0.002076667720499286 -0.00010944932156798735 0.0
0.0024422289310965786 -0.00040341235121696 0.0
0.0011680424705684763 -0.0007026594535011791 0.0
0.003247500537747094 -0.0005176547399694953 0.0
0.0019251935982184246 -0.0002988017755963728 0.0
0.0024083158937900245 -0.0001547734876068738 0.0
0.0038483692713927793 -0.0007277591173918521 0.0
0.0020550535248151005 -0.0002580949875226093 0.0
0.002874869045764833 -0.00014193090148109912 0.0
0.002507844600251821 -7.321794788120926e-5 0.0
0.0003522085995040538 -0.0003735536981292028 0.0
0.0037254133168372326 -0.0004853633521399385 0.0
0.002490395435768826 -0.00013871762574236716 0.0
0.0013687005870591216 -0.0008962955630479847 0.0
0.0027130865108606597 0.00021244168270463873 0.0
0.0034235028496402767 -0.0009258274789945502 0.0
0.004516202291086998 9.782136182726781e-5 0.0
0.00019354605948989712 0.00010938831244426414 0.0
0.002002898761133926 -0.0003891400117607753 0.0
0.0026803727556184652 -0.0010734354448663067 0.0
0.0016736872728511565 -0.0010082379508444428 0.0
0.0019079882305972253 -0.0010924007700432213 0.0
0.00034787834214255905 -0.00015771856366769308 0.0
0.00345194384916645 -0.0005474211390998336 0.0
0.0013924870006093496 -0.00041109824704823505 0.0
0.001984728741150297 -0.00026767536967399675 0.0
0.001560461117240734 -5.903325784277796e-5 0.0
0.001977884595571706 -0.0010676505959333446 0.0
0.003397226966518939 0.00022920768559738796 0.0
0.004322278132604342 9.865502351122893e-5 0.0
0.0028815272348491155 -0.0008093748009003033 0.0
0.0024242156260642174 -0.0004707731162868711 0.0
0.0015475338653378895 -0.0006635153938401449 0.0
0.0025944834005623345 -0.00113075282163826 0.0
0.0035943202839077842 -0.0004685908488503068 0.0
0.0003024243754045704 -0.00019551243208650916 0.0
0.004220974820671852 -0.00015148073676040627 0.0
0.002087924298260905 -0.001078553491904729 0.0
0.0021413107633652404 -0.0009661783534854428 0.0
0.0032743453615239333 -0.0008434615611763152 0.0
0.004638560330920533 -6.670470912851938e-5 0.0
0.0017745586175095206 -0.0010318519697467363 0.0
0.0014696907919659742 -3.467517994125386e-5 0.0
0.0015690408705625813 -0.00030462495834281854 0.0
0.0030487050960851018 -0.00036594646730821623 0.0
0.004514620528936374 -5.877175216425021e-5 0.0
0.00036665426925440035 -0.00033083335551344046 0.0
0.002450038382557407 -0.0003754830116896121 0.0
0.00420671726161219 -0.00041726709549676666 0.0
0.004494811618276969 5.787450796834139e-6 0.0
0.0013225641512343584 -0.0002454388901771534 0.0
0.0021380383637348618 -0.0010884214927580549 0.0
0.004384358776241176 -0.0001437008988170667 0.0
0.0007975302627416193 -0.0005852958414459755 0.0
0.004578291610385331 -4.100671438431206e-5 0.0
0.0014858134601181427 -0.0010086918957600125 0.0
0.003260011047641611 -0.0004791645153281628 0.0
0.0008813475037430115 1.6714092745035104e-5 0.0
0.0029467928722796996 -0.0001470083979834439 0.0
0.004544919684074738 -0.00016444317478408118 0.0
0.0036594177222596157 -0.0004374059904832098 0.0
0.0013012820148361642 -0.0009100607836172122 0.0
0.0009144160286514449 -0.0007849049057420035 0.0
0.0011683454035764486 -0.0006390000670598156 0.0
0.003936446048841082 -0.0006380740491204982 0.0
0.003558774203403724 -0.00027942675590500004 0.0
0.0007306871312689414 -0.00032142785451064047 0.0
0.001894030874259988 -0.0003720992624524338 0.0
0.003044241694588425 -0.00040383129882602973 0.0
0.0018295298656938429 -0.00044068182341134297 0.0
0.004413908104621836 4.253532436591323e-5 0.0
0.003248312057535366 -0.00021995309181628176 0.0
0.001914855256951611 -0.0002771795503226797 0.0
0.0007513030169568874 -0.0002825106124259185 0.0
0.003483765784038515 -0.0004900591736067924 0.0
0.0029270219996064308 -0.0009871380376820936 0.0
0.004106473403343013 -0.0005348880224297552 0.0
0.0015940139614857593 -0.0009913896339124985 0.0
0.0030126219995057868 0.00015298402492173346 0.0
0.0017450520366659218 -0.0005031642376808503 0.0
0.0027812632400781305 -0.0010613371537086136 0.0
0.0040608953415689165 -0.00046362642015616395 0.0
0.003523740817746632 -7.365828083716685e-5 0.0
0.004414380636632743 -2.108114496511044e-6 0.0
0.0010273887106233028 0.00022505680563807902 0.0
0.004294012076866379 -2.0174816352545347e-5 0.0
0.0015266777645714007 -0.0006073535363198116 0.0
0.0039740915935112175 0.00010551909777285534 0.0
0.0027911535333862004 -2.295015948083256e-5 0.0
0.0032701403590591786 -0.0001555074254764652 0.0
0.001432631950473256 -0.00036630735191182424 0.0
0.0033231010439905137 -0.00026565978584203176 0.0
0.0022432765282935216 -0.0010930329911003009 0.0
0.0012157378538117196 -0.0008535952274803293 0.0
0.002530870035955696 -0.00018971205241017535 0.0
0.0035112001032562307 4.764256612564547e-5 0.0
0.002102606442978043 -0.0010192224786585524 0.0
7.19904789760052e-5 -5.199966527556261e-5 0.0
0.004539700999910598 -7.478303073696746e-5 0.0
0.00395709048559704 -0.00015142625024763338 0.0
0.0019000141688755624 5.2658537874108544e-5 0.0
0.00459966112104399 -8.727537338074884e-5 0.0
0.001256535343984598 0.00019335592839152954 0.0
0.0021448559071602724 1.0867308826336111e-5 0.0
0.0046680852425340065 -4.047258488383361e-5 0.0
3.052600729704431e-5 -4.0629554138797654e-5 0.0
0.000107039729398614 -9.645206703152693e-5 0.0
0.0013479266783927419 -0.00014207248457263024 0.0
0.002885791842729351 -0.00046326443323173907 0.0
0.003271140088660465 0.0001178674525659371 0.0
0.003685717545466783 -0.0007271046216506359 0.0
0.004555161438029532 -8.96351789865577e-5 0.0
0.0003368454383537317 -0.00022392246185438423 0.0
0.0009747237313348926 2.763677024322463e-5 0.0
0.0029465586881504127 -0.0009393094155730011 0.0
0.004095396470816636 -0.00015589127365834185 0.0
0.0012069500381552427 -0.0006360090966442902 0.0
0.0002617503042258091 5.324787440610106e-5 0.0
0.0029171419667515528 -0.00020504228979397523 0.0
0.0013982386046874219 -4.14935797083e-5 0.0
0.003473576294916822 0.00022754821213199814 0.0
0.0021879657028844425 -0.0001363472539429702 0.0
0.0018143019033919877 -0.00046867870195229397 0.0
0.0041567784488576705 9.716961063446123e-5 0.0
0.0042766522858336715 -0.0004108911724224186 0.0
0.003550502506748137 -0.0008336591805589578 0.0
0.0010623279040363138 -0.0002986927981199316 0.0
0.00433847308852335 -0.0001374167666567698 0.0
0.0007141997127441026 -0.00038623668472584816 0.0
0.004373228107942335 -6.312549513640841e-5 0.0
0.0039721849314457575 -0.0006232996468826489 0.0
0.0028223314406499037 0.00012180616109440568 0.0
0.0033032159164792154 -0.0009328765425720753 0.0
0.0034229409759630645 0.00022197728333656425 0.0
0.0021693494644455693 -0.00021822240703163928 0.0
0.001204522986558184 -0.0008088087694021472 0.0
0.001619991192588296 0.0002467059470276319 0.0
0.00011015591805732948 -8.320289280671743e-7 0.0
0.004499033238525913 -8.816167993039165e-5 0.0
0.00046991229171423096 -0.0004733240248153862 0.0
0.0034665859095315598 0.0001273047987142361 0.0
0.0008321879341759393 -0.0007059562258332578 0.0
0.003263118633550517 -0.0004481056907184364 0.0
0.0009549318756607817 7.145617431825979e-5 0.0
0.00039856394519338927 -0.00024028996311364307 0.0
0.0005756969792366657 -0.0005806914501578762 0.0
0.0005204249557278162 -0.000403065918238081 0.0
0.0013428447525798783 0.00029546594460253347 0.0
0.0036741667644880423 1.1455050886013491e-5 0.0
5.503650945047637e-5 -6.142718872432052e-5 0.0
0.003926154549763919 -0.00013390790024913303 0.0
0.0035450923403178188 0.0002809355780858244 0.0
0.002955673242125001 -0.0004411498984354069 0.0
0.0021925761419747678 -0.00017004979177553153 0.0
0.0012343219444760484 -0.00010273126662572064 0.0
0.0022486649104851695 -0.00023815161906042367 0.0
0.0030124708789071976 -0.0008581906584052925 0.0
0.0014479793449239111 -0.0004105664528141282 0.0
0.0010677846946576506 -0.0008255426695617176 0.0
0.004040856021533196 -0.0003721817423871069 0.0
0.0030797203259591743 0.00023352331980779187 0.0
0.0004731362430556818 0.00010728767391824408 0.0
0.0013683163039987026 0.00013038611986133903 0.0
0.003168968871064218 -0.0003328709914892338 0.0
0.0030000365287394227 -0.0010177039538250877 0.0
0.0018889710974670261 -0.00039900463671047775 0.0
0.0037978790302223343 -0.0007223165247460491 0.0
0.0002759987923361571 -0.00030603846933120976 0.0
0.0033250902001939293 -0.00080955455257505 0.0
0.001547352371668947 -3.7647070190670853e-6 0.0
0.004430314782484922 -0.0002774826979591626 0.0
0.0014814020453072286 0.00010191419582294083 0.0
0.00289843612171096 -0.00010212491009820704 0.0
0.0024924657869473035 -0.0005021126762455766 0.0
0.002149530175577573 3.3505054944038365e-5 0.0
0.0025782157053954543 -6.284540511694358e-5 0.0
0.0028913261594927238 -0.0010361107308130193 0.0
0.0037179492416136305 -0.0007535834516656021 0.0
0.001163640897817062 -0.0004670917989448188 0.0
0.002643682751913778 0.0001538161765135493 0.0
0.002580785917535478 7.89753967880738e-5 0.0
0.003701753986580898 -0.0006804820136754074 0.0
0.0021780804566547407 -0.0001988016250704396 0.0
0.0020695633491728464 0.0001240161262363022 0.0
0.0011974953008302 -0.0007669297564963949 0.0
0.004402795047229087 -0.00028140432159788934 0.0
0.0031303599814601177 -0.001021134882018205 0.0
0.0021079805695331383 -0.000988407966978956 0.0
0.004532349949350748 2.132636562715968e-5 0.0
0.0020791250504596753 -0.0008732172449081202 0.0
0.003460378836142596 0.0002430232917275031 0.0
0.0012449576557535965 -0.0002224956267234961 0.0
0.003076892484489703 9.220850809292271e-5 0.0
0.0008987490811431729 -8.888684249971447e-6 0.0
0.001961876998925168 -8.396386873076449e-5 0.0
0.0012443549961091054 0.00039113413292990066 0.0
0.004614944082169003 -5.6866209462337605e-5 0.0
0.0029006845742290655 -0.0007798734361094166 0.0
SCALARS damage float 1
LOOKUP_TABLE damage
0.25816254423302354
0.05946707627175128
0.2654820781277996
0.09081695694451337
0.9630032031256244
0.9634774186764362
0.010352300923132341
0.40677919226679593
0.3977706905180198
0.39681081497740045
0.41381133560928324
0.42938667741629116
0.4530197670965198
0.47629677126594194
0.49268674698609954
0.5088460450154465
0.5075963414550809
0.5057374568294883
0.4960344884296899
0.47818293513297727
0.4603745468806642
0.44734654952559794
0.42569472273443215
0.40029857333630153
0.38345478542810185
0.3594507275547702
0.3294023893638907
0.3028854052967133
0.267830500854233
0.23378845345546037
0.19508369261742955
0.15290283021284937
0.048824574124988626
0.09487145658811096
0.10658514333647312
0.12427780338680532
0.13705941831614168
0.14710417755987062
0.15867195321242933
0.16757118327859422
0.17686063936187063
0.1863059717396208
0.1939632635113738
0.20300921160439167
0.21223666921156056
0.21877353195171934
0.2260781882354927
0.2343095719927605
0.24374646885873813
0.25473091742284204
0.2615093558772741
0.2705269804018819
0.2794867064874865
0.2915846869382079
0.29668598077070163
0.31152043758695647
0.3184666087416998
0.33245238634515845
0.3420132766333576
0.358621088004331
0.36385973771936364
0.3825632338958284
0.39473425936665707
0.41154933618945416
0.4235637073807191
0.4424465730635875
0.45356548459660795
0.4697409791950576
0.4889116087799465
0.5130337213199249
0.5358302324795381
0.5562492060363895
0.579005662033781
0.6091837368265673
0.6306542837643165
0.6588187989523819
0.6909585555520805
0.7134487215967238
0.7482692238088618
0.7756567083430116
0.8040290952823977
0.8376778761193467
0.8644199623935845
0.8759695139802417
0.9057210897156255
0.9131313140848131
0.9296070282479102
0.9241426749565738
0.9095364943105916
0.8854050265492851
0.8601233213997198
0.8282774103836559
0.8027810733311697
0.7754876669848593
0.7545985732994113
0.727404580323438
0.7149991515220304
0.6927851912377567
0.6692535127534865
0.6531128269113996
0.6341610361069923
0.6239611816880043
0.600926746763284
0.5944296254515529
0.5801411858373002
0.5669163571324465
0.5567130060828173
0.5373797041902704
0.5305761233007263
0.5190088096571904
0.5068495142203597
0.49174249295692773
0.4904887334753814
0.47124055523601005
0.46432522329735787
0.45024411856399926
0.4404202132884114
0.43068276901699276
0.4158936880996698
0.4054209499444583
0.39637997933984964
0.38314677559210397
0.36747532950452466
0.3517686094225917
0.3396671333078796
0.3237900968869961
0.30962145737484936
0.2756613779741449
0.24834956673264882
0.2332302593659821
0.14220641864767292
0.18627442481065318
0.24108663400869035
0.30299994240791045
0.3429909245688118
0.3670547189781123
0.387753206337517
0.40334894255622905
0.4146360969664798
0.4231543632306906
0.4343624729738868
0.44185362076355716
0.44869918323772096
0.4552131171634426
0.4612015470605929
0.4626383649499673
0.45919148608173227
0.45169977584234366
0.4450901066941458
0.42482417255535665
0.415868220763165
0.40340605437017496
0.39290377967620377
0.39907297165674604
0.4071500524747325
0.477070887246582
0.32942022802611354
0.7038963767324647
0.9637826419441151
0.9951476356355117
0.9771591727529565
0.8995767630085586
0.7487044459416432
0.6415093746117312
0.522339382638187
0.4259555647520935
0.3340248211004173
0.2765536728599491
0.20954606083336613
0.14982507724652083
0.0904915097512646
0.06606858259585871
0.008199957141943114
0.03222592391608587
0.06279721881599598
0.10581675022484796
0.16172318462910254
0.23975657877230142
0.3389110053873038
0.4760089278662771
0.6378553984273636
0.8400432181512973
1.0052934092091041
1.006786915662571
1.004596735338644
0.9303338273925733
0.7866185030399814
0.4955648229676285
0.3762784519409308
0.6322301329159341
0.4852532353935403
0.7528404541775545
0.6410474908203296
0.9160458889962738
0.8088046539279865
0.5500799936200145
0.30843506426583917
0.49450682982457456
0.2608733915092472
0.478676873287883
0.45620357447226884
0.288004670514379
0.32146922397126815
0.021255473198473294
0.13163561230896567
0.4350681955521874
0.21948514118266327
0.41981922360163415
0.4339855584078714
0.4349343620211446
0.48931588976320695
0.3863146332621218
0.18216891395986037
0.578652283755652
0.3359227567067101
0.3564720774728776
0.39999343110332114
0.5647250964529569
0.7252909327843611
0.8271269437108608
0.8772799852311014
0.6998032048498317
0.5861081435025787
0.43782764451220524
0.3394922840232928
0.3387207798134737
0.1529195078603266
0.3953861201467494
0.45459206266262175
0.3487172793135869
0.2590895162510517
0.7480879462828376
0.6051042302475165
0.3901862203376609
0.4007065455336016
0.45598371267020044
0.45276154988235534
0.2470026391978163
0.06011745277043041
0.1169365195752474
0.27733978876719245
0.6571805247621414
0.9123665111191193
0.5221267965894636
0.4030300890904473
0.8772541198854773
0.5243884122124237
0.2888328360755839
0.4693508260636478
0.2418553554854544
0.2005391316311035
0.40905814570396004
0.668755123661764
0.6404417005712213
0.2781958579400158
0.18709212802326317
0.9436065884327951
0.9259804987857692
0.3585406038037231
0.42624715291348503
0.08833400096565887
0.21972208440354185
0.8880224972894081
0.6037927109666766
0.45160918061956473
0.4710507788828619
0.5722525518714416
0.4523954999567141
0.40718803817164145
0.3927728726295054
0.37198746157684215
0.3601196667028921
0.37086328338855196
0.35230086974957997
0.3623089461759639
0.35074712861843943
0.3608169272792176
0.3622286937918644
0.16785401516697052
0.05988136736378182
0.14998386016843726
0.07905381007781875
0.14432897237666414
0.1039506949454479
0.15013909965609334
0.12357973505205377
0.15788809040828686
0.1378226935866324
0.16258428442235867
0.1514689990786011
0.17406373317177218
0.16245556859589627
0.1813370498808137
0.1734642292244194
0.18879387393274896
0.18112619588470316
0.19492737150536082
0.18955079889167478
0.20141689845260172
0.19808309078020764
0.2075628540503503
0.20525907014363134
0.21548996779499166
0.21429990896387358
0.22284391127313158
0.22097409561357056
0.22937297692298395
0.22683606580789809
0.23615786921805226
0.23640517472115538
0.24425927730780683
0.24465355139267972
0.25166209770465475
0.2524816839586307
0.2595096751363953
0.26117720385556087
0.11778303633333395
0.26782541550559114
0.17951254593444818
0.2322598138857573
0.26978808365872253
0.27678762472803065
0.2791690895319914
0.272311775680795
0.2819312699123173
0.28628933943747187
0.2842121168198925
0.24406824928767545
0.29413971892173224
0.2919487091683382
0.3016023207578297
0.2751619411508201
0.28522015581997695
0.2995576378400547
0.2787250505545844
0.2889580983038988
0.31059315328900944
0.3089489818097557
0.2834443492722911
0.293684861608419
0.3203501670263175
0.3191436467086186
0.28796338360133034
0.2981642353486935
0.331094409618723
0.3301225549234822
0.291601984599893
0.30294090702137516
0.3425374430944067
0.3416182966172548
0.2959406144552062
0.3090833179523983
0.30171542996642536
0.29014698240945114
0.34369070883203634
0.3545859601685684
0.3532564291312071
0.3400191205615631
0.21254590841596632
0.3525899652161952
0.3392167442467559
0.3520158274710614
0.31492568976585233
0.30802903415880173
0.31988434489292
0.3673014265231717
0.3190370424831192
0.31191308721999894
0.19649369302597458
0.3225398448272041
0.3156330232671279
0.3256642713454181
0.3187195079319456
0.3092644528041229
0.3119356050985804
0.3051600792610176
0.3283571146754588
0.3101780345355254
0.30215294090714584
0.3367719648465934
0.33817907336053915
0.3066719105728716
0.3009977755014979
0.3410502039347082
0.35353416188686027
0.34710729046676936
0.34722591134043906
0.3436627834013393
0.357357316448682
0.3682683812574437
0.37089429881146213
0.3860707957670862
0.38604010238093917
0.40194097315025695
0.40003752357703504
0.41727906701712775
0.38720863560434415
0.41339814559515736
0.4328489444128587
0.3572786944153081
0.30603051181262353
0.30126158484808013
0.4376709129248501
0.4540542572846057
0.44688209076547813
0.46403817985298407
0.3568185853051747
0.46931554616380017
0.4594617755684046
0.3676530446443715
0.36728969178824855
0.35675130375630537
0.4826011049889387
0.47130755053748163
0.37961660074604414
0.38085957224618056
0.36597470695899387
0.35502632299922104
0.4917719941678695
0.48102560270587275
0.45793414799241894
0.5050553047771913
0.4652958419808988
0.44671473417398644
0.3067585990973048
0.30383553233833877
0.29586149283507956
0.30357651438341166
0.2925549116493099
0.3015313781380341
0.28914360631457187
0.39360517170172926
0.3948823046345868
0.36289013049278357
0.352426074652784
0.4867544606460796
0.3030792726797053
0.2900434114701819
0.4084358531718368
0.40996080965944776
0.3028512448551797
0.4717226716089784
0.2067123558871882
0.6329504038677303
0.20696990387350753
0.3482814925098743
0.3052834648956839
0.29127304722195224
0.3607508488947493
0.35057760206422867
0.42396446560111456
0.4268594358239296
0.49283287234236445
0.31166522657908147
0.3126521978385528
0.3159073124016439
0.4745278925126646
0.3121303055829355
0.2952322375377426
0.42125472060489483
0.3565504896482824
0.3463491354881316
0.3350547506000443
0.34231042276411344
0.32895712500328766
0.34072194918443666
0.441439583234301
0.44407300285611345
0.2771979056197752
0.31750787329832625
0.307643552927899
0.49639872645391475
0.5129213487575057
0.3343362730694014
0.31857106398818624
0.47967542351676923
0.45956711623057983
0.34392902689691757
0.36829019285439657
0.4607831471065658
0.4629177783857612
0.44536100638150433
0.4644785394002208
0.44563777945797894
0.4648710709501405
0.44476927185369813
0.46345043357771276
0.4421292867875496
0.46040730675951375
0.4836918188874943
0.48044169295005973
0.5058260018384906
0.5017990006995219
0.5293484252036734
0.5243510921657354
0.4385006810280039
0.4957823460749215
0.5175960540018297
0.5489119476588299
0.5413738073235519
0.3163588327559883
0.31617460609603004
0.35225958462994633
0.34235983408128906
0.509676995791572
0.5325980522443892
0.5672175442988492
0.5576473196196422
0.32148961441999296
0.3193460981108025
0.3276798501838858
0.34286189983515825
0.33094488547368006
0.5001067978278534
0.48205343602275574
0.48166575580979604
0.27304678468255267
0.3130678592230148
0.5954393238363217
0.5849178054614185
0.5472393127985598
0.5743844186667997
0.29823413514847497
0.35116296553468357
0.36185228451392987
0.3300924342762461
0.34715281769156486
0.3377346447727173
0.3378987759255725
0.6142041931978048
0.603410921900962
0.5625595900325155
0.592422127164986
0.5523463540191219
0.5800378594774533
0.6222662651150207
0.6076092340477838
0.35029745386823236
0.3247859700058391
0.3210936720580909
0.47901948933849164
0.5035110376692246
0.4863464969014351
0.6466707933993173
0.6330256757794988
0.331346281464851
0.34322475953330506
0.3330868501640002
0.2908715969791255
0.3553936520627165
0.5011483775271528
0.3478518335947193
0.3318944488570212
0.5081266831705461
0.48443298047026045
0.4612378007287843
0.3607415273982761
0.5213999322322378
0.330964200576644
0.34941429049379125
0.36765653695562206
0.35504096041316197
0.5421895405202812
0.3359082417615547
0.3266991003644665
0.3274087494042343
0.3219897283315823
0.3437684448574284
0.6714258068133288
0.6512653050419915
0.3241565666924421
0.318664266042145
0.6875109206744112
0.4963744919480727
0.31970176986927473
0.31200931902590445
0.42765246014058717
0.46056586454777987
0.44044095697975566
0.4837352896886549
0.6877574381437861
0.6669169651594681
0.5170085897288209
0.5080945435436224
0.5198901329779553
0.6331380683698766
0.646280221912291
0.3306197700382398
0.3219247030712056
0.6776298632323497
0.6558387380840572
0.3119103886855991
0.30432663473476673
0.39072292787190166
0.38089229206400976
0.3052875927231653
0.2981397411118358
0.2951970597777572
0.28918955262577023
0.45871612259099237
0.48080050293500415
0.32821134012578157
0.34291720405108445
0.3172937910329696
0.5147783187241844
0.6857161610845752
0.6635286768186857
0.37352557110142187
0.6143138570925227
0.5323455653279585
0.2929543813930226
0.28481487662899596
0.2806538508931974
0.27553152449844354
0.28093460105310275
0.27189709312679294
0.27940641410265143
0.27053391414391403
0.2819048250965636
0.272512790515856
0.28724033319642295
0.26059233395561404
0.2662882390886831
0.3317268565774052
0.3425786012268559
0.2459214227025536
0.2528655427967415
0.31714991277666826
0.29683636000350033
0.48534332386163503
0.4779027176894082
0.317341105780072
0.5397215850251463
0.5440313911074118
0.49945686687891244
0.47046729557750916
0.45619582829573424
0.47407043922071684
0.4923020118320918
0.3417972415784816
0.37081786659193183
0.4913822728965016
0.508331252020969
0.4863387790904394
0.270110020671204
0.41364030092204285
0.4107529922740264
0.3125796965618772
0.6907183745426294
0.6686968366307887
0.6438285673616027
0.650028080247156
0.31245166417482484
0.33052776252182786
0.39587404657349473
0.7108168217227279
0.34993660260363507
0.6718318295483363
0.6537042176231331
0.6299695558954409
0.6348328174330591
0.6115760136697788
0.6166386553487044
0.6358146532981485
0.6183392641507273
0.2362706984661976
0.23908956362111686
0.26248419977539184
0.5647835453212402
0.5726794839109883
0.5014126161444643
0.47992638721463404
0.47948726844763
0.4631718256654365
0.37352330549963264
0.38433724730872343
0.3567822661033937
0.3485802488769918
0.23354417119604082
0.34559173718097075
0.3153728241713479
0.49295676300994207
0.28148732477153965
0.3250356662602883
0.6327138988265647
0.6172982524249887
0.3726187359504292
0.36218272646138133
0.3057494700031075
0.3174811599847745
0.3451777900065458
0.35790562099404033
0.27581623594177873
0.6706667531618781
0.36988753270394353
0.605044739915718
0.3908689244297796
0.2225592608166759
0.22774005488220536
0.32094819134656233
0.491288384363109
0.4632696900181248
0.5241163983870943
0.3781579310185345
0.37050346547126983
0.38196836201988404
0.37796296453577644
0.3688427197713638
0.3762529504640424
0.3850219759422847
0.38197947292608275
0.39182056530498943
0.39377533691923966
0.3985137094653746
0.40072811009615805
0.4063905981523248
0.4066187080685537
0.4027535803264061
0.4102294370930104
0.41334118801419656
0.37085250160669847
0.31707574845774067
0.3126206986538189
0.3217085165087532
0.4168377348988557
0.4177489804537286
0.4137470103542813
0.636483083711605
0.6458544003294981
0.6798285053399303
0.6891170520438434
0.725202190900154
0.7337653299815781
0.6960005017702932
0.7386886171920298
0.6988426507035019
0.055117784629932706
0.7725658927771167
0.7629936484442554
0.29663724253050305
0.42199402267245384
0.41775837989132525
0.40277594903312336
0.3981042150886655
0.3845009929709635
0.37968677440203247
0.3928309171910781
0.37436322263887384
0.3877906738385096
0.368339534591076
0.38145741942973466
0.35701724556875697
0.36712846783311626
0.3720950225685531
0.40107446865141244
0.3947599622437439
0.3128939635677967
0.245768259433665
0.1482024953094165
0.5012828454204222
0.4331127891519139
0.4276288765855691
0.20265406723471302
0.22445156030825733
0.6050360871825826
0.3661873596609621
0.4658472347447289
0.45029613353168796
0.25942186019438784
0.49390250011826387
0.4728753323431534
0.1936621741673506
0.7371683661498656
0.695087395774245
0.45977852896714505
0.453941581608984
0.44109707822525235
0.4363832915764188
0.4477955109100862
0.43051673780535626
0.44201861312522267
0.4244282420655186
0.26639517560159454
0.41435352686087473
0.4554987048607923
0.457537522076247
0.33976690434913304
0.33895623905577127
0.4110080333154238
0.3976265822398835
0.5947865520626704
0.601424684307247
0.7097932031013638
0.2883258001797664
0.31866703551985115
0.399622794348647
0.46418081046119786
0.5873211407730164
0.43947973266811036
0.6012248825470852
0.599982771387581
0.6104959190821727
0.594616529829233
0.26853121977402217
0.2740583175920357
0.3631511770094976
0.3947327084413275
0.5521488331836524
0.32275038215425633
0.33158347644294983
0.7293695247119935
0.42451549420301116
0.4569726288735205
0.4639653342708052
0.447427173323565
0.43276455997734126
0.4324148872771903
0.28049659659054693
0.2073510916199537
0.21461445291463985
0.24069577740959774
0.3985645937005084
0.3964907323111908
0.4062575464081706
0.3928931389741588
0.4181665518516988
0.4207113771010077
0.48608758631092436
0.3541204880488719
0.3714412043507097
0.3675294705106321
0.3438576498940796
0.36132639179405135
0.3576211530162259
0.6583801698103257
0.41481796476769744
0.40820999957931503
0.41777099713054977
0.40258714616850433
0.5852236188231346
0.5818279015266388
0.5857412209568374
0.5721032506785032
0.44333215474150744
0.4374870903339737
0.8107366172191358
0.7976294098553645
0.35554515016153504
0.3606279127114236
0.5825695596784203
0.4095113218331239
0.39493793152636963
0.5058231153132547
0.5070929886487505
0.5200186755540749
0.5163162045505645
0.6263116958855429
0.20500745000937845
0.29401895352940777
0.3013596539081237
0.3648192672825065
0.3786540136416087
0.36764502779966585
0.39274681805900047
0.38054991371144914
0.4061652104937204
0.39339250078080823
0.49013915117242496
0.39363280351688107
0.5792761765361694
0.7309376583611953
0.7497962372276359
0.751141914621999
0.7324422833781662
0.4417462567087835
0.569805549915762
0.4158294925305165
0.4108012812935889
0.2809368742112511
0.4602389465039862
0.481048552867279
0.4724173578380609
0.7799075518537525
0.6904119135386025
0.31375581807912084
0.4189032369677138
0.42163025270582294
0.4182110355352376
0.4191993486017366
0.5147210019653277
0.6460849643885737
0.4375210962048324
0.48605588688599904
0.32819616453996037
0.4834019475547089
0.5992007489935044
0.582072473612636
0.4454026504533569
0.45092988613245677
0.3326913417065803
0.34265799139472547
0.41859294401370495
0.40604867483618556
0.3800590122208712
0.3921256493775037
0.416685812476822
0.4023964072594801
0.42446155429078813
0.40988396752544304
0.4293316853629055
0.19369105716401738
0.4444135605062978
0.20196556664823762
0.31306730369386365
0.41024897766721025
0.4337202896457977
0.38462531538224987
0.4703888063260642
0.41328203190033996
0.2626207283856192
0.25599745054766504
0.42614443038994626
0.724291805232378
0.5068510285346226
0.5572326516823591
0.4073757005809761
0.3760770693815191
0.3640092663640868
0.37928164556337185
0.2439713275414363
0.36805039628706443
0.3481140074211219
0.841734769831136
0.8257208658930031
0.7839132283140939
0.8090024704227672
0.5962454301488171
0.5658982122756009
0.40539448464602856
0.41129188557736457
0.5138330605202388
0.5475358120908975
0.30367670991985707
0.4012144869166055
0.3873747215480868
0.2974515040200473
0.5814206324430722
0.42748746007805594
0.3813188352628244
0.8431076534196582
0.8240117762873699
0.4227421011265317
0.42714147219022325
0.40517649188082305
0.2830210508974468
0.2962856716032754
0.17833692455934064
0.7660192689417383
0.38211854676445417
0.7251378219440983
0.3176786434834967
0.3023356097757504
0.2687801087542519
0.5600977778875212
0.3227590100446225
0.3167747693955261
0.32173985766630003
0.31667568984273703
0.3200110770764744
0.31214514615769
0.7694684695705557
0.7709392885903109
0.3813380790971773
0.7688321237752267
0.5581441967166765
0.5593000743305253
0.3427614381622536
0.37188513935628753
0.35000132686985813
0.4412875378431874
0.4291870822675078
0.36799922365621335
0.35304544554975387
0.3512718298143099
0.35428664794394393
0.3332162507992937
0.3675889549686687
0.4704150748877287
0.4712182782008153
0.4321208517771993
0.8531465091794891
0.4998015181502039
0.3943385619836821
0.3853853562918153
0.2488100723925584
0.3909806464089593
0.4194543128693637
0.4165634453706335
0.3067929107376137
0.2514636163324694
0.24480050034252435
0.25056313883694453
0.3040022426046589
0.18756451330315002
0.2189528188048351
0.8496670067712028
0.8284359339246292
0.7990601898291108
0.5695267126998124
0.5678723002979865
0.558978664038337
0.3132026664150403
0.3097774073976881
0.4333360795538103
0.42386615821590273
0.4215555234421292
0.4105574005276448
0.39468281561727736
0.17640192135000507
0.3085352668626981
0.29112988008379775
0.2829845055778532
0.2659542962785931
0.26578433281353675
0.2703768418211894
0.45417748642165223
0.34538457638497927
0.3399920684367949
0.24055125006231812
0.23357694820336206
0.36098070323798376
0.36435845698117053
0.37698646024092386
0.3771648942402485
0.367962221868586
0.6868990556565192
0.6562677737119489
0.7179696732251248
0.35331265901211817
0.31063932683622186
0.3580003881283993
0.4486143348937397
0.7856738888538249
0.3818029778739709
0.5224340034499348
0.2826785921340327
0.2660699711651975
0.2805119731513907
0.2695858968138255
0.28228387669678384
0.27491765386633515
0.28744528129343944
0.2821530752292324
0.2943421215822011
0.25679509212372265
0.2710159714238398
0.7562651339262817
0.3984916569295972
0.42894168939696803
0.41389279177920485
0.45846620602465377
0.3566214574960653
0.2491788687030799
0.40713754926926565
0.40631968069046837
0.20677993439671652
0.21946030831402677
0.3892481729301782
0.4329453028305324
0.4406598734979716
0.3821311228747536
0.36863212475245477
0.28388729007620817
0.1618365412939019
0.37991439797380905
0.3587164481419846
0.17382956358741006
0.5517455081310368
0.5364744036888127
0.5496273245513287
0.5223746359516351
0.27893002479875045
0.38985697911081363
0.2622529711815832
0.4112867292993178
0.3903172600208876
0.3328525421557376
0.3307411473502883
0.5224893483953458
0.6469114414148982
0.6364268309552579
0.6491203670154186
0.6323013311686029
0.640337724848607
0.6608576185224486
0.6889151571543236
0.7482021751956603
0.4108027239038454
0.6135312023667607
0.38599953225869
0.3625461996677028
0.35273203542064724
0.6230976499782568
0.6130024833559967
0.6075281422985715
0.5322396066696444
0.531916016621878
0.559793614745265
0.5856046028173177
0.37698439755313146
0.5323227932812497
0.7377004112365613
0.5522270307226269
0.5478477712808223
0.5401352000638986
0.5451011388932058
0.36107376355330123
0.4596509559594328
0.4510607814356529
0.46894823292171767
0.4609457795098581
0.5353090018033281
0.3126357868932634
0.2953757476515892
0.4181962378142188
0.4369078292374637
0.44821887896876167
0.7901008496440388
0.7977949132458386
0.4619711941636007
0.39039036509904634
0.2935957780504353
0.5246859530127027
0.5158971773949077
0.3838050741820734
0.36782179900412376
0.5071916010290625
0.5639154962243887
0.5704163479914592
0.531974900870193
0.5466568779029909
0.4587673885482647
0.8685258456284068
0.40435545030643033
0.4066883823619636
0.4279636230532834
0.4915816941934451
0.8759175007314728
0.3619143186100926
0.4090541395805466
0.31297968618021377
0.3859918764818052
0.6006024019505113
0.31641605923947197
0.48006166691202556
0.6693615362677849
0.6486004823206858
0.672402026997302
0.5931999494795893
0.41189144550255624
0.34718832997182614
0.5849111226484844
0.38144654340895623
0.3977190587078358
0.3941167559807818
0.3654097460682411
0.34687647432900987
0.3559639327823232
0.4400877591609736
0.42093472621654143
0.5664904656352469
0.3001117814908668
0.30640556093577465
0.303358597180234
0.5526854725975835
0.5045502397231526
0.4442792532942553
0.4468388997763413
0.43027070661800876
0.48029628428449445
0.4762985104445823
0.47500477401465946
0.41198063802767676
0.40673106929176966
0.4139288042265081
0.4016483243729805
0.40398897685181734
0.40080922947108893
0.508732324641245
0.37429683389464885
0.3923416512275438
0.8467148827590131
0.46479163244864347
0.4396542997880207
0.43390488729519383
0.4254569754096725
0.4392179760801198
0.42998100615043827
0.43164418290549894
0.32464136020546575
0.32250985460409665
0.31849261299588955
0.3199700420319005
0.32479503986980407
0.3199648498774967
0.32534029872068093
0.3945736559774469
0.32079094818673676
0.3255770709059147
0.44321713990308853
0.33995597603881567
0.33169815305846867
0.31762499416412876
0.5494441333011731
0.56557032031187
0.6870202286068273
0.7149604023248463
0.5312397267501062
0.26464965779380206
0.2441318139136088
0.19121629340352245
0.22129440078548898
0.25152759428382937
0.21330848596546648
0.2306917398976009
0.18448563467420728
0.2058093784541233
0.16718828547840653
0.19613236340631554
0.17022499946957143
0.1935398927433958
0.17676581999677415
0.19479278242642645
0.18580931905347195
0.20033558811768082
0.19451196606096158
0.20770761899054002
0.20455653010775346
0.21610588515669307
0.21485964551391257
0.22548799247605805
0.22515410026657073
0.23512451708823448
0.23591561716331444
0.2450765757309065
0.23684741783324584
0.2147099352064974
0.21607186917447857
0.19440517455259793
0.24929442692688156
0.1701158010922606
0.2468725271943728
0.25496790193697055
0.2548844742182769
0.2640047668228713
0.21311212692831102
0.14647712172049515
0.23884349810224714
0.15823983581349288
0.26506942546940204
0.2735645507202926
0.27267445570902815
0.2504219365101442
0.24610698214941207
0.2565443400424791
0.2674743689943214
0.26005766680644976
0.17083071028462282
0.13249456796465914
0.28154012407715406
0.2812665516257917
0.273733164533886
0.2825036564986451
0.8858856375326636
0.8581198372334892
0.41387848544980316
0.7190950861465492
0.7502825981576724
0.4176580774949885
0.4329988929539158
0.35331019856357065
0.4146041227711443
0.283198506189701
0.3733313700563775
0.3700825780953268
0.37524075061521794
0.3967637697612285
0.2918348025391947
0.3951160798320359
0.39720939403047817
0.27456987026326124
0.2530947942145718
0.28536158506762255
0.2452755631780716
0.3067275224332371
0.29942373134010664
0.30602975473588484
0.3010792001536649
0.32720685019562307
0.3362756391979347
0.3223918461794184
0.3314274578149116
0.31763468853702803
0.3268826860961821
0.3135101150631144
0.3224233676258099
0.3363507919343543
0.3304475223764631
0.3862561095328493
0.3724086663898872
0.37582633081530387
0.35989353604536456
0.317650637596714
0.22915329030333084
0.22322932970741763
0.22709254859191838
0.21681660335260922
0.43785485132337737
0.4282850990201235
0.45019495285466643
0.3067698992680491
0.26920912972534006
0.26179107905924953
0.6691721799294315
0.41351802646949387
0.395865807715323
0.38368603523938055
0.39052316821273536
0.36779115399887147
0.3400242474644462
0.3436034923043303
0.3158533417752097
0.3164378699491556
0.35254756088591355
0.4441528338864678
0.31695639338221354
0.2490635817427404
0.27081840455750467
0.41823222762791834
0.43891538157939675
0.5483277105511848
0.5512295258767973
0.5292162219669864
0.46034821077539284
0.5088350798277288
0.35549835883506237
0.14319267064294214
0.14326779917348462
0.3156497166200923
0.5319375724821411
0.559141548339033
0.5563376429409052
0.5786345359040097
0.47754959558850696
0.5405950849299657
0.5557685478177267
0.535305748283491
0.5215492035850993
0.5262781648079276
0.4186182403724619
0.428358526660239
0.4322720776872119
0.42427149960613014
0.31153766130798033
0.42391489237703917
0.4211211055105349
0.7110875052162481
0.21148516126215794
0.20356138614887292
0.21230535162103
0.1991519118798978
0.38681591830819
0.41831084899891663
0.4270997149030253
0.5460012453428895
0.335869312325187
0.5130381651228242
0.49909545089121743
0.49093664560668815
0.47437381368831916
0.4710399581584513
0.4844918418235974
0.46289512686551176
0.7462307146551407
0.7393104266199696
0.6958195590383024
0.2901775509576291
0.31557488050755467
0.2880174046586105
0.28613275335596483
0.4696814245383929
0.45159763153514515
0.3646094987552708
0.42850533090353976
0.3653519770838042
0.34907139787139635
0.38604512606008806
0.4003747557633882
0.538365059440165
0.28598494963186977
0.28299799439394524
0.560854271193527
0.7372890143728439
0.3338436951394968
0.3161996550802414
0.3377847018080057
0.5790606715913222
0.5333436669785392
0.6259399774339718
0.4407124659510617
0.546840077517496
0.3845991613864301
0.29568615409855875
0.4156893139114326
0.42579916419587943
0.4509971580470045
0.30946352435149393
0.2778118766351748
0.5818345443548795
0.5729342304797445
0.15471583231746255
0.8297324045049775
0.837521044162432
0.565045347923198
0.5776612836852548
0.5640465935233913
0.5908853845809144
0.587338353308761
0.23206478549991286
0.2410980791618031
0.35041165765638926
0.44220468330605583
0.35358375769013833
0.567395575510342
0.5889353423984415
0.5944161546276917
0.1911818972812044
0.1848321009016904
0.4194756242014024
0.30061883493417724
0.29670563341587897
0.4640805337680512
0.4083122881437499
0.3896284338682746
0.28774957111870836
0.7884780114303374
0.8041858418635042
0.3322246970702777
0.32551655277310393
0.5730325344245676
0.5333464777591673
0.3092973693659214
0.30111809708264453
0.12375457174445789
0.8937687274447409
0.3084738262346052
0.2602760321894352
0.2628049707228282
0.32834075365269466
0.31189195455107005
0.26368977083539685
0.2536852879882184
0.2577900512465947
0.24850523056084353
0.252971176582499
0.24309290763840974
0.23857562307143382
0.23346943850973165
0.22845553411354266
0.22390689975807665
0.24960566797364192
0.46933544967192514
0.3152573933970337
0.3232503505300747
0.18313805620831272
0.11738681133133179
0.11045155637710052
0.1429436277035188
0.14391315964622053
0.11753729463791315
0.09625074569718935
0.09115040407654276
0.31348260740927
0.293961646979431
0.40514083122568906
0.375017777538127
0.3709434458102878
0.6221483633528477
0.6357534375404157
0.365798543042171
0.37017238125542173
0.359540246964486
0.26971695845308385
0.07839529639519392
0.22913487781400668
0.2195328010129776
0.21389353854481416
0.2100142646161609
0.20395560385430575
0.3810447060813446
0.3893834709263979
0.09414769354633741
0.6315400387628343
0.5176872616161124
0.4047988996519367
0.28571980770623684
0.25169735305805013
0.23952430587837995
0.31128743145586824
0.4928642062972145
0.5385220595866709
0.521164288489161
0.3644452225119577
0.6004609994643071
0.6189606275137637
0.6332225201162978
0.6563803966774102
0.3967514854651589
0.42662567647532995
0.4003321544906949
0.37993313654846744
0.3454805063574352
0.33452388949876066
0.6623052812338963
0.28928238976727494
0.2038721454409117
0.1580549090979458
0.15529526020167872
0.16839685662960582
0.16068701673183777
0.1731997399745128
0.14637911168654452
0.18199701982504815
0.1845624995240117
0.1558631906470111
0.47424235989322594
0.19196845722459988
0.449007723640399
0.2787201296180521
0.6166048502879823
0.6182994549337477
0.14113053665526842
0.13098035792271973
0.3709677548856513
0.6779628024525161
0.6863935041750194
0.6813132495661699
0.6979336942843241
0.6875034942897185
0.7107033521268372
0.3995263049498384
0.4012401313506859
0.40474818600366247
0.3995095739625252
0.40267300888778684
0.3932995129723318
0.39965373407816784
0.3903600614722599
0.38169734180703974
0.4077017411444602
0.37913609613749466
0.40866754351634843
0.39977398411883985
0.4099700685969839
0.391070957250081
0.40065095858025573
0.4184988015404427
0.4091373384644191
0.41421324875429577
0.22297203933086043
0.19882112692284507
0.28666544014322454
0.15993415611641618
0.16496490148817874
0.6439649092739701
0.38795289258002325
0.2486993966219615
0.23468081716895262
0.23254754838856154
0.23837261928053896
0.25276307890423033
0.24406014097453688
0.24981696917330873
0.2399372969530826
0.19140295177861
0.3551236886763054
0.3910018807577117
0.4125992130541455
0.42353886297943916
0.3945720554314183
0.4167941113757709
0.32234693832835715
0.2198464283295444
0.22234578777747604
0.2352169700994488
0.24632456996660537
0.2596477396674048
0.2054115945957804
0.4672927291562146
0.3155133262064366
0.3171283729827259
0.11448706263748336
0.5070721808445736
0.707929306080711
0.30454237112980787
0.33857601058478354
0.3886145070284626
0.3765727202926071
0.6563254616605386
0.45281585602076807
0.4333908533817978
0.43482951369557465
0.4262014068004639
0.4267325705255536
0.41592765082830746
0.4147379762603094
0.42238912258582584
0.3972518844930231
0.42352759747678886
0.41608920139254585
0.4411883896278264
0.40668847046405543
0.4198756599389882
0.6196298697744994
0.32424175379040115
0.3872710702638272
0.27699079232278573
0.38933969631829074
0.2792663509654108
0.2621830909329564
0.2727470930296531
0.25694493476774694
0.23975118856426805
0.2392156661704242
0.2522824723209763
0.2845217927323422
0.3148503669834611
0.2726350391935176
0.5030931418052884
0.4242269240669447
0.5577257080118412
0.23802724280830598
0.6011920272993148
0.4890692493524854
0.49892915032237345
0.21651167080781764
0.314687603735893
0.3571438528349921
0.35505247932211637
0.35203675914567595
0.33466834157771697
0.2271606692723337
0.7751393653629938
0.6302790519880596
0.8354522954626215
0.1658190182455034
0.47789425121010565
0.5089911104366851
0.6488377352511263
0.7110654593296141
0.29553430981531476
0.3541144030033818
0.4662959004022109
0.2592104738474611
0.26477730968052493
0.25660345998030215
0.30910138316464486
0.26254833133252403
0.30170409441710294
0.24551907355017555
0.2483414464664813
0.414001048542969
0.41572428462226113
0.3737439413668034
0.37927498620629163
0.23903700802663383
0.4678865112953812
0.4361063748864504
0.5730420218836084
0.4069722009599991
0.17798125518602229
0.3968349732148814
0.20098589094827643
0.5076440216992039
0.42228911701802924
0.38034432196294
0.39009755042585237
0.3754789217245943
0.3622032975135352
0.294805255901077
0.247073868463868
0.2798012662786875
0.32936965036307153
0.32900443117088984
0.41392726869415825
0.8931552872233449
0.8597384130180517
0.8842558474493352
0.8542253453261283
0.8378222698434336
0.8131158009227413
0.8202762676191809
0.6744794736299138
0.3692027844773404
0.34137156621713854
0.3477567950168971
0.3960002124677767
0.5060509112561581
0.3459500033700866
0.4307883924125946
0.43920825691292237
0.4250518653164201
0.4258021309437342
0.47812541529340014
0.37212349067317213
0.3056786454085629
0.27914196389727436
0.455384833735483
0.43652351071802714
0.30227749880841315
0.3433780071018633
0.3327325005508739
0.3221288505131847
0.3194380306654346
0.275526329800036
0.0894914841419619
0.7699729039610435
0.7537394994225212
0.7382497444663688
0.7638078707146019
0.39230919962627636
0.6574996738605585
0.15705540647445623
0.18205241374915954
0.3741479300120393
0.35854551777805543
0.3746940341225022
0.3111585011814945
0.29877304574184577
0.2552091951133687
0.35962992506946595
0.4514236892024718
0.7627630396238597
0.25914081270157907
0.25532650337700025
0.5301166466435328
0.6522580372302921
0.5072340157582319
0.5302563647418695
0.4084015063143698
0.3466213152522612
0.338271423043407
0.32894911582968445
0.33046171064686597
0.3337655537300762
0.33915752267911514
0.31417845495706925
0.7324553065848628
0.7129873455339094
0.7321348769562808
0.7494840521194676
0.7732362890399512
0.7840849764547609
0.7226475745203574
0.7277555270535272
0.23028846271785133
0.3225013424537827
0.5514539303265141
0.8644668262416796
0.38449784787926033
0.860992158814741
0.8866009582976305
0.5299542907256866
0.3938676965903717
0.38019755010263956
0.43313820432658207
0.30338219694223717
0.4009276939489382
0.5985300252630024
0.35724826858032344
0.35548578288937815
0.3686557441085623
0.3427165058786034
0.3685741573696142
0.35450360428884614
0.34227735577070495
0.3285983892868458
0.3946873199509399
0.3792516414929678
0.3681625279265832
0.5040437942862546
0.4376944792042626
0.37801533880434335
0.3195806847465665
0.2868121416675235
0.3335811332440112
0.31977910721436253
0.3179021357724522
0.3248529109766703
0.7597210248627327
0.8039365444478037
0.8326264750860966
0.7767898003204229
0.6131501200898393
0.27565740197317834
0.4806378485402547
0.4661595064256212
0.7785263920637496
0.5276069523769906
0.39454739795745086
0.35179831939918754
0.31042623153431054
0.4396135854819342
0.4585400412940712
0.4043322354005613
0.5163824009532068
0.4929024830627521
0.5019279348656267
0.5257468755589563
0.36464338679005875
0.48576380997129903
0.375785254728294
0.2899200010791497
0.29855969792889436
0.2646516517129579
0.3807522487060097
0.7404331199763473
0.25073175865553393
0.5760307968004498
0.5830831001149697
0.619744291899219
0.5873878048410183
0.6220183480744198
0.6536602262415643
0.33508155122480565
0.41187701714615493
0.4123482132988
0.4525528652886718
0.40247829419902953
0.8999564533034079
0.48406280832305726
0.5547161440155723
0.6651638297903721
0.35091391203519007
0.41266826041720606
0.4689538110495529
0.32716424505793906
0.04197111696365683
0.6914585765357721
0.36150571730086284
0.39452084826309264
0.3954743398190061
0.3754036001832117
0.375976809243833
0.3551464868113866
0.36395114018160285
0.6095682215016882
0.3462957083608573
0.43116787242201693
0.44327483754548425
0.3978528241498616
0.46342180470528493
0.5325425469398977
0.6824494144311478
0.2831376447095166
0.4345378292731159
0.4175635136526713
0.395182642260969
0.3565609350129244
0.45477358082627733
0.3157895945975584
0.38217455200623773
0.2651845353243884
0.2673965013725191
0.3228907713433423
0.4308944978909386
0.4447927688671556
0.42300046380479767
0.41248237041169405
0.5893318450277529
0.5042326028291771
0.2920153906898615
0.30755251148757073
0.33426486512330145
0.4563229521501761
0.3313517079754448
0.4429547743488712
0.7156419470461078
0.41109572623110585
0.30515101298374314
0.31718148613547453
0.4206125540295845
0.9097052413314595
0.2939071207643028
0.3954477161221798
0.3818189240626742
0.4070174571027094
0.6659843647820388
0.6348164853842241
0.625381162369071
0.36222759963253315
0.899380417513982
0.7994127052823509
0.6959026758052774
0.7853678812803141
0.6758910806869259
0.7146445185753443
0.5023632939012959
0.3894922348134144
0.8532818703100072
0.5452322759938735
0.31103751615268904
0.420162749755182
0.5785645338945445
0.6072629943378841
0.3818285213941083
0.4328945310599263
0.6544368955256284
0.3609152814074257
0.31126542040103805
0.392389004237305
0.37972683088332887
0.2184621017606305
0.3411803373457011
0.48105454217627547
0.17900471250816968
0.17146005500535938
0.5260386419698772
0.446833840527074
0.4885740340442273
0.3687693159734531
0.8181425187901835
0.30341505178607425
0.2725027224238723
0.2917991979156627
0.4251795008294854
0.5080111964356286
0.40341011816249867
0.07731460640100095
0.7061178757258201
0.6264989538231166
0.38474822007795606
0.5319666724351033
0.3891278939508685
0.5124226063123188
0.5451092877944088
0.5029252183513417
0.3266006776557344
0.39911928355871124
0.8839385038801973
0.517579665182747
0.4932040297636105
0.28972568437863305
0.8033774255357918
0.47482984632198727
0.34920868164368146
0.4179222510701915
0.3159651612995107
0.3741035103986552
0.2396889366260556
0.450307593629614
0.4242507847566887
0.31607297472636997
0.624823595336917
0.2221430278985533
0.21807615732313657
0.7897747912753684
0.5232640343508003
0.7510728801953368
0.6628407445468969
0.3936937375282968
0.1006552114806755
0.41831271779669515
0.5324832614663909
0.5218110883129322
0.19697421859266345
0.4202123800783607
0.6001998634275026
0.13457234789372166
0.5677761708062404
0.37202953562042756
0.28011117090549714
0.3286778768147404
0.16878316248103892
0.18922675699942385
0.3622786123960061
0.4190253010561219
0.25188992857518805
0.5001637716791734
0.4047285467890066
0.5649103722232119
0.5370931367838754
0.3879971173478502
0.6154274621641281
0.6651634336498702
0.3024085090811396
0.27804622375738874
0.20721652028807463
0.28895532538713475
0.22610086985900035
0.5364132604293448
0.6358086112828989
0.10460564332129482
0.12705860276595868
0.1428815690185762
0.3546182057420129
0.162041093382629
0.38488030401115964
0.40839751825573023
0.4807088399490217
0.24959925612576736
0.27018211724491675
0.3744416708458978
0.39634131828877744
0.32185713612677297
0.5396414624164421
0.3802263846145079
0.4604674662115011
0.44505149054124593
0.23118681865428423
0.1925811684259099
0.42529567389694123
0.4367010174041564
0.8517390561428735
0.20898527211620502
0.6057055408835382
0.30374109843772945
0.5675567899446785
0.4069183215757298
0.6243647620494888
0.39724438961649
0.34523973249618717
0.3116753051481438
0.46576833524920447
0.4755911264825427
0.4521269033885087
0.8189274873792666
0.2598266235212617
0.19788698297538337
0.45703712861799906
0.5993555242112402
0.30659110884583574
0.5290170638971556
0.34785071467021295
0.537191098884099
0.3627215729966234
0.38575736878637423
0.2090240997094368
0.4283904838019827
0.04047165659321578
0.27536573740792347
0.42171183366205667
0.34177695870466823
0.2997318649215751
0.49498869904000053
0.5851365066230206
0.3295460786706542
0.2601848122400725
0.5937468380106783
0.2647887423580809
0.4280513328361591
0.3426827083487071
0.41003228362338284
0.1962841211651662
0.23663497196259303
0.36630430794227736
0.40429627192951956
0.390551679497235
0.22942893485315066
0.2511107793865021
0.5484722359270675
0.5560762658429029
0.2965252867718589
0.28598779770506716
0.22735269642326214
0.6583597141436518
0.3299628639464328
0.33466344647281165
0.3613194400223294
0.2378600081842719
0.40950640495700674
0.4924536942014776
0.4507051083745484
0.4355953399938979
0.44928276629714226
0.3861868575166599
0.45914889735517767
0.33024281804415573
0.211011011609751
0.32084079526290127
0.2723511974501331
0.33227178475345387
0.28939504320069487
0.7511880413718492
0.3182175215414077
0.39912941531946
0.6405773290897945
0.4557952690305381
0.25733193784843017
0.37488948461531796
0.3082832623325533
0.4280052939286928
0.32314322008796953
0.3069242260765906
0.08184387177888691
0.3984267683562745
0.5175890175026174
0.31592682251269455
0.4219191215104354
0.3630508861178601
0.48182664721510193
0.27115952437414104
0.38680982142844045
0.31019417409500266
0.4864210742452266
0.465115151016565
0.4482722014322794
0.2737301676037996
0.46348013573404173
0.3394112460872425
0.4247665174949249
0.21825917625391442
0.4750143941153325
0.7040375936143214
0.3500256549171924
0.412941857785482
0.47897563932068693
0.26645257751907425
0.2671230924485016
0.6901251992093155
0.29974396330238545
0.44200262331604456
0.2901051612668427
0.41205455521825757
0.32276711325461116
0.18672831360758044
0.47262106967092116
0.1183990317710132
0.2851587688214829
0.5501473861320196
0.5091542560654629
0.429717493727342
0.30860680981515315
0.34695198568299307
0.4281304520484447
0.20964683375033705
0.4191852666564899
0.3573147128617888
0.41556742255057233
0.45315652565834214
0.33279185713887843
0.17357484691717612
0.5547553973489193
0.5792624511270033
0.252966860301244
0.398068420208238
0.3744433333729416
0.15117366085998934
0.23600927220139675
0.13280673816077102
0.22702347272751178
0.40558233218855494
0.4206885206852922
0.3971092742100865
0.6990668121479311
0.29627434120542684
0.7790389331290561
0.335107659750242
0.43472720580632934
0.4282626573646272
0.2605953485114316
0.16936438517674343
0.18093527809625182
0.3629426246686889
0.5129482724976262
0.44568212087880504
0.44836233790024366
0.4195214463902483
0.43243236535282153
0.423636316248808
0.6113817978603103
0.23835476669580244
0.2190088507678471
0.3913623460839032
0.23877957343021075
0.2958124060703996
0.49886388715658225
0.4469579726443661
0.2525372115378567
0.43214088106829973
0.38101688108670445
0.395630741191701
0.3783219367673948
0.40660870140927025
0.3797493346685013
0.7876517028161567
0.35619390733029865
0.21924637043520664
0.33486287905891615
0.29005619057514426
0.24326723825387356
0.3657127736996121
0.4505062719963335
0.3257165163012869
0.38156908193364053
0.3056235294791719
0.6173820569031793
0.5407603506740107
0.2255251833181262
0.3290648225604039
0.3169925400682144
0.2766804711948342
0.527429311756481
0.29908017079729093
0.3321362188931346
0.46162996547614266
0.2655472273546575
0.5889854480142884
0.5764888716554788
0.3369379357856674
0.6469102507262792
0.3084586464054172
0.530364414085181
0.41180038437046135
0.4612228716874353
0.3318543980054304
0.08957054498451174
0.22049831944655968
0.5516787831456921
0.2630932268130675
0.1911359291025187
0.3722803994011644
0.3802556833896529
0.313925062738659
0.6620605953968223
0.6565897039494797
0.3622887939859152
0.5846384366424531
0.2549316741373496
0.3365258747829489
0.40715085253793226
0.6914057050406891
0.39657536740517135
0.42033147448579494
0.3721154701998265
0.2929298472965279
0.733375536394677
0.41934563420866244
0.4085546576042409
0.31413319539428275
0.3387439813898106
0.39794851346837495
0.4357888565284975
0.5439566541914242
0.1995596764349736
0.40345214608984836
0.5185796071280278
0.5661185591456941
0.4253894975872084
0.7285228810009144
0.5008948891411992
0.29814675631991966
0.31735806753185597
0.27738760705264526
0.32271252929030175
0.12556413701711824
0.3646275155843216
0.34545732130986495
0.19945405089661877
0.12726918996890438
0.2781099074337365
0.26766756235425704
0.3205671349596895
0.3055665403992759
0.5222342314624369
0.6753119570854892
0.3347010773252109
0.19252858742590875
0.23679874529358566
0.12851477867861175
0.43011626065503905
0.2284776598522158
0.2933959097675928
0.5046779743268529
0.32102949545945236
0.4193509823359568
0.6255748818516306
0.39946518724154706
0.4842585304025944
0.8556577037578004
0.5155015962528111
0.5331612037386961
0.4181229286532508
0.5163988239906968
0.38107341637021175
0.4396366880690789
0.26543858435228107
0.5716531392471957
0.3155805025923177
0.247891694016703
0.41642419674202175
0.31742723886608953
0.5932976948540765
0.9643618565192744
0.9730780567736417
0.44474078381267346
0.16291734500463423
0.42280504437437394
0.7698572474256883
0.7318906372649174
0.33953573410298815
0.30623081416440423
0.31576357053601634
0.31793147575885194
0.31690137804278784
0.39320094850897397
0.275603036409312
0.2122632678137914
0.24908589357323574
0.45076729368342694
0.4099856193335977
0.2455605415397646
0.36571351721504153
0.22516002079660719
0.5905337372850854
0.22057387080272126
0.38992395689972026
0.3775346042477481
0.3988007848837081
0.5212239869943209
0.3038050368109841
0.2938746269570158
0.1397945960534308
0.2731786012123803
0.3938499128737596
0.8975820287748161
0.41871775474245354
0.3560622637150565
0.21579844510020282
0.36471832239266777
0.19577099281413168
0.33920198994875606
0.3598927363216419
0.5214325397131999
0.2833227037856025
0.23042842054114973
0.49756775520650565
0.26247681447187143
0.29266453209452187
0.2186441328483305
0.1803114000204348
0.566698375449798
0.23368751247918346
0.4123088583789353
0.5453777311938605
0.6145850791166589
0.35020500168716984
0.36307339923904963
0.32239861525606256
0.9030956109824798
0.509748675736622
0.6148421735327593
0.32770942687405535
0.580659072338922
0.33220234775381946
0.2677618523490767
0.22848746346901688
0.6382302115313245
0.4062045298521494
0.3778889512221336
0.7344534422279156
0.37405647034895195
0.4052432992375312
0.9239284234407243
0.5391972507945098
0.27661577935009596
0.4242755895451066
0.6969745032849348
0.6548921531088399
0.7164368147281116
0.2640510353708701
0.5437277183381618
0.24026196490772725
0.2994998418214261
0.3799507026182958
0.4289492478865236
0.20394992059358052
0.3252719177171359
0.46105370350741837
0.4170364756983213
0.29627593813332376
0.7176259903354837
0.41779790326690996
0.2904874958117437
0.43011135896955405
0.44885267031316767
0.494124891774879
0.35160316435286004
0.30274689368061214
0.30433828294785725
0.5287266631575013
0.39650811675447556
0.29673513694917697
0.3561570278948412
0.49947845537785035
0.4160716616939384
0.3082516014041191
0.31394427109095385
0.39872586459193265
0.3433727465382287
0.37805040432371106
0.35264442470191387
0.2725966507578481
0.3128320374151229
0.5384285670366605
0.8182999286027732
0.4550954822812442
0.4885849414385141
0.48853978048377583
0.3672668665542983
0.8708540350624868
0.520895035186612
0.3952122668455219
0.40714097669082405
0.32766862154653753
0.4032170900061988
0.3873716978068006
0.35534794123090707
0.29510016885007184
0.3528422319641969
0.3215986152917732
0.37713763767203023
0.7755188293623843
0.37434810128946494
0.2538314894279138
0.4055376872310793
0.6642180587527514
0.34179554804385603
0.4113499363196589
0.41667842563687174
0.13913166463637439
0.36424102253579066
0.3084785371042072
0.1236330705298259
0.14993288046065328
0.07336890089235178
0.24283756085438093
0.2731860736512201
0.4145772771055407
0.43383370788781533
0.5861143408025917
0.4041267832661832
0.26651412712676226
0.3400793406532561
0.8072531386339941
0.42381101606398086
0.3594556707653359
0.42903744734912813
0.3042244254652851
0.2537984212892134
0.4850721635439772
0.20884975170071832
0.35571681520806875
0.3530196799523936
0.402923132985848
0.601644018601165
0.3154988228514109
0.42186420273734404
0.2973904573052214
0.4204552073964178
0.4860634560055287
0.5413899376977523
0.6725189274767924
0.5947400983820363
0.2447578346564175
0.37284663496983295
0.1724701869540495
0.49653452616631005
0.4139599090929631
0.20612793447415012
0.39360196754766175
0.283860554931578
0.4700112630281448
0.35726470567244806
0.2793173642619604
0.22415414905860467
0.24732128913568194
0.5096925380893226
0.40148176619457204
0.1830049165772379
0.4123502728853151
0.8440489553293185
0.4089449957585425
0.22246225987181192
0.2815454760641449
0.25574381686065073
0.7670918805721204
0.3332455293811996
0.3374352423735734
0.5316440022325638
0.477122108921152
0.39536211720167247
0.3013513037874089
0.381971421976531
0.7865966717921467
0.3240922022567452
0.5353432554447112
0.15972332967844838
0.7039006373774231
0.2220313754862856
0.350501738045102
0.2611078484341642
0.29885770307786386
0.39890659316924937
0.10642495753574507
0.2340851007544211
0.8278720544846465
0.5593199220828413
0.33593550115474946
0.5562625340398988
0.28311986540928075
0.5997090222716466
0.23724905772118174
0.062230491724404854
0.37089025451737917
0.3923191505160555
0.7129055667804374
0.6570442381967871
0.40923122644962845
0.5808355081091405
0.8639380333372663
0.2959588513131549
0.4896310737737395
0.34158870685896187
0.1862321116091376
0.8455614290903277
0.40284620880201955
0.7066855473131108
CELL_DATA 4886
TENSORS stress float
-7.7680645096919965e6 9.699625274195967e6 0.0
9.699625274195967e6 4.463665124369754e7 0.0
0.0 0.0 0.0

-2.28633523909078e7 1.5593886756387847e7 0.0
1.5593886756387847e7 6.056023257432748e6 0.0
0.0 0.0 0.0

-1.2779890773600342e7 2.7465483509039983e7 0.0
2.7465483509039983e7 -1.2644457110676788e7 0.0
0.0 0.0 0.0

-3.3853170358813554e6 2.653123166418601e7 0.0
2.653123166418601e7 1.5590160506963275e7 0.0
0.0 0.0 0.0

-1.2313827103578376e6 3.1854114873667967e7 0.0
3.1854114873667967e7 -1.3069787727684265e6 0.0
0.0 0.0 0.0

1.2898529792508904e6 2.5672557312746253e6 0.0
2.5672557312746253e6 -3.6634589964461043e6 0.0
0.0 0.0 0.0

8.054485369003427e7 3.700589183726897e7 0.0
3.700589183726897e7 2.1136670928143974e7 0.0
0.0 0.0 0.0

1.2033040248721726e6 2.990067490910687e6 0.0
2.990067490910687e6 -6.0106068049991444e7 0.0
0.0 0.0 0.0

-7.259988182870798e6 1.1543215438223427e7 0.0
1.1543215438223427e7 4.608480315244816e7 0.0
0.0 0.0 0.0

3.557312237230872e6 2.2444378747951474e7 0.0
2.2444378747951474e7 2.8652070184441455e7 0.0
0.0 0.0 0.0

-108402.00718606682 2.5501044329126928e7 0.0
2.5501044329126928e7 -9.141792652582478e6 0.0
0.0 0.0 0.0

666301.9073778983 3.93733001098511e7 0.0
3.93733001098511e7 -1.4541898890378124e6 0.0
0.0 0.0 0.0

42732.75251980871 1.0814970269536205e7 0.0
1.0814970269536205e7 -5.481763109336336e7 0.0
0.0 0.0 0.0

1.1442730297768827e8 4.0889993698216274e7 0.0
4.0889993698216274e7 2.3318927614581052e7 0.0
0.0 0.0 0.0

345651.36527761165 2.636865639445792e7 0.0
2.636865639445792e7 -9.094694625187015e6 0.0
0.0 0.0 0.0

2.86084334503527e6 3.943381577362898e6 0.0
3.943381577362898e6 -2.0715540935579315e7 0.0
0.0 0.0 0.0

-5.073436790342521e6 2.114553316795717e7 0.0
2.114553316795717e7 -2.7795941596955903e7 0.0
0.0 0.0 0.0

-899756.6488249544 1.6558183324635971e7 0.0
1.6558183324635971e7 -3.6964678829474784e7 0.0
0.0 0.0 0.0

-8.136107253260616e6 49823.47139480152 0.0
49823.47139480152 3.524670812143016e7 0.0
0.0 0.0 0.0

1.4695093566000792e6 2.9867719870765887e7 0.0
2.9867719870765887e7 -8.42034473795549e6 0.0
0.0 0.0 0.0

1.7958845334528144e6 1.3192846084121311e7 0.0
1.3192846084121311e7 -2.5928976709926825e7 0.0
0.0 0.0 0.0

2.45984602843498e6 3.8874281327808976e7 0.0
3.8874281327808976e7 -1.369302560957578e6 0.0
0.0 0.0 0.0

-9.832583084416628e6 1.1091376778234879e7 0.0
1.1091376778234879e7 2.292979237597106e7 0.0
0.0 0.0 0.0

-1.8341854050298467e7 2.8614486422915556e7 0.0
2.8614486422915556e7 -1.1841948290465493e6 0.0
0.0 0.0 0.0

-1.7420071063610427e6 1.4499112774847819e7 0.0
1.4499112774847819e7 -4.901039280803038e7 0.0
0.0 0.0 0.0

3.464183958339843e7 5.5526116062934555e7 0.0
5.5526116062934555e7 -1.0310388679955177e7 0.0
0.0 0.0 0.0

5.410586979503431e7 2.8191533743968084e7 0.0
2.8191533743968084e7 1.1980769687148223e7 0.0
0.0 0.0 0.0

-6.39687380349119e6 1.915546907927969e7 0.0
1.915546907927969e7 3.1909514003723994e7 0.0
0.0 0.0 0.0

2.924178229783722e6 3.9265240261056107e6 0.0
3.9265240261056107e6 -2.1217871756280944e7 0.0
0.0 0.0 0.0

-8.786579210232873e6 -1.4811938818830627e6 0.0
-1.4811938818830627e6 2.0038610229634985e7 0.0
0.0 0.0 0.0

-1.0257792768708337e7 1.2747491887977917e7 0.0
1.2747491887977917e7 2.0955223256764367e7 0.0
0.0 0.0 0.0

1.1632554854827165e6 9.986111585347822e6 0.0
9.986111585347822e6 -1.0070305544814607e7 0.0
0.0 0.0 0.0

3.4843961840936523e6 2.5509244000927716e7 0.0
2.5509244000927716e7 1.1226008619068192e7 0.0
0.0 0.0 0.0

-184756.74257842684 2.2579312071645636e7 0.0
2.2579312071645636e7 268345.31862505386 0.0
0.0 0.0 0.0

-2.7052047086886032e6 2.807625228832926e7 0.0
2.807625228832926e7 6.288355055583466e6 0.0
0.0 0.0 0.0

-1.1082458343922358e7 9.63209438605513e6 0.0
9.63209438605513e6 1.987496586603006e7 0.0
0.0 0.0 0.0

-120918.1681007226 1.4668709953212671e7 0.0
1.4668709953212671e7 -8.542004206036223e6 0.0
0.0 0.0 0.0

-1.990420593583867e6 2.767001066404624e7 0.0
2.767001066404624e7 7.00223700316389e6 0.0
0.0 0.0 0.0

-6.836479529743003e6 1.8141093235609066e7 0.0
1.8141093235609066e7 -5.1661782396317236e7 0.0
0.0 0.0 0.0

-2.636498520360552e6 3.440868305401605e7 0.0
3.440868305401605e7 1.9611065575266297e6 0.0
0.0 0.0 0.0

-1.0955688814122304e6 1.0928776218093533e7 0.0
1.0928776218093533e7 -5.9772845427247584e7 0.0
0.0 0.0 0.0

-1.5864286432598924e7 2.943667843191248e7 0.0
2.943667843191248e7 -1.3755161037399812e7 0.0
0.0 0.0 0.0

-2.4669435243055215e6 3.346539954471744e7 0.0
3.346539954471744e7 1.8364976467828942e6 0.0
0.0 0.0 0.0

-9.745198765793964e6 7.2087050494758e6 0.0
7.2087050494758e6 3.1775193493878514e7 0.0
0.0 0.0 0.0

1.1245984301729891e6 1.3033449227354068e7 0.0
1.3033449227354068e7 -2.847413177415251e7 0.0
0.0 0.0 0.0

-4.99956040558121e6 2.0386846248921406e7 0.0
2.0386846248921406e7 2.9725024802419778e7 0.0
0.0 0.0 0.0

1.7269506775104813e6 2.5164450208541114e7 0.0
2.5164450208541114e7 -1.4667464009128617e7 0.0
0.0 0.0 0.0

-1.0381611483040925e6 1.4053557751778105e7 0.0
1.4053557751778105e7 -9.578758849782238e6 0.0
0.0 0.0 0.0

1.6906663048079088e6 2.989564229517391e6 0.0
2.989564229517391e6 -4.960358150553453e7 0.0
0.0 0.0 0.0

6.82226045227786e6 1.9937594519791353e7 0.0
1.9937594519791353e7 2.274086785794543e7 0.0
0.0 0.0 0.0

-133323.44963057357 3.3340731130660444e7 0.0
3.3340731130660444e7 -329325.1190137719 0.0
0.0 0.0 0.0

-1.6060422763637561e7 1.3201680574847724e7 0.0
1.3201680574847724e7 5.34076083207836e6 0.0
0.0 0.0 0.0

1.7345267082036212e6 3.0501582189246416e6 0.0
3.0501582189246416e6 -5.156953397578481e7 0.0
0.0 0.0 0.0

-1.064381393056504e6 3.0667141061073326e7 0.0
3.0667141061073326e7 1.4030859645425356e6 0.0
0.0 0.0 0.0

7.79555837425971e6 1.9829179141620994e7 0.0
1.9829179141620994e7 2.7361661173819482e7 0.0
0.0 0.0 0.0

-9.393600443426657e6 2.9955722982628938e7 0.0
2.9955722982628938e7 6.405501405029362e6 0.0
0.0 0.0 0.0

874394.7764189094 3.854957512092734e6 0.0
3.854957512092734e6 -6.607419766398503e7 0.0
0.0 0.0 0.0

-1.7421380109487982e6 3.4722974704268806e7 0.0
3.4722974704268806e7 2.0631751391154623e6 0.0
0.0 0.0 0.0

8.420587105153408e6 2.140387166138113e7 0.0
2.140387166138113e7 5.213648126187442e7 0.0
0.0 0.0 0.0

1.7739235840425547e6 1.1820157734784627e7 0.0
1.1820157734784627e7 -3.1727722141183827e7 0.0
0.0 0.0 0.0

-3.4308688541337e6 2.0497207968972735e7 0.0
2.0497207968972735e7 -1.3916713457119714e7 0.0
0.0 0.0 0.0

4.0246247028174296e7 3.137329980076648e7 0.0
3.137329980076648e7 4.0851285650736224e6 0.0
0.0 0.0 0.0

-5.34072146143525e6 2.3707121984291337e7 0.0
2.3707121984291337e7 -1.669313532355496e7 0.0
0.0 0.0 0.0

-9.657011479822483e6 1.7003723689965268e6 0.0
1.7003723689965268e6 2.0885719491653964e7 0.0
0.0 0.0 0.0

-435640.49766959157 7.198002059028088e6 0.0
7.198002059028088e6 -150706.66237674272 0.0
0.0 0.0 0.0

1.4919673237745129e6 4.551548472153052e6 0.0
4.551548472153052e6 -4.828710831930548e7 0.0
0.0 0.0 0.0

716925.6625410244 9.322920718450876e6 0.0
9.322920718450876e6 -5.443477754348131e7 0.0
0.0 0.0 0.0

-1.9236506849978417e6 3.0129841749684244e7 0.0
3.0129841749684244e7 473586.8321435995 0.0
0.0 0.0 0.0

4.767293583963092e6 2.1203430798136033e7 0.0
2.1203430798136033e7 4.255742845781559e7 0.0
0.0 0.0 0.0

2.8444178857373558e7 2.123957393572765e7 0.0
2.123957393572765e7 5.814067745687885e6 0.0
0.0 0.0 0.0

-1.0551662131867634e7 9.066282765919803e6 0.0
9.066282765919803e6 2.9144352328941174e7 0.0
0.0 0.0 0.0

-689377.5778270978 1.4633754855085028e7 0.0
1.4633754855085028e7 -4.531762311743214e7 0.0
0.0 0.0 0.0

-6.251327403792299e6 1.9507828489753902e7 0.0
1.9507828489753902e7 -4.733031729020486e7 0.0
0.0 0.0 0.0

1.0908593910883518e7 2.1075332594058003e7 0.0
2.1075332594058003e7 6.934895401442716e7 0.0
0.0 0.0 0.0

-3.071914401933388e6 2.670366371239926e7 0.0
2.670366371239926e7 1.5009776646265432e7 0.0
0.0 0.0 0.0

-5.309430350995403e6 2.0773606403956e7 0.0
2.0773606403956e7 2.914056642901499e7 0.0
0.0 0.0 0.0

316628.965885615 1.5910057638842873e7 0.0
1.5910057638842873e7 1.2188721250557225e7 0.0
0.0 0.0 0.0

-3.972655922618375e6 2.0825415621573754e7 0.0
2.0825415621573754e7 -2.7314071242222637e7 0.0
0.0 0.0 0.0

-998941.0312643372 2.2616636453698996e7 0.0
2.2616636453698996e7 -1.363493161403583e7 0.0
0.0 0.0 0.0

701637.237722245 1.6612407269912755e7 0.0
1.6612407269912755e7 -2.256967223220219e7 0.0
0.0 0.0 0.0

3.2528855298290398e7 3.286292840132706e7 0.0
3.286292840132706e7 -2.828679665506102e6 0.0
0.0 0.0 0.0

-7.869994303386567e6 266840.7973880114 0.0
266840.7973880114 4.146658780248491e7 0.0
0.0 0.0 0.0

2.3352184928544136e6 2.349902138613993e7 0.0
2.349902138613993e7 -1.8230156878320274e6 0.0
0.0 0.0 0.0

2.5785508258468863e6 4.09293226386367e7 0.0
4.09293226386367e7 -2.4113757817195384e6 0.0
0.0 0.0 0.0

-3.3851719375603907e6 2.6618491143723335e7 0.0
2.6618491143723335e7 1.570621498640963e7 0.0
0.0 0.0 0.0

2.5398237578776497e6 3.2818359618734526e6 0.0
3.2818359618734526e6 -3.0088823258196108e7 0.0
0.0 0.0 0.0

505905.0494539975 8.872443785920985e6 0.0
8.872443785920985e6 -1.1461545408463111e7 0.0
0.0 0.0 0.0

3.2827279277334046e6 2.4188664326033086e7 0.0
2.4188664326033086e7 1.0303173408069907e7 0.0
0.0 0.0 0.0

2.939900892680945e7 5.721489918632563e7 0.0
5.721489918632563e7 -1.294235634215885e7 0.0
0.0 0.0 0.0

-5.89311461717115e6 1.0526138837671079e7 0.0
1.0526138837671079e7 5.6318688845763184e7 0.0
0.0 0.0 0.0

2.4660114098698758e6 2.5412700921718415e7 0.0
2.5412700921718415e7 -7.843053524206828e6 0.0
0.0 0.0 0.0

-2.657081431741298e6 2.307734947012625e7 0.0
2.307734947012625e7 -1.7152455492468573e7 0.0
0.0 0.0 0.0

-960422.2451953471 1.2805540047510399e7 0.0
1.2805540047510399e7 -7.878419095910416e6 0.0
0.0 0.0 0.0

-2.0360839086615294e6 5.912166375640839e6 0.0
5.912166375640839e6 -2.0098856940358179e6 0.0
0.0 0.0 0.0

8.109218693109818e6 2.646886483233039e7 0.0
2.646886483233039e7 -4.041254526351324e6 0.0
0.0 0.0 0.0

-5.599514299004349e6 2.0450336549341027e7 0.0
2.0450336549341027e7 -3.803298651260285e7 0.0
0.0 0.0 0.0

1.1447156552426517e6 2.9816751398507333e6 0.0
2.9816751398507333e6 -5.9929386006629184e7 0.0
0.0 0.0 0.0

-3.68615196236791e6 2.7351678381200016e7 0.0
2.7351678381200016e7 1.3534246962773692e7 0.0
0.0 0.0 0.0

943647.0257811267 1.020920764701951e7 0.0
1.020920764701951e7 -4.2614421890907034e7 0.0
0.0 0.0 0.0

864687.1704070158 3.847050350472921e6 0.0
3.847050350472921e6 -6.685546102413578e7 0.0
0.0 0.0 0.0

-2.538268791484003e6 2.512492699680964e7 0.0
2.512492699680964e7 1.704000777154573e7 0.0
0.0 0.0 0.0

-6.633945895557409e6 2.1373106129009906e7 0.0
2.1373106129009906e7 -2.379030047261669e7 0.0
0.0 0.0 0.0

-9.914888016798912e6 1.13045465575145e7 0.0
1.13045465575145e7 2.5251617971586965e7 0.0
0.0 0.0 0.0

-1.0313473706243526e6 3.253352369426789e7 0.0
3.253352369426789e7 1.4760951170864995e6 0.0
0.0 0.0 0.0

-497297.8936415131 1.3041305777440455e7 0.0
1.3041305777440455e7 -5.318480450148489e6 0.0
0.0 0.0 0.0

-4.297389746903625e6 1.6503273560975665e7 0.0
1.6503273560975665e7 1.579306837297006e7 0.0
0.0 0.0 0.0

-7.603465009757452e6 434132.98291689047 0.0
434132.98291689047 4.1772609561127156e7 0.0
0.0 0.0 0.0

1.3038114428580608e6 1.6936276893216267e7 0.0
1.6936276893216267e7 -2.09562262404339e7 0.0
0.0 0.0 0.0

1.6663646077948571e6 3.843116278324691e7 0.0
3.843116278324691e7 -1.6285632020878918e6 0.0
0.0 0.0 0.0

-9.505165066344395e6 1.0421389156298306e7 0.0
1.0421389156298306e7 2.1220820686040513e7 0.0
0.0 0.0 0.0

-632107.5250910595 9.409330528848635e6 0.0
9.409330528848635e6 -5.8987145941147976e7 0.0
0.0 0.0 0.0

-2.6541018021735474e6 1.4170434449866086e7 0.0
1.4170434449866086e7 -2.8530259060130697e6 0.0
0.0 0.0 0.0

1.3877204016471831e7 2.7153640959452827e7 0.0
2.7153640959452827e7 1.5524647669501003e7 0.0
0.0 0.0 0.0

5.482146474505826e7 2.9121333364222717e7 0.0
2.9121333364222717e7 1.1566077076334152e7 0.0
0.0 0.0 0.0

2.540542579013478e6 6.592753581402517e6 0.0
6.592753581402517e6 -2.7245123910839804e7 0.0
0.0 0.0 0.0

-8.034938301863712e6 2.019127340652358e7 0.0
2.019127340652358e7 -4.84764315968861e7 0.0
0.0 0.0 0.0

2.2174972211143896e6 6.490234083037564e6 0.0
6.490234083037564e6 -2.86926897311206e7 0.0
0.0 0.0 0.0

2.7715319212985113e6 3.344860722458127e6 0.0
3.344860722458127e6 -3.1311968700476952e7 0.0
0.0 0.0 0.0

4.529645015211726e7 1.7777439974102493e7 0.0
1.7777439974102493e7 2.9017672263811976e6 0.0
0.0 0.0 0.0

-1.394800785317137e7 4.658782329763377e7 0.0
4.658782329763377e7 3.7031529990838915e6 0.0
0.0 0.0 0.0

-5.37812915353951e6 1.8554697876070987e7 0.0
1.8554697876070987e7 -4.342047280598774e7 0.0
0.0 0.0 0.0

-1.4755248363585733e7 2.7874091681676228e7 0.0
2.7874091681676228e7 -4.423723630297333e6 0.0
0.0 0.0 0.0

2.462894343696978e6 3.367631832425302e6 0.0
3.367631832425302e6 -4.1335095886069864e7 0.0
0.0 0.0 0.0

-9.844920117782703e6 2.9719783138902716e7 0.0
2.9719783138902716e7 7.244891695872666e6 0.0
0.0 0.0 0.0

1.4282704799194418e7 3.923166877426421e7 0.0
3.923166877426421e7 -5.689133033526421e6 0.0
0.0 0.0 0.0

-7.563965447950503e6 1.2912801929608528e7 0.0
1.2912801929608528e7 4.288979166015926e7 0.0
0.0 0.0 0.0

2.0669727328260407e7 5.560739190328465e7 0.0
5.560739190328465e7 -8.06422451910662e6 0.0
0.0 0.0 0.0

-1.1340019744335639e6 2.3808279725677077e7 0.0
2.3808279725677077e7 -1.007033466214034e6 0.0
0.0 0.0 0.0

1.5601074598993622e6 2.924842319375342e6 0.0
2.924842319375342e6 -5.288124483766825e7 0.0
0.0 0.0 0.0

4.091803325765581e7 2.466284480252796e7 0.0
2.466284480252796e7 1.0598024496008605e7 0.0
0.0 0.0 0.0

-1.7048095582840415e6 2.4387398497049905e7 0.0
2.4387398497049905e7 1.747421440985161e7 0.0
0.0 0.0 0.0

1.003272008786425e6 6.820487880456584e6 0.0
6.820487880456584e6 -4.720599803332369e7 0.0
0.0 0.0 0.0

2.6664975481814295e6 3.04988074716018e7 0.0
3.04988074716018e7 -7.387094835313979e6 0.0
0.0 0.0 0.0

2.6398511981609412e6 2.4453737841501538e7 0.0
2.4453737841501538e7 -9.002133322733784e6 0.0
0.0 0.0 0.0

-4.7155804453314105e6 2.2210210301805086e7 0.0
2.2210210301805086e7 -1.717341762517027e7 0.0
0.0 0.0 0.0

-1.1238602395234718e6 2.375463550033691e7 0.0
2.375463550033691e7 -1.1764390771241259e7 0.0
0.0 0.0 0.0

1.768112915623465e7 2.8047217076558143e7 0.0
2.8047217076558143e7 1.5419619402617892e7 0.0
0.0 0.0 0.0

-906459.5191810913 7.562833826570293e6 0.0
7.562833826570293e6 -8.290125262413153e7 0.0
0.0 0.0 0.0

-5.154343809234095e6 2.828190196953691e7 0.0
2.828190196953691e7 1.2733845672400005e7 0.0
0.0 0.0 0.0

767379.8091263943 4.766818941382588e6 0.0
4.766818941382588e6 -2.9276758973433315e6 0.0
0.0 0.0 0.0

-6.726000218721066e6 1.7554922796819214e7 0.0
1.7554922796819214e7 3.2733942846626442e7 0.0
0.0 0.0 0.0

3.0990410676778723e6 3.9287018107786933e6 0.0
3.9287018107786933e6 -2.7117659288227186e7 0.0
0.0 0.0 0.0

-6.686024192929853e6 -463588.0247936135 0.0
-463588.0247936135 4.970696871658483e7 0.0
0.0 0.0 0.0

1.159495841107713e6 1.7994945662319228e7 0.0
1.7994945662319228e7 -2.577676473532162e7 0.0
0.0 0.0 0.0

334194.51089738717 2.1508872681546896e6 0.0
2.1508872681546896e6 -2.9181517951412755e6 0.0
0.0 0.0 0.0

6.255036203728096e6 2.093238216353681e7 0.0
2.093238216353681e7 2.6155164189788133e7 0.0
0.0 0.0 0.0

-2.6653282632146063e6 3.3673690508614585e7 0.0
3.3673690508614585e7 4.438878425423851e6 0.0
0.0 0.0 0.0

-7.543944291554121e6 1.0953590282015018e6 0.0
1.0953590282015018e6 4.761684454673145e7 0.0
0.0 0.0 0.0

-1.119325076687824e6 2.423970836072733e7 0.0
2.423970836072733e7 1.0657053943323042e7 0.0
0.0 0.0 0.0

8.629003620298559e6 2.8205573679417033e7 0.0
2.8205573679417033e7 -5.301488612906897e6 0.0
0.0 0.0 0.0

-1.9152187088075494e6 2.905370838605818e7 0.0
2.905370838605818e7 256816.19572851434 0.0
0.0 0.0 0.0

-6.89592361650818e6 2.5580824539213687e7 0.0
2.5580824539213687e7 -1.3309214853142058e7 0.0
0.0 0.0 0.0

-1.2898839148051268e6 2.9177010673891414e7 0.0
2.9177010673891414e7 2.2999947449998003e6 0.0
0.0 0.0 0.0

-8.213261576573256e6 2.0212986930345386e7 0.0
2.0212986930345386e7 -2.629156376838501e7 0.0
0.0 0.0 0.0

2.7272807085819744e7 3.2045624727323066e7 0.0
3.2045624727323066e7 -2.822300695864396e6 0.0
0.0 0.0 0.0

-2.578850106175607e6 2.169451056125088e7 0.0
2.169451056125088e7 -1.8789664036728367e7 0.0
0.0 0.0 0.0

-1.7948829251536801e6 2.2426139478101548e7 0.0
2.2426139478101548e7 2.9637256844506152e7 0.0
0.0 0.0 0.0

7.445953323871214e6 2.545206714762866e7 0.0
2.545206714762866e7 1.7162299139429066e7 0.0
0.0 0.0 0.0

1.4174248803388923e6 1.1958507129612822e7 0.0
1.1958507129612822e7 -3.0573268919177916e7 0.0
0.0 0.0 0.0

-5.87634501280653e6 1.5735154310385678e7 0.0
1.5735154310385678e7 1.4769587099149957e7 0.0
0.0 0.0 0.0

-3.5614777880953e6 3.96874100413264e7 0.0
3.96874100413264e7 1.3331614850320097e6 0.0
0.0 0.0 0.0

-3.9908523534722766e6 2.3306482806202784e7 0.0
2.3306482806202784e7 2.001624059324432e7 0.0
0.0 0.0 0.0

6.01191090592908e6 4.255735874773153e7 0.0
4.255735874773153e7 -2.0206952728086072e6 0.0
0.0 0.0 0.0

488050.32508059405 1.754007171623543e7 0.0
1.754007171623543e7 -2.7542983377688557e7 0.0
0.0 0.0 0.0

-3.0437564816042498e7 3.1961753412326336e7 0.0
3.1961753412326336e7 -1.3428039118595865e7 0.0
0.0 0.0 0.0

1.6368791019092202e6 5.009865543299423e6 0.0
5.009865543299423e6 -5.890828003340814e7 0.0
0.0 0.0 0.0

1.868192241021791e7 4.281084341632219e7 0.0
4.281084341632219e7 -5.371391875147428e6 0.0
0.0 0.0 0.0

-2.3524282513432e7 3.8593735263034575e7 0.0
3.8593735263034575e7 6.699491458550539e6 0.0
0.0 0.0 0.0

3.2443826266447054e6 2.226326538129806e7 0.0
2.226326538129806e7 2.5944287691852737e7 0.0
0.0 0.0 0.0

-4.362472458604297e7 3.895291915661802e7 0.0
3.895291915661802e7 5.403211230758574e6 0.0
0.0 0.0 0.0

1.8082330142810121e6 3.0079698514784905e6 0.0
3.0079698514784905e6 -5.462109599083474e7 0.0
0.0 0.0 0.0

-3.378759314914286e6 2.2927048034953862e7 0.0
2.2927048034953862e7 2.166260541032189e7 0.0
0.0 0.0 0.0

-1.0336374705426965e7 1.0231294443543233e7 0.0
1.0231294443543233e7 1.8246441562257912e7 0.0
0.0 0.0 0.0

2.62697519193276e6 2.8122864831718607e6 0.0
2.8122864831718607e6 -2.8640254940333873e7 0.0
0.0 0.0 0.0

1.480804868489623e6 2.431102655558384e7 0.0
2.431102655558384e7 -1.1333487606926423e7 0.0
0.0 0.0 0.0

-8.707835306541398e6 4.855919864160673e7 0.0
4.855919864160673e7 5.406704342609363e6 0.0
0.0 0.0 0.0

-1.6242254401337354e7 2.0617529051524427e7 0.0
2.0617529051524427e7 3.252786390584938e6 0.0
0.0 0.0 0.0

-4.474891899803686e7 3.254033729911169e7 0.0
3.254033729911169e7 -2.389311004649259e6 0.0
0.0 0.0 0.0

5.840613744070655e7 2.9740936314379383e7 0.0
2.9740936314379383e7 2.2770985380001903e7 0.0
0.0 0.0 0.0

-1.0135392223057747e7 1.8839986622914754e7 0.0
1.8839986622914754e7 -1.0544974736213747e8 0.0
0.0 0.0 0.0

-213943.2778791748 2.2951958692936387e7 0.0
2.2951958692936387e7 -1.5058036766919397e7 0.0
0.0 0.0 0.0

-1.2881719756963514e6 2.174036209232013e7 0.0
2.174036209232013e7 2.9997544361214418e7 0.0
0.0 0.0 0.0

2.633063759264716e6 2.779590777364344e7 0.0
2.779590777364344e7 -1.1072905774175169e7 0.0
0.0 0.0 0.0

-248151.32225158205 3.2373868744493745e7 0.0
3.2373868744493745e7 -456279.1522425712 0.0
0.0 0.0 0.0

4.564363483167297e6 1.9707957122644447e7 0.0
1.9707957122644447e7 1.4922954984620258e7 0.0
0.0 0.0 0.0

5.215449453969555e6 4.146192716604664e7 0.0
4.146192716604664e7 -1.981414139756668e6 0.0
0.0 0.0 0.0

-1.0038650337100286e7 1.116724535541223e7 0.0
1.116724535541223e7 2.1346182171782814e7 0.0
0.0 0.0 0.0

7.743614779353371e7 4.6057943955101036e7 0.0
4.6057943955101036e7 3.459014978339231e7 0.0
0.0 0.0 0.0

3.7550567545906478e6 3.2414118156197138e7 0.0
3.2414118156197138e7 -7.188890772904057e6 0.0
0.0 0.0 0.0

5.953535240100681e6 1.8582647638471723e7 0.0
1.8582647638471723e7 2.1121083762240198e7 0.0
0.0 0.0 0.0

-1.4192985738287274e7 2.984295313268503e7 0.0
2.984295313268503e7 1.6733010340140928e6 0.0
0.0 0.0 0.0

2.3499929991877945e6 2.0813587388471674e7 0.0
2.0813587388471674e7 2.104673396066261e7 0.0
0.0 0.0 0.0

2.1568514219607376e6 3.0431013704001106e7 0.0
3.0431013704001106e7 -6.866456377204623e6 0.0
0.0 0.0 0.0

1.3605083686789088e6 8.996114790162848e6 0.0
8.996114790162848e6 -4.173151087747229e7 0.0
0.0 0.0 0.0

-2.3741955838269917e6 2.666939982530694e7 0.0
2.666939982530694e7 7.579064584286601e6 0.0
0.0 0.0 0.0

-7.7550047306537395e6 2.6853175427601825e7 0.0
2.6853175427601825e7 4.334212840754433e6 0.0
0.0 0.0 0.0

918566.2730988227 8.893890352216301e6 0.0
8.893890352216301e6 -1.4245894248035697e7 0.0
0.0 0.0 0.0

-3.567047308483904e6 2.7431578964327637e7 0.0
2.7431578964327637e7 1.357320811139708e7 0.0
0.0 0.0 0.0

-5.515861214232221e6 7.60037793650551e6 0.0
7.60037793650551e6 6.04429274055792e7 0.0
0.0 0.0 0.0

-1.2138581653385886e6 1.3484992219745774e7 0.0
1.3484992219745774e7 -1.7493589312361795e6 0.0
0.0 0.0 0.0

-1.4004135008861002e7 2.7450109759104427e7 0.0
2.7450109759104427e7 -1.301201521872431e7 0.0
0.0 0.0 0.0

5.430082908981092e7 3.6998818973093025e7 0.0
3.6998818973093025e7 2.431446760331513e7 0.0
0.0 0.0 0.0

-368123.5304434579 1.6986808503933292e7 0.0
1.6986808503933292e7 -3.606090046862381e7 0.0
0.0 0.0 0.0

1.8680954430177417e6 6.9246760456520505e6 0.0
6.9246760456520505e6 -4.434616237656654e7 0.0
0.0 0.0 0.0

1.321844258679853e7 2.6072287759784795e7 0.0
2.6072287759784795e7 6.4414435360489525e6 0.0
0.0 0.0 0.0

-997801.419339085 1.3894563877004206e7 0.0
1.3894563877004206e7 1.6991837551783293e7 0.0
0.0 0.0 0.0

-743285.6937119366 3.100653960478669e7 0.0
3.100653960478669e7 305928.781518603 0.0
0.0 0.0 0.0

-314719.6713231937 2.653886037110712e7 0.0
2.653886037110712e7 -8.579201169356253e6 0.0
0.0 0.0 0.0

630696.3258847208 2.686882653240172e7 0.0
2.686882653240172e7 -1.0814214290857758e7 0.0
0.0 0.0 0.0

-1.4649489259767188e6 2.2897876304196227e7 0.0
2.2897876304196227e7 -9.879072807504095e6 0.0
0.0 0.0 0.0

1.721971296830236e6 9.86429555356805e6 0.0
9.86429555356805e6 -1.2791008182091659e7 0.0
0.0 0.0 0.0

4.555119462827829e7 3.339938246925064e7 0.0
3.339938246925064e7 2.178050574133987e7 0.0
0.0 0.0 0.0

3.7656475009155367e6 2.085285464799943e7 0.0
2.085285464799943e7 1.322001746755807e7 0.0
0.0 0.0 0.0

-4.0866975513101122e6 3.8488161834530264e7 0.0
3.8488161834530264e7 3.7170298814287367e6 0.0
0.0 0.0 0.0

-4.6130918028893426e7 2.7231787949352555e7 0.0
2.7231787949352555e7 4.130792679660883e6 0.0
0.0 0.0 0.0

3.068844582340874e6 3.5719557629930773e6 0.0
3.5719557629930773e6 -2.5267815970483974e7 0.0
0.0 0.0 0.0

1.1682854981835133e6 2.319096745130729e7 0.0
2.319096745130729e7 8.636323538631873e6 0.0
0.0 0.0 0.0

-6.258108307594797e6 1.9295187509545736e7 0.0
1.9295187509545736e7 -2.5155119239316065e7 0.0
0.0 0.0 0.0

-505156.4202732099 2.056623715917175e7 0.0
2.056623715917175e7 -2.590931136070919e7 0.0
0.0 0.0 0.0

-8.351980881907178e6 -688767.745245607 0.0
-688767.745245607 3.417988246987475e7 0.0
0.0 0.0 0.0

826195.6409698166 1.590615552716736e7 0.0
1.590615552716736e7 -2.435974838161827e7 0.0
0.0 0.0 0.0

-1.3621232517871317e7 1.9677048765718054e7 0.0
1.9677048765718054e7 -6.407525416042095e7 0.0
0.0 0.0 0.0

970038.1400838532 1.5156067746054502e7 0.0
1.5156067746054502e7 -2.5850825305393435e7 0.0
0.0 0.0 0.0

3.3207855707620573e6 2.5147163280598912e7 0.0
2.5147163280598912e7 -1.0294128171868265e7 0.0
0.0 0.0 0.0

4.220198795413476e7 2.672452414183571e7 0.0
2.672452414183571e7 9.9250461192282e6 0.0
0.0 0.0 0.0

-4.500892619891979e6 1.6966138858850636e7 0.0
1.6966138858850636e7 4.405633712381067e7 0.0
0.0 0.0 0.0

-7.072966199675762e6 2.6875792687284723e7 0.0
2.6875792687284723e7 -1.4032668952977704e7 0.0
0.0 0.0 0.0

511799.70987702836 2.145837615440554e7 0.0
2.145837615440554e7 1.1199799565401126e6 0.0
0.0 0.0 0.0

-7.755914208017914e6 2.4214933322116107e7 0.0
2.4214933322116107e7 -1.803186556339821e7 0.0
0.0 0.0 0.0

4.291042498784485e7 3.322810213282403e7 0.0
3.322810213282403e7 1.9178715837751016e7 0.0
0.0 0.0 0.0

-4.2879055365544325e6 2.7529222656523786e7 0.0
2.7529222656523786e7 1.4368372762769382e7 0.0
0.0 0.0 0.0

2.897236195873844e6 2.485266409741268e7 0.0
2.485266409741268e7 -3.0770352931307717e6 0.0
0.0 0.0 0.0

1.1573656727579841e6 3.4873878364163086e7 0.0
3.4873878364163086e7 -1.7691416288715233e6 0.0
0.0 0.0 0.0

-2.2166519280360676e6 2.6597160529302455e7 0.0
2.6597160529302455e7 8.596647158853278e6 0.0
0.0 0.0 0.0

-3.6775273862519227e6 2.62101510490897e6 0.0
2.62101510490897e6 8.931256260884012e7 0.0
0.0 0.0 0.0

1.3338982603730261e6 2.436486596710526e7 0.0
2.436486596710526e7 -1.635532987411986e7 0.0
0.0 0.0 0.0

-1.6040150775338747e6 3.387986709099757e7 0.0
3.387986709099757e7 2.5342172015262293e6 0.0
0.0 0.0 0.0

-1.4601541497046798e6 4.000298532440485e6 0.0
4.000298532440485e6 3.4523969446163513e6 0.0
0.0 0.0 0.0

-5.721629042071115e6 1.911769278031427e7 0.0
1.911769278031427e7 3.1454908263509344e7 0.0
0.0 0.0 0.0

-4.550594203043403e6 2.055347912277098e7 0.0
2.055347912277098e7 -1.747098957960955e7 0.0
0.0 0.0 0.0

2.139175338715691e6 3.5598911561869723e6 0.0
3.5598911561869723e6 -3.5741792617535405e7 0.0
0.0 0.0 0.0

-1.9112445117867023e6 4.0302620550065465e7 0.0
4.0302620550065465e7 2.257019611998948e6 0.0
0.0 0.0 0.0

1.5707265827965122e6 1.627989700913042e7 0.0
1.627989700913042e7 -2.213441970437857e7 0.0
0.0 0.0 0.0

-3.863497047762908e6 2.2234076032041486e7 0.0
2.2234076032041486e7 2.367262251017331e7 0.0
0.0 0.0 0.0

429095.71092411503 6.778058170382125e6 0.0
6.778058170382125e6 -7.68119867656617e7 0.0
0.0 0.0 0.0

-4.983555934640633e6 3.8031809916343324e7 0.0
3.8031809916343324e7 3.1374768615532443e6 0.0
0.0 0.0 0.0

-1.0582264042491652e7 2.019668733223045e7 0.0
2.019668733223045e7 -3.7774672995988704e7 0.0
0.0 0.0 0.0

3.1449996341680493e6 2.354187823238884e6 0.0
2.354187823238884e6 -1.6096067299079062e7 0.0
0.0 0.0 0.0

-920736.9523001494 1.2498734794704992e7 0.0
1.2498734794704992e7 -3.6218659620878967e6 0.0
0.0 0.0 0.0

-2.0468818567470595e7 3.875366868102329e7 0.0
3.875366868102329e7 5.813513942737917e6 0.0
0.0 0.0 0.0

7.739954005814116e6 1.853952831021126e7 0.0
1.853952831021126e7 2.4948107028130334e7 0.0
0.0 0.0 0.0

-1.0229364983484577e7 4.566138469486249e7 0.0
4.566138469486249e7 3.3945626813126407e6 0.0
0.0 0.0 0.0

-9.460621814157551e6 8.725863889553402e6 0.0
8.725863889553402e6 3.2901641970200837e7 0.0
0.0 0.0 0.0

-944030.9102725126 1.0391007977852339e7 0.0
1.0391007977852339e7 -8.560438398218222e7 0.0
0.0 0.0 0.0

9.984928448619582e7 3.3416350336281005e7 0.0
3.3416350336281005e7 1.1527428477076247e7 0.0
0.0 0.0 0.0

-681990.9361951277 3.199836972624344e7 0.0
3.199836972624344e7 459039.7440488174 0.0
0.0 0.0 0.0

-6.363872601243714e6 3.2918142097588338e7 0.0
3.2918142097588338e7 7.503472730514038e6 0.0
0.0 0.0 0.0

-1.9599108181081112e6 2.935759414052806e7 0.0
2.935759414052806e7 5.645112961804162e6 0.0
0.0 0.0 0.0

1.1189938122484056e7 2.2536322212079216e7 0.0
2.2536322212079216e7 7.005501699307719e7 0.0
0.0 0.0 0.0

1.647096020290831e6 3.9407398955889274e6 0.0
3.9407398955889274e6 -4.21859226581201e7 0.0
0.0 0.0 0.0

74362.43233849574 1.5235733320548978e7 0.0
1.5235733320548978e7 -9.756010786266433e6 0.0
0.0 0.0 0.0

1.1653233858200315e7 3.905085223292539e7 0.0
3.905085223292539e7 -5.215654964522658e6 0.0
0.0 0.0 0.0

-393968.9994498063 1.2376015600331029e7 0.0
1.2376015600331029e7 -4.7676783301906236e7 0.0
0.0 0.0 0.0

-2.4421575083190598e7 2.3456558541018415e7 0.0
2.3456558541018415e7 2.788910363773496e6 0.0
0.0 0.0 0.0

-7.645454834451731e6 2.7246458873105578e7 0.0
2.7246458873105578e7 2.8872421718769623e6 0.0
0.0 0.0 0.0

675738.4847549334 2.2164859978497155e7 0.0
2.2164859978497155e7 5.0897822748220265e6 0.0
0.0 0.0 0.0

1.630840665912116e6 1.5535295130470823e7 0.0
1.5535295130470823e7 -2.37442905248226e7 0.0
0.0 0.0 0.0

5.60111562013365e6 2.1482078617651403e7 0.0
2.1482078617651403e7 4.5661935493765295e7 0.0
0.0 0.0 0.0

1.8146959801135138e7 3.9412345032054365e7 0.0
3.9412345032054365e7 -6.032509086090443e6 0.0
0.0 0.0 0.0

-5.121724767488069e7 5.407477226977094e6 0.0
5.407477226977094e6 5.228880202493519e6 0.0
0.0 0.0 0.0

5.927715174539359e7 5.41900317970486e7 0.0
5.41900317970486e7 -9.241369378670238e6 0.0
0.0 0.0 0.0

1.733065041837417e7 3.9718171105677456e7 0.0
3.9718171105677456e7 -6.489399775872779e6 0.0
0.0 0.0 0.0

2.723815689456337e6 3.639266611766577e6 0.0
3.639266611766577e6 -2.4280657163697273e7 0.0
0.0 0.0 0.0

-3.1213829174622456e6 3.392566023061172e7 0.0
3.392566023061172e7 2.7055894827654436e6 0.0
0.0 0.0 0.0

5.054855787852426e7 1.841263179956576e7 0.0
1.841263179956576e7 3.4324016201771274e6 0.0
0.0 0.0 0.0

-4.294233096965022e6 9.776870810016045e6 0.0
9.776870810016045e6 6.557624740168302e7 0.0
0.0 0.0 0.0

1.3577753403552044e6 2.466667214576437e7 0.0
2.466667214576437e7 -1.5766797019761937e7 0.0
0.0 0.0 0.0

3.18247971787184e7 2.2526837079044376e7 0.0
2.2526837079044376e7 6.355042953502448e6 0.0
0.0 0.0 0.0

2.389342949021942e6 2.5190332997959923e7 0.0
2.5190332997959923e7 -1.2334790778654676e7 0.0
0.0 0.0 0.0

1.941094512696607e6 4.664453172805115e6 0.0
4.664453172805115e6 -4.555325989597577e7 0.0
0.0 0.0 0.0

13766.435028982465 3.1789184803792343e7 0.0
3.1789184803792343e7 -1.5305783006491805e6 0.0
0.0 0.0 0.0

-5.548499127667502e6 1.97901562495335e7 0.0
1.97901562495335e7 -2.2602070677757688e7 0.0
0.0 0.0 0.0

4.287801271772008e6 3.439890131026172e7 0.0
3.439890131026172e7 -5.844471519789475e6 0.0
0.0 0.0 0.0

-2.5063412200947404e6 1.2710371614569956e7 0.0
1.2710371614569956e7 6.780519061623934e7 0.0
0.0 0.0 0.0

-1.2949892719918066e6 2.2202724187893607e7 0.0
2.2202724187893607e7 -1.1994931007937158e7 0.0
0.0 0.0 0.0

1.3014727449162994e6 1.1558527627799945e7 0.0
1.1558527627799945e7 -3.298928959914476e7 0.0
0.0 0.0 0.0

6.723421501012623e6 2.842458286572462e7 0.0
2.842458286572462e7 -6.810268866092334e6 0.0
0.0 0.0 0.0

-3.80421927452451e6 2.1674674285474986e7 0.0
2.1674674285474986e7 -1.1507921539366502e7 0.0
0.0 0.0 0.0

-5.775354930355616e6 4.875615248482307e6 0.0
4.875615248482307e6 6.0390667789996885e7 0.0
0.0 0.0 0.0

4.567393566608405e6 2.2234099306972235e7 0.0
2.2234099306972235e7 2.676360133645338e7 0.0
0.0 0.0 0.0

-689149.8684255704 1.1936632094797827e7 0.0
1.1936632094797827e7 -5.160651734772842e7 0.0
0.0 0.0 0.0

5.276424262431711e6 3.404282664330644e7 0.0
3.404282664330644e7 -5.614142778171542e6 0.0
0.0 0.0 0.0

5.24711221602433e6 2.5802110998674627e7 0.0
2.5802110998674627e7 1.6477144438916143e7 0.0
0.0 0.0 0.0

2.060216558247963e6 1.0316396793249097e7 0.0
1.0316396793249097e7 -3.237835088956667e7 0.0
0.0 0.0 0.0

7.544757289844845e7 3.2511479523033082e7 0.0
3.2511479523033082e7 1.7577799307830542e7 0.0
0.0 0.0 0.0

4.22412043136725e6 3.3245496222025596e7 0.0
3.3245496222025596e7 -5.816508249779995e6 0.0
0.0 0.0 0.0

-7.969955067170454e6 -405793.4538649076 0.0
-405793.4538649076 3.786828590277037e7 0.0
0.0 0.0 0.0

-7.006073637879096e6 5.2554053551249495e6 0.0
5.2554053551249495e6 5.6463147461081386e7 0.0
0.0 0.0 0.0

2.4178716951627657e6 1.5962845364740524e6 0.0
1.5962845364740524e6 -3.823918969965145e7 0.0
0.0 0.0 0.0

-2.6154147262428617e6 2.8829539371350713e7 0.0
2.8829539371350713e7 4.947769605385654e6 0.0
0.0 0.0 0.0

-2.0759538817869327e6 2.198226143171887e7 0.0
2.198226143171887e7 -1.094424676814589e7 0.0
0.0 0.0 0.0

2.6071717210868504e6 2.7062982041398358e7 0.0
2.7062982041398358e7 -1.2517000121207893e7 0.0
0.0 0.0 0.0

-9.17887308009781e6 2.4605138605397916e6 0.0
2.4605138605397916e6 2.9132839466069434e7 0.0
0.0 0.0 0.0

1.1097723160101627e6 2.743265729923538e7 0.0
2.743265729923538e7 -8.974568404992012e6 0.0
0.0 0.0 0.0

-6.22132558237062e6 4.748030708283337e6 0.0
4.748030708283337e6 6.0317796565936014e7 0.0
0.0 0.0 0.0

1.273955721313505e7 2.453986704417711e7 0.0
2.453986704417711e7 8.271432165176054e6 0.0
0.0 0.0 0.0

-1.1908962410902306e6 1.455134662240956e7 0.0
1.455134662240956e7 -4.925375061013202e7 0.0
0.0 0.0 0.0

26095.56035459414 1.198179364354503e7 0.0
1.198179364354503e7 -5.200764429727876e7 0.0
0.0 0.0 0.0

-5.777793286227394e6 1.8662952645539597e7 0.0
1.8662952645539597e7 3.338180142211335e7 0.0
0.0 0.0 0.0

-1.76408739843746e6 2.389214257283253e7 0.0
2.389214257283253e7 6.430990988826005e6 0.0
0.0 0.0 0.0

114942.66533840273 5.088828067439452e6 0.0
5.088828067439452e6 -716447.9307508727 0.0
0.0 0.0 0.0

-1.6585443583722191e6 2.339679248072515e7 0.0
2.339679248072515e7 -1.0107772557609882e7 0.0
0.0 0.0 0.0

-3.634564788565674e6 3.163908933909672e7 0.0
3.163908933909672e7 7.833650860178735e6 0.0
0.0 0.0 0.0

9.982743285443887e6 2.234727114563054e7 0.0
2.234727114563054e7 5.703032671621809e7 0.0
0.0 0.0 0.0

1.845629413744116e7 2.8066255907452315e7 0.0
2.8066255907452315e7 -1.1355594256937876e6 0.0
0.0 0.0 0.0

-3.194648475900568e6 2.2058695144241196e6 0.0
2.2058695144241196e6 8.66510023899597e7 0.0
0.0 0.0 0.0

-5.033796872283079e6 1.2574049259645212e7 0.0
1.2574049259645212e7 5.382331106036455e7 0.0
0.0 0.0 0.0

-6.297092424085699e6 1.8826127585650276e7 0.0
1.8826127585650276e7 2.692310820124801e7 0.0
0.0 0.0 0.0

3.097487108786272e6 2.1953940700531736e7 0.0
2.1953940700531736e7 1.4063281198238429e7 0.0
0.0 0.0 0.0

-1.0443983972039253e7 6.6904620583049795e6 0.0
6.6904620583049795e6 2.1506642812991086e7 0.0
0.0 0.0 0.0

-1.2853866719507825e7 2.403597006167018e7 0.0
2.403597006167018e7 -1.0738779091892103e7 0.0
0.0 0.0 0.0

2.3895621555416696e6 5.164195318858652e6 0.0
5.164195318858652e6 -4.018508494189228e7 0.0
0.0 0.0 0.0

-1.0452547825923186e7 1.9711133783762176e7 0.0
1.9711133783762176e7 -5.396166493241552e7 0.0
0.0 0.0 0.0

2.733612323935606e6 2.076755212132161e7 0.0
2.076755212132161e7 9.001466206037287e6 0.0
0.0 0.0 0.0

2.454839141883795e7 3.510110890272203e7 0.0
3.510110890272203e7 -5.44804295395207e6 0.0
0.0 0.0 0.0

3.0727921196606713e6 2.5936908157605212e7 0.0
2.5936908157605212e7 -9.055074082721893e6 0.0
0.0 0.0 0.0

-3.0167772593588177e7 3.0881076402905867e7 0.0
3.0881076402905867e7 -1.0479284855871348e7 0.0
0.0 0.0 0.0

-648090.4591929775 3.315275991844264e7 0.0
3.315275991844264e7 -1.9249450889163793e6 0.0
0.0 0.0 0.0

-2.5860901580802454e6 8.055742168908196e6 0.0
8.055742168908196e6 -1.5043660135465134e6 0.0
0.0 0.0 0.0

-6.71041944691124e6 4.683040378203042e7 0.0
4.683040378203042e7 5.196119308023226e6 0.0
0.0 0.0 0.0

-1.685549458503375e6 2.4562851068622768e7 0.0
2.4562851068622768e7 4.896435819841143e6 0.0
0.0 0.0 0.0

-1.0911957930443656e7 1.1375812286070837e7 0.0
1.1375812286070837e7 2.193598309968074e7 0.0
0.0 0.0 0.0

-2.35728203641358e6 2.4594365652694933e7 0.0
2.4594365652694933e7 2.5974569483318008e6 0.0
0.0 0.0 0.0

-7.440885426085839e6 1.4325723048231192e6 0.0
1.4325723048231192e6 9.07745300181127e6 0.0
0.0 0.0 0.0

-104088.22189053055 1.1173081249064982e7 0.0
1.1173081249064982e7 -2.4701347487119995e7 0.0
0.0 0.0 0.0

-686403.7024791837 1.5313689927359672e7 0.0
1.5313689927359672e7 -4.234524565106179e7 0.0
0.0 0.0 0.0

-1.373761837626333e7 2.651075124192519e7 0.0
2.651075124192519e7 -1.1410002953423819e7 0.0
0.0 0.0 0.0

-1.8616140983344205e6 2.262379305713618e7 0.0
2.262379305713618e7 2.767402004130599e7 0.0
0.0 0.0 0.0

-1.557156534835381e6 2.1833434144723725e7 0.0
2.1833434144723725e7 -7.96375209921832e6 0.0
0.0 0.0 0.0

2.910518274516413e6 4.1660316997304726e6 0.0
4.1660316997304726e6 -1.632572732513178e7 0.0
0.0 0.0 0.0

117291.17146046297 2.9729387959106185e7 0.0
2.9729387959106185e7 -5.879173566828755e6 0.0
0.0 0.0 0.0

679060.1521891623 3.4661822503970444e7 0.0
3.4661822503970444e7 -3.1771517437990387e6 0.0
0.0 0.0 0.0

8.829976001673141e6 2.78378227988618e7 0.0
2.78378227988618e7 -5.861530586322656e6 0.0
0.0 0.0 0.0

-9.69723691946795e6 1.435071040124829e7 0.0
1.435071040124829e7 2.3268951716140676e7 0.0
0.0 0.0 0.0

-3.33384711753051e6 2.0990550808685858e7 0.0
2.0990550808685858e7 -2.4664784939501543e7 0.0
0.0 0.0 0.0

-7.387360730429076e6 3.9899185779114604e7 0.0
3.9899185779114604e7 3.5073354471842353e6 0.0
0.0 0.0 0.0

-6.0963397332846895e6 3.897441332109034e7 0.0
3.897441332109034e7 3.3060725833491725e6 0.0
0.0 0.0 0.0

-4.402796901202699e6 1.8459250208250586e7 0.0
1.8459250208250586e7 -3.9691302913674966e7 0.0
0.0 0.0 0.0

-4.939275895114913e6 2.1404728011872463e7 0.0
2.1404728011872463e7 -1.4874989682527462e7 0.0
0.0 0.0 0.0

1.5954528940290008e6 2.1751642097010452e7 0.0
2.1751642097010452e7 7.321274017667486e6 0.0
0.0 0.0 0.0

918920.3671796881 1.0952940662606537e7 0.0
1.0952940662606537e7 -4.0292733317708045e7 0.0
0.0 0.0 0.0

-6.589725998998778e6 1.3893327681572445e7 0.0
1.3893327681572445e7 4.422102726772355e7 0.0
0.0 0.0 0.0

-3.140447087919943e6 1.428962356132773e7 0.0
1.428962356132773e7 -8.896350569637924e7 0.0
0.0 0.0 0.0

1.5144445025573313e7 4.4155014633099e7 0.0
4.4155014633099e7 -7.1512381497455e6 0.0
0.0 0.0 0.0

9.645858082803993e6 2.0011870208619438e7 0.0
2.0011870208619438e7 4.074311241135646e7 0.0
0.0 0.0 0.0

7.51244390118251e6 2.1117742447321553e7 0.0
2.1117742447321553e7 5.172341014601868e7 0.0
0.0 0.0 0.0

3.1936673596312832e7 2.9188932891239956e7 0.0
2.9188932891239956e7 1.5112815144012906e7 0.0
0.0 0.0 0.0

-145917.68527512532 2.2828017942443173e7 0.0
2.2828017942443173e7 3.832898555637928e6 0.0
0.0 0.0 0.0

201161.0936583702 2.9165878361721296e7 0.0
2.9165878361721296e7 -5.549632441296136e6 0.0
0.0 0.0 0.0

-3.7942920383434415e7 3.1693995123628102e7 0.0
3.1693995123628102e7 -1.2001959082383461e7 0.0
0.0 0.0 0.0

-115717.41210994439 2.175062458719794e7 0.0
2.175062458719794e7 1.458662080253491e6 0.0
0.0 0.0 0.0

-4.428758432403355e6 2.5933576724825367e7 0.0
2.5933576724825367e7 6.645267565189086e6 0.0
0.0 0.0 0.0

2.862177511873806e6 3.739204321277978e6 0.0
3.739204321277978e6 -3.3053167448494706e7 0.0
0.0 0.0 0.0

-1.48993593882248e7 2.595213320394688e7 0.0
2.595213320394688e7 -8.80444736054121e6 0.0
0.0 0.0 0.0

-1.8266464816334616e7 4.921165492417898e7 0.0
4.921165492417898e7 6.044442237399273e6 0.0
0.0 0.0 0.0

-9.059258593993768e6 4.270894773203842e6 0.0
4.270894773203842e6 3.267105822674492e7 0.0
0.0 0.0 0.0

1.7680115112401813e7 3.622413687117174e7 0.0
3.622413687117174e7 -5.437757486154869e6 0.0
0.0 0.0 0.0

-1.2957768826315887e6 1.2053812675493255e7 0.0
1.2053812675493255e7 9.41970954665926e7 0.0
0.0 0.0 0.0

-8.02551671556448e6 -366835.7322606807 0.0
-366835.7322606807 3.7696006443717346e7 0.0
0.0 0.0 0.0

-1.727252107383213e7 2.2368879650174364e7 0.0
2.2368879650174364e7 -7.000017906079757e7 0.0
0.0 0.0 0.0

-365096.98474983545 2.4012991403737053e7 0.0
2.4012991403737053e7 -1.3272827623679062e7 0.0
0.0 0.0 0.0

800042.8892895001 3.579654691200293e7 0.0
3.579654691200293e7 -1.651658405935586e6 0.0
0.0 0.0 0.0

-9.270706701194307e6 2.175264575228486e7 0.0
2.175264575228486e7 -1.409157413272688e7 0.0
0.0 0.0 0.0

-1.096563427623853e6 1.1887666340010101e7 0.0
1.1887666340010101e7 -1.7955570838343492e6 0.0
0.0 0.0 0.0

-552024.6535976811 3.1545321266020272e7 0.0
3.1545321266020272e7 -3.208546086283492e6 0.0
0.0 0.0 0.0

-3.659647667831109e6 3.767280003489871e7 0.0
3.767280003489871e7 3.0923826065156497e6 0.0
0.0 0.0 0.0

1.221405069590399e6 3.6060657807293296e7 0.0
3.6060657807293296e7 -2.1596095612971317e6 0.0
0.0 0.0 0.0

-5.400247985822905e6 1.3202171622945674e7 0.0
1.3202171622945674e7 -9.628203422281882e7 0.0
0.0 0.0 0.0

-7.106380798073649e6 2.219601407470311e7 0.0
2.219601407470311e7 -2.5301943175473277e7 0.0
0.0 0.0 0.0

-4.770232173451051e6 3.6865786022788766e6 0.0
3.6865786022788766e6 7.115523079214802e7 0.0
0.0 0.0 0.0

1.771700464077001e7 2.5462514767435007e7 0.0
2.5462514767435007e7 7.824483946295983e7 0.0
0.0 0.0 0.0

-5.836333413760313e7 5.255068559420377e6 0.0
5.255068559420377e6 4.9638842223230265e6 0.0
0.0 0.0 0.0

5.31340725796904e7 3.5111059549953975e7 0.0
3.5111059549953975e7 1.2133452219553292e7 0.0
0.0 0.0 0.0

-823884.244843455 1.8212142986343123e7 0.0
1.8212142986343123e7 -3.477530154416569e7 0.0
0.0 0.0 0.0

2.0140807772598742e6 5.9089449934883565e6 0.0
5.9089449934883565e6 -9.480799422537271e6 0.0
0.0 0.0 0.0

7.147282873939136e7 3.323182046646949e7 0.0
3.323182046646949e7 1.3001016313708238e6 0.0
0.0 0.0 0.0

2.244212950575428e6 1.2803035165484373e7 0.0
1.2803035165484373e7 -3.1323805678469907e7 0.0
0.0 0.0 0.0

3.972704830837538e7 2.969580593600165e7 0.0
2.969580593600165e7 1.6452654122093525e7 0.0
0.0 0.0 0.0

-1.1438023170689614e6 3.2819116741044886e7 0.0
3.2819116741044886e7 -1.17685426856633e6 0.0
0.0 0.0 0.0

-5.302625611088129e6 3.2189751067444656e7 0.0
3.2189751067444656e7 7.81221512810071e6 0.0
0.0 0.0 0.0

-1.135239090693127e6 1.5801687292647256e7 0.0
1.5801687292647256e7 -1.064155680824185e7 0.0
0.0 0.0 0.0

-6.745174181670656e6 1.5913870118632313e7 0.0
1.5913870118632313e7 -8.879534172993839e6 0.0
0.0 0.0 0.0

-7.116157404649087e6 2.1064294853550695e7 0.0
2.1064294853550695e7 -2.446226600241656e7 0.0
0.0 0.0 0.0

-1.8987837010663263e6 2.48214669488888e7 0.0
2.48214669488888e7 1.0307983619484538e7 0.0
0.0 0.0 0.0

4.908603834323793e6 2.469780681291868e7 0.0
2.469780681291868e7 1.2655010638121793e7 0.0
0.0 0.0 0.0

-1.631936625430245e6 1.0518598061512666e7 0.0
1.0518598061512666e7 8.894887791255456e7 0.0
0.0 0.0 0.0

-1.634700447146141e6 3.0548053932690077e7 0.0
3.0548053932690077e7 -469721.571096366 0.0
0.0 0.0 0.0

2.365320074679058e6 1.5634358526149152e6 0.0
1.5634358526149152e6 -3.843719003024337e7 0.0
0.0 0.0 0.0

-2.607138866988535e6 2.5404296239272133e7 0.0
2.5404296239272133e7 1.7841220797669962e7 0.0
0.0 0.0 0.0

3.201196387598743e6 2.462756049060287e7 0.0
2.462756049060287e7 1.4469529076762661e7 0.0
0.0 0.0 0.0

1.722544669332249e7 3.049499667064522e7 0.0
3.049499667064522e7 -3.5807981949749477e6 0.0
0.0 0.0 0.0

2.0990925848101904e6 2.9714040617516156e7 0.0
2.9714040617516156e7 -9.055577569950087e6 0.0
0.0 0.0 0.0

-4.993395584499654e6 4.250009148006745e7 0.0
4.250009148006745e7 1.9980052428285342e6 0.0
0.0 0.0 0.0

-3.638004436711972e6 8.941363023926647e6 0.0
8.941363023926647e6 681561.3716889187 0.0
0.0 0.0 0.0

-1.4776168469420698e7 3.871016995986859e7 0.0
3.871016995986859e7 5.634722656084123e6 0.0
0.0 0.0 0.0

-1.9810317103460983e6 3.3417399239580292e7 0.0
3.3417399239580292e7 3.5367581419883026e6 0.0
0.0 0.0 0.0

-5.980708562889416e6 2.0096481564551886e7 0.0
2.0096481564551886e7 2.683368734505768e7 0.0
0.0 0.0 0.0

4.397635648464872e7 2.9970002582370035e7 0.0
2.9970002582370035e7 3.2806574943180718e6 0.0
0.0 0.0 0.0

1.2546701891821362e6 2.253262308406153e7 0.0
2.253262308406153e7 -1.7259613890113235e7 0.0
0.0 0.0 0.0

-1.5685763147986513e6 3.2451086028070863e7 0.0
3.2451086028070863e7 -291338.3174046075 0.0
0.0 0.0 0.0

-968338.2986010052 1.4294051514164627e7 0.0
1.4294051514164627e7 -1.1108964788374187e7 0.0
0.0 0.0 0.0

-555614.5251810392 2.4185852342314802e7 0.0
2.4185852342314802e7 1.6426034543552734e7 0.0
0.0 0.0 0.0

-1.0706450408985576e7 1.7127827847981e7 0.0
1.7127827847981e7 -5.534796708090576e6 0.0
0.0 0.0 0.0

-1.4586004596261725e7 2.4887445542605158e7 0.0
2.4887445542605158e7 -8.937636680923939e6 0.0
0.0 0.0 0.0

652136.1680296725 2.360905675859381e7 0.0
2.360905675859381e7 -1.3180204267981622e7 0.0
0.0 0.0 0.0

1.3963122545445206e7 1.7960796642917257e7 0.0
1.7960796642917257e7 5.089893374662656e6 0.0
0.0 0.0 0.0

59991.22578298114 2.1768076838762783e7 0.0
2.1768076838762783e7 -2.1929773351041086e7 0.0
0.0 0.0 0.0

-1.644609507030554e6 2.2297744249592423e7 0.0
2.2297744249592423e7 2.7647040387903556e7 0.0
0.0 0.0 0.0

-1.9509487654634e7 2.3798362131339625e7 0.0
2.3798362131339625e7 -3.285338869553616e6 0.0
0.0 0.0 0.0

-3.2074316898978367e6 2.459093765604984e7 0.0
2.459093765604984e7 4.26849793704084e6 0.0
0.0 0.0 0.0

-1.041147202819302e7 1.0036794343909886e7 0.0
1.0036794343909886e7 3.0392711737734195e7 0.0
0.0 0.0 0.0

4.507786091947911e6 2.1511638315428123e7 0.0
2.1511638315428123e7 2.5672998499498107e7 0.0
0.0 0.0 0.0

2.101795099447151e7 3.9926316813697964e7 0.0
3.9926316813697964e7 -7.062027255019032e6 0.0
0.0 0.0 0.0

-4.910419494210006e7 3.2169001099834193e7 0.0
3.2169001099834193e7 -2.1172018876201045e6 0.0
0.0 0.0 0.0

1.403463649553836e7 5.022219289964578e7 0.0
5.022219289964578e7 -3.6876041876955833e6 0.0
0.0 0.0 0.0

-1.684140111467728e7 2.8492716596878275e7 0.0
2.8492716596878275e7 -715936.5659911027 0.0
0.0 0.0 0.0

8.5577961290895e6 4.531112103157212e7 0.0
4.531112103157212e7 -2.4118494532963308e6 0.0
0.0 0.0 0.0

-1.0447650197376514e7 6.081151048929969e6 0.0
6.081151048929969e6 2.9834625247819252e7 0.0
0.0 0.0 0.0

2.1108261687057376e7 2.9034073837119807e7 0.0
2.9034073837119807e7 -1.2868915507929865e6 0.0
0.0 0.0 0.0

-4.899073464108744e6 3.942922674412135e7 0.0
3.942922674412135e7 4.0163767212315826e6 0.0
0.0 0.0 0.0

-6.2184145303206695e6 2.5656883649598572e7 0.0
2.5656883649598572e7 1.0950400979627548e6 0.0
0.0 0.0 0.0

-818547.3135743812 2.023834037777809e7 0.0
2.023834037777809e7 -2.8423509589399457e7 0.0
0.0 0.0 0.0

-7.77674645206076e6 3.497248157923026e7 0.0
3.497248157923026e7 6.450060757937751e6 0.0
0.0 0.0 0.0

-8.949254371519916e6 2.127788817520956e7 0.0
2.127788817520956e7 -9.680194514615234e6 0.0
0.0 0.0 0.0

7.598843676942727e6 4.4390481721116975e7 0.0
4.4390481721116975e7 -4.62275182559458e6 0.0
0.0 0.0 0.0

-1.8505156341393612e7 3.903578886607586e7 0.0
3.903578886607586e7 6.613426734182189e6 0.0
0.0 0.0 0.0

1.4838233036560412e7 2.937958947078073e7 0.0
2.937958947078073e7 -3.078302146832387e6 0.0
0.0 0.0 0.0

2.948744760985773e6 6.018964844678774e6 0.0
6.018964844678774e6 -2.1312431903777756e7 0.0
0.0 0.0 0.0

-8.170632720261252e6 2.062872274671374e7 0.0
2.062872274671374e7 -4.32608002761518e7 0.0
0.0 0.0 0.0

2.7813880275533944e6 4.0482614507001177e6 0.0
4.0482614507001177e6 -1.7975574194926698e7 0.0
0.0 0.0 0.0

7.662698273024268e6 2.050508349663534e7 0.0
2.050508349663534e7 3.834865001156661e7 0.0
0.0 0.0 0.0

7.960445150746616e6 2.701980850342185e7 0.0
2.701980850342185e7 -3.4235263865744104e6 0.0
0.0 0.0 0.0

1.3923340080808219e7 3.661459293929347e7 0.0
3.661459293929347e7 -5.6652663152060965e6 0.0
0.0 0.0 0.0

-5.6910100597779155e6 1.9866055001408935e7 0.0
1.9866055001408935e7 3.161429780927228e7 0.0
0.0 0.0 0.0

-159102.16454914724 1.6629078003178611e7 0.0
1.6629078003178611e7 -9.388677141743965e6 0.0
0.0 0.0 0.0

2.414747937955589e6 1.0331961713424884e7 0.0
1.0331961713424884e7 4.026800304545005e6 0.0
0.0 0.0 0.0

-1.7157383872054815e6 1.2420302667247834e7 0.0
1.2420302667247834e7 -7.347342023742259e7 0.0
0.0 0.0 0.0

3.139524468189838e6 1.8766608350388747e7 0.0
1.8766608350388747e7 8.890622039836822e6 0.0
0.0 0.0 0.0

-1.7538609698157214e7 3.446280597000848e7 0.0
3.446280597000848e7 5.080941229361562e6 0.0
0.0 0.0 0.0

-1.824434382382582e6 2.1993561104503803e7 0.0
2.1993561104503803e7 -1.555447129343923e7 0.0
0.0 0.0 0.0

3.395284813165407e7 2.8636917836817652e7 0.0
2.8636917836817652e7 1.5536071879819404e7 0.0
0.0 0.0 0.0

-8.791538205225961e6 8.592122454270123e6 0.0
8.592122454270123e6 3.9345445435940996e7 0.0
0.0 0.0 0.0

-3.896405153206714e7 3.6052040833929546e7 0.0
3.6052040833929546e7 -284978.0413269419 0.0
0.0 0.0 0.0

4.262346193663097e7 4.2300868581199944e7 0.0
4.2300868581199944e7 -8.620680003207218e6 0.0
0.0 0.0 0.0

-5.739087136907484e6 3.2205957258846868e7 0.0
3.2205957258846868e7 8.575105309448972e6 0.0
0.0 0.0 0.0

115004.97088574595 1.996344002790262e7 0.0
1.996344002790262e7 3.2866726905260393e6 0.0
0.0 0.0 0.0

-3.8579710544842444e6 1.8701138374481317e7 0.0
1.8701138374481317e7 4.06268506135097e7 0.0
0.0 0.0 0.0

-8.388058560799312e6 777042.5853839531 0.0
777042.5853839531 3.893468827332496e7 0.0
0.0 0.0 0.0

585372.2698502829 2.202607749305288e7 0.0
2.202607749305288e7 -1.8947731511849098e7 0.0
0.0 0.0 0.0

-1.3353867296486009e7 2.9356953013398845e7 0.0
2.9356953013398845e7 -1.4987532502878515e7 0.0
0.0 0.0 0.0

340275.4036344895 2.2516887547572732e7 0.0
2.2516887547572732e7 -1.219077143568785e7 0.0
0.0 0.0 0.0

-2.939290118568234e6 1.3186850825949725e7 0.0
1.3186850825949725e7 6.260027954190956e7 0.0
0.0 0.0 0.0

-143255.36080302112 1.694765860078635e7 0.0
1.694765860078635e7 -3.3941783222796574e7 0.0
0.0 0.0 0.0

-1.2868542272703571e7 2.908103791140463e7 0.0
2.908103791140463e7 -1.5227053377264636e7 0.0
0.0 0.0 0.0

-1.005371616762626e6 1.966107267511797e7 0.0
1.966107267511797e7 -2.833152443975034e7 0.0
0.0 0.0 0.0

3.4877619379221156e7 2.7952437461038172e7 0.0
2.7952437461038172e7 1.7348796707713414e7 0.0
0.0 0.0 0.0

-4.800626347478114e6 1.1414753423311641e7 0.0
1.1414753423311641e7 5.757900384009655e7 0.0
0.0 0.0 0.0

2.045976074402783e6 2.4662986382400017e7 0.0
2.4662986382400017e7 -518524.98100359563 0.0
0.0 0.0 0.0

-633828.5517942626 2.3804141157140464e7 0.0
2.3804141157140464e7 2.247344994270369e7 0.0
0.0 0.0 0.0

6.361848822519474e6 3.501555326454451e7 0.0
3.501555326454451e7 -5.581583529921737e6 0.0
0.0 0.0 0.0

1.8552210676895697e6 1.131005262972585e7 0.0
1.131005262972585e7 -3.488481228182102e7 0.0
0.0 0.0 0.0

1.6831329009499513e6 1.056950742368647e7 0.0
1.056950742368647e7 -1.391416596587991e7 0.0
0.0 0.0 0.0

-1.735156790808767e6 1.3036116795732697e7 0.0
1.3036116795732697e7 -6.352253640258388e7 0.0
0.0 0.0 0.0

-1.2947548797896462e7 2.723051741833642e7 0.0
2.723051741833642e7 -5.865032362983865e6 0.0
0.0 0.0 0.0

-6.359360850418199e6 1.1278480850136934e7 0.0
1.1278480850136934e7 5.226258018062189e7 0.0
0.0 0.0 0.0

-1.1646215299605096e7 2.6924441121734243e7 0.0
2.6924441121734243e7 -1.0684039833177615e7 0.0
0.0 0.0 0.0

283208.1043188609 2.123776378137112e7 0.0
2.123776378137112e7 -1.2683085071291603e7 0.0
0.0 0.0 0.0

-326875.85552787036 9.964409703149604e6 0.0
9.964409703149604e6 -5.543234046872562e7 0.0
0.0 0.0 0.0

-4.817734496120177e6 1.7404336928429577e7 0.0
1.7404336928429577e7 4.111147685271817e7 0.0
0.0 0.0 0.0

4.749416082188709e6 2.0690383120930303e7 0.0
2.0690383120930303e7 1.7027527466582645e7 0.0
0.0 0.0 0.0

-1.6818954542262405e6 1.496375734624616e7 0.0
1.496375734624616e7 -4.58282056150486e7 0.0
0.0 0.0 0.0

1.8453024595528767e6 2.444035541887292e6 0.0
2.444035541887292e6 -4.2987585586487934e7 0.0
0.0 0.0 0.0

-2.853747510984036e6 2.4767435772758212e7 0.0
2.4767435772758212e7 1.8068241173163872e7 0.0
0.0 0.0 0.0

-1.093121443764086e7 2.764704540934157e7 0.0
2.764704540934157e7 -1.4573054096408822e7 0.0
0.0 0.0 0.0

1.0312840880833864e6 1.5410245157562075e7 0.0
1.5410245157562075e7 -1.6263991300324978e7 0.0
0.0 0.0 0.0

-7.498453583853977e6 4.573921896720458e6 0.0
4.573921896720458e6 4.7617341140463114e7 0.0
0.0 0.0 0.0

-5.040851748121627e6 690384.6300764921 0.0
690384.6300764921 1.0223732339876305e7 0.0
0.0 0.0 0.0

-4.514572952483993e6 2.2655992299710244e7 0.0
2.2655992299710244e7 2.1864839367730558e7 0.0
0.0 0.0 0.0

3.711002047194256e7 3.1450105669350848e7 0.0
3.1450105669350848e7 2.221082016736497e7 0.0
0.0 0.0 0.0

2.8408666152523585e7 2.835015617865845e7 0.0
2.835015617865845e7 1.6498456030282887e7 0.0
0.0 0.0 0.0

-2.0560167120896436e7 2.7957535985324543e7 0.0
2.7957535985324543e7 -1.3609180639285274e7 0.0
0.0 0.0 0.0

-5.301196713181792e6 1.941188555879217e7 0.0
1.941188555879217e7 -1.5450026660685701e7 0.0
0.0 0.0 0.0

-1.2112271734906208e7 2.827411476838764e7 0.0
2.827411476838764e7 -1.2389922377525e7 0.0
0.0 0.0 0.0

-1.1687028240712415e7 2.6034348060791653e7 0.0
2.6034348060791653e7 -1.358595686312769e7 0.0
0.0 0.0 0.0

-1.5327261940776557e6 1.379775074164502e7 0.0
1.379775074164502e7 -5.617844100511052e7 0.0
0.0 0.0 0.0

-2.3845318339179284e6 4.382128868050735e6 0.0
4.382128868050735e6 19555.979380759178 0.0
0.0 0.0 0.0

-1.482300644473325e6 8.000307329723096e6 0.0
8.000307329723096e6 2.1815598785559316e6 0.0
0.0 0.0 0.0

1.642300438477261e6 2.021534545154942e7 0.0
2.021534545154942e7 2.3766001949005146e6 0.0
0.0 0.0 0.0

2.4997002875677932e7 2.8386858236469373e7 0.0
2.8386858236469373e7 1.4828731875746299e7 0.0
0.0 0.0 0.0

1.9828352674852966e6 2.1322446781685375e7 0.0
2.1322446781685375e7 1.0730852364742363e7 0.0
0.0 0.0 0.0

-3.4523576718433024e6 2.383563740460702e7 0.0
2.383563740460702e7 1.874401498851797e7 0.0
0.0 0.0 0.0

-2.8492138719144344e7 1.5294162946127642e7 0.0
1.5294162946127642e7 7.152566657935418e6 0.0
0.0 0.0 0.0

3.7916911852291757e6 2.0757799869840153e7 0.0
2.0757799869840153e7 1.3092190272638757e7 0.0
0.0 0.0 0.0

1.996228137834007e6 6.665149774373442e6 0.0
6.665149774373442e6 -2.229389771222689e7 0.0
0.0 0.0 0.0

-1.741902566640288e7 3.680044896707775e7 0.0
3.680044896707775e7 6.197058715345208e6 0.0
0.0 0.0 0.0

-7.038049426612012e6 2.37693030884383e6 0.0
2.37693030884383e6 5.0301531485021554e7 0.0
0.0 0.0 0.0

-2.257359627017931e6 2.380506803987509e7 0.0
2.380506803987509e7 -1.136966184130656e7 0.0
0.0 0.0 0.0

1.1758508325681109e7 2.5054550222265117e7 0.0
2.5054550222265117e7 1.3155327105262954e7 0.0
0.0 0.0 0.0

-1.01318462667232e7 2.730002329564798e7 0.0
2.730002329564798e7 -1.4592540689821748e7 0.0
0.0 0.0 0.0

-4.559066477128908e6 1.9249768974484093e7 0.0
1.9249768974484093e7 -3.5970921542301714e7 0.0
0.0 0.0 0.0

2.9668677470413323e7 2.9928858635276772e7 0.0
2.9928858635276772e7 2.000720144118237e7 0.0
0.0 0.0 0.0

-4.27701128869489e6 2.167899569359358e7 0.0
2.167899569359358e7 -2.5648468387614384e7 0.0
0.0 0.0 0.0

2.831083622597089e6 2.1960689363534294e7 0.0
2.1960689363534294e7 1.5173646232098887e7 0.0
0.0 0.0 0.0

6.363976070420871e6 2.4508381627727948e7 0.0
2.4508381627727948e7 1.768586804360422e7 0.0
0.0 0.0 0.0

-2.5955821609315937e6 2.451775249410503e7 0.0
2.451775249410503e7 1.915420039882598e7 0.0
0.0 0.0 0.0

-2.3856900227271775e6 2.471619404690349e7 0.0
2.471619404690349e7 1.2958040491888732e7 0.0
0.0 0.0 0.0

1.5665673018346354e6 5.751412961362375e6 0.0
5.751412961362375e6 -4.106489843173484e7 0.0
0.0 0.0 0.0

2.1407426730734715e6 3.782795920897603e7 0.0
3.782795920897603e7 -2.369806003099806e6 0.0
0.0 0.0 0.0

-7.687366296225397e6 2.3357034197312407e7 0.0
2.3357034197312407e7 -1.9707970356822483e7 0.0
0.0 0.0 0.0

4.196424080180178e7 2.652793486923079e7 0.0
2.652793486923079e7 1.7719018592661932e7 0.0
0.0 0.0 0.0

-1.0467753070107505e7 3.356909875300456e7 0.0
3.356909875300456e7 6.757938805938587e6 0.0
0.0 0.0 0.0

1.7171156830675416e6 4.693910685717734e6 0.0
4.693910685717734e6 -4.779718925236644e7 0.0
0.0 0.0 0.0

-1.926581046276316e6 2.184740582107845e7 0.0
2.184740582107845e7 8.348431462456878e6 0.0
0.0 0.0 0.0

2.1705637860707115e7 2.543789771550538e7 0.0
2.543789771550538e7 1.2111150620569643e7 0.0
0.0 0.0 0.0

5.340956068484296e7 2.4800916255680602e7 0.0
2.4800916255680602e7 1.517995404035147e7 0.0
0.0 0.0 0.0

-6.926783263462091e6 3.903498837687169e7 0.0
3.903498837687169e7 5.028557732669056e6 0.0
0.0 0.0 0.0

615127.4687169734 2.2908675294756982e7 0.0
2.2908675294756982e7 -2.0402717788350053e7 0.0
0.0 0.0 0.0

-9.185280457773753e6 1.3531990885455804e7 0.0
1.3531990885455804e7 2.479692008811161e7 0.0
0.0 0.0 0.0

-7.603401182063771e6 2.6028144772730717e6 0.0
2.6028144772730717e6 4.8469457178214215e7 0.0
0.0 0.0 0.0

2.773286675066266e6 2.1038613024186768e7 0.0
2.1038613024186768e7 9.058176488847911e6 0.0
0.0 0.0 0.0

1.6714564315387072e7 2.0734742427329265e7 0.0
2.0734742427329265e7 1.1300837351651458e7 0.0
0.0 0.0 0.0

-8.939009388938911e6 6.238077163142218e6 0.0
6.238077163142218e6 3.789882180557247e7 0.0
0.0 0.0 0.0

-3.078102475157151e6 1.4976525861998988e7 0.0
1.4976525861998988e7 -937472.1691257225 0.0
0.0 0.0 0.0

-5.048336497148432e6 2.3710918761925217e7 0.0
2.3710918761925217e7 -1.7471432470548846e7 0.0
0.0 0.0 0.0

-5.905135460144143e6 1.9695601720453206e7 0.0
1.9695601720453206e7 -3.354100733845422e7 0.0
0.0 0.0 0.0

893529.3332084259 3.693314285217795e7 0.0
3.693314285217795e7 -1.8791220775243319e6 0.0
0.0 0.0 0.0

7.485513074177757e6 3.579874181058546e7 0.0
3.579874181058546e7 -5.848180337040743e6 0.0
0.0 0.0 0.0

6.956800782574876e6 4.87944613848088e7 0.0
4.87944613848088e7 -4.163010362721446e6 0.0
0.0 0.0 0.0

-1.8178767580653336e7 4.559588724246823e7 0.0
4.559588724246823e7 6.95576812890308e6 0.0
0.0 0.0 0.0

1.0445987155213993e7 2.1411598040884733e7 0.0
2.1411598040884733e7 3.8543703693659484e7 0.0
0.0 0.0 0.0

-1.0116884702276323e7 1.977422130921229e7 0.0
1.977422130921229e7 -9.297318471285692e7 0.0
0.0 0.0 0.0

-9.86150918885583e6 1.8223270867600688e6 0.0
1.8223270867600688e6 2.778507084188477e7 0.0
0.0 0.0 0.0

-1.228593139147268e7 1.8059565466694843e7 0.0
1.8059565466694843e7 -4.139058086864375e7 0.0
0.0 0.0 0.0

-5.624640436802873e6 1.817174965203203e7 0.0
1.817174965203203e7 -1.7956015819733635e7 0.0
0.0 0.0 0.0

8.5689349904477e6 2.185546710973188e7 0.0
2.185546710973188e7 3.689387942878646e7 0.0
0.0 0.0 0.0

-1.1931519518772451e7 2.0482898406838305e7 0.0
2.0482898406838305e7 -4.894419224895317e7 0.0
0.0 0.0 0.0

-9.209944041086426e6 1.874114506502655e7 0.0
1.874114506502655e7 -3.448237641422965e7 0.0
0.0 0.0 0.0

2.445040604665807e7 2.8024957902318187e7 0.0
2.8024957902318187e7 1.3092929123856733e7 0.0
0.0 0.0 0.0

-6.732383172159396e6 2.386467466348838e7 0.0
2.386467466348838e7 -1.7495792363201506e7 0.0
0.0 0.0 0.0

1.5870069354794268e6 1.0356198640465815e7 0.0
1.0356198640465815e7 -3.950577070080125e7 0.0
0.0 0.0 0.0

1.7653689908268456e6 2.122823231130401e7 0.0
2.122823231130401e7 4.9598272244349355e6 0.0
0.0 0.0 0.0

-1.1712808133890593e7 2.8101171396916617e7 0.0
2.8101171396916617e7 -1.5177394780103354e7 0.0
0.0 0.0 0.0

6.595768440712722e6 2.0061561061160576e7 0.0
2.0061561061160576e7 2.3308075033784024e7 0.0
0.0 0.0 0.0

2.8214414232087657e6 4.0298096969392495e6 0.0
4.0298096969392495e6 -1.8498359438824855e7 0.0
0.0 0.0 0.0

-1.9001721689914218e6 3.2087806498420484e7 0.0
3.2087806498420484e7 737395.0957773273 0.0
0.0 0.0 0.0

-4.50164144903299e6 3.676254099139539e7 0.0
3.676254099139539e7 2.9570353645851146e6 0.0
0.0 0.0 0.0

-5.3324204205375705e6 1.774416954046082e7 0.0
1.774416954046082e7 3.9820230224175245e7 0.0
0.0 0.0 0.0

2.551474541388793e6 2.2868284130727645e7 0.0
2.2868284130727645e7 1.122399214330874e7 0.0
0.0 0.0 0.0

5.781544705152375e6 2.4742787693167116e7 0.0
2.4742787693167116e7 1.86034561381105e7 0.0
0.0 0.0 0.0

-4.814986590285329e6 4.165570249979373e7 0.0
4.165570249979373e7 3.342767405526919e6 0.0
0.0 0.0 0.0

-3.0815214066932974e6 2.3580158305027813e7 0.0
2.3580158305027813e7 1.951192428231301e7 0.0
0.0 0.0 0.0

-9.039672519406833e6 254838.46686672984 0.0
254838.46686672984 3.1905522274782658e7 0.0
0.0 0.0 0.0

-3.9453060767875705e6 3.645109925872902e7 0.0
3.645109925872902e7 4.556920583770383e6 0.0
0.0 0.0 0.0

249772.7610060688 3.117368962928049e7 0.0
3.117368962928049e7 -2.67551775598011e6 0.0
0.0 0.0 0.0

-2.5346213011282645e6 2.4024393847902633e7 0.0
2.4024393847902633e7 3.8798760315449024e6 0.0
0.0 0.0 0.0

1.8443817396384769e6 3.740553736353992e7 0.0
3.740553736353992e7 -2.484533936691132e6 0.0
0.0 0.0 0.0

1.7564908723050668e6 3.6530465782007545e7 0.0
3.6530465782007545e7 -1.9706086710418179e6 0.0
0.0 0.0 0.0

-2.65630271480045e6 2.3023699363243952e7 0.0
2.3023699363243952e7 -1.2522046292706953e7 0.0
0.0 0.0 0.0

4.648441246400082e6 2.297977423803247e7 0.0
2.297977423803247e7 1.5494804602750301e7 0.0
0.0 0.0 0.0

1.2649335863721576e6 1.0114071077352107e7 0.0
1.0114071077352107e7 -3.685849226510694e7 0.0
0.0 0.0 0.0

-1.6108083948634781e7 1.887184655920758e7 0.0
1.887184655920758e7 -5.930069525435268e7 0.0
0.0 0.0 0.0

-5.571500724121499e6 2.6081644270536274e7 0.0
2.6081644270536274e7 3.906756172044542e6 0.0
0.0 0.0 0.0

-4.586618266123642e7 3.8890697731367365e7 0.0
3.8890697731367365e7 -1.8654622272622127e7 0.0
0.0 0.0 0.0

-9.455273074655542e6 2.0157592427971065e7 0.0
2.0157592427971065e7 -3.2649555613121334e7 0.0
0.0 0.0 0.0

-5.102600873451649e7 3.823217286095734e7 0.0
3.823217286095734e7 -1.0982020126869934e7 0.0
0.0 0.0 0.0

-3.6175505965181133e6 2.653132566983022e7 0.0
2.653132566983022e7 1.3442719525371484e7 0.0
0.0 0.0 0.0

-6.4077348647957705e6 1.085747204561607e6 0.0
1.085747204561607e6 5.579573997250979e7 0.0
0.0 0.0 0.0

5.391550943047278e6 3.481607211820071e7 0.0
3.481607211820071e7 -5.54704939436017e6 0.0
0.0 0.0 0.0

-2.0865286761170343e7 3.0494570838145748e7 0.0
3.0494570838145748e7 -1.4271511176193226e7 0.0
0.0 0.0 0.0

647608.455807644 2.369931092384982e7 0.0
2.369931092384982e7 -1.8388172823877096e7 0.0
0.0 0.0 0.0

-1.4487436401929582e7 3.687640364906681e7 0.0
3.687640364906681e7 5.9580661136592915e6 0.0
0.0 0.0 0.0

-1.0041845622244919e7 9.88040353423738e6 0.0
9.88040353423738e6 2.9655117820260763e7 0.0
0.0 0.0 0.0

398017.49950033426 1.1466579311427996e7 0.0
1.1466579311427996e7 -4.677132364836785e7 0.0
0.0 0.0 0.0

-1.856005256101518e7 3.6332788626332134e7 0.0
3.6332788626332134e7 5.4549136661140965e6 0.0
0.0 0.0 0.0

2.0532241796887629e6 2.2040536137985114e7 0.0
2.2040536137985114e7 7.40049752172066e6 0.0
0.0 0.0 0.0

-1.061846384368242e7 1.2258569661450256e7 0.0
1.2258569661450256e7 2.3198554832224645e7 0.0
0.0 0.0 0.0

-461466.23949979665 2.160210312136452e7 0.0
2.160210312136452e7 -1.329875894023649e7 0.0
0.0 0.0 0.0

5.173751794063745e6 3.2923815935790624e7 0.0
3.2923815935790624e7 -6.391129748580229e6 0.0
0.0 0.0 0.0

-3.052213978884883e7 1.5873698911950331e7 0.0
1.5873698911950331e7 6.845911886000998e6 0.0
0.0 0.0 0.0

-7.700897366905253e6 3.401427008764677e7 0.0
3.401427008764677e7 7.249899601699209e6 0.0
0.0 0.0 0.0

-465787.59240709525 2.251554027573937e7 0.0
2.251554027573937e7 -2.1944703484132912e7 0.0
0.0 0.0 0.0

1.4813097329065446e6 1.0420290807924984e7 0.0
1.0420290807924984e7 -3.2446346246651996e7 0.0
0.0 0.0 0.0

-738732.4364159656 5.273441381385583e6 0.0
5.273441381385583e6 -3.623170195667079e6 0.0
0.0 0.0 0.0

937030.588880063 2.0025608884017695e7 0.0
2.0025608884017695e7 -2.4178087728716377e7 0.0
0.0 0.0 0.0

-2.787197038772743e7 3.022124381838203e7 0.0
3.022124381838203e7 -6.796687214933549e6 0.0
0.0 0.0 0.0

1.020254514576856e7 4.848839117963447e7 0.0
4.848839117963447e7 -3.188355702333446e6 0.0
0.0 0.0 0.0

3.8664393104234617e6 2.0834222224697802e7 0.0
2.0834222224697802e7 4.2006212584351495e7 0.0
0.0 0.0 0.0

3.897166388077018e6 2.3245037783003766e7 0.0
2.3245037783003766e7 1.3783973954566458e7 0.0
0.0 0.0 0.0

1.088486337937322e7 1.890811976690837e7 0.0
1.890811976690837e7 3.7878851786964744e7 0.0
0.0 0.0 0.0

-4.7971205818838505e6 2.271566373633373e7 0.0
2.271566373633373e7 -1.5990402355709968e7 0.0
0.0 0.0 0.0

-5.432739642140541e6 1.7314015451351315e7 0.0
1.7314015451351315e7 4.110989705547881e7 0.0
0.0 0.0 0.0

-4.197293377301218e6 2.091397709989656e7 0.0
2.091397709989656e7 -1.7245260443541992e7 0.0
0.0 0.0 0.0

-3.1854649816934813e7 4.067050776588876e7 0.0
4.067050776588876e7 7.07703684011342e6 0.0
0.0 0.0 0.0

-7.845821091335444e6 6.078217796179235e6 0.0
6.078217796179235e6 4.5177156854680724e7 0.0
0.0 0.0 0.0

-6.28875889867112e6 1.018157676231112e6 0.0
1.018157676231112e6 5.648945314515087e7 0.0
0.0 0.0 0.0

354177.3692111904 1.5184878507945826e7 0.0
1.5184878507945826e7 -1.8650595935745288e7 0.0
0.0 0.0 0.0

3.050577708631487e6 4.825107201440518e6 0.0
4.825107201440518e6 -346506.68501046277 0.0
0.0 0.0 0.0

-861618.274891302 1.1059567502399752e7 0.0
1.1059567502399752e7 -5.903295110542566e7 0.0
0.0 0.0 0.0

-5.16978727302802e6 1.466815426718116e7 0.0
1.466815426718116e7 4.94266755215652e7 0.0
0.0 0.0 0.0

-930487.1024414543 1.4049312884711247e7 0.0
1.4049312884711247e7 -4.538588462326221e7 0.0
0.0 0.0 0.0

-8.2758816558603365e6 2.1022666921091885e6 0.0
2.1022666921091885e6 3.728398028288691e7 0.0
0.0 0.0 0.0

-3.341996590361014e6 3.3201616028186325e7 0.0
3.3201616028186325e7 3.692651217467346e6 0.0
0.0 0.0 0.0

6.257649496864766e6 3.358840674965238e7 0.0
3.358840674965238e7 -6.243296632580282e6 0.0
0.0 0.0 0.0

-4.4803151773327235e6 3.8985896060667366e7 0.0
3.8985896060667366e7 2.16292573054261e6 0.0
0.0 0.0 0.0

6.133340907055639e6 4.696425509214856e7 0.0
4.696425509214856e7 -2.4817432841998525e6 0.0
0.0 0.0 0.0

2.801670897841663e6 4.194199572005762e7 0.0
4.194199572005762e7 -2.874360135406153e6 0.0
0.0 0.0 0.0

-7.615132067131545e6 2.549912479751341e6 0.0
2.549912479751341e6 4.657329009834363e7 0.0
0.0 0.0 0.0

1.1798303898197487e6 5.140155945602151e6 0.0
5.140155945602151e6 -5.133809054405674e7 0.0
0.0 0.0 0.0

1.1796181241287142e6 2.4782646321926937e7 0.0
2.4782646321926937e7 -1.3073118927220281e7 0.0
0.0 0.0 0.0

1.2007233035721304e6 2.6589246962936286e7 0.0
2.6589246962936286e7 -1.034038593390882e7 0.0
0.0 0.0 0.0

1.6160132077388503e6 1.3671331861028062e7 0.0
1.3671331861028062e7 -2.6586650127714097e7 0.0
0.0 0.0 0.0

-8.389924855402144e6 1.7912142898251135e7 0.0
1.7912142898251135e7 -2.6801489778703947e7 0.0
0.0 0.0 0.0

2.025038667815555e6 2.0106118720468253e7 0.0
2.0106118720468253e7 6.750128745149059e6 0.0
0.0 0.0 0.0

-3.5138620330240885e6 2.8724605121516198e7 0.0
2.8724605121516198e7 1.018163526485317e7 0.0
0.0 0.0 0.0

-1.1353323627772782e7 3.4938806244666226e7 0.0
3.4938806244666226e7 6.353614736923258e6 0.0
0.0 0.0 0.0

-3.112166069049955e6 2.1011565073557615e7 0.0
2.1011565073557615e7 -9.428893124662364e6 0.0
0.0 0.0 0.0

-1.4722311220853897e6 1.5018499243076822e7 0.0
1.5018499243076822e7 -1.6863575803356282e6 0.0
0.0 0.0 0.0

1.9523441417286657e6 3.1566101479069768e6 0.0
3.1566101479069768e6 -4.101927499533249e7 0.0
0.0 0.0 0.0

3.873912021368071e6 2.4472203774977736e7 0.0
2.4472203774977736e7 -6.253872991916858e6 0.0
0.0 0.0 0.0

1.2582905912887305e6 1.0895361405582225e7 0.0
1.0895361405582225e7 -3.4929694916518405e7 0.0
0.0 0.0 0.0

-4.510082115848061e6 9.866851782233356e6 0.0
9.866851782233356e6 2.966833880656799e6 0.0
0.0 0.0 0.0

-2.0837885928086545e6 1.340438152063304e7 0.0
1.340438152063304e7 -4.89319630674617e6 0.0
0.0 0.0 0.0

-5.153249379733481e6 2.903887053063895e6 0.0
2.903887053063895e6 4.488705062572807e6 0.0
0.0 0.0 0.0

-1.837389664999879e6 3.0042678709336083e7 0.0
3.0042678709336083e7 4.41921993211989e6 0.0
0.0 0.0 0.0

-544774.0094802408 2.0738930903914295e7 0.0
2.0738930903914295e7 -2.6073669546827037e7 0.0
0.0 0.0 0.0

-1.805517191477701e6 1.0644399402390426e7 0.0
1.0644399402390426e7 -6.837970809790099e7 0.0
0.0 0.0 0.0

-1.0117198463390965e7 2.6155902265776094e7 0.0
2.6155902265776094e7 -8.344868804821296e6 0.0
0.0 0.0 0.0

-3.418717755212074e7 3.4964882643326655e7 0.0
3.4964882643326655e7 -1.7597245683090933e7 0.0
0.0 0.0 0.0

-2.340579756579188e7 3.5237760503765926e7 0.0
3.5237760503765926e7 4.408061831835533e6 0.0
0.0 0.0 0.0

-1.4524230113134863e7 2.9318781713443972e7 0.0
2.9318781713443972e7 -1.4479952928180695e7 0.0
0.0 0.0 0.0

-6.671276774979649e6 1.8409989433965188e7 0.0
1.8409989433965188e7 -4.580361431354658e7 0.0
0.0 0.0 0.0

-1.0259853465186933e7 1.9323338694367737e7 0.0
1.9323338694367737e7 -3.419951255790267e7 0.0
0.0 0.0 0.0

-2.6788861862547692e7 3.2147471035933413e7 0.0
3.2147471035933413e7 -1.5031262918123642e7 0.0
0.0 0.0 0.0

-1.4944724669833371e7 1.9934893719913475e7 0.0
1.9934893719913475e7 -4.9815750004233904e7 0.0
0.0 0.0 0.0

-4.433295657500587e6 2.2100552014274627e7 0.0
2.2100552014274627e7 2.602672697766234e7 0.0
0.0 0.0 0.0

-1.0215854763850247e7 2.6966272333786995e6 0.0
2.6966272333786995e6 2.561566882073442e7 0.0
0.0 0.0 0.0

298219.8697820965 3.074962579697519e7 0.0
3.074962579697519e7 -4.524685109666784e6 0.0
0.0 0.0 0.0

-3.4423535199229354e6 2.5403405706279833e7 0.0
2.5403405706279833e7 1.605740924608185e7 0.0
0.0 0.0 0.0

-9.30024718400748e6 1.4921855751426988e6 0.0
1.4921855751426988e6 3.266977511927889e7 0.0
0.0 0.0 0.0

192325.5263840668 1.662456028072353e7 0.0
1.662456028072353e7 -3.349034676999535e7 0.0
0.0 0.0 0.0

-1.5951613908603468e6 3.148876083254192e7 0.0
3.148876083254192e7 -375223.6401168168 0.0
0.0 0.0 0.0

674635.6148233216 2.090763119519363e7 0.0
2.090763119519363e7 -1.910353276593186e6 0.0
0.0 0.0 0.0

-4.901649637278862e6 3.2295476400194827e7 0.0
3.2295476400194827e7 6.975533513346411e6 0.0
0.0 0.0 0.0

-2.4611789773001317e7 3.2550052894193344e7 0.0
3.2550052894193344e7 -1.6382033238118494e7 0.0
0.0 0.0 0.0

-1.1648296778609393e7 1.954576981970067e7 0.0
1.954576981970067e7 -3.882765617162094e7 0.0
0.0 0.0 0.0

6.191159438628485e6 2.3972151420219343e7 0.0
2.3972151420219343e7 1.9976475806154963e7 0.0
0.0 0.0 0.0

-3.562576637956412e7 3.571063664093571e7 0.0
3.571063664093571e7 2.7203819819227196e6 0.0
0.0 0.0 0.0

-9.315011673542676e6 1.2482367655376319e7 0.0
1.2482367655376319e7 2.3966306844886962e7 0.0
0.0 0.0 0.0

-4.727051789354913e6 1.1878454373795955e7 0.0
1.1878454373795955e7 6.0939835297533266e7 0.0
0.0 0.0 0.0

-3.069803962952503e6 2.3097462462681297e7 0.0
2.3097462462681297e7 -1.2512096871018732e7 0.0
0.0 0.0 0.0

5.312012292103548e6 4.1627650944875866e7 0.0
4.1627650944875866e7 -3.930009724739646e6 0.0
0.0 0.0 0.0

1.066210618894331e7 2.016892377193224e7 0.0
2.016892377193224e7 3.554035420240899e7 0.0
0.0 0.0 0.0

3.1846150536726367e7 2.4246946075571585e7 0.0
2.4246946075571585e7 6.917764916851042e6 0.0
0.0 0.0 0.0

-1.915396301298294e7 3.0748413881217003e7 0.0
3.0748413881217003e7 -1.5418120985510597e7 0.0
0.0 0.0 0.0

7.724381299246749e6 3.834446383687079e7 0.0
3.834446383687079e7 -5.382705498336925e6 0.0
0.0 0.0 0.0

1.4598588336021477e7 1.9780996052876886e7 0.0
1.9780996052876886e7 5.435582023895285e7 0.0
0.0 0.0 0.0

769957.6217310056 7.63776470995232e6 0.0
7.63776470995232e6 -6.623824443292119e7 0.0
0.0 0.0 0.0

-7.240908469143234e6 3.2837235267476875e7 0.0
3.2837235267476875e7 7.967493043354105e6 0.0
0.0 0.0 0.0

1.0412021114276646e6 1.9368308536322e7 0.0
1.9368308536322e7 477339.25721540255 0.0
0.0 0.0 0.0

-1.6869543310943063e7 2.061484263650372e7 0.0
2.061484263650372e7 -5.623181264755161e7 0.0
0.0 0.0 0.0

-8.086968599627847e6 2.6598466561708476e7 0.0
2.6598466561708476e7 -3.119057065657862e6 0.0
0.0 0.0 0.0

1.5303628235690743e6 3.092881712782992e6 0.0
3.092881712782992e6 -5.691007798742862e7 0.0
0.0 0.0 0.0

-78519.43719341466 2.5033962203860316e7 0.0
2.5033962203860316e7 -1.0845608632751659e7 0.0
0.0 0.0 0.0

6.141077648549134e6 2.7903572186190583e7 0.0
2.7903572186190583e7 -8.510184475359106e6 0.0
0.0 0.0 0.0

3.141766126657015e7 2.896522184106974e7 0.0
2.896522184106974e7 3.7044929627129324e6 0.0
0.0 0.0 0.0

-5.461590281292032e6 2.0497300449849624e7 0.0
2.0497300449849624e7 2.684303409466859e7 0.0
0.0 0.0 0.0

-2.6476643947781413e6 1.727018705599194e7 0.0
1.727018705599194e7 -1.087120950372508e7 0.0
0.0 0.0 0.0

-1.2154264614401307e7 2.7559888754736304e7 0.0
2.7559888754736304e7 -1.4547695900987796e7 0.0
0.0 0.0 0.0

-150380.51015715627 3.101302139240348e7 0.0
3.101302139240348e7 -3.9940187777779726e6 0.0
0.0 0.0 0.0

-5.919139169175606e6 3.7938221428434527e6 0.0
3.7938221428434527e6 5.985789138196223e7 0.0
0.0 0.0 0.0

-2.534425564585009e6 2.1084249877524927e7 0.0
2.1084249877524927e7 -1.1272648923476566e7 0.0
0.0 0.0 0.0

-1.2874972991014577e7 3.533311207122553e7 0.0
3.533311207122553e7 6.324363874145074e6 0.0
0.0 0.0 0.0

915754.0826264787 9.625155079796512e6 0.0
9.625155079796512e6 -1.5340473023738835e7 0.0
0.0 0.0 0.0

1.3639130455154022e7 2.3907905238414854e7 0.0
2.3907905238414854e7 1.449311654183415e7 0.0
0.0 0.0 0.0

-5.498698440575133e7 3.813284434660867e7 0.0
3.813284434660867e7 2.2101592763455845e6 0.0
0.0 0.0 0.0

4.1121495019354788e6 1.8619373260143846e7 0.0
1.8619373260143846e7 1.2983982385130826e7 0.0
0.0 0.0 0.0

2.7443981895895125e6 7.65614307470004e6 0.0
7.65614307470004e6 -2.0740769627101496e7 0.0
0.0 0.0 0.0

6.421958596299052e6 2.2764737911546e7 0.0
2.2764737911546e7 2.3609181510392584e7 0.0
0.0 0.0 0.0

3.1520702235293235e6 3.0272802625793807e7 0.0
3.0272802625793807e7 -8.135352791916981e6 0.0
0.0 0.0 0.0

2.8164172049826495e7 3.9086424038852446e7 0.0
3.9086424038852446e7 -6.026143161787044e6 0.0
0.0 0.0 0.0

-4.676406287415014e6 1.9528602688471008e7 0.0
1.9528602688471008e7 -1.5588021203840496e7 0.0
0.0 0.0 0.0

-2.3240908854505187e6 1.9701713184610434e7 0.0
1.9701713184610434e7 1.0725471065831017e7 0.0
0.0 0.0 0.0

345560.86516055744 9.782072830227671e6 0.0
9.782072830227671e6 -1.272134375813173e7 0.0
0.0 0.0 0.0

-6.63783515904733e6 2.131374924121641e7 0.0
2.131374924121641e7 -3.1478393591534186e7 0.0
0.0 0.0 0.0

963126.2594059389 2.543924860489198e7 0.0
2.543924860489198e7 -1.121159224299548e7 0.0
0.0 0.0 0.0

2.3257780484690282e7 2.8824929108081978e7 0.0
2.8824929108081978e7 1.7372608372393083e7 0.0
0.0 0.0 0.0

-9.33212396310693e6 2.65119072760265e7 0.0
2.65119072760265e7 -1.5095146049466347e7 0.0
0.0 0.0 0.0

5.3753892905315375e6 2.7665668016104005e7 0.0
2.7665668016104005e7 -7.748935115008848e6 0.0
0.0 0.0 0.0

-7.975186265847274e6 5.1698084975956585e6 0.0
5.1698084975956585e6 1.1598606660172142e7 0.0
0.0 0.0 0.0

393234.45856341254 8.2425340378152225e6 0.0
8.2425340378152225e6 -4.04027421108877e6 0.0
0.0 0.0 0.0

1.4287064988188341e7 2.7096370306447588e7 0.0
2.7096370306447588e7 -653626.299976036 0.0
0.0 0.0 0.0

3.554804779360964e6 1.978579743105768e7 0.0
1.978579743105768e7 1.0809982752152314e7 0.0
0.0 0.0 0.0

7.247459156834225e7 2.913990256019059e7 0.0
2.913990256019059e7 2.1255457369119115e7 0.0
0.0 0.0 0.0

-8.899970837374091e6 1.565883754764728e6 0.0
1.565883754764728e6 3.6376290303975314e7 0.0
0.0 0.0 0.0

-2.3435963912296485e7 3.0355303595840577e7 0.0
3.0355303595840577e7 -1.1454532565366752e7 0.0
0.0 0.0 0.0

-1.7984873174826488e7 2.7498879867122333e7 0.0
2.7498879867122333e7 -9.4263063133041e6 0.0
0.0 0.0 0.0

-4.311425088144778e7 3.2123757444301527e7 0.0
3.2123757444301527e7 -1.7658908889462344e7 0.0
0.0 0.0 0.0

4.802747659250729e7 6.65266136738669e6 0.0
6.65266136738669e6 -1.0164021545509975e6 0.0
0.0 0.0 0.0

-3.536431389557671e6 1.0604238267603893e7 0.0
1.0604238267603893e7 7.005760808269913e7 0.0
0.0 0.0 0.0

-1.7390976496943878e6 1.4267469037839249e7 0.0
1.4267469037839249e7 223576.65657865792 0.0
0.0 0.0 0.0

-2.2559072918747842e7 2.951138637272192e7 0.0
2.951138637272192e7 -1.568508326889415e7 0.0
0.0 0.0 0.0

-5.060114286831499e6 3.2418478641885344e7 0.0
3.2418478641885344e7 8.20818942594289e6 0.0
0.0 0.0 0.0

356702.04932049755 2.4915461058914557e7 0.0
2.4915461058914557e7 -1.2930076387486344e7 0.0
0.0 0.0 0.0

816760.4176960066 1.6202214248307146e7 0.0
1.6202214248307146e7 -2.000595856955421e7 0.0
0.0 0.0 0.0

-218398.04157493822 2.0938722922427442e7 0.0
2.0938722922427442e7 -7.539194923336907e6 0.0
0.0 0.0 0.0

-1.0325127698910177e7 1.7817006453175426e7 0.0
1.7817006453175426e7 -3.634324394505845e7 0.0
0.0 0.0 0.0

-1.3034728442277102e7 2.1069069565106995e7 0.0
2.1069069565106995e7 -7.958822445410219e7 0.0
0.0 0.0 0.0

1.805272344430341e7 5.955499037154578e6 0.0
5.955499037154578e6 -2.1279179352286514e6 0.0
0.0 0.0 0.0

1.3957837110124711e7 3.9358187939828716e7 0.0
3.9358187939828716e7 -5.888074322998557e6 0.0
0.0 0.0 0.0

-7.472611955161151e6 1.9421995242484648e7 0.0
1.9421995242484648e7 -2.490870725957039e7 0.0
0.0 0.0 0.0

2.390583830984002e7 2.014911982049723e7 0.0
2.014911982049723e7 5.340113583127834e6 0.0
0.0 0.0 0.0

-675377.3171533623 2.233798509305862e7 0.0
2.233798509305862e7 -8.367361036626069e6 0.0
0.0 0.0 0.0

435872.6709536668 3.016240276017588e7 0.0
3.016240276017588e7 -4.1601829491493152e6 0.0
0.0 0.0 0.0

-5.996681216926205e6 2.109811915472152e7 0.0
2.109811915472152e7 -2.0588736692780703e7 0.0
0.0 0.0 0.0

-2.3587938990894403e7 2.2988434899787486e7 0.0
2.2988434899787486e7 -138551.11263747048 0.0
0.0 0.0 0.0

-9.08093711497558e6 -1.444545391837746e6 0.0
-1.444545391837746e6 2.10725286496251e7 0.0
0.0 0.0 0.0

-4.322312923593912e6 2.160523543945385e7 0.0
2.160523543945385e7 2.5620427356623072e7 0.0
0.0 0.0 0.0

-374161.0244884476 2.0881484299403727e7 0.0
2.0881484299403727e7 2.7578106894852803e6 0.0
0.0 0.0 0.0

-8.0353260337154325e6 2.113539444358118e7 0.0
2.113539444358118e7 -2.241079499947578e7 0.0
0.0 0.0 0.0

-319272.9724653978 2.2239191225481782e7 0.0
2.2239191225481782e7 -8.743405136376765e6 0.0
0.0 0.0 0.0

-2.7560649472179855e6 1.5657542286992937e7 0.0
1.5657542286992937e7 -2.7384863649874143e6 0.0
0.0 0.0 0.0

3.648329613863755e7 2.840188692776028e7 0.0
2.840188692776028e7 2.5960732010221127e6 0.0
0.0 0.0 0.0

-1.342708078523089e7 3.921766989864701e7 0.0
3.921766989864701e7 6.332255860303871e6 0.0
0.0 0.0 0.0

9.757266127190271e6 2.888908263917684e7 0.0
2.888908263917684e7 -5.569884132956294e6 0.0
0.0 0.0 0.0

-6.627365783482747e6 2.5156256371447943e7 0.0
2.5156256371447943e7 -5.013433722655669e6 0.0
0.0 0.0 0.0

-3.153804374756572e6 3.946890184630974e7 0.0
3.946890184630974e7 2.9191087137688356e6 0.0
0.0 0.0 0.0

-4.21774645893608e6 2.3200677810538396e7 0.0
2.3200677810538396e7 2.190302792502596e7 0.0
0.0 0.0 0.0

987970.9539637389 8.967841592703328e6 0.0
8.967841592703328e6 -9.52466847844037e6 0.0
0.0 0.0 0.0

-2.4610989680441543e6 8.85371497404702e6 0.0
8.85371497404702e6 4.601810026694288e6 0.0
0.0 0.0 0.0

-1.4337687010574274e7 1.8385546341626383e7 0.0
1.8385546341626383e7 -5.283699998437402e7 0.0
0.0 0.0 0.0

-3.643031293765042e6 2.5222403701841377e7 0.0
2.5222403701841377e7 7.07430190522862e6 0.0
0.0 0.0 0.0

1.2809403729467364e6 5.709258155410753e6 0.0
5.709258155410753e6 -9.624187513287608e6 0.0
0.0 0.0 0.0

-6.747498263391498e7 3.9746883294503465e7 0.0
3.9746883294503465e7 -1.2552240700238083e7 0.0
0.0 0.0 0.0

-2.0854266266532764e6 9.934725060746439e6 0.0
9.934725060746439e6 -7.934892441523954e7 0.0
0.0 0.0 0.0

-2.0170928104305775e6 1.1829909736482786e7 0.0
1.1829909736482786e7 -4.894037918910784e6 0.0
0.0 0.0 0.0

-1.312350808206345e7 1.932874186981163e7 0.0
1.932874186981163e7 -5.615365623033533e7 0.0
0.0 0.0 0.0

1.4882916031153388e6 4.751111602704862e6 0.0
4.751111602704862e6 -5.017236594546232e7 0.0
0.0 0.0 0.0

3.4287233731399335e7 4.446879060413447e7 0.0
4.446879060413447e7 -8.661133998438923e6 0.0
0.0 0.0 0.0

2.036023750989508e6 1.1276231750211403e7 0.0
1.1276231750211403e7 -3.265541730840015e7 0.0
0.0 0.0 0.0

-2.8478958655515686e6 1.5412127853375893e7 0.0
1.5412127853375893e7 5.685769770421622e7 0.0
0.0 0.0 0.0

-5.226185563168995e6 2.0659457328166716e7 0.0
2.0659457328166716e7 2.7353809547621347e7 0.0
0.0 0.0 0.0

-4.0037238360881535e6 2.7472436211954717e7 0.0
2.7472436211954717e7 1.2648885946992647e7 0.0
0.0 0.0 0.0

-1.0507657371654311e7 2.5119774682137076e7 0.0
2.5119774682137076e7 -1.3145513790601544e7 0.0
0.0 0.0 0.0

-4.349483925810786e6 2.145201048589587e7 0.0
2.145201048589587e7 2.808992237882875e7 0.0
0.0 0.0 0.0

-2.3200603601902463e6 3.0101138551622957e7 0.0
3.0101138551622957e7 2.5560492676519603e6 0.0
0.0 0.0 0.0

1.5470817657943256e7 2.146847119024966e7 0.0
2.146847119024966e7 5.156939400914062e7 0.0
0.0 0.0 0.0

-1.0291265212341513e7 1.9570632813227037e6 0.0
1.9570632813227037e6 2.2209421339451414e7 0.0
0.0 0.0 0.0

1.5955925944326613e6 2.4324443496705417e7 0.0
2.4324443496705417e7 -1.6299081764615782e7 0.0
0.0 0.0 0.0

-5.234855197223827e6 1.4315729129349349e7 0.0
1.4315729129349349e7 -8.901038766239333e7 0.0
0.0 0.0 0.0

-1.1876535734930469e7 4.166360610428536e7 0.0
4.166360610428536e7 6.256285091077045e6 0.0
0.0 0.0 0.0

5.966544658407524e6 3.2421449747140262e7 0.0
3.2421449747140262e7 -7.268401804723991e6 0.0
0.0 0.0 0.0

4.7046890682369685e6 2.5022784833450377e7 0.0
2.5022784833450377e7 3.893673208216356e6 0.0
0.0 0.0 0.0

-5.116867295835299e6 2.058484245138353e7 0.0
2.058484245138353e7 2.9099626219664108e7 0.0
0.0 0.0 0.0

-2.5407499660381656e7 4.16817967734708e7 0.0
4.16817967734708e7 7.0559154170432035e6 0.0
0.0 0.0 0.0

2.9042460060762935e6 2.7527499031372663e7 0.0
2.7527499031372663e7 -1.1400262109971682e7 0.0
0.0 0.0 0.0

-6.830511520928464e6 1.9194658796930965e7 0.0
1.9194658796930965e7 -4.10476161720336e7 0.0
0.0 0.0 0.0

-2.004569698497302e7 4.509476846398988e7 0.0
4.509476846398988e7 6.278502451130565e6 0.0
0.0 0.0 0.0

4.713631299137791e7 4.114864390374489e7 0.0
4.114864390374489e7 -8.882404652819375e6 0.0
0.0 0.0 0.0

3.767436685431379e6 2.3786227825825844e7 0.0
2.3786227825825844e7 5.264191353718881e6 0.0
0.0 0.0 0.0

1.4494242188536674e6 1.3512901859169587e7 0.0
1.3512901859169587e7 -2.8787014891932122e7 0.0
0.0 0.0 0.0

-1.5985395887985433e7 2.1607472704820156e7 0.0
2.1607472704820156e7 -6.1235268281909525e7 0.0
0.0 0.0 0.0

2.2804634939927593e7 3.929129185328692e7 0.0
3.929129185328692e7 -6.14312031700795e6 0.0
0.0 0.0 0.0

-804940.960246278 2.2626753991112884e7 0.0
2.2626753991112884e7 -1.7175141336499915e7 0.0
0.0 0.0 0.0

1.8618648827669895e6 3.572721668109276e7 0.0
3.572721668109276e7 -3.7491057830649205e6 0.0
0.0 0.0 0.0

-3.8975517928923965e6 1.3205939968751496e7 0.0
1.3205939968751496e7 -7.467755707232697e7 0.0
0.0 0.0 0.0

2.011748837642266e6 2.2545593743529387e7 0.0
2.2545593743529387e7 1.0294179921080153e7 0.0
0.0 0.0 0.0

-2.9657863712021418e7 3.7371143655443564e7 0.0
3.7371143655443564e7 5.766530095111281e6 0.0
0.0 0.0 0.0

-1.6350096455949368e6 3.0680490575262647e7 0.0
3.0680490575262647e7 3.388472481683635e6 0.0
0.0 0.0 0.0

3.2820082367842022e7 2.5307146270506978e7 0.0
2.5307146270506978e7 1.3636638029429588e7 0.0
0.0 0.0 0.0

-4.27523268551002e6 4.062936215564904e7 0.0
4.062936215564904e7 1.4999479825874483e6 0.0
0.0 0.0 0.0

4.78022670184937e6 2.2277708777293283e7 0.0
2.2277708777293283e7 1.6858286767018035e7 0.0
0.0 0.0 0.0

-3.1998064712129696e6 2.9455283284741095e6 0.0
2.9455283284741095e6 1.7527866677132014e6 0.0
0.0 0.0 0.0

1.450359287989714e7 4.199458246158943e7 0.0
4.199458246158943e7 -5.064554150759245e6 0.0
0.0 0.0 0.0

-420036.1234435346 2.1697853164196584e7 0.0
2.1697853164196584e7 -2.412282641867955e7 0.0
0.0 0.0 0.0

1.3029891021724045e6 3.8896881310326336e6 0.0
3.8896881310326336e6 -6.293529897103655e7 0.0
0.0 0.0 0.0

-624954.9776301398 1.2950545601167431e7 0.0
1.2950545601167431e7 -7.9404302085683355e6 0.0
0.0 0.0 0.0

1.4677889373924239e6 7.248278947141323e6 0.0
7.248278947141323e6 -9.909718283472829e6 0.0
0.0 0.0 0.0

1.0215778346506059e6 1.7313415216520857e7 0.0
1.7313415216520857e7 -1.978636442600181e7 0.0
0.0 0.0 0.0

-2.5928007594159506e7 3.507094699579698e7 0.0
3.507094699579698e7 4.641764399881519e6 0.0
0.0 0.0 0.0

-3.7352851688465225e6 2.5367504193223327e7 0.0
2.5367504193223327e7 3.86239720756179e6 0.0
0.0 0.0 0.0

8.079663904565653e6 2.942609848330484e7 0.0
2.942609848330484e7 -6.388778320791999e6 0.0
0.0 0.0 0.0

1.8181196852584854e6 6.409447347743139e6 0.0
6.409447347743139e6 -4.907170409656574e7 0.0
0.0 0.0 0.0

542720.6731137824 2.483671557453849e7 0.0
2.483671557453849e7 -1.0820804692924831e7 0.0
0.0 0.0 0.0

82520.56857182924 2.060009757966219e7 0.0
2.060009757966219e7 -1.691807099859694e7 0.0
0.0 0.0 0.0

-1.7901984958198063e7 2.835425612423461e7 0.0
2.835425612423461e7 -1.4756514840435507e7 0.0
0.0 0.0 0.0

2.032508695616655e7 3.600225004313202e7 0.0
3.600225004313202e7 -5.893163964094666e6 0.0
0.0 0.0 0.0

-5.228960492171168e6 2.9118962637555122e7 0.0
2.9118962637555122e7 1.1785265291753702e7 0.0
0.0 0.0 0.0

4.395833419609288e6 2.343412067626544e7 0.0
2.343412067626544e7 1.6109128990027113e7 0.0
0.0 0.0 0.0

7.029291445469264e6 2.0229210236255035e7 0.0
2.0229210236255035e7 9.125404028632896e7 0.0
0.0 0.0 0.0

-5.1300400503405295e6 4.532805444748638e7 0.0
4.532805444748638e7 3.986866097034211e6 0.0
0.0 0.0 0.0

1.9473992610793812e6 2.522961107004073e7 0.0
2.522961107004073e7 -1.039360726888885e7 0.0
0.0 0.0 0.0

1.4077342944067027e6 1.2134889848149408e7 0.0
1.2134889848149408e7 -3.819995826276163e7 0.0
0.0 0.0 0.0

1.381024050747918e6 1.1100156949634576e7 0.0
1.1100156949634576e7 -4.0425593722453885e7 0.0
0.0 0.0 0.0

2.8196290683821123e6 3.0006303504996933e6 0.0
3.0006303504996933e6 -3.474540524610699e7 0.0
0.0 0.0 0.0

-3.142938763454794e6 2.829171669793177e7 0.0
2.829171669793177e7 1.205231306759384e7 0.0
0.0 0.0 0.0

2.436675052960353e6 3.273380903247062e6 0.0
3.273380903247062e6 -3.45102619470228e7 0.0
0.0 0.0 0.0

-8.330893626515906e6 4.680648368663474e6 0.0
4.680648368663474e6 4.3837989029002756e7 0.0
0.0 0.0 0.0

-2.9269575816941876e6 2.5369438117597733e7 0.0
2.5369438117597733e7 1.8783996705255363e7 0.0
0.0 0.0 0.0

-2.597356630733765e6 1.2598297437804503e7 0.0
1.2598297437804503e7 -2.982649967018597e6 0.0
0.0 0.0 0.0

4.742876360288817e6 3.3188643168925203e7 0.0
3.3188643168925203e7 -6.857936803313241e6 0.0
0.0 0.0 0.0

9.615864565370128e6 3.7670305561746374e7 0.0
3.7670305561746374e7 -4.767928321911402e6 0.0
0.0 0.0 0.0

2.1143261081721373e6 1.902953795920476e7 0.0
1.902953795920476e7 4.722816860589877e6 0.0
0.0 0.0 0.0

-2.937989690752659e6 1.3389318889572103e7 0.0
1.3389318889572103e7 -6.4081213901195526e7 0.0
0.0 0.0 0.0

1.8692274513296522e6 4.466754012243779e6 0.0
4.466754012243779e6 -5.420410480188458e7 0.0
0.0 0.0 0.0

-6.275538843354855e7 4.441183983004759e7 0.0
4.441183983004759e7 -1.800349386674842e7 0.0
0.0 0.0 0.0

3.2349597135896713e7 2.987073213022625e7 0.0
2.987073213022625e7 1.5433465568775065e7 0.0
0.0 0.0 0.0

7.961956324381288e6 3.703546835836775e7 0.0
3.703546835836775e7 -4.765001900200589e6 0.0
0.0 0.0 0.0

1.444238215578938e6 2.2181790517953303e7 0.0
2.2181790517953303e7 2.4204986308691952e7 0.0
0.0 0.0 0.0

1.7593913091385243e6 2.0933839966967665e7 0.0
2.0933839966967665e7 4.838594934899435e6 0.0
0.0 0.0 0.0

-7.047676515085824e6 9.707472676878765e6 0.0
9.707472676878765e6 5.130307655312608e7 0.0
0.0 0.0 0.0

-1.4199219236543495e7 3.693240123333041e7 0.0
3.693240123333041e7 6.029867753595722e6 0.0
0.0 0.0 0.0

-1.3563813522738526e6 1.715487559847513e7 0.0
1.715487559847513e7 -1.0221522700399706e7 0.0
0.0 0.0 0.0

-9.51198392375832e6 3.687688617348054e6 0.0
3.687688617348054e6 3.4556969432475716e7 0.0
0.0 0.0 0.0

2.1971170220756344e6 1.4462122217502486e7 0.0
1.4462122217502486e7 1.0726989278459163e8 0.0
0.0 0.0 0.0

1.6959855895378906e6 2.5133166419419676e7 0.0
2.5133166419419676e7 -1.4942537913498444e7 0.0
0.0 0.0 0.0

2.3319830730992975e6 4.535960571404958e6 0.0
4.535960571404958e6 -1.060666394583059e7 0.0
0.0 0.0 0.0

-3.8525616060472764e6 1.0362699536471888e7 0.0
1.0362699536471888e7 7.272669781185615e7 0.0
0.0 0.0 0.0

2.2447769749158043e6 3.3257002249300582e6 0.0
3.3257002249300582e6 -4.425773885927034e7 0.0
0.0 0.0 0.0

-8.015671465256435e6 2.5126643395190302e7 0.0
2.5126643395190302e7 -1.602422569436824e7 0.0
0.0 0.0 0.0

-2.897762155683735e7 3.0750667691908233e7 0.0
3.0750667691908233e7 -1.686574003883049e7 0.0
0.0 0.0 0.0

369263.7826808542 2.2554853619578432e7 0.0
2.2554853619578432e7 -1.985577485522307e7 0.0
0.0 0.0 0.0

-2.3655741094410284e6 1.3130123957421869e7 0.0
1.3130123957421869e7 -154596.56447552855 0.0
0.0 0.0 0.0

-6.860798431076007e6 2.635530223107811e7 0.0
2.635530223107811e7 818948.7706975248 0.0
0.0 0.0 0.0

2.523798281794466e7 3.486646279116795e7 0.0
3.486646279116795e7 -5.206433279899271e6 0.0
0.0 0.0 0.0

-8.80611742070249e6 -1.532213713788789e6 0.0
-1.532213713788789e6 2.298945718781619e7 0.0
0.0 0.0 0.0

1.5441969991034467e7 2.4704118722369533e7 0.0
2.4704118722369533e7 9.566503171024831e6 0.0
0.0 0.0 0.0

2.46618582490125e7 4.599018495437329e7 0.0
4.599018495437329e7 -8.358693828826919e6 0.0
0.0 0.0 0.0

2.576435974331742e6 3.3289322491065282e6 0.0
3.3289322491065282e6 -3.903169047741624e7 0.0
0.0 0.0 0.0

-2.7170674813561435e6 2.200549055280206e7 0.0
2.200549055280206e7 5.700738579212923e6 0.0
0.0 0.0 0.0

1.4720976256839786e7 2.283696828346026e7 0.0
2.283696828346026e7 5.722892318326886e7 0.0
0.0 0.0 0.0

7.856472277023731e7 8.725509949714491e6 0.0
8.725509949714491e6 -232079.33595545962 0.0
0.0 0.0 0.0

-3.714205329193357e7 3.338454738044207e7 0.0
3.338454738044207e7 -1.6763212757531427e7 0.0
0.0 0.0 0.0

-2.4984578661117e6 2.951999805393152e7 0.0
2.951999805393152e7 3.70286945378363e6 0.0
0.0 0.0 0.0

-2.3480315763938725e6 1.3684106135449722e7 0.0
1.3684106135449722e7 -5.576850220692512e7 0.0
0.0 0.0 0.0

-1.9349617999558896e7 3.4425714057746746e7 0.0
3.4425714057746746e7 5.201095612399838e6 0.0
0.0 0.0 0.0

1.3481542420632038e7 2.513725189172472e7 0.0
2.513725189172472e7 1.1548865497103851e7 0.0
0.0 0.0 0.0

-1.4308487232193016e6 9.800825034284594e6 0.0
9.800825034284594e6 8.700794735421255e7 0.0
0.0 0.0 0.0

-4.855157054361926e6 2.7277260594892047e7 0.0
2.7277260594892047e7 1.2791482867177512e7 0.0
0.0 0.0 0.0

5.243125235484594e6 2.0668373689597722e7 0.0
2.0668373689597722e7 2.2738195658079673e7 0.0
0.0 0.0 0.0

-428440.9838729156 2.2786069530550722e7 0.0
2.2786069530550722e7 -1.2499857361392835e7 0.0
0.0 0.0 0.0

1.123177127044861e7 2.681438072507093e7 0.0
2.681438072507093e7 -364999.23300309526 0.0
0.0 0.0 0.0

3.672819336226725e6 2.6018622979371913e7 0.0
2.6018622979371913e7 -6.901344588606227e6 0.0
0.0 0.0 0.0

-2.7501971643677703e6 1.7123263455931515e7 0.0
1.7123263455931515e7 -2.512918597621157e6 0.0
0.0 0.0 0.0

3.7961686785183456e6 2.1624179199877027e7 0.0
2.1624179199877027e7 2.8867069163601354e7 0.0
0.0 0.0 0.0

1.4302973102949602e6 2.219484109399702e7 0.0
2.219484109399702e7 3.3819010266841576e6 0.0
0.0 0.0 0.0

229919.0018022412 2.165506999480452e7 0.0
2.165506999480452e7 -4.575285882706855e6 0.0
0.0 0.0 0.0

-6.983518313223075e6 1.957908733676256e7 0.0
1.957908733676256e7 -3.595292580473773e7 0.0
0.0 0.0 0.0

-2.916314449005796e6 3.2945542810174514e7 0.0
3.2945542810174514e7 5.379781938022955e6 0.0
0.0 0.0 0.0

-2.5495424644089468e7 2.9034600713429682e7 0.0
2.9034600713429682e7 -1.5206196644246612e7 0.0
0.0 0.0 0.0

-1.202914360666804e7 3.83899925033616e7 0.0
3.83899925033616e7 5.54921317163047e6 0.0
0.0 0.0 0.0

156472.15676112846 2.3579034713471815e7 0.0
2.3579034713471815e7 1.6808107157835133e7 0.0
0.0 0.0 0.0

2.2430772375134863e6 6.909982498081078e6 0.0
6.909982498081078e6 -3.90950104293389e7 0.0
0.0 0.0 0.0

1.5414875173981413e6 2.4379387618319772e7 0.0
2.4379387618319772e7 -1.6216846251955876e7 0.0
0.0 0.0 0.0

2.1321106290983222e7 3.557905212452884e7 0.0
3.557905212452884e7 -5.217333344892593e6 0.0
0.0 0.0 0.0

-8.668028081547668e6 3.7245642430319265e6 0.0
3.7245642430319265e6 4.0342254665414e7 0.0
0.0 0.0 0.0

-4.837364716520527e6 2.6530159113052364e7 0.0
2.6530159113052364e7 9.197161830901481e6 0.0
0.0 0.0 0.0

2.6287863123426065e6 2.4804492124321595e7 0.0
2.4804492124321595e7 3.2128714736296316e6 0.0
0.0 0.0 0.0

1.2307901781157574e7 2.8140454826963034e7 0.0
2.8140454826963034e7 -2.5367430978145646e6 0.0
0.0 0.0 0.0

-8.882981589238003e6 1.0132416482203195e7 0.0
1.0132416482203195e7 3.751879506304115e7 0.0
0.0 0.0 0.0

8.198134711791146e6 1.979644796162567e7 0.0
1.979644796162567e7 3.1534439472076133e7 0.0
0.0 0.0 0.0

-1.0013691587027226e7 2.4522797080323264e7 0.0
2.4522797080323264e7 -1.5954493962942202e7 0.0
0.0 0.0 0.0

-1.1085381725084726e6 1.945894486450719e7 0.0
1.945894486450719e7 -3.1641866152255587e7 0.0
0.0 0.0 0.0

1.292042733698691e7 4.483402094472273e7 0.0
4.483402094472273e7 -4.044279249904847e6 0.0
0.0 0.0 0.0

-1.172116561589668e7 4.008243418610698e7 0.0
4.008243418610698e7 4.927108643920552e6 0.0
0.0 0.0 0.0

-9.323072100790853e6 1.1436464272894518e7 0.0
1.1436464272894518e7 3.2285316296754565e7 0.0
0.0 0.0 0.0

-1.1338341044612063e7 2.699817866672314e7 0.0
2.699817866672314e7 -8.600758593467105e6 0.0
0.0 0.0 0.0

-8.819151423374087e6 4.0842601006160505e7 0.0
4.0842601006160505e7 3.844896503808742e6 0.0
0.0 0.0 0.0

-9.625931268061422e6 3.935434899116956e7 0.0
3.935434899116956e7 4.655951427113537e6 0.0
0.0 0.0 0.0

5.212850856099738e6 1.964164046834889e7 0.0
1.964164046834889e7 1.897057788718728e7 0.0
0.0 0.0 0.0

1.655673795367457e6 1.5347691322406862e7 0.0
1.5347691322406862e7 -2.5890874794364966e7 0.0
0.0 0.0 0.0

7.230173623816343e7 4.262118612645362e7 0.0
4.262118612645362e7 3.236736929041606e7 0.0
0.0 0.0 0.0

-4.490675018136115e7 4.687770156561402e6 0.0
4.687770156561402e6 5.93076300820213e6 0.0
0.0 0.0 0.0

-2.165275966659729e7 3.3394073900850475e7 0.0
3.3394073900850475e7 3.526520023788724e6 0.0
0.0 0.0 0.0

1.680503197012268e6 3.0094746886094646e6 0.0
3.0094746886094646e6 -4.396169892220241e7 0.0
0.0 0.0 0.0

396293.0927501917 2.4054390038665608e7 0.0
2.4054390038665608e7 -1.4389750901672937e7 0.0
0.0 0.0 0.0

-1.6104021900025211e7 3.5018201850618124e7 0.0
3.5018201850618124e7 5.956056942658789e6 0.0
0.0 0.0 0.0

-8.755733110528387e6 7.380628805222241e6 0.0
7.380628805222241e6 4.238712619533688e7 0.0
0.0 0.0 0.0

986801.1393641941 1.1736789167047052e7 0.0
1.1736789167047052e7 -3.557465526099735e7 0.0
0.0 0.0 0.0

-8.427908806495698e6 1.893671693069893e7 0.0
1.893671693069893e7 -2.9458559545665134e7 0.0
0.0 0.0 0.0

1.3759170180305654e7 2.640106888535083e7 0.0
2.640106888535083e7 1.2053178399451502e7 0.0
0.0 0.0 0.0

-4.886567513371683e7 3.6411776957959056e7 0.0
3.6411776957959056e7 -1.5701847042485245e7 0.0
0.0 0.0 0.0

-3.717090878876657e6 1.5101967304667724e7 0.0
1.5101967304667724e7 2.9563050193411233e6 0.0
0.0 0.0 0.0

-1.2170358961459288e7 3.3748523123629324e7 0.0
3.3748523123629324e7 6.446917705560639e6 0.0
0.0 0.0 0.0

-2.194200818234233e6 3.441382462013843e7 0.0
3.441382462013843e7 3.526835024041494e6 0.0
0.0 0.0 0.0

-6.727068303299865e6 7.978110560316621e6 0.0
7.978110560316621e6 2.2061752175888367e7 0.0
0.0 0.0 0.0

-9.089119895553853e6 1.0495266197678538e6 0.0
1.0495266197678538e6 2.4073915967677385e7 0.0
0.0 0.0 0.0

853035.5692907572 1.5785827862925244e7 0.0
1.5785827862925244e7 -2.660549323489215e7 0.0
0.0 0.0 0.0

-8.391939779103527e6 6.054010245220799e6 0.0
6.054010245220799e6 4.1808535709729455e7 0.0
0.0 0.0 0.0

478667.1572366152 2.000974371878139e7 0.0
2.000974371878139e7 -2.4112332124015763e7 0.0
0.0 0.0 0.0

1.145376746078968e7 2.52297966347945e7 0.0
2.52297966347945e7 1.2738277156264456e6 0.0
0.0 0.0 0.0

434654.31424035504 1.0483039142219346e7 0.0
1.0483039142219346e7 -1.3818844918501861e7 0.0
0.0 0.0 0.0

-2.2827206965346884e7 3.3371760312252246e7 0.0
3.3371760312252246e7 3.5300568098461004e6 0.0
0.0 0.0 0.0

-1.5873301072059548e7 2.8578316233037475e7 0.0
2.8578316233037475e7 -1.4949686978740804e7 0.0
0.0 0.0 0.0

690116.6018270879 2.092022405975797e7 0.0
2.092022405975797e7 2.300389906472981e6 0.0
0.0 0.0 0.0

-527307.1451429176 2.082848171697638e7 0.0
2.082848171697638e7 -1.757691494733709e6 0.0
0.0 0.0 0.0

1.5619800213504238e6 1.62117183122419e7 0.0
1.62117183122419e7 -2.4363750123228148e7 0.0
0.0 0.0 0.0

-7.503994748175345e6 1.9910381748302627e7 0.0
1.9910381748302627e7 -2.8780287866243552e7 0.0
0.0 0.0 0.0

-9.769767693609918e6 3.0461939141168734e6 0.0
3.0461939141168734e6 3.0869204996235445e7 0.0
0.0 0.0 0.0

-3.012017587624381e6 1.6351137131563902e7 0.0
1.6351137131563902e7 9.947182376525111e6 0.0
0.0 0.0 0.0

2.925029325642183e6 2.7119114767721295e7 0.0
2.7119114767721295e7 -1.1588967079477325e7 0.0
0.0 0.0 0.0

1.9257370921347681e6 7.89237293220808e6 0.0
7.89237293220808e6 -2.7021734778036695e7 0.0
0.0 0.0 0.0

-4.993746795234155e7 3.245061433861811e7 0.0
3.245061433861811e7 -8.290304552755092e6 0.0
0.0 0.0 0.0

8.920292491597302e6 2.650534806887492e7 0.0
2.650534806887492e7 -798896.158075267 0.0
0.0 0.0 0.0

3.2207368681861416e7 2.505729700029889e7 0.0
2.505729700029889e7 7.631438605378421e6 0.0
0.0 0.0 0.0

-1.2917020165828783e7 4.510558574720796e7 0.0
4.510558574720796e7 6.350917493397383e6 0.0
0.0 0.0 0.0

-1.0026056834771143e7 6.447993522950578e6 0.0
6.447993522950578e6 2.67494922861844e7 0.0
0.0 0.0 0.0

-92137.41838077456 2.139739134194822e7 0.0
2.139739134194822e7 -1.5424394745727286e7 0.0
0.0 0.0 0.0

-1.3504108361670747e7 2.6734488540840607e7 0.0
2.6734488540840607e7 -7.951953389815673e6 0.0
0.0 0.0 0.0

-2.522190443055498e7 3.775247111684986e7 0.0
3.775247111684986e7 5.358100940590978e6 0.0
0.0 0.0 0.0

-9.961157640379455e6 2.059794827773293e7 0.0
2.059794827773293e7 -4.583161005103211e7 0.0
0.0 0.0 0.0

2.895770654927693e6 2.178621918303417e7 0.0
2.178621918303417e7 1.1846261423190035e7 0.0
0.0 0.0 0.0

-6.7311647217010595e6 1.9688796727881294e7 0.0
1.9688796727881294e7 -3.1270373676571693e7 0.0
0.0 0.0 0.0

-1.9329097123965904e7 4.1966024942059755e7 0.0
4.1966024942059755e7 6.61933924179073e6 0.0
0.0 0.0 0.0

2.880946364552872e6 3.053771471184121e7 0.0
3.053771471184121e7 -8.526734846667193e6 0.0
0.0 0.0 0.0

-9.540782728545956e6 2.7433840924835823e7 0.0
2.7433840924835823e7 -1.1424842181155938e6 0.0
0.0 0.0 0.0

1.0233824481580835e6 1.30579050797414e7 0.0
1.30579050797414e7 -3.884891334888816e7 0.0
0.0 0.0 0.0

-7.335819138689751e6 9.803203028824523e6 0.0
9.803203028824523e6 4.805413971732591e7 0.0
0.0 0.0 0.0

-1.2776001413504975e6 2.1501923467339616e7 0.0
2.1501923467339616e7 -9.931075646368098e6 0.0
0.0 0.0 0.0

1.2368254915632647e7 2.6395769631461527e7 0.0
2.6395769631461527e7 -882277.1450598156 0.0
0.0 0.0 0.0

-8.351833302546248e6 2.08923561825255e7 0.0
2.08923561825255e7 -3.8008269811268754e7 0.0
0.0 0.0 0.0

-1.3505500783597859e7 3.3410796868863773e7 0.0
3.3410796868863773e7 5.90117833308414e6 0.0
0.0 0.0 0.0

3.759017068532178e7 4.3333845738624066e7 0.0
4.3333845738624066e7 -6.898899833117779e6 0.0
0.0 0.0 0.0

-9.456400520578032e6 2.670872153285298e7 0.0
2.670872153285298e7 -5.922248494265305e6 0.0
0.0 0.0 0.0

-1.4276510893222338e7 3.503996178220575e7 0.0
3.503996178220575e7 5.822278314625236e6 0.0
0.0 0.0 0.0

-4.864810785449616e6 2.2057689683689572e7 0.0
2.2057689683689572e7 2.3611469351128954e7 0.0
0.0 0.0 0.0

5.240429870753059e6 2.513913380724808e7 0.0
2.513913380724808e7 -5.426956300855155e6 0.0
0.0 0.0 0.0

-3.740468247249933e6 3.295400331603852e7 0.0
3.295400331603852e7 6.233354519533318e6 0.0
0.0 0.0 0.0

-8.359201144404424e6 1.9186604847292807e7 0.0
1.9186604847292807e7 -4.389064315532947e7 0.0
0.0 0.0 0.0

1.8561795390311666e6 5.141635569622078e6 0.0
5.141635569622078e6 -3.723359231679006e7 0.0
0.0 0.0 0.0

-8.211552750134677e6 2.1012486359038536e7 0.0
2.1012486359038536e7 -3.3271786864888187e7 0.0
0.0 0.0 0.0

-5.704306963736427e6 3.687867476210657e7 0.0
3.687867476210657e7 3.9073322716637026e6 0.0
0.0 0.0 0.0

-3.971282094548626e6 2.232588255575336e7 0.0
2.232588255575336e7 -1.3237607003956309e7 0.0
0.0 0.0 0.0

3.751524724987515e6 2.24382594069302e7 0.0
2.24382594069302e7 1.2505082950632792e7 0.0
0.0 0.0 0.0

-5.255084802771278e6 1.8974602541636903e7 0.0
1.8974602541636903e7 3.5480197074740455e7 0.0
0.0 0.0 0.0

-1.5979323508500918e6 1.6502893119365826e7 0.0
1.6502893119365826e7 -1.4848209925675513e6 0.0
0.0 0.0 0.0

1.6403120402849844e7 2.041256737659239e7 0.0
2.041256737659239e7 6.176257911924124e7 0.0
0.0 0.0 0.0

-7.963725023099229e6 4.502959022449439e6 0.0
4.502959022449439e6 4.758038430347072e7 0.0
0.0 0.0 0.0

1.168726504004445e6 4.513256106008255e6 0.0
4.513256106008255e6 -5.359888162453311e7 0.0
0.0 0.0 0.0

-5.685256956801596e6 2.1067278821156397e7 0.0
2.1067278821156397e7 -3.388493921043006e7 0.0
0.0 0.0 0.0

-1.2339568720061827e7 3.533966966974769e7 0.0
3.533966966974769e7 6.056982138595608e6 0.0
0.0 0.0 0.0

3.780078306178486e7 1.6362726380240561e7 0.0
1.6362726380240561e7 1.864807392463874e6 0.0
0.0 0.0 0.0

-9.67240747126783e6 8.598009147973664e6 0.0
8.598009147973664e6 3.56951672714703e7 0.0
0.0 0.0 0.0

-3.1856331907922573e7 3.511367356906778e7 0.0
3.511367356906778e7 -1.694224335696201e7 0.0
0.0 0.0 0.0

-3.934148049399863e6 2.5825424689611956e7 0.0
2.5825424689611956e7 9.670913598674014e6 0.0
0.0 0.0 0.0

-2.529919813872151e7 4.153574643441013e7 0.0
4.153574643441013e7 6.780044621980099e6 0.0
0.0 0.0 0.0

923936.2476194501 5.141131202194648e6 0.0
5.141131202194648e6 -5.522110802223806e7 0.0
0.0 0.0 0.0

9.52715562379288e6 3.609178600542672e7 0.0
3.609178600542672e7 -5.42528328648372e6 0.0
0.0 0.0 0.0

-1.5757560486878417e6 1.4822536230267527e7 0.0
1.4822536230267527e7 6.73145993148902e7 0.0
0.0 0.0 0.0

-4.0156571677936437e6 3.162528873839951e7 0.0
3.162528873839951e7 8.57506763552961e6 0.0
0.0 0.0 0.0

-2.0100565548496877e6 2.081536090981774e7 0.0
2.081536090981774e7 -8.092318079695036e6 0.0
0.0 0.0 0.0

-8.708204516829368e6 3.14367575178498e6 0.0
3.14367575178498e6 1.692317808191277e7 0.0
0.0 0.0 0.0

6.250552510593353e6 2.228239870656116e7 0.0
2.228239870656116e7 1.9736965643646277e7 0.0
0.0 0.0 0.0

-5.000704106332093e6 2.699901749848694e7 0.0
2.699901749848694e7 1.1222951309772149e7 0.0
0.0 0.0 0.0

1.2670431151051633e6 1.1438958627228979e7 0.0
1.1438958627228979e7 -1.2341887350516211e7 0.0
0.0 0.0 0.0

-4.320421629163716e6 2.4793267188472368e7 0.0
2.4793267188472368e7 1.0887200746808134e6 0.0
0.0 0.0 0.0

1.0196572467167629e7 2.5928029853485882e7 0.0
2.5928029853485882e7 -1.6317453477315023e6 0.0
0.0 0.0 0.0

-2.107104455415195e6 1.6599585977726964e7 0.0
1.6599585977726964e7 2.197704017609691e6 0.0
0.0 0.0 0.0

-5.607274912118963e6 1.9193249394313548e7 0.0
1.9193249394313548e7 -3.834709797177014e7 0.0
0.0 0.0 0.0

-3.211385565655718e6 2.052558849495563e7 0.0
2.052558849495563e7 9.316082530371308e6 0.0
0.0 0.0 0.0

-3.943791613090202e6 2.1602743914638463e7 0.0
2.1602743914638463e7 2.8136611825678974e7 0.0
0.0 0.0 0.0

-8.802721724928318e6 2.7886179777820236e6 0.0
2.7886179777820236e6 3.433239140167376e7 0.0
0.0 0.0 0.0

-1.4686227979780428e7 2.7523363794476565e7 0.0
2.7523363794476565e7 -365405.80956412386 0.0
0.0 0.0 0.0

-8.578955773404483e6 3.325008504136647e7 0.0
3.325008504136647e7 7.3359927903135875e6 0.0
0.0 0.0 0.0

1.6646753370998595e7 3.656107191069721e7 0.0
3.656107191069721e7 -5.947595681584384e6 0.0
0.0 0.0 0.0

-9.16836563381776e6 8.0660994647939885e6 0.0
8.0660994647939885e6 3.898162950931988e7 0.0
0.0 0.0 0.0

-6.864519492857169e6 2.032106050880846e7 0.0
2.032106050880846e7 -4.002583111915224e7 0.0
0.0 0.0 0.0

-5.565381964219693e6 3.3216858228906117e7 0.0
3.3216858228906117e7 7.506200710929139e6 0.0
0.0 0.0 0.0

1.054271419533865e6 2.334583663447321e7 0.0
2.334583663447321e7 -8.754894217280138e6 0.0
0.0 0.0 0.0

-1.7442693766864212e6 1.798742194291226e7 0.0
1.798742194291226e7 -8.521170168948587e6 0.0
0.0 0.0 0.0

-9.811556450932138e6 3.8257602784417337e6 0.0
3.8257602784417337e6 2.4531797906930745e7 0.0
0.0 0.0 0.0

-1.1994899994737435e7 3.6885051339794986e7 0.0
3.6885051339794986e7 6.064683165774767e6 0.0
0.0 0.0 0.0

-1.0155380247014525e6 2.7849759959851254e7 0.0
2.7849759959851254e7 48976.405000248575 0.0
0.0 0.0 0.0

4.889082058337066e6 2.412575659379917e7 0.0
2.412575659379917e7 1.7396801782482207e7 0.0
0.0 0.0 0.0

-3.9117778468726827e6 2.260471153917886e6 0.0
2.260471153917886e6 8.62148651939449e6 0.0
0.0 0.0 0.0

6.410035942867591e6 2.463124002453462e7 0.0
2.463124002453462e7 6.468234205828186e6 0.0
0.0 0.0 0.0

-1.867127662060514e6 1.0207412118899228e7 0.0
1.0207412118899228e7 -7.317602033897206e7 0.0
0.0 0.0 0.0

9.86841271943965e6 4.1780024705488e7 0.0
4.1780024705488e7 -5.288590694230774e6 0.0
0.0 0.0 0.0

-5.582682501002255e6 2.8148572810840968e7 0.0
2.8148572810840968e7 1.1956021440437175e7 0.0
0.0 0.0 0.0

-9.74156227685947e6 1.2651311232993178e7 0.0
1.2651311232993178e7 1.8364057746914566e7 0.0
0.0 0.0 0.0

-1.9097905581202195e6 2.402261350462065e7 0.0
2.402261350462065e7 -4.1503376655766033e6 0.0
0.0 0.0 0.0

-1.9730764932489246e6 1.2867762421856657e7 0.0
1.2867762421856657e7 -6.837046168424976e7 0.0
0.0 0.0 0.0

-1.5482043352585882e6 2.0186726455564603e7 0.0
2.0186726455564603e7 -2.8345675921666015e7 0.0
0.0 0.0 0.0

-1.2638176052225804e7 4.217895543732149e7 0.0
4.217895543732149e7 4.517397280799884e6 0.0
0.0 0.0 0.0

-3.105716681067271e6 2.2015483143340867e7 0.0
2.2015483143340867e7 -1.0352390260752065e7 0.0
0.0 0.0 0.0

-6.538861480073008e6 2.629007822819695e7 0.0
2.629007822819695e7 -1.5069559168519223e7 0.0
0.0 0.0 0.0

-2.078957299205122e6 2.8596806305128556e7 0.0
2.8596806305128556e7 6.972370147827212e6 0.0
0.0 0.0 0.0

935147.8199954899 2.1466318446147688e7 0.0
2.1466318446147688e7 -1.5542789468304861e7 0.0
0.0 0.0 0.0

1.083617108432762e7 2.6149625263912443e7 0.0
2.6149625263912443e7 9.98028711001334e6 0.0
0.0 0.0 0.0

-9.999304213048715e6 2.669439838910968e7 0.0
2.669439838910968e7 -1.5330425071460146e7 0.0
0.0 0.0 0.0

-2.7763204213131173e6 2.5209718304474257e7 0.0
2.5209718304474257e7 6.97010548495656e6 0.0
0.0 0.0 0.0

-2.664665250877768e6 1.0938054922448132e7 0.0
1.0938054922448132e7 7.362071016319215e7 0.0
0.0 0.0 0.0

-582741.5840110432 1.7447685875264462e7 0.0
1.7447685875264462e7 -7.658770646900515e6 0.0
0.0 0.0 0.0

-9.38290796748714e6 1.7915284628353164e7 0.0
1.7915284628353164e7 -3.155027072649689e7 0.0
0.0 0.0 0.0

1.207556608771625e6 2.3696727336157013e7 0.0
2.3696727336157013e7 -1.795861975569049e7 0.0
0.0 0.0 0.0

-6.978106575885095e6 2.3321612558079906e7 0.0
2.3321612558079906e7 -1.9647329843799725e7 0.0
0.0 0.0 0.0

-3.8046089223872805e6 2.6289372591964677e7 0.0
2.6289372591964677e7 1.1791014792242726e7 0.0
0.0 0.0 0.0

735514.8003603631 2.0429869137360997e7 0.0
2.0429869137360997e7 2.4517159683721466e6 0.0
0.0 0.0 0.0

-2.960888623759052e6 3.4618257958627895e7 0.0
3.4618257958627895e7 4.475040043587009e6 0.0
0.0 0.0 0.0

-4.713409483345821e6 2.560442117327826e7 0.0
2.560442117327826e7 763491.1091459657 0.0
0.0 0.0 0.0

-5.109571869890343e6 3.914926946636596e6 0.0
3.914926946636596e6 7.16828821145666e7 0.0
0.0 0.0 0.0

-9.996764641780414e6 1.2596752979249598e7 0.0
1.2596752979249598e7 2.993748803383975e7 0.0
0.0 0.0 0.0

2.2812209940436166e6 2.3887433846183132e7 0.0
2.3887433846183132e7 -7.4231706519605e6 0.0
0.0 0.0 0.0

-2.9913559177754734e7 3.323394405843309e7 0.0
3.323394405843309e7 1.6598077382669803e6 0.0
0.0 0.0 0.0

-1.0694248206743147e7 4.654166996820788e6 0.0
4.654166996820788e6 2.412869866352407e7 0.0
0.0 0.0 0.0

-5.658969322521549e6 9.348200274950305e6 0.0
9.348200274950305e6 6.029823813604147e7 0.0
0.0 0.0 0.0

-2.9202077844772087e6 2.8552657370340484e6 0.0
2.8552657370340484e6 7.529416599525057e6 0.0
0.0 0.0 0.0

-4.009523280191562e6 6.18719756785324e6 0.0
6.18719756785324e6 -1.0498925167192728e6 0.0
0.0 0.0 0.0

1.1593876898013167e6 1.3742051190820493e7 0.0
1.3742051190820493e7 -2.6900206638685416e7 0.0
0.0 0.0 0.0

-1.814474355821634e6 2.8351139917686854e7 0.0
2.8351139917686854e7 -868507.6916196317 0.0
0.0 0.0 0.0

-8.1006452715344075e6 2.2761186891247418e7 0.0
2.2761186891247418e7 -1.9855628279680323e7 0.0
0.0 0.0 0.0

-3.0842511952136103e6 2.5735449887402993e7 0.0
2.5735449887402993e7 1.5621572173293099e7 0.0
0.0 0.0 0.0

-5.661562702698928e6 2.0003420543164935e7 0.0
2.0003420543164935e7 -2.8832498666863505e7 0.0
0.0 0.0 0.0

3.225415344840694e6 2.3706583581636332e7 0.0
2.3706583581636332e7 1.5636095031944837e7 0.0
0.0 0.0 0.0

-1.3391463699268388e7 1.8154398156513765e7 0.0
1.8154398156513765e7 -4.693469338407027e7 0.0
0.0 0.0 0.0

-4.8298250687432755e6 2.551397042710884e7 0.0
2.551397042710884e7 4.202577245681935e6 0.0
0.0 0.0 0.0

-4.0677953553536274e6 1.3387643711012766e7 0.0
1.3387643711012766e7 -8.074170619963254e7 0.0
0.0 0.0 0.0

-1.5783805539314225e6 1.3458293512793442e7 0.0
1.3458293512793442e7 -5.955378556919402e7 0.0
0.0 0.0 0.0

-5.420720487769065e6 2.522754000121578e7 0.0
2.522754000121578e7 -1.4406781251876853e7 0.0
0.0 0.0 0.0

-2.0476039632033184e7 3.0009629819364976e7 0.0
3.0009629819364976e7 -1.5112870710513318e7 0.0
0.0 0.0 0.0

-1.4491986613543883e7 3.3463802130838916e7 0.0
3.3463802130838916e7 5.868964069990436e6 0.0
0.0 0.0 0.0

-3.969709419777956e6 1.710659302471204e7 0.0
1.710659302471204e7 8.544135488244051e6 0.0
0.0 0.0 0.0

-1.7347128696327172e6 8.39450866767825e6 0.0
8.39450866767825e6 8.947740215202643e6 0.0
0.0 0.0 0.0

519288.301762328 2.2900749931790072e7 0.0
2.2900749931790072e7 -6.94147713090598e6 0.0
0.0 0.0 0.0

1.3805743388201842e7 2.7418430876046922e7 0.0
2.7418430876046922e7 -466767.38649554364 0.0
0.0 0.0 0.0

-259481.68015374988 1.5486322366230583e7 0.0
1.5486322366230583e7 6.827877688528103e7 0.0
0.0 0.0 0.0

-1.066539729039547e6 2.4549321536282685e7 0.0
2.4549321536282685e7 1.3339153161134029e7 0.0
0.0 0.0 0.0

-8.883531829224033e6 3.3248024731325038e7 0.0
3.3248024731325038e7 7.358227437611157e6 0.0
0.0 0.0 0.0

-5.316511368134235e6 2.048035217492078e7 0.0
2.048035217492078e7 -1.817614655921233e7 0.0
0.0 0.0 0.0

-4.667902078409541e6 1.286471906796341e7 0.0
1.286471906796341e7 5.6868137891827576e7 0.0
0.0 0.0 0.0

-2.149719745578447e6 2.430755995463413e7 0.0
2.430755995463413e7 7.565485114098802e6 0.0
0.0 0.0 0.0

978909.6270060716 2.352360159303372e7 0.0
2.352360159303372e7 -1.782569648014748e7 0.0
0.0 0.0 0.0

-1.918876635097403e6 1.8697379362989098e7 0.0
1.8697379362989098e7 -3.3790860885513954e7 0.0
0.0 0.0 0.0

-1.2304742056537606e6 1.1945404579205057e7 0.0
1.1945404579205057e7 -5.6285863286724605e7 0.0
0.0 0.0 0.0

-328902.7963937856 1.2973173792544648e7 0.0
1.2973173792544648e7 -4.475801641786287e7 0.0
0.0 0.0 0.0

-1.3671891752637506e7 2.1463693574589323e7 0.0
2.1463693574589323e7 -6.579722509625413e7 0.0
0.0 0.0 0.0

-3.399592129048482e6 3.378078893443629e7 0.0
3.378078893443629e7 5.353580776532463e6 0.0
0.0 0.0 0.0

-7.224646615756063e6 2.5997947840920426e7 0.0
2.5997947840920426e7 -1.5344179925559718e7 0.0
0.0 0.0 0.0

-1.6986108109289608e6 2.3465096916099686e7 0.0
2.3465096916099686e7 -1.5052821631112672e7 0.0
0.0 0.0 0.0

2.996659608483473e7 2.774964126625623e7 0.0
2.774964126625623e7 1.9465326143444944e6 0.0
0.0 0.0 0.0

-4.857656218686607e6 7.055379775814631e6 0.0
7.055379775814631e6 6.47557293853002e7 0.0
0.0 0.0 0.0

-3.386293269318152e6 1.3244349635237057e7 0.0
1.3244349635237057e7 -6.89814971164033e7 0.0
0.0 0.0 0.0

99581.5435795486 1.3425294376402263e7 0.0
1.3425294376402263e7 -4.467673788043426e7 0.0
0.0 0.0 0.0

-1.4552965119832866e6 1.0860246750332061e7 0.0
1.0860246750332061e7 8.052207218828249e7 0.0
0.0 0.0 0.0

2.7723386757627238e7 2.8129026821498446e7 0.0
2.8129026821498446e7 1.8067107239557978e7 0.0
0.0 0.0 0.0

-4.279147880188536e6 1.0572417400271488e7 0.0
1.0572417400271488e7 6.1821427403168045e7 0.0
0.0 0.0 0.0

-8.286378475244128e6 -862262.8204707601 0.0
-862262.8204707601 1.3495305397537492e7 0.0
0.0 0.0 0.0

-3.9270670472094743e6 3.580217995613851e7 0.0
3.580217995613851e7 2.8647895641885754e6 0.0
0.0 0.0 0.0

1.0099513173148725e6 1.261043581719854e7 0.0
1.261043581719854e7 -3.365686050155531e7 0.0
0.0 0.0 0.0

-9.243673675220586e6 3.820111938882828e7 0.0
3.820111938882828e7 5.918970725996644e6 0.0
0.0 0.0 0.0

-4.026913985466536e6 1.550282606735318e7 0.0
1.550282606735318e7 5.055661708907673e7 0.0
0.0 0.0 0.0

-1.0637028138791075e7 1.0687150704871267e7 0.0
1.0687150704871267e7 2.7703070079822686e7 0.0
0.0 0.0 0.0

1.144643245730772e7 3.648775053859786e7 0.0
3.648775053859786e7 -5.585884439303913e6 0.0
0.0 0.0 0.0

-3.9315553839133447e6 2.6619142330583643e7 0.0
2.6619142330583643e7 1.5022798552020984e7 0.0
0.0 0.0 0.0

3.954629479483679e6 3.1030000031771258e7 0.0
3.1030000031771258e7 -7.740085707302328e6 0.0
0.0 0.0 0.0

-7.63597533120952e6 2.9950810653411925e7 0.0
2.9950810653411925e7 7.942607370761556e6 0.0
0.0 0.0 0.0

-5.2173817508950895e6 2.138331637719933e7 0.0
2.138331637719933e7 -3.0534265750589237e7 0.0
0.0 0.0 0.0

7.360495007839473e6 2.753048155618552e7 0.0
2.753048155618552e7 -7.1417865668142345e6 0.0
0.0 0.0 0.0

1.1768867264039218e7 2.0995400926462848e7 0.0
2.0995400926462848e7 5.8816397148548625e7 0.0
0.0 0.0 0.0

-4.644362745987391e6 7.246004102642795e6 0.0
7.246004102642795e6 1.877229918604677e7 0.0
0.0 0.0 0.0

-1.6946778955490016e6 9.555378369294671e6 0.0
9.555378369294671e6 -1.0447601914223328e7 0.0
0.0 0.0 0.0

-5.427779341341921e6 2.2911918328349054e7 0.0
2.2911918328349054e7 -1.8092597471467458e7 0.0
0.0 0.0 0.0

5.499082362174272e6 2.311679322587221e7 0.0
2.311679322587221e7 1.8330274581252143e7 0.0
0.0 0.0 0.0

1.2091413565168565e7 4.277265038043068e7 0.0
4.277265038043068e7 -6.207095705173557e6 0.0
0.0 0.0 0.0

3.12172605211675e6 5.481636211753975e6 0.0
5.481636211753975e6 -2.0381800249132935e7 0.0
0.0 0.0 0.0

-5.705252219118898e6 4.0458792476024464e7 0.0
4.0458792476024464e7 4.371124937565296e6 0.0
0.0 0.0 0.0

-4.959938263431871e7 1.9066546188773837e7 0.0
1.9066546188773837e7 6.167303283409189e6 0.0
0.0 0.0 0.0

1.4452680622909665e6 2.4144200782395832e7 0.0
2.4144200782395832e7 -1.613474040822899e7 0.0
0.0 0.0 0.0

-3.605924909268543e6 1.7329199195767075e7 0.0
1.7329199195767075e7 4.610936588396801e7 0.0
0.0 0.0 0.0

533048.7451985087 2.438150298791027e7 0.0
2.438150298791027e7 -7.2288736429097345e6 0.0
0.0 0.0 0.0

-4.476597116846187e6 2.7296582204830322e7 0.0
2.7296582204830322e7 1.1339740634399615e7 0.0
0.0 0.0 0.0

-1.6512053842191491e6 2.771841360602379e7 0.0
2.771841360602379e7 -2.0446792931192936e6 0.0
0.0 0.0 0.0

1.2348405418396713e6 2.4766939124105487e7 0.0
2.4766939124105487e7 -8.8955016814122e6 0.0
0.0 0.0 0.0

841536.0391314551 4.1545995901717865e6 0.0
4.1545995901717865e6 -5.791022066310151e7 0.0
0.0 0.0 0.0

-1.0302963693438873e6 2.0208642084198736e7 0.0
2.0208642084198736e7 -3.434321730450404e6 0.0
0.0 0.0 0.0

1.5411574539395206e7 2.8969687454041425e7 0.0
2.8969687454041425e7 -2.9057997724541007e6 0.0
0.0 0.0 0.0

-1.9678272464578007e6 2.287808478727714e7 0.0
2.287808478727714e7 -1.7615421983563237e7 0.0
0.0 0.0 0.0

8.772631002142644e6 2.5923410136083025e7 0.0
2.5923410136083025e7 1.317781438949686e7 0.0
0.0 0.0 0.0

-2.6233274642462395e6 1.3578630702399746e7 0.0
1.3578630702399746e7 -5.975145065193483e7 0.0
0.0 0.0 0.0

487178.3963425262 2.704722105492676e7 0.0
2.704722105492676e7 -9.782628858509164e6 0.0
0.0 0.0 0.0

6.313541337619459e6 2.55488393769346e7 0.0
2.55488393769346e7 1.7201092436569076e7 0.0
0.0 0.0 0.0

3.586771077912009e7 3.5452729959674485e7 0.0
3.5452729959674485e7 -3.5253810955807287e6 0.0
0.0 0.0 0.0

-1.1515859059117008e6 1.3816303211361863e7 0.0
1.3816303211361863e7 -5.17516226455693e7 0.0
0.0 0.0 0.0

-4.0034146155245624e7 1.7479232004022963e7 0.0
1.7479232004022963e7 6.610546031992389e6 0.0
0.0 0.0 0.0

3.7990960551419137e6 2.157355608467406e7 0.0
2.157355608467406e7 2.22381413401353e7 0.0
0.0 0.0 0.0

-8.296203260932466e6 3.9850034021325216e7 0.0
3.9850034021325216e7 5.430366904035388e6 0.0
0.0 0.0 0.0

1.0286153530273726e6 2.461619149753665e7 0.0
2.461619149753665e7 -1.2443738653943216e7 0.0
0.0 0.0 0.0

-7.42543182147104e6 3.39203639350699e7 0.0
3.39203639350699e7 7.002645672093284e6 0.0
0.0 0.0 0.0

-1.5995779663983546e6 1.4431242858780473e7 0.0
1.4431242858780473e7 7.275474896505342e7 0.0
0.0 0.0 0.0

1.3246485359973004e6 1.778998205379595e7 0.0
1.778998205379595e7 -2.1102618717552397e7 0.0
0.0 0.0 0.0

8.972749807758417e6 3.636772033102595e7 0.0
3.636772033102595e7 -5.879088881616396e6 0.0
0.0 0.0 0.0

-2.490793307314648e6 1.43155007818474e7 0.0
1.43155007818474e7 4.2745175754016135e6 0.0
0.0 0.0 0.0

-3.6560866277339995e7 1.6663720299424667e7 0.0
1.6663720299424667e7 6.4133715678885095e6 0.0
0.0 0.0 0.0

-2.9697547003184627e6 1.869697686824315e7 0.0
1.869697686824315e7 1.0890398507862287e6 0.0
0.0 0.0 0.0

-9.203394224849975e6 6.268407153600877e6 0.0
6.268407153600877e6 3.92120574478072e7 0.0
0.0 0.0 0.0

-2.7073253752656076e6 1.7839410494625732e7 0.0
1.7839410494625732e7 4.684323063155471e7 0.0
0.0 0.0 0.0

-6.737332251410734e6 3.771165954190783e7 0.0
3.771165954190783e7 4.065998946700756e6 0.0
0.0 0.0 0.0

-7.294722645505803e6 4.140232880507726e7 0.0
4.140232880507726e7 4.720746151384071e6 0.0
0.0 0.0 0.0

-3.3664573545763716e6 1.3843624625482509e7 0.0
1.3843624625482509e7 5.8124337230247535e7 0.0
0.0 0.0 0.0

1.0461792920852005e6 1.592201179739627e7 0.0
1.592201179739627e7 -1.720992632979538e7 0.0
0.0 0.0 0.0

9.476688351435218e6 2.606697211553891e7 0.0
2.606697211553891e7 2.371116088169938e6 0.0
0.0 0.0 0.0

-4.484248974290715e6 1.829227377078828e7 0.0
1.829227377078828e7 -1.3490692098754449e7 0.0
0.0 0.0 0.0

983874.7395255966 1.0442886467305906e7 0.0
1.0442886467305906e7 -1.6918289381311417e7 0.0
0.0 0.0 0.0

-4.783212171834432e6 3.732934780235083e7 0.0
3.732934780235083e7 4.572420346762349e6 0.0
0.0 0.0 0.0

-4.925291934697261e6 2.0438780985597935e7 0.0
2.0438780985597935e7 3.1753558283121422e7 0.0
0.0 0.0 0.0

-2.0218932269735858e6 1.4134763551177679e7 0.0
1.4134763551177679e7 -5.224779755344256e7 0.0
0.0 0.0 0.0

-2.6091155790125027e7 3.191793767845374e7 0.0
3.191793767845374e7 1.18596573671766e6 0.0
0.0 0.0 0.0

4.168009601831087e6 3.2152067946195446e7 0.0
3.2152067946195446e7 -6.760687535065468e6 0.0
0.0 0.0 0.0

-211489.70140992478 6.104100459541225e6 0.0
6.104100459541225e6 -6.930311019194438e7 0.0
0.0 0.0 0.0

-348355.67386072874 2.2882397817894787e7 0.0
2.2882397817894787e7 2.392171229098326e7 0.0
0.0 0.0 0.0

-1.4135383398270323e6 2.8017511012573306e7 0.0
2.8017511012573306e7 2.151726645332896e6 0.0
0.0 0.0 0.0

1.0959450734846815e6 2.4356939567034233e7 0.0
2.4356939567034233e7 -1.644889717544596e7 0.0
0.0 0.0 0.0

-1.1256846664127294e7 3.869961635480341e7 0.0
3.869961635480341e7 6.0400439052515e6 0.0
0.0 0.0 0.0

-774311.4590944676 2.8311786730993934e7 0.0
2.8311786730993934e7 -1.0777282721643457e6 0.0
0.0 0.0 0.0

-8.102357010752929e6 3.857564049017568e7 0.0
3.857564049017568e7 4.309000621382257e6 0.0
0.0 0.0 0.0

-3.3263651529424074e6 9.685858946671197e6 0.0
9.685858946671197e6 6.905981040486243e6 0.0
0.0 0.0 0.0

8.279052505459727e6 2.1002209212442707e7 0.0
2.1002209212442707e7 2.9799970373531487e7 0.0
0.0 0.0 0.0

-1.6091085261645345e6 2.1038819777467214e7 0.0
2.1038819777467214e7 -2.5239181059471983e7 0.0
0.0 0.0 0.0

-2.0431665097144155e6 1.8051498529711865e7 0.0
1.8051498529711865e7 2.1991881377732987e6 0.0
0.0 0.0 0.0

175272.5184861757 2.267922816015594e7 0.0
2.267922816015594e7 -1.9464470164934143e7 0.0
0.0 0.0 0.0

1.7021189552575406e6 8.800195985574637e6 0.0
8.800195985574637e6 -2.543319684942309e7 0.0
0.0 0.0 0.0

1.822770350845631e7 2.7260346103407856e7 0.0
2.7260346103407856e7 1.2992838493252221e7 0.0
0.0 0.0 0.0

-7.013048957978798e6 1.8394656740183171e6 0.0
1.8394656740183171e6 4.85753030689667e7 0.0
0.0 0.0 0.0

9.304534775331771e6 2.1138412290374123e7 0.0
2.1138412290374123e7 3.399569947593004e7 0.0
0.0 0.0 0.0

-4.345205287101521e6 3.505547299566792e7 0.0
3.505547299566792e7 3.8308028601002228e6 0.0
0.0 0.0 0.0

-1.4280733296042178e6 2.057924629142589e7 0.0
2.057924629142589e7 -2.892824749872622e7 0.0
0.0 0.0 0.0

7.90593519227981e6 3.557080921878225e7 0.0
3.557080921878225e7 -5.501581214620702e6 0.0
0.0 0.0 0.0

-1.2164437944536132e6 2.285401284589115e7 0.0
2.285401284589115e7 -3.299693911827667e6 0.0
0.0 0.0 0.0

1.8105645082421135e6 1.2150002016159175e7 0.0
1.2150002016159175e7 -3.2920768473646197e7 0.0
0.0 0.0 0.0

3.7429502132377885e6 3.1255072048534337e7 0.0
3.1255072048534337e7 -8.084776012456972e6 0.0
0.0 0.0 0.0

-1.0572005268895132e6 2.151911425929691e7 0.0
2.151911425929691e7 -2.3217302238679282e7 0.0
0.0 0.0 0.0

-1.073339943344609e7 9.430165332845079e6 0.0
9.430165332845079e6 2.1173038530972466e7 0.0
0.0 0.0 0.0

6.3290856990983365e6 2.3434175155318715e7 0.0
2.3434175155318715e7 2.1273843568447903e7 0.0
0.0 0.0 0.0

-5.991411152548742e6 2.7907621704377707e7 0.0
2.7907621704377707e7 1.0714878784257555e7 0.0
0.0 0.0 0.0

-5.00238220609878e6 3.598295086432889e7 0.0
3.598295086432889e7 3.8166207460163897e6 0.0
0.0 0.0 0.0

568271.2727138195 2.3130100317377012e7 0.0
2.3130100317377012e7 1.4347391768290654e7 0.0
0.0 0.0 0.0

-8.196506180077647e6 5.345828015781556e6 0.0
5.345828015781556e6 1.592943686935094e7 0.0
0.0 0.0 0.0

-6.378076514944792e6 1.2630413101677984e7 0.0
1.2630413101677984e7 4.901485097312836e7 0.0
0.0 0.0 0.0

817134.0483192485 2.333834761834817e7 0.0
2.333834761834817e7 -1.7796485546725668e7 0.0
0.0 0.0 0.0

-5.176226384885959e6 1.6855380622506466e7 0.0
1.6855380622506466e7 -8.031724288969098e7 0.0
0.0 0.0 0.0

-6.902461803983613e6 7.250436716041313e6 0.0
7.250436716041313e6 1.4102106869325733e7 0.0
0.0 0.0 0.0

-1.0087455183780592e7 4.478873414952609e6 0.0
4.478873414952609e6 2.9234908228762947e7 0.0
0.0 0.0 0.0

-3.2388187613441017e6 2.0998830571995966e7 0.0
2.0998830571995966e7 1.0823682307007924e7 0.0
0.0 0.0 0.0

3.422111310349041e6 3.245836019112482e7 0.0
3.245836019112482e7 -6.046716792322621e6 0.0
0.0 0.0 0.0

-6.343810938454436e6 1.8779055265225373e7 0.0
1.8779055265225373e7 -5.13228573624417e7 0.0
0.0 0.0 0.0

2.5835131371743977e6 8.384326780121027e6 0.0
8.384326780121027e6 -2.1881024420571107e7 0.0
0.0 0.0 0.0

-2.5438963208001973e6 3.536853836485106e7 0.0
3.536853836485106e7 3.522251105040753e6 0.0
0.0 0.0 0.0

4.832648063099079e6 3.1713460908101734e7 0.0
3.1713460908101734e7 -7.354568129765004e6 0.0
0.0 0.0 0.0

-1.246129575406782e7 4.842149029986949e7 0.0
4.842149029986949e7 4.271359118664386e6 0.0
0.0 0.0 0.0

-3.4441967536683287e6 3.5508753478417546e7 0.0
3.5508753478417546e7 4.520676372075846e6 0.0
0.0 0.0 0.0

-3.3685059513555594e7 3.3710475932469815e7 0.0
3.3710475932469815e7 -1.4896511714465998e7 0.0
0.0 0.0 0.0

-5.75476693644298e6 2.5834378663666215e7 0.0
2.5834378663666215e7 -2.2924744019017527e6 0.0
0.0 0.0 0.0

-5.542574346845567e6 1.676415433922617e7 0.0
1.676415433922617e7 -7.38975492667701e7 0.0
0.0 0.0 0.0

-3.1466230839368384e6 1.7283104700141866e7 0.0
1.7283104700141866e7 1.0330879537160106e6 0.0
0.0 0.0 0.0

-7.091494944327168e6 3.9865165829070867e6 0.0
3.9865165829070867e6 5.556271909477675e7 0.0
0.0 0.0 0.0

-5.278533308717985e6 7.786662992085654e6 0.0
7.786662992085654e6 6.455736034298994e7 0.0
0.0 0.0 0.0

841432.2974027023 7.199984128981332e6 0.0
7.199984128981332e6 -5.019820719285584e7 0.0
0.0 0.0 0.0

-5.388613227717621e6 2.9350425615844954e7 0.0
2.9350425615844954e7 1.0330306091091193e7 0.0
0.0 0.0 0.0

-978616.9065526128 1.5881920436569285e7 0.0
1.5881920436569285e7 6.296882044868608e7 0.0
0.0 0.0 0.0

-448244.597950832 2.208555221904616e7 0.0
2.208555221904616e7 -2.1282537192076385e7 0.0
0.0 0.0 0.0

1.269339679242473e6 1.8027823257492412e7 0.0
1.8027823257492412e7 6.080246298317308e7 0.0
0.0 0.0 0.0

2.908567290117743e6 3.1668114924638502e7 0.0
3.1668114924638502e7 -7.522450889694162e6 0.0
0.0 0.0 0.0

5.880908843441235e6 3.890775749402532e7 0.0
3.890775749402532e7 -4.526554001469823e6 0.0
0.0 0.0 0.0

-754376.7177951531 2.2683910100985095e7 0.0
2.2683910100985095e7 -5.715501733888013e6 0.0
0.0 0.0 0.0

-1.0136517648164975e7 7.535680178576009e6 0.0
7.535680178576009e6 2.8145752167156883e7 0.0
0.0 0.0 0.0

2.2156613594649523e6 2.2308344523082066e7 0.0
2.2308344523082066e7 1.8198956103309266e7 0.0
0.0 0.0 0.0

-2.359323669322731e6 2.0210805699250977e7 0.0
2.0210805699250977e7 1.2221884145722512e7 0.0
0.0 0.0 0.0

1.5001217661601081e6 4.870531777611896e6 0.0
4.870531777611896e6 -4.5836345458599165e7 0.0
0.0 0.0 0.0

6.81707749861465e6 2.7251943063819848e7 0.0
2.7251943063819848e7 -5.566541509597085e6 0.0
0.0 0.0 0.0

-1.807474939153942e7 2.454707854610915e7 0.0
2.454707854610915e7 -2.3060274192040656e6 0.0
0.0 0.0 0.0

-3.02320645193216e7 2.872341481488329e7 0.0
2.872341481488329e7 -1.0606574564308949e7 0.0
0.0 0.0 0.0

-2.474295125421198e6 3.623772568097591e7 0.0
3.623772568097591e7 1.0122213827621418e6 0.0
0.0 0.0 0.0

-28058.782251470722 1.5314987310043262e7 0.0
1.5314987310043262e7 -1.6165362734095937e7 0.0
0.0 0.0 0.0

-8.280861333837881e6 2.5458475047916304e7 0.0
2.5458475047916304e7 -2.0739160299198385e6 0.0
0.0 0.0 0.0

3.837652069404249e6 3.9045406917378366e7 0.0
3.9045406917378366e7 -2.2719221944815973e6 0.0
0.0 0.0 0.0

-1.1383532221823595e6 2.2920954203603674e7 0.0
2.2920954203603674e7 2.496369389044234e7 0.0
0.0 0.0 0.0

-562434.3025827287 2.3708304734737933e7 0.0
2.3708304734737933e7 1.3925840927880326e7 0.0
0.0 0.0 0.0

1.0088025012171585e6 1.4764319310191711e7 0.0
1.4764319310191711e7 -1.5267085223100225e7 0.0
0.0 0.0 0.0

-2.2981896367468e6 4.145641244666477e7 0.0
4.145641244666477e7 1.8627503855055606e6 0.0
0.0 0.0 0.0

-8.508601563091476e6 3.620757291468368e6 0.0
3.620757291468368e6 4.263223248919883e7 0.0
0.0 0.0 0.0

2.512400984718317e6 6.220790260755362e6 0.0
6.220790260755362e6 -3.551718946847222e7 0.0
0.0 0.0 0.0

1.846329356870457e6 3.515134408364922e7 0.0
3.515134408364922e7 -2.392772319128059e6 0.0
0.0 0.0 0.0

-1.6894600618038168e6 2.1463094277042247e7 0.0
2.1463094277042247e7 -2.5906604016819313e7 0.0
0.0 0.0 0.0

-7.164953099207596e6 -294962.0697041261 0.0
-294962.0697041261 1.3216394789216543e7 0.0
0.0 0.0 0.0

455957.65934085567 1.118990691910084e7 0.0
1.118990691910084e7 -1.492739793771014e7 0.0
0.0 0.0 0.0

-1.3561360252437633e7 2.842441305130261e7 0.0
2.842441305130261e7 -1.3274366326760879e7 0.0
0.0 0.0 0.0

1.5911190702653248e6 1.3724894876299078e7 0.0
1.3724894876299078e7 -3.1754910886458013e7 0.0
0.0 0.0 0.0

1.7739760913902443e7 2.817132427385941e7 0.0
2.817132427385941e7 1.5750082541329633e7 0.0
0.0 0.0 0.0

-5.276911409167908e6 1.0727235376568967e7 0.0
1.0727235376568967e7 5.190696407772416e6 0.0
0.0 0.0 0.0

-9.417809924906526e6 5.542205943414906e6 0.0
5.542205943414906e6 1.155391298661282e7 0.0
0.0 0.0 0.0

1.3875951536225975e7 3.662499674570432e7 0.0
3.662499674570432e7 -5.675030968315958e6 0.0
0.0 0.0 0.0

-8.449857810044743e6 4.1087159117201264e6 0.0
4.1087159117201264e6 4.127142055743073e7 0.0
0.0 0.0 0.0

1.0765531603838364e6 1.9401175709218495e7 0.0
1.9401175709218495e7 -1.784734380719652e7 0.0
0.0 0.0 0.0

2.307336588388993e6 2.3349919750679545e7 0.0
2.3349919750679545e7 3.6296317657351904e6 0.0
0.0 0.0 0.0

2.3990973814099442e7 3.068790770161412e7 0.0
3.068790770161412e7 -1.920725109926559e6 0.0
0.0 0.0 0.0

1.0320426866444098e6 2.065616757930891e7 0.0
2.065616757930891e7 -2.2215809760149278e7 0.0
0.0 0.0 0.0

1.2086302804971816e7 2.1848077661099833e7 0.0
2.1848077661099833e7 4.490077611797322e7 0.0
0.0 0.0 0.0

-1.0230625297892127e7 3.361953747030646e7 0.0
3.361953747030646e7 6.826604119548606e6 0.0
0.0 0.0 0.0

-6.736419010099772e6 4.041975712829209e6 0.0
4.041975712829209e6 5.159759138912101e7 0.0
0.0 0.0 0.0

2.818062948694009e6 3.529919148111234e7 0.0
3.529919148111234e7 -3.055181234637238e6 0.0
0.0 0.0 0.0

2.2609460530835576e6 2.3059609035803713e7 0.0
2.3059609035803713e7 2.52684330566619e7 0.0
0.0 0.0 0.0

1.2053374035613071e6 1.3036130765709482e7 0.0
1.3036130765709482e7 -2.614723445358565e7 0.0
0.0 0.0 0.0

1.7999816485289484e6 5.299160191198522e6 0.0
5.299160191198522e6 -5.1667735887709305e7 0.0
0.0 0.0 0.0

-1.3973127363482397e6 2.8115037584436394e7 0.0
2.8115037584436394e7 -3.1064414595479197e6 0.0
0.0 0.0 0.0

-7.332726489108726e6 1.4608407744263921e7 0.0
1.4608407744263921e7 2.0730987931485187e7 0.0
0.0 0.0 0.0

-4.475017666469058e6 1.8871627099049136e7 0.0
1.8871627099049136e7 3.86964699784737e7 0.0
0.0 0.0 0.0

-1.9696578477373226e6 2.011746437733101e7 0.0
2.011746437733101e7 -3.117057004481162e7 0.0
0.0 0.0 0.0

-4.825491989406355e6 1.6174519617701039e7 0.0
1.6174519617701039e7 -6.867395975277975e7 0.0
0.0 0.0 0.0

3.392295813994888e6 3.6179297656862795e7 0.0
3.6179297656862795e7 -3.056610752058153e6 0.0
0.0 0.0 0.0

-100590.12516598497 2.342062081671557e7 0.0
2.342062081671557e7 1.110608427438131e7 0.0
0.0 0.0 0.0

-4.550105959664972e7 1.791492925760878e7 0.0
1.791492925760878e7 5.841524918482548e6 0.0
0.0 0.0 0.0

1.3178998516380765e7 2.230927700303563e7 0.0
2.230927700303563e7 5.025269861723201e7 0.0
0.0 0.0 0.0

-4.086384669447305e7 4.049902959564924e7 0.0
4.049902959564924e7 5.549719193424676e6 0.0
0.0 0.0 0.0

579187.9056072831 1.2569705710817875e7 0.0
1.2569705710817875e7 -3.885534933591047e7 0.0
0.0 0.0 0.0

1.0427976195000917e7 6.1920825246281065e6 0.0
6.1920825246281065e6 -1.5391144226426156e6 0.0
0.0 0.0 0.0

-2.045387948256732e7 2.535388406747894e6 0.0
2.535388406747894e6 5.789648123503725e6 0.0
0.0 0.0 0.0

-7.638614860903456e6 1.3326615791119954e7 0.0
1.3326615791119954e7 1.8873305922416627e7 0.0
0.0 0.0 0.0

-7.268504317177903e6 5.475483168730964e6 0.0
5.475483168730964e6 4.90743979246694e7 0.0
0.0 0.0 0.0

-8.863955445558494e6 6.285650868237616e6 0.0
6.285650868237616e6 4.12457439598504e7 0.0
0.0 0.0 0.0

99343.61853859201 2.3064344077746786e7 0.0
2.3064344077746786e7 -2.011484874550183e7 0.0
0.0 0.0 0.0

-3.33984406561818e6 1.9724925990619034e7 0.0
1.9724925990619034e7 -1.1132813426054245e7 0.0
0.0 0.0 0.0

3.2525002550558653e6 1.989589717203926e7 0.0
1.989589717203926e7 1.0841667494261002e7 0.0
0.0 0.0 0.0

1.7590020500622452e6 2.311777825626215e7 0.0
2.311777825626215e7 162118.22159599426 0.0
0.0 0.0 0.0

4.0406200171193564e6 3.706008187270555e7 0.0
3.706008187270555e7 -2.9811773292193217e6 0.0
0.0 0.0 0.0

-8.953211614649147e6 1.417646517002492e7 0.0
1.417646517002492e7 2.582528348601725e7 0.0
0.0 0.0 0.0

669692.9435098292 2.149633198442815e7 0.0
2.149633198442815e7 -2.070743572373564e7 0.0
0.0 0.0 0.0

-2.6433836956549133e6 3.0453499191876132e7 0.0
3.0453499191876132e7 3.740869083612794e6 0.0
0.0 0.0 0.0

436932.1222731862 1.0054087822353715e7 0.0
1.0054087822353715e7 -4.6170943054879844e7 0.0
0.0 0.0 0.0

-8.00614276736748e6 4.968757065064711e6 0.0
4.968757065064711e6 4.41034835200259e7 0.0
0.0 0.0 0.0

3.1652947866824204e6 3.439011972702963e7 0.0
3.439011972702963e7 -4.085019462272158e6 0.0
0.0 0.0 0.0

-819982.0902298857 2.35678375735622e7 0.0
2.35678375735622e7 7.85828398093747e6 0.0
0.0 0.0 0.0

-1.60504469922051e6 2.382621819570242e7 0.0
2.382621819570242e7 4.676369822269337e6 0.0
0.0 0.0 0.0

-9.065649978677582e6 2.7660439943540994e7 0.0
2.7660439943540994e7 -1.5353769005211106e7 0.0
0.0 0.0 0.0

9.603937083688082e6 1.8779659648358658e7 0.0
1.8779659648358658e7 3.341395645321115e7 0.0
0.0 0.0 0.0

-1.0832031022773642e7 2.639889968180332e7 0.0
2.639889968180332e7 -1.3100816528620532e7 0.0
0.0 0.0 0.0

-3.353999378527282e6 1.675989131622022e7 0.0
1.675989131622022e7 4.9464011009857304e7 0.0
0.0 0.0 0.0

-7.4155851045307815e6 3.947750898460803e6 0.0
3.947750898460803e6 5.152630386232109e7 0.0
0.0 0.0 0.0

1.949600418148011e6 1.2500714934227295e7 0.0
1.2500714934227295e7 -2.5257438319772027e7 0.0
0.0 0.0 0.0

800083.8380523957 6.193775527709916e6 0.0
6.193775527709916e6 -5.281227240549738e7 0.0
0.0 0.0 0.0

1.3200635343539128e6 2.214050441043805e7 0.0
2.214050441043805e7 -1.900999476154524e7 0.0
0.0 0.0 0.0

1.1244560090238448e7 2.6804330582462244e7 0.0
2.6804330582462244e7 1.3178273968758522e7 0.0
0.0 0.0 0.0

1.9296729494680772e6 7.4259830906505585e6 0.0
7.4259830906505585e6 -2.342315642479175e7 0.0
0.0 0.0 0.0

-9.942479758574555e6 2.0576882867736265e7 0.0
2.0576882867736265e7 -4.022420299866295e7 0.0
0.0 0.0 0.0

-4.237549385803888e6 1.5822521752770633e7 0.0
1.5822521752770633e7 -6.376234353936842e7 0.0
0.0 0.0 0.0

-3.1859861173773776e6 1.9945057798003674e7 0.0
1.9945057798003674e7 7.810459487361658e6 0.0
0.0 0.0 0.0

-7.167332293043427e6 2.983713896541138e7 0.0
2.983713896541138e7 9.740440578199854e6 0.0
0.0 0.0 0.0

-1.4167193303941607e7 2.7313974262614466e7 0.0
2.7313974262614466e7 -1.3901633032185908e7 0.0
0.0 0.0 0.0

-5.4139978554210365e6 4.5788859925536355e6 0.0
4.5788859925536355e6 6.319397833909606e7 0.0
0.0 0.0 0.0

-3.624077377266554e6 1.5676314445970789e7 0.0
1.5676314445970789e7 -5.949140360966843e7 0.0
0.0 0.0 0.0

-3.0673091409304664e6 1.6049244752933282e7 0.0
1.6049244752933282e7 5.291907207597826e7 0.0
0.0 0.0 0.0

-2.570061783573461e6 2.4045551220248047e7 0.0
2.4045551220248047e7 1.4612004878044473e6 0.0
0.0 0.0 0.0

2.3199960240527405e6 3.65943210577091e7 0.0
3.65943210577091e7 -3.710259439744545e6 0.0
0.0 0.0 0.0

-1.6267672271567352e7 3.281418549463941e7 0.0
3.281418549463941e7 4.851320229919962e6 0.0
0.0 0.0 0.0

-5.375167566296842e6 1.80572883473372e7 0.0
1.80572883473372e7 3.816243801185703e7 0.0
0.0 0.0 0.0

-6.749771285079463e6 1.7992572879561745e7 0.0
1.7992572879561745e7 -2.251010416847524e7 0.0
0.0 0.0 0.0

6.284081890880989e6 2.068969771313061e7 0.0
2.068969771313061e7 2.0122827262225322e7 0.0
0.0 0.0 0.0

728125.6073903479 7.967926273424398e6 0.0
7.967926273424398e6 -4.788425805286689e7 0.0
0.0 0.0 0.0

885165.3992976006 1.033613482260001e7 0.0
1.033613482260001e7 -1.6470081678679617e7 0.0
0.0 0.0 0.0

-5.344339924295299e6 1.368330529761002e7 0.0
1.368330529761002e7 5.034383689866921e7 0.0
0.0 0.0 0.0

-3.053267888955109e6 2.564871617543297e7 0.0
2.564871617543297e7 1.4157792852218963e7 0.0
0.0 0.0 0.0

-4.0267351366092145e7 3.3500878409891974e7 0.0
3.3500878409891974e7 -984664.7989230473 0.0
0.0 0.0 0.0

-1.302463543999521e6 1.7980762453844357e7 0.0
1.7980762453844357e7 -3.4320171296984985e7 0.0
0.0 0.0 0.0

93524.46792390756 1.1890275809149034e7 0.0
1.1890275809149034e7 -4.431205910911585e7 0.0
0.0 0.0 0.0

-2.9893631951563936e6 1.5696787619761117e7 0.0
1.5696787619761117e7 -5.54877948669197e7 0.0
0.0 0.0 0.0

2.52012717318672e6 4.466980031330372e6 0.0
4.466980031330372e6 -1.173788178155691e7 0.0
0.0 0.0 0.0

1.3078228854370592e6 2.48621446321884e7 0.0
2.48621446321884e7 -1.310827413305761e7 0.0
0.0 0.0 0.0

3.6514882297032033e6 2.704110081112329e7 0.0
2.704110081112329e7 -1.0360095887064984e7 0.0
0.0 0.0 0.0

-2.566437572013575e7 4.537240913538928e7 0.0
4.537240913538928e7 7.431948354255857e6 0.0
0.0 0.0 0.0

1.286672793934376e6 4.649278240039181e6 0.0
4.649278240039181e6 -5.751231580293977e6 0.0
0.0 0.0 0.0

-1.0672918033421785e6 2.1954836921666093e7 0.0
2.1954836921666093e7 -2.379453709133211e7 0.0
0.0 0.0 0.0

-4.1655626532900445e6 2.0492396603247195e7 0.0
2.0492396603247195e7 3.1903239162031274e7 0.0
0.0 0.0 0.0

-8.925829970180437e6 5.131900813376448e6 0.0
5.131900813376448e6 3.639713257751511e7 0.0
0.0 0.0 0.0

1.418965571278084e6 5.638583182949765e6 0.0
5.638583182949765e6 -4.381751831359197e7 0.0
0.0 0.0 0.0

-9.214579454693923e6 8.008035054005958e6 0.0
8.008035054005958e6 3.5666219006709196e7 0.0
0.0 0.0 0.0

-8.097439228804098e6 7.776651683086704e6 0.0
7.776651683086704e6 4.29823737676153e7 0.0
0.0 0.0 0.0

-8.53984286366231e6 1.3594795094511382e7 0.0
1.3594795094511382e7 2.23902340970952e7 0.0
0.0 0.0 0.0

-4.547240868717249e6 2.736406717687845e7 0.0
2.736406717687845e7 1.3927462703136502e7 0.0
0.0 0.0 0.0

-2.135831145037932e6 1.5085978172603698e7 0.0
1.5085978172603698e7 2.215776174212442e6 0.0
0.0 0.0 0.0

2.9179567705443367e7 6.435064402695597e6 0.0
6.435064402695597e6 -1.4793298117968515e6 0.0
0.0 0.0 0.0

-3.9513347855820596e7 4.589755629528855e6 0.0
4.589755629528855e6 5.636830512039555e6 0.0
0.0 0.0 0.0

2.2628561766614877e6 9.53668853624287e6 0.0
9.53668853624287e6 -1.7863849073889893e7 0.0
0.0 0.0 0.0

984145.9662601035 1.1410970062061086e7 0.0
1.1410970062061086e7 -4.358529971109511e7 0.0
0.0 0.0 0.0

1.389336415878864e6 9.399353194824027e6 0.0
9.399353194824027e6 -4.518068572838858e7 0.0
0.0 0.0 0.0

-12064.244010476628 2.9499600343648596e6 0.0
2.9499600343648596e6 2.102990855604776e6 0.0
0.0 0.0 0.0

-5.332781318014829e6 -62402.180419034805 0.0
-62402.180419034805 3.8920837895085514e6 0.0
0.0 0.0 0.0

-6.879718029810418e6 2.087933907457061e7 0.0
2.087933907457061e7 -3.5682552638383456e7 0.0
0.0 0.0 0.0

1.0480429094307143e6 6.118320818693528e6 0.0
6.118320818693528e6 -4.942352634314657e7 0.0
0.0 0.0 0.0

-3.5425562359021015e7 3.028469655444808e7 0.0
3.028469655444808e7 -1.5492251979012344e7 0.0
0.0 0.0 0.0

-3.896064261041037e6 2.3938106180722926e7 0.0
2.3938106180722926e7 1.9862078705793176e7 0.0
0.0 0.0 0.0

3.3632787101382334e6 3.3435810761703692e7 0.0
3.3435810761703692e7 -5.042571908408178e6 0.0
0.0 0.0 0.0

8.3982700360515e6 1.867146219091523e7 0.0
1.867146219091523e7 2.9188843672193743e7 0.0
0.0 0.0 0.0

1.7362534512100775e7 1.2743460602162836e7 0.0
1.2743460602162836e7 1.9455583219813933e6 0.0
0.0 0.0 0.0

-1.7317062614222206e7 3.02083941412025e7 0.0
3.02083941412025e7 -1.4561514149492525e7 0.0
0.0 0.0 0.0

-6.148603807255805e6 7.982495043613868e6 0.0
7.982495043613868e6 5.523886176350705e7 0.0
0.0 0.0 0.0

-6.7321608077513315e6 2.883687698881093e7 0.0
2.883687698881093e7 1.0259411471533915e7 0.0
0.0 0.0 0.0

4.51743335723372e6 2.7225262247604553e7 0.0
2.7225262247604553e7 -8.79458511421476e6 0.0
0.0 0.0 0.0

-4.058076122045094e6 2.1061060069149274e7 0.0
2.1061060069149274e7 3.0012868377477698e7 0.0
0.0 0.0 0.0

-8.329126636560891e6 1.1865076705049688e6 0.0
1.1865076705049688e6 3.636554522343948e7 0.0
0.0 0.0 0.0

1.3388266729940623e6 3.481011014186181e7 0.0
3.481011014186181e7 -3.8159965646935287e6 0.0
0.0 0.0 0.0

522317.44947169535 1.1739325110524833e7 0.0
1.1739325110524833e7 -4.1306716129564665e7 0.0
0.0 0.0 0.0

5.901037532779231e6 3.2299959885502733e7 0.0
3.2299959885502733e7 -7.074624000733569e6 0.0
0.0 0.0 0.0

1.7152101015474014e6 7.476686746832062e6 0.0
7.476686746832062e6 -4.710484426778946e7 0.0
0.0 0.0 0.0

7.959653807586471e6 2.1401807491301917e7 0.0
2.1401807491301917e7 2.360563925237534e7 0.0
0.0 0.0 0.0

240432.38840848813 2.5684022452550143e7 0.0
2.5684022452550143e7 -1.1398515776895776e7 0.0
0.0 0.0 0.0

-1.0982077079004943e7 5.345122706736013e6 0.0
5.345122706736013e6 2.185696014165102e7 0.0
0.0 0.0 0.0

-3.832340595178727e6 1.9490562604616713e7 0.0
1.9490562604616713e7 -1.1371226969332712e7 0.0
0.0 0.0 0.0

1.9981116651068404e6 5.322110982193433e6 0.0
5.322110982193433e6 -4.820303262509353e7 0.0
0.0 0.0 0.0

2.0315990444529146e7 3.251702030019028e7 0.0
3.251702030019028e7 -3.8914266864083167e6 0.0
0.0 0.0 0.0

1.6995310415268494e6 8.375373447830187e6 0.0
8.375373447830187e6 -2.1889596881716773e7 0.0
0.0 0.0 0.0

-1.0835400411002165e7 9.933248749370357e6 0.0
9.933248749370357e6 2.644508866834615e7 0.0
0.0 0.0 0.0

-3.771392796014915e6 3.412248671797636e7 0.0
3.412248671797636e7 3.7292473263104176e6 0.0
0.0 0.0 0.0

-2.714073556642402e6 1.5746276855492566e7 0.0
1.5746276855492566e7 -5.1628422111984625e7 0.0
0.0 0.0 0.0

-5.993953690471998e6 1.942048145512984e7 0.0
1.942048145512984e7 -1.9979845360945567e7 0.0
0.0 0.0 0.0

5.679986199945339e6 1.9786150310964264e7 0.0
1.9786150310964264e7 1.8933287698384438e7 0.0
0.0 0.0 0.0

-2.363369356968658e6 1.5863168874759836e7 0.0
1.5863168874759836e7 4.145205920623619e6 0.0
0.0 0.0 0.0

-4.30506493625649e6 1.8221702053743355e7 0.0
1.8221702053743355e7 1.1948847390734568e7 0.0
0.0 0.0 0.0

4.215728685605372e6 2.2367536442352775e7 0.0
2.2367536442352775e7 2.5197753348202035e7 0.0
0.0 0.0 0.0

-9.081612948049242e6 2.864477982110747e6 0.0
2.864477982110747e6 3.1684126477567546e7 0.0
0.0 0.0 0.0

3.3983014474588e6 2.5090146780740287e7 0.0
2.5090146780740287e7 6.52256927468575e6 0.0
0.0 0.0 0.0

-3.5890396279620603e6 2.6573283360103898e7 0.0
2.6573283360103898e7 1.485873169201044e7 0.0
0.0 0.0 0.0

1.564946804273082e6 8.608660772877079e6 0.0
8.608660772877079e6 -1.9324823492850848e7 0.0
0.0 0.0 0.0

-9.965696626924902e6 6.484203478054628e6 0.0
6.484203478054628e6 3.362145666518692e7 0.0
0.0 0.0 0.0

-8.913720791328574e6 2.5863800957275547e7 0.0
2.5863800957275547e7 -1.0884421647948029e7 0.0
0.0 0.0 0.0

-4.574227139559412e6 2.1655353772546478e7 0.0
2.1655353772546478e7 2.8275667997840296e7 0.0
0.0 0.0 0.0

1.1031985370836752e6 2.346241620602958e7 0.0
2.346241620602958e7 2.0162478559307948e7 0.0
0.0 0.0 0.0

-9.155797468984436e6 1.077549133906051e7 0.0
1.077549133906051e7 3.489015417467024e7 0.0
0.0 0.0 0.0

3.722754938361872e6 2.661893290977022e7 0.0
2.661893290977022e7 -1.1529511527438344e7 0.0
0.0 0.0 0.0

-7.191500800261713e6 3.2738581158076894e7 0.0
3.2738581158076894e7 7.76206550083174e6 0.0
0.0 0.0 0.0

-6.165692419916678e6 1.1944440421875361e7 0.0
1.1944440421875361e7 4.971183754793766e7 0.0
0.0 0.0 0.0

-8.073076326621888e6 1.5539356726158071e7 0.0
1.5539356726158071e7 1.886300176885789e7 0.0
0.0 0.0 0.0

-7.73191226162513e6 5.466057685788082e6 0.0
5.466057685788082e6 4.862047292534807e7 0.0
0.0 0.0 0.0

591586.1757487347 2.0769376729862258e7 0.0
2.0769376729862258e7 -2.2394155683177695e7 0.0
0.0 0.0 0.0

-6.067534093501755e6 2.90458582373631e7 0.0
2.90458582373631e7 1.1192686352599367e7 0.0
0.0 0.0 0.0

-3.5476533785900194e6 2.4238356250989888e7 0.0
2.4238356250989888e7 -1.6834838990619439e6 0.0
0.0 0.0 0.0

2.4065355272118356e6 9.687495261841763e6 0.0
9.687495261841763e6 -2.3913619315958586e7 0.0
0.0 0.0 0.0

-7.980342572970221e6 1.9366121676146016e6 0.0
1.9366121676146016e6 4.039618849450832e7 0.0
0.0 0.0 0.0

353261.4595644027 1.833332535371891e7 0.0
1.833332535371891e7 5.645344058366188e7 0.0
0.0 0.0 0.0

-3.8485521503775753e6 1.4704265307556905e7 0.0
1.4704265307556905e7 5.400044162217936e7 0.0
0.0 0.0 0.0

3.204053169073078e6 2.334776115752955e7 0.0
2.334776115752955e7 1.3759677354157025e7 0.0
0.0 0.0 0.0

-1.0068535304182183e7 9.328219017698962e6 0.0
9.328219017698962e6 3.2929354149835218e7 0.0
0.0 0.0 0.0

-3.2997711378366323e6 1.741312951297144e7 0.0
1.741312951297144e7 1.3464489489870125e7 0.0
0.0 0.0 0.0

-435472.2453124863 2.425181489035682e7 0.0
2.425181489035682e7 -6.790223075317739e6 0.0
0.0 0.0 0.0

371630.8380912654 1.8637220459184326e7 0.0
1.8637220459184326e7 -1.9059268101101004e7 0.0
0.0 0.0 0.0

-3.812988406294274e6 2.6572819042271584e7 0.0
2.6572819042271584e7 1.6052094127090987e7 0.0
0.0 0.0 0.0

-5.718881551598549e6 3.8155207858438715e7 0.0
3.8155207858438715e7 4.758154233719683e6 0.0
0.0 0.0 0.0

-6.593730671884717e6 1.5610060516301941e7 0.0
1.5610060516301941e7 4.127098833751884e7 0.0
0.0 0.0 0.0

1.1946706242938645e7 1.9123300001489893e7 0.0
1.9123300001489893e7 4.266274343423444e7 0.0
0.0 0.0 0.0

60157.49901746446 2.4271945861570228e7 0.0
2.4271945861570228e7 -1.0320346665641801e7 0.0
0.0 0.0 0.0

1.766625050212158e6 1.300995754918283e7 0.0
1.300995754918283e7 -3.1191968775809586e7 0.0
0.0 0.0 0.0

1.5582590396475121e6 2.9505160429317714e6 0.0
2.9505160429317714e6 -5.201484888383681e7 0.0
0.0 0.0 0.0

-7.72163020462862e6 2.047799967868403e6 0.0
2.047799967868403e6 4.528550315105316e7 0.0
0.0 0.0 0.0

-3.3402631218273323e6 2.6485983260558948e7 0.0
2.6485983260558948e7 1.4688783154976223e7 0.0
0.0 0.0 0.0

761982.4761727406 1.892150543758344e7 0.0
1.892150543758344e7 1.9023900383377697e7 0.0
0.0 0.0 0.0

4.22456521007061e6 1.8864657503501143e7 0.0
1.8864657503501143e7 7.987515654573812e7 0.0
0.0 0.0 0.0

53895.67564207222 1.7646642507085364e7 0.0
1.7646642507085364e7 -1.752226619513339e7 0.0
0.0 0.0 0.0

9.396863984777475e6 1.998580832943131e7 0.0
1.998580832943131e7 3.1322880340634994e7 0.0
0.0 0.0 0.0

-9.342007484704524e6 2.4938943233204405e6 0.0
2.4938943233204405e6 3.3809725954122536e7 0.0
0.0 0.0 0.0

-2.6001736325865656e7 3.0617579929625164e6 0.0
3.0617579929625164e6 7.36044122944865e6 0.0
0.0 0.0 0.0

1.0631856964656059e6 1.0934577492016584e7 0.0
1.0934577492016584e7 -3.7529859155424714e7 0.0
0.0 0.0 0.0

-1.0607475812812084e7 7.415883159224103e6 0.0
7.415883159224103e6 2.897170809333416e7 0.0
0.0 0.0 0.0

169311.06624404155 1.264117517311116e7 0.0
1.264117517311116e7 -4.177005219501142e7 0.0
0.0 0.0 0.0

-3.2300990806256086e6 1.888906086772649e7 0.0
1.888906086772649e7 4.0925677462599225e7 0.0
0.0 0.0 0.0

2.7741235850784425e6 3.3089738855466694e6 0.0
3.3089738855466694e6 -3.2212287764842905e7 0.0
0.0 0.0 0.0

1.6833099060552515e7 3.374868821835568e7 0.0
3.374868821835568e7 -4.878318357951204e6 0.0
0.0 0.0 0.0

-1.8698728714584068e6 1.7297026760598063e7 0.0
1.7297026760598063e7 389747.2286326422 0.0
0.0 0.0 0.0

675599.2061754242 7.472421077243139e6 0.0
7.472421077243139e6 -3.9008346453979416e6 0.0
0.0 0.0 0.0

4.137286229365408e7 6.753661554355535e6 0.0
6.753661554355535e6 -957605.3168471772 0.0
0.0 0.0 0.0

-1.5893170039373096e6 1.9481489280113097e7 0.0
1.9481489280113097e7 4.2758259082315445e7 0.0
0.0 0.0 0.0

-1.546189577658527e6 1.2436761546833357e7 0.0
1.2436761546833357e7 -6.525319475171987e6 0.0
0.0 0.0 0.0

-8.337764317354806e6 6.962711497088857e6 0.0
6.962711497088857e6 4.5729093939402744e7 0.0
0.0 0.0 0.0

1.585172775531991e6 5.960220467828388e6 0.0
5.960220467828388e6 -1.1485887466607595e7 0.0
0.0 0.0 0.0

-7.782973947826855e6 2.541581351913984e7 0.0
2.541581351913984e7 -8.0508963560614055e6 0.0
0.0 0.0 0.0

-3.0150575218792e6 2.406166815758405e7 0.0
2.406166815758405e7 2.00023130950678e7 0.0
0.0 0.0 0.0

-9.811277348783424e6 1.1429520809124492e7 0.0
1.1429520809124492e7 2.843715325946116e7 0.0
0.0 0.0 0.0

1.222302324826302e6 9.227681900290981e6 0.0
9.227681900290981e6 -3.88314863476354e7 0.0
0.0 0.0 0.0

-8.717327489223607e6 1.8960771816952735e7 0.0
1.8960771816952735e7 -4.915579774048099e7 0.0
0.0 0.0 0.0

-8.908423543970946e6 8.582618247129539e6 0.0
8.582618247129539e6 1.1816210538030311e7 0.0
0.0 0.0 0.0

2.3505538382082563e6 3.564990609207748e6 0.0
3.564990609207748e6 -2.9232535074775383e7 0.0
0.0 0.0 0.0

96777.81587104127 2.1790712339280274e7 0.0
2.1790712339280274e7 -1.6053455818415657e7 0.0
0.0 0.0 0.0

2.6746012379875682e7 2.708788854605727e7 0.0
2.708788854605727e7 1.0959804906095758e7 0.0
0.0 0.0 0.0

1.6245528938983344e6 6.522512478216905e6 0.0
6.522512478216905e6 -5.263095889961834e7 0.0
0.0 0.0 0.0

-1.3396546550343689e7 1.1301370528121025e6 0.0
1.1301370528121025e6 6.674461382698426e6 0.0
0.0 0.0 0.0

-4.002767236468861e6 2.1947168031593706e7 0.0
2.1947168031593706e7 2.5910392538341846e7 0.0
0.0 0.0 0.0

-2.5677412400600733e6 1.086555163100756e7 0.0
1.086555163100756e7 4.515666129529621e6 0.0
0.0 0.0 0.0

-9.664645361973455e6 1.0444635639647698e7 0.0
1.0444635639647698e7 3.120965105109802e7 0.0
0.0 0.0 0.0

1.1609150599629506e6 7.063788704644257e6 0.0
7.063788704644257e6 -6.092300751236512e7 0.0
0.0 0.0 0.0

1.364328542613061e7 2.0791927063822847e7 0.0
2.0791927063822847e7 4.547761868509822e7 0.0
0.0 0.0 0.0

1.3490405242748383e7 2.778410332718293e7 0.0
2.778410332718293e7 1.5353972464596694e7 0.0
0.0 0.0 0.0

-7.3179657796029e6 2.1073708214250624e7 0.0
2.1073708214250624e7 -2.8944717725714788e7 0.0
0.0 0.0 0.0

-380371.99403301533 1.6080725029050197e7 0.0
1.6080725029050197e7 -1.4662559435597904e7 0.0
0.0 0.0 0.0

-2.9365236359463697e6 2.499682480081594e7 0.0
2.499682480081594e7 1.847082768286381e7 0.0
0.0 0.0 0.0

1.4122765784003528e7 2.53959371715484e7 0.0
2.53959371715484e7 2.0131696530860509e6 0.0
0.0 0.0 0.0

840692.3309453074 1.2541254984763332e7 0.0
1.2541254984763332e7 -3.6161978363060825e7 0.0
0.0 0.0 0.0

2.8385337344424333e6 3.749983863613356e7 0.0
3.749983863613356e7 -3.6700869570075655e6 0.0
0.0 0.0 0.0

268261.1326548094 2.188431528707507e7 0.0
2.188431528707507e7 5.134747954208202e6 0.0
0.0 0.0 0.0

-8.343398206047073e7 7.984802080204213e6 0.0
7.984802080204213e6 2.3727600543332584e6 0.0
0.0 0.0 0.0

7.354855777085744e7 8.71729637171306e6 0.0
8.71729637171306e6 321652.0953204669 0.0
0.0 0.0 0.0

6.463054706446502e6 2.5306121000105515e7 0.0
2.5306121000105515e7 1.1333433050049946e7 0.0
0.0 0.0 0.0

-3.727914523864355e6 1.0064673302504571e7 0.0
1.0064673302504571e7 3.213957587335083e7 0.0
0.0 0.0 0.0

2.3741440532977795e6 2.299154489599436e7 0.0
2.299154489599436e7 2.0751560453203723e7 0.0
0.0 0.0 0.0

4.502686243342546e6 3.071250121923203e7 0.0
3.071250121923203e7 -8.52538365104771e6 0.0
0.0 0.0 0.0

6.285453221374397e6 2.296352325448104e7 0.0
2.296352325448104e7 2.0951511321248546e7 0.0
0.0 0.0 0.0

-9.995543657103037e6 1.0473393775947371e7 0.0
1.0473393775947371e7 2.750187829778945e7 0.0
0.0 0.0 0.0

-2.174894227341919e6 2.473341503160878e7 0.0
2.473341503160878e7 1.2951481869794142e7 0.0
0.0 0.0 0.0

-5.875715291010291e7 4.2328608879780725e7 0.0
4.2328608879780725e7 -1.555383521310973e7 0.0
0.0 0.0 0.0

1.8821383877008166e6 4.264418852597455e6 0.0
4.264418852597455e6 -3.662275040695094e7 0.0
0.0 0.0 0.0

-4.524067333604134e6 2.4504033300664954e7 0.0
2.4504033300664954e7 -4.72134250575549e6 0.0
0.0 0.0 0.0

1.2961752866765454e7 1.9378106185333412e7 0.0
1.9378106185333412e7 4.8013648088664845e7 0.0
0.0 0.0 0.0

-8.756373204859834e6 1.9283373886044476e7 0.0
1.9283373886044476e7 -2.9187910568776555e7 0.0
0.0 0.0 0.0

8.153555657778567e6 1.9823997530306764e7 0.0
1.9823997530306764e7 2.7178519824859865e7 0.0
0.0 0.0 0.0

-2.2363789456804264e6 1.6100913092046546e7 0.0
1.6100913092046546e7 -4.8433839646418445e7 0.0
0.0 0.0 0.0

-8.819252043097109e6 3.854580642641857e6 0.0
3.854580642641857e6 3.554486657612377e7 0.0
0.0 0.0 0.0

-2.1370372368136764e7 3.614338924535707e7 0.0
3.614338924535707e7 5.888269443078075e6 0.0
0.0 0.0 0.0

1.6238393014689563e6 9.059313951195799e6 0.0
9.059313951195799e6 -2.295178800065419e7 0.0
0.0 0.0 0.0

-1.877838029260423e6 1.9906288438236926e7 0.0
1.9906288438236926e7 4.018954044002302e7 0.0
0.0 0.0 0.0

-1.1082880022949908e7 7.820233071078458e6 0.0
7.820233071078458e6 2.400803758960005e7 0.0
0.0 0.0 0.0

-6.36962263644545e6 3.697354786454363e7 0.0
3.697354786454363e7 5.443535229672389e6 0.0
0.0 0.0 0.0

-1.4955493358544823e7 4.200944274392609e7 0.0
4.200944274392609e7 6.194598483758941e6 0.0
0.0 0.0 0.0

-1.35617362107307e7 1.2775049058396092e6 0.0
1.2775049058396092e6 6.403235639779495e6 0.0
0.0 0.0 0.0

-4.044055511468356e6 2.079540358395784e7 0.0
2.079540358395784e7 -1.3830899129770601e7 0.0
0.0 0.0 0.0

3.6124567821186427e6 2.9918974285058785e7 0.0
2.9918974285058785e7 -8.788655938948123e6 0.0
0.0 0.0 0.0

-1.0570550147347419e7 4.484767896722415e6 0.0
4.484767896722415e6 1.4735732289454542e7 0.0
0.0 0.0 0.0

1.3664746795675721e7 3.445320114829613e7 0.0
3.445320114829613e7 -5.525701966287491e6 0.0
0.0 0.0 0.0

-1.1010028680540191e7 8.931671178454444e6 0.0
8.931671178454444e6 2.530431014322236e7 0.0
0.0 0.0 0.0

1.5453764378886968e6 4.801765620071004e6 0.0
4.801765620071004e6 -4.304393322351479e7 0.0
0.0 0.0 0.0

1.717236824763259e6 5.891768736581792e6 0.0
5.891768736581792e6 -3.827873808368732e7 0.0
0.0 0.0 0.0

438364.4205998983 1.5745674724504335e7 0.0
1.5745674724504335e7 -1.9501821125281252e7 0.0
0.0 0.0 0.0

3.1673864930130895e6 2.6442320662603624e7 0.0
2.6442320662603624e7 -1.2637227656194033e7 0.0
0.0 0.0 0.0

1.1757567291290686e6 6.251491095751591e6 0.0
6.251491095751591e6 -6.470337839285971e7 0.0
0.0 0.0 0.0

-8.320549127841246e6 2.684047782310346e7 0.0
2.684047782310346e7 -1.5936055051091302e7 0.0
0.0 0.0 0.0

388130.13063001446 1.8182393906501867e7 0.0
1.8182393906501867e7 -2.76405106875386e7 0.0
0.0 0.0 0.0

-5.464751252695508e6 2.0495409668597437e7 0.0
2.0495409668597437e7 3.0079098442696527e7 0.0
0.0 0.0 0.0

-7.999763668971237e6 2.6461557497032154e7 0.0
2.6461557497032154e7 -1.4620017618355494e7 0.0
0.0 0.0 0.0

1.6312273807861432e6 1.212518182538219e7 0.0
1.212518182538219e7 -3.551070007478175e7 0.0
0.0 0.0 0.0

-3.9192820863069944e7 2.8675367820911657e7 0.0
2.8675367820911657e7 1.8197191245366223e6 0.0
0.0 0.0 0.0

1.498857106727101e6 3.8463577848811066e6 0.0
3.8463577848811066e6 -4.508994126668641e7 0.0
0.0 0.0 0.0

2.3901988378000855e6 6.096355653189697e6 0.0
6.096355653189697e6 -3.823399373139901e7 0.0
0.0 0.0 0.0

1.6048340641764058e6 2.3946362642115172e7 0.0
2.3946362642115172e7 -1.64874100579196e7 0.0
0.0 0.0 0.0

-1.8203304466883305e7 1.4837129997021877e6 0.0
1.4837129997021877e6 7.496636001014827e6 0.0
0.0 0.0 0.0

1.2669240446168426e6 1.2112859454914307e7 0.0
1.2112859454914307e7 -1.3491288640255408e7 0.0
0.0 0.0 0.0

1.8314187738146503e6 2.034772824884704e7 0.0
2.034772824884704e7 2.4312064784689374e7 0.0
0.0 0.0 0.0

-4.555221874627251e6 3.541015346420609e7 0.0
3.541015346420609e7 5.442682114457481e6 0.0
0.0 0.0 0.0

-7.715901778844653e6 3.761019880422844e7 0.0
3.761019880422844e7 5.655983549595535e6 0.0
0.0 0.0 0.0

-1.0671521533023857e7 1.1596962439088563e7 0.0
1.1596962439088563e7 2.5403104592740282e7 0.0
0.0 0.0 0.0

755983.5661095344 1.5679407311884288e7 0.0
1.5679407311884288e7 7.444587780068873e7 0.0
0.0 0.0 0.0

-2.8650051228834027e6 3.6310667751069315e7 0.0
3.6310667751069315e7 3.6818620775968116e6 0.0
0.0 0.0 0.0

-5.49972831404056e6 2.495207133519145e7 0.0
2.495207133519145e7 -1.987756930211734e6 0.0
0.0 0.0 0.0

-13528.716673719231 2.4021843252590388e7 0.0
2.4021843252590388e7 -5.245181496722093e6 0.0
0.0 0.0 0.0

4.823375565960758e7 2.9774418205370013e7 0.0
2.9774418205370013e7 1.9256002860981584e7 0.0
0.0 0.0 0.0

-9.458623210398296e6 1.2810961715236945e7 0.0
1.2810961715236945e7 2.7187478836026523e7 0.0
0.0 0.0 0.0

2.342753504461147e6 4.2008935093804095e6 0.0
4.2008935093804095e6 -4.215495474563609e7 0.0
0.0 0.0 0.0

941240.1275818348 2.264260715176029e7 0.0
2.264260715176029e7 -1.4704362643037237e7 0.0
0.0 0.0 0.0

-2.1138057553029736e6 1.874760535065667e7 0.0
1.874760535065667e7 3.936745537444623e6 0.0
0.0 0.0 0.0

-1.5265852753100898e7 2.225090399935531e7 0.0
2.225090399935531e7 -1.6258925111618387e6 0.0
0.0 0.0 0.0

-7.800356361417796e6 3.528450175955779e6 0.0
3.528450175955779e6 4.329220209871715e7 0.0
0.0 0.0 0.0

-9.403130838361101e7 5.639115482563954e7 0.0
5.639115482563954e7 -2.3911414393384557e7 0.0
0.0 0.0 0.0

-1.3214211059351197e7 1.9606577066819716e7 0.0
1.9606577066819716e7 -4.404737117545462e7 0.0
0.0 0.0 0.0

1.2122910532917345e7 2.0396742541031048e7 0.0
2.0396742541031048e7 4.0409702831796914e7 0.0
0.0 0.0 0.0

241370.83090315387 1.6869006530247383e7 0.0
1.6869006530247383e7 -3.1543792173249662e7 0.0
0.0 0.0 0.0

-1.7421278782234125e7 2.785111202307145e7 0.0
2.785111202307145e7 -9.223256957773406e6 0.0
0.0 0.0 0.0

2.3018486553262584e6 9.978275098800274e6 0.0
9.978275098800274e6 -2.144933270687016e7 0.0
0.0 0.0 0.0

1.8609756391274761e6 1.0448120774646133e7 0.0
1.0448120774646133e7 -3.676845697850277e7 0.0
0.0 0.0 0.0

-3.281126663154617e6 2.327969409666941e7 0.0
2.327969409666941e7 2.2039192487556703e7 0.0
0.0 0.0 0.0

845814.1365420427 1.3325048329897303e7 0.0
1.3325048329897303e7 -3.420126172828887e7 0.0
0.0 0.0 0.0

-5.288508306874856e6 3.620987538992179e7 0.0
3.620987538992179e7 5.451739146220087e6 0.0
0.0 0.0 0.0

-9.011766882861564e6 9.115191663876254e6 0.0
9.115191663876254e6 4.008687600069812e7 0.0
0.0 0.0 0.0

-8.543702308179155e6 1.582917337445027e6 0.0
1.582917337445027e6 3.349903040903429e7 0.0
0.0 0.0 0.0

1.4112020274208765e6 8.371625785217854e6 0.0
8.371625785217854e6 -3.803433875396887e7 0.0
0.0 0.0 0.0

-1.6582209941840544e7 2.7176282242738012e7 0.0
2.7176282242738012e7 -1.2862796464839205e7 0.0
0.0 0.0 0.0

8.078268849473797e6 4.087748097180091e7 0.0
4.087748097180091e7 -4.739887394355029e6 0.0
0.0 0.0 0.0

-4.849491937482411e6 2.0971314677940458e7 0.0
2.0971314677940458e7 2.7468505930258173e7 0.0
0.0 0.0 0.0

1.4257918194007333e6 6.557923747537313e6 0.0
6.557923747537313e6 -4.193618683256086e7 0.0
0.0 0.0 0.0

1.2175554056267254e6 6.958037670826212e6 0.0
6.958037670826212e6 -5.646710479618733e7 0.0
0.0 0.0 0.0

-2.5446271603414714e6 1.456424525318798e7 0.0
1.456424525318798e7 6.137332741304592e7 0.0
0.0 0.0 0.0

-8.476708069056429e6 9.32241173209918e6 0.0
9.32241173209918e6 4.07774307767512e7 0.0
0.0 0.0 0.0

1.1236819835225526e7 3.4634188308930345e7 0.0
3.4634188308930345e7 -5.906683349380882e6 0.0
0.0 0.0 0.0

-653755.9882133871 2.7653016992009506e7 0.0
2.7653016992009506e7 -2.328152922975476e6 0.0
0.0 0.0 0.0

-7.561361458894528e6 7.132653957555814e6 0.0
7.132653957555814e6 4.671419477212038e7 0.0
0.0 0.0 0.0

2.302254611511728e6 5.070413919325278e6 0.0
5.070413919325278e6 -2.2683296688261673e7 0.0
0.0 0.0 0.0

-2.115120178865421e6 2.7565522374316305e7 0.0
2.7565522374316305e7 1.2625504633540758e6 0.0
0.0 0.0 0.0

-2.3418047388925627e7 2.8039652800946355e7 0.0
2.8039652800946355e7 -1.1120468371791963e7 0.0
0.0 0.0 0.0

-9.447179591463283e6 1.3740090042592704e7 0.0
1.3740090042592704e7 1.9405193826128457e7 0.0
0.0 0.0 0.0

2.210958888798043e6 5.971181037585745e6 0.0
5.971181037585745e6 -4.1055163694598526e7 0.0
0.0 0.0 0.0

969682.9095984511 1.3358681635173691e7 0.0
1.3358681635173691e7 -3.175886194291211e7 0.0
0.0 0.0 0.0

-1.0603757916288774e7 3.3471586400691285e6 0.0
3.3471586400691285e6 2.306960346952949e7 0.0
0.0 0.0 0.0

-9.063387281858543e6 1.232545257197535e7 0.0
1.232545257197535e7 3.322705271611613e7 0.0
0.0 0.0 0.0

-2.0373123851926383e6 1.64041322602044e7 0.0
1.64041322602044e7 -4.501127928161411e7 0.0
0.0 0.0 0.0

2.4891603898927104e6 5.291037627460659e6 0.0
5.291037627460659e6 -3.739080092795975e7 0.0
0.0 0.0 0.0

-1.2941973332276577e6 2.7401737709547643e7 0.0
2.7401737709547643e7 -4.39564558164969e6 0.0
0.0 0.0 0.0

2.0949992458476946e6 8.685480276141502e6 0.0
8.685480276141502e6 -3.797894937354453e7 0.0
0.0 0.0 0.0

-9.903180967050906e6 5.163334486684413e6 0.0
5.163334486684413e6 2.5557419388649456e7 0.0
0.0 0.0 0.0

-1.9057079130472556e7 2.1390584866422787e7 0.0
2.1390584866422787e7 -6.3523600530953966e7 0.0
0.0 0.0 0.0

1.754082741269313e7 2.2238244565700233e7 0.0
2.2238244565700233e7 5.8469427231117025e7 0.0
0.0 0.0 0.0

1.3013249603470024e6 2.4303300136854228e7 0.0
2.4303300136854228e7 1.8766646441589817e6 0.0
0.0 0.0 0.0

-2.9445443934716873e7 3.7512106456690645e6 0.0
3.7512106456690645e6 6.443567848755462e6 0.0
0.0 0.0 0.0

-9.36301416149665e6 1.8663816881874069e6 0.0
1.8663816881874069e6 2.5722359444840997e7 0.0
0.0 0.0 0.0

7.722460377567699e6 2.2545892058088258e7 0.0
2.2545892058088258e7 2.5741531142231643e7 0.0
0.0 0.0 0.0

-7.08812674914292e6 2.193190997961297e7 0.0
2.193190997961297e7 -2.3627085857691623e7 0.0
0.0 0.0 0.0

1.389744559766218e6 1.594234021327111e7 0.0
1.594234021327111e7 8.105702799089111e7 0.0
0.0 0.0 0.0

1.428338490607895e6 7.494906658104013e6 0.0
7.494906658104013e6 -3.9987677154782124e7 0.0
0.0 0.0 0.0

3.3052602340926724e6 2.9032349217372116e7 0.0
2.9032349217372116e7 -1.0131552087018196e7 0.0
0.0 0.0 0.0

-1.0400294887566227e7 1.931517376479593e7 0.0
1.931517376479593e7 -4.7724881048486404e7 0.0
0.0 0.0 0.0

-4.527242952578644e6 3.414290330279563e7 0.0
3.414290330279563e7 4.817931252988009e6 0.0
0.0 0.0 0.0

-4.872806070042608e6 2.682210111426206e7 0.0
2.682210111426206e7 9.519781196981315e6 0.0
0.0 0.0 0.0

2.277165187354114e6 3.475748400318419e7 0.0
3.475748400318419e7 -4.665380892095873e6 0.0
0.0 0.0 0.0

-1.731614262540215e7 1.9369097851321824e7 0.0
1.9369097851321824e7 -6.671256264642183e7 0.0
0.0 0.0 0.0

9.211833031633902e6 3.456050528005269e7 0.0
3.456050528005269e7 -6.146627133668733e6 0.0
0.0 0.0 0.0

-3.91992036852335e6 1.9309416859846793e7 0.0
1.9309416859846793e7 3.847528480709256e7 0.0
0.0 0.0 0.0

1.3648363405902637e6 1.060256669164191e7 0.0
1.060256669164191e7 -2.2449672813018378e7 0.0
0.0 0.0 0.0

1.5707374360634927e6 6.676786007996467e6 0.0
6.676786007996467e6 -3.913402181996222e7 0.0
0.0 0.0 0.0

3.3769822708624466e6 2.762025505650226e7 0.0
2.762025505650226e7 -1.151727854241455e7 0.0
0.0 0.0 0.0

-2.0357226019497549e6 1.882616189602873e7 0.0
1.882616189602873e7 -6.820047438792674e6 0.0
0.0 0.0 0.0

542123.800345296 1.0778115019145867e7 0.0
1.0778115019145867e7 -4.368532293103344e7 0.0
0.0 0.0 0.0

-3.6126428298798357e6 3.234046055027923e7 0.0
3.234046055027923e7 5.9585472593001565e6 0.0
0.0 0.0 0.0

-1.730194536245028e6 2.1363739048665684e7 0.0
2.1363739048665684e7 710689.2910196524 0.0
0.0 0.0 0.0

807976.0869333493 1.849885884358233e7 0.0
1.849885884358233e7 -1.623268585416209e7 0.0
0.0 0.0 0.0

-1419.7051009144634 1.4378884167700179e7 0.0
1.4378884167700179e7 -4.202676292427364e7 0.0
0.0 0.0 0.0

6.210621672821905e6 3.378320222983975e7 0.0
3.378320222983975e7 -6.547791617221908e6 0.0
0.0 0.0 0.0

742124.416932648 2.1027937201001618e7 0.0
2.1027937201001618e7 -1.4821473563462125e7 0.0
0.0 0.0 0.0

-2.6917388912924244e6 1.979757932994755e7 0.0
1.979757932994755e7 -7.225058309792143e6 0.0
0.0 0.0 0.0

3.6262641848738216e7 6.143780847588932e6 0.0
6.143780847588932e6 -1.5216918304633573e6 0.0
0.0 0.0 0.0

-1.942602658582978e6 2.2408462492789727e7 0.0
2.2408462492789727e7 9.716340827987405e6 0.0
0.0 0.0 0.0

-8.915753379620846e6 1.2850993566482708e7 0.0
1.2850993566482708e7 2.1213074603861406e7 0.0
0.0 0.0 0.0

-8.391780886430753e6 3.381381628483305e6 0.0
3.381381628483305e6 3.83943410382656e7 0.0
0.0 0.0 0.0

2.691085083843481e6 3.6760204219751414e6 0.0
3.6760204219751414e6 -3.566706971698568e7 0.0
0.0 0.0 0.0

2.4529417501376476e6 6.828802617960197e6 0.0
6.828802617960197e6 -2.5944820372223683e7 0.0
0.0 0.0 0.0

2.6177634399214126e6 5.428219702492873e6 0.0
5.428219702492873e6 -3.462601359160008e7 0.0
0.0 0.0 0.0

-6.288411608441658e6 2.1599904401025623e7 0.0
2.1599904401025623e7 -2.706927689140917e7 0.0
0.0 0.0 0.0

7.572292046403598e6 3.424292619772812e7 0.0
3.424292619772812e7 -6.349005130092077e6 0.0
0.0 0.0 0.0

-4.090516541827321e6 1.9635539623469923e7 0.0
1.9635539623469923e7 3.574546179512103e7 0.0
0.0 0.0 0.0

-2.7295794360430767e6 2.3105578875486102e7 0.0
2.3105578875486102e7 8.490104096448096e6 0.0
0.0 0.0 0.0

1.841493851669116e6 6.067280546771202e6 0.0
6.067280546771202e6 -3.56772810074518e7 0.0
0.0 0.0 0.0

-1.1121019478189211e7 6.599057957256677e6 0.0
6.599057957256677e6 2.2966555505997077e7 0.0
0.0 0.0 0.0

-4.806052608300805e6 2.103820517550499e7 0.0
2.103820517550499e7 2.994511023751636e7 0.0
0.0 0.0 0.0

1.341415774950439e6 2.3498544237078447e7 0.0
2.3498544237078447e7 -1.7850209230171137e7 0.0
0.0 0.0 0.0

1.8564366920258864e6 2.485826708454011e7 0.0
2.485826708454011e7 -6.050504594284991e6 0.0
0.0 0.0 0.0

-4.195911342302964e6 3.361550234702221e7 0.0
3.361550234702221e7 6.3815781219341345e6 0.0
0.0 0.0 0.0

994924.8527885731 1.803551636534723e7 0.0
1.803551636534723e7 -2.7436826387663353e7 0.0
0.0 0.0 0.0

2.3677667922153827e6 7.026164201668409e6 0.0
7.026164201668409e6 -3.6422804530221775e7 0.0
0.0 0.0 0.0

1.737383704810176e6 6.822384313621135e6 0.0
6.822384313621135e6 -3.647242038856469e7 0.0
0.0 0.0 0.0

1.2589415687778387e6 9.462959623163128e6 0.0
9.462959623163128e6 -1.790246791835631e7 0.0
0.0 0.0 0.0

1.5682070040532574e6 7.57013729843939e6 0.0
7.57013729843939e6 -3.729904011871936e7 0.0
0.0 0.0 0.0

2.8132228350506965e6 5.996282524378457e6 0.0
5.996282524378457e6 -3.01531772502201e7 0.0
0.0 0.0 0.0

-1.0148360363062566e7 4.065127656668207e7 0.0
4.065127656668207e7 5.78527767226318e6 0.0
0.0 0.0 0.0

1.1365283525042158e7 3.6624678659644365e7 0.0
3.6624678659644365e7 -5.827687324549586e6 0.0
0.0 0.0 0.0

-5.666175602081366e6 2.792066563681842e7 0.0
2.792066563681842e7 9.439312258690363e6 0.0
0.0 0.0 0.0

1.896783070350483e6 6.681243448733763e6 0.0
6.681243448733763e6 -3.1257175505285826e7 0.0
0.0 0.0 0.0

-1.4010616914377913e6 2.3533132133468956e7 0.0
2.3533132133468956e7 -7.928933865591766e6 0.0
0.0 0.0 0.0

-1.5917434417318152e6 2.0620450556295518e7 0.0
2.0620450556295518e7 -340361.9158938704 0.0
0.0 0.0 0.0

-2.4895111991464242e7 2.413158946413739e7 0.0
2.413158946413739e7 -8.29837237296503e7 0.0
0.0 0.0 0.0

2.3857925101356205e7 2.5751035899252724e7 0.0
2.5751035899252724e7 7.952643616253382e7 0.0
0.0 0.0 0.0

1.6877882226847142e7 2.584900669824492e7 0.0
2.584900669824492e7 2.2782160125285946e6 0.0
0.0 0.0 0.0

2.5205739362511612e7 2.8190230694767628e7 0.0
2.8190230694767628e7 2.668001781096088e6 0.0
0.0 0.0 0.0

-718280.7286811136 7.563962932959558e6 0.0
7.563962932959558e6 -7.119270288083842e7 0.0
0.0 0.0 0.0

1.1895129417876443e6 2.1417343950409625e7 0.0
2.1417343950409625e7 -2.0612253594879977e7 0.0
0.0 0.0 0.0

610061.5287592355 2.3701173931486104e7 0.0
2.3701173931486104e7 1.709496734156281e7 0.0
0.0 0.0 0.0

-8.504978187662043e6 8.617493986597914e6 0.0
8.617493986597914e6 4.335879501141192e7 0.0
0.0 0.0 0.0

-2.9554627545604873e6 1.839285797374182e7 0.0
1.839285797374182e7 4.373583678207561e7 0.0
0.0 0.0 0.0

-3.2911446620934373e6 2.576618689437229e7 0.0
2.576618689437229e7 9.513576886959966e6 0.0
0.0 0.0 0.0

-966173.324543622 1.8276420182072658e7 0.0
1.8276420182072658e7 -5.926089926733919e6 0.0
0.0 0.0 0.0

-1.780960458972783e7 3.074068127419693e7 0.0
3.074068127419693e7 -1.5342658379265875e7 0.0
0.0 0.0 0.0

-3.007817753038169e6 2.5833499636694543e7 0.0
2.5833499636694543e7 1.6657855413035471e7 0.0
0.0 0.0 0.0

-6.485189108559949e6 1.6605609200309787e7 0.0
1.6605609200309787e7 1.7022955140759706e7 0.0
0.0 0.0 0.0

-2.1977817377594034e6 2.6881470618146714e7 0.0
2.6881470618146714e7 6.505169317501906e6 0.0
0.0 0.0 0.0

1.529378322724091e6 7.578346773321668e6 0.0
7.578346773321668e6 -5.018438385327047e7 0.0
0.0 0.0 0.0

2.6618989194602882e6 8.123063543299999e6 0.0
8.123063543299999e6 -2.4391628467461012e7 0.0
0.0 0.0 0.0

920813.6857752446 2.4056735746415846e7 0.0
2.4056735746415846e7 -1.5716449242062146e7 0.0
0.0 0.0 0.0

942019.6729809623 1.4220576407730391e7 0.0
1.4220576407730391e7 -3.006303187747533e7 0.0
0.0 0.0 0.0

-5.954457843228221e6 1.0788337899239395e7 0.0
1.0788337899239395e7 5.2609241482005686e7 0.0
0.0 0.0 0.0

-9.703750532342171e6 3.2562749038895415e6 0.0
3.2562749038895415e6 1.3278685614952708e7 0.0
0.0 0.0 0.0

-3.7810163191781677e6 9.576268141671715e6 0.0
9.576268141671715e6 6.666586863150246e7 0.0
0.0 0.0 0.0

225031.61247034278 2.295036565272162e7 0.0
2.295036565272162e7 -1.5193649717884356e7 0.0
0.0 0.0 0.0

-5.060333605557978e6 2.8310746879500695e7 0.0
2.8310746879500695e7 1.0864644403278627e7 0.0
0.0 0.0 0.0

-7.230366675478939e6 1.5417134626276948e7 0.0
1.5417134626276948e7 2.173824921118792e7 0.0
0.0 0.0 0.0

5.626174502524406e6 3.1179362303921074e7 0.0
3.1179362303921074e7 -7.9718274947640635e6 0.0
0.0 0.0 0.0

-1.0324936168971281e7 1.1446513909853399e7 0.0
1.1446513909853399e7 1.9235651131990246e7 0.0
0.0 0.0 0.0

-3.549226876789065e6 2.496105765946737e7 0.0
2.496105765946737e7 1.8418372218360934e7 0.0
0.0 0.0 0.0

3.429395911495655e7 3.475686252493079e7 0.0
3.475686252493079e7 -4.605308697628332e6 0.0
0.0 0.0 0.0

-4.962050884870661e6 2.18697953131278e7 0.0
2.18697953131278e7 2.574748108151674e7 0.0
0.0 0.0 0.0

-6.95966936204403e6 4.3854042460265225e6 0.0
4.3854042460265225e6 1.3423795045945486e7 0.0
0.0 0.0 0.0

-3.4707164086158395e7 3.776477978678011e6 0.0
3.776477978678011e6 6.695588221568933e6 0.0
0.0 0.0 0.0

1.9583282689457312e6 4.382928508396061e6 0.0
4.382928508396061e6 -3.895341596091448e7 0.0
0.0 0.0 0.0

-9.983447997003721e6 3.545168383054045e7 0.0
3.545168383054045e7 6.773608502735486e6 0.0
0.0 0.0 0.0

-1.1057738375058997e7 3.888106304840166e6 0.0
3.888106304840166e6 2.028561460640149e7 0.0
0.0 0.0 0.0

-3.307069408067609e6 1.58149322365261e7 0.0
1.58149322365261e7 1.0041219452659085e6 0.0
0.0 0.0 0.0

-9.414708872026687e6 4.780849832705978e6 0.0
4.780849832705978e6 3.561034054143016e7 0.0
0.0 0.0 0.0

715079.9543684749 2.3470544599846315e7 0.0
2.3470544599846315e7 -1.7954183217001475e7 0.0
0.0 0.0 0.0

-8.975276449899841e6 3.2091891359198107e6 0.0
3.2091891359198107e6 3.7677503029670656e7 0.0
0.0 0.0 0.0

434838.4106226284 1.8959050338160872e7 0.0
1.8959050338160872e7 -2.010567073118446e7 0.0
0.0 0.0 0.0

-3.9527455307653993e6 2.0391375915666863e7 0.0
2.0391375915666863e7 3.37096543866106e7 0.0
0.0 0.0 0.0

-9.0911599942922e6 1.4667623257544924e7 0.0
1.4667623257544924e7 2.058036168549519e7 0.0
0.0 0.0 0.0

-1.3197583900419772e6 1.905635552837724e7 0.0
1.905635552837724e7 4.554173469176914e7 0.0
0.0 0.0 0.0

-7.0291981299037e6 1.8511729587300733e7 0.0
1.8511729587300733e7 2.428820070947815e7 0.0
0.0 0.0 0.0

-2.098593678006881e6 2.8587534642336335e7 0.0
2.8587534642336335e7 1.1797202283973163e6 0.0
0.0 0.0 0.0

1.432438695585072e6 8.501886831640143e6 0.0
8.501886831640143e6 -4.775015773001512e7 0.0
0.0 0.0 0.0

-2.1190119595162887e6 2.03066709861898e7 0.0
2.03066709861898e7 3.7883043298388675e7 0.0
0.0 0.0 0.0

1.797108163487242e7 2.5742601443954207e7 0.0
2.5742601443954207e7 1.1045393594485704e7 0.0
0.0 0.0 0.0

-2.262921347900538e7 1.5055434550848225e7 0.0
1.5055434550848225e7 7.433727094163214e6 0.0
0.0 0.0 0.0

528340.8724646717 1.3304990682968592e7 0.0
1.3304990682968592e7 -4.1625542174420916e7 0.0
0.0 0.0 0.0

-5.631798279095937e6 1.6157164180403063e7 0.0
1.6157164180403063e7 1.9882500899408937e7 0.0
0.0 0.0 0.0

2.107368696016131e6 1.0866358702762337e7 0.0
1.0866358702762337e7 -2.0004740267175984e7 0.0
0.0 0.0 0.0

-9.55859265949651e6 2.456836631886138e6 0.0
2.456836631886138e6 2.2916185631012205e7 0.0
0.0 0.0 0.0

-9.518864753073147e6 1.8469773696279977e6 0.0
1.8469773696279977e6 3.0158594908736385e7 0.0
0.0 0.0 0.0

733313.3720473535 1.6545143105323952e7 0.0
1.6545143105323952e7 -2.4890427880994294e7 0.0
0.0 0.0 0.0

-1.0084040236726293e7 9.540847293081239e6 0.0
9.540847293081239e6 2.645703205178754e7 0.0
0.0 0.0 0.0

-6.172375803480193e6 2.9043149792007286e7 0.0
2.9043149792007286e7 9.341395793780137e6 0.0
0.0 0.0 0.0

9.206716462562382e6 1.8892146752045266e7 0.0
1.8892146752045266e7 8.186147521331644e6 0.0
0.0 0.0 0.0

-968064.7697429026 9.10525599222385e6 0.0
9.10525599222385e6 51836.00364824408 0.0
0.0 0.0 0.0

1.0480788952402715e6 2.375966841752172e7 0.0
2.375966841752172e7 -1.391511058793915e7 0.0
0.0 0.0 0.0

1.7652201759297568e6 8.424364878281234e6 0.0
8.424364878281234e6 -2.8073291942811072e7 0.0
0.0 0.0 0.0

2.662745689176708e6 3.376305348833965e7 0.0
3.376305348833965e7 -5.578748825331305e6 0.0
0.0 0.0 0.0

-8.065113586157169e6 1.7751646943165608e7 0.0
1.7751646943165608e7 -8.169859234963408e7 0.0
0.0 0.0 0.0

2.1164018079614453e6 5.918778155968937e6 0.0
5.918778155968937e6 -2.1081861133229993e7 0.0
0.0 0.0 0.0

2.072613557716174e6 5.840125385549177e6 0.0
5.840125385549177e6 -3.050524366310404e7 0.0
0.0 0.0 0.0

-5.333766175894706e6 2.17879944300522e7 0.0
2.17879944300522e7 -2.434961139350801e7 0.0
0.0 0.0 0.0

-1.7986193808513707e6 1.000174199685325e7 0.0
1.000174199685325e7 2.2944275917911706e6 0.0
0.0 0.0 0.0

-1.9693683673724677e7 2.02772726001971e7 0.0
2.02772726001971e7 -7.642714426345971e7 0.0
0.0 0.0 0.0

1.7440196493292195e6 9.094445756572234e6 0.0
9.094445756572234e6 -1.1588347908318209e7 0.0
0.0 0.0 0.0

2.400738437975933e6 9.313616339673853e6 0.0
9.313616339673853e6 -2.039282186713352e7 0.0
0.0 0.0 0.0

-922711.4028580115 2.3200538996008813e7 0.0
2.3200538996008813e7 -3.322967833690996e6 0.0
0.0 0.0 0.0

-5.274406571761306e6 1.5593276710608663e7 0.0
1.5593276710608663e7 4.624407858943157e7 0.0
0.0 0.0 0.0

-2.9075190150620174e6 3.5620523758547574e7 0.0
3.5620523758547574e7 1.9585152576008204e6 0.0
0.0 0.0 0.0

-1.1624208866086578e7 1.1923096942106273e7 0.0
1.1923096942106273e7 7.121998427999435e6 0.0
0.0 0.0 0.0

934538.5133822244 1.4934549419344055e7 0.0
1.4934549419344055e7 -2.8257557798951752e7 0.0
0.0 0.0 0.0

3.0502769120562198e6 2.2878908311938696e7 0.0
2.2878908311938696e7 2.4058698800674524e7 0.0
0.0 0.0 0.0

2.8176307257037093e6 3.277285383152667e7 0.0
3.277285383152667e7 -6.556500868766749e6 0.0
0.0 0.0 0.0

-929423.557206762 1.6344400186944613e7 0.0
1.6344400186944613e7 -1.1909309957272192e7 0.0
0.0 0.0 0.0

4.749041740445573e6 3.1912719988041934e7 0.0
3.1912719988041934e7 -7.671019521177022e6 0.0
0.0 0.0 0.0

492784.74183082394 1.6919778225536752e7 0.0
1.6919778225536752e7 -1.3358892366256211e7 0.0
0.0 0.0 0.0

-9.571181122686733e6 445339.23294577986 0.0
445339.23294577986 2.3744799381014712e7 0.0
0.0 0.0 0.0

440351.86377597135 2.3234830613107555e7 0.0
2.3234830613107555e7 -1.5813613050333176e7 0.0
0.0 0.0 0.0

2.0432787640098505e7 5.5057854342224285e7 0.0
5.5057854342224285e7 -7.738976448960778e6 0.0
0.0 0.0 0.0

9.285105067543063e6 2.7760656172321808e7 0.0
2.7760656172321808e7 -4.214361918302093e6 0.0
0.0 0.0 0.0

1.2191114208657816e6 2.2502433568429787e7 0.0
2.2502433568429787e7 -1.9267027926005684e7 0.0
0.0 0.0 0.0

-2.6370855207860013e6 1.778422868907074e7 0.0
1.778422868907074e7 9.563854925447244e6 0.0
0.0 0.0 0.0

-2.526373809324426e6 2.19517729873557e7 0.0
2.19517729873557e7 -275257.2619744071 0.0
0.0 0.0 0.0

2.508319642824091e6 3.1506983244082895e6 0.0
3.1506983244082895e6 -3.7733302554011054e7 0.0
0.0 0.0 0.0

2.815220771553655e6 4.248171063611425e6 0.0
4.248171063611425e6 -1.4509975534546921e7 0.0
0.0 0.0 0.0

-4.296849267406931e6 1.178834191056572e7 0.0
1.178834191056572e7 3.010486165553391e6 0.0
0.0 0.0 0.0

-1.206173644144739e7 2.6368649792961996e7 0.0
2.6368649792961996e7 -2.7738841954781907e6 0.0
0.0 0.0 0.0

2.0680994859722555e6 6.444025648783925e6 0.0
6.444025648783925e6 -2.506531444799147e7 0.0
0.0 0.0 0.0

81433.58715039585 1.9348441429521434e7 0.0
1.9348441429521434e7 -1.766888120550816e7 0.0
0.0 0.0 0.0

107760.73113625962 2.395729507104592e7 0.0
2.395729507104592e7 1.3842505256212905e7 0.0
0.0 0.0 0.0

1.7008221843340825e6 1.376431481765296e7 0.0
1.376431481765296e7 -2.9329960804413408e7 0.0
0.0 0.0 0.0

-1.0145276303969441e7 8.304118027842951e6 0.0
8.304118027842951e6 2.542369455444116e7 0.0
0.0 0.0 0.0

-3.2202384607014474e7 3.5912794800905235e7 0.0
3.5912794800905235e7 3.184670975960102e6 0.0
0.0 0.0 0.0

1.5928722913922574e6 1.2939218685524955e7 0.0
1.2939218685524955e7 -3.358292086422108e7 0.0
0.0 0.0 0.0

-6.504971208946848e7 6.403826295656808e6 0.0
6.403826295656808e6 3.63132588853075e6 0.0
0.0 0.0 0.0

1.7935836830798825e6 8.119689244260031e6 0.0
8.119689244260031e6 -2.4476605268261716e7 0.0
0.0 0.0 0.0

-2.071232766019402e6 2.2923349602688026e7 0.0
2.2923349602688026e7 2.5336157523956228e7 0.0
0.0 0.0 0.0

-1.7671711795920394e6 1.6710205604263023e7 0.0
1.6710205604263023e7 -4.233641121992752e7 0.0
0.0 0.0 0.0

-21188.69851877168 1.810666207361365e7 0.0
1.810666207361365e7 -3.166680163418322e7 0.0
0.0 0.0 0.0

-9.380447775025044e6 4.5252774893348105e6 0.0
4.5252774893348105e6 1.8790147113759194e7 0.0
0.0 0.0 0.0

-9.817628228556527e6 1.1952621674615934e7 0.0
1.1952621674615934e7 3.2441372986997593e7 0.0
0.0 0.0 0.0

-2.6978775881583397e6 1.8532667867711246e7 0.0
1.8532667867711246e7 -2.2605195008184114e6 0.0
0.0 0.0 0.0

-3.143038759162297e6 1.689301800541466e7 0.0
1.689301800541466e7 1.1705567317726431e7 0.0
0.0 0.0 0.0

-9.176841304491486e6 1.0702422301556291e7 0.0
1.0702422301556291e7 3.775417831364322e7 0.0
0.0 0.0 0.0

-1.6751804352135726e6 1.7947835457577046e7 0.0
1.7947835457577046e7 -1.2850647479199744e6 0.0
0.0 0.0 0.0

318625.30730099883 2.2129438095038615e7 0.0
2.2129438095038615e7 -1.6684817956510754e7 0.0
0.0 0.0 0.0

859996.6341077294 2.346244389401116e7 0.0
2.346244389401116e7 -1.3215634577666303e7 0.0
0.0 0.0 0.0

711530.5615973454 2.4251757954780575e7 0.0
2.4251757954780575e7 -1.4963091972072778e7 0.0
0.0 0.0 0.0

572338.2545605926 1.8118193532852598e7 0.0
1.8118193532852598e7 -2.1633130797735978e7 0.0
0.0 0.0 0.0

1.1850610115875388e6 1.0183717318954648e7 0.0
1.0183717318954648e7 -1.8943278371157527e7 0.0
0.0 0.0 0.0

-1.134887751031679e6 2.3514861955054875e7 0.0
2.3514861955054875e7 -6.665051228675919e6 0.0
0.0 0.0 0.0

-50365.4897175394 2.261960977241575e7 0.0
2.261960977241575e7 -1.4580722790919298e7 0.0
0.0 0.0 0.0

4004.884004031308 1.7190702530781407e7 0.0
1.7190702530781407e7 -1.0620686114182634e7 0.0
0.0 0.0 0.0

-9.995012204660183e6 7.05126235732167e6 0.0
7.05126235732167e6 2.4369456666319657e7 0.0
0.0 0.0 0.0

632921.0905524837 1.73566490737954e7 0.0
1.73566490737954e7 -2.3267706114145663e7 0.0
0.0 0.0 0.0

-2.1637427240687165e7 2.2595288345230043e7 0.0
2.2595288345230043e7 -7.212475737338172e7 0.0
0.0 0.0 0.0

-8.94939673521299e6 6.493967638410147e6 0.0
6.493967638410147e6 1.757889655416219e7 0.0
0.0 0.0 0.0

1.5512272305861013e6 9.70749979490614e6 0.0
9.70749979490614e6 -2.3934745143935785e7 0.0
0.0 0.0 0.0

-992500.2840433655 8.324221656057949e6 0.0
8.324221656057949e6 -5.274717607115648e6 0.0
0.0 0.0 0.0

-6.484361043178644e6 1.6720902190043025e7 0.0
1.6720902190043025e7 -7.392450849532276e7 0.0
0.0 0.0 0.0

-3.447170558769527e6 1.786990294290896e7 0.0
1.786990294290896e7 1.5226742071748538e7 0.0
0.0 0.0 0.0

2.7161269945330992e6 7.4535709882678315e6 0.0
7.4535709882678315e6 -2.3409822626441278e7 0.0
0.0 0.0 0.0

-1.0352504572779993e7 1.1700787351430353e7 0.0
1.1700787351430353e7 2.880385018978642e7 0.0
0.0 0.0 0.0

-6.250932237970907e6 3.7264400607782514e6 0.0
3.7264400607782514e6 5.544003919846821e7 0.0
0.0 0.0 0.0

431884.0437434731 2.2245147201898035e7 0.0
2.2245147201898035e7 -2.423068283272753e6 0.0
0.0 0.0 0.0

2.6005141032371256e6 1.993050551170421e7 0.0
1.993050551170421e7 6.701774923899147e6 0.0
0.0 0.0 0.0

-8.303353463065682e6 2.9401228497072604e7 0.0
2.9401228497072604e7 8.677339745045055e6 0.0
0.0 0.0 0.0

-2.515023644820962e6 2.4589778005016252e7 0.0
2.4589778005016252e7 5.23033337895097e6 0.0
0.0 0.0 0.0

2.2292452703154087e6 5.1146096622493435e6 0.0
5.1146096622493435e6 -4.300884086428584e7 0.0
0.0 0.0 0.0

2.2891373924661335e6 5.932457225483862e6 0.0
5.932457225483862e6 -4.359103524713575e7 0.0
0.0 0.0 0.0

-7.269705980255241e6 1.699359945636956e7 0.0
1.699359945636956e7 3.2604853104114678e7 0.0
0.0 0.0 0.0

283333.2911546994 2.0994321925440706e7 0.0
2.0994321925440706e7 -1.7605693352996696e7 0.0
0.0 0.0 0.0

1.1960082302008308e7 2.6269701799736816e7 0.0
2.6269701799736816e7 2.851026694183048e6 0.0
0.0 0.0 0.0

-6.113457803514034e6 5.967006502104429e6 0.0
5.967006502104429e6 6.331942245835606e7 0.0
0.0 0.0 0.0

-2.1010623843878754e6 2.1534956052912988e7 0.0
2.1534956052912988e7 1.1639236940630754e7 0.0
0.0 0.0 0.0

-1.0070645084208632e6 2.0684386616062395e7 0.0
2.0684386616062395e7 -1.1441400339156084e7 0.0
0.0 0.0 0.0

2.07518201812426e6 1.8268853848836422e7 0.0
1.8268853848836422e7 6.617012222025469e7 0.0
0.0 0.0 0.0

-851690.9636307596 5.717000949154519e6 0.0
5.717000949154519e6 1.8935802731528524e6 0.0
0.0 0.0 0.0

362863.87394797755 2.787914855264189e7 0.0
2.787914855264189e7 -8.726944239695184e6 0.0
0.0 0.0 0.0

7.004260987345096e6 2.3916547083375048e7 0.0
2.3916547083375048e7 1.982529756145586e7 0.0
0.0 0.0 0.0

2.4495623385694893e6 9.076990057451041e6 0.0
9.076990057451041e6 -2.292322384872246e7 0.0
0.0 0.0 0.0

-3.0203114841046976e6 1.6477057750494609e7 0.0
1.6477057750494609e7 -833334.4757459668 0.0
0.0 0.0 0.0

-2.4096481362652592e6 1.7336783855284907e7 0.0
1.7336783855284907e7 5.027284470004761e7 0.0
0.0 0.0 0.0

1.3298865000580885e6 1.0406869193584092e7 0.0
1.0406869193584092e7 -4.310579254192304e7 0.0
0.0 0.0 0.0

1.0742504879180621e6 2.181239101165474e7 0.0
2.181239101165474e7 -2.0882558896201354e7 0.0
0.0 0.0 0.0

-7.624917817932608e6 2.444126811315939e6 0.0
2.444126811315939e6 4.4968601082604334e7 0.0
0.0 0.0 0.0

1.0198184999667536e6 1.2218786876541227e7 0.0
1.2218786876541227e7 -4.1116330999789655e7 0.0
0.0 0.0 0.0

-74050.2302935347 1.1761199233859735e7 0.0
1.1761199233859735e7 -6.869376196480148e6 0.0
0.0 0.0 0.0

2.0721334374931864e6 9.613443265952718e6 0.0
9.613443265952718e6 -3.604059031661833e7 0.0
0.0 0.0 0.0

-69932.56704585627 1.7161126032179397e7 0.0
1.7161126032179397e7 -1.6627517070450446e7 0.0
0.0 0.0 0.0

266639.5999198323 1.979024532032345e7 0.0
1.979024532032345e7 -1.847069985453347e7 0.0
0.0 0.0 0.0

-9.452111412404303e6 9.445549691212373e6 0.0
9.445549691212373e6 3.684532111286864e7 0.0
0.0 0.0 0.0

5.26700818217863e6 2.449278959034512e7 0.0
2.449278959034512e7 6.191165283414449e6 0.0
0.0 0.0 0.0

-1.0322629542205164e7 5.795001460764414e6 0.0
5.795001460764414e6 2.3231837122858413e7 0.0
0.0 0.0 0.0

1.1079035510425083e6 1.8754717404308733e7 0.0
1.8754717404308733e7 -2.5824217618522704e7 0.0
0.0 0.0 0.0

-5.779782849038551e6 6.347971578175315e6 0.0
6.347971578175315e6 1.1708951047434488e7 0.0
0.0 0.0 0.0

304300.3272019066 5.962610173903105e6 0.0
5.962610173903105e6 -6.803651356053319e6 0.0
0.0 0.0 0.0

-64226.529048291966 1.8911002007127497e7 0.0
1.8911002007127497e7 -1.68938732656652e7 0.0
0.0 0.0 0.0

2.932261022611987e6 5.60933390350304e6 0.0
5.60933390350304e6 -2.381837087943252e7 0.0
0.0 0.0 0.0

-9.994259584313912e6 5.359082516371593e6 0.0
5.359082516371593e6 3.259948209498496e7 0.0
0.0 0.0 0.0

807784.1113467366 3.49801490093607e6 0.0
3.49801490093607e6 -6.4231623200435415e7 0.0
0.0 0.0 0.0

-1.5935698371174766e6 2.1180315718765683e7 0.0
2.1180315718765683e7 -5.311898894481651e6 0.0
0.0 0.0 0.0

-1.002565108804024e7 1.3785963055246059e7 0.0
1.3785963055246059e7 2.5334835475636635e7 0.0
0.0 0.0 0.0

-9.53334040897967e6 2.8252057944922343e7 0.0
2.8252057944922343e7 6.013820310026549e6 0.0
0.0 0.0 0.0

4.905112029224815e6 2.52430352560146e7 0.0
2.52430352560146e7 1.0975517053411586e7 0.0
0.0 0.0 0.0

-3.9073669597143084e6 2.1014526543729313e7 0.0
2.1014526543729313e7 3.180050034670903e7 0.0
0.0 0.0 0.0

-3.5851083591216123e6 2.257028010562359e7 0.0
2.257028010562359e7 2.3993885925538097e7 0.0
0.0 0.0 0.0

-7.534952443622228e6 210152.22135219703 0.0
210152.22135219703 4.496261334081711e7 0.0
0.0 0.0 0.0

-2.5063455782007757e6 1.657701989666657e7 0.0
1.657701989666657e7 6.0022864892841345e6 0.0
0.0 0.0 0.0

6.529699855921496e6 2.4067851204490703e7 0.0
2.4067851204490703e7 1.9493212932784423e7 0.0
0.0 0.0 0.0

-3.9914994015191244e6 2.649349620839598e7 0.0
2.649349620839598e7 1.3568862099832298e7 0.0
0.0 0.0 0.0

-1.0136176977518996e7 1.101972216348546e7 0.0
1.101972216348546e7 3.1396194562382255e7 0.0
0.0 0.0 0.0

464211.17315840535 1.685649645635238e7 0.0
1.685649645635238e7 -2.939715230722776e7 0.0
0.0 0.0 0.0

1.8491715859661177e6 7.704120041557293e6 0.0
7.704120041557293e6 -2.075981361898831e7 0.0
0.0 0.0 0.0

1.0356783635969348e6 2.066135297313237e7 0.0
2.066135297313237e7 -1.7075851615875307e7 0.0
0.0 0.0 0.0

-2.7457083539204933e6 1.5078103723202668e7 0.0
1.5078103723202668e7 6.213341519697053e6 0.0
0.0 0.0 0.0

2.9356633178207176e6 5.646242185202891e6 0.0
5.646242185202891e6 -1.4719724114696609e7 0.0
0.0 0.0 0.0

251558.73865088075 2.8603020623626646e7 0.0
2.8603020623626646e7 -7.44365705397141e6 0.0
0.0 0.0 0.0

-6.565250353117861e6 5.29221637957794e6 0.0
5.29221637957794e6 5.2945860734099366e7 0.0
0.0 0.0 0.0

-7.594400011661004e6 3.5021775255698776e6 0.0
3.5021775255698776e6 4.6424811719813064e7 0.0
0.0 0.0 0.0

-6.561650564130377e6 1.3768808548787225e7 0.0
1.3768808548787225e7 4.608565110247106e7 0.0
0.0 0.0 0.0

588710.6348626092 2.599245832557126e7 0.0
2.599245832557126e7 -1.2168785157085512e7 0.0
0.0 0.0 0.0

-2.897330783707476e6 9.999099823246742e6 0.0
9.999099823246742e6 -1.3744018089426458e6 0.0
0.0 0.0 0.0

2.2361396731727283e7 2.7842398420641072e7 0.0
2.7842398420641072e7 1.7745009664635126e7 0.0
0.0 0.0 0.0

1.633281183995032e7 2.400788150585499e7 0.0
2.400788150585499e7 6.515079874391136e7 0.0
0.0 0.0 0.0

2.820861273247308e6 6.917970994514475e6 0.0
6.917970994514475e6 -1.950131113207118e7 0.0
0.0 0.0 0.0

-1.0038626963625751e7 7.712759227810425e6 0.0
7.712759227810425e6 2.7847834430913478e7 0.0
0.0 0.0 0.0

-2.292422608003315e6 1.800183263975962e7 0.0
1.800183263975962e7 5.794669857863752e6 0.0
0.0 0.0 0.0

-3.572613518960501e6 2.4695379714061268e7 0.0
2.4695379714061268e7 1.8221969480617426e7 0.0
0.0 0.0 0.0

1.9053779423879385e6 6.499954298589424e6 0.0
6.499954298589424e6 -4.682644748392075e7 0.0
0.0 0.0 0.0

2.0840473276488222e6 7.722823777318331e6 0.0
7.722823777318331e6 -3.992818764324407e7 0.0
0.0 0.0 0.0

-8.172537549323935e6 7.570904968177464e6 0.0
7.570904968177464e6 9.688735514892494e6 0.0
0.0 0.0 0.0

-1.9786181752444026e6 2.2814047275987618e7 0.0
2.2814047275987618e7 1.110925122966534e7 0.0
0.0 0.0 0.0

1.8858303065251894e6 1.861655055521321e7 0.0
1.861655055521321e7 6.1523990242651485e7 0.0
0.0 0.0 0.0

1.0592096048080875e6 2.1847417120252386e7 0.0
2.1847417120252386e7 -1.6241585903628558e7 0.0
0.0 0.0 0.0

-5.3872268138790475e6 8.94721424831387e6 0.0
8.94721424831387e6 1.1795131038548334e7 0.0
0.0 0.0 0.0

2.108572864959404e6 6.777537707292432e6 0.0
6.777537707292432e6 -4.183415388988921e7 0.0
0.0 0.0 0.0

-2.9455541080905423e6 2.5512483039499126e7 0.0
2.5512483039499126e7 1.1664191056390889e7 0.0
0.0 0.0 0.0

1.608575632157337e6 9.392184104689052e6 0.0
9.392184104689052e6 -2.660124321070283e7 0.0
0.0 0.0 0.0

-8.720775298895009e6 1.0233579984264057e7 0.0
1.0233579984264057e7 -108773.9514752375 0.0
0.0 0.0 0.0

154770.39332075324 1.8100357410447318e7 0.0
1.8100357410447318e7 -1.843381565889182e7 0.0
0.0 0.0 0.0

-7.0636883597625e6 3.4797564750914443e6 0.0
3.4797564750914443e6 6.7189026737716915e6 0.0
0.0 0.0 0.0

-2.996535831358123e6 1.3482692712266844e7 0.0
1.3482692712266844e7 6.440581955137539e6 0.0
0.0 0.0 0.0

-3.1933681099940925e6 1.170160505390566e7 0.0
1.170160505390566e7 6.699030929037421e6 0.0
0.0 0.0 0.0

-207950.77952315286 1.8396386085676033e7 0.0
1.8396386085676033e7 -1.6062304076115698e7 0.0
0.0 0.0 0.0

-2.913362698780607e6 1.79323457025869e7 0.0
1.79323457025869e7 -683806.5915898768 0.0
0.0 0.0 0.0

-9.547745523943368e6 1.12553629127376e7 0.0
1.12553629127376e7 3.5081108710842654e7 0.0
0.0 0.0 0.0

-1.5416012149068639e6 1.627877276026381e7 0.0
1.627877276026381e7 5.799807050551423e7 0.0
0.0 0.0 0.0

-4.9472955020414665e6 1.3682305183613326e7 0.0
1.3682305183613326e7 5.275938221942474e7 0.0
0.0 0.0 0.0

-2.0376289581369609e6 1.6835997303827964e7 0.0
1.6835997303827964e7 5.395749230724752e7 0.0
0.0 0.0 0.0

-3.7149082376443967e6 8.919288574791327e6 0.0
8.919288574791327e6 7.797841642643511e7 0.0
0.0 0.0 0.0

-513081.101206359 2.4175727628322653e7 0.0
2.4175727628322653e7 1.065582870594195e7 0.0
0.0 0.0 0.0

-6.313968395927213e6 7.295641405405395e6 0.0
7.295641405405395e6 5.9976066087283045e7 0.0
0.0 0.0 0.0

-1.176149974144869e6 2.6643494258413516e7 0.0
2.6643494258413516e7 -5.739425394314676e6 0.0
0.0 0.0 0.0

-2.2281868120094696e6 2.3283527789822105e7 0.0
2.3283527789822105e7 -1.362036385999209e7 0.0
0.0 0.0 0.0

-6.800988083467656e7 4.231548535236757e7 0.0
4.231548535236757e7 -1.4666061766827967e7 0.0
0.0 0.0 0.0

2.4997156285508247e6 8.636180086690385e6 0.0
8.636180086690385e6 -1.92849191166416e7 0.0
0.0 0.0 0.0

1.700689415563641e6 1.4648232167416552e7 0.0
1.4648232167416552e7 -2.781926450184105e7 0.0
0.0 0.0 0.0

683780.12099694 2.884913980195673e7 0.0
2.884913980195673e7 -6.269359622166129e6 0.0
0.0 0.0 0.0

-1.5968322108614733e6 2.7034473198459614e7 0.0
2.7034473198459614e7 4.570986534197288e6 0.0
0.0 0.0 0.0

2.2269812454020586e6 8.748395655043513e6 0.0
8.748395655043513e6 -3.539285351718646e7 0.0
0.0 0.0 0.0

2.3264667671194755e7 3.0482665021569673e7 0.0
3.0482665021569673e7 -2.2517349142731605e6 0.0
0.0 0.0 0.0

-4.255219313815447e6 1.4310970798520781e7 0.0
1.4310970798520781e7 5.038848448853396e6 0.0
0.0 0.0 0.0

-259441.2410947457 6.830485865850828e6 0.0
6.830485865850828e6 -6.5606343992409654e7 0.0
0.0 0.0 0.0

-4.74026003213249e6 1.2632482092785697e7 0.0
1.2632482092785697e7 5.130697266402522e6 0.0
0.0 0.0 0.0

1.49293315092233e6 9.314087528468698e6 0.0
9.314087528468698e6 -2.038811377772991e7 0.0
0.0 0.0 0.0

-3.854666412879681e6 2.1501754662119947e7 0.0
2.1501754662119947e7 2.990481265670216e7 0.0
0.0 0.0 0.0

-4.457030920634276e7 3.56964540486108e7 0.0
3.56964540486108e7 -1.2502148775391746e6 0.0
0.0 0.0 0.0

-8.843183059581824e6 2.249030470905287e6 0.0
2.249030470905287e6 3.7058157461679645e7 0.0
0.0 0.0 0.0

1.1230980986490576e6 2.2956101247953787e7 0.0
2.2956101247953787e7 -1.5371712415394288e7 0.0
0.0 0.0 0.0

-2.0370493115800377e7 2.9914213317501657e7 0.0
2.9914213317501657e7 -1.0396388761821793e7 0.0
0.0 0.0 0.0

2.893329003833103e6 6.182159377175328e6 0.0
6.182159377175328e6 -1.8671165964544706e7 0.0
0.0 0.0 0.0

-9.527161505934292e6 1.2209576244443659e7 0.0
1.2209576244443659e7 2.9755920620699998e7 0.0
0.0 0.0 0.0

755784.360155467 1.9778497731001657e7 0.0
1.9778497731001657e7 -1.5535979114149136e7 0.0
0.0 0.0 0.0

-728435.661585825 1.8803172307419863e7 0.0
1.8803172307419863e7 -7.252971279858789e6 0.0
0.0 0.0 0.0

-3.8381828001137683e6 1.5851713451876655e7 0.0
1.5851713451876655e7 4.895167252230467e6 0.0
0.0 0.0 0.0

-7.260005106806723e6 1.2200552706349842e7 0.0
1.2200552706349842e7 4.6009138349050164e7 0.0
0.0 0.0 0.0

2.549320155376697e6 4.329706923131042e6 0.0
4.329706923131042e6 -3.9262333619061574e7 0.0
0.0 0.0 0.0

2.220339321692108e6 5.770056762827504e6 0.0
5.770056762827504e6 -2.3646722410372663e7 0.0
0.0 0.0 0.0

-2.870827332019817e6 2.5137423401400074e7 0.0
2.5137423401400074e7 1.0651643520470114e7 0.0
0.0 0.0 0.0

-1.0894832638952784e7 3.820973632941763e6 0.0
3.820973632941763e6 1.7240663378847677e7 0.0
0.0 0.0 0.0

-221301.9780379627 1.6614024876114521e7 0.0
1.6614024876114521e7 -1.5711697540089775e7 0.0
0.0 0.0 0.0

2.525353880569039e6 7.643110406634709e6 0.0
7.643110406634709e6 -2.95841923146414e7 0.0
0.0 0.0 0.0

-7.258289073546112e6 6.73525488442363e6 0.0
6.73525488442363e6 4.9965195431154616e7 0.0
0.0 0.0 0.0

-1.2028076512390072e6 2.442920619182319e7 0.0
2.442920619182319e7 7.422264443421128e6 0.0
0.0 0.0 0.0

-9.860942835290464e6 4.1935002157802135e6 0.0
4.1935002157802135e6 3.1715147155839503e7 0.0
0.0 0.0 0.0

536222.237884799 1.3974338584622743e7 0.0
1.3974338584622743e7 -3.93091154287159e7 0.0
0.0 0.0 0.0

-638407.4158864142 2.1322126606129427e7 0.0
2.1322126606129427e7 -2.3659035659345604e7 0.0
0.0 0.0 0.0

-9.42119947477028e6 1.4986533103088468e7 0.0
1.4986533103088468e7 2.4267190496608965e7 0.0
0.0 0.0 0.0

517333.1671329122 1.8023947880559858e7 0.0
1.8023947880559858e7 -2.9563236297825154e7 0.0
0.0 0.0 0.0

1.1514328298582956e6 1.854671826079008e7 0.0
1.854671826079008e7 -1.947899436031098e7 0.0
0.0 0.0 0.0

-2.316800877995974e6 2.426104365498966e6 0.0
2.426104365498966e6 4.976355597488135e6 0.0
0.0 0.0 0.0

-1.0122552679950876e7 3.2516641346677216e6 0.0
3.2516641346677216e6 2.831421338235313e7 0.0
0.0 0.0 0.0

-266438.7265108079 1.4154269307099052e7 0.0
1.4154269307099052e7 -1.405175507263038e7 0.0
0.0 0.0 0.0

90302.83980758488 1.2724114326171273e7 0.0
1.2724114326171273e7 -1.448908950961554e7 0.0
0.0 0.0 0.0

952928.6282166829 2.021812466946025e7 0.0
2.021812466946025e7 -1.6303625347139541e7 0.0
0.0 0.0 0.0

-2.1875566761370613e6 2.4648294617795013e7 0.0
2.4648294617795013e7 4.177654372702049e6 0.0
0.0 0.0 0.0

880825.0559565881 1.104828087045351e7 0.0
1.104828087045351e7 -1.7476982687364187e7 0.0
0.0 0.0 0.0

-4.1191443965374045e6 1.5563917143678498e7 0.0
1.5563917143678498e7 -5.938675557879915e7 0.0
0.0 0.0 0.0

-1.0779820525634468e7 5.824062822923973e6 0.0
5.824062822923973e6 1.6492059444993198e7 0.0
0.0 0.0 0.0

-1.4595166001535004e7 2.102521723404965e7 0.0
2.102521723404965e7 -5.395424391569196e7 0.0
0.0 0.0 0.0

-1.4396224069873852e8 1.7932104450532243e7 0.0
1.7932104450532243e7 -4.0661907536157295e6 0.0
0.0 0.0 0.0

1.349902163340825e8 1.9071714289932936e7 0.0
1.9071714289932936e7 7.047055562175654e6 0.0
0.0 0.0 0.0

-5.683591997747211e6 1.6015217854820136e7 0.0
1.6015217854820136e7 -6.854138099769624e7 0.0
0.0 0.0 0.0

-5.65894440645246e6 1.901902390817371e7 0.0
1.901902390817371e7 2.5069961194800016e7 0.0
0.0 0.0 0.0

-2.407848724413962e6 2.3888087757438555e7 0.0
2.3888087757438555e7 1.2391179636290646e6 0.0
0.0 0.0 0.0

-559544.5239566052 1.5524748786500486e7 0.0
1.5524748786500486e7 -1.3583551364563182e7 0.0
0.0 0.0 0.0

-1.4481793680937618e6 7.290050667177926e6 0.0
7.290050667177926e6 -3.5135524302441906e6 0.0
0.0 0.0 0.0

-35174.66802770621 8.268500312155063e6 0.0
8.268500312155063e6 -2.0737564565997655e6 0.0
0.0 0.0 0.0

-3.483487755831509e6 1.7315604050301015e7 0.0
1.7315604050301015e7 4.733226382556066e6 0.0
0.0 0.0 0.0

-4.883486588012159e6 1.5747673632909903e7 0.0
1.5747673632909903e7 -6.3719591665152915e7 0.0
0.0 0.0 0.0

906041.5727283563 1.3582861479924219e7 0.0
1.3582861479924219e7 -1.3128421788774233e7 0.0
0.0 0.0 0.0

-8.956434165075898e6 5.273256820577708e6 0.0
5.273256820577708e6 4.045261739500281e7 0.0
0.0 0.0 0.0

1.1172014676758069e8 2.3706424541923057e7 0.0
2.3706424541923057e7 340381.83852320164 0.0
0.0 0.0 0.0

583978.8222966716 1.4991994141250346e7 0.0
1.4991994141250346e7 -1.2726693719683453e7 0.0
0.0 0.0 0.0

2.519622101797728e6 7.137470955823626e6 0.0
7.137470955823626e6 -3.38788109645747e7 0.0
0.0 0.0 0.0

2.370849454802325e6 7.92522523855988e6 0.0
7.92522523855988e6 -3.464644818396396e7 0.0
0.0 0.0 0.0

-3.8191976727339793e6 2.2010880554199994e7 0.0
2.2010880554199994e7 2.804401955039789e7 0.0
0.0 0.0 0.0

1.4648014109153124e6 1.694626535435206e7 0.0
1.694626535435206e7 -2.2588609812945217e7 0.0
0.0 0.0 0.0

-4.569600051230167e6 2.509504880120288e7 0.0
2.509504880120288e7 -1.469285772856604e7 0.0
0.0 0.0 0.0

9.828886290736616e6 2.747741783759376e7 0.0
2.747741783759376e7 -2.578121190822989e6 0.0
0.0 0.0 0.0

-1.8445920708519446e6 1.5804315434447663e7 0.0
1.5804315434447663e7 298418.6701091842 0.0
0.0 0.0 0.0

1.396974249472559e6 6.617010555957444e6 0.0
6.617010555957444e6 -5.6915050842134785e6 0.0
0.0 0.0 0.0

-3.6655002580687287e6 1.0895711553926038e7 0.0
1.0895711553926038e7 857984.2824847854 0.0
0.0 0.0 0.0

-7.727142717204692e6 8.261267845885754e6 0.0
8.261267845885754e6 1.5964225423931304e7 0.0
0.0 0.0 0.0

-8.322977852311442e6 1.9209099241187565e7 0.0
1.9209099241187565e7 -3.838103320646756e7 0.0
0.0 0.0 0.0

1.349604965523487e6 1.3725923442331104e7 0.0
1.3725923442331104e7 -3.414658164614899e7 0.0
0.0 0.0 0.0

1.8447710322570484e6 6.866484405992084e6 0.0
6.866484405992084e6 -1.9760262085594222e7 0.0
0.0 0.0 0.0

1.9674315116416486e6 1.0421010125003174e7 0.0
1.0421010125003174e7 -1.6416355837024739e7 0.0
0.0 0.0 0.0

-1.856702785297753e6 1.8713092581278976e7 0.0
1.8713092581278976e7 504781.07241923094 0.0
0.0 0.0 0.0

1.4204476474498017e6 9.967242659238739e6 0.0
9.967242659238739e6 -2.1436789589651044e7 0.0
0.0 0.0 0.0

-2.0067830144255864e6 9.109307305714462e6 0.0
9.109307305714462e6 -3.4106143609157475e6 0.0
0.0 0.0 0.0

3.0760115508815683e6 4.755885499204927e6 0.0
4.755885499204927e6 -2.5274652125624184e7 0.0
0.0 0.0 0.0

706308.4879612764 1.7964199744235296e7 0.0
1.7964199744235296e7 -1.5367279082185239e7 0.0
0.0 0.0 0.0

-1.0617373065070238e7 7.767273267143692e6 0.0
7.767273267143692e6 1.5351243380538808e7 0.0
0.0 0.0 0.0

583689.4125568611 2.7847143897206564e7 0.0
2.7847143897206564e7 -9.626408816261528e6 0.0
0.0 0.0 0.0

513355.2973756902 6.275538196750818e6 0.0
6.275538196750818e6 -5.667801394056055e7 0.0
0.0 0.0 0.0

606952.8748129709 1.926407472167717e7 0.0
1.926407472167717e7 -1.4737784557683967e7 0.0
0.0 0.0 0.0

2.4197139799586553e6 9.500231032091588e6 0.0
9.500231032091588e6 -2.6349034301270455e7 0.0
0.0 0.0 0.0

-4.342761746612478e6 5.313102007325509e6 0.0
5.313102007325509e6 9.54497808639937e6 0.0
0.0 0.0 0.0

2.497388137463849e6 8.607237337424772e6 0.0
8.607237337424772e6 -2.8002531986552067e7 0.0
0.0 0.0 0.0

-1.8006908517492479e6 2.441581674921005e7 0.0
2.441581674921005e7 7.644484310254663e6 0.0
0.0 0.0 0.0

3.5390136023913138e6 3.011557671535432e7 0.0
3.011557671535432e7 -9.071389933679953e6 0.0
0.0 0.0 0.0

-1.7952566766611151e6 2.228344948782214e7 0.0
2.228344948782214e7 -2.3172085295775548e7 0.0
0.0 0.0 0.0

-244426.8918769071 7.4619293403440025e6 0.0
7.4619293403440025e6 -6.974700100989489e6 0.0
0.0 0.0 0.0

3.379363460956937e6 3.1352930889964987e7 0.0
3.1352930889964987e7 -7.055922971384896e6 0.0
0.0 0.0 0.0

1.2795699044565521e6 2.5712914487110887e7 0.0
2.5712914487110887e7 -1.1725033753334992e7 0.0
0.0 0.0 0.0

-1.092271341953851e7 1.0679966621411202e7 0.0
1.0679966621411202e7 2.4284173831433803e7 0.0
0.0 0.0 0.0

-3.174592491736158e6 2.599075433409216e7 0.0
2.599075433409216e7 1.6034740936004957e7 0.0
0.0 0.0 0.0

-8.123411389719975e6 4.729230539564926e6 0.0
4.729230539564926e6 9.30180034888197e6 0.0
0.0 0.0 0.0

-2.614009146643006e6 1.2683421843426088e7 0.0
1.2683421843426088e7 4.387829411740719e6 0.0
0.0 0.0 0.0

-5.7070416736138575e6 9.7715166043819e6 0.0
9.7715166043819e6 5.627306777773251e7 0.0
0.0 0.0 0.0

-4.751469954086531e6 1.6179747758063713e7 0.0
1.6179747758063713e7 1.0640299331525058e7 0.0
0.0 0.0 0.0

4.64815763084574e6 2.3980348146388303e7 0.0
2.3980348146388303e7 3.0678106943250606e6 0.0
0.0 0.0 0.0

354573.65837942297 1.6380741468224559e7 0.0
1.6380741468224559e7 -1.224292691198506e7 0.0
0.0 0.0 0.0

-378120.1449999148 1.7909178041220903e7 0.0
1.7909178041220903e7 -1.5101988524550013e7 0.0
0.0 0.0 0.0

-3.793635206814211e6 1.5556914885990886e7 0.0
1.5556914885990886e7 -5.538995985413366e7 0.0
0.0 0.0 0.0

28398.145631518215 6.783098647640927e6 0.0
6.783098647640927e6 -6.0482029168006405e7 0.0
0.0 0.0 0.0

-9.63405040739586e6 1.3444456443552034e7 0.0
1.3444456443552034e7 3.0948014070080593e7 0.0
0.0 0.0 0.0

-2.329359248744834e6 2.8800031222748242e7 0.0
2.8800031222748242e7 8.001470674370474e6 0.0
0.0 0.0 0.0

-8.428555339866394e6 5.62777889147806e6 0.0
5.62777889147806e6 4.484023708151374e7 0.0
0.0 0.0 0.0

1.1550048016690537e6 2.4004373026364084e7 0.0
2.4004373026364084e7 -1.4568789163787035e7 0.0
0.0 0.0 0.0

885049.0303881094 2.332265702660803e7 0.0
2.332265702660803e7 -1.7636070271192234e7 0.0
0.0 0.0 0.0

1.8814923877705302e7 6.242728708545348e6 0.0
6.242728708545348e6 -1.6816463078978946e6 0.0
0.0 0.0 0.0

1.237156827692822e6 1.0737751995306816e7 0.0
1.0737751995306816e7 -1.130438098986182e7 0.0
0.0 0.0 0.0

-7.868929662557006e6 1.6263880154788595e7 0.0
1.6263880154788595e7 2.023391908370217e7 0.0
0.0 0.0 0.0

-4.218534603220795e6 2.2216224649946146e7 0.0
2.2216224649946146e7 -2.2414217575524606e7 0.0
0.0 0.0 0.0

598553.0919680931 1.747584460583756e7 0.0
1.747584460583756e7 -1.4408675857358593e7 0.0
0.0 0.0 0.0

950202.979346416 1.898844588403412e7 0.0
1.898844588403412e7 -1.7097964337295905e7 0.0
0.0 0.0 0.0

-5.705133843363792e6 1.5378548281687064e7 0.0
1.5378548281687064e7 4.426830432051325e7 0.0
0.0 0.0 0.0

-1.0024357429581944e7 1.3259301122039337e7 0.0
1.3259301122039337e7 2.7658706500489794e7 0.0
0.0 0.0 0.0

-563313.5342374286 1.7398960175453566e7 0.0
1.7398960175453566e7 -1.4125906909907427e7 0.0
0.0 0.0 0.0

-981091.7178707938 2.1862026527353127e7 0.0
2.1862026527353127e7 -1.1011954082027256e7 0.0
0.0 0.0 0.0

-6.995294813299555e6 2.261285414319812e7 0.0
2.261285414319812e7 -1.4508047311209219e7 0.0
0.0 0.0 0.0

-1.0809110688382755e6 3.018829524168143e7 0.0
3.018829524168143e7 -2.6479159895357336e6 0.0
0.0 0.0 0.0

1.038670659167314e6 1.384031750604036e7 0.0
1.384031750604036e7 -3.665426348978215e7 0.0
0.0 0.0 0.0

-1.9961910815485802e6 3.610580068109416e7 0.0
3.610580068109416e7 2.6840593876429764e6 0.0
0.0 0.0 0.0

-6.691963068396118e6 1.705917869731398e7 0.0
1.705917869731398e7 1.828006932535607e7 0.0
0.0 0.0 0.0

-1.094382514663581e7 2.8257367602785565e7 0.0
2.8257367602785565e7 -1.3472802278336855e7 0.0
0.0 0.0 0.0

58119.5842694093 2.082901843966738e7 0.0
2.082901843966738e7 -2.108449162981167e6 0.0
0.0 0.0 0.0

-1.1240764911301862e6 2.2686947142914604e7 0.0
2.2686947142914604e7 -2.1314253340058707e7 0.0
0.0 0.0 0.0

-2.988767745706621e6 2.2387744047205705e7 0.0
2.2387744047205705e7 -1.3430959487705449e7 0.0
0.0 0.0 0.0

-3.210558605486877e6 2.7723406488315158e7 0.0
2.7723406488315158e7 1.0734246814768394e7 0.0
0.0 0.0 0.0

786677.9932019375 2.226281397760813e7 0.0
2.226281397760813e7 -1.4005916349124068e7 0.0
0.0 0.0 0.0

-749226.6104634898 1.6890326753962535e7 0.0
1.6890326753962535e7 -1.305955019483648e7 0.0
0.0 0.0 0.0

-966143.8198917704 2.096424922081104e7 0.0
2.096424922081104e7 -2.615670456887124e7 0.0
0.0 0.0 0.0

-1.8199425430996134e6 1.402571813638587e7 0.0
1.402571813638587e7 -6.711944001611408e6 0.0
0.0 0.0 0.0

-2.1929652068910254e6 2.7142799214815084e7 0.0
2.7142799214815084e7 2.576150358876029e6 0.0
0.0 0.0 0.0

-890615.6174254592 2.95255034918008e7 0.0
2.95255034918008e7 -3.920240597573301e6 0.0
0.0 0.0 0.0

-2.893436947278169e6 4.529712321830438e6 0.0
4.529712321830438e6 6.891609867030939e6 0.0
0.0 0.0 0.0

35358.80549421813 1.2055976904889379e7 0.0
1.2055976904889379e7 -1.3340355793503178e7 0.0
0.0 0.0 0.0

-335890.0648095994 3.141719063627913e7 0.0
3.141719063627913e7 -586280.4262403626 0.0
0.0 0.0 0.0

-2.5918810780253666e6 2.387176209279548e7 0.0
2.387176209279548e7 6.774105333556385e6 0.0
0.0 0.0 0.0

-1.0756957269449878e8 1.1115810025286006e7 0.0
1.1115810025286006e7 -234330.17118851095 0.0
0.0 0.0 0.0

112350.46790433116 1.8667808856371358e7 0.0
1.8667808856371358e7 -2.970756451269578e7 0.0
0.0 0.0 0.0

-2.9580266379564754e6 2.229050378429539e7 0.0
2.229050378429539e7 1.0310743877230676e7 0.0
0.0 0.0 0.0

-515504.7477177343 2.695293016527676e7 0.0
2.695293016527676e7 -3.6371632723842487e6 0.0
0.0 0.0 0.0

-2.798954811989359e6 2.354075414693725e7 0.0
2.354075414693725e7 9.84525780031945e6 0.0
0.0 0.0 0.0

-2.92582226580648e6 2.4919298425899893e7 0.0
2.4919298425899893e7 1.0015346420388087e6 0.0
0.0 0.0 0.0

725116.7157277539 2.424711104660855e7 0.0
2.424711104660855e7 -1.20037434203004e7 0.0
0.0 0.0 0.0

-5.421202849534738e6 1.7910165400643222e7 0.0
1.7910165400643222e7 1.591839433352864e7 0.0
0.0 0.0 0.0

-9.370507208166318e6 9.718300495730769e6 0.0
9.718300495730769e6 3.394929722171896e7 0.0
0.0 0.0 0.0

-845802.916150257 1.4817931664517203e7 0.0
1.4817931664517203e7 -5.248667431137538e6 0.0
0.0 0.0 0.0

2.5858174157648105e6 6.416722624433055e6 0.0
6.416722624433055e6 -1.331316616967455e7 0.0
0.0 0.0 0.0

-1.7987605798756746e6 1.9330453948836215e7 0.0
1.9330453948836215e7 -8.104062344532259e6 0.0
0.0 0.0 0.0

663905.192439626 2.5136462404672798e7 0.0
2.5136462404672798e7 -1.3548290973153384e7 0.0
0.0 0.0 0.0

-2.71015305936124e6 2.2625854864520993e7 0.0
2.2625854864520993e7 7.080022374127067e6 0.0
0.0 0.0 0.0

-2.5233946562687666e6 1.7716794382827166e7 0.0
1.7716794382827166e7 -4.049222085200712e6 0.0
0.0 0.0 0.0

-9.141146132414872e6 2.55498002268423e6 0.0
2.55498002268423e6 1.9579110262148805e7 0.0
0.0 0.0 0.0

1.8408116285514124e6 6.28241320524214e6 0.0
6.28241320524214e6 -1.5790668652921492e7 0.0
0.0 0.0 0.0

-7.92976951844353e6 8.900410552672774e6 0.0
8.900410552672774e6 4.4141588071462825e7 0.0
0.0 0.0 0.0

-1.078187118195005e7 5.787510130945118e6 0.0
5.787510130945118e6 2.5169154009644233e7 0.0
0.0 0.0 0.0

-80027.66984090582 2.205715385166592e7 0.0
2.205715385166592e7 2.9056895122473482e7 0.0
0.0 0.0 0.0

-907690.269011551 2.302559254056566e7 0.0
2.302559254056566e7 -1.0521231777305681e7 0.0
0.0 0.0 0.0

-136081.9349414287 1.1308281706665143e7 0.0
1.1308281706665143e7 -1.2216645371074032e7 0.0
0.0 0.0 0.0

-7.357424935833678e6 8.549282285673259e6 0.0
8.549282285673259e6 4.754806115079853e7 0.0
0.0 0.0 0.0

-173146.4061555178 2.731954752038721e7 0.0
2.731954752038721e7 -4.6846960338027775e6 0.0
0.0 0.0 0.0

-3.4293696989198686e6 1.660060951850287e7 0.0
1.660060951850287e7 2.898658269357955e6 0.0
0.0 0.0 0.0

-2.0512865647859373e6 1.182229479978662e7 0.0
1.182229479978662e7 2.2875655353027005e6 0.0
0.0 0.0 0.0

-2.0903376076822595e6 1.54375876776228e7 0.0
1.54375876776228e7 -6.270198797746288e6 0.0
0.0 0.0 0.0

-4.499139516414518e6 2.027854094212337e7 0.0
2.027854094212337e7 -3.507299876804959e7 0.0
0.0 0.0 0.0

-1.850814659626287e6 2.3642226885593645e7 0.0
2.3642226885593645e7 9.312263584852917e6 0.0
0.0 0.0 0.0

1.4210214181962432e6 2.325785633369548e7 0.0
2.325785633369548e7 -1.7629886687262967e7 0.0
0.0 0.0 0.0

4.300517650281515e6 1.9271978375162993e7 0.0
1.9271978375162993e7 7.27004784100903e7 0.0
0.0 0.0 0.0

7.063549492604396e6 2.673003415779925e7 0.0
2.673003415779925e7 1.4470926650966229e7 0.0
0.0 0.0 0.0

-8.6318815307223e6 1.5979254477003537e7 0.0
1.5979254477003537e7 2.2967852075717732e7 0.0
0.0 0.0 0.0

1.559120423050912e6 1.452300969559715e7 0.0
1.452300969559715e7 -2.9875780387968406e7 0.0
0.0 0.0 0.0

-1.4579760800017563e6 1.852450787182312e7 0.0
1.852450787182312e7 -2.8029839423185424e6 0.0
0.0 0.0 0.0

2.87250177238819e6 2.6752105270817116e7 0.0
2.6752105270817116e7 -1.2674289786404712e7 0.0
0.0 0.0 0.0

-2.1663631337013594e6 3.02794316569362e7 0.0
3.02794316569362e7 5.552332518917091e6 0.0
0.0 0.0 0.0

-743107.7171009092 2.8786205337737795e7 0.0
2.8786205337737795e7 -5.017703389720237e6 0.0
0.0 0.0 0.0

-449017.91836225055 2.31996545266295e7 0.0
2.31996545266295e7 -1.9476427490891226e7 0.0
0.0 0.0 0.0

-1.374431157273741e6 1.713624845486338e7 0.0
1.713624845486338e7 -3.0988865480229794e6 0.0
0.0 0.0 0.0

-2.6271380391666116e6 2.432085650467616e7 0.0
2.432085650467616e7 8.1387943639190225e6 0.0
0.0 0.0 0.0

-1.1166538050304528e7 9.72612832928146e6 0.0
9.72612832928146e6 2.278545507121594e7 0.0
0.0 0.0 0.0

2.0207842018252658e6 6.079981854764473e6 0.0
6.079981854764473e6 -1.8464619550291922e7 0.0
0.0 0.0 0.0

-1.0342316764160163e6 1.9626019575231276e7 0.0
1.9626019575231276e7 -5.581235406210647e6 0.0
0.0 0.0 0.0

2.2283229746679477e6 1.062583676921957e7 0.0
1.062583676921957e7 -2.245425278523945e7 0.0
0.0 0.0 0.0

-1.6467841943771872e6 2.3899596808442976e7 0.0
2.3899596808442976e7 3.77621508399819e6 0.0
0.0 0.0 0.0

-1.3034885270328757e6 1.0981038562613491e7 0.0
1.0981038562613491e7 118576.51589408692 0.0
0.0 0.0 0.0

1.0416690334924762e6 3.3918220907819584e7 0.0
3.3918220907819584e7 -4.082596859912622e6 0.0
0.0 0.0 0.0

-7.070340278338426e7 6.237114581318007e6 0.0
6.237114581318007e6 4.0347570122870244e6 0.0
0.0 0.0 0.0

-601033.8085186462 1.0077953724162575e7 0.0
1.0077953724162575e7 -1.9318002493544985e6 0.0
0.0 0.0 0.0

-5.266930841034336e6 1.899605813306836e7 0.0
1.899605813306836e7 -4.356652165041253e7 0.0
0.0 0.0 0.0

2.131821393361582e6 2.5574288854740035e7 0.0
2.5574288854740035e7 -1.0917335076348657e7 0.0
0.0 0.0 0.0

657722.5562133742 1.5557081718487656e7 0.0
1.5557081718487656e7 -1.382080640368407e7 0.0
0.0 0.0 0.0

880017.309578158 2.1132412697902523e7 0.0
2.1132412697902523e7 -2.2516780537242442e7 0.0
0.0 0.0 0.0

96134.03390344931 9.277100281526249e6 0.0
9.277100281526249e6 -3.8072504247128824e6 0.0
0.0 0.0 0.0

2.5586165535313506e6 8.687759239357825e6 0.0
8.687759239357825e6 -2.5455285834994134e7 0.0
0.0 0.0 0.0

-1.2979877623241637e6 3.0836786435527973e7 0.0
3.0836786435527973e7 -1.5004301673131369e6 0.0
0.0 0.0 0.0

-469822.73460215656 6.60520010920879e6 0.0
6.60520010920879e6 -5.160718908941124e6 0.0
0.0 0.0 0.0

478437.8292168239 1.1870652768333873e7 0.0
1.1870652768333873e7 -1.6016174386700472e7 0.0
0.0 0.0 0.0

1.2478048717541224e6 3.5531125634625e7 0.0
3.5531125634625e7 -3.0368247385227513e6 0.0
0.0 0.0 0.0

5.369401855315259e6 2.5175600378978714e7 0.0
2.5175600378978714e7 1.7714757214202876e6 0.0
0.0 0.0 0.0

3.2509768639703733e6 2.885932302877814e7 0.0
2.885932302877814e7 -9.905182875174444e6 0.0
0.0 0.0 0.0

277849.2898781039 9.258822334287273e6 0.0
9.258822334287273e6 -7.179867256682046e7 0.0
0.0 0.0 0.0

-5.013170583509155e6 1.933612924932479e7 0.0
1.933612924932479e7 3.372877534716523e7 0.0
0.0 0.0 0.0

-1.1072415964959955e6 2.9624374712407198e7 0.0
2.9624374712407198e7 1.300978160282168e6 0.0
0.0 0.0 0.0

2.171591992826961e6 1.0214427176180221e7 0.0
1.0214427176180221e7 -1.8953898674956463e7 0.0
0.0 0.0 0.0

667492.6573323805 8.38560189963074e6 0.0
8.38560189963074e6 -5.531541789010035e6 0.0
0.0 0.0 0.0

-259470.4375972757 1.058010144467199e7 0.0
1.058010144467199e7 -1.1019509971865647e7 0.0
0.0 0.0 0.0

-3.9291689478323637e6 3.458301557705716e7 0.0
3.458301557705716e7 5.443903854823422e6 0.0
0.0 0.0 0.0

-9.489998161470665e6 3.2578364416233287e6 0.0
3.2578364416233287e6 2.6950392311329763e7 0.0
0.0 0.0 0.0

-7.250092696572699e6 1.7812888042481493e7 0.0
1.7812888042481493e7 3.076073707250808e7 0.0
0.0 0.0 0.0

-160351.0852262748 2.9075281750529356e7 0.0
2.9075281750529356e7 -3.1858810432408964e6 0.0
0.0 0.0 0.0

976849.2892402904 1.7750276299320098e7 0.0
1.7750276299320098e7 -1.7880933964357905e7 0.0
0.0 0.0 0.0

-1.4467504193417216e6 2.3801362868141893e7 0.0
2.3801362868141893e7 2.327344880441554e7 0.0
0.0 0.0 0.0

-2.4902339189573075e6 1.909576917198554e7 0.0
1.909576917198554e7 -3.747761534169946e6 0.0
0.0 0.0 0.0

463650.9313400276 1.8741662092050526e7 0.0
1.8741662092050526e7 -1.3857913160242256e7 0.0
0.0 0.0 0.0

-2.289650021890819e6 1.8311035751439057e7 0.0
1.8311035751439057e7 -3.625769458133495e7 0.0
0.0 0.0 0.0

4.452715660023229e6 3.0582526967356253e7 0.0
3.0582526967356253e7 -8.316912187459791e6 0.0
0.0 0.0 0.0

-3.2103303294784557e6 1.5878470771815347e7 0.0
1.5878470771815347e7 -5.184401547168437e7 0.0
0.0 0.0 0.0

-1.1266284546348661e7 8.510016305865346e6 0.0
8.510016305865346e6 2.161113328852942e7 0.0
0.0 0.0 0.0

6.9991594611918675e6 2.3460081654256016e7 0.0
2.3460081654256016e7 2.8755559917944543e7 0.0
0.0 0.0 0.0

-4.531738907238769e6 3.3219284528414514e7 0.0
3.3219284528414514e7 5.87463600276291e6 0.0
0.0 0.0 0.0

-2.2763741364349863e6 1.9636884567249067e7 0.0
1.9636884567249067e7 -5.132918610936261e6 0.0
0.0 0.0 0.0

6.226303696326738e6 2.674258653115261e7 0.0
2.674258653115261e7 -6.141102465198972e6 0.0
0.0 0.0 0.0

50383.35947101703 2.8406812883518558e7 0.0
2.8406812883518558e7 -4.405102960330883e6 0.0
0.0 0.0 0.0

-7.346269050987927e6 1.019289309508448e7 0.0
1.019289309508448e7 9.674554155408757e6 0.0
0.0 0.0 0.0

172679.9036030043 2.372501944628424e7 0.0
2.372501944628424e7 -1.7772214517565444e7 0.0
0.0 0.0 0.0

1.4770024683477897e6 1.6819510435571663e7 0.0
1.6819510435571663e7 -2.4950785716140848e7 0.0
0.0 0.0 0.0

1.3661337599020535e6 1.7545619696546435e7 0.0
1.7545619696546435e7 -2.3253387455770627e7 0.0
0.0 0.0 0.0

-1.1150706056974302e6 1.7695542943273738e7 0.0
1.7695542943273738e7 -1.1426332426207509e7 0.0
0.0 0.0 0.0

2.0557930643337894e7 3.2192403794410165e7 0.0
3.2192403794410165e7 -4.3270867973318305e6 0.0
0.0 0.0 0.0

1.269744578661127e6 1.2766746699425908e7 0.0
1.2766746699425908e7 -1.4614236107411077e7 0.0
0.0 0.0 0.0

2.1139518040932612e6 5.445869111461107e6 0.0
5.445869111461107e6 -1.737923286208182e7 0.0
0.0 0.0 0.0

1.5290646387026906e6 1.603317943208841e7 0.0
1.603317943208841e7 -2.6518183113950104e7 0.0
0.0 0.0 0.0

522138.7514792383 7.302006837253282e6 0.0
7.302006837253282e6 -5.3752499479148895e7 0.0
0.0 0.0 0.0

-9.506865898174873e6 9.541182855822694e6 0.0
9.541182855822694e6 1.3741859605055824e7 0.0
0.0 0.0 0.0

-2.3681751203416884e6 2.6409131092167776e7 0.0
2.6409131092167776e7 3.6598655840085447e6 0.0
0.0 0.0 0.0

2.5761870971826036e6 4.806060746448297e6 0.0
4.806060746448297e6 -3.0592535994625106e7 0.0
0.0 0.0 0.0

1.429257011369111e6 7.1935724034724e6 0.0
7.1935724034724e6 -1.4545824510478592e7 0.0
0.0 0.0 0.0

-365249.64700715104 1.799366147932384e7 0.0
1.799366147932384e7 -8.954721525043683e6 0.0
0.0 0.0 0.0

-4.222765444922918e6 1.6242720791721893e7 0.0
1.6242720791721893e7 4.720136953998119e7 0.0
0.0 0.0 0.0

-3.4602968245620783e6 2.5736930716779314e7 0.0
2.5736930716779314e7 1.6543565825435039e7 0.0
0.0 0.0 0.0

-5.86159759195739e6 1.1549765235262563e7 0.0
1.1549765235262563e7 7.381194708402394e6 0.0
0.0 0.0 0.0

-4.207361642003252e6 2.2828939216350503e7 0.0
2.2828939216350503e7 2.417704351062033e7 0.0
0.0 0.0 0.0

2.9023894774634074e6 6.678262172497466e6 0.0
6.678262172497466e6 -2.226545495171562e7 0.0
0.0 0.0 0.0

1.458185938061459e6 1.5282082279982114e7 0.0
1.5282082279982114e7 -2.8358921967545558e7 0.0
0.0 0.0 0.0

953041.6352032707 7.739545267492025e7 0.0
7.739545267492025e7 8.096730607789587e6 0.0
0.0 0.0 0.0

-4.604116963221073e6 1.560776823554417e7 0.0
1.560776823554417e7 8.818785186579816e6 0.0
0.0 0.0 0.0

-1.1099213042892251e7 6.938150328409312e6 0.0
6.938150328409312e6 2.068912098733158e7 0.0
0.0 0.0 0.0

669158.4753136709 2.2274853681097645e7 0.0
2.2274853681097645e7 -1.9170759129927214e7 0.0
0.0 0.0 0.0

1.3135283602714958e6 1.83127855920387e7 0.0
1.83127855920387e7 -2.1735900383395955e7 0.0
0.0 0.0 0.0

97047.0964626912 3.926407735363484e6 0.0
3.926407735363484e6 2.7866620293170414e6 0.0
0.0 0.0 0.0

-3.871797670604177e6 2.293465870647014e6 0.0
2.293465870647014e6 6.623812121380714e6 0.0
0.0 0.0 0.0

-5.252009759972803e6 3.5004923354104385e7 0.0
3.5004923354104385e7 4.805188442288222e6 0.0
0.0 0.0 0.0

-2.906358350592282e6 2.1836627052355587e7 0.0
2.1836627052355587e7 8.833681832156673e6 0.0
0.0 0.0 0.0

-3.426615957066247e6 3.4900023953200236e7 0.0
3.4900023953200236e7 2.7738473223457234e6 0.0
0.0 0.0 0.0

2.29917064526877e6 1.040963271433387e7 0.0
1.040963271433387e7 -2.4927930010948963e7 0.0
0.0 0.0 0.0

-2.532057694037233e6 2.505760245967463e7 0.0
2.505760245967463e7 6.536587474736413e6 0.0
0.0 0.0 0.0

-8.898967617929244e6 6.248518423981459e6 0.0
6.248518423981459e6 3.750529725808466e7 0.0
0.0 0.0 0.0

-8.738154623879208e7 7.986974868650305e6 0.0
7.986974868650305e6 3.1248644251863435e6 0.0
0.0 0.0 0.0

-2.384191699453636e6 2.7569102694940414e7 0.0
2.7569102694940414e7 3.663646036350412e6 0.0
0.0 0.0 0.0

-3.923670097495135e6 2.348301257661325e7 0.0
2.348301257661325e7 2.227692516888936e7 0.0
0.0 0.0 0.0

2.294353938636538e6 3.0851747431026533e7 0.0
3.0851747431026533e7 -7.875502518412416e6 0.0
0.0 0.0 0.0

1.551065410132829e6 6.449355508867521e6 0.0
6.449355508867521e6 -1.3051437041737389e7 0.0
0.0 0.0 0.0

-4.1466691258016047e6 1.7647458008267436e7 0.0
1.7647458008267436e7 1.0268729376061643e7 0.0
0.0 0.0 0.0

-1.8523224921665598e7 2.9168139911019824e7 0.0
2.9168139911019824e7 -1.1044348584494434e7 0.0
0.0 0.0 0.0

-9.376170209531073e6 2.7271701276733585e7 0.0
2.7271701276733585e7 -1.1237409399359087e7 0.0
0.0 0.0 0.0

2.64729395590367e6 7.899702726236222e6 0.0
7.899702726236222e6 -1.8139728830499496e7 0.0
0.0 0.0 0.0

-3.7417122970435396e6 2.420303204892483e7 0.0
2.420303204892483e7 2.0348113302080058e7 0.0
0.0 0.0 0.0

-113489.79761838447 2.1399914612049494e7 0.0
2.1399914612049494e7 -1.0294132673617605e7 0.0
0.0 0.0 0.0

456533.82819308713 5.200538179819462e6 0.0
5.200538179819462e6 -5.909919021033096e7 0.0
0.0 0.0 0.0

-7.053308946982253e6 3.096780608311939e6 0.0
3.096780608311939e6 5.449766946421926e7 0.0
0.0 0.0 0.0

1.908059555499768e6 1.1091057066029985e7 0.0
1.1091057066029985e7 -1.750913940157521e7 0.0
0.0 0.0 0.0

2.2456209450274277e6 7.857249235052604e6 0.0
7.857249235052604e6 -3.721466779119551e7 0.0
0.0 0.0 0.0

-584962.6615372701 2.392195903818535e7 0.0
2.392195903818535e7 -8.602340518897934e6 0.0
0.0 0.0 0.0

-904481.2458602395 1.3459289134161478e7 0.0
1.3459289134161478e7 -4.8977205041071504e7 0.0
0.0 0.0 0.0

3.387882264963958e6 3.843922650913519e7 0.0
3.843922650913519e7 -3.708063203802853e6 0.0
0.0 0.0 0.0

-742519.4933328815 1.9325624068798833e7 0.0
1.9325624068798833e7 4.5931273675498396e7 0.0
0.0 0.0 0.0

-7.593742863192666e6 3.0586716703128116e6 0.0
3.0586716703128116e6 5.0321900758522354e7 0.0
0.0 0.0 0.0

-75236.82664330164 2.259555381649572e7 0.0
2.259555381649572e7 -9.829331210865533e6 0.0
0.0 0.0 0.0

959265.2763098013 8.762962245804537e6 0.0
8.762962245804537e6 -4.517604617081407e7 0.0
0.0 0.0 0.0

-1.6429438758095733e6 2.263220826950767e7 0.0
2.263220826950767e7 790966.8619967131 0.0
0.0 0.0 0.0

-2.4017244699919936e6 2.5254381088163625e7 0.0
2.5254381088163625e7 3.6801718887944543e6 0.0
0.0 0.0 0.0

-1.005059475178857e7 8.880562836543502e6 0.0
8.880562836543502e6 2.8881528396383185e7 0.0
0.0 0.0 0.0

5.428994709770802e6 3.112513909985126e7 0.0
3.112513909985126e7 -7.86940279030068e6 0.0
0.0 0.0 0.0

1.2711733091165002e6 2.4486339429404184e7 0.0
2.4486339429404184e7 -4.056841388256314e6 0.0
0.0 0.0 0.0

-283437.9969959522 2.9777455093784567e7 0.0
2.9777455093784567e7 -1.9821416625694586e6 0.0
0.0 0.0 0.0

1.284855716801796e6 2.763439947873015e6 0.0
2.763439947873015e6 -5.615321374794493e7 0.0
0.0 0.0 0.0

-2.467386372722215e6 2.5764585695685294e7 0.0
2.5764585695685294e7 5.007076642372761e6 0.0
0.0 0.0 0.0

723092.64570517 1.61020443279419e7 0.0
1.61020443279419e7 -1.4870640738834403e7 0.0
0.0 0.0 0.0

-4.0187409328270997e6 1.3511226581225708e7 0.0
1.3511226581225708e7 3.021079419685301e6 0.0
0.0 0.0 0.0

-1.0151683808796242e6 1.6329820320483038e7 0.0
1.6329820320483038e7 -4.914839076773396e6 0.0
0.0 0.0 0.0

-1.0082828717588324e7 6.678994803521956e6 0.0
6.678994803521956e6 1.3632393269254789e7 0.0
0.0 0.0 0.0

1.7499002367419007e6 2.3383610226190474e7 0.0
2.3383610226190474e7 -5.45290050054014e6 0.0
0.0 0.0 0.0

-8.07496448619944e6 1.0549981685471348e7 0.0
1.0549981685471348e7 4.180575218363516e7 0.0
0.0 0.0 0.0

316436.5163602419 1.824651788922944e7 0.0
1.824651788922944e7 -1.2840956116572639e7 0.0
0.0 0.0 0.0

-7.071719476958672e6 6.70402757746222e6 0.0
6.70402757746222e6 7.256366526311122e6 0.0
0.0 0.0 0.0

-6.013472153924281e6 3.582329922624234e7 0.0
3.582329922624234e7 4.849040999517038e6 0.0
0.0 0.0 0.0

957644.9520239406 2.8306303772869416e7 0.0
2.8306303772869416e7 -7.056453978115612e6 0.0
0.0 0.0 0.0

792348.7693135086 1.9305606856565308e7 0.0
1.9305606856565308e7 -2.5866610436449222e7 0.0
0.0 0.0 0.0

1.5982364463310689e6 1.1928591746907076e7 0.0
1.1928591746907076e7 -1.6081183754543038e7 0.0
0.0 0.0 0.0

-1.6282332310842888e6 2.8093233858941693e7 0.0
2.8093233858941693e7 4.451113429963082e6 0.0
0.0 0.0 0.0

-3.754372193739414e6 2.2588578162453476e7 0.0
2.2588578162453476e7 2.610098654245489e7 0.0
0.0 0.0 0.0

8.556963310079064e6 2.2811559328720428e7 0.0
2.2811559328720428e7 1.2827045442829194e7 0.0
0.0 0.0 0.0

401332.87275765464 9.115100362947565e6 0.0
9.115100362947565e6 -4.866865009498547e7 0.0
0.0 0.0 0.0

-1.8312754821819915e6 2.482371278743265e7 0.0
2.482371278743265e7 8.915889275187336e6 0.0
0.0 0.0 0.0

-1.7204775693674972e6 2.6323452914251078e7 0.0
2.6323452914251078e7 5.848997555136418e6 0.0
0.0 0.0 0.0

-9.995962438465923e6 1.3706417580526061e7 0.0
1.3706417580526061e7 2.2132161754353892e7 0.0
0.0 0.0 0.0

4.1798084735356336e6 3.9415448672764584e7 0.0
3.9415448672764584e7 -3.724625488916679e6 0.0
0.0 0.0 0.0

214573.19490150176 1.5823428388772918e7 0.0
1.5823428388772918e7 -1.1081475855890704e7 0.0
0.0 0.0 0.0

-6.146681021669308e6 1.9808291656480916e7 0.0
1.9808291656480916e7 2.3541575353649374e7 0.0
0.0 0.0 0.0

1.6451949217989976e6 1.1267086591331495e7 0.0
1.1267086591331495e7 -1.5011171460368305e7 0.0
0.0 0.0 0.0

-4.0820496976052294e6 1.0456870796970354e7 0.0
1.0456870796970354e7 9.217129933385413e6 0.0
0.0 0.0 0.0

-1.4728234837436362e6 2.860959229756978e7 0.0
2.860959229756978e7 3.2742649896330833e6 0.0
0.0 0.0 0.0

-1.5630951553204062e6 2.9695977332034867e7 0.0
2.9695977332034867e7 3.2708497022004044e6 0.0
0.0 0.0 0.0

173301.67608102178 1.7731311289025534e7 0.0
1.7731311289025534e7 -1.1751252482956309e7 0.0
0.0 0.0 0.0

3.156935389836804e6 2.5360550284903426e7 0.0
2.5360550284903426e7 -5.168828682187233e6 0.0
0.0 0.0 0.0

1.764019607231924e7 3.345989307702443e7 0.0
3.345989307702443e7 -5.357524023014345e6 0.0
0.0 0.0 0.0

-6.189043727809258e6 2.7393829776508708e7 0.0
2.7393829776508708e7 9.004223805681646e6 0.0
0.0 0.0 0.0

-1.2105546840897696e7 1.898295295865304e7 0.0
1.898295295865304e7 -5.033902413839702e7 0.0
0.0 0.0 0.0

873200.7227218905 1.295458986313655e7 0.0
1.295458986313655e7 -1.1940505453660311e7 0.0
0.0 0.0 0.0

-9.193366549136512e6 6.84126347311694e6 0.0
6.84126347311694e6 3.467691639353966e7 0.0
0.0 0.0 0.0

-3.813931382671436e6 2.5167941132091947e7 0.0
2.5167941132091947e7 -2.10651435592885e6 0.0
0.0 0.0 0.0

-7.552920489395971e6 2.5887818915436875e7 0.0
2.5887818915436875e7 -1.518728656289035e6 0.0
0.0 0.0 0.0

-1.7998662620228669e6 2.5542633525465854e7 0.0
2.5542633525465854e7 7.272063132001933e6 0.0
0.0 0.0 0.0

-8.443516244233085e6 4.463053410039168e6 0.0
4.463053410039168e6 3.924104527696e7 0.0
0.0 0.0 0.0

-7.0317254732987555e6 3.662046228288548e7 0.0
3.662046228288548e7 4.8999319869385045e6 0.0
0.0 0.0 0.0

-2.216356731979428e6 2.81510647379402e7 0.0
2.81510647379402e7 2.4768666395475175e6 0.0
0.0 0.0 0.0

3.309792833591667e6 2.3612873292375408e7 0.0
2.3612873292375408e7 1.5095725669106795e6 0.0
0.0 0.0 0.0

4.479909752310969e6 1.9798532471372105e7 0.0
1.9798532471372105e7 1.493303263159718e7 0.0
0.0 0.0 0.0

-1.9130643300194028e6 2.4030996906808577e7 0.0
2.4030996906808577e7 1.0604075297491156e7 0.0
0.0 0.0 0.0

-4.0637703568522623e6 2.145712714872621e7 0.0
2.145712714872621e7 1.697985304879506e7 0.0
0.0 0.0 0.0

2.7126435225117793e6 7.125762672303703e6 0.0
7.125762672303703e6 -1.6965672543401483e7 0.0
0.0 0.0 0.0

113094.41677271365 3.013252695632155e7 0.0
3.013252695632155e7 -2.9768176152127334e6 0.0
0.0 0.0 0.0

-6.622019094446585e6 1.7791263409667917e7 0.0
1.7791263409667917e7 2.5809013711344387e7 0.0
0.0 0.0 0.0

2.2082771103439294e6 4.39620547124071e6 0.0
4.39620547124071e6 -2.791858442291915e7 0.0
0.0 0.0 0.0

-960697.7820157938 2.7759574336939115e7 0.0
2.7759574336939115e7 -5.407256759146766e6 0.0
0.0 0.0 0.0

-1.6764330093493317e6 2.5122646655414063e7 0.0
2.5122646655414063e7 6.109025379992715e6 0.0
0.0 0.0 0.0

-5.727858975103175e6 5.824127847236163e6 0.0
5.824127847236163e6 4.796873771593297e6 0.0
0.0 0.0 0.0

879150.8409638517 1.290908654732905e7 0.0
1.290908654732905e7 -2.045994531171935e7 0.0
0.0 0.0 0.0

2.9825347190670343e6 6.77298175912632e7 0.0
6.77298175912632e7 5.746396814138382e6 0.0
0.0 0.0 0.0

-526917.3016178235 8.2244871061464185e6 0.0
8.2244871061464185e6 -8.447841903426298e7 0.0
0.0 0.0 0.0

2.01575980563136e6 5.767794332064072e6 0.0
5.767794332064072e6 -3.2865392438533075e7 0.0
0.0 0.0 0.0

1.6673527077645725e6 1.4730900123418167e7 0.0
1.4730900123418167e7 -2.31300419768585e7 0.0
0.0 0.0 0.0

-6.107105239678154e6 2.678058009801078e7 0.0
2.678058009801078e7 6.706233567451984e6 0.0
0.0 0.0 0.0

-54286.135590279475 1.7530251190132406e7 0.0
1.7530251190132406e7 -3.1762668790263437e7 0.0
0.0 0.0 0.0

826917.8902637037 1.2299620341507666e7 0.0
1.2299620341507666e7 -1.0765502236851541e7 0.0
0.0 0.0 0.0

-3.649018751650325e6 1.2647490199158486e7 0.0
1.2647490199158486e7 939992.300908789 0.0
0.0 0.0 0.0

5.433327919495201e6 2.184421898365322e7 0.0
2.184421898365322e7 2.5410246981334697e7 0.0
0.0 0.0 0.0

-1.1483820883765388e6 1.9579269708672132e7 0.0
1.9579269708672132e7 4.29259965467424e7 0.0
0.0 0.0 0.0

1.653676872022258e7 1.6642689822557954e7 0.0
1.6642689822557954e7 7.428732658951913e6 0.0
0.0 0.0 0.0

-6.361220715576911e6 4.1152303372209795e7 0.0
4.1152303372209795e7 2.60606888491106e6 0.0
0.0 0.0 0.0

-1.482177885143251e6 1.8503226790199243e7 0.0
1.8503226790199243e7 -9.770301414228309e6 0.0
0.0 0.0 0.0

-3.616041982428678e7 3.0594394309558533e7 0.0
3.0594394309558533e7 -3.4569378796836063e6 0.0
0.0 0.0 0.0

-57778.01234151004 2.0253665581590768e7 0.0
2.0253665581590768e7 -1.0767351828710238e7 0.0
0.0 0.0 0.0

-1.7127315513590209e6 2.5887118758465547e7 0.0
2.5887118758465547e7 4.633424523037331e6 0.0
0.0 0.0 0.0

-371149.4046506174 1.6065315523026178e7 0.0
1.6065315523026178e7 -8.056590443488943e6 0.0
0.0 0.0 0.0

-2.557436316222585e6 1.9373073783662185e7 0.0
1.9373073783662185e7 -3.2951708367764246e7 0.0
0.0 0.0 0.0

2.2272374244770966e6 5.43098113285596e6 0.0
5.43098113285596e6 -2.6420324906502794e7 0.0
0.0 0.0 0.0

467206.14853320085 1.2487142939786404e7 0.0
1.2487142939786404e7 -4.4079990153568424e7 0.0
0.0 0.0 0.0

484329.2314753281 2.3630514983338736e7 0.0
2.3630514983338736e7 2.1429027425314263e7 0.0
0.0 0.0 0.0

2.3556385101518277e6 8.232075901058386e6 0.0
8.232075901058386e6 -3.044804516651966e7 0.0
0.0 0.0 0.0

-552461.6050587439 2.80092286941055e7 0.0
2.80092286941055e7 -6.2757116486365795e6 0.0
0.0 0.0 0.0

113888.97041908186 2.3786021092164338e7 0.0
2.3786021092164338e7 -1.3739012729600552e7 0.0
0.0 0.0 0.0

-2.4792011850146567e6 1.628601375952801e7 0.0
1.628601375952801e7 -4.401626334498606e6 0.0
0.0 0.0 0.0

-3.1726259516851585e6 1.871333873288682e7 0.0
1.871333873288682e7 4.572153618756795e6 0.0
0.0 0.0 0.0

-5.786082207667198e6 2.038695638914247e7 0.0
2.038695638914247e7 2.4405724181559622e7 0.0
0.0 0.0 0.0

2.0424370317893485e6 1.1501453842440957e7 0.0
1.1501453842440957e7 -2.0999139270789716e7 0.0
0.0 0.0 0.0

-7.780861987056452e6 4.455307342733278e7 0.0
4.455307342733278e7 2.754664181298146e6 0.0
0.0 0.0 0.0

-8.2943772576858895e6 3.725839591802147e7 0.0
3.725839591802147e7 5.119209708829115e6 0.0
0.0 0.0 0.0

-5.211029478104269e6 2.138553071065154e7 0.0
2.138553071065154e7 2.5282280076905258e7 0.0
0.0 0.0 0.0

-2.1160796513731685e6 1.9928178723857883e7 0.0
1.9928178723857883e7 -7.053598268546318e6 0.0
0.0 0.0 0.0

1.2449816079485286e6 1.9056607406072486e7 0.0
1.9056607406072486e7 -2.0128290296375327e7 0.0
0.0 0.0 0.0

2.60384298654161e6 7.933489189796475e6 0.0
7.933489189796475e6 -2.7178241151998244e7 0.0
0.0 0.0 0.0

-4.362045546424599e6 2.8374530488070086e7 0.0
2.8374530488070086e7 1.185923601349803e7 0.0
0.0 0.0 0.0

-1.0426512759896675e7 1.239661549427239e7 0.0
1.239661549427239e7 2.6516011368106958e7 0.0
0.0 0.0 0.0

7.609001132509561e6 3.409543399510342e7 0.0
3.409543399510342e7 -6.1156902776770685e6 0.0
0.0 0.0 0.0

-5.619715365428977e6 3.56726008145076e6 0.0
3.56726008145076e6 6.697705417771199e7 0.0
0.0 0.0 0.0

-1.1062226887509602e6 2.3888956193015546e7 0.0
2.3888956193015546e7 -9.00364300287651e6 0.0
0.0 0.0 0.0

-8.1830427217224e6 -299037.4416126565 0.0
-299037.4416126565 3.535199468096118e7 0.0
0.0 0.0 0.0

-9.76657783514902e6 6.029417422182099e6 0.0
6.029417422182099e6 1.979581492457183e7 0.0
0.0 0.0 0.0

2.794879140463465e6 6.280193152352353e6 0.0
6.280193152352353e6 -1.5983790409210596e7 0.0
0.0 0.0 0.0

-5.373899371581662e6 1.648470201794388e7 0.0
1.648470201794388e7 4.330607338439302e7 0.0
0.0 0.0 0.0

1.373913159448048e6 1.297344305605124e7 0.0
1.297344305605124e7 -3.611404003692953e7 0.0
0.0 0.0 0.0

-329241.9881780612 2.8056808833495766e7 0.0
2.8056808833495766e7 -3.371421222511141e6 0.0
0.0 0.0 0.0

-1.7670451190134822e6 2.7416452743130837e7 0.0
2.7416452743130837e7 5.765181396144776e6 0.0
0.0 0.0 0.0

-1.482017106526655e6 1.988320024601867e7 0.0
1.988320024601867e7 -2.5353158343728753e6 0.0
0.0 0.0 0.0

-2.099672195639474e6 2.7768473668778475e7 0.0
2.7768473668778475e7 8.312655105174223e6 0.0
0.0 0.0 0.0

608559.8860162729 6.562467204703898e6 0.0
6.562467204703898e6 -8.377183458516839e6 0.0
0.0 0.0 0.0

-2.0113285958065132e6 2.3486882646121833e7 0.0
2.3486882646121833e7 -4.134706122320946e6 0.0
0.0 0.0 0.0

1.5157495952587763e7 3.43112942858473e7 0.0
3.43112942858473e7 -5.7451998466358315e6 0.0
0.0 0.0 0.0

608827.1874681842 1.143295839295106e7 0.0
1.143295839295106e7 -9.76798748563711e6 0.0
0.0 0.0 0.0

-164305.62236222392 1.8523427026717126e7 0.0
1.8523427026717126e7 -1.0143255151065482e7 0.0
0.0 0.0 0.0

-8.042319563604635e6 2.6568504139511436e7 0.0
2.6568504139511436e7 -8.43671734390282e6 0.0
0.0 0.0 0.0

-1.671803210311289e6 1.9310772066864446e7 0.0
1.9310772066864446e7 -1.0696972501545534e6 0.0
0.0 0.0 0.0

1.6217145561385863e7 2.8176236815789815e7 0.0
2.8176236815789815e7 -798671.2051217034 0.0
0.0 0.0 0.0

-4.292148200365618e6 4.900009435096391e6 0.0
4.900009435096391e6 2.0742235479345648e6 0.0
0.0 0.0 0.0

1.6781857822309192e6 4.918488869721937e6 0.0
4.918488869721937e6 -4.01589523922026e7 0.0
0.0 0.0 0.0

-5.519567598972307e6 3.1732014198247404e6 0.0
3.1732014198247404e6 1.1814062047398647e7 0.0
0.0 0.0 0.0

-3.0802597249312317e6 1.1757920752887722e7 0.0
1.1757920752887722e7 -1.1349828629036618e6 0.0
0.0 0.0 0.0

-2.0460682921030335e6 2.0153260835351564e7 0.0
2.0153260835351564e7 -6.443475798878355e6 0.0
0.0 0.0 0.0

-9.529987294440039e6 7.612670237123603e6 0.0
7.612670237123603e6 1.9085316789382353e7 0.0
0.0 0.0 0.0

2.292924851510639e6 7.361181624258701e6 0.0
7.361181624258701e6 -1.171683823560138e7 0.0
0.0 0.0 0.0

864159.3924439242 2.4360584679412905e7 0.0
2.4360584679412905e7 -1.615567656414131e7 0.0
0.0 0.0 0.0

-2.329965140855985e6 1.0908255614565216e7 0.0
1.0908255614565216e7 -3.2941983661438255e6 0.0
0.0 0.0 0.0

1.7281842942795348e6 6.0655601358292356e7 0.0
6.0655601358292356e7 3.4855856033789394e6 0.0
0.0 0.0 0.0

1.7527097689608037e7 2.7047359280020792e7 0.0
2.7047359280020792e7 1.4870065431578767e7 0.0
0.0 0.0 0.0

-1.5268138089761524e6 1.0019390230041657e7 0.0
1.0019390230041657e7 -5.011612507223829e6 0.0
0.0 0.0 0.0

-4.381539184158704e6 1.695420610187046e7 0.0
1.695420610187046e7 1.761198169321438e7 0.0
0.0 0.0 0.0

1.5797512521844194e6 4.520694066468139e6 0.0
4.520694066468139e6 -6.956636571491759e6 0.0
0.0 0.0 0.0

-8.570380896703394e6 1.1131807841823045e7 0.0
1.1131807841823045e7 3.8816741765448645e7 0.0
0.0 0.0 0.0

-794178.0746483277 9.128332664264265e6 0.0
9.128332664264265e6 -6.733971533883287e6 0.0
0.0 0.0 0.0

-1.0492606004566623e7 4.396161200370647e7 0.0
4.396161200370647e7 4.9685764704656005e6 0.0
0.0 0.0 0.0

9.11445277263477e6 3.447995570050276e7 0.0
3.447995570050276e7 -5.9967126656818995e6 0.0
0.0 0.0 0.0

2.7006988502259944e6 6.993134618746315e6 0.0
6.993134618746315e6 -2.86908193075508e7 0.0
0.0 0.0 0.0

15168.211744810455 2.4498023887047723e7 0.0
2.4498023887047723e7 -1.2265142178572401e7 0.0
0.0 0.0 0.0

1.2513540643304158e6 8.321831005527982e6 0.0
8.321831005527982e6 -4.085788663152683e7 0.0
0.0 0.0 0.0

-2.227883094240669e6 2.0959488944593027e7 0.0
2.0959488944593027e7 -4.79909469435199e6 0.0
0.0 0.0 0.0

4.356771103125032e6 2.41328601883456e7 0.0
2.41328601883456e7 1.5263813088084718e7 0.0
0.0 0.0 0.0

1.280137922646681e7 3.467595537530935e7 0.0
3.467595537530935e7 -5.849199973898025e6 0.0
0.0 0.0 0.0

571728.6331748073 1.086883736398359e7 0.0
1.086883736398359e7 -8.354720856131026e6 0.0
0.0 0.0 0.0

2.0502663074209196e6 9.671284885528987e6 0.0
9.671284885528987e6 -1.5354075718755169e7 0.0
0.0 0.0 0.0

-908201.6938849315 1.420812806812908e7 0.0
1.420812806812908e7 -3.7136405766671165e6 0.0
0.0 0.0 0.0

-1.019732637349312e7 3.777997306142677e7 0.0
3.777997306142677e7 5.238525552563366e6 0.0
0.0 0.0 0.0

-3.1785042253927486e6 1.8034897206906896e7 0.0
1.8034897206906896e7 2.82774608047252e6 0.0
0.0 0.0 0.0

1.1483439060893415e7 4.124014059965326e7 0.0
4.124014059965326e7 -4.443653396355716e6 0.0
0.0 0.0 0.0

-1.2702083130217344e6 2.0427026575961195e7 0.0
2.0427026575961195e7 -3.914607855580058e6 0.0
0.0 0.0 0.0

8.007624630438911e6 2.1607846089429695e7 0.0
2.1607846089429695e7 3.2652967291607477e7 0.0
0.0 0.0 0.0

-6.876205348558415e6 2.614665022007676e7 0.0
2.614665022007676e7 -5.468325068068943e6 0.0
0.0 0.0 0.0

-505188.3206462781 3.039745932731455e7 0.0
3.039745932731455e7 -799229.5852539531 0.0
0.0 0.0 0.0

-1.2475840246344917e6 2.3643313270366285e7 0.0
2.3643313270366285e7 -1.5928469985247789e7 0.0
0.0 0.0 0.0

-2.9581351870043036e6 1.6056507598881533e7 0.0
1.6056507598881533e7 -4.841652095594842e7 0.0
0.0 0.0 0.0

-3.3304919218145255e6 1.9383416183885384e7 0.0
1.9383416183885384e7 3.857364184269756e7 0.0
0.0 0.0 0.0

163057.11781367566 1.3358114103636434e7 0.0
1.3358114103636434e7 -1.5576844730136685e7 0.0
0.0 0.0 0.0

-8.918523241349638e6 1.1721167482510025e7 0.0
1.1721167482510025e7 3.580338642752442e7 0.0
0.0 0.0 0.0

1.3483722424955778e6 1.4488806092750642e7 0.0
1.4488806092750642e7 -3.2266789099636715e7 0.0
0.0 0.0 0.0

-2.3740460859840102e6 1.4803915483120065e7 0.0
1.4803915483120065e7 -4.6570090844914215e6 0.0
0.0 0.0 0.0

2.609905431715524e6 4.215484628602794e6 0.0
4.215484628602794e6 -1.5804713356155898e7 0.0
0.0 0.0 0.0

-2.5007898490349e6 2.2620263034657795e7 0.0
2.2620263034657795e7 1.258047949603431e6 0.0
0.0 0.0 0.0

-2.268200855782985e6 2.9146518010993265e7 0.0
2.9146518010993265e7 2.4050743872113875e6 0.0
0.0 0.0 0.0

2.8947201069382504e6 3.559994387161502e7 0.0
3.559994387161502e7 -4.55025473460122e6 0.0
0.0 0.0 0.0

-2.1344877394939577e6 2.2238041462443665e7 0.0
2.2238041462443665e7 -4.457135152866985e6 0.0
0.0 0.0 0.0

2.2938819786743554e6 6.477963822972213e6 0.0
6.477963822972213e6 -1.052937272871749e7 0.0
0.0 0.0 0.0

1.0795163676793827e7 3.469211499360294e7 0.0
3.469211499360294e7 -5.976769052371915e6 0.0
0.0 0.0 0.0

-9.187432732402544e6 1.3614823618948882e7 0.0
1.3614823618948882e7 2.826601577524721e7 0.0
0.0 0.0 0.0

455683.65848236904 8.268719182715094e6 0.0
8.268719182715094e6 -5.1191006347170904e7 0.0
0.0 0.0 0.0

5.766330379977535e6 2.643582600054325e7 0.0
2.643582600054325e7 1.4816065033658607e7 0.0
0.0 0.0 0.0

-3.474586009267807e6 3.249185750173029e7 0.0
3.249185750173029e7 4.674080731897266e6 0.0
0.0 0.0 0.0

-3.4973468973254515e6 2.1727991031855434e7 0.0
2.1727991031855434e7 -1.4544871022198096e7 0.0
0.0 0.0 0.0

-1.4982228546019197e6 1.992716466474069e7 0.0
1.992716466474069e7 4.025455512826911e7 0.0
0.0 0.0 0.0

-6.000195301956078e6 2.25311152648608e7 0.0
2.25311152648608e7 -2.0000651251913086e7 0.0
0.0 0.0 0.0

-750209.9695891789 1.493526795754228e7 0.0
1.493526795754228e7 -1.2404488271179317e7 0.0
0.0 0.0 0.0

3.490055505722384e6 2.2471264933620315e7 0.0
2.2471264933620315e7 2.148378299121872e7 0.0
0.0 0.0 0.0

1.615124578835526e6 5.617889506224248e7 0.0
5.617889506224248e7 2.679048025899322e6 0.0
0.0 0.0 0.0

-5.266391729297041e6 2.618510495098075e7 0.0
2.618510495098075e7 -1.2373403086044995e7 0.0
0.0 0.0 0.0

7.445246306900126e7 2.387439324523217e7 0.0
2.387439324523217e7 6.7438970273996405e6 0.0
0.0 0.0 0.0

-2.208776080226649e6 1.688881353202449e7 0.0
1.688881353202449e7 -5.818571918957957e6 0.0
0.0 0.0 0.0

-2.4196059402463855e6 2.32113366500572e7 0.0
2.32113366500572e7 -182489.00048880978 0.0
0.0 0.0 0.0

671013.0479224548 1.708476218628258e7 0.0
1.708476218628258e7 -2.0308134898390096e7 0.0
0.0 0.0 0.0

3.4840335398698626e6 3.642687120774809e7 0.0
3.642687120774809e7 -4.560824210861461e6 0.0
0.0 0.0 0.0

1.2963041376435086e6 6.496970160814864e6 0.0
6.496970160814864e6 -4.45656606302162e7 0.0
0.0 0.0 0.0

-565667.6792423276 9.748854712615982e6 0.0
9.748854712615982e6 -8.110813512990244e6 0.0
0.0 0.0 0.0

1.0443874419154217e6 1.3264770712951e7 0.0
1.3264770712951e7 -2.3736124277790833e7 0.0
0.0 0.0 0.0

-3.354276813984326e6 2.5821359937273886e7 0.0
2.5821359937273886e7 1.7003776831898183e7 0.0
0.0 0.0 0.0

-1.888759032781576e6 2.469206652842777e7 0.0
2.469206652842777e7 -3.841541007701132e6 0.0
0.0 0.0 0.0

701124.097930612 2.3051652849090345e7 0.0
2.3051652849090345e7 7.054692317918837e6 0.0
0.0 0.0 0.0

-1.2112640981662972e6 1.5666210973256944e7 0.0
1.5666210973256944e7 -3.395310003805957e6 0.0
0.0 0.0 0.0

-1.1903068777901593e6 2.298693573255789e7 0.0
2.298693573255789e7 -3.2984130097797886e6 0.0
0.0 0.0 0.0

3.103988649930181e6 2.390366321253103e7 0.0
2.390366321253103e7 -4.32717066176531e6 0.0
0.0 0.0 0.0

2.1197509785764157e6 5.298228248706288e7 0.0
5.298228248706288e7 2.458001763915022e6 0.0
0.0 0.0 0.0

-1.0873271537256988e6 2.4201824857572872e7 0.0
2.4201824857572872e7 -3.0194676691063256e6 0.0
0.0 0.0 0.0

-4.302614211075853e6 8.105433082554031e6 0.0
8.105433082554031e6 9.42210845058044e6 0.0
0.0 0.0 0.0

3.49918755875233e7 1.5553047074434709e7 0.0
1.5553047074434709e7 2.6441511841793302e6 0.0
0.0 0.0 0.0

-1.5391100450610816e6 1.1130458261762924e7 0.0
1.1130458261762924e7 -6.380406587796471e7 0.0
0.0 0.0 0.0

-1.3488747622353216e6 3.0222906449703246e7 0.0
3.0222906449703246e7 2.3627394751022127e6 0.0
0.0 0.0 0.0

-6.16840949091546e6 9.85234448076746e6 0.0
9.85234448076746e6 1.3757661564596148e7 0.0
0.0 0.0 0.0

-1.789221790307926e6 1.6124537752825815e7 0.0
1.6124537752825815e7 -7.472139933868999e6 0.0
0.0 0.0 0.0

-399297.1534810602 1.3537209816268155e7 0.0
1.3537209816268155e7 -1.2881299210717479e7 0.0
0.0 0.0 0.0

1.9017291997330724e6 5.029747720061145e7 0.0
5.029747720061145e7 1.4555190338012977e6 0.0
0.0 0.0 0.0

866070.4588603638 1.1752491656679334e7 0.0
1.1752491656679334e7 -3.8184638817760415e7 0.0
0.0 0.0 0.0

-1.030285407238452e7 7.16722188228361e6 0.0
7.16722188228361e6 3.0837720346281637e7 0.0
0.0 0.0 0.0

-6.781524296477911e6 2.5322218939679883e7 0.0
2.5322218939679883e7 -1.6214277124653602e7 0.0
0.0 0.0 0.0

-8.383041578231653e6 9.287233247020707e6 0.0
9.287233247020707e6 1.762352695253591e7 0.0
0.0 0.0 0.0

-1.2155814120650603e6 2.270544029910567e7 0.0
2.270544029910567e7 -9.47144674757045e6 0.0
0.0 0.0 0.0

-2.126567677077552e6 2.4882115373570915e7 0.0
2.4882115373570915e7 -1.2505037077264865e6 0.0
0.0 0.0 0.0

498717.04960224405 1.8776292858704563e7 0.0
1.8776292858704563e7 -2.5603870125949197e7 0.0
0.0 0.0 0.0

1.3512228460950416e6 4.806043429095617e7 0.0
4.806043429095617e7 1.0041821771421765e6 0.0
0.0 0.0 0.0

-3.514146336701257e6 2.667084560975263e7 0.0
2.667084560975263e7 1.5319137053317945e7 0.0
0.0 0.0 0.0

-967353.3098340781 2.5379409765845772e7 0.0
2.5379409765845772e7 -2.7771836377037256e6 0.0
0.0 0.0 0.0

1.2335646156358495e6 7.4111710341785755e6 0.0
7.4111710341785755e6 -4.284247116456281e7 0.0
0.0 0.0 0.0

-3.673008458943097e6 1.2449645102183592e7 0.0
1.2449645102183592e7 8.776023831845183e6 0.0
0.0 0.0 0.0

1.565795840048468e6 4.630792314267459e7 0.0
4.630792314267459e7 995236.3213221107 0.0
0.0 0.0 0.0

-150782.98337519914 1.0033520778966095e7 0.0
1.0033520778966095e7 -6.742270520230392e7 0.0
0.0 0.0 0.0

1.611846653753385e6 4.484920804401549e7 0.0
4.484920804401549e7 795308.337469362 0.0
0.0 0.0 0.0

1.439593694963867e6 4.350471520906601e7 0.0
4.350471520906601e7 474919.64751895465 0.0
0.0 0.0 0.0

-1.0789566323505684e6 3.373683595382381e7 0.0
3.373683595382381e7 -961182.4574594416 0.0
0.0 0.0 0.0

-1.0068552265256355e6 3.460670757886562e7 0.0
3.460670757886562e7 -805496.4377585223 0.0
0.0 0.0 0.0

-993459.25766852 3.5472223972750805e7 0.0
3.5472223972750805e7 -711044.5197378695 0.0
0.0 0.0 0.0

-962982.8124012063 3.6296199765428856e7 0.0
3.6296199765428856e7 -704743.7446051557 0.0
0.0 0.0 0.0

-961637.3085605459 3.713261209198522e7 0.0
3.713261209198522e7 -623356.2564591814 0.0
0.0 0.0 0.0

-978340.0863096706 3.801480416080506e7 0.0
3.801480416080506e7 -702988.1362647567 0.0
0.0 0.0 0.0

-5.089269192865189e6 1.675704748028672e7 0.0
1.675704748028672e7 1.2448414507060576e7 0.0
0.0 0.0 0.0

-843172.8330246652 3.8890997681492664e7 0.0
3.8890997681492664e7 -589163.9692918046 0.0
0.0 0.0 0.0

-1.0057721630456866e6 3.9819717689471655e7 0.0
3.9819717689471655e7 -576102.4158068907 0.0
0.0 0.0 0.0

-5.555889182349144e6 1.948873824426426e7 0.0
1.948873824426426e7 2.587591314237211e7 0.0
0.0 0.0 0.0

1.2527898928259911e6 4.23032926175255e7 0.0
4.23032926175255e7 433278.51517146645 0.0
0.0 0.0 0.0

-1.215540795595509e6 4.069091459723102e7 0.0
4.069091459723102e7 -535629.3217162063 0.0
0.0 0.0 0.0

-1.1049809618468944e6 4.177578923173916e7 0.0
4.177578923173916e7 -375891.0370004681 0.0
0.0 0.0 0.0

1.1432730185764513e6 4.125423538326982e7 0.0
4.125423538326982e7 346308.1385799975 0.0
0.0 0.0 0.0

-1.2497179532371105e6 1.908740116059422e7 0.0
1.908740116059422e7 -4.231222566665468e6 0.0
0.0 0.0 0.0

-1.4030245257901482e6 4.292595015824843e7 0.0
4.292595015824843e7 -432799.35249056015 0.0
0.0 0.0 0.0

741512.1763573292 4.0214363594868645e7 0.0
4.0214363594868645e7 95744.46559592456 0.0
0.0 0.0 0.0

1.0033555510266597e6 3.928220955881193e7 0.0
3.928220955881193e7 115499.03704187588 0.0
0.0 0.0 0.0

722603.5308990012 3.848422194841766e7 0.0
3.848422194841766e7 46818.61459371069 0.0
0.0 0.0 0.0

430737.3282767841 3.754549072449036e7 0.0
3.754549072449036e7 23285.340641786082 0.0
0.0 0.0 0.0

352435.50320973556 3.673589147646004e7 0.0
3.673589147646004e7 -20572.51799978898 0.0
0.0 0.0 0.0

79430.6068271373 3.588668341691407e7 0.0
3.588668341691407e7 -58193.99488283961 0.0
0.0 0.0 0.0

66353.93467853355 3.506813801014259e7 0.0
3.506813801014259e7 -76889.2460333034 0.0
0.0 0.0 0.0

-19791.447924718297 3.421919923472927e7 0.0
3.421919923472927e7 -193991.25032886132 0.0
0.0 0.0 0.0

-1.0927284339487236e6 2.8490824604188357e7 0.0
2.8490824604188357e7 -4.0952706025396083e6 0.0
0.0 0.0 0.0

-3.282739591737088e6 1.995642123902916e7 0.0
1.995642123902916e7 3.622551144257724e7 0.0
0.0 0.0 0.0

-1.8095272311753354e6 4.411660443815033e7 0.0
4.411660443815033e7 -352793.99482372677 0.0
0.0 0.0 0.0

1.6416464668092653e6 9.194338208416963e6 0.0
9.194338208416963e6 -2.8933676206205808e7 0.0
0.0 0.0 0.0

-1.508980198592314e6 2.760225670436206e7 0.0
2.760225670436206e7 3.285324080879503e6 0.0
0.0 0.0 0.0

-2.4064528529570643e6 4.5570235143494405e7 0.0
4.5570235143494405e7 -160015.38796049252 0.0
0.0 0.0 0.0

-8.667018512628604e6 1.482548063930863e7 0.0
1.482548063930863e7 2.687487987619625e7 0.0
0.0 0.0 0.0

-3.2518498780525886e6 4.724307184571484e7 0.0
4.724307184571484e7 -226560.8615598511 0.0
0.0 0.0 0.0

-9.198331301741824e6 1.303797289124933e7 0.0
1.303797289124933e7 3.0620701657527402e7 0.0
0.0 0.0 0.0

-4.306536537560286e6 4.910735779507097e7 0.0
4.910735779507097e7 -348005.9461099582 0.0
0.0 0.0 0.0

810550.5323125347 2.2543149757043306e7 0.0
2.2543149757043306e7 -1.9272218469859697e7 0.0
0.0 0.0 0.0

1.869916026654494e6 1.2739453718892511e7 0.0
1.2739453718892511e7 -2.289555735196931e7 0.0
0.0 0.0 0.0

-2.4767475092047825e6 1.6308178528465016e7 0.0
1.6308178528465016e7 -4.480889362004393e7 0.0
0.0 0.0 0.0

-1.1908042999615541e6 2.4921918698124647e7 0.0
2.4921918698124647e7 -1.5882662970581204e6 0.0
0.0 0.0 0.0

-1.234818201117747e6 1.8999447095309272e7 0.0
1.8999447095309272e7 -1.0905779800037313e7 0.0
0.0 0.0 0.0

-822073.6774885287 2.69564933092436e7 0.0
2.69564933092436e7 -6.757334757055464e6 0.0
0.0 0.0 0.0

796626.9702432025 2.279996551012147e7 0.0
2.279996551012147e7 -1.9269111059989944e7 0.0
0.0 0.0 0.0

2.5291629957729075e6 1.6897147441850088e6 0.0
1.6897147441850088e6 -3.634458502265984e7 0.0
0.0 0.0 0.0

-2.896542515867023e6 1.5735393683252292e7 0.0
1.5735393683252292e7 8.1138264275220055e6 0.0
0.0 0.0 0.0

-5.43652689922877e6 5.142713232831376e7 0.0
5.142713232831376e7 24624.668549529277 0.0
0.0 0.0 0.0

1.6129299682432637e6 1.3807601294924403e7 0.0
1.3807601294924403e7 -1.903326915648437e7 0.0
0.0 0.0 0.0

-8.745548957390077e6 1.32152940876748e7 0.0
1.32152940876748e7 3.4153325013295494e7 0.0
0.0 0.0 0.0

-1.246310785146569e6 2.173124234917304e7 0.0
2.173124234917304e7 -3.60761673824223e6 0.0
0.0 0.0 0.0

1.4696824207100496e6 3.730914886131302e7 0.0
3.730914886131302e7 -1.7383912305084243e6 0.0
0.0 0.0 0.0

1.726476962267384e6 8.26354381026252e6 0.0
8.26354381026252e6 -3.0561225047333404e7 0.0
0.0 0.0 0.0

-1.517593160869443e7 4.4346251526148595e7 0.0
4.4346251526148595e7 5.215425347229984e6 0.0
0.0 0.0 0.0

-4.44035468271987e6 1.8769288768606726e7 0.0
1.8769288768606726e7 1.363566253924639e7 0.0
0.0 0.0 0.0

-1.974272876849314e7 3.1809243828396205e7 0.0
3.1809243828396205e7 2.9671146189123187e6 0.0
0.0 0.0 0.0

3.834600019705085e6 2.1909384655592076e7 0.0
2.1909384655592076e7 1.8729269236129172e7 0.0
0.0 0.0 0.0

-8.017252396754545e6 5.4649227307483025e7 0.0
5.4649227307483025e7 285383.4481742969 0.0
0.0 0.0 0.0

611431.9739149082 1.3334192083856028e7 0.0
1.3334192083856028e7 -3.667915936095538e7 0.0
0.0 0.0 0.0

-3.572709986680818e6 1.8565248082585823e7 0.0
1.8565248082585823e7 8.207594492495527e6 0.0
0.0 0.0 0.0

1.7672684693228472e6 2.1305267313307144e7 0.0
2.1305267313307144e7 5.890895372677701e6 0.0
0.0 0.0 0.0

1.4662433282215465e6 1.034925299462182e7 0.0
1.034925299462182e7 -2.4977037618290517e7 0.0
0.0 0.0 0.0

1.8166653250845599e6 2.4554081028302338e7 0.0
2.4554081028302338e7 5.324607192598167e6 0.0
0.0 0.0 0.0

1.5681909203443155e6 1.0128863575778602e7 0.0
1.0128863575778602e7 -2.7361098810773287e7 0.0
0.0 0.0 0.0

-163978.18516976235 1.9820228046351355e7 0.0
1.9820228046351355e7 -3.5159102533423263e6 0.0
0.0 0.0 0.0

-1.282121362461099e6 2.5572085403420325e7 0.0
2.5572085403420325e7 -193774.98416854706 0.0
0.0 0.0 0.0

-1.7497836230878537e6 2.5857827861678638e7 0.0
2.5857827861678638e7 -3.573591650139728e6 0.0
0.0 0.0 0.0

1.159522309784105e6 1.084679629507954e7 0.0
1.084679629507954e7 -1.9977459406865478e7 0.0
0.0 0.0 0.0

3.366789088258686e7 2.775369657360714e7 0.0
2.775369657360714e7 1.2667696885527605e7 0.0
0.0 0.0 0.0

1.3156119690647628e6 1.511018264741489e7 0.0
1.511018264741489e7 -1.8513154188983947e7 0.0
0.0 0.0 0.0

-484524.18447747035 1.9330230488054484e7 0.0
1.9330230488054484e7 -8.49558637104936e6 0.0
0.0 0.0 0.0

-6.104922751680976e6 2.7283535350977764e7 0.0
2.7283535350977764e7 7.4895350241632685e6 0.0
0.0 0.0 0.0

406213.25695202313 1.3808983589261357e7 0.0
1.3808983589261357e7 -1.0359644025067441e7 0.0
0.0 0.0 0.0

-3.828157510049695e6 2.7565252233530764e7 0.0
2.7565252233530764e7 1.3547401785664978e7 0.0
0.0 0.0 0.0

7.04859123785387e6 2.0434588344887763e7 0.0
2.0434588344887763e7 3.433548611642458e7 0.0
0.0 0.0 0.0

-7.13002575235907e6 1.6074452400674617e7 0.0
1.6074452400674617e7 2.2832035636680983e7 0.0
0.0 0.0 0.0

-1.1848352230778491e7 5.8341244625748955e7 0.0
5.8341244625748955e7 -116818.56807186361 0.0
0.0 0.0 0.0

4.2793517074324265e6 2.0508823477359228e7 0.0
2.0508823477359228e7 5.4753770824067965e7 0.0
0.0 0.0 0.0

-2.792718729426022e6 1.9321501481127217e7 0.0
1.9321501481127217e7 -528491.0325567648 0.0
0.0 0.0 0.0

1.5061887975143204e7 2.4651720579004116e7 0.0
2.4651720579004116e7 5.667344056419357e6 0.0
0.0 0.0 0.0

1.7678270932870116e6 7.632556512797855e6 0.0
7.632556512797855e6 -3.4702844121862546e7 0.0
0.0 0.0 0.0

-271735.8755649924 1.3637537615202593e7 0.0
1.3637537615202593e7 -4.2136754678534254e7 0.0
0.0 0.0 0.0

-3.5044227583908364e6 2.2291026084994476e7 0.0
2.2291026084994476e7 1.4934121016538125e7 0.0
0.0 0.0 0.0

-1.8853870340068214e7 3.002157637008574e7 0.0
3.002157637008574e7 -1.42604086603271e7 0.0
0.0 0.0 0.0

-1.764066251170029e6 2.203201058463395e7 0.0
2.203201058463395e7 2.2568695135704507e6 0.0
0.0 0.0 0.0

-257213.94208803866 1.964570757506667e7 0.0
1.964570757506667e7 -1.5355451539054295e7 0.0
0.0 0.0 0.0

-1.9737591145822167e7 4.1930467965313785e7 0.0
4.1930467965313785e7 6.560129465075385e6 0.0
0.0 0.0 0.0

1.0240818339605257e6 1.3840119713573596e7 0.0
1.3840119713573596e7 -2.458237818771968e7 0.0
0.0 0.0 0.0

-1.6789951797378166e6 2.327585656766844e7 0.0
2.327585656766844e7 2.277344073388114e6 0.0
0.0 0.0 0.0

-4.728777263408201e6 1.1233557308277167e7 0.0
1.1233557308277167e7 1.1289362281699028e7 0.0
0.0 0.0 0.0

-2.1844773318425007e6 2.194175717167373e7 0.0
2.194175717167373e7 1.3033973595930388e7 0.0
0.0 0.0 0.0

-2.1686695552232964e6 9.05820986324027e7 0.0
9.05820986324027e7 5.1272238491206765e6 0.0
0.0 0.0 0.0

-5.88888804466674e6 1.680102071524874e7 0.0
1.680102071524874e7 2.109229816202029e7 0.0
0.0 0.0 0.0

-5.586324445918715e6 8.512264629140764e6 0.0
8.512264629140764e6 5.0758597970294645e6 0.0
0.0 0.0 0.0

-925131.8509635518 2.7225100126910612e7 0.0
2.7225100126910612e7 -1.1836324409758784e6 0.0
0.0 0.0 0.0

-2.360150157877057e6 2.682327669261467e7 0.0
2.682327669261467e7 4.972207878481569e6 0.0
0.0 0.0 0.0

22828.031854031142 2.3800689944852956e7 0.0
2.3800689944852956e7 -9.295153148100235e6 0.0
0.0 0.0 0.0

-1.8260969967171457e6 2.6567627097005907e7 0.0
2.6567627097005907e7 -2.1994465595070776e6 0.0
0.0 0.0 0.0

-1.013091235939246e7 3.9054023622835428e6 0.0
3.9054023622835428e6 2.025345777762715e7 0.0
0.0 0.0 0.0

-59456.38621425722 2.246900517005144e7 0.0
2.246900517005144e7 -4.812801288146897e6 0.0
0.0 0.0 0.0

-2.4948733156533735e6 2.788331622983123e7 0.0
2.788331622983123e7 4.9651051282161465e6 0.0
0.0 0.0 0.0

526779.6971558183 1.2527811262393424e7 0.0
1.2527811262393424e7 -1.705500415042051e7 0.0
0.0 0.0 0.0

1.0783811532556384e6 2.3012510763385832e7 0.0
2.3012510763385832e7 -3.3850647711094525e6 0.0
0.0 0.0 0.0

-2.325165799396992e7 3.045402482952012e7 0.0
3.045402482952012e7 141378.36274133716 0.0
0.0 0.0 0.0

-4.541070923130169e6 1.751650323977171e7 0.0
1.751650323977171e7 1.9036016156990476e7 0.0
0.0 0.0 0.0

650570.197641111 2.1820251182245795e7 0.0
2.1820251182245795e7 -2.084949945764362e7 0.0
0.0 0.0 0.0

-2.8587338865550067e6 2.8328369783801075e7 0.0
2.8328369783801075e7 7.352230573645713e6 0.0
0.0 0.0 0.0

3.084745539827372e6 2.29415167316085e6 0.0
2.29415167316085e6 -1.876546219028813e7 0.0
0.0 0.0 0.0

-6.325446592339328e6 -4.383371233325228e6 0.0
-4.383371233325228e6 1.1525495695081385e7 0.0
0.0 0.0 0.0

-4.63546851120363e6 -3.6017032021172405e6 0.0
-3.6017032021172405e6 8.33503349086526e6 0.0
0.0 0.0 0.0

-7.794754610209519e6 -2.3771113416323494e6 0.0
-2.3771113416323494e6 3.512454368024903e7 0.0
0.0 0.0 0.0

-3.5045360419281675e6 -1.5234211636806556e6 0.0
-1.5234211636806556e6 4.1484441261065295e6 0.0
0.0 0.0 0.0

-7.895032438400922e6 -2.659443755991696e6 0.0
-2.659443755991696e6 3.2293196350574315e7 0.0
0.0 0.0 0.0

3.2503926662528506e6 2.499753967644552e6 0.0
2.499753967644552e6 -1.4134218732001118e7 0.0
0.0 0.0 0.0

-7.407318394460397e6 -4.584862540883053e6 0.0
-4.584862540883053e6 1.875083350973124e7 0.0
0.0 0.0 0.0

-8.27227076881052e6 -3.722962074021484e6 0.0
-3.722962074021484e6 2.469609234318555e7 0.0
0.0 0.0 0.0

-1.345593295685674e6 784294.3003329695 0.0
784294.3003329695 392347.2222423404 0.0
0.0 0.0 0.0

-8.095910899009241e6 -2.9604863648446677e6 0.0
-2.9604863648446677e6 2.9397016187415566e7 0.0
0.0 0.0 0.0

2.6688878596705603e6 2.6844160785516803e6 0.0
2.6844160785516803e6 -9.384654659663502e6 0.0
0.0 0.0 0.0

1.4173923949193743e6 2.510740255118193e6 0.0
2.510740255118193e6 -4.66505026027618e6 0.0
0.0 0.0 0.0

-6.477606513212519e6 -4.702468434326842e6 0.0
-4.702468434326842e6 1.3848590878477013e7 0.0
0.0 0.0 0.0

2.7372098714172784e6 1.7483808963345056e6 0.0
1.7483808963345056e6 -3.250995513201539e7 0.0
0.0 0.0 0.0

2.7148458290094025e6 1.67003791616549e6 0.0
1.67003791616549e6 -3.539442117630921e7 0.0
0.0 0.0 0.0

2.8823975478903186e6 1.7682596771833505e6 0.0
1.7682596771833505e6 -2.9566646343297742e7 0.0
0.0 0.0 0.0

3.292136370686546e6 2.051467833490139e6 0.0
2.051467833490139e6 -2.5034211241823804e7 0.0
0.0 0.0 0.0

-7.5412040913231205e6 -4.687382946249777e6 0.0
-4.687382946249777e6 1.681815003213097e7 0.0
0.0 0.0 0.0

-7.856650079434419e6 -2.789715122796553e6 0.0
-2.789715122796553e6 3.0730505954519156e7 0.0
0.0 0.0 0.0

2.7197546162873115e6 1.7622806396990838e6 0.0
1.7622806396990838e6 -3.408528950180014e7 0.0
0.0 0.0 0.0

3.0040740870125275e6 2.1877070829587393e6 0.0
2.1877070829587393e6 -2.194088400431654e7 0.0
0.0 0.0 0.0

3.127254478961002e6 2.1455967411007155e6 0.0
2.1455967411007155e6 -2.346020649177967e7 0.0
0.0 0.0 0.0

3.240057386546839e6 2.214564069245087e6 0.0
2.214564069245087e6 -2.04431884188458e7 0.0
0.0 0.0 0.0

1.1172845127523085e6 1.9852177992236692e7 0.0
1.9852177992236692e7 -1.86728790904589e7 0.0
0.0 0.0 0.0

-7.9096813448907025e6 1.5812670518882068e7 0.0
1.5812670518882068e7 2.5490862119059857e7 0.0
0.0 0.0 0.0

-9.781996096748812e6 1.0324279403552234e7 0.0
1.0324279403552234e7 3.4007307992739365e7 0.0
0.0 0.0 0.0

-3.994067035416114e6 2.853072358609839e7 0.0
2.853072358609839e7 1.2058860574554432e7 0.0
0.0 0.0 0.0

-2.060950600473131e6 1.973094251401464e7 0.0
1.973094251401464e7 -3.051250907685896e7 0.0
0.0 0.0 0.0

-2.6047262912779264e6 2.3314476026452202e7 0.0
2.3314476026452202e7 5.414727204918317e6 0.0
0.0 0.0 0.0

-1.7976998373387452e7 6.371670429672469e7 0.0
6.371670429672469e7 -465828.88641796727 0.0
0.0 0.0 0.0

-2.6590168595958115e6 2.0658631966266762e7 0.0
2.0658631966266762e7 -390280.9437462031 0.0
0.0 0.0 0.0

-6.278390058830664e6 2.3914787213001262e7 0.0
2.3914787213001262e7 -1.8512995697957918e7 0.0
0.0 0.0 0.0

1.392152629121605e7 2.708794055408733e7 0.0
2.708794055408733e7 1.4957140388767745e7 0.0
0.0 0.0 0.0

-2.8619478611995177e6 2.479724798825094e7 0.0
2.479724798825094e7 1.036873783329437e7 0.0
0.0 0.0 0.0

-2.0636857042804994e6 2.318607625446564e7 0.0
2.318607625446564e7 1.2410295953075688e7 0.0
0.0 0.0 0.0

1.530422847315115e6 2.5033638109535456e7 0.0
2.5033638109535456e7 -1.4688819659280129e7 0.0
0.0 0.0 0.0

-2.524652864552521e6 2.106211513179737e7 0.0
2.106211513179737e7 1.5087859464851491e7 0.0
0.0 0.0 0.0

-1.8532725803171457e6 2.725679325900183e7 0.0
2.725679325900183e7 -970990.635230284 0.0
0.0 0.0 0.0

-1.648237731030416e6 2.5117587178537074e7 0.0
2.5117587178537074e7 -4.985365601575123e6 0.0
0.0 0.0 0.0

-5.286019316730696e6 1.733400488689003e7 0.0
1.733400488689003e7 1.4369955065503256e7 0.0
0.0 0.0 0.0

-900330.2309477096 1.820724263571886e7 0.0
1.820724263571886e7 -1.251050430589845e7 0.0
0.0 0.0 0.0

-1.8779253551953738e6 2.1397907078690525e7 0.0
2.1397907078690525e7 3.796484782975698e6 0.0
0.0 0.0 0.0

866019.0450694831 1.1698438832835877e7 0.0
1.1698438832835877e7 -1.8495354912637524e7 0.0
0.0 0.0 0.0

-6.205170959335602e6 -4.537071611667954e6 0.0
-4.537071611667954e6 1.3941199130643893e7 0.0
0.0 0.0 0.0

-5.166355678624046e6 -3.6928293367345547e6 0.0
-3.6928293367345547e6 1.1779331795067757e7 0.0
0.0 0.0 0.0

-8.079723392701481e6 -2.9744146220521084e6 0.0
-2.9744146220521084e6 2.9102906963568293e7 0.0
0.0 0.0 0.0

-7.0166075425538765e6 -4.430608051411818e6 0.0
-4.430608051411818e6 1.6158842778982604e7 0.0
0.0 0.0 0.0

-7.5573750825769035e6 -4.721857392719321e6 0.0
-4.721857392719321e6 1.7684223970819026e7 0.0
0.0 0.0 0.0

2.6557867024829853e6 1.6970286052782254e6 0.0
1.6970286052782254e6 -3.270545093808428e7 0.0
0.0 0.0 0.0

2.58127882845591e6 1.653998083842835e6 0.0
1.653998083842835e6 -3.389689979125744e7 0.0
0.0 0.0 0.0

-7.898848328065878e6 -2.7679459688662137e6 0.0
-2.7679459688662137e6 3.087177582818879e7 0.0
0.0 0.0 0.0

3.0174565430792123e6 2.0910738153331245e6 0.0
2.0910738153331245e6 -2.409009397871965e7 0.0
0.0 0.0 0.0

3.219737484549172e6 2.337230434173304e6 0.0
2.337230434173304e6 -1.9139715912934758e7 0.0
0.0 0.0 0.0

3.0917859528893223e6 2.2201221110391216e6 0.0
2.2201221110391216e6 -2.202403521392254e7 0.0
0.0 0.0 0.0

3.1838825616193395e6 2.177834794356079e6 0.0
2.177834794356079e6 -2.054264637771112e7 0.0
0.0 0.0 0.0

-2.9696851934137186e6 1.9412089427596305e7 0.0
1.9412089427596305e7 2.7884136348382253e6 0.0
0.0 0.0 0.0

-3.3273404309813473e6 2.0500844066688824e7 0.0
2.0500844066688824e7 3.391482669647215e7 0.0
0.0 0.0 0.0

-3.25474478207977e6 2.0648314369975545e7 0.0
2.0648314369975545e7 1.8497432558462005e7 0.0
0.0 0.0 0.0

2.8221435088655483e6 6.193984531406945e6 0.0
6.193984531406945e6 -2.835463510282428e7 0.0
0.0 0.0 0.0

515944.5456994544 3.0534505028752852e7 0.0
3.0534505028752852e7 -5.818663916072866e6 0.0
0.0 0.0 0.0

781848.5379100926 2.306696251991981e7 0.0
2.306696251991981e7 2.6624453611811046e7 0.0
0.0 0.0 0.0

-7.841553388485411e6 1.7483072829675812e7 0.0
1.7483072829675812e7 2.7914276169146944e7 0.0
0.0 0.0 0.0

1.3059042595292889e6 1.1228947166712595e7 0.0
1.1228947166712595e7 -2.3433743779257853e7 0.0
0.0 0.0 0.0

1.0239635733725745e6 1.4391230855479714e7 0.0
1.4391230855479714e7 -2.52552467296734e7 0.0
0.0 0.0 0.0

-1.7937170362016577e6 2.3934934643978957e7 0.0
2.3934934643978957e7 -5.310877208986706e6 0.0
0.0 0.0 0.0

39442.2758961916 2.2550077233732417e7 0.0
2.2550077233732417e7 2.9782685119469397e7 0.0
0.0 0.0 0.0

-3.267089030126327e6 1.4177297068522658e7 0.0
1.4177297068522658e7 8.419078679111164e6 0.0
0.0 0.0 0.0

-103938.23428825289 2.461745703157499e7 0.0
2.461745703157499e7 -7.856256905969803e6 0.0
0.0 0.0 0.0

-842250.7927139121 3.0007829456836976e7 0.0
3.0007829456836976e7 289105.8286423003 0.0
0.0 0.0 0.0

1.0011831863069898e6 1.6353523628338005e7 0.0
1.6353523628338005e7 -1.8190702375408713e7 0.0
0.0 0.0 0.0

-1.0748232776336414e6 2.6078635364257626e7 0.0
2.6078635364257626e7 -1.3782973174348362e6 0.0
0.0 0.0 0.0

3.538349806653297e6 5.282679016477076e6 0.0
5.282679016477076e6 574204.1651638456 0.0
0.0 0.0 0.0

-527625.4236222599 2.296301386010755e7 0.0
2.296301386010755e7 2.7771310337571684e7 0.0
0.0 0.0 0.0

-248319.25721120834 1.2227679550259084e7 0.0
1.2227679550259084e7 -5.037475623066015e7 0.0
0.0 0.0 0.0

240109.91369690746 1.3406925126233026e7 0.0
1.3406925126233026e7 -3.938583387489847e7 0.0
0.0 0.0 0.0

-229904.75955872145 2.3441532800598625e7 0.0
2.3441532800598625e7 -8.296576687437919e6 0.0
0.0 0.0 0.0

-1.1552252961152134e7 2.9195290874236844e7 0.0
2.9195290874236844e7 5.221955757406877e6 0.0
0.0 0.0 0.0

2.541771377375395e6 7.181338364371311e6 0.0
7.181338364371311e6 -1.4383627223914683e7 0.0
0.0 0.0 0.0

-1.8625480891095796e6 2.0760582568831924e7 0.0
2.0760582568831924e7 2.2448212873640615e6 0.0
0.0 0.0 0.0

-1.9695619950039885e6 2.5403761849638294e7 0.0
2.5403761849638294e7 -2.4181822328730472e6 0.0
0.0 0.0 0.0

-812476.3198565622 2.6537969568559475e7 0.0
2.6537969568559475e7 -2.5218846021308494e6 0.0
0.0 0.0 0.0

-2.5428350566626685e6 1.9757080590738196e7 0.0
1.9757080590738196e7 -3.360928490206531e7 0.0
0.0 0.0 0.0

812720.6309006102 1.4083197275339296e7 0.0
1.4083197275339296e7 -3.232202551216738e7 0.0
0.0 0.0 0.0

-4.4286967670212e6 1.4996941944756996e7 0.0
1.4996941944756996e7 6.98755836895532e6 0.0
0.0 0.0 0.0

-3.4087626986162197e6 2.187989811329149e7 0.0
2.187989811329149e7 1.3652074183110725e7 0.0
0.0 0.0 0.0

-577010.1504682992 1.773322863377098e7 0.0
1.773322863377098e7 -3.432704794428046e7 0.0
0.0 0.0 0.0

143574.58283586265 2.764479486579239e7 0.0
2.764479486579239e7 -5.688046420884652e6 0.0
0.0 0.0 0.0

1.9833210807624492e6 2.569548919211042e6 0.0
2.569548919211042e6 -6.301522463101013e6 0.0
0.0 0.0 0.0

9.241039765407382e6 4.047586894856162e7 0.0
4.047586894856162e7 -4.113262413488018e6 0.0
0.0 0.0 0.0

2.1800318980128644e6 8.194255614134656e6 0.0
8.194255614134656e6 -1.306852294738622e7 0.0
0.0 0.0 0.0

-1.1534223557366445e6 1.7704234154643856e7 0.0
1.7704234154643856e7 -4.546555004496783e6 0.0
0.0 0.0 0.0

-3.342974901362286e6 2.520995288600447e7 0.0
2.520995288600447e7 1.5291691992966048e7 0.0
0.0 0.0 0.0

-2.2455985777407466e6 1.7330455057911653e7 0.0
1.7330455057911653e7 4.0320378207225394e6 0.0
0.0 0.0 0.0

-2.6081678180362647e6 1.9890124766099665e7 0.0
1.9890124766099665e7 -2.0396792201474844e6 0.0
0.0 0.0 0.0

-2.0278820771530569e6 2.6062317289157994e7 0.0
2.6062317289157994e7 -1.0532395699774483e6 0.0
0.0 0.0 0.0

-5.087908912437227e6 1.3374568725074004e7 0.0
1.3374568725074004e7 7.186682060943734e6 0.0
0.0 0.0 0.0

-9.690355363562299e6 1.5678670985807653e6 0.0
1.5678670985807653e6 1.935996922168422e7 0.0
0.0 0.0 0.0

-2.4113199922171915e6 2.063527788603805e7 0.0
2.063527788603805e7 1.3700943453194747e7 0.0
0.0 0.0 0.0

-1.8407412715865765e6 2.3159108987711642e7 0.0
2.3159108987711642e7 7.979619207116928e6 0.0
0.0 0.0 0.0

-161302.35900172358 8.203946362059127e6 0.0
8.203946362059127e6 -8.2259748382148e6 0.0
0.0 0.0 0.0

-3.563065463276334e6 1.8402245601143483e7 0.0
1.8402245601143483e7 1.6705590187961563e7 0.0
0.0 0.0 0.0

-1.5856529721917838e6 2.701817814137416e7 0.0
2.701817814137416e7 -3.33333574828532e6 0.0
0.0 0.0 0.0

2.0581363611537777e6 1.0509785794085808e7 0.0
1.0509785794085808e7 -3.427787473697805e7 0.0
0.0 0.0 0.0

-1.0638000648003876e7 2.9514380248295438e7 0.0
2.9514380248295438e7 4.361480633785147e6 0.0
0.0 0.0 0.0

-1.920397852711853e6 2.2710440673719373e7 0.0
2.2710440673719373e7 -5.663592082382357e6 0.0
0.0 0.0 0.0

1.698873291195379e6 2.6594271484730504e6 0.0
2.6594271484730504e6 -5.153434974981128e6 0.0
0.0 0.0 0.0

-4.780632675867169e6 3.1361891675600924e7 0.0
3.1361891675600924e7 8.172897325328683e6 0.0
0.0 0.0 0.0

-1.030425946581568e7 1.3002363137885885e7 0.0
1.3002363137885885e7 2.4273279048470214e7 0.0
0.0 0.0 0.0

-2.328105760602644e6 2.1740708410053436e7 0.0
2.1740708410053436e7 -3.2086878308970965e6 0.0
0.0 0.0 0.0

-486515.68565669947 2.872752423976567e7 0.0
2.872752423976567e7 -2.1416357175685056e6 0.0
0.0 0.0 0.0

-1.7052231740779346e6 2.9475623407751396e7 0.0
2.9475623407751396e7 -621948.8113285212 0.0
0.0 0.0 0.0

-1.4838032015322628e6 2.62772701494293e7 0.0
2.62772701494293e7 -4.692653848644311e6 0.0
0.0 0.0 0.0

-1.369139318560786e6 2.6165782783517227e7 0.0
2.6165782783517227e7 1.1195495974884308e6 0.0
0.0 0.0 0.0

2.8833071355090267e6 2.6105706042634705e6 0.0
2.6105706042634705e6 -1.091905963617744e7 0.0
0.0 0.0 0.0

1.3974169162000082e6 3.308845948861892e7 0.0
3.308845948861892e7 -5.042970210500798e6 0.0
0.0 0.0 0.0

-2.077587909613609e7 2.1393192474905916e7 0.0
2.1393192474905916e7 -8.84249308689157e7 0.0
0.0 0.0 0.0

2.072093026276936e7 2.2334011872885607e7 0.0
2.2334011872885607e7 8.576185494556938e7 0.0
0.0 0.0 0.0

680281.4166125515 1.7879454175318506e7 0.0
1.7879454175318506e7 -2.378894775919857e7 0.0
0.0 0.0 0.0

-310814.2772327694 2.540647387300866e7 0.0
2.540647387300866e7 -6.417643619813272e6 0.0
0.0 0.0 0.0

-5.984742962250508e6 1.977090259836951e7 0.0
1.977090259836951e7 -2.690633325776737e7 0.0
0.0 0.0 0.0

-2.000825471125814e6 2.145116937239864e7 0.0
2.145116937239864e7 -6.050016510542499e6 0.0
0.0 0.0 0.0

1.9176230306526609e6 2.5217559444478642e7 0.0
2.5217559444478642e7 -1.497759362718609e7 0.0
0.0 0.0 0.0

-1.5601431215415944e6 1.9819527652355548e7 0.0
1.9819527652355548e7 -9.282488489325183e6 0.0
0.0 0.0 0.0

-2.1148149602155015e6 2.556856768233055e7 0.0
2.556856768233055e7 124085.13579627161 0.0
0.0 0.0 0.0

-219921.2827646099 1.0667886808327153e7 0.0
1.0667886808327153e7 -6.308139209475892e7 0.0
0.0 0.0 0.0

-1.1247872014022922e7 2.7801662190660585e7 0.0
2.7801662190660585e7 3.529657289872354e6 0.0
0.0 0.0 0.0

-2.5515071171937236e6 2.5462101349195994e7 0.0
2.5462101349195994e7 7.868790806216612e6 0.0
0.0 0.0 0.0

-810450.5515406949 2.0138110656780954e7 0.0
2.0138110656780954e7 -6.8627872023693845e6 0.0
0.0 0.0 0.0

817298.3211272992 1.488159093862106e7 0.0
1.488159093862106e7 -3.0449112532891423e7 0.0
0.0 0.0 0.0

2.0162341302252468e7 2.331668294329779e7 0.0
2.331668294329779e7 6.720780391040348e7 0.0
0.0 0.0 0.0

730346.5955265099 2.599900392050185e7 0.0
2.599900392050185e7 -1.0179050193580655e7 0.0
0.0 0.0 0.0

-3.058728528839548e7 7.221282108511128e7 0.0
7.221282108511128e7 229530.3568652589 0.0
0.0 0.0 0.0

713598.2163744699 1.7099683639375463e7 0.0
1.7099683639375463e7 -2.538952846664492e7 0.0
0.0 0.0 0.0

-700423.5343961597 2.5808554973323066e7 0.0
2.5808554973323066e7 -3.9138560159227527e6 0.0
0.0 0.0 0.0

2.6872671886104043e6 2.669967308208975e6 0.0
2.669967308208975e6 -1.0008130907051068e7 0.0
0.0 0.0 0.0

1.620717171126999e6 9.124185007463586e6 0.0
9.124185007463586e6 -3.360007448592521e7 0.0
0.0 0.0 0.0

-911682.8627824385 2.896983392637902e7 0.0
2.896983392637902e7 198842.08616626804 0.0
0.0 0.0 0.0

-9.818116461496131e6 2.0257538017821454e7 0.0
2.0257538017821454e7 -5.136163017322927e7 0.0
0.0 0.0 0.0

-1.0549723611060712e6 2.094596393061032e7 0.0
2.094596393061032e7 -5.219233524830359e6 0.0
0.0 0.0 0.0

949288.648698153 1.4197662678642109e7 0.0
1.4197662678642109e7 -1.4235814273610301e7 0.0
0.0 0.0 0.0

-2.309155925461149e6 1.8613553938795064e7 0.0
1.8613553938795064e7 7.507476495683583e6 0.0
0.0 0.0 0.0

827199.7996567432 1.6379593886307511e7 0.0
1.6379593886307511e7 -2.7074369238219e7 0.0
0.0 0.0 0.0

-3.516337649686176e6 1.7955087392653197e7 0.0
1.7955087392653197e7 6.500430216021253e6 0.0
0.0 0.0 0.0

505859.09570740815 2.112135911314982e7 0.0
2.112135911314982e7 -2.246509086788472e7 0.0
0.0 0.0 0.0

-3.0852615942940712e7 3.412304140374763e7 0.0
3.412304140374763e7 -1.5037225894249063e7 0.0
0.0 0.0 0.0

-7.9853842356164595e6 -4.318245197709843e6 0.0
-4.318245197709843e6 2.098769456945203e7 0.0
0.0 0.0 0.0

-2.675537716611463e6 1.830683114929467e7 0.0
1.830683114929467e7 1.1279601331244657e7 0.0
0.0 0.0 0.0

-1.1615349873355248e6 2.6714145785323247e7 0.0
2.6714145785323247e7 -18218.946416020975 0.0
0.0 0.0 0.0

-5.97659010817866e6 2.818409437059628e6 0.0
2.818409437059628e6 5.8081120771332696e7 0.0
0.0 0.0 0.0

1.7730914474029122e6 2.3147381732900836e7 0.0
2.3147381732900836e7 1.763879992129653e7 0.0
0.0 0.0 0.0

-1.8129493187712175e6 2.0633386936419073e7 0.0
2.0633386936419073e7 -7.669404865860448e6 0.0
0.0 0.0 0.0

1.482653020705089e6 2.508084828115883e7 0.0
2.508084828115883e7 -1.3819748922527572e7 0.0
0.0 0.0 0.0

-686866.8372426443 2.224213820182129e7 0.0
2.224213820182129e7 -1.187642224663001e7 0.0
0.0 0.0 0.0

-1.6099150671126184e6 1.6616705442336503e7 0.0
1.6616705442336503e7 -8.922839922631035e6 0.0
0.0 0.0 0.0

-1.252784846668422e6 2.4703605886050783e7 0.0
2.4703605886050783e7 -7.51878167726728e6 0.0
0.0 0.0 0.0

-2.77458173999553e6 2.1841327117874995e7 0.0
2.1841327117874995e7 1.7588001326961696e7 0.0
0.0 0.0 0.0

-1.7576895604393224e6 2.2641564422141563e7 0.0
2.2641564422141563e7 3.7352648783419956e6 0.0
0.0 0.0 0.0

-2.5050021280134637e6 2.1214725589084975e7 0.0
2.1214725589084975e7 -1.859384303583108e6 0.0
0.0 0.0 0.0

1.4985581323123332e6 9.027592381792517e6 0.0
9.027592381792517e6 -4.366015930753535e7 0.0
0.0 0.0 0.0

-6.139145715943799e6 3.2034511608687e7 0.0
3.2034511608687e7 8.301198051240887e6 0.0
0.0 0.0 0.0

-7.794202358317406e6 2.4911741501235734e6 0.0
2.4911741501235734e6 1.447207128799569e7 0.0
0.0 0.0 0.0

-2.6461245829609614e6 2.146247124390034e7 0.0
2.146247124390034e7 1.6384122848511195e7 0.0
0.0 0.0 0.0

491675.85847799527 1.4416864287870172e7 0.0
1.4416864287870172e7 -1.158463262458422e7 0.0
0.0 0.0 0.0

2.6601263742700852e6 3.3960146690421505e6 0.0
3.3960146690421505e6 -2.664832032375363e7 0.0
0.0 0.0 0.0

808757.3086612709 1.5586872415637987e7 0.0
1.5586872415637987e7 -2.8845513748875767e7 0.0
0.0 0.0 0.0

-6.651366471227157e6 9.304985079216957e6 0.0
9.304985079216957e6 7.438051302510373e6 0.0
0.0 0.0 0.0

-7.579566951266997e6 1.674093202464616e7 0.0
1.674093202464616e7 3.417718797075343e7 0.0
0.0 0.0 0.0

-1.6728350176627492e6 2.314832217610852e7 0.0
2.314832217610852e7 -6.820686517534081e6 0.0
0.0 0.0 0.0

-7.8606616115374835e6 -4.384633685252147e6 0.0
-4.384633685252147e6 1.9726445380337134e7 0.0
0.0 0.0 0.0

-3.929199637746015e6 1.6515055043438623e7 0.0
1.6515055043438623e7 6.748547582851417e6 0.0
0.0 0.0 0.0

1.5330061782629155e6 2.589554704925646e7 0.0
2.589554704925646e7 -1.2367725670113308e7 0.0
0.0 0.0 0.0

-3.413859191701439e6 2.2142304592149146e7 0.0
2.2142304592149146e7 -2.3849986678904757e7 0.0
0.0 0.0 0.0

605447.1122993752 1.4339151678598132e7 0.0
1.4339151678598132e7 -1.9924154562769666e7 0.0
0.0 0.0 0.0

-983575.7302027971 1.1266742250064723e7 0.0
1.1266742250064723e7 -7.788006042742549e6 0.0
0.0 0.0 0.0

-1.0326274377767267e6 2.2220787483293995e7 0.0
2.2220787483293995e7 -4.857114559057901e6 0.0
0.0 0.0 0.0

-899249.3942564316 2.1509734767980117e7 0.0
2.1509734767980117e7 3.2359527756698273e7 0.0
0.0 0.0 0.0

-1.4524233484080131e6 2.9825119016817585e7 0.0
2.9825119016817585e7 -1.6705687519501979e6 0.0
0.0 0.0 0.0

-4.519515126349124e6 2.2489286426405832e7 0.0
2.2489286426405832e7 2.387733491468918e7 0.0
0.0 0.0 0.0

-2.2769447477285545e6 2.5059121119471643e7 0.0
2.5059121119471643e7 1.3938307766069192e7 0.0
0.0 0.0 0.0

-300373.2348307003 1.281188506543773e7 0.0
1.281188506543773e7 -1.1608190631753882e7 0.0
0.0 0.0 0.0

-2.580100373215954e6 1.7206690234907e7 0.0
1.7206690234907e7 7.807298245844773e6 0.0
0.0 0.0 0.0

1.0345745912486389e6 2.281151295923123e7 0.0
2.281151295923123e7 1.770812539433433e7 0.0
0.0 0.0 0.0

-1.9550086843556792e6 1.7465060882544894e7 0.0
1.7465060882544894e7 -7.196575578142848e6 0.0
0.0 0.0 0.0

-484113.3768987693 1.810797129026808e7 0.0
1.810797129026808e7 -3.167886600555115e7 0.0
0.0 0.0 0.0

-961435.9276397069 2.345188571705444e7 0.0
2.345188571705444e7 -4.512056320235577e6 0.0
0.0 0.0 0.0

597066.9145438587 1.8620743483078696e7 0.0
1.8620743483078696e7 -2.2225534214103654e7 0.0
0.0 0.0 0.0

-2.1317744338988597e6 1.938526524583221e7 0.0
1.938526524583221e7 5.603197943175143e6 0.0
0.0 0.0 0.0

-1.0820077805973483e7 1.925995394903963e7 0.0
1.925995394903963e7 -3.839707176712e7 0.0
0.0 0.0 0.0

-846706.656286698 2.4646349776493922e7 0.0
2.4646349776493922e7 -4.20557141163894e6 0.0
0.0 0.0 0.0

9.064580822358549e6 2.4918818867321983e7 0.0
2.4918818867321983e7 428444.07771750493 0.0
0.0 0.0 0.0

-6.064597266374767e6 5.146206461205713e6 0.0
5.146206461205713e6 5.6834810735884026e7 0.0
0.0 0.0 0.0

-1.0289070914194169e7 4.368785336558685e7 0.0
4.368785336558685e7 4.752926058992198e6 0.0
0.0 0.0 0.0

-3.068308439825041e6 2.5373158131657083e7 0.0
2.5373158131657083e7 1.2259504513683802e7 0.0
0.0 0.0 0.0

-5.316653009325502e6 1.7542798261949394e7 0.0
1.7542798261949394e7 3.7893858998489656e7 0.0
0.0 0.0 0.0

-3.4435200708418842e6 2.8552208682505634e7 0.0
2.8552208682505634e7 1.108267437107743e7 0.0
0.0 0.0 0.0

-1.9626890813637115e6 1.9435801897493456e7 0.0
1.9435801897493456e7 2.2161722896131696e6 0.0
0.0 0.0 0.0

-585588.2223088259 2.0608737606047906e7 0.0
2.0608737606047906e7 -8.044161096110692e6 0.0
0.0 0.0 0.0

-781591.4634506446 2.26650143982243e7 0.0
2.26650143982243e7 -6.037187987609056e6 0.0
0.0 0.0 0.0

-1.6538751179056182e6 1.2661255731080959e7 0.0
1.2661255731080959e7 208493.18580747466 0.0
0.0 0.0 0.0

1.5837759236000623e6 2.6753769620750096e7 0.0
2.6753769620750096e7 -1.103789484853898e7 0.0
0.0 0.0 0.0

1.9304417041044552e6 7.170795122326673e6 0.0
7.170795122326673e6 -2.60690890428666e7 0.0
0.0 0.0 0.0

1.074787790790977e6 7.374571866105914e6 0.0
7.374571866105914e6 -1.1908901618236952e7 0.0
0.0 0.0 0.0

-2.610123689867422e6 2.4432973606156144e7 0.0
2.4432973606156144e7 1.6761854633245736e7 0.0
0.0 0.0 0.0

-1.2305195600633523e6 2.9182903293609172e7 0.0
2.9182903293609172e7 -2.90624110078328e6 0.0
0.0 0.0 0.0

7.968363664211209e6 2.534806012936245e7 0.0
2.534806012936245e7 -2.2238694395376653e6 0.0
0.0 0.0 0.0

-1.479523554919373e7 3.147280337060128e7 0.0
3.147280337060128e7 4.664632790718417e6 0.0
0.0 0.0 0.0

1.67732295354563e6 6.998618415546383e6 0.0
6.998618415546383e6 -1.721504206157098e7 0.0
0.0 0.0 0.0

-2.276284757523825e6 1.827680658104477e7 0.0
1.827680658104477e7 -5.482322673090734e6 0.0
0.0 0.0 0.0

5.9757608094745316e7 2.0136196101609737e7 0.0
2.0136196101609737e7 4.0853598715630136e6 0.0
0.0 0.0 0.0

-686532.9018636812 1.1677506038781926e7 0.0
1.1677506038781926e7 -9.39696991867836e6 0.0
0.0 0.0 0.0

1.7670925424172264e6 7.397763812464732e6 0.0
7.397763812464732e6 -3.2148547537669826e7 0.0
0.0 0.0 0.0

-3.3617381131594907e6 2.099390024846058e7 0.0
2.099390024846058e7 3.1820891822185736e7 0.0
0.0 0.0 0.0

683159.8661955604 1.9847124937712807e7 0.0
1.9847124937712807e7 -2.374325735530458e7 0.0
0.0 0.0 0.0

-8.260492468878953e6 1.4466231445018703e7 0.0
1.4466231445018703e7 2.333965831933946e7 0.0
0.0 0.0 0.0

-1.6305123611419683e7 4.155413903884788e7 0.0
4.155413903884788e7 5.539868782243471e6 0.0
0.0 0.0 0.0

-3.3595895645874627e6 2.1472860346634958e7 0.0
2.1472860346634958e7 2.989819082311269e7 0.0
0.0 0.0 0.0

-4.231676337368939e6 2.948017198409416e7 0.0
2.948017198409416e7 1.063870128237569e7 0.0
0.0 0.0 0.0

-2.6252998614113845e7 3.1495246406496275e7 0.0
3.1495246406496275e7 -1.4290107576985655e7 0.0
0.0 0.0 0.0

-2.652960580820214e6 2.1363439012822825e7 0.0
2.1363439012822825e7 1.2149799696954258e6 0.0
0.0 0.0 0.0

5.5543124295487165e7 7.469913014120302e6 0.0
7.469913014120302e6 -107663.46665311232 0.0
0.0 0.0 0.0

153001.12386052357 2.3113417489806432e7 0.0
2.3113417489806432e7 -1.0760412435658788e7 0.0
0.0 0.0 0.0

-1.8278098031152904e6 1.9831989271337863e7 0.0
1.9831989271337863e7 -756886.0204461525 0.0
0.0 0.0 0.0

1.5870160170886642e6 2.758332807764754e7 0.0
2.758332807764754e7 -9.665935870743807e6 0.0
0.0 0.0 0.0

-1.7746868622706175e7 2.7181309959717266e7 0.0
2.7181309959717266e7 -7.615759106746511e6 0.0
0.0 0.0 0.0

-381839.4285805796 1.095085622385446e7 0.0
1.095085622385446e7 -3.4759509736236404e6 0.0
0.0 0.0 0.0

-2.953896679923674e6 2.499917583830149e7 0.0
2.499917583830149e7 1.779364942003031e7 0.0
0.0 0.0 0.0

-4.9768827339261705e6 2.0314465946996883e7 0.0
2.0314465946996883e7 -2.5067856421695296e7 0.0
0.0 0.0 0.0

-9.817464253302354e6 7.591549538586546e6 0.0
7.591549538586546e6 3.464550524392612e7 0.0
0.0 0.0 0.0

-1.5469199681022093e6 2.8793668258204896e7 0.0
2.8793668258204896e7 -1.8709107293981705e6 0.0
0.0 0.0 0.0

-1.8019175336820283e6 2.0060677985865794e7 0.0
2.0060677985865794e7 616982.251365782 0.0
0.0 0.0 0.0

-627173.1727874569 2.9382959256716866e7 0.0
2.9382959256716866e7 -946022.4055604558 0.0
0.0 0.0 0.0

511114.7794172745 2.0495340238062464e7 0.0
2.0495340238062464e7 -1.410810140958276e7 0.0
0.0 0.0 0.0

-6.781243572127835e6 1.0701220126616167e7 0.0
1.0701220126616167e7 1.5530149105679825e7 0.0
0.0 0.0 0.0

-3.072586590620287e6 2.9295221813259494e7 0.0
2.9295221813259494e7 7.158394217415924e6 0.0
0.0 0.0 0.0

-3.056563984377212e6 2.4231647707419306e7 0.0
2.4231647707419306e7 2.0409631850687467e7 0.0
0.0 0.0 0.0

-2.284092326551633e6 2.388259140260975e7 0.0
2.388259140260975e7 1.4733536707465898e7 0.0
0.0 0.0 0.0

-826672.8225556226 1.6902411783794757e7 0.0
1.6902411783794757e7 -6.282656260128282e6 0.0
0.0 0.0 0.0

621646.6873812806 1.406551304329335e7 0.0
1.406551304329335e7 -3.468430972729943e7 0.0
0.0 0.0 0.0

-2.4548168078437713e6 2.325188832971458e7 0.0
2.325188832971458e7 2.677192444222663e6 0.0
0.0 0.0 0.0

539957.463244237 2.241214360362735e7 0.0
2.241214360362735e7 -1.7202011040035248e7 0.0
0.0 0.0 0.0

-118825.90487696603 2.0158277094432823e7 0.0
2.0158277094432823e7 -1.6147291243463935e7 0.0
0.0 0.0 0.0

474481.16344717704 2.958640998410434e7 0.0
2.958640998410434e7 -7.076270815842723e6 0.0
0.0 0.0 0.0

-614974.9658478107 2.3442672297618605e7 0.0
2.3442672297618605e7 -1.1253826775588958e7 0.0
0.0 0.0 0.0

1.084088100492552e6 1.4465131439834675e7 0.0
1.4465131439834675e7 -2.763037618629968e7 0.0
0.0 0.0 0.0

1.3507631651121574e6 7.489654561115325e6 0.0
7.489654561115325e6 -7.075846021706834e6 0.0
0.0 0.0 0.0

-3.215864626333307e6 7.295033126561034e6 0.0
7.295033126561034e6 7.077355977734186e6 0.0
0.0 0.0 0.0

2.03056130543692e6 3.97808911168038e7 0.0
3.97808911168038e7 -966454.7624249368 0.0
0.0 0.0 0.0

-2.6067725178007465e6 2.2009601799676515e7 0.0
2.2009601799676515e7 2.7451322505046623e6 0.0
0.0 0.0 0.0

-980302.8842217613 2.5059043158396013e7 0.0
2.5059043158396013e7 -8.572363849835437e6 0.0
0.0 0.0 0.0

3.0059105799089856e6 4.21333901811884e6 0.0
4.21333901811884e6 -1.6248703988829263e7 0.0
0.0 0.0 0.0

-6.32230719951348e6 7.680727905375691e6 0.0
7.680727905375691e6 5.745490036942162e7 0.0
0.0 0.0 0.0

1.1416710823698891e6 1.1462121309819305e7 0.0
1.1462121309819305e7 -2.0969764829789277e7 0.0
0.0 0.0 0.0

9.23623816463474e6 3.039488528898871e7 0.0
3.039488528898871e7 -6.488397861747501e6 0.0
0.0 0.0 0.0

2.656271241183294e6 3.162471864259001e7 0.0
3.162471864259001e7 -6.442441878894421e6 0.0
0.0 0.0 0.0

-3.0753986379729216e6 3.0026892239984788e7 0.0
3.0026892239984788e7 5.954364085282935e6 0.0
0.0 0.0 0.0

2.1028640859297477e6 3.5287631467877217e6 0.0
3.5287631467877217e6 -3.819020937469793e7 0.0
0.0 0.0 0.0

-394359.87105757697 2.620222910094936e7 0.0
2.620222910094936e7 -5.006894898803501e6 0.0
0.0 0.0 0.0

424220.98327715835 2.7882661452707283e7 0.0
2.7882661452707283e7 -6.693221332414821e6 0.0
0.0 0.0 0.0

1.5354203374196477e6 8.397823153723601e6 0.0
8.397823153723601e6 -3.5410643818302065e7 0.0
0.0 0.0 0.0

-10518.279049554374 3.1935855251407783e7 0.0
3.1935855251407783e7 -3.7958824421818024e6 0.0
0.0 0.0 0.0

4.4684555830659475e6 2.597916037896334e7 0.0
2.597916037896334e7 -9.061765266269771e6 0.0
0.0 0.0 0.0

-1.3727740706196153e6 2.5505388067163523e7 0.0
2.5505388067163523e7 -6.089166901269297e6 0.0
0.0 0.0 0.0

-1.5960850578514673e6 1.8980194765678782e7 0.0
1.8980194765678782e7 -3.421577325130584e7 0.0
0.0 0.0 0.0

1.3510747616677014e6 8.002594365513013e6 0.0
8.002594365513013e6 -1.575156640725155e7 0.0
0.0 0.0 0.0

231619.2345373258 1.395263179883684e7 0.0
1.395263179883684e7 -1.663404092188698e7 0.0
0.0 0.0 0.0

135847.09749988327 2.623403599018437e7 0.0
2.623403599018437e7 -9.47816395940061e6 0.0
0.0 0.0 0.0

3.486098509718628e6 2.5813183754730646e7 0.0
2.5813183754730646e7 -1.107499142141616e7 0.0
0.0 0.0 0.0

-752191.7075791336 2.4171320651494052e7 0.0
2.4171320651494052e7 -9.90321411381962e6 0.0
0.0 0.0 0.0

2.343725143336254e6 8.816806499037324e6 0.0
8.816806499037324e6 -1.6778382559301842e7 0.0
0.0 0.0 0.0

2.7247549910303783e6 4.966225393397267e6 0.0
4.966225393397267e6 -3.174158152998523e7 0.0
0.0 0.0 0.0

389275.39206110593 2.0153692375487257e7 0.0
2.0153692375487257e7 -1.9150954059909053e7 0.0
0.0 0.0 0.0

-139559.095001827 1.4741887276712311e7 0.0
1.4741887276712311e7 -1.5117615409362547e7 0.0
0.0 0.0 0.0

-2.803273268008856e6 2.005196829660325e7 0.0
2.005196829660325e7 1.154854273291535e6 0.0
0.0 0.0 0.0

-1.2226873252143634e7 3.1941531081723943e7 0.0
3.1941531081723943e7 6.0610423131805025e6 0.0
0.0 0.0 0.0

3.2849369947195724e6 1.6882291423548333e7 0.0
1.6882291423548333e7 9.03958565805993e7 0.0
0.0 0.0 0.0

-1.0274408695204914e7 8.258025589121937e6 0.0
8.258025589121937e6 3.189750546726267e7 0.0
0.0 0.0 0.0

2.7532127378872344e6 2.9441472117592055e7 0.0
2.9441472117592055e7 -9.58575652849299e6 0.0
0.0 0.0 0.0

-2.766298351170749e6 2.0733714564987116e7 0.0
2.0733714564987116e7 2.7715824109444385e6 0.0
0.0 0.0 0.0

-7.5852520368096065e6 1.0146241930592952e7 0.0
1.0146241930592952e7 4.514669967077243e7 0.0
0.0 0.0 0.0

2.811756578541193e6 5.005596380150826e6 0.0
5.005596380150826e6 -2.798783943902333e7 0.0
0.0 0.0 0.0

-1.8373905176594637e6 2.198576535045129e7 0.0
2.198576535045129e7 5.316637015664967e6 0.0
0.0 0.0 0.0

295922.5432674419 1.9362263430043668e7 0.0
1.9362263430043668e7 -2.593949663491813e7 0.0
0.0 0.0 0.0

1.590081453796187e6 2.850826328262554e7 0.0
2.850826328262554e7 -8.47673861082287e6 0.0
0.0 0.0 0.0

-39882.36261886102 2.6528933855753697e7 0.0
2.6528933855753697e7 -6.055286488218206e6 0.0
0.0 0.0 0.0

-3.6359939966676384e6 1.9126674069426797e7 0.0
1.9126674069426797e7 9.827367166959561e6 0.0
0.0 0.0 0.0

-1.4577434159851503e6 2.1196468741043344e7 0.0
2.1196468741043344e7 -2.2829445241582547e6 0.0
0.0 0.0 0.0

-8.486682985314757e6 1.261103800046293e7 0.0
1.261103800046293e7 1.5309204610366024e7 0.0
0.0 0.0 0.0

-5.717400539119861e7 3.1605562349172823e7 0.0
3.1605562349172823e7 1.0317543693280593e6 0.0
0.0 0.0 0.0

6.97799826671898e6 2.5641531675011065e7 0.0
2.5641531675011065e7 1.3803168506449604e7 0.0
0.0 0.0 0.0

-2.6792789702230133e6 2.6376848536043208e7 0.0
2.6376848536043208e7 1.4056448717039358e7 0.0
0.0 0.0 0.0

-1.0526782772402759e6 3.1600948166736446e7 0.0
3.1600948166736446e7 1.4160472623913651e6 0.0
0.0 0.0 0.0

1.3879841965963673e6 1.1000124975857312e7 0.0
1.1000124975857312e7 -2.588093355403397e7 0.0
0.0 0.0 0.0

1.6710656745021176e6 8.94325393603183e6 0.0
8.94325393603183e6 -3.146933114348137e7 0.0
0.0 0.0 0.0

1.6379627523833755e6 1.1260328983663611e7 0.0
1.1260328983663611e7 -3.743522267750199e7 0.0
0.0 0.0 0.0

-3.175060668054121e6 1.934365708050318e7 0.0
1.934365708050318e7 6.244111876548178e6 0.0
0.0 0.0 0.0

-8.357368794138838e6 1.6143216480209805e7 0.0
1.6143216480209805e7 3.1448216726026904e7 0.0
0.0 0.0 0.0

-6.064223332885375e6 1.3476539568840975e7 0.0
1.3476539568840975e7 1.665837994698646e7 0.0
0.0 0.0 0.0

6.584693373702543e6 2.573457279011183e7 0.0
2.573457279011183e7 -4.616767308326736e6 0.0
0.0 0.0 0.0

-4.040969642420799e6 2.0819800162850454e7 0.0
2.0819800162850454e7 -2.2932876324382644e7 0.0
0.0 0.0 0.0

-3.6537519458225262e6 2.957542139825353e7 0.0
2.957542139825353e7 9.012329801262189e6 0.0
0.0 0.0 0.0

1.0182648666075474e7 3.855774059133081e7 0.0
3.855774059133081e7 -4.664031165304891e6 0.0
0.0 0.0 0.0

-1.0103651585997228e7 3.2143144022049196e7 0.0
3.2143144022049196e7 7.110753986067785e6 0.0
0.0 0.0 0.0

-3.404188412064011e6 2.2850176984623544e7 0.0
2.2850176984623544e7 2.423617803443862e7 0.0
0.0 0.0 0.0

-203663.38593573123 7.85969516207182e6 0.0
7.85969516207182e6 -6.199983842887043e7 0.0
0.0 0.0 0.0

160900.83395566326 1.9450777318402003e7 0.0
1.9450777318402003e7 -1.2347205139864352e7 0.0
0.0 0.0 0.0

3.017539179567218e6 2.6389447868972737e6 0.0
2.6389447868972737e6 -1.3090186380893834e7 0.0
0.0 0.0 0.0

1.9031797758723944e6 9.5288353412111e6 0.0
9.5288353412111e6 -3.873598427650756e7 0.0
0.0 0.0 0.0

-3.0013431300179465e6 3.074028036423742e7 0.0
3.074028036423742e7 4.807462575329753e6 0.0
0.0 0.0 0.0

-7.642064806925083e6 1.6645112501003666e7 0.0
1.6645112501003666e7 2.9464803608455416e7 0.0
0.0 0.0 0.0

-3.677246909809895e6 2.2233156675149858e7 0.0
2.2233156675149858e7 2.6263640106910367e7 0.0
0.0 0.0 0.0

-2.903811660850852e6 2.7301238034372002e7 0.0
2.7301238034372002e7 1.3143206805038925e7 0.0
0.0 0.0 0.0

1.874806134754493e6 1.1729818649715444e7 0.0
1.1729818649715444e7 -1.856634414541554e7 0.0
0.0 0.0 0.0

-9.113963522445878e6 2.6671155022999924e7 0.0
2.6671155022999924e7 -1.405249913047826e7 0.0
0.0 0.0 0.0

2.7298190068038134e6 3.945124580374465e7 0.0
3.945124580374465e7 -2.906838547772683e6 0.0
0.0 0.0 0.0

-4.240804368828767e6 3.203504122408688e7 0.0
3.203504122408688e7 6.563947515976061e6 0.0
0.0 0.0 0.0

-3.263818247975692e6 2.1972054942371342e7 0.0
2.1972054942371342e7 2.8015134351929285e7 0.0
0.0 0.0 0.0

-5.125428559583835e6 7.885806660282478e7 0.0
7.885806660282478e7 -1.2423219689084355e7 0.0
0.0 0.0 0.0

-7.308705243170152e6 2.5734036312471338e7 0.0
2.5734036312471338e7 -1.6557232789402379e7 0.0
0.0 0.0 0.0

-3.3138347499753954e6 2.1448881281984653e7 0.0
2.1448881281984653e7 1.2275596865780175e7 0.0
0.0 0.0 0.0

-1.0919311994120892e7 4.4905276352871135e6 0.0
4.4905276352871135e6 1.8727315428786166e7 0.0
0.0 0.0 0.0

-822580.2743442347 2.142733044792144e7 0.0
2.142733044792144e7 -6.438297237396745e6 0.0
0.0 0.0 0.0

-1.4438048451422406e7 2.76343568705372e7 0.0
2.76343568705372e7 -8.118512281423766e6 0.0
0.0 0.0 0.0

-1.0698027819021896e7 4.16206481216247e7 0.0
4.16206481216247e7 4.309772016035883e6 0.0
0.0 0.0 0.0

99016.09506310616 2.4888701815740824e7 0.0
2.4888701815740824e7 -8.745287288115423e6 0.0
0.0 0.0 0.0

-511109.39507118403 2.7194175129286487e7 0.0
2.7194175129286487e7 -7.698204063358261e6 0.0
0.0 0.0 0.0

-9.801373709631644e6 5.807475712449969e6 0.0
5.807475712449969e6 2.8864969464098945e7 0.0
0.0 0.0 0.0

2.7756227703454625e6 6.34148732184312e6 0.0
6.34148732184312e6 -2.4755481931834534e7 0.0
0.0 0.0 0.0

3.2677733766847323e6 3.821899654753398e7 0.0
3.821899654753398e7 -2.1587301564377914e6 0.0
0.0 0.0 0.0

-3.2128317622854356e6 2.352454792326358e7 0.0
2.352454792326358e7 2.2362493872986823e7 0.0
0.0 0.0 0.0

-1.9852891502037786e7 2.9384003385631338e7 0.0
2.9384003385631338e7 -4.781811387616491e6 0.0
0.0 0.0 0.0

-3.2707685180026568e6 6.727683878538909e6 0.0
6.727683878538909e6 295869.27160251304 0.0
0.0 0.0 0.0

-1.6213200204531336e7 2.9284836855476353e7 0.0
2.9284836855476353e7 -1.3209681458949318e7 0.0
0.0 0.0 0.0

-1.0553462637172246e6 2.5840068526588514e7 0.0
2.5840068526588514e7 -7.1296825008372795e6 0.0
0.0 0.0 0.0

501363.3990547573 1.939277144726426e7 0.0
1.939277144726426e7 -2.0665159438103348e7 0.0
0.0 0.0 0.0

-713691.5021634127 2.38709461369604e7 0.0
2.38709461369604e7 -5.676231031588605e6 0.0
0.0 0.0 0.0

1.1094101587774362e6 1.2074198221456349e7 0.0
1.2074198221456349e7 -2.193205991694666e7 0.0
0.0 0.0 0.0

-1.414795122050214e6 2.5044257753592215e7 0.0
2.5044257753592215e7 1.0551197075575888e6 0.0
0.0 0.0 0.0

-1.10013449592095e7 6.893585624887862e6 0.0
6.893585624887862e6 1.8048176870905418e7 0.0
0.0 0.0 0.0

-6.965048552660044e6 1.6638747330944099e7 0.0
1.6638747330944099e7 2.3976667665685646e7 0.0
0.0 0.0 0.0

-2.7391707059733868e6 1.882417333361864e7 0.0
1.882417333361864e7 1.2881370265203267e7 0.0
0.0 0.0 0.0

-7.053182342698334e6 2.0443339154092554e7 0.0
2.0443339154092554e7 -2.2351742594376966e7 0.0
0.0 0.0 0.0

-2.3158153500716244e6 1.9162367241312064e7 0.0
1.9162367241312064e7 9.144331208064558e6 0.0
0.0 0.0 0.0

-4.5367894764352866e7 3.564648641317525e7 0.0
3.564648641317525e7 -9.525414302749332e6 0.0
0.0 0.0 0.0

-2.7408408225567155e6 2.1368045708084393e7 0.0
2.1368045708084393e7 4.295603466402201e6 0.0
0.0 0.0 0.0

-2.7785282645038217e6 2.3834080305970162e7 0.0
2.3834080305970162e7 -4.269798466816416e6 0.0
0.0 0.0 0.0

-6.441077135841249e7 3.0693962930388443e7 0.0
3.0693962930388443e7 -1.0523931788165048e6 0.0
0.0 0.0 0.0

5.431454517797777e6 2.603282641560417e7 0.0
2.603282641560417e7 -7.062365322722492e6 0.0
0.0 0.0 0.0

-1.9895488689652092e6 2.0103378713691764e7 0.0
2.0103378713691764e7 3.8615019430356584e6 0.0
0.0 0.0 0.0

1.278222318556754e6 1.3372778350329177e7 0.0
1.3372778350329177e7 -1.5696070931544125e7 0.0
0.0 0.0 0.0

-1.3914276957252636e6 3.210786743110341e7 0.0
3.210786743110341e7 2.4318175736471443e6 0.0
0.0 0.0 0.0

890758.8787090965 1.4055960337057736e7 0.0
1.4055960337057736e7 -2.2257034935808454e7 0.0
0.0 0.0 0.0

845271.3557974705 1.5199732607615525e7 0.0
1.5199732607615525e7 -2.3905920522989605e7 0.0
0.0 0.0 0.0

-7.87661616436035e6 1.1032751027754437e7 0.0
1.1032751027754437e7 1.1723644121968826e7 0.0
0.0 0.0 0.0

-2.9845133962164586e6 2.4330572349879853e7 0.0
2.4330572349879853e7 1.2301679459149556e7 0.0
0.0 0.0 0.0

2.3101822891998067e6 8.716148875364985e6 0.0
8.716148875364985e6 -3.2946170651575096e7 0.0
0.0 0.0 0.0

-1.043331264747247e7 1.01492652194973e7 0.0
1.01492652194973e7 2.437352632163093e7 0.0
0.0 0.0 0.0

884252.7056761058 1.4600738022699606e7 0.0
1.4600738022699606e7 -2.311648780684049e7 0.0
0.0 0.0 0.0

-1.083969803917077e8 1.2391797109646134e7 0.0
1.2391797109646134e7 2.371314002229929e6 0.0
0.0 0.0 0.0

122031.00851370767 7.709786325511555e6 0.0
7.709786325511555e6 -5.761219818498452e7 0.0
0.0 0.0 0.0

-3.027534724276064e6 2.2716317179002427e7 0.0
2.2716317179002427e7 1.1683997062726442e7 0.0
0.0 0.0 0.0

-2.752896850195291e6 2.476154020607166e7 0.0
2.476154020607166e7 9.356836041952386e6 0.0
0.0 0.0 0.0

-5.695126861035316e6 3.109416556308615e7 0.0
3.109416556308615e7 9.547142520853406e6 0.0
0.0 0.0 0.0

-1.7634065584338843e6 2.191265435149393e7 0.0
2.191265435149393e7 -7.226764684014614e6 0.0
0.0 0.0 0.0

-3.1170933953347895e6 2.4561498510611665e7 0.0
2.4561498510611665e7 2.0676051846665844e7 0.0
0.0 0.0 0.0

404624.9589414252 1.698084511694655e7 0.0
1.698084511694655e7 -1.9000713793646708e7 0.0
0.0 0.0 0.0

1.3723206260948498e6 1.123842646784243e7 0.0
1.123842646784243e7 -3.123487306401714e7 0.0
0.0 0.0 0.0

-1.7143143253407497e6 3.154998782725146e7 0.0
3.154998782725146e7 3.40417295163033e6 0.0
0.0 0.0 0.0

3.510892270405889e6 3.358116243484783e7 0.0
3.358116243484783e7 -6.370507755000686e6 0.0
0.0 0.0 0.0

1.0128941290565319e6 1.0488600520446373e7 0.0
1.0488600520446373e7 -4.596849519929604e7 0.0
0.0 0.0 0.0

-3.976188843161147e6 1.5952147787835555e7 0.0
1.5952147787835555e7 1.3880581884571146e7 0.0
0.0 0.0 0.0

-8.328255546201024e6 3.198738083945427e7 0.0
3.198738083945427e7 7.982150717179604e6 0.0
0.0 0.0 0.0

-5.6359787742173985e7 8.533128126082131e7 0.0
8.533128126082131e7 -1.6842291217724327e6 0.0
0.0 0.0 0.0

-8.147577033944432e6 1.2193538463525455e7 0.0
1.2193538463525455e7 3.957910267977751e7 0.0
0.0 0.0 0.0

-5.94768914731482e6 1.910505270464757e7 0.0
1.910505270464757e7 -2.0109084170821186e7 0.0
0.0 0.0 0.0

-2.002035607977127e6 6.482188244988469e6 0.0
6.482188244988469e6 4.483104763854938e6 0.0
0.0 0.0 0.0

-7.285805295070667e6 -2.066965740177151e6 0.0
-2.066965740177151e6 3.949673957096519e7 0.0
0.0 0.0 0.0

2.4907283665696923e6 1.5609930497119823e6 0.0
1.5609930497119823e6 -3.980846843146002e7 0.0
0.0 0.0 0.0

-9.15518389684439e6 2.810965019888817e7 0.0
2.810965019888817e7 2.244704064027156e6 0.0
0.0 0.0 0.0

-2.079779025738947e6 2.1274540203348946e7 0.0
2.1274540203348946e7 -2.4149564318376724e7 0.0
0.0 0.0 0.0

-3.7445055481204763e6 1.802109442968016e7 0.0
1.802109442968016e7 4.3184889820158616e7 0.0
0.0 0.0 0.0

2.606737573366596e6 2.8440423504614826e7 0.0
2.8440423504614826e7 -1.0656121194550388e7 0.0
0.0 0.0 0.0

902051.6924264841 1.3501090671458753e7 0.0
1.3501090671458753e7 -2.1341089424222913e7 0.0
0.0 0.0 0.0

895772.6797530726 1.8453644390561216e7 0.0
1.8453644390561216e7 5.666403626524633e7 0.0
0.0 0.0 0.0

-1.5684361885412084e6 2.1930271716480177e7 0.0
2.1930271716480177e7 -711660.8493778759 0.0
0.0 0.0 0.0

1.030048614211237e6 2.0653556312762834e7 0.0
2.0653556312762834e7 4.185498192025959e7 0.0
0.0 0.0 0.0

-1.471594895412338e6 2.1707784334178682e7 0.0
2.1707784334178682e7 -2.2206405210497987e7 0.0
0.0 0.0 0.0

9.788431482201454e7 1.1902806791078188e7 0.0
1.1902806791078188e7 3.261268047851585e6 0.0
0.0 0.0 0.0

1.5837431877742317e6 2.9412274360582355e7 0.0
2.9412274360582355e7 -7.341442283995394e6 0.0
0.0 0.0 0.0

4.804677166746492e6 3.797209782698666e7 0.0
3.797209782698666e7 -2.9886629984122324e6 0.0
0.0 0.0 0.0

772407.757590835 1.4835804951744717e7 0.0
1.4835804951744717e7 -2.071582093183733e7 0.0
0.0 0.0 0.0

1.7239479960084707e6 1.3552603186516901e7 0.0
1.3552603186516901e7 -2.144771415419597e7 0.0
0.0 0.0 0.0

-1.5578146122990584e6 2.109374534853737e7 0.0
2.109374534853737e7 -8.815990199831724e6 0.0
0.0 0.0 0.0

-8.87435326866034e6 1.3815944830347862e7 0.0
1.3815944830347862e7 3.1590683557952546e7 0.0
0.0 0.0 0.0

-3.923102321735155e6 1.9576719873310182e7 0.0
1.9576719873310182e7 -3.3975553395131305e7 0.0
0.0 0.0 0.0

2.8996419284768766e6 2.592045284758561e6 0.0
2.592045284758561e6 -1.1653984705399005e7 0.0
0.0 0.0 0.0

627432.4554294217 1.800280356752569e7 0.0
1.800280356752569e7 -2.061650681686485e7 0.0
0.0 0.0 0.0

-3.2647771660683922e7 4.054617269766867e7 0.0
4.054617269766867e7 7.04366577882937e6 0.0
0.0 0.0 0.0

-3.4848976008396456e6 1.4279419834314803e7 0.0
1.4279419834314803e7 962791.5032386128 0.0
0.0 0.0 0.0

3.184773940603018e6 1.866369853773616e7 0.0
1.866369853773616e7 6.676681790280591e7 0.0
0.0 0.0 0.0

-2.7650749200369194e6 2.492576878375196e7 0.0
2.492576878375196e7 1.6822011227771793e7 0.0
0.0 0.0 0.0

1.0236132905951412e7 2.5885426894706745e7 0.0
2.5885426894706745e7 5.809777354219209e6 0.0
0.0 0.0 0.0

-6.804781749900276e6 3.1624197631877605e7 0.0
3.1624197631877605e7 8.731276063169565e6 0.0
0.0 0.0 0.0

1.6349929339363896e6 3.025601173053535e7 0.0
3.025601173053535e7 -6.079196119981909e6 0.0
0.0 0.0 0.0

-4.258962761637838e6 3.1375945415460814e7 0.0
3.1375945415460814e7 7.411730600534627e6 0.0
0.0 0.0 0.0

-8.838526709669646e6 1.432990182048997e7 0.0
1.432990182048997e7 2.917525174093608e7 0.0
0.0 0.0 0.0

-5.768990977195691e6 1.849530333487863e7 0.0
1.849530333487863e7 2.419240836285501e7 0.0
0.0 0.0 0.0

-1.0969363153677499e7 8.830349246969488e6 0.0
8.830349246969488e6 1.6904645659741495e7 0.0
0.0 0.0 0.0

2.386657288750244e7 1.375040364234615e7 0.0
1.375040364234615e7 1.4931247736945255e6 0.0
0.0 0.0 0.0

-806135.842000573 2.2159078447887637e7 0.0
2.2159078447887637e7 -2.0436339051180247e7 0.0
0.0 0.0 0.0

1.0311232035694041e6 3.010317422943357e7 0.0
3.010317422943357e7 -5.28409047391932e6 0.0
0.0 0.0 0.0

-2.8254286106315316e6 3.1379647443593044e7 0.0
3.1379647443593044e7 3.708249896923771e6 0.0
0.0 0.0 0.0

-8.810252240847256e6 -643650.1881836993 0.0
-643650.1881836993 2.9056588097340427e7 0.0
0.0 0.0 0.0

-3.875542645229543e6 3.3340113443839148e7 0.0
3.3340113443839148e7 4.75059739860165e6 0.0
0.0 0.0 0.0

-1.9709685949356426e6 2.0707911814679198e7 0.0
2.0707911814679198e7 5.445383402140683e6 0.0
0.0 0.0 0.0

-5.337131646844972e6 3.402333076574854e7 0.0
3.402333076574854e7 5.753067281328999e6 0.0
0.0 0.0 0.0

9.737541577218015e6 2.4572798752384093e7 0.0
2.4572798752384093e7 3.5496938648810973e6 0.0
0.0 0.0 0.0

3.7815131397683555e6 3.5220123526280954e7 0.0
3.5220123526280954e7 -3.94303364789774e6 0.0
0.0 0.0 0.0

2.225960685196331e6 5.040583313195381e6 0.0
5.040583313195381e6 -3.1752110332271032e7 0.0
0.0 0.0 0.0

-8.539686700932136e6 1.2623394936514115e7 0.0
1.2623394936514115e7 3.681618059039489e7 0.0
0.0 0.0 0.0

783470.3658838226 2.4556382582471073e7 0.0
2.4556382582471073e7 -1.1489219381681737e7 0.0
0.0 0.0 0.0

-149869.17959939316 2.2723674816230673e7 0.0
2.2723674816230673e7 -1.8668311270660296e7 0.0
0.0 0.0 0.0

-1.6418639241503095e6 2.063446129337837e7 0.0
2.063446129337837e7 -879040.8529525353 0.0
0.0 0.0 0.0

-5.005467309608405e6 2.6236526142437972e7 0.0
2.6236526142437972e7 7.094753527495031e6 0.0
0.0 0.0 0.0

4.0010826409330256e6 2.9519762561309457e7 0.0
2.9519762561309457e7 -9.306047626820786e6 0.0
0.0 0.0 0.0

-209600.42683440214 2.2775136029710818e7 0.0
2.2775136029710818e7 -1.0214036216532702e7 0.0
0.0 0.0 0.0

-8.336177154329473e6 1.660972844198858e7 0.0
1.660972844198858e7 2.3957314775135852e7 0.0
0.0 0.0 0.0

2.181991418202337e6 1.1034231312987171e7 0.0
1.1034231312987171e7 -2.584596187674997e7 0.0
0.0 0.0 0.0

-1.766092743137274e6 2.2823820920890868e7 0.0
2.2823820920890868e7 -1.971047544557346e7 0.0
0.0 0.0 0.0

4.0376044302057084e6 2.5235602816131182e7 0.0
2.5235602816131182e7 1.57326580027374e7 0.0
0.0 0.0 0.0

-1.537286056925587e6 2.4342687052319262e7 0.0
2.4342687052319262e7 -6.443830190430652e6 0.0
0.0 0.0 0.0

1.7394384241979402e6 8.328203116093277e6 0.0
8.328203116093277e6 -4.445545383489366e7 0.0
0.0 0.0 0.0

1.6093763866352066e6 6.070590822418013e6 0.0
6.070590822418013e6 -5.949967331406762e7 0.0
0.0 0.0 0.0

-3.6582900040826946e6 1.9661379642240062e7 0.0
1.9661379642240062e7 1.1381971933499059e7 0.0
0.0 0.0 0.0

-2.578339514145787e6 3.1986129362798925e7 0.0
3.1986129362798925e7 2.694790904227813e6 0.0
0.0 0.0 0.0

-9.32127008098521e6 5.645742701046465e6 0.0
5.645742701046465e6 3.3585892256328605e7 0.0
0.0 0.0 0.0

-5.552142185404053e6 1.8453686906173773e7 0.0
1.8453686906173773e7 1.7352224505731747e7 0.0
0.0 0.0 0.0

-2.8632286621335214e6 2.3918890379184287e7 0.0
2.3918890379184287e7 1.1147452657586802e7 0.0
0.0 0.0 0.0

2.1135605307712154e6 1.1293629758988306e7 0.0
1.1293629758988306e7 -2.343776703555314e7 0.0
0.0 0.0 0.0

2.3600758864784744e6 1.4333653119366202e6 0.0
1.4333653119366202e6 -4.115195078025775e7 0.0
0.0 0.0 0.0

-2.2704171064248113e6 2.2328228471198834e7 0.0
2.2328228471198834e7 1.4346980808172047e7 0.0
0.0 0.0 0.0

6.359120444146328e6 2.033998428091915e7 0.0
2.033998428091915e7 8.142964199036326e7 0.0
0.0 0.0 0.0

-1.9215806219035122e6 2.518657830086495e7 0.0
2.518657830086495e7 1.0006668821079927e7 0.0
0.0 0.0 0.0

1.4029752694019175e6 3.097401631457561e7 0.0
3.097401631457561e7 -5.1167717519851085e6 0.0
0.0 0.0 0.0

836854.3492639586 1.5812925000140116e7 0.0
1.5812925000140116e7 -2.206340146158028e7 0.0
0.0 0.0 0.0

401984.16847043484 3.366742446262735e7 0.0
3.366742446262735e7 -1.1213773427486317e6 0.0
0.0 0.0 0.0

-1.9635211493769833e6 3.0942910253197215e7 0.0
3.0942910253197215e7 4.425686308397074e6 0.0
0.0 0.0 0.0

1.12623840867218e7 2.0294865186435875e7 0.0
2.0294865186435875e7 5.140176922218637e7 0.0
0.0 0.0 0.0

2.9222035440004338e6 2.6176245163091565e6 0.0
2.6176245163091565e6 -1.241198321771583e7 0.0
0.0 0.0 0.0

5.816352502704877e6 2.6844343072632194e7 0.0
2.6844343072632194e7 -8.186343958826696e6 0.0
0.0 0.0 0.0

2.8542703439065292e6 3.8809358780560507e6 0.0
3.8809358780560507e6 -2.2519213643857542e7 0.0
0.0 0.0 0.0

-8.089578153761478e6 1.5194346034455521e7 0.0
1.5194346034455521e7 2.4430720998850487e7 0.0
0.0 0.0 0.0

-2.829871942474047e6 2.9083931190726284e7 0.0
2.9083931190726284e7 6.152941927544134e6 0.0
0.0 0.0 0.0

-578224.8628573869 2.5048426856393985e7 0.0
2.5048426856393985e7 -5.339696696046454e6 0.0
0.0 0.0 0.0

1.838823643290409e6 1.2350539733952291e7 0.0
1.2350539733952291e7 -1.954225294852809e7 0.0
0.0 0.0 0.0

134189.51723366976 2.3178497143286206e7 0.0
2.3178497143286206e7 -1.191880867832734e7 0.0
0.0 0.0 0.0

1.171702406037135e6 3.1742384973598473e7 0.0
3.1742384973598473e7 -4.1228045395119106e6 0.0
0.0 0.0 0.0

-8.77501553785836e6 7.378848716524869e6 0.0
7.378848716524869e6 3.8650983492117286e7 0.0
0.0 0.0 0.0

-4.771789397695741e6 2.016586846048769e7 0.0
2.016586846048769e7 2.4122832157823313e7 0.0
0.0 0.0 0.0

-9.727617885384113e6 1.2064013310188953e7 0.0
1.2064013310188953e7 2.617620979751566e7 0.0
0.0 0.0 0.0

-2.930613718425357e6 2.006412776160864e7 0.0
2.006412776160864e7 4.434010487662658e6 0.0
0.0 0.0 0.0

-3.1893809897735757e6 3.0769823794845175e7 0.0
3.0769823794845175e7 8.367710040307014e6 0.0
0.0 0.0 0.0

-2.0875808592122388e6 2.4216950175205324e7 0.0
2.4216950175205324e7 -2.6779739082065974e6 0.0
0.0 0.0 0.0

-1.5841415055722948e6 3.3389581587138344e7 0.0
3.3389581587138344e7 -129367.68208350928 0.0
0.0 0.0 0.0

-8.260263350198175e6 1.1786040045980962e7 0.0
1.1786040045980962e7 1.3631301734785149e7 0.0
0.0 0.0 0.0

-5.853761600260673e6 1.7937157755807135e7 0.0
1.7937157755807135e7 2.3256597059475448e7 0.0
0.0 0.0 0.0

-2.3070133551470055e6 3.25306843664583e7 0.0
3.25306843664583e7 1.76986829034521e6 0.0
0.0 0.0 0.0

3.606440068167469e6 2.805372816282241e7 0.0
2.805372816282241e7 -1.054791559730231e7 0.0
0.0 0.0 0.0

1.8789265128477998e7 2.784967463231882e7 0.0
2.784967463231882e7 1.4712824340038167e7 0.0
0.0 0.0 0.0

-2.0973006815210264e6 1.99653156328377e7 0.0
1.99653156328377e7 7.228767721108694e6 0.0
0.0 0.0 0.0

9.337716792216938e6 3.189182312136991e7 0.0
3.189182312136991e7 -6.521409999911487e6 0.0
0.0 0.0 0.0

-2.0883086488470207e6 2.1067860252902713e7 0.0
2.1067860252902713e7 1.0176336983233042e7 0.0
0.0 0.0 0.0

-4.858930895977532e6 1.968384410146024e7 0.0
1.968384410146024e7 2.3276000202246204e7 0.0
0.0 0.0 0.0

-5.744427362286782e6 1.2675672727632867e7 0.0
1.2675672727632867e7 1.5020664194732577e7 0.0
0.0 0.0 0.0

-1.9843270425191908e6 3.298498139464296e7 0.0
3.298498139464296e7 748606.9212104628 0.0
0.0 0.0 0.0

2.6635278964686114e6 6.721497625646682e6 0.0
6.721497625646682e6 -3.1092840838747803e7 0.0
0.0 0.0 0.0

2.431259816467274e6 9.251554983883686e6 0.0
9.251554983883686e6 -2.889502553795003e7 0.0
0.0 0.0 0.0

-4.780065148562131e6 3.0444353583967723e7 0.0
3.0444353583967723e7 1.0222857109189294e7 0.0
0.0 0.0 0.0

-366294.77355844225 1.43022347666237e7 0.0
1.43022347666237e7 -7.512394915753552e6 0.0
0.0 0.0 0.0

1.7960534013099428e6 1.2973025899993611e7 0.0
1.2973025899993611e7 -2.048262339001167e7 0.0
0.0 0.0 0.0

-41176.675679298176 3.655513008753431e7 0.0
3.655513008753431e7 -1.395018460534155e6 0.0
0.0 0.0 0.0

765499.2895833484 3.307421324910593e7 0.0
3.307421324910593e7 -2.0872593185705133e6 0.0
0.0 0.0 0.0

-679554.4408770956 2.6127291829983108e7 0.0
2.6127291829983108e7 -8.099016893374662e6 0.0
0.0 0.0 0.0

-2.8807077911921805e6 2.0721452926935926e7 0.0
2.0721452926935926e7 -3.0330070564353727e7 0.0
0.0 0.0 0.0

-3.383472974308702e6 3.657110181559728e7 0.0
3.657110181559728e7 1.96613629588765e6 0.0
0.0 0.0 0.0

-4.630597972113477e6 2.0610634367399655e7 0.0
2.0610634367399655e7 2.4748816414709978e7 0.0
0.0 0.0 0.0

1.6594825820135074e6 7.86357673341241e6 0.0
7.86357673341241e6 -1.8211913308669273e7 0.0
0.0 0.0 0.0

2.685067951060363e6 4.007281988389045e7 0.0
4.007281988389045e7 -1.5739519843174517e6 0.0
0.0 0.0 0.0

-2.983932091727187e6 2.5772140658598244e7 0.0
2.5772140658598244e7 1.427182813945962e7 0.0
0.0 0.0 0.0

1.0076159130582197e6 3.24329017511278e7 0.0
3.24329017511278e7 -3.011775531381448e6 0.0
0.0 0.0 0.0

533855.5835014349 2.3304001342604678e7 0.0
2.3304001342604678e7 -1.706250746677473e7 0.0
0.0 0.0 0.0

-590027.1956800543 3.386102449654063e7 0.0
3.386102449654063e7 622581.0901547436 0.0
0.0 0.0 0.0

-3.1290230047720047e6 2.5852882864941496e7 0.0
2.5852882864941496e7 1.7062031181816872e7 0.0
0.0 0.0 0.0

-505345.6299500109 3.4049662244816616e7 0.0
3.4049662244816616e7 -1.7349689525356253e6 0.0
0.0 0.0 0.0

1.0722068695978256e7 4.3325524096466854e7 0.0
4.3325524096466854e7 -3.419192038815794e6 0.0
0.0 0.0 0.0

-6.921813590131689e6 1.7843725116824783e7 0.0
1.7843725116824783e7 3.0922179588358294e7 0.0
0.0 0.0 0.0

1.5688822355146902e6 1.4359931280033037e7 0.0
1.4359931280033037e7 -1.996948882115951e7 0.0
0.0 0.0 0.0

-8.491809161733143e6 1.455905492986567e7 0.0
1.455905492986567e7 3.2502217019813567e7 0.0
0.0 0.0 0.0

-7.690247472582307e6 1.687323410320802e7 0.0
1.687323410320802e7 2.139658945047968e7 0.0
0.0 0.0 0.0

-1.2382986287181806e6 -581169.4334455713 0.0
-581169.4334455713 2.520573310484991e6 0.0
0.0 0.0 0.0

-1.1740879660139978e6 -2.040029812673992e6 0.0
-2.040029812673992e6 2.7049269281374495e6 0.0
0.0 0.0 0.0

-6.488376115542935e6 1.8384494971035074e7 0.0
1.8384494971035074e7 3.1535531080709893e7 0.0
0.0 0.0 0.0

1.7294280504923034e7 2.6835899917698145e7 0.0
2.6835899917698145e7 1.4746524443364182e7 0.0
0.0 0.0 0.0

2.3745379344361303e6 3.445199902386068e7 0.0
3.445199902386068e7 -3.2826713734520907e6 0.0
0.0 0.0 0.0

237784.4063712554 2.6869184519165583e7 0.0
2.6869184519165583e7 -7.178260503466086e6 0.0
0.0 0.0 0.0

1.5209040752114914e6 1.4894808095718084e7 0.0
1.4894808095718084e7 -2.0956194182185832e7 0.0
0.0 0.0 0.0

1.0241885636903532e7 2.010250106052154e7 0.0
2.010250106052154e7 4.581500868385129e7 0.0
0.0 0.0 0.0

-3.1730335925843976e6 3.719854871893064e7 0.0
3.719854871893064e7 3.294024370867133e6 0.0
0.0 0.0 0.0

9688.731651502196 3.7342035055576265e7 0.0
3.7342035055576265e7 -1.3997463102507573e6 0.0
0.0 0.0 0.0

465747.75327965134 3.816088771143263e7 0.0
3.816088771143263e7 -1.4265904012139041e6 0.0
0.0 0.0 0.0

-3.607639917753053e6 2.267197424069454e7 0.0
2.267197424069454e7 1.6084329841828244e7 0.0
0.0 0.0 0.0

-3.753334209379635e6 2.0129583387596384e7 0.0
2.0129583387596384e7 1.291479866153342e7 0.0
0.0 0.0 0.0

-7.195677564067525e6 1.444665579648705e7 0.0
1.444665579648705e7 1.4912028560023408e7 0.0
0.0 0.0 0.0

-2.538396476679301e6 2.7254640636380274e7 0.0
2.7254640636380274e7 1.175762826028681e7 0.0
0.0 0.0 0.0

-2.785484444963538e6 1.9270053462879073e7 0.0
1.9270053462879073e7 1.4426875695855696e7 0.0
0.0 0.0 0.0

-6.670523651408615e6 1.7276635799562667e7 0.0
1.7276635799562667e7 3.498849321194326e7 0.0
0.0 0.0 0.0

1.5614221075621098e6 1.5544772120791396e7 0.0
1.5544772120791396e7 -2.167029511013768e7 0.0
0.0 0.0 0.0

-3.106455682280029e6 2.468379855759582e7 0.0
2.468379855759582e7 1.3351520745677529e7 0.0
0.0 0.0 0.0

-7.318926973243298e6 1.5657075296874888e7 0.0
1.5657075296874888e7 3.6549534575614125e7 0.0
0.0 0.0 0.0

5.84593836243033e6 2.345380694842184e7 0.0
2.345380694842184e7 1.853362935595582e7 0.0
0.0 0.0 0.0

-2.903833695154785e6 2.129502286298978e7 0.0
2.129502286298978e7 7.435464788157544e6 0.0
0.0 0.0 0.0

-548675.4627134134 3.470287614900508e7 0.0
3.470287614900508e7 702301.8230847296 0.0
0.0 0.0 0.0

-604860.6336287163 3.2967448466009986e7 0.0
3.2967448466009986e7 545669.4504329073 0.0
0.0 0.0 0.0

-3.2525206749081183e6 2.6702294314398948e7 0.0
2.6702294314398948e7 1.5360985289851746e7 0.0
0.0 0.0 0.0

-2.5303835165409558e6 2.1831099732517384e7 0.0
2.1831099732517384e7 -2.506178470322227e7 0.0
0.0 0.0 0.0

-2.8367509615142117e6 2.7615218872280408e7 0.0
2.7615218872280408e7 8.852633102518827e6 0.0
0.0 0.0 0.0

-4.0601647916843854e6 2.1278001950581096e7 0.0
2.1278001950581096e7 2.2988430400803063e7 0.0
0.0 0.0 0.0

-75561.73376104282 2.574727848440525e7 0.0
2.574727848440525e7 -7.497289222581139e6 0.0
0.0 0.0 0.0

5.781151241730851e6 3.889997932124905e7 0.0
3.889997932124905e7 -2.993148680359222e6 0.0
0.0 0.0 0.0

-3.5673947351086903e6 2.7688877696160212e7 0.0
2.7688877696160212e7 1.3741174395877339e7 0.0
0.0 0.0 0.0

-434816.9584619906 2.533492185562494e7 0.0
2.533492185562494e7 -9.41856159083398e6 0.0
0.0 0.0 0.0

2.1825523460445832e6 9.98143022567832e6 0.0
9.98143022567832e6 -2.9831329432080638e7 0.0
0.0 0.0 0.0

-2.3956646122409543e6 2.268590466150208e7 0.0
2.268590466150208e7 1.5550680238353029e7 0.0
0.0 0.0 0.0

6.552992432175206e6 3.1529704782575406e7 0.0
3.1529704782575406e7 -7.422059179778194e6 0.0
0.0 0.0 0.0

2.470957219320625e6 2.761538732414611e6 0.0
2.761538732414611e6 -8.406823570864769e6 0.0
0.0 0.0 0.0

1.0403452122919355e6 1.0088758106402151e7 0.0
1.0088758106402151e7 -3.960870178859474e7 0.0
0.0 0.0 0.0

432243.98379075713 2.3722461348554235e7 0.0
2.3722461348554235e7 -1.1545393139662286e7 0.0
0.0 0.0 0.0

1.7735630270277537e7 2.793756544153872e7 0.0
2.793756544153872e7 1.6521963105647333e7 0.0
0.0 0.0 0.0

1.4447097027584426e6 1.0485038038659409e7 0.0
1.0485038038659409e7 -3.0635429399395667e7 0.0
0.0 0.0 0.0

1.3371501586407367e6 1.19523989166304e7 0.0
1.19523989166304e7 -2.968423483210441e7 0.0
0.0 0.0 0.0

2.8064230103586204e6 2.3613801201548032e7 0.0
2.3613801201548032e7 7.123596765461747e6 0.0
0.0 0.0 0.0

-9.075186871789284e6 9.112865233109206e6 0.0
9.112865233109206e6 3.660221127859575e7 0.0
0.0 0.0 0.0

-8.023680542819378e6 1.5061606960805308e7 0.0
1.5061606960805308e7 1.7970681720913194e7 0.0
0.0 0.0 0.0

-1.2696102208065987e7 2.1082545534839347e7 0.0
2.1082545534839347e7 -5.8960243535681754e7 0.0
0.0 0.0 0.0

-4.609440717643888e6 1.9777117395725556e7 0.0
1.9777117395725556e7 1.6525685970365873e7 0.0
0.0 0.0 0.0

-9.595128981174381e6 1.4550779236797076e7 0.0
1.4550779236797076e7 2.6453919206421033e7 0.0
0.0 0.0 0.0

4.847377989726375e6 2.5970701260898158e7 0.0
2.5970701260898158e7 1.3219366080920417e7 0.0
0.0 0.0 0.0

-7.494084400112074e6 -2.2646663974590683e6 0.0
-2.2646663974590683e6 3.823354529423689e7 0.0
0.0 0.0 0.0

-3.122893315017202e6 2.311819780050153e7 0.0
2.311819780050153e7 1.297481305293555e7 0.0
0.0 0.0 0.0

-3.720534919603077e6 3.0782632359653987e7 0.0
3.0782632359653987e7 9.079456929013254e6 0.0
0.0 0.0 0.0

451010.4200920025 2.1325798859706137e7 0.0
2.1325798859706137e7 -1.8230151319251947e7 0.0
0.0 0.0 0.0

-8.609511948102068e6 -1.447570246443188e6 0.0
-1.447570246443188e6 1.7356021108854853e7 0.0
0.0 0.0 0.0

-7.0543050345498035e6 1.3715129081579974e7 0.0
1.3715129081579974e7 1.3214285679082023e7 0.0
0.0 0.0 0.0

-1.0759665412862636e6 8.555898854715552e6 0.0
8.555898854715552e6 -6.749550286320722e7 0.0
0.0 0.0 0.0

8.910662006259434e6 3.927789799709064e7 0.0
3.927789799709064e7 -3.822638628121153e6 0.0
0.0 0.0 0.0

-5.412296787027869e6 1.455619111132692e7 0.0
1.455619111132692e7 4.724254200766453e7 0.0
0.0 0.0 0.0

-6.631240656597137e6 2.2157451136514075e7 0.0
2.2157451136514075e7 -1.9384050049125526e7 0.0
0.0 0.0 0.0

-9.694107656737523e6 1.4012870088402981e7 0.0
1.4012870088402981e7 2.868439291566348e7 0.0
0.0 0.0 0.0

-1.7058185701255847e7 2.9647854092126515e7 0.0
2.9647854092126515e7 -1.2621373790424505e7 0.0
0.0 0.0 0.0

-1.8198408886906407e6 2.3529433100350283e7 0.0
2.3529433100350283e7 -6.380586802326551e6 0.0
0.0 0.0 0.0

5.111408923025396e6 2.1014583937893786e7 0.0
2.1014583937893786e7 2.2829731167593457e7 0.0
0.0 0.0 0.0

1.0548542936788388e6 9.203591168726247e6 0.0
9.203591168726247e6 -4.167457375241676e7 0.0
0.0 0.0 0.0

-6.086713892677247e6 1.930902559130999e7 0.0
1.930902559130999e7 -2.073293474906318e7 0.0
0.0 0.0 0.0

1.0520578581559353e7 4.562206305264921e7 0.0
4.562206305264921e7 -5.229300647182096e6 0.0
0.0 0.0 0.0

-2.5310530902582034e6 2.302937443720693e7 0.0
2.302937443720693e7 1.6644936046662185e7 0.0
0.0 0.0 0.0

-7.309351944544846e6 -1.736150917293264e6 0.0
-1.736150917293264e6 4.2367173297259904e7 0.0
0.0 0.0 0.0

-100486.59279042389 2.2959638778107744e7 0.0
2.2959638778107744e7 2.0501662892522585e7 0.0
0.0 0.0 0.0

-1.4438529512320776e7 2.8646030326275237e7 0.0
2.8646030326275237e7 -1.4257764837696325e7 0.0
0.0 0.0 0.0

-6.320990010846884e6 1.229712078461447e7 0.0
1.229712078461447e7 9.455854234202586e6 0.0
0.0 0.0 0.0

6.031174683315281e6 2.09722910725261e7 0.0
2.09722910725261e7 4.8354707932751e7 0.0
0.0 0.0 0.0

-6.299767030466632e6 1.9314558424450886e7 0.0
1.9314558424450886e7 2.2689706375585273e7 0.0
0.0 0.0 0.0

-7.493464253275794e6 1.7443916225277003e7 0.0
1.7443916225277003e7 2.2476275329163987e7 0.0
0.0 0.0 0.0

-6.42430681443857e6 1.2723443676818183e7 0.0
1.2723443676818183e7 4.683465274356044e7 0.0
0.0 0.0 0.0

356952.4439297961 2.244226987358e7 0.0
2.244226987358e7 2.5806789403246894e7 0.0
0.0 0.0 0.0

-1.108878256303503e7 3.619390618332206e7 0.0
3.619390618332206e7 5.724712752782161e6 0.0
0.0 0.0 0.0

566240.6661551307 4.104777890042198e7 0.0
4.104777890042198e7 -1.5586014943928225e6 0.0
0.0 0.0 0.0

-3.0274258058829485e6 2.577663142127563e7 0.0
2.577663142127563e7 1.2640974089164283e7 0.0
0.0 0.0 0.0

2.131411053709458e6 2.6267130187593834e6 0.0
2.6267130187593834e6 -6.821227901850849e6 0.0
0.0 0.0 0.0

1.839387289228987e6 1.3327937198086975e7 0.0
1.3327937198086975e7 -2.3797804308224957e7 0.0
0.0 0.0 0.0

1.5864614953980958e6 1.3179708483893262e7 0.0
1.3179708483893262e7 -1.811224515462978e7 0.0
0.0 0.0 0.0

-3.838437360364155e6 2.059690904382465e7 0.0
2.059690904382465e7 1.4363176454597985e7 0.0
0.0 0.0 0.0

-219051.0744875077 5.637146545539702e7 0.0
5.637146545539702e7 -3.4775884639934106e6 0.0
0.0 0.0 0.0

-9.984962251897372e6 1.0497857150142867e7 0.0
1.0497857150142867e7 1.5488105851865059e7 0.0
0.0 0.0 0.0

4.486566987237405e6 3.601396822919774e7 0.0
3.601396822919774e7 -3.9049225553657366e6 0.0
0.0 0.0 0.0

7.150829425766827e6 3.275594045884531e7 0.0
3.275594045884531e7 -6.7594989270637e6 0.0
0.0 0.0 0.0

-4.0751445276138927e6 1.3124764863790134e7 0.0
1.3124764863790134e7 1.0745561175606452e7 0.0
0.0 0.0 0.0

-306514.97789188556 2.195391721250198e7 0.0
2.195391721250198e7 1.4685149162519907e6 0.0
0.0 0.0 0.0

2.5563508451959874e7 2.661149090915292e7 0.0
2.661149090915292e7 1.229729810253343e7 0.0
0.0 0.0 0.0

1.0898144784521138e7 2.2148306753898337e7 0.0
2.2148306753898337e7 4.720532977341549e7 0.0
0.0 0.0 0.0

3.286306163286333e6 2.177516206282395e7 0.0
2.177516206282395e7 1.8768842454676166e7 0.0
0.0 0.0 0.0

-6.427610897725791e6 1.8769231163526833e7 0.0
1.8769231163526833e7 2.1776222776218206e7 0.0
0.0 0.0 0.0

512404.3107749348 5.244390047175196e7 0.0
5.244390047175196e7 -2.807879325479841e6 0.0
0.0 0.0 0.0

-2.4699287050976086e7 3.1345358011682328e7 0.0
3.1345358011682328e7 -1.2584155682377268e7 0.0
0.0 0.0 0.0

-7.257771083263338e6 1.800874137520453e7 0.0
1.800874137520453e7 2.342859944480515e7 0.0
0.0 0.0 0.0

-781159.2937092464 1.4623537813096741e7 0.0
1.4623537813096741e7 -4.2412606292070955e7 0.0
0.0 0.0 0.0

2.004944263765823e6 1.331173190850398e6 0.0
1.331173190850398e6 -4.852519107938168e7 0.0
0.0 0.0 0.0

1.164867933438941e6 2.025070602689253e7 0.0
2.025070602689253e7 -1.9287274450765442e7 0.0
0.0 0.0 0.0

1.672265204814326e6 1.4135486359787034e7 0.0
1.4135486359787034e7 -2.2369114151054997e7 0.0
0.0 0.0 0.0

1.188166435485729e6 2.2155934929261077e7 0.0
2.2155934929261077e7 -1.6798979004025694e7 0.0
0.0 0.0 0.0

-971521.2458376001 6.129157583731897e7 0.0
6.129157583731897e7 -5.637897184718779e6 0.0
0.0 0.0 0.0

-1.8760062537120394e6 2.8431874508198995e7 0.0
2.8431874508198995e7 5.614707447169162e6 0.0
0.0 0.0 0.0

1.7498889693288608e6 2.6206943672047593e7 0.0
2.6206943672047593e7 -1.3415604472836917e7 0.0
0.0 0.0 0.0

976812.0660847044 2.523840673425519e7 0.0
2.523840673425519e7 -1.4050989516654424e7 0.0
0.0 0.0 0.0

1.946048954201145e6 1.213397302533983e7 0.0
1.213397302533983e7 -2.1962565367075965e7 0.0
0.0 0.0 0.0

-3.4543580595789533e6 2.7085393452850305e7 0.0
2.7085393452850305e7 1.2802524698051179e7 0.0
0.0 0.0 0.0

1.6246483582009515e6 2.339972478689857e7 0.0
2.339972478689857e7 2.2951207349858817e7 0.0
0.0 0.0 0.0

-7.356246240413462e6 2.8396102910506215e7 0.0
2.8396102910506215e7 8.86611306706601e6 0.0
0.0 0.0 0.0

-1.070710733716514e6 9.721297290808352e6 0.0
9.721297290808352e6 8.666768128941183e7 0.0
0.0 0.0 0.0

-8.666969900533218e6 250151.896146552 0.0
250151.896146552 2.716894195724526e7 0.0
0.0 0.0 0.0

-8.791367259470299e6 9.153681514083166e7 0.0
9.153681514083166e7 -1.7021125819942113e7 0.0
0.0 0.0 0.0

6.120760671726771e6 2.114557116950985e7 0.0
2.114557116950985e7 2.953497414357732e7 0.0
0.0 0.0 0.0

850727.2623527807 4.978673783193402e7 0.0
4.978673783193402e7 -2.0633980676464725e6 0.0
0.0 0.0 0.0

580605.5103280526 2.174874048967584e7 0.0
2.174874048967584e7 -1.3304308650508601e7 0.0
0.0 0.0 0.0

2.5282130150338216e6 2.5417204457174014e7 0.0
2.5417204457174014e7 -1.2726725159461336e7 0.0
0.0 0.0 0.0

-2.533065658767945e6 2.9698097568445854e7 0.0
2.9698097568445854e7 7.780887969414602e6 0.0
0.0 0.0 0.0

3.1728128477728795e6 1.8550769505850521e6 0.0
1.8550769505850521e6 -2.651614425435618e7 0.0
0.0 0.0 0.0

1.2270353565323683e7 2.4682749090930305e7 0.0
2.4682749090930305e7 4.6838122592072645e6 0.0
0.0 0.0 0.0

1.7771780524185486e6 1.4024310280044748e7 0.0
1.4024310280044748e7 -2.463493725743203e7 0.0
0.0 0.0 0.0

7.215858203558134e6 2.961372694507076e7 0.0
2.961372694507076e7 -7.337777199102432e6 0.0
0.0 0.0 0.0

1.8522202213354055e6 8.5639638743258e6 0.0
8.5639638743258e6 -4.069910495767143e7 0.0
0.0 0.0 0.0

-2.0304771707559493e6 2.4387362215699654e7 0.0
2.4387362215699654e7 1.1877057947373582e7 0.0
0.0 0.0 0.0

2.4459573042596495e6 8.040744075445512e6 0.0
8.040744075445512e6 -1.5632729765751844e7 0.0
0.0 0.0 0.0

-2.1063520845433753e6 1.349090897807445e7 0.0
1.349090897807445e7 2.265832712316147e6 0.0
0.0 0.0 0.0

-2.2154170303266406e7 2.796896084769602e7 0.0
2.796896084769602e7 -7.942564778665254e6 0.0
0.0 0.0 0.0

2.0528042568070162e6 1.1499219923590975e7 0.0
1.1499219923590975e7 -2.894850838801286e7 0.0
0.0 0.0 0.0

-2.427100683601324e6 2.0436895390247535e7 0.0
2.0436895390247535e7 -3.4606272081975257e6 0.0
0.0 0.0 0.0

1.0342697408097317e6 2.6982620342486694e7 0.0
2.6982620342486694e7 -1.1403512258160038e7 0.0
0.0 0.0 0.0

966512.367210295 2.151080941343287e7 0.0
2.151080941343287e7 3.319576073493319e7 0.0
0.0 0.0 0.0

678837.4325798058 2.4141766822096966e7 0.0
2.4141766822096966e7 -1.6909656730942982e6 0.0
0.0 0.0 0.0

-4.525332197797196e6 1.9290518780809242e7 0.0
1.9290518780809242e7 1.5127809517698e7 0.0
0.0 0.0 0.0

-8.71354558073872e6 1.0304444004503544e7 0.0
1.0304444004503544e7 4.097137506634672e7 0.0
0.0 0.0 0.0

1.4873185692284536e6 2.1944883674040962e7 0.0
2.1944883674040962e7 3.3788321787454695e7 0.0
0.0 0.0 0.0

-5.388932930152032e6 2.0515101902734976e7 0.0
2.0515101902734976e7 2.1808064052066606e7 0.0
0.0 0.0 0.0

-9.370174495537696e6 5.69816629771948e6 0.0
5.69816629771948e6 3.660339408699756e7 0.0
0.0 0.0 0.0

-2.967745195616115e6 2.223740677546908e7 0.0
2.223740677546908e7 1.857270956687435e7 0.0
0.0 0.0 0.0

-3.4246630140778506e6 2.5081710180611413e7 0.0
2.5081710180611413e7 1.882542191339189e7 0.0
0.0 0.0 0.0

-9.858750523856789e6 8.979006007967932e6 0.0
8.979006007967932e6 2.058840982218841e7 0.0
0.0 0.0 0.0

1.0313382845597863e6 2.611933859158899e7 0.0
2.611933859158899e7 -1.2726791492168223e7 0.0
0.0 0.0 0.0

-2.744877377623201e6 2.979728080378408e7 0.0
2.979728080378408e7 4.917184401660037e6 0.0
0.0 0.0 0.0

-5.219422075682726e6 2.1016309067831725e7 0.0
2.1016309067831725e7 2.2583475004061416e7 0.0
0.0 0.0 0.0

-7.3242156255233325e6 5.291674261368109e6 0.0
5.291674261368109e6 5.252045778293187e7 0.0
0.0 0.0 0.0

-1.4406785850512981e6 2.4669046088409398e7 0.0
2.4669046088409398e7 1.5411453740336271e7 0.0
0.0 0.0 0.0

-6.808093672161598e6 1.723609092988575e7 0.0
1.723609092988575e7 2.4916762339103416e7 0.0
0.0 0.0 0.0

-99510.77228132822 1.4263650896957261e7 0.0
1.4263650896957261e7 -3.975584110244495e7 0.0
0.0 0.0 0.0

971897.3770827968 2.0499456056415066e7 0.0
2.0499456056415066e7 4.166155063091844e7 0.0
0.0 0.0 0.0

-6.52073674760958e6 1.860182218030544e7 0.0
1.860182218030544e7 2.9158815591632646e7 0.0
0.0 0.0 0.0

1.5849861079139868e6 1.2545611480355157e7 0.0
1.2545611480355157e7 -1.7145800418233834e7 0.0
0.0 0.0 0.0

1.972146961509496e6 3.345492725961611e6 0.0
3.345492725961611e6 -3.8000031575744286e7 0.0
0.0 0.0 0.0

5.013991890514981e6 2.100082425394573e7 0.0
2.100082425394573e7 3.749177288220058e7 0.0
0.0 0.0 0.0

3.106413266458435e6 2.103637977207882e7 0.0
2.103637977207882e7 3.974987354176572e7 0.0
0.0 0.0 0.0

-364588.6678565503 2.1023260187102452e7 0.0
2.1023260187102452e7 -9.180611827768205e6 0.0
0.0 0.0 0.0

-3.842347647431113e6 2.870338720444357e7 0.0
2.870338720444357e7 1.2313796741268046e7 0.0
0.0 0.0 0.0

814537.4922683288 4.459208163084532e7 0.0
4.459208163084532e7 -1.8082510487520464e6 0.0
0.0 0.0 0.0

1.2384763528047977e6 2.397454706885275e7 0.0
2.397454706885275e7 -1.551215030110223e7 0.0
0.0 0.0 0.0

-9.152963700837826e6 1.4500317684794692e6 0.0
1.4500317684794692e6 2.831120605835806e7 0.0
0.0 0.0 0.0

-392286.24006835 1.6894100493631914e7 0.0
1.6894100493631914e7 -3.393039345672053e7 0.0
0.0 0.0 0.0

-2.6535455946017327e6 2.5466059856366552e7 0.0
2.5466059856366552e7 1.5693357117034229e7 0.0
0.0 0.0 0.0

-7.217311443197262e6 1.7285782205100533e7 0.0
1.7285782205100533e7 3.017953642821028e7 0.0
0.0 0.0 0.0

5.140779956581856e6 1.857545338614524e7 0.0
1.857545338614524e7 1.7042686720342945e7 0.0
0.0 0.0 0.0

45094.712161837146 1.1150863406366736e7 0.0
1.1150863406366736e7 -4.695863644092934e7 0.0
0.0 0.0 0.0

323741.1388179306 1.4116632779069908e7 0.0
1.4116632779069908e7 -3.7085493233519174e7 0.0
0.0 0.0 0.0

1.2742682857910067e7 4.785982810100869e7 0.0
4.785982810100869e7 -5.921164866066708e6 0.0
0.0 0.0 0.0

-1.7047975084329657e6 2.9090709325112313e7 0.0
2.9090709325112313e7 4.396949927317223e6 0.0
0.0 0.0 0.0

-2.4687457590430165e6 3.044288228835287e7 0.0
3.044288228835287e7 6.600404076363269e6 0.0
0.0 0.0 0.0

-942990.8565159783 3.1203369295130745e7 0.0
3.1203369295130745e7 -2.4762006871883236e6 0.0
0.0 0.0 0.0

3.1978265417871457e6 4.227494556214968e6 0.0
4.227494556214968e6 -2.1728807949355807e7 0.0
0.0 0.0 0.0

-2.915728164504572e6 2.0425941987853836e7 0.0
2.0425941987853836e7 -9.594174452456722e6 0.0
0.0 0.0 0.0

-2.468362412404855e6 2.5282743594494876e7 0.0
2.5282743594494876e7 1.4906683531618202e7 0.0
0.0 0.0 0.0

2.3361295419641314e6 2.6905733243138094e7 0.0
2.6905733243138094e7 -1.2262642089815957e7 0.0
0.0 0.0 0.0

791099.1790268064 4.323882597589151e7 0.0
4.323882597589151e7 -1.6369154091979014e6 0.0
0.0 0.0 0.0

-7.235998588664189e6 1.1585053745701652e7 0.0
1.1585053745701652e7 1.7184978270463612e7 0.0
0.0 0.0 0.0

-9.429235782861622e6 1.2800999398875132e7 0.0
1.2800999398875132e7 3.3491319900787827e7 0.0
0.0 0.0 0.0

678659.8412993716 4.21471209006614e7 0.0
4.21471209006614e7 -1.4477840908202734e6 0.0
0.0 0.0 0.0

1.0385272052230374e6 2.7890457181368183e7 0.0
2.7890457181368183e7 -1.0178234890284605e7 0.0
0.0 0.0 0.0

1.0840391906118654e6 1.2677847086519852e7 0.0
1.2677847086519852e7 -2.2842578872113347e7 0.0
0.0 0.0 0.0

-3.079298629581269e6 2.0215830031369198e7 0.0
2.0215830031369198e7 1.7226411904584803e7 0.0
0.0 0.0 0.0

45966.927151223645 1.0261923901720276e7 0.0
1.0261923901720276e7 -4.940117614201187e7 0.0
0.0 0.0 0.0

-522395.8897424966 3.632433452186558e7 0.0
3.632433452186558e7 760728.5331971297 0.0
0.0 0.0 0.0

-3.848464381266729e6 2.6207006599383213e7 0.0
2.6207006599383213e7 1.171781392009734e7 0.0
0.0 0.0 0.0

-1.42960493446894e6 1.5612756285280012e7 0.0
1.5612756285280012e7 -4.280160316334908e7 0.0
0.0 0.0 0.0

-3.703983626507092e6 3.1135607876106266e7 0.0
3.1135607876106266e7 6.736317619960433e6 0.0
0.0 0.0 0.0

-9.092143607388543e6 1.2374954254998563e7 0.0
1.2374954254998563e7 3.6059723991291076e7 0.0
0.0 0.0 0.0

870764.6960156811 1.2294206854683788e7 0.0
1.2294206854683788e7 -1.949132276920101e7 0.0
0.0 0.0 0.0

3.258429782371401e6 2.511372113517928e7 0.0
2.511372113517928e7 1.2855449629362889e7 0.0
0.0 0.0 0.0

-2.2735548637955463e6 2.7957892616460107e7 0.0
2.7957892616460107e7 9.365619315142715e6 0.0
0.0 0.0 0.0

-2.207562772816846e6 1.6735122251977397e7 0.0
1.6735122251977397e7 -4.237036117675553e7 0.0
0.0 0.0 0.0

-1.3902710940647232e6 6.804332230172858e7 0.0
6.804332230172858e7 -8.896230601424582e6 0.0
0.0 0.0 0.0

-5.869553100676006e6 2.006054579168818e7 0.0
2.006054579168818e7 2.6321482180330936e7 0.0
0.0 0.0 0.0

-1.5002512161861096e7 2.034395941590872e7 0.0
2.034395941590872e7 -7.12031148794152e7 0.0
0.0 0.0 0.0

-5.248611367730607e6 1.1984375447733672e7 0.0
1.1984375447733672e7 1.3208080096141692e7 0.0
0.0 0.0 0.0

-3.2333820934995534e6 2.3500472959518787e7 0.0
2.3500472959518787e7 1.413659927249778e7 0.0
0.0 0.0 0.0

-1.7412783097869344e6 2.024110578161334e7 0.0
2.024110578161334e7 3.78248334047716e7 0.0
0.0 0.0 0.0

-3.697047881063387e6 1.8904020601645064e7 0.0
1.8904020601645064e7 1.808063437187826e7 0.0
0.0 0.0 0.0

3.2135310465825424e6 1.8954798230590045e7 0.0
1.8954798230590045e7 7.219251508476625e7 0.0
0.0 0.0 0.0

-2.150454825957111e6 2.3537298642408635e7 0.0
2.3537298642408635e7 1.3629101421549566e7 0.0
0.0 0.0 0.0

-2.267421647455018e6 2.109652971302319e7 0.0
2.109652971302319e7 -2.8155154073719185e7 0.0
0.0 0.0 0.0

1.3464687548826141e6 2.448923243023625e7 0.0
2.448923243023625e7 -1.637820346020513e7 0.0
0.0 0.0 0.0

1.982540727224607e8 3.5021730028774805e7 0.0
3.5021730028774805e7 1.911906531142036e7 0.0
0.0 0.0 0.0

-7.185747720413346e6 -1.660330664323796e6 0.0
-1.660330664323796e6 4.382271689118834e7 0.0
0.0 0.0 0.0

2.2258708574538454e6 1.3445322525744908e6 0.0
1.3445322525744908e6 -4.4074528477629505e7 0.0
0.0 0.0 0.0

-1.0107849575061329e7 2.4879685888945884e6 0.0
2.4879685888945884e6 1.63237584022072e7 0.0
0.0 0.0 0.0

-667643.9644706015 3.04913578623019e7 0.0
3.04913578623019e7 -3.5619307495504403e6 0.0
0.0 0.0 0.0

-6.163517000504777e6 -1.0762404959285553e6 0.0
-1.0762404959285553e6 5.624686677274484e7 0.0
0.0 0.0 0.0

-9.905836891836043e6 1.9454751074679743e7 0.0
1.9454751074679743e7 -4.238199980114441e7 0.0
0.0 0.0 0.0

-8.077263063612469e6 1.5713770951967727e7 0.0
1.5713770951967727e7 3.09595031863236e7 0.0
0.0 0.0 0.0

-5.095652000231178e6 2.1481626467420682e7 0.0
2.1481626467420682e7 2.3197586889393203e7 0.0
0.0 0.0 0.0

1.8853452189162448e6 1.2830552305962981e6 0.0
1.2830552305962981e6 -5.0037351779563576e7 0.0
0.0 0.0 0.0

1.1294759086196814e6 2.1027600787317116e7 0.0
2.1027600787317116e7 -1.7754675366005085e7 0.0
0.0 0.0 0.0

808558.2195767805 4.6176898034801506e7 0.0
4.6176898034801506e7 -1.492402675499803e6 0.0
0.0 0.0 0.0

553923.443738061 1.3131081569794815e7 0.0
1.3131081569794815e7 -1.8093828119131315e7 0.0
0.0 0.0 0.0

-4.852846361252445e6 2.5449534760187823e7 0.0
2.5449534760187823e7 -5.105604818011776e6 0.0
0.0 0.0 0.0

1.802049917721428e6 9.821698155458102e6 0.0
9.821698155458102e6 1.1929390561579028e8 0.0
0.0 0.0 0.0

-3.79928093881242e6 9.343626943595544e6 0.0
9.343626943595544e6 -1.1651878782910556e8 0.0
0.0 0.0 0.0

-8.31830592170953e6 1.9354602389622096e7 0.0
1.9354602389622096e7 -9.892587363986611e7 0.0
0.0 0.0 0.0

1.2446173383000577e6 1.877704706695734e7 0.0
1.877704706695734e7 -2.233169039609758e7 0.0
0.0 0.0 0.0

1.2521092040759847e6 7.7941248505624505e6 0.0
7.7941248505624505e6 -5.3747532231905766e7 0.0
0.0 0.0 0.0

-2.9997209833759807e7 3.3503216273734394e7 0.0
3.3503216273734394e7 1.235811845226176e6 0.0
0.0 0.0 0.0

2.13975502674383e6 2.6118516004920136e7 0.0
2.6118516004920136e7 -1.3704733510675725e7 0.0
0.0 0.0 0.0

-7.003976804231107e6 -1.6422534610214182e6 0.0
-1.6422534610214182e6 4.530611028257206e7 0.0
0.0 0.0 0.0

-6.910827194571851e6 1.4518190951298133e7 0.0
1.4518190951298133e7 1.8682118664018348e7 0.0
0.0 0.0 0.0

-2.3159496408715257e6 3.1153645396165572e7 0.0
3.1153645396165572e7 5.452865556669033e6 0.0
0.0 0.0 0.0

-3.258246252911046e6 2.6045853360244293e7 0.0
2.6045853360244293e7 1.3532748327236462e7 0.0
0.0 0.0 0.0

-6.676721383490592e6 1.766386001092735e7 0.0
1.766386001092735e7 1.9529338823706318e7 0.0
0.0 0.0 0.0

-8.860030318682905e6 1.0282920861766594e7 0.0
1.0282920861766594e7 1.9300346933760017e7 0.0
0.0 0.0 0.0

1.0211958214163842e7 2.456219011159731e7 0.0
2.456219011159731e7 6.813510809640221e6 0.0
0.0 0.0 0.0

958343.7435786668 2.8842843429833796e7 0.0
2.8842843429833796e7 -9.01432421354646e6 0.0
0.0 0.0 0.0

-4.524547059695928e6 7.594960594858921e6 0.0
7.594960594858921e6 2.702476958818244e6 0.0
0.0 0.0 0.0

1.3484699691083329e6 3.3345941077886086e7 0.0
3.3345941077886086e7 -2.862025135566758e6 0.0
0.0 0.0 0.0

-7.1013334917014595e6 1.8727355881881822e7 0.0
1.8727355881881822e7 2.915971991744755e7 0.0
0.0 0.0 0.0

-2.9249400261750016e6 1.975750042564382e7 0.0
1.975750042564382e7 1.5868749375810374e7 0.0
0.0 0.0 0.0

-6.834086762034269e6 -1.5702339354511555e6 0.0
-1.5702339354511555e6 4.676641730320754e7 0.0
0.0 0.0 0.0

1.995635372021746e6 1.338793794305961e6 0.0
1.338793794305961e6 -4.7003554773969114e7 0.0
0.0 0.0 0.0

1.0489925780013166e6 8.146473715813044e6 0.0
8.146473715813044e6 -5.743913572717604e7 0.0
0.0 0.0 0.0

-9.287773424005007e6 1.4788994971031133e7 0.0
1.4788994971031133e7 2.9627275015127987e7 0.0
0.0 0.0 0.0

-1.558277081188757e6 5.510728814416823e6 0.0
5.510728814416823e6 -1.013561800335806e8 0.0
0.0 0.0 0.0

-4.622991869013663e6 247477.22752969028 0.0
247477.22752969028 7.40135242737135e7 0.0
0.0 0.0 0.0

1.2402949353199797e6 1.186377664054919e7 0.0
1.186377664054919e7 -2.4351445662107445e7 0.0
0.0 0.0 0.0

2.297874082000885e6 1.0146895868053893e7 0.0
1.0146895868053893e7 -2.7344930252933636e7 0.0
0.0 0.0 0.0

8.632846350113226e6 4.211176554403507e7 0.0
4.211176554403507e7 -3.323352039334222e6 0.0
0.0 0.0 0.0

-8.682990632681698e6 3.608364083760883e7 0.0
3.608364083760883e7 6.455436123736374e6 0.0
0.0 0.0 0.0

-2.3826049100662693e6 2.7207050510414474e7 0.0
2.7207050510414474e7 1.0663138648372568e7 0.0
0.0 0.0 0.0

1.7543715910284205e6 3.1853015048775747e7 0.0
3.1853015048775747e7 -4.863120532887711e6 0.0
0.0 0.0 0.0

-904322.9869152041 4.2801839183575355e7 0.0
4.2801839183575355e7 1.302304231148897e6 0.0
0.0 0.0 0.0

-2.8749166845690827e6 2.9029213245173782e7 0.0
2.9029213245173782e7 9.941996542091573e6 0.0
0.0 0.0 0.0

1.659799789154124e6 2.2596517000132333e7 0.0
2.2596517000132333e7 1.5039735508655684e7 0.0
0.0 0.0 0.0

23890.572712138295 2.7317439287447687e6 0.0
2.7317439287447687e6 -8.558860764485504e7 0.0
0.0 0.0 0.0

1.7168919600560218e6 1.2062157138575572e6 0.0
1.2062157138575572e6 -5.634725543199677e7 0.0
0.0 0.0 0.0

823451.6322508901 1.6723244302723487e6 0.0
1.6723244302723487e6 -7.374199037452744e7 0.0
0.0 0.0 0.0

-2.222347826962567e6 3.162471725880536e7 0.0
3.162471725880536e7 1.6876189489807123e6 0.0
0.0 0.0 0.0

-6.764893660994633e6 1.3026247285784913e7 0.0
1.3026247285784913e7 1.1394185500265678e7 0.0
0.0 0.0 0.0

-5.873856463724315e6 -941773.8570357062 0.0
-941773.8570357062 5.7897200132494844e7 0.0
0.0 0.0 0.0

-9.23001332380988e6 1.5220351150301494e7 0.0
1.5220351150301494e7 2.744756935258542e7 0.0
0.0 0.0 0.0

2.8481636850497443e6 3.4657569263320146e6 0.0
3.4657569263320146e6 -2.9360039241508078e7 0.0
0.0 0.0 0.0

-1.7122673056061096e7 3.2909512015155204e7 0.0
3.2909512015155204e7 4.71484087258891e6 0.0
0.0 0.0 0.0

-9.411059320983304e6 2.080012953765974e7 0.0
2.080012953765974e7 -3.575147463439196e7 0.0
0.0 0.0 0.0

-7.509026907882307e6 -2.1782710915859938e6 0.0
-2.1782710915859938e6 3.76238774768019e7 0.0
0.0 0.0 0.0

-1.0715471362398183e7 6.977335440765467e6 0.0
6.977335440765467e6 2.635381648852562e7 0.0
0.0 0.0 0.0

-8.2658589487345535e6 1.1555250492067158e7 0.0
1.1555250492067158e7 4.187287237000384e7 0.0
0.0 0.0 0.0

-2.7676821644282714e6 2.3854479552863732e7 0.0
2.3854479552863732e7 2.2139737012678113e7 0.0
0.0 0.0 0.0

643952.1996216234 1.4800190348746823e7 0.0
1.4800190348746823e7 -3.276167889347329e7 0.0
0.0 0.0 0.0

728337.6341403462 2.2135811399438004e6 0.0
2.2135811399438004e6 -8.107585980427173e7 0.0
0.0 0.0 0.0

2.2860206269668248e6 1.4321021678150024e6 0.0
1.4321021678150024e6 -3.979136495571035e7 0.0
0.0 0.0 0.0

1.926509929354658e7 4.51973164137203e7 0.0
4.51973164137203e7 -7.3678929841187475e6 0.0
0.0 0.0 0.0

-4.930684375430588e6 53418.07979420068 0.0
53418.07979420068 7.114599130473986e7 0.0
0.0 0.0 0.0

1.0932536631020848e6 9.612782130540943e6 0.0
9.612782130540943e6 -4.845720009891082e7 0.0
0.0 0.0 0.0

-3.447044194176916e6 3.0241099841970056e6 0.0
3.0241099841970056e6 9.325005724058124e7 0.0
0.0 0.0 0.0

-131527.26604167745 3.664094895611445e6 0.0
3.664094895611445e6 -9.196538859733802e7 0.0
0.0 0.0 0.0

-4.224241296194461e6 3.0671361283189673e7 0.0
3.0671361283189673e7 9.724002950569218e6 0.0
0.0 0.0 0.0

-1.579862668636305e6 1.4650453785588032e7 0.0
1.4650453785588032e7 -7.662229380747422e6 0.0
0.0 0.0 0.0

-288789.43078432325 2.218897072261171e7 0.0
2.218897072261171e7 -1.407767417988565e7 0.0
0.0 0.0 0.0

306562.2251299126 2.044686807637362e7 0.0
2.044686807637362e7 -2.4152543816924445e7 0.0
0.0 0.0 0.0

-4.180271611534361e6 573413.2773377389 0.0
573413.2773377389 7.746741271412368e7 0.0
0.0 0.0 0.0

631696.1933538839 1.9726657945210692e6 0.0
1.9726657945210692e6 -7.7162735930981e7 0.0
0.0 0.0 0.0

-6.200387196932144e6 1.9509847256846096e7 0.0
1.9509847256846096e7 2.994900768014478e7 0.0
0.0 0.0 0.0

-7.527815952087708e6 1.816173435676608e7 0.0
1.816173435676608e7 2.849446762080136e7 0.0
0.0 0.0 0.0

-8.673216310985316e6 1.3365353264569798e7 0.0
1.3365353264569798e7 3.690397192035156e7 0.0
0.0 0.0 0.0

-4.73585807140099e6 1.8122323851966567e7 0.0
1.8122323851966567e7 2.027275798595956e7 0.0
0.0 0.0 0.0

7.199268938634723e6 2.155433686450319e7 0.0
2.155433686450319e7 4.915924032491532e7 0.0
0.0 0.0 0.0

2.169798191304434e6 2.955013467159157e7 0.0
2.955013467159157e7 -7.898761561673139e6 0.0
0.0 0.0 0.0

-2.106644102294377e6 3.386928011956157e7 0.0
3.386928011956157e7 854681.779145154 0.0
0.0 0.0 0.0

2.0008165186918355e6 3.1365290529699933e7 0.0
3.1365290529699933e7 -6.719449371793117e6 0.0
0.0 0.0 0.0

2.056035148974928e6 1.1923837698731316e7 0.0
1.1923837698731316e7 -2.4346423596866425e7 0.0
0.0 0.0 0.0

-4.820534257544169e6 3.439116036318674e7 0.0
3.439116036318674e7 6.302122754834681e6 0.0
0.0 0.0 0.0

-2.8449711399881486e6 2.436741264207212e7 0.0
2.436741264207212e7 -7.080645201663074e6 0.0
0.0 0.0 0.0

1.3797931555507332e6 1.737770560861505e7 0.0
1.737770560861505e7 -2.5431506223022997e7 0.0
0.0 0.0 0.0

-6.102721441587092e6 1.7339453101734847e7 0.0
1.7339453101734847e7 3.766766150393529e7 0.0
0.0 0.0 0.0

-8.82100647242868e6 1.5492790048679218e7 0.0
1.5492790048679218e7 3.0556560045006745e7 0.0
0.0 0.0 0.0

1.4724676914316732e6 1.0761341673425153e7 0.0
1.0761341673425153e7 -2.831062014622539e7 0.0
0.0 0.0 0.0

-6.5273696108383015e6 -1.3636855184559214e6 0.0
-1.3636855184559214e6 5.133898777596578e7 0.0
0.0 0.0 0.0

1.7718251956214085e6 1.2964611375738955e6 0.0
1.2964611375738955e6 -5.155569631203595e7 0.0
0.0 0.0 0.0

1.7383134209581316e6 2.1852483131088108e7 0.0
2.1852483131088108e7 2.958358956949166e7 0.0
0.0 0.0 0.0

-5.057204269235522e6 -119627.13056217147 0.0
-119627.13056217147 6.846113082426696e7 0.0
0.0 0.0 0.0

959817.5090004094 1.4984903317459766e6 0.0
1.4984903317459766e6 -6.825022245591903e7 0.0
0.0 0.0 0.0

1.6828518833097033e6 1.36258817498529e6 0.0
1.36258817498529e6 -5.306638454928486e7 0.0
0.0 0.0 0.0

-6.362977670359686e6 -1.2217760546431919e6 0.0
-1.2217760546431919e6 5.289688674825588e7 0.0
0.0 0.0 0.0

-262094.0267707929 1.9056199919275247e7 0.0
1.9056199919275247e7 4.936599972196913e7 0.0
0.0 0.0 0.0

1.191441569622647e6 1.3898213207733554e6 0.0
1.3898213207733554e6 -6.6017129278291926e7 0.0
0.0 0.0 0.0

-5.225244205237836e6 -388688.31116828264 0.0
-388688.31116828264 6.592164903317732e7 0.0
0.0 0.0 0.0

-1.8626992898261845e6 2.316518379210934e7 0.0
2.316518379210934e7 2.55873877434082e7 0.0
0.0 0.0 0.0

-7.225536883073153e6 1.4106530808258299e6 0.0
1.4106530808258299e6 4.679248698545763e7 0.0
0.0 0.0 0.0

-6.258804750838142e6 -1.1071602855318333e6 0.0
-1.1071602855318333e6 5.459122153980471e7 0.0
0.0 0.0 0.0

1.861189952695664e6 1.3262793854861117e6 0.0
1.3262793854861117e6 -5.477765864332793e7 0.0
0.0 0.0 0.0

1.25920645422294e6 1.4066786214846643e6 0.0
1.4066786214846643e6 -6.388160724269606e7 0.0
0.0 0.0 0.0

-5.448824542525191e6 -625184.307100322 0.0
-625184.307100322 6.3690806228451245e7 0.0
0.0 0.0 0.0

-3.4877378127482736e8 7.61669900012651e7 0.0
7.61669900012651e7 -4.1870034830833286e7 0.0
0.0 0.0 0.0

3.3780466229478794e8 6.992480860729443e7 0.0
6.992480860729443e7 3.551942268991822e7 0.0
0.0 0.0 0.0

-6.559253432587682e6 1.8224365254180178e7 0.0
1.8224365254180178e7 2.0700062018183887e7 0.0
0.0 0.0 0.0

1.160646641254235e6 1.2781385249770689e6 0.0
1.2781385249770689e6 -6.178483955278741e7 0.0
0.0 0.0 0.0

-5.7413962102739215e6 -727159.5580200875 0.0
-727159.5580200875 6.180514059921484e7 0.0
0.0 0.0 0.0

521402.956842696 2.260222832071406e7 0.0
2.260222832071406e7 -1.3091949745936207e6 0.0
0.0 0.0 0.0

-8.4051624200776e6 1.6599325834485348e7 0.0
1.6599325834485348e7 2.916775814168958e7 0.0
0.0 0.0 0.0

-2.0735182839937957e6 3.183578961241267e7 0.0
3.183578961241267e7 4.414939555637803e6 0.0
0.0 0.0 0.0

2.517114606670021e6 2.2502650435563013e7 0.0
2.2502650435563013e7 3.0517752618138317e7 0.0
0.0 0.0 0.0

-5.855104613285288e6 -779158.6290662434 0.0
-779158.6290662434 5.987081453412839e7 0.0
0.0 0.0 0.0

1.4176221005735956e6 1.1353759014914224e6 0.0
1.1353759014914224e6 -6.00272898127849e7 0.0
0.0 0.0 0.0

960391.573992514 2.97362739763371e7 0.0
2.97362739763371e7 -7.890765003697126e6 0.0
0.0 0.0 0.0

-1.115468125398855e7 2.019594610406436e7 0.0
2.019594610406436e7 -7.270498720129478e7 0.0
0.0 0.0 0.0

-111309.71509888396 3.3455827684059452e7 0.0
3.3455827684059452e7 -2.7058982254324257e6 0.0
0.0 0.0 0.0

1.2453093101863367e6 1.952175571877539e7 0.0
1.952175571877539e7 -2.078090593057469e7 0.0
0.0 0.0 0.0

37062.84509479068 1.8100012584971786e7 0.0
1.8100012584971786e7 -2.9678345760121737e7 0.0
0.0 0.0 0.0

281040.5306181386 2.292606015035722e7 0.0
2.292606015035722e7 8.534250282538103e6 0.0
0.0 0.0 0.0

4.1552750189929777e6 2.9592996726770855e7 0.0
2.9592996726770855e7 -9.422977053584132e6 0.0
0.0 0.0 0.0

2.2572281113981977e6 2.689338929391994e7 0.0
2.689338929391994e7 -1.2133650939284334e7 0.0
0.0 0.0 0.0

-8.220147466220213e6 1.8836805082165703e7 0.0
1.8836805082165703e7 -5.607140281164881e7 0.0
0.0 0.0 0.0

-1.090042598105988e6 3.344663582002191e7 0.0
3.344663582002191e7 1.5053526700609687e6 0.0
0.0 0.0 0.0

-2.7923543244759925e6 2.661390360860606e7 0.0
2.661390360860606e7 1.1467506786866203e7 0.0
0.0 0.0 0.0

-9.981632524677074e6 2.8077316097694777e7 0.0
2.8077316097694777e7 -1.465363927457741e7 0.0
0.0 0.0 0.0

-310123.0629640836 1.8669890166609965e7 0.0
1.8669890166609965e7 -2.9714141375333056e7 0.0
0.0 0.0 0.0

-9.052276269894132e6 1.566320936310634e7 0.0
1.566320936310634e7 2.5237184155866202e7 0.0
0.0 0.0 0.0

3.801773796861061e6 2.1475598272473462e7 0.0
2.1475598272473462e7 1.5939999498389669e7 0.0
0.0 0.0 0.0

-8.027468276921852e6 1.7164542374708515e7 0.0
1.7164542374708515e7 2.4867206410084594e7 0.0
0.0 0.0 0.0

-1.3875098644705801e6 2.247701024787858e7 0.0
2.247701024787858e7 -2.0452849746921747e6 0.0
0.0 0.0 0.0

-1.44445385082307e6 3.3008125419001274e7 0.0
3.3008125419001274e7 2.5586455193641414e6 0.0
0.0 0.0 0.0

-3.508718487983562e6 1.8918927250950914e7 0.0
1.8918927250950914e7 -3.8139829911447525e7 0.0
0.0 0.0 0.0

-1.0540370932895783e6 2.3275971270296846e7 0.0
2.3275971270296846e7 2.531819465565475e7 0.0
0.0 0.0 0.0

-1.164439475905907e6 4.399828151543378e7 0.0
4.399828151543378e7 1.8282396815694654e6 0.0
0.0 0.0 0.0

-2.2033351095485752e6 2.299922959447702e7 0.0
2.299922959447702e7 -2.9483016114150668e6 0.0
0.0 0.0 0.0

660028.730183695 3.132429991075119e7 0.0
3.132429991075119e7 -5.683680428523724e6 0.0
0.0 0.0 0.0

2.2848634799872126e7 2.831156611370934e7 0.0
2.831156611370934e7 1.5820851849082906e7 0.0
0.0 0.0 0.0

-1.8185853441602993e6 3.2458717803932108e7 0.0
3.2458717803932108e7 3.43862075595227e6 0.0
0.0 0.0 0.0

-1.0267506900310498e7 1.833236121433226e7 0.0
1.833236121433226e7 -3.883581104862569e6 0.0
0.0 0.0 0.0

-1.2222900890039513e6 3.587052014954264e7 0.0
3.587052014954264e7 1.5255836222462917e6 0.0
0.0 0.0 0.0

2.7251836190211363e6 1.654258419792481e6 0.0
1.654258419792481e6 -3.106876367974145e7 0.0
0.0 0.0 0.0

2.840382152992539e6 1.7236267775467464e6 0.0
1.7236267775467464e6 -2.979977899685538e7 0.0
0.0 0.0 0.0

914447.5026065246 3.0560037053928822e7 0.0
3.0560037053928822e7 -6.566322123849571e6 0.0
0.0 0.0 0.0

3.983156763506163e6 2.16295466537761e7 0.0
2.16295466537761e7 4.05843924758099e7 0.0
0.0 0.0 0.0

-512073.15581106767 3.712537815224459e7 0.0
3.712537815224459e7 877568.5925120958 0.0
0.0 0.0 0.0

-8.91577140488092e6 1.37638565563221e7 0.0
1.37638565563221e7 3.439714246460919e7 0.0
0.0 0.0 0.0

-713584.0613477344 4.0823524334708326e7 0.0
4.0823524334708326e7 1.1122484596417823e6 0.0
0.0 0.0 0.0

-2.350772255325839e6 2.4898039832428716e7 0.0
2.4898039832428716e7 1.490211062239473e7 0.0
0.0 0.0 0.0

498631.83715843596 2.132136052081522e7 0.0
2.132136052081522e7 6.227106783085426e6 0.0
0.0 0.0 0.0

1.0228843446781598e6 1.4521425917627534e7 0.0
1.4521425917627534e7 -3.463436931985944e7 0.0
0.0 0.0 0.0

-3.237041270789422e6 3.1637778872649293e7 0.0
3.1637778872649293e7 4.6739264150958555e6 0.0
0.0 0.0 0.0

-8.150066856409296e6 -641331.9681430884 0.0
-641331.9681430884 3.40102652125167e7 0.0
0.0 0.0 0.0

-337033.69195664674 1.8393710312688302e7 0.0
1.8393710312688302e7 5.241836568570172e7 0.0
0.0 0.0 0.0

-7.374603797849828e6 1.8402924108626503e7 0.0
1.8402924108626503e7 -6.300985798752376e7 0.0
0.0 0.0 0.0

-7.562479172392743e6 1.4515853428454176e7 0.0
1.4515853428454176e7 3.8413241540582016e7 0.0
0.0 0.0 0.0

9.685983582095351e6 3.0614725847347192e7 0.0
3.0614725847347192e7 -6.171060249702094e6 0.0
0.0 0.0 0.0

1.3439485073373616e6 1.5219800554757142e7 0.0
1.5219800554757142e7 -3.0469217684874404e7 0.0
0.0 0.0 0.0

-2.394421100204698e6 2.2501622266342178e7 0.0
2.2501622266342178e7 -1.6961783812196064e6 0.0
0.0 0.0 0.0

257295.32101661735 3.28214689268596e7 0.0
3.28214689268596e7 -3.6571224501518644e6 0.0
0.0 0.0 0.0

-1.072855182527957e6 2.1892208357916184e7 0.0
2.1892208357916184e7 -6.350021432228655e6 0.0
0.0 0.0 0.0

-8.486267048878042e6 1.500836506798744e7 0.0
1.500836506798744e7 3.011331275170251e7 0.0
0.0 0.0 0.0

-6.794808258108191e6 1.6495125556346353e7 0.0
1.6495125556346353e7 3.712085384645024e7 0.0
0.0 0.0 0.0

490864.357351623 3.2087993131291233e7 0.0
3.2087993131291233e7 -4.682436988115338e6 0.0
0.0 0.0 0.0

-5.919100042761085e6 1.7387926391297992e7 0.0
1.7387926391297992e7 2.2211053496973738e7 0.0
0.0 0.0 0.0

1.8418697911328971e6 4.661129475078717e6 0.0
4.661129475078717e6 -5.0564600501868665e7 0.0
0.0 0.0 0.0

-4.678000690551406e6 2.023146404637127e7 0.0
2.023146404637127e7 1.783087985327236e7 0.0
0.0 0.0 0.0

-2.377856585763077e6 2.1646712461490583e7 0.0
2.1646712461490583e7 -1.3591704459767776e7 0.0
0.0 0.0 0.0

1.0669919751035594e6 2.2830221070030905e7 0.0
2.2830221070030905e7 2.1684865283385487e6 0.0
0.0 0.0 0.0

-4.604271134804963e6 2.4415997515362963e7 0.0
2.4415997515362963e7 -1.5662039769792441e7 0.0
0.0 0.0 0.0

-1.4943375261313403e6 2.2326481614496544e7 0.0
2.2326481614496544e7 -8.3715857333578495e6 0.0
0.0 0.0 0.0

167126.09416767582 1.8723715225533582e7 0.0
1.8723715225533582e7 -2.7769328935972437e7 0.0
0.0 0.0 0.0

1.3850487134833485e6 9.218322544344138e6 0.0
9.218322544344138e6 -3.6172114506996885e7 0.0
0.0 0.0 0.0

-1.8007809130645837e6 2.176850374825599e7 0.0
2.176850374825599e7 -9.949674117620248e6 0.0
0.0 0.0 0.0

1.2067569599391557e6 1.2472985614902077e7 0.0
1.2472985614902077e7 -2.5220999908150524e7 0.0
0.0 0.0 0.0

3.013392071928041e6 3.812267183715796e6 0.0
3.812267183715796e6 -2.3580161009053152e7 0.0
0.0 0.0 0.0

-2.791570774104605e6 3.2912898804501902e7 0.0
3.2912898804501902e7 2.694130159388953e6 0.0
0.0 0.0 0.0

-1.437318961366271e6 1.523409077693957e7 0.0
1.523409077693957e7 -9.365106066294102e6 0.0
0.0 0.0 0.0

-2.479397209560776e6 2.3944696638137236e7 0.0
2.3944696638137236e7 2.159799387073615e7 0.0
0.0 0.0 0.0

-8.135858918570885e6 -3.8346638611464454e6 0.0
-3.8346638611464454e6 2.30501696587057e7 0.0
0.0 0.0 0.0

5.985487318615124e6 2.4608834987218812e7 0.0
2.4608834987218812e7 3.6254560999020687e6 0.0
0.0 0.0 0.0

-6.179828590507867e6 2.4632156959747408e7 0.0
2.4632156959747408e7 -1.7380259878738437e7 0.0
0.0 0.0 0.0

1.5660944446677826e6 9.829618756490417e6 0.0
9.829618756490417e6 -2.9822796195201147e7 0.0
0.0 0.0 0.0

-1.3088312560627137e8 2.255671672212579e7 0.0
2.255671672212579e7 3.097653232894987e6 0.0
0.0 0.0 0.0

-3.2296521004377473e6 2.255356960677008e7 0.0
2.255356960677008e7 2.6069671754036166e7 0.0
0.0 0.0 0.0

1.3628165670974236e6 2.2877960208751123e7 0.0
2.2877960208751123e7 -1.7492159251173623e7 0.0
0.0 0.0 0.0

-1.2990753310143172e6 2.0275103756534766e7 0.0
2.0275103756534766e7 -1.038192782960752e7 0.0
0.0 0.0 0.0

770619.7254261374 1.6652757407262255e7 0.0
1.6652757407262255e7 -3.1205603327873155e7 0.0
0.0 0.0 0.0

2.6899844654861637e6 2.2098682615720402e7 0.0
2.2098682615720402e7 1.5583422004269505e7 0.0
0.0 0.0 0.0

22150.420225104317 1.5013999063106501e7 0.0
1.5013999063106501e7 -3.957209818108177e7 0.0
0.0 0.0 0.0

2.7601261975092394e6 2.251151526993846e7 0.0
2.251151526993846e7 1.819037460742599e7 0.0
0.0 0.0 0.0

489890.774195048 2.0523542347945254e7 0.0
2.0523542347945254e7 -1.9717555241195824e7 0.0
0.0 0.0 0.0

2.2765572282688953e6 9.565375194370205e6 0.0
9.565375194370205e6 -3.189268165710392e7 0.0
0.0 0.0 0.0

1.1413777097231448e6 2.3367009758052635e6 0.0
2.3367009758052635e6 -5.851584191085521e7 0.0
0.0 0.0 0.0

7.322885064530824e6 3.2813673212859783e7 0.0
3.2813673212859783e7 -6.872693173072442e6 0.0
0.0 0.0 0.0

637455.1571093164 1.4698523965405973e7 0.0
1.4698523965405973e7 -3.709403253535294e7 0.0
0.0 0.0 0.0

-4.923763233874042e6 3.338186816590408e7 0.0
3.338186816590408e7 7.100338884148484e6 0.0
0.0 0.0 0.0

-9.78345459461115e6 2.654590144527274e7 0.0
2.654590144527274e7 1.7878633612150247e6 0.0
0.0 0.0 0.0

2.119511606998031e6 8.98023278671116e6 0.0
8.98023278671116e6 -1.4258958919105079e7 0.0
0.0 0.0 0.0

-1.7087565419015628e6 4.5257402318932645e7 0.0
4.5257402318932645e7 2.247695334093565e6 0.0
0.0 0.0 0.0

2.1754812895606738e6 1.0839017477288246e7 0.0
1.0839017477288246e7 -2.816681633498559e7 0.0
0.0 0.0 0.0

3.9419246004983988e6 2.0202565447045103e7 0.0
2.0202565447045103e7 5.43755674441084e7 0.0
0.0 0.0 0.0

-1.0185753452488652e6 2.3209669785856314e7 0.0
2.3209669785856314e7 2.2825727237133402e6 0.0
0.0 0.0 0.0

-9.007719522633396e6 3.460587119128503e7 0.0
3.460587119128503e7 7.009222768244298e6 0.0
0.0 0.0 0.0

-7.664927960486732e6 1.6427510692201348e7 0.0
1.6427510692201348e7 2.636111393342439e7 0.0
0.0 0.0 0.0

503131.32875384204 1.6197758517121354e7 0.0
1.6197758517121354e7 -3.1229759087632783e7 0.0
0.0 0.0 0.0

-3.0897140451028063e6 1.3406116808049873e7 0.0
1.3406116808049873e7 -1.0215795171234035e6 0.0
0.0 0.0 0.0

-517492.4922552502 2.307300571610993e7 0.0
2.307300571610993e7 -7.190759769656626e6 0.0
0.0 0.0 0.0

1.837679913336387e7 2.562365852780366e7 0.0
2.562365852780366e7 5.6884131046307925e6 0.0
0.0 0.0 0.0

1.1577621418572748e6 2.281234327454887e7 0.0
2.281234327454887e7 -1.936372923367678e7 0.0
0.0 0.0 0.0

497979.5346527193 1.0518608940656671e7 0.0
1.0518608940656671e7 -6.747137776601616e6 0.0
0.0 0.0 0.0

283036.03669801727 1.7474019829585984e7 0.0
1.7474019829585984e7 -2.9564128573136277e7 0.0
0.0 0.0 0.0

-7.633101042513816e6 -193333.90294411755 0.0
-193333.90294411755 4.107277505874969e7 0.0
0.0 0.0 0.0

-3.064629755247527e6 2.5055079687545344e7 0.0
2.5055079687545344e7 1.8795926133981436e7 0.0
0.0 0.0 0.0

-7.936350171133459e6 1.7171950622410104e7 0.0
1.7171950622410104e7 2.9987142214771062e7 0.0
0.0 0.0 0.0

-2.1868447458935075e7 2.9978177601925235e7 0.0
2.9978177601925235e7 -1.0815009607857017e7 0.0
0.0 0.0 0.0

-7.576783496738207e6 1.9381578727799777e7 0.0
1.9381578727799777e7 -5.347049543787275e7 0.0
0.0 0.0 0.0

-3.2564783771831826e6 2.991531825452451e7 0.0
2.991531825452451e7 9.560178511478718e6 0.0
0.0 0.0 0.0

-5.20594158316236e6 3.123254669887223e7 0.0
3.123254669887223e7 8.877680273341477e6 0.0
0.0 0.0 0.0

3.6752222368585733e6 2.7152546947238807e7 0.0
2.7152546947238807e7 -1.156710540485398e7 0.0
0.0 0.0 0.0

-5.253735188590104e6 1.756627366043093e7 0.0
1.756627366043093e7 -5.5157064520050704e7 0.0
0.0 0.0 0.0

-1.6618599875664124e6 2.334048158913172e7 0.0
2.334048158913172e7 2.26977148512901e7 0.0
0.0 0.0 0.0

-6.35720410541001e6 7.452007560812892e6 0.0
7.452007560812892e6 5.5049908931145556e7 0.0
0.0 0.0 0.0

2.1925173638818474e6 2.6456778251358676e6 0.0
2.6456778251358676e6 -7.732746551612952e6 0.0
0.0 0.0 0.0

-2.1089896707998896e6 2.0623815293210775e7 0.0
2.0623815293210775e7 -2.740538228054956e7 0.0
0.0 0.0 0.0

3.7823699683410325e6 2.8559080219698787e7 0.0
2.8559080219698787e7 -1.0408509844773637e7 0.0
0.0 0.0 0.0

-1.2975404350526568e6 2.371180601544e7 0.0
2.371180601544e7 -1.804973507774556e6 0.0
0.0 0.0 0.0

-684960.7865186958 1.8671376205673203e7 0.0
1.8671376205673203e7 -1.3515335266050348e7 0.0
0.0 0.0 0.0

-1.1286661301494868e7 2.035994492110492e7 0.0
2.035994492110492e7 -4.3438737233041786e7 0.0
0.0 0.0 0.0

-7.843818464252915e6 1.5587213489893364e7 0.0
1.5587213489893364e7 3.5900398361236416e7 0.0
0.0 0.0 0.0

1.1975373600314953e6 3.694320379000505e7 0.0
3.694320379000505e7 -800791.0934220597 0.0
0.0 0.0 0.0

-3.0938628079550095e7 3.081075897518222e7 0.0
3.081075897518222e7 -6.165958795243352e6 0.0
0.0 0.0 0.0

6.508671052728437e6 2.5252319786528885e7 0.0
2.5252319786528885e7 3.9510518520169063e6 0.0
0.0 0.0 0.0

1.3178760927941902e6 8.754905184219487e6 0.0
8.754905184219487e6 -1.6820552983643193e7 0.0
0.0 0.0 0.0

-1.4852668340122246e6 2.3185627169048686e7 0.0
2.3185627169048686e7 -595246.5146735463 0.0
0.0 0.0 0.0

-7.313399468398545e6 1.2804302110974131e7 0.0
1.2804302110974131e7 4.339003605174177e7 0.0
0.0 0.0 0.0

-6.840758386099534e6 3.572574950213777e7 0.0
3.572574950213777e7 6.063879114353582e6 0.0
0.0 0.0 0.0

-2.2453229524313016e6 2.335878124975376e7 0.0
2.335878124975376e7 2.3336991101579282e7 0.0
0.0 0.0 0.0

-1.5761265814818505e6 3.425503094018217e7 0.0
3.425503094018217e7 -806.0496971883695 0.0
0.0 0.0 0.0

561993.2954147849 1.9793933946774937e7 0.0
1.9793933946774937e7 -2.120949618425689e7 0.0
0.0 0.0 0.0

-6.582723743779929e6 1.4783881267212566e7 0.0
1.4783881267212566e7 4.3327988065499686e7 0.0
0.0 0.0 0.0

25724.015652833506 2.0884062196375113e7 0.0
2.0884062196375113e7 -2.4016086208759375e7 0.0
0.0 0.0 0.0

-9.034859169083597e6 2.57937128708864e7 0.0
2.57937128708864e7 -5.43895605797358e6 0.0
0.0 0.0 0.0

1.1517995978260783e6 3.769443191921938e7 0.0
3.769443191921938e7 -959599.6875374952 0.0
0.0 0.0 0.0

2.446156442661714e6 5.0754393441882515e6 0.0
5.0754393441882515e6 -2.500871358507852e7 0.0
0.0 0.0 0.0

3.449249890317921e6 2.654231934036394e7 0.0
2.654231934036394e7 -9.962477588675315e6 0.0
0.0 0.0 0.0

-2.8539498821921158e6 2.985418293616551e7 0.0
2.985418293616551e7 8.695623312789688e6 0.0
0.0 0.0 0.0

-8.343731575131014e6 1.5471915047216158e7 0.0
1.5471915047216158e7 2.7780892440204013e7 0.0
0.0 0.0 0.0

-7.866817003988796e6 2.7310842895309046e7 0.0
2.7310842895309046e7 -1.2979612501465665e7 0.0
0.0 0.0 0.0

-6.870920122604601e6 1.7544525010680176e7 0.0
1.7544525010680176e7 3.4694719529015824e7 0.0
0.0 0.0 0.0

-3.1540410539577706e6 7.353932641907653e6 0.0
7.353932641907653e6 5.702669397540746e6 0.0
0.0 0.0 0.0

-2.5586117436274034e6 2.8938388989355937e7 0.0
2.8938388989355937e7 8.960616890082035e6 0.0
0.0 0.0 0.0

-9.218038700265462e6 1.4261927354126904e7 0.0
1.4261927354126904e7 3.1952561877722617e7 0.0
0.0 0.0 0.0

-3.298022028541577e6 2.3826455573852975e7 0.0
2.3826455573852975e7 1.5244506962712802e7 0.0
0.0 0.0 0.0

7.228202324578841e6 2.116747455828458e7 0.0
2.116747455828458e7 4.321477460169778e7 0.0
0.0 0.0 0.0

-3.936634394596372e6 1.7495546407106042e7 0.0
1.7495546407106042e7 -4.822930814572386e7 0.0
0.0 0.0 0.0

-8.049656518224453e6 -4.2896978366525145e6 0.0
-4.2896978366525145e6 2.1328744960731708e7 0.0
0.0 0.0 0.0

1.2910813531038547e7 3.2706707504165962e7 0.0
3.2706707504165962e7 -5.452235417261987e6 0.0
0.0 0.0 0.0

-8.028584918002466e6 1.3580301954133254e7 0.0
1.3580301954133254e7 3.765339548293192e7 0.0
0.0 0.0 0.0

106293.57436697185 1.5879555111078525e7 0.0
1.5879555111078525e7 -1.7057423067323923e7 0.0
0.0 0.0 0.0

-1.5371055503871245e6 2.3646773489880282e7 0.0
2.3646773489880282e7 1.9698393039007705e7 0.0
0.0 0.0 0.0

-582903.8463266157 2.184853977536889e7 0.0
2.184853977536889e7 -7.61273120467032e6 0.0
0.0 0.0 0.0

-3.503311789388584e6 2.4414083660957415e7 0.0
2.4414083660957415e7 2.0667282106525343e7 0.0
0.0 0.0 0.0

-343419.22052675346 1.3120482788124127e7 0.0
1.3120482788124127e7 -8.847841305884862e6 0.0
0.0 0.0 0.0

-7.066401686899159e6 2.840958324608251e7 0.0
2.840958324608251e7 7.708766015469193e6 0.0
0.0 0.0 0.0

-3.2692252396109104e6 2.4063046365261838e7 0.0
2.4063046365261838e7 1.619338293519602e7 0.0
0.0 0.0 0.0

2.850441740837192e6 2.623075665355757e7 0.0
2.623075665355757e7 -1.1756209636572558e7 0.0
0.0 0.0 0.0

-3.372169273742343e6 3.0228236471925974e7 0.0
3.0228236471925974e7 6.921840635762399e6 0.0
0.0 0.0 0.0

-471998.0372925282 3.79956651051369e7 0.0
3.79956651051369e7 995342.096421289 0.0
0.0 0.0 0.0

-3.2732440530790742e6 1.757958365739946e7 0.0
1.757958365739946e7 -4.168766848445197e7 0.0
0.0 0.0 0.0

619060.4958735437 2.451238787369687e6 0.0
2.451238787369687e6 -527147.1803930775 0.0
0.0 0.0 0.0

-9.755019123538632e6 1.5216279564814728e6 0.0
1.5216279564814728e6 1.438421520121162e7 0.0
0.0 0.0 0.0

722735.4549691044 4.352801825345905e6 0.0
4.352801825345905e6 -7.256053554966007e7 0.0
0.0 0.0 0.0

1.1925493754980383e6 2.839207967661701e7 0.0
2.839207967661701e7 -7.762959795117782e6 0.0
0.0 0.0 0.0

-2.7067431500739027e6 2.3260686417139847e7 0.0
2.3260686417139847e7 2.3868131642659888e7 0.0
0.0 0.0 0.0

-8.821219650074871e6 1.591375516204869e7 0.0
1.591375516204869e7 2.8329217763086464e7 0.0
0.0 0.0 0.0

-2.4378228993601426e6 4.66640021059812e7 0.0
4.66640021059812e7 2.605397406611388e6 0.0
0.0 0.0 0.0

-8.714149663960064e6 1.1860732463558577e7 0.0
1.1860732463558577e7 3.878478975063158e7 0.0
0.0 0.0 0.0

5.4899606738263465e7 8.45434505744451e7 0.0
8.45434505744451e7 -3.707087472681351e6 0.0
0.0 0.0 0.0

1.363597952754885e6 2.5395791131462995e7 0.0
2.5395791131462995e7 -1.4314386006973347e7 0.0
0.0 0.0 0.0

1.2974999920727918e6 1.8057569481208827e7 0.0
1.8057569481208827e7 -2.384653221241073e7 0.0
0.0 0.0 0.0

-2.764399352372555e6 2.449069535732154e7 0.0
2.449069535732154e7 1.9714545548336327e7 0.0
0.0 0.0 0.0

-7.60561573168448e6 1.4196994228915514e7 0.0
1.4196994228915514e7 4.0537165431511365e7 0.0
0.0 0.0 0.0

1.9728216232992262e6 2.7665688091786172e7 0.0
2.7665688091786172e7 -1.0350239802286461e7 0.0
0.0 0.0 0.0

1.6474499676940436e6 2.3111041994629472e7 0.0
2.3111041994629472e7 5.536560772138409e6 0.0
0.0 0.0 0.0

1.6872307211976685e6 2.3329073708076184e6 0.0
2.3329073708076184e6 -4.5948739439028725e7 0.0
0.0 0.0 0.0

-8.910369946837403e6 1.14623057372112e7 0.0
1.14623057372112e7 2.0406287524867333e7 0.0
0.0 0.0 0.0

-4.244704728358521e6 5.058904741452175e7 0.0
5.058904741452175e7 4.17833795707089e6 0.0
0.0 0.0 0.0

-2.9425182672212888e6 2.293848282568247e7 0.0
2.293848282568247e7 2.5978325669893537e7 0.0
0.0 0.0 0.0

-2.743723796769566e6 2.137306349485395e7 0.0
2.137306349485395e7 -2.263076547207391e7 0.0
0.0 0.0 0.0

1.051968301213985e7 2.488653384979e7 0.0
2.488653384979e7 9.920514069106683e6 0.0
0.0 0.0 0.0

-1.0417385048126485e7 6.746813975244894e6 0.0
6.746813975244894e6 2.0655128821615458e7 0.0
0.0 0.0 0.0

-5.390471740249939e6 1.4043330845064392e7 0.0
1.4043330845064392e7 9.12566841778035e6 0.0
0.0 0.0 0.0

-2.8668746368119367e6 2.1445202004345234e7 0.0
2.1445202004345234e7 -1.722781279822349e7 0.0
0.0 0.0 0.0

348681.6105560735 1.9986562262772013e7 0.0
1.9986562262772013e7 -1.331879502907547e7 0.0
0.0 0.0 0.0

-4.599564838417707e6 2.2186254963599537e7 0.0
2.2186254963599537e7 2.1432701246790167e7 0.0
0.0 0.0 0.0

-2.6964247491816143e6 2.0245878744216815e7 0.0
2.0245878744216815e7 -2.9586213409018047e7 0.0
0.0 0.0 0.0

1.0520188450760972e6 1.523732279735456e7 0.0
1.523732279735456e7 -3.271260756332591e7 0.0
0.0 0.0 0.0

-3.693255806539629e6 2.9900738963141117e7 0.0
2.9900738963141117e7 1.0227686334977899e7 0.0
0.0 0.0 0.0

656699.3319850238 2.0487276186857462e7 0.0
2.0487276186857462e7 -2.4254248122359976e7 0.0
0.0 0.0 0.0

-7.712399132434042e6 1.6341893995342877e7 0.0
1.6341893995342877e7 3.1752985714419015e7 0.0
0.0 0.0 0.0

3.072961701522397e6 5.577349924559613e6 0.0
5.577349924559613e6 -1.7613631469283875e7 0.0
0.0 0.0 0.0

-4.225463057967921e7 3.81004393105728e7 0.0
3.81004393105728e7 -1.789222875317188e7 0.0
0.0 0.0 0.0

1.0429853233556217e6 8.129754095227383e6 0.0
8.129754095227383e6 -1.3018275508312916e7 0.0
0.0 0.0 0.0

3.31009841786398e6 2.381678370010156e6 0.0
2.381678370010156e6 -1.7280153418516383e7 0.0
0.0 0.0 0.0

-5.626518777892107e6 3.0987931961852055e7 0.0
3.0987931961852055e7 9.335732623105926e6 0.0
0.0 0.0 0.0

2.7305516275089234e6 2.1769802624547545e7 0.0
2.1769802624547545e7 9.101839292793866e6 0.0
0.0 0.0 0.0

6.919343859767844e6 2.599606900984513e7 0.0
2.599606900984513e7 -1.2888268358920678e6 0.0
0.0 0.0 0.0

-2.3435789741405025e6 2.066242502170995e7 0.0
2.066242502170995e7 3.545521517808783e7 0.0
0.0 0.0 0.0

477451.88495094515 2.0934205857328743e7 0.0
2.0934205857328743e7 3.94318615349234e7 0.0
0.0 0.0 0.0

1.5972964359978165e7 2.078894917394212e7 0.0
2.078894917394212e7 7.135804249711508e7 0.0
0.0 0.0 0.0

105806.15667800745 2.183898827319243e7 0.0
2.183898827319243e7 -4.821869616379026e6 0.0
0.0 0.0 0.0

-3.0004336205716636e6 2.4358521241637822e7 0.0
2.4358521241637822e7 2.0564907956298657e7 0.0
0.0 0.0 0.0

-3.9600936397094037e6 2.1042920123356007e7 0.0
2.1042920123356007e7 1.572339629082595e7 0.0
0.0 0.0 0.0

-3.3017634423098466e6 2.126359081891831e7 0.0
2.126359081891831e7 -2.0897774228039466e7 0.0
0.0 0.0 0.0

-3.7723371265122993e6 3.041625057106242e7 0.0
3.041625057106242e7 7.78669451832392e6 0.0
0.0 0.0 0.0

-8.11448828857906e6 1.4320604267171381e7 0.0
1.4320604267171381e7 3.767348310150055e7 0.0
0.0 0.0 0.0

1.8411135930230662e7 3.073431852450439e7 0.0
3.073431852450439e7 -3.1929994889402837e6 0.0
0.0 0.0 0.0

1.8087796952337828e6 2.6020692193865422e7 0.0
2.6020692193865422e7 -1.291615370424303e7 0.0
0.0 0.0 0.0

1.7757439189419113e6 7.570014121022873e6 0.0
7.570014121022873e6 -2.9699729306062903e7 0.0
0.0 0.0 0.0

7.410194657861589e6 2.8295271635167245e7 0.0
2.8295271635167245e7 -7.364574031614197e6 0.0
0.0 0.0 0.0

215490.4930675414 3.2772793172429536e7 0.0
3.2772793172429536e7 -1.3067991168488974e6 0.0
0.0 0.0 0.0

-9.957939000251891e6 2.182844299497915e7 0.0
2.182844299497915e7 -3.3193138452857077e7 0.0
0.0 0.0 0.0

1.1150398690521123e7 2.301710566329512e7 0.0
2.301710566329512e7 3.716800551194917e7 0.0
0.0 0.0 0.0

-6.662963286112543e6 1.0502886571865976e6 0.0
1.0502886571865976e6 5.326821722606956e7 0.0
0.0 0.0 0.0

2.690014324641263e6 2.496255653935887e7 0.0
2.496255653935887e7 8.50137770620322e6 0.0
0.0 0.0 0.0

-7.36765768106257e6 109213.10114130696 0.0
109213.10114130696 4.373864103256519e7 0.0
0.0 0.0 0.0

2.008069385334985e6 3.354937312708449e7 0.0
3.354937312708449e7 -3.558580410937178e6 0.0
0.0 0.0 0.0

6.920112464344463e6 3.1509323080244657e7 0.0
3.1509323080244657e7 -7.409771008064803e6 0.0
0.0 0.0 0.0

-3.3888898735366757e6 4.836711787946928e7 0.0
4.836711787946928e7 2.8420630302929077e6 0.0
0.0 0.0 0.0

1.2393385391831534e7 2.2196813494413827e7 0.0
2.2196813494413827e7 9.216471767376088e6 0.0
0.0 0.0 0.0

-7.725307287008451e6 1.3189867325607691e7 0.0
1.3189867325607691e7 4.042882012392102e7 0.0
0.0 0.0 0.0

1.6157891041382095e6 3.42523385866783e7 0.0
3.42523385866783e7 -2.51641153425395e6 0.0
0.0 0.0 0.0

-3.196580536845646e6 2.496565318977783e7 0.0
2.496565318977783e7 1.4417762528070437e7 0.0
0.0 0.0 0.0

-3.074104862995903e6 2.855032496863832e7 0.0
2.855032496863832e7 8.362708842439613e6 0.0
0.0 0.0 0.0

666400.6086101271 1.013990043253798e7 0.0
1.013990043253798e7 -5.205489410199841e7 0.0
0.0 0.0 0.0

-4.1250894426197563e6 2.9715046563628357e7 0.0
2.9715046563628357e7 1.0974680120257132e7 0.0
0.0 0.0 0.0

2.053318628076701e7 1.8915403447624557e7 0.0
1.8915403447624557e7 5.149944566523297e6 0.0
0.0 0.0 0.0

1.3479806913824063e6 1.5963246484462662e7 0.0
1.5963246484462662e7 -2.8744285203506224e7 0.0
0.0 0.0 0.0

-4.702434672658842e6 3.9205568054705258e6 0.0
3.9205568054705258e6 7.446045808401695e7 0.0
0.0 0.0 0.0

-548089.247154641 3.550995855209888e7 0.0
3.550995855209888e7 768635.0024817886 0.0
0.0 0.0 0.0

4.81112648158071e6 2.5272758640743136e7 0.0
2.5272758640743136e7 8.447631342638662e6 0.0
0.0 0.0 0.0

-1.096501240208167e8 1.0288584687461631e8 0.0
1.0288584687461631e8 -1.0229158268211983e7 0.0
0.0 0.0 0.0

2.5546140808422947e6 4.01012318533887e6 0.0
4.01012318533887e6 -2.389554309651622e7 0.0
0.0 0.0 0.0

-1.3846760738190785e6 2.439965503963525e7 0.0
2.439965503963525e7 -404960.1224752845 0.0
0.0 0.0 0.0

-1.9963185954404194e7 3.2007639259573724e7 0.0
3.2007639259573724e7 2.6588951742233606e6 0.0
0.0 0.0 0.0

-316199.4994905768 2.3767542564821187e7 0.0
2.3767542564821187e7 -1.695878266711843e7 0.0
0.0 0.0 0.0

1.5285167805863293e6 2.5290279934279077e7 0.0
2.5290279934279077e7 -1.4859371373714887e7 0.0
0.0 0.0 0.0

1.4965872355426725e7 2.6711269723599467e7 0.0
2.6711269723599467e7 2.61939448438959e6 0.0
0.0 0.0 0.0

-3.766037891937729e6 4.061891346213087e7 0.0
4.061891346213087e7 3.278450678420457e6 0.0
0.0 0.0 0.0

-5.067319113860616e6 2.4770098289588753e7 0.0
2.4770098289588753e7 -1.537191209327869e7 0.0
0.0 0.0 0.0

1.5496248000459857e6 5.507078142423502e6 0.0
5.507078142423502e6 -5.5583855009073906e7 0.0
0.0 0.0 0.0

-3.937224834406526e7 3.456561841877615e7 0.0
3.456561841877615e7 -1.1634542245597199e7 0.0
0.0 0.0 0.0

-2.419812951488368e6 2.417612436806254e7 0.0
2.417612436806254e7 1.578753151723975e7 0.0
0.0 0.0 0.0

6.406757033831568e6 3.032314332282593e7 0.0
3.032314332282593e7 -7.992285792516261e6 0.0
0.0 0.0 0.0

3.1355404332804643e6 2.039165409463417e7 0.0
2.039165409463417e7 5.113097199975873e7 0.0
0.0 0.0 0.0

1.9559842100406483e7 2.905969689067272e7 0.0
2.905969689067272e7 -1.4557511670386372e6 0.0
0.0 0.0 0.0

-3.8687961550293323e6 2.7530240033786483e7 0.0
2.7530240033786483e7 1.4121695580820989e7 0.0
0.0 0.0 0.0

-287312.49175971746 2.0919648649702176e7 0.0
2.0919648649702176e7 -1.4847616074864155e7 0.0
0.0 0.0 0.0

1.0849668729339212e7 1.2916006800019551e7 0.0
1.2916006800019551e7 4.316546906728458e6 0.0
0.0 0.0 0.0

4.383774959655889e6 2.6606249188035354e7 0.0
2.6606249188035354e7 -8.05743813608847e6 0.0
0.0 0.0 0.0

-2.90226846697418e6 2.1962264714924227e7 0.0
2.1962264714924227e7 2.9665081666164823e7 0.0
0.0 0.0 0.0

-3.190159247505307e6 7.67211174326605e6 0.0
7.67211174326605e6 7.783914170693503e7 0.0
0.0 0.0 0.0

-4.328278295084681e6 1.7812473707924979e6 0.0
1.7812473707924979e6 8.143207775937296e7 0.0
0.0 0.0 0.0

-160598.25633789226 2.337531073238676e7 0.0
2.337531073238676e7 -1.3163806367353506e7 0.0
0.0 0.0 0.0

1.286671569786162e6 2.4890868640574068e7 0.0
2.4890868640574068e7 -1.4111960943220597e7 0.0
0.0 0.0 0.0

1.7068292184634656e6 2.5221559495785523e7 0.0
2.5221559495785523e7 -1.4949737034464447e7 0.0
0.0 0.0 0.0

-1.6562786928842647e7 2.7988882478213023e7 0.0
2.7988882478213023e7 -4.946292383375153e6 0.0
0.0 0.0 0.0

2.6710237779440146e7 2.6190725242505725e7 0.0
2.6190725242505725e7 1.4828703315633472e7 0.0
0.0 0.0 0.0

-3.6583367484665997e6 2.317351602783344e7 0.0
2.317351602783344e7 2.4382778829379823e7 0.0
0.0 0.0 0.0

1.9407513324636798e6 2.5135600983284086e7 0.0
2.5135600983284086e7 -1.4818279245419377e7 0.0
0.0 0.0 0.0

-748645.1990130185 1.988467427538038e7 0.0
1.988467427538038e7 -1.3030512388824614e7 0.0
0.0 0.0 0.0

-8.686971377429087e6 -692056.4073817573 0.0
-692056.4073817573 2.9674890090219047e7 0.0
0.0 0.0 0.0

-1.1857408161491547e6 1.6179058213854656e7 0.0
1.6179058213854656e7 -3.990184072002396e7 0.0
0.0 0.0 0.0

-8.361456261840029e6 2.6977608888793695e6 0.0
2.6977608888793695e6 4.195872798185659e7 0.0
0.0 0.0 0.0

-7.749122026607953e6 -2.473282327957919e6 0.0
-2.473282327957919e6 3.334196902589897e7 0.0
0.0 0.0 0.0

-7.818140134899773e6 -2.704735932070366e6 0.0
-2.704735932070366e6 3.2358116142039474e7 0.0
0.0 0.0 0.0

-4.402585104535097e6 1.3781166618304526e7 0.0
1.3781166618304526e7 1.2582510321427185e7 0.0
0.0 0.0 0.0

624914.6926745092 1.9045460241238803e7 0.0
1.9045460241238803e7 -2.2757261242137223e7 0.0
0.0 0.0 0.0

-545011.4658855889 1.603653428155118e7 0.0
1.603653428155118e7 -3.96734841337145e7 0.0
0.0 0.0 0.0

-1.975168903512365e6 2.3418111968279444e7 0.0
2.3418111968279444e7 -6.457092263374628e6 0.0
0.0 0.0 0.0

4.5078118111156775e6 2.67455237034208e7 0.0
2.67455237034208e7 -9.898979874028059e6 0.0
0.0 0.0 0.0

7.4464659052159935e6 2.5745018770185653e7 0.0
2.5745018770185653e7 1.702539207461821e6 0.0
0.0 0.0 0.0

813761.749589189 3.091617413067538e7 0.0
3.091617413067538e7 -4.347298129600413e6 0.0
0.0 0.0 0.0

7.37411696774364e7 3.3096679110536054e7 0.0
3.3096679110536054e7 1.1240478941637756e7 0.0
0.0 0.0 0.0

1.168265368091134e7 1.75055007523276e7 0.0
1.75055007523276e7 1.076936066170487e7 0.0
0.0 0.0 0.0

6.110790959021344e6 2.631667300449103e7 0.0
2.631667300449103e7 -3.8256773926062365e6 0.0
0.0 0.0 0.0

7.863785753108777e6 3.178357181780068e7 0.0
3.178357181780068e7 -6.98048178800187e6 0.0
0.0 0.0 0.0

648912.3512622516 3.535150457020129e7 0.0
3.535150457020129e7 -814233.6231178599 0.0
0.0 0.0 0.0

635752.7964627622 2.1550883328536272e7 0.0
2.1550883328536272e7 -2.261593746257397e7 0.0
0.0 0.0 0.0

-2.254111462396567e7 3.098874925407834e7 0.0
3.098874925407834e7 -436188.92843344714 0.0
0.0 0.0 0.0

-6.673463477531807e6 3.1619052923772693e7 0.0
3.1619052923772693e7 8.705647145895924e6 0.0
0.0 0.0 0.0

2.912078708674941e6 1.6999328936401801e6 0.0
1.6999328936401801e6 -2.733927743945031e7 0.0
0.0 0.0 0.0

-297764.2038889696 3.256519281622935e7 0.0
3.256519281622935e7 -2.874954719190589e6 0.0
0.0 0.0 0.0

-6.867522368811695e6 5.257329113943514e7 0.0
5.257329113943514e7 4.548462239953667e6 0.0
0.0 0.0 0.0

-3.1869693655357324e6 1.8554276766839914e7 0.0
1.8554276766839914e7 -9.040647965861026e6 0.0
0.0 0.0 0.0

1.0985268133212198e6 1.5961177313459354e7 0.0
1.5961177313459354e7 -3.0856531666395154e7 0.0
0.0 0.0 0.0

46965.02720820531 1.5576938293468613e7 0.0
1.5576938293468613e7 -3.7464898698443614e7 0.0
0.0 0.0 0.0

-1.454879230372779e6 1.7157593378822107e7 0.0
1.7157593378822107e7 -3.967330412136989e7 0.0
0.0 0.0 0.0

1.675062736931065e7 4.629963062109692e7 0.0
4.629963062109692e7 -4.885893875941446e6 0.0
0.0 0.0 0.0

1.9872391758941375e6 2.4922519064147104e7 0.0
2.4922519064147104e7 -1.4613028764579723e7 0.0
0.0 0.0 0.0

8.681384484223127e6 2.188226689467174e7 0.0
2.188226689467174e7 4.4206660749060735e7 0.0
0.0 0.0 0.0

-2.8577081624690667e7 2.511054988704822e7 0.0
2.511054988704822e7 1.7862030124529507e6 0.0
0.0 0.0 0.0

-7.855345983298188e7 4.205540624295458e7 0.0
4.205540624295458e7 -1.03710415881936e7 0.0
0.0 0.0 0.0

748557.2813399322 7.137247942719916e6 0.0
7.137247942719916e6 -7.05296303319208e7 0.0
0.0 0.0 0.0

5.010424319990676e6 2.6590896212576453e7 0.0
2.6590896212576453e7 -6.105620029095114e6 0.0
0.0 0.0 0.0

7.02039008976945e6 2.9352172018491782e7 0.0
2.9352172018491782e7 -7.773431654554986e6 0.0
0.0 0.0 0.0

2.939976448479265e6 1.826403259683169e6 0.0
1.826403259683169e6 -2.5718722901166953e7 0.0
0.0 0.0 0.0

-2.2048268371447273e7 2.907720406311598e7 0.0
2.907720406311598e7 -7.961063176415513e6 0.0
0.0 0.0 0.0

861665.3232124764 2.2053696693877243e7 0.0
2.2053696693877243e7 2.7572262053838346e7 0.0
0.0 0.0 0.0

1.1625439539639821e7 2.138117472149357e7 0.0
2.138117472149357e7 1.5134243878422854e7 0.0
0.0 0.0 0.0

-7.945657203003639e6 -2.8370429730494563e6 0.0
-2.8370429730494563e6 2.8017495229855396e7 0.0
0.0 0.0 0.0

270685.4683368094 1.9262181353163745e7 0.0
1.9262181353163745e7 -2.7812287306251794e7 0.0
0.0 0.0 0.0

1.3693723930062037e6 1.1651426614911074e7 0.0
1.1651426614911074e7 -2.67939439859867e7 0.0
0.0 0.0 0.0

309947.5266388245 1.0004159134140048e7 0.0
1.0004159134140048e7 -5.266150761848893e6 0.0
0.0 0.0 0.0

-8.832291270174665e6 -2.6371346560270255e6 0.0
-2.6371346560270255e6 2.481928342164584e7 0.0
0.0 0.0 0.0

9.08914034134978e6 2.157649860619978e7 0.0
2.157649860619978e7 9.894902868322048e7 0.0
0.0 0.0 0.0

-6.937895693750631e6 6.527229835731138e6 0.0
6.527229835731138e6 5.361848567641772e7 0.0
0.0 0.0 0.0

5.328416755985751e6 3.686224529530952e7 0.0
3.686224529530952e7 -3.879190219074249e6 0.0
0.0 0.0 0.0

-1.5329976782689851e6 2.384592332021806e7 0.0
2.384592332021806e7 811526.7454426136 0.0
0.0 0.0 0.0

-3.262307433336934e6 2.1092867216245476e7 0.0
2.1092867216245476e7 -1.5377418577031404e7 0.0
0.0 0.0 0.0

4.3327387017096905e6 2.903884370552117e7 0.0
2.903884370552117e7 -9.605225360129625e6 0.0
0.0 0.0 0.0

-4.130374856099737e6 3.0502738954202943e7 0.0
3.0502738954202943e7 8.617839017829875e6 0.0
0.0 0.0 0.0

1.0387794744712563e7 5.4431502240534365e7 0.0
5.4431502240534365e7 -857085.1224451861 0.0
0.0 0.0 0.0

2.6941495326976664e6 4.3749939865753045e6 0.0
4.3749939865753045e6 -1.3347271395392554e7 0.0
0.0 0.0 0.0

-8.843789502785578e6 -643452.0632477708 0.0
-643452.0632477708 3.0198636367111046e7 0.0
0.0 0.0 0.0

-115921.81809764949 2.2310097298239186e7 0.0
2.2310097298239186e7 3.0044698849966717e6 0.0
0.0 0.0 0.0

-1.0963068594886325e7 3.2381767615708973e7 0.0
3.2381767615708973e7 6.74916149121538e6 0.0
0.0 0.0 0.0

369566.2983352449 2.174899731605798e7 0.0
2.174899731605798e7 3.112191050368561e7 0.0
0.0 0.0 0.0

-8.078411311056998e6 1.5289884245544769e7 0.0
1.5289884245544769e7 3.332215838730788e7 0.0
0.0 0.0 0.0

872240.567759933 1.7353529855968196e7 0.0
1.7353529855968196e7 -2.938963181245739e7 0.0
0.0 0.0 0.0

-2.1069777124776635e8 3.5257849646249264e7 0.0
3.5257849646249264e7 -1.7504646531742208e7 0.0
0.0 0.0 0.0

-8.395264951504916e6 1.4021925815749263e7 0.0
1.4021925815749263e7 3.508082026600838e7 0.0
0.0 0.0 0.0

-9.252048761268549e6 3.234588557153744e7 0.0
3.234588557153744e7 7.41724386831459e6 0.0
0.0 0.0 0.0

405185.9091218328 2.0982508887187447e7 0.0
2.0982508887187447e7 -2.4198818934619248e7 0.0
0.0 0.0 0.0

-2.69005318537914e6 1.8012521001464903e7 0.0
1.8012521001464903e7 -3.886808864253279e7 0.0
0.0 0.0 0.0

8.02601565730498e6 5.128982779977935e7 0.0
5.128982779977935e7 -605608.2442827406 0.0
0.0 0.0 0.0

-3.0398621064513214e6 1.906716037760227e7 0.0
1.906716037760227e7 -3.533202745074701e7 0.0
0.0 0.0 0.0

1.9004609671479315e6 2.4684988212180734e7 0.0
2.4684988212180734e7 -1.4090803398846619e7 0.0
0.0 0.0 0.0

1.182518663732637e6 2.27824297714519e7 0.0
2.27824297714519e7 5.92146911340428e6 0.0
0.0 0.0 0.0

3.131792045345827e6 4.160861115279851e7 0.0
4.160861115279851e7 -686067.8599145785 0.0
0.0 0.0 0.0

-1.2960175641572498e7 3.215461050703293e7 0.0
3.215461050703293e7 5.73358849993834e6 0.0
0.0 0.0 0.0

656916.5415020622 1.8667249477067497e7 0.0
1.8667249477067497e7 -2.7705810490098387e7 0.0
0.0 0.0 0.0

1.4663293374722805e6 2.443799421712691e7 0.0
2.443799421712691e7 -1.546363335722776e7 0.0
0.0 0.0 0.0

-2.4404286318983873e6 3.108049988054331e7 0.0
3.108049988054331e7 2.7145947167734774e6 0.0
0.0 0.0 0.0

-7.830761338109136e6 3.204911562115682e7 0.0
3.204911562115682e7 8.056596036947407e6 0.0
0.0 0.0 0.0

-7.167073365735212e6 -1.834831697882009e6 0.0
-1.834831697882009e6 4.261041968139721e7 0.0
0.0 0.0 0.0

-3.9940361575359777e6 2.1722400249546573e7 0.0
2.1722400249546573e7 2.3587814187915478e7 0.0
0.0 0.0 0.0

-3.3037192251716815e6 1.988478050338127e7 0.0
1.988478050338127e7 -3.1907994216843408e7 0.0
0.0 0.0 0.0

2.616985918867678e7 2.5282406176006958e7 0.0
2.5282406176006958e7 5.92992053397441e6 0.0
0.0 0.0 0.0

-288109.26480333693 1.969281565608875e7 0.0
1.969281565608875e7 -2.7877073747389313e7 0.0
0.0 0.0 0.0

-512674.3875247675 2.3616300078485604e7 0.0
2.3616300078485604e7 -3.1289540716486047e6 0.0
0.0 0.0 0.0

-7.690016478131762e6 1.169688602092504e7 0.0
1.169688602092504e7 4.263071113608035e7 0.0
0.0 0.0 0.0

-8.622004202762835e6 2.542198286182988e7 0.0
2.542198286182988e7 -1.6331071307187757e7 0.0
0.0 0.0 0.0

-2.0551557915571923e6 2.1267922451879114e7 0.0
2.1267922451879114e7 -8.023492220928752e6 0.0
0.0 0.0 0.0

89103.5352240093 2.428815526575883e7 0.0
2.428815526575883e7 -1.4315050607111739e7 0.0
0.0 0.0 0.0

-1.5972065330805717e7 5.78859144580662e7 0.0
5.78859144580662e7 7.262552152519139e6 0.0
0.0 0.0 0.0

-6.2600644430568025e7 2.0196955557334818e7 0.0
2.0196955557334818e7 2.9183340256244354e6 0.0
0.0 0.0 0.0

5.141184494754812e6 3.80686775908657e7 0.0
3.80686775908657e7 -4.525507282162445e6 0.0
0.0 0.0 0.0

-1.0207589007309187e7 5.5054577204537e7 0.0
5.5054577204537e7 6.007588393595299e6 0.0
0.0 0.0 0.0

3.594369907206225e7 7.204616701628877e7 0.0
7.204616701628877e7 -1.6434278479166701e6 0.0
0.0 0.0 0.0

-1.6136072318113074e6 1.753382563076511e7 0.0
1.753382563076511e7 -3.6851759888129e7 0.0
0.0 0.0 0.0

-1.1541756287605146e7 1.9972862395495247e7 0.0
1.9972862395495247e7 -4.2289395183515795e7 0.0
0.0 0.0 0.0

-4.7250637086657705e6 2.9289613585446525e7 0.0
2.9289613585446525e7 1.1044943794394623e7 0.0
0.0 0.0 0.0

-8.449388631795323e6 1.472342102739044e7 0.0
1.472342102739044e7 3.518176772618617e7 0.0
0.0 0.0 0.0

-1.3418293740881944e7 2.8462484125879806e7 0.0
2.8462484125879806e7 2.722119087025691e6 0.0
0.0 0.0 0.0

1.8645603116723816e6 2.3168040402689517e7 0.0
2.3168040402689517e7 1.0062529643382264e7 0.0
0.0 0.0 0.0

126936.7361000115 2.19069311466584e7 0.0
2.19069311466584e7 -1.13568778040976e7 0.0
0.0 0.0 0.0

1.3209624278775228e7 5.826690123901897e7 0.0
5.826690123901897e7 -1.337153441014301e6 0.0
0.0 0.0 0.0

4.1327716320155812e6 2.800039599898078e7 0.0
2.800039599898078e7 -1.0453273928773768e7 0.0
0.0 0.0 0.0

4.312671797753031e6 2.449210626865469e7 0.0
2.449210626865469e7 -3.4829707878790405e6 0.0
0.0 0.0 0.0

1.86386112477706e6 1.244996945459217e6 0.0
1.244996945459217e6 -4.8424311412087776e7 0.0
0.0 0.0 0.0

-4.557221877365958e6 3.0445216734438293e7 0.0
3.0445216734438293e7 9.351413963257227e6 0.0
0.0 0.0 0.0

-1.830912402156868e6 2.2594181052299466e7 0.0
2.2594181052299466e7 6.683438176547417e6 0.0
0.0 0.0 0.0

1.2805498577148719e6 1.4552900544108508e7 0.0
1.4552900544108508e7 -1.7587491778013423e7 0.0
0.0 0.0 0.0

-2.5059258667973597e6 1.8212326040397894e7 0.0
1.8212326040397894e7 -3.9203314402318306e7 0.0
0.0 0.0 0.0

-1.8517190755655402e6 2.4304283122132406e7 0.0
2.4304283122132406e7 2.149413873333011e7 0.0
0.0 0.0 0.0

-523652.8315238897 2.1196348582132477e7 0.0
2.1196348582132477e7 3.446960438404923e7 0.0
0.0 0.0 0.0

-1.2665037887616141e6 2.1034754130052343e7 0.0
2.1034754130052343e7 -5.368178969052674e6 0.0
0.0 0.0 0.0

8.309369570628878e6 3.0664444264308926e7 0.0
3.0664444264308926e7 -6.883533042183101e6 0.0
0.0 0.0 0.0

-3.7081589338105693e6 2.906584654471266e7 0.0
2.906584654471266e7 1.1416235437175158e7 0.0
0.0 0.0 0.0

-5.079287598113518e6 4.169646754698856e6 0.0
4.169646754698856e6 6.6672442761532746e7 0.0
0.0 0.0 0.0

-3.4855664293897483e6 1.4805912913495278e7 0.0
1.4805912913495278e7 1.0307988882133372e7 0.0
0.0 0.0 0.0

-213239.1628615074 2.2275650122875556e7 0.0
2.2275650122875556e7 -7.350595837196989e6 0.0
0.0 0.0 0.0

-6.417178332272965e6 3.055553842584606e7 0.0
3.055553842584606e7 9.652431358302535e6 0.0
0.0 0.0 0.0

-2.7924805219547236e6 2.469713319098796e7 0.0
2.469713319098796e7 1.7598458625791166e7 0.0
0.0 0.0 0.0

1.7412191671779733e6 1.4768555210057756e7 0.0
1.4768555210057756e7 -2.5198297250210244e7 0.0
0.0 0.0 0.0

-1.1297866265530167e6 3.426846055993283e7 0.0
3.426846055993283e7 1.486435442284284e6 0.0
0.0 0.0 0.0

4.0235783749598092e6 4.3868983125467576e7 0.0
4.3868983125467576e7 -767883.4597652098 0.0
0.0 0.0 0.0

-1.8102030323582324e6 2.6654416324058447e7 0.0
2.6654416324058447e7 6.943989029449105e6 0.0
0.0 0.0 0.0

1.2161560661352389e6 1.7353015172404863e7 0.0
1.7353015172404863e7 -2.7301902839899074e7 0.0
0.0 0.0 0.0

-392315.4017112402 3.4899321449626625e7 0.0
3.4899321449626625e7 -1.524144758127251e6 0.0
0.0 0.0 0.0

5.210376670702128e6 3.0045519382824186e7 0.0
3.0045519382824186e7 -8.723260893522914e6 0.0
0.0 0.0 0.0

2.9535388374247663e6 2.16489700013233e7 0.0
2.16489700013233e7 3.8275711058443606e7 0.0
0.0 0.0 0.0

-1.8785711987226321e6 2.580594741207908e7 0.0
2.580594741207908e7 8.422467400263041e6 0.0
0.0 0.0 0.0

-5.317125856290559e6 3.308221422646921e7 0.0
3.308221422646921e7 6.649309114585321e6 0.0
0.0 0.0 0.0

-6.750678465054784e6 1.8602728054122373e6 0.0
1.8602728054122373e6 5.2758219104248606e7 0.0
0.0 0.0 0.0

3.4566550638888767e6 4.264389340272619e7 0.0
4.264389340272619e7 -672479.7317913854 0.0
0.0 0.0 0.0

1.9229347414194103e6 1.2946211115859493e6 0.0
1.2946211115859493e6 -4.705195282586372e7 0.0
0.0 0.0 0.0

1.0266248013971101e6 3.2185861666041415e7 0.0
3.2185861666041415e7 -5.401833712622274e6 0.0
0.0 0.0 0.0

-6.997629775664121e6 -181026.37633408222 0.0
-181026.37633408222 4.666503534663793e7 0.0
0.0 0.0 0.0

-2.131820424079089e6 2.0599165887880865e7 0.0
2.0599165887880865e7 -5.8005538809113335e6 0.0
0.0 0.0 0.0

-1.2722990417519111e7 3.048219513883172e7 0.0
3.048219513883172e7 4.164184638466838e6 0.0
0.0 0.0 0.0

-3.170994563390628e6 2.4787679099668797e7 0.0
2.4787679099668797e7 -4.715623589549412e6 0.0
0.0 0.0 0.0

-5.529228252087609e6 2.485026400980441e7 0.0
2.485026400980441e7 -7.554444203474628e6 0.0
0.0 0.0 0.0

-2.487390389582268e6 2.246024849121246e7 0.0
2.246024849121246e7 -2.212390826774984e7 0.0
0.0 0.0 0.0

-7.154330072863538e6 1.6392854725649454e7 0.0
1.6392854725649454e7 3.652418044134132e7 0.0
0.0 0.0 0.0

2.812106652615566e6 2.36921740258402e7 0.0
2.36921740258402e7 1.2889229116654877e7 0.0
0.0 0.0 0.0

2.1366709824582636e6 9.572707355744584e6 0.0
9.572707355744584e6 -3.372202428564757e7 0.0
0.0 0.0 0.0

5.319531684791031e6 2.211860246802598e7 0.0
2.211860246802598e7 3.672331655031229e7 0.0
0.0 0.0 0.0

-1.461834114704376e7 2.1618055057409666e7 0.0
2.1618055057409666e7 -8.459620396623395e7 0.0
0.0 0.0 0.0

-2.647817320599694e6 2.3348466879139207e7 0.0
2.3348466879139207e7 1.7620259820345618e7 0.0
0.0 0.0 0.0

-1.5231712885569108e6 3.508117960873637e7 0.0
3.508117960873637e7 106018.66153215396 0.0
0.0 0.0 0.0

-2.2551697381166285e6 2.602591930802797e7 0.0
2.602591930802797e7 2.6559682372261994e6 0.0
0.0 0.0 0.0

2.0846113133323211e6 2.609031514292836e7 0.0
2.609031514292836e7 -1.3237628928510532e7 0.0
0.0 0.0 0.0

4.071575465845364e6 2.5198405578591656e7 0.0
2.5198405578591656e7 -7.851704444055337e6 0.0
0.0 0.0 0.0

-4.968671646555701e6 3.0305740945398085e7 0.0
3.0305740945398085e7 9.991651495114565e6 0.0
0.0 0.0 0.0

-2.496609135433877e6 2.423297199647846e7 0.0
2.423297199647846e7 2.204388722829592e7 0.0
0.0 0.0 0.0

-468674.88797667436 2.1456310874337316e7 0.0
2.1456310874337316e7 3.4824534735610634e7 0.0
0.0 0.0 0.0

-6.004918676225328e6 2.1700533186796103e7 0.0
2.1700533186796103e7 -2.263695550370736e7 0.0
0.0 0.0 0.0

645936.7822520463 1.8331520667260677e7 0.0
1.8331520667260677e7 -2.428263766796085e7 0.0
0.0 0.0 0.0

-1.1212085308382465e6 2.4276479625503466e7 0.0
2.4276479625503466e7 2.0615407848453194e7 0.0
0.0 0.0 0.0

-180913.10047450475 1.1877364307928324e7 0.0
1.1877364307928324e7 -4.81552027055102e7 0.0
0.0 0.0 0.0

-3.871437108348036e6 2.355664258633797e7 0.0
2.355664258633797e7 -1.4704608891325312e7 0.0
0.0 0.0 0.0

4.779475700353727e6 4.533155600040218e7 0.0
4.533155600040218e7 -642037.4793282019 0.0
0.0 0.0 0.0

4.485099529529919e6 2.135449880413355e7 0.0
2.135449880413355e7 3.1474975844789017e7 0.0
0.0 0.0 0.0

2.886968994082863e7 2.821083711610847e7 0.0
2.821083711610847e7 9.623225663371043e7 0.0
0.0 0.0 0.0

-2.9516202448218744e7 2.7027760979716007e7 0.0
2.7027760979716007e7 -9.838729928950037e7 0.0
0.0 0.0 0.0

-2.590384307671673e6 2.267937221863873e7 0.0
2.267937221863873e7 4.135556706392834e6 0.0
0.0 0.0 0.0

-3.4430360970118515e7 4.49079149681504e7 0.0
4.49079149681504e7 7.972707376032662e6 0.0
0.0 0.0 0.0

-437524.31385595375 2.978383181182332e7 0.0
2.978383181182332e7 -4.771477698980285e6 0.0
0.0 0.0 0.0

-943355.8269304512 2.461249307273019e7 0.0
2.461249307273019e7 1.769395038429737e7 0.0
0.0 0.0 0.0

4.0767408230315177e6 2.1325184647066522e7 0.0
2.1325184647066522e7 3.559165946695723e7 0.0
0.0 0.0 0.0

1.179149120032259e7 2.291921642753773e7 0.0
2.291921642753773e7 6.1958190582358375e7 0.0
0.0 0.0 0.0

1.091744311607088e7 2.561665130859055e7 0.0
2.561665130859055e7 1.2563617775864482e7 0.0
0.0 0.0 0.0

1.0415171166393155e7 2.0440091990620025e7 0.0
2.0440091990620025e7 4.111547696325447e7 0.0
0.0 0.0 0.0

7.731447074346349e6 3.0435856727764316e7 0.0
3.0435856727764316e7 -7.240652359442072e6 0.0
0.0 0.0 0.0

2.8251491713630254e6 2.2139328159102734e7 0.0
2.2139328159102734e7 2.142146809656055e7 0.0
0.0 0.0 0.0

-855164.8496188205 2.3290159667105187e7 0.0
2.3290159667105187e7 2.1862804557594497e7 0.0
0.0 0.0 0.0

6.720335885833498e6 3.9871136140781686e7 0.0
3.9871136140781686e7 -2.95649635951629e6 0.0
0.0 0.0 0.0

4.810684518009573e6 2.4876493684078407e7 0.0
2.4876493684078407e7 1.6179737444479005e7 0.0
0.0 0.0 0.0

2.4933037680435423e6 1.5646716743158982e6 0.0
1.5646716743158982e6 -3.605644877832e7 0.0
0.0 0.0 0.0

-6.680219322911404e6 1.9024316057417046e7 0.0
1.9024316057417046e7 2.5185434513134446e7 0.0
0.0 0.0 0.0

-7.023722074972775e6 -1.8214762231497308e6 0.0
-1.8214762231497308e6 4.3781558384137414e7 0.0
0.0 0.0 0.0

-2.9989019345672606e6 2.348140923693895e7 0.0
2.348140923693895e7 2.419893384458553e7 0.0
0.0 0.0 0.0

2.3427883985669417e6 3.6022112953546494e7 0.0
3.6022112953546494e7 -2.306131003457849e6 0.0
0.0 0.0 0.0

7.791082481713742e6 2.3957488921325207e7 0.0
2.3957488921325207e7 2.209256353924083e7 0.0
0.0 0.0 0.0

6.811621256661233e6 2.0478632516358256e7 0.0
2.0478632516358256e7 3.0222827142009433e7 0.0
0.0 0.0 0.0

-4.166567862218154e6 3.2590437566484723e7 0.0
3.2590437566484723e7 7.442209403617033e6 0.0
0.0 0.0 0.0

3.0199499295624904e6 4.1244297556878817e6 0.0
4.1244297556878817e6 -1.8969728597950168e7 0.0
0.0 0.0 0.0

769505.7008593881 3.298722216594464e7 0.0
3.298722216594464e7 -4.402740669866718e6 0.0
0.0 0.0 0.0

2.0794588385315593e6 1.2344915538007855e7 0.0
1.2344915538007855e7 -2.7276090448404063e7 0.0
0.0 0.0 0.0

-9.332063501734905e6 3.1001245863729e7 0.0
3.1001245863729e7 7.685105089117728e6 0.0
0.0 0.0 0.0

8.880284540795412e6 3.3052512214183487e7 0.0
3.3052512214183487e7 -6.4807545219851695e6 0.0
0.0 0.0 0.0

-1.2394352349734325e7 2.690613801979526e7 0.0
2.690613801979526e7 364057.8450369891 0.0
0.0 0.0 0.0

1.1227445813333802e6 1.5590849028356988e6 0.0
1.5590849028356988e6 -7.091377969284366e7 0.0
0.0 0.0 0.0

8.020976338931126e6 2.5735707681698084e7 0.0
2.5735707681698084e7 4.795848973320007e6 0.0
0.0 0.0 0.0

4.13045320321388e6 3.424518689712283e7 0.0
3.424518689712283e7 -4.822257425078414e6 0.0
0.0 0.0 0.0

2.5595267623312194e6 2.9452018726973552e7 0.0
2.9452018726973552e7 -8.647620700634921e6 0.0
0.0 0.0 0.0

-3.2520123136464143e6 2.2703108264687352e7 0.0
2.2703108264687352e7 -1.5318809196900353e7 0.0
0.0 0.0 0.0

2.186028355691254e6 4.356100028084871e6 0.0
4.356100028084871e6 -3.319655520702313e7 0.0
0.0 0.0 0.0

-2.7148624207908367e6 2.7436446600040942e7 0.0
2.7436446600040942e7 7.7807351901519885e6 0.0
0.0 0.0 0.0

-663947.8042659517 1.5254190251396969e7 0.0
1.5254190251396969e7 -3.994768286018333e7 0.0
0.0 0.0 0.0

-6.946266688162191e6 -1.539057997242079e6 0.0
-1.539057997242079e6 4.835996979658469e7 0.0
0.0 0.0 0.0

-3.463659531452723e6 2.2399177558624055e7 0.0
2.2399177558624055e7 2.1673803814391274e7 0.0
0.0 0.0 0.0

-1.7552070155213725e7 3.0589455952524338e7 0.0
3.0589455952524338e7 2.898557709699286e6 0.0
0.0 0.0 0.0

65969.22326374054 6.46650709330539e6 0.0
6.46650709330539e6 -1.021689602188394e8 0.0
0.0 0.0 0.0

-884396.0320161041 1.866007507258617e7 0.0
1.866007507258617e7 4.88135424283021e7 0.0
0.0 0.0 0.0

1.6955663746626917e6 2.281018687653679e7 0.0
2.281018687653679e7 2.8645361761933915e7 0.0
0.0 0.0 0.0

1.5832494861712847e6 2.0472155720723186e7 0.0
2.0472155720723186e7 4.4431006833891585e7 0.0
0.0 0.0 0.0

-1.6277436931826058e6 2.4415198169104643e7 0.0
2.4415198169104643e7 2.0950375452614632e6 0.0
0.0 0.0 0.0

-3.6694746449057823e6 2.301498484436113e7 0.0
2.301498484436113e7 1.7099084808981616e7 0.0
0.0 0.0 0.0

-2.739821173079886e6 2.2854415074178763e7 0.0
2.2854415074178763e7 -1.1738233396131149e7 0.0
0.0 0.0 0.0

678304.267655015 1.7610919900196515e7 0.0
1.7610919900196515e7 -2.5762707169543575e7 0.0
0.0 0.0 0.0

-419975.2773530558 1.131300638757357e7 0.0
1.131300638757357e7 -6.0099595592617825e7 0.0
0.0 0.0 0.0

-6.967865710569516e6 -1.6859043879664268e6 0.0
-1.6859043879664268e6 4.5169424295456804e7 0.0
0.0 0.0 0.0

-6.105112665172078e6 -1.1039556507163083e6 0.0
-1.1039556507163083e6 5.6069645548505574e7 0.0
0.0 0.0 0.0

-1.138835389151893e7 2.8863638436429624e7 0.0
2.8863638436429624e7 1.7216090034467457e6 0.0
0.0 0.0 0.0

2.1765802543539843e6 2.6061905822736427e7 0.0
2.6061905822736427e7 -1.3608399556013446e7 0.0
0.0 0.0 0.0

3.212548895551918e6 2.03419602182848e7 0.0
2.03419602182848e7 5.108243085152083e7 0.0
0.0 0.0 0.0

-2.097264003460778e6 2.2956825790246062e7 0.0
2.2956825790246062e7 -8.12152562735275e6 0.0
0.0 0.0 0.0

8.39837387609603e6 2.923134885245149e7 0.0
2.923134885245149e7 -6.7439584213380525e6 0.0
0.0 0.0 0.0

-3.362689220159296e6 2.9461265483345367e7 0.0
2.9461265483345367e7 8.090731759361157e6 0.0
0.0 0.0 0.0

-8.358178477468014e6 -948444.8418765569 0.0
-948444.8418765569 3.1224781799059965e7 0.0
0.0 0.0 0.0

2.0329159330848537e7 6.3797608629715055e7 0.0
6.3797608629715055e7 -1.7968229321287358e6 0.0
0.0 0.0 0.0

1.365131867187169e6 2.3805675701922506e7 0.0
2.3805675701922506e7 -1.039925453000539e7 0.0
0.0 0.0 0.0

-8.989334627308434e6 1.9298223289445743e7 0.0
1.9298223289445743e7 -6.773432556856912e7 0.0
0.0 0.0 0.0

2.443920739052519e6 2.684470618453789e6 0.0
2.684470618453789e6 -4.344448923764732e7 0.0
0.0 0.0 0.0

-789053.3998558442 2.2454429407668218e7 0.0
2.2454429407668218e7 -7.713530158210633e6 0.0
0.0 0.0 0.0

-4.588610626412144e6 2.1143429039540447e7 0.0
2.1143429039540447e7 2.518634745556817e7 0.0
0.0 0.0 0.0

-3.097154236061531e7 2.59999382886414e7 0.0
2.59999382886414e7 2.3079905833650436e6 0.0
0.0 0.0 0.0

-7.836085382355899e6 2.576155317536817e7 0.0
2.576155317536817e7 -1.2404156612808032e7 0.0
0.0 0.0 0.0

8.900345782556154e6 1.9845018100219678e7 0.0
1.9845018100219678e7 3.580083307607661e7 0.0
0.0 0.0 0.0

-4.248129493315974e6 2.2149669164082788e7 0.0
2.2149669164082788e7 -1.7001990424950022e7 0.0
0.0 0.0 0.0

-8.901619376302453e6 1.412168137875732e6 0.0
1.412168137875732e6 3.0612579702176522e7 0.0
0.0 0.0 0.0

-321809.2368193092 2.3972314534922186e7 0.0
2.3972314534922186e7 -1.1733629781123254e7 0.0
0.0 0.0 0.0

-306982.4361318229 2.3167200957109343e7 0.0
2.3167200957109343e7 5.020690446289008e6 0.0
0.0 0.0 0.0

149334.53670633584 2.4030830693067957e7 0.0
2.4030830693067957e7 1.9289813406958673e7 0.0
0.0 0.0 0.0

587562.6274710316 2.1227999803263646e7 0.0
2.1227999803263646e7 -2.047245611059355e7 0.0
0.0 0.0 0.0

790441.3787811752 2.2279799064582713e7 0.0
2.2279799064582713e7 3.187155845443333e7 0.0
0.0 0.0 0.0

57778.46622272364 2.224104146631112e7 0.0
2.224104146631112e7 439724.35500947386 0.0
0.0 0.0 0.0

2.2646282654658053e6 2.6013337241688445e7 0.0
2.6013337241688445e7 -1.3781405834511489e7 0.0
0.0 0.0 0.0

6.917334959515443e6 2.4827965844574157e7 0.0
2.4827965844574157e7 -696465.2566682333 0.0
0.0 0.0 0.0

371805.71712469496 1.4829855432222776e7 0.0
1.4829855432222776e7 -3.511662243883473e7 0.0
0.0 0.0 0.0

-3.5439406572942706e6 2.3751868258447252e7 0.0
2.3751868258447252e7 2.251383405766879e7 0.0
0.0 0.0 0.0

-260572.4041989497 1.9812502289624285e7 0.0
1.9812502289624285e7 -9.649053613165518e6 0.0
0.0 0.0 0.0

-6.172662685384682e7 3.619080831570902e7 0.0
3.619080831570902e7 -2.9988534334595464e6 0.0
0.0 0.0 0.0

7.746434224135675e6 2.1226624224302847e7 0.0
2.1226624224302847e7 6.4211319075010054e7 0.0
0.0 0.0 0.0

1.804455422894543e6 1.2391687337587704e6 0.0
1.2391687337587704e6 -4.985664523672097e7 0.0
0.0 0.0 0.0

-6.259197072201762e6 -1.099609270547607e6 0.0
-1.099609270547607e6 5.426176693426591e7 0.0
0.0 0.0 0.0

-6.198383827959146e6 1.793510096873087e7 0.0
1.793510096873087e7 -5.878374367026635e7 0.0
0.0 0.0 0.0

-3.0362438921568412e6 1.9447744124568965e7 0.0
1.9447744124568965e7 -3.590853917783785e7 0.0
0.0 0.0 0.0

-3.656363461714129e6 2.4214618382617246e7 0.0
2.4214618382617246e7 -7.097829004377053e6 0.0
0.0 0.0 0.0

-2.330368934067165e7 3.241069775104242e7 0.0
3.241069775104242e7 -1.571556716965823e7 0.0
0.0 0.0 0.0

-2.4841095056443494e6 2.112137964580172e7 0.0
2.112137964580172e7 3.360053910813582e7 0.0
0.0 0.0 0.0

2.224297660462912e6 2.5871955671000496e7 0.0
2.5871955671000496e7 -1.3763439205130598e7 0.0
0.0 0.0 0.0

-4.943524698649924e6 49709.70632665563 0.0
49709.70632665563 7.153189493011643e7 0.0
0.0 0.0 0.0

-5.675676011315132e6 1.9947014228707816e7 0.0
1.9947014228707816e7 2.8480393238722462e7 0.0
0.0 0.0 0.0

428389.5692501515 4.1838232118852288e6 0.0
4.1838232118852288e6 -9.524121366417915e7 0.0
0.0 0.0 0.0

-1.631816689304927e6 3.591905712282507e7 0.0
3.591905712282507e7 130443.0920362476 0.0
0.0 0.0 0.0

725078.9176182188 2.2473983684744854e6 0.0
2.2473983684744854e6 -8.27592195171242e7 0.0
0.0 0.0 0.0

-2.838081899248793e7 5.9462801719519004e7 0.0
5.9462801719519004e7 9.232929685897503e6 0.0
0.0 0.0 0.0

-4.794807561702516e6 323305.8700587048 0.0
323305.8700587048 7.472042030844593e7 0.0
0.0 0.0 0.0

586617.9250490982 1.5288862417014726e7 0.0
1.5288862417014726e7 -3.508080972084591e7 0.0
0.0 0.0 0.0

-1.3324923437000077e7 3.0171790190879386e7 0.0
3.0171790190879386e7 4.669608475300012e6 0.0
0.0 0.0 0.0

-5.6677264189094774e7 3.689611903799014e7 0.0
3.689611903799014e7 -4.866646833372286e6 0.0
0.0 0.0 0.0

568342.72143488 3.113193791963947e6 0.0
3.113193791963947e6 -8.868827175508094e7 0.0
0.0 0.0 0.0

-2.3716248124155486e6 2.8550810598836634e7 0.0
2.8550810598836634e7 3.690132117860502e6 0.0
0.0 0.0 0.0

-2.7582561052662944e6 2.564903713862409e7 0.0
2.564903713862409e7 1.6437733810776435e7 0.0
0.0 0.0 0.0

2.2244947920498367e7 2.0018716850192387e7 0.0
2.0018716850192387e7 8.309171484155114e6 0.0
0.0 0.0 0.0

-1.4228757665019855e6 1.91332195334303e7 0.0
1.91332195334303e7 -3.10775275061701e7 0.0
0.0 0.0 0.0

-3.677906192924166e6 2.0418214946536593e7 0.0
2.0418214946536593e7 -3.2688014400990773e7 0.0
0.0 0.0 0.0

1.501770929019304e6 2.884646856546004e7 0.0
2.884646856546004e7 -9.624785535381688e6 0.0
0.0 0.0 0.0

-1.748644559994345e6 3.6697026129855685e7 0.0
3.6697026129855685e7 207199.4950219387 0.0
0.0 0.0 0.0

-7.164116875648921e6 1.419053947123951e7 0.0
1.419053947123951e7 4.116993608496348e7 0.0
0.0 0.0 0.0

970502.2686132677 1.6886413367636339e6 0.0
1.6886413367636339e6 -7.48838903455465e7 0.0
0.0 0.0 0.0

-1.456724093547343e7 4.06424309136952e7 0.0
4.06424309136952e7 4.988948068663609e6 0.0
0.0 0.0 0.0

2.988869694919061e6 5.683244261733753e6 0.0
5.683244261733753e6 -2.629791100851583e7 0.0
0.0 0.0 0.0

-3.0616057796132783e6 2.265726822616514e7 0.0
2.265726822616514e7 -2.0615187145145055e7 0.0
0.0 0.0 0.0

881308.2546604909 2.0803252264438898e6 0.0
2.0803252264438898e6 -7.802302027307297e7 0.0
0.0 0.0 0.0

-3.815463352195561e6 2.1180894562145177e7 0.0
2.1180894562145177e7 -2.930197096343689e7 0.0
0.0 0.0 0.0

-7.191471115428841e6 1.095355448080006e7 0.0
1.095355448080006e7 4.838273133873195e7 0.0
0.0 0.0 0.0

-6.226492857662278e6 868226.0243430946 0.0
868226.0243430946 6.309354237127017e6 0.0
0.0 0.0 0.0

-2.917857214616429e6 2.0705273363363866e7 0.0
2.0705273363363866e7 5.970627311792849e6 0.0
0.0 0.0 0.0

5.642589131082211e6 2.2254443652076744e7 0.0
2.2254443652076744e7 3.28329700779634e7 0.0
0.0 0.0 0.0

1.5286989669484347e6 1.0949513037813702e6 0.0
1.0949513037813702e6 -5.521185801831841e7 0.0
0.0 0.0 0.0

-4.455612082158848e6 2.9294786676823396e7 0.0
2.9294786676823396e7 1.1219827551185304e7 0.0
0.0 0.0 0.0

-7.487769607391637e6 167452.45173329988 0.0
167452.45173329988 4.3399745818385206e7 0.0
0.0 0.0 0.0

178842.85019581125 2.3793983880522918e7 0.0
2.3793983880522918e7 404477.6153164568 0.0
0.0 0.0 0.0

432628.9195094351 1.5522390547486229e7 0.0
1.5522390547486229e7 -3.3158847693339474e7 0.0
0.0 0.0 0.0

-2.1874063824034994e6 2.369870375251021e7 0.0
2.369870375251021e7 2.3796163892267175e7 0.0
0.0 0.0 0.0

5.483850454816667e6 2.128754232252814e7 0.0
2.128754232252814e7 4.542615396846352e7 0.0
0.0 0.0 0.0

-1.254410831134003e6 2.2476326958726425e7 0.0
2.2476326958726425e7 -5.432084864474887e6 0.0
0.0 0.0 0.0

2.0472043016713136e6 2.855338135721584e7 0.0
2.855338135721584e7 -9.139258312707184e6 0.0
0.0 0.0 0.0

-3.359036864797951e6 3.0959265330049206e7 0.0
3.0959265330049206e7 5.767207490621254e6 0.0
0.0 0.0 0.0

-1.693592057350995e6 2.3232177376140516e7 0.0
2.3232177376140516e7 -8.666021985000145e6 0.0
0.0 0.0 0.0

2.6777202964926176e7 5.97107807855412e6 0.0
5.97107807855412e6 -2.0162929124690741e6 0.0
0.0 0.0 0.0

-5.209162283852071e6 -29247.458419888993 0.0
-29247.458419888993 6.849390043174595e7 0.0
0.0 0.0 0.0

1.1526085364911066e7 2.6393678851612367e7 0.0
2.6393678851612367e7 1.4598372530261558e7 0.0
0.0 0.0 0.0

-5.952415055177581e6 -902274.9281553025 0.0
-902274.9281553025 5.8056486282506414e7 0.0
0.0 0.0 0.0

-1.952966907444302e6 2.3645362182463795e7 0.0
2.3645362182463795e7 -1.2539271743157718e6 0.0
0.0 0.0 0.0

-6.240707069607649e6 1.1867915652636569e7 0.0
1.1867915652636569e7 3.560850991619483e7 0.0
0.0 0.0 0.0

-2.0947579361110795e6 2.053623550280344e7 0.0
2.053623550280344e7 8.747391733782144e6 0.0
0.0 0.0 0.0

-1.319580084598343e6 -127467.21920817374 0.0
-127467.21920817374 3.7167365447231736e6 0.0
0.0 0.0 0.0

-1.3256113921473168e6 1.0189978415583787e6 0.0
1.0189978415583787e6 3.6571082275130814e6 0.0
0.0 0.0 0.0

1.8185422877740357e6 2.5244061497781746e7 0.0
2.5244061497781746e7 -1.4997580034295818e7 0.0
0.0 0.0 0.0

-1.1684949486908035e7 2.6710618682713635e7 0.0
2.6710618682713635e7 -5.409553962670541e6 0.0
0.0 0.0 0.0

2.226413517393728e6 2.575722150529279e7 0.0
2.575722150529279e7 -1.3397374602132943e7 0.0
0.0 0.0 0.0

-8.292611008058103e6 1.2935256825008618e7 0.0
1.2935256825008618e7 3.961185818507221e7 0.0
0.0 0.0 0.0

-3.7976399573988724e6 2.2512462207017295e7 0.0
2.2512462207017295e7 -1.893382669027746e7 0.0
0.0 0.0 0.0

6858.898649938405 1.4913599507908406e7 0.0
1.4913599507908406e7 -3.743006192370309e7 0.0
0.0 0.0 0.0

-4.1122427146760756e6 2.8481976893371623e7 0.0
2.8481976893371623e7 1.2224162495498784e7 0.0
0.0 0.0 0.0

680867.2444922253 1.5510711018093856e7 0.0
1.5510711018093856e7 -3.093445627099681e7 0.0
0.0 0.0 0.0

-1.2896096761338517e8 4.4957297020728104e7 0.0
4.4957297020728104e7 -1.3748729173616484e7 0.0
0.0 0.0 0.0

639491.3257632647 2.049274051664726e7 0.0
2.049274051664726e7 -2.1974201804609865e7 0.0
0.0 0.0 0.0

-3.689771962182446e6 4.337546397789244e7 0.0
4.337546397789244e7 869824.4372657104 0.0
0.0 0.0 0.0

1.1503495101295728e6 2.2793844511607815e7 0.0
2.2793844511607815e7 7.01747074063985e6 0.0
0.0 0.0 0.0

-2.8392545977853592e6 2.2424018817391608e7 0.0
2.2424018817391608e7 2.7836575329623464e7 0.0
0.0 0.0 0.0

-6.02331846382121e6 2.557675853788626e7 0.0
2.557675853788626e7 -1.6078113729709929e7 0.0
0.0 0.0 0.0

2.0307621491202872e7 4.8629931351980664e7 0.0
4.8629931351980664e7 -5.96063587303334e6 0.0
0.0 0.0 0.0

-6.499282017135087e6 -1.3696737035566133e6 0.0
-1.3696737035566133e6 5.1224189100350134e7 0.0
0.0 0.0 0.0

1.7040601042474173e6 1.2604225015603031e6 0.0
1.2604225015603031e6 -5.1348978308821276e7 0.0
0.0 0.0 0.0

1.2047145186993387e6 2.9282066053738866e7 0.0
2.9282066053738866e7 -6.591467180252604e6 0.0
0.0 0.0 0.0

-9.085837420748876e6 -1.5324432680268537e6 0.0
-1.5324432680268537e6 2.38736411828997e7 0.0
0.0 0.0 0.0

1.2476266906960942e6 1.4158201850796451e6 0.0
1.4158201850796451e6 -6.6085745759068236e7 0.0
0.0 0.0 0.0

-5.340826136118811e6 -338503.60036210046 0.0
-338503.60036210046 6.6262186906991795e7 0.0
0.0 0.0 0.0

-7.407520294155886e6 -1.9956013481916897e6 0.0
-1.9956013481916897e6 3.937071423838306e7 0.0
0.0 0.0 0.0

-2.2664206401007976e6 2.246504363847012e7 0.0
2.246504363847012e7 -6.074441478846327e6 0.0
0.0 0.0 0.0

-6.369361378070977e6 -1.2136045554424745e6 0.0
-1.2136045554424745e6 5.27827114997448e7 0.0
0.0 0.0 0.0

1.6238248595360927e6 1.3289776260045487e6 0.0
1.3289776260045487e6 -5.324226843179047e7 0.0
0.0 0.0 0.0

1.3602214551429972e6 1.4739674999324654e6 0.0
1.4739674999324654e6 -6.365053220404959e7 0.0
0.0 0.0 0.0

-5.48299775693712e6 -613671.5509086343 0.0
-613671.5509086343 6.409502537216771e7 0.0
0.0 0.0 0.0

-6.4996895389637165e6 2.3699427069087915e7 0.0
2.3699427069087915e7 -1.7889332532959115e7 0.0
0.0 0.0 0.0

1.590649322933468e6 2.4448312133834302e7 0.0
2.4448312133834302e7 -1.6392817095735557e7 0.0
0.0 0.0 0.0

-2.7526174848816614e6 3.1327618924505726e7 0.0
3.1327618924505726e7 6.350689274627617e6 0.0
0.0 0.0 0.0

1.3530732118938603e6 1.3461865264138652e6 0.0
1.3461865264138652e6 -6.191649636512738e7 0.0
0.0 0.0 0.0

-5.642934578900091e6 -785133.9011513264 0.0
-785133.9011513264 6.17287157981854e7 0.0
0.0 0.0 0.0

-1.4367705531609186e6 2.306716078565032e7 0.0
2.306716078565032e7 -4.578896302014826e6 0.0
0.0 0.0 0.0

1.1699780738158803e6 1.6667138391452534e7 0.0
1.6667138391452534e7 -2.9162048331557408e7 0.0
0.0 0.0 0.0

757160.99448034 3.161745847570886e7 0.0
3.161745847570886e7 -3.293592211828782e6 0.0
0.0 0.0 0.0

-2.2733264843034483e6 2.4360308717519477e7 0.0
2.4360308717519477e7 -48401.38095910242 0.0
0.0 0.0 0.0

-28564.99551731907 2.1164529251943883e7 0.0
2.1164529251943883e7 3.7080184032555744e7 0.0
0.0 0.0 0.0

-5.802894972885195e6 -804654.0426192913 0.0
-804654.0426192913 5.974992922953864e7 0.0
0.0 0.0 0.0

1.4640650095917955e6 1.2538604125847344e6 0.0
1.2538604125847344e6 -5.952057989944133e7 0.0
0.0 0.0 0.0

6.324276884420028e6 3.527354701573272e7 0.0
3.527354701573272e7 -5.839521974081855e6 0.0
0.0 0.0 0.0

5.713724515856912e6 2.0893379828257445e7 0.0
2.0893379828257445e7 5.9487473702540524e7 0.0
0.0 0.0 0.0

1.0131302320352454e8 1.024724506689372e8 0.0
1.024724506689372e8 -1.0033440553748414e7 0.0
0.0 0.0 0.0

-655208.956058661 1.2937239509485152e7 0.0
1.2937239509485152e7 -9.166277839397106e6 0.0
0.0 0.0 0.0

-1.892173748837204e6 3.531037548418321e7 0.0
3.531037548418321e7 2.0896987387841996e6 0.0
0.0 0.0 0.0

-9.948906941522997e6 1.6254142939825575e6 0.0
1.6254142939825575e6 1.7733278277319696e7 0.0
0.0 0.0 0.0

-2.567275632070452e6 3.207586990757519e7 0.0
3.207586990757519e7 5.3552705398553945e6 0.0
0.0 0.0 0.0

3.0736818580052266e6 2.4115584409805303e6 0.0
2.4115584409805303e6 -1.5654406688150667e7 0.0
0.0 0.0 0.0

1.5487633107634183e7 3.196261424664363e7 0.0
3.196261424664363e7 -4.568764219211274e6 0.0
0.0 0.0 0.0

4.902533222305359e6 3.003816351829832e7 0.0
3.003816351829832e7 -8.705874975008737e6 0.0
0.0 0.0 0.0

-5.51680192569727e6 2.0016960575075515e7 0.0
2.0016960575075515e7 2.0905464560388602e7 0.0
0.0 0.0 0.0

-2.111909265883961e6 2.4564829323521204e7 0.0
2.4564829323521204e7 -1.695453974502367e6 0.0
0.0 0.0 0.0

-3.4235205432912186e6 1.3364027480750263e6 0.0
1.3364027480750263e6 8.186642748944259e7 0.0
0.0 0.0 0.0

-181288.68674240485 3.8118128476862605e6 0.0
3.8118128476862605e6 645675.0117135453 0.0
0.0 0.0 0.0

-5.47919930863357e6 -770240.9782714936 0.0
-770240.9782714936 2.2511606594822067e6 0.0
0.0 0.0 0.0

119976.70930062415 -1.1360060467643735e6 0.0
-1.1360060467643735e6 -1.1240635081397695e6 0.0
0.0 0.0 0.0

5.844603876411315e6 3.0411665328968618e7 0.0
3.0411665328968618e7 -8.122182759933963e6 0.0
0.0 0.0 0.0

-8.390052734281212e6 1.839409584178271e7 0.0
1.839409584178271e7 -6.644024943998938e7 0.0
0.0 0.0 0.0

6.788859237712333e6 2.1147833729133748e7 0.0
2.1147833729133748e7 4.051154400056278e7 0.0
0.0 0.0 0.0

-3.8898020028378135e6 2.336329001893205e7 0.0
2.336329001893205e7 -1.4751216318001185e7 0.0
0.0 0.0 0.0

2.9200685097573213e6 1.7584562634125429e6 0.0
1.7584562634125429e6 -3.1069355185466915e7 0.0
0.0 0.0 0.0

-2.3134677658950547e6 2.1127135357762683e7 0.0
2.1127135357762683e7 -5.578379523335197e6 0.0
0.0 0.0 0.0

510959.1969204983 2.4311165157114178e7 0.0
2.4311165157114178e7 -1.546495842078466e7 0.0
0.0 0.0 0.0

-5.327566829831613e6 1.7863733538816e7 0.0
1.7863733538816e7 -4.730031063789167e7 0.0
0.0 0.0 0.0

1.6247309857123387e6 3.2634831333720747e7 0.0
3.2634831333720747e7 -3.842202919957785e6 0.0
0.0 0.0 0.0

-2.6663681038236767e6 2.2790504500667565e7 0.0
2.2790504500667565e7 2.5786620231088724e7 0.0
0.0 0.0 0.0

-1.842818849182707e6 2.182416570232988e7 0.0
2.182416570232988e7 -4.244033273672654e6 0.0
0.0 0.0 0.0

697966.5893831952 2.403348224192127e7 0.0
2.403348224192127e7 3.8581485773418886e6 0.0
0.0 0.0 0.0

-7.79688309994844e6 1.933987529952476e7 0.0
1.933987529952476e7 -3.3085643771396324e7 0.0
0.0 0.0 0.0

-3.02729408555621e7 3.331564975684779e7 0.0
3.331564975684779e7 -1.0432787249740956e7 0.0
0.0 0.0 0.0

1.830142343235835e7 5.314543690999073e7 0.0
5.314543690999073e7 -4.374758270440946e6 0.0
0.0 0.0 0.0

-3.7235451189499847e6 -1.5295123844800438e6 0.0
-1.5295123844800438e6 8.484075089490633e6 0.0
0.0 0.0 0.0

-3.4050670321689392e6 -2.4781100813993267e6 0.0
-2.4781100813993267e6 7.92233583946036e6 0.0
0.0 0.0 0.0

-3.083140931631962e6 2.401731618933764e7 0.0
2.401731618933764e7 2.2521941439643063e7 0.0
0.0 0.0 0.0

-301399.7126304952 2.812463979407225e7 0.0
2.812463979407225e7 -7.016020587663318e6 0.0
0.0 0.0 0.0

-1.3006395386322434e6 3.668083369485214e7 0.0
3.668083369485214e7 1.7038111305494695e6 0.0
0.0 0.0 0.0

-2.307483094461511e6 3.2753471333056666e7 0.0
3.2753471333056666e7 4.410556740615307e6 0.0
0.0 0.0 0.0

1.6918479696107082e7 2.5697842425597303e7 0.0
2.5697842425597303e7 1.3018960659220546e7 0.0
0.0 0.0 0.0

4.782511847298302e6 2.5930612088201832e7 0.0
2.5930612088201832e7 -4.690275451447347e6 0.0
0.0 0.0 0.0

8.257268545156514e6 2.053143396039878e7 0.0
2.053143396039878e7 6.635271243569664e7 0.0
0.0 0.0 0.0

-5.652623097032188e7 3.466426793084333e7 0.0
3.466426793084333e7 -2.0365819202052593e7 0.0
0.0 0.0 0.0

-1.3713208303081465e8 5.081634050529023e7 0.0
5.081634050529023e7 1.0581701741569266e6 0.0
0.0 0.0 0.0

-5.58505871167264e6 1.899468793109511e7 0.0
1.899468793109511e7 1.8662144205467325e7 0.0
0.0 0.0 0.0

-1.9973106481506042e6 2.4900674644556805e7 0.0
2.4900674644556805e7 1.908478427696226e7 0.0
0.0 0.0 0.0

2.222228860172957e6 5.289735729013171e6 0.0
5.289735729013171e6 -2.8464044398002204e7 0.0
0.0 0.0 0.0

-5.2732121739486605e6 2.003185836191515e7 0.0
2.003185836191515e7 2.6011496630814333e7 0.0
0.0 0.0 0.0

-7.763439290576969e6 -4.033851279145307e6 0.0
-4.033851279145307e6 2.268612709042039e7 0.0
0.0 0.0 0.0

1.3456188251331262e7 2.730501121654489e7 0.0
2.730501121654489e7 1.5178501935022764e7 0.0
0.0 0.0 0.0

-3.9150939592019357e6 1.8309000922603548e7 0.0
1.8309000922603548e7 -4.506394837414678e7 0.0
0.0 0.0 0.0

2.642273852338288e6 4.61094476700419e6 0.0
4.61094476700419e6 -3.637032191416635e7 0.0
0.0 0.0 0.0

8.267831156661269e6 2.462045208149754e7 0.0
2.462045208149754e7 8.475297699606333e6 0.0
0.0 0.0 0.0

-86750.62847357988 5.382892958663031e6 0.0
5.382892958663031e6 1.0383114920628099e8 0.0
0.0 0.0 0.0

-5.641301499150014e6 3.407720596314225e7 0.0
3.407720596314225e7 6.972632157637214e6 0.0
0.0 0.0 0.0

-2.055340838835721e7 2.9334232176958732e7 0.0
2.9334232176958732e7 -284709.44779126067 0.0
0.0 0.0 0.0

3.4284636942902617e6 2.84945327039164e7 0.0
2.84945327039164e7 -1.0320976634194016e7 0.0
0.0 0.0 0.0

-7.654022509586293e6 -2.426642997499079e6 0.0
-2.426642997499079e6 3.579129309230621e7 0.0
0.0 0.0 0.0

1.0704215043735935e6 2.227953685287739e7 0.0
2.227953685287739e7 8.283829685381433e6 0.0
0.0 0.0 0.0

-6.747520760418113e6 -1.6248189573808264e6 0.0
-1.6248189573808264e6 4.688728007325869e7 0.0
0.0 0.0 0.0

8.339451757644882e6 2.579710626347026e7 0.0
2.579710626347026e7 8.462693505162759e6 0.0
0.0 0.0 0.0

-1.546404715462638e6 2.6852123554268062e7 0.0
2.6852123554268062e7 1.9225554785467952e6 0.0
0.0 0.0 0.0

2.62426434389366e6 2.8296019990677154e6 0.0
2.8296019990677154e6 -4.048320574293174e7 0.0
0.0 0.0 0.0

-6.501997461344005e6 2.4452292101854984e7 0.0
2.4452292101854984e7 -1.727264249676988e7 0.0
0.0 0.0 0.0

2.9824227041991465e6 1.9092098838125118e6 0.0
1.9092098838125118e6 -2.776157463616474e7 0.0
0.0 0.0 0.0

96965.06025478244 1.987968688096139e7 0.0
1.987968688096139e7 -2.5995662360011145e7 0.0
0.0 0.0 0.0

-7.472579475283489e6 4.236019008723131e7 0.0
4.236019008723131e7 3.2040235371846906e6 0.0
0.0 0.0 0.0

-366423.25970790174 1.975117366763521e7 0.0
1.975117366763521e7 -310188.4741032736 0.0
0.0 0.0 0.0

1.4808072517256574e6 2.7906754973885573e7 0.0
2.7906754973885573e7 -1.0738997962872144e7 0.0
0.0 0.0 0.0

-5.340469556261001e6 4.005435487822733e7 0.0
4.005435487822733e7 2.421661478318453e6 0.0
0.0 0.0 0.0

-2.8236768175192284e6 3.060587476234955e7 0.0
3.060587476234955e7 7.535707104849444e6 0.0
0.0 0.0 0.0

-3.019486294093669e6 3.2295762105332125e7 0.0
3.2295762105332125e7 3.6759655173348505e6 0.0
0.0 0.0 0.0

363204.48092257435 4.027870414436637e7 0.0
4.027870414436637e7 -1.22287152989983e6 0.0
0.0 0.0 0.0

1.9143805651876326e6 2.684409586253645e7 0.0
2.684409586253645e7 -1.1630074115385357e7 0.0
0.0 0.0 0.0

-4.51728925810293e6 4.4585107611644916e7 0.0
4.4585107611644916e7 1.1938105041291814e6 0.0
0.0 0.0 0.0

-8.829087054038815e6 1.5394028254616098e7 0.0
1.5394028254616098e7 2.1783124873807628e7 0.0
0.0 0.0 0.0

728999.8975111116 1.6136091149105819e7 0.0
1.6136091149105819e7 -2.0244565949893866e7 0.0
0.0 0.0 0.0

-9.514503761966968e6 922879.5498484406 0.0
922879.5498484406 2.962928775639353e7 0.0
0.0 0.0 0.0

-1.4875771227489589e7 3.1592337248753652e7 0.0
3.1592337248753652e7 4.472436275170257e6 0.0
0.0 0.0 0.0

-5.897584033401873e6 1.8186158280203743e6 0.0
1.8186158280203743e6 6.161644021503443e7 0.0
0.0 0.0 0.0

5.834560494401196e6 3.673440431779646e7 0.0
3.673440431779646e7 -5.258675498959038e6 0.0
0.0 0.0 0.0

475561.0149744656 1.9865603393806826e7 0.0
1.9865603393806826e7 -2.5998411989296954e7 0.0
0.0 0.0 0.0

2.141552713263086e6 2.4662730479989193e7 0.0
2.4662730479989193e7 1.005954466341348e7 0.0
0.0 0.0 0.0

-986411.2349378299 1.9452383069890376e7 0.0
1.9452383069890376e7 -1.1965598912996942e7 0.0
0.0 0.0 0.0

-370382.91092903353 1.665119274089483e7 0.0
1.665119274089483e7 -3.7267490256335035e7 0.0
0.0 0.0 0.0

2.8355567816606984e6 4.0010665194686237e6 0.0
4.0010665194686237e6 -1.9280546628454298e7 0.0
0.0 0.0 0.0

6.984172335707836e6 3.0619825530284982e7 0.0
3.0619825530284982e7 -7.522257622950736e6 0.0
0.0 0.0 0.0

152324.98113531386 2.383516290620838e7 0.0
2.383516290620838e7 7.884845172449449e6 0.0
0.0 0.0 0.0

-2.2362050075313854e6 2.369316216660184e7 0.0
2.369316216660184e7 -1.4770277861471004e6 0.0
0.0 0.0 0.0

1.0481339609485269e6 1.4770607260127554e6 0.0
1.4770607260127554e6 -7.166798671617353e7 0.0
0.0 0.0 0.0

-9.889185193645248e6 7.066706323268587e6 0.0
7.066706323268587e6 2.9557561400312223e7 0.0
0.0 0.0 0.0

651350.1624680087 4.344644240298171e6 0.0
4.344644240298171e6 -7.145210775813992e7 0.0
0.0 0.0 0.0

-8.262308217011353e6 -3.0312423427033573e6 0.0
-3.0312423427033573e6 2.762849585150791e7 0.0
0.0 0.0 0.0

-2.0095766654878343e6 2.676309995294752e7 0.0
2.676309995294752e7 157319.00874989515 0.0
0.0 0.0 0.0

-594199.8712216956 2.394093158655116e7 0.0
2.394093158655116e7 4.580381153512919e6 0.0
0.0 0.0 0.0

1.308431620849932e6 2.4292792069424313e7 0.0
2.4292792069424313e7 7.232400090757585e6 0.0
0.0 0.0 0.0

-4.859975414364579e6 1.8656876326275874e7 0.0
1.8656876326275874e7 2.13965407110456e7 0.0
0.0 0.0 0.0

-7.304235500919538e6 -1.7642638412986875e6 0.0
-1.7642638412986875e6 4.0315749351689465e7 0.0
0.0 0.0 0.0

8.555329162721576e6 3.306507523491244e7 0.0
3.306507523491244e7 -6.4787824992530625e6 0.0
0.0 0.0 0.0

8.293427539269443e6 2.4782949682230875e7 0.0
2.4782949682230875e7 1.8380836636506326e7 0.0
0.0 0.0 0.0

1.5295324214763884e6 9.686607919744527e6 0.0
9.686607919744527e6 -3.1854372907946747e7 0.0
0.0 0.0 0.0

-7.358009418004405e6 -64269.94327760701 0.0
-64269.94327760701 4.297010774357404e7 0.0
0.0 0.0 0.0

5.742714806753205e6 2.5251254766234823e7 0.0
2.5251254766234823e7 1.465875424531343e7 0.0
0.0 0.0 0.0

349228.45069294795 1.8826677898623552e7 0.0
1.8826677898623552e7 5.299800312629994e7 0.0
0.0 0.0 0.0

9.616563323816616e6 2.6503166710509315e7 0.0
2.6503166710509315e7 1.4783039263174793e7 0.0
0.0 0.0 0.0

-7.179505584950477e6 1.7810586230394386e7 0.0
1.7810586230394386e7 -6.21779568165133e7 0.0
0.0 0.0 0.0

-1.3076071763832904e6 2.2178851812200468e7 0.0
2.2178851812200468e7 3.113443386271946e7 0.0
0.0 0.0 0.0

2.825143333862396e6 2.164794050999097e7 0.0
2.164794050999097e7 2.5229077849659573e7 0.0
0.0 0.0 0.0

3.0491079096881e6 2.6381338336398426e7 0.0
2.6381338336398426e7 -1.2744218006967401e7 0.0
0.0 0.0 0.0

-4.243984516660866e6 2.514576031047197e7 0.0
2.514576031047197e7 -7.510765666784551e6 0.0
0.0 0.0 0.0

117869.39848434553 9.390746336171161e6 0.0
9.390746336171161e6 -5.196221687041617e7 0.0
0.0 0.0 0.0

185549.7650889717 8.403868885766264e6 0.0
8.403868885766264e6 -5.472891568891682e7 0.0
0.0 0.0 0.0

-1933.5256214141846 1.900775876463656e7 0.0
1.900775876463656e7 -1.1265208693209121e7 0.0
0.0 0.0 0.0

-4.364612749550676e6 1.9375895070109002e7 0.0
1.9375895070109002e7 3.602502604166451e7 0.0
0.0 0.0 0.0

1.414838164906348e6 2.4431127126193624e7 0.0
2.4431127126193624e7 -1.6329485530020695e7 0.0
0.0 0.0 0.0

-3.715098048287552e6 4.543212077849821e6 0.0
4.543212077849821e6 7.835783280129652e7 0.0
0.0 0.0 0.0

-4.910038383021163e6 1.730238044544358e7 0.0
1.730238044544358e7 -5.5470838218899935e7 0.0
0.0 0.0 0.0

3.0208222683832496e6 1.778351695439905e7 0.0
1.778351695439905e7 6.454399114517714e7 0.0
0.0 0.0 0.0

1.1520731329207085e6 1.5755356487475666e6 0.0
1.5755356487475666e6 -6.878061129110181e7 0.0
0.0 0.0 0.0

2.398529973835718e6 2.8211221234537575e7 0.0
2.8211221234537575e7 -1.048396180604404e7 0.0
0.0 0.0 0.0

7.931131136937921e6 2.613143075076607e7 0.0
2.613143075076607e7 1.5256402773386527e7 0.0
0.0 0.0 0.0

-9.021803982566508e6 1.9551793959959146e7 0.0
1.9551793959959146e7 -5.709161187422721e7 0.0
0.0 0.0 0.0

1.4890136607334645e7 1.2062384146906342e7 0.0
1.2062384146906342e7 1.3406946246896475e6 0.0
0.0 0.0 0.0

-2.766498117524946e6 2.4229881764114074e7 0.0
2.4229881764114074e7 -9.25185147942831e6 0.0
0.0 0.0 0.0

6.691865616709551e6 2.557277104654647e7 0.0
2.557277104654647e7 1.5835086064844843e7 0.0
0.0 0.0 0.0

-2.694219099880023e6 2.6237541414630942e7 0.0
2.6237541414630942e7 1.3302590830671815e7 0.0
0.0 0.0 0.0

-2.275646151854489e6 2.4733516208535925e7 0.0
2.4733516208535925e7 1.947697018770985e7 0.0
0.0 0.0 0.0

302291.5394614106 1.4529828234963823e7 0.0
1.4529828234963823e7 -1.7674991962139044e7 0.0
0.0 0.0 0.0

-6.641425457160698e6 1.8519665962454747e7 0.0
1.8519665962454747e7 3.314870878306853e7 0.0
0.0 0.0 0.0

-6.075905922527924e6 1.7312829507453024e7 0.0
1.7312829507453024e7 -5.786779540006526e7 0.0
0.0 0.0 0.0

-3.2630732045788006e6 2.4066550697857577e7 0.0
2.4066550697857577e7 -1.3769957214074856e7 0.0
0.0 0.0 0.0

-7.648672813725719e6 2.7541478291190073e7 0.0
2.7541478291190073e7 7.0265468845039625e6 0.0
0.0 0.0 0.0

226528.18684670562 1.2881109903257811e7 0.0
1.2881109903257811e7 -9.725676540257726e6 0.0
0.0 0.0 0.0

-3.1484783015747964e6 7.05288610855877e6 0.0
7.05288610855877e6 1.0141477505184083e8 0.0
0.0 0.0 0.0

-9.996907575557739e6 1.9079599111903213e7 0.0
1.9079599111903213e7 -7.128090601238114e7 0.0
0.0 0.0 0.0

-39075.48813152127 2.0952228075415753e7 0.0
2.0952228075415753e7 3.682011962102497e7 0.0
0.0 0.0 0.0

-1.7838088219247696e6 3.752709524542166e7 0.0
3.752709524542166e7 263424.3642001668 0.0
0.0 0.0 0.0

2.443805754081799e7 2.600669784021199e7 0.0
2.600669784021199e7 9.329097760712847e6 0.0
0.0 0.0 0.0

2.4355874697052054e6 2.049731293097273e7 0.0
2.049731293097273e7 4.781495735172734e7 0.0
0.0 0.0 0.0

-3.0211628441898003e6 2.370228765093957e7 0.0
2.370228765093957e7 2.2466641443351466e7 0.0
0.0 0.0 0.0

406417.30398675706 1.7418767303202894e7 0.0
1.7418767303202894e7 -1.9673172967431262e7 0.0
0.0 0.0 0.0

-3.959630423665151e6 2.2958928812959377e7 0.0
2.2958928812959377e7 -1.5818674753044358e7 0.0
0.0 0.0 0.0

-4.0829832189690815e6 2.1874029049054544e7 0.0
2.1874029049054544e7 1.8001815449350704e7 0.0
0.0 0.0 0.0

-4.113591130460767e6 2.0344404825206075e7 0.0
2.0344404825206075e7 2.1376714568078905e7 0.0
0.0 0.0 0.0

2.0527597619110104e6 2.7758764226529337e6 0.0
2.7758764226529337e6 -3.737288933657614e7 0.0
0.0 0.0 0.0

-4.508024533018183e6 2.9411843326291833e7 0.0
2.9411843326291833e7 1.1395985230820157e7 0.0
0.0 0.0 0.0

-2.2159914771806044e6 2.014225170219445e7 0.0
2.014225170219445e7 -3.6826351700562616e6 0.0
0.0 0.0 0.0

3.397559335833214e6 3.188467196464597e6 0.0
3.188467196464597e6 -2.6482128688509434e7 0.0
0.0 0.0 0.0

3.9849104569170447e6 3.536933038533858e7 0.0
3.536933038533858e7 -5.334659053566904e6 0.0
0.0 0.0 0.0

9.094916378365379e6 2.616488924071737e7 0.0
2.616488924071737e7 1.6288262986875538e7 0.0
0.0 0.0 0.0

-4.798778521517213e6 2.9515512976125977e6 0.0
2.9515512976125977e6 6.910551610655941e7 0.0
0.0 0.0 0.0

1.2654348427378226e7 2.7874254493950866e7 0.0
2.7874254493950866e7 1.4911147977307156e7 0.0
0.0 0.0 0.0

8.7118620203375e6 2.6198544499893237e7 0.0
2.6198544499893237e7 1.1734845936480682e7 0.0
0.0 0.0 0.0

192386.0796013521 2.3243521967083186e7 0.0
2.3243521967083186e7 -1.6110565256015908e7 0.0
0.0 0.0 0.0

1.5871102382627241e6 2.931959896400834e6 0.0
2.931959896400834e6 -4.9971650571628354e7 0.0
0.0 0.0 0.0

4.584555312410739e6 2.0568346956993837e7 0.0
2.0568346956993837e7 1.7037382730246358e7 0.0
0.0 0.0 0.0

960544.9104308859 2.3804115216923207e7 0.0
2.3804115216923207e7 -1.4450332420643471e7 0.0
0.0 0.0 0.0

2.231614187333268e6 2.4253158095408622e7 0.0
2.4253158095408622e7 1.1628721782584244e7 0.0
0.0 0.0 0.0

-1.0486812978950348e7 9.372954652583359e6 0.0
9.372954652583359e6 2.3085004391910553e7 0.0
0.0 0.0 0.0

-7.7760943134198785e6 -3.3661701886441326e6 0.0
-3.3661701886441326e6 2.658307571365197e7 0.0
0.0 0.0 0.0

-6.107360435440579e6 2.6754779142390657e7 0.0
2.6754779142390657e7 4.744070442135502e6 0.0
0.0 0.0 0.0

334100.24767730385 1.735741893127792e7 0.0
1.735741893127792e7 -3.150795894718492e7 0.0
0.0 0.0 0.0

-4.869909708702173e6 2.206901146612737e7 0.0
2.206901146612737e7 -2.0738060958946697e7 0.0
0.0 0.0 0.0

-3.371143024210792e6 3.251781074535767e6 0.0
3.251781074535767e6 9.812972745822453e7 0.0
0.0 0.0 0.0

-5.855563504894946e6 4.591286107013225e7 0.0
4.591286107013225e7 1.4319244592379152e6 0.0
0.0 0.0 0.0

439134.95415338385 6.431943857863779e6 0.0
6.431943857863779e6 -2.1629221569735277e6 0.0
0.0 0.0 0.0

-1.727360965205167e6 2.418549017842608e7 0.0
2.418549017842608e7 1.523060214503683e6 0.0
0.0 0.0 0.0

4.796486688060771e6 2.5220743566338968e7 0.0
2.5220743566338968e7 1.447263116673852e7 0.0
0.0 0.0 0.0

-4.953602359822003e6 1.9916105018211704e7 0.0
1.9916105018211704e7 3.174749465508055e7 0.0
0.0 0.0 0.0

-1.707112934162967e7 3.0942085238407694e7 0.0
3.0942085238407694e7 2.362294520770666e6 0.0
0.0 0.0 0.0

6.67101246249114e6 2.6194546564049393e7 0.0
2.6194546564049393e7 1.2652988817639643e7 0.0
0.0 0.0 0.0

3.9367220371332313e6 2.5905271030429363e7 0.0
2.5905271030429363e7 1.3648586568533916e7 0.0
0.0 0.0 0.0

787180.1836100528 2.245683908432395e7 0.0
2.245683908432395e7 -2.098001409748796e7 0.0
0.0 0.0 0.0

1.8926365536655663e6 5.728982492504537e6 0.0
5.728982492504537e6 -1.4546908882763667e7 0.0
0.0 0.0 0.0

-1.0240863653127458e6 2.3251464963944305e7 0.0
2.3251464963944305e7 -1.858270141045547e7 0.0
0.0 0.0 0.0

1.3802983357577473e6 2.616225472848588e7 0.0
2.616225472848588e7 -1.312815395547755e7 0.0
0.0 0.0 0.0

-2.259567901262418e6 2.953345846795336e7 0.0
2.953345846795336e7 6.768386943615621e6 0.0
0.0 0.0 0.0

3.687312186984555e6 2.7564218947801717e7 0.0
2.7564218947801717e7 -1.0564615202061126e7 0.0
0.0 0.0 0.0

2.736440422172076e6 2.6500199270560067e7 0.0
2.6500199270560067e7 -1.166264219257013e7 0.0
0.0 0.0 0.0

2.127867391616337e6 4.14843416456677e6 0.0
4.14843416456677e6 -4.474375328429085e7 0.0
0.0 0.0 0.0

4.759747989502451e6 2.5307618703332644e7 0.0
2.5307618703332644e7 9.10676076792998e6 0.0
0.0 0.0 0.0

1.4207462219775994e6 2.699413421797354e7 0.0
2.699413421797354e7 -1.1854873726916047e7 0.0
0.0 0.0 0.0

-8.3371742634749245e6 1.687348932360732e7 0.0
1.687348932360732e7 2.703272817587673e7 0.0
0.0 0.0 0.0

-1.1355689722157261e8 3.543060014377257e7 0.0
3.543060014377257e7 -2.0351036463124335e7 0.0
0.0 0.0 0.0

3.670928396892711e7 3.37717793890349e7 0.0
3.37717793890349e7 1.2236451886782192e8 0.0
0.0 0.0 0.0

-3.685165793954964e7 3.2302223378493465e7 0.0
3.2302223378493465e7 -1.2283909775675762e8 0.0
0.0 0.0 0.0

-2.5763191011337116e6 2.2297382504204772e7 0.0
2.2297382504204772e7 2.7707513788937576e7 0.0
0.0 0.0 0.0

702022.8229526859 1.6923495327664986e7 0.0
1.6923495327664986e7 -2.734765224417696e7 0.0
0.0 0.0 0.0

-4.955094519037412e6 2.4134590605046745e7 0.0
2.4134590605046745e7 -1.6320783748973796e7 0.0
0.0 0.0 0.0

4.464520977144467e6 4.673838211906418e7 0.0
4.673838211906418e7 -3.016940444555266e6 0.0
0.0 0.0 0.0

-2.7050348989628637e6 2.0906891974627495e7 0.0
2.0906891974627495e7 -2.6162332205671832e7 0.0
0.0 0.0 0.0

-6.6773006959929e6 2.5243483609872747e7 0.0
2.5243483609872747e7 -1.0144238271387354e7 0.0
0.0 0.0 0.0

-6.995902305773472e6 1.8868242705514748e7 0.0
1.8868242705514748e7 2.7542758743463688e7 0.0
0.0 0.0 0.0

-69477.59891020751 3.0766666693531357e7 0.0
3.0766666693531357e7 -1.757924678105377e6 0.0
0.0 0.0 0.0

-4.159003876125032e6 1.923393200003615e7 0.0
1.923393200003615e7 -4.142349678159938e7 0.0
0.0 0.0 0.0

-2.8998906607780466e6 2.402481170819641e7 0.0
2.402481170819641e7 -9.162182448116193e6 0.0
0.0 0.0 0.0

-3.390766321589836e6 2.6252738650172256e7 0.0
2.6252738650172256e7 1.4378769479184218e7 0.0
0.0 0.0 0.0

2.4453750025629275e7 2.6870101582956806e7 0.0
2.6870101582956806e7 2.0735839363681162e6 0.0
0.0 0.0 0.0

2.0534272103611869e6 2.349986127987547e7 0.0
2.349986127987547e7 8.753919531289626e6 0.0
0.0 0.0 0.0

-3.1228517153716283e6 2.304919949593434e7 0.0
2.304919949593434e7 2.4206588099549584e7 0.0
0.0 0.0 0.0

-2.5331435487502437e7 2.9421779092927683e7 0.0
2.9421779092927683e7 -3.299551579660397e6 0.0
0.0 0.0 0.0

1.2742635424331115e6 2.390423290391033e7 0.0
2.390423290391033e7 8.702923931343686e6 0.0
0.0 0.0 0.0

4.882094852771923e6 3.60644545147935e7 0.0
3.60644545147935e7 -5.129835366409065e6 0.0
0.0 0.0 0.0

1.354847790098574e7 3.2618396856143516e7 0.0
3.2618396856143516e7 -5.585159607556723e6 0.0
0.0 0.0 0.0

1.3989581913972031e6 1.6154996475486321e7 0.0
1.6154996475486321e7 -2.0584947846453708e7 0.0
0.0 0.0 0.0

-2.0177326715840213e6 2.0655967741572004e7 0.0
2.0655967741572004e7 3.5467094983596355e7 0.0
0.0 0.0 0.0

-185230.39974919707 2.1910194188048605e7 0.0
2.1910194188048605e7 -2.1760324043993823e7 0.0
0.0 0.0 0.0

-1.9603004806777001e6 2.128173144099871e7 0.0
2.128173144099871e7 6.909986746188714e6 0.0
0.0 0.0 0.0

-4.618156765807905e6 2.1656468185667023e7 0.0
2.1656468185667023e7 2.086653550047736e7 0.0
0.0 0.0 0.0

1.809585783445898e6 8.290113249426136e6 0.0
8.290113249426136e6 -1.050719976933751e7 0.0
0.0 0.0 0.0

2.187919542750217e6 2.2223238748090908e7 0.0
2.2223238748090908e7 1.2776694492324708e7 0.0
0.0 0.0 0.0

8.346457619248361e6 3.169276357557753e7 0.0
3.169276357557753e7 -6.866818447829515e6 0.0
0.0 0.0 0.0

-2.1502518518184125e6 1.2929515840745017e7 0.0
1.2929515840745017e7 -8.003656933620279e7 0.0
0.0 0.0 0.0

-8.733238836457567e6 1.6285547165642085e7 0.0
1.6285547165642085e7 2.6173376944446415e7 0.0
0.0 0.0 0.0

2.8255005969613537e7 5.039291303519559e7 0.0
5.039291303519559e7 -6.832962786811864e6 0.0
0.0 0.0 0.0

1.2569796055423245e6 8.719251912365114e6 0.0
8.719251912365114e6 -5.1016044412007496e7 0.0
0.0 0.0 0.0

1.338826152399307e6 2.218043678458925e7 0.0
2.218043678458925e7 1.0091339676420374e7 0.0
0.0 0.0 0.0

4.670171294541538e6 2.8987429880626503e7 0.0
2.8987429880626503e7 -9.52614378690026e6 0.0
0.0 0.0 0.0

1.738709977101177e7 2.726170322777143e7 0.0
2.726170322777143e7 1.6718141378691527e8 0.0
0.0 0.0 0.0

-1.7904189966978014e7 2.6863433334624916e7 0.0
2.6863433334624916e7 -1.632034178824875e8 0.0
0.0 0.0 0.0

3.666767740237038e7 2.4230057274616558e7 0.0
2.4230057274616558e7 7.664618545375358e6 0.0
0.0 0.0 0.0

1.559652322689723e7 3.1797220468913898e7 0.0
3.1797220468913898e7 -4.862473805594481e6 0.0
0.0 0.0 0.0

230343.28083022218 1.2169882893727053e7 0.0
1.2169882893727053e7 -8.499027149313657e6 0.0
0.0 0.0 0.0

2.8389702151659444e7 4.482236268750361e7 0.0
4.482236268750361e7 -6.908059435958836e6 0.0
0.0 0.0 0.0

-163.01837339811027 2.3396667596827224e7 0.0
2.3396667596827224e7 2.4619575321409293e7 0.0
0.0 0.0 0.0

2.0216198820501182e7 2.6409383469923824e7 0.0
2.6409383469923824e7 2.064283469104751e6 0.0
0.0 0.0 0.0

-3.32983551052764e6 2.8629579671003338e7 0.0
2.8629579671003338e7 9.33503623322964e6 0.0
0.0 0.0 0.0

-3.855111598199308e6 1.941112088908229e7 0.0
1.941112088908229e7 1.9348535902479123e7 0.0
0.0 0.0 0.0

-900613.8473499084 4.0560443174594357e6 0.0
4.0560443174594357e6 -2.306888557969682e6 0.0
0.0 0.0 0.0

9.747198336950071e6 2.5597931989823755e7 0.0
2.5597931989823755e7 1.691676603759565e7 0.0
0.0 0.0 0.0

1.4115799679293768e6 3.0716338927794024e7 0.0
3.0716338927794024e7 -6.927012807486812e6 0.0
0.0 0.0 0.0

-2.4332671208455227e6 2.191986502675574e7 0.0
2.191986502675574e7 2.9703520417415343e7 0.0
0.0 0.0 0.0

-6.182358298931012e6 2.9824996262808237e7 0.0
2.9824996262808237e7 1.0558078822895266e7 0.0
0.0 0.0 0.0

-2.525739590267885e6 2.8099845988419987e7 0.0
2.8099845988419987e7 1.0312314924172396e7 0.0
0.0 0.0 0.0

-3.0018465713171177e6 2.171398861819473e7 0.0
2.171398861819473e7 -7.732769697915846e6 0.0
0.0 0.0 0.0

432033.53204464726 2.0713143542725977e7 0.0
2.0713143542725977e7 3.91606044013423e7 0.0
0.0 0.0 0.0

-3.251608572907544e6 2.908286931783325e7 0.0
2.908286931783325e7 1.0782594875213629e7 0.0
0.0 0.0 0.0

-3.725519282787826e6 1.538371655735801e7 0.0
1.538371655735801e7 1.2121244008151826e7 0.0
0.0 0.0 0.0

-5.0625724162251756e7 3.8549075510093e7 0.0
3.8549075510093e7 -9.837932837873006e6 0.0
0.0 0.0 0.0

-4.4259993312249705e6 6.003911067622137e6 0.0
6.003911067622137e6 6.897471580883989e7 0.0
0.0 0.0 0.0

-8.529326694105703e6 3.0267789259616483e7 0.0
3.0267789259616483e7 8.55915754366014e6 0.0
0.0 0.0 0.0

-9.60189255222018e6 3.67304277885757e7 0.0
3.67304277885757e7 6.242794816896476e6 0.0
0.0 0.0 0.0

-2.0559006165873054e6 1.8589218969800137e7 0.0
1.8589218969800137e7 -3.670668857858744e7 0.0
0.0 0.0 0.0

-2.7929790962127517e6 4.177651052708833e7 0.0
4.177651052708833e7 1.7529977758687686e6 0.0
0.0 0.0 0.0

-7.76102676632832e6 4.752364734755874e7 0.0
4.752364734755874e7 1.5219350534913437e6 0.0
0.0 0.0 0.0

-9.81495216826715e6 4.907686300008905e7 0.0
4.907686300008905e7 2.1005661372426655e6 0.0
0.0 0.0 0.0

433809.7068931756 3.3695700974470496e7 0.0
3.3695700974470496e7 -3.390117548492067e6 0.0
0.0 0.0 0.0

-6.991844841392335e6 1.5424376586024644e7 0.0
1.5424376586024644e7 3.913187888601481e7 0.0
0.0 0.0 0.0

2.1863294317586813e6 1.3378697608719242e6 0.0
1.3378697608719242e6 -4.1717117882246785e7 0.0
0.0 0.0 0.0

-910808.4930639938 2.1824184203070678e7 0.0
2.1824184203070678e7 3.2895775879785042e7 0.0
0.0 0.0 0.0

4.279719098163202e6 3.724910890092929e7 0.0
3.724910890092929e7 -4.485585698109542e6 0.0
0.0 0.0 0.0

-78863.72811449133 1.92522239744715e7 0.0
1.92522239744715e7 -2.7775401284878917e7 0.0
0.0 0.0 0.0

-6.389377876709051e6 745973.1475822612 0.0
745973.1475822612 5.4374190804880835e7 0.0
0.0 0.0 0.0

423688.4340514975 2.3667571647524774e7 0.0
2.3667571647524774e7 1.8723271070358043e6 0.0
0.0 0.0 0.0

1.5774054285982242e6 2.4418653153284937e7 0.0
2.4418653153284937e7 -1.3104263693250947e7 0.0
0.0 0.0 0.0

-445560.5343831172 2.267052683809406e7 0.0
2.267052683809406e7 -1.7729269294314396e7 0.0
0.0 0.0 0.0

-5.185285148598643e6 1.98993834698046e7 0.0
1.98993834698046e7 -1.8425625576025054e7 0.0
0.0 0.0 0.0

-9.017851671187516e6 -1.2774512578936145e6 0.0
-1.2774512578936145e6 2.509262346547433e7 0.0
0.0 0.0 0.0

-498546.06660395494 2.2037572580219004e7 0.0
2.2037572580219004e7 -2.7692212432475025e6 0.0
0.0 0.0 0.0

4.630719132099824e6 2.4131708619046222e7 0.0
2.4131708619046222e7 8.23640035056533e6 0.0
0.0 0.0 0.0

2.6648322812478483e7 2.491289599727243e7 0.0
2.491289599727243e7 1.0673067956292868e7 0.0
0.0 0.0 0.0

-1.092583255677034e7 5.1784672096342616e7 0.0
5.1784672096342616e7 3.1864926902319076e6 0.0
0.0 0.0 0.0

-4.0280818437124714e6 1.9878249044801224e7 0.0
1.9878249044801224e7 2.0501752643742193e7 0.0
0.0 0.0 0.0

-1.3464454732338322e7 2.10979551656482e7 0.0
2.10979551656482e7 -7.970511909914716e7 0.0
0.0 0.0 0.0

1.90884531255153e6 7.679641426574601e6 0.0
7.679641426574601e6 -4.2487425476608895e7 0.0
0.0 0.0 0.0

-7.584477333335977e6 -2.2781943103976888e6 0.0
-2.2781943103976888e6 3.626306941426118e7 0.0
0.0 0.0 0.0

-2.7319675727772046e7 3.313036959134081e7 0.0
3.313036959134081e7 -1.29775241100019e7 0.0
0.0 0.0 0.0

-2.5941035028282225e7 2.9917648583648708e7 0.0
2.9917648583648708e7 -6.25427254714544e6 0.0
0.0 0.0 0.0

-2.9874759062851514e6 2.2356982932940353e7 0.0
2.2356982932940353e7 -9.740240405168282e6 0.0
0.0 0.0 0.0

1.418263722730526e6 3.649949888902324e7 0.0
3.649949888902324e7 -3.128247854672981e6 0.0
0.0 0.0 0.0

-837561.0514134131 7.269548855892644e6 0.0
7.269548855892644e6 -7.580472525403138e7 0.0
0.0 0.0 0.0

1.2758273889928881e7 2.786313455202e7 0.0
2.786313455202e7 -2.8340054982887525e6 0.0
0.0 0.0 0.0

8.968791999605982e6 2.6804418562441647e7 0.0
2.6804418562441647e7 1.4206287860408021e7 0.0
0.0 0.0 0.0

1.3673501961187758e6 1.6697268966214163e7 0.0
1.6697268966214163e7 -2.7041907829223108e7 0.0
0.0 0.0 0.0

-1.1666178844599803e6 2.847814057920938e7 0.0
2.847814057920938e7 1.2511246975578154e6 0.0
0.0 0.0 0.0

1.32045457777745e6 1.5502674870454228e7 0.0
1.5502674870454228e7 -1.9496395240782514e7 0.0
0.0 0.0 0.0

628724.5982495099 1.6257941202308355e7 0.0
1.6257941202308355e7 -2.9211018803099874e7 0.0
0.0 0.0 0.0

-3.7456962949493686e6 2.0959129861554433e7 0.0
2.0959129861554433e7 -1.8983092748066027e7 0.0
0.0 0.0 0.0

-9.837728985177834e6 3.551812874567505e7 0.0
3.551812874567505e7 6.19269512338103e6 0.0
0.0 0.0 0.0

-2.0357921792803448e7 2.5367351904703323e7 0.0
2.5367351904703323e7 -9.209137079211205e7 0.0
0.0 0.0 0.0

2.3655678999855887e7 4.384868458192998e7 0.0
4.384868458192998e7 -5.789347112037159e6 0.0
0.0 0.0 0.0

1.0002237157915674e7 3.1670589879275165e7 0.0
3.1670589879275165e7 -6.204444879234971e6 0.0
0.0 0.0 0.0

-2.761944886670567e6 3.853440010349926e7 0.0
3.853440010349926e7 2.6654895627046353e6 0.0
0.0 0.0 0.0

-3.8391065310335523e6 2.830692469630708e7 0.0
2.830692469630708e7 1.248731006664341e7 0.0
0.0 0.0 0.0

-668519.3815329038 5.929185548706878e6 0.0
5.929185548706878e6 -7.937339285852341e7 0.0
0.0 0.0 0.0

-3.4771461931811143e6 2.583179692279211e7 0.0
2.583179692279211e7 1.7429243008716848e7 0.0
0.0 0.0 0.0

272764.9147701785 5.665605523809796e6 0.0
5.665605523809796e6 -6.3923535929833405e7 0.0
0.0 0.0 0.0

397257.0700441329 2.534718796377123e7 0.0
2.534718796377123e7 -9.741429378495786e6 0.0
0.0 0.0 0.0

219719.8821894466 2.428010277161619e7 0.0
2.428010277161619e7 -1.0168272562173579e7 0.0
0.0 0.0 0.0

-1.4372488830844988e6 2.1431421468596883e7 0.0
2.1431421468596883e7 -4.354075350007852e6 0.0
0.0 0.0 0.0

-1.9726968127916427e6 2.3864003688125033e7 0.0
2.3864003688125033e7 2.0814776947729114e7 0.0
0.0 0.0 0.0

-803477.4209226011 3.2177938533295102e7 0.0
3.2177938533295102e7 -2.1868682818606007e6 0.0
0.0 0.0 0.0

-3.186197824046025e6 2.4146292066705618e7 0.0
2.4146292066705618e7 1.7029324584838167e7 0.0
0.0 0.0 0.0

-7.244806167445719e6 -1.8567400441245383e6 0.0
-1.8567400441245383e6 4.120714891163538e7 0.0
0.0 0.0 0.0

1.163473458708724e6 7.236802824775349e6 0.0
7.236802824775349e6 -4.481338154040812e7 0.0
0.0 0.0 0.0

1.4068402851285506e6 1.0029814531371512e7 0.0
1.0029814531371512e7 -3.44740676743e7 0.0
0.0 0.0 0.0

3.10829037241859e6 4.04813458048184e7 0.0
4.04813458048184e7 -2.1063794633842586e6 0.0
0.0 0.0 0.0

-4.010421841409142e6 2.414025123916754e7 0.0
2.414025123916754e7 -1.3838883692164365e7 0.0
0.0 0.0 0.0

-1.12005286153185e6 1.7640090848650374e7 0.0
1.7640090848650374e7 -3.701125914618745e7 0.0
0.0 0.0 0.0

5.340503298602851e6 2.250823447386311e7 0.0
2.250823447386311e7 1.863588303826144e7 0.0
0.0 0.0 0.0

-9.56669556328333e6 4.448248879359274e6 0.0
4.448248879359274e6 2.8173719078102984e7 0.0
0.0 0.0 0.0

9.960401921716945e6 2.753075560216681e7 0.0
2.753075560216681e7 1.5364439863786168e7 0.0
0.0 0.0 0.0

-1.792625662930182e7 3.929285314569785e7 0.0
3.929285314569785e7 6.77427539485404e6 0.0
0.0 0.0 0.0

6.485174492970536e6 2.4832651595779274e7 0.0
2.4832651595779274e7 9.167827366509967e6 0.0
0.0 0.0 0.0

4.393795145306293e6 2.1052640648358118e7 0.0
2.1052640648358118e7 1.9693990771341708e7 0.0
0.0 0.0 0.0

-6.787974725452142e6 3.4664734874191366e7 0.0
3.4664734874191366e7 6.595385152188557e6 0.0
0.0 0.0 0.0

-2.672165118785275e6 2.4723051300137214e7 0.0
2.4723051300137214e7 2.017532391842885e7 0.0
0.0 0.0 0.0

2.172048672656987e6 2.0174026463644248e7 0.0
2.0174026463644248e7 4.7398602583566956e7 0.0
0.0 0.0 0.0

-2.506425061077761e7 3.0580913899565134e7 0.0
3.0580913899565134e7 -3.9583698250196674e6 0.0
0.0 0.0 0.0

-1.5562525256685581e7 2.924240504594e7 0.0
2.924240504594e7 2.1753303584652273e6 0.0
0.0 0.0 0.0

-1.3447578884405674e7 1.9277653123689715e7 0.0
1.9277653123689715e7 -2.4888869533004565e6 0.0
0.0 0.0 0.0

-1.038780139184947e8 4.1191035805034265e7 0.0
4.1191035805034265e7 -1.3688978587364867e7 0.0
0.0 0.0 0.0

1.6418839228757938e7 2.47547622371186e7 0.0
2.47547622371186e7 9.778675297400754e6 0.0
0.0 0.0 0.0

-3.492136956381496e6 1.889051573464837e7 0.0
1.889051573464837e7 -3.8108095447780505e7 0.0
0.0 0.0 0.0

-3.1190423091819636e6 2.7725632256427046e7 0.0
2.7725632256427046e7 9.799189164068578e6 0.0
0.0 0.0 0.0

1.0919004149459684e6 2.366839797877099e7 0.0
2.366839797877099e7 -1.781883241101104e7 0.0
0.0 0.0 0.0

5.7179353239101104e7 1.9990809355378702e7 0.0
1.9990809355378702e7 3.9125341223770697e6 0.0
0.0 0.0 0.0

-8.344877269933272e6 -1.3055506197394961e6 0.0
-1.3055506197394961e6 1.6234313567623224e7 0.0
0.0 0.0 0.0

3.152028861898494e6 2.2804829391270606e6 0.0
2.2804829391270606e6 -1.7605205096830487e7 0.0
0.0 0.0 0.0

901677.8376701986 2.450948794559767e7 0.0
2.450948794559767e7 -1.5146739701947942e7 0.0
0.0 0.0 0.0

-797798.400505659 2.316338735363085e7 0.0
2.316338735363085e7 -1.0081085228705506e6 0.0
0.0 0.0 0.0

-6.491569662995547e6 6.514594304596119e6 0.0
6.514594304596119e6 5.391659521536597e7 0.0
0.0 0.0 0.0

1.1652833120173905e7 3.3067395597818397e7 0.0
3.3067395597818397e7 -5.986485717949731e6 0.0
0.0 0.0 0.0

-1.673586814696968e7 5.365808464929688e7 0.0
5.365808464929688e7 3.7872254940484185e6 0.0
0.0 0.0 0.0

1.5560970974595275e7 2.584545516420177e7 0.0
2.584545516420177e7 8.92612943101811e6 0.0
0.0 0.0 0.0

-7.724941075309038e6 -2.532222945528426e6 0.0
-2.532222945528426e6 3.3926028667306684e7 0.0
0.0 0.0 0.0

-2.975199035770392e7 3.1165857285550937e7 0.0
3.1165857285550937e7 -5.783646123607129e6 0.0
0.0 0.0 0.0

1.447241686980291e6 2.249924004655442e7 0.0
2.249924004655442e7 8.201182320642595e6 0.0
0.0 0.0 0.0

-2.3208513374055125e7 5.628907707818354e7 0.0
5.628907707818354e7 4.84977001868497e6 0.0
0.0 0.0 0.0

-5.042985844473444e6 2.0645458019897874e7 0.0
2.0645458019897874e7 2.6986113202304408e7 0.0
0.0 0.0 0.0

3.255879111813853e6 2.438676053629427e7 0.0
2.438676053629427e7 -1.1774728642578498e6 0.0
0.0 0.0 0.0

-8.75867999279126e6 2.064221185271569e7 0.0
2.064221185271569e7 -3.1245620825627036e7 0.0
0.0 0.0 0.0

-3.733916489285495e6 2.2344391098246966e7 0.0
2.2344391098246966e7 -1.3321642782808192e7 0.0
0.0 0.0 0.0

1.1308611705769204e7 2.740221668677438e7 0.0
2.740221668677438e7 -3.5488301911942656e6 0.0
0.0 0.0 0.0

4.826312933146975e7 5.544075753455653e7 0.0
5.544075753455653e7 -1.1250984238901567e7 0.0
0.0 0.0 0.0

-8.964127262175847e6 -580095.8905826253 0.0
-580095.8905826253 2.672330105558768e7 0.0
0.0 0.0 0.0

3.8548781942423293e6 4.465537836222458e7 0.0
4.465537836222458e7 -3.345884345079913e6 0.0
0.0 0.0 0.0

6.373709817463689e6 3.7650409564194575e7 0.0
3.7650409564194575e7 -3.8788718354566256e6 0.0
0.0 0.0 0.0

-7.940975379462304e6 1.5957282360568624e6 0.0
1.5957282360568624e6 4.393560303886494e7 0.0
0.0 0.0 0.0

2.141462263215529e6 1.4174403836492368e6 0.0
1.4174403836492368e6 -4.229205660526255e7 0.0
0.0 0.0 0.0

-4.851369884966317e6 3.1425041349543836e7 0.0
3.1425041349543836e7 9.200584695710225e6 0.0
0.0 0.0 0.0

8.080608168060167e6 2.7079607205164086e7 0.0
2.7079607205164086e7 1.5555357749196164e7 0.0
0.0 0.0 0.0

-4.676042728426052e6 7.686853450529269e6 0.0
7.686853450529269e6 5.826079935250789e6 0.0
0.0 0.0 0.0

-6.393776715591006e6 1.8836489864451524e7 0.0
1.8836489864451524e7 2.735279415495317e7 0.0
0.0 0.0 0.0

6.613645802170722e6 2.652671093967224e7 0.0
2.652671093967224e7 1.5904343542889412e7 0.0
0.0 0.0 0.0

-537592.2478160672 2.0387577689878486e7 0.0
2.0387577689878486e7 -1.3977445729046576e7 0.0
0.0 0.0 0.0

-4.613134605290897e6 2.0487946489469536e7 0.0
2.0487946489469536e7 -2.0800949628865182e7 0.0
0.0 0.0 0.0

3.3187811790757277e6 3.455844939267635e7 0.0
3.455844939267635e7 -5.314997871081168e6 0.0
0.0 0.0 0.0

-8.743844918492626e6 -1.404743801318869e6 0.0
-1.404743801318869e6 1.9085051743530896e7 0.0
0.0 0.0 0.0

-1.7122850407420055e6 2.3256295459451318e7 0.0
2.3256295459451318e7 5.152973199240382e6 0.0
0.0 0.0 0.0

-4.2475732778606005e6 1.9894494765351553e7 0.0
1.9894494765351553e7 3.387098925772594e7 0.0
0.0 0.0 0.0

807085.7845877381 1.668967943740059e7 0.0
1.668967943740059e7 -1.5889956245636059e7 0.0
0.0 0.0 0.0

2.955184572874587e6 2.8020536400825594e7 0.0
2.8020536400825594e7 -1.1322769730341597e7 0.0
0.0 0.0 0.0

5.466902928336501e6 4.910876791491264e7 0.0
4.910876791491264e7 -750474.2629314833 0.0
0.0 0.0 0.0

-1.9089917383103743e6 1.7094579238625597e7 0.0
1.7094579238625597e7 -3.9587110755700506e7 0.0
0.0 0.0 0.0

-5.432397622827083e7 5.657611558489551e7 0.0
5.657611558489551e7 6.92731854752234e6 0.0
0.0 0.0 0.0

345741.649929047 1.679649459000358e6 0.0
1.679649459000358e6 -316751.76742209936 0.0
0.0 0.0 0.0

-108435.84091361059 1.9816950715816126e6 0.0
1.9816950715816126e6 -1.681406013971852e6 0.0
0.0 0.0 0.0

7.249618549681892e6 2.222226156179682e7 0.0
2.222226156179682e7 3.507627038002863e7 0.0
0.0 0.0 0.0

6.818081478017859e6 2.4742597070349414e7 0.0
2.4742597070349414e7 1.8250095509638935e7 0.0
0.0 0.0 0.0

582559.9039116064 2.3580729146146446e7 0.0
2.3580729146146446e7 1.115062966244801e7 0.0
0.0 0.0 0.0

-7.374770080541527e6 1.6982482796169285e7 0.0
1.6982482796169285e7 2.7231510721397728e7 0.0
0.0 0.0 0.0

9.848262086112458e6 6.14618425208552e6 0.0
6.14618425208552e6 -1.5035976543335272e6 0.0
0.0 0.0 0.0

-2.225088864150258e6 2.5606136154960703e7 0.0
2.5606136154960703e7 1.1985237400898786e7 0.0
0.0 0.0 0.0

684020.7682193178 3.618953247716896e7 0.0
3.618953247716896e7 -823929.6838565833 0.0
0.0 0.0 0.0

-3.084951975636881e6 1.8167615126264017e7 0.0
1.8167615126264017e7 -4.215163669685546e7 0.0
0.0 0.0 0.0

1.424416959705134e7 2.7077958931280985e7 0.0
2.7077958931280985e7 1.3394020059685405e7 0.0
0.0 0.0 0.0

2.1836607835346e7 2.6527834098762695e7 0.0
2.6527834098762695e7 1.4182594453084784e7 0.0
0.0 0.0 0.0

-3.182647883528809e7 5.852716589134779e7 0.0
5.852716589134779e7 7.800266168920424e6 0.0
0.0 0.0 0.0

3.0477115210147696e6 2.3886609609125096e7 0.0
2.3886609609125096e7 1.1571827441935059e7 0.0
0.0 0.0 0.0

-9.912974855413187e6 1.157136367579756e7 0.0
1.157136367579756e7 1.702405384892965e7 0.0
0.0 0.0 0.0

-8.726607712268617e6 1.5039960539011922e7 0.0
1.5039960539011922e7 3.283574168647556e7 0.0
0.0 0.0 0.0

275657.34645247913 3.525135765591373e7 0.0
3.525135765591373e7 -2.0623167072226042e6 0.0
0.0 0.0 0.0

9.967922469161864e6 2.415682848927254e7 0.0
2.415682848927254e7 1.7412895923658952e7 0.0
0.0 0.0 0.0

-5.283939347577415e6 5.582768257138697e6 0.0
5.582768257138697e6 7.600747927392593e7 0.0
0.0 0.0 0.0

1.6327781314614601e6 2.254647303181026e7 0.0
2.254647303181026e7 2.06678192587534e7 0.0
0.0 0.0 0.0

-1.3327956163202193e7 2.0433520888744734e7 0.0
2.0433520888744734e7 -4.73494681006622e7 0.0
0.0 0.0 0.0

7.056933360253703e6 2.619420939775049e7 0.0
2.619420939775049e7 1.6217029840589432e7 0.0
0.0 0.0 0.0

-2.339261701317653e6 2.1313890538630918e7 0.0
2.1313890538630918e7 3.146045381040605e7 0.0
0.0 0.0 0.0

-467224.87870695256 1.9135199089325003e7 0.0
1.9135199089325003e7 -1.4487871898335803e7 0.0
0.0 0.0 0.0

9.061848728426903e6 2.1446708678844526e7 0.0
2.1446708678844526e7 9.269619928371541e7 0.0
0.0 0.0 0.0

1.1903915912549363e7 3.133752394554881e7 0.0
3.133752394554881e7 -5.4282589256404955e6 0.0
0.0 0.0 0.0

332553.7620363636 2.1433087477988183e7 0.0
2.1433087477988183e7 -2.2323441208323278e7 0.0
0.0 0.0 0.0

-601938.5233664417 1.5509671297838453e7 0.0
1.5509671297838453e7 -6.469257822017074e6 0.0
0.0 0.0 0.0

1.7089789146389104e6 3.0210038086834233e6 0.0
3.0210038086834233e6 -5.31586863628355e7 0.0
0.0 0.0 0.0

5.087872490137636e6 4.670276642020704e7 0.0
4.670276642020704e7 -498391.5802221517 0.0
0.0 0.0 0.0

-8.124891928456532e6 1.580602498922345e7 0.0
1.580602498922345e7 3.368370267991958e7 0.0
0.0 0.0 0.0

5.473156136339332e6 2.071409476082986e7 0.0
2.071409476082986e7 2.632621238107969e7 0.0
0.0 0.0 0.0

-1.1163135682891643e7 3.0949117417937417e7 0.0
3.0949117417937417e7 5.8835250684087835e6 0.0
0.0 0.0 0.0

-1.8029695389534046e6 2.5822062903148632e7 0.0
2.5822062903148632e7 2.7819993908826513e6 0.0
0.0 0.0 0.0

-6.453554765168643e6 1.939347887019673e7 0.0
1.939347887019673e7 2.7750218777345434e7 0.0
0.0 0.0 0.0

1.28077076963301e6 1.22734456002246e7 0.0
1.22734456002246e7 -2.766488921438065e7 0.0
0.0 0.0 0.0

-1.588751715458583e7 4.975083545424089e7 0.0
4.975083545424089e7 6.951210093749104e6 0.0
0.0 0.0 0.0

3.0521093012773164e7 1.4350849035916237e7 0.0
1.4350849035916237e7 1.3051871879037097e6 0.0
0.0 0.0 0.0

-1.0101757419098765e7 1.537875467374382e6 0.0
1.537875467374382e6 2.4692146196476206e7 0.0
0.0 0.0 0.0

-8.571477890793268e6 3.612945472721541e7 0.0
3.612945472721541e7 5.900075424126965e6 0.0
0.0 0.0 0.0

-3.4155356966225594e7 2.6891332890696216e7 0.0
2.6891332890696216e7 1.806042837903522e6 0.0
0.0 0.0 0.0

-5.11880517656857e6 2.5568840052923042e7 0.0
2.5568840052923042e7 -1.3443105426692257e7 0.0
0.0 0.0 0.0

-6.695229406169914e7 3.9860675246952906e7 0.0
3.9860675246952906e7 -6.154956372256458e6 0.0
0.0 0.0 0.0

-5.952163160810317e6 2.5841697639153216e7 0.0
2.5841697639153216e7 -7.921076259860771e6 0.0
0.0 0.0 0.0

-3.5638225154003613e6 2.1910872089165557e7 0.0
2.1910872089165557e7 2.120709918632361e7 0.0
0.0 0.0 0.0

-8.038356079376778e6 1.6043092657073293e7 0.0
1.6043092657073293e7 2.8668186238925334e7 0.0
0.0 0.0 0.0

-5.564147806218051e6 1.9482412881091915e7 0.0
1.9482412881091915e7 1.9867910440362364e7 0.0
0.0 0.0 0.0

-4.752980825440537e6 2.817195542019346e7 0.0
2.817195542019346e7 1.3172651850231165e7 0.0
0.0 0.0 0.0

-6.55803132099808e6 2.8281806416262486e6 0.0
2.8281806416262486e6 5.406707786644058e7 0.0
0.0 0.0 0.0

-519624.69890183304 2.1881386732221685e7 0.0
2.1881386732221685e7 -1.3549490810478516e6 0.0
0.0 0.0 0.0

1.2745434793493683e6 1.3963601279189082e7 0.0
1.3963601279189082e7 -1.671996822093722e7 0.0
0.0 0.0 0.0

817005.7779153083 1.9362250296637915e7 0.0
1.9362250296637915e7 -2.3300079512181375e7 0.0
0.0 0.0 0.0

-7.683681948182613e6 -894237.6623446136 0.0
-894237.6623446136 3.687065797413265e7 0.0
0.0 0.0 0.0

-1.377488090697947e6 2.2343877831347175e7 0.0
2.2343877831347175e7 805917.5462526815 0.0
0.0 0.0 0.0

-9.31899374399212e6 3.1189037557889197e7 0.0
3.1189037557889197e7 7.160985049158286e6 0.0
0.0 0.0 0.0

4.0786118774345703e6 2.2160442634238522e7 0.0
2.2160442634238522e7 3.4665737480952516e7 0.0
0.0 0.0 0.0

917230.896500106 2.3625122305067524e7 0.0
2.3625122305067524e7 -1.5717198877260342e7 0.0
0.0 0.0 0.0

792819.7300370606 2.2484405020012684e7 0.0
2.2484405020012684e7 5.91194835046471e6 0.0
0.0 0.0 0.0

3.295217355743411e6 4.3144353075138606e7 0.0
4.3144353075138606e7 -2.9683637375794807e6 0.0
0.0 0.0 0.0

2.648751792683034e6 2.506576084164449e7 0.0
2.506576084164449e7 -1.2294726371002506e7 0.0
0.0 0.0 0.0

1.295944141445549e8 4.6022616940896064e7 0.0
4.6022616940896064e7 3.3891968022276163e6 0.0
0.0 0.0 0.0

6.153510021301793e6 2.4998841919768844e7 0.0
2.4998841919768844e7 -2.9935019444304295e6 0.0
0.0 0.0 0.0

-3.1997409723795345e6 2.149365459121842e7 0.0
2.149365459121842e7 -2.708148769538345e7 0.0
0.0 0.0 0.0

4.358117248462187e6 2.7370538366195157e7 0.0
2.7370538366195157e7 -1.0262365014376028e7 0.0
0.0 0.0 0.0

-3.536930568761377e7 3.386413674621841e7 0.0
3.386413674621841e7 -7.844022904953233e6 0.0
0.0 0.0 0.0

-6.654184024010063e6 3.0010523292762138e7 0.0
3.0010523292762138e7 9.129226811310194e6 0.0
0.0 0.0 0.0

2.2085288405046567e7 2.654658268436452e7 0.0
2.654658268436452e7 8.116573677227499e6 0.0
0.0 0.0 0.0

-4.770115461296046e6 1.7445868100311e7 0.0
1.7445868100311e7 -5.1425276692122854e7 0.0
0.0 0.0 0.0

8.665355335308664e6 2.0928234449630834e7 0.0
2.0928234449630834e7 4.554631234746155e7 0.0
0.0 0.0 0.0

2.744733725524323e6 5.520671667104924e6 0.0
5.520671667104924e6 -3.242569990078385e7 0.0
0.0 0.0 0.0

4.563123916094608e6 2.848590285095339e7 0.0
2.848590285095339e7 -9.694139351699986e6 0.0
0.0 0.0 0.0

569382.2152966373 4.584175363070771e6 0.0
4.584175363070771e6 -6.212413794892051e7 0.0
0.0 0.0 0.0

2.562521509128183e6 2.7681666763738792e7 0.0
2.7681666763738792e7 -1.1653506719942195e7 0.0
0.0 0.0 0.0

1.0055486576576699e7 3.3194692907669086e7 0.0
3.3194692907669086e7 -6.255196510090878e6 0.0
0.0 0.0 0.0

-1.5119686680450428e6 2.5580952952686254e7 0.0
2.5580952952686254e7 2.194559433226226e6 0.0
0.0 0.0 0.0

-1.698114482281345e7 3.884966274050449e7 0.0
3.884966274050449e7 5.435070478558419e6 0.0
0.0 0.0 0.0

-2.639872401381526e6 2.152097289731696e7 0.0
2.152097289731696e7 3.1673669637226813e7 0.0
0.0 0.0 0.0

2.25372890105622e6 2.2451693298048936e7 0.0
2.2451693298048936e7 1.2805643595224699e7 0.0
0.0 0.0 0.0

-4.555944373769818e7 4.3599077152587935e7 0.0
4.3599077152587935e7 7.314847478286857e6 0.0
0.0 0.0 0.0

2.1680501973280456e7 2.6704594819364093e7 0.0
2.6704594819364093e7 1.5006894992270157e7 0.0
0.0 0.0 0.0

-5.565566640322018e6 1.4662796875299409e7 0.0
1.4662796875299409e7 1.1011555754188232e7 0.0
0.0 0.0 0.0

-6.874024937306501e6 3.548474021373021e7 0.0
3.548474021373021e7 5.742632302626481e6 0.0
0.0 0.0 0.0

-6.9740359944638945e6 2.6376572882987272e7 0.0
2.6376572882987272e7 -1.059338879258818e7 0.0
0.0 0.0 0.0

949401.7415210335 1.7258903171989616e7 0.0
1.7258903171989616e7 -1.6899790307377055e7 0.0
0.0 0.0 0.0

2.0447111024108138e6 1.2257671994562051e6 0.0
1.2257671994562051e6 -4.453247235117948e7 0.0
0.0 0.0 0.0

-2.691667727383847e6 2.1173941583442472e7 0.0
2.1173941583442472e7 -1.1636724157515481e7 0.0
0.0 0.0 0.0

6.24734230127084e7 7.589241215562034e6 0.0
7.589241215562034e6 -575933.3980444036 0.0
0.0 0.0 0.0

-2.1863094807170145e6 2.0960352504661165e7 0.0
2.0960352504661165e7 3.340268812629714e7 0.0
0.0 0.0 0.0

-9.114339242195971e6 3.447300219389691e7 0.0
3.447300219389691e7 6.719143435363935e6 0.0
0.0 0.0 0.0

-6.688294708986118e6 -1.207890279164356e6 0.0
-1.207890279164356e6 4.905311539661418e7 0.0
0.0 0.0 0.0

-2.7278397539695217e6 4.239241183417954e7 0.0
4.239241183417954e7 628962.596483882 0.0
0.0 0.0 0.0

-2.7089320729610067e7 2.944590401942543e7 0.0
2.944590401942543e7 -5.639061079096891e6 0.0
0.0 0.0 0.0

572812.0017458517 2.2113392413385592e7 0.0
2.2113392413385592e7 -2.0790436397543486e7 0.0
0.0 0.0 0.0

6.853206441015941e6 2.200716082047863e7 0.0
2.200716082047863e7 3.1369038955603153e7 0.0
0.0 0.0 0.0

483710.3685707811 2.361377661645927e7 0.0
2.361377661645927e7 5.673876485776867e6 0.0
0.0 0.0 0.0

-2.3388701792693622e6 2.641066786174876e7 0.0
2.641066786174876e7 1.08491963934327e7 0.0
0.0 0.0 0.0

244786.2232592553 1.6436105317908255e7 0.0
1.6436105317908255e7 -1.8039324348613907e7 0.0
0.0 0.0 0.0

2.0875785789415054e6 1.1700246374000032e7 0.0
1.1700246374000032e7 -2.6681387516105868e7 0.0
0.0 0.0 0.0

-1.2696295661723306e6 1.076599919659531e7 0.0
1.076599919659531e7 -6.420225114156712e6 0.0
0.0 0.0 0.0

-6.074441590032937e6 3.480392309690519e7 0.0
3.480392309690519e7 5.696129942123724e6 0.0
0.0 0.0 0.0

-708472.2845990784 2.105824774686584e7 0.0
2.105824774686584e7 -1.2471951908506949e7 0.0
0.0 0.0 0.0

2.521874989149289e7 1.3972695791589724e7 0.0
1.3972695791589724e7 1.1196243282341277e6 0.0
0.0 0.0 0.0

2.0241185201827232e6 1.4092935349786677e6 0.0
1.4092935349786677e6 -4.512368362033374e7 0.0
0.0 0.0 0.0

5.48172225814702e6 2.0978283689322054e7 0.0
2.0978283689322054e7 3.30229855708167e7 0.0
0.0 0.0 0.0

-273388.6487951339 1.0349124146927956e7 0.0
1.0349124146927956e7 -9.313935210954538e6 0.0
0.0 0.0 0.0

4.871541489998115e6 3.497018175254953e7 0.0
3.497018175254953e7 -4.678656118464662e6 0.0
0.0 0.0 0.0

1.0130429000731753e6 2.32914270873123e7 0.0
2.32914270873123e7 1.4498366422652144e7 0.0
0.0 0.0 0.0

-7.187401918184092e6 9.73567892283198e6 0.0
9.73567892283198e6 4.856200786202628e7 0.0
0.0 0.0 0.0

-8.733502935829628e6 1.6495854111943482e6 0.0
1.6495854111943482e6 1.7808382240843635e7 0.0
0.0 0.0 0.0

1.0755725141247418e7 3.303859298066556e7 0.0
3.303859298066556e7 -6.048252388862254e6 0.0
0.0 0.0 0.0

-6.430169193970401e7 2.053187235506924e7 0.0
2.053187235506924e7 5.222838202522188e6 0.0
0.0 0.0 0.0

-135418.58794310316 2.027891708311302e7 0.0
2.027891708311302e7 -2.5867101961868305e7 0.0
0.0 0.0 0.0

8.070202218669197e6 1.4519563416209951e7 0.0
1.4519563416209951e7 3.899499493306599e6 0.0
0.0 0.0 0.0

-3.5370513759145318e6 2.1525630865625832e7 0.0
2.1525630865625832e7 2.054296065639282e7 0.0
0.0 0.0 0.0

-6.97915430969994e7 1.981688933818932e7 0.0
1.981688933818932e7 3.6961192055741213e6 0.0
0.0 0.0 0.0

-3.323434022144842e6 2.0640803672710184e7 0.0
2.0640803672710184e7 -2.848021650334308e7 0.0
0.0 0.0 0.0

2.468490303193697e6 2.6685415262447074e7 0.0
2.6685415262447074e7 -1.2571129920302842e7 0.0
0.0 0.0 0.0

1.0997527385848893e6 5.9359417039564485e6 0.0
5.9359417039564485e6 -4.1090781534696585e6 0.0
0.0 0.0 0.0

-1.4499035583848733e7 2.834769028692859e7 0.0
2.834769028692859e7 -1.0584372820217501e7 0.0
0.0 0.0 0.0

1.0561138558657488e7 3.8891240561281994e7 0.0
3.8891240561281994e7 -5.4383504870341085e6 0.0
0.0 0.0 0.0

-1.8889771803286872e6 3.842814259931757e7 0.0
3.842814259931757e7 345150.602301006 0.0
0.0 0.0 0.0

-2.599996791016164e6 2.614730980877919e7 0.0
2.614730980877919e7 6.258619259400055e6 0.0
0.0 0.0 0.0

-5.938290700713402e6 1.8059737410772424e7 0.0
1.8059737410772424e7 3.5408308936233334e7 0.0
0.0 0.0 0.0

-3.273390531346677e6 2.6022008616612773e7 0.0
2.6022008616612773e7 1.717799887657532e7 0.0
0.0 0.0 0.0

-2.5279732904165946e6 4.11708994246804e7 0.0
4.11708994246804e7 516427.5153802674 0.0
0.0 0.0 0.0

593513.9560147356 1.3742036956237163e7 0.0
1.3742036956237163e7 -1.904342868553578e7 0.0
0.0 0.0 0.0

-2.4471700805706177e6 4.02991510971913e7 0.0
4.02991510971913e7 377118.37080340926 0.0
0.0 0.0 0.0

7.677678849777771e6 2.504551257284049e7 0.0
2.504551257284049e7 1.6015581819681143e7 0.0
0.0 0.0 0.0

-7.732587369641203e6 1.5888527143816538e7 0.0
1.5888527143816538e7 3.404949420776037e7 0.0
0.0 0.0 0.0

1.5260506875971965e6 3.0015713912278074e6 0.0
3.0015713912278074e6 -4.6599200829918906e7 0.0
0.0 0.0 0.0

-1.1178776278900778e7 3.0714431023425344e7 0.0
3.0714431023425344e7 6.37009866911086e6 0.0
0.0 0.0 0.0

183722.9780457837 3.1273920108195227e7 0.0
3.1273920108195227e7 -4.8469546523015695e6 0.0
0.0 0.0 0.0

1.9342288973666495e6 3.107601470327006e7 0.0
3.107601470327006e7 -5.792788310875902e6 0.0
0.0 0.0 0.0

-8.850812575384438e7 5.13740862007175e7 0.0
5.13740862007175e7 -4.336673551122871e7 0.0
0.0 0.0 0.0

1.0298705045290422e6 2.3019963533947296e7 0.0
2.3019963533947296e7 -1.9312641621867724e7 0.0
0.0 0.0 0.0

561763.2718747606 3.454363180003549e7 0.0
3.454363180003549e7 -974991.8590438701 0.0
0.0 0.0 0.0

-4.0542186810668623e6 2.278519135611504e7 0.0
2.278519135611504e7 1.967972838010521e7 0.0
0.0 0.0 0.0

-3.847242275554094e7 2.9000248729486503e7 0.0
2.9000248729486503e7 2.2320119717658684e6 0.0
0.0 0.0 0.0

1.2506073828279334e6 2.24890971526796e7 0.0
2.24890971526796e7 640232.4782065277 0.0
0.0 0.0 0.0

5.845119341333938e6 2.2187904639010828e7 0.0
2.2187904639010828e7 1.844983774856204e7 0.0
0.0 0.0 0.0

1.444435541364327e6 1.0578064731376912e6 0.0
1.0578064731376912e6 -5.720231863612871e7 0.0
0.0 0.0 0.0

-2.4049036466746777e7 4.594298673995397e7 0.0
4.594298673995397e7 8.274421922253678e6 0.0
0.0 0.0 0.0

-6.551694995914124e6 530252.1872568427 0.0
530252.1872568427 5.0253422290499955e7 0.0
0.0 0.0 0.0

-6.3229926586929e6 1.8417376309074985e6 0.0
1.8417376309074985e6 5.851750836270979e7 0.0
0.0 0.0 0.0

-8.159173662912985e6 -792087.2473978683 0.0
-792087.2473978683 1.6590460864617087e7 0.0
0.0 0.0 0.0

-6.355650397359068e6 1.6299887345190449e7 0.0
1.6299887345190449e7 3.964241834865518e7 0.0
0.0 0.0 0.0

5.886684054402592e6 1.9934238835910197e7 0.0
1.9934238835910197e7 1.2791827703641638e7 0.0
0.0 0.0 0.0

-637903.0488888901 1.927088571781705e7 0.0
1.927088571781705e7 -2.999663112139872e7 0.0
0.0 0.0 0.0

-4.64890115130478e7 5.9301819382276356e7 0.0
5.9301819382276356e7 1.1175753459127996e7 0.0
0.0 0.0 0.0

-7.171513795644075e6 1.6498376658603152e7 0.0
1.6498376658603152e7 3.4717639785333805e7 0.0
0.0 0.0 0.0

-5.094282786001008e6 1.6917359756904595e7 0.0
1.6917359756904595e7 -5.406985452642231e7 0.0
0.0 0.0 0.0

-2.5779242941814516e7 2.8964108389534015e7 0.0
2.8964108389534015e7 -5.1827590922335945e6 0.0
0.0 0.0 0.0

-5.836755596948605e6 1.457488208535745e6 0.0
1.457488208535745e6 5.9947124787401445e7 0.0
0.0 0.0 0.0

542283.2403883003 2.164509505954306e7 0.0
2.164509505954306e7 -1.8661861190474283e7 0.0
0.0 0.0 0.0

-1.0796282951529967e7 2.030628416366619e7 0.0
2.030628416366619e7 -6.132453635139153e7 0.0
0.0 0.0 0.0

-4.613772349797505e6 2.470735529916497e7 0.0
2.470735529916497e7 -9.607165462116849e6 0.0
0.0 0.0 0.0

-2.2159702574896295e7 2.6610751220213808e7 0.0
2.6610751220213808e7 -4.507350128132331e6 0.0
0.0 0.0 0.0

6.393541354777811e7 3.369125850519116e7 0.0
3.369125850519116e7 1.4089838930576507e7 0.0
0.0 0.0 0.0

-2.0908369795046719e6 1.8924611016970396e7 0.0
1.8924611016970396e7 -4.652704617078178e6 0.0
0.0 0.0 0.0

1.2177805646403013e6 1.9964767965742167e7 0.0
1.9964767965742167e7 -2.1316465178374015e7 0.0
0.0 0.0 0.0

-4.0046402170043383e6 2.056587640220296e7 0.0
2.056587640220296e7 -1.7321904236648966e7 0.0
0.0 0.0 0.0

1.5722747094353475e6 1.291231182685661e6 0.0
1.291231182685661e6 -5.777320538528342e7 0.0
0.0 0.0 0.0

2.740489228446061e6 3.3593538811061636e7 0.0
3.3593538811061636e7 -4.250472919070167e6 0.0
0.0 0.0 0.0

-4.793715576539489e6 1.9937719905058328e7 0.0
1.9937719905058328e7 -3.154224953686755e7 0.0
0.0 0.0 0.0

2.0620170501976283e6 2.5465260221441206e7 0.0
2.5465260221441206e7 -1.2922544424873458e7 0.0
0.0 0.0 0.0

-273436.3303347876 2.345507713174627e7 0.0
2.345507713174627e7 2.428152120466801e6 0.0
0.0 0.0 0.0

-4.679243701095451e6 1.4414680007781507e7 0.0
1.4414680007781507e7 1.4306391001763541e7 0.0
0.0 0.0 0.0

-2.69267039548783e6 2.6060003038519915e7 0.0
2.6060003038519915e7 1.030921757405328e7 0.0
0.0 0.0 0.0

1.721155785402907e6 2.146104289374691e7 0.0
2.146104289374691e7 3.550095206686973e7 0.0
0.0 0.0 0.0

2.535564712831037e6 1.652045209179706e6 0.0
1.652045209179706e6 -3.696469996135672e7 0.0
0.0 0.0 0.0

-1.6649475652983135e7 1.7249858305953585e7 0.0
1.7249858305953585e7 80585.86629140843 0.0
0.0 0.0 0.0

8.981152853841001e6 2.694586713554023e7 0.0
2.694586713554023e7 1.561275664944873e7 0.0
0.0 0.0 0.0

-2.10957463447148e6 2.1748566816012114e7 0.0
2.1748566816012114e7 -2.071650237352463e7 0.0
0.0 0.0 0.0

9.756552830470864e7 1.3556157776701597e7 0.0
1.3556157776701597e7 208792.60956225172 0.0
0.0 0.0 0.0

38017.33536211215 2.03997154277094e7 0.0
2.03997154277094e7 -2.6005676123250134e7 0.0
0.0 0.0 0.0

1.66827881735828e6 3.2209643379919507e7 0.0
3.2209643379919507e7 -5.983081751942978e6 0.0
0.0 0.0 0.0

-2.0367912741908378e6 2.78880774954371e7 0.0
2.78880774954371e7 122201.15171447385 0.0
0.0 0.0 0.0

1.1109861877568e7 2.1532787208075423e7 0.0
2.1532787208075423e7 7.79151424467211e7 0.0
0.0 0.0 0.0

-6.569481759554971e6 1.5128421804150704e7 0.0
1.5128421804150704e7 4.174098838818528e7 0.0
0.0 0.0 0.0

-6.623123591588065e6 -1.726077173661663e6 0.0
-1.726077173661663e6 4.852532666827984e7 0.0
0.0 0.0 0.0

-7.491412184192628e6 8.132075434290129e6 0.0
8.132075434290129e6 5.057693163344286e7 0.0
0.0 0.0 0.0

-2.6342734997326527e6 3.708167132051918e7 0.0
3.708167132051918e7 1.0939686392894397e6 0.0
0.0 0.0 0.0

1.3357438130336795e6 1.343852098001924e7 0.0
1.343852098001924e7 -2.8979484081780963e7 0.0
0.0 0.0 0.0

-3.0720652119021155e6 2.748402303609803e7 0.0
2.748402303609803e7 1.295342068186352e7 0.0
0.0 0.0 0.0

1.2360653357017431e6 2.3685620193193328e7 0.0
2.3685620193193328e7 -1.785920553469307e7 0.0
0.0 0.0 0.0

-4.754132740427504e6 2.0672819259936225e7 0.0
2.0672819259936225e7 1.896852044209812e7 0.0
0.0 0.0 0.0

-5.857723709409317e6 3.0525473635158066e7 0.0
3.0525473635158066e7 9.632131673592934e6 0.0
0.0 0.0 0.0

1.389616768266302e7 3.074020995780607e7 0.0
3.074020995780607e7 -4.619835352002545e6 0.0
0.0 0.0 0.0

-3.2208889907411924e6 2.5200977464542195e7 0.0
2.5200977464542195e7 1.9050007433252238e7 0.0
0.0 0.0 0.0

-2.8511838649901496e6 2.6491196330869842e7 0.0
2.6491196330869842e7 1.4767373832101846e7 0.0
0.0 0.0 0.0

-5.179806914591707e6 2.165030943024701e7 0.0
2.165030943024701e7 -1.8903323498108882e7 0.0
0.0 0.0 0.0

-7.832416428588735e6 1.6661808116123777e7 0.0
1.6661808116123777e7 3.214725598751011e7 0.0
0.0 0.0 0.0

-2.18766338172556e6 3.694643826802274e7 0.0
3.694643826802274e7 2.537806830787926e6 0.0
0.0 0.0 0.0

2.099717230425872e6 4.796027495088224e6 0.0
4.796027495088224e6 -3.448002098734976e7 0.0
0.0 0.0 0.0

-4.886099793626253e6 4.0189515194197437e6 0.0
4.0189515194197437e6 7.455912009418996e7 0.0
0.0 0.0 0.0

-2.577804857297819e6 2.3949060789292675e7 0.0
2.3949060789292675e7 -1.1187418371166417e7 0.0
0.0 0.0 0.0

-2.764746598611035e6 3.795014020715625e7 0.0
3.795014020715625e7 1.1748922549683237e6 0.0
0.0 0.0 0.0

673202.3921085 1.5979338123109305e7 0.0
1.5979338123109305e7 -3.3102117499574266e7 0.0
0.0 0.0 0.0

1.7708004737785377e6 3.3937911141293734e7 0.0
3.3937911141293734e7 -4.7760563215771485e6 0.0
0.0 0.0 0.0

1.4024207601776384e6 1.1406818383419255e7 0.0
1.1406818383419255e7 -2.9104925369499832e7 0.0
0.0 0.0 0.0

-7.9083874583460335e6 1.4841559565088388e7 0.0
1.4841559565088388e7 3.5874114140091956e7 0.0
0.0 0.0 0.0

-7.120135305080093e7 5.488696793847575e7 0.0
5.488696793847575e7 1.1205822652504463e7 0.0
0.0 0.0 0.0

-1.7875913331305042e7 2.9728325434225872e7 0.0
2.9728325434225872e7 -1.4101380778822014e6 0.0
0.0 0.0 0.0

-3.660394438316088e6 2.7457869207409266e7 0.0
2.7457869207409266e7 1.3986030296470985e7 0.0
0.0 0.0 0.0

-8.322325916254468e6 -3.690906695434114e6 0.0
-3.690906695434114e6 2.4605321112881366e7 0.0
0.0 0.0 0.0

-2.1237735469310895e7 2.814470636375419e7 0.0
2.814470636375419e7 -3.864551824546878e6 0.0
0.0 0.0 0.0

-8.004971098338405e6 3.1179536502721358e7 0.0
3.1179536502721358e7 8.087196094615925e6 0.0
0.0 0.0 0.0

1.8371034277084693e6 2.8481063866623067e6 0.0
2.8481063866623067e6 -4.781429326010319e7 0.0
0.0 0.0 0.0

-4.892879714056311e6 1.9164829785949554e7 0.0
1.9164829785949554e7 2.240271853571329e7 0.0
0.0 0.0 0.0

-7.164728058914352e6 1.749836736410976e7 0.0
1.749836736410976e7 2.799811127822628e7 0.0
0.0 0.0 0.0

7.0989329448680105e6 4.3830057931342594e7 0.0
4.3830057931342594e7 -2.1120904137828294e6 0.0
0.0 0.0 0.0

-1.050850330851058e7 4.356507045265781e6 0.0
4.356507045265781e6 2.650948138149914e7 0.0
0.0 0.0 0.0

-7.263579521282086e6 1.7598509060773313e7 0.0
1.7598509060773313e7 3.3154557920132134e7 0.0
0.0 0.0 0.0

-360061.1086356482 3.889090780776461e7 0.0
3.889090780776461e7 1.0234341277100907e6 0.0
0.0 0.0 0.0

-5.831561708637103e6 1.8016325349224028e6 0.0
1.8016325349224028e6 6.21889619561376e7 0.0
0.0 0.0 0.0

-8.367029291642435e6 -1.5947604148742915e6 0.0
-1.5947604148742915e6 2.657490413805649e7 0.0
0.0 0.0 0.0

1.9738693608170412e6 8.090455422637229e6 0.0
8.090455422637229e6 -3.248542544517051e7 0.0
0.0 0.0 0.0

-2.6031572929854738e6 2.649780029998793e7 0.0
2.649780029998793e7 1.1530288010723539e7 0.0
0.0 0.0 0.0

-6.264348547256829e6 1.7121745215516783e7 0.0
1.7121745215516783e7 3.720539058189789e7 0.0
0.0 0.0 0.0

786526.5328768957 2.29620417169827e7 0.0
2.29620417169827e7 -1.756163513563538e7 0.0
0.0 0.0 0.0

1.285133038521842e6 2.1810446483424395e7 0.0
2.1810446483424395e7 -1.8624978534803107e7 0.0
0.0 0.0 0.0

1.2794394737123996e6 1.306537731533056e7 0.0
1.306537731533056e7 -3.1121602454972494e7 0.0
0.0 0.0 0.0

-325830.32848581113 1.9778308375260066e7 0.0
1.9778308375260066e7 -2.7958300176051654e7 0.0
0.0 0.0 0.0

1.7806931500222217e6 2.338013497676918e7 0.0
2.338013497676918e7 9.974589893593227e6 0.0
0.0 0.0 0.0

-6.1380841086537335e6 1.8247197259175688e7 0.0
1.8247197259175688e7 3.512704759870202e7 0.0
0.0 0.0 0.0

2.030338099006311e6 3.295009789275127e7 0.0
3.295009789275127e7 -5.801799639558686e6 0.0
0.0 0.0 0.0

-6.590954693958687e6 3.442410077075563e7 0.0
3.442410077075563e7 6.48568455838038e6 0.0
0.0 0.0 0.0

-1.3226982295864676e6 3.7538744836354874e7 0.0
3.7538744836354874e7 1.8051357664347687e6 0.0
0.0 0.0 0.0

1.992050841949103e7 2.705127656594018e7 0.0
2.705127656594018e7 9.071367836447076e7 0.0
0.0 0.0 0.0

-2.0669147491009017e6 2.7043918540992565e7 0.0
2.7043918540992565e7 9.778684019416284e6 0.0
0.0 0.0 0.0

1.228967394456734e6 2.068505285009428e7 0.0
2.068505285009428e7 -1.9775432170491718e7 0.0
0.0 0.0 0.0

-1.1796827261288306e6 2.0786515979261003e7 0.0
2.0786515979261003e7 -2.6017760048368737e7 0.0
0.0 0.0 0.0

1.1729743389619347e6 2.0344253629090883e7 0.0
2.0344253629090883e7 -2.1740971633312378e7 0.0
0.0 0.0 0.0

2.801113497800922e6 3.698200596668071e7 0.0
3.698200596668071e7 -2.4029486946752467e6 0.0
0.0 0.0 0.0

-2.5735963216793835e6 2.5689667544494253e7 0.0
2.5689667544494253e7 9.128251040170621e6 0.0
0.0 0.0 0.0

599291.0750423592 2.245505805741281e7 0.0
2.245505805741281e7 3.8435882616664832e6 0.0
0.0 0.0 0.0

-1.2143974175818907e6 2.2274197235770162e7 0.0
2.2274197235770162e7 -1.972544841831914e7 0.0
0.0 0.0 0.0

-5.665009791013346e6 1.5240540226412714e7 0.0
1.5240540226412714e7 1.280802346305738e7 0.0
0.0 0.0 0.0

8.585165213384992e6 5.150395576846305e7 0.0
5.150395576846305e7 -5.468014028047077e6 0.0
0.0 0.0 0.0

733642.3311701417 4.035809774035075e6 0.0
4.035809774035075e6 -6.86243683337413e7 0.0
0.0 0.0 0.0

1.3517340049497843e8 5.1756116546620935e7 0.0
5.1756116546620935e7 3.472456073315035e7 0.0
0.0 0.0 0.0

5.994789008294442e7 5.275747883960428e7 0.0
5.275747883960428e7 -1.6877481687677328e7 0.0
0.0 0.0 0.0

409067.5858562896 2.293467755818033e7 0.0
2.293467755818033e7 2.29256528424275e7 0.0
0.0 0.0 0.0

2.786097770184231e6 2.3766456119689588e7 0.0
2.3766456119689588e7 1.2802921673637958e7 0.0
0.0 0.0 0.0

-3.1366938892780688e7 3.0166675967478577e7 0.0
3.0166675967478577e7 -2.0963477986780247e6 0.0
0.0 0.0 0.0

-7.62683087500135e7 3.746566444780822e7 0.0
3.746566444780822e7 -4.779500566909317e6 0.0
0.0 0.0 0.0

-6.003982599656326e6 1.5491716843448605e7 0.0
1.5491716843448605e7 1.8695197402823832e7 0.0
0.0 0.0 0.0

516070.06083740573 3.2171538661062777e7 0.0
3.2171538661062777e7 -2.206922381433327e6 0.0
0.0 0.0 0.0

1.124727389871885e6 1.9200764294151336e7 0.0
1.9200764294151336e7 -2.2829154712244928e7 0.0
0.0 0.0 0.0

564854.1578134038 8.610577620146232e6 0.0
8.610577620146232e6 -6.201991031534113e7 0.0
0.0 0.0 0.0

624480.7632538164 1.9463177648985144e7 0.0
1.9463177648985144e7 -2.323921867622166e7 0.0
0.0 0.0 0.0

-4.1605468315825164e6 1.708895858584205e7 0.0
1.708895858584205e7 -4.7713485133247286e7 0.0
0.0 0.0 0.0

-7.711605948441708e6 1.771871154502419e7 0.0
1.771871154502419e7 2.572393813083371e7 0.0
0.0 0.0 0.0

3.1010265259401035e6 2.1436977292225055e7 0.0
2.1436977292225055e7 3.355099404550301e7 0.0
0.0 0.0 0.0

1.3376231427981474e6 2.1791629458281882e7 0.0
2.1791629458281882e7 9.474719215853032e6 0.0
0.0 0.0 0.0

-1.2184329190257113e7 1.0690549109317608e7 0.0
1.0690549109317608e7 4.357118906126361e6 0.0
0.0 0.0 0.0

-7.681730433172904e6 6.640042742651897e6 0.0
6.640042742651897e6 4.97805505007429e7 0.0
0.0 0.0 0.0

-3.161320955597521e6 3.1418796726899803e7 0.0
3.1418796726899803e7 7.227564981754802e6 0.0
0.0 0.0 0.0

2.0733537563433405e6 2.1838921272994574e7 0.0
2.1838921272994574e7 3.602269751858592e7 0.0
0.0 0.0 0.0

-3.3645399557092227e6 2.1082727566496357e7 0.0
2.1082727566496357e7 1.960111014795218e7 0.0
0.0 0.0 0.0

-8.796622238382593e6 2.531619834333093e6 0.0
2.531619834333093e6 1.0732187256446708e7 0.0
0.0 0.0 0.0

-1.3163289726078361e6 1.424702578742543e7 0.0
1.424702578742543e7 7.893837821263136e7 0.0
0.0 0.0 0.0

-1.6159199662415287e6 2.4961735690050706e7 0.0
2.4961735690050706e7 3.2115727372048725e6 0.0
0.0 0.0 0.0

2.222241766566401e6 3.195560396485827e7 0.0
3.195560396485827e7 -6.84139568168376e6 0.0
0.0 0.0 0.0

2.285049999492435e6 2.116035009710105e7 0.0
2.116035009710105e7 3.758379022763147e7 0.0
0.0 0.0 0.0

-4.954995993832118e6 1.5120510036100704e7 0.0
1.5120510036100704e7 1.5984030728561543e7 0.0
0.0 0.0 0.0

1.064095592797762e7 3.1746384481532678e7 0.0
3.1746384481532678e7 -6.035611417717956e6 0.0
0.0 0.0 0.0

-2.8308884936435e6 5.979538436988344e6 0.0
5.979538436988344e6 8.406328775141966e7 0.0
0.0 0.0 0.0

1.0387506107085193e7 2.9081171564239755e7 0.0
2.9081171564239755e7 -5.279723870073445e6 0.0
0.0 0.0 0.0

-2.3070046055070087e6 3.775257836743875e7 0.0
3.775257836743875e7 2.6915454778501764e6 0.0
0.0 0.0 0.0

-7.230777436204689e6 1.9353838671023283e7 0.0
1.9353838671023283e7 -2.8929258272733815e7 0.0
0.0 0.0 0.0

-2.914244918777841e6 2.4384428787142567e7 0.0
2.4384428787142567e7 2.0307045466498684e7 0.0
0.0 0.0 0.0

-7.402070352384249e6 1.5248553378367726e7 0.0
1.5248553378367726e7 3.8480999323229425e7 0.0
0.0 0.0 0.0

6.563956425876319e6 3.639013836624267e7 0.0
3.639013836624267e7 -4.715080364205185e6 0.0
0.0 0.0 0.0

2.654208783400272e6 5.812523907344395e6 0.0
5.812523907344395e6 -1.1978792223384136e7 0.0
0.0 0.0 0.0

472133.41319432296 4.7883743174569055e7 0.0
4.7883743174569055e7 -1.9026287151745209e6 0.0
0.0 0.0 0.0

6.480379016479593e6 2.568869207392982e7 0.0
2.568869207392982e7 1.0107322576602787e7 0.0
0.0 0.0 0.0

129316.44495059783 2.9340267969688933e7 0.0
2.9340267969688933e7 -4.1887986908851466e6 0.0
0.0 0.0 0.0

1.3500035253237486e6 5.700692495548527e6 0.0
5.700692495548527e6 -4.7027973196427934e7 0.0
0.0 0.0 0.0

-3.5736826582495584e6 2.4850996561619688e7 0.0
2.4850996561619688e7 -1.3011277037916252e7 0.0
0.0 0.0 0.0

9.915092643998666e6 2.6243614418804273e7 0.0
2.6243614418804273e7 1.5158169840087008e7 0.0
0.0 0.0 0.0

-1.0824228551538668e6 3.507418481008049e7 0.0
3.507418481008049e7 1.5805224666491384e6 0.0
0.0 0.0 0.0

6.6934772790395e6 2.1975782679850884e7 0.0
2.1975782679850884e7 3.8709339938775145e7 0.0
0.0 0.0 0.0

-6.1585482485154625e6 953765.801839795 0.0
953765.801839795 1.3071562862963019e7 0.0
0.0 0.0 0.0

1.5487307447149828e6 2.0341476792740814e7 0.0
2.0341476792740814e7 4.425739136594692e7 0.0
0.0 0.0 0.0

-8.84589949890169e6 2.870091636889659e7 0.0
2.870091636889659e7 4.916776169672324e6 0.0
0.0 0.0 0.0

1.1145021507266393e7 3.01376026634689e7 0.0
3.01376026634689e7 -5.290151427258738e6 0.0
0.0 0.0 0.0

5.101726145376708e6 2.830183962031959e7 0.0
2.830183962031959e7 -9.407615378468126e6 0.0
0.0 0.0 0.0

1.1488428687745197e7 3.854228513217653e7 0.0
3.854228513217653e7 -5.351200458250794e6 0.0
0.0 0.0 0.0

1.1346707940965318e6 2.0597980680840746e7 0.0
2.0597980680840746e7 7.129500767665976e6 0.0
0.0 0.0 0.0

-4.337254531423798e6 2.8469607738162126e7 0.0
2.8469607738162126e7 1.2688794021999218e7 0.0
0.0 0.0 0.0

6.458460401296511e6 3.98711515674742e7 0.0
3.98711515674742e7 -4.7117896742467955e6 0.0
0.0 0.0 0.0

-1.0915036081225973e7 1.9330273263041895e7 0.0
1.9330273263041895e7 -6.1351397022491194e7 0.0
0.0 0.0 0.0

-8.237219776357748e6 1.3279209329606388e7 0.0
1.3279209329606388e7 1.6741558099961456e7 0.0
0.0 0.0 0.0

1.915299855600799e6 2.2819912756864585e7 0.0
2.2819912756864585e7 1.1350228853987556e7 0.0
0.0 0.0 0.0

6.7680261416159505e6 3.7499506032149404e7 0.0
3.7499506032149404e7 -5.4943592235949095e6 0.0
0.0 0.0 0.0

-1.7229543649002854e6 2.2807009123446144e7 0.0
2.2807009123446144e7 -2.044771714191331e7 0.0
0.0 0.0 0.0

2.749878029671628e6 3.241808063988166e6 0.0
3.241808063988166e6 -3.277294909941769e7 0.0
0.0 0.0 0.0

-4.633167734086242e6 682054.5062315058 0.0
682054.5062315058 7.819469541840649e7 0.0
0.0 0.0 0.0

215151.8762652371 1.6063072328197671e7 0.0
1.6063072328197671e7 -3.5445697615738876e7 0.0
0.0 0.0 0.0

3.856916065941827e6 2.4621508697761375e7 0.0
2.4621508697761375e7 1.4228168978353899e7 0.0
0.0 0.0 0.0

-6.427836904175628e6 1.8351096505202383e7 0.0
1.8351096505202383e7 2.6672237454848237e7 0.0
0.0 0.0 0.0

1.2503693311835257e7 2.9587826574280296e7 0.0
2.9587826574280296e7 -4.418311285313057e6 0.0
0.0 0.0 0.0

2.06100925416689e6 6.222769757876735e6 0.0
6.222769757876735e6 -2.722881040790949e7 0.0
0.0 0.0 0.0

5.387155045406981e6 2.5681185667906716e7 0.0
2.5681185667906716e7 -2.0522468323902953e6 0.0
0.0 0.0 0.0

1.075442065926328e7 2.7458205816020712e7 0.0
2.7458205816020712e7 1.5232935999911055e7 0.0
0.0 0.0 0.0

1.6160670189281436e7 5.032945736717445e7 0.0
5.032945736717445e7 -7.978773782778023e6 0.0
0.0 0.0 0.0

4.751852773310374e6 2.791866318904485e7 0.0
2.791866318904485e7 -9.445827082153518e6 0.0
0.0 0.0 0.0

5.596336408066483e6 2.047351343612803e7 0.0
2.047351343612803e7 5.9123931201292306e7 0.0
0.0 0.0 0.0

2.2915371703829225e6 1.4274663279819973e6 0.0
1.4274663279819973e6 -4.27358930036997e7 0.0
0.0 0.0 0.0

1.9589983782145523e6 3.8661770440671526e7 0.0
3.8661770440671526e7 -2.8474837009201664e6 0.0
0.0 0.0 0.0

7.760493910514031e6 2.4332896742715713e7 0.0
2.4332896742715713e7 5.958179929677008e6 0.0
0.0 0.0 0.0

-8.311553471260846e7 2.4214563196660746e7 0.0
2.4214563196660746e7 789177.481059365 0.0
0.0 0.0 0.0

-7.315941550147545e6 3.102861081279456e7 0.0
3.102861081279456e7 8.902820172724586e6 0.0
0.0 0.0 0.0

-7.685596658285895e6 1.2388638034462798e7 0.0
1.2388638034462798e7 1.828808496829272e7 0.0
0.0 0.0 0.0

-739644.3307926282 1.9795591093201295e7 0.0
1.9795591093201295e7 -3.0220433719792545e7 0.0
0.0 0.0 0.0

-931782.3521114625 2.358196256148226e7 0.0
2.358196256148226e7 1.9104062853164762e7 0.0
0.0 0.0 0.0

-4.899577719336523e6 1.9468706784386408e7 0.0
1.9468706784386408e7 -4.183988522385656e7 0.0
0.0 0.0 0.0

1.9098711563494094e6 2.635460798276169e6 0.0
2.635460798276169e6 -5.607768438071058e7 0.0
0.0 0.0 0.0

7.360146455226266e7 2.4356944425200086e7 0.0
2.4356944425200086e7 6.093781009413794e6 0.0
0.0 0.0 0.0

-1.459458349976177e8 5.3782927543427564e7 0.0
5.3782927543427564e7 -3.137181373508153e7 0.0
0.0 0.0 0.0

1.8608545022788733e7 2.499006485838713e7 0.0
2.499006485838713e7 9.514635635314561e6 0.0
0.0 0.0 0.0

2.0723827910254318e6 2.8716862506234247e7 0.0
2.8716862506234247e7 -1.019986447055387e7 0.0
0.0 0.0 0.0

-2.965021594766357e6 2.5693781319610413e7 0.0
2.5693781319610413e7 1.6523402029524546e7 0.0
0.0 0.0 0.0

2.5166545599278826e6 3.220837974840785e6 0.0
3.220837974840785e6 -3.2027656781694476e7 0.0
0.0 0.0 0.0

-8.577936207040375e6 2.88212104239672e7 0.0
2.88212104239672e7 7.126777776676812e6 0.0
0.0 0.0 0.0

4.752367872939018e6 3.982598818324011e7 0.0
3.982598818324011e7 -2.3061714527093503e6 0.0
0.0 0.0 0.0

-4.754885561354705e6 2.096477677743741e7 0.0
2.096477677743741e7 -3.173449597012387e7 0.0
0.0 0.0 0.0

-309502.9159186175 2.8963771577351592e7 0.0
2.8963771577351592e7 -5.856781941953577e6 0.0
0.0 0.0 0.0

1.8647976066205958e6 5.873261007476572e6 0.0
5.873261007476572e6 -7.3444545300650075e6 0.0
0.0 0.0 0.0

1.4699859740539512e7 2.7061105673706163e7 0.0
2.7061105673706163e7 1.4928426070008088e7 0.0
0.0 0.0 0.0

-1.486705485665841e7 2.7308772983877152e7 0.0
2.7308772983877152e7 -3.2094017493546577e6 0.0
0.0 0.0 0.0

1.2301548330982719e6 2.3193128660436884e7 0.0
2.3193128660436884e7 -1.5814526314684985e7 0.0
0.0 0.0 0.0

-2.0818219418985557e6 2.966685682518189e7 0.0
2.966685682518189e7 1.4035843186037666e6 0.0
0.0 0.0 0.0

173185.69069539197 1.6228519632666098e7 0.0
1.6228519632666098e7 -3.3479905850915633e7 0.0
0.0 0.0 0.0

-5.818827746311899e6 1.971476034231582e6 0.0
1.971476034231582e6 6.370576342490968e7 0.0
0.0 0.0 0.0

607520.2798062423 2.0165438106337138e7 0.0
2.0165438106337138e7 -2.1628593483871855e7 0.0
0.0 0.0 0.0

5.782856574865136e6 2.4372682583855893e7 0.0
2.4372682583855893e7 889666.2330868273 0.0
0.0 0.0 0.0

-1.9536664814510506e7 2.3340094904833965e7 0.0
2.3340094904833965e7 -7.832638625154868e7 0.0
0.0 0.0 0.0

2.5205009320436493e6 7.175683876620687e6 0.0
7.175683876620687e6 -3.1680791523559086e7 0.0
0.0 0.0 0.0

984937.4704756616 2.2175152115950655e7 0.0
2.2175152115950655e7 -2.0975586230418243e7 0.0
0.0 0.0 0.0

-5.414146957955733e6 3.005872631848186e7 0.0
3.005872631848186e7 1.0450142386983652e7 0.0
0.0 0.0 0.0

49286.09354077128 3.4344811923973285e7 0.0
3.4344811923973285e7 -2.5438838685206673e6 0.0
0.0 0.0 0.0

-2.6202837952135066e6 2.720329050464753e7 0.0
2.720329050464753e7 1.2666442124458596e7 0.0
0.0 0.0 0.0

8.396735583204763e6 2.5170332092656232e7 0.0
2.5170332092656232e7 1.095374432615849e7 0.0
0.0 0.0 0.0

-1.0439629725492178e8 3.20735206413153e7 0.0
3.20735206413153e7 -4.03656331532488e6 0.0
0.0 0.0 0.0

-2.135999355946923e6 448288.2879454471 0.0
448288.2879454471 2.0213574315984575e6 0.0
0.0 0.0 0.0

-1.7575251877253263e6 2.096925680209423e7 0.0
2.096925680209423e7 -2.314569738386579e6 0.0
0.0 0.0 0.0

1.7634311844002593e7 2.5206688598332975e7 0.0
2.5206688598332975e7 5.438287227823706e6 0.0
0.0 0.0 0.0

-593777.1502405447 4.179136548311215e7 0.0
4.179136548311215e7 1.3287476393418934e6 0.0
0.0 0.0 0.0

-4.265764898837725e6 1.7412617513620086e7 0.0
1.7412617513620086e7 -5.130539704776614e7 0.0
0.0 0.0 0.0

-4.001497953307039e6 2.4884324830634903e7 0.0
2.4884324830634903e7 -9.58255956752521e6 0.0
0.0 0.0 0.0

6.111158290367963e6 2.9586780624824043e7 0.0
2.9586780624824043e7 -8.143536569101349e6 0.0
0.0 0.0 0.0

1.06798770989672e6 1.8317185211136024e7 0.0
1.8317185211136024e7 -1.8553452359617945e7 0.0
0.0 0.0 0.0

5.904452951376218e6 2.8603910731697496e7 0.0
2.8603910731697496e7 -7.93544980886028e6 0.0
0.0 0.0 0.0

1.1839525040121013e6 2.3088505766800135e7 0.0
2.3088505766800135e7 1.181355683752884e7 0.0
0.0 0.0 0.0

944900.8016910179 3.395703816967808e7 0.0
3.395703816967808e7 -1.9206558956590584e6 0.0
0.0 0.0 0.0

2.0029736445439123e6 1.0842600020266868e7 0.0
1.0842600020266868e7 -3.0617194795128584e7 0.0
0.0 0.0 0.0

1.785118223304592e6 2.8163724999608677e6 0.0
2.8163724999608677e6 -4.849790547857491e7 0.0
0.0 0.0 0.0

-2.0496164239256391e6 1.8993459269967678e6 0.0
1.8993459269967678e6 229582.58658778807 0.0
0.0 0.0 0.0

-1.0201248558403628e7 1.1029865103263739e6 0.0
1.1029865103263739e6 3.1393256639940175e6 0.0
0.0 0.0 0.0

4.983405905260823e6 2.4682726689688213e7 0.0
2.4682726689688213e7 1.723070324680371e7 0.0
0.0 0.0 0.0

3.6640641169238943e6 2.13335090009797e7 0.0
2.13335090009797e7 1.5769264998221988e7 0.0
0.0 0.0 0.0

915875.0153061091 2.2802688573642198e7 0.0
2.2802688573642198e7 1.1786686030362867e7 0.0
0.0 0.0 0.0

2.295966930742407e6 5.337575345724745e6 0.0
5.337575345724745e6 -2.006258658292729e7 0.0
0.0 0.0 0.0

5.579596940188717e6 2.7200177277943853e7 0.0
2.7200177277943853e7 -7.214935281548252e6 0.0
0.0 0.0 0.0

2.1294512081011217e6 4.383398429402616e6 0.0
4.383398429402616e6 -8.959057687236251e6 0.0
0.0 0.0 0.0

5.204997632667721e6 2.8685353744551994e7 0.0
2.8685353744551994e7 -8.834755825605195e6 0.0
0.0 0.0 0.0

-5.166770603945155e6 1.8763962355699167e7 0.0
1.8763962355699167e7 3.581772537163919e7 0.0
0.0 0.0 0.0

2.873105777584566e6 3.2631251388677616e7 0.0
3.2631251388677616e7 -5.324959589292635e6 0.0
0.0 0.0 0.0

7.537650657972416e6 3.8461036435693055e7 0.0
3.8461036435693055e7 -3.8389387774323253e6 0.0
0.0 0.0 0.0

1.8360340149760507e6 7.983988701178488e6 0.0
7.983988701178488e6 -3.290663327597474e7 0.0
0.0 0.0 0.0

1.8689788278520405e6 6.36405160888559e6 0.0
6.36405160888559e6 -3.3737182811609216e7 0.0
0.0 0.0 0.0

2.130384646361208e7 2.7477126317914836e7 0.0
2.7477126317914836e7 2.4867235771285063e6 0.0
0.0 0.0 0.0

3.0324187919239383e6 2.2254104399546564e7 0.0
2.2254104399546564e7 3.2397627881432667e7 0.0
0.0 0.0 0.0

524749.4194144523 2.092036754569553e7 0.0
2.092036754569553e7 -2.0137477527777445e7 0.0
0.0 0.0 0.0

-6.441580961782005e6 -1.5042992833485664e6 0.0
-1.5042992833485664e6 5.004971236470383e7 0.0
0.0 0.0 0.0

-537515.1353735577 3.9783168916480124e7 0.0
3.9783168916480124e7 1.0019687639363415e6 0.0
0.0 0.0 0.0

-6.927915666969197e6 1.7674231390924156e7 0.0
1.7674231390924156e7 3.3122261688661866e7 0.0
0.0 0.0 0.0

-8.94071448808507e6 -1.4452962367741854e6 0.0
-1.4452962367741854e6 2.271920994272709e7 0.0
0.0 0.0 0.0

90110.49477802822 2.068389178150125e7 0.0
2.068389178150125e7 -1.185765902693208e7 0.0
0.0 0.0 0.0

1.987760853165159e6 2.9176384985440844e6 0.0
2.9176384985440844e6 -4.6685451437713146e7 0.0
0.0 0.0 0.0

-5.702369840793527e6 3.512747533860039e7 0.0
3.512747533860039e7 6.181963791280998e6 0.0
0.0 0.0 0.0

377620.3157616779 2.8595982564117525e7 0.0
2.8595982564117525e7 -5.351790809220662e6 0.0
0.0 0.0 0.0

110621.13177458197 1.5610403408470793e7 0.0
1.5610403408470793e7 -3.553780481548012e7 0.0
0.0 0.0 0.0

2.238767249051505e7 2.456788363966682e7 0.0
2.456788363966682e7 8.96700408922636e6 0.0
0.0 0.0 0.0

-6.547038736686864e6 3.363653795654104e7 0.0
3.363653795654104e7 7.289340418179404e6 0.0
0.0 0.0 0.0

-7.418000164590385e6 -68184.81839026259 0.0
-68184.81839026259 4.7762722701366775e7 0.0
0.0 0.0 0.0

-7.717740795525765e6 -2.2767212555011446e6 0.0
-2.2767212555011446e6 3.673902181568441e7 0.0
0.0 0.0 0.0

7.700525518374089e6 2.4809751942474667e7 0.0
2.4809751942474667e7 1.5438369363822192e6 0.0
0.0 0.0 0.0

2.3359901746204398e6 2.8472333001859933e7 0.0
2.8472333001859933e7 -9.838452551432507e6 0.0
0.0 0.0 0.0

2.905122031895887e6 2.924909594041729e7 0.0
2.924909594041729e7 -9.317757402284106e6 0.0
0.0 0.0 0.0

-3.440275520105213e6 8.355924282658377e6 0.0
8.355924282658377e6 7.033621799943228e7 0.0
0.0 0.0 0.0

3.1669185269755553e6 2.4141052212315626e6 0.0
2.4141052212315626e6 -1.4687641204903455e7 0.0
0.0 0.0 0.0

-1.0998242829296894e7 2.731966669383663e7 0.0
2.731966669383663e7 -3.3574809316847734e6 0.0
0.0 0.0 0.0

-1.8804177040062565e7 2.749781200690976e7 0.0
2.749781200690976e7 -1.0883912288054021e7 0.0
0.0 0.0 0.0

-3.865449303049935e7 3.365766917542351e7 0.0
3.365766917542351e7 -8.63584544921455e6 0.0
0.0 0.0 0.0

2.291586473340391e6 4.04956354047274e7 0.0
4.04956354047274e7 -700880.529705457 0.0
0.0 0.0 0.0

832806.1049708414 2.1059423311345067e7 0.0
2.1059423311345067e7 1.185416220403676e6 0.0
0.0 0.0 0.0

-6.9087435348872915e6 540432.1741404871 0.0
540432.1741404871 5.057009710554711e7 0.0
0.0 0.0 0.0

1.8107155282064978e7 2.700519969468488e7 0.0
2.700519969468488e7 2.293325292910425e6 0.0
0.0 0.0 0.0

598277.8660485707 2.30398163357037e7 0.0
2.30398163357037e7 -1.263823285738473e7 0.0
0.0 0.0 0.0

-7.98200509170931e6 1.2150727356571641e6 0.0
1.2150727356571641e6 3.9203507425137565e7 0.0
0.0 0.0 0.0

-3.444371877593411e6 2.7830743064900264e7 0.0
2.7830743064900264e7 1.1214689731409546e7 0.0
0.0 0.0 0.0

-3.9233869425701457e6 2.9650003323075578e7 0.0
2.9650003323075578e7 9.841041010687832e6 0.0
0.0 0.0 0.0

-7.366767815604709e6 -54116.67755823964 0.0
-54116.67755823964 1.0668029995404229e7 0.0
0.0 0.0 0.0

1.9682583822072558e6 5.355210166268093e6 0.0
5.355210166268093e6 -3.5219924073255435e7 0.0
0.0 0.0 0.0

-1.070783806698896e6 9.54184761086464e6 0.0
9.54184761086464e6 -6.3337984309895106e7 0.0
0.0 0.0 0.0

1.0776915627055485e7 2.683850280393462e7 0.0
2.683850280393462e7 1.5545896537394438e7 0.0
0.0 0.0 0.0

2.438597962502947e6 4.467686111813717e6 0.0
4.467686111813717e6 -1.2931842523529446e7 0.0
0.0 0.0 0.0

2.856019907922481e7 3.797772479179656e7 0.0
3.797772479179656e7 -7.432956872074693e6 0.0
0.0 0.0 0.0

2.7782225045277514e6 4.52440078503364e6 0.0
4.52440078503364e6 -3.3724013599569455e7 0.0
0.0 0.0 0.0

3.0821727204138115e6 5.13500697759171e6 0.0
5.13500697759171e6 -2.260075653197106e7 0.0
0.0 0.0 0.0

2.3477116360973436e6 4.827355824793357e6 0.0
4.827355824793357e6 -2.9532768357861787e7 0.0
0.0 0.0 0.0

1.3064304238048445e6 2.2278207287152626e7 0.0
2.2278207287152626e7 3.430955753682206e6 0.0
0.0 0.0 0.0

2.4978500937839467e6 2.1487837392471526e7 0.0
2.1487837392471526e7 1.1808009893534046e7 0.0
0.0 0.0 0.0

-546807.1693466306 1.8516462377154563e7 0.0
1.8516462377154563e7 -3.200245616453333e7 0.0
0.0 0.0 0.0

2.7369081525191996e7 3.91365010959505e7 0.0
3.91365010959505e7 -5.951296788028136e6 0.0
0.0 0.0 0.0

-7.948476787940882e6 -249594.24255190953 0.0
-249594.24255190953 3.910170532260387e7 0.0
0.0 0.0 0.0

-3.524396642962007e6 2.8007439169873577e7 0.0
2.8007439169873577e7 1.305643702363263e7 0.0
0.0 0.0 0.0

-2.032462694995201e6 3.934251860075679e7 0.0
3.934251860075679e7 349500.67755875643 0.0
0.0 0.0 0.0

2.2747604113973705e6 3.27552489493785e7 0.0
3.27552489493785e7 -4.519467316415169e6 0.0
0.0 0.0 0.0

-8.143869033154376e6 -1.1723394006749042e6 0.0
-1.1723394006749042e6 2.8552544042252626e7 0.0
0.0 0.0 0.0

-9.978003441918073e6 985352.4098256351 0.0
985352.4098256351 2.0758161868418086e7 0.0
0.0 0.0 0.0

4.342162208447539e6 2.2456084283211578e7 0.0
2.2456084283211578e7 3.127352852177387e7 0.0
0.0 0.0 0.0

-3.830524177107089e6 -1.9866731008507258e6 0.0
-1.9866731008507258e6 5.904722148691378e6 0.0
0.0 0.0 0.0

1.100103785918877e7 3.009777983158222e7 0.0
3.009777983158222e7 -5.354823874414519e6 0.0
0.0 0.0 0.0

1.7549483582603857e6 2.6982855017683838e7 0.0
2.6982855017683838e7 -1.2037782270667618e7 0.0
0.0 0.0 0.0

450188.8877030164 2.199991309183232e7 0.0
2.199991309183232e7 -2.2380049209663503e7 0.0
0.0 0.0 0.0

-1.2120388087460198e6 2.731350146819679e7 0.0
2.731350146819679e7 1.1779153839463647e6 0.0
0.0 0.0 0.0

-3.288728388732543e6 2.683619754856101e7 0.0
2.683619754856101e7 1.2001163591445422e7 0.0
0.0 0.0 0.0

-6.886133052224088e6 1.7974595397563577e7 0.0
1.7974595397563577e7 2.8680221910737343e7 0.0
0.0 0.0 0.0

-2.525314289999874e7 5.0161197006972656e7 0.0
5.0161197006972656e7 7.0179400912718065e6 0.0
0.0 0.0 0.0

2.6940703171415227e6 4.386165709345204e6 0.0
4.386165709345204e6 -1.3231813099603254e7 0.0
0.0 0.0 0.0

1.1830163203269402e6 2.1410578753947396e7 0.0
2.1410578753947396e7 -1.8308959321102772e7 0.0
0.0 0.0 0.0

1.0353563281628154e6 4.217063021148532e6 0.0
4.217063021148532e6 -6.824158477192216e7 0.0
0.0 0.0 0.0

5.8093498898559995e6 2.9263273827684343e7 0.0
2.9263273827684343e7 -8.68101307398967e6 0.0
0.0 0.0 0.0

-6.263541441773646e6 1.5372887055775663e7 0.0
1.5372887055775663e7 1.7027590194222063e7 0.0
0.0 0.0 0.0

-1.1445786950733563e7 1.8945584470875703e7 0.0
1.8945584470875703e7 -4.450602461610944e7 0.0
0.0 0.0 0.0

4.319368425748673e7 2.6029808242484353e7 0.0
2.6029808242484353e7 9.200033942795848e6 0.0
0.0 0.0 0.0

-9.889194190535381e6 4.584626980183501e6 0.0
4.584626980183501e6 2.2585337025314394e7 0.0
0.0 0.0 0.0

1.4298028370969538e7 2.5042698006289646e7 0.0
2.5042698006289646e7 1.1100829842725743e7 0.0
0.0 0.0 0.0

8.49273360239628e6 1.917906676419888e7 0.0
1.917906676419888e7 3.2027371744986393e7 0.0
0.0 0.0 0.0

-9.07430573870381e6 1.8860854441563394e7 0.0
1.8860854441563394e7 -2.9441820838648465e7 0.0
0.0 0.0 0.0

6.2837390219663745e6 4.281699062917138e7 0.0
4.281699062917138e7 -4.316295854422052e6 0.0
0.0 0.0 0.0

509273.8241732619 2.8763061122104198e7 0.0
2.8763061122104198e7 -8.350150066962124e6 0.0
0.0 0.0 0.0

-4.131881737964631e6 2.0798331208728336e7 0.0
2.0798331208728336e7 2.2262872385368157e7 0.0
0.0 0.0 0.0

-2.1590119559447616e6 9.533274717841795e6 0.0
9.533274717841795e6 -8.947377636068603e7 0.0
0.0 0.0 0.0

-1.0493059476232667e7 2.2626926105962167e6 0.0
2.2626926105962167e6 1.954537377257902e7 0.0
0.0 0.0 0.0

-1.9207463798807717e6 2.2616931576000642e7 0.0
2.2616931576000642e7 -1.0151289239660183e7 0.0
0.0 0.0 0.0

1.3662236948413448e7 2.6136752661526106e7 0.0
2.6136752661526106e7 1.3902571479896318e7 0.0
0.0 0.0 0.0

4.575526553207318e6 1.5431580365788508e7 0.0
1.5431580365788508e7 7.502971951980248e6 0.0
0.0 0.0 0.0

-3.2424051670552623e6 2.5741767189542193e7 0.0
2.5741767189542193e7 1.736190440750546e7 0.0
0.0 0.0 0.0

-3.14306496765776e6 3.21784731965783e7 0.0
3.21784731965783e7 6.138588354775192e6 0.0
0.0 0.0 0.0

-2.1903668311161675e7 5.112008333930432e7 0.0
5.112008333930432e7 8.406770700715547e6 0.0
0.0 0.0 0.0

790422.967548423 8.944843116194827e6 0.0
8.944843116194827e6 -6.963520709117668e6 0.0
0.0 0.0 0.0

-3.69211051991136e6 3.1804956820216667e7 0.0
3.1804956820216667e7 5.5913370591305e6 0.0
0.0 0.0 0.0

439585.3722964837 2.739460824769663e7 0.0
2.739460824769663e7 -8.198027113108916e6 0.0
0.0 0.0 0.0

2.0083389105974525e7 2.6371925529941592e7 0.0
2.6371925529941592e7 1.3383775757400095e7 0.0
0.0 0.0 0.0

1.2094504513895903e6 3.141486996200325e7 0.0
3.141486996200325e7 -6.358815892612684e6 0.0
0.0 0.0 0.0

2.0581784454856864e6 4.498738888559661e6 0.0
4.498738888559661e6 -1.013439467841589e7 0.0
0.0 0.0 0.0

809763.2325832713 2.3475167220114455e7 0.0
2.3475167220114455e7 -1.6289235281100774e7 0.0
0.0 0.0 0.0

-9.554473188008873e6 4.224131924294059e6 0.0
4.224131924294059e6 2.9969761774892747e7 0.0
0.0 0.0 0.0

2.6579674196741786e6 6.240603242245991e6 0.0
6.240603242245991e6 -3.2961192047567174e7 0.0
0.0 0.0 0.0

954212.6746110395 5.199693847476204e6 0.0
5.199693847476204e6 -7.397629457247879e7 0.0
0.0 0.0 0.0

4.654374618555636e6 2.587836255522169e7 0.0
2.587836255522169e7 1.525632493112878e7 0.0
0.0 0.0 0.0

1.044848453616403e6 2.334202024711493e7 0.0
2.334202024711493e7 -1.9288341687221285e7 0.0
0.0 0.0 0.0

-4.673824561317516e6 2.1154014142437745e7 0.0
2.1154014142437745e7 1.996019259410841e7 0.0
0.0 0.0 0.0

2.966610575719565e6 1.8280008435906146e6 0.0
1.8280008435906146e6 -2.8195236588115416e7 0.0
0.0 0.0 0.0

1.2576338341606734e6 1.8569232029493704e7 0.0
1.8569232029493704e7 -2.4241919737931147e7 0.0
0.0 0.0 0.0

-183953.2961676102 2.1136409114879653e7 0.0
2.1136409114879653e7 -2.383520859403236e7 0.0
0.0 0.0 0.0

-4.1645797359818267e6 2.2296742261188317e7 0.0
2.2296742261188317e7 1.8935330797088373e7 0.0
0.0 0.0 0.0

1.863199520655567e6 1.033980997816884e7 0.0
1.033980997816884e7 4.509198039191789e6 0.0
0.0 0.0 0.0

-8.614395214437552e6 573582.276594969 0.0
573582.276594969 3.2369272995245997e7 0.0
0.0 0.0 0.0

461154.4276187029 2.2377442691431027e7 0.0
2.2377442691431027e7 -2.031926936260219e7 0.0
0.0 0.0 0.0

-6.3895552116748635e6 1.405967043526022e7 0.0
1.405967043526022e7 1.7994080131459963e7 0.0
0.0 0.0 0.0

1.850157860273166e7 2.3917535435921796e7 0.0
2.3917535435921796e7 1.1994454547965065e7 0.0
0.0 0.0 0.0

1.962853092173765e6 2.7798522217094436e7 0.0
2.7798522217094436e7 -1.1250087119132582e7 0.0
0.0 0.0 0.0

2.2759631063873246e6 4.497336381816306e6 0.0
4.497336381816306e6 -8.612098462231433e6 0.0
0.0 0.0 0.0

-6.578206794029683e6 7.824322817639632e6 0.0
7.824322817639632e6 5.1146345269239634e7 0.0
0.0 0.0 0.0

-2.0757960128876462e6 3.547587452959386e7 0.0
3.547587452959386e7 944201.8735896684 0.0
0.0 0.0 0.0

-1.1551305923545167e7 3.6788392850637905e7 0.0
3.6788392850637905e7 5.951903836579993e6 0.0
0.0 0.0 0.0

-1.1406780565080345e7 5.974676364842275e6 0.0
5.974676364842275e6 1.967312848715922e7 0.0
0.0 0.0 0.0

-8.152671567266976e6 3.0772287466528635e6 0.0
3.0772287466528635e6 4.106737546963884e7 0.0
0.0 0.0 0.0

-332469.36128901504 1.637289663587533e7 0.0
1.637289663587533e7 -3.5873147579728626e7 0.0
0.0 0.0 0.0

-3.136846600892131e6 2.2910960063381273e7 0.0
2.2910960063381273e7 1.9582531306642167e7 0.0
0.0 0.0 0.0

-6.567427872398678e6 9.146062406779738e6 0.0
9.146062406779738e6 5.182637482860462e7 0.0
0.0 0.0 0.0

-8.012199408006044e7 2.51134327874602e7 0.0
2.51134327874602e7 2.1986804140112475e6 0.0
0.0 0.0 0.0

772122.7220313866 1.5270564574572375e7 0.0
1.5270564574572375e7 -2.156146057127895e7 0.0
0.0 0.0 0.0

1.162566789570433e6 2.227423551475915e7 0.0
2.227423551475915e7 533296.5907145471 0.0
0.0 0.0 0.0

2.132190193660544e6 1.3637269506876322e6 0.0
1.3637269506876322e6 -4.568617486648125e7 0.0
0.0 0.0 0.0

6.835613679264875e6 2.213614435550587e7 0.0
2.213614435550587e7 1.76769938143569e7 0.0
0.0 0.0 0.0

-7.686282625775898e6 9.466042133445945e6 0.0
9.466042133445945e6 4.812543758205998e7 0.0
0.0 0.0 0.0

774445.1816899073 7.440936754041441e6 0.0
7.440936754041441e6 -9.328311310642626e6 0.0
0.0 0.0 0.0

529982.3049300769 2.744481160008908e7 0.0
2.744481160008908e7 -8.206056984988705e6 0.0
0.0 0.0 0.0

-1.8981751066161215e6 3.1141482234100696e7 0.0
3.1141482234100696e7 646652.6833520182 0.0
0.0 0.0 0.0

-2.3627122381752804e6 2.5747378040216226e7 0.0
2.5747378040216226e7 1.2036983443006262e7 0.0
0.0 0.0 0.0

-8.045883648349215e6 3.6018287895969726e7 0.0
3.6018287895969726e7 5.854479667134287e6 0.0
0.0 0.0 0.0

-2.159572951747224e6 2.49649140156865e7 0.0
2.49649140156865e7 1.1961943823227496e6 0.0
0.0 0.0 0.0

-6.383362128320452e6 1.3167477086680883e6 0.0
1.3167477086680883e6 5.710168541303809e7 0.0
0.0 0.0 0.0

4.906945599756476e6 2.1970834725810003e7 0.0
2.1970834725810003e7 2.8675781282292284e7 0.0
0.0 0.0 0.0

1.244558553111773e6 2.1062353101247337e7 0.0
2.1062353101247337e7 -2.02314686204774e7 0.0
0.0 0.0 0.0

-2.3111386812519543e7 3.132751411120853e7 0.0
3.132751411120853e7 -1.066246050450782e7 0.0
0.0 0.0 0.0

-8.431863418635257e6 -1.1321519706850771e6 0.0
-1.1321519706850771e6 1.5263410757551001e7 0.0
0.0 0.0 0.0

-1.4161525996576352e6 3.8427210681643404e7 0.0
3.8427210681643404e7 1.9214335025745e6 0.0
0.0 0.0 0.0

375710.2412951207 2.1325766456246667e7 0.0
2.1325766456246667e7 -2.0758480372540362e6 0.0
0.0 0.0 0.0

-4.997660277302589e6 1.976691380781613e7 0.0
1.976691380781613e7 3.362566833755562e7 0.0
0.0 0.0 0.0

1.9525517478428409e6 1.3357320691991024e7 0.0
1.3357320691991024e7 -2.8984534687565263e7 0.0
0.0 0.0 0.0

-6.028068194486966e6 1.919805167943402e7 0.0
1.919805167943402e7 2.9887273111940347e7 0.0
0.0 0.0 0.0

1.7142916548756137e6 4.641058674667095e6 0.0
4.641058674667095e6 -8.293199008876716e6 0.0
0.0 0.0 0.0

2.4788303142319825e6 7.917776875031099e6 0.0
7.917776875031099e6 -3.243502534111159e7 0.0
0.0 0.0 0.0

-3.8609174400267866e6 2.480721021424754e7 0.0
2.480721021424754e7 -1.1348013439342663e7 0.0
0.0 0.0 0.0

-1.7104405111412865e6 2.662420431134048e7 0.0
2.662420431134048e7 3.4108541854425147e6 0.0
0.0 0.0 0.0

-1.3723759838159387e6 3.1182201700777933e7 0.0
3.1182201700777933e7 2.396848417721566e6 0.0
0.0 0.0 0.0

6.209137753263452e6 2.8408923976347823e7 0.0
2.8408923976347823e7 -8.392187440694336e6 0.0
0.0 0.0 0.0

2.8711190146657545e6 5.253407671323183e6 0.0
5.253407671323183e6 -2.9421922644381233e7 0.0
0.0 0.0 0.0

1.1010990025634414e6 4.586323404645945e6 0.0
4.586323404645945e6 -5.076089530695798e6 0.0
0.0 0.0 0.0

1.6617332210514545e6 6.993892972157499e6 0.0
6.993892972157499e6 -3.456462667185694e7 0.0
0.0 0.0 0.0

1.7405739423387037e6 7.378927900334752e6 0.0
7.378927900334752e6 -9.689461617066167e6 0.0
0.0 0.0 0.0

2.4788491074240692e7 2.413655197662025e7 0.0
2.413655197662025e7 1.0611293007817956e7 0.0
0.0 0.0 0.0

-3.183547670777266e6 4.301726136314843e7 0.0
4.301726136314843e7 2.76191187938884e6 0.0
0.0 0.0 0.0

-7.189018452820215e6 -429.0973884973476 0.0
-429.0973884973476 4.577202467254512e7 0.0
0.0 0.0 0.0

420418.98183202744 9.459134819929982e6 0.0
9.459134819929982e6 -5.832801478854913e7 0.0
0.0 0.0 0.0

5.1480049451086195e6 2.939277716278179e7 0.0
2.939277716278179e7 -8.880882205551788e6 0.0
0.0 0.0 0.0

-2.957701421327658e6 2.467630574950309e7 0.0
2.467630574950309e7 -1.296166082004608e7 0.0
0.0 0.0 0.0

1.0464704374022596e6 8.350934878384425e6 0.0
8.350934878384425e6 -4.357811777842894e7 0.0
0.0 0.0 0.0

-8.70430965880293e6 4.234535944797885e7 0.0
4.234535944797885e7 5.380070236955037e6 0.0
0.0 0.0 0.0

1.115653432502908e7 2.6433353906047948e7 0.0
2.6433353906047948e7 1.3822385189636871e7 0.0
0.0 0.0 0.0

-4.820256139145924e7 4.7253361574745744e7 0.0
4.7253361574745744e7 7.193132502559248e6 0.0
0.0 0.0 0.0

-714561.4544856399 2.2428059887367718e7 0.0
2.2428059887367718e7 2.706641969771201e7 0.0
0.0 0.0 0.0

1.6664496476803012e6 1.2080023612817748e7 0.0
1.2080023612817748e7 -2.987671278021168e7 0.0
0.0 0.0 0.0

9.735043663441694e7 3.095768864393954e7 0.0
3.095768864393954e7 1.3368447113894746e7 0.0
0.0 0.0 0.0

7.913927226036151e6 2.372209155915376e7 0.0
2.372209155915376e7 2.014967826292306e7 0.0
0.0 0.0 0.0

-9.780355053020377e6 5.438383678284894e6 0.0
5.438383678284894e6 3.0970193914522048e7 0.0
0.0 0.0 0.0

2.8399190083511295e6 2.2118116405360702e7 0.0
2.2118116405360702e7 1.2404403738591084e7 0.0
0.0 0.0 0.0

-4.060649750823386e6 2.029884175191806e7 0.0
2.029884175191806e7 -3.071727619600205e7 0.0
0.0 0.0 0.0

1.2780805719831854e7 2.964662329202919e7 0.0
2.964662329202919e7 -4.311764555388986e6 0.0
0.0 0.0 0.0

-2.3806925174223855e6 2.634603455108609e7 0.0
2.634603455108609e7 9.732173497478452e6 0.0
0.0 0.0 0.0

-7.783397468271434e6 7.8492112943788385e6 0.0
7.8492112943788385e6 4.705858878786647e7 0.0
0.0 0.0 0.0

-7.89167388605949e6 4.338364164722194e7 0.0
4.338364164722194e7 3.987828625253717e6 0.0
0.0 0.0 0.0

-9.323709236568123e6 2.7737791151141293e7 0.0
2.7737791151141293e7 5.241365649342339e6 0.0
0.0 0.0 0.0

-2.148295190222653e6 3.069825065938395e7 0.0
3.069825065938395e7 1.6003634617651976e6 0.0
0.0 0.0 0.0

5.328095753879297e6 3.579616516927256e7 0.0
3.579616516927256e7 -4.7197846881981455e6 0.0
0.0 0.0 0.0

-2.0294535304285558e6 3.46514637423913e7 0.0
3.46514637423913e7 893179.144971015 0.0
0.0 0.0 0.0

189847.88647460862 2.25954847915018e7 0.0
2.25954847915018e7 343262.1420554327 0.0
0.0 0.0 0.0

1.0419908800065946e6 2.3468579644059826e7 0.0
2.3468579644059826e7 2.3575942623557597e7 0.0
0.0 0.0 0.0

3.430368442543652e6 2.4902271896634802e7 0.0
2.4902271896634802e7 1.2144639506706614e6 0.0
0.0 0.0 0.0

-1.1380008124262203e7 2.017309634663775e7 0.0
2.017309634663775e7 -5.443885873012437e7 0.0
0.0 0.0 0.0

133510.06545607653 2.253524053767212e7 0.0
2.253524053767212e7 2.9627671686374545e6 0.0
0.0 0.0 0.0

-2.1197057652357672e6 2.6603196138728432e7 0.0
2.6603196138728432e7 1.778074589658753e6 0.0
0.0 0.0 0.0

7.126444571292977e6 1.815659244636375e7 0.0
1.815659244636375e7 1.5698680057478243e7 0.0
0.0 0.0 0.0

1.5845440046990765e6 2.5284818882487074e7 0.0
2.5284818882487074e7 -1.4142379256828412e7 0.0
0.0 0.0 0.0

656631.2114042174 1.8080944401839763e7 0.0
1.8080944401839763e7 -2.5747456201170262e7 0.0
0.0 0.0 0.0

2.8015370903225206e6 4.495602642016344e6 0.0
4.495602642016344e6 -3.0822229467613317e7 0.0
0.0 0.0 0.0

6.596775505644551e6 2.3296375276574597e7 0.0
2.3296375276574597e7 1.6015289484252287e7 0.0
0.0 0.0 0.0

-1.225741327496931e6 2.4842806046573583e7 0.0
2.4842806046573583e7 1.5556984545593813e7 0.0
0.0 0.0 0.0

-5.713741068378257e6 1.9577011427487485e7 0.0
1.9577011427487485e7 3.000900055810491e7 0.0
0.0 0.0 0.0

-2.0932351307427827e6 2.542020281640692e7 0.0
2.542020281640692e7 1.108605227365609e7 0.0
0.0 0.0 0.0

-5.571539842163339e6 2.502109546665228e7 0.0
2.502109546665228e7 -1.1727778983083488e7 0.0
0.0 0.0 0.0

-6.009338593187997e6 1.9898968581368454e7 0.0
1.9898968581368454e7 2.817318987980833e7 0.0
0.0 0.0 0.0

-5.859418886771707e6 1.919098012581984e7 0.0
1.919098012581984e7 3.345482738145893e7 0.0
0.0 0.0 0.0

-7.392522540327564e6 1.813313428609964e7 0.0
1.813313428609964e7 2.6517915303882424e7 0.0
0.0 0.0 0.0

-8.403733254770223e6 -813299.5582304001 0.0
-813299.5582304001 3.20604141737204e7 0.0
0.0 0.0 0.0

-2.78085362676455e6 2.8153534565736804e7 0.0
2.8153534565736804e7 1.1386522676732887e7 0.0
0.0 0.0 0.0

-5.265054022211645e6 1.902669883258853e7 0.0
1.902669883258853e7 -4.575685755436596e7 0.0
0.0 0.0 0.0

-1.0246162617698945e6 1.8416102189040348e7 0.0
1.8416102189040348e7 -3.1901306839889385e7 0.0
0.0 0.0 0.0

-3.849549593118305e7 3.635627727434498e7 0.0
3.635627727434498e7 -1.4329681698255893e7 0.0
0.0 0.0 0.0

-5.655581743518699e6 6.457994096767288e6 0.0
6.457994096767288e6 5.815440580641056e7 0.0
0.0 0.0 0.0

-281377.38664859533 1.9144816798351828e7 0.0
1.9144816798351828e7 -2.982141543647922e7 0.0
0.0 0.0 0.0

-343727.72254924744 3.577340756265953e7 0.0
3.577340756265953e7 -1.4649153170797217e6 0.0
0.0 0.0 0.0

4.5424718041142e6 2.182765847096242e7 0.0
2.182765847096242e7 2.213273369834369e7 0.0
0.0 0.0 0.0

-8.147378442993345e6 -3.1367384135997677e6 0.0
-3.1367384135997677e6 2.7734253513071753e7 0.0
0.0 0.0 0.0

-398185.7658460954 2.229465259268958e7 0.0
2.229465259268958e7 -2.468824241224464e6 0.0
0.0 0.0 0.0

-498944.41475495184 2.457068246341824e7 0.0
2.457068246341824e7 -1.0549232667531865e7 0.0
0.0 0.0 0.0

-1.138809267448547e7 1.0205787096918935e7 0.0
1.0205787096918935e7 2.1177894141378824e7 0.0
0.0 0.0 0.0

1.5591959331581034e6 1.1930930725382187e6 0.0
1.1930930725382187e6 -5.823916256998593e7 0.0
0.0 0.0 0.0

-277454.9084049128 1.1931345521719156e7 0.0
1.1931345521719156e7 -1.0605452568149807e7 0.0
0.0 0.0 0.0

-9.378621620135233e6 4.333189599311206e6 0.0
4.333189599311206e6 3.7865819276124686e7 0.0
0.0 0.0 0.0

2.407662176972653e6 2.5925711042593285e7 0.0
2.5925711042593285e7 -1.3630537211165296e7 0.0
0.0 0.0 0.0

8.721033205890652e6 2.1039526966434103e7 0.0
2.1039526966434103e7 4.1438680678844795e7 0.0
0.0 0.0 0.0

-262224.79842525325 1.1453853125171412e7 0.0
1.1453853125171412e7 -5.15637466321885e6 0.0
0.0 0.0 0.0

1.171960452221842e7 2.6460994524347275e7 0.0
2.6460994524347275e7 1.57409435475154e7 0.0
0.0 0.0 0.0

-4.058152966889994e6 4.411223022020854e7 0.0
4.411223022020854e7 3.051457034059616e6 0.0
0.0 0.0 0.0

-1.0654780677101199e7 5.765167848215285e6 0.0
5.765167848215285e6 2.767387152421433e7 0.0
0.0 0.0 0.0

1.9199483250217503e6 2.239667986279945e7 0.0
2.239667986279945e7 2.6484745366267413e7 0.0
0.0 0.0 0.0

1.0562434380032383e6 1.2452131866787257e7 0.0
1.2452131866787257e7 -3.04541330623838e7 0.0
0.0 0.0 0.0

-2.6363612845217012e7 3.2111143773046218e7 0.0
3.2111143773046218e7 913223.1707833298 0.0
0.0 0.0 0.0

-8.840966112693822e6 -1.4180165267581525e6 0.0
-1.4180165267581525e6 1.9238845724621516e7 0.0
0.0 0.0 0.0

-1.5377318406462692e7 2.6930669662235316e7 0.0
2.6930669662235316e7 -1.0496222353235036e7 0.0
0.0 0.0 0.0

4.369451250934905e7 2.7815437121587202e7 0.0
2.7815437121587202e7 1.0064838255135452e7 0.0
0.0 0.0 0.0

-91063.94213780155 2.7609249085753646e7 0.0
2.7609249085753646e7 -8.100044818512636e6 0.0
0.0 0.0 0.0

1.7739223744925037e6 1.2797039320971847e7 0.0
1.2797039320971847e7 -2.818196707015048e7 0.0
0.0 0.0 0.0

-4.2172019463057155e6 2.835107238704098e7 0.0
2.835107238704098e7 1.258295333419309e7 0.0
0.0 0.0 0.0

-5.562695296265248e6 1.875545014419286e6 0.0
1.875545014419286e6 6.481642947151282e7 0.0
0.0 0.0 0.0

-5.802682403043294e6 2.47203524394102e7 0.0
2.47203524394102e7 -1.6910634912106153e7 0.0
0.0 0.0 0.0

-1.5388126093069639e6 3.931940238884433e7 0.0
3.931940238884433e7 2.0071862547004484e6 0.0
0.0 0.0 0.0

-3.3730015177768003e6 1.719356971202153e7 0.0
1.719356971202153e7 -4.4586967948958084e7 0.0
0.0 0.0 0.0

65531.255532654 2.2262218644509204e7 0.0
2.2262218644509204e7 -2.223771174756592e7 0.0
0.0 0.0 0.0

-38819.69079453591 2.1403595719777644e7 0.0
2.1403595719777644e7 -2.4156569388734397e7 0.0
0.0 0.0 0.0

-5.95249465692598e6 1.5920617508090531e7 0.0
1.5920617508090531e7 4.177034614495611e7 0.0
0.0 0.0 0.0

-2.6198925467816642e6 2.6810877227625314e7 0.0
2.6810877227625314e7 1.0202528699423661e7 0.0
0.0 0.0 0.0

-4.726805463885978e6 1.376320966069369e7 0.0
1.376320966069369e7 1.1680683700263304e8 0.0
0.0 0.0 0.0

2.98112795668976e6 1.391198532432448e7 0.0
1.391198532432448e7 -1.1683749102585562e8 0.0
0.0 0.0 0.0

-2.1950000511240937e7 3.1487480754456256e7 0.0
3.1487480754456256e7 -1.4450088623358306e7 0.0
0.0 0.0 0.0

-1.6834736698572002e6 2.385789154693189e7 0.0
2.385789154693189e7 1.6745374212677427e7 0.0
0.0 0.0 0.0

-3.1999422111503575e7 3.2774388878350098e7 0.0
3.2774388878350098e7 -5.400199920939812e6 0.0
0.0 0.0 0.0

-8.764555335456735e6 -1.3513928651873602e6 0.0
-1.3513928651873602e6 2.2891882766478702e7 0.0
0.0 0.0 0.0

-5.496804221009947e6 2.0946881220439885e7 0.0
2.0946881220439885e7 2.4890452142304555e7 0.0
0.0 0.0 0.0

-1.723053513496318e7 2.8579403193414148e7 0.0
2.8579403193414148e7 -8.428120779404238e6 0.0
0.0 0.0 0.0

-8.363787172466572e6 5.603722446465757e6 0.0
5.603722446465757e6 4.022050511291324e7 0.0
0.0 0.0 0.0

4.092685062469899e7 2.5028037408218604e7 0.0
2.5028037408218604e7 9.123855990386058e6 0.0
0.0 0.0 0.0

2.5092385211140877e6 2.1939984102943566e7 0.0
2.1939984102943566e7 3.1949278088056825e7 0.0
0.0 0.0 0.0

-3.0285216658039177e6 2.2582608325219948e7 0.0
2.2582608325219948e7 1.9314636523596186e7 0.0
0.0 0.0 0.0

-3.082792788553778e7 4.638357848767603e7 0.0
4.638357848767603e7 9.88213747032259e6 0.0
0.0 0.0 0.0

6.416490703687397e6 2.548356097278257e7 0.0
2.548356097278257e7 7.117590244082315e6 0.0
0.0 0.0 0.0

4.65331928352002e6 2.4241212389877252e7 0.0
2.4241212389877252e7 -730671.186518241 0.0
0.0 0.0 0.0

-5.320745162642499e6 3.008824043767107e7 0.0
3.008824043767107e7 1.0492641655641982e7 0.0
0.0 0.0 0.0

-1.0115578592458071e7 2.6553536938642524e7 0.0
2.6553536938642524e7 -917559.7479066662 0.0
0.0 0.0 0.0

-1.361563444190933e6 2.2543523769343827e7 0.0
2.2543523769343827e7 -2.6521125913784467e6 0.0
0.0 0.0 0.0

4.558933718751426e6 2.524806076091835e7 0.0
2.524806076091835e7 -2.946643650838321e6 0.0
0.0 0.0 0.0

5.783048355492789e6 2.513797308783271e7 0.0
2.513797308783271e7 1.6073808737063771e7 0.0
0.0 0.0 0.0

7.370972221358386e6 4.101018541081662e7 0.0
4.101018541081662e7 -2.9626225619654427e6 0.0
0.0 0.0 0.0

-3.382317104674017e6 2.7800180428089235e7 0.0
2.7800180428089235e7 1.2225924072497189e7 0.0
0.0 0.0 0.0

-6.4390666175636025e6 4.354914882545019e7 0.0
4.354914882545019e7 2.1424912026066286e6 0.0
0.0 0.0 0.0

-9.695684371106884e6 1.9323404142868552e7 0.0
1.9323404142868552e7 -5.968569786750045e7 0.0
0.0 0.0 0.0

-2.0303168445377305e7 2.2493210140050557e7 0.0
2.2493210140050557e7 -1.0962042710905918e8 0.0
0.0 0.0 0.0

1.9492986248979766e7 2.3478402603211306e7 0.0
2.3478402603211306e7 1.0851456236618982e8 0.0
0.0 0.0 0.0

9.012867410100808e6 2.1517307509157836e7 0.0
2.1517307509157836e7 3.962969889696235e7 0.0
0.0 0.0 0.0

-441476.62153110094 1.1439763048523845e7 0.0
1.1439763048523845e7 -5.025292148811224e7 0.0
0.0 0.0 0.0

4.337386549797595e6 4.04411751139749e7 0.0
4.04411751139749e7 -3.7242918726796354e6 0.0
0.0 0.0 0.0

2.3013511493702675e6 2.7616079314033777e7 0.0
2.7616079314033777e7 -1.0961092430688798e7 0.0
0.0 0.0 0.0

-1.4819043380377076e6 2.3438255450253054e7 0.0
2.3438255450253054e7 -8.690981586899139e6 0.0
0.0 0.0 0.0

2.4791073616155013e6 2.64925017946195e7 0.0
2.64925017946195e7 -1.2740534089649176e7 0.0
0.0 0.0 0.0

-3.955848489146641e7 4.994023518145222e7 0.0
4.994023518145222e7 1.1439976629180327e7 0.0
0.0 0.0 0.0

-3.150907767564317e6 3.8855392329072304e7 0.0
3.8855392329072304e7 1.3046021360335909e6 0.0
0.0 0.0 0.0

-7.677741726992553e6 3.0895746962651253e7 0.0
3.0895746962651253e7 8.698356395234019e6 0.0
0.0 0.0 0.0

1.1962682716025598e6 3.252409988876645e6 0.0
3.252409988876645e6 -6.1970486925613984e7 0.0
0.0 0.0 0.0

1.3884352071220681e7 3.0637951372689053e7 0.0
3.0637951372689053e7 -4.756794897610736e6 0.0
0.0 0.0 0.0

-3.12821223485413e6 1.78669589336968e7 0.0
1.78669589336968e7 -4.1520994984952755e7 0.0
0.0 0.0 0.0

1.2330028643266384e7 3.1278992609677244e7 0.0
3.1278992609677244e7 -5.436361997474115e6 0.0
0.0 0.0 0.0

-693737.4184256047 2.166160247980205e7 0.0
2.166160247980205e7 -1.4318786012706903e6 0.0
0.0 0.0 0.0

2.874050954000756e6 2.3179391021585345e7 0.0
2.3179391021585345e7 2.7482406841079593e7 0.0
0.0 0.0 0.0

-6.115006971129279e6 3.3759758620652065e7 0.0
3.3759758620652065e7 6.509506063647251e6 0.0
0.0 0.0 0.0

-8.195872584649904e6 -28728.667424149367 0.0
-28728.667424149367 3.825029844538258e7 0.0
0.0 0.0 0.0

2.2063995071967036e7 2.5194434931488678e7 0.0
2.5194434931488678e7 5.227949771864539e6 0.0
0.0 0.0 0.0

-9.112260891479164e7 3.3296200499039747e7 0.0
3.3296200499039747e7 -1.8219301158389635e6 0.0
0.0 0.0 0.0

-6.69137367740895e6 1.6260177775187511e7 0.0
1.6260177775187511e7 3.905820806628051e7 0.0
0.0 0.0 0.0

-7.411242541661613e6 2.7663434478935353e7 0.0
2.7663434478935353e7 5.786343918150491e6 0.0
0.0 0.0 0.0

5.854596081590886e6 2.5488858453717694e7 0.0
2.5488858453717694e7 562949.2613922928 0.0
0.0 0.0 0.0

2.528758171259215e6 2.9792393313220306e6 0.0
2.9792393313220306e6 -4.007051532457601e7 0.0
0.0 0.0 0.0

-2.461271228298204e6 2.4714957399184704e7 0.0
2.4714957399184704e7 1.3016925976194093e7 0.0
0.0 0.0 0.0

-6.285614991897773e6 1.1972525731588923e6 0.0
1.1972525731588923e6 5.780794072603256e7 0.0
0.0 0.0 0.0

-2.096517905371257e7 2.7276797866914693e7 0.0
2.7276797866914693e7 -1.1659499559555644e8 0.0
0.0 0.0 0.0

1.955850086721545e7 2.8452886299505867e7 0.0
2.8452886299505867e7 1.1335160234057656e8 0.0
0.0 0.0 0.0

-318081.2467576526 1.5563500896936262e7 0.0
1.5563500896936262e7 -3.741264866971877e7 0.0
0.0 0.0 0.0

317784.8438148841 4.851914570965595e6 0.0
4.851914570965595e6 -5.2224898095257105e6 0.0
0.0 0.0 0.0

1.6362788420703303e7 2.193868674247538e7 0.0
2.193868674247538e7 6.998680395122997e6 0.0
0.0 0.0 0.0

-5.754218362298716e6 2.608793754791693e6 0.0
2.608793754791693e6 6.528037546307998e7 0.0
0.0 0.0 0.0

603938.4858937035 9.262368127372334e6 0.0
9.262368127372334e6 -8.558425147815771e6 0.0
0.0 0.0 0.0

9.162057121832201e6 3.880966343724207e7 0.0
3.880966343724207e7 -4.760346234582854e6 0.0
0.0 0.0 0.0

636612.1000422137 2.272618123726907e7 0.0
2.272618123726907e7 -1.7433411148324464e7 0.0
0.0 0.0 0.0

6.523665047991285e6 2.1875500390725642e7 0.0
2.1875500390725642e7 2.8040467530388284e7 0.0
0.0 0.0 0.0

-8.028766284016283e6 2.7359596356480792e7 0.0
2.7359596356480792e7 257367.3633470186 0.0
0.0 0.0 0.0

-3.782674797199249e7 3.033559870545853e7 0.0
3.033559870545853e7 -9.307515570091262e6 0.0
0.0 0.0 0.0

-3.7525667687022183e6 3.816963610258836e7 0.0
3.816963610258836e7 2.112636903604179e6 0.0
0.0 0.0 0.0

2.1129395234905463e6 2.2826006935475994e7 0.0
2.2826006935475994e7 1.5098145619261274e7 0.0
0.0 0.0 0.0

-274301.24452840816 2.4082903501845244e7 0.0
2.4082903501845244e7 1.963039469484005e7 0.0
0.0 0.0 0.0

1.0191317465365827e6 1.9173293944025237e7 0.0
1.9173293944025237e7 -2.4757035544035964e7 0.0
0.0 0.0 0.0

2.565044336516657e6 2.565185615313009e7 0.0
2.565185615313009e7 -1.3386235874676762e7 0.0
0.0 0.0 0.0

-6.196956787620999e6 4.362930201177045e6 0.0
4.362930201177045e6 6.299343703725664e7 0.0
0.0 0.0 0.0

-3.3351565202482916e7 5.081206257351392e7 0.0
5.081206257351392e7 8.287394229776589e6 0.0
0.0 0.0 0.0

-1.5779786133444905e7 3.932091428012303e7 0.0
3.932091428012303e7 6.062311320860673e6 0.0
0.0 0.0 0.0

-3.773796795370296e7 3.367563069805185e7 0.0
3.367563069805185e7 -5.290014220454445e6 0.0
0.0 0.0 0.0

336418.7882249481 2.333925245347982e7 0.0
2.333925245347982e7 5.235358172539272e6 0.0
0.0 0.0 0.0

-1.1799237192880914e7 2.8134688464008328e7 0.0
2.8134688464008328e7 -1.9037850204389372e6 0.0
0.0 0.0 0.0

-2.2713552016898286e7 3.0438232878244486e7 0.0
3.0438232878244486e7 -1.0557555398555003e7 0.0
0.0 0.0 0.0

1.4644895596099934e6 8.2877121397335185e6 0.0
8.2877121397335185e6 -8.103095781232033e6 0.0
0.0 0.0 0.0

5.580441858109709e6 2.208089312112851e7 0.0
2.208089312112851e7 2.8906994599644598e7 0.0
0.0 0.0 0.0

699077.6115150303 1.0492222414983332e7 0.0
1.0492222414983332e7 -4.93127030496494e7 0.0
0.0 0.0 0.0

-5.511148799639378e6 1.7165927151271965e7 0.0
1.7165927151271965e7 4.018114639374214e7 0.0
0.0 0.0 0.0

-5.262575267122749e6 2.217822871745907e6 0.0
2.217822871745907e6 6.657138560155802e7 0.0
0.0 0.0 0.0

1.5430016165566184e6 3.5460453250805987e6 0.0
3.5460453250805987e6 -6.1012285287355274e7 0.0
0.0 0.0 0.0

-4.247615904977081e7 3.3801676304629385e7 0.0
3.3801676304629385e7 -6.716057620499878e6 0.0
0.0 0.0 0.0

-6.678092949398968e6 487497.0289201613 0.0
487497.0289201613 5.285778996004336e7 0.0
0.0 0.0 0.0

-7.422187859425092e6 85795.88953999897 0.0
85795.88953999897 4.618053907111903e7 0.0
0.0 0.0 0.0

612580.8455854524 7.9491291590650035e6 0.0
7.9491291590650035e6 -1.0665164032726867e7 0.0
0.0 0.0 0.0

-7.601973426668821e6 1.6066943401768508e6 0.0
1.6066943401768508e6 4.415823593836309e7 0.0
0.0 0.0 0.0

1.2334317969679603e7 5.4268968912203886e7 0.0
5.4268968912203886e7 -5.399719636566885e6 0.0
0.0 0.0 0.0

-2.7703526039281227e6 2.3701746530312896e7 0.0
2.3701746530312896e7 1.832466499286498e7 0.0
0.0 0.0 0.0

314002.7432556078 4.7588693033135e6 0.0
4.7588693033135e6 -7.513303156378804e7 0.0
0.0 0.0 0.0

1.4115828400187138e6 4.0737070946724815e6 0.0
4.0737070946724815e6 -4.754364291670026e7 0.0
0.0 0.0 0.0

-2.6913465874243467e6 2.6599553525252357e7 0.0
2.6599553525252357e7 9.164982462608594e6 0.0
0.0 0.0 0.0

-6.149259503545938e6 4.2769348868205614e7 0.0
4.2769348868205614e7 3.8512528729123487e6 0.0
0.0 0.0 0.0

9.012243198177049e6 1.1903980353608228e7 0.0
1.1903980353608228e7 2.395505900898394e6 0.0
0.0 0.0 0.0

1.538899524363232e7 2.5940517896543764e7 0.0
2.5940517896543764e7 1.4213433399414416e7 0.0
0.0 0.0 0.0

1.4015056854702275e7 2.903034105014232e7 0.0
2.903034105014232e7 -3.2381901006836323e6 0.0
0.0 0.0 0.0

-6.86479561511863e6 747322.0071833981 0.0
747322.0071833981 5.189408598658657e7 0.0
0.0 0.0 0.0

-2.262121935226724e7 2.7069746750812918e7 0.0
2.7069746750812918e7 -4.6019770159977395e6 0.0
0.0 0.0 0.0

-3.56441539681871e6 3.729232545561271e7 0.0
3.729232545561271e7 1.9704520423888077e6 0.0
0.0 0.0 0.0

6.936057316292234e6 2.0830071480094805e7 0.0
2.0830071480094805e7 6.363957562697326e7 0.0
0.0 0.0 0.0

1.6557654509253992e7 2.9654125870948095e7 0.0
2.9654125870948095e7 -3.2313640737515492e6 0.0
0.0 0.0 0.0

-5.847824183748849e6 2.5057179764839567e7 0.0
2.5057179764839567e7 -1.1719519422255604e7 0.0
0.0 0.0 0.0

-2.961718194576922e6 2.504811106981254e7 0.0
2.504811106981254e7 1.8718602556534797e7 0.0
0.0 0.0 0.0

-4.279440611842835e6 2.4412379245493498e7 0.0
2.4412379245493498e7 -1.1599825772719424e7 0.0
0.0 0.0 0.0

-8.706985645231959e7 4.6394464132781565e7 0.0
4.6394464132781565e7 -1.3013801639489204e7 0.0
0.0 0.0 0.0

-3.7027351637010938e6 2.3389947330490224e7 0.0
2.3389947330490224e7 1.7839624841395617e7 0.0
0.0 0.0 0.0

-5.193465965600125e6 2.5661522066236716e7 0.0
2.5661522066236716e7 -9.926794880865637e6 0.0
0.0 0.0 0.0

-3.2917753677321877e6 2.5929950004678678e7 0.0
2.5929950004678678e7 1.7690053090167433e7 0.0
0.0 0.0 0.0

1.1351486847068002e7 2.854103459718474e7 0.0
2.854103459718474e7 -4.349694422933397e6 0.0
0.0 0.0 0.0

2.099760376843972e6 2.943523758692042e6 0.0
2.943523758692042e6 -3.885311521025933e7 0.0
0.0 0.0 0.0

5.230912614633723e6 2.7618043362766854e7 0.0
2.7618043362766854e7 -8.850650839314079e6 0.0
0.0 0.0 0.0

-3.2366871773802824e7 5.059466699508679e7 0.0
5.059466699508679e7 7.647408068484301e6 0.0
0.0 0.0 0.0

-7.873526482855174e6 3.515443310605781e7 0.0
3.515443310605781e7 6.80775196572946e6 0.0
0.0 0.0 0.0

-8.706309925374398e6 -564002.5501346893 0.0
-564002.5501346893 3.1211106535246294e7 0.0
0.0 0.0 0.0

807905.4914134555 2.2981928538284365e7 0.0
2.2981928538284365e7 -1.922622913558967e7 0.0
0.0 0.0 0.0

1.8422201682378702e7 2.6075765102333322e7 0.0
2.6075765102333322e7 6.608426105004943e6 0.0
0.0 0.0 0.0

-7.591521826657091e7 3.884119246394588e7 0.0
3.884119246394588e7 -49189.805107571185 0.0
0.0 0.0 0.0

5.58218669878865e6 2.0494682928462084e7 0.0
2.0494682928462084e7 2.0167352515790444e7 0.0
0.0 0.0 0.0

-96043.13932112232 1.0201898291462528e7 0.0
1.0201898291462528e7 -5.202646230978053e7 0.0
0.0 0.0 0.0

600224.4205615427 1.881647719911692e7 0.0
1.881647719911692e7 -2.4629365994993765e7 0.0
0.0 0.0 0.0

-2.100906941529614e6 2.5054435539240938e7 0.0
2.5054435539240938e7 1.5090865477460284e7 0.0
0.0 0.0 0.0

-9.179112800834296e6 4.313393967805327e7 0.0
4.313393967805327e7 3.5528912648752606e6 0.0
0.0 0.0 0.0

2.158468009304232e6 3.1904282580190618e7 0.0
3.1904282580190618e7 -5.536514230075676e6 0.0
0.0 0.0 0.0

1.8782741648034137e6 2.8300134927655384e6 0.0
2.8300134927655384e6 -4.670270037451415e7 0.0
0.0 0.0 0.0

9.539835123388877e6 2.120217411371532e7 0.0
2.120217411371532e7 5.685390014164765e7 0.0
0.0 0.0 0.0

-883583.8212174934 2.1325887224807665e7 0.0
2.1325887224807665e7 -2.2751994825279117e6 0.0
0.0 0.0 0.0

-5.9000321676123396e7 4.5306193962029696e7 0.0
4.5306193962029696e7 1.0060362313798126e7 0.0
0.0 0.0 0.0

-8.661201759430895e6 2.249160355282045e6 0.0
2.249160355282045e6 3.959829447554952e7 0.0
0.0 0.0 0.0

-7.825971701183911e6 1.8949315316052057e6 0.0
1.8949315316052057e6 4.213329277477998e7 0.0
0.0 0.0 0.0

1.773352704182579e7 2.588336168647996e7 0.0
2.588336168647996e7 9.573341779705213e6 0.0
0.0 0.0 0.0

-6.600428616467599e6 373171.7408129037 0.0
373171.7408129037 5.155196393057604e7 0.0
0.0 0.0 0.0

4.6341929219501065e6 2.1197419533542298e7 0.0
2.1197419533542298e7 1.9564665948600117e7 0.0
0.0 0.0 0.0

1.0507729919244934e7 2.166003710159984e7 0.0
2.166003710159984e7 4.223532326199009e7 0.0
0.0 0.0 0.0

2.08957340016712e6 4.0250769251202755e7 0.0
4.0250769251202755e7 -1.8425271728387605e6 0.0
0.0 0.0 0.0

-5.195610783096194e6 7.467336913017033e6 0.0
7.467336913017033e6 6.884396897655879e7 0.0
0.0 0.0 0.0

-4.0209125950811766e6 1.7893693843768593e7 0.0
1.7893693843768593e7 -4.2948319556610204e7 0.0
0.0 0.0 0.0

127988.6391329011 8.962354232248947e6 0.0
8.962354232248947e6 -9.175114061076967e6 0.0
0.0 0.0 0.0

-1.5707907696010284e6 2.449110666825744e7 0.0
2.449110666825744e7 1.3238090351097563e7 0.0
0.0 0.0 0.0

6.57457443815606e6 2.1725300052605305e7 0.0
2.1725300052605305e7 4.069929084921272e7 0.0
0.0 0.0 0.0

-7.547994947147138e6 2.2670955744081372e6 0.0
2.2670955744081372e6 5.027735596701371e7 0.0
0.0 0.0 0.0

-5.738996164162958e6 1.0186214536548117e7 0.0
1.0186214536548117e7 6.591730300261382e6 0.0
0.0 0.0 0.0

-1.973388140281695e6 2.581060589314953e7 0.0
2.581060589314953e7 1.858676871166941e6 0.0
0.0 0.0 0.0

3.5088197616857183e6 1.3572702644910544e7 0.0
1.3572702644910544e7 1.1624202584209362e7 0.0
0.0 0.0 0.0

5.408414801282014e6 2.4480441674216963e7 0.0
2.4480441674216963e7 -1.5539674530824737e6 0.0
0.0 0.0 0.0

-8.272234960924216e6 1.7427530575851295e6 0.0
1.7427530575851295e6 4.19145701205459e7 0.0
0.0 0.0 0.0

-4.396262916146077e6 7.3455068194245165e6 0.0
7.3455068194245165e6 7.30338474485119e7 0.0
0.0 0.0 0.0

4.436368399943599e6 2.517266128505548e7 0.0
2.517266128505548e7 -324883.05320570455 0.0
0.0 0.0 0.0

1.4897988476762995e6 2.3544162409800425e7 0.0
2.3544162409800425e7 -1.644180952964859e7 0.0
0.0 0.0 0.0

-4.114077850243978e6 7.16276388621089e6 0.0
7.16276388621089e6 7.231547205501363e7 0.0
0.0 0.0 0.0

1.082507710000866e7 2.869211073660688e7 0.0
2.869211073660688e7 -4.166404340628264e6 0.0
0.0 0.0 0.0

5.465531378989635e6 2.0983107277770326e7 0.0
2.0983107277770326e7 2.9668161455962848e7 0.0
0.0 0.0 0.0

-7.1756684654165525e6 1.4650882448655413e7 0.0
1.4650882448655413e7 1.6515661054166907e7 0.0
0.0 0.0 0.0

-5.723252464816818e6 1.385834491697733e7 0.0
1.385834491697733e7 5.109597464329559e6 0.0
0.0 0.0 0.0

-1.2155797160203973e7 1.057175634966751e7 0.0
1.057175634966751e7 4.751226271630657e6 0.0
0.0 0.0 0.0

