# vtk DataFile Version 2.0
phase field modeling fracture
ASCII
DATASET UNSTRUCTURED_GRID
POINTS 2538 float
0.0 0.0 0.0
10.0 0.0 0.0
0.0 10.0 0.0
10.0 10.0 0.0
0.0 4.9995 0.0
0.0 5.0005 0.0
5.0 5.0 0.0
0.9416964895726688 0.0 0.0
1.803581725054446 0.0 0.0
2.592419885431098 0.0 0.0
3.314401822861676 0.0 0.0
3.975193910351406 0.0 0.0
4.579982132660152 0.0 0.0
5.133512780936812 0.0 0.0
5.640130319506143 0.0 0.0
6.103810708661955 0.0 0.0
6.528192895506818 0.0 0.0
6.916607540127679 0.0 0.0
7.272102969376355 0.0 0.0
7.597469242948583 0.0 0.0
7.895259826292669 0.0 0.0
8.167811885738017 0.0 0.0
8.417264413845215 0.0 0.0
8.645575169389538 0.0 0.0
8.854535961159101 0.0 0.0
9.045786767735546 0.0 0.0
9.220828555767493 0.0 0.0
9.38103509633881 0.0 0.0
9.527663687265145 0.0 0.0
9.661865124984566 0.0 0.0
9.784692609918062 0.0 0.0
9.897110148790482 0.0 0.0
10.0 0.09999999999992584 0.0
10.0 0.199999999999856 0.0
10.0 0.2999999999997771 0.0
10.0 0.3999999999996677 0.0
10.0 0.4999999999995511 0.0
10.0 0.5999999999994683 0.0
10.0 0.6999999999993983 0.0
10.0 0.7999999999993286 0.0
10.0 0.8999999999992587 0.0
10.0 0.9999999999991888 0.0
10.0 1.099999999999119 0.0
10.0 1.199999999999033 0.0
10.0 1.299999999998852 0.0
10.0 1.399999999998576 0.0
10.0 1.499999999998284 0.0
10.0 1.599999999997992 0.0
10.0 1.6999999999977 0.0
10.0 1.799999999997408 0.0
10.0 1.899999999997116 0.0
10.0 1.999999999996825 0.0
10.0 2.099999999996533 0.0
10.0 2.199999999996241 0.0
10.0 2.299999999995949 0.0
10.0 2.399999999995657 0.0
10.0 2.499999999995365 0.0
10.0 2.599999999995073 0.0
10.0 2.699999999994782 0.0
10.0 2.79999999999449 0.0
10.0 2.899999999994198 0.0
10.0 2.999999999993906 0.0
10.0 3.099999999993614 0.0
10.0 3.199999999993322 0.0
10.0 3.299999999993029 0.0
10.0 3.399999999992738 0.0
10.0 3.499999999992446 0.0
10.0 3.599999999992154 0.0
10.0 3.699999999991863 0.0
10.0 3.799999999991571 0.0
10.0 3.899999999991278 0.0
10.0 3.999999999991022 0.0
10.0 4.099999999991035 0.0
10.0 4.199999999991187 0.0
10.0 4.299999999991338 0.0
10.0 4.399999999991491 0.0
10.0 4.499999999991642 0.0
10.0 4.599999999991795 0.0
10.0 4.699999999991947 0.0
10.0 4.799999999992099 0.0
10.0 4.89999999999225 0.0
10.0 4.999999999992403 0.0
10.0 5.099999999992555 0.0
10.0 5.199999999992706 0.0
10.0 5.299999999992858 0.0
10.0 5.39999999999301 0.0
10.0 5.499999999993161 0.0
10.0 5.599999999993313 0.0
10.0 5.699999999993466 0.0
10.0 5.799999999993618 0.0
10.0 5.899999999993771 0.0
10.0 5.999999999993922 0.0
10.0 6.099999999994074 0.0
10.0 6.199999999994227 0.0
10.0 6.299999999994378 0.0
10.0 6.39999999999453 0.0
10.0 6.499999999994682 0.0
10.0 6.599999999994833 0.0
10.0 6.699999999994986 0.0
10.0 6.799999999995138 0.0
10.0 6.899999999995289 0.0
10.0 6.999999999995442 0.0
10.0 7.099999999995594 0.0
10.0 7.199999999995747 0.0
10.0 7.299999999995897 0.0
10.0 7.39999999999605 0.0
10.0 7.499999999996202 0.0
10.0 7.599999999996353 0.0
10.0 7.699999999996505 0.0
10.0 7.799999999996658 0.0
10.0 7.899999999996808 0.0
10.0 7.999999999996962 0.0
10.0 8.099999999997113 0.0
10.0 8.199999999997265 0.0
10.0 8.299999999997418 0.0
10.0 8.399999999997569 0.0
10.0 8.499999999997721 0.0
10.0 8.599999999997873 0.0
10.0 8.699999999998024 0.0
10.0 8.799999999998176 0.0
10.0 8.899999999998329 0.0
10.0 8.99999999999848 0.0
10.0 9.099999999998634 0.0
10.0 9.199999999998786 0.0
10.0 9.299999999998937 0.0
10.0 9.399999999999089 0.0
10.0 9.499999999999241 0.0
10.0 9.599999999999392 0.0
10.0 9.699999999999545 0.0
10.0 9.799999999999697 0.0
10.0 9.899999999999848 0.0
9.897110148790565 10.0 0.0
9.784692609918244 10.0 0.0
9.66186512498486 10.0 0.0
9.527663687265571 10.0 0.0
9.381035096339392 10.0 0.0
9.220828555768257 10.0 0.0
9.045786767736512 10.0 0.0
8.854535961160305 10.0 0.0
8.645575169391027 10.0 0.0
8.417264413847017 10.0 0.0
8.167811885740178 10.0 0.0
7.895259826295246 10.0 0.0
7.597469242951631 10.0 0.0
7.272102969379938 10.0 0.0
6.916607540131873 10.0 0.0
6.528192895511704 10.0 0.0
6.103810708667616 10.0 0.0
5.640130319512691 10.0 0.0
5.13351278094435 10.0 0.0
4.579982132668816 10.0 0.0
3.975193910361222 10.0 0.0
3.314401822869852 10.0 0.0
2.592419885437257 10.0 0.0
1.803581725058137 10.0 0.0
0.9416964895740705 10.0 0.0
0.0 9.00010000000243 0.0
0.0 8.000200000005481 0.0
0.0 7.000300000005135 0.0
0.0 6.000400000002569 0.0
0.901790731451151 5.000409820926855 0.0
1.657200899774397 5.000334279910023 0.0
2.289991063707192 5.000271000893629 0.0
2.820065163538221 5.000217993483646 0.0
3.264096435579811 5.000173590356442 0.0
3.636051481595835 5.00013639485184 0.0
3.947629914072366 5.000105237008593 0.0
4.208632181002628 5.0000791367819 0.0
4.427267949625672 5.000057273205037 0.0
4.610414277633563 5.000038958572237 0.0
4.763831845154243 5.000023616815485 0.0
4.892346298799659 5.00001076537012 0.0
4.892346298799748 4.99998923462988 0.0
4.763831845154455 4.999976383184515 0.0
4.610414277633943 4.999961041427763 0.0
4.427267949626277 4.999942726794963 0.0
4.208632181003523 4.9999208632181 0.0
3.94762991407365 4.999894762991407 0.0
3.636051481597624 4.99986360514816 0.0
3.264096435582253 4.999826409643559 0.0
2.820065163541503 4.999782006516354 0.0
2.289991063711534 4.999728999106371 0.0
1.657200899778495 4.999665720089978 0.0
0.9017907314530094 4.999590179073145 0.0
0.0 3.999600000002013 0.0
0.0 2.999700000005187 0.0
0.0 1.99980000000512 0.0
0.0 0.9999000000025537 0.0
9.897889398521345 2.93573355845387 0.0
9.906568249974548 7.060009441434234 0.0
9.913122631074113 3.64016132281653 0.0
9.922462129543863 6.354535290629151 0.0
9.917693659967533 4.354211663134567 0.0
9.909873057440208 5.637584487339942 0.0
9.914183254994697 4.950672966925282 0.0
9.913885043715895 7.666887930262611 0.0
9.91009668007573 2.351889069770817 0.0
9.905135696074536 8.138152454502785 0.0
9.913397459621809 1.849999999997262 0.0
7.099302372137626 0.297750452375005 0.0
7.095143729410097 9.700359990366296 0.0
4.942912558701401 5.095838627899509 0.0
4.315009232304429 5.165022115481685 0.0
4.946182472483878 4.906763777264103 0.0
4.317967462990024 4.825955043772673 0.0
9.916390871492647 8.64999999999792 0.0
9.921504649680616 1.368376469890358 0.0
8.292538149791614 0.206877570318844 0.0
8.292538149793597 9.793122429681448 0.0
5.884594439766573 9.587645267048616 0.0
5.794826292691579 0.3794853783929359 0.0
9.913397459621425 9.049999999998557 0.0
9.908526577714177 0.9568239351922434 0.0
3.456851160380649 5.315740054130451 0.0
3.457889657868442 4.707121019609468 0.0
8.945214200703926 0.1503383337970344 0.0
8.950161364448409 9.8413906539257 0.0
9.913862335499305 4.055887885208452 0.0
9.916697353372683 4.650158482607802 0.0
9.919076340414442 6.049999999994006 0.0
9.906994308667635 5.25749687748192 0.0
9.917490342358025 6.655979201891897 0.0
9.915757520293784 7.343848891656911 0.0
9.910049507471042 3.363474386285078 0.0
9.914471988502868 2.647400064832979 0.0
9.91474124160965 9.337490423485129 0.0
9.916971008170838 0.6499999999994355 0.0
4.307157269264427 9.509674045029644 0.0
4.331527375865619 0.4401616696422582 0.0
9.45434939180249 9.878397030523757 0.0
9.457696120412969 0.1270877537061785 0.0
2.555070293622606 5.422044496190925 0.0
2.566232917480916 4.608001224030952 0.0
3.026511860837692 9.332320638257093 0.0
2.945561971800619 0.5895662714727601 0.0
7.7395404387124 0.2511088946967771 0.0
7.736379255744154 9.745848826372828 0.0
4.687135269408529 5.122111433928926 0.0
4.688420821504113 4.871895064967488 0.0
9.910554884115975 0.3448356354522978 0.0
9.911230082250466 9.65764729394159 0.0
9.921953841410854 6.851023993342036 0.0
9.912065178606017 5.448170483544033 0.0
9.911660025326261 3.861846960030188 0.0
9.914847467973438 3.14501593945607 0.0
9.913397459621425 5.849999999993703 0.0
9.913397459621425 7.849999999996735 0.0
9.906916878988277 2.15455769998631 0.0
9.913397459621425 8.349999999997479 0.0
9.909472363117661 1.640528221515488 0.0
9.913987325695956 1.152857110636247 0.0
9.913397459621425 8.849999999998241 0.0
0.9100099990995943 2.614215977520411 0.0
0.8395284981715456 7.451196254860987 0.0
9.723278867451556 9.898135916635193 0.0
9.723316350887044 0.09841820909386662 0.0
1.385819164827588 4.454539963646463 0.0
1.338343629665047 5.523111536005823 0.0
1.377179700550677 0.6809168304959698 0.0
1.418060461092743 9.285896715136046 0.0
9.91268220142518 0.1457914080939694 0.0
9.906737126737994 9.845745933882352 0.0
0.7108351382691361 6.537941170074089 0.0
1.527735020267026 6.915620208855231 0.0
1.630993885659103 7.838271825205868 0.0
2.232760943566823 7.370850737296832 0.0
2.243414218068206 6.688299277952821 0.0
2.779655053105118 7.021588754814074 0.0
2.80227799359795 7.632420170547022 0.0
3.282022065908813 7.305859666021318 0.0
3.327597298795347 7.857554136825748 0.0
3.743210251018715 7.549183328204379 0.0
3.716353232200752 7.062036086888612 0.0
4.111978858674101 7.27497101169417 0.0
4.104192177581432 6.879858986267289 0.0
4.436230765617037 7.045693351607117 0.0
4.430360014817357 6.703971783962796 0.0
4.732390145036301 6.849841042423394 0.0
5.056161327708878 5.095276573498806 0.0
5.111586796021131 4.999081142133581 0.0
5.169267363407189 5.09444870412406 0.0
5.223795108752053 4.996986220359468 0.0
5.281480803887719 5.092780870372803 0.0
5.335670761900611 4.994887492556936 0.0
5.393485214772442 5.090486192743301 0.0
5.447323082877892 4.992601527033996 0.0
5.505243219343024 5.087953380710069 0.0
5.558739102026105 4.990287787962959 0.0
5.616491581184779 5.085335255235766 0.0
5.669852346908056 4.9879269227514 0.0
5.727502713908907 5.082679981817038 0.0
5.780766004135139 4.988313988715834 0.0
5.838244881129535 5.080480568766611 0.0
5.891357695677371 4.986433849408193 0.0
5.948696036767613 5.077969900389505 0.0
6.001601341641615 4.981313698556656 0.0
6.058851024265095 5.074871552128682 0.0
6.111614020704875 4.978360695880202 0.0
6.168801161530775 5.072044953270978 0.0
6.221368818778567 4.975825765213497 0.0
6.278268309066882 5.066182320461055 0.0
6.330814273567539 4.972837984645718 0.0
6.387565032421376 5.062889771971895 0.0
6.437476667631405 4.971693683589553 0.0
6.496181111585419 5.060210690175857 0.0
6.539454812256072 4.964658165361536 0.0
6.604198202576491 5.056387520850258 0.0
6.648506025747331 4.939374587506267 0.0
6.714026758992516 5.05873885840664 0.0
6.764418045981209 4.959246676066148 0.0
6.8219334571197 5.055299567406268 0.0
6.873708540948134 4.960426349093742 0.0
6.930181428849307 5.053461390218819 0.0
6.981893615341967 4.96435459462232 0.0
7.037791764774784 5.051219747103022 0.0
7.090993561518408 4.96392420322464 0.0
5.504417457283294 4.900897920552702 0.0
7.145434864123609 5.048960634292441 0.0
6.054532384032612 4.883956083938546 0.0
6.738027949040956 4.850032323068674 0.0
7.198432914526514 4.956325226333323 0.0
7.252637187936749 5.046012229327236 0.0
7.30926729605109 4.948903216650376 0.0
7.248106275544042 4.860306312845646 0.0
7.363100274863074 4.849952416808486 0.0
7.365733472701664 5.039519554615095 0.0
7.308483293090149 5.137557220352172 0.0
6.768399513646964 5.145609705119954 0.0
7.422800035311104 5.132251445551834 0.0
7.358273518796229 5.235980394389298 0.0
7.480824155801127 5.227946127939927 0.0
7.302193400058628 4.761917474298247 0.0
7.413570879789824 4.754555110721153 0.0
7.414392998903179 5.334729114426734 0.0
7.352769630272076 4.660405502266205 0.0
7.467556835255426 4.658352623795039 0.0
7.536246869015014 5.328986926716081 0.0
7.478865844607288 5.432598185493195 0.0
7.406396991826072 4.556956233957538 0.0
7.523581002009154 4.552005631348623 0.0
7.597792398573263 5.429506106314967 0.0
7.540511043402902 5.53619421580439 0.0
7.46214474876342 4.452580994318881 0.0
7.5852185078634 4.446021810672608 0.0
7.663329342323453 5.533453399066901 0.0
7.603478967594521 5.643227430483237 0.0
7.513450346818673 4.347641323140766 0.0
7.640744971722214 4.333388343316237 0.0
7.727671715775243 5.642390483050116 0.0
7.667774597993788 5.753188858425915 0.0
7.570065256728661 4.230515669344811 0.0
7.702881065467917 4.218307808529532 0.0
7.638288257073729 4.107994211855027 0.0
7.493362356301017 4.120843902105771 0.0
7.779018500630071 5.521233457321821 0.0
7.794641287388929 5.752364621610818 0.0
7.73369774483611 5.865894287356292 0.0
7.600834531784728 5.867752110500446 0.0
6.233038857278689 5.15645045634683 0.0
7.669727996028819 5.985665563643058 0.0
7.528582452554481 5.987393423295551 0.0
7.598722674572824 6.11001923494443 0.0
7.778305000222867 4.104318908265786 0.0
7.704329019832056 3.987744174608892 0.0
7.838453459801382 4.213322728668484 0.0
7.864495721576461 5.862306066517277 0.0
7.846552353360407 3.98481756181946 0.0
7.769730409703277 3.86544808681145 0.0
5.785249360396857 5.177248808588045 0.0
7.908837087876153 3.861484036275285 0.0
7.834824606222196 3.740586825753288 0.0
7.97685993406276 3.736209527152902 0.0
7.89665098770825 3.615501862931453 0.0
7.753228010315262 3.617800245018972 0.0
7.826063013090472 3.483173292579822 0.0
7.66789744383048 3.48859328808356 0.0
8.042515855796823 3.595394268381807 0.0
7.75200750488492 3.341279823834038 0.0
7.582870318332553 3.346584916806707 0.0
8.120807847415062 3.732493963388337 0.0
8.189783970303546 3.61159165475499 0.0
7.657801000286734 3.200439907646711 0.0
7.486781956172036 3.201402473247712 0.0
7.452595103886905 6.11418616185016 0.0
7.527098033550077 6.243191052852112 0.0
8.260502906807751 3.728437634721859 0.0
8.327629317451398 3.608173631356984 0.0
7.372763970891452 6.247552889754036 0.0
7.456170570815929 6.384992468962936 0.0
7.621837793616884 6.376077080857113 0.0
7.548039512904141 6.520750676893614 0.0
7.717475944451644 6.514856553988943 0.0
7.636658166268699 6.661648164052906 0.0
7.807468267259438 6.664076174524672 0.0
7.718022764310774 6.817938967122142 0.0
7.887785766941087 6.807440365887151 0.0
7.545993589083432 6.815070675854734 0.0
7.809874785067209 6.967537287475282 0.0
7.975643812145337 6.948729406725126 0.0
8.396477808021062 3.725446935061211 0.0
7.565651643157136 3.044354774611752 0.0
7.384328725505071 3.043048915147076 0.0
8.056405351948353 6.802790889114673 0.0
8.14128318237188 6.940027831915737 0.0
8.064621760266059 7.086348792208953 0.0
8.225003598857908 6.805225152373254 0.0
8.463085452993242 3.606998510553562 0.0
8.230426869720718 7.079551841000411 0.0
8.155262284174286 7.224761758176069 0.0
8.530696760758996 3.721683301125054 0.0
8.596669886994064 3.604516769862316 0.0
8.528531058025589 3.490411531312337 0.0
8.320451770844851 7.218191678954744 0.0
8.245273958732774 7.363444652121271 0.0
8.66324687389452 3.717094013035765 0.0
8.600103125209296 3.831913857228569 0.0
8.662131102573216 3.488322280861316 0.0
8.594166125380536 3.374071873435548 0.0
8.411074336066186 7.353871649576861 0.0
8.339644223432472 7.505172120620427 0.0
8.165883718619623 7.513159193685373 0.0
8.483453820080417 7.2082285366806 0.0
8.261200365730348 7.657400951288149 0.0
8.081570576666843 7.670933304838066 0.0
7.471613195794025 2.872548423100142 0.0
7.268733678357991 2.881209199257603 0.0
7.184255506995786 3.084448584600423 0.0
7.065899603697895 2.883902449336828 0.0
6.960163891183182 3.081014635802978 0.0
6.847612128388715 2.885646860602812 0.0
6.739800729737967 3.078895733381448 0.0
8.729373804596847 3.827689165637365 0.0
8.668550856907444 3.938702277545298 0.0
8.72770789162863 3.371798381178293 0.0
8.659764090070603 3.257493349874974 0.0
8.436453928793245 7.648724489148887 0.0
6.619080287792762 2.90880017416788 0.0
6.511740956842646 3.09340654756684 0.0
8.793527829963288 3.935174834810256 0.0
8.736430500996828 4.042719556852617 0.0
7.631260330584174 4.565300771328012 0.0
8.359058396840432 7.801678182761817 0.0
5.339436215072359 5.184870243702279 0.0
4.994031736761993 5.193306795607908 0.0
6.383387675268097 4.87760645722207 0.0
7.29117392392962 6.382172868329505 0.0
6.378196825372041 2.907113079755629 0.0
6.269817199014261 3.12412150658573 0.0
8.793149127377946 3.255386294257182 0.0
8.725774239201558 3.141596687892195 0.0
8.857434600673502 4.041295940541356 0.0
8.802868937128341 4.1471119953668 0.0
8.532045262478793 7.7905977476835 0.0
7.364542641624493 2.699128473342751 0.0
7.571677611088925 2.695732556686516 0.0
6.723058333614999 2.672341359410618 0.0
8.456744924757372 7.94483904450548 0.0
6.140831279784704 2.921247401137864 0.0
6.02419219050745 3.14358702955763 0.0
8.916255604212301 3.934279868822481 0.0
8.859287250884009 3.140226640574265 0.0
8.791092798057303 3.025929352146465 0.0
7.210445465986021 6.245773134960393 0.0
7.120884161792869 6.385155584680196 0.0
7.036931702064287 6.240721609143972 0.0
6.943722280007011 6.3869279517155 0.0
8.920094519678617 4.144837222494242 0.0
8.864374107136287 4.250930406527029 0.0
7.347569838739255 4.463467417508182 0.0
5.90383431757064 2.935113219563906 0.0
5.783476009580765 3.156456199832474 0.0
8.626013191558314 7.935092223505354 0.0
8.687240186957197 7.796697889991163 0.0
5.642059327424706 2.903018174330269 0.0
5.52647853955939 3.162549070310043 0.0
8.555300051897738 8.086169516016518 0.0
8.405624441178524 8.083972416481254 0.0
5.374124307190728 2.945480555950917 0.0
8.935805220807357 3.249260758206028 0.0
8.981625171409894 4.247375537584228 0.0
8.924725364486765 4.352101286657735 0.0
8.807208588134106 4.356163101450244 0.0
8.868277832430604 4.45657124153171 0.0
8.75099635287701 4.460644845248524 0.0
8.812385950597063 4.560891222623518 0.0
8.693833206943118 4.564602972998703 0.0
8.756474732548273 4.665720853686476 0.0
8.63721608225855 4.669394550615355 0.0
8.700108119351134 4.770682016274914 0.0
8.81920502916846 4.767536120893284 0.0
8.76355311338807 4.871451945248518 0.0
8.881442328033694 4.868382238751069 0.0
8.826433523510634 4.97132552240372 0.0
8.943387824985514 4.967694248194483 0.0
8.888718468126953 5.071044784833541 0.0
8.580377663835254 4.774669738817985 0.0
8.770572242937233 5.073880380431421 0.0
8.832915096600454 5.174518948293615 0.0
8.952224483821848 5.170970838320107 0.0
8.897282771771884 5.275476392171722 0.0
7.463928467290875 2.513944501591933 0.0
7.675935950092034 2.509420347143072 0.0
8.924252417741767 3.024418701372628 0.0
8.857265893102921 2.911213535286156 0.0
8.776981063213334 5.27944309004916 0.0
8.840710910770163 5.380165700477552 0.0
8.960876896785969 5.375521424256389 0.0
8.904555918255223 5.482125846038813 0.0
7.567193097677677 2.32750151280277 0.0
7.780880844888839 2.323064027160363 0.0
6.851602118390116 6.234522818184622 0.0
6.758680682687229 6.389359516748128 0.0
6.66345977321418 6.231254850996584 0.0
8.715764716958308 8.079994249772627 0.0
8.65189989696114 8.227534663647639 0.0
9.042229096541828 4.348551764001607 0.0
6.436774206993324 3.316782326998922 0.0
7.590527613340588 5.22651784724799 0.0
9.024366884701616 5.476726561488805 0.0
8.968734351641839 5.583879050892151 0.0
8.845941080047659 5.586406316932274 0.0
8.909881305857882 5.690482454668167 0.0
7.348726871578975 5.44047403999932 0.0
6.567070253986433 6.398115757512583 0.0
6.697077150072261 6.553426749743366 0.0
5.252377383990728 3.187782967482479 0.0
8.988440431820699 2.908621158637298 0.0
8.922541972760119 2.796420836075996 0.0
6.466806010659505 6.229115583261771 0.0
9.033851153821296 5.686506775615425 0.0
8.978340519963718 5.795772485582058 0.0
8.85111463793018 5.798672910287243 0.0
8.922171984280597 5.907237880910408 0.0
8.795190680908043 5.911854068712683 0.0
8.864373398892472 6.019728357749566 0.0
8.991346995940626 6.014539153309398 0.0
8.93374019140187 6.12698887312768 0.0
5.095192648098848 2.952353430985476 0.0
7.672651464908932 2.141715359830917 0.0
7.886266921042761 2.136211284120189 0.0
9.098474286589756 4.245971410451114 0.0
8.813172564986438 8.216887361735234 0.0
8.74802978243154 8.366104673219047 0.0
9.059985162956899 6.120982589539211 0.0
9.00342813739303 6.233245043891739 0.0
4.961413514304496 3.214209167276753 0.0
9.05248113004685 2.794651022570942 0.0
8.986028039118027 2.681341972594222 0.0
5.671890458441996 3.377122473800023 0.0
4.755829262593116 7.184480462344647 0.0
9.158258644940048 4.34465968221255 0.0
4.799687186662534 2.961354824469195 0.0
6.030554747591715 2.726787502996874 0.0
8.938327180212585 8.34758372042188 0.0
8.847392320655468 8.503370672816716 0.0
8.67342124373679 8.518117686968314 0.0
5.234423106934083 2.694925204361751 0.0
8.964923046453565 8.185313058214797 0.0
7.456650986668838 2.134076476407834 0.0
9.111732084821366 2.897226832609386 0.0
6.368055837513985 6.402805870976705 0.0
6.265629899005033 6.226581076317183 0.0
8.736327196352686 6.026404178766982 0.0
9.117473097358854 2.67987006607594 0.0
9.052137415465204 2.565428515518978 0.0
7.781001557847192 1.955874236406257 0.0
7.992134447300669 1.949184538864554 0.0
8.593074792993455 3.143159483125708 0.0
9.1291360203536 6.226877897052981 0.0
9.072154326613617 6.338696745620542 0.0
8.916532550320525 2.566986282201109 0.0
8.984021113721658 2.449252898983242 0.0
9.178032243215632 6.120533546076094 0.0
9.213703592343162 4.244823670856978 0.0
9.11972142641474 2.449071238668887 0.0
9.052853896812186 2.33190758581705 0.0
8.635035926402708 4.462329956179506 0.0
8.773614475966344 8.657865377672689 0.0
8.596400917257634 8.67759750279447 0.0
8.942023339420883 8.644678093589654 0.0
9.19471670675691 6.33096438039349 0.0
9.138460613363325 6.443043552768813 0.0
8.66620319432524 5.916297234509582 0.0
8.606669825267202 6.032658196729024 0.0
9.27222540210304 4.341341907533128 0.0
9.013782808177437 6.451040569407859 0.0
9.08360982569773 6.55729980456602 0.0
7.885622149776354 1.768093045890686 0.0
8.095672144455353 1.768790621151345 0.0
9.208772072925791 6.549717411809656 0.0
9.154272208194383 6.662613503537815 0.0
9.187669783927937 2.334640996932141 0.0
9.122379015831417 2.215832190697178 0.0
6.164077036161143 6.404611236428829 0.0
6.062367614988677 6.224307160647549 0.0
8.987075041759633 2.211477580983978 0.0
9.056972755801603 2.093573581203428 0.0
9.194557288902232 2.096029761809264 0.0
9.131223008370409 1.972713028695079 0.0
8.87381302587057 8.795793668920256 0.0
9.039169086943392 8.781606667490083 0.0
4.662813350519927 3.228118291851354 0.0
4.474181267994617 2.945703616023359 0.0
6.562627723301209 6.075544382232434 0.0
9.326886053211574 4.243083624343211 0.0
9.280374192897945 6.656072830232892 0.0
9.224718905178564 6.766740750539347 0.0
4.703284910421452 6.528907865005451 0.0
8.955136474970331 6.565989985649191 0.0
8.998148826814893 4.865480736169776 0.0
8.99429836796776 1.965972383552685 0.0
9.065669391141741 1.847195105148808 0.0
9.207236162050343 1.853010386995843 0.0
9.143218073349985 1.725630086781897 0.0
8.998867447699345 1.719378449325465 0.0
9.082595782768397 1.592017827427701 0.0
8.92804562738841 1.585238202229766 0.0
9.01637794607019 1.453847302675876 0.0
8.854253119154375 1.446306868730686 0.0
8.941620273019874 1.320083886766936 0.0
8.775393064215876 1.308487027359826 0.0
9.102170347200483 1.324733726345249 0.0
9.013857060361985 1.178821526410403 0.0
7.991031819452564 1.587689878441685 0.0
7.767218744640202 1.595993197647291 0.0
9.191539171305216 1.194087248761656 0.0
9.123965901037613 1.057102462689568 0.0
4.853921953226772 3.470213116851758 0.0
7.496563223334782 3.470157221608763 0.0
8.536691379028115 5.921845852206257 0.0
8.475496498707471 6.037633662010236 0.0
7.978668526342969 2.307231488316941 0.0
9.384721922092124 4.337357165846226 0.0
9.331039180200886 4.435926256444196 0.0
8.546261775564837 6.150267290476958 0.0
8.411727261785726 6.155319300628062 0.0
8.972203609044218 8.930944433074036 0.0
9.133480321468399 8.90955269607895 0.0
9.197778815538276 8.768743880012563 0.0
6.162231825784922 6.05277753404107 0.0
5.962111081146334 6.046949845237622 0.0
9.268727788642101 4.146883230687689 0.0
9.380694211527906 4.144811697563401 0.0
9.323823335199954 4.049557759546529 0.0
9.283324894520613 1.736313094621396 0.0
5.858151623803662 6.22041808248046 0.0
5.759668475561988 6.038806123495502 0.0
7.836860473863919 3.191674397465999 0.0
9.348591928839294 6.75855034547469 0.0
9.293979592221298 6.870213350675044 0.0
9.170543172728557 6.879819332293818 0.0
9.240028263813034 6.983394994050525 0.0
4.347372565145963 3.312731475520695 0.0
4.114183445909965 2.96879678229065 0.0
8.616264880152233 4.042035981070631 0.0
9.403174760076901 6.650407069150438 0.0
4.173860112179449 7.723461240865885 0.0
9.365302975518428 6.973476802087294 0.0
9.312420275675276 7.088420778208979 0.0
9.184876614539778 7.0978133687822 0.0
9.25921281729617 7.204979813006656 0.0
9.12816413817609 7.21569648263899 0.0
9.203944409919862 7.322703303071253 0.0
9.334311975087337 7.311477957762272 0.0
9.280415785210538 7.428795599957155 0.0
9.274060219641907 1.066603180421249 0.0
9.211820491509728 0.9316562593680151 0.0
9.050684011148748 0.9017681241401576 0.0
9.441953732403995 4.432092590771756 0.0
9.394725873909666 4.526051349391942 0.0
9.43453556160865 4.048003950509361 0.0
9.378043599351757 3.952631412328806 0.0
9.289691247910705 8.890746792319852 0.0
9.228148443138926 9.030109127390128 0.0
4.440757888677695 6.389562448928118 0.0
4.689874463978985 6.239329075084555 0.0
4.291519540095677 2.622920583112654 0.0
3.886073352912894 2.632778677714434 0.0
9.344015622314338 1.202401041544343 0.0
8.193292196814806 3.849649660906171 0.0
6.960946604527747 6.07044529864598 0.0
9.347708267319902 8.756364147482309 0.0
6.826423138602714 3.261415861395883 0.0
6.06309517882478 5.884563187328262 0.0
9.4085057714426 7.414123963607981 0.0
9.356416821537886 7.532359471354527 0.0
5.042074134251055 6.938947182785697 0.0
5.063988238156824 7.311205832605263 0.0
3.946666851334923 3.30681624613374 0.0
8.189857914071878 1.939951128540477 0.0
7.880690277686857 1.38928908049477 0.0
7.63766396748483 1.399736360041063 0.0
9.345004233592562 1.857695941115052 0.0
9.440465164139875 7.085860901905448 0.0
7.918332480761888 5.744468010879592 0.0
9.08007135068879 5.372457017512481 0.0
8.78639561093144 3.718391405525285 0.0
9.356843485085705 0.9414458825132457 0.0
9.29705128845331 0.8103081541678832 0.0
9.251825423225316 2.451701826351773 0.0
8.483895366325516 6.270717564685176 0.0
8.346386886249478 6.275973306650227 0.0
9.493299170161215 4.138582531223591 0.0
5.321115649032961 7.117073603021904 0.0
5.354076009109965 7.436189411362466 0.0
5.597984079819928 7.254284331170681 0.0
5.644042313435943 7.564172740776336 0.0
5.383963016128051 7.753854027984002 0.0
5.681168258142109 7.880444993178456 0.0
5.935548099874979 7.687258900444162 0.0
5.979508404301389 7.994332725561488 0.0
6.21936843555201 7.802335560754011 0.0
6.267092590637372 8.104873033518185 0.0
6.498845418385807 7.917606504106031 0.0
6.544600005636809 8.209910620392591 0.0
6.77336078689533 8.027284686082275 0.0
6.814840179123049 8.311778392637773 0.0
6.721304148677048 7.737863326704131 0.0
7.031320924898797 8.1335673274533 0.0
7.077388928622946 8.403901803728003 0.0
5.417471987089176 8.090112295667405 0.0
8.845427688507666 2.446352368201366 0.0
9.318512319918124 2.339233739859646 0.0
9.380241452597096 2.451895615249572 0.0
7.283805558009199 8.237518806365102 0.0
7.329200330160381 8.497045124353782 0.0
7.233272584416691 7.991590926766813 0.0
9.142592248414191 5.471315142785471 0.0
9.196303265878848 5.36738298742727 0.0
9.25795832955665 5.465260877691205 0.0
9.310581303233182 5.36341558704714 0.0
9.371094700882272 5.459458038195667 0.0
9.422767107822985 5.360687090455724 0.0
9.36402660964156 5.264821436196721 0.0
9.474220736978928 5.262802348886269 0.0
9.41680330511366 5.169477108906666 0.0
5.168675939028436 4.895496152382537 0.0
9.482591449057548 5.454699312257291 0.0
9.431567605310825 5.552723344040521 0.0
7.531449703396948 4.741663470323411 0.0
8.517293123442691 4.672601123164268 0.0
8.459978676626639 4.778466809901586 0.0
8.396595115309985 4.67568709170855 0.0
8.338966609235166 4.782101664607259 0.0
8.275355646032752 4.678829956447008 0.0
8.217675280223542 4.785699596769931 0.0
8.28149024865807 4.888803783902183 0.0
8.16019781596952 4.892696417098926 0.0
8.22433278506531 4.995725219088695 0.0
8.102825704443651 4.999629142625341 0.0
8.166887930010795 5.098242831115916 0.0
8.034904900788316 4.896825406879729 0.0
8.15353539905931 4.682103688185489 0.0
8.211891449058882 4.574219757233394 0.0
8.290305306104333 5.094007100958221 0.0
8.225684228618732 5.201525567655179 0.0
9.444618942559746 2.343141375196729 0.0
6.929446520625337 4.868116916840016 0.0
5.737810725167649 4.893891407574175 0.0
8.720389971487277 5.38508368411851 0.0
8.805734920311323 8.951818172412821 0.0
8.905272694453211 9.083303226359831 0.0
6.006155038818204 5.171375272745409 0.0
6.431496448228514 5.152985998213245 0.0
9.052675024457304 7.106590131831544 0.0
7.740007013494393 6.09727525827826 0.0
9.375852260355511 9.013078430361404 0.0
9.32035844773103 9.14584923943073 0.0
6.989707597683965 5.146377438798643 0.0
9.488190206836386 3.951168069367155 0.0
9.432429152094464 3.855725756072153 0.0
5.568386402814275 5.185723849666124 0.0
9.525561551078322 5.166162126187324 0.0
9.465026391994275 5.072601962964018 0.0
9.320357339516937 3.857795423728873 0.0
9.375955927831914 3.759314274140895 0.0
9.261783786753899 3.761412578759438 0.0
9.31820665563318 3.661845422072752 0.0
9.431798673168924 3.660830894813109 0.0
9.374584413615914 3.563138564686839 0.0
9.48759661134647 3.562294297118573 0.0
9.431339678707085 3.464016717943268 0.0
9.417896212887529 1.746970678437863 0.0
8.731705369070733 9.110902182838881 0.0
5.652297951447118 6.21188565774667 0.0
5.569122518069258 6.024400786163834 0.0
8.257007204149394 3.505875091031567 0.0
8.717428603143034 2.925525757227976 0.0
6.882852832747376 8.57686572931064 0.0
6.337330066435714 8.416819098143066 0.0
9.50188906539997 4.521022403818629 0.0
9.453500859905136 4.617181635748691 0.0
9.46806769570129 6.749352117850711 0.0
8.836822104875719 1.72282859852854 0.0
7.481071063421426 5.64593758994851 0.0
5.668814988976305 5.86611128457842 0.0
5.487644760735084 5.847591822776978 0.0
8.993992818065195 7.228173913870249 0.0
7.98322414937693 7.229980191466666 0.0
9.22810751684646 7.54864871395298 0.0
9.304103360459063 7.654622011545798 0.0
9.432787371848761 7.633691049023619 0.0
9.382619818023882 7.759136995934441 0.0
7.239096822516492 4.679179578301165 0.0
9.47692479956498 1.861231395362419 0.0
8.041243110813022 5.095895152648969 0.0
6.190208781188077 7.509864122823853 0.0
9.283062812782122 4.549418667685757 0.0
9.503847665760087 2.450295046295932 0.0
9.443345385250678 2.557904120404248 0.0
9.52009568463353 6.644015937008899 0.0
9.203119005973903 3.662458522935253 0.0
8.406198651282708 5.92630414760378 0.0
8.467263597743843 5.811987729136874 0.0
9.461423029059445 9.128120577356565 0.0
9.408445330070542 9.26024300250086 0.0
9.266505293379728 9.277952925446408 0.0
4.14874709022218 3.631681332690154 0.0
9.437448107949258 0.8198473430736303 0.0
9.376993771693973 0.6910550697058979 0.0
9.22882356848217 0.6931820370818127 0.0
4.451823867195988 6.103664366188579 0.0
4.200031743909027 6.232039028149317 0.0
4.687154754667774 5.975132870483986 0.0
6.268889397098538 6.592235545990395 0.0
7.509366161722768 8.340075462391164 0.0
7.564775703413765 8.59800936579159 0.0
9.542148732924264 3.854614593058991 0.0
7.036231103929761 6.550562550831048 0.0
4.089373665437328 2.268193930262139 0.0
3.642558884866483 2.250386188148396 0.0
3.442182385618804 2.651948803899947 0.0
3.146832503011753 2.222630466765926 0.0
2.948870467975985 2.805088883766417 0.0
9.352005315330274 5.067356449300542 0.0
9.31729677031493 3.462944187594675 0.0
9.37428383619102 3.365546369736205 0.0
9.4883538239391 3.365384871181599 0.0
9.432147665178338 3.267287636377487 0.0
9.25034519267688 7.775848812012313 0.0
9.332091350002502 7.881724023243533 0.0
9.462101000264603 7.86490055671988 0.0
9.413353271651825 7.98561007219363 0.0
8.273592814723814 6.158623919352561 0.0
8.207135014732339 6.280394934566054 0.0
9.541483811580331 5.548224291759592 0.0
9.491365919893726 5.644847811894615 0.0
8.088095771120983 4.577581369371366 0.0
8.14760102783746 4.468303741922308 0.0
9.556217963323956 4.414867468889523 0.0
9.543667331547693 3.266908751519594 0.0
9.489307652535885 3.169908976697059 0.0
9.26285575842982 8.635341362685686 0.0
9.403220742003983 8.621447866627538 0.0
9.326013417886902 8.506778946171965 0.0
9.455477927154853 8.503896705359047 0.0
9.566646674069602 4.611465258087684 0.0
9.499341049870914 0.9352184973273918 0.0
8.683891958597638 1.444705608998412 0.0
8.599973456173778 1.287265568270043 0.0
7.760988189317371 1.175381292562583 0.0
7.50927661322749 1.171223823957793 0.0
7.380927152434357 1.411062577009695 0.0
7.242417847270241 1.170759311509981 0.0
7.107236746116019 1.421234419770886 0.0
6.960799033544566 1.169618322344823 0.0
6.817786081200392 1.434174581170586 0.0
9.48095050141868 8.738557748483624 0.0
9.319762046171894 3.263060331456388 0.0
8.920653400180534 7.117307656029475 0.0
9.452431221190624 6.544166520883111 0.0
9.571407933653493 6.540336592280795 0.0
9.507586285214174 6.443281357841339 0.0
9.575252974749443 5.070210512157044 0.0
5.755172844377253 6.370710487467459 0.0
9.541351959064952 7.969072511059531 0.0
9.354607289792183 9.3921968735401 0.0
9.495213435762107 9.37218405175897 0.0
3.77688136092967 3.643094492921176 0.0
5.460967180339239 6.159077196937325 0.0
8.656589552918996 5.283032675040985 0.0
8.599307076390474 5.387421722684671 0.0
9.584017606465821 5.263931993965828 0.0
9.51536593891754 4.977534386249715 0.0
7.788544970111893 2.70578432810479 0.0
7.381746833264364 8.755477463411431 0.0
7.615969996822885 8.852710176548548 0.0
7.783643411970649 8.691528137204457 0.0
7.845017394185501 8.938777577473743 0.0
8.570520580943368 7.342304222498308 0.0
9.103648004226827 5.781084627507008 0.0
8.338082930126799 5.815990105349368 0.0
8.930848895071895 4.561111316304916 0.0
7.381089602119859 5.983657236035151 0.0
8.42066837692862 6.393608568217351 0.0
8.888256157021065 6.459558428285236 0.0
8.826495664731354 6.575679897210801 0.0
4.22522220414496 5.921354747981145 0.0
3.943296448343383 6.075578573904587 0.0
9.563175937841836 2.554860696349795 0.0
9.505342423182917 2.656889632284623 0.0
6.660863480070611 1.168750929063519 0.0
6.518316961679488 1.436478598119306 0.0
6.683474168246802 1.694104067636375 0.0
6.376799057174731 1.707382100972048 0.0
6.205091481342603 1.443621641108414 0.0
6.058670988071357 1.728841803855816 0.0
5.877457486049096 1.454297236926778 0.0
5.724979192982589 1.756666409586195 0.0
5.529885788012015 1.462283739157555 0.0
9.514953777019835 0.7018468683209754 0.0
8.398665270372675 5.702731562702358 0.0
9.456442249775696 0.5772068858285652 0.0
9.565795671866349 2.345573662774494 0.0
8.830758563027459 9.247271599108435 0.0
8.523580738257648 4.88015211128435 0.0
5.580123316488715 5.701889892660689 0.0
5.398591029446707 5.685938459654249 0.0
5.367686360823392 1.778740548277203 0.0
9.546603444041448 1.754984055696778 0.0
9.489649223089446 1.641312329051244 0.0
9.617973952467912 3.363804764345866 0.0
9.584322830999731 6.729956156156573 0.0
9.597221861144487 3.948534024289882 0.0
9.49401963819799 8.089507968561776 0.0
9.207321074262563 9.416906871900888 0.0
8.27185428346661 4.464932191097996 0.0
8.207416067213774 4.35878753684812 0.0
8.332747746635944 4.354903699457511 0.0
3.990181919126853 3.930792395858886 0.0
8.267392138262498 4.254008221702929 0.0
7.997788712685495 1.196805377512679 0.0
9.600316638269724 5.639973985281733 0.0
9.550939606739425 5.737313319038155 0.0
9.44084303195315 5.74233753256161 0.0
9.50112296154558 5.834555019909565 0.0
8.897429225733994 6.685415510921676 0.0
8.762930941408914 6.695907295903629 0.0
8.654628175336732 9.278157371342388 0.0
8.544676900803436 9.133790942553834 0.0
5.294904777716057 5.855935872688884 0.0
5.216749389964556 5.66865685845661 0.0
9.508453581298625 2.239460033375932 0.0
9.599691370793206 3.169496930704394 0.0
9.546615051106684 3.073514534194011 0.0
7.484714626923596 5.028675123117963 0.0
9.588496050271255 7.850836295555126 0.0
5.153197381012662 1.471340286561097 0.0
9.433168304679345 3.071871997104804 0.0
9.610464706874994 5.829217654498672 0.0
9.561407772947403 5.926179534044419 0.0
8.273381980676042 5.705233340662362 0.0
8.330794188929296 5.594351887246082 0.0
8.207319603076424 5.596747949305344 0.0
7.251338559467102 5.233758892662348 0.0
8.708518799790543 1.130513882092466 0.0
9.590155250193266 0.5878623138195824 0.0
9.389919385420015 5.841079912164009 0.0
7.991397852194216 5.859910582924319 0.0
9.624951589233206 4.975554514425905 0.0
7.240016788025947 2.531866266726309 0.0
7.635666783493215 3.873554782053258 0.0
9.608476620993713 1.863530872936442 0.0
9.365330459496413 8.10677840682376 0.0
8.775076110585598 2.572737931759856 0.0
8.699389445914996 2.444602334375113 0.0
8.625078713232146 2.580891022578613 0.0
8.54447196848446 2.447624719286678 0.0
8.468898498943965 2.586757328881282 0.0
8.62282309213608 2.307826916202421 0.0
9.622102662978762 6.439307895185218 0.0
9.561995355724862 6.35103962032292 0.0
3.898245450818314 1.856155797593496 0.0
9.681759177700954 5.07069253017652 0.0
9.059254996454502 4.963357716933865 0.0
9.113144532326562 4.861710138088372 0.0
9.62140874877204 2.656009146517733 0.0
7.884510615470827 0.9666888912541309 0.0
8.14902661050739 1.005010215149227 0.0
8.491263206618079 8.527197931363634 0.0
8.408859203395778 8.697060715788105 0.0
6.54422152733529 1.954566069381189 0.0
9.563546573097593 2.755667904356369 0.0
9.453065492925557 2.761122255953964 0.0
9.676889098520615 2.755084315170127 0.0
9.678287124781653 2.556838324720633 0.0
2.60254317790297 2.278874965850319 0.0
9.211706272534968 4.050470567310489 0.0
8.526711683538949 5.698821878547752 0.0
8.296604023060945 8.533761944401608 0.0
9.649704314258118 5.543946557831669 0.0
9.651176136337964 3.85122804518279 0.0
9.44590154800397 9.498503704959054 0.0
9.580491248736612 9.476376347552954 0.0
4.3239388803087 3.921156392977062 0.0
9.65737873521736 3.075324100817917 0.0
8.128000846282253 6.160273991836929 0.0
8.06242981852327 6.292371360998262 0.0
8.500465019503922 1.442700595221201 0.0
9.615253212967009 1.649819368149096 0.0
9.561768620580791 1.538553925606111 0.0
9.435477757657937 1.527391516499924 0.0
9.627993450010088 2.242685831452484 0.0
9.5338252733548 0.4673994795805215 0.0
9.398055066504014 0.4589059948533885 0.0
9.669486082509058 5.920177035588319 0.0
9.621072177439727 6.016493814615133 0.0
9.506185962103057 6.018397021409126 0.0
9.196884440497488 7.898824858961557 0.0
9.112591143666748 7.789491461180181 0.0
9.664357762385308 7.950712034233033 0.0
8.46233617997115 2.308903464128035 0.0
8.547917980328803 2.169381684694277 0.0
8.139931430059324 6.410762600521521 0.0
7.672499127532963 9.099143622036436 0.0
7.91372855627271 9.178704612763656 0.0
8.463425076318451 9.290653726808348 0.0
9.643938029094286 9.335632419679458 0.0
9.647017668702574 0.7068996148634754 0.0
6.241662276606473 5.884018212993202 0.0
6.157742245066693 5.73500474100449 0.0
6.318815619949124 5.730068085823802 0.0
6.247706374231452 5.593094310939028 0.0
6.406948541886973 5.593272398468375 0.0
6.092564106310554 5.587409338401505 0.0
8.535507922245372 5.286142900439676 0.0
8.022959839404006 4.471630490587016 0.0
7.963561162854596 4.581393556789843 0.0
9.683487139413305 1.546750704925431 0.0
9.630761777960082 1.435922217091829 0.0
5.121714348989337 7.950140247572198 0.0
5.136464096196084 8.310254432483559 0.0
5.47349124035624 8.455234262268478 0.0
5.176273618280354 8.687190323573228 0.0
4.796664658962938 8.592678692862421 0.0
9.568705729418735 4.887269869750176 0.0
9.462711651199594 4.88832222094458 0.0
9.674903475028225 4.882285174433025 0.0
5.4996067353406 5.546583260717527 0.0
5.663632234555963 5.557613452957074 0.0
6.829408195405585 1.947174574944512 0.0
5.336529198289861 1.127585641139875 0.0
9.672387559812332 6.34138351957329 0.0
4.463988917379896 2.271060678869338 0.0
8.618048281355405 6.263841736419089 0.0
6.480949808711781 5.74815588680617 0.0
6.562207427719153 5.592185077216444 0.0
6.643040463857446 5.721233693378952 0.0
6.712825900331884 5.588664360236 0.0
6.79240375630333 5.711383948285569 0.0
6.86115931532141 5.584697050428064 0.0
6.939210100691576 5.704407337029545 0.0
7.007668476576536 5.580801046893123 0.0
7.084627386867475 5.702817970154801 0.0
6.633257976075473 5.460881327825488 0.0
6.931430743764456 5.461960451448691 0.0
9.682652370938209 6.533133024505995 0.0
8.761108695241376 9.450742747770144 0.0
9.146031326900015 3.764292700000154 0.0
9.089378801805193 3.661317181076136 0.0
9.514354521818781 8.994988681611192 0.0
8.157650730500988 4.262987189670279 0.0
6.329633198899328 5.4647789391701 0.0
2.340685767996258 2.811285337457589 0.0
7.379572471323651 0.9290892725587991 0.0
4.171878172186605 4.222320767259098 0.0
4.4876601621649 4.16473354200826 0.0
5.336389369563535 6.806464508860387 0.0
9.595468321212476 9.108133206829102 0.0
9.645038675267227 8.982113951305912 0.0
8.393140678816192 4.246338342095281 0.0
8.309440721624494 4.155300532283633 0.0
9.418269339704423 1.9925512363779 0.0
9.662781807969623 0.477809346089035 0.0
8.011297869803792 0.7518828483803571 0.0
8.250149975885678 0.7646904662196189 0.0
9.608674873602773 0.3618049194050078 0.0
8.692696069692623 6.582927327365709 0.0
8.628225948401226 6.705702462696891 0.0
8.701883181418305 6.822086652299242 0.0
8.559276855155542 6.829564723911442 0.0
7.069268463354993 5.459534423493629 0.0
2.654575201159115 3.323490466195074 0.0
3.610801136544596 4.044075244426243 0.0
8.263757217166944 5.48730323490738 0.0
8.138838162809126 5.491254533497952 0.0
7.90196833683664 4.477386962763833 0.0
7.987943097943191 3.978756490171551 0.0
9.704623491880403 3.945605151832784 0.0
9.461009573830147 7.301728818091931 0.0
9.532468631193666 7.399916015174975 0.0
9.582688928417856 7.292330983701011 0.0
9.652579613269625 7.387768793572397 0.0
9.699264016151023 7.282867433965265 0.0
9.633305589700536 7.188543855060478 0.0
9.505576100168666 6.961225778216469 0.0
9.43876966151099 6.342441564206569 0.0
4.908483672172518 6.098703904450545 0.0
9.135448256237908 5.269827196966999 0.0
5.905650502271389 2.025036080946255 0.0
9.709890722072377 9.452748507541063 0.0
9.663337613522643 9.572126259365891 0.0
9.603900123387826 7.495180532331903 0.0
9.720147629525837 7.483400774981126 0.0
9.674588415444239 7.588303295299578 0.0
9.653186673863587 4.039274180923234 0.0
9.053164539680804 4.764545162185531 0.0
9.164908495749003 4.763017269285045 0.0
9.226019227262443 4.858029410614327 0.0
8.809947621994619 3.4964384919072 0.0
9.10538997155458 4.665865142902959 0.0
9.331074106432244 5.748993480915537 0.0
9.055854333858068 7.918554535314415 0.0
9.446431573964945 8.209836764658437 0.0
9.573844810886287 8.191100251691205 0.0
9.309704769895653 8.244395007943949 0.0
7.240329561730736 1.676197957122907 0.0
9.543389817573933 3.660019800390455 0.0
9.598599341122098 3.563130123982772 0.0
9.652615161407017 3.658119804270645 0.0
9.706336063693934 3.564815526226687 0.0
8.632284427755456 6.946688912416058 0.0
9.682863230715835 2.349655023034811 0.0
9.571538455120994 2.142369886250143 0.0
8.090821900439733 9.017409120951333 0.0
6.812258669899192 0.9007667548831626 0.0
6.50135254578461 0.8974046495177885 0.0
9.598335906230732 6.246437748035812 0.0
9.719677442549804 6.253968775436637 0.0
8.593026822691716 5.180101360605356 0.0
5.537586126848265 8.836083861509138 0.0
9.688689404995035 2.143487155934306 0.0
2.821389253975936 6.507820864074362 0.0
9.176571289960709 8.507736431357309 0.0
2.918303740542162 8.256728920338826 0.0
3.428955230180972 8.401446814887457 0.0
8.490587404589881 6.715350139132777 0.0
8.86049054904785 7.243279881821806 0.0
8.93696309213556 7.356650230611625 0.0
3.951931175165697 5.78308550088855 0.0
3.65055612573298 5.91672400098539 0.0
3.668142216548471 6.247526235973777 0.0
9.717269848920886 5.821831227352286 0.0
9.708364917734201 3.164198601626433 0.0
8.45581975650687 4.569560863828342 0.0
8.204448312099833 6.040774355519757 0.0
8.65969449127868 5.485991799508151 0.0
9.707534571012967 5.634423933296901 0.0
9.62102991883279 2.849662850313935 0.0
9.144093558002634 3.560383427867003 0.0
8.29763273805118 1.77155302934031 0.0
5.280452715709455 9.01633391004168 0.0
8.984558945859158 6.99932633710603 0.0
8.4157550875812 1.275784953143711 0.0
2.068078118650995 3.355462780535101 0.0
9.205703884756806 5.568274778556933 0.0
9.745857863753141 7.178456670302003 0.0
9.681628895748586 7.081494416756802 0.0
8.875818787971069 6.240744812097083 0.0
7.993733797566922 6.414830952863579 0.0
8.462810157069566 3.377071044664789 0.0
9.29428363519789 4.759591981903337 0.0
7.933956818298286 5.97437536746848 0.0
9.028281726378319 3.558713145763133 0.0
9.083461773461467 3.455531762175701 0.0
9.73231939683535 2.849247643393067 0.0
6.70072305037728 2.192432536215492 0.0
6.423245125077639 2.212870246546939 0.0
4.931537051605536 1.135086496804522 0.0
4.746426561586179 1.500381091957315 0.0
9.707706579932626 7.836419656220658 0.0
8.590593344701457 1.595639668013959 0.0
8.708946574109854 2.1688179918246 0.0
8.634728854549891 2.028564483452208 0.0
9.230357659411311 8.129337203173913 0.0
9.102841374461482 4.452881308250647 0.0
8.472081531214734 5.388993924853032 0.0
4.925996806199801 5.844046944846857 0.0
4.702806345752284 5.745688656289065 0.0
4.884357002239844 5.633237011762874 0.0
4.709628434300812 5.536404116679045 0.0
4.530800966746534 5.627044171217377 0.0
6.040296145349247 6.603808099703576 0.0
6.162203578696918 6.795213950202512 0.0
5.923135943221574 6.824060069869489 0.0
6.046693245732212 7.010423490915212 0.0
6.297337598588478 6.979895528204233 0.0
7.760448385794147 0.7294020304851334 0.0
8.492228348169641 6.958778476405878 0.0
2.89219822877093 1.704113597264478 0.0
2.26178643438086 1.7814602252425 0.0
9.726968895980871 6.009547057102511 0.0
6.63195110828313 0.6072886418835157 0.0
7.984023036954866 7.515675826210831 0.0
7.893857204140559 7.681876703427663 0.0
7.778465117872411 7.537836322197895 0.0
7.998204230811618 7.844922503023499 0.0
7.798554315988981 7.858161805718108 0.0
7.917846202023782 8.03040048103727 0.0
8.547520504556728 2.721261126162116 0.0
8.39253850806587 2.732073315877738 0.0
8.306047241032278 2.59069854402512 0.0
8.233011054235162 2.739783364361515 0.0
8.318836035587811 2.879838477099622 0.0
8.159530874574331 2.888511553151382 0.0
8.245490421394788 3.024568439743106 0.0
9.759103003747676 3.077839427881478 0.0
8.083610090773394 3.033523757291178 0.0
8.174562583800352 3.166768504406541 0.0
6.046769434852523 1.155662270344939 0.0
6.968371001421964 2.176347877216873 0.0
8.324858098380334 3.152966249334499 0.0
8.145556596142626 2.609897633546475 0.0
8.970652052821418 7.804556541250797 0.0
9.033737629244714 7.681328986528639 0.0
9.62347010002576 4.796939565664328 0.0
9.72520380348743 4.790261082613535 0.0
4.882631186210167 5.455006233451049 0.0
4.618356368594037 3.933076284395493 0.0
4.748083507220199 4.151025177732873 0.0
4.641724290430313 4.358202249373887 0.0
4.87055838101999 4.337900676660481 0.0
4.974114446887331 4.149149057174687 0.0
5.081577844806959 4.3240148266423 0.0
5.179521650033781 4.148725180298481 0.0
5.276261408871418 4.316673822529601 0.0
5.369189110897883 4.148362797753505 0.0
5.463892033849439 4.338819369807593 0.0
5.550828466075906 4.146274465971151 0.0
5.646554822352869 4.303571429647391 0.0
5.728109623160046 4.138582010823754 0.0
5.821689108984419 4.291959598724587 0.0
5.906082534948073 4.141649907302701 0.0
5.99655838673762 4.288752711512514 0.0
6.077312859438928 4.141011188943332 0.0
6.164215275138099 4.281164574562373 0.0
6.241782344986693 4.140701084167517 0.0
6.324316420613108 4.277393447415522 0.0
6.40284165425941 4.140026953305852 0.0
6.483655157361099 4.273418937894759 0.0
6.561170698911611 4.136221843106807 0.0
6.63512300179586 4.269917278694155 0.0
6.720306110251473 4.133393659385058 0.0
6.63777078218551 3.99617001426095 0.0
6.802492763973074 3.994355399489989 0.0
6.798834760478153 4.276914787769972 0.0
6.15377608509923 4.000134206628027 0.0
6.548727135071258 4.400510710520637 0.0
6.251479300130713 4.421887359316258 0.0
5.275876048175579 3.979624500657822 0.0
5.910905077162284 4.431174408784691 0.0
6.717070288412452 3.851239795555301 0.0
6.883499045994213 3.852555480300214 0.0
6.96664848901999 3.994033961856844 0.0
7.048208567116626 3.854750001965969 0.0
5.810004974283072 3.982497501655442 0.0
5.586615391658107 4.471070246359201 0.0
6.547331954052155 3.853872077215347 0.0
5.179081233207816 4.485638492900557 0.0
7.126615227065496 3.995337770596979 0.0
7.209459742762513 3.856893463870469 0.0
7.130226097876905 3.713620439679428 0.0
6.63075064074106 3.699684148676045 0.0
6.446985573861992 3.697358756862005 0.0
7.043151422977365 4.131713936060725 0.0
7.198322215260019 4.129850614748363 0.0
7.119378405252723 4.26005098890218 0.0
4.797146270976422 4.525762781577414 0.0
4.608329098388589 4.573584257851931 0.0
7.294442092743627 3.720853338661503 0.0
7.215753312764997 3.571378507508807 0.0
7.049631633956289 3.568047985538775 0.0
7.133765707749521 3.414282375958479 0.0
9.755079417839903 5.539705890434435 0.0
9.698955703441971 5.450920012703194 0.0
9.717604099406742 9.09084770432896 0.0
9.276716006673976 5.847248422342224 0.0
9.339081208926798 5.941174203394446 0.0
9.031261921742963 3.750271483819014 0.0
9.08721978689863 3.853416037308712 0.0
4.801461566647803 7.510704110489921 0.0
8.206553504932042 5.818005960412773 0.0
7.362361315389098 3.863102442315545 0.0
9.492826845316191 2.963845037486267 0.0
9.376710375304633 2.97229517374228 0.0
9.3192743723601 3.070687802230453 0.0
7.915389082113898 6.293241865913004 0.0
6.735006382384437 5.832450056405368 0.0
8.456481836836168 4.35369289249905 0.0
8.517718268476031 4.246675068616396 0.0
5.583512022030555 5.411069060406398 0.0
5.73625200174779 5.422617752052123 0.0
5.81006929286229 5.548584937688919 0.0
5.903438861894402 5.420604003204523 0.0
5.43801870974416 5.402925156167655 0.0
7.022641548594327 5.825217331839047 0.0
7.165095795605366 5.826005223633447 0.0
7.223078558430726 5.690146755650336 0.0
7.841396000338385 4.586693006493787 0.0
7.904793170875705 4.690826189066096 0.0
7.785999820520073 4.696719777099973 0.0
7.846448506395101 4.798518978096564 0.0
7.728149182067156 4.803800941124008 0.0
7.788983823826226 4.904802634695232 0.0
7.672018889153144 4.910077510508749 0.0
7.731996012352178 5.014717724244488 0.0
7.852072803124419 5.00743796185411 0.0
7.779278698005006 5.118909346425974 0.0
8.088113864063853 5.605434545811022 0.0
8.016457362785575 5.494849890158723 0.0
8.072290383394757 5.385594956317259 0.0
7.95068657972964 5.38825563681957 0.0
8.309366678475389 1.438342408757099 0.0
9.748160780780179 1.447794693754379 0.0
9.696454228162398 1.337889922375316 0.0
9.568813761940916 1.329560834053294 0.0
9.638326779791626 1.226729570935787 0.0
8.472132467407484 5.182856496818138 0.0
8.066211547412054 6.53691730655352 0.0
8.217035586462373 6.522976700918602 0.0
3.544839338670893 3.324491119989469 0.0
6.999740002965287 5.347729916247808 0.0
6.874544698914502 5.347027470386579 0.0
4.880451234715014 5.193043717957879 0.0
9.104510033763066 9.313204713465637 0.0
9.0466357104558 9.45359399494339 0.0
9.146803165140184 9.569652364413551 0.0
8.134107047896672 0.5527712356100052 0.0
8.369770412730738 0.5571215815175228 0.0
8.47386979744655 0.7564607169846485 0.0
8.585193608569258 0.5749174254532757 0.0
8.683868132726584 0.75505070091701 0.0
8.787381435061018 0.5813987798627239 0.0
8.697570280442534 0.3771156480326233 0.0
8.530048434259976 5.077280516000916 0.0
7.995091351438729 2.90367515012593 0.0
9.731083608815164 1.662638626153251 0.0
7.260488865351954 4.255073962371814 0.0
9.760728358076392 8.990038509880067 0.0
9.716710396257366 8.884160310398862 0.0
8.794627466210242 7.369659405098349 0.0
8.868068657550866 7.515048014893154 0.0
8.702594597629135 7.510501129643432 0.0
5.132320689147051 0.7610757801158905 0.0
9.755852887652699 3.853180024615871 0.0
9.787424819067885 2.757921105725315 0.0
9.731193479931608 0.3736343090103709 0.0
9.796526908308536 0.489684029254899 0.0
8.226019692057042 2.453349105940535 0.0
4.560989821496479 5.428206018250252 0.0
4.348810639659689 5.517048281386008 0.0
8.785190163106925 7.119142251269924 0.0
9.015515413043023 7.464769766852701 0.0
9.754861440190705 3.659036930324926 0.0
9.7543610723378 4.033687839160082 0.0
9.707881226943384 4.127219992296752 0.0
9.52841017383273 8.309020665649431 0.0
9.65186044414544 8.289498614805698 0.0
9.714051275521857 8.173576484362068 0.0
8.209758892476394 8.715513071423135 0.0
8.097084883671858 8.548851201381087 0.0
8.177989947800599 8.367872862579052 0.0
7.974142434808908 8.36779470623567 0.0
8.409012054919861 2.142624252464372 0.0
7.707002321497132 8.039129945341395 0.0
7.574653123518228 7.83895791570255 0.0
9.229858094382692 5.951357214361815 0.0
9.75307989876696 1.229893222503321 0.0
9.715811155868643 1.128779429890018 0.0
9.597960915003707 1.117058287635912 0.0
9.672063923518955 1.020806103150243 0.0
8.99090422125785 9.593878510105375 0.0
8.133165456134304 9.257620998029804 0.0
7.976779931497633 9.420725324095141 0.0
9.77231778617502 7.927819487779705 0.0
7.957213679655531 4.364530256281665 0.0
9.609903116082736 8.403725680286847 0.0
9.724891358972584 8.388392708395173 0.0
9.687487059868507 8.495935345161797 0.0
9.810055520269009 8.494090598382963 0.0
9.755967487162335 8.599790818513082 0.0
9.645698986824481 8.606121319182705 0.0
9.721376049217765 8.699989876681524 0.0
9.773009257015609 4.884557953188837 0.0
9.830105798750992 4.796546393900876 0.0
9.775335108731761 4.686093304257503 0.0
7.455611517737074 3.730099283949135 0.0
8.906943567829634 0.4197477661467797 0.0
8.980613334153533 0.5814185917581446 0.0
9.081059111759728 0.4263421860552371 0.0
9.821654809259165 3.576985724143072 0.0
9.761309244784803 3.4792267780002 0.0
9.763329553045937 9.353068233045157 0.0
4.463051839136694 1.164440352584939 0.0
8.0213168204867 5.283436382300235 0.0
7.89385412333227 5.290429544753158 0.0
5.806940001023414 8.583716119232427 0.0
5.88977793877374 8.96065112858812 0.0
9.177759062826041 8.25539130897928 0.0
9.626582559276994 2.05283181283147 0.0
9.747673294325121 2.064954301745188 0.0
8.775905508647185 6.951821187702613 0.0
2.3581644273991 6.029034686663493 0.0
9.777798009058461 9.548066962498762 0.0
9.737129197219856 9.662299853506903 0.0
9.615080366030512 9.683349544763068 0.0
3.315839678697904 6.042943273456425 0.0
8.915083018115329 7.937748428923896 0.0
9.489832173860055 4.712364754630572 0.0
8.118313727862493 8.013944064029838 0.0
8.902248750797776 7.67372145952523 0.0
8.954075939212636 3.463080912810881 0.0
9.45247551997678 2.133243108303608 0.0
8.311151553157742 8.899233004613622 0.0
3.28672004268868 6.826745674539142 0.0
9.86008383798735 3.468233656255824 0.0
8.389990589860254 1.947086063498656 0.0
7.144231739553659 5.329544660076687 0.0
9.654500729007207 7.743301971143119 0.0
9.761920842881946 7.740144345898896 0.0
9.692820773976567 0.2651585113981998 0.0
9.690951720399688 6.100517071814821 0.0
9.775704281989471 6.077882312279847 0.0
9.823117117198079 4.115168542267924 0.0
9.764391943581737 4.214465954230587 0.0
9.659455011849253 4.218716850797838 0.0
9.713462125022623 4.30742830316693 0.0
9.849638067150842 4.208845651573708 0.0
6.376241713254513 3.858766051594979 0.0
6.274931849158213 3.701528298009006 0.0
7.097780104117746 1.926449727602711 0.0
2.457742027508782 3.810157622192786 0.0
2.963634206580268 3.740748099915693 0.0
5.065585416063965 5.544355730437482 0.0
9.783560252464587 7.566507987677117 0.0
9.825819294611026 7.470942204664841 0.0
9.799976114123012 1.01659516618323 0.0
9.745559590633832 0.9150866860898854 0.0
8.20473400632469 9.495828670767946 0.0
8.784586030320169 2.054461500762216 0.0
8.758471587067168 1.888286802854785 0.0
0.9188935087347281 8.510730800272478 0.0
9.674192026048217 9.20389587377276 0.0
9.796314981283475 9.185916994648775 0.0
7.206882433199502 5.452024361489832 0.0
9.773927048949279 6.334665846819535 0.0
9.830288393591173 6.225300227041885 0.0
8.25177349297509 3.282767705830209 0.0
8.099233469407428 3.304040153764131 0.0
9.607860512870598 4.315652630490023 0.0
9.403674738018715 8.367349042046314 0.0
7.611756786273919 5.018691202305147 0.0
7.549513964643336 4.923310232561835 0.0
9.80986724662116 0.2915868356190958 0.0
0.7757562810577034 3.504187313079081 0.0
7.659562100664981 4.698467529240196 0.0
6.539424975891206 3.541729955691742 0.0
6.717348880400739 3.55221857686142 0.0
6.836337579501807 2.417476958454302 0.0
7.096480496160066 5.959124656438389 0.0
7.189742782777612 4.377051328076039 0.0
7.051723187622053 4.38470822973091 0.0
7.125489805519186 4.497018383456762 0.0
6.994915621927777 4.501504591168814 0.0
7.056755276274058 4.607929817497045 0.0
6.932937068803914 4.613249390039674 0.0
6.86629288290367 4.50541343988659 0.0
6.80427099775847 4.617607827251794 0.0
6.739195362053689 4.511124964201849 0.0
6.677260697693361 4.624288827143181 0.0
6.996760608675822 4.711715831373894 0.0
6.316045249462968 0.6456945497683586 0.0
7.321834163850416 5.816449323512759 0.0
7.833101485370825 4.390058096386987 0.0
4.996572652976738 4.498711166259074 0.0
5.112334577457371 4.663858846723513 0.0
5.271923064784868 4.629759173373871 0.0
4.93773508827367 4.668006487116195 0.0
5.348137647919096 4.485934621930562 0.0
5.413454827497575 4.62999925573761 0.0
5.356581113747675 4.770594395332836 0.0
5.013422223730484 4.793321773780133 0.0
8.58674425943957 0.9312335381466886 0.0
8.776450596582496 0.9362399987293505 0.0
4.783496233934828 9.486061758876032 0.0
4.544176394620909 9.034071856445296 0.0
4.082330493623582 9.015765881393772 0.0
9.820867469965414 7.285959215547852 0.0
9.852697883440127 7.166089674802766 0.0
9.260999083164238 2.971390964911171 0.0
9.197701900169713 3.073162109379564 0.0
9.31960210441945 2.867465579641856 0.0
6.660951583415121 3.383363199709994 0.0
5.210469976037585 4.761678854423166 0.0
6.740780285297665 4.733615686805694 0.0
6.611362405615225 4.731958642073806 0.0
6.549091884465382 4.629620704100811 0.0
6.491761716522486 4.733409494449344 0.0
6.425259228542098 4.640546096196947 0.0
9.715556659367534 2.986725573570596 0.0
3.710524324925069 9.463213827486557 0.0
4.768537031214573 4.727001037865238 0.0
5.039413681704655 5.378508462165627 0.0
5.188746429211535 5.440476671296013 0.0
5.172214816037712 5.298914527247826 0.0
4.469063601436893 3.667917323494335 0.0
3.799121596584382 4.741629285988305 0.0
3.661085664896249 4.442847704416992 0.0
3.316563386321876 4.380147387454913 0.0
3.802087298647255 5.26743535640985 0.0
9.738116341343215 8.047178982429934 0.0
9.85106076399546 8.021725551312715 0.0
9.837581050304836 2.844176011307251 0.0
9.664579962075123 4.402853107737106 0.0
9.76433159763034 4.39807801415352 0.0
9.718924973226878 4.487825491046641 0.0
9.826405563645343 4.494594135148365 0.0
4.931068003413168 6.359330991212394 0.0
5.130175746947236 6.201075257041828 0.0
5.143884286052002 6.445382329515047 0.0
4.953395875296406 6.628748468717369 0.0
7.833019185167153 5.400347121613631 0.0
7.766636138801143 5.313240048256084 0.0
9.767038723422333 4.578090619166644 0.0
7.315369355237483 3.441501197259575 0.0
9.556068971301514 0.2347811136726856 0.0
5.733871280791703 4.444861510772459 0.0
5.828809543126846 4.569791247698539 0.0
5.986701526182213 4.562881783985375 0.0
5.912543327921148 4.692966271273211 0.0
6.052130330528581 4.682477327897978 0.0
5.773525984744635 4.697697018456535 0.0
6.121646311546238 4.572302645403103 0.0
6.182349700936326 4.67713231096357 0.0
5.846371383601797 4.808939734754761 0.0
5.117807918383606 5.974361363083184 0.0
6.256132501905665 4.575863546153224 0.0
6.324770064521816 9.645040261272253 0.0
7.345522892050965 4.12581088034536 0.0
9.338523512844539 4.854480276600515 0.0
9.286984287289403 4.959628690044808 0.0
5.676298026114105 4.589279806918992 0.0
5.631257891894775 4.722749088404111 0.0
7.970415275563177 5.621040275419208 0.0
9.565118337557308 7.081391220827488 0.0
9.626201005045262 6.980441083020495 0.0
9.733729506193331 6.979928568877979 0.0
9.684556253529976 6.887102896543928 0.0
9.780785815410074 6.890287441101827 0.0
9.740054813822885 6.794211367612523 0.0
6.462628988057306 7.629921412015864 0.0
6.692564520952154 7.473594130811262 0.0
6.927983108788191 7.570982428592125 0.0
6.899878641134941 7.329306734748538 0.0
7.117542472438434 7.416951094809493 0.0
7.089537168123128 7.186691566729968 0.0
7.296585396514727 7.275888419524222 0.0
6.879678873774065 7.097443005287856 0.0
7.063454637059129 6.967740076426161 0.0
7.329105042924355 7.496317641003757 0.0
6.867084781778411 6.878842928865059 0.0
7.494278796275744 7.351949197351029 0.0
7.462564159480594 7.150140034494138 0.0
7.644835001206406 7.21506678718646 0.0
6.682478929414216 7.008358327294905 0.0
6.449199855715812 7.365660640952548 0.0
7.548139855358765 7.57299228324251 0.0
7.008502809092701 7.844601794812628 0.0
7.371739019901781 7.707688433423657 0.0
5.665345294602155 5.290628720253272 0.0
3.987583013016546 4.486920698115711 0.0
8.893480480320447 0.7785000884179994 0.0
9.715485963651112 0.5955299613117169 0.0
9.761785841543585 0.7048670948649375 0.0
9.670304314877074 4.578896619304786 0.0
8.058509626083154 5.744161686650483 0.0
6.181795443628869 5.462040811515966 0.0
6.256771804808641 5.338464817889848 0.0
6.124070400983443 5.352376180901929 0.0
6.399679261813415 5.349186390888865 0.0
6.477776305607503 5.46505688468465 0.0
6.541624525938461 5.346017118512589 0.0
6.673064575428321 5.339051516933525 0.0
6.599301548842115 5.241958624987057 0.0
9.573774011620444 0.815274945835158 0.0
5.86493292693426 5.877588788523632 0.0
5.552663040119136 6.957487930464628 0.0
5.535080960199246 6.663033131707637 0.0
3.708603689392072 0.5979254716153909 0.0
3.31896983256719 1.188583855309964 0.0
3.895664898001925 1.128137111173669 0.0
6.363360407965353 6.032416442205533 0.0
9.445959758065749 1.070139246426051 0.0
9.50632172780449 1.214052376665338 0.0
9.441030033980638 1.325047485624912 0.0
9.295799464644857 1.341410624832976 0.0
9.184164107767781 1.461677744200096 0.0
6.407191016756832 4.407273313799791 0.0
5.544591888593027 0.7652641669375747 0.0
7.883090151006535 2.497506182548758 0.0
8.073420508370992 2.120510489750234 0.0
5.494822040671399 4.732314720081375 0.0
0.8986976806403217 1.464611451578306 0.0
9.536325549598013 6.83286654168725 0.0
5.972289519322897 5.727532110854501 0.0
9.82203607053145 9.443411729566549 0.0
7.263199949874008 7.064207941227515 0.0
7.233659553805083 6.853135694774254 0.0
9.793310082768443 7.072747972018893 0.0
6.734168931095253 9.67499220075154 0.0
6.941134861034159 9.382328333169653 0.0
7.285822522704258 9.443989747444657 0.0
6.576263515512108 9.333035011158342 0.0
7.160560566479093 9.127732577621245 0.0
6.218711947378506 9.298064908857533 0.0
6.432383355119106 8.980985203293491 0.0
6.795390278360442 9.046043538032663 0.0
8.54677014121837 0.1957422484480979 0.0
8.528696320820908 9.804850950580938 0.0
8.42644965647489 9.604735484095604 0.0
8.010239224104339 9.715048083583248 0.0
8.644359648763341 9.628432815860457 0.0
5.344212921686536 5.526744195650314 0.0
9.760936589662048 7.38409687515441 0.0
9.128187788393989 0.1445485608215519 0.0
9.133307661752394 9.854833215426817 0.0
4.867351616228264 3.944459575003425 0.0
5.905323253270366 7.385600364255367 0.0
5.909045412185362 3.361969954191194 0.0
5.80580919758911 3.569999290452344 0.0
5.578230704221431 3.587842862412673 0.0
6.013352753603037 3.550699073477782 0.0
5.936624955014758 3.721630401607248 0.0
5.735413275357409 3.78528948606432 0.0
5.512538847486775 3.794760621907932 0.0
5.360571639388366 3.618649018042938 0.0
5.134141179590394 3.459385929220745 0.0
6.167399567008798 3.367365990358096 0.0
9.766756262206602 8.291756450136036 0.0
5.486063578307141 9.64505925252771 0.0
9.497624614180321 4.328873442170357 0.0
9.811387324954623 1.570516917365688 0.0
9.389210081887331 4.69150887571586 0.0
9.704395728912932 3.754226393630331 0.0
9.808172776193384 3.748784464356272 0.0
6.549660911932182 4.839747932361234 0.0
6.757415124099031 6.077939876843736 0.0
3.805578542126494 8.040840085419626 0.0
4.232580149691158 8.198659880701744 0.0
4.559765382564095 7.87091698350757 0.0
8.3829075948167 0.9495097054886067 0.0
9.8571301061408 1.456307792614791 0.0
2.005900212453279 4.535525273813588 0.0
1.85904408608185 3.956445706785572 0.0
1.979307922430775 5.474327285927505 0.0
4.387923194305381 4.427191306527721 0.0
9.429258370703248 8.873693567695483 0.0
8.99196583083892 4.664567567015693 0.0
3.050357122593155 5.368999067452741 0.0
2.861107385476722 5.785089447130829 0.0
5.005058958272409 3.711196438448062 0.0
9.8972295764837 2.755337284632969 0.0
9.581048890980513 8.853909321617065 0.0
9.668838904423916 1.762418716497425 0.0
9.716576458425756 1.852218615166234 0.0
9.799043132681442 1.780583141193779 0.0
7.661868217848455 2.880323287492419 0.0
6.780136552904057 5.443858690999834 0.0
6.489544866845868 5.913957888434588 0.0
6.880149522020364 4.134257616716107 0.0
6.970134365280068 4.264072319341612 0.0
2.225481516813409 9.348422240784 0.0
1.843418032490818 8.641605249943353 0.0
2.198000805242772 0.6459947140825729 0.0
8.740020306282506 0.1903932731609072 0.0
6.86957996016679 4.720776242956433 0.0
7.430920333506809 0.2702852342693345 0.0
7.302066064947383 0.6134316505458445 0.0
9.305398039877746 4.64854361125207 0.0
4.078151380865065 5.203425462519088 0.0
4.080704120371218 4.778853303303787 0.0
8.052525541571825 5.965483159581719 0.0
6.367194027835946 4.754896037842673 0.0
8.604191121620719 7.648182513679963 0.0
9.546446695207845 9.234701521982952 0.0
9.018652854946867 3.351011585453845 0.0
9.143853648154607 3.350173119015413 0.0
9.067079866763024 3.245174561579149 0.0
8.991492136849105 3.135578770028028 0.0
9.29603967712795 0.1426516429033488 0.0
9.392428271030795 0.2506306237151588 0.0
9.223973843394301 0.2912279164401488 0.0
8.39375191941536 3.018777714002827 0.0
8.4836475746111 2.88135207267795 0.0
8.741089053946197 9.821127577434911 0.0
9.803966507713174 5.448064463539533 0.0
9.748132240148552 5.359371181503531 0.0
9.850258990973547 5.355211921626304 0.0
9.7965346514158 5.266762244994661 0.0
9.84142096963129 5.171050273734619 0.0
9.738843612428232 5.167483913244169 0.0
9.64168976006725 5.359875132194057 0.0
3.335917453809221 5.671837672982919 0.0
6.962669142802881 1.683222554707996 0.0
7.365210844496719 1.887492842536114 0.0
7.517378971174123 1.677983072937792 0.0
8.00383870208024 6.089394601875145 0.0
1.725435941000569 2.759295503019395 0.0
7.907977929549089 5.102827208603365 0.0
8.052861051278896 0.2683271125209605 0.0
9.80169732768395 3.385443381464333 0.0
9.831597648680848 3.28491948963525 0.0
9.736335895866404 3.316207814499244 0.0
9.597256128490281 3.756160701977744 0.0
8.865819925321706 3.366235906378775 0.0
8.489614436807788 1.757152185195495 0.0
8.88089641144391 1.078983279100314 0.0
7.430923851187758 9.724389499796425 0.0
7.584252919312249 9.509430586267927 0.0
9.744026095940516 2.247117754488748 0.0
9.729961521243718 2.659836747108116 0.0
9.790866569780063 2.558993767350471 0.0
9.736606445116795 2.455104424879619 0.0
9.846806182714698 2.452157456754448 0.0
4.518102112052724 5.141350889745285 0.0
4.519880229178207 4.85678334497067 0.0
9.7302407894617 6.434012603549242 0.0
9.787537474544765 6.523591663056312 0.0
9.744262337067932 6.617499601377625 0.0
9.8406238811518 6.41591236129004 0.0
8.914967252734657 3.579360039684312 0.0
9.154797282599406 5.670753066089419 0.0
4.228839454580575 4.612979739018002 0.0
6.095037541675208 4.42126627187728 0.0
9.304166983880842 9.864854494751789 0.0
9.406445527105628 9.759007358529582 0.0
9.256225114941945 9.700832989525724 0.0
9.796206564635622 2.351215649506205 0.0
9.849373673349081 2.25090453834006 0.0
6.332048155295931 3.511675163099286 0.0
9.069679774213784 3.022879178706259 0.0
9.070599961450037 9.055284879641471 0.0
1.808685691036764 6.331557276533421 0.0
7.120156826652838 4.698481230214924 0.0
7.052894345811342 4.799848851879358 0.0
4.739957520484086 5.369107149361242 0.0
9.389197839958292 7.197139943834638 0.0
9.046688232613976 4.560364044038737 0.0
9.162685461967492 4.562194096410666 0.0
4.227377821420887 1.564128177298305 0.0
9.201090975245227 2.794301402811909 0.0
9.251941624303948 2.677556975242327 0.0
9.186758273070138 2.563916005021366 0.0
9.317609833868786 2.560335260954038 0.0
6.57599191748324 2.437689779955877 0.0
6.305556560534859 2.459112595979303 0.0
6.981058048792093 2.642476994448363 0.0
9.886113463139504 6.510498309609482 0.0
9.250462794607717 6.221362629571698 0.0
9.305373999084068 6.108271307139882 0.0
9.390477915810829 6.228015172491477 0.0
9.44452571968143 6.114582165110393 0.0
9.502105740270528 6.197677857389309 0.0
9.31559697209813 6.331647407124485 0.0
9.370938253597153 6.437386206819511 0.0
9.594764406124872 0.1099001288712305 0.0
9.602872681151728 9.894988341116305 0.0
9.622661196143387 8.076680696281343 0.0
9.769069277144705 5.9102532189237 0.0
2.615076109785583 8.807551523115547 0.0
9.658920005405456 5.730890135691177 0.0
9.76063135061807 5.720703211793342 0.0
8.63963723169499 7.177334225227945 0.0
7.841904391869763 6.41346852896409 0.0
7.764520718520185 6.297267738834625 0.0
9.546492996136271 3.465225175657335 0.0
9.25600964352143 2.219157062786616 0.0
7.625057159226293 7.012987957636062 0.0
9.529121062829038 7.730283486008674 0.0
8.329887090625894 3.845190321147069 0.0
8.265841850823831 3.95687001944245 0.0
8.402006523775544 3.947660780406651 0.0
8.128436391670505 3.968543393650448 0.0
8.46705122470662 3.835767362024195 0.0
8.218867047074696 4.063481375518748 0.0
8.089763413611255 4.08062363292928 0.0
7.939578083855268 4.111915744184436 0.0
3.74991304509639 6.615676756107112 0.0
2.627714335615619 1.170993030860914 0.0
7.046129971268607 6.759930788612616 0.0
8.534603732661887 7.486325780553722 0.0
1.569381386467569 2.042794535871475 0.0
6.228703743210918 1.986421863690014 0.0
6.467030855792859 2.67190498312861 0.0
9.272246093269825 1.975478263632296 0.0
8.05269609263041 3.854522845257449 0.0
8.008595521536957 3.177870309354594 0.0
7.929796740504207 3.350600835935766 0.0
8.048703574664067 3.449582532910417 0.0
9.72947480375618 4.973926800124758 0.0
9.784850360535604 5.072865219810449 0.0
9.896036387646596 5.069261557893528 0.0
9.633140953203334 5.168645132864771 0.0
9.558102991128836 7.602453108835212 0.0
7.278758746505716 3.994295887299482 0.0
8.306681733482405 6.936428510427854 0.0
9.487163072013963 3.757777670075558 0.0
9.532950522284125 5.359403698944497 0.0
9.816036650072329 3.927268437107025 0.0
6.173882586235392 8.734645960664665 0.0
7.972518459433741 5.003005338485466 0.0
8.398453459336153 1.601072016988848 0.0
8.97460527296194 4.040886705742754 0.0
9.037941657530773 4.143578781749325 0.0
8.849604200183613 3.828506169652706 0.0
9.545296177100065 4.042698359132156 0.0
8.595941796785514 5.806754902023664 0.0
8.65588412428292 5.694192853853139 0.0
8.723710665131787 5.801528918332044 0.0
6.861288985046249 6.673713222735126 0.0
8.87477249219366 4.664500928777609 0.0
8.72385765226959 3.608276264790996 0.0
7.145228858696953 5.573648565429618 0.0
7.282945121585866 5.558559688509987 0.0
9.224761401603633 1.602363370249125 0.0
9.609115686587552 2.986868833620756 0.0
9.633989947851914 6.628120633848649 0.0
6.046214325132457 5.45615093027661 0.0
9.017014346798927 5.271996636983457 0.0
9.070824864071271 5.168510834798647 0.0
9.189021391555556 5.166867900487267 0.0
9.123328759137758 5.064718588163964 0.0
9.240587446378079 5.06459430516883 0.0
9.250848280531756 5.267364371053135 0.0
5.773050603406019 5.7192906317521 0.0
8.576466432793914 4.3559007860436 0.0
8.634627802680399 4.253467736542067 0.0
8.461790117175607 5.591735227444779 0.0
8.907610717370224 3.713397213891439 0.0
9.80665594564509 5.628066492225966 0.0
8.985935132601089 4.455263493464225 0.0
9.00640209566022 5.067597672073404 0.0
9.833659276096986 6.976519563917422 0.0
8.0283368553477 4.687271895436317 0.0
8.326580191759327 9.127498457128247 0.0
8.650637373791266 5.07513089931925 0.0
8.701067313435203 2.700069743477523 0.0
4.825307249916392 4.884175191874744 0.0
9.418335984190309 6.858444798015129 0.0
3.91434687300816 8.542956908935874 0.0
5.569239724399552 2.064135034637056 0.0
5.234271567762738 2.128974435011933 0.0
5.757920427527626 2.312422707096966 0.0
5.43365689737979 2.427455772745759 0.0
5.673210219624612 2.602111218343444 0.0
7.214258468265766 6.652783071431555 0.0
9.823626269633962 4.30685540664529 0.0
7.96996639420014 4.794005510174826 0.0
7.616003332725032 0.502676560965646 0.0
3.050634530589821 4.659174799474146 0.0
2.870894249800723 4.246924313393336 0.0
5.285393339952368 6.079037173753393 0.0
9.439954241218905 4.23581687956071 0.0
9.67709722097145 4.710772408106511 0.0
7.40767785509217 4.259947873553335 0.0
8.396202587439676 5.486075637998701 0.0
8.323689688705493 5.372061002264632 0.0
8.191312386254125 5.384662546230823 0.0
5.304380054816289 5.369675374029755 0.0
9.093848379546637 4.047647920840374 0.0
7.916313220758624 3.045043876114836 0.0
8.435854831444637 4.144861908356168 0.0
9.060262453079693 0.7340576053322918 0.0
7.053195520344596 5.238809779682351 0.0
9.621762679347093 2.45205452967588 0.0
8.410730269104743 5.287995309529392 0.0
9.655094569234972 3.472720279371932 0.0
7.982140513923982 6.667914768024983 0.0
8.402690325256646 4.883576657130221 0.0
9.17488654147479 4.962006474835693 0.0
9.013188196102961 8.49700148123058 0.0
9.795977244531603 2.156818021002043 0.0
9.893813711206834 9.545820400859157 0.0
7.965349232662289 4.250048884270795 0.0
8.644264557989125 4.874751532150782 0.0
8.215430976121077 1.26077208565765 0.0
8.379717637669398 8.37324652769609 0.0
9.320026533461409 5.559861899725609 0.0
7.885778178744864 0.4977439426642278 0.0
7.547066983926719 5.125166613071239 0.0
7.657542898944819 5.122996245335209 0.0
7.423918840193691 9.000935553397358 0.0
9.854133000712425 5.541931969512857 0.0
9.328508174398952 2.101486405523264 0.0
9.300749600926641 9.530012105354274 0.0
8.130307182491519 5.277079344947874 0.0
8.346752967392757 4.987627363826086 0.0
9.118404185029991 6.007087846617186 0.0
9.048232213728614 5.89431792713258 0.0
9.088340967655858 5.576242562571367 0.0
8.094762487139027 4.789727191449318 0.0
9.915265904493378 5.749591413470928 0.0
9.92169805280126 6.154216704502091 0.0
9.918022441582268 4.549125436287157 0.0
9.919332362905616 4.849536560132457 0.0
9.914800786693318 6.750595509794719 0.0
9.811792900437824 6.703950687575952 0.0
9.900643083988882 3.749855087409844 0.0
9.912423171222734 3.043228996968949 0.0
9.91892875832665 5.949999999993851 0.0
9.913300070218703 3.960831593817277 0.0
7.709347001661226 4.444236534782706 0.0
7.479443107717332 8.071637285053104 0.0
8.839057072155848 6.807845119358974 0.0
8.972330068019902 6.78765448182788 0.0
8.542093772125282 3.941452413628317 0.0
8.279144752968262 5.930387616620717 0.0
9.393455876855919 4.973162505621418 0.0
9.507123333872533 2.855087674515822 0.0
8.77504684283825 2.317347145885344 0.0
8.394133129040345 4.464046960801843 0.0
5.725509852450801 8.210843960481027 0.0
5.62632390239664 3.967637659758752 0.0
7.910815814627989 4.900765971697654 0.0
8.595808444085467 5.590040244353608 0.0
9.705160502006024 0.8106158419444889 0.0
9.82021247904746 0.808810893177099 0.0
9.218352146075844 4.447736986422823 0.0
9.20781892622228 3.858281726888132 0.0
8.713609974387523 5.178241668554946 0.0
3.55755059259364 8.921522400238844 0.0
9.59122926011489 5.452844834281716 0.0
9.70565100407009 9.77887811062354 0.0
9.826938454219809 9.74303055702321 0.0
7.238962096855633 3.278078153406256 0.0
8.575609105166194 4.567807831727537 0.0
8.936449841121737 4.765835458965493 0.0
5.59323463391086 9.248527978398117 0.0
5.280809113285124 4.886132326418428 0.0
9.328132730893216 6.544753806716806 0.0
9.026944889277736 6.67247283515637 0.0
9.81946239021469 3.007926663525007 0.0
8.677633568960493 6.144049349297466 0.0
8.33427489656924 4.571212803519522 0.0
8.55734024448315 6.382535186588269 0.0
8.692399379422756 6.372347713955898 0.0
8.495817478252626 6.503308565233578 0.0
9.905494734661673 2.544078755559835 0.0
6.177101405266569 7.228490244483556 0.0
9.825373011845263 5.807482724503027 0.0
9.808678508609606 8.118683092442964 0.0
8.397717712407108 7.08010313863416 0.0
7.428555529689225 4.935946611338556 0.0
9.575504958128711 6.125633853639113 0.0
9.154066996197898 4.146562596982661 0.0
8.074381802159323 4.337569667261167 0.0
7.018337246891919 8.843475095716133 0.0
7.970627172560641 2.658650028065857 0.0
7.382546388883145 6.723381543491632 0.0
6.822972334933889 4.884555620881615 0.0
8.343732976791593 6.041576709398377 0.0
7.743680217306919 8.423336160305476 0.0
8.505717922983454 1.115022897794028 0.0
9.113973198216474 6.992972408167606 0.0
5.818882632841168 5.300437503812764 0.0
5.951991891717714 5.279516346785062 0.0
9.450183479138845 5.92934813870612 0.0
8.783346541536119 5.48419035750989 0.0
9.38074895894124 5.65076274999803 0.0
9.513658728876734 7.193620441323493 0.0
6.396040948797887 6.776064256962667 0.0
5.389661780244388 4.89715084345563 0.0
4.473247649068957 5.85935163892416 0.0
9.249586607512612 8.37680799459232 0.0
9.103796366487646 8.379197231055114 0.0
6.274057301184156 4.87985402946409 0.0
9.259628836118232 3.561431822636308 0.0
4.037922477011971 5.489409780163391 0.0
5.62712958624254 4.893925433488392 0.0
8.806426003347967 6.133410188141932 0.0
9.53304466499349 9.59279975429444 0.0
9.542890959420024 1.966631379116419 0.0
7.459736176874619 5.863847835420528 0.0
5.937613117200432 4.89232797168023 0.0
6.171611131472617 4.879541833448487 0.0
6.100695199816815 2.291172318314745 0.0
2.315194906726768 8.081958163666464 0.0
6.878489987598286 5.148099521847569 0.0
9.105264414399338 8.639184652727645 0.0
9.20047261316883 3.457820810661327 0.0
9.895329010385955 7.55944047105717 0.0
9.912742873006831 7.76210330502246 0.0
9.37761459375249 3.168397068877758 0.0
8.946121261512507 6.345629828835438 0.0
9.918632496443566 4.449809517365367 0.0
6.848211525651934 5.945010613369067 0.0
9.915721525903255 2.047407395915179 0.0
6.117255841708726 5.163321965161054 0.0
7.276595248786602 5.347247322210079 0.0
6.32682869954104 5.23674259421017 0.0
8.785886448438022 5.692775375342819 0.0
9.099994401883361 6.776698531382792 0.0
9.913397459621638 0.2499999999998165 0.0
9.910352525643928 0.4481571029410266 0.0
9.907850422008579 0.5479735220323012 0.0
9.911983631350465 9.24778487019403 0.0
9.917634740384067 0.7514684821956668 0.0
9.195214232985496 3.254172408378337 0.0
5.000896927376288 1.846006038077654 0.0
9.917172478547403 8.250155740683276 0.0
9.908120476950126 1.742986232208194 0.0
9.914524635720774 1.949567899316728 0.0
9.907358878377153 9.145625165175748 0.0
9.917695944922635 8.949999999998397 0.0
7.648387553139914 5.325741673607362 0.0
9.605343588986079 4.130627398479715 0.0
6.648113233057817 6.774798386229164 0.0
9.910347203087213 8.446729917003672 0.0
9.913623694530468 8.548470085896316 0.0
9.9201245863254 1.536225488581779 0.0
9.906538426683255 1.059019360781604 0.0
9.912867352010919 8.74999999999809 0.0
9.799662981388353 8.79550485462418 0.0
9.831828680383174 5.99966894118311 0.0
9.91414179906643 1.263025320602998 0.0
9.920690092699912 7.240982963665807 0.0
9.385889285950551 2.235126904097426 0.0
9.28133998925606 8.00415195851526 0.0
9.817074723108401 3.172398890123306 0.0
9.482030285089927 7.512954023388035 0.0
6.682432918504054 7.233889573028878 0.0
8.528699633246763 3.260502457553277 0.0
8.91699963742029 2.327016692708648 0.0
9.267676068834481 3.954520684561369 0.0
8.70811637467455 4.974101624783084 0.0
8.18184214270768 7.816666208279135 0.0
9.690393137288163 5.264344933127836 0.0
6.937111790104696 5.245184991960528 0.0
5.895846026722989 5.174232967273284 0.0
8.281683356622615 6.400073017261236 0.0
9.150883172924027 7.444273543454419 0.0
5.430406600793122 3.390815886517273 0.0
5.049583827974758 5.697634876048387 0.0
8.3966710383105 3.495813899905868 0.0
9.007538428392454 8.046563579784266 0.0
4.645155158868719 2.637132843684674 0.0
4.887444326771336 2.30020425915506 0.0
6.483736782775559 4.522536327482678 0.0
7.843169154548308 8.2116075844056 0.0
5.06295551628385 4.901632590583318 0.0
7.201400991012747 5.138239336380897 0.0
8.519791031104612 8.848807089071627 0.0
8.658623737989732 3.031313729049854 0.0
7.585566208322493 3.629882964874684 0.0
8.411818469596405 6.834326722716643 0.0
9.172363528634236 7.669230647622864 0.0
8.85455683341768 2.682483055215344 0.0
9.359398739738925 1.631421337140716 0.0
9.071793864444992 7.337030604117359 0.0
6.968394563521436 3.712808894519514 0.0
7.899236117684646 7.094583340182754 0.0
9.54362864504834 9.781852543872333 0.0
7.151298729743687 7.644795130415299 0.0
5.452218361466201 5.186873761308322 0.0
5.517642289161902 5.293540933999446 0.0
7.802500357665464 5.978295671754199 0.0
6.594850839687122 8.491429270558893 0.0
6.029132431949566 8.294997405201931 0.0
9.31286590869111 0.5672913838331921 0.0
9.25238720319541 0.4415953739444106 0.0
9.550589523211062 4.228044955453704 0.0
8.748611832783206 6.250900951984038 0.0
7.566980108995873 3.995148257893202 0.0
7.426142759241261 3.996743578498081 0.0
6.478912513785404 4.000296412419969 0.0
9.30435638148753 5.168210982711592 0.0
7.542154188520517 5.752525075248498 0.0
7.219033852073297 2.139582470800704 0.0
7.370913620388047 6.545121498197235 0.0
5.226731036024996 5.187572666585561 0.0
8.515591031124366 4.462223215179979 0.0
6.762864307079274 0.3078036604979366 0.0
8.587432696997471 4.977010533175154 0.0
8.703948448756302 8.815629076400704 0.0
8.081003990931544 7.370949680119862 0.0
7.424404567669909 6.949730915714445 0.0
8.578903262311433 8.377992954045473 0.0
7.301258690263783 6.106184350645308 0.0
5.991600556904204 3.99820087171043 0.0
8.203048538477193 1.601044215405025 0.0
7.289972483120081 4.572350254111052 0.0
7.714697186439165 5.420586967696794 0.0
8.918853780709807 1.841796898567452 0.0
9.919941345877513 4.749808449067644 0.0
7.245589454939737 5.94251251443003 0.0
9.258480524497795 3.358952871140391 0.0
3.705877615124628 5.574038727593425 0.0
8.287096858129765 7.962370605242409 0.0
6.799629860952143 3.705385600481528 0.0
4.146753450763018 6.544154457143895 0.0
7.413973555029582 5.545687501585183 0.0
8.466524978378082 4.980481756569235 0.0
7.336312153537934 2.337983522449311 0.0
7.695505222753409 3.747498713679684 0.0
4.898236813123799 4.795853653580084 0.0
4.59779105899602 1.896916774247134 0.0
8.560170375862322 7.072369101894893 0.0
8.386150468360862 2.449771437140704 0.0
8.41200018115259 5.084601315536367 0.0
5.102189912301071 7.621598618277815 0.0
8.336320418935243 6.71651223072348 0.0
5.081745734883095 3.977838926197614 0.0
7.63590698378166 0.9500570055008507 0.0
7.743369677149255 3.051233984704873 0.0
5.357527459690566 0.3809996753407537 0.0
5.967373112873382 0.7731113464301924 0.0
8.169449265206127 6.666271947462212 0.0
5.95122726745053 5.55758205410881 0.0
9.922289489207834 3.53923011719877 0.0
9.39154684476555 2.659037023454942 0.0
7.701415639167884 7.690060291860976 0.0
9.819179654793023 1.329863870021845 0.0
8.358229579054417 6.506108206863729 0.0
9.269720555169467 5.657096143475924 0.0
4.473187658045934 7.435037860084884 0.0
9.65807158077373 3.255496360750368 0.0
9.605155446454205 8.713645566904637 0.0
7.097383547728313 5.141197376985936 0.0
9.812212483832656 1.89920712759492 0.0
9.83875570675407 6.81603549325055 0.0
8.926246869879279 2.079976511571457 0.0
9.166785856141402 9.169070814302419 0.0
8.763479010228052 1.587152667342957 0.0
5.957377924852992 6.404530806530254 0.0
7.14506854375872 6.10342416684208 0.0
5.672595070581394 5.164323323112049 0.0
4.899782787268781 0.3801727265981219 0.0
4.447133848117348 4.673614099606824 0.0
7.044865074789195 3.253639989243549 0.0
9.818461337102992 7.819456450952447 0.0
9.925334577033155 7.954012377173311 0.0
6.352907898232792 1.173665225954276 0.0
7.351721385581032 5.660361289755705 0.0
9.337367583861807 2.76534436379692 0.0
8.693118347802024 4.360254099729149 0.0
9.476812970101324 0.3524826622168163 0.0
7.109868985890334 0.9024224571333925 0.0
7.899106846231403 5.511805431542581 0.0
8.352799544476607 5.187887629361129 0.0
6.957483547582747 0.6176251309213842 0.0
8.099559500483094 1.412323841044818 0.0
9.913030944540278 0.8542404645334569 0.0
9.143075088381442 8.022165366829135 0.0
8.819861450593166 6.356592599428041 0.0
9.319444417409162 1.49938505915629 0.0
6.490262520326714 7.118204362551877 0.0
6.490874470087819 6.582907761235813 0.0
9.82506653058937 0.6146757679104559 0.0
6.803129818897624 4.419048038171804 0.0
9.840901379354312 0.08198751964190581 0.0
9.839740374244226 9.918356239418472 0.0
8.551927134544655 9.449788917425456 0.0
9.92097857388158 3.249999999993177 0.0
5.797087413057367 7.077351493358238 0.0
9.255412859987286 6.433984412022419 0.0
8.668174522249984 1.740767926084485 0.0
9.920991430240607 6.25262219124529 0.0
7.57275248448898 1.94367954756322 0.0
8.052865444445507 8.19900054463639 0.0
8.748697149245206 4.25201068974208 0.0
9.158270227735827 0.5542256343091421 0.0
5.997487767477439 4.787924707603557 0.0
6.119759900601896 4.78043793682227 0.0
4.353034750397793 8.619182743639561 0.0
8.721093521611476 5.588932824583312 0.0
5.717101151444983 1.123034066822819 0.0
9.825602081347064 8.68753399402474 0.0
8.005502510832988 8.7824052910506 0.0
5.548184234622668 6.408009287230429 0.0
5.77830300433981 6.598697187164234 0.0
9.613093825495433 4.50282172481406 0.0
9.928981132641653 9.74928475696928 0.0
6.613628176297015 4.515513362596662 0.0
1.822126723816303 1.297795131355289 0.0
9.514164594137375 1.43081427463862 0.0
4.735494753432723 3.698541604583975 0.0
9.52844959749262 8.615213629960298 0.0
4.660704511759056 0.7947595073298008 0.0
6.82340845160293 5.239926830264399 0.0
7.885938077030673 7.380147032865134 0.0
7.884599891021201 6.09005968568029 0.0
8.846834820720167 9.653276456345532 0.0
8.457777199486827 0.3851010632068662 0.0
6.66485224572131 8.771510767670392 0.0
9.091499342133352 9.708315832477556 0.0
9.824286725109655 4.976315293637262 0.0
7.848197684391786 5.632217046637356 0.0
3.88430598115417 4.225391362015386 0.0
8.776890759183289 2.809688928468134 0.0
7.393884285023409 3.59397875231041 0.0
6.927568893329758 4.396788356869783 0.0
4.96854327720728 2.662368428358774 0.0
9.1480130720193 3.951479613991279 0.0
7.071049729490975 2.38092990636632 0.0
3.40193058782919 1.686321186206593 0.0
7.612042194200681 4.815904436723407 0.0
9.043395868401339 6.888481825015849 0.0
9.098933057562759 8.152197681006806 0.0
6.058682303253315 3.857501492181965 0.0
3.707092669281355 2.986685502034343 0.0
5.113272509841263 5.189455016444592 0.0
6.960565857079232 3.416349532571279 0.0
8.755151527375476 7.649255597361291 0.0
3.393680865444538 3.679982303262531 0.0
3.117424600120088 3.35605258976247 0.0
8.530814041264104 5.488376426140491 0.0
4.820719767306654 5.106646490188182 0.0
9.918899263509473 4.144927088739744 0.0
9.918194630017027 7.447268230913605 0.0
8.461970084137805 3.144844565847669 0.0
9.924415919486059 6.949999999995354 0.0
7.184050152099684 2.72771667662237 0.0
8.834356715215904 7.801565642745232 0.0
8.689015446783005 4.145232831954543 0.0
8.490778532265319 8.234414357968106 0.0
8.63666290918932 2.83060276219705 0.0
4.61028976098935 4.741894230894578 0.0
6.314735925012879 4.003132559161639 0.0
9.20786580425652 4.67001723737971 0.0
7.141401229301469 4.873205425098625 0.0
6.235177809922153 4.774126344778935 0.0
9.12491895896937 3.145675090615719 0.0
9.255747684068178 3.162525801823036 0.0
8.312852272796098 2.290855459722148 0.0
1.449266720542303 3.363629101350872 0.0
9.525687840398492 4.800807314407045 0.0
4.829905263804087 8.14474456977717 0.0
9.09338914689732 7.563794106183232 0.0
5.389401689694107 5.283808684471545 0.0
8.530979415204587 3.029374286908943 0.0
7.901489077080633 6.535344047486632 0.0
9.218572924671975 5.760893551533255 0.0
8.562382833959296 4.143913974026883 0.0
8.62959127904665 8.974877485888243 0.0
9.408442441596518 9.62276529745719 0.0
7.5034765601713 3.869833107932387 0.0
9.842813436634783 6.600620949014236 0.0
9.826116984327193 8.911617279149695 0.0
7.529907780698261 0.7369111006685982 0.0
7.832164962480427 2.905293639437395 0.0
8.39517908433056 3.267417602291069 0.0
9.823014010107707 9.085319632577246 0.0
9.022314123618541 3.944559746338292 0.0
4.243701230676532 5.332574856090426 0.0
9.816740542566388 1.127839952679595 0.0
8.166775715766304 5.693916696568397 0.0
8.865374421689054 8.068986769641638 0.0
8.761145809863661 6.470583506581853 0.0
8.998345275919851 9.209303502026401 0.0
9.698477487436316 6.706902829754045 0.0
6.439032098063426 0.3109134377713525 0.0
7.562681994382136 4.643158005207056 0.0
9.03999088074715 0.2799354672273258 0.0
5.180741540467516 3.805018725608906 0.0
6.243990330956698 2.718077286244967 0.0
9.79416634023361 0.1815240178579244 0.0
9.926540005061975 2.847049370876555 0.0
9.826476210374608 2.670192168078066 0.0
6.365816673179121 4.536333049275508 0.0
5.546353765219417 4.618331215552614 0.0
9.820703096450293 2.000649418331399 0.0
6.884388790679166 3.561583980715254 0.0
7.431303395649604 5.747824222777201 0.0
8.849816832721245 2.19318290395604 0.0
4.185147517585975 5.697469360586313 0.0
9.165905238119013 5.873664931582344 0.0
7.70479478158537 1.788324620089049 0.0
9.627376046933474 0.9196091445437269 0.0
6.657687963328663 5.144792385996769 0.0
9.83245016645186 0.3925568446109945 0.0
7.483092985762584 9.253837199159435 0.0
5.445348362202234 3.977855663863651 0.0
7.476680532833337 4.837183287808616 0.0
9.572749890969304 8.505160319814301 0.0
9.915853314998252 9.437014513917465 0.0
7.679469018350979 7.390484878021194 0.0
9.418139053434402 4.790576000488359 0.0
8.096967733471567 5.865447162201908 0.0
9.829153508938724 8.378494945652118 0.0
9.926595955569645 5.157718300415699 0.0
8.774484245600224 7.939747459426853 0.0
8.629764448155779 6.481031318922794 0.0
8.961169458302376 3.839036702328818 0.0
4.617199205561317 5.256318959792646 0.0
8.480815774219478 4.031210317621497 0.0
9.708341592512763 3.401018043990571 0.0
7.183974816647467 4.77882314543966 0.0
9.821437962294304 7.659391965474772 0.0
8.150320284869602 2.286501016204562 0.0
9.828114434347311 1.684891358832554 0.0
5.349187766238684 6.538177907133678 0.0
8.076053471314525 2.76180604769483 0.0
4.907713691134565 5.29818629967416 0.0
0.6874399366049438 4.328593906714074 0.0
0.6980011780697519 5.702671170050627 0.0
8.263861466707834 8.182284285231713 0.0
5.838783785156478 4.913981390426639 0.0
7.807619472656604 7.235706382002089 0.0
9.388504256318683 6.022122644748753 0.0
9.929839894767033 6.436189192303577 0.0
8.3205848711706 3.39107920408397 0.0
3.240770542267401 4.019899919523968 0.0
8.059047070496568 2.468855909103855 0.0
9.932479519490421 2.449625056415224 0.0
7.737639000139152 4.580708137963557 0.0
8.26141077223695 0.3940397126348397 0.0
9.69568953371801 1.959951226402445 0.0
6.469120930453264 4.892267070266994 0.0
9.167223997255698 0.8102256463122337 0.0
6.236889648241256 0.9291076084031108 0.0
8.306379082772498 5.268830342852036 0.0
6.716089118890225 5.239344620507032 0.0
9.82511981852641 9.282822358664017 0.0
6.68375719572285 4.404998642130821 0.0
8.913754712375674 6.908138360584365 0.0
6.173250048857013 5.251634416326969 0.0
4.235907497612446 1.924052997345291 0.0
5.151007663981651 2.438629730660893 0.0
8.924254300637541 9.3764975797567 0.0
4.438612423541503 5.287968640901957 0.0
8.571203234299599 1.897009944569934 0.0
6.878800676380218 5.821332862798138 0.0
5.710626178601224 4.792560699857408 0.0
7.149510071621283 5.216310009157644 0.0
2.099966541549645 2.334742113488256 0.0
9.93396330620579 5.350566393301629 0.0
7.143046479323961 8.646955109387985 0.0
7.965747313080266 5.193641450105844 0.0
6.3314394693073 5.135050228240639 0.0
7.665821333021348 6.222698255001823 0.0
6.305321657053551 4.659816230868476 0.0
7.833020917089713 5.208837056143474 0.0
9.41455902676429 2.869725681199307 0.0
8.567151507735133 6.598605357295113 0.0
7.405527786978573 4.377085529441429 0.0
6.552969697053132 5.137148974085434 0.0
9.93630620742063 8.042778076596578 0.0
7.166743296019233 4.593171678848165 0.0
6.595561806063966 5.839366735225723 0.0
6.066152182102007 5.262519562574559 0.0
9.834694151277489 0.9093455747994099 0.0
8.98259191950674 7.579732466796592 0.0
6.465071238839505 5.25485771955322 0.0
9.759759896588413 3.236659507608532 0.0
4.775529448101694 5.224235675150505 0.0
9.935991245222917 7.153416415978829 0.0
0.6530736820718381 9.352299998916202 0.0
0.6449439415299687 0.6468300344151556 0.0
7.804690364869245 4.495816547678174 0.0
9.84503784553893 5.70620404704573 0.0
9.83525329400959 3.826992990746767 0.0
9.922964894244684 4.265000406933376 0.0
8.333767638401964 1.121219971446645 0.0
8.876012546033895 7.019147158538482 0.0
8.172413577824324 3.413096916572049 0.0
7.232233017296214 4.478957103028363 0.0
6.214597295185415 3.852860083673202 0.0
9.85013791746415 4.400709747289421 0.0
3.941627380932058 6.342995010255737 0.0
3.097271569675528 8.77391871286929 0.0
9.292917152323044 6.010976049411984 0.0
8.104342196673183 5.184165973282902 0.0
8.994300084006271 3.652611812846807 0.0
9.937157897030163 5.549999999993244 0.0
8.721368888525245 7.274540720770752 0.0
8.920003648712827 0.9516585309368178 0.0
7.910527456030004 8.536826514867816 0.0
9.846441288756814 4.60515911863952 0.0
9.584942233925151 4.712073182517884 0.0
9.642357858573972 6.805672051759494 0.0
9.797024725252207 9.838837222258014 0.0
9.842451438022124 4.018973836958878 0.0
6.112723137676118 3.704473949316424 0.0
7.574641969193845 3.765362276156904 0.0
7.826594968121701 6.200366572362263 0.0
7.762805366733504 9.34009502796868 0.0
9.56854033867856 1.012566255816665 0.0
7.71256563655353 5.219373702836014 0.0
9.68039392238282 8.786964504862018 0.0
5.910362452777086 9.277662068919813 0.0
7.418090653922814 3.326443419100716 0.0
9.857704179097952 4.697553149694669 0.0
8.452469674653342 8.996585816905599 0.0
9.522351366699843 2.057525484575908 0.0
7.802315574700843 9.548878971475935 0.0
9.938875656926385 3.449999999992592 0.0
8.425189037911712 6.608575180629274 0.0
5.925965231566842 2.523669697740033 0.0
6.654918072256329 5.95749128982984 0.0
9.826748589235729 9.631118448471485 0.0
8.6684585637523 7.39633999085442 0.0
9.844673843931567 3.090088625379724 0.0
9.93613850661301 2.250382721159617 0.0
9.218291993658738 2.892108990205171 0.0
9.83502846611296 8.212781989607324 0.0
7.754136409732265 7.104288507262783 0.0
8.510570542791681 2.036933285735889 0.0
7.757745059307245 4.315798612475442 0.0
7.989231770559189 6.201656630465583 0.0
8.068934521422738 4.198631572122605 0.0
4.957478134450373 9.038766150325067 0.0
7.208661142641733 6.501402463831379 0.0
7.299506095906239 4.363561999234681 0.0
8.250303873550486 2.105322217421675 0.0
8.678637541413377 7.053471135702286 0.0
9.761528395137384 6.163503990672834 0.0
9.84494857233395 8.59999999999775 0.0
9.83825138794677 3.672838954969637 0.0
5.121008544047756 5.808127183024784 0.0
8.343911550360986 4.043535893276861 0.0
9.85324441775315 5.899999999993774 0.0
9.51114465213134 8.41035540646284 0.0
6.505812179224195 6.93390566262983 0.0
6.15572847138365 9.023097246950844 0.0
3.352081892333425 3.024853379890529 0.0
6.433163283162099 8.675072413910678 0.0
8.825744236698243 3.624446391299867 0.0
4.883007294861279 7.819620905924936 0.0
5.876659170760434 5.638247433601083 0.0
6.859400040348503 6.510797998354633 0.0
7.946400945409184 3.500317276373196 0.0
7.496830255505493 6.653194511698024 0.0
9.852183479755313 4.891525833556942 0.0
9.77998778436291 2.922486526124376 0.0
6.774672660492365 5.324728659740495 0.0
5.717254072187427 6.824125962512845 0.0
9.713440940838062 4.63793103997539 0.0
8.859858662536796 0.2721395536350836 0.0
8.37556017530946 9.436653414116012 0.0
7.395237381047616 7.885576562773319 0.0
5.4709157802033 4.511152089197594 0.0
9.489749416979361 9.691840729914848 0.0
4.599216022837964 3.46438688931078 0.0
5.572287492757569 4.807021644849729 0.0
9.926499336309957 9.92730688390086 0.0
9.926499336310107 0.07269311609890093 0.0
9.338127766332573 0.3585313952168247 0.0
6.810761948165162 3.414693294319008 0.0
8.166274345037138 5.943611545564389 0.0
5.2892644736731 6.301081312912763 0.0
9.731911074791544 7.649313380659622 0.0
8.90251102352767 9.50983415326544 0.0
8.997881406541017 1.033666784655452 0.0
5.835124768755703 2.738139962594905 0.0
9.665357480775825 6.185331297099201 0.0
7.656532192558493 8.217157287499347 0.0
9.170463887605525 2.975444721032631 0.0
4.208158615905443 0.8648302238584886 0.0
6.97015686031129 5.933674629077266 0.0
6.181941366523793 3.565885175921835 0.0
3.30313590337911 6.393402837735046 0.0
6.447482061767014 4.816169316820496 0.0
8.185341428749446 4.169172087371246 0.0
4.552595724340015 8.298301336212145 0.0
9.84850676569699 8.999999999998423 0.0
9.846941514449377 7.393642828194986 0.0
7.924592433490734 2.788309934035703 0.0
8.154308714226714 8.853640122009672 0.0
8.876629743004642 1.96110242719995 0.0
7.228849192966834 8.90811350348676 0.0
9.852301635085423 8.296637825215246 0.0
5.219795195341889 5.547413133147649 0.0
9.861497117995457 6.901363010201344 0.0
2.953911258021604 6.136007283255669 0.0
6.93158841067062 4.77708273647784 0.0
9.67540418457871 2.912802891506324 0.0
4.194055958522277 4.437353127730132 0.0
6.133959559341536 0.406856611599261 0.0
8.29952795189331 9.309744645643846 0.0
9.843692337952948 1.209647690818311 0.0
5.164986286280336 6.671544079402435 0.0
9.838533350075606 2.081705440779448 0.0
8.301244777513975 6.604088853319459 0.0
5.471494771710784 2.714598185146428 0.0
8.86534684892311 1.208599471795828 0.0
9.940610684232212 1.451558535868664 0.0
9.40896208432968 1.428353940655538 0.0
2.329177605337097 4.238803555614174 0.0
5.980761651517799 7.182207186682233 0.0
9.66541573964336 0.1719254072074424 0.0
7.220979380229172 7.806128737674462 0.0
1.251721227904697 6.151932667911503 0.0
8.104967286191181 6.057912607875576 0.0
6.650768762224724 4.817922869198292 0.0
6.634976350437587 3.213339182992986 0.0
7.034320437500567 4.898219100342838 0.0
9.502772020064167 6.283064492634301 0.0
8.13187938667684 3.518506862055515 0.0
9.855471943454193 2.599999999994991 0.0
9.056747742708522 8.263936599935574 0.0
4.352645795441222 5.724453640019 0.0
3.744263984699181 1.488951698361357 0.0
5.175860134287045 3.6375726667098 0.0
7.736434712114619 6.400417475661193 0.0
9.857658576695343 6.316607183405179 0.0
7.876525261950537 4.304285002335559 0.0
9.856114384785611 7.914602773442983 0.0
9.848334119947063 0.7059644476295188 0.0
9.59694321995579 6.895814046141667 0.0
5.906465212962551 3.869023950643881 0.0
9.840676994268005 9.364956386459765 0.0
5.355015287544095 3.83518170601625 0.0
6.374090407153147 5.855743754257685 0.0
8.227401290513832 5.297819733684674 0.0
5.451235131977493 4.825706629991923 0.0
6.022070213762754 5.355923882747634 0.0
9.845674433677614 6.108401449483281 0.0
9.835067400944396 7.739582406783081 0.0
8.602026805792988 2.941372356914139 0.0
5.059869081004962 5.269480960018243 0.0
5.284714507903736 5.26496663762182 0.0
9.627110479149561 7.660076105040499 0.0
6.820001127809743 4.792514421153957 0.0
5.120512795059439 4.806607659110254 0.0
9.56933817216883 2.911464407429096 0.0
9.74091654291531 9.267545397628387 0.0
9.93006767325302 6.576784040838644 0.0
9.642486276936268 4.650227701598451 0.0
5.185183328569137 9.410919109238325 0.0
9.37052946854105 4.605636695802024 0.0
1.677077220416309 5.871167715901136 0.0
7.345783833404538 3.184020711886284 0.0
5.419239942654976 5.982692039856376 0.0
6.133318300188262 2.551919945731369 0.0
6.187291396343277 4.499077117404439 0.0
1.231465237822878 3.921479198315213 0.0
8.969849937139944 9.699215363213542 0.0
9.218303154263054 6.037447959776716 0.0
CELLS 4886 19544
3 1113 1356 1450
3 1402 231 1659
3 272 269 1414
3 396 394 1777
3 1451 945 1452
3 194 81 1801
3 1847 1501 2104
3 2024 2121 2479
3 1115 1113 1450
3 1124 1413 1844
3 1061 1955 2409
3 307 305 1645
3 1592 1369 1593
3 238 1501 1847
3 1955 1883 2409
3 1808 243 1910
3 1885 978 2362
3 1440 793 2092
3 189 1488 1608
3 353 350 1864
3 2007 2231 2232
3 307 1645 2493
3 1096 1760 2496
3 2178 874 2179
3 621 625 1595
3 1493 1480 1938
3 1655 1268 2137
3 1341 1410 2212
3 243 1808 2360
3 1902 1446 2516
3 1760 1096 1763
3 856 790 2180
3 2008 2046 2105
3 789 1809 2067
3 694 1543 1575
3 1127 1762 1953
3 1748 807 2228
3 1543 1308 1575
3 820 1872 2170
3 1417 954 1998
3 1369 1592 2386
3 272 1414 1787
3 329 333 1998
3 1544 1095 1545
3 2231 1490 2232
3 1342 1683 1790
3 374 377 1797
3 807 1678 2228
3 1665 198 2128
3 141 142 1620
3 325 322 1952
3 231 1402 1654
3 198 1665 2010
3 1890 1307 2387
3 208 1438 1619
3 2016 1970 2156
3 1436 212 2020
3 954 1417 2333
3 1736 1894 2244
3 1491 1750 2143
3 1677 1064 2146
3 1474 1258 1475
3 1500 233 1930
3 1446 2415 2516
3 1700 973 1800
3 2128 2270 2316
3 1316 1315 1593
3 1307 2341 2387
3 2258 1324 2328
3 1083 1507 1508
3 693 1095 1544
3 621 1595 1596
3 667 1571 1872
3 1932 1766 2061
3 393 391 2240
3 1342 1790 2400
3 252 1707 2234
3 931 978 1885
3 1430 1116 1704
3 1411 1109 1714
3 1478 1227 2440
3 1990 195 2297
3 1792 1167 1985
3 1682 444 1975
3 394 397 1777
3 1711 2028 2162
3 1574 856 2180
3 2008 1851 2046
3 736 1493 1938
3 1069 1060 1662
3 1458 455 1754
3 862 691 1705
3 1161 1642 2286
3 1699 1700 1800
3 447 516 1637
3 955 1482 1483
3 2024 206 2121
3 391 1773 2240
3 1072 1412 1893
3 212 1436 2350
3 1566 1365 1568
3 259 1441 1672
3 872 870 1764
3 330 328 1889
3 1539 1161 2286
3 1897 1898 2275
3 1434 1990 2297
3 1109 1411 1730
3 319 307 2493
3 1762 1761 1953
3 1369 1316 1593
3 1540 834 1832
3 1505 652 2442
3 1732 1655 2137
3 921 1712 2295
3 1872 1388 2170
3 1712 921 2125
3 2028 244 2162
3 1506 1570 1680
3 1569 368 1964
3 1571 667 2375
3 1587 2178 2179
3 196 1723 1737
3 524 2016 2156
3 1528 1250 1733
3 1115 1450 1973
3 1938 1480 1971
3 1809 1396 2067
3 1641 249 2299
3 1223 1258 1474
3 1365 1566 2120
3 1981 962 2316
3 1538 353 1864
3 455 1458 1756
3 152 233 1500
3 1116 1430 1703
3 817 652 1505
3 1347 2003 2004
3 1607 1958 2085
3 194 1801 2195
3 1410 1341 2351
3 223 1415 1710
3 197 1511 2346
3 2198 787 2225
3 81 82 1801
3 1438 208 1620
3 1444 522 1823
3 1511 197 1950
3 726 718 1567
3 1637 516 1739
3 1708 2337 2341
3 1280 1649 2124
3 2337 1395 2341
3 1327 1709 2315
3 1225 1227 1478
3 691 624 1705
3 476 2224 2305
3 830 832 2204
3 1750 1491 2403
3 1366 1897 2275
3 2345 1583 2352
3 2054 405 2110
3 1984 2172 2230
3 1846 2198 2225
3 1177 2042 2418
3 2121 1367 2479
3 1527 1531 1541
3 916 1039 1834
3 1413 1124 2467
3 1622 1503 1868
3 249 1641 2019
3 1805 405 2054
3 1761 1007 1953
3 1415 223 2395
3 960 1756 2203
3 368 1569 2135
3 1402 1659 2473
3 941 1433 2471
3 1267 1477 1501
3 260 2002 2265
3 1704 558 2077
3 2224 1886 2305
3 2053 1386 2199
3 1452 945 1952
3 1717 1611 1718
3 1682 1975 2230
3 1760 1762 2496
3 1481 203 2104
3 1264 1266 1670
3 142 236 1620
3 2133 1182 2179
3 1791 1602 2183
3 350 346 1864
3 1412 1072 2393
3 1281 1575 2255
3 1565 1948 2155
3 849 1449 1513
3 1958 396 2085
3 1339 1069 1662
3 834 1540 1917
3 269 267 1414
3 1268 1267 1501
3 1440 2092 2468
3 1399 1981 2316
3 1635 1636 2041
3 1454 252 2234
3 1451 1305 1890
3 1375 1883 1955
3 362 366 1786
3 1484 2410 2528
3 1449 849 1640
3 1267 1474 1477
3 200 1611 1717
3 1054 1581 1582
3 1350 1977 2253
3 190 1390 2118
3 788 1956 2193
3 1709 1327 1888
3 2233 2298 2413
3 1488 189 2355
3 478 1685 1714
3 230 1525 1690
3 1687 478 1688
3 427 429 1756
3 1570 1065 2476
3 1880 1133 1988
3 1649 656 2124
3 1537 209 1614
3 1134 1769 1986
3 1220 1268 1655
3 396 1777 2085
3 1167 1755 1985
3 2229 1744 2296
3 1575 1281 2287
3 127 240 1882
3 377 647 1797
3 954 329 1998
3 220 1697 1698
3 1342 1341 2212
3 1441 264 1672
3 1512 188 2433
3 763 2345 2352
3 1685 1411 1714
3 1805 1188 1951
3 1347 2004 2157
3 1054 1582 1667
3 1333 1617 1674
3 2217 73 2361
3 1539 1036 1917
3 1039 1292 1834
3 208 141 1620
3 1965 1964 2038
3 693 1544 1969
3 1453 239 2279
3 203 1481 2049
3 945 1451 1889
3 680 1459 2134
3 354 2147 2196
3 1405 1932 2061
3 1723 1722 1737
3 1748 1175 1927
3 1532 1528 1733
3 2057 1824 2154
3 1406 1659 1702
3 1948 1186 2155
3 210 1598 2114
3 1685 478 1687
3 1324 1325 2328
3 1526 1250 1527
3 165 166 1509
3 1493 736 2523
3 1526 1527 1541
3 1390 190 2417
3 522 1444 1998
3 1680 1570 1732
3 1017 1442 2525
3 374 1797 2430
3 1507 1083 2197
3 1756 960 2221
3 2270 1400 2316
3 2205 1452 2282
3 1074 1187 1888
3 2158 1245 2200
3 1442 1017 1684
3 864 1116 1703
3 1750 1751 2143
3 1456 516 1492
3 1677 2146 2149
3 2022 1339 2388
3 1602 258 2183
3 678 1594 1595
3 1245 1670 2200
3 972 830 2204
3 2143 983 2342
3 1268 1501 2226
3 1266 1461 1670
3 1487 222 2465
3 1382 2022 2388
3 58 59 1661
3 2147 1543 2196
3 1484 1485 2410
3 628 2053 2199
3 1906 1549 2259
3 364 362 1786
3 1339 2022 2247
3 1636 525 2041
3 625 678 1595
3 678 1593 1594
3 2212 1410 2222
3 1837 1865 2215
3 1699 1800 1801
3 866 864 1703
3 893 1472 1982
3 1735 1736 2244
3 1633 1255 1922
3 126 127 1882
3 681 867 1656
3 1351 1401 2363
3 11 228 1588
3 1127 1953 2454
3 265 266 267
3 1722 1122 1737
3 1389 1691 2069
3 1613 1610 1616
3 1227 1256 2440
3 429 455 1756
3 1535 1177 2418
3 322 324 1952
3 973 1700 1802
3 1964 368 2038
3 1176 1865 1866
3 1096 872 1764
3 1176 1866 1875
3 193 1839 1892
3 156 157 1441
3 615 617 1596
3 686 1520 2480
3 1409 2097 2305
3 2410 1151 2528
3 1427 2217 2361
3 440 1911 2314
3 1744 1743 2296
3 516 1456 1739
3 1939 589 2164
3 690 931 2150
3 1062 1579 1580
3 1054 1580 1581
3 955 1483 1716
3 1064 1677 2248
3 1956 1616 2193
3 1776 1893 2026
3 1398 1115 1973
3 2002 1453 2265
3 1541 1531 1542
3 216 2191 2536
3 1736 1326 1894
3 1065 994 1066
3 1598 2115 2175
3 2314 1911 2358
3 1433 941 2042
3 2115 1209 2175
3 717 1550 1551
3 188 1941 2433
3 267 1132 1414
3 771 1569 2064
3 1157 1545 1546
3 1231 1250 1526
3 1933 240 2181
3 222 1487 2025
3 1525 230 1765
3 1430 1704 2077
3 757 1744 2495
3 264 263 265
3 883 773 1917
3 739 2205 2282
3 1667 1582 2434
3 1744 757 2474
3 239 1453 2002
3 1441 259 2356
3 2005 1443 2012
3 254 1766 1932
3 1509 166 1679
3 1477 1475 1481
3 793 1440 2165
3 1385 1523 2377
3 1481 1475 2523
3 156 1441 2356
3 1066 1220 1655
3 945 325 1952
3 2094 2087 2134
3 1747 1175 1748
3 253 262 263
3 1327 1074 1888
3 718 715 1567
3 2046 1043 2105
3 240 1933 2399
3 1305 1307 1890
3 224 58 1661
3 1195 1566 2285
3 1590 1393 1749
3 1255 1230 1922
3 353 1538 2073
3 358 1999 2325
3 882 1802 2036
3 1024 1020 1604
3 333 522 1998
3 1401 1351 2414
3 1475 1258 1476
3 2310 786 2364
3 328 945 1889
3 807 1748 1927
3 825 724 1912
3 1742 263 2491
3 267 266 1132
3 2077 2102 2203
3 1431 1432 1860
3 1212 1957 2312
3 2097 476 2305
3 1132 1402 2473
3 717 713 1550
3 1746 693 1969
3 1372 1124 1844
3 1256 1541 2269
3 1977 1350 2274
3 2332 1978 2443
3 874 2133 2179
3 1983 1534 2171
3 1157 1544 1545
3 1230 1228 1922
3 1580 1579 1581
3 1565 806 1948
3 1416 1363 2413
3 1287 1995 2398
3 265 263 266
3 1534 1529 2171
3 1604 1834 2428
3 1255 1633 2509
3 1344 1643 1644
3 1332 1388 1571
3 1423 217 2217
3 2191 1057 2451
3 458 447 1637
3 1250 1233 1733
3 472 2212 2222
3 1175 1747 1840
3 1652 256 1653
3 1073 1347 1572
3 200 145 1609
3 683 640 1585
3 1116 862 1705
3 1221 1223 1474
3 1778 801 1803
3 1503 1622 2471
3 1475 1493 2523
3 464 680 2134
3 14 210 2114
3 579 1880 1988
3 1434 1435 1990
3 1447 2310 2364
3 275 274 276
3 2294 1871 2419
3 814 1068 1684
3 1172 1439 2273
3 273 272 274
3 1363 1416 2406
3 1220 1219 1221
3 1060 1656 1662
3 1099 1792 1985
3 2048 1198 2168
3 1241 1245 2323
3 699 723 1753
3 1640 1862 2070
3 910 1018 1584
3 1586 1067 1587
3 1656 867 1662
3 1067 686 2480
3 654 2242 2294
3 1593 1315 1594
3 1880 553 1974
3 236 1717 1718
3 617 621 1596
3 1723 196 2313
3 402 1877 2116
3 273 274 275
3 2202 1869 2252
3 1510 1358 1767
3 193 1892 2373
3 1188 1805 2054
3 1220 1221 1267
3 1066 1218 1219
3 1517 1097 1518
3 1677 1676 1858
3 686 277 1520
3 268 267 269
3 697 857 1592
3 220 1698 1699
3 1802 1700 2036
3 1612 1537 1614
3 929 817 994
3 228 12 2136
3 2110 2116 2482
3 1659 1658 1702
3 1611 1613 2280
3 1344 991 1643
3 683 1585 1604
3 1638 1358 2404
3 1485 1034 2410
3 2214 833 2424
3 271 272 273
3 1482 955 1962
3 1066 1219 1220
3 931 1885 2150
3 1613 1891 2280
3 1189 1589 2204
3 1566 1195 2120
3 726 1567 2490
3 1122 1722 1874
3 1494 319 2493
3 1671 259 1672
3 1267 1221 1474
3 603 528 1591
3 1664 2128 2316
3 1817 1924 2174
3 1626 1660 2111
3 1474 1475 1477
3 1023 1062 1580
3 1957 1599 2312
3 1764 1939 2164
3 1358 1950 2404
3 200 1609 1610
3 1431 1082 1432
3 1778 1803 2521
3 1830 1832 2075
3 1930 233 2369
3 1329 1482 1650
3 757 1959 2522
3 1239 1247 1597
3 758 1978 2332
3 1569 1290 2064
3 216 1694 2191
3 1453 1420 2265
3 1549 1906 2129
3 24 215 1674
3 19 235 1676
3 1621 1057 2191
3 1691 1389 2262
3 1617 1333 2192
3 929 994 1065
3 1769 1672 1986
3 1893 1412 2026
3 1609 1537 1612
3 271 269 272
3 1373 1438 1620
3 217 1423 2381
3 517 330 1889
3 1322 1055 1667
3 1974 553 2499
3 228 2136 2187
3 1589 1189 1788
3 1999 1577 2325
3 2110 405 2116
3 189 1608 1842
3 1055 1050 1667
3 739 1455 2205
3 1865 1176 2215
3 319 1494 2522
3 2474 757 2522
3 1484 227 1485
3 10 11 1588
3 723 809 1753
3 27 230 1689
3 1550 806 1565
3 1179 1180 1217
3 207 1617 2192
3 1433 1217 1502
3 1562 1556 1606
3 1379 2017 2018
3 1245 2158 2323
3 675 1097 1517
3 884 501 1599
3 1020 683 1604
3 1603 1095 1848
3 1001 2057 2154
3 1604 1585 1834
3 1610 1612 1616
3 1764 870 1939
3 2242 1871 2294
3 1669 1264 1670
3 1658 213 1702
3 1995 1646 2398
3 631 539 1600
3 1491 2143 2342
3 1801 1800 2195
3 1200 1199 1693
3 1535 940 1861
3 1534 758 2332
3 914 2258 2328
3 1588 228 2457
3 216 138 1694
3 151 152 1500
3 1133 1880 1974
3 1677 1858 2248
3 1294 1622 1868
3 875 1010 1767
3 1379 2018 2416
3 1279 2202 2252
3 182 256 1652
3 1592 857 2386
3 672 681 1656
3 615 1596 1824
3 1093 1487 1623
3 1823 522 2100
3 1245 1242 1669
3 1582 1581 1583
3 758 1534 2306
3 1975 1984 2230
3 1358 1510 1950
3 1663 1336 1665
3 2102 960 2203
3 366 1087 1786
3 1740 1490 2231
3 21 207 1709
3 145 146 1609
3 2339 765 2384
3 603 1591 1668
3 2081 199 2149
3 1540 1832 1879
3 1721 1723 1947
3 1754 455 1793
3 1751 1753 2119
3 882 1701 1807
3 1540 1539 1917
3 242 1695 1697
3 1521 354 2091
3 1363 2233 2413
3 1584 1018 1925
3 703 1067 1586
3 1177 1178 1179
3 795 916 1834
3 277 276 607
3 1571 1388 1872
3 22 23 1617
3 1097 823 1177
3 25 26 1624
3 419 418 1790
3 1728 1906 2259
3 440 1455 2261
3 1877 1318 2116
3 1488 1156 1608
3 1439 2130 2273
3 1889 1451 1890
3 1614 209 2389
3 1472 893 2094
3 675 821 823
3 23 24 1674
3 1788 1190 2183
3 917 941 1622
3 1763 1096 1764
3 1068 1442 1684
3 1034 1485 2173
3 2172 1533 2230
3 138 139 1694
3 1065 1570 2197
3 607 674 675
3 1536 1248 2268
3 229 135 1734
3 1437 1925 1926
3 680 510 1646
3 147 209 1537
3 26 27 1689
3 1627 705 2163
3 206 1651 2121
3 2409 1785 2462
3 1492 682 2447
3 1223 1225 1258
3 889 1772 2374
3 253 263 264
3 275 276 277
3 1455 739 2261
3 2022 1382 2176
3 150 227 1484
3 639 1019 1591
3 1449 1640 2070
3 1082 833 2214
3 1503 1502 1504
3 144 200 1717
3 1643 991 1713
3 1190 1791 2183
3 1538 1804 2073
3 1256 2269 2440
3 18 19 1676
3 521 531 2000
3 790 849 2180
3 1075 1329 1650
3 1087 1782 1785
3 1066 994 1218
3 270 269 271
3 682 1492 2494
3 185 252 1454
3 253 158 262
3 1629 1632 1633
3 200 1610 1611
3 1477 1481 2104
3 1623 1487 2465
3 1518 1097 1535
3 1414 1132 2460
3 1179 1217 1433
3 177 1506 1680
3 1392 1017 2525
3 1832 834 2075
3 675 823 1097
3 1459 2094 2134
3 1782 1087 1795
3 1838 1730 2372
3 1639 149 2528
3 1617 23 1674
3 2265 1420 2489
3 180 232 1859
3 1527 1250 1528
3 20 21 1709
3 1083 1508 2311
3 903 866 1703
3 1455 440 2314
3 1187 1858 1888
3 1659 1406 2473
3 1446 1902 2166
3 421 1951 2106
3 1598 210 2115
3 154 259 1671
3 1288 1835 2080
3 1832 1831 1879
3 1258 1225 1478
3 1024 1604 2117
3 1263 1429 1739
3 706 705 1627
3 1583 1581 2352
3 407 1805 1951
3 856 1574 2527
3 1701 882 2036
3 1624 26 1689
3 717 1551 1552
3 1385 2377 2391
3 2302 1745 2354
3 1572 1347 2157
3 1036 883 1917
3 1689 1690 1691
3 1664 1665 2128
3 1476 1479 1480
3 1751 2119 2143
3 815 814 1684
3 1790 889 2400
3 1606 1607 2085
3 265 267 268
3 418 889 1790
3 1522 1521 2091
3 135 136 1734
3 1726 1445 1729
3 647 1796 1797
3 1346 1453 2279
3 1293 1827 2117
3 1242 1244 1669
3 1853 1852 1854
3 889 2374 2400
3 1039 1038 1290
3 1524 628 2199
3 1331 1332 1571
3 1291 1290 1569
3 1475 1476 1493
3 1850 1852 1853
3 1490 1740 2456
3 1689 230 1690
3 1256 1526 1541
3 1704 1705 2167
3 1465 1470 1675
3 956 1073 1572
3 1613 1616 1956
3 916 917 1038
3 2014 1522 2091
3 1221 1222 1223
3 1999 763 2352
3 234 10 1588
3 1697 220 2335
3 1527 1528 1529
3 2298 1600 2413
3 1436 2020 2254
3 1642 1161 1678
3 1523 1385 2436
3 1730 1838 2426
3 795 796 916
3 713 711 1550
3 1456 1263 1739
3 999 1336 1663
3 1785 1784 2462
3 409 415 1783
3 607 675 1517
3 1229 1231 1526
3 1958 1855 2078
3 1589 1588 1590
3 1933 261 2380
3 762 1965 2038
3 1756 1458 2203
3 1776 597 1893
3 1794 1072 1893
3 188 1512 2266
3 1774 2339 2384
3 188 1908 1941
3 1010 1510 1767
3 2189 2285 2307
3 773 834 1917
3 1245 1669 1670
3 1248 1597 2268
3 146 1537 1609
3 818 910 1584
3 1641 1313 1651
3 1217 1745 2302
3 1065 1066 1655
3 1597 1247 2047
3 1360 2177 2376
3 1612 1615 1616
3 2126 867 2186
3 1019 683 1020
3 1747 892 1840
3 1092 1093 1623
3 261 1933 2181
3 400 424 1666
3 1516 1903 2377
3 1100 1392 1605
3 247 1738 1881
3 268 1134 1986
3 1177 823 1178
3 884 1599 1957
3 263 262 2491
3 806 1627 1948
3 1227 1229 1256
3 191 1729 2504
3 1636 1635 2502
3 1480 1479 1601
3 1721 1947 2498
3 1924 1146 2174
3 229 1734 1735
3 175 204 1725
3 1179 1178 1180
3 354 1521 2147
3 665 697 1592
3 640 646 1585
3 627 545 1636
3 1882 240 2399
3 1556 1555 1606
3 1373 1620 2394
3 1871 1071 2419
3 548 1628 1629
3 455 436 1793
3 974 1831 1841
3 1844 1413 2392
3 1612 1614 1615
3 209 1639 1937
3 1329 1330 1331
3 1823 2100 2142
3 1097 1177 1535
3 1021 1020 1022
3 825 1912 2455
3 913 1122 1874
3 400 1666 2113
3 1256 1229 1526
3 1419 1418 2450
3 1552 1551 1553
3 1850 1099 1852
3 1629 1631 1632
3 801 685 2029
3 1618 1619 1621
3 265 268 1986
3 1715 2165 2330
3 1531 1529 1534
3 1022 1024 1576
3 658 693 1746
3 703 686 1067
3 1062 1576 1577
3 1023 1022 1062
3 236 1718 2394
3 1688 502 1740
3 1501 1477 2104
3 213 165 1509
3 646 795 1585
3 196 1737 1738
3 379 679 1795
3 639 640 683
3 924 875 1767
3 1752 699 1753
3 207 2192 2315
3 627 1636 1660
3 1217 1180 1745
3 730 728 1833
3 528 561 1591
3 1444 1417 1998
3 252 186 1602
3 1729 1445 2504
3 460 502 1688
3 1418 946 1778
3 1203 1200 1693
3 548 470 1628
3 849 668 1640
3 646 785 795
3 607 276 674
3 14 15 210
3 147 148 209
3 478 460 1688
3 1709 207 2315
3 1157 1546 1608
3 1155 1731 1899
3 1524 1934 2390
3 1775 921 1876
3 1433 1502 1503
3 470 458 1628
3 1223 1224 1225
3 1291 1569 1964
3 871 1056 1826
3 1781 1783 1915
3 1587 1067 2300
3 916 1038 1039
3 1388 1387 1389
3 1611 1610 1613
3 1075 1328 1329
3 1039 1290 1291
3 1538 1265 1804
3 1184 1185 2163
3 597 598 1794
3 1450 1356 2421
3 1835 576 2080
3 1629 1628 1631
3 1331 1330 1332
3 561 639 1591
3 1476 1480 1493
3 705 703 1586
3 639 683 1019
3 1951 1188 2106
3 436 446 1793
3 1472 1297 2142
3 1332 1387 1388
3 1345 984 1720
3 1329 1328 1330
3 1050 1048 1667
3 150 151 227
3 11 12 228
3 557 541 2256
3 1831 974 1879
3 134 229 1766
3 1357 1358 1638
3 1336 1641 2299
3 1650 1482 1962
3 1591 1019 2512
3 1506 1507 1570
3 1803 801 2029
3 1178 823 1972
3 1552 1553 1554
3 1290 1038 1294
3 1028 1313 1641
3 1237 1239 1597
3 993 1017 1100
3 893 2087 2094
3 149 1484 2528
3 1768 1142 1949
3 9 234 1673
3 1554 1553 1555
3 668 632 1640
3 711 806 1550
3 1628 458 1637
3 1098 1829 1830
3 1482 1331 1483
3 531 1818 2000
3 435 419 1790
3 1156 1157 1608
3 1182 1184 2179
3 510 512 1646
3 1231 1233 1250
3 946 841 1778
3 1483 1331 1571
3 1459 680 2458
3 1166 1040 1210
3 892 1657 1820
3 1042 1445 1726
3 1019 1020 1021
3 749 805 1810
3 234 1588 1589
3 1695 242 1892
3 556 1853 2483
3 1018 1572 1573
3 1529 1528 1530
3 1606 1558 1607
3 1761 1759 2308
3 1396 1032 1921
3 1018 956 1572
3 689 1150 1416
3 1827 1293 2515
3 149 150 1484
3 1647 656 1648
3 1543 694 2196
3 399 409 1783
3 545 525 1636
3 268 269 270
3 715 713 717
3 1100 1017 1392
3 1657 892 1747
3 207 22 1617
3 1666 884 2249
3 1671 1672 1769
3 1554 1555 1556
3 146 147 1537
3 1081 1444 1822
3 711 709 806
3 1443 2005 2322
3 660 658 1746
3 1166 1458 1754
3 916 796 917
3 1056 1728 1826
3 1068 1069 1275
3 184 185 1454
3 158 159 262
3 2007 1687 2231
3 805 1708 1810
3 1672 264 1986
3 1561 1562 1563
3 978 1075 1650
3 1590 1588 2457
3 215 25 1624
3 1551 1550 1565
3 1073 1346 1347
3 857 818 1584
3 1648 656 1649
3 675 674 821
3 561 594 639
3 1731 529 1899
3 2303 1454 2535
3 981 903 1040
3 1630 1629 1633
3 993 877 1017
3 724 718 726
3 512 603 1646
3 1676 235 1858
3 814 1060 1068
3 715 717 1567
3 1796 647 1870
3 1715 1171 2165
3 678 1592 1593
3 644 613 1824
3 1690 1525 2145
3 1297 1822 1823
3 271 656 1647
3 1704 1116 1705
3 1225 1226 1227
3 1275 1069 1338
3 910 956 1018
3 1824 1596 2154
3 1403 1100 1605
3 1221 1219 1222
3 1068 1060 1069
3 1901 245 1949
3 1081 1055 1321
3 1751 563 1752
3 1021 1022 1023
3 672 638 681
3 1095 657 1848
3 1235 1237 1248
3 1561 1556 1562
3 1265 1259 1804
3 524 1819 2016
3 978 1650 2362
3 1492 516 2494
3 229 1735 2061
3 185 186 252
3 157 158 253
3 152 153 233
3 9 10 234
3 1527 1529 1531
3 1808 1344 2360
3 1062 1577 1579
3 1509 1679 1977
3 424 454 1666
3 637 638 672
3 981 1040 1166
3 1555 1558 1606
3 751 749 1810
3 1166 1210 1458
3 1651 1313 2121
3 15 16 2260
3 1633 1632 2509
3 2167 1705 2276
3 551 602 2045
3 697 818 857
3 364 1786 1883
3 832 1189 2204
3 1476 1478 1479
3 678 665 1592
3 213 1509 2096
3 1015 888 1124
3 1062 1022 1576
3 679 1782 1795
3 680 1646 1995
3 1101 1100 1403
3 1109 433 1714
3 1248 1237 1597
3 733 730 1833
3 1702 213 2096
3 499 498 1828
3 1418 1778 2521
3 637 600 638
3 1048 1046 1054
3 1577 1576 1578
3 814 766 1060
3 1279 2252 2292
3 474 470 548
3 199 18 1676
3 157 253 1441
3 1048 1054 1667
3 471 472 2290
3 625 665 678
3 795 785 796
3 1264 1265 1266
3 1437 1926 2350
3 1362 2048 2168
3 1394 2337 2371
3 454 884 1666
3 1022 1020 1024
3 751 1810 1923
3 1046 1023 1580
3 1807 1701 1931
3 1618 208 1619
3 566 588 689
3 1828 498 1829
3 501 509 1599
3 1118 780 1775
3 878 817 929
3 1510 1511 1950
3 1618 1621 1694
3 1052 1081 1822
3 1416 1150 1715
3 1239 1241 1247
3 1396 1921 2067
3 1751 1752 1753
3 1264 1259 1265
3 539 566 1600
3 1762 1127 2496
3 1673 1788 2183
3 1555 1557 1558
3 1052 1050 1055
3 725 724 825
3 1142 1770 1771
3 681 853 867
3 454 501 884
3 1346 1420 1453
3 932 1147 1770
3 1546 1545 1547
3 533 582 1818
3 1266 1337 1460
3 1872 820 2318
3 1117 1119 1713
3 1081 1321 1417
3 1253 1259 1264
3 1569 771 2135
3 1052 1055 1081
3 1181 1178 1972
3 709 706 1627
3 1073 1076 1346
3 1098 1828 1829
3 1382 1380 2176
3 1442 1275 1443
3 919 999 1663
3 1789 828 1855
3 877 815 1684
3 509 539 631
3 992 877 993
3 1266 1265 1337
3 2268 1498 2340
3 1130 1032 1396
3 1095 1603 2508
3 886 826 887
3 531 533 1818
3 1131 1400 1881
3 447 437 516
3 2460 1132 2473
3 940 1535 2418
3 768 1873 2037
3 1813 1869 1954
3 1627 2163 2488
3 1497 1495 1645
3 1198 1409 2168
3 724 726 1912
3 1869 987 1954
3 763 1999 2338
3 1010 1170 1374
3 984 976 1720
3 1470 1743 1744
3 689 588 1150
3 1901 1949 2359
3 1640 632 1862
3 274 272 1787
3 563 564 1752
3 994 817 1505
3 737 1807 1931
3 1770 1147 1771
3 1233 1235 1733
3 2450 1418 2521
3 414 410 1821
3 908 1099 1850
3 1227 1228 1229
3 1692 1203 1693
3 1625 216 2194
3 512 528 603
3 1377 1357 1638
3 1465 1464 1470
3 1360 1359 2177
3 1686 2007 2095
3 1336 1028 1641
3 1857 751 1923
3 1758 572 1759
3 553 541 557
3 1171 1715 1811
3 956 1003 1073
3 1467 1465 1675
3 719 718 724
3 1509 1977 2096
3 1734 1625 1736
3 1503 1504 1868
3 592 597 1776
3 180 181 232
3 162 163 231
3 2308 1759 2370
3 1357 1114 1358
3 875 946 1010
3 509 631 1599
3 17 18 199
3 144 145 200
3 1099 906 1792
3 1469 1467 1494
3 605 589 1939
3 1208 1205 1211
3 354 344 2091
3 692 782 804
3 1010 946 1170
3 1463 1462 1464
3 716 715 718
3 714 713 715
3 271 273 656
3 139 1618 1694
3 549 277 686
3 673 672 766
3 1378 1377 1379
3 2007 868 2095
3 999 1028 1336
3 1208 1211 1447
3 601 545 627
3 1119 1643 1713
3 1332 1333 1387
3 910 912 956
3 520 521 2000
3 828 1789 1819
3 277 607 1520
3 1338 1339 2247
3 818 819 910
3 767 766 814
3 712 711 713
3 1494 1467 1675
3 639 594 640
3 2044 557 2256
3 235 20 1709
3 1620 236 2394
3 804 919 962
3 1862 702 2070
3 681 852 853
3 1559 1556 1561
3 1622 941 2471
3 2165 1440 2330
3 612 644 692
3 697 698 818
3 1903 1516 1994
3 371 379 1795
3 428 426 2138
3 1290 1294 2064
3 1384 1904 2432
3 566 689 1600
3 471 452 472
3 1092 1091 1093
3 1002 1131 1719
3 1090 1089 1091
3 875 841 946
3 1758 1760 1763
3 1562 1606 2085
3 1833 1830 2075
3 178 179 214
3 164 165 213
3 769 923 1815
3 692 644 782
3 804 782 919
3 182 183 256
3 160 161 257
3 1329 1331 1482
3 962 1663 1664
3 1177 1179 2042
3 403 405 1805
3 1461 1460 1462
3 140 208 1618
3 1859 232 1860
3 274 1787 2099
3 1381 2126 2186
3 1558 1560 1789
3 430 428 682
3 452 435 1683
3 1487 1156 1488
3 1470 1464 1743
3 597 1794 1893
3 1244 1253 1669
3 962 919 1663
3 258 8 1673
3 1087 1785 1786
3 970 1042 1726
3 199 1677 2149
3 1664 1663 1665
3 1229 1230 1231
3 991 827 1713
3 792 1603 1848
3 1822 1444 1823
3 665 666 697
3 19 20 235
3 142 143 236
3 728 1098 1833
3 532 530 1898
3 1015 1124 1372
3 1546 1547 1548
3 1851 1850 1853
3 1877 393 2240
3 923 1105 1815
3 1090 1091 1092
3 687 686 703
3 1683 435 1790
3 887 826 1961
3 684 663 1089
3 426 1934 2138
3 464 510 680
3 853 854 855
3 568 572 1758
3 1376 1357 1377
3 1205 1203 1692
3 1607 1789 1855
3 710 709 711
3 780 781 1775
3 1434 1103 1435
3 876 815 877
3 766 672 1656
3 1393 1590 2457
3 684 1089 1090
3 530 890 1898
3 926 1920 1943
3 696 414 1821
3 1563 1562 1777
3 1054 1046 1580
3 1398 1973 1974
3 137 216 1625
3 1210 1040 1430
3 1750 563 1751
3 2010 1665 2299
3 1510 1374 1511
3 1777 1562 2085
3 1707 252 1791
3 1932 1404 1933
3 459 438 1814
3 139 140 1618
3 1093 1156 1487
3 231 163 1658
3 699 722 723
3 1545 1095 2508
3 598 612 1794
3 579 554 1880
3 1941 1908 2401
3 1231 1232 1233
3 1831 1829 1841
3 1037 1383 1799
3 177 178 1506
3 636 600 637
3 1036 1539 2286
3 1356 1114 1357
3 1523 1516 2377
3 704 703 705
3 403 402 405
3 648 792 1848
3 723 756 808
3 1388 1389 2170
3 933 932 1770
3 223 1710 1711
3 1779 399 1783
3 1223 1222 1224
3 1028 1029 1313
3 257 161 1654
3 418 412 421
3 734 882 1807
3 693 657 1095
3 1368 1370 1436
3 136 137 1625
3 688 652 817
3 1075 1327 1328
3 540 479 1813
3 398 395 402
3 548 1629 1630
3 574 591 699
3 1469 1494 1495
3 1041 1598 2175
3 167 168 202
3 175 176 204
3 2045 2046 2201
3 186 187 1602
3 886 887 888
3 1253 1254 1259
3 8 9 1673
3 792 655 810
3 843 1145 1960
3 1180 1349 1745
3 1165 1345 1512
3 708 706 709
3 136 1625 1734
3 21 22 207
3 140 141 208
3 625 626 665
3 1093 1094 1156
3 1585 795 1834
3 1117 1713 1806
3 599 579 600
3 810 871 1826
3 1047 1046 1048
3 1292 1291 1293
3 161 162 1654
3 199 1676 1677
3 1260 1282 1804
3 1005 1142 1768
3 1233 1234 1235
3 792 810 922
3 1122 1719 1737
3 976 985 1720
3 1278 1279 2292
3 2390 1934 2531
3 1436 1437 2350
3 270 271 1647
3 1199 966 1846
3 1683 1342 2212
3 656 273 2124
3 699 591 722
3 1977 1139 2096
3 1738 1719 1881
3 1722 985 1874
3 1797 1448 1798
3 162 231 1654
3 632 604 1862
3 252 1602 1791
3 1051 1050 1052
3 1045 1023 1046
3 648 655 792
3 993 1100 1101
3 1321 1055 1322
3 806 709 1627
3 904 903 981
3 1220 1267 1268
3 648 605 655
3 1737 1719 1738
3 385 399 1779
3 506 499 1828
3 1132 266 1402
3 1170 1418 1419
3 1323 2302 2354
3 24 25 215
3 137 138 216
3 721 965 1919
3 1787 1414 2460
3 778 1117 1806
3 723 722 756
3 407 403 1805
3 564 574 1752
3 1049 1048 1050
3 842 841 875
3 1608 1546 1842
3 809 808 899
3 1517 1519 1520
3 1530 1532 1533
3 889 421 1772
3 913 1002 1122
3 1314 1316 1367
3 1017 877 1684
3 841 802 1778
3 1235 1236 1237
3 751 1857 1900
3 1114 924 1767
3 1344 1644 2360
3 1895 1394 2371
3 1518 1535 1861
3 1758 1759 1760
3 1122 1002 1719
3 546 563 1750
3 1056 1726 1727
3 663 660 1746
3 621 622 625
3 1720 985 1721
3 1857 1843 1900
3 808 756 913
3 1056 970 1726
3 27 28 230
3 134 135 229
3 908 906 1099
3 163 164 1658
3 1727 1726 1729
3 7 8 258
3 154 155 259
3 1101 1403 1404
3 808 913 1874
3 1260 1269 1282
3 1389 1387 2262
3 1297 1053 1822
3 1555 1553 1557
3 1463 1464 1465
3 230 28 1765
3 1237 1238 1239
3 554 553 1880
3 775 778 1806
3 985 899 1874
3 1270 1524 2199
3 489 1820 1936
3 692 1072 1794
3 1472 2142 2272
3 1845 496 1929
3 438 431 1814
3 613 615 1824
3 1241 1242 1245
3 1783 415 1915
3 1192 2081 2149
3 178 214 1506
3 1816 988 1817
3 1760 1759 1761
3 1103 1092 1623
3 1512 1345 1661
3 1876 921 2295
3 1165 984 1345
3 978 1074 1075
3 1239 1240 1241
3 542 541 553
3 813 988 1816
3 1148 984 1165
3 871 970 1056
3 472 452 1683
3 1207 1796 1870
3 1167 1166 1754
3 1296 1053 1297
3 966 964 1846
3 976 899 985
3 982 976 984
3 702 1815 2015
3 900 899 976
3 1143 995 1206
3 1576 1024 1827
3 1235 1248 1733
3 1558 1557 1560
3 943 995 1143
3 1920 1144 1943
3 1471 2115 2477
3 29 30 255
3 132 133 254
3 1630 1633 1634
3 1225 1224 1226
3 1925 1573 1926
3 1211 1205 1692
3 725 825 826
3 1113 924 1114
3 600 579 1988
3 717 1552 1567
3 1820 1657 1936
3 674 276 2099
3 395 393 1877
3 572 543 1897
3 1575 1308 2255
3 999 1000 1028
3 1118 1775 1876
3 1797 1798 2430
3 526 546 559
3 867 853 2186
3 1142 1771 1949
3 1068 1275 1442
3 679 385 1779
3 1607 1558 1789
3 580 568 1758
3 1244 1252 1253
3 1760 1761 1762
3 398 402 403
3 1476 1258 1478
3 418 421 889
3 1771 1147 1839
3 164 213 1658
3 1720 1721 2267
3 1668 1591 2512
3 1042 1128 1445
3 1098 1830 1833
3 1102 1092 1103
3 2249 884 2466
3 1104 1103 1434
3 410 416 1821
3 514 513 541
3 580 1758 1763
3 637 673 1741
3 1913 936 1914
3 1394 1395 2337
3 919 920 999
3 577 554 579
3 2111 1660 2263
3 231 1658 1659
3 612 613 644
3 568 543 572
3 770 775 1806
3 1445 1128 1446
3 1546 1548 1842
3 448 460 478
3 810 870 871
3 1789 1560 1819
3 1154 1082 1431
3 873 973 1802
3 379 385 679
3 837 850 921
3 1461 1462 1463
3 1346 1076 1420
3 1088 1344 1808
3 2125 1143 2353
3 931 977 978
3 882 772 1802
3 29 255 1765
3 849 1513 2180
3 1713 827 1806
3 1130 1396 1397
3 681 638 852
3 1417 1321 1873
3 1654 1402 2530
3 502 526 1740
3 1124 888 2177
3 1266 1460 1461
3 515 1175 1840
3 1253 1264 1669
3 479 466 1813
3 1727 1729 1757
3 379 380 385
3 1971 1480 2514
3 1637 1739 2459
3 1207 1205 1208
3 529 519 1899
3 1129 1845 1929
3 224 1661 2267
3 192 1856 2361
3 732 734 1807
3 1184 2163 2435
3 1119 1120 1353
3 415 414 431
3 719 724 725
3 559 546 1750
3 871 872 970
3 1038 917 1622
3 574 699 1752
3 166 167 1679
3 1117 1118 1119
3 1409 1196 2035
3 617 619 621
3 1172 1173 1439
3 1191 1005 1768
3 664 663 684
3 494 493 1841
3 890 529 1731
3 840 802 841
3 493 974 1841
3 385 386 399
3 679 1779 1780
3 371 376 379
3 416 433 1109
3 670 769 1815
3 902 866 903
3 1780 1779 1781
3 480 515 1840
3 970 971 1042
3 433 448 1714
3 28 29 1765
3 1005 949 1142
3 778 780 1117
3 959 1037 1799
3 1073 1003 1076
3 535 532 1898
3 1119 1118 1120
3 658 657 693
3 1378 1379 1380
3 1397 1396 1809
3 1610 1609 1612
3 1819 1560 2016
3 1837 952 1865
3 1719 1131 1881
3 1131 1399 1400
3 1352 1138 2058
3 399 406 409
3 548 1630 2041
3 1275 1338 2251
3 582 1816 1818
3 1835 1836 2144
3 993 1101 1980
3 1699 1698 1700
3 2407 364 2505
3 1189 1190 1788
3 1117 780 1118
3 1830 1829 1831
3 637 672 673
3 692 804 1072
3 1204 1203 1205
3 1374 1170 2139
3 612 692 1794
3 1642 1408 2286
3 723 808 809
3 450 459 1812
3 409 410 414
3 802 801 1778
3 1853 1854 2483
3 1042 1127 1128
3 1199 1846 2225
3 1147 990 1273
3 1383 1384 2432
3 432 431 438
3 1353 1120 1390
3 1093 1091 1094
3 2020 250 2254
3 148 149 1639
3 606 605 648
3 1970 2016 2422
3 2201 2046 2327
3 475 471 513
3 412 407 1951
3 1991 246 2139
3 727 695 728
3 1673 234 1788
3 1554 1556 1559
3 1089 663 1746
3 1846 964 2056
3 923 991 1088
3 409 406 410
3 729 728 730
3 1424 1427 1856
3 1473 1911 2407
3 1376 1377 1378
3 1010 1374 1510
3 853 852 854
3 366 369 1087
3 772 873 1802
3 1219 1218 1626
3 1766 229 2061
3 1088 991 1344
3 922 810 1826
3 518 506 695
3 405 402 2116
3 962 1664 2316
3 913 942 1002
3 932 990 1147
3 629 813 1816
3 876 877 992
3 399 386 406
3 932 845 990
3 1002 1123 1131
3 843 996 1145
3 781 837 1775
3 262 2304 2491
3 431 696 1814
3 1273 1695 1892
3 731 730 732
3 737 732 1807
3 439 438 450
3 1829 498 1841
3 800 685 801
3 767 814 815
3 1060 766 1656
3 673 766 767
3 1403 1605 1882
3 716 718 719
3 1338 1069 1339
3 847 752 1843
3 864 862 1116
3 2302 443 2519
3 923 827 991
3 526 559 1740
3 1911 1473 2358
3 1085 1310 1867
3 809 899 900
3 1227 1226 1228
3 729 730 731
3 1436 1370 1437
3 731 732 737
3 769 827 923
3 456 452 471
3 1433 1503 2471
3 1435 1103 1623
3 385 380 386
3 1141 1787 2460
3 1354 1088 1808
3 657 649 1848
3 415 431 432
3 484 892 1820
3 727 728 729
3 855 854 1450
3 1721 1722 1723
3 1643 1353 1644
3 1145 1916 1960
3 1421 1191 1422
3 466 1812 1813
3 943 944 995
3 1356 1357 1376
3 714 715 716
3 1156 1094 1157
3 598 611 612
3 631 1600 2298
3 590 589 605
3 965 969 1919
3 416 1109 1821
3 242 1697 2335
3 1548 1547 1549
3 550 573 584
3 584 604 632
3 409 414 415
3 712 713 714
3 642 670 702
3 818 698 819
3 1006 1005 1191
3 1624 1689 1691
3 169 170 237
3 173 174 238
3 956 912 1003
3 937 936 1913
3 1317 1025 1875
3 515 540 550
3 973 1799 1800
3 973 959 1799
3 518 695 727
3 910 819 912
3 584 573 604
3 1170 946 1418
3 173 238 1847
3 550 540 573
3 982 984 1148
3 900 976 982
3 441 435 452
3 448 478 1714
3 1849 1648 2173
3 1631 1628 1637
3 1830 1831 1832
3 1383 1216 1384
3 734 772 882
3 949 933 1770
3 1332 1330 1333
3 574 575 591
3 1105 1088 1354
3 702 670 1815
3 498 494 1841
3 827 770 1806
3 873 959 973
3 1390 1391 1415
3 450 438 459
3 950 949 1005
3 351 362 364
3 1313 1029 1314
3 432 438 439
3 837 838 850
3 1273 1274 1695
3 850 851 943
3 911 952 1837
3 1259 1260 1804
3 566 587 588
3 1037 1216 1383
3 1337 1265 1538
3 1087 369 1795
3 810 655 870
3 1559 1561 1566
3 1147 1273 1839
3 732 733 734
3 1662 867 2126
3 890 1731 2241
3 1854 1852 2397
3 515 479 540
3 451 450 466
3 697 666 698
3 1367 1316 1368
3 662 660 663
3 365 355 694
3 1358 1114 1767
3 379 376 380
3 1796 1448 1797
3 179 180 1859
3 790 668 849
3 569 568 580
3 690 860 931
3 466 450 1812
3 431 414 696
3 1973 1133 1974
3 651 649 657
3 467 466 479
3 1288 1289 1835
3 264 265 1986
3 1302 1303 1304
3 592 596 597
3 1873 1321 2037
3 544 543 568
3 275 277 549
3 209 1937 2389
3 539 565 566
3 1485 227 1486
3 2384 2190 2408
3 1781 1779 1783
3 480 479 515
3 689 1416 2413
3 1108 1161 1539
3 1867 1310 1895
3 1300 1301 1302
3 1695 1696 1697
3 633 632 668
3 1304 1451 1452
3 988 911 1837
3 168 169 1724
3 969 1012 1172
3 582 629 1816
3 1843 752 1900
3 629 812 813
3 710 711 712
3 1782 1780 1784
3 536 535 543
3 1089 1746 1969
3 1108 1107 1161
3 1514 1426 1856
3 486 484 1820
3 369 371 1795
3 1817 988 1924
3 493 609 974
3 1422 1191 2023
3 1426 1424 1856
3 842 875 924
3 922 1826 2259
3 989 1361 1886
3 928 1070 1288
3 669 668 790
3 1113 1114 1356
3 1027 847 1843
3 728 695 1098
3 734 735 772
3 975 1107 1108
3 955 859 1962
3 813 911 988
3 1208 1448 1796
3 1101 1405 1980
3 602 676 2045
3 586 581 589
3 546 547 563
3 493 491 609
3 628 1524 2390
3 348 344 354
3 1298 1299 1300
3 509 538 539
3 974 609 975
3 813 891 911
3 871 870 872
3 1355 1354 1423
3 489 486 1820
3 778 779 780
3 1025 1176 1875
3 772 773 873
3 803 1743 2347
3 167 202 1679
3 873 883 959
3 1483 1571 2375
3 427 1756 2221
3 540 1813 1954
3 1202 1200 1203
3 959 1035 1037
3 837 921 1775
3 1304 1305 1451
3 1799 1383 2195
3 604 642 1862
3 1470 1744 2474
3 1854 2397 2453
3 1282 1269 1386
3 1573 1572 2157
3 472 2222 2290
3 1307 1708 2341
3 769 770 827
3 1037 1215 1216
3 791 790 856
3 1053 1052 1822
3 1056 1727 1728
3 1341 1138 1352
3 1300 1299 1301
3 1814 696 1838
3 1198 1196 1409
3 492 491 493
3 439 450 451
3 1171 858 2132
3 1259 1254 1260
3 665 626 666
3 970 872 971
3 258 1602 2357
3 1296 1297 1472
3 490 489 491
3 516 437 2494
3 1298 1027 1299
3 846 845 932
3 501 508 509
3 460 461 502
3 448 449 460
3 482 480 1840
3 1229 1228 1230
3 604 641 642
3 1424 1423 1427
3 502 503 526
3 1028 1000 1029
3 935 933 949
3 1084 1085 1867
3 2028 1711 2353
3 1513 1426 1514
3 892 482 1840
3 852 638 1988
3 402 395 1877
3 738 737 845
3 413 412 418
3 1119 1353 1643
3 526 527 546
3 280 279 281
3 1731 1155 2123
3 1042 971 1127
3 1208 1447 1448
3 433 434 448
3 262 159 2304
3 184 1454 2303
3 1051 1052 1053
3 1816 1817 1818
3 1081 1417 1444
3 781 836 837
3 911 951 952
3 1090 1092 1102
3 202 168 1724
3 1085 1309 1310
3 408 407 412
3 1337 1538 1864
3 1515 1514 1516
3 530 529 890
3 1517 1518 1519
3 549 686 687
3 923 1088 1105
3 404 403 407
3 1835 1289 1836
3 1314 1367 2121
3 1380 1379 2416
3 670 671 769
3 899 808 1874
3 1040 903 1703
3 1596 1595 2154
3 1496 1495 1497
3 636 637 1741
3 1377 1638 2288
3 1288 1070 1289
3 1072 804 1981
3 1129 1334 1845
3 1865 1084 1866
3 792 922 1603
3 1253 1252 1254
3 981 1167 1792
3 1302 1301 1303
3 1641 1651 2019
3 952 953 1084
3 1813 1812 1869
3 732 730 733
3 975 1106 1107
3 1142 949 1770
3 981 1166 1167
3 840 841 842
3 451 466 467
3 1273 990 1274
3 1049 1050 1051
3 1473 2407 2505
3 968 966 1199
3 642 643 670
3 1310 1309 1311
3 422 419 435
3 1063 833 1082
3 919 782 920
3 911 891 951
3 1084 953 1085
3 1763 1764 2164
3 1498 1497 1682
3 515 550 1175
3 1079 937 1913
3 642 702 1862
3 845 737 1931
3 1394 1311 1395
3 1395 1521 1522
3 467 479 480
3 1755 1754 1793
3 1231 1230 1232
3 1557 1553 2030
3 1624 1691 2262
3 584 632 633
3 1094 1091 1969
3 708 709 710
3 1948 1627 2488
3 952 951 953
3 1102 1103 1104
3 1047 1048 1049
3 1310 1311 1394
3 1852 1099 1985
3 143 144 1717
3 813 812 891
3 1944 1044 1945
3 1105 1354 1355
3 1300 1302 1455
3 1914 936 1940
3 1415 1391 1710
3 1299 1027 1843
3 952 1084 1865
3 1695 1274 1696
3 776 774 1928
3 282 281 283
3 2003 1347 2279
3 1206 995 1499
3 1164 1685 1686
3 1551 1565 2030
3 969 1172 1919
3 633 668 669
3 734 733 735
3 1373 1372 1438
3 599 600 636
3 1431 1860 2487
3 1579 1577 1999
3 484 482 892
3 917 940 941
3 2144 1836 2169
3 1866 1084 1867
3 1110 1747 1748
3 998 1171 1811
3 1390 1120 1391
3 644 1824 2057
3 1362 1961 2048
3 944 1283 1825
3 1086 1027 1298
3 679 1780 1782
3 974 975 1879
3 507 506 518
3 1121 1079 1401
3 775 777 778
3 1965 762 2349
3 1045 1046 1047
3 1772 421 2106
3 16 17 2081
3 416 417 433
3 921 850 2125
3 1607 1855 1958
3 649 648 1848
3 1241 1240 1242
3 2012 1443 2251
3 926 928 1920
3 1487 1488 2025
3 1006 1191 1421
3 1355 1423 1424
3 1133 852 1988
3 591 592 1776
3 1299 1843 1857
3 1085 1308 1309
3 490 491 492
3 958 694 1575
3 1384 1216 1385
3 741 915 1878
3 1233 1232 1234
3 669 790 791
3 481 480 482
3 687 703 704
3 492 493 494
3 1634 1633 1922
3 1697 1696 1698
3 1721 985 1722
3 1839 1273 1892
3 772 735 773
3 488 486 489
3 950 1005 1006
3 1513 1514 1515
3 454 500 501
3 873 773 883
3 284 283 285
3 2185 1505 2442
3 959 883 1035
3 543 535 1897
3 1904 1384 2093
3 800 801 802
3 1037 1035 1215
3 1293 1964 1965
3 1239 1238 1240
3 943 1143 2125
3 1782 1784 1785
3 913 756 942
3 488 490 1884
3 1590 1749 2501
3 1235 1234 1236
3 791 856 1408
3 702 2015 2070
3 1108 1539 1540
3 1021 1023 1045
3 695 506 1828
3 1530 1528 1532
3 488 489 490
3 1621 1619 2161
3 704 705 706
3 1304 1303 1305
3 558 1704 2167
3 625 622 626
3 542 553 554
3 604 573 641
3 664 684 685
3 564 571 574
3 1108 1540 1879
3 1856 1427 2361
3 880 1025 1129
3 1395 1311 1521
3 1466 1465 1467
3 915 495 1884
3 1515 1516 1523
3 1237 1236 1238
3 606 648 649
3 999 920 1000
3 676 829 1043
3 2100 794 2142
3 227 151 1500
3 577 579 599
3 153 154 1671
3 1175 550 1927
3 1014 888 1015
3 286 285 287
3 1649 1280 2427
3 1725 204 2137
3 975 609 1106
3 1129 1317 1334
3 1109 1730 2426
3 1468 1467 1469
3 1131 1123 1399
3 1215 2235 2378
3 1976 1149 1989
3 397 395 398
3 746 743 1878
3 1041 1343 1598
3 975 1108 1879
3 741 495 915
3 1167 1754 1755
3 288 287 289
3 743 741 1878
3 1274 990 1931
3 1506 214 1507
3 857 1584 2277
3 2341 1522 2387
3 846 932 933
3 1107 1106 1110
3 584 633 1927
3 290 289 291
3 722 591 1776
3 1544 1094 1969
3 1135 270 1647
3 935 949 950
3 1920 1288 2080
3 754 1896 2108
3 1693 1199 2225
3 292 291 293
3 394 393 395
3 745 743 746
3 1002 942 1123
3 731 737 738
3 294 293 295
3 1018 1573 1925
3 296 295 297
3 298 297 299
3 321 322 325
3 317 320 321
3 314 315 317
3 312 313 314
3 310 311 312
3 308 309 310
3 1898 890 2275
3 306 307 308
3 304 305 306
3 1401 1079 1913
3 300 299 301
3 302 303 304
3 300 301 302
3 302 301 303
3 491 489 1936
3 298 299 300
3 304 303 305
3 306 305 307
3 308 307 309
3 310 309 311
3 312 311 313
3 314 313 315
3 317 315 320
3 321 320 322
3 1301 1299 1857
3 514 541 542
3 296 297 298
3 850 838 851
3 1310 1394 1895
3 294 295 296
3 590 605 606
3 292 293 294
3 651 657 658
3 290 291 292
3 1207 1208 1796
3 835 1976 1989
3 621 619 622
3 746 1878 1896
3 481 482 483
3 1026 847 1027
3 1335 1207 1870
3 1661 59 2266
3 727 729 1155
3 288 289 290
3 1058 776 1928
3 662 663 664
3 495 488 1884
3 1959 319 2522
3 943 851 944
3 1293 1291 1964
3 534 532 535
3 640 645 646
3 2280 1014 2385
3 286 287 288
3 591 575 592
3 521 519 529
3 13 14 2114
3 780 779 781
3 918 908 1850
3 837 836 838
3 209 148 1639
3 754 748 1896
3 745 746 747
3 769 671 770
3 929 1065 2197
3 1278 1058 1279
3 483 482 484
3 1564 1557 2030
3 633 807 1927
3 392 391 393
3 1057 1621 2161
3 569 580 581
3 284 285 286
3 876 992 1894
3 497 494 498
3 1630 1635 2041
3 982 1148 1918
3 612 611 613
3 700 634 1044
3 822 674 2099
3 880 1129 1929
3 432 439 654
3 1039 1291 1292
3 1164 1686 1989
3 1129 1025 1317
3 738 845 846
3 582 583 629
3 278 6 279
3 544 568 569
3 1701 1274 1931
3 747 749 751
3 1085 953 1308
3 928 930 1070
3 747 748 749
3 1421 1422 2415
3 902 903 904
3 1309 1308 1543
3 642 641 643
3 904 981 1792
3 646 784 785
3 536 543 544
3 1204 1205 1207
3 365 694 958
3 71 72 217
3 88 89 1901
3 87 88 193
3 101 102 189
3 85 86 242
3 99 100 241
3 74 75 192
3 91 92 219
3 94 95 191
3 83 84 220
3 97 98 221
3 77 78 218
3 80 81 194
3 89 90 245
3 62 63 244
3 60 61 188
3 64 65 223
3 67 68 190
3 90 91 1909
3 98 99 1905
3 61 62 1908
3 69 70 243
3 68 69 1907
3 70 71 1910
3 410 411 416
3 586 589 590
3 685 684 2029
3 390 389 391
3 1715 1150 1811
3 1924 1837 2215
3 282 283 284
3 496 497 1929
3 233 1671 1769
3 627 2185 2442
3 1567 1552 2062
3 629 630 812
3 424 453 454
3 583 562 1942
3 749 750 805
3 744 743 745
3 1897 535 1898
3 467 480 481
3 504 759 880
3 670 643 671
3 89 245 1901
3 193 88 1901
3 221 98 1905
3 245 90 1909
3 91 219 1909
3 62 244 1908
3 188 61 1908
3 99 241 1905
3 190 68 1907
3 71 217 1910
3 69 243 1907
3 243 70 1910
3 505 499 506
3 475 513 514
3 1945 1044 2071
3 1712 2125 2353
3 339 343 440
3 989 1360 1361
3 764 869 1152
3 778 777 779
3 1686 1685 1687
3 742 741 743
3 979 989 1886
3 729 731 1887
3 926 927 928
3 1305 1306 1307
3 1838 1278 2292
3 747 746 748
3 181 182 1652
3 1886 1361 2305
3 1595 1594 2486
3 597 596 598
3 928 1288 1920
3 1970 824 2156
3 1425 1424 1426
3 497 504 1929
3 748 746 1896
3 745 747 1900
3 998 858 1171
3 563 547 564
3 1155 729 1887
3 634 583 1942
3 1439 1173 1440
3 1026 1027 1086
3 79 80 1904
3 1533 1532 1536
3 1449 1426 1513
3 1106 609 1936
3 1318 1013 1319
3 1098 695 1828
3 492 494 496
3 750 748 754
3 731 738 1887
3 2415 1422 2516
3 533 562 582
3 988 1837 1924
3 1216 1215 1863
3 534 535 536
3 747 751 1900
3 1753 809 2119
3 1183 824 1970
3 740 495 741
3 80 194 1904
3 893 383 2087
3 655 605 1939
3 1884 2034 2082
3 1301 1857 1923
3 1307 1306 1708
3 752 745 1900
3 750 754 755
3 76 77 1903
3 2090 2347 2365
3 255 30 2159
3 132 254 2160
3 448 434 449
3 753 848 926
3 1075 1074 1327
3 487 488 495
3 377 381 647
3 483 484 485
3 755 754 2148
3 1584 1925 2277
3 1186 1183 1970
3 951 891 1281
3 485 484 486
3 546 527 547
3 133 134 1766
3 1786 1785 2409
3 280 281 282
3 460 449 461
3 744 745 752
3 77 218 1903
3 983 1918 2342
3 1708 1306 1810
3 1389 2069 2170
3 487 486 488
3 641 573 1954
3 507 518 519
3 502 461 503
3 519 518 1899
3 1202 1203 1204
3 821 897 1972
3 92 93 1902
3 521 529 530
3 749 748 750
3 2176 1380 2416
3 885 826 886
3 485 486 487
3 371 372 376
3 1289 1070 1871
3 1110 1657 1747
3 753 926 1943
3 700 1044 1944
3 880 881 1025
3 496 1845 2034
3 1072 1981 2393
3 462 464 2134
3 1949 1771 2359
3 1044 634 1942
3 550 584 1927
3 1390 1415 2118
3 526 503 527
3 990 845 1931
3 1009 1213 1214
3 740 742 1144
3 219 92 1902
3 727 1155 1899
3 369 370 371
3 623 690 2150
3 1279 1058 1928
3 1408 2235 2286
3 487 495 740
3 979 1886 2086
3 1305 1303 1306
3 421 412 1951
3 843 844 996
3 633 669 807
3 518 727 1899
3 826 825 1961
3 1657 1106 1936
3 1172 1012 1173
3 740 741 742
3 433 417 434
3 505 506 507
3 1333 1674 2437
3 742 743 744
3 469 458 470
3 1381 1380 1382
3 1293 1965 2515
3 1554 1559 2062
3 553 557 2499
3 1774 389 2339
3 497 498 499
3 483 485 576
3 740 1144 1935
3 773 735 834
3 366 367 369
3 1120 1118 1876
3 1515 1523 1574
3 1319 1013 2039
3 1303 1301 1923
3 457 447 458
3 561 593 594
3 1355 1424 1425
3 609 491 1936
3 204 1732 2137
3 791 1408 1642
3 995 944 1825
3 456 471 475
3 1692 1693 2239
3 580 1763 2164
3 1292 1293 2117
3 441 452 456
3 388 384 389
3 823 821 1972
3 504 880 1929
3 176 177 1680
3 1070 1071 1871
3 15 2260 2477
3 362 363 366
3 2178 2300 2449
3 1035 883 1036
3 2285 1563 2307
3 978 977 1074
3 1090 1102 2029
3 1810 1306 1923
3 496 494 497
3 1306 1303 1923
3 432 654 1915
3 934 933 935
3 356 355 365
3 398 403 404
3 635 701 843
3 1110 1106 1657
3 574 571 575
3 1025 881 1176
3 386 380 786
3 415 432 1915
3 343 347 1911
3 1070 930 1071
3 1688 1740 2231
3 1385 1216 1863
3 1696 1274 1701
3 1645 305 2317
3 880 759 881
3 926 848 927
3 1427 1423 2217
3 1339 1662 2388
3 770 774 775
3 1263 1257 1428
3 1337 1864 2412
3 349 348 355
3 2267 1721 2498
3 753 752 847
3 1375 1086 1473
3 900 982 983
3 332 335 739
3 429 428 430
3 744 752 753
3 1171 2132 2165
3 1425 1426 1449
3 987 641 1954
3 1883 1786 2409
3 427 426 428
3 928 927 930
3 1815 1105 2015
3 1206 1499 1941
3 410 406 411
3 573 540 1954
3 497 499 504
3 528 560 561
3 1933 1404 2399
3 1091 1089 1969
3 1804 1282 2073
3 504 505 759
3 963 924 1113
3 1711 1710 1712
3 881 759 1146
3 968 1199 1200
3 351 352 362
3 848 847 1026
3 521 530 531
3 1884 490 2034
3 1277 957 1966
3 1349 1350 2329
3 676 1043 2045
3 997 1159 1286
3 517 1889 1890
3 781 835 836
3 944 948 1283
3 722 1776 2026
3 507 519 520
3 2040 1352 2058
3 1276 957 1277
3 446 437 447
3 931 860 977
3 361 359 765
3 1248 1536 2534
3 512 523 528
3 408 412 413
3 1368 1369 1370
3 451 2169 2223
3 192 75 1994
3 942 756 2026
3 345 344 348
3 764 1152 1963
3 413 418 419
3 1286 1773 1774
3 770 671 774
3 275 549 2124
3 1497 1645 2461
3 1982 1472 2272
3 422 435 441
3 281 279 736
3 1134 270 1135
3 582 562 583
3 1421 2415 2454
3 485 487 1935
3 2300 1067 2480
3 1578 1576 1827
3 930 927 1061
3 1026 1086 1375
3 922 2259 2379
3 1391 1120 1876
3 1495 1494 2493
3 404 407 408
3 879 2178 2449
3 1700 1698 2036
3 607 1517 1520
3 753 847 848
3 416 411 417
3 1144 742 1943
3 775 776 777
3 754 2108 2148
3 1006 1421 1953
3 585 581 586
3 531 530 532
3 235 1709 1888
3 520 519 521
3 1180 1181 1349
3 1146 759 1967
3 708 710 1921
3 1350 2253 2329
3 436 430 437
3 504 499 505
3 643 641 987
3 336 330 517
3 811 1059 1149
3 1164 1411 1685
3 846 933 934
3 635 843 1960
3 983 982 1918
3 971 872 1096
3 1149 1163 1164
3 169 237 1724
3 1314 1315 1316
3 629 583 630
3 891 812 1916
3 462 463 464
3 487 740 1935
3 798 2084 2189
3 1814 1838 2292
3 1284 1489 1491
3 340 336 2014
3 1670 1461 2200
3 920 782 2057
3 890 2241 2275
3 510 511 512
3 278 279 280
3 839 802 840
3 1858 235 1888
3 1698 1696 2036
3 104 105 222
3 57 58 224
3 1185 1183 1186
3 588 587 623
3 638 600 1988
3 1282 1386 2245
3 811 776 1058
3 816 815 876
3 2034 1845 2082
3 761 636 1741
3 566 565 587
3 174 175 1725
3 347 350 351
3 1469 1495 1496
3 1059 1058 1278
3 811 1149 1976
3 576 485 1935
3 659 658 660
3 859 1153 1962
3 76 1903 1994
3 1821 1109 2426
3 1294 1038 1622
3 733 1833 2075
3 992 993 1980
3 1566 1561 2285
3 525 474 2041
3 464 465 510
3 343 346 347
3 360 893 1982
3 650 649 651
3 896 608 936
3 950 1006 1007
3 1508 1859 1860
3 539 538 565
3 440 343 1911
3 341 340 344
3 221 1905 1906
3 1297 1823 2142
3 759 505 1967
3 1295 1053 1296
3 473 470 474
3 1463 1465 1466
3 1143 1206 2028
3 799 685 800
3 1210 2077 2203
3 509 508 538
3 492 496 2034
3 1553 1551 2030
3 1260 1261 1269
3 1430 1040 1703
3 586 590 1940
3 838 836 868
3 1705 624 2276
3 1749 972 2501
3 742 744 1943
3 804 962 1981
3 1367 1368 2254
3 531 532 533
3 337 336 340
3 1157 1094 1544
3 536 544 1158
3 812 630 1960
3 781 779 835
3 56 57 1947
3 630 583 634
3 1405 1404 1932
3 1281 891 1916
3 339 342 343
3 1411 1163 1730
3 322 323 324
3 344 340 2091
3 1735 1734 1736
3 75 76 1994
3 430 682 2494
3 1907 243 2360
3 589 581 2164
3 694 355 2196
3 744 753 1943
3 775 774 776
3 1210 1430 2077
3 335 338 339
3 1102 1803 2029
3 1078 937 1079
3 870 655 1939
3 505 507 1967
3 357 360 1982
3 1896 1878 2101
3 326 325 328
3 934 935 957
3 585 608 895
3 333 330 336
3 1270 1272 1524
3 688 817 878
3 507 520 1967
3 1428 1257 2074
3 1818 1817 2000
3 896 937 1077
3 934 957 1111
3 329 328 330
3 1499 995 1825
3 944 851 948
3 387 445 462
3 1678 1161 2228
3 777 776 811
3 313 311 757
3 324 331 332
3 848 1026 1955
3 1312 998 1811
3 1321 1322 2037
3 1080 1079 1121
3 1105 1355 2015
3 1645 2317 2461
3 1559 1568 2062
3 332 334 335
3 501 500 508
3 321 325 326
3 394 395 397
3 322 320 323
3 1529 1530 2171
3 1137 797 1138
3 811 1058 1059
3 661 660 662
3 569 581 585
3 183 4 2303
3 5 160 2304
3 1340 1138 1341
3 1660 1626 2185
3 1743 1464 2347
3 1026 1375 1955
3 1149 1059 1163
3 1736 1625 2194
3 1322 1667 2434
3 311 309 1959
3 309 307 319
3 894 700 1944
3 533 534 562
3 1276 1277 1366
3 2190 1706 2408
3 533 532 534
3 1214 1213 1410
3 1164 1163 1411
3 843 701 844
3 1009 1214 2055
3 234 1589 1788
3 2000 1817 2174
3 317 321 2050
3 328 325 945
3 392 393 394
3 588 623 2089
3 1162 958 1681
3 1078 1080 1136
3 927 848 1955
3 1496 1497 1498
3 390 391 392
3 1061 927 1955
3 1283 948 1284
3 635 634 700
3 1244 1251 1252
3 218 78 2093
3 756 722 2026
3 1071 1784 2419
3 1218 1505 2185
3 1284 948 1285
3 1489 1285 1490
3 918 1850 1851
3 684 1090 2029
3 1759 572 2537
3 1691 1690 2446
3 1979 1158 2071
3 606 649 650
3 2045 1043 2046
3 103 104 2025
3 630 634 635
3 360 383 893
3 406 386 2043
3 1909 219 2023
3 1111 957 1276
3 1925 1437 2277
3 1536 2268 2340
3 854 852 1133
3 233 153 1671
3 651 658 659
3 2099 1787 2368
3 1033 1032 1130
3 1015 1372 1373
3 1412 942 2026
3 253 264 1441
3 1531 1534 2332
3 701 700 894
3 106 107 1990
3 2048 1961 2455
3 276 274 2099
3 738 846 1968
3 1325 925 1326
3 896 936 937
3 585 586 608
3 1450 854 1973
3 1361 1360 1362
3 1045 1668 2512
3 303 301 444
3 996 844 997
3 79 1904 2093
3 1989 1686 2095
3 1928 774 2033
3 1942 562 1979
3 287 285 316
3 935 950 1966
3 1466 1467 1468
3 1242 1243 1244
3 1887 738 1968
3 2115 210 2477
3 878 929 1083
3 1326 1736 2194
3 886 888 1014
3 895 608 896
3 289 287 1978
3 821 822 897
3 936 608 1940
3 613 614 615
3 51 52 1996
3 417 411 1160
3 1149 1164 1989
3 386 786 2043
3 285 283 1971
3 1309 1543 2147
3 375 373 2053
3 371 370 372
3 779 777 1976
3 1286 1159 1773
3 2177 887 2376
3 1560 1557 1564
3 1403 1882 2399
3 1727 1757 2246
3 279 6 2049
3 1619 1438 2438
3 291 289 758
3 1781 1915 2294
3 425 401 426
3 349 355 356
3 66 67 2118
3 474 548 2041
3 1686 1687 2007
3 1262 1456 1457
3 1123 942 1412
3 1916 812 1960
3 1355 1425 2015
3 735 733 2075
3 1861 879 2449
3 1284 1285 1489
3 490 492 2034
3 366 363 367
3 980 578 2051
3 906 904 1792
3 534 536 1979
3 842 924 963
3 2051 578 2083
3 1077 937 1078
3 1102 1104 1803
3 894 1944 1946
3 398 404 2060
3 1007 1006 1953
3 369 367 370
3 348 354 2196
3 1078 1079 1080
3 1378 1380 1381
3 1568 1365 2439
3 608 586 1940
3 598 610 611
3 760 636 761
3 869 1137 1351
3 671 643 2033
3 1661 1345 2267
3 938 914 1057
3 783 761 914
3 576 1835 2144
3 388 389 390
3 297 295 318
3 454 453 500
3 1906 1728 2246
3 1439 1440 2468
3 1159 1013 1318
3 764 797 869
3 236 143 1717
3 782 644 2057
3 592 595 596
3 1542 2332 2443
3 1521 1311 2147
3 345 348 349
3 1304 1452 2205
3 1644 1907 2360
3 2146 1125 2149
3 997 844 1013
3 628 375 2053
3 299 297 1984
3 957 935 1966
3 664 685 799
3 301 299 1975
3 362 352 363
3 777 811 1976
3 1942 1979 2071
3 1001 920 2057
3 312 314 768
3 1552 1554 2062
3 615 616 617
3 357 1982 2076
3 800 802 839
3 774 671 2033
3 1749 1169 2105
3 365 958 1162
3 617 618 619
3 283 281 1938
3 1351 1772 2414
3 1525 1765 2489
3 846 934 1968
3 635 700 701
3 555 554 577
3 536 1158 1979
3 1101 1404 1405
3 630 635 1960
3 1811 1150 2089
3 2113 1666 2249
3 172 173 1847
3 107 108 195
3 54 55 196
3 1191 1768 2023
3 1455 1302 2205
3 115 116 2017
3 1387 1333 2437
3 659 661 764
3 1080 1121 1188
3 50 51 2011
3 411 406 2043
3 295 293 1983
3 643 987 2033
3 707 706 708
3 129 130 261
3 32 33 260
3 2159 260 2265
3 449 434 567
3 1314 1029 1315
3 917 796 940
3 378 375 628
3 108 109 1991
3 2370 1759 2537
3 341 344 345
3 997 1013 1159
3 544 569 1993
3 950 1007 1966
3 477 474 525
3 351 350 352
3 1696 1701 2036
3 334 331 803
3 1137 1138 1340
3 562 534 1979
3 109 110 246
3 52 53 247
3 1368 1316 1369
3 659 660 661
3 33 34 2002
3 123 124 2005
3 835 779 1976
3 851 838 1992
3 1530 1533 2172
3 1668 1045 2348
3 1162 1681 1706
3 342 338 468
3 298 300 358
3 765 359 2065
3 725 826 885
3 35 36 2003
3 46 47 2019
3 38 39 2006
3 336 517 2014
3 934 1111 1968
3 116 117 2018
3 650 651 1963
3 223 1711 2162
3 640 594 645
3 1333 1330 2192
3 104 222 2025
3 1603 922 2379
3 963 1113 1115
3 2084 1193 2189
3 564 570 571
3 36 37 2004
3 57 224 1947
3 1542 1601 2269
3 122 123 2012
3 1000 920 1001
3 127 128 240
3 34 35 239
3 383 387 2087
3 1161 1107 2228
3 1781 2294 2419
3 1201 1200 1202
3 124 125 225
3 37 38 226
3 1340 1341 1342
3 869 797 1137
3 839 840 1008
3 1158 544 1993
3 1326 925 1894
3 352 350 353
3 326 329 954
3 1864 2344 2412
3 836 835 2095
3 1051 1053 1295
3 1031 720 1032
3 503 461 787
3 1407 1112 2044
3 661 662 2058
3 838 868 1992
3 112 113 197
3 49 50 198
3 1359 980 1413
3 121 122 211
3 40 41 212
3 48 49 2010
3 113 114 2009
3 1741 673 2131
3 41 42 2020
3 120 121 2013
3 1409 2035 2097
3 1511 1374 2506
3 114 115 248
3 47 48 249
3 42 43 250
3 119 120 251
3 171 6 201
3 6 172 203
3 585 895 1993
3 43 44 2024
3 118 119 2021
3 905 904 906
3 764 661 797
3 337 340 341
3 1413 980 2051
3 117 118 205
3 44 45 206
3 347 346 350
3 1420 1076 1525
3 324 323 331
3 434 417 2031
3 965 967 969
3 716 719 788
3 1260 1254 1261
3 2053 373 2103
3 2069 2068 2170
3 326 328 329
3 1706 996 2408
3 273 275 2124
3 969 1011 1012
3 590 606 2001
3 1718 1611 2280
3 1914 1940 2001
3 915 1884 2082
3 329 330 333
3 620 859 955
3 2168 1409 2305
3 296 298 1997
3 915 2082 2101
3 339 338 342
3 1218 994 1505
3 333 336 337
3 266 263 1742
3 1873 768 2127
3 244 63 2162
3 64 223 2162
3 343 342 346
3 914 761 2258
3 310 312 1987
3 799 800 2055
3 302 304 763
3 1559 1566 1568
3 1598 1343 2114
3 592 575 595
3 341 345 794
3 189 1842 2220
3 767 815 816
3 1003 912 1004
3 839 1008 1009
3 1263 1428 1429
3 564 547 570
3 1845 1334 2082
3 332 331 334
3 901 866 902
3 651 659 1963
3 1009 1112 1213
3 335 334 338
3 569 585 1993
3 1665 1336 2299
3 1945 2071 2153
3 863 862 864
3 907 906 908
3 1849 1486 1930
3 1935 1144 2080
3 967 966 968
3 809 900 2119
3 865 864 866
3 835 1989 2095
3 190 1907 2417
3 333 337 522
3 1110 1748 2228
3 1193 1194 1195
3 94 191 2166
3 473 1854 2453
3 1769 1134 2369
3 948 851 1992
3 237 170 2216
3 420 419 422
3 1448 1447 2364
3 483 576 2144
3 721 1919 2032
3 885 886 1891
3 613 611 614
3 886 1014 1891
3 1160 411 2043
3 1918 1283 2342
3 1651 206 2485
3 1242 1240 1243
3 598 596 610
3 1295 1296 1459
3 1185 1186 1948
3 1425 1449 2070
3 294 296 762
3 1285 948 1992
3 925 876 1894
3 712 714 789
3 603 1668 2398
3 1940 590 2001
3 721 570 964
3 834 735 2075
3 1144 1920 2080
3 2263 1635 2511
3 1204 1207 1335
3 2235 1408 2378
3 965 964 966
3 1990 1435 2218
3 397 398 2060
3 1138 797 2058
3 1787 1141 2368
3 2068 820 2170
3 360 359 361
3 387 462 2087
3 1524 1272 1934
3 819 698 820
3 1197 1196 1198
3 1662 2126 2388
3 78 79 2093
3 1150 588 2089
3 1269 1261 1270
3 1878 915 2101
3 451 467 2169
3 2262 1387 2437
3 1009 1008 1112
3 757 311 1959
3 897 898 1139
3 1854 473 2483
3 2015 1425 2070
3 2082 1334 2101
3 963 1115 1174
3 1047 1049 1287
3 1194 423 1196
3 321 326 2050
3 417 1160 2031
3 854 1133 1973
3 1201 1212 1348
3 705 1586 2163
3 309 319 1959
3 1353 1390 2417
3 427 428 429
3 357 356 359
3 606 650 2001
3 549 1280 2124
3 1213 1112 1407
3 256 2303 2535
3 356 365 2065
3 662 664 2040
3 701 894 2039
3 1325 1371 2451
3 666 626 667
3 1902 93 2166
3 1236 1234 1246
3 800 839 2055
3 1869 1812 2252
3 1197 1364 1365
3 576 1935 2080
3 404 408 798
3 1678 807 2529
3 1560 1564 2016
3 1319 2039 2122
3 425 426 427
3 349 356 357
3 308 310 327
3 1716 622 2484
3 1801 82 2289
3 1768 1949 2420
3 2006 1926 2507
3 351 364 2407
3 420 423 1193
3 659 764 1963
3 292 294 2038
3 840 842 2027
3 736 279 2049
3 372 373 374
3 461 449 2052
3 2189 1195 2285
3 1174 1115 1398
3 367 363 961
3 909 908 918
3 1738 247 2402
3 1007 1761 2308
3 288 290 2135
3 422 441 2035
3 623 624 690
3 537 525 545
3 1953 1421 2454
3 1887 1968 2123
3 861 691 862
3 654 439 2223
3 1136 1080 2054
3 1312 1811 2089
3 575 571 2032
3 383 361 384
3 968 1200 1201
3 797 661 2058
3 1423 1354 2381
3 1180 1178 1181
3 1513 1515 2180
3 72 73 2217
3 462 445 463
3 12 13 2136
3 457 458 469
3 542 554 555
3 599 636 760
3 254 133 1766
3 1130 1397 1937
3 404 798 2060
3 1044 1942 2071
3 690 691 860
3 357 359 360
3 1008 2027 2152
3 1232 1230 1255
3 372 370 373
3 850 943 2125
3 1457 1456 1492
3 1952 324 2282
3 155 2 2356
3 0 7 2357
3 2017 1379 2288
3 918 1851 2008
3 195 1991 2517
3 2090 803 2347
3 1244 1243 1251
3 290 292 368
3 1432 1082 2214
3 1008 840 2027
3 1743 803 2296
3 1013 844 2039
3 365 1162 2065
3 1594 1315 2184
3 387 384 388
3 1508 1860 2311
3 547 527 2056
3 2005 225 2322
3 314 317 2127
3 1853 556 2327
3 201 6 278
3 1907 1644 2417
3 1896 2101 2108
3 646 645 784
3 538 508 558
3 374 375 377
3 1630 1634 1635
3 1579 1999 2352
3 1647 1648 1849
3 1313 1314 2121
3 1179 1433 2042
3 844 701 2039
3 1252 1251 2098
3 816 876 925
3 1922 1228 2281
3 392 394 396
3 1915 654 2294
3 1652 1653 2487
3 429 430 436
3 456 475 476
3 1605 1392 2510
3 126 1882 2284
3 1784 1780 2419
3 500 453 960
3 377 378 381
3 2178 1587 2300
3 1222 1219 1626
3 413 419 420
3 381 382 400
3 2169 1836 2223
3 1906 1905 2129
3 616 614 793
3 1170 1419 2139
3 101 189 2220
3 241 100 2220
3 1968 1111 2123
3 567 434 2031
3 615 614 616
3 1032 720 1921
3 682 428 2138
3 469 470 473
3 339 440 2261
3 1501 238 2226
3 1154 1431 1653
3 446 447 457
3 1251 1243 1257
3 2229 315 2495
3 1201 1202 1212
3 785 784 879
3 464 463 465
3 66 2118 2395
3 324 332 2282
3 286 288 771
3 17 199 2081
3 571 570 721
3 611 610 2092
3 617 616 618
3 1542 1531 2332
3 400 401 424
3 1325 1326 1371
3 1140 1406 1702
3 1323 443 2302
3 1926 1573 2507
3 436 437 446
3 1262 1457 2098
3 67 190 2118
3 1518 1861 2449
3 989 1359 1360
3 1063 1082 1154
3 1757 96 2526
3 969 967 1011
3 868 836 2095
3 1215 1035 2235
3 96 1757 2309
3 261 2160 2380
3 1381 1382 2126
3 1468 1469 2182
3 1334 1317 2108
3 861 863 1064
3 1270 1261 1271
3 360 361 383
3 287 316 1978
3 1856 192 2367
3 1905 241 2129
3 1615 1809 2425
3 528 523 560
3 979 980 989
3 662 2040 2058
3 721 964 965
3 170 171 2216
3 664 799 2040
3 512 511 523
3 1201 1348 2107
3 620 618 858
3 758 289 1978
3 859 858 998
3 424 425 453
3 1616 1615 2193
3 444 301 1975
3 561 560 593
3 965 966 967
3 1798 376 2430
3 340 2014 2091
3 510 465 511
3 107 195 1990
3 1080 1188 2054
3 1153 998 1312
3 1226 1224 1249
3 1012 1011 1363
3 902 904 905
3 842 963 2027
3 268 270 1134
3 865 901 1125
3 2077 558 2102
3 282 284 442
3 1977 1679 2253
3 1496 1498 2047
3 284 286 2063
3 281 736 1938
3 2132 793 2165
3 1674 215 2437
3 2078 1855 2411
3 839 1009 2055
3 1182 824 1183
3 1168 947 1169
3 1289 1871 2242
3 316 285 1971
3 1270 1271 1272
3 1755 1793 2264
3 51 1996 2011
3 383 384 387
3 1146 1924 2215
3 1279 1928 2202
3 619 618 620
3 1194 1196 1197
3 555 578 979
3 1937 1639 2528
3 1262 1257 1263
3 389 384 2339
3 2251 1338 2464
3 1155 1887 2123
3 1151 1937 2528
3 465 463 828
3 1318 1319 2116
3 1687 1688 2231
3 326 954 2050
3 297 318 1984
3 1308 953 2255
3 1846 2056 2198
3 320 315 2229
3 1254 1252 2059
3 760 761 783
3 951 1281 2255
3 1459 1296 2094
3 2288 1638 2470
3 1975 299 1984
3 52 247 1996
3 468 338 2090
3 2140 1511 2506
3 1125 1126 1192
3 593 824 1182
3 720 708 1921
3 704 706 707
3 623 587 624
3 2044 1112 2152
3 1393 1169 1749
3 900 983 2119
3 783 914 938
3 255 2265 2489
3 2039 894 2122
3 317 2050 2127
3 1866 1867 2513
3 374 373 375
3 429 436 455
3 387 388 445
3 1193 423 1194
3 555 577 578
3 1074 977 1187
3 449 567 2052
3 1197 1198 1364
3 2154 1595 2486
3 1486 1849 2173
3 318 295 1983
3 939 1016 1844
3 131 132 2160
3 30 31 2159
3 881 1146 2215
3 1294 1868 2238
3 1300 1455 2314
3 1365 1364 1912
3 783 938 939
3 2061 1735 2441
3 551 545 601
3 2194 216 2536
3 1251 1257 1262
3 888 887 2177
3 1364 1198 2048
3 1498 1682 2340
3 1589 1590 2501
3 60 188 2266
3 1401 1913 2324
3 195 108 1991
3 420 422 423
3 1675 1470 2474
3 258 1673 2183
3 2161 1619 2438
3 1296 1472 2094
3 1808 1910 2381
3 334 803 2090
3 1490 1285 2232
3 523 511 524
3 1240 1238 2074
3 1184 1183 1185
3 39 40 2151
3 473 474 477
3 1461 1463 2200
3 2072 353 2073
3 861 862 863
3 1206 1941 2401
3 958 1575 2287
3 614 611 2092
3 110 111 2140
3 1136 2054 2110
3 645 594 2133
3 260 33 2002
3 673 767 2131
3 989 980 1359
3 1741 2131 2258
3 1317 1875 2148
3 894 1946 2122
3 863 864 865
3 787 461 2052
3 857 2277 2386
3 109 246 1991
3 2017 116 2018
3 1182 1183 1184
3 377 375 378
3 816 925 1324
3 865 866 901
3 1262 1263 1456
3 359 356 2065
3 2129 241 2472
3 283 1938 1971
3 1458 1210 2203
3 1076 1003 2145
3 196 1738 2402
3 1033 1130 1151
3 1188 1121 2106
3 1140 1702 2096
3 549 687 1280
3 1694 1621 2191
3 861 1064 2112
3 1548 1549 2129
3 1784 1071 2462
3 714 716 2066
3 1961 825 2455
3 1447 1211 2250
3 979 578 980
3 905 907 1209
3 381 378 382
3 457 469 552
3 595 575 2032
3 408 413 2084
3 481 483 2144
3 1745 1349 2293
3 1980 1405 2441
3 198 50 2011
3 248 115 2017
3 912 819 2068
3 620 858 859
3 707 708 720
3 821 674 822
3 514 542 2086
3 400 382 401
3 123 2005 2012
3 1772 1351 2374
3 34 239 2002
3 768 314 2127
3 2003 36 2004
3 280 282 2079
3 124 225 2005
3 596 595 2130
3 593 560 824
3 1504 1502 2519
3 239 35 2003
3 1311 1309 2147
3 1318 1877 2240
3 1860 1432 2311
3 1416 1715 2330
3 859 998 1153
3 352 353 2072
3 312 768 1987
3 2027 1174 2152
3 226 38 2006
3 1827 1024 2117
3 1710 1391 2295
3 690 624 691
3 37 226 2004
3 1153 1312 1885
3 853 855 2186
3 1892 242 2373
3 1967 520 2174
3 939 938 1016
3 47 249 2019
3 388 390 2078
3 1991 2139 2517
3 905 906 907
3 571 721 2032
3 1196 423 2035
3 1324 925 1325
3 1151 1130 1937
3 363 352 2072
3 345 349 2076
3 1031 1032 1033
3 214 179 1859
3 211 122 2012
3 602 601 652
3 117 205 2018
3 710 712 2067
3 1602 187 2357
3 520 2000 2174
3 85 242 2335
3 220 84 2335
3 381 400 2113
3 1586 1587 2435
3 424 401 425
3 963 1174 2027
3 860 691 861
3 610 596 2130
3 1958 2078 2431
3 570 547 2056
3 237 2216 2354
3 1211 1692 2219
3 298 358 1997
3 909 947 1041
3 441 456 2097
3 1135 1647 1849
3 1601 1542 2443
3 197 113 2009
3 49 198 2010
3 1911 347 2407
3 1729 191 2309
3 212 41 2020
3 121 211 2013
3 222 105 2218
3 1125 901 1126
3 114 248 2009
3 249 48 2010
3 42 250 2020
3 251 120 2013
3 233 1769 2369
3 1870 647 2113
3 794 345 2076
3 250 43 2024
3 119 251 2021
3 901 902 2141
3 964 570 2056
3 739 335 2261
3 2108 1317 2148
3 577 599 2083
3 205 118 2021
3 44 206 2024
3 1247 1241 2323
3 1894 992 2244
3 6 203 2049
3 1642 1678 2529
3 1417 1873 2333
3 1422 2023 2516
3 341 794 2100
3 73 74 2361
3 1234 1232 2088
3 1261 1254 2059
3 896 1077 2257
3 1921 710 2067
3 125 126 2284
3 220 1699 2289
3 159 5 2304
3 4 184 2303
3 2059 1252 2098
3 1003 1004 2145
3 2328 1325 2451
3 1486 227 1500
3 63 64 2162
3 2081 1192 2260
3 508 500 2102
3 667 1872 2318
3 338 334 2090
3 423 422 2035
3 1192 1126 1471
3 907 908 909
3 1330 1328 2192
3 1972 897 2500
3 2443 316 2514
3 242 86 2373
3 87 193 2373
3 420 1193 2084
3 1473 1086 2358
3 1987 768 2037
3 522 337 2100
3 627 1660 2185
3 1793 446 2264
3 1405 2061 2441
3 1502 1217 2302
3 171 201 2216
3 1158 1993 2153
3 1197 1365 2120
3 1712 1710 2295
3 1121 1401 2414
3 93 94 2166
3 653 652 688
3 622 1716 2452
3 1345 1720 2267
3 477 537 556
3 128 129 2181
3 2331 1295 2458
3 784 645 874
3 1269 1270 2199
3 189 102 2355
3 1041 1168 1343
3 246 110 2140
3 477 525 537
3 755 1895 2371
3 1947 1723 2313
3 1134 1135 2369
3 223 65 2395
3 968 1201 2107
3 1577 1578 2325
3 210 15 2477
3 961 363 2072
3 1581 1579 2352
3 349 357 2076
3 337 341 2100
3 305 303 2317
3 370 367 2103
3 762 296 1997
3 581 580 2164
3 1278 1838 2372
3 1548 2129 2472
3 594 593 2133
3 2021 251 2022
3 2047 1247 2182
3 967 968 2107
3 1169 947 2008
3 481 2144 2169
3 793 614 2092
3 1910 217 2381
3 1251 1262 2098
3 716 788 2066
3 2101 1334 2108
3 2006 39 2151
3 1603 2379 2508
3 1926 2006 2151
3 96 97 2526
3 750 755 2371
3 789 714 2066
3 909 918 947
3 1993 895 2153
3 106 1990 2218
3 1243 1240 2074
3 832 986 1189
3 1283 1284 2342
3 2297 195 2517
3 1043 829 2326
3 767 816 2131
3 602 653 676
3 1004 912 2068
3 2086 1886 2224
3 1124 2177 2467
3 426 401 2531
3 707 720 1030
3 1000 1001 2184
3 1315 1029 2184
3 467 481 2169
3 541 513 2256
3 647 381 2113
3 225 2284 2510
3 2 156 2356
3 187 0 2357
3 40 212 2151
3 2245 1386 2383
3 676 677 829
3 1004 2068 2069
3 1860 232 2487
3 1031 1033 1034
3 829 830 972
3 996 997 2408
3 1195 1194 2120
3 987 1869 2202
3 1410 1213 2222
3 819 820 2068
3 1485 1486 2173
3 1564 2030 2155
3 807 669 2529
3 129 261 2181
3 1525 1076 2145
3 578 577 2083
3 327 310 1987
3 1083 929 2197
3 2131 1324 2258
3 798 408 2084
3 1838 696 2426
3 1486 1500 1930
3 1946 1944 2291
3 2257 1077 2291
3 1512 1661 2266
3 445 388 2078
3 1192 1471 2260
3 2118 1415 2395
3 1466 1468 2158
3 830 677 831
3 211 2012 2251
3 652 601 2442
3 537 545 551
3 558 508 2102
3 198 2011 2128
3 1718 2280 2385
3 500 960 2102
3 1168 1169 1393
3 1127 971 2496
3 95 96 2309
3 2030 1565 2155
3 1919 1172 2273
3 977 860 2112
3 240 128 2181
3 294 762 2038
3 1800 1799 2195
3 712 789 2067
3 972 1749 2326
3 472 1683 2212
3 874 645 2133
3 551 2045 2201
3 2105 1043 2326
3 1957 1212 2301
3 1514 1856 2367
3 565 538 2167
3 373 370 2103
3 355 348 2196
3 1934 1272 2138
3 1934 426 2531
3 1881 1400 2481
3 2046 1851 2327
3 367 961 2103
3 1963 1152 2206
3 201 278 443
3 3 131 2444
3 31 1 2445
3 2035 441 2097
3 503 787 2198
3 1135 1849 1930
3 1534 1983 2306
3 2089 623 2150
3 687 704 2109
3 869 1351 2363
3 1302 1304 2205
3 955 1716 2484
3 1030 720 1031
3 1159 1318 2240
3 1228 1226 2281
3 947 918 2008
3 413 420 2084
3 785 879 2532
3 1041 947 1168
3 1468 2182 2323
3 1246 1234 2088
3 1730 1163 2372
3 542 555 2086
3 1599 631 2312
3 1146 1967 2174
3 1078 1136 2343
3 1515 1574 2180
3 2336 885 2469
3 1257 1243 2074
3 1347 1346 2279
3 2001 650 2206
3 1480 1601 2514
3 1029 1000 2184
3 1956 788 2336
3 1271 1261 2059
3 130 3 2444
3 1 32 2445
3 1570 1507 2197
3 1232 1255 2088
3 791 1642 2529
3 1601 1479 2269
3 1361 1362 2168
3 1634 1922 2281
3 765 2065 2190
3 2071 1158 2153
3 1699 1801 2289
3 832 831 833
3 1864 346 2344
3 456 476 2097
3 1855 828 2411
3 2065 1162 2190
3 1125 1192 2149
3 599 760 2083
3 361 765 2339
3 1731 2123 2241
3 1349 1181 1350
3 1443 1275 2251
3 1819 524 2429
3 1021 1045 2512
3 858 618 2132
3 1999 358 2338
3 368 292 2038
3 290 368 2135
3 803 331 2296
3 1112 1008 2152
3 56 1947 2313
3 555 979 2086
3 1469 1496 2182
3 1011 967 2107
3 248 2017 2288
3 1809 789 2425
3 960 453 2221
3 538 558 2167
3 1858 1187 2248
3 2246 1757 2526
3 902 905 2141
3 1851 1853 2327
3 1224 1222 2111
3 771 288 2135
3 1945 2153 2257
3 1420 1525 2489
3 1399 1123 2393
3 103 2025 2355
3 897 822 898
3 1861 940 2532
3 865 1125 2146
3 1675 2474 2522
3 1573 2157 2507
3 1632 1631 2382
3 551 601 602
3 527 503 2198
3 1708 805 2337
3 1059 1278 2372
3 2056 527 2198
3 860 861 2112
3 1668 2348 2398
3 255 2159 2265
3 1541 1542 2269
3 1428 2074 2227
3 1582 1583 2321
3 389 1774 2503
3 2004 226 2157
3 1777 397 2405
3 1368 1436 2254
3 1061 2409 2462
3 1071 930 2462
3 1126 901 2141
3 1194 1197 2120
3 1452 1952 2282
3 2116 1319 2482
3 105 106 2218
3 1981 1399 2393
3 2119 983 2143
3 444 1682 2461
3 2173 1648 2463
3 616 793 2132
3 1791 1190 2334
3 1826 1728 2259
3 602 652 653
3 1834 1292 2428
3 556 2201 2327
3 1014 1015 2385
3 1995 1287 2331
3 1193 1195 2189
3 816 1324 2131
3 879 1861 2532
3 593 1182 2133
3 1402 266 1742
3 2216 1323 2354
3 1660 1636 2502
3 620 955 2484
3 1162 1706 2190
3 1870 2113 2249
3 204 1680 1732
3 1909 2023 2420
3 217 72 2217
3 376 372 2430
3 905 1209 2141
3 1378 1381 2283
3 1236 1246 2227
3 286 771 2063
3 1635 2263 2502
3 100 101 2220
3 1139 898 1140
3 2114 1343 2136
3 442 284 2063
3 1772 2106 2414
3 1985 1755 2533
3 2192 1328 2315
3 1064 863 2146
3 1631 1637 2459
3 736 2049 2523
3 221 1906 2246
3 318 1983 2171
3 1496 2047 2182
3 1374 2139 2506
3 196 55 2313
3 2087 462 2134
3 676 653 677
3 2304 257 2491
3 1401 2324 2363
3 829 677 830
3 654 2223 2242
3 1187 977 2112
3 1463 1466 2200
3 2023 219 2516
3 1176 881 2215
3 513 471 2290
3 1812 459 2252
3 1386 1269 2199
3 291 758 2306
3 618 616 2132
3 278 280 2210
3 83 220 2289
3 82 83 2289
3 938 1057 2161
3 1189 986 1190
3 788 719 2336
3 1914 2001 2206
3 232 181 1652
3 1567 2062 2490
3 313 757 2495
3 622 619 2484
3 688 878 1320
3 1222 1626 2111
3 282 442 2079
3 1169 2008 2105
3 1966 1007 2308
3 2040 799 2237
3 1744 2229 2495
3 986 833 1063
3 2284 1605 2510
3 887 1961 2376
3 215 1624 2262
3 830 831 832
3 476 475 2224
3 439 451 2223
3 1932 1933 2380
3 2227 1246 2366
3 1212 1202 2301
3 1107 1110 2228
3 249 2010 2299
3 1983 293 2306
3 2055 1214 2237
3 1438 1372 2478
3 824 560 2156
3 2320 1866 2513
3 1351 1137 2374
3 868 2007 2232
3 2063 771 2064
3 1507 214 1508
3 1728 1727 2246
3 1045 1047 2348
3 1139 1140 2096
3 1648 1649 2463
3 1502 2302 2519
3 704 707 2109
3 2343 1136 2396
3 650 1963 2206
3 2153 895 2257
3 396 1958 2431
3 1379 1377 2288
3 2115 1471 2319
3 2033 987 2202
3 2239 1693 2518
3 2025 1488 2355
3 1209 2115 2319
3 523 524 2156
3 783 939 2243
3 376 1798 2497
3 2066 788 2193
3 1984 318 2172
3 425 427 2221
3 203 172 1847
3 446 457 2264
3 1312 2089 2150
3 2138 1272 2211
3 897 1139 2274
3 828 1819 2429
3 1249 1224 2111
3 666 667 2318
3 1371 1326 2194
3 2433 1499 2475
3 1272 1271 2211
3 1367 2254 2479
3 1386 2053 2383
3 2074 1238 2227
3 755 2148 2320
3 2117 1604 2428
3 475 514 2224
3 228 2187 2457
3 1868 1504 2520
3 1626 1218 2185
3 2123 1111 2241
3 1287 1049 2331
3 1280 687 2109
3 459 1814 2292
3 54 196 2402
3 863 865 2146
3 204 176 1680
3 514 2086 2224
3 1646 603 2398
3 112 197 2346
3 358 300 2338
3 1140 898 1141
3 1204 1335 2301
3 1016 2161 2438
3 909 1041 2175
3 1681 2448 2492
3 2252 459 2292
3 1992 868 2232
3 1035 1036 2235
3 1051 1295 2331
3 1836 1289 2242
3 1508 214 1859
3 247 53 2402
3 1016 938 2161
3 1408 856 2378
3 1466 2158 2200
3 725 885 2336
3 855 1450 2421
3 2023 1768 2420
3 1238 1236 2227
3 1679 202 2253
3 2107 1348 2233
3 1653 1431 2487
3 1946 2291 2343
3 2253 202 2329
3 1885 1312 2150
3 378 628 2390
3 2195 1383 2432
3 1520 1519 2480
3 1532 1733 2534
3 308 327 2278
3 953 951 2255
3 1213 1407 2222
3 1561 1563 2285
3 302 763 2338
3 1928 2033 2202
3 763 304 2345
3 832 833 986
3 1352 2040 2237
3 247 1881 2481
3 560 523 2156
3 335 339 2261
3 346 342 2344
3 201 443 1323
3 2301 1335 2466
3 323 320 2229
3 1136 2110 2396
3 1139 1977 2274
3 1809 1615 2423
3 1707 1791 2334
3 46 2019 2485
3 2064 1294 2238
3 1950 197 2404
3 2021 2022 2176
3 1949 245 2420
3 2044 2152 2207
3 1063 1154 1707
3 1012 1363 2406
3 280 2079 2210
3 2237 1214 2351
3 820 698 2318
3 1140 1141 1406
3 205 2021 2176
3 2043 786 2310
3 2145 1004 2446
3 707 1030 2109
3 1406 2460 2473
3 2137 1268 2226
3 16 2081 2260
3 567 2031 2219
3 2112 1064 2248
3 206 45 2485
3 2347 1462 2365
3 1650 1962 2362
3 453 425 2221
3 1209 907 2175
3 1111 1276 2241
3 2448 1145 2492
3 2051 2083 2243
3 59 60 2266
3 1402 1742 2530
3 831 677 2209
3 624 587 2276
3 238 174 1725
3 1011 2107 2233
3 468 2365 2412
3 2337 805 2371
3 254 1932 2380
3 1174 1398 2207
3 2140 111 2346
3 1381 2186 2283
3 1987 2037 2188
3 1740 559 2456
3 1773 391 2503
3 1335 1870 2249
3 1945 2257 2291
3 828 463 2411
3 1246 2088 2208
3 2060 798 2307
3 1773 1159 2240
3 1187 2112 2248
3 1352 2237 2351
3 2037 1322 2188
3 1941 1499 2433
3 2322 225 2510
3 1031 1034 2236
3 327 2188 2321
3 595 2032 2273
3 1464 1462 2347
3 1285 1992 2232
3 799 2055 2237
3 443 278 2210
3 784 874 2178
3 392 396 2431
3 191 95 2309
3 879 784 2178
3 524 511 2429
3 2128 2011 2270
3 895 896 2257
3 2206 1152 2324
3 318 2171 2172
3 2259 1549 2379
3 1214 1410 2351
3 306 308 2278
3 2022 251 2247
3 1757 1729 2309
3 1283 1918 2524
3 996 1706 2492
3 557 2044 2207
3 1798 1448 2364
3 1447 2250 2310
3 559 1750 2403
3 1363 1011 2233
3 1343 1168 2187
3 1407 2044 2256
3 1462 1460 2365
3 1995 2331 2458
3 327 1987 2188
3 2160 254 2380
3 1681 958 2287
3 2031 1160 2250
3 1600 689 2413
3 2219 1692 2239
3 1494 1675 2522
3 1281 1916 2448
3 907 909 2175
3 565 2167 2276
3 2241 1276 2275
3 1978 316 2443
3 2151 212 2350
3 203 1847 2104
3 2049 1481 2523
3 1961 1362 2376
3 2187 1393 2457
3 940 796 2532
3 2293 1349 2329
3 572 1897 2537
3 332 739 2282
3 2052 567 2239
3 1437 1370 2277
3 567 2219 2239
3 667 626 2452
3 1914 2206 2324
3 2243 939 2392
3 2136 1343 2187
3 257 1654 2530
3 1376 1378 2283
3 2076 1982 2272
3 2083 760 2243
3 1944 1945 2291
3 1771 1839 2359
3 1404 1403 2399
3 1875 1866 2320
3 1460 1337 2412
3 760 783 2243
3 1276 1366 2275
3 1428 2227 2366
3 1882 1605 2284
3 1739 1429 2459
3 2321 2188 2434
3 1328 1327 2315
3 798 2189 2307
3 2152 1174 2207
3 2182 1247 2323
3 1516 1514 2367
3 293 291 2306
3 556 537 2201
3 1298 1300 2314
3 1400 1399 2316
3 1649 2236 2463
3 833 831 2424
3 2127 2050 2333
3 1057 914 2328
3 1839 193 2359
3 761 1741 2258
3 1186 1970 2422
3 1429 2366 2382
3 2211 1271 2271
3 1733 1248 2534
3 13 2114 2136
3 2078 390 2431
3 1533 1536 2340
3 1690 2145 2446
3 1277 2308 2370
3 1168 1393 2187
3 1597 2047 2268
3 587 565 2276
3 1908 244 2401
3 225 125 2284
3 610 2130 2468
3 1749 2105 2326
3 1913 1914 2324
3 2366 2208 2382
3 1391 1876 2295
3 457 552 2264
3 653 688 2209
3 1601 2443 2514
3 682 2138 2211
3 992 1980 2244
3 55 56 2313
3 1645 1495 2493
3 473 477 2483
3 202 1724 2329
3 465 828 2429
3 1277 1966 2308
3 1416 2330 2406
3 1912 1364 2455
3 1716 1483 2375
3 2019 1651 2485
3 1725 2137 2226
3 201 1323 2216
3 878 1083 2213
3 2072 2073 2245
3 1563 1777 2405
3 244 2028 2401
3 2016 1564 2422
3 1682 1497 2461
3 1962 1153 2362
3 1298 2314 2358
3 1384 1385 2391
3 688 1320 2209
3 1587 2179 2435
3 786 380 2497
3 1395 1522 2341
3 2032 1919 2273
3 251 2013 2247
3 2219 2031 2250
3 2397 552 2453
3 1765 255 2489
3 2475 1825 2524
3 1202 1204 2301
3 445 2078 2411
3 323 2229 2296
3 1286 2384 2408
3 537 551 2201
3 1724 237 2293
3 84 85 2335
3 1471 1126 2319
3 1635 1634 2511
3 300 302 2338
3 698 666 2318
3 1030 1031 2236
3 2098 1457 2271
3 696 1821 2426
3 1457 1492 2447
3 1956 2336 2469
3 331 323 2296
3 1284 1491 2342
3 2011 1996 2270
3 256 183 2303
3 160 257 2304
3 2204 1589 2501
3 1891 1014 2280
3 719 725 2336
3 1354 1808 2381
3 437 430 2494
3 2377 218 2391
3 2211 2271 2447
3 1407 2256 2290
3 2365 1460 2412
3 2047 1498 2268
3 1825 1283 2524
3 1499 1825 2475
3 1226 1249 2281
3 2051 2243 2392
3 2250 1160 2310
3 111 112 2346
3 304 306 2345
3 1341 1352 2351
3 2166 191 2504
3 2223 1836 2242
3 1996 247 2481
3 1049 1051 2331
3 1086 1298 2358
3 2130 595 2273
3 1249 2111 2263
3 680 1995 2458
3 1511 2140 2346
3 102 103 2355
3 469 473 2453
3 961 2072 2245
3 2073 1282 2245
3 1442 1443 2525
3 74 192 2361
3 2163 1586 2435
3 1519 1518 2449
3 897 2274 2500
3 303 444 2317
3 1615 1614 2423
3 197 2009 2404
3 1634 2281 2511
3 1780 1781 2419
3 1435 1623 2465
3 1286 1774 2384
3 384 361 2339
3 193 1901 2359
3 1165 2433 2475
3 2277 1370 2386
3 677 653 2209
3 1994 1516 2367
3 1479 1478 2440
3 1165 1512 2433
3 1644 1353 2417
3 1711 1712 2353
3 2193 1615 2425
3 1613 1956 2469
3 1440 1173 2330
3 2269 1479 2440
3 222 2218 2465
3 391 389 2503
3 306 2278 2345
3 468 2090 2365
3 221 2246 2526
3 1445 1446 2504
3 939 1844 2392
3 86 87 2373
3 1429 1428 2366
3 2053 2103 2383
3 1348 1212 2312
3 805 750 2371
3 997 1286 2408
3 1152 869 2363
3 2063 2064 2238
3 192 1994 2367
3 1160 2043 2310
3 1926 2151 2350
3 2059 2098 2271
3 1897 1366 2537
3 215 2262 2437
3 1655 1732 2476
3 2415 1128 2454
3 1320 2213 2214
3 7 258 2357
3 259 155 2356
3 2171 1530 2172
3 347 351 2407
3 1077 1078 2343
3 239 2003 2279
3 1446 1128 2415
3 1034 1033 2410
3 601 627 2442
3 1154 1653 2234
3 397 2060 2405
3 2142 794 2272
3 442 2063 2238
3 1863 1215 2378
3 794 2076 2272
3 1883 1375 2505
3 1320 878 2213
3 342 468 2344
3 1903 218 2377
3 380 376 2497
3 1549 1547 2379
3 1148 1165 2475
3 2157 226 2507
3 829 972 2326
3 884 1957 2466
3 2291 1077 2343
3 65 66 2395
3 787 2052 2518
3 2298 1348 2312
3 1946 2343 2396
3 1653 256 2535
3 1842 1548 2472
3 1957 2301 2466
3 1366 1277 2370
3 2213 1432 2214
3 961 2245 2383
3 218 2093 2391
3 1376 2283 2421
3 1873 2127 2333
3 1019 1021 2512
3 1128 1127 2454
3 1104 1434 2450
3 2130 1439 2468
3 2396 2110 2482
3 2186 855 2283
3 1724 2293 2329
3 1163 1059 2372
3 1614 2389 2423
3 53 54 2402
3 1063 1707 2334
3 2283 855 2421
3 1385 1863 2436
3 364 1883 2505
3 517 1890 2387
3 1145 996 2492
3 1047 1287 2348
3 2148 1875 2320
3 205 2176 2416
3 1372 1844 2478
3 1211 2219 2250
3 1141 898 2368
3 245 1909 2420
3 2278 327 2321
3 2389 1397 2423
3 2256 513 2290
3 559 2403 2456
3 1137 1340 2374
3 2093 1384 2391
3 1918 1148 2524
3 1030 2236 2427
3 1867 1895 2513
3 2014 517 2387
3 2271 1457 2447
3 1143 2028 2353
3 1904 194 2432
3 1148 2475 2524
3 1574 1523 2436
3 2213 1083 2311
3 1997 358 2325
3 2139 246 2506
3 1370 1369 2386
3 1271 2059 2271
3 1034 2173 2463
3 1123 1412 2393
3 1578 1827 2515
3 2209 1320 2424
3 2079 1504 2210
3 1361 2168 2305
3 1491 1489 2403
3 238 1725 2226
3 1190 986 2334
3 1547 1545 2508
3 1891 1613 2469
3 1153 1885 2362
3 2208 1632 2382
3 2287 1281 2448
3 1356 1376 2421
3 1965 2349 2515
3 2155 1186 2422
3 1522 2014 2387
3 2158 1468 2323
3 2050 954 2333
3 1397 1809 2423
3 1362 1360 2376
3 1852 1985 2397
3 2069 1691 2446
3 789 2066 2425
3 1895 755 2513
3 1707 1154 2234
3 372 374 2430
3 2225 787 2518
3 2028 1206 2401
3 986 1063 2334
3 1912 726 2439
3 1340 1342 2400
3 1916 1145 2448
3 2236 1649 2427
3 2374 1340 2400
3 2222 1407 2290
3 2324 1152 2363
3 241 2220 2472
3 765 2190 2384
3 2375 667 2452
3 2330 1173 2406
3 1181 1972 2500
3 2126 1382 2388
3 1173 1012 2406
3 315 313 2495
3 1015 1373 2385
3 97 221 2526
3 1937 1397 2389
3 930 1061 2462
3 971 1096 2496
3 45 46 2485
3 669 791 2529
3 1104 2450 2521
3 382 378 2390
3 2191 1371 2536
3 2235 1036 2286
3 831 2209 2424
3 762 1997 2349
3 2379 1547 2508
3 2177 1359 2467
3 2403 1489 2456
3 796 785 2532
3 219 1902 2516
3 1519 2300 2480
3 1065 1655 2476
3 1375 1473 2505
3 1489 1490 2456
3 390 392 2431
3 2247 2013 2464
3 1135 1930 2369
3 2278 1583 2345
3 626 622 2452
3 631 2298 2312
3 2233 1348 2298
3 1398 1974 2499
3 1706 1681 2492
3 261 130 2444
3 32 260 2445
3 822 2099 2368
3 1365 1912 2439
3 941 940 2418
3 1446 2166 2504
3 2106 1121 2414
3 2300 1519 2449
3 1803 1104 2521
3 1732 1570 2476
3 1413 2051 2392
3 2122 1946 2396
3 2238 1868 2520
3 477 556 2483
3 2397 1985 2533
3 463 445 2411
3 2163 1185 2488
3 1126 2141 2319
3 1755 2264 2533
3 972 2204 2501
3 2230 1533 2340
3 1774 1773 2503
3 1997 2325 2349
3 1004 2069 2446
3 2159 31 2445
3 131 2160 2444
3 1371 2191 2451
3 1001 2154 2486
3 1682 2230 2340
3 2103 961 2383
3 1033 1151 2410
3 382 2390 2531
3 1504 2079 2520
3 1583 2278 2321
3 511 465 2429
3 250 2024 2479
3 2208 2088 2509
3 619 620 2484
3 1246 2208 2366
3 2141 1209 2319
3 1359 1413 2467
3 1295 1459 2458
3 2218 1435 2465
3 2281 1249 2511
3 2293 237 2354
3 2207 1398 2499
3 1564 2155 2422
3 552 469 2453
3 1947 224 2498
3 2062 1568 2490
3 2018 205 2416
3 260 2159 2445
3 2160 261 2444
3 2092 610 2468
3 194 2195 2432
3 1432 2213 2311
3 211 2251 2464
3 2378 856 2527
3 1536 1532 2534
3 2364 786 2497
3 2438 1438 2478
3 1185 1948 2488
3 2042 941 2418
3 1582 2321 2434
3 885 1891 2469
3 1364 2048 2455
3 1693 2225 2518
3 401 382 2531
3 1338 2247 2464
3 442 2238 2520
3 1292 2117 2428
3 2274 1350 2500
3 2066 2193 2425
3 2179 1184 2435
3 898 822 2368
3 2436 1863 2527
3 1844 1016 2478
3 2184 1001 2486
3 557 2207 2499
3 2013 211 2464
3 2254 250 2479
3 1350 1181 2500
3 2009 248 2470
3 246 2140 2506
3 1574 2436 2527
3 2139 1419 2517
3 316 1971 2514
3 1319 2122 2482
3 226 2006 2507
3 1400 2270 2481
3 1681 2287 2448
3 2325 1578 2349
3 232 1652 2487
3 1320 2214 2424
3 1632 2208 2509
3 248 2288 2470
3 1406 1141 2460
3 2188 1322 2434
3 2244 1980 2441
3 2088 1255 2509
3 1280 2109 2427
3 2060 2307 2405
3 2236 1034 2463
3 1745 2293 2354
3 2122 2396 2482
3 2109 1030 2427
3 2307 1563 2405
3 1429 2382 2459
3 224 2267 2498
3 682 2211 2447
3 2079 442 2520
3 2348 1287 2398
3 2220 1842 2472
3 1335 2249 2466
3 1249 2263 2511
3 443 2210 2519
3 2385 1373 2394
3 1594 2184 2486
3 2052 2239 2518
3 1568 2439 2490
3 2349 1578 2515
3 2344 468 2412
3 2270 1996 2481
3 1735 2244 2441
3 2260 1471 2477
3 2210 1504 2519
3 1434 2297 2450
3 2297 1419 2450
3 2263 1660 2502
3 2404 2009 2470
3 1718 2385 2394
3 1371 2194 2536
3 2317 444 2461
3 1443 2322 2525
3 1716 2375 2452
3 1863 2378 2527
3 2439 726 2490
3 1057 2328 2451
3 1638 2404 2470
3 1454 2234 2535
3 755 2320 2513
3 2234 1653 2535
3 2264 552 2533
3 1419 2297 2517
3 1392 2322 2510
3 552 2397 2533
3 1798 2364 2497
3 2322 1392 2525
3 2382 1631 2459
3 1016 2438 2478
3 1366 2370 2537
3 1742 2491 2530
3 2491 257 2530
CELL_TYPES 4886
5
5
5
5
5
5
5
5
5
5
5
5
5
5
5
5
5
5
5
5
5
5
5
5
5
5
5
5
5
5
5
5
5
5
5
5
5
5
5
5
5
5
5
5
5
5
5
5
5
5
5
5
5
5
5
5
5
5
5
5
5
5
5
5
5
5
5
5
5
5
5
5
5
5
5
5
5
5
5
5
5
5
5
5
5
5
5
5
5
5
5
5
5
5
5
5
5
5
5
5
5
5
5
5
5
5
5
5
5
5
5
5
5
5
5
5
5
5
5
5
5
5
5
5
5
5
5
5
5
5
5
5
5
5
5
5
5
5
5
5
5
5
5
5
5
5
5
5
5
5
5
5
5
5
5
5
5
5
5
5
5
5
5
5
5
5
5
5
5
5
5
5
5
5
5
5
5
5
5
5
5
5
5
5
5
5
5
5
5
5
5
5
5
5
5
5
5
5
5
5
5
5
5
5
5
5
5
5
5
5
5
5
5
5
5
5
5
5
5
5
5
5
5
5
5
5
5
5
5
5
5
5
5
5
5
5
5
5
5
5
5
5
5
5
5
5
5
5
5
5
5
5
5
5
5
5
5
5
5
5
5
5
5
5
5
5
5
5
5
5
5
5
5
5
5
5
5
5
5
5
5
5
5
5
5
5
5
5
5
5
5
5
5
5
5
5
5
5
5
5
5
5
5
5
5
5
5
5
5
5
5
5
5
5
5
5
5
5
5
5
5
5
5
5
5
5
5
5
5
5
5
5
5
5
5
5
5
5
5
5
5
5
5
5
5
5
5
5
5
5
5
5
5
5
5
5
5
5
5
5
5
5
5
5
5
5
5
5
5
5
5
5
5
5
5
5
5
5
5
5
5
5
5
5
5
5
5
5
5
5
5
5
5
5
5
5
5
5
5
5
5
5
5
5
5
5
5
5
5
5
5
5
5
5
5
5
5
5
5
5
5
5
5
5
5
5
5
5
5
5
5
5
5
5
5
5
5
5
5
5
5
5
5
5
5
5
5
5
5
5
5
5
5
5
5
5
5
5
5
5
5
5
5
5
5
5
5
5
5
5
5
5
5
5
5
5
5
5
5
5
5
5
5
5
5
5
5
5
5
5
5
5
5
5
5
5
5
5
5
5
5
5
5
5
5
5
5
5
5
5
5
5
5
5
5
5
5
5
5
5
5
5
5
5
5
5
5
5
5
5
5
5
5
5
5
5
5
5
5
5
5
5
5
5
5
5
5
5
5
5
5
5
5
5
5
5
5
5
5
5
5
5
5
5
5
5
5
5
5
5
5
5
5
5
5
5
5
5
5
5
5
5
5
5
5
5
5
5
5
5
5
5
5
5
5
5
5
5
5
5
5
5
5
5
5
5
5
5
5
5
5
5
5
5
5
5
5
5
5
5
5
5
5
5
5
5
5
5
5
5
5
5
5
5
5
5
5
5
5
5
5
5
5
5
5
5
5
5
5
5
5
5
5
5
5
5
5
5
5
5
5
5
5
5
5
5
5
5
5
5
5
5
5
5
5
5
5
5
5
5
5
5
5
5
5
5
5
5
5
5
5
5
5
5
5
5
5
5
5
5
5
5
5
5
5
5
5
5
5
5
5
5
5
5
5
5
5
5
5
5
5
5
5
5
5
5
5
5
5
5
5
5
5
5
5
5
5
5
5
5
5
5
5
5
5
5
5
5
5
5
5
5
5
5
5
5
5
5
5
5
5
5
5
5
5
5
5
5
5
5
5
5
5
5
5
5
5
5
5
5
5
5
5
5
5
5
5
5
5
5
5
5
5
5
5
5
5
5
5
5
5
5
5
5
5
5
5
5
5
5
5
5
5
5
5
5
5
5
5
5
5
5
5
5
5
5
5
5
5
5
5
5
5
5
5
5
5
5
5
5
5
5
5
5
5
5
5
5
5
5
5
5
5
5
5
5
5
5
5
5
5
5
5
5
5
5
5
5
5
5
5
5
5
5
5
5
5
5
5
5
5
5
5
5
5
5
5
5
5
5
5
5
5
5
5
5
5
5
5
5
5
5
5
5
5
5
5
5
5
5
5
5
5
5
5
5
5
5
5
5
5
5
5
5
5
5
5
5
5
5
5
5
5
5
5
5
5
5
5
5
5
5
5
5
5
5
5
5
5
5
5
5
5
5
5
5
5
5
5
5
5
5
5
5
5
5
5
5
5
5
5
5
5
5
5
5
5
5
5
5
5
5
5
5
5
5
5
5
5
5
5
5
5
5
5
5
5
5
5
5
5
5
5
5
5
5
5
5
5
5
5
5
5
5
5
5
5
5
5
5
5
5
5
5
5
5
5
5
5
5
5
5
5
5
5
5
5
5
5
5
5
5
5
5
5
5
5
5
5
5
5
5
5
5
5
5
5
5
5
5
5
5
5
5
5
5
5
5
5
5
5
5
5
5
5
5
5
5
5
5
5
5
5
5
5
5
5
5
5
5
5
5
5
5
5
5
5
5
5
5
5
5
5
5
5
5
5
5
5
5
5
5
5
5
5
5
5
5
5
5
5
5
5
5
5
5
5
5
5
5
5
5
5
5
5
5
5
5
5
5
5
5
5
5
5
5
5
5
5
5
5
5
5
5
5
5
5
5
5
5
5
5
5
5
5
5
5
5
5
5
5
5
5
5
5
5
5
5
5
5
5
5
5
5
5
5
5
5
5
5
5
5
5
5
5
5
5
5
5
5
5
5
5
5
5
5
5
5
5
5
5
5
5
5
5
5
5
5
5
5
5
5
5
5
5
5
5
5
5
5
5
5
5
5
5
5
5
5
5
5
5
5
5
5
5
5
5
5
5
5
5
5
5
5
5
5
5
5
5
5
5
5
5
5
5
5
5
5
5
5
5
5
5
5
5
5
5
5
5
5
5
5
5
5
5
5
5
5
5
5
5
5
5
5
5
5
5
5
5
5
5
5
5
5
5
5
5
5
5
5
5
5
5
5
5
5
5
5
5
5
5
5
5
5
5
5
5
5
5
5
5
5
5
5
5
5
5
5
5
5
5
5
5
5
5
5
5
5
5
5
5
5
5
5
5
5
5
5
5
5
5
5
5
5
5
5
5
5
5
5
5
5
5
5
5
5
5
5
5
5
5
5
5
5
5
5
5
5
5
5
5
5
5
5
5
5
5
5
5
5
5
5
5
5
5
5
5
5
5
5
5
5
5
5
5
5
5
5
5
5
5
5
5
5
5
5
5
5
5
5
5
5
5
5
5
5
5
5
5
5
5
5
5
5
5
5
5
5
5
5
5
5
5
5
5
5
5
5
5
5
5
5
5
5
5
5
5
5
5
5
5
5
5
5
5
5
5
5
5
5
5
5
5
5
5
5
5
5
5
5
5
5
5
5
5
5
5
5
5
5
5
5
5
5
5
5
5
5
5
5
5
5
5
5
5
5
5
5
5
5
5
5
5
5
5
5
5
5
5
5
5
5
5
5
5
5
5
5
5
5
5
5
5
5
5
5
5
5
5
5
5
5
5
5
5
5
5
5
5
5
5
5
5
5
5
5
5
5
5
5
5
5
5
5
5
5
5
5
5
5
5
5
5
5
5
5
5
5
5
5
5
5
5
5
5
5
5
5
5
5
5
5
5
5
5
5
5
5
5
5
5
5
5
5
5
5
5
5
5
5
5
5
5
5
5
5
5
5
5
5
5
5
5
5
5
5
5
5
5
5
5
5
5
5
5
5
5
5
5
5
5
5
5
5
5
5
5
5
5
5
5
5
5
5
5
5
5
5
5
5
5
5
5
5
5
5
5
5
5
5
5
5
5
5
5
5
5
5
5
5
5
5
5
5
5
5
5
5
5
5
5
5
5
5
5
5
5
5
5
5
5
5
5
5
5
5
5
5
5
5
5
5
5
5
5
5
5
5
5
5
5
5
5
5
5
5
5
5
5
5
5
5
5
5
5
5
5
5
5
5
5
5
5
5
5
5
5
5
5
5
5
5
5
5
5
5
5
5
5
5
5
5
5
5
5
5
5
5
5
5
5
5
5
5
5
5
5
5
5
5
5
5
5
5
5
5
5
5
5
5
5
5
5
5
5
5
5
5
5
5
5
5
5
5
5
5
5
5
5
5
5
5
5
5
5
5
5
5
5
5
5
5
5
5
5
5
5
5
5
5
5
5
5
5
5
5
5
5
5
5
5
5
5
5
5
5
5
5
5
5
5
5
5
5
5
5
5
5
5
5
5
5
5
5
5
5
5
5
5
5
5
5
5
5
5
5
5
5
5
5
5
5
5
5
5
5
5
5
5
5
5
5
5
5
5
5
5
5
5
5
5
5
5
5
5
5
5
5
5
5
5
5
5
5
5
5
5
5
5
5
5
5
5
5
5
5
5
5
5
5
5
5
5
5
5
5
5
5
5
5
5
5
5
5
5
5
5
5
5
5
5
5
5
5
5
5
5
5
5
5
5
5
5
5
5
5
5
5
5
5
5
5
5
5
5
5
5
5
5
5
5
5
5
5
5
5
5
5
5
5
5
5
5
5
5
5
5
5
5
5
5
5
5
5
5
5
5
5
5
5
5
5
5
5
5
5
5
5
5
5
5
5
5
5
5
5
5
5
5
5
5
5
5
5
5
5
5
5
5
5
5
5
5
5
5
5
5
5
5
5
5
5
5
5
5
5
5
5
5
5
5
5
5
5
5
5
5
5
5
5
5
5
5
5
5
5
5
5
5
5
5
5
5
5
5
5
5
5
5
5
5
5
5
5
5
5
5
5
5
5
5
5
5
5
5
5
5
5
5
5
5
5
5
5
5
5
5
5
5
5
5
5
5
5
5
5
5
5
5
5
5
5
5
5
5
5
5
5
5
5
5
5
5
5
5
5
5
5
5
5
5
5
5
5
5
5
5
5
5
5
5
5
5
5
5
5
5
5
5
5
5
5
5
5
5
5
5
5
5
5
5
5
5
5
5
5
5
5
5
5
5
5
5
5
5
5
5
5
5
5
5
5
5
5
5
5
5
5
5
5
5
5
5
5
5
5
5
5
5
5
5
5
5
5
5
5
5
5
5
5
5
5
5
5
5
5
5
5
5
5
5
5
5
5
5
5
5
5
5
5
5
5
5
5
5
5
5
5
5
5
5
5
5
5
5
5
5
5
5
5
5
5
5
5
5
5
5
5
5
5
5
5
5
5
5
5
5
5
5
5
5
5
5
5
5
5
5
5
5
5
5
5
5
5
5
5
5
5
5
5
5
5
5
5
5
5
5
5
5
5
5
5
5
5
5
5
5
5
5
5
5
5
5
5
5
5
5
5
5
5
5
5
5
5
5
5
5
5
5
5
5
5
5
5
5
5
5
5
5
5
5
5
5
5
5
5
5
5
5
5
5
5
5
5
5
5
5
5
5
5
5
5
5
5
5
5
5
5
5
5
5
5
5
5
5
5
5
5
5
5
5
5
5
5
5
5
5
5
5
5
5
5
5
5
5
5
5
5
5
5
5
5
5
5
5
5
5
5
5
5
5
5
5
5
5
5
5
5
5
5
5
5
5
5
5
5
5
5
5
5
5
5
5
5
5
5
5
5
5
5
5
5
5
5
5
5
5
5
5
5
5
5
5
5
5
5
5
5
5
5
5
5
5
5
5
5
5
5
5
5
5
5
5
5
5
5
5
5
5
5
5
5
5
5
5
5
5
5
5
5
5
5
5
5
5
5
5
5
5
5
5
5
5
5
5
5
5
5
5
5
5
5
5
5
5
5
5
5
5
5
5
5
5
5
5
5
5
5
5
5
5
5
5
5
5
5
5
5
5
5
5
5
5
5
5
5
5
5
5
5
5
5
5
5
5
5
5
5
5
5
5
5
5
5
5
5
5
5
5
5
5
5
5
5
5
5
5
5
5
5
5
5
5
5
5
5
5
5
5
5
5
5
5
5
5
5
5
5
5
5
5
5
5
5
5
5
5
5
5
5
5
5
5
5
5
5
5
5
5
5
5
5
5
5
5
5
5
5
5
5
5
5
5
5
5
5
5
5
5
5
5
5
5
5
5
5
5
5
5
5
5
5
5
5
5
5
5
5
5
5
5
5
5
5
5
5
5
5
5
5
5
5
5
5
5
5
5
5
5
5
5
5
5
5
5
5
5
5
5
5
5
5
5
5
5
5
5
5
5
5
5
5
5
5
5
5
5
5
5
5
5
5
5
5
5
5
5
5
5
5
5
5
5
5
5
5
5
5
5
5
5
5
5
5
5
5
5
5
5
5
5
5
5
5
5
5
5
5
5
5
5
5
5
5
5
5
5
5
5
5
5
5
5
5
5
5
5
5
5
5
5
5
5
5
5
5
5
5
5
5
5
5
5
5
5
5
5
5
5
5
5
5
5
5
5
5
5
5
5
5
5
5
5
5
5
5
5
5
5
5
5
5
5
5
5
5
5
5
5
5
5
5
5
5
5
5
5
5
5
5
5
5
5
5
5
5
5
5
5
5
5
5
5
5
5
5
5
5
5
5
5
5
5
5
5
5
5
5
5
5
5
5
5
5
5
5
5
5
5
5
5
5
5
5
5
5
5
5
5
5
5
5
5
5
5
5
5
5
5
5
5
5
5
5
5
5
5
5
5
5
5
5
5
5
5
5
5
5
5
5
5
5
5
5
5
5
5
5
5
5
5
5
5
5
5
5
5
5
5
5
5
5
5
5
5
5
5
5
5
5
5
5
5
5
5
5
5
5
5
5
5
5
5
5
5
5
5
5
5
5
5
5
5
5
5
5
5
5
5
5
5
5
5
5
5
5
5
5
5
5
5
5
5
5
5
5
5
5
5
5
5
5
5
5
5
5
5
5
5
5
5
5
5
5
5
5
5
5
5
5
5
5
5
5
5
5
5
5
5
5
5
5
5
5
5
5
5
5
5
5
5
5
5
5
5
5
5
5
5
5
5
5
5
5
5
5
5
5
5
5
5
5
5
5
5
5
5
5
5
5
5
5
5
5
5
5
5
5
5
5
5
5
5
5
5
5
5
5
5
5
5
5
5
5
5
5
5
5
5
5
5
5
5
5
5
5
5
5
5
5
5
5
5
5
5
5
5
5
5
5
5
5
5
5
5
5
5
5
5
5
5
5
5
5
5
5
5
5
5
5
5
5
5
5
5
5
5
5
5
5
5
5
5
5
5
5
5
5
5
5
5
5
5
5
5
5
5
5
5
5
5
5
5
5
5
5
5
5
5
5
5
5
5
5
5
5
5
5
5
5
5
5
5
5
5
5
5
5
5
5
5
5
5
5
5
5
5
5
5
5
5
5
5
5
5
5
5
5
5
5
5
5
5
5
5
5
5
5
5
5
5
5
5
5
5
5
5
5
5
5
5
5
5
5
5
5
5
5
5
5
5
5
5
5
5
5
5
5
5
5
5
5
5
5
5
5
5
5
5
5
5
5
5
5
5
5
5
5
5
5
5
5
5
5
5
5
5
5
5
5
5
5
5
5
5
5
5
5
5
5
5
5
5
5
5
5
5
5
5
5
5
5
5
5
5
5
5
5
5
5
5
5
5
5
5
5
5
5
5
5
5
5
5
5
5
5
5
5
5
5
5
5
5
5
5
5
5
5
5
5
5
5
5
5
5
5
5
5
5
5
5
5
5
5
5
5
5
5
5
5
5
5
5
5
5
5
5
5
5
5
5
5
5
5
5
5
5
5
5
5
5
5
5
5
5
5
5
5
5
5
5
5
5
5
5
5
5
5
5
5
5
5
5
5
5
5
5
5
5
5
5
5
5
5
5
5
5
5
5
5
5
5
5
5
5
5
5
5
5
5
5
5
5
5
5
5
5
5
5
5
5
5
5
5
5
5
5
5
5
5
5
5
5
5
5
5
5
5
5
5
5
5
5
5
5
5
5
5
5
5
5
5
5
5
5
5
5
5
5
5
5
5
5
5
5
5
5
5
5
5
5
5
5
5
5
5
5
5
5
5
5
5
5
5
5
5
5
5
5
5
5
5
5
5
5
5
5
5
5
5
5
5
5
5
5
5
5
5
5
5
5
5
5
5
5
5
5
5
5
5
5
5
5
5
5
5
5
5
5
5
5
5
5
5
5
5
5
5
5
5
5
5
5
5
5
5
5
5
5
5
5
5
5
5
5
5
5
5
5
5
5
5
5
5
5
5
5
5
5
5
5
5
5
5
5
5
5
5
5
5
5
5
5
5
5
5
5
5
5
5
5
5
5
5
5
5
5
5
5
5
5
5
5
5
5
5
5
5
5
5
5
5
5
5
5
5
5
5
5
5
5
5
5
5
5
5
5
5
5
5
5
5
5
5
5
5
5
5
5
5
5
5
5
5
5
5
5
5
5
5
5
5
5
5
5
5
5
5
5
5
5
5
5
5
5
5
5
5
5
5
5
5
5
5
5
5
5
5
5
5
5
5
5
5
5
5
5
5
5
5
5
5
5
5
5
5
5
5
5
5
5
5
5
5
5
5
5
5
5
5
5
5
5
5
5
5
5
5
5
5
5
5
5
5
5
5
5
5
5
5
5
5
5
5
5
5
5
5
5
5
5
5
5
5
5
5
5
5
5
5
5
5
5
5
5
5
5
5
5
5
5
5
5
5
5
5
5
5
5
5
5
5
5
5
5
5
5
5
5
5
5
5
5
5
5
5
5
5
5
5
5
5
5
5
5
5
5
5
5
5
5
5
5
5
5
5
5
5
5
5
5
5
5
5
5
5
5
5
5
5
5
5
5
5
5
5
5
5
5
5
5
5
5
5
5
5
5
5
5
5
5
5
5
5
5
5
5
5
5
5
5
5
5
5
5
5
5
5
5
5
5
5
5
5
5
5
5
5
5
5
5
5
5
5
5
5
5
5
5
5
5
5
5
5
5
5
5
5
5
5
5
5
5
5
5
5
5
5
5
5
5
5
5
5
5
5
5
5
5
5
5
5
5
5
5
5
5
5
5
5
5
5
5
5
5
5
5
5
5
5
5
5
5
5
5
5
5
5
5
5
5
5
5
5
5
5
5
5
5
5
5
5
5
5
5
5
5
5
5
5
5
5
5
5
5
5
5
5
5
5
5
5
5
5
5
5
5
5
5
5
5
5
5
5
5
5
5
5
5
5
5
5
5
5
5
5
5
5
5
5
5
5
5
5
5
5
5
5
5
5
5
5
5
5
5
5
5
5
5
5
5
5
5
5
5
5
5
5
5
5
5
5
5
5
5
5
5
5
5
5
5
5
5
5
5
5
5
5
5
5
5
5
5
5
5
5
5
5
5
5
5
5
5
5
5
5
5
5
5
5
5
5
5
5
5
5
5
5
5
5
5
5
5
5
5
5
5
5
5
5
5
5
5
5
5
5
5
5
5
5
5
5
5
5
5
5
5
5
5
5
5
5
5
5
5
5
5
5
5
5
5
5
5
5
5
5
5
5
5
5
5
5
5
5
5
5
5
5
5
5
5
5
5
5
5
5
5
5
5
5
5
5
5
5
5
5
5
5
5
5
5
5
5
5
5
5
5
5
5
5
5
5
5
5
5
5
5
5
5
5
5
5
5
5
5
5
5
5
5
5
5
5
5
5
5
5
5
5
5
5
5
5
5
5
5
5
5
5
5
5
5
5
5
5
5
5
5
5
5
5
5
5
5
5
5
5
5
5
5
5
5
5
5
5
5
5
5
5
5
5
5
5
5
5
5
5
5
5
5
5
5
5
5
5
5
5
5
5
5
5
5
5
5
5
5
5
5
5
5
5
5
5
5
5
5
5
5
5
5
5
5
5
5
5
5
5
5
5
5
5
5
5
5
5
5
5
5
5
5
5
5
5
5
5
5
5
5
5
5
5
5
5
5
5
5
5
5
5
5
5
5
5
5
5
5
5
5
5
5
5
5
5
5
5
5
5
5
5
5
5
5
5
5
5
5
5
5
5
5
5
5
5
5
5
5
5
5
5
5
5
5
5
5
5
5
5
5
5
5
5
5
5
5
5
5
5
5
5
5
5
5
5
5
5
5
5
5
5
5
5
5
5
5
5
5
5
5
5
5
5
5
5
5
5
5
5
5
5
5
5
5
5
5
5
5
5
5
5
5
5
5
5
5
5
5
5
5
5
5
5
5
5
5
5
5
5
5
5
5
5
5
5
5
5
5
5
5
5
5
5
5
5
5
5
5
5
5
5
5
5
5
5
5
5
5
5
5
5
5
5
5
5
5
5
5
5
5
5
5
5
5
5
5
5
5
5
5
5
5
5
5
5
5
5
5
5
5
5
5
5
5
5
5
5
5
5
5
5
5
5
5
5
5
5
5
5
5
5
5
5
5
5
5
5
5
5
5
5
5
5
5
5
5
5
5
5
5
5
5
5
5
5
5
5
5
5
5
5
5
5
5
5
5
5
5
5
5
5
5
5
5
5
5
5
5
5
5
5
5
5
5
5
5
5
5
5
5
5
5
5
5
5
5
5
5
5
5
5
5
5
5
5
5
5
5
5
5
5
5
5
5
5
5
5
5
5
5
5
5
5
5
5
5
5
5
5
5
5
5
5
5
5
5
5
5
5
5
5
5
5
5
5
5
5
5
5
5
5
5
5
5
5
5
5
5
5
5
5
5
5
5
5
5
5
5
5
5
5
5
5
5
5
5
5
5
5
5
5
5
5
5
5
5
5
5
5
5
5
5
5
5
5
5
5
5
5
5
5
5
5
5
5
5
5
5
5
5
5
5
5
5
5
5
5
5
5
5
5
5
5
5
5
5
5
5
5
5
5
5
5
5
5
5
5
5
5
5
5
5
5
5
5
5
5
5
5
5
5
5
5
5
5
5
5
5
5
5
5
5
5
5
5
5
5
5
5
5
5
5
5
5
5
5
5
5
5
5
5
5
5
5
5
5
5
5
5
5
5
5
5
5
5
5
5
5
5
5
5
5
5
5
5
5
5
5
5
5
5
5
5
5
5
5
5
5
5
5
5
5
5
5
5
5
5
5
5
5
5
5
5
5
5
5
5
5
5
5
5
5
5
5
5
5
5
5
5
POINT_DATA 2538
VECTORS disp float
4.122064883488813e-12 4.3405281593417845e-12 0.0
1.1787983661113729e-13 9.555213504249401e-14 0.0
0.0005000000002892809 6.897873115395673e-13 0.0
0.0004999999847631338 -1.6978557027074704e-11 0.0
0.00026913759869374396 0.0001155174901144022 0.0
0.00035783133442444676 -1.2004615492867757e-6 0.0
0.00029266458514970337 -9.495767876419542e-6 0.0
-8.926887073532899e-13 -1.0707836149006785e-12 0.0
2.8669004039530247e-13 3.786930870477756e-13 0.0
1.4782324532428407e-13 -2.415042820914723e-13 0.0
6.796936982750047e-14 -1.100767138665116e-13 0.0
-2.6614615543139996e-14 -3.7431147830869356e-13 0.0
3.104011495270428e-14 -4.825249399660831e-13 0.0
2.8848562054951266e-14 -5.775761837914116e-13 0.0
4.2932424438237034e-14 -6.379919888959706e-13 0.0
2.880203873926415e-14 -6.701462077418878e-13 0.0
4.2624172340162324e-14 -6.725479096180757e-13 0.0
3.610132930704503e-14 -6.820623069689776e-13 0.0
3.0918451845753374e-14 -7.109987467235751e-13 0.0
2.495794205042936e-14 -7.407356217143292e-13 0.0
2.7101896063535197e-14 -7.04147331867113e-13 0.0
4.412857478003226e-14 -7.69844823595602e-13 0.0
3.254669506475544e-14 -7.179145708268812e-13 0.0
3.268642841963119e-14 -7.330333586670526e-13 0.0
9.529336406760045e-14 -7.561065435394479e-13 0.0
7.280661989947967e-14 -6.606279701658414e-13 0.0
8.767340047690426e-14 -5.560773589916262e-13 0.0
8.526299291938814e-14 -4.829986362937339e-13 0.0
2.240296687690514e-14 -4.506263948073422e-13 0.0
4.128712540174144e-14 -4.596252217163333e-13 0.0
-1.3585811603589193e-14 -5.279093850535548e-13 0.0
-6.794418271237909e-14 -9.178449821180222e-13 0.0
1.8875268853676188e-6 -7.217262214615037e-7 0.0
4.790315416954462e-6 -1.8725361593659958e-6 0.0
8.980403119289335e-6 -3.254516571734984e-6 0.0
1.4170831187642189e-5 -4.881016399027403e-6 0.0
1.970656189910245e-5 -6.567391106680582e-6 0.0
2.5581355786256398e-5 -8.223229846406208e-6 0.0
3.17504945438868e-5 -9.684823696741712e-6 0.0
3.772478105101453e-5 -1.1031039080027275e-5 0.0
4.356247757070177e-5 -1.229976509070219e-5 0.0
4.9278289159004465e-5 -1.3455441827627482e-5 0.0
5.478944979627474e-5 -1.4589417906572609e-5 0.0
6.022397745144518e-5 -1.565634741851511e-5 0.0
6.547591279453346e-5 -1.6671637477494515e-5 0.0
7.055841035750851e-5 -1.768848442023714e-5 0.0
7.553583674898554e-5 -1.8698526409377947e-5 0.0
8.037613865580176e-5 -1.9729043987717217e-5 0.0
8.512654486468824e-5 -2.076605392101787e-5 0.0
8.978166298436004e-5 -2.177822429941222e-5 0.0
9.430752572168884e-5 -2.279075234900977e-5 0.0
9.87678693120871e-5 -2.380803560950119e-5 0.0
0.00010317318668429827 -2.484104242056282e-5 0.0
0.00010753027045368189 -2.5897290607019466e-5 0.0
0.00011185820881997617 -2.6971820469760552e-5 0.0
0.00011614457631548934 -2.8053537475357495e-5 0.0
0.00012043836570776466 -2.9145216990053438e-5 0.0
0.00012469983769225782 -3.0231711567934067e-5 0.0
0.00012892624857790004 -3.130734008902731e-5 0.0
0.00013315147698585394 -3.235797701439429e-5 0.0
0.00013736473929028755 -3.341937369012873e-5 0.0
0.0001415571065682167 -3.447701028376484e-5 0.0
0.00014580101070700671 -3.5510575095976744e-5 0.0
0.0001500055121517338 -3.650649037208678e-5 0.0
0.00015415149182382052 -3.7468757162145733e-5 0.0
0.00015833480392948523 -3.8407364657786646e-5 0.0
0.00016245988475592732 -3.93441423714699e-5 0.0
0.0001664524111858296 -4.025674662704462e-5 0.0
0.00017034633141134673 -4.1138188510631535e-5 0.0
0.00017407693809784382 -4.2035607069098936e-5 0.0
0.00017758814257770665 -4.296257617768269e-5 0.0
0.00018077795372782162 -4.388050985152311e-5 0.0
0.00018344867416929587 -4.4795677023539356e-5 0.0
0.0001856408738661139 -4.5875939917776345e-5 0.0
0.00018876799590728695 -4.6618162224337804e-5 0.0
0.00019231015316573667 -4.779474165189691e-5 0.0
0.0001959702242877025 -4.92557381577928e-5 0.0
0.00020014537112819023 -5.0840175885378223e-5 0.0
0.00020478102894450957 -5.2838839570705836e-5 0.0
0.00020997739134445134 -5.4751221547375475e-5 0.0
0.0002154150083154843 -5.6884968949253955e-5 0.0
0.0002212356634326726 -5.798672081125565e-5 0.0
0.000227196706882659 -5.845395408429092e-5 0.0
0.00023362305891978092 -5.879145461660682e-5 0.0
0.00023990243746900466 -5.911852315873935e-5 0.0
0.00024632076369343007 -5.939693963158286e-5 0.0
0.0002529802855285653 -5.9692434554176196e-5 0.0
0.00025980029300149706 -5.991909494495733e-5 0.0
0.0002663620887782257 -6.0087370960945795e-5 0.0
0.00027265006458421866 -6.0188278281143064e-5 0.0
0.0002786075284349754 -6.022826014232281e-5 0.0
0.00028437006212861344 -6.0220363969726783e-5 0.0
0.00028997115370217775 -6.020807865776553e-5 0.0
0.00029552262419364175 -6.019067461168216e-5 0.0
0.00030098362493681963 -6.018446661596756e-5 0.0
0.00030633880323553285 -6.023389224359439e-5 0.0
0.0003116313727078119 -6.036023578778962e-5 0.0
0.0003168150909361011 -6.070432696123965e-5 0.0
0.0003219387030730088 -6.1026688953350826e-5 0.0
0.00032706452249913994 -6.137090409637194e-5 0.0
0.00033226498164671875 -6.175523494892165e-5 0.0
0.00033751869230624746 -6.21719378695143e-5 0.0
0.0003427899646995052 -6.252178078659822e-5 0.0
0.00034816900023473227 -6.27076669721583e-5 0.0
0.0003534784399927244 -6.262989553564729e-5 0.0
0.00035897433094558156 -6.234414581730292e-5 0.0
0.00036442715420088694 -6.220237680277171e-5 0.0
0.0003698771359975142 -6.210272388097694e-5 0.0
0.00037524080169517904 -6.199240662253574e-5 0.0
0.0003802199016043405 -6.188350478598523e-5 0.0
0.0003848530916224512 -6.175278704574253e-5 0.0
0.0003892369920796066 -6.155308269278872e-5 0.0
0.0003934802150280752 -6.135134575673972e-5 0.0
0.00039746511016146535 -6.111548137860878e-5 0.0
0.00040140279412820404 -6.0864708569887435e-5 0.0
0.0004053122365934233 -6.057620325070626e-5 0.0
0.0004090970195485962 -6.024732281886088e-5 0.0
0.0004129068841320705 -5.989842935156064e-5 0.0
0.00041676622492506723 -5.943903449326124e-5 0.0
0.0004204183235679405 -5.888819972087456e-5 0.0
0.0004241561822725718 -5.8266729087876987e-5 0.0
0.00042816393184224157 -5.746687124894109e-5 0.0
0.0004322269473813689 -5.633850499350691e-5 0.0
0.0004359218943727316 -5.480194958952421e-5 0.0
0.0004397006178165085 -5.302637706258077e-5 0.0
0.00044365250395690003 -5.105496419500335e-5 0.0
0.00044792988561269994 -4.884648517367412e-5 0.0
0.00045200438356994045 -4.568561464033282e-5 0.0
0.0004559105383310644 -4.075772731623612e-5 0.0
0.0004641459217096191 -3.5874870706004214e-5 0.0
0.0004708753625205413 -2.5748973185178644e-5 0.0
0.000500000003092059 2.2531141101033716e-12 0.0
0.0004999999986567995 -1.9365759703444974e-12 0.0
0.0004999999998384425 7.56841352844325e-14 0.0
0.0004999999995903168 -2.647244194750238e-13 0.0
0.0004999999998449138 1.131926552424751e-13 0.0
0.0004999999998346711 3.1380737391545136e-13 0.0
0.0004999999999182977 4.560135904101331e-13 0.0
0.0004999999999517407 5.419710157376075e-13 0.0
0.0004999999999320939 5.580350393608839e-13 0.0
0.0004999999999294188 5.53196117529876e-13 0.0
0.0004999999999249846 5.266088650054682e-13 0.0
0.0004999999998900877 5.617717337780152e-13 0.0
0.0004999999999031122 5.377687946635895e-13 0.0
0.000499999999891885 5.491553848852143e-13 0.0
0.0004999999998897215 5.59841907264282e-13 0.0
0.0004999999998836357 5.556857341166468e-13 0.0
0.0004999999998771679 5.566875823788427e-13 0.0
0.000499999999875516 4.814081601203273e-13 0.0
0.0004999999997403346 3.4332602289836836e-13 0.0
0.0004999999998296931 2.3380458278507207e-13 0.0
0.0004999999998173819 2.3912505023144253e-13 0.0
0.0004999999997937897 2.205993723627828e-13 0.0
0.0004999999998806554 2.1020065053152032e-13 0.0
0.0004999999998876408 2.481204043804361e-13 0.0
0.0004999999999192394 2.686007165479152e-13 0.0
0.00047021754902108715 6.903045914459071e-6 0.0
0.00043399724102882937 7.804854206307933e-6 0.0
0.00039920487461390014 4.597813897681194e-6 0.0
0.00037541748079869357 -3.2838901607685264e-7 0.0
0.00035752496546691596 -1.5811554482048714e-5 0.0
0.0003559618846937847 -2.5914728210089834e-5 0.0
0.00035395448361569374 -3.789380980905521e-5 0.0
0.00035031374492442536 -4.6853567069462866e-5 0.0
0.0003459227615621447 -5.252414604485958e-5 0.0
0.0003406380292646442 -5.6201663645989426e-5 0.0
0.00033548255581227176 -5.801005570683443e-5 0.0
0.00033093344164471824 -5.6060255681991606e-5 0.0
0.00032860926212461335 -4.999145492182907e-5 0.0
0.00032464517124293176 -4.0987331053050376e-5 0.0
0.00031896910265876663 -3.272767044600089e-5 0.0
0.0003091416355520542 -2.446151726675336e-5 0.0
0.00028919944218298084 -4.4730248585087843e-7 0.0
0.00028590699236889897 6.2592199792022985e-6 0.0
0.00028194910568481895 1.1484508661113266e-5 0.0
0.00027734287896512305 1.6735261835743928e-5 0.0
0.0002723876224503161 2.1650561071750534e-5 0.0
0.00026824377739320194 2.7129549551851173e-5 0.0
0.00026429371161139565 3.331644911393845e-5 0.0
0.0002608894426657722 3.849355686561005e-5 0.0
0.00025874929039593913 4.5130601684871234e-5 0.0
0.00025778533587307687 5.276756823354449e-5 0.0
0.0002606866923135654 6.608597109498202e-5 0.0
0.00026424456677714715 8.71813929395784e-5 0.0
0.00023336929233781146 0.00011620910511186149 0.0
0.0001921562034097409 0.00011718873327926956 0.0
0.00015249345109200144 0.00011170458236855481 0.0
0.00010591435430414035 8.776253148946815e-5 0.0
0.00013803008893716165 -3.185709050150242e-5 0.0
0.00034039099116226634 -5.7455693609072336e-5 0.0
0.00016742499939585774 -3.886234452923074e-5 0.0
0.00030385639372117846 -5.591658740808353e-5 0.0
0.00018988225502687865 -4.544327521713904e-5 0.0
0.0002622782188761163 -5.417149940237855e-5 0.0
0.00021760505460445917 -5.1937294423360117e-5 0.0
0.00037352160080290344 -5.734330295994486e-5 0.0
0.00011331384459145407 -2.5848224435573147e-5 0.0
0.00039515740697044035 -5.6068874171341074e-5 0.0
9.13388891216725e-5 -2.046543720537744e-5 0.0
9.52074121061031e-6 -1.5102462220599228e-6 0.0
0.00048322347767076017 7.754769906983348e-7 0.0
0.0002938617268703089 -8.953788309026526e-6 0.0
0.00032310916821178475 -5.109790446405159e-5 0.0
0.00027494446920626965 -3.794797047523896e-6 0.0
0.0002612126266391916 2.1503688290920838e-5 0.0
0.0004151501827727813 -5.5024758740528e-5 0.0
6.832077780593017e-5 -1.5344286316169254e-5 0.0
6.3758204479582155e-6 -1.190912554271896e-6 0.0
0.0004891249546628715 6.994937279955821e-7 0.0
0.0004765229543662518 8.252821317905745e-7 0.0
1.2695594159152281e-5 -1.7734347658774584e-6 0.0
0.0004310290008492956 -5.1601468833666886e-5 0.0
4.6036697302393226e-5 -1.0169758632286628e-5 0.0
0.00034348354881407123 -4.9979066338614354e-5 0.0
0.0002485507315276519 3.7141068979521086e-5 0.0
4.584431655731991e-6 -7.22645813893835e-7 0.0
0.0004919960966670261 2.1295993226275795e-7 0.0
0.00018162595218218126 -4.318546156457241e-5 0.0
0.00020113534573472212 -4.848882845607562e-5 0.0
0.00028719878025489657 -5.531053197255744e-5 0.0
0.00023713023899845346 -5.286469961374042e-5 0.0
0.00031940395521252746 -5.664332458048642e-5 0.0
0.0003560722455875513 -5.788898222798552e-5 0.0
0.00015616596644659606 -3.627593160831495e-5 0.0
0.00012598522462539539 -2.9139583823750493e-5 0.0
0.0004426361208586944 -4.6316740322646416e-5 0.0
2.7861275691270258e-5 -6.311518769344642e-6 0.0
0.00047407375314430824 -1.3149983586648843e-6 0.0
1.5168335720839815e-5 -8.461505250677209e-7 0.0
0.0004923960426866979 -1.0673423159950202e-6 0.0
2.9722240283432847e-6 -1.9856168601209513e-7 0.0
0.0003573450388589586 -3.934870410107858e-5 0.0
0.00024555240660890243 4.842071022321173e-5 0.0
0.0004707049390510346 -2.056513380913083e-6 0.0
2.377757595757589e-5 1.7168213982052136e-6 0.0
7.72914106468649e-6 -1.4331202432609435e-6 0.0
0.0004861190312923572 7.290880360322236e-7 0.0
0.00031232750707172515 -3.267597976160155e-5 0.0
0.0002687843248814652 1.0350534012236057e-5 0.0
1.038162738833356e-5 -2.419964689543896e-6 0.0
0.00045854074714925437 -3.405856762519358e-5 0.0
0.0003294301405273811 -5.755341530687667e-5 0.0
0.00024941259072734737 -5.386263152772744e-5 0.0
0.00017556470285618023 -4.1007863458895525e-5 0.0
0.00014705668299708696 -3.4306363939272145e-5 0.0
0.0002756871414191606 -5.4718653630439995e-5 0.0
0.00038261519737311107 -5.708979971253416e-5 0.0
0.00010476398524984925 -2.362325092722753e-5 0.0
0.0004035311866921051 -5.595005130741528e-5 0.0
8.154374774972053e-5 -1.8098039352478963e-5 0.0
5.695529569956451e-5 -1.2711451938917217e-5 0.0
0.0004227392199217827 -5.3647018552435395e-5 0.0
0.00016894299450037213 6.713811668227562e-5 0.0
0.00040966737889983393 -8.054427478627658e-6 0.0
0.0004913379762133284 -1.6255457285714794e-6 0.0
1.635013544892764e-6 -2.3345254288958804e-7 0.0
0.0002460092581100698 7.125675994705241e-5 0.0
0.0003646740782819657 -2.0590791002549693e-5 0.0
2.878833009498175e-5 3.142248970498578e-6 0.0
0.00047674409237967723 -1.4262821754953131e-6 0.0
2.4893343276277197e-6 -9.816826968911843e-7 0.0
0.00047578704873401116 -1.5526016718435904e-5 0.0
0.00038363671354444274 -1.1191507518011209e-5 0.0
0.000387805565916698 -1.624694235250059e-5 0.0
0.00041846011425930737 -1.0425959091145378e-5 0.0
0.0003961160871258726 -1.4192042737691743e-5 0.0
0.00037270000738404005 -2.0451226473799456e-5 0.0
0.0003768491815138734 -1.7142037991848077e-5 0.0
0.0004008168340257546 -1.217197726481699e-5 0.0
0.0003828123086239664 -1.4262070983072491e-5 0.0
0.0004057271733103105 -1.0391661400780121e-5 0.0
0.0003890251435632602 -1.2044725626769516e-5 0.0
0.0003679138296977783 -1.5720541640477053e-5 0.0
0.0003734942629027201 -1.2834124647924157e-5 0.0
0.00035536508233893787 -1.5863266425289227e-5 0.0
0.0003597029366634676 -1.2555574195402055e-5 0.0
0.00034365602238652034 -1.510763791926115e-5 0.0
0.00034755612174483655 -9.81804747195053e-6 0.0
0.00029082336686582467 -5.9841444943488385e-6 0.0
0.0002869418573754228 -7.508527802755865e-6 0.0
0.00028737236780887666 -4.684303754808046e-6 0.0
0.00028227306879164413 -6.72912306765258e-6 0.0
0.0002837675538082707 -4.216990957655128e-6 0.0
0.00027854812539407836 -5.812585105690928e-6 0.0
0.0002806317204922061 -3.6995432264870475e-6 0.0
0.0002752306731727496 -5.244644211633322e-6 0.0
0.0002776562218355534 -3.320659391416733e-6 0.0
0.0002721011141353765 -4.893311709288737e-6 0.0
0.00027477470841339385 -3.04449218363825e-6 0.0
0.000269263446793967 -4.486196308668325e-6 0.0
0.0002721402040745709 -2.849216780188254e-6 0.0
0.00026682646319504196 -4.008532042654686e-6 0.0
0.00026968665030620655 -2.404270090550338e-6 0.0
0.00026438333187330676 -3.52481026207707e-6 0.0
0.0002674268509580912 -2.1512632955395926e-6 0.0
0.00026190534190560083 -3.364334650711882e-6 0.0
0.0002652414253994098 -2.022943966531428e-6 0.0
0.0002597316795600125 -3.0643365197365117e-6 0.0
0.0002631848514929443 -1.7888542776787463e-6 0.0
0.00025767570158154965 -2.797678137256901e-6 0.0
0.000261063253419093 -1.6313541370174348e-6 0.0
0.000255660949128269 -2.635620634610715e-6 0.0
0.0002591316205934547 -1.5773268421280893e-6 0.0
0.00025389150193982283 -2.4934398772550952e-6 0.0
0.00025727091281651214 -1.4056198358609853e-6 0.0
0.0002518742049525918 -2.436757787603053e-6 0.0
0.0002553917797235646 -1.3489145987493185e-6 0.0
0.0002487860634047978 -2.69249994080762e-6 0.0
0.00025382147332177337 -1.3934969716730615e-6 0.0
0.0002480878233346043 -2.3638557591162405e-6 0.0
0.0002520841962592882 -1.3922689119810867e-6 0.0
0.00024652777886411276 -2.402468172444587e-6 0.0
0.00025042991530058596 -1.5055469660902358e-6 0.0
0.0002451546605083867 -2.487934239329187e-6 0.0
0.00024876145610394743 -1.6584279732309696e-6 0.0
0.000243552673862211 -2.6399920938350764e-6 0.0
0.00026690995475285036 -6.675577639016463e-6 0.0
0.00024712932378720675 -1.8987091677040382e-6 0.0
0.0002551923091528085 -4.475651281754653e-6 0.0
0.00024239683766384202 -3.6187319224638557e-6 0.0
0.00024162661654130932 -2.989703614541928e-6 0.0
0.00024549417032558774 -2.251166473717255e-6 0.0
0.00023969724343254683 -3.4194508296171498e-6 0.0
0.00023569341952326496 -4.137473196779099e-6 0.0
0.00023356750164873732 -4.646526191456515e-6 0.0
0.00024361198444482608 -2.7210184683585045e-6 0.0
0.0002491883307511318 -1.5748461474776397e-6 0.0
0.0002569782522837021 -5.54608259516423e-7 0.0
0.0002474210526863307 -2.105543323524019e-6 0.0
0.0002531751580076513 -9.285194767576962e-7 0.0
0.00025126848809622313 -1.5921054724639861e-6 0.0
0.00022946779676307846 -5.337528543860196e-6 0.0
0.00022759702979238312 -5.8382019224600145e-6 0.0
0.000257097445974037 -4.2614369603347044e-7 0.0
0.00022305671684124697 -6.5451265889633286e-6 0.0
0.00022150745039476377 -7.04794881068718e-6 0.0
0.0002554066223721625 -1.1446990896868698e-6 0.0
0.0002609524479661641 -9.232006653918655e-8 0.0
0.00021655804192645807 -7.733082344168592e-6 0.0
0.00021490908443794006 -8.312924918532923e-6 0.0
0.0002595276692878424 -8.608224270837447e-7 0.0
0.00026523133141038654 1.6631793319659057e-7 0.0
0.0002101475726803703 -8.87047406973172e-6 0.0
0.0002084655474169922 -9.531497072040922e-6 0.0
0.0002639109267221265 -7.273354708902034e-7 0.0
0.00026985030861116627 2.923415436029036e-7 0.0
0.00020393772446163804 -9.929282583274108e-6 0.0
0.00020195894433296254 -1.0668024079562072e-5 0.0
0.00026874405310589497 -7.09172688681781e-7 0.0
0.0002748033514376856 2.8678215012760784e-7 0.0
0.00019725836725405607 -1.0951787175660349e-5 0.0
0.000195474169504689 -1.1764958654780085e-5 0.0
0.0001904693048213652 -1.1982433149445519e-5 0.0
0.00019225019666591073 -1.1199002564292643e-5 0.0
0.0002622218218776791 -1.7853639933726331e-6 0.0
0.00027380220522445545 -8.619705519943101e-7 0.0
0.0002800890015685586 1.4885332967782432e-7 0.0
0.0002811227068500758 1.25294673076866e-6 0.0
0.000265524564660388 -7.39993356367947e-7 0.0
0.0002867307011242529 1.1258760680388181e-6 0.0
0.0002877435357698799 2.13843018420936e-6 0.0
0.0002936614441863386 2.0548825247152437e-6 0.0
0.00018920869533332278 -1.2854458966779937e-5 0.0
0.00018418341219375876 -1.2896767965948299e-5 0.0
0.00019407154934762702 -1.2697052860298653e-5 0.0
0.00027903124596645153 -1.1922281649081717e-6 0.0
0.00018309705508967594 -1.3787189140828239e-5 0.0
0.00017804121989011126 -1.368656287974367e-5 0.0
0.0002741012551415026 -1.317757990556965e-6 0.0
0.0001770821764778857 -1.4552798152205693e-5 0.0
0.0001719710983785069 -1.4328996841481517e-5 0.0
0.00017112364995679294 -1.521383259132351e-5 0.0
0.00016600856116459639 -1.4825879099194157e-5 0.0
0.00016669106709653545 -1.4039094789730053e-5 0.0
0.00016005932306223402 -1.4505776141176245e-5 0.0
0.00016084746580627762 -1.3687094364052779e-5 0.0
0.00016454393613632732 -1.5755061945880934e-5 0.0
0.00015355060847944892 -1.409275869039517e-5 0.0
0.00015430011251458967 -1.3321107778125422e-5 0.0
0.0001703457588187349 -1.6216122175178793e-5 0.0
0.0001647418274931434 -1.677447474302238e-5 0.0
0.000147055047939653 -1.3568761133496847e-5 0.0
0.00014753257416000144 -1.2876737270319557e-5 0.0
0.00029476363077544156 2.8902626414214434e-6 0.0
0.00030109305837330944 2.831625524109128e-6 0.0
0.00016961199805156607 -1.726658540087935e-5 0.0
0.00016416033278096202 -1.7766936030467436e-5 0.0
0.0003022060368821922 3.540775519617984e-6 0.0
0.000309048364695504 3.507950489041659e-6 0.0
0.00030765199123281934 2.6106869149141696e-6 0.0
0.0003158978080581719 3.3981011068640085e-6 0.0
0.00031467937433338715 2.2864854706894447e-6 0.0
0.00032314748809972804 3.2230932473815264e-6 0.0
0.0003223801313366509 1.9352371902197052e-6 0.0
0.0003313791591392733 3.1050019463948626e-6 0.0
0.0003298945998746653 1.6059572686691678e-6 0.0
0.00033207528155041344 4.015913288020128e-6 0.0
0.00033932000543967524 2.874366360053465e-6 0.0
0.0003374144534610844 1.0894990987672952e-6 0.0
0.0001690035948062372 -1.8328182592808774e-5 0.0
0.00013973906360919246 -1.3032152126850855e-5 0.0
0.00014006424746080875 -1.2362502830526643e-5 0.0
0.0003287186475997364 -6.783652731461818e-7 0.0
0.0003360100320663745 -1.4993444311979704e-6 0.0
0.0003447795909684634 4.5124174098850584e-7 0.0
0.0003279566722716458 -3.642043693726398e-6 0.0
0.0001637412214647219 -1.8783162237858018e-5 0.0
0.00034348797914092146 -2.5697601449710714e-6 0.0
0.0003522437693368653 -3.636149024718783e-7 0.0
0.00016843133804630888 -1.9413223681693927e-5 0.0
0.00016332054883806904 -1.983883267882425e-5 0.0
0.000158525229006348 -1.912526335883226e-5 0.0
0.0003510460058765766 -3.919193109625803e-6 0.0
0.0003597737002691259 -1.4414298800368998e-6 0.0
0.00016788951257047497 -2.0541009954468292e-5 0.0
0.0001726917806901559 -2.0045280781680643e-5 0.0
0.00015820823116730124 -2.015359170006251e-5 0.0
0.00015324416127533144 -1.9377749008559115e-5 0.0
0.000358450118284636 -5.528052272925556e-6 0.0
0.0003673154706260798 -2.8231534053625087e-6 0.0
0.0003686076170713209 9.337015948914264e-7 0.0
0.00034976159159772895 -8.020304225114948e-6 0.0
0.00037600465603728904 2.2282273278023793e-8 0.0
0.0003775238911153063 2.7029463496336957e-6 0.0
0.00013156506635923998 -1.243126278547648e-5 0.0
0.00013235217785556886 -1.1799032793314905e-5 0.0
0.00014254813084765158 -1.1766737248702214e-5 0.0
0.00013288975256416167 -1.1255462904303044e-5 0.0
0.00014288572728667792 -1.1275177788734567e-5 0.0
0.00013337918546397579 -1.0879456111765753e-5 0.0
0.000143270925547015 -1.0917321466798059e-5 0.0
0.00017209878149574234 -2.121398639514225e-5 0.0
0.00017667705948087707 -2.0634756165088447e-5 0.0
0.000152981083830757 -2.037752270000403e-5 0.0
0.0001478930618402921 -1.9550955966613345e-5 0.0
0.00037455921588583113 -4.500568716158045e-6 0.0
0.00013495362516885407 -1.06064930585443e-5 0.0
0.00014446979263006937 -1.0714316213171925e-5 0.0
0.0001760546619462459 -2.1841438662727443e-5 0.0
0.00018045920068009039 -2.1193177585332932e-5 0.0
0.00021440023978306906 -8.785202707820535e-6 0.0
0.00038318436196443066 -1.1328449792970047e-6 0.0
0.00028448815326755 -2.4062442619765306e-6 0.0
0.00029242107720069675 -6.037746079601331e-6 0.0
0.0002493814820202342 -3.6734746568057537e-6 0.0
0.00030978836659249483 4.036344013766009e-6 0.0
0.0001353152896213453 -1.0469323511707126e-5 0.0
0.00014656106881013068 -1.0625227685843817e-5 0.0
0.00014768964920626506 -2.0508781632250963e-5 0.0
0.0001425598912348953 -1.9652142930756427e-5 0.0
0.0001798624561919536 -2.2450449839701035e-5 0.0
0.00018428358487509308 -2.1702409083321722e-5 0.0
0.00038153384119881 -6.303783138535439e-6 0.0
0.00012340467912086995 -1.1758205452539315e-5 0.0
0.00012294876115691972 -1.2418340881737902e-5 0.0
0.00012311722819099635 -1.0363680429522609e-5 0.0
0.00039023194584568796 -2.525789800353939e-6 0.0
0.00013643958909544186 -1.0353404769295891e-5 0.0
0.00014803270608914362 -1.0565942591184514e-5 0.0
0.000175606020589859 -2.3092010246984988e-5 0.0
0.00014244826573197304 -2.0544784351382456e-5 0.0
0.00013727566704754482 -1.9645849254955374e-5 0.0
0.0003030437776662548 3.959719909893784e-6 0.0
0.0003108543899577918 4.286317268386553e-6 0.0
0.0003037615153954022 4.169172788983731e-6 0.0
0.00031188812681956155 4.4366460216390135e-6 0.0
0.0001835843084640722 -2.3015552070211346e-5 0.0
0.0001881619643550923 -2.2117098366141087e-5 0.0
0.00021199428588931774 -8.311918336101823e-6 0.0
0.00013751702053283222 -1.0280152121999549e-5 0.0
0.000149102965349156 -1.0462006949056989e-5 0.0
0.00038849951811185436 -8.101992177883122e-6 0.0
0.0003810796333695106 -1.1177714975068984e-5 0.0
0.0001362214215149687 -9.937747839789492e-6 0.0
0.00014977941646632698 -1.000025874007675e-5 0.0
0.00039702962450959017 -4.061645320211755e-6 0.0
0.00039793897444386406 -6.31663272193517e-8 0.0
0.0001386507463910536 -8.961567633043221e-6 0.0
0.00014736526526727047 -2.1482955873552642e-5 0.0
0.00018732611218666488 -2.35553451669846e-5 0.0
0.00019204342199420128 -2.250073469947349e-5 0.0
0.000193041761322457 -2.106379390042743e-5 0.0
0.00019709267097435683 -2.1336875984598332e-5 0.0
0.00019819517743185504 -1.991803232648047e-5 0.0
0.0002024278182996529 -2.0100514409905827e-5 0.0
0.0002036061413328529 -1.8674841680379444e-5 0.0
0.00020806751827482652 -1.8806075914944492e-5 0.0
0.00020931075903799862 -1.7370551684897887e-5 0.0
0.0002139633926405227 -1.7468477631821968e-5 0.0
0.0002127375787782454 -1.8951923838667752e-5 0.0
0.00021880304299657266 -1.7615464354975546e-5 0.0
0.0002176127586340441 -1.9134906652952947e-5 0.0
0.000223792618558806 -1.7840689769160882e-5 0.0
0.00022263668387523114 -1.940708227804424e-5 0.0
0.00022892637171369992 -1.8174138169964672e-5 0.0
0.00021527694406652087 -1.6005115933934277e-5 0.0
0.00022998621537555694 -1.6621631987117528e-5 0.0
0.0002352337900500546 -1.7035559790250685e-5 0.0
0.00023422988658074846 -1.8643505444850976e-5 0.0
0.00024061742543103512 -1.7586653155358027e-5 0.0
0.00011453298972471921 -1.160387058150376e-5 0.0
0.00011410599808022694 -1.228569794056132e-5 0.0
0.00013724127760062426 -2.0412611212120488e-5 0.0
0.00013205551526060887 -1.951115583247854e-5 0.0
0.0002415640895914668 -1.5974090268493055e-5 0.0
0.0002470017414869611 -1.6596094922574932e-5 0.0
0.0002461244206873648 -1.822549962919219e-5 0.0
0.0002527171642971351 -1.7305594803553048e-5 0.0
0.00010574817521433392 -1.1349407880119405e-5 0.0
0.00010540795020129428 -1.205159745801538e-5 0.0
0.0003045133478002457 4.261537226968828e-6 0.0
0.0003130095251010051 4.447927250216544e-6 0.0
0.0003054238279087208 4.249734976738719e-6 0.0
0.00039528190854685834 -9.674520570493028e-6 0.0
0.0004036200419402159 -5.445734782871905e-6 0.0
0.00019111694416664135 -2.4075824935303616e-5 0.0
0.0001562013790092622 -1.0783802096594647e-5 0.0
0.0002498614386047975 -2.269597607184376e-6 0.0
0.00025190267751655363 -1.8965523438922254e-5 0.0
0.00025863822422735473 -1.8105458274226385e-5 0.0
0.00025917106907737115 -1.6435638472931162e-5 0.0
0.0002651445007925034 -1.7313389349297992e-5 0.0
0.0002627381894699283 5.954358083261701e-7 0.0
0.0003144928978801064 4.4444976188613495e-6 0.0
0.0003219581137610532 4.619041355079319e-6 0.0
0.00015135949828052461 -8.382837406705104e-6 0.0
0.00013204936543966726 -2.007279969676959e-5 0.0
0.00012691045953145913 -1.920482426043054e-5 0.0
0.00030646237997689253 4.220208004149672e-6 0.0
0.00026462563848433555 -1.9008888167923266e-5 0.0
0.00027098407402585624 -1.8289248156895573e-5 0.0
0.00027142866654058346 -1.6542113462909514e-5 0.0
0.0002773582134240029 -1.7595914590143552e-5 0.0
0.0002778751972655999 -1.579035699695208e-5 0.0
0.0002836597190327316 -1.6882796980765615e-5 0.0
0.00028310601617385477 -1.8614041310028754e-5 0.0
0.0002892709379044149 -1.7940818565318803e-5 0.0
0.00013922570768356288 -6.562340405138685e-6 0.0
9.712282924401945e-5 -1.101268712460105e-5 0.0
9.681772747818002e-5 -1.1684384271600487e-5 0.0
0.00018664678841477257 -2.5146738584870322e-5 0.0
0.0004014227499793036 -1.1560984367437188e-5 0.0
0.0004101493601794547 -6.821433768784971e-6 0.0
0.0002886499902779187 -1.9568753315613637e-5 0.0
0.0002947469271097922 -1.8929466058927556e-5 0.0
0.00015297991921351287 -4.663265166716497e-6 0.0
0.00012702588048648018 -1.949100882388917e-5 0.0
0.00012187927444231032 -1.8636324953745592e-5 0.0
0.00016094848486507106 -1.0538510092693112e-5 0.0
0.0003635669643670548 -7.81160230227353e-6 0.0
0.00019024922706867772 -2.5854138825792574e-5 0.0
0.00014016691822458052 -2.447861309028517e-6 0.0
0.00012687355086679516 -1.0006002063177912e-5 0.0
0.00040697928165230144 -1.4608273925147128e-5 0.0
0.0004165240794601635 -8.336958127072283e-6 0.0
0.0004190345602359684 -2.202779158255653e-6 0.0
0.00012614754875721866 -7.5979612579416435e-6 0.0
0.00039858184130617025 -1.7551197575099935e-5 0.0
9.686655583725581e-5 -1.0369045604029293e-5 0.0
0.00013177894579925406 -2.0314103779233155e-5 0.0
0.0003158090136614084 4.408399498014414e-6 0.0
0.0003075564503508747 4.135819529158212e-6 0.0
0.00028428372782401815 -1.495234750878492e-5 0.0
0.00012214816401139727 -1.863003136550208e-5 0.0
0.00011688659998298478 -1.7768700270930595e-5 0.0
8.856343806515727e-5 -1.056801286946085e-5 0.0
8.829665673290937e-5 -1.116057116212478e-5 0.0
0.0001427317834365672 -1.8743050054946102e-5 0.0
0.00029410468732460354 -2.04431634086785e-5 0.0
0.0003002684166983205 -1.9786099529396867e-5 0.0
0.00011666218982246058 -1.778703450748579e-5 0.0
0.00011156191344938063 -1.6974211929031006e-5 0.0
0.00028836476508253145 -2.1209281885497765e-5 0.0
0.0001860705855882838 -2.6949237143055886e-5 0.0
0.00011197280131007422 -1.6618349068158716e-5 0.0
0.00010658650771841694 -1.583623825993734e-5 0.0
0.00019921386632795925 -1.8594608342101552e-5 0.0
0.00042581929237026127 -3.2787713753148187e-6 0.0
0.00042810779817586617 8.236986598348178e-7 0.0
0.00042331873646933485 -9.615522188358806e-6 0.0
0.0002999954753038707 -2.20228518630467e-5 0.0
0.0003059722601754973 -2.097194136703324e-5 0.0
0.0002784045412790807 -1.3778654657278609e-5 0.0
0.00028491089263229 -1.2785886354006842e-5 0.0
0.0001895132641907852 -2.7896526268055994e-5 0.0
0.0003063774952078094 -1.9231141396436083e-5 0.0
0.0003119137601306269 -2.0301988520406343e-5 0.0
7.991760966077073e-5 -9.963346331810115e-6 0.0
8.006692397556268e-5 -1.0519832970702713e-5 0.0
0.000311918715409239 -2.3683690897409254e-5 0.0
0.00031773097435491366 -2.2436558375105657e-5 0.0
0.00010725208992131187 -1.5377542327259746e-5 0.0
0.00010173975237175788 -1.448279326452871e-5 0.0
0.0003170236563223023 4.312088916823132e-6 0.0
0.0003086845986638348 4.034445527823906e-6 0.0
0.00010108731122619685 -1.510474710732214e-5 0.0
9.61183313040716e-5 -1.3760422061987331e-5 0.0
9.680908601716828e-5 -1.3049093299532921e-5 0.0
9.10533498721774e-5 -1.220833103173303e-5 0.0
0.0004326820121844242 -4.445182828465113e-6 0.0
0.00043003510286762707 -1.1168239987998409e-5 0.0
0.00015441203601677364 9.6617077248956e-7 0.0
0.00014051431201621517 3.2277950206657687e-6 0.0
0.0002984095982069862 3.995610508914924e-6 0.0
0.00018561285760981903 -2.9013902667417655e-5 0.0
0.000317787500280225 -2.6939120305268244e-5 0.0
0.0003234558172255023 -2.5238092139474183e-5 0.0
0.0003324337433583 -1.2274105780705197e-5 0.0
0.000312488252640301 -1.8665741155685766e-5 0.0
0.00021645874223002282 -2.0755898897369686e-5 0.0
9.026566822343004e-5 -1.3052670441000044e-5 0.0
8.52245210545563e-5 -1.1586467880632789e-5 0.0
8.608504911929591e-5 -1.071307146673707e-5 0.0
7.999555445216766e-5 -9.977498039747379e-6 0.0
7.922250442714676e-5 -1.1015543629904927e-5 0.0
7.359732724590814e-5 -9.358601477103896e-6 0.0
7.282740290722175e-5 -1.0311365702061907e-5 0.0
6.68238023687798e-5 -8.743600897782107e-6 0.0
6.609450760716506e-5 -9.498230088173049e-6 0.0
6.012909441794638e-5 -8.166948716036254e-6 0.0
5.919606816468621e-5 -8.585315329710751e-6 0.0
6.077616694803672e-5 -7.08781825564094e-6 0.0
5.305606392842984e-5 -6.687008427001518e-6 0.0
7.15683169888508e-5 -9.265318539275467e-6 0.0
7.182324681830301e-5 -8.785027100109007e-6 0.0
5.4325476422596455e-5 -5.496493176443105e-6 0.0
4.6972473394086216e-5 -5.025862020817767e-6 0.0
0.00016696325941491517 -2.152369559280477e-6 0.0
0.00016058207647061287 -1.2917941582161858e-5 0.0
0.000279047961631191 -1.1585158644733306e-5 0.0
0.0002855322695461055 -1.0426723592611029e-5 0.0
0.00010460388148783521 -1.270919720821655e-5 0.0
0.0001889109504178992 -3.0297918414853267e-5 0.0
0.00019305665867814397 -2.8935251268592565e-5 0.0
0.00029137120391123746 -1.1676998939592616e-5 0.0
0.00029203638217269125 -9.121264198718092e-6 0.0
0.0004396012089539141 -5.602638754068948e-6 0.0
0.00043629523394900325 -1.2703645943148122e-5 0.0
0.0004268300816403834 -1.9201735585353748e-5 0.0
0.0002999918992235345 3.815711157993898e-6 0.0
0.0003011350368658048 3.6847256422071983e-6 0.0
0.00018232021805629164 -2.786577228323521e-5 0.0
0.00018205607548264907 -2.9958765884372958e-5 0.0
0.0001788193217948581 -2.8633683661371772e-5 0.0
8.115101617759795e-5 -9.502733277721016e-6 0.0
0.0003097763790121752 3.859360769553803e-6 0.0
0.0003022400388572497 3.4209351902961482e-6 0.0
0.00014621771609484932 -1.438986206301832e-5 0.0
0.0003232659050754376 -2.9928164444641422e-5 0.0
0.00032918904280013016 -2.8022933487696952e-5 0.0
0.00032956823108562885 -2.3897562179836678e-5 0.0
0.000335542512549995 -2.6384855886973704e-5 0.0
0.0001603115756063395 8.102986726183525e-6 0.0
0.00014381113363541066 9.653236367655424e-6 0.0
0.00018102400177965312 -2.0009231406186613e-5 0.0
0.0003177756675624315 -3.203436868184128e-5 0.0
0.000393274082257211 -9.771500216658488e-6 0.0
0.0003350405712934937 -3.084350667808739e-5 0.0
0.0003416114513832584 -2.9016193615726724e-5 0.0
0.0003421400163481079 -2.4926205270834593e-5 0.0
0.0003483125027069533 -2.7352993247464143e-5 0.0
0.0003489219276415803 -2.3612920569985282e-5 0.0
0.00035513313572084406 -2.5849159743608094e-5 0.0
0.00035452534864847604 -3.0007298210912807e-5 0.0
0.00036094674250975134 -2.830944310461758e-5 0.0
4.7934710257997184e-5 -4.084629791266016e-6 0.0
4.043999039365032e-5 -3.595575020160816e-6 0.0
3.8451288314361306e-5 -4.499065566162721e-6 0.0
0.0001924349816960406 -3.173672209733968e-5 0.0
0.0001966306075970102 -3.0273078298709716e-5 0.0
0.00017871662876657143 -3.0762840088713954e-5 0.0
0.00017548929514057748 -2.9250060572908525e-5 0.0
0.0004322700169541711 -2.1168108877562657e-5 0.0
0.00044193028960605094 -1.413821852761385e-5 0.0
0.00032924898473600354 -1.7618701432982908e-5 0.0
0.00031941176809749405 -1.4584554288915756e-5 0.0
0.000125188807222709 4.31123149885429e-6 0.0
0.0001284681736425607 1.0034491222211629e-5 0.0
5.5354215081903824e-5 -4.819147799982365e-6 0.0
0.00017509844647501744 -1.6621547216384546e-5 0.0
0.00029562151645820794 3.942167823662265e-6 0.0
0.00042393978093214135 -2.6893764851803882e-5 0.0
0.0001523408234410496 -1.1134531108697593e-5 0.0
0.00029348064505397333 3.413089870147036e-6 0.0
0.00036020281800563106 -3.289097222798581e-5 0.0
0.00036641326112400486 -3.1005170996458365e-5 0.0
0.0003496046429019745 -3.376509423076798e-6 0.0
0.00036785202184289707 -2.437429554592011e-6 0.0
0.00016288186082567558 1.552597633761974e-5 0.0
8.796876202665193e-5 -1.1702814250163482e-5 0.0
6.190535683841416e-5 -7.902213690660107e-6 0.0
6.227415375639644e-5 -7.484124751909532e-6 0.0
8.708421055929413e-5 -1.0935074005357245e-5 0.0
0.0003414683414971284 -3.39870268568527e-5 0.0
0.0002725042940242747 -2.2356713617718654e-6 0.0
0.0002453511236389386 -1.9982638323521013e-5 0.0
0.00016765908308927072 -2.1621709379445818e-5 0.0
4.138453120420401e-5 -3.100983663129188e-6 0.0
3.3895777713971436e-5 -2.5234728823835926e-6 0.0
0.00011269108945689382 -1.6536115112752977e-5 0.0
0.0002979640820865467 -1.0400867352547127e-5 0.0
0.00029869932884419697 -7.674685762257364e-6 0.0
0.000181826933345225 -3.251746747492953e-5 0.0
0.0003570259459210903 9.275573772096022e-7 0.0
0.0003727691710458501 1.2886594012667735e-6 0.0
0.00036286913180918134 3.2932218700362666e-6 0.0
0.0003781558656693759 3.375801720382237e-6 0.0
0.00038803127577147613 1.4776436838395632e-6 0.0
0.0003932939604439007 3.284395675038944e-6 0.0
0.0003834423501693196 4.265192481375126e-6 0.0
0.0003981368644577351 4.016100237733597e-6 0.0
0.00038845320487237127 4.493245194013528e-6 0.0
0.00040295316889067825 4.155326397899233e-6 0.0
0.0003935563959538019 4.499643802959593e-6 0.0
0.00040760940307266023 4.123959338860561e-6 0.0
0.00039845167360468947 4.454840228732123e-6 0.0
0.00041218490216893473 4.068701237517181e-6 0.0
0.00038423782497067283 4.739761537512074e-6 0.0
0.00040326562143870115 4.381321469700832e-6 0.0
0.0004163607802638667 3.992515825014805e-6 0.0
0.00040364737505701575 1.5480001823333154e-6 0.0
0.00011118296289179682 -1.687145890731583e-5 0.0
0.00010817397037226896 -1.5718568180202365e-5 0.0
0.00011345296952530777 -1.7405565427081313e-5 0.0
0.00040802205345839024 4.293315875654825e-6 0.0
0.00042068176846769205 3.897092145492971e-6 0.0
0.00039595676785568446 4.588807357509258e-6 0.0
0.00025108635810719334 -2.0858167867956605e-5 0.0
0.0002444741302751279 -2.20916232817941e-5 0.0
0.00025024305853691006 -2.3257325445390978e-5 0.0
0.00024371416915594171 -2.4769209253700088e-5 0.0
0.00024951631354945384 -2.6365091111896052e-5 0.0
0.00024318375348563414 -2.8266751775028687e-5 0.0
0.00023741267918287587 -2.6519627992948037e-5 0.0
0.00023698249194676322 -3.0289101075217577e-5 0.0
0.00023135946278862908 -2.8363770328581786e-5 0.0
0.00027300050760427136 -9.081077255433858e-6 0.0
0.00024925852905602114 -3.0627643854051105e-5 0.0
0.0002558191577866279 -2.8528549637492768e-5 0.0
0.0002253607274770469 -6.534462970162802e-6 0.0
0.00021057972458877474 -1.5965162706598764e-5 0.0
0.0002166369831654634 -1.4555111261699156e-5 0.0
0.0002119015787481774 -1.458154821141677e-5 0.0
0.0002180536678588663 -1.3126926232623207e-5 0.0
0.00021328995380411015 -1.3232588105322504e-5 0.0
0.00021953239455620911 -1.1750525682294604e-5 0.0
0.00022437847401961733 -1.1632145325809271e-5 0.0
0.00022590933111473724 -1.0235160399918306e-5 0.0
0.00023072853729365594 -1.0145963817429598e-5 0.0
0.00023227221481603936 -8.727142960657077e-6 0.0
0.00023677291333379282 -8.712168438601534e-6 0.0
0.00022756299471359264 -8.881667097927945e-6 0.0
0.00021474632697383273 -1.1938567916338089e-5 0.0
0.00020855093424767643 -1.3379315218354238e-5 0.0
0.00023527647866881853 -1.0264407140769593e-5 0.0
0.00024160626396084207 -8.754921876339897e-6 0.0
0.00010917151566764655 -1.7142366056307305e-5 0.0
0.00024059765905065956 -3.48849339413808e-6 0.0
0.0002617252312966503 -5.6718433324053e-6 0.0
0.0002479227405970148 -1.4944468195349802e-5 0.0
0.0004423463952386844 -7.760391962218591e-7 0.0
0.0004493871466604592 -1.5758647271562544e-6 0.0
0.0002699244763096567 -1.0018264912767595e-6 0.0
0.00026223985867639094 -5.762873381461228e-7 0.0
0.0003425985838776469 -2.1572792397096106e-5 0.0
0.00029213784783891646 8.548360149321426e-7 0.0
0.0004376170060881952 -2.266255555758767e-5 0.0
0.00044719274077701244 -1.533675880207651e-5 0.0
0.00025392613461460914 -6.824357021582365e-7 0.0
0.00017550797672625628 -3.148944835841784e-5 0.0
0.00017227804246679388 -2.9759810335596442e-5 0.0
0.0002790441226219813 -1.5700164404485121e-6 0.0
0.0002309395303083987 -3.236466343789725e-5 0.0
0.0002251415478596747 -3.020428601693559e-5 0.0
0.0001722569226595278 -2.78871856308327e-5 0.0
0.00016890805729012317 -2.8222982487084414e-5 0.0
0.00016885377548304172 -2.664302599630573e-5 0.0
0.0001652047299446554 -2.6838868536849594e-5 0.0
0.00016542655985295074 -2.8455370723702778e-5 0.0
0.00016147761879042226 -2.6925428748065568e-5 0.0
0.00016182474229205045 -2.8720638210976186e-5 0.0
0.0001575890773254522 -2.701495161690261e-5 0.0
8.251038705364099e-5 -1.0369141526280114e-5 0.0
0.00045161138879476226 8.822448078563853e-7 0.0
0.0003107228392081144 3.380280771763231e-6 0.0
0.00030298867021336904 2.8894024178856454e-6 0.0
0.00015981924033598729 -1.7199267025004107e-5 0.0
0.00013268644719207517 -1.877782168677571e-5 0.0
0.0004249102289712206 3.6317301196988365e-6 0.0
0.0004177177437900668 3.6938209021969423e-6 0.0
0.00019592384914825277 -3.33935553000423e-5 0.0
0.00020037780929785454 -3.16821389503832e-5 0.0
0.0003229776298541155 -3.5008698280942435e-5 0.0
7.896902119527254e-5 -1.1684403667133958e-5 0.0
0.000271063701073031 1.0988845205697658e-6 0.0
0.00029581369029278097 2.9605429879983465e-6 0.0
0.00029654793416185093 2.2978619314805503e-6 0.0
0.0003496460110649797 -2.0472663807984576e-5 0.0
0.0003534092996779165 2.1117485383055427e-6 0.0
0.0003672449939352204 -2.6859088140194607e-5 0.0
0.000372832352745829 -2.9307149061552986e-5 0.0
0.0003717568945621827 -3.404406523171248e-5 0.0
0.0003783043709852965 -3.21179829841772e-5 0.0
0.0002255759062899215 -6.0016124323571875e-6 0.0
8.817893312246285e-5 -1.235197537676722e-5 0.0
0.000238018570477766 -7.291343663062194e-6 0.0
0.0003740010081011067 4.707085826981965e-6 0.0
0.0001982788902281142 -2.751215134571783e-5 0.0
0.00011424767256904033 -1.9224081153836087e-5 0.0
0.0001184844838247756 -1.9329258382115976e-5 0.0
0.00031763099452925285 -3.725392368610321e-5 0.0
0.00016509099358775835 -2.5503159804154294e-5 0.0
0.00027971227073614763 -9.276238815276833e-6 0.0
0.0002732178936923975 -1.0464265245665645e-5 0.0
0.0004424895281668716 -2.4308361494568564e-5 0.0
0.0004525438582757583 -1.632029996319563e-5 0.0
0.00045693826859094044 -8.58805598569907e-6 0.0
0.0001793589318301366 1.5060998454838768e-5 0.0
3.48435131366055e-5 -2.2718719526641138e-6 0.0
2.7325663446868003e-5 -1.6535990758696395e-6 0.0
2.7191077410492568e-5 -2.191208064372026e-6 0.0
0.0003173582379083336 -2.0402456506200845e-5 0.0
0.0003262771147010437 -2.1106054687778378e-5 0.0
0.00030868391190821064 -1.6855226344409748e-5 0.0
0.0003261320941653917 4.559982774720333e-6 0.0
0.0004128017784339198 4.200921511823277e-6 0.0
0.00042549579185628775 3.8179624661227695e-6 0.0
0.00017248244839745215 -3.2097035762898313e-5 0.0
0.00032010591688522557 4.573948704368903e-6 0.0
0.00010833340286793103 4.7219306018760404e-6 0.0
0.00011039739865503225 9.399575842656262e-6 0.0
0.00013327144206865877 1.4806802436869076e-5 0.0
0.00011256543604206743 1.2518130809382541e-5 0.0
0.00014631945288325857 1.9836450064484085e-5 0.0
0.00022542308950984104 -2.6752604130047075e-5 0.0
0.00015719648535941454 -2.5565271735537375e-5 0.0
0.00015322519353827557 -2.5495882227859915e-5 0.0
0.00015367845368594916 -2.7255459741616497e-5 0.0
0.00014917672122175275 -2.5540760509634295e-5 0.0
0.0003790977881034328 -2.7751930027225838e-5 0.0
0.00038413895615529666 -3.0376102288746638e-5 0.0
0.000383429813445224 -3.541594597867447e-5 0.0
0.00038886736090881774 -3.356235156619333e-5 0.0
0.00029271417184827825 -6.514037908730982e-6 0.0
0.00029950284695569784 -5.024620992629961e-6 0.0
0.0002555588768941524 -3.310363496619833e-5 0.0
0.00026194461892241913 -3.0909839269317805e-5 0.0
0.00020998902646300445 -1.2150789638215045e-5 0.0
0.00020386018373174915 -1.3525836959386593e-5 0.0
0.00019147104434591206 -3.514171117044086e-5 0.0
0.0001496998850663149 -2.7611969880795163e-5 0.0
0.00014524053802652788 -2.575337993126189e-5 0.0
0.0004186488603694883 -2.4775192776673672e-5 0.0
0.0004165235864196146 -3.1487054098227897e-5 0.0
0.0004115999912521522 -2.9252184990844407e-5 0.0
0.00041085961879075243 -3.470053068620191e-5 0.0
0.00019955051460749328 -3.5237442121395994e-5 0.0
4.165638241125017e-5 -3.170378312045375e-6 0.0
6.569513300159272e-5 -9.65227581554401e-6 0.0
5.774800688067533e-5 -8.420224461080618e-6 0.0
5.0809989025471304e-5 -6.460155840243261e-6 0.0
5.0461029020697185e-5 -6.07898947380974e-6 0.0
6.276746934915769e-5 -7.1136994616178095e-6 0.0
5.037596731212083e-5 -5.738065479542693e-6 0.0
6.325778228456229e-5 -6.778513702614767e-6 0.0
5.031352579821274e-5 -5.458170007956724e-6 0.0
6.393182367766813e-5 -6.556530108394535e-6 0.0
0.00042143139929350895 -3.364534984040799e-5 0.0
0.0001485653733284036 -2.4142535900093893e-5 0.0
0.0003432767300926147 -1.880729511117288e-5 0.0
0.0003123824375258505 -3.397392723249001e-5 0.0
0.00031244772237075196 -3.935458346618116e-5 0.0
0.00030729823971776117 -3.611420061992834e-5 0.0
0.00022483136346965836 -3.4459751809992275e-5 0.0
0.0003176132115947782 3.822662735922682e-6 0.0
0.00038824181885245573 -3.9050735028349255e-5 0.0
0.00046298190528595504 -8.58309190541514e-6 0.0
0.0004575121925825442 -1.6825170578656562e-5 0.0
0.0001830740056604789 2.2001365540095505e-5 0.0
0.0003095400223315484 2.2710008106270997e-6 0.0
0.00024252751485855383 -1.4326381720426247e-5 0.0
0.00024875163718899896 -1.3214517921981374e-5 0.0
0.00023709421829602186 -3.488163006663343e-5 0.0
0.00021914973970679503 -3.2188067355436005e-5 0.0
0.00012316042039759348 -1.3273897772202083e-5 0.0
0.0004334364212737153 3.4157392545033706e-6 0.0
0.0004382821229760044 3.323852653067213e-6 0.0
0.00043005692584126135 3.70678384398931e-6 0.0
0.00044269440333300213 3.226627651415437e-6 0.0
0.0003571902529786044 -9.847975258915632e-6 0.0
0.00026987630053165593 -2.004295820377558e-5 0.0
0.0002739451681870361 -8.254822869818214e-6 0.0
0.00020146771966331555 -2.1595480182563443e-5 0.0
0.00028853280614436755 2.851892936697886e-6 0.0
0.0003047226555974712 -8.972885955421842e-6 0.0
0.00030708677667429555 -1.7630433134453436e-5 0.0
0.0003132945030489099 -1.677021925907448e-5 0.0
0.00031486398706012057 -2.4527774276451366e-5 0.0
0.0003253401198558919 -2.499195310191246e-5 0.0
0.00011920897029767358 -2.137637076555662e-5 0.0
0.00012320830631843105 -2.1341139089560237e-5 0.0
5.0309281899217296e-5 -5.305254457027019e-6 0.0
6.410662183233253e-5 -6.417539477123926e-6 0.0
7.659115408890953e-5 -7.531369585803088e-6 0.0
7.734495334930211e-5 -7.402140917035961e-6 0.0
6.454420343753194e-5 -6.2956595361283106e-6 0.0
7.847131738312007e-5 -7.346369901702912e-6 0.0
6.511637105739006e-5 -6.1850352861478745e-6 0.0
7.988364840923312e-5 -7.183086852707134e-6 0.0
6.555194014992498e-5 -5.83915852750502e-6 0.0
2.8317321093777123e-5 -1.685191191439026e-6 0.0
0.0002674541261689108 -9.457411228075122e-6 0.0
2.1008416400530545e-5 -1.0228892974655293e-6 0.0
0.00011019540939305453 -1.9216171196972316e-5 0.0
0.00045919081501255706 2.762698934693394e-7 0.0
0.00022147051047725008 -1.4600235961842946e-5 0.0
0.0002911582011052591 2.4009450552566915e-6 0.0
0.00029229336760960216 1.4527481089947988e-6 0.0
8.099858899050468e-5 -6.551829929172632e-6 0.0
8.383827415788412e-5 -1.2257839294440541e-5 0.0
7.807230428435327e-5 -1.0130198056278336e-5 0.0
0.0001542766235223158 -2.999568162175966e-5 0.0
0.00032214767938941566 -4.041685752622886e-5 0.0
0.00017568585676966031 -3.4264801149370486e-5 0.0
0.0003934878246527949 -3.70346038323248e-5 0.0
0.0004670865142054903 -3.8715171910520285e-6 0.0
0.0002025118167362664 -1.476010711470606e-5 0.0
0.00019792305183757888 -1.4818908574729546e-5 0.0
0.00019666526875205916 -1.6038963839731173e-5 0.0
0.00019792305584426709 2.1557330862817226e-5 0.0
0.0001925084757877183 -1.5957528233396284e-5 0.0
5.214709047295221e-5 -6.977839806530772e-6 0.0
0.0002618835178300938 -3.625143697305077e-5 0.0
0.00026767228817015706 -3.413470653354569e-5 0.0
0.0002674958407026226 -2.9025300772198025e-5 0.0
0.000273152225882268 -3.226846767322005e-5 0.0
0.0003189086157043894 -1.799638190932798e-5 0.0
0.00031980733241604176 -1.5693825216261566e-5 0.0
0.00046119349509446433 1.5315333894491493e-6 0.0
0.000453147844222554 2.054259099595397e-6 0.0
0.0002983327545072994 4.801644943571754e-7 0.0
0.00029333034621871343 -8.029724632745737e-7 0.0
0.00010514560491574648 -1.7043194049194034e-5 0.0
0.00014586900573678374 -2.794777612668791e-5 0.0
0.00014141799025314757 -2.6034990318467722e-5 0.0
0.00024145375121424202 -3.384984107878331e-6 0.0
0.00038284035071801275 -4.110832306345701e-5 0.0
6.608815920924649e-5 -4.996399942007311e-6 0.0
0.0001406899472753997 -2.3947061130907038e-5 0.0
0.00027335810722067713 -3.767723913356348e-5 0.0
0.0002788586884239601 -3.579051706946828e-5 0.0
0.0002681967018778135 -7.41268230562569e-6 0.0
0.0002618327548608685 -8.594604736929506e-6 0.0
0.00026272591348018245 -6.715917470463292e-6 0.0
0.00025442577302542955 -5.468338305331921e-7 0.0
4.987284587782511e-5 -7.274001179944522e-6 0.0
2.192273800741461e-5 -1.3101323094268268e-6 0.0
0.0002731683733243935 -2.719725593737255e-5 0.0
0.00027811034049361874 -2.746599910522028e-6 0.0
0.00021883837356455454 -3.6616041104271025e-5 0.0
0.00011564558876182474 -1.1035799844426868e-5 0.0
0.0001792165895408627 -1.2904996876649392e-5 0.0
8.934021713212414e-5 -1.4595841672825347e-5 0.0
0.0003941776570619434 -3.184994443892147e-5 0.0
0.00011675410979326718 -1.7381339977186155e-5 0.0
0.00011095726210873287 -1.6348257590069754e-5 0.0
0.0001170431423840178 -1.6698560927475395e-5 0.0
0.00011100899833366376 -1.5642115365790858e-5 0.0
0.00011728701174398514 -1.5926118753008203e-5 0.0
0.00010478787908224325 -1.5256998717810434e-5 0.0
0.00030738662609514414 -4.1397676804904144e-5 0.0
0.0003026166079976272 -3.8263671559851487e-5 0.0
8.79727327613668e-5 4.119627192572607e-6 0.0
0.00022478497015970773 -3.9164419161008996e-5 0.0
0.00022146014757252133 -2.1129196900474482e-5 0.0
0.0002152806986748128 -2.2592525798980466e-5 0.0
0.00012400374480031075 -2.3526623719732293e-5 0.0
3.98249662612483e-5 -5.3946951227229935e-6 0.0
4.2199600731114735e-5 -6.001718849008114e-6 0.0
0.0004206177159887084 1.4431166985742293e-6 0.0
0.00042972670301065296 2.6162620700322005e-6 0.0
8.902265597756386e-5 -8.360258240964562e-6 0.0
0.0001278819046174295 -2.3390617337668847e-5 0.0
0.0001273854219721044 -2.1447117358094078e-5 0.0
0.0001286966570957356 -2.5647445272048434e-5 0.0
0.00012018130945430256 -2.3611501374210518e-5 0.0
0.00012048410107958705 1.4498739009527858e-5 0.0
0.0001790291556563316 -2.6845186047643303e-5 0.0
0.0002667166463399019 -1.1570089535388395e-5 0.0
0.0004215273771670576 3.074179247785914e-6 0.0
0.0002554565791653695 -3.8536355834602105e-5 0.0
0.0001730287615714735 -3.4819636697241974e-5 0.0
0.0004681908395108899 -8.275730122357885e-6 0.0
0.0004616953289987593 -1.7297083692674916e-5 0.0
0.00019495320743024048 1.3867101536949026e-5 0.0
0.0001421947411686976 -2.8323336551054223e-5 0.0
0.0002934322025387094 -3.954626909695856e-6 0.0
0.00030081985295662544 -2.5431198415739857e-6 0.0
6.526851037399873e-5 -9.406606373793597e-6 0.0
7.945934842556328e-5 -1.2206557357842406e-5 0.0
7.36685352691595e-5 -1.0043571929699177e-5 0.0
7.221444862118389e-5 -8.276774397699608e-6 0.0
0.00010623434810673534 -1.925813635829848e-5 0.0
1.5318530504683868e-5 -6.209791755125063e-7 0.0
1.4899789925554817e-5 -6.625815294573786e-7 0.0
0.00027906801863076495 -4.1361133206643726e-5 0.0
0.00028446158405406364 -3.938590757285418e-5 0.0
0.00028397650843160077 -3.3570980278255046e-5 0.0
0.00038487438611818994 -2.6361512132305433e-5 0.0
0.0003797629768079321 -2.3905325110208583e-5 0.0
0.00038739751710051284 -4.45640617353411e-5 0.0
0.0001047394976985047 -1.4569485631627846e-5 0.0
9.855257452343007e-5 -1.4171340645145823e-5 0.0
0.0003067911522744265 -3.4693034869504245e-6 0.0
0.0004510601139689543 2.7388062731108352e-6 0.0
0.0004554222345533286 2.6277691800983143e-6 0.0
0.00046189243151326077 2.0607904909906917e-6 0.0
0.0004498507397395965 -2.84209415591439e-5 0.0
2.9204932161317834e-5 -2.4705974306626228e-6 0.0
0.0002920842234937815 3.5075547930298866e-6 0.0
0.000286995477219663 3.0431221015549838e-6 0.0
0.0002853314108656036 3.0340899519047866e-6 0.0
0.0002809567832811654 2.4617807589123186e-6 0.0
0.0002792711456135603 2.5095975320613858e-6 0.0
0.00028244995100319903 2.420501394243509e-6 0.0
0.00024353057997188122 -1.2614857666699283e-5 0.0
0.0002052458257207616 -1.2372400429122223e-5 0.0
0.00021150539903332615 -1.1009188532577122e-5 0.0
7.506794417201369e-5 -1.2251003661387303e-5 0.0
6.916892565595153e-5 -9.9801667266411e-6 0.0
0.00039799875238804547 -1.1347333824653422e-6 0.0
0.0004145063076776843 -7.453917785528615e-7 0.0
0.00042048109269124194 1.6272793938457054e-6 0.0
0.0004319226229921809 -2.5381702871725093e-7 0.0
0.00042872240632331455 -2.872749335193673e-6 0.0
0.000213495885572979 -3.4426639544826716e-5 0.0
0.00021414263918544167 -3.078402155118251e-5 0.0
0.00021293439663077577 -3.885321723304367e-5 0.0
0.00028837318608490424 1.6620813948348926e-6 0.0
0.0002867122063624807 2.1029339452376864e-6 0.0
8.850063552041435e-5 -8.578985952943124e-6 0.0
4.866429584125169e-5 -4.327020174573364e-6 0.0
0.00030248061560961834 -4.3397846589372185e-5 0.0
0.0001066614907307162 1.8309574992977502e-7 0.0
0.0002972366957527166 -1.297899168475595e-5 0.0
0.0002845430625793341 3.1872219880754e-6 0.0
0.0002776197108526377 2.5742747364846044e-6 0.0
0.0002819848221351122 3.136102679703674e-6 0.0
0.0002759202384635911 2.562818432679299e-6 0.0
0.00028023395221321183 3.055459663953459e-6 0.0
0.00027422884022135257 2.4563238695212024e-6 0.0
0.00027861796420096125 2.9152012456555533e-6 0.0
0.00027258610332475924 2.2972855532233283e-6 0.0
0.0002772622769488485 2.7271806587252684e-6 0.0
0.00027168007341364 1.8813273602414538e-6 0.0
0.0002683340517953275 1.7355221560729114e-6 0.0
0.0003123400617637121 -4.455259293303948e-5 0.0
0.0004707348051968921 1.0259766634659106e-6 0.0
0.0001689366650005345 -2.5293949186213315e-5 0.0
0.00016500919391007504 -2.4339320919484263e-5 0.0
0.00043390415602621857 -3.085277966411487e-5 0.0
0.00019381579911866942 -1.4923742452072149e-5 0.0
0.00027542461593499205 1.7935150272522064e-6 0.0
0.0001547193853338327 2.5227789332591762e-5 0.0
3.750365775472997e-5 -4.655032981757367e-6 0.0
0.00021478296155396298 2.069295844094021e-5 0.0
0.00020899262701342818 1.184457810273747e-5 0.0
0.0003414924879769313 1.0708152168339113e-6 0.0
0.0004383301081222924 -3.270955345301179e-5 0.0
0.00043120456943420023 -3.8045797958013954e-5 0.0
0.00019118763364607105 -1.718479818707364e-5 0.0
0.00018771722035614005 -1.6791675542737596e-5 0.0
9.361227920032807e-5 -1.3038803585724707e-5 0.0
1.6058720823912157e-5 -1.0648828301284309e-6 0.0
2.8539853763443683e-5 -4.231021253424268e-6 0.0
2.9485935875821867e-5 -4.518675517456837e-6 0.0
1.038005571114689e-5 -4.303225766056931e-7 0.0
0.0003139918770005358 -1.433891817536182e-5 0.0
0.0003207076195362052 -1.2931592072993676e-5 0.0
0.0003268434043347851 -1.4427459261941312e-5 0.0
0.0003277575083046356 -1.1140287670176476e-5 0.0
0.0002666872538393771 1.5370266909349966e-6 0.0
0.00017750793306241288 3.0095131757610955e-5 0.0
0.00020763713962156457 2.931599993858171e-5 0.0
0.0002564347741364858 -7.92528608860755e-6 0.0
0.000257580341351674 -6.135134137458998e-6 0.0
0.00020676276137370829 -1.1345944175049568e-5 0.0
0.00018190562767949283 -1.4769798725752627e-5 0.0
0.00017644291528419472 -3.715336807338828e-5 0.0
0.0003540277196444389 -3.500119046244656e-5 0.0
0.00035945476302304995 -3.823806123698499e-5 0.0
0.00035352552869523856 -4.062317983083068e-5 0.0
0.00035874024811794315 -4.403202430959716e-5 0.0
0.0003529502318861742 -4.653399405777152e-5 0.0
0.0003473719174534864 -4.318837615821632e-5 0.0
0.00033445008904893134 -3.681904851779494e-5 0.0
0.0003017623270574828 -3.25666346078186e-5 0.0
0.000310937630101659 -8.473319942545913e-6 0.0
0.00023890829522499858 -2.1179255405908582e-5 0.0
9.27345016571315e-5 -8.248978456419917e-6 0.0
0.0004549262657723189 -2.774058605503496e-5 0.0
0.0004652724406420688 -1.7663544371363864e-5 0.0
0.00036446827281318503 -4.157494684206028e-5 0.0
0.0003637959681168578 -4.744440908204369e-5 0.0
0.0003693867142408141 -4.511664090714867e-5 0.0
0.000178810502347807 -3.665742814713558e-5 0.0
0.00021056284469352278 -2.2186650250470806e-5 0.0
0.00020954990898315582 -2.409072122708313e-5 0.0
0.00021414773781186998 -2.4748828428740884e-5 0.0
0.00015837449692554542 -2.1356254967815266e-5 0.0
0.0002051368186128505 -2.3589142481935905e-5 0.0
0.0002677437187956794 -2.514523375273441e-5 0.0
0.00038587102883585046 -2.2208525736324546e-5 0.0
0.00039848961491569776 -3.507879413376873e-5 0.0
0.00039768088410400786 -4.039369369709854e-5 0.0
0.0003997848130582013 -2.988425611566589e-5 0.0
7.558212735822556e-5 -8.110648404275407e-6 0.0
0.000165812206864746 -3.060618164270477e-5 0.0
0.00016238350430482223 -3.114142150998103e-5 0.0
0.00016632718466788333 -3.3191959225324965e-5 0.0
0.00016308408377005255 -3.3693367313008145e-5 0.0
0.00033411382164485104 -1.2615539810876729e-5 0.0
0.00011131022516017652 -2.147629367443938e-5 0.0
0.00010139079516723992 -1.7096818941452768e-5 0.0
0.00044686690600319985 3.0287247412965655e-6 0.0
3.609078828131754e-5 -4.127186420695417e-6 0.0
3.60060820450366e-5 -4.095267652416208e-6 0.0
0.0002972719987244983 -3.9476140149631185e-5 0.0
0.0002980351898360275 -4.53729166615584e-5 0.0
0.00023727087341209898 -1.3825040245232537e-5 0.0
0.00043832426877467296 1.5308655650427599e-6 0.0
0.00010240951329998883 -1.9312783153237296e-5 0.0
0.0003600549449900805 -2.2395286763127257e-5 0.0
0.00041282317089134625 -2.2516540117097134e-5 0.0
0.00042550441328984505 -8.074324259060626e-6 0.0
0.00042810757247059973 -7.057891784038645e-6 0.0
0.0003217245256007203 -9.827781590291212e-6 0.0
0.00035065474393865915 -1.761522783963454e-5 0.0
0.0003570760783791108 -1.933103974996474e-5 0.0
0.00032374684963453696 -3.393391959580299e-5 0.0
0.0003344312376708905 -3.438184804104256e-5 0.0
0.00033553293820284466 -2.466784174002489e-5 0.0
0.00027348947126243166 -4.331929298823646e-5 0.0
0.00014635492005402086 -3.0205610965694204e-5 0.0
0.00020596091194778748 -1.597701070417926e-5 0.0
0.0002867130473803869 -5.530723783110647e-6 0.0
0.00025402196617139853 -1.3888790696943878e-5 0.0
0.00026168583865619673 -4.184121976327995e-5 0.0
0.0001323039283467178 -2.548436958092228e-5 0.0
0.00016098602358233162 -2.4443543822337625e-5 0.0
8.036736362315382e-5 -1.1061313784728311e-5 0.0
0.00044726303451884003 2.1218963255201342e-7 0.0
0.00033628981858312276 -1.9909763364398977e-5 0.0
5.6823053620657246e-5 -8.126910581674775e-6 0.0
0.00018721300056479944 3.859850351372115e-5 0.0
0.00025696325432351713 -2.1946491834509785e-5 0.0
0.00034681647201007746 -4.899938721875765e-5 0.0
0.00034132114081517474 -4.569566331143157e-5 0.0
0.0002954438284375603 -1.723967431954424e-5 0.0
0.0003077345764113528 -1.1698473135593456e-6 0.0
0.00015358191314021526 -1.8439566253862502e-5 0.0
0.0002083116176050522 -2.6757286916039326e-5 0.0
0.00028453392892917605 -1.6559043310171948e-6 0.0
0.0001608768602221453 -2.3397303931403804e-5 0.0
0.00015653222727236426 -2.3442606596607956e-5 0.0
0.00013310589016110797 -2.768625865440009e-5 0.0
0.00010018057217359867 -9.219696270034624e-6 0.0
0.00010140398140704601 -9.077413202047051e-6 0.0
4.938537760637266e-5 -3.4383518583627474e-6 0.0
6.782979269224827e-5 -3.2628789320791145e-6 0.0
0.0003821167934914111 -4.671115102124658e-5 0.0
7.265366763182753e-5 -1.0624556265209776e-5 0.0
9.869407973993869e-5 -1.4744982883894032e-5 0.0
9.234691691875518e-5 -1.3623410879693697e-5 0.0
0.00039509876417784376 -2.7334977940325233e-5 0.0
0.0001952043097865452 -2.4590437131823462e-5 0.0
0.00024965174145067607 -1.1341335652967247e-5 0.0
0.00030097666024001826 -8.418625235278091e-6 0.0
0.000300663067467449 -1.8243688387914354e-5 0.0
0.0002952071976956032 -1.0250651481011538e-5 0.0
0.00029534396822533297 -1.982075240543385e-5 0.0
0.00030103698067546403 -2.4910472673423602e-5 0.0
0.00032788922835318927 4.43405746980441e-6 0.0
0.00033723346446307595 4.677059700919392e-6 0.0
0.00033980201612374714 4.439603993868827e-6 0.0
0.0003488658347024951 4.675489115427268e-6 0.0
0.0003462967313833513 4.830476484902712e-6 0.0
2.7292829556588846e-5 -3.8823688598357125e-6 0.0
0.0003353347300538433 -9.175830831205303e-6 0.0
8.590670606762216e-5 8.60403772638818e-6 0.0
9.385500675478078e-5 9.934602618150601e-6 0.0
0.00028452527424037676 -4.488265119243011e-5 0.0
2.1754864687694715e-5 -2.77182607463185e-6 0.0
0.0003694874801073167 3.0726964626197197e-6 0.0
0.0003787262818686803 3.941312640481361e-6 0.0
0.00037135908169271025 4.241440873359042e-6 0.0
0.00038696549173209717 3.706588482057502e-6 0.0
0.0003881748966252683 4.377002355174835e-6 0.0
0.0003967442223888188 4.172450438730584e-6 0.0
0.0001233967126440384 -1.692139998848042e-5 0.0
0.0001239245335057264 -1.6141610752522626e-5 0.0
0.00011748658685813637 -1.5170146716247779e-5 0.0
0.00012435599226063768 -1.538086068003774e-5 0.0
0.00013077524914130762 -1.6275855926514736e-5 0.0
0.00013132458457405083 -1.5480371672984115e-5 0.0
0.00013760005110211292 -1.62918229003639e-5 0.0
0.000143010709155935 -3.0469925958063838e-5 0.0
0.00013824462802547734 -1.543368714752179e-5 0.0
0.00014435602149073722 -1.6202417689028477e-5 0.0
4.9814072978900356e-5 -4.989905103667622e-6 0.0
9.918627179516036e-5 -9.504885268044925e-6 0.0
0.00014348676534915353 -1.7070139711191408e-5 0.0
0.00011843139229697143 -1.452938710622003e-5 0.0
0.0003806150861875356 -1.9890582813259914e-5 0.0
0.00037429914579853284 -2.172827424429451e-5 0.0
0.00020814938882172734 -3.675564852421348e-5 0.0
0.0002075073472101952 -4.108840637275682e-5 0.0
0.0002922702887803768 -9.89507941280099e-6 0.0
0.00019394361997660133 6.026332695462732e-6 0.0
0.00020685336502234767 3.3380828745060325e-6 0.0
0.00022133074393870927 8.571457406187054e-6 0.0
0.0002193704723514626 -4.586141882857444e-7 0.0
0.0002064647170942907 -4.171945802222047e-6 0.0
0.00021861185464299156 -7.334162143802199e-6 0.0
0.00020657515252147884 -8.685065766767204e-6 0.0
0.00021826806222579004 -9.9802876829998e-6 0.0
0.00020648293229186417 -1.0203147704196496e-5 0.0
0.00021947544906936498 -1.0289167816362136e-5 0.0
0.00020592947779024098 -1.0516948637882493e-5 0.0
0.0002162583771429195 -1.0176528910547584e-5 0.0
0.00020483734951413538 -1.0380538864028298e-5 0.0
0.0002146087960357469 -9.88597623917566e-6 0.0
0.00020427449138289434 -1.016428512083612e-5 0.0
0.00021339033717708802 -9.561606302950485e-6 0.0
0.00020337388571536918 -9.91738598227171e-6 0.0
0.00021179636732763694 -9.230332157988602e-6 0.0
0.0002024277951731687 -9.65780522668598e-6 0.0
0.00021042368478673226 -8.997416861918982e-6 0.0
0.00020140600482114755 -9.499158240621932e-6 0.0
0.00020896600020939307 -8.825328446528736e-6 0.0
0.0002001379148703404 -9.411781957634063e-6 0.0
0.00020755103922694018 -8.747003518484037e-6 0.0
0.00019887527190810036 -9.408768401478548e-6 0.0
0.00019175252084307652 -9.91136004329419e-6 0.0
0.00019064298001782734 -1.0004822904201721e-5 0.0
0.0002066137685928407 -8.706212945810986e-6 0.0
0.0001945927164581484 -1.016213157683293e-5 0.0
0.00021649766362457598 -8.014503003268394e-6 0.0
0.00022060136618140812 -8.32967658815733e-6 0.0
0.0001959100597435606 -9.415193533670218e-6 0.0
0.00022398494189821534 -9.109728025804398e-6 0.0
0.00018345191822339532 -1.0361960791061566e-5 0.0
0.0001826198459988867 -1.054450869756846e-5 0.0
0.0001895687006147665 -1.0214741755391932e-5 0.0
0.0001817996204243365 -1.0825631829774507e-5 0.0
0.00019497225391655083 -1.0538210387676152e-5 0.0
0.000229085294800054 -9.857179305954422e-6 0.0
0.00018446154310417111 -1.0298216603903415e-5 0.0
0.00023153233267705453 -9.528077850784439e-6 0.0
0.00018856073067227808 -1.0521685026618495e-5 0.0
0.00018096601869759725 -1.1214984575513671e-5 0.0
0.00017419455316984974 -1.13571578507151e-5 0.0
0.00017580407196806557 -1.0617132100359287e-5 0.0
0.0001764435062903247 -1.0593133833345792e-5 0.0
0.00019637813827805015 -9.744822385064646e-6 0.0
0.00019506959892076847 -1.0100200630910638e-5 0.0
0.00020283771128307366 -9.190275540213615e-6 0.0
0.0002341654678846722 3.385573097697462e-6 0.0
0.00023886892779034628 1.165546002406865e-5 0.0
0.00017374453306150822 -1.1810032526297536e-5 0.0
0.00016666906967520616 -1.1802156610781584e-5 0.0
0.0001671824553120186 -1.1407272366597982e-5 0.0
0.0001591069925994531 -1.1711625040970946e-5 0.0
0.00025532039478984477 -4.423256620390536e-5 0.0
0.0002492066035569103 -4.092293042550745e-5 0.0
0.00043527691333279195 -3.989475013818704e-5 0.0
0.0002733671295024426 -2.354801956894614e-5 0.0
0.00027883420833897454 -2.5606964128259903e-5 0.0
0.00016848394848057122 -2.4019924324111556e-5 0.0
0.0001722548674630411 -2.4870969375543636e-5 0.0
0.00037898930463738296 -5.896045301804108e-6 0.0
0.00027466368956756746 -6.0551231195075535e-6 0.0
0.00018036846053258863 -1.170689982433833e-5 0.0
0.00013636011472876005 -2.4027621701132336e-5 0.0
0.0001361329962698863 -2.232124438135945e-5 0.0
0.0001401131789333792 -2.2592943244335855e-5 0.0
0.0003016319386373068 -5.083558308381604e-7 0.0
0.0002860144664164527 3.482590131434417e-6 0.0
0.00019559240263187976 -1.7284122814784017e-5 0.0
0.00019028817204690395 -1.8411808930954303e-5 0.0
0.0002844321762473937 1.0778599127989335e-6 0.0
0.0002822711799616076 1.1886434717682684e-6 0.0
0.0002846941137422048 2.050226784850188e-6 0.0
0.0002796873123981666 1.1757658071575358e-6 0.0
0.00028664716782075155 7.116949584768139e-7 0.0
0.0002834076405783067 3.250349979148846e-6 0.0
0.00028232518265069686 3.032254692895614e-6 0.0
0.0002754562338309771 2.3687203776916392e-6 0.0
0.000213126676471501 -9.9897116994116e-6 0.0
0.00021799493242123194 -9.560020480638402e-6 0.0
0.00021972784567644615 -8.551871807760298e-6 0.0
0.0002245157582297523 -8.05579873864039e-6 0.0
0.00022626659605448217 -7.1160581774538705e-6 0.0
0.00023097837752313947 -6.579893028656887e-6 0.0
0.00023275857652002934 -5.671993477297719e-6 0.0
0.00023751587914608204 -5.100149852262308e-6 0.0
0.00023563640952542372 -6.154673754638314e-6 0.0
0.00024225912223478592 -4.558332841787981e-6 0.0
0.00026400772626717115 -4.955275227265709e-6 0.0
0.0002587699064007182 -4.502072462424712e-6 0.0
0.00025262531576480913 -5.7724737927506245e-6 0.0
0.00025390351673417047 -4.299494540739919e-6 0.0
6.477322477108454e-5 -9.034457703359261e-6 0.0
7.077835340952378e-5 -1.2345870497170587e-5 0.0
6.485728044863291e-5 -9.980523729800884e-6 0.0
6.340177417498067e-5 -7.758958983298307e-6 0.0
5.8599447500064835e-5 -7.639047033362508e-6 0.0
0.000238391307916656 -1.2166423111680341e-5 0.0
0.0003139807139963869 -1.8500350201280092e-6 0.0
0.0003124775528120688 -4.514608024430345e-6 0.0
0.00016752767265201454 2.146590469350184e-5 0.0
0.0002626480274170629 9.150428683647817e-7 0.0
0.0002641455981529147 1.0431704155658218e-6 0.0
0.00029486047673521563 -1.0481099446115371e-5 0.0
0.0004615964175038789 -3.1462632484307865e-6 0.0
0.00047027611645742557 -1.2620659531831328e-6 0.0
0.00047650661678300143 -1.5534593408770377e-6 0.0
1.8808478860233947e-5 -3.1327227543593845e-6 0.0
1.9108510928403363e-5 -3.2112840182879877e-6 0.0
2.9416248283011593e-5 -4.540031922304342e-6 0.0
2.00998754444071e-5 -3.2620443162878155e-6 0.0
2.974386207542516e-5 -4.4709163023690335e-6 0.0
2.057285608059845e-5 -3.1697530159413497e-6 0.0
1.197382358320017e-5 -2.0157416596806524e-6 0.0
0.00023214540227869826 -1.3474452986132181e-5 0.0
0.00013223615405993678 -1.4704226310231678e-5 0.0
8.105634648491756e-5 -1.4567188836419208e-5 0.0
0.00020128796313793925 -9.560461824079092e-6 0.0
0.00043001816078163307 -4.3990673093324753e-5 0.0
0.0004257392539718324 -4.322933726278454e-5 0.0
0.00035806460282722613 -1.5934374540598616e-5 0.0
0.00036582579834601946 -1.7609909953934902e-5 0.0
0.0003660292458215206 -1.3019381777713401e-5 0.0
2.947613440602248e-5 -2.799641953741984e-6 0.0
0.00017392523558682523 -3.748484872359131e-5 0.0
0.00012965854023573752 -2.785740220939652e-5 0.0
1.0987673385496544e-5 -9.674405784343099e-7 0.0
1.7257726068738072e-5 -2.258833350926021e-6 0.0
0.00011122377571034034 -1.4267635530290958e-5 0.0
0.0003001734598080371 -2.953700559318595e-5 0.0
0.0003086210500345131 -3.431860845229574e-5 0.0
0.0003436178263701699 -1.602576623680624e-5 0.0
0.0003629238819519218 -2.123184713134363e-5 0.0
0.00016701321259453123 -3.5622389215553943e-5 0.0
0.00017948982133128729 -3.941150349644349e-5 0.0
0.00018190058549271733 -3.896049014022375e-5 0.0
0.0004025691065622783 -3.838307506538148e-5 0.0
0.0004016216823870116 -4.367173307812175e-5 0.0
0.00039682882621417927 -4.662943990787404e-5 0.0
0.0004309928980976549 3.3862145871498473e-6 0.0
0.00042262938573282155 3.728488467823059e-6 0.0
0.0004133112667382477 3.506623540091283e-6 0.0
0.00041363534215773816 4.05079255609643e-6 0.0
9.725015157826865e-5 -1.3484334770076943e-5 0.0
0.0003975883669640161 4.499419480147364e-6 0.0
0.00038767547231596496 4.685417060363243e-6 0.0
0.0002792447459036934 -2.2328883956112125e-5 0.0
5.970436924324339e-5 -9.832807793999689e-6 0.0
5.387642888948049e-5 -7.892434690368095e-6 0.0
5.229659652774792e-5 -5.825451819480337e-6 0.0
4.7580096239790214e-5 -5.875074660753499e-6 0.0
0.00047843233096348913 -2.931810396174627e-7 0.0
0.0004598370968844585 2.402461392712194e-6 0.0
0.0004686029244726509 1.9091563283209122e-6 0.0
0.0003862829270775503 -4.9755024868458543e-5 0.0
0.00020052295064420915 -1.257635795880264e-5 0.0
0.000406204157402866 -4.1627934454700555e-5 0.0
0.00040539973191983607 -4.673585233635559e-5 0.0
0.0004097387276698097 -4.4737945564200156e-5 0.0
0.00040935684657160984 -5.0369534493038e-5 0.0
0.00041372352608023776 -4.7464295542109535e-5 0.0
0.0004143915722385716 -4.2349761177301024e-5 0.0
0.00041799982301387917 -4.527793695829231e-5 0.0
0.00021292137815711096 -4.3427329154549404e-5 0.0
0.00020770548777221447 -4.594946583084301e-5 0.0
0.00020248584355722467 -4.31777665075138e-5 0.0
0.00017338659168640168 -1.2414718217695092e-5 0.0
1.3597257953597942e-5 -2.006438443946242e-6 0.0
2.0763362541736348e-5 -2.727991444157012e-6 0.0
1.3723663114938259e-5 -1.5245916195994257e-6 0.0
0.00016431139813369847 -3.636356289032862e-5 0.0
0.00015997354985273875 -3.420024994069098e-5 0.0
0.0004469318022336002 -3.610407297895879e-5 0.0
5.1725507648396895e-5 -1.6922770441937385e-6 0.0
0.00024784918616468265 -5.758697365617287e-6 0.0
0.00024953528633474254 -4.3127099505919804e-6 0.0
0.00042609209745738324 2.759012325593929e-6 0.0
0.00044406074749471107 2.2138257681150755e-6 0.0
0.00040057947915815345 -2.501695570390314e-5 0.0
9.788445901718014e-5 -1.7108655434798568e-5 0.0
9.947173999080028e-5 -1.9545249615202223e-5 0.0
0.00033394086490876014 -1.5945680375667017e-5 0.0
0.00036610706696393007 -3.121408808798998e-5 0.0
0.00045807722466343617 -2.7803194101244685e-5 0.0
0.000468717180619556 -1.718437441068682e-5 0.0
0.0004773355147779354 -6.7982869787262255e-6 0.0
0.0003448164842158597 -3.3140066079083894e-5 0.0
0.00038707200592686796 -1.773112912701919e-5 0.0
0.00020471937260232206 -3.243018404468433e-5 0.0
0.0003953891498193506 3.3413060381495197e-6 0.0
0.0003741001609705443 -1.8206741280625555e-5 0.0
0.0001568312662995957 -2.241163384319539e-5 0.0
0.00010008376440009927 -1.501029897354234e-5 0.0
0.00044051960070864803 3.027647339435836e-6 0.0
0.00036310919238774183 -1.8345935060856172e-5 0.0
0.00016017067414360103 -3.6194522456932195e-5 0.0
8.844773834868219e-5 -1.2344380016765257e-5 0.0
0.0002600990309443454 5.110385676870082e-7 0.0
0.00037748830347296154 -4.420927033778122e-5 0.0
0.0003773234255381707 -4.944184750069242e-5 0.0
6.42962823772826e-6 -3.7675275602082687e-7 0.0
0.0002896171803235849 -4.3391111272586155e-5 0.0
0.00028857060613941615 -4.770241503067179e-5 0.0
0.00018238193385508575 -4.215550819798854e-5 0.0
0.0001850804678790099 -4.120609585377803e-5 0.0
0.00018464560823255958 -3.7895405426953025e-5 0.0
0.0001876957781486422 -4.0147871588628026e-5 0.0
0.00018540071469354583 -4.334870195400424e-5 0.0
0.00018555094341065947 -1.0327121291549856e-5 0.0
0.00017733355474367892 -1.0610579330837482e-5 0.0
8.738091560962666e-5 -8.869889660180631e-6 0.0
0.00020610211107848414 4.000327253941702e-5 0.0
0.000196622694402903 3.289377772673929e-5 0.0
0.0002919264915813852 -3.7543448439528264e-6 0.0
0.00036813645313005336 -5.0630975090838004e-5 0.0
0.0003629596106780996 -5.296006663790035e-5 0.0
4.841304513367484e-5 -8.18381905670679e-6 0.0
4.2203462602477947e-5 -5.919081692648409e-6 0.0
0.00047296953943075663 1.6497252497235216e-6 0.0
9.373290378414311e-5 -1.4156578098949526e-5 0.0
8.629179872299197e-5 -1.2962815604463204e-5 0.0
0.0004500972940356191 -3.707329627377082e-6 0.0
0.0004416264732582016 -3.47820691781106e-5 0.0
0.000438574276375714 -4.2685502419464724e-5 0.0
0.00026482331252181796 1.1614303421420777e-6 0.0
0.00030241438234988643 -4.82887857397948e-5 0.0
0.0002968212290239025 -5.0801013774782656e-5 0.0
0.000149638084186532 -1.6882321170216953e-5 0.0
0.0001509329912128292 -1.595929732092705e-5 0.0
0.00018788866409328542 -3.65545537200512e-5 0.0
0.00040498286532727334 -3.330428721729002e-5 0.0
0.00023926607145685781 -4.2195599314859435e-6 0.0
0.00023507109073322082 -4.779626638273077e-6 0.0
7.5142064846919296e-6 -1.0108483715243512e-6 0.0
0.00021215975028039536 8.370065927251936e-5 0.0
0.00022135958354116845 -7.694450134580808e-6 0.0
0.0001677598223807526 -1.0767240828159319e-5 0.0
0.00016766836784610844 -1.0882179150811651e-5 0.0
0.00011071175881690774 -9.97451133597291e-6 0.0
0.0002892475375896271 3.5533979844348125e-6 0.0
0.000208800262747422 -8.54905467387001e-6 0.0
0.00021063462117173123 -8.231710813462604e-6 0.0
0.00021637464708895945 -7.469774767721954e-6 0.0
0.0002180966029692321 -7.246576080587516e-6 0.0
0.00022372016343628922 -6.36189946922146e-6 0.0
0.00022557541735581738 -6.161337657830475e-6 0.0
0.000219786271292661 -7.101484622418683e-6 0.0
0.00022744780537133847 -6.053352739227807e-6 0.0
0.0002215654866697388 -7.010079329361368e-6 0.0
0.00022943794891178837 -6.0248453142357625e-6 0.0
0.00023068272860424414 -5.226853154622223e-6 0.0
2.3653759742455056e-5 -3.0274756812746466e-6 0.0
0.00028062919994677643 2.553435494200548e-6 0.0
0.00020302960166982968 -1.1508586814909868e-5 0.0
0.00023211923002919996 -5.273226152179131e-6 0.0
0.0002473688709242171 -9.211228758643185e-6 0.0
0.00024401545851550374 -9.786569054375486e-6 0.0
0.000247194195943817 -3.103429787388491e-6 0.0
0.00023127149117445635 -1.0030551525227842e-5 0.0
0.00024330305654316788 -9.513632034106167e-6 0.0
0.00025746156314340496 -8.832703593191994e-6 0.0
0.0002608896581503434 -6.814054399024024e-6 0.0
3.9071769424357655e-5 -5.802975371495075e-6 0.0
3.975781290259486e-5 -5.69962322268139e-6 0.0
0.0004715503313356166 -8.547329503453549e-7 0.0
0.0004500852614748222 -2.5930242773109283e-6 0.0
0.0004513352479022708 -3.4321630795240834e-6 0.0
0.0003530516423182753 -5.2930180516074836e-5 0.0
0.0003461525490162016 -5.473408795191485e-5 0.0
0.00013560732436807387 -2.1357810154962917e-5 0.0
0.000139799766370056 -2.1890349611103775e-5 0.0
0.00013113590099280188 -2.0903163238901684e-5 0.0
0.00015905316209700895 -1.0953524061595987e-5 0.0
0.00025789572755700445 -9.598709803468474e-6 0.0
0.00023544740597846838 -4.897660820119822e-6 0.0
0.00023709393958021584 -4.9704350333990595e-6 0.0
0.00023140018190819252 -6.133629418205333e-6 0.0
0.00023886627640964974 -5.165489801481601e-6 0.0
0.00023365265483938307 -6.239607042157346e-6 0.0
0.0001387968891904646 -2.869950923264745e-5 0.0
0.0004739166830189306 -1.5994635316952273e-6 0.0
0.0002530667236075063 6.283127169555547e-6 0.0
0.0002915276601028184 -3.7271074616993207e-6 0.0
0.0002907962342290527 -1.5519682472808662e-6 0.0
0.00028971282397866256 -2.0406289307336094e-6 0.0
0.0001794179114430073 8.04456438042161e-6 0.0
0.0002515568401469855 3.1953725678037827e-5 0.0
0.00023161837229594492 3.252962818024037e-5 0.0
0.0002297469329028751 3.688263021714736e-5 0.0
0.0003360723398284658 -5.276399412228907e-5 0.0
0.00039156951426756395 -4.791830007806945e-5 0.0
0.00039036863620882346 -5.356119875529292e-5 0.0
0.00013369783772759002 -2.9731855769269525e-5 0.0
0.00019095383272525193 -3.8693630686790015e-5 0.0
0.00019080174952518366 -4.2107659352880056e-5 0.0
0.00019404488361128593 -4.0691919138833424e-5 0.0
0.00019434439717948436 -4.444404067882925e-5 0.0
0.0003222919228124682 -7.138532885032416e-6 0.0
0.000313542373499347 -2.5845083739419245e-6 0.0
0.00032476795958015064 -2.132801480834908e-6 0.0
0.0003349867073138233 -5.8811238955340825e-6 0.0
0.000255666252082999 -3.0011762477883192e-6 0.0
0.00025204358691070485 -2.9614124488812217e-6 0.0
0.00019758961664149781 -4.258860063254782e-5 0.0
0.00015983463927593045 -1.222448977350455e-5 0.0
5.6255730096406e-6 -1.9362582406094255e-7 0.0
0.0002262094787143981 -9.52447280944337e-6 0.0
0.00023513948341009365 -8.576437799043133e-6 0.0
0.00023313109671714566 -8.086169739260454e-6 0.0
0.00024393012333534558 -7.260280464478546e-6 0.0
0.00024136744425126222 -6.794858265264776e-6 0.0
0.00024604579068628795 -7.80930202887552e-6 0.0
0.00023245148401973282 -7.5637765548584134e-6 0.0
0.00023928243154653123 -6.416914292744344e-6 0.0
0.0002535947332290892 -6.290304423058304e-6 0.0
0.0003042113390461217 -2.963304545496862e-6 0.0
0.00023119956333299602 -7.161855581764732e-6 0.0
0.0004798446591794817 8.185419750997208e-7 0.0
0.00019368951092816082 -1.0555308009796934e-5 0.0
0.00021310676761635697 -2.7368375418143448e-5 0.0
0.0002194873810237817 -2.5572685648563243e-5 0.0
0.0002379661017944097 -9.001650281433302e-6 0.0
0.0002498082475621598 -8.234515597156659e-6 0.0
0.00026569673650977737 -3.358529379131824e-6 0.0
0.00034126564760046614 -3.975393424029338e-5 0.0
0.0003356307793613184 -4.285036895313434e-5 0.0
0.00033573732520416076 -4.834929754094832e-5 0.0
0.00033066074425428215 -4.572896030604312e-5 0.0
0.0003310420103390456 -5.057392846120474e-5 0.0
0.0003259200075430003 -4.826262777793689e-5 0.0
0.00037937874878651303 4.758697642211225e-6 0.0
0.00037082114392446243 4.906912244522757e-6 0.0
0.00037526872539164595 4.900076756188707e-6 0.0
0.0003626510308935942 4.982882224097015e-6 0.0
0.00036669311291033095 4.962880327143104e-6 0.0
0.00035437969155846787 4.975779331338945e-6 0.0
0.000358554105846054 4.909982822414845e-6 0.0
0.0003502935558753228 4.9748528189706635e-6 0.0
0.00034256938181500743 4.905596494326731e-6 0.0
0.0003703573145051197 4.894977506023618e-6 0.0
0.00033857001485424387 4.889820647088392e-6 0.0
0.0003620877743693115 4.767829117427698e-6 0.0
0.000351049908372865 4.679941053852919e-6 0.0
0.0003539735499950669 4.3019965401475525e-6 0.0
0.00034626162303793304 4.922882737524057e-6 0.0
0.0003659108045816384 4.895455382261312e-6 0.0
0.0003738748950714492 4.766336652204027e-6 0.0
0.0003890293367254601 4.7065409416864685e-6 0.0
0.00038131715021611065 4.813742691508961e-6 0.0
0.0002798438394204336 -9.547544468999605e-8 0.0
0.00023341297848851402 2.718187363645707e-5 0.0
3.1391810773446025e-5 -4.329860633345655e-6 0.0
2.2936265021835642e-5 -2.2469423822038286e-6 0.0
2.9858394764183203e-5 -3.8913281177591445e-6 0.0
0.00019780536835251855 -3.8941357218116874e-5 0.0
0.0002715436257644155 -4.024749332436454e-6 0.0
0.0002771648895818852 1.7242937508033376e-6 0.0
0.0002718379173697675 8.977233628141322e-7 0.0
0.0002741987940092994 8.844297500315669e-7 0.0
0.0002702966546094002 1.0622540155210872e-6 0.0
0.0002736624200404981 1.8657829212871444e-6 0.0
0.00026833321882819395 1.1235474303653603e-6 0.0
0.00026637543577960143 1.0841210255437908e-6 0.0
0.00026345410991647 3.3344308979588696e-7 0.0
3.518028410686443e-5 -2.7152570945804455e-6 0.0
0.00029475396349806825 3.254858145763069e-6 0.0
0.0003481361891511143 3.0811354816121608e-6 0.0
0.00033334693524454066 2.9896526683300106e-6 0.0
2.2303790689704208e-5 3.9931948935036523e-7 0.0
5.822488403617638e-5 4.150637339067642e-6 0.0
5.201540019887914e-5 1.3296097497819618e-6 0.0
0.0002976861072292775 3.8727179584684655e-6 0.0
4.881227843933807e-5 -3.980461852879501e-6 0.0
5.696021486940902e-5 -5.763123175372805e-6 0.0
6.227552849612658e-5 -6.3558594172400196e-6 0.0
6.231994932914314e-5 -5.945826559783019e-6 0.0
6.774312425370439e-5 -7.542120950144609e-6 0.0
0.00021824245674846983 -8.131887720692337e-6 0.0
2.94902407910953e-5 -3.2470272587918877e-6 0.0
0.00011338134221066827 -1.3035383581442859e-5 0.0
9.611085310728628e-5 -1.2233655366522406e-5 0.0
0.00025231412853248046 -8.672573369632605e-6 0.0
0.00010195561898608795 3.1760930427701384e-5 0.0
0.00032746585609300696 -3.822929317949036e-5 0.0
0.00028842660881920403 2.924926210884559e-6 0.0
0.00044996795136336245 -3.6763688017085395e-5 0.0
0.0003470561534461424 4.847656073486596e-6 0.0
0.0003355948328715362 4.711026380842109e-6 0.0
0.00034091109934553224 -5.1512828709221394e-5 0.0
0.0004816568024156927 8.137225727993171e-7 0.0
0.00046569914650562797 1.6454387446273053e-6 0.0
0.0004692234785188535 1.5379213349979994e-6 0.0
0.0004629301186416971 1.6982744793043827e-6 0.0
0.00045237585450675136 2.428006233711973e-6 0.0
0.00046100092305873647 1.654021208274654e-6 0.0
0.0004448903653640908 2.568331102506826e-6 0.0
0.000448133753169449 2.531921011510579e-6 0.0
6.081598929761156e-6 -1.1264743051796798e-6 0.0
0.0004899820481968825 6.391745852511103e-7 0.0
0.00047909340270582164 1.2935358011735722e-6 0.0
0.0004846735746429 8.953694156020767e-7 0.0
0.00048055440596970887 1.0633813619389471e-6 0.0
0.0002895668895688381 7.441522902131905e-7 0.0
0.00035842409037824697 -4.9702694586618676e-5 0.0
4.1795681093594715e-6 -5.479983773099762e-7 0.0
0.0004923771344151801 -1.9523856826057564e-7 0.0
0.00019381626425956844 -1.263490690619248e-6 0.0
0.0003685199825298754 4.4084275725299424e-6 0.0
0.00015972941804967008 -1.0707162252603935e-5 0.0
0.00017132689865196918 -1.075478233687173e-5 0.0
0.0001727413086380561 -1.0493284810910014e-5 0.0
0.00016980169630061916 -1.0748788046118027e-5 0.0
0.00017957261519164396 -1.0716244523119489e-5 0.0
0.00018374217943012118 -1.0710088196183903e-5 0.0
0.00018478209289889114 -1.0422061274631373e-5 0.0
0.00017475488175330422 -9.581123851136099e-6 0.0
0.0001660428485961766 -7.309469388690007e-6 0.0
0.0001594804855343414 -1.073358707616871e-5 0.0
0.0004015382985356456 -4.888474114030043e-5 0.0
0.0004797205566229204 2.8878482527604285e-7 0.0
0.00018835422342478554 -3.3248983152475146e-5 0.0
7.734353944025872e-5 -1.5126885740577187e-5 0.0
0.00020433128754918537 -2.9541728243290656e-5 0.0
0.00017019240872773858 -3.5279823043748334e-5 0.0
0.00017075812649800445 -3.76714836345856e-5 0.0
0.00024454379949083205 -3.8857328960554195e-6 0.0
0.0002972852641403926 4.0361533725920644e-6 0.0
0.0004099444677374143 -8.847404580613755e-6 0.0
0.00041393273970712655 -7.0117871142631985e-6 0.0
0.00039717345334185664 -6.897307944214067e-6 0.0
3.963243084253401e-5 -5.861812070009673e-6 0.0
7.215766856864413e-5 -1.4814209431273404e-5 0.0
0.0002456435886848767 5.595736795210957e-5 0.0
0.00022233684850174462 5.4644760261564275e-5 0.0
0.0003626564527600521 -3.032845733878084e-5 0.0
0.00022750944633204417 1.7301165641894155e-5 0.0
0.0004289266375563686 -2.8817290159232902e-5 0.0
0.00020600279847854627 -2.185466623198465e-5 0.0
0.00035052489227661095 -4.61347508812155e-5 0.0
0.00035636619259068287 -3.78698206748205e-5 0.0
0.0001801640091631001 -4.964718984211368e-6 0.0
0.00013042817024404822 -2.995745229682068e-5 0.0
0.00042585301156973623 -3.68997019514525e-5 0.0
8.520833066322208e-5 -1.4510238196393533e-5 0.0
8.97495537974486e-5 -1.6485473917398847e-5 0.0
8.718017242298372e-5 -1.7307546056427996e-5 0.0
0.0001316296211946986 -1.3164431019423967e-5 0.0
0.0002692923337211841 1.743095728463654e-6 0.0
0.0002914697090333677 3.6641902538107195e-6 0.0
0.00019775719164447382 -9.518950616203264e-6 0.0
0.0002043868156590409 -8.912813561965458e-6 0.0
0.00047496126270651364 -1.946650771839125e-6 0.0
0.00044905697734076196 -5.681638284935492e-6 0.0
2.7681471807049296e-5 1.027874084414546e-6 0.0
5.892791132189306e-6 -1.0732970588190867e-6 0.0
0.00023293116771818542 -5.024213287822159e-6 0.0
8.418995591913593e-6 -1.4469928451013941e-6 0.0
2.157756416926485e-5 -3.00533253078551e-6 0.0
0.00020279257850474878 -2.7545316278305227e-5 0.0
0.0003291733579475883 -5.345675359807e-5 0.0
0.000255726610986583 2.6263560074845906e-5 0.0
0.0002834190813950556 -3.2921837490518382e-6 0.0
0.0002420043540489828 -5.164957802906512e-6 0.0
0.00037374054659819174 -9.454919514727689e-6 0.0
0.00044667477795009127 -2.593716562493301e-5 0.0
0.00015192856239012686 -2.2480714072343503e-5 0.0
0.00015199856112141808 -2.3379280838832608e-5 0.0
0.0001472384271824502 -2.2307396632828386e-5 0.0
0.00014227827997684395 -2.131959498316778e-5 0.0
3.7825187723851485e-6 -3.688403639178259e-7 0.0
6.611437616609052e-6 -3.080351692375642e-7 0.0
8.377782304357712e-6 -6.582253525056212e-7 0.0
0.0001371749255997353 -1.712258094080901e-5 0.0
0.0001307379810897503 -1.719164722284579e-5 0.0
0.0004909686543252855 5.23012553239601e-7 0.0
0.00024920623532583073 -4.6942919849944504e-5 0.0
0.00024335396558311607 -4.344772908691625e-5 0.0
0.0002432239950275599 -4.960112928150693e-5 0.0
0.0002374666511560821 -4.6069202388526384e-5 0.0
0.00023160560176370667 -4.8380618883150986e-5 0.0
0.0002310119831321882 -4.21509606909083e-5 0.0
0.0002431688815570932 -3.7540369313142455e-5 0.0
0.00034547967091414313 -4.257529985402268e-5 0.0
7.597915627718105e-5 -7.739619247074925e-6 0.0
8.545260743064426e-5 -9.23124697577756e-6 0.0
7.565561746226503e-5 -8.629331763257242e-6 0.0
0.0002902557483601688 -2.2656179317015897e-6 0.0
0.00016084154941819714 3.4858035750840294e-5 0.0
0.00023990153169123663 -5.863397095769374e-6 0.0
8.238365639800035e-6 -1.5441273456069365e-6 0.0
0.00015634515173848745 -3.4245654533168206e-5 0.0
0.0001523476009347581 -3.396033913352002e-5 0.0
0.00015301728879162516 -3.221928321967997e-5 0.0
0.00016955251268987504 -3.2613418926609366e-5 0.0
0.00015262447129253388 -2.1402871507321445e-5 0.0
7.993219131786046e-5 -1.1470982566971263e-5 0.0
4.754606868637666e-5 -6.59030021352618e-6 0.0
0.0004847350528036106 7.458806270147267e-7 0.0
0.0004730162959827597 1.421339342843357e-6 0.0
0.00010738482298366294 -2.1525883769048284e-5 0.0
0.00012501360670459435 -2.5719790454740896e-5 0.0
0.00012119035670871741 -2.5831436932159894e-5 0.0
0.00011628283297737816 -2.3656913973658518e-5 0.0
0.00011707719056206716 -2.5741320268951448e-5 0.0
0.00031750359783011686 -4.246456723348451e-5 0.0
0.0002657030896532731 1.5903040935585884e-5 0.0
0.00030740592013257193 -4.649347505976056e-5 0.0
0.0003121587048770016 -4.96116149607766e-5 0.0
0.0003168325910337212 -4.782565855683943e-5 0.0
0.0003068040902115973 -5.186491568497319e-5 0.0
0.00016177476533286986 -2.2441680609586e-5 0.0
0.0002634144380924136 -2.091219999022374e-5 0.0
0.0002430192946367262 2.2872176984473996e-5 0.0
0.00022183635161766654 -8.684900326495787e-6 0.0
0.000492342362946038 -5.805827493460069e-7 0.0
0.0004854678233610541 -2.2400975136713593e-6 0.0
0.00048319192841519027 -1.444129970253312e-6 0.0
0.00011231817000088248 -2.3670648031651773e-5 0.0
0.00010844104018058435 -2.3585547748637885e-5 0.0
0.00016680813386219965 -1.078329243474868e-5 0.0
0.00013733042070348799 -2.1060974085496422e-5 0.0
0.0004459542663561234 -6.795129959901646e-6 0.0
0.00037569791798700215 -2.4050802419218397e-5 0.0
0.0002282472668007087 -5.5338705846740465e-6 0.0
0.00023500262483622527 -4.348499893309624e-6 0.0
0.00029563520452988493 -1.9727693827068362e-5 0.0
0.00034784717898821165 -3.196810015761467e-5 0.0
0.00020050991525236942 -2.322734816601751e-5 0.0
0.00019971234129543901 -2.5106376440284357e-5 0.0
7.207849896348775e-5 3.2063808877208487e-7 0.0
0.0001274191660535742 -1.9613833745155987e-5 0.0
0.00012258172295465913 -1.8662969742048637e-5 0.0
0.00011730856099248301 -1.7543941323433546e-5 0.0
0.00011778900624752236 -1.789975123707486e-5 0.0
0.00011200406749210031 -9.740536631644101e-6 0.0
0.00011336640247041814 -9.662275543982135e-6 0.0
0.00012126934724459139 -1.0689690322102625e-5 0.0
0.0003118117939250566 -5.451109339480287e-5 0.0
0.00029404510912472737 -2.3456686056408664e-5 0.0
0.0002879536206237248 -2.5024501052273287e-5 0.0
0.0002952164185225655 -2.9692815749081e-5 0.0
0.00028911664733752236 -3.1332208065945174e-5 0.0
0.00029415032900684035 -3.4643045701462905e-5 0.0
0.0003006156431114714 -2.7012079028056382e-5 0.0
0.0003065740855660564 -2.9991574723522928e-5 0.0
2.1821485381294486e-6 -2.0830415777346265e-7 0.0
0.0004925345473049412 -1.2769287006484405e-6 0.0
0.00039290171549592295 -4.261175763147055e-5 0.0
0.0002789823441178032 -4.670249580518745e-5 0.0
0.0004506838996313374 -4.700718892454438e-6 0.0
0.0002677271547304218 -3.962728983584466e-5 0.0
0.0002674217152130194 -4.5304845073729166e-5 0.0
0.00034738823174164667 -1.2281630536125982e-5 0.0
0.00030848299125325255 7.371909278286419e-7 0.0
0.0003026626922073904 1.2185730323636654e-6 0.0
0.00015813798771259664 -2.9208631761052088e-5 0.0
0.00010254755413257695 -1.4234659093489285e-5 0.0
0.00034273672411815694 4.077022416963908e-6 0.0
0.0003768434189004569 -3.817441014881514e-5 0.0
0.00017428948741932137 -1.7735326176954477e-5 0.0
0.0001793361167666775 -1.7019047844139082e-5 0.0
0.00017824377057082565 -1.8211806408607054e-5 0.0
0.0001806066797177507 -1.585296256697067e-5 0.0
0.00017333616916384348 -1.8888182661447606e-5 0.0
0.00018425597294995655 -1.63275564691007e-5 0.0
0.00018587040905105118 -1.5173387257710754e-5 0.0
0.0001883729570767302 -1.3906681098492281e-5 0.0
0.00034789532621296607 -1.979271020602769e-5 0.0
6.1678752809316e-5 4.890073340042183e-6 0.0
0.00033135955131808855 4.768086347861654e-6 0.0
0.00036539522145941143 -8.259971118962618e-6 0.0
0.00011828741692488051 2.424017294042931e-5 0.0
9.071724601270803e-5 -8.304797450428478e-6 0.0
0.00012350297115394188 -1.015477911856289e-5 0.0
9.188692440720749e-5 -1.1799418109337749e-5 0.0
0.00017600935493458858 -1.5550477690119172e-5 0.0
0.00014518996968471086 -1.5271011300050664e-5 0.0
0.0001535148458221531 -1.502285362511089e-5 0.0
0.00015780168612085664 -1.5782762040543845e-5 0.0
0.00021861787728677442 -4.136734106956188e-5 0.0
0.00022497557963662863 -4.443248504163282e-5 0.0
0.0002251071973510952 -5.149257465412994e-5 0.0
0.00023108604948829812 -3.6984376309982534e-5 0.0
0.0003701473777630715 -3.942319967732395e-5 0.0
0.00018746071483328607 -1.0944986669165498e-5 0.0
0.0003349459080145519 -4.8466732405320265e-6 0.0
0.00016911357273732797 -3.0158711597253753e-5 0.0
0.0002431796431061499 -3.2722054965005566e-5 0.0
0.00017688369257665723 -3.972904740122083e-5 0.0
0.0004329824969980233 2.997696430091688e-6 0.0
0.00023395665377182984 -7.326709981444454e-6 0.0
7.261827320410451e-5 -1.0257200148093886e-5 0.0
0.0001793830703293332 -2.374534035087087e-5 0.0
0.00018299580457302372 -2.446001703860621e-5 0.0
0.00017179318418191419 -2.2342236672838988e-5 0.0
0.00017860289690131093 -3.347385495088839e-5 0.0
0.0002725135033732045 -1.263672019974975e-5 0.0
0.0002660264820109572 -1.3634245453261144e-5 0.0
0.000271883059269027 -1.4669401491178153e-5 0.0
0.0003275652162884569 4.745153432373842e-6 0.0
0.00020698699368685279 -2.0276621735945416e-5 0.0
0.0001632345062388604 -2.0907917979575033e-5 0.0
0.00027089962925535627 2.0172731349746506e-6 0.0
0.00026883952473548043 1.5387953042088933e-6 0.0
7.46338681848049e-5 -8.444582976713339e-6 0.0
0.00013806668158398885 -2.6537245753109455e-5 0.0
0.0003170545534799565 -4.253052699795598e-5 0.0
0.0002787480799913127 1.6136633403754295e-6 0.0
0.0002397174063218668 -1.9259070096844266e-5 0.0
0.00023330524416907624 -2.0402400996226674e-5 0.0
0.00023244870381914105 -2.2520284150104346e-5 0.0
0.00022682534844566777 -2.1701275243724816e-5 0.0
0.00022598489036851496 -2.401617006594303e-5 0.0
0.00023812227981066694 -2.3532251922036814e-5 0.0
0.0002899259878999163 2.8019631368295126e-6 0.0
0.00019474727275674617 -1.8518518592637967e-5 0.0
0.00018976936475880178 -1.9581927332327407e-5 0.0
0.00026098941437077727 -1.0674092352889162e-5 0.0
0.00016723973890640084 -2.2695570900415208e-5 0.0
0.0002615094254605256 -4.781551268776063e-5 0.0
0.0001961472138770559 -2.2869303875564144e-5 0.0
0.00022785171271674318 -1.9819479309501656e-5 0.0
0.0003357354553981194 -5.346548664847381e-5 0.0
0.00021639349664680853 -1.0681437890010457e-5 0.0
0.00045284040023697706 2.620306795626033e-6 0.0
0.00023100895331352783 -1.5060928234709965e-5 0.0
0.00012245516307352803 -1.7678333572294914e-5 0.0
0.00027108900659604464 4.2509265299391345e-6 0.0
0.00032868612644024897 -3.2911661642678583e-5 0.0
0.00043112432127464715 -5.894727199372743e-6 0.0
9.475186428360515e-5 -7.91017583757998e-6 0.0
9.805267094496612e-5 -6.868362423529746e-6 0.0
0.00010671209282579892 -8.910391709388688e-6 0.0
0.00011258570988103046 -8.391318235629765e-6 0.0
0.00012111857282646134 -9.437990937489323e-6 0.0
0.00032476295678588775 4.519513499717953e-6 0.0
0.00018811029128048315 -4.349242325359355e-5 0.0
0.00022278339697986228 -9.183612751056504e-6 0.0
1.688170240069714e-5 -2.617857344166641e-6 0.0
0.0002459605669158318 4.1789919616465175e-5 0.0
0.00022580395068387126 4.064800599519724e-5 0.0
0.0003071867610667104 2.6325543603836064e-7 0.0
0.00018512788126371672 -3.151137573630527e-5 0.0
0.0002037900536959213 -3.9047350206204646e-5 0.0
0.0002002371266479168 -1.0028611558311826e-5 0.0
0.0002554770990658573 -9.904539930413906e-6 0.0
0.00024979994677762503 -9.23009621703335e-6 0.0
0.00025152950946482575 -7.343836463083491e-6 0.0
0.0002885868788545218 -5.491877355149048e-7 0.0
0.0001792292421091062 -2.5217940593075794e-5 0.0
0.0001390770649126912 -1.4581979806188642e-5 0.0
0.0001864054829079227 -1.8006586452822448e-5 0.0
2.9210360372114443e-5 -3.345312983849509e-6 0.0
0.0002572186888382574 8.011514983263178e-9 0.0
0.00011522654846491103 -2.1408516279761552e-5 0.0
0.0002445735224995182 -1.0842420926545947e-5 0.0
0.0001590496191215706 -3.1732615857264166e-5 0.0
0.00032162810562900784 -9.122845372203831e-8 0.0
0.00022284272017429916 -1.3104935175856716e-5 0.0
0.000220468606581172 -2.315132094506288e-5 0.0
0.00041407368156533655 -1.5394040769560734e-5 0.0
0.0001039068184585816 -2.1515059071524527e-5 0.0
0.0004527946683470568 -3.806546297399999e-5 0.0
0.00019479048802611542 -1.3370215658746545e-5 0.0
0.0002200496817855072 -1.61172111716801e-5 0.0
5.5742749646999156e-5 -7.7303553404369e-6 0.0
0.00041306510660188737 2.1198206177649624e-6 0.0
0.00025614151776041645 -2.474239051807182e-5 0.0
1.652677353728987e-5 -2.656108431536256e-6 0.0
0.00024546394049417187 -2.8431022321786973e-6 0.0
0.00024396154764977384 -3.5855267235632548e-6 0.0
0.00044586667709408545 2.8580679723268104e-6 0.0
0.0002557506339131907 -5.0537617811143126e-5 0.0
9.783005267886629e-5 -1.3363867560559161e-5 0.0
0.0004729939505637184 -3.902784408467291e-6 0.0
0.0002464541144526401 -7.122244134415537e-6 0.0
0.0002290226988747072 -1.1682806234107468e-5 0.0
0.0002824069126529271 -2.0327591505384695e-5 0.0
0.00027637951946705064 -1.9299567719831005e-5 0.0
0.00025781067029120283 -1.9834804883889332e-5 0.0
0.0002211100386928625 -1.0429868006687558e-5 0.0
0.00026952298195886926 -5.4686752796237515e-5 0.0
0.0002929923963981215 -5.558050478974765e-5 0.0
0.00019699599985433487 -4.742783800668849e-5 0.0
0.00021124731619925565 -5.117695824102196e-5 0.0
0.00032423536586452463 -5.6849523274759214e-5 0.0
0.00032149670551594325 -5.149304453360307e-5 0.0
0.0001714940622930665 -3.9654811923067566e-5 0.0
0.00014269746044599923 -3.323957414497491e-5 0.0
0.000281538693243016 -5.5173414695358214e-5 0.0
0.00017885938467860835 -4.21195091515532e-5 0.0
0.00020706823571250881 -1.0274776380167892e-5 0.0
0.00039958435047377904 4.532426049323835e-6 0.0
0.0003256828524836034 -1.713128233563343e-5 0.0
0.00032426154889586784 -1.9239336619032422e-5 0.0
0.00017733402618938255 -1.946308599064075e-5 0.0
0.0002804361139195587 -7.0431195038775216e-6 0.0
0.00021955553396725447 -2.8300037065262118e-5 0.0
0.00013169943385153872 -2.327012811636369e-5 0.0
0.00010536430825878685 -1.587475682956812e-5 0.0
0.00020135693212294125 -1.600519445892471e-5 0.0
0.00040870393368629495 3.0633880137241164e-6 0.0
0.00019466223994903272 -1.0597850277761936e-5 0.0
0.0002292566803240915 -7.648231072785936e-6 0.0
0.0002602881843583699 -1.2779264702501675e-5 0.0
3.576902126442859e-5 -4.1273097085704194e-6 0.0
3.6562559575957124e-5 -6.087522397023995e-6 0.0
0.0001942117896923841 -2.659911626587316e-5 0.0
0.0001722930896759517 -2.6338884030366154e-5 0.0
0.00023627463853175034 -1.5450803452424308e-5 0.0
0.00044986185186635856 -4.102251474387428e-6 0.0
0.0002491086183838619 -3.529794686840012e-5 0.0
0.0004823566322719607 -5.332415836307464e-6 0.0
0.000470485475621588 -1.793812879289862e-5 0.0
0.00015199827549740948 -1.2002203272650939e-5 0.0
0.00020479116575230257 -1.7311156946191673e-5 0.0
0.00021162842454235488 -2.0486091367946547e-5 0.0
0.0004583455554661637 1.0824144805522638e-6 0.0
0.000270171867205716 -8.185035671282226e-6 0.0
0.00031210346510446806 -2.8535348017245915e-5 0.0
0.00031799895815978014 -1.9783471678654475e-5 0.0
0.00014047154775762773 -3.102270750731048e-5 0.0
0.000290724542370675 -1.4032971132546067e-5 0.0
0.0002071917943086486 -1.466373864618212e-5 0.0
0.0003037186088300842 -1.175948053461427e-5 0.0
0.000302851946962968 -1.4341114546229934e-5 0.0
0.0003103510902162662 -1.0365266621542935e-5 0.0
0.00012151168817334422 -2.7848796143350358e-5 0.0
0.00035965826932733003 4.808804615194315e-6 0.0
0.00027304007738116604 -4.9513340821725095e-5 0.0
0.00039448498252015363 -5.126757138478396e-5 0.0
0.0003427052143656694 -6.380354625525547e-6 0.0
0.0002373735318194247 -4.034508288362388e-6 0.0
0.0002905283760396025 -3.768880295586669e-5 0.0
0.00018264887415868662 -2.6062890418579373e-5 0.0
0.00019809157869015557 -1.3749736261903136e-5 0.0
0.0004379270199971818 3.1069130656084535e-6 0.0
0.00012080065363577126 -1.3924953924470693e-5 0.0
0.00032779888031607375 4.342367209431073e-6 0.0
0.00024307785830111146 -3.2138381684024817e-6 0.0
0.00028618588298864607 -8.000383717618546e-6 0.0
0.0004166788295757793 4.137855860197671e-6 0.0
4.8622255799502616e-5 -7.110032652784738e-6 0.0
0.000335987780876295 -2.2735629667312186e-5 0.0
0.0002773767356705831 9.392547891447578e-8 0.0
0.0002745339803133622 -1.405903750050283e-8 0.0
0.00027855602212763296 -3.0312040766573396e-5 0.0
0.00025335138865995976 -1.5651662831272867e-5 0.0
0.00026211959938460207 -2.6745973282091052e-5 0.0
0.00034765428328442497 -3.731118859276265e-5 0.0
0.00033516982064642545 4.74676728010898e-6 0.0
0.00026907142790579794 -7.134148205956398e-6 0.0
0.00030813479051312463 -2.3150469436111684e-5 0.0
0.00040580533293095035 -2.6989840532408735e-5 0.0
0.0004069213758353838 -2.0937339079561998e-5 0.0
0.0002512694184082626 -3.877525911286697e-6 0.0
0.00016116281316902258 -2.55817654605269e-5 0.0
0.0003251177425428027 -4.505803251213422e-5 0.0
0.0002638779260182113 -6.177540639703075e-6 0.0
0.000289885699186089 -1.611996315621023e-5 0.0
0.00047275544865311894 -7.828983267890356e-6 0.0
9.345626956191227e-5 -1.4622923432691888e-5 0.0
0.00028195784854662695 2.1103877588182482e-6 0.0
0.000257760746705812 -4.822810644104239e-6 0.0
0.0002529409528077813 -4.138179422341338e-6 0.0
0.00010541837057716422 -9.13179191780633e-6 0.0
0.0004227892275824333 -9.334591440950538e-6 0.0
0.00025555922456494366 -5.624355754763005e-7 0.0
0.00042078690032566974 -1.7157928618454287e-5 0.0
0.00015675100862716892 -2.4428388049102604e-5 0.0
0.0003676926154271341 -5.647480498822302e-5 0.0
0.0003783979278197952 -5.718203263945054e-5 0.0
0.0001446337778173534 -2.398617558499627e-5 0.0
0.0003009109394672587 -1.8308372491719732e-5 0.0
0.0001931963534434105 -4.6480850602879347e-5 0.0
0.0002903360283891714 3.738538176764576e-6 0.0
0.00010015716052371542 -2.262937092995121e-5 0.0
0.00026771151122992467 -9.11986104443353e-7 0.0
0.0002593078401140187 2.3884330209998366e-7 0.0
0.0002671433386163763 1.1636634167062779e-7 0.0
0.0002655827931492559 -1.5579742588489917e-5 0.0
0.0003237296777347565 -2.1563851961458643e-5 0.0
6.0693845305028355e-6 -1.6839308337919087e-6 0.0
1.588520776165517e-5 -3.5745707286212887e-6 0.0
2.1518571502018405e-5 -4.732603064849299e-6 0.0
0.00043907069745813775 -4.819107605459615e-5 0.0
3.4055529429545294e-5 -7.751300854598525e-6 0.0
0.00014784118356943215 -2.3138191006355258e-5 0.0
8.443659350814189e-5 -5.134620325122968e-6 0.0
0.00039957673797158744 -5.6431183094012705e-5 0.0
8.638374875639325e-5 -1.9183831901082342e-5 0.0
9.582027337058812e-5 -2.1555076151217757e-5 0.0
0.00043514964372117675 -4.987157843735666e-5 0.0
0.0004267247955689318 -5.298622485065119e-5 0.0
0.0002539713778923865 -1.9246638829048595e-6 0.0
0.00018167430840134536 -3.5737167031080685e-5 0.0
0.0003339546750559468 4.799479369704323e-6 0.0
0.00040729892035205786 -5.550530688955166e-5 0.0
0.0004111578791479676 -5.5320377691549015e-5 0.0
7.663226032324879e-5 -1.718514868749944e-5 0.0
5.1722524488279383e-5 -1.1385550424795681e-5 0.0
0.0004190018151961008 -5.432394931842348e-5 0.0
0.00042138928515227396 -4.8250072709313695e-5 0.0
0.00028428709384090665 -5.046484975917011e-5 0.0
6.286153327885409e-5 -1.3983845299990364e-5 0.0
0.00035038499136224937 -5.842972725550116e-5 0.0
0.00010406374964704417 -1.526084979616294e-5 0.0
0.00038959177178444744 -2.8896034925323822e-5 0.0
0.00014749122016615766 -3.2604475806133156e-5 0.0
0.0003654393433773143 -3.603185468305888e-5 0.0
0.00035826538098478525 4.958179726001199e-6 0.0
0.00014817704728619188 -1.8635468603970704e-5 0.0
0.00010601618742645517 -1.6137210567153125e-5 0.0
0.00017559651110045832 -2.7458477625597713e-5 0.0
0.0002249379900457109 -1.6320845441492516e-5 0.0
0.00038485299447706323 2.1784072451944556e-6 0.0
0.00023706351974400454 -3.980877336623446e-5 0.0
0.00025901746411013526 2.266310883669912e-7 0.0
0.00027194292964012704 -1.1117813995311494e-6 0.0
0.0003055781370578099 -6.13057572182992e-6 0.0
0.0003617803614940559 -2.4580253346353328e-5 0.0
0.0001620168854548073 -9.843172252260827e-6 0.0
0.00029541447219714486 -4.638300403864321e-6 0.0
0.0001590337023735326 -1.8164470016247674e-5 0.0
0.00039177026659320286 -2.0181661812399854e-5 0.0
0.00012429883314134406 -9.6662448891019e-7 0.0
0.00010689987054468856 -4.562791283278615e-6 0.0
0.0002251238990413485 -7.183808244675157e-6 0.0
0.00040601904279271824 4.2794914659095034e-6 0.0
0.00027554243231441434 -1.0071764283127395e-5 0.0
0.0002506631718226509 -1.2255213970264327e-6 0.0
0.00043754320218345843 2.122283566213034e-6 0.0
0.000137560675622617 -1.8814937177977204e-5 0.0
0.00016795909059965616 -1.3161583205401109e-5 0.0
0.0003286435752490434 -7.691546207831755e-6 0.0
0.0003735973913946287 -2.5435572173269647e-5 0.0
0.00012175038228716104 -1.831397897069887e-5 0.0
7.672133640184251e-5 -8.673279643575459e-6 0.0
0.0003559184498845273 -2.2426776288855953e-5 0.0
0.0001749443912613906 -1.1011719323987446e-5 0.0
0.000346103624406465 2.4718689234371143e-6 0.0
0.0004854064574712745 -2.916454125000437e-6 0.0
0.00037856818583077896 4.867424828729177e-6 0.0
0.0002818220326742776 -1.9324232658767565e-6 0.0
0.0002828781997061875 -2.1938624340933263e-7 0.0
0.0002855099864497429 -1.5024468504698264e-7 0.0
0.00042103297184985597 3.670185358171989e-6 0.0
0.0004122546000630897 3.6495930613355854e-6 0.0
2.0300035490302485e-5 -1.2789069102967714e-6 0.0
1.4183262829229978e-5 -1.0111590242065816e-6 0.0
0.00018484994251546217 -3.4454956241558856e-5 0.0
0.0002962561612825123 -1.5274879029764315e-5 0.0
0.0001854908836403521 -1.2113433481038391e-5 0.0
0.00018654374341184985 -1.1470707429427633e-5 0.0
0.0001929043050645385 -9.93105975550164e-6 0.0
0.00023183811491247314 -2.5126876552381697e-5 0.0
0.0002757633279781054 1.2008118432415163e-6 0.0
9.72704061944432e-5 -9.85522995335562e-6 0.0
0.0003181429471192288 4.1115874958416134e-6 0.0
0.00028744546983154557 -2.684250536069089e-6 0.0
0.0002002102858599982 -1.729437845873819e-5 0.0
9.998293852227415e-6 -1.5243439958892673e-6 0.0
0.00022615639119070936 -1.4775936520730652e-5 0.0
0.00043513988959822004 1.6131037945459422e-8 0.0
0.0003609812435480498 1.5216247621494998e-6 0.0
0.00034007606678729724 4.543905347421912e-6 0.0
0.00041225289078606275 -1.3095064825700296e-6 0.0
0.00029528403123713033 3.4576381671328823e-6 0.0
0.00019519295215624617 -1.0371311948092174e-5 0.0
7.238578005208898e-5 -9.82527028575576e-6 0.0
0.00021880332812014973 -7.179116412131474e-6 0.0
0.0002578732101528102 -1.806750239499224e-6 0.0
8.454186749521588e-5 -1.2410740572024906e-5 0.0
0.00020610488666237368 -4.974611780864767e-5 0.0
0.00028740277796984954 3.1932382149501708e-6 0.0
0.00015260023361132562 -2.4309857136327627e-5 0.0
0.0003359807297307302 -4.479859912398433e-5 0.0
0.0003920580868896637 1.450610107893539e-6 0.0
0.00017535250953705042 -1.07639486178719e-5 0.0
0.00033973875649233814 -1.8515091305670423e-5 0.0
0.0002669354912377671 9.267299956802094e-7 0.0
0.0002274662592465665 -1.3228966465103045e-5 0.0
0.00010641820873558123 -1.0743094855339504e-5 0.0
0.00017297416963845896 -1.355266354694468e-5 0.0
0.0002608257441148839 -6.525554977448182e-7 0.0
8.747100729853733e-5 -2.113520866062541e-6 0.0
0.0003415677040646109 -1.0509591349520625e-5 0.0
0.00011106580828200134 -1.4924940517458322e-5 0.0
0.0002336093679718181 -1.1895637549346909e-5 0.0
0.00038273502027924924 -1.5698133150950594e-6 0.0
0.000322455199400509 -6.4078940476506486e-6 0.0
0.00019578731750290483 -6.709701186578983e-6 0.0
3.872932832226212e-5 -5.038156151035113e-6 0.0
0.00013970135775652847 -1.3772530280716942e-5 0.0
1.2708938405605832e-5 -1.6678097299902012e-6 0.0
2.9687144946654504e-5 -3.3428723684633617e-6 0.0
0.0003205419167990741 -3.1198024769796383e-6 0.0
0.00028308770716034673 2.141712142526402e-6 0.0
0.0001634898008919925 -3.814255213154796e-5 0.0
0.00012257141162363988 -1.960791435269623e-5 0.0
0.0003796493731855521 4.5233687284622875e-6 0.0
6.550551672879252e-5 -1.2465771381366113e-5 0.0
0.00031099528104284264 -7.457352589332046e-6 0.0
0.00026237435587347544 -2.3356567020167206e-5 0.0
0.0003777725914029646 -9.793342443739461e-6 0.0
0.00014991059181501806 -2.9939228951086848e-5 0.0
0.00041927212526903423 -3.964767741559633e-5 0.0
0.0002522060023615395 -9.199987380668381e-7 0.0
9.270835371920576e-5 -1.8927614208693492e-5 0.0
0.00032735606949620155 -5.3239210496137945e-5 0.0
9.514520634083595e-5 -1.4256288254881885e-5 0.0
0.0004516268732765707 -7.708990981718565e-6 0.0
7.25676988278222e-5 -1.071859136817808e-5 0.0
0.0003181617669394625 4.172466013318859e-6 0.0
0.0002961278135771779 3.799283646124184e-6 0.0
0.0002761129492278837 -1.78819655124953e-6 0.0
1.2631759620435897e-5 -1.345981115724965e-6 0.0
0.000247951869786601 1.7669333486109305e-5 0.0
0.00015134227488155074 -1.1532555373023892e-5 0.0
0.00038124631361574873 -5.2182121523644354e-5 0.0
0.00038733555781036126 -5.7560337166282244e-5 0.0
5.064519505068129e-5 -5.264790710289783e-6 0.0
0.0002729145611219693 1.7846674946082925e-6 0.0
0.00012686564759856406 -2.009165645829483e-5 0.0
0.00019405645905203712 -1.975881340259329e-5 0.0
1.0190762718646981e-5 -3.3176572841909425e-7 0.0
3.612095979598825e-5 -4.303069935882679e-6 0.0
0.0002606566900040967 -3.051945797473207e-6 0.0
0.0002396972080728783 -1.0538260225716255e-5 0.0
2.1970699309731878e-5 -2.892185595236343e-6 0.0
6.325453979642495e-5 -8.48117729094566e-6 0.0
4.008525479210828e-5 -8.992655981343075e-6 0.0
0.00039043719854794446 -2.4752948907426362e-5 0.0
0.00030175284588036285 -1.6494935491133748e-5 0.0
7.019620139564425e-5 -7.3114942346312575e-6 0.0
0.00035280825689553666 4.923582334266621e-6 0.0
0.00032453596948589584 4.622218034011285e-6 0.0
2.4877946669425006e-5 -3.91430122367695e-6 0.0
0.00021516554043286737 -7.73228887952488e-6 0.0
1.07243838195779e-6 -3.4933079424542545e-7 0.0
0.000492337841534986 -1.9609995244606596e-6 0.0
0.00047069995802803113 1.5950518831115289e-6 0.0
0.0001515092383462134 -3.544500222052833e-5 0.0
0.0003532501168222946 4.178435497461562e-6 0.0
0.000305960016092767 -2.4964237566705325e-5 0.0
7.945514634743537e-5 -1.1775457806622325e-5 0.0
0.00029840116923560205 -5.566247747425363e-5 0.0
8.80182717037486e-5 -9.928826906283996e-6 0.0
0.00040499088130507995 3.8842872918509166e-6 0.0
0.00018894408477712485 -2.0806342199668694e-5 0.0
1.9528791180720853e-5 -1.8289441288844387e-6 0.0
0.000249736698765687 -5.876963555819219e-6 0.0
0.00024736309207048075 -5.504632761517884e-6 0.0
0.0004320280265035779 -4.716978674569655e-6 0.0
0.00025974057460491606 -1.4666149674715713e-5 0.0
4.823318440606534e-5 -4.7247114922899305e-6 0.0
0.00041696192339085974 -5.026482129285927e-5 0.0
0.00043456089401997574 3.5375231244172074e-6 0.0
0.0003205666746455641 3.0664540047487337e-6 0.0
0.0003289305421008613 4.057933037891043e-6 0.0
0.00019479630182323796 -3.699204063474287e-5 0.0
0.0004630975159307102 -2.8511665814287657e-5 0.0
0.00022325260882700033 -7.087914126676731e-6 0.0
7.540265540742349e-5 3.849643115089405e-6 0.0
6.799366169648986e-5 -8.193719797882176e-6 0.0
0.00017995310702892332 1.3740318527904651e-6 0.0
0.00041539608851279465 -3.704786506142871e-5 0.0
3.1464849573798785e-5 -2.0201754107379784e-6 0.0
0.00026030833611372366 2.276143881911523e-7 0.0
0.0003623111997619498 3.443178052507308e-6 0.0
0.0002909195504259595 -7.243037162290173e-7 0.0
0.0004818805503735336 6.073807503946681e-7 0.0
1.2336298057693103e-5 -2.1465467968298e-6 0.0
0.00043450377521929065 3.139809624031793e-6 0.0
0.00048433754712343526 -5.006161488826462e-7 0.0
0.00021883227512703882 -4.6416217143278975e-5 0.0
0.00026723500475730154 -1.920105877079448e-6 0.0
0.0002167890940489817 2.6733427936209465e-5 0.0
0.00012742225375619095 -1.8603888194365564e-5 0.0
0.0001670337390812425 -1.2378461191089745e-5 0.0
0.00021257939705270794 -8.017294845154998e-6 0.0
0.00012482503721440523 -5.162174101243237e-6 0.0
0.0001756546494253826 -2.5801117681773183e-5 0.0
0.00010869600802621167 -1.0266852361968697e-5 0.0
8.184245768933448e-5 7.001943512540606e-6 0.0
0.00022840621389195258 -6.226515305189381e-6 0.0
0.0003299094570969883 -2.0771210565910467e-5 0.0
0.00039632560665950215 -2.283214661815188e-5 0.0
0.00018683998809134912 -1.0501832362343015e-5 0.0
0.0001480098928791074 1.5631246362253308e-5 0.0
0.00029015902285811596 -3.8827639364212845e-6 0.0
0.00015979250051104192 -1.1359735762101341e-5 0.0
0.0003732256126994453 -1.4066670679823836e-5 0.0
0.00018875010309965176 2.764522003576259e-5 0.0
0.00017379525824422372 2.6078982893616686e-5 0.0
0.00025481826842419994 -1.1952906156628005e-5 0.0
0.0003050785890081458 -2.210781822606271e-5 0.0
0.00018374137146376498 -4.422654237668037e-5 0.0
0.0003616108481734214 -5.782581192860071e-5 0.0
0.000142939825470582 -1.7893510705867505e-5 0.0
0.0003346015242183879 -5.803043106225063e-5 0.0
0.00012506100450831542 -1.132567772306218e-5 0.0
0.0003807604844817697 -1.584649933406386e-5 0.0
0.00018485074913752536 -2.0500486778482147e-5 0.0
0.00040522870820720527 -6.32374499008404e-7 0.0
0.0001283681676141259 -1.789813142984709e-5 0.0
0.00025462785433427607 1.275692932759736e-5 0.0
0.0001939631848207418 -9.99683569901375e-6 0.0
0.00020453718257626728 -2.544532677123826e-5 0.0
0.00023787448941978796 -3.7254545834506726e-6 0.0
0.0002452064098334943 -5.227048650140336e-6 0.0
0.00014288823468021092 -2.2045151844971126e-5 0.0
0.0001439327028790855 -2.28759424916027e-5 0.0
0.0001038671267399307 -1.3885205201260455e-5 0.0
0.0001982091271883126 5.825261067662157e-5 0.0
0.00020883696004140136 -3.321961818475926e-5 0.0
0.00040810364052836314 -3.7077599569220855e-6 0.0
0.0003680733931019518 -2.323826678654798e-5 0.0
0.0002854943293574657 -8.648647202170504e-7 0.0
0.00013755466885765578 -1.797418727751736e-5 0.0
0.0003147778589606534 4.69277003719918e-7 0.0
0.0002684576620416751 -2.2128847940864742e-5 0.0
0.00018556200531223281 -1.9224375119129702e-5 0.0
0.00044426736948224155 1.4696482429039438e-6 0.0
0.00047724525521894716 -4.105265808945238e-6 0.0
0.00017983704214005319 -1.2242478451469587e-5 0.0
0.00031629556894719965 -5.265635675286267e-5 0.0
0.00042589253021167993 -4.84429056457186e-5 0.0
2.7645915294106936e-5 -3.8137104063565156e-6 0.0
0.00013255683755943648 -1.3921038264677591e-5 0.0
0.00014868307015082627 -1.7763545224178393e-5 0.0
0.00043358257565615963 -4.5979237053185195e-5 0.0
0.00017568608248735683 -2.42685968649672e-5 0.0
0.00032001339811847413 -4.6918922430017725e-5 0.0
5.471652337123024e-5 -9.953345085972753e-6 0.0
0.0002682009588646841 -5.802810441437072e-6 0.0
0.0003936041317408034 -1.507576914359794e-5 0.0
0.00030792323306051515 -1.5590359515508656e-5 0.0
0.0004562940698979987 -2.2373943738111007e-6 0.0
0.0003212706161881335 -4.590933158465467e-5 0.0
1.0194254786256145e-5 -1.508885890205957e-6 0.0
0.00021949541226702984 -7.67290532439065e-6 0.0
8.368259750856087e-6 -1.081311143116549e-6 0.0
0.00018565525213323932 -8.101483661688881e-6 0.0
0.00012612272433044306 -1.0109168893395676e-5 0.0
3.430660027213903e-6 -4.6385737787813143e-7 0.0
0.00013453294351262443 -3.147396363307089e-5 0.0
0.000126230421626876 -2.7694517324232737e-5 0.0
0.0002273019441496987 -7.296266230756891e-6 0.0
0.00024138915517309397 -9.336376387239356e-6 0.0
9.729263581515865e-5 -2.02342360894917e-5 0.0
0.00016751807523195382 -1.1099899148498163e-5 0.0
0.00027642747674252826 1.8128036232981797e-6 0.0
9.997573256688346e-5 -1.5181752825157308e-5 0.0
0.00031380431358818514 -3.1824063735383696e-5 0.0
0.000274987526829125 -2.1046558578721507e-5 0.0
8.080730104806525e-5 -9.58732188726398e-6 0.0
4.158774380650581e-5 -4.229178300622198e-6 0.0
0.0002585595218134635 -5.031422797649254e-7 0.0
1.2302968486225612e-5 -1.8923041183427057e-6 0.0
0.0004591831200527187 2.182885859574525e-6 0.0
0.00019565316177075747 -1.0355935573476709e-5 0.0
0.00023135018364323046 -5.279388548488687e-6 0.0
0.0004104504467764635 -3.970104924837133e-5 0.0
0.000446866420293292 -4.369527507763479e-5 0.0
0.0003636199532484905 4.40536187106442e-6 0.0
0.0002090254487743168 -2.9920413909369847e-5 0.0
0.00027781278057955466 -4.239257113827347e-6 0.0
0.0004048078485923384 -5.162759660535999e-5 0.0
0.0002308291077683443 -5.381142361606537e-5 0.0
0.00038781474756571213 -1.3045340521020796e-5 0.0
0.00030877670050477335 -1.3138667520458576e-5 0.0
0.00017195032698325648 -2.3455460860393255e-5 0.0
0.0003051509997995523 -3.197911038713183e-5 0.0
0.00018130525907988383 -1.8754857769957257e-5 0.0
0.00015637707448975805 -3.2336723477710734e-5 0.0
0.00023201039645433838 -4.8221019196694676e-6 0.0
0.0003731539246534087 -5.249625879202724e-5 0.0
0.00010364528459802704 -1.3260107411383031e-5 0.0
8.29520908215731e-5 -1.6805081676001383e-5 0.0
0.0003280663231543009 1.172813533717397e-6 0.0
0.00012549638133887018 -1.471512796968694e-5 0.0
0.000293754902339683 -7.742955943895966e-6 0.0
0.00024532734249482004 9.05156039081076e-5 0.0
0.0003693852864883585 -1.223445791655723e-5 0.0
0.00040358929567129397 2.701125214137746e-6 0.0
0.00026106743092166594 -4.8156076162078845e-6 0.0
0.00035451526852465386 3.580755033595752e-6 0.0
0.0002835003822480802 -2.8097123328996e-5 0.0
0.00030814548276155774 -5.652436992619219e-5 0.0
0.00015448443971076553 -1.7495087836769587e-5 0.0
0.0002094704508951507 3.361433068610114e-5 0.0
0.00011197179378753767 -1.364961015538458e-5 0.0
0.00011769458370105883 -2.7328202578152637e-5 0.0
0.00021400399505122416 -9.296448055043402e-6 0.0
1.2741423167906114e-5 -2.282247364741355e-6 0.0
9.442948826002731e-5 -1.7323436058209455e-5 0.0
0.0002488624928533896 -3.4020765839088933e-6 0.0
3.362718394038513e-5 -3.1592927393146922e-6 0.0
3.7727648913934204e-5 -4.218945933431455e-6 0.0
0.00024442628731966953 -9.474934453465866e-6 0.0
0.0002617414223998094 3.0173828819207826e-7 0.0
0.0004422216101885684 -4.2079664811819495e-5 0.0
0.0002154975069095852 -7.891698070843283e-6 0.0
0.00033109993082740627 -1.8474803485683884e-5 0.0
0.0002700114230854297 7.378185117644285e-8 0.0
8.99645109121736e-5 1.3853654725844862e-6 0.0
0.00011341847156638192 -6.692711588902767e-6 0.0
0.0004662247850956671 -2.0912900413725376e-7 0.0
0.00031150186266592497 -4.1666493893525053e-5 0.0
8.640356402192313e-5 -1.2595608986947236e-5 0.0
0.00028436927571404955 3.3729850018292027e-6 0.0
0.00025443050066938615 -7.115347730789034e-6 0.0
0.00025495188202701214 -4.107840203314944e-7 0.0
0.00012976107319884037 2.057295961070421e-5 0.0
0.0002430716024909402 -5.49397869002924e-5 0.0
0.00042816821327549127 3.561514132616384e-6 0.0
0.0002438761659998077 -5.753963525844111e-6 0.0
0.0002630991147469083 -8.714199611226293e-7 0.0
0.000299214064795643 1.885294052464027e-6 0.0
0.00023646843117196178 -6.300795320180888e-6 0.0
0.00024613679394604654 -4.309886334106287e-6 0.0
0.0001317150858973542 -2.1950732812616905e-5 0.0
0.0003151908476899495 -1.1741015346329616e-5 0.0
0.00020660945117576544 -9.196793734070769e-6 0.0
0.00025974641319006695 -5.767257669471726e-7 0.0
0.00039113710621608525 -5.795025649320859e-5 0.0
0.00022149388422027612 -6.676234379448589e-6 0.0
0.00028742700923167715 3.5188324284232492e-6 0.0
0.00027210048440365385 3.619907421039917e-9 0.0
4.262572672588064e-5 -7.663832159177376e-6 0.0
0.0003690140600766369 -2.04216010168933e-5 0.0
0.0002658381973061082 3.896865929745871e-7 0.0
0.0001498069140143341 -3.199735884064877e-5 0.0
0.0002989804105049327 -1.979287072757872e-5 0.0
0.0003455594352136549 -5.919492897961361e-5 0.0
0.0004824197779751222 3.024279284333152e-8 0.0
3.301648273747337e-5 6.214176525703892e-6 0.0
0.00020875194692032017 -1.0501984834909753e-5 0.0
0.00026669199428803407 -5.042458053766632e-5 0.0
0.00017370756552904232 -3.905059261574198e-5 0.0
0.00018727711607337237 -4.487508408800849e-5 0.0
4.8613961268145314e-5 -6.973851948853799e-6 0.0
0.0003375841675730723 -1.7859725537714658e-5 0.0
0.00015581700829414634 -1.655487677262025e-5 0.0
0.00021414369874163148 -7.858011211129459e-6 0.0
0.00018595904794535046 -1.0393635292480005e-5 0.0
0.00019102157705279125 -4.456909576494126e-5 0.0
0.0003344784815297832 -2.1712499874482293e-5 0.0
0.00044624412824765 -5.046874199191334e-6 0.0
0.00028253960276773807 -2.425121823799673e-5 0.0
0.0002419124887309169 -7.376351455085304e-6 0.0
0.00016470200185509607 -2.339611691085897e-5 0.0
0.00025637160242359097 -5.569291944532811e-5 0.0
0.00035281160911583445 -1.4237245362345038e-5 0.0
4.089462976027831e-5 -5.4885379992354315e-6 0.0
0.0004222038326982962 3.930636279897473e-6 0.0
0.00019883384253018227 -4.570898245990609e-5 0.0
0.00020420541186998655 -3.554571632548149e-5 0.0
0.0003262510991735285 -4.345002942055868e-5 0.0
0.00048364103333440375 -5.794037009850455e-6 0.0
0.0001799452204500846 -4.141530828824773e-5 0.0
0.00017805798401914407 -1.0621472905058482e-5 0.0
0.00017443668753390533 -1.2855839402931333e-5 0.0
0.000297129444969572 2.858678215050229e-7 0.0
0.00046402192885542195 2.072618140619341e-6 0.0
4.641041605896462e-5 -4.516870831141024e-6 0.0
0.0002480570923230984 -3.207921554920192e-6 0.0
0.00042196173228766214 -4.2564022096536854e-5 0.0
0.00045987468922797204 1.5210202192713183e-6 0.0
0.00015382795678945283 -1.265004996104054e-5 0.0
0.00020311770586210415 -4.6473305936838214e-5 0.0
0.00044570896169392855 2.4681860232534883e-6 0.0
9.723956668169283e-5 -1.5318982859812805e-5 0.0
0.0004753826279441987 1.3922606303261893e-6 0.0
0.00015996813089631334 -3.7661627816046536e-5 0.0
0.00031625731799460343 -8.644766918461775e-6 0.0
0.00011697414943764125 -9.557856447458348e-6 0.0
0.0002922890714257192 3.8021624266915555e-6 0.0
0.0004611366819720564 -2.6706110484213878e-5 0.0
0.0003599566252739323 -1.2449829754625881e-5 0.0
0.00014417866028266179 -3.235373665790681e-5 0.0
0.00010916352939225887 -2.522664322608197e-5 0.0
0.0001318983995167256 -2.0505730655004582e-5 0.0
0.0003982260626915598 -5.236877650227912e-5 0.0
0.0003473101157026716 3.58222824142075e-6 0.0
9.258545087573289e-5 -1.3263550005940001e-5 0.0
0.00019994416724177733 -1.1512805985204251e-5 0.0
0.0002963471641607682 -1.7416889124103097e-6 0.0
0.0001914699535504704 -1.4486236967848223e-5 0.0
0.0004489225382463923 -1.2106126154756859e-6 0.0
0.0003165997524188867 4.333530924289008e-6 0.0
0.0002069452164721418 -8.958129982377571e-6 0.0
9.548236093345118e-5 -1.2756703237722442e-5 0.0
0.00034008780628749715 -1.351523602948194e-5 0.0
0.0002933502614146683 -4.7170088852027404e-5 0.0
0.0004134275381067682 -5.1631063468033415e-5 0.0
0.00016812839012553875 -3.76114352850504e-5 0.0
0.00029819698692795524 -2.9180353478992604e-6 0.0
0.00018261710375058851 -1.7480762182588126e-5 0.0
0.0002785884096260666 -5.13851143990078e-5 0.0
0.00040660972436471117 -3.74962308831189e-5 0.0
0.00034302246150489274 4.864908309911218e-6 0.0
0.0004470567749257676 2.3150733345680856e-6 0.0
0.00015348702181779898 1.9814392748291402e-5 0.0
0.0004299584560153341 3.2324484988812545e-6 0.0
0.00016374636734691524 -2.179067171070364e-5 0.0
0.000393010371401335 -4.05627125048315e-6 0.0
0.00028647493732930846 2.6104681081611618e-6 0.0
0.0003188759922015948 4.581295604304893e-6 0.0
0.00016046506825413497 -1.5163385508208478e-5 0.0
0.0003233949490777361 3.883116783452036e-6 0.0
0.00021345065073743137 -4.7651803455316196e-5 0.0
0.0001365604797084668 -2.9372739104735466e-5 0.0
0.00026449742619665765 9.149446869077597e-7 0.0
0.00034069150449212186 3.870129023048822e-6 0.0
0.0002003059257276776 -4.053075130112061e-5 0.0
8.344218590200231e-6 -1.3602859462903025e-6 0.0
0.0004698754167841891 1.782992276073878e-6 0.0
0.0003903575501000147 4.693939936039559e-6 0.0
0.0002328458527839627 -9.893642245991803e-6 0.0
0.00048047765078389735 -4.114700332816858e-6 0.0
0.00016742518077445293 3.5062095708966858e-6 0.0
0.0002578195317606352 -7.5994762785702424e-6 0.0
0.0004892990221483819 -4.950193476946515e-6 0.0
9.517989002422595e-7 -4.7417418878151867e-7 0.0
1.0732865787795533e-5 -5.605768362435013e-7 0.0
0.00016019243525303866 -1.1095121787275886e-5 0.0
0.00028166577678689415 -5.1061633048090674e-6 0.0
0.0003170484516340221 3.333179963190353e-7 0.0
0.00037263489038950025 -4.8001062820308e-5 0.0
0.00047383536329563883 2.2597311717631735e-7 0.0
4.541690969144469e-5 -5.710631175309918e-6 0.0
0.00012770655446178193 -9.88697637092884e-6 0.0
0.00029423161238022096 -4.24765106196928e-5 0.0
0.00040655125998366795 4.381995155436394e-6 0.0
0.00013548139547274335 -2.106247094597481e-5 0.0
3.578695665718956e-5 -9.410133593036605e-7 0.0
0.00028892534801219517 3.6023370464981453e-6 0.0
0.00017017942984353708 -1.0694824960424073e-5 0.0
0.00034733210002029386 -2.4111768246998657e-5 0.0
0.00024460539840238303 -4.323918684276658e-6 0.0
0.00018923501131485219 -1.562494674528458e-5 0.0
0.0004165137628225874 -5.115064490682964e-6 0.0
0.0004295148751352257 -4.85807538531667e-5 0.0
0.0003588136574898859 -5.418133967185493e-5 0.0
0.0001268939980357214 -1.4093782096744018e-5 0.0
0.00043822588688829424 3.237109362608535e-6 0.0
8.975877461921689e-5 -1.3426973111291779e-5 0.0
0.00044114617749208766 3.004583294414757e-6 0.0
0.0004015532420687775 -5.3001648569326814e-5 0.0
0.0002909121145860458 -9.044696791807418e-7 0.0
0.00033185245160149545 -5.4660147074136475e-5 0.0
0.00035412651569637077 -3.081606077912712e-5 0.0
0.000235378584183603 -4.4625691485073225e-6 0.0
0.00013537490696175945 -2.7173706891271235e-5 0.0
0.00022909771198818067 2.214475075696082e-5 0.0
1.371923882733875e-5 -1.9108821975178208e-6 0.0
0.00046282410001267986 2.178833515737846e-6 0.0
5.941683505742847e-5 -1.1604207508481597e-5 0.0
0.00033569322749599337 -1.5877011518501455e-6 0.0
0.00010099333909744744 -2.149416992175091e-5 0.0
0.0003165540467805458 -6.015852941625677e-6 0.0
0.00012694843886447432 -9.051043020039025e-6 0.0
5.4272455935691584e-5 -7.612375842844855e-6 0.0
7.264312703319955e-5 -1.673709374459031e-5 0.0
6.718834124510637e-5 -7.11262974454313e-6 0.0
0.00023110258536725788 4.850758529790868e-5 0.0
0.0003579492084608085 4.563638797658099e-6 0.0
3.525838423528812e-6 -2.416795977482811e-7 0.0
0.00038666178041795205 4.7481419084769874e-6 0.0
0.00037574918739716515 -1.7069225326505883e-5 0.0
0.00028809301016458473 -3.847592073814649e-6 0.0
0.00024179144443503385 -4.032679905117073e-6 0.0
0.0001503692308187206 -1.0897043360991116e-5 0.0
0.00024077152301172592 -3.257745221600394e-6 0.0
0.00029880326932961026 -3.5205475374489975e-5 0.0
0.00016073603304039917 -1.6370201398765975e-5 0.0
0.0001234683824477682 -2.749977970652403e-5 0.0
0.00040179249633444185 -2.0353627465654867e-5 0.0
0.00030756272167177046 -2.717121287880551e-5 0.0
7.029555890516892e-5 3.6396659938085584e-6 0.0
0.00017589736270663892 -7.881793039569409e-6 0.0
0.00030832353209590623 1.750165022081079e-6 0.0
0.0003017112610976626 -5.2442018011639316e-5 0.0
0.0001982741284537897 -1.2399802110708094e-5 0.0
0.0003856210401548902 -5.3986152360922254e-5 0.0
3.064157177450066e-5 -5.443566034247605e-6 0.0
0.00033099920156726045 -4.1337030581210925e-5 0.0
0.00018804783336242223 -1.062196120549484e-5 0.0
0.0004454828533390248 -4.076478237901537e-5 0.0
0.0001873421262729563 -9.779900038230237e-6 0.0
0.00028986339551235205 3.4589041884345436e-6 0.0
0.0002466535199951257 -8.247081406426192e-6 0.0
0.0002613038973310276 -7.949876428798684e-6 0.0
0.0002758421660901837 7.802459972754687e-7 0.0
0.00029040097913626513 -5.143982147889766e-5 0.0
0.00037727297465131663 -5.31234535675539e-5 0.0
0.00013344386031159384 -1.8127006792184465e-5 0.0
0.0002913717538928118 -4.048775700710214e-6 0.0
0.0002873351260155779 -1.5135134340204273e-6 0.0
0.00037321201385290167 -4.284299034262689e-5 0.0
0.00023782823220992277 -4.263974844394669e-6 0.0
0.0002632543091447495 -1.0011041509296124e-5 0.0
0.0001345885174501746 -2.506208931326011e-5 0.0
0.0004434911184025675 -3.743389133548296e-5 0.0
0.00031536912766565937 -5.699449579471782e-5 0.0
0.00020103856033509387 -3.7835031852035874e-5 0.0
0.00046697002732529246 -1.9127281102335537e-7 0.0
0.0002002992223005325 -2.940248506223505e-5 0.0
0.00036897421276155685 -2.5022300388746323e-5 0.0
0.00014704577099704263 -1.2354194945831902e-5 0.0
0.00030236993366868135 1.8328032095894165e-6 0.0
0.00011811664273787842 -9.725044273963179e-6 0.0
0.0002265742811126055 -7.98323238977557e-6 0.0
0.00022666314474133683 7.171349282218947e-5 0.0
0.00048414692128032874 -5.0673193515426886e-8 0.0
0.00028380343554265197 -2.212149703975203e-5 0.0
SCALARS damage float 1
LOOKUP_TABLE damage
0.9909216597995778
0.9948274964046276
0.9975786918421499
0.9222533176859588
0.9998181524860009
0.9999948900994804
0.9644655261114815
1.0008530122301795
0.998568499377063
0.9986250488117553
0.9984042610271643
0.9983777457344704
0.9983152602179386
0.9982980784759276
0.9981938585179705
0.9981974394797146
0.9981045113634123
0.9981529578713245
0.9982160478021104
0.9982086767644499
0.9981492402354668
0.9981522786086412
0.9980473693953951
0.997956769188083
0.997926828008494
0.9979729529780453
0.9979960330216094
0.9980469386540931
0.9980393806430127
0.9979489702947064
0.9977714471521809
0.9973609683785036
0.9931905439564567
0.9944527550262663
0.9945742212935013
0.9947302187414839
0.9952059721493862
0.995367496197854
0.9955966790843173
0.9957234905965168
0.9958138333240169
0.9959284599650547
0.9959143395144578
0.9959569787163267
0.9959960929575957
0.9958560545698951
0.9957585331694823
0.9957593225428805
0.9958085851524094
0.9958901922400034
0.9958736954877733
0.9958305787187167
0.9957635019580743
0.9956845981450062
0.9956474219920497
0.9957028242311189
0.9957144879872549
0.9958289131908657
0.9959884990660793
0.9960062217382395
0.9959956276555586
0.9961435853837963
0.9962897267406968
0.9965745899611639
0.9967316039285601
0.9967025936716793
0.9968772081682666
0.9972156251727265
0.997344688327435
0.9974579954009504
0.9975830231000048
0.9977554144760894
0.9980294062427324
0.9990122442166548
0.9983891167959282
0.9966699482160621
0.9968833867819406
0.996677880154387
0.9973093483717915
0.9974746854671611
0.998406692283591
0.9995627544509902
0.9996572669958532
0.9995379255049963
0.9995390470779941
0.9996707323673472
0.9997385690288906
0.9998195229560529
0.9998842723724937
0.9998960487180344
0.9998970831566678
0.9999119331090079
0.9999374005137872
0.9999606307737287
0.9999734697776415
0.9999777779329447
0.9999288777532618
0.9998806528714568
0.9998603072381118
0.9998356956757094
0.9998146272339883
0.9998344258714609
0.9999040963895176
0.9999530880467686
0.999959513871674
0.9999618267844007
0.9999623281999818
0.9999500173114166
0.9999227753522868
0.9998716384897776
0.9998025407505591
0.9997226629923864
0.9996550346608786
0.9995575134388481
0.99952554984824
0.999450754072957
0.9993643336629707
0.9993061729409564
0.9991455859857928
0.9989515319518844
0.9988161466051195
0.99851542458027
0.9978899222829106
0.9970863200292582
0.9966623028918428
0.9958058550620633
0.9936561091044968
0.9882442288991595
0.980496794034136
0.9596598413314068
0.889822604388348
0.9888905200521446
0.9898222489117338
0.9912526020600649
0.9934338721905314
0.9948630902422644
0.9955823293660757
0.9962013946168021
0.9963213087297789
0.9962459086000317
0.9960823901713689
0.9957293338365397
0.9955954862016222
0.9953510566934836
0.995141419188204
0.9949609827221457
0.9947833966958286
0.9946769667673785
0.9945328375298313
0.9945103144382273
0.9947641608184998
0.9953513385645154
0.9960396142209457
0.9967165476595742
0.9974375100603046
0.9984015487292363
0.9981449757598168
0.9993045268249153
0.9999056644758801
0.9999996623959777
0.9999860217474252
1.0000078622652662
0.9998659203404222
0.9996829113043466
0.9994593019073228
0.9989933223135142
0.998615483129015
0.9989939390594428
0.998103513319005
0.995679000464435
0.9876326980957814
0.964898140801913
0.9495130602002293
0.9648762782957809
0.9730368721508682
0.9814816548382808
0.9878817587586229
0.9936272079298923
0.9960295995644148
0.9980841806800494
0.9995361520285905
1.0000422593485607
1.0002595119098387
1.000034184095384
0.999885472945019
1.00003933783549
0.9979374257437466
0.9887496392594234
0.9964390318312022
0.999902008447799
0.9975583644325544
0.9999494365755437
0.9984549784833753
0.9998505802964047
0.9995580725951211
0.9999495141672553
0.9959037795184167
0.9997105965327238
0.9959265399745866
0.997520183562911
0.9947720204914622
0.9869076200188427
0.9963849911990311
0.966827772083511
0.986934404023768
0.9993710403949396
0.9958607269118913
0.9973852143913714
0.9954022723954198
0.9946041341245324
0.9973231962745145
0.9984601717496209
0.9955497955713556
0.998714612548681
0.9950225453011953
0.9972428400364365
0.996398037369384
0.9983766508957405
0.9985339807081913
0.9999458012616078
0.9997071657035715
0.999844077785995
0.9999688606352486
0.9971175536610069
0.9960668956592633
0.9960905514048843
0.9949198128214134
0.9957018742938896
0.9977001591991723
0.995184452593441
0.9969949353485246
0.9997311549911518
0.9982719361108972
0.996870266120927
0.9959299134117064
0.9975576438841771
0.9949985311549052
0.9931540146254546
0.9788516029832854
0.9943375968687478
0.9760403159804415
0.9998294592741619
0.9997430544300295
0.997787816443246
0.996649712100177
0.9999214806322277
0.9998773969698896
0.995848780766848
0.9995922461553521
0.9958025732961903
0.9957232767306775
0.9989750120151961
0.9990690099687137
0.9989742757897867
0.9929335714790176
0.996881082276501
0.9996038299901514
0.99997179500139
0.9949224344891779
0.9977005831375328
0.9945463515328218
0.9487719346303587
0.9998974275767292
0.9991367504555386
0.997754740337353
0.9981942683917719
0.9990539422078046
0.9982766776129569
0.9975306467680458
0.9975114398668425
0.9972081031617159
0.9969703798426102
0.997256374651983
0.9965619577373371
0.996822637709712
0.9957335767461447
0.9960395997011585
0.9942585724551332
1.0016651738960247
0.9851498354096131
0.9984709876622393
0.9879554907074601
0.9984183737689016
0.990559914496149
0.9983009423648694
0.9924940613276878
0.998043212974499
0.9931462877736694
0.9978809504455055
0.9937984540185847
0.9977271213983432
0.9941197084056881
0.997539094003448
0.994639797833434
0.9975061178926419
0.9945121663160152
0.9972465513572377
0.9945150228341624
0.9970547729207639
0.9946290967423369
0.9969483188632275
0.9947303087023479
0.9968609386036918
0.9947552463887195
0.9967081746739748
0.9947124150514561
0.9967556949289027
0.9944120961503979
0.9965275784599473
0.994885495278621
0.9965455489790368
0.9951354941829984
0.9965685361139879
0.9951623482940478
0.9965325513982058
0.9953705341841363
0.9852723630342866
0.9965849696292954
0.9909461589210148
0.9929810429468419
0.9954177930528352
0.9965765449846363
0.9954790906074562
0.9943144318940413
0.9944369546982701
0.9965797001676338
0.9972686665434467
0.9974174118710722
0.9972784518372381
0.9976503626494846
0.9976596606893238
0.9934360851633804
0.9936284717162023
0.9978347220593562
0.9927379795215427
0.9930487685990746
0.9978639720012957
0.9979489983591816
0.9924962825527862
0.9928615624395173
0.9979780023321453
0.99798725980679
0.9925888997253198
0.9929547100838862
0.9980263566711978
0.997986752221372
0.9928320515429515
0.9932119815653981
0.9980464354771686
0.9979647631375173
0.9931801292224117
0.9935889096236302
0.9936506973955327
0.9932412179736776
0.9980752373953489
0.9980556919152884
0.9979500144625147
0.9978132924618213
0.9978994697922516
0.9978249740358651
0.9976098742482734
0.9975933114601551
0.9939939309912316
0.9942585549460563
0.9938576964660518
0.9980643831185015
0.994539510736216
0.9948878175598842
0.9984533707425148
0.9951961883223048
0.9953707786265382
0.9956485052896308
0.9957126653505892
0.9954626283449184
0.9957403091449192
0.9955662584757458
0.9959665081732523
0.9958348059445771
0.9956435222423122
0.9958869668634689
0.9961132131094028
0.9958718806786266
0.9956910375755447
0.9973636712895754
0.99730081552511
0.9960537228038145
0.9962401350678396
0.9970738923841659
0.9970031017287605
0.9973450644195438
0.9969738643193973
0.9974508589674861
0.9970694285075641
0.9975669457977403
0.9971018701217869
0.9976661288203019
0.9966078373793347
0.9971497716548
0.9978302835257655
0.9962098577069856
0.9958910938621094
0.9957122060835748
0.998194217538394
0.9983872014414091
0.9980701897448396
0.9986617782322735
0.9963698446171689
0.9986242445550035
0.9983508816549453
0.9963813189313868
0.9965183259972551
0.9964868973005861
0.9988190172791401
0.9987130099217004
0.9965749397127343
0.9963621548249246
0.9965821222943366
0.9964856261024799
0.9990335846859187
0.9991000251851658
0.9983215259874725
0.9989730225644066
0.998800047340582
0.9976519401318744
0.9960214097193161
0.9958799699502834
0.9954668329755443
0.995770831815621
0.9952208966633835
0.9955791921429169
0.994993563286454
0.9965858788394792
0.9962555521809567
0.9965815069075318
0.9965102630166806
0.9994009246224727
0.9954142064819438
0.9947950933017758
0.9965313687958435
0.9961297870730657
0.9932201322437285
0.9991192271769408
0.9985513612404147
0.9999408307719757
0.9923295267253525
0.9966941030347384
0.9952707595489128
0.9946338889455384
0.9966264659816725
0.9965906413972714
0.9964332123627123
0.9960041149866923
0.9995277796776105
0.9962347787285063
0.9963598402912095
0.9958718283562545
0.9993016312884527
0.995155486945716
0.9944277878600866
0.9968464077911228
0.9966823258334746
0.996602211227177
0.9968560500547848
0.9965642959426378
0.9967984514968109
0.9964886685573995
0.9963398398009855
0.9959301514704861
0.992170234934952
0.9950134457430135
0.9944569994328218
0.9995929523110555
0.9996408744138281
0.9953006958761023
0.9947405269569526
0.9994344171031061
0.998893593816198
0.9958031318065647
0.996780432438416
0.9963279332903235
0.9958814572555995
0.9955453245247113
0.995493892521103
0.9952367498530358
0.9953145666011732
0.9951539912288399
0.995411447216394
0.995325570831434
0.9956296286063967
0.9956646752579591
0.9959082767672872
0.9958741696668931
0.9963088893378929
0.9962531054848572
0.9966859576627077
0.9956161265992066
0.9968312697745926
0.9970332233338632
0.9969105686222909
0.9970800513140676
0.9964342294368901
0.9965619303454223
0.9966609699534899
0.9965643872252868
0.9972828165208624
0.9971933374852279
0.99701280957831
0.9970605161989851
0.9966108236083762
0.9967076214849472
0.9967795694065257
0.99648983767866
0.9968186698763549
0.9995856559252204
0.9993960098106803
0.9963317936416917
0.9940853241166296
0.9976838502554419
0.9969519835437624
0.9970025193079943
0.9972395874991191
0.9973595683613948
0.9979229934931665
0.9965357392487444
0.9962419380743109
0.9955620761527633
0.9965412699167765
0.9965418985010638
0.9969672581763366
0.9972891708508012
0.9974833601203931
0.9976528578209316
0.9977019971034863
0.9979060404054598
0.9979993361479913
0.9978906878311669
0.9980368867191575
0.9967348553506721
0.9967546047044973
0.9967794074203087
0.9968370146249095
0.9995371670730491
0.9992914812267365
0.9979545791328277
0.9979037923133197
0.9967714606632904
0.9964751192823329
0.9963971496310904
0.9936746768328971
0.9942830760120135
0.996901122325654
0.9976144456160484
0.995540313804289
0.9994659970530295
0.9991101152537553
0.9989859362720228
0.9964155017704303
0.9997482086906706
0.9966682987629293
0.9964516371122097
0.9966205959784095
0.9970821499998258
0.9982193256833791
0.9963379227262624
0.9960975750049493
0.9968015078599783
0.9968021662058809
0.9965090883427469
0.998170054003839
0.9978384986812676
0.9963443827747532
0.9960594635527609
0.9985526950435901
0.9974230724832202
0.9959343738851231
0.9957631570459995
0.9950487868638349
0.9988859054911888
0.9979517724879313
0.9988042755494702
0.9986664665704975
0.9984603054910999
0.9981430345085524
0.9984157230359696
0.997599481146332
0.9978127336387027
0.9982719462707282
0.9967883547146128
0.9967805745399797
0.9992483067877971
0.9989834522251195
0.9959714376804085
0.995625991526489
0.9967437848838285
0.9972637158697003
0.9957476325688619
0.9954531127245265
0.9957043054773704
0.9953792299838614
0.9986960287552609
0.9983325948321188
0.9975289513853998
0.9979899277438884
0.997243824355468
0.9981060749102693
0.9996064997966335
0.9994327779041103
0.9944982253342635
0.997936741243927
0.9959676817733241
0.9954731186817588
0.9951950807726271
0.9954977443886887
0.9951036963568737
0.9951727524266366
0.9949282640233157
0.9952891661561156
0.9949608702008654
0.9954888603389994
0.994953310901032
0.9954764271688888
0.9946174189470915
0.9946212887125857
0.9967110977662225
0.9967320663135197
0.9943811111327316
0.9943677855005953
0.9967442925198168
0.995352750970519
0.9983245163073684
0.9985353505935971
0.9967415740363341
0.9983484095887849
0.9977205289460801
0.9986060415085994
0.9986637354796931
0.998412107405278
0.9975976758879742
0.9985727230818119
0.9976312787615031
0.9978373876508632
0.9978852867597954
0.9985345508072838
0.9983928972590328
0.9955792435399177
0.9974050811584462
0.9979393492158125
0.9960365655192528
0.9997446946044253
0.9995593313418126
0.9990831622112818
0.999284970324789
0.9973471617296003
0.9977221382723577
0.995870487379046
0.9997979904381601
0.9963488544143039
0.999641942023058
0.9994804419773526
0.9990258062659759
0.9992649159131195
0.9988060790312059
0.9991348982054806
0.9995051746244572
0.9995051792765876
0.9945351232212447
0.9942799671130749
0.9943764552433156
0.9984713946837284
0.9980246483840893
0.9989714092368828
0.9988008905383995
0.9979272155048265
0.9964993953417324
0.9967752398377774
0.9950357197453793
0.9979208631740176
0.9975262212961165
0.9947811777332907
0.9957603993552882
0.9970971246440681
0.9988903315421167
0.9947802193241384
0.9982350374551167
0.9997790146844275
0.9997080599288113
0.9939966892569062
0.9941649156994736
0.9968626605439441
0.9968072859149796
0.9964854870632083
0.9965296844449194
0.9960849821455618
0.9997647438216419
0.9981581991637505
0.9970894956883914
0.9967568340234794
0.994419241378166
0.9943250084319242
0.9964238441981461
0.998713353761037
0.9987186518382775
0.9991073624144018
0.9947970584957392
0.994879144847819
0.9954139102383217
0.9954321212108259
0.9950583189746305
0.9954937540191148
0.9957270383086537
0.9957071912520475
0.9957855115511753
0.9957099854825635
0.9957094567821251
0.995599776268918
0.9955922301028224
0.9954634801240665
0.995646597470722
0.9954866841081333
0.995355575545692
0.9951485340232582
0.9964110752666351
0.996615992473664
0.9969582441689565
0.9953989722312242
0.9952267005064431
0.9954973336545024
0.9972102655558404
0.9975131801748972
0.9978487094771912
0.9982269948222683
0.9986315130812142
0.9990313796621619
0.9985800579330664
0.9992516762855883
0.998729964221708
0.9703237072666943
0.9992723378593626
0.9989160150752273
0.9938183323536597
0.9952478252545011
0.9956022556913886
0.9951575117248912
0.995553065360302
0.995031239422192
0.9954667939010216
0.9961217057205072
0.9960923053417364
0.9968344235070844
0.9968192393518783
0.9973952920217726
0.9960287290917731
0.9948647011523263
0.9945851530784394
0.9973785981454992
0.9977578350398811
0.9969385749958264
0.993667258522655
0.9883170214383753
0.9974544824761686
0.9980724695236844
0.9980650448479996
0.9982603684523172
0.9976893916164816
0.998469459195973
0.9978779473239785
0.9970564025020644
0.9951987367260817
0.9973100623724954
0.9992873113666472
0.999083522746034
0.9986018191404458
0.9992829887058527
0.9987876907896939
0.9985790851497038
0.9987748286706927
0.9982660582834015
0.9984034265504595
0.9988449183271955
0.9984517860465545
0.9988534820137214
0.9985019168508539
0.9961031702120592
0.9966764022249762
0.9974750649224523
0.9979013810759946
0.9962749890792028
0.9965643430935106
0.9953126169872385
0.9955837032340208
0.9986631289240573
0.9982799191633166
0.9998746901844962
0.9957529528810745
0.9979154576536317
0.9985779772960842
0.9985333801141762
0.9984671066915914
0.9975763992518638
0.9994036918659128
0.9995649287858605
0.9998270221688333
0.9998088316795802
0.9924353062647736
0.9963243438933389
0.9973603000122742
0.995804401590882
0.9971057069587469
0.9970531133607254
0.9971731254018512
0.9998453657661898
0.9979314263786357
0.9984148365941202
0.9982503984424876
0.9960041081968725
0.9934524189983406
0.996412549474442
0.9957275849056455
0.9942845339812443
0.9942402466332708
0.9943168537521405
0.9975904453109711
0.9983272517910685
0.9953257791964154
0.9963623432543708
0.9953274099282592
0.9950916160175828
0.9993574988363918
0.9962570001998895
0.9976548477195818
0.9971342700095349
0.9967956040080891
0.9959706421763599
0.9964282007082551
0.998076457196616
0.9980405870420914
0.9980842402527533
0.9984990234315968
0.9981937125468171
0.9995510406328257
0.999807889966599
0.9999479410797908
0.9999206443972876
0.9986208460228265
0.9986083138911689
0.9994234614310147
0.9994627237534361
0.994354996573968
0.9943391867998348
0.9990891410905016
0.998279554759745
0.9981392237011193
0.9992362307038162
0.9994689642458292
0.9996638665469154
0.9997342823919985
0.9988423008409519
0.9945167921986648
0.9960208806769864
0.9958532313169478
0.9962090533670688
0.9962140760552226
0.9965285559076902
0.9962085614916419
0.9965026434681552
0.996191054704548
0.9964472867983977
0.9992346204809405
0.9977033648161513
0.9981958923801793
0.9997356546136607
0.999780219167248
0.9996634150529423
0.9992043013322136
0.9969312960372775
0.9999579530557606
0.9953367940325449
0.9909910854115265
0.9948807330566881
0.9970181695644792
0.9975110276928866
0.9976981466070631
0.9995092058710073
0.9988936288472742
0.996451131917469
0.9950016205492354
0.9948469682111459
0.9950655514594121
0.9947952850718317
0.9991125887050089
0.9975759041329951
0.9983128920956579
0.995550620116628
0.9974667263404005
0.9987656617811066
0.9980764589035639
0.9983453547499384
0.998765992561571
0.998638993729755
0.9971047498846339
0.9973471517630144
0.99612248079016
0.9963976348032446
0.9965250934181848
0.996444277710138
0.9963652182982756
0.996353269774411
0.9963291013472478
0.9963414222610163
0.9964563827691627
0.994276610788575
0.9982053233623349
0.9945247498079598
0.9968469982597699
0.9968316800362038
0.9960608291785416
0.9992691380383116
0.9992968345873672
0.9965442347352109
0.9961934764502719
0.9960785549405019
0.9983520170990823
0.9998633688758226
0.9993960503922582
0.9999470193120209
0.9980760671269043
0.9945306492884511
0.9944998701936104
0.9947066386369542
0.9939922840345515
0.9947629844009448
0.9961990306748298
0.999682198576594
0.9995644121277706
0.9994737085267723
0.9994724955645934
0.9980976509537479
0.9985644428310266
0.9958727274819777
0.9957087581431624
0.9978471152135626
0.9986212762876046
0.9968069902421841
0.9979761528971934
0.9979493114365504
0.9965817992717234
0.9999622481929468
0.9967651903175457
0.9979515002370025
0.9994757911243888
0.9994438045519849
0.9982692963262536
0.9981652633089545
0.9982195095064924
0.9976381116579599
0.9954002650072565
0.9944026640925736
0.9993091793057415
0.998180546794886
0.99915017698278
0.9963048293588098
0.9946399541015781
0.9961998887799902
0.9998938100206545
0.9965890393722704
0.9966518870323127
0.996705723451601
0.9967425091029546
0.9967066561821901
0.996717413458895
0.9997342507160675
0.9996149123564101
0.9972734210662901
0.9994478265603352
0.9963784214425941
0.9962611841767974
0.9970823166389473
0.995968811964485
0.9959082357345428
0.9978608805316727
0.9965564003227694
0.9963899080603851
0.9974043376125952
0.9974902849181367
0.9970581537268546
0.9967908065183214
0.9953614826995931
0.9977889564646847
0.9980703034898183
0.996544261736605
0.9996309507171243
0.9992049385282585
0.9937341628397537
0.9882063449811649
0.9947985362956501
0.9976470496511562
0.9984718329059176
0.9983762462312284
0.9963286313682342
0.9959964510796453
0.9958581519764831
0.9958942556233771
0.9966416536078223
0.9948990149631504
0.995111531737723
0.9995532678346709
0.9995424066915514
0.9992378916972848
0.9996913882569716
0.999516440260098
0.9999491245192178
0.9967920631838251
0.9967553373486295
0.9985126706871892
0.9946202827456779
0.994608221426441
0.9951809251140402
0.992536466021266
0.9942338433897032
0.9980741753846226
0.9985204765799963
0.9983689511819226
0.9985961169900757
0.9983805000060814
0.998760233514772
0.9976947316015459
0.9941036905267772
0.9940787563919444
0.9958025319219305
0.9956856496365512
0.9948033568556947
0.9949320836832531
0.9951928959541031
0.995046910912687
0.9953210589482592
0.9990640410321507
0.9984316331144956
0.9993146769775104
0.9995848090640408
0.9994087364581762
0.996508114974321
0.9962038439499754
0.9997426604769512
0.997766005106309
0.9986027617635985
0.9981183545156459
0.9982392743039763
0.9980140415728694
0.9981336840323854
0.9979272018939213
0.9980317773719296
0.9978212019277835
0.9979385454328711
0.9977643024974001
0.9982069418365985
0.9979855893081225
0.9997824615071368
0.9961187296280057
0.9977696187818486
0.9975190583457668
0.9979668681668787
0.9945574426555831
0.9985087192011358
0.9973036170008719
0.9961065675471411
0.9940934133233541
0.9949049245370658
0.9949094128457827
0.9972053922036513
0.9984745669789947
0.9949893184415722
0.9950504142196386
0.9964595000558742
0.9946280834218665
0.996028707039791
0.9956939385818286
0.9949681841821879
0.9987113052969543
0.9988749219835944
0.9987584753038274
0.9989123948990966
0.9979401124514857
0.9962662390925344
0.9932777168296101
0.9981188785148133
0.9981719050184038
0.9938371253879678
0.9948650901700065
0.9991094344901519
0.9997647141759981
0.9999269494813222
0.9999028852854389
0.9999769555214788
0.9999553369948693
0.9999233432296688
0.9998673035165107
0.9993903194660207
0.9945432872577982
0.9972863421314188
0.9961915808377034
0.9894156976299934
0.9844242472184409
0.9999639714203326
0.9999791072696003
0.9999742999397593
0.9994406160761528
0.9960344068715373
0.9964644757090491
0.9967139598736311
0.9967333856408641
0.9961437804809322
0.9990555368345936
0.9997645528428066
0.999922838421307
0.9999197526497395
0.9998898345900585
0.9966837189470621
0.9991126496876162
0.9988841734023164
0.9989453484760831
0.9985265064039511
0.9989015287965197
0.9965956309219034
0.9966322646676878
0.9948341922265255
0.9961175852824695
0.9960251340072866
0.9995604440540522
0.9998488085058264
0.9974318188350354
0.9952229169358325
0.9963754503453285
0.9990583726326883
0.9994802920467584
0.9971187864575225
0.9968936885870964
0.9989209557158024
0.9985156800451598
0.9987416555475719
0.9967048871034417
0.9976396203151011
0.9985750795764206
0.9996880339209334
0.9975918225571598
0.9949009312342205
0.9985227660436068
0.9976346846546074
0.9997466971129405
0.9973546552769599
0.997573915246175
0.9967485108884181
0.9951717015408241
0.9981673484573906
0.9960869902167329
0.9974682636379892
0.9974830057387379
0.999953304316962
0.9999480077689633
0.9981246056317372
0.9982164283467322
0.9963907118367992
0.9971739708816904
0.9981402265029
0.9972151898787103
0.9972303361865198
0.9970656143898278
0.9963230162695657
0.9961493692311029
0.9964599768837351
0.9973027143270266
0.9999555867318516
0.9964109623640317
0.9965703032316124
0.9966410529632158
0.9998493345792309
0.9963159096234034
0.9978856472782358
0.9952857814791636
0.9958796220487978
0.995660143930349
0.996993674704549
0.9985527984640351
0.9964359893893248
0.9962042487861795
0.9961977278571378
0.9960188004579931
0.9960390528663924
0.996177483393681
0.9989334224802875
0.9965177306148832
0.9969284352995307
0.9997642414351466
0.9965962701589941
0.9972360172219653
0.9967027501995392
0.9964119098323558
0.9968575248437157
0.9961802553128798
0.9962386043121524
0.9966606418423719
0.9966256318209396
0.9966555828315712
0.9965795311784663
0.9964687786231129
0.9964005335948446
0.9963514865778922
0.997219548957936
0.9962822891118157
0.9962791416943617
0.99610679929917
0.9964659560463742
0.9963488796210145
0.9966099340245611
0.9995964654228491
0.9993354314533692
0.9992680810260004
0.9995957561971762
0.9978889157910791
0.9955519901705406
0.9955081790039679
0.994624022001076
0.9948188612243477
0.9944102021341447
0.9917794130066915
0.9914563215260481
0.9881125711724056
0.9893821777307399
0.9869456239744407
0.9888654421401877
0.9872338611425694
0.9889123910758386
0.9877683940474324
0.9891709960612003
0.9882878355628514
0.9894149332701557
0.9887448937873557
0.9898278470284013
0.9892814350600362
0.9902443404048183
0.9897958464853149
0.9906530825873742
0.9902720050715511
0.9911029211139387
0.9915707936588138
0.9920070522724727
0.9908032850294484
0.9904672873781849
0.9893424048150508
0.9880323123540974
0.9915072769895671
0.9865710839791235
0.9925848672380754
0.9929498749349478
0.9923888871548641
0.9932920993537848
0.9901656304877741
0.9847720136671482
0.992145231203396
0.9864050193437297
0.9927631796904924
0.993660811674407
0.9939734776230819
0.9929864353990614
0.9926171569905554
0.9919857634833847
0.9923972989686197
0.9917981165047213
0.9936011781687606
0.9911298395583464
0.9943378562203731
0.9946266025858143
0.9943128999466366
0.9948796208292335
0.9997609063734024
0.9997563814027796
0.9980410502143366
0.9987241004385383
0.999159399014792
0.9973986808152744
0.9975472364080447
0.9945166031563919
0.9983237664271761
0.994026043284072
0.9978052247380281
0.997615614347206
0.9975287437056184
0.9981048001580536
0.9976948202430331
0.9948965956712013
0.9951939547833412
0.9993342987756366
0.9991704982555608
0.9992496128652835
0.99900058244787
0.9993884777845254
0.9975599895198208
0.9975829932006351
0.997787087021075
0.9938156250454454
0.9944312426138249
0.9941641447747273
0.9950192646682035
0.9948082857915967
0.9957807522990462
0.9956868760422856
0.9966722799776996
0.9967133143542756
0.9973421539859122
0.9982363853771749
0.9981579824403747
0.9980874810374003
0.9980573249562741
0.9964693523350379
0.99571422046311
0.9956212393306476
0.9955108922737772
0.9953188071198464
0.9975746413325035
0.9983171898641042
0.9986164947894346
0.996116476881683
0.9978794168189903
0.9979296157467162
0.9969884577364677
0.9981106658282658
0.9969789686233342
0.9971499693209438
0.996342052510028
0.996042522920509
0.9954138538996391
0.9957601543438848
0.9950620923568014
0.9953744809193122
0.9962039289416086
0.9971492831231317
0.9963456697531129
0.9958790156532565
0.9922145891983295
0.998638116802563
0.9989697853451397
0.9990374465844136
0.9992348793100966
0.9994258900093217
0.9962760429454431
0.998760627247512
0.9967102458813893
0.9945194823796969
0.9941935029980662
0.9966831646645959
0.9979919071706504
0.9956519175226162
0.998536193748599
0.9990718182734946
0.9984481073296075
0.9990903684086618
0.9995372502746906
0.9998859303654515
0.9998622099694179
0.9998696135463406
0.9956373879615417
0.9957480308473422
0.9964063345582969
0.9957388934029903
0.9968181561129266
0.9957684044843444
0.9957765208816454
0.9986796612739686
0.9954031394455288
0.9951344067822562
0.9951505420919342
0.9950277251199063
0.9967939204433016
0.9946890883402326
0.994595993749697
0.9999232111449836
0.9939871892730886
0.9998220265720281
0.9997844096403894
0.9997390931221966
0.999678516091428
0.9996370208187173
0.9996110654221463
0.9994640877290886
0.9995821328582661
0.999680700397434
0.9996330625866081
0.9946617944991484
0.9958092741826815
0.994948370589209
0.9956166285579852
0.9979525461798202
0.998068291497332
0.9933236711541489
0.9970677445351915
0.9979568067122943
0.99793357662043
0.9953955816985535
0.9953389831805657
0.9998232427188563
0.9964495890696197
0.996153283524498
0.9984999847245708
0.999557039445787
0.9852180412072005
0.9792719922046718
0.9893069893486007
0.9981596364901276
0.9997690479593471
0.9984574962848337
0.9970590123066976
0.9994363299770761
0.9969466970184668
0.9966964409804119
0.9954306622982465
0.9983824523355044
0.9975439181880505
0.9967751758636517
0.9978231675323426
0.9999707957548117
0.9999635391014646
0.994792837615935
0.9997275121084613
0.9998965425708117
0.9992455050367682
0.9995935290273288
0.9995804200041744
0.9997085398801848
0.9994858357873426
0.9917848495140273
0.9923400681146055
0.9966213554159967
0.9949208854488053
0.9940853714096681
0.9990860782095651
0.9999726521730049
0.9999758152821225
0.9951552786926562
0.9947947521719144
0.9948637889185187
0.9963110298929543
0.9962569716608876
0.9979611978641774
0.9966544453279577
0.9974969978540197
0.9979153368496151
0.999853140598675
0.9999398164806864
0.9962608575296598
0.9961742412410352
0.999451340871057
0.9998536836759456
0.9966070497571214
0.9955984747338128
0.9942257612596593
0.9999137955536302
0.9938497617676433
0.9935701444519565
0.9938284312832896
0.9962215060788057
0.997310446102816
0.9916966518258309
0.9912399612751792
0.9913403259264654
0.9908870829299072
0.9911950593674758
0.9907551468952375
0.9904235068239544
0.9902137520833377
0.9898483830026602
0.9896917316643978
0.9918955992858766
0.996438922429053
0.9976301515543785
0.9936845861982911
0.9916931637626863
0.9816520500491012
0.9788085838017608
0.9902651502228021
0.9845815770914853
0.9803460245356388
0.9775698484523654
0.9831157911136045
0.9954032210743279
0.9950733530470344
0.9950667688232705
0.9958630856196611
0.9963608753653045
0.999975192536342
0.9999632872164581
0.997195162495558
0.9971472409628875
0.997257457755995
0.9942831339225993
0.9720386068826667
0.9911646569903279
0.9904667469821429
0.9890304734507341
0.9900122702714073
0.9883156083714258
0.9972853107043242
0.9963627393089618
0.9885229181154142
0.9997425521082768
0.9998569632846233
0.9992554925677954
0.9963740175598075
0.9933234574741145
0.992729276215127
0.9935541068095984
0.9975661825378914
0.9998996678912322
0.9998497288358399
0.9966503725991712
0.9995491533773254
0.9998079645160998
0.999632035790129
0.9996346096795619
0.9940391491572781
0.9953845000155559
0.9948130367453836
0.9937693740410187
0.9980292335305695
0.9979122311859597
0.9996362620212692
0.9951557256877048
0.995505313107632
0.98572752769131
0.9843890282542029
0.9855128421192415
0.9848100032663907
0.9860482681388761
0.9833965901111681
0.986545239161118
0.9870795559317411
0.9866356718875904
0.9963469084941444
0.9873703369310767
0.9946610669558804
0.9928165452816706
0.9975188101203335
0.9973242514759032
0.9828308119167692
0.9815754104000343
0.9981743681074167
0.9999204911404133
0.9999362603014067
0.9999154624954998
0.999890440092457
0.9998579105898212
0.9998167788070346
0.9957444632842767
0.9956563959008087
0.9955999686661592
0.9956175594339476
0.9955972526854058
0.9956696471474182
0.9956775166036274
0.9957156580046467
0.995833699846108
0.9956374352381943
0.9958842489441695
0.9958738789439889
0.995971673608397
0.9963234267248147
0.9958331135270581
0.9957635754507391
0.9958870796213198
0.9955889131108078
0.9956382301891041
0.9989678158298678
0.991742335933474
0.9946104381608101
0.994141059815819
0.9941877956820425
0.9993784380480192
0.9982541941082034
0.9986868909801123
0.9985059543945114
0.998640969783594
0.9983492156557126
0.9983262985802768
0.9982174801088046
0.9981003854795855
0.9979064425165571
0.9943839097084995
0.9984222801243464
0.9955238310917227
0.9958346872134431
0.9968410120182677
0.9963664420314221
0.996984314438681
0.9974960681735902
0.9948564879547637
0.9950729369350144
0.9954531965187037
0.9949250955950629
0.9948257125874289
0.988727363417478
0.9961551614004827
0.9966314753419974
0.9967925613719749
0.9800160545781105
0.995693897118614
0.9998942207561805
0.9987520220914727
0.9910044486647319
0.995821469199874
0.9960318369459956
0.9999453327073619
0.9947077379683081
0.9947698195331701
0.9946761530896562
0.9948894974098857
0.9948515708358836
0.9949656276457622
0.9952332793712733
0.9950594538552574
0.9972307347994941
0.9956899049500835
0.9952049266250415
0.9951032635977667
0.9955532389243833
0.9996068692480061
0.9999828228338573
0.9971503911114242
0.9963474363375429
0.9952148114890832
0.9957578179248353
0.9935937976568556
0.9924349849999661
0.9925264546854823
0.9925995210112266
0.9915948053892247
0.9912586767797232
0.9913397422186103
0.9930585010183091
0.9954992567046808
0.9937531547723992
0.9997945553053945
0.994515003288103
0.9989849523874768
0.9957669414510034
0.9978927069826726
0.9988873178927176
0.9983410191177707
0.9921139919741204
0.9971367645229243
0.9967517534617286
0.9962092428326325
0.9955280129381626
0.9956917214776758
0.9957343882059507
0.998630592167028
0.9975581972120977
0.999942660067191
0.9925559299387932
0.9984756976081579
0.9957735456906399
0.9992918900990454
0.9988072609499634
0.9953500126743192
0.9962666677011528
0.9989624339042285
0.9960277782923342
0.9960468389561231
0.9959148981355094
0.9961421942936807
0.9980976797836276
0.997664881787748
0.9915585626654799
0.9913270460745451
0.9974210719381288
0.9972612038978724
0.9939558864734565
0.9971855048827709
0.9914344279122693
0.99755536807985
0.9965266155512417
0.9972139751480914
0.9970753933743669
0.9903159534841355
0.998283312923496
0.9897780803143281
0.9995212537337261
0.9944746228039345
0.9969540015050316
0.9972526144643384
0.9969709721520971
0.9967955131934119
0.9970679478061678
0.99573213155794
0.9958314125157475
0.9963995932522934
0.9965305926155429
0.9960415254665599
0.9998213832856299
0.9998687144414733
0.9998290188008971
0.9998752949218349
0.999840026343001
0.999757009128114
0.9996618785093941
0.9980185726261663
0.9966175627737366
0.9966823837986061
0.9967223363157337
0.9982511527756203
0.9981888850672637
0.9973508853838566
0.9973329636151964
0.9976996004706637
0.9973766106649987
0.9978322868586433
0.9992207687690967
0.9967352618962525
0.9966445145826248
0.9949339974349664
0.9948742411568153
0.9946403052680668
0.9963632798387975
0.9967227536568151
0.9964076367365078
0.9965063582511557
0.9961430785415228
0.9956151713435579
0.9830363044836969
0.999790135733505
0.9997964909163943
0.9997785382692118
0.9998598519823697
0.9969873830134937
0.997580493451975
0.9891508335886119
0.9872878666737971
0.9962882964183936
0.996569393871684
0.996991929859122
0.9962694849564429
0.9960367037915897
0.9932046558947278
0.996802924083298
0.9979615619984871
0.9999799238191055
0.992173863994798
0.9932568927656295
0.9990495128825702
0.9996153953647646
0.9959038797147535
0.9963971583624156
0.9977056934841567
0.9966595971158656
0.9966638830057037
0.9962608241214332
0.9968330958117047
0.9960320093455179
0.9958850566238112
0.9960594072892618
0.9998548109078882
0.9989053051224088
0.9989108845916022
0.9989561429711316
0.99887449301627
0.9991468158925988
0.9991563343006435
0.9995055551026734
0.9970501285379416
0.9950061687817061
0.9999347891676899
0.9998104026744731
0.9970061893466268
0.9996885949856219
0.9998340836442365
0.9989635493339529
0.9978944213547847
0.9977961497534579
0.9987257119070255
0.9961682707958336
0.9965244235653077
0.9999364581414714
0.9959574620742572
0.9954949268066845
0.995764714517023
0.9951963400114644
0.9961490563334452
0.9950530416969368
0.9947423706389278
0.9943109694145309
0.9979286586006086
0.9948557982578111
0.9960245675470205
0.999329897171072
0.9991206938352675
0.9962724606535852
0.9956832169562839
0.9959874843044413
0.9954894497589799
0.9961869844084694
0.996014643128036
0.9960574345546019
0.9993870212849418
0.9997625949874538
0.9997909910037555
0.9995300340851341
0.9999326393707361
0.9931568653265255
0.9988041269060647
0.999165504069816
0.999429526653743
0.9984700396075232
0.9954364798401892
0.9967730751325976
0.9966163582070211
0.9968302763771408
0.9967952570099997
0.9968119729611151
0.9994274613522626
0.9981067900611974
0.9978587397411358
0.997891209472753
0.9960574976139978
0.9955438127336457
0.9966348591767935
0.9979156713331007
0.9979103257786109
0.9951132194410613
0.9976987796944321
0.9998064653711993
0.9988377255692412
0.9970363030089695
0.9970056781994229
0.9973891010723394
0.9969081434746078
0.9974051503648174
0.9978286190596637
0.9990698096370384
0.9950858112945873
0.9953961807394155
0.9980410868581057
0.997038141488916
0.9998427128885137
0.9958446497036785
0.9966755316432727
0.9998819896333452
0.9946591360143973
0.9950106131894405
0.9970054678460154
0.9966517158104903
0.9792282235553941
0.9997937203653539
0.9965587347354506
0.9962664825916934
0.9966745796490055
0.9959616116786371
0.9961795527709618
0.9956409405351367
0.996222548422779
0.9996677167374706
0.9952064767066549
0.9966865475705327
0.9966145435020447
0.9941659126140185
0.9966355215338002
0.998770745393556
0.9993514770326887
0.9926893449492369
0.9980449382002415
0.998004895165658
0.9980559282638121
0.9993981441472443
0.997267977842305
0.9961910946458029
0.9952929858913705
0.9943145577542813
0.9976639280123802
0.9968464053101429
0.9978362325518032
0.9984987617893885
0.9980925546981722
0.9961087588343623
0.9967575465389455
0.9992639042087387
0.9961226213034022
0.9889237445556622
0.9941395648578597
0.9959847572918573
0.9961804917099439
0.9977079486754081
0.9981795769383179
0.9965816395440886
0.9972811199476579
0.9973046872432982
0.9947709266805391
0.9997987593073753
0.9963474610166317
0.9982793287223595
0.9979245429542054
0.9967871161340796
0.9980457317851587
0.99762929503588
0.9970273000184345
0.9953481150408066
0.9999092157740093
0.9999639566850297
0.9984372935241018
0.9987440025850269
0.9998403557849336
0.9997998965275473
0.9977345595676173
0.996443799324294
0.9999311727586738
0.9979097669714327
0.9933485616542678
0.995494526152489
0.9982591234330513
0.9980429061754168
0.9960195794252666
0.9984328963229179
0.9981558791495693
0.9975260749335537
0.9964984592387492
0.9947130857122035
0.9954636439508154
0.990028726916684
0.9959247618476624
0.9978320558645659
0.9944370987107822
0.9947125090939651
0.9969261871446919
0.9980303273255846
0.9972366726586377
0.9966998301995378
0.9995399261415879
0.9886921701297113
0.9718736605319339
0.9953235061828649
0.9950248303779189
0.995781038982386
0.9949523712726946
0.9767580348567538
0.9996172661573738
0.9980986485169896
0.9968643222042557
0.9984528879613038
0.9947584960902299
0.9987116965051447
0.9985285725646037
0.9988121900752305
0.995972380750926
0.995888818050252
0.999892029013806
0.9998236459416545
0.9988929706447252
0.9955464713978981
0.9993898721285919
0.9972913381555394
0.9942977076330304
0.9950819284889298
0.996552742766804
0.996336045115214
0.9936833270314973
0.9985621301828356
0.9953719282222059
0.9957475486412634
0.9986812335459638
0.9988444342407208
0.99870214057204
0.9993762881807406
0.9973382527724833
0.9990182426004031
0.9998304591575604
0.9961231449511732
0.9822485569423528
0.99801321597235
0.999776798243629
0.9996154963227855
0.9920152039026803
0.9980116978003916
0.9949086539234723
0.9869541762117583
0.9982291498317876
0.9914254924708484
0.9964652517350227
0.9976670561596025
0.990505287492912
0.9915173907891677
0.9959910006943007
0.9973810126298479
0.9973625267337637
0.999010013834258
0.9976160817532111
0.9999654846383206
0.9999200229877981
0.9978281507429531
0.9978902925526262
0.9981074732472501
0.9974010956010573
0.9958819406129499
0.9980368428987774
0.997825598558984
0.9981869074944127
0.9976009890600084
0.9986595734195821
0.9943893895404569
0.9943592075752803
0.9947315931048527
0.996857556303954
0.9951418257062855
0.9972875877537795
0.9969816422271132
0.999631080224134
0.9958301761769214
0.9959583147864018
0.9977155651658136
0.9987899017206919
0.9978941955472256
0.9995208393301741
0.996019929603829
0.9995298788960565
0.9994574348978013
0.9957402003063829
0.9956723020080572
0.9991844798862942
0.9992142867199988
0.9999303484067806
0.9958186925286647
0.999966689833503
0.9966943860434183
0.9997809847649853
0.9971247602232465
0.9998902116650826
0.9956922882590389
0.9964184857087101
0.9961094185575415
0.9982308159126314
0.9964435495162429
0.9980010418589996
0.9997545286026276
0.9977204582799715
0.9983749392997667
0.9987205443214732
0.9992036873258759
0.9942607405202438
0.9977838595205051
0.9963812230850441
0.9998201004767989
0.9978131496964787
0.9973040554628653
0.9886119201124361
0.9958324669651897
0.9663680375100155
0.9972727610367961
0.9964747887022274
0.9965579405591524
0.9952034407310241
0.9988846685414765
0.9993244519922749
0.9965559198461612
0.9957502527465174
0.9988066218028171
0.9936675317518826
0.997376343170131
0.9980477808086803
0.9956123323650837
0.9985805303921498
0.9990198496163201
0.9979960652942083
0.9954596584060483
0.9955893680465702
0.9946680438812114
0.9953134495628386
0.9992840786691698
0.9983866486415357
0.9939240698930611
0.9935380158920034
0.9911581739963937
0.9980053506700083
0.9978726644199842
0.9965785130658408
0.9965791722092204
0.9985923695558306
0.9948796021905348
0.9975642205485712
0.9965820218461309
0.9979808546070346
0.9978686344153564
0.9961336690457738
0.9989373695954028
0.9972094066231537
0.9901594527032115
0.996687137783428
0.9920645455610224
0.9980054933778651
0.9956047771858306
0.9987924149196902
0.9973848085224677
0.9976281661586053
0.9968932352763321
0.9983725622199482
0.9933480136725744
0.9973925516951857
0.997940508542835
0.9966924748264243
0.9964805426949039
0.9951327603450955
0.9871376655015877
0.9974807448162554
0.998938462632721
0.9967260507057606
0.9972711923917787
0.9944877778281798
0.9988824698241621
0.9936263274104273
0.99601312274439
0.9960385782843949
0.9973787437931289
0.9962309778012984
0.9985483291894548
0.999010075183096
0.9973380042601784
0.9971497008127512
0.9961624343865194
0.9957009546620673
0.9987767531650122
0.9982739017880319
0.9955881178533108
0.9979123936894109
0.9994647529474514
0.9972585539471934
0.9960402914200849
0.9998256609656442
0.9958246907588264
0.9972715333632578
0.9959486112313608
0.996851626827203
0.9970718139070655
0.99849345562767
0.9974888269581198
0.9884195723018102
0.995026620263014
0.9999377028632479
0.9998071135379498
0.9961504896132171
0.9978587145754461
0.997153803926966
0.9952820405638286
0.9952819415213471
0.996083535220259
0.998121005981031
0.997693644834286
0.9965798717786443
0.9964760772321128
0.9954155982518916
0.9998014583115976
0.9982329296971635
0.9953533600392996
0.9958511906386996
0.9962712550194514
0.9941061926921471
0.9903934660068614
0.9964475856825034
0.9840001486357958
0.9954450859675906
0.996923272023875
0.9958603285341284
0.999299639086712
0.9963479532667122
0.9999677096647173
0.9967782092849607
0.9963812188131971
0.9956400310959566
0.9948454767087954
0.9876575873985045
0.9885177860243779
0.99601644061663
0.9975528810111414
0.9960086641476602
0.9994805416424224
0.9951532807726157
0.9964900553840318
0.9963915782196503
0.9992190321070692
0.9687754450453404
0.98925731173832
0.9961574716238544
0.9957454479429344
0.9962880032585248
0.99959651487617
0.9962827084305876
0.9977628263358016
0.9969637630344039
0.9980668326756953
0.9962018614102206
0.9964527446246707
0.9952598438841475
0.996695112207128
0.999697133323131
0.9981205714821046
0.9932657305139257
0.9966194594944586
0.9949386356405876
0.990779042738439
0.9971981110496076
0.997678555735487
0.9963669897483698
0.9970282999221126
0.994691382307978
0.9983392791144662
0.9998431671171077
0.9911606936312028
0.9972578665266543
0.9978289773308762
0.9946499640078593
0.9995274580005837
0.9940390198671186
0.9958608300494098
0.9978719836666308
0.9850961768577325
0.9990061273194096
0.9999709964083933
0.9964148205446817
0.9998306632668884
0.9961119802902025
0.9996540654603222
0.9957416470762251
0.9989197259632294
0.9966218620197743
0.9856849390811085
0.9908578776194972
0.9965400955581928
0.9942335856603963
0.9892990995259819
0.9970409419763812
0.9973343945991738
0.99677391547518
0.9992487761504155
0.9987891224195066
0.9950332367628735
0.999236167014365
0.9989961029756449
0.9965009499969891
0.9979428718568237
0.9982049215437262
0.9955074218553549
0.9966374066997086
0.9981639663039907
0.9943704284342841
0.9998093932006832
0.9989514271059009
0.9961835365916637
0.996284613489949
0.9963325408034689
0.9984314712682298
0.9972281064281325
0.9942953884685132
0.9952907386924393
0.9982931339847891
0.9997267779326356
0.998459345055162
0.9981794958347515
0.9997898100849009
0.9975493450437046
0.9932659535759141
0.9961121233437921
0.9930114984471717
0.9956170001248037
0.9948301763802522
0.9961953040492509
0.9964067878058736
0.9879631889456505
0.9813821610122132
0.9960647890097656
0.9940595242393128
0.9977902863047973
0.9962054472548083
0.9965704835353053
0.9979218740823314
0.9968061409548371
0.9946474533828795
0.9975401602397013
0.9940504670014235
0.9946544708827395
0.9902672097241366
0.9945800437717685
0.9997293742367803
0.9949130918914317
0.99629774231607
0.9981578869163762
0.9982850969620064
0.9997147428531171
0.9997395292009943
0.9997126763408062
0.9987157408313441
0.9971457317945481
0.9967211198945579
0.9956244893065268
0.9981342459511993
0.9933185459155109
0.9999625225205615
0.9967582682137022
0.9957910809481241
0.9954055337382192
0.9965227058013945
0.9991002861839491
0.9997608763313883
0.9999818453099748
0.9975828382289844
0.9904409719650585
0.9968389939861596
0.9990287077770086
0.9999268837445697
0.9962977008110872
0.9931010732574743
0.9966560152820694
0.9958463070035593
0.9935431449897325
0.9965196654212315
0.9962232086824343
0.9928277090624246
0.9942573180032245
0.9960180844647649
0.9979291644616829
0.9978604059867365
0.9962369866082195
0.9898351243068497
0.9980763679483439
0.9983710244251106
0.997600876568981
0.9966706256246887
0.9969700612975382
0.9947690604090328
0.996645744044367
0.9976363942951649
0.9844835993321703
0.9976247126550472
0.9961843283893185
0.9996617247666795
0.9951784004249037
0.9977382915479778
0.9977515232233
0.997613909711172
0.9878031460636818
0.9977343405660285
0.9974927531994571
0.9988945626349879
0.9924891289712691
0.9975134028518723
0.9997466530268517
0.991643005724372
0.9977875406936189
0.998531842859726
0.9950689078652505
0.9992463303241891
0.9980504447931638
0.9975242821103713
0.9959439250255486
0.9999459658446068
0.9978956211007461
0.9910191910790567
0.9936331013485286
0.9998882461531984
0.9981834286532223
0.9994726845532285
0.9959556245810797
0.9981001430091317
0.9962017144538026
0.9917730944716121
0.9915808647745891
0.999429509229773
0.9983707147959943
0.996978089989511
0.9990777563116191
0.9977164987819642
0.9972522914892572
0.9997815371135546
0.9989575507441669
0.9946773161410898
0.9953681787760723
0.9996584374521682
0.9989737948606866
0.9998546615638414
0.9812071499168538
0.9985313006432941
0.9920268725822003
0.9949210792176454
0.9979376296506062
0.9945520030101326
0.9949411785471518
0.9977052488265342
0.9992313067203766
0.9949736978202951
0.9954860370552746
0.999682857117787
0.9957531835787023
0.9966790056863091
0.9946282006490507
0.9970066530670858
0.9988912619768826
0.9956539740186552
0.9974635998075391
0.9808352928952707
0.9992641546704406
0.9968074798951629
0.9957559603622996
0.9968184730252141
0.9997718785207225
0.9968241129748806
0.996781295475411
0.9935379059942386
0.9982087438033531
0.9944588935961248
0.9953548488052206
0.996394120830764
0.9920695542764342
0.9967961182240324
0.9988510387533811
0.9998881933886598
0.999565965374446
0.9979940320284908
0.9971501054536343
0.9953465893768805
0.9999307312443634
0.9998191095735235
0.995971379472927
0.9952755951738039
0.996667417710354
0.9954276099746211
0.9968157839973852
0.9947448404734475
0.9990527000302521
0.9962713237977772
0.9959675939049979
0.9967114939345644
0.9996633495180784
0.9969774182978859
0.9980299217895557
0.9959791988548691
0.9993927081695907
0.9962080150029942
0.9950396343282731
0.9955630191145389
0.9842707611360962
0.9983214428563799
0.9970601594410053
0.9828020831916396
0.9349260518930159
0.9951337981962088
0.9954063706770474
0.9944321338365126
0.9983889632085515
0.9959231775279782
0.9999652955134466
0.9966701277854186
0.9946141660960843
0.9954895987475477
0.9997140996267563
0.9955417832067412
0.9968032076778793
0.9960660811508447
0.9974084807763446
0.9929382891575175
0.9988404271336709
0.9915108769734943
0.9947874368698572
0.9956272257653679
0.9987379476895082
0.9999780532720295
0.9964564091952037
0.995173701956579
0.9959326005780015
0.9949747503776163
0.9997170161914806
0.9995267205459591
0.9998349211696216
0.9985408704907951
0.992702098232576
0.9973418748197819
0.9924840794431156
0.9973186657083509
0.9947438094219706
0.9955092596762756
0.9945784065517678
0.9959808623510683
0.9988100782135028
0.9959606356100298
0.9950171023561747
0.9957511800345007
0.9958453340099026
0.9957216563740212
0.9959260241125897
0.9957912082227541
0.9955884634676176
0.9999615386179158
0.9983928082939746
0.9922863295169788
0.9945697108658035
0.994216035980426
0.9993444144142956
0.9961677566614563
0.9962217389343794
0.9997390165885313
0.9986115214849516
0.9979303175932944
0.9942025129288239
0.9976213776777834
0.9999268210920846
0.9937832471090357
0.9998931991327168
0.9944204807734698
0.9999202329079804
0.9909237436544328
0.9951429585467939
0.9920349040748748
0.9980138002226759
0.9979193931245259
0.9813705967678177
0.9987468861119195
0.999963424317426
0.9999537881280688
0.9965361589379326
0.9992554481214447
0.9990868789324828
0.9999672591767885
0.992652395571165
0.9712643398881903
0.9976162757042849
0.9953371629489859
0.9998643074873711
0.9992040450086735
0.994734040100803
0.9977797193200223
0.9999965338194147
0.9955402079444142
0.997677947348089
0.9957975732220496
0.9871865291232654
0.9990841499710779
0.9968374283731712
0.9987683277081371
CELL_DATA 4886
TENSORS stress float
-2544.427088143535 46038.79392591124 0.0
46038.79392591124 48101.48544023822 0.0
0.0 0.0 0.0

-2.512614376087504e6 129537.62889379916 0.0
129537.62889379916 1.4081013157708596e6 0.0
0.0 0.0 0.0

-1.915765371566867e6 3.265266688230377e6 0.0
3.265266688230377e6 1.1328413159318436e6 0.0
0.0 0.0 0.0

-933135.1796595848 3.886225375219225e6 0.0
3.886225375219225e6 208117.27132109826 0.0
0.0 0.0 0.0

-2.2402925504656862e6 3.5934691174397916e6 0.0
3.5934691174397916e6 1.2605610092685788e6 0.0
0.0 0.0 0.0

774275.8290504921 -205896.80285892065 0.0
-205896.80285892065 -1.0613158558972343e6 0.0
0.0 0.0 0.0

235903.6642538127 4.420314593654659e6 0.0
4.420314593654659e6 1.6507529658080055e6 0.0
0.0 0.0 0.0

1.2003370377988052e6 2.150131081132794e6 0.0
2.150131081132794e6 -2.0746086579281185e6 0.0
0.0 0.0 0.0

290818.0187881336 289702.41166009125 0.0
289702.41166009125 291852.92215107655 0.0
0.0 0.0 0.0

-83354.5960716289 4.0798541282686116e6 0.0
4.0798541282686116e6 -369357.2559635867 0.0
0.0 0.0 0.0

-1.4662654939177204e6 2.996392912687797e6 0.0
2.996392912687797e6 691142.4757639151 0.0
0.0 0.0 0.0

-2.529115300074506e6 4.447006290380013e6 0.0
4.447006290380013e6 1.5670273609175663e6 0.0
0.0 0.0 0.0

822505.9531368956 3.418600025690587e6 0.0
3.418600025690587e6 -1.4294623064549207e6 0.0
0.0 0.0 0.0

1.7034091020711195e6 5.182027846340094e6 0.0
5.182027846340094e6 1.1652240104908282e6 0.0
0.0 0.0 0.0

-1.440606218711097e6 3.076507623696626e6 0.0
3.076507623696626e6 690633.9298579829 0.0
0.0 0.0 0.0

1.233442159788039e6 947447.02679723 0.0
947447.02679723 -1.8070699603527123e6 0.0
0.0 0.0 0.0

-54126.85802829935 3.9466345189240645e6 0.0
3.9466345189240645e6 -1.3052725428903396e6 0.0
0.0 0.0 0.0

22665.37104225665 3.592628412349629e6 0.0
3.592628412349629e6 -1.406486416570928e6 0.0
0.0 0.0 0.0

284236.3158858471 195385.55304898185 0.0
195385.55304898185 -124828.09976528602 0.0
0.0 0.0 0.0

-1.5990271524723843e6 3.633137567150928e6 0.0
3.633137567150928e6 626144.731079467 0.0
0.0 0.0 0.0

75701.59304454934 2.9731282414530534e6 0.0
2.9731282414530534e6 -1.2778275869187284e6 0.0
0.0 0.0 0.0

-2.535025385367208e6 4.4805705008409945e6 0.0
4.4805705008409945e6 1.4499008817681726e6 0.0
0.0 0.0 0.0

714561.8484292915 673745.5832116025 0.0
673745.5832116025 -894395.2749241781 0.0
0.0 0.0 0.0

-1.1062118793737772e6 4.1493176054537552e6 0.0
4.1493176054537552e6 -201978.64994866744 0.0
0.0 0.0 0.0

264941.24527045485 4.487602379263879e6 0.0
4.487602379263879e6 -1.459067442805344e6 0.0
0.0 0.0 0.0

-1.4731319433520513e6 8.355010188690791e6 0.0
8.355010188690791e6 1.2972408608247614e6 0.0
0.0 0.0 0.0

-331087.58498548705 4.024200022679584e6 0.0
4.024200022679584e6 1.7209481930288011e6 0.0
0.0 0.0 0.0

-464451.9640410868 1.8626502411675116e6 0.0
1.8626502411675116e6 338049.2672861732 0.0
0.0 0.0 0.0

1.2844001920224775e6 976332.8779035986 0.0
976332.8779035986 -1.761970075447416e6 0.0
0.0 0.0 0.0

97261.86038454143 117520.62665666883 0.0
117520.62665666883 -286590.24671298143 0.0
0.0 0.0 0.0

564023.0740564389 829334.0311875097 0.0
829334.0311875097 -1.0941424566584616e6 0.0
0.0 0.0 0.0

-539396.0088179343 803045.3949446392 0.0
803045.3949446392 336215.1173936002 0.0
0.0 0.0 0.0

-332528.0398752199 3.196307273155007e6 0.0
3.196307273155007e6 -226363.12413242657 0.0
0.0 0.0 0.0

-345783.650941224 3.7176566795346793e6 0.0
3.7176566795346793e6 -455519.083956866 0.0
0.0 0.0 0.0

-1.236130806578411e6 3.04274682022788e6 0.0
3.04274682022788e6 372185.38179966476 0.0
0.0 0.0 0.0

622978.0559817927 592472.7436578688 0.0
592472.7436578688 -986111.2655802786 0.0
0.0 0.0 0.0

-1.1762148846362908e6 2.1666155446505505e6 0.0
2.1666155446505505e6 648735.9175373404 0.0
0.0 0.0 0.0

-1.3579809681951585e6 3.0542946348257493e6 0.0
3.0542946348257493e6 377317.26935529214 0.0
0.0 0.0 0.0

-84705.95367193967 4.618893386403683e6 0.0
4.618893386403683e6 -1.1087126998267628e6 0.0
0.0 0.0 0.0

-2.1557225243119346e6 3.2796261691760677e6 0.0
3.2796261691760677e6 874691.8682273471 0.0
0.0 0.0 0.0

674713.6900582832 3.5049930058780313e6 0.0
3.5049930058780313e6 -1.7920683860111744e6 0.0
0.0 0.0 0.0

-2.2171778007368054e6 3.457903190092807e6 0.0
3.457903190092807e6 1.175557139905815e6 0.0
0.0 0.0 0.0

-2.107361498424871e6 3.253004843894786e6 0.0
3.253004843894786e6 856903.6252600343 0.0
0.0 0.0 0.0

204861.054742466 480889.9401362256 0.0
480889.9401362256 137828.1714850593 0.0
0.0 0.0 0.0

-10695.917464153375 3.0332405606332878e6 0.0
3.0332405606332878e6 -1.5101306235409067e6 0.0
0.0 0.0 0.0

-516910.12187026505 1.858723721881083e6 0.0
1.858723721881083e6 867772.8372068014 0.0
0.0 0.0 0.0

-601093.5850417576 3.234390394855486e6 0.0
3.234390394855486e6 -217426.5793672759 0.0
0.0 0.0 0.0

-1.3624927858180148e6 2.0491810359385798e6 0.0
2.0491810359385798e6 451939.2529344374 0.0
0.0 0.0 0.0

1.1547936791696362e6 1.9169203844443748e6 0.0
1.9169203844443748e6 -1.9249163566947186e6 0.0
0.0 0.0 0.0

-207176.36415862426 4.1373850064790323e6 0.0
4.1373850064790323e6 -690587.9658871172 0.0
0.0 0.0 0.0

-2.369579366766293e6 3.675892817916395e6 0.0
3.675892817916395e6 1.3347714648821545e6 0.0
0.0 0.0 0.0

-1.2270006632449143e6 -238330.60474355405 0.0
-238330.60474355405 1.346271832028327e6 0.0
0.0 0.0 0.0

1.1497379182496709e6 1.9162345838809013e6 0.0
1.9162345838809013e6 -1.8434545190031482e6 0.0
0.0 0.0 0.0

-2.159468638594171e6 3.216744377989165e6 0.0
3.216744377989165e6 1.0163009511269517e6 0.0
0.0 0.0 0.0

28586.50993054855 4.152183931927086e6 0.0
4.152183931927086e6 -628156.0989658814 0.0
0.0 0.0 0.0

-951777.7807220775 4.0791820208684946e6 0.0
4.0791820208684946e6 -135668.1025417921 0.0
0.0 0.0 0.0

1.1258855872076694e6 2.361071366094636e6 0.0
2.361071366094636e6 -2.1392999066806366e6 0.0
0.0 0.0 0.0

-2.296411076623418e6 3.2420819619338894e6 0.0
3.2420819619338894e6 913980.8414398514 0.0
0.0 0.0 0.0

-1.3947673708168725e6 3.4998921623069867e6 0.0
3.4998921623069867e6 1.8524069577158235e6 0.0
0.0 0.0 0.0

514992.47236877424 2.868666980835267e6 0.0
2.868666980835267e6 -1.6224833088355197e6 0.0
0.0 0.0 0.0

-300390.55415008176 3.8162353567354484e6 0.0
3.8162353567354484e6 -1.095691000455181e6 0.0
0.0 0.0 0.0

240080.77059199678 5.095866385198091e6 0.0
5.095866385198091e6 -1.356977544159681e6 0.0
0.0 0.0 0.0

-574520.9889014577 3.4856694260467584e6 0.0
3.4856694260467584e6 764601.9531991018 0.0
0.0 0.0 0.0

132577.0387754712 264725.7014150466 0.0
264725.7014150466 -225917.39107080986 0.0
0.0 0.0 0.0

61813.24206487403 996477.1018894155 0.0
996477.1018894155 -126804.30598408123 0.0
0.0 0.0 0.0

1.109633672710847e6 1.9123750438925573e6 0.0
1.9123750438925573e6 -1.9146739283910657e6 0.0
0.0 0.0 0.0

970244.1100030034 2.9613260349208396e6 0.0
2.9613260349208396e6 -1.7321062060970527e6 0.0
0.0 0.0 0.0

-2.0262060926725147e6 3.197495592537483e6 0.0
3.197495592537483e6 956352.5788177046 0.0
0.0 0.0 0.0

-871363.5505065301 3.277997487616541e6 0.0
3.277997487616541e6 901667.0388069049 0.0
0.0 0.0 0.0

-588668.8398417506 3.570488001544784e6 0.0
3.570488001544784e6 1.7991486628617276e6 0.0
0.0 0.0 0.0

-9138.620160975173 784859.8780324272 0.0
784859.8780324272 -297501.13058162626 0.0
0.0 0.0 0.0

356065.80303082266 4.240552295956917e6 0.0
4.240552295956917e6 -1.3373951477010981e6 0.0
0.0 0.0 0.0

-80273.5020920572 4.563566885174329e6 0.0
4.563566885174329e6 -1.3527589965213535e6 0.0
0.0 0.0 0.0

-2.3895182819900205e6 4.435550058933513e6 0.0
4.435550058933513e6 3.700680646074797e6 0.0
0.0 0.0 0.0

-973028.3686700163 3.436166046102089e6 0.0
3.436166046102089e6 480309.7640093885 0.0
0.0 0.0 0.0

-651342.166501398 1.965458399158415e6 0.0
1.965458399158415e6 532420.3181791971 0.0
0.0 0.0 0.0

-2.9980329016579334e6 769599.3640616981 0.0
769599.3640616981 2.9146721526637273e6 0.0
0.0 0.0 0.0

-190446.34059739675 3.930020780439026e6 0.0
3.930020780439026e6 -1.3261870402654987e6 0.0
0.0 0.0 0.0

-355553.384064155 3.459963452056056e6 0.0
3.459963452056056e6 -936219.708210245 0.0
0.0 0.0 0.0

-322477.2135872133 2.76096368188363e6 0.0
2.76096368188363e6 -714981.6030066886 0.0
0.0 0.0 0.0

-540229.4504983223 6.027836686160537e6 0.0
6.027836686160537e6 291665.35682263714 0.0
0.0 0.0 0.0

-29002.81150527885 139469.43575253512 0.0
139469.43575253512 188393.36456221674 0.0
0.0 0.0 0.0

-373946.553872585 3.642323210239945e6 0.0
3.642323210239945e6 -700774.8337725938 0.0
0.0 0.0 0.0

-2.7310157228030562e6 4.949130843371258e6 0.0
4.949130843371258e6 1.5558908385437047e6 0.0
0.0 0.0 0.0

-896896.0417307316 3.845878024924485e6 0.0
3.845878024924485e6 157293.02798178972 0.0
0.0 0.0 0.0

943695.7047720747 1.6881341555693473e6 0.0
1.6881341555693473e6 -1.6029868927158704e6 0.0
0.0 0.0 0.0

-717080.1752266 524643.8692515957 0.0
524643.8692515957 -13232.060998387431 0.0
0.0 0.0 0.0

-303922.0420948944 3.2517063406655556e6 0.0
3.2517063406655556e6 -182771.55389838174 0.0
0.0 0.0 0.0

-3.134650362566092e6 8.949683565861283e6 0.0
8.949683565861283e6 366474.1215816112 0.0
0.0 0.0 0.0

-2.3011654145121705e6 -283674.2757192541 0.0
-283674.2757192541 2.8424776947677988e6 0.0
0.0 0.0 0.0

-401255.27885165217 3.621211077644893e6 0.0
3.621211077644893e6 -519429.6034364496 0.0
0.0 0.0 0.0

-273727.42971111264 3.5787932852971954e6 0.0
3.5787932852971954e6 -1.0484520112663751e6 0.0
0.0 0.0 0.0

-1.1854193306902922e6 1.752484435562341e6 0.0
1.752484435562341e6 428707.8640112949 0.0
0.0 0.0 0.0

420136.8197159944 381348.723047553 0.0
381348.723047553 -939299.9369668416 0.0
0.0 0.0 0.0

-562397.3997997284 3.9856983246779838e6 0.0
3.9856983246779838e6 -282508.85864219395 0.0
0.0 0.0 0.0

-28686.034967585816 4.1226512417220827e6 0.0
4.1226512417220827e6 -1.576816131301386e6 0.0
0.0 0.0 0.0

1.066549323732443e6 2.1034723579250975e6 0.0
2.1034723579250975e6 -1.9286536944003368e6 0.0
0.0 0.0 0.0

-1.02883977659349e6 3.3970349252304444e6 0.0
3.3970349252304444e6 247589.12034421443 0.0
0.0 0.0 0.0

740994.2762189086 2.61568227446242e6 0.0
2.61568227446242e6 -2.0777177691750654e6 0.0
0.0 0.0 0.0

1.2275670476983206e6 2.4253815785142635e6 0.0
2.4253815785142635e6 -2.253129883203438e6 0.0
0.0 0.0 0.0

-541550.4895027473 3.9739138653622544e6 0.0
3.9739138653622544e6 -214031.64760242729 0.0
0.0 0.0 0.0

-1.1356226317343921e6 2.7548249608656727e6 0.0
2.7548249608656727e6 609487.7386992595 0.0
0.0 0.0 0.0

459708.2042749288 569047.2644600176 0.0
569047.2644600176 -503147.3908815139 0.0
0.0 0.0 0.0

-2.287465720640618e6 3.2808472219246966e6 0.0
3.2808472219246966e6 1.0466951973463192e6 0.0
0.0 0.0 0.0

-1.3033050353366728e6 2.0829236609635083e6 0.0
2.0829236609635083e6 846758.1394233346 0.0
0.0 0.0 0.0

-477888.9552392116 3.0765630445313314e6 0.0
3.0765630445313314e6 -121366.57591677843 0.0
0.0 0.0 0.0

-39278.76373375398 156219.52517740414 0.0
156219.52517740414 229932.4931278333 0.0
0.0 0.0 0.0

-401373.7768794347 2.630163261432278e6 0.0
2.630163261432278e6 -710595.4742976195 0.0
0.0 0.0 0.0

-2.3831580155608207e6 4.462055476238169e6 0.0
4.462055476238169e6 1.4945161578510164e6 0.0
0.0 0.0 0.0

887627.6812902573 648604.76163216 0.0
648604.76163216 -1.0538079306597202e6 0.0
0.0 0.0 0.0

798992.0930810212 3.2117501493613594e6 0.0
3.2117501493613594e6 -2.104381333814246e6 0.0
0.0 0.0 0.0

-1.1706970705740436e6 2.643707401050037e6 0.0
2.643707401050037e6 434732.9861229964 0.0
0.0 0.0 0.0

-642429.084368661 2.5161649358044723e6 0.0
2.5161649358044723e6 1.3416459184046271e6 0.0
0.0 0.0 0.0

405021.0582753526 4.391417499066042e6 0.0
4.391417499066042e6 1.668969622695317e6 0.0
0.0 0.0 0.0

764080.3403869452 1.4865548895464828e6 0.0
1.4865548895464828e6 -1.5201408935758115e6 0.0
0.0 0.0 0.0

-98536.02227171895 4.516737385121583e6 0.0
4.516737385121583e6 -1.267672297808469e6 0.0
0.0 0.0 0.0

859302.0110577961 1.5704162531602958e6 0.0
1.5704162531602958e6 -1.4990125852184063e6 0.0
0.0 0.0 0.0

969851.0861793057 1.6822655446762873e6 0.0
1.6822655446762873e6 -1.643262699299648e6 0.0
0.0 0.0 0.0

1.306556890070099e6 4.169563286848394e6 0.0
4.169563286848394e6 1.0810820612478019e6 0.0
0.0 0.0 0.0

-3.2277865702777156e6 2.4643418305674894e6 0.0
2.4643418305674894e6 1.29569874359375e6 0.0
0.0 0.0 0.0

-20956.045994728338 4.560999513114465e6 0.0
4.560999513114465e6 -1.4897775146374144e6 0.0
0.0 0.0 0.0

-1.097241253254318e6 4.1715853116099965e6 0.0
4.1715853116099965e6 -344476.2981765189 0.0
0.0 0.0 0.0

1.1429255142322448e6 1.8335223567354032e6 0.0
1.8335223567354032e6 -1.8494514579069037e6 0.0
0.0 0.0 0.0

-1.0236176668019644e6 4.093123766962276e6 0.0
4.093123766962276e6 -139447.40524758812 0.0
0.0 0.0 0.0

-1.2788370079729306e6 5.885706783262069e6 0.0
5.885706783262069e6 866377.6659682955 0.0
0.0 0.0 0.0

-355056.2023823295 269570.71285123366 0.0
269570.71285123366 562839.7756568756 0.0
0.0 0.0 0.0

-3.640513498608743e6 8.112717799196256e6 0.0
8.112717799196256e6 1.1466432158102978e6 0.0
0.0 0.0 0.0

-285571.2006767504 3.7567861540018646e6 0.0
3.7567861540018646e6 -478216.27956876537 0.0
0.0 0.0 0.0

1.1650862532179123e6 1.97163871700993e6 0.0
1.97163871700993e6 -1.93778920142943e6 0.0
0.0 0.0 0.0

559835.5926125775 4.2469651928473385e6 0.0
4.2469651928473385e6 261892.30781890257 0.0
0.0 0.0 0.0

-476074.9574138385 3.8950381982501405e6 0.0
3.8950381982501405e6 -174478.28303593624 0.0
0.0 0.0 0.0

1.0541553323816378e6 2.080101493667744e6 0.0
2.080101493667744e6 -2.0506771316985004e6 0.0
0.0 0.0 0.0

-1.3660874671317574e6 3.719178439745169e6 0.0
3.719178439745169e6 760764.347818434 0.0
0.0 0.0 0.0

-499232.4158484028 3.5723298506429526e6 0.0
3.5723298506429526e6 -590146.2525429605 0.0
0.0 0.0 0.0

-685841.1202147645 3.5154592562051555e6 0.0
3.5154592562051555e6 402861.3055582339 0.0
0.0 0.0 0.0

-306757.4673313428 3.505919083088983e6 0.0
3.505919083088983e6 -862141.6140967349 0.0
0.0 0.0 0.0

-845764.772005702 2.548253038115846e6 0.0
2.548253038115846e6 1.2735309117268045e6 0.0
0.0 0.0 0.0

1.1011629250003202e6 3.1319604690241925e6 0.0
3.1319604690241925e6 -2.0698772179342601e6 0.0
0.0 0.0 0.0

-887179.6950555713 4.122055864025528e6 0.0
4.122055864025528e6 -33923.97405541234 0.0
0.0 0.0 0.0

620289.7725842446 66495.20393911203 0.0
66495.20393911203 -995066.160148222 0.0
0.0 0.0 0.0

-289227.80075807945 2.0776612266339285e6 0.0
2.0776612266339285e6 260991.84059007454 0.0
0.0 0.0 0.0

887872.8321482008 1.6059814313155785e6 0.0
1.6059814313155785e6 -1.5403579447661033e6 0.0
0.0 0.0 0.0

-106910.52075206587 -801457.7156016253 0.0
-801457.7156016253 504437.00743623177 0.0
0.0 0.0 0.0

-284015.8024674917 3.0592384047413203e6 0.0
3.0592384047413203e6 -969955.1537344076 0.0
0.0 0.0 0.0

235610.46941701946 -459068.2351135693 0.0
-459068.2351135693 -863783.4052425628 0.0
0.0 0.0 0.0

-37845.13043776553 4.177758464349726e6 0.0
4.177758464349726e6 -662836.9955814409 0.0
0.0 0.0 0.0

-2.0174331497430827e6 3.2344159112300314e6 0.0
3.2344159112300314e6 602752.9753801172 0.0
0.0 0.0 0.0

-207785.6904190902 -639636.4015767975 0.0
-639636.4015767975 286413.3214915653 0.0
0.0 0.0 0.0

-399315.72433780134 3.8158865293353135e6 0.0
3.8158865293353135e6 -348420.7504353058 0.0
0.0 0.0 0.0

-484626.7071199143 4.080718293621386e6 0.0
4.080718293621386e6 -167088.6047638445 0.0
0.0 0.0 0.0

-1.9633067266369842e6 3.144752562013604e6 0.0
3.144752562013604e6 925910.0427860499 0.0
0.0 0.0 0.0

-1.2131639338155969e6 4.362350988059881e6 0.0
4.362350988059881e6 534378.2347056912 0.0
0.0 0.0 0.0

-1.9926314386826174e6 3.0806348395852707e6 0.0
3.0806348395852707e6 890623.2279062115 0.0
0.0 0.0 0.0

-578809.9005621357 2.863899572173225e6 0.0
2.863899572173225e6 -1.278704556485401e6 0.0
0.0 0.0 0.0

-581192.2579456342 5.869654759589622e6 0.0
5.869654759589622e6 -89694.28266401238 0.0
0.0 0.0 0.0

-223460.25506145204 3.5396229076122334e6 0.0
3.5396229076122334e6 -1.0890692897739972e6 0.0
0.0 0.0 0.0

-643594.6678975782 2.700804763562075e6 0.0
2.700804763562075e6 848703.253485244 0.0
0.0 0.0 0.0

-1.154515392646225e6 3.621919572494737e6 0.0
3.621919572494737e6 1.0744413194161311e6 0.0
0.0 0.0 0.0

228630.31557136902 3.0229091760274763e6 0.0
3.0229091760274763e6 -1.5480494980699206e6 0.0
0.0 0.0 0.0

-231912.45254663687 2.830443399702311e6 0.0
2.830443399702311e6 -313892.0308113397 0.0
0.0 0.0 0.0

-2.4668398317447947e6 3.2203139500546306e6 0.0
3.2203139500546306e6 961513.6980692855 0.0
0.0 0.0 0.0

-880646.2941822943 2.5799205696050697e6 0.0
2.5799205696050697e6 401291.12087090453 0.0
0.0 0.0 0.0

-2.5317627825717004e6 5.176393680539605e6 0.0
5.176393680539605e6 1.6767220008971347e6 0.0
0.0 0.0 0.0

-294105.5284682065 3.0462065773726003e6 0.0
3.0462065773726003e6 -987845.1364529186 0.0
0.0 0.0 0.0

-2.0453920690979636e6 4.500391542424781e6 0.0
4.500391542424781e6 -1.0897635719915994e6 0.0
0.0 0.0 0.0

1.1046349519470127e6 2.325183409479606e6 0.0
2.325183409479606e6 -2.0056759139130046e6 0.0
0.0 0.0 0.0

-1.2741171066383156e6 6.579717743999447e6 0.0
6.579717743999447e6 1.1425238347855164e6 0.0
0.0 0.0 0.0

-1.7097965637916233e6 2.120914154940751e6 0.0
2.120914154940751e6 108360.7192290324 0.0
0.0 0.0 0.0

-247030.95811845636 3.972848281838125e6 0.0
3.972848281838125e6 -395878.64189517964 0.0
0.0 0.0 0.0

-2.563622526786676e6 1.6511910390243928e6 0.0
1.6511910390243928e6 275680.6335608949 0.0
0.0 0.0 0.0

1.1588684986452016e6 1.9657588510234666e6 0.0
1.9657588510234666e6 -1.8605545546394442e6 0.0
0.0 0.0 0.0

-809858.9584536799 2.6181235680933287e6 0.0
2.6181235680933287e6 712262.0322974136 0.0
0.0 0.0 0.0

816997.4443539536 719123.8969347656 0.0
719123.8969347656 -1.2416279203521782e6 0.0
0.0 0.0 0.0

949832.4361613425 1.6049514696827242e6 0.0
1.6049514696827242e6 -1.5369068484786681e6 0.0
0.0 0.0 0.0

-465325.43255566014 3.478416141649586e6 0.0
3.478416141649586e6 -626460.3623367394 0.0
0.0 0.0 0.0

-3.745427004674875e6 2.380625111331298e6 0.0
2.380625111331298e6 1.5868228364997162e6 0.0
0.0 0.0 0.0

-2.9965518174918634e6 -323453.164166263 0.0
-323453.164166263 3.284534297783702e6 0.0
0.0 0.0 0.0

-1.44607654204578e6 2.9403721471560607e6 0.0
2.9403721471560607e6 -173674.73560691724 0.0
0.0 0.0 0.0

-1294.84936540731 3.118757023908024e6 0.0
3.118757023908024e6 1.3698781072109703e6 0.0
0.0 0.0 0.0

88316.81473546493 2.1500236237028986e6 0.0
2.1500236237028986e6 -1.3125101089054928e6 0.0
0.0 0.0 0.0

-385853.5840207045 3.405301590313475e6 0.0
3.405301590313475e6 -871736.866866283 0.0
0.0 0.0 0.0

-616556.4584173802 2.79288953497747e6 0.0
2.79288953497747e6 1.1788202190196004e6 0.0
0.0 0.0 0.0

-825873.0124130308 3.4000318365389463e6 0.0
3.4000318365389463e6 98953.37902571977 0.0
0.0 0.0 0.0

-2.3186970808463003e6 3.6246375431745346e6 0.0
3.6246375431745346e6 1.3236961721697445e6 0.0
0.0 0.0 0.0

-51612.50671013186 4.249216586448426e6 0.0
4.249216586448426e6 -607126.3203315658 0.0
0.0 0.0 0.0

-2.529213585675349e6 5.008228430898852e6 0.0
5.008228430898852e6 1.631438512859323e6 0.0
0.0 0.0 0.0

742803.7303254982 647178.5424226873 0.0
647178.5424226873 -1.0226822802827307e6 0.0
0.0 0.0 0.0

389890.90177672607 5.558273924537975e6 0.0
5.558273924537975e6 -914671.2770480078 0.0
0.0 0.0 0.0

-1.599866762609134e6 4.145599225773413e6 0.0
4.145599225773413e6 587999.9398400626 0.0
0.0 0.0 0.0

-22558.746615223703 4.1829086167096095e6 0.0
4.1829086167096095e6 -613748.8193631982 0.0
0.0 0.0 0.0

-1.044130062419228e6 4.0232354011760247e6 0.0
4.0232354011760247e6 -168999.40914841442 0.0
0.0 0.0 0.0

-3.0954870316299926e6 1.845971401103772e6 0.0
1.845971401103772e6 2.717964250119757e6 0.0
0.0 0.0 0.0

-1.4965915523868753e6 3.714487708026289e6 0.0
3.714487708026289e6 862306.4257074255 0.0
0.0 0.0 0.0

914611.6954406603 2.2095590245868242e6 0.0
2.2095590245868242e6 -1.773781299322845e6 0.0
0.0 0.0 0.0

-1.0971870221189277e6 2.9872616722308937e6 0.0
2.9872616722308937e6 233399.53330739646 0.0
0.0 0.0 0.0

-756891.3716736558 4.0559239739322583e6 0.0
4.0559239739322583e6 -238292.4803919096 0.0
0.0 0.0 0.0

-376933.62513719365 197838.29273655 0.0
197838.29273655 -711890.4155306482 0.0
0.0 0.0 0.0

-952755.3768944789 4.025680768766511e6 0.0
4.025680768766511e6 -4716.2552233694005 0.0
0.0 0.0 0.0

-1.4447881646954305e6 -216676.53117344514 0.0
-216676.53117344514 2.7955999039480975e6 0.0
0.0 0.0 0.0

-1.192889850518903e6 2.540215747208287e6 0.0
2.540215747208287e6 618668.9562179663 0.0
0.0 0.0 0.0

-1.9291921043567182e6 3.2244137193740355e6 0.0
3.2244137193740355e6 1.1277729175799913e6 0.0
0.0 0.0 0.0

303150.044876695 4.0083027947219275e6 0.0
4.0083027947219275e6 1.7863880808333438e6 0.0
0.0 0.0 0.0

-104253.90792413946 3.5005736677037324e6 0.0
3.5005736677037324e6 -1.6580978331072931e6 0.0
0.0 0.0 0.0

1.0777584411915466e6 1.9372004400670705e6 0.0
1.9372004400670705e6 -1.9170493292593248e6 0.0
0.0 0.0 0.0

-257924.7940156976 3.5981981012094207e6 0.0
3.5981981012094207e6 -394087.31551462004 0.0
0.0 0.0 0.0

-1.5217577346933475e6 916129.2752393355 0.0
916129.2752393355 2.209481295411639e6 0.0
0.0 0.0 0.0

-2.227086094834891e6 3.357716686586652e6 0.0
3.357716686586652e6 1.1639889771511345e6 0.0
0.0 0.0 0.0

-1.645001816907875e6 3.1421329152451647e6 0.0
3.1421329152451647e6 771730.4953831132 0.0
0.0 0.0 0.0

-1.3627934552391055e6 3.0930370064766197e6 0.0
3.0930370064766197e6 385600.1674021075 0.0
0.0 0.0 0.0

-357405.1152821841 3.9781777639357047e6 0.0
3.9781777639357047e6 202962.422111062 0.0
0.0 0.0 0.0

-71094.53995288265 461957.26333507535 0.0
461957.26333507535 -313150.37176286016 0.0
0.0 0.0 0.0

262061.90022752018 3.5358759211218823e6 0.0
3.5358759211218823e6 -398517.2803974999 0.0
0.0 0.0 0.0

-66388.72120813672 4.242013440457944e6 0.0
4.242013440457944e6 -597105.8607374885 0.0
0.0 0.0 0.0

-2.382739595908677e6 3.0310571694088406e6 0.0
3.0310571694088406e6 597012.7698006136 0.0
0.0 0.0 0.0

-7.636592948784227e6 -247112.17135424734 0.0
-247112.17135424734 7.952190104526185e6 0.0
0.0 0.0 0.0

874272.0175083044 1.4250314023029606e6 0.0
1.4250314023029606e6 -1.5467715482087324e6 0.0
0.0 0.0 0.0

-203914.36544083196 3.793188921185335e6 0.0
3.793188921185335e6 -489752.633727245 0.0
0.0 0.0 0.0

-130736.79846592396 2.780150979416457e6 0.0
2.780150979416457e6 -1.1146277272420507e6 0.0
0.0 0.0 0.0

-284243.315342481 3.186442065936148e6 0.0
3.186442065936148e6 -1.0511742633255932e6 0.0
0.0 0.0 0.0

162156.38380311037 87110.41308590284 0.0
87110.41308590284 -285349.06424864946 0.0
0.0 0.0 0.0

-265300.750922759 2.883509550968684e6 0.0
2.883509550968684e6 -831350.165561569 0.0
0.0 0.0 0.0

-770528.7481740323 2.179818025503398e6 0.0
2.179818025503398e6 -340083.32913205057 0.0
0.0 0.0 0.0

-206970.89225826645 2.9643691712357635e6 0.0
2.9643691712357635e6 -978743.9263927819 0.0
0.0 0.0 0.0

-521381.05885492434 3.619002399913946e6 0.0
3.619002399913946e6 -503068.1357473096 0.0
0.0 0.0 0.0

-458587.104438105 3.449254259260851e6 0.0
3.449254259260851e6 1.6711675977999622e6 0.0
0.0 0.0 0.0

-1.3792469592267035e6 754655.0799495324 0.0
754655.0799495324 2.8919099506711634e6 0.0
0.0 0.0 0.0

-1.2732070113232124e6 3.946600267661921e6 0.0
3.946600267661921e6 735825.6291040967 0.0
0.0 0.0 0.0

-58599.78725371517 4.1901233434446687e6 0.0
4.1901233434446687e6 -518173.93204573134 0.0
0.0 0.0 0.0

-1.2438266152482163e6 3.217871170680578e6 0.0
3.217871170680578e6 881675.9371754307 0.0
0.0 0.0 0.0

111313.81240599201 3.786504001225062e6 0.0
3.786504001225062e6 1.9095983808656167e6 0.0
0.0 0.0 0.0

-842546.401454478 4.061226497809872e6 0.0
4.061226497809872e6 30574.090570964385 0.0
0.0 0.0 0.0

-333393.0420119707 3.674268965552754e6 0.0
3.674268965552754e6 -619166.3266686664 0.0
0.0 0.0 0.0

-2.3371302862785445e6 4.153199252974659e6 0.0
4.153199252974659e6 1.4525793266849087e6 0.0
0.0 0.0 0.0

-1.026872251723655e6 2.9399134653544854e6 0.0
2.9399134653544854e6 304915.40052490775 0.0
0.0 0.0 0.0

-4.669455305521317e6 -3.1337583192310752e6 0.0
-3.1337583192310752e6 8.81230649004133e6 0.0
0.0 0.0 0.0

-654226.5538482129 3.2543999049400403e6 0.0
3.2543999049400403e6 -386850.9902555091 0.0
0.0 0.0 0.0

-2.268416767410283e6 3.2386482279225537e6 0.0
3.2386482279225537e6 870107.9065229446 0.0
0.0 0.0 0.0

344032.0700175235 151657.2962294814 0.0
151657.2962294814 -384754.6494007817 0.0
0.0 0.0 0.0

-392339.7415352727 1.9274031190298689e6 0.0
1.9274031190298689e6 480546.7335276002 0.0
0.0 0.0 0.0

-1.0447558501174801e6 2.830043964583954e6 0.0
2.830043964583954e6 1.0309928871649442e6 0.0
0.0 0.0 0.0

1.0321157923706973e6 1.714873671105796e6 0.0
1.714873671105796e6 -1.7060260545306492e6 0.0
0.0 0.0 0.0

-2.7555631730698943e6 3.195026157400672e6 0.0
3.195026157400672e6 991879.7845796776 0.0
0.0 0.0 0.0

-286739.9272342469 2.785443608506139e6 0.0
2.785443608506139e6 -817480.0297369601 0.0
0.0 0.0 0.0

-755945.4615163039 2.5510263156326744e6 0.0
2.5510263156326744e6 662926.3186337 0.0
0.0 0.0 0.0

973847.4065014485 3.227391927998778e6 0.0
3.227391927998778e6 -1.563897099974453e6 0.0
0.0 0.0 0.0

-2.13341491979116e6 3.0418790817155256e6 0.0
3.0418790817155256e6 656284.3950749162 0.0
0.0 0.0 0.0

-347462.6412156034 2.514328824999612e6 0.0
2.514328824999612e6 -1.10750102845762e6 0.0
0.0 0.0 0.0

452499.89372319146 943513.8963902129 0.0
943513.8963902129 -828949.4153901397 0.0
0.0 0.0 0.0

-1.2579571304429586e6 2.2104206224050145e6 0.0
2.2104206224050145e6 739518.2978022594 0.0
0.0 0.0 0.0

-2.3599003113199775e6 2.1496266478820066e6 0.0
2.1496266478820066e6 168882.57425831875 0.0
0.0 0.0 0.0

16964.387255517824 4.108451507862661e6 0.0
4.108451507862661e6 -646215.3670521094 0.0
0.0 0.0 0.0

-2.885769547702917e6 2.61375513746181e6 0.0
2.61375513746181e6 1.138108844100415e6 0.0
0.0 0.0 0.0

129809.46513282528 836532.742750541 0.0
836532.742750541 151346.27967986325 0.0
0.0 0.0 0.0

427814.3945528758 2.7638357308310377e6 0.0
2.7638357308310377e6 -1.1418532458718014e6 0.0
0.0 0.0 0.0

2.028892631903178e6 5.871806018545068e6 0.0
5.871806018545068e6 -468593.4550303179 0.0
0.0 0.0 0.0

-2.2998538084628293e6 3.408421293195825e6 0.0
3.408421293195825e6 1.1869095666282168e6 0.0
0.0 0.0 0.0

-1.216413505018485e6 3.738828602974754e6 0.0
3.738828602974754e6 53362.61400899006 0.0
0.0 0.0 0.0

-1.6508205548123072e6 3.1278576524480633e6 0.0
3.1278576524480633e6 526783.3788636212 0.0
0.0 0.0 0.0

-1.9471813374782177e6 4.21724248769042e6 0.0
4.21724248769042e6 5.211418854429025e6 0.0
0.0 0.0 0.0

1.118962459567694e6 1.8270041082876134e6 0.0
1.8270041082876134e6 -1.8415262565992395e6 0.0
0.0 0.0 0.0

-1.1404923599615963e6 2.1284145103713353e6 0.0
2.1284145103713353e6 595039.8798901611 0.0
0.0 0.0 0.0

-1.7624549611883196e6 5.803857347098951e6 0.0
5.803857347098951e6 836225.9449367349 0.0
0.0 0.0 0.0

446430.6905460865 3.7243844747134726e6 0.0
3.7243844747134726e6 -1.96295952000336e6 0.0
0.0 0.0 0.0

-3.537487687593707e6 -535640.6753965325 0.0
-535640.6753965325 3.981526609350341e6 0.0
0.0 0.0 0.0

-773039.5958071908 4.0335440345882117e6 0.0
4.0335440345882117e6 -210194.38041848483 0.0
0.0 0.0 0.0

-236289.09654288105 3.3351710014740196e6 0.0
3.3351710014740196e6 -867969.167925173 0.0
0.0 0.0 0.0

-209618.01579529152 2.929519831806145e6 0.0
2.929519831806145e6 -978161.9892416399 0.0
0.0 0.0 0.0

-502809.55538464343 3.5670395144698475e6 0.0
3.5670395144698475e6 1.4168988517877015e6 0.0
0.0 0.0 0.0

-1.0995216081398902e6 6.099967902136973e6 0.0
6.099967902136973e6 767324.1365362634 0.0
0.0 0.0 0.0

-2.5511003582884073e6 -969600.4557311803 0.0
-969600.4557311803 2.527659226422157e6 0.0
0.0 0.0 0.0

-417317.0070357403 9.185735548212128e6 0.0
9.185735548212128e6 1.1306577921231638e6 0.0
0.0 0.0 0.0

-1.5543013384061349e6 6.262792660901477e6 0.0
6.262792660901477e6 530840.741417383 0.0
0.0 0.0 0.0

1.0109878977797119e6 1.363028589948136e6 0.0
1.363028589948136e6 -1.5795657104568875e6 0.0
0.0 0.0 0.0

-1.9910616054156558e6 3.219524597421244e6 0.0
3.219524597421244e6 703212.8101549841 0.0
0.0 0.0 0.0

170359.59671723496 4.385849055597238e6 0.0
4.385849055597238e6 663712.932450628 0.0
0.0 0.0 0.0

-3.580329236515294e6 -1.0699708192251502e6 0.0
-1.0699708192251502e6 5.35039296095346e6 0.0
0.0 0.0 0.0

-746223.6184064334 3.1824107979306392e6 0.0
3.1824107979306392e6 -291454.13468828367 0.0
0.0 0.0 0.0

-870763.8828883871 3.452721814278235e6 0.0
3.452721814278235e6 1.7574169120386061e6 0.0
0.0 0.0 0.0

-435844.6039989297 3.4959381293175705e6 0.0
3.4959381293175705e6 -554935.1420741673 0.0
0.0 0.0 0.0

1.1476069820442563e6 1.8603044644420855e6 0.0
1.8603044644420855e6 -1.9523416311926455e6 0.0
0.0 0.0 0.0

-2.219570113849464e6 3.7689512503341082e6 0.0
3.7689512503341082e6 1.4030278137919628e6 0.0
0.0 0.0 0.0

-211154.30947824495 3.5397517995362454e6 0.0
3.5397517995362454e6 -1.2165059358281088e6 0.0
0.0 0.0 0.0

-1.7363837517860355e6 4.5699658943921495e6 0.0
4.5699658943921495e6 855922.4799943189 0.0
0.0 0.0 0.0

-3.431337938703097e6 -345296.53205554036 0.0
-345296.53205554036 5.827486890431445e6 0.0
0.0 0.0 0.0

-339511.97772819636 3.615000914047615e6 0.0
3.615000914047615e6 -995504.171558364 0.0
0.0 0.0 0.0

445958.7738250587 2.9185922305881204e6 0.0
2.9185922305881204e6 -1.997923653150569e6 0.0
0.0 0.0 0.0

-613705.3791085439 3.9863349902579114e6 0.0
3.9863349902579114e6 -87148.95840225116 0.0
0.0 0.0 0.0

-430108.02291787136 3.8141773865283285e6 0.0
3.8141773865283285e6 -1.0785098241709636e6 0.0
0.0 0.0 0.0

-969272.6364352804 -515767.3678882936 0.0
-515767.3678882936 1.9631173237257318e6 0.0
0.0 0.0 0.0

-1.5982515562992897e6 4.511177296647467e6 0.0
4.511177296647467e6 3.581070262993113e6 0.0
0.0 0.0 0.0

598031.8236435963 3.7037534269018294e6 0.0
3.7037534269018294e6 -1.7113470165567412e6 0.0
0.0 0.0 0.0

-1.4556916912210193e6 4.481638718290653e6 0.0
4.481638718290653e6 866797.3011252928 0.0
0.0 0.0 0.0

-759923.8787999409 3.4310383930368354e6 0.0
3.4310383930368354e6 1.3476407174463444e6 0.0
0.0 0.0 0.0

737016.1474018954 2.3048107754509645e6 0.0
2.3048107754509645e6 -1.5601534153848963e6 0.0
0.0 0.0 0.0

231174.0772032972 4.107173799525491e6 0.0
4.107173799525491e6 1.47198419748891e6 0.0
0.0 0.0 0.0

-1.4921926729355864e6 4.313971135239446e6 0.0
4.313971135239446e6 908292.2438228506 0.0
0.0 0.0 0.0

-129204.88189720953 56937.686071765595 0.0
56937.686071765595 204064.18904638197 0.0
0.0 0.0 0.0

-1.1564862839998407e6 -492430.88904540474 0.0
-492430.88904540474 1.3439312936713004e6 0.0
0.0 0.0 0.0

1.095542886493838e6 1.804622312372843e6 0.0
1.804622312372843e6 -1.7726109847905291e6 0.0
0.0 0.0 0.0

-1.4318693131543985e6 3.072706787241728e6 0.0
3.072706787241728e6 490774.15542423254 0.0
0.0 0.0 0.0

-603672.7491698207 4.045934421693797e6 0.0
4.045934421693797e6 236380.21398707066 0.0
0.0 0.0 0.0

-882968.5133532367 3.4093639430091255e6 0.0
3.4093639430091255e6 -97146.56798843227 0.0
0.0 0.0 0.0

507148.9044907178 176595.14093932018 0.0
176595.14093932018 -536920.3057155081 0.0
0.0 0.0 0.0

-1.3020439270923522e6 3.2284382869950896e6 0.0
3.2284382869950896e6 645160.770437191 0.0
0.0 0.0 0.0

-1.2992066431212923e6 -715695.194286543 0.0
-715695.194286543 1.5610005339976214e6 0.0
0.0 0.0 0.0

-246322.2145703549 3.4651894418149376e6 0.0
3.4651894418149376e6 -22966.18787981551 0.0
0.0 0.0 0.0

441187.38805062673 4.328458088136254e6 0.0
4.328458088136254e6 -1.1561181574624693e6 0.0
0.0 0.0 0.0

807394.7450545087 3.5630574178223796e6 0.0
3.5630574178223796e6 -1.4390676954309521e6 0.0
0.0 0.0 0.0

-336249.1691570991 1.6990590608210089e6 0.0
1.6990590608210089e6 545127.4239389515 0.0
0.0 0.0 0.0

-1.1411793522055908e6 3.118955965849987e6 0.0
3.118955965849987e6 94776.92476136057 0.0
0.0 0.0 0.0

492897.2611999548 154231.93574328694 0.0
154231.93574328694 -564025.9841690284 0.0
0.0 0.0 0.0

-312187.70393050706 3.654866300370143e6 0.0
3.654866300370143e6 -932694.318175354 0.0
0.0 0.0 0.0

-1.4352178995226366e6 3.506097772876859e6 0.0
3.506097772876859e6 235231.25289328332 0.0
0.0 0.0 0.0

-904331.6872351054 3.822488139048026e6 0.0
3.822488139048026e6 2.435823197602972e6 0.0
0.0 0.0 0.0

-610886.9201961735 4.488192509492262e6 0.0
4.488192509492262e6 -28790.261338479468 0.0
0.0 0.0 0.0

-4.1207035815251227e6 -3.6265296944672293e6 0.0
-3.6265296944672293e6 5.085529992218193e6 0.0
0.0 0.0 0.0

-1.5078753009064365e6 191833.68728585265 0.0
191833.68728585265 2.992667019341723e6 0.0
0.0 0.0 0.0

-531336.8535667657 2.957853745531373e6 0.0
2.957853745531373e6 -38419.48081740065 0.0
0.0 0.0 0.0

-514006.4733965236 2.6330536364804246e6 0.0
2.6330536364804246e6 -204615.62494052562 0.0
0.0 0.0 0.0

680803.8913468935 402857.5850074893 0.0
402857.5850074893 -876481.3502980574 0.0
0.0 0.0 0.0

-2.3519357884405977e6 2.6587422717365483e6 0.0
2.6587422717365483e6 1.129931682400967e6 0.0
0.0 0.0 0.0

1.1066435799051153e6 1.8242256876902622e6 0.0
1.8242256876902622e6 -1.8457265114490832e6 0.0
0.0 0.0 0.0

-364090.81868690375 3.2318670567347463e6 0.0
3.2318670567347463e6 -701879.6488241919 0.0
0.0 0.0 0.0

-200005.22387097235 4.0464764679727526e6 0.0
4.0464764679727526e6 -616511.1153699508 0.0
0.0 0.0 0.0

-1.0706756168752015e6 6.069668220782266e6 0.0
6.069668220782266e6 128898.730409902 0.0
0.0 0.0 0.0

-431819.4149896638 3.6565391864996953e6 0.0
3.6565391864996953e6 -444304.3237483473 0.0
0.0 0.0 0.0

-1.6561048803464877e6 4.945373058181275e6 0.0
4.945373058181275e6 -442487.2905116079 0.0
0.0 0.0 0.0

-2.3060710556507185e6 3.8866260154236807e6 0.0
3.8866260154236807e6 1.3478600840287283e6 0.0
0.0 0.0 0.0

-131564.39002143216 1.1869394815981612e6 0.0
1.1869394815981612e6 -442558.3402268413 0.0
0.0 0.0 0.0

-3.3824917673753914e6 2.60309246211107e6 0.0
2.60309246211107e6 1.1592750664183986e6 0.0
0.0 0.0 0.0

-1.3604130300258007e6 3.058581000015136e6 0.0
3.058581000015136e6 267552.48510869144 0.0
0.0 0.0 0.0

351015.21816354996 633536.1386369922 0.0
633536.1386369922 -843253.2845498957 0.0
0.0 0.0 0.0

-1.3284320275511246e6 3.076559639332532e6 0.0
3.076559639332532e6 397144.0631365508 0.0
0.0 0.0 0.0

121595.44785633893 473661.4208945833 0.0
473661.4208945833 -408709.03943089617 0.0
0.0 0.0 0.0

-631912.3614100356 1.8612852054876692e6 0.0
1.8612852054876692e6 -369953.40476296755 0.0
0.0 0.0 0.0

185787.2445776126 4.230432493076953e6 0.0
4.230432493076953e6 -1.5568940389512118e6 0.0
0.0 0.0 0.0

-1.285330058047735e6 5.292799590005742e6 0.0
5.292799590005742e6 96998.23914129718 0.0
0.0 0.0 0.0

-536620.071097749 3.2499662354811723e6 0.0
3.2499662354811723e6 769624.4095921748 0.0
0.0 0.0 0.0

-370389.57156073983 4.149373500264437e6 0.0
4.149373500264437e6 -102750.99441911967 0.0
0.0 0.0 0.0

367789.4751820407 939774.3033431956 0.0
939774.3033431956 -853944.8052942348 0.0
0.0 0.0 0.0

-1.9568091909868598e6 3.628170595343819e6 0.0
3.628170595343819e6 1.0965166574877459e6 0.0
0.0 0.0 0.0

-2.2994481128330585e6 4.283422698226239e6 0.0
4.283422698226239e6 1.390895408595014e6 0.0
0.0 0.0 0.0

-669830.2658765435 4.0654360309607354e6 0.0
4.0654360309607354e6 -192746.33161083361 0.0
0.0 0.0 0.0

468069.7590349622 932823.1526939067 0.0
932823.1526939067 -940947.4049194554 0.0
0.0 0.0 0.0

-226111.51066937906 3.7814909881649194e6 0.0
3.7814909881649194e6 -1.2729919121747056e6 0.0
0.0 0.0 0.0

-2.193532127279945e6 2.89133935415773e6 0.0
2.89133935415773e6 664797.2163230882 0.0
0.0 0.0 0.0

-2.154281432008932e6 2.981190228198535e6 0.0
2.981190228198535e6 629860.0499400507 0.0
0.0 0.0 0.0

12598.228590019513 4.199744105362247e6 0.0
4.199744105362247e6 -1.4964420555765647e6 0.0
0.0 0.0 0.0

-511081.2971465837 3.833013999889551e6 0.0
3.833013999889551e6 -1.1580348928165794e6 0.0
0.0 0.0 0.0

-261419.19970348693 3.866679304660471e6 0.0
3.866679304660471e6 -558944.4900795369 0.0
0.0 0.0 0.0

625959.6594564308 2.8811190798907136e6 0.0
2.8811190798907136e6 -2.0930653926631832e6 0.0
0.0 0.0 0.0

-159935.10199897148 612913.5249083583 0.0
612913.5249083583 1.0143780444849483e6 0.0
0.0 0.0 0.0

-55056.01390795101 2.225922569218912e6 0.0
2.225922569218912e6 -781173.8127870323 0.0
0.0 0.0 0.0

-2.0552323118870792e6 6.853574030347718e6 0.0
6.853574030347718e6 820047.8967411325 0.0
0.0 0.0 0.0

-388538.7704064606 3.782629291644452e6 0.0
3.782629291644452e6 95187.03306320944 0.0
0.0 0.0 0.0

-1.0178701605146405e6 3.4795270285523185e6 0.0
3.4795270285523185e6 1.927601622124311e6 0.0
0.0 0.0 0.0

-913540.0335016985 2.770320270552546e6 0.0
2.770320270552546e6 1.6021015516404528e6 0.0
0.0 0.0 0.0

-379865.931195294 4.0371817744849236e6 0.0
4.0371817744849236e6 -925412.7096994616 0.0
0.0 0.0 0.0

-1.8654901020438222e6 3.543554190149449e6 0.0
3.543554190149449e6 1.1664988692502533e6 0.0
0.0 0.0 0.0

-2.1340673107266445e6 3.3998176388038183e6 0.0
3.3998176388038183e6 -1.3270086914018071e6 0.0
0.0 0.0 0.0

-370992.1056285723 4.0241102814995944e6 0.0
4.0241102814995944e6 -956344.0855049879 0.0
0.0 0.0 0.0

-595866.6365171769 3.941714808066731e6 0.0
3.941714808066731e6 -309605.97990080726 0.0
0.0 0.0 0.0

1.031267923744044e6 1.71316386562256e6 0.0
1.71316386562256e6 -1.71070333650514e6 0.0
0.0 0.0 0.0

-2.6149745721336384e6 2.544181939762239e6 0.0
2.544181939762239e6 1.2865696853026014e6 0.0
0.0 0.0 0.0

-3.541867135080186e6 2.0946669132769175e6 0.0
2.0946669132769175e6 1.5460243999664325e6 0.0
0.0 0.0 0.0

269040.0800461279 344754.1483076164 0.0
344754.1483076164 59486.218631291966 0.0
0.0 0.0 0.0

-1.2849422101116397e6 5.729707418903311e6 0.0
5.729707418903311e6 390958.00381195697 0.0
0.0 0.0 0.0

-1.1402970349129952e7 -3.392427715348614e6 0.0
-3.392427715348614e6 1.2893376380763967e7 0.0
0.0 0.0 0.0

-228840.20787694427 100822.65290400424 0.0
100822.65290400424 465895.87878988724 0.0
0.0 0.0 0.0

-520866.59475798 2.0593421696087623e6 0.0
2.0593421696087623e6 -136384.814842182 0.0
0.0 0.0 0.0

-326277.9319996353 3.4436908112976267e6 0.0
3.4436908112976267e6 -809767.8148120692 0.0
0.0 0.0 0.0

-2.4442301480898103e6 4.230370127008801e6 0.0
4.230370127008801e6 1.4491895994287017e6 0.0
0.0 0.0 0.0

-1.864492230306895e6 2.5493115213793484e6 0.0
2.5493115213793484e6 730409.791235376 0.0
0.0 0.0 0.0

-947938.7115258859 2.160764132348166e6 0.0
2.160764132348166e6 496687.15325154737 0.0
0.0 0.0 0.0

-2.2110862409651466e6 3.8299791853103237e6 0.0
3.8299791853103237e6 1.3430094040596131e6 0.0
0.0 0.0 0.0

-2.3367271883269516e6 3.0886470426740632e6 0.0
3.0886470426740632e6 695556.9009331712 0.0
0.0 0.0 0.0

-2.3286602776618344e6 4.30332201649654e6 0.0
4.30332201649654e6 1.4364212938895028e6 0.0
0.0 0.0 0.0

427713.7365681167 2.7588728744436065e6 0.0
2.7588728744436065e6 -1.4822818301520543e6 0.0
0.0 0.0 0.0

-662900.9528124104 2.732253863717468e6 0.0
2.732253863717468e6 590738.4801833017 0.0
0.0 0.0 0.0

-2.400122036663688e6 -1.435448869676689e6 0.0
-1.435448869676689e6 3.0931957314017396e6 0.0
0.0 0.0 0.0

-541269.1164687502 5.642678153769799e6 0.0
5.642678153769799e6 6.1642253085832475e6 0.0
0.0 0.0 0.0

-4.779531389584232e6 -823904.4272821215 0.0
-823904.4272821215 2.745228568120752e6 0.0
0.0 0.0 0.0

227920.09654633433 5.535854311499169e6 0.0
5.535854311499169e6 -1.6040770890104796e6 0.0
0.0 0.0 0.0

-96275.34216900461 3.4516009109669835e6 0.0
3.4516009109669835e6 -1.6023028987173268e6 0.0
0.0 0.0 0.0

-116370.43202210782 528612.8690143507 0.0
528612.8690143507 -535284.5653544355 0.0
0.0 0.0 0.0

1.5731871066925575e6 6.264480977730099e6 0.0
6.264480977730099e6 -312141.7949456449 0.0
0.0 0.0 0.0

-318026.2018285195 2.0631796335899185e6 0.0
2.0631796335899185e6 95498.76353518882 0.0
0.0 0.0 0.0

-698831.0725489043 2.7927746606894536e6 0.0
2.7927746606894536e6 1.5121052417620204e6 0.0
0.0 0.0 0.0

-2.293927653163506e6 3.6482680065598125e6 0.0
3.6482680065598125e6 1.2800273838231573e6 0.0
0.0 0.0 0.0

-1.2261406048481225e6 3.6971703187178764e6 0.0
3.6971703187178764e6 106893.4907072187 0.0
0.0 0.0 0.0

-1.3926700384676347e6 2.240855189523604e6 0.0
2.240855189523604e6 419100.59250868205 0.0
0.0 0.0 0.0

-1.594552420960556e6 1.6462820861082948e6 0.0
1.6462820861082948e6 443093.4960902544 0.0
0.0 0.0 0.0

-706069.5538301682 3.643840203518623e6 0.0
3.643840203518623e6 -1.3906608922213872e6 0.0
0.0 0.0 0.0

-446987.18148712703 3.8142061383472644e6 0.0
3.8142061383472644e6 -362105.5353605684 0.0
0.0 0.0 0.0

-499367.20231946965 2.99272946056929e6 0.0
2.99272946056929e6 266008.4762629124 0.0
0.0 0.0 0.0

-7.347140534287642e6 -2.1583679175415523e6 0.0
-2.1583679175415523e6 1.3503162938862815e7 0.0
0.0 0.0 0.0

-2.123315835192497e6 3.337912762987163e6 0.0
3.337912762987163e6 1.1018361987028187e6 0.0
0.0 0.0 0.0

1.1174541938083824e6 1.8189794380978015e6 0.0
1.8189794380978015e6 -1.7819781956703574e6 0.0
0.0 0.0 0.0

-554280.5048829874 4.0054975490083713e6 0.0
4.0054975490083713e6 -90346.98594840623 0.0
0.0 0.0 0.0

-677803.5606688018 3.333671546980154e6 0.0
3.333671546980154e6 162031.28373595772 0.0
0.0 0.0 0.0

-647512.597347452 4.747119500157994e6 0.0
4.747119500157994e6 32238.134503905545 0.0
0.0 0.0 0.0

-1.4735025013742824e6 3.5489165292754704e6 0.0
3.5489165292754704e6 451246.9034280153 0.0
0.0 0.0 0.0

-2.688377038848031e6 2.9909881865640846e6 0.0
2.9909881865640846e6 1.0513813563298765e6 0.0
0.0 0.0 0.0

-236157.0991688664 1.2667462705985198e6 0.0
1.2667462705985198e6 -432331.21192105656 0.0
0.0 0.0 0.0

-1.7401529721605533e6 2.715423772158796e6 0.0
2.715423772158796e6 279614.8813960453 0.0
0.0 0.0 0.0

-2.1418682539923415e6 3.21470518006001e6 0.0
3.21470518006001e6 769927.3812577543 0.0
0.0 0.0 0.0

-515886.53741768753 2.6068400544263273e6 0.0
2.6068400544263273e6 16861.3019379607 0.0
0.0 0.0 0.0

-453375.7794750254 6.50220654030204e6 0.0
6.50220654030204e6 -43041.06370963757 0.0
0.0 0.0 0.0

-567367.3335347988 2.978063092400221e6 0.0
2.978063092400221e6 -374497.98459446576 0.0
0.0 0.0 0.0

-2.235113229246655e6 3.4217844059013235e6 0.0
3.4217844059013235e6 1.1525413107218007e6 0.0
0.0 0.0 0.0

-1.3466747173620027e6 1.9194668697386147e6 0.0
1.9194668697386147e6 296555.9617625902 0.0
0.0 0.0 0.0

-359712.3304373621 3.810676032801628e6 0.0
3.810676032801628e6 -358467.996622874 0.0
0.0 0.0 0.0

-871053.0557410386 255820.67716132302 0.0
255820.67716132302 1.0080813023161944e6 0.0
0.0 0.0 0.0

-1.9585661260159598e6 2.4261903920571804e6 0.0
2.4261903920571804e6 1.4545733554790008e6 0.0
0.0 0.0 0.0

-430497.00910872244 3.416398555549187e6 0.0
3.416398555549187e6 -752279.9939654294 0.0
0.0 0.0 0.0

-1.5792444491831192e6 3.335045027288569e6 0.0
3.335045027288569e6 2.140834496634619e6 0.0
0.0 0.0 0.0

-378296.5042719514 3.2132502903894247e6 0.0
3.2132502903894247e6 -816915.87811636 0.0
0.0 0.0 0.0

-570642.446008816 2.711611850403985e6 0.0
2.711611850403985e6 611377.3460758254 0.0
0.0 0.0 0.0

-3.327147732252067e6 388839.20368793234 0.0
388839.20368793234 3.3037333088966464e6 0.0
0.0 0.0 0.0

-474972.87388143357 3.8336686529179183e6 0.0
3.8336686529179183e6 -330627.28502641845 0.0
0.0 0.0 0.0

-93405.42938720291 1.1061069097444457e6 0.0
1.1061069097444457e6 -359394.5855357884 0.0
0.0 0.0 0.0

-135670.3561475967 4.1084493829147113e6 0.0
4.1084493829147113e6 -542344.3107516711 0.0
0.0 0.0 0.0

-1.4960086785027578e6 6.531205651449403e6 0.0
6.531205651449403e6 454589.2807890874 0.0
0.0 0.0 0.0

-8.555851778798915e6 990106.0583787346 0.0
990106.0583787346 5.791592443060107e6 0.0
0.0 0.0 0.0

-2.673024500220986e6 6.52233242237354e6 0.0
6.52233242237354e6 1.8536541771485312e6 0.0
0.0 0.0 0.0

-1.1923018240044198e6 3.9847259087744583e6 0.0
3.9847259087744583e6 -183446.23279777626 0.0
0.0 0.0 0.0

-2.7089026600021115e6 5.546525030367225e6 0.0
5.546525030367225e6 1.7226450130233995e6 0.0
0.0 0.0 0.0

81609.51427664771 390714.73310905456 0.0
390714.73310905456 -12385.147551859372 0.0
0.0 0.0 0.0

-714234.5166214383 4.800259970286517e6 0.0
4.800259970286517e6 -55749.39767169664 0.0
0.0 0.0 0.0

-2.4230272267965632e6 2.9522896715925448e6 0.0
2.9522896715925448e6 582127.3160552544 0.0
0.0 0.0 0.0

-637154.0525925036 3.9704886787720527e6 0.0
3.9704886787720527e6 -268224.75597246713 0.0
0.0 0.0 0.0

-237734.5572578778 3.2054658807316455e6 0.0
3.2054658807316455e6 -1.1732837476143679e6 0.0
0.0 0.0 0.0

-1.4123632686919936e6 3.494082661983114e6 0.0
3.494082661983114e6 65505.00477222662 0.0
0.0 0.0 0.0

-1.6535181544692526e6 2.3976920290703275e6 0.0
2.3976920290703275e6 1.3287077191573442e6 0.0
0.0 0.0 0.0

-2.617335113039477e6 6.071449840344265e6 0.0
6.071449840344265e6 1.370759527805466e6 0.0
0.0 0.0 0.0

-1.741196399994607e6 2.4461323392280494e6 0.0
2.4461323392280494e6 76355.84403766692 0.0
0.0 0.0 0.0

-674741.4551194592 4.485342830280426e6 0.0
4.485342830280426e6 -36332.58332759183 0.0
0.0 0.0 0.0

928458.5964184826 799251.5005490645 0.0
799251.5005490645 -1.7266112182404203e6 0.0
0.0 0.0 0.0

-253789.323571904 4.357655581084389e6 0.0
4.357655581084389e6 -1.499512249125439e6 0.0
0.0 0.0 0.0

821200.3469558364 388815.3040173618 0.0
388815.3040173618 -1.8849421050179058e6 0.0
0.0 0.0 0.0

-259497.06297697706 3.827521711389718e6 0.0
3.827521711389718e6 1824.605194728414 0.0
0.0 0.0 0.0

-442544.3337182332 4.0038729450508743e6 0.0
4.0038729450508743e6 -245960.6631535201 0.0
0.0 0.0 0.0

-1.4304111636300122e6 5.55271388052231e6 0.0
5.55271388052231e6 513454.9371225855 0.0
0.0 0.0 0.0

-527974.5119376744 1.5067026101463055e6 0.0
1.5067026101463055e6 821998.5131442295 0.0
0.0 0.0 0.0

-1.2356813158157244e6 2.385764356706123e6 0.0
2.385764356706123e6 638118.1101827049 0.0
0.0 0.0 0.0

-747640.8245697547 1.22743962444123e6 0.0
1.22743962444123e6 1.5388885127928262e6 0.0
0.0 0.0 0.0

449605.48924996785 3.714853245849525e6 0.0
3.714853245849525e6 -1.1240685825122416e6 0.0
0.0 0.0 0.0

-82246.0805690294 4.33028275153805e6 0.0
4.33028275153805e6 -533595.1087025556 0.0
0.0 0.0 0.0

-1.5988162676141062e6 3.303127981921291e6 0.0
3.303127981921291e6 -55070.47930235765 0.0
0.0 0.0 0.0

-322424.10661460157 3.57434340320681e6 0.0
3.57434340320681e6 -1.0440774685675068e6 0.0
0.0 0.0 0.0

62611.64362064906 3.477790796050982e6 0.0
3.477790796050982e6 -819462.4361838715 0.0
0.0 0.0 0.0

52407.3063745245 732211.1173793039 0.0
732211.1173793039 23597.69664166351 0.0
0.0 0.0 0.0

-2.0903483470390548e6 1.3560910657159658e6 0.0
1.3560910657159658e6 -205887.0672605941 0.0
0.0 0.0 0.0

-1.2281884469379243e6 8.710785876521325e6 0.0
8.710785876521325e6 -1.5089311374560015e6 0.0
0.0 0.0 0.0

-1.2681451821936872e6 3.8093001952582668e6 0.0
3.8093001952582668e6 -15372.441895001568 0.0
0.0 0.0 0.0

-282481.6733644006 2.550974527462245e6 0.0
2.550974527462245e6 -998414.3277192733 0.0
0.0 0.0 0.0

-1.8640456116332915e6 800830.3212155824 0.0
800830.3212155824 2.869173787035521e6 0.0
0.0 0.0 0.0

-38500.01181414633 132201.98143594366 0.0
132201.98143594366 245900.19777063644 0.0
0.0 0.0 0.0

-568804.7588283585 3.0414929727920876e6 0.0
3.0414929727920876e6 -467813.1493218395 0.0
0.0 0.0 0.0

-1.817777698044809e6 4.109599794204441e6 0.0
4.109599794204441e6 926719.9457301325 0.0
0.0 0.0 0.0

-1.0645816399099745e6 2.5820784637846197e6 0.0
2.5820784637846197e6 282509.18881532585 0.0
0.0 0.0 0.0

-2.8991277655126536e6 -63999.53021994268 0.0
-63999.53021994268 5.335245258754513e6 0.0
0.0 0.0 0.0

-111296.02876325819 3.2573985495788055e6 0.0
3.2573985495788055e6 -1.324869863704325e6 0.0
0.0 0.0 0.0

-1.851169989075681e6 3.792160922437426e6 0.0
3.792160922437426e6 965330.2070088524 0.0
0.0 0.0 0.0

-178717.6843962062 3.1846266931913244e6 0.0
3.1846266931913244e6 -1.1508026579385619e6 0.0
0.0 0.0 0.0

-199462.78164821543 2.2776868291666056e6 0.0
2.2776868291666056e6 988309.6392222574 0.0
0.0 0.0 0.0

-1.7575312160575883e6 -13527.37037102694 0.0
-13527.37037102694 3.2429710886535426e6 0.0
0.0 0.0 0.0

-304093.8039562354 3.6542253373500784e6 0.0
3.6542253373500784e6 -677936.2565330664 0.0
0.0 0.0 0.0

-424069.63894185243 3.7319866761353496e6 0.0
3.7319866761353496e6 -165359.83684950674 0.0
0.0 0.0 0.0

-1.4212007497940185e6 4.75525897459796e6 0.0
4.75525897459796e6 841566.4390855415 0.0
0.0 0.0 0.0

731723.5175031973 2.8166751636280334e6 0.0
2.8166751636280334e6 -1.4725545468572807e6 0.0
0.0 0.0 0.0

-154125.27282814673 612546.9844486488 0.0
612546.9844486488 -464782.7255939595 0.0
0.0 0.0 0.0

584564.5296227983 4.0354427827815833e6 0.0
4.0354427827815833e6 -1.0483517934168747e6 0.0
0.0 0.0 0.0

-1.0152946040529171e6 4.613112862486733e6 0.0
4.613112862486733e6 -355582.7168835649 0.0
0.0 0.0 0.0

-1.9458327595215105e6 -70569.92941264276 0.0
-70569.92941264276 2.6493165546522993e6 0.0
0.0 0.0 0.0

-1.127286867009817e6 4.990623126990451e6 0.0
4.990623126990451e6 -273598.87966098415 0.0
0.0 0.0 0.0

-1.0110645903254712e6 2.4774829568295875e6 0.0
2.4774829568295875e6 235107.41370096535 0.0
0.0 0.0 0.0

771338.936985192 3.186165324574204e6 0.0
3.186165324574204e6 -2.0804118518294469e6 0.0
0.0 0.0 0.0

-1.275944420067092e6 885631.370699794 0.0
885631.370699794 2.6925277941999775e6 0.0
0.0 0.0 0.0

-53063.266347310244 4.24232529720706e6 0.0
4.24232529720706e6 -621851.3527273795 0.0
0.0 0.0 0.0

186168.04601978476 4.345226872074199e6 0.0
4.345226872074199e6 -1.5088462583835456e6 0.0
0.0 0.0 0.0

1.1484971046282772e6 1.8491551096468542e6 0.0
1.8491551096468542e6 -1.8209357590803811e6 0.0
0.0 0.0 0.0

-868976.7497184896 3.028197642550968e6 0.0
3.028197642550968e6 644869.4262131664 0.0
0.0 0.0 0.0

-1.689352215100701e6 4.021036077134803e6 0.0
4.021036077134803e6 1.0020895095539122e6 0.0
0.0 0.0 0.0

-540845.5271075268 1.8281987510673709e6 0.0
1.8281987510673709e6 -317974.10071944934 0.0
0.0 0.0 0.0

-109186.87105495972 -318894.9686118638 0.0
-318894.9686118638 271253.4080111993 0.0
0.0 0.0 0.0

71248.21251661306 447050.50436935725 0.0
447050.50436935725 -361598.4768776522 0.0
0.0 0.0 0.0

-818937.0802860337 2.5454760419103494e6 0.0
2.5454760419103494e6 437154.7430232784 0.0
0.0 0.0 0.0

-15198.195793846331 3.0090279225680516e6 0.0
3.0090279225680516e6 1.040117074548941e6 0.0
0.0 0.0 0.0

-631685.6574940768 2.2979244372783755e6 0.0
2.2979244372783755e6 1.18889778489658e6 0.0
0.0 0.0 0.0

-1.7220923296274147e6 5.348255829858875e6 0.0
5.348255829858875e6 70809.60998208506 0.0
0.0 0.0 0.0

-672068.3213126437 2.869536636443683e6 0.0
2.869536636443683e6 -1.1417354489256921e6 0.0
0.0 0.0 0.0

-1.510147513489044e6 5.340060729681112e6 0.0
5.340060729681112e6 10681.82036876143 0.0
0.0 0.0 0.0

-1.785970899858852e6 3.1370329123680796e6 0.0
3.1370329123680796e6 1.082979899942816e6 0.0
0.0 0.0 0.0

529273.3896753867 4.1520369024926187e6 0.0
4.1520369024926187e6 -1.102388316910066e6 0.0
0.0 0.0 0.0

155677.64609189308 25106.446202164858 0.0
25106.446202164858 -932117.214627495 0.0
0.0 0.0 0.0

-20967.23073137177 1.045218017148504e6 0.0
1.045218017148504e6 -60267.46172095858 0.0
0.0 0.0 0.0

-147204.97558974318 4.204035398767557e6 0.0
4.204035398767557e6 -548379.9818368672 0.0
0.0 0.0 0.0

-949731.8626230187 2.7289065298451283e6 0.0
2.7289065298451283e6 1.6454361733499763e6 0.0
0.0 0.0 0.0

-362602.7994795671 2.5241534806922954e6 0.0
2.5241534806922954e6 -623205.9466259606 0.0
0.0 0.0 0.0

-858593.3589077278 2.5689001566857034e6 0.0
2.5689001566857034e6 329685.7194254261 0.0
0.0 0.0 0.0

-3.691196561383931e6 -134799.017706007 0.0
-134799.017706007 2.337532399808147e6 0.0
0.0 0.0 0.0

-123979.02778861848 4.1188267527340604e6 0.0
4.1188267527340604e6 -631987.0422208793 0.0
0.0 0.0 0.0

1.1424651549129882e6 638784.1455411884 0.0
638784.1455411884 -1.4836089426218853e6 0.0
0.0 0.0 0.0

-1.5175466595711955e6 2.8730697017027675e6 0.0
2.8730697017027675e6 85127.14381072152 0.0
0.0 0.0 0.0

-190770.8875236903 -589667.2287970445 0.0
-589667.2287970445 427639.09037196107 0.0
0.0 0.0 0.0

-567490.0723135371 3.831036142090552e6 0.0
3.831036142090552e6 335873.4684472828 0.0
0.0 0.0 0.0

-1.5825263364164694e6 3.526499442157897e6 0.0
3.526499442157897e6 2.2487495954720085e6 0.0
0.0 0.0 0.0

-1.6028193338971476e6 3.6303053534483714e6 0.0
3.6303053534483714e6 991516.9867225027 0.0
0.0 0.0 0.0

-9176.89545548521 4.0496004911965323e6 0.0
4.0496004911965323e6 -1.447725167131604e6 0.0
0.0 0.0 0.0

-449226.3683954065 2.713931014956843e6 0.0
2.713931014956843e6 1.61070238435915e6 0.0
0.0 0.0 0.0

-58528.997225001454 3.7808402451321343e6 0.0
3.7808402451321343e6 -1.2583041876596122e6 0.0
0.0 0.0 0.0

-55385.84318205452 4.064113941764064e6 0.0
4.064113941764064e6 -565184.0470071272 0.0
0.0 0.0 0.0

-970468.6720255576 3.505434709131795e6 0.0
3.505434709131795e6 952106.2596276561 0.0
0.0 0.0 0.0

-571770.7207362202 3.912769809501246e6 0.0
3.912769809501246e6 -20122.02252505059 0.0
0.0 0.0 0.0

-505896.9327267372 3.8687043262978257e6 0.0
3.8687043262978257e6 -324120.3739793411 0.0
0.0 0.0 0.0

1.0549093989495654e6 1.8278170911367733e6 0.0
1.8278170911367733e6 -1.8531458782298262e6 0.0
0.0 0.0 0.0

-2.549031901640745e6 4.618274112252228e6 0.0
4.618274112252228e6 1.4357364685419747e6 0.0
0.0 0.0 0.0

-769882.3970454572 2.9535606409899797e6 0.0
2.9535606409899797e6 944770.9915679597 0.0
0.0 0.0 0.0

341386.6974393442 2.770076866852222e6 0.0
2.770076866852222e6 840726.4734667587 0.0
0.0 0.0 0.0

-1.387191411263862e6 3.7275678924571867e6 0.0
3.7275678924571867e6 -90653.86207759613 0.0
0.0 0.0 0.0

1.1590593421908105e6 1.9471595105231607e6 0.0
1.9471595105231607e6 -1.9766638195414646e6 0.0
0.0 0.0 0.0

-817909.2914896811 3.2513430627661673e6 0.0
3.2513430627661673e6 -150223.3045779398 0.0
0.0 0.0 0.0

68953.1241677831 2.5418729073282606e6 0.0
2.5418729073282606e6 180147.34263380716 0.0
0.0 0.0 0.0

734282.0527430287 4.243942856831066e6 0.0
4.243942856831066e6 353168.3027484212 0.0
0.0 0.0 0.0

-2.281163669997637e6 2.8932978907762216e6 0.0
2.8932978907762216e6 372720.80177828495 0.0
0.0 0.0 0.0

-323323.8089150524 3.251166385072054e6 0.0
3.251166385072054e6 -762912.3747117583 0.0
0.0 0.0 0.0

578489.6363586664 737659.3180492532 0.0
737659.3180492532 -574967.0814149478 0.0
0.0 0.0 0.0

-207859.82307356343 -602881.9198828633 0.0
-602881.9198828633 285647.02111876843 0.0
0.0 0.0 0.0

-76787.03910690997 4.227485130129638e6 0.0
4.227485130129638e6 -578778.6858088686 0.0
0.0 0.0 0.0

-1.4599394299237125e6 3.250891767315903e6 0.0
3.250891767315903e6 2.6695109574138257e6 0.0
0.0 0.0 0.0

42457.963013913715 306363.74682626023 0.0
306363.74682626023 -233873.14774807997 0.0
0.0 0.0 0.0

-1.105731762163123e6 2.887770864559838e6 0.0
2.887770864559838e6 310781.2658918967 0.0
0.0 0.0 0.0

-951044.9957222342 3.3364176411459427e6 0.0
3.3364176411459427e6 793886.4844804127 0.0
0.0 0.0 0.0

-4344.866749220819 4.12013152440862e6 0.0
4.12013152440862e6 -1.4026789132934783e6 0.0
0.0 0.0 0.0

-2.414402776120458e6 4.360539387553113e6 0.0
4.360539387553113e6 1.562818326853502e6 0.0
0.0 0.0 0.0

-1.6539262499121379e6 5.008819614239573e6 0.0
5.008819614239573e6 666421.0184742502 0.0
0.0 0.0 0.0

-3.411029519425461e6 6.290289174555036e6 0.0
6.290289174555036e6 1.5804242451444115e6 0.0
0.0 0.0 0.0

-3.7199243671563854e6 1.962361207402414e6 0.0
1.962361207402414e6 974436.9616348939 0.0
0.0 0.0 0.0

-158321.99495321533 4.045709007114734e6 0.0
4.045709007114734e6 -318342.74806119857 0.0
0.0 0.0 0.0

-84083.10572376644 2.5025128945427528e6 0.0
2.5025128945427528e6 -892558.7409385095 0.0
0.0 0.0 0.0

453969.5041125935 146242.09494615038 0.0
146242.09494615038 -592545.7214518491 0.0
0.0 0.0 0.0

-427640.0866610093 2.416313709787504e6 0.0
2.416313709787504e6 -1.1728138093844275e6 0.0
0.0 0.0 0.0

-433661.3264809456 2.358252752704291e6 0.0
2.358252752704291e6 -1.237680550572442e6 0.0
0.0 0.0 0.0

-124429.85686363513 4.0780025486561386e6 0.0
4.0780025486561386e6 -272236.9426487135 0.0
0.0 0.0 0.0

-736909.1525264819 3.056457746791371e6 0.0
3.056457746791371e6 -968498.4724134482 0.0
0.0 0.0 0.0

-435569.9860554167 2.554332420358669e6 0.0
2.554332420358669e6 -1.173109202637058e6 0.0
0.0 0.0 0.0

-822523.0436140724 3.041551932975211e6 0.0
3.041551932975211e6 1.9920931931479466e6 0.0
0.0 0.0 0.0

-1.0615586384083908e6 3.1635058583377693e6 0.0
3.1635058583377693e6 968068.8607254224 0.0
0.0 0.0 0.0

909517.3631594687 2.5232656489185877e6 0.0
2.5232656489185877e6 -1.6354727257830694e6 0.0
0.0 0.0 0.0

-80649.67103720566 4.211252158793236e6 0.0
4.211252158793236e6 -558505.1228325805 0.0
0.0 0.0 0.0

-1.6318501505675036e6 3.4401218860866386e6 0.0
3.4401218860866386e6 1.0101741098286724e6 0.0
0.0 0.0 0.0

39170.28799908524 4.1893108158582062e6 0.0
4.1893108158582062e6 -677066.9521211779 0.0
0.0 0.0 0.0

1.3217324336619703e6 644636.399213107 0.0
644636.399213107 -1.9002594290168085e6 0.0
0.0 0.0 0.0

-2.135113276014135e6 3.273005397871337e6 0.0
3.273005397871337e6 1.0115995744031441e6 0.0
0.0 0.0 0.0

-2.0743781364617795e6 3.1730367127974015e6 0.0
3.1730367127974015e6 663583.2209340364 0.0
0.0 0.0 0.0

-1.3555718542004647e6 613981.9561215858 0.0
613981.9561215858 1.8815380514518828e6 0.0
0.0 0.0 0.0

-72155.46306154247 3.4238805624186015e6 0.0
3.4238805624186015e6 -475988.0370815664 0.0
0.0 0.0 0.0

-868960.1789152374 3.636475572569197e6 0.0
3.636475572569197e6 1.2579130754851894e6 0.0
0.0 0.0 0.0

-2.7880093338160003e6 2.828211269610188e6 0.0
2.828211269610188e6 850713.7362423526 0.0
0.0 0.0 0.0

-840561.4613569397 2.6413811257856535e6 0.0
2.6413811257856535e6 684483.1550793191 0.0
0.0 0.0 0.0

217783.38007514318 134810.97248480385 0.0
134810.97248480385 -293566.2643444332 0.0
0.0 0.0 0.0

-2.1241668505645297e6 3.1423467164100963e6 0.0
3.1423467164100963e6 456635.10307599837 0.0
0.0 0.0 0.0

-2.1248963867130447e6 3.7880574675222556e6 0.0
3.7880574675222556e6 1.4089211069983626e6 0.0
0.0 0.0 0.0

-1.094826308844274e6 3.0902140539881065e6 0.0
3.0902140539881065e6 245162.39700945694 0.0
0.0 0.0 0.0

-2.3706111659939787e6 4.553524539454949e6 0.0
4.553524539454949e6 1.485191128896506e6 0.0
0.0 0.0 0.0

-2.3872937369015533e6 4.361456472239273e6 0.0
4.361456472239273e6 1.4224176994198388e6 0.0
0.0 0.0 0.0

-416144.8561432937 3.8566225198005387e6 0.0
3.8566225198005387e6 524951.5682673501 0.0
0.0 0.0 0.0

44033.50857353305 2.8693813344079936e6 0.0
2.8693813344079936e6 146778.45733663352 0.0
0.0 0.0 0.0

659516.3555196335 2.4678012743929527e6 0.0
2.4678012743929527e6 -2.0520187446517511e6 0.0
0.0 0.0 0.0

-710417.2856132827 1.9857283734399343e6 0.0
1.9857283734399343e6 -628554.968705222 0.0
0.0 0.0 0.0

-647006.7344607067 3.964082425769749e6 0.0
3.964082425769749e6 -301944.8996703058 0.0
0.0 0.0 0.0

-2.358234376309627e6 5.596382519390351e6 0.0
5.596382519390351e6 -1.2152675932662343e6 0.0
0.0 0.0 0.0

-289678.100086163 2.5529009805071703e6 0.0
2.5529009805071703e6 -1.1626190389976846e6 0.0
0.0 0.0 0.0

-1.1172825915693908e6 3.029298766399303e6 0.0
3.029298766399303e6 -1.5185636010941402e6 0.0
0.0 0.0 0.0

-766836.2637364751 4.142360330101825e6 0.0
4.142360330101825e6 -138396.8813679793 0.0
0.0 0.0 0.0

-339436.05003183265 -891036.6999889273 0.0
-891036.6999889273 581142.8316116165 0.0
0.0 0.0 0.0

-1.7245247407617457e6 4.692091664587953e6 0.0
4.692091664587953e6 849872.4963171553 0.0
0.0 0.0 0.0

-2.067153506487332e6 5.695874920280995e6 0.0
5.695874920280995e6 -108840.96394578298 0.0
0.0 0.0 0.0

-368783.98880838347 3.2920422309410246e6 0.0
3.2920422309410246e6 -683174.3801125867 0.0
0.0 0.0 0.0

-1.8433409652758413e6 2.926612736958094e6 0.0
2.926612736958094e6 8103.279503534432 0.0
0.0 0.0 0.0

350146.02965096384 750282.5767381291 0.0
750282.5767381291 145158.111377304 0.0
0.0 0.0 0.0

741322.0162798562 3.180470451875986e6 0.0
3.180470451875986e6 -1.4597396515839186e6 0.0
0.0 0.0 0.0

-1.8096669745362333e6 2.787400066312098e6 0.0
2.787400066312098e6 -30026.228409123374 0.0
0.0 0.0 0.0

-55936.200363997166 4.016389432871349e6 0.0
4.016389432871349e6 -563458.7619474937 0.0
0.0 0.0 0.0

291405.80855043733 670817.8977919859 0.0
670817.8977919859 -690243.930897292 0.0
0.0 0.0 0.0

-1.2117711875445065e6 2.5200383468261114e6 0.0
2.5200383468261114e6 193391.11865999468 0.0
0.0 0.0 0.0

-1.299016041538452e6 4.23279788685032e6 0.0
4.23279788685032e6 724203.12358604 0.0
0.0 0.0 0.0

-2.6023423939912096e6 -564369.2368105544 0.0
-564369.2368105544 2.8989528881020006e6 0.0
0.0 0.0 0.0

-1.4081051912305104e6 3.636666139528541e6 0.0
3.636666139528541e6 -1032.6925382310292 0.0
0.0 0.0 0.0

-269022.72375769855 3.247478141892983e6 0.0
3.247478141892983e6 -923821.3565339933 0.0
0.0 0.0 0.0

469369.90117925766 2.4539707556265937e6 0.0
2.4539707556265937e6 -1.8241911348771e6 0.0
0.0 0.0 0.0

362834.7984940469 99760.080615834 0.0
99760.080615834 -983599.1363305986 0.0
0.0 0.0 0.0

-297328.3308710247 3.113494049469279e6 0.0
3.113494049469279e6 -849468.539916167 0.0
0.0 0.0 0.0

-1.5154968149001312e6 4.518407954252858e6 0.0
4.518407954252858e6 -484148.57774285914 0.0
0.0 0.0 0.0

-2.511778681600053e6 6.200726189544303e6 0.0
6.200726189544303e6 1.8538542572715993e6 0.0
0.0 0.0 0.0

-533329.5078663977 3.376347314333223e6 0.0
3.376347314333223e6 1.059297933484085e6 0.0
0.0 0.0 0.0

142451.7295516149 3.5843820306337425e6 0.0
3.5843820306337425e6 -130881.6628553443 0.0
0.0 0.0 0.0

-134463.65245464008 3.784476290836347e6 0.0
3.784476290836347e6 -462994.4542588904 0.0
0.0 0.0 0.0

196463.99040684494 3.7378179388120677e6 0.0
3.7378179388120677e6 654879.9442209648 0.0
0.0 0.0 0.0

-1.5869227815796882e6 596106.0108956514 0.0
596106.0108956514 2.0988580717727463e6 0.0
0.0 0.0 0.0

-35579.102382804675 3.525641971105726e6 0.0
3.525641971105726e6 -1.0796299650090092e6 0.0
0.0 0.0 0.0

-3.357924447434862e6 1.4209336712323157e6 0.0
1.4209336712323157e6 239601.7156672296 0.0
0.0 0.0 0.0

-33102.46026679185 -87827.47737115594 0.0
-87827.47737115594 129355.40663651952 0.0
0.0 0.0 0.0

-435789.3673399887 -822442.9763724792 0.0
-822442.9763724792 797364.3244517331 0.0
0.0 0.0 0.0

-622726.6207085432 1.844038521709054e6 0.0
1.844038521709054e6 -585811.334985825 0.0
0.0 0.0 0.0

-767935.5091124341 311324.5210616805 0.0
311324.5210616805 368059.2657782921 0.0
0.0 0.0 0.0

808666.9329343777 3.5986842614339804e6 0.0
3.5986842614339804e6 -1.657607193803533e6 0.0
0.0 0.0 0.0

-2.4820263440585937e6 166167.89713163933 0.0
166167.89713163933 3.255506865948947e6 0.0
0.0 0.0 0.0

279668.220668535 4.225016497464676e6 0.0
4.225016497464676e6 -1.6055805483798154e6 0.0
0.0 0.0 0.0

-70997.2759810971 137737.29645907573 0.0
137737.29645907573 129608.01562893183 0.0
0.0 0.0 0.0

-1.8227320160391459e6 3.22961305559091e6 0.0
3.22961305559091e6 592865.9001204153 0.0
0.0 0.0 0.0

-1.2574749740070552e6 4.399964617820224e6 0.0
4.399964617820224e6 680345.0285668669 0.0
0.0 0.0 0.0

-2.3055399190473286e6 3.069762415012875e6 0.0
3.069762415012875e6 838613.1644398512 0.0
0.0 0.0 0.0

-3.5259087259127526e6 5.790343350511359e6 0.0
5.790343350511359e6 1.831048567469831e6 0.0
0.0 0.0 0.0

-2.8476795362066776e6 5.071138099753543e6 0.0
5.071138099753543e6 1.514053673501377e6 0.0
0.0 0.0 0.0

-91947.65394545023 -536665.0021200099 0.0
-536665.0021200099 166864.75425639912 0.0
0.0 0.0 0.0

1.1099393341726759e6 2.087200869262997e6 0.0
2.087200869262997e6 -2.0278357026646738e6 0.0
0.0 0.0 0.0

-382893.5276954869 3.4537114457347165e6 0.0
3.4537114457347165e6 -637145.207494461 0.0
0.0 0.0 0.0

-1.1513733599680397e6 3.034636849436617e6 0.0
3.034636849436617e6 458640.4534190707 0.0
0.0 0.0 0.0

-4964.662012008484 3.1068870681407126e6 0.0
3.1068870681407126e6 -1.2404983838427376e6 0.0
0.0 0.0 0.0

-354632.51036892494 2.3653253629219774e6 0.0
2.3653253629219774e6 -1.2574810140200597e6 0.0
0.0 0.0 0.0

-165079.1149871924 4.3414810155958645e6 0.0
4.3414810155958645e6 -550263.7270694675 0.0
0.0 0.0 0.0

-1.060789265870854e6 3.3475185017702635e6 0.0
3.3475185017702635e6 189823.6298503002 0.0
0.0 0.0 0.0

-1.2505599936712536e6 3.5369279160228292e6 0.0
3.5369279160228292e6 17711.80435631209 0.0
0.0 0.0 0.0

-344546.6323221718 2.9782914757499443e6 0.0
2.9782914757499443e6 -975249.7099546542 0.0
0.0 0.0 0.0

-1.299208927421833e6 2.8533879943085667e6 0.0
2.8533879943085667e6 676430.7098263237 0.0
0.0 0.0 0.0

1.1309314298423114e6 1.837377021863658e6 0.0
1.837377021863658e6 -1.8194834740341674e6 0.0
0.0 0.0 0.0

-490774.3118055855 3.657225088679796e6 0.0
3.657225088679796e6 -576537.2946077775 0.0
0.0 0.0 0.0

536393.9544752816 2.7598826844343357e6 0.0
2.7598826844343357e6 -2.0650592163177577e6 0.0
0.0 0.0 0.0

-153432.01924143857 1.4795598696385075e6 0.0
1.4795598696385075e6 -261811.86101443996 0.0
0.0 0.0 0.0

-1.1827331637291007e6 2.404726509629971e6 0.0
2.404726509629971e6 496521.8607053438 0.0
0.0 0.0 0.0

188915.19879270726 102876.33650848921 0.0
102876.33650848921 -600191.733481379 0.0
0.0 0.0 0.0

-1.8350321774858923e6 3.125177359096633e6 0.0
3.125177359096633e6 650916.9348097679 0.0
0.0 0.0 0.0

-201537.35322467494 3.1982286508427095e6 0.0
3.1982286508427095e6 -1.0459144059898083e6 0.0
0.0 0.0 0.0

806099.4620929606 3.730695602359554e6 0.0
3.730695602359554e6 -1.7091095534083259e6 0.0
0.0 0.0 0.0

-893266.9996717045 4.546763260141008e6 0.0
4.546763260141008e6 -268779.8001933267 0.0
0.0 0.0 0.0

-2.565583766473459e6 5.66898494307659e6 0.0
5.66898494307659e6 -770713.0602140287 0.0
0.0 0.0 0.0

-1.9079515402467423e6 2.7144974303069958e6 0.0
2.7144974303069958e6 -91987.45987445407 0.0
0.0 0.0 0.0

-1.8444996125585975e6 4.808000729898072e6 0.0
4.808000729898072e6 715124.9266916104 0.0
0.0 0.0 0.0

-90814.37364166434 4.524044939526977e6 0.0
4.524044939526977e6 -1.2782354711414594e6 0.0
0.0 0.0 0.0

-379442.78137604974 2.389955681471549e6 0.0
2.389955681471549e6 -1.26480927166152e6 0.0
0.0 0.0 0.0

-2.3152843910288033e6 5.76378940869322e6 0.0
5.76378940869322e6 -234326.7028920239 0.0
0.0 0.0 0.0

-249962.48959480895 2.2242022878448255e6 0.0
2.2242022878448255e6 -833208.355271197 0.0
0.0 0.0 0.0

-638287.7880169633 2.239564237928549e6 0.0
2.239564237928549e6 795987.8138540754 0.0
0.0 0.0 0.0

478557.2383723513 151631.519147857 0.0
151631.519147857 -626773.2595284149 0.0
0.0 0.0 0.0

-2.031631554543239e6 3.7882839926162357e6 0.0
3.7882839926162357e6 1.2656581512319022e6 0.0
0.0 0.0 0.0

-966333.6094157561 2.98645844362929e6 0.0
2.98645844362929e6 323444.3261293268 0.0
0.0 0.0 0.0

36390.44284280839 174589.63140482007 0.0
174589.63140482007 -56106.509728705605 0.0
0.0 0.0 0.0

-60924.660445176356 3.440788408894021e6 0.0
3.440788408894021e6 -1.5607551859941888e6 0.0
0.0 0.0 0.0

-2.1803886236397964e6 3.3850802736890013e6 0.0
3.3850802736890013e6 1.1361612973690964e6 0.0
0.0 0.0 0.0

-123233.18660110231 4.17629447476787e6 0.0
4.17629447476787e6 -476270.1863963507 0.0
0.0 0.0 0.0

-1.283134302733498e6 3.5558335025166683e6 0.0
3.5558335025166683e6 215174.91681799857 0.0
0.0 0.0 0.0

-2.6555217547348044e6 4.647150658998632e6 0.0
4.647150658998632e6 881801.1060211331 0.0
0.0 0.0 0.0

-371687.38323346135 2.3808174087209753e6 0.0
2.3808174087209753e6 -1.2389581438521533e6 0.0
0.0 0.0 0.0

-1.4629249715388762e6 3.8296458914265884e6 0.0
3.8296458914265884e6 1.5569413630214795e6 0.0
0.0 0.0 0.0

-1.6505393039975555e6 2.4691167123522246e6 0.0
2.4691167123522246e6 -450957.85299102595 0.0
0.0 0.0 0.0

690705.5688436397 713642.5197965914 0.0
713642.5197965914 -751947.864633362 0.0
0.0 0.0 0.0

-3.7847734549461715e6 -484576.12975542934 0.0
-484576.12975542934 4.7526635549996765e6 0.0
0.0 0.0 0.0

-832010.2117492683 3.8493478944252534e6 0.0
3.8493478944252534e6 374054.4466791789 0.0
0.0 0.0 0.0

-2.573610569875823e6 5.552237436876714e6 0.0
5.552237436876714e6 1.3560327608077137e6 0.0
0.0 0.0 0.0

-192787.1477869463 3.88387926155649e6 0.0
3.88387926155649e6 -642623.8886372512 0.0
0.0 0.0 0.0

-721031.4736062584 3.4724521447903984e6 0.0
3.4724521447903984e6 1.777190549347627e6 0.0
0.0 0.0 0.0

-2.169093606122472e6 4.773505631448353e6 0.0
4.773505631448353e6 791904.3634575545 0.0
0.0 0.0 0.0

-1.8353768693094167e6 5.434045723772088e6 0.0
5.434045723772088e6 957255.825681117 0.0
0.0 0.0 0.0

-674177.5291396412 4.283574569130345e6 0.0
4.283574569130345e6 1.0920231561832658e6 0.0
0.0 0.0 0.0

1.0255860990949239e6 3.181997932263362e6 0.0
3.181997932263362e6 -1.7920744426337634e6 0.0
0.0 0.0 0.0

-1.281390995310482e6 3.8132033638070277e6 0.0
3.8132033638070277e6 -48428.531062884605 0.0
0.0 0.0 0.0

-112255.76684688988 4.394462060713922e6 0.0
4.394462060713922e6 -462018.1653550787 0.0
0.0 0.0 0.0

-170479.01060278164 2.0396749376149878e6 0.0
2.0396749376149878e6 -568263.358645522 0.0
0.0 0.0 0.0

-759629.490667242 4.198433584763174e6 0.0
4.198433584763174e6 -352124.4636310288 0.0
0.0 0.0 0.0

1.1578462680532122e6 2.0128542025111124e6 0.0
2.0128542025111124e6 -1.9366091421659216e6 0.0
0.0 0.0 0.0

-1.3716019781716026e6 2.8788457464820347e6 0.0
2.8788457464820347e6 446090.9749171896 0.0
0.0 0.0 0.0

-658416.0338833404 3.841221060038067e6 0.0
3.841221060038067e6 -166089.15484383045 0.0
0.0 0.0 0.0

-78194.78841427056 5.03194099639483e6 0.0
5.03194099639483e6 -1.0744626925935582e6 0.0
0.0 0.0 0.0

-424324.3977011327 2.348589093989408e6 0.0
2.348589093989408e6 503744.9253694874 0.0
0.0 0.0 0.0

-731477.6444119166 2.1076048890954372e6 0.0
2.1076048890954372e6 1.1863641051447967e6 0.0
0.0 0.0 0.0

-1.6879163591384636e6 4.703933948085464e6 0.0
4.703933948085464e6 939093.5128459692 0.0
0.0 0.0 0.0

-2.1038940285077444e6 3.8313609165641763e6 0.0
3.8313609165641763e6 1.3140504840356344e6 0.0
0.0 0.0 0.0

-658037.4769138483 -554694.4553228738 0.0
-554694.4553228738 1.2780122476294946e6 0.0
0.0 0.0 0.0

-434863.1917850005 4.261114382816206e6 0.0
4.261114382816206e6 286879.52182901837 0.0
0.0 0.0 0.0

-1.4153141313777608e6 3.3867640396073684e6 0.0
3.3867640396073684e6 -13104.295121623902 0.0
0.0 0.0 0.0

-279688.0570183682 327108.6413611012 0.0
327108.6413611012 -893104.9351711452 0.0
0.0 0.0 0.0

-1.6473799393752648e6 3.368534273917963e6 0.0
3.368534273917963e6 2.3642529250824125e6 0.0
0.0 0.0 0.0

-1.7435073202036016e6 1.7266356250506614e6 0.0
1.7266356250506614e6 -155031.39435469243 0.0
0.0 0.0 0.0

-61008.910458393584 4.291160150303851e6 0.0
4.291160150303851e6 -547878.8471032571 0.0
0.0 0.0 0.0

849603.158648227 599439.4010432438 0.0
599439.4010432438 -1.5449787908421117e6 0.0
0.0 0.0 0.0

-1.8782962359811503e6 3.110774489727218e6 0.0
3.110774489727218e6 4.106615895557366e6 0.0
0.0 0.0 0.0

-1.2359302152231997e6 3.63868471672406e6 0.0
3.63868471672406e6 592100.3919211316 0.0
0.0 0.0 0.0

-599947.48355157 6.475256829302643e6 0.0
6.475256829302643e6 620374.2245311635 0.0
0.0 0.0 0.0

-352982.93362233695 2.3960429922402916e6 0.0
2.3960429922402916e6 -1.1766097665282006e6 0.0
0.0 0.0 0.0

-577304.6225488916 3.287988445920904e6 0.0
3.287988445920904e6 -267261.459077038 0.0
0.0 0.0 0.0

-792066.0400792017 595517.1283349146 0.0
595517.1283349146 -257931.88589935642 0.0
0.0 0.0 0.0

-96693.37869928475 4.103906736724986e6 0.0
4.103906736724986e6 -1.4316895241379403e6 0.0
0.0 0.0 0.0

-1.0844942273927233e6 2.8803092500270717e6 0.0
2.8803092500270717e6 372777.9556090182 0.0
0.0 0.0 0.0

-651480.1827867903 2.660720664428009e6 0.0
2.660720664428009e6 1.7776533570800996e6 0.0
0.0 0.0 0.0

-1.483860636458199e6 3.340123100920714e6 0.0
3.340123100920714e6 938825.9476070333 0.0
0.0 0.0 0.0

-587473.7495906479 3.8671590828639655e6 0.0
3.8671590828639655e6 -205916.1801496269 0.0
0.0 0.0 0.0

-433090.49508347025 -197631.81324003852 0.0
-197631.81324003852 2.0735462229309524e6 0.0
0.0 0.0 0.0

-280236.43863174506 818189.4332252352 0.0
818189.4332252352 1.118714445107351e6 0.0
0.0 0.0 0.0

-592793.1332185154 4.369479246853484e6 0.0
4.369479246853484e6 -133758.9484707205 0.0
0.0 0.0 0.0

-98158.0620147801 4.238610475958204e6 0.0
4.238610475958204e6 -595351.8951209716 0.0
0.0 0.0 0.0

816927.3377524054 4.1609169741710545e6 0.0
4.1609169741710545e6 777500.6509972598 0.0
0.0 0.0 0.0

-251247.18251752423 128633.73556243874 0.0
128633.73556243874 128134.84057956404 0.0
0.0 0.0 0.0

-1.6209729381750536e6 5.232447068242582e6 0.0
5.232447068242582e6 -440799.9053399125 0.0
0.0 0.0 0.0

-3.063067322653982e6 2.717101916877944e6 0.0
2.717101916877944e6 1.7390949922862104e6 0.0
0.0 0.0 0.0

-2.345726049952165e6 3.9444178697105898e6 0.0
3.9444178697105898e6 -1.1699252827137453e6 0.0
0.0 0.0 0.0

986936.0833849094 3.1933550872613112e6 0.0
3.1933550872613112e6 -1.2319108661189256e6 0.0
0.0 0.0 0.0

-4.707537040835632e6 -1.5984709621033412e6 0.0
-1.5984709621033412e6 5.328555354895635e6 0.0
0.0 0.0 0.0

-1.1436020734432817e6 2.7573018253658153e6 0.0
2.7573018253658153e6 549674.6872851264 0.0
0.0 0.0 0.0

-2.2163860016111387e6 5.692186476764824e6 0.0
5.692186476764824e6 985528.0800650918 0.0
0.0 0.0 0.0

-1.335534556507121e6 3.6789716390971197e6 0.0
3.6789716390971197e6 84596.97955174255 0.0
0.0 0.0 0.0

-1.168631873254599e6 2.8294576679702275e6 0.0
2.8294576679702275e6 120354.81397145166 0.0
0.0 0.0 0.0

-316899.58911703096 2.3805452911696876e6 0.0
2.3805452911696876e6 -581323.724677925 0.0
0.0 0.0 0.0

-229648.82445109723 4.401868267150791e6 0.0
4.401868267150791e6 18096.733296851147 0.0
0.0 0.0 0.0

-401619.14960505435 2.394387187638091e6 0.0
2.394387187638091e6 -1.2595974691145986e6 0.0
0.0 0.0 0.0

-751335.4962501582 2.339351900901777e6 0.0
2.339351900901777e6 -417925.71452837344 0.0
0.0 0.0 0.0

-607426.7128301186 1.6793255451747335e6 0.0
1.6793255451747335e6 -81119.66912051872 0.0
0.0 0.0 0.0

-1.6905629728751043e6 6.018313693010649e6 0.0
6.018313693010649e6 660330.5377041374 0.0
0.0 0.0 0.0

-379426.96376497706 2.361745781331896e6 0.0
2.361745781331896e6 -1.2647565875307836e6 0.0
0.0 0.0 0.0

-1.1536310358636794e6 3.519014768230455e6 0.0
3.519014768230455e6 1.989272977563545e6 0.0
0.0 0.0 0.0

-344201.6527947248 3.6644301854159897e6 0.0
3.6644301854159897e6 -947425.4459676336 0.0
0.0 0.0 0.0

-1.9343346736918683e6 3.7349508394113337e6 0.0
3.7349508394113337e6 1.3206684415687784e6 0.0
0.0 0.0 0.0

-461031.9243552147 3.536797367440744e6 0.0
3.536797367440744e6 -1.2230631315415225e6 0.0
0.0 0.0 0.0

-4.285462653300432e6 -59930.40769575226 0.0
-59930.40769575226 2.79657075611437e6 0.0
0.0 0.0 0.0

108978.03652665594 133753.49662895757 0.0
133753.49662895757 -210356.61146968434 0.0
0.0 0.0 0.0

-663989.8915115484 2.514663016458277e6 0.0
2.514663016458277e6 616642.1063453028 0.0
0.0 0.0 0.0

-332773.9746389694 3.320081230292859e6 0.0
3.320081230292859e6 -883761.2185003831 0.0
0.0 0.0 0.0

-923530.9922824271 2.6459644372447054e6 0.0
2.6459644372447054e6 212453.6969589637 0.0
0.0 0.0 0.0

-1.3706650603330857e6 2.8049759993517646e6 0.0
2.8049759993517646e6 701686.3763935947 0.0
0.0 0.0 0.0

-1.2841084919771203e6 2.968060113496573e6 0.0
2.968060113496573e6 456797.72404341 0.0
0.0 0.0 0.0

-305268.86765367223 5.735674615629136e6 0.0
5.735674615629136e6 101600.64486446582 0.0
0.0 0.0 0.0

-2.2190771876711063e6 2.604559233705085e6 0.0
2.604559233705085e6 230525.02769818297 0.0
0.0 0.0 0.0

-785394.5937352796 4.1848915466918326e6 0.0
4.1848915466918326e6 -46192.56692667166 0.0
0.0 0.0 0.0

-650660.6759759649 4.116145053808073e6 0.0
4.116145053808073e6 -253463.94105284326 0.0
0.0 0.0 0.0

-2.5645501128419642e6 3.035060145287645e6 0.0
3.035060145287645e6 785586.1607616275 0.0
0.0 0.0 0.0

-821402.0479013751 2.638416475220799e6 0.0
2.638416475220799e6 506794.82787331496 0.0
0.0 0.0 0.0

-531477.9757709305 692706.0885096631 0.0
692706.0885096631 199477.62670901304 0.0
0.0 0.0 0.0

-109079.34764168174 1.3321777952538526e6 0.0
1.3321777952538526e6 -6517.911523819959 0.0
0.0 0.0 0.0

-657690.066602956 2.202344929758099e6 0.0
2.202344929758099e6 -823246.9894165597 0.0
0.0 0.0 0.0

-529023.1232986773 3.9425262172882296e6 0.0
3.9425262172882296e6 -290505.13222288084 0.0
0.0 0.0 0.0

45126.1745273968 514224.05097063817 0.0
514224.05097063817 -677229.2268457569 0.0
0.0 0.0 0.0

-3.8190668158055805e6 3.930173017563396e6 0.0
3.930173017563396e6 2.869414805978953e6 0.0
0.0 0.0 0.0

946833.5230718845 3.5267089183010478e6 0.0
3.5267089183010478e6 -1.7512162122253433e6 0.0
0.0 0.0 0.0

-991498.7901280057 2.103142346166332e6 0.0
2.103142346166332e6 332932.07755130844 0.0
0.0 0.0 0.0

-824674.3284663713 2.391223837226295e6 0.0
2.391223837226295e6 -460149.9239174864 0.0
0.0 0.0 0.0

1.1145024490649407e6 1.980508108087231e6 0.0
1.980508108087231e6 -1.954972600159768e6 0.0
0.0 0.0 0.0

-772514.5704744278 7.732245675373602e6 0.0
7.732245675373602e6 892131.4975396423 0.0
0.0 0.0 0.0

680005.5344015664 2.7212559310792643e6 0.0
2.7212559310792643e6 -1.5120298570327275e6 0.0
0.0 0.0 0.0

-4.436885338940831e6 45589.89291184422 0.0
45589.89291184422 5.69364852912289e6 0.0
0.0 0.0 0.0

-360528.2583131569 2.120854240872745e6 0.0
2.120854240872745e6 665562.1291012048 0.0
0.0 0.0 0.0

-892722.9959892788 4.1236876648384305e6 0.0
4.1236876648384305e6 -102084.14658328326 0.0
0.0 0.0 0.0

-1.646860751784728e6 3.0317286135582197e6 0.0
3.0317286135582197e6 1.1346836194165773e6 0.0
0.0 0.0 0.0

-556798.2027465842 2.2488822119436557e6 0.0
2.2488822119436557e6 702592.2020627402 0.0
0.0 0.0 0.0

-1.821286798839479e6 3.105230058560935e6 0.0
3.105230058560935e6 734008.8813990087 0.0
0.0 0.0 0.0

283251.72127683455 4.358627967268809e6 0.0
4.358627967268809e6 944172.3616333811 0.0
0.0 0.0 0.0

423607.18788659025 178030.15988061964 0.0
178030.15988061964 -590058.2720405646 0.0
0.0 0.0 0.0

-543377.2420016988 3.229999839249572e6 0.0
3.229999839249572e6 -350695.0340638987 0.0
0.0 0.0 0.0

486371.2771276855 2.9718969828530746e6 0.0
2.9718969828530746e6 -1.2498265494669187e6 0.0
0.0 0.0 0.0

-2.6389775591530004e6 2.395012137864786e6 0.0
2.395012137864786e6 518470.94456564845 0.0
0.0 0.0 0.0

-1.3475661235568584e6 4.1683460210296195e6 0.0
4.1683460210296195e6 369163.6920772044 0.0
0.0 0.0 0.0

-284057.13166626083 3.620780203130815e6 0.0
3.620780203130815e6 -596084.458155451 0.0
0.0 0.0 0.0

-563680.7839753071 2.250550840612254e6 0.0
2.250550840612254e6 336594.3784064518 0.0
0.0 0.0 0.0

-2.1710198863521894e6 1.861703108272195e6 0.0
1.861703108272195e6 495979.46382222266 0.0
0.0 0.0 0.0

-730628.9353420227 3.468846049492778e6 0.0
3.468846049492778e6 -9971.502338475431 0.0
0.0 0.0 0.0

-35812.03760511277 4.255468015674517e6 0.0
4.255468015674517e6 -1.3404335117593566e6 0.0
0.0 0.0 0.0

-2.9178405459207892e6 2.083139778509893e6 0.0
2.083139778509893e6 1.071597930834541e6 0.0
0.0 0.0 0.0

339903.4594791571 7.870146782420819e6 0.0
7.870146782420819e6 45251.40510301407 0.0
0.0 0.0 0.0

-323478.97596567206 3.5690677667125845e6 0.0
3.5690677667125845e6 -540019.8392305275 0.0
0.0 0.0 0.0

-16990.141162159794 3.080758616255274e6 0.0
3.080758616255274e6 -1.5022854776511823e6 0.0
0.0 0.0 0.0

-526860.3639233154 2.251198711899572e6 0.0
2.251198711899572e6 -227518.7778948335 0.0
0.0 0.0 0.0

-871568.1704466371 6.33610010150821e6 0.0
6.33610010150821e6 711765.870135499 0.0
0.0 0.0 0.0

-347422.29213519045 3.4170883094620043e6 0.0
3.4170883094620043e6 -992421.1473619298 0.0
0.0 0.0 0.0

-2.274534164407258e6 4.588907391054637e6 0.0
4.588907391054637e6 1.3293730152140786e6 0.0
0.0 0.0 0.0

565858.9086434722 3.7916779762134673e6 0.0
3.7916779762134673e6 -1.2069019485000742e6 0.0
0.0 0.0 0.0

-105864.41824221064 3.9209747056816733e6 0.0
3.9209747056816733e6 -537566.709797109 0.0
0.0 0.0 0.0

-1.6612005584188944e6 2.0938098936139154e6 0.0
2.0938098936139154e6 -68894.67451755173 0.0
0.0 0.0 0.0

-1.9936619542621518e6 3.1445493580474304e6 0.0
3.1445493580474304e6 774991.3945217591 0.0
0.0 0.0 0.0

329113.7463111754 2.802240568028271e6 0.0
2.802240568028271e6 471624.2410313459 0.0
0.0 0.0 0.0

-2.623257582619176e6 3.14894601528343e6 0.0
3.14894601528343e6 1.0588694200977401e6 0.0
0.0 0.0 0.0

-398095.27501447214 2.8545690976079204e6 0.0
2.8545690976079204e6 244437.15340937566 0.0
0.0 0.0 0.0

125028.24866131914 -49352.55816858597 0.0
-49352.55816858597 -713299.9586468344 0.0
0.0 0.0 0.0

-1.499267376031932e6 6.244000906416102e6 0.0
6.244000906416102e6 1.215566452895253e6 0.0
0.0 0.0 0.0

-232463.70089811814 3.2217490330745513e6 0.0
3.2217490330745513e6 -995680.4521918164 0.0
0.0 0.0 0.0

1.1888195121308737e6 2.313407736662323e6 0.0
2.313407736662323e6 -2.0643565249634823e6 0.0
0.0 0.0 0.0

-1.192678048708906e6 1.7618325269977578e6 0.0
1.7618325269977578e6 538643.318840978 0.0
0.0 0.0 0.0

-165328.39575115134 335995.96875765733 0.0
335995.96875765733 -511170.38486427325 0.0
0.0 0.0 0.0

-493426.71922309266 2.4768217860574513e6 0.0
2.4768217860574513e6 -620046.5320556528 0.0
0.0 0.0 0.0

-1.5169343558567828e6 2.7557618180903e6 0.0
2.7557618180903e6 -151921.68516756478 0.0
0.0 0.0 0.0

-541900.8118273811 3.8440103217474725e6 0.0
3.8440103217474725e6 -353136.95781887375 0.0
0.0 0.0 0.0

-637038.8177083022 4.1389732327916673e6 0.0
4.1389732327916673e6 23366.838472258125 0.0
0.0 0.0 0.0

1.138812231427947e6 2.142033311783477e6 0.0
2.142033311783477e6 -1.9300606377426377e6 0.0
0.0 0.0 0.0

-1.171586762731789e6 2.8175710757800746e6 0.0
2.8175710757800746e6 444451.107228124 0.0
0.0 0.0 0.0

-820462.4607227745 2.480692066160981e6 0.0
2.480692066160981e6 -296848.05138403346 0.0
0.0 0.0 0.0

-1.9048740887249515e6 5.615351043248219e6 0.0
5.615351043248219e6 769225.3364901589 0.0
0.0 0.0 0.0

-775335.531489523 5.779803224035188e6 0.0
5.779803224035188e6 457089.04949197714 0.0
0.0 0.0 0.0

-965968.5756865001 4.0647136163911433e6 0.0
4.0647136163911433e6 -9452.777257091191 0.0
0.0 0.0 0.0

-815906.3969515105 4.089408880501255e6 0.0
4.089408880501255e6 426482.29372304876 0.0
0.0 0.0 0.0

-1.0888295611140944e7 1.37870223501229e6 0.0
1.37870223501229e6 1.6163493822027009e7 0.0
0.0 0.0 0.0

-3.1850471067325836e6 2.7038196207486917e6 0.0
2.7038196207486917e6 996476.0077403404 0.0
0.0 0.0 0.0

-398564.3828703364 3.5453862984322207e6 0.0
3.5453862984322207e6 -551771.9806107468 0.0
0.0 0.0 0.0

714889.9098544418 3.207065889473644e6 0.0
3.207065889473644e6 -1.5118192836536653e6 0.0
0.0 0.0 0.0

861086.624834331 2.8286708973391857e6 0.0
2.8286708973391857e6 -1.5618530655399857e6 0.0
0.0 0.0 0.0

1.0701102719786586e6 1.7526900645652656e6 0.0
1.7526900645652656e6 -1.7863296631612787e6 0.0
0.0 0.0 0.0

-979190.5566062853 3.393030925411776e6 0.0
3.393030925411776e6 420277.5382387831 0.0
0.0 0.0 0.0

1.0575925818037638e6 1.7205312718520253e6 0.0
1.7205312718520253e6 -1.7143576539328708e6 0.0
0.0 0.0 0.0

-69178.71274791946 -178660.01487807135 0.0
-178660.01487807135 41422.68765871586 0.0
0.0 0.0 0.0

-677005.8605942328 3.9468752115637767e6 0.0
3.9468752115637767e6 103448.53046906428 0.0
0.0 0.0 0.0

-966096.0936827918 2.2534722371423566e6 0.0
2.2534722371423566e6 295965.4497720152 0.0
0.0 0.0 0.0

-1.571101041955137e6 4.330742547693135e6 0.0
4.330742547693135e6 575331.7370051043 0.0
0.0 0.0 0.0

-1.4720968397405692e6 5.3309656571161905e6 0.0
5.3309656571161905e6 977447.7711356592 0.0
0.0 0.0 0.0

-95807.53636632234 4.367928646756569e6 0.0
4.367928646756569e6 -508719.6468693012 0.0
0.0 0.0 0.0

492812.03039980185 4.20886935571018e6 0.0
4.20886935571018e6 -1.3058007892524714e6 0.0
0.0 0.0 0.0

1.1864861083028875e6 2.091382469820585e6 0.0
2.091382469820585e6 -1.9344196200755076e6 0.0
0.0 0.0 0.0

-3.747907271522161e6 4.486434129132809e6 0.0
4.486434129132809e6 -1.6170594839378593e6 0.0
0.0 0.0 0.0

-573304.3672570183 3.2526737768311403e6 0.0
3.2526737768311403e6 2.007491609841824e6 0.0
0.0 0.0 0.0

-1.5279148272428156e6 5.152741860283778e6 0.0
5.152741860283778e6 1.0293358103401114e6 0.0
0.0 0.0 0.0

-296786.3171345901 3.822638303974151e6 0.0
3.822638303974151e6 -331418.4800656368 0.0
0.0 0.0 0.0

-231927.0144737291 3.9785764828190724e6 0.0
3.9785764828190724e6 -594077.6041308343 0.0
0.0 0.0 0.0

-1.1618122175037065e6 -46446.927221400285 0.0
-46446.927221400285 1.5968132117846631e6 0.0
0.0 0.0 0.0

-1.507363364339793e6 3.001931206569725e6 0.0
3.001931206569725e6 110581.60123302875 0.0
0.0 0.0 0.0

-1.4407089007326749e6 2.4661875943254367e6 0.0
2.4661875943254367e6 511561.2891927012 0.0
0.0 0.0 0.0

-196170.19746572807 185207.1738411522 0.0
185207.1738411522 55017.79024895439 0.0
0.0 0.0 0.0

-1.0238947852502843e7 226443.09474913194 0.0
226443.09474913194 1.8764872146914627e7 0.0
0.0 0.0 0.0

-454429.03568621783 3.436907001148298e6 0.0
3.436907001148298e6 -420321.54952508543 0.0
0.0 0.0 0.0

766730.9721644631 827854.0790147957 0.0
827854.0790147957 -1.0117024702817989e6 0.0
0.0 0.0 0.0

-5.821460511937987e6 -1.366800901455306e6 0.0
-1.366800901455306e6 6.788272426135259e6 0.0
0.0 0.0 0.0

1.1606130625516064e6 1.852099047263158e6 0.0
1.852099047263158e6 -1.8704653913910075e6 0.0
0.0 0.0 0.0

-1.1857521724193075e6 3.1622099874333832e6 0.0
3.1622099874333832e6 949604.278532956 0.0
0.0 0.0 0.0

-2.4076753703519707e6 5.70598458778523e6 0.0
5.70598458778523e6 1.0357113373822494e6 0.0
0.0 0.0 0.0

-407500.5133304938 3.2423000872904793e6 0.0
3.2423000872904793e6 -749626.8856735709 0.0
0.0 0.0 0.0

-317063.95549249486 670154.6165067297 0.0
670154.6165067297 700510.6464109174 0.0
0.0 0.0 0.0

-699477.1505428967 4.0267231373105715e6 0.0
4.0267231373105715e6 -293613.9238158921 0.0
0.0 0.0 0.0

-518587.599960095 5.8882351812685905e6 0.0
5.8882351812685905e6 301430.81400416937 0.0
0.0 0.0 0.0

413539.05197185464 -3867.423276725448 0.0
-3867.423276725448 -491350.00181437057 0.0
0.0 0.0 0.0

-179577.99155571903 3.5474913678052467e6 0.0
3.5474913678052467e6 -260506.96280972735 0.0
0.0 0.0 0.0

-1.919690955425289e6 7.635351964165105e6 0.0
7.635351964165105e6 620454.1094515655 0.0
0.0 0.0 0.0

1.1206705422923043e6 1.8029814753349992e6 0.0
1.8029814753349992e6 -1.814441116852759e6 0.0
0.0 0.0 0.0

-754360.438435843 3.292780017796122e6 0.0
3.292780017796122e6 58481.259361957054 0.0
0.0 0.0 0.0

-350796.40096024226 4.290625076828581e6 0.0
4.290625076828581e6 2.2029518646380515e6 0.0
0.0 0.0 0.0

1.23741761332167e6 4.695322914253645e6 0.0
4.695322914253645e6 -1.8368604610318975e6 0.0
0.0 0.0 0.0

-2.6060195188196492e6 5.741302973505254e6 0.0
5.741302973505254e6 1.0492933551301588e6 0.0
0.0 0.0 0.0

-1.6335247951659556e6 3.081111949208214e6 0.0
3.081111949208214e6 618009.948460359 0.0
0.0 0.0 0.0

388345.3275514886 4.286290197974207e6 0.0
4.286290197974207e6 -1.3551652846723152e6 0.0
0.0 0.0 0.0

-1.4481192088973874e6 3.307909807725004e6 0.0
3.307909807725004e6 -67875.14168419607 0.0
0.0 0.0 0.0

-122860.48635200076 2.7537205496471915e6 0.0
2.7537205496471915e6 386124.2208420889 0.0
0.0 0.0 0.0

-7.405619620897576e6 -3.4060173635003963e6 0.0
-3.4060173635003963e6 8.163350867037599e6 0.0
0.0 0.0 0.0

-739279.9962773569 4.1837273347601127e6 0.0
4.1837273347601127e6 -147849.0266156433 0.0
0.0 0.0 0.0

23077.504100884747 4.220802844445463e6 0.0
4.220802844445463e6 -691049.2456846074 0.0
0.0 0.0 0.0

-1.273755420548164e6 2.630915177210767e6 0.0
2.630915177210767e6 274884.7393753331 0.0
0.0 0.0 0.0

-397878.50588171213 4.1685210572621725e6 0.0
4.1685210572621725e6 -239538.59617064847 0.0
0.0 0.0 0.0

-440914.07756674034 3.734140296522329e6 0.0
3.734140296522329e6 -409198.87988529226 0.0
0.0 0.0 0.0

-1.3235015446176599e6 3.2000128615865065e6 0.0
3.2000128615865065e6 494962.90763900295 0.0
0.0 0.0 0.0

-211465.85675133602 3.9342825407850207e6 0.0
3.9342825407850207e6 -381640.02014875296 0.0
0.0 0.0 0.0

-85326.77167398394 3.9584097707352582e6 0.0
3.9584097707352582e6 -550996.1933639937 0.0
0.0 0.0 0.0

-171281.02504414885 4.225630414928605e6 0.0
4.225630414928605e6 -392172.1981781174 0.0
0.0 0.0 0.0

-32370.629917425686 4.059494910362624e6 0.0
4.059494910362624e6 -1.3829157457714286e6 0.0
0.0 0.0 0.0

-1.8400067740191547e6 3.275854934023448e6 0.0
3.275854934023448e6 492862.15277675947 0.0
0.0 0.0 0.0

-1.92925718029879e6 5.060633058057889e6 0.0
5.060633058057889e6 -246089.4042308611 0.0
0.0 0.0 0.0

-1.7501879671159568e6 2.829822842224111e6 0.0
2.829822842224111e6 303234.6856014932 0.0
0.0 0.0 0.0

-353603.19988816965 3.8121247406481844e6 0.0
3.8121247406481844e6 -357126.036554951 0.0
0.0 0.0 0.0

1.0618927667757724e6 1.8536305778237085e6 0.0
1.8536305778237085e6 -1.8087483040436658e6 0.0
0.0 0.0 0.0

-562402.0761471447 3.3934603004276706e6 0.0
3.3934603004276706e6 -488902.4837297129 0.0
0.0 0.0 0.0

-1.1936560593571835e6 5.930753796587318e6 0.0
5.930753796587318e6 221860.06780127267 0.0
0.0 0.0 0.0

11296.315684796642 224569.20479606822 0.0
224569.20479606822 49251.891259359785 0.0
0.0 0.0 0.0

-648222.5426727784 4.050627171882454e6 0.0
4.050627171882454e6 -265746.6205100098 0.0
0.0 0.0 0.0

-278089.24431742565 3.6225583177479953e6 0.0
3.6225583177479953e6 -683088.5738745311 0.0
0.0 0.0 0.0

-452297.3834724619 4.327622761544974e6 0.0
4.327622761544974e6 -93246.72194155607 0.0
0.0 0.0 0.0

87480.64307737203 959618.7498062953 0.0
959618.7498062953 56708.308636694914 0.0
0.0 0.0 0.0

-7365.9560149134195 4.0956927998387814e6 0.0
4.0956927998387814e6 -580389.5861720336 0.0
0.0 0.0 0.0

-1.6360200228133257e6 3.003136000785156e6 0.0
3.003136000785156e6 865326.3636882975 0.0
0.0 0.0 0.0

-112616.60187876539 3.313891282609904e6 0.0
3.313891282609904e6 -1.3714744970696892e6 0.0
0.0 0.0 0.0

-2.061502351683361e6 6.188240797824909e6 0.0
6.188240797824909e6 1.5470282569205407e6 0.0
0.0 0.0 0.0

-2.0233734054846754e6 2.651501358040802e6 0.0
2.651501358040802e6 512327.8472531098 0.0
0.0 0.0 0.0

23437.26730352713 1.4246354813378607e6 0.0
1.4246354813378607e6 59050.75062797973 0.0
0.0 0.0 0.0

-1.116352905448194e6 4.999702520404452e6 0.0
4.999702520404452e6 -277263.57523579133 0.0
0.0 0.0 0.0

-2.277277033560798e6 2.761974764178825e6 0.0
2.761974764178825e6 695888.8312636933 0.0
0.0 0.0 0.0

-1.979613735427745e6 2.8171986880824235e6 0.0
2.8171986880824235e6 485288.37145532086 0.0
0.0 0.0 0.0

-6739.511314934556 4.251476371925818e6 0.0
4.251476371925818e6 -645364.771617438 0.0
0.0 0.0 0.0

-119251.88758498649 3.087733096296033e6 0.0
3.087733096296033e6 -1.1213156174980847e6 0.0
0.0 0.0 0.0

758135.0582450735 4.061184342629684e6 0.0
4.061184342629684e6 682646.5154218517 0.0
0.0 0.0 0.0

-3.7399106504621785e6 -708684.0189083018 0.0
-708684.0189083018 2.1665206762671317e6 0.0
0.0 0.0 0.0

-1.5915008848811784e6 3.2857487864628285e6 0.0
3.2857487864628285e6 -90244.82811481674 0.0
0.0 0.0 0.0

1.1434850419572503e6 1.8534040142436288e6 0.0
1.8534040142436288e6 -1.8465672116331225e6 0.0
0.0 0.0 0.0

-1.0106315906690401e6 2.774183395694281e6 0.0
2.774183395694281e6 -57902.54789415735 0.0
0.0 0.0 0.0

-1.3947337284172166e6 3.338793871189488e6 0.0
3.338793871189488e6 -9857.310322956939 0.0
0.0 0.0 0.0

-69138.43569730874 6649.815465703641 0.0
6649.815465703641 -82832.33323033754 0.0
0.0 0.0 0.0

364088.6831220391 3.150982247875909e6 0.0
3.150982247875909e6 -2.0364170477828856e6 0.0
0.0 0.0 0.0

-493786.4345861738 2.6425965266278125e6 0.0
2.6425965266278125e6 -1.300062222264332e6 0.0
0.0 0.0 0.0

-258883.78321618904 2.8527143820360596e6 0.0
2.8527143820360596e6 -102665.68032518336 0.0
0.0 0.0 0.0

-3.7560400411798563e6 4.385572040473379e6 0.0
4.385572040473379e6 1.0257602670713072e6 0.0
0.0 0.0 0.0

-886585.064715579 2.897132361062784e6 0.0
2.897132361062784e6 65467.812119772774 0.0
0.0 0.0 0.0

-1.2249700839458504e6 3.7072589644996463e6 0.0
3.7072589644996463e6 -56228.44774241431 0.0
0.0 0.0 0.0

-2.1769513249578928e6 3.2089861640695627e6 0.0
3.2089861640695627e6 712775.7627961738 0.0
0.0 0.0 0.0

-2.6305754157878375e6 -902839.9540145412 0.0
-902839.9540145412 5.503688667786068e6 0.0
0.0 0.0 0.0

423179.57226792007 119478.03973297925 0.0
119478.03973297925 -433216.1372939948 0.0
0.0 0.0 0.0

-231769.94723331573 3.008579643740615e6 0.0
3.008579643740615e6 -973151.8980366699 0.0
0.0 0.0 0.0

-48858.65652468734 130221.1807291091 0.0
130221.1807291091 -147600.5795645228 0.0
0.0 0.0 0.0

-384155.6520064713 3.1165810819502375e6 0.0
3.1165810819502375e6 -847896.4841003526 0.0
0.0 0.0 0.0

-436624.65535285586 4.002234188409174e6 0.0
4.002234188409174e6 -276964.0810567075 0.0
0.0 0.0 0.0

-694384.7165280783 619131.051480912 0.0
619131.051480912 -517699.89854408003 0.0
0.0 0.0 0.0

-1.4608752216681181e6 3.353941429879192e6 0.0
3.353941429879192e6 -188659.07214017323 0.0
0.0 0.0 0.0

-2.0719367790756894e6 4.712874825751118e6 0.0
4.712874825751118e6 1.0805163549984675e6 0.0
0.0 0.0 0.0

-308127.0879190777 2.5734434492843575e6 0.0
2.5734434492843575e6 -1.02709027274732e6 0.0
0.0 0.0 0.0

-131959.6150171473 4.379546149323567e6 0.0
4.379546149323567e6 -439865.38576547196 0.0
0.0 0.0 0.0

-224740.4750319597 2.9904590149568436e6 0.0
2.9904590149568436e6 -944088.0913694 0.0
0.0 0.0 0.0

-166868.30347588178 2.6272154850990227e6 0.0
2.6272154850990227e6 -1.2169909015417655e6 0.0
0.0 0.0 0.0

104512.7621232708 244662.45442655613 0.0
244662.45442655613 -92034.85395789164 0.0
0.0 0.0 0.0

-591427.2382583134 3.3480914216206805e6 0.0
3.3480914216206805e6 61588.395152473066 0.0
0.0 0.0 0.0

-662401.3042272164 3.514982316359499e6 0.0
3.514982316359499e6 -123012.95188374218 0.0
0.0 0.0 0.0

666639.9931634311 1.482708242320509e6 0.0
1.482708242320509e6 -1.443999667698779e6 0.0
0.0 0.0 0.0

-1.5603587009710702e6 1.4661329546215725e6 0.0
1.4661329546215725e6 -995181.444310698 0.0
0.0 0.0 0.0

-417253.7733720344 4.0170749024233874e6 0.0
4.0170749024233874e6 -305113.0930850091 0.0
0.0 0.0 0.0

192407.92474087008 4.273065546512787e6 0.0
4.273065546512787e6 80634.50232281977 0.0
0.0 0.0 0.0

-3.305404001604247e6 2.201298539675672e6 0.0
2.201298539675672e6 886078.1602084532 0.0
0.0 0.0 0.0

329864.85080746986 301490.6654865002 0.0
301490.6654865002 -449265.41172262776 0.0
0.0 0.0 0.0

-968831.3568954575 2.480855778258737e6 0.0
2.480855778258737e6 -115643.64907882048 0.0
0.0 0.0 0.0

-1.1030378931970713e6 4.57854304702122e6 0.0
4.57854304702122e6 -314234.5270555278 0.0
0.0 0.0 0.0

-2.3507527919098143e6 2.0363804431136006e6 0.0
2.0363804431136006e6 -8113.074950164184 0.0
0.0 0.0 0.0

-597124.0351998014 3.6734665658768513e6 0.0
3.6734665658768513e6 -1.3440699660953144e6 0.0
0.0 0.0 0.0

-26587.91293366588 4.090912428000038e6 0.0
4.090912428000038e6 -587193.8538544017 0.0
0.0 0.0 0.0

-84979.23903201986 3.889251419495307e6 0.0
3.889251419495307e6 -1.3237366782368475e6 0.0
0.0 0.0 0.0

-3.05945429696225e6 1.8848628627053883e6 0.0
1.8848628627053883e6 458754.6883616254 0.0
0.0 0.0 0.0

-1.4557640332680172e6 3.7258592136052577e6 0.0
3.7258592136052577e6 457322.3217753109 0.0
0.0 0.0 0.0

-847269.450634927 4.0892919240409024e6 0.0
4.0892919240409024e6 -263439.63544727856 0.0
0.0 0.0 0.0

555830.8371790773 3.626671721388186e6 0.0
3.626671721388186e6 -1.5115774764110364e6 0.0
0.0 0.0 0.0

-38447.97505584246 -3941.391161093727 0.0
-3941.391161093727 382741.3109596285 0.0
0.0 0.0 0.0

-1.4945632516047717e6 2.7454702209470766e6 0.0
2.7454702209470766e6 607264.2688708724 0.0
0.0 0.0 0.0

-513564.32095094805 4.2023918716375865e6 0.0
4.2023918716375865e6 -199061.1068990748 0.0
0.0 0.0 0.0

-327781.7307497214 4.1441720408030488e6 0.0
4.1441720408030488e6 -1.5154246246989085e6 0.0
0.0 0.0 0.0

-1.3590814329680596e6 3.686712233092406e6 0.0
3.686712233092406e6 -92100.33709111228 0.0
0.0 0.0 0.0

-1.7591933398657625e6 8.1520550204336075e6 0.0
8.1520550204336075e6 224120.57220482675 0.0
0.0 0.0 0.0

-873361.1685062465 4.544478665065589e6 0.0
4.544478665065589e6 -389700.6302435547 0.0
0.0 0.0 0.0

-1.5527012801801679e6 3.3672652718049698e6 0.0
3.3672652718049698e6 -50212.46375129075 0.0
0.0 0.0 0.0

-716154.6544269334 2.4744110610157107e6 0.0
2.4744110610157107e6 458289.47640124866 0.0
0.0 0.0 0.0

-508293.83625982737 3.7664661692136065e6 0.0
3.7664661692136065e6 -462143.3641454808 0.0
0.0 0.0 0.0

-1.6321779342451936e6 3.4001295999808945e6 0.0
3.4001295999808945e6 359156.5471215589 0.0
0.0 0.0 0.0

-147283.000093972 3.551139763945294e6 0.0
3.551139763945294e6 -1.14520781795597e6 0.0
0.0 0.0 0.0

995741.21138793 1.7825362332379704e6 0.0
1.7825362332379704e6 -1.7481536804133877e6 0.0
0.0 0.0 0.0

-374975.806725716 3.989116930494758e6 0.0
3.989116930494758e6 -1.4800313207885225e6 0.0
0.0 0.0 0.0

-1.9095322556379144e6 3.1081913722819006e6 0.0
3.1081913722819006e6 505977.54120294994 0.0
0.0 0.0 0.0

176827.69058442162 4.067348764900683e6 0.0
4.067348764900683e6 589425.6217105192 0.0
0.0 0.0 0.0

-126749.12481463162 2.650832930939968e6 0.0
2.650832930939968e6 -422497.1462690689 0.0
0.0 0.0 0.0

-1.131926618306161e6 973568.7158152927 0.0
973568.7158152927 1.7826829896939541e6 0.0
0.0 0.0 0.0

-1.3817236151857495e6 3.1153434287155527e6 0.0
3.1153434287155527e6 659664.2025552543 0.0
0.0 0.0 0.0

-745667.6371329285 4.913796807642889e6 0.0
4.913796807642889e6 1.8409606372034433e6 0.0
0.0 0.0 0.0

-257991.6706307926 -374274.7155884025 0.0
-374274.7155884025 154809.85181488044 0.0
0.0 0.0 0.0

1.1146795738403348e6 2.1076685750220325e6 0.0
2.1076685750220325e6 -2.0039826919719302e6 0.0
0.0 0.0 0.0

-42725.55850473186 4.036693893543691e6 0.0
4.036693893543691e6 -1.4671988415876757e6 0.0
0.0 0.0 0.0

-1.4741426582833927e6 3.381712690612572e6 0.0
3.381712690612572e6 27842.92684871581 0.0
0.0 0.0 0.0

-426517.28775686247 3.943978219356755e6 0.0
3.943978219356755e6 1.0749862165519292e6 0.0
0.0 0.0 0.0

-27746.475340629637 707794.2244909265 0.0
707794.2244909265 -240566.41914809376 0.0
0.0 0.0 0.0

-2.953947784428321e6 4.546528280649066e6 0.0
4.546528280649066e6 668217.8525134494 0.0
0.0 0.0 0.0

-588387.5342344716 4.0428238739151177e6 0.0
4.0428238739151177e6 -246166.49343487894 0.0
0.0 0.0 0.0

-3.2056125796533576e6 1.6305036831468176e6 0.0
1.6305036831468176e6 172875.49662601156 0.0
0.0 0.0 0.0

1.1006155904839844e6 2.2164473909664806e6 0.0
2.2164473909664806e6 -2.1196662284271833e6 0.0
0.0 0.0 0.0

-1.2664888905612745e6 5.094582810436672e6 0.0
5.094582810436672e6 796317.7638641689 0.0
0.0 0.0 0.0

-5.783429268638866e6 -477831.48768509086 0.0
-477831.48768509086 7.560861141420244e6 0.0
0.0 0.0 0.0

-1.357883016398364e6 3.62916997939788e6 0.0
3.62916997939788e6 144035.40858838416 0.0
0.0 0.0 0.0

-172690.13701757506 4.440758434163015e6 0.0
4.440758434163015e6 43674.28681086721 0.0
0.0 0.0 0.0

546406.4218964981 155619.17526125663 0.0
155619.17526125663 -707501.9783195412 0.0
0.0 0.0 0.0

-309077.850966858 3.2823648729325784e6 0.0
3.2823648729325784e6 358856.3874157478 0.0
0.0 0.0 0.0

-687717.8947783303 4.137094132883857e6 0.0
4.137094132883857e6 -215745.78194667047 0.0
0.0 0.0 0.0

-411000.97192763025 949090.1703941767 0.0
949090.1703941767 -7930.934269358215 0.0
0.0 0.0 0.0

-519871.51692651014 3.8585853098192797e6 0.0
3.8585853098192797e6 -312863.4330895087 0.0
0.0 0.0 0.0

-498333.0745786876 4.029755816454327e6 0.0
4.029755816454327e6 -288091.785855204 0.0
0.0 0.0 0.0

-1.1654104258211397e6 3.1947430633099345e6 0.0
3.1947430633099345e6 396039.57998437673 0.0
0.0 0.0 0.0

8883.830535617832 4.221839278235702e6 0.0
4.221839278235702e6 -1.4285791473469925e6 0.0
0.0 0.0 0.0

-507110.17318224226 3.224493686083822e6 0.0
3.224493686083822e6 -158804.48616450134 0.0
0.0 0.0 0.0

-584964.0071535273 2.028275109847502e6 0.0
2.028275109847502e6 1.161640902867352e6 0.0
0.0 0.0 0.0

187277.0916971902 318212.4737063838 0.0
318212.4737063838 138122.76972001366 0.0
0.0 0.0 0.0

-1.0425988037839249e6 4.0661135585407945e6 0.0
4.0661135585407945e6 -156630.79559677813 0.0
0.0 0.0 0.0

-1.1595048129932706e6 3.8175805868749935e6 0.0
3.8175805868749935e6 -64560.33112271293 0.0
0.0 0.0 0.0

-959396.454878073 5.608906925275626e6 0.0
5.608906925275626e6 579422.8294125749 0.0
0.0 0.0 0.0

46860.26348584611 313421.6720552284 0.0
313421.6720552284 -394684.4442110752 0.0
0.0 0.0 0.0

-106879.69527323119 4.298176136660244e6 0.0
4.298176136660244e6 -1.543500203008771e6 0.0
0.0 0.0 0.0

-1.4258317783420978e6 3.661316337533314e6 0.0
3.661316337533314e6 57386.11220093671 0.0
0.0 0.0 0.0

-409489.3612048741 3.5306618666643137e6 0.0
3.5306618666643137e6 -777793.4267071885 0.0
0.0 0.0 0.0

-1.4924044609162873e6 2.718835654712506e6 0.0
2.718835654712506e6 642520.7731291775 0.0
0.0 0.0 0.0

393594.16812424455 236452.63958724958 0.0
236452.63958724958 -522547.24530584435 0.0
0.0 0.0 0.0

-1.8018632170795992e6 3.0252597460661763e6 0.0
3.0252597460661763e6 78416.47143200785 0.0
0.0 0.0 0.0

-2.0042357310001117e6 3.211880961906348e6 0.0
3.211880961906348e6 1.0337935449669639e6 0.0
0.0 0.0 0.0

-225638.6910463118 4.410054373924787e6 0.0
4.410054373924787e6 967245.2310268917 0.0
0.0 0.0 0.0

135290.6030674706 363571.32469313644 0.0
363571.32469313644 -776724.9897252606 0.0
0.0 0.0 0.0

-270981.6396666839 3.393704879857146e6 0.0
3.393704879857146e6 -382563.21482322837 0.0
0.0 0.0 0.0

845463.9318770037 3.68417099034354e6 0.0
3.68417099034354e6 -1.6912801343724139e6 0.0
0.0 0.0 0.0

-2.2149026459923736e6 6.136788808597568e6 0.0
6.136788808597568e6 1.0593038600220415e6 0.0
0.0 0.0 0.0

-838147.8990632088 4.170675353298864e6 0.0
4.170675353298864e6 -103889.085595498 0.0
0.0 0.0 0.0

756162.3588405121 944094.8713964808 0.0
944094.8713964808 -1.320431689084249e6 0.0
0.0 0.0 0.0

-385959.32176309923 3.9195713337547765e6 0.0
3.9195713337547765e6 -455909.67162026704 0.0
0.0 0.0 0.0

563879.8640928715 3.9963680794572877e6 0.0
3.9963680794572877e6 -1.1036724879409275e6 0.0
0.0 0.0 0.0

-209354.52185657335 3.2791252520716786e6 0.0
3.2791252520716786e6 -1.2088726248219567e6 0.0
0.0 0.0 0.0

-2.6943276456215815e6 2.583793586657138e6 0.0
2.583793586657138e6 803673.2219121824 0.0
0.0 0.0 0.0

109655.23487219136 4.258169305546485e6 0.0
4.258169305546485e6 365517.5571965048 0.0
0.0 0.0 0.0

-1.1848440060461946e6 3.584635899253245e6 0.0
3.584635899253245e6 750305.5394229044 0.0
0.0 0.0 0.0

-1.4409173737357415e6 3.1128713855245523e6 0.0
3.1128713855245523e6 427081.0140204505 0.0
0.0 0.0 0.0

-676598.2856432163 2.552193042933384e6 0.0
2.552193042933384e6 -184237.87068643235 0.0
0.0 0.0 0.0

-261554.3754309707 3.1405329388253493e6 0.0
3.1405329388253493e6 -414364.1757793738 0.0
0.0 0.0 0.0

-1.4656630179692744e6 3.2812178638653634e6 0.0
3.2812178638653634e6 956849.8984952465 0.0
0.0 0.0 0.0

-491520.5959879076 3.8235321472696965e6 0.0
3.8235321472696965e6 -353265.20512903074 0.0
0.0 0.0 0.0

-4.349539359504141e6 -678519.0594398774 0.0
-678519.0594398774 7.858456009605663e6 0.0
0.0 0.0 0.0

-1.366342820657306e6 2.652719794202463e6 0.0
2.652719794202463e6 749049.406606864 0.0
0.0 0.0 0.0

-336027.7524862027 2.3799931750328373e6 0.0
2.3799931750328373e6 -1.2519647347563112e6 0.0
0.0 0.0 0.0

-486549.78566145897 3.333001420866829e6 0.0
3.333001420866829e6 -615473.8823244686 0.0
0.0 0.0 0.0

-1.0927366499003351e6 3.102524607308939e6 0.0
3.102524607308939e6 712536.1910606282 0.0
0.0 0.0 0.0

-668280.6680331441 4.1181183943146756e6 0.0
4.1181183943146756e6 -204150.0817258442 0.0
0.0 0.0 0.0

-152044.7442581321 4.3678497979816785e6 0.0
4.3678497979816785e6 -506815.82435404905 0.0
0.0 0.0 0.0

-2.061936227746999e6 3.2236707652109507e6 0.0
3.2236707652109507e6 544232.1307441546 0.0
0.0 0.0 0.0

-600901.1783556971 3.9082806416506264e6 0.0
3.9082806416506264e6 -349357.83990344254 0.0
0.0 0.0 0.0

-2.5400493205859475e6 -1.3335003255466144e6 0.0
-1.3335003255466144e6 4.089326500139805e6 0.0
0.0 0.0 0.0

-156810.95785261327 1.6779039521310388e6 0.0
1.6779039521310388e6 -445677.62024337065 0.0
0.0 0.0 0.0

-456530.7130944256 3.5734426877719047e6 0.0
3.5734426877719047e6 -674318.2176814661 0.0
0.0 0.0 0.0

-1.8155327752939924e6 2.7910992367414967e6 0.0
2.7910992367414967e6 -50654.19722804928 0.0
0.0 0.0 0.0

410094.80682994565 213067.97550731036 0.0
213067.97550731036 -573839.5250049189 0.0
0.0 0.0 0.0

-2.614762422516252e6 -499064.45837619563 0.0
-499064.45837619563 3.2827406561458395e6 0.0
0.0 0.0 0.0

-288416.6267007695 -101073.03572041316 0.0
-101073.03572041316 -282470.216015266 0.0
0.0 0.0 0.0

-1.0877559865996079e6 367843.1877491093 0.0
367843.1877491093 659012.3206808646 0.0
0.0 0.0 0.0

-60700.2084953867 2.9678194719638145e6 0.0
2.9678194719638145e6 -1.2489053151614245e6 0.0
0.0 0.0 0.0

-1.981399965593526e6 3.2211676540400563e6 0.0
3.2211676540400563e6 1.0056606061169714e6 0.0
0.0 0.0 0.0

-1.3569912990910127e6 3.0491644621683783e6 0.0
3.0491644621683783e6 803739.0993435045 0.0
0.0 0.0 0.0

-748322.8530542181 4.0697583200296783e6 0.0
4.0697583200296783e6 -63195.386993008666 0.0
0.0 0.0 0.0

-48388.31296552613 4.0521766288731946e6 0.0
4.0521766288731946e6 -1.3297276501751987e6 0.0
0.0 0.0 0.0

-579354.6667700759 4.066008565613505e6 0.0
4.066008565613505e6 491912.1005663828 0.0
0.0 0.0 0.0

-560940.3366394689 2.343158693192144e6 0.0
2.343158693192144e6 -1.0199623902450838e6 0.0
0.0 0.0 0.0

-580592.1057007834 3.9518237031148653e6 0.0
3.9518237031148653e6 -280555.75490825257 0.0
0.0 0.0 0.0

540692.1778008335 3.323261559691206e6 0.0
3.323261559691206e6 -1.122442811067396e6 0.0
0.0 0.0 0.0

569531.787014535 4.0965133805935504e6 0.0
4.0965133805935504e6 -1.0164095854744678e6 0.0
0.0 0.0 0.0

-1.1627786790922452e6 3.8312016751584033e6 0.0
3.8312016751584033e6 677035.7801640052 0.0
0.0 0.0 0.0

-2.552761454668576e6 4.57714965131316e6 0.0
4.57714965131316e6 1.3246283104624762e6 0.0
0.0 0.0 0.0

-1.2331717633125356e6 3.663117682834818e6 0.0
3.663117682834818e6 -58865.41236872948 0.0
0.0 0.0 0.0

-481511.72030056466 3.4609060865380326e6 0.0
3.4609060865380326e6 -205678.0046783327 0.0
0.0 0.0 0.0

-676470.0002058328 684224.064210408 0.0
684224.064210408 789424.781064328 0.0
0.0 0.0 0.0

-372445.2135985389 3.5804275126215094e6 0.0
3.5804275126215094e6 -840314.4324222882 0.0
0.0 0.0 0.0

-393376.0859761731 4.302827495078934e6 0.0
4.302827495078934e6 -152520.80421518802 0.0
0.0 0.0 0.0

-4.366094421948932e6 206836.4557407 0.0
206836.4557407 8.561518579381146e6 0.0
0.0 0.0 0.0

-407981.30699381616 3.809633874562565e6 0.0
3.809633874562565e6 -369262.20754625846 0.0
0.0 0.0 0.0

-1.3019988652182706e6 3.7973546835814533e6 0.0
3.7973546835814533e6 -88745.9375798903 0.0
0.0 0.0 0.0

-313037.62159547803 2.7799595340869143e6 0.0
2.7799595340869143e6 -1.060885199621989e6 0.0
0.0 0.0 0.0

-3.3041404322812436e6 -261163.51644253818 0.0
-261163.51644253818 4.1620512824238557e6 0.0
0.0 0.0 0.0

-437572.80159883265 3.821674681294529e6 0.0
3.821674681294529e6 -337807.4825884829 0.0
0.0 0.0 0.0

-577023.9712784691 3.251620871661263e6 0.0
3.251620871661263e6 -480490.57218109013 0.0
0.0 0.0 0.0

-99929.64748065895 3.3627931025017262e6 0.0
3.3627931025017262e6 -1.3680846835911456e6 0.0
0.0 0.0 0.0

644973.8950936142 3.7704498300648625e6 0.0
3.7704498300648625e6 -1.85779773240175e6 0.0
0.0 0.0 0.0

391712.0043238738 3.9023189939458882e6 0.0
3.9023189939458882e6 -1.823413440517786e6 0.0
0.0 0.0 0.0

-582794.7626479528 2.906060968449064e6 0.0
2.906060968449064e6 -325218.74510774796 0.0
0.0 0.0 0.0

-1.8578379282429924e6 3.294596884843741e6 0.0
3.294596884843741e6 437509.4175832452 0.0
0.0 0.0 0.0

-1.2979324852304433e6 3.5632217845908315e6 0.0
3.5632217845908315e6 840465.2367712724 0.0
0.0 0.0 0.0

-285665.33456933877 3.4531090691266516e6 0.0
3.4531090691266516e6 -928303.7051791816 0.0
0.0 0.0 0.0

-351758.78213359107 5.183038601713665e6 0.0
5.183038601713665e6 -27569.66178003476 0.0
0.0 0.0 0.0

-1.7581188959544604e6 -477622.9677627083 0.0
-477622.9677627083 3.09605343990619e6 0.0
0.0 0.0 0.0

516726.3216226418 4.105101753386811e6 0.0
4.105101753386811e6 -1.2522769775237776e6 0.0
0.0 0.0 0.0

575745.0728811155 3.951685003986642e6 0.0
3.951685003986642e6 -1.3294398992473115e6 0.0
0.0 0.0 0.0

-5.075194801353456e6 -1.158793525139863e6 0.0
-1.158793525139863e6 9.175726458796415e6 0.0
0.0 0.0 0.0

-158663.76140024347 2.6558288517096676e6 0.0
2.6558288517096676e6 242580.518080633 0.0
0.0 0.0 0.0

-2.0300182451429144e6 -196215.8523069655 0.0
-196215.8523069655 3.696630025637298e6 0.0
0.0 0.0 0.0

-1367.1910943482944 226346.86559980016 0.0
226346.86559980016 -281506.85973104974 0.0
0.0 0.0 0.0

-2.0378915930136077e6 3.2121648843009905e6 0.0
3.2121648843009905e6 666382.8488373811 0.0
0.0 0.0 0.0

241674.79833812919 3.362074389465784e6 0.0
3.362074389465784e6 -1.849840032339429e6 0.0
0.0 0.0 0.0

-2.0702974332730311e6 2.903889724429812e6 0.0
2.903889724429812e6 183848.47218096314 0.0
0.0 0.0 0.0

-1.8282598855207586e6 469020.48668540193 0.0
469020.48668540193 3.694266402779344e6 0.0
0.0 0.0 0.0

26762.99711089034 983512.7431614044 0.0
983512.7431614044 -338013.6468533286 0.0
0.0 0.0 0.0

-1.1806913851405517e6 5.268592178264387e6 0.0
5.268592178264387e6 729576.3366165656 0.0
0.0 0.0 0.0

-702756.6658152451 4.1754555420962577e6 0.0
4.1754555420962577e6 -94066.8616420634 0.0
0.0 0.0 0.0

-1.20741103554847e6 3.792458097827608e6 0.0
3.792458097827608e6 557737.2852603113 0.0
0.0 0.0 0.0

-993912.9721791273 4.09865676259762e6 0.0
4.09865676259762e6 -128648.82616320928 0.0
0.0 0.0 0.0

-107404.5322995279 3.9800144608567148e6 0.0
3.9800144608567148e6 -1.385110685370861e6 0.0
0.0 0.0 0.0

-578581.5703248873 3.9059076900347406e6 0.0
3.9059076900347406e6 -218938.66926796042 0.0
0.0 0.0 0.0

-1.5475365554522355e6 4.257038621724874e6 0.0
4.257038621724874e6 2.0649708269325942e6 0.0
0.0 0.0 0.0

-1.5517238338023783e6 -1.0007702127780739e6 0.0
-1.0007702127780739e6 631422.7259897736 0.0
0.0 0.0 0.0

-1.1568531907881915e6 1.3848135643676212e6 0.0
1.3848135643676212e6 294416.2517095623 0.0
0.0 0.0 0.0

203082.93656650773 3.375072442710974e6 0.0
3.375072442710974e6 676943.20209872 0.0
0.0 0.0 0.0

192000.48933739032 3.1023557364450474e6 0.0
3.1023557364450474e6 640001.7048604363 0.0
0.0 0.0 0.0

-2.231875069704187e6 6.467733772802786e6 0.0
6.467733772802786e6 894367.4436051458 0.0
0.0 0.0 0.0

1.0654740087234892e6 755242.5450531221 0.0
755242.5450531221 -1.9316376571732434e6 0.0
0.0 0.0 0.0

-2.523967967294653e6 2.833019730885007e6 0.0
2.833019730885007e6 586493.4536384246 0.0
0.0 0.0 0.0

-4.447074723241571e6 -1.0652559605767156e6 0.0
-1.0652559605767156e6 4.664483839880344e6 0.0
0.0 0.0 0.0

-500139.68002084224 3.388690923111586e6 0.0
3.388690923111586e6 -590638.6907564731 0.0
0.0 0.0 0.0

-2.6172628010130846e6 555371.3050816731 0.0
555371.3050816731 3.7448402442854727e6 0.0
0.0 0.0 0.0

-334348.3327580574 3.573829229267871e6 0.0
3.573829229267871e6 -711580.0351088918 0.0
0.0 0.0 0.0

-811922.7968147795 4.1478314780646283e6 0.0
4.1478314780646283e6 -168222.51861886587 0.0
0.0 0.0 0.0

-1.9790325965803233e6 3.3004339659431763e6 0.0
3.3004339659431763e6 1.0980463607367873e6 0.0
0.0 0.0 0.0

-364020.54675446625 3.546013270034961e6 0.0
3.546013270034961e6 -632643.0697688411 0.0
0.0 0.0 0.0

1.1287675098165334e6 2.1748200642826757e6 0.0
2.1748200642826757e6 -2.0727842791614197e6 0.0
0.0 0.0 0.0

-319982.7448720355 2.522160018321763e6 0.0
2.522160018321763e6 -1.0666091712867941e6 0.0
0.0 0.0 0.0

-549951.8549886638 4.394668068660617e6 0.0
4.394668068660617e6 -29534.813440212805 0.0
0.0 0.0 0.0

-264022.82870299043 3.381748801861133e6 0.0
3.381748801861133e6 -951339.216686783 0.0
0.0 0.0 0.0

-516878.55020892003 2.5376933221405563e6 0.0
2.5376933221405563e6 610895.8447585814 0.0
0.0 0.0 0.0

478970.5764579476 4.299279729297577e6 0.0
4.299279729297577e6 -1.3271671919079842e6 0.0
0.0 0.0 0.0

-1.4679591360644624e6 3.1690515768450233e6 0.0
3.1690515768450233e6 589924.5012715826 0.0
0.0 0.0 0.0

-745692.5427552182 3.9665802131428937e6 0.0
3.9665802131428937e6 1.5640687980235298e6 0.0
0.0 0.0 0.0

-959210.089417425 6.752851273017873e6 0.0
6.752851273017873e6 255409.0707809247 0.0
0.0 0.0 0.0

503111.6026184526 4.099111527132021e6 0.0
4.099111527132021e6 -1.0055362877062849e6 0.0
0.0 0.0 0.0

-3.3272751068615983e6 -922560.9973473399 0.0
-922560.9973473399 3.906811730171081e6 0.0
0.0 0.0 0.0

-163254.87765618297 4.0799911645608144e6 0.0
4.0799911645608144e6 -547756.6818742468 0.0
0.0 0.0 0.0

-2.371504306878437e6 2.73456437807562e6 0.0
2.73456437807562e6 377065.8599063901 0.0
0.0 0.0 0.0

-936484.0735098543 2.775621719436408e6 0.0
2.775621719436408e6 189726.3510873827 0.0
0.0 0.0 0.0

-1.2788344004203351e6 3.6546032226028815e6 0.0
3.6546032226028815e6 10972.531201060629 0.0
0.0 0.0 0.0

-7.106595531403821e6 -728111.216990148 0.0
-728111.216990148 8.73202844402467e6 0.0
0.0 0.0 0.0

-369405.39159520227 2.7901072201286694e6 0.0
2.7901072201286694e6 -686319.555023886 0.0
0.0 0.0 0.0

-1.6056404683212172e6 5.208265149513333e6 0.0
5.208265149513333e6 622871.7187195538 0.0
0.0 0.0 0.0

-845473.7371867318 2.6879964286626694e6 0.0
2.6879964286626694e6 443969.9596289622 0.0
0.0 0.0 0.0

-4.483521772849202e6 -306555.9615013158 0.0
-306555.9615013158 2.774915288654252e6 0.0
0.0 0.0 0.0

-1.0958121898765108e6 3.3977211756192497e6 0.0
3.3977211756192497e6 233741.9760038748 0.0
0.0 0.0 0.0

-82910.68513481732 259711.13987927168 0.0
259711.13987927168 -144088.35150801027 0.0
0.0 0.0 0.0

-1.7915431820805357e6 885538.0171357322 0.0
885538.0171357322 4.24356983461241e6 0.0
0.0 0.0 0.0

-1.9265702458405765e6 3.0522673377956464e6 0.0
3.0522673377956464e6 482700.888915851 0.0
0.0 0.0 0.0

-2.6397799206019696e6 2.7202566869074493e6 0.0
2.7202566869074493e6 649665.815480531 0.0
0.0 0.0 0.0

-2.4782517182323667e6 90528.75256923874 0.0
90528.75256923874 4.666752927835736e6 0.0
0.0 0.0 0.0

-466475.33076407074 1.9481311310200852e6 0.0
1.9481311310200852e6 -396668.93801174115 0.0
0.0 0.0 0.0

-386178.48901867354 3.935236865633977e6 0.0
3.935236865633977e6 -369947.8859659965 0.0
0.0 0.0 0.0

-499273.6257870715 2.40951552254489e6 0.0
2.40951552254489e6 -1.1921836996258898e6 0.0
0.0 0.0 0.0

-496923.72828578745 1.7688396592972642e6 0.0
1.7688396592972642e6 902960.9973074998 0.0
0.0 0.0 0.0

-2.1800520362435807e6 3.083773944376914e6 0.0
3.083773944376914e6 450143.7081197853 0.0
0.0 0.0 0.0

-876826.6154580517 1.333938969539204e6 0.0
1.333938969539204e6 1.2153041843772763e6 0.0
0.0 0.0 0.0

329839.73566528567 4.424111648459357e6 0.0
4.424111648459357e6 -1.485004039695781e6 0.0
0.0 0.0 0.0

-1.6787382627236655e6 3.3590837569947834e6 0.0
3.3590837569947834e6 -155197.53454726737 0.0
0.0 0.0 0.0

-1.336422392189772e6 4.055942416825955e6 0.0
4.055942416825955e6 727291.9724050034 0.0
0.0 0.0 0.0

1.0374012313400778e6 2.9756664907748755e6 0.0
2.9756664907748755e6 -2.2370661721396623e6 0.0
0.0 0.0 0.0

-405186.67215192463 3.72767175231284e6 0.0
3.72767175231284e6 -99442.41186731092 0.0
0.0 0.0 0.0

-1.8947847895958046e6 3.048263844099316e6 0.0
3.048263844099316e6 811483.1298425305 0.0
0.0 0.0 0.0

-413323.12039681745 3.3680442879512734e6 0.0
3.3680442879512734e6 -556656.9937675046 0.0
0.0 0.0 0.0

-2.127335788396194e6 2.749013711930253e6 0.0
2.749013711930253e6 195475.75793049438 0.0
0.0 0.0 0.0

-2.037010097702649e6 3.3487088514329023e6 0.0
3.3487088514329023e6 1.1832376615718515e6 0.0
0.0 0.0 0.0

-1.9316171019725828e6 2.959174756592805e6 0.0
2.959174756592805e6 474887.7108817453 0.0
0.0 0.0 0.0

-77847.57921878231 1.4903347497542498e6 0.0
1.4903347497542498e6 -9444.482524778554 0.0
0.0 0.0 0.0

-3338.375744332734 4.140799077418683e6 0.0
4.140799077418683e6 -645232.0024983647 0.0
0.0 0.0 0.0

-240668.3927571295 3.3008398335108957e6 0.0
3.3008398335108957e6 -1.1256173500011994e6 0.0
0.0 0.0 0.0

-1.2242097963376564e6 3.367595491611297e6 0.0
3.367595491611297e6 307345.82992201095 0.0
0.0 0.0 0.0

-409301.06611625646 3.2604550890404587e6 0.0
3.2604550890404587e6 -803681.3700774794 0.0
0.0 0.0 0.0

500203.9405385422 1.4693455695052056e6 0.0
1.4693455695052056e6 -1.4834462790041098e6 0.0
0.0 0.0 0.0

-1.0138736522342229e6 3.0317239195488826e6 0.0
3.0317239195488826e6 2.0999136103095096e6 0.0
0.0 0.0 0.0

-126697.10132198562 -582207.3068610202 0.0
-582207.3068610202 365020.9812782902 0.0
0.0 0.0 0.0

-58391.52421140742 4.110551767410168e6 0.0
4.110551767410168e6 -543705.2332151349 0.0
0.0 0.0 0.0

-1.8420711423216676e6 3.21620671763576e6 0.0
3.21620671763576e6 522846.03362428537 0.0
0.0 0.0 0.0

-141606.5377323312 3.2963480815036083e6 0.0
3.2963480815036083e6 -1.2328564922860858e6 0.0
0.0 0.0 0.0

-1.3330378005694086e6 4.9194022359412e6 0.0
4.9194022359412e6 808797.5214053078 0.0
0.0 0.0 0.0

-374789.0165574381 3.78577293325663e6 0.0
3.78577293325663e6 -375976.3565137272 0.0
0.0 0.0 0.0

531278.9484335221 3.128377131475007e6 0.0
3.128377131475007e6 -1.4724725910196938e6 0.0
0.0 0.0 0.0

-1.4294312622545287e6 3.869942542106499e6 0.0
3.869942542106499e6 436493.2421490013 0.0
0.0 0.0 0.0

-298431.52354550024 3.250747977647607e6 0.0
3.250747977647607e6 -1.0264282518798618e6 0.0
0.0 0.0 0.0

655269.9480781354 567839.3706645156 0.0
567839.3706645156 -1.0473278990808481e6 0.0
0.0 0.0 0.0

-964350.0896375906 5.529890225843748e6 0.0
5.529890225843748e6 826797.7422040955 0.0
0.0 0.0 0.0

-780834.3217311042 4.172048614001249e6 0.0
4.172048614001249e6 -166831.85648450698 0.0
0.0 0.0 0.0

-1.8657633822835528e6 3.177532919592477e6 0.0
3.177532919592477e6 506758.7501598933 0.0
0.0 0.0 0.0

-340283.48725853936 3.7905440017061136e6 0.0
3.7905440017061136e6 -418242.8207504322 0.0
0.0 0.0 0.0

394121.2687350031 390564.6968836571 0.0
390564.6968836571 -780452.9857217874 0.0
0.0 0.0 0.0

-1.7491127760514857e6 89633.3012300424 0.0
89633.3012300424 2.268084169747456e6 0.0
0.0 0.0 0.0

-449815.1634313888 3.306257413513631e6 0.0
3.306257413513631e6 -704094.2555892292 0.0
0.0 0.0 0.0

-305757.92764855374 2.8886641305230767e6 0.0
2.8886641305230767e6 -858783.1025135325 0.0
0.0 0.0 0.0

90518.53229705003 849098.5819951466 0.0
849098.5819951466 -655293.6274384223 0.0
0.0 0.0 0.0

199511.90776852274 221801.38288259832 0.0
221801.38288259832 -167211.00789372402 0.0
0.0 0.0 0.0

-483633.6489477081 3.086968897932839e6 0.0
3.086968897932839e6 -155987.9430280431 0.0
0.0 0.0 0.0

-1.5210562313326243e6 4.1531861323309815e6 0.0
4.1531861323309815e6 926004.3061022892 0.0
0.0 0.0 0.0

-11382.563796429546 4.719677400179749e6 0.0
4.719677400179749e6 -1.0735282524372907e6 0.0
0.0 0.0 0.0

676345.9416539599 931369.4865448644 0.0
931369.4865448644 -1.3051996262501131e6 0.0
0.0 0.0 0.0

-2.222460178684889e6 3.2104416513287914e6 0.0
3.2104416513287914e6 687643.1163471988 0.0
0.0 0.0 0.0

-1.1834778279687266e6 3.9419372406553547e6 0.0
3.9419372406553547e6 544896.5301276038 0.0
0.0 0.0 0.0

-4.020426049178873e6 2.224893488768805e6 0.0
2.224893488768805e6 1.4818845267377654e6 0.0
0.0 0.0 0.0

-2.0911952601105128e6 3.201313314856683e6 0.0
3.201313314856683e6 490193.82078443456 0.0
0.0 0.0 0.0

-3.3965413188786334e6 4.1748888091752985e6 0.0
4.1748888091752985e6 1.915325559465708e6 0.0
0.0 0.0 0.0

-685358.7793992246 4.088526746171135e6 0.0
4.088526746171135e6 -368608.5224059897 0.0
0.0 0.0 0.0

-182880.57762849695 3.4462079119699425e6 0.0
3.4462079119699425e6 -772242.638979343 0.0
0.0 0.0 0.0

-1.089819259580772e6 3.2927960413613254e6 0.0
3.2927960413613254e6 201626.42657160887 0.0
0.0 0.0 0.0

-748953.359463593 -481315.05194048287 0.0
-481315.05194048287 881372.858761494 0.0
0.0 0.0 0.0

-2.472047565942435e6 -936779.5489072559 0.0
-936779.5489072559 3.577239040279314e6 0.0
0.0 0.0 0.0

1.0402116741744987e6 2.260873102713018e6 0.0
2.260873102713018e6 -2.0956016691518603e6 0.0
0.0 0.0 0.0

-998766.7568278484 4.0859578356717676e6 0.0
4.0859578356717676e6 -106032.14089227986 0.0
0.0 0.0 0.0

-3.740887502696463e6 459289.2456407564 0.0
459289.2456407564 7.536651002758021e6 0.0
0.0 0.0 0.0

-353860.6484185813 3.2383798826534334e6 0.0
3.2383798826534334e6 -910564.9121376441 0.0
0.0 0.0 0.0

-5.145345409226252e6 805155.7723333066 0.0
805155.7723333066 7.328785556578252e6 0.0
0.0 0.0 0.0

-1.630198210576742e6 3.979478142620757e6 0.0
3.979478142620757e6 614138.8228627597 0.0
0.0 0.0 0.0

-2.160554041361773e6 5.388491454617937e6 0.0
5.388491454617937e6 1.1561610476446257e6 0.0
0.0 0.0 0.0

-346036.48844101036 3.9080866559018674e6 0.0
3.9080866559018674e6 -280113.44928658055 0.0
0.0 0.0 0.0

245982.84966570628 351016.35244232573 0.0
351016.35244232573 -133595.2816616979 0.0
0.0 0.0 0.0

-279364.5065736318 3.898979163105636e6 0.0
3.898979163105636e6 -485915.63216391066 0.0
0.0 0.0 0.0

-550269.5295477816 3.1615766996826055e6 0.0
3.1615766996826055e6 -290644.6348831891 0.0
0.0 0.0 0.0

1.1198381971476607e6 1.8993290912664835e6 0.0
1.8993290912664835e6 -1.942789567410877e6 0.0
0.0 0.0 0.0

-483643.3491703702 3.953907428503698e6 0.0
3.953907428503698e6 -235893.8778295285 0.0
0.0 0.0 0.0

-3.8919936830350715e6 701507.0470037296 0.0
701507.0470037296 3.503391426411687e6 0.0
0.0 0.0 0.0

-1.9971043639366028e6 4.270581625682841e6 0.0
4.270581625682841e6 -578455.6769150693 0.0
0.0 0.0 0.0

-2.310687428251236e6 3.320246298811323e6 0.0
3.320246298811323e6 995746.2987395764 0.0
0.0 0.0 0.0

-874688.3449383468 1.782253778048883e6 0.0
1.782253778048883e6 -290659.6669662942 0.0
0.0 0.0 0.0

-740287.8082866721 4.0624401784588927e6 0.0
4.0624401784588927e6 -219652.77545899106 0.0
0.0 0.0 0.0

-2.3639634164061802e6 4.832426755896767e6 0.0
4.832426755896767e6 1.505536679089306e6 0.0
0.0 0.0 0.0

-466268.9733807088 3.6117517390825935e6 0.0
3.6117517390825935e6 162462.28047153258 0.0
0.0 0.0 0.0

-368118.80527986475 3.8078002913532835e6 0.0
3.8078002913532835e6 -357862.53754527424 0.0
0.0 0.0 0.0

-572450.5967933986 1.7175670945808843e6 0.0
1.7175670945808843e6 -199478.03830550256 0.0
0.0 0.0 0.0

-2.782299673728997e6 3.0970045384667735e6 0.0
3.0970045384667735e6 1.1188751710709985e6 0.0
0.0 0.0 0.0

-86516.8454620729 -151480.19796779484 0.0
-151480.19796779484 93511.05831776495 0.0
0.0 0.0 0.0

1.0324822193982911e6 1.7820164009315548e6 0.0
1.7820164009315548e6 -1.7494086190465647e6 0.0
0.0 0.0 0.0

-2.2659930982699348e6 4.332309712496421e6 0.0
4.332309712496421e6 1.4826648409931813e6 0.0
0.0 0.0 0.0

-171554.1028224515 3.3142575702466737e6 0.0
3.3142575702466737e6 -1.146945787487367e6 0.0
0.0 0.0 0.0

147498.1204083735 292413.099494743 0.0
292413.099494743 -453385.1159935677 0.0
0.0 0.0 0.0

-644277.3335473326 748635.7248719513 0.0
748635.7248719513 -666046.1345947845 0.0
0.0 0.0 0.0

-1.9503266650215348e6 3.694559746578306e6 0.0
3.694559746578306e6 1.300578277251454e6 0.0
0.0 0.0 0.0

241774.19494780712 3.4984461381270834e6 0.0
3.4984461381270834e6 -1.6125701958030271e6 0.0
0.0 0.0 0.0

-747979.2922403299 2.6689853509716475e6 0.0
2.6689853509716475e6 1.7363422916171239e6 0.0
0.0 0.0 0.0

-113767.12603947712 1.5870913243402517e6 0.0
1.5870913243402517e6 -183455.7295770933 0.0
0.0 0.0 0.0

396999.9111061102 614977.7566746799 0.0
614977.7566746799 -972087.2861464889 0.0
0.0 0.0 0.0

-1.0797983935763012e6 5.438446164622979e6 0.0
5.438446164622979e6 672069.6903604304 0.0
0.0 0.0 0.0

-62858.486494007906 170408.8959896749 0.0
170408.8959896749 -61135.05569774645 0.0
0.0 0.0 0.0

-504654.7757237416 2.565149638718746e6 0.0
2.565149638718746e6 -409168.45960805996 0.0
0.0 0.0 0.0

-289333.8932589586 3.5993906516081244e6 0.0
3.5993906516081244e6 -697742.4887322339 0.0
0.0 0.0 0.0

-866234.7158205761 5.329339809743943e6 0.0
5.329339809743943e6 60311.29579609551 0.0
0.0 0.0 0.0

-348664.9752994487 3.1449790342548634e6 0.0
3.1449790342548634e6 -727303.0427056464 0.0
0.0 0.0 0.0

-253856.62245193808 4.0773777391216992e6 0.0
4.0773777391216992e6 479526.4333642991 0.0
0.0 0.0 0.0

-1.1754698453779127e6 3.764895037011837e6 0.0
3.764895037011837e6 -43502.73478730832 0.0
0.0 0.0 0.0

-160542.39701882956 -470194.0306949342 0.0
-470194.0306949342 463664.6799958528 0.0
0.0 0.0 0.0

-2.0512695927353576e6 4.517921012979446e6 0.0
4.517921012979446e6 1.4355667487655533e6 0.0
0.0 0.0 0.0

-269864.5723340777 3.8152025814434187e6 0.0
3.8152025814434187e6 -335238.6166008706 0.0
0.0 0.0 0.0

-26262.91514195036 2.8218986051675384e6 0.0
2.8218986051675384e6 -1.3248415043580353e6 0.0
0.0 0.0 0.0

1.181257333012646e6 2.131536287266524e6 0.0
2.131536287266524e6 -1.9735733941335226e6 0.0
0.0 0.0 0.0

-2.027130796216962e6 3.4129954276604014e6 0.0
3.4129954276604014e6 1.198517236633339e6 0.0
0.0 0.0 0.0

404140.51996831835 1.9100955883268164e6 0.0
1.9100955883268164e6 -22260.57673185802 0.0
0.0 0.0 0.0

-1.0133885949944614e6 1.0337651836822518e6 0.0
1.0337651836822518e6 2.1115925617081816e6 0.0
0.0 0.0 0.0

-105707.79946599697 3.376597607559764e6 0.0
3.376597607559764e6 -1.3420690119823976e6 0.0
0.0 0.0 0.0

18478.46325944463 3.92981162723188e6 0.0
3.92981162723188e6 -848956.9500923506 0.0
0.0 0.0 0.0

-2.0655816030958833e6 4.658592230005787e6 0.0
4.658592230005787e6 1.4375353215260948e6 0.0
0.0 0.0 0.0

-358993.8862273447 3.7619298643092196e6 0.0
3.7619298643092196e6 -404274.3501094407 0.0
0.0 0.0 0.0

-5.989166288046541e6 -395015.60108809406 0.0
-395015.60108809406 3.7975230089787724e6 0.0
0.0 0.0 0.0

-379782.20824498305 4.1702131432484984e6 0.0
4.1702131432484984e6 1.0915418296244792e6 0.0
0.0 0.0 0.0

-2.8077528694289844e6 1.4839058920761237e6 0.0
1.4839058920761237e6 -387041.09416973864 0.0
0.0 0.0 0.0

382501.052394046 3.558447709700928e6 0.0
3.558447709700928e6 -2.022902219595592e6 0.0
0.0 0.0 0.0

460720.04550370417 1.3923692769021755e6 0.0
1.3923692769021755e6 325548.7894605053 0.0
0.0 0.0 0.0

-1.0362929702501778e6 -349801.3527989542 0.0
-349801.3527989542 1.123771794479743e6 0.0
0.0 0.0 0.0

607643.4999709768 1.1752852981212928e6 0.0
1.1752852981212928e6 -385485.67671932775 0.0
0.0 0.0 0.0

-97379.34012778991 -263956.55728725163 0.0
-263956.55728725163 325372.9785316795 0.0
0.0 0.0 0.0

-43402.26497795421 59114.48829012888 0.0
59114.48829012888 -112822.28466147817 0.0
0.0 0.0 0.0

-317827.9727580653 3.256030443721946e6 0.0
3.256030443721946e6 -800582.8594428337 0.0
0.0 0.0 0.0

-334429.8159419243 2.4596594169054218e6 0.0
2.4596594169054218e6 -1.1147660434202086e6 0.0
0.0 0.0 0.0

-170639.1417420378 4.306840432020963e6 0.0
4.306840432020963e6 -568797.1431974997 0.0
0.0 0.0 0.0

-334837.8380324795 3.63949989057984e6 0.0
3.63949989057984e6 -769062.5655961441 0.0
0.0 0.0 0.0

-2.0570323785115345e6 4.806157120590404e6 0.0
4.806157120590404e6 1.4090915875894306e6 0.0
0.0 0.0 0.0

613446.5615504261 914318.7911576475 0.0
914318.7911576475 -447093.69276508514 0.0
0.0 0.0 0.0

-482745.23648795625 3.1367425826173127e6 0.0
3.1367425826173127e6 -616635.3152785028 0.0
0.0 0.0 0.0

-1.6922288091584998e6 3.1284048153278385e6 0.0
3.1284048153278385e6 627159.7587925503 0.0
0.0 0.0 0.0

763833.7401409313 2.7338587182644866e6 0.0
2.7338587182644866e6 -2.164971923326187e6 0.0
0.0 0.0 0.0

-44681.340490895454 -66593.42101557356 0.0
-66593.42101557356 187822.89030144896 0.0
0.0 0.0 0.0

-1.848875496450747e6 4.455626780089266e6 0.0
4.455626780089266e6 1.2700892340864455e6 0.0
0.0 0.0 0.0

-379261.0665070282 3.7503565181103223e6 0.0
3.7503565181103223e6 -393742.5383348791 0.0
0.0 0.0 0.0

-411148.2923507048 3.744619270974799e6 0.0
3.744619270974799e6 -392092.76908450085 0.0
0.0 0.0 0.0

-1.4319199272701798e6 3.6871816201534094e6 0.0
3.6871816201534094e6 862662.9829148256 0.0
0.0 0.0 0.0

-39886.51514435859 3.8906379881611485e6 0.0
3.8906379881611485e6 -629876.7828027433 0.0
0.0 0.0 0.0

-1.298706323889865e6 5.217214483102125e6 0.0
5.217214483102125e6 536844.4849564683 0.0
0.0 0.0 0.0

-3.177742558603473e6 366813.5100306817 0.0
366813.5100306817 4.305931213007253e6 0.0
0.0 0.0 0.0

-382053.43583837897 -495190.00059838354 0.0
-495190.00059838354 407559.8149406558 0.0
0.0 0.0 0.0

156049.15365843178 2.7847969765079916e6 0.0
2.7847969765079916e6 -1.2726619475795534e6 0.0
0.0 0.0 0.0

1.0553654858114296e6 2.2437850404670243e6 0.0
2.2437850404670243e6 -2.117240050072173e6 0.0
0.0 0.0 0.0

-457209.58311020717 3.1224675422396334e6 0.0
3.1224675422396334e6 -517585.9390090414 0.0
0.0 0.0 0.0

-377524.5907942714 2.684183009574985e6 0.0
2.684183009574985e6 272710.35108623037 0.0
0.0 0.0 0.0

915043.0389343541 892913.0591654012 0.0
892913.0591654012 -1.372599370061409e6 0.0
0.0 0.0 0.0

-607776.1296903044 3.3692665904577305e6 0.0
3.3692665904577305e6 -1.4275231404901634e6 0.0
0.0 0.0 0.0

199416.71199155942 4.291730935119582e6 0.0
4.291730935119582e6 -834689.6028999984 0.0
0.0 0.0 0.0

-527330.7678903831 3.4552747992085763e6 0.0
3.4552747992085763e6 -127349.62426195949 0.0
0.0 0.0 0.0

-959056.2595511744 4.1272860459485194e6 0.0
4.1272860459485194e6 -99283.59564199709 0.0
0.0 0.0 0.0

-1.5966715713854781e6 5.483114148423277e6 0.0
5.483114148423277e6 628033.5488501737 0.0
0.0 0.0 0.0

-1.2158896970464706e6 -516807.49913361634 0.0
-516807.49913361634 2.4534126410753634e6 0.0
0.0 0.0 0.0

276983.8888988309 4.40356797905713e6 0.0
4.40356797905713e6 -891293.2567292126 0.0
0.0 0.0 0.0

-3.6415110416391487e6 123574.3356021574 0.0
123574.3356021574 4.943377744988221e6 0.0
0.0 0.0 0.0

-433554.2023601063 3.7461173865488246e6 0.0
3.7461173865488246e6 -369774.37778703036 0.0
0.0 0.0 0.0

-2.2861983475548783e6 4.741443727419488e6 0.0
4.741443727419488e6 1.3077970754594475e6 0.0
0.0 0.0 0.0

-1.446062077572991e6 3.628428039760298e6 0.0
3.628428039760298e6 -108087.84582839458 0.0
0.0 0.0 0.0

-641676.4017834613 986674.149640471 0.0
986674.149640471 1.4736774394061873e6 0.0
0.0 0.0 0.0

-391981.65128285415 2.3616150299754282e6 0.0
2.3616150299754282e6 -1.2639040093760986e6 0.0
0.0 0.0 0.0

-22091.463695517945 4.2339837641275395e6 0.0
4.2339837641275395e6 -664104.8675824497 0.0
0.0 0.0 0.0

976021.2018628712 2.251279780093167e6 0.0
2.251279780093167e6 -2.094267064919309e6 0.0
0.0 0.0 0.0

-320550.06164138735 535309.0386670779 0.0
535309.0386670779 -980164.643029369 0.0
0.0 0.0 0.0

-1.2346727965120426e6 344138.77114512795 0.0
344138.77114512795 2.62575642308158e6 0.0
0.0 0.0 0.0

-632759.5886307539 4.0952646771389674e6 0.0
4.0952646771389674e6 -181768.617509415 0.0
0.0 0.0 0.0

-1.5775191727732501e6 2.5539942258198853e6 0.0
2.5539942258198853e6 -238273.26918319374 0.0
0.0 0.0 0.0

-105270.82006423367 3.318742904743249e6 0.0
3.318742904743249e6 -1.3633302378583287e6 0.0
0.0 0.0 0.0

513410.9753247191 3.4429349899553233e6 0.0
3.4429349899553233e6 -2.0808731324265553e6 0.0
0.0 0.0 0.0

295774.6727156286 4.45489081182461e6 0.0
4.45489081182461e6 -988838.5141302523 0.0
0.0 0.0 0.0

711703.0606327489 884699.692560609 0.0
884699.692560609 -1.7264272973692697e6 0.0
0.0 0.0 0.0

-832984.2898807635 2.8544771749863904e6 0.0
2.8544771749863904e6 68372.63890474895 0.0
0.0 0.0 0.0

-527391.9244737457 3.6858937796969125e6 0.0
3.6858937796969125e6 -241776.95589023636 0.0
0.0 0.0 0.0

-2.9669095023896117e6 1.878427864707235e6 0.0
1.878427864707235e6 1.0977344749045728e6 0.0
0.0 0.0 0.0

632398.3270782528 296208.70513362746 0.0
296208.70513362746 -809154.7193720252 0.0
0.0 0.0 0.0

-218692.41487022286 3.263237256925071e6 0.0
3.263237256925071e6 -1.0365459751604492e6 0.0
0.0 0.0 0.0

-547610.507565851 1.515227695558815e6 0.0
1.515227695558815e6 1.4733125799014713e6 0.0
0.0 0.0 0.0

-15624.435785715832 337653.3162303015 0.0
337653.3162303015 262121.81045987064 0.0
0.0 0.0 0.0

1.078136442664308e6 1.8835879727983575e6 0.0
1.8835879727983575e6 -1.9059352487643692e6 0.0
0.0 0.0 0.0

70681.39358213257 693819.6927485339 0.0
693819.6927485339 146123.46135092602 0.0
0.0 0.0 0.0

58231.572623276865 58292.403917014 0.0
58292.403917014 -98667.42001250751 0.0
0.0 0.0 0.0

849054.4835798119 920439.0044566593 0.0
920439.0044566593 -966261.8546869056 0.0
0.0 0.0 0.0

-794403.5523833435 4.1740338455024236e6 0.0
4.1740338455024236e6 -55524.39652436826 0.0
0.0 0.0 0.0

-1.0628210343854348e6 2.884474547712797e6 0.0
2.884474547712797e6 453543.0611171074 0.0
0.0 0.0 0.0

1.7075321952321066e6 2.6378630408973233e6 0.0
2.6378630408973233e6 -406589.73300861754 0.0
0.0 0.0 0.0

-2.192716387118375e6 -687441.0466757434 0.0
-687441.0466757434 2.162873164534304e6 0.0
0.0 0.0 0.0

153419.01383380702 516588.9288289492 0.0
516588.9288289492 -1.0965851943198245e6 0.0
0.0 0.0 0.0

840818.8983915662 3.0651422325234683e6 0.0
3.0651422325234683e6 -1.5250057577007872e6 0.0
0.0 0.0 0.0

975677.8820006318 2.4389672046742053e6 0.0
2.4389672046742053e6 -1.7267761170962548e6 0.0
0.0 0.0 0.0

-744539.0541583141 103447.20375389987 0.0
103447.20375389987 660059.7467454709 0.0
0.0 0.0 0.0

-320803.3789770721 156144.44548794342 0.0
156144.44548794342 309082.82163584005 0.0
0.0 0.0 0.0

-65781.72412514116 4.175675379412888e6 0.0
4.175675379412888e6 -1.5010630358931064e6 0.0
0.0 0.0 0.0

1.0967163790487952e6 2.0968343293765958e6 0.0
2.0968343293765958e6 -2.0777722192323194e6 0.0
0.0 0.0 0.0

-2.099672175125197e6 4.808717643306159e6 0.0
4.808717643306159e6 -200646.2378475595 0.0
0.0 0.0 0.0

-921417.9335635167 2.795791487628073e6 0.0
2.795791487628073e6 397911.15673265414 0.0
0.0 0.0 0.0

-1.689406968556847e6 4.2983909751280425e6 0.0
4.2983909751280425e6 1.093736640234706e6 0.0
0.0 0.0 0.0

11430.90527461018 3.988020649161492e6 0.0
3.988020649161492e6 -661933.6885635029 0.0
0.0 0.0 0.0

-391956.35396437265 2.7856516348083527e6 0.0
2.7856516348083527e6 1.7144276255688446e6 0.0
0.0 0.0 0.0

-2.17547880323864e6 3.8247146931210104e6 0.0
3.8247146931210104e6 1.0476997318427622e6 0.0
0.0 0.0 0.0

-593987.4274004053 -87988.21657939102 0.0
-87988.21657939102 1.4863849323502951e6 0.0
0.0 0.0 0.0

-880956.8666847422 4.1589422204434937e6 0.0
4.1589422204434937e6 -128145.83777061707 0.0
0.0 0.0 0.0

-519213.4392496485 3.7795312119599986e6 0.0
3.7795312119599986e6 -240018.87592245324 0.0
0.0 0.0 0.0

-562408.0062542271 1.755562448397871e6 0.0
1.755562448397871e6 1.2663501189877917e6 0.0
0.0 0.0 0.0

155707.73442408798 315168.3505509785 0.0
315168.3505509785 210918.102718594 0.0
0.0 0.0 0.0

-2.270981204691739e6 4.458049133356941e6 0.0
4.458049133356941e6 1.343896324187997e6 0.0
0.0 0.0 0.0

512793.3433716061 3.2841418148391303e6 0.0
3.2841418148391303e6 -2.161521535251656e6 0.0
0.0 0.0 0.0

-1.1393917551460697e6 4.0887806003481136e6 0.0
4.0887806003481136e6 493827.20137262077 0.0
0.0 0.0 0.0

1.0961857585867243e6 2.1659952323444807e6 0.0
2.1659952323444807e6 -1.957538746850564e6 0.0
0.0 0.0 0.0

305000.8969886962 3.0864420744641484e6 0.0
3.0864420744641484e6 708260.7165296632 0.0
0.0 0.0 0.0

-1.3120385608190505e6 2.948721980289685e6 0.0
2.948721980289685e6 346046.41471873334 0.0
0.0 0.0 0.0

338172.81281116896 321054.88834578 0.0
321054.88834578 -672484.9229981021 0.0
0.0 0.0 0.0

-443489.5144836768 2.9416099172898512e6 0.0
2.9416099172898512e6 -1.0310587394004472e6 0.0
0.0 0.0 0.0

1.1671637845614736e6 2.0027100253614523e6 0.0
2.0027100253614523e6 -1.934287047160409e6 0.0
0.0 0.0 0.0

-957158.5320285072 5.273443260976476e6 0.0
5.273443260976476e6 138102.6003766586 0.0
0.0 0.0 0.0

741558.0084069005 607120.8857863817 0.0
607120.8857863817 -1.5549225420827763e6 0.0
0.0 0.0 0.0

147462.1616187715 572829.199409722 0.0
572829.199409722 -249327.67234347307 0.0
0.0 0.0 0.0

-1.8389596508227766e6 3.2312625183053613e6 0.0
3.2312625183053613e6 565470.7188662636 0.0
0.0 0.0 0.0

273320.27991873113 4.461157184010849e6 0.0
4.461157184010849e6 -990804.5713807963 0.0
0.0 0.0 0.0

-376296.4933543813 2.367695153773399e6 0.0
2.367695153773399e6 -1.254321649314295e6 0.0
0.0 0.0 0.0

-189146.10623638972 4.201305868790867e6 0.0
4.201305868790867e6 -630486.9916298661 0.0
0.0 0.0 0.0

-994139.4489837487 3.0905601640939433e6 0.0
3.0905601640939433e6 366291.16650237504 0.0
0.0 0.0 0.0

-481990.019343053 3.276577230036529e6 0.0
3.276577230036529e6 -269017.3208499147 0.0
0.0 0.0 0.0

-6337.908850712265 4.135977662248913e6 0.0
4.135977662248913e6 -519971.473396051 0.0
0.0 0.0 0.0

376937.0899823758 248722.81131737848 0.0
248722.81131737848 -203944.70621555828 0.0
0.0 0.0 0.0

-260134.7342159451 3.4857842971299733e6 0.0
3.4857842971299733e6 -613723.7247680322 0.0
0.0 0.0 0.0

-1.0228853762035292e6 3.3355953731632736e6 0.0
3.3355953731632736e6 266803.44159279426 0.0
0.0 0.0 0.0

122101.23351401044 219096.63751143168 0.0
219096.63751143168 -1.5657853688956709e6 0.0
0.0 0.0 0.0

-110604.41027430948 511765.6434453931 0.0
511765.6434453931 -106208.80805913085 0.0
0.0 0.0 0.0

-961541.0978767652 4.896823046024783e6 0.0
4.896823046024783e6 47076.16673479363 0.0
0.0 0.0 0.0

-684610.6739892211 1.851125640636379e6 0.0
1.851125640636379e6 856318.8574448157 0.0
0.0 0.0 0.0

-219195.34876667958 3.8576153070530277e6 0.0
3.8576153070530277e6 -392915.22503222676 0.0
0.0 0.0 0.0

93160.8191199448 1.2076448684710867e6 0.0
1.2076448684710867e6 103139.50217896797 0.0
0.0 0.0 0.0

-666545.47789166 3.635784310471733e6 0.0
3.635784310471733e6 -310378.1569642367 0.0
0.0 0.0 0.0

-1.1577206477991706e6 3.8319624014133834e6 0.0
3.8319624014133834e6 -31491.025578105182 0.0
0.0 0.0 0.0

-456709.92033881973 323636.9405710225 0.0
323636.9405710225 1.6059550835064892e6 0.0
0.0 0.0 0.0

156607.60052272474 2.297128182854443e6 0.0
2.297128182854443e6 -814258.9996619377 0.0
0.0 0.0 0.0

-271214.03592322825 -362991.72665063257 0.0
-362991.72665063257 250034.37700235232 0.0
0.0 0.0 0.0

-428394.9402485741 3.1464834370387676e6 0.0
3.1464834370387676e6 -730422.8655646761 0.0
0.0 0.0 0.0

-921356.194384565 4.1293319661187916e6 0.0
4.1293319661187916e6 -69374.10656937593 0.0
0.0 0.0 0.0

-472543.24306898145 3.7939323962296136e6 0.0
3.7939323962296136e6 -338419.8207827523 0.0
0.0 0.0 0.0

526058.4550230693 1.664027725419979e6 0.0
1.664027725419979e6 -1.1401773127799334e6 0.0
0.0 0.0 0.0

-264535.1729984721 109379.61183959874 0.0
109379.61183959874 192942.61406670455 0.0
0.0 0.0 0.0

-4.0193916367213395e6 1.058344226642361e6 0.0
1.058344226642361e6 6.16610868127408e6 0.0
0.0 0.0 0.0

-2.1651366790898717e6 303293.50576120365 0.0
303293.50576120365 4.209332873029394e6 0.0
0.0 0.0 0.0

-768793.8454817622 3.94283637808454e6 0.0
3.94283637808454e6 197380.02847303433 0.0
0.0 0.0 0.0

-34806.81042913714 905343.161735152 0.0
905343.161735152 -300940.7479859057 0.0
0.0 0.0 0.0

-511494.6746521855 3.254364225483318e6 0.0
3.254364225483318e6 -213722.42011702855 0.0
0.0 0.0 0.0

-1.545032709738377e6 3.018351271128752e6 0.0
3.018351271128752e6 908064.2897919028 0.0
0.0 0.0 0.0

-606697.1689215369 2.5178945434611305e6 0.0
2.5178945434611305e6 -483473.1187687394 0.0
0.0 0.0 0.0

-767986.9023040816 4.109912670247557e6 0.0
4.109912670247557e6 42360.93660266994 0.0
0.0 0.0 0.0

-2.21580776377822e6 3.011336757819142e6 0.0
3.011336757819142e6 417289.0475859677 0.0
0.0 0.0 0.0

-970065.6639350659 440943.83029650926 0.0
440943.83029650926 1.3551406716284566e6 0.0
0.0 0.0 0.0

-373229.3171025159 3.789088330948811e6 0.0
3.789088330948811e6 -111742.54879881066 0.0
0.0 0.0 0.0

-333064.85384801705 3.50957126669104e6 0.0
3.50957126669104e6 -746234.2902426335 0.0
0.0 0.0 0.0

323646.1117669855 3.2904627819750863e6 0.0
3.2904627819750863e6 -1.5656703154865275e6 0.0
0.0 0.0 0.0

1.174666486324382e6 1.9722875588710206e6 0.0
1.9722875588710206e6 -1.988011479370642e6 0.0
0.0 0.0 0.0

-77358.7805078716 -431655.67987244 0.0
-431655.67987244 206007.64122506802 0.0
0.0 0.0 0.0

-857166.4780950597 4.06653159766301e6 0.0
4.06653159766301e6 -18454.305730278254 0.0
0.0 0.0 0.0

-3.0797336944008246e6 1.5470363105432524e6 0.0
1.5470363105432524e6 3.9532927220045156e6 0.0
0.0 0.0 0.0

-9.844050995322507e6 1.3948095759468267e6 0.0
1.3948095759468267e6 1.3043767283693511e7 0.0
0.0 0.0 0.0

-786053.91423197 2.152349682348255e6 0.0
2.152349682348255e6 -368715.12048239575 0.0
0.0 0.0 0.0

-215954.63693036255 3.9488364122006968e6 0.0
3.9488364122006968e6 -719848.797579335 0.0
0.0 0.0 0.0

-134234.03026298626 450238.59386327094 0.0
450238.59386327094 -12586.718717471525 0.0
0.0 0.0 0.0

-2.174816237409134e6 -311544.5768384151 0.0
-311544.5768384151 1.3168767274193289e6 0.0
0.0 0.0 0.0

546145.7481912468 2.837600810894054e6 0.0
2.837600810894054e6 -2.090877703818689e6 0.0
0.0 0.0 0.0

207254.21933712662 341361.3832161436 0.0
341361.3832161436 -63954.01746421191 0.0
0.0 0.0 0.0

412883.4844338035 3.6775495577956536e6 0.0
3.6775495577956536e6 -1.9799678476006072e6 0.0
0.0 0.0 0.0

-1.520307979079084e6 1.1301091973966456e6 0.0
1.1301091973966456e6 3.3376737208364503e6 0.0
0.0 0.0 0.0

1.0312723019668062e6 1.748074214523583e6 0.0
1.748074214523583e6 -1.7014339191866475e6 0.0
0.0 0.0 0.0

-1.0745944190174376e6 5.186488918075318e6 0.0
5.186488918075318e6 262250.2222873259 0.0
0.0 0.0 0.0

-1.3194434023397593e6 3.28751779754292e6 0.0
3.28751779754292e6 489803.6750736637 0.0
0.0 0.0 0.0

-327710.2985819915 1.2564754330633378e6 0.0
1.2564754330633378e6 -31426.14813478598 0.0
0.0 0.0 0.0

2.306241465143908e6 2.8822351647148244e6 0.0
2.8822351647148244e6 -760438.0776899687 0.0
0.0 0.0 0.0

-1.576126800228885e6 1.2904616578579205e6 0.0
1.2904616578579205e6 3.2537722188485214e6 0.0
0.0 0.0 0.0

-1.2079039790941137e6 2.0599840469538e6 0.0
2.0599840469538e6 484144.1216357855 0.0
0.0 0.0 0.0

-223723.0977529728 -134951.6308536788 0.0
-134951.6308536788 48800.630165461684 0.0
0.0 0.0 0.0

124584.52848796546 194059.72332271037 0.0
194059.72332271037 -883382.2372952489 0.0
0.0 0.0 0.0

-757375.3357864226 4.470172047988704e6 0.0
4.470172047988704e6 -174714.81830009798 0.0
0.0 0.0 0.0

-847058.1390812811 2.983030707831015e6 0.0
2.983030707831015e6 732612.3314010645 0.0
0.0 0.0 0.0

356915.0933469142 811835.7561048812 0.0
811835.7561048812 73383.3644421232 0.0
0.0 0.0 0.0

797402.7987113968 2.2038547208210174e6 0.0
2.2038547208210174e6 -2.0037833272233014e6 0.0
0.0 0.0 0.0

-328255.3410828261 3.822573686909737e6 0.0
3.822573686909737e6 -1.0935762720844168e6 0.0
0.0 0.0 0.0

641006.391623704 805443.6145160713 0.0
805443.6145160713 -644343.3512555598 0.0
0.0 0.0 0.0

908822.9218442015 1.634091287684183e6 0.0
1.634091287684183e6 -1.517671864654164e6 0.0
0.0 0.0 0.0

-876227.1891701226 2.576398219475801e6 0.0
2.576398219475801e6 -205273.77962361014 0.0
0.0 0.0 0.0

-152188.87739128506 3.6205006454610457e6 0.0
3.6205006454610457e6 -960714.5562789196 0.0
0.0 0.0 0.0

1.167224485521712e6 2.3132766421636683e6 0.0
2.3132766421636683e6 -1.9406589755760597e6 0.0
0.0 0.0 0.0

-369704.18103921827 26472.894289282925 0.0
26472.894289282925 81578.62954821382 0.0
0.0 0.0 0.0

-646186.7785912484 2.5090127018949394e6 0.0
2.5090127018949394e6 756714.1465110058 0.0
0.0 0.0 0.0

95262.6782251399 1.7002334196637513e6 0.0
1.7002334196637513e6 77677.02522912722 0.0
0.0 0.0 0.0

195486.77748240498 1.087822415042861e6 0.0
1.087822415042861e6 156737.32946645768 0.0
0.0 0.0 0.0

1.0888504265612836e6 2.8095141598464e6 0.0
2.8095141598464e6 -1.9175771622551207e6 0.0
0.0 0.0 0.0

88676.50273146266 4.0393142198959817e6 0.0
4.0393142198959817e6 295588.6609395106 0.0
0.0 0.0 0.0

-917334.0560032814 2.8108965204250803e6 0.0
2.8108965204250803e6 1.7618920072612253e6 0.0
0.0 0.0 0.0

-347290.5811925124 3.8446149351943657e6 0.0
3.8446149351943657e6 -1.3886634829465833e6 0.0
0.0 0.0 0.0

-1.087179410860147e6 1.939593407091007e6 0.0
1.939593407091007e6 -59114.62111754925 0.0
0.0 0.0 0.0

-880681.4479482316 3.320894307470975e6 0.0
3.320894307470975e6 673467.8082055586 0.0
0.0 0.0 0.0

-436285.69869470823 4.1499851913642855e6 0.0
4.1499851913642855e6 -192243.54357317902 0.0
0.0 0.0 0.0

320102.3846332836 3.445499521112494e6 0.0
3.445499521112494e6 -1.974232118330142e6 0.0
0.0 0.0 0.0

-2.309788792022972e6 4.866202333469395e6 0.0
4.866202333469395e6 1.318731079552932e6 0.0
0.0 0.0 0.0

-348356.53730823915 3.9648352551406925e6 0.0
3.9648352551406925e6 -825627.3987393571 0.0
0.0 0.0 0.0

-1.533982001144613e6 -986072.5187732003 0.0
-986072.5187732003 1.9763464123222693e6 0.0
0.0 0.0 0.0

4.103578939627555e6 4.307365897792585e6 0.0
4.307365897792585e6 -1.4257961890846498e6 0.0
0.0 0.0 0.0

-416082.49118001846 2.840844839787014e6 0.0
2.840844839787014e6 129659.58164532861 0.0
0.0 0.0 0.0

-4.683479062437977e6 -2.1624578653136147e6 0.0
-2.1624578653136147e6 3.3838453459801245e6 0.0
0.0 0.0 0.0

-119604.41712983746 3.956396756429548e6 0.0
3.956396756429548e6 -440992.79197277315 0.0
0.0 0.0 0.0

-1.2636484499060214e6 3.838177346711066e6 0.0
3.838177346711066e6 270276.28288773 0.0
0.0 0.0 0.0

104910.90199350863 3.29622500456688e6 0.0
3.29622500456688e6 349703.12400479655 0.0
0.0 0.0 0.0

297424.1822954622 527315.6843257014 0.0
527315.6843257014 -61799.24725417058 0.0
0.0 0.0 0.0

-763094.0056252046 2.736908429575782e6 0.0
2.736908429575782e6 184330.57680934464 0.0
0.0 0.0 0.0

-5.404587212876497e6 3.9510609707839447e6 0.0
3.9510609707839447e6 374144.68230177555 0.0
0.0 0.0 0.0

1.0156174904243625e6 1.7269412567416572e6 0.0
1.7269412567416572e6 -1.724704140933214e6 0.0
0.0 0.0 0.0

-524763.3089029011 3.9583813121469184e6 0.0
3.9583813121469184e6 -293610.49733630253 0.0
0.0 0.0 0.0

-563213.1444847051 4.0110331119411355e6 0.0
4.0110331119411355e6 391798.1927640755 0.0
0.0 0.0 0.0

-379556.1781688647 2.3707148453741786e6 0.0
2.3707148453741786e6 -1.2651872296100867e6 0.0
0.0 0.0 0.0

-222935.860591003 4.043657047102972e6 0.0
4.043657047102972e6 -743119.5471538176 0.0
0.0 0.0 0.0

239221.94710313808 4.526213048659866e6 0.0
4.526213048659866e6 -1.2761284375481247e6 0.0
0.0 0.0 0.0

114868.03920119113 563371.7872532932 0.0
563371.7872532932 153737.85995780147 0.0
0.0 0.0 0.0

-1.4996116634907152e6 2.7845053375761043e6 0.0
2.7845053375761043e6 -37896.92794386193 0.0
0.0 0.0 0.0

445283.546552717 1.0732653893631692e6 0.0
1.0732653893631692e6 -1.5298451642321695e6 0.0
0.0 0.0 0.0

-1.3563952645361146e6 1.361422257846264e6 0.0
1.361422257846264e6 2.893349545637916e6 0.0
0.0 0.0 0.0

263393.10206411494 329460.92839654675 0.0
329460.92839654675 -494104.77922390006 0.0
0.0 0.0 0.0

-1.9867886152531737e6 3.1021654692131868e6 0.0
3.1021654692131868e6 271512.69506527996 0.0
0.0 0.0 0.0

-2.8715609805349936e6 2.1614113627643795e6 0.0
2.1614113627643795e6 505856.9102934317 0.0
0.0 0.0 0.0

-462625.07943538204 -203983.44810412123 0.0
-203983.44810412123 571698.7256320482 0.0
0.0 0.0 0.0

-337369.27354317263 2.9306725816057064e6 0.0
2.9306725816057064e6 -1.0238451264991057e6 0.0
0.0 0.0 0.0

-1.0660689381724596e6 3.6078729963292284e6 0.0
3.6078729963292284e6 412704.52721800865 0.0
0.0 0.0 0.0

680739.7343291808 376118.2324521478 0.0
376118.2324521478 -1.0883648347167221e6 0.0
0.0 0.0 0.0

-1.2152052505087825e6 5.102016554813977e6 0.0
5.102016554813977e6 350762.3205584009 0.0
0.0 0.0 0.0

198961.2043212696 357800.39039220987 0.0
357800.39039220987 -302635.0132845808 0.0
0.0 0.0 0.0

1.100050797205878e6 1.84792394941788e6 0.0
1.84792394941788e6 -1.8648853623936828e6 0.0
0.0 0.0 0.0

1.0177402242235723e6 1.78284485383031e6 0.0
1.78284485383031e6 -1.798480476299563e6 0.0
0.0 0.0 0.0

-562774.1588182466 2.046693596977801e6 0.0
2.046693596977801e6 -629047.1804727042 0.0
0.0 0.0 0.0

-691639.0876523146 3.5103102926204456e6 0.0
3.5103102926204456e6 -263384.46978994034 0.0
0.0 0.0 0.0

1.090324655226659e6 2.7974142458388363e6 0.0
2.7974142458388363e6 -1.957505202631599e6 0.0
0.0 0.0 0.0

-1.3085992011009823e6 3.409420542922867e6 0.0
3.409420542922867e6 888394.763924526 0.0
0.0 0.0 0.0

-280399.14601939626 3.0582998527526055e6 0.0
3.0582998527526055e6 -1.0175551964760566e6 0.0
0.0 0.0 0.0

-566941.4469332586 1.7478065126148656e6 0.0
1.7478065126148656e6 636812.6564289505 0.0
0.0 0.0 0.0

-1.4044008576134476e6 3.9213904390777135e6 0.0
3.9213904390777135e6 785936.5947477807 0.0
0.0 0.0 0.0

644080.0875961751 3.164147114339293e6 0.0
3.164147114339293e6 -1.5337478694211054e6 0.0
0.0 0.0 0.0

-5.370021737417805e6 -446765.8677475387 0.0
-446765.8677475387 6.526297838866141e6 0.0
0.0 0.0 0.0

1.1264046950352257e6 1.8643346691325265e6 0.0
1.8643346691325265e6 -1.8896146748362232e6 0.0
0.0 0.0 0.0

1.0709265866282822e6 1.8187073989972705e6 0.0
1.8187073989972705e6 -1.801742390190892e6 0.0
0.0 0.0 0.0

-602765.2364366376 3.121664750997747e6 0.0
3.121664750997747e6 -336892.1210347711 0.0
0.0 0.0 0.0

-1.3672448647239355e6 -155963.7155122368 0.0
-155963.7155122368 800114.2862479344 0.0
0.0 0.0 0.0

-435913.46257977653 1.0843346224874922e6 0.0
1.0843346224874922e6 -144092.35094399468 0.0
0.0 0.0 0.0

-3.6833936197912553e6 1.5739400936451422e6 0.0
1.5739400936451422e6 5.124567020459586e6 0.0
0.0 0.0 0.0

-1.9173571989153244e6 3.25067808628567e6 0.0
3.25067808628567e6 317512.2970238513 0.0
0.0 0.0 0.0

-2.0032896967387544e6 3.033482082933302e6 0.0
3.033482082933302e6 231432.68603863812 0.0
0.0 0.0 0.0

205730.30898376153 682380.2109050405 0.0
682380.2109050405 -351691.34768803633 0.0
0.0 0.0 0.0

-4.875567952544758e6 80665.74036273592 0.0
80665.74036273592 9.937060091847815e6 0.0
0.0 0.0 0.0

-2.249587354960112e6 3.186223754676003e6 0.0
3.186223754676003e6 634861.5420487229 0.0
0.0 0.0 0.0

-577277.5751178494 3.925040620693216e6 0.0
3.925040620693216e6 -294456.35816035874 0.0
0.0 0.0 0.0

-318083.46889829525 3.6109212857518126e6 0.0
3.6109212857518126e6 -793108.4719441043 0.0
0.0 0.0 0.0

-464062.08527449594 2.9940389844393027e6 0.0
2.9940389844393027e6 1.4278753628165093e6 0.0
0.0 0.0 0.0

406419.8730995959 797500.1210794961 0.0
797500.1210794961 -178286.8814482397 0.0
0.0 0.0 0.0

1.1373247995347888e6 1.8451864191676392e6 0.0
1.8451864191676392e6 -1.8590620767934513e6 0.0
0.0 0.0 0.0

-738854.272828034 2.644409603025439e6 0.0
2.644409603025439e6 -98282.41374633388 0.0
0.0 0.0 0.0

-1.1154839091425226e6 3.449333077164177e6 0.0
3.449333077164177e6 154964.4364972124 0.0
0.0 0.0 0.0

-3.2615431739509916e6 644784.5325038136 0.0
644784.5325038136 2.3504901204369264e6 0.0
0.0 0.0 0.0

46619.70909579518 81833.14015141895 0.0
81833.14015141895 203774.16594662855 0.0
0.0 0.0 0.0

-8.464780139848065e6 6.867413966433709e6 0.0
6.867413966433709e6 -1.9767540111447503e6 0.0
0.0 0.0 0.0

-316931.36775826366 2.3456997244747533e6 0.0
2.3456997244747533e6 -1.0564378141427115e6 0.0
0.0 0.0 0.0

-88527.49070405921 3.881769117165705e6 0.0
3.881769117165705e6 -295091.5191038886 0.0
0.0 0.0 0.0

-160711.73636714043 3.156854742171024e6 0.0
3.156854742171024e6 -1.2101092949190505e6 0.0
0.0 0.0 0.0

-2.750569565758487e6 2.9825004991673655e6 0.0
2.9825004991673655e6 1.8585872190012652e6 0.0
0.0 0.0 0.0

385973.7379142857 1.2759332741692679e6 0.0
1.2759332741692679e6 -1.1913494612801806e6 0.0
0.0 0.0 0.0

854518.7760950156 2.4802946433608164e6 0.0
2.4802946433608164e6 -1.531557669764558e6 0.0
0.0 0.0 0.0

-799835.2553613632 2.8300209086108534e6 0.0
2.8300209086108534e6 797303.9736650423 0.0
0.0 0.0 0.0

206605.81517396343 3.5314565858133966e6 0.0
3.5314565858133966e6 -1.7330587109099333e6 0.0
0.0 0.0 0.0

-1.9699138978575103e6 3.170739623659082e6 0.0
3.170739623659082e6 289734.42362685304 0.0
0.0 0.0 0.0

79965.89680829024 176800.56751824613 0.0
176800.56751824613 -389661.695506348 0.0
0.0 0.0 0.0

326295.1110255787 255308.52713858627 0.0
255308.52713858627 -140659.89887583273 0.0
0.0 0.0 0.0

863132.3866627737 2.0026979771682215e6 0.0
2.0026979771682215e6 -1.8881991609452243e6 0.0
0.0 0.0 0.0

-1.5014227983465819e6 5.395368110521951e6 0.0
5.395368110521951e6 111982.41660264938 0.0
0.0 0.0 0.0

-2.2667802937434674e6 5.844584717018468e6 0.0
5.844584717018468e6 1.1288870474825571e6 0.0
0.0 0.0 0.0

-586285.5367372821 2.4058766195830083e6 0.0
2.4058766195830083e6 548337.9492321236 0.0
0.0 0.0 0.0

1.0335409701507061e6 1.8785036181494577e6 0.0
1.8785036181494577e6 -1.8960582162790291e6 0.0
0.0 0.0 0.0

1.0606717568910148e6 2.554055278840243e6 0.0
2.554055278840243e6 -1.9276287742299642e6 0.0
0.0 0.0 0.0

-5.074510448997506e6 -173476.2086105523 0.0
-173476.2086105523 6.67268602233526e6 0.0
0.0 0.0 0.0

-88511.03916625502 567782.2244683871 0.0
567782.2244683871 -46608.5448270872 0.0
0.0 0.0 0.0

-1.3023923226923528e6 4.948160940534465e6 0.0
4.948160940534465e6 388756.69442945195 0.0
0.0 0.0 0.0

-1.9451331894638864e6 3.3933064082768452e6 0.0
3.3933064082768452e6 1.226032628235567e6 0.0
0.0 0.0 0.0

-28617.55729047423 -128246.4388084096 0.0
-128246.4388084096 177021.45554269623 0.0
0.0 0.0 0.0

1.2732422968175225e6 906229.2376457548 0.0
906229.2376457548 -1.5576477786224275e6 0.0
0.0 0.0 0.0

-1.7472617729954463e6 3.0355993131604204e6 0.0
3.0355993131604204e6 702044.231305066 0.0
0.0 0.0 0.0

-1.7672060956674293e6 4.650684259943467e6 0.0
4.650684259943467e6 -401684.4164654302 0.0
0.0 0.0 0.0

747077.2388810457 956975.1118312649 0.0
956975.1118312649 -1.2933724616718634e6 0.0
0.0 0.0 0.0

1.0960368842528986e6 1.8527469282496145e6 0.0
1.8527469282496145e6 -1.8562608941050908e6 0.0
0.0 0.0 0.0

78279.46064415365 3.323674176568759e6 0.0
3.323674176568759e6 -1.5724480148133729e6 0.0
0.0 0.0 0.0

396752.39904875815 200804.81061443262 0.0
200804.81061443262 -628922.3129178786 0.0
0.0 0.0 0.0

-5741.0548346006435 1.7600534262993315e6 0.0
1.7600534262993315e6 20045.404118025326 0.0
0.0 0.0 0.0

129334.01575730601 4.505148481275081e6 0.0
4.505148481275081e6 -1.3962745082505667e6 0.0
0.0 0.0 0.0

1.085563246433624e6 1.7935788826400156e6 0.0
1.7935788826400156e6 -1.8100826795458924e6 0.0
0.0 0.0 0.0

-1.96759953716749e6 3.373206449559929e6 0.0
3.373206449559929e6 1.1568722570776707e6 0.0
0.0 0.0 0.0

1.0019714497784703e6 2.020748375694044e6 0.0
2.020748375694044e6 -1.7153253518677112e6 0.0
0.0 0.0 0.0

383316.37165138195 291524.29543394415 0.0
291524.29543394415 -508269.66518563265 0.0
0.0 0.0 0.0

-103015.122699279 1.7990137446377128e6 0.0
1.7990137446377128e6 -343383.45652934274 0.0
0.0 0.0 0.0

578720.7955455403 4.810077829659241e6 0.0
4.810077829659241e6 1.9290704760450039e6 0.0
0.0 0.0 0.0

-277248.1099771759 3.6354409918107064e6 0.0
3.6354409918107064e6 -772916.8411130192 0.0
0.0 0.0 0.0

-1.5189457985610527e6 -463249.57541436394 0.0
-463249.57541436394 1.529001286726409e6 0.0
0.0 0.0 0.0

426237.91277003475 151396.26780821438 0.0
151396.26780821438 -538926.9026849427 0.0
0.0 0.0 0.0

304268.40491431055 3.252213695007441e6 0.0
3.252213695007441e6 1.0142271041337126e6 0.0
0.0 0.0 0.0

131690.46579475256 2.5051221578875817e6 0.0
2.5051221578875817e6 438968.24375737295 0.0
0.0 0.0 0.0

-5.90517953267421e6 142648.91372422132 0.0
142648.91372422132 1.150592177653389e7 0.0
0.0 0.0 0.0

961587.5192826672 1.912508013874054e6 0.0
1.912508013874054e6 -1.899076101062709e6 0.0
0.0 0.0 0.0

-1.1476832545414744e6 3.544496246425719e6 0.0
3.544496246425719e6 116860.86339732778 0.0
0.0 0.0 0.0

-399986.28355020547 3.0522242055885554e6 0.0
3.0522242055885554e6 -888967.2948261879 0.0
0.0 0.0 0.0

-1.6653726496616274e6 3.299524916839339e6 0.0
3.299524916839339e6 395052.56739886035 0.0
0.0 0.0 0.0

-726852.7067260441 4.1211247853347687e6 0.0
4.1211247853347687e6 -210943.24733980902 0.0
0.0 0.0 0.0

-2.1308404731916795e6 4.524306178517443e6 0.0
4.524306178517443e6 1.1664440531238662e6 0.0
0.0 0.0 0.0

-781874.3689572414 1.6481488210911436e6 0.0
1.6481488210911436e6 -578619.6757853918 0.0
0.0 0.0 0.0

-1.3890077024996858e6 4.806097023804725e6 0.0
4.806097023804725e6 449643.6397580148 0.0
0.0 0.0 0.0

-1.7542648670887772e6 914569.5794802483 0.0
914569.5794802483 2.6264250944226324e6 0.0
0.0 0.0 0.0

18478.031029957056 1.4750254078472143e6 0.0
1.4750254078472143e6 -1.508377529183067e6 0.0
0.0 0.0 0.0

991532.2206905637 1.8380343820647032e6 0.0
1.8380343820647032e6 -1.832225395624538e6 0.0
0.0 0.0 0.0

-880895.7584689251 3.543240218027201e6 0.0
3.543240218027201e6 -123867.94476124522 0.0
0.0 0.0 0.0

-1.5307966212151342e6 2.9314911345396168e6 0.0
2.9314911345396168e6 709876.518443312 0.0
0.0 0.0 0.0

671012.035827702 2.901623289667611e6 0.0
2.901623289667611e6 -2.14550944110039e6 0.0
0.0 0.0 0.0

-1.57593655217982e6 3.3565517692500385e6 0.0
3.3565517692500385e6 352195.64050389105 0.0
0.0 0.0 0.0

-1.4730607352261676e6 3.303871581643436e6 0.0
3.303871581643436e6 386054.3820680681 0.0
0.0 0.0 0.0

-631754.58820723 2.23803671167229e6 0.0
2.23803671167229e6 -237030.4583417568 0.0
0.0 0.0 0.0

350381.1190636816 4.0844558397730812e6 0.0
4.0844558397730812e6 -1.4562586629204338e6 0.0
0.0 0.0 0.0

-1.4857657553758416e6 4.496808890691458e6 0.0
4.496808890691458e6 528823.3883906922 0.0
0.0 0.0 0.0

-759534.567637805 2.443050577778754e6 0.0
2.443050577778754e6 -83762.07768867514 0.0
0.0 0.0 0.0

-407870.72364679986 2.9823223173308405e6 0.0
2.9823223173308405e6 -975922.7062730663 0.0
0.0 0.0 0.0

521602.3454174753 2.830802188060551e6 0.0
2.830802188060551e6 -656140.0170053585 0.0
0.0 0.0 0.0

-710711.5823127406 3.068016833753993e6 0.0
3.068016833753993e6 -141381.98343344944 0.0
0.0 0.0 0.0

812212.2372726223 886339.6316561379 0.0
886339.6316561379 -1.1552826772128944e6 0.0
0.0 0.0 0.0

-158468.95574884012 104085.97774402438 0.0
104085.97774402438 205044.00827546808 0.0
0.0 0.0 0.0

1.0684370656330418e6 1.7542577326691693e6 0.0
1.7542577326691693e6 -1.7729066450311267e6 0.0
0.0 0.0 0.0

782755.0768882378 1.4820436955422089e6 0.0
1.4820436955422089e6 -1.421272013082099e6 0.0
0.0 0.0 0.0

1.0120982462892687e6 1.7389920011817128e6 0.0
1.7389920011817128e6 -1.7032275424531584e6 0.0
0.0 0.0 0.0

-188958.3373647836 4.0393532741189543e6 0.0
4.0393532741189543e6 -1.3627949370223873e6 0.0
0.0 0.0 0.0

-1.4439346160923326e6 4.651833704127007e6 0.0
4.651833704127007e6 492246.1547328739 0.0
0.0 0.0 0.0

-1.5601333019649745e6 1.0750696252762685e6 0.0
1.0750696252762685e6 2.435085484020591e6 0.0
0.0 0.0 0.0

-643859.55030498 2.9937821126620234e6 0.0
2.9937821126620234e6 -8647.51160061374 0.0
0.0 0.0 0.0

960366.4264996724 1.743663497613477e6 0.0
1.743663497613477e6 -1.708520976013916e6 0.0
0.0 0.0 0.0

297369.7524709961 333411.59460074716 0.0
333411.59460074716 -577147.7567846093 0.0
0.0 0.0 0.0

-692272.7010453679 1.5811902454295177e6 0.0
1.5811902454295177e6 1.0114205059198977e6 0.0
0.0 0.0 0.0

-482806.81069267204 3.232325131403848e6 0.0
3.232325131403848e6 -459860.36940640694 0.0
0.0 0.0 0.0

-359293.68927127763 3.61998928534833e6 0.0
3.61998928534833e6 -603233.2886802435 0.0
0.0 0.0 0.0

-1.6658690989480847e6 3.430153175784636e6 0.0
3.430153175784636e6 286766.31015264324 0.0
0.0 0.0 0.0

-223936.44181642708 3.0958447744370443e6 0.0
3.0958447744370443e6 -1.095292062610884e6 0.0
0.0 0.0 0.0

1.0230137093528986e6 1.8248469411387953e6 0.0
1.8248469411387953e6 -1.7291585288746424e6 0.0
0.0 0.0 0.0

954496.5482349747 1.7886900598187866e6 0.0
1.7886900598187866e6 -1.758965112114474e6 0.0
0.0 0.0 0.0

-150292.66804472645 388644.0898657981 0.0
388644.0898657981 -1.2117662581992121e6 0.0
0.0 0.0 0.0

894456.9183882956 1.873884683674634e6 0.0
1.873884683674634e6 -1.8061765332727311e6 0.0
0.0 0.0 0.0

923429.175565213 1.687748023938296e6 0.0
1.687748023938296e6 -1.5636911265784034e6 0.0
0.0 0.0 0.0

-2.4875243945198418e6 2.568263048872783e6 0.0
2.568263048872783e6 443759.41781682044 0.0
0.0 0.0 0.0

-1.4640394383302345e6 5.375569513311506e6 0.0
5.375569513311506e6 561683.2335231742 0.0
0.0 0.0 0.0

-856779.3519791468 4.1356291886114306e6 0.0
4.1356291886114306e6 -178103.8771064871 0.0
0.0 0.0 0.0

849968.9213916819 1.678855687975637e6 0.0
1.678855687975637e6 -1.546601082422949e6 0.0
0.0 0.0 0.0

-1.6481700135756708e6 2.957515851085752e6 0.0
2.957515851085752e6 811957.1315158391 0.0
0.0 0.0 0.0

-638228.926431588 3.2477533902039942e6 0.0
3.2477533902039942e6 -1.0306257515269709e6 0.0
0.0 0.0 0.0

-156398.4206067463 1.2779166433639822e6 0.0
1.2779166433639822e6 -521327.7708571339 0.0
0.0 0.0 0.0

1.052172257189615e6 6.541160670117167e6 0.0
6.541160670117167e6 3.5072472708634185e6 0.0
0.0 0.0 0.0

-492999.0712483244 4.322324162887635e6 0.0
4.322324162887635e6 -161295.26728049136 0.0
0.0 0.0 0.0

-281823.3941117955 4.755025039192724e6 0.0
4.755025039192724e6 -704203.8242814216 0.0
0.0 0.0 0.0

968059.6545671019 3.2979919093181584e6 0.0
3.2979919093181584e6 -1.9997564468184114e6 0.0
0.0 0.0 0.0

-398328.79405675747 3.138070943373974e6 0.0
3.138070943373974e6 -626874.0857180326 0.0
0.0 0.0 0.0

-261699.56493112634 3.8231256544849514e6 0.0
3.8231256544849514e6 -389670.01125316974 0.0
0.0 0.0 0.0

-71785.75960918624 -21745.692058587483 0.0
-21745.692058587483 -73194.686745829 0.0
0.0 0.0 0.0

-1.5942459397710906e6 1.0118475008789513e6 0.0
1.0118475008789513e6 3.7098300155835175e6 0.0
0.0 0.0 0.0

-545171.1809031342 3.932275243271111e6 0.0
3.932275243271111e6 -314742.66247222567 0.0
0.0 0.0 0.0

-1.4478688501463851e6 2.881797230884524e6 0.0
2.881797230884524e6 791776.0337813111 0.0
0.0 0.0 0.0

-2.048485857583303e6 4.0622540177185647e6 0.0
4.0622540177185647e6 1.0315663222851129e6 0.0
0.0 0.0 0.0

-933782.0641575663 3.370433297452274e6 0.0
3.370433297452274e6 570896.1600493819 0.0
0.0 0.0 0.0

-516911.05059555714 3.060065516715859e6 0.0
3.060065516715859e6 -248367.565182913 0.0
0.0 0.0 0.0

-1.1473926147966888e6 2.938987600206748e6 0.0
2.938987600206748e6 366783.18136000086 0.0
0.0 0.0 0.0

1.084695555878147e6 2.360410635729638e6 0.0
2.360410635729638e6 -1.8907763820536966e6 0.0
0.0 0.0 0.0

727790.0722236633 1.35897702995205e6 0.0
1.35897702995205e6 -1.3123745663185387e6 0.0
0.0 0.0 0.0

-644184.9162814742 3.119942513233303e6 0.0
3.119942513233303e6 -243909.32788507896 0.0
0.0 0.0 0.0

4363.47873317817 3.279197191833283e6 0.0
3.279197191833283e6 -1.307565271292389e6 0.0
0.0 0.0 0.0

-766784.5439182753 190700.10608539058 0.0
190700.10608539058 1.9080278249142705e6 0.0
0.0 0.0 0.0

542204.1031024202 287658.2914618131 0.0
287658.2914618131 -883668.6747639913 0.0
0.0 0.0 0.0

-2.3842969826431246e6 -476821.8692049592 0.0
-476821.8692049592 4.071739033872528e6 0.0
0.0 0.0 0.0

-941110.556171029 2.663540234742587e6 0.0
2.663540234742587e6 -119315.86488524533 0.0
0.0 0.0 0.0

-921629.1055417026 4.1269136512989774e6 0.0
4.1269136512989774e6 -133132.80717899557 0.0
0.0 0.0 0.0

475069.19807465037 2.3463779704652983e6 0.0
2.3463779704652983e6 234442.2382118882 0.0
0.0 0.0 0.0

-1.2125315264219446e6 3.9714259512403156e6 0.0
3.9714259512403156e6 252016.71223286266 0.0
0.0 0.0 0.0

772772.1721646034 778118.3353568113 0.0
778118.3353568113 -1.3022374061990099e6 0.0
0.0 0.0 0.0

-975437.0475159552 3.1611513084478145e6 0.0
3.1611513084478145e6 421024.4701501529 0.0
0.0 0.0 0.0

-364875.8302879175 6.518174156684587e6 0.0
6.518174156684587e6 -85211.80429731797 0.0
0.0 0.0 0.0

-565281.1346183713 2.384242093087187e6 0.0
2.384242093087187e6 587229.6587461758 0.0
0.0 0.0 0.0

331625.857448624 349908.44377981895 0.0
349908.44377981895 -487790.66658815194 0.0
0.0 0.0 0.0

-2.886026825847702e6 -395249.63913725095 0.0
-395249.63913725095 1.697417684903517e6 0.0
0.0 0.0 0.0

1.066022792310625e6 1.802300629603714e6 0.0
1.802300629603714e6 -1.793283012885028e6 0.0
0.0 0.0 0.0

-1.6372665803336238e6 3.4124272047838974e6 0.0
3.4124272047838974e6 -15690.663783594617 0.0
0.0 0.0 0.0

381346.4027697989 305429.98743647203 0.0
305429.98743647203 -604058.3784819508 0.0
0.0 0.0 0.0

-1.0551626559352032e6 3.040162230527016e6 0.0
3.040162230527016e6 171934.84186710446 0.0
0.0 0.0 0.0

-87939.7547539567 204275.84431641514 0.0
204275.84431641514 -27948.289322568293 0.0
0.0 0.0 0.0

-431710.5886470425 3.284766994250246e6 0.0
3.284766994250246e6 -573624.3124895494 0.0
0.0 0.0 0.0

-180519.890545378 180839.16363628075 0.0
180839.16363628075 -7550.500758884627 0.0
0.0 0.0 0.0

-558825.6389456833 2.6581330325774257e6 0.0
2.6581330325774257e6 -566328.3880438906 0.0
0.0 0.0 0.0

-1.4070505497392786e6 1.155338223789183e6 0.0
1.155338223789183e6 2.099604342581384e6 0.0
0.0 0.0 0.0

537011.7472747746 1.1928955407245297e6 0.0
1.1928955407245297e6 -1.416521123516812e6 0.0
0.0 0.0 0.0

-2.0820228276919543e6 1.249965451059651e6 0.0
1.249965451059651e6 3.764648280184565e6 0.0
0.0 0.0 0.0

-574359.6452146695 2.943368824018711e6 0.0
2.943368824018711e6 -274795.16732107627 0.0
0.0 0.0 0.0

-1.851500985712191e6 3.056563040337656e6 0.0
3.056563040337656e6 792338.6755874951 0.0
0.0 0.0 0.0

1.0185293550256717e6 2.3830591685757204e6 0.0
2.3830591685757204e6 -1.854690701011889e6 0.0
0.0 0.0 0.0

-1.3026439801141534e6 1.4392966497185593e6 0.0
1.4392966497185593e6 2.6782930149768596e6 0.0
0.0 0.0 0.0

-118733.87100082992 3.202990072378024e6 0.0
3.202990072378024e6 -368610.92852167843 0.0
0.0 0.0 0.0

-1.889188247214201e6 -307144.10147485643 0.0
-307144.10147485643 2.299167067630894e6 0.0
0.0 0.0 0.0

539025.1754040259 3.798627228810659e6 0.0
3.798627228810659e6 -1.3934148490643012e6 0.0
0.0 0.0 0.0

-432975.40549022285 3.0048003907939177e6 0.0
3.0048003907939177e6 33252.23706354169 0.0
0.0 0.0 0.0

132488.661733779 1.2395767390042283e6 0.0
1.2395767390042283e6 -1.0999085482395834e6 0.0
0.0 0.0 0.0

401880.54228785855 210032.97630394963 0.0
210032.97630394963 -414771.8710317783 0.0
0.0 0.0 0.0

257471.21350862732 158058.58703763422 0.0
158058.58703763422 -342021.5161355752 0.0
0.0 0.0 0.0

-315998.18352125224 2.949089898231424e6 0.0
2.949089898231424e6 -834906.775887362 0.0
0.0 0.0 0.0

339858.27611547755 444984.0977212334 0.0
444984.0977212334 -329118.91480381 0.0
0.0 0.0 0.0

-954465.7264212185 4.1207005002709217e6 0.0
4.1207005002709217e6 -144116.95651508213 0.0
0.0 0.0 0.0

-2.0217123055554305e6 3.0419720495494064e6 0.0
3.0419720495494064e6 2.357887263462403e6 0.0
0.0 0.0 0.0

-137571.33454302148 1.5225954014754135e6 0.0
1.5225954014754135e6 24824.90122142039 0.0
0.0 0.0 0.0

-802521.9738279751 2.735236767674947e6 0.0
2.735236767674947e6 -6589.00501114424 0.0
0.0 0.0 0.0

582237.4830423852 1.6960118994020608e6 0.0
1.6960118994020608e6 -1.48754660947558e6 0.0
0.0 0.0 0.0

-1.9471618307519387e6 4.385208685382522e6 0.0
4.385208685382522e6 962341.2819972119 0.0
0.0 0.0 0.0

-60524.30247212507 2.899527378860599e6 0.0
2.899527378860599e6 -824608.7401344576 0.0
0.0 0.0 0.0

1.3715510890554395e6 584478.9641391878 0.0
584478.9641391878 -1.6192939177856469e6 0.0
0.0 0.0 0.0

911791.6054709897 1.6006545916606542e6 0.0
1.6006545916606542e6 -1.5598901987379922e6 0.0
0.0 0.0 0.0

-119589.34572689334 3.9617669160207952e6 0.0
3.9617669160207952e6 -1.2742059503098268e6 0.0
0.0 0.0 0.0

-24875.580393302684 1.5434753987274126e6 0.0
1.5434753987274126e6 -21413.9347553726 0.0
0.0 0.0 0.0

-717624.1882029907 1.3743474060261887e6 0.0
1.3743474060261887e6 -641496.7853590236 0.0
0.0 0.0 0.0

-109439.97722956192 415042.84326599824 0.0
415042.84326599824 -3204.9663459774893 0.0
0.0 0.0 0.0

499387.6744376384 757882.4368717225 0.0
757882.4368717225 -1.3092060568730547e6 0.0
0.0 0.0 0.0

-270342.3708923744 3.8818595461819433e6 0.0
3.8818595461819433e6 -487173.22019696294 0.0
0.0 0.0 0.0

-2.1041811971863005e6 326104.6502074823 0.0
326104.6502074823 2.85971570484324e6 0.0
0.0 0.0 0.0

-2.1740599421202186e6 3.2336699645855334e6 0.0
3.2336699645855334e6 830412.2793298602 0.0
0.0 0.0 0.0

-1.114387472753186e6 34250.01289904023 0.0
34250.01289904023 761679.7691106682 0.0
0.0 0.0 0.0

-118085.0138677897 3.148204778558111e6 0.0
3.148204778558111e6 -1.1229748870130086e6 0.0
0.0 0.0 0.0

-84115.8856473782 4.0112316862097257e6 0.0
4.0112316862097257e6 -449002.9626323689 0.0
0.0 0.0 0.0

-1.7874774911681528e6 4.240042451642634e6 0.0
4.240042451642634e6 792096.1780376254 0.0
0.0 0.0 0.0

-1.342558803265311e6 2.2077405799139636e6 0.0
2.2077405799139636e6 312893.0080196407 0.0
0.0 0.0 0.0

-1.4018248975508814e6 4.0286872415677696e6 0.0
4.0286872415677696e6 408881.00727702945 0.0
0.0 0.0 0.0

-868467.3731007504 2.0770814313262436e6 0.0
2.0770814313262436e6 154971.97402829054 0.0
0.0 0.0 0.0

473313.3516036945 88024.0374080494 0.0
88024.0374080494 -623655.5165225428 0.0
0.0 0.0 0.0

-851077.5970824794 2.813426657718059e6 0.0
2.813426657718059e6 -188588.46585947828 0.0
0.0 0.0 0.0

-2.469239657861542e6 7.497930652165438e6 0.0
7.497930652165438e6 1.850238907928958e6 0.0
0.0 0.0 0.0

-626168.7508140064 4.123237016802976e6 0.0
4.123237016802976e6 -141394.00817072118 0.0
0.0 0.0 0.0

-442569.0956496288 3.184641437917464e6 0.0
3.184641437917464e6 -547284.0274594382 0.0
0.0 0.0 0.0

-651158.4811150945 3.527151114925858e6 0.0
3.527151114925858e6 -124047.03114966108 0.0
0.0 0.0 0.0

-1.336489916495186e6 3.2442983466426167e6 0.0
3.2442983466426167e6 481344.83927988296 0.0
0.0 0.0 0.0

1.1039080447070657e6 1.7920381440951156e6 0.0
1.7920381440951156e6 -1.7970010760311224e6 0.0
0.0 0.0 0.0

396502.03676044144 954860.5721635357 0.0
954860.5721635357 -1.3560637754431358e6 0.0
0.0 0.0 0.0

115488.19705775357 1.7908412514565615e6 0.0
1.7908412514565615e6 -84992.00493291512 0.0
0.0 0.0 0.0

-923173.7440762332 4.1321261437749364e6 0.0
4.1321261437749364e6 -207862.39870748617 0.0
0.0 0.0 0.0

853646.8752072081 1.1328323670969985e6 0.0
1.1328323670969985e6 -1.397789175759154e6 0.0
0.0 0.0 0.0

-764672.1619578879 2.3814152425137353e6 0.0
2.3814152425137353e6 -362677.6594582217 0.0
0.0 0.0 0.0

-310631.6225044695 3.780306844956047e6 0.0
3.780306844956047e6 -405481.71358449355 0.0
0.0 0.0 0.0

107850.61211740231 3.3771850401823157e6 0.0
3.3771850401823157e6 -1.474966919571934e6 0.0
0.0 0.0 0.0

364945.79556293995 395134.39469648275 0.0
395134.39469648275 -486517.7771884691 0.0
0.0 0.0 0.0

-2.100009264089498e6 2.0179684789780446e6 0.0
2.0179684789780446e6 -121137.85069730144 0.0
0.0 0.0 0.0

441452.5672885013 3.4298492163425176e6 0.0
3.4298492163425176e6 -1.5719488264749513e6 0.0
0.0 0.0 0.0

-2.6707696497284346e6 -951428.080484225 0.0
-951428.080484225 2.7183604270780617e6 0.0
0.0 0.0 0.0

652785.5041405408 1.1262866399862007e6 0.0
1.1262866399862007e6 -1.4132216335493494e6 0.0
0.0 0.0 0.0

-536773.2380486968 3.4225529371665767e6 0.0
3.4225529371665767e6 515474.135006862 0.0
0.0 0.0 0.0

35875.993574538734 4.272439569919811e6 0.0
4.272439569919811e6 -1.629277796001765e6 0.0
0.0 0.0 0.0

-98226.91830524424 3.2329399211198622e6 0.0
3.2329399211198622e6 -1.3753552979176831e6 0.0
0.0 0.0 0.0

775267.721809179 292993.29231681436 0.0
292993.29231681436 -689204.9838111851 0.0
0.0 0.0 0.0

-29296.852789109456 1.4579979642433254e6 0.0
1.4579979642433254e6 -422497.3223974955 0.0
0.0 0.0 0.0

-1.3369578642991518e6 3.312538256425223e6 0.0
3.312538256425223e6 520018.45042058086 0.0
0.0 0.0 0.0

-517125.1062620903 3.2103488285099156e6 0.0
3.2103488285099156e6 -31064.085250766802 0.0
0.0 0.0 0.0

40321.271440317156 684244.9713278228 0.0
684244.9713278228 -361648.86119639024 0.0
0.0 0.0 0.0

-1.4227726319842876e6 3.275606636422418e6 0.0
3.275606636422418e6 598328.0255900726 0.0
0.0 0.0 0.0

-786920.8420094041 2.7349293804943175e6 0.0
2.7349293804943175e6 -276022.4566627509 0.0
0.0 0.0 0.0

-879271.2756026315 2.6533394503541235e6 0.0
2.6533394503541235e6 90380.30613989901 0.0
0.0 0.0 0.0

-894006.5320321424 2.907496850230547e6 0.0
2.907496850230547e6 -147333.87887488038 0.0
0.0 0.0 0.0

-455251.92596759263 2.779520848402498e6 0.0
2.779520848402498e6 -652064.2371450377 0.0
0.0 0.0 0.0

-283819.9115126638 667650.4188158636 0.0
667650.4188158636 -1.3298425270042184e6 0.0
0.0 0.0 0.0

-310256.74618811597 3.6999672850919543e6 0.0
3.6999672850919543e6 -894307.0479634944 0.0
0.0 0.0 0.0

-1.0401073873777431e6 2.5818293500421816e6 0.0
2.5818293500421816e6 -22762.662971806654 0.0
0.0 0.0 0.0

-1.159177989408505e6 2.3385260522627807e6 0.0
2.3385260522627807e6 512960.62607525405 0.0
0.0 0.0 0.0

486315.7286923495 382210.7036631441 0.0
382210.7036631441 -577979.4865560876 0.0
0.0 0.0 0.0

-374443.363058687 2.8825089942268827e6 0.0
2.8825089942268827e6 -735624.1207723075 0.0
0.0 0.0 0.0

-124970.7967309116 1.527364695234352e6 0.0
1.527364695234352e6 -416569.416246388 0.0
0.0 0.0 0.0

779177.7840059747 467454.9635107977 0.0
467454.9635107977 -957414.5220881745 0.0
0.0 0.0 0.0

276948.4958633807 1.487320694181441e6 0.0
1.487320694181441e6 -1.5681435020753185e6 0.0
0.0 0.0 0.0

-272930.2197670144 1.325450047570245e6 0.0
1.325450047570245e6 -154277.3368991846 0.0
0.0 0.0 0.0

143618.88321362797 3.4590255969619667e6 0.0
3.4590255969619667e6 -760072.008302249 0.0
0.0 0.0 0.0

-516710.6340284143 3.1809748427971103e6 0.0
3.1809748427971103e6 -300574.15621383756 0.0
0.0 0.0 0.0

757949.42649054 1.1230681733451835e6 0.0
1.1230681733451835e6 -1.4106727536017667e6 0.0
0.0 0.0 0.0

-125045.3961031437 1.409000855719709e6 0.0
1.409000855719709e6 -433779.7774731078 0.0
0.0 0.0 0.0

-288284.0414455794 -450794.17038062954 0.0
-450794.17038062954 714544.0372395852 0.0
0.0 0.0 0.0

-315701.6466522091 3.7876962369319857e6 0.0
3.7876962369319857e6 -444162.6575951247 0.0
0.0 0.0 0.0

-132508.4366464708 4.222124195833837e6 0.0
4.222124195833837e6 -577257.397290273 0.0
0.0 0.0 0.0

-936857.094263803 4.142532704505365e6 0.0
4.142532704505365e6 -140451.3656755495 0.0
0.0 0.0 0.0

-1.003948983211938e6 3.0503983979142522e6 0.0
3.0503983979142522e6 206647.27701052878 0.0
0.0 0.0 0.0

1.1468926102562496e6 1.8689691389168757e6 0.0
1.8689691389168757e6 -1.882623002602675e6 0.0
0.0 0.0 0.0

1.1686816863634333e6 1.9198761498763736e6 0.0
1.9198761498763736e6 -1.9100198398571303e6 0.0
0.0 0.0 0.0

-195844.7548893037 2.4213913952147462e6 0.0
2.4213913952147462e6 -221418.98730347832 0.0
0.0 0.0 0.0

-721097.4273346944 2.6614729959774856e6 0.0
2.6614729959774856e6 -359550.2806961111 0.0
0.0 0.0 0.0

-354068.01009073376 4.034813669749056e6 0.0
4.034813669749056e6 -324771.45989958063 0.0
0.0 0.0 0.0

-1.9237415835955495e6 -810648.4039392413 0.0
-810648.4039392413 2.683632443496907e6 0.0
0.0 0.0 0.0

-599808.3596185658 3.0438438572355234e6 0.0
3.0438438572355234e6 -222894.31346062903 0.0
0.0 0.0 0.0

-1.384349263705611e6 2.5772596768229976e6 0.0
2.5772596768229976e6 435548.26180488744 0.0
0.0 0.0 0.0

-6.388856958246889e6 741555.839460179 0.0
741555.839460179 8.895243365246657e6 0.0
0.0 0.0 0.0

510037.5894995194 180089.97394903793 0.0
180089.97394903793 -699415.8057261036 0.0
0.0 0.0 0.0

-1.6186203596378665e6 3.321792182069064e6 0.0
3.321792182069064e6 743230.0115046899 0.0
0.0 0.0 0.0

-958830.5022619441 3.6577146495074984e6 0.0
3.6577146495074984e6 1.2231050865579646e6 0.0
0.0 0.0 0.0

590113.5779063825 1.2566170367637076e6 0.0
1.2566170367637076e6 -1.1975808296479057e6 0.0
0.0 0.0 0.0

-1.1828051408755148e6 3.1778233358605676e6 0.0
3.1778233358605676e6 340062.7726375803 0.0
0.0 0.0 0.0

-2.1978267145272894e6 798218.3521911337 0.0
798218.3521911337 4.941306490098696e6 0.0
0.0 0.0 0.0

908081.1844066791 2.6210143395120683e6 0.0
2.6210143395120683e6 -1.7093698129073512e6 0.0
0.0 0.0 0.0

-378192.27807721094 3.1965342507270393e6 0.0
3.1965342507270393e6 -656621.2568723562 0.0
0.0 0.0 0.0

-78007.26120976583 -233243.28625327986 0.0
-233243.28625327986 268290.9289715588 0.0
0.0 0.0 0.0

724449.493243028 3.307018224901967e6 0.0
3.307018224901967e6 -1.4151511403928753e6 0.0
0.0 0.0 0.0

-1.075259256861651e6 1.5019605650324025e6 0.0
1.5019605650324025e6 648183.5904374605 0.0
0.0 0.0 0.0

921961.4748373011 2.1899629475938557e6 0.0
2.1899629475938557e6 -1.5868165839922545e6 0.0
0.0 0.0 0.0

-875577.4588745558 2.041967892838737e6 0.0
2.041967892838737e6 -278569.19076824904 0.0
0.0 0.0 0.0

-655626.2702785231 2.583880805453609e6 0.0
2.583880805453609e6 -432956.0510360607 0.0
0.0 0.0 0.0

-11055.534040460276 825734.5737711476 0.0
825734.5737711476 -259218.3508637431 0.0
0.0 0.0 0.0

-331955.90822236706 3.627904677458818e6 0.0
3.627904677458818e6 -480546.83439089195 0.0
0.0 0.0 0.0

430523.6192851644 316910.37408328126 0.0
316910.37408328126 -585960.7940318962 0.0
0.0 0.0 0.0

-262966.3479689698 3.0633159875682066e6 0.0
3.0633159875682066e6 -962267.4591850729 0.0
0.0 0.0 0.0

189759.19654684718 1.0610435784491932e6 0.0
1.0610435784491932e6 -328315.91604566365 0.0
0.0 0.0 0.0

-66118.07525821682 561901.2130612263 0.0
561901.2130612263 -1.1470187647651932e6 0.0
0.0 0.0 0.0

-856717.4056743175 2.266148468328577e6 0.0
2.266148468328577e6 -271708.92404323054 0.0
0.0 0.0 0.0

854677.3537162853 1.2385134448107835e6 0.0
1.2385134448107835e6 -1.5514949308438667e6 0.0
0.0 0.0 0.0

-28705.885460014622 655684.8984885975 0.0
655684.8984885975 -11153.847601445972 0.0
0.0 0.0 0.0

1.1470539457275965e6 2.2937298663570867e6 0.0
2.2937298663570867e6 -2.081075908712301e6 0.0
0.0 0.0 0.0

-53644.75073200567 4.3949791300804615e6 0.0
4.3949791300804615e6 -178816.01366086022 0.0
0.0 0.0 0.0

171040.46550632233 1.0823353921201155e6 0.0
1.0823353921201155e6 -708004.0147824332 0.0
0.0 0.0 0.0

-961448.834774228 4.0869254313078076e6 0.0
4.0869254313078076e6 -168244.4585051031 0.0
0.0 0.0 0.0

-302865.9588766499 3.2032050324388267e6 0.0
3.2032050324388267e6 -55814.115573095456 0.0
0.0 0.0 0.0

-1.2549838014381796e6 1.3641301559492955e6 0.0
1.3641301559492955e6 1.7358293673303393e6 0.0
0.0 0.0 0.0

-735960.2760714579 2.683256000131185e6 0.0
2.683256000131185e6 792890.8026895339 0.0
0.0 0.0 0.0

-129350.85376473014 -320742.96402469696 0.0
-320742.96402469696 248746.54275885486 0.0
0.0 0.0 0.0

-904044.2990863703 3.3127981267108284e6 0.0
3.3127981267108284e6 238473.63744659728 0.0
0.0 0.0 0.0

340827.30981320725 5.108110916152738e6 0.0
5.108110916152738e6 1.3458661920516072e6 0.0
0.0 0.0 0.0

-645431.1034602603 4.1281560171233765e6 0.0
4.1281560171233765e6 -198016.65719794197 0.0
0.0 0.0 0.0

8017.5134403277625 1.4717150806943951e6 0.0
1.4717150806943951e6 -365521.27937685995 0.0
0.0 0.0 0.0

-208027.28603439018 3.106565469011062e6 0.0
3.106565469011062e6 -1.0779335619855316e6 0.0
0.0 0.0 0.0

1.1225290002812725e6 349558.2447418648 0.0
349558.2447418648 -1.5336814682282212e6 0.0
0.0 0.0 0.0

-573896.439930005 2.643929582202394e6 0.0
2.643929582202394e6 -337344.9094763042 0.0
0.0 0.0 0.0

-806328.5039998541 2.9572628471774966e6 0.0
2.9572628471774966e6 315806.5622592649 0.0
0.0 0.0 0.0

702025.2758662539 267135.33579342894 0.0
267135.33579342894 -1.4457872994145323e6 0.0
0.0 0.0 0.0

-1.7336096424299954e6 3.4471140093660555e6 0.0
3.4471140093660555e6 888795.8698449483 0.0
0.0 0.0 0.0

-156123.48678107758 -325109.3555391187 0.0
-325109.3555391187 609127.4757659007 0.0
0.0 0.0 0.0

-105088.63818466318 -285520.96956213686 0.0
-285520.96956213686 311433.81022944814 0.0
0.0 0.0 0.0

-1.458674373468717e6 244168.30287224517 0.0
244168.30287224517 1.9447990552468728e6 0.0
0.0 0.0 0.0

-1.2414851915037355e6 2.974410692415728e6 0.0
2.974410692415728e6 179096.08360680076 0.0
0.0 0.0 0.0

-49641.77118135819 1.5900584946127224e6 0.0
1.5900584946127224e6 -94766.8259937542 0.0
0.0 0.0 0.0

-382239.51475229644 2.4374237250717133e6 0.0
2.4374237250717133e6 932187.6224838599 0.0
0.0 0.0 0.0

-358658.41476337356 4.860182559187145e6 0.0
4.860182559187145e6 3.1277824390335493e6 0.0
0.0 0.0 0.0

1.0655520749026355e6 491759.03186208574 0.0
491759.03186208574 -1.7640454039173513e6 0.0
0.0 0.0 0.0

322339.0277587692 339456.3352862069 0.0
339456.3352862069 -298132.7907095612 0.0
0.0 0.0 0.0

-960127.20307734 3.500065932093483e6 0.0
3.500065932093483e6 93013.3487841108 0.0
0.0 0.0 0.0

-952544.8568417308 2.912532591127463e6 0.0
2.912532591127463e6 371939.7722865327 0.0
0.0 0.0 0.0

1.1176992684070426e6 2.031997970686928e6 0.0
2.031997970686928e6 -1.944387728420529e6 0.0
0.0 0.0 0.0

1.0446985590966687e6 1.927386448871209e6 0.0
1.927386448871209e6 -1.81058610188916e6 0.0
0.0 0.0 0.0

161463.84646325844 1.1914777231368362e6 0.0
1.1914777231368362e6 -571853.2975978532 0.0
0.0 0.0 0.0

-680531.9072287006 2.942138246469796e6 0.0
2.942138246469796e6 -113203.11534661545 0.0
0.0 0.0 0.0

-3.1251208635702087e6 1.658765597750195e6 0.0
1.658765597750195e6 8.549170422533307e6 0.0
0.0 0.0 0.0

-623246.2734537945 2.7224130275243656e6 0.0
2.7224130275243656e6 -262866.88556871354 0.0
0.0 0.0 0.0

245213.82318802387 1.3491242889866864e6 0.0
1.3491242889866864e6 -339649.8907793569 0.0
0.0 0.0 0.0

1.0971621046232968e6 1.9086486075058798e6 0.0
1.9086486075058798e6 -1.8626176533727734e6 0.0
0.0 0.0 0.0

-821696.8398872142 2.761756826194359e6 0.0
2.761756826194359e6 144950.84159512992 0.0
0.0 0.0 0.0

388556.0108951726 1.7836763944398833e6 0.0
1.7836763944398833e6 -1.587785812085493e6 0.0
0.0 0.0 0.0

-430752.93748287286 556238.6337145875 0.0
556238.6337145875 150824.84371342434 0.0
0.0 0.0 0.0

-693673.9599530839 2.290704460458978e6 0.0
2.290704460458978e6 -440355.0511160985 0.0
0.0 0.0 0.0

332257.8570787435 358606.2562411465 0.0
358606.2562411465 -766082.5810539016 0.0
0.0 0.0 0.0

-508831.255088364 2.4100524147655186e6 0.0
2.4100524147655186e6 443580.14568780625 0.0
0.0 0.0 0.0

196525.65909932164 1.825910104601394e6 0.0
1.825910104601394e6 181702.37412989425 0.0
0.0 0.0 0.0

-950184.8487073868 2.1687567054718705e6 0.0
2.1687567054718705e6 -182127.4351297685 0.0
0.0 0.0 0.0

-1.2077385797888832e6 3.345599246960764e6 0.0
3.345599246960764e6 366281.44195775513 0.0
0.0 0.0 0.0

-88873.58639148499 1.1884940439386787e6 0.0
1.1884940439386787e6 -426930.9554618009 0.0
0.0 0.0 0.0

-3.0757897693270883e6 545077.5777031082 0.0
545077.5777031082 6.439865322871145e6 0.0
0.0 0.0 0.0

-2.825867623164377e6 -104480.2546737391 0.0
-104480.2546737391 3.6785093694528523e6 0.0
0.0 0.0 0.0

-2.67161214051544e6 692313.4890559817 0.0
692313.4890559817 5.7238712692848705e6 0.0
0.0 0.0 0.0

-6.551222608238198e6 -2.2149985954150073e6 0.0
-2.2149985954150073e6 7.759963534681057e6 0.0
0.0 0.0 0.0

-352593.0532369806 3.7589669293599706e6 0.0
3.7589669293599706e6 -401200.41558357334 0.0
0.0 0.0 0.0

-1.9843152045214768e6 -492240.0228933614 0.0
-492240.0228933614 2.322348787214428e6 0.0
0.0 0.0 0.0

-1.8815958117394191e6 3.2839309276423063e6 0.0
3.2839309276423063e6 1.0570046269947253e6 0.0
0.0 0.0 0.0

-295507.7427299548 3.611018783183776e6 0.0
3.611018783183776e6 -988300.1506186146 0.0
0.0 0.0 0.0

-3.160196369717133e6 1.9158315683275382e6 0.0
1.9158315683275382e6 -66505.55303912342 0.0
0.0 0.0 0.0

763850.5845678516 414084.14375089115 0.0
414084.14375089115 -1.428262797821524e6 0.0
0.0 0.0 0.0

-20387.505491551594 3.2497975715030394e6 0.0
3.2497975715030394e6 -1.3680308989270441e6 0.0
0.0 0.0 0.0

-1.7172534129451436e6 3.4467347311087507e6 0.0
3.4467347311087507e6 1.0350711934387782e6 0.0
0.0 0.0 0.0

-1.6128137786669885e6 3.02091500893602e6 0.0
3.02091500893602e6 487936.1329846169 0.0
0.0 0.0 0.0

945484.6231663942 1.9941290506570337e6 0.0
1.9941290506570337e6 -1.611263235504079e6 0.0
0.0 0.0 0.0

-467759.48140730575 5.201038402706254e6 0.0
5.201038402706254e6 -59314.07687963183 0.0
0.0 0.0 0.0

-663760.3921984575 2.69283404975587e6 0.0
2.69283404975587e6 -65239.41917211178 0.0
0.0 0.0 0.0

1.0226685094968291e6 2.9402815330178807e6 0.0
2.9402815330178807e6 -2.1763560783481933e6 0.0
0.0 0.0 0.0

45012.12902515957 2.0059817810388976e6 0.0
2.0059817810388976e6 -139325.8391616418 0.0
0.0 0.0 0.0

1947.1543516311795 541499.6032107846 0.0
541499.6032107846 -1.6076128136083214e6 0.0
0.0 0.0 0.0

-1.0095190542115874e6 1.5721695327360383e6 0.0
1.5721695327360383e6 1.4280702299853761e6 0.0
0.0 0.0 0.0

-1.413107077012361e6 1.6521241753007413e6 0.0
1.6521241753007413e6 -285292.2334616468 0.0
0.0 0.0 0.0

-264780.8443888724 107462.80074606847 0.0
107462.80074606847 194141.24008976674 0.0
0.0 0.0 0.0

-680159.1704255212 2.7987030133549985e6 0.0
2.7987030133549985e6 -175290.891555569 0.0
0.0 0.0 0.0

-2.9938921955763707e6 3.1460077108987e6 0.0
3.1460077108987e6 1.5965050644341013e6 0.0
0.0 0.0 0.0

1.181352372759698e6 353307.9307991939 0.0
353307.9307991939 -1.9480856744999862e6 0.0
0.0 0.0 0.0

261992.0791245941 1.2680485855147336e6 0.0
1.2680485855147336e6 48253.39461306012 0.0
0.0 0.0 0.0

-707207.1002711459 2.3385902896220363e6 0.0
2.3385902896220363e6 -158331.7967511696 0.0
0.0 0.0 0.0

-1.4118416273715512e6 2.7928838950935276e6 0.0
2.7928838950935276e6 757564.7885687933 0.0
0.0 0.0 0.0

-821132.1197843729 3.136587050260971e6 0.0
3.136587050260971e6 -15947.038428227883 0.0
0.0 0.0 0.0

-662206.2633669088 220928.35502749516 0.0
220928.35502749516 939785.562767189 0.0
0.0 0.0 0.0

1.11756277274859e6 1.8206187310505859e6 0.0
1.8206187310505859e6 -1.8447185842512413e6 0.0
0.0 0.0 0.0

1.0437074477964422e6 1.0627169279710406e6 0.0
1.0627169279710406e6 -1.4600587689934475e6 0.0
0.0 0.0 0.0

-788478.5596904001 2.7961824122649855e6 0.0
2.7961824122649855e6 102666.43679618469 0.0
0.0 0.0 0.0

362962.39106020686 395160.9467778964 0.0
395160.9467778964 -728541.4403824947 0.0
0.0 0.0 0.0

-969009.2764746652 1.9814736449940936e6 0.0
1.9814736449940936e6 -171432.02270979935 0.0
0.0 0.0 0.0

821453.3874170427 1.7202513496221236e6 0.0
1.7202513496221236e6 -1.4698899786893113e6 0.0
0.0 0.0 0.0

-159500.63525094304 -221535.0865421842 0.0
-221535.0865421842 410046.47197121545 0.0
0.0 0.0 0.0

-386859.2323462497 3.7532875447175233e6 0.0
3.7532875447175233e6 -396992.2913984839 0.0
0.0 0.0 0.0

37892.15801743689 382004.8718023404 0.0
382004.8718023404 35475.93152326236 0.0
0.0 0.0 0.0

385875.0358265564 3.9019096946951714e6 0.0
3.9019096946951714e6 -1.5553880959820198e6 0.0
0.0 0.0 0.0

-314650.07014991017 3.206855663234266e6 0.0
3.206855663234266e6 -984005.8715040735 0.0
0.0 0.0 0.0

284396.26459428284 1.3071062023394948e6 0.0
1.3071062023394948e6 -1.1844709320388527e6 0.0
0.0 0.0 0.0

-169962.88315838543 3.142871006485418e6 0.0
3.142871006485418e6 -1.2337358808589564e6 0.0
0.0 0.0 0.0

-408556.4610707053 2.654380900702393e6 0.0
2.654380900702393e6 -555128.8663730919 0.0
0.0 0.0 0.0

178694.38173343294 108309.0302837003 0.0
108309.0302837003 -609345.0456848175 0.0
0.0 0.0 0.0

308533.2723441295 162304.65516771187 0.0
162304.65516771187 -457593.87218089413 0.0
0.0 0.0 0.0

-1.1022824596429437e6 1.6159040156717992e6 0.0
1.6159040156717992e6 -124061.44005213195 0.0
0.0 0.0 0.0

-918971.899372366 1.2377303403584722e6 0.0
1.2377303403584722e6 -378326.30452198384 0.0
0.0 0.0 0.0

-615701.9669529139 2.44795645510049e6 0.0
2.44795645510049e6 -258439.23117359646 0.0
0.0 0.0 0.0

-420213.05981481366 3.7468949989222805e6 0.0
3.7468949989222805e6 -395541.6222308052 0.0
0.0 0.0 0.0

-323401.9990715558 880993.9828356962 0.0
880993.9828356962 -990883.7338703902 0.0
0.0 0.0 0.0

247869.57276624703 4.554608146663954e6 0.0
4.554608146663954e6 -1.0911567518408645e6 0.0
0.0 0.0 0.0

590879.998339575 456525.91526205145 0.0
456525.91526205145 -977498.5290050537 0.0
0.0 0.0 0.0

-540312.7558881034 2.384349904524633e6 0.0
2.384349904524633e6 -449671.3938020322 0.0
0.0 0.0 0.0

-5.874992449109551e6 -1.8312285798794648e6 0.0
-1.8312285798794648e6 5.086877569440631e6 0.0
0.0 0.0 0.0

4.883320939717296e6 6.495810164386857e6 0.0
6.495810164386857e6 -913118.0740644853 0.0
0.0 0.0 0.0

240662.1583354646 3.9897318161755977e6 0.0
3.9897318161755977e6 -907581.1816912682 0.0
0.0 0.0 0.0

-615098.0882906014 2.842443015563132e6 0.0
2.842443015563132e6 -412240.03954580764 0.0
0.0 0.0 0.0

-1.3737401852580197e6 3.0961737289530733e6 0.0
3.0961737289530733e6 454827.05929744523 0.0
0.0 0.0 0.0

-1.210348421262453e6 1.9199642044407148e6 0.0
1.9199642044407148e6 51773.65800177131 0.0
0.0 0.0 0.0

-48731.582743061415 994518.1249215108 0.0
994518.1249215108 -496142.6024102177 0.0
0.0 0.0 0.0

-224117.1439209905 1.3635173026608287e6 0.0
1.3635173026608287e6 3410.8444778718404 0.0
0.0 0.0 0.0

-826388.0931863466 3.436478120675587e6 0.0
3.436478120675587e6 -1447.1640141610987 0.0
0.0 0.0 0.0

237072.90557840565 4.428182344620716e6 0.0
4.428182344620716e6 -1.0098160062941886e6 0.0
0.0 0.0 0.0

-679816.4376264267 1.5035207668776421e6 0.0
1.5035207668776421e6 42952.32930591519 0.0
0.0 0.0 0.0

-12831.816026016826 210469.51849194808 0.0
210469.51849194808 -6331.792628235289 0.0
0.0 0.0 0.0

726548.5910749295 6.665857206357411e6 0.0
6.665857206357411e6 -987196.0150933929 0.0
0.0 0.0 0.0

-861712.2335777193 1.821191646596036e6 0.0
1.821191646596036e6 200351.1573446329 0.0
0.0 0.0 0.0

964264.1782760817 1.7347637786383724e6 0.0
1.7347637786383724e6 -1.7239971191282934e6 0.0
0.0 0.0 0.0

944417.4308964281 1.8600523604255032e6 0.0
1.8600523604255032e6 -1.6387028231134743e6 0.0
0.0 0.0 0.0

-877128.5569973562 1.834922831625756e6 0.0
1.834922831625756e6 1.1615056821764302e6 0.0
0.0 0.0 0.0

-307604.1673731563 2.9054213070150777e6 0.0
2.9054213070150777e6 -790417.963102653 0.0
0.0 0.0 0.0

-927593.4534480029 3.5762145486043114e6 0.0
3.5762145486043114e6 708437.9210330534 0.0
0.0 0.0 0.0

-473024.2180805654 4.187088840519732e6 0.0
4.187088840519732e6 -175096.22729786971 0.0
0.0 0.0 0.0

-1.2531525716866255e6 3.067874870924147e6 0.0
3.067874870924147e6 559067.591014232 0.0
0.0 0.0 0.0

-440790.33035923494 920599.7183043713 0.0
920599.7183043713 -402738.5169996739 0.0
0.0 0.0 0.0

33015.66132352701 1.6083339396548227e6 0.0
1.6083339396548227e6 -138076.97043079778 0.0
0.0 0.0 0.0

530786.0495004293 620570.8568992488 0.0
620570.8568992488 -919289.1775564176 0.0
0.0 0.0 0.0

-170529.51305240253 3.2537628827848244e6 0.0
3.2537628827848244e6 -1.2378344272854482e6 0.0
0.0 0.0 0.0

315679.52701647556 3.633778863232504e6 0.0
3.633778863232504e6 -1.648907829060514e6 0.0
0.0 0.0 0.0

1.1817505809615052e6 161388.168763608 0.0
161388.168763608 -1.6365257294980017e6 0.0
0.0 0.0 0.0

-91573.2314423006 716211.5277550953 0.0
716211.5277550953 -704840.9969939841 0.0
0.0 0.0 0.0

-1.363771290762072e6 3.380098120145465e6 0.0
3.380098120145465e6 413207.25473083154 0.0
0.0 0.0 0.0

-35170.94174696627 935146.3524148641 0.0
935146.3524148641 -1.585662524833652e6 0.0
0.0 0.0 0.0

-185458.62390390522 1.4434052845642243e6 0.0
1.4434052845642243e6 -137915.5982629027 0.0
0.0 0.0 0.0

829683.9548361587 1.474686413124113e6 0.0
1.474686413124113e6 -1.5599998962656534e6 0.0
0.0 0.0 0.0

-716559.6602252126 2.1330447680019215e6 0.0
2.1330447680019215e6 -135809.95142593945 0.0
0.0 0.0 0.0

701422.7489046813 573620.052918271 0.0
573620.052918271 -1.1516455501078714e6 0.0
0.0 0.0 0.0

-1.536767425958562e6 3.2794981629680037e6 0.0
3.2794981629680037e6 565700.3372469709 0.0
0.0 0.0 0.0

1.0726424634921267e6 2.378586737946869e6 0.0
2.378586737946869e6 -2.2067965467058406e6 0.0
0.0 0.0 0.0

-792899.7598517466 2.251140368661328e6 0.0
2.251140368661328e6 -54787.05381513134 0.0
0.0 0.0 0.0

613242.9560572515 1.886376555804238e6 0.0
1.886376555804238e6 -1.181003105720881e6 0.0
0.0 0.0 0.0

336504.99332124996 795644.591157426 0.0
795644.591157426 -103257.96651619222 0.0
0.0 0.0 0.0

758654.7570523389 1.7525520208995242e6 0.0
1.7525520208995242e6 -1.3730492732147481e6 0.0
0.0 0.0 0.0

-1.043606468830236e6 3.028696095918542e6 0.0
3.028696095918542e6 78057.50841991731 0.0
0.0 0.0 0.0

-1.2913542162765127e6 3.69074648755761e6 0.0
3.69074648755761e6 283924.3596059761 0.0
0.0 0.0 0.0

-211112.75628399855 3.3314487785342257e6 0.0
3.3314487785342257e6 -1.07589608014426e6 0.0
0.0 0.0 0.0

-403163.68542118126 889863.2171367793 0.0
889863.2171367793 -357086.9586848608 0.0
0.0 0.0 0.0

-1.3571624552948955e6 3.8960864210821153e6 0.0
3.8960864210821153e6 746157.3234196976 0.0
0.0 0.0 0.0

-983053.8494821425 2.9153080837005135e6 0.0
2.9153080837005135e6 252744.09832742164 0.0
0.0 0.0 0.0

181571.5633823629 516696.39815063553 0.0
516696.39815063553 -446428.55508175417 0.0
0.0 0.0 0.0

-616645.4447765233 4.1061588393096584e6 0.0
4.1061588393096584e6 -155179.34402975786 0.0
0.0 0.0 0.0

233521.78018336568 608637.0763679371 0.0
608637.0763679371 -964758.4514943887 0.0
0.0 0.0 0.0

-430376.73769360257 2.133749537790591e6 0.0
2.133749537790591e6 411923.700964621 0.0
0.0 0.0 0.0

-1.0444700430787457e6 -37156.03948676081 0.0
-37156.03948676081 2.024424977074645e6 0.0
0.0 0.0 0.0

-529999.1990753155 3.0214101463586027e6 0.0
3.0214101463586027e6 -275667.7590120657 0.0
0.0 0.0 0.0

-374945.45786925685 3.7136892038493776e6 0.0
3.7136892038493776e6 -543595.2079545277 0.0
0.0 0.0 0.0

-973081.5906817622 2.0826205393007053e6 0.0
2.0826205393007053e6 306475.56128884456 0.0
0.0 0.0 0.0

-1.0581921747673498e6 2.147686403851245e6 0.0
2.147686403851245e6 -56273.57639033103 0.0
0.0 0.0 0.0

197396.43623743916 4.5908458226325195e6 0.0
4.5908458226325195e6 -1.1703936293961173e6 0.0
0.0 0.0 0.0

976194.2753031198 2.7588270482995776e6 0.0
2.7588270482995776e6 -2.16082022540598e6 0.0
0.0 0.0 0.0

-76344.13948700846 2.0003578496761885e6 0.0
2.0003578496761885e6 -481418.44332313014 0.0
0.0 0.0 0.0

-1.318174709821851e6 3.1736884864992932e6 0.0
3.1736884864992932e6 383453.1664377405 0.0
0.0 0.0 0.0

-170316.55362257845 -233736.26603414197 0.0
-233736.26603414197 35562.705406163215 0.0
0.0 0.0 0.0

-734871.5541569911 2.872627762278859e6 0.0
2.872627762278859e6 -94552.9338193535 0.0
0.0 0.0 0.0

-582775.198393141 3.176017312164906e6 0.0
3.176017312164906e6 -422849.07440604473 0.0
0.0 0.0 0.0

1.0379461153002547e6 1.9891979236218617e6 0.0
1.9891979236218617e6 249325.30517528678 0.0
0.0 0.0 0.0

-416198.1331797259 859551.7836326467 0.0
859551.7836326467 138898.41598323444 0.0
0.0 0.0 0.0

50759.31186386576 2.869835737614825e6 0.0
2.869835737614825e6 -692281.0024331923 0.0
0.0 0.0 0.0

-162452.32839655675 3.819032298887864e6 0.0
3.819032298887864e6 -1.211215206733568e6 0.0
0.0 0.0 0.0

-788827.9469146407 2.0994978883534567e6 0.0
2.0994978883534567e6 8865.072329990799 0.0
0.0 0.0 0.0

-558133.1168259055 2.3585102567851893e6 0.0
2.3585102567851893e6 -336096.3579689474 0.0
0.0 0.0 0.0

-770221.7190370609 650272.6667052796 0.0
650272.6667052796 1.992072531229194e6 0.0
0.0 0.0 0.0

-70841.12415601578 1.581220505785938e6 0.0
1.581220505785938e6 -539300.063256554 0.0
0.0 0.0 0.0

-1.1641893487759028e6 2.141315099305964e6 0.0
2.141315099305964e6 62539.63094824122 0.0
0.0 0.0 0.0

-1.4268545290754484e6 2.6681902869088924e6 0.0
2.6681902869088924e6 492356.3898618333 0.0
0.0 0.0 0.0

-1.1550184367959253e6 2.8835177734484053e6 0.0
2.8835177734484053e6 1.0399199220911983e6 0.0
0.0 0.0 0.0

-2.165567572487917e6 3.616753013545354e6 0.0
3.616753013545354e6 1.294270777949993e6 0.0
0.0 0.0 0.0

354462.9370542014 3.77213629668293e6 0.0
3.77213629668293e6 -1.6452856161360783e6 0.0
0.0 0.0 0.0

-2.3799681674628914e6 3.226674601640995e6 0.0
3.226674601640995e6 807665.4442618046 0.0
0.0 0.0 0.0

-557008.7203990052 3.1561394643540964e6 0.0
3.1561394643540964e6 -243407.2662742827 0.0
0.0 0.0 0.0

-1.6320209943349438e6 4.699720850964442e6 0.0
4.699720850964442e6 532720.8301587751 0.0
0.0 0.0 0.0

-163805.19783728814 4.25191876876283e6 0.0
4.25191876876283e6 -471807.46196864534 0.0
0.0 0.0 0.0

-254412.06132884583 3.285867735257482e6 0.0
3.285867735257482e6 -970238.4951156267 0.0
0.0 0.0 0.0

-781895.8195866895 3.831980109739992e6 0.0
3.831980109739992e6 470042.739702315 0.0
0.0 0.0 0.0

-979625.4830867667 3.158194085017147e6 0.0
3.158194085017147e6 224384.27750410477 0.0
0.0 0.0 0.0

-821700.0470130957 2.550285678059068e6 0.0
2.550285678059068e6 -5077.526622548758 0.0
0.0 0.0 0.0

-1.270928967692159e6 2.1632036195468176e6 0.0
2.1632036195468176e6 185462.68209214538 0.0
0.0 0.0 0.0

-175215.72303207533 3.24080703672951e6 0.0
3.24080703672951e6 -1.106525802692504e6 0.0
0.0 0.0 0.0

-1.371872189626012e6 2.3774516156336e6 0.0
2.3774516156336e6 458763.7965961609 0.0
0.0 0.0 0.0

-1.5774285519258897e6 3.000420908616686e6 0.0
3.000420908616686e6 607300.563095024 0.0
0.0 0.0 0.0

-2.1031544885982946e6 3.604066113347669e6 0.0
3.604066113347669e6 1.2375310689742696e6 0.0
0.0 0.0 0.0

208160.8371321336 369516.81450203166 0.0
369516.81450203166 -225638.19463150942 0.0
0.0 0.0 0.0

-925269.4636325565 1.1153195609883482e6 0.0
1.1153195609883482e6 -263616.3613431475 0.0
0.0 0.0 0.0

-2.2457655339336563e6 3.567726448623221e6 0.0
3.567726448623221e6 1.311425054854848e6 0.0
0.0 0.0 0.0

-784546.4873228777 3.0375511466778805e6 0.0
3.0375511466778805e6 85835.32595082826 0.0
0.0 0.0 0.0

-3.330046343857033e6 -1.1934909721859777e6 0.0
-1.1934909721859777e6 3.3337521327917688e6 0.0
0.0 0.0 0.0

-161869.05380291876 3.1457956629187725e6 0.0
3.1457956629187725e6 -1.2292023446989486e6 0.0
0.0 0.0 0.0

-541689.0762081591 2.9633322419305057e6 0.0
2.9633322419305057e6 -77109.97391613536 0.0
0.0 0.0 0.0

-1.8336713469814323e6 3.3432327789533003e6 0.0
3.3432327789533003e6 1.1962462139004995e6 0.0
0.0 0.0 0.0

-641955.33375953 2.879659783711275e6 0.0
2.879659783711275e6 -923.4105682330555 0.0
0.0 0.0 0.0

-475611.21547248366 3.783191557168873e6 0.0
3.783191557168873e6 -396751.9425523032 0.0
0.0 0.0 0.0

-1.0279909795335467e6 2.72810960041887e6 0.0
2.72810960041887e6 262329.9561406977 0.0
0.0 0.0 0.0

-562277.5235495826 3.1296518853139775e6 0.0
3.1296518853139775e6 -295600.22684071475 0.0
0.0 0.0 0.0

56912.501513441064 1.2381064020694739e6 0.0
1.2381064020694739e6 110447.45351605053 0.0
0.0 0.0 0.0

-1.3811039961194345e6 2.552963130651487e6 0.0
2.552963130651487e6 830525.4482276014 0.0
0.0 0.0 0.0

562339.1500181226 128840.5545405314 0.0
128840.5545405314 -745137.9102322512 0.0
0.0 0.0 0.0

-1.5168613654054822e6 2.8327772260832437e6 0.0
2.8327772260832437e6 694860.0781373834 0.0
0.0 0.0 0.0

-1.061425898990273e6 2.9098911009848425e6 0.0
2.9098911009848425e6 -8076.532113067107 0.0
0.0 0.0 0.0

-660217.6268877775 3.1580238460878315e6 0.0
3.1580238460878315e6 -484.7653955394635 0.0
0.0 0.0 0.0

-1.4178955969012098e6 3.1895294421242108e6 0.0
3.1895294421242108e6 642705.6266345395 0.0
0.0 0.0 0.0

476960.65780785447 266423.3277585661 0.0
266423.3277585661 -474908.9626568883 0.0
0.0 0.0 0.0

514474.35567761963 -8185.203992492532 0.0
-8185.203992492532 -898524.0001203084 0.0
0.0 0.0 0.0

163774.01404432277 74749.87799498283 0.0
74749.87799498283 25681.07986863047 0.0
0.0 0.0 0.0

390995.95549674286 199948.38464014037 0.0
199948.38464014037 -484039.3438629166 0.0
0.0 0.0 0.0

-413813.3619020798 3.4185792066757344e6 0.0
3.4185792066757344e6 346555.6595390575 0.0
0.0 0.0 0.0

-1.4784002445524991e6 2.758975817935711e6 0.0
2.758975817935711e6 553177.7276295642 0.0
0.0 0.0 0.0

-949277.8556308289 1.0202962431999817e6 0.0
1.0202962431999817e6 -92027.88317958318 0.0
0.0 0.0 0.0

9800.790959738355 -16191.397423702989 0.0
-16191.397423702989 210356.42368478625 0.0
0.0 0.0 0.0

-1.758695607690276e6 3.3634956113353088e6 0.0
3.3634956113353088e6 1.1811527356193797e6 0.0
0.0 0.0 0.0

-955241.908074397 3.2354793455185764e6 0.0
3.2354793455185764e6 96261.74714930588 0.0
0.0 0.0 0.0

-307184.59562018164 1.903659146602815e6 0.0
1.903659146602815e6 300977.42599204794 0.0
0.0 0.0 0.0

-1.4748124877642123e6 2.676067990744253e6 0.0
2.676067990744253e6 607651.9623394703 0.0
0.0 0.0 0.0

-6814.680342045089 3.964158672112908e6 0.0
3.964158672112908e6 -1.4973938174110795e6 0.0
0.0 0.0 0.0

-820651.2317813421 2.9881080127828713e6 0.0
2.9881080127828713e6 -21730.68302445623 0.0
0.0 0.0 0.0

-504777.1811243944 3.1671146884980816e6 0.0
3.1671146884980816e6 -423115.10452459776 0.0
0.0 0.0 0.0

-4.895563958402832e6 1.946253549097732e6 0.0
1.946253549097732e6 1.247945731336658e7 0.0
0.0 0.0 0.0

-651751.0207590158 2.6852053115489436e6 0.0
2.6852053115489436e6 846003.2233705705 0.0
0.0 0.0 0.0

239430.61004182854 2.0089811289238725e6 0.0
2.0089811289238725e6 -1.392177413964077e6 0.0
0.0 0.0 0.0

61781.83511755534 3.3766442597271358e6 0.0
3.3766442597271358e6 -1.4857910870398297e6 0.0
0.0 0.0 0.0

-1.4832939727885504e6 3.24183553423955e6 0.0
3.24183553423955e6 721502.3724708678 0.0
0.0 0.0 0.0

-779359.7734104487 3.469812994551656e6 0.0
3.469812994551656e6 -184406.56016528007 0.0
0.0 0.0 0.0

-1.7053800853321096e6 3.175859814048027e6 0.0
3.175859814048027e6 536661.1437244618 0.0
0.0 0.0 0.0

-2.0225008501390356e6 3.5354825630919063e6 0.0
3.5354825630919063e6 1.1973698879190711e6 0.0
0.0 0.0 0.0

-304498.70769522776 3.276273997438339e6 0.0
3.276273997438339e6 -850121.8439455277 0.0
0.0 0.0 0.0

-1.447641857580061e6 3.1205972043008544e6 0.0
3.1205972043008544e6 772438.0298180009 0.0
0.0 0.0 0.0

-762843.8994574726 2.935240544516314e6 0.0
2.935240544516314e6 69971.79500661616 0.0
0.0 0.0 0.0

250129.58416294275 481892.8110399681 0.0
481892.8110399681 -639490.6090830596 0.0
0.0 0.0 0.0

970383.1158686297 51025.52491518748 0.0
51025.52491518748 -1.5982952694798354e6 0.0
0.0 0.0 0.0

-1.4835425916907585e6 2.9848747325209216e6 0.0
2.9848747325209216e6 792360.1922137653 0.0
0.0 0.0 0.0

320850.6723568978 1.7325160775628446e6 0.0
1.7325160775628446e6 -1.169724414954804e6 0.0
0.0 0.0 0.0

-1.416962804998253e6 3.1317026811801367e6 0.0
3.1317026811801367e6 306080.6641436731 0.0
0.0 0.0 0.0

-195725.85329932248 1.872475036745935e6 0.0
1.872475036745935e6 313725.4071218224 0.0
0.0 0.0 0.0

-2.2068840550861945e6 4.31110529016474e6 0.0
4.31110529016474e6 1.3004179461368124e6 0.0
0.0 0.0 0.0

-5.21214177174175e6 -1.120341891579037e6 0.0
-1.120341891579037e6 2.720826936328494e6 0.0
0.0 0.0 0.0

-272455.33021398564 1.695049386832089e6 0.0
1.695049386832089e6 234271.72536395644 0.0
0.0 0.0 0.0

-11229.54146712186 4.368442990055877e6 0.0
4.368442990055877e6 -1.4098396059126952e6 0.0
0.0 0.0 0.0

-491289.73917796207 3.5571803007160495e6 0.0
3.5571803007160495e6 -438893.04318619415 0.0
0.0 0.0 0.0

-773898.7311177152 1.8584034852919169e6 0.0
1.8584034852919169e6 62975.061072816985 0.0
0.0 0.0 0.0

-326557.52098241035 3.168732599400597e6 0.0
3.168732599400597e6 -771622.0308988245 0.0
0.0 0.0 0.0

-409698.7309209014 1.5711976394561406e6 0.0
1.5711976394561406e6 218166.6123204994 0.0
0.0 0.0 0.0

651104.8448480666 1.5734838880118967e6 0.0
1.5734838880118967e6 -1.244933811006175e6 0.0
0.0 0.0 0.0

-2.1903228016110724e6 3.522770381282131e6 0.0
3.522770381282131e6 1.239496219321313e6 0.0
0.0 0.0 0.0

-45921.64082318876 836717.9930461465 0.0
836717.9930461465 -584792.4790169182 0.0
0.0 0.0 0.0

-616641.2586845715 986599.0775033374 0.0
986599.0775033374 -698973.3257302055 0.0
0.0 0.0 0.0

-2.3684007324081482e6 4.373520268705044e6 0.0
4.373520268705044e6 1.4172848519986696e6 0.0
0.0 0.0 0.0

-351086.25578238495 3.732646784983491e6 0.0
3.732646784983491e6 -504942.7554767848 0.0
0.0 0.0 0.0

-934917.0550955033 3.466698676891411e6 0.0
3.466698676891411e6 236979.61792258843 0.0
0.0 0.0 0.0

968080.252714326 3.5901172457559463e6 0.0
3.5901172457559463e6 -1.5662011516102722e6 0.0
0.0 0.0 0.0

-412156.5078597389 1.342644315538119e6 0.0
1.342644315538119e6 1.1621275538547921e6 0.0
0.0 0.0 0.0

-2.1030674365445413e6 3.1689057818403984e6 0.0
3.1689057818403984e6 1.0110255131595732e6 0.0
0.0 0.0 0.0

109813.58184363373 861669.2408283405 0.0
861669.2408283405 -1.095779090453527e6 0.0
0.0 0.0 0.0

-487049.92703913694 1.159284894734482e6 0.0
1.159284894734482e6 63388.75315644231 0.0
0.0 0.0 0.0

-986828.5057158332 956321.74516775 0.0
956321.74516775 111459.16868720768 0.0
0.0 0.0 0.0

-1.87799091444858e6 3.2923517670489578e6 0.0
3.2923517670489578e6 367497.74387878366 0.0
0.0 0.0 0.0

421119.58327815967 198334.25339179023 0.0
198334.25339179023 -543598.570120351 0.0
0.0 0.0 0.0

-204003.09389473498 2.331978326826383e6 0.0
2.331978326826383e6 -18532.22328018336 0.0
0.0 0.0 0.0

-1.9813023904103008e6 3.5455693950299877e6 0.0
3.5455693950299877e6 1.331358949908596e6 0.0
0.0 0.0 0.0

-504569.21918268263 2.284484283124186e6 0.0
2.284484283124186e6 -436244.75509285636 0.0
0.0 0.0 0.0

-505219.6031971999 3.657254449689109e6 0.0
3.657254449689109e6 -3204.8223435293476 0.0
0.0 0.0 0.0

-1.4292376391140695e6 3.265518442606045e6 0.0
3.265518442606045e6 672569.2507079974 0.0
0.0 0.0 0.0

-868267.7242360765 2.2390492892486476e6 0.0
2.2390492892486476e6 83873.75540849735 0.0
0.0 0.0 0.0

-60616.335405775695 3.5647581785025857e6 0.0
3.5647581785025857e6 -1.4162019231890102e6 0.0
0.0 0.0 0.0

-1.0531427193788358e6 3.7610775644606254e6 0.0
3.7610775644606254e6 391016.98610081646 0.0
0.0 0.0 0.0

212921.1250483864 4.68142527490661e6 0.0
4.68142527490661e6 -1.2785780179415217e6 0.0
0.0 0.0 0.0

305007.13181479124 461793.9264430618 0.0
461793.9264430618 -707172.1259131783 0.0
0.0 0.0 0.0

14192.11596940225 6.278572153347654e6 0.0
6.278572153347654e6 6.607818728677962e6 0.0
0.0 0.0 0.0

-1.5037263074575576e6 3.4106228258959483e6 0.0
3.4106228258959483e6 284055.1873229727 0.0
0.0 0.0 0.0

-1.513241927764832e6 3.152261378127239e6 0.0
3.152261378127239e6 754570.0847992041 0.0
0.0 0.0 0.0

-577074.692911264 3.9084760344784036e6 0.0
3.9084760344784036e6 -295041.00187372137 0.0
0.0 0.0 0.0

-1.8160218994915043e6 3.4971660944552054e6 0.0
3.4971660944552054e6 1.2491966642170497e6 0.0
0.0 0.0 0.0

355031.73964365915 1.4006560120415979e6 0.0
1.4006560120415979e6 -451580.07348964654 0.0
0.0 0.0 0.0

-345785.38854789676 3.3052318586519156e6 0.0
3.3052318586519156e6 -732429.8473366983 0.0
0.0 0.0 0.0

-234377.61215148005 3.02279356520643e6 0.0
3.02279356520643e6 -950216.9176626315 0.0
0.0 0.0 0.0

-315521.29954421415 2.9675892428794615e6 0.0
2.9675892428794615e6 -804265.3147549792 0.0
0.0 0.0 0.0

-1.3858017598430128e6 2.405951158078877e6 0.0
2.405951158078877e6 409851.02877021855 0.0
0.0 0.0 0.0

-600059.713291161 5.266872035884156e6 0.0
5.266872035884156e6 150439.29218608665 0.0
0.0 0.0 0.0

-416447.3298075657 1.2733909684262895e6 0.0
1.2733909684262895e6 -250299.06094391685 0.0
0.0 0.0 0.0

905064.2509647987 391740.8980279096 0.0
391740.8980279096 -832181.6536892734 0.0
0.0 0.0 0.0

-167364.59882773674 3.147595139787155e6 0.0
3.147595139787155e6 -1.1235485006904656e6 0.0
0.0 0.0 0.0

988626.9348377564 2.4636371059015966e6 0.0
2.4636371059015966e6 -2.1543069038615623e6 0.0
0.0 0.0 0.0

628640.2131319572 693381.729914883 0.0
693381.729914883 -1.0729301652031746e6 0.0
0.0 0.0 0.0

-1.359517519139166e6 2.9911880728075923e6 0.0
2.9911880728075923e6 462651.185041497 0.0
0.0 0.0 0.0

918215.5036533871 1.631036542050545e6 0.0
1.631036542050545e6 -1.5909857168569155e6 0.0
0.0 0.0 0.0

-130221.56597933843 -10577.150155215713 0.0
-10577.150155215713 -509100.78321739985 0.0
0.0 0.0 0.0

-1.3042790702680158e6 2.5681533124520276e6 0.0
2.5681533124520276e6 666063.9848371965 0.0
0.0 0.0 0.0

-1.4705393356591773e6 575491.6946644724 0.0
575491.6946644724 3.2426667533638896e6 0.0
0.0 0.0 0.0

-994263.040776779 3.238790971689414e6 0.0
3.238790971689414e6 313657.41172576824 0.0
0.0 0.0 0.0

66458.8382362797 1.9609571354467236e6 0.0
1.9609571354467236e6 -31536.96810817725 0.0
0.0 0.0 0.0

-730239.7374468106 2.5604784116359367e6 0.0
2.5604784116359367e6 667709.1212584844 0.0
0.0 0.0 0.0

811304.2568599362 1.0069904922075778e6 0.0
1.0069904922075778e6 -1.548751017857859e6 0.0
0.0 0.0 0.0

-91710.00271817186 3.2792783142543756e6 0.0
3.2792783142543756e6 -1.3057639022139884e6 0.0
0.0 0.0 0.0

-7.367369305014988e6 2.827974919257671e6 0.0
2.827974919257671e6 2.815628929282318e6 0.0
0.0 0.0 0.0

-399692.8188108551 3.137994800068571e6 0.0
3.137994800068571e6 -220435.914413394 0.0
0.0 0.0 0.0

423285.0944078708 410330.8419864193 0.0
410330.8419864193 -814960.6076408405 0.0
0.0 0.0 0.0

-540776.2554927671 3.1194650561163244e6 0.0
3.1194650561163244e6 -497807.2263463767 0.0
0.0 0.0 0.0

-372480.69355476426 2.9053353904098673e6 0.0
2.9053353904098673e6 -698801.7030060271 0.0
0.0 0.0 0.0

-198947.84384534985 51208.26078952139 0.0
51208.26078952139 240493.51299667472 0.0
0.0 0.0 0.0

-121338.60660713702 55886.357629768994 0.0
55886.357629768994 774530.8022709275 0.0
0.0 0.0 0.0

-1.659383623497837e6 3.2811944560998203e6 0.0
3.2811944560998203e6 363993.8573758146 0.0
0.0 0.0 0.0

-552709.8303953649 3.102690412880248e6 0.0
3.102690412880248e6 -86075.1208584997 0.0
0.0 0.0 0.0

-2.0157758219042206e6 3.2224129699781165e6 0.0
3.2224129699781165e6 700105.0023995552 0.0
0.0 0.0 0.0

458879.7341634237 2.0419496254533278e6 0.0
2.0419496254533278e6 -1.1590417644800832e6 0.0
0.0 0.0 0.0

-914611.1472379707 2.970497631311868e6 0.0
2.970497631311868e6 171977.07854264835 0.0
0.0 0.0 0.0

-57940.1076652786 379450.2478891234 0.0
379450.2478891234 195043.8241498248 0.0
0.0 0.0 0.0

-5.9250921732652e6 -868581.0678423108 0.0
-868581.0678423108 3.0494071408541617e6 0.0
0.0 0.0 0.0

-1.4783163718282303e6 2.988795670701243e6 0.0
2.988795670701243e6 532877.5730860847 0.0
0.0 0.0 0.0

-816200.0905850211 2.7979299571307786e6 0.0
2.7979299571307786e6 582425.8650773384 0.0
0.0 0.0 0.0

-1.592705976365578e6 3.8131571526328255e6 0.0
3.8131571526328255e6 619088.6952137582 0.0
0.0 0.0 0.0

-11769.225658790252 122476.1163403789 0.0
122476.1163403789 -369365.2020688523 0.0
0.0 0.0 0.0

-508668.1954421943 3.3108426920240754e6 0.0
3.3108426920240754e6 -264017.2052777178 0.0
0.0 0.0 0.0

-1.5260065438017005e6 5.357681446995107e6 0.0
5.357681446995107e6 -349525.02821668866 0.0
0.0 0.0 0.0

-1.3071851386496814e6 5.092642354278645e6 0.0
5.092642354278645e6 -85528.54993559176 0.0
0.0 0.0 0.0

1.0923660202156533e6 187128.4767654513 0.0
187128.4767654513 -1.5959676603153003e6 0.0
0.0 0.0 0.0

-942796.5479693118 3.0012791277550026e6 0.0
3.0012791277550026e6 490741.6394624388 0.0
0.0 0.0 0.0

-1.2450103716463505e6 2.640955254346845e6 0.0
2.640955254346845e6 536194.36698324 0.0
0.0 0.0 0.0

1.0939286522640612e6 2.4010382223906587e6 0.0
2.4010382223906587e6 -2.154071597695102e6 0.0
0.0 0.0 0.0

-519485.48641012923 -559513.4308896869 0.0
-559513.4308896869 547994.6272278896 0.0
0.0 0.0 0.0

-114826.74173965643 1.0072327229366759e6 0.0
1.0072327229366759e6 -792315.9575042274 0.0
0.0 0.0 0.0

1.013393444234262e6 1.9021224969784045e6 0.0
1.9021224969784045e6 -1.7276170280740696e6 0.0
0.0 0.0 0.0

-316129.46303377434 3.5672670373919625e6 0.0
3.5672670373919625e6 -820431.3439351269 0.0
0.0 0.0 0.0

359203.9737254183 4.114589161985715e6 0.0
4.114589161985715e6 -1.7497401463022325e6 0.0
0.0 0.0 0.0

-2.40678634873146e6 5.071985861944786e6 0.0
5.071985861944786e6 1.3375317459438608e6 0.0
0.0 0.0 0.0

-1.222442877824529e6 1.5324990805250732e6 0.0
1.5324990805250732e6 4.203987856991763e6 0.0
0.0 0.0 0.0

-300313.4621431674 -586238.3450127995 0.0
-586238.3450127995 308520.94662592805 0.0
0.0 0.0 0.0

-1.291105522124145e6 2.730757092429764e6 0.0
2.730757092429764e6 591450.7649196847 0.0
0.0 0.0 0.0

988845.7891351475 2.29102884158528e6 0.0
2.29102884158528e6 -2.108351605410776e6 0.0
0.0 0.0 0.0

-1.5525024978081102e6 3.2266218097844883e6 0.0
3.2266218097844883e6 453903.05274821946 0.0
0.0 0.0 0.0

-1.2437754366655308e6 3.012483733041924e6 0.0
3.012483733041924e6 340434.968176659 0.0
0.0 0.0 0.0

321958.3889925017 448338.11484099465 0.0
448338.11484099465 1211.8938528676663 0.0
0.0 0.0 0.0

-1.0265087202433483e6 3.900146427080312e6 0.0
3.900146427080312e6 364103.7084951256 0.0
0.0 0.0 0.0

-320412.90944616566 3.6302458345965603e6 0.0
3.6302458345965603e6 -696245.7196159756 0.0
0.0 0.0 0.0

-2.0737326398206134e6 3.584979188650054e6 0.0
3.584979188650054e6 1.3436361903860997e6 0.0
0.0 0.0 0.0

1.177904528934271e6 2.0245421096797928e6 0.0
2.0245421096797928e6 -2.008800989652619e6 0.0
0.0 0.0 0.0

-1.1448364619235e6 3.01101267179982e6 0.0
3.01101267179982e6 303825.5823323685 0.0
0.0 0.0 0.0

-703186.0155874443 1.9147252874767405e6 0.0
1.9147252874767405e6 -74730.96490303928 0.0
0.0 0.0 0.0

-649750.1292794383 2.3857575517793335e6 0.0
2.3857575517793335e6 -21862.843185341975 0.0
0.0 0.0 0.0

-1.4162833470241036e6 2.826457735743133e6 0.0
2.826457735743133e6 832773.2876280298 0.0
0.0 0.0 0.0

757787.3122869977 511214.6192521722 0.0
511214.6192521722 -1.0564203991329954e6 0.0
0.0 0.0 0.0

-405976.54973843426 3.597236741127662e6 0.0
3.597236741127662e6 -746659.2434286032 0.0
0.0 0.0 0.0

66043.48263973734 492319.30950148974 0.0
492319.30950148974 -43330.60700318745 0.0
0.0 0.0 0.0

-966409.8178836895 2.2519540477538314e6 0.0
2.2519540477538314e6 232460.00255633052 0.0
0.0 0.0 0.0

117224.85657290887 1.0592268554245387e6 0.0
1.0592268554245387e6 -570654.2022820292 0.0
0.0 0.0 0.0

-1.6901329182918142e6 3.2133776197349676e6 0.0
3.2133776197349676e6 357405.50337305956 0.0
0.0 0.0 0.0

-1.5491658335269717e6 3.386500455910307e6 0.0
3.386500455910307e6 925439.2120716993 0.0
0.0 0.0 0.0

-259764.09486980725 3.0945906813529315e6 0.0
3.0945906813529315e6 -960284.8403586551 0.0
0.0 0.0 0.0

-257048.1054573118 1.152449057500977e6 0.0
1.152449057500977e6 -558879.8837023486 0.0
0.0 0.0 0.0

-1.7001810926349547e6 3.034759892433832e6 0.0
3.034759892433832e6 589790.5971544823 0.0
0.0 0.0 0.0

-857896.0927762967 2.206098529341493e6 0.0
2.206098529341493e6 849506.2911986446 0.0
0.0 0.0 0.0

-1.9390238257055292e6 3.377923453375366e6 0.0
3.377923453375366e6 2.3867882341826484e6 0.0
0.0 0.0 0.0

850595.7232625029 2.5444857881845254e6 0.0
2.5444857881845254e6 -2.09100113559834e6 0.0
0.0 0.0 0.0

-936667.2427831572 2.957159656855541e6 0.0
2.957159656855541e6 100679.11433216027 0.0
0.0 0.0 0.0

-1.3973415232699648e6 3.0319481084413263e6 0.0
3.0319481084413263e6 324976.1422031886 0.0
0.0 0.0 0.0

454373.2643406397 850114.2743885856 0.0
850114.2743885856 -960997.7971093846 0.0
0.0 0.0 0.0

-2.3546007027221303e6 5.2153432540038e6 0.0
5.2153432540038e6 1.3531550593588527e6 0.0
0.0 0.0 0.0

-1.0720251707971778e6 2.1149633606009693e6 0.0
2.1149633606009693e6 457528.43991951057 0.0
0.0 0.0 0.0

-583415.2160834442 2.672730175362952e6 0.0
2.672730175362952e6 -69787.62092996799 0.0
0.0 0.0 0.0

-179669.7021175465 847374.2306113606 0.0
847374.2306113606 -490998.5262180102 0.0
0.0 0.0 0.0

-11104.169956350335 1.8868521495342678e6 0.0
1.8868521495342678e6 114666.43231633496 0.0
0.0 0.0 0.0

-1.8659379607764636e6 3.056501214371985e6 0.0
3.056501214371985e6 743801.2715869901 0.0
0.0 0.0 0.0

-1.9274239865964334e6 3.107027768927605e6 0.0
3.107027768927605e6 765783.6641996243 0.0
0.0 0.0 0.0

-1.0595141487323083e6 2.2845666696660686e6 0.0
2.2845666696660686e6 374676.38961842435 0.0
0.0 0.0 0.0

-392348.2090003737 3.6996022642905423e6 0.0
3.6996022642905423e6 -512923.23824646196 0.0
0.0 0.0 0.0

-780933.2872375306 5.192887028418099e6 0.0
5.192887028418099e6 267622.47431898484 0.0
0.0 0.0 0.0

-733658.5310064878 4.130006962788388e6 0.0
4.130006962788388e6 -214954.3729719682 0.0
0.0 0.0 0.0

-545131.5449664727 2.4788665471019354e6 0.0
2.4788665471019354e6 -632993.0223904053 0.0
0.0 0.0 0.0

-718173.1246373886 1.434306371363152e6 0.0
1.434306371363152e6 232962.18022076943 0.0
0.0 0.0 0.0

86091.87856823672 790771.7067841575 0.0
790771.7067841575 180982.50921967602 0.0
0.0 0.0 0.0

-554082.1798439865 3.9294918707163706e6 0.0
3.9294918707163706e6 -412120.50819634495 0.0
0.0 0.0 0.0

-735019.4404924384 4.005854417280217e6 0.0
4.005854417280217e6 -275676.9449340205 0.0
0.0 0.0 0.0

-1.1734220572278067e6 3.0025099650264997e6 0.0
3.0025099650264997e6 209863.06481870485 0.0
0.0 0.0 0.0

-69981.33963793007 204414.50967929448 0.0
204414.50967929448 33717.62359607834 0.0
0.0 0.0 0.0

-1.7061311080127486e6 3.133475342232538e6 0.0
3.133475342232538e6 325259.0373967909 0.0
0.0 0.0 0.0

-1.6774094524165762e6 3.034635107278683e6 0.0
3.034635107278683e6 665830.167098943 0.0
0.0 0.0 0.0

-351659.6379654246 3.647641075184705e6 0.0
3.647641075184705e6 -649535.7083549356 0.0
0.0 0.0 0.0

-178436.2514215763 4.260457050474928e6 0.0
4.260457050474928e6 -594787.5277429003 0.0
0.0 0.0 0.0

-780589.3258556761 2.8957456093344945e6 0.0
2.8957456093344945e6 21286.705117709615 0.0
0.0 0.0 0.0

-491102.0025343823 2.6394167218118487e6 0.0
2.6394167218118487e6 -43773.65138094242 0.0
0.0 0.0 0.0

1.2487521295265083e6 170565.36847992145 0.0
170565.36847992145 -1.4155373116977932e6 0.0
0.0 0.0 0.0

-2.0234366906946374e6 3.680972686204839e6 0.0
3.680972686204839e6 1.3566348960445174e6 0.0
0.0 0.0 0.0

-492723.4429662891 3.0454566543795723e6 0.0
3.0454566543795723e6 -529600.734641873 0.0
0.0 0.0 0.0

886066.0313716027 1.5684302901916506e6 0.0
1.5684302901916506e6 -1.4590095817395863e6 0.0
0.0 0.0 0.0

-1.9523716236497127e6 3.409940086130326e6 0.0
3.409940086130326e6 1.1141388625015093e6 0.0
0.0 0.0 0.0

-1.2742705430503981e6 3.0554724405926946e6 0.0
3.0554724405926946e6 235303.8978826063 0.0
0.0 0.0 0.0

171808.31281099768 573755.2354523748 0.0
573755.2354523748 -601059.0399458308 0.0
0.0 0.0 0.0

-336054.4354048282 1.664105419021031e6 0.0
1.664105419021031e6 -1.0079438755490755e6 0.0
0.0 0.0 0.0

-5.7842156738533005e6 3.3723035006438545e6 0.0
3.3723035006438545e6 2.4753279364114217e6 0.0
0.0 0.0 0.0

1.0513848425649966e6 2.989309990318322e6 0.0
2.989309990318322e6 -1.545480480416991e6 0.0
0.0 0.0 0.0

906129.9994391233 1.6964013889645997e6 0.0
1.6964013889645997e6 -1.6196040088287715e6 0.0
0.0 0.0 0.0

-125142.13695441108 2.7930476762855616e6 0.0
2.7930476762855616e6 -984162.3394036518 0.0
0.0 0.0 0.0

-698534.8384985364 4.0504886851541423e6 0.0
4.0504886851541423e6 -253558.7471607318 0.0
0.0 0.0 0.0

-172270.60134294472 3.1365941037208964e6 0.0
3.1365941037208964e6 -1.2449679117687722e6 0.0
0.0 0.0 0.0

-715073.248647783 1.3399790443781284e6 0.0
1.3399790443781284e6 372019.78149844066 0.0
0.0 0.0 0.0

-581411.8471393998 2.1350260819966025e6 0.0
2.1350260819966025e6 -92242.88778943276 0.0
0.0 0.0 0.0

35776.18432469494 4.207060528541893e6 0.0
4.207060528541893e6 -614800.1087931654 0.0
0.0 0.0 0.0

-1.0972524323976177e6 1.553486071403771e6 0.0
1.553486071403771e6 3.63052632277037e6 0.0
0.0 0.0 0.0

-1.3147514399400593e6 3.1079140598102533e6 0.0
3.1079140598102533e6 2.6893781221256815e6 0.0
0.0 0.0 0.0

-2.44618550264227e6 2.874420652587781e6 0.0
2.874420652587781e6 877713.9080719817 0.0
0.0 0.0 0.0

-1.4650363287019467e6 2.6249397410657955e6 0.0
2.6249397410657955e6 577543.0096349856 0.0
0.0 0.0 0.0

-1.771069732256467e6 3.2716438997775423e6 0.0
3.2716438997775423e6 -182555.09480631107 0.0
0.0 0.0 0.0

-1.1906196775885455e6 2.547877803389868e6 0.0
2.547877803389868e6 481527.0431151028 0.0
0.0 0.0 0.0

-1.482447005991864e6 3.0435063284662664e6 0.0
3.0435063284662664e6 378412.85489589616 0.0
0.0 0.0 0.0

-1.3065318531850912e6 2.447438170582906e6 0.0
2.447438170582906e6 734714.6582753959 0.0
0.0 0.0 0.0

-108438.46178395994 3.483694904791196e6 0.0
3.483694904791196e6 -1.3775056887153354e6 0.0
0.0 0.0 0.0

848498.4709152925 1.3974781823593809e6 0.0
1.3974781823593809e6 -1.4218124554665342e6 0.0
0.0 0.0 0.0

693251.1505278491 3.5573123412586036e6 0.0
3.5573123412586036e6 -1.372555702203224e6 0.0
0.0 0.0 0.0

-328754.686476714 3.782333154641545e6 0.0
3.782333154641545e6 -289538.35330687504 0.0
0.0 0.0 0.0

785848.6494852563 1.7861049403272013e6 0.0
1.7861049403272013e6 -1.4741367455473281e6 0.0
0.0 0.0 0.0

-1.8940212904632408e6 3.393889803865911e6 0.0
3.393889803865911e6 1.0267775360662938e6 0.0
0.0 0.0 0.0

-1.0970727900185352e6 2.6898637342439634e6 0.0
2.6898637342439634e6 55745.560575042095 0.0
0.0 0.0 0.0

-1.399249383231359e6 3.0130768653597906e6 0.0
3.0130768653597906e6 611582.6882920434 0.0
0.0 0.0 0.0

-814621.1639876015 3.529085375254838e6 0.0
3.529085375254838e6 23908.449552407197 0.0
0.0 0.0 0.0

-605994.2616011203 2.561917855744183e6 0.0
2.561917855744183e6 130004.13640954281 0.0
0.0 0.0 0.0

122759.7893240304 1.7201534174492273e6 0.0
1.7201534174492273e6 -1.1108973418193092e6 0.0
0.0 0.0 0.0

-2.8989851466669077e6 2.7815103378316667e6 0.0
2.7815103378316667e6 1.1210823518707084e6 0.0
0.0 0.0 0.0

-1.7516660216272175e6 3.0739644359359983e6 0.0
3.0739644359359983e6 298957.6805331294 0.0
0.0 0.0 0.0

-591605.1359753219 2.4308181285987017e6 0.0
2.4308181285987017e6 479014.35701663105 0.0
0.0 0.0 0.0

-326526.83136322873 2.498669191570437e6 0.0
2.498669191570437e6 -1.088422760015093e6 0.0
0.0 0.0 0.0

-420234.98346075986 2.819045028948652e6 0.0
2.819045028948652e6 -588806.7686198349 0.0
0.0 0.0 0.0

786703.5177078748 1.645265226269304e6 0.0
1.645265226269304e6 -1.4362125330454395e6 0.0
0.0 0.0 0.0

-990344.322846356 4.0782494604348177e6 0.0
4.0782494604348177e6 -76582.87190679822 0.0
0.0 0.0 0.0

75218.46262981227 1.078317851971799e6 0.0
1.078317851971799e6 -431357.86876690516 0.0
0.0 0.0 0.0

-1.1884066260364403e6 4.566187942332556e6 0.0
4.566187942332556e6 626189.4105801166 0.0
0.0 0.0 0.0

-1.9859284197687698e6 -970217.8158136401 0.0
-970217.8158136401 2.849261370264321e6 0.0
0.0 0.0 0.0

-1.602837432418445e6 2.9202734805542724e6 0.0
2.9202734805542724e6 721505.8968790476 0.0
0.0 0.0 0.0

-163769.66325414766 187741.12548878716 0.0
187741.12548878716 46139.40719208918 0.0
0.0 0.0 0.0

682952.2305243302 424920.43530326657 0.0
424920.43530326657 -648296.5482957497 0.0
0.0 0.0 0.0

1.1639431178176098e6 239477.7145276931 0.0
239477.7145276931 -1.1081496456265172e6 0.0
0.0 0.0 0.0

-1.7207605331274886e6 458642.5376845059 0.0
458642.5376845059 2.4318346587148346e6 0.0
0.0 0.0 0.0

518118.63603651803 3.5188008767353026e6 0.0
3.5188008767353026e6 -1.5785599176437138e6 0.0
0.0 0.0 0.0

-1.9023195975268213e6 3.4469593036239482e6 0.0
3.4469593036239482e6 1.272143228157661e6 0.0
0.0 0.0 0.0

-1.5019906500973944e6 3.0344479535931638e6 0.0
3.0344479535931638e6 442098.9069897395 0.0
0.0 0.0 0.0

-1.5218348925774286e6 3.282214607274577e6 0.0
3.282214607274577e6 696474.7791251903 0.0
0.0 0.0 0.0

-1.240373906216215e6 3.082368882368833e6 0.0
3.082368882368833e6 357291.0986902515 0.0
0.0 0.0 0.0

-357274.88555266603 117690.47013806191 0.0
117690.47013806191 -543263.6128598875 0.0
0.0 0.0 0.0

-1.68799812576734e6 3.1935897227173164e6 0.0
3.1935897227173164e6 926771.9144994752 0.0
0.0 0.0 0.0

-891453.2017033627 5.116058607628795e6 0.0
5.116058607628795e6 373122.39036422595 0.0
0.0 0.0 0.0

-782900.6947304555 1.1593885248475866e6 0.0
1.1593885248475866e6 409306.3982050151 0.0
0.0 0.0 0.0

-1.2238721257876765e6 2.5004973229139685e6 0.0
2.5004973229139685e6 556851.9960583694 0.0
0.0 0.0 0.0

-1.0036430027006026e6 4.825531197211436e6 0.0
4.825531197211436e6 -341932.9815094164 0.0
0.0 0.0 0.0

-1.461487286712372e6 3.3321780302669317e6 0.0
3.3321780302669317e6 546759.9190430616 0.0
0.0 0.0 0.0

-488988.0873430714 4.406504234193863e6 0.0
4.406504234193863e6 -179042.3566389876 0.0
0.0 0.0 0.0

81092.22281314989 299206.1562024647 0.0
299206.1562024647 -626388.1222358639 0.0
0.0 0.0 0.0

1.0808943752984516e6 1.8056442023460036e6 0.0
1.8056442023460036e6 -1.8236584405623856e6 0.0
0.0 0.0 0.0

389953.0049204569 371480.4141379033 0.0
371480.4141379033 -570958.5625998821 0.0
0.0 0.0 0.0

-379103.7975932379 2.0350978949612586e6 0.0
2.0350978949612586e6 25740.018135697057 0.0
0.0 0.0 0.0

-1.5589064936960547e6 3.0061379299189975e6 0.0
3.0061379299189975e6 760691.137712308 0.0
0.0 0.0 0.0

774768.815230057 519764.00945426617 0.0
519764.00945426617 -878655.402076556 0.0
0.0 0.0 0.0

-57914.83232930944 149363.22939958543 0.0
149363.22939958543 -333255.61334577255 0.0
0.0 0.0 0.0

-390309.52444758 3.3557483960911008e6 0.0
3.3557483960911008e6 -625485.4667712474 0.0
0.0 0.0 0.0

-293331.93887790403 1.8195920239916884e6 0.0
1.8195920239916884e6 -2134.2641920328606 0.0
0.0 0.0 0.0

-5.1142596844685115e6 3.4422516221202766e6 0.0
3.4422516221202766e6 2.2245827313560406e6 0.0
0.0 0.0 0.0

-589155.4430228346 2.3365964589985795e6 0.0
2.3365964589985795e6 994727.2939972549 0.0
0.0 0.0 0.0

-318302.18612481083 1.6327433840315577e6 0.0
1.6327433840315577e6 91063.87694601975 0.0
0.0 0.0 0.0

-535701.3580097534 3.0848314746384257e6 0.0
3.0848314746384257e6 -213262.69156195942 0.0
0.0 0.0 0.0

1.0204604271233177e6 133427.5497933298 0.0
133427.5497933298 -2.62426857716739e6 0.0
0.0 0.0 0.0

75693.6153185695 1.1961370286180358e6 0.0
1.1961370286180358e6 158090.13389319487 0.0
0.0 0.0 0.0

-532803.0303933448 1.2280731745196816e6 0.0
1.2280731745196816e6 -54329.75878526068 0.0
0.0 0.0 0.0

-3.0598976051264526e6 2.4144770961742112e6 0.0
2.4144770961742112e6 806093.3924968229 0.0
0.0 0.0 0.0

-1.133385943875832e6 4.715993529113752e6 0.0
4.715993529113752e6 589877.443051361 0.0
0.0 0.0 0.0

860903.1066880873 1.6421780343805403e6 0.0
1.6421780343805403e6 -1.4942673777648695e6 0.0
0.0 0.0 0.0

-1.2381663688484463e6 2.7824267316163904e6 0.0
2.7824267316163904e6 252876.96954234235 0.0
0.0 0.0 0.0

916634.9675496994 2.0467991434873843e6 0.0
2.0467991434873843e6 -1.9955905272984873e6 0.0
0.0 0.0 0.0

-1.5526171961958448e6 3.175937564026858e6 0.0
3.175937564026858e6 801959.1941861651 0.0
0.0 0.0 0.0

-647248.8138832392 3.2021351681862483e6 0.0
3.2021351681862483e6 466599.162780882 0.0
0.0 0.0 0.0

-979516.2893016592 5.013296722410665e6 0.0
5.013296722410665e6 489935.47789954534 0.0
0.0 0.0 0.0

-812214.384074211 1.251577189055855e6 0.0
1.251577189055855e6 567661.7315285953 0.0
0.0 0.0 0.0

12711.729059606703 322975.33498872054 0.0
322975.33498872054 -618869.3089891501 0.0
0.0 0.0 0.0

-1.258792513207336e6 2.6096963452890273e6 0.0
2.6096963452890273e6 773129.6426564791 0.0
0.0 0.0 0.0

-1.737091237478715e6 2.9915726282936884e6 0.0
2.9915726282936884e6 307817.3675024713 0.0
0.0 0.0 0.0

-958328.6572889101 3.423541199398358e6 0.0
3.423541199398358e6 116108.9785362549 0.0
0.0 0.0 0.0

-1.654458210282286e6 5.977609930215801e6 0.0
5.977609930215801e6 1.3084890394062484e6 0.0
0.0 0.0 0.0

-1.536837124751828e6 3.1788748192385994e6 0.0
3.1788748192385994e6 794775.5408323912 0.0
0.0 0.0 0.0

-5381.59447550989 4.153796072297287e6 0.0
4.153796072297287e6 -516519.2510954959 0.0
0.0 0.0 0.0

-808388.7266452553 4.416575928157437e6 0.0
4.416575928157437e6 -414461.7249653088 0.0
0.0 0.0 0.0

-2.1842972635564464e6 3.4996462432639534e6 0.0
3.4996462432639534e6 1.2775341293044344e6 0.0
0.0 0.0 0.0

-288183.40656886704 3.385419996341444e6 0.0
3.385419996341444e6 -835190.1814572499 0.0
0.0 0.0 0.0

117115.5741475969 4.590613783671541e6 0.0
4.590613783671541e6 -1.3726944017936164e6 0.0
0.0 0.0 0.0

-1.347859870008833e6 1.1860810045075642e6 0.0
1.1860810045075642e6 3.0669667755251927e6 0.0
0.0 0.0 0.0

-825281.5978840457 1.3906432870686639e6 0.0
1.3906432870686639e6 -427227.8196690294 0.0
0.0 0.0 0.0

61600.81874311716 1.2983007245270154e6 0.0
1.2983007245270154e6 58884.98527424623 0.0
0.0 0.0 0.0

126578.29148049757 3.5872625503397e6 0.0
3.5872625503397e6 -1.6359655763760377e6 0.0
0.0 0.0 0.0

-1.3417641825207404e6 2.7371527089555254e6 0.0
2.7371527089555254e6 555786.1573343182 0.0
0.0 0.0 0.0

423863.6555666041 942596.7818353075 0.0
942596.7818353075 -1.0348640025094349e6 0.0
0.0 0.0 0.0

-1.258045643967837e6 3.1746210909050205e6 0.0
3.1746210909050205e6 382190.00057946827 0.0
0.0 0.0 0.0

-1.7480724035109119e6 3.0731649513126793e6 0.0
3.0731649513126793e6 710876.4706502066 0.0
0.0 0.0 0.0

-2.1447040039165528e6 4.68155836867862e6 0.0
4.68155836867862e6 1.166104315943685e6 0.0
0.0 0.0 0.0

-1.6170901461941018e6 3.1847008800468342e6 0.0
3.1847008800468342e6 857300.361477645 0.0
0.0 0.0 0.0

-92724.76341059692 334168.59520067216 0.0
334168.59520067216 -525419.7814377815 0.0
0.0 0.0 0.0

-1.0585144190663837e6 4.859360634085006e6 0.0
4.859360634085006e6 527599.9236000915 0.0
0.0 0.0 0.0

349225.2260444598 1.2370145045057223e6 0.0
1.2370145045057223e6 -196009.17802633336 0.0
0.0 0.0 0.0

924602.758539284 2.5063988923375313e6 0.0
2.5063988923375313e6 -2.098680701536473e6 0.0
0.0 0.0 0.0

-684883.5551879175 2.9322315811838303e6 0.0
2.9322315811838303e6 948903.7935594432 0.0
0.0 0.0 0.0

-1.664229851088161e6 3.267363851862708e6 0.0
3.267363851862708e6 480737.0370671494 0.0
0.0 0.0 0.0

-616464.2696283923 3.8962576376386397e6 0.0
3.8962576376386397e6 385902.06156102987 0.0
0.0 0.0 0.0

-1.0997832265783644e6 1.6196220010198466e6 0.0
1.6196220010198466e6 3.242404664338854e6 0.0
0.0 0.0 0.0

196984.33882971294 2.955989022494117e6 0.0
2.955989022494117e6 656614.468669263 0.0
0.0 0.0 0.0

-1.2868510300701128e6 1.9299348080509193e6 0.0
1.9299348080509193e6 181340.77533053193 0.0
0.0 0.0 0.0

-29765.071843629237 4.09723185786914e6 0.0
4.09723185786914e6 -531085.1565290135 0.0
0.0 0.0 0.0

-4.792730254823799e6 3.4998875747822407e6 0.0
3.4998875747822407e6 2.169138789209043e6 0.0
0.0 0.0 0.0

-967346.5496464052 4.320687987251268e6 0.0
4.320687987251268e6 407653.09449884796 0.0
0.0 0.0 0.0

1.837819745721535e6 5.061812273376913e6 0.0
5.061812273376913e6 843732.3881695654 0.0
0.0 0.0 0.0

-1.49665131370142e6 2.9231889599464424e6 0.0
2.9231889599464424e6 664838.0793105438 0.0
0.0 0.0 0.0

-1.4378989858232415e6 3.165652158279688e6 0.0
3.165652158279688e6 553605.592748982 0.0
0.0 0.0 0.0

-339184.845681233 2.583564429656221e6 0.0
2.583564429656221e6 -571138.9470487321 0.0
0.0 0.0 0.0

-2.1350403396732025e6 4.849197019827581e6 0.0
4.849197019827581e6 1.1270584216764462e6 0.0
0.0 0.0 0.0

1.0648425870025903e6 1.956937539047938e6 0.0
1.956937539047938e6 -1.9663866228439803e6 0.0
0.0 0.0 0.0

-981365.4808736134 977736.1316622997 0.0
977736.1316622997 129998.05990469462 0.0
0.0 0.0 0.0

-112298.11634777326 2.470963389402684e6 0.0
2.470963389402684e6 -1.140826950631844e6 0.0
0.0 0.0 0.0

-932987.1239855487 3.534435804856594e6 0.0
3.534435804856594e6 288045.4115181074 0.0
0.0 0.0 0.0

-1.7721188858650625e6 3.2211633096516086e6 0.0
3.2211633096516086e6 996514.4661095209 0.0
0.0 0.0 0.0

-346241.420214816 3.967986745362987e6 0.0
3.967986745362987e6 -820475.339652565 0.0
0.0 0.0 0.0

-1.3991720048508295e6 2.9122737888398035e6 0.0
2.9122737888398035e6 793611.230020662 0.0
0.0 0.0 0.0

-1.6531634381652316e6 3.2091827987075388e6 0.0
3.2091827987075388e6 894441.4079277345 0.0
0.0 0.0 0.0

-443904.33236454305 3.6532908274390004e6 0.0
3.6532908274390004e6 -655644.1857245661 0.0
0.0 0.0 0.0

-4.2903841532334415e6 3.624282409036926e6 0.0
3.624282409036926e6 2.1140248740199893e6 0.0
0.0 0.0 0.0

-1.725898780313781e6 3.2276259266414247e6 0.0
3.2276259266414247e6 979600.7857863769 0.0
0.0 0.0 0.0

335716.08781171945 1.235485325322328e6 0.0
1.235485325322328e6 -301054.6483069728 0.0
0.0 0.0 0.0

827614.9049476462 3.845488946468658e6 0.0
3.845488946468658e6 1.3173679141116643e6 0.0
0.0 0.0 0.0

800934.8901636814 3.7388676887969687e6 0.0
3.7388676887969687e6 -1.6911022109656478e6 0.0
0.0 0.0 0.0

-2.0627073511758712e6 3.129574563982915e6 0.0
3.129574563982915e6 884622.7017185305 0.0
0.0 0.0 0.0

261374.02718984598 876084.4934660583 0.0
876084.4934660583 -560939.8795544843 0.0
0.0 0.0 0.0

-1.495350966992746e6 2.583569255544524e6 0.0
2.583569255544524e6 597865.4036808244 0.0
0.0 0.0 0.0

-1.1867526169858496e6 1.585490917889367e6 0.0
1.585490917889367e6 2398.815343877417 0.0
0.0 0.0 0.0

-3.8942138418094115e6 3.6982541796171535e6 0.0
3.6982541796171535e6 1.7691724475592116e6 0.0
0.0 0.0 0.0

470260.0000049446 3.2138588597224224e6 0.0
3.2138588597224224e6 -2.100137288567937e6 0.0
0.0 0.0 0.0

-38534.19938318808 599758.4096364065 0.0
599758.4096364065 -166055.6781286714 0.0
0.0 0.0 0.0

-1.2538670806580214e6 3.345591572574923e6 0.0
3.345591572574923e6 814393.5263584682 0.0
0.0 0.0 0.0

671854.2684490709 722862.3658039422 0.0
722862.3658039422 -940405.5191876095 0.0
0.0 0.0 0.0

-1.5468839627680597e6 2.8288116560755083e6 0.0
2.8288116560755083e6 663984.2546961054 0.0
0.0 0.0 0.0

-1.6705378405517903e6 3.139889282955535e6 0.0
3.139889282955535e6 796191.6158731746 0.0
0.0 0.0 0.0

-338792.8238707185 3.058641748882069e6 0.0
3.058641748882069e6 -915354.5849364323 0.0
0.0 0.0 0.0

-3.731942860935363e6 3.7662079309644126e6 0.0
3.7662079309644126e6 1.7852871322310534e6 0.0
0.0 0.0 0.0

-1.0001481468857897e6 3.594105410376834e6 0.0
3.594105410376834e6 212243.15452397568 0.0
0.0 0.0 0.0

-1.801162219367732e6 3.2657131766993455e6 0.0
3.2657131766993455e6 1.064543300210775e6 0.0
0.0 0.0 0.0

997476.3047313506 1.9691251536270143e6 0.0
1.9691251536270143e6 -1.9585569268961032e6 0.0
0.0 0.0 0.0

224504.50356960253 2.2349585772166317e6 0.0
2.2349585772166317e6 377093.04736605776 0.0
0.0 0.0 0.0

-3.5676470193260997e6 3.6986912236182364e6 0.0
3.6986912236182364e6 1.6687620093677994e6 0.0
0.0 0.0 0.0

893208.5459145792 3.6129773627123227e6 0.0
3.6129773627123227e6 -1.5210412765344542e6 0.0
0.0 0.0 0.0

-3.2435321335441293e6 3.849101211646999e6 0.0
3.849101211646999e6 1.5197727765412703e6 0.0
0.0 0.0 0.0

-3.0865194008222767e6 3.871453890240673e6 0.0
3.871453890240673e6 1.4666351242184548e6 0.0
0.0 0.0 0.0

-2.349640583984253e6 3.702898835337632e6 0.0
3.702898835337632e6 1.283256169910485e6 0.0
0.0 0.0 0.0

-2.3781533439215017e6 3.7287850054691997e6 0.0
3.7287850054691997e6 1.2974574416716194e6 0.0
0.0 0.0 0.0

-2.4366727652325206e6 3.7737661889050403e6 0.0
3.7737661889050403e6 1.2713583620882835e6 0.0
0.0 0.0 0.0

-2.4941743351572827e6 3.816328620115847e6 0.0
3.816328620115847e6 1.3167815654284067e6 0.0
0.0 0.0 0.0

-2.4989283918513283e6 3.8325239519028687e6 0.0
3.8325239519028687e6 1.284532418154532e6 0.0
0.0 0.0 0.0

-2.532160385455294e6 3.893396246843619e6 0.0
3.893396246843619e6 1.2241526033110498e6 0.0
0.0 0.0 0.0

-471122.24463064625 3.193448621046287e6 0.0
3.193448621046287e6 -294602.20342600235 0.0
0.0 0.0 0.0

-2.639657714832919e6 3.8447661546045537e6 0.0
3.8447661546045537e6 1.455614459630372e6 0.0
0.0 0.0 0.0

-2.7001795171245364e6 3.8702932243279833e6 0.0
3.8702932243279833e6 1.4316929366966528e6 0.0
0.0 0.0 0.0

-605345.7274406092 2.8038280582062285e6 0.0
2.8038280582062285e6 -267724.2081973033 0.0
0.0 0.0 0.0

-2.9801069408833254e6 3.850454141763312e6 0.0
3.850454141763312e6 1.460605323053804e6 0.0
0.0 0.0 0.0

-2.771601666528772e6 3.8919796408776236e6 0.0
3.8919796408776236e6 1.3805276569790745e6 0.0
0.0 0.0 0.0

-2.821186148560008e6 3.814273079541239e6 0.0
3.814273079541239e6 1.3991219665812398e6 0.0
0.0 0.0 0.0

-2.816595771603212e6 3.8550494637776325e6 0.0
3.8550494637776325e6 1.3227653316671564e6 0.0
0.0 0.0 0.0

-1.498806825074528e6 3.1311719705600715e6 0.0
3.1311719705600715e6 791457.3966979451 0.0
0.0 0.0 0.0

-2.92820699185401e6 3.8565331779996958e6 0.0
3.8565331779996958e6 1.4436207808028667e6 0.0
0.0 0.0 0.0

-2.852245632323918e6 3.8765507988910517e6 0.0
3.8765507988910517e6 1.4241668432991775e6 0.0
0.0 0.0 0.0

-2.9035537001158535e6 3.8829690990058444e6 0.0
3.8829690990058444e6 1.4517274257544477e6 0.0
0.0 0.0 0.0

-2.5372945386321596e6 3.945223274489165e6 0.0
3.945223274489165e6 1.2978499923422849e6 0.0
0.0 0.0 0.0

-2.57165008714817e6 3.847232502472735e6 0.0
3.847232502472735e6 1.3072758481176645e6 0.0
0.0 0.0 0.0

-2.5123405168844373e6 3.815394817536298e6 0.0
3.815394817536298e6 1.3159577321862362e6 0.0
0.0 0.0 0.0

-2.496078635741294e6 3.806852088487921e6 0.0
3.806852088487921e6 1.3351340724608859e6 0.0
0.0 0.0 0.0

-2.462507931234104e6 3.745685646198915e6 0.0
3.745685646198915e6 1.3278894961049454e6 0.0
0.0 0.0 0.0

-2.3967586510742526e6 3.720026202898033e6 0.0
3.720026202898033e6 1.3142782131237686e6 0.0
0.0 0.0 0.0

-2.041814171099581e6 3.4789848598473803e6 0.0
3.4789848598473803e6 1.2280814399768005e6 0.0
0.0 0.0 0.0

-1.1770014887225106e6 1.3237541622867293e6 0.0
1.3237541622867293e6 2.7789380468298043e6 0.0
0.0 0.0 0.0

-3.0429068803668628e6 3.844021648479493e6 0.0
3.844021648479493e6 1.5120866929793127e6 0.0
0.0 0.0 0.0

487350.8822446887 1.8968541549330102e6 0.0
1.8968541549330102e6 -1.6009665674372222e6 0.0
0.0 0.0 0.0

-1.7599445201953799e6 3.0362719149286887e6 0.0
3.0362719149286887e6 658983.2451299211 0.0
0.0 0.0 0.0

-3.186728344166135e6 3.7331555655947323e6 0.0
3.7331555655947323e6 1.7228209464167405e6 0.0
0.0 0.0 0.0

525601.5852829502 1.3060766123803987e6 0.0
1.3060766123803987e6 -373365.55785322934 0.0
0.0 0.0 0.0

-3.387530133891764e6 3.693346975062139e6 0.0
3.693346975062139e6 1.6597681476460313e6 0.0
0.0 0.0 0.0

85778.2096518513 1.6756651865755534e6 0.0
1.6756651865755534e6 -73284.02777342475 0.0
0.0 0.0 0.0

-3.7055530445447667e6 3.739336680341658e6 0.0
3.739336680341658e6 1.8319564899327555e6 0.0
0.0 0.0 0.0

-533510.1253977097 3.1851734871553974e6 0.0
3.1851734871553974e6 -530838.8955777183 0.0
0.0 0.0 0.0

61576.53944232658 2.458475404200786e6 0.0
2.458475404200786e6 -1.1252863014507447e6 0.0
0.0 0.0 0.0

101441.63183579204 4.484054457516041e6 0.0
4.484054457516041e6 -1.3569030609259466e6 0.0
0.0 0.0 0.0

-1.7930466625130824e6 3.2302515668722675e6 0.0
3.2302515668722675e6 922940.9948507155 0.0
0.0 0.0 0.0

-1.4222042535342656e6 2.551460697039787e6 0.0
2.551460697039787e6 481799.53112402954 0.0
0.0 0.0 0.0

-1.8309778460402628e6 3.257972586958535e6 0.0
3.257972586958535e6 967607.8537248499 0.0
0.0 0.0 0.0

-510875.656180728 3.2466055826940266e6 0.0
3.2466055826940266e6 -563449.8333961504 0.0
0.0 0.0 0.0

1.104348302638087e6 1.796996976272611e6 0.0
1.796996976272611e6 -1.7753965347677195e6 0.0
0.0 0.0 0.0

-730096.2517818082 3.2716796713836803e6 0.0
3.2716796713836803e6 228052.8368285612 0.0
0.0 0.0 0.0

-3.930469495249563e6 3.561402027974962e6 0.0
3.561402027974962e6 2.015568582134559e6 0.0
0.0 0.0 0.0

-186897.8425390826 1.8353709482475738e6 0.0
1.8353709482475738e6 -736111.7487205119 0.0
0.0 0.0 0.0

-756.4404066892184 1.7575196007009076e6 0.0
1.7575196007009076e6 -37840.20280804994 0.0
0.0 0.0 0.0

-1.5877868879235354e6 3.196063047039492e6 0.0
3.196063047039492e6 832227.8270564169 0.0
0.0 0.0 0.0

-2.6249064924457134e6 4.435604810299882e6 0.0
4.435604810299882e6 1.4935645840907074e6 0.0
0.0 0.0 0.0

698768.0057243851 1.7863717269551884e6 0.0
1.7863717269551884e6 -1.5737743803579295e6 0.0
0.0 0.0 0.0

-2.725526996206235e6 2.298562069821579e6 0.0
2.298562069821579e6 978527.211941649 0.0
0.0 0.0 0.0

-509889.14046035864 3.174500001938209e6 0.0
3.174500001938209e6 -289076.2833180159 0.0
0.0 0.0 0.0

-1.486360878501879e6 3.590852574092785e6 0.0
3.590852574092785e6 -96797.26700549334 0.0
0.0 0.0 0.0

-18639.10896875299 4.1547453784453673e6 0.0
4.1547453784453673e6 -597407.495961307 0.0
0.0 0.0 0.0

-4.3025809957815185e6 3.549817828700888e6 0.0
3.549817828700888e6 2.2472661316247536e6 0.0
0.0 0.0 0.0

261383.23727283766 3.674689997269275e6 0.0
3.674689997269275e6 -1.8229227709181935e6 0.0
0.0 0.0 0.0

-506606.14175184414 3.5461275028727306e6 0.0
3.5461275028727306e6 -176518.14151165294 0.0
0.0 0.0 0.0

-288623.4336895731 2.5659093791025444e6 0.0
2.5659093791025444e6 -962078.1308317719 0.0
0.0 0.0 0.0

200180.73583356442 1.9398578370995459e6 0.0
1.9398578370995459e6 -1.585452503115944e6 0.0
0.0 0.0 0.0

-252031.6022552991 3.562512562929064e6 0.0
3.562512562929064e6 -748603.7985039684 0.0
0.0 0.0 0.0

317562.9372901629 2.164679325508084e6 0.0
2.164679325508084e6 -1.6316065382079831e6 0.0
0.0 0.0 0.0

-43808.86427016711 4.477428609607518e6 0.0
4.477428609607518e6 -276276.79443642014 0.0
0.0 0.0 0.0

-1.8322288833080684e6 3.1666559936801423e6 0.0
3.1666559936801423e6 833270.3130096425 0.0
0.0 0.0 0.0

-1.8597088326433373e6 3.2683751083123977e6 0.0
3.2683751083123977e6 1.0651992155967474e6 0.0
0.0 0.0 0.0

-273493.4141022707 1.005344066707603e6 0.0
1.005344066707603e6 -1.3212706054974706e6 0.0
0.0 0.0 0.0

-724983.3778252569 3.1439987888647714e6 0.0
3.1439987888647714e6 1.7944194822204316e6 0.0
0.0 0.0 0.0

-280208.06090850825 2.0041251719809982e6 0.0
2.0041251719809982e6 -561428.6703285006 0.0
0.0 0.0 0.0

-1.3466374945494174e6 2.6978576203860217e6 0.0
2.6978576203860217e6 690367.2778751296 0.0
0.0 0.0 0.0

-780394.1015914768 4.108958054535524e6 0.0
4.108958054535524e6 -202809.16708592264 0.0
0.0 0.0 0.0

-987812.5682005483 1.791987320453444e6 0.0
1.791987320453444e6 493767.7210297395 0.0
0.0 0.0 0.0

-1.0126535862796617e6 3.6319020521419668e6 0.0
3.6319020521419668e6 138633.93347113748 0.0
0.0 0.0 0.0

-122377.44625210253 4.0379431403506272e6 0.0
4.0379431403506272e6 -351162.2050651104 0.0
0.0 0.0 0.0

272872.40263202105 2.744629671747339e6 0.0
2.744629671747339e6 126534.86924233934 0.0
0.0 0.0 0.0

-4.468690684186515e6 3.4492884652773426e6 0.0
3.4492884652773426e6 2.2338646689951313e6 0.0
0.0 0.0 0.0

-2.561015691945525e6 3.106783982721839e6 0.0
3.106783982721839e6 4.0804923860409074e6 0.0
0.0 0.0 0.0

-1.224232143854603e6 3.382617601522557e6 0.0
3.382617601522557e6 391973.2985612547 0.0
0.0 0.0 0.0

-316656.9884040362 3.943842542558558e6 0.0
3.943842542558558e6 -123090.31824020697 0.0
0.0 0.0 0.0

946363.7400506308 1.7415741774509763e6 0.0
1.7415741774509763e6 -1.734702459155607e6 0.0
0.0 0.0 0.0

325907.25406365003 4.0181369287605863e6 0.0
4.0181369287605863e6 -1.7146975819456829e6 0.0
0.0 0.0 0.0

-547145.4881586321 2.6276603355182577e6 0.0
2.6276603355182577e6 -31804.696514151176 0.0
0.0 0.0 0.0

-2.4999599219594337e6 3.756711003056002e6 0.0
3.756711003056002e6 1.188339994289259e6 0.0
0.0 0.0 0.0

-1.401519255988543e6 3.2470499380426253e6 0.0
3.2470499380426253e6 264055.783503708 0.0
0.0 0.0 0.0

-1.0122646213564144e6 2.285860531404438e6 0.0
2.285860531404438e6 -90672.15861517511 0.0
0.0 0.0 0.0

-2.2230219064041064e6 2.0321414156366314e6 0.0
2.0321414156366314e6 694055.0706825361 0.0
0.0 0.0 0.0

-130640.49265833857 2.714910370176027e6 0.0
2.714910370176027e6 -1.1131717227115866e6 0.0
0.0 0.0 0.0

-1.4979484409312299e6 3.1578166406960315e6 0.0
3.1578166406960315e6 354675.13049357897 0.0
0.0 0.0 0.0

150802.56617516113 1.8992915904181951e6 0.0
1.8992915904181951e6 273043.7624001407 0.0
0.0 0.0 0.0

-587048.8703238536 2.8943921419855636e6 0.0
2.8943921419855636e6 -203401.10555377687 0.0
0.0 0.0 0.0

-9.522186412611397e6 2.2213461419271543e6 0.0
2.2213461419271543e6 2.3897955170473964e6 0.0
0.0 0.0 0.0

-540324.2280208532 3.219656826450119e6 0.0
3.219656826450119e6 -215478.4522533835 0.0
0.0 0.0 0.0

174199.12434646097 978579.6243280713 0.0
978579.6243280713 -800141.4037395269 0.0
0.0 0.0 0.0

-1.9566788676945367e6 3.295534627805465e6 0.0
3.295534627805465e6 1.104219333251663e6 0.0
0.0 0.0 0.0

-1.2536326516349535e6 2.98095691463814e6 0.0
2.98095691463814e6 403522.58039733116 0.0
0.0 0.0 0.0

-1.3397108512453404e6 2.8263323637139015e6 0.0
2.8263323637139015e6 659122.5317669349 0.0
0.0 0.0 0.0

-1.88778454945149e6 3.245454282174105e6 0.0
3.245454282174105e6 1.0286712150218687e6 0.0
0.0 0.0 0.0

436555.41554276063 367768.29838816635 0.0
367768.29838816635 -330424.2141488932 0.0
0.0 0.0 0.0

-336977.4748399253 3.69940796405155e6 0.0
3.69940796405155e6 -889861.2540687975 0.0
0.0 0.0 0.0

-1.3484186671468015e6 3.014378597640619e6 0.0
3.014378597640619e6 459720.6808971575 0.0
0.0 0.0 0.0

-555529.4254741843 1.2506727968248783e6 0.0
1.2506727968248783e6 -710741.05287876 0.0
0.0 0.0 0.0

-355497.7261072373 3.6225502709473083e6 0.0
3.6225502709473083e6 -809967.8552950392 0.0
0.0 0.0 0.0

-1.5084722603798131e6 3.628370679540042e6 0.0
3.628370679540042e6 -166820.95523121103 0.0
0.0 0.0 0.0

-579897.1281563782 3.090033114162184e6 0.0
3.090033114162184e6 -338278.402316393 0.0
0.0 0.0 0.0

-470305.79671541345 3.1966231576894936e6 0.0
3.1966231576894936e6 -646410.604566622 0.0
0.0 0.0 0.0

-1.160246800216105e6 3.1030928025640375e6 0.0
3.1030928025640375e6 309370.01172066585 0.0
0.0 0.0 0.0

1.0413170931880336e6 976951.6616438664 0.0
976951.6616438664 -1.5179392160748444e6 0.0
0.0 0.0 0.0

-177019.10836129432 -111298.49613952755 0.0
-111298.49613952755 -254920.37290296057 0.0
0.0 0.0 0.0

-139503.30686739183 87999.54574386055 0.0
87999.54574386055 -378403.02403766033 0.0
0.0 0.0 0.0

453767.0978518592 -939.3901676584127 0.0
-939.3901676584127 -563555.704810454 0.0
0.0 0.0 0.0

95335.23825407191 156924.96541070088 0.0
156924.96541070088 -562389.2737091838 0.0
0.0 0.0 0.0

557228.0397394783 44518.87719490866 0.0
44518.87719490866 -601493.2931760476 0.0
0.0 0.0 0.0

1.3764802972512604e6 1.0305680668163392e6 0.0
1.0305680668163392e6 -1.940214765940599e6 0.0
0.0 0.0 0.0

-68412.9302577201 -352736.11339389393 0.0
-352736.11339389393 4046.744845198984 0.0
0.0 0.0 0.0

102597.6956989283 -141412.1946768551 0.0
-141412.1946768551 -68071.9465436778 0.0
0.0 0.0 0.0

28377.81016570283 -227140.58333027145 0.0
-227140.58333027145 -645623.7412157536 0.0
0.0 0.0 0.0

531403.588979225 -13036.439516180986 0.0
-13036.439516180986 -485302.90752688877 0.0
0.0 0.0 0.0

2.204906237128476e6 468891.59697093733 0.0
468891.59697093733 -3.3358554995200834e6 0.0
0.0 0.0 0.0

1.2185589700199747e6 -457924.0091826843 0.0
-457924.0091826843 -1.837936032996679e6 0.0
0.0 0.0 0.0

-174429.57546747805 -293383.2434273791 0.0
-293383.2434273791 -132292.5949993497 0.0
0.0 0.0 0.0

987521.7894312962 1.7414068783965544e6 0.0
1.7414068783965544e6 -1.6955740153956688e6 0.0
0.0 0.0 0.0

1.0950088136473184e6 1.7632743550769254e6 0.0
1.7632743550769254e6 -1.78677054318359e6 0.0
0.0 0.0 0.0

946973.7674429151 1.6883722848244691e6 0.0
1.6883722848244691e6 -1.5931228610549173e6 0.0
0.0 0.0 0.0

914588.6609869604 1.4472518447804635e6 0.0
1.4472518447804635e6 -1.4885071688818503e6 0.0
0.0 0.0 0.0

-130064.69475015084 -359740.33509063924 0.0
-359740.33509063924 -23227.063233050758 0.0
0.0 0.0 0.0

538598.3290830796 14296.57618155217 0.0
14296.57618155217 -526850.787315719 0.0
0.0 0.0 0.0

1.0607811867194744e6 1.785193684123689e6 0.0
1.785193684123689e6 -1.748895268415006e6 0.0
0.0 0.0 0.0

1.0900524598719617e6 1.306796950724452e6 0.0
1.306796950724452e6 -1.5269224792082084e6 0.0
0.0 0.0 0.0

983626.9143117134 1.374864888136599e6 0.0
1.374864888136599e6 -1.4997490426459068e6 0.0
0.0 0.0 0.0

1.0910854789316335e6 1.210278078178088e6 0.0
1.210278078178088e6 -1.5085417040078114e6 0.0
0.0 0.0 0.0

-481811.27464976633 2.716741623668047e6 0.0
2.716741623668047e6 -472925.69077482 0.0
0.0 0.0 0.0

579492.723951355 1.9931382711909846e6 0.0
1.9931382711909846e6 -237440.79788041764 0.0
0.0 0.0 0.0

-33679.18348009944 953939.6628642471 0.0
953939.6628642471 -370660.9113012259 0.0
0.0 0.0 0.0

-1.0246819107320342e6 3.677289407432454e6 0.0
3.677289407432454e6 119386.06064710731 0.0
0.0 0.0 0.0

-149661.6913704998 3.3506412454306153e6 0.0
3.3506412454306153e6 -1.296144689024518e6 0.0
0.0 0.0 0.0

-867203.2774943626 3.1543520836131363e6 0.0
3.1543520836131363e6 119558.99304848444 0.0
0.0 0.0 0.0

-4.723473300193066e6 3.3279753198733926e6 0.0
3.3279753198733926e6 2.3975586027148915e6 0.0
0.0 0.0 0.0

-1.264039676011667e6 3.3306699979654173e6 0.0
3.3306699979654173e6 428295.3599905412 0.0
0.0 0.0 0.0

-649708.5108542577 3.2020155204360406e6 0.0
3.2020155204360406e6 818383.810192877 0.0
0.0 0.0 0.0

-421030.9997030598 2.5376626084461566e6 0.0
2.5376626084461566e6 648809.9320841533 0.0
0.0 0.0 0.0

-498404.3613698622 3.9223432496197196e6 0.0
3.9223432496197196e6 -296694.5212062237 0.0
0.0 0.0 0.0

-667310.6230741435 2.816947684422059e6 0.0
2.816947684422059e6 -67100.03764592286 0.0
0.0 0.0 0.0

-435945.53048254846 3.4393389784120303e6 0.0
3.4393389784120303e6 -509633.1012705675 0.0
0.0 0.0 0.0

-529840.9377899944 2.837702120746584e6 0.0
2.837702120746584e6 -265808.073995012 0.0
0.0 0.0 0.0

-1.89497749886194e6 3.1746176230737297e6 0.0
3.1746176230737297e6 949536.4170608085 0.0
0.0 0.0 0.0

-1.8171973401130605e6 3.1969629063982274e6 0.0
3.1969629063982274e6 1.0286764117880936e6 0.0
0.0 0.0 0.0

-548126.3888485087 3.180204692671229e6 0.0
3.180204692671229e6 -304153.03642468445 0.0
0.0 0.0 0.0

-1.3175836299387917e6 2.3420526842035665e6 0.0
2.3420526842035665e6 290996.00675283 0.0
0.0 0.0 0.0

-1.2246885571434472e6 3.322986792976472e6 0.0
3.322986792976472e6 123394.94683188153 0.0
0.0 0.0 0.0

-390986.39578866464 1.139343567969608e6 0.0
1.139343567969608e6 -1.0040126614203656e6 0.0
0.0 0.0 0.0

-16232.329860313184 -202408.15458687916 0.0
-202408.15458687916 -306707.84788857435 0.0
0.0 0.0 0.0

19722.197905406705 3672.4489781001275 0.0
3672.4489781001275 -291981.6471117362 0.0
0.0 0.0 0.0

513183.68176249234 -1993.0477279568165 0.0
-1993.0477279568165 -572912.2972412845 0.0
0.0 0.0 0.0

-84186.09848181524 -345147.1000540454 0.0
-345147.1000540454 -237768.10218931135 0.0
0.0 0.0 0.0

-80829.85689570916 -374053.9464334922 0.0
-374053.9464334922 -280341.6742075379 0.0
0.0 0.0 0.0

1.0529386941598938e6 1.7848917581983681e6 0.0
1.7848917581983681e6 -1.6876507184580853e6 0.0
0.0 0.0 0.0

1.0561006227361509e6 1.781257842115592e6 0.0
1.781257842115592e6 -1.7362451758607714e6 0.0
0.0 0.0 0.0

514253.73345640773 28634.89880888109 0.0
28634.89880888109 -519361.4725789061 0.0
0.0 0.0 0.0

1.0220502356676261e6 1.4052799086059548e6 0.0
1.4052799086059548e6 -1.5860024651321503e6 0.0
0.0 0.0 0.0

1.2455641145929564e6 1.058851411606877e6 0.0
1.058851411606877e6 -1.8510283735620694e6 0.0
0.0 0.0 0.0

1.0948229754521218e6 1.2890669486124066e6 0.0
1.2890669486124066e6 -1.7180547889075712e6 0.0
0.0 0.0 0.0

1.1667357578295264e6 1.2108518826160843e6 0.0
1.2108518826160843e6 -1.8384132551091907e6 0.0
0.0 0.0 0.0

-966021.5737670958 3.444576786279578e6 0.0
3.444576786279578e6 146211.52527497482 0.0
0.0 0.0 0.0

-1.0416324665596117e6 1.4021096908921937e6 0.0
1.4021096908921937e6 2.437481189606836e6 0.0
0.0 0.0 0.0

-521092.88203642325 2.742076619738938e6 0.0
2.742076619738938e6 -250740.07848673986 0.0
0.0 0.0 0.0

890654.4189677967 1.5703453332587006e6 0.0
1.5703453332587006e6 -1.5836846380926569e6 0.0
0.0 0.0 0.0

-1.9578944235922534e6 3.7494926144622993e6 0.0
3.7494926144622993e6 1.0821399669633126e6 0.0
0.0 0.0 0.0

-387032.21906388475 3.6488727392934863e6 0.0
3.6488727392934863e6 -165815.40099772596 0.0
0.0 0.0 0.0

-213718.72990254386 2.916672109712012e6 0.0
2.916672109712012e6 -482900.05024103983 0.0
0.0 0.0 0.0

25351.26497288159 1.906019950495252e6 0.0
1.906019950495252e6 -1.4500618004573346e6 0.0
0.0 0.0 0.0

-136812.2019565228 2.884418656198807e6 0.0
2.884418656198807e6 -1.0283718538062958e6 0.0
0.0 0.0 0.0

-1.7397360446060812e6 3.13414908628097e6 0.0
3.13414908628097e6 957757.4188971801 0.0
0.0 0.0 0.0

-539816.345917774 3.2976618689759877e6 0.0
3.2976618689759877e6 165161.1110348292 0.0
0.0 0.0 0.0

-537569.8911668293 2.849575259721249e6 0.0
2.849575259721249e6 288491.05286830757 0.0
0.0 0.0 0.0

-1.4576050199078473e6 2.9903759726326745e6 0.0
2.9903759726326745e6 831579.2266473019 0.0
0.0 0.0 0.0

-2.168176728792e6 3.3060038080653367e6 0.0
3.3060038080653367e6 1.1374670313239307e6 0.0
0.0 0.0 0.0

-393624.85739186505 2.1411731965830354e6 0.0
2.1411731965830354e6 -457758.53232942737 0.0
0.0 0.0 0.0

-1.8766731560173156e6 3.2536355700602597e6 0.0
3.2536355700602597e6 1.0125879591789957e6 0.0
0.0 0.0 0.0

-612098.6159907477 608934.8596520878 0.0
608934.8596520878 1.0182831344931587e6 0.0
0.0 0.0 0.0

-492367.08488477464 3.406450633715708e6 0.0
3.406450633715708e6 81338.2779429371 0.0
0.0 0.0 0.0

590242.2033155175 3.492302305951869e6 0.0
3.492302305951869e6 -1.522756788371739e6 0.0
0.0 0.0 0.0

298422.98537810484 3.834210527896325e6 0.0
3.834210527896325e6 -1.822651973373096e6 0.0
0.0 0.0 0.0

-1.411861348160187e6 2.8919916858401746e6 0.0
2.8919916858401746e6 763754.0605246583 0.0
0.0 0.0 0.0

-1.0417501113481622e6 4.070932360168336e6 0.0
4.070932360168336e6 -152737.2361101263 0.0
0.0 0.0 0.0

789685.7965299292 -53879.364961549225 0.0
-53879.364961549225 -970096.0142260736 0.0
0.0 0.0 0.0

-1.325582897498712e6 3.3412550916135516e6 0.0
3.3412550916135516e6 219671.60463102732 0.0
0.0 0.0 0.0

-1.7883182437106904e6 3.2141708286238224e6 0.0
3.2141708286238224e6 953967.9298710899 0.0
0.0 0.0 0.0

-1.8714681785759523e6 3.32183027956053e6 0.0
3.32183027956053e6 1.1467884334355649e6 0.0
0.0 0.0 0.0

-78371.06619857188 3.535490404456508e6 0.0
3.535490404456508e6 -1.467683868666011e6 0.0
0.0 0.0 0.0

64283.60732068564 3.422101013421539e6 0.0
3.422101013421539e6 -1.481862019766711e6 0.0
0.0 0.0 0.0

-523146.3446102942 3.04200865339967e6 0.0
3.04200865339967e6 -90616.53675506219 0.0
0.0 0.0 0.0

-508470.2747317503 2.7526664037612793e6 0.0
2.7526664037612793e6 -108005.56821523068 0.0
0.0 0.0 0.0

-107754.00337222201 3.2425966803341447e6 0.0
3.2425966803341447e6 -1.3942452382235783e6 0.0
0.0 0.0 0.0

-1.6864327981560193e6 3.343823328560846e6 0.0
3.343823328560846e6 1.1011674569334066e6 0.0
0.0 0.0 0.0

2.4719813318140423e6 -233485.3474344753 0.0
-233485.3474344753 -3.5259004042100366e6 0.0
0.0 0.0 0.0

-1.8461908831976797e6 5.722488091497797e6 0.0
5.722488091497797e6 1.3167568314681686e6 0.0
0.0 0.0 0.0

40105.98765711975 29382.906908885667 0.0
29382.906908885667 -444381.3930184847 0.0
0.0 0.0 0.0

-1.4624472235551304e6 3.019944148667256e6 0.0
3.019944148667256e6 815480.5192451671 0.0
0.0 0.0 0.0

-916586.9831969056 2.8204732436002227e6 0.0
2.8204732436002227e6 256068.66593135253 0.0
0.0 0.0 0.0

-1.0673475302037406e6 3.3478217425721986e6 0.0
3.3478217425721986e6 267863.20443817397 0.0
0.0 0.0 0.0

-1.358941718619325e6 3.324343965131496e6 0.0
3.324343965131496e6 550701.1513687756 0.0
0.0 0.0 0.0

-1.7971948354705705e6 3.1425978579195864e6 0.0
3.1425978579195864e6 875720.9091430515 0.0
0.0 0.0 0.0

227635.97024731612 2.5130226911225463e6 0.0
2.5130226911225463e6 -159764.56302740937 0.0
0.0 0.0 0.0

209680.88613185816 288973.1770063925 0.0
288973.1770063925 -426980.32201629 0.0
0.0 0.0 0.0

-533917.1688599909 3.014300658071491e6 0.0
3.014300658071491e6 -302425.0983304033 0.0
0.0 0.0 0.0

-918042.2591323735 3.117666740793849e6 0.0
3.117666740793849e6 -45963.29261616725 0.0
0.0 0.0 0.0

-678900.7612767238 466811.75482593273 0.0
466811.75482593273 -184879.2132106527 0.0
0.0 0.0 0.0

-543156.1853176535 3.0798522005486595e6 0.0
3.0798522005486595e6 -366820.1533055852 0.0
0.0 0.0 0.0

-1.9451210236817598e6 3.3344798083161777e6 0.0
3.3344798083161777e6 1.1317094131819145e6 0.0
0.0 0.0 0.0

830002.6604542355 2.472333823005154e6 0.0
2.472333823005154e6 -1.4838462833211683e6 0.0
0.0 0.0 0.0

-947634.6676643715 4.0512406513124867e6 0.0
4.0512406513124867e6 -130996.46107005078 0.0
0.0 0.0 0.0

-1.6662301634410429e6 3.0894880164450696e6 0.0
3.0894880164450696e6 883578.110722882 0.0
0.0 0.0 0.0

1.9177099753488023e6 -41986.32866469629 0.0
-41986.32866469629 -1.5801325934729606e6 0.0
0.0 0.0 0.0

-1.19015157000287e6 3.632471191174694e6 0.0
3.632471191174694e6 126513.67629117653 0.0
0.0 0.0 0.0

273752.32697490265 799593.0558933686 0.0
799593.0558933686 -624230.7885878009 0.0
0.0 0.0 0.0

-1.527232836788741e6 3.245165238789442e6 0.0
3.245165238789442e6 758516.9755144651 0.0
0.0 0.0 0.0

-2.0217604905792414e6 3.474795962506014e6 0.0
3.474795962506014e6 1.296531500356078e6 0.0
0.0 0.0 0.0

-2.054454890388792e6 3.2747873002451546e6 0.0
3.2747873002451546e6 1.0602003420978938e6 0.0
0.0 0.0 0.0

-1.8915911548613394e6 3.2766841777122375e6 0.0
3.2766841777122375e6 1.0923596194376969e6 0.0
0.0 0.0 0.0

-1.8312798348086826e6 3.1015848508418463e6 0.0
3.1015848508418463e6 773943.8271184274 0.0
0.0 0.0 0.0

1.7040807503015622e6 766083.3397393326 0.0
766083.3397393326 -2.6576512300786613e6 0.0
0.0 0.0 0.0

-2.0826616547400332e6 4.216363333843009e6 0.0
4.216363333843009e6 1.148405361577312e6 0.0
0.0 0.0 0.0

-808714.5048812972 1.0375100161134375e6 0.0
1.0375100161134375e6 -896958.535823332 0.0
0.0 0.0 0.0

-213627.63403870957 6.375689812783087e6 0.0
6.375689812783087e6 3.888572993716895e6 0.0
0.0 0.0 0.0

-391024.33027244866 2.9481330801762487e6 0.0
2.9481330801762487e6 -766524.7700078542 0.0
0.0 0.0 0.0

-1.6056764915996129e6 3.1011112936062203e6 0.0
3.1011112936062203e6 976865.120865126 0.0
0.0 0.0 0.0

-114325.35097609193 3.7534383469273895e6 0.0
3.7534383469273895e6 -1.2459837497639651e6 0.0
0.0 0.0 0.0

-1.6051205561448538e6 3.0517142534946157e6 0.0
3.0517142534946157e6 816074.7923654146 0.0
0.0 0.0 0.0

-556401.6724914053 3.3130790195890544e6 0.0
3.3130790195890544e6 -293424.6385343763 0.0
0.0 0.0 0.0

-1.4996195139858257e6 2.734222982387025e6 0.0
2.734222982387025e6 638057.3734195944 0.0
0.0 0.0 0.0

-1.6491718075659797e6 3.0688255242222324e6 0.0
3.0688255242222324e6 704024.8796734705 0.0
0.0 0.0 0.0

855204.3290026007 3.6148262345752856e6 0.0
3.6148262345752856e6 -1.5090397594197106e6 0.0
0.0 0.0 0.0

-958484.334323552 4.0568061967489608e6 0.0
4.0568061967489608e6 -171954.97742503317 0.0
0.0 0.0 0.0

-875133.0071191451 2.9163810402031057e6 0.0
2.9163810402031057e6 166851.38591217494 0.0
0.0 0.0 0.0

-1.4471595076908898e6 2.8834232942180852e6 0.0
2.8834232942180852e6 772828.481208074 0.0
0.0 0.0 0.0

-80338.52941580821 3.250559535608349e6 0.0
3.250559535608349e6 -1.2644455049667177e6 0.0
0.0 0.0 0.0

801750.394504791 5.468588894849944e6 0.0
5.468588894849944e6 2.6725000824125414e6 0.0
0.0 0.0 0.0

-1.2495019155584995e6 2.977853788195569e6 0.0
2.977853788195569e6 525091.3304017668 0.0
0.0 0.0 0.0

-5.397370162806664e6 3.011509410641553e6 0.0
3.011509410641553e6 3.081983427239326e6 0.0
0.0 0.0 0.0

-335185.47124722466 2.9808253633612734e6 0.0
2.9808253633612734e6 -871011.0416125227 0.0
0.0 0.0 0.0

-1.7718406159195583e6 3.255648253888462e6 0.0
3.255648253888462e6 1.119347126717943e6 0.0
0.0 0.0 0.0

2.1097539337409413e6 485731.0882801478 0.0
485731.0882801478 -1.5587058209401486e6 0.0
0.0 0.0 0.0

751608.8643146243 2.022610012325236e6 0.0
2.022610012325236e6 -1.8278548709132858e6 0.0
0.0 0.0 0.0

-2.081198081518033e6 3.25802510198028e6 0.0
3.25802510198028e6 1.089973234037889e6 0.0
0.0 0.0 0.0

-607509.1579289073 3.8193714569046e6 0.0
3.8193714569046e6 -1.067699972123509e6 0.0
0.0 0.0 0.0

-1.521997609004322e6 3.0449194882245655e6 0.0
3.0449194882245655e6 820437.8595250262 0.0
0.0 0.0 0.0

-617953.4249639935 1.607643914068924e6 0.0
1.607643914068924e6 -80678.62351640128 0.0
0.0 0.0 0.0

-836115.9103750357 3.610404421167573e6 0.0
3.610404421167573e6 -80161.81565258859 0.0
0.0 0.0 0.0

-241302.08687152306 3.065024216519927e6 0.0
3.065024216519927e6 -977461.4313054468 0.0
0.0 0.0 0.0

-625040.596494096 3.605759791581321e6 0.0
3.605759791581321e6 -79992.44529652206 0.0
0.0 0.0 0.0

-415178.9310888564 3.1715384009218486e6 0.0
3.1715384009218486e6 -769117.8987074408 0.0
0.0 0.0 0.0

-3.184747387570791e6 3.439900973229946e6 0.0
3.439900973229946e6 1.444154056369217e6 0.0
0.0 0.0 0.0

-20574.14948774537 -266452.23494091973 0.0
-266452.23494091973 28635.847320354216 0.0
0.0 0.0 0.0

-542419.5811350631 3.3312442013131976e6 0.0
3.3312442013131976e6 -236340.36935650703 0.0
0.0 0.0 0.0

-1.919672904248869e6 3.1813575804953324e6 0.0
3.1813575804953324e6 939952.2546140368 0.0
0.0 0.0 0.0

-405020.53807257966 -555262.841678617 0.0
-555262.841678617 929637.4547098469 0.0
0.0 0.0 0.0

-170239.64576294666 3.898865923799337e6 0.0
3.898865923799337e6 -457179.3667144916 0.0
0.0 0.0 0.0

-1.5566527413594588e6 2.906197371251106e6 0.0
2.906197371251106e6 741739.6152922682 0.0
0.0 0.0 0.0

-783958.9202645881 2.97620499375875e6 0.0
2.97620499375875e6 -48505.4342649545 0.0
0.0 0.0 0.0

-1.352688260051917e6 2.6289579999365527e6 0.0
2.6289579999365527e6 383785.6663933145 0.0
0.0 0.0 0.0

-1.4626766551387045e6 2.543253569968107e6 0.0
2.543253569968107e6 583560.8803168152 0.0
0.0 0.0 0.0

-1.712098615105084e6 3.0395144150351277e6 0.0
3.0395144150351277e6 880392.5189873374 0.0
0.0 0.0 0.0

-561879.961539772 2.6183402073415695e6 0.0
2.6183402073415695e6 -77137.87325027841 0.0
0.0 0.0 0.0

-1.3117358770669256e6 3.2158453479864784e6 0.0
3.2158453479864784e6 193665.96535167756 0.0
0.0 0.0 0.0

-1.41072034088996e6 3.2776492084966376e6 0.0
3.2776492084966376e6 596294.6731490539 0.0
0.0 0.0 0.0

979245.6279922016 2.182261605547116e6 0.0
2.182261605547116e6 -1.9161636837987232e6 0.0
0.0 0.0 0.0

-1.1241513537350486e6 3.8393672134966953e6 0.0
3.8393672134966953e6 3604.4855194624397 0.0
0.0 0.0 0.0

292761.9392927543 150447.23776379356 0.0
150447.23776379356 -487335.13375442557 0.0
0.0 0.0 0.0

-537025.7499408402 2.709669258015654e6 0.0
2.709669258015654e6 -186071.99979950135 0.0
0.0 0.0 0.0

-944937.8463362908 1.8211018859625647e6 0.0
1.8211018859625647e6 349854.21535479923 0.0
0.0 0.0 0.0

957811.9203235983 1.501268591763566e6 0.0
1.501268591763566e6 -1.5113143093280143e6 0.0
0.0 0.0 0.0

-153837.51054326032 3.147631342398318e6 0.0
3.147631342398318e6 -1.0784109259909906e6 0.0
0.0 0.0 0.0

173931.35348592684 1.401448576767044e6 0.0
1.401448576767044e6 -596409.0183286611 0.0
0.0 0.0 0.0

-100756.6110787458 1.7471473710050825e6 0.0
1.7471473710050825e6 61281.212680927085 0.0
0.0 0.0 0.0

-1.6710947752214284e6 3.0230101611989737e6 0.0
3.0230101611989737e6 868580.1333546769 0.0
0.0 0.0 0.0

-91468.46139269054 -327382.68056497374 0.0
-327382.68056497374 -244416.55938872727 0.0
0.0 0.0 0.0

-622891.3633567854 3.429732415854533e6 0.0
3.429732415854533e6 -93566.7601899489 0.0
0.0 0.0 0.0

-878976.1327025278 2.9929268493649573e6 0.0
2.9929268493649573e6 121559.46930137149 0.0
0.0 0.0 0.0

-135701.74203142617 3.5422384012108003e6 0.0
3.5422384012108003e6 -1.1877051619171943e6 0.0
0.0 0.0 0.0

-464775.0953530144 1.8790034953921216e6 0.0
1.8790034953921216e6 -779602.5361174064 0.0
0.0 0.0 0.0

-1.1723406189802913e6 1.3953491625421003e6 0.0
1.3953491625421003e6 378584.09479886986 0.0
0.0 0.0 0.0

-1.5773368597911324e6 3.0897581076080548e6 0.0
3.0897581076080548e6 874855.3632374251 0.0
0.0 0.0 0.0

-631352.118714547 2.7318503432709314e6 0.0
2.7318503432709314e6 1.4547472623558633e6 0.0
0.0 0.0 0.0

-2.1269743461291306e6 3.4465354447407606e6 0.0
3.4465354447407606e6 1.2016039019267033e6 0.0
0.0 0.0 0.0

-697316.2532077013 2.542514073918259e6 0.0
2.542514073918259e6 566356.2817238332 0.0
0.0 0.0 0.0

-775966.0402175123 2.756837940039079e6 0.0
2.756837940039079e6 297929.61915607104 0.0
0.0 0.0 0.0

-1.0864266770473798e6 1.4913487890873714e6 0.0
1.4913487890873714e6 131981.18464819656 0.0
0.0 0.0 0.0

-794331.3530273035 3.5417397597935535e6 0.0
3.5417397597935535e6 64042.462197454995 0.0
0.0 0.0 0.0

-325830.96969503234 3.82407035216941e6 0.0
3.82407035216941e6 -406713.50308529125 0.0
0.0 0.0 0.0

-1.5163519250046383e6 2.7958732731381115e6 0.0
2.7958732731381115e6 657208.784557219 0.0
0.0 0.0 0.0

-174691.99675806952 3.1633374763381695e6 0.0
3.1633374763381695e6 -1.2724792877530607e6 0.0
0.0 0.0 0.0

-1.6391581093083904e6 3.13293554808549e6 0.0
3.13293554808549e6 950836.0543736039 0.0
0.0 0.0 0.0

-445281.84851266374 2.8994241373394327e6 0.0
2.8994241373394327e6 -684240.9039024087 0.0
0.0 0.0 0.0

-1.0031506690225231e6 3.514826602207323e6 0.0
3.514826602207323e6 -1764.0932205689023 0.0
0.0 0.0 0.0

-653920.9827317605 2.5483400979401637e6 0.0
2.5483400979401637e6 -1.164377388653879e6 0.0
0.0 0.0 0.0

-1.707414860496605e6 3.18618073115264e6 0.0
3.18618073115264e6 1.0383250636933891e6 0.0
0.0 0.0 0.0

-444720.18501246866 3.917777201872266e6 0.0
3.917777201872266e6 -351018.30836534104 0.0
0.0 0.0 0.0

-418386.55455534934 -356555.5032186455 0.0
-356555.5032186455 1.0594971086293305e6 0.0
0.0 0.0 0.0

-2.7898921164377825e6 2.522095834636378e6 0.0
2.522095834636378e6 956763.518071185 0.0
0.0 0.0 0.0

-545479.5323801194 4.022777463575316e6 0.0
4.022777463575316e6 -242295.14528565475 0.0
0.0 0.0 0.0

-1.0416495205144633e6 771187.2733288229 0.0
771187.2733288229 1.991007972848928e6 0.0
0.0 0.0 0.0

-1.0451194869492884e6 3.4587309549498e6 0.0
3.4587309549498e6 145477.74424590723 0.0
0.0 0.0 0.0

-1.2700417294000213e6 3.400981755694126e6 0.0
3.400981755694126e6 234116.73884605104 0.0
0.0 0.0 0.0

-1.4009745765426443e6 2.789989137210443e6 0.0
2.789989137210443e6 725481.4040672901 0.0
0.0 0.0 0.0

-1.542833431727428e6 3.013332793476047e6 0.0
3.013332793476047e6 877354.9379212338 0.0
0.0 0.0 0.0

-930389.723712277 2.370081178304416e6 0.0
2.370081178304416e6 463013.49187486793 0.0
0.0 0.0 0.0

-1.0225599738064131e6 3.062322342761522e6 0.0
3.062322342761522e6 314749.23943310336 0.0
0.0 0.0 0.0

750274.1259989504 1.3064200005434887e6 0.0
1.3064200005434887e6 -1.411397173855718e6 0.0
0.0 0.0 0.0

-476504.737080727 197608.2157356126 0.0
197608.2157356126 -325193.7690607915 0.0
0.0 0.0 0.0

-764870.5340572231 2.711633841122526e6 0.0
2.711633841122526e6 452171.51302691543 0.0
0.0 0.0 0.0

-2.0976796279273313e6 3.5133934643200217e6 0.0
3.5133934643200217e6 1.2331296496836918e6 0.0
0.0 0.0 0.0

-500821.4355476668 3.90714919663366e6 0.0
3.90714919663366e6 -376144.81505679124 0.0
0.0 0.0 0.0

-1.2585035071598804e6 3.8599236471784683e6 0.0
3.8599236471784683e6 -124247.36619173252 0.0
0.0 0.0 0.0

862926.0340595972 87788.43367391099 0.0
87788.43367391099 -774750.0655421712 0.0
0.0 0.0 0.0

-1.4967999487128449e6 3.0788330197192514e6 0.0
3.0788330197192514e6 711591.9842380284 0.0
0.0 0.0 0.0

-16735.58966467774 4.693167455352827e6 0.0
4.693167455352827e6 798081.4596432489 0.0
0.0 0.0 0.0

-1.114039306769916e6 1.42534534659735e6 0.0
1.42534534659735e6 338627.0932049833 0.0
0.0 0.0 0.0

792639.5970919749 1.747284863263513e6 0.0
1.747284863263513e6 -1.5621827207266518e6 0.0
0.0 0.0 0.0

-810034.5944265561 1.6022874345489056e6 0.0
1.6022874345489056e6 2.084582806930626e6 0.0
0.0 0.0 0.0

-401000.1057720384 3.1050817651730822e6 0.0
3.1050817651730822e6 -797472.9815368393 0.0
0.0 0.0 0.0

779084.6805983672 1.0621065433088888e6 0.0
1.0621065433088888e6 -615938.6730266105 0.0
0.0 0.0 0.0

-2.4533996492574187e6 2.2809749689778006e6 0.0
2.2809749689778006e6 660171.5401883634 0.0
0.0 0.0 0.0

-671301.4511276747 1.8590285426937046e6 0.0
1.8590285426937046e6 1.8426856856574053e6 0.0
0.0 0.0 0.0

-1.0822135069496653e6 3.693763701099539e6 0.0
3.693763701099539e6 98829.44468494994 0.0
0.0 0.0 0.0

-2.878459853982513e6 4.50313916110515e6 0.0
4.50313916110515e6 1.7768645383977538e6 0.0
0.0 0.0 0.0

-1.1702895171518903e6 3.280080679853893e6 0.0
3.280080679853893e6 316335.6037386994 0.0
0.0 0.0 0.0

2.913000325990921e6 3.4762451671440178e6 0.0
3.4762451671440178e6 -870028.8099566521 0.0
0.0 0.0 0.0

-1.199772115055154e6 2.6949102235083114e6 0.0
2.6949102235083114e6 479851.96679346426 0.0
0.0 0.0 0.0

-512914.67056052224 2.587163444057794e6 0.0
2.587163444057794e6 -1.0909053166387759e6 0.0
0.0 0.0 0.0

-1.182487369623913e6 3.1664775554273203e6 0.0
3.1664775554273203e6 501249.0286207754 0.0
0.0 0.0 0.0

-1.3106700086625614e6 4.4772707933230875e6 0.0
4.4772707933230875e6 -198286.50068381897 0.0
0.0 0.0 0.0

-913548.1311004665 1.9275223424090848e6 0.0
1.9275223424090848e6 629673.0014701346 0.0
0.0 0.0 0.0

-722552.9092739915 3.9313785353365843e6 0.0
3.9313785353365843e6 83557.38125534242 0.0
0.0 0.0 0.0

-134717.4099115919 3.9913898701291727e6 0.0
3.9913898701291727e6 -1.2880932161252983e6 0.0
0.0 0.0 0.0

-112886.23112912025 555401.657800876 0.0
555401.657800876 -200244.99152524603 0.0
0.0 0.0 0.0

-2.053112284367459e6 3.369159883809879e6 0.0
3.369159883809879e6 1.1483717931559288e6 0.0
0.0 0.0 0.0

-1.4100218650686322e6 3.369939838686905e6 0.0
3.369939838686905e6 370633.43947632564 0.0
0.0 0.0 0.0

-2.1039743570883283e6 3.425561200870773e6 0.0
3.425561200870773e6 1.2373910146650919e6 0.0
0.0 0.0 0.0

-860178.3383756718 2.357061008448617e6 0.0
2.357061008448617e6 18034.83645598835 0.0
0.0 0.0 0.0

629981.3543084967 916994.1403027425 0.0
916994.1403027425 -749574.9979286984 0.0
0.0 0.0 0.0

-1.237542046230325e6 3.2030036358270994e6 0.0
3.2030036358270994e6 318837.1635141604 0.0
0.0 0.0 0.0

-856002.2474378095 3.2084914706716216e6 0.0
3.2084914706716216e6 800750.5991030978 0.0
0.0 0.0 0.0

-680293.8039130084 2.6480458446134385e6 0.0
2.6480458446134385e6 154139.01437224358 0.0
0.0 0.0 0.0

-1.4042672025548378e6 2.7136347527707354e6 0.0
2.7136347527707354e6 795236.529064551 0.0
0.0 0.0 0.0

140077.35585905483 3.6016937185060033e6 0.0
3.6016937185060033e6 -1.591135881324526e6 0.0
0.0 0.0 0.0

-1.1845507154190533e6 3.1456320578991123e6 0.0
3.1456320578991123e6 310225.58425804775 0.0
0.0 0.0 0.0

-721677.1346862413 2.8746635146105415e6 0.0
2.8746635146105415e6 -330300.12663097936 0.0
0.0 0.0 0.0

-922946.581419635 2.371854197062519e6 0.0
2.371854197062519e6 -194285.8888372071 0.0
0.0 0.0 0.0

-1.8337884397003418e6 3.5928261707061445e6 0.0
3.5928261707061445e6 887761.265772231 0.0
0.0 0.0 0.0

-1.4114579471785983e6 2.7499928346479023e6 0.0
2.7499928346479023e6 458093.5942263096 0.0
0.0 0.0 0.0

-119211.09907427087 3.0557657591871014e6 0.0
3.0557657591871014e6 -1.1887184337011704e6 0.0
0.0 0.0 0.0

-304728.24358055816 420932.8489184948 0.0
420932.8489184948 -131632.53672944664 0.0
0.0 0.0 0.0

302231.78187057236 732292.7799862606 0.0
732292.7799862606 -357023.5249394559 0.0
0.0 0.0 0.0

-2.7906355756231975e6 4.539011717976401e6 0.0
4.539011717976401e6 1.5097480768108245e6 0.0
0.0 0.0 0.0

-1.07758237330581e6 3.248740234538579e6 0.0
3.248740234538579e6 244971.27398377348 0.0
0.0 0.0 0.0

-1.6656145382108781e6 3.019540323243284e6 0.0
3.019540323243284e6 795854.2100291058 0.0
0.0 0.0 0.0

529226.5231183188 889147.9982827276 0.0
889147.9982827276 -1.2920003089954907e6 0.0
0.0 0.0 0.0

-1.5173142185692247e6 -499527.33038838237 0.0
-499527.33038838237 1.8549073632475568e6 0.0
0.0 0.0 0.0

-220016.5981287046 1.3576432406222324e6 0.0
1.3576432406222324e6 -1.283411959856168e6 0.0
0.0 0.0 0.0

-942974.1154406402 4.194937684721801e6 0.0
4.194937684721801e6 65906.68721064989 0.0
0.0 0.0 0.0

-1.5252680421421188e6 3.9975707169302036e6 0.0
3.9975707169302036e6 897749.7003147608 0.0
0.0 0.0 0.0

-1.3912277185697265e6 3.1977844657752803e6 0.0
3.1977844657752803e6 404299.06711045734 0.0
0.0 0.0 0.0

1.0886483106134576e6 1.8193471462398316e6 0.0
1.8193471462398316e6 -1.8033174541425072e6 0.0
0.0 0.0 0.0

-1.708896914485789e6 3.246271345410752e6 0.0
3.246271345410752e6 1.1084753202245287e6 0.0
0.0 0.0 0.0

-1.6660261018742088e6 3.3394879001051225e6 0.0
3.3394879001051225e6 988212.3909505677 0.0
0.0 0.0 0.0

793368.477885798 1.9472402475192258e6 0.0
1.9472402475192258e6 -1.7798486249382258e6 0.0
0.0 0.0 0.0

-2.1706695071198945e6 3.9437411633728375e6 0.0
3.9437411633728375e6 1.3219779060354754e6 0.0
0.0 0.0 0.0

-561990.8519926104 3.7176938741105697e6 0.0
3.7176938741105697e6 -387805.0176689876 0.0
0.0 0.0 0.0

-1.8129938916055604e6 3.1766599213848324e6 0.0
3.1766599213848324e6 1.00030935047487e6 0.0
0.0 0.0 0.0

-104611.27888678852 3.4628130967163583e6 0.0
3.4628130967163583e6 -1.5202087672759434e6 0.0
0.0 0.0 0.0

-115697.48020189052 -37421.002947004505 0.0
-37421.002947004505 -927457.746470272 0.0
0.0 0.0 0.0

-736962.998361466 1.5515196214616203e6 0.0
1.5515196214616203e6 -478746.82934591407 0.0
0.0 0.0 0.0

-1.4536743699410048e6 3.0691198445565584e6 0.0
3.0691198445565584e6 642738.6364687653 0.0
0.0 0.0 0.0

-581293.3528158669 3.6402269067461886e6 0.0
3.6402269067461886e6 -427646.0840280481 0.0
0.0 0.0 0.0

-1.5317554214373282e6 2.861033458129315e6 0.0
2.861033458129315e6 618537.5922018769 0.0
0.0 0.0 0.0

291705.90330637095 247868.12579680423 0.0
247868.12579680423 -1.0066437963385447e6 0.0
0.0 0.0 0.0

988034.2150338367 1.717566227454218e6 0.0
1.717566227454218e6 -1.6415448329783382e6 0.0
0.0 0.0 0.0

-614872.5109466511 2.7302570327110374e6 0.0
2.7302570327110374e6 -487990.56139885983 0.0
0.0 0.0 0.0

-985596.5884693437 1.6916959490112227e6 0.0
1.6916959490112227e6 -201538.69700064347 0.0
0.0 0.0 0.0

-1.1159916724531436e6 3.3720784348862404e6 0.0
3.3720784348862404e6 269999.17655410414 0.0
0.0 0.0 0.0

-1.248142583491911e6 3.904796567713528e6 0.0
3.904796567713528e6 -111927.45294824569 0.0
0.0 0.0 0.0

-7.020507073272274e6 360821.3803330038 0.0
360821.3803330038 1.359003986350429e7 0.0
0.0 0.0 0.0

19639.587652565722 990421.0527688647 0.0
990421.0527688647 -229719.18068431385 0.0
0.0 0.0 0.0

-1.3177244610643699e6 3.5342375691531505e6 0.0
3.5342375691531505e6 304177.43643714493 0.0
0.0 0.0 0.0

-1.0058360397265755e6 3.363053028354428e6 0.0
3.363053028354428e6 187576.83204827306 0.0
0.0 0.0 0.0

72927.06772607738 108919.63125806324 0.0
108919.63125806324 89580.36036306362 0.0
0.0 0.0 0.0

864457.1086028827 1.5743747905654078e6 0.0
1.5743747905654078e6 -1.5747536363078072e6 0.0
0.0 0.0 0.0

-1.1380873252123944e6 3.287444552928078e6 0.0
3.287444552928078e6 36574.55903346941 0.0
0.0 0.0 0.0

-332442.67788198276 3.0943546148959845e6 0.0
3.0943546148959845e6 -956509.9040152243 0.0
0.0 0.0 0.0

-1.3261937863728148e6 3.368604064651869e6 0.0
3.368604064651869e6 708764.8846134262 0.0
0.0 0.0 0.0

-1.640753201949033e6 3.209200722140459e6 0.0
3.209200722140459e6 1.0388112186151323e6 0.0
0.0 0.0 0.0

-505032.3963822021 3.3192662164212447e6 0.0
3.3192662164212447e6 -218406.43749847807 0.0
0.0 0.0 0.0

-1.5726748553340586e6 3.272803974252334e6 0.0
3.272803974252334e6 711664.1157677468 0.0
0.0 0.0 0.0

426334.52060914924 1.193391252321684e6 0.0
1.193391252321684e6 -1.0606078614223185e6 0.0
0.0 0.0 0.0

-8.625998919535218e6 716284.9908986165 0.0
716284.9908986165 7.200905950091511e6 0.0
0.0 0.0 0.0

-712935.6355299195 2.7176745716007575e6 0.0
2.7176745716007575e6 652420.3022028569 0.0
0.0 0.0 0.0

-915827.0672501989 3.0559555345795336e6 0.0
3.0559555345795336e6 417820.9346166055 0.0
0.0 0.0 0.0

-2.219715935587181e6 3.250399342121026e6 0.0
3.250399342121026e6 1.027877177280648e6 0.0
0.0 0.0 0.0

134213.08014845103 2.3014218414776567e6 0.0
2.3014218414776567e6 -1.5808161145635312e6 0.0
0.0 0.0 0.0

656661.6812424244 1.923836416824085e6 0.0
1.923836416824085e6 -1.6717084497481545e6 0.0
0.0 0.0 0.0

807458.6203225653 2.8269966736367694e6 0.0
2.8269966736367694e6 -1.519586925592326e6 0.0
0.0 0.0 0.0

-635023.1644818947 3.581730804850226e6 0.0
3.581730804850226e6 -49103.703152103175 0.0
0.0 0.0 0.0

-142912.16965152195 2.291366831852739e6 0.0
2.291366831852739e6 -373618.3403591829 0.0
0.0 0.0 0.0

267452.0156110835 1.925826869870027e6 0.0
1.925826869870027e6 -19499.51477400407 0.0
0.0 0.0 0.0

-548091.9818639393 3.863858231886216e6 0.0
3.863858231886216e6 -357113.0095252861 0.0
0.0 0.0 0.0

-216025.36864686667 3.9613500692660785e6 0.0
3.9613500692660785e6 -1.2796286965169034e6 0.0
0.0 0.0 0.0

-1.1517161147059447e6 3.386463011126355e6 0.0
3.386463011126355e6 207094.9385581296 0.0
0.0 0.0 0.0

-1.6874764299259838e6 5.594055603199286e6 0.0
5.594055603199286e6 988927.1544168263 0.0
0.0 0.0 0.0

-1.2004092481663092e6 3.9320458717776327e6 0.0
3.9320458717776327e6 -110898.89751515863 0.0
0.0 0.0 0.0

-692410.9018523803 2.7871901781475907e6 0.0
2.7871901781475907e6 1.0007685744420462e6 0.0
0.0 0.0 0.0

946347.770841548 2.981815280594186e6 0.0
2.981815280594186e6 -2.1288472335565183e6 0.0
0.0 0.0 0.0

-1.043343541134452e6 2.3765344398668497e6 0.0
2.3765344398668497e6 299872.4788273155 0.0
0.0 0.0 0.0

1.5558783282891768e6 916213.1780258239 0.0
916213.1780258239 -1.6594465885766773e6 0.0
0.0 0.0 0.0

963879.6661758105 2.2401524452414005e6 0.0
2.2401524452414005e6 -1.6505769480542194e6 0.0
0.0 0.0 0.0

-1.5607453023259023e6 3.1845778223392474e6 0.0
3.1845778223392474e6 513816.5726788575 0.0
0.0 0.0 0.0

13325.940627671487 2.812351755682364e6 0.0
2.812351755682364e6 -313625.54145388043 0.0
0.0 0.0 0.0

-616246.3935532055 2.468036318647303e6 0.0
2.468036318647303e6 1.098350080321123e6 0.0
0.0 0.0 0.0

-961269.5012920722 3.2560609330960005e6 0.0
3.2560609330960005e6 395498.24598399445 0.0
0.0 0.0 0.0

-96552.87626392112 1.2927587342822098e6 0.0
1.2927587342822098e6 -861043.3943054236 0.0
0.0 0.0 0.0

-1.4574407768909163e6 4.575166042724651e6 0.0
4.575166042724651e6 748776.6775368868 0.0
0.0 0.0 0.0

-2.516977178291005e6 4.859011240228453e6 0.0
4.859011240228453e6 1.4636337987868704e6 0.0
0.0 0.0 0.0

-1.3782772125120661e6 3.4616086297661522e6 0.0
3.4616086297661522e6 318618.008241268 0.0
0.0 0.0 0.0

-624020.273143838 2.169721764939731e6 0.0
2.169721764939731e6 1.6506729428565972e6 0.0
0.0 0.0 0.0

-7.415340710118899e6 9.240179338453144e6 0.0
9.240179338453144e6 1.616814332460472e6 0.0
0.0 0.0 0.0

-1.122157443866227e6 3.2851893438455802e6 0.0
3.2851893438455802e6 879274.7840835098 0.0
0.0 0.0 0.0

-483387.2738004869 2.9294367626032033e6 0.0
2.9294367626032033e6 -148509.32287038126 0.0
0.0 0.0 0.0

472025.02306547406 436325.98118164414 0.0
436325.98118164414 -705208.7559396869 0.0
0.0 0.0 0.0

-1.4907302704366297e6 2.952852520991494e6 0.0
2.952852520991494e6 814152.721010858 0.0
0.0 0.0 0.0

-1.1545366626375797e6 5.001997126861337e6 0.0
5.001997126861337e6 -277020.1612544861 0.0
0.0 0.0 0.0

-2.4029362042386904e6 2.6511457550809635e6 0.0
2.6511457550809635e6 758746.8235485079 0.0
0.0 0.0 0.0

-1.3932194979218917e6 2.931606486471616e6 0.0
2.931606486471616e6 730769.6262767633 0.0
0.0 0.0 0.0

-1.77364644276508e6 3.2438048736833395e6 0.0
3.2438048736833395e6 849998.9975778423 0.0
0.0 0.0 0.0

439097.1801142479 258428.09932102566 0.0
258428.09932102566 -419201.59870879736 0.0
0.0 0.0 0.0

797729.3703276826 1.3569647031613635e6 0.0
1.3569647031613635e6 -1.4925038650929097e6 0.0
0.0 0.0 0.0

-2.260964333037086e6 4.712244250067352e6 0.0
4.712244250067352e6 1.4644667148747123e6 0.0
0.0 0.0 0.0

-806041.9420641457 3.038929927027855e6 0.0
3.038929927027855e6 935475.2263020055 0.0
0.0 0.0 0.0

-1.247793801658884e6 4.386305195640915e6 0.0
4.386305195640915e6 -491947.4064823152 0.0
0.0 0.0 0.0

169177.91991395468 368394.61728997296 0.0
368394.61728997296 -1.0016980691667381e6 0.0
0.0 0.0 0.0

-1.7814375382029754e6 5.566537131313587e6 0.0
5.566537131313587e6 -7226.91038499109 0.0
0.0 0.0 0.0

-1.771230010563863e6 3.136944686131942e6 0.0
3.136944686131942e6 926024.6966410794 0.0
0.0 0.0 0.0

-513214.8666787157 2.8242850325592994e6 0.0
2.8242850325592994e6 -592269.312979351 0.0
0.0 0.0 0.0

-1.6012382617744107e6 3.0771699244565093e6 0.0
3.0771699244565093e6 954381.2361996246 0.0
0.0 0.0 0.0

-136256.90822708176 1.7968901374480315e6 0.0
1.7968901374480315e6 -1.2282452410792045e6 0.0
0.0 0.0 0.0

-1.726101712696611e6 3.114991397115785e6 0.0
3.114991397115785e6 624570.9938340754 0.0
0.0 0.0 0.0

647643.8070159166 531470.8964362898 0.0
531470.8964362898 -921570.3125279073 0.0
0.0 0.0 0.0

-37777.21409924445 2.9250613059674236e6 0.0
2.9250613059674236e6 -184525.98226572238 0.0
0.0 0.0 0.0

-533776.443464332 3.2553399161454625e6 0.0
3.2553399161454625e6 -301718.9003674233 0.0
0.0 0.0 0.0

-399746.4553613807 2.7531862594498023e6 0.0
2.7531862594498023e6 -1.1016369715683188e6 0.0
0.0 0.0 0.0

-690582.4253547422 3.516197588438282e6 0.0
3.516197588438282e6 -222833.67019173672 0.0
0.0 0.0 0.0

-5.08524566913351e6 3.313821350628967e6 0.0
3.313821350628967e6 4.452257072476547e6 0.0
0.0 0.0 0.0

-881700.9365923068 3.342917094694635e6 0.0
3.342917094694635e6 116117.46028372517 0.0
0.0 0.0 0.0

-433421.9082701382 3.824382131891162e6 0.0
3.824382131891162e6 -340417.98412497435 0.0
0.0 0.0 0.0

-8.149807300123926e6 388229.7754163964 0.0
388229.7754163964 6.923430179902831e6 0.0
0.0 0.0 0.0

-526607.5955555392 3.799373198032062e6 0.0
3.799373198032062e6 -386775.23450423393 0.0
0.0 0.0 0.0

-1.1619648201403783e6 3.417730289653253e6 0.0
3.417730289653253e6 103154.96902033995 0.0
0.0 0.0 0.0

-424103.38329833525 1.4701386263346055e6 0.0
1.4701386263346055e6 -356337.91983320273 0.0
0.0 0.0 0.0

-2.1708900086040036e6 3.198108924986715e6 0.0
3.198108924986715e6 900738.1972806536 0.0
0.0 0.0 0.0

-226258.58337785202 2.2957104486998343e6 0.0
2.2957104486998343e6 -965846.7431933985 0.0
0.0 0.0 0.0

-216343.47466306918 2.744823866274918e6 0.0
2.744823866274918e6 -887572.6110549609 0.0
0.0 0.0 0.0

626954.6667518301 964811.1024039409 0.0
964811.1024039409 -778771.933912213 0.0
0.0 0.0 0.0

-703709.2184420723 2.674005485360082e6 0.0
2.674005485360082e6 70559.25818568232 0.0
0.0 0.0 0.0

849750.8969695546 1.8532346074372542e6 0.0
1.8532346074372542e6 -1.549955137683195e6 0.0
0.0 0.0 0.0

464605.14731756365 516046.64039292134 0.0
516046.64039292134 -622812.9430141532 0.0
0.0 0.0 0.0

-214247.09746827895 2.5625844472484333e6 0.0
2.5625844472484333e6 -935987.9904008686 0.0
0.0 0.0 0.0

-6.686458681570373e6 -1.1486288993568146e6 0.0
-1.1486288993568146e6 3.9089695461382675e6 0.0
0.0 0.0 0.0

942225.8981553765 2.7318566248587617e6 0.0
2.7318566248587617e6 -2.1943929975490263e6 0.0
0.0 0.0 0.0

-552400.8195144268 2.8174393423917377e6 0.0
2.8174393423917377e6 -63769.17199709844 0.0
0.0 0.0 0.0

-762629.435987039 2.860390362088786e6 0.0
2.860390362088786e6 83729.56491409926 0.0
0.0 0.0 0.0

-1.1429379718939592e6 3.9343994198966217e6 0.0
3.9343994198966217e6 -35133.172844596964 0.0
0.0 0.0 0.0

-1.6080353016684386e6 2.965179081026489e6 0.0
2.965179081026489e6 801243.0076364389 0.0
0.0 0.0 0.0

-743046.621638698 3.6047477131740786e6 0.0
3.6047477131740786e6 289636.3301152324 0.0
0.0 0.0 0.0

-611130.3400070078 2.20287574391869e6 0.0
2.20287574391869e6 -557299.3172612808 0.0
0.0 0.0 0.0

325115.4074908154 2.8562657334163236e6 0.0
2.8562657334163236e6 -1.7084756243291537e6 0.0
0.0 0.0 0.0

-2.0488360849929005e6 3.1715272760697408e6 0.0
3.1715272760697408e6 777213.3218715307 0.0
0.0 0.0 0.0

-1.7694521582447765e6 4.41752995889551e6 0.0
4.41752995889551e6 747812.877539455 0.0
0.0 0.0 0.0

883050.053891419 2.782215680101822e6 0.0
2.782215680101822e6 -1.6099196781689734e6 0.0
0.0 0.0 0.0

-439306.7094357759 2.9894965260698423e6 0.0
2.9894965260698423e6 112357.70694257435 0.0
0.0 0.0 0.0

-1.1789178314576978e6 3.9594562032025787e6 0.0
3.9594562032025787e6 -107950.64435380494 0.0
0.0 0.0 0.0

-5.181270744950292e6 2.6557125938222692e6 0.0
2.6557125938222692e6 2.9583054163370538e6 0.0
0.0 0.0 0.0

45510.546133126016 1.1288485583091688e6 0.0
1.1288485583091688e6 141124.64711894543 0.0
0.0 0.0 0.0

-462203.7201059626 2.7561418025170653e6 0.0
2.7561418025170653e6 -1.1031299738160404e6 0.0
0.0 0.0 0.0

346248.81325286085 450807.9030471175 0.0
450807.9030471175 -394236.7536200282 0.0
0.0 0.0 0.0

-291418.1422681331 13020.653124580998 0.0
13020.653124580998 484073.9940081937 0.0
0.0 0.0 0.0

1.1356615095105595e6 1.810283053531469e6 0.0
1.810283053531469e6 -1.8105585893408265e6 0.0
0.0 0.0 0.0

-839324.5869575152 4.046642592370086e6 0.0
4.046642592370086e6 -182337.6228379479 0.0
0.0 0.0 0.0

-234276.30755555505 3.382681620607783e6 0.0
3.382681620607783e6 -1.151635864666704e6 0.0
0.0 0.0 0.0

-2.1411928095353805e6 664924.9024145185 0.0
664924.9024145185 3.212830325840926e6 0.0
0.0 0.0 0.0

-1.1635846263955203e6 3.409415838663466e6 0.0
3.409415838663466e6 165877.1481120782 0.0
0.0 0.0 0.0

-249685.6133852575 2.0094825280250635e6 0.0
2.0094825280250635e6 -983421.5188518121 0.0
0.0 0.0 0.0

-2.354359461003477e6 1.5652684283893383e6 0.0
1.5652684283893383e6 6.966150049412869e6 0.0
0.0 0.0 0.0

-1.5801524483938473e6 3.263722303041165e6 0.0
3.263722303041165e6 577922.7477379624 0.0
0.0 0.0 0.0

-1.4510323301987122e6 2.328564872008402e6 0.0
2.328564872008402e6 2.279011994207191e6 0.0
0.0 0.0 0.0

-277391.88280320977 3.322455304332461e6 0.0
3.322455304332461e6 -1.0571526772734812e6 0.0
0.0 0.0 0.0

4.685914525215866e6 5.300158745327446e6 0.0
5.300158745327446e6 -1.1407984055001321e6 0.0
0.0 0.0 0.0

-1.4768902193945996e6 3.5492334266203237e6 0.0
3.5492334266203237e6 867179.1053351673 0.0
0.0 0.0 0.0

-2.087877283648838e6 4.972146739712951e6 0.0
4.972146739712951e6 1.4900165343871834e6 0.0
0.0 0.0 0.0

-392044.51000146504 2.144236550322413e6 0.0
2.144236550322413e6 -795861.6800041439 0.0
0.0 0.0 0.0

-53009.094160143024 2.286833119705166e6 0.0
2.286833119705166e6 -957632.1085490462 0.0
0.0 0.0 0.0

-1.5376339680741965e6 2.8140774894626513e6 0.0
2.8140774894626513e6 690141.4148310417 0.0
0.0 0.0 0.0

-4818.2047525971175 1.9567256352043406e6 0.0
1.9567256352043406e6 -77833.9817366609 0.0
0.0 0.0 0.0

-68607.82348785218 3.911566354805502e6 0.0
3.911566354805502e6 -1.4152174270324728e6 0.0
0.0 0.0 0.0

1.6570648535474217e6 785182.3605563014 0.0
785182.3605563014 -1.444440596518315e6 0.0
0.0 0.0 0.0

-523143.28423389 2.6064086309375297e6 0.0
2.6064086309375297e6 -631128.6865548373 0.0
0.0 0.0 0.0

-1.8579022830715906e6 1.6576968866773902e6 0.0
1.6576968866773902e6 306546.3822935672 0.0
0.0 0.0 0.0

-955385.267882824 2.644432221552583e6 0.0
2.644432221552583e6 85533.59997635835 0.0
0.0 0.0 0.0

-3.8728177842685836e6 1.7868399182414096e6 0.0
1.7868399182414096e6 1.0415500105098367e7 0.0
0.0 0.0 0.0

-620852.5052070429 3.9991689716285914e6 0.0
3.9991689716285914e6 -87198.85811919422 0.0
0.0 0.0 0.0

-312731.7774171095 3.628812028547763e6 0.0
3.628812028547763e6 -467360.86295359797 0.0
0.0 0.0 0.0

-1.1754486013479321e6 3.949427282796771e6 0.0
3.949427282796771e6 -56607.620858797454 0.0
0.0 0.0 0.0

-1.6069067408138975e6 3.6988629160527615e6 0.0
3.6988629160527615e6 1.0483046576245449e6 0.0
0.0 0.0 0.0

-1.2619341774113262e6 3.5087108897502343e6 0.0
3.5087108897502343e6 214302.58457534778 0.0
0.0 0.0 0.0

196097.84485492733 1.7875506029002015e6 0.0
1.7875506029002015e6 -244026.7194808876 0.0
0.0 0.0 0.0

-609549.6037143101 2.9072881467012204e6 0.0
2.9072881467012204e6 -497357.242817985 0.0
0.0 0.0 0.0

725749.3059272466 606765.1036345785 0.0
606765.1036345785 -1.0429099431245644e6 0.0
0.0 0.0 0.0

-968516.6744005709 3.1629977709817267e6 0.0
3.1629977709817267e6 1.1936010327054367e6 0.0
0.0 0.0 0.0

-336786.0172410812 3.2815098058939916e6 0.0
3.2815098058939916e6 -959135.2172155352 0.0
0.0 0.0 0.0

-1.7421865461864732e6 3.6873705394058134e6 0.0
3.6873705394058134e6 1.18149971712497e6 0.0
0.0 0.0 0.0

-1.7443239613968446e6 3.163092008424271e6 0.0
3.163092008424271e6 634751.3297017304 0.0
0.0 0.0 0.0

513571.43822175695 61146.463362031136 0.0
61146.463362031136 -568128.6473111572 0.0
0.0 0.0 0.0

-1.6809394117446903e6 3.285749766189962e6 0.0
3.285749766189962e6 443894.6776077908 0.0
0.0 0.0 0.0

-1.0583175923979874e6 3.42040256476288e6 0.0
3.42040256476288e6 -8682.46496099577 0.0
0.0 0.0 0.0

-1.4961694421460438e6 3.436891367227232e6 0.0
3.436891367227232e6 248985.70633786952 0.0
0.0 0.0 0.0

-378929.52943632036 3.830113604867886e6 0.0
3.830113604867886e6 -324103.35402586276 0.0
0.0 0.0 0.0

-1.8726325932012592e6 4.601295071260955e6 0.0
4.601295071260955e6 1.2865853807353815e6 0.0
0.0 0.0 0.0

959727.3605995398 1.6623308745207174e6 0.0
1.6623308745207174e6 -1.6088321098332293e6 0.0
0.0 0.0 0.0

46891.434980269434 1.5600407337921835e6 0.0
1.5600407337921835e6 27226.19831979973 0.0
0.0 0.0 0.0

-354601.18268581736 3.4660676688994886e6 0.0
3.4660676688994886e6 -669528.7985342472 0.0
0.0 0.0 0.0

-385059.4118029596 3.2847773665155503e6 0.0
3.2847773665155503e6 -859828.1769185839 0.0
0.0 0.0 0.0

-1.5130763226776908e6 3.3157190502754133e6 0.0
3.3157190502754133e6 536733.7211319146 0.0
0.0 0.0 0.0

-645276.5301703624 4.0548311889068116e6 0.0
4.0548311889068116e6 -238145.35640102116 0.0
0.0 0.0 0.0

-916131.519740698 3.624964948722787e6 0.0
3.624964948722787e6 241222.25932096562 0.0
0.0 0.0 0.0

-372098.691370397 3.522128116172258e6 0.0
3.522128116172258e6 -887322.9749046923 0.0
0.0 0.0 0.0

59779.57917047606 2.5039810035325177e6 0.0
2.5039810035325177e6 -1.1775242404688392e6 0.0
0.0 0.0 0.0

393263.9220241187 2.404213202047267e6 0.0
2.404213202047267e6 -1.2262177376689396e6 0.0
0.0 0.0 0.0

-325228.19705328206 3.4213897769335113e6 0.0
3.4213897769335113e6 -1.0765814913895142e6 0.0
0.0 0.0 0.0

-598167.6856514295 3.252121622035914e6 0.0
3.252121622035914e6 716605.1808843683 0.0
0.0 0.0 0.0

-1.7435372991600242e6 3.0911053952529426e6 0.0
3.0911053952529426e6 939078.9189899255 0.0
0.0 0.0 0.0

1.042431530158155e6 2.167127918261446e6 0.0
2.167127918261446e6 -1.8854551069323984e6 0.0
0.0 0.0 0.0

1.1742029003975336e6 2.6042621660047434e6 0.0
2.6042621660047434e6 -1.9725217637412734e6 0.0
0.0 0.0 0.0

-473529.92536660784 3.2090519714751947e6 0.0
3.2090519714751947e6 -220208.51309650415 0.0
0.0 0.0 0.0

-1.9211101512049478e6 3.175928424958533e6 0.0
3.175928424958533e6 758542.8435172648 0.0
0.0 0.0 0.0

120068.42020063166 439832.82814113447 0.0
439832.82814113447 116188.55458647308 0.0
0.0 0.0 0.0

-554091.6873036108 3.0611398579780124e6 0.0
3.0611398579780124e6 -285565.5716223483 0.0
0.0 0.0 0.0

-659726.520951899 2.7670222876986703e6 0.0
2.7670222876986703e6 23575.099925751216 0.0
0.0 0.0 0.0

253788.40660881344 2.1790980336895124e6 0.0
2.1790980336895124e6 -1.1920978779619106e6 0.0
0.0 0.0 0.0

1.1559167071880247e6 1.8330124556496223e6 0.0
1.8330124556496223e6 -1.8262141436105696e6 0.0
0.0 0.0 0.0

-581949.3721543987 2.7355883178311205e6 0.0
2.7355883178311205e6 -135659.6586380004 0.0
0.0 0.0 0.0

-6.184493344979534e6 2.45006921844127e6 0.0
2.45006921844127e6 1.465080929857823e7 0.0
0.0 0.0 0.0

-886223.6766464827 2.8970387962932703e6 0.0
2.8970387962932703e6 132427.3239413884 0.0
0.0 0.0 0.0

-1.7950650500956844e6 3.81762797770632e6 0.0
3.81762797770632e6 1.189873851076153e6 0.0
0.0 0.0 0.0

-258951.5963102937 2.570488723781796e6 0.0
2.570488723781796e6 -737061.4874334458 0.0
0.0 0.0 0.0

-2.290621291998003e6 3.929354503498343e6 0.0
3.929354503498343e6 1.414257223688554e6 0.0
0.0 0.0 0.0

-1.8912916972560128e6 3.1630304896708545e6 0.0
3.1630304896708545e6 651136.7197522537 0.0
0.0 0.0 0.0

-1.092949658768925e6 3.8185527653268506e6 0.0
3.8185527653268506e6 1.2087704205024806e6 0.0
0.0 0.0 0.0

1.567249777919699e6 885348.8582852733 0.0
885348.8582852733 -2.4518180784147894e6 0.0
0.0 0.0 0.0

-589102.9669059778 3.830649486199032e6 0.0
3.830649486199032e6 -313270.4429079107 0.0
0.0 0.0 0.0

1.1176127810398387e6 1.1155483744306169e6 0.0
1.1155483744306169e6 -1.6669092354765637e6 0.0
0.0 0.0 0.0

697776.9315133796 1.4423613346960412e6 0.0
1.4423613346960412e6 -346479.2609285557 0.0
0.0 0.0 0.0

-1.3226252526375859e6 3.122586725066068e6 0.0
3.122586725066068e6 397095.67937588267 0.0
0.0 0.0 0.0

-1.6591415036034693e6 3.1513754722911776e6 0.0
3.1513754722911776e6 1.0333724587265062e6 0.0
0.0 0.0 0.0

-48959.32779052976 1.593289191181939e6 0.0
1.593289191181939e6 -904488.7769334831 0.0
0.0 0.0 0.0

-402843.4112311766 3.4557299106978574e6 0.0
3.4557299106978574e6 -827484.3495938717 0.0
0.0 0.0 0.0

-1.9474944464728981e6 3.9484167737957425e6 0.0
3.9484167737957425e6 1.3156539421021093e6 0.0
0.0 0.0 0.0

-12891.994765416523 572635.9852831329 0.0
572635.9852831329 132768.9620978199 0.0
0.0 0.0 0.0

-590907.1936167527 2.611324413550697e6 0.0
2.611324413550697e6 -153396.68879805843 0.0
0.0 0.0 0.0

413073.8924899041 627294.331026688 0.0
627294.331026688 -282873.8381395608 0.0
0.0 0.0 0.0

-826782.147109016 3.4682509161230926e6 0.0
3.4682509161230926e6 65764.17178013764 0.0
0.0 0.0 0.0

-1.3685036357179203e6 3.4411774902142603e6 0.0
3.4411774902142603e6 323438.5116565334 0.0
0.0 0.0 0.0

-1.6878174724588864e6 3.2038375086702374e6 0.0
3.2038375086702374e6 883781.8598148007 0.0
0.0 0.0 0.0

-2.2873749812941737e6 3.4593107293897117e6 0.0
3.4593107293897117e6 1.1598616350149652e6 0.0
0.0 0.0 0.0

390724.34304696205 1.0198000354829638e6 0.0
1.0198000354829638e6 -915056.571085765 0.0
0.0 0.0 0.0

-573552.7402740102 3.016701419169307e6 0.0
3.016701419169307e6 -500901.5317817071 0.0
0.0 0.0 0.0

-2.0668241691115312e6 3.2152028870820897e6 0.0
3.2152028870820897e6 873841.1558475324 0.0
0.0 0.0 0.0

-700669.480238492 3.614066905406561e6 0.0
3.614066905406561e6 -15447.98491783571 0.0
0.0 0.0 0.0

-1.1603100786721471e6 2.88542138171878e6 0.0
2.88542138171878e6 1.6494312490635852e6 0.0
0.0 0.0 0.0

-882411.6302597305 3.5296077066662842e6 0.0
3.5296077066662842e6 -128896.78210698298 0.0
0.0 0.0 0.0

-878142.3173877597 4.282231852768004e6 0.0
4.282231852768004e6 260850.5036916086 0.0
0.0 0.0 0.0

-627381.314707323 3.181877296056951e6 0.0
3.181877296056951e6 -225457.59563391496 0.0
0.0 0.0 0.0

-559790.0602907751 2.671032395444797e6 0.0
2.671032395444797e6 -302636.8538373674 0.0
0.0 0.0 0.0

297284.22349550243 1.7515572063332966e6 0.0
1.7515572063332966e6 147764.03392683994 0.0
0.0 0.0 0.0

-2.183072041011144e6 3.297826198347012e6 0.0
3.297826198347012e6 1.0086710449865952e6 0.0
0.0 0.0 0.0

920329.1255819519 1.735946370272867e6 0.0
1.735946370272867e6 -1.544198156817664e6 0.0
0.0 0.0 0.0

748998.586720438 1.9084758485060907e6 0.0
1.9084758485060907e6 -1.365651709685688e6 0.0
0.0 0.0 0.0

-1.1229932275122767e6 3.8646695011223503e6 0.0
3.8646695011223503e6 83697.98334888491 0.0
0.0 0.0 0.0

-1.2276629165295027e6 2.1976798708607727e6 0.0
2.1976798708607727e6 642227.5416330963 0.0
0.0 0.0 0.0

-43977.74878677432 1.9762415250560106e6 0.0
1.9762415250560106e6 -937979.907530943 0.0
0.0 0.0 0.0

-2.5030426473040963e6 4.1671537275957232e6 0.0
4.1671537275957232e6 1.4582588806745359e6 0.0
0.0 0.0 0.0

-2.1921669055946446e6 3.9878806424970273e6 0.0
3.9878806424970273e6 1.4383415751174176e6 0.0
0.0 0.0 0.0

-1.7043443015224158e6 3.118204660829637e6 0.0
3.118204660829637e6 847480.9290030497 0.0
0.0 0.0 0.0

-98375.88569717703 3.506406421728937e6 0.0
3.506406421728937e6 -1.3353831215244737e6 0.0
0.0 0.0 0.0

-2.1963241013972056e6 3.21479409517805e6 0.0
3.21479409517805e6 813812.1104755364 0.0
0.0 0.0 0.0

-645355.9253098369 2.57388762743947e6 0.0
2.57388762743947e6 149703.63687193193 0.0
0.0 0.0 0.0

297850.1713708502 109887.7896930456 0.0
109887.7896930456 -1.2111995879532096e6 0.0
0.0 0.0 0.0

-2.4094639862332186e6 4.742490889898329e6 0.0
4.742490889898329e6 1.6090713139651832e6 0.0
0.0 0.0 0.0

-565225.8727602566 4.015876611745086e6 0.0
4.015876611745086e6 -240702.30132756868 0.0
0.0 0.0 0.0

-2.071281691413223e6 4.007138608094235e6 0.0
4.007138608094235e6 1.4224912480590744e6 0.0
0.0 0.0 0.0

-434229.05664433585 3.3283602535548937e6 0.0
3.3283602535548937e6 -767013.4865422401 0.0
0.0 0.0 0.0

-2.4098956990041374e6 3.4763803935532817e6 0.0
3.4763803935532817e6 1.1943292720421827e6 0.0
0.0 0.0 0.0

-910106.3307147515 3.670241025492622e6 0.0
3.670241025492622e6 474576.0931969129 0.0
0.0 0.0 0.0

-2.341674758398109e6 3.9610319612121643e6 0.0
3.9610319612121643e6 1.3584335662275278e6 0.0
0.0 0.0 0.0

-2.1188192434813017e6 5.910437498159458e6 0.0
5.910437498159458e6 1.5354085806600442e6 0.0
0.0 0.0 0.0

-276907.5581444739 2.760171690039811e6 0.0
2.760171690039811e6 -212588.96588218224 0.0
0.0 0.0 0.0

-167041.61176146654 2.135232817438269e6 0.0
2.135232817438269e6 -782357.4501929013 0.0
0.0 0.0 0.0

-22798.432558463493 2.260601866030894e6 0.0
2.260601866030894e6 -136699.0068476577 0.0
0.0 0.0 0.0

-103850.39211401361 3.106935984569596e6 0.0
3.106935984569596e6 -510065.241811525 0.0
0.0 0.0 0.0

-858949.2240195777 -115040.57434025855 0.0
-115040.57434025855 756101.8508500799 0.0
0.0 0.0 0.0

-48455.70531228647 45260.4287710043 0.0
45260.4287710043 63850.9275757046 0.0
0.0 0.0 0.0

-400624.69045445643 2.3509609972196566e6 0.0
2.3509609972196566e6 -18875.003123728617 0.0
0.0 0.0 0.0

-292906.79153219576 2.59945393247001e6 0.0
2.59945393247001e6 298454.6782763942 0.0
0.0 0.0 0.0

-2.047071075469574e6 4.397349185691381e6 0.0
4.397349185691381e6 1.4235094203558676e6 0.0
0.0 0.0 0.0

-1.5769389621772582e6 3.185432628191101e6 0.0
3.185432628191101e6 937998.5743983756 0.0
0.0 0.0 0.0

-172640.4804435043 2.3906650478949603e6 0.0
2.3906650478949603e6 -818715.4952014363 0.0
0.0 0.0 0.0

-726088.1782105307 3.8897811640796782e6 0.0
3.8897811640796782e6 516386.2406584689 0.0
0.0 0.0 0.0

-2.318597342176917e6 3.1198493993338333e6 0.0
3.1198493993338333e6 697237.9323947382 0.0
0.0 0.0 0.0

-2.5427476726380587e6 4.226491495983005e6 0.0
4.226491495983005e6 1.439143737389295e6 0.0
0.0 0.0 0.0

-2.686208783067545e6 4.367820838954379e6 0.0
4.367820838954379e6 1.4485122508611933e6 0.0
0.0 0.0 0.0

-585170.7007754868 2.550094802620316e6 0.0
2.550094802620316e6 60251.0083783172 0.0
0.0 0.0 0.0

-471081.5475308271 3.062524822055112e6 0.0
3.062524822055112e6 -229999.25664118398 0.0
0.0 0.0 0.0

221464.17170474774 2.0750588062058685e6 0.0
2.0750588062058685e6 -308929.43498753954 0.0
0.0 0.0 0.0

-960874.9351893931 3.1281240775157013e6 0.0
3.1281240775157013e6 309195.32001138077 0.0
0.0 0.0 0.0

-520682.5120075868 3.130599202645694e6 0.0
3.130599202645694e6 -353189.82440515695 0.0
0.0 0.0 0.0

-232978.91468573932 1.8217500265178466e6 0.0
1.8217500265178466e6 163614.37277074886 0.0
0.0 0.0 0.0

-227114.4533119361 2.614514956338939e6 0.0
2.614514956338939e6 -857201.8327462294 0.0
0.0 0.0 0.0

-770836.8801242744 2.6582182541145845e6 0.0
2.6582182541145845e6 144271.19723410846 0.0
0.0 0.0 0.0

-174175.55003403279 1.8590816635601842e6 0.0
1.8590816635601842e6 -170914.49413930654 0.0
0.0 0.0 0.0

-1.1257632577473796e6 4.64662648374438e6 0.0
4.64662648374438e6 623484.6327209987 0.0
0.0 0.0 0.0

-575774.9503232926 3.310465725462627e6 0.0
3.310465725462627e6 -65530.34436917814 0.0
0.0 0.0 0.0

-2.4379540253222696e6 3.483286259789415e6 0.0
3.483286259789415e6 1.1563285303802374e6 0.0
0.0 0.0 0.0

-2.36702544315128e6 3.442558182034366e6 0.0
3.442558182034366e6 1.197174464219603e6 0.0
0.0 0.0 0.0

-949943.9149897913 3.6794396319836504e6 0.0
3.6794396319836504e6 353654.6601319132 0.0
0.0 0.0 0.0

-164337.41716415418 3.3923025873286263e6 0.0
3.3923025873286263e6 -1.1703293371803828e6 0.0
0.0 0.0 0.0

-1.0077867717609314e6 3.0625196947507816e6 0.0
3.0625196947507816e6 238699.9143844974 0.0
0.0 0.0 0.0

-646299.6510082441 2.5028658889728654e6 0.0
2.5028658889728654e6 203443.51117639008 0.0
0.0 0.0 0.0

-1.5542631276400262e6 3.085137677214516e6 0.0
3.085137677214516e6 898368.8368097135 0.0
0.0 0.0 0.0

-2.0568975186021272e6 5.140258721770285e6 0.0
5.140258721770285e6 1.443492149233813e6 0.0
0.0 0.0 0.0

-975559.1982617117 3.7165765600000257e6 0.0
3.7165765600000257e6 271839.48918892816 0.0
0.0 0.0 0.0

-1.5633584066914702e6 2.9623371177263125e6 0.0
2.9623371177263125e6 680026.3481610969 0.0
0.0 0.0 0.0

609507.9961528804 2.1254270910638645e6 0.0
2.1254270910638645e6 -1.352841077883063e6 0.0
0.0 0.0 0.0

-596505.665730748 2.633998993549124e6 0.0
2.633998993549124e6 -24237.795073569432 0.0
0.0 0.0 0.0

-983044.5579272773 4.0277802901551435e6 0.0
4.0277802901551435e6 338100.99723177694 0.0
0.0 0.0 0.0

2.3873911628560983e6 296147.43452244665 0.0
296147.43452244665 -1.5105782303355904e6 0.0
0.0 0.0 0.0

684265.6521800448 2.522195694525599e6 0.0
2.522195694525599e6 -2.089437551227443e6 0.0
0.0 0.0 0.0

-1.11674573109349e6 2.698237482057503e6 0.0
2.698237482057503e6 363568.73152421537 0.0
0.0 0.0 0.0

-550442.3563010083 2.4252949290373526e6 0.0
2.4252949290373526e6 1.2216098597723916e6 0.0
0.0 0.0 0.0

378579.2548789325 2.412097445541158e6 0.0
2.412097445541158e6 -1.8150532207569797e6 0.0
0.0 0.0 0.0

171014.77945085394 2.875824929630079e6 0.0
2.875824929630079e6 -1.7367564136244955e6 0.0
0.0 0.0 0.0

-250356.07647186625 3.4592703597003017e6 0.0
3.4592703597003017e6 -526066.8830284138 0.0
0.0 0.0 0.0

26559.77568633445 758224.0316825702 0.0
758224.0316825702 64968.219733721315 0.0
0.0 0.0 0.0

229404.6988952905 1.971316087549281e6 0.0
1.971316087549281e6 -674339.1947851618 0.0
0.0 0.0 0.0

-417339.9396687655 3.0143918008305524e6 0.0
3.0143918008305524e6 -419797.42385109013 0.0
0.0 0.0 0.0

-498538.2816468068 2.899066635335121e6 0.0
2.899066635335121e6 -234423.3104227329 0.0
0.0 0.0 0.0

-25674.65289164844 1.604782681245821e6 0.0
1.604782681245821e6 -871320.539211287 0.0
0.0 0.0 0.0

-462162.2136335544 2.9393446394659462e6 0.0
2.9393446394659462e6 359482.36995778384 0.0
0.0 0.0 0.0

-59638.69504321621 -34096.93991947634 0.0
-34096.93991947634 137651.26450888684 0.0
0.0 0.0 0.0

-589847.0533940285 2.6702881937755737e6 0.0
2.6702881937755737e6 -13813.083780546556 0.0
0.0 0.0 0.0

-1.2653117186655828e6 3.574367794190631e6 0.0
3.574367794190631e6 217467.23729658203 0.0
0.0 0.0 0.0

-667250.728916668 2.8037274611186106e6 0.0
2.8037274611186106e6 -415697.12446747394 0.0
0.0 0.0 0.0

73519.30343367123 138827.40994743578 0.0
138827.40994743578 -236005.2279538906 0.0
0.0 0.0 0.0

201548.9347701172 1.9758085432875413e6 0.0
1.9758085432875413e6 -265014.62932577427 0.0
0.0 0.0 0.0

883684.7806433021 3.3823222651865995e6 0.0
3.3823222651865995e6 -2.0252991036391887e6 0.0
0.0 0.0 0.0

-1.746334056375843e6 5.465266981722457e6 0.0
5.465266981722457e6 1.2883201913353938e6 0.0
0.0 0.0 0.0

-888346.7565156004 459802.15606000484 0.0
459802.15606000484 2.2777893476566374e6 0.0
0.0 0.0 0.0

-787061.517487848 3.1446419008864406e6 0.0
3.1446419008864406e6 369987.068653113 0.0
0.0 0.0 0.0

-161896.34369511573 1.9567758898018994e6 0.0
1.9567758898018994e6 -610232.2751214951 0.0
0.0 0.0 0.0

-2.238537102599071e6 3.4565225962339705e6 0.0
3.4565225962339705e6 1.459223190045867e6 0.0
0.0 0.0 0.0

-452109.1462668404 4.042921197249032e6 0.0
4.042921197249032e6 -368682.4748589952 0.0
0.0 0.0 0.0

-67257.33066532578 4.181004236942497e6 0.0
4.181004236942497e6 -616382.4509059052 0.0
0.0 0.0 0.0

828508.6703196703 2.2839645609649466e6 0.0
2.2839645609649466e6 -2.0900513344381752e6 0.0
0.0 0.0 0.0

-1.4267941356826196e6 2.580941425253974e6 0.0
2.580941425253974e6 470328.5981507418 0.0
0.0 0.0 0.0

-2.7305730913361693e6 6.374604677166307e6 0.0
6.374604677166307e6 1.2817914153907541e6 0.0
0.0 0.0 0.0

-631981.3576585623 2.5787165980583113e6 0.0
2.5787165980583113e6 100046.23506327934 0.0
0.0 0.0 0.0

11182.997684156813 26612.496071381996 0.0
26612.496071381996 202660.742894883 0.0
0.0 0.0 0.0

-363910.21249388804 3.778753386922513e6 0.0
3.778753386922513e6 -297204.0297331569 0.0
0.0 0.0 0.0

-1.9674503844646579e6 4.010572455670428e6 0.0
4.010572455670428e6 1.16861239431906e6 0.0
0.0 0.0 0.0

329039.5449255534 2.118287647158801e6 0.0
2.118287647158801e6 -174780.867803582 0.0
0.0 0.0 0.0

-760370.0883486605 3.4702816284790263e6 0.0
3.4702816284790263e6 1.6941427213290306e6 0.0
0.0 0.0 0.0

-569821.1248510475 2.745293788797821e6 0.0
2.745293788797821e6 -191435.00180009997 0.0
0.0 0.0 0.0

-307209.8155647866 3.065452169307217e6 0.0
3.065452169307217e6 -419285.5616037762 0.0
0.0 0.0 0.0

-125913.1976955859 421327.69540928456 0.0
421327.69540928456 1.2537272121652889e6 0.0
0.0 0.0 0.0

-351537.7641925417 3.6998901431424506e6 0.0
3.6998901431424506e6 -98953.79716581642 0.0
0.0 0.0 0.0

-1.4254254986359933e6 3.2687429568695617e6 0.0
3.2687429568695617e6 144231.80428008147 0.0
0.0 0.0 0.0

-2.73965199232829e6 4.505966963409384e6 0.0
4.505966963409384e6 1.5187898173124688e6 0.0
0.0 0.0 0.0

-875698.2748471284 2.8191858631555205e6 0.0
2.8191858631555205e6 190516.08158556325 0.0
0.0 0.0 0.0

2.5450960108028217e6 -127450.65045485995 0.0
-127450.65045485995 -2.1710715750275524e6 0.0
0.0 0.0 0.0

51465.31534191989 2.7264165193768935e6 0.0
2.7264165193768935e6 -1.1256914792471745e6 0.0
0.0 0.0 0.0

-240233.65296792917 1.589330681521469e6 0.0
1.589330681521469e6 -685722.644314694 0.0
0.0 0.0 0.0

-474834.46982910717 2.8834208797710375e6 0.0
2.8834208797710375e6 -198680.94928978503 0.0
0.0 0.0 0.0

-4.661265140149382e6 5.979167592812197e6 0.0
5.979167592812197e6 2.161072289514223e6 0.0
0.0 0.0 0.0

579466.5896762658 765596.245355633 0.0
765596.245355633 -1.0103093933600828e6 0.0
0.0 0.0 0.0

-1.8586388942883431e6 4.75268404940518e6 0.0
4.75268404940518e6 1.2768889845288615e6 0.0
0.0 0.0 0.0

-1.0835625274970788e6 4.235816801542479e6 0.0
4.235816801542479e6 470429.0528728155 0.0
0.0 0.0 0.0

318029.23262687353 2.3857520752533167e6 0.0
2.3857520752533167e6 216910.88597916515 0.0
0.0 0.0 0.0

-366456.63166857534 3.330134363328722e6 0.0
3.330134363328722e6 -899774.622977111 0.0
0.0 0.0 0.0

-1.0990428979914617e6 3.1291986760712983e6 0.0
3.1291986760712983e6 1.9003768677271642e6 0.0
0.0 0.0 0.0

-626020.7094715289 3.7853272728158915e6 0.0
3.7853272728158915e6 893454.3280739028 0.0
0.0 0.0 0.0

-217255.97046526312 4.0322081432875786e6 0.0
4.0322081432875786e6 -563463.8897426213 0.0
0.0 0.0 0.0

-542474.1037158007 2.8806760660427185e6 0.0
2.8806760660427185e6 -252142.1799038284 0.0
0.0 0.0 0.0

-4.227954888797755e6 5.5574973644361785e6 0.0
5.5574973644361785e6 1.9658814682363288e6 0.0
0.0 0.0 0.0

-3.053759577070968e6 3.391986595828412e6 0.0
3.391986595828412e6 1.4288212157036485e6 0.0
0.0 0.0 0.0

-454925.4938269426 3.0009401048141555e6 0.0
3.0009401048141555e6 -359777.5003855843 0.0
0.0 0.0 0.0

204686.87470109458 4.146748798857632e6 0.0
4.146748798857632e6 -1.5491990669309509e6 0.0
0.0 0.0 0.0

1.1421432819926073e6 1.865927645962215e6 0.0
1.865927645962215e6 -1.7233706375334007e6 0.0
0.0 0.0 0.0

-465911.4144277961 2.8716179371038647e6 0.0
2.8716179371038647e6 -516466.60018617666 0.0
0.0 0.0 0.0

-80820.67040626306 2.5797955809418536e6 0.0
2.5797955809418536e6 -969849.7098000982 0.0
0.0 0.0 0.0

-586428.5026701561 2.8584405089991414e6 0.0
2.8584405089991414e6 -324190.8880985314 0.0
0.0 0.0 0.0

-5.074462571797894e6 6.684183041004819e6 0.0
6.684183041004819e6 1.7813521727340969e6 0.0
0.0 0.0 0.0

-1.5732804132782635e6 3.0839390738550727e6 0.0
3.0839390738550727e6 489368.7418322591 0.0
0.0 0.0 0.0

-856808.0047419297 3.288948057193393e6 0.0
3.288948057193393e6 -117256.8419956771 0.0
0.0 0.0 0.0

-943930.6090490909 3.016062788628963e6 0.0
3.016062788628963e6 -101780.27166196812 0.0
0.0 0.0 0.0

95486.3349075783 2.106899618943775e6 0.0
2.106899618943775e6 -1.1214269744269631e6 0.0
0.0 0.0 0.0

-1.0133004136108955e6 3.160987493382986e6 0.0
3.160987493382986e6 229652.1264289443 0.0
0.0 0.0 0.0

-183279.30490717752 3.8717857940477952e6 0.0
3.8717857940477952e6 -365281.7367786707 0.0
0.0 0.0 0.0

-827973.3752538484 4.1495327382447417e6 0.0
4.1495327382447417e6 -171633.90092508172 0.0
0.0 0.0 0.0

-5.479459243369906e6 -1.8652306179474813e6 0.0
-1.8652306179474813e6 1.1277803808580305e7 0.0
0.0 0.0 0.0

492798.0986633719 89733.84363518971 0.0
89733.84363518971 -557104.6202672462 0.0
0.0 0.0 0.0

-9.87084910015115e6 1.2303132085796993e7 0.0
1.2303132085796993e7 507694.2528190445 0.0
0.0 0.0 0.0

-11832.856760405295 4.1840585413944134e6 0.0
4.1840585413944134e6 -573422.8490200833 0.0
0.0 0.0 0.0

-3.844237868682268e6 5.259603437242228e6 0.0
5.259603437242228e6 1.9829899372291141e6 0.0
0.0 0.0 0.0

-905554.0184652837 2.47708541747814e6 0.0
2.47708541747814e6 98003.4095215617 0.0
0.0 0.0 0.0

-566958.7993323125 3.5400123566232882e6 0.0
3.5400123566232882e6 -406155.19539989706 0.0
0.0 0.0 0.0

-1.3935803605643706e6 3.253093590128572e6 0.0
3.253093590128572e6 393341.2360792305 0.0
0.0 0.0 0.0

915202.355054377 1.5273715698198164e6 0.0
1.5273715698198164e6 -1.5506478046363054e6 0.0
0.0 0.0 0.0

-347060.34166085324 3.854125993782727e6 0.0
3.854125993782727e6 -211421.9729605781 0.0
0.0 0.0 0.0

-27741.288215826906 2.9295532228159374e6 0.0
2.9295532228159374e6 -1.1610491431181296e6 0.0
0.0 0.0 0.0

-709694.8430353437 4.023513363955229e6 0.0
4.023513363955229e6 61200.60978656961 0.0
0.0 0.0 0.0

997112.9039609024 2.0691988238396544e6 0.0
2.0691988238396544e6 -1.764927514007513e6 0.0
0.0 0.0 0.0

-767002.7530432912 2.806689602466939e6 0.0
2.806689602466939e6 84115.69745131701 0.0
0.0 0.0 0.0

381346.61010858393 9440.294201805527 0.0
9440.294201805527 -902906.6260531036 0.0
0.0 0.0 0.0

-862583.0674737495 2.456073441263243e6 0.0
2.456073441263243e6 418562.5141364767 0.0
0.0 0.0 0.0

-1.5084359718116454e6 4.301186008915376e6 0.0
4.301186008915376e6 -429110.66370995925 0.0
0.0 0.0 0.0

424511.0167279487 2.6647178399999016e6 0.0
2.6647178399999016e6 -1.3900706499996695e6 0.0
0.0 0.0 0.0

-1.4637814681269957e6 3.2713167165864534e6 0.0
3.2713167165864534e6 710370.5270679286 0.0
0.0 0.0 0.0

-1.2604454549240693e6 3.112035764099474e6 0.0
3.112035764099474e6 250777.32326593262 0.0
0.0 0.0 0.0

-442645.55676492234 3.4265523670178605e6 0.0
3.4265523670178605e6 560989.2676822396 0.0
0.0 0.0 0.0

-297759.31965215644 3.6419158139330386e6 0.0
3.6419158139330386e6 -779623.0861284074 0.0
0.0 0.0 0.0

-505396.30594992824 3.027192245195338e6 0.0
3.027192245195338e6 -270676.17500221403 0.0
0.0 0.0 0.0

-6829.941493282939 268889.8132266564 0.0
268889.8132266564 -389671.3140194011 0.0
0.0 0.0 0.0

-569278.8532926269 3.279828500448597e6 0.0
3.279828500448597e6 365939.1561630068 0.0
0.0 0.0 0.0

-570673.3187227851 2.520691092380267e6 0.0
2.520691092380267e6 -26707.13293300371 0.0
0.0 0.0 0.0

-79190.03893360685 301217.6192971757 0.0
301217.6192971757 -194188.81646041336 0.0
0.0 0.0 0.0

-584479.6214187456 2.5451072053937986e6 0.0
2.5451072053937986e6 66182.08112347222 0.0
0.0 0.0 0.0

-928913.0898436954 3.44641504703118e6 0.0
3.44641504703118e6 353282.5887641554 0.0
0.0 0.0 0.0

767586.1578911149 541668.519098689 0.0
541668.519098689 -893982.9610253656 0.0
0.0 0.0 0.0

-1.1019339013589926e6 3.0405710578269875e6 0.0
3.0405710578269875e6 54902.47881969146 0.0
0.0 0.0 0.0

-1.5018970536100245e6 3.129594827967049e6 0.0
3.129594827967049e6 508671.5093708425 0.0
0.0 0.0 0.0

-664703.8453146247 2.460807937821098e6 0.0
2.460807937821098e6 136534.11565143726 0.0
0.0 0.0 0.0

-541244.6284118348 -409585.70869748096 0.0
-409585.70869748096 672508.8465563642 0.0
0.0 0.0 0.0

-413089.8644203652 3.909870074439336e6 0.0
3.909870074439336e6 -252938.34011911316 0.0
0.0 0.0 0.0

-324429.32102837507 3.039909689711366e6 0.0
3.039909689711366e6 -462287.20073421387 0.0
0.0 0.0 0.0

228759.42771000275 3.9353455237522125e6 0.0
3.9353455237522125e6 -1.6094976433259738e6 0.0
0.0 0.0 0.0

-1.0069194297883436e6 2.5484745728443167e6 0.0
2.5484745728443167e6 2.5960711466857423e6 0.0
0.0 0.0 0.0

-404346.70750023867 2.8616405384799982e6 0.0
2.8616405384799982e6 -190471.59850419936 0.0
0.0 0.0 0.0

-266230.7583383808 1.373833376816133e6 0.0
1.373833376816133e6 -629409.0142914631 0.0
0.0 0.0 0.0

1.0700128618919454e6 1.790077697391384e6 0.0
1.790077697391384e6 -1.7749636315144156e6 0.0
0.0 0.0 0.0

-245036.80997962196 3.7940744414316574e6 0.0
3.7940744414316574e6 191387.4908064335 0.0
0.0 0.0 0.0

-438198.8021812889 3.4492642419282384e6 0.0
3.4492642419282384e6 916193.6395083815 0.0
0.0 0.0 0.0

-1.334510558939357e6 2.718991019962835e6 0.0
2.718991019962835e6 648436.3175260648 0.0
0.0 0.0 0.0

-1.0299338805437704e6 3.762777448055622e6 0.0
3.762777448055622e6 242139.0999389984 0.0
0.0 0.0 0.0

-3.131019342732914e6 4.780810514516482e6 0.0
4.780810514516482e6 1.6783679812729876e6 0.0
0.0 0.0 0.0

-483104.92397407035 3.3778369169594334e6 0.0
3.3778369169594334e6 -658212.8539600893 0.0
0.0 0.0 0.0

494551.2637238927 130593.47222411707 0.0
130593.47222411707 -580544.2725403495 0.0
0.0 0.0 0.0

-54339.8451379888 3.4636266501815803e6 0.0
3.4636266501815803e6 -1.4704154033895617e6 0.0
0.0 0.0 0.0

-843120.5103257834 2.959502093912381e6 0.0
2.959502093912381e6 488014.63569668075 0.0
0.0 0.0 0.0

-171489.46082610887 2.823842006540167e6 0.0
2.823842006540167e6 -272480.1525645128 0.0
0.0 0.0 0.0

-37207.8453218136 4.240255372424034e6 0.0
4.240255372424034e6 -569476.8490238533 0.0
0.0 0.0 0.0

620159.6829387684 3.1822304494474633e6 0.0
3.1822304494474633e6 -2.19274708470458e6 0.0
0.0 0.0 0.0

186042.24774328514 3.771625624547421e6 0.0
3.771625624547421e6 -1.6470498599942503e6 0.0
0.0 0.0 0.0

-2.7424588138476787e6 6.822807846072733e6 0.0
6.822807846072733e6 1.3317387914559979e6 0.0
0.0 0.0 0.0

-1.7719549964233304e6 3.086986837044941e6 0.0
3.086986837044941e6 615866.2172164259 0.0
0.0 0.0 0.0

-1.5772176454251613e6 3.2324378331800825e6 0.0
3.2324378331800825e6 456105.4841153601 0.0
0.0 0.0 0.0

-2.205714506260496e6 3.7130716972258207e6 0.0
3.7130716972258207e6 1.3082729006854796e6 0.0
0.0 0.0 0.0

984135.5143550939 1.0590640737635249e6 0.0
1.0590640737635249e6 -1.7543871866252508e6 0.0
0.0 0.0 0.0

-345284.92350687983 3.78570754863079e6 0.0
3.78570754863079e6 -1.0339103575906014e6 0.0
0.0 0.0 0.0

-814355.6470057411 2.816539019651065e6 0.0
2.816539019651065e6 401282.31907946017 0.0
0.0 0.0 0.0

-731299.7759681387 3.354790289654765e6 0.0
3.354790289654765e6 -11715.675730446412 0.0
0.0 0.0 0.0

-2.99646860046449e6 4.68307151825411e6 0.0
4.68307151825411e6 1.6045417557617635e6 0.0
0.0 0.0 0.0

462846.0363205705 995719.8519295962 0.0
995719.8519295962 -659723.8282264296 0.0
0.0 0.0 0.0

-95713.86040445996 1.5426865162783635e6 0.0
1.5426865162783635e6 -452505.1214448198 0.0
0.0 0.0 0.0

-2.89326766560804e6 4.563256436573861e6 0.0
4.563256436573861e6 1.5816610919351527e6 0.0
0.0 0.0 0.0

-1.421855929001857e6 3.223432957109548e6 0.0
3.223432957109548e6 422324.32431321085 0.0
0.0 0.0 0.0

-114351.60027139593 2.1474387194264424e6 0.0
2.1474387194264424e6 -1.1804844471079393e6 0.0
0.0 0.0 0.0

-519671.79739311885 2.8389282307413346e6 0.0
2.8389282307413346e6 -318709.4412583284 0.0
0.0 0.0 0.0

725575.2323148703 2.9159296630712575e6 0.0
2.9159296630712575e6 -2.0544714836514932e6 0.0
0.0 0.0 0.0

-2.557119559177837e6 3.5164965620777635e6 0.0
3.5164965620777635e6 1.1608965615071747e6 0.0
0.0 0.0 0.0

-594231.2037017691 4.037936651277293e6 0.0
4.037936651277293e6 -261818.48019150822 0.0
0.0 0.0 0.0

136853.00061646174 4.164117472633569e6 0.0
4.164117472633569e6 -1.4718435889868422e6 0.0
0.0 0.0 0.0

-1.3691196533024036e6 3.389008350966629e6 0.0
3.389008350966629e6 308837.55143588455 0.0
0.0 0.0 0.0

-2542.5646809978207 1.43721440586916e6 0.0
1.43721440586916e6 -383867.90514170605 0.0
0.0 0.0 0.0

-377833.95898729784 1.3852561359655003e6 0.0
1.3852561359655003e6 -1.0034469591175668e6 0.0
0.0 0.0 0.0

-462865.7829591289 3.2186132267144606e6 0.0
3.2186132267144606e6 -73734.98976308058 0.0
0.0 0.0 0.0

-1.1499876506269402e6 3.1380423517761515e6 0.0
3.1380423517761515e6 337879.72884323704 0.0
0.0 0.0 0.0

21858.382389145612 4.1375459277553447e6 0.0
4.1375459277553447e6 -1.412808412040389e6 0.0
0.0 0.0 0.0

-5.779586755099043e6 7.804375901260616e6 0.0
7.804375901260616e6 1.7693524194155787e6 0.0
0.0 0.0 0.0

-448066.1729360877 2.555671371433479e6 0.0
2.555671371433479e6 291142.2467660628 0.0
0.0 0.0 0.0

-897958.8301191153 1.9890207648115025e6 0.0
1.9890207648115025e6 -273921.74814507156 0.0
0.0 0.0 0.0

318686.48328183976 1.543802586288995e6 0.0
1.543802586288995e6 59200.01026998468 0.0
0.0 0.0 0.0

-641931.5060306647 2.5890243174505536e6 0.0
2.5890243174505536e6 63300.235519945185 0.0
0.0 0.0 0.0

-1.0444265266904095e6 1.6666681510369622e6 0.0
1.6666681510369622e6 3.0012761680260263e6 0.0
0.0 0.0 0.0

-547548.8938201288 2.985478335529776e6 0.0
2.985478335529776e6 -393888.43097916164 0.0
0.0 0.0 0.0

-8.000457224562489e6 795775.553605994 0.0
795775.553605994 1.0736201594218642e7 0.0
0.0 0.0 0.0

-663999.5303066133 2.6973171635099375e6 0.0
2.6973171635099375e6 27425.188660449698 0.0
0.0 0.0 0.0

-137099.23456398997 3.380342148891573e6 0.0
3.380342148891573e6 -1.245820971107914e6 0.0
0.0 0.0 0.0

-451819.0345954329 3.3669829751663385e6 0.0
3.3669829751663385e6 -445055.03737979097 0.0
0.0 0.0 0.0

4.944406870301223e6 6.874587725762384e6 0.0
6.874587725762384e6 -588737.4542753401 0.0
0.0 0.0 0.0

-72277.36112613886 -59592.631712253555 0.0
-59592.631712253555 198951.30854407145 0.0
0.0 0.0 0.0

1.1655270030600089e6 1.8555811342382128e6 0.0
1.8555811342382128e6 -1.813775910278827e6 0.0
0.0 0.0 0.0

392431.7979933213 268580.388344372 0.0
268580.388344372 -766302.4174120511 0.0
0.0 0.0 0.0

-2.1461459044193644e6 3.7094256727662934e6 0.0
3.7094256727662934e6 1.3188764081825905e6 0.0
0.0 0.0 0.0

-317715.73186157504 -1.3076489647613908e6 0.0
-1.3076489647613908e6 562446.1441331331 0.0
0.0 0.0 0.0

-190389.84890972686 2.801181465095158e6 0.0
2.801181465095158e6 -996459.7618619238 0.0
0.0 0.0 0.0

7243.949808569756 2.4820249963054378e6 0.0
2.4820249963054378e6 -217386.43985754874 0.0
0.0 0.0 0.0

-671305.2835959112 2.485998994486213e6 0.0
2.485998994486213e6 313536.880043874 0.0
0.0 0.0 0.0

1.1243982678563832e6 1.8652003140473294e6 0.0
1.8652003140473294e6 -1.697247040631847e6 0.0
0.0 0.0 0.0

-533130.9526809958 2.787822273641784e6 0.0
2.787822273641784e6 -396566.63862205367 0.0
0.0 0.0 0.0

-3.341426451392476e6 4.835132418930063e6 0.0
4.835132418930063e6 1.967053560528897e6 0.0
0.0 0.0 0.0

-541984.3337172343 1.4517909199678435e6 0.0
1.4517909199678435e6 -748058.5406100439 0.0
0.0 0.0 0.0

-689574.3614972258 4.209533294650937e6 0.0
4.209533294650937e6 -417949.3097349758 0.0
0.0 0.0 0.0

-1.3502117608391605e7 -7.786590755424801e6 0.0
-7.786590755424801e6 1.6201159759127488e7 0.0
0.0 0.0 0.0

1.0721521156847049e6 1.9976854489745942e6 0.0
1.9976854489745942e6 -1.9799742411051414e6 0.0
0.0 0.0 0.0

-450620.6099951422 1.366221667002513e6 0.0
1.366221667002513e6 -881210.9426692296 0.0
0.0 0.0 0.0

-367756.5064675476 2.976762452645411e6 0.0
2.976762452645411e6 -720186.8853094376 0.0
0.0 0.0 0.0

1.0602962687676945e6 2.5218907147748815e6 0.0
2.5218907147748815e6 -1.916121675489659e6 0.0
0.0 0.0 0.0

-1.7411311374122412e6 3.0862144833080512e6 0.0
3.0862144833080512e6 -515978.9627600872 0.0
0.0 0.0 0.0

-793758.7361196293 3.3682434835029533e6 0.0
3.3682434835029533e6 -214468.30601263963 0.0
0.0 0.0 0.0

-91766.51797419784 -350972.2676709938 0.0
-350972.2676709938 190273.71770841302 0.0
0.0 0.0 0.0

318666.1580411047 1.9462797496706597e6 0.0
1.9462797496706597e6 -725765.1851923413 0.0
0.0 0.0 0.0

-1.7680897834946772e6 3.2063238210238703e6 0.0
3.2063238210238703e6 547036.8766652769 0.0
0.0 0.0 0.0

-929786.5826376209 2.9248138210158376e6 0.0
2.9248138210158376e6 206834.94335395965 0.0
0.0 0.0 0.0

-501216.2660528513 3.2311674099869216e6 0.0
3.2311674099869216e6 -243422.87622922985 0.0
0.0 0.0 0.0

597918.9110359552 669605.6072912784 0.0
669605.6072912784 -924885.4778606563 0.0
0.0 0.0 0.0

-255548.05838915083 3.5384904562876658e6 0.0
3.5384904562876658e6 -197546.95570429153 0.0
0.0 0.0 0.0

-1.5843016998119701e6 3.4522004903068906e6 0.0
3.4522004903068906e6 579236.0674339785 0.0
0.0 0.0 0.0

149101.70623291883 725678.4278826467 0.0
725678.4278826467 -867220.3971530776 0.0
0.0 0.0 0.0

-2.1258854529378214e6 4.132146646715728e6 0.0
4.132146646715728e6 1.4356245547958175e6 0.0
0.0 0.0 0.0

-306279.6280995483 2.6140679035558836e6 0.0
2.6140679035558836e6 89425.1465361486 0.0
0.0 0.0 0.0

-521635.31941398024 2.967815433533784e6 0.0
2.967815433533784e6 -356728.6321048376 0.0
0.0 0.0 0.0

-113539.53305711334 -635872.2219350591 0.0
-635872.2219350591 227373.62056766637 0.0
0.0 0.0 0.0

1.1601812858838001e6 1.8690105417592681e6 0.0
1.8690105417592681e6 -1.7644419871562188e6 0.0
0.0 0.0 0.0

1.0642746819654359e6 2.9257156276782234e6 0.0
2.9257156276782234e6 -1.7735655178003162e6 0.0
0.0 0.0 0.0

-165313.21630057725 2.215230200996959e6 0.0
2.215230200996959e6 -588715.0651066952 0.0
0.0 0.0 0.0

1.1595875716977352e6 2.4418602063535377e6 0.0
2.4418602063535377e6 -2.4160845532308393e6 0.0
0.0 0.0 0.0

-2.1831769661048553e6 -2.1294320141107775e6 0.0
-2.1294320141107775e6 2.8961919640417416e6 0.0
0.0 0.0 0.0

8087.959987178794 2.3022754697940773e6 0.0
2.3022754697940773e6 -1.3877916014512663e6 0.0
0.0 0.0 0.0

600520.0637537134 2.118446806253209e6 0.0
2.118446806253209e6 -1.2294158209558644e6 0.0
0.0 0.0 0.0

-2.1691209626655793e6 5.662735507404976e6 0.0
5.662735507404976e6 1.5211465156648362e6 0.0
0.0 0.0 0.0

-1.6656543758095973e6 3.2956669552027592e6 0.0
3.2956669552027592e6 69119.28131936747 0.0
0.0 0.0 0.0

-997756.6501858794 3.0356411400743145e6 0.0
3.0356411400743145e6 290518.93183859944 0.0
0.0 0.0 0.0

-1.8046189884935282e6 3.9682416573198996e6 0.0
3.9682416573198996e6 1.2059590222662012e6 0.0
0.0 0.0 0.0

-3.061402613460495e6 3.2945198748654523e6 0.0
3.2945198748654523e6 1.2591134222382514e6 0.0
0.0 0.0 0.0

-1.1505046540254299e6 3.3067399826146085e6 0.0
3.3067399826146085e6 355105.17250031646 0.0
0.0 0.0 0.0

-302276.88445967535 3.8477081103136227e6 0.0
3.8477081103136227e6 -483798.4748122004 0.0
0.0 0.0 0.0

1.2207358077304224e6 2.4404032968393327e6 0.0
2.4404032968393327e6 -3.006528672990841e6 0.0
0.0 0.0 0.0

1.12829665333759e6 1.9063567301417566e6 0.0
1.9063567301417566e6 -1.7225461606834e6 0.0
0.0 0.0 0.0

1.1665954477487707e6 2.1427416359798233e6 0.0
2.1427416359798233e6 -2.342452132248469e6 0.0
0.0 0.0 0.0

-2.01874524293579e6 3.179382175192823e6 0.0
3.179382175192823e6 875796.0759746913 0.0
0.0 0.0 0.0

167704.9120686715 1.7262192603663446e6 0.0
1.7262192603663446e6 -275563.37639588444 0.0
0.0 0.0 0.0

-315019.68693788175 -1.3064621808491864e6 0.0
-1.3064621808491864e6 603281.0285188034 0.0
0.0 0.0 0.0

-110381.4827928328 2.1427845726004294e6 0.0
2.1427845726004294e6 -907190.5261120299 0.0
0.0 0.0 0.0

908079.2520237407 1.6516072649788035e6 0.0
1.6516072649788035e6 -1.5818328999943484e6 0.0
0.0 0.0 0.0

-1.2687547109111042e6 3.6087613156819507e6 0.0
3.6087613156819507e6 -79950.65120683762 0.0
0.0 0.0 0.0

-434773.89348205825 3.1800626938363537e6 0.0
3.1800626938363537e6 -1.3517093213964968e6 0.0
0.0 0.0 0.0

-280500.9087986552 21366.01328267166 0.0
21366.01328267166 440592.83725631906 0.0
0.0 0.0 0.0

320875.04430341785 222726.255706541 0.0
222726.255706541 -291569.12686148635 0.0
0.0 0.0 0.0

123285.8937321687 217098.2999718339 0.0
217098.2999718339 -202010.4743084383 0.0
0.0 0.0 0.0

-638157.2315463132 3.5633942673032475e6 0.0
3.5633942673032475e6 658667.5044457943 0.0
0.0 0.0 0.0

23141.98822858761 3.4322234994726544e6 0.0
3.4322234994726544e6 -1.3673920734953484e6 0.0
0.0 0.0 0.0

1.3083873663732267e6 2.324352704269433e6 0.0
2.324352704269433e6 -2.9191612695417716e6 0.0
0.0 0.0 0.0

1.1641028894380098e6 1.8281414522966666e6 0.0
1.8281414522966666e6 -1.822869669261083e6 0.0
0.0 0.0 0.0

-2.148144930792233e6 7.242045497965223e6 0.0
7.242045497965223e6 858234.4755558743 0.0
0.0 0.0 0.0

-1.9212174716323582e6 -1.9453317339351515e6 0.0
-1.9453317339351515e6 2.496745566470981e6 0.0
0.0 0.0 0.0

936925.1069362045 2.681428359434616e6 0.0
2.681428359434616e6 -1.7266964736298677e6 0.0
0.0 0.0 0.0

-7.358761087622395e6 -4.608944362526684e6 0.0
-4.608944362526684e6 7.648146321873948e6 0.0
0.0 0.0 0.0

1.2027505571786151e6 2.6477611909297057e6 0.0
2.6477611909297057e6 -2.8921744874342256e6 0.0
0.0 0.0 0.0

-1.1928531185481227e6 3.70867668999484e6 0.0
3.70867668999484e6 152680.64282510738 0.0
0.0 0.0 0.0

-1.4753409180079899e6 2.2781470343667753e6 0.0
2.2781470343667753e6 578938.6280957748 0.0
0.0 0.0 0.0

-1.134353634904195e6 2.5375571962001086e6 0.0
2.5375571962001086e6 79761.91870080872 0.0
0.0 0.0 0.0

-360749.74229759385 3.1448531437643734e6 0.0
3.1448531437643734e6 -876329.2379192478 0.0
0.0 0.0 0.0

-2.4480964044210133e6 -2.346897753493691e6 0.0
-2.346897753493691e6 3.208396813806014e6 0.0
0.0 0.0 0.0

1.16624292290246e6 2.297312205836553e6 0.0
2.297312205836553e6 -2.573314823802145e6 0.0
0.0 0.0 0.0

-434531.1812605569 2.0732747722190223e6 0.0
2.0732747722190223e6 374411.51788920927 0.0
0.0 0.0 0.0

-268711.2757638761 2.8157834916415857e6 0.0
2.8157834916415857e6 -241126.32419484982 0.0
0.0 0.0 0.0

4975.419725899599 1.3305906380894931e6 0.0
1.3305906380894931e6 -337448.6811443593 0.0
0.0 0.0 0.0

-590326.3672000382 3.1042224808168896e6 0.0
3.1042224808168896e6 -429827.84354053054 0.0
0.0 0.0 0.0

-1.0275628408803457e6 3.5360221806303095e6 0.0
3.5360221806303095e6 1.7251065132250409e6 0.0
0.0 0.0 0.0

-1.330464542785861e6 3.5530203852802087e6 0.0
3.5530203852802087e6 737352.8945901141 0.0
0.0 0.0 0.0

-2.22666820506398e6 3.3208659284471013e6 0.0
3.3208659284471013e6 1.0242763632855137e6 0.0
0.0 0.0 0.0

-1.7514997185682496e6 3.928134342967282e6 0.0
3.928134342967282e6 883228.070748256 0.0
0.0 0.0 0.0

226252.23301695322 2.510994449146166e6 0.0
2.510994449146166e6 -1.2298566475743202e6 0.0
0.0 0.0 0.0

-1.6991053467659901e6 3.422016180836772e6 0.0
3.422016180836772e6 218195.59944637003 0.0
0.0 0.0 0.0

-556233.5706029583 4.145200591036389e6 0.0
4.145200591036389e6 -351664.2938838636 0.0
0.0 0.0 0.0

-260259.10004262504 3.06871719472641e6 0.0
3.06871719472641e6 -970618.8521345395 0.0
0.0 0.0 0.0

-254696.72044681478 1.0718668111815844e6 0.0
1.0718668111815844e6 730895.9448636316 0.0
0.0 0.0 0.0

-85093.91921525713 2.4353327663541525e6 0.0
2.4353327663541525e6 -500627.72842138616 0.0
0.0 0.0 0.0

236535.95746833785 2.442144804154914e6 0.0
2.442144804154914e6 -1.7384730557363862e6 0.0
0.0 0.0 0.0

-207888.17366584126 -1.145150288728441e6 0.0
-1.145150288728441e6 409362.30416163907 0.0
0.0 0.0 0.0

1.1233402103324076e6 1.8656949469836832e6 0.0
1.8656949469836832e6 -1.6880540361007722e6 0.0
0.0 0.0 0.0

-313423.71714132803 3.7553234067126857e6 0.0
3.7553234067126857e6 -59297.605739902174 0.0
0.0 0.0 0.0

-1.3714367759814295e6 -1.5833117125231524e6 0.0
-1.5833117125231524e6 1.8453014780723592e6 0.0
0.0 0.0 0.0

1.0970296876635412e6 2.05334212997885e6 0.0
2.05334212997885e6 -1.982244567552956e6 0.0
0.0 0.0 0.0

1.1119740779400466e6 1.8919293788242794e6 0.0
1.8919293788242794e6 -1.6907485334121308e6 0.0
0.0 0.0 0.0

-197260.38830594346 -1.2045748060516065e6 0.0
-1.2045748060516065e6 442367.50095071504 0.0
0.0 0.0 0.0

-1.580845251826255e6 1.596096165118946e6 0.0
1.596096165118946e6 5.0527206562588345e6 0.0
0.0 0.0 0.0

1.1533608519643638e6 1.9849051063063026e6 0.0
1.9849051063063026e6 -1.9219439023019783e6 0.0
0.0 0.0 0.0

-980667.8507313208 -1.4786026344094162e6 0.0
-1.4786026344094162e6 1.3055153226505886e6 0.0
0.0 0.0 0.0

-665542.6761016578 3.212364194102293e6 0.0
3.212364194102293e6 307750.71331361565 0.0
0.0 0.0 0.0

-95892.15636895812 -458842.8074841147 0.0
-458842.8074841147 290594.4305768391 0.0
0.0 0.0 0.0

-250520.40437156006 -1.2299586907758056e6 0.0
-1.2299586907758056e6 501854.5170486027 0.0
0.0 0.0 0.0

1.1556470433096038e6 1.9111411230717541e6 0.0
1.9111411230717541e6 -1.7273257536155041e6 0.0
0.0 0.0 0.0

1.1022653836721857e6 1.9965469846509951e6 0.0
1.9965469846509951e6 -1.8031794087852868e6 0.0
0.0 0.0 0.0

-737242.5276754083 -1.5040998269586938e6 0.0
-1.5040998269586938e6 1.0217685076875683e6 0.0
0.0 0.0 0.0

-2.7807376029420204e7 4.6417845376144005e6 0.0
4.6417845376144005e6 9.351359576302541e6 0.0
0.0 0.0 0.0

6.237728712683376e6 6.725870508922785e6 0.0
6.725870508922785e6 -654716.2074709092 0.0
0.0 0.0 0.0

-484825.26445609116 3.106281950213659e6 0.0
3.106281950213659e6 -254450.9216694695 0.0
0.0 0.0 0.0

1.052029341077806e6 1.9682052165743436e6 0.0
1.9682052165743436e6 -1.714971315639712e6 0.0
0.0 0.0 0.0

-669823.4225288082 -1.4632840071496873e6 0.0
-1.4632840071496873e6 900722.5180122305 0.0
0.0 0.0 0.0

-313929.32253539434 3.712239569487655e6 0.0
3.712239569487655e6 -876024.3984306805 0.0
0.0 0.0 0.0

-156637.16464347066 2.641280637457091e6 0.0
2.641280637457091e6 -517716.2056670491 0.0
0.0 0.0 0.0

-1.9487266315135937e6 3.184228221792652e6 0.0
3.184228221792652e6 664424.2847093531 0.0
0.0 0.0 0.0

-343895.7489611465 3.7140187431257553e6 0.0
3.7140187431257553e6 -117286.67369168114 0.0
0.0 0.0 0.0

-521525.2420876899 -1.303880425531758e6 0.0
-1.303880425531758e6 762332.1439711383 0.0
0.0 0.0 0.0

1.094525902882752e6 1.9274919852572985e6 0.0
1.9274919852572985e6 -1.7053361146253478e6 0.0
0.0 0.0 0.0

-1.7152945454389076e6 3.634185508592984e6 0.0
3.634185508592984e6 738173.0059294829 0.0
0.0 0.0 0.0

-684381.6937194912 2.886265660265481e6 0.0
2.886265660265481e6 -493599.2576039861 0.0
0.0 0.0 0.0

-2.2800854304734487e6 4.0289741327254768e6 0.0
4.0289741327254768e6 1.370368726120563e6 0.0
0.0 0.0 0.0

-411094.6367538413 2.940380102560558e6 0.0
2.940380102560558e6 -618661.316112359 0.0
0.0 0.0 0.0

-235234.1611502915 3.0877423439042876e6 0.0
3.0877423439042876e6 -1.144208356136241e6 0.0
0.0 0.0 0.0

-340748.4500741322 3.737358601140553e6 0.0
3.737358601140553e6 -448157.9656258499 0.0
0.0 0.0 0.0

-1.1290781010266049e6 3.695924720441119e6 0.0
3.695924720441119e6 130253.05502838758 0.0
0.0 0.0 0.0

-827752.8488894434 3.18797574184671e6 0.0
3.18797574184671e6 45321.79708957794 0.0
0.0 0.0 0.0

-63373.25298405427 4.0092506255026343e6 0.0
4.0092506255026343e6 -819985.733103552 0.0
0.0 0.0 0.0

-2.3416900131348856e6 3.306223864744479e6 0.0
3.306223864744479e6 1.0396437882019285e6 0.0
0.0 0.0 0.0

-925358.8134684472 2.9588374046725347e6 0.0
2.9588374046725347e6 261738.4984124084 0.0
0.0 0.0 0.0

-1.567771185000031e6 4.060057763263548e6 0.0
4.060057763263548e6 844054.8378136195 0.0
0.0 0.0 0.0

-230726.5851739717 3.107064174623896e6 0.0
3.107064174623896e6 -1.1700215041848796e6 0.0
0.0 0.0 0.0

21126.622739001352 1.814157194147328e6 0.0
1.814157194147328e6 -1.3171148436748595e6 0.0
0.0 0.0 0.0

-1508.6039806418412 4.1573004991167677e6 0.0
4.1573004991167677e6 -619128.90083196 0.0
0.0 0.0 0.0

-154168.7570256655 2.7739047809301335e6 0.0
2.7739047809301335e6 -861299.6695338319 0.0
0.0 0.0 0.0

-1.6366605663025137e6 3.249437553260391e6 0.0
3.249437553260391e6 766391.0463064351 0.0
0.0 0.0 0.0

-2.225826007155922e6 3.2245129425353236e6 0.0
3.2245129425353236e6 906533.1196232712 0.0
0.0 0.0 0.0

-43020.61866301816 3.9675850542808324e6 0.0
3.9675850542808324e6 -1.4825970052142139e6 0.0
0.0 0.0 0.0

-508032.5912133546 3.4949301107040956e6 0.0
3.4949301107040956e6 43262.80756146455 0.0
0.0 0.0 0.0

-3.16395230963369e6 3.231985161432073e6 0.0
3.231985161432073e6 1.2444557320107096e6 0.0
0.0 0.0 0.0

-1.6087821650889146e6 3.2216258944858783e6 0.0
3.2216258944858783e6 816892.2826842895 0.0
0.0 0.0 0.0

-2.023811707780737e6 3.888827348525228e6 0.0
3.888827348525228e6 1.0818259932015128e6 0.0
0.0 0.0 0.0

-771904.9389107539 2.3921066219112356e6 0.0
2.3921066219112356e6 1.2794610984620769e6 0.0
0.0 0.0 0.0

-2.095602539982516e6 3.1927464216061328e6 0.0
3.1927464216061328e6 786501.979665125 0.0
0.0 0.0 0.0

-2.947349443636946e6 812311.1557687771 0.0
812311.1557687771 1.602900298717776e6 0.0
0.0 0.0 0.0

-2.4606424771135417e6 3.3319722902781507e6 0.0
3.3319722902781507e6 1.0013583740795455e6 0.0
0.0 0.0 0.0

1.014774219749234e6 1.723063590395802e6 0.0
1.723063590395802e6 -1.636126484891812e6 0.0
0.0 0.0 0.0

939291.8672840941 1.687996616142226e6 0.0
1.687996616142226e6 -1.5635954956748977e6 0.0
0.0 0.0 0.0

-1.867095061097632e6 3.7642674906758606e6 0.0
3.7642674906758606e6 972567.5525285437 0.0
0.0 0.0 0.0

-586868.4358151755 3.386759946563481e6 0.0
3.386759946563481e6 822648.0910144558 0.0
0.0 0.0 0.0

-2.5608516156337154e6 3.491982116793237e6 0.0
3.491982116793237e6 1.1281067609269982e6 0.0
0.0 0.0 0.0

-115715.12338226003 1.7770683174447652e6 0.0
1.7770683174447652e6 -410047.2239813804 0.0
0.0 0.0 0.0

-2.8618719084118567e6 3.398145933965242e6 0.0
3.398145933965242e6 1.1848510913717672e6 0.0
0.0 0.0 0.0

-513434.56153750175 3.9859963690184103e6 0.0
3.9859963690184103e6 -211242.43817510485 0.0
0.0 0.0 0.0

-327749.5031075023 3.294072227056223e6 0.0
3.294072227056223e6 -818173.0641278911 0.0
0.0 0.0 0.0

173827.13492914173 3.7443922625057916e6 0.0
3.7443922625057916e6 -1.6955177180236597e6 0.0
0.0 0.0 0.0

-1.6143821911229256e6 3.2213770509188822e6 0.0
3.2213770509188822e6 513437.0627987551 0.0
0.0 0.0 0.0

462108.36096260516 147600.67813138798 0.0
147600.67813138798 -477771.0221250504 0.0
0.0 0.0 0.0

-3.0314124189861678e6 1.0576020849411527e6 0.0
1.0576020849411527e6 5.175909349258962e6 0.0
0.0 0.0 0.0

-250627.55922047095 4.0171940774375536e6 0.0
4.0171940774375536e6 -734942.5930798729 0.0
0.0 0.0 0.0

-97968.22190505193 1.4525515249149078e6 0.0
1.4525515249149078e6 -203427.95349258822 0.0
0.0 0.0 0.0

-732599.4529564552 4.221702136185881e6 0.0
4.221702136185881e6 122358.95062495297 0.0
0.0 0.0 0.0

-16087.755653489265 3.4120072885788414e6 0.0
3.4120072885788414e6 -1.4961966681966018e6 0.0
0.0 0.0 0.0

-1.4930885461453034e6 3.2182744233914735e6 0.0
3.2182744233914735e6 653431.6264398425 0.0
0.0 0.0 0.0

-2.2101353075543717e6 4.062917832106814e6 0.0
4.062917832106814e6 1.3340177848803191e6 0.0
0.0 0.0 0.0

-332724.7190930778 3.918213133047947e6 0.0
3.918213133047947e6 -983768.9149145884 0.0
0.0 0.0 0.0

111085.61363903206 2.233945284914369e6 0.0
2.233945284914369e6 -216991.53590398614 0.0
0.0 0.0 0.0

-176686.65986930887 1.4360366393181072e6 0.0
1.4360366393181072e6 96538.52821808693 0.0
0.0 0.0 0.0

-2.1317581430550544e6 4.010112352787635e6 0.0
4.010112352787635e6 1.2202458751613456e6 0.0
0.0 0.0 0.0

-554836.8903364742 3.1893421254892764e6 0.0
3.1893421254892764e6 -403672.1088169352 0.0
0.0 0.0 0.0

1.1767282539491216e6 2.032281713674809e6 0.0
2.032281713674809e6 -1.938833153572016e6 0.0
0.0 0.0 0.0

-454500.3533675782 2.8044097271093596e6 0.0
2.8044097271093596e6 -164470.88326824264 0.0
0.0 0.0 0.0

-297066.71389725036 3.852943546013273e6 0.0
3.852943546013273e6 -1.0718032600657933e6 0.0
0.0 0.0 0.0

-280896.4776194416 3.6889373218136346e6 0.0
3.6889373218136346e6 -824917.6889200299 0.0
0.0 0.0 0.0

-808191.885603234 3.4583948542889296e6 0.0
3.4583948542889296e6 773293.360997739 0.0
0.0 0.0 0.0

-1.586473735173489e6 2.8834667834643438e6 0.0
2.8834667834643438e6 748275.4323029326 0.0
0.0 0.0 0.0

-288281.4026634327 3.082258848098e6 0.0
3.082258848098e6 -1.0517179110056239e6 0.0
0.0 0.0 0.0

708494.7564011874 2.174480172014841e6 0.0
2.174480172014841e6 -1.919340885471383e6 0.0
0.0 0.0 0.0

-314703.03305430245 3.883438991187057e6 0.0
3.883438991187057e6 -1.0302846841526845e6 0.0
0.0 0.0 0.0

-21542.79647459567 2.5903719361477266e6 0.0
2.5903719361477266e6 -1.3535227981854796e6 0.0
0.0 0.0 0.0

938428.2804968476 1.3084618987375107e6 0.0
1.3084618987375107e6 -1.6388501813071654e6 0.0
0.0 0.0 0.0

-1.9593149825659876e6 3.2068047182933423e6 0.0
3.2068047182933423e6 737827.103203085 0.0
0.0 0.0 0.0

-1.415384932975594e6 2.2860136077784635e6 0.0
2.2860136077784635e6 480011.71069124475 0.0
0.0 0.0 0.0

-576507.4355106272 3.719568375730263e6 0.0
3.719568375730263e6 282003.9692498816 0.0
0.0 0.0 0.0

19316.548693664896 -208145.214054829 0.0
-208145.214054829 -330607.4802498726 0.0
0.0 0.0 0.0

-417175.3248374725 3.7525239602525155e6 0.0
3.7525239602525155e6 -483561.4490819942 0.0
0.0 0.0 0.0

-982825.2857981976 3.2280358254336584e6 0.0
3.2280358254336584e6 896803.9512951261 0.0
0.0 0.0 0.0

441814.79591763066 2.150030546292484e6 0.0
2.150030546292484e6 -1.755020096897015e6 0.0
0.0 0.0 0.0

-1.079043105608372e7 -773854.0261798061 0.0
-773854.0261798061 7.573564030123286e6 0.0
0.0 0.0 0.0

-573467.7129797598 2.559557034287454e6 0.0
2.559557034287454e6 1.3747052447982102e6 0.0
0.0 0.0 0.0

-535359.0668197668 3.0716310609143516e6 0.0
3.0716310609143516e6 -416790.7593960161 0.0
0.0 0.0 0.0

-1.4575869532728305e6 2.6588780265185796e6 0.0
2.6588780265185796e6 553176.5528711529 0.0
0.0 0.0 0.0

-113078.16121292603 3.297631518579421e6 0.0
3.297631518579421e6 -1.4292526801433077e6 0.0
0.0 0.0 0.0

-235598.23383023095 3.9458483521874174e6 0.0
3.9458483521874174e6 -545453.75711412 0.0
0.0 0.0 0.0

192070.3070109873 4.0567219535192265e6 0.0
4.0567219535192265e6 -1.6254985231396693e6 0.0
0.0 0.0 0.0

-65776.17765299794 4.019448843949375e6 0.0
4.019448843949375e6 -517657.83922510623 0.0
0.0 0.0 0.0

-561750.0242608766 2.879020191271517e6 0.0
2.879020191271517e6 -525016.5458824426 0.0
0.0 0.0 0.0

887945.6081838692 2.1584422654737853e6 0.0
2.1584422654737853e6 -1.5388829814333771e6 0.0
0.0 0.0 0.0

1.1574840361183141e6 2.0228232545303048e6 0.0
2.0228232545303048e6 -1.913895873187188e6 0.0
0.0 0.0 0.0

-1.2865884801864666e6 4.32016214387031e6 0.0
4.32016214387031e6 336536.8865968115 0.0
0.0 0.0 0.0

207675.5169960364 3.9005284795813677e6 0.0
3.9005284795813677e6 -1.695273871609905e6 0.0
0.0 0.0 0.0

-1.5228079492901945e6 3.5691936555143753e6 0.0
3.5691936555143753e6 166524.86110538704 0.0
0.0 0.0 0.0

-850076.5425726504 4.0377423229274238e6 0.0
4.0377423229274238e6 -209990.41402684269 0.0
0.0 0.0 0.0

21462.170555060467 164355.07372210757 0.0
164355.07372210757 -619787.9372245508 0.0
0.0 0.0 0.0

-3.3725582061860412e6 3.0590024958604905e6 0.0
3.0590024958604905e6 1.2666696616288282e6 0.0
0.0 0.0 0.0

538510.1113749158 2.4383001740776408e6 0.0
2.4383001740776408e6 -1.279413500495027e6 0.0
0.0 0.0 0.0

-2.173797245444442e6 2.9195552539449176e6 0.0
2.9195552539449176e6 3.9408874253391065e6 0.0
0.0 0.0 0.0

-377731.67423021485 3.6999023609561417e6 0.0
3.6999023609561417e6 -431209.18020519544 0.0
0.0 0.0 0.0

-1.459271286724312e6 3.5802635217807665e6 0.0
3.5802635217807665e6 -57801.60375006299 0.0
0.0 0.0 0.0

293830.3597958299 2.5025986381614576e6 0.0
2.5025986381614576e6 -381929.7010201493 0.0
0.0 0.0 0.0

-122940.12602806406 3.2022331498254933e6 0.0
3.2022331498254933e6 -1.189114908293944e6 0.0
0.0 0.0 0.0

-921915.3143288792 2.4965772165618925e6 0.0
2.4965772165618925e6 224666.4849802673 0.0
0.0 0.0 0.0

-1.4910320239779863e6 2.939041744617208e6 0.0
2.939041744617208e6 835929.3403095474 0.0
0.0 0.0 0.0

-160010.61093661623 3.745462784594919e6 0.0
3.745462784594919e6 -279999.0380741608 0.0
0.0 0.0 0.0

-412847.03968624363 3.243343262602366e6 0.0
3.243343262602366e6 -575494.5595107938 0.0
0.0 0.0 0.0

-868124.2103893775 1.2263930780726501e6 0.0
1.2263930780726501e6 609316.9644927804 0.0
0.0 0.0 0.0

-229981.68890868893 3.0846529950390197e6 0.0
3.0846529950390197e6 -1.110300658487688e6 0.0
0.0 0.0 0.0

-72770.83706359997 134310.3260999448 0.0
134310.3260999448 253944.14533533598 0.0
0.0 0.0 0.0

-837664.2294437293 3.587103662994062e6 0.0
3.587103662994062e6 564641.2558643364 0.0
0.0 0.0 0.0

-132104.00364607558 2.6606140908178254e6 0.0
2.6606140908178254e6 -318863.84614920954 0.0
0.0 0.0 0.0

-2.9364945282275993e6 3.387221769986688e6 0.0
3.387221769986688e6 1.469716918761843e6 0.0
0.0 0.0 0.0

-228624.47179350432 4.531927337566586e6 0.0
4.531927337566586e6 -990867.0528349055 0.0
0.0 0.0 0.0

-1.2131391028852358e6 3.451386003370528e6 0.0
3.451386003370528e6 315700.72281321586 0.0
0.0 0.0 0.0

-1.1337362400328042e6 3.789271155795736e6 0.0
3.789271155795736e6 40707.172445033735 0.0
0.0 0.0 0.0

-754434.7561997973 3.5948190303977327e6 0.0
3.5948190303977327e6 -234892.13115777733 0.0
0.0 0.0 0.0

53385.40226295241 4.600142711795199e6 0.0
4.600142711795199e6 -965846.8032467668 0.0
0.0 0.0 0.0

-507877.4144747444 3.714876963320786e6 0.0
3.714876963320786e6 65260.73066814718 0.0
0.0 0.0 0.0

-1.1472533264674474e6 -315685.66412237374 0.0
-315685.66412237374 1.8708033646152802e6 0.0
0.0 0.0 0.0

2.2100873637118414e6 110388.52310531186 0.0
110388.52310531186 -3.16173774421783e6 0.0
0.0 0.0 0.0

-195155.46535245687 3.364234518747178e6 0.0
3.364234518747178e6 -1.2197335906211957e6 0.0
0.0 0.0 0.0

-991242.1081346452 3.6242389860164546e6 0.0
3.6242389860164546e6 -10908.18798117165 0.0
0.0 0.0 0.0

-1.7128479775530414e6 3.230781889708594e6 0.0
3.230781889708594e6 834581.4963429149 0.0
0.0 0.0 0.0

-1.2232991523539452e6 2.2945685550916856e6 0.0
2.2945685550916856e6 173730.95785938448 0.0
0.0 0.0 0.0

-639194.0173314922 2.908094839991473e6 0.0
2.908094839991473e6 -1.1796977666297788e6 0.0
0.0 0.0 0.0

-90294.235352359 1.3615154154638848e6 0.0
1.3615154154638848e6 15910.390141174681 0.0
0.0 0.0 0.0

-2.4996863197656977e6 4.191806971063116e6 0.0
4.191806971063116e6 1.501472412953712e6 0.0
0.0 0.0 0.0

-5.58320134447616e6 1.7764147025395937e6 0.0
1.7764147025395937e6 4.549591822150925e6 0.0
0.0 0.0 0.0

-342897.35169420793 3.62093370634749e6 0.0
3.62093370634749e6 -497537.9581415994 0.0
0.0 0.0 0.0

-107120.5718936431 86331.02610828698 0.0
86331.02610828698 -998787.5523638182 0.0
0.0 0.0 0.0

-1.6583652836034137e6 3.214884564588275e6 0.0
3.214884564588275e6 652882.8353996711 0.0
0.0 0.0 0.0

50516.96415195082 571096.7698958574 0.0
571096.7698958574 178741.9120319013 0.0
0.0 0.0 0.0

-1.722407881931717e6 3.3256678377769026e6 0.0
3.3256678377769026e6 158818.9282342426 0.0
0.0 0.0 0.0

-556114.6188702696 3.555902897161355e6 0.0
3.555902897161355e6 369637.49028266896 0.0
0.0 0.0 0.0

-2.3431009467156776e6 3.4895481646307404e6 0.0
3.4895481646307404e6 1.1653942137685162e6 0.0
0.0 0.0 0.0

-494197.87141682056 2.946417427593991e6 0.0
2.946417427593991e6 -625731.295319226 0.0
0.0 0.0 0.0

-1.132039757168582e6 322922.80458773463 0.0
322922.80458773463 1.4729798437630497e6 0.0
0.0 0.0 0.0

-350441.0303263877 3.1819918853204264e6 0.0
3.1819918853204264e6 -898746.8087477831 0.0
0.0 0.0 0.0

-810570.3205068291 4.206032956329319e6 0.0
4.206032956329319e6 -236888.1451831868 0.0
0.0 0.0 0.0

-2.4515950491909147e6 4.287857083258844e6 0.0
4.287857083258844e6 1.557341545266188e6 0.0
0.0 0.0 0.0

931207.056125476 1.2518844047801695e6 0.0
1.2518844047801695e6 -1.5508148266957568e6 0.0
0.0 0.0 0.0

-473259.0243543613 3.6916743171767266e6 0.0
3.6916743171767266e6 -347664.4834029102 0.0
0.0 0.0 0.0

-1.3040487991153328e6 3.3404742033865075e6 0.0
3.3404742033865075e6 358189.9862983313 0.0
0.0 0.0 0.0

329584.5189235937 1.958787597100306e6 0.0
1.958787597100306e6 -370857.02476488973 0.0
0.0 0.0 0.0

-1.346053229323064e6 4.552595552930183e6 0.0
4.552595552930183e6 466492.6602938127 0.0
0.0 0.0 0.0

-242010.60168092666 1.249819195547376e6 0.0
1.249819195547376e6 551549.8973209825 0.0
0.0 0.0 0.0

-795403.8036047327 696997.6369772064 0.0
696997.6369772064 1.2655837378110522e6 0.0
0.0 0.0 0.0

-1.227592659015014e6 3.2419353115692614e6 0.0
3.2419353115692614e6 342798.19616239425 0.0
0.0 0.0 0.0

-125322.3668240883 1.9742545771489309e6 0.0
1.9742545771489309e6 -486619.74866772303 0.0
0.0 0.0 0.0

-685431.5109028693 2.550206068408966e6 0.0
2.550206068408966e6 159209.01209545782 0.0
0.0 0.0 0.0

-303444.1840513906 3.7051566167218094e6 0.0
3.7051566167218094e6 572853.6901262257 0.0
0.0 0.0 0.0

85668.03500984912 4.659302012478846e6 0.0
4.659302012478846e6 -1.2973919341180157e6 0.0
0.0 0.0 0.0

-43913.15350136176 -244633.29477213082 0.0
-244633.29477213082 -263281.33976612857 0.0
0.0 0.0 0.0

-1.0684930530481534e6 4.681063676057919e6 0.0
4.681063676057919e6 198772.10889871093 0.0
0.0 0.0 0.0

-31654.851174257376 1.71049179806273e6 0.0
1.71049179806273e6 -52230.364655198246 0.0
0.0 0.0 0.0

-784886.682324064 1.8767624372863136e6 0.0
1.8767624372863136e6 -368608.5602418574 0.0
0.0 0.0 0.0

-471214.88485833484 3.8122922461855575e6 0.0
3.8122922461855575e6 -145275.04784348732 0.0
0.0 0.0 0.0

-1.4451736652854702e6 2.8662515478560603e6 0.0
2.8662515478560603e6 772832.0637607394 0.0
0.0 0.0 0.0

-878916.4216723407 3.3033357749690334e6 0.0
3.3033357749690334e6 429598.67785687774 0.0
0.0 0.0 0.0

-1.2357542534738202e6 1.7030892866088399e6 0.0
1.7030892866088399e6 689905.9237683422 0.0
0.0 0.0 0.0

-902534.5025327792 4.114844234665006e6 0.0
4.114844234665006e6 -170199.1421100212 0.0
0.0 0.0 0.0

-735409.2679470041 2.5727281154222195e6 0.0
2.5727281154222195e6 245756.56941249227 0.0
0.0 0.0 0.0

-501823.52197864675 3.588097002409665e6 0.0
3.588097002409665e6 -342608.7966145127 0.0
0.0 0.0 0.0

-1.3152634907414075e6 3.290134941417609e6 0.0
3.290134941417609e6 326889.87731972866 0.0
0.0 0.0 0.0

-2.595842256550449e6 3.524673890929212e6 0.0
3.524673890929212e6 1.1134220218461095e6 0.0
0.0 0.0 0.0

16542.43813998025 4.379338833115842e6 0.0
4.379338833115842e6 -1.4578016452037718e6 0.0
0.0 0.0 0.0

11893.958850614988 -125649.01782091473 0.0
-125649.01782091473 -682865.4032772689 0.0
0.0 0.0 0.0

335623.5927978124 243880.21496518294 0.0
243880.21496518294 -569304.5591802526 0.0
0.0 0.0 0.0

1.2764764996659956e6 2.7293697694718163e6 0.0
2.7293697694718163e6 -2.2226059575605323e6 0.0
0.0 0.0 0.0

-1.4476911068033811e6 3.3832654413415818e6 0.0
3.3832654413415818e6 830626.5513417302 0.0
0.0 0.0 0.0

-570715.0884080951 3.27970881364501e6 0.0
3.27970881364501e6 821812.8144128332 0.0
0.0 0.0 0.0

-146121.47090280932 2.523204170733273e6 0.0
2.523204170733273e6 -759587.846685944 0.0
0.0 0.0 0.0

-3.5111871367974887e6 2.976946167156963e6 0.0
2.976946167156963e6 1.3883070548284769e6 0.0
0.0 0.0 0.0

-182.66703611356206 703654.2598531271 0.0
703654.2598531271 -544475.4012053254 0.0
0.0 0.0 0.0

-2.2995025776168588e6 1.0456754019048354e7 0.0
1.0456754019048354e7 3.5137875297014415e6 0.0
0.0 0.0 0.0

-846838.0739264535 3.2012484180607796e6 0.0
3.2012484180607796e6 -153458.00355784217 0.0
0.0 0.0 0.0

-308974.4651074385 3.0070984637710988e6 0.0
3.0070984637710988e6 -828902.4656459718 0.0
0.0 0.0 0.0

-659883.6609058911 3.874607834737619e6 0.0
3.874607834737619e6 192583.99420933134 0.0
0.0 0.0 0.0

-341587.55390085914 447075.231476538 0.0
447075.231476538 518430.64080410753 0.0
0.0 0.0 0.0

-1.0738787071213792e6 3.187387947299016e6 0.0
3.187387947299016e6 368240.9583006733 0.0
0.0 0.0 0.0

-238806.55861401005 3.599037233451667e6 0.0
3.599037233451667e6 -723812.1726529265 0.0
0.0 0.0 0.0

1.1657119016707428e6 1.8702660311943933e6 0.0
1.8702660311943933e6 -1.8391978969540647e6 0.0
0.0 0.0 0.0

846844.1991854802 805303.5714900842 0.0
805303.5714900842 -1.0815660907888152e6 0.0
0.0 0.0 0.0

-4.0909409810348535e6 2.718283988003497e6 0.0
2.718283988003497e6 1.6548440758355313e6 0.0
0.0 0.0 0.0

-791311.1008932946 2.6763010177817484e6 0.0
2.6763010177817484e6 645354.4741022049 0.0
0.0 0.0 0.0

-222923.23888009152 3.537539166993775e6 0.0
3.537539166993775e6 -1.1793201258714537e6 0.0
0.0 0.0 0.0

-134177.5945126158 3.0294732464008676e6 0.0
3.0294732464008676e6 111039.57925691355 0.0
0.0 0.0 0.0

636847.9662897179 409767.6237846417 0.0
409767.6237846417 -691226.9686422992 0.0
0.0 0.0 0.0

203718.44683866226 2.6314901483809846e6 0.0
2.6314901483809846e6 -256558.9957937905 0.0
0.0 0.0 0.0

-266449.8968916407 3.832785617293945e6 0.0
3.832785617293945e6 -1.1217947613121313e6 0.0
0.0 0.0 0.0

-939042.4260783984 2.3610039850890045e6 0.0
2.3610039850890045e6 157130.8573777462 0.0
0.0 0.0 0.0

-761237.6033241993 2.4656724745333293e6 0.0
2.4656724745333293e6 276633.49831806007 0.0
0.0 0.0 0.0

-155662.6796959741 3.4886083928892943e6 0.0
3.4886083928892943e6 -1.3075656259716505e6 0.0
0.0 0.0 0.0

32749.878387655248 3.572761250478378e6 0.0
3.572761250478378e6 -1.6350647999114725e6 0.0
0.0 0.0 0.0

-1.1436812122180965e6 3.609007405848608e6 0.0
3.609007405848608e6 217075.4929230892 0.0
0.0 0.0 0.0

-288669.7140678179 3.1441782189228474e6 0.0
3.1441782189228474e6 -881151.495388593 0.0
0.0 0.0 0.0

-83511.12907639724 2.625778575689753e6 0.0
2.625778575689753e6 -254513.48602250198 0.0
0.0 0.0 0.0

1.3009884105186071e6 186068.24272584953 0.0
186068.24272584953 -2.1482881745641166e6 0.0
0.0 0.0 0.0

-3.668107435967965e6 4.431599929080466e6 0.0
4.431599929080466e6 620658.020882363 0.0
0.0 0.0 0.0

-462051.20048650284 185184.24751144732 0.0
185184.24751144732 -350922.5628022804 0.0
0.0 0.0 0.0

1.1635613630158277e6 686159.7399580491 0.0
686159.7399580491 -1.8114573795699775e6 0.0
0.0 0.0 0.0

-1.0799677866739626e6 3.9356747806049725e6 0.0
3.9356747806049725e6 -40814.30058468523 0.0
0.0 0.0 0.0

-233435.92613681444 2.555874584532518e6 0.0
2.555874584532518e6 -778119.7511498976 0.0
0.0 0.0 0.0

-415158.75008684216 3.9196527802088787e6 0.0
3.9196527802088787e6 -355240.4761303015 0.0
0.0 0.0 0.0

-1.2733028049756857e6 1.4995792625908435e6 0.0
1.4995792625908435e6 2.347082364615802e6 0.0
0.0 0.0 0.0

-1.2704152073225407e6 2.3355342834175653e6 0.0
2.3355342834175653e6 1.9177517191914641e6 0.0
0.0 0.0 0.0

-1.7086746769737927e6 5.7350830439461535e6 0.0
5.7350830439461535e6 2.2857715719740298e6 0.0
0.0 0.0 0.0

-296801.72962143086 3.9313914331828454e6 0.0
3.9313914331828454e6 -372348.7180720127 0.0
0.0 0.0 0.0

-819415.2238192251 3.475238523120388e6 0.0
3.475238523120388e6 708501.6597654892 0.0
0.0 0.0 0.0

-486951.03738725657 2.7440584937705277e6 0.0
2.7440584937705277e6 -135187.89851793565 0.0
0.0 0.0 0.0

-219201.85113859354 3.809054621963276e6 0.0
3.809054621963276e6 -1.1943694358351538e6 0.0
0.0 0.0 0.0

-1.2350037083193543e6 3.403797610390575e6 0.0
3.403797610390575e6 247836.9540958638 0.0
0.0 0.0 0.0

-57783.70192139571 1.1555181848045734e6 0.0
1.1555181848045734e6 -23912.17188918522 0.0
0.0 0.0 0.0

-818486.2290462957 4.783036494495183e6 0.0
4.783036494495183e6 81042.33480836323 0.0
0.0 0.0 0.0

-801190.2167607292 3.0932465631689937e6 0.0
3.0932465631689937e6 13832.848606970743 0.0
0.0 0.0 0.0

766888.1672301427 1.6637076389788943e6 0.0
1.6637076389788943e6 -1.5208171242605129e6 0.0
0.0 0.0 0.0

-746618.3057192129 3.964361441986389e6 0.0
3.964361441986389e6 -93765.09806196982 0.0
0.0 0.0 0.0

-2.2551171694300706e6 3.8509781554031665e6 0.0
3.8509781554031665e6 1.4160198127760165e6 0.0
0.0 0.0 0.0

-3078.678415910691 2.087887523713777e6 0.0
2.087887523713777e6 -10261.999418404288 0.0
0.0 0.0 0.0

633435.5303586897 3.9264242032810007e6 0.0
3.9264242032810007e6 2.1114553180178935e6 0.0
0.0 0.0 0.0

-288206.00655346503 -843197.4496887815 0.0
-843197.4496887815 439140.1884446971 0.0
0.0 0.0 0.0

-273157.9858363836 3.398432844311554e6 0.0
3.398432844311554e6 -592756.5367911363 0.0
0.0 0.0 0.0

-10041.333578431659 -103804.68166867424 0.0
-103804.68166867424 209640.79762805594 0.0
0.0 0.0 0.0

-2.007313918195926e6 4.247958041727322e6 0.0
4.247958041727322e6 1.372470110512468e6 0.0
0.0 0.0 0.0

-1.1642298863811695e6 4.105855584293625e6 0.0
4.105855584293625e6 213851.76764117664 0.0
0.0 0.0 0.0

-3.826451500786466e6 2.93404126584415e6 0.0
2.93404126584415e6 1.567273398856651e6 0.0
0.0 0.0 0.0

-1.6935011573440437e6 3.457303083567216e6 0.0
3.457303083567216e6 2.263200110633953e6 0.0
0.0 0.0 0.0

29724.345499969713 1.1463354133279342e6 0.0
1.1463354133279342e6 -37375.71670466692 0.0
0.0 0.0 0.0

-2.1928835147559503e6 4.237224154736923e6 0.0
4.237224154736923e6 1.4650811615891247e6 0.0
0.0 0.0 0.0

-838242.122339404 2.690757507598285e6 0.0
2.690757507598285e6 217206.73706471268 0.0
0.0 0.0 0.0

-1.0945319928012607e6 3.181627704222204e6 0.0
3.181627704222204e6 253218.1910337602 0.0
0.0 0.0 0.0

894132.9878071804 2.9649253553433223e6 0.0
2.9649253553433223e6 -1.7375492167873164e6 0.0
0.0 0.0 0.0

-1.0889240939217368e6 3.747946686415816e6 0.0
3.747946686415816e6 174650.5154766126 0.0
0.0 0.0 0.0

-1.1076455753445686e6 3.55124162432107e6 0.0
3.55124162432107e6 1.9833254888553345e6 0.0
0.0 0.0 0.0

-116595.89835574356 3.228195032491252e6 0.0
3.228195032491252e6 -1.2995739265673028e6 0.0
0.0 0.0 0.0

-2.8927259118800866e6 -1.6007166812575979e6 0.0
-1.6007166812575979e6 3.687124789590015e6 0.0
0.0 0.0 0.0

-2.4827336247882894e6 3.5100048103432674e6 0.0
3.5100048103432674e6 1.1656622737232675e6 0.0
0.0 0.0 0.0

-315866.5816254165 3.377718651220755e6 0.0
3.377718651220755e6 -405983.0525850882 0.0
0.0 0.0 0.0

-4.493427819090881e6 1.7560012153755496e6 0.0
1.7560012153755496e6 2.9195399359864388e6 0.0
0.0 0.0 0.0

1.0440250978634589e6 1.2511516721213e6 0.0
1.2511516721213e6 -1.5353907997437809e6 0.0
0.0 0.0 0.0

-1.738124288763903e6 3.180136719623199e6 0.0
3.180136719623199e6 726661.9824729626 0.0
0.0 0.0 0.0

-1.3427343386239614e6 3.6369293516304446e6 0.0
3.6369293516304446e6 -167110.97462478504 0.0
0.0 0.0 0.0

-324599.40346975945 3.331880068425571e6 0.0
3.331880068425571e6 -784359.5314145782 0.0
0.0 0.0 0.0

-750086.4439448 3.264331100971144e6 0.0
3.264331100971144e6 -266150.39967534144 0.0
0.0 0.0 0.0

-301663.86295956315 4.11667818864229e6 0.0
4.11667818864229e6 -297033.2754444893 0.0
0.0 0.0 0.0

-2.6362010340619497e6 2.945020490953776e6 0.0
2.945020490953776e6 767688.5979070966 0.0
0.0 0.0 0.0

-1.1384414120051453e6 3.5356333084375993e6 0.0
3.5356333084375993e6 734463.2007355639 0.0
0.0 0.0 0.0

1.110222365242836e6 2.2187796371041527e6 0.0
2.2187796371041527e6 -1.9942486758037368e6 0.0
0.0 0.0 0.0

-1.748829555642788e6 4.3685547412169585e6 0.0
4.3685547412169585e6 -951466.3809034376 0.0
0.0 0.0 0.0

-727237.3092104162 2.642636576522113e6 0.0
2.642636576522113e6 294351.4572285531 0.0
0.0 0.0 0.0

-1.049806647460184e6 3.950189284697735e6 0.0
3.950189284697735e6 110201.37153268588 0.0
0.0 0.0 0.0

-2.253359197601092e6 2.888618367098414e6 0.0
2.888618367098414e6 3.7003333282060996e6 0.0
0.0 0.0 0.0

-438572.4550492761 4.684726637862518e6 0.0
4.684726637862518e6 -154528.18419529236 0.0
0.0 0.0 0.0

-958737.9193328787 3.8404940435797474e6 0.0
3.8404940435797474e6 116088.38422234094 0.0
0.0 0.0 0.0

-1.071683912126308e6 2.402356609084349e6 0.0
2.402356609084349e6 -24127.901531367563 0.0
0.0 0.0 0.0

-999260.8728293247 1.915067768949375e6 0.0
1.915067768949375e6 1.016099144270114e6 0.0
0.0 0.0 0.0

-457083.16628937586 3.7609405005565286e6 0.0
3.7609405005565286e6 -319915.4877600611 0.0
0.0 0.0 0.0

-988796.137839764 2.0035578590832173e6 0.0
2.0035578590832173e6 1.2717712345566847e6 0.0
0.0 0.0 0.0

-3.5018133501452324e6 -1.1412885370528668e6 0.0
-1.1412885370528668e6 6.027265031080924e6 0.0
0.0 0.0 0.0

-3.1187966617634147e6 -2.865676418044305e6 0.0
-2.865676418044305e6 5.896781500915981e6 0.0
0.0 0.0 0.0

-1.1863814415635052e6 2.6629187313819085e6 0.0
2.6629187313819085e6 165224.6165518475 0.0
0.0 0.0 0.0

-411738.63370331103 3.426974631384658e6 0.0
3.426974631384658e6 -582226.7741598766 0.0
0.0 0.0 0.0

-685703.1237556528 3.345599029787046e6 0.0
3.345599029787046e6 -336732.7715002871 0.0
0.0 0.0 0.0

-1.1030479496694196e6 4.576628470103862e6 0.0
4.576628470103862e6 -292051.936129023 0.0
0.0 0.0 0.0

-59146.04533429863 2.247699751724214e6 0.0
2.247699751724214e6 603741.4066197026 0.0
0.0 0.0 0.0

-766898.962921665 2.6941361717638355e6 0.0
2.6941361717638355e6 671779.9251177325 0.0
0.0 0.0 0.0

-622791.7426469711 3.4082450039082705e6 0.0
3.4082450039082705e6 -395937.40143673104 0.0
0.0 0.0 0.0

-1.2667110731285044e6 2.414175330343905e6 0.0
2.414175330343905e6 242572.68616830296 0.0
0.0 0.0 0.0

491779.5657679867 80665.38374992639 0.0
80665.38374992639 -541489.4642186629 0.0
0.0 0.0 0.0

76216.8191935257 3.8691749622742888e6 0.0
3.8691749622742888e6 -1.4463815815598671e6 0.0
0.0 0.0 0.0

-16803.61121584171 26036.5152274994 0.0
26036.5152274994 114692.3029847575 0.0
0.0 0.0 0.0

532305.7822275262 44399.86828410966 0.0
44399.86828410966 -502284.97372524487 0.0
0.0 0.0 0.0

556156.9752118753 41576.98030788578 0.0
41576.98030788578 -540244.8317674831 0.0
0.0 0.0 0.0

278105.3773428566 2.0986954914083784e6 0.0
2.0986954914083784e6 260159.0195722413 0.0
0.0 0.0 0.0

-439808.08379066724 2.97999737671036e6 0.0
2.97999737671036e6 -722422.9482763648 0.0
0.0 0.0 0.0

76286.24675007898 4.050707403683975e6 0.0
4.050707403683975e6 -1.718313305127092e6 0.0
0.0 0.0 0.0

-424646.68814585253 3.9629362639689054e6 0.0
3.9629362639689054e6 -241803.21325474945 0.0
0.0 0.0 0.0

-649423.3076512481 3.731413255157223e6 0.0
3.731413255157223e6 -312161.10529636685 0.0
0.0 0.0 0.0

-397295.70516970713 3.881807517654236e6 0.0
3.881807517654236e6 -406596.85162225756 0.0
0.0 0.0 0.0

-1.918554518428874e6 3.8248196435892065e6 0.0
3.8248196435892065e6 1.3045821457976613e6 0.0
0.0 0.0 0.0

458921.91042300686 5.25453692921439e6 0.0
5.25453692921439e6 1.2878433428068683e6 0.0
0.0 0.0 0.0

-1.7721855626514263e6 2.6128848437803257e6 0.0
2.6128848437803257e6 3.4450963793195193e6 0.0
0.0 0.0 0.0

-439318.3721233119 3.8788261642164183e6 0.0
3.8788261642164183e6 -330159.03908474196 0.0
0.0 0.0 0.0

-928506.9700042738 4.165438135691157e6 0.0
4.165438135691157e6 307138.9095179669 0.0
0.0 0.0 0.0

-2.417565243563955e6 4.064958899212341e6 0.0
4.064958899212341e6 1.4669018583647097e6 0.0
0.0 0.0 0.0

-323503.2827971241 3.1893396618076824e6 0.0
3.1893396618076824e6 -812860.8087810605 0.0
0.0 0.0 0.0

-1.299810715399695e6 3.8204738604654716e6 0.0
3.8204738604654716e6 -379426.4963433636 0.0
0.0 0.0 0.0

-1.082150065535996e6 3.950814126539314e6 0.0
3.950814126539314e6 -65298.40842130978 0.0
0.0 0.0 0.0

1.0166332407298881e6 1.5976506138981597e6 0.0
1.5976506138981597e6 -1.5189359420474016e6 0.0
0.0 0.0 0.0

-2.2486480077099847e6 3.933128358894328e6 0.0
3.933128358894328e6 1.3548840187000092e6 0.0
0.0 0.0 0.0

-4.476321672895727e6 2.563150339037424e6 0.0
2.563150339037424e6 1.8687705178719177e6 0.0
0.0 0.0 0.0

-430207.70168930833 2.4728801787697994e6 0.0
2.4728801787697994e6 -1.1302845314812355e6 0.0
0.0 0.0 0.0

-80581.16179931816 3.3666127577810613e6 0.0
3.3666127577810613e6 -1.472582061395477e6 0.0
0.0 0.0 0.0

85587.14444252104 3.861167641182384e6 0.0
3.861167641182384e6 -1.7296587916440775e6 0.0
0.0 0.0 0.0

-57043.49411315023 4.0224136038487917e6 0.0
4.0224136038487917e6 -1.7242983776837187e6 0.0
0.0 0.0 0.0

-2.013816577082618e6 6.543077499959755e6 0.0
6.543077499959755e6 1.5010596971699782e6 0.0
0.0 0.0 0.0

-569023.0626553186 3.466779686814882e6 0.0
3.466779686814882e6 -467083.1986706854 0.0
0.0 0.0 0.0

-517435.04475853377 3.7895289095223183e6 0.0
3.7895289095223183e6 632398.6963251497 0.0
0.0 0.0 0.0

-5.4145770244415775e6 189388.0754046091 0.0
189388.0754046091 3.5254811841550544e6 0.0
0.0 0.0 0.0

-3.6688736742170868e6 2.6257515355172683e6 0.0
2.6257515355172683e6 2.0809614027085165e6 0.0
0.0 0.0 0.0

1.0884168309218886e6 3.234164504161891e6 0.0
3.234164504161891e6 -1.8988292434149478e6 0.0
0.0 0.0 0.0

-467764.14990490937 3.838987605396387e6 0.0
3.838987605396387e6 -322621.57591390033 0.0
0.0 0.0 0.0

-894444.1628584686 3.972770860643161e6 0.0
3.972770860643161e6 -15971.773195380403 0.0
0.0 0.0 0.0

975440.6085040175 1.4954963022078262e6 0.0
1.4954963022078262e6 -1.5005014504770585e6 0.0
0.0 0.0 0.0

-1.3070053692637004e6 4.835416370795974e6 0.0
4.835416370795974e6 -392955.31922727823 0.0
0.0 0.0 0.0

-351080.8313695976 3.69433299096538e6 0.0
3.69433299096538e6 -74233.66496292016 0.0
0.0 0.0 0.0

-1.830242369417491e6 3.0259241906028753e6 0.0
3.0259241906028753e6 3.00958897693337e6 0.0
0.0 0.0 0.0

484724.9284190005 -6947.764278761208 0.0
-6947.764278761208 -497031.1569085098 0.0
0.0 0.0 0.0

-208863.3494085394 3.1169026583053004e6 0.0
3.1169026583053004e6 -1.0977061597460005e6 0.0
0.0 0.0 0.0

109001.14626489801 2.6262393863939513e6 0.0
2.6262393863939513e6 -1.5670895428426836e6 0.0
0.0 0.0 0.0

-795497.7547857082 1.559142310698217e6 0.0
1.559142310698217e6 552157.6287974536 0.0
0.0 0.0 0.0

470658.746613411 -37043.215659290065 0.0
-37043.215659290065 -520417.70475623733 0.0
0.0 0.0 0.0

-1.1309652509954307e7 4.465083324063465e6 0.0
4.465083324063465e6 1.644880414032682e7 0.0
0.0 0.0 0.0

-817552.1233897605 -340424.35064625106 0.0
-340424.35064625106 1.1910232303526192e6 0.0
0.0 0.0 0.0

-1.8577516143826975e6 4.951440953318697e6 0.0
4.951440953318697e6 1.2870553204449792e6 0.0
0.0 0.0 0.0

-1.6419616132362655e6 3.1654766947885957e6 0.0
3.1654766947885957e6 553539.2455818774 0.0
0.0 0.0 0.0

-293317.13419435435 4.0095116050751703e6 0.0
4.0095116050751703e6 -1.1282663193156328e6 0.0
0.0 0.0 0.0

-790767.9112356387 3.694556194179004e6 0.0
3.694556194179004e6 98556.66497078148 0.0
0.0 0.0 0.0

-1.1655798323350656e6 3.5450971478366805e6 0.0
3.5450971478366805e6 159737.00261811563 0.0
0.0 0.0 0.0

-3.4346423625256573e6 5.820551007921178e6 0.0
5.820551007921178e6 2.3473272570045483e6 0.0
0.0 0.0 0.0

393845.67761102965 962618.9492447734 0.0
962618.9492447734 -1.1906685257983601e6 0.0
0.0 0.0 0.0

494259.65332987014 82745.65418015947 0.0
82745.65418015947 -535303.0780246812 0.0
0.0 0.0 0.0

-241622.47692489205 3.785899110920838e6 0.0
3.785899110920838e6 -506466.7010628081 0.0
0.0 0.0 0.0

-1.111376890613493e6 3.918590408784978e6 0.0
3.918590408784978e6 -92867.37933614687 0.0
0.0 0.0 0.0

-449628.5380066596 3.3793085372550418e6 0.0
3.3793085372550418e6 442876.3920093605 0.0
0.0 0.0 0.0

-63280.25285173965 2.205788858918074e6 0.0
2.205788858918074e6 -200740.49042250542 0.0
0.0 0.0 0.0

-172763.28974142228 3.1640147389747673e6 0.0
3.1640147389747673e6 -1.2495546810734936e6 0.0
0.0 0.0 0.0

-1.2504288519288093e7 -1.9342326743623593e6 0.0
-1.9342326743623593e6 9.304831057528412e6 0.0
0.0 0.0 0.0

-68518.36209850214 1.8176695577048806e6 0.0
1.8176695577048806e6 -118402.09967074587 0.0
0.0 0.0 0.0

-1.1071606199754386e6 3.946508933709993e6 0.0
3.946508933709993e6 -90251.53203390894 0.0
0.0 0.0 0.0

-265013.1620129618 3.183239805552654e6 0.0
3.183239805552654e6 -904607.6273674757 0.0
0.0 0.0 0.0

-59351.52521262318 3.84213583547243e6 0.0
3.84213583547243e6 -1.4538024286185938e6 0.0
0.0 0.0 0.0

-3.2208788475216166e6 5.43816097713332e6 0.0
5.43816097713332e6 2.2165303526789574e6 0.0
0.0 0.0 0.0

-79453.08769646712 3.712681334816644e6 0.0
3.712681334816644e6 -1.4544992031438875e6 0.0
0.0 0.0 0.0

-526357.7659569373 3.4602630121596875e6 0.0
3.4602630121596875e6 -539270.132674516 0.0
0.0 0.0 0.0

-147304.66431624227 3.8425322442495865e6 0.0
3.8425322442495865e6 -517872.2237633876 0.0
0.0 0.0 0.0

-2.74190038221959e6 4.551370240173029e6 0.0
4.551370240173029e6 1.5905294667922729e6 0.0
0.0 0.0 0.0

-1.1279487094481552e6 3.8859052504445296e6 0.0
3.8859052504445296e6 -85218.16436112439 0.0
0.0 0.0 0.0

-217580.2190326489 3.0994250814186544e6 0.0
3.0994250814186544e6 -1.0872717225266148e6 0.0
0.0 0.0 0.0

-701130.862397024 3.078202954201118e6 0.0
3.078202954201118e6 -224017.761984426 0.0
0.0 0.0 0.0

-1.8660627305725825e6 3.1428687524736538e6 0.0
3.1428687524736538e6 750342.5171106136 0.0
0.0 0.0 0.0

-1.1052078238163604e6 3.968976443630973e6 0.0
3.968976443630973e6 -96267.33379425062 0.0
0.0 0.0 0.0

49381.95072178577 805.6919537585374 0.0
805.6919537585374 272586.610603159 0.0
0.0 0.0 0.0

-714166.3200020457 2.552468063418969e6 0.0
2.552468063418969e6 409658.77130962803 0.0
0.0 0.0 0.0

-125775.57549258723 3.6973510391509486e6 0.0
3.6973510391509486e6 -1.3890536534654093e6 0.0
0.0 0.0 0.0

-96502.07013353237 4.219730107412529e6 0.0
4.219730107412529e6 -77595.33525389848 0.0
0.0 0.0 0.0

-183161.88690093998 3.1438383267504433e6 0.0
3.1438383267504433e6 -1.1079993160006872e6 0.0
0.0 0.0 0.0

-318951.8082841961 3.710787118146587e6 0.0
3.710787118146587e6 -872495.5535771991 0.0
0.0 0.0 0.0

164099.71158662712 675167.896991243 0.0
675167.896991243 75324.40527188647 0.0
0.0 0.0 0.0

-1.3897473421111503e6 3.2080363115770207e6 0.0
3.2080363115770207e6 872509.3343031994 0.0
0.0 0.0 0.0

-338898.1956294765 4.0371037103383313e6 0.0
4.0371037103383313e6 -1.0369531184428183e6 0.0
0.0 0.0 0.0

-344784.76601151086 3.403096461837579e6 0.0
3.403096461837579e6 -734173.8159009297 0.0
0.0 0.0 0.0

-4.949471686228026e6 2.3138270262938836e6 0.0
2.3138270262938836e6 1.823591946892843e6 0.0
0.0 0.0 0.0

-6.692100552896736e6 -373156.34508153505 0.0
-373156.34508153505 4.286281222528622e6 0.0
0.0 0.0 0.0

-2.134138740833821e6 5.214093789940838e6 0.0
5.214093789940838e6 1.1218194579521848e6 0.0
0.0 0.0 0.0

-4.653169532441996e6 2.456719394967047e6 0.0
2.456719394967047e6 1.8132660700708933e6 0.0
0.0 0.0 0.0

-2.51157091655613e6 8.461657201278096e6 0.0
8.461657201278096e6 2.8499832517425725e6 0.0
0.0 0.0 0.0

-18057.662309312844 3.529498915623499e6 0.0
3.529498915623499e6 -1.4069058757410785e6 0.0
0.0 0.0 0.0

-397657.87989251455 2.413803287042588e6 0.0
2.413803287042588e6 -1.0547756555784268e6 0.0
0.0 0.0 0.0

-1.0290032944046131e6 4.0304965734104817e6 0.0
4.0304965734104817e6 -50295.716497487796 0.0
0.0 0.0 0.0

-22578.38767295979 1.796497186961295e6 0.0
1.796497186961295e6 -249590.7236156368 0.0
0.0 0.0 0.0

-1.0517260804654416e6 4.0486746559636593e6 0.0
4.0486746559636593e6 -137514.6860493762 0.0
0.0 0.0 0.0

-269206.8779128459 3.519230542869351e6 0.0
3.519230542869351e6 -429210.08730618923 0.0
0.0 0.0 0.0

-1.1475957898556904e6 2.5875712038594275e6 0.0
2.5875712038594275e6 402959.8269870127 0.0
0.0 0.0 0.0

-3.526252207977672e6 6.219301893399185e6 0.0
6.219301893399185e6 2.4883964313455513e6 0.0
0.0 0.0 0.0

-856479.1002531761 3.6834619353777375e6 0.0
3.6834619353777375e6 -122678.32349538998 0.0
0.0 0.0 0.0

-480965.1736083843 3.7139186471570823e6 0.0
3.7139186471570823e6 -517519.8471942624 0.0
0.0 0.0 0.0

1.1365354754588297e6 1.8615288682585852e6 0.0
1.8615288682585852e6 -1.8060827686647032e6 0.0
0.0 0.0 0.0

-1.1169575961914754e6 3.679973890257306e6 0.0
3.679973890257306e6 97672.20026309649 0.0
0.0 0.0 0.0

-1.0297388362918305e6 3.2373076241873093e6 0.0
3.2373076241873093e6 -17460.246026145935 0.0
0.0 0.0 0.0

-375014.1249867744 1.78964869519919e6 0.0
1.78964869519919e6 -510328.5908865139 0.0
0.0 0.0 0.0

-68285.70672594145 3.991754410449372e6 0.0
3.991754410449372e6 -1.7003648316139136e6 0.0
0.0 0.0 0.0

-525779.077332787 3.7601521016253363e6 0.0
3.7601521016253363e6 -21626.372316986817 0.0
0.0 0.0 0.0

-689526.5874736509 2.6504468732623938e6 0.0
2.6504468732623938e6 1.701276325334373e6 0.0
0.0 0.0 0.0

-7555.198173780154 4.354303376423947e6 0.0
4.354303376423947e6 -261736.49230493585 0.0
0.0 0.0 0.0

-783828.18982292 4.133968463258054e6 0.0
4.133968463258054e6 161675.41218960908 0.0
0.0 0.0 0.0

-1.0525198854146148e6 3.6151746756357993e6 0.0
3.6151746756357993e6 263418.13388248393 0.0
0.0 0.0 0.0

-1.4208214936301226e6 -728313.0888518395 0.0
-728313.0888518395 2.4496618349530487e6 0.0
0.0 0.0 0.0

-454871.6089757934 2.956811590259146e6 0.0
2.956811590259146e6 196108.05332960005 0.0
0.0 0.0 0.0

-325932.73482154385 4.0469287063118108e6 0.0
4.0469287063118108e6 -157268.53655871967 0.0
0.0 0.0 0.0

-1.078937610763337e6 4.0294383271726132e6 0.0
4.0294383271726132e6 -61406.22409476456 0.0
0.0 0.0 0.0

-817284.6116354514 2.8728904247546466e6 0.0
2.8728904247546466e6 552685.983373209 0.0
0.0 0.0 0.0

-100179.87094143633 3.03125917894546e6 0.0
3.03125917894546e6 -1.1405419115382964e6 0.0
0.0 0.0 0.0

-2.3830170336670084e6 3.3254217609257656e6 0.0
3.3254217609257656e6 1.0413863324263203e6 0.0
0.0 0.0 0.0

-2.891113724894013e6 4.749970164640737e6 0.0
4.749970164640737e6 1.7151478568956114e6 0.0
0.0 0.0 0.0

-1.286744927942007e6 2.996815619166124e6 0.0
2.996815619166124e6 281142.4847343412 0.0
0.0 0.0 0.0

-218615.57522173368 3.0918499792625424e6 0.0
3.0918499792625424e6 -1.099416202260424e6 0.0
0.0 0.0 0.0

-2.391347878368252e6 4.021210843399483e6 0.0
4.021210843399483e6 1.3969955570883702e6 0.0
0.0 0.0 0.0

-1.094371739953022e6 3.8265310958294002e6 0.0
3.8265310958294002e6 129266.28769213718 0.0
0.0 0.0 0.0

-570597.9569236938 3.303810246546679e6 0.0
3.303810246546679e6 656796.9236474854 0.0
0.0 0.0 0.0

-1.0753425618829885e6 2.9630468308300367e6 0.0
2.9630468308300367e6 258669.0515240018 0.0
0.0 0.0 0.0

-1.3471454455794168e6 3.561833563054851e6 0.0
3.561833563054851e6 162357.8388185441 0.0
0.0 0.0 0.0

-246797.55426364005 -702075.9078576514 0.0
-702075.9078576514 551218.7849778729 0.0
0.0 0.0 0.0

-2.7920492578355335e6 4.631034633018491e6 0.0
4.631034633018491e6 1.6878692560710611e6 0.0
0.0 0.0 0.0

1.1555016586851173e6 1.8644343720025267e6 0.0
1.8644343720025267e6 -1.8282148592886438e6 0.0
0.0 0.0 0.0

-2.044219633691633e6 4.0486664767879066e6 0.0
4.0486664767879066e6 1.082733075082561e6 0.0
0.0 0.0 0.0

-899.0264680306718 -629690.4464039307 0.0
-629690.4464039307 297930.1059746658 0.0
0.0 0.0 0.0

-358945.0152424148 3.7656528130279114e6 0.0
3.7656528130279114e6 -1.0248153025010307e6 0.0
0.0 0.0 0.0

-1.0526538602703614e6 3.9990531523123104e6 0.0
3.9990531523123104e6 -118672.46552894506 0.0
0.0 0.0 0.0

-525100.4167910982 4.028769992822595e6 0.0
4.028769992822595e6 -438116.5045707063 0.0
0.0 0.0 0.0

-608421.5940160821 4.2721931878598165e6 0.0
4.2721931878598165e6 -199696.3072153407 0.0
0.0 0.0 0.0

-215432.06592306064 3.4066358712600535e6 0.0
3.4066358712600535e6 -1.111961794885638e6 0.0
0.0 0.0 0.0

-143511.5110230389 948702.8815860401 0.0
948702.8815860401 622930.9600300674 0.0
0.0 0.0 0.0

-389041.224845296 3.301398509887784e6 0.0
3.301398509887784e6 91420.58478129623 0.0
0.0 0.0 0.0

833459.3383313741 2.1458282728462475e6 0.0
2.1458282728462475e6 -1.497650351410399e6 0.0
0.0 0.0 0.0

-273735.36486304086 3.816430617540426e6 0.0
3.816430617540426e6 47927.220858953326 0.0
0.0 0.0 0.0

-643175.9585424218 1.7018602917198406e6 0.0
1.7018602917198406e6 -470870.1573113669 0.0
0.0 0.0 0.0

-660005.6899264422 2.5675679970013564e6 0.0
2.5675679970013564e6 237472.4761057239 0.0
0.0 0.0 0.0

-2.351987740981165e6 3.4883829801207157e6 0.0
3.4883829801207157e6 1.1378513907678998e6 0.0
0.0 0.0 0.0

-1.4591898875863557e6 3.000125937635318e6 0.0
3.000125937635318e6 495038.17438282096 0.0
0.0 0.0 0.0

-693100.9130452677 3.2531538027105127e6 0.0
3.2531538027105127e6 -72186.79329862818 0.0
0.0 0.0 0.0

-525284.0187368616 3.6816331985280104e6 0.0
3.6816331985280104e6 -482477.9738119489 0.0
0.0 0.0 0.0

-1.0714020309791989e6 3.832641129605122e6 0.0
3.832641129605122e6 23073.337404416816 0.0
0.0 0.0 0.0

-606107.90847305 3.6397870524356035e6 0.0
3.6397870524356035e6 158387.10171650193 0.0
0.0 0.0 0.0

-984807.0064671146 2.4078815490972684e6 0.0
2.4078815490972684e6 1.3525841075321115e6 0.0
0.0 0.0 0.0

-335722.5484440619 3.9865191762454147e6 0.0
3.9865191762454147e6 -1.2855797826768262e6 0.0
0.0 0.0 0.0

-390061.4469242933 2.9923396760899615e6 0.0
2.9923396760899615e6 -796158.6360392483 0.0
0.0 0.0 0.0

-422570.7378319214 3.808154210932595e6 0.0
3.808154210932595e6 -148848.9338590035 0.0
0.0 0.0 0.0

641904.4115129481 3.454968153928849e6 0.0
3.454968153928849e6 -1.412299201744786e6 0.0
0.0 0.0 0.0

-958326.4992865366 3.5904468304550448e6 0.0
3.5904468304550448e6 619393.3789684689 0.0
0.0 0.0 0.0

-3.000689473331532e6 4.866016173820584e6 0.0
4.866016173820584e6 1.811162278470705e6 0.0
0.0 0.0 0.0

-127662.28498003684 4.0836111142364834e6 0.0
4.0836111142364834e6 -295007.68283476826 0.0
0.0 0.0 0.0

1.583677510007422e6 7.219132222781483e6 0.0
7.219132222781483e6 5.278898731059771e6 0.0
0.0 0.0 0.0

-280930.0826755693 1.0061926714079961e6 0.0
1.0061926714079961e6 -936433.2865585979 0.0
0.0 0.0 0.0

-973754.6259393347 3.202599228079008e6 0.0
3.202599228079008e6 174919.86081893125 0.0
0.0 0.0 0.0

-3.4509203753952705e6 1.861691952968351e6 0.0
1.861691952968351e6 1.0537790088846183e6 0.0
0.0 0.0 0.0

-2.0650139027135319e6 3.673121159773514e6 0.0
3.673121159773514e6 1.218905020303017e6 0.0
0.0 0.0 0.0

-390972.78288975614 3.8687100976578617e6 0.0
3.8687100976578617e6 -269566.85990178806 0.0
0.0 0.0 0.0

-210922.4568227572 3.8896040471653272e6 0.0
3.8896040471653272e6 147446.44536005575 0.0
0.0 0.0 0.0

-1.144189492119437e6 4.09068202083497e6 0.0
4.09068202083497e6 3.269529745515769e6 0.0
0.0 0.0 0.0

-308750.5198092036 2.5755850606662706e6 0.0
2.5755850606662706e6 547637.7909152585 0.0
0.0 0.0 0.0

-469944.5813482844 3.927568059702032e6 0.0
3.927568059702032e6 124681.37158365326 0.0
0.0 0.0 0.0

-1.0013291958571256e6 4.0794038189762193e6 0.0
4.0794038189762193e6 75793.36421514663 0.0
0.0 0.0 0.0

-284090.1920747894 3.948005382549353e6 0.0
3.948005382549353e6 -475424.21914950374 0.0
0.0 0.0 0.0

-424614.7499426431 3.756971269573641e6 0.0
3.756971269573641e6 -137226.8469862821 0.0
0.0 0.0 0.0

-2.1167202128675138e6 5.287968233988281e6 0.0
5.287968233988281e6 1.4679446374819148e6 0.0
0.0 0.0 0.0

-954531.0166690019 3.3733543051980124e6 0.0
3.3733543051980124e6 623608.6429519348 0.0
0.0 0.0 0.0

1.1163021534934118e6 1.7793930093726884e6 0.0
1.7793930093726884e6 -1.753846534384031e6 0.0
0.0 0.0 0.0

-606779.7542034952 2.910702521750157e6 0.0
2.910702521750157e6 -138539.8738746072 0.0
0.0 0.0 0.0

128133.29271606638 -243898.74356941477 0.0
-243898.74356941477 246705.55102270306 0.0
0.0 0.0 0.0

-739331.9316561209 3.0388591114298785e6 0.0
3.0388591114298785e6 453155.8283316276 0.0
0.0 0.0 0.0

-2.254697003912638e6 4.426037291712736e6 0.0
4.426037291712736e6 1.4988216907571382e6 0.0
0.0 0.0 0.0

590211.3294428362 5.523599909727822e6 0.0
5.523599909727822e6 760114.5358271822 0.0
0.0 0.0 0.0

-41870.78463468241 4.1377627043384654e6 0.0
4.1377627043384654e6 -542383.498537654 0.0
0.0 0.0 0.0

-1.5006807243009647e6 3.549480700774351e6 0.0
3.549480700774351e6 220032.5073537231 0.0
0.0 0.0 0.0

1.3178223125041588e6 794463.1698529735 0.0
794463.1698529735 -2.1159876849462325e6 0.0
0.0 0.0 0.0

-2.1630408494241815e6 4.1645699898578404e6 0.0
4.1645699898578404e6 1.2494486883195424e6 0.0
0.0 0.0 0.0

289951.5307737692 2.9282345424020747e6 0.0
2.9282345424020747e6 -1.3490589857511579e6 0.0
0.0 0.0 0.0

-1.103378321823765e6 4.046428542025638e6 0.0
4.046428542025638e6 -117414.06849474626 0.0
0.0 0.0 0.0

-1.231394278922022e6 4.451268861324764e6 0.0
4.451268861324764e6 317854.15411171026 0.0
0.0 0.0 0.0

-955132.897577988 4.053028144858945e6 0.0
4.053028144858945e6 -174094.08909620444 0.0
0.0 0.0 0.0

1.2001243794992345e6 2.0789388653735952e6 0.0
2.0789388653735952e6 -2.1774147075019246e6 0.0
0.0 0.0 0.0

-318477.8790268552 3.6847560496902186e6 0.0
3.6847560496902186e6 -496525.50234863994 0.0
0.0 0.0 0.0

-1.6539776144467564e6 4.470303314728176e6 0.0
4.470303314728176e6 1.098190028679733e6 0.0
0.0 0.0 0.0

-1.213753373134646e6 3.4781241801178628e6 0.0
3.4781241801178628e6 562448.5048582638 0.0
0.0 0.0 0.0

-278844.4745239899 3.8588556755855363e6 0.0
3.8588556755855363e6 -1.082296463269722e6 0.0
0.0 0.0 0.0

1.0015200874653697e6 1.7085668088870316e6 0.0
1.7085668088870316e6 -1.6753005260190137e6 0.0
0.0 0.0 0.0

-1.0537930913690522e6 3.014491309162692e6 0.0
3.014491309162692e6 235982.62339066796 0.0
0.0 0.0 0.0

157498.76567977865 3.9455481663176077e6 0.0
3.9455481663176077e6 -1.461955408725564e6 0.0
0.0 0.0 0.0

-205706.84478607096 -835859.0383723156 0.0
-835859.0383723156 337696.6524711379 0.0
0.0 0.0 0.0

-732193.8198164197 2.550069815219045e6 0.0
2.550069815219045e6 439280.0166452791 0.0
0.0 0.0 0.0

-1.2972688726809684e6 3.8278353130695154e6 0.0
3.8278353130695154e6 -138901.16017944558 0.0
0.0 0.0 0.0

667262.3223829465 2.1750356739422698e6 0.0
2.1750356739422698e6 -1.1392976396332865e6 0.0
0.0 0.0 0.0

-2.595728744873413e6 1.1833256540450163e6 0.0
1.1833256540450163e6 4.43617949081923e6 0.0
0.0 0.0 0.0

-361553.0174895364 3.6487158006619085e6 0.0
3.6487158006619085e6 -135878.95872265907 0.0
0.0 0.0 0.0

-1.8235144944379576e6 2.487939679512739e6 0.0
2.487939679512739e6 2.6857930380107835e6 0.0
0.0 0.0 0.0

-1.59461661686442e6 3.0991166224428196e6 0.0
3.0991166224428196e6 469910.0065614529 0.0
0.0 0.0 0.0

-672453.3432582483 2.5127951870508585e6 0.0
2.5127951870508585e6 150495.80883984006 0.0
0.0 0.0 0.0

-305646.73605272674 3.8816764826578116e6 0.0
3.8816764826578116e6 -1.0277062851880661e6 0.0
0.0 0.0 0.0

-321547.6869825461 3.0372961974222464e6 0.0
3.0372961974222464e6 -881721.0009325076 0.0
0.0 0.0 0.0

783588.9671619752 3.575464604110553e6 0.0
3.575464604110553e6 -1.5700141715939655e6 0.0
0.0 0.0 0.0

105294.39308520214 -502553.36066886643 0.0
-502553.36066886643 322648.689150817 0.0
0.0 0.0 0.0

-319181.7408678487 -1.3088523616107912e6 0.0
-1.3088523616107912e6 622195.308526208 0.0
0.0 0.0 0.0

-951577.1620522498 4.058016081977039e6 0.0
4.058016081977039e6 -167173.5769074487 0.0
0.0 0.0 0.0

-634001.8182939065 3.330947683426118e6 0.0
3.330947683426118e6 -159883.2462447797 0.0
0.0 0.0 0.0

-1.6887197201430912e6 2.931711175445127e6 0.0
2.931711175445127e6 3.8216138200944196e6 0.0
0.0 0.0 0.0

-321016.4394111992 3.9158649669649154e6 0.0
3.9158649669649154e6 -980384.4935469497 0.0
0.0 0.0 0.0

-844934.8132327712 4.0912379478727807e6 0.0
4.0912379478727807e6 -46801.051725936995 0.0
0.0 0.0 0.0

-1.1797590753433867e6 3.280653924249838e6 0.0
3.280653924249838e6 269348.9645495241 0.0
0.0 0.0 0.0

474929.80907253723 103965.30640795316 0.0
103965.30640795316 -495531.0009682566 0.0
0.0 0.0 0.0

-2.9697311140787033e6 7.260361935682965e6 0.0
7.260361935682965e6 2.68034285997857e6 0.0
0.0 0.0 0.0

-464778.65399070806 3.4937781206859797e6 0.0
3.4937781206859797e6 -714377.8251008515 0.0
0.0 0.0 0.0

-538183.8037420051 3.4550173831920153e6 0.0
3.4550173831920153e6 -606237.297567031 0.0
0.0 0.0 0.0

1.1622447180396942e6 1.8545880243714843e6 0.0
1.8545880243714843e6 -1.8499391656263368e6 0.0
0.0 0.0 0.0

-387425.2102335222 4.012174675557174e6 0.0
4.012174675557174e6 -150174.4337671939 0.0
0.0 0.0 0.0

-647105.4173436734 2.524525006424995e6 0.0
2.524525006424995e6 366517.2679104237 0.0
0.0 0.0 0.0

-4.1421954082982866e6 -533583.8368029821 0.0
-533583.8368029821 4.905156440280627e6 0.0
0.0 0.0 0.0

-1.0508066584059575e6 4.926069320137903e6 0.0
4.926069320137903e6 413148.20486395404 0.0
0.0 0.0 0.0

-136729.61366052207 4.004286136756643e6 0.0
4.004286136756643e6 -397738.99017786613 0.0
0.0 0.0 0.0

-257392.8025921362 4.017431753868301e6 0.0
4.017431753868301e6 -1.1398227451997553e6 0.0
0.0 0.0 0.0

474656.6543202837 173339.87401412887 0.0
173339.87401412887 -449332.3567120716 0.0
0.0 0.0 0.0

-1.3363914962073835e6 2.7570999028384723e6 0.0
2.7570999028384723e6 359144.56946427235 0.0
0.0 0.0 0.0

-357106.2300885182 3.716499082430143e6 0.0
3.716499082430143e6 -444937.3234493295 0.0
0.0 0.0 0.0

-317857.28063162346 3.826946468319126e6 0.0
3.826946468319126e6 -347261.81011042383 0.0
0.0 0.0 0.0

-512369.9630522479 3.0819345952816377e6 0.0
3.0819345952816377e6 -582122.0339221652 0.0
0.0 0.0 0.0

-552214.5595009241 3.2883580945915515e6 0.0
3.2883580945915515e6 312307.80729957495 0.0
0.0 0.0 0.0

-298874.7040374771 3.9015101455631917e6 0.0
3.9015101455631917e6 -944128.6226804482 0.0
0.0 0.0 0.0

-579088.3055511013 3.4025832904908955e6 0.0
3.4025832904908955e6 -249969.0725489822 0.0
0.0 0.0 0.0

-457662.8768535487 3.8237010683337655e6 0.0
3.8237010683337655e6 -449194.65354581585 0.0
0.0 0.0 0.0

82703.25745485368 3.5940668562815716e6 0.0
3.5940668562815716e6 -1.4612196868357996e6 0.0
0.0 0.0 0.0

-787564.8194713684 3.038691029157469e6 0.0
3.038691029157469e6 528167.398960219 0.0
0.0 0.0 0.0

-1.2732447116650585e6 2.627121416149908e6 0.0
2.627121416149908e6 599420.3027091864 0.0
0.0 0.0 0.0

-6.22893730844665e6 1.9188718679369797e6 0.0
1.9188718679369797e6 5.335558675309665e6 0.0
0.0 0.0 0.0

-2.5696308507055016e6 3.816020180207701e6 0.0
3.816020180207701e6 5.029362832535693e6 0.0
0.0 0.0 0.0

1.1285589653497487e6 1.8651267908472354e6 0.0
1.8651267908472354e6 -1.803374463875641e6 0.0
0.0 0.0 0.0

-226345.37415999695 -1.244508214424675e6 0.0
-1.244508214424675e6 504342.06989903067 0.0
0.0 0.0 0.0

-39190.64462168666 4.483693062854163e6 0.0
4.483693062854163e6 -831368.671452247 0.0
0.0 0.0 0.0

-11469.284859608277 3.789160199024052e6 0.0
3.789160199024052e6 -1.5691817279309132e6 0.0
0.0 0.0 0.0

-503255.6434292334 4.0701640897318344e6 0.0
4.0701640897318344e6 -233806.00276069995 0.0
0.0 0.0 0.0

-2.525269652645206e6 3.7649498756246897e6 0.0
3.7649498756246897e6 1.2510653355255588e6 0.0
0.0 0.0 0.0

-1.1151069368638035e6 1.6473015224514245e6 0.0
1.6473015224514245e6 2.0837729316993523e6 0.0
0.0 0.0 0.0

-527831.0160768698 3.4509197308137133e6 0.0
3.4509197308137133e6 -330744.8566868262 0.0
0.0 0.0 0.0

-1.9268185918096022e6 -1.9653676797978054e6 0.0
-1.9653676797978054e6 3.2967141975777475e6 0.0
0.0 0.0 0.0

-517342.1314628314 2.521923630193415e6 0.0
2.521923630193415e6 70866.13174912133 0.0
0.0 0.0 0.0

1.0520365388503675e6 2.4819388987927777e6 0.0
2.4819388987927777e6 -1.3170832880868416e6 0.0
0.0 0.0 0.0

-2.3925603327559945e6 3.507552296360404e6 0.0
3.507552296360404e6 1.1561298373626382e6 0.0
0.0 0.0 0.0

1.3556029733003522e6 2.337698968262812e6 0.0
2.337698968262812e6 -2.045465951811545e6 0.0
0.0 0.0 0.0

-5.75832755634248e6 1.9125924549645085e6 0.0
1.9125924549645085e6 2.0196444635448377e6 0.0
0.0 0.0 0.0

-2.1596441773927696e6 -2.178650904178028e6 0.0
-2.178650904178028e6 3.952623669160686e6 0.0
0.0 0.0 0.0

65118.20647952985 3.7340919122676477e6 0.0
3.7340919122676477e6 -1.7047667025918982e6 0.0
0.0 0.0 0.0

-1.1389491203272732e6 4.0076082078395593e6 0.0
4.0076082078395593e6 -131232.76249070247 0.0
0.0 0.0 0.0

-2.775601375323996e6 1.1556057077057597e6 0.0
1.1556057077057597e6 369037.7204679438 0.0
0.0 0.0 0.0

1.348525346300886e6 2.5144154745190963e6 0.0
2.5144154745190963e6 -1.838488690392653e6 0.0
0.0 0.0 0.0

-1.5668296537694228e6 3.0328596131109623e6 0.0
3.0328596131109623e6 581081.0955115514 0.0
0.0 0.0 0.0

-891217.4260188029 3.1395293052343843e6 0.0
3.1395293052343843e6 605282.044245215 0.0
0.0 0.0 0.0

-1.293579311985602e6 3.4621083027800424e6 0.0
3.4621083027800424e6 2.278863052124922e6 0.0
0.0 0.0 0.0

-125627.45209295646 3.2620771687534614e6 0.0
3.2620771687534614e6 -1.2833645566787121e6 0.0
0.0 0.0 0.0

-43097.27670168452 3.7282708871302423e6 0.0
3.7282708871302423e6 -1.4294660100577879e6 0.0
0.0 0.0 0.0

-1.4576030870327647e6 3.3929207141963053e6 0.0
3.3929207141963053e6 429514.34785114496 0.0
0.0 0.0 0.0

-2.445226380801917e6 3.51078785291082e6 0.0
3.51078785291082e6 1.1576497872253645e6 0.0
0.0 0.0 0.0

-70407.10912459999 1.069055471415298e6 0.0
1.069055471415298e6 35194.03571219629 0.0
0.0 0.0 0.0

1.3024225094477232e6 2.2130655344726215e6 0.0
2.2130655344726215e6 -2.405024625201518e6 0.0
0.0 0.0 0.0

-2.0966980647392867e6 2.5327086381380716e6 0.0
2.5327086381380716e6 548848.0525487629 0.0
0.0 0.0 0.0

856259.4334304723 1.5062755138022332e6 0.0
1.5062755138022332e6 -1.5363195228870222e6 0.0
0.0 0.0 0.0

-229477.7326186003 3.5644313376751733e6 0.0
3.5644313376751733e6 -1.137112618091672e6 0.0
0.0 0.0 0.0

1.2414249145558225e6 2.356084335302469e6 0.0
2.356084335302469e6 -2.1739486706722453e6 0.0
0.0 0.0 0.0

-70390.77001036087 3.730494693509525e6 0.0
3.730494693509525e6 -1.332495742391318e6 0.0
0.0 0.0 0.0

-972251.7010609781 89379.7959670703 0.0
89379.7959670703 1.2620245316228517e6 0.0
0.0 0.0 0.0

8195.878082845855 484682.357085997 0.0
484682.357085997 -545265.5928293603 0.0
0.0 0.0 0.0

-674405.0354094552 3.4495707769363853e6 0.0
3.4495707769363853e6 -2889.1547302800755 0.0
0.0 0.0 0.0

-97749.32104994255 4.067542711752067e6 0.0
4.067542711752067e6 -317510.9599051343 0.0
0.0 0.0 0.0

1.1528429471810418e6 1.9214338505101271e6 0.0
1.9214338505101271e6 -1.8741115276498096e6 0.0
0.0 0.0 0.0

-1.0371641218876897e6 3.862755165106455e6 0.0
3.862755165106455e6 39542.734818474564 0.0
0.0 0.0 0.0

69754.24218355556 -211217.94164913063 0.0
-211217.94164913063 194875.22638024986 0.0
0.0 0.0 0.0

-293361.7725180991 3.714060969484699e6 0.0
3.714060969484699e6 -872570.2924281461 0.0
0.0 0.0 0.0

-32795.478421813925 3.36722754106322e6 0.0
3.36722754106322e6 -1.3129728441999347e6 0.0
0.0 0.0 0.0

-621530.5570082067 3.4313994629336884e6 0.0
3.4313994629336884e6 198113.30771107238 0.0
0.0 0.0 0.0

-901587.24530257 3.4363353801633683e6 0.0
3.4363353801633683e6 1.2146304576614962e6 0.0
0.0 0.0 0.0

-254669.50304323784 4.0478828157948707e6 0.0
4.0478828157948707e6 -401500.63185876684 0.0
0.0 0.0 0.0

-1.213962767825537e6 3.3096916446829834e6 0.0
3.3096916446829834e6 557378.2362098168 0.0
0.0 0.0 0.0

-1.4591750905546767e6 3.258983788246503e6 0.0
3.258983788246503e6 405627.29292893794 0.0
0.0 0.0 0.0

-455882.1575924929 4.094616893094926e6 0.0
4.094616893094926e6 -19305.343326486982 0.0
0.0 0.0 0.0

105236.89349212628 2.4552239696032787e6 0.0
2.4552239696032787e6 -513355.2183895365 0.0
0.0 0.0 0.0

-1.4112725294464354e6 -1.5717651736138642e6 0.0
-1.5717651736138642e6 2.4008878286002073e6 0.0
0.0 0.0 0.0

-628377.9520060751 2.4090916569459136e6 0.0
2.4090916569459136e6 1.01633919506572e6 0.0
0.0 0.0 0.0

-425078.70906165603 -1.2486625416247624e6 0.0
-1.2486625416247624e6 758112.787375511 0.0
0.0 0.0 0.0

-396727.1337681492 3.7078114271934945e6 0.0
3.7078114271934945e6 -396393.5678558025 0.0
0.0 0.0 0.0

-8.592706174941028e6 659632.3172641464 0.0
659632.3172641464 9.470311528665686e6 0.0
0.0 0.0 0.0

-739978.7592544208 3.3997906942253555e6 0.0
3.3997906942253555e6 -212997.51193537618 0.0
0.0 0.0 0.0

-124603.7303307007 16394.61197259063 0.0
16394.61197259063 -740666.9456239517 0.0
0.0 0.0 0.0

-53264.355543743295 -164150.51895715416 0.0
-164150.51895715416 -664087.352527187 0.0
0.0 0.0 0.0

-521820.0487651464 3.3822210269805547e6 0.0
3.3822210269805547e6 -356800.56759657443 0.0
0.0 0.0 0.0

-949221.2010087613 4.253596422542728e6 0.0
4.253596422542728e6 -280101.46304850775 0.0
0.0 0.0 0.0

-473944.0121686944 3.5202561665111547e6 0.0
3.5202561665111547e6 -385917.4667215076 0.0
0.0 0.0 0.0

42948.542662358246 812597.406033805 0.0
812597.406033805 -234577.09781525846 0.0
0.0 0.0 0.0

-234478.53608501394 3.843676151471078e6 0.0
3.843676151471078e6 -1.1399207639577133e6 0.0
0.0 0.0 0.0

104317.73724099516 3.7760345963571565e6 0.0
3.7760345963571565e6 -1.5304300797799127e6 0.0
0.0 0.0 0.0

-1.0145215690902169e6 3.953769899338905e6 0.0
3.953769899338905e6 -4982.494532385783 0.0
0.0 0.0 0.0

-88472.03064885095 3.2528020479316376e6 0.0
3.2528020479316376e6 -1.2076577009502905e6 0.0
0.0 0.0 0.0

-1.0406147856772337e7 698539.5582031358 0.0
698539.5582031358 7.3626358806598e6 0.0
0.0 0.0 0.0

-455725.57955204835 3.0946633050282425e6 0.0
3.0946633050282425e6 -692062.2186743489 0.0
0.0 0.0 0.0

-2.913338865341272e6 3.261753718302827e6 0.0
3.261753718302827e6 1.2875495245766884e6 0.0
0.0 0.0 0.0

-255362.58723905514 3.712497750524276e6 0.0
3.712497750524276e6 -712857.3996320678 0.0
0.0 0.0 0.0

-779706.2355420752 2.30865741991686e6 0.0
2.30865741991686e6 936341.0158214476 0.0
0.0 0.0 0.0

-1.0495593397619552e6 3.4088791375689246e6 0.0
3.4088791375689246e6 829686.9298956473 0.0
0.0 0.0 0.0

-2.0262295907540647e6 6.95270007255352e6 0.0
6.95270007255352e6 1.4495221355943969e6 0.0
0.0 0.0 0.0

-154414.420044678 -1.1784412733745945e6 0.0
-1.1784412733745945e6 487540.96620682953 0.0
0.0 0.0 0.0

1.1504593822008022e6 1.878615571370165e6 0.0
1.878615571370165e6 -1.8384130510866712e6 0.0
0.0 0.0 0.0

-1.5856337209696732e6 3.523195703301405e6 0.0
3.523195703301405e6 991073.6201118164 0.0
0.0 0.0 0.0

511515.7696012069 49809.47455669123 0.0
49809.47455669123 -402870.7684390136 0.0
0.0 0.0 0.0

1.1755624112737055e6 1.9834804314693196e6 0.0
1.9834804314693196e6 -2.1435152359578647e6 0.0
0.0 0.0 0.0

-1.1159903275669403e6 -1.4287622255522062e6 0.0
-1.4287622255522062e6 1.9081240274988501e6 0.0
0.0 0.0 0.0

-154110.1703126349 -42915.34041135049 0.0
-42915.34041135049 331107.73917805264 0.0
0.0 0.0 0.0

-357708.28233674704 4.064095149083032e6 0.0
4.064095149083032e6 -992710.3542784645 0.0
0.0 0.0 0.0

-204008.3092222195 -1.2024382826389414e6 0.0
-1.2024382826389414e6 485363.32168761827 0.0
0.0 0.0 0.0

1.1433958595821843e6 1.925707325618284e6 0.0
1.925707325618284e6 -1.8353601166725205e6 0.0
0.0 0.0 0.0

1.125113305822243e6 1.998376558078831e6 0.0
1.998376558078831e6 -2.0264587422842328e6 0.0
0.0 0.0 0.0

-896712.4176471239 -1.4203622115805477e6 0.0
-1.4203622115805477e6 1.5564726238895573e6 0.0
0.0 0.0 0.0

-1.0139653734900581e6 3.2823905360928737e6 0.0
3.2823905360928737e6 758047.9012994687 0.0
0.0 0.0 0.0

-500820.5156206551 3.303196960597469e6 0.0
3.303196960597469e6 -400276.22618029977 0.0
0.0 0.0 0.0

-1.6313455684524316e6 3.2817977493388536e6 0.0
3.2817977493388536e6 445195.5501717398 0.0
0.0 0.0 0.0

1.136705675502651e6 1.9746019900097884e6 0.0
1.9746019900097884e6 -1.9610662719626958e6 0.0
0.0 0.0 0.0

-678023.295888732 -1.464408267737992e6 0.0
-1.464408267737992e6 1.2102919768197022e6 0.0
0.0 0.0 0.0

-340419.4370527015 3.937804984660148e6 0.0
3.937804984660148e6 -954265.4908480361 0.0
0.0 0.0 0.0

-154793.95643664832 3.1968786012671757e6 0.0
3.1968786012671757e6 -1.2939324319869438e6 0.0
0.0 0.0 0.0

-2.0368410539528723e6 3.898432561514511e6 0.0
3.898432561514511e6 1.384852114297803e6 0.0
0.0 0.0 0.0

-1.545444469943488e6 3.119948284406756e6 0.0
3.119948284406756e6 627049.1142857716 0.0
0.0 0.0 0.0

-1.1087361542388021e6 2.3410829771729475e6 0.0
2.3410829771729475e6 1.6258243793138098e6 0.0
0.0 0.0 0.0

-465076.633441394 -1.340235828901861e6 0.0
-1.340235828901861e6 868789.7803413516 0.0
0.0 0.0 0.0

1.1140425054382156e6 1.8992799773914947e6 0.0
1.8992799773914947e6 -1.877458796839858e6 0.0
0.0 0.0 0.0

-1.6818468343405274e6 4.842021816196696e6 0.0
4.842021816196696e6 710857.9808660361 0.0
0.0 0.0 0.0

-2.335009281494288e6 3.2964218699249993e6 0.0
3.2964218699249993e6 4.538348040342542e6 0.0
0.0 0.0 0.0

950976.8040338124 9.802147461171856e6 0.0
9.802147461171856e6 -5.5893014659336e6 0.0
0.0 0.0 0.0

-1.148625801184915e6 1.729104311647821e6 0.0
1.729104311647821e6 456848.60617267643 0.0
0.0 0.0 0.0

-2.340933569946709e6 3.2594987312369784e6 0.0
3.2594987312369784e6 902824.4173533941 0.0
0.0 0.0 0.0

229065.12982478476 276458.63367781934 0.0
276458.63367781934 -389753.24764373625 0.0
0.0 0.0 0.0

-1.8115472757504047e6 3.2456751545201587e6 0.0
3.2456751545201587e6 549520.8457804557 0.0
0.0 0.0 0.0

641546.5918145725 924332.2478552 0.0
924332.2478552 -1.291980635578576e6 0.0
0.0 0.0 0.0

-954346.4451962532 4.750580761402491e6 0.0
4.750580761402491e6 175285.1662567568 0.0
0.0 0.0 0.0

-908552.3179677073 3.761419289664724e6 0.0
3.761419289664724e6 231112.15607602964 0.0
0.0 0.0 0.0

-514957.7976358273 2.6469732981323726e6 0.0
2.6469732981323726e6 -140446.96967051653 0.0
0.0 0.0 0.0

-410248.6614600707 3.8123613944737143e6 0.0
3.8123613944737143e6 -445346.660030472 0.0
0.0 0.0 0.0

-2.8029435137966815e6 -2.6903171201337255e6 0.0
-2.6903171201337255e6 3.576074988516849e6 0.0
0.0 0.0 0.0

-32433.676693992427 -72634.4885310253 0.0
-72634.4885310253 -636524.8297366244 0.0
0.0 0.0 0.0

-193059.0666522784 69426.45610177593 0.0
69426.45610177593 116514.22984083675 0.0
0.0 0.0 0.0

14921.117707171885 -97901.69687780559 0.0
-97901.69687780559 -133860.4978633023 0.0
0.0 0.0 0.0

-877379.1151385717 3.8838944406683804e6 0.0
3.8838944406683804e6 214302.22595550114 0.0
0.0 0.0 0.0

-115193.19500999266 3.4577216073237797e6 0.0
3.4577216073237797e6 -585401.8039829226 0.0
0.0 0.0 0.0

-457428.52336756233 3.6145856540617794e6 0.0
3.6145856540617794e6 200147.18192628503 0.0
0.0 0.0 0.0

-478701.7281935438 3.6733682049271376e6 0.0
3.6733682049271376e6 700204.6393443552 0.0
0.0 0.0 0.0

948816.415027804 1.687556636450311e6 0.0
1.687556636450311e6 -1.6398886556134569e6 0.0
0.0 0.0 0.0

-327537.8488519017 3.0052079105088552e6 0.0
3.0052079105088552e6 -939048.9312615738 0.0
0.0 0.0 0.0

-362683.45210282155 3.3790099271376645e6 0.0
3.3790099271376645e6 -687215.6295684372 0.0
0.0 0.0 0.0

4671.314881737926 4.737839199480819e6 0.0
4.737839199480819e6 -1.3016242591596341e6 0.0
0.0 0.0 0.0

-1.9522843479809563e6 4.0947258150676293e6 0.0
4.0947258150676293e6 1.3503941172178134e6 0.0
0.0 0.0 0.0

-557543.0436271394 2.9922945434876955e6 0.0
2.9922945434876955e6 1.100739925634711e6 0.0
0.0 0.0 0.0

-301833.4224334773 3.797949637566875e6 0.0
3.797949637566875e6 -978647.7640227843 0.0
0.0 0.0 0.0

-282780.4901070185 3.6683251523247925e6 0.0
3.6683251523247925e6 -854268.0190935616 0.0
0.0 0.0 0.0

-114564.31042649795 3.0996674519862835e6 0.0
3.0996674519862835e6 -1.2452236380289546e6 0.0
0.0 0.0 0.0

-3.3445152601174773e6 2.609216199050454e6 0.0
2.609216199050454e6 3.0573484496947243e6 0.0
0.0 0.0 0.0

-2.5374141404680633e6 6.964746713259679e6 0.0
6.964746713259679e6 1.925474387104013e6 0.0
0.0 0.0 0.0

-51219.30087520361 237520.54738793374 0.0
237520.54738793374 -398454.00766029477 0.0
0.0 0.0 0.0

-30114.802778149926 207387.89140442474 0.0
207387.89140442474 -582727.23316075 0.0
0.0 0.0 0.0

-704122.5248953849 3.4100266448714035e6 0.0
3.4100266448714035e6 361223.6953540035 0.0
0.0 0.0 0.0

-1.862120844875563e6 3.383091982962828e6 0.0
3.383091982962828e6 955899.2559449734 0.0
0.0 0.0 0.0

-2.503729229458767e6 3.3177293650740893e6 0.0
3.3177293650740893e6 988426.3419080748 0.0
0.0 0.0 0.0

-1.9869033449282642e6 3.210907983213908e6 0.0
3.210907983213908e6 642652.8644407132 0.0
0.0 0.0 0.0

-196104.53935175738 2.482401041961686e6 0.0
2.482401041961686e6 575325.1941783222 0.0
0.0 0.0 0.0

-422876.90609471913 3.780440668535043e6 0.0
3.780440668535043e6 -433765.5271736467 0.0
0.0 0.0 0.0

-2.8560932421067907e6 3.641111185801425e6 0.0
3.641111185801425e6 4.1652833337312913e6 0.0
0.0 0.0 0.0

-2.761722846579534e6 1.870624753330803e6 0.0
1.870624753330803e6 -2.4405531225256994e6 0.0
0.0 0.0 0.0

-1.5620915059188921e7 804806.2843842593 0.0
804806.2843842593 1.5382000277246393e7 0.0
0.0 0.0 0.0

-479946.95036253985 3.0056035449639075e6 0.0
3.0056035449639075e6 -250232.16198649182 0.0
0.0 0.0 0.0

-495270.1802178619 3.8949509042898505e6 0.0
3.8949509042898505e6 -164305.95049125017 0.0
0.0 0.0 0.0

890084.14412454 1.5323464239008192e6 0.0
1.5323464239008192e6 -1.454628137531228e6 0.0
0.0 0.0 0.0

-605333.8164832743 2.623960848450892e6 0.0
2.623960848450892e6 151511.15506148044 0.0
0.0 0.0 0.0

-9389.250161831445 -204721.48485184796 0.0
-204721.48485184796 9599.216380660126 0.0
0.0 0.0 0.0

-1.0449344125214049e6 2.63143287709905e6 0.0
2.63143287709905e6 1.3132992927358518e6 0.0
0.0 0.0 0.0

-16885.712218522327 4.393064529635746e6 0.0
4.393064529635746e6 -1.454098099801229e6 0.0
0.0 0.0 0.0

1.0751595175751152e6 1.7933624255465053e6 0.0
1.7933624255465053e6 -1.7703644336024816e6 0.0
0.0 0.0 0.0

-222361.70990253548 3.210937637828751e6 0.0
3.210937637828751e6 -194243.75749760962 0.0
0.0 0.0 0.0

-6.461258015602805e6 -4.322666571452115e6 0.0
-4.322666571452115e6 7.827335815718481e6 0.0
0.0 0.0 0.0

-1.5640536910160235e6 3.5458950946033685e6 0.0
3.5458950946033685e6 90039.2573524348 0.0
0.0 0.0 0.0

-1.357898539207382e6 3.8394944692930738e6 0.0
3.8394944692930738e6 -144737.7807394461 0.0
0.0 0.0 0.0

-815646.1629777397 3.546832620583195e6 0.0
3.546832620583195e6 109026.93675724871 0.0
0.0 0.0 0.0

388875.4887084649 88194.49884823493 0.0
88194.49884823493 -239347.76266444905 0.0
0.0 0.0 0.0

-368563.83017980005 3.888664013945384e6 0.0
3.888664013945384e6 -693507.1956967849 0.0
0.0 0.0 0.0

31997.942347208256 -726168.6284084842 0.0
-726168.6284084842 364208.84215248004 0.0
0.0 0.0 0.0

-300191.2341987118 3.3391566521605942e6 0.0
3.3391566521605942e6 -481590.5137338233 0.0
0.0 0.0 0.0

-1.77278416801594e6 3.0314393863732326e6 0.0
3.0314393863732326e6 699339.8266510761 0.0
0.0 0.0 0.0

1.143700807676835e6 1.845264066303097e6 0.0
1.845264066303097e6 -1.835966207052844e6 0.0
0.0 0.0 0.0

-1.1495015051409097e6 3.29790095395806e6 0.0
3.29790095395806e6 800439.9685018471 0.0
0.0 0.0 0.0

973894.7819551813 1.6650405295695707e6 0.0
1.6650405295695707e6 -1.5860437335813902e6 0.0
0.0 0.0 0.0

-320101.8779693575 3.133894741266878e6 0.0
3.133894741266878e6 -983950.7593114397 0.0
0.0 0.0 0.0

-2.5490906735175923e6 2.7421856052824343e6 0.0
2.7421856052824343e6 941742.7736308813 0.0
0.0 0.0 0.0

-243900.74779504794 2.5901207807130422e6 0.0
2.5901207807130422e6 -1.0121183072762268e6 0.0
0.0 0.0 0.0

-1.303708203896047e6 3.242659640774166e6 0.0
3.242659640774166e6 287187.3685666394 0.0
0.0 0.0 0.0

-2.3547369087193105e6 2.9898988028660845e6 0.0
2.9898988028660845e6 802816.8578617765 0.0
0.0 0.0 0.0

-1.4633416260863617e6 3.326231438241878e6 0.0
3.326231438241878e6 394817.5580277949 0.0
0.0 0.0 0.0

-1.7982144722119563e6 3.2028188366264175e6 0.0
3.2028188366264175e6 623134.9464188102 0.0
0.0 0.0 0.0

-2.692696449466468e6 4.491161980950551e6 0.0
4.491161980950551e6 1.5903886342755368e6 0.0
0.0 0.0 0.0

-928606.0989113838 3.1226399583762647e6 0.0
3.1226399583762647e6 181343.46282745327 0.0
0.0 0.0 0.0

-2.9964420917578316e6 3.1417580045207706e6 0.0
3.1417580045207706e6 1.3964576942841678e6 0.0
0.0 0.0 0.0

388450.67034312745 1.5898185122987952e6 0.0
1.5898185122987952e6 -1.4977272424405399e6 0.0
0.0 0.0 0.0

-541667.6345276529 2.2641545177405016e6 0.0
2.2641545177405016e6 -688674.8543451495 0.0
0.0 0.0 0.0

424824.4015245356 133894.09776232447 0.0
133894.09776232447 -528444.0266256662 0.0
0.0 0.0 0.0

-1.1379362115870598e6 3.849372430831872e6 0.0
3.849372430831872e6 -109566.13501654108 0.0
0.0 0.0 0.0

-866398.5085340245 -1.0321983221430238e6 0.0
-1.0321983221430238e6 1.1478271177097065e6 0.0
0.0 0.0 0.0

-1.9063645641699634e6 5.078983590736426e6 0.0
5.078983590736426e6 910939.3895585331 0.0
0.0 0.0 0.0

-243004.3206835327 3.1284309321547053e6 0.0
3.1284309321547053e6 -979932.6212641924 0.0
0.0 0.0 0.0

-320430.71015560476 3.4021456744257114e6 0.0
3.4021456744257114e6 -528944.0440714364 0.0
0.0 0.0 0.0

-1.356604771383723e6 2.4742146997793284e6 0.0
2.4742146997793284e6 368187.72524177766 0.0
0.0 0.0 0.0

-26813.97474463738 3.7724732892201166e6 0.0
3.7724732892201166e6 -1.7724197161499672e6 0.0
0.0 0.0 0.0

1.1399785379530212e6 769565.7342589669 0.0
769565.7342589669 -1.878251655735867e6 0.0
0.0 0.0 0.0

-834477.1956791299 4.004620421131672e6 0.0
4.004620421131672e6 193966.27736000356 0.0
0.0 0.0 0.0

-300264.4169553213 3.7388530982623133e6 0.0
3.7388530982623133e6 -439503.71868786897 0.0
0.0 0.0 0.0

-1.5905321284827907e6 3.17432308787715e6 0.0
3.17432308787715e6 722180.3551508003 0.0
0.0 0.0 0.0

1.246126329688401e6 2.095770186506157e6 0.0
2.095770186506157e6 -2.327362218319615e6 0.0
0.0 0.0 0.0

414744.29157896765 324763.9355091331 0.0
324763.9355091331 -189208.92397365844 0.0
0.0 0.0 0.0

1.116633268567581e6 2.6333269350828584e6 0.0
2.6333269350828584e6 -2.303326492713782e6 0.0
0.0 0.0 0.0

535286.9596528658 -5337.392057321594 0.0
-5337.392057321594 -527596.259002389 0.0
0.0 0.0 0.0

-1.7711814233621506e6 3.092818641079166e6 0.0
3.092818641079166e6 786713.5036164861 0.0
0.0 0.0 0.0

-329079.8380110404 3.7119655813791347e6 0.0
3.7119655813791347e6 -435225.56279073324 0.0
0.0 0.0 0.0

-282511.44305499026 3.5662696497937865e6 0.0
3.5662696497937865e6 -772984.3851737152 0.0
0.0 0.0 0.0

-543677.1609517542 2.975459847309516e6 0.0
2.975459847309516e6 -444381.5008345208 0.0
0.0 0.0 0.0

-35076.73172031937 -1869.1260778052097 0.0
-1869.1260778052097 190723.72479198332 0.0
0.0 0.0 0.0

-1.0266020852527351e6 4.379499145470466e6 0.0
4.379499145470466e6 429480.3575290398 0.0
0.0 0.0 0.0

-1.346003826289331e6 4.07762591009333e6 0.0
4.07762591009333e6 1.3731501031625138e6 0.0
0.0 0.0 0.0

537503.0370916098 2.279350820397535e6 0.0
2.279350820397535e6 -1.6956066231554542e6 0.0
0.0 0.0 0.0

31019.92014124417 -86297.97326355429 0.0
-86297.97326355429 230341.03173838148 0.0
0.0 0.0 0.0

-769043.8338508245 3.0121511340812524e6 0.0
3.0121511340812524e6 673621.1317025293 0.0
0.0 0.0 0.0

-1.983047061708834e6 1.6442242614133235e6 0.0
1.6442242614133235e6 5.977949828974232e6 0.0
0.0 0.0 0.0

-867205.9510271337 2.568144317720561e6 0.0
2.568144317720561e6 1.0413681574464496e6 0.0
0.0 0.0 0.0

43243.306261045334 4.0770227659127153e6 0.0
4.0770227659127153e6 -799884.7126206143 0.0
0.0 0.0 0.0

-778002.3171952365 2.6792339082800206e6 0.0
2.6792339082800206e6 954182.7752544854 0.0
0.0 0.0 0.0

-230896.74234269297 3.9514413026237017e6 0.0
3.9514413026237017e6 -415944.1588408223 0.0
0.0 0.0 0.0

-557651.2108593629 3.5194443355201553e6 0.0
3.5194443355201553e6 -327403.4968462867 0.0
0.0 0.0 0.0

-712373.2596883763 4.31982744141639e6 0.0
4.31982744141639e6 -359526.0528581013 0.0
0.0 0.0 0.0

814625.993702869 2.810726221362635e6 0.0
2.810726221362635e6 -2.0425864322696475e6 0.0
0.0 0.0 0.0

928377.4574400124 2.6795124841690315e6 0.0
2.6795124841690315e6 -2.176093162366731e6 0.0
0.0 0.0 0.0

-1.1425071477538664e6 2.432407446909623e6 0.0
2.432407446909623e6 431949.5030416434 0.0
0.0 0.0 0.0

-906680.8931514232 1.1492344569099513e6 0.0
1.1492344569099513e6 1.991193462640039e6 0.0
0.0 0.0 0.0

-597622.5054711137 3.330811445131288e6 0.0
3.330811445131288e6 -439417.98671449895 0.0
0.0 0.0 0.0

-3.17805216904795e6 -1.7051416684487893e6 0.0
-1.7051416684487893e6 4.459677724042989e6 0.0
0.0 0.0 0.0

120884.39553713123 1.768062115593617e6 0.0
1.768062115593617e6 -1.344481800988532e6 0.0
0.0 0.0 0.0

-6.310007288265303e6 2.1178592563890065e6 0.0
2.1178592563890065e6 1.5661258669349164e7 0.0
0.0 0.0 0.0

1.1844136873475816e6 2.0888471983755594e6 0.0
2.0888471983755594e6 -2.214170299337103e6 0.0
0.0 0.0 0.0

-1.0036030475339554e6 3.3447578393217553e6 0.0
3.3447578393217553e6 255852.55546795123 0.0
0.0 0.0 0.0

-1.0550622796798141e6 2.8817418977748104e6 0.0
2.8817418977748104e6 1.0419350197705586e6 0.0
0.0 0.0 0.0

-430900.3188449796 3.993133814438506e6 0.0
3.993133814438506e6 -825371.221778897 0.0
0.0 0.0 0.0

-1.6962778448056944e6 2.401083957499355e6 0.0
2.401083957499355e6 1.3248555785034646e6 0.0
0.0 0.0 0.0

-654744.2432054625 4.099247084560976e6 0.0
4.099247084560976e6 -78214.37205486714 0.0
0.0 0.0 0.0

-1.0509466150811526e6 3.2156117510785293e6 0.0
3.2156117510785293e6 972087.9519003481 0.0
0.0 0.0 0.0

-902165.0001196986 2.9558947759539327e6 0.0
2.9558947759539327e6 379503.5000881573 0.0
0.0 0.0 0.0

-535578.729104636 3.8590175429629963e6 0.0
3.8590175429629963e6 -95032.91777323709 0.0
0.0 0.0 0.0

-672594.1413353554 1.6896625695925711e6 0.0
1.6896625695925711e6 -539674.7953588087 0.0
0.0 0.0 0.0

-303843.82442388614 1.6313026016640468e6 0.0
1.6313026016640468e6 443563.41649159987 0.0
0.0 0.0 0.0

54746.91220128845 4.572199147806183e6 0.0
4.572199147806183e6 -957826.7757517748 0.0
0.0 0.0 0.0

-704496.4646182444 3.634362377926083e6 0.0
3.634362377926083e6 661034.1920674247 0.0
0.0 0.0 0.0

-790322.3573052834 4.1007256485816375e6 0.0
4.1007256485816375e6 -205792.01013287174 0.0
0.0 0.0 0.0

-959558.1759862958 1.575008623685954e6 0.0
1.575008623685954e6 442990.90087462135 0.0
0.0 0.0 0.0

-8.673963870402453e6 -4.283696043780129e6 0.0
-4.283696043780129e6 1.6409464823607404e7 0.0
0.0 0.0 0.0

-379643.54500269773 2.8701614460682063e6 0.0
2.8701614460682063e6 -434039.4460923646 0.0
0.0 0.0 0.0

-725058.000136324 2.633529713432455e6 0.0
2.633529713432455e6 2.0252412337822295e6 0.0
0.0 0.0 0.0

-2.460483042558129e6 3.5121512554340954e6 0.0
3.5121512554340954e6 1.0840722002692092e6 0.0
0.0 0.0 0.0

-841229.4523673333 3.415190219037338e6 0.0
3.415190219037338e6 2.0373795547784588e6 0.0
0.0 0.0 0.0

-1.4461206443417626e6 2.768317451808044e6 0.0
2.768317451808044e6 3.495899402814358e6 0.0
0.0 0.0 0.0

-733436.7394378516 3.3071196555494606e6 0.0
3.3071196555494606e6 914890.7444194758 0.0
0.0 0.0 0.0

-518206.9259356403 2.4589693869606145e6 0.0
2.4589693869606145e6 -544598.1638212667 0.0
0.0 0.0 0.0

-900463.4475618652 3.570393250587566e6 0.0
3.570393250587566e6 627320.9821316667 0.0
0.0 0.0 0.0

-557424.9382081941 2.5334019917340633e6 0.0
2.5334019917340633e6 50558.60496039965 0.0
0.0 0.0 0.0

-524199.8211853965 2.609954154393104e6 0.0
2.609954154393104e6 -205699.6340985904 0.0
0.0 0.0 0.0

1.0790103487124897e6 1.7649737430690604e6 0.0
1.7649737430690604e6 -1.7531179354157648e6 0.0
0.0 0.0 0.0

-1.0533023694293331e6 3.8984193926771795e6 0.0
3.8984193926771795e6 93210.5046305224 0.0
0.0 0.0 0.0

-550944.7838958108 3.0801401125534377e6 0.0
3.0801401125534377e6 -1.0526707958701628e6 0.0
0.0 0.0 0.0

897390.3912401125 1.5370534695964614e6 0.0
1.5370534695964614e6 -1.5805130361686032e6 0.0
0.0 0.0 0.0

-1.9673375523195406e6 4.71795414698685e6 0.0
4.71795414698685e6 925943.2989795741 0.0
0.0 0.0 0.0

-1.3321321933731018e6 3.254244597522114e6 0.0
3.254244597522114e6 1.25619449075269e6 0.0
0.0 0.0 0.0

-1.6145381068448494e6 -1.0905624392300372e6 0.0
-1.0905624392300372e6 2.4197480272210585e6 0.0
0.0 0.0 0.0

-599410.7889979742 2.512348824944027e6 0.0
2.512348824944027e6 824837.8455192646 0.0
0.0 0.0 0.0

-344569.9990153933 2.9064673296833024e6 0.0
2.9064673296833024e6 -75131.89185519336 0.0
0.0 0.0 0.0

-404386.8378851403 3.3530004304868733e6 0.0
3.3530004304868733e6 -816797.3717250638 0.0
0.0 0.0 0.0

1.119590378389434e6 1.8851141375170038e6 0.0
1.8851141375170038e6 -1.8066523194024586e6 0.0
0.0 0.0 0.0

-59561.07566788269 4.188057677581374e6 0.0
4.188057677581374e6 -661072.4327482536 0.0
0.0 0.0 0.0

-455598.1540588514 3.4019141409580074e6 0.0
3.4019141409580074e6 -713565.0039716878 0.0
0.0 0.0 0.0

-511611.69474034326 3.5165534494097885e6 0.0
3.5165534494097885e6 -444380.60360878106 0.0
0.0 0.0 0.0

603222.3331176485 468666.14283804386 0.0
468666.14283804386 -726812.4043037738 0.0
0.0 0.0 0.0

257075.40136357327 -46018.60730759214 0.0
-46018.60730759214 -175564.4679817328 0.0
0.0 0.0 0.0

-699908.0443648312 4.05001389109639e6 0.0
4.05001389109639e6 -225208.33311211772 0.0
0.0 0.0 0.0

-127922.84850461636 3.256399257076527e6 0.0
3.256399257076527e6 -1.3875426824919768e6 0.0
0.0 0.0 0.0

-190399.17689926145 4.0069724523342205e6 0.0
4.0069724523342205e6 -1.2026158643020047e6 0.0
0.0 0.0 0.0

-7.460794875272998e6 -4.1429446785817356e6 0.0
-4.1429446785817356e6 1.432218331963356e7 0.0
0.0 0.0 0.0

-3.0497786136299716e6 2.9765246599054183e6 0.0
2.9765246599054183e6 1.3869256836212552e6 0.0
0.0 0.0 0.0

64603.48903490558 820999.7183129747 0.0
820999.7183129747 -219103.6984796495 0.0
0.0 0.0 0.0

-346394.7412196599 3.720980936557351e6 0.0
3.720980936557351e6 -435806.3773790084 0.0
0.0 0.0 0.0

-695329.666266277 3.158241533667059e6 0.0
3.158241533667059e6 424436.79174156726 0.0
0.0 0.0 0.0

-467227.25587132585 1.6107747729043325e6 0.0
1.6107747729043325e6 960800.8542918259 0.0
0.0 0.0 0.0

-1.12911526259239e6 3.849146245185671e6 0.0
3.849146245185671e6 -169856.29670586932 0.0
0.0 0.0 0.0

-389778.5512517113 2.8401962391617927e6 0.0
2.8401962391617927e6 218544.76255516044 0.0
0.0 0.0 0.0

-505871.73701996217 3.131619903477855e6 0.0
3.131619903477855e6 399139.76693692454 0.0
0.0 0.0 0.0

-358571.87615007214 3.2193813973715524e6 0.0
3.2193813973715524e6 -750247.046462029 0.0
0.0 0.0 0.0

133006.599206916 152195.67165746234 0.0
152195.67165746234 -639711.9498584134 0.0
0.0 0.0 0.0

-283480.06347675005 3.321570306246914e6 0.0
3.321570306246914e6 -893882.5912595092 0.0
0.0 0.0 0.0

-992296.2046013062 3.1348610299174013e6 0.0
3.1348610299174013e6 -37853.19617824943 0.0
0.0 0.0 0.0

-1.5091483873245772e6 3.1792099845755566e6 0.0
3.1792099845755566e6 446786.7752619998 0.0
0.0 0.0 0.0

-623370.5071505584 3.653468432151346e6 0.0
3.653468432151346e6 -138781.74702498844 0.0
0.0 0.0 0.0

-611483.5041815842 3.5442967725705085e6 0.0
3.5442967725705085e6 -229103.2817969135 0.0
0.0 0.0 0.0

1.1673701952009667e6 1.871987405791114e6 0.0
1.871987405791114e6 -1.9008101507393478e6 0.0
0.0 0.0 0.0

-348794.48223229795 3.228213779667635e6 0.0
3.228213779667635e6 -386044.5767927539 0.0
0.0 0.0 0.0

-1.1453171720825252e6 3.155188098278951e6 0.0
3.155188098278951e6 144522.00114942604 0.0
0.0 0.0 0.0

-147454.08613837097 2.753946595850519e6 0.0
2.753946595850519e6 -828456.0557227363 0.0
0.0 0.0 0.0

-4.83421108289759e6 1.968808211606843e6 0.0
1.968808211606843e6 1.7743566834668803e6 0.0
0.0 0.0 0.0

4.489879384709751e6 1.1323643510478793e7 0.0
1.1323643510478793e7 1.4966383376522105e7 0.0
0.0 0.0 0.0

-430084.2173111227 1.007184175979989e6 0.0
1.007184175979989e6 -1.4336152617358027e6 0.0
0.0 0.0 0.0

-555674.3610146125 2.6927639305552845e6 0.0
2.6927639305552845e6 1.435906903858162e6 0.0
0.0 0.0 0.0

-259504.9563887565 3.0633230100488104e6 0.0
3.0633230100488104e6 -963064.3741865025 0.0
0.0 0.0 0.0

-1.054595664832873e6 3.401495578745515e6 0.0
3.401495578745515e6 780829.435909492 0.0
0.0 0.0 0.0

-3.050828611475455e6 5.606153272673479e6 0.0
5.606153272673479e6 1.936666534088755e6 0.0
0.0 0.0 0.0

-203544.25518917604 3.511936282802344e6 0.0
3.511936282802344e6 -1.2364306999492059e6 0.0
0.0 0.0 0.0

-776054.0205557966 4.671003578237828e6 0.0
4.671003578237828e6 23654.82496871581 0.0
0.0 0.0 0.0

-399114.4190939586 2.9413702846960286e6 0.0
2.9413702846960286e6 -182384.830397031 0.0
0.0 0.0 0.0

-2.139258884283928e6 3.6720133752434077e6 0.0
3.6720133752434077e6 1.3776888339329492e6 0.0
0.0 0.0 0.0

-47326.882567349996 4.1395610160975065e6 0.0
4.1395610160975065e6 -1.5512362606701457e6 0.0
0.0 0.0 0.0

-534021.4441585598 4.205878714557561e6 0.0
4.205878714557561e6 -15473.21459063841 0.0
0.0 0.0 0.0

-992823.6834834774 3.0950597421728983e6 0.0
3.0950597421728983e6 262818.684531825 0.0
0.0 0.0 0.0

-503559.3582089419 4.67298006576324e6 0.0
4.67298006576324e6 -126054.9819801494 0.0
0.0 0.0 0.0

-231305.19093517886 3.4271081392952637e6 0.0
3.4271081392952637e6 -488548.34484056075 0.0
0.0 0.0 0.0

-622864.0134304381 2.979420650481487e6 0.0
2.979420650481487e6 1.104303321059046e6 0.0
0.0 0.0 0.0

-1.632490361414009e6 3.790435936882439e6 0.0
3.790435936882439e6 -314912.0561664124 0.0
0.0 0.0 0.0

-394438.4309532925 3.6908411799490033e6 0.0
3.6908411799490033e6 -748055.7796949581 0.0
0.0 0.0 0.0

-1.9517786400962733e6 4.918349842383784e6 0.0
4.918349842383784e6 982529.814735442 0.0
0.0 0.0 0.0

-810800.2606831992 4.707421652304739e6 0.0
4.707421652304739e6 241102.19427684648 0.0
0.0 0.0 0.0

-332519.69988541194 2.42433697237577e6 0.0
2.42433697237577e6 -750543.5503950964 0.0
0.0 0.0 0.0

-913424.89893097 1.7440926113583401e6 0.0
1.7440926113583401e6 2.7063384621596606e6 0.0
0.0 0.0 0.0

-368580.0137425014 3.211651678066137e6 0.0
3.211651678066137e6 -865907.2515472254 0.0
0.0 0.0 0.0

-943060.1949048176 3.387498969801102e6 0.0
3.387498969801102e6 -94178.13418909148 0.0
0.0 0.0 0.0

-687808.2365416209 2.396179484049046e6 0.0
2.396179484049046e6 128874.52675078253 0.0
0.0 0.0 0.0

-257236.36052205457 438117.83373049425 0.0
438117.83373049425 43458.28228276831 0.0
0.0 0.0 0.0

-284706.2328821159 3.870572120793067e6 0.0
3.870572120793067e6 -539638.9872315278 0.0
0.0 0.0 0.0

-1.1086280182921274e6 4.24076587878225e6 0.0
4.24076587878225e6 186801.7099973514 0.0
0.0 0.0 0.0

269496.9115147875 3.409626229272359e6 0.0
3.409626229272359e6 -1.2570634538753815e6 0.0
0.0 0.0 0.0

-119486.07026861768 2.3757547068803636e6 0.0
2.3757547068803636e6 -1.1459031914039075e6 0.0
0.0 0.0 0.0

-2.0436844105676925e6 7.259891113718884e6 0.0
7.259891113718884e6 1.2884247716350476e6 0.0
0.0 0.0 0.0

1.0426500185070038e6 2.639483681663729e6 0.0
2.639483681663729e6 -1.80824860108104e6 0.0
0.0 0.0 0.0

-300418.01631647523 3.8074082248459896e6 0.0
3.8074082248459896e6 -514485.8834278761 0.0
0.0 0.0 0.0

-973515.0951326163 3.748722952041255e6 0.0
3.748722952041255e6 14001.20172051579 0.0
0.0 0.0 0.0

-1.4331743903924126e7 7.9949550330324955e6 0.0
7.9949550330324955e6 4.719838924189798e7 0.0
0.0 0.0 0.0

780918.8727131042 1.3991225166237862e6 0.0
1.3991225166237862e6 -1.2091769722144497e6 0.0
0.0 0.0 0.0

-146019.75601722812 3.6388115844873833e6 0.0
3.6388115844873833e6 1.6849008648968793e6 0.0
0.0 0.0 0.0

-765357.2145736072 4.7422394578719465e6 0.0
4.7422394578719465e6 149093.07217934803 0.0
0.0 0.0 0.0

-969930.7103940031 1.5467153579324016e6 0.0
1.5467153579324016e6 607296.3720965725 0.0
0.0 0.0 0.0

-928769.7736028361 7.303853478213703e6 0.0
7.303853478213703e6 1.0598295317154892e6 0.0
0.0 0.0 0.0

-370702.8683432532 3.6763970894464604e6 0.0
3.6763970894464604e6 -162915.57011576288 0.0
0.0 0.0 0.0

-485211.3641477537 4.4026235709427325e6 0.0
4.4026235709427325e6 -171987.70112556822 0.0
0.0 0.0 0.0

-1.0906727065378835e6 3.2214046608770387e6 0.0
3.2214046608770387e6 229626.11424474174 0.0
0.0 0.0 0.0

-536629.6795107779 2.915718794766632e6 0.0
2.915718794766632e6 -375675.4634678868 0.0
0.0 0.0 0.0

-51618.807214919914 -2064.734718977303 0.0
-2064.734718977303 -809894.839848211 0.0
0.0 0.0 0.0

-1.4079246508824124e6 3.6691315254205232e6 0.0
3.6691315254205232e6 1.6121394867736096e6 0.0
0.0 0.0 0.0

-1.7275728808905329e6 3.7956337630645945e6 0.0
3.7956337630645945e6 884074.8023751326 0.0
0.0 0.0 0.0

-528554.6904302926 2.3850250655819355e6 0.0
2.3850250655819355e6 1.7307121127875661e6 0.0
0.0 0.0 0.0

-995154.0825845163 4.0825673485752083e6 0.0
4.0825673485752083e6 -45190.98538446502 0.0
0.0 0.0 0.0

-1.0749838578651077e6 3.180256033441073e6 0.0
3.180256033441073e6 318910.5210558879 0.0
0.0 0.0 0.0

-494341.1756626372 3.7828676666677194e6 0.0
3.7828676666677194e6 -1.043997976426631e6 0.0
0.0 0.0 0.0

-838223.3009303364 2.60260813000092e6 0.0
2.60260813000092e6 2.289333779298347e6 0.0
0.0 0.0 0.0

-1.0998451871279678e6 3.43621901584021e6 0.0
3.43621901584021e6 344403.58015489264 0.0
0.0 0.0 0.0

-392536.3320718008 2.8012579913206734e6 0.0
2.8012579913206734e6 168429.66057694913 0.0
0.0 0.0 0.0

-7.03826254117519e6 2.5116989633256616e6 0.0
2.5116989633256616e6 3.5887636051186076e6 0.0
0.0 0.0 0.0

-1.837646319357666e6 -830835.6996158869 0.0
-830835.6996158869 2.982293264223786e6 0.0
0.0 0.0 0.0

-1.0250430491225698e6 4.1096109695610716e6 0.0
4.1096109695610716e6 -106428.80311161064 0.0
0.0 0.0 0.0

-1.848005730841228e6 3.135937894064826e6 0.0
3.135937894064826e6 69162.89326844539 0.0
0.0 0.0 0.0

-111899.10405410198 3.7049382832047283e6 0.0
3.7049382832047283e6 -1.6401873535250882e6 0.0
0.0 0.0 0.0

-2.9086419736649613e6 3.063164864536683e6 0.0
3.063164864536683e6 1.0772173288652385e6 0.0
0.0 0.0 0.0

-3.256743253858535e6 2.8972167474547555e6 0.0
2.8972167474547555e6 1.5097015078425552e6 0.0
0.0 0.0 0.0

-3.815266727708419e6 2.8090222350364625e6 0.0
2.8090222350364625e6 1.7898401615369087e6 0.0
0.0 0.0 0.0

-2.254272534373092e6 4.177394652918191e6 0.0
4.177394652918191e6 1.3707366769441874e6 0.0
0.0 0.0 0.0

-163600.11282794032 1.1792973448906871e6 0.0
1.1792973448906871e6 -7614.0638910681155 0.0
0.0 0.0 0.0

1.1822638339207594e6 1.8529966251223932e6 0.0
1.8529966251223932e6 -1.8214455178021877e6 0.0
0.0 0.0 0.0

-880469.6818964045 2.524871558310541e6 0.0
2.524871558310541e6 1.1146657571115016e6 0.0
0.0 0.0 0.0

-2.180185269899103e6 5.037015712898667e6 0.0
5.037015712898667e6 1.1571752842453304e6 0.0
0.0 0.0 0.0

-274950.49623793474 3.1113826895305538e6 0.0
3.1113826895305538e6 -1.0844746716235273e6 0.0
0.0 0.0 0.0

-241134.27564468552 -877079.2585531727 0.0
-877079.2585531727 530052.4435135317 0.0
0.0 0.0 0.0

-285449.8884777642 3.7014122916241614e6 0.0
3.7014122916241614e6 -476782.6786680652 0.0
0.0 0.0 0.0

-509119.19983566995 3.4501095546936654e6 0.0
3.4501095546936654e6 -606240.5857133878 0.0
0.0 0.0 0.0

-364839.3244957091 3.3356253562156684e6 0.0
3.3356253562156684e6 -917850.8733533666 0.0
0.0 0.0 0.0

-355727.6221832457 3.497861464143225e6 0.0
3.497861464143225e6 -1.1623222912207167e6 0.0
0.0 0.0 0.0

501354.26208550134 49095.16779207891 0.0
49095.16779207891 -611011.3120719194 0.0
0.0 0.0 0.0

-318794.0604417828 3.913870452905936e6 0.0
3.913870452905936e6 -912176.3043013369 0.0
0.0 0.0 0.0

-288598.2754395716 3.3310151179674882e6 0.0
3.3310151179674882e6 -298570.23341258685 0.0
0.0 0.0 0.0

213263.58352398087 3.136734403723486e6 0.0
3.136734403723486e6 266128.0762028714 0.0
0.0 0.0 0.0

-3.726927690919906e6 2.557259376740642e6 0.0
2.557259376740642e6 1.9175301961690942e6 0.0
0.0 0.0 0.0

-507615.7090913204 2.774498070179043e6 0.0
2.774498070179043e6 -316405.3221570084 0.0
0.0 0.0 0.0

-318695.99055014254 2.337216067506881e6 0.0
2.337216067506881e6 -321379.6748664062 0.0
0.0 0.0 0.0

1.0903113191772732e6 2.0410882236796867e6 0.0
2.0410882236796867e6 -1.8169216524088387e6 0.0
0.0 0.0 0.0

79597.1030593889 67733.01832989139 0.0
67733.01832989139 -127101.40319400777 0.0
0.0 0.0 0.0

-3.1552080109262094e6 3.3319237006729175e6 0.0
3.3319237006729175e6 1.3863079394904615e6 0.0
0.0 0.0 0.0

-1.7147443928541385e6 3.9027207064605774e6 0.0
3.9027207064605774e6 -611876.4115125535 0.0
0.0 0.0 0.0

-348359.2548145368 4.0341201983187976e6 0.0
4.0341201983187976e6 -1.0321805238101212e6 0.0
0.0 0.0 0.0

-2.3577028801033814e6 4.4887947563351365e6 0.0
4.4887947563351365e6 1.3641543203144604e6 0.0
0.0 0.0 0.0

1.0130082833577663e6 3.326697419146816e6 0.0
3.326697419146816e6 -2.140140241137443e6 0.0
0.0 0.0 0.0

-667051.7717121117 4.332445705169515e6 0.0
4.332445705169515e6 -109771.39179822971 0.0
0.0 0.0 0.0

-531802.2957692452 2.612504279407177e6 0.0
2.612504279407177e6 592215.5573698279 0.0
0.0 0.0 0.0

-216797.62190412948 3.119543350696958e6 0.0
3.119543350696958e6 -1.122771023008982e6 0.0
0.0 0.0 0.0

-2.0096489299160945e6 3.134910575675047e6 0.0
3.134910575675047e6 949957.3304617272 0.0
0.0 0.0 0.0

-251504.4043944735 2.244513950193914e6 0.0
2.244513950193914e6 -620952.7507577778 0.0
0.0 0.0 0.0

-207476.8453384491 3.1041292110842904e6 0.0
3.1041292110842904e6 -1.0783819650650676e6 0.0
0.0 0.0 0.0

-252929.87981941894 3.9931432537244996e6 0.0
3.9931432537244996e6 -1.1800611589800464e6 0.0
0.0 0.0 0.0

-1.3390591214582974e6 3.4461298335046056e6 0.0
3.4461298335046056e6 54496.78198301606 0.0
0.0 0.0 0.0

-460500.91954664537 1.6711303859952637e6 0.0
1.6711303859952637e6 -483468.326255583 0.0
0.0 0.0 0.0

-1.0747475111004473e6 6.963604347222277e6 0.0
6.963604347222277e6 1.1089474957470596e6 0.0
0.0 0.0 0.0

-1.0418371567783081e6 4.336717396133217e6 0.0
4.336717396133217e6 182797.7172217053 0.0
0.0 0.0 0.0

-2.509027801557891e6 3.1110028933732104e6 0.0
3.1110028933732104e6 808304.968153357 0.0
0.0 0.0 0.0

-1.0105168134864777e6 3.4811130206903196e6 0.0
3.4811130206903196e6 284647.21717294096 0.0
0.0 0.0 0.0

1.0523264818618544e6 3.11708179590533e6 0.0
3.11708179590533e6 -2.4065997917138473e6 0.0
0.0 0.0 0.0

-820982.8142401435 3.903470666647229e6 0.0
3.903470666647229e6 314737.0304542463 0.0
0.0 0.0 0.0

1.0978427879081678e6 2.6763526367535614e6 0.0
2.6763526367535614e6 -2.232939721999998e6 0.0
0.0 0.0 0.0

-1.298363748623468e6 2.9321221960374378e6 0.0
2.9321221960374378e6 601950.3918749524 0.0
0.0 0.0 0.0

-1.262550408305623e6 2.8166413278481523e6 0.0
2.8166413278481523e6 554828.4560188737 0.0
0.0 0.0 0.0

-340586.1077807328 4.050514062303627e6 0.0
4.050514062303627e6 -970422.5133330689 0.0
0.0 0.0 0.0

-509864.2701839424 3.7859458965802025e6 0.0
3.7859458965802025e6 18248.89021046739 0.0
0.0 0.0 0.0

-2.265377892976645e6 3.798687294419396e6 0.0
3.798687294419396e6 1.343999558054213e6 0.0
0.0 0.0 0.0

-775131.1212169342 2.631407072381913e6 0.0
2.631407072381913e6 345320.4371119473 0.0
0.0 0.0 0.0

-65209.02405403441 8820.236252033823 0.0
8820.236252033823 263975.3218452728 0.0
0.0 0.0 0.0

1.021405590073054e6 1.9821847615739943e6 0.0
1.9821847615739943e6 -2.0248850407818453e6 0.0
0.0 0.0 0.0

629342.7722682111 2.4143303850949616e6 0.0
2.4143303850949616e6 -1.9553129950762526e6 0.0
0.0 0.0 0.0

-2.505584508586563e6 4.879273170362984e6 0.0
4.879273170362984e6 1.644023788294759e6 0.0
0.0 0.0 0.0

-1.0146836625258657e6 3.796107725373673e6 0.0
3.796107725373673e6 521080.577280793 0.0
0.0 0.0 0.0

-89519.6206311449 3.7242413404774237e6 0.0
3.7242413404774237e6 -1.707525831445414e6 0.0
0.0 0.0 0.0

-1.689069223295344e6 3.560122087812989e6 0.0
3.560122087812989e6 2.457502285653021e6 0.0
0.0 0.0 0.0

421076.125299503 214874.47967665555 0.0
214874.47967665555 -537728.3065669655 0.0
0.0 0.0 0.0

-800809.6423845859 2.6572669425659953e6 0.0
2.6572669425659953e6 1.2152533584361444e6 0.0
0.0 0.0 0.0

-2.1529428342442354e6 2.3179249700894067e6 0.0
2.3179249700894067e6 318235.58633057436 0.0
0.0 0.0 0.0

-291287.4725957866 3.1499985430431524e6 0.0
3.1499985430431524e6 -202032.35482121242 0.0
0.0 0.0 0.0

-109583.52198564826 4.1664521069967304e6 0.0
4.1664521069967304e6 -624463.9061148661 0.0
0.0 0.0 0.0

-1.5418355276328775e6 3.5196767009817963e6 0.0
3.5196767009817963e6 101671.77817959414 0.0
0.0 0.0 0.0

-607996.0711308697 3.8217630421489696e6 0.0
3.8217630421489696e6 73861.29608680593 0.0
0.0 0.0 0.0

-2.07667621616452e6 2.5506620139171774e6 0.0
2.5506620139171774e6 3.1611921608819687e6 0.0
0.0 0.0 0.0

-1.27965187036362e6 4.119863876042493e6 0.0
4.119863876042493e6 -433420.9848408427 0.0
0.0 0.0 0.0

-1.146477178908518e6 3.983702160104095e6 0.0
3.983702160104095e6 -137583.03378063056 0.0
0.0 0.0 0.0

-1.8793612723223288e6 247919.25347061572 0.0
247919.25347061572 2.5454401740175327e6 0.0
0.0 0.0 0.0

-9.564353936575085e6 2.4014214279668247e6 0.0
2.4014214279668247e6 9.277192789996987e6 0.0
0.0 0.0 0.0

-180713.4899277783 2.9827990939045427e6 0.0
2.9827990939045427e6 88707.93589622066 0.0
0.0 0.0 0.0

934.2151076156879 4.102567796781303e6 0.0
4.102567796781303e6 -1.613013818520252e6 0.0
0.0 0.0 0.0

-990870.6139892525 3.0798020138668926e6 0.0
3.0798020138668926e6 211536.4406401359 0.0
0.0 0.0 0.0

-540702.2485323279 3.3117158711347557e6 0.0
3.3117158711347557e6 -536388.0839461192 0.0
0.0 0.0 0.0

1.6190054054511625e6 4.778728822014562e6 0.0
4.778728822014562e6 915396.9654488098 0.0
0.0 0.0 0.0

84039.06437026645 140443.2819806693 0.0
140443.2819806693 -517809.865175815 0.0
0.0 0.0 0.0

1.3134797301268564e6 780736.388860718 0.0
780736.388860718 -1.7963929531849804e6 0.0
0.0 0.0 0.0

-783574.6704559433 3.093735157856635e6 0.0
3.093735157856635e6 -197055.63859794138 0.0
0.0 0.0 0.0

-341947.1194324559 3.897523607701469e6 0.0
3.897523607701469e6 -937753.1763363945 0.0
0.0 0.0 0.0

-294781.67960107664 -181068.91022455442 0.0
-181068.91022455442 948224.9157868226 0.0
0.0 0.0 0.0

-904162.3313142242 4.603529958756926e6 0.0
4.603529958756926e6 324672.654050471 0.0
0.0 0.0 0.0

-4.150408778129714e6 2.5174510739251305e6 0.0
2.5174510739251305e6 1.912860243345706e6 0.0
0.0 0.0 0.0

-115724.73123633924 3.7672717601041766e6 0.0
3.7672717601041766e6 -242858.03410128178 0.0
0.0 0.0 0.0

569410.0856187445 38483.42711368404 0.0
38483.42711368404 -662582.815499576 0.0
0.0 0.0 0.0

-5.31174311661638e6 1.5154706351877023e6 0.0
1.5154706351877023e6 4.610779965449173e6 0.0
0.0 0.0 0.0

-204054.48650625796 3.34392623926389e6 0.0
3.34392623926389e6 -739390.9349632303 0.0
0.0 0.0 0.0

-4.249713506758365e6 2.3818882290269057e6 0.0
2.3818882290269057e6 1.9143095525992792e6 0.0
0.0 0.0 0.0

-578208.6994789145 2.5288461407944215e6 0.0
2.5288461407944215e6 241566.90067173756 0.0
0.0 0.0 0.0

-418987.64970023907 3.6960981210914613e6 0.0
3.6960981210914613e6 -560539.7822896077 0.0
0.0 0.0 0.0

-454958.13581573375 3.049671444885756e6 0.0
3.049671444885756e6 -1.331527003397466e6 0.0
0.0 0.0 0.0

-355094.5279382096 4.0286769707250777e6 0.0
4.0286769707250777e6 -1.0954509998084574e6 0.0
0.0 0.0 0.0

-566933.7323476034 4.183924555985808e6 0.0
4.183924555985808e6 -135489.9955163754 0.0
0.0 0.0 0.0

-3.422937138185604e6 9.892802757270306e6 0.0
9.892802757270306e6 17217.53855991154 0.0
0.0 0.0 0.0

517703.81010700815 68962.41154626007 0.0
68962.41154626007 -624992.6722994789 0.0
0.0 0.0 0.0

-2.9621828238114105e6 5.450771562455212e6 0.0
5.450771562455212e6 1.5723585803884387e6 0.0
0.0 0.0 0.0

-1.7937077670570773e6 5.113692730977831e6 0.0
5.113692730977831e6 1.2734003822872548e6 0.0
0.0 0.0 0.0

-70408.76388160304 -317027.4727607239 0.0
-317027.4727607239 171147.31699304527 0.0
0.0 0.0 0.0

1.1629012727850494e6 1.8572237316760046e6 0.0
1.8572237316760046e6 -1.8221941004297137e6 0.0
0.0 0.0 0.0

-1.245573567629806e6 3.7890919028309006e6 0.0
3.7890919028309006e6 56148.613465373346 0.0
0.0 0.0 0.0

-960763.1003900351 2.8005742509317175e6 0.0
2.8005742509317175e6 1.37396806027104e6 0.0
0.0 0.0 0.0

-292116.78555194347 409638.019290004 0.0
409638.019290004 703444.6615942854 0.0
0.0 0.0 0.0

-568515.1578823224 3.0013492316800714e6 0.0
3.0013492316800714e6 -326798.0497814572 0.0
0.0 0.0 0.0

-903060.3156013883 3.1305137408692017e6 0.0
3.1305137408692017e6 1.4378800057437532e6 0.0
0.0 0.0 0.0

-1.1733966619587303e6 2.403331130915653e6 0.0
2.403331130915653e6 120206.81505565578 0.0
0.0 0.0 0.0

-185213.58524760223 3.945888767541648e6 0.0
3.945888767541648e6 -1.2210456926485575e6 0.0
0.0 0.0 0.0

-1.9637701645166615e6 4.544370623455626e6 0.0
4.544370623455626e6 996978.8646105123 0.0
0.0 0.0 0.0

87141.17342362984 133860.54709647316 0.0
133860.54709647316 -382784.13845332386 0.0
0.0 0.0 0.0

-1.2367318478314795e6 3.15908204092988e6 0.0
3.15908204092988e6 134766.64802090812 0.0
0.0 0.0 0.0

-705711.8417274152 1.3107411706035666e6 0.0
1.3107411706035666e6 1.781068812388141e6 0.0
0.0 0.0 0.0

-625749.6203178259 1.9915621912282812e6 0.0
1.9915621912282812e6 -199638.58410750356 0.0
0.0 0.0 0.0

-1.0081612225476312e6 3.4703838254392557e6 0.0
3.4703838254392557e6 -7779.407884162152 0.0
0.0 0.0 0.0

-3.174444944179978e6 5.240844951479466e6 0.0
5.240844951479466e6 2.0730908850828025e6 0.0
0.0 0.0 0.0

-1802.0844919884112 3.8248493175320257e6 0.0
3.8248493175320257e6 -1.4251620920825007e6 0.0
0.0 0.0 0.0

-5.680217737343853e6 1.7693677485441125e6 0.0
1.7693677485441125e6 1.3511136742811936e6 0.0
0.0 0.0 0.0

105588.55584557983 -185255.8820561643 0.0
-185255.8820561643 -658220.1191869357 0.0
0.0 0.0 0.0

7361.265001985099 -125886.72815190956 0.0
-125886.72815190956 -672792.6851286514 0.0
0.0 0.0 0.0

-101550.3209214796 4.047901168214498e6 0.0
4.047901168214498e6 -281340.52214041346 0.0
0.0 0.0 0.0

-578476.8030803467 4.341791820394959e6 0.0
4.341791820394959e6 1.7860720769017013e6 0.0
0.0 0.0 0.0

-254760.05018907192 3.7667878971617087e6 0.0
3.7667878971617087e6 -443192.9302900907 0.0
0.0 0.0 0.0

-13855.813115941011 2.8608188806721005e6 0.0
2.8608188806721005e6 -449148.3879713324 0.0
0.0 0.0 0.0

-748926.4040922951 1.1439479706116342e6 0.0
1.1439479706116342e6 70703.01958676381 0.0
0.0 0.0 0.0

-470084.7682004965 3.926848397082254e6 0.0
3.926848397082254e6 -293856.99215876387 0.0
0.0 0.0 0.0

-2.3902128599416376e6 4.163973100419541e6 0.0
4.163973100419541e6 1.4635783681453536e6 0.0
0.0 0.0 0.0

-82789.4105685596 4.286610485725674e6 0.0
4.286610485725674e6 -1.649459476111016e6 0.0
0.0 0.0 0.0

-1.209892477285388e6 3.1683018218776947e6 0.0
3.1683018218776947e6 2.049107066166433e6 0.0
0.0 0.0 0.0

-171014.86036603837 2.830431321335484e6 0.0
2.830431321335484e6 -260144.98436380495 0.0
0.0 0.0 0.0

-4.464196923821319e6 2.0670097232070595e6 0.0
2.0670097232070595e6 2.2290067957904036e6 0.0
0.0 0.0 0.0

-287245.9066794329 3.196066688595635e6 0.0
3.196066688595635e6 -67431.36988075051 0.0
0.0 0.0 0.0

812301.5118743703 803522.8807527431 0.0
803522.8807527431 -1.1965693971820313e6 0.0
0.0 0.0 0.0

-171945.8763940991 1.9581783567393546e6 0.0
1.9581783567393546e6 -411187.63066824625 0.0
0.0 0.0 0.0

-2.362762176641302e6 4.1651533793476354e6 0.0
4.1651533793476354e6 1.4385958575842436e6 0.0
0.0 0.0 0.0

-1.859596984775385e6 3.7766291757595004e6 0.0
3.7766291757595004e6 2.6164099352399716e6 0.0
0.0 0.0 0.0

-4.273201403211733e6 -1.6493201484697019e6 0.0
-1.6493201484697019e6 5.5169122235911265e6 0.0
0.0 0.0 0.0

-303973.9026181383 3.8348039981502597e6 0.0
3.8348039981502597e6 -407727.37078114995 0.0
0.0 0.0 0.0

-500182.7404679621 2.381952788231737e6 0.0
2.381952788231737e6 -827494.2919728404 0.0
0.0 0.0 0.0

-954621.8398376805 3.572156931938822e6 0.0
3.572156931938822e6 1.7227539719066287e6 0.0
0.0 0.0 0.0

-750305.8941430433 1.9574624354524245e6 0.0
1.9574624354524245e6 2.061390271710019e6 0.0
0.0 0.0 0.0

-1.1181217895260241e6 2.2800150064943815e6 0.0
2.2800150064943815e6 36586.39556608052 0.0
0.0 0.0 0.0

-7.021689634126805e6 3.413891698660143e6 0.0
3.413891698660143e6 1.8672058982932284e7 0.0
0.0 0.0 0.0

-960594.8336034425 4.427903045206161e6 0.0
4.427903045206161e6 107979.64551148022 0.0
0.0 0.0 0.0

-396681.0506406819 3.186970919397147e6 0.0
3.186970919397147e6 -795072.2752846339 0.0
0.0 0.0 0.0

-1.3323652766020196e6 2.4536083279532325e6 0.0
2.4536083279532325e6 817304.9669508348 0.0
0.0 0.0 0.0

1.1524634088402204e6 1.9633292518901874e6 0.0
1.9633292518901874e6 -1.8313505708221004e6 0.0
0.0 0.0 0.0

-3.426739209834042e6 4.903209265517036e6 0.0
4.903209265517036e6 2.0554800079637524e6 0.0
0.0 0.0 0.0

-151104.20989937487 1.994355562185885e6 0.0
1.994355562185885e6 -197169.25111432132 0.0
0.0 0.0 0.0

-35205.85843080538 4.1933204175579627e6 0.0
4.1933204175579627e6 -619069.7295127551 0.0
0.0 0.0 0.0

-1.0373787502319589e6 4.014892390555357e6 0.0
4.014892390555357e6 -117558.50276544795 0.0
0.0 0.0 0.0

-1.5734752635652507e6 3.051236875266497e6 0.0
3.051236875266497e6 465977.5191216109 0.0
0.0 0.0 0.0

-423314.04486812354 2.6355930032883813e6 0.0
2.6355930032883813e6 211718.90122188348 0.0
0.0 0.0 0.0

66078.51070709748 2.8376433656972307e6 0.0
2.8376433656972307e6 -1.54402861039717e6 0.0
0.0 0.0 0.0

-4.275358626059856e6 2.1291526435159356e6 0.0
2.1291526435159356e6 1.5295594050705459e6 0.0
0.0 0.0 0.0

-753483.6449443847 3.5385000591332195e6 0.0
3.5385000591332195e6 1.1310059624462933e6 0.0
0.0 0.0 0.0

478165.11993328226 125257.62959121304 0.0
125257.62959121304 -631772.9083265499 0.0
0.0 0.0 0.0

-1.6949508226494088e6 3.2927101778467097e6 0.0
3.2927101778467097e6 158663.3936620988 0.0
0.0 0.0 0.0

-6.691291277294317e6 391117.18290396506 0.0
391117.18290396506 4.592542740425911e6 0.0
0.0 0.0 0.0

-1.0372022172127995e6 3.8274368907532673e6 0.0
3.8274368907532673e6 538311.7494990934 0.0
0.0 0.0 0.0

-2.9941492609629994e6 1.8602287124067817e6 0.0
1.8602287124067817e6 657934.8552578765 0.0
0.0 0.0 0.0

-892440.3544696529 4.572083434392675e6 0.0
4.572083434392675e6 -356161.68175438145 0.0
0.0 0.0 0.0

-681183.9956933686 2.449695761289982e6 0.0
2.449695761289982e6 232656.85307731468 0.0
0.0 0.0 0.0

130665.79676668774 2.5087423414166267e6 0.0
2.5087423414166267e6 -379896.3873422447 0.0
0.0 0.0 0.0

-456648.658740289 2.8487836773783057e6 0.0
2.8487836773783057e6 -206395.49173325562 0.0
0.0 0.0 0.0

-924341.9967968089 4.007319799730516e6 0.0
4.007319799730516e6 66697.26025983144 0.0
0.0 0.0 0.0

-223620.28458446695 -583755.2036404226 0.0
-583755.2036404226 569263.4306166617 0.0
0.0 0.0 0.0

-83794.03174676531 3.7859441849413184e6 0.0
3.7859441849413184e6 -905237.6916984644 0.0
0.0 0.0 0.0

-411751.8243680932 1.628119184631711e6 0.0
1.628119184631711e6 -456069.7525371073 0.0
0.0 0.0 0.0

-346072.92156688543 3.077545924110389e6 0.0
3.077545924110389e6 -762650.0680001695 0.0
0.0 0.0 0.0

243395.25375180627 129349.53592333004 0.0
129349.53592333004 -54302.954680067356 0.0
0.0 0.0 0.0

-426697.1342664958 3.992022316324434e6 0.0
3.992022316324434e6 -953301.63511651 0.0
0.0 0.0 0.0

-1.0380664579966033e6 4.031123505276812e6 0.0
4.031123505276812e6 -108374.06481422877 0.0
0.0 0.0 0.0

-300303.4424651076 3.7594182195303016e6 0.0
3.7594182195303016e6 -19401.31734181769 0.0
0.0 0.0 0.0

-651964.2951643565 3.0107776909915493e6 0.0
3.0107776909915493e6 -216791.76389434547 0.0
0.0 0.0 0.0

-323613.7727608995 3.751991928977996e6 0.0
3.751991928977996e6 -498933.6294154784 0.0
0.0 0.0 0.0

-2.893120276831793e6 5.261298122176712e6 0.0
5.261298122176712e6 1.5405525551999498e6 0.0
0.0 0.0 0.0

-545716.1039643898 3.531300179347618e6 0.0
3.531300179347618e6 -482455.853828534 0.0
0.0 0.0 0.0

508243.59124111047 6.808039026338125e6 0.0
6.808039026338125e6 -304434.19505221344 0.0
0.0 0.0 0.0

-486773.37804191513 3.79271130300778e6 0.0
3.79271130300778e6 -445091.17392289056 0.0
0.0 0.0 0.0

-109571.11923158838 3.521128782838936e6 0.0
3.521128782838936e6 -1.2509102605042595e6 0.0
0.0 0.0 0.0

-737572.3380710649 3.7048185978824617e6 0.0
3.7048185978824617e6 -219355.467694233 0.0
0.0 0.0 0.0

-6.517578683378729e6 2.408994369907362e6 0.0
2.408994369907362e6 3.856816533737857e6 0.0
0.0 0.0 0.0

-1.0437226348595339e6 4.086616382758769e6 0.0
4.086616382758769e6 -111337.16881462315 0.0
0.0 0.0 0.0

-226252.1665115755 3.784287091956577e6 0.0
3.784287091956577e6 -788769.8271508856 0.0
0.0 0.0 0.0

56520.21433011745 4.774908512623867e6 0.0
4.774908512623867e6 -1.1960913103175745e6 0.0
0.0 0.0 0.0

-530884.6242558579 3.661038305334654e6 0.0
3.661038305334654e6 772191.1518538946 0.0
0.0 0.0 0.0

991407.0030582407 1.7024320978109424e6 0.0
1.7024320978109424e6 -1.644136444979104e6 0.0
0.0 0.0 0.0

-679335.8347308764 3.7432397160025733e6 0.0
3.7432397160025733e6 -29125.94429764335 0.0
0.0 0.0 0.0

1.1345711504090675e6 2.4678115205288986e6 0.0
2.4678115205288986e6 -2.219077819567062e6 0.0
0.0 0.0 0.0

-1.0206878721353898e6 3.3168654527998227e6 0.0
3.3168654527998227e6 76243.80389625346 0.0
0.0 0.0 0.0

-977511.089253848 4.487302867242679e6 0.0
4.487302867242679e6 374844.66004441795 0.0
0.0 0.0 0.0

-1.6914826596221367e6 3.048509471744159e6 0.0
3.048509471744159e6 577512.01000459 0.0
0.0 0.0 0.0

-1.904099343040611e6 2.4244386282865014e6 0.0
2.4244386282865014e6 378903.3222691086 0.0
0.0 0.0 0.0

-1.0264517500165956e6 1.7302973443171545e6 0.0
1.7302973443171545e6 1.7564651154919793e6 0.0
0.0 0.0 0.0

-531101.9173543397 3.4923599480769783e6 0.0
3.4923599480769783e6 -351187.49318811763 0.0
0.0 0.0 0.0

-3.125885911959058e6 1.702629746404623e6 0.0
1.702629746404623e6 638805.7679635389 0.0
0.0 0.0 0.0

-359788.45869388647 2.1969850891810074e6 0.0
2.1969850891810074e6 911568.963413933 0.0
0.0 0.0 0.0

-130296.02702552246 2.428055748455413e6 0.0
2.428055748455413e6 -331104.71779722243 0.0
0.0 0.0 0.0

-1.5513275484530511e6 3.3403599472436826e6 0.0
3.3403599472436826e6 192039.7225522229 0.0
0.0 0.0 0.0

-1.1323651918184361e6 4.816361298951479e6 0.0
4.816361298951479e6 -125030.80490680356 0.0
0.0 0.0 0.0

-522081.04095442325 2.1142416969419164e6 0.0
2.1142416969419164e6 -326926.169522825 0.0
0.0 0.0 0.0

1.1889267300752387e6 1.8691777357620348e6 0.0
1.8691777357620348e6 -1.833636949339849e6 0.0
0.0 0.0 0.0

-319441.02691929246 4.0112444559970316e6 0.0
4.0112444559970316e6 -1.0691397331243823e6 0.0
0.0 0.0 0.0

1.336630747321784e6 4.0035260499957004e6 0.0
4.0035260499957004e6 -1.6908500222731936e6 0.0
0.0 0.0 0.0

-815831.5454836785 1.8720718933083152e6 0.0
1.8720718933083152e6 2.409653484263981e6 0.0
0.0 0.0 0.0

-1.2776709458017994e6 3.6206572015346643e6 0.0
3.6206572015346643e6 -26458.03287614911 0.0
0.0 0.0 0.0

-67994.53817397583 -1.0075361246421946e6 0.0
-1.0075361246421946e6 331294.0227172039 0.0
0.0 0.0 0.0

-2.7474317430979866e6 3.2705779398483178e6 0.0
3.2705779398483178e6 1.2420006717058797e6 0.0
0.0 0.0 0.0

-5.559167353347033e6 1.6730631801935611e6 0.0
1.6730631801935611e6 4.028533327776651e6 0.0
0.0 0.0 0.0

-451847.96097829903 3.2178420993342525e6 0.0
3.2178420993342525e6 -687973.9940373407 0.0
0.0 0.0 0.0

-33739.44461101004 4.164695806089172e6 0.0
4.164695806089172e6 -497102.1525270166 0.0
0.0 0.0 0.0

-371852.179322236 3.820660271968616e6 0.0
3.820660271968616e6 -889029.0739761007 0.0
0.0 0.0 0.0

-947017.5614300766 2.927561478393551e6 0.0
2.927561478393551e6 263909.0433695828 0.0
0.0 0.0 0.0

-712500.4471909966 2.006377560887145e6 0.0
2.006377560887145e6 -484467.2987997887 0.0
0.0 0.0 0.0

338611.1685283165 2.691339783361081e6 0.0
2.691339783361081e6 -1.3009941541968423e6 0.0
0.0 0.0 0.0

-1.0115600643551366e6 1.715734847096991e6 0.0
1.715734847096991e6 321098.31607077527 0.0
0.0 0.0 0.0

-1.5110784942178875e6 3.3968755205428777e6 0.0
3.3968755205428777e6 232052.38705744623 0.0
0.0 0.0 0.0

-1.2953680605055701e6 2.5205614194407305e6 0.0
2.5205614194407305e6 305282.6980039795 0.0
0.0 0.0 0.0

302616.5386160318 3.5054146230032705e6 0.0
3.5054146230032705e6 1.2970221781312565e6 0.0
0.0 0.0 0.0

1.1670972724449676e6 1.8607122712191648e6 0.0
1.8607122712191648e6 -1.8311106639666609e6 0.0
0.0 0.0 0.0

-96368.27889913699 4.0393220132711683e6 0.0
4.0393220132711683e6 -296631.2552944081 0.0
0.0 0.0 0.0

-965216.0478117223 1.1135231473858734e6 0.0
1.1135231473858734e6 288667.1903264336 0.0
0.0 0.0 0.0

-1.6555599536780636e6 4.606408448284557e6 0.0
4.606408448284557e6 1.091364574048827e6 0.0
0.0 0.0 0.0

-215367.59003008594 3.8228068445795556e6 0.0
3.8228068445795556e6 -447706.9626595914 0.0
0.0 0.0 0.0

-184757.3584964986 215963.2581638622 0.0
215963.2581638622 1.022783290709409e6 0.0
0.0 0.0 0.0

331451.83872730663 131579.6121932464 0.0
131579.6121932464 -459147.9911290299 0.0
0.0 0.0 0.0

-1.1433294967347262e6 4.560978233605672e6 0.0
4.560978233605672e6 255692.50276063522 0.0
0.0 0.0 0.0

-4.684675552333912e6 -1.2699112579038937e6 0.0
-1.2699112579038937e6 4.863074211637041e6 0.0
0.0 0.0 0.0

-297861.02287514973 3.1599513398158345e6 0.0
3.1599513398158345e6 -1.009749651676544e6 0.0
0.0 0.0 0.0

-2.1615027154692076e6 2.53861112593546e6 0.0
2.53861112593546e6 2.050324069260509e6 0.0
0.0 0.0 0.0

-584132.343967413 2.4953613845259645e6 0.0
2.4953613845259645e6 13706.060448025353 0.0
0.0 0.0 0.0

-9.003073829522522e6 -375450.0903378631 0.0
-375450.0903378631 5.366829214553978e6 0.0
0.0 0.0 0.0

-200627.541733982 3.7292861697158706e6 0.0
3.7292861697158706e6 -1.3335463934879268e6 0.0
0.0 0.0 0.0

-652639.6030821985 3.4278487475358103e6 0.0
3.4278487475358103e6 -118721.06613456873 0.0
0.0 0.0 0.0

43636.470663838234 824637.4259421879 0.0
824637.4259421879 -566640.5611546759 0.0
0.0 0.0 0.0

-1.4059402605658525e6 5.3156592761997655e6 0.0
5.3156592761997655e6 -316402.3683345313 0.0
0.0 0.0 0.0

-1.5737138675004705e6 5.653912912291997e6 0.0
5.653912912291997e6 956795.5121667117 0.0
0.0 0.0 0.0

-2.55394308514591e6 3.457688436580525e6 0.0
3.457688436580525e6 1.2325918728745955e6 0.0
0.0 0.0 0.0

-1.071736547928724e6 2.963392367783253e6 0.0
2.963392367783253e6 271446.29545120563 0.0
0.0 0.0 0.0

-213529.0038014575 1.3725105500237006e6 0.0
1.3725105500237006e6 695756.1681954636 0.0
0.0 0.0 0.0

-659318.2844715848 4.1134221012007133e6 0.0
4.1134221012007133e6 5702.793488494965 0.0
0.0 0.0 0.0

-2.8586707610604004e6 3.3416547501822445e6 0.0
3.3416547501822445e6 1.2621844162851672e6 0.0
0.0 0.0 0.0

-505555.5768111926 1.6470179965580564e6 0.0
1.6470179965580564e6 -765191.3435063496 0.0
0.0 0.0 0.0

-2.626190231861283e6 3.4192005018588705e6 0.0
3.4192005018588705e6 1.178181975293703e6 0.0
0.0 0.0 0.0

-1.1757780513113297e6 4.0392257776028155e6 0.0
4.0392257776028155e6 1.9952863053646157e6 0.0
0.0 0.0 0.0

-160376.85200860532 2.1200392118859948e6 0.0
2.1200392118859948e6 -192793.67130161537 0.0
0.0 0.0 0.0

1.1569465756908015e6 1.879928729803452e6 0.0
1.879928729803452e6 -1.8876233310400404e6 0.0
0.0 0.0 0.0

-1.114435613463804e6 4.025672690349953e6 0.0
4.025672690349953e6 -124991.88941659388 0.0
0.0 0.0 0.0

-2.0903186589152035e6 3.8831499439206426e6 0.0
3.8831499439206426e6 1.2146379196057487e6 0.0
0.0 0.0 0.0

-1.6687116968652438e6 3.8201453844812117e6 0.0
3.8201453844812117e6 1.0621139313612694e6 0.0
0.0 0.0 0.0

-4.097939151303623e6 2.7367800620142426e6 0.0
2.7367800620142426e6 652948.6886985549 0.0
0.0 0.0 0.0

-389121.28462221107 3.2603632298461082e6 0.0
3.2603632298461082e6 -619835.6342012945 0.0
0.0 0.0 0.0

-2.3405729058888596e6 4.004378194520532e6 0.0
4.004378194520532e6 1.4218651542717102e6 0.0
0.0 0.0 0.0

-787828.9617349339 2.438901043653691e6 0.0
2.438901043653691e6 261056.74351583573 0.0
0.0 0.0 0.0

-7.926208292247223e6 500000.670591399 0.0
500000.670591399 6.70395355170434e6 0.0
0.0 0.0 0.0

-243266.4407545717 3.794422288984486e6 0.0
3.794422288984486e6 -539226.0160378763 0.0
0.0 0.0 0.0

-1.5375847758669683e6 3.462326348743457e6 0.0
3.462326348743457e6 3.248152230648187e6 0.0
0.0 0.0 0.0

1.1549890641042753e6 1.9395702776727462e6 0.0
1.9395702776727462e6 -1.8722453039426021e6 0.0
0.0 0.0 0.0

-4.0326733284981526e6 1.7490533453124168e6 0.0
1.7490533453124168e6 1.0978987508142085e6 0.0
0.0 0.0 0.0

-89147.92707703228 -783484.8228629394 0.0
-783484.8228629394 447243.60415338085 0.0
0.0 0.0 0.0

-699649.5870141826 -869743.7286266576 0.0
-869743.7286266576 1.0674965547601215e6 0.0
0.0 0.0 0.0

97732.60971238874 139423.92016782778 0.0
139423.92016782778 -536368.1503010662 0.0
0.0 0.0 0.0

-160836.5946291263 891158.9840172833 0.0
891158.9840172833 659462.4286173095 0.0
0.0 0.0 0.0

-2.1038304475078313e6 2.7303995135770496e6 0.0
2.7303995135770496e6 2.5788252965700957e6 0.0
0.0 0.0 0.0

-218446.31776707634 3.1546579334819135e6 0.0
3.1546579334819135e6 -1.2201084258919975e6 0.0
0.0 0.0 0.0

-4.224005139346558e6 2.0149837908781243e6 0.0
2.0149837908781243e6 1.694274391549738e6 0.0
0.0 0.0 0.0

-210235.08165101282 2.0817396870330933e6 0.0
2.0817396870330933e6 -74922.96280183709 0.0
0.0 0.0 0.0

71583.37528457725 4.689237431315115e6 0.0
4.689237431315115e6 -1.1168739729754683e6 0.0
0.0 0.0 0.0

-4.503663063490182e6 930819.2504006252 0.0
930819.2504006252 4.445148530763028e6 0.0
0.0 0.0 0.0

-553974.8925503665 -914725.6591189991 0.0
-914725.6591189991 881216.9277443597 0.0
0.0 0.0 0.0

-607048.9266064655 2.934923748521228e6 0.0
2.934923748521228e6 -442618.394144607 0.0
0.0 0.0 0.0

-578055.287192834 3.4076512044286984e6 0.0
3.4076512044286984e6 -563511.9350906985 0.0
0.0 0.0 0.0

-634348.4593369913 4.394560366236531e6 0.0
4.394560366236531e6 -50083.28649159672 0.0
0.0 0.0 0.0

-3.598180108417758e6 500707.92307821236 0.0
500707.92307821236 4.0742931986605413e6 0.0
0.0 0.0 0.0

839780.1134952643 4.661673288255215e6 0.0
4.661673288255215e6 1.637695648797959e6 0.0
0.0 0.0 0.0

-385742.2137919411 2.5084623897322854e6 0.0
2.5084623897322854e6 -1.0917626940288336e6 0.0
0.0 0.0 0.0

-394390.94729161146 3.026421886043743e6 0.0
3.026421886043743e6 -649680.0735380262 0.0
0.0 0.0 0.0

-222758.94835492235 3.896711975563894e6 0.0
3.896711975563894e6 -1.1095128082448123e6 0.0
0.0 0.0 0.0

1.1157692030209932e6 1.8899998402826597e6 0.0
1.8899998402826597e6 -1.8437786885180096e6 0.0
0.0 0.0 0.0

-1.8334321611509195e6 4.300617028747215e6 0.0
4.300617028747215e6 1.2797998677436584e6 0.0
0.0 0.0 0.0

-17214.59738352208 3.986868866358779e6 0.0
3.986868866358779e6 -1.359716072944863e6 0.0
0.0 0.0 0.0

-440905.3029260868 3.5144190018505068e6 0.0
3.5144190018505068e6 -456313.030867691 0.0
0.0 0.0 0.0

-335768.0580831459 3.9004594893392585e6 0.0
3.9004594893392585e6 -944967.4287155857 0.0
0.0 0.0 0.0

31415.607906318444 2.3391502472123145e6 0.0
2.3391502472123145e6 311597.93830989714 0.0
0.0 0.0 0.0

-872614.1957327684 2.862022139305473e6 0.0
2.862022139305473e6 164880.62800404325 0.0
0.0 0.0 0.0

-381072.078896936 3.479649923676217e6 0.0
3.479649923676217e6 712703.3685849844 0.0
0.0 0.0 0.0

1.0978130374828025e6 1.79236062922978e6 0.0
1.79236062922978e6 -1.79344944023486e6 0.0
0.0 0.0 0.0

-1.4551125144004596e6 513041.99831569503 0.0
513041.99831569503 572088.5022665615 0.0
0.0 0.0 0.0

-1.1960271916702278e6 3.12019352503229e6 0.0
3.12019352503229e6 1.762947545360074e6 0.0
0.0 0.0 0.0

-261768.80157990646 3.397868405453852e6 0.0
3.397868405453852e6 -1.0843221773748836e6 0.0
0.0 0.0 0.0

1.1881136105145714e6 5.849314034883729e6 0.0
5.849314034883729e6 -1.7699090956309892e6 0.0
0.0 0.0 0.0

-224050.032157438 3.1621911323406114e6 0.0
3.1621911323406114e6 -1.0057390249446881e6 0.0
0.0 0.0 0.0

-1.9282076400169178e6 4.0778586433838415e6 0.0
4.0778586433838415e6 992360.0140332122 0.0
0.0 0.0 0.0

-1.8714151567321771e6 3.1146734835498864e6 0.0
3.1146734835498864e6 850531.7687976414 0.0
0.0 0.0 0.0

-6.282541196986874e6 4.070519468757212e6 0.0
4.070519468757212e6 5.164935692122928e6 0.0
0.0 0.0 0.0

-128971.38895687263 706745.2525477984 0.0
706745.2525477984 843913.892048079 0.0
0.0 0.0 0.0

-58649.52469743471 -923415.7269965272 0.0
-923415.7269965272 462334.2766267729 0.0
0.0 0.0 0.0

-751074.8432055917 -147648.1465315254 0.0
-147648.1465315254 993929.3510212421 0.0
0.0 0.0 0.0

-2.3876397804985866e6 3.330789643965172e6 0.0
3.330789643965172e6 956984.9975345319 0.0
0.0 0.0 0.0

172959.46718209394 3.21656483805164e6 0.0
3.21656483805164e6 -1.3603416825771339e6 0.0
0.0 0.0 0.0

-954503.1244598741 3.4376234048048393e6 0.0
3.4376234048048393e6 320289.3405304935 0.0
0.0 0.0 0.0

-449026.69620781473 3.287066324069926e6 0.0
3.287066324069926e6 -499524.022799575 0.0
0.0 0.0 0.0

-476383.4684838967 2.659496344040379e6 0.0
2.659496344040379e6 -78068.11104106184 0.0
0.0 0.0 0.0

-1.0498828485836028e6 4.019290354040611e6 0.0
4.019290354040611e6 -74860.5348030153 0.0
0.0 0.0 0.0

-862372.764122793 4.503757644210426e6 0.0
4.503757644210426e6 48067.67924341047 0.0
0.0 0.0 0.0

-814248.12253471 3.725572396303578e6 0.0
3.725572396303578e6 251578.43923194823 0.0
0.0 0.0 0.0

-929360.877069648 3.207860249562753e6 0.0
3.207860249562753e6 513165.1827514602 0.0
0.0 0.0 0.0

-328053.08557535685 3.957126021252512e6 0.0
3.957126021252512e6 -1.199880413970211e6 0.0
0.0 0.0 0.0

-215277.54763645935 2.0968369180736477e6 0.0
2.0968369180736477e6 -113080.80484871147 0.0
0.0 0.0 0.0

-2.4101754042792856e6 3.2162736659125932e6 0.0
3.2162736659125932e6 835149.5075695055 0.0
0.0 0.0 0.0

990660.0744422335 1.691013433754088e6 0.0
1.691013433754088e6 -1.6860296492482214e6 0.0
0.0 0.0 0.0

-3.008260353492399e6 -1.5839711118719862e6 0.0
-1.5839711118719862e6 4.74252330901336e6 0.0
0.0 0.0 0.0

-674485.131648427 4.1593220538224773e6 0.0
4.1593220538224773e6 294015.28324443114 0.0
0.0 0.0 0.0

-2.411169661703085e6 3.2687911124377428e6 0.0
3.2687911124377428e6 1.0214435224604241e6 0.0
0.0 0.0 0.0

-33808.75554297044 3.510353328308973e6 0.0
3.510353328308973e6 -1.6007181690040838e6 0.0
0.0 0.0 0.0

-2.1308752975166645e6 4.376808406717932e6 0.0
4.376808406717932e6 1.1533438190727963e6 0.0
0.0 0.0 0.0

198677.82916340185 2.7251367931906865e6 0.0
2.7251367931906865e6 -1.756526656465318e6 0.0
0.0 0.0 0.0

-95616.63054005083 1.9707881687700097e6 0.0
1.9707881687700097e6 -159399.94957382337 0.0
0.0 0.0 0.0

-3.4041627058736216e6 1.753585009405339e6 0.0
1.753585009405339e6 1.205788557639885e6 0.0
0.0 0.0 0.0

-1.2449052489834747e6 3.911252586451067e6 0.0
3.911252586451067e6 -298438.23296044377 0.0
0.0 0.0 0.0

-970680.9320005752 3.8703680502841114e6 0.0
3.8703680502841114e6 168016.79051208048 0.0
0.0 0.0 0.0

114145.24513793044 -136504.0040166795 0.0
-136504.0040166795 -475246.2178536409 0.0
0.0 0.0 0.0

-1.3855517847049912e6 4.006313584544807e6 0.0
4.006313584544807e6 -157909.9345028851 0.0
0.0 0.0 0.0

-1.0672597019903818e6 4.0496414885398895e6 0.0
4.0496414885398895e6 -108141.8230505377 0.0
0.0 0.0 0.0

1.1352099256680137e6 1.8696836581923196e6 0.0
1.8696836581923196e6 -1.8978544965082016e6 0.0
0.0 0.0 0.0

-525843.6505847012 2.786376157346271e6 0.0
2.786376157346271e6 -394325.02662089956 0.0
0.0 0.0 0.0

-225744.00965656908 3.024315662977403e6 0.0
3.024315662977403e6 -422429.3565477325 0.0
0.0 0.0 0.0

-2.565783536428124e6 5.364921409941024e6 0.0
5.364921409941024e6 1.6972131737934742e6 0.0
0.0 0.0 0.0

376626.1989958787 178046.42040684843 0.0
178046.42040684843 -549103.2709192068 0.0
0.0 0.0 0.0

-296561.8440728463 1.998251019345184e6 0.0
1.998251019345184e6 38995.74489480609 0.0
0.0 0.0 0.0

-2.6989487091420027e6 3.419090806688789e6 0.0
3.419090806688789e6 1.1785993581842075e6 0.0
0.0 0.0 0.0

-979098.4744012142 -913324.5547886488 0.0
-913324.5547886488 1.760593036768618e6 0.0
0.0 0.0 0.0

529233.1834491563 -13456.309556008862 0.0
-13456.309556008862 -483171.75755434553 0.0
0.0 0.0 0.0

860025.2882689476 1.8192118762596685e6 0.0
1.8192118762596685e6 -1.663363392118832e6 0.0
0.0 0.0 0.0

-904934.0753261896 2.9476551865744707e6 0.0
2.9476551865744707e6 191003.6226328691 0.0
0.0 0.0 0.0

-629896.9361049383 765751.5994812222 0.0
765751.5994812222 1.2946122226084706e6 0.0
0.0 0.0 0.0

-590183.6589552949 3.062876994977893e6 0.0
3.062876994977893e6 -389606.7342208619 0.0
0.0 0.0 0.0

-493088.7089819767 3.041255376356064e6 0.0
3.041255376356064e6 -476293.09146202507 0.0
0.0 0.0 0.0

148136.0225681659 3.307675084290797e6 0.0
3.307675084290797e6 -1.701340107870577e6 0.0
0.0 0.0 0.0

-255967.14156455145 3.151209276310793e6 0.0
3.151209276310793e6 -1.1291519090505945e6 0.0
0.0 0.0 0.0

-272742.0271458274 3.934972847907984e6 0.0
3.934972847907984e6 -621514.7206255208 0.0
0.0 0.0 0.0

-715306.1408966775 995051.2742422594 0.0
995051.2742422594 1.195562271378851e6 0.0
0.0 0.0 0.0

-1.9582522059847398e6 4.214928113556625e6 0.0
4.214928113556625e6 962701.726546259 0.0
0.0 0.0 0.0

-1.4125942570908323e6 3.506864346063548e6 0.0
3.506864346063548e6 124722.17191738152 0.0
0.0 0.0 0.0

-2.491693493730045e6 3.3180997797936862e6 0.0
3.3180997797936862e6 941775.4309623867 0.0
0.0 0.0 0.0

1.0960029847849882e6 7.932637862791056e6 0.0
7.932637862791056e6 1.1302256953775903e7 0.0
0.0 0.0 0.0

-1.0313525833740142e6 3.018523162168432e6 0.0
3.018523162168432e6 313263.67996238446 0.0
0.0 0.0 0.0

-450931.30067390786 2.99387462291432e6 0.0
2.99387462291432e6 -549526.2133292377 0.0
0.0 0.0 0.0

-264117.1274250145 3.2241380175562105e6 0.0
3.2241380175562105e6 -1.1054336691182414e6 0.0
0.0 0.0 0.0

-364924.1760433245 3.0905141524054683e6 0.0
3.0905141524054683e6 -684947.5539053008 0.0
0.0 0.0 0.0

-2.302761489310117e6 4.530204236931972e6 0.0
4.530204236931972e6 1.4396157720508277e6 0.0
0.0 0.0 0.0

-855801.0491040358 2.8755172203814806e6 0.0
2.8755172203814806e6 169665.966571501 0.0
0.0 0.0 0.0

-273891.81257006514 3.8400786542691127e6 0.0
3.8400786542691127e6 -858855.309874585 0.0
0.0 0.0 0.0

-322891.5178997563 3.348753725483992e6 0.0
3.348753725483992e6 -1.012681151086391e6 0.0
0.0 0.0 0.0

-272786.3355725954 2.6650109869456473e6 0.0
2.6650109869456473e6 -294656.4556618811 0.0
0.0 0.0 0.0

-3.5235574085170487e6 6.705318882243172e6 0.0
6.705318882243172e6 1.6075757941332704e6 0.0
0.0 0.0 0.0

1.0691688912088606e6 2.504829633368874e6 0.0
2.504829633368874e6 -2.201023662069685e6 0.0
0.0 0.0 0.0

1.9701742059652086e6 4.371831825342023e6 0.0
4.371831825342023e6 687428.9454036094 0.0
0.0 0.0 0.0

86144.34914506902 8.078723319061218e6 0.0
8.078723319061218e6 -3.4567117533646096e6 0.0
0.0 0.0 0.0

-300977.1677312851 3.8214039663014547e6 0.0
3.8214039663014547e6 -277915.7918083636 0.0
0.0 0.0 0.0

-283010.4031232298 3.979618317876324e6 0.0
3.979618317876324e6 -169505.39963714636 0.0
0.0 0.0 0.0

-1.571774248849679e6 3.750441433627513e6 0.0
3.750441433627513e6 -199007.91193768603 0.0
0.0 0.0 0.0

-7.25797748512598e6 1.3207932457476505e6 0.0
1.3207932457476505e6 4.60494341171524e6 0.0
0.0 0.0 0.0

-387397.0425853727 2.707420705613839e6 0.0
2.707420705613839e6 280453.20277610084 0.0
0.0 0.0 0.0

-2.1544105984267606e6 3.8865181154377926e6 0.0
3.8865181154377926e6 1.4347112243436086e6 0.0
0.0 0.0 0.0

-353048.3787284212 3.0242568116785814e6 0.0
3.0242568116785814e6 -743731.0780638657 0.0
0.0 0.0 0.0

970587.7627199924 3.1765349817682556e6 0.0
3.1765349817682556e6 -1.6657470268614932e6 0.0
0.0 0.0 0.0

-429584.64392980485 3.0400833205064707e6 0.0
3.0400833205064707e6 -768573.8300279168 0.0
0.0 0.0 0.0

85513.03004724509 4.645684925352615e6 0.0
4.645684925352615e6 -1.2795070662053367e6 0.0
0.0 0.0 0.0

-298240.3697596682 2.9515566681403713e6 0.0
2.9515566681403713e6 -578789.4359280625 0.0
0.0 0.0 0.0

-256355.2519125528 3.814976591610852e6 0.0
3.814976591610852e6 65712.36240309017 0.0
0.0 0.0 0.0

-400258.17232800054 3.3074197059289953e6 0.0
3.3074197059289953e6 -658090.9583712865 0.0
0.0 0.0 0.0

-325664.7556067497 -53217.29682579087 0.0
-53217.29682579087 284607.72208780743 0.0
0.0 0.0 0.0

-444334.5377419876 -220479.14340099826 0.0
-220479.14340099826 467791.2730710835 0.0
0.0 0.0 0.0

-1.5185071165675262e6 3.381645770374908e6 0.0
3.381645770374908e6 336236.78498685197 0.0
0.0 0.0 0.0

-573529.0474339075 3.332103510898825e6 0.0
3.332103510898825e6 504163.6009745283 0.0
0.0 0.0 0.0

-526312.3572703518 2.6164597265252005e6 0.0
2.6164597265252005e6 -147908.59061998225 0.0
0.0 0.0 0.0

338319.38436015235 296617.5555570294 0.0
296617.5555570294 -561750.4490856824 0.0
0.0 0.0 0.0

-8.940049781777127e6 -954780.9884800757 0.0
-954780.9884800757 9.903358944583317e6 0.0
0.0 0.0 0.0

-1.5371368904461754e6 3.0380269942088304e6 0.0
3.0380269942088304e6 481749.64761463634 0.0
0.0 0.0 0.0

-1.7731017248232602e6 4.064945151590343e6 0.0
4.064945151590343e6 788204.5107313031 0.0
0.0 0.0 0.0

-452657.0889517162 3.422341937674743e6 0.0
3.422341937674743e6 820699.3495295245 0.0
0.0 0.0 0.0

-172166.8542371944 2.593015418832046e6 0.0
2.593015418832046e6 295585.42284567544 0.0
0.0 0.0 0.0

-847200.265046172 4.356971614655437e6 0.0
4.356971614655437e6 230916.1845014576 0.0
0.0 0.0 0.0

-4.0808264842621894e6 -1.7602815250229011e6 0.0
-1.7602815250229011e6 6.233954801806553e6 0.0
0.0 0.0 0.0

-546865.6997944912 4.1788042326343954e6 0.0
4.1788042326343954e6 277.74186179813114 0.0
0.0 0.0 0.0

-2.477770865879866e6 3.1432503501454177e6 0.0
3.1432503501454177e6 793516.5760840432 0.0
0.0 0.0 0.0

-242570.1317481381 2.956894831938676e6 0.0
2.956894831938676e6 -1.1814189802767232e6 0.0
0.0 0.0 0.0

-747887.3016392207 3.7031182127874815e6 0.0
3.7031182127874815e6 479865.43876998534 0.0
0.0 0.0 0.0

-120471.70671038874 852083.4229035052 0.0
852083.4229035052 631463.3576043912 0.0
0.0 0.0 0.0

-1.5893688522740407e6 4.982613595340466e6 0.0
4.982613595340466e6 1.060801795647753e6 0.0
0.0 0.0 0.0

-65296.58832724835 558246.8816564064 0.0
558246.8816564064 -1.1943418393284655e6 0.0
0.0 0.0 0.0

-3.6735431371818003e6 5.051049796745427e6 0.0
5.051049796745427e6 1.7906330039445644e6 0.0
0.0 0.0 0.0

-314611.14380938595 3.1628089641833724e6 0.0
3.1628089641833724e6 -269189.95030458353 0.0
0.0 0.0 0.0

-1.923259126365745e6 3.6107879783479306e6 0.0
3.6107879783479306e6 1.3090572582486249e6 0.0
0.0 0.0 0.0

1.142690735895385e6 1.9041273004663636e6 0.0
1.9041273004663636e6 -2.0135175521682866e6 0.0
0.0 0.0 0.0

-885775.3957249424 4.0474418055925476e6 0.0
4.0474418055925476e6 593297.7199954768 0.0
0.0 0.0 0.0

-1.504345604089513e6 3.475564153335334e6 0.0
3.475564153335334e6 1.9195554985157978e6 0.0
0.0 0.0 0.0

-2.402585395024251e6 3.3270904522896726e6 0.0
3.3270904522896726e6 1.0086376254755328e6 0.0
0.0 0.0 0.0

-389674.60749008943 3.770312463092471e6 0.0
3.770312463092471e6 142061.9688310849 0.0
0.0 0.0 0.0

89635.16758826029 335810.9974948332 0.0
335810.9974948332 -631452.6811919163 0.0
0.0 0.0 0.0

-1.1824258456620418e6 2.5770502248972924e6 0.0
2.5770502248972924e6 2.8570241267089993e6 0.0
0.0 0.0 0.0

-865231.3493557699 4.0683856740333997e6 0.0
4.0683856740333997e6 -149701.55797300162 0.0
0.0 0.0 0.0

-662573.0293336655 4.285632928181222e6 0.0
4.285632928181222e6 95426.25644339048 0.0
0.0 0.0 0.0

-832994.4802878877 3.7837787092638626e6 0.0
3.7837787092638626e6 -90484.17420456337 0.0
0.0 0.0 0.0

-1.37754121312151e6 5.6021162581398515e6 0.0
5.6021162581398515e6 857819.7358926068 0.0
0.0 0.0 0.0

-237807.86877101444 2.507472739050353e6 0.0
2.507472739050353e6 -864999.7828249864 0.0
0.0 0.0 0.0

-987836.7618225892 3.9144776213998226e6 0.0
3.9144776213998226e6 148214.59826132853 0.0
0.0 0.0 0.0

-2.2607045124318455e6 5.582221409427136e6 0.0
5.582221409427136e6 1.114525810329826e6 0.0
0.0 0.0 0.0

-605826.1649692811 2.971146158248672e6 0.0
2.971146158248672e6 -490569.33459676814 0.0
0.0 0.0 0.0

347906.91955580754 1.2306677743553442e6 0.0
1.2306677743553442e6 -1.2300531152453e6 0.0
0.0 0.0 0.0

-430430.8781138812 3.857189160351021e6 0.0
3.857189160351021e6 -357939.7588809943 0.0
0.0 0.0 0.0

-1.877774256204848e6 5.27364992716412e6 0.0
5.27364992716412e6 845598.6657255522 0.0
0.0 0.0 0.0

-253695.67184298925 3.3521150910427845e6 0.0
3.3521150910427845e6 -1.0100486783317706e6 0.0
0.0 0.0 0.0

1.017967376373226e6 1.7423273795629514e6 0.0
1.7423273795629514e6 -1.6954878039639299e6 0.0
0.0 0.0 0.0

-2.4717545280983183e6 -2.5217658880792395e6 0.0
-2.5217658880792395e6 4.695212358791594e6 0.0
0.0 0.0 0.0

-13143.100617285003 3.6776653404460894e6 0.0
3.6776653404460894e6 -1.6939648803593838e6 0.0
0.0 0.0 0.0

-484372.7683887505 3.1029717358033042e6 0.0
3.1029717358033042e6 491022.1109810347 0.0
0.0 0.0 0.0

-585842.2690378255 3.048920673300304e6 0.0
3.048920673300304e6 -466025.3121491632 0.0
0.0 0.0 0.0

-807095.5157465643 4.362033593149171e6 0.0
4.362033593149171e6 -34569.063189253124 0.0
0.0 0.0 0.0

791927.993768715 1.4703412261382008e6 0.0
1.4703412261382008e6 -1.4511103485596802e6 0.0
0.0 0.0 0.0

-421882.6781628582 3.806635541015138e6 0.0
3.806635541015138e6 -422200.8885086976 0.0
0.0 0.0 0.0

-1.0797571704736617e6 2.93989231523415e6 0.0
2.93989231523415e6 1.7403230105019908e6 0.0
0.0 0.0 0.0

-2.6524477246131096e6 7.204698497359767e6 0.0
7.204698497359767e6 1.1632420125242197e6 0.0
0.0 0.0 0.0

-601665.5397169238 3.744581938231664e6 0.0
3.744581938231664e6 -156433.93112217536 0.0
0.0 0.0 0.0

-2.640606682402934e6 3.33317547913419e6 0.0
3.33317547913419e6 4.502262718184036e6 0.0
0.0 0.0 0.0

1.1706854044537223e6 1.8593854157906964e6 0.0
1.8593854157906964e6 -1.832153408062198e6 0.0
0.0 0.0 0.0

-2.3906721028416096e6 4.761528613637683e6 0.0
4.761528613637683e6 1.3893344772261926e6 0.0
0.0 0.0 0.0

-324771.78671715263 3.5676348105172217e6 0.0
3.5676348105172217e6 -343686.0267373319 0.0
0.0 0.0 0.0

-5.589492885598029e6 -1.0473268478126841e6 0.0
-1.0473268478126841e6 4.405475460720941e6 0.0
0.0 0.0 0.0

-1.0270706916995742e6 4.058932556877499e6 0.0
4.058932556877499e6 -110481.53888354209 0.0
0.0 0.0 0.0

445772.6460280858 978632.6497271135 0.0
978632.6497271135 -787607.7338016434 0.0
0.0 0.0 0.0

-170789.5446376317 3.19722570568068e6 0.0
3.19722570568068e6 -1.2723328614099703e6 0.0
0.0 0.0 0.0

-409897.21303955046 3.8176622512208186e6 0.0
3.8176622512208186e6 -269025.35355772765 0.0
0.0 0.0 0.0

-32388.400140295795 4.249959519575399e6 0.0
4.249959519575399e6 -1.5976377030377807e6 0.0
0.0 0.0 0.0

1.1668478015167378e6 1.9645558258816553e6 0.0
1.9645558258816553e6 -1.8533313872334382e6 0.0
0.0 0.0 0.0

278125.2408254299 5.03609760128966e6 0.0
5.03609760128966e6 638686.9125066089 0.0
0.0 0.0 0.0

-1.7441736999936517e7 4.693596572042742e6 0.0
4.693596572042742e6 6.103895992898224e6 0.0
0.0 0.0 0.0

-1.2070342754495884e6 3.3769794647294963e6 0.0
3.3769794647294963e6 2.167060550353978e6 0.0
0.0 0.0 0.0

-1.302838849919707e6 3.3923249036896545e6 0.0
3.3923249036896545e6 273807.8761388578 0.0
0.0 0.0 0.0

-815584.2465718912 3.927070017873367e6 0.0
3.927070017873367e6 75159.33323017292 0.0
0.0 0.0 0.0

1.0095416672941435e6 1.7399194314717634e6 0.0
1.7399194314717634e6 -1.6578207323599467e6 0.0
0.0 0.0 0.0

-873382.0337679011 4.108666008251825e6 0.0
4.108666008251825e6 -159652.50094485533 0.0
0.0 0.0 0.0

-2.464896547244805e6 4.882768865889882e6 0.0
4.882768865889882e6 1.5005704017379712e6 0.0
0.0 0.0 0.0

-32268.110254878353 3.9268173303437345e6 0.0
3.9268173303437345e6 -1.391254592341022e6 0.0
0.0 0.0 0.0

-1.9647935282214633e6 3.508493483324073e6 0.0
3.508493483324073e6 1.11748505858836e6 0.0
0.0 0.0 0.0

-113290.32739895306 572959.2600137688 0.0
572959.2600137688 -1.1627212372711692e6 0.0
0.0 0.0 0.0

-1.3401022987549922e6 3.0020659354266315e6 0.0
3.0020659354266315e6 1.6762933048412506e6 0.0
0.0 0.0 0.0

-1.0063271075589402e6 4.261083279553421e6 0.0
4.261083279553421e6 -225125.31259359157 0.0
0.0 0.0 0.0

-630509.6838551492 2.9332879410033245e6 0.0
2.9332879410033245e6 -230822.74944089566 0.0
0.0 0.0 0.0

-1.9159182700994983e6 3.1024850563684544e6 0.0
3.1024850563684544e6 816231.5510134856 0.0
0.0 0.0 0.0

-78627.55609691946 3.3026386908223177e6 0.0
3.3026386908223177e6 -1.3097731902471157e6 0.0
0.0 0.0 0.0

-1.1177902660417934e6 -1.0117167148280084e6 0.0
-1.0117167148280084e6 1.4448253940948597e6 0.0
0.0 0.0 0.0

-477786.1808588763 3.032918383620405e6 0.0
3.032918383620405e6 -657460.4401756144 0.0
0.0 0.0 0.0

-426602.7889894648 3.749002682561044e6 0.0
3.749002682561044e6 -495531.5529560761 0.0
0.0 0.0 0.0

-481912.07228483073 1.8340201458604536e6 0.0
1.8340201458604536e6 -201803.02298945966 0.0
0.0 0.0 0.0

910177.7644112677 1.7465508530636115e6 0.0
1.7465508530636115e6 -1.551305728430417e6 0.0
0.0 0.0 0.0

-359142.2720627353 3.217632298946361e6 0.0
3.217632298946361e6 -701849.2719008385 0.0
0.0 0.0 0.0

-1.0036981063343843e6 3.998335674758354e6 0.0
3.998335674758354e6 -40519.83894763852 0.0
0.0 0.0 0.0

-2.3166884506801e6 4.1049551937435125e6 0.0
4.1049551937435125e6 1.3944220906763535e6 0.0
0.0 0.0 0.0

-926652.291690919 3.1530340076466217e6 0.0
3.1530340076466217e6 400640.48460285773 0.0
0.0 0.0 0.0

-281227.15413718077 2.807307398205205e6 0.0
2.807307398205205e6 162866.02019046337 0.0
0.0 0.0 0.0

-6.097324457685502e6 -893784.5821968281 0.0
-893784.5821968281 5.69066849217663e6 0.0
0.0 0.0 0.0

70536.70951877406 -94435.83204356907 0.0
-94435.83204356907 -535671.9328294 0.0
0.0 0.0 0.0

-404483.1485428938 3.804625215096456e6 0.0
3.804625215096456e6 -964244.3490187575 0.0
0.0 0.0 0.0

-363257.24802379217 4.1350527212370774e6 0.0
4.1350527212370774e6 -314853.62567034643 0.0
0.0 0.0 0.0

-2.9182445751479613e6 3.3102137994682384e6 0.0
3.3102137994682384e6 1.2067007458075068e6 0.0
0.0 0.0 0.0

91396.20810413145 4.635268620829562e6 0.0
4.635268620829562e6 -1.0511283680294887e6 0.0
0.0 0.0 0.0

-822022.4786202948 4.252806578674333e6 0.0
4.252806578674333e6 -106433.60296635717 0.0
0.0 0.0 0.0

-741202.864347455 3.910475023820974e6 0.0
3.910475023820974e6 81200.10048444945 0.0
0.0 0.0 0.0

-440041.36174677406 2.5103352582950727e6 0.0
2.5103352582950727e6 -475275.2639388441 0.0
0.0 0.0 0.0

-671974.6141001111 3.9239053692482947e6 0.0
3.9239053692482947e6 -42863.53093255 0.0
0.0 0.0 0.0

-136512.57021800362 3.836098375909732e6 0.0
3.836098375909732e6 -479791.08878948353 0.0
0.0 0.0 0.0

-2.270557646798142e6 4.077184220754987e6 0.0
4.077184220754987e6 1.4461219292813526e6 0.0
0.0 0.0 0.0

603341.7199621142 2.6213629428805206e6 0.0
2.6213629428805206e6 -1.342254873274771e6 0.0
0.0 0.0 0.0

1.1348937704051044e6 1.869250613829727e6 0.0
1.869250613829727e6 -1.8068206679497426e6 0.0
0.0 0.0 0.0

-689333.5192832144 97987.86143233425 0.0
97987.86143233425 608213.961318858 0.0
0.0 0.0 0.0

-533402.3538261846 262287.0588842971 0.0
262287.0588842971 124481.8230540943 0.0
0.0 0.0 0.0

-834827.0044526937 3.2670466530897706e6 0.0
3.2670466530897706e6 1.0935162052296423e6 0.0
0.0 0.0 0.0

-164049.72128353844 4.0973091628879467e6 0.0
4.0973091628879467e6 -612810.7312550868 0.0
0.0 0.0 0.0

-320098.2848739693 3.779255437309921e6 0.0
3.779255437309921e6 -467311.0609001239 0.0
0.0 0.0 0.0

1.5087847475418323e6 445987.60730810935 0.0
445987.60730810935 -1.8058487348740515e6 0.0
0.0 0.0 0.0

-476472.81393574766 3.870350359978261e6 0.0
3.870350359978261e6 -257253.7713048346 0.0
0.0 0.0 0.0

483205.6304634043 676098.0428586226 0.0
676098.0428586226 -603290.1387142787 0.0
0.0 0.0 0.0

-655333.5127249196 3.8245396293579536e6 0.0
3.8245396293579536e6 -25077.42834166999 0.0
0.0 0.0 0.0

-506481.4284915692 1.1393964643258734e6 0.0
1.1393964643258734e6 1.3782641287585185e6 0.0
0.0 0.0 0.0

-1.663315268188022e6 4.1407653633077866e6 0.0
4.1407653633077866e6 1.0867773589723706e6 0.0
0.0 0.0 0.0

-1.7434099019811903e6 5.308438564276858e6 0.0
5.308438564276858e6 1.2760042638793802e6 0.0
0.0 0.0 0.0

758087.3805627599 1.7760852749201457e6 0.0
1.7760852749201457e6 -1.5991080663919246e6 0.0
0.0 0.0 0.0

887388.9540297367 1.708223197772335e6 0.0
1.708223197772335e6 -1.653675951441939e6 0.0
0.0 0.0 0.0

-293223.7557466992 4.428052692068938e6 0.0
4.428052692068938e6 -406120.5991737061 0.0
0.0 0.0 0.0

-334014.03799878346 3.763857227645398e6 0.0
3.763857227645398e6 -148405.8077532053 0.0
0.0 0.0 0.0

-531721.50207576 2.9980041716258763e6 0.0
2.9980041716258763e6 -549668.5591597123 0.0
0.0 0.0 0.0

-160095.6520638371 -982896.6445616413 0.0
-982896.6445616413 355445.1764781969 0.0
0.0 0.0 0.0

-2.8148184604553794e6 3.4425252282542866e6 0.0
3.4425252282542866e6 1.1798725876053108e6 0.0
0.0 0.0 0.0

-392878.353882438 2.146356260912443e6 0.0
2.146356260912443e6 -114969.38860656091 0.0
0.0 0.0 0.0

278683.3192480055 69267.89694357163 0.0
69267.89694357163 -263255.9000062749 0.0
0.0 0.0 0.0

-1.1069765995719568e6 2.4836072987286807e6 0.0
2.4836072987286807e6 348928.39627413393 0.0
0.0 0.0 0.0

1.1692658300338122e6 1.8582661712836754e6 0.0
1.8582661712836754e6 -1.8254908293739473e6 0.0
0.0 0.0 0.0

-1.7221998471033764e6 3.3697675105470656e6 0.0
3.3697675105470656e6 184878.3166455658 0.0
0.0 0.0 0.0

-1.752893732545907e6 3.486356714165261e6 0.0
3.486356714165261e6 1.17242129732629e6 0.0
0.0 0.0 0.0

14563.214470410196 3.513684285694349e6 0.0
3.513684285694349e6 -1.4261524755182597e6 0.0
0.0 0.0 0.0

24940.27630895462 3.441820852132254e6 0.0
3.441820852132254e6 21446.059133403804 0.0
0.0 0.0 0.0

-1.3920289250798167e6 3.6609296089242413e6 0.0
3.6609296089242413e6 67319.48211416713 0.0
0.0 0.0 0.0

-220009.21191724067 -689504.4548060504 0.0
-689504.4548060504 340662.86342100985 0.0
0.0 0.0 0.0

233904.99999368668 20319.480034989803 0.0
20319.480034989803 -301600.871122002 0.0
0.0 0.0 0.0

-371758.3792671106 3.7782306788279484e6 0.0
3.7782306788279484e6 -433250.60367728985 0.0
0.0 0.0 0.0

-1.0909485860175993e6 3.313008127788787e6 0.0
3.313008127788787e6 396953.27366395196 0.0
0.0 0.0 0.0

-1.101148734184104e6 3.4733429652242768e6 0.0
3.4733429652242768e6 402071.22244967415 0.0
0.0 0.0 0.0

-2.441969629979428e6 -1.0232252801018342e6 0.0
-1.0232252801018342e6 3.803488697953679e6 0.0
0.0 0.0 0.0

807777.617350536 794969.9764056279 0.0
794969.9764056279 -1.258578302305095e6 0.0
0.0 0.0 0.0

-898922.967095688 4.266613900717886e6 0.0
4.266613900717886e6 -316474.4818091166 0.0
0.0 0.0 0.0

-1.5035226271178976e6 4.934887703676139e6 0.0
4.934887703676139e6 -281104.2175210385 0.0
0.0 0.0 0.0

-6.730567868390178e6 2.6876133254913874e6 0.0
2.6876133254913874e6 3.6682648694069996e6 0.0
0.0 0.0 0.0

-2.6894027114667417e6 4.473241940736473e6 0.0
4.473241940736473e6 1.5713863704724307e6 0.0
0.0 0.0 0.0

-190194.94902289807 3.943660300992928e6 0.0
3.943660300992928e6 -562204.5462544649 0.0
0.0 0.0 0.0

-204593.1744352563 -832460.7353222627 0.0
-832460.7353222627 376007.5493915542 0.0
0.0 0.0 0.0

-329160.99285881897 4.197242302493641e6 0.0
4.197242302493641e6 -349310.43074631784 0.0
0.0 0.0 0.0

-972157.498083419 2.607625821825608e6 0.0
2.607625821825608e6 191573.53735921183 0.0
0.0 0.0 0.0

-203193.44922352483 78006.41624558353 0.0
78006.41624558353 243770.04982286418 0.0
0.0 0.0 0.0

-1.0331726394303972e6 3.2506121388619496e6 0.0
3.2506121388619496e6 156565.32161332632 0.0
0.0 0.0 0.0

-1.1106833251469033e6 3.556380291878712e6 0.0
3.556380291878712e6 136877.6163113283 0.0
0.0 0.0 0.0

-34584.194591827865 387850.7493013653 0.0
387850.7493013653 -356285.12008904 0.0
0.0 0.0 0.0

974353.4949969696 1.7104756779837338e6 0.0
1.7104756779837338e6 -1.6958586688766624e6 0.0
0.0 0.0 0.0

784574.3531676935 3.380360523299166e6 0.0
3.380360523299166e6 -1.9350530345668914e6 0.0
0.0 0.0 0.0

-1.207346360726318e6 2.8330538525991873e6 0.0
2.8330538525991873e6 1.3534702033471945e6 0.0
0.0 0.0 0.0

867636.6339117382 947723.2859939053 0.0
947723.2859939053 -708789.9994566634 0.0
0.0 0.0 0.0

-825346.1120301585 6.622843004509846e6 0.0
6.622843004509846e6 432208.9202952164 0.0
0.0 0.0 0.0

1.0191696934296234e6 1.7128770681504125e6 0.0
1.7128770681504125e6 -1.7068608493510976e6 0.0
0.0 0.0 0.0

942744.6933908382 1.1696072548754406e6 0.0
1.1696072548754406e6 -1.6387204121255262e6 0.0
0.0 0.0 0.0

918216.9615304231 1.626085116343792e6 0.0
1.626085116343792e6 -1.5338345190092446e6 0.0
0.0 0.0 0.0

-296501.2823313946 3.7932674690015395e6 0.0
3.7932674690015395e6 -522881.1751331173 0.0
0.0 0.0 0.0

-249040.74446570413 3.9468261711441646e6 0.0
3.9468261711441646e6 -581615.1740266946 0.0
0.0 0.0 0.0

-118682.77036611392 3.2455565373723125e6 0.0
3.2455565373723125e6 -1.378572414199051e6 0.0
0.0 0.0 0.0

-1.2677474472186742e6 6.638756775750856e6 0.0
6.638756775750856e6 422206.9389001126 0.0
0.0 0.0 0.0

-112687.65293718639 80014.82015958132 0.0
80014.82015958132 335980.3932563256 0.0
0.0 0.0 0.0

-1.0411088766734471e6 3.5671991260324297e6 0.0
3.5671991260324297e6 352764.60706985224 0.0
0.0 0.0 0.0

-2.5768750203456003e6 3.435922968322463e6 0.0
3.435922968322463e6 1.139789654296788e6 0.0
0.0 0.0 0.0

-1.8313945845310553e6 4.1518082355208257e6 0.0
4.1518082355208257e6 1.2422772595617021e6 0.0
0.0 0.0 0.0

519728.92175857275 60684.40994656222 0.0
60684.40994656222 -567830.7058654596 0.0
0.0 0.0 0.0

458725.6790490494 187508.92367830675 0.0
187508.92367830675 -445438.9407979405 0.0
0.0 0.0 0.0

-120218.64596726981 3.9819408438129704e6 0.0
3.9819408438129704e6 -295626.01877755637 0.0
0.0 0.0 0.0

-84092.16769723812 211752.7119195062 0.0
211752.7119195062 -478548.4318720494 0.0
0.0 0.0 0.0

-894208.3008877963 4.272362226176121e6 0.0
4.272362226176121e6 46673.898788003426 0.0
0.0 0.0 0.0

-1.0001325521821781e6 3.2234062435343196e6 0.0
3.2234062435343196e6 62656.67571973259 0.0
0.0 0.0 0.0

-294588.2913851013 3.2215909751558644e6 0.0
3.2215909751558644e6 -839100.5017810232 0.0
0.0 0.0 0.0

-1.9161919456996294e6 3.1115602601347454e6 0.0
3.1115602601347454e6 868523.39943213 0.0
0.0 0.0 0.0

-991210.8120481458 3.052419120304484e6 0.0
3.052419120304484e6 166696.53565583355 0.0
0.0 0.0 0.0

-335668.55354555725 3.037475550049147e6 0.0
3.037475550049147e6 -297234.9762831583 0.0
0.0 0.0 0.0

-3.9785667783136205e6 2.1160704049380794e6 0.0
2.1160704049380794e6 1.5275851430565452e6 0.0
0.0 0.0 0.0

824802.999259153 1.1019495522028056e6 0.0
1.1019495522028056e6 -1.8834477115125088e6 0.0
0.0 0.0 0.0

-520494.9926838742 2.9271589324689643e6 0.0
2.9271589324689643e6 -448614.302568194 0.0
0.0 0.0 0.0

1.2019353778568883e6 2.5834758090347336e6 0.0
2.5834758090347336e6 -2.0430284236116828e6 0.0
0.0 0.0 0.0

-936898.3088714909 3.8602706669040318e6 0.0
3.8602706669040318e6 5668.864148946712 0.0
0.0 0.0 0.0

-446324.45830227406 2.6709840792561737e6 0.0
2.6709840792561737e6 -134137.12366166853 0.0
0.0 0.0 0.0

-522058.96256648004 2.444106950673716e6 0.0
2.444106950673716e6 -962142.7769792398 0.0
0.0 0.0 0.0

-285079.116917423 4.2728505475475e6 0.0
4.2728505475475e6 1.7138109012966743e6 0.0
0.0 0.0 0.0

436073.4534074237 279497.9292027752 0.0
279497.9292027752 -475220.784129213 0.0
0.0 0.0 0.0

-1.456197026501645e6 3.490697608745458e6 0.0
3.490697608745458e6 2.2047203809699295e6 0.0
0.0 0.0 0.0

-1.2579128431569315e6 3.295155441717036e6 0.0
3.295155441717036e6 1.126981739707862e6 0.0
0.0 0.0 0.0

-1.0204710247979781e6 2.1136755514025837e6 0.0
2.1136755514025837e6 -151763.3144160458 0.0
0.0 0.0 0.0

-2.603004320908216e6 5.790467152552711e6 0.0
5.790467152552711e6 1.3430356567188313e6 0.0
0.0 0.0 0.0

-1.6884139780967785e6 3.454632241538427e6 0.0
3.454632241538427e6 719683.5258455403 0.0
0.0 0.0 0.0

-597490.0744342371 2.504466757497547e6 0.0
2.504466757497547e6 -51564.76946063331 0.0
0.0 0.0 0.0

1.0098587951544003e6 3.052486312729948e6 0.0
3.052486312729948e6 -1.9373475141715151e6 0.0
0.0 0.0 0.0

398656.530442779 243433.5521682229 0.0
243433.5521682229 -525013.7321181988 0.0
0.0 0.0 0.0

-596902.8239900582 4.074563562069585e6 0.0
4.074563562069585e6 93152.21469166173 0.0
0.0 0.0 0.0

-358719.3066952798 2.4562272687123106e6 0.0
2.4562272687123106e6 840673.5209210452 0.0
0.0 0.0 0.0

-2.7163402625998477e6 1.611598564499145e6 0.0
1.611598564499145e6 2.3301099554121504e6 0.0
0.0 0.0 0.0

-856246.0115584091 3.774661758738327e6 0.0
3.774661758738327e6 166105.66830757132 0.0
0.0 0.0 0.0

-1.6534492045263655e6 3.3464874485157374e6 0.0
3.3464874485157374e6 438313.94444940495 0.0
0.0 0.0 0.0

-4.387265541692193e6 2.0206293295212344e6 0.0
2.0206293295212344e6 1.3996857969250078e6 0.0
0.0 0.0 0.0

-644933.3983748453 788829.4770201702 0.0
788829.4770201702 401343.1306565926 0.0
0.0 0.0 0.0

-1.4923388437159823e6 3.3083913794821184e6 0.0
3.3083913794821184e6 396857.6869415323 0.0
0.0 0.0 0.0

-1.561680057233375e6 3.264356726701717e6 0.0
3.264356726701717e6 818960.78078355 0.0
0.0 0.0 0.0

-1.3129997185225883e6 3.235962175687606e6 0.0
3.235962175687606e6 1.9249944604810467e6 0.0
0.0 0.0 0.0

-1.9021533219729462e6 3.912624723753844e6 0.0
3.912624723753844e6 918884.9818313078 0.0
0.0 0.0 0.0

699844.9165331621 652879.2433301104 0.0
652879.2433301104 -1.975757768047028e6 0.0
0.0 0.0 0.0

-802244.2707868085 2.952252294999488e6 0.0
2.952252294999488e6 -248627.53261615036 0.0
0.0 0.0 0.0

461174.3975556479 243993.94267113815 0.0
243993.94267113815 -325216.6560580209 0.0
0.0 0.0 0.0

979810.2742331048 1.72881879645984e6 0.0
1.72881879645984e6 -1.6432253992597836e6 0.0
0.0 0.0 0.0

1.2579949652222386e6 3.003254025400219e6 0.0
3.003254025400219e6 -1.862813158686881e6 0.0
0.0 0.0 0.0

-599227.4382534223 3.2480973624146148e6 0.0
3.2480973624146148e6 971170.7790959671 0.0
0.0 0.0 0.0

-379048.8421346903 3.259649490833175e6 0.0
3.259649490833175e6 -680083.9639464036 0.0
0.0 0.0 0.0

-583220.5454212184 2.493495640768992e6 0.0
2.493495640768992e6 10898.859488930466 0.0
0.0 0.0 0.0

925634.9888832136 1.645199821199264e6 0.0
1.645199821199264e6 -1.595864930705897e6 0.0
0.0 0.0 0.0

-305056.4703770663 3.0596506228607097e6 0.0
3.0596506228607097e6 -846275.3080005391 0.0
0.0 0.0 0.0

-330968.41076114704 3.18811889765406e6 0.0
3.18811889765406e6 -935895.7425547334 0.0
0.0 0.0 0.0

-705511.4727743489 2.4544556567586763e6 0.0
2.4544556567586763e6 147386.284125471 0.0
0.0 0.0 0.0

-1.5212770616517144e6 870867.681708926 0.0
870867.681708926 970357.3845619548 0.0
0.0 0.0 0.0

438050.815415729 188564.52731354194 0.0
188564.52731354194 -412296.21117432485 0.0
0.0 0.0 0.0

-429217.2860869977 3.2305916085525863e6 0.0
3.2305916085525863e6 -717031.3500424436 0.0
0.0 0.0 0.0

248864.52244409188 1.8360346156389327e6 0.0
1.8360346156389327e6 -16219.642075231517 0.0
0.0 0.0 0.0

-1.4141754718073942e6 3.450209605900589e6 0.0
3.450209605900589e6 2.2965843051416073e6 0.0
0.0 0.0 0.0

-1.1670389641650394e6 3.269451913422837e6 0.0
3.269451913422837e6 132051.3354289914 0.0
0.0 0.0 0.0

644782.8739411454 499406.9359042533 0.0
499406.9359042533 -2.0488890220241137e6 0.0
0.0 0.0 0.0

-43855.434102224215 -16014.432702630895 0.0
-16014.432702630895 739873.8988431605 0.0
0.0 0.0 0.0

-2.2801191440522443e6 3.317907931167458e6 0.0
3.317907931167458e6 1.0020075589641392e6 0.0
0.0 0.0 0.0

-1.6089577018170622e6 3.0793774991980656e6 0.0
3.0793774991980656e6 164868.05673772085 0.0
0.0 0.0 0.0

399519.52554465353 360827.9555273858 0.0
360827.9555273858 -666600.7585652802 0.0
0.0 0.0 0.0

-137774.0449287205 256462.18195546194 0.0
256462.18195546194 3631.129322160632 0.0
0.0 0.0 0.0

-46696.20893280732 3.4687355895737885e6 0.0
3.4687355895737885e6 -1.4591795445599733e6 0.0
0.0 0.0 0.0

-745761.3393197595 2.501569299275729e6 0.0
2.501569299275729e6 409500.97645038617 0.0
0.0 0.0 0.0

-413617.1432525636 48558.29449292293 0.0
48558.29449292293 1.258705609049039e6 0.0
0.0 0.0 0.0

-7.868225177465305e6 -425945.4288007299 0.0
-425945.4288007299 5.350922746444318e6 0.0
0.0 0.0 0.0

-334449.97324837267 2.381457134184123e6 0.0
2.381457134184123e6 -792880.2871589842 0.0
0.0 0.0 0.0

-101297.41220763301 3.9417217556468123e6 0.0
3.9417217556468123e6 -538674.6456124684 0.0
0.0 0.0 0.0

1.1749704940112033e6 1.8692633141679456e6 0.0
1.8692633141679456e6 -1.7965685772860465e6 0.0
0.0 0.0 0.0

-2.0832068355413517e6 3.2882135084787416e6 0.0
3.2882135084787416e6 3.0675719304848285e6 0.0
0.0 0.0 0.0

-573259.8042234429 30159.325353946995 0.0
30159.325353946995 724657.0904760777 0.0
0.0 0.0 0.0

-362803.8214507167 376296.1041254092 0.0
376296.1041254092 -249074.62454863457 0.0
0.0 0.0 0.0

-1.5153294692262658e6 3.2891567699214662e6 0.0
3.2891567699214662e6 794322.3019487528 0.0
0.0 0.0 0.0

-2.0852919849204128e6 3.236179162696458e6 0.0
3.236179162696458e6 982193.730182308 0.0
0.0 0.0 0.0

-858410.190827232 2.8274949961813143e6 0.0
2.8274949961813143e6 274168.95108990744 0.0
0.0 0.0 0.0

-1.5482513799230738e6 3.288467501588769e6 0.0
3.288467501588769e6 175352.10180431965 0.0
0.0 0.0 0.0

-1.5177041932469832e6 3.042387995656612e6 0.0
3.042387995656612e6 561813.1767421897 0.0
0.0 0.0 0.0

-497449.70005437266 -847363.7059336267 0.0
-847363.7059336267 735728.0937203787 0.0
0.0 0.0 0.0

933.8477821460401 4.1795654810690763e6 0.0
4.1795654810690763e6 -500802.45910511795 0.0
0.0 0.0 0.0

-426315.8248987673 3.0793749360351427e6 0.0
3.0793749360351427e6 -585032.6745273195 0.0
0.0 0.0 0.0

-2.65036954532557e6 3.1219653344090064e6 0.0
3.1219653344090064e6 1.6657106952532541e6 0.0
0.0 0.0 0.0

-7830.3585856360005 146030.30709662294 0.0
146030.30709662294 -285777.1309628139 0.0
0.0 0.0 0.0

-2.6254483543343665e6 3.241434658411174e6 0.0
3.241434658411174e6 980362.9244107798 0.0
0.0 0.0 0.0

-247900.9499824061 3.9093644378372356e6 0.0
3.9093644378372356e6 -523244.2813199062 0.0
0.0 0.0 0.0

-1.0479326702908209e6 1.1281207126178993e6 0.0
1.1281207126178993e6 1.5261914067557596e6 0.0
0.0 0.0 0.0

197105.96068350092 3.284291797205905e6 0.0
3.284291797205905e6 -1.5271474972180177e6 0.0
0.0 0.0 0.0

-531463.6262677534 2.5492927410060926e6 0.0
2.5492927410060926e6 -13093.401578319288 0.0
0.0 0.0 0.0

1.1174618583832104e6 168068.58825114075 0.0
168068.58825114075 -1.1831175510876314e6 0.0
0.0 0.0 0.0

970431.7330057439 1.7858813230423976e6 0.0
1.7858813230423976e6 -1.6723468163252685e6 0.0
0.0 0.0 0.0

-719141.5536582473 4.342166568117617e6 0.0
4.342166568117617e6 348088.2985584192 0.0
0.0 0.0 0.0

-1.6681768909345982e6 3.0517152497458407e6 0.0
3.0517152497458407e6 525765.7858300975 0.0
0.0 0.0 0.0

-2.1193817323302138e6 3.165569000660409e6 0.0
3.165569000660409e6 903604.3423281761 0.0
0.0 0.0 0.0

-793652.3044581212 3.8798635926403925e6 0.0
3.8798635926403925e6 -110348.08019509428 0.0
0.0 0.0 0.0

960470.3112174487 1.6273887323392255e6 0.0
1.6273887323392255e6 -1.629597154482601e6 0.0
0.0 0.0 0.0

780758.8578911326 317314.0353412714 0.0
317314.0353412714 -1.8709354993758553e6 0.0
0.0 0.0 0.0

870368.1988298851 1.763927024607847e6 0.0
1.763927024607847e6 -1.6821670135906963e6 0.0
0.0 0.0 0.0

-369032.05602546444 463281.8993225875 0.0
463281.8993225875 13934.829469715289 0.0
0.0 0.0 0.0

-1.118022452178832e6 3.4348042015947993e6 0.0
3.4348042015947993e6 2.06115716168899e6 0.0
0.0 0.0 0.0

-3.023924796218685e6 2.9777120428394815e6 0.0
2.9777120428394815e6 1.0627773204481623e6 0.0
0.0 0.0 0.0

18986.624090099955 -469076.8806519551 0.0
-469076.8806519551 348757.0294894653 0.0
0.0 0.0 0.0

936652.5263365925 3.2282828369084885e6 0.0
3.2282828369084885e6 -1.525342559858168e6 0.0
0.0 0.0 0.0

-778938.711024525 3.802087962324547e6 0.0
3.802087962324547e6 96781.49236621766 0.0
0.0 0.0 0.0

-779505.2736229342 3.83048318060017e6 0.0
3.83048318060017e6 560873.9489318666 0.0
0.0 0.0 0.0

917415.4626397551 2.144948702386045e6 0.0
2.144948702386045e6 -1.9840859585665301e6 0.0
0.0 0.0 0.0

-2.764150743144199e6 2.6077729222679455e6 0.0
2.6077729222679455e6 771193.8399507235 0.0
0.0 0.0 0.0

-1.3284806000112682e6 3.2802862812529593e6 0.0
3.2802862812529593e6 2.050441110458608e6 0.0
0.0 0.0 0.0

-4.496530164785953e6 1.4977775012627176e6 0.0
1.4977775012627176e6 859533.5801451153 0.0
0.0 0.0 0.0

-449174.6869665479 3.517185888103928e6 0.0
3.517185888103928e6 227663.18203646207 0.0
0.0 0.0 0.0

245384.26312957762 3.012804969272198e6 0.0
3.012804969272198e6 -1.4531825165593904e6 0.0
0.0 0.0 0.0

2.0685795682770028e6 5.416726079255622e6 0.0
5.416726079255622e6 893109.714744446 0.0
0.0 0.0 0.0

-1.4849761596858806e6 3.939545732289207e6 0.0
3.939545732289207e6 2.798548817367622e6 0.0
0.0 0.0 0.0

300232.8008421669 309226.6457270456 0.0
309226.6457270456 -16589.942933648577 0.0
0.0 0.0 0.0

-189452.27550495195 3.963903780837352e6 0.0
3.963903780837352e6 -554919.2413524591 0.0
0.0 0.0 0.0

-116843.06300297554 3.911645156282577e6 0.0
3.911645156282577e6 -1.3701221060236879e6 0.0
0.0 0.0 0.0

-618739.6926979147 4.378753422682934e6 0.0
4.378753422682934e6 15679.334011747298 0.0
0.0 0.0 0.0

-1.0030852653688014e6 2.9683917827867293e6 0.0
2.9683917827867293e6 219603.09744965215 0.0
0.0 0.0 0.0

-209615.17616877798 -161437.21834064988 0.0
-161437.21834064988 265570.45377773035 0.0
0.0 0.0 0.0

-3.0342995298096016e6 2.5972280156590873e6 0.0
2.5972280156590873e6 894044.8837133115 0.0
0.0 0.0 0.0

-871777.6534188804 4.0764685261283936e6 0.0
4.0764685261283936e6 -193813.10573808 0.0
0.0 0.0 0.0

-1.9700931884351673e6 3.1447212163888905e6 0.0
3.1447212163888905e6 856157.115471351 0.0
0.0 0.0 0.0

-1.6924919739633794e6 4.834729472250435e6 0.0
4.834729472250435e6 1.1138871075584246e6 0.0
0.0 0.0 0.0

-2.3115534437905606e6 3.34069121385091e6 0.0
3.34069121385091e6 1.0208540355551029e6 0.0
0.0 0.0 0.0

-193638.3736754382 3.8233407106574075e6 0.0
3.8233407106574075e6 -519779.00077945855 0.0
0.0 0.0 0.0

-283640.9408439707 3.793539963252311e6 0.0
3.793539963252311e6 -303523.66859104246 0.0
0.0 0.0 0.0

-320036.16335854924 3.719999681086276e6 0.0
3.719999681086276e6 -582261.4720519452 0.0
0.0 0.0 0.0

-713547.5926907616 3.1986198153704507e6 0.0
3.1986198153704507e6 -778728.0689102572 0.0
0.0 0.0 0.0

-340942.3028481762 3.7101735998795647e6 0.0
3.7101735998795647e6 -494994.3516747343 0.0
0.0 0.0 0.0

-1.6543373259038634e6 3.062957393341345e6 0.0
3.062957393341345e6 603974.1454719602 0.0
0.0 0.0 0.0

-2.1436128218695456e6 1.7383337669235424e6 0.0
1.7383337669235424e6 4.225707132045573e6 0.0
0.0 0.0 0.0

-686082.986708988 3.1667701613259325e6 0.0
3.1667701613259325e6 -98460.59060773846 0.0
0.0 0.0 0.0

-326094.51973383006 3.0418823629910336e6 0.0
3.0418823629910336e6 -898118.3105515754 0.0
0.0 0.0 0.0

998166.9510961447 1.7060218406657174e6 0.0
1.7060218406657174e6 -1.690612072239051e6 0.0
0.0 0.0 0.0

-1.6387444754985422e6 3.6924718253728603e6 0.0
3.6924718253728603e6 2.5142067472265894e6 0.0
0.0 0.0 0.0

-417056.0584184873 3.876137735749535e6 0.0
3.876137735749535e6 -304380.8432370073 0.0
0.0 0.0 0.0

-571864.9267581773 2.0984154577119933e6 0.0
2.0984154577119933e6 443403.2197233166 0.0
0.0 0.0 0.0

-860728.463120355 2.835185976040534e6 0.0
2.835185976040534e6 195440.09413746605 0.0
0.0 0.0 0.0

-1.073969095875319e6 4.20743208918484e6 0.0
4.20743208918484e6 192645.89908397978 0.0
0.0 0.0 0.0

-432602.30370570475 2.3406405073909466e6 0.0
2.3406405073909466e6 459916.1178267611 0.0
0.0 0.0 0.0

-620859.1265357195 1.2169198688110611e6 0.0
1.2169198688110611e6 987212.1246961595 0.0
0.0 0.0 0.0

-356729.8206945532 2.9921635779467328e6 0.0
2.9921635779467328e6 -294752.40956859366 0.0
0.0 0.0 0.0

505831.6130255618 103679.81332039909 0.0
103679.81332039909 -559331.4248837547 0.0
0.0 0.0 0.0

-1.0364055716699978e6 3.2705609424503376e6 0.0
3.2705609424503376e6 390456.871338304 0.0
0.0 0.0 0.0

-99038.26877898775 4.484669208568071e6 0.0
4.484669208568071e6 -1.4826563280674298e6 0.0
0.0 0.0 0.0

-170275.72658033806 3.1796285776039395e6 0.0
3.1796285776039395e6 -1.2932811023231505e6 0.0
0.0 0.0 0.0

-4.247409613763929e6 3.4087316253630407e6 0.0
3.4087316253630407e6 1.2057105925706897e6 0.0
0.0 0.0 0.0

-717061.6138983669 -357003.5827477218 0.0
-357003.5827477218 1.5583932480600285e6 0.0
0.0 0.0 0.0

-149999.8399350139 3.1881575014954e6 0.0
3.1881575014954e6 -1.2298080136272686e6 0.0
0.0 0.0 0.0

-2.482861942143197e6 4.1118800724766515e6 0.0
4.1118800724766515e6 1.368762541003507e6 0.0
0.0 0.0 0.0

13625.536591163138 4.199872706228366e6 0.0
4.199872706228366e6 -610263.2176406453 0.0
0.0 0.0 0.0

535679.9134470787 -21139.132598226348 0.0
-21139.132598226348 -597458.2692126305 0.0
0.0 0.0 0.0

-98073.34478220675 3.9586347452515718e6 0.0
3.9586347452515718e6 -487200.2440960949 0.0
0.0 0.0 0.0

-1.4660766297018372e6 2.877410595547467e6 0.0
2.877410595547467e6 522175.9052981662 0.0
0.0 0.0 0.0

375673.59759044816 570495.0262079433 0.0
570495.0262079433 -890232.4955136548 0.0
0.0 0.0 0.0

1.1161751166790028e6 1.9220058234461679e6 0.0
1.9220058234461679e6 -1.685231443284561e6 0.0
0.0 0.0 0.0

-989175.5657441163 1.283199266390641e6 0.0
1.283199266390641e6 199419.4498727966 0.0
0.0 0.0 0.0

-70081.03960181687 304521.41140942404 0.0
304521.41140942404 -209723.57923064553 0.0
0.0 0.0 0.0

-703512.075359297 3.4330600754478564e6 0.0
3.4330600754478564e6 -290574.0489573286 0.0
0.0 0.0 0.0

-299818.8597832124 3.7024089044680367e6 0.0
3.7024089044680367e6 139526.5918497666 0.0
0.0 0.0 0.0

-1.1916771793151246e6 1.8748022570387954e6 0.0
1.8748022570387954e6 719897.8048994825 0.0
0.0 0.0 0.0

-1.4498033563699408e6 3.1703570210333294e6 0.0
3.1703570210333294e6 1.737817847774264e6 0.0
0.0 0.0 0.0

-3.1545868528309586e6 2.833584454469125e6 0.0
2.833584454469125e6 1.0578078518607935e6 0.0
0.0 0.0 0.0

191969.73863403496 237209.38712494666 0.0
237209.38712494666 -324484.87913851783 0.0
0.0 0.0 0.0

-185299.99200116348 3.91978981400406e6 0.0
3.91978981400406e6 -372644.74351275706 0.0
0.0 0.0 0.0

169222.335068902 3.176373072188752e6 0.0
3.176373072188752e6 -1.704931638340424e6 0.0
0.0 0.0 0.0

-1.5075377777983744e6 3.586346477469345e6 0.0
3.586346477469345e6 -429992.69777659373 0.0
0.0 0.0 0.0

48795.481439716474 142928.86763575312 0.0
142928.86763575312 -233185.45198041585 0.0
0.0 0.0 0.0

-1.2611802146727922e6 4.964765285389326e6 0.0
4.964765285389326e6 -188776.9448920757 0.0
0.0 0.0 0.0

-416361.72573748895 3.273459383840714e6 0.0
3.273459383840714e6 1.7307165535467565e6 0.0
0.0 0.0 0.0

-1.7130105385808465e6 3.3273642984048277e6 0.0
3.3273642984048277e6 833359.5220644182 0.0
0.0 0.0 0.0

238954.87536348688 3.0513962791961147e6 0.0
3.0513962791961147e6 -1.4222427281125118e6 0.0
0.0 0.0 0.0

-996687.3748786706 3.831982895332028e6 0.0
3.831982895332028e6 59995.10552573949 0.0
0.0 0.0 0.0

-1.1771121829401539e6 -884248.3972855206 0.0
-884248.3972855206 2.11002170934021e6 0.0
0.0 0.0 0.0

-955150.5700246026 3.351557662296552e6 0.0
3.351557662296552e6 837730.924029833 0.0
0.0 0.0 0.0

-2.5899833163494305e6 3.215655620229085e6 0.0
3.215655620229085e6 953520.0990242816 0.0
0.0 0.0 0.0

80360.77804151992 4.55087466634382e6 0.0
4.55087466634382e6 -1.4713228008503725e6 0.0
0.0 0.0 0.0

-279009.37924581155 3.22562992012724e6 0.0
3.22562992012724e6 -880333.6269522156 0.0
0.0 0.0 0.0

-253651.17705015646 3.2018440913300747e6 0.0
3.2018440913300747e6 -945393.1214581961 0.0
0.0 0.0 0.0

-786545.6105397645 724943.4861761121 0.0
724943.4861761121 1.837467005289331e6 0.0
0.0 0.0 0.0

-893609.3864232507 2.954176101831592e6 0.0
2.954176101831592e6 219156.0697804633 0.0
0.0 0.0 0.0

-2.613959741374094e7 -592650.4965411613 0.0
-592650.4965411613 2.853038817445367e7 0.0
0.0 0.0 0.0

542678.5332819009 1.6280962325912667e6 0.0
1.6280962325912667e6 -1.2536185148033586e6 0.0
0.0 0.0 0.0

-2.5158877050796933e6 3.6211019385554004e6 0.0
3.6211019385554004e6 1.123270735188627e6 0.0
0.0 0.0 0.0

-455766.33864493994 3.860123365852534e6 0.0
3.860123365852534e6 -288228.91441649164 0.0
0.0 0.0 0.0

-1.726405792729456e6 3.8270101583219003e6 0.0
3.8270101583219003e6 -812434.7173471688 0.0
0.0 0.0 0.0

172660.99956453464 12737.220333580017 0.0
12737.220333580017 -367232.5651389372 0.0
0.0 0.0 0.0

-573729.7285520241 2.492985807814959e6 0.0
2.492985807814959e6 311928.4665559641 0.0
0.0 0.0 0.0

-1.264657743716625e6 4.942299119270269e6 0.0
4.942299119270269e6 -498758.5672461519 0.0
0.0 0.0 0.0

-60239.50008945942 330299.3882193858 0.0
330299.3882193858 -160246.77871118177 0.0
0.0 0.0 0.0

172440.34969485662 4.406316264237806e6 0.0
4.406316264237806e6 1.7649959687790398e6 0.0
0.0 0.0 0.0

-197986.0218528076 3.8884503873558505e6 0.0
3.8884503873558505e6 22379.095928352006 0.0
0.0 0.0 0.0

-644231.087047666 2.5083636946852696e6 0.0
2.5083636946852696e6 245470.88148275943 0.0
0.0 0.0 0.0

-3.940146435918404e6 1.5760082195344227e6 0.0
1.5760082195344227e6 483435.8287605711 0.0
0.0 0.0 0.0

-315756.6310117157 3.4149806756576034e6 0.0
3.4149806756576034e6 -519343.21025645384 0.0
0.0 0.0 0.0

-397395.44781226583 3.718288240494688e6 0.0
3.718288240494688e6 -561623.551965912 0.0
0.0 0.0 0.0

-1.0715423110438054e6 4.0001635200361502e6 0.0
4.0001635200361502e6 -22502.715322539618 0.0
0.0 0.0 0.0

-821401.4075954896 4.1117722413567505e6 0.0
4.1117722413567505e6 -221187.2113451383 0.0
0.0 0.0 0.0

-317602.9113181361 4.0659446100239446e6 0.0
4.0659446100239446e6 -946536.9464013058 0.0
0.0 0.0 0.0

-385401.9619068362 3.7175078767890004e6 0.0
3.7175078767890004e6 -491593.95043851883 0.0
0.0 0.0 0.0

-769487.1904660836 3.296551234523662e6 0.0
3.296551234523662e6 643011.9143678013 0.0
0.0 0.0 0.0

-2.195786518156902e6 5.444786891795962e6 0.0
5.444786891795962e6 1.5244480767730663e6 0.0
0.0 0.0 0.0

-960498.5284614849 3.352383918270374e6 0.0
3.352383918270374e6 202996.15554216172 0.0
0.0 0.0 0.0

-2.8152984017186677e6 2.9051162808034406e6 0.0
2.9051162808034406e6 1.17466396658753e6 0.0
0.0 0.0 0.0

-176927.2548058463 3.40220741638414e6 0.0
3.40220741638414e6 -579405.9221858389 0.0
0.0 0.0 0.0

-372158.1843093848 847151.2321467728 0.0
847151.2321467728 -1.2484038532500758e6 0.0
0.0 0.0 0.0

-7.16544608135985e6 6.761633482355274e6 0.0
6.761633482355274e6 8.250141678444497e6 0.0
0.0 0.0 0.0

-193844.5247319085 3.8134853178669037e6 0.0
3.8134853178669037e6 -2742.0945706808707 0.0
0.0 0.0 0.0

537200.2968957264 3.33972536866618e6 0.0
3.33972536866618e6 -1.8759414674044927e6 0.0
0.0 0.0 0.0

-2.4655668373035807e6 5.355302397016705e6 0.0
5.355302397016705e6 1.3867790211846088e6 0.0
0.0 0.0 0.0

-959890.4279610128 3.2074051049975785e6 0.0
3.2074051049975785e6 228489.65143317456 0.0
0.0 0.0 0.0

-407448.97979111574 3.969430506258389e6 0.0
3.969430506258389e6 -118033.64345207384 0.0
0.0 0.0 0.0

-580655.0408188996 3.480718501640345e6 0.0
3.480718501640345e6 -215967.87048900413 0.0
0.0 0.0 0.0

-3.2409952875432307e6 1.4843380723770813e6 0.0
1.4843380723770813e6 922624.9795125991 0.0
0.0 0.0 0.0

-2.4513171664012275e6 3.2344640354091856e6 0.0
3.2344640354091856e6 976977.2515898921 0.0
0.0 0.0 0.0

-1.104622442697903e6 4.054875773931503e6 0.0
4.054875773931503e6 -104103.36706124776 0.0
0.0 0.0 0.0

1.0617230884248237e6 2.1958224082302563e6 0.0
2.1958224082302563e6 -1.9843673986525272e6 0.0
0.0 0.0 0.0

-695398.6781503645 4.504386204180658e6 0.0
4.504386204180658e6 61928.941184576426 0.0
0.0 0.0 0.0

-14064.838868176506 4.1647035255687246e6 0.0
4.1647035255687246e6 -1.4106213504424926e6 0.0
0.0 0.0 0.0

-744857.3505457576 4.441563789541738e6 0.0
4.441563789541738e6 152871.50077054655 0.0
0.0 0.0 0.0

-349635.75038471294 4.026618312963421e6 0.0
4.026618312963421e6 -897092.6255954134 0.0
0.0 0.0 0.0

-213028.0203837435 3.9411503841282544e6 0.0
3.9411503841282544e6 -353262.36386378994 0.0
0.0 0.0 0.0

-1.3580659292158154e6 3.5793058016410694e6 0.0
3.5793058016410694e6 149835.63123313338 0.0
0.0 0.0 0.0

-102443.63521046044 84426.64881385589 0.0
84426.64881385589 271658.3225577066 0.0
0.0 0.0 0.0

-232469.9977967611 4.0974275422453783e6 0.0
4.0974275422453783e6 -173622.98063096288 0.0
0.0 0.0 0.0

-8.899845157693507e6 364424.33582495135 0.0
364424.33582495135 7.459763296636835e6 0.0
0.0 0.0 0.0

-966270.9050811692 645770.7537580985 0.0
645770.7537580985 1.2784407103485202e6 0.0
0.0 0.0 0.0

-835815.9092585251 4.073498450903853e6 0.0
4.073498450903853e6 -183910.97183084785 0.0
0.0 0.0 0.0

-410212.460362759 3.8125853781163786e6 0.0
3.8125853781163786e6 -472705.9941332473 0.0
0.0 0.0 0.0

1.1459790887774192e6 1.805601905829529e6 0.0
1.805601905829529e6 -1.8230786513391165e6 0.0
0.0 0.0 0.0

-509584.26346621703 3.925950992162831e6 0.0
3.925950992162831e6 -297536.744645757 0.0
0.0 0.0 0.0

-480694.5542102057 -852890.9305680149 0.0
-852890.9305680149 713414.0332210397 0.0
0.0 0.0 0.0

-289688.8145790881 1.4572203449197253e6 0.0
1.4572203449197253e6 -1.5608601344493919e6 0.0
0.0 0.0 0.0

-2.4147747116915192e6 9.966250450678634e6 0.0
9.966250450678634e6 2.758644981470084e7 0.0
0.0 0.0 0.0

60743.89873584919 3.6985489913981524e6 0.0
3.6985489913981524e6 -1.4388541474801323e6 0.0
0.0 0.0 0.0

670083.7564231788 145985.08829212753 0.0
145985.08829212753 -1.0425129118782778e6 0.0
0.0 0.0 0.0

-1.425097255163632e6 3.532097804878438e6 0.0
3.532097804878438e6 2.150385892427543e6 0.0
0.0 0.0 0.0

-1.5055609622478262e6 -962762.5598317706 0.0
-962762.5598317706 2.2441677502681743e6 0.0
0.0 0.0 0.0

-745712.6868878054 849294.3016246689 0.0
849294.3016246689 474028.3809130807 0.0
0.0 0.0 0.0

-1.9132305787526376e6 5.616927683828214e6 0.0
5.616927683828214e6 1.0685346923995232e6 0.0
0.0 0.0 0.0

-652739.5505073004 2.993059770962681e6 0.0
2.993059770962681e6 -361427.2970610217 0.0
0.0 0.0 0.0

10631.933445307805 4.211581846271442e6 0.0
4.211581846271442e6 -590827.934921414 0.0
0.0 0.0 0.0

-768204.593062079 4.064558472454233e6 0.0
4.064558472454233e6 -261981.61676416505 0.0
0.0 0.0 0.0

-1.5574730400159378e6 4.0731380849982672e6 0.0
4.0731380849982672e6 -334508.74516641966 0.0
0.0 0.0 0.0

-2.2916980469626132e6 3.1076358406513543e6 0.0
3.1076358406513543e6 830499.0467110341 0.0
0.0 0.0 0.0

-129461.82821211296 3.921642315065756e6 0.0
3.921642315065756e6 -505579.76976901386 0.0
0.0 0.0 0.0

-354452.2677728556 3.7988194196221353e6 0.0
3.7988194196221353e6 -270779.16108557914 0.0
0.0 0.0 0.0

-329311.99822833145 3.0619247254947443e6 0.0
3.0619247254947443e6 -882002.1445531577 0.0
0.0 0.0 0.0

-624859.4368967919 3.4792623882599245e6 0.0
3.4792623882599245e6 -372109.452742912 0.0
0.0 0.0 0.0

-1.5565178813273297e6 -766453.3826296843 0.0
-766453.3826296843 1.9396829805714914e6 0.0
0.0 0.0 0.0

-3.790505121252441e6 1.8988974501050098e6 0.0
1.8988974501050098e6 1.6018203085826607e6 0.0
0.0 0.0 0.0

-2.518336013829729e6 2.3063291861537592e6 0.0
2.3063291861537592e6 455210.8233155402 0.0
0.0 0.0 0.0

-5.7880909371468965e6 1.3743333471398053e6 0.0
1.3743333471398053e6 5.073327106456315e6 0.0
0.0 0.0 0.0

-230442.17126338306 3.741648292822709e6 0.0
3.741648292822709e6 -469529.65141666326 0.0
0.0 0.0 0.0

-951487.1392754746 4.1363023502674554e6 0.0
4.1363023502674554e6 -302251.99588152376 0.0
0.0 0.0 0.0

-2.948925622421346e6 3.2076244158972558e6 0.0
3.2076244158972558e6 1.5775445290107126e6 0.0
0.0 0.0 0.0

-388142.07534648746 691911.7199772384 0.0
691911.7199772384 192006.38188648107 0.0
0.0 0.0 0.0

-13925.818031254603 4.1435826596694994e6 0.0
4.1435826596694994e6 -518939.99222113006 0.0
0.0 0.0 0.0

833153.4887720143 2.9955745701941177e6 0.0
2.9955745701941177e6 -1.5620540608314981e6 0.0
0.0 0.0 0.0

-619346.0054942421 733288.173311359 0.0
733288.173311359 1.4252540678287281e6 0.0
0.0 0.0 0.0

-1.3354581544269018e6 -981022.4117126061 0.0
-981022.4117126061 1.8927203294321178e6 0.0
0.0 0.0 0.0

1.1982831784252636e6 2.2440750123271747e6 0.0
2.2440750123271747e6 -2.0083708133770367e6 0.0
0.0 0.0 0.0

-6.342822008642251e6 2.0642449294467217e6 0.0
2.0642449294467217e6 4.873908199023591e6 0.0
0.0 0.0 0.0

-280836.4757032609 -866559.53018131 0.0
-866559.53018131 495447.11154511245 0.0
0.0 0.0 0.0

-152458.8270196861 -536548.7534154204 0.0
-536548.7534154204 254285.8653736953 0.0
0.0 0.0 0.0

-533213.2325930943 494625.7257814073 0.0
494625.7257814073 -11238.94640695586 0.0
0.0 0.0 0.0

19536.676388282867 -49287.21827396663 0.0
-49287.21827396663 270492.43443420617 0.0
0.0 0.0 0.0

-3.8321557419022275e6 7.190852626760595e6 0.0
7.190852626760595e6 1.7413278631311588e6 0.0
0.0 0.0 0.0

-695109.0070267692 2.6076058553033825e6 0.0
2.6076058553033825e6 348280.62162267964 0.0
0.0 0.0 0.0

1.1008978650113866e6 2.838386919997178e6 0.0
2.838386919997178e6 -2.476109329376328e6 0.0
0.0 0.0 0.0

1.164063487568608e6 1.8751476637979713e6 0.0
1.8751476637979713e6 -1.907419465338707e6 0.0
0.0 0.0 0.0

-942762.7626411974 2.9495080872295112e6 0.0
2.9495080872295112e6 238192.75593498116 0.0
0.0 0.0 0.0

-2.9534688513997393e6 2.712749725987005e6 0.0
2.712749725987005e6 874639.6057683523 0.0
0.0 0.0 0.0

-648302.3744732278 2.166298021763636e6 0.0
2.166298021763636e6 1.6378682858054414e6 0.0
0.0 0.0 0.0

-1.5667428264799248e6 3.3711014250138216e6 0.0
3.3711014250138216e6 1.9079816936845698e6 0.0
0.0 0.0 0.0

-746065.1685390269 4.431295438054932e6 0.0
4.431295438054932e6 -61067.46075535705 0.0
0.0 0.0 0.0

-248608.53917899024 -863935.2850776031 0.0
-863935.2850776031 428878.83510301035 0.0
0.0 0.0 0.0

-4.84945038336293e6 1.1535144214082633e6 0.0
1.1535144214082633e6 3.761958296604409e6 0.0
0.0 0.0 0.0

-2.3178176549982717e6 3.1938860932089826e6 0.0
3.1938860932089826e6 872122.6740191716 0.0
0.0 0.0 0.0

-2.443878113390048e6 3.5546327245159736e6 0.0
3.5546327245159736e6 4.728736515143295e6 0.0
0.0 0.0 0.0

-738205.7713457848 4.507910885953802e6 0.0
4.507910885953802e6 61597.58923975183 0.0
0.0 0.0 0.0

-884809.8643661746 4.626471411096052e6 0.0
4.626471411096052e6 212719.42992925685 0.0
0.0 0.0 0.0

-795246.8280373686 3.7859482469161907e6 0.0
3.7859482469161907e6 365595.7329747703 0.0
0.0 0.0 0.0

-954920.9207053334 4.0019346339370115e6 0.0
4.0019346339370115e6 180875.23304961115 0.0
0.0 0.0 0.0

-8.753642689362677e6 3.5940606086242655e6 0.0
3.5940606086242655e6 1.4462322439630837e6 0.0
0.0 0.0 0.0

-803893.0253491588 2.531173800154918e6 0.0
2.531173800154918e6 224282.93632054632 0.0
0.0 0.0 0.0

-982728.0329221672 4.510571499924362e6 0.0
4.510571499924362e6 -171420.44454295645 0.0
0.0 0.0 0.0

-715159.123209454 3.9777701351847844e6 0.0
3.9777701351847844e6 163337.222113169 0.0
0.0 0.0 0.0

-724114.6113993747 4.24578842407712e6 0.0
4.24578842407712e6 -103640.00929306625 0.0
0.0 0.0 0.0

1.1169120599818467e6 1.8139315541266208e6 0.0
1.8139315541266208e6 -1.805594475009768e6 0.0
0.0 0.0 0.0

-705373.9816680577 3.7790243828830607e6 0.0
3.7790243828830607e6 -196303.8682018017 0.0
0.0 0.0 0.0

-4.812428401800906e6 1.5915754528154125e6 0.0
1.5915754528154125e6 1.1651955495226313e6 0.0
0.0 0.0 0.0

-1.5716845534358718e6 3.4606413767304732e6 0.0
3.4606413767304732e6 22027.502445887483 0.0
0.0 0.0 0.0

439247.54936939443 119362.0150508297 0.0
119362.0150508297 -481598.1745605197 0.0
0.0 0.0 0.0

-483751.9485691355 3.2609504429694912e6 0.0
3.2609504429694912e6 -613060.3755082652 0.0
0.0 0.0 0.0

-283568.9399548915 3.832881662955254e6 0.0
3.832881662955254e6 -587760.6299091632 0.0
0.0 0.0 0.0

-3.4783242748547453e6 1.6116834579653563e6 0.0
1.6116834579653563e6 997662.9045826669 0.0
0.0 0.0 0.0

-6963.040382260573 4.209917280985587e6 0.0
4.209917280985587e6 -672732.6249159959 0.0
0.0 0.0 0.0

739284.4808876988 3.04153356757165e6 0.0
3.04153356757165e6 -1.866138629323442e6 0.0
0.0 0.0 0.0

-377139.82489121414 3.0500969808288007e6 0.0
3.0500969808288007e6 -820686.8641224706 0.0
0.0 0.0 0.0

-503117.2611557678 3.9301676243817103e6 0.0
3.9301676243817103e6 -285517.3786668138 0.0
0.0 0.0 0.0

-2.699061211680483e6 2.6407174543877007e6 0.0
2.6407174543877007e6 978987.3850415217 0.0
0.0 0.0 0.0

-1.7205237443616777e6 4.0145020064671957e6 0.0
4.0145020064671957e6 1.0928213250304852e6 0.0
0.0 0.0 0.0

1.153483982493583e6 1.8517207319243415e6 0.0
1.8517207319243415e6 -1.896524582275913e6 0.0
0.0 0.0 0.0

-1.6088503786014947e6 3.737209206549704e6 0.0
3.737209206549704e6 2.221355269831861e6 0.0
0.0 0.0 0.0

-31391.593875539023 3.1179424406256857e6 0.0
3.1179424406256857e6 -925673.583709335 0.0
0.0 0.0 0.0

-2.9520993907851195e6 1.5529849715211957e6 0.0
1.5529849715211957e6 791848.4852229354 0.0
0.0 0.0 0.0

-38135.06015413733 298685.9012708815 0.0
298685.9012708815 71109.07781186831 0.0
0.0 0.0 0.0

46705.871575602316 102100.35474773706 0.0
102100.35474773706 165002.96476957182 0.0
0.0 0.0 0.0

-22811.10208198185 3.1419594575188174e6 0.0
3.1419594575188174e6 -167647.88016205054 0.0
0.0 0.0 0.0

-198279.29919774324 -825904.517511276 0.0
-825904.517511276 523084.9310830935 0.0
0.0 0.0 0.0

8634.317258853553 4.206806013006043e6 0.0
4.206806013006043e6 -667019.7931007221 0.0
0.0 0.0 0.0

-437966.48678941844 3.8420078978922707e6 0.0
3.8420078978922707e6 176591.9625401188 0.0
0.0 0.0 0.0

-2.8312337251498606e6 4.750852080398207e6 0.0
4.750852080398207e6 1.5080109182431963e6 0.0
0.0 0.0 0.0

-3.5101311361785047e6 -1.1535951988289566e6 0.0
-1.1535951988289566e6 3.735599882818087e6 0.0
0.0 0.0 0.0

33140.60047107411 4.436927882775599e6 0.0
4.436927882775599e6 -1.4301107051793337e6 0.0
0.0 0.0 0.0

-731747.8232875993 743413.1503021619 0.0
743413.1503021619 117346.21157730318 0.0
0.0 0.0 0.0

-428954.1528618561 3.8702539007855477e6 0.0
3.8702539007855477e6 -301612.98030482 0.0
0.0 0.0 0.0

-251691.50148727166 3.8623570734240566e6 0.0
3.8623570734240566e6 362745.48825513973 0.0
0.0 0.0 0.0

-306807.29024931573 -626858.8272107354 0.0
-626858.8272107354 386794.6888272913 0.0
0.0 0.0 0.0

-1.7359846882492774e6 851794.9027656193 0.0
851794.9027656193 1.521152033454728e6 0.0
0.0 0.0 0.0

-1.5931151680981054e6 3.003940414608719e6 0.0
3.003940414608719e6 625059.465196825 0.0
0.0 0.0 0.0

-1.2222484551741357e6 1.4886099246752746e6 0.0
1.4886099246752746e6 2.278015675226227e6 0.0
0.0 0.0 0.0

-459683.63929215993 3.7405650774990637e6 0.0
3.7405650774990637e6 -525345.7345323431 0.0
0.0 0.0 0.0

-16490.98381057728 83819.628144816 0.0
83819.628144816 141514.65759892348 0.0
0.0 0.0 0.0

-3.759802940326796e6 -1.5420256190343476e6 0.0
-1.5420256190343476e6 4.520982154623543e6 0.0
0.0 0.0 0.0

-394139.31815557723 3.755326625542081e6 0.0
3.755326625542081e6 -503500.28503394837 0.0
0.0 0.0 0.0

-613381.143913168 3.016913380474652e6 0.0
3.016913380474652e6 -330205.838858359 0.0
0.0 0.0 0.0

-3.085904211373515e6 -1.1155068748705185e6 0.0
-1.1155068748705185e6 5.3755547014349615e6 0.0
0.0 0.0 0.0

-562280.7922473626 4.287116718768385e6 0.0
4.287116718768385e6 -36788.88107115988 0.0
0.0 0.0 0.0

-3866.249037763191 4.162171646363301e6 0.0
4.162171646363301e6 -503617.22934526624 0.0
0.0 0.0 0.0

328087.0133162686 1.8568988371898737e6 0.0
1.8568988371898737e6 -200210.4371469618 0.0
0.0 0.0 0.0

-749061.5040521093 119908.99981099144 0.0
119908.99981099144 1.0296172864083403e6 0.0
0.0 0.0 0.0

-820761.1746518973 35327.65561856977 0.0
35327.65561856977 419201.99124880193 0.0
0.0 0.0 0.0

