# vtk DataFile Version 2.0
phase field modeling fracture
ASCII
DATASET UNSTRUCTURED_GRID
POINTS 2538 float
0.0 0.0 0.0
10.0 0.0 0.0
0.0 10.0 0.0
10.0 10.0 0.0
0.0 4.9995 0.0
0.0 5.0005 0.0
5.0 5.0 0.0
0.9416964895726688 0.0 0.0
1.803581725054446 0.0 0.0
2.592419885431098 0.0 0.0
3.314401822861676 0.0 0.0
3.975193910351406 0.0 0.0
4.579982132660152 0.0 0.0
5.133512780936812 0.0 0.0
5.640130319506143 0.0 0.0
6.103810708661955 0.0 0.0
6.528192895506818 0.0 0.0
6.916607540127679 0.0 0.0
7.272102969376355 0.0 0.0
7.597469242948583 0.0 0.0
7.895259826292669 0.0 0.0
8.167811885738017 0.0 0.0
8.417264413845215 0.0 0.0
8.645575169389538 0.0 0.0
8.854535961159101 0.0 0.0
9.045786767735546 0.0 0.0
9.220828555767493 0.0 0.0
9.38103509633881 0.0 0.0
9.527663687265145 0.0 0.0
9.661865124984566 0.0 0.0
9.784692609918062 0.0 0.0
9.897110148790482 0.0 0.0
10.0 0.09999999999992584 0.0
10.0 0.199999999999856 0.0
10.0 0.2999999999997771 0.0
10.0 0.3999999999996677 0.0
10.0 0.4999999999995511 0.0
10.0 0.5999999999994683 0.0
10.0 0.6999999999993983 0.0
10.0 0.7999999999993286 0.0
10.0 0.8999999999992587 0.0
10.0 0.9999999999991888 0.0
10.0 1.099999999999119 0.0
10.0 1.199999999999033 0.0
10.0 1.299999999998852 0.0
10.0 1.399999999998576 0.0
10.0 1.499999999998284 0.0
10.0 1.599999999997992 0.0
10.0 1.6999999999977 0.0
10.0 1.799999999997408 0.0
10.0 1.899999999997116 0.0
10.0 1.999999999996825 0.0
10.0 2.099999999996533 0.0
10.0 2.199999999996241 0.0
10.0 2.299999999995949 0.0
10.0 2.399999999995657 0.0
10.0 2.499999999995365 0.0
10.0 2.599999999995073 0.0
10.0 2.699999999994782 0.0
10.0 2.79999999999449 0.0
10.0 2.899999999994198 0.0
10.0 2.999999999993906 0.0
10.0 3.099999999993614 0.0
10.0 3.199999999993322 0.0
10.0 3.299999999993029 0.0
10.0 3.399999999992738 0.0
10.0 3.499999999992446 0.0
10.0 3.599999999992154 0.0
10.0 3.699999999991863 0.0
10.0 3.799999999991571 0.0
10.0 3.899999999991278 0.0
10.0 3.999999999991022 0.0
10.0 4.099999999991035 0.0
10.0 4.199999999991187 0.0
10.0 4.299999999991338 0.0
10.0 4.399999999991491 0.0
10.0 4.499999999991642 0.0
10.0 4.599999999991795 0.0
10.0 4.699999999991947 0.0
10.0 4.799999999992099 0.0
10.0 4.89999999999225 0.0
10.0 4.999999999992403 0.0
10.0 5.099999999992555 0.0
10.0 5.199999999992706 0.0
10.0 5.299999999992858 0.0
10.0 5.39999999999301 0.0
10.0 5.499999999993161 0.0
10.0 5.599999999993313 0.0
10.0 5.699999999993466 0.0
10.0 5.799999999993618 0.0
10.0 5.899999999993771 0.0
10.0 5.999999999993922 0.0
10.0 6.099999999994074 0.0
10.0 6.199999999994227 0.0
10.0 6.299999999994378 0.0
10.0 6.39999999999453 0.0
10.0 6.499999999994682 0.0
10.0 6.599999999994833 0.0
10.0 6.699999999994986 0.0
10.0 6.799999999995138 0.0
10.0 6.899999999995289 0.0
10.0 6.999999999995442 0.0
10.0 7.099999999995594 0.0
10.0 7.199999999995747 0.0
10.0 7.299999999995897 0.0
10.0 7.39999999999605 0.0
10.0 7.499999999996202 0.0
10.0 7.599999999996353 0.0
10.0 7.699999999996505 0.0
10.0 7.799999999996658 0.0
10.0 7.899999999996808 0.0
10.0 7.999999999996962 0.0
10.0 8.099999999997113 0.0
10.0 8.199999999997265 0.0
10.0 8.299999999997418 0.0
10.0 8.399999999997569 0.0
10.0 8.499999999997721 0.0
10.0 8.599999999997873 0.0
10.0 8.699999999998024 0.0
10.0 8.799999999998176 0.0
10.0 8.899999999998329 0.0
10.0 8.99999999999848 0.0
10.0 9.099999999998634 0.0
10.0 9.199999999998786 0.0
10.0 9.299999999998937 0.0
10.0 9.399999999999089 0.0
10.0 9.499999999999241 0.0
10.0 9.599999999999392 0.0
10.0 9.699999999999545 0.0
10.0 9.799999999999697 0.0
10.0 9.899999999999848 0.0
9.897110148790565 10.0 0.0
9.784692609918244 10.0 0.0
9.66186512498486 10.0 0.0
9.527663687265571 10.0 0.0
9.381035096339392 10.0 0.0
9.220828555768257 10.0 0.0
9.045786767736512 10.0 0.0
8.854535961160305 10.0 0.0
8.645575169391027 10.0 0.0
8.417264413847017 10.0 0.0
8.167811885740178 10.0 0.0
7.895259826295246 10.0 0.0
7.597469242951631 10.0 0.0
7.272102969379938 10.0 0.0
6.916607540131873 10.0 0.0
6.528192895511704 10.0 0.0
6.103810708667616 10.0 0.0
5.640130319512691 10.0 0.0
5.13351278094435 10.0 0.0
4.579982132668816 10.0 0.0
3.975193910361222 10.0 0.0
3.314401822869852 10.0 0.0
2.592419885437257 10.0 0.0
1.803581725058137 10.0 0.0
0.9416964895740705 10.0 0.0
0.0 9.00010000000243 0.0
0.0 8.000200000005481 0.0
0.0 7.000300000005135 0.0
0.0 6.000400000002569 0.0
0.901790731451151 5.000409820926855 0.0
1.657200899774397 5.000334279910023 0.0
2.289991063707192 5.000271000893629 0.0
2.820065163538221 5.000217993483646 0.0
3.264096435579811 5.000173590356442 0.0
3.636051481595835 5.00013639485184 0.0
3.947629914072366 5.000105237008593 0.0
4.208632181002628 5.0000791367819 0.0
4.427267949625672 5.000057273205037 0.0
4.610414277633563 5.000038958572237 0.0
4.763831845154243 5.000023616815485 0.0
4.892346298799659 5.00001076537012 0.0
4.892346298799748 4.99998923462988 0.0
4.763831845154455 4.999976383184515 0.0
4.610414277633943 4.999961041427763 0.0
4.427267949626277 4.999942726794963 0.0
4.208632181003523 4.9999208632181 0.0
3.94762991407365 4.999894762991407 0.0
3.636051481597624 4.99986360514816 0.0
3.264096435582253 4.999826409643559 0.0
2.820065163541503 4.999782006516354 0.0
2.289991063711534 4.999728999106371 0.0
1.657200899778495 4.999665720089978 0.0
0.9017907314530094 4.999590179073145 0.0
0.0 3.999600000002013 0.0
0.0 2.999700000005187 0.0
0.0 1.99980000000512 0.0
0.0 0.9999000000025537 0.0
9.897889398521345 2.93573355845387 0.0
9.906568249974548 7.060009441434234 0.0
9.913122631074113 3.64016132281653 0.0
9.922462129543863 6.354535290629151 0.0
9.917693659967533 4.354211663134567 0.0
9.909873057440208 5.637584487339942 0.0
9.914183254994697 4.950672966925282 0.0
9.913885043715895 7.666887930262611 0.0
9.91009668007573 2.351889069770817 0.0
9.905135696074536 8.138152454502785 0.0
9.913397459621809 1.849999999997262 0.0
7.099302372137626 0.297750452375005 0.0
7.095143729410097 9.700359990366296 0.0
4.942912558701401 5.095838627899509 0.0
4.315009232304429 5.165022115481685 0.0
4.946182472483878 4.906763777264103 0.0
4.317967462990024 4.825955043772673 0.0
9.916390871492647 8.64999999999792 0.0
9.921504649680616 1.368376469890358 0.0
8.292538149791614 0.206877570318844 0.0
8.292538149793597 9.793122429681448 0.0
5.884594439766573 9.587645267048616 0.0
5.794826292691579 0.3794853783929359 0.0
9.913397459621425 9.049999999998557 0.0
9.908526577714177 0.9568239351922434 0.0
3.456851160380649 5.315740054130451 0.0
3.457889657868442 4.707121019609468 0.0
8.945214200703926 0.1503383337970344 0.0
8.950161364448409 9.8413906539257 0.0
9.913862335499305 4.055887885208452 0.0
9.916697353372683 4.650158482607802 0.0
9.919076340414442 6.049999999994006 0.0
9.906994308667635 5.25749687748192 0.0
9.917490342358025 6.655979201891897 0.0
9.915757520293784 7.343848891656911 0.0
9.910049507471042 3.363474386285078 0.0
9.914471988502868 2.647400064832979 0.0
9.91474124160965 9.337490423485129 0.0
9.916971008170838 0.6499999999994355 0.0
4.307157269264427 9.509674045029644 0.0
4.331527375865619 0.4401616696422582 0.0
9.45434939180249 9.878397030523757 0.0
9.457696120412969 0.1270877537061785 0.0
2.555070293622606 5.422044496190925 0.0
2.566232917480916 4.608001224030952 0.0
3.026511860837692 9.332320638257093 0.0
2.945561971800619 0.5895662714727601 0.0
7.7395404387124 0.2511088946967771 0.0
7.736379255744154 9.745848826372828 0.0
4.687135269408529 5.122111433928926 0.0
4.688420821504113 4.871895064967488 0.0
9.910554884115975 0.3448356354522978 0.0
9.911230082250466 9.65764729394159 0.0
9.921953841410854 6.851023993342036 0.0
9.912065178606017 5.448170483544033 0.0
9.911660025326261 3.861846960030188 0.0
9.914847467973438 3.14501593945607 0.0
9.913397459621425 5.849999999993703 0.0
9.913397459621425 7.849999999996735 0.0
9.906916878988277 2.15455769998631 0.0
9.913397459621425 8.349999999997479 0.0
9.909472363117661 1.640528221515488 0.0
9.913987325695956 1.152857110636247 0.0
9.913397459621425 8.849999999998241 0.0
0.9100099990995943 2.614215977520411 0.0
0.8395284981715456 7.451196254860987 0.0
9.723278867451556 9.898135916635193 0.0
9.723316350887044 0.09841820909386662 0.0
1.385819164827588 4.454539963646463 0.0
1.338343629665047 5.523111536005823 0.0
1.377179700550677 0.6809168304959698 0.0
1.418060461092743 9.285896715136046 0.0
9.91268220142518 0.1457914080939694 0.0
9.906737126737994 9.845745933882352 0.0
0.7108351382691361 6.537941170074089 0.0
1.527735020267026 6.915620208855231 0.0
1.630993885659103 7.838271825205868 0.0
2.232760943566823 7.370850737296832 0.0
2.243414218068206 6.688299277952821 0.0
2.779655053105118 7.021588754814074 0.0
2.80227799359795 7.632420170547022 0.0
3.282022065908813 7.305859666021318 0.0
3.327597298795347 7.857554136825748 0.0
3.743210251018715 7.549183328204379 0.0
3.716353232200752 7.062036086888612 0.0
4.111978858674101 7.27497101169417 0.0
4.104192177581432 6.879858986267289 0.0
4.436230765617037 7.045693351607117 0.0
4.430360014817357 6.703971783962796 0.0
4.732390145036301 6.849841042423394 0.0
5.056161327708878 5.095276573498806 0.0
5.111586796021131 4.999081142133581 0.0
5.169267363407189 5.09444870412406 0.0
5.223795108752053 4.996986220359468 0.0
5.281480803887719 5.092780870372803 0.0
5.335670761900611 4.994887492556936 0.0
5.393485214772442 5.090486192743301 0.0
5.447323082877892 4.992601527033996 0.0
5.505243219343024 5.087953380710069 0.0
5.558739102026105 4.990287787962959 0.0
5.616491581184779 5.085335255235766 0.0
5.669852346908056 4.9879269227514 0.0
5.727502713908907 5.082679981817038 0.0
5.780766004135139 4.988313988715834 0.0
5.838244881129535 5.080480568766611 0.0
5.891357695677371 4.986433849408193 0.0
5.948696036767613 5.077969900389505 0.0
6.001601341641615 4.981313698556656 0.0
6.058851024265095 5.074871552128682 0.0
6.111614020704875 4.978360695880202 0.0
6.168801161530775 5.072044953270978 0.0
6.221368818778567 4.975825765213497 0.0
6.278268309066882 5.066182320461055 0.0
6.330814273567539 4.972837984645718 0.0
6.387565032421376 5.062889771971895 0.0
6.437476667631405 4.971693683589553 0.0
6.496181111585419 5.060210690175857 0.0
6.539454812256072 4.964658165361536 0.0
6.604198202576491 5.056387520850258 0.0
6.648506025747331 4.939374587506267 0.0
6.714026758992516 5.05873885840664 0.0
6.764418045981209 4.959246676066148 0.0
6.8219334571197 5.055299567406268 0.0
6.873708540948134 4.960426349093742 0.0
6.930181428849307 5.053461390218819 0.0
6.981893615341967 4.96435459462232 0.0
7.037791764774784 5.051219747103022 0.0
7.090993561518408 4.96392420322464 0.0
5.504417457283294 4.900897920552702 0.0
7.145434864123609 5.048960634292441 0.0
6.054532384032612 4.883956083938546 0.0
6.738027949040956 4.850032323068674 0.0
7.198432914526514 4.956325226333323 0.0
7.252637187936749 5.046012229327236 0.0
7.30926729605109 4.948903216650376 0.0
7.248106275544042 4.860306312845646 0.0
7.363100274863074 4.849952416808486 0.0
7.365733472701664 5.039519554615095 0.0
7.308483293090149 5.137557220352172 0.0
6.768399513646964 5.145609705119954 0.0
7.422800035311104 5.132251445551834 0.0
7.358273518796229 5.235980394389298 0.0
7.480824155801127 5.227946127939927 0.0
7.302193400058628 4.761917474298247 0.0
7.413570879789824 4.754555110721153 0.0
7.414392998903179 5.334729114426734 0.0
7.352769630272076 4.660405502266205 0.0
7.467556835255426 4.658352623795039 0.0
7.536246869015014 5.328986926716081 0.0
7.478865844607288 5.432598185493195 0.0
7.406396991826072 4.556956233957538 0.0
7.523581002009154 4.552005631348623 0.0
7.597792398573263 5.429506106314967 0.0
7.540511043402902 5.53619421580439 0.0
7.46214474876342 4.452580994318881 0.0
7.5852185078634 4.446021810672608 0.0
7.663329342323453 5.533453399066901 0.0
7.603478967594521 5.643227430483237 0.0
7.513450346818673 4.347641323140766 0.0
7.640744971722214 4.333388343316237 0.0
7.727671715775243 5.642390483050116 0.0
7.667774597993788 5.753188858425915 0.0
7.570065256728661 4.230515669344811 0.0
7.702881065467917 4.218307808529532 0.0
7.638288257073729 4.107994211855027 0.0
7.493362356301017 4.120843902105771 0.0
7.779018500630071 5.521233457321821 0.0
7.794641287388929 5.752364621610818 0.0
7.73369774483611 5.865894287356292 0.0
7.600834531784728 5.867752110500446 0.0
6.233038857278689 5.15645045634683 0.0
7.669727996028819 5.985665563643058 0.0
7.528582452554481 5.987393423295551 0.0
7.598722674572824 6.11001923494443 0.0
7.778305000222867 4.104318908265786 0.0
7.704329019832056 3.987744174608892 0.0
7.838453459801382 4.213322728668484 0.0
7.864495721576461 5.862306066517277 0.0
7.846552353360407 3.98481756181946 0.0
7.769730409703277 3.86544808681145 0.0
5.785249360396857 5.177248808588045 0.0
7.908837087876153 3.861484036275285 0.0
7.834824606222196 3.740586825753288 0.0
7.97685993406276 3.736209527152902 0.0
7.89665098770825 3.615501862931453 0.0
7.753228010315262 3.617800245018972 0.0
7.826063013090472 3.483173292579822 0.0
7.66789744383048 3.48859328808356 0.0
8.042515855796823 3.595394268381807 0.0
7.75200750488492 3.341279823834038 0.0
7.582870318332553 3.346584916806707 0.0
8.120807847415062 3.732493963388337 0.0
8.189783970303546 3.61159165475499 0.0
7.657801000286734 3.200439907646711 0.0
7.486781956172036 3.201402473247712 0.0
7.452595103886905 6.11418616185016 0.0
7.527098033550077 6.243191052852112 0.0
8.260502906807751 3.728437634721859 0.0
8.327629317451398 3.608173631356984 0.0
7.372763970891452 6.247552889754036 0.0
7.456170570815929 6.384992468962936 0.0
7.621837793616884 6.376077080857113 0.0
7.548039512904141 6.520750676893614 0.0
7.717475944451644 6.514856553988943 0.0
7.636658166268699 6.661648164052906 0.0
7.807468267259438 6.664076174524672 0.0
7.718022764310774 6.817938967122142 0.0
7.887785766941087 6.807440365887151 0.0
7.545993589083432 6.815070675854734 0.0
7.809874785067209 6.967537287475282 0.0
7.975643812145337 6.948729406725126 0.0
8.396477808021062 3.725446935061211 0.0
7.565651643157136 3.044354774611752 0.0
7.384328725505071 3.043048915147076 0.0
8.056405351948353 6.802790889114673 0.0
8.14128318237188 6.940027831915737 0.0
8.064621760266059 7.086348792208953 0.0
8.225003598857908 6.805225152373254 0.0
8.463085452993242 3.606998510553562 0.0
8.230426869720718 7.079551841000411 0.0
8.155262284174286 7.224761758176069 0.0
8.530696760758996 3.721683301125054 0.0
8.596669886994064 3.604516769862316 0.0
8.528531058025589 3.490411531312337 0.0
8.320451770844851 7.218191678954744 0.0
8.245273958732774 7.363444652121271 0.0
8.66324687389452 3.717094013035765 0.0
8.600103125209296 3.831913857228569 0.0
8.662131102573216 3.488322280861316 0.0
8.594166125380536 3.374071873435548 0.0
8.411074336066186 7.353871649576861 0.0
8.339644223432472 7.505172120620427 0.0
8.165883718619623 7.513159193685373 0.0
8.483453820080417 7.2082285366806 0.0
8.261200365730348 7.657400951288149 0.0
8.081570576666843 7.670933304838066 0.0
7.471613195794025 2.872548423100142 0.0
7.268733678357991 2.881209199257603 0.0
7.184255506995786 3.084448584600423 0.0
7.065899603697895 2.883902449336828 0.0
6.960163891183182 3.081014635802978 0.0
6.847612128388715 2.885646860602812 0.0
6.739800729737967 3.078895733381448 0.0
8.729373804596847 3.827689165637365 0.0
8.668550856907444 3.938702277545298 0.0
8.72770789162863 3.371798381178293 0.0
8.659764090070603 3.257493349874974 0.0
8.436453928793245 7.648724489148887 0.0
6.619080287792762 2.90880017416788 0.0
6.511740956842646 3.09340654756684 0.0
8.793527829963288 3.935174834810256 0.0
8.736430500996828 4.042719556852617 0.0
7.631260330584174 4.565300771328012 0.0
8.359058396840432 7.801678182761817 0.0
5.339436215072359 5.184870243702279 0.0
4.994031736761993 5.193306795607908 0.0
6.383387675268097 4.87760645722207 0.0
7.29117392392962 6.382172868329505 0.0
6.378196825372041 2.907113079755629 0.0
6.269817199014261 3.12412150658573 0.0
8.793149127377946 3.255386294257182 0.0
8.725774239201558 3.141596687892195 0.0
8.857434600673502 4.041295940541356 0.0
8.802868937128341 4.1471119953668 0.0
8.532045262478793 7.7905977476835 0.0
7.364542641624493 2.699128473342751 0.0
7.571677611088925 2.695732556686516 0.0
6.723058333614999 2.672341359410618 0.0
8.456744924757372 7.94483904450548 0.0
6.140831279784704 2.921247401137864 0.0
6.02419219050745 3.14358702955763 0.0
8.916255604212301 3.934279868822481 0.0
8.859287250884009 3.140226640574265 0.0
8.791092798057303 3.025929352146465 0.0
7.210445465986021 6.245773134960393 0.0
7.120884161792869 6.385155584680196 0.0
7.036931702064287 6.240721609143972 0.0
6.943722280007011 6.3869279517155 0.0
8.920094519678617 4.144837222494242 0.0
8.864374107136287 4.250930406527029 0.0
7.347569838739255 4.463467417508182 0.0
5.90383431757064 2.935113219563906 0.0
5.783476009580765 3.156456199832474 0.0
8.626013191558314 7.935092223505354 0.0
8.687240186957197 7.796697889991163 0.0
5.642059327424706 2.903018174330269 0.0
5.52647853955939 3.162549070310043 0.0
8.555300051897738 8.086169516016518 0.0
8.405624441178524 8.083972416481254 0.0
5.374124307190728 2.945480555950917 0.0
8.935805220807357 3.249260758206028 0.0
8.981625171409894 4.247375537584228 0.0
8.924725364486765 4.352101286657735 0.0
8.807208588134106 4.356163101450244 0.0
8.868277832430604 4.45657124153171 0.0
8.75099635287701 4.460644845248524 0.0
8.812385950597063 4.560891222623518 0.0
8.693833206943118 4.564602972998703 0.0
8.756474732548273 4.665720853686476 0.0
8.63721608225855 4.669394550615355 0.0
8.700108119351134 4.770682016274914 0.0
8.81920502916846 4.767536120893284 0.0
8.76355311338807 4.871451945248518 0.0
8.881442328033694 4.868382238751069 0.0
8.826433523510634 4.97132552240372 0.0
8.943387824985514 4.967694248194483 0.0
8.888718468126953 5.071044784833541 0.0
8.580377663835254 4.774669738817985 0.0
8.770572242937233 5.073880380431421 0.0
8.832915096600454 5.174518948293615 0.0
8.952224483821848 5.170970838320107 0.0
8.897282771771884 5.275476392171722 0.0
7.463928467290875 2.513944501591933 0.0
7.675935950092034 2.509420347143072 0.0
8.924252417741767 3.024418701372628 0.0
8.857265893102921 2.911213535286156 0.0
8.776981063213334 5.27944309004916 0.0
8.840710910770163 5.380165700477552 0.0
8.960876896785969 5.375521424256389 0.0
8.904555918255223 5.482125846038813 0.0
7.567193097677677 2.32750151280277 0.0
7.780880844888839 2.323064027160363 0.0
6.851602118390116 6.234522818184622 0.0
6.758680682687229 6.389359516748128 0.0
6.66345977321418 6.231254850996584 0.0
8.715764716958308 8.079994249772627 0.0
8.65189989696114 8.227534663647639 0.0
9.042229096541828 4.348551764001607 0.0
6.436774206993324 3.316782326998922 0.0
7.590527613340588 5.22651784724799 0.0
9.024366884701616 5.476726561488805 0.0
8.968734351641839 5.583879050892151 0.0
8.845941080047659 5.586406316932274 0.0
8.909881305857882 5.690482454668167 0.0
7.348726871578975 5.44047403999932 0.0
6.567070253986433 6.398115757512583 0.0
6.697077150072261 6.553426749743366 0.0
5.252377383990728 3.187782967482479 0.0
8.988440431820699 2.908621158637298 0.0
8.922541972760119 2.796420836075996 0.0
6.466806010659505 6.229115583261771 0.0
9.033851153821296 5.686506775615425 0.0
8.978340519963718 5.795772485582058 0.0
8.85111463793018 5.798672910287243 0.0
8.922171984280597 5.907237880910408 0.0
8.795190680908043 5.911854068712683 0.0
8.864373398892472 6.019728357749566 0.0
8.991346995940626 6.014539153309398 0.0
8.93374019140187 6.12698887312768 0.0
5.095192648098848 2.952353430985476 0.0
7.672651464908932 2.141715359830917 0.0
7.886266921042761 2.136211284120189 0.0
9.098474286589756 4.245971410451114 0.0
8.813172564986438 8.216887361735234 0.0
8.74802978243154 8.366104673219047 0.0
9.059985162956899 6.120982589539211 0.0
9.00342813739303 6.233245043891739 0.0
4.961413514304496 3.214209167276753 0.0
9.05248113004685 2.794651022570942 0.0
8.986028039118027 2.681341972594222 0.0
5.671890458441996 3.377122473800023 0.0
4.755829262593116 7.184480462344647 0.0
9.158258644940048 4.34465968221255 0.0
4.799687186662534 2.961354824469195 0.0
6.030554747591715 2.726787502996874 0.0
8.938327180212585 8.34758372042188 0.0
8.847392320655468 8.503370672816716 0.0
8.67342124373679 8.518117686968314 0.0
5.234423106934083 2.694925204361751 0.0
8.964923046453565 8.185313058214797 0.0
7.456650986668838 2.134076476407834 0.0
9.111732084821366 2.897226832609386 0.0
6.368055837513985 6.402805870976705 0.0
6.265629899005033 6.226581076317183 0.0
8.736327196352686 6.026404178766982 0.0
9.117473097358854 2.67987006607594 0.0
9.052137415465204 2.565428515518978 0.0
7.781001557847192 1.955874236406257 0.0
7.992134447300669 1.949184538864554 0.0
8.593074792993455 3.143159483125708 0.0
9.1291360203536 6.226877897052981 0.0
9.072154326613617 6.338696745620542 0.0
8.916532550320525 2.566986282201109 0.0
8.984021113721658 2.449252898983242 0.0
9.178032243215632 6.120533546076094 0.0
9.213703592343162 4.244823670856978 0.0
9.11972142641474 2.449071238668887 0.0
9.052853896812186 2.33190758581705 0.0
8.635035926402708 4.462329956179506 0.0
8.773614475966344 8.657865377672689 0.0
8.596400917257634 8.67759750279447 0.0
8.942023339420883 8.644678093589654 0.0
9.19471670675691 6.33096438039349 0.0
9.138460613363325 6.443043552768813 0.0
8.66620319432524 5.916297234509582 0.0
8.606669825267202 6.032658196729024 0.0
9.27222540210304 4.341341907533128 0.0
9.013782808177437 6.451040569407859 0.0
9.08360982569773 6.55729980456602 0.0
7.885622149776354 1.768093045890686 0.0
8.095672144455353 1.768790621151345 0.0
9.208772072925791 6.549717411809656 0.0
9.154272208194383 6.662613503537815 0.0
9.187669783927937 2.334640996932141 0.0
9.122379015831417 2.215832190697178 0.0
6.164077036161143 6.404611236428829 0.0
6.062367614988677 6.224307160647549 0.0
8.987075041759633 2.211477580983978 0.0
9.056972755801603 2.093573581203428 0.0
9.194557288902232 2.096029761809264 0.0
9.131223008370409 1.972713028695079 0.0
8.87381302587057 8.795793668920256 0.0
9.039169086943392 8.781606667490083 0.0
4.662813350519927 3.228118291851354 0.0
4.474181267994617 2.945703616023359 0.0
6.562627723301209 6.075544382232434 0.0
9.326886053211574 4.243083624343211 0.0
9.280374192897945 6.656072830232892 0.0
9.224718905178564 6.766740750539347 0.0
4.703284910421452 6.528907865005451 0.0
8.955136474970331 6.565989985649191 0.0
8.998148826814893 4.865480736169776 0.0
8.99429836796776 1.965972383552685 0.0
9.065669391141741 1.847195105148808 0.0
9.207236162050343 1.853010386995843 0.0
9.143218073349985 1.725630086781897 0.0
8.998867447699345 1.719378449325465 0.0
9.082595782768397 1.592017827427701 0.0
8.92804562738841 1.585238202229766 0.0
9.01637794607019 1.453847302675876 0.0
8.854253119154375 1.446306868730686 0.0
8.941620273019874 1.320083886766936 0.0
8.775393064215876 1.308487027359826 0.0
9.102170347200483 1.324733726345249 0.0
9.013857060361985 1.178821526410403 0.0
7.991031819452564 1.587689878441685 0.0
7.767218744640202 1.595993197647291 0.0
9.191539171305216 1.194087248761656 0.0
9.123965901037613 1.057102462689568 0.0
4.853921953226772 3.470213116851758 0.0
7.496563223334782 3.470157221608763 0.0
8.536691379028115 5.921845852206257 0.0
8.475496498707471 6.037633662010236 0.0
7.978668526342969 2.307231488316941 0.0
9.384721922092124 4.337357165846226 0.0
9.331039180200886 4.435926256444196 0.0
8.546261775564837 6.150267290476958 0.0
8.411727261785726 6.155319300628062 0.0
8.972203609044218 8.930944433074036 0.0
9.133480321468399 8.90955269607895 0.0
9.197778815538276 8.768743880012563 0.0
6.162231825784922 6.05277753404107 0.0
5.962111081146334 6.046949845237622 0.0
9.268727788642101 4.146883230687689 0.0
9.380694211527906 4.144811697563401 0.0
9.323823335199954 4.049557759546529 0.0
9.283324894520613 1.736313094621396 0.0
5.858151623803662 6.22041808248046 0.0
5.759668475561988 6.038806123495502 0.0
7.836860473863919 3.191674397465999 0.0
9.348591928839294 6.75855034547469 0.0
9.293979592221298 6.870213350675044 0.0
9.170543172728557 6.879819332293818 0.0
9.240028263813034 6.983394994050525 0.0
4.347372565145963 3.312731475520695 0.0
4.114183445909965 2.96879678229065 0.0
8.616264880152233 4.042035981070631 0.0
9.403174760076901 6.650407069150438 0.0
4.173860112179449 7.723461240865885 0.0
9.365302975518428 6.973476802087294 0.0
9.312420275675276 7.088420778208979 0.0
9.184876614539778 7.0978133687822 0.0
9.25921281729617 7.204979813006656 0.0
9.12816413817609 7.21569648263899 0.0
9.203944409919862 7.322703303071253 0.0
9.334311975087337 7.311477957762272 0.0
9.280415785210538 7.428795599957155 0.0
9.274060219641907 1.066603180421249 0.0
9.211820491509728 0.9316562593680151 0.0
9.050684011148748 0.9017681241401576 0.0
9.441953732403995 4.432092590771756 0.0
9.394725873909666 4.526051349391942 0.0
9.43453556160865 4.048003950509361 0.0
9.378043599351757 3.952631412328806 0.0
9.289691247910705 8.890746792319852 0.0
9.228148443138926 9.030109127390128 0.0
4.440757888677695 6.389562448928118 0.0
4.689874463978985 6.239329075084555 0.0
4.291519540095677 2.622920583112654 0.0
3.886073352912894 2.632778677714434 0.0
9.344015622314338 1.202401041544343 0.0
8.193292196814806 3.849649660906171 0.0
6.960946604527747 6.07044529864598 0.0
9.347708267319902 8.756364147482309 0.0
6.826423138602714 3.261415861395883 0.0
6.06309517882478 5.884563187328262 0.0
9.4085057714426 7.414123963607981 0.0
9.356416821537886 7.532359471354527 0.0
5.042074134251055 6.938947182785697 0.0
5.063988238156824 7.311205832605263 0.0
3.946666851334923 3.30681624613374 0.0
8.189857914071878 1.939951128540477 0.0
7.880690277686857 1.38928908049477 0.0
7.63766396748483 1.399736360041063 0.0
9.345004233592562 1.857695941115052 0.0
9.440465164139875 7.085860901905448 0.0
7.918332480761888 5.744468010879592 0.0
9.08007135068879 5.372457017512481 0.0
8.78639561093144 3.718391405525285 0.0
9.356843485085705 0.9414458825132457 0.0
9.29705128845331 0.8103081541678832 0.0
9.251825423225316 2.451701826351773 0.0
8.483895366325516 6.270717564685176 0.0
8.346386886249478 6.275973306650227 0.0
9.493299170161215 4.138582531223591 0.0
5.321115649032961 7.117073603021904 0.0
5.354076009109965 7.436189411362466 0.0
5.597984079819928 7.254284331170681 0.0
5.644042313435943 7.564172740776336 0.0
5.383963016128051 7.753854027984002 0.0
5.681168258142109 7.880444993178456 0.0
5.935548099874979 7.687258900444162 0.0
5.979508404301389 7.994332725561488 0.0
6.21936843555201 7.802335560754011 0.0
6.267092590637372 8.104873033518185 0.0
6.498845418385807 7.917606504106031 0.0
6.544600005636809 8.209910620392591 0.0
6.77336078689533 8.027284686082275 0.0
6.814840179123049 8.311778392637773 0.0
6.721304148677048 7.737863326704131 0.0
7.031320924898797 8.1335673274533 0.0
7.077388928622946 8.403901803728003 0.0
5.417471987089176 8.090112295667405 0.0
8.845427688507666 2.446352368201366 0.0
9.318512319918124 2.339233739859646 0.0
9.380241452597096 2.451895615249572 0.0
7.283805558009199 8.237518806365102 0.0
7.329200330160381 8.497045124353782 0.0
7.233272584416691 7.991590926766813 0.0
9.142592248414191 5.471315142785471 0.0
9.196303265878848 5.36738298742727 0.0
9.25795832955665 5.465260877691205 0.0
9.310581303233182 5.36341558704714 0.0
9.371094700882272 5.459458038195667 0.0
9.422767107822985 5.360687090455724 0.0
9.36402660964156 5.264821436196721 0.0
9.474220736978928 5.262802348886269 0.0
9.41680330511366 5.169477108906666 0.0
5.168675939028436 4.895496152382537 0.0
9.482591449057548 5.454699312257291 0.0
9.431567605310825 5.552723344040521 0.0
7.531449703396948 4.741663470323411 0.0
8.517293123442691 4.672601123164268 0.0
8.459978676626639 4.778466809901586 0.0
8.396595115309985 4.67568709170855 0.0
8.338966609235166 4.782101664607259 0.0
8.275355646032752 4.678829956447008 0.0
8.217675280223542 4.785699596769931 0.0
8.28149024865807 4.888803783902183 0.0
8.16019781596952 4.892696417098926 0.0
8.22433278506531 4.995725219088695 0.0
8.102825704443651 4.999629142625341 0.0
8.166887930010795 5.098242831115916 0.0
8.034904900788316 4.896825406879729 0.0
8.15353539905931 4.682103688185489 0.0
8.211891449058882 4.574219757233394 0.0
8.290305306104333 5.094007100958221 0.0
8.225684228618732 5.201525567655179 0.0
9.444618942559746 2.343141375196729 0.0
6.929446520625337 4.868116916840016 0.0
5.737810725167649 4.893891407574175 0.0
8.720389971487277 5.38508368411851 0.0
8.805734920311323 8.951818172412821 0.0
8.905272694453211 9.083303226359831 0.0
6.006155038818204 5.171375272745409 0.0
6.431496448228514 5.152985998213245 0.0
9.052675024457304 7.106590131831544 0.0
7.740007013494393 6.09727525827826 0.0
9.375852260355511 9.013078430361404 0.0
9.32035844773103 9.14584923943073 0.0
6.989707597683965 5.146377438798643 0.0
9.488190206836386 3.951168069367155 0.0
9.432429152094464 3.855725756072153 0.0
5.568386402814275 5.185723849666124 0.0
9.525561551078322 5.166162126187324 0.0
9.465026391994275 5.072601962964018 0.0
9.320357339516937 3.857795423728873 0.0
9.375955927831914 3.759314274140895 0.0
9.261783786753899 3.761412578759438 0.0
9.31820665563318 3.661845422072752 0.0
9.431798673168924 3.660830894813109 0.0
9.374584413615914 3.563138564686839 0.0
9.48759661134647 3.562294297118573 0.0
9.431339678707085 3.464016717943268 0.0
9.417896212887529 1.746970678437863 0.0
8.731705369070733 9.110902182838881 0.0
5.652297951447118 6.21188565774667 0.0
5.569122518069258 6.024400786163834 0.0
8.257007204149394 3.505875091031567 0.0
8.717428603143034 2.925525757227976 0.0
6.882852832747376 8.57686572931064 0.0
6.337330066435714 8.416819098143066 0.0
9.50188906539997 4.521022403818629 0.0
9.453500859905136 4.617181635748691 0.0
9.46806769570129 6.749352117850711 0.0
8.836822104875719 1.72282859852854 0.0
7.481071063421426 5.64593758994851 0.0
5.668814988976305 5.86611128457842 0.0
5.487644760735084 5.847591822776978 0.0
8.993992818065195 7.228173913870249 0.0
7.98322414937693 7.229980191466666 0.0
9.22810751684646 7.54864871395298 0.0
9.304103360459063 7.654622011545798 0.0
9.432787371848761 7.633691049023619 0.0
9.382619818023882 7.759136995934441 0.0
7.239096822516492 4.679179578301165 0.0
9.47692479956498 1.861231395362419 0.0
8.041243110813022 5.095895152648969 0.0
6.190208781188077 7.509864122823853 0.0
9.283062812782122 4.549418667685757 0.0
9.503847665760087 2.450295046295932 0.0
9.443345385250678 2.557904120404248 0.0
9.52009568463353 6.644015937008899 0.0
9.203119005973903 3.662458522935253 0.0
8.406198651282708 5.92630414760378 0.0
8.467263597743843 5.811987729136874 0.0
9.461423029059445 9.128120577356565 0.0
9.408445330070542 9.26024300250086 0.0
9.266505293379728 9.277952925446408 0.0
4.14874709022218 3.631681332690154 0.0
9.437448107949258 0.8198473430736303 0.0
9.376993771693973 0.6910550697058979 0.0
9.22882356848217 0.6931820370818127 0.0
4.451823867195988 6.103664366188579 0.0
4.200031743909027 6.232039028149317 0.0
4.687154754667774 5.975132870483986 0.0
6.268889397098538 6.592235545990395 0.0
7.509366161722768 8.340075462391164 0.0
7.564775703413765 8.59800936579159 0.0
9.542148732924264 3.854614593058991 0.0
7.036231103929761 6.550562550831048 0.0
4.089373665437328 2.268193930262139 0.0
3.642558884866483 2.250386188148396 0.0
3.442182385618804 2.651948803899947 0.0
3.146832503011753 2.222630466765926 0.0
2.948870467975985 2.805088883766417 0.0
9.352005315330274 5.067356449300542 0.0
9.31729677031493 3.462944187594675 0.0
9.37428383619102 3.365546369736205 0.0
9.4883538239391 3.365384871181599 0.0
9.432147665178338 3.267287636377487 0.0
9.25034519267688 7.775848812012313 0.0
9.332091350002502 7.881724023243533 0.0
9.462101000264603 7.86490055671988 0.0
9.413353271651825 7.98561007219363 0.0
8.273592814723814 6.158623919352561 0.0
8.207135014732339 6.280394934566054 0.0
9.541483811580331 5.548224291759592 0.0
9.491365919893726 5.644847811894615 0.0
8.088095771120983 4.577581369371366 0.0
8.14760102783746 4.468303741922308 0.0
9.556217963323956 4.414867468889523 0.0
9.543667331547693 3.266908751519594 0.0
9.489307652535885 3.169908976697059 0.0
9.26285575842982 8.635341362685686 0.0
9.403220742003983 8.621447866627538 0.0
9.326013417886902 8.506778946171965 0.0
9.455477927154853 8.503896705359047 0.0
9.566646674069602 4.611465258087684 0.0
9.499341049870914 0.9352184973273918 0.0
8.683891958597638 1.444705608998412 0.0
8.599973456173778 1.287265568270043 0.0
7.760988189317371 1.175381292562583 0.0
7.50927661322749 1.171223823957793 0.0
7.380927152434357 1.411062577009695 0.0
7.242417847270241 1.170759311509981 0.0
7.107236746116019 1.421234419770886 0.0
6.960799033544566 1.169618322344823 0.0
6.817786081200392 1.434174581170586 0.0
9.48095050141868 8.738557748483624 0.0
9.319762046171894 3.263060331456388 0.0
8.920653400180534 7.117307656029475 0.0
9.452431221190624 6.544166520883111 0.0
9.571407933653493 6.540336592280795 0.0
9.507586285214174 6.443281357841339 0.0
9.575252974749443 5.070210512157044 0.0
5.755172844377253 6.370710487467459 0.0
9.541351959064952 7.969072511059531 0.0
9.354607289792183 9.3921968735401 0.0
9.495213435762107 9.37218405175897 0.0
3.77688136092967 3.643094492921176 0.0
5.460967180339239 6.159077196937325 0.0
8.656589552918996 5.283032675040985 0.0
8.599307076390474 5.387421722684671 0.0
9.584017606465821 5.263931993965828 0.0
9.51536593891754 4.977534386249715 0.0
7.788544970111893 2.70578432810479 0.0
7.381746833264364 8.755477463411431 0.0
7.615969996822885 8.852710176548548 0.0
7.783643411970649 8.691528137204457 0.0
7.845017394185501 8.938777577473743 0.0
8.570520580943368 7.342304222498308 0.0
9.103648004226827 5.781084627507008 0.0
8.338082930126799 5.815990105349368 0.0
8.930848895071895 4.561111316304916 0.0
7.381089602119859 5.983657236035151 0.0
8.42066837692862 6.393608568217351 0.0
8.888256157021065 6.459558428285236 0.0
8.826495664731354 6.575679897210801 0.0
4.22522220414496 5.921354747981145 0.0
3.943296448343383 6.075578573904587 0.0
9.563175937841836 2.554860696349795 0.0
9.505342423182917 2.656889632284623 0.0
6.660863480070611 1.168750929063519 0.0
6.518316961679488 1.436478598119306 0.0
6.683474168246802 1.694104067636375 0.0
6.376799057174731 1.707382100972048 0.0
6.205091481342603 1.443621641108414 0.0
6.058670988071357 1.728841803855816 0.0
5.877457486049096 1.454297236926778 0.0
5.724979192982589 1.756666409586195 0.0
5.529885788012015 1.462283739157555 0.0
9.514953777019835 0.7018468683209754 0.0
8.398665270372675 5.702731562702358 0.0
9.456442249775696 0.5772068858285652 0.0
9.565795671866349 2.345573662774494 0.0
8.830758563027459 9.247271599108435 0.0
8.523580738257648 4.88015211128435 0.0
5.580123316488715 5.701889892660689 0.0
5.398591029446707 5.685938459654249 0.0
5.367686360823392 1.778740548277203 0.0
9.546603444041448 1.754984055696778 0.0
9.489649223089446 1.641312329051244 0.0
9.617973952467912 3.363804764345866 0.0
9.584322830999731 6.729956156156573 0.0
9.597221861144487 3.948534024289882 0.0
9.49401963819799 8.089507968561776 0.0
9.207321074262563 9.416906871900888 0.0
8.27185428346661 4.464932191097996 0.0
8.207416067213774 4.35878753684812 0.0
8.332747746635944 4.354903699457511 0.0
3.990181919126853 3.930792395858886 0.0
8.267392138262498 4.254008221702929 0.0
7.997788712685495 1.196805377512679 0.0
9.600316638269724 5.639973985281733 0.0
9.550939606739425 5.737313319038155 0.0
9.44084303195315 5.74233753256161 0.0
9.50112296154558 5.834555019909565 0.0
8.897429225733994 6.685415510921676 0.0
8.762930941408914 6.695907295903629 0.0
8.654628175336732 9.278157371342388 0.0
8.544676900803436 9.133790942553834 0.0
5.294904777716057 5.855935872688884 0.0
5.216749389964556 5.66865685845661 0.0
9.508453581298625 2.239460033375932 0.0
9.599691370793206 3.169496930704394 0.0
9.546615051106684 3.073514534194011 0.0
7.484714626923596 5.028675123117963 0.0
9.588496050271255 7.850836295555126 0.0
5.153197381012662 1.471340286561097 0.0
9.433168304679345 3.071871997104804 0.0
9.610464706874994 5.829217654498672 0.0
9.561407772947403 5.926179534044419 0.0
8.273381980676042 5.705233340662362 0.0
8.330794188929296 5.594351887246082 0.0
8.207319603076424 5.596747949305344 0.0
7.251338559467102 5.233758892662348 0.0
8.708518799790543 1.130513882092466 0.0
9.590155250193266 0.5878623138195824 0.0
9.389919385420015 5.841079912164009 0.0
7.991397852194216 5.859910582924319 0.0
9.624951589233206 4.975554514425905 0.0
7.240016788025947 2.531866266726309 0.0
7.635666783493215 3.873554782053258 0.0
9.608476620993713 1.863530872936442 0.0
9.365330459496413 8.10677840682376 0.0
8.775076110585598 2.572737931759856 0.0
8.699389445914996 2.444602334375113 0.0
8.625078713232146 2.580891022578613 0.0
8.54447196848446 2.447624719286678 0.0
8.468898498943965 2.586757328881282 0.0
8.62282309213608 2.307826916202421 0.0
9.622102662978762 6.439307895185218 0.0
9.561995355724862 6.35103962032292 0.0
3.898245450818314 1.856155797593496 0.0
9.681759177700954 5.07069253017652 0.0
9.059254996454502 4.963357716933865 0.0
9.113144532326562 4.861710138088372 0.0
9.62140874877204 2.656009146517733 0.0
7.884510615470827 0.9666888912541309 0.0
8.14902661050739 1.005010215149227 0.0
8.491263206618079 8.527197931363634 0.0
8.408859203395778 8.697060715788105 0.0
6.54422152733529 1.954566069381189 0.0
9.563546573097593 2.755667904356369 0.0
9.453065492925557 2.761122255953964 0.0
9.676889098520615 2.755084315170127 0.0
9.678287124781653 2.556838324720633 0.0
2.60254317790297 2.278874965850319 0.0
9.211706272534968 4.050470567310489 0.0
8.526711683538949 5.698821878547752 0.0
8.296604023060945 8.533761944401608 0.0
9.649704314258118 5.543946557831669 0.0
9.651176136337964 3.85122804518279 0.0
9.44590154800397 9.498503704959054 0.0
9.580491248736612 9.476376347552954 0.0
4.3239388803087 3.921156392977062 0.0
9.65737873521736 3.075324100817917 0.0
8.128000846282253 6.160273991836929 0.0
8.06242981852327 6.292371360998262 0.0
8.500465019503922 1.442700595221201 0.0
9.615253212967009 1.649819368149096 0.0
9.561768620580791 1.538553925606111 0.0
9.435477757657937 1.527391516499924 0.0
9.627993450010088 2.242685831452484 0.0
9.5338252733548 0.4673994795805215 0.0
9.398055066504014 0.4589059948533885 0.0
9.669486082509058 5.920177035588319 0.0
9.621072177439727 6.016493814615133 0.0
9.506185962103057 6.018397021409126 0.0
9.196884440497488 7.898824858961557 0.0
9.112591143666748 7.789491461180181 0.0
9.664357762385308 7.950712034233033 0.0
8.46233617997115 2.308903464128035 0.0
8.547917980328803 2.169381684694277 0.0
8.139931430059324 6.410762600521521 0.0
7.672499127532963 9.099143622036436 0.0
7.91372855627271 9.178704612763656 0.0
8.463425076318451 9.290653726808348 0.0
9.643938029094286 9.335632419679458 0.0
9.647017668702574 0.7068996148634754 0.0
6.241662276606473 5.884018212993202 0.0
6.157742245066693 5.73500474100449 0.0
6.318815619949124 5.730068085823802 0.0
6.247706374231452 5.593094310939028 0.0
6.406948541886973 5.593272398468375 0.0
6.092564106310554 5.587409338401505 0.0
8.535507922245372 5.286142900439676 0.0
8.022959839404006 4.471630490587016 0.0
7.963561162854596 4.581393556789843 0.0
9.683487139413305 1.546750704925431 0.0
9.630761777960082 1.435922217091829 0.0
5.121714348989337 7.950140247572198 0.0
5.136464096196084 8.310254432483559 0.0
5.47349124035624 8.455234262268478 0.0
5.176273618280354 8.687190323573228 0.0
4.796664658962938 8.592678692862421 0.0
9.568705729418735 4.887269869750176 0.0
9.462711651199594 4.88832222094458 0.0
9.674903475028225 4.882285174433025 0.0
5.4996067353406 5.546583260717527 0.0
5.663632234555963 5.557613452957074 0.0
6.829408195405585 1.947174574944512 0.0
5.336529198289861 1.127585641139875 0.0
9.672387559812332 6.34138351957329 0.0
4.463988917379896 2.271060678869338 0.0
8.618048281355405 6.263841736419089 0.0
6.480949808711781 5.74815588680617 0.0
6.562207427719153 5.592185077216444 0.0
6.643040463857446 5.721233693378952 0.0
6.712825900331884 5.588664360236 0.0
6.79240375630333 5.711383948285569 0.0
6.86115931532141 5.584697050428064 0.0
6.939210100691576 5.704407337029545 0.0
7.007668476576536 5.580801046893123 0.0
7.084627386867475 5.702817970154801 0.0
6.633257976075473 5.460881327825488 0.0
6.931430743764456 5.461960451448691 0.0
9.682652370938209 6.533133024505995 0.0
8.761108695241376 9.450742747770144 0.0
9.146031326900015 3.764292700000154 0.0
9.089378801805193 3.661317181076136 0.0
9.514354521818781 8.994988681611192 0.0
8.157650730500988 4.262987189670279 0.0
6.329633198899328 5.4647789391701 0.0
2.340685767996258 2.811285337457589 0.0
7.379572471323651 0.9290892725587991 0.0
4.171878172186605 4.222320767259098 0.0
4.4876601621649 4.16473354200826 0.0
5.336389369563535 6.806464508860387 0.0
9.595468321212476 9.108133206829102 0.0
9.645038675267227 8.982113951305912 0.0
8.393140678816192 4.246338342095281 0.0
8.309440721624494 4.155300532283633 0.0
9.418269339704423 1.9925512363779 0.0
9.662781807969623 0.477809346089035 0.0
8.011297869803792 0.7518828483803571 0.0
8.250149975885678 0.7646904662196189 0.0
9.608674873602773 0.3618049194050078 0.0
8.692696069692623 6.582927327365709 0.0
8.628225948401226 6.705702462696891 0.0
8.701883181418305 6.822086652299242 0.0
8.559276855155542 6.829564723911442 0.0
7.069268463354993 5.459534423493629 0.0
2.654575201159115 3.323490466195074 0.0
3.610801136544596 4.044075244426243 0.0
8.263757217166944 5.48730323490738 0.0
8.138838162809126 5.491254533497952 0.0
7.90196833683664 4.477386962763833 0.0
7.987943097943191 3.978756490171551 0.0
9.704623491880403 3.945605151832784 0.0
9.461009573830147 7.301728818091931 0.0
9.532468631193666 7.399916015174975 0.0
9.582688928417856 7.292330983701011 0.0
9.652579613269625 7.387768793572397 0.0
9.699264016151023 7.282867433965265 0.0
9.633305589700536 7.188543855060478 0.0
9.505576100168666 6.961225778216469 0.0
9.43876966151099 6.342441564206569 0.0
4.908483672172518 6.098703904450545 0.0
9.135448256237908 5.269827196966999 0.0
5.905650502271389 2.025036080946255 0.0
9.709890722072377 9.452748507541063 0.0
9.663337613522643 9.572126259365891 0.0
9.603900123387826 7.495180532331903 0.0
9.720147629525837 7.483400774981126 0.0
9.674588415444239 7.588303295299578 0.0
9.653186673863587 4.039274180923234 0.0
9.053164539680804 4.764545162185531 0.0
9.164908495749003 4.763017269285045 0.0
9.226019227262443 4.858029410614327 0.0
8.809947621994619 3.4964384919072 0.0
9.10538997155458 4.665865142902959 0.0
9.331074106432244 5.748993480915537 0.0
9.055854333858068 7.918554535314415 0.0
9.446431573964945 8.209836764658437 0.0
9.573844810886287 8.191100251691205 0.0
9.309704769895653 8.244395007943949 0.0
7.240329561730736 1.676197957122907 0.0
9.543389817573933 3.660019800390455 0.0
9.598599341122098 3.563130123982772 0.0
9.652615161407017 3.658119804270645 0.0
9.706336063693934 3.564815526226687 0.0
8.632284427755456 6.946688912416058 0.0
9.682863230715835 2.349655023034811 0.0
9.571538455120994 2.142369886250143 0.0
8.090821900439733 9.017409120951333 0.0
6.812258669899192 0.9007667548831626 0.0
6.50135254578461 0.8974046495177885 0.0
9.598335906230732 6.246437748035812 0.0
9.719677442549804 6.253968775436637 0.0
8.593026822691716 5.180101360605356 0.0
5.537586126848265 8.836083861509138 0.0
9.688689404995035 2.143487155934306 0.0
2.821389253975936 6.507820864074362 0.0
9.176571289960709 8.507736431357309 0.0
2.918303740542162 8.256728920338826 0.0
3.428955230180972 8.401446814887457 0.0
8.490587404589881 6.715350139132777 0.0
8.86049054904785 7.243279881821806 0.0
8.93696309213556 7.356650230611625 0.0
3.951931175165697 5.78308550088855 0.0
3.65055612573298 5.91672400098539 0.0
3.668142216548471 6.247526235973777 0.0
9.717269848920886 5.821831227352286 0.0
9.708364917734201 3.164198601626433 0.0
8.45581975650687 4.569560863828342 0.0
8.204448312099833 6.040774355519757 0.0
8.65969449127868 5.485991799508151 0.0
9.707534571012967 5.634423933296901 0.0
9.62102991883279 2.849662850313935 0.0
9.144093558002634 3.560383427867003 0.0
8.29763273805118 1.77155302934031 0.0
5.280452715709455 9.01633391004168 0.0
8.984558945859158 6.99932633710603 0.0
8.4157550875812 1.275784953143711 0.0
2.068078118650995 3.355462780535101 0.0
9.205703884756806 5.568274778556933 0.0
9.745857863753141 7.178456670302003 0.0
9.681628895748586 7.081494416756802 0.0
8.875818787971069 6.240744812097083 0.0
7.993733797566922 6.414830952863579 0.0
8.462810157069566 3.377071044664789 0.0
9.29428363519789 4.759591981903337 0.0
7.933956818298286 5.97437536746848 0.0
9.028281726378319 3.558713145763133 0.0
9.083461773461467 3.455531762175701 0.0
9.73231939683535 2.849247643393067 0.0
6.70072305037728 2.192432536215492 0.0
6.423245125077639 2.212870246546939 0.0
4.931537051605536 1.135086496804522 0.0
4.746426561586179 1.500381091957315 0.0
9.707706579932626 7.836419656220658 0.0
8.590593344701457 1.595639668013959 0.0
8.708946574109854 2.1688179918246 0.0
8.634728854549891 2.028564483452208 0.0
9.230357659411311 8.129337203173913 0.0
9.102841374461482 4.452881308250647 0.0
8.472081531214734 5.388993924853032 0.0
4.925996806199801 5.844046944846857 0.0
4.702806345752284 5.745688656289065 0.0
4.884357002239844 5.633237011762874 0.0
4.709628434300812 5.536404116679045 0.0
4.530800966746534 5.627044171217377 0.0
6.040296145349247 6.603808099703576 0.0
6.162203578696918 6.795213950202512 0.0
5.923135943221574 6.824060069869489 0.0
6.046693245732212 7.010423490915212 0.0
6.297337598588478 6.979895528204233 0.0
7.760448385794147 0.7294020304851334 0.0
8.492228348169641 6.958778476405878 0.0
2.89219822877093 1.704113597264478 0.0
2.26178643438086 1.7814602252425 0.0
9.726968895980871 6.009547057102511 0.0
6.63195110828313 0.6072886418835157 0.0
7.984023036954866 7.515675826210831 0.0
7.893857204140559 7.681876703427663 0.0
7.778465117872411 7.537836322197895 0.0
7.998204230811618 7.844922503023499 0.0
7.798554315988981 7.858161805718108 0.0
7.917846202023782 8.03040048103727 0.0
8.547520504556728 2.721261126162116 0.0
8.39253850806587 2.732073315877738 0.0
8.306047241032278 2.59069854402512 0.0
8.233011054235162 2.739783364361515 0.0
8.318836035587811 2.879838477099622 0.0
8.159530874574331 2.888511553151382 0.0
8.245490421394788 3.024568439743106 0.0
9.759103003747676 3.077839427881478 0.0
8.083610090773394 3.033523757291178 0.0
8.174562583800352 3.166768504406541 0.0
6.046769434852523 1.155662270344939 0.0
6.968371001421964 2.176347877216873 0.0
8.324858098380334 3.152966249334499 0.0
8.145556596142626 2.609897633546475 0.0
8.970652052821418 7.804556541250797 0.0
9.033737629244714 7.681328986528639 0.0
9.62347010002576 4.796939565664328 0.0
9.72520380348743 4.790261082613535 0.0
4.882631186210167 5.455006233451049 0.0
4.618356368594037 3.933076284395493 0.0
4.748083507220199 4.151025177732873 0.0
4.641724290430313 4.358202249373887 0.0
4.87055838101999 4.337900676660481 0.0
4.974114446887331 4.149149057174687 0.0
5.081577844806959 4.3240148266423 0.0
5.179521650033781 4.148725180298481 0.0
5.276261408871418 4.316673822529601 0.0
5.369189110897883 4.148362797753505 0.0
5.463892033849439 4.338819369807593 0.0
5.550828466075906 4.146274465971151 0.0
5.646554822352869 4.303571429647391 0.0
5.728109623160046 4.138582010823754 0.0
5.821689108984419 4.291959598724587 0.0
5.906082534948073 4.141649907302701 0.0
5.99655838673762 4.288752711512514 0.0
6.077312859438928 4.141011188943332 0.0
6.164215275138099 4.281164574562373 0.0
6.241782344986693 4.140701084167517 0.0
6.324316420613108 4.277393447415522 0.0
6.40284165425941 4.140026953305852 0.0
6.483655157361099 4.273418937894759 0.0
6.561170698911611 4.136221843106807 0.0
6.63512300179586 4.269917278694155 0.0
6.720306110251473 4.133393659385058 0.0
6.63777078218551 3.99617001426095 0.0
6.802492763973074 3.994355399489989 0.0
6.798834760478153 4.276914787769972 0.0
6.15377608509923 4.000134206628027 0.0
6.548727135071258 4.400510710520637 0.0
6.251479300130713 4.421887359316258 0.0
5.275876048175579 3.979624500657822 0.0
5.910905077162284 4.431174408784691 0.0
6.717070288412452 3.851239795555301 0.0
6.883499045994213 3.852555480300214 0.0
6.96664848901999 3.994033961856844 0.0
7.048208567116626 3.854750001965969 0.0
5.810004974283072 3.982497501655442 0.0
5.586615391658107 4.471070246359201 0.0
6.547331954052155 3.853872077215347 0.0
5.179081233207816 4.485638492900557 0.0
7.126615227065496 3.995337770596979 0.0
7.209459742762513 3.856893463870469 0.0
7.130226097876905 3.713620439679428 0.0
6.63075064074106 3.699684148676045 0.0
6.446985573861992 3.697358756862005 0.0
7.043151422977365 4.131713936060725 0.0
7.198322215260019 4.129850614748363 0.0
7.119378405252723 4.26005098890218 0.0
4.797146270976422 4.525762781577414 0.0
4.608329098388589 4.573584257851931 0.0
7.294442092743627 3.720853338661503 0.0
7.215753312764997 3.571378507508807 0.0
7.049631633956289 3.568047985538775 0.0
7.133765707749521 3.414282375958479 0.0
9.755079417839903 5.539705890434435 0.0
9.698955703441971 5.450920012703194 0.0
9.717604099406742 9.09084770432896 0.0
9.276716006673976 5.847248422342224 0.0
9.339081208926798 5.941174203394446 0.0
9.031261921742963 3.750271483819014 0.0
9.08721978689863 3.853416037308712 0.0
4.801461566647803 7.510704110489921 0.0
8.206553504932042 5.818005960412773 0.0
7.362361315389098 3.863102442315545 0.0
9.492826845316191 2.963845037486267 0.0
9.376710375304633 2.97229517374228 0.0
9.3192743723601 3.070687802230453 0.0
7.915389082113898 6.293241865913004 0.0
6.735006382384437 5.832450056405368 0.0
8.456481836836168 4.35369289249905 0.0
8.517718268476031 4.246675068616396 0.0
5.583512022030555 5.411069060406398 0.0
5.73625200174779 5.422617752052123 0.0
5.81006929286229 5.548584937688919 0.0
5.903438861894402 5.420604003204523 0.0
5.43801870974416 5.402925156167655 0.0
7.022641548594327 5.825217331839047 0.0
7.165095795605366 5.826005223633447 0.0
7.223078558430726 5.690146755650336 0.0
7.841396000338385 4.586693006493787 0.0
7.904793170875705 4.690826189066096 0.0
7.785999820520073 4.696719777099973 0.0
7.846448506395101 4.798518978096564 0.0
7.728149182067156 4.803800941124008 0.0
7.788983823826226 4.904802634695232 0.0
7.672018889153144 4.910077510508749 0.0
7.731996012352178 5.014717724244488 0.0
7.852072803124419 5.00743796185411 0.0
7.779278698005006 5.118909346425974 0.0
8.088113864063853 5.605434545811022 0.0
8.016457362785575 5.494849890158723 0.0
8.072290383394757 5.385594956317259 0.0
7.95068657972964 5.38825563681957 0.0
8.309366678475389 1.438342408757099 0.0
9.748160780780179 1.447794693754379 0.0
9.696454228162398 1.337889922375316 0.0
9.568813761940916 1.329560834053294 0.0
9.638326779791626 1.226729570935787 0.0
8.472132467407484 5.182856496818138 0.0
8.066211547412054 6.53691730655352 0.0
8.217035586462373 6.522976700918602 0.0
3.544839338670893 3.324491119989469 0.0
6.999740002965287 5.347729916247808 0.0
6.874544698914502 5.347027470386579 0.0
4.880451234715014 5.193043717957879 0.0
9.104510033763066 9.313204713465637 0.0
9.0466357104558 9.45359399494339 0.0
9.146803165140184 9.569652364413551 0.0
8.134107047896672 0.5527712356100052 0.0
8.369770412730738 0.5571215815175228 0.0
8.47386979744655 0.7564607169846485 0.0
8.585193608569258 0.5749174254532757 0.0
8.683868132726584 0.75505070091701 0.0
8.787381435061018 0.5813987798627239 0.0
8.697570280442534 0.3771156480326233 0.0
8.530048434259976 5.077280516000916 0.0
7.995091351438729 2.90367515012593 0.0
9.731083608815164 1.662638626153251 0.0
7.260488865351954 4.255073962371814 0.0
9.760728358076392 8.990038509880067 0.0
9.716710396257366 8.884160310398862 0.0
8.794627466210242 7.369659405098349 0.0
8.868068657550866 7.515048014893154 0.0
8.702594597629135 7.510501129643432 0.0
5.132320689147051 0.7610757801158905 0.0
9.755852887652699 3.853180024615871 0.0
9.787424819067885 2.757921105725315 0.0
9.731193479931608 0.3736343090103709 0.0
9.796526908308536 0.489684029254899 0.0
8.226019692057042 2.453349105940535 0.0
4.560989821496479 5.428206018250252 0.0
4.348810639659689 5.517048281386008 0.0
8.785190163106925 7.119142251269924 0.0
9.015515413043023 7.464769766852701 0.0
9.754861440190705 3.659036930324926 0.0
9.7543610723378 4.033687839160082 0.0
9.707881226943384 4.127219992296752 0.0
9.52841017383273 8.309020665649431 0.0
9.65186044414544 8.289498614805698 0.0
9.714051275521857 8.173576484362068 0.0
8.209758892476394 8.715513071423135 0.0
8.097084883671858 8.548851201381087 0.0
8.177989947800599 8.367872862579052 0.0
7.974142434808908 8.36779470623567 0.0
8.409012054919861 2.142624252464372 0.0
7.707002321497132 8.039129945341395 0.0
7.574653123518228 7.83895791570255 0.0
9.229858094382692 5.951357214361815 0.0
9.75307989876696 1.229893222503321 0.0
9.715811155868643 1.128779429890018 0.0
9.597960915003707 1.117058287635912 0.0
9.672063923518955 1.020806103150243 0.0
8.99090422125785 9.593878510105375 0.0
8.133165456134304 9.257620998029804 0.0
7.976779931497633 9.420725324095141 0.0
9.77231778617502 7.927819487779705 0.0
7.957213679655531 4.364530256281665 0.0
9.609903116082736 8.403725680286847 0.0
9.724891358972584 8.388392708395173 0.0
9.687487059868507 8.495935345161797 0.0
9.810055520269009 8.494090598382963 0.0
9.755967487162335 8.599790818513082 0.0
9.645698986824481 8.606121319182705 0.0
9.721376049217765 8.699989876681524 0.0
9.773009257015609 4.884557953188837 0.0
9.830105798750992 4.796546393900876 0.0
9.775335108731761 4.686093304257503 0.0
7.455611517737074 3.730099283949135 0.0
8.906943567829634 0.4197477661467797 0.0
8.980613334153533 0.5814185917581446 0.0
9.081059111759728 0.4263421860552371 0.0
9.821654809259165 3.576985724143072 0.0
9.761309244784803 3.4792267780002 0.0
9.763329553045937 9.353068233045157 0.0
4.463051839136694 1.164440352584939 0.0
8.0213168204867 5.283436382300235 0.0
7.89385412333227 5.290429544753158 0.0
5.806940001023414 8.583716119232427 0.0
5.88977793877374 8.96065112858812 0.0
9.177759062826041 8.25539130897928 0.0
9.626582559276994 2.05283181283147 0.0
9.747673294325121 2.064954301745188 0.0
8.775905508647185 6.951821187702613 0.0
2.3581644273991 6.029034686663493 0.0
9.777798009058461 9.548066962498762 0.0
9.737129197219856 9.662299853506903 0.0
9.615080366030512 9.683349544763068 0.0
3.315839678697904 6.042943273456425 0.0
8.915083018115329 7.937748428923896 0.0
9.489832173860055 4.712364754630572 0.0
8.118313727862493 8.013944064029838 0.0
8.902248750797776 7.67372145952523 0.0
8.954075939212636 3.463080912810881 0.0
9.45247551997678 2.133243108303608 0.0
8.311151553157742 8.899233004613622 0.0
3.28672004268868 6.826745674539142 0.0
9.86008383798735 3.468233656255824 0.0
8.389990589860254 1.947086063498656 0.0
7.144231739553659 5.329544660076687 0.0
9.654500729007207 7.743301971143119 0.0
9.761920842881946 7.740144345898896 0.0
9.692820773976567 0.2651585113981998 0.0
9.690951720399688 6.100517071814821 0.0
9.775704281989471 6.077882312279847 0.0
9.823117117198079 4.115168542267924 0.0
9.764391943581737 4.214465954230587 0.0
9.659455011849253 4.218716850797838 0.0
9.713462125022623 4.30742830316693 0.0
9.849638067150842 4.208845651573708 0.0
6.376241713254513 3.858766051594979 0.0
6.274931849158213 3.701528298009006 0.0
7.097780104117746 1.926449727602711 0.0
2.457742027508782 3.810157622192786 0.0
2.963634206580268 3.740748099915693 0.0
5.065585416063965 5.544355730437482 0.0
9.783560252464587 7.566507987677117 0.0
9.825819294611026 7.470942204664841 0.0
9.799976114123012 1.01659516618323 0.0
9.745559590633832 0.9150866860898854 0.0
8.20473400632469 9.495828670767946 0.0
8.784586030320169 2.054461500762216 0.0
8.758471587067168 1.888286802854785 0.0
0.9188935087347281 8.510730800272478 0.0
9.674192026048217 9.20389587377276 0.0
9.796314981283475 9.185916994648775 0.0
7.206882433199502 5.452024361489832 0.0
9.773927048949279 6.334665846819535 0.0
9.830288393591173 6.225300227041885 0.0
8.25177349297509 3.282767705830209 0.0
8.099233469407428 3.304040153764131 0.0
9.607860512870598 4.315652630490023 0.0
9.403674738018715 8.367349042046314 0.0
7.611756786273919 5.018691202305147 0.0
7.549513964643336 4.923310232561835 0.0
9.80986724662116 0.2915868356190958 0.0
0.7757562810577034 3.504187313079081 0.0
7.659562100664981 4.698467529240196 0.0
6.539424975891206 3.541729955691742 0.0
6.717348880400739 3.55221857686142 0.0
6.836337579501807 2.417476958454302 0.0
7.096480496160066 5.959124656438389 0.0
7.189742782777612 4.377051328076039 0.0
7.051723187622053 4.38470822973091 0.0
7.125489805519186 4.497018383456762 0.0
6.994915621927777 4.501504591168814 0.0
7.056755276274058 4.607929817497045 0.0
6.932937068803914 4.613249390039674 0.0
6.86629288290367 4.50541343988659 0.0
6.80427099775847 4.617607827251794 0.0
6.739195362053689 4.511124964201849 0.0
6.677260697693361 4.624288827143181 0.0
6.996760608675822 4.711715831373894 0.0
6.316045249462968 0.6456945497683586 0.0
7.321834163850416 5.816449323512759 0.0
7.833101485370825 4.390058096386987 0.0
4.996572652976738 4.498711166259074 0.0
5.112334577457371 4.663858846723513 0.0
5.271923064784868 4.629759173373871 0.0
4.93773508827367 4.668006487116195 0.0
5.348137647919096 4.485934621930562 0.0
5.413454827497575 4.62999925573761 0.0
5.356581113747675 4.770594395332836 0.0
5.013422223730484 4.793321773780133 0.0
8.58674425943957 0.9312335381466886 0.0
8.776450596582496 0.9362399987293505 0.0
4.783496233934828 9.486061758876032 0.0
4.544176394620909 9.034071856445296 0.0
4.082330493623582 9.015765881393772 0.0
9.820867469965414 7.285959215547852 0.0
9.852697883440127 7.166089674802766 0.0
9.260999083164238 2.971390964911171 0.0
9.197701900169713 3.073162109379564 0.0
9.31960210441945 2.867465579641856 0.0
6.660951583415121 3.383363199709994 0.0
5.210469976037585 4.761678854423166 0.0
6.740780285297665 4.733615686805694 0.0
6.611362405615225 4.731958642073806 0.0
6.549091884465382 4.629620704100811 0.0
6.491761716522486 4.733409494449344 0.0
6.425259228542098 4.640546096196947 0.0
9.715556659367534 2.986725573570596 0.0
3.710524324925069 9.463213827486557 0.0
4.768537031214573 4.727001037865238 0.0
5.039413681704655 5.378508462165627 0.0
5.188746429211535 5.440476671296013 0.0
5.172214816037712 5.298914527247826 0.0
4.469063601436893 3.667917323494335 0.0
3.799121596584382 4.741629285988305 0.0
3.661085664896249 4.442847704416992 0.0
3.316563386321876 4.380147387454913 0.0
3.802087298647255 5.26743535640985 0.0
9.738116341343215 8.047178982429934 0.0
9.85106076399546 8.021725551312715 0.0
9.837581050304836 2.844176011307251 0.0
9.664579962075123 4.402853107737106 0.0
9.76433159763034 4.39807801415352 0.0
9.718924973226878 4.487825491046641 0.0
9.826405563645343 4.494594135148365 0.0
4.931068003413168 6.359330991212394 0.0
5.130175746947236 6.201075257041828 0.0
5.143884286052002 6.445382329515047 0.0
4.953395875296406 6.628748468717369 0.0
7.833019185167153 5.400347121613631 0.0
7.766636138801143 5.313240048256084 0.0
9.767038723422333 4.578090619166644 0.0
7.315369355237483 3.441501197259575 0.0
9.556068971301514 0.2347811136726856 0.0
5.733871280791703 4.444861510772459 0.0
5.828809543126846 4.569791247698539 0.0
5.986701526182213 4.562881783985375 0.0
5.912543327921148 4.692966271273211 0.0
6.052130330528581 4.682477327897978 0.0
5.773525984744635 4.697697018456535 0.0
6.121646311546238 4.572302645403103 0.0
6.182349700936326 4.67713231096357 0.0
5.846371383601797 4.808939734754761 0.0
5.117807918383606 5.974361363083184 0.0
6.256132501905665 4.575863546153224 0.0
6.324770064521816 9.645040261272253 0.0
7.345522892050965 4.12581088034536 0.0
9.338523512844539 4.854480276600515 0.0
9.286984287289403 4.959628690044808 0.0
5.676298026114105 4.589279806918992 0.0
5.631257891894775 4.722749088404111 0.0
7.970415275563177 5.621040275419208 0.0
9.565118337557308 7.081391220827488 0.0
9.626201005045262 6.980441083020495 0.0
9.733729506193331 6.979928568877979 0.0
9.684556253529976 6.887102896543928 0.0
9.780785815410074 6.890287441101827 0.0
9.740054813822885 6.794211367612523 0.0
6.462628988057306 7.629921412015864 0.0
6.692564520952154 7.473594130811262 0.0
6.927983108788191 7.570982428592125 0.0
6.899878641134941 7.329306734748538 0.0
7.117542472438434 7.416951094809493 0.0
7.089537168123128 7.186691566729968 0.0
7.296585396514727 7.275888419524222 0.0
6.879678873774065 7.097443005287856 0.0
7.063454637059129 6.967740076426161 0.0
7.329105042924355 7.496317641003757 0.0
6.867084781778411 6.878842928865059 0.0
7.494278796275744 7.351949197351029 0.0
7.462564159480594 7.150140034494138 0.0
7.644835001206406 7.21506678718646 0.0
6.682478929414216 7.008358327294905 0.0
6.449199855715812 7.365660640952548 0.0
7.548139855358765 7.57299228324251 0.0
7.008502809092701 7.844601794812628 0.0
7.371739019901781 7.707688433423657 0.0
5.665345294602155 5.290628720253272 0.0
3.987583013016546 4.486920698115711 0.0
8.893480480320447 0.7785000884179994 0.0
9.715485963651112 0.5955299613117169 0.0
9.761785841543585 0.7048670948649375 0.0
9.670304314877074 4.578896619304786 0.0
8.058509626083154 5.744161686650483 0.0
6.181795443628869 5.462040811515966 0.0
6.256771804808641 5.338464817889848 0.0
6.124070400983443 5.352376180901929 0.0
6.399679261813415 5.349186390888865 0.0
6.477776305607503 5.46505688468465 0.0
6.541624525938461 5.346017118512589 0.0
6.673064575428321 5.339051516933525 0.0
6.599301548842115 5.241958624987057 0.0
9.573774011620444 0.815274945835158 0.0
5.86493292693426 5.877588788523632 0.0
5.552663040119136 6.957487930464628 0.0
5.535080960199246 6.663033131707637 0.0
3.708603689392072 0.5979254716153909 0.0
3.31896983256719 1.188583855309964 0.0
3.895664898001925 1.128137111173669 0.0
6.363360407965353 6.032416442205533 0.0
9.445959758065749 1.070139246426051 0.0
9.50632172780449 1.214052376665338 0.0
9.441030033980638 1.325047485624912 0.0
9.295799464644857 1.341410624832976 0.0
9.184164107767781 1.461677744200096 0.0
6.407191016756832 4.407273313799791 0.0
5.544591888593027 0.7652641669375747 0.0
7.883090151006535 2.497506182548758 0.0
8.073420508370992 2.120510489750234 0.0
5.494822040671399 4.732314720081375 0.0
0.8986976806403217 1.464611451578306 0.0
9.536325549598013 6.83286654168725 0.0
5.972289519322897 5.727532110854501 0.0
9.82203607053145 9.443411729566549 0.0
7.263199949874008 7.064207941227515 0.0
7.233659553805083 6.853135694774254 0.0
9.793310082768443 7.072747972018893 0.0
6.734168931095253 9.67499220075154 0.0
6.941134861034159 9.382328333169653 0.0
7.285822522704258 9.443989747444657 0.0
6.576263515512108 9.333035011158342 0.0
7.160560566479093 9.127732577621245 0.0
6.218711947378506 9.298064908857533 0.0
6.432383355119106 8.980985203293491 0.0
6.795390278360442 9.046043538032663 0.0
8.54677014121837 0.1957422484480979 0.0
8.528696320820908 9.804850950580938 0.0
8.42644965647489 9.604735484095604 0.0
8.010239224104339 9.715048083583248 0.0
8.644359648763341 9.628432815860457 0.0
5.344212921686536 5.526744195650314 0.0
9.760936589662048 7.38409687515441 0.0
9.128187788393989 0.1445485608215519 0.0
9.133307661752394 9.854833215426817 0.0
4.867351616228264 3.944459575003425 0.0
5.905323253270366 7.385600364255367 0.0
5.909045412185362 3.361969954191194 0.0
5.80580919758911 3.569999290452344 0.0
5.578230704221431 3.587842862412673 0.0
6.013352753603037 3.550699073477782 0.0
5.936624955014758 3.721630401607248 0.0
5.735413275357409 3.78528948606432 0.0
5.512538847486775 3.794760621907932 0.0
5.360571639388366 3.618649018042938 0.0
5.134141179590394 3.459385929220745 0.0
6.167399567008798 3.367365990358096 0.0
9.766756262206602 8.291756450136036 0.0
5.486063578307141 9.64505925252771 0.0
9.497624614180321 4.328873442170357 0.0
9.811387324954623 1.570516917365688 0.0
9.389210081887331 4.69150887571586 0.0
9.704395728912932 3.754226393630331 0.0
9.808172776193384 3.748784464356272 0.0
6.549660911932182 4.839747932361234 0.0
6.757415124099031 6.077939876843736 0.0
3.805578542126494 8.040840085419626 0.0
4.232580149691158 8.198659880701744 0.0
4.559765382564095 7.87091698350757 0.0
8.3829075948167 0.9495097054886067 0.0
9.8571301061408 1.456307792614791 0.0
2.005900212453279 4.535525273813588 0.0
1.85904408608185 3.956445706785572 0.0
1.979307922430775 5.474327285927505 0.0
4.387923194305381 4.427191306527721 0.0
9.429258370703248 8.873693567695483 0.0
8.99196583083892 4.664567567015693 0.0
3.050357122593155 5.368999067452741 0.0
2.861107385476722 5.785089447130829 0.0
5.005058958272409 3.711196438448062 0.0
9.8972295764837 2.755337284632969 0.0
9.581048890980513 8.853909321617065 0.0
9.668838904423916 1.762418716497425 0.0
9.716576458425756 1.852218615166234 0.0
9.799043132681442 1.780583141193779 0.0
7.661868217848455 2.880323287492419 0.0
6.780136552904057 5.443858690999834 0.0
6.489544866845868 5.913957888434588 0.0
6.880149522020364 4.134257616716107 0.0
6.970134365280068 4.264072319341612 0.0
2.225481516813409 9.348422240784 0.0
1.843418032490818 8.641605249943353 0.0
2.198000805242772 0.6459947140825729 0.0
8.740020306282506 0.1903932731609072 0.0
6.86957996016679 4.720776242956433 0.0
7.430920333506809 0.2702852342693345 0.0
7.302066064947383 0.6134316505458445 0.0
9.305398039877746 4.64854361125207 0.0
4.078151380865065 5.203425462519088 0.0
4.080704120371218 4.778853303303787 0.0
8.052525541571825 5.965483159581719 0.0
6.367194027835946 4.754896037842673 0.0
8.604191121620719 7.648182513679963 0.0
9.546446695207845 9.234701521982952 0.0
9.018652854946867 3.351011585453845 0.0
9.143853648154607 3.350173119015413 0.0
9.067079866763024 3.245174561579149 0.0
8.991492136849105 3.135578770028028 0.0
9.29603967712795 0.1426516429033488 0.0
9.392428271030795 0.2506306237151588 0.0
9.223973843394301 0.2912279164401488 0.0
8.39375191941536 3.018777714002827 0.0
8.4836475746111 2.88135207267795 0.0
8.741089053946197 9.821127577434911 0.0
9.803966507713174 5.448064463539533 0.0
9.748132240148552 5.359371181503531 0.0
9.850258990973547 5.355211921626304 0.0
9.7965346514158 5.266762244994661 0.0
9.84142096963129 5.171050273734619 0.0
9.738843612428232 5.167483913244169 0.0
9.64168976006725 5.359875132194057 0.0
3.335917453809221 5.671837672982919 0.0
6.962669142802881 1.683222554707996 0.0
7.365210844496719 1.887492842536114 0.0
7.517378971174123 1.677983072937792 0.0
8.00383870208024 6.089394601875145 0.0
1.725435941000569 2.759295503019395 0.0
7.907977929549089 5.102827208603365 0.0
8.052861051278896 0.2683271125209605 0.0
9.80169732768395 3.385443381464333 0.0
9.831597648680848 3.28491948963525 0.0
9.736335895866404 3.316207814499244 0.0
9.597256128490281 3.756160701977744 0.0
8.865819925321706 3.366235906378775 0.0
8.489614436807788 1.757152185195495 0.0
8.88089641144391 1.078983279100314 0.0
7.430923851187758 9.724389499796425 0.0
7.584252919312249 9.509430586267927 0.0
9.744026095940516 2.247117754488748 0.0
9.729961521243718 2.659836747108116 0.0
9.790866569780063 2.558993767350471 0.0
9.736606445116795 2.455104424879619 0.0
9.846806182714698 2.452157456754448 0.0
4.518102112052724 5.141350889745285 0.0
4.519880229178207 4.85678334497067 0.0
9.7302407894617 6.434012603549242 0.0
9.787537474544765 6.523591663056312 0.0
9.744262337067932 6.617499601377625 0.0
9.8406238811518 6.41591236129004 0.0
8.914967252734657 3.579360039684312 0.0
9.154797282599406 5.670753066089419 0.0
4.228839454580575 4.612979739018002 0.0
6.095037541675208 4.42126627187728 0.0
9.304166983880842 9.864854494751789 0.0
9.406445527105628 9.759007358529582 0.0
9.256225114941945 9.700832989525724 0.0
9.796206564635622 2.351215649506205 0.0
9.849373673349081 2.25090453834006 0.0
6.332048155295931 3.511675163099286 0.0
9.069679774213784 3.022879178706259 0.0
9.070599961450037 9.055284879641471 0.0
1.808685691036764 6.331557276533421 0.0
7.120156826652838 4.698481230214924 0.0
7.052894345811342 4.799848851879358 0.0
4.739957520484086 5.369107149361242 0.0
9.389197839958292 7.197139943834638 0.0
9.046688232613976 4.560364044038737 0.0
9.162685461967492 4.562194096410666 0.0
4.227377821420887 1.564128177298305 0.0
9.201090975245227 2.794301402811909 0.0
9.251941624303948 2.677556975242327 0.0
9.186758273070138 2.563916005021366 0.0
9.317609833868786 2.560335260954038 0.0
6.57599191748324 2.437689779955877 0.0
6.305556560534859 2.459112595979303 0.0
6.981058048792093 2.642476994448363 0.0
9.886113463139504 6.510498309609482 0.0
9.250462794607717 6.221362629571698 0.0
9.305373999084068 6.108271307139882 0.0
9.390477915810829 6.228015172491477 0.0
9.44452571968143 6.114582165110393 0.0
9.502105740270528 6.197677857389309 0.0
9.31559697209813 6.331647407124485 0.0
9.370938253597153 6.437386206819511 0.0
9.594764406124872 0.1099001288712305 0.0
9.602872681151728 9.894988341116305 0.0
9.622661196143387 8.076680696281343 0.0
9.769069277144705 5.9102532189237 0.0
2.615076109785583 8.807551523115547 0.0
9.658920005405456 5.730890135691177 0.0
9.76063135061807 5.720703211793342 0.0
8.63963723169499 7.177334225227945 0.0
7.841904391869763 6.41346852896409 0.0
7.764520718520185 6.297267738834625 0.0
9.546492996136271 3.465225175657335 0.0
9.25600964352143 2.219157062786616 0.0
7.625057159226293 7.012987957636062 0.0
9.529121062829038 7.730283486008674 0.0
8.329887090625894 3.845190321147069 0.0
8.265841850823831 3.95687001944245 0.0
8.402006523775544 3.947660780406651 0.0
8.128436391670505 3.968543393650448 0.0
8.46705122470662 3.835767362024195 0.0
8.218867047074696 4.063481375518748 0.0
8.089763413611255 4.08062363292928 0.0
7.939578083855268 4.111915744184436 0.0
3.74991304509639 6.615676756107112 0.0
2.627714335615619 1.170993030860914 0.0
7.046129971268607 6.759930788612616 0.0
8.534603732661887 7.486325780553722 0.0
1.569381386467569 2.042794535871475 0.0
6.228703743210918 1.986421863690014 0.0
6.467030855792859 2.67190498312861 0.0
9.272246093269825 1.975478263632296 0.0
8.05269609263041 3.854522845257449 0.0
8.008595521536957 3.177870309354594 0.0
7.929796740504207 3.350600835935766 0.0
8.048703574664067 3.449582532910417 0.0
9.72947480375618 4.973926800124758 0.0
9.784850360535604 5.072865219810449 0.0
9.896036387646596 5.069261557893528 0.0
9.633140953203334 5.168645132864771 0.0
9.558102991128836 7.602453108835212 0.0
7.278758746505716 3.994295887299482 0.0
8.306681733482405 6.936428510427854 0.0
9.487163072013963 3.757777670075558 0.0
9.532950522284125 5.359403698944497 0.0
9.816036650072329 3.927268437107025 0.0
6.173882586235392 8.734645960664665 0.0
7.972518459433741 5.003005338485466 0.0
8.398453459336153 1.601072016988848 0.0
8.97460527296194 4.040886705742754 0.0
9.037941657530773 4.143578781749325 0.0
8.849604200183613 3.828506169652706 0.0
9.545296177100065 4.042698359132156 0.0
8.595941796785514 5.806754902023664 0.0
8.65588412428292 5.694192853853139 0.0
8.723710665131787 5.801528918332044 0.0
6.861288985046249 6.673713222735126 0.0
8.87477249219366 4.664500928777609 0.0
8.72385765226959 3.608276264790996 0.0
7.145228858696953 5.573648565429618 0.0
7.282945121585866 5.558559688509987 0.0
9.224761401603633 1.602363370249125 0.0
9.609115686587552 2.986868833620756 0.0
9.633989947851914 6.628120633848649 0.0
6.046214325132457 5.45615093027661 0.0
9.017014346798927 5.271996636983457 0.0
9.070824864071271 5.168510834798647 0.0
9.189021391555556 5.166867900487267 0.0
9.123328759137758 5.064718588163964 0.0
9.240587446378079 5.06459430516883 0.0
9.250848280531756 5.267364371053135 0.0
5.773050603406019 5.7192906317521 0.0
8.576466432793914 4.3559007860436 0.0
8.634627802680399 4.253467736542067 0.0
8.461790117175607 5.591735227444779 0.0
8.907610717370224 3.713397213891439 0.0
9.80665594564509 5.628066492225966 0.0
8.985935132601089 4.455263493464225 0.0
9.00640209566022 5.067597672073404 0.0
9.833659276096986 6.976519563917422 0.0
8.0283368553477 4.687271895436317 0.0
8.326580191759327 9.127498457128247 0.0
8.650637373791266 5.07513089931925 0.0
8.701067313435203 2.700069743477523 0.0
4.825307249916392 4.884175191874744 0.0
9.418335984190309 6.858444798015129 0.0
3.91434687300816 8.542956908935874 0.0
5.569239724399552 2.064135034637056 0.0
5.234271567762738 2.128974435011933 0.0
5.757920427527626 2.312422707096966 0.0
5.43365689737979 2.427455772745759 0.0
5.673210219624612 2.602111218343444 0.0
7.214258468265766 6.652783071431555 0.0
9.823626269633962 4.30685540664529 0.0
7.96996639420014 4.794005510174826 0.0
7.616003332725032 0.502676560965646 0.0
3.050634530589821 4.659174799474146 0.0
2.870894249800723 4.246924313393336 0.0
5.285393339952368 6.079037173753393 0.0
9.439954241218905 4.23581687956071 0.0
9.67709722097145 4.710772408106511 0.0
7.40767785509217 4.259947873553335 0.0
8.396202587439676 5.486075637998701 0.0
8.323689688705493 5.372061002264632 0.0
8.191312386254125 5.384662546230823 0.0
5.304380054816289 5.369675374029755 0.0
9.093848379546637 4.047647920840374 0.0
7.916313220758624 3.045043876114836 0.0
8.435854831444637 4.144861908356168 0.0
9.060262453079693 0.7340576053322918 0.0
7.053195520344596 5.238809779682351 0.0
9.621762679347093 2.45205452967588 0.0
8.410730269104743 5.287995309529392 0.0
9.655094569234972 3.472720279371932 0.0
7.982140513923982 6.667914768024983 0.0
8.402690325256646 4.883576657130221 0.0
9.17488654147479 4.962006474835693 0.0
9.013188196102961 8.49700148123058 0.0
9.795977244531603 2.156818021002043 0.0
9.893813711206834 9.545820400859157 0.0
7.965349232662289 4.250048884270795 0.0
8.644264557989125 4.874751532150782 0.0
8.215430976121077 1.26077208565765 0.0
8.379717637669398 8.37324652769609 0.0
9.320026533461409 5.559861899725609 0.0
7.885778178744864 0.4977439426642278 0.0
7.547066983926719 5.125166613071239 0.0
7.657542898944819 5.122996245335209 0.0
7.423918840193691 9.000935553397358 0.0
9.854133000712425 5.541931969512857 0.0
9.328508174398952 2.101486405523264 0.0
9.300749600926641 9.530012105354274 0.0
8.130307182491519 5.277079344947874 0.0
8.346752967392757 4.987627363826086 0.0
9.118404185029991 6.007087846617186 0.0
9.048232213728614 5.89431792713258 0.0
9.088340967655858 5.576242562571367 0.0
8.094762487139027 4.789727191449318 0.0
9.915265904493378 5.749591413470928 0.0
9.92169805280126 6.154216704502091 0.0
9.918022441582268 4.549125436287157 0.0
9.919332362905616 4.849536560132457 0.0
9.914800786693318 6.750595509794719 0.0
9.811792900437824 6.703950687575952 0.0
9.900643083988882 3.749855087409844 0.0
9.912423171222734 3.043228996968949 0.0
9.91892875832665 5.949999999993851 0.0
9.913300070218703 3.960831593817277 0.0
7.709347001661226 4.444236534782706 0.0
7.479443107717332 8.071637285053104 0.0
8.839057072155848 6.807845119358974 0.0
8.972330068019902 6.78765448182788 0.0
8.542093772125282 3.941452413628317 0.0
8.279144752968262 5.930387616620717 0.0
9.393455876855919 4.973162505621418 0.0
9.507123333872533 2.855087674515822 0.0
8.77504684283825 2.317347145885344 0.0
8.394133129040345 4.464046960801843 0.0
5.725509852450801 8.210843960481027 0.0
5.62632390239664 3.967637659758752 0.0
7.910815814627989 4.900765971697654 0.0
8.595808444085467 5.590040244353608 0.0
9.705160502006024 0.8106158419444889 0.0
9.82021247904746 0.808810893177099 0.0
9.218352146075844 4.447736986422823 0.0
9.20781892622228 3.858281726888132 0.0
8.713609974387523 5.178241668554946 0.0
3.55755059259364 8.921522400238844 0.0
9.59122926011489 5.452844834281716 0.0
9.70565100407009 9.77887811062354 0.0
9.826938454219809 9.74303055702321 0.0
7.238962096855633 3.278078153406256 0.0
8.575609105166194 4.567807831727537 0.0
8.936449841121737 4.765835458965493 0.0
5.59323463391086 9.248527978398117 0.0
5.280809113285124 4.886132326418428 0.0
9.328132730893216 6.544753806716806 0.0
9.026944889277736 6.67247283515637 0.0
9.81946239021469 3.007926663525007 0.0
8.677633568960493 6.144049349297466 0.0
8.33427489656924 4.571212803519522 0.0
8.55734024448315 6.382535186588269 0.0
8.692399379422756 6.372347713955898 0.0
8.495817478252626 6.503308565233578 0.0
9.905494734661673 2.544078755559835 0.0
6.177101405266569 7.228490244483556 0.0
9.825373011845263 5.807482724503027 0.0
9.808678508609606 8.118683092442964 0.0
8.397717712407108 7.08010313863416 0.0
7.428555529689225 4.935946611338556 0.0
9.575504958128711 6.125633853639113 0.0
9.154066996197898 4.146562596982661 0.0
8.074381802159323 4.337569667261167 0.0
7.018337246891919 8.843475095716133 0.0
7.970627172560641 2.658650028065857 0.0
7.382546388883145 6.723381543491632 0.0
6.822972334933889 4.884555620881615 0.0
8.343732976791593 6.041576709398377 0.0
7.743680217306919 8.423336160305476 0.0
8.505717922983454 1.115022897794028 0.0
9.113973198216474 6.992972408167606 0.0
5.818882632841168 5.300437503812764 0.0
5.951991891717714 5.279516346785062 0.0
9.450183479138845 5.92934813870612 0.0
8.783346541536119 5.48419035750989 0.0
9.38074895894124 5.65076274999803 0.0
9.513658728876734 7.193620441323493 0.0
6.396040948797887 6.776064256962667 0.0
5.389661780244388 4.89715084345563 0.0
4.473247649068957 5.85935163892416 0.0
9.249586607512612 8.37680799459232 0.0
9.103796366487646 8.379197231055114 0.0
6.274057301184156 4.87985402946409 0.0
9.259628836118232 3.561431822636308 0.0
4.037922477011971 5.489409780163391 0.0
5.62712958624254 4.893925433488392 0.0
8.806426003347967 6.133410188141932 0.0
9.53304466499349 9.59279975429444 0.0
9.542890959420024 1.966631379116419 0.0
7.459736176874619 5.863847835420528 0.0
5.937613117200432 4.89232797168023 0.0
6.171611131472617 4.879541833448487 0.0
6.100695199816815 2.291172318314745 0.0
2.315194906726768 8.081958163666464 0.0
6.878489987598286 5.148099521847569 0.0
9.105264414399338 8.639184652727645 0.0
9.20047261316883 3.457820810661327 0.0
9.895329010385955 7.55944047105717 0.0
9.912742873006831 7.76210330502246 0.0
9.37761459375249 3.168397068877758 0.0
8.946121261512507 6.345629828835438 0.0
9.918632496443566 4.449809517365367 0.0
6.848211525651934 5.945010613369067 0.0
9.915721525903255 2.047407395915179 0.0
6.117255841708726 5.163321965161054 0.0
7.276595248786602 5.347247322210079 0.0
6.32682869954104 5.23674259421017 0.0
8.785886448438022 5.692775375342819 0.0
9.099994401883361 6.776698531382792 0.0
9.913397459621638 0.2499999999998165 0.0
9.910352525643928 0.4481571029410266 0.0
9.907850422008579 0.5479735220323012 0.0
9.911983631350465 9.24778487019403 0.0
9.917634740384067 0.7514684821956668 0.0
9.195214232985496 3.254172408378337 0.0
5.000896927376288 1.846006038077654 0.0
9.917172478547403 8.250155740683276 0.0
9.908120476950126 1.742986232208194 0.0
9.914524635720774 1.949567899316728 0.0
9.907358878377153 9.145625165175748 0.0
9.917695944922635 8.949999999998397 0.0
7.648387553139914 5.325741673607362 0.0
9.605343588986079 4.130627398479715 0.0
6.648113233057817 6.774798386229164 0.0
9.910347203087213 8.446729917003672 0.0
9.913623694530468 8.548470085896316 0.0
9.9201245863254 1.536225488581779 0.0
9.906538426683255 1.059019360781604 0.0
9.912867352010919 8.74999999999809 0.0
9.799662981388353 8.79550485462418 0.0
9.831828680383174 5.99966894118311 0.0
9.91414179906643 1.263025320602998 0.0
9.920690092699912 7.240982963665807 0.0
9.385889285950551 2.235126904097426 0.0
9.28133998925606 8.00415195851526 0.0
9.817074723108401 3.172398890123306 0.0
9.482030285089927 7.512954023388035 0.0
6.682432918504054 7.233889573028878 0.0
8.528699633246763 3.260502457553277 0.0
8.91699963742029 2.327016692708648 0.0
9.267676068834481 3.954520684561369 0.0
8.70811637467455 4.974101624783084 0.0
8.18184214270768 7.816666208279135 0.0
9.690393137288163 5.264344933127836 0.0
6.937111790104696 5.245184991960528 0.0
5.895846026722989 5.174232967273284 0.0
8.281683356622615 6.400073017261236 0.0
9.150883172924027 7.444273543454419 0.0
5.430406600793122 3.390815886517273 0.0
5.049583827974758 5.697634876048387 0.0
8.3966710383105 3.495813899905868 0.0
9.007538428392454 8.046563579784266 0.0
4.645155158868719 2.637132843684674 0.0
4.887444326771336 2.30020425915506 0.0
6.483736782775559 4.522536327482678 0.0
7.843169154548308 8.2116075844056 0.0
5.06295551628385 4.901632590583318 0.0
7.201400991012747 5.138239336380897 0.0
8.519791031104612 8.848807089071627 0.0
8.658623737989732 3.031313729049854 0.0
7.585566208322493 3.629882964874684 0.0
8.411818469596405 6.834326722716643 0.0
9.172363528634236 7.669230647622864 0.0
8.85455683341768 2.682483055215344 0.0
9.359398739738925 1.631421337140716 0.0
9.071793864444992 7.337030604117359 0.0
6.968394563521436 3.712808894519514 0.0
7.899236117684646 7.094583340182754 0.0
9.54362864504834 9.781852543872333 0.0
7.151298729743687 7.644795130415299 0.0
5.452218361466201 5.186873761308322 0.0
5.517642289161902 5.293540933999446 0.0
7.802500357665464 5.978295671754199 0.0
6.594850839687122 8.491429270558893 0.0
6.029132431949566 8.294997405201931 0.0
9.31286590869111 0.5672913838331921 0.0
9.25238720319541 0.4415953739444106 0.0
9.550589523211062 4.228044955453704 0.0
8.748611832783206 6.250900951984038 0.0
7.566980108995873 3.995148257893202 0.0
7.426142759241261 3.996743578498081 0.0
6.478912513785404 4.000296412419969 0.0
9.30435638148753 5.168210982711592 0.0
7.542154188520517 5.752525075248498 0.0
7.219033852073297 2.139582470800704 0.0
7.370913620388047 6.545121498197235 0.0
5.226731036024996 5.187572666585561 0.0
8.515591031124366 4.462223215179979 0.0
6.762864307079274 0.3078036604979366 0.0
8.587432696997471 4.977010533175154 0.0
8.703948448756302 8.815629076400704 0.0
8.081003990931544 7.370949680119862 0.0
7.424404567669909 6.949730915714445 0.0
8.578903262311433 8.377992954045473 0.0
7.301258690263783 6.106184350645308 0.0
5.991600556904204 3.99820087171043 0.0
8.203048538477193 1.601044215405025 0.0
7.289972483120081 4.572350254111052 0.0
7.714697186439165 5.420586967696794 0.0
8.918853780709807 1.841796898567452 0.0
9.919941345877513 4.749808449067644 0.0
7.245589454939737 5.94251251443003 0.0
9.258480524497795 3.358952871140391 0.0
3.705877615124628 5.574038727593425 0.0
8.287096858129765 7.962370605242409 0.0
6.799629860952143 3.705385600481528 0.0
4.146753450763018 6.544154457143895 0.0
7.413973555029582 5.545687501585183 0.0
8.466524978378082 4.980481756569235 0.0
7.336312153537934 2.337983522449311 0.0
7.695505222753409 3.747498713679684 0.0
4.898236813123799 4.795853653580084 0.0
4.59779105899602 1.896916774247134 0.0
8.560170375862322 7.072369101894893 0.0
8.386150468360862 2.449771437140704 0.0
8.41200018115259 5.084601315536367 0.0
5.102189912301071 7.621598618277815 0.0
8.336320418935243 6.71651223072348 0.0
5.081745734883095 3.977838926197614 0.0
7.63590698378166 0.9500570055008507 0.0
7.743369677149255 3.051233984704873 0.0
5.357527459690566 0.3809996753407537 0.0
5.967373112873382 0.7731113464301924 0.0
8.169449265206127 6.666271947462212 0.0
5.95122726745053 5.55758205410881 0.0
9.922289489207834 3.53923011719877 0.0
9.39154684476555 2.659037023454942 0.0
7.701415639167884 7.690060291860976 0.0
9.819179654793023 1.329863870021845 0.0
8.358229579054417 6.506108206863729 0.0
9.269720555169467 5.657096143475924 0.0
4.473187658045934 7.435037860084884 0.0
9.65807158077373 3.255496360750368 0.0
9.605155446454205 8.713645566904637 0.0
7.097383547728313 5.141197376985936 0.0
9.812212483832656 1.89920712759492 0.0
9.83875570675407 6.81603549325055 0.0
8.926246869879279 2.079976511571457 0.0
9.166785856141402 9.169070814302419 0.0
8.763479010228052 1.587152667342957 0.0
5.957377924852992 6.404530806530254 0.0
7.14506854375872 6.10342416684208 0.0
5.672595070581394 5.164323323112049 0.0
4.899782787268781 0.3801727265981219 0.0
4.447133848117348 4.673614099606824 0.0
7.044865074789195 3.253639989243549 0.0
9.818461337102992 7.819456450952447 0.0
9.925334577033155 7.954012377173311 0.0
6.352907898232792 1.173665225954276 0.0
7.351721385581032 5.660361289755705 0.0
9.337367583861807 2.76534436379692 0.0
8.693118347802024 4.360254099729149 0.0
9.476812970101324 0.3524826622168163 0.0
7.109868985890334 0.9024224571333925 0.0
7.899106846231403 5.511805431542581 0.0
8.352799544476607 5.187887629361129 0.0
6.957483547582747 0.6176251309213842 0.0
8.099559500483094 1.412323841044818 0.0
9.913030944540278 0.8542404645334569 0.0
9.143075088381442 8.022165366829135 0.0
8.819861450593166 6.356592599428041 0.0
9.319444417409162 1.49938505915629 0.0
6.490262520326714 7.118204362551877 0.0
6.490874470087819 6.582907761235813 0.0
9.82506653058937 0.6146757679104559 0.0
6.803129818897624 4.419048038171804 0.0
9.840901379354312 0.08198751964190581 0.0
9.839740374244226 9.918356239418472 0.0
8.551927134544655 9.449788917425456 0.0
9.92097857388158 3.249999999993177 0.0
5.797087413057367 7.077351493358238 0.0
9.255412859987286 6.433984412022419 0.0
8.668174522249984 1.740767926084485 0.0
9.920991430240607 6.25262219124529 0.0
7.57275248448898 1.94367954756322 0.0
8.052865444445507 8.19900054463639 0.0
8.748697149245206 4.25201068974208 0.0
9.158270227735827 0.5542256343091421 0.0
5.997487767477439 4.787924707603557 0.0
6.119759900601896 4.78043793682227 0.0
4.353034750397793 8.619182743639561 0.0
8.721093521611476 5.588932824583312 0.0
5.717101151444983 1.123034066822819 0.0
9.825602081347064 8.68753399402474 0.0
8.005502510832988 8.7824052910506 0.0
5.548184234622668 6.408009287230429 0.0
5.77830300433981 6.598697187164234 0.0
9.613093825495433 4.50282172481406 0.0
9.928981132641653 9.74928475696928 0.0
6.613628176297015 4.515513362596662 0.0
1.822126723816303 1.297795131355289 0.0
9.514164594137375 1.43081427463862 0.0
4.735494753432723 3.698541604583975 0.0
9.52844959749262 8.615213629960298 0.0
4.660704511759056 0.7947595073298008 0.0
6.82340845160293 5.239926830264399 0.0
7.885938077030673 7.380147032865134 0.0
7.884599891021201 6.09005968568029 0.0
8.846834820720167 9.653276456345532 0.0
8.457777199486827 0.3851010632068662 0.0
6.66485224572131 8.771510767670392 0.0
9.091499342133352 9.708315832477556 0.0
9.824286725109655 4.976315293637262 0.0
7.848197684391786 5.632217046637356 0.0
3.88430598115417 4.225391362015386 0.0
8.776890759183289 2.809688928468134 0.0
7.393884285023409 3.59397875231041 0.0
6.927568893329758 4.396788356869783 0.0
4.96854327720728 2.662368428358774 0.0
9.1480130720193 3.951479613991279 0.0
7.071049729490975 2.38092990636632 0.0
3.40193058782919 1.686321186206593 0.0
7.612042194200681 4.815904436723407 0.0
9.043395868401339 6.888481825015849 0.0
9.098933057562759 8.152197681006806 0.0
6.058682303253315 3.857501492181965 0.0
3.707092669281355 2.986685502034343 0.0
5.113272509841263 5.189455016444592 0.0
6.960565857079232 3.416349532571279 0.0
8.755151527375476 7.649255597361291 0.0
3.393680865444538 3.679982303262531 0.0
3.117424600120088 3.35605258976247 0.0
8.530814041264104 5.488376426140491 0.0
4.820719767306654 5.106646490188182 0.0
9.918899263509473 4.144927088739744 0.0
9.918194630017027 7.447268230913605 0.0
8.461970084137805 3.144844565847669 0.0
9.924415919486059 6.949999999995354 0.0
7.184050152099684 2.72771667662237 0.0
8.834356715215904 7.801565642745232 0.0
8.689015446783005 4.145232831954543 0.0
8.490778532265319 8.234414357968106 0.0
8.63666290918932 2.83060276219705 0.0
4.61028976098935 4.741894230894578 0.0
6.314735925012879 4.003132559161639 0.0
9.20786580425652 4.67001723737971 0.0
7.141401229301469 4.873205425098625 0.0
6.235177809922153 4.774126344778935 0.0
9.12491895896937 3.145675090615719 0.0
9.255747684068178 3.162525801823036 0.0
8.312852272796098 2.290855459722148 0.0
1.449266720542303 3.363629101350872 0.0
9.525687840398492 4.800807314407045 0.0
4.829905263804087 8.14474456977717 0.0
9.09338914689732 7.563794106183232 0.0
5.389401689694107 5.283808684471545 0.0
8.530979415204587 3.029374286908943 0.0
7.901489077080633 6.535344047486632 0.0
9.218572924671975 5.760893551533255 0.0
8.562382833959296 4.143913974026883 0.0
8.62959127904665 8.974877485888243 0.0
9.408442441596518 9.62276529745719 0.0
7.5034765601713 3.869833107932387 0.0
9.842813436634783 6.600620949014236 0.0
9.826116984327193 8.911617279149695 0.0
7.529907780698261 0.7369111006685982 0.0
7.832164962480427 2.905293639437395 0.0
8.39517908433056 3.267417602291069 0.0
9.823014010107707 9.085319632577246 0.0
9.022314123618541 3.944559746338292 0.0
4.243701230676532 5.332574856090426 0.0
9.816740542566388 1.127839952679595 0.0
8.166775715766304 5.693916696568397 0.0
8.865374421689054 8.068986769641638 0.0
8.761145809863661 6.470583506581853 0.0
8.998345275919851 9.209303502026401 0.0
9.698477487436316 6.706902829754045 0.0
6.439032098063426 0.3109134377713525 0.0
7.562681994382136 4.643158005207056 0.0
9.03999088074715 0.2799354672273258 0.0
5.180741540467516 3.805018725608906 0.0
6.243990330956698 2.718077286244967 0.0
9.79416634023361 0.1815240178579244 0.0
9.926540005061975 2.847049370876555 0.0
9.826476210374608 2.670192168078066 0.0
6.365816673179121 4.536333049275508 0.0
5.546353765219417 4.618331215552614 0.0
9.820703096450293 2.000649418331399 0.0
6.884388790679166 3.561583980715254 0.0
7.431303395649604 5.747824222777201 0.0
8.849816832721245 2.19318290395604 0.0
4.185147517585975 5.697469360586313 0.0
9.165905238119013 5.873664931582344 0.0
7.70479478158537 1.788324620089049 0.0
9.627376046933474 0.9196091445437269 0.0
6.657687963328663 5.144792385996769 0.0
9.83245016645186 0.3925568446109945 0.0
7.483092985762584 9.253837199159435 0.0
5.445348362202234 3.977855663863651 0.0
7.476680532833337 4.837183287808616 0.0
9.572749890969304 8.505160319814301 0.0
9.915853314998252 9.437014513917465 0.0
7.679469018350979 7.390484878021194 0.0
9.418139053434402 4.790576000488359 0.0
8.096967733471567 5.865447162201908 0.0
9.829153508938724 8.378494945652118 0.0
9.926595955569645 5.157718300415699 0.0
8.774484245600224 7.939747459426853 0.0
8.629764448155779 6.481031318922794 0.0
8.961169458302376 3.839036702328818 0.0
4.617199205561317 5.256318959792646 0.0
8.480815774219478 4.031210317621497 0.0
9.708341592512763 3.401018043990571 0.0
7.183974816647467 4.77882314543966 0.0
9.821437962294304 7.659391965474772 0.0
8.150320284869602 2.286501016204562 0.0
9.828114434347311 1.684891358832554 0.0
5.349187766238684 6.538177907133678 0.0
8.076053471314525 2.76180604769483 0.0
4.907713691134565 5.29818629967416 0.0
0.6874399366049438 4.328593906714074 0.0
0.6980011780697519 5.702671170050627 0.0
8.263861466707834 8.182284285231713 0.0
5.838783785156478 4.913981390426639 0.0
7.807619472656604 7.235706382002089 0.0
9.388504256318683 6.022122644748753 0.0
9.929839894767033 6.436189192303577 0.0
8.3205848711706 3.39107920408397 0.0
3.240770542267401 4.019899919523968 0.0
8.059047070496568 2.468855909103855 0.0
9.932479519490421 2.449625056415224 0.0
7.737639000139152 4.580708137963557 0.0
8.26141077223695 0.3940397126348397 0.0
9.69568953371801 1.959951226402445 0.0
6.469120930453264 4.892267070266994 0.0
9.167223997255698 0.8102256463122337 0.0
6.236889648241256 0.9291076084031108 0.0
8.306379082772498 5.268830342852036 0.0
6.716089118890225 5.239344620507032 0.0
9.82511981852641 9.282822358664017 0.0
6.68375719572285 4.404998642130821 0.0
8.913754712375674 6.908138360584365 0.0
6.173250048857013 5.251634416326969 0.0
4.235907497612446 1.924052997345291 0.0
5.151007663981651 2.438629730660893 0.0
8.924254300637541 9.3764975797567 0.0
4.438612423541503 5.287968640901957 0.0
8.571203234299599 1.897009944569934 0.0
6.878800676380218 5.821332862798138 0.0
5.710626178601224 4.792560699857408 0.0
7.149510071621283 5.216310009157644 0.0
2.099966541549645 2.334742113488256 0.0
9.93396330620579 5.350566393301629 0.0
7.143046479323961 8.646955109387985 0.0
7.965747313080266 5.193641450105844 0.0
6.3314394693073 5.135050228240639 0.0
7.665821333021348 6.222698255001823 0.0
6.305321657053551 4.659816230868476 0.0
7.833020917089713 5.208837056143474 0.0
9.41455902676429 2.869725681199307 0.0
8.567151507735133 6.598605357295113 0.0
7.405527786978573 4.377085529441429 0.0
6.552969697053132 5.137148974085434 0.0
9.93630620742063 8.042778076596578 0.0
7.166743296019233 4.593171678848165 0.0
6.595561806063966 5.839366735225723 0.0
6.066152182102007 5.262519562574559 0.0
9.834694151277489 0.9093455747994099 0.0
8.98259191950674 7.579732466796592 0.0
6.465071238839505 5.25485771955322 0.0
9.759759896588413 3.236659507608532 0.0
4.775529448101694 5.224235675150505 0.0
9.935991245222917 7.153416415978829 0.0
0.6530736820718381 9.352299998916202 0.0
0.6449439415299687 0.6468300344151556 0.0
7.804690364869245 4.495816547678174 0.0
9.84503784553893 5.70620404704573 0.0
9.83525329400959 3.826992990746767 0.0
9.922964894244684 4.265000406933376 0.0
8.333767638401964 1.121219971446645 0.0
8.876012546033895 7.019147158538482 0.0
8.172413577824324 3.413096916572049 0.0
7.232233017296214 4.478957103028363 0.0
6.214597295185415 3.852860083673202 0.0
9.85013791746415 4.400709747289421 0.0
3.941627380932058 6.342995010255737 0.0
3.097271569675528 8.77391871286929 0.0
9.292917152323044 6.010976049411984 0.0
8.104342196673183 5.184165973282902 0.0
8.994300084006271 3.652611812846807 0.0
9.937157897030163 5.549999999993244 0.0
8.721368888525245 7.274540720770752 0.0
8.920003648712827 0.9516585309368178 0.0
7.910527456030004 8.536826514867816 0.0
9.846441288756814 4.60515911863952 0.0
9.584942233925151 4.712073182517884 0.0
9.642357858573972 6.805672051759494 0.0
9.797024725252207 9.838837222258014 0.0
9.842451438022124 4.018973836958878 0.0
6.112723137676118 3.704473949316424 0.0
7.574641969193845 3.765362276156904 0.0
7.826594968121701 6.200366572362263 0.0
7.762805366733504 9.34009502796868 0.0
9.56854033867856 1.012566255816665 0.0
7.71256563655353 5.219373702836014 0.0
9.68039392238282 8.786964504862018 0.0
5.910362452777086 9.277662068919813 0.0
7.418090653922814 3.326443419100716 0.0
9.857704179097952 4.697553149694669 0.0
8.452469674653342 8.996585816905599 0.0
9.522351366699843 2.057525484575908 0.0
7.802315574700843 9.548878971475935 0.0
9.938875656926385 3.449999999992592 0.0
8.425189037911712 6.608575180629274 0.0
5.925965231566842 2.523669697740033 0.0
6.654918072256329 5.95749128982984 0.0
9.826748589235729 9.631118448471485 0.0
8.6684585637523 7.39633999085442 0.0
9.844673843931567 3.090088625379724 0.0
9.93613850661301 2.250382721159617 0.0
9.218291993658738 2.892108990205171 0.0
9.83502846611296 8.212781989607324 0.0
7.754136409732265 7.104288507262783 0.0
8.510570542791681 2.036933285735889 0.0
7.757745059307245 4.315798612475442 0.0
7.989231770559189 6.201656630465583 0.0
8.068934521422738 4.198631572122605 0.0
4.957478134450373 9.038766150325067 0.0
7.208661142641733 6.501402463831379 0.0
7.299506095906239 4.363561999234681 0.0
8.250303873550486 2.105322217421675 0.0
8.678637541413377 7.053471135702286 0.0
9.761528395137384 6.163503990672834 0.0
9.84494857233395 8.59999999999775 0.0
9.83825138794677 3.672838954969637 0.0
5.121008544047756 5.808127183024784 0.0
8.343911550360986 4.043535893276861 0.0
9.85324441775315 5.899999999993774 0.0
9.51114465213134 8.41035540646284 0.0
6.505812179224195 6.93390566262983 0.0
6.15572847138365 9.023097246950844 0.0
3.352081892333425 3.024853379890529 0.0
6.433163283162099 8.675072413910678 0.0
8.825744236698243 3.624446391299867 0.0
4.883007294861279 7.819620905924936 0.0
5.876659170760434 5.638247433601083 0.0
6.859400040348503 6.510797998354633 0.0
7.946400945409184 3.500317276373196 0.0
7.496830255505493 6.653194511698024 0.0
9.852183479755313 4.891525833556942 0.0
9.77998778436291 2.922486526124376 0.0
6.774672660492365 5.324728659740495 0.0
5.717254072187427 6.824125962512845 0.0
9.713440940838062 4.63793103997539 0.0
8.859858662536796 0.2721395536350836 0.0
8.37556017530946 9.436653414116012 0.0
7.395237381047616 7.885576562773319 0.0
5.4709157802033 4.511152089197594 0.0
9.489749416979361 9.691840729914848 0.0
4.599216022837964 3.46438688931078 0.0
5.572287492757569 4.807021644849729 0.0
9.926499336309957 9.92730688390086 0.0
9.926499336310107 0.07269311609890093 0.0
9.338127766332573 0.3585313952168247 0.0
6.810761948165162 3.414693294319008 0.0
8.166274345037138 5.943611545564389 0.0
5.2892644736731 6.301081312912763 0.0
9.731911074791544 7.649313380659622 0.0
8.90251102352767 9.50983415326544 0.0
8.997881406541017 1.033666784655452 0.0
5.835124768755703 2.738139962594905 0.0
9.665357480775825 6.185331297099201 0.0
7.656532192558493 8.217157287499347 0.0
9.170463887605525 2.975444721032631 0.0
4.208158615905443 0.8648302238584886 0.0
6.97015686031129 5.933674629077266 0.0
6.181941366523793 3.565885175921835 0.0
3.30313590337911 6.393402837735046 0.0
6.447482061767014 4.816169316820496 0.0
8.185341428749446 4.169172087371246 0.0
4.552595724340015 8.298301336212145 0.0
9.84850676569699 8.999999999998423 0.0
9.846941514449377 7.393642828194986 0.0
7.924592433490734 2.788309934035703 0.0
8.154308714226714 8.853640122009672 0.0
8.876629743004642 1.96110242719995 0.0
7.228849192966834 8.90811350348676 0.0
9.852301635085423 8.296637825215246 0.0
5.219795195341889 5.547413133147649 0.0
9.861497117995457 6.901363010201344 0.0
2.953911258021604 6.136007283255669 0.0
6.93158841067062 4.77708273647784 0.0
9.67540418457871 2.912802891506324 0.0
4.194055958522277 4.437353127730132 0.0
6.133959559341536 0.406856611599261 0.0
8.29952795189331 9.309744645643846 0.0
9.843692337952948 1.209647690818311 0.0
5.164986286280336 6.671544079402435 0.0
9.838533350075606 2.081705440779448 0.0
8.301244777513975 6.604088853319459 0.0
5.471494771710784 2.714598185146428 0.0
8.86534684892311 1.208599471795828 0.0
9.940610684232212 1.451558535868664 0.0
9.40896208432968 1.428353940655538 0.0
2.329177605337097 4.238803555614174 0.0
5.980761651517799 7.182207186682233 0.0
9.66541573964336 0.1719254072074424 0.0
7.220979380229172 7.806128737674462 0.0
1.251721227904697 6.151932667911503 0.0
8.104967286191181 6.057912607875576 0.0
6.650768762224724 4.817922869198292 0.0
6.634976350437587 3.213339182992986 0.0
7.034320437500567 4.898219100342838 0.0
9.502772020064167 6.283064492634301 0.0
8.13187938667684 3.518506862055515 0.0
9.855471943454193 2.599999999994991 0.0
9.056747742708522 8.263936599935574 0.0
4.352645795441222 5.724453640019 0.0
3.744263984699181 1.488951698361357 0.0
5.175860134287045 3.6375726667098 0.0
7.736434712114619 6.400417475661193 0.0
9.857658576695343 6.316607183405179 0.0
7.876525261950537 4.304285002335559 0.0
9.856114384785611 7.914602773442983 0.0
9.848334119947063 0.7059644476295188 0.0
9.59694321995579 6.895814046141667 0.0
5.906465212962551 3.869023950643881 0.0
9.840676994268005 9.364956386459765 0.0
5.355015287544095 3.83518170601625 0.0
6.374090407153147 5.855743754257685 0.0
8.227401290513832 5.297819733684674 0.0
5.451235131977493 4.825706629991923 0.0
6.022070213762754 5.355923882747634 0.0
9.845674433677614 6.108401449483281 0.0
9.835067400944396 7.739582406783081 0.0
8.602026805792988 2.941372356914139 0.0
5.059869081004962 5.269480960018243 0.0
5.284714507903736 5.26496663762182 0.0
9.627110479149561 7.660076105040499 0.0
6.820001127809743 4.792514421153957 0.0
5.120512795059439 4.806607659110254 0.0
9.56933817216883 2.911464407429096 0.0
9.74091654291531 9.267545397628387 0.0
9.93006767325302 6.576784040838644 0.0
9.642486276936268 4.650227701598451 0.0
5.185183328569137 9.410919109238325 0.0
9.37052946854105 4.605636695802024 0.0
1.677077220416309 5.871167715901136 0.0
7.345783833404538 3.184020711886284 0.0
5.419239942654976 5.982692039856376 0.0
6.133318300188262 2.551919945731369 0.0
6.187291396343277 4.499077117404439 0.0
1.231465237822878 3.921479198315213 0.0
8.969849937139944 9.699215363213542 0.0
9.218303154263054 6.037447959776716 0.0
CELLS 4886 19544
3 1113 1356 1450
3 1402 231 1659
3 272 269 1414
3 396 394 1777
3 1451 945 1452
3 194 81 1801
3 1847 1501 2104
3 2024 2121 2479
3 1115 1113 1450
3 1124 1413 1844
3 1061 1955 2409
3 307 305 1645
3 1592 1369 1593
3 238 1501 1847
3 1955 1883 2409
3 1808 243 1910
3 1885 978 2362
3 1440 793 2092
3 189 1488 1608
3 353 350 1864
3 2007 2231 2232
3 307 1645 2493
3 1096 1760 2496
3 2178 874 2179
3 621 625 1595
3 1493 1480 1938
3 1655 1268 2137
3 1341 1410 2212
3 243 1808 2360
3 1902 1446 2516
3 1760 1096 1763
3 856 790 2180
3 2008 2046 2105
3 789 1809 2067
3 694 1543 1575
3 1127 1762 1953
3 1748 807 2228
3 1543 1308 1575
3 820 1872 2170
3 1417 954 1998
3 1369 1592 2386
3 272 1414 1787
3 329 333 1998
3 1544 1095 1545
3 2231 1490 2232
3 1342 1683 1790
3 374 377 1797
3 807 1678 2228
3 1665 198 2128
3 141 142 1620
3 325 322 1952
3 231 1402 1654
3 198 1665 2010
3 1890 1307 2387
3 208 1438 1619
3 2016 1970 2156
3 1436 212 2020
3 954 1417 2333
3 1736 1894 2244
3 1491 1750 2143
3 1677 1064 2146
3 1474 1258 1475
3 1500 233 1930
3 1446 2415 2516
3 1700 973 1800
3 2128 2270 2316
3 1316 1315 1593
3 1307 2341 2387
3 2258 1324 2328
3 1083 1507 1508
3 693 1095 1544
3 621 1595 1596
3 667 1571 1872
3 1932 1766 2061
3 393 391 2240
3 1342 1790 2400
3 252 1707 2234
3 931 978 1885
3 1430 1116 1704
3 1411 1109 1714
3 1478 1227 2440
3 1990 195 2297
3 1792 1167 1985
3 1682 444 1975
3 394 397 1777
3 1711 2028 2162
3 1574 856 2180
3 2008 1851 2046
3 736 1493 1938
3 1069 1060 1662
3 1458 455 1754
3 862 691 1705
3 1161 1642 2286
3 1699 1700 1800
3 447 516 1637
3 955 1482 1483
3 2024 206 2121
3 391 1773 2240
3 1072 1412 1893
3 212 1436 2350
3 1566 1365 1568
3 259 1441 1672
3 872 870 1764
3 330 328 1889
3 1539 1161 2286
3 1897 1898 2275
3 1434 1990 2297
3 1109 1411 1730
3 319 307 2493
3 1762 1761 1953
3 1369 1316 1593
3 1540 834 1832
3 1505 652 2442
3 1732 1655 2137
3 921 1712 2295
3 1872 1388 2170
3 1712 921 2125
3 2028 244 2162
3 1506 1570 1680
3 1569 368 1964
3 1571 667 2375
3 1587 2178 2179
3 196 1723 1737
3 524 2016 2156
3 1528 1250 1733
3 1115 1450 1973
3 1938 1480 1971
3 1809 1396 2067
3 1641 249 2299
3 1223 1258 1474
3 1365 1566 2120
3 1981 962 2316
3 1538 353 1864
3 455 1458 1756
3 152 233 1500
3 1116 1430 1703
3 817 652 1505
3 1347 2003 2004
3 1607 1958 2085
3 194 1801 2195
3 1410 1341 2351
3 223 1415 1710
3 197 1511 2346
3 2198 787 2225
3 81 82 1801
3 1438 208 1620
3 1444 522 1823
3 1511 197 1950
3 726 718 1567
3 1637 516 1739
3 1708 2337 2341
3 1280 1649 2124
3 2337 1395 2341
3 1327 1709 2315
3 1225 1227 1478
3 691 624 1705
3 476 2224 2305
3 830 832 2204
3 1750 1491 2403
3 1366 1897 2275
3 2345 1583 2352
3 2054 405 2110
3 1984 2172 2230
3 1846 2198 2225
3 1177 2042 2418
3 2121 1367 2479
3 1527 1531 1541
3 916 1039 1834
3 1413 1124 2467
3 1622 1503 1868
3 249 1641 2019
3 1805 405 2054
3 1761 1007 1953
3 1415 223 2395
3 960 1756 2203
3 368 1569 2135
3 1402 1659 2473
3 941 1433 2471
3 1267 1477 1501
3 260 2002 2265
3 1704 558 2077
3 2224 1886 2305
3 2053 1386 2199
3 1452 945 1952
3 1717 1611 1718
3 1682 1975 2230
3 1760 1762 2496
3 1481 203 2104
3 1264 1266 1670
3 142 236 1620
3 2133 1182 2179
3 1791 1602 2183
3 350 346 1864
3 1412 1072 2393
3 1281 1575 2255
3 1565 1948 2155
3 849 1449 1513
3 1958 396 2085
3 1339 1069 1662
3 834 1540 1917
3 269 267 1414
3 1268 1267 1501
3 1440 2092 2468
3 1399 1981 2316
3 1635 1636 2041
3 1454 252 2234
3 1451 1305 1890
3 1375 1883 1955
3 362 366 1786
3 1484 2410 2528
3 1449 849 1640
3 1267 1474 1477
3 200 1611 1717
3 1054 1581 1582
3 1350 1977 2253
3 190 1390 2118
3 788 1956 2193
3 1709 1327 1888
3 2233 2298 2413
3 1488 189 2355
3 478 1685 1714
3 230 1525 1690
3 1687 478 1688
3 427 429 1756
3 1570 1065 2476
3 1880 1133 1988
3 1649 656 2124
3 1537 209 1614
3 1134 1769 1986
3 1220 1268 1655
3 396 1777 2085
3 1167 1755 1985
3 2229 1744 2296
3 1575 1281 2287
3 127 240 1882
3 377 647 1797
3 954 329 1998
3 220 1697 1698
3 1342 1341 2212
3 1441 264 1672
3 1512 188 2433
3 763 2345 2352
3 1685 1411 1714
3 1805 1188 1951
3 1347 2004 2157
3 1054 1582 1667
3 1333 1617 1674
3 2217 73 2361
3 1539 1036 1917
3 1039 1292 1834
3 208 141 1620
3 1965 1964 2038
3 693 1544 1969
3 1453 239 2279
3 203 1481 2049
3 945 1451 1889
3 680 1459 2134
3 354 2147 2196
3 1405 1932 2061
3 1723 1722 1737
3 1748 1175 1927
3 1532 1528 1733
3 2057 1824 2154
3 1406 1659 1702
3 1948 1186 2155
3 210 1598 2114
3 1685 478 1687
3 1324 1325 2328
3 1526 1250 1527
3 165 166 1509
3 1493 736 2523
3 1526 1527 1541
3 1390 190 2417
3 522 1444 1998
3 1680 1570 1732
3 1017 1442 2525
3 374 1797 2430
3 1507 1083 2197
3 1756 960 2221
3 2270 1400 2316
3 2205 1452 2282
3 1074 1187 1888
3 2158 1245 2200
3 1442 1017 1684
3 864 1116 1703
3 1750 1751 2143
3 1456 516 1492
3 1677 2146 2149
3 2022 1339 2388
3 1602 258 2183
3 678 1594 1595
3 1245 1670 2200
3 972 830 2204
3 2143 983 2342
3 1268 1501 2226
3 1266 1461 1670
3 1487 222 2465
3 1382 2022 2388
3 58 59 1661
3 2147 1543 2196
3 1484 1485 2410
3 628 2053 2199
3 1906 1549 2259
3 364 362 1786
3 1339 2022 2247
3 1636 525 2041
3 625 678 1595
3 678 1593 1594
3 2212 1410 2222
3 1837 1865 2215
3 1699 1800 1801
3 866 864 1703
3 893 1472 1982
3 1735 1736 2244
3 1633 1255 1922
3 126 127 1882
3 681 867 1656
3 1351 1401 2363
3 11 228 1588
3 1127 1953 2454
3 265 266 267
3 1722 1122 1737
3 1389 1691 2069
3 1613 1610 1616
3 1227 1256 2440
3 429 455 1756
3 1535 1177 2418
3 322 324 1952
3 973 1700 1802
3 1964 368 2038
3 1176 1865 1866
3 1096 872 1764
3 1176 1866 1875
3 193 1839 1892
3 156 157 1441
3 615 617 1596
3 686 1520 2480
3 1409 2097 2305
3 2410 1151 2528
3 1427 2217 2361
3 440 1911 2314
3 1744 1743 2296
3 516 1456 1739
3 1939 589 2164
3 690 931 2150
3 1062 1579 1580
3 1054 1580 1581
3 955 1483 1716
3 1064 1677 2248
3 1956 1616 2193
3 1776 1893 2026
3 1398 1115 1973
3 2002 1453 2265
3 1541 1531 1542
3 216 2191 2536
3 1736 1326 1894
3 1065 994 1066
3 1598 2115 2175
3 2314 1911 2358
3 1433 941 2042
3 2115 1209 2175
3 717 1550 1551
3 188 1941 2433
3 267 1132 1414
3 771 1569 2064
3 1157 1545 1546
3 1231 1250 1526
3 1933 240 2181
3 222 1487 2025
3 1525 230 1765
3 1430 1704 2077
3 757 1744 2495
3 264 263 265
3 883 773 1917
3 739 2205 2282
3 1667 1582 2434
3 1744 757 2474
3 239 1453 2002
3 1441 259 2356
3 2005 1443 2012
3 254 1766 1932
3 1509 166 1679
3 1477 1475 1481
3 793 1440 2165
3 1385 1523 2377
3 1481 1475 2523
3 156 1441 2356
3 1066 1220 1655
3 945 325 1952
3 2094 2087 2134
3 1747 1175 1748
3 253 262 263
3 1327 1074 1888
3 718 715 1567
3 2046 1043 2105
3 240 1933 2399
3 1305 1307 1890
3 224 58 1661
3 1195 1566 2285
3 1590 1393 1749
3 1255 1230 1922
3 353 1538 2073
3 358 1999 2325
3 882 1802 2036
3 1024 1020 1604
3 333 522 1998
3 1401 1351 2414
3 1475 1258 1476
3 2310 786 2364
3 328 945 1889
3 807 1748 1927
3 825 724 1912
3 1742 263 2491
3 267 266 1132
3 2077 2102 2203
3 1431 1432 1860
3 1212 1957 2312
3 2097 476 2305
3 1132 1402 2473
3 717 713 1550
3 1746 693 1969
3 1372 1124 1844
3 1256 1541 2269
3 1977 1350 2274
3 2332 1978 2443
3 874 2133 2179
3 1983 1534 2171
3 1157 1544 1545
3 1230 1228 1922
3 1580 1579 1581
3 1565 806 1948
3 1416 1363 2413
3 1287 1995 2398
3 265 263 266
3 1534 1529 2171
3 1604 1834 2428
3 1255 1633 2509
3 1344 1643 1644
3 1332 1388 1571
3 1423 217 2217
3 2191 1057 2451
3 458 447 1637
3 1250 1233 1733
3 472 2212 2222
3 1175 1747 1840
3 1652 256 1653
3 1073 1347 1572
3 200 145 1609
3 683 640 1585
3 1116 862 1705
3 1221 1223 1474
3 1778 801 1803
3 1503 1622 2471
3 1475 1493 2523
3 464 680 2134
3 14 210 2114
3 579 1880 1988
3 1434 1435 1990
3 1447 2310 2364
3 275 274 276
3 2294 1871 2419
3 814 1068 1684
3 1172 1439 2273
3 273 272 274
3 1363 1416 2406
3 1220 1219 1221
3 1060 1656 1662
3 1099 1792 1985
3 2048 1198 2168
3 1241 1245 2323
3 699 723 1753
3 1640 1862 2070
3 910 1018 1584
3 1586 1067 1587
3 1656 867 1662
3 1067 686 2480
3 654 2242 2294
3 1593 1315 1594
3 1880 553 1974
3 236 1717 1718
3 617 621 1596
3 1723 196 2313
3 402 1877 2116
3 273 274 275
3 2202 1869 2252
3 1510 1358 1767
3 193 1892 2373
3 1188 1805 2054
3 1220 1221 1267
3 1066 1218 1219
3 1517 1097 1518
3 1677 1676 1858
3 686 277 1520
3 268 267 269
3 697 857 1592
3 220 1698 1699
3 1802 1700 2036
3 1612 1537 1614
3 929 817 994
3 228 12 2136
3 2110 2116 2482
3 1659 1658 1702
3 1611 1613 2280
3 1344 991 1643
3 683 1585 1604
3 1638 1358 2404
3 1485 1034 2410
3 2214 833 2424
3 271 272 273
3 1482 955 1962
3 1066 1219 1220
3 931 1885 2150
3 1613 1891 2280
3 1189 1589 2204
3 1566 1195 2120
3 726 1567 2490
3 1122 1722 1874
3 1494 319 2493
3 1671 259 1672
3 1267 1221 1474
3 603 528 1591
3 1664 2128 2316
3 1817 1924 2174
3 1626 1660 2111
3 1474 1475 1477
3 1023 1062 1580
3 1957 1599 2312
3 1764 1939 2164
3 1358 1950 2404
3 200 1609 1610
3 1431 1082 1432
3 1778 1803 2521
3 1830 1832 2075
3 1930 233 2369
3 1329 1482 1650
3 757 1959 2522
3 1239 1247 1597
3 758 1978 2332
3 1569 1290 2064
3 216 1694 2191
3 1453 1420 2265
3 1549 1906 2129
3 24 215 1674
3 19 235 1676
3 1621 1057 2191
3 1691 1389 2262
3 1617 1333 2192
3 929 994 1065
3 1769 1672 1986
3 1893 1412 2026
3 1609 1537 1612
3 271 269 272
3 1373 1438 1620
3 217 1423 2381
3 517 330 1889
3 1322 1055 1667
3 1974 553 2499
3 228 2136 2187
3 1589 1189 1788
3 1999 1577 2325
3 2110 405 2116
3 189 1608 1842
3 1055 1050 1667
3 739 1455 2205
3 1865 1176 2215
3 319 1494 2522
3 2474 757 2522
3 1484 227 1485
3 10 11 1588
3 723 809 1753
3 27 230 1689
3 1550 806 1565
3 1179 1180 1217
3 207 1617 2192
3 1433 1217 1502
3 1562 1556 1606
3 1379 2017 2018
3 1245 2158 2323
3 675 1097 1517
3 884 501 1599
3 1020 683 1604
3 1603 1095 1848
3 1001 2057 2154
3 1604 1585 1834
3 1610 1612 1616
3 1764 870 1939
3 2242 1871 2294
3 1669 1264 1670
3 1658 213 1702
3 1995 1646 2398
3 631 539 1600
3 1491 2143 2342
3 1801 1800 2195
3 1200 1199 1693
3 1535 940 1861
3 1534 758 2332
3 914 2258 2328
3 1588 228 2457
3 216 138 1694
3 151 152 1500
3 1133 1880 1974
3 1677 1858 2248
3 1294 1622 1868
3 875 1010 1767
3 1379 2018 2416
3 1279 2202 2252
3 182 256 1652
3 1592 857 2386
3 672 681 1656
3 615 1596 1824
3 1093 1487 1623
3 1823 522 2100
3 1245 1242 1669
3 1582 1581 1583
3 758 1534 2306
3 1975 1984 2230
3 1358 1510 1950
3 1663 1336 1665
3 2102 960 2203
3 366 1087 1786
3 1740 1490 2231
3 21 207 1709
3 145 146 1609
3 2339 765 2384
3 603 1591 1668
3 2081 199 2149
3 1540 1832 1879
3 1721 1723 1947
3 1754 455 1793
3 1751 1753 2119
3 882 1701 1807
3 1540 1539 1917
3 242 1695 1697
3 1521 354 2091
3 1363 2233 2413
3 1584 1018 1925
3 703 1067 1586
3 1177 1178 1179
3 795 916 1834
3 277 276 607
3 1571 1388 1872
3 22 23 1617
3 1097 823 1177
3 25 26 1624
3 419 418 1790
3 1728 1906 2259
3 440 1455 2261
3 1877 1318 2116
3 1488 1156 1608
3 1439 2130 2273
3 1889 1451 1890
3 1614 209 2389
3 1472 893 2094
3 675 821 823
3 23 24 1674
3 1788 1190 2183
3 917 941 1622
3 1763 1096 1764
3 1068 1442 1684
3 1034 1485 2173
3 2172 1533 2230
3 138 139 1694
3 1065 1570 2197
3 607 674 675
3 1536 1248 2268
3 229 135 1734
3 1437 1925 1926
3 680 510 1646
3 147 209 1537
3 26 27 1689
3 1627 705 2163
3 206 1651 2121
3 2409 1785 2462
3 1492 682 2447
3 1223 1225 1258
3 889 1772 2374
3 253 263 264
3 275 276 277
3 1455 739 2261
3 2022 1382 2176
3 150 227 1484
3 639 1019 1591
3 1449 1640 2070
3 1082 833 2214
3 1503 1502 1504
3 144 200 1717
3 1643 991 1713
3 1190 1791 2183
3 1538 1804 2073
3 1256 2269 2440
3 18 19 1676
3 521 531 2000
3 790 849 2180
3 1075 1329 1650
3 1087 1782 1785
3 1066 994 1218
3 270 269 271
3 682 1492 2494
3 185 252 1454
3 253 158 262
3 1629 1632 1633
3 200 1610 1611
3 1477 1481 2104
3 1623 1487 2465
3 1518 1097 1535
3 1414 1132 2460
3 1179 1217 1433
3 177 1506 1680
3 1392 1017 2525
3 1832 834 2075
3 675 823 1097
3 1459 2094 2134
3 1782 1087 1795
3 1838 1730 2372
3 1639 149 2528
3 1617 23 1674
3 2265 1420 2489
3 180 232 1859
3 1527 1250 1528
3 20 21 1709
3 1083 1508 2311
3 903 866 1703
3 1455 440 2314
3 1187 1858 1888
3 1659 1406 2473
3 1446 1902 2166
3 421 1951 2106
3 1598 210 2115
3 154 259 1671
3 1288 1835 2080
3 1832 1831 1879
3 1258 1225 1478
3 1024 1604 2117
3 1263 1429 1739
3 706 705 1627
3 1583 1581 2352
3 407 1805 1951
3 856 1574 2527
3 1701 882 2036
3 1624 26 1689
3 717 1551 1552
3 1385 2377 2391
3 2302 1745 2354
3 1572 1347 2157
3 1036 883 1917
3 1689 1690 1691
3 1664 1665 2128
3 1476 1479 1480
3 1751 2119 2143
3 815 814 1684
3 1790 889 2400
3 1606 1607 2085
3 265 267 268
3 418 889 1790
3 1522 1521 2091
3 135 136 1734
3 1726 1445 1729
3 647 1796 1797
3 1346 1453 2279
3 1293 1827 2117
3 1242 1244 1669
3 1853 1852 1854
3 889 2374 2400
3 1039 1038 1290
3 1524 628 2199
3 1331 1332 1571
3 1291 1290 1569
3 1475 1476 1493
3 1850 1852 1853
3 1490 1740 2456
3 1689 230 1690
3 1256 1526 1541
3 1704 1705 2167
3 1465 1470 1675
3 956 1073 1572
3 1613 1616 1956
3 916 917 1038
3 2014 1522 2091
3 1221 1222 1223
3 1999 763 2352
3 234 10 1588
3 1697 220 2335
3 1527 1528 1529
3 2298 1600 2413
3 1436 2020 2254
3 1642 1161 1678
3 1523 1385 2436
3 1730 1838 2426
3 795 796 916
3 713 711 1550
3 1456 1263 1739
3 999 1336 1663
3 1785 1784 2462
3 409 415 1783
3 607 675 1517
3 1229 1231 1526
3 1958 1855 2078
3 1589 1588 1590
3 1933 261 2380
3 762 1965 2038
3 1756 1458 2203
3 1776 597 1893
3 1794 1072 1893
3 188 1512 2266
3 1774 2339 2384
3 188 1908 1941
3 1010 1510 1767
3 2189 2285 2307
3 773 834 1917
3 1245 1669 1670
3 1248 1597 2268
3 146 1537 1609
3 818 910 1584
3 1641 1313 1651
3 1217 1745 2302
3 1065 1066 1655
3 1597 1247 2047
3 1360 2177 2376
3 1612 1615 1616
3 2126 867 2186
3 1019 683 1020
3 1747 892 1840
3 1092 1093 1623
3 261 1933 2181
3 400 424 1666
3 1516 1903 2377
3 1100 1392 1605
3 247 1738 1881
3 268 1134 1986
3 1177 823 1178
3 884 1599 1957
3 263 262 2491
3 806 1627 1948
3 1227 1229 1256
3 191 1729 2504
3 1636 1635 2502
3 1480 1479 1601
3 1721 1947 2498
3 1924 1146 2174
3 229 1734 1735
3 175 204 1725
3 1179 1178 1180
3 354 1521 2147
3 665 697 1592
3 640 646 1585
3 627 545 1636
3 1882 240 2399
3 1556 1555 1606
3 1373 1620 2394
3 1871 1071 2419
3 548 1628 1629
3 455 436 1793
3 974 1831 1841
3 1844 1413 2392
3 1612 1614 1615
3 209 1639 1937
3 1329 1330 1331
3 1823 2100 2142
3 1097 1177 1535
3 1021 1020 1022
3 825 1912 2455
3 913 1122 1874
3 400 1666 2113
3 1256 1229 1526
3 1419 1418 2450
3 1552 1551 1553
3 1850 1099 1852
3 1629 1631 1632
3 801 685 2029
3 1618 1619 1621
3 265 268 1986
3 1715 2165 2330
3 1531 1529 1534
3 1022 1024 1576
3 658 693 1746
3 703 686 1067
3 1062 1576 1577
3 1023 1022 1062
3 236 1718 2394
3 1688 502 1740
3 1501 1477 2104
3 213 165 1509
3 646 795 1585
3 196 1737 1738
3 379 679 1795
3 639 640 683
3 924 875 1767
3 1752 699 1753
3 207 2192 2315
3 627 1636 1660
3 1217 1180 1745
3 730 728 1833
3 528 561 1591
3 1444 1417 1998
3 252 186 1602
3 1729 1445 2504
3 460 502 1688
3 1418 946 1778
3 1203 1200 1693
3 548 470 1628
3 849 668 1640
3 646 785 795
3 607 276 674
3 14 15 210
3 147 148 209
3 478 460 1688
3 1709 207 2315
3 1157 1546 1608
3 1155 1731 1899
3 1524 1934 2390
3 1775 921 1876
3 1433 1502 1503
3 470 458 1628
3 1223 1224 1225
3 1291 1569 1964
3 871 1056 1826
3 1781 1783 1915
3 1587 1067 2300
3 916 1038 1039
3 1388 1387 1389
3 1611 1610 1613
3 1075 1328 1329
3 1039 1290 1291
3 1538 1265 1804
3 1184 1185 2163
3 597 598 1794
3 1450 1356 2421
3 1835 576 2080
3 1629 1628 1631
3 1331 1330 1332
3 561 639 1591
3 1476 1480 1493
3 705 703 1586
3 639 683 1019
3 1951 1188 2106
3 436 446 1793
3 1472 1297 2142
3 1332 1387 1388
3 1345 984 1720
3 1329 1328 1330
3 1050 1048 1667
3 150 151 227
3 11 12 228
3 557 541 2256
3 1831 974 1879
3 134 229 1766
3 1357 1358 1638
3 1336 1641 2299
3 1650 1482 1962
3 1591 1019 2512
3 1506 1507 1570
3 1803 801 2029
3 1178 823 1972
3 1552 1553 1554
3 1290 1038 1294
3 1028 1313 1641
3 1237 1239 1597
3 993 1017 1100
3 893 2087 2094
3 149 1484 2528
3 1768 1142 1949
3 9 234 1673
3 1554 1553 1555
3 668 632 1640
3 711 806 1550
3 1628 458 1637
3 1098 1829 1830
3 1482 1331 1483
3 531 1818 2000
3 435 419 1790
3 1156 1157 1608
3 1182 1184 2179
3 510 512 1646
3 1231 1233 1250
3 946 841 1778
3 1483 1331 1571
3 1459 680 2458
3 1166 1040 1210
3 892 1657 1820
3 1042 1445 1726
3 1019 1020 1021
3 749 805 1810
3 234 1588 1589
3 1695 242 1892
3 556 1853 2483
3 1018 1572 1573
3 1529 1528 1530
3 1606 1558 1607
3 1761 1759 2308
3 1396 1032 1921
3 1018 956 1572
3 689 1150 1416
3 1827 1293 2515
3 149 150 1484
3 1647 656 1648
3 1543 694 2196
3 399 409 1783
3 545 525 1636
3 268 269 270
3 715 713 717
3 1100 1017 1392
3 1657 892 1747
3 207 22 1617
3 1666 884 2249
3 1671 1672 1769
3 1554 1555 1556
3 146 147 1537
3 1081 1444 1822
3 711 709 806
3 1443 2005 2322
3 660 658 1746
3 1166 1458 1754
3 916 796 917
3 1056 1728 1826
3 1068 1069 1275
3 184 185 1454
3 158 159 262
3 2007 1687 2231
3 805 1708 1810
3 1672 264 1986
3 1561 1562 1563
3 978 1075 1650
3 1590 1588 2457
3 215 25 1624
3 1551 1550 1565
3 1073 1346 1347
3 857 818 1584
3 1648 656 1649
3 675 674 821
3 561 594 639
3 1731 529 1899
3 2303 1454 2535
3 981 903 1040
3 1630 1629 1633
3 993 877 1017
3 724 718 726
3 512 603 1646
3 1676 235 1858
3 814 1060 1068
3 715 717 1567
3 1796 647 1870
3 1715 1171 2165
3 678 1592 1593
3 644 613 1824
3 1690 1525 2145
3 1297 1822 1823
3 271 656 1647
3 1704 1116 1705
3 1225 1226 1227
3 1275 1069 1338
3 910 956 1018
3 1824 1596 2154
3 1403 1100 1605
3 1221 1219 1222
3 1068 1060 1069
3 1901 245 1949
3 1081 1055 1321
3 1751 563 1752
3 1021 1022 1023
3 672 638 681
3 1095 657 1848
3 1235 1237 1248
3 1561 1556 1562
3 1265 1259 1804
3 524 1819 2016
3 978 1650 2362
3 1492 516 2494
3 229 1735 2061
3 185 186 252
3 157 158 253
3 152 153 233
3 9 10 234
3 1527 1529 1531
3 1808 1344 2360
3 1062 1577 1579
3 1509 1679 1977
3 424 454 1666
3 637 638 672
3 981 1040 1166
3 1555 1558 1606
3 751 749 1810
3 1166 1210 1458
3 1651 1313 2121
3 15 16 2260
3 1633 1632 2509
3 2167 1705 2276
3 551 602 2045
3 697 818 857
3 364 1786 1883
3 832 1189 2204
3 1476 1478 1479
3 678 665 1592
3 213 1509 2096
3 1015 888 1124
3 1062 1022 1576
3 679 1782 1795
3 680 1646 1995
3 1101 1100 1403
3 1109 433 1714
3 1248 1237 1597
3 733 730 1833
3 1702 213 2096
3 499 498 1828
3 1418 1778 2521
3 637 600 638
3 1048 1046 1054
3 1577 1576 1578
3 814 766 1060
3 1279 2252 2292
3 474 470 548
3 199 18 1676
3 157 253 1441
3 1048 1054 1667
3 471 472 2290
3 625 665 678
3 795 785 796
3 1264 1265 1266
3 1437 1926 2350
3 1362 2048 2168
3 1394 2337 2371
3 454 884 1666
3 1022 1020 1024
3 751 1810 1923
3 1046 1023 1580
3 1807 1701 1931
3 1618 208 1619
3 566 588 689
3 1828 498 1829
3 501 509 1599
3 1118 780 1775
3 878 817 929
3 1510 1511 1950
3 1618 1621 1694
3 1052 1081 1822
3 1416 1150 1715
3 1239 1241 1247
3 1396 1921 2067
3 1751 1752 1753
3 1264 1259 1265
3 539 566 1600
3 1762 1127 2496
3 1673 1788 2183
3 1555 1557 1558
3 1052 1050 1055
3 725 724 825
3 1142 1770 1771
3 681 853 867
3 454 501 884
3 1346 1420 1453
3 932 1147 1770
3 1546 1545 1547
3 533 582 1818
3 1266 1337 1460
3 1872 820 2318
3 1117 1119 1713
3 1081 1321 1417
3 1253 1259 1264
3 1569 771 2135
3 1052 1055 1081
3 1181 1178 1972
3 709 706 1627
3 1073 1076 1346
3 1098 1828 1829
3 1382 1380 2176
3 1442 1275 1443
3 919 999 1663
3 1789 828 1855
3 877 815 1684
3 509 539 631
3 992 877 993
3 1266 1265 1337
3 2268 1498 2340
3 1130 1032 1396
3 1095 1603 2508
3 886 826 887
3 531 533 1818
3 1131 1400 1881
3 447 437 516
3 2460 1132 2473
3 940 1535 2418
3 768 1873 2037
3 1813 1869 1954
3 1627 2163 2488
3 1497 1495 1645
3 1198 1409 2168
3 724 726 1912
3 1869 987 1954
3 763 1999 2338
3 1010 1170 1374
3 984 976 1720
3 1470 1743 1744
3 689 588 1150
3 1901 1949 2359
3 1640 632 1862
3 274 272 1787
3 563 564 1752
3 994 817 1505
3 737 1807 1931
3 1770 1147 1771
3 1233 1235 1733
3 2450 1418 2521
3 414 410 1821
3 908 1099 1850
3 1227 1228 1229
3 1692 1203 1693
3 1625 216 2194
3 512 528 603
3 1377 1357 1638
3 1465 1464 1470
3 1360 1359 2177
3 1686 2007 2095
3 1336 1028 1641
3 1857 751 1923
3 1758 572 1759
3 553 541 557
3 1171 1715 1811
3 956 1003 1073
3 1467 1465 1675
3 719 718 724
3 1509 1977 2096
3 1734 1625 1736
3 1503 1504 1868
3 592 597 1776
3 180 181 232
3 162 163 231
3 2308 1759 2370
3 1357 1114 1358
3 875 946 1010
3 509 631 1599
3 17 18 199
3 144 145 200
3 1099 906 1792
3 1469 1467 1494
3 605 589 1939
3 1208 1205 1211
3 354 344 2091
3 692 782 804
3 1010 946 1170
3 1463 1462 1464
3 716 715 718
3 714 713 715
3 271 273 656
3 139 1618 1694
3 549 277 686
3 673 672 766
3 1378 1377 1379
3 2007 868 2095
3 999 1028 1336
3 1208 1211 1447
3 601 545 627
3 1119 1643 1713
3 1332 1333 1387
3 910 912 956
3 520 521 2000
3 828 1789 1819
3 277 607 1520
3 1338 1339 2247
3 818 819 910
3 767 766 814
3 712 711 713
3 1494 1467 1675
3 639 594 640
3 2044 557 2256
3 235 20 1709
3 1620 236 2394
3 804 919 962
3 1862 702 2070
3 681 852 853
3 1559 1556 1561
3 1622 941 2471
3 2165 1440 2330
3 612 644 692
3 697 698 818
3 1903 1516 1994
3 371 379 1795
3 428 426 2138
3 1290 1294 2064
3 1384 1904 2432
3 566 689 1600
3 471 452 472
3 1092 1091 1093
3 1002 1131 1719
3 1090 1089 1091
3 875 841 946
3 1758 1760 1763
3 1562 1606 2085
3 1833 1830 2075
3 178 179 214
3 164 165 213
3 769 923 1815
3 692 644 782
3 804 782 919
3 182 183 256
3 160 161 257
3 1329 1331 1482
3 962 1663 1664
3 1177 1179 2042
3 403 405 1805
3 1461 1460 1462
3 140 208 1618
3 1859 232 1860
3 274 1787 2099
3 1381 2126 2186
3 1558 1560 1789
3 430 428 682
3 452 435 1683
3 1487 1156 1488
3 1470 1464 1743
3 597 1794 1893
3 1244 1253 1669
3 962 919 1663
3 258 8 1673
3 1087 1785 1786
3 970 1042 1726
3 199 1677 2149
3 1664 1663 1665
3 1229 1230 1231
3 991 827 1713
3 792 1603 1848
3 1822 1444 1823
3 665 666 697
3 19 20 235
3 142 143 236
3 728 1098 1833
3 532 530 1898
3 1015 1124 1372
3 1546 1547 1548
3 1851 1850 1853
3 1877 393 2240
3 923 1105 1815
3 1090 1091 1092
3 687 686 703
3 1683 435 1790
3 887 826 1961
3 684 663 1089
3 426 1934 2138
3 464 510 680
3 853 854 855
3 568 572 1758
3 1376 1357 1377
3 1205 1203 1692
3 1607 1789 1855
3 710 709 711
3 780 781 1775
3 1434 1103 1435
3 876 815 877
3 766 672 1656
3 1393 1590 2457
3 684 1089 1090
3 530 890 1898
3 926 1920 1943
3 696 414 1821
3 1563 1562 1777
3 1054 1046 1580
3 1398 1973 1974
3 137 216 1625
3 1210 1040 1430
3 1750 563 1751
3 2010 1665 2299
3 1510 1374 1511
3 1777 1562 2085
3 1707 252 1791
3 1932 1404 1933
3 459 438 1814
3 139 140 1618
3 1093 1156 1487
3 231 163 1658
3 699 722 723
3 1545 1095 2508
3 598 612 1794
3 579 554 1880
3 1941 1908 2401
3 1231 1232 1233
3 1831 1829 1841
3 1037 1383 1799
3 177 178 1506
3 636 600 637
3 1036 1539 2286
3 1356 1114 1357
3 1523 1516 2377
3 704 703 705
3 403 402 405
3 648 792 1848
3 723 756 808
3 1388 1389 2170
3 933 932 1770
3 223 1710 1711
3 1779 399 1783
3 1223 1222 1224
3 1028 1029 1313
3 257 161 1654
3 418 412 421
3 734 882 1807
3 693 657 1095
3 1368 1370 1436
3 136 137 1625
3 688 652 817
3 1075 1327 1328
3 540 479 1813
3 398 395 402
3 548 1629 1630
3 574 591 699
3 1469 1494 1495
3 1041 1598 2175
3 167 168 202
3 175 176 204
3 2045 2046 2201
3 186 187 1602
3 886 887 888
3 1253 1254 1259
3 8 9 1673
3 792 655 810
3 843 1145 1960
3 1180 1349 1745
3 1165 1345 1512
3 708 706 709
3 136 1625 1734
3 21 22 207
3 140 141 208
3 625 626 665
3 1093 1094 1156
3 1585 795 1834
3 1117 1713 1806
3 599 579 600
3 810 871 1826
3 1047 1046 1048
3 1292 1291 1293
3 161 162 1654
3 199 1676 1677
3 1260 1282 1804
3 1005 1142 1768
3 1233 1234 1235
3 792 810 922
3 1122 1719 1737
3 976 985 1720
3 1278 1279 2292
3 2390 1934 2531
3 1436 1437 2350
3 270 271 1647
3 1199 966 1846
3 1683 1342 2212
3 656 273 2124
3 699 591 722
3 1977 1139 2096
3 1738 1719 1881
3 1722 985 1874
3 1797 1448 1798
3 162 231 1654
3 632 604 1862
3 252 1602 1791
3 1051 1050 1052
3 1045 1023 1046
3 648 655 792
3 993 1100 1101
3 1321 1055 1322
3 806 709 1627
3 904 903 981
3 1220 1267 1268
3 648 605 655
3 1737 1719 1738
3 385 399 1779
3 506 499 1828
3 1132 266 1402
3 1170 1418 1419
3 1323 2302 2354
3 24 25 215
3 137 138 216
3 721 965 1919
3 1787 1414 2460
3 778 1117 1806
3 723 722 756
3 407 403 1805
3 564 574 1752
3 1049 1048 1050
3 842 841 875
3 1608 1546 1842
3 809 808 899
3 1517 1519 1520
3 1530 1532 1533
3 889 421 1772
3 913 1002 1122
3 1314 1316 1367
3 1017 877 1684
3 841 802 1778
3 1235 1236 1237
3 751 1857 1900
3 1114 924 1767
3 1344 1644 2360
3 1895 1394 2371
3 1518 1535 1861
3 1758 1759 1760
3 1122 1002 1719
3 546 563 1750
3 1056 1726 1727
3 663 660 1746
3 621 622 625
3 1720 985 1721
3 1857 1843 1900
3 808 756 913
3 1056 970 1726
3 27 28 230
3 134 135 229
3 908 906 1099
3 163 164 1658
3 1727 1726 1729
3 7 8 258
3 154 155 259
3 1101 1403 1404
3 808 913 1874
3 1260 1269 1282
3 1389 1387 2262
3 1297 1053 1822
3 1555 1553 1557
3 1463 1464 1465
3 230 28 1765
3 1237 1238 1239
3 554 553 1880
3 775 778 1806
3 985 899 1874
3 1270 1524 2199
3 489 1820 1936
3 692 1072 1794
3 1472 2142 2272
3 1845 496 1929
3 438 431 1814
3 613 615 1824
3 1241 1242 1245
3 1783 415 1915
3 1192 2081 2149
3 178 214 1506
3 1816 988 1817
3 1760 1759 1761
3 1103 1092 1623
3 1512 1345 1661
3 1876 921 2295
3 1165 984 1345
3 978 1074 1075
3 1239 1240 1241
3 542 541 553
3 813 988 1816
3 1148 984 1165
3 871 970 1056
3 472 452 1683
3 1207 1796 1870
3 1167 1166 1754
3 1296 1053 1297
3 966 964 1846
3 976 899 985
3 982 976 984
3 702 1815 2015
3 900 899 976
3 1143 995 1206
3 1576 1024 1827
3 1235 1248 1733
3 1558 1557 1560
3 943 995 1143
3 1920 1144 1943
3 1471 2115 2477
3 29 30 255
3 132 133 254
3 1630 1633 1634
3 1225 1224 1226
3 1925 1573 1926
3 1211 1205 1692
3 725 825 826
3 1113 924 1114
3 600 579 1988
3 717 1552 1567
3 1820 1657 1936
3 674 276 2099
3 395 393 1877
3 572 543 1897
3 1575 1308 2255
3 999 1000 1028
3 1118 1775 1876
3 1797 1798 2430
3 526 546 559
3 867 853 2186
3 1142 1771 1949
3 1068 1275 1442
3 679 385 1779
3 1607 1558 1789
3 580 568 1758
3 1244 1252 1253
3 1760 1761 1762
3 398 402 403
3 1476 1258 1478
3 418 421 889
3 1771 1147 1839
3 164 213 1658
3 1720 1721 2267
3 1668 1591 2512
3 1042 1128 1445
3 1098 1830 1833
3 1102 1092 1103
3 2249 884 2466
3 1104 1103 1434
3 410 416 1821
3 514 513 541
3 580 1758 1763
3 637 673 1741
3 1913 936 1914
3 1394 1395 2337
3 919 920 999
3 577 554 579
3 2111 1660 2263
3 231 1658 1659
3 612 613 644
3 568 543 572
3 770 775 1806
3 1445 1128 1446
3 1546 1548 1842
3 448 460 478
3 810 870 871
3 1789 1560 1819
3 1154 1082 1431
3 873 973 1802
3 379 385 679
3 837 850 921
3 1461 1462 1463
3 1346 1076 1420
3 1088 1344 1808
3 2125 1143 2353
3 931 977 978
3 882 772 1802
3 29 255 1765
3 849 1513 2180
3 1713 827 1806
3 1130 1396 1397
3 681 638 852
3 1417 1321 1873
3 1654 1402 2530
3 502 526 1740
3 1124 888 2177
3 1266 1460 1461
3 515 1175 1840
3 1253 1264 1669
3 479 466 1813
3 1727 1729 1757
3 379 380 385
3 1971 1480 2514
3 1637 1739 2459
3 1207 1205 1208
3 529 519 1899
3 1129 1845 1929
3 224 1661 2267
3 192 1856 2361
3 732 734 1807
3 1184 2163 2435
3 1119 1120 1353
3 415 414 431
3 719 724 725
3 559 546 1750
3 871 872 970
3 1038 917 1622
3 574 699 1752
3 166 167 1679
3 1117 1118 1119
3 1409 1196 2035
3 617 619 621
3 1172 1173 1439
3 1191 1005 1768
3 664 663 684
3 494 493 1841
3 890 529 1731
3 840 802 841
3 493 974 1841
3 385 386 399
3 679 1779 1780
3 371 376 379
3 416 433 1109
3 670 769 1815
3 902 866 903
3 1780 1779 1781
3 480 515 1840
3 970 971 1042
3 433 448 1714
3 28 29 1765
3 1005 949 1142
3 778 780 1117
3 959 1037 1799
3 1073 1003 1076
3 535 532 1898
3 1119 1118 1120
3 658 657 693
3 1378 1379 1380
3 1397 1396 1809
3 1610 1609 1612
3 1819 1560 2016
3 1837 952 1865
3 1719 1131 1881
3 1131 1399 1400
3 1352 1138 2058
3 399 406 409
3 548 1630 2041
3 1275 1338 2251
3 582 1816 1818
3 1835 1836 2144
3 993 1101 1980
3 1699 1698 1700
3 2407 364 2505
3 1189 1190 1788
3 1117 780 1118
3 1830 1829 1831
3 637 672 673
3 692 804 1072
3 1204 1203 1205
3 1374 1170 2139
3 612 692 1794
3 1642 1408 2286
3 723 808 809
3 450 459 1812
3 409 410 414
3 802 801 1778
3 1853 1854 2483
3 1042 1127 1128
3 1199 1846 2225
3 1147 990 1273
3 1383 1384 2432
3 432 431 438
3 1353 1120 1390
3 1093 1091 1094
3 2020 250 2254
3 148 149 1639
3 606 605 648
3 1970 2016 2422
3 2201 2046 2327
3 475 471 513
3 412 407 1951
3 1991 246 2139
3 727 695 728
3 1673 234 1788
3 1554 1556 1559
3 1089 663 1746
3 1846 964 2056
3 923 991 1088
3 409 406 410
3 729 728 730
3 1424 1427 1856
3 1473 1911 2407
3 1376 1377 1378
3 1010 1374 1510
3 853 852 854
3 366 369 1087
3 772 873 1802
3 1219 1218 1626
3 1766 229 2061
3 1088 991 1344
3 922 810 1826
3 518 506 695
3 405 402 2116
3 962 1664 2316
3 913 942 1002
3 932 990 1147
3 629 813 1816
3 876 877 992
3 399 386 406
3 932 845 990
3 1002 1123 1131
3 843 996 1145
3 781 837 1775
3 262 2304 2491
3 431 696 1814
3 1273 1695 1892
3 731 730 732
3 737 732 1807
3 439 438 450
3 1829 498 1841
3 800 685 801
3 767 814 815
3 1060 766 1656
3 673 766 767
3 1403 1605 1882
3 716 718 719
3 1338 1069 1339
3 847 752 1843
3 864 862 1116
3 2302 443 2519
3 923 827 991
3 526 559 1740
3 1911 1473 2358
3 1085 1310 1867
3 809 899 900
3 1227 1226 1228
3 729 730 731
3 1436 1370 1437
3 731 732 737
3 769 827 923
3 456 452 471
3 1433 1503 2471
3 1435 1103 1623
3 385 380 386
3 1141 1787 2460
3 1354 1088 1808
3 657 649 1848
3 415 431 432
3 484 892 1820
3 727 728 729
3 855 854 1450
3 1721 1722 1723
3 1643 1353 1644
3 1145 1916 1960
3 1421 1191 1422
3 466 1812 1813
3 943 944 995
3 1356 1357 1376
3 714 715 716
3 1156 1094 1157
3 598 611 612
3 631 1600 2298
3 590 589 605
3 965 969 1919
3 416 1109 1821
3 242 1697 2335
3 1548 1547 1549
3 550 573 584
3 584 604 632
3 409 414 415
3 712 713 714
3 642 670 702
3 818 698 819
3 1006 1005 1191
3 1624 1689 1691
3 169 170 237
3 173 174 238
3 956 912 1003
3 937 936 1913
3 1317 1025 1875
3 515 540 550
3 973 1799 1800
3 973 959 1799
3 518 695 727
3 910 819 912
3 584 573 604
3 1170 946 1418
3 173 238 1847
3 550 540 573
3 982 984 1148
3 900 976 982
3 441 435 452
3 448 478 1714
3 1849 1648 2173
3 1631 1628 1637
3 1830 1831 1832
3 1383 1216 1384
3 734 772 882
3 949 933 1770
3 1332 1330 1333
3 574 575 591
3 1105 1088 1354
3 702 670 1815
3 498 494 1841
3 827 770 1806
3 873 959 973
3 1390 1391 1415
3 450 438 459
3 950 949 1005
3 351 362 364
3 1313 1029 1314
3 432 438 439
3 837 838 850
3 1273 1274 1695
3 850 851 943
3 911 952 1837
3 1259 1260 1804
3 566 587 588
3 1037 1216 1383
3 1337 1265 1538
3 1087 369 1795
3 810 655 870
3 1559 1561 1566
3 1147 1273 1839
3 732 733 734
3 1662 867 2126
3 890 1731 2241
3 1854 1852 2397
3 515 479 540
3 451 450 466
3 697 666 698
3 1367 1316 1368
3 662 660 663
3 365 355 694
3 1358 1114 1767
3 379 376 380
3 1796 1448 1797
3 179 180 1859
3 790 668 849
3 569 568 580
3 690 860 931
3 466 450 1812
3 431 414 696
3 1973 1133 1974
3 651 649 657
3 467 466 479
3 1288 1289 1835
3 264 265 1986
3 1302 1303 1304
3 592 596 597
3 1873 1321 2037
3 544 543 568
3 275 277 549
3 209 1937 2389
3 539 565 566
3 1485 227 1486
3 2384 2190 2408
3 1781 1779 1783
3 480 479 515
3 689 1416 2413
3 1108 1161 1539
3 1867 1310 1895
3 1300 1301 1302
3 1695 1696 1697
3 633 632 668
3 1304 1451 1452
3 988 911 1837
3 168 169 1724
3 969 1012 1172
3 582 629 1816
3 1843 752 1900
3 629 812 813
3 710 711 712
3 1782 1780 1784
3 536 535 543
3 1089 1746 1969
3 1108 1107 1161
3 1514 1426 1856
3 486 484 1820
3 369 371 1795
3 1817 988 1924
3 493 609 974
3 1422 1191 2023
3 1426 1424 1856
3 842 875 924
3 922 1826 2259
3 989 1361 1886
3 928 1070 1288
3 669 668 790
3 1113 1114 1356
3 1027 847 1843
3 728 695 1098
3 734 735 772
3 975 1107 1108
3 955 859 1962
3 813 911 988
3 1208 1448 1796
3 1101 1405 1980
3 602 676 2045
3 586 581 589
3 546 547 563
3 493 491 609
3 628 1524 2390
3 348 344 354
3 1298 1299 1300
3 509 538 539
3 974 609 975
3 813 891 911
3 871 870 872
3 1355 1354 1423
3 489 486 1820
3 778 779 780
3 1025 1176 1875
3 772 773 873
3 803 1743 2347
3 167 202 1679
3 873 883 959
3 1483 1571 2375
3 427 1756 2221
3 540 1813 1954
3 1202 1200 1203
3 959 1035 1037
3 837 921 1775
3 1304 1305 1451
3 1799 1383 2195
3 604 642 1862
3 1470 1744 2474
3 1854 2397 2453
3 1282 1269 1386
3 1573 1572 2157
3 472 2222 2290
3 1307 1708 2341
3 769 770 827
3 1037 1215 1216
3 791 790 856
3 1053 1052 1822
3 1056 1727 1728
3 1341 1138 1352
3 1300 1299 1301
3 1814 696 1838
3 1198 1196 1409
3 492 491 493
3 439 450 451
3 1171 858 2132
3 1259 1254 1260
3 665 626 666
3 970 872 971
3 258 1602 2357
3 1296 1297 1472
3 490 489 491
3 516 437 2494
3 1298 1027 1299
3 846 845 932
3 501 508 509
3 460 461 502
3 448 449 460
3 482 480 1840
3 1229 1228 1230
3 604 641 642
3 1424 1423 1427
3 502 503 526
3 1028 1000 1029
3 935 933 949
3 1084 1085 1867
3 2028 1711 2353
3 1513 1426 1514
3 892 482 1840
3 852 638 1988
3 402 395 1877
3 738 737 845
3 413 412 418
3 1119 1353 1643
3 526 527 546
3 280 279 281
3 1731 1155 2123
3 1042 971 1127
3 1208 1447 1448
3 433 434 448
3 262 159 2304
3 184 1454 2303
3 1051 1052 1053
3 1816 1817 1818
3 1081 1417 1444
3 781 836 837
3 911 951 952
3 1090 1092 1102
3 202 168 1724
3 1085 1309 1310
3 408 407 412
3 1337 1538 1864
3 1515 1514 1516
3 530 529 890
3 1517 1518 1519
3 549 686 687
3 923 1088 1105
3 404 403 407
3 1835 1289 1836
3 1314 1367 2121
3 1380 1379 2416
3 670 671 769
3 899 808 1874
3 1040 903 1703
3 1596 1595 2154
3 1496 1495 1497
3 636 637 1741
3 1377 1638 2288
3 1288 1070 1289
3 1072 804 1981
3 1129 1334 1845
3 1865 1084 1866
3 792 922 1603
3 1253 1252 1254
3 981 1167 1792
3 1302 1301 1303
3 1641 1651 2019
3 952 953 1084
3 1813 1812 1869
3 732 730 733
3 975 1106 1107
3 1142 949 1770
3 981 1166 1167
3 840 841 842
3 451 466 467
3 1273 990 1274
3 1049 1050 1051
3 1473 2407 2505
3 968 966 1199
3 642 643 670
3 1310 1309 1311
3 422 419 435
3 1063 833 1082
3 919 782 920
3 911 891 951
3 1084 953 1085
3 1763 1764 2164
3 1498 1497 1682
3 515 550 1175
3 1079 937 1913
3 642 702 1862
3 845 737 1931
3 1394 1311 1395
3 1395 1521 1522
3 467 479 480
3 1755 1754 1793
3 1231 1230 1232
3 1557 1553 2030
3 1624 1691 2262
3 584 632 633
3 1094 1091 1969
3 708 709 710
3 1948 1627 2488
3 952 951 953
3 1102 1103 1104
3 1047 1048 1049
3 1310 1311 1394
3 1852 1099 1985
3 143 144 1717
3 813 812 891
3 1944 1044 1945
3 1105 1354 1355
3 1300 1302 1455
3 1914 936 1940
3 1415 1391 1710
3 1299 1027 1843
3 952 1084 1865
3 1695 1274 1696
3 776 774 1928
3 282 281 283
3 2003 1347 2279
3 1206 995 1499
3 1164 1685 1686
3 1551 1565 2030
3 969 1172 1919
3 633 668 669
3 734 733 735
3 1373 1372 1438
3 599 600 636
3 1431 1860 2487
3 1579 1577 1999
3 484 482 892
3 917 940 941
3 2144 1836 2169
3 1866 1084 1867
3 1110 1747 1748
3 998 1171 1811
3 1390 1120 1391
3 644 1824 2057
3 1362 1961 2048
3 944 1283 1825
3 1086 1027 1298
3 679 1780 1782
3 974 975 1879
3 507 506 518
3 1121 1079 1401
3 775 777 778
3 1965 762 2349
3 1045 1046 1047
3 1772 421 2106
3 16 17 2081
3 416 417 433
3 921 850 2125
3 1607 1855 1958
3 649 648 1848
3 1241 1240 1242
3 2012 1443 2251
3 926 928 1920
3 1487 1488 2025
3 1006 1191 1421
3 1355 1423 1424
3 1133 852 1988
3 591 592 1776
3 1299 1843 1857
3 1085 1308 1309
3 490 491 492
3 958 694 1575
3 1384 1216 1385
3 741 915 1878
3 1233 1232 1234
3 669 790 791
3 481 480 482
3 687 703 704
3 492 493 494
3 1634 1633 1922
3 1697 1696 1698
3 1721 985 1722
3 1839 1273 1892
3 772 735 773
3 488 486 489
3 950 1005 1006
3 1513 1514 1515
3 454 500 501
3 873 773 883
3 284 283 285
3 2185 1505 2442
3 959 883 1035
3 543 535 1897
3 1904 1384 2093
3 800 801 802
3 1037 1035 1215
3 1293 1964 1965
3 1239 1238 1240
3 943 1143 2125
3 1782 1784 1785
3 913 756 942
3 488 490 1884
3 1590 1749 2501
3 1235 1234 1236
3 791 856 1408
3 702 2015 2070
3 1108 1539 1540
3 1021 1023 1045
3 695 506 1828
3 1530 1528 1532
3 488 489 490
3 1621 1619 2161
3 704 705 706
3 1304 1303 1305
3 558 1704 2167
3 625 622 626
3 542 553 554
3 604 573 641
3 664 684 685
3 564 571 574
3 1108 1540 1879
3 1856 1427 2361
3 880 1025 1129
3 1395 1311 1521
3 1466 1465 1467
3 915 495 1884
3 1515 1516 1523
3 1237 1236 1238
3 606 648 649
3 999 920 1000
3 676 829 1043
3 2100 794 2142
3 227 151 1500
3 577 579 599
3 153 154 1671
3 1175 550 1927
3 1014 888 1015
3 286 285 287
3 1649 1280 2427
3 1725 204 2137
3 975 609 1106
3 1129 1317 1334
3 1109 1730 2426
3 1468 1467 1469
3 1131 1123 1399
3 1215 2235 2378
3 1976 1149 1989
3 397 395 398
3 746 743 1878
3 1041 1343 1598
3 975 1108 1879
3 741 495 915
3 1167 1754 1755
3 288 287 289
3 743 741 1878
3 1274 990 1931
3 1506 214 1507
3 857 1584 2277
3 2341 1522 2387
3 846 932 933
3 1107 1106 1110
3 584 633 1927
3 290 289 291
3 722 591 1776
3 1544 1094 1969
3 1135 270 1647
3 935 949 950
3 1920 1288 2080
3 754 1896 2108
3 1693 1199 2225
3 292 291 293
3 394 393 395
3 745 743 746
3 1002 942 1123
3 731 737 738
3 294 293 295
3 1018 1573 1925
3 296 295 297
3 298 297 299
3 321 322 325
3 317 320 321
3 314 315 317
3 312 313 314
3 310 311 312
3 308 309 310
3 1898 890 2275
3 306 307 308
3 304 305 306
3 1401 1079 1913
3 300 299 301
3 302 303 304
3 300 301 302
3 302 301 303
3 491 489 1936
3 298 299 300
3 304 303 305
3 306 305 307
3 308 307 309
3 310 309 311
3 312 311 313
3 314 313 315
3 317 315 320
3 321 320 322
3 1301 1299 1857
3 514 541 542
3 296 297 298
3 850 838 851
3 1310 1394 1895
3 294 295 296
3 590 605 606
3 292 293 294
3 651 657 658
3 290 291 292
3 1207 1208 1796
3 835 1976 1989
3 621 619 622
3 746 1878 1896
3 481 482 483
3 1026 847 1027
3 1335 1207 1870
3 1661 59 2266
3 727 729 1155
3 288 289 290
3 1058 776 1928
3 662 663 664
3 495 488 1884
3 1959 319 2522
3 943 851 944
3 1293 1291 1964
3 534 532 535
3 640 645 646
3 2280 1014 2385
3 286 287 288
3 591 575 592
3 521 519 529
3 13 14 2114
3 780 779 781
3 918 908 1850
3 837 836 838
3 209 148 1639
3 754 748 1896
3 745 746 747
3 769 671 770
3 929 1065 2197
3 1278 1058 1279
3 483 482 484
3 1564 1557 2030
3 633 807 1927
3 392 391 393
3 1057 1621 2161
3 569 580 581
3 284 285 286
3 876 992 1894
3 497 494 498
3 1630 1635 2041
3 982 1148 1918
3 612 611 613
3 700 634 1044
3 822 674 2099
3 880 1129 1929
3 432 439 654
3 1039 1291 1292
3 1164 1686 1989
3 1129 1025 1317
3 738 845 846
3 582 583 629
3 278 6 279
3 544 568 569
3 1701 1274 1931
3 747 749 751
3 1085 953 1308
3 928 930 1070
3 747 748 749
3 1421 1422 2415
3 902 903 904
3 1309 1308 1543
3 642 641 643
3 904 981 1792
3 646 784 785
3 536 543 544
3 1204 1205 1207
3 365 694 958
3 71 72 217
3 88 89 1901
3 87 88 193
3 101 102 189
3 85 86 242
3 99 100 241
3 74 75 192
3 91 92 219
3 94 95 191
3 83 84 220
3 97 98 221
3 77 78 218
3 80 81 194
3 89 90 245
3 62 63 244
3 60 61 188
3 64 65 223
3 67 68 190
3 90 91 1909
3 98 99 1905
3 61 62 1908
3 69 70 243
3 68 69 1907
3 70 71 1910
3 410 411 416
3 586 589 590
3 685 684 2029
3 390 389 391
3 1715 1150 1811
3 1924 1837 2215
3 282 283 284
3 496 497 1929
3 233 1671 1769
3 627 2185 2442
3 1567 1552 2062
3 629 630 812
3 424 453 454
3 583 562 1942
3 749 750 805
3 744 743 745
3 1897 535 1898
3 467 480 481
3 504 759 880
3 670 643 671
3 89 245 1901
3 193 88 1901
3 221 98 1905
3 245 90 1909
3 91 219 1909
3 62 244 1908
3 188 61 1908
3 99 241 1905
3 190 68 1907
3 71 217 1910
3 69 243 1907
3 243 70 1910
3 505 499 506
3 475 513 514
3 1945 1044 2071
3 1712 2125 2353
3 339 343 440
3 989 1360 1361
3 764 869 1152
3 778 777 779
3 1686 1685 1687
3 742 741 743
3 979 989 1886
3 729 731 1887
3 926 927 928
3 1305 1306 1307
3 1838 1278 2292
3 747 746 748
3 181 182 1652
3 1886 1361 2305
3 1595 1594 2486
3 597 596 598
3 928 1288 1920
3 1970 824 2156
3 1425 1424 1426
3 497 504 1929
3 748 746 1896
3 745 747 1900
3 998 858 1171
3 563 547 564
3 1155 729 1887
3 634 583 1942
3 1439 1173 1440
3 1026 1027 1086
3 79 80 1904
3 1533 1532 1536
3 1449 1426 1513
3 1106 609 1936
3 1318 1013 1319
3 1098 695 1828
3 492 494 496
3 750 748 754
3 731 738 1887
3 2415 1422 2516
3 533 562 582
3 988 1837 1924
3 1216 1215 1863
3 534 535 536
3 747 751 1900
3 1753 809 2119
3 1183 824 1970
3 740 495 741
3 80 194 1904
3 893 383 2087
3 655 605 1939
3 1884 2034 2082
3 1301 1857 1923
3 1307 1306 1708
3 752 745 1900
3 750 754 755
3 76 77 1903
3 2090 2347 2365
3 255 30 2159
3 132 254 2160
3 448 434 449
3 753 848 926
3 1075 1074 1327
3 487 488 495
3 377 381 647
3 483 484 485
3 755 754 2148
3 1584 1925 2277
3 1186 1183 1970
3 951 891 1281
3 485 484 486
3 546 527 547
3 133 134 1766
3 1786 1785 2409
3 280 281 282
3 460 449 461
3 744 745 752
3 77 218 1903
3 983 1918 2342
3 1708 1306 1810
3 1389 2069 2170
3 487 486 488
3 641 573 1954
3 507 518 519
3 502 461 503
3 519 518 1899
3 1202 1203 1204
3 821 897 1972
3 92 93 1902
3 521 529 530
3 749 748 750
3 2176 1380 2416
3 885 826 886
3 485 486 487
3 371 372 376
3 1289 1070 1871
3 1110 1657 1747
3 753 926 1943
3 700 1044 1944
3 880 881 1025
3 496 1845 2034
3 1072 1981 2393
3 462 464 2134
3 1949 1771 2359
3 1044 634 1942
3 550 584 1927
3 1390 1415 2118
3 526 503 527
3 990 845 1931
3 1009 1213 1214
3 740 742 1144
3 219 92 1902
3 727 1155 1899
3 369 370 371
3 623 690 2150
3 1279 1058 1928
3 1408 2235 2286
3 487 495 740
3 979 1886 2086
3 1305 1303 1306
3 421 412 1951
3 843 844 996
3 633 669 807
3 518 727 1899
3 826 825 1961
3 1657 1106 1936
3 1172 1012 1173
3 740 741 742
3 433 417 434
3 505 506 507
3 1333 1674 2437
3 742 743 744
3 469 458 470
3 1381 1380 1382
3 1293 1965 2515
3 1554 1559 2062
3 553 557 2499
3 1774 389 2339
3 497 498 499
3 483 485 576
3 740 1144 1935
3 773 735 834
3 366 367 369
3 1120 1118 1876
3 1515 1523 1574
3 1319 1013 2039
3 1303 1301 1923
3 457 447 458
3 561 593 594
3 1355 1424 1425
3 609 491 1936
3 204 1732 2137
3 791 1408 1642
3 995 944 1825
3 456 471 475
3 1692 1693 2239
3 580 1763 2164
3 1292 1293 2117
3 441 452 456
3 388 384 389
3 823 821 1972
3 504 880 1929
3 176 177 1680
3 1070 1071 1871
3 15 2260 2477
3 362 363 366
3 2178 2300 2449
3 1035 883 1036
3 2285 1563 2307
3 978 977 1074
3 1090 1102 2029
3 1810 1306 1923
3 496 494 497
3 1306 1303 1923
3 432 654 1915
3 934 933 935
3 356 355 365
3 398 403 404
3 635 701 843
3 1110 1106 1657
3 574 571 575
3 1025 881 1176
3 386 380 786
3 415 432 1915
3 343 347 1911
3 1070 930 1071
3 1688 1740 2231
3 1385 1216 1863
3 1696 1274 1701
3 1645 305 2317
3 880 759 881
3 926 848 927
3 1427 1423 2217
3 1339 1662 2388
3 770 774 775
3 1263 1257 1428
3 1337 1864 2412
3 349 348 355
3 2267 1721 2498
3 753 752 847
3 1375 1086 1473
3 900 982 983
3 332 335 739
3 429 428 430
3 744 752 753
3 1171 2132 2165
3 1425 1426 1449
3 987 641 1954
3 1883 1786 2409
3 427 426 428
3 928 927 930
3 1815 1105 2015
3 1206 1499 1941
3 410 406 411
3 573 540 1954
3 497 499 504
3 528 560 561
3 1933 1404 2399
3 1091 1089 1969
3 1804 1282 2073
3 504 505 759
3 963 924 1113
3 1711 1710 1712
3 881 759 1146
3 968 1199 1200
3 351 352 362
3 848 847 1026
3 521 530 531
3 1884 490 2034
3 1277 957 1966
3 1349 1350 2329
3 676 1043 2045
3 997 1159 1286
3 517 1889 1890
3 781 835 836
3 944 948 1283
3 722 1776 2026
3 507 519 520
3 2040 1352 2058
3 1276 957 1277
3 446 437 447
3 931 860 977
3 361 359 765
3 1248 1536 2534
3 512 523 528
3 408 412 413
3 1368 1369 1370
3 451 2169 2223
3 192 75 1994
3 942 756 2026
3 345 344 348
3 764 1152 1963
3 413 418 419
3 1286 1773 1774
3 770 671 774
3 275 549 2124
3 1497 1645 2461
3 1982 1472 2272
3 422 435 441
3 281 279 736
3 1134 270 1135
3 582 562 583
3 1421 2415 2454
3 485 487 1935
3 2300 1067 2480
3 1578 1576 1827
3 930 927 1061
3 1026 1086 1375
3 922 2259 2379
3 1391 1120 1876
3 1495 1494 2493
3 404 407 408
3 879 2178 2449
3 1700 1698 2036
3 607 1517 1520
3 753 847 848
3 416 411 417
3 1144 742 1943
3 775 776 777
3 754 2108 2148
3 1006 1421 1953
3 585 581 586
3 531 530 532
3 235 1709 1888
3 520 519 521
3 1180 1181 1349
3 1146 759 1967
3 708 710 1921
3 1350 2253 2329
3 436 430 437
3 504 499 505
3 643 641 987
3 336 330 517
3 811 1059 1149
3 1164 1411 1685
3 846 933 934
3 635 843 1960
3 983 982 1918
3 971 872 1096
3 1149 1163 1164
3 169 237 1724
3 1314 1315 1316
3 629 583 630
3 891 812 1916
3 462 463 464
3 487 740 1935
3 798 2084 2189
3 1814 1838 2292
3 1284 1489 1491
3 340 336 2014
3 1670 1461 2200
3 920 782 2057
3 890 2241 2275
3 510 511 512
3 278 279 280
3 839 802 840
3 1858 235 1888
3 1698 1696 2036
3 104 105 222
3 57 58 224
3 1185 1183 1186
3 588 587 623
3 638 600 1988
3 1282 1386 2245
3 811 776 1058
3 816 815 876
3 2034 1845 2082
3 761 636 1741
3 566 565 587
3 174 175 1725
3 347 350 351
3 1469 1495 1496
3 1059 1058 1278
3 811 1149 1976
3 576 485 1935
3 659 658 660
3 859 1153 1962
3 76 1903 1994
3 1821 1109 2426
3 1294 1038 1622
3 733 1833 2075
3 992 993 1980
3 1566 1561 2285
3 525 474 2041
3 464 465 510
3 343 346 347
3 360 893 1982
3 650 649 651
3 896 608 936
3 950 1006 1007
3 1508 1859 1860
3 539 538 565
3 440 343 1911
3 341 340 344
3 221 1905 1906
3 1297 1823 2142
3 759 505 1967
3 1295 1053 1296
3 473 470 474
3 1463 1465 1466
3 1143 1206 2028
3 799 685 800
3 1210 2077 2203
3 509 508 538
3 492 496 2034
3 1553 1551 2030
3 1260 1261 1269
3 1430 1040 1703
3 586 590 1940
3 838 836 868
3 1705 624 2276
3 1749 972 2501
3 742 744 1943
3 804 962 1981
3 1367 1368 2254
3 531 532 533
3 337 336 340
3 1157 1094 1544
3 536 544 1158
3 812 630 1960
3 781 779 835
3 56 57 1947
3 630 583 634
3 1405 1404 1932
3 1281 891 1916
3 339 342 343
3 1411 1163 1730
3 322 323 324
3 344 340 2091
3 1735 1734 1736
3 75 76 1994
3 430 682 2494
3 1907 243 2360
3 589 581 2164
3 694 355 2196
3 744 753 1943
3 775 774 776
3 1210 1430 2077
3 335 338 339
3 1102 1803 2029
3 1078 937 1079
3 870 655 1939
3 505 507 1967
3 357 360 1982
3 1896 1878 2101
3 326 325 328
3 934 935 957
3 585 608 895
3 333 330 336
3 1270 1272 1524
3 688 817 878
3 507 520 1967
3 1428 1257 2074
3 1818 1817 2000
3 896 937 1077
3 934 957 1111
3 329 328 330
3 1499 995 1825
3 944 851 948
3 387 445 462
3 1678 1161 2228
3 777 776 811
3 313 311 757
3 324 331 332
3 848 1026 1955
3 1312 998 1811
3 1321 1322 2037
3 1080 1079 1121
3 1105 1355 2015
3 1645 2317 2461
3 1559 1568 2062
3 332 334 335
3 501 500 508
3 321 325 326
3 394 395 397
3 322 320 323
3 1529 1530 2171
3 1137 797 1138
3 811 1058 1059
3 661 660 662
3 569 581 585
3 183 4 2303
3 5 160 2304
3 1340 1138 1341
3 1660 1626 2185
3 1743 1464 2347
3 1026 1375 1955
3 1149 1059 1163
3 1736 1625 2194
3 1322 1667 2434
3 311 309 1959
3 309 307 319
3 894 700 1944
3 533 534 562
3 1276 1277 1366
3 2190 1706 2408
3 533 532 534
3 1214 1213 1410
3 1164 1163 1411
3 843 701 844
3 1009 1214 2055
3 234 1589 1788
3 2000 1817 2174
3 317 321 2050
3 328 325 945
3 392 393 394
3 588 623 2089
3 1162 958 1681
3 1078 1080 1136
3 927 848 1955
3 1496 1497 1498
3 390 391 392
3 1061 927 1955
3 1283 948 1284
3 635 634 700
3 1244 1251 1252
3 218 78 2093
3 756 722 2026
3 1071 1784 2419
3 1218 1505 2185
3 1284 948 1285
3 1489 1285 1490
3 918 1850 1851
3 684 1090 2029
3 1759 572 2537
3 1691 1690 2446
3 1979 1158 2071
3 606 649 650
3 2045 1043 2046
3 103 104 2025
3 630 634 635
3 360 383 893
3 406 386 2043
3 1909 219 2023
3 1111 957 1276
3 1925 1437 2277
3 1536 2268 2340
3 854 852 1133
3 233 153 1671
3 651 658 659
3 2099 1787 2368
3 1033 1032 1130
3 1015 1372 1373
3 1412 942 2026
3 253 264 1441
3 1531 1534 2332
3 701 700 894
3 106 107 1990
3 2048 1961 2455
3 276 274 2099
3 738 846 1968
3 1325 925 1326
3 896 936 937
3 585 586 608
3 1450 854 1973
3 1361 1360 1362
3 1045 1668 2512
3 303 301 444
3 996 844 997
3 79 1904 2093
3 1989 1686 2095
3 1928 774 2033
3 1942 562 1979
3 287 285 316
3 935 950 1966
3 1466 1467 1468
3 1242 1243 1244
3 1887 738 1968
3 2115 210 2477
3 878 929 1083
3 1326 1736 2194
3 886 888 1014
3 895 608 896
3 289 287 1978
3 821 822 897
3 936 608 1940
3 613 614 615
3 51 52 1996
3 417 411 1160
3 1149 1164 1989
3 386 786 2043
3 285 283 1971
3 1309 1543 2147
3 375 373 2053
3 371 370 372
3 779 777 1976
3 1286 1159 1773
3 2177 887 2376
3 1560 1557 1564
3 1403 1882 2399
3 1727 1757 2246
3 279 6 2049
3 1619 1438 2438
3 291 289 758
3 1781 1915 2294
3 425 401 426
3 349 355 356
3 66 67 2118
3 474 548 2041
3 1686 1687 2007
3 1262 1456 1457
3 1123 942 1412
3 1916 812 1960
3 1355 1425 2015
3 735 733 2075
3 1861 879 2449
3 1284 1285 1489
3 490 492 2034
3 366 363 367
3 980 578 2051
3 906 904 1792
3 534 536 1979
3 842 924 963
3 2051 578 2083
3 1077 937 1078
3 1102 1104 1803
3 894 1944 1946
3 398 404 2060
3 1007 1006 1953
3 369 367 370
3 348 354 2196
3 1078 1079 1080
3 1378 1380 1381
3 1568 1365 2439
3 608 586 1940
3 598 610 611
3 760 636 761
3 869 1137 1351
3 671 643 2033
3 1661 1345 2267
3 938 914 1057
3 783 761 914
3 576 1835 2144
3 388 389 390
3 297 295 318
3 454 453 500
3 1906 1728 2246
3 1439 1440 2468
3 1159 1013 1318
3 764 797 869
3 236 143 1717
3 782 644 2057
3 592 595 596
3 1542 2332 2443
3 1521 1311 2147
3 345 348 349
3 1304 1452 2205
3 1644 1907 2360
3 2146 1125 2149
3 997 844 1013
3 628 375 2053
3 299 297 1984
3 957 935 1966
3 664 685 799
3 301 299 1975
3 362 352 363
3 777 811 1976
3 1942 1979 2071
3 1001 920 2057
3 312 314 768
3 1552 1554 2062
3 615 616 617
3 357 1982 2076
3 800 802 839
3 774 671 2033
3 1749 1169 2105
3 365 958 1162
3 617 618 619
3 283 281 1938
3 1351 1772 2414
3 1525 1765 2489
3 846 934 1968
3 635 700 701
3 555 554 577
3 536 1158 1979
3 1101 1404 1405
3 630 635 1960
3 1811 1150 2089
3 2113 1666 2249
3 172 173 1847
3 107 108 195
3 54 55 196
3 1191 1768 2023
3 1455 1302 2205
3 115 116 2017
3 1387 1333 2437
3 659 661 764
3 1080 1121 1188
3 50 51 2011
3 411 406 2043
3 295 293 1983
3 643 987 2033
3 707 706 708
3 129 130 261
3 32 33 260
3 2159 260 2265
3 449 434 567
3 1314 1029 1315
3 917 796 940
3 378 375 628
3 108 109 1991
3 2370 1759 2537
3 341 344 345
3 997 1013 1159
3 544 569 1993
3 950 1007 1966
3 477 474 525
3 351 350 352
3 1696 1701 2036
3 334 331 803
3 1137 1138 1340
3 562 534 1979
3 109 110 246
3 52 53 247
3 1368 1316 1369
3 659 660 661
3 33 34 2002
3 123 124 2005
3 835 779 1976
3 851 838 1992
3 1530 1533 2172
3 1668 1045 2348
3 1162 1681 1706
3 342 338 468
3 298 300 358
3 765 359 2065
3 725 826 885
3 35 36 2003
3 46 47 2019
3 38 39 2006
3 336 517 2014
3 934 1111 1968
3 116 117 2018
3 650 651 1963
3 223 1711 2162
3 640 594 645
3 1333 1330 2192
3 104 222 2025
3 1603 922 2379
3 963 1113 1115
3 2084 1193 2189
3 564 570 571
3 36 37 2004
3 57 224 1947
3 1542 1601 2269
3 122 123 2012
3 1000 920 1001
3 127 128 240
3 34 35 239
3 383 387 2087
3 1161 1107 2228
3 1781 2294 2419
3 1201 1200 1202
3 124 125 225
3 37 38 226
3 1340 1341 1342
3 869 797 1137
3 839 840 1008
3 1158 544 1993
3 1326 925 1894
3 352 350 353
3 326 329 954
3 1864 2344 2412
3 836 835 2095
3 1051 1053 1295
3 1031 720 1032
3 503 461 787
3 1407 1112 2044
3 661 662 2058
3 838 868 1992
3 112 113 197
3 49 50 198
3 1359 980 1413
3 121 122 211
3 40 41 212
3 48 49 2010
3 113 114 2009
3 1741 673 2131
3 41 42 2020
3 120 121 2013
3 1409 2035 2097
3 1511 1374 2506
3 114 115 248
3 47 48 249
3 42 43 250
3 119 120 251
3 171 6 201
3 6 172 203
3 585 895 1993
3 43 44 2024
3 118 119 2021
3 905 904 906
3 764 661 797
3 337 340 341
3 1413 980 2051
3 117 118 205
3 44 45 206
3 347 346 350
3 1420 1076 1525
3 324 323 331
3 434 417 2031
3 965 967 969
3 716 719 788
3 1260 1254 1261
3 2053 373 2103
3 2069 2068 2170
3 326 328 329
3 1706 996 2408
3 273 275 2124
3 969 1011 1012
3 590 606 2001
3 1718 1611 2280
3 1914 1940 2001
3 915 1884 2082
3 329 330 333
3 620 859 955
3 2168 1409 2305
3 296 298 1997
3 915 2082 2101
3 339 338 342
3 1218 994 1505
3 333 336 337
3 266 263 1742
3 1873 768 2127
3 244 63 2162
3 64 223 2162
3 343 342 346
3 914 761 2258
3 310 312 1987
3 799 800 2055
3 302 304 763
3 1559 1566 1568
3 1598 1343 2114
3 592 575 595
3 341 345 794
3 189 1842 2220
3 767 815 816
3 1003 912 1004
3 839 1008 1009
3 1263 1428 1429
3 564 547 570
3 1845 1334 2082
3 332 331 334
3 901 866 902
3 651 659 1963
3 1009 1112 1213
3 335 334 338
3 569 585 1993
3 1665 1336 2299
3 1945 2071 2153
3 863 862 864
3 907 906 908
3 1849 1486 1930
3 1935 1144 2080
3 967 966 968
3 809 900 2119
3 865 864 866
3 835 1989 2095
3 190 1907 2417
3 333 337 522
3 1110 1748 2228
3 1193 1194 1195
3 94 191 2166
3 473 1854 2453
3 1769 1134 2369
3 948 851 1992
3 237 170 2216
3 420 419 422
3 1448 1447 2364
3 483 576 2144
3 721 1919 2032
3 885 886 1891
3 613 611 614
3 886 1014 1891
3 1160 411 2043
3 1918 1283 2342
3 1651 206 2485
3 1242 1240 1243
3 598 596 610
3 1295 1296 1459
3 1185 1186 1948
3 1425 1449 2070
3 294 296 762
3 1285 948 1992
3 925 876 1894
3 712 714 789
3 603 1668 2398
3 1940 590 2001
3 721 570 964
3 834 735 2075
3 1144 1920 2080
3 2263 1635 2511
3 1204 1207 1335
3 2235 1408 2378
3 965 964 966
3 1990 1435 2218
3 397 398 2060
3 1138 797 2058
3 1787 1141 2368
3 2068 820 2170
3 360 359 361
3 387 462 2087
3 1524 1272 1934
3 819 698 820
3 1197 1196 1198
3 1662 2126 2388
3 78 79 2093
3 1150 588 2089
3 1269 1261 1270
3 1878 915 2101
3 451 467 2169
3 2262 1387 2437
3 1009 1008 1112
3 757 311 1959
3 897 898 1139
3 1854 473 2483
3 2015 1425 2070
3 2082 1334 2101
3 963 1115 1174
3 1047 1049 1287
3 1194 423 1196
3 321 326 2050
3 417 1160 2031
3 854 1133 1973
3 1201 1212 1348
3 705 1586 2163
3 309 319 1959
3 1353 1390 2417
3 427 428 429
3 357 356 359
3 606 650 2001
3 549 1280 2124
3 1213 1112 1407
3 256 2303 2535
3 356 365 2065
3 662 664 2040
3 701 894 2039
3 1325 1371 2451
3 666 626 667
3 1902 93 2166
3 1236 1234 1246
3 800 839 2055
3 1869 1812 2252
3 1197 1364 1365
3 576 1935 2080
3 404 408 798
3 1678 807 2529
3 1560 1564 2016
3 1319 2039 2122
3 425 426 427
3 349 356 357
3 308 310 327
3 1716 622 2484
3 1801 82 2289
3 1768 1949 2420
3 2006 1926 2507
3 351 364 2407
3 420 423 1193
3 659 764 1963
3 292 294 2038
3 840 842 2027
3 736 279 2049
3 372 373 374
3 461 449 2052
3 2189 1195 2285
3 1174 1115 1398
3 367 363 961
3 909 908 918
3 1738 247 2402
3 1007 1761 2308
3 288 290 2135
3 422 441 2035
3 623 624 690
3 537 525 545
3 1953 1421 2454
3 1887 1968 2123
3 861 691 862
3 654 439 2223
3 1136 1080 2054
3 1312 1811 2089
3 575 571 2032
3 383 361 384
3 968 1200 1201
3 797 661 2058
3 1423 1354 2381
3 1180 1178 1181
3 1513 1515 2180
3 72 73 2217
3 462 445 463
3 12 13 2136
3 457 458 469
3 542 554 555
3 599 636 760
3 254 133 1766
3 1130 1397 1937
3 404 798 2060
3 1044 1942 2071
3 690 691 860
3 357 359 360
3 1008 2027 2152
3 1232 1230 1255
3 372 370 373
3 850 943 2125
3 1457 1456 1492
3 1952 324 2282
3 155 2 2356
3 0 7 2357
3 2017 1379 2288
3 918 1851 2008
3 195 1991 2517
3 2090 803 2347
3 1244 1243 1251
3 290 292 368
3 1432 1082 2214
3 1008 840 2027
3 1743 803 2296
3 1013 844 2039
3 365 1162 2065
3 1594 1315 2184
3 387 384 388
3 1508 1860 2311
3 547 527 2056
3 2005 225 2322
3 314 317 2127
3 1853 556 2327
3 201 6 278
3 1907 1644 2417
3 1896 2101 2108
3 646 645 784
3 538 508 558
3 374 375 377
3 1630 1634 1635
3 1579 1999 2352
3 1647 1648 1849
3 1313 1314 2121
3 1179 1433 2042
3 844 701 2039
3 1252 1251 2098
3 816 876 925
3 1922 1228 2281
3 392 394 396
3 1915 654 2294
3 1652 1653 2487
3 429 430 436
3 456 475 476
3 1605 1392 2510
3 126 1882 2284
3 1784 1780 2419
3 500 453 960
3 377 378 381
3 2178 1587 2300
3 1222 1219 1626
3 413 419 420
3 381 382 400
3 2169 1836 2223
3 1906 1905 2129
3 616 614 793
3 1170 1419 2139
3 101 189 2220
3 241 100 2220
3 1968 1111 2123
3 567 434 2031
3 615 614 616
3 1032 720 1921
3 682 428 2138
3 469 470 473
3 339 440 2261
3 1501 238 2226
3 1154 1431 1653
3 446 447 457
3 1251 1243 1257
3 2229 315 2495
3 1201 1202 1212
3 785 784 879
3 464 463 465
3 66 2118 2395
3 324 332 2282
3 286 288 771
3 17 199 2081
3 571 570 721
3 611 610 2092
3 617 616 618
3 1542 1531 2332
3 400 401 424
3 1325 1326 1371
3 1140 1406 1702
3 1323 443 2302
3 1926 1573 2507
3 436 437 446
3 1262 1457 2098
3 67 190 2118
3 1518 1861 2449
3 989 1359 1360
3 1063 1082 1154
3 1757 96 2526
3 969 967 1011
3 868 836 2095
3 1215 1035 2235
3 96 1757 2309
3 261 2160 2380
3 1381 1382 2126
3 1468 1469 2182
3 1334 1317 2108
3 861 863 1064
3 1270 1261 1271
3 360 361 383
3 287 316 1978
3 1856 192 2367
3 1905 241 2129
3 1615 1809 2425
3 528 523 560
3 979 980 989
3 662 2040 2058
3 721 964 965
3 170 171 2216
3 664 799 2040
3 512 511 523
3 1201 1348 2107
3 620 618 858
3 758 289 1978
3 859 858 998
3 424 425 453
3 1616 1615 2193
3 444 301 1975
3 561 560 593
3 965 966 967
3 1798 376 2430
3 340 2014 2091
3 510 465 511
3 107 195 1990
3 1080 1188 2054
3 1153 998 1312
3 1226 1224 1249
3 1012 1011 1363
3 902 904 905
3 842 963 2027
3 268 270 1134
3 865 901 1125
3 2077 558 2102
3 282 284 442
3 1977 1679 2253
3 1496 1498 2047
3 284 286 2063
3 281 736 1938
3 2132 793 2165
3 1674 215 2437
3 2078 1855 2411
3 839 1009 2055
3 1182 824 1183
3 1168 947 1169
3 1289 1871 2242
3 316 285 1971
3 1270 1271 1272
3 1755 1793 2264
3 51 1996 2011
3 383 384 387
3 1146 1924 2215
3 1279 1928 2202
3 619 618 620
3 1194 1196 1197
3 555 578 979
3 1937 1639 2528
3 1262 1257 1263
3 389 384 2339
3 2251 1338 2464
3 1155 1887 2123
3 1151 1937 2528
3 465 463 828
3 1318 1319 2116
3 1687 1688 2231
3 326 954 2050
3 297 318 1984
3 1308 953 2255
3 1846 2056 2198
3 320 315 2229
3 1254 1252 2059
3 760 761 783
3 951 1281 2255
3 1459 1296 2094
3 2288 1638 2470
3 1975 299 1984
3 52 247 1996
3 468 338 2090
3 2140 1511 2506
3 1125 1126 1192
3 593 824 1182
3 720 708 1921
3 704 706 707
3 623 587 624
3 2044 1112 2152
3 1393 1169 1749
3 900 983 2119
3 783 914 938
3 255 2265 2489
3 2039 894 2122
3 317 2050 2127
3 1866 1867 2513
3 374 373 375
3 429 436 455
3 387 388 445
3 1193 423 1194
3 555 577 578
3 1074 977 1187
3 449 567 2052
3 1197 1198 1364
3 2154 1595 2486
3 1486 1849 2173
3 318 295 1983
3 939 1016 1844
3 131 132 2160
3 30 31 2159
3 881 1146 2215
3 1294 1868 2238
3 1300 1455 2314
3 1365 1364 1912
3 783 938 939
3 2061 1735 2441
3 551 545 601
3 2194 216 2536
3 1251 1257 1262
3 888 887 2177
3 1364 1198 2048
3 1498 1682 2340
3 1589 1590 2501
3 60 188 2266
3 1401 1913 2324
3 195 108 1991
3 420 422 423
3 1675 1470 2474
3 258 1673 2183
3 2161 1619 2438
3 1296 1472 2094
3 1808 1910 2381
3 334 803 2090
3 1490 1285 2232
3 523 511 524
3 1240 1238 2074
3 1184 1183 1185
3 39 40 2151
3 473 474 477
3 1461 1463 2200
3 2072 353 2073
3 861 862 863
3 1206 1941 2401
3 958 1575 2287
3 614 611 2092
3 110 111 2140
3 1136 2054 2110
3 645 594 2133
3 260 33 2002
3 673 767 2131
3 989 980 1359
3 1741 2131 2258
3 1317 1875 2148
3 894 1946 2122
3 863 864 865
3 787 461 2052
3 857 2277 2386
3 109 246 1991
3 2017 116 2018
3 1182 1183 1184
3 377 375 378
3 816 925 1324
3 865 866 901
3 1262 1263 1456
3 359 356 2065
3 2129 241 2472
3 283 1938 1971
3 1458 1210 2203
3 1076 1003 2145
3 196 1738 2402
3 1033 1130 1151
3 1188 1121 2106
3 1140 1702 2096
3 549 687 1280
3 1694 1621 2191
3 861 1064 2112
3 1548 1549 2129
3 1784 1071 2462
3 714 716 2066
3 1961 825 2455
3 1447 1211 2250
3 979 578 980
3 905 907 1209
3 381 378 382
3 457 469 552
3 595 575 2032
3 408 413 2084
3 481 483 2144
3 1745 1349 2293
3 1980 1405 2441
3 198 50 2011
3 248 115 2017
3 912 819 2068
3 620 858 859
3 707 708 720
3 821 674 822
3 514 542 2086
3 400 382 401
3 123 2005 2012
3 1772 1351 2374
3 34 239 2002
3 768 314 2127
3 2003 36 2004
3 280 282 2079
3 124 225 2005
3 596 595 2130
3 593 560 824
3 1504 1502 2519
3 239 35 2003
3 1311 1309 2147
3 1318 1877 2240
3 1860 1432 2311
3 1416 1715 2330
3 859 998 1153
3 352 353 2072
3 312 768 1987
3 2027 1174 2152
3 226 38 2006
3 1827 1024 2117
3 1710 1391 2295
3 690 624 691
3 37 226 2004
3 1153 1312 1885
3 853 855 2186
3 1892 242 2373
3 1967 520 2174
3 939 938 1016
3 47 249 2019
3 388 390 2078
3 1991 2139 2517
3 905 906 907
3 571 721 2032
3 1196 423 2035
3 1324 925 1325
3 1151 1130 1937
3 363 352 2072
3 345 349 2076
3 1031 1032 1033
3 214 179 1859
3 211 122 2012
3 602 601 652
3 117 205 2018
3 710 712 2067
3 1602 187 2357
3 520 2000 2174
3 85 242 2335
3 220 84 2335
3 381 400 2113
3 1586 1587 2435
3 424 401 425
3 963 1174 2027
3 860 691 861
3 610 596 2130
3 1958 2078 2431
3 570 547 2056
3 237 2216 2354
3 1211 1692 2219
3 298 358 1997
3 909 947 1041
3 441 456 2097
3 1135 1647 1849
3 1601 1542 2443
3 197 113 2009
3 49 198 2010
3 1911 347 2407
3 1729 191 2309
3 212 41 2020
3 121 211 2013
3 222 105 2218
3 1125 901 1126
3 114 248 2009
3 249 48 2010
3 42 250 2020
3 251 120 2013
3 233 1769 2369
3 1870 647 2113
3 794 345 2076
3 250 43 2024
3 119 251 2021
3 901 902 2141
3 964 570 2056
3 739 335 2261
3 2108 1317 2148
3 577 599 2083
3 205 118 2021
3 44 206 2024
3 1247 1241 2323
3 1894 992 2244
3 6 203 2049
3 1642 1678 2529
3 1417 1873 2333
3 1422 2023 2516
3 341 794 2100
3 73 74 2361
3 1234 1232 2088
3 1261 1254 2059
3 896 1077 2257
3 1921 710 2067
3 125 126 2284
3 220 1699 2289
3 159 5 2304
3 4 184 2303
3 2059 1252 2098
3 1003 1004 2145
3 2328 1325 2451
3 1486 227 1500
3 63 64 2162
3 2081 1192 2260
3 508 500 2102
3 667 1872 2318
3 338 334 2090
3 423 422 2035
3 1192 1126 1471
3 907 908 909
3 1330 1328 2192
3 1972 897 2500
3 2443 316 2514
3 242 86 2373
3 87 193 2373
3 420 1193 2084
3 1473 1086 2358
3 1987 768 2037
3 522 337 2100
3 627 1660 2185
3 1793 446 2264
3 1405 2061 2441
3 1502 1217 2302
3 171 201 2216
3 1158 1993 2153
3 1197 1365 2120
3 1712 1710 2295
3 1121 1401 2414
3 93 94 2166
3 653 652 688
3 622 1716 2452
3 1345 1720 2267
3 477 537 556
3 128 129 2181
3 2331 1295 2458
3 784 645 874
3 1269 1270 2199
3 189 102 2355
3 1041 1168 1343
3 246 110 2140
3 477 525 537
3 755 1895 2371
3 1947 1723 2313
3 1134 1135 2369
3 223 65 2395
3 968 1201 2107
3 1577 1578 2325
3 210 15 2477
3 961 363 2072
3 1581 1579 2352
3 349 357 2076
3 337 341 2100
3 305 303 2317
3 370 367 2103
3 762 296 1997
3 581 580 2164
3 1278 1838 2372
3 1548 2129 2472
3 594 593 2133
3 2021 251 2022
3 2047 1247 2182
3 967 968 2107
3 1169 947 2008
3 481 2144 2169
3 793 614 2092
3 1910 217 2381
3 1251 1262 2098
3 716 788 2066
3 2101 1334 2108
3 2006 39 2151
3 1603 2379 2508
3 1926 2006 2151
3 96 97 2526
3 750 755 2371
3 789 714 2066
3 909 918 947
3 1993 895 2153
3 106 1990 2218
3 1243 1240 2074
3 832 986 1189
3 1283 1284 2342
3 2297 195 2517
3 1043 829 2326
3 767 816 2131
3 602 653 676
3 1004 912 2068
3 2086 1886 2224
3 1124 2177 2467
3 426 401 2531
3 707 720 1030
3 1000 1001 2184
3 1315 1029 2184
3 467 481 2169
3 541 513 2256
3 647 381 2113
3 225 2284 2510
3 2 156 2356
3 187 0 2357
3 40 212 2151
3 2245 1386 2383
3 676 677 829
3 1004 2068 2069
3 1860 232 2487
3 1031 1033 1034
3 829 830 972
3 996 997 2408
3 1195 1194 2120
3 987 1869 2202
3 1410 1213 2222
3 819 820 2068
3 1485 1486 2173
3 1564 2030 2155
3 807 669 2529
3 129 261 2181
3 1525 1076 2145
3 578 577 2083
3 327 310 1987
3 1083 929 2197
3 2131 1324 2258
3 798 408 2084
3 1838 696 2426
3 1486 1500 1930
3 1946 1944 2291
3 2257 1077 2291
3 1512 1661 2266
3 445 388 2078
3 1192 1471 2260
3 2118 1415 2395
3 1466 1468 2158
3 830 677 831
3 211 2012 2251
3 652 601 2442
3 537 545 551
3 558 508 2102
3 198 2011 2128
3 1718 2280 2385
3 500 960 2102
3 1168 1169 1393
3 1127 971 2496
3 95 96 2309
3 2030 1565 2155
3 1919 1172 2273
3 977 860 2112
3 240 128 2181
3 294 762 2038
3 1800 1799 2195
3 712 789 2067
3 972 1749 2326
3 472 1683 2212
3 874 645 2133
3 551 2045 2201
3 2105 1043 2326
3 1957 1212 2301
3 1514 1856 2367
3 565 538 2167
3 373 370 2103
3 355 348 2196
3 1934 1272 2138
3 1934 426 2531
3 1881 1400 2481
3 2046 1851 2327
3 367 961 2103
3 1963 1152 2206
3 201 278 443
3 3 131 2444
3 31 1 2445
3 2035 441 2097
3 503 787 2198
3 1135 1849 1930
3 1534 1983 2306
3 2089 623 2150
3 687 704 2109
3 869 1351 2363
3 1302 1304 2205
3 955 1716 2484
3 1030 720 1031
3 1159 1318 2240
3 1228 1226 2281
3 947 918 2008
3 413 420 2084
3 785 879 2532
3 1041 947 1168
3 1468 2182 2323
3 1246 1234 2088
3 1730 1163 2372
3 542 555 2086
3 1599 631 2312
3 1146 1967 2174
3 1078 1136 2343
3 1515 1574 2180
3 2336 885 2469
3 1257 1243 2074
3 1347 1346 2279
3 2001 650 2206
3 1480 1601 2514
3 1029 1000 2184
3 1956 788 2336
3 1271 1261 2059
3 130 3 2444
3 1 32 2445
3 1570 1507 2197
3 1232 1255 2088
3 791 1642 2529
3 1601 1479 2269
3 1361 1362 2168
3 1634 1922 2281
3 765 2065 2190
3 2071 1158 2153
3 1699 1801 2289
3 832 831 833
3 1864 346 2344
3 456 476 2097
3 1855 828 2411
3 2065 1162 2190
3 1125 1192 2149
3 599 760 2083
3 361 765 2339
3 1731 2123 2241
3 1349 1181 1350
3 1443 1275 2251
3 1819 524 2429
3 1021 1045 2512
3 858 618 2132
3 1999 358 2338
3 368 292 2038
3 290 368 2135
3 803 331 2296
3 1112 1008 2152
3 56 1947 2313
3 555 979 2086
3 1469 1496 2182
3 1011 967 2107
3 248 2017 2288
3 1809 789 2425
3 960 453 2221
3 538 558 2167
3 1858 1187 2248
3 2246 1757 2526
3 902 905 2141
3 1851 1853 2327
3 1224 1222 2111
3 771 288 2135
3 1945 2153 2257
3 1420 1525 2489
3 1399 1123 2393
3 103 2025 2355
3 897 822 898
3 1861 940 2532
3 865 1125 2146
3 1675 2474 2522
3 1573 2157 2507
3 1632 1631 2382
3 551 601 602
3 527 503 2198
3 1708 805 2337
3 1059 1278 2372
3 2056 527 2198
3 860 861 2112
3 1668 2348 2398
3 255 2159 2265
3 1541 1542 2269
3 1428 2074 2227
3 1582 1583 2321
3 389 1774 2503
3 2004 226 2157
3 1777 397 2405
3 1368 1436 2254
3 1061 2409 2462
3 1071 930 2462
3 1126 901 2141
3 1194 1197 2120
3 1452 1952 2282
3 2116 1319 2482
3 105 106 2218
3 1981 1399 2393
3 2119 983 2143
3 444 1682 2461
3 2173 1648 2463
3 616 793 2132
3 1791 1190 2334
3 1826 1728 2259
3 602 652 653
3 1834 1292 2428
3 556 2201 2327
3 1014 1015 2385
3 1995 1287 2331
3 1193 1195 2189
3 816 1324 2131
3 879 1861 2532
3 593 1182 2133
3 1402 266 1742
3 2216 1323 2354
3 1660 1636 2502
3 620 955 2484
3 1162 1706 2190
3 1870 2113 2249
3 204 1680 1732
3 1909 2023 2420
3 217 72 2217
3 376 372 2430
3 905 1209 2141
3 1378 1381 2283
3 1236 1246 2227
3 286 771 2063
3 1635 2263 2502
3 100 101 2220
3 1139 898 1140
3 2114 1343 2136
3 442 284 2063
3 1772 2106 2414
3 1985 1755 2533
3 2192 1328 2315
3 1064 863 2146
3 1631 1637 2459
3 736 2049 2523
3 221 1906 2246
3 318 1983 2171
3 1496 2047 2182
3 1374 2139 2506
3 196 55 2313
3 2087 462 2134
3 676 653 677
3 2304 257 2491
3 1401 2324 2363
3 829 677 830
3 654 2223 2242
3 1187 977 2112
3 1463 1466 2200
3 2023 219 2516
3 1176 881 2215
3 513 471 2290
3 1812 459 2252
3 1386 1269 2199
3 291 758 2306
3 618 616 2132
3 278 280 2210
3 83 220 2289
3 82 83 2289
3 938 1057 2161
3 1189 986 1190
3 788 719 2336
3 1914 2001 2206
3 232 181 1652
3 1567 2062 2490
3 313 757 2495
3 622 619 2484
3 688 878 1320
3 1222 1626 2111
3 282 442 2079
3 1169 2008 2105
3 1966 1007 2308
3 2040 799 2237
3 1744 2229 2495
3 986 833 1063
3 2284 1605 2510
3 887 1961 2376
3 215 1624 2262
3 830 831 832
3 476 475 2224
3 439 451 2223
3 1932 1933 2380
3 2227 1246 2366
3 1212 1202 2301
3 1107 1110 2228
3 249 2010 2299
3 1983 293 2306
3 2055 1214 2237
3 1438 1372 2478
3 824 560 2156
3 2320 1866 2513
3 1351 1137 2374
3 868 2007 2232
3 2063 771 2064
3 1507 214 1508
3 1728 1727 2246
3 1045 1047 2348
3 1139 1140 2096
3 1648 1649 2463
3 1502 2302 2519
3 704 707 2109
3 2343 1136 2396
3 650 1963 2206
3 2153 895 2257
3 396 1958 2431
3 1379 1377 2288
3 2115 1471 2319
3 2033 987 2202
3 2239 1693 2518
3 2025 1488 2355
3 1209 2115 2319
3 523 524 2156
3 783 939 2243
3 376 1798 2497
3 2066 788 2193
3 1984 318 2172
3 425 427 2221
3 203 172 1847
3 446 457 2264
3 1312 2089 2150
3 2138 1272 2211
3 897 1139 2274
3 828 1819 2429
3 1249 1224 2111
3 666 667 2318
3 1371 1326 2194
3 2433 1499 2475
3 1272 1271 2211
3 1367 2254 2479
3 1386 2053 2383
3 2074 1238 2227
3 755 2148 2320
3 2117 1604 2428
3 475 514 2224
3 228 2187 2457
3 1868 1504 2520
3 1626 1218 2185
3 2123 1111 2241
3 1287 1049 2331
3 1280 687 2109
3 459 1814 2292
3 54 196 2402
3 863 865 2146
3 204 176 1680
3 514 2086 2224
3 1646 603 2398
3 112 197 2346
3 358 300 2338
3 1140 898 1141
3 1204 1335 2301
3 1016 2161 2438
3 909 1041 2175
3 1681 2448 2492
3 2252 459 2292
3 1992 868 2232
3 1035 1036 2235
3 1051 1295 2331
3 1836 1289 2242
3 1508 214 1859
3 247 53 2402
3 1016 938 2161
3 1408 856 2378
3 1466 2158 2200
3 725 885 2336
3 855 1450 2421
3 2023 1768 2420
3 1238 1236 2227
3 1679 202 2253
3 2107 1348 2233
3 1653 1431 2487
3 1946 2291 2343
3 2253 202 2329
3 1885 1312 2150
3 378 628 2390
3 2195 1383 2432
3 1520 1519 2480
3 1532 1733 2534
3 308 327 2278
3 953 951 2255
3 1213 1407 2222
3 1561 1563 2285
3 302 763 2338
3 1928 2033 2202
3 763 304 2345
3 832 833 986
3 1352 2040 2237
3 247 1881 2481
3 560 523 2156
3 335 339 2261
3 346 342 2344
3 201 443 1323
3 2301 1335 2466
3 323 320 2229
3 1136 2110 2396
3 1139 1977 2274
3 1809 1615 2423
3 1707 1791 2334
3 46 2019 2485
3 2064 1294 2238
3 1950 197 2404
3 2021 2022 2176
3 1949 245 2420
3 2044 2152 2207
3 1063 1154 1707
3 1012 1363 2406
3 280 2079 2210
3 2237 1214 2351
3 820 698 2318
3 1140 1141 1406
3 205 2021 2176
3 2043 786 2310
3 2145 1004 2446
3 707 1030 2109
3 1406 2460 2473
3 2137 1268 2226
3 16 2081 2260
3 567 2031 2219
3 2112 1064 2248
3 206 45 2485
3 2347 1462 2365
3 1650 1962 2362
3 453 425 2221
3 1209 907 2175
3 1111 1276 2241
3 2448 1145 2492
3 2051 2083 2243
3 59 60 2266
3 1402 1742 2530
3 831 677 2209
3 624 587 2276
3 238 174 1725
3 1011 2107 2233
3 468 2365 2412
3 2337 805 2371
3 254 1932 2380
3 1174 1398 2207
3 2140 111 2346
3 1381 2186 2283
3 1987 2037 2188
3 1740 559 2456
3 1773 391 2503
3 1335 1870 2249
3 1945 2257 2291
3 828 463 2411
3 1246 2088 2208
3 2060 798 2307
3 1773 1159 2240
3 1187 2112 2248
3 1352 2237 2351
3 2037 1322 2188
3 1941 1499 2433
3 2322 225 2510
3 1031 1034 2236
3 327 2188 2321
3 595 2032 2273
3 1464 1462 2347
3 1285 1992 2232
3 799 2055 2237
3 443 278 2210
3 784 874 2178
3 392 396 2431
3 191 95 2309
3 879 784 2178
3 524 511 2429
3 2128 2011 2270
3 895 896 2257
3 2206 1152 2324
3 318 2171 2172
3 2259 1549 2379
3 1214 1410 2351
3 306 308 2278
3 2022 251 2247
3 1757 1729 2309
3 1283 1918 2524
3 996 1706 2492
3 557 2044 2207
3 1798 1448 2364
3 1447 2250 2310
3 559 1750 2403
3 1363 1011 2233
3 1343 1168 2187
3 1407 2044 2256
3 1462 1460 2365
3 1995 2331 2458
3 327 1987 2188
3 2160 254 2380
3 1681 958 2287
3 2031 1160 2250
3 1600 689 2413
3 2219 1692 2239
3 1494 1675 2522
3 1281 1916 2448
3 907 909 2175
3 565 2167 2276
3 2241 1276 2275
3 1978 316 2443
3 2151 212 2350
3 203 1847 2104
3 2049 1481 2523
3 1961 1362 2376
3 2187 1393 2457
3 940 796 2532
3 2293 1349 2329
3 572 1897 2537
3 332 739 2282
3 2052 567 2239
3 1437 1370 2277
3 567 2219 2239
3 667 626 2452
3 1914 2206 2324
3 2243 939 2392
3 2136 1343 2187
3 257 1654 2530
3 1376 1378 2283
3 2076 1982 2272
3 2083 760 2243
3 1944 1945 2291
3 1771 1839 2359
3 1404 1403 2399
3 1875 1866 2320
3 1460 1337 2412
3 760 783 2243
3 1276 1366 2275
3 1428 2227 2366
3 1882 1605 2284
3 1739 1429 2459
3 2321 2188 2434
3 1328 1327 2315
3 798 2189 2307
3 2152 1174 2207
3 2182 1247 2323
3 1516 1514 2367
3 293 291 2306
3 556 537 2201
3 1298 1300 2314
3 1400 1399 2316
3 1649 2236 2463
3 833 831 2424
3 2127 2050 2333
3 1057 914 2328
3 1839 193 2359
3 761 1741 2258
3 1186 1970 2422
3 1429 2366 2382
3 2211 1271 2271
3 1733 1248 2534
3 13 2114 2136
3 2078 390 2431
3 1533 1536 2340
3 1690 2145 2446
3 1277 2308 2370
3 1168 1393 2187
3 1597 2047 2268
3 587 565 2276
3 1908 244 2401
3 225 125 2284
3 610 2130 2468
3 1749 2105 2326
3 1913 1914 2324
3 2366 2208 2382
3 1391 1876 2295
3 457 552 2264
3 653 688 2209
3 1601 2443 2514
3 682 2138 2211
3 992 1980 2244
3 55 56 2313
3 1645 1495 2493
3 473 477 2483
3 202 1724 2329
3 465 828 2429
3 1277 1966 2308
3 1416 2330 2406
3 1912 1364 2455
3 1716 1483 2375
3 2019 1651 2485
3 1725 2137 2226
3 201 1323 2216
3 878 1083 2213
3 2072 2073 2245
3 1563 1777 2405
3 244 2028 2401
3 2016 1564 2422
3 1682 1497 2461
3 1962 1153 2362
3 1298 2314 2358
3 1384 1385 2391
3 688 1320 2209
3 1587 2179 2435
3 786 380 2497
3 1395 1522 2341
3 2032 1919 2273
3 251 2013 2247
3 2219 2031 2250
3 2397 552 2453
3 1765 255 2489
3 2475 1825 2524
3 1202 1204 2301
3 445 2078 2411
3 323 2229 2296
3 1286 2384 2408
3 537 551 2201
3 1724 237 2293
3 84 85 2335
3 1471 1126 2319
3 1635 1634 2511
3 300 302 2338
3 698 666 2318
3 1030 1031 2236
3 2098 1457 2271
3 696 1821 2426
3 1457 1492 2447
3 1956 2336 2469
3 331 323 2296
3 1284 1491 2342
3 2011 1996 2270
3 256 183 2303
3 160 257 2304
3 2204 1589 2501
3 1891 1014 2280
3 719 725 2336
3 1354 1808 2381
3 437 430 2494
3 2377 218 2391
3 2211 2271 2447
3 1407 2256 2290
3 2365 1460 2412
3 2047 1498 2268
3 1825 1283 2524
3 1499 1825 2475
3 1226 1249 2281
3 2051 2243 2392
3 2250 1160 2310
3 111 112 2346
3 304 306 2345
3 1341 1352 2351
3 2166 191 2504
3 2223 1836 2242
3 1996 247 2481
3 1049 1051 2331
3 1086 1298 2358
3 2130 595 2273
3 1249 2111 2263
3 680 1995 2458
3 1511 2140 2346
3 102 103 2355
3 469 473 2453
3 961 2072 2245
3 2073 1282 2245
3 1442 1443 2525
3 74 192 2361
3 2163 1586 2435
3 1519 1518 2449
3 897 2274 2500
3 303 444 2317
3 1615 1614 2423
3 197 2009 2404
3 1634 2281 2511
3 1780 1781 2419
3 1435 1623 2465
3 1286 1774 2384
3 384 361 2339
3 193 1901 2359
3 1165 2433 2475
3 2277 1370 2386
3 677 653 2209
3 1994 1516 2367
3 1479 1478 2440
3 1165 1512 2433
3 1644 1353 2417
3 1711 1712 2353
3 2193 1615 2425
3 1613 1956 2469
3 1440 1173 2330
3 2269 1479 2440
3 222 2218 2465
3 391 389 2503
3 306 2278 2345
3 468 2090 2365
3 221 2246 2526
3 1445 1446 2504
3 939 1844 2392
3 86 87 2373
3 1429 1428 2366
3 2053 2103 2383
3 1348 1212 2312
3 805 750 2371
3 997 1286 2408
3 1152 869 2363
3 2063 2064 2238
3 192 1994 2367
3 1160 2043 2310
3 1926 2151 2350
3 2059 2098 2271
3 1897 1366 2537
3 215 2262 2437
3 1655 1732 2476
3 2415 1128 2454
3 1320 2213 2214
3 7 258 2357
3 259 155 2356
3 2171 1530 2172
3 347 351 2407
3 1077 1078 2343
3 239 2003 2279
3 1446 1128 2415
3 1034 1033 2410
3 601 627 2442
3 1154 1653 2234
3 397 2060 2405
3 2142 794 2272
3 442 2063 2238
3 1863 1215 2378
3 794 2076 2272
3 1883 1375 2505
3 1320 878 2213
3 342 468 2344
3 1903 218 2377
3 380 376 2497
3 1549 1547 2379
3 1148 1165 2475
3 2157 226 2507
3 829 972 2326
3 884 1957 2466
3 2291 1077 2343
3 65 66 2395
3 787 2052 2518
3 2298 1348 2312
3 1946 2343 2396
3 1653 256 2535
3 1842 1548 2472
3 1957 2301 2466
3 1366 1277 2370
3 2213 1432 2214
3 961 2245 2383
3 218 2093 2391
3 1376 2283 2421
3 1873 2127 2333
3 1019 1021 2512
3 1128 1127 2454
3 1104 1434 2450
3 2130 1439 2468
3 2396 2110 2482
3 2186 855 2283
3 1724 2293 2329
3 1163 1059 2372
3 1614 2389 2423
3 53 54 2402
3 1063 1707 2334
3 2283 855 2421
3 1385 1863 2436
3 364 1883 2505
3 517 1890 2387
3 1145 996 2492
3 1047 1287 2348
3 2148 1875 2320
3 205 2176 2416
3 1372 1844 2478
3 1211 2219 2250
3 1141 898 2368
3 245 1909 2420
3 2278 327 2321
3 2389 1397 2423
3 2256 513 2290
3 559 2403 2456
3 1137 1340 2374
3 2093 1384 2391
3 1918 1148 2524
3 1030 2236 2427
3 1867 1895 2513
3 2014 517 2387
3 2271 1457 2447
3 1143 2028 2353
3 1904 194 2432
3 1148 2475 2524
3 1574 1523 2436
3 2213 1083 2311
3 1997 358 2325
3 2139 246 2506
3 1370 1369 2386
3 1271 2059 2271
3 1034 2173 2463
3 1123 1412 2393
3 1578 1827 2515
3 2209 1320 2424
3 2079 1504 2210
3 1361 2168 2305
3 1491 1489 2403
3 238 1725 2226
3 1190 986 2334
3 1547 1545 2508
3 1891 1613 2469
3 1153 1885 2362
3 2208 1632 2382
3 2287 1281 2448
3 1356 1376 2421
3 1965 2349 2515
3 2155 1186 2422
3 1522 2014 2387
3 2158 1468 2323
3 2050 954 2333
3 1397 1809 2423
3 1362 1360 2376
3 1852 1985 2397
3 2069 1691 2446
3 789 2066 2425
3 1895 755 2513
3 1707 1154 2234
3 372 374 2430
3 2225 787 2518
3 2028 1206 2401
3 986 1063 2334
3 1912 726 2439
3 1340 1342 2400
3 1916 1145 2448
3 2236 1649 2427
3 2374 1340 2400
3 2222 1407 2290
3 2324 1152 2363
3 241 2220 2472
3 765 2190 2384
3 2375 667 2452
3 2330 1173 2406
3 1181 1972 2500
3 2126 1382 2388
3 1173 1012 2406
3 315 313 2495
3 1015 1373 2385
3 97 221 2526
3 1937 1397 2389
3 930 1061 2462
3 971 1096 2496
3 45 46 2485
3 669 791 2529
3 1104 2450 2521
3 382 378 2390
3 2191 1371 2536
3 2235 1036 2286
3 831 2209 2424
3 762 1997 2349
3 2379 1547 2508
3 2177 1359 2467
3 2403 1489 2456
3 796 785 2532
3 219 1902 2516
3 1519 2300 2480
3 1065 1655 2476
3 1375 1473 2505
3 1489 1490 2456
3 390 392 2431
3 2247 2013 2464
3 1135 1930 2369
3 2278 1583 2345
3 626 622 2452
3 631 2298 2312
3 2233 1348 2298
3 1398 1974 2499
3 1706 1681 2492
3 261 130 2444
3 32 260 2445
3 822 2099 2368
3 1365 1912 2439
3 941 940 2418
3 1446 2166 2504
3 2106 1121 2414
3 2300 1519 2449
3 1803 1104 2521
3 1732 1570 2476
3 1413 2051 2392
3 2122 1946 2396
3 2238 1868 2520
3 477 556 2483
3 2397 1985 2533
3 463 445 2411
3 2163 1185 2488
3 1126 2141 2319
3 1755 2264 2533
3 972 2204 2501
3 2230 1533 2340
3 1774 1773 2503
3 1997 2325 2349
3 1004 2069 2446
3 2159 31 2445
3 131 2160 2444
3 1371 2191 2451
3 1001 2154 2486
3 1682 2230 2340
3 2103 961 2383
3 1033 1151 2410
3 382 2390 2531
3 1504 2079 2520
3 1583 2278 2321
3 511 465 2429
3 250 2024 2479
3 2208 2088 2509
3 619 620 2484
3 1246 2208 2366
3 2141 1209 2319
3 1359 1413 2467
3 1295 1459 2458
3 2218 1435 2465
3 2281 1249 2511
3 2293 237 2354
3 2207 1398 2499
3 1564 2155 2422
3 552 469 2453
3 1947 224 2498
3 2062 1568 2490
3 2018 205 2416
3 260 2159 2445
3 2160 261 2444
3 2092 610 2468
3 194 2195 2432
3 1432 2213 2311
3 211 2251 2464
3 2378 856 2527
3 1536 1532 2534
3 2364 786 2497
3 2438 1438 2478
3 1185 1948 2488
3 2042 941 2418
3 1582 2321 2434
3 885 1891 2469
3 1364 2048 2455
3 1693 2225 2518
3 401 382 2531
3 1338 2247 2464
3 442 2238 2520
3 1292 2117 2428
3 2274 1350 2500
3 2066 2193 2425
3 2179 1184 2435
3 898 822 2368
3 2436 1863 2527
3 1844 1016 2478
3 2184 1001 2486
3 557 2207 2499
3 2013 211 2464
3 2254 250 2479
3 1350 1181 2500
3 2009 248 2470
3 246 2140 2506
3 1574 2436 2527
3 2139 1419 2517
3 316 1971 2514
3 1319 2122 2482
3 226 2006 2507
3 1400 2270 2481
3 1681 2287 2448
3 2325 1578 2349
3 232 1652 2487
3 1320 2214 2424
3 1632 2208 2509
3 248 2288 2470
3 1406 1141 2460
3 2188 1322 2434
3 2244 1980 2441
3 2088 1255 2509
3 1280 2109 2427
3 2060 2307 2405
3 2236 1034 2463
3 1745 2293 2354
3 2122 2396 2482
3 2109 1030 2427
3 2307 1563 2405
3 1429 2382 2459
3 224 2267 2498
3 682 2211 2447
3 2079 442 2520
3 2348 1287 2398
3 2220 1842 2472
3 1335 2249 2466
3 1249 2263 2511
3 443 2210 2519
3 2385 1373 2394
3 1594 2184 2486
3 2052 2239 2518
3 1568 2439 2490
3 2349 1578 2515
3 2344 468 2412
3 2270 1996 2481
3 1735 2244 2441
3 2260 1471 2477
3 2210 1504 2519
3 1434 2297 2450
3 2297 1419 2450
3 2263 1660 2502
3 2404 2009 2470
3 1718 2385 2394
3 1371 2194 2536
3 2317 444 2461
3 1443 2322 2525
3 1716 2375 2452
3 1863 2378 2527
3 2439 726 2490
3 1057 2328 2451
3 1638 2404 2470
3 1454 2234 2535
3 755 2320 2513
3 2234 1653 2535
3 2264 552 2533
3 1419 2297 2517
3 1392 2322 2510
3 552 2397 2533
3 1798 2364 2497
3 2322 1392 2525
3 2382 1631 2459
3 1016 2438 2478
3 1366 2370 2537
3 1742 2491 2530
3 2491 257 2530
CELL_TYPES 4886
5
5
5
5
5
5
5
5
5
5
5
5
5
5
5
5
5
5
5
5
5
5
5
5
5
5
5
5
5
5
5
5
5
5
5
5
5
5
5
5
5
5
5
5
5
5
5
5
5
5
5
5
5
5
5
5
5
5
5
5
5
5
5
5
5
5
5
5
5
5
5
5
5
5
5
5
5
5
5
5
5
5
5
5
5
5
5
5
5
5
5
5
5
5
5
5
5
5
5
5
5
5
5
5
5
5
5
5
5
5
5
5
5
5
5
5
5
5
5
5
5
5
5
5
5
5
5
5
5
5
5
5
5
5
5
5
5
5
5
5
5
5
5
5
5
5
5
5
5
5
5
5
5
5
5
5
5
5
5
5
5
5
5
5
5
5
5
5
5
5
5
5
5
5
5
5
5
5
5
5
5
5
5
5
5
5
5
5
5
5
5
5
5
5
5
5
5
5
5
5
5
5
5
5
5
5
5
5
5
5
5
5
5
5
5
5
5
5
5
5
5
5
5
5
5
5
5
5
5
5
5
5
5
5
5
5
5
5
5
5
5
5
5
5
5
5
5
5
5
5
5
5
5
5
5
5
5
5
5
5
5
5
5
5
5
5
5
5
5
5
5
5
5
5
5
5
5
5
5
5
5
5
5
5
5
5
5
5
5
5
5
5
5
5
5
5
5
5
5
5
5
5
5
5
5
5
5
5
5
5
5
5
5
5
5
5
5
5
5
5
5
5
5
5
5
5
5
5
5
5
5
5
5
5
5
5
5
5
5
5
5
5
5
5
5
5
5
5
5
5
5
5
5
5
5
5
5
5
5
5
5
5
5
5
5
5
5
5
5
5
5
5
5
5
5
5
5
5
5
5
5
5
5
5
5
5
5
5
5
5
5
5
5
5
5
5
5
5
5
5
5
5
5
5
5
5
5
5
5
5
5
5
5
5
5
5
5
5
5
5
5
5
5
5
5
5
5
5
5
5
5
5
5
5
5
5
5
5
5
5
5
5
5
5
5
5
5
5
5
5
5
5
5
5
5
5
5
5
5
5
5
5
5
5
5
5
5
5
5
5
5
5
5
5
5
5
5
5
5
5
5
5
5
5
5
5
5
5
5
5
5
5
5
5
5
5
5
5
5
5
5
5
5
5
5
5
5
5
5
5
5
5
5
5
5
5
5
5
5
5
5
5
5
5
5
5
5
5
5
5
5
5
5
5
5
5
5
5
5
5
5
5
5
5
5
5
5
5
5
5
5
5
5
5
5
5
5
5
5
5
5
5
5
5
5
5
5
5
5
5
5
5
5
5
5
5
5
5
5
5
5
5
5
5
5
5
5
5
5
5
5
5
5
5
5
5
5
5
5
5
5
5
5
5
5
5
5
5
5
5
5
5
5
5
5
5
5
5
5
5
5
5
5
5
5
5
5
5
5
5
5
5
5
5
5
5
5
5
5
5
5
5
5
5
5
5
5
5
5
5
5
5
5
5
5
5
5
5
5
5
5
5
5
5
5
5
5
5
5
5
5
5
5
5
5
5
5
5
5
5
5
5
5
5
5
5
5
5
5
5
5
5
5
5
5
5
5
5
5
5
5
5
5
5
5
5
5
5
5
5
5
5
5
5
5
5
5
5
5
5
5
5
5
5
5
5
5
5
5
5
5
5
5
5
5
5
5
5
5
5
5
5
5
5
5
5
5
5
5
5
5
5
5
5
5
5
5
5
5
5
5
5
5
5
5
5
5
5
5
5
5
5
5
5
5
5
5
5
5
5
5
5
5
5
5
5
5
5
5
5
5
5
5
5
5
5
5
5
5
5
5
5
5
5
5
5
5
5
5
5
5
5
5
5
5
5
5
5
5
5
5
5
5
5
5
5
5
5
5
5
5
5
5
5
5
5
5
5
5
5
5
5
5
5
5
5
5
5
5
5
5
5
5
5
5
5
5
5
5
5
5
5
5
5
5
5
5
5
5
5
5
5
5
5
5
5
5
5
5
5
5
5
5
5
5
5
5
5
5
5
5
5
5
5
5
5
5
5
5
5
5
5
5
5
5
5
5
5
5
5
5
5
5
5
5
5
5
5
5
5
5
5
5
5
5
5
5
5
5
5
5
5
5
5
5
5
5
5
5
5
5
5
5
5
5
5
5
5
5
5
5
5
5
5
5
5
5
5
5
5
5
5
5
5
5
5
5
5
5
5
5
5
5
5
5
5
5
5
5
5
5
5
5
5
5
5
5
5
5
5
5
5
5
5
5
5
5
5
5
5
5
5
5
5
5
5
5
5
5
5
5
5
5
5
5
5
5
5
5
5
5
5
5
5
5
5
5
5
5
5
5
5
5
5
5
5
5
5
5
5
5
5
5
5
5
5
5
5
5
5
5
5
5
5
5
5
5
5
5
5
5
5
5
5
5
5
5
5
5
5
5
5
5
5
5
5
5
5
5
5
5
5
5
5
5
5
5
5
5
5
5
5
5
5
5
5
5
5
5
5
5
5
5
5
5
5
5
5
5
5
5
5
5
5
5
5
5
5
5
5
5
5
5
5
5
5
5
5
5
5
5
5
5
5
5
5
5
5
5
5
5
5
5
5
5
5
5
5
5
5
5
5
5
5
5
5
5
5
5
5
5
5
5
5
5
5
5
5
5
5
5
5
5
5
5
5
5
5
5
5
5
5
5
5
5
5
5
5
5
5
5
5
5
5
5
5
5
5
5
5
5
5
5
5
5
5
5
5
5
5
5
5
5
5
5
5
5
5
5
5
5
5
5
5
5
5
5
5
5
5
5
5
5
5
5
5
5
5
5
5
5
5
5
5
5
5
5
5
5
5
5
5
5
5
5
5
5
5
5
5
5
5
5
5
5
5
5
5
5
5
5
5
5
5
5
5
5
5
5
5
5
5
5
5
5
5
5
5
5
5
5
5
5
5
5
5
5
5
5
5
5
5
5
5
5
5
5
5
5
5
5
5
5
5
5
5
5
5
5
5
5
5
5
5
5
5
5
5
5
5
5
5
5
5
5
5
5
5
5
5
5
5
5
5
5
5
5
5
5
5
5
5
5
5
5
5
5
5
5
5
5
5
5
5
5
5
5
5
5
5
5
5
5
5
5
5
5
5
5
5
5
5
5
5
5
5
5
5
5
5
5
5
5
5
5
5
5
5
5
5
5
5
5
5
5
5
5
5
5
5
5
5
5
5
5
5
5
5
5
5
5
5
5
5
5
5
5
5
5
5
5
5
5
5
5
5
5
5
5
5
5
5
5
5
5
5
5
5
5
5
5
5
5
5
5
5
5
5
5
5
5
5
5
5
5
5
5
5
5
5
5
5
5
5
5
5
5
5
5
5
5
5
5
5
5
5
5
5
5
5
5
5
5
5
5
5
5
5
5
5
5
5
5
5
5
5
5
5
5
5
5
5
5
5
5
5
5
5
5
5
5
5
5
5
5
5
5
5
5
5
5
5
5
5
5
5
5
5
5
5
5
5
5
5
5
5
5
5
5
5
5
5
5
5
5
5
5
5
5
5
5
5
5
5
5
5
5
5
5
5
5
5
5
5
5
5
5
5
5
5
5
5
5
5
5
5
5
5
5
5
5
5
5
5
5
5
5
5
5
5
5
5
5
5
5
5
5
5
5
5
5
5
5
5
5
5
5
5
5
5
5
5
5
5
5
5
5
5
5
5
5
5
5
5
5
5
5
5
5
5
5
5
5
5
5
5
5
5
5
5
5
5
5
5
5
5
5
5
5
5
5
5
5
5
5
5
5
5
5
5
5
5
5
5
5
5
5
5
5
5
5
5
5
5
5
5
5
5
5
5
5
5
5
5
5
5
5
5
5
5
5
5
5
5
5
5
5
5
5
5
5
5
5
5
5
5
5
5
5
5
5
5
5
5
5
5
5
5
5
5
5
5
5
5
5
5
5
5
5
5
5
5
5
5
5
5
5
5
5
5
5
5
5
5
5
5
5
5
5
5
5
5
5
5
5
5
5
5
5
5
5
5
5
5
5
5
5
5
5
5
5
5
5
5
5
5
5
5
5
5
5
5
5
5
5
5
5
5
5
5
5
5
5
5
5
5
5
5
5
5
5
5
5
5
5
5
5
5
5
5
5
5
5
5
5
5
5
5
5
5
5
5
5
5
5
5
5
5
5
5
5
5
5
5
5
5
5
5
5
5
5
5
5
5
5
5
5
5
5
5
5
5
5
5
5
5
5
5
5
5
5
5
5
5
5
5
5
5
5
5
5
5
5
5
5
5
5
5
5
5
5
5
5
5
5
5
5
5
5
5
5
5
5
5
5
5
5
5
5
5
5
5
5
5
5
5
5
5
5
5
5
5
5
5
5
5
5
5
5
5
5
5
5
5
5
5
5
5
5
5
5
5
5
5
5
5
5
5
5
5
5
5
5
5
5
5
5
5
5
5
5
5
5
5
5
5
5
5
5
5
5
5
5
5
5
5
5
5
5
5
5
5
5
5
5
5
5
5
5
5
5
5
5
5
5
5
5
5
5
5
5
5
5
5
5
5
5
5
5
5
5
5
5
5
5
5
5
5
5
5
5
5
5
5
5
5
5
5
5
5
5
5
5
5
5
5
5
5
5
5
5
5
5
5
5
5
5
5
5
5
5
5
5
5
5
5
5
5
5
5
5
5
5
5
5
5
5
5
5
5
5
5
5
5
5
5
5
5
5
5
5
5
5
5
5
5
5
5
5
5
5
5
5
5
5
5
5
5
5
5
5
5
5
5
5
5
5
5
5
5
5
5
5
5
5
5
5
5
5
5
5
5
5
5
5
5
5
5
5
5
5
5
5
5
5
5
5
5
5
5
5
5
5
5
5
5
5
5
5
5
5
5
5
5
5
5
5
5
5
5
5
5
5
5
5
5
5
5
5
5
5
5
5
5
5
5
5
5
5
5
5
5
5
5
5
5
5
5
5
5
5
5
5
5
5
5
5
5
5
5
5
5
5
5
5
5
5
5
5
5
5
5
5
5
5
5
5
5
5
5
5
5
5
5
5
5
5
5
5
5
5
5
5
5
5
5
5
5
5
5
5
5
5
5
5
5
5
5
5
5
5
5
5
5
5
5
5
5
5
5
5
5
5
5
5
5
5
5
5
5
5
5
5
5
5
5
5
5
5
5
5
5
5
5
5
5
5
5
5
5
5
5
5
5
5
5
5
5
5
5
5
5
5
5
5
5
5
5
5
5
5
5
5
5
5
5
5
5
5
5
5
5
5
5
5
5
5
5
5
5
5
5
5
5
5
5
5
5
5
5
5
5
5
5
5
5
5
5
5
5
5
5
5
5
5
5
5
5
5
5
5
5
5
5
5
5
5
5
5
5
5
5
5
5
5
5
5
5
5
5
5
5
5
5
5
5
5
5
5
5
5
5
5
5
5
5
5
5
5
5
5
5
5
5
5
5
5
5
5
5
5
5
5
5
5
5
5
5
5
5
5
5
5
5
5
5
5
5
5
5
5
5
5
5
5
5
5
5
5
5
5
5
5
5
5
5
5
5
5
5
5
5
5
5
5
5
5
5
5
5
5
5
5
5
5
5
5
5
5
5
5
5
5
5
5
5
5
5
5
5
5
5
5
5
5
5
5
5
5
5
5
5
5
5
5
5
5
5
5
5
5
5
5
5
5
5
5
5
5
5
5
5
5
5
5
5
5
5
5
5
5
5
5
5
5
5
5
5
5
5
5
5
5
5
5
5
5
5
5
5
5
5
5
5
5
5
5
5
5
5
5
5
5
5
5
5
5
5
5
5
5
5
5
5
5
5
5
5
5
5
5
5
5
5
5
5
5
5
5
5
5
5
5
5
5
5
5
5
5
5
5
5
5
5
5
5
5
5
5
5
5
5
5
5
5
5
5
5
5
5
5
5
5
5
5
5
5
5
5
5
5
5
5
5
5
5
5
5
5
5
5
5
5
5
5
5
5
5
5
5
5
5
5
5
5
5
5
5
5
5
5
5
5
5
5
5
5
5
5
5
5
5
5
5
5
5
5
5
5
5
5
5
5
5
5
5
5
5
5
5
5
5
5
5
5
5
5
5
5
5
5
5
5
5
5
5
5
5
5
5
5
5
5
5
5
5
5
5
5
5
5
5
5
5
5
5
5
5
5
5
5
5
5
5
5
5
5
5
5
5
5
5
5
5
5
5
5
5
5
5
5
5
5
5
5
5
5
5
5
5
5
5
5
5
5
5
5
5
5
5
5
5
5
5
5
5
5
5
5
5
5
5
5
5
5
5
5
5
5
5
5
5
5
5
5
5
5
5
5
5
5
5
5
5
5
5
5
5
5
5
5
5
5
5
5
5
5
5
5
5
5
5
5
5
5
5
5
5
5
5
5
5
5
5
5
5
5
5
5
5
5
5
5
5
5
5
5
5
5
5
5
5
5
5
5
5
5
5
5
5
5
5
5
5
5
5
5
5
5
5
5
5
5
5
5
5
5
5
5
5
5
5
5
5
5
5
5
5
5
5
5
5
5
5
5
5
5
5
5
5
5
5
5
5
5
5
5
5
5
5
5
5
5
5
5
5
5
5
5
5
5
5
5
5
5
5
5
5
5
5
5
5
5
5
5
5
5
5
5
5
5
5
5
5
5
5
5
5
5
5
5
5
5
5
5
5
5
5
5
5
5
5
5
5
5
5
5
5
5
5
5
5
5
5
5
5
5
5
5
5
5
5
5
5
5
5
5
5
5
5
5
5
5
5
5
5
5
5
5
5
5
5
5
5
5
5
5
5
5
5
5
5
5
5
5
5
5
5
5
5
5
5
5
5
5
5
5
5
5
5
5
5
5
5
5
5
5
5
5
5
5
5
5
5
5
5
5
5
5
5
5
5
5
5
5
5
5
5
5
5
5
5
5
5
5
5
5
5
5
5
5
5
5
5
5
5
5
5
5
5
5
5
5
5
5
5
5
5
5
5
5
5
5
5
5
5
5
5
5
5
5
5
5
5
5
5
5
5
5
5
5
5
5
5
5
5
5
5
5
5
5
5
5
5
5
5
5
5
5
5
5
5
5
5
5
5
5
5
5
5
5
5
5
5
5
5
5
5
5
5
5
5
5
5
5
5
5
5
5
5
5
5
5
5
5
5
5
5
5
5
5
5
5
5
5
5
5
5
5
5
5
5
5
5
5
5
5
5
5
5
5
5
5
5
5
5
5
5
5
5
5
5
5
5
5
5
5
5
5
5
5
5
5
5
5
5
5
5
5
5
5
5
5
5
5
5
5
5
5
5
5
5
5
5
5
5
5
5
5
5
5
5
5
5
5
5
5
5
5
5
5
5
5
5
5
5
5
5
5
5
5
5
5
5
5
5
5
5
5
5
5
5
5
5
5
5
5
5
5
5
5
5
5
5
5
5
5
5
5
5
5
5
5
5
5
5
5
5
5
5
5
5
5
5
5
5
5
5
5
5
5
5
5
5
5
5
5
5
5
5
5
5
5
5
5
5
5
5
5
5
5
5
5
5
5
5
5
5
5
5
5
5
5
5
5
5
5
5
5
5
5
5
5
5
5
5
5
5
5
5
5
5
5
5
5
5
5
5
5
5
5
5
5
5
5
5
5
5
5
5
5
5
5
5
5
5
5
5
5
5
5
5
5
5
5
5
5
5
5
5
5
5
5
5
5
5
5
5
5
5
5
5
5
5
5
5
5
5
5
5
5
5
5
5
5
5
5
5
5
5
5
5
5
5
5
5
5
5
5
5
5
5
5
5
5
5
5
5
5
5
5
5
5
5
5
5
5
5
5
5
5
5
5
5
5
5
5
5
5
5
5
5
5
5
5
5
5
5
5
5
5
5
5
5
5
5
5
5
5
5
5
5
5
5
5
5
5
5
5
5
5
5
5
5
5
5
5
5
5
5
5
5
5
5
5
5
5
5
5
5
5
5
5
5
5
5
5
5
5
5
5
5
5
5
5
5
5
5
5
5
5
5
5
5
5
5
5
5
5
5
5
5
5
5
5
5
5
5
5
5
5
5
5
5
5
5
5
5
5
5
5
5
5
5
5
5
5
5
5
5
5
5
5
5
5
5
5
5
5
5
5
5
5
5
5
5
5
5
5
5
5
5
5
5
5
5
5
5
5
5
5
5
5
5
5
5
5
5
5
5
5
5
5
5
5
5
5
5
5
5
5
5
5
5
5
5
5
5
5
5
5
5
5
5
5
5
5
5
5
5
5
5
5
5
5
5
5
5
5
5
5
5
5
5
5
5
5
5
5
5
5
5
5
5
5
5
5
5
5
5
5
5
5
5
5
5
5
5
5
5
5
5
5
5
5
5
5
5
5
5
5
5
5
5
5
5
5
5
5
5
5
5
5
5
5
5
5
5
5
5
5
5
5
5
5
5
5
5
5
5
5
5
5
5
5
5
5
5
5
5
5
5
5
5
5
5
5
5
5
5
5
5
5
5
5
5
5
5
5
5
5
5
5
5
5
5
5
5
5
5
5
5
5
5
5
5
5
5
5
5
5
5
5
5
5
5
5
5
5
5
5
5
5
5
5
5
5
5
5
5
5
5
5
5
5
5
5
5
5
5
5
5
5
5
5
5
5
5
5
5
5
5
5
5
5
5
5
5
5
5
5
5
5
5
5
5
5
5
5
5
5
5
5
5
5
5
5
5
5
5
5
5
5
5
5
5
5
5
5
5
5
5
5
5
5
5
5
5
5
5
5
5
5
5
5
5
5
5
5
5
5
5
5
5
5
5
5
5
5
5
5
5
5
5
5
5
5
5
5
5
5
5
5
5
5
5
5
5
5
5
5
5
5
5
5
5
5
5
5
5
5
5
5
5
5
5
5
5
5
5
5
5
5
5
5
5
5
5
5
5
5
5
5
5
5
5
5
5
5
5
5
5
5
5
5
5
5
5
5
5
5
5
5
5
5
5
5
5
5
5
5
5
5
5
5
5
5
5
5
5
5
5
5
5
5
5
5
5
5
5
5
5
5
5
5
5
5
5
5
5
5
5
5
5
5
5
5
5
5
5
5
5
5
5
5
5
5
5
5
5
5
5
5
5
5
5
5
5
5
5
5
5
5
5
5
5
5
5
5
5
5
5
5
5
5
5
5
5
5
5
5
5
5
5
5
5
5
5
5
5
5
5
5
5
5
5
5
5
5
5
5
5
5
5
5
5
5
5
5
5
5
5
5
5
5
5
5
5
5
5
5
5
5
5
5
5
5
5
5
5
5
5
5
5
5
5
5
5
5
5
5
5
5
5
5
5
5
5
5
5
5
5
5
5
5
5
5
5
5
5
5
5
5
5
5
5
5
5
5
5
5
5
5
5
5
5
5
5
5
5
5
5
5
5
5
5
5
5
5
5
5
5
5
5
5
5
5
5
5
5
5
5
5
5
5
5
5
5
5
5
5
5
5
5
5
5
5
5
5
5
5
5
5
5
5
5
5
5
5
5
5
5
5
5
5
5
5
5
5
5
5
5
5
5
5
5
5
5
5
5
5
5
5
5
5
5
5
5
5
5
5
5
5
5
5
5
5
5
5
5
5
5
5
5
5
5
5
5
5
5
5
5
5
5
5
5
5
5
5
5
5
5
5
5
5
5
5
5
5
5
5
5
5
5
5
5
5
5
5
5
5
5
5
5
5
5
5
5
5
5
5
5
5
5
5
5
5
5
5
5
5
5
5
5
5
5
5
5
5
5
5
5
5
5
5
5
5
5
5
5
5
5
5
5
5
5
5
5
5
5
5
5
5
5
5
5
5
5
5
5
5
5
5
5
5
5
5
5
5
5
5
5
5
5
5
5
5
5
5
5
5
5
5
5
5
5
5
5
5
5
5
5
5
5
5
5
5
5
5
5
5
5
5
5
5
5
5
5
5
5
5
5
5
5
5
5
5
5
5
5
5
5
5
5
5
5
5
5
5
5
5
5
5
5
5
5
5
5
5
5
5
5
5
5
5
5
5
5
5
5
5
5
5
5
5
5
5
5
5
5
5
5
5
5
5
5
5
5
5
5
5
5
5
5
5
5
5
5
5
5
5
5
5
5
5
5
5
5
5
5
5
5
5
5
5
5
5
5
5
5
5
5
5
5
5
5
5
5
5
5
5
5
5
5
5
5
5
5
5
5
5
5
5
5
5
5
5
5
5
5
5
5
5
5
5
5
5
5
5
5
5
5
5
5
5
5
5
5
5
5
5
5
5
5
5
5
5
5
5
5
5
5
5
5
5
5
5
5
5
5
5
5
5
5
5
5
5
5
5
5
5
5
5
5
5
5
5
5
5
5
5
5
5
5
5
5
5
5
5
5
5
5
5
5
5
5
5
5
5
5
5
5
5
5
5
5
5
5
5
5
5
5
5
5
5
5
5
5
5
5
5
5
5
5
5
5
5
5
5
5
5
5
5
5
5
5
5
5
5
5
5
5
5
5
5
5
5
5
5
5
5
5
5
5
5
5
5
5
5
5
5
5
5
5
5
5
5
5
5
5
5
5
5
5
5
5
5
5
5
5
5
5
5
5
5
5
5
5
5
5
5
5
5
5
5
5
5
5
5
5
5
5
5
5
5
5
5
5
5
5
5
5
5
5
5
5
5
5
5
5
5
5
5
5
5
5
5
5
5
5
5
5
5
5
5
5
5
5
5
5
5
5
5
5
5
5
5
5
5
5
5
5
5
5
5
5
5
5
5
5
5
5
5
5
5
5
5
5
5
5
5
5
5
5
5
5
5
5
5
5
5
5
5
5
5
5
5
5
5
5
5
5
5
5
5
5
5
5
5
5
5
5
5
5
5
5
5
5
5
5
5
5
5
5
5
5
5
5
5
5
5
5
5
5
5
5
5
5
5
5
5
5
5
5
5
5
5
5
5
5
5
5
5
5
5
5
5
5
5
5
5
5
5
5
5
5
5
5
5
5
5
5
5
5
5
5
5
5
5
5
5
5
5
5
5
5
5
5
5
5
5
5
5
5
5
5
5
5
5
5
5
5
5
5
5
5
5
5
5
5
5
5
5
5
5
5
POINT_DATA 2538
VECTORS disp float
1.4691941710739957e-11 3.352773311770662e-11 0.0
2.643887920054956e-11 -6.977772041604326e-11 0.0
0.003099999993381948 1.7229064609518973e-11 0.0
0.003099999969447933 -8.237571963467132e-11 0.0
0.0010884697115636209 0.00043746447336292816 0.0
0.002250816130312481 0.0001702434909526618 0.0
0.0015364508229521862 7.005254046340363e-5 0.0
2.5052806353762675e-12 -1.2461460624371733e-13 0.0
5.776012847606175e-12 5.7669215639108675e-12 0.0
4.820286069236914e-12 2.639841334188101e-12 0.0
4.4042438932608065e-12 2.4325539363026044e-12 0.0
3.730492625290671e-12 1.5951058916799554e-12 0.0
3.3352035308269803e-12 8.82113626052697e-13 0.0
2.9363499776484527e-12 2.884005725644701e-13 0.0
2.6459660661037255e-12 -4.217444857813346e-13 0.0
2.1756312399932674e-12 -1.2102784059665148e-12 0.0
2.401952598641413e-12 -2.026460108712535e-12 0.0
2.340736348855474e-12 -3.0016339776549536e-12 0.0
2.463071330806476e-12 -4.0599914124650374e-12 0.0
2.6675891450294425e-12 -5.1255724001689235e-12 0.0
2.7280423993268664e-12 -6.0511651618329156e-12 0.0
3.044865390461443e-12 -7.193974505671001e-12 0.0
3.1091381950042164e-12 -8.038390830218828e-12 0.0
3.354744949830268e-12 -9.122491826421668e-12 0.0
3.547235718423536e-12 -1.0261343163196368e-11 0.0
3.728174083862295e-12 -1.1341877024426904e-11 0.0
4.0006644694377595e-12 -1.2669225372396513e-11 0.0
4.358923540168196e-12 -1.4173622327809258e-11 0.0
4.9211306456602915e-12 -1.610795643096408e-11 0.0
5.0296838799853895e-12 -1.8160440156763212e-11 0.0
7.209483497309612e-12 -2.363958421079334e-11 0.0
3.4139521365273713e-12 -2.047684063126452e-11 0.0
4.0664339964146985e-5 -4.731838916857311e-5 0.0
7.09174009318568e-5 -8.058343441781045e-5 0.0
0.00010009158451105745 -0.00010941143663047502 0.0
0.00012776841642768498 -0.00013545999111452738 0.0
0.00015437006266341756 -0.0001596223332090918 0.0
0.0001804301480324821 -0.0001826117936119891 0.0
0.0002063952264593262 -0.00020446656796834845 0.0
0.00023202117890568875 -0.00022540295274411687 0.0
0.0002575576225919154 -0.00024563391362407715 0.0
0.0002830883702413223 -0.0002651358922350486 0.0
0.00030861950361151414 -0.0002841023293798509 0.0
0.0003343804443977016 -0.0003025109743625148 0.0
0.00036018171163774374 -0.0003203653265226003 0.0
0.0003861439178214292 -0.00033781982203051614 0.0
0.00041243587175850756 -0.0003547994729849535 0.0
0.00043878382200565174 -0.00037130266800331884 0.0
0.00046538549380986953 -0.0003874393415597818 0.0
0.0004922446838407494 -0.0004031037394695798 0.0
0.0005193309763804388 -0.0004184013930090286 0.0
0.0005466654711823474 -0.00043332281790072266 0.0
0.000574281145627326 -0.00044786479792044745 0.0
0.0006021233092341287 -0.0004620215753564413 0.0
0.0006303691252337631 -0.0004758474360607469 0.0
0.0006587275524459773 -0.0004892755945546366 0.0
0.000687545753209469 -0.0005023603860095291 0.0
0.0007164513862472267 -0.0005150412602162052 0.0
0.0007457079027837649 -0.0005273905150204513 0.0
0.000775177863917821 -0.0005393242541101701 0.0
0.0008050502265434895 -0.0005509353064589834 0.0
0.0008349936649450981 -0.0005621745674010823 0.0
0.0008653560400971941 -0.0005730747801197878 0.0
0.0008959229038768949 -0.0005835649559450258 0.0
0.000926788879595633 -0.0005937249156172061 0.0
0.0009578266527995062 -0.0006034942429863432 0.0
0.000989229807184126 -0.0006129255351418232 0.0
0.0010206923473086047 -0.0006219305780685755 0.0
0.0010524675996474834 -0.000630561337046591 0.0
0.0010843581835884772 -0.0006387025797559127 0.0
0.0011164543500604303 -0.000646374573214295 0.0
0.0011487363935051482 -0.0006537084950414454 0.0
0.0011811375007628716 -0.0006605204609904103 0.0
0.001213823285282545 -0.000666973422880853 0.0
0.001246707950578509 -0.0006729532282080144 0.0
0.0012797182502121596 -0.0006785841429488067 0.0
0.0013129448123978755 -0.0006836951925726096 0.0
0.001346166755752071 -0.000688431229206881 0.0
0.0013796218182587417 -0.000692758717760554 0.0
0.0014131107580725275 -0.0006966280722327657 0.0
0.0014467060956891516 -0.0007001521051468688 0.0
0.001480462486822779 -0.0007032129473464003 0.0
0.0015139978736269531 -0.0007057450427106623 0.0
0.0015478479883865451 -0.0007079472924120295 0.0
0.0015812113503223635 -0.0007096071481204295 0.0
0.0016150155136874708 -0.0007108721859170093 0.0
0.0016480492624462435 -0.0007116047489065929 0.0
0.0016816654025282245 -0.0007119641970047163 0.0
0.001714208454315366 -0.0007118355956860915 0.0
0.0017459815586222695 -0.0007104242003948966 0.0
0.001778042296293911 -0.0007087102555817976 0.0
0.0018099589321740749 -0.0007062032463521424 0.0
0.0018412363508589213 -0.0007035288076221945 0.0
0.0018721866494612778 -0.0007001031041052938 0.0
0.0019033194492904637 -0.0006962101286927976 0.0
0.0019338462392134036 -0.0006909043390904929 0.0
0.001964873512509505 -0.0006850017247334253 0.0
0.0019966591502837095 -0.0006785677561192962 0.0
0.00202736251136748 -0.0006711280537135991 0.0
0.0020583227847495887 -0.0006629628152850683 0.0
0.002089737796485384 -0.0006538385784752381 0.0
0.0021213778143049124 -0.0006440339954738896 0.0
0.0021526309722667406 -0.0006334899774371771 0.0
0.0021843721436219585 -0.0006219678217519587 0.0
0.0022157473314613624 -0.0006097527956204791 0.0
0.0022472209304597044 -0.0005970557381705361 0.0
0.0022790800769844515 -0.0005835680817832616 0.0
0.0023106823745389967 -0.0005695900263797301 0.0
0.002342386275749105 -0.0005550336082394146 0.0
0.002373985871707908 -0.0005399860557059024 0.0
0.0024057769669560813 -0.0005244199932866148 0.0
0.0024375531499415365 -0.0005082897357899185 0.0
0.0024692533554303234 -0.0004916582001192825 0.0
0.002500693018420327 -0.00047453141642805804 0.0
0.0025321210679113085 -0.000456911108041459 0.0
0.002563574688830621 -0.00043870235953822527 0.0
0.002594846119848594 -0.00041997419556923647 0.0
0.0026261180597519935 -0.0004007655445046924 0.0
0.002657547161145521 -0.00038087533274292726 0.0
0.00268885089542408 -0.00036034314238913006 0.0
0.0027200696343346424 -0.00033921884526421514 0.0
0.002751515721080846 -0.0003173440118507997 0.0
0.002783197860397458 -0.0002945795098800637 0.0
0.002814919541279518 -0.00027089682336369414 0.0
0.0028467563839296457 -0.000246279410798355 0.0
0.002878963119049924 -0.0002204522854540701 0.0
0.002911957267632958 -0.00019308250489248965 0.0
0.00294532179863984 -0.00016396562287574254 0.0
0.0029794296277020063 -0.0001324174473050729 0.0
0.003015719221816509 -9.71653449746133e-5 0.0
0.0030531165443894886 -5.645624702464204e-5 0.0
0.0030999999958209413 -2.0890661500056338e-11 0.0
0.0030999999913687345 -2.3355625799398164e-11 0.0
0.0030999999945608776 -1.4110195093371291e-11 0.0
0.003099999994537213 -1.2216396074523924e-11 0.0
0.0030999999950326266 -9.853889963342995e-12 0.0
0.0030999999952359535 -8.248446033662648e-12 0.0
0.003099999995319845 -7.092366729744811e-12 0.0
0.0030999999954963034 -6.0851062391764725e-12 0.0
0.0030999999955501774 -5.178624317109641e-12 0.0
0.003099999995702707 -4.3419718913515494e-12 0.0
0.0030999999958690235 -3.6818218740695305e-12 0.0
0.0030999999959833704 -2.844439150459273e-12 0.0
0.0030999999960963547 -2.2213685052231696e-12 0.0
0.0030999999962279057 -1.4676050914493064e-12 0.0
0.0030999999963081926 -7.362858254930999e-13 0.0
0.0030999999963491195 8.597256553176195e-14 0.0
0.0030999999964130913 9.299901669615364e-13 0.0
0.0030999999961052304 1.935899979753085e-12 0.0
0.0030999999964188333 2.7589264595977934e-12 0.0
0.0030999999958697625 3.847624085506289e-12 0.0
0.003099999995917941 4.577330993793856e-12 0.0
0.003099999995758162 5.335144880239789e-12 0.0
0.003099999995914172 5.5134480821533366e-12 0.0
0.0030999999961081755 6.95963090766525e-12 0.0
0.0030999999979664516 3.2065328506440725e-12 0.0
0.0028678800949961053 0.00012224298804632523 0.0
0.0026729800040223104 0.00017746964498047076 0.0
0.0024977465355048144 0.00018765178628774495 0.0
0.002346956307349252 0.0001792528850069426 0.0
0.0022506332180557867 7.249435163301344e-5 0.0
0.002240738460870055 1.888923327642375e-5 0.0
0.0022072172396981043 -9.650372468331184e-6 0.0
0.00216092085836281 -1.1146711748448029e-5 0.0
0.0021053882379548504 1.1535194348655008e-6 0.0
0.0020471498926759686 1.5614247298928558e-5 0.0
0.0019873645471929296 2.941874470098635e-5 0.0
0.001926939284899931 4.3133660640792866e-5 0.0
0.0018646928935731717 5.442642514847644e-5 0.0
0.0018001270525870032 6.292114066573263e-5 0.0
0.0017298705154139666 6.872624260895294e-5 0.0
0.001647231287087775 7.237031307335656e-5 0.0
0.0014424543498963896 0.0001086996111557922 0.0
0.0013758801827339119 0.00012426391105919336 0.0
0.0013209023598210726 0.00013342329634960314 0.0
0.0012729865723271243 0.0001407308542156601 0.0
0.0012295518594771294 0.00014753681962173195 0.0
0.0011903475491148916 0.00015469522439710308 0.0
0.0011551226004882303 0.00016332398971081815 0.0
0.0011251967454351368 0.0001744296235771528 0.0
0.0011020440896494018 0.0001921860056325831 0.0
0.0010859475980226285 0.00021702662467001327 0.0
0.0010849853483669513 0.00026527234755885674 0.0
0.0010843674185301334 0.0003320121257013005 0.0
0.0009739639003159907 0.00045131699330362365 0.0
0.0008113320834443541 0.00043754934315268554 0.0
0.0005746859226089333 0.0003598140914779725 0.0
0.00030698620166091163 0.00023343474093388597 0.0
0.000809978902438034 -0.0005283409634406924 0.0
0.002146364289162454 -0.0005994157431323288 0.0
0.001029374395865107 -0.0006014261368230626 0.0
0.0019230641207332872 -0.0006635861413893181 0.0
0.0012618673608764093 -0.0006524993410976144 0.0
0.0016941639234752323 -0.0006835116023992795 0.0
0.0014622547826114265 -0.0006764224698065435 0.0
0.002339271628057667 -0.0005260498424907614 0.0
0.0006393995892143651 -0.0004604220022663832 0.0
0.002490133897309457 -0.0004495996102056885 0.0
0.0004998790684219634 -0.0003901063000288774 0.0
5.03791287082626e-5 -9.09582227065664e-6 0.0
0.003044476443148775 -6.347115855058728e-6 0.0
0.0016578957015206323 9.10631837985269e-5 0.0
0.0018960482030228759 6.779025179916075e-5 0.0
0.001415031631626086 0.00010839263570652773 0.0
0.0012315630812274698 0.00015625553321473054 0.0
0.002650254067805651 -0.00036083166624067693 0.0
0.00037212531283224124 -0.0003142363973744846 0.0
3.709010050817059e-5 -1.5429011899950776e-5 0.0
0.003060008165151673 -1.0813846388616128e-5 0.0
0.0030222829811487662 2.9612308987274613e-6 0.0
6.638458936604384e-5 2.017571478834363e-6 0.0
0.0027766545761262608 -0.00027582549954518077 0.0
0.00026488224488550025 -0.0002362155487078577 0.0
0.0020660041132841466 3.5518694993032926e-5 0.0
0.0011102053345406755 0.00017968153750664336 0.0
2.8692635554915786e-5 -1.6049692025605004e-5 0.0
0.003068219920819972 -1.2497028846617797e-5 0.0
0.0011635896803728737 -0.0006332543549576557 0.0
0.0013607772907868047 -0.0006665144623012832 0.0
0.0018275892163025496 -0.0006766433424386835 0.0
0.0015662340917071864 -0.0006809508798170821 0.0
0.0020178600079546294 -0.0006411075719229883 0.0
0.0022359989322360543 -0.0005702628194102792 0.0
0.0009419050565468254 -0.0005756476508398898 0.0
0.0007251725669255467 -0.0004990673199523321 0.0
0.002868510053375918 -0.00020755372502298045 0.0
0.00018645090073034147 -0.00017480603366630507 0.0
0.003000973890376651 1.793320620330003e-5 0.0
8.664815185048499e-5 1.2592887984344251e-5 0.0
0.0030737921918500906 -1.5224855825848649e-5 0.0
2.7160064958132627e-5 -1.9221016930998715e-5 0.0
0.0021781143219780285 1.4324201951767806e-5 0.0
0.0010492804446911295 0.00020963386001154855 0.0
0.002959913864278632 3.2293432413855405e-5 0.0
0.0001264498094010889 2.5420220461961177e-5 0.0
4.364113813095265e-5 -1.3395256569379423e-5 0.0
0.003051948935710617 -9.413499072201987e-6 0.0
0.0017767011928689492 8.417828598269727e-5 0.0
0.0013223430205928685 0.0001411630777019494 0.0
0.00010426831373984991 -0.00010064496596523294 0.0
0.002976295287715731 -0.00011685421469335041 0.0
0.0020789176234563026 -0.0006262606023204967 0.0
0.0016307112490745593 -0.0006842516454322113 0.0
0.0011005446910724056 -0.000618795252199713 0.0
0.0008745507263102467 -0.000555187953501336 0.0
0.0017636112730594468 -0.0006813397273350583 0.0
0.0023975438768834172 -0.0004987674077010017 0.0
0.0005834136372545196 -0.00043282217300711175 0.0
0.0025562154786496036 -0.00041594639413638254 0.0
0.000443131681199742 -0.00035664283098892037 0.0
0.0003156712167952534 -0.0002743420143725185 0.0
0.0027134149878118158 -0.00031929490502597904 0.0
0.000674749995126327 0.00023010072585291318 0.0
0.0025650031935228355 0.00011175546718807997 0.0
0.0030739764244956886 -2.006169546439785e-5 0.0
2.37168871623872e-5 -1.9757907885992e-5 0.0
0.0010257198260172073 0.00028674872239791506 0.0
0.0022700608538383025 5.018968459888579e-5 0.0
0.0001501135630457293 4.058579944602665e-5 0.0
0.0029568125304093623 3.6615896240687636e-5 0.0
4.5895247850271685e-5 -4.4834369856920885e-5 0.0
0.0030453651355685563 -5.253358774188176e-5 0.0
0.0024121095180364123 0.00010875559571328505 0.0
0.002447082338299967 9.390742752384835e-5 0.0
0.0026385676545784007 8.706097856179989e-5 0.0
0.0025229161074049587 9.374266790638847e-5 0.0
0.0023733985553710153 8.686485086258723e-5 0.0
0.002423090582998448 0.0001009507527458807 0.0
0.002568641466056353 9.568880950081768e-5 0.0
0.0024763521255324735 0.00010538824516644891 0.0
0.002615003177429723 9.181615459965562e-5 0.0
0.0025309470351627165 9.945921633760951e-5 0.0
0.0024012498137311955 0.00011134988286811218 0.0
0.002452312551477275 0.00010281035302202787 0.0
0.002341318671630651 0.00011289169408260702 0.0
0.0023834469030640836 0.00010175713021065489 0.0
0.0022833740851913014 0.00011098843413666653 0.0
0.0023217398176895243 9.637380898178601e-5 0.0
0.0016196594194952626 5.7319472435105615e-5 0.0
0.00152897208428542 4.2481932279077046e-5 0.0
0.0015967954846585937 3.570479422021843e-5 0.0
0.0015231774220504292 2.4906173388303744e-5 0.0
0.0015828185903371528 1.9179093522858322e-5 0.0
0.0015193930331585592 1.0918721086109324e-5 0.0
0.0015734304721551292 5.594614581662899e-6 0.0
0.0015159075663549722 -1.6466506976045071e-6 0.0
0.0015663621763870852 -6.567960057745107e-6 0.0
0.0015128482502915447 -1.3249159662233375e-5 0.0
0.001560808374587087 -1.7788627248340592e-5 0.0
0.0015102017121491741 -2.4172956467307264e-5 0.0
0.001556297118319131 -2.8796991570111084e-5 0.0
0.0015091454634138428 -3.485324819699514e-5 0.0
0.001552573424670654 -3.9460710374488174e-5 0.0
0.0015070190257951116 -4.5412514860280554e-5 0.0
0.001549124188162511 -4.994169132744879e-5 0.0
0.0015035515146696774 -5.587234793704216e-5 0.0
0.001545744806002437 -6.0411928748972336e-5 0.0
0.0015012394439243698 -6.62583898501633e-5 0.0
0.001542774896934436 -7.091998845728032e-5 0.0
0.0014991630311856604 -7.670538544828793e-5 0.0
0.0015386340853403993 -8.143626114083603e-5 0.0
0.0014968658952270457 -8.726756095707605e-5 0.0
0.0015357273198728834 -9.206898122909983e-5 0.0
0.0014953883966834964 -9.76774975996587e-5 0.0
0.0015330882999551607 -0.0001028234497422373 0.0
0.0014913302404358927 -0.00010784134683459612 0.0
0.0015300198572329006 -0.00011370085404578858 0.0
0.0014794918278705346 -0.00011902499770196274 0.0
0.0015296196245411535 -0.00012493967683318164 0.0
0.0014867775704264063 -0.00013085998529292702 0.0
0.0015267449745265023 -0.00013630146254077464 0.0
0.0014861001593567907 -0.00014247088355073454 0.0
0.001524522936335095 -0.00014799588300328035 0.0
0.0014865583672236643 -0.00015420402000862287 0.0
0.0015221392703930804 -0.0001599042530943861 0.0
0.0014851026274488547 -0.00016640668300633456 0.0
0.0014654578221186569 -6.861529266986694e-6 0.0
0.0015197211741174532 -0.0001721542117970058 0.0
0.0014589266095044139 -6.1001415267071714e-5 0.0
0.001440964710068266 -0.00012845313793165693 0.0
0.0014806857423267478 -0.00017877820943538406 0.0
0.0015170138043467628 -0.00018472026378044446 0.0
0.0014763027003412937 -0.0001919172733921451 0.0
0.0014406847171514927 -0.0001847468120613912 0.0
0.0014352782459066543 -0.00019849785338223798 0.0
0.0015127532347634285 -0.00019839670422802663 0.0
0.0015540246405185943 -0.00019069893913103842 0.0
0.0015658209910507925 -0.00012970157919799853 0.0
0.0015500049169176544 -0.00020478782176014867 0.0
0.0015938783968007047 -0.0001956869433950278 0.0
0.001588381602202557 -0.0002111215805213375 0.0
0.0014000746222710963 -0.00019094623240355354 0.0
0.001396157122808923 -0.00020437022235020405 0.0
0.0016336618412206572 -0.00020122582040358282 0.0
0.0013587072408267763 -0.00019638400652006457 0.0
0.0013571026734265686 -0.00021039504135684283 0.0
0.0016289063694887578 -0.0002168617101297355 0.0
0.0016727605589160236 -0.000207682050590542 0.0
0.0013170699728498735 -0.00020183447397716358 0.0
0.0013145084593273472 -0.00021620894021559723 0.0
0.0016689530908427994 -0.00022322951961178822 0.0
0.0017140817166407959 -0.00021349140089446054 0.0
0.0012756355701945504 -0.00020717685988015983 0.0
0.0012726884605267022 -0.00022234331565541894 0.0
0.001710103247321458 -0.0002298603264151838 0.0
0.0017565096616277026 -0.00021916984816282897 0.0
0.0012345965670653458 -0.00021163115134800256 0.0
0.001228967245634087 -0.00022720055907931693 0.0
0.001753044180969409 -0.00023596048033306148 0.0
0.0017997653985924675 -0.00022465988432829708 0.0
0.0011895616051947572 -0.00021598852900500378 0.0
0.0011850344819144235 -0.00023234475147510694 0.0
0.0011432770479277822 -0.0002211786362022567 0.0
0.001147715171457276 -0.0002038999809379676 0.0
0.0017023975170941297 -0.0002460282945819579 0.0
0.0017960168570567698 -0.00024213287535334628 0.0
0.0018437306573343942 -0.00023001478963032828 0.0
0.0018482617470140712 -0.00021203194287182638 0.0
0.0015795457337355312 -7.596004392410335e-5 0.0
0.001894074610021723 -0.0002170038008629835 0.0
0.001899020476580414 -0.00019830156785040159 0.0
0.0019463925203217715 -0.0002026171047114312 0.0
0.001142343190632577 -0.000238749805824917 0.0
0.0010987717167433647 -0.00022564622386984587 0.0
0.0011833646979128917 -0.00024987654187649767 0.0
0.0018385341848378052 -0.00024843957023283793 0.0
0.0010984592640740358 -0.0002435958529535724 0.0
0.0010543879786814878 -0.0002294464639550004 0.0
0.0016006936236122222 -3.2433890418632957e-5 0.0
0.0010540552748583975 -0.00024693435962488443 0.0
0.0010100318015353832 -0.00023249923514238682 0.0
0.0010099412046369325 -0.0002503289524954856 0.0
0.0009665298896298856 -0.00023454323022435093 0.0
0.000965688971859729 -0.00021718205138839602 0.0
0.000919549862871093 -0.00021961706231134296 0.0
0.0009194462916344187 -0.00020130269616204803 0.0
0.0009613422604340138 -0.0002520151520124285 0.0
0.000869866943525355 -0.00020381618732817508 0.0
0.0008694270318030038 -0.00018507231351005377 0.0
0.001010346022167753 -0.00026914915897405516 0.0
0.0009690699733500495 -0.00027231588387627043 0.0
0.0008210053753393196 -0.0001860591680313127 0.0
0.0008188977880245531 -0.00016772696308781264 0.0
0.0019526841859558851 -0.00018362959684910615 0.0
0.0020020377708448787 -0.00018761694113770167 0.0
0.0010107854196178328 -0.0002881875652845351 0.0
0.0009701240487317447 -0.0002911683355963309 0.0
0.002008928888742772 -0.00016799073345637007 0.0
0.002060724281905983 -0.00017204613457647087 0.0
0.002051458046628342 -0.00019360320281525944 0.0
0.0021106207613400523 -0.0001768129771481336 0.0
0.0021021306784631934 -0.00019884225676142673 0.0
0.0021614282675185914 -0.0001803235423153697 0.0
0.002155693526806158 -0.0002020902477976839 0.0
0.002217071284625946 -0.00018124269218793717 0.0
0.002206119453394376 -0.00020356623551671813 0.0
0.0022227378439331094 -0.00016037246732368446 0.0
0.0022683272318005745 -0.00018297110823460876 0.0
0.002254055318696675 -0.0002052496072888662 0.0
0.0010118187696749764 -0.0003075797360189243 0.0
0.0007678474901334595 -0.00016813294612766459 0.0
0.0007647351246864514 -0.0001494178961642298 0.0
0.0021968557955815344 -0.00022643162944212313 0.0
0.002242700275358086 -0.00022774526860216634 0.0
0.002298944214437422 -0.0002061677192808479 0.0
0.002189443653996764 -0.0002496789592676269 0.0
0.0009722012600744892 -0.00031062887665264096 0.0
0.0022874338213274194 -0.00022824711768399138 0.0
0.0023424827015702775 -0.00020604581838305837 0.0
0.001012865673126097 -0.00032751408789103716 0.0
0.0009740752586123823 -0.0003306573560969693 0.0
0.0009340364181572226 -0.0003130878115663715 0.0
0.0023302184983177406 -0.00022776132619446227 0.0
0.0023846858988620964 -0.00020467029450173233 0.0
0.0010138943787980366 -0.00034806888533685444 0.0
0.0010522746522724509 -0.0003445713904637881 0.0
0.0009364286701976046 -0.000333244677557854 0.0
0.0008967246315771144 -0.0003150811813098182 0.0
0.002370350351649966 -0.0002263781360196644 0.0
0.002426123636224775 -0.0002022279299036383 0.0
0.002439857424509972 -0.00018149134816783095 0.0
0.0023157819273687203 -0.00025054192991161387 0.0
0.0024815998315349153 -0.00017823269774763095 0.0
0.0024965862427087366 -0.0001582934301815216 0.0
0.0007105475489591862 -0.00014959890251895651 0.0
0.0007102259110800413 -0.0001302047579376241 0.0
0.0007755054374249607 -0.000131162921656386 0.0
0.0007080598380418846 -0.00011075209269467786 0.0
0.0007711988153564496 -0.00010860275305610851 0.0
0.0007053382569263859 -8.987653545140673e-5 0.0
0.0007671885094065352 -8.641091019553391e-5 0.0
0.0010532111286305334 -0.0003653798644345545 0.0
0.00109067185633481 -0.00036141614609814 0.0
0.0008994355246944159 -0.00033537479738763557 0.0
0.0008600693149256306 -0.0003165649216474965 0.0
0.0024667860836687476 -0.00019889328839669006 0.0
0.0007093041212991937 -6.849696963102727e-5 0.0
0.0007682597410953704 -6.380651086677696e-5 0.0
0.0010916469782970685 -0.00038231324485075855 0.0
0.0011282312270160062 -0.0003781733733698319 0.0
0.0013192192875969787 -0.00023006381630087832 0.0
0.002522038727902513 -0.00017419305709688864 0.0
0.0016318844151465295 1.64165745851317e-5 0.0
0.0017018996180108144 8.475783420078754e-5 0.0
0.0014549580740239837 -9.265552098816294e-5 0.0
0.0020653663907227626 -0.00015195718612848882 0.0
0.0007048404855248649 -4.481949058597544e-5 0.0
0.0007741303213557287 -3.958879425081785e-5 0.0
0.0008631936745284146 -0.0003369878395535812 0.0
0.0008243570465107514 -0.0003176801799789395 0.0
0.0011297466174016784 -0.00039924470226091493 0.0
0.0011660438216193998 -0.0003948298706865393 0.0
0.002505930915173358 -0.00019463845578122132 0.0
0.000653850525668576 -0.0001303503870980332 0.0
0.0006561730318899618 -0.00014971912408864236 0.0
0.0006357300722631449 -7.027848993999201e-5 0.0
0.002561220030116582 -0.00016939892958148714 0.0
0.0007053149081897336 -2.1348868759161364e-5 0.0
0.0007756401437027287 -1.378791827102046e-5 0.0
0.0010937594271747978 -0.00040391187654756166 0.0
0.0008280515514312743 -0.00033838818668018223 0.0
0.0007893894920368432 -0.00031825919946385883 0.0
0.002013667495992998 -0.00014832398770352973 0.0
0.002072558399168812 -0.0001315972139121461 0.0
0.0020176939444951103 -0.00012813867506927885 0.0
0.0020798882264634008 -0.00011109362561633746 0.0
0.0011670450020850466 -0.0004158652506374426 0.0
0.0012036789833700272 -0.00041061726453658757 0.0
0.0012802880768966384 -0.00019355574375802103 0.0
0.0007056349837487968 2.370964799900086e-6 0.0
0.0007747484317155687 1.2149194105445501e-5 0.0
0.002545388512355186 -0.00018939418867537937 0.0
0.002495391763853653 -0.00021307699652408347 0.0
0.000691117945383838 2.84472866276882e-5 0.0
0.0007716147531204084 3.95220803230195e-5 0.0
0.002599225904715308 -0.00016437027196633682 0.0
0.0026086395131939026 -0.00014979194918588655 0.0
0.0007009762210631452 5.3174913719439143e-5 0.0
0.000865625630170687 -0.00035979312081487803 0.0
0.0012040666212952288 -0.00043227582537927575 0.0
0.0012404363034520295 -0.0004260845328491005 0.0
0.0012406566607855193 -0.00040458947004114626 0.0
0.0012773515550027342 -0.0004195084934174557 0.0
0.0012780218770467617 -0.0003982290323354896 0.0
0.0013148800132418842 -0.0004125360504671048 0.0
0.0013158809092966867 -0.00039117188330136895 0.0
0.0013532752357911248 -0.0004050603632557 0.0
0.0013547200179108623 -0.0003837321611036185 0.0
0.0013923997358844195 -0.00039697957840759937 0.0
0.00139089532694649 -0.0004189121600510173 0.0
0.001429817145751342 -0.00041022914395416274 0.0
0.0014280713026553604 -0.0004325659182963672 0.0
0.0014668006158507112 -0.0004232586139938736 0.0
0.0014645725809133326 -0.0004460530823872921 0.0
0.0015036016914372371 -0.00043606042436017167 0.0
0.0013944221483777526 -0.00037574113835053244 0.0
0.001506036760056544 -0.0004132474076130709 0.0
0.0015433541889129667 -0.0004252880008685535 0.0
0.0015403142595776058 -0.00044897428363198177 0.0
0.001580576874634734 -0.0004375539451785604 0.0
0.0005983067036477806 -0.00012960873406398735 0.0
0.0006006296171072288 -0.00014858341384283225 0.0
0.0007934077653703409 -0.0003390229338493828 0.0
0.000755487882786708 -0.0003185263742716982 0.0
0.0015842939257699564 -0.00041394111907897186 0.0
0.0016215682182345336 -0.00042524654739790066 0.0
0.001617231597334541 -0.0004494856537902463 0.0
0.0016590191692209934 -0.00043631030745489735 0.0
0.0005442206438289096 -0.00012800756288025526 0.0
0.0005468292669627932 -0.00014629832379946828 0.0
0.0020220222662455938 -0.00010711012593143509 0.0
0.0020882691407855124 -8.990750147510925e-5 0.0
0.002028354382135011 -8.59228135063492e-5 0.0
0.002584763557135389 -0.00018316544561340446 0.0
0.0026367788983539912 -0.00015852011512579756 0.0
0.0012406502907208296 -0.0004484500796323458 0.0
0.0008428339341619243 -6.293365032252106e-5 0.0
0.001585842680395029 -0.00022532393116477044 0.0
0.0016540135378115234 -0.00046115475481694443 0.0
0.0016960310373342474 -0.0004471577585329281 0.0
0.0017005255036695898 -0.0004221938871046995 0.0
0.0017384385155709127 -0.000431985675037141 0.0
0.0016788030091311218 -0.00019117505674525923 0.0
0.002100230181216985 -6.792128623754909e-5 0.0
0.0021557816203254315 -7.583670376606826e-5 0.0
0.0007750594258531372 6.699377958926116e-5 0.0
0.000759428457923457 -0.00033911685296143064 0.0
0.0007222037223776969 -0.00031817568939349777 0.0
0.0020364347123201483 -6.38308348974904e-5 0.0
0.0017328901830099559 -0.00045785398889524307 0.0
0.0017761186116095062 -0.00044228636278356227 0.0
0.0017818476328695153 -0.00041632090353201995 0.0
0.0018205471854165077 -0.0004259901002618192 0.0
0.0018273005427245801 -0.0004006600223258874 0.0
0.001865493783499085 -0.0004089506066180709 0.0
0.0018579117340465062 -0.0004348605291408403 0.0
0.0019025168467785305 -0.0004167850565870644 0.0
0.000700833942512783 7.632986460587991e-5 0.0
0.0004920069560282355 -0.0001254736720872101 0.0
0.0004945589565228241 -0.00014275292480926677 0.0
0.0012054537536167105 -0.0004548462144436571 0.0
0.002620457188630652 -0.00017855035920236228 0.0
0.002672959024424544 -0.00015250349261819693 0.0
0.0018940619693514887 -0.0004432326413308395 0.0
0.0019379502132308962 -0.0004242036417135601 0.0
0.0007798435913760279 9.295737725012014e-5 0.0
0.0007266607043440145 -0.00033884906516742545 0.0
0.0006893706542826818 -0.00031708650924866034 0.0
0.0008458266138005904 2.1903329343384833e-5 0.0
0.0024205530394634496 8.648478038528368e-5 0.0
0.0012409735626867258 -0.0004714321627338553 0.0
0.0007025504673678827 9.727003480509814e-5 0.0
0.0006421884182769516 -7.080248746854714e-6 0.0
0.002651320938287663 -0.00017811290397089143 0.0
0.0027081870117334032 -0.00014682514042904424 0.0
0.0027252322508908443 -0.00012755967994464517 0.0
0.0006249287394328756 6.0533733290863745e-5 0.0
0.0025968993451656506 -0.00020330735743739328 0.0
0.0004860881943603121 -0.00010786965912759366 0.0
0.000760694227993938 -0.000358790350331745 0.0
0.0021118620754549764 -4.5148540218167667e-5 0.0
0.002045810526277907 -4.085188005713714e-5 0.0
0.0018734462464398331 -0.00038402055474009674 0.0
0.0006943129926218437 -0.00033830050792887234 0.0
0.0006570666813066678 -0.0003158552007122119 0.0
0.0004415542128084447 -0.00012190159511764083 0.0
0.0004439415904441443 -0.00013790907228034685 0.0
0.000821068206431505 -0.000298198655383822 0.0
0.0019285517182602025 -0.0004510969319165024 0.0
0.0019718041363335644 -0.0004308276628205279 0.0
0.0006520380421719393 -0.0002951610641373409 0.0
0.0006195556611060477 -0.00029325331956083124 0.0
0.0018878125778170217 -0.0004688545963265895 0.0
0.0012071518906134745 -0.00047805154930144836 0.0
0.0006253312958620388 -0.000314346476116196 0.0
0.0005879030753966648 -0.0002910878055539233 0.0
0.0012780697277132418 -0.00037786927217974475 0.0
0.0027611226908423564 -0.00012068523673823377 0.0
0.0027772988544766484 -0.00010441974331212331 0.0
0.00274471520100738 -0.00013967437860713903 0.0
0.001961316051287147 -0.0004578629126214606 0.0
0.0020040056081557637 -0.0004364898211330604 0.0
0.0018339049180600617 -0.0003761631413630185 0.0
0.0018810826598184434 -0.00035998435840010326 0.0
0.0012417360077817212 -0.0004949522576013639 0.0
0.0020152578325450276 -0.0004099593934719039 0.0
0.002047239547598395 -0.0004149321845629889 0.0
0.0003920729162340824 -0.00011662548849495163 0.0
0.0003966305959758267 -0.00013205917343094432 0.0
0.002035191500875019 -0.0004423778660851106 0.0
0.0020775509759609163 -0.0004197551829812048 0.0
0.0005948203115490715 -0.00031265559197604247 0.0
0.0005572858852663668 -0.000288678120297064 0.0
0.002123651852748954 -2.1605354768738276e-5 0.0
0.0020569459876564992 -1.695081177945264e-5 0.0
0.0005500126224488098 -0.0002681582153206303 0.0
0.0005192158315184969 -0.00026482802375739096 0.0
0.0005263715652377004 -0.0002857138015971979 0.0
0.0004884403614532892 -0.00026117393502794566 0.0
0.002796204113807578 -0.00011354640810810944 0.0
0.002779503567097729 -0.00013305310837560108 0.0
0.0007819251167554313 0.0001151073205090121 0.0
0.00069828518068814 0.0001150270328264316 0.0
0.001968312474479995 -8.105646515419703e-5 0.0
0.0012088697321237397 -0.0005017828911916847 0.0
0.0020650226275721766 -0.0004484278523568203 0.0
0.0021065240546172077 -0.0004245922536567634 0.0
0.002223989321299125 0.00010556036459459164 0.0
0.0020594694824973866 -0.00038868060507249604 0.0
0.0014266171410652405 -0.0004555279885367506 0.0
0.0004802812716881929 -0.00024134564186070555 0.0
0.0004503447290185016 -0.00023667654877534663 0.0
0.00045874121569278886 -0.0002573437763803253 0.0
0.0004204595765070452 -0.00023191727635928422 0.0
0.0004121030702991078 -0.00021252508401030043 0.0
0.0003812444090151853 -0.0002068993446204303 0.0
0.0003726377468833766 -0.00018804003619231994 0.0
0.0003412521294660213 -0.00018138440901470382 0.0
0.0003327066337849291 -0.00016388353555389504 0.0
0.00030300796870299146 -0.00015688313384977734 0.0
0.00029400211280521235 -0.00014088340337536936 0.0
0.0003109644003218393 -0.00017390168202513332 0.0
0.0002692650516309978 -0.00014562781305427322 0.0
0.0003461879079052747 -0.00011060707488214892 0.0
0.0003443237609978242 -9.689057074324009e-5 0.0
0.00028098014036624105 -0.00016567376058084624 0.0
0.00024278906539982248 -0.0001395777690194611 0.0
0.0008588621781396734 0.0001082133486913354 0.0
0.0009110823051386315 -0.00018109880473134637 0.0
0.0018407861958264606 -0.0003526341307705894 0.0
0.0018880664175225134 -0.00033683117720060743 0.0
0.0005462640156784325 -0.00016312006040457224 0.0
0.00124251862089947 -0.0005191398506514297 0.0
0.0012756371609778487 -0.0005118546099303245 0.0
0.001928728136437823 -0.0003433204458074078 0.0
0.001936133034410248 -0.00032025272447129885 0.0
0.0028303799393012154 -0.00010608439941575418 0.0
0.0028115087047230996 -0.0001269241961552576 0.0
0.0027614984001027025 -0.00015721494605250286 0.0
0.0019790354932084308 -3.659013412457717e-5 0.0
0.001989485672106277 -1.287908325398461e-5 0.0
0.0011745535320856675 -0.0004843206985875877 0.0
0.0011765221254466213 -0.0005081226144744324 0.0
0.001142720419080047 -0.0004903396899583786 0.0
0.00043046045729433653 -0.00025335129054679633 0.0
0.0020688606281638855 7.578178964480672e-6 0.0
0.002001169062388178 1.2239034650775145e-5 0.0
0.0008208390059713797 -0.00020549346868623143 0.0
0.0020931989231238956 -0.00045446273384623713 0.0
0.0021347811343994123 -0.00042957739168222067 0.0
0.0021488141493080405 -0.0004009774472136304 0.0
0.0021768849623196775 -0.0004049015886155477 0.0
0.0008056542458376738 0.00013672841105121653 0.0
0.0007057463883183197 0.0001317329299837095 0.0
0.0011262344209513895 -0.0003579913677160799 0.0
0.0020530387132361495 -0.00047894040006133526 0.0
0.002573868523141183 8.739606894486856e-5 0.0
0.0021624180933779245 -0.0004356850095310129 0.0
0.002204889725097802 -0.0004099313995053259 0.0
0.0022196389427099695 -0.0003800065634195973 0.0
0.0022481916684763347 -0.0003840704577050459 0.0
0.0022638874082132163 -0.0003546612524838078 0.0
0.0022921488042834705 -0.0003578735658441828 0.0
0.0022762409409504657 -0.00038918214610558804 0.0
0.002319873599658096 -0.0003620591361213639 0.0
0.00025214610350548323 -0.00015596178470510984 0.0
0.0002148041294176809 -0.00012960356776330057 0.0
0.00020089547790047913 -0.0001121026217935853 0.0
0.0012763002779316505 -0.0005364755434579597 0.0
0.0013080788733232794 -0.0005297632519980822 0.0
0.0011452030195379314 -0.0005142681304269964 0.0
0.0011115221743821678 -0.0004959269957165838 0.0
0.002791508476905582 -0.00015303504567128467 0.0
0.002841078555177544 -0.00012147911998146616 0.0
0.002188455367699653 0.00011753539709775993 0.0
0.0021325058861159166 0.00011238434528721385 0.0
0.0006081101001737012 0.00010864359805543637 0.0
0.0006141801278932285 0.0001222270909197009 0.0
0.00029095089881857724 -0.00018502644406482178 0.0
0.001052642660725338 -0.0002846721133092143 0.0
0.001950854102002634 -0.0001262674803582277 0.0
0.0027431196926272924 -0.00018555962622879112 0.0
0.000830291301657003 -0.00010192188850371329 0.0
0.0019124385969640004 -3.287716372216235e-5 0.0
0.0023029883709143753 -0.00039536354497252856 0.0
0.0023465748080579753 -0.00036728316293134326 0.0
0.0023445694347709873 7.8588719969005e-5 0.0
0.0024553770568149563 6.880709421557755e-5 0.0
0.0008015050265781652 0.00015329370680160377 0.0
0.00044592332747976404 -0.00015354576423072663 0.0
0.0002932934157046397 -8.947664900963332e-5 0.0
0.00029220063695852504 -7.69425136756473e-5 0.0
0.0004672097186022127 -0.00027933649434602227 0.0
0.002192525717296369 -0.00044273025177717806 0.0
0.0017894532086431783 -0.00026000987155316054 0.0
0.0016136681097390392 -0.0004745278462675893 0.0
0.0010170070721870178 -0.00036832969479871436 0.0
0.00022415832665693866 -0.00014578428465199844 0.0
0.00018793080403411706 -0.00011907199194947521 0.0
0.0006321849771858748 -0.00033671647724797907 0.0
0.0019774170194256915 -0.0003259314163368127 0.0
0.0019852621099560206 -0.0003030829159225639 0.0
0.0011773748348212914 -0.0005329345854229553 0.0
0.0023953405472481523 5.84270313447927e-5 0.0
0.002490044342180622 5.097827439489801e-5 0.0
0.0024338388102618097 3.8858028369530927e-5 0.0
0.0025254889478886293 3.281236971397443e-5 0.0
0.0025803718073751916 4.371628665526914e-5 0.0
0.0026148594372635736 2.723002039284884e-5 0.0
0.002559110867850333 1.4715798595436483e-5 0.0
0.0026453563733277586 1.1090062901705909e-5 0.0
0.002589961986807085 -2.5767880999739775e-6 0.0
0.002674322524943079 -3.908158768604534e-6 0.0
0.002620163663899342 -1.8938449147375946e-5 0.0
0.002700828873838913 -1.7518665282247217e-5 0.0
0.0026478764147055424 -3.389580723165166e-5 0.0
0.0027257321588036497 -2.9659894431548047e-5 0.0
0.002564121516970616 -3.7429586225351875e-5 0.0
0.00267378538397706 -4.690705953424374e-5 0.0
0.002747007271344484 -4.059742171034951e-5 0.0
0.0026716566185557115 3.600013412461147e-5 0.0
0.0006131722809224389 -0.0002729124109015061 0.0
0.0006025108198096561 -0.0003354055615161263 0.0
0.0006385337879105809 -0.0003597408073275005 0.0
0.002698098837801165 -5.80491687966011e-5 0.0
0.002767691458515689 -4.953802624775083e-5 0.0
0.0026287006647450024 -6.55010680089095e-5 0.0
0.0016491711389043128 -0.0004867233908804846 0.0
0.0016096032119814088 -0.0004999822113438679 0.0
0.0016443637446565379 -0.0005127618739255906 0.0
0.0016062271077865286 -0.0005260284624047172 0.0
0.0016399793705145402 -0.0005393900042006298 0.0
0.0016036318834186318 -0.0005526497362112189 0.0
0.0015699009965987143 -0.0005388220622391259 0.0
0.0015682127044536669 -0.0005652216402036244 0.0
0.0015353328147513646 -0.0005508850831357082 0.0
0.0014492738158796428 3.8046438954970274e-5 0.0
0.0016363493445743175 -0.0005667569549481471 0.0
0.001672321798633612 -0.0005527585341495502 0.0
0.0013899493078411282 -0.00021900906955949707 0.0
0.0013561958189502509 -0.00036305463964503504 0.0
0.0013965636255586992 -0.0003551523561253292 0.0
0.0013578086056532579 -0.0003429881947125683 0.0
0.0013987980900339887 -0.0003352138865377654 0.0
0.001359593831468594 -0.00032356316819037517 0.0
0.001401147542064804 -0.0003159509033405345 0.0
0.0014405472449211933 -0.00032696868811552514 0.0
0.0014433917073512403 -0.00030788065692140303 0.0
0.0014830137247867578 -0.00031828075106530234 0.0
0.0014862083315837643 -0.00029936291155859836 0.0
0.001524286598158246 -0.0003090981197984453 0.0
0.0014464509253257598 -0.00028890287733295195 0.0
0.0013615578370718205 -0.0003047562256535336 0.0
0.0013199031001351745 -0.00031180429802293066 0.0
0.0015206595970604568 -0.0003288238546120007 0.0
0.0015641989899254785 -0.00031783620709796654 0.0
0.0006101237694118584 -0.0003589009833071025 0.0
0.0014469704920779653 -0.0001487707890477969 0.0
0.0014634790322130141 -3.060784466028989e-5 0.0
0.0016261124652849827 -0.0004019447878896947 0.0
0.0028462249044725486 -9.028188680576733e-5 0.0
0.002878997818144528 -8.259738308537724e-5 0.0
0.0015912253074361208 -5.381134383545757e-5 0.0
0.0015745102774647876 -9.531183296636211e-5 0.0
0.002234558569669694 -0.00035229472735547523 0.0
0.0019367806547795623 -0.00022207564885261169 0.0
0.0028220941906156208 -0.00014740210491307325 0.0
0.0028693117560013278 -0.00011592001031993764 0.0
0.001562699883167787 -0.00015368284418535892 0.0
0.0011143707668820806 -0.0005201215192128995 0.0
0.001080856825830613 -0.0005012888240918153 0.0
0.0016146479074157071 -1.0131466694695862e-5 0.0
0.0015337879535906667 -0.000577217460097593 0.0
0.001500768448982646 -0.0005613330161061977 0.0
0.0010780559173316992 -0.0004774555294525937 0.0
0.0010470822223949087 -0.00048233950627292715 0.0
0.0010441422932095982 -0.0004588149807616501 0.0
0.0010130076835334918 -0.0004631600784590847 0.0
0.001016602929261728 -0.00048702882636823336 0.0
0.0009826434460332946 -0.0004673006289562289 0.0
0.0009865783280011056 -0.0004914726071935139 0.0
0.0009526439762924293 -0.0004712327935065313 0.0
0.0004407434499064037 -0.00027614701864615994 0.0
0.002893741354672881 -6.980337466020154e-5 0.0
0.0020798157346532077 3.220327085901258e-5 0.0
0.002010629372496626 3.6686802025917665e-5 0.0
0.0009338831638204564 -0.00027555667898730046 0.0
0.0007552968467279028 -0.0002988397109681395 0.0
0.002794141934523603 -2.6746567045195176e-5 0.0
0.0027562942067550114 -5.6286585349498e-6 0.0
0.0013080898980405897 -0.0005543117771716837 0.0
0.0013406349026163977 -0.0005468168782928302 0.0
0.0020801078364005307 -0.00048615907281488813 0.0
0.0004062973056630185 -0.00019417211142420807 0.0
0.0017606800971973983 -0.00020312330365479834 0.0
0.001933965276358883 1.573106284357261e-5 0.0
0.001942921294740776 4.00131830934485e-5 0.0
0.00228034788153771 -0.00032751759700762654 0.0
0.002353534931951835 -0.0001847182972265158 0.0
0.0023641795736038303 -0.00033527847394015307 0.0
0.002391592662060491 -0.00033884950808872046 0.0
0.002372351180094321 -0.00037376700367372365 0.0
0.002418171805258335 -0.00034394158687889667 0.0
0.0013670234677253309 -0.0001830855727719545 0.0
0.0004755468358074757 -0.0003022236562288769 0.0
0.0015253355117787685 -0.00028985635990289596 0.0
0.0025038450632174623 -2.2459604947685073e-6 0.0
0.001314614928847648 -0.0005060371580317282 0.0
0.0006444519585309007 -0.0003832851598794304 0.0
0.000672974366472819 -0.00038394112146391114 0.0
0.0020414696255239054 -0.0005108345241081266 0.0
0.001009478722284479 -0.0004401101022036085 0.0
0.0018471074001465589 -0.00033001166568161325 0.0
0.0018001573311157747 -0.0003448702583154775 0.0
0.0028504139769479197 -0.00014240222470739405 0.0
0.002897620320512858 -0.00010934274247950451 0.0
0.0029146612367516593 -8.811737689103014e-5 0.0
0.00089806808202378 0.0001585961174011366 0.0
0.0001973396256648772 -0.00013460624139417757 0.0
0.00016163169857886053 -0.00010702192821878846 0.0
0.00015604218158038336 -9.577146962463306e-5 0.0
0.0020993051873422867 0.00012148697954355005 0.0
0.0021510871576551935 0.00012153919443989457 0.0
0.0020459843946131857 0.00011705973497351401 0.0
0.0021907633113552377 -2.663498236775401e-5 0.0
0.0027214489859208302 -6.63449351294288e-5 0.0
0.002789731658849764 -5.580485586611107e-5 0.0
0.0010841433393667347 -0.0005258196592032323 0.0
0.002140890071956834 -0.00011423540072367837 0.0
0.0005150699952760058 9.761370624048808e-5 0.0
0.000516061319531079 0.00010710293383172244 0.0
0.0006225768168554127 0.0001336917543571323 0.0
0.000514872054305882 0.00011372855017426368 0.0
0.0006651602221956483 0.00015123789139836623 0.0
0.0014990341276412287 -0.0005346940585240244 0.0
0.0009480076178963024 -0.00044751336262142233 0.0
0.0009187873961448886 -0.0004509834904228008 0.0
0.0009233399833579771 -0.00047500717353092737 0.0
0.0008898263131091869 -0.000454328703639858 0.0
0.0024364671757103715 -0.00031071885198019264 0.0
0.002463054869643949 -0.0003149548819619521 0.0
0.002444875830802596 -0.00035009621171792525 0.0
0.002488862789841516 -0.00032018982068266334 0.0
0.001942757030238144 -0.000297699012332142 0.0
0.001992564498341698 -0.0002810338011523793 0.0
0.0016684730689832253 -0.000580668371558298 0.0
0.0017038048599581823 -0.0005659735185218289 0.0
0.0013216536710807848 -0.00029324932187160525 0.0
0.001279798788823066 -0.00029980534270686803 0.0
0.0012727323728346934 -0.0005623566910838952 0.0
0.0008944786651993519 -0.0004782521612617741 0.0
0.0008615957507759317 -0.00045739982510234554 0.0
0.0027128482948127193 -0.00018890346053425662 0.0
0.002694329524927071 -0.00021946639364117977 0.0
0.0026653877369993664 -0.00022148089992569275 0.0
0.0026513455970032596 -0.00025088036531746745 0.0
0.0013403585275265323 -0.0005734450298591392 0.0
0.00023053265120891539 -0.00016188454419681787 0.0
0.0003263301707756794 -0.0001484024464296072 0.0
0.0002831061769491784 -0.00012512745514452905 0.0
0.00023917713252992793 -6.905179065130708e-5 0.0
0.00023514574107100838 -5.753638513151339e-5 0.0
0.0002916713021533759 -6.397253694807254e-5 0.0
0.00023233440807803138 -4.592791387532378e-5 0.0
0.0002911910007920376 -5.0229185445416086e-5 0.0
0.00022980185273060273 -3.3957883759209904e-5 0.0
0.000291783147199934 -3.580090710961699e-5 0.0
0.0027238730083713283 -0.0002171841392550549 0.0
0.0008839093044219169 -0.0004310504510475227 0.0
0.0022498424074728586 -0.0003270300660707371 0.0
0.0020141754537278326 -0.0005018191490507103 0.0
0.002003854317698562 -0.0005349189571993874 0.0
0.0019769743533104823 -0.0005254462514434795 0.0
0.00150013473589506 -0.0005882882395604064 0.0
0.0021337988810673355 2.4098134175757827e-5 0.0
0.0024708903758111377 -0.00035703208653663026 0.0
0.0029431458874914743 -7.989816292023724e-5 0.0
0.002925255257328924 -0.0001017661828255785 0.0
0.0008931954580996806 0.000171612573735366 0.0
0.002071714292488518 5.333765182632873e-5 0.0
0.0015879901967423033 -0.00039124015104331805 0.0
0.0016297411014146424 -0.00037945848156559946 0.0
0.0015679988576385356 -0.0005926585374975812 0.0
0.0014673729692475399 -0.0005717952760079615 0.0
0.000663152065585087 -0.00017154980980652653 0.0
0.0028332121969109276 -4.109554653437474e-5 0.0
0.0028538506990713683 -4.530512058177051e-5 0.0
0.0028094443583010103 -6.049973905595761e-5 0.0
0.0028712782717411835 -4.8807238085492675e-5 0.0
0.0023545572155748615 -0.0002486027553450813 0.0
0.001766018696687199 -0.00046956916213273305 0.0
0.0018058551061952471 -0.00032287937536280647 0.0
0.0013155485111025916 -0.00043481787339490565 0.0
0.0019019233609665874 -0.00017969992857835585 0.0
0.002026879235193772 -0.00030807437469119477 0.0
0.0020263277933423814 -0.0003848585396491426 0.0
0.002071559496989673 -0.0003639618706278182 0.0
0.002059435487199985 0.00011974689591138295 0.0
0.002123092021546733 0.00011480863785557103 0.0
0.0006782966458393889 -0.0004077052757313734 0.0
0.0007055400162378745 -0.00040753305249114415 0.0
0.00022784565838822532 -2.1571392857252244e-5 0.0
0.00029033680186790143 -2.0809559867352677e-5 0.0
0.000356148581279398 -3.590776116970672e-5 0.0
0.0003572378891876712 -1.803754797836954e-5 0.0
0.0002909067784988925 -5.905223305946729e-6 0.0
0.0003612492305289466 -2.1266518284613097e-7 0.0
0.0002933815253000453 8.398448949466289e-6 0.0
0.00036810517021318694 1.731600206250175e-5 0.0
0.00029676970257594594 2.176128064425936e-5 0.0
0.0001714053532986621 -0.0001225057914540182 0.0
0.0017591725718785766 -0.00033679636170698917 0.0
0.00013660185398599499 -9.457194168074385e-5 0.0
0.0006173890582748554 -0.00038294918250921244 0.0
0.0029272316504821536 -6.142465774490412e-5 0.0
0.0014348746831301397 -0.0003672320692195049 0.0
0.0018682210118858929 1.8336200475983476e-5 0.0
0.0018809272295537743 4.4320346105005396e-5 0.0
0.0003751351026933769 3.407275155712385e-5 0.0
0.00045043922968719934 -0.0002998131130485185 0.0
0.0004161232658223074 -0.0002731463084191058 0.0
0.0009283692628316722 -0.0005037634774687062 0.0
0.002064257035536314 -0.0005210025773252229 0.0
0.001117053091985326 -0.0005451422795101895 0.0
0.0025144426326640474 -0.0003259359276829469 0.0
0.0029592850342104312 -6.33531901473483e-5 0.0
0.0012783990459223923 -0.0003185789612486207 0.0
0.0012385018909228036 -0.00030591106623744095 0.0
0.001237339829079014 -0.0003249559657809162 0.0
0.000978664066197734 0.0001733157719566736 0.0
0.00119977834905736 -0.000311713760930674 0.0
0.00024774601010953113 -8.174566339188736e-5 0.0
0.001699533522260257 -0.0005947069345434323 0.0
0.0017349986223101866 -0.0005792116546547722 0.0
0.001740057553165577 -0.0005504437017106687 0.0
0.0017709476941734537 -0.0005628904157520607 0.0
0.002105111382267866 -0.00036711863224093245 0.0
0.002118249483316577 -0.00034235227175696045 0.0
0.002939756974755712 -5.1730227067168664e-5 0.0
0.002905382115848513 -5.9714578789248894e-5 0.0
0.0019656991743362477 6.756445902639633e-5 0.0
0.0018945994029020698 7.223232130817902e-5 0.0
0.0005837167568371744 -0.00035825731418867194 0.0
0.0008664681747337673 -0.00048148848692155486 0.0
0.0008341947972157346 -0.00046036193331022056 0.0
0.0015066358740482818 -0.00021325747232275419 0.0
0.0024281548489771035 -0.0003879501687056655 0.0
0.0003021502968600669 3.4022716434068484e-5 0.0
0.0008284945095382804 -0.00043622580243224483 0.0
0.0017653844938899197 -0.0005924507830161052 0.0
0.0018006841853822932 -0.0005752210482521052 0.0
0.0017638131460247341 -0.0003159081859761811 0.0
0.0017180843221058556 -0.0003284490918039237 0.0
0.001722315057880735 -0.0003082291887930912 0.0
0.0015948782654292418 -0.0001827601733960906 0.0
0.00024664396580145444 -0.00011587875866652387 0.0
0.0001463150927187333 -0.00010963186345107394 0.0
0.0017773225142543793 -0.0005339787361819557 0.0
0.0018338995032574426 -0.00026700395589520894 0.0
0.0014673654555989307 -0.0005990086041385058 0.0
0.0006001960172203701 -0.00011070628152784145 0.0
0.001056423270799028 -0.00021328907835865252 0.0
0.0004839710899601007 -0.00032712532817044394 0.0
0.002532845219889897 -0.0002909356861009485 0.0
0.0006484505950145676 -0.0002754394935912961 0.0
0.000607292121179286 -0.0002531245849297121 0.0
0.0006457777989645536 -0.0002560664311387352 0.0
0.0006030365144614266 -0.0002340405012732997 0.0
0.0006427095663777655 -0.00023700705376399569 0.0
0.0005641696013175715 -0.00023058363238303856 0.0
0.001967449814228924 -0.0005585168338935124 0.0
0.001942775279665398 -0.0005482749357623258 0.0
0.0004127203206329573 8.044870413228945e-5 0.0
0.0015007832379170486 -0.0006155768533488969 0.0
0.001462316124374242 -0.00046948262223454965 0.0
0.001425097302695107 -0.0004789864698906319 0.0
0.0007113222480594884 -0.00043180817995640513 0.0
0.00019207824922060467 -6.0463586248330616e-5 0.0
0.00020440959535582845 -7.402995465282488e-5 0.0
0.002738588485483086 -0.00011201065560023013 0.0
0.0027914980268767377 -9.059135685535127e-5 0.0
0.0004239574121348779 -3.3808705071478834e-5 0.0
0.0007380838211586176 -0.00043066134336897647 0.0
0.0007342346686174868 -0.0004084215189661252 0.0
0.0007438226346846016 -0.0004553344429796053 0.0
0.0006851228995885483 -0.0004325709506638845 0.0
0.0005346455130972421 0.00012544792845693568 0.0
0.0011402358742206148 -0.00046713897074802935 0.0
0.0017537949830461808 -0.00035911216350323995 0.0
0.002749757895054721 -9.825550870696064e-5 0.0
0.0016651736690229029 -0.0006094223550608812 0.0
0.001086899632022099 -0.0005512250149929439 0.0
0.002969007910301803 -7.193212175963412e-5 0.0
0.002950890753660881 -9.44759328477102e-5 0.0
0.0009893217841632984 0.0001593803415274185 0.0
0.0008400181039638367 -0.00048522199456724695 0.0
0.0019487601830912539 -0.0002750952385419272 0.0
0.002002736183319715 -0.00025866305487309783 0.0
0.0003202873229881662 -0.000133562220234347 0.0
0.0004261048977793508 -0.0002969582197809944 0.0
0.00039279839385539847 -0.00027027930484975 0.0
0.00038220213675296485 -0.00024738091418657015 0.0
0.0005913821016585965 -0.00038263946502207607 0.0
0.0001123205440505787 -8.130127803922662e-5 0.0
0.00010469678981625579 -7.028001847075273e-5 0.0
0.0017945015904475173 -0.0006055997996472107 0.0
0.001828771091175189 -0.0005874632780128743 0.0
0.001834873338875906 -0.0005555407462119154 0.0
0.002481860752241246 -0.00028291815958408803 0.0
0.0024542532745268925 -0.0002807079642622371 0.0
0.002453068946691128 -0.0003967802893345517 0.0
0.0005593458429030652 -0.00021209291231770195 0.0
0.0005213633343371925 -0.00020882910207703292 0.0
0.0020454819007726466 -0.0002636070133750798 0.0
0.002912717103152473 -3.5436194642522834e-5 0.0
0.0029282523827067817 -3.772309382915201e-5 0.0
0.0029465356668239837 -4.498003215673505e-5 0.0
0.0028986477180398176 -0.00013645193202452315 0.0
0.00018082285855178148 -0.00014002328995237342 0.0
0.0019021081466732148 -5.321901364142256e-5 0.0
0.001841185730618329 -5.02931427894932e-5 0.0
0.0018313665096108323 -6.799162330737367e-5 0.0
0.001774102744172642 -6.556598052986703e-5 0.0
0.001768086326440508 -8.228665276020752e-5 0.0
0.0017785339311626315 -4.9347165976035386e-5 0.0
0.001591585318990441 -0.0003692898020266832 0.0
0.0012812757744040532 -0.00028166627324371387 0.0
0.0013236855345499475 -0.00027525789013751925 0.0
0.0004027736238412988 -0.0002940583325444266 0.0
0.0003698200661945456 -0.0002665650367292963 0.0
0.002634007295161768 5.08533679247878e-5 0.0
0.002727910216766923 4.14527412050256e-5 0.0
0.002765546332939293 2.7109870286769686e-5 0.0
0.0028210007254357893 3.097795496582824e-5 0.0
0.002796795358354344 4.298040628050098e-5 0.0
0.0014361169344264716 -0.0005828209929721316 0.0
0.001435680704545527 -0.0005572450147558696 0.0
0.001435487373176576 -0.0006094714534970919 0.0
0.001802767004186645 1.9453281427446968e-5 0.0
0.0017922685927787866 -1.8905527711569574e-6 0.0
0.00042502325839176785 -5.334171812564963e-5 0.0
0.0002216974810166256 2.0701540688076076e-5 0.0
0.0019324261047454958 -0.0005812663326382239 0.0
0.0005113214026179672 8.629445754233685e-5 0.0
0.0019687920160588943 -0.0003493623678605204 0.0
0.0018326491889674454 -8.487664098439836e-5 0.0
0.0017624083241726317 -9.869583285804313e-5 0.0
0.00181530752556644 -0.00010331586934514204 0.0
0.0017564480297422795 -0.00011485298548650646 0.0
0.0018063774137689025 -0.00011988856474982553 0.0
0.001750737960969576 -0.000131112722113282 0.0
0.0017991456241582663 -0.00013644149686672818 0.0
0.0017453106717438057 -0.00014763850302535394 0.0
0.0017944543321933278 -0.00015315408552100964 0.0
0.0017037948501598648 -0.00010974355887251844 0.0
0.0016969774512408632 -0.000141896299959731 0.0
0.001993441095352863 -0.0005691516629558284 0.0
0.002980730702307908 -4.067306010172938e-5 0.0
0.0010416614829198707 -0.00043614330454844175 0.0
0.0010056479755244268 -0.00041827017083255556 0.0
0.002802369817245976 -0.00017805973234467936 0.0
0.0012027240320096888 -0.0002957362460492203 0.0
0.0017142273301326055 -7.828727899165861e-5 0.0
0.0006723467263778269 0.00016305086923664816 0.0
0.00017854987988567532 -4.011950318991472e-5 0.0
0.0010704342880598077 0.00017206645500005994 0.0
0.0010718960960536086 0.00015601615880725132 0.0
0.0022983109588899093 6.211474849431141e-5 0.0
0.0028301523342262247 -0.00017398577668395175 0.0
0.002784363987851557 -0.00021144094596110371 0.0
0.0011976089439385722 -0.00033077261691891955 0.0
0.00116381190600779 -0.0003145394545897361 0.0
0.0005087531769407026 -0.00030964772983256236 0.0
0.00012198530451855944 -9.575266653397111e-5 0.0
0.00014552119752808202 -4.992581657520727e-5 0.0
0.00015119755643069817 -5.8635320136192326e-5 0.0
8.854189853158244e-5 -6.70561751484939e-5 0.0
0.002082578926913236 -0.00033987764386032366 0.0
0.0021305144045300874 -0.0003189194406986383 0.0
0.0021667248897708482 -0.0003206201887995301 0.0
0.002178851275206545 -0.0002972799913026168 0.0
0.0016928398756124615 -0.00015754707642215123 0.0
0.0007939864981070873 0.00018338215756062546 0.0
0.0009906019261148329 0.00018451371606458488 0.0
0.0016771343674867227 -0.0003198471264687368 0.0
0.00168173377511409 -0.0002998088450955632 0.0
0.0012838099483950156 -0.000264777897850816 0.0
0.0010971469962180731 -0.00026198919082582716 0.0
0.001119838327086778 -0.0005709571662418331 0.0
0.0022613307773203233 -0.000423120932634696 0.0
0.0022869085067797855 -0.0004313659046013198 0.0
0.002247310180664912 -0.000459506299706525 0.0
0.002272178648392883 -0.00046988290987690095 0.0
0.002234169253668831 -0.000498043625176542 0.0
0.002209248945884673 -0.00048742972763188356 0.0
0.002146062570802277 -0.0004743083262089896 0.0
0.0019489900761239668 -0.00051589518325207 0.0
0.0020774899592689786 0.00010305423586479729 0.0
0.0015745730398156576 -0.0004872061988003682 0.0
0.00043834650500398974 8.11415985251408e-6 0.0
0.0029300449546503637 -0.00012355658517801169 0.0
0.0029743324763781124 -8.676656546146078e-5 0.0
0.0023114274203671747 -0.00044084221758229164 0.0
0.0022973120389658546 -0.0004803696302823508 0.0
0.002335181314427473 -0.0004514020395489348 0.0
0.0011489759747137292 -0.0005645779086981351 0.0
0.001389779672999332 -0.0004645527079281785 0.0
0.0013895624827624361 -0.0004875902796338255 0.0
0.0014238878615749934 -0.0005029339268251651 0.0
0.0009429027163585189 -0.00035747761828149326 0.0
0.0013543330532705493 -0.00047258999492957843 0.0
0.0017461192821184963 -0.0005230345244779878 0.0
0.0025019007036442935 -0.0002533470705228379 0.0
0.0025579641253027576 -0.0002952363134096237 0.0
0.0025391702449104603 -0.00033253436726636597 0.0
0.00258284483768751 -0.0002580592276028617 0.0
0.00035750248411350427 -6.910146687826598e-5 0.0
0.0010204321438998575 -0.000511665511402522 0.0
0.0009912066510274263 -0.0005165348132674796 0.0
0.0010240588530625037 -0.0005369046817097639 0.0
0.0009962244678148758 -0.0005421429755468513 0.0
0.0022149054356515267 -0.000297880308315235 0.0
0.0006251811452512201 -0.00040797708118899234 0.0
0.000559615636551868 -0.00035808458091474225 0.0
0.002886175759721268 -5.222595819948232e-5 0.0
0.00016894575941108248 -2.0485880418359658e-5 0.0
0.00016745904143347933 -1.1081446715904505e-5 0.0
0.0019065902822396367 -0.0005663734368339362 0.0
0.0019014113218378693 -0.0006020860632838029 0.0
0.0015493266453337061 -0.0003803624888516169 0.0
0.0028577796846363437 1.8506884749627337e-5 0.0
0.000566800774179827 -0.0003822938369324917 0.0
0.002301803214679379 9.24515754435506e-5 0.0
0.0026803501701918708 -0.00019273967670267156 0.0
0.0027158131788052966 7.814324352676101e-5 0.0
0.0027473497535744256 7.151054875863301e-5 0.0
0.0021422408954251786 -0.0002962357444065232 0.0
0.0022973640995787967 -0.00030278555405146353 0.0
0.0023281786997247887 -0.00030249513871029445 0.0
0.0020519131506032406 0.00010225747964988548 0.0
0.002111875937217553 9.414185304747197e-5 0.0
0.0021865683647893674 0.00010950337132139293 0.0
0.0017596070034398312 -0.0006228698047074599 0.0
0.0008699707231279714 -0.0005059472034837358 0.0
0.001317591005575008 -0.00035052895627165194 0.0
0.0018991199874868723 -0.0002923939220327878 0.0
0.001666714285435336 -0.0003887818686237168 0.0
0.0016955059312049401 -0.0006243011665374622 0.0
0.0007693492493716989 -0.0004534077643457598 0.0
0.0009739180535897342 -0.0004212234149427489 0.0
0.00040225508483932953 -0.00014824694417757238 0.0
0.002897880406942377 2.0832333927419166e-5 0.0
0.002204888084792207 -0.00035141003380850897 0.0
0.0002754737877402188 -0.00011158996726268918 0.0
0.0008034732693402485 0.0001993851018596192 0.0
0.001683543852833123 -0.0004988829845368481 0.0
0.0021966731178845525 -0.0005263110124639197 0.0
0.00217046991424412 -0.0005152161433390846 0.0
0.0019475248105608862 -0.0003982773409662935 0.0
0.0020528656915075037 -0.0002421361312103928 0.0
0.0008946225264355419 -0.0002961302513196714 0.0
0.0013889895446874655 -0.0005153519711657765 0.0
0.0018815010578225452 -0.0002543527271075717 0.0
0.0009697869062034653 -0.00039966786442526437 0.0
0.0009375500468313181 -0.00040194602252150715 0.0
0.0007750208916557257 -0.00047851338390144375 0.0
0.00049202665917776 -5.209284789699707e-5 0.0
0.0004945558636673836 -3.110567295035261e-5 0.0
0.0002274826625604955 2.9257106331846134e-5 0.0
0.00031381811949199453 4.596157282645802e-5 0.0
0.00241215576327692 -0.0004277011104951452 0.0
0.00036324680010004537 -0.00015629569937694688 0.0
0.0005266966345860245 -0.00022733674111503487 0.0
0.0004839299837184822 -0.00020479852794619795 0.0
0.0025535359727860397 -0.00025793448932148006 0.0
0.001278358708875986 -0.0004647459000277338 0.0
0.001633217531572207 -0.0003567879155203006 0.0
0.001987550052580768 0.00010547505066812162 0.0
0.0019675638603643556 0.00011858006761698451 0.0
0.0019121915903180025 0.00010971333879233769 0.0
0.0018940407339974688 0.00011682588688289597 0.0
0.00194448405992812 0.0001184437115166282 0.0
0.0022062260740225823 -1.3717110081135554e-6 0.0
0.002270242665779359 -9.424978732678622e-6 0.0
0.0022890930290876393 1.4198287314383324e-5 0.0
0.0023479314141638145 4.937918726601145e-6 0.0
0.00233003111713282 -1.8555945232690335e-5 0.0
0.0001384471305697525 -4.1204421016441843e-5 0.0
0.00222869228825092 -0.00027557631971687735 0.0
0.00038792709268400884 8.637519395937795e-5 0.0
0.0004138531042643603 9.874534022549771e-5 0.0
0.0018220429826278591 -0.0006184116994849991 0.0
0.00010837568828384778 -9.584770967371943e-6 0.0
0.002450671836928828 -0.00016152052344247202 0.0
0.002509616812517266 -0.00013898496243720647 0.0
0.0024677478768713053 -0.00013861116956051078 0.0
0.002556623321389585 -0.00013535869025703713 0.0
0.002569866186019018 -0.00011691998092132921 0.0
0.002617769951893097 -0.0001136102204293397 0.0
0.0006863000882727276 -0.00025821980851451474 0.0
0.0006851778733390918 -0.00023963920316293988 0.0
0.000639346824698831 -0.00021823574547278894 0.0
0.0006834305375456939 -0.00022134094982684136 0.0
0.0007295236996719991 -0.00024195433928332453 0.0
0.0007284640979609965 -0.0002235622707700032 0.0
0.0007739764198192195 -0.0002433195857734392 0.0
0.0008458643710791007 -0.0005093315648646517 0.0
0.0007733737031152382 -0.0002244268587609368 0.0
0.0008187364581065753 -0.0002440261378679855 0.0
0.0002238946489927282 1.4377609717372507e-6 0.0
0.0004909365210565631 -7.222591490321105e-5 0.0
0.0008174911698992495 -0.00026225934331898737 0.0
0.0006411980952581325 -0.00020197537155841575 0.0
0.002472674992548578 -0.0002534461850300079 0.0
0.0024262355825842995 -0.00027996222529066625 0.0
0.0014053513236176665 -0.0005939071477496845 0.0
0.0014044622297165821 -0.0006197831711898513 0.0
0.001842498407807446 0.00010889276432608413 0.0
0.001002592383012296 0.00014040541000277803 0.0
0.0010797528983966433 0.0001342033571123256 0.0
0.0011442823439057085 0.0001485296292388053 0.0
0.0011521820962857629 0.00012303439978951408 0.0
0.0010898643634499141 0.00010743897753366631 0.0
0.001161433841937766 9.039469004466156e-5 0.0
0.0011011467797233038 7.707467394388047e-5 0.0
0.001173130579274606 5.633074073222384e-5 0.0
0.0011124055160776707 4.695705747028718e-5 0.0
0.0011953098456536277 2.4573831859536858e-5 0.0
0.0011219592416205982 1.9491454447969114e-5 0.0
0.00119102753563786 -2.823272935213196e-7 0.0
0.0011275203564008983 -4.746756646101757e-6 0.0
0.0011940925232401113 -2.2530089672328478e-5 0.0
0.0011358602235704374 -2.7600139126301683e-5 0.0
0.0011987658987571684 -4.327106251854549e-5 0.0
0.001141016337512121 -4.793124991166041e-5 0.0
0.0011999522215005562 -6.181977998286261e-5 0.0
0.00114492843567037 -6.64577988226116e-5 0.0
0.0012014679088746183 -7.903747509488956e-5 0.0
0.0011476872701342601 -8.401599494769204e-5 0.0
0.0012020741367076589 -9.58241739760971e-5 0.0
0.0011484165834577639 -0.00010089076496465888 0.0
0.001202180902091934 -0.00011173735758327482 0.0
0.001148975922370991 -0.00011780822938916135 0.0
0.001094878029002094 -0.00010551299342492856 0.0
0.001095982637512893 -0.00012314343822561897 0.0
0.0012060592057675863 -0.00012926208353028482 0.0
0.0010874900191659158 -5.235151187798139e-5 0.0
0.0012542164819085277 -0.00010513336311465717 0.0
0.001259767560026512 -7.465320884395427e-5 0.0
0.0010436832112687014 6.505721990640477e-5 0.0
0.0012561184290018836 -3.794934600988059e-5 0.0
0.001040770259669918 -0.00010996789173096224 0.0
0.0010431366413811776 -0.0001278957601341168 0.0
0.0010972348191591575 -0.0001408571602047029 0.0
0.0010454556939388127 -0.00014578041407218285 0.0
0.001069488688948264 -1.0040298919156802e-5 0.0
0.0012599693637405343 4.983220296278464e-7 0.0
0.00103936698719606 -9.172438172793349e-5 0.0
0.0012354454401977384 6.706557730252032e-5 0.0
0.0010987698500604637 -0.0001584150706106178 0.0
0.0010474813913206751 -0.00016357009424300444 0.0
0.000994187899763995 -0.00015021481113073506 0.0
0.0009831813028605123 -9.607776328006328e-5 0.0
0.0009791836944531753 -7.598703563910465e-5 0.0
0.0011504271230520235 -0.00015263020593951477 0.0
0.0011503286748861007 -0.00016986086664253346 0.0
0.0012004968243098692 -0.00016385265473901488 0.0
0.00121607082193701 0.00013490756078139433 0.0
0.001213584171647747 0.00015359830054605944 0.0
0.0009982764611165722 -0.00016848895927399038 0.0
0.0009437672145119915 -0.00015443388965874093 0.0
0.0009407842549680788 -0.00013648664633287774 0.0
0.0008873955330482324 -0.00013967373128747455 0.0
0.0016624488510183436 -0.0006385399193097603 0.0
0.0016324518323182092 -0.0006233094829136838 0.0
0.0028113357873269604 -0.00020782210361548718 0.0
0.0017839691131616995 -0.0005062408961753076 0.0
0.0018154561321834324 -0.0005168980660413968 0.0
0.0010337882247881507 -0.00041350996982590584 0.0
0.0010701234552243305 -0.00043067535519695143 0.0
0.0025136144458941826 7.540750430045017e-5 0.0
0.0018106835576940203 -0.00030146468136171703 0.0
0.001050826072522811 -0.0001809707545659402 0.0
0.0007978040666363058 -0.00043784615709561807 0.0
0.000795142621296938 -0.000415065879404949 0.0
0.0008231954730401097 -0.0004133493789542893 0.0
0.0020085231647364774 -0.00023751104183135626 0.0
0.001859386521127218 -0.00010959579782235805 0.0
0.001237350493679756 -0.00034454973257145514 0.0
0.0011985828435665516 -0.0003506927127348358 0.0
0.0017275893380760757 -5.93991310480173e-7 0.0
0.0017218718770194833 -1.786960425525635e-5 0.0
0.0017768601055218876 -1.9978158562543135e-5 0.0
0.0017113906276829732 -3.598694386699548e-5 0.0
0.0017375963091793376 1.8195194051446137e-5 0.0
0.0018472933870103856 -0.000142172846130726 0.0
0.0018434665271049482 -0.00015885297884196087 0.0
0.0017855011798647408 -0.00016991921657939402 0.0
0.0013263827019652649 -0.0002582765387856453 0.0
0.0013666739084810327 -0.0002684457204324509 0.0
0.0013699284916817267 -0.00025201625770009025 0.0
0.0014096173488412158 -0.0002612011113156246 0.0
0.001412888059792179 -0.00024503162480287664 0.0
0.0014525336619036161 -0.00025368394938044133 0.0
0.00145607905406799 -0.0002378189261864107 0.0
0.0014974525911359128 -0.0002457967153471352 0.0
0.0014928059236292146 -0.0002625058686750102 0.0
0.0015388266846741937 -0.00025180969537391435 0.0
0.0017288634862292816 -0.00028929637507991225 0.0
0.0016861138220599999 -0.00028100953541041254 0.0
0.0016408501323993184 -0.0002915262099014114 0.0
0.001644554964043843 -0.0002732488986649012 0.0
0.00031426535423359004 -0.00011954275343551258 0.0
0.0003808063667294317 -0.00029089899702594026 0.0
0.00034834790037039135 -0.00026260317724566235 0.0
0.0003377528249049755 -0.00023852673848156607 0.0
0.0003152685894948738 -0.0002333579326595022 0.0
0.0015524811616992752 -0.00035902446064842755 0.0
0.0020967111569927064 -0.000245350169588661 0.0
0.002084864480093199 -0.00026820335454549947 0.0
0.000802561566935011 0.00016532902507933716 0.0
0.001647303919275467 -0.000151840840520264 0.0
0.0016495749886172083 -0.00013803580802934632 0.0
0.0017307202759451283 9.84184762796643e-5 0.0
0.0029346393832030294 -6.913309222721624e-5 0.0
0.0029751192698713336 -5.0246526117778405e-5 0.0
0.0030027085270193784 -4.1885252937171556e-5 0.0
0.00010449497257130698 -3.8831923013836635e-5 0.0
0.0001076637273158958 -4.4852516938367245e-5 0.0
0.0001525549228274424 -6.573936714908285e-5 0.0
0.0001138920959428686 -5.226577611770942e-5 0.0
0.00015594879072153883 -7.396276528360299e-5 0.0
0.0001182860422383592 -5.9441229723440034e-5 0.0
7.296592734007348e-5 -3.5748320455313046e-5 0.0
0.001510556721825471 -0.00036939669085641203 0.0
0.000729781799653389 -0.00020590029533237535 0.0
0.0004370300036997459 -0.00032167534492832906 0.0
0.0011987479188897122 -0.00017972460627826777 0.0
0.002774266686891126 -0.00024144996401391608 0.0
0.0027451883722649025 -0.00025060194831661554 0.0
0.0023452732229296692 -0.0002779891605502127 0.0
0.002386927563743057 -0.000272360804642006 0.0
0.0023998836229199554 -0.00024830774538867225 0.0
0.00014552887928635818 1.556380031629441e-5 0.0
0.0010914669886387639 -0.0005772602485045799 0.0
0.0007506368853244333 -0.00048115985202237794 0.0
9.84863892101186e-5 -8.12229719027081e-5 0.0
0.0001343674132617029 -0.00011620781541068074 0.0
0.0005956393064716986 -0.0001986244527680265 0.0
0.0018822609829012404 0.00010923404732979856 0.0
0.0019403886307934226 0.00010495161148108574 0.0
0.0022620969922561253 -0.0003042440999317689 0.0
0.0023568141895290774 -0.0003033915602060545 0.0
0.0010285657503048594 -0.0005619644884332106 0.0
0.001150545752029918 -0.0005894888912602689 0.0
0.001179941054355375 -0.0005836605735008414 0.0
0.0025816683551376663 -0.0003011773631559594 0.0
0.00256294493397498 -0.00033979586085450096 0.0
0.0025196389815839056 -0.00037793657506903015 0.0
0.002803829230877099 -7.845328621893328e-5 0.0
0.0027618504263799094 -8.533216359383282e-5 0.0
0.0027068744052293377 -0.00010489579816371526 0.0
0.0027149937784212434 -9.175979554249535e-5 0.0
0.000509358979756733 -0.00019153358406261394 0.0
0.002628719096259838 -9.695464483564775e-5 0.0
0.0025726378935310764 -9.957858084328551e-5 0.0
0.001823959097989043 -0.0004904788694127458 0.0
0.00032392295633916507 -0.0002550435620927903 0.0
0.00029490749655764316 -0.0002302506203573072 0.0
0.0002838135515023645 -0.00020777721767972334 0.0
0.00026387668995118935 -0.00020310335617432747 0.0
0.003011589908238743 -3.453060086028173e-5 0.0
0.0029437860801150486 -3.856593656378542e-5 0.0
0.002982850689813633 -2.6493987700228008e-5 0.0
0.002435420068615317 -0.0004359491715569595 0.0
0.0012406402599835018 -0.0002699315812717601 0.0
0.0026035319699431636 -0.00030845768815845296 0.0
0.002587089376469217 -0.00034567348907736445 0.0
0.0026249346719900498 -0.00031528178838544427 0.0
0.0026118583066423342 -0.00035425284117739775 0.0
0.0026508815865383386 -0.0003175378639397656 0.0
0.0026643395699890754 -0.00028331595553686905 0.0
0.002686378818112794 -0.00028804888899376717 0.0
0.0014375516587798779 -0.0006354312540180486 0.0
0.0014084185012431098 -0.0006480581579311393 0.0
0.0013697786904134596 -0.0006293419494553275 0.0
0.0010029790040373145 -0.0001869989634601987 0.0
8.456538883173604e-5 -4.5257021281250915e-5 0.0
0.00012217275364545643 -6.697178391046622e-5 0.0
8.889172232081472e-5 -5.140705932579206e-5 0.0
0.0010051453957407384 -0.0005719518295504992 0.0
0.0009713337308091648 -0.000548270190988784 0.0
0.0028910308847037744 -0.00016025879551163948 0.0
0.0002397919422549861 3.815343375252787e-5 0.0
0.0016008459876684486 -0.0002852881817552505 0.0
0.0016061702490599505 -0.0002663973301501478 0.0
0.002798245047223871 1.4100299090081397e-5 0.0
0.0028877716628399053 8.057389587021408e-6 0.0
0.0025994227934920265 -0.00022969280853526775 0.0
0.0005375860512067761 -0.00035717036108225066 0.0
0.0005484002863339523 -0.00038412320679263336 0.0
0.0022061166931977854 -0.00032017489748117694 0.0
0.0022493040444822505 5.593576367382509e-5 0.0
0.0029542641646648823 -0.00011439779665164383 0.0
0.0029974410698251326 -7.712809680745738e-5 0.0
0.0030147075784129687 -5.584836428623942e-5 0.0
0.0021696323536599528 8.603938104937327e-5 0.0
0.00252132891828425 -0.00022777222740531203 0.0
0.0013743138882832608 -0.0005587112866613473 0.0
0.0026032776726669505 -0.00013119727298855738 0.0
0.0024360497332299043 -0.0002586385360245393 0.0
0.0009359796821327298 -0.0003794570215273373 0.0
0.000550350550354019 -0.0003341182439123087 0.0
0.0028504011734645273 -6.86819392546219e-5 0.0
0.0023537632349485012 0.00010855597118324281 0.0
0.0009723843675619136 -0.0005723607541088404 0.0
0.00045321357945468475 -0.00017209296171072266 0.0
0.0016367849404517053 -0.00016869877355520576 0.0
0.0023869806271229763 -0.000423714234819586 0.0
0.0023761033262052326 -0.00046001894018613925 0.0
6.691706892760673e-5 -5.3448375120858855e-5 0.0
0.0018535642161352014 -0.0006032356733092572 0.0
0.0018421707675039829 -0.0006297356518208949 0.0
0.0011797320534813283 -0.0006125796854981829 0.0
0.001210697781912591 -0.0006033796258913725 0.0
0.0012089954007962187 -0.0005770447544019035 0.0
0.0012402698241838776 -0.0005955339346854523 0.0
0.0012115531627533702 -0.0006254765275146428 0.0
0.001038174685983192 -7.313962002163716e-5 0.0
0.0009771494233816263 -5.7028381684106674e-5 0.0
0.0004226666085241793 -7.117375971912445e-5 0.0
0.000900802789992684 0.00020439923956730316 0.0
0.0008956405434845051 0.00019076288622107005 0.0
0.0018582101401342145 9.050771552456845e-5 0.0
0.002318466167563765 -0.0004914927548315119 0.0
0.002284153564149573 -0.000519546035874232 0.0
0.0002719359403961047 -0.00022541680275791948 0.0
0.00024176354656499865 -0.0001962121806345459 0.0
0.0029976211911150142 -2.6205514294099916e-5 0.0
0.0004967739505390718 -0.00022456371120982386 0.0
0.00044895403385499156 -0.0002038309127676838 0.0
0.0027896891157183183 7.741043184980641e-5 0.0
0.002852445531038884 -0.00017213946083099495 0.0
0.002833149821295586 -0.00020830854374657677 0.0
0.0016866881349656081 -0.00017375745928902153 0.0
0.0019239467568648446 -0.000613703479934139 0.0
0.0018863169496438177 -0.0006387796584029276 0.0
0.0008586986467829045 -0.0002612959413320767 0.0
0.0008628763751570282 -0.00024312573673050854 0.0
0.0012402336996292806 -0.0005697761637092499 0.0
0.002612833838990073 -0.00026045796590504184 0.0
0.0015007621043102667 -0.00022968165181178822 0.0
0.0014629222943041773 -0.00022181260262380204 0.0
8.13098121611877e-5 -7.113111581482898e-5 0.0
0.0008841213327515575 0.00031754332556264335 0.0
0.0013716213609634932 -0.00023519709130236796 0.0
0.0009241863985764207 -8.118792577556156e-5 0.0
0.0009308500553121614 -0.00010060830431666019 0.0
0.0005595834348500783 -7.097724461157327e-5 0.0
0.0019005856478648544 -0.00014621066751409827 0.0
0.0012464660409771968 -0.00017390915734758915 0.0
0.0012495276025407743 -0.00015854241328820576 0.0
0.0012942195534111716 -0.00016836982693046676 0.0
0.0012962553307582065 -0.0001538959782471415 0.0
0.0013391419953656962 -0.00016182402305791563 0.0
0.0013417660448826346 -0.00014823539171616252 0.0
0.0012979551708896344 -0.0001399885184139064 0.0
0.0013438752384697108 -0.00013448997070525867 0.0
0.0013002207504609485 -0.00012656892206606906 0.0
0.0013467899047780825 -0.0001212630262318084 0.0
0.0013818416263530202 -0.00015582020059373917 0.0
0.00011608408198925983 -4.021179444280707e-6 0.0
0.0018351337111321936 -0.00017812762077889152 0.0
0.0012505311075244013 -0.00025359077136593206 0.0
0.0012232715705841723 0.00010318084835421274 0.0
0.0013081904561084781 7.184759625028964e-5 0.0
0.0013098793799118612 4.067083497345858e-5 0.0
0.0012883538648251042 0.00011298060602739058 0.0
0.0012503559421723483 3.603393138760055e-5 0.0
0.0013219617797211869 1.6891501409970704e-5 0.0
0.0013896029299043738 1.680575836520359e-5 0.0
0.0013600018279671879 8.994774512098382e-5 0.0
0.00019506850610400317 -8.763352441886171e-5 0.0
0.0002009134408763869 -9.85415302801879e-5 0.0
0.0029978916621785975 1.4817504442130412e-5 0.0
0.0028983067880325453 3.284704321905543e-5 0.0
0.0028919628374107953 3.955117467458177e-5 0.0
0.0022251729352069597 -0.0005408552012561937 0.0
0.0021843199358633383 -0.0005668507265804321 0.0
0.0007898502983470136 -0.00039274910871109396 0.0
0.000818963282905274 -0.0003905849128655704 0.0
0.0007602898257662642 -0.00039354658954773457 0.0
0.0008700909399966127 -8.897746714447988e-5 0.0
0.0013722021186176046 4.1990875129192314e-5 0.0
0.0013921102365922733 -0.00012852776175056795 0.0
0.00139185137744835 -0.00011517559011847478 0.0
0.0013489550996376356 -0.00010817805220788383 0.0
0.0013927070968353039 -0.00010311081089271016 0.0
0.001353227156098403 -9.576680236167556e-5 0.0
0.0008157231559579002 -0.0004894956741398983 0.0
0.0029891005171766146 2.3578797260029212e-5 0.0
0.0012901268355271585 0.00014029786979620517 0.0
0.0017864945749155787 8.803839058418407e-5 0.0
0.0017920900574143232 6.313615054507917e-5 0.0
0.0017211657772885469 5.405841774533603e-5 0.0
0.0009148635492432822 0.00014276432844177847 0.0
0.0011470495582752956 0.00017110084281013035 0.0
0.001082654528433859 0.00018169090403314994 0.0
0.0010456954246089432 0.00019001946838124732 0.0
0.00200892607093273 4.858383342592522e-5 0.0
0.002476936871419 -0.0004058712530043938 0.0
0.002458172412889407 -0.0004490310570114931 0.0
0.0007791822094376558 -0.0005031282999630703 0.0
0.0012711530846930977 -0.0005881921625268479 0.0
0.0012721104483169854 -0.0006134656202263687 0.0
0.0013012724243311152 -0.000606049668759719 0.0
0.0013062335892719255 -0.0006346356667434851 0.0
0.0021636205636584183 9.704511529845074e-5 0.0
0.002103418729851812 8.505587984977892e-5 0.0
0.0021856036592807103 8.085548918670344e-5 0.0
0.002249679393829381 9.027707867985635e-5 0.0
0.00165198914893008 -0.0002560320077325566 0.0
0.0016179308136169772 -0.0002480506203963967 0.0
0.0013329991096446734 -0.0006226664268106928 0.0
0.0008990416111373724 -0.00016008036658248518 0.0
5.425335618837377e-5 -3.985075375589426e-5 0.0
0.001255600451453656 -1.745453334841122e-5 0.0
0.0013142041979400788 -3.303372626574445e-5 0.0
0.0013151199344987076 -4.9969828035053334e-5 0.0
0.0013715264868886033 -4.5135698624501424e-5 0.0
0.001368815548566765 -5.899277257990582e-5 0.0
0.001370904249568707 -3.071377823227145e-5 0.0
0.0013215762663944081 -6.418364367028843e-5 0.0
0.001367671964915335 -7.187748532392974e-5 0.0
0.0014237937791656183 -4.043389980789602e-5 0.0
0.0020235186397938353 8.790633162347066e-5 0.0
0.0013246410869260537 -7.790021044149628e-5 0.0
0.0030339697480057347 -1.0144550242205224e-6 0.0
0.0011492346530940323 -0.00018658073970508548 0.0
0.0014230564535423517 -0.0005277103155500615 0.0
0.00146043912545636 -0.0005183560544565547 0.0
0.0013175644785130476 -1.612752628747091e-5 0.0
0.0013785288395758363 -1.587562629880608e-5 0.0
0.0017381933867848796 -0.00027118607322341445 0.0
0.002180214434023218 -0.00047845111157343177 0.0
0.0021420537992763796 -0.0005082909198968901 0.0
0.002133359328816214 -0.0005438007060023184 0.0
0.0021072402074930356 -0.0005368662782648768 0.0
0.0021009777103564854 -0.0005694924753540026 0.0
0.00207306455785373 -0.0005645539773286877 0.0
0.0025360445871221685 -2.069546855587633e-5 0.0
0.002482847549561982 -4.1959160577258504e-5 0.0
0.0025079739186916125 -5.8607897903051285e-5 0.0
0.002429879710704514 -6.508844733818198e-5 0.0
0.00245228825640557 -8.183752225094875e-5 0.0
0.002374697336980354 -8.981149607142748e-5 0.0
0.002398312051853801 -0.00010642339768204568 0.0
0.0023507296481038126 -7.23663676170217e-5 0.0
0.0022974225400767675 -9.746675866724775e-5 0.0
0.00247156617493296 -9.775000695658196e-5 0.0
0.002272252089698451 -8.03477615735208e-5 0.0
0.002417067529094986 -0.0001222868655415179 0.0
0.002348069654172816 -0.00013108037140908656 0.0
0.002363659633875125 -0.00014707401841199114 0.0
0.0023262308966842545 -5.579447682493132e-5 0.0
0.002454059495913542 -2.417785583099909e-5 0.0
0.0024888804081146876 -0.00011382598906338885 0.0
0.00259046434560416 -5.5253974152592855e-5 0.0
0.0025382371198538188 -9.012724757568989e-5 0.0
0.0016618592045286843 -1.628396465960897e-5 0.0
0.0011217672521539462 0.00017571786174810174 0.0
0.0001661079762558682 -8.661987069312454e-5 0.0
0.00015639794492935426 -0.00012725956976981432 0.0
0.00018843867699333376 -0.00015731257620084482 0.0
0.0013311516333719114 -0.0005977819285902235 0.0
0.0017854442491645082 -0.0002808755109307575 0.0
0.0017181775702032635 -6.327490324056972e-5 0.0
0.0016603427026058793 -7.445111185408156e-5 0.0
0.0016707890589779141 -6.087956539811306e-5 0.0
0.0016612122919563092 -8.842861295065626e-5 0.0
0.0017098181568082531 -9.347557810384868e-5 0.0
0.0016563439188436203 -0.00010290547028129525 0.0
0.001650385036103855 -0.00011663079079417789 0.0
0.001610087242878162 -0.00011076426538631724 0.0
0.0002041581361911007 -0.00015044828611932278 0.0
0.0019229388258453135 -9.276485444302893e-6 0.0
0.002342288110577716 4.4737581613017596e-5 0.0
0.0022465965947022198 4.7851742484986606e-5 0.0
0.00012326601773658889 2.1625865156327937e-5 0.0
0.0002594506924863046 5.236876599213779e-5 0.0
0.00023942764921616 4.435276345073983e-5 0.0
0.001959495836194178 -6.0556874410479165e-5 0.0
0.0002622382389070615 -0.00017741841634850972 0.0
0.00030350186780197917 -0.00020966510313358497 0.0
0.0003286957842434656 -0.0002175652264745939 0.0
0.00032486643767045466 -0.00019948612974834756 0.0
0.0003510857106197773 -0.0002023184573482218 0.0
0.0012557126834677028 -9.052706570257337e-5 0.0
0.00014300473706102407 9.673840596312682e-6 0.0
0.0006010426216709019 -0.00016733519314199592 0.0
0.0004941688540666654 -0.00015780992438513172 0.0
0.0013778557593265568 1.5573159633282158e-7 0.0
0.0003716171272351098 0.0001221140571984571 0.0
0.0021015757166068347 -0.0004965904851348338 0.0
0.0018483235131860746 -2.9863165176884647e-5 0.0
0.002914230242022107 -0.00015271410260311443 0.0
0.0023249367330865447 -0.00011421874699268559 0.0
0.0022487419839873025 -0.00012196898737394139 0.0
0.002158819198349685 -0.000554963737089435 0.0
0.0030398867043564333 -4.0752629168074735e-6 0.0
0.0029804468449366145 -1.125138201221595e-5 0.0
0.0029921794972560694 -1.4966619449611538e-5 0.0
0.002970605049838428 -6.052250977236081e-6 0.0
0.002924049225118799 -2.169086171563597e-5 0.0
0.0029629201675656263 -2.1828951636708584e-7 0.0
0.0028933279625090523 -5.850865876148744e-6 0.0
0.0029073239118016197 -1.4463312018638672e-5 0.0
3.5836308289669706e-5 -1.674911819825427e-5 0.0
0.0030617545175395037 -1.1744342187212373e-5 0.0
0.003019664541105864 -2.304050220950844e-5 0.0
0.0030452707601028093 -1.2567367356879257e-5 0.0
0.0030233840686061547 -2.4682055269242354e-5 0.0
0.0018117788919393494 4.264124652786888e-5 0.0
0.002261681709454526 -0.0005072712015742911 0.0
2.8379460218842087e-5 -1.728006865199078e-5 0.0
0.003070481271803307 -1.3107223823626508e-5 0.0
0.0010143046839484803 0.00011755761986051102 0.0
0.002470043239908883 1.7439567600454082e-5 0.0
0.0008468708766942167 -5.575698065318176e-6 0.0
0.0009166165080323766 2.1422343188073454e-6 0.0
0.0009155756736071252 3.025196464584464e-5 0.0
0.0009157031813977603 -2.2284828831905356e-5 0.0
0.0009754923488817175 -1.781222154110066e-5 0.0
0.0009920567308542125 5.722719077807997e-6 0.0
0.000986998765018214 3.513438484376512e-5 0.0
0.0009191985497996861 5.722247234329958e-5 0.0
0.0008601281384795615 8.199163276487237e-5 0.0
0.0008548692386773412 -3.5045233591980646e-5 0.0
0.002552285084353677 -0.00037569529478057186 0.0
0.003032145059171915 5.688745332465463e-6 0.0
0.0012420537917618827 -0.0005443314579298901 0.0
0.0004177147307077081 -0.00032379390821556727 0.0
0.0013658651850905026 -0.000534613438257425 0.0
0.0010572910011684077 -0.0005569678287957938 0.0
0.001059724493901447 -0.0005825768124900352 0.0
0.0014377480812339453 -0.00010922933837946198 0.0
0.0019613435976381546 -0.00010285658224916595 0.0
0.0026575477411099 8.215671729800751e-5 0.0
0.0026970703874811563 6.922968919384819e-5 0.0
0.002612497840828446 7.269080951644919e-5 0.0
0.00019538042348300828 -7.969458161415851e-5 0.0
0.00039063709900121147 -0.0003149572685490535 0.0
0.0010322067630257378 0.000233853835530463 0.0
0.0009312050692889907 0.00023101025802055528 0.0
0.0022307928025010917 2.5245261403480946e-5 0.0
0.0011458084331169589 0.00016533648137350142 0.0
0.0027723150777199707 -0.00018194633531945132 0.0
0.0013533131729685664 -0.00044975390529438747 0.0
0.0021214265298227135 2.3680621505909194e-5 0.0
0.0021737002189290045 5.15720693314495e-5 0.0
0.0009400835821721364 9.895699687028873e-5 0.0
0.0007560213261658685 -0.0005076086064342711 0.0
0.0027501320457151276 -0.00022011344341428237 0.0
0.0004600416860516302 -0.0003241691280517298 0.0
0.00048761861342380323 -0.00034715476397964166 0.0
0.0004734005964110284 -0.0003538490628914395 0.0
0.0007161433481980995 -0.00016914459054452144 0.0
0.0016928573823532871 -0.0001257693805751934 0.0
0.0019033750229677144 -7.952224197708422e-5 0.0
0.0011505246936949268 -0.00013497524569155736 0.0
0.0012017039666211838 -0.00014743732013051202 0.0
0.0029648423898846915 3.219929767962321e-5 0.0
0.0028123992878138224 6.112221414049817e-5 0.0
0.00014161071966872074 3.140773382687167e-5 0.0
3.569340659529383e-5 -1.8223724434987585e-5 0.0
0.001386239041985364 -0.00014207807561324157 0.0
4.626153633782608e-5 -1.1433967661201851e-5 0.0
0.0001112713493205316 -2.3947056915995476e-5 0.0
0.0013498529197457333 -0.0005143476110997696 0.0
0.0019530783402661898 5.730913319474648e-5 0.0
0.0011872231487520064 0.00016363341448490446 0.0
0.001874251267517948 -0.000272157990968643 0.0
0.0014018813177336315 -9.086013861093509e-5 0.0
0.002453621659276314 -0.00021942677928284794 0.0
0.0028760721850592443 -0.00013807915016092286 0.0
0.0009013235274474523 -0.0003821190561169214 0.0
0.0009052795049819831 -0.000404713921408192 0.0
0.0008687426206788418 -0.00038208656149216387 0.0
0.0008310321102906285 -0.0003597584559816728 0.0
2.9179082161475363e-5 -1.9145622672926367e-5 0.0
5.4515592151321875e-5 -3.68788152939486e-5 0.0
6.089918287692772e-5 -3.800470391755715e-5 0.0
0.0007757013040612166 -0.0002617241382314791 0.0
0.0007343608495801386 -0.00026296969555605 0.0
0.0030645340340430746 -1.2249806773484308e-5 0.0
0.0016308540235487347 -0.0006526473972434978 0.0
0.0016006271085797137 -0.0006366981386631843 0.0
0.0015991627572666865 -0.0006655897919918903 0.0
0.0015688541883068087 -0.0006494314047890113 0.0
0.00153634282728284 -0.0006607903479296533 0.0
0.0015345069317647462 -0.0006323046815327626 0.0
0.0016012409911251074 -0.0006079538943370267 0.0
0.0021073570177290173 6.007123031194397e-5 0.0
0.0003560847088365531 -5.245749343655452e-5 0.0
0.00041569672586131275 -8.781001228891542e-5 0.0
0.000361689759128664 -8.629348650383614e-5 0.0
0.0019250502403367232 -0.0002598199934298597 0.0
0.0006738979754512507 0.00017873985683966088 0.0
0.0015302624627281964 -0.00027013755511914373 0.0
4.7607950161180347e-5 -1.7426160223077744e-5 0.0
0.0009435552447262553 -0.0005498540963872429 0.0
0.000913556791262423 -0.0005478835618727415 0.0
0.0009187871810390809 -0.0005273150472452198 0.0
0.0010538049039182267 -0.0005314248767916681 0.0
0.0009015166936145689 -0.0003572154735240161 0.0
0.00040371135781678934 -0.00016342693923680318 0.0
0.0002391629347221376 -0.00012221946110747172 0.0
0.0030484954832161303 -8.09269984713408e-6 0.0
0.0030044687365018293 -1.6812228882132164e-5 0.0
0.0005994477928160608 -0.0004080349477940228 0.0
0.000718343882480277 -0.0004564234897738038 0.0
0.0006921026554457847 -0.00045838857730672326 0.0
0.0006587411007013268 -0.000433111496989356 0.0
0.0006643562388836847 -0.00045826085273951913 0.0
0.0018369514101967655 7.672393980662254e-5 0.0
0.0012770469720313983 0.0001483873628005486 0.0
0.0019585424376149735 -0.0005921756919563319 0.0
0.0019835108559170863 -0.0006041403578766689 0.0
0.0020161510834475166 -0.0005819445159536758 0.0
0.0019461014006935196 -0.0006302573776268078 0.0
0.0009733518367006812 -0.0003810759336600335 0.0
0.0017230988473267883 -0.0004846654728997142 0.0
0.0011761130574292383 0.0001672095951002156 0.0
0.0012566209852538403 -5.803613856987928e-5 0.0
0.0030717875862924676 -1.4237870443850207e-5 0.0
0.003045049519988263 -2.9605601165763903e-5 0.0
0.0030337613001741766 -3.1026580346658267e-5 0.0
0.0006322862221408603 -0.00043342098718514435 0.0
0.0006069324435126726 -0.0004325074648843765 0.0
0.0009094404521196855 -5.754912183973575e-5 0.0
0.0007982146251268766 -0.0003631808659264097 0.0
0.0028611313271887486 -9.946529183726171e-5 0.0
0.0023379505388663614 7.497305310797057e-5 0.0
0.0013756433245297754 -0.00016953753738743136 0.0
0.0014176575638274887 -0.00016232621560872786 0.0
0.0018315311463023292 0.00011052860548371721 0.0
0.0022336455409240736 -0.0004164763102349248 0.0
0.0013160863230991305 -0.00045741760613771603 0.0
0.00131779244439475 -0.0004810186884833671 0.0
0.0003364845803737413 6.004702072835895e-5 0.0
0.0007326852423479784 -0.000364289927162638 0.0
0.0006995255198226269 -0.00036132562468070263 0.0
0.0006624860341956882 -0.0003378570544530837 0.0
0.0006674833584597127 -0.0003605414180740719 0.0
0.0005620186571497556 -4.9537677819624095e-5 0.0
0.0005648187842098797 -2.687293981754568e-5 0.0
0.0006302158871921086 -9.262271644421013e-5 0.0
0.001973667145376544 -0.0006395594152257573 0.0
0.0019194677306439505 -0.0004786696552609801 0.0
0.001876399342101561 -0.0004994933923042601 0.0
0.0019133196121108476 -0.0005123620648258757 0.0
0.001870857849028296 -0.000533720570052881 0.0
0.0018963952270930104 -0.0005437702806927631 0.0
0.001953716352677187 -0.00048598277435540676 0.0
0.0019852681343130213 -0.0004906525667783357 0.0
2.4872893922735322e-5 -1.8945028729237067e-5 0.0
0.003076166481946905 -1.5965151804361914e-5 0.0
0.002497592471416282 -0.0003648122735969498 0.0
0.001787722169645596 -0.0006352241185864019 0.0
0.0028437406155762393 5.6223829049737654e-5 0.0
0.0017298520369591164 -0.0006087943437951488 0.0
0.0017240039487759055 -0.0006380693567581765 0.0
0.0022935482980176738 -0.00027582881126047524 0.0
0.0020581374161206534 -0.0002210586200461792 0.0
0.0020154399148010057 -0.00021635756303095278 0.0
0.0009576370674885972 -0.000496503341684994 0.0
0.0005646450663415076 -0.00031045106903325145 0.0
0.002292575868046976 -0.00015779162010736344 0.0
0.002394630659360963 -0.0003872664717608122 0.0
0.0010527603546397959 -0.00030401492458684705 0.0
0.0010917124512027172 -0.00029989283046069723 0.0
0.001089979558610435 -0.00031969822171498783 0.0
0.0010945806453996998 -0.00028080749584300576 0.0
0.0010514192063576903 -0.00032403273178508 0.0
0.0011297352719731497 -0.0002975631126061397 0.0
0.0011350796637430937 -0.0002797742502485598 0.0
0.0011457951667611832 -0.0002602328414882874 0.0
0.0022786410517461795 0.00011642211315056568 0.0
0.000261958825771477 5.755509196757185e-5 0.0
0.002220880237953945 -0.000105500157218389 0.0
0.002405673888829896 -0.00022838483012922736 0.0
0.0004938522772814966 0.0001340928866844205 0.0
0.00042983640603850713 -1.2912822135131264e-5 0.0
0.000631752682357469 -4.664551056828176e-5 0.0
0.0004961916445979697 -0.00028297131075725166 0.0
0.0010528762502731957 -0.0002655980729474029 0.0
0.0008191830944955261 -0.00022458181370425506 0.0
0.0008756416826502265 -0.00022510625189370198 0.0
0.0009111628355915182 -0.0002451474520353319 0.0
0.0014677655334188935 -0.0006261153368298652 0.0
0.0015022991510173452 -0.0006431720114172264 0.0
0.0015022334931129528 -0.0006742574313761815 0.0
0.0015346297896093528 -0.0006044116439972478 0.0
0.002350356429260298 -0.00041287712163127674 0.0
0.0010991934352525695 -0.00017543050641493876 0.0
0.0022323206423215643 -0.00025078484109496873 0.0
0.0010503558888886003 -0.0005064172950624197 0.0
0.0016019348599664788 -0.0005799090758618352 0.0
0.0011179184672957462 -0.0005980303184358441 0.0
0.0028356210917259814 1.0721164864339707e-6 0.0
0.0014893389768555149 -0.0002798697747643102 0.0
0.0003590919916811018 -0.00014091166496833744 0.0
0.0011317910142883017 -0.0004205396246912387 0.0
0.001168666140130905 -0.00043795422063998133 0.0
0.0010559786934953208 -0.0003859027939373988 0.0
0.001146685042418202 -0.0005391170853834423 0.0
0.0017938506332255651 -0.00036778516209862356 0.0
0.0017479966798174293 -0.0003826254378204543 0.0
0.0017874551242214058 -0.0003915789570493897 0.0
0.002195282182159597 -8.883347381900962e-5 0.0
0.0013529523177948368 -0.0004270746774260078 0.0
0.0009782259926623615 -0.000351060531903124 0.0
0.001738898528763377 -0.00016373442114659504 0.0
0.0017293212717411014 -0.00018054863709320758 0.0
0.00039095177629130295 -0.00022680721402385662 0.0
0.0008104409915527925 -0.0004653154387051004 0.0
0.0020275017749375357 -0.000545614904844963 0.0
0.0017210633395803687 -4.952715088840408e-5 0.0
0.0015772183135494035 -0.00046201360878643456 0.0
0.0015379007811896636 -0.0004734671257465543 0.0
0.0015360354590623433 -0.0004988766010462523 0.0
0.0014991446500179852 -0.00048403952517953974 0.0
0.0014984187943197994 -0.0005095017176841477 0.0
0.0015721043843670186 -0.0005127542113137721 0.0
0.0018588394089534782 -6.2368017968143e-6 0.0
0.001238783785843979 -0.00036438927562134276 0.0
0.001202039006426802 -0.0003703697021695888 0.0
0.0017134737899529462 -0.0003507723807173423 0.0
0.0010181784040176538 -0.0003887960369322898 0.0
0.001691942919542053 -0.0006526694429601429 0.0
0.0012779246193334916 -0.00044177847016268806 0.0
0.001501143056387943 -0.0004596585482841072 0.0
0.002124821934635975 -0.0005800921847671931 0.0
0.0013643848779091906 -0.0002861541568659559 0.0
0.0029088329199858935 -5.25525681839333e-5 0.0
0.0015080551151732454 -0.0003909576996396554 0.0
0.0006846981911814248 -0.0002768904318242463 0.0
0.0013648771805753028 0.00013019157705960283 0.0
0.002119999447757971 -0.00046174864728948915 0.0
0.002781294750597869 6.103525853965e-5 0.0
0.0004482900006867151 2.881925550862386e-5 0.0
0.0004666295241442449 4.829072551542229e-5 0.0
0.0005170615914522427 1.828250090655628e-5 0.0
0.000548192250923482 4.2183902187947795e-5 0.0
0.0006002017763529449 2.5495041075976807e-5 0.0
0.002173706293151137 -0.00012986817968628123 0.0
0.0012432518813306947 -0.0006241626953485956 0.0
0.0014066269895486123 -0.0002787451760355517 0.0
9.104048878898179e-5 -2.511338566280879e-5 0.0
0.0010759398164927588 0.00019153899553272561 0.0
0.0009988036567314315 0.0002001900706244977 0.0
0.002052275469550586 7.109639422153684e-5 0.0
0.0012089565242342796 -0.0005262915317848216 0.0
0.0013764578491699546 -0.0006046644164288015 0.0
0.0012007446544642694 -0.00019702084258579325 0.0
0.0016734007260194102 -0.0003419622751784924 0.0
0.0016298705795664782 -0.00033180409449633344 0.0
0.0016378681009849225 -0.00031005355686576023 0.0
0.0017374341651179516 3.614986770486243e-5 0.0
0.0011365788656726604 -0.00044359104816227274 0.0
0.0007739055601951922 -0.00020594267811292435 0.0
0.0011610212010509976 -0.00033359056712391774 0.0
0.00016034116781624757 -9.065641829706133e-5 0.0
0.0016004545304215427 -0.000159661620819744 0.0
0.0006513629281294787 -0.0004076753662010679 0.0
0.0015948212305593873 -0.0003476277002776585 0.0
0.0009646175647392515 -0.0005220087748408904 0.0
0.0021498739413398737 -0.0002252685901280655 0.0
0.0014372958643876028 -0.000346740169673007 0.0
0.0014614228366382751 -0.0004938277201696857 0.0
0.002692143556290458 -0.00016860541814806525 0.0
0.000577092193413374 -0.00040742966588043695 0.0
0.002939977882919166 -0.00014468879834081 0.0
0.0011974150853167388 -0.0002680291092881406 0.0
0.0014318560566856436 -0.00038844974856987137 0.0
0.0002673283749164241 -9.828628754493503e-5 0.0
0.0026987106461106207 -0.00011876212888237679 0.0
0.0016775079953140854 -0.0005255772072914489 0.0
9.148255844187444e-5 -2.9842104251831895e-5 0.0
0.001545114021108904 -0.0002206325959734066 0.0
0.0015424503726866076 -0.0002352028569244436 0.0
0.0028924457774730365 -3.263807932047989e-5 0.0
0.0016624306002799994 -0.0006672283813504323 0.0
0.0005346930070770044 -0.000308226144577516 0.0
0.002986862860709097 -5.463116897246758e-5 0.0
0.0015961335778121631 -0.00030204338913530557 0.0
0.0014782364273039942 -0.0003380587908758266 0.0
0.0018493268917147054 -0.0004624164913507035 0.0
0.001810534085688229 -0.00045285191394089664 0.0
0.0016897423820116245 -0.00047268554428480194 0.0
0.001403784406333946 -0.00029714883936288 0.0
0.0017312584202449773 -0.0006842673386134549 0.0
0.0018603512113598238 -0.0006732676178628459 0.0
0.001326952711867728 -0.0006624596593213344 0.0
0.0014280378438699354 -0.0006748065524039101 0.0
0.002047464582763765 -0.0006323604847317795 0.0
0.00203920937898894 -0.000597624504979719 0.0
0.0010639948574269428 -0.0006070676239078652 0.0
0.0008432826751860146 -0.0005438109746314544 0.0
0.0017960898236212403 -0.0006801098391699867 0.0
0.001132561822045836 -0.0006265078886179883 0.0
0.0012716203165868893 -0.00023829539681801144 0.0
0.0026458881614614214 -7.866440424432213e-5 0.0
0.0021517637793443778 -0.00034511791248694504 0.0
0.0021345175387503953 -0.000371160029423178 0.0
0.001089680002840742 -0.0003411072737045767 0.0
0.001853010326239188 -0.0003089590890768446 0.0
0.0014654302238893654 -0.0005428149894756079 0.0
0.0007652745204853031 -0.00042952612247680437 0.0
0.0005723815661480121 -0.00025050732936191217 0.0
0.0012781041914376257 -0.0003378154368607273 0.0
0.002703751551422337 2.1298733599695813e-5 0.0
0.0010561691851095705 1.4994771458963655e-5 0.0
0.0014494678922885662 -0.0002707958113839261 0.0
0.0017090710073772628 -0.00037462382871010437 0.0
0.00021177221729633646 -0.00016907884853728975 0.0
0.0002198279988196784 -0.00018890300429670178 0.0
0.0012780360841367366 -0.0004882806966092419 0.0
0.0010749635584365327 -0.00045451516439022095 0.0
0.0015466254883802746 -0.00040250696435113346 0.0
0.0028688260195579613 4.843637436173247e-5 0.0
0.0016341730986926429 -0.0005945498130495699 0.0
0.003039070254526538 -4.414389828620746e-5 0.0
0.003016529081757846 -7.031502776918666e-5 0.0
0.000841635165731824 -0.0001451265187581506 0.0
0.0013169107804240758 -0.00037063243315147527 0.0
0.001390143720104232 -0.0004413472590991515 0.0
0.0029508967188521733 1.0736910765875617e-5 0.0
0.0014511934174874141 2.1053616361087186e-5 0.0
0.0020241924092665605 -0.0004704206574222783 0.0
0.002090957808760061 -0.00039284534475986075 0.0
0.0008275826014032909 -0.0005166593443189796 0.0
0.001920750923983655 -0.000366964768743645 0.0
0.0013184153478174553 -0.00033085980377777434 0.0
0.0020162860037179226 -0.0003314013558880932 0.0
0.002005718945346102 -0.00035549122439303707 0.0
0.002064390063544484 -0.00031304067028825144 0.0
0.0006945274946424691 -0.0004840148220061778 0.0
0.0024162623896559626 -3.5195452118939884e-6 0.0
0.0017519931911195448 -0.0006553742082690831 0.0
0.0024930597382053768 -0.0004185988366800943 0.0
0.002277409032649345 -0.00025092312899166306 0.0
0.0014695505362805345 -0.00020650368698665113 0.0
0.0018679566368456513 -0.0005682611118530005 0.0
0.001171958292004292 -0.0004608729010697083 0.0
0.001230411695934801 -0.00028581514355497333 0.0
0.0028587955002477936 -2.533647573550147e-5 0.0
0.0006522597603457722 -0.000186986812133835 0.0
0.0021944401942403345 -0.00014595351550727206 0.0
0.001454774573485517 -0.0001373072791508514 0.0
0.0018944642346846975 -0.0003146153377476634 0.0
0.002738318148016405 -7.449989350976973e-5 0.0
0.00023766325033614777 -0.00010160374801301756 0.0
0.0021913585093635375 -0.000376996226317111 0.0
0.0016586112516091506 -3.176552015613163e-5 0.0
0.0016432593737169823 -4.582381050683474e-5 0.0
0.0018065361321768915 -0.0005455183286595921 0.0
0.0016628675548954518 -0.00041228503309898826 0.0
0.0017088878198852993 -0.0005381176448124495 0.0
0.0022212457187708538 -0.00045068523029478084 0.0
0.002253610540757339 -3.419369812327411e-5 0.0
0.0014615681254658362 6.43948009292963e-6 0.0
0.0020219965525659907 0.00012125450015377563 0.0
0.0026312751606649446 -0.00022574210349517645 0.0
0.0026461623903234997 -0.00019893925550757948 0.0
0.001456424905309041 -8.206564233256139e-5 0.0
0.0009780638986945465 -0.00044373272631829946 0.0
0.001985929402703843 8.346262682055586e-5 0.0
0.0014629908892691702 -1.9546834491322278e-5 0.0
0.0019109432126474101 -0.00039151425775438796 0.0
0.0029919642995426296 -6.468115995277496e-5 0.0
0.0005086706415817774 -0.00032888052905962796 0.0
0.001850650955057108 -0.00019383477592852335 0.0
0.001462882444187302 -4.9977510620595156e-5 0.0
0.0014566570663638598 -7.217920934868784e-5 0.0
0.0005135054321727313 -7.3976443747542764e-6 0.0
0.0026824255736438867 8.113221229422093e-5 0.0
0.0015651667982920906 -0.0001414476341860815 0.0
0.002728929208640255 -0.0001620972141127384 0.0
0.0009422016142518953 -0.0004240782633973034 0.0
0.002306599344801088 -0.0005339116980785964 0.0
0.00236960270336107 -0.0005117620468868822 0.0
0.0008562976042957987 -0.0004340594202471439 0.0
0.001981925609713393 -0.0004047320791791899 0.0
0.0012938303538883693 -0.0006577956590511548 0.0
0.0019027441053281104 -0.00011820427446456663 0.0
0.0005541577692536918 -0.000419755614729071 0.0
0.0015849870875986095 -6.46567285564179e-5 0.0
0.0016415532363023063 -0.00018406883420032672 0.0
0.0016133424608507437 -8.363839717983012e-5 0.0
0.0017433287531148293 -0.0004073057514745011 0.0
0.002120400269442877 -0.0003971281452354395 0.0
7.730940123492327e-5 -7.541799254694012e-5 0.0
0.00013271534331296773 -0.0001268437643983525 0.0
0.00015884363752379817 -0.00014993740291793664 0.0
0.0028399239771075323 -0.00022903331675228324 0.0
0.00021283007494797578 -0.00019674687677483807 0.0
0.0008762830880895051 -0.0004062098150370795 0.0
0.0003951968203990598 5.0269945088355e-5 0.0
0.002524307540099693 -0.0004349579580302221 0.0
0.0004705894119358602 -0.0003724832869999178 0.0
0.0005271249908229762 -0.0004052255133082579 0.0
0.0028078377925712626 -0.00025185843685900176 0.0
0.002744436367981914 -0.0002994468578799684 0.0
0.001625368176184578 -0.00023172684100185637 0.0
0.0011779157988059852 -0.0005587216249948567 0.0
0.002242450401327914 -6.112209642841038e-5 0.0
0.0025869756875891866 -0.00039732033503235293 0.0
0.002618510587110062 -0.0003794955908554944 0.0
0.00041625362082997846 -0.0003421504409754424 0.0
0.00029089076999628914 -0.00025532172470990513 0.0
0.002682128099594352 -0.0003396613869792693 0.0
0.002708308086468257 -0.0002931592115782884 0.0
0.0018147299023760254 -0.0006505514275132249 0.0
0.0003442533492696391 -0.0002942244256184422 0.0
0.002203152678934894 -0.000584711727079059 0.0
0.0005758693124229794 -0.00033484961299378455 0.0
0.0025078737085013183 -0.0002864016014118271 0.0
0.0008779060417233222 -0.000533061864626451 0.0
0.002328432634675812 -0.00040275509207402427 0.0
0.002404433685518391 -4.805003065877106e-5 0.0
0.0008576143276203533 -0.00029755861922155415 0.0
0.0005807438319404971 -0.00027070367437498436 0.0
0.001109058251008348 -0.0004727919976302702 0.0
0.0014689198407744916 -0.00040103793591477903 0.0
0.0025378815335280252 -0.00015487139615484493 0.0
0.0015678861368135586 -0.0006203983252618616 0.0
0.0016052318600430133 -0.0001465855977653798 0.0
0.0015955532123604877 -4.316246152822556e-5 0.0
0.0020354535963931558 -0.0002856707309872216 0.0
0.002337276160928574 -0.0003320021176586485 0.0
0.0008442977099118369 4.959537851618625e-5 0.0
0.0019227670268714726 9.414906935263711e-5 0.0
0.0009330941701862108 -0.0002943059401025875 0.0
0.0025481131708543986 -0.0002282838670312376 0.0
0.0006094013906931356 9.416897541035088e-5 0.0
0.0005146365442968225 7.026998109058794e-5 0.0
0.0013040573607987068 -0.00010031538045025201 0.0
0.002674818018619722 -9.4692572728671e-5 0.0
0.0014410072582328967 6.067446159329875e-5 0.0
0.0015560069304677217 -0.00017791739586214697 0.0
0.0028294786115673678 -8.31662617003061e-5 0.0
0.0007870028427335655 -0.00029897526175149476 0.0
0.0009682186214872169 -0.00019794896935512504 0.0
0.002189630744925028 -0.0002745543308283297 0.0
0.0024090451432218383 -0.0003081231841367866 0.0
0.0006846962904088674 -0.0002971896924277921 0.0
0.00040597333415032304 -0.00025044901238572485 0.0
0.0023092347277546333 -0.0003292835727883063 0.0
0.0009922996679838157 -0.00013269963240689263 0.0
0.002309992948523891 -0.00018500874048595707 0.0
0.003047258814808653 -3.220037095247174e-5 0.0
0.002525207315496996 -7.454211062533548e-5 0.0
0.0016229153443394842 2.717608752134975e-6 0.0
0.00167375656607612 6.806068507073496e-7 0.0
0.0018870837669726713 -0.00023549649265418353 0.0
0.002774345293412398 -1.620542917582568e-5 0.0
0.002725685084610566 7.5256951103679385e-6 0.0
0.0001282417208054363 -8.228837787648007e-5 0.0
9.618080745996095e-5 -6.007664027940813e-5 0.0
0.001209121446592653 -0.0005513485114626537 0.0
0.0019577104728829148 -0.00037361545308996636 0.0
0.0011008566491817347 -0.00020908159318304819 0.0
0.0011007981316529434 -0.00019245516209183877 0.0
0.0010942245962235761 -8.849786846202414e-5 0.0
0.0015355506565056384 -0.0005246890516093694 0.0
0.001802861888172548 -0.00020802916098227217 0.0
0.00048394554868554004 -8.988947008666882e-5 0.0
0.002126462502433512 -0.0001537484904265626 0.0
0.0016474084431610987 3.3340416756180675e-5 0.0
0.0012776394837758583 -0.00035760796478238573 0.0
5.174770224234666e-5 -5.968990301217006e-6 0.0
0.0014712762649106343 -0.000379211981259036 0.0
0.002811948938378782 -9.774064500001344e-5 0.0
0.002396850873495619 -0.0001844893816022926 0.0
0.0022772844854269357 -0.00013841514633474884 0.0
0.002688556889006514 -0.00013456795282870267 0.0
0.0019542636843596006 -0.00016511818716561535 0.0
0.0010820797527917772 -3.322829323660571e-5 0.0
0.00035419784965592125 -0.00012624828050379318 0.0
0.001323771102321024 -0.0001881208222564152 0.0
0.0016627855779645867 -0.00023914908309924596 0.0
0.0004424280465406198 -0.00021731508852611313 0.0
0.0013944654435673 -0.0006714463007697522 0.0
0.001889147336600373 -0.0001645563835933914 0.0
0.0009122493529001933 -0.00042725774588604564 0.0
0.0020478123637973915 7.164032284226132e-5 0.0
0.002577807693949033 -0.00015089201334730158 0.0
0.0009876284601666387 -0.00011437999336731496 0.0
0.002244414712247917 0.00011837416572472259 0.0
0.0017209217337532633 -0.00019706049847344418 0.0
0.001473985951972698 -0.0003581408407038655 0.0
0.0005434764520254995 -0.00010919509060460856 0.0
0.001011218849985546 -0.00021575484762785324 0.0
0.0013421161760440092 0.00012062719446269436 0.0
0.0004127705702692927 6.586447584624737e-5 0.0
0.0022636016746013583 -0.00027486583174737215 0.0
0.0005989157159567031 -0.00021577435571328984 0.0
0.0015151124914673316 -0.0003490332205097031 0.0
0.0025439587383809777 5.96007007657271e-5 0.0
0.0021511809943485483 -0.0002726729738652653 0.0
0.0010339960129048722 9.226256736367994e-5 0.0
0.0001856175616962403 -5.0251401948335175e-5 0.0
0.0007729211920340302 -0.00018730656658173372 0.0
6.851558009342173e-5 5.285652934819032e-6 0.0
0.00014212592625820658 2.476287116712234e-6 0.0
0.0021409207083635307 -0.00025178258368089266 0.0
0.001772523910676702 -3.519370493240696e-5 0.0
0.0009978159016638317 -0.0005951444809003829 0.0
0.0007005439711602786 -0.00038524405215139716 0.0
0.0025206002216925745 -0.00012039948976916077 0.0
0.000354726880927226 -0.00028552747617819187 0.0
0.002072116984410039 -0.00029089491242897307 0.0
0.0017144509084190888 -0.0005113304292029274 0.0
0.002493794524614319 8.908601866260025e-5 0.0
0.000896033970444494 -0.0005030234006090814 0.0
0.0027028827431956437 -0.00025242740377975665 0.0
0.0015588573129673047 -0.0001658364364271059 0.0
0.0005066641323848206 -0.00037450070934064546 0.0
0.0020731527495036575 -0.0005974991782737174 0.0
0.0005096799842832338 -0.00024524908709661725 0.0
0.0028887093753493663 -9.344123022153228e-5 0.0
0.00036680395765657537 -0.00017130552062523594 0.0
0.0021354021888570977 2.4625242203270237e-6 0.0
0.0019581476296373548 -0.00014641893188113136 0.0
0.001598840386542403 -2.134975553296732e-5 0.0
7.097975676280373e-5 7.96951550583241e-6 0.0
0.0012211462224460147 0.00015946946948206566 0.0
0.0008307140653258323 -0.0001240801724532891 0.0
0.0023964283784940355 -0.00046828061435814716 0.0
0.0024297324530935015 -0.00048712177835521776 0.0
0.00022803167471787932 -9.65563201310079e-6 0.0
0.0017698557034107121 -0.00018640147014354605 0.0
0.0007300082532377788 -0.00038636517135597016 0.0
0.001241152614216959 -0.00038449811938050856 0.0
8.10488459500809e-5 -5.687048681448949e-5 0.0
0.00017074993787266358 -3.0070454815282097e-5 0.0
0.0016957405041772798 -0.0002633371504667481 0.0
0.0015565512901938605 -0.0003386645383832712 0.0
0.0001109541141898848 -1.660403821999056e-5 0.0
0.00030304727334415685 -0.00010390894907134663 0.0
0.00023882147772392464 -0.0002168894637852078 0.0
0.002527259590768414 -0.00025555882629082094 0.0
0.0019931092729490616 -0.00037976225087795677 0.0
0.00036821856690851245 -0.00022571922282624618 0.0
0.002371069135235989 -3.327909872101963e-5 0.0
0.002176512918071028 -5.165775023544444e-5 0.0
0.00016973148540309888 -0.00014904655557294695 0.0
0.0012629337639488902 -0.00013207553445989675 0.0
2.1799791193772644e-5 -1.9903680391931664e-5 0.0
0.003076921111466726 -2.1024031340419847e-5 0.0
0.0029833704516622926 -3.564660023641737e-5 0.0
0.0009071814291546486 -0.0005674576411914204 0.0
0.0023758506637020418 2.5812190193504856e-5 0.0
0.0019926464799346687 -0.00046331648600537204 0.0
0.0004049938688762263 -0.00017862763754707267 0.0
0.0018908948830851833 -0.0006682830729536553 0.0
0.00043443552963279297 -0.00010563675190036482 0.0
0.0026625594367268917 -0.00011023940534556543 0.0
0.0012026809347103259 -0.0003899530334525427 0.0
0.0001202063246295936 -7.164910117520757e-5 0.0
0.0014154172496403056 -5.4954068256104933e-5 0.0
0.001412672183172231 -6.67789470626325e-5 0.0
0.002800906474806926 5.112074750966049e-5 0.0
0.0017050885357495604 -0.0003979191247891522 0.0
0.0002177732692939692 1.1010028340829625e-5 0.0
0.0026714118012825107 -0.00032288967704164007 0.0
0.002827949930835888 -6.420852363524875e-5 0.0
0.0021583041419601474 4.648147930247765e-5 0.0
0.002216091341912951 2.5705724750383482e-5 0.0
0.0013039767278440284 -0.0005801865599047685 0.0
0.003006237040580995 -9.234317848535657e-5 0.0
0.0013017408089330716 -0.00011357376100868203 0.0
0.0003017048948467048 7.171632134387716e-5 0.0
0.00036108732348396103 -0.0002455628061758976 0.0
0.0009297636210234257 0.00012429958305776718 0.0
0.0026794906481777954 -0.0002501869635131635 0.0
0.00015699556715958603 2.197775806977936e-5 0.0
0.0016050496773010222 -0.0001342675659639477 0.0
0.0024099247010667063 -0.00016178757030532726 0.0
0.0019292446299810112 -0.00024255905908109044 0.0
0.0030272591940126046 -2.621923396154048e-5 0.0
7.271773178100258e-5 -3.198186907748263e-5 0.0
0.0028434827484281277 -1.4934861055802519e-5 0.0
0.003037573060463017 -2.6204708705165674e-5 0.0
0.0014696750864558426 -0.0006518653185284603 0.0
0.001745856802046665 -0.00025311343096246993 0.0
0.0010509777318956864 0.000179632765714441 0.0
0.0007211030827516344 -0.0002974602918254135 0.0
0.000953602934012828 -0.00017481049966037751 0.0
0.0012542266710192207 -0.00014515607252719705 0.0
0.0006153342788921596 7.74415864418219e-5 0.0
0.0011049364109744007 -0.00044852189725986364 0.0
0.0005520990658102104 -8.920274161913773e-5 0.0
0.0003776250775830251 7.908902389622449e-5 0.0
0.001418906184513744 -0.00022970901087888675 0.0
0.0021627643576616093 -0.00037433635520125276 0.0
0.002573713522634721 -0.000229711217073851 0.0
0.0010300792454804942 -3.674283893061491e-5 0.0
0.0007115386686826734 0.00014541206513049408 0.0
0.0016688462425441819 5.487846982809971e-5 0.0
0.0008859475803202745 -0.00012155395657839127 0.0
0.002441222935901098 -0.00023963881511795309 0.0
0.0008918684619960727 0.00018110136479322026 0.0
0.000805238413576865 0.0001749270937971423 0.0
0.001670916995265443 -0.00036531880367172883 0.0
0.0017189641210188416 8.848020307491252e-5 0.0
0.0011928217066557458 -0.0006404462914758361 0.0
0.0022688504218188865 -0.0005578840693514171 0.0
0.0008181551394994694 -0.00027997707462326513 0.0
0.002110173520006112 -0.0006177750781847227 0.0
0.0006601022223736935 -0.00011493365802891271 0.0
0.0024841806311895866 -0.00023270580643539417 0.0
0.001163854743070322 -0.0003749646786775394 0.0
0.002650050470730915 -0.00014198891265424274 0.0
0.0007230323335885326 -0.0002793694380322186 0.0
0.0012670942024758153 0.00015043393121104312 0.0
0.0010923536717727994 -7.057741688062598e-5 0.0
0.0013565225248496928 -0.0004941355082547538 0.0
0.0014470585762231141 -0.0001723705081601762 0.0
0.001410181793506202 -7.794454465822718e-5 0.0
0.0008391010788143884 -0.0003838424874116342 0.0
0.0008494553344587811 -0.00040959628996630436 0.0
0.000549693058408875 -0.00019450948631113152 0.0
0.000818591678320684 0.0002316691557127471 0.0
0.001405530925178743 -0.000569987256602914 0.0
0.0026845911173395583 5.562569042526064e-5 0.0
0.002382011447484345 -0.00030584119970291675 0.0
0.0016809009872759705 1.632051120219229e-5 0.0
0.0007827570418191536 -0.0002808097192532258 0.0
0.002102848062679493 -0.00022233859190853319 0.0
0.0017543689103061942 -0.0004960444906245347 0.0
0.0011619269795609033 -0.000353789954244258 0.0
0.0028602947418019734 -7.748621858505079e-5 0.0
0.003008106943634534 -4.8493354795191414e-5 0.0
0.0010542166677619197 -0.00019744277506674585 0.0
0.002004337201522354 -0.0006172618389367959 0.0
0.0027421530839982933 -0.0002777246944878717 0.0
0.00013843316306720227 -3.5271946032564855e-5 0.0
0.0007271812234842372 -0.00018827949549553403 0.0
0.0008566980835723873 -0.0002794037612567209 0.0
0.002797840345652605 -0.00023910608407084037 0.0
0.0010995959679696622 -0.00042400914186349864 0.0
0.0019282046713109153 8.19500606909245e-5 0.0
0.00030195189023306815 -0.00024933193149605254 0.0
0.0017623223306963641 -0.00029915430326106 0.0
0.0025683975973425067 -0.00020396012045003468 0.0
0.0020379420467942825 -0.0003606664023823005 0.0
0.00291038894415205 -7.445053947893424e-5 0.0
0.0020481342321779284 -0.0005587934099159349 0.0
5.249910496326788e-5 -2.9363534372799905e-6 0.0
0.001350401678512505 -0.00022220209030819764 0.0
5.613781332174723e-5 -3.2191061586642284e-5 0.0
0.000977735258641629 7.904138219810768e-5 0.0
0.000642718042783241 -2.7053219322817716e-5 0.0
4.8591982862723334e-5 -4.1735325976357465e-5 0.0
0.0007850100967228843 -0.000525695932228609 0.0
0.0007268330652749308 -0.0004802305757750333 0.0
0.0013089831287173923 -8.851573523748987e-5 0.0
0.0013248047390619882 -1.1631502896232787e-6 0.0
0.0005350830771324148 -0.00039109177247506854 0.0
0.0009365081893384894 -0.00011866465813955097 0.0
0.0018039048209949871 -0.00019393431784309282 0.0
0.0005390675119686618 -0.0002474768803359595 0.0
0.0020046106795285693 0.00010857271644469773 0.0
0.0017980190210671692 -0.0004794880820817104 0.0
0.0003943268178864834 -0.00010535277040169802 0.0
0.00023468948768692248 -0.00017742188685161838 0.0
0.0015672059189702902 -0.00011820015409374605 0.0
0.00011096123527850172 -9.92615556571725e-5 0.0
0.002949934835594133 -2.4643133563594074e-5 0.0
0.00105154209181746 4.031104411659584e-5 0.0
0.0014289136178698232 -0.00021248209672298558 0.0
0.0026396737544944586 -0.0002808343250022011 0.0
0.002900890337366541 -0.00018184494858765226 0.0
0.002422711987706773 -0.00013897498352828346 0.0
0.00140095872063562 -0.0005442793849515002 0.0
0.0018329807985780241 -0.0002826949241416481 0.0
0.0025734823314900067 -0.00038144137406660337 0.0
0.0015326509066011533 -0.0006850233432292405 0.0
0.0025345200217482032 -0.00020752846521813415 0.0
0.002049138003211795 -0.00033691347516730144 0.0
0.001062144344517649 -0.00040633019999570364 0.0
0.001826515195483513 9.628103489742262e-5 0.0
0.0011206782653421293 -0.000335734097065393 0.0
0.0009441438932492859 -0.0005284084993789324 0.0
0.001407960965061242 -0.00017713479232123864 0.0
0.002344916521205206 -0.0004925480020113254 0.0
0.0005441726101270132 -0.00017786994130308578 0.0
0.0004494743984337281 -0.000345499418090188 0.0
0.002210400352500125 6.399700598704969e-5 0.0
0.0006866234764782161 -0.00020532785305956038 0.0
0.0017724747565821368 0.00010318163490519172 0.0
0.0010179798086398558 0.0003528510312507557 0.0
0.002306919042237761 9.831801359467342e-5 0.0
0.0026473044530001023 -0.00012782245835863288 0.0
0.0014731197392879123 -4.0440438263301226e-5 0.0
0.0023638848370302725 -0.00016389665145368523 0.0
0.0018418941929686076 -0.0005251387127152466 0.0
0.0019477783904963645 -0.0006614130441606527 0.0
0.0008962883063572747 -0.00027726300099242536 0.0
0.0009666975874297659 0.0001904700475197025 0.0
0.0005962235509290698 -0.0001826282033343554 0.0
0.0006688227922057702 -0.00047872241708395163 0.0
0.001324675489460248 -0.000244196985033194 0.0
7.339670567203772e-5 -2.9397617908360495e-5 0.0
0.0005159881604890273 -0.00035827596466504535 0.0
0.0014607732355610534 -0.00010112842608615685 0.0
0.00018255784129551903 -0.00010835240863183874 0.0
0.00017430505808577247 -3.915954420744848e-6 0.0
0.0015893005522791771 -0.00033030137479706005 0.0
0.0016067513135666416 -0.00012288954356176772 0.0
0.0028612384720428023 -0.0001938747043908298 0.0
0.001256856207428762 -0.00011932537340997018 0.0
0.0021802695710650493 -0.00034824350095752945 0.0
0.0016236909455176593 -6.831655709431998e-5 0.0
0.0004249916642032989 7.675186252301191e-5 0.0
0.0005517577673782973 6.031630628969442e-5 0.0
0.002958315956474133 -5.273610355220303e-5 0.0
0.00187810812509133 8.87862384591319e-5 0.0
0.000444877567502481 -0.0001848740486391369 0.0
0.0018500475642759457 -0.00012593845514270513 0.0
0.0014141548831195293 -2.641648258987838e-5 0.0
0.0015893763234894344 -0.00017095584621298164 0.0
0.0005561233120477266 0.00013924570732904231 0.0
0.00159788896041495 -0.0006900350652047875 0.0
0.0028091176300940445 -3.572567075955865e-5 0.0
0.0015657813699795978 -0.00027793045694194085 0.0
0.0015683141780960346 -8.571385001941278e-5 0.0
0.0019892566957662246 -0.00020658051743506598 0.0
0.0013608929665985827 -8.398200267033793e-5 0.0
0.0015742814548870773 -0.00025861941533034994 0.0
0.000765285734311995 -0.0004122625626578866 0.0
0.002095585062781314 -0.00031763683944267 0.0
0.0012462340198223787 -0.0001990524126635456 0.0
0.0015655768234943727 -0.00010763556506255103 0.0
0.0024569168644196647 -0.0004769770526421286 0.0
0.0013326993201745374 -0.0001740743401362343 0.0
0.0018673280751060864 -9.403801820212824e-5 0.0
0.001631656082831675 -5.7611110730346964e-5 0.0
0.0002469416935869367 -0.0002117349047533852 0.0
0.00239765952001645 -0.0002836837820576098 0.0
0.001618322039714253 -9.695955352359068e-5 0.0
0.0008949966215528517 -0.0005254114621632063 0.0
0.0017735941391875986 0.00010033071225300078 0.0
0.0021742065347387794 -0.0006010074577352492 0.0
0.0029738040590692903 3.856752721914728e-5 0.0
0.00014921617566041766 6.326013749820865e-5 0.0
0.0012912821558384519 -0.0002518588070806543 0.0
0.001717688234828056 -0.0006631892948265874 0.0
0.0010861412571758758 -0.0005956902172471683 0.0
0.0012325642819361255 -0.0006489121965540652 0.0
0.00023557829019544288 -9.266943358433249e-5 0.0
0.002220806563218205 -0.00033010463677993337 0.0
0.0009009010974935895 -0.00025892325595605083 0.0
0.0012867519635254116 -0.00018031545486722338 0.0
0.0010324210192300192 -5.4790640910100235e-5 0.0
0.0012753888132506737 -0.0006363602610436476 0.0
0.0021958184794023325 0.00011846439237342109 0.0
0.0028347749215518444 5.703736310317669e-5 0.0
0.001842393937508125 -0.0005021121318062123 0.0
0.0015594711993508913 -0.000298907619854926 0.0
0.0010000479974701978 -0.0004002217246509084 0.0
0.0016648257469443124 -0.0006920184434302207 0.0
0.0023197013314679034 -0.0002775028124104277 0.0
0.00020905450384310317 -0.00010951775840531636 0.0
0.0027644958783765764 -7.626088613609975e-5 0.0
0.0013440030009227865 -0.0006451327567395522 0.0
0.0013754958232225548 -0.0005815542070680784 0.0
0.0020842173983531232 -0.0005314736971980938 0.0
0.00305222576260278 -3.904161710499474e-5 0.0
0.001148889705734672 -0.0006113871016358546 0.0
0.0009742498786464646 -3.842841294782614e-5 0.0
0.0010166815119767862 -0.00020203676223557617 0.0
0.001974999734177522 -0.0002294672498042175 0.0
0.0029667978808079337 -2.6514956453961283e-5 0.0
0.0002549207778020636 -0.00018526729413473857 0.0
0.0015807330854967563 -0.00024176429869550295 0.0
0.0027183609592391664 -0.00025948741814943476 0.0
0.002957641723546412 5.033765833397038e-6 0.0
0.0008604616155558402 -0.00016619280447085732 0.0
0.0013753648776852184 -0.000651984887246554 0.0
0.0028719494935622834 -6.7203527437486e-5 0.0
0.0005328332216645531 -0.0003373285321054408 0.0
0.003011487851899753 -1.7988798498729016e-5 0.0
0.0009704916045702915 -0.0005915124642654088 0.0
0.0021069413284783766 -0.0002942688249756089 0.0
0.0005794299540243285 4.488105426625565e-6 0.0
0.00191497072011675 -9.608456364915934e-5 0.0
0.0029769900781932397 -0.00010303300610002417 0.0
0.002364884587155612 -0.0002564401069595275 0.0
0.0008540024616767763 -0.0005315748034206042 0.0
0.000612240885536896 -0.0004531487172594981 0.0
0.0007635797550054285 -0.00037714600465461336 0.0
0.0025203510092218313 -0.00041215241741889523 0.0
0.0023198570650572233 -0.00016698765401975934 0.0
0.0004822307876762011 -0.0001923116415011504 0.0
0.0012221484662330022 -0.00024190197204849835 0.0
0.0019699666990800027 -0.0002525392958533426 0.0
0.001178474947385953 -0.0002809244326390508 0.0
0.0029015517524345106 2.6185800268967658e-5 0.0
0.002115204646138604 -0.00013654468454806724 0.0
0.001241087039651638 -0.00018635438329383614 0.0
0.0004942176278132585 -0.00017279498630446512 0.0
0.0022482885942108673 -0.0002945849885053922 0.0
0.0018701378273560016 -0.0006207526675266155 0.0
0.0026417645628439407 -0.00034616519355865023 0.0
0.0010365671382087942 -0.0005842850506582752 0.0
0.0019606852152265633 8.690594216630631e-5 0.0
0.0011236322775092379 -0.00031522962333582023 0.0
0.001781686581462544 -0.0006608778525696659 0.0
0.002615578085850744 -0.00028038665522409485 0.0
0.0023061179813208235 -4.034053488795925e-5 0.0
0.0029023204449728766 1.2561364089724943e-6 0.0
0.0007217730174185643 0.00015559146930433087 0.0
0.0028206475195838355 -8.0020839795085e-6 0.0
0.0009861703450059374 -0.00036888621375228244 0.0
0.002598557836968995 6.324506581338391e-5 0.0
0.0018137816197284036 -2.3125255142800214e-5 0.0
0.002132223941636073 -9.59598788838331e-5 0.0
0.0009271108714873365 -0.00023504559892769688 0.0
0.0021634270550147995 -0.00016348709493284002 0.0
0.0014411482029869811 -0.0006572220132470207 0.0
0.0007996058187041053 -0.0004978188886547883 0.0
0.001642122111781671 -0.00012759768038959462 0.0
0.002295003102291205 3.212865815469408e-5 0.0
0.0013521267586640018 -0.0006113176094593758 0.0
5.286102399943418e-5 -2.8061226404830076e-5 0.0
0.002982290469859879 -3.296285342119339e-5 0.0
0.002592485628351873 -8.248683503181984e-5 0.0
0.0012707472660254816 1.495421622172706e-5 0.0
0.003024050740435018 -4.362364290605756e-5 0.0
0.0008540560147881311 0.00012726822737900822 0.0
0.001418404862855542 -1.1865587466657913e-5 0.0
0.0030752806612372417 -2.5951835695376743e-5 0.0
2.2368420697881744e-5 -2.2939957939130687e-5 0.0
7.872006140924176e-5 -5.144639112387162e-5 0.0
0.0008833687753672623 -0.0001057867835371058 0.0
0.0018618986743173683 -0.00029043250729405185 0.0
0.002131566944318329 7.06165582320904e-5 0.0
0.002349643320214893 -0.00046237255545513323 0.0
0.0029925303834260307 -3.962669980587693e-5 0.0
0.00023201788981437203 -0.00012551074275369363 0.0
0.0006430438932012252 1.0962507939027872e-5 0.0
0.001882437226883902 -0.0005905133194949723 0.0
0.0026825918743208807 -8.21044325122794e-5 0.0
0.0007874148700469772 -0.00037659422796882416 0.0
0.00017672214016968744 2.8913386489886626e-5 0.0
0.0018940117478841354 -0.00013240222672607847 0.0
0.0009255156193740439 -4.2309182676631164e-5 0.0
0.0022459042089808816 0.00010162938619940832 0.0
0.001428101106705515 -9.901669175151747e-5 0.0
0.0011681375787095446 -0.00029664457509652497 0.0
0.002722824645480811 5.8342820207233036e-5 0.0
0.002767794960872565 -0.00026589797120359657 0.0
0.0022575429974820197 -0.0005374013103518578 0.0
0.000691789765146661 -0.00019079737105920057 0.0
0.002842573216207946 -6.584978642361798e-5 0.0
0.0004739642057102973 -0.00022573234690582508 0.0
0.002872317271818036 -3.026307391147719e-5 0.0
0.0025453296733072613 -0.00040379845964318877 0.0
0.0018382157334981492 6.451830293159816e-5 0.0
0.002098850093380394 -0.0005980701100409434 0.0
0.002219170118222618 7.704040538210026e-5 0.0
0.0014091604704652317 -0.00014893265626475925 0.0
0.0007912098607661598 -0.0004723858972749685 0.0
0.0011291194832115633 0.00016977460610029436 0.0
7.066691402246697e-5 -5.050351689928071e-7 0.0
0.0029536857364545572 -3.9537390086558125e-5 0.0
0.00032519435680436443 -0.00026961736869214766 0.0
0.0022586928439256746 7.582016286064164e-5 0.0
0.000558752183103729 -0.0004066885066752269 0.0
0.002111472029193427 -0.00027552500802365844 0.0
0.0006321533031808361 4.263703708816681e-5 0.0
0.0002714684859979445 -0.00013660970432265623 0.0
0.0003953733130574865 -0.00033274270060826587 0.0
0.00035420450971552884 -0.00022851950897993608 0.0
0.0009839856257482546 0.00021715988647524615 0.0
0.0024052787152156665 1.135098922260645e-5 0.0
4.1558648839858345e-5 -3.2675417597173903e-5 0.0
0.002573197057872398 -7.290900426303665e-5 0.0
0.0023410444150704594 7.912899501983353e-5 0.0
0.0019092600802658366 -0.00027625781212154083 0.0
0.0014279636158670212 -0.00011941486395748634 0.0
0.0008108888689601848 -8.042507160288747e-5 0.0
0.0014584695871908942 -0.00016022918362770428 0.0
0.0019247296699852479 -0.0005377843541129029 0.0
0.0009361340215934977 -0.0002596379930101035 0.0
0.0007078213224552144 -0.00047885764085015475 0.0
0.0026137993944108854 -0.00020732252727018513 0.0
0.0019923175048522546 0.0001163393845109076 0.0
0.0003255033313466767 6.368323316258172e-5 0.0
0.0009205463201685403 7.872998229117627e-5 0.0
0.0020567926177918637 -0.00020740021181331206 0.0
0.0019138938945511726 -0.000642512425153846 0.0
0.0012178165890820189 -0.00025741736202099084 0.0
0.002423438338080689 -0.00046760351413821445 0.0
0.00019542292833827472 -0.00017307824677535618 0.0
0.0021172035405942697 -0.0005083392844482146 0.0
0.001029729437375565 -1.85514908833797e-5 0.0
0.002886019028905892 -0.0001781301024532216 0.0
0.0009952716510960836 5.5845670617852406e-5 0.0
0.0018835367951243885 -6.910600157453763e-5 0.0
0.0016023874512492804 -0.0003171245396404466 0.0
0.001424279851455956 1.4047682542844946e-6 0.0
0.0016761595790601837 -5.056712353826607e-5 0.0
0.0018488297758129054 -0.0006499225858555547 0.0
0.0023692666622699933 -0.0004861014133225069 0.0
0.0007567443976930355 -0.00028374398496131627 0.0
0.0017274765763526324 7.664275605403237e-5 0.0
0.001683690363315415 3.0243388280770303e-5 0.0
0.0023627853978179375 -0.00042656592148515864 0.0
0.001416311248432601 -0.0001370480375251881 0.0
0.0013867646005248798 5.73124796651913e-5 0.0
0.0007855088805845411 -0.00044878561062237275 0.0
0.0028658902675054196 -0.00017475366096071318 0.0
0.0019922935054866235 -0.0006517833553375932 0.0
0.0013549947929481297 -0.0005937021582282848 0.0
0.0029837482912659797 1.3443567847673325e-5 0.0
0.0013354496481605266 -0.000527413436727643 0.0
0.0022850495230805155 5.244121856501178e-5 0.0
0.0008111537460018069 -0.00015212279397458031 0.0
0.00200592083761487 5.485344438296434e-5 0.0
0.0005904363125956545 -1.3717638776119836e-5 0.0
0.0012913671973619637 -6.957226740872422e-5 0.0
0.0009410191254698385 0.0002860887522757256 0.0
0.0030364133953060205 -2.4845050204708e-5 0.0
0.0018553847683244616 -0.0004832757204120698 0.0
SCALARS damage float 1
LOOKUP_TABLE damage
0.45673612280762554
0.215922793777442
0.6447282789736983
0.19725799110883452
0.9755314533530728
0.9895239211787036
0.07831373605141997
0.6498732804070684
0.6473623603166598
0.6585363480390777
0.6872442512711444
0.7096647124570356
0.7381417264641374
0.765987905412433
0.7813963211699254
0.7902108730357462
0.7842754653370254
0.7753023769770058
0.7596282507172872
0.7399489368304032
0.7210891442769685
0.710305209022959
0.6912021976161824
0.6721857206176548
0.6591622122622766
0.6426340729918851
0.6192144896265106
0.5973848339934312
0.5661452667462659
0.533539608743217
0.4873338289344434
0.43077787521539157
0.19217275819564925
0.3193586277110237
0.3418366601410038
0.37698251004937056
0.39978150160176673
0.41598071387327956
0.4339535290185532
0.44592668459016993
0.4583016909570709
0.4705077342224702
0.47979125245310106
0.4901054389907645
0.5011712343003231
0.5081510849532437
0.5137200564975236
0.523074353822736
0.5330878764944168
0.5449909418051312
0.5515938407369666
0.5602820902562586
0.5682460431276523
0.5803210461493821
0.5834447219016434
0.5968512619015618
0.6018589178402963
0.6134317028681059
0.6209770474097722
0.6345902017926814
0.6372733615185822
0.6511408850073441
0.6594369540471352
0.6712183507502784
0.6791857654847803
0.688645093744327
0.6923884163216839
0.6992437116542287
0.7107905148732464
0.7185336472992909
0.7378003463659295
0.7479717095973972
0.757020035914924
0.7792130161183759
0.7893211294631625
0.8030879217663585
0.8201312266146424
0.8271249528381709
0.8460669705355565
0.8548299219467683
0.8678285684713425
0.8811610888489562
0.8897858308692291
0.8917502950089523
0.9107319859792694
0.9183181974719822
0.9424009119294202
0.9434483133993024
0.9628173432215263
0.9703729631223534
0.9737337635245455
0.9755233451372843
0.9722103564081668
0.9668382737589439
0.9597062563091219
0.9507109603462179
0.9408722854649026
0.9300605186450973
0.906124684806893
0.8865853265206904
0.8705752584228998
0.8611618014421455
0.8409172807087373
0.835452631225413
0.8156943762344604
0.8002619575868478
0.7892402699856894
0.7693200809950136
0.7622860722018825
0.7484900820586665
0.7354150723788155
0.7177475590281245
0.7198394366537613
0.6971905618744448
0.6906720369325208
0.6738206640735798
0.6626106155035946
0.6526378271339441
0.6357710099724027
0.6236901404050794
0.614648050035441
0.5998862845604787
0.581356253688944
0.5610822725912126
0.54818081762576
0.530293022866974
0.5133600981551046
0.46990780388990494
0.43392774397941963
0.41939572374889295
0.28236044513754494
0.374123240055455
0.466265715885612
0.560949340254997
0.6036396313156009
0.6257678019228631
0.6388216834392245
0.6475491608306384
0.6531680512730135
0.6575734482498697
0.6652805019090137
0.6707701236580377
0.676024506539827
0.6811301042400197
0.6856043330719429
0.687231161108367
0.6858397059221545
0.6813341491040029
0.6778629771866468
0.667879004612111
0.6651408097772493
0.6617534865749478
0.6606462446386095
0.6743059249226175
0.7004023485882293
0.7732077194996606
0.7078977053468588
0.9468065413763376
1.0048276210359073
0.992621237818223
0.9888273556315819
0.9776047574179827
0.8925341619355102
0.8078704752100561
0.7158482285708694
0.6360696445862408
0.5521193071761197
0.49081158286761245
0.4166560132321855
0.33990253480056914
0.262558675166445
0.22363449743341077
0.03676704598406542
0.1313141643122223
0.22166338323677784
0.31590483279687853
0.4119965349068262
0.5202640205701932
0.6234199439929379
0.7358991329241678
0.8471747530357459
0.9389177750792658
1.0031329338385153
0.9936237081359605
1.0003325958116986
0.9697662515716021
0.8686497530302064
0.6570046184760633
0.6438346373346264
0.8628116966181194
0.7128800837805768
0.9532634837347845
0.7948761770587004
0.9471260911059534
0.8731116332309169
0.7811626252850731
0.5902553830804905
0.7217759035848992
0.5462281546978343
0.7340345148734668
0.6823582831209112
0.5143864256392314
0.5269939344535894
0.09655835886536464
0.3729303099602222
0.6593314909420502
0.5052105741161617
0.6758269204362496
0.6652145533481536
0.6694299144121773
0.772760221937638
0.6071846531448084
0.4596066021711656
0.7304659543435784
0.6281019144663915
0.630906950522533
0.6403208572097738
0.7491694657508086
0.8381721490450598
0.9698902795656353
0.8970218509919752
0.9231198818973517
0.8180767414678889
0.6873204879182057
0.6160355932165096
0.5517543997596839
0.41851970077669765
0.6527879118021606
0.7471028365173201
0.6014446101683194
0.550330802200812
0.8616826212783604
0.8474027086699457
0.667060515524854
0.6725858997968093
0.7069658410298251
0.6789053880742905
0.4480307629441934
0.22739754522502828
0.35502833199265565
0.478263345793617
0.8858743027968379
0.9242922485071958
0.7262532292895273
0.663733646238699
0.9662486483236224
0.7547191727811889
0.572856157416116
0.6963155492519091
0.527378565130786
0.4826895715979766
0.630962576703295
0.8475897602435061
0.8993971960805819
0.5242378956541394
0.47235297732313614
0.9898279929094514
0.98075764190601
0.602886386333889
0.7340828319260393
0.296996278729849
0.4141918744936945
0.9868309003624381
0.8822635063512627
0.7709515962584467
0.7732078365268071
0.845668757700925
0.7450064480903635
0.7070887183374208
0.6824664093457505
0.6592021602370718
0.6383144510312462
0.6515993037615767
0.6206240903348498
0.6290962317402781
0.6086346246588569
0.6176164671068679
0.6108413174100539
0.5262779221068963
0.2645994779414385
0.46290373477731567
0.3060655082816613
0.4559616474805827
0.3638481129550448
0.4574934740923752
0.4032489609884703
0.4673756647843589
0.42789737684397045
0.4721387479482096
0.45168416686857116
0.48787270292589935
0.4674074695867048
0.4966469813008677
0.48328909660428643
0.5062219801029791
0.49268367576452016
0.51190051701177
0.503201166291719
0.5187988361040412
0.5138732323465188
0.5259423874497225
0.52361511807447
0.5357388379730392
0.5348187399756686
0.5446482006381981
0.5427961520269208
0.5524225768300504
0.5491327527979666
0.5587908673371553
0.5596448261072274
0.5674860164197205
0.5694850808796746
0.5758003409500684
0.5771487919689717
0.583790004791343
0.5866365054950488
0.3829554876560502
0.5930977022322542
0.48762738714391757
0.5553147225750964
0.5956825017257322
0.6024247608077468
0.6049023109869965
0.5982071959981838
0.607396556059898
0.6117095454294754
0.6089978253474096
0.5657252067987482
0.618694043469218
0.6156502935201057
0.624911770469966
0.6003580405281616
0.6097301221940756
0.6216304628727551
0.6028136931613985
0.6120084233138311
0.6325836063971478
0.6295268798989614
0.6058625335629562
0.6149807324110846
0.6408180871343581
0.6380190928338376
0.6079108594341139
0.6161761136714415
0.6498733309970697
0.6471489396856338
0.6087933592670862
0.6175152115186112
0.6593278407653871
0.6566298936332691
0.6091390337640797
0.6197707837826417
0.6099354253405288
0.5999259791109944
0.6620482621832859
0.6690521125541102
0.66563308731119
0.6524291051273624
0.5310644990600669
0.6623809559331466
0.6480348734796426
0.6581928010032821
0.6210348804049062
0.6122964741989424
0.6274290888652145
0.6787682086822996
0.620573083504961
0.6108868487652658
0.5184635126329802
0.6188849587143264
0.6095848051839203
0.6174845178754477
0.6077057972445005
0.6000412971903842
0.5973086902483644
0.5914382962959167
0.6156832019564327
0.5918342599218432
0.5840841255884627
0.6257724556369632
0.623407900704306
0.5839492280663872
0.5773814054799874
0.6459266313445365
0.6554754230860103
0.6327306208795099
0.6287627825175416
0.6444236233394548
0.6551076628724009
0.6674848332087379
0.6653391836399415
0.6819830082950303
0.677294138996567
0.6942910178889671
0.6879161032850051
0.7065768753810369
0.6735237086928786
0.6977761988347149
0.7190560051485001
0.6390277459765711
0.5781086941453571
0.5722906288529416
0.7267004504376107
0.7405338293496556
0.730757634871535
0.7518199539606875
0.6350795613653262
0.7537266640370998
0.7421147583626995
0.6454659526009855
0.6420041468811036
0.6320656824374649
0.7660642815071074
0.7538210246839288
0.6533747156433822
0.6576345238589658
0.6377894771167792
0.6271852081742963
0.775295296407118
0.7635373617696007
0.7359409386439809
0.7868907123652203
0.744143878048163
0.7204448107689456
0.5734465920286352
0.5701097160929883
0.5667635681016819
0.5689894227226906
0.5605247382742221
0.5650124161720872
0.5553051570245092
0.6656639200811896
0.669526427991253
0.6323874000680104
0.6220287095347599
0.7699745677769722
0.5653364662521133
0.5532881315977395
0.6774675412729553
0.6814660828136331
0.6226044229729591
0.7502161484149745
0.5422674456588635
0.7692886971352206
0.5250463965397055
0.6447385643322444
0.5676718124466466
0.5551587723222617
0.6281434103824345
0.6183831262586069
0.6894621348268761
0.6941619159032927
0.775385714584046
0.57406269444108
0.5759705338387551
0.576049124994079
0.7522881486738953
0.5770018563259701
0.5602288108739601
0.6847838623956372
0.6226525786577466
0.6126740047013643
0.6346648920336624
0.6387736292236389
0.6281494316232843
0.6362320135228916
0.7021812335691847
0.7065410857606829
0.5978289718458645
0.5856124376165931
0.5771697780550337
0.7779894576021885
0.7940832291343108
0.6125377114826402
0.5979563004024444
0.7581986847819214
0.7320745870029355
0.6336768566015422
0.6335388504054877
0.715554867075046
0.7194332973182553
0.7100953341283811
0.7232764676700374
0.7133602939491573
0.7266855606013113
0.7161771228266796
0.7291324936188471
0.7179171083906102
0.7307567195843679
0.7424412837997105
0.7443500807901743
0.7564745620429965
0.7582935054326977
0.7707510144957368
0.7724847598995113
0.7192019130534931
0.758992024478303
0.7733744131061442
0.7877054725119813
0.7887292853960356
0.5756979274418664
0.5764028479875941
0.6172640840287057
0.6078369887565696
0.7733319571463002
0.7885261560686019
0.80497090832896
0.8045483294797693
0.5780856732785341
0.5768998469038836
0.6264500498528494
0.6384355712508107
0.629810059828985
0.7809119433255189
0.7613072358894301
0.7292688602043461
0.5396865310052309
0.635864491824019
0.8219488457357413
0.8209417263539595
0.8028126719350074
0.8193061873250658
0.6181961381149714
0.6463726776244463
0.6540057999609498
0.622904956341419
0.611934237721348
0.6024883815578784
0.6375620360507261
0.8371175158815594
0.8356392736443243
0.8157520873531269
0.8332682625903871
0.811809755250989
0.8281414622606497
0.8498850388803292
0.8440935693051127
0.6525466129994891
0.5795924224487575
0.576489859765568
0.7255751501660976
0.7838412342644904
0.7661906908192158
0.863364767722846
0.8603281531850843
0.6372538754394728
0.6075816374772126
0.5972786304446744
0.5598951916414894
0.6065065937156126
0.7393261756006267
0.661078293262681
0.5993706785665271
0.7861709821800855
0.7658868385896113
0.7348222060318554
0.6578454529026568
0.7943849008709483
0.5849596219941487
0.6133602182555392
0.6616863053418996
0.6540157631301581
0.8067183384554061
0.6005211312134913
0.590639846108
0.5811132930635644
0.5765379822889636
0.6132091139605161
0.8794978201191306
0.8734266169734969
0.5876772276880569
0.5818260057245573
0.8831694249572546
0.7344021099861087
0.5836554646973642
0.5752558233810778
0.7035920939189453
0.7359306207488717
0.7048088031696381
0.7657334275638332
0.8921673867079913
0.8856758970700924
0.7911028642121595
0.7858151490816458
0.7485305178368332
0.8670285432111786
0.8774272546664391
0.5833361084693801
0.5764367472304769
0.893642398342945
0.883652683940815
0.5764691196018633
0.5679986013371828
0.6804157236004599
0.677478737353538
0.567683100438944
0.5608588343890593
0.5596693682833824
0.5528084356511469
0.7357953886115556
0.762842482200384
0.6493093862958565
0.6673278380837119
0.6199411092695138
0.7434581218562187
0.8964939195139041
0.8859717785698408
0.619333924816439
0.8589904631968729
0.7681849565252055
0.5548919761615648
0.5475973755912418
0.5455047800333571
0.5394049027435696
0.5426246177997089
0.5349733772607695
0.54081014781826
0.5334920570099949
0.5434682685942042
0.5359694953971239
0.5487999985000537
0.525115195740689
0.5315020481384816
0.5844053443520907
0.5934905960737252
0.511651303332758
0.5198630200494123
0.6298935045389449
0.583633978561942
0.7709836532653435
0.7658750067888234
0.5754908023379662
0.7572752438864297
0.7612850560540664
0.7800521119079734
0.7602546907478908
0.7357897182385079
0.7547611852246386
0.7642289346727492
0.647317320058136
0.6751809409773526
0.7288709422794085
0.7366546841077238
0.7231842679957949
0.5357380473786837
0.7001371171836528
0.7050931110347635
0.5896929167918644
0.8962382832043811
0.8852490653589753
0.8760793035448766
0.8759066565955185
0.6432803872758207
0.6624730148246735
0.6732347600657442
0.9054424375456014
0.6188381019996418
0.8821416880302224
0.8728332853457617
0.8648812968049229
0.862902879347828
0.8549540245874078
0.8536323440619705
0.8587439715896285
0.849461028855842
0.5037105361691395
0.508228032330969
0.5316639887877053
0.7685862165710451
0.7750840226949268
0.7296755558690813
0.7163190480188173
0.7485496317395526
0.7419784131134379
0.6290231634018754
0.6277457255292023
0.6832512160290443
0.6789444241850255
0.500066435427599
0.6354495378673711
0.6176112069396147
0.7520589977829523
0.5533291636772426
0.6365039113693642
0.8522982363041135
0.8435573101046672
0.6159282774964426
0.6094555817193452
0.6396307588702047
0.5729431635500184
0.5964563227412342
0.6079130462870885
0.5431211079286995
0.8777745433913707
0.6831963051807777
0.8213818983877166
0.6600797873780458
0.4907837359052017
0.4981574141562377
0.5861712167354278
0.7742998587529764
0.7542065883170862
0.7424385401093839
0.6195151743967537
0.6150840661605775
0.6244728706002
0.6216781837613939
0.6158233045265314
0.6209690977590773
0.6287011930478611
0.6262882427514835
0.6369703322592918
0.6373549654133749
0.6458868461288366
0.6452949668442647
0.6557129862055475
0.6528822574140856
0.6569333715162109
0.661404752036925
0.6607417599896327
0.6185604873326952
0.5795550452558678
0.5787487021001039
0.5883427923858758
0.669305802789812
0.6662950503929892
0.6699469085403085
0.8389133863916998
0.8375249535549066
0.854851231265611
0.8530048857000483
0.8695814919213232
0.8672612998753718
0.8502130470172007
0.8636194764819
0.8458845037486296
0.21248726343332386
0.8836494573909403
0.885877515816877
0.6198657773902643
0.7068572759747741
0.707601500620774
0.6957039487862312
0.6957247544445471
0.6843575618983645
0.6838768927977074
0.694996352042302
0.6827531175088202
0.6942387348856386
0.6803572193904758
0.6915326269399779
0.6705140173323859
0.6729210192667352
0.6736814589250023
0.705094619467919
0.7027596496951433
0.5810176889598904
0.5704495822506068
0.43891895411071985
0.7723666134762138
0.6984876391802637
0.6939377870200385
0.5223119151132656
0.5451546049546765
0.8542762841850959
0.6732882014891605
0.7323438604568288
0.7276190742064331
0.5826550963802606
0.7225951956312291
0.7092797757101519
0.5203514194915505
0.8574160502403254
0.8392495336580502
0.7028187413964262
0.6970467513961384
0.6899773228426526
0.6853068716060902
0.6919431199556381
0.6803581256540404
0.6878909181116566
0.6758222156824257
0.5352711827513715
0.6691147126867437
0.7217708054004479
0.7317080624560818
0.6208948272266489
0.6049571001954848
0.6543282186064319
0.6396733049831412
0.7822898982299571
0.787356606854133
0.9024705001775833
0.5482642854235891
0.6352485260159489
0.7045267312293415
0.7464659257241162
0.8437157623114345
0.7195273325642562
0.8401729457147544
0.8336976991297111
0.8344894874108728
0.8242477062686233
0.593228135837585
0.5441661884857634
0.6779740504568214
0.6422906887528536
0.7665399137798214
0.5910826295353111
0.5982751374242953
0.9121214164494836
0.6782644313566947
0.7511433372216738
0.7561657023938901
0.7111974830685162
0.7073203182408833
0.7146390013633629
0.6154932202905793
0.47496165433306253
0.48526735762842027
0.5143339653613238
0.6519298141343239
0.663137196793376
0.6445457637440881
0.6762897307200701
0.6722068944554686
0.6699547635731666
0.7157949519038512
0.6462896185966382
0.6931503230294568
0.6876108560025251
0.6668201830143453
0.6657805972984023
0.668775963933658
0.8266300301452288
0.6692667430819078
0.6637951305459359
0.6706186460631751
0.6591652013603927
0.8265763322232097
0.8182163475616915
0.8147914183268222
0.8060280927035712
0.7402517970434254
0.7340392086650145
0.8991296379499627
0.9008019484294425
0.662354580684088
0.6635131471304322
0.7733702577357932
0.6642024679874251
0.653008324676313
0.767564199029495
0.7584465113851779
0.7738866816509369
0.7607723124252913
0.7974709622172896
0.47151511943847335
0.5539200429253962
0.5612594510503348
0.6146875015016213
0.6278928989631319
0.6179089448634152
0.6427676372315292
0.6316473251940895
0.6580941681498155
0.6476970110552799
0.7394706563063852
0.6523492221991729
0.840548223534213
0.9146790682701189
0.9221957440998582
0.9232122794991305
0.8510679277591516
0.7033446025180069
0.7989773216451387
0.6976850140522387
0.6806650226617517
0.6087502946220581
0.7035144488221843
0.7583576546842552
0.7559632953976883
0.8749788472389796
0.833365935170049
0.577757097705007
0.6641588054170066
0.6675120156062007
0.6687212709188622
0.665367895025124
0.796272710308984
0.8537851114977105
0.737202626509068
0.7372868780264751
0.6362801540872981
0.7682889173409923
0.8470097422220094
0.8387847925880397
0.7058589791115369
0.7199362258242712
0.6012688452227339
0.6090915126586612
0.6760379667551897
0.6662306202128506
0.6366974375989897
0.655186091314675
0.6851823323323696
0.6745782463373805
0.7028067102478148
0.6928160603253086
0.7171671545143733
0.4607202658559523
0.7424190700677042
0.4734641805578109
0.5836489328330151
0.6634592862260481
0.7197011650303226
0.7031075400872066
0.7630594037929302
0.7065781454385711
0.5351309217448922
0.5265666223988195
0.6762930443625935
0.9090567083864416
0.7285341750708209
0.7896553092621277
0.6787087253681929
0.6732265755166006
0.6628804480366791
0.6719333683350971
0.5621318239757612
0.6623506648688211
0.6007734461471439
0.9133848501254402
0.9148741304677639
0.9026984629916444
0.9168084336494068
0.8501664321919834
0.8299469667786558
0.6533797565372726
0.6610700864725847
0.7524591465343863
0.7765536062978251
0.573724499636402
0.6584002251800903
0.6471665846433463
0.6222654149999347
0.8072986590490085
0.7236028326942375
0.6421065416519333
0.9293183433461154
0.9315846683740968
0.7268977648224109
0.7296734326857819
0.7133690473450546
0.6066859867688432
0.5585726130037677
0.443458184149339
0.9022409803892467
0.6920382988328374
0.8448629077617209
0.5765130531838132
0.6033895115793683
0.5427744984625243
0.7994958126782187
0.5859155819162951
0.578864860906225
0.584884011556129
0.5783811503317389
0.5830591176348345
0.5729546471258987
0.932118209349615
0.9313222387797185
0.6942572952650307
0.8622989779637757
0.782819598196607
0.7792123797792456
0.6106957956828193
0.6226675651652426
0.6046108293200251
0.705485355486153
0.6867902994453486
0.6272771385849057
0.618728161317586
0.6161619477677304
0.6211776892340931
0.6038722521044039
0.6617699440302824
0.7151524733608656
0.7605772758053666
0.691431228225151
0.9098203418276842
0.7234950719584242
0.6733882126211977
0.6533759795924573
0.5804853189683016
0.650727343777181
0.720651158205103
0.7164373970874345
0.564324406057782
0.5254503618218311
0.5168094917566234
0.5198648619547833
0.577174893048059
0.4581096874935021
0.4964123058898201
0.9431695129432043
0.9413046398021895
0.9274552112878762
0.817815423748308
0.8215457303798231
0.7873234614964832
0.5731994019282136
0.569193171561682
0.729167042439861
0.6657099359567491
0.664321664397353
0.6543407198380856
0.6471809118324526
0.43971185763906323
0.6187352462086047
0.6055927261693094
0.5961349507938625
0.5821767644425757
0.5793392548752074
0.5890111977306806
0.7429067177992895
0.6532065403009554
0.6513895098657229
0.5162288736406891
0.5067032236078037
0.6134760345672492
0.617518655558132
0.6247998862193638
0.6286162133920199
0.6257743947084762
0.8284704009746915
0.8175834377337219
0.8397955825464134
0.6832759477348239
0.6417710660253247
0.6129028037222074
0.7401083549554572
0.9414237702816275
0.6999861928296174
0.7951595581087568
0.5933402043673874
0.5788409709623414
0.590776779110575
0.5824648188820203
0.5927931283662148
0.588868733704969
0.5986127336058944
0.5966852565436817
0.6063943094278033
0.5724143189597565
0.5879329355577559
0.9284057229931383
0.643088674305034
0.6832870605419128
0.6719775500086608
0.7141753376587126
0.6558939610309692
0.5661411713267422
0.7120649857869884
0.6544727412953024
0.5174059601590163
0.5476036227120258
0.6291312235214421
0.6842237011824136
0.6839700205037987
0.6709010547056532
0.6600098605726468
0.5526863894789319
0.4226613069742825
0.6330191073168271
0.6156956594740014
0.442305952928182
0.8188482840962745
0.8090705909514723
0.8200260265404534
0.799248207245776
0.5968371905848358
0.7060275843545776
0.5689352940101549
0.7177345340061602
0.7018282603997175
0.6447802195835098
0.6285240978879769
0.7358907665213872
0.8597638450324987
0.8497388118580653
0.8582924418177365
0.8466901473822365
0.8531080024424527
0.8669518438323514
0.8875037587576166
0.9204796347096902
0.6431774710688329
0.8198169355589097
0.6620073719897116
0.6093289691001897
0.6126857362164199
0.8405972332242341
0.8353028977883411
0.8289694083323206
0.7439958331057659
0.7640430480656079
0.7757568625339719
0.7886244817498502
0.6449561672921889
0.7613564219283968
0.8883563096644581
0.8131027866015064
0.7862914297372162
0.772810763191312
0.7918280436878629
0.6116572948957808
0.6994135437775053
0.6938158497571586
0.7050073253254248
0.7011341744061217
0.810846036063409
0.5861339401091425
0.5675891922816432
0.6651309465578222
0.6915528396182594
0.709070540604377
0.9385354172018554
0.9474968317769294
0.7447188256748768
0.6367153725696896
0.5686558318106523
0.8128676693105082
0.7808537057562723
0.6778935104087117
0.6505970230138375
0.7869640957941081
0.8311249804456742
0.8340171557185314
0.7621331060720314
0.7881588695841827
0.7362178056710756
0.9423790636965742
0.661375660993896
0.6948398590690876
0.7294544720503376
0.7697569020027601
0.9234559588336149
0.6268862528805701
0.6667621176290984
0.5690567613193376
0.6357818630735875
0.8543894381657143
0.5739132636568655
0.7852761739125479
0.8558015312405666
0.8628565632003102
0.877453469469298
0.8385099802708368
0.7101191978957593
0.6221120490730792
0.7844517428866099
0.6900915788279713
0.6594971733658324
0.6549406000795045
0.6317060397431712
0.6036031437915893
0.6170288166610176
0.7379083350723162
0.7258258395759691
0.7932210759029384
0.5583959813892497
0.566419455667867
0.5624101563421473
0.8028585342524265
0.7432125618120947
0.7387136651517288
0.6727973193268558
0.6700424018915085
0.6937342779090493
0.699245614846545
0.7126314676627078
0.6827607021710169
0.674119666164003
0.6672247362025291
0.6555907579799333
0.6697948387425925
0.6501561217019075
0.789797644574413
0.6726862114873963
0.681466689123629
0.9514648845707059
0.7244466762899441
0.7135511363771934
0.7045778767444543
0.6972224925485278
0.708623600703846
0.69671007892669
0.6964592387254425
0.5888643866778306
0.5876296647435639
0.5814560750090616
0.5854688650369043
0.591964322670806
0.5879480112155226
0.5956477681541527
0.6541408584567323
0.5925594937161103
0.5995495033843086
0.7156608263173722
0.5948975654502276
0.6039298745669819
0.5805872648728193
0.8152350330459979
0.8243042325219625
0.8285182311756817
0.8397481907804406
0.7237542109673991
0.594098586962687
0.5701597359214079
0.5130393909722344
0.5365567622785721
0.5550236863333965
0.49233198238441517
0.5041397539491133
0.4327855077828455
0.4597417471469583
0.409748402689654
0.44589122941092274
0.420025507596598
0.44847942145410247
0.43753748432814266
0.4582001712480393
0.45906084416064796
0.472303745734024
0.4767404445377268
0.48868599995602513
0.4953684478688604
0.5053830537055821
0.5131258796394524
0.5215585442109804
0.5293535718222857
0.5367758310818617
0.5284098555703528
0.5427258358837435
0.5468013100611735
0.4867492065855423
0.5228690659226696
0.4884169458273123
0.5205537109650031
0.4422957975325092
0.5359089474753401
0.5487126874358861
0.5565937626425054
0.5614318358483941
0.47283464731087704
0.3911746870302677
0.5223135482260279
0.4005951741792557
0.5694671206350471
0.5731203408288572
0.5650617859786801
0.5314840497378658
0.5204908939185562
0.5653538340637835
0.5780701537500639
0.574786219815628
0.48693263959730937
0.4100986083549469
0.5759302218781818
0.5690461072475284
0.5592240404727734
0.5629589259547705
0.9192126211345775
0.9049412388737487
0.6520660210762976
0.885972020942169
0.9026843169433091
0.6777382578406763
0.6889539793477965
0.6069860157546839
0.7201133438101182
0.5840242917248363
0.6353780960862936
0.6325314905879014
0.6366715467234313
0.6984922868049076
0.5992716192243823
0.6813599336582499
0.6799183944562747
0.6120893108069927
0.584597667881072
0.6148463664948924
0.5718579997294119
0.6476494185852548
0.6078717578856698
0.6160220183266749
0.6144634542666684
0.6427473754562444
0.6517855648781609
0.6411297777125945
0.6496338709323054
0.6385380491720003
0.6472925735816824
0.6362106904607836
0.6445227322121231
0.6560137205467049
0.6516796274198223
0.6979445367648247
0.6873143044842379
0.6899742785196599
0.6769048827910495
0.5735503430620519
0.506901693881963
0.4982546659121131
0.497869379430391
0.4887216797839623
0.7307209226717809
0.722280603897863
0.7414926692126909
0.6315845350612226
0.5889415166753084
0.580975675943786
0.7156380478969396
0.6823233364711982
0.6493412942272463
0.6383660539048904
0.6437498529734967
0.6261849404774507
0.6001547903069849
0.608533968947567
0.5812931240439735
0.5862380322253524
0.6201519618053996
0.7313319719756128
0.5858152221555438
0.5274823078975367
0.5858106712389708
0.6520092127475579
0.6752759409606351
0.8224326532998076
0.8226048873397771
0.8096134819339061
0.755063640616856
0.7268064660436259
0.6248189150938607
0.3953121380296698
0.39544013499762565
0.5760786388965958
0.712376091241456
0.7379441317408938
0.8269161015326667
0.8379883254563271
0.7095814989103045
0.741996864974037
0.7526949013633308
0.7706177796953306
0.7542869840666434
0.7564288409782483
0.6736050388543694
0.6847808981332438
0.6931105792734262
0.6831325700081562
0.5700597480568445
0.6857355278464776
0.6852681101395048
0.888736859709783
0.48720556946418586
0.47578509355747867
0.4822483857539064
0.4692476026183419
0.6338929099509822
0.6609595174060547
0.6648830777104033
0.7744013466968859
0.644048430028296
0.7474374284263272
0.731793530472893
0.7248261718167578
0.7058762952376363
0.7054411057755036
0.7212297632717309
0.6988810450141366
0.8497902016482854
0.8464833152149971
0.8269209284760689
0.5859694221352306
0.5895250091310424
0.5615158851054682
0.5647664037318343
0.705771211435221
0.6942517830356176
0.5999097396281579
0.7340772765056339
0.6812589499618081
0.6679411289775679
0.6310127422791107
0.6426217220182154
0.7955036970518161
0.5601947727698592
0.5608552830676528
0.8301055091444866
0.9132128664075724
0.5701631009290462
0.565245285274299
0.605812767184014
0.8266238662928429
0.8052307881239602
0.7990208630141304
0.7090469389571936
0.816222657587358
0.6490603797811118
0.565139766665459
0.6672645668563151
0.7150500652853723
0.6926875011302426
0.5666390850617752
0.5987692612177276
0.8061569426075077
0.8012517440337967
0.4167920395038157
0.9502697958722812
0.9566862913212675
0.7513179480626364
0.7602880480495695
0.7584229602873559
0.7703023883147447
0.7627788895916121
0.5094789409209546
0.5111881785216525
0.6029733177402956
0.7403112864198468
0.6674457314448042
0.7693948182606288
0.814524051037792
0.8229624696166126
0.46398414379322744
0.45369866515205093
0.6581600578878168
0.5611116077330274
0.5562698203183464
0.7870922733926453
0.6548513635933871
0.6228351590007064
0.6066322421719854
0.9477815022672516
0.9574468991610188
0.6082115286187489
0.603796741971824
0.7663931408361693
0.777803748873529
0.6330462573343091
0.625408895662885
0.3637168464149788
0.9572591344201483
0.6297002208198952
0.5337540319604367
0.5414216961997396
0.5863093382557008
0.617715570681775
0.5822451354490875
0.5712472117661466
0.5789419003401889
0.5692629091874416
0.5762674360525607
0.5656561833838424
0.5584774566213443
0.5537123437763342
0.5449475778536856
0.5425882771646607
0.5745748017919403
0.7356649032092973
0.6264935994111
0.6355964901653232
0.4667954495674675
0.33081387206281554
0.32280680159928604
0.42674353328795883
0.3782003347183455
0.34490190302972445
0.3165665818799055
0.30253751051835465
0.5755554213673293
0.5595422569706846
0.6553659136594455
0.6345346220563444
0.6360332572196159
0.8475381259321562
0.8624794604913884
0.6288449402694816
0.6329740394007336
0.6232606161738056
0.5424736173863871
0.26227009136743673
0.5508949060546282
0.5384927007238132
0.5292551276163887
0.527003027273842
0.5152771607421954
0.6433498338908791
0.6542741370261753
0.33978335119185993
0.7980737418994579
0.7920005385941995
0.7202163566935661
0.6172719778911641
0.540963096826081
0.5310359405355621
0.6085923639937579
0.6639435071012612
0.7694926712170923
0.7503129165746341
0.6331538076104336
0.77782240349993
0.7853674782505767
0.79663998420627
0.8050124526760437
0.6314722674888054
0.6572785591760179
0.6367195284981261
0.6199979825574157
0.6646497010871468
0.6550391336473105
0.8114512338435543
0.5737518660352366
0.48591296654501515
0.4156570849786443
0.42661735682894864
0.45187356254261385
0.44768406022358387
0.46902314653659355
0.4219845949294349
0.4772925691334213
0.4888922741099852
0.4481780879944362
0.6956478644742895
0.49434258096440187
0.6773366906846674
0.5898999639447701
0.8005522532553542
0.806180843945595
0.398350542758405
0.3921860303410513
0.6855249350590316
0.8793452561471863
0.8858455864670781
0.8864181776333345
0.8949543740873985
0.8954258365131941
0.9068789115076656
0.6505179192192196
0.6611460917391475
0.6667032648811696
0.6687432792898973
0.671852253244436
0.6689597923569521
0.6740858470063849
0.6661100484862722
0.6633821321243589
0.677233912181959
0.6616782567804615
0.6826378672617233
0.6782524448534184
0.6871982470313538
0.6675104815307559
0.6567927439221511
0.6879399331176029
0.6658262971921658
0.67980616161381
0.5548399854143095
0.4798053457841675
0.5562416836304783
0.4187699059342491
0.4266213891992874
0.8055014551247172
0.698955485367339
0.5684293522343732
0.5544693813956538
0.5546030735930665
0.5561278285136027
0.5683312038750118
0.561574788587274
0.5681432138702512
0.5599829556603655
0.457055343495199
0.6665922133465692
0.6331693864789406
0.6516860206003352
0.7105327899314865
0.6915951281985562
0.7237399979471413
0.6272900888365444
0.48762218025466325
0.49032372358614895
0.5033764243834115
0.5121626469966938
0.5239980021225538
0.5064949166578635
0.7539438231775657
0.5757869317633251
0.5735066000992989
0.3562652885646329
0.7176352144450255
0.8999206106668091
0.6223248602638577
0.5651706289431485
0.6687551550509946
0.6616744882675892
0.8719512994945428
0.6801257659592965
0.6676832288329161
0.6695587692213455
0.6620684804767808
0.6644173932052909
0.6556615566770576
0.6524860330741701
0.6592687457552452
0.6590910691607266
0.6572049768010312
0.6526383223785291
0.6715985732522413
0.6460189598916002
0.7344430565847762
0.8413996522491816
0.6065240269271563
0.6303661516680725
0.5919786035056855
0.6337014840173416
0.5431057788379108
0.5238728654805191
0.5397466355875987
0.5194859379376335
0.5007696351867167
0.49848117264652253
0.5148257997620509
0.5625068931475186
0.6106788069537266
0.5358992782141823
0.7333339107202237
0.6645895711727557
0.7634090019635958
0.518674223405886
0.7895787012311309
0.7162920194253534
0.7232802731438197
0.5359316143672145
0.6166955490708311
0.633745752246726
0.6221149287496538
0.61329519763834
0.5927992348309865
0.5089356358965621
0.9302439572132715
0.8778712862172575
0.9366712887933043
0.45720254164888263
0.7336118946742887
0.7511221511719388
0.7864111056938132
0.862121700462977
0.6000720435513218
0.6275453812785347
0.7117645565669806
0.535380757990617
0.5421012842494249
0.5368750934223724
0.5765711614510771
0.5793609487657762
0.6079169690049698
0.5509641218679039
0.5610656389037438
0.7045011233539998
0.7253378822278799
0.6163815145000847
0.6472876995898278
0.5621825592934361
0.7206216648753593
0.6867096874378888
0.7772236222115874
0.5996553331664842
0.443564602410058
0.7032299154629356
0.5160294200116081
0.7903338925335289
0.6811756968825436
0.643755532746622
0.65047493584084
0.638418189265003
0.626799147837737
0.5822680903684252
0.5326903100273467
0.562159109419857
0.5984472553188984
0.5955956939546733
0.6496118359214467
0.9154506889358682
0.8994742622919879
0.9040170761217668
0.892710232842285
0.8822289418996814
0.8782660096569808
0.8897700642753389
0.8240930635023207
0.6220269876389023
0.5937336615218991
0.5985535636756243
0.7011373882721592
0.7844555021143966
0.664623397005282
0.684469047984636
0.6862138990242783
0.6774685409570087
0.676787249945292
0.7105161799411323
0.638266012555062
0.5627835117374471
0.5440468938826303
0.6816298669219054
0.670665157315994
0.5786190782252132
0.6136501915854368
0.6063396644813847
0.5957393528584376
0.5965254084875619
0.4827870132000939
0.29470261281973986
0.9384405941630595
0.9345614780255729
0.9229932971257762
0.9446868644413037
0.6574286555195317
0.8553260624198341
0.42121323093522917
0.4665980709072609
0.6241235468820383
0.6152301250516149
0.6276873607825959
0.5881805644212442
0.5787696231659673
0.5224043530470655
0.6238349271190137
0.7325330376082988
0.9560757128972772
0.5842930407285009
0.5815595548865531
0.7032572918883507
0.8670551611170101
0.7473013529286833
0.7575954500122932
0.7209167380420691
0.6108897011263659
0.602491159511548
0.5934431677431821
0.5958368797822219
0.5933909626630838
0.6006260598542027
0.5736778793180837
0.9359811999262362
0.9000279149759879
0.9036944602852207
0.9166278577759523
0.9199050293090877
0.9294527427522921
0.9092663563181307
0.9142522852154471
0.5212859488674247
0.5815820864717488
0.7818926798886525
0.9520914656905348
0.6793980961394839
0.9277195367163558
0.9387562892687957
0.8074845213351839
0.6933475833977402
0.6821563945118754
0.6815708689386608
0.5688394388356959
0.6830908245277674
0.8217865706914995
0.6431044158709381
0.6450236709020281
0.6536355349209483
0.6364999062367147
0.6499467468424415
0.6475432237467589
0.6399983195007665
0.6308615272361342
0.6732203952955047
0.6598772781231758
0.6550460273859791
0.7869089811061684
0.7367762575458329
0.6441731266802473
0.5803921476863053
0.5526696314427741
0.6269487127271807
0.5952398569644617
0.5986892018718516
0.6079448160892976
0.8571619189295646
0.8730991967730625
0.8795407830433596
0.8689176257996792
0.8336073901994886
0.5814907302486348
0.765720207568019
0.7035365653290175
0.8799838104899739
0.7320143243051794
0.6375064075275522
0.6680696534066014
0.5668701720657662
0.6986147825013416
0.7119416898075546
0.6713987405118302
0.7361579985646173
0.7753740002667927
0.7798660330853793
0.795314029417991
0.6532623229938925
0.7402666934842219
0.6469747051197208
0.6056329246806185
0.6156888282364446
0.529425536137756
0.6423034577539607
0.9179431601245434
0.5735026110915338
0.8042323709741548
0.802298255264795
0.8170553232811896
0.7991025509053221
0.8128205158804328
0.8352437444301759
0.6574975712412772
0.6913405290033373
0.688653288740218
0.7473093922783642
0.6675842056023007
0.9347847941765495
0.7331377686547832
0.7857243945840359
0.8840141178207833
0.6618346298403307
0.658666845365972
0.7452000743991762
0.5912007801249722
0.19010067397063535
0.8927061930923124
0.63434676229795
0.6815420153289611
0.6943897872867943
0.6545325212151198
0.6663507988600847
0.634850553409057
0.6535408328807335
0.7773456784128674
0.66099107738869
0.6801663234261778
0.7358562858635491
0.7011768590780606
0.6946613573144335
0.750675283270626
0.8251026987236694
0.5981521463482892
0.7339293633928015
0.7212482056291369
0.7049262280037201
0.6868971369645073
0.7069816212705229
0.5884429152221019
0.6682522204729562
0.5381475696125664
0.5894912075347034
0.5936821674341363
0.7289156558188522
0.6900455175974359
0.7151193539940279
0.7072920735513778
0.7952058790251133
0.7809464283758443
0.5709516933973635
0.5204290975199583
0.6389864409590955
0.7319890742516916
0.5860497596872294
0.7076977615443285
0.8715446161994154
0.6637671160366909
0.6292419809211452
0.6401268962282086
0.6630597266914083
0.9304544934553833
0.5605971637336669
0.6686467185912466
0.6937131171760285
0.7066691889289001
0.8696304824944476
0.8528281428196278
0.8386320932112628
0.6721110979519337
0.9606696406928837
0.9664291377697508
0.8229575331058255
0.8643234811150174
0.9035360177299997
0.917575987289451
0.7196093991854117
0.6538277107822856
0.9690841810827259
0.7405973245512313
0.6270308535129685
0.6779345175948077
0.8399687782159261
0.8580562034473865
0.6618017102778495
0.733417477373357
0.8203198061533211
0.6244821012358732
0.572605446239536
0.6830678646066178
0.6241394054945819
0.4743779983670533
0.6587240152223924
0.7655554400155145
0.443997218978337
0.4387286122137942
0.7533853716879942
0.6962557888177383
0.7589673154949922
0.6438759754878742
0.8953229940072333
0.5613230222712129
0.5003002272115318
0.5697919615033149
0.7053676422599828
0.7538057969919144
0.6481405664783437
0.28167755971739655
0.9054183341809918
0.8684208121793476
0.6478082172293615
0.8007810789155586
0.6844619677439937
0.7887581663611888
0.8108287887080838
0.7824058730933884
0.6054219662606757
0.6528868946302115
0.9522391194519332
0.7454692685445488
0.7758971156070102
0.6150807373151631
0.9366421960295624
0.7205112426802912
0.6532682204798467
0.6585091978235114
0.5792490695021106
0.6620628991548156
0.5644100841456406
0.74626088928691
0.6780760228203951
0.5752642938585064
0.8659785042102386
0.5475420313648
0.541113486644761
0.9172622310144162
0.7872944673591735
0.8875407484342827
0.8696036400950018
0.6724491677815886
0.34452814596846193
0.6719221472844252
0.7867908808142672
0.7889994685086299
0.5122412382716408
0.6739796961207256
0.7502575198996997
0.41590253465797583
0.8222253220477843
0.6459622290919678
0.5526527336316177
0.6401304915283368
0.4733988409550391
0.5013939437933785
0.6303295973196683
0.7213925781234984
0.5742602521833883
0.7752822888054475
0.6623693166886278
0.7946094454896272
0.7667195536809556
0.6472741920018655
0.8537559455344524
0.8082270165962118
0.6069903559773852
0.5627480712962424
0.52594878111319
0.6104870633662123
0.5460318462763977
0.799791033426324
0.8734571196760944
0.3311868013702972
0.37397937457200264
0.4016773715625569
0.5705000902517486
0.4320242775113001
0.6457988439873565
0.7111301850674319
0.7084476215251366
0.5348797074017635
0.5559370213094128
0.5939914061263363
0.6175844460622363
0.6434467474755124
0.7483564417025206
0.6645579480255253
0.6865865676823198
0.6702036603852862
0.5166161287357305
0.4728077652305027
0.6486909806663165
0.6674832111889956
0.9597761755160309
0.49277073522709747
0.8400030778662161
0.5711169059649512
0.8107148286505991
0.663863598755062
0.8428851512472958
0.6650771522411882
0.6169174457975273
0.5738740072589087
0.7095542181077632
0.7454444333602434
0.7253028521065753
0.884094263114771
0.5810168189115379
0.5177680507849013
0.7486729151266328
0.8439328753232298
0.5876211522034643
0.7330737894802836
0.6262589798405963
0.8041385053905229
0.6803512289226176
0.6953288429191019
0.5180925664276952
0.6889934157185316
0.14900228912481725
0.5998750858796147
0.6778645642174135
0.6094140706054315
0.5918380212909526
0.7780744430945798
0.8318376184174431
0.5935893114157983
0.5275077967705427
0.8448670748870619
0.5546273753296775
0.7100702616535246
0.6104190806823881
0.6743825602510433
0.5270916439715623
0.5753554254588209
0.6761621281319251
0.6466896323068716
0.6328346071526629
0.5053157883577584
0.5306910269975683
0.7556516579518605
0.8164272734075131
0.601748363572368
0.5920281294900911
0.5139136983091438
0.8317158602538712
0.644856957904089
0.588621351208764
0.6543220461302922
0.5832880388645381
0.6931245458581792
0.753810559874913
0.7321976982264637
0.6998870436194043
0.7279792285971461
0.669548358323247
0.7315768278692001
0.6343619028067511
0.47657994236705875
0.575425087647949
0.5957467072975511
0.6523500641728761
0.5505935335196103
0.8491377011912057
0.6253129053085063
0.6571920022763537
0.7895101583732218
0.7273252558623065
0.5429195781402624
0.6412833768922839
0.6267102353418857
0.7193125968482498
0.579378942288485
0.6031284990096161
0.32505207790131196
0.7106338115134319
0.7973810952729226
0.5769031671445828
0.7181772442832575
0.6114876539276183
0.7681770880481348
0.5656315699500252
0.6363188911751733
0.582534064716093
0.7748959235496271
0.7426287798240403
0.7388496889708335
0.5972595659828434
0.6997658378397761
0.6045252363228771
0.6926191831941758
0.49787962637047156
0.7617065177139243
0.8724265422649041
0.6101358469697359
0.6665880052996996
0.7219159077235644
0.5900853814373005
0.5481855457312286
0.9043833673581037
0.5614402506799266
0.7240205316217566
0.5500700066742165
0.6909357565138177
0.6253717295678816
0.508592890957812
0.7646685998688451
0.3630969366247159
0.5598327200005035
0.7799030409285257
0.7351164515134234
0.694573785155875
0.6237601163176023
0.6117097792328616
0.7005354374835683
0.4895424707622599
0.6708412511437344
0.6745104869212349
0.7170555934545101
0.7068425810451281
0.5861329326800386
0.44836739294496125
0.8102417636820821
0.8323551042764061
0.5193481900357734
0.6637469501899158
0.6635941141024598
0.4086014545176288
0.5519020941633683
0.38873559470548835
0.44694779139831087
0.6468924421007695
0.6755629606948379
0.6407874649559624
0.9022256420557737
0.5551122086533075
0.962057256793908
0.5877410703924473
0.6979261660081816
0.6977948750861809
0.5373192578098105
0.4695308345402092
0.4868924484452968
0.6272561069093124
0.7844364844841766
0.7289385659693256
0.6800279836862663
0.670257377825123
0.6762383030384146
0.6755429463751013
0.7875666610970301
0.42980102802690384
0.5327840527354937
0.6595762401268704
0.5088064321577206
0.6171337165289122
0.7421555369188046
0.7445336682955596
0.5730961874262334
0.7084187183230821
0.6875502514622815
0.6377848372622
0.6398474557233973
0.6484491267433442
0.6245549363892426
0.865122829801487
0.6723824558569198
0.5133217712514468
0.5999280905514032
0.5803740854740924
0.5603165323281173
0.6724706490461236
0.7016224302309866
0.5818086061092423
0.6929762110570804
0.6292362613823937
0.8638422957827572
0.8033471473146941
0.4909655755794412
0.6609528865365968
0.6319925220236748
0.554935802086184
0.8057131251941085
0.6135735809254865
0.65235374919125
0.7514179063784143
0.4284748949520389
0.7647661942043262
0.8092669207544854
0.6076175445152655
0.8787090151795119
0.5711016336468596
0.8059688490893913
0.6854608932427938
0.7331533511926607
0.5975514517745214
0.3089463411176882
0.5002800564601086
0.7682219120763941
0.5893566477872539
0.5023995423962029
0.635176375449681
0.6412724585353595
0.5729068908954785
0.8862298217448622
0.8153489354773681
0.6183808746915518
0.8361222129134386
0.597491685602736
0.6048892811824637
0.7027714634074678
0.8721957400653924
0.6764904909027304
0.6760207312442341
0.6426209949559545
0.5939138613294229
0.9311413056319288
0.6482686554617743
0.6578850967756005
0.5830860195653925
0.6126777187553806
0.6278502217217177
0.6934896549250299
0.6955966295805391
0.475234154342371
0.7123474167100933
0.7944491323145758
0.8262992194682637
0.693397395055577
0.9140501458762323
0.7693949290418057
0.6199555842677594
0.5946822940689613
0.5625633960684424
0.5859854504765042
0.3700550319371643
0.6357646714767171
0.6183122557047535
0.5050608089638116
0.37070018813268973
0.5591360833567849
0.5500428399430478
0.6347894737582204
0.5667415614516793
0.7440144248933028
0.8686002133021441
0.5867246681614076
0.45921404752793615
0.5586229946854989
0.3708662251532671
0.6672090576162584
0.4869568207744724
0.6181347674679802
0.7429261063007159
0.5318254439436763
0.6939988474934207
0.8021474296989043
0.7070286257015166
0.7160767655877791
0.8851446929485792
0.7944065057467906
0.8043145804914863
0.679926289691437
0.6641238525715482
0.6643204658796538
0.6864138644388351
0.5913269814196963
0.800491413089867
0.574072643534129
0.5294554346008167
0.6507240906290692
0.5832728129035619
0.743453573681028
0.9873638788789214
0.9906940797201222
0.7114357242312586
0.46526457434558677
0.7008652684798973
0.9148037668956448
0.9446064280141512
0.6172905319345509
0.6129119172214346
0.575813478166905
0.5991391950993987
0.6349936627245971
0.6500904068216701
0.552342152088493
0.5314456619912126
0.5203219066452416
0.7200183424203892
0.7146187700681618
0.566099074897562
0.5923607764218257
0.5358413730101644
0.8500076147545361
0.541241420596853
0.7034406605629387
0.6783124884975505
0.6515099788091108
0.6681858609070773
0.5619250356324218
0.6016864777235121
0.4192627463252578
0.5961142867793279
0.6790710374135456
0.906610805598603
0.6624709882162313
0.6734264812351425
0.5356643096319026
0.6680850120108363
0.5051308311465076
0.6593698677389277
0.6232743800050907
0.7974140479592751
0.601801661502979
0.5516895163287924
0.7248542256632534
0.5858484917084363
0.6004876659733728
0.5403093924490315
0.45167267975030534
0.828627957728623
0.5531829762357474
0.6672148932106723
0.6657616595336495
0.8511547285687231
0.6945304901604756
0.5621568930872788
0.6380900498459978
0.945709689612464
0.7255235762383134
0.7810144626235112
0.5843152349575544
0.8437444202654928
0.6124611411542716
0.5891534168217505
0.5003456183654083
0.7957964811461364
0.6783881880296131
0.6653796618748048
0.9004699296336595
0.6873553709205744
0.6676480980472139
0.940503781877177
0.816404439846164
0.5432322922469741
0.6773719941881754
0.8267339672253765
0.813103892048043
0.9048903910716463
0.5032349582420715
0.7352664130793688
0.5056339252507843
0.5976953381535198
0.6842031397020595
0.6672349983791963
0.4721418173324009
0.64716999735846
0.6970320692057508
0.655474110661219
0.5771721166368514
0.8349449492559081
0.6676468182912125
0.5620076003920281
0.6663545900165836
0.6921332040437644
0.7767679318113446
0.6239507132960163
0.6070415356832726
0.534189901975359
0.8101073265941131
0.6563395614812068
0.5804869426331055
0.6196527342251226
0.7287639235489922
0.6959329397418951
0.5666700544664629
0.6253797353178893
0.7015394321617139
0.6447439095285266
0.632732293072127
0.6460946405435061
0.5905013070478495
0.5701728684569319
0.8135548345681867
0.9535739819027866
0.6844427245072376
0.7175039880122349
0.7133755873583818
0.655765834819121
0.9586131471457268
0.7597114328390966
0.6700787572929758
0.6474210759729135
0.6482107143716548
0.6445644720257052
0.6550948656139464
0.6105479616652578
0.6184870524044779
0.6460336357130114
0.6065921399062926
0.6673286308823194
0.8621202218019588
0.6396400798604491
0.573276169943403
0.6487327729165913
0.8131350059583824
0.6141418237880231
0.6525874868944123
0.6773373928793269
0.37921465973388563
0.6362521630272647
0.6298217760370279
0.38759127755721645
0.30888042540303345
0.2623527740064226
0.5244791598576587
0.5500020106967397
0.7192818349529171
0.6670439978051069
0.8101507777252126
0.6487432381938374
0.5337442441136151
0.6131118417634619
0.9469176100052923
0.6811167211856365
0.6232927314431577
0.729923093420723
0.610064073411096
0.5206008848457119
0.7637969968562514
0.527753063058732
0.6522011165810229
0.615684975741158
0.6302571009089925
0.8307881895631446
0.5818155683611695
0.6714053035967726
0.5584851287495043
0.6626770787451642
0.7156857848552077
0.7990672468459298
0.893298360076589
0.8518693926649662
0.5696823894393362
0.6366194448062596
0.45664198241978854
0.7703395761676822
0.6564973840838888
0.4843720878185741
0.6298398534392907
0.5651452854219644
0.75890629717093
0.6451302076350763
0.5428701005334978
0.5102643624178835
0.5158450235651115
0.7898340795734615
0.6471947816266821
0.4631272637937237
0.6735667817646127
0.9756459548164225
0.7129930578616862
0.543018668449794
0.5487886106283315
0.581070536276349
0.9275275773211545
0.6167349391861974
0.6121511659455524
0.8002038426340178
0.7223694708585428
0.7075210147218723
0.5923694994299026
0.6809246815263924
0.9558483633742964
0.6322465541388166
0.7655119189825645
0.42264766813788
0.8953857005982201
0.48266207878771133
0.5756490711743848
0.5326892801763292
0.6088851856179863
0.7072790158837925
0.353859377957236
0.5579108549231885
0.9623459109526279
0.7913033397809848
0.6031739445802724
0.7723415814466841
0.621617672584145
0.8188151611687944
0.5612255761033736
0.21900242232146136
0.6340439274539508
0.6316326905934196
0.934753052358853
0.8124960118272535
0.6546325698652556
0.7804820321458775
0.9605550677589444
0.5721190993940463
0.738023508435381
0.6077096461731982
0.48109912318621134
0.9522266048072464
0.6438012220947312
0.8896169918767817
CELL_DATA 4886
TENSORS stress float
-1.1907621766829947e7 5.051333298069873e6 0.0
5.051333298069873e6 2.6708075927342176e7 0.0
0.0 0.0 0.0

-1.9226117852519166e7 8.49818813646632e6 0.0
8.49818813646632e6 9.835059802916504e6 0.0
0.0 0.0 0.0

-6.8996850568172e6 2.0434382253027905e7 0.0
2.0434382253027905e7 -3.3724841296324446e6 0.0
0.0 0.0 0.0

-4.507336052107753e6 1.8932870695119184e7 0.0
1.8932870695119184e7 1.1031050911624521e7 0.0
0.0 0.0 0.0

-3.030973071955946e6 2.1302116663260136e7 0.0
2.1302116663260136e7 -554686.8225407614 0.0
0.0 0.0 0.0

1.9271391874652696e6 3.3168555239204057e6 0.0
3.3168555239204057e6 -4.847548326156208e6 0.0
0.0 0.0 0.0

3.9568437868516825e7 2.0298064887052853e7 0.0
2.0298064887052853e7 9.514771865185479e6 0.0
0.0 0.0 0.0

4.441868242615037e6 3.452280142738693e6 0.0
3.452280142738693e6 -3.3932628368003584e7 0.0
0.0 0.0 0.0

-1.1758428603726873e7 6.842933744797253e6 0.0
6.842933744797253e6 2.8035649020769253e7 0.0
0.0 0.0 0.0

-499989.72595464624 1.70857971711671e7 0.0
1.70857971711671e7 1.4462034350722896e7 0.0
0.0 0.0 0.0

-1.4546233551355253e6 1.755096085653455e7 0.0
1.755096085653455e7 -6.335118346834639e6 0.0
0.0 0.0 0.0

-1.8555284176735731e6 2.509991313681067e7 0.0
2.509991313681067e7 389.008680655621 0.0
0.0 0.0 0.0

2.8647485703168884e6 8.538419547302056e6 0.0
8.538419547302056e6 -3.1373343310409855e7 0.0
0.0 0.0 0.0

5.847850780773784e7 2.2973260217311088e7 0.0
2.2973260217311088e7 1.0236752187770575e7 0.0
0.0 0.0 0.0

-1.3776241165904715e6 1.803503316403066e7 0.0
1.803503316403066e7 -6.361493967251127e6 0.0
0.0 0.0 0.0

3.761567120815739e6 4.2597690926806135e6 0.0
4.2597690926806135e6 -1.3568840728633016e7 0.0
0.0 0.0 0.0

-1.7402762929621716e6 1.4798777751267996e7 0.0
1.4798777751267996e7 -1.693068984836549e7 0.0
0.0 0.0 0.0

1.167840671618539e6 1.2263724627308464e7 0.0
1.2263724627308464e7 -2.241183138625142e7 0.0
0.0 0.0 0.0

-8.723481377020044e6 -4.568658898120427e6 0.0
-4.568658898120427e6 2.022163336181128e7 0.0
0.0 0.0 0.0

-1.6130414506247353e6 1.9998899747976482e7 0.0
1.9998899747976482e7 -5.548497850675167e6 0.0
0.0 0.0 0.0

2.738209091259743e6 1.0165560057823315e7 0.0
1.0165560057823315e7 -1.633326263000218e7 0.0
0.0 0.0 0.0

-1.0570406346385393e6 2.490167307430674e7 0.0
2.490167307430674e7 -49394.66668336367 0.0
0.0 0.0 0.0

-8.81498067119671e6 5.586282601156284e6 0.0
5.586282601156284e6 1.3662833396829534e7 0.0
0.0 0.0 0.0

-1.0347095185547313e7 2.0101474988686804e7 0.0
2.0101474988686804e7 435615.53983087325 0.0
0.0 0.0 0.0

1.2497498065358046e6 1.1035437821549632e7 0.0
1.1035437821549632e7 -2.8591106921111763e7 0.0
0.0 0.0 0.0

1.3457523325637277e7 3.2289873114901673e7 0.0
3.2289873114901673e7 -1.063122478900906e7 0.0
0.0 0.0 0.0

2.6449385014292747e7 1.7793132497160066e7 0.0
1.7793132497160066e7 5.314162694842403e6 0.0
0.0 0.0 0.0

-1.1937125816609643e7 1.385068295499105e7 0.0
1.385068295499105e7 2.0129302886500046e7 0.0
0.0 0.0 0.0

3.9545067357215686e6 4.334548650960269e6 0.0
4.334548650960269e6 -1.376416243858511e7 0.0
0.0 0.0 0.0

-5.13847761241375e6 -1.7028793028889745e6 0.0
-1.7028793028889745e6 8.632328986462638e6 0.0
0.0 0.0 0.0

-1.0088622926405596e7 7.011889132222852e6 0.0
7.011889132222852e6 1.1846224978773795e7 0.0
0.0 0.0 0.0

1.55829598109004e6 7.984807511580181e6 0.0
7.984807511580181e6 -7.579989182137475e6 0.0
0.0 0.0 0.0

-16527.596784520894 1.739125614844102e7 0.0
1.739125614844102e7 7.093061451553034e6 0.0
0.0 0.0 0.0

73097.16927705187 1.595975106394623e7 0.0
1.595975106394623e7 -122105.11265986484 0.0
0.0 0.0 0.0

-4.261169249225867e6 1.9601167933660366e7 0.0
1.9601167933660366e7 4.274269469940534e6 0.0
0.0 0.0 0.0

-9.259326935021177e6 4.847085615000263e6 0.0
4.847085615000263e6 1.0496930584923476e7 0.0
0.0 0.0 0.0

285268.7055019159 1.1011575613185195e7 0.0
1.1011575613185195e7 -6.53293635399566e6 0.0
0.0 0.0 0.0

-3.807046403582449e6 1.9404321061154533e7 0.0
1.9404321061154533e7 4.593198583430987e6 0.0
0.0 0.0 0.0

-2.0395490415107207e6 1.3588468617142852e7 0.0
1.3588468617142852e7 -2.8781341818477295e7 0.0
0.0 0.0 0.0

-3.3270468308461765e6 2.288739155280862e7 0.0
2.288739155280862e7 1.9519178117646594e6 0.0
0.0 0.0 0.0

2.1264765097005777e6 8.703355246502884e6 0.0
8.703355246502884e6 -3.4229931129427515e7 0.0
0.0 0.0 0.0

-9.11211200031006e6 2.1848279573051933e7 0.0
2.1848279573051933e7 -4.822546070626549e6 0.0
0.0 0.0 0.0

-3.399926193317278e6 2.2369519046321597e7 0.0
2.2369519046321597e7 1.7696547684291785e6 0.0
0.0 0.0 0.0

-1.1208121704243246e7 2.041521821066894e6 0.0
2.041521821066894e6 1.946277190787582e7 0.0
0.0 0.0 0.0

2.334208287719246e6 1.0103369013656057e7 0.0
1.0103369013656057e7 -1.7825149819389656e7 0.0
0.0 0.0 0.0

-1.0588911762485743e7 1.5127877852964794e7 0.0
1.5127877852964794e7 1.9492583184925117e7 0.0
0.0 0.0 0.0

-120661.77333415067 1.7342185973118432e7 0.0
1.7342185973118432e7 -1.0082952529774588e7 0.0
0.0 0.0 0.0

-263483.73765474185 1.0641716671596736e7 0.0
1.0641716671596736e7 -7.156558063946795e6 0.0
0.0 0.0 0.0

4.633185544335235e6 3.5735685499404715e6 0.0
3.5735685499404715e6 -2.839618239090366e7 0.0
0.0 0.0 0.0

2.907920049229174e6 1.4774215957089934e7 0.0
1.4774215957089934e7 9.693067110458005e6 0.0
0.0 0.0 0.0

-2.368329696808476e6 2.215278612502663e7 0.0
2.215278612502663e7 168434.06284096395 0.0
0.0 0.0 0.0

-1.40678453611121e7 5.933243819685996e6 0.0
5.933243819685996e6 8.63858850009185e6 0.0
0.0 0.0 0.0

4.687379477000851e6 3.5832311244560904e6 0.0
3.5832311244560904e6 -2.932265426468766e7 0.0
0.0 0.0 0.0

-2.909340424267693e6 2.079436524285812e7 0.0
2.079436524285812e7 1.0505388756377245e6 0.0
0.0 0.0 0.0

2.7276857307297913e6 1.5235703012510512e7 0.0
1.5235703012510512e7 1.194359257031153e7 0.0
0.0 0.0 0.0

-6.8035089417500775e6 2.0900376545005355e7 0.0
2.0900376545005355e7 5.570696676908683e6 0.0
0.0 0.0 0.0

4.1068132563896496e6 3.9506280862291204e6 0.0
3.9506280862291204e6 -3.695554950449759e7 0.0
0.0 0.0 0.0

-2.911316004760121e6 2.30356395281116e7 0.0
2.30356395281116e7 2.0093841157988338e6 0.0
0.0 0.0 0.0

1.2054609495989447e6 1.6581111219101656e7 0.0
1.6581111219101656e7 2.53579218221304e7 0.0
0.0 0.0 0.0

3.1524251160426335e6 9.279744503146756e6 0.0
9.279744503146756e6 -1.9511013340397816e7 0.0
0.0 0.0 0.0

-1.0764839016840872e6 1.3705246010989865e7 0.0
1.3705246010989865e7 -8.949462747007133e6 0.0
0.0 0.0 0.0

1.8463672036275957e7 1.8748746259311143e7 0.0
1.8748746259311143e7 -4.1772376458143946e6 0.0
0.0 0.0 0.0

-2.905664692970905e6 1.675351841646283e7 0.0
1.675351841646283e7 -9.813075365626242e6 0.0
0.0 0.0 0.0

-6.811915463183565e6 262091.99452878686 0.0
262091.99452878686 8.83275796397011e6 0.0
0.0 0.0 0.0

639758.5140777788 5.897077611055036e6 0.0
5.897077611055036e6 -2.836951643804561e6 0.0
0.0 0.0 0.0

4.307695690655511e6 4.595274617760556e6 0.0
4.595274617760556e6 -2.7817056547783878e7 0.0
0.0 0.0 0.0

3.438664344420938e6 7.530472518519554e6 0.0
7.530472518519554e6 -3.119519862798073e7 0.0
0.0 0.0 0.0

-3.4887201529323743e6 2.044761315134923e7 0.0
2.044761315134923e7 454711.6004704628 0.0
0.0 0.0 0.0

-996290.3131168252 1.667875144132817e7 0.0
1.667875144132817e7 2.0915000167139634e7 0.0
0.0 0.0 0.0

1.440896082458269e7 1.530717387298651e7 0.0
1.530717387298651e7 3.4976703715356183e6 0.0
0.0 0.0 0.0

-1.2161632928777969e7 3.427320173899503e6 0.0
3.427320173899503e6 1.7479406913210906e7 0.0
0.0 0.0 0.0

1.864380703197781e6 1.1008382895991806e7 0.0
1.1008382895991806e7 -2.6515775266838986e7 0.0
0.0 0.0 0.0

-1.9904910754079074e6 1.418189189839838e7 0.0
1.418189189839838e7 -2.6848381835257344e7 0.0
0.0 0.0 0.0

1.91174731377385e6 1.6068410254588539e7 0.0
1.6068410254588539e7 3.664741028835107e7 0.0
0.0 0.0 0.0

-4.592801116238741e6 1.9076032829597294e7 0.0
1.9076032829597294e7 1.0465511905890446e7 0.0
0.0 0.0 0.0

-1.069708683021387e7 1.5114666929291539e7 0.0
1.5114666929291539e7 1.908996975194543e7 0.0
0.0 0.0 0.0

-5.2853539539506305e6 1.1409298583387934e7 0.0
1.1409298583387934e7 9.289993781130929e6 0.0
0.0 0.0 0.0

-1.156394463126651e6 1.4533628191651396e7 0.0
1.4533628191651396e7 -1.6609398615099896e7 0.0
0.0 0.0 0.0

-298448.76840492897 1.5278087547233023e7 0.0
1.5278087547233023e7 -9.623837887152642e6 0.0
0.0 0.0 0.0

1.292430260297522e6 1.2322410253060063e7 0.0
1.2322410253060063e7 -1.459054298939417e7 0.0
0.0 0.0 0.0

1.3636727202386286e7 2.1002682363242164e7 0.0
2.1002682363242164e7 -5.755908940198471e6 0.0
0.0 0.0 0.0

-1.0028447385381293e7 -4.189455540535377e6 0.0
-4.189455540535377e6 2.4527751568950474e7 0.0
0.0 0.0 0.0

995391.9849432608 1.5483754695569523e7 0.0
1.5483754695569523e7 -2.5468667409884725e6 0.0
0.0 0.0 0.0

-1.1132797949771448e6 2.5864075330084957e7 0.0
2.5864075330084957e7 -702707.9791823684 0.0
0.0 0.0 0.0

-4.83395926573313e6 1.8986961014988557e7 0.0
1.8986961014988557e7 1.1077457022427242e7 0.0
0.0 0.0 0.0

4.481079876438378e6 4.070539015344893e6 0.0
4.070539015344893e6 -1.835411918882137e7 0.0
0.0 0.0 0.0

1.2436453318360816e6 7.252279831430255e6 0.0
7.252279831430255e6 -8.48049130192867e6 0.0
0.0 0.0 0.0

-32105.869114260655 1.638706567661453e7 0.0
1.638706567661453e7 6.424682765235439e6 0.0
0.0 0.0 0.0

9.516861684351634e6 3.374872660105988e7 0.0
3.374872660105988e7 -1.2917492586459093e7 0.0
0.0 0.0 0.0

-1.1088673061322434e7 6.379380665151644e6 0.0
6.379380665151644e6 3.3871987350540094e7 0.0
0.0 0.0 0.0

838680.9115155116 1.692864291564358e7 0.0
1.692864291564358e7 -6.762538116938292e6 0.0
0.0 0.0 0.0

-796382.4507569945 1.5576239974385433e7 0.0
1.5576239974385433e7 -1.154366068428685e7 0.0
0.0 0.0 0.0

-187222.03131806105 9.698536800049547e6 0.0
9.698536800049547e6 -6.392550875111382e6 0.0
0.0 0.0 0.0

2409.5830980786122 5.098836504079801e6 0.0
5.098836504079801e6 -3.9667467375332415e6 0.0
0.0 0.0 0.0

2.4287620743659763e6 1.7798841176378444e7 0.0
1.7798841176378444e7 -4.681573704642059e6 0.0
0.0 0.0 0.0

-1.7869822690617265e6 1.4559584652669402e7 0.0
1.4559584652669402e7 -2.2205530660311103e7 0.0
0.0 0.0 0.0

4.368165153853999e6 3.445045728771354e6 0.0
3.445045728771354e6 -3.367924383749634e7 0.0
0.0 0.0 0.0

-4.966783105560759e6 1.9396570379878394e7 0.0
1.9396570379878394e7 9.492635696557213e6 0.0
0.0 0.0 0.0

3.191984425546564e6 8.256399898590258e6 0.0
8.256399898590258e6 -2.530819553926825e7 0.0
0.0 0.0 0.0

4.1214799432457257e6 3.9583922371200738e6 0.0
3.9583922371200738e6 -3.7649647928276554e7 0.0
0.0 0.0 0.0

-3.930456966929696e6 1.7825356717666164e7 0.0
1.7825356717666164e7 1.1265794625768287e7 0.0
0.0 0.0 0.0

-4.43505095590014e6 1.6048353715176249e7 0.0
1.6048353715176249e7 -1.0414982908857062e7 0.0
0.0 0.0 0.0

-1.0328863768802244e7 5.323548545046912e6 0.0
5.323548545046912e6 1.5462149000313384e7 0.0
0.0 0.0 0.0

-2.794860216498348e6 2.1831275918915987e7 0.0
2.1831275918915987e7 1.3123117941623973e6 0.0
0.0 0.0 0.0

104455.94243227364 9.839018085525867e6 0.0
9.839018085525867e6 -4.802219576061133e6 0.0
0.0 0.0 0.0

-5.779223756498447e6 1.1715582001342034e7 0.0
1.1715582001342034e7 8.370283506756218e6 0.0
0.0 0.0 0.0

-9.672325818523962e6 -3.9127929031887655e6 0.0
-3.9127929031887655e6 2.505880291855555e7 0.0
0.0 0.0 0.0

1.6178637545672255e6 1.247273792095099e7 0.0
1.247273792095099e7 -1.3658269923965927e7 0.0
0.0 0.0 0.0

-1.4720157950761095e6 2.4622283183992065e7 0.0
2.4622283183992065e7 -187291.16588118608 0.0
0.0 0.0 0.0

-6.896312455466631e6 5.651041369817908e6 0.0
5.651041369817908e6 1.105713072100896e7 0.0
0.0 0.0 0.0

2.6059502851773426e6 7.728523189869214e6 0.0
7.728523189869214e6 -3.3880960712661065e7 0.0
0.0 0.0 0.0

-1.7661418224916516e6 1.0353677484718503e7 0.0
1.0353677484718503e7 -3.613841757092248e6 0.0
0.0 0.0 0.0

4.429398086066631e6 1.878551455345486e7 0.0
1.878551455345486e7 8.854091438093558e6 0.0
0.0 0.0 0.0

2.750358407944194e7 1.87360721549293e7 0.0
1.87360721549293e7 4.974594274273848e6 0.0
0.0 0.0 0.0

3.9792252260668827e6 6.039848638971212e6 0.0
6.039848638971212e6 -1.6925818471124165e7 0.0
0.0 0.0 0.0

-3.098195255307952e6 1.4656597299242353e7 0.0
1.4656597299242353e7 -2.712321782175943e7 0.0
0.0 0.0 0.0

3.860453354370213e6 6.041789868360788e6 0.0
6.041789868360788e6 -1.775768405525055e7 0.0
0.0 0.0 0.0

4.678445914565102e6 4.0708583717742153e6 0.0
4.0708583717742153e6 -1.8994011603237208e7 0.0
0.0 0.0 0.0

2.366832079568712e7 1.2661538006552685e7 0.0
1.2661538006552685e7 223420.41245029308 0.0
0.0 0.0 0.0

-9.238848534992522e6 2.933866635855689e7 0.0
2.933866635855689e7 3.9363706445483086e6 0.0
0.0 0.0 0.0

-1.3516982257529031e6 1.3612980393138152e7 0.0
1.3612980393138152e7 -2.4819228904575393e7 0.0
0.0 0.0 0.0

-7.494046733826181e6 1.950641062675781e7 0.0
1.950641062675781e7 -2.10735178074377e6 0.0
0.0 0.0 0.0

4.939452465454442e6 3.917362473711185e6 0.0
3.917362473711185e6 -2.404160997841645e7 0.0
0.0 0.0 0.0

-7.3542752073217835e6 2.077350860171033e7 0.0
2.077350860171033e7 6.16535162391683e6 0.0
0.0 0.0 0.0

3.8987526622354947e6 2.4801481139520027e7 0.0
2.4801481139520027e7 -4.356625778639775e6 0.0
0.0 0.0 0.0

-1.236578272096071e7 7.999746918241986e6 0.0
7.999746918241986e6 2.5457772836053476e7 0.0
0.0 0.0 0.0

5.351333097360948e6 3.300901945186224e7 0.0
3.300901945186224e7 -8.01248518680965e6 0.0
0.0 0.0 0.0

-480562.80104901013 1.6642320025289327e7 0.0
1.6642320025289327e7 -835688.795060891 0.0
0.0 0.0 0.0

4.586165966332758e6 3.4647532913902337e6 0.0
3.4647532913902337e6 -3.0065687391273435e7 0.0
0.0 0.0 0.0

1.9385145950823266e7 1.5445195856688755e7 0.0
1.5445195856688755e7 1.0294141352421697e6 0.0
0.0 0.0 0.0

-3.860347868974409e6 1.7525732361704506e7 0.0
1.7525732361704506e7 1.1364082024947388e7 0.0
0.0 0.0 0.0

3.7397077344095875e6 6.085198915287878e6 0.0
6.085198915287878e6 -2.7556393821851447e7 0.0
0.0 0.0 0.0

-961038.8066392482 2.0375791453861143e7 0.0
2.0375791453861143e7 -4.9257978039842965e6 0.0
0.0 0.0 0.0

575927.9557428206 1.6461162250772027e7 0.0
1.6461162250772027e7 -7.36541585478959e6 0.0
0.0 0.0 0.0

-2.477308674274832e6 1.5755976033353006e7 0.0
1.5755976033353006e7 -1.0088969010260837e7 0.0
0.0 0.0 0.0

-230559.2168523688 1.5855394243707307e7 0.0
1.5855394243707307e7 -8.678471456892604e6 0.0
0.0 0.0 0.0

6.362966370544253e6 1.9058558508015092e7 0.0
1.9058558508015092e7 8.96797870678104e6 0.0
0.0 0.0 0.0

2.4119345509037804e6 6.486365711381609e6 0.0
6.486365711381609e6 -4.644849839929818e7 0.0
0.0 0.0 0.0

-5.076636380367753e6 1.9965411648750603e7 0.0
1.9965411648750603e7 9.344473711770734e6 0.0
0.0 0.0 0.0

1.506436177482402e6 4.5466372562455395e6 0.0
4.5466372562455395e6 -4.471986647250123e6 0.0
0.0 0.0 0.0

-1.2213961090574369e7 1.240792673094459e7 0.0
1.240792673094459e7 2.0877558790580854e7 0.0
0.0 0.0 0.0

4.65000681111599e6 4.427457776057402e6 0.0
4.427457776057402e6 -1.6797363620722953e7 0.0
0.0 0.0 0.0

-9.511054537527027e6 -3.932906153053795e6 0.0
-3.932906153053795e6 3.0441390691299487e7 0.0
0.0 0.0 0.0

1.6248848065491589e6 1.3106512829185743e7 0.0
1.3106512829185743e7 -1.6434626238317749e7 0.0
0.0 0.0 0.0

1.4087509594359465e6 3.074533466482606e6 0.0
3.074533466482606e6 -4.6415654406776605e6 0.0
0.0 0.0 0.0

2.1896385139794108e6 1.560748379925688e7 0.0
1.560748379925688e7 1.1532874477741364e7 0.0
0.0 0.0 0.0

-3.287172549800524e6 2.267287151792956e7 0.0
2.267287151792956e7 3.535907823017838e6 0.0
0.0 0.0 0.0

-1.028909488037562e7 -2.6992302364014955e6 0.0
-2.6992302364014955e6 2.8778434234677102e7 0.0
0.0 0.0 0.0

-2.017100716575672e6 1.706835571496832e7 0.0
1.706835571496832e7 6.245734851992624e6 0.0
0.0 0.0 0.0

2.712464249659662e6 1.87718120371244e7 0.0
1.87718120371244e7 -5.415640070334921e6 0.0
0.0 0.0 0.0

-3.5320837907255036e6 1.982791249685229e7 0.0
1.982791249685229e7 197221.00879064365 0.0
0.0 0.0 0.0

-2.5788726827505114e6 1.8326780374593068e7 0.0
1.8326780374593068e7 -6.9227246789101595e6 0.0
0.0 0.0 0.0

-3.1085964086930095e6 1.999829010884297e7 0.0
1.999829010884297e7 1.4907577585299793e6 0.0
0.0 0.0 0.0

-3.8642403937324397e6 1.4182977099875746e7 0.0
1.4182977099875746e7 -1.5379346439566487e7 0.0
0.0 0.0 0.0

1.155599195494779e7 2.032283249344561e7 0.0
2.032283249344561e7 -6.648543247248488e6 0.0
0.0 0.0 0.0

-802792.584248188 1.4902354489886193e7 0.0
1.4902354489886193e7 -1.2346842533349367e7 0.0
0.0 0.0 0.0

-6.309125124056515e6 1.7159529430608757e7 0.0
1.7159529430608757e7 1.815506377970695e7 0.0
0.0 0.0 0.0

1.1860046932660602e6 1.7987830290420216e7 0.0
1.7987830290420216e7 1.1699957406718416e7 0.0
0.0 0.0 0.0

2.838780229119436e6 9.421816639767537e6 0.0
9.421816639767537e6 -1.889799684250546e7 0.0
0.0 0.0 0.0

-6.370749497326143e6 1.082875333352789e7 0.0
1.082875333352789e7 7.410410557569445e6 0.0
0.0 0.0 0.0

-3.3425373241325477e6 2.5537173484239213e7 0.0
2.5537173484239213e7 1.992293941235667e6 0.0
0.0 0.0 0.0

-7.0877304713514475e6 1.6667627430935321e7 0.0
1.6667627430935321e7 1.3284005564530566e7 0.0
0.0 0.0 0.0

327013.5869375223 2.657764189113338e7 0.0
2.657764189113338e7 -655565.8972245215 0.0
0.0 0.0 0.0

1.2449543726252466e6 1.2873704470804391e7 0.0
1.2873704470804391e7 -1.7468334339863397e7 0.0
0.0 0.0 0.0

-1.4876985253741961e7 2.2335325271520916e7 0.0
2.2335325271520916e7 -5.178079475569008e6 0.0
0.0 0.0 0.0

4.461967855627483e6 4.683859889249265e6 0.0
4.683859889249265e6 -3.3266195858701263e7 0.0
0.0 0.0 0.0

5.974088981774637e6 2.648088675410174e7 0.0
2.648088675410174e7 -4.510815711541533e6 0.0
0.0 0.0 0.0

-1.5909495109136771e7 2.6192370898781974e7 0.0
2.6192370898781974e7 7.861876419383921e6 0.0
0.0 0.0 0.0

-914248.8807905475 1.6823577256933436e7 0.0
1.6823577256933436e7 1.3420326129346535e7 0.0
0.0 0.0 0.0

-2.904926345573006e7 2.5642957385369565e7 0.0
2.5642957385369565e7 8.685903541377917e6 0.0
0.0 0.0 0.0

4.762886027493931e6 3.4723814031700213e6 0.0
3.4723814031700213e6 -3.0847921334969968e7 0.0
0.0 0.0 0.0

-6.709323202375252e6 1.6553984228465235e7 0.0
1.6553984228465235e7 1.4479452205987744e7 0.0
0.0 0.0 0.0

-7.584563568356114e6 5.623951390806153e6 0.0
5.623951390806153e6 8.691919494702488e6 0.0
0.0 0.0 0.0

4.432066587793901e6 3.7770606287915306e6 0.0
3.7770606287915306e6 -1.7679950119197406e7 0.0
0.0 0.0 0.0

133323.29760051752 1.6535393541339386e7 0.0
1.6535393541339386e7 -8.659147712817265e6 0.0
0.0 0.0 0.0

-6.650194748030296e6 3.033039189599364e7 0.0
3.033039189599364e7 4.851844124749315e6 0.0
0.0 0.0 0.0

-1.2664207597922461e7 1.3352912115627347e7 0.0
1.3352912115627347e7 9.472510325806666e6 0.0
0.0 0.0 0.0

-2.6593388863187153e7 2.2449786800039623e7 0.0
2.2449786800039623e7 3.8941284865847435e6 0.0
0.0 0.0 0.0

2.7513929672428016e7 1.7352453081416793e7 0.0
1.7352453081416793e7 9.060719624708971e6 0.0
0.0 0.0 0.0

-4.3551682759260945e6 1.4353077218818797e7 0.0
1.4353077218818797e7 -5.9846442700056486e7 0.0
0.0 0.0 0.0

-77374.76481249835 1.5602036812457798e7 0.0
1.5602036812457798e7 -1.0590447393669201e7 0.0
0.0 0.0 0.0

-6.165953976956965e6 1.6850400142517556e7 0.0
1.6850400142517556e7 1.797814088244817e7 0.0
0.0 0.0 0.0

-512953.3191913164 1.8848712002959322e7 0.0
1.8848712002959322e7 -7.760273528261353e6 0.0
0.0 0.0 0.0

-2.453979007536195e6 2.1627730583178915e7 0.0
2.1627730583178915e7 -18303.695140130352 0.0
0.0 0.0 0.0

1.3518177617939264e6 1.4574804605991311e7 0.0
1.4574804605991311e7 6.658049669437539e6 0.0
0.0 0.0 0.0

-13314.26048245246 2.606453198796268e7 0.0
2.606453198796268e7 -573851.7539354368 0.0
0.0 0.0 0.0

-8.715716694395993e6 5.427475400682118e6 0.0
5.427475400682118e6 1.181454716956304e7 0.0
0.0 0.0 0.0

3.726718053095709e7 2.450027224494355e7 0.0
2.450027224494355e7 1.2137052165487345e7 0.0
0.0 0.0 0.0

-910875.153342425 2.1396062347896524e7 0.0
2.1396062347896524e7 -4.626711296330745e6 0.0
0.0 0.0 0.0

2.084240938356138e6 1.4155406090591311e7 0.0
1.4155406090591311e7 8.891729532555033e6 0.0
0.0 0.0 0.0

-8.300078358542221e6 2.079147779835704e7 0.0
2.079147779835704e7 2.301547681007804e6 0.0
0.0 0.0 0.0

-2.236793427869281e6 1.5797372767215814e7 0.0
1.5797372767215814e7 1.322276570712404e7 0.0
0.0 0.0 0.0

-1.1933537809479928e6 2.033128514207592e7 0.0
2.033128514207592e7 -4.579311586445315e6 0.0
0.0 0.0 0.0

3.6287901055419743e6 7.439909076587021e6 0.0
7.439909076587021e6 -2.4675625052846644e7 0.0
0.0 0.0 0.0

-4.2178851083137775e6 1.879718828187048e7 0.0
1.879718828187048e7 4.915484066742911e6 0.0
0.0 0.0 0.0

-4.64544174638532e6 1.8737261849154513e7 0.0
1.8737261849154513e7 3.069185674521053e6 0.0
0.0 0.0 0.0

1.6204907558018165e6 7.334477342301636e6 0.0
7.334477342301636e6 -9.981490994016284e6 0.0
0.0 0.0 0.0

-4.242481764181443e6 1.9489933053478166e7 0.0
1.9489933053478166e7 9.799476995234612e6 0.0
0.0 0.0 0.0

-1.03957173095117e7 3.9275145053170803e6 0.0
3.9275145053170803e6 3.73489292644402e7 0.0
0.0 0.0 0.0

-610452.3809395701 9.958298247611519e6 0.0
9.958298247611519e6 -3.0006745733217364e6 0.0
0.0 0.0 0.0

-8.900357674211714e6 2.0614836196040224e7 0.0
2.0614836196040224e7 -3.967910156378963e6 0.0
0.0 0.0 0.0

2.5121402132470638e7 2.2156969800005462e7 0.0
2.2156969800005462e7 1.0173968488216884e7 0.0
0.0 0.0 0.0

1.4299991883702567e6 1.2463550154949091e7 0.0
1.2463550154949091e7 -2.1925899040691596e7 0.0
0.0 0.0 0.0

4.244766062239021e6 6.067057794897164e6 0.0
6.067057794897164e6 -2.585612526389566e7 0.0
0.0 0.0 0.0

5.356670859775472e6 1.7451455290043738e7 0.0
1.7451455290043738e7 1.5982403639624354e6 0.0
0.0 0.0 0.0

-5.558075952193814e6 9.021050694498168e6 0.0
9.021050694498168e6 1.4650151902027365e7 0.0
0.0 0.0 0.0

-2.7181241618171954e6 2.092601161959715e7 0.0
2.092601161959715e7 347462.2069247067 0.0
0.0 0.0 0.0

-1.8530091624897346e6 1.814157931923424e7 0.0
1.814157931923424e7 -5.893549334043223e6 0.0
0.0 0.0 0.0

-1.4020290534320837e6 1.8302267135982893e7 0.0
1.8302267135982893e7 -7.339205771617155e6 0.0
0.0 0.0 0.0

-697458.9743268457 1.6053712640624776e7 0.0
1.6053712640624776e7 -5.978211004881785e6 0.0
0.0 0.0 0.0

2.148392932799773e6 7.967594472338626e6 0.0
7.967594472338626e6 -9.032167843001815e6 0.0
0.0 0.0 0.0

2.053574126339898e7 1.983845047814302e7 0.0
1.983845047814302e7 6.705372047225753e6 0.0
0.0 0.0 0.0

1.3141247141450683e6 1.499331632037788e7 0.0
1.499331632037788e7 6.0444559111064365e6 0.0
0.0 0.0 0.0

-3.4395481993901804e6 2.5217987755257048e7 0.0
2.5217987755257048e7 3.5296361752017355e6 0.0
0.0 0.0 0.0

-2.9347379082261074e7 1.681713098852308e7 0.0
1.681713098852308e7 9.166828865267944e6 0.0
0.0 0.0 0.0

4.442355534371052e6 4.160606609906651e6 0.0
4.160606609906651e6 -1.588774694629903e7 0.0
0.0 0.0 0.0

5419.534334918717 1.6300773604288409e7 0.0
1.6300773604288409e7 4.517306645784415e6 0.0
0.0 0.0 0.0

-2.6727037650719862e6 1.3591073629476171e7 0.0
1.3591073629476171e7 -1.4661967492858535e7 0.0
0.0 0.0 0.0

265542.4978045309 1.4617663338188853e7 0.0
1.4617663338188853e7 -1.6575606114022601e7 0.0
0.0 0.0 0.0

-8.898047776866285e6 -5.6043883960008565e6 0.0
-5.6043883960008565e6 1.87314687529903e7 0.0
0.0 0.0 0.0

1.5574905966457892e6 1.1886807282689696e7 0.0
1.1886807282689696e7 -1.5579874861710567e7 0.0
0.0 0.0 0.0

-6.002339265588053e6 1.528795965709154e7 0.0
1.528795965709154e7 -3.395040311824227e7 0.0
0.0 0.0 0.0

1.8230333367328644e6 1.1412425788328648e7 0.0
1.1412425788328648e7 -1.6410116346628074e7 0.0
0.0 0.0 0.0

569579.2721104221 1.701528156641668e7 0.0
1.701528156641668e7 -8.103024051839518e6 0.0
0.0 0.0 0.0

2.1193848376279812e7 1.7857645915284596e7 0.0
1.7857645915284596e7 4.857433331401611e6 0.0
0.0 0.0 0.0

-1.0731720139604531e7 1.2432164834388647e7 0.0
1.2432164834388647e7 2.6324028593660578e7 0.0
0.0 0.0 0.0

-3.0850446687064553e6 1.903838045800858e7 0.0
1.903838045800858e7 -7.428080921406092e6 0.0
0.0 0.0 0.0

-2262.918505715752 1.5055438078027308e7 0.0
1.5055438078027308e7 96429.29617820762 0.0
0.0 0.0 0.0

-4.68153479945116e6 1.786532286345311e7 0.0
1.786532286345311e7 -8.738875156664316e6 0.0
0.0 0.0 0.0

1.9601826240846775e7 2.0960843385972895e7 0.0
2.0960843385972895e7 8.650457359871242e6 0.0
0.0 0.0 0.0

-4.915713348871781e6 1.951480776184478e7 0.0
1.951480776184478e7 1.0336008084421653e7 0.0
0.0 0.0 0.0

1.2774111797894344e6 1.635382023492762e7 0.0
1.635382023492762e7 -3.6757203268027166e6 0.0
0.0 0.0 0.0

-1.817700254569681e6 2.28869657286102e7 0.0
2.28869657286102e7 -648993.3514646093 0.0
0.0 0.0 0.0

-4.251469551718599e6 1.884965526480022e7 0.0
1.884965526480022e7 5.637489111768901e6 0.0
0.0 0.0 0.0

-7.69378400716269e6 700942.3593188965 0.0
700942.3593188965 5.79136630043823e7 0.0
0.0 0.0 0.0

-365545.21322086547 1.686771296188663e7 0.0
1.686771296188663e7 -1.1123679116620705e7 0.0
0.0 0.0 0.0

-2.9328530174428006e6 2.262082690083537e7 0.0
2.262082690083537e7 2.208709197524246e6 0.0
0.0 0.0 0.0

462922.7011098758 4.1281492290687496e6 0.0
4.1281492290687496e6 -1.6431226705838223e6 0.0
0.0 0.0 0.0

-1.1376119970894428e7 1.4031664403003586e7 0.0
1.4031664403003586e7 2.0341426773500174e7 0.0
0.0 0.0 0.0

-3.2779731276076175e6 1.5730780697324585e7 0.0
1.5730780697324585e7 -6.724333898947134e6 0.0
0.0 0.0 0.0

4.445920838826811e6 4.192982561593337e6 0.0
4.192982561593337e6 -2.131311955769285e7 0.0
0.0 0.0 0.0

-2.590663074296458e6 2.586883869375354e7 0.0
2.586883869375354e7 2.532980962066401e6 0.0
0.0 0.0 0.0

1.981571192913415e6 1.2072171335032357e7 0.0
1.2072171335032357e7 -1.4287771613354446e7 0.0
0.0 0.0 0.0

-7.672849658887742e6 1.6049251255611753e7 0.0
1.6049251255611753e7 1.5820999053065436e7 0.0
0.0 0.0 0.0

3.4093534783433564e6 5.880508322547223e6 0.0
5.880508322547223e6 -4.294263633592702e7 0.0
0.0 0.0 0.0

-3.973142121506896e6 2.4905292135876533e7 0.0
2.4905292135876533e7 3.14868072673402e6 0.0
0.0 0.0 0.0

-5.2839929643629715e6 1.4647416768425124e7 0.0
1.4647416768425124e7 -2.0823962056142583e7 0.0
0.0 0.0 0.0

3.681452106106481e6 3.3861286030943734e6 0.0
3.3861286030943734e6 -1.1061505182432838e7 0.0
0.0 0.0 0.0

-200664.80207758374 9.405032632324984e6 0.0
9.405032632324984e6 -3.9951732895803624e6 0.0
0.0 0.0 0.0

-1.325418927686744e7 2.6419737902817257e7 0.0
2.6419737902817257e7 6.911646231603027e6 0.0
0.0 0.0 0.0

2.9285103654944897e6 1.427650574953243e7 0.0
1.427650574953243e7 1.0480792362352604e7 0.0
0.0 0.0 0.0

-7.057096368006002e6 2.8747308547882263e7 0.0
2.8747308547882263e7 3.6116166002835827e6 0.0
0.0 0.0 0.0

-1.1363185175692141e7 3.333735089749349e6 0.0
3.333735089749349e6 2.01805316561433e7 0.0
0.0 0.0 0.0

2.193257687103631e6 8.452349274044354e6 0.0
8.452349274044354e6 -4.766639488442821e7 0.0
0.0 0.0 0.0

4.961662546698115e7 1.7015863241741206e7 0.0
1.7015863241741206e7 -1.464359210000772e6 0.0
0.0 0.0 0.0

-2.669670545473434e6 2.147564855584641e7 0.0
2.147564855584641e7 552015.7404254357 0.0
0.0 0.0 0.0

-4.961799209567502e6 2.262453255948736e7 0.0
2.262453255948736e7 6.0478002972656395e6 0.0
0.0 0.0 0.0

-3.5389947634980967e6 2.0312903231790803e7 0.0
2.0312903231790803e7 3.8963667932772883e6 0.0
0.0 0.0 0.0

2.5632971588480435e6 1.7501605274877388e7 0.0
1.7501605274877388e7 3.859318221040744e7 0.0
0.0 0.0 0.0

4.3256968187226765e6 4.354631433123887e6 0.0
4.354631433123887e6 -2.469031482476427e7 0.0
0.0 0.0 0.0

445410.9035824868 1.1406213684177052e7 0.0
1.1406213684177052e7 -7.15321474224815e6 0.0
0.0 0.0 0.0

2.4869956416008626e6 2.4855379834712204e7 0.0
2.4855379834712204e7 -3.738169307362891e6 0.0
0.0 0.0 0.0

2.259510075447725e6 9.629480559901616e6 0.0
9.629480559901616e6 -2.802891036372528e7 0.0
0.0 0.0 0.0

-1.7459720821356203e7 1.5183736081015326e7 0.0
1.5183736081015326e7 9.136284733049259e6 0.0
0.0 0.0 0.0

-4.714517293206204e6 1.8853465897188447e7 0.0
1.8853465897188447e7 2.0866297946791956e6 0.0
0.0 0.0 0.0

69231.6104055111 1.4497648159693498e7 0.0
1.4497648159693498e7 3.0272640260503152e6 0.0
0.0 0.0 0.0

2.2123330296714585e6 1.1617171666619178e7 0.0
1.1617171666619178e7 -1.5164037388852693e7 0.0
0.0 0.0 0.0

-256052.78828285262 1.713079220969396e7 0.0
1.713079220969396e7 2.26136973510096e7 0.0
0.0 0.0 0.0

5.848635432205776e6 2.4808654320897903e7 0.0
2.4808654320897903e7 -5.183351780196374e6 0.0
0.0 0.0 0.0

-3.585412235984267e7 1.5772048798710832e6 0.0
1.5772048798710832e6 8.407152653131017e6 0.0
0.0 0.0 0.0

2.6292813171572562e7 3.101896315588382e7 0.0
3.101896315588382e7 -1.170221774887171e7 0.0
0.0 0.0 0.0

5.162570393245383e6 2.5174599225652006e7 0.0
2.5174599225652006e7 -5.82763517077345e6 0.0
0.0 0.0 0.0

4.1474575668727066e6 4.244387730129189e6 0.0
4.244387730129189e6 -1.5310271089693569e7 0.0
0.0 0.0 0.0

-3.60144104390675e6 2.2691263293930624e7 0.0
2.2691263293930624e7 2.4535271628733864e6 0.0
0.0 0.0 0.0

2.6126613930828642e7 1.280537662716857e7 0.0
1.280537662716857e7 603074.9856183603 0.0
0.0 0.0 0.0

-9.823127652058711e6 6.271853483560269e6 0.0
6.271853483560269e6 4.002068850225273e7 0.0
0.0 0.0 0.0

-400968.55102896877 1.7042924446186166e7 0.0
1.7042924446186166e7 -1.0721541874868888e7 0.0
0.0 0.0 0.0

1.5892978694145095e7 1.5936078991989804e7 0.0
1.5936078991989804e7 3.7141211620143773e6 0.0
0.0 0.0 0.0

566779.2357233013 1.6971433639505353e7 0.0
1.6971433639505353e7 -9.293025711212944e6 0.0
0.0 0.0 0.0

4.556814706517706e6 4.6491630917423e6 0.0
4.6491630917423e6 -2.633877851239506e7 0.0
0.0 0.0 0.0

-2.341775947961984e6 2.1257953361104622e7 0.0
2.1257953361104622e7 -828175.4410624742 0.0
0.0 0.0 0.0

-2.1643763759798203e6 1.3764713730083067e7 0.0
1.3764713730083067e7 -1.3593208679263273e7 0.0
0.0 0.0 0.0

-738276.4349597415 2.2463736836238116e7 0.0
2.2463736836238116e7 -3.5272154982322785e6 0.0
0.0 0.0 0.0

-8.719312000129499e6 8.708623123724326e6 0.0
8.708623123724326e6 4.177640034297137e7 0.0
0.0 0.0 0.0

-245662.39371572994 1.4850077029872902e7 0.0
1.4850077029872902e7 -8.508016112617295e6 0.0
0.0 0.0 0.0

2.8883581249349387e6 9.163222261502104e6 0.0
9.163222261502104e6 -2.0280548761420395e7 0.0
0.0 0.0 0.0

1.458261638379347e6 1.905064805122048e7 0.0
1.905064805122048e7 -6.071633102097909e6 0.0
0.0 0.0 0.0

-1.5915736297539254e6 1.433597881537792e7 0.0
1.433597881537792e7 -7.607444858065e6 0.0
0.0 0.0 0.0

-1.0157541762404006e7 1.4735344603835011e6 0.0
1.4735344603835011e6 3.741617248114556e7 0.0
0.0 0.0 0.0

-849292.4691701038 1.734647722640717e7 0.0
1.734647722640717e7 1.5640137720662279e7 0.0
0.0 0.0 0.0

2.217944740184659e6 9.359634966767717e6 0.0
9.359634966767717e6 -2.9971458395028293e7 0.0
0.0 0.0 0.0

-181738.53858991282 2.228860690652822e7 0.0
2.228860690652822e7 -3.505651178266856e6 0.0
0.0 0.0 0.0

328811.2360665435 1.810487145740339e7 0.0
1.810487145740339e7 1.1455640562196232e7 0.0
0.0 0.0 0.0

3.579365429531441e6 8.333701308337382e6 0.0
8.333701308337382e6 -1.9788132282174777e7 0.0
0.0 0.0 0.0

3.733336120814648e7 1.924109934667562e7 0.0
1.924109934667562e7 7.5930242469476145e6 0.0
0.0 0.0 0.0

-584190.1677307114 2.1865357343929205e7 0.0
2.1865357343929205e7 -3.645213211623793e6 0.0
0.0 0.0 0.0

-9.583846938092664e6 -5.099629312652332e6 0.0
-5.099629312652332e6 2.2261025977041632e7 0.0
0.0 0.0 0.0

-1.1057607963864993e7 1.6497024776232813e6 0.0
1.6497024776232813e6 3.447970572890783e7 0.0
0.0 0.0 0.0

4.951068782829521e6 2.9196428459939165e6 0.0
2.9196428459939165e6 -2.2382157544642445e7 0.0
0.0 0.0 0.0

-4.097967239166485e6 1.9971393195642747e7 0.0
1.9971393195642747e7 3.428071885884192e6 0.0
0.0 0.0 0.0

-897220.8746349232 1.5516718385178607e7 0.0
1.5516718385178607e7 -6.578215714256109e6 0.0
0.0 0.0 0.0

-545637.3177414131 1.840350445966565e7 0.0
1.840350445966565e7 -8.700805000813125e6 0.0
0.0 0.0 0.0

-9.152221467765223e6 -1.6222305930479965e6 0.0
-1.6222305930479965e6 1.6457969654054299e7 0.0
0.0 0.0 0.0

-1.1043474833169598e6 1.8647719333462693e7 0.0
1.8647719333462693e7 -6.198124703348351e6 0.0
0.0 0.0 0.0

-1.0273671243140638e7 1.3492931713155976e6 0.0
1.3492931713155976e6 3.709689940514968e7 0.0
0.0 0.0 0.0

5.216517467133098e6 1.6542145727554187e7 0.0
1.6542145727554187e7 3.2591032128161164e6 0.0
0.0 0.0 0.0

1.655760588922942e6 1.0977819795213306e7 0.0
1.0977819795213306e7 -2.8562302280750655e7 0.0
0.0 0.0 0.0

2.718843720727483e6 9.28307234650681e6 0.0
9.28307234650681e6 -2.9978450704684548e7 0.0
0.0 0.0 0.0

-1.1613872306496985e7 1.3775685132152192e7 0.0
1.3775685132152192e7 2.118732777373762e7 0.0
0.0 0.0 0.0

-3.917705285292782e6 1.699832019445619e7 0.0
1.699832019445619e7 3.7415976000405904e6 0.0
0.0 0.0 0.0

1.1090678475117455e6 4.657172447458615e6 0.0
4.657172447458615e6 -3.2712306053651925e6 0.0
0.0 0.0 0.0

-400129.7142703431 1.5485152590392806e7 0.0
1.5485152590392806e7 -7.504506904521678e6 0.0
0.0 0.0 0.0

-3.8741724064925523e6 2.1801325302022543e7 0.0
2.1801325302022543e7 5.888819356219282e6 0.0
0.0 0.0 0.0

2.5719948891199436e6 1.7441563944176596e7 0.0
1.7441563944176596e7 2.8369437713151004e7 0.0
0.0 0.0 0.0

7.308480935567113e6 1.867794837157801e7 0.0
1.867794837157801e7 -3.6622802369078253e6 0.0
0.0 0.0 0.0

-7.156016931170125e6 272614.3329070738 0.0
272614.3329070738 5.6086958954079874e7 0.0
0.0 0.0 0.0

-1.0550908758284694e7 8.164806898747479e6 0.0
8.164806898747479e6 3.2659871864985153e7 0.0
0.0 0.0 0.0

-1.0970797194895383e7 1.3040594120877981e7 0.0
1.3040594120877981e7 1.7632640106632806e7 0.0
0.0 0.0 0.0

579449.782452469 1.5140940435004443e7 0.0
1.5140940435004443e7 6.87058855672417e6 0.0
0.0 0.0 0.0

-8.190546434081903e6 2.7545222595076533e6 0.0
2.7545222595076533e6 1.1821828039649546e7 0.0
0.0 0.0 0.0

-8.780081274515333e6 1.832287709354476e7 0.0
1.832287709354476e7 -556851.2861127728 0.0
0.0 0.0 0.0

4.674770068658417e6 5.043432109231657e6 0.0
5.043432109231657e6 -2.3561623546053648e7 0.0
0.0 0.0 0.0

-4.361796584835816e6 1.4792146978536071e7 0.0
1.4792146978536071e7 -2.9223120563541718e7 0.0
0.0 0.0 0.0

632235.0990573219 1.4963365017621346e7 0.0
1.4963365017621346e7 4.204762234515295e6 0.0
0.0 0.0 0.0

9.378541112889023e6 2.2547677159940798e7 0.0
2.2547677159940798e7 -7.190726304560034e6 0.0
0.0 0.0 0.0

825323.6424079221 1.7405844899859577e7 0.0
1.7405844899859577e7 -7.490738426601319e6 0.0
0.0 0.0 0.0

-1.4751935323496347e7 2.1709064542178858e7 0.0
2.1709064542178858e7 -3.585680968481945e6 0.0
0.0 0.0 0.0

-2.7045183925725324e6 2.1970942519902032e7 0.0
2.1970942519902032e7 -815755.4246141859 0.0
0.0 0.0 0.0

-544387.3422094426 6.368056391442316e6 0.0
6.368056391442316e6 -3.580057157838877e6 0.0
0.0 0.0 0.0

-5.254335774894547e6 2.9471752639191486e7 0.0
2.9471752639191486e7 4.758629259839788e6 0.0
0.0 0.0 0.0

-3.7007827932477393e6 1.7355911567623217e7 0.0
1.7355911567623217e7 2.7678914303182857e6 0.0
0.0 0.0 0.0

-1.1085084602675e7 5.420806286428352e6 0.0
5.420806286428352e6 1.2963683890655275e7 0.0
0.0 0.0 0.0

-4.0979235606616805e6 1.7228942588312432e7 0.0
1.7228942588312432e7 1.2581671814173323e6 0.0
0.0 0.0 0.0

-1.8364021666599542e6 2.935128292233791e6 0.0
2.935128292233791e6 271919.1404750885 0.0
0.0 0.0 0.0

471401.5233379714 8.978093633236624e6 0.0
8.978093633236624e6 -1.0905015573464472e7 0.0
0.0 0.0 0.0

1.71735355041988e6 1.1425202211268432e7 0.0
1.1425202211268432e7 -2.5029893902942035e7 0.0
0.0 0.0 0.0

-5.76551647217339e6 1.9024543801886264e7 0.0
1.9024543801886264e7 -5.581950737699393e6 0.0
0.0 0.0 0.0

-6.034069925884933e6 1.7125332737806104e7 0.0
1.7125332737806104e7 1.7322268317052253e7 0.0
0.0 0.0 0.0

-686456.1969644795 1.5411906115635678e7 0.0
1.5411906115635678e7 -4.828946142749289e6 0.0
0.0 0.0 0.0

3.420906900714983e6 4.396519339212387e6 0.0
4.396519339212387e6 -1.1228377055950215e7 0.0
0.0 0.0 0.0

-2.203897140167201e6 1.9947916084446475e7 0.0
1.9947916084446475e7 -3.898654736497223e6 0.0
0.0 0.0 0.0

-2.1246992235697573e6 2.2711646638962373e7 0.0
2.2711646638962373e7 -1.4930963669515634e6 0.0
0.0 0.0 0.0

2.342618636783473e6 1.8695963810132228e7 0.0
1.8695963810132228e7 -5.536215322103626e6 0.0
0.0 0.0 0.0

-1.1397832981103294e7 8.062717660796627e6 0.0
8.062717660796627e6 1.4122531952879976e7 0.0
0.0 0.0 0.0

-913603.0645294962 1.460547953959014e7 0.0
1.460547953959014e7 -1.5363839346639289e7 0.0
0.0 0.0 0.0

-5.03637078028832e6 2.596374949984991e7 0.0
2.596374949984991e7 3.6045300516677992e6 0.0
0.0 0.0 0.0

-4.403341289213826e6 2.5438160408811722e7 0.0
2.5438160408811722e7 3.3659410981901344e6 0.0
0.0 0.0 0.0

-898772.9657707699 1.3465656247926015e7 0.0
1.3465656247926015e7 -2.307406402854947e7 0.0
0.0 0.0 0.0

-2.0296226960346675e6 1.4367907038279576e7 0.0
1.4367907038279576e7 -9.612985605668738e6 0.0
0.0 0.0 0.0

167785.11968730274 1.5515075612341974e7 0.0
1.5515075612341974e7 3.528959326381754e6 0.0
0.0 0.0 0.0

3.008934991403927e6 8.742048936949162e6 0.0
8.742048936949162e6 -2.4130521875860326e7 0.0
0.0 0.0 0.0

-1.1700758965044402e7 9.119087343016373e6 0.0
9.119087343016373e6 2.6932735949213102e7 0.0
0.0 0.0 0.0

502051.0881070867 1.1210431718858115e7 0.0
1.1210431718858115e7 -4.925342479036883e7 0.0
0.0 0.0 0.0

3.93649138429586e6 2.7374099854339555e7 0.0
2.7374099854339555e7 -5.901611266827163e6 0.0
0.0 0.0 0.0

3.634198883985609e6 1.5561095436744984e7 0.0
1.5561095436744984e7 1.790045593543537e7 0.0
0.0 0.0 0.0

646795.8750675824 1.6533148067969676e7 0.0
1.6533148067969676e7 2.519239939447731e7 0.0
0.0 0.0 0.0

1.4205426139589109e7 1.936132636172336e7 0.0
1.936132636172336e7 7.887586780584333e6 0.0
0.0 0.0 0.0

-526585.4887591621 1.4971965624396568e7 0.0
1.4971965624396568e7 2.252302236253539e6 0.0
0.0 0.0 0.0

-2.0353799902538396e6 1.9680091663710427e7 0.0
1.9680091663710427e7 -3.7085314175253487e6 0.0
0.0 0.0 0.0

-2.0697800303333458e7 2.1668391394930683e7 0.0
2.1668391394930683e7 -4.1583594803062943e6 0.0
0.0 0.0 0.0

-357516.31484354555 1.4224878606865488e7 0.0
1.4224878606865488e7 568941.6620823016 0.0
0.0 0.0 0.0

-2.886996165502595e6 1.8041373754700955e7 0.0
1.8041373754700955e7 4.198810087800912e6 0.0
0.0 0.0 0.0

4.849270921000772e6 4.275235416237184e6 0.0
4.275235416237184e6 -1.983126007866996e7 0.0
0.0 0.0 0.0

-9.229030432288323e6 1.9558433931522407e7 0.0
1.9558433931522407e7 897979.7116250941 0.0
0.0 0.0 0.0

-1.2394693168812033e7 3.0858795767660428e7 0.0
3.0858795767660428e7 5.613119740976259e6 0.0
0.0 0.0 0.0

-1.002559529858714e7 -384619.1013502215 0.0
-384619.1013502215 1.945450466983342e7 0.0
0.0 0.0 0.0

5.528616844560245e6 2.34046162292174e7 0.0
2.34046162292174e7 -5.309913053482703e6 0.0
0.0 0.0 0.0

-6.249520252395801e6 8.875627763796676e6 0.0
8.875627763796676e6 6.072734431183273e7 0.0
0.0 0.0 0.0

-9.188747105432887e6 -5.293094831854939e6 0.0
-5.293094831854939e6 2.1649937387770463e7 0.0
0.0 0.0 0.0

-8.510780794503968e6 1.6896433967647772e7 0.0
1.6896433967647772e7 -3.7257928301229835e7 0.0
0.0 0.0 0.0

19021.600858292077 1.6149557096043766e7 0.0
1.6149557096043766e7 -9.6762623100078e6 0.0
0.0 0.0 0.0

-1.9245266431425123e6 2.3365027619414583e7 0.0
2.3365027619414583e7 -446849.4255224939 0.0
0.0 0.0 0.0

-6.790132907595741e6 1.6587746293460187e7 0.0
1.6587746293460187e7 -3.631080288241354e6 0.0
0.0 0.0 0.0

-303880.9319763223 8.911892797682073e6 0.0
8.911892797682073e6 -3.1970621657292936e6 0.0
0.0 0.0 0.0

-2.7050189560569585e6 2.1051635044540487e7 0.0
2.1051635044540487e7 -1.8315737300562002e6 0.0
0.0 0.0 0.0

-3.3190427816931917e6 2.4750855608426187e7 0.0
2.4750855608426187e7 3.037699589498869e6 0.0
0.0 0.0 0.0

-1.7828718421334291e6 2.3453491395407073e7 0.0
2.3453491395407073e7 -698083.3744386612 0.0
0.0 0.0 0.0

-1.0292716731929965e6 1.0499704388827115e7 0.0
1.0499704388827115e7 -5.440985120490184e7 0.0
0.0 0.0 0.0

-3.9115196695324043e6 1.6229782115833284e7 0.0
1.6229782115833284e7 -1.083046143358038e7 0.0
0.0 0.0 0.0

-9.00157996324855e6 1.0050787956499957e6 0.0
1.0050787956499957e6 4.4756020680457994e7 0.0
0.0 0.0 0.0

7.997617046143757e6 1.977503383925904e7 0.0
1.977503383925904e7 4.39524426955707e7 0.0
0.0 0.0 0.0

-3.947280290767243e7 1.6502919687320527e6 0.0
1.6502919687320527e6 8.506424667914933e6 0.0
0.0 0.0 0.0

2.4860918646982815e7 1.9957645907410022e7 0.0
1.9957645907410022e7 -726727.8181155203 0.0
0.0 0.0 0.0

1.0520327552865697e6 1.3210715212484166e7 0.0
1.3210715212484166e7 -2.1171217669690013e7 0.0
0.0 0.0 0.0

2.3628457594760098e6 5.373512301267937e6 0.0
5.373512301267937e6 -7.521522833596389e6 0.0
0.0 0.0 0.0

3.4599843519267425e7 1.890411820023046e7 0.0
1.890411820023046e7 -6.613615314633766e6 0.0
0.0 0.0 0.0

3.421647738400031e6 1.0961423870842641e7 0.0
1.0961423870842641e7 -1.3776916856977914e7 0.0
0.0 0.0 0.0

1.8049258553230517e7 1.9109596910554163e7 0.0
1.9109596910554163e7 7.722591088029812e6 0.0
0.0 0.0 0.0

-2.9409745534399617e6 2.183576413399082e7 0.0
2.183576413399082e7 -349836.5109876881 0.0
0.0 0.0 0.0

-4.579423901172115e6 2.2182905921383712e7 0.0
2.2182905921383712e7 6.1288481827290915e6 0.0
0.0 0.0 0.0

-493549.5741067857 1.1761287431666432e7 0.0
1.1761287431666432e7 -7.708854752641325e6 0.0
0.0 0.0 0.0

-7.719733955806458e6 1.1658674218733083e7 0.0
1.1658674218733083e7 -1.0652038770814787e6 0.0
0.0 0.0 0.0

-3.2235147467540093e6 1.4516780663545089e7 0.0
1.4516780663545089e7 -1.469929306835909e7 0.0
0.0 0.0 0.0

-1.9314370773273548e6 1.7338820205506366e7 0.0
1.7338820205506366e7 6.215314208408508e6 0.0
0.0 0.0 0.0

433702.9660793608 1.686213451808869e7 0.0
1.686213451808869e7 8.147073143522289e6 0.0
0.0 0.0 0.0

-6.90016930213752e6 7.535755651645443e6 0.0
7.535755651645443e6 5.648750324641776e7 0.0
0.0 0.0 0.0

-3.2854992659098594e6 2.0628037116879914e7 0.0
2.0628037116879914e7 -159050.07352443459 0.0
0.0 0.0 0.0

4.947263143775842e6 2.9184406481848652e6 0.0
2.9184406481848652e6 -2.256014241551577e7 0.0
0.0 0.0 0.0

-4.519054713490861e6 1.8142951589265823e7 0.0
1.8142951589265823e7 1.220652450765288e7 0.0
0.0 0.0 0.0

-71274.49523865199 1.689105869088755e7 0.0
1.689105869088755e7 9.294010364796137e6 0.0
0.0 0.0 0.0

6.56873798886657e6 1.998282940246386e7 0.0
1.998282940246386e7 -5.242831876322664e6 0.0
0.0 0.0 0.0

-1.3397226770834215e6 1.989767538007414e7 0.0
1.989767538007414e7 -6.052674447311664e6 0.0
0.0 0.0 0.0

-4.0067162758926693e6 2.6988746752750807e7 0.0
2.6988746752750807e7 2.5538776640140843e6 0.0
0.0 0.0 0.0

-1.2604677625138182e6 6.786306992231994e6 0.0
6.786306992231994e6 -2.592063285470536e6 0.0
0.0 0.0 0.0

-9.604073002758913e6 2.5967869835302215e7 0.0
2.5967869835302215e7 5.719540463274908e6 0.0
0.0 0.0 0.0

-3.067253342738935e6 2.245530201106194e7 0.0
2.245530201106194e7 2.837660049537478e6 0.0
0.0 0.0 0.0

-1.0590387553825732e7 1.4180752109574862e7 0.0
1.4180752109574862e7 1.7581048698180094e7 0.0
0.0 0.0 0.0

2.004325916953494e7 1.8605349714286707e7 0.0
1.8605349714286707e7 -4.0596015550703313e6 0.0
0.0 0.0 0.0

341748.01884507714 1.5815937732553719e7 0.0
1.5815937732553719e7 -1.1597571437529946e7 0.0
0.0 0.0 0.0

-3.1444828343297923e6 2.1688780769766223e7 0.0
2.1688780769766223e7 206466.4056796746 0.0
0.0 0.0 0.0

-190715.9463888132 1.0820765699055903e7 0.0
1.0820765699055903e7 -7.99352434968e6 0.0
0.0 0.0 0.0

-2.191245241577444e6 1.7202549829929262e7 0.0
1.7202549829929262e7 9.875011221551916e6 0.0
0.0 0.0 0.0

-1.0876672472243857e7 1.1071664351232346e7 0.0
1.1071664351232346e7 1.7284611907905638e6 0.0
0.0 0.0 0.0

-1.0137988916070666e7 1.900858766972356e7 0.0
1.900858766972356e7 514401.92419616506 0.0
0.0 0.0 0.0

49491.20590221649 1.6016838385906862e7 0.0
1.6016838385906862e7 -9.614514867265118e6 0.0
0.0 0.0 0.0

4.929288819020419e6 1.400902797974533e7 0.0
1.400902797974533e7 4.2865054149654005e6 0.0
0.0 0.0 0.0

46707.56427408662 1.5355589137503754e7 0.0
1.5355589137503754e7 -1.4439040507814609e7 0.0
0.0 0.0 0.0

-6.409862711113244e6 1.7014148174829934e7 0.0
1.7014148174829934e7 1.718271495713846e7 0.0
0.0 0.0 0.0

-1.5340297530014392e7 1.6787027089161586e7 0.0
1.6787027089161586e7 5.562399384308395e6 0.0
0.0 0.0 0.0

-2.133648075823885e6 1.7170905394643318e7 0.0
1.7170905394643318e7 2.368221080751273e6 0.0
0.0 0.0 0.0

-1.255679038131357e7 4.320520991788337e6 0.0
4.320520991788337e6 1.83814586201096e7 0.0
0.0 0.0 0.0

298246.9800805296 1.6341335288228415e7 0.0
1.6341335288228415e7 1.2536156031755406e7 0.0
0.0 0.0 0.0

6.995296214852031e6 2.5182283285714258e7 0.0
2.5182283285714258e7 -7.011798951664764e6 0.0
0.0 0.0 0.0

-3.1177930404139597e7 2.067238212261042e7 0.0
2.067238212261042e7 5.965521161045842e6 0.0
0.0 0.0 0.0

3.361954463870357e6 3.0165107473814968e7 0.0
3.0165107473814968e7 -3.1210653919774005e6 0.0
0.0 0.0 0.0

-1.0523846855995197e7 1.971694001825623e7 0.0
1.971694001825623e7 485997.6783244647 0.0
0.0 0.0 0.0

1.3281799841641556e6 2.7867660559892237e7 0.0
2.7867660559892237e7 -1.2180818766276476e6 0.0
0.0 0.0 0.0

-1.1548574818477774e7 891469.1992418852 0.0
891469.1992418852 1.7455553267176386e7 0.0
0.0 0.0 0.0

8.410653157611988e6 1.9270065454508115e7 0.0
1.9270065454508115e7 -4.1204652705640323e6 0.0
0.0 0.0 0.0

-3.762359240422604e6 2.5738780024411958e7 0.0
2.5738780024411958e7 3.8334060473296833e6 0.0
0.0 0.0 0.0

-3.508315453351899e6 1.784940598963114e7 0.0
1.784940598963114e7 598891.5745029056 0.0
0.0 0.0 0.0

345643.0468815686 1.441811111581545e7 0.0
1.441811111581545e7 -1.7894940809625894e7 0.0
0.0 0.0 0.0

-5.530733941428866e6 2.37959454343947e7 0.0
2.37959454343947e7 5.592393017453154e6 0.0
0.0 0.0 0.0

-6.714736870706185e6 1.629695479874175e7 0.0
1.629695479874175e7 -19925.498569524847 0.0
0.0 0.0 0.0

706281.2902546282 2.7456070802743897e7 0.0
2.7456070802743897e7 -2.8908205874921484e6 0.0
0.0 0.0 0.0

-1.2261853484274942e7 2.6395908271964688e7 0.0
2.6395908271964688e7 7.108476932229703e6 0.0
0.0 0.0 0.0

5.43670496616817e6 1.9499218833377346e7 0.0
1.9499218833377346e7 -4.813073913753158e6 0.0
0.0 0.0 0.0

3.9657345935155237e6 5.6652848076449325e6 0.0
5.6652848076449325e6 -1.3752193777682127e7 0.0
0.0 0.0 0.0

-3.2935172160577327e6 1.4834763310400983e7 0.0
1.4834763310400983e7 -2.4372034315091647e7 0.0
0.0 0.0 0.0

3.4373949861339666e6 4.285485116578825e6 0.0
4.285485116578825e6 -1.2061786359989397e7 0.0
0.0 0.0 0.0

2.112958430051292e6 1.6072853100702515e7 0.0
1.6072853100702515e7 1.7213018081080496e7 0.0
0.0 0.0 0.0

2.8405525551879397e6 1.796684971337485e7 0.0
1.796684971337485e7 -4.433946310160336e6 0.0
0.0 0.0 0.0

3.6172899440588467e6 2.3630762622582983e7 0.0
2.3630762622582983e7 -4.751867832247959e6 0.0
0.0 0.0 0.0

-1.1420030454950433e7 1.4616141677991068e7 0.0
1.4616141677991068e7 1.995688239973852e7 0.0
0.0 0.0 0.0

117394.25176904164 1.22752846577641e7 0.0
1.22752846577641e7 -6.9303985718994625e6 0.0
0.0 0.0 0.0

-989973.8192803788 6.827688682422169e6 0.0
6.827688682422169e6 5.193590420237306e6 0.0
0.0 0.0 0.0

1.5735321162420064e6 9.748874063724821e6 0.0
9.748874063724821e6 -4.101061332161366e7 0.0
0.0 0.0 0.0

1.0383720738595235e6 1.3665815902377289e7 0.0
1.3665815902377289e7 3.6578857867694027e6 0.0
0.0 0.0 0.0

-1.1820606834269341e7 2.394384473473398e7 0.0
2.394384473473398e7 6.0609791607899675e6 0.0
0.0 0.0 0.0

-473390.5348952692 1.490124059689559e7 0.0
1.490124059689559e7 -1.0556618859411433e7 0.0
0.0 0.0 0.0

1.510199675554005e7 1.791565550299926e7 0.0
1.791565550299926e7 4.102302835118549e6 0.0
0.0 0.0 0.0

-1.1717445310930401e7 3.6205564285470536e6 0.0
3.6205564285470536e6 2.3955380470058743e7 0.0
0.0 0.0 0.0

-2.5502848101401415e7 2.343452348667661e7 0.0
2.343452348667661e7 4.556045370600142e6 0.0
0.0 0.0 0.0

1.8249601261519045e7 2.531671369112875e7 0.0
2.531671369112875e7 -1.2425943474015437e7 0.0
0.0 0.0 0.0

-4.620131622679258e6 2.235468905103912e7 0.0
2.235468905103912e7 6.841751339855857e6 0.0
0.0 0.0 0.0

-385913.75184994866 1.3017374819187626e7 0.0
1.3017374819187626e7 1.5544843366456684e6 0.0
0.0 0.0 0.0

-1.023392370342442e7 1.3966733710813465e7 0.0
1.3966733710813465e7 2.3300398380018745e7 0.0
0.0 0.0 0.0

-1.034461633866655e7 -3.8669421377015933e6 0.0
-3.8669421377015933e6 2.2764820728685565e7 0.0
0.0 0.0 0.0

-39329.65040932642 1.5544091006459527e7 0.0
1.5544091006459527e7 -1.258176132489595e7 0.0
0.0 0.0 0.0

-6.055315005780036e6 2.0997653793734122e7 0.0
2.0997653793734122e7 -7.1499566655214885e6 0.0
0.0 0.0 0.0

-395626.9773279126 1.5821974402585192e7 0.0
1.5821974402585192e7 -8.49500575968268e6 0.0
0.0 0.0 0.0

-9.173008454345288e6 9.057322258864174e6 0.0
9.057322258864174e6 3.809411502098041e7 0.0
0.0 0.0 0.0

1.3640310040825792e6 1.2491817524536071e7 0.0
1.2491817524536071e7 -2.0914168655853014e7 0.0
0.0 0.0 0.0

-6.587442112189616e6 2.1032465209423423e7 0.0
2.1032465209423423e7 -7.047981243866897e6 0.0
0.0 0.0 0.0

418034.030498757 1.4109291234339591e7 0.0
1.4109291234339591e7 -1.7795519115308776e7 0.0
0.0 0.0 0.0

1.5137920121552777e7 1.8046046253741648e7 0.0
1.8046046253741648e7 7.046073724225616e6 0.0
0.0 0.0 0.0

-1.033262813014368e7 7.262135163646968e6 0.0
7.262135163646968e6 3.509698948816024e7 0.0
0.0 0.0 0.0

856429.0791992939 1.6243148120211095e7 0.0
1.6243148120211095e7 -1.6893014915874586e6 0.0
0.0 0.0 0.0

-3.916414853453112e6 1.7579222220668085e7 0.0
1.7579222220668085e7 1.396914506136547e7 0.0
0.0 0.0 0.0

245393.53352207178 2.278009443784792e7 0.0
2.278009443784792e7 -3.508129853489388e6 0.0
0.0 0.0 0.0

3.4596138650257736e6 8.933437039098518e6 0.0
8.933437039098518e6 -2.113050227729281e7 0.0
0.0 0.0 0.0

2.195735743415133e6 8.450817811564185e6 0.0
8.450817811564185e6 -9.595003865442637e6 0.0
0.0 0.0 0.0

1.5683511405777298e6 1.0089058211619653e7 0.0
1.0089058211619653e7 -3.576041216168914e7 0.0
0.0 0.0 0.0

-5.808124506656504e6 1.9254703037157003e7 0.0
1.9254703037157003e7 -2.9483991873626285e6 0.0
0.0 0.0 0.0

-1.1576557918113736e7 6.890319894408085e6 0.0
6.890319894408085e6 3.1169276720868323e7 0.0
0.0 0.0 0.0

-4.772948705320008e6 1.91646948443584e7 0.0
1.91646948443584e7 -5.309101594065108e6 0.0
0.0 0.0 0.0

-143679.8166132695 1.5087111732945178e7 0.0
1.5087111732945178e7 -8.806330889741067e6 0.0
0.0 0.0 0.0

2.7042422735491972e6 8.074570596751247e6 0.0
8.074570596751247e6 -3.204010368072606e7 0.0
0.0 0.0 0.0

-1.102607942461353e7 1.2828879497913318e7 0.0
1.2828879497913318e7 2.4712210398275923e7 0.0
0.0 0.0 0.0

1.707986272269989e6 1.5068391125482455e7 0.0
1.5068391125482455e7 7.650569500844391e6 0.0
0.0 0.0 0.0

1.1516647155829426e6 1.1300624464644002e7 0.0
1.1300624464644002e7 -2.6978828098502796e7 0.0
0.0 0.0 0.0

4.6430814140146505e6 3.418491073808578e6 0.0
3.418491073808578e6 -2.4938346186452415e7 0.0
0.0 0.0 0.0

-5.238189910345527e6 1.7838808161909577e7 0.0
1.7838808161909577e7 1.2225484294676177e7 0.0
0.0 0.0 0.0

-4.634863034925281e6 2.001441831784086e7 0.0
2.001441831784086e7 -6.410727339643794e6 0.0
0.0 0.0 0.0

1.4503118015730618e6 1.157398554984539e7 0.0
1.157398554984539e7 -1.0925244657549942e7 0.0
0.0 0.0 0.0

-1.0763143088124022e7 373822.0796324925 0.0
373822.0796324925 2.8998528582697473e7 0.0
0.0 0.0 0.0

-526803.8025175699 2.682840447791601e6 0.0
2.682840447791601e6 639807.6010569279 0.0
0.0 0.0 0.0

-8.085721010488298e6 1.617247839456134e7 0.0
1.617247839456134e7 1.451629210254337e7 0.0
0.0 0.0 0.0

1.6071949067957059e7 1.9743469228239413e7 0.0
1.9743469228239413e7 8.895552778840471e6 0.0
0.0 0.0 0.0

1.1768546990228206e7 1.8707410023192134e7 0.0
1.8707410023192134e7 7.680234255500729e6 0.0
0.0 0.0 0.0

-9.261128124079289e6 2.0016334977598038e7 0.0
2.0016334977598038e7 -6.116157517779021e6 0.0
0.0 0.0 0.0

-2.270731914438605e6 1.3182839321735887e7 0.0
1.3182839321735887e7 -9.409706082158512e6 0.0
0.0 0.0 0.0

-4.951763494097688e6 1.9968555257205613e7 0.0
1.9968555257205613e7 -6.119161469890627e6 0.0
0.0 0.0 0.0

-7.0705886220397e6 1.9490340165974967e7 0.0
1.9490340165974967e7 -3.947765929288444e6 0.0
0.0 0.0 0.0

1.5770806806370504e6 1.054188667477705e7 0.0
1.054188667477705e7 -3.2056575018509045e7 0.0
0.0 0.0 0.0

52554.44844651269 4.256805945815719e6 0.0
4.256805945815719e6 -3.1366863590549272e6 0.0
0.0 0.0 0.0

-21774.011424673954 6.303576352436634e6 0.0
6.303576352436634e6 -1.831233149442792e6 0.0
0.0 0.0 0.0

515105.4671017659 1.4439893684895422e7 0.0
1.4439893684895422e7 709681.1163129581 0.0
0.0 0.0 0.0

1.0676620611120423e7 1.9220905320525225e7 0.0
1.9220905320525225e7 8.702570069317553e6 0.0
0.0 0.0 0.0

96694.36158010853 1.4410682145362096e7 0.0
1.4410682145362096e7 5.136809261642891e6 0.0
0.0 0.0 0.0

-6.191983720279771e6 1.708136521998645e7 0.0
1.708136521998645e7 1.2363671609365374e7 0.0
0.0 0.0 0.0

-2.1498976985291217e7 8.280467822094563e6 0.0
8.280467822094563e6 1.041457433753461e7 0.0
0.0 0.0 0.0

908993.8823401484 1.5124676373327045e7 0.0
1.5124676373327045e7 6.16222259028939e6 0.0
0.0 0.0 0.0

3.211997144361278e6 6.042271739287895e6 0.0
6.042271739287895e6 -1.4331161433783103e7 0.0
0.0 0.0 0.0

-1.1768127091505772e7 2.516716673149715e7 0.0
2.516716673149715e7 6.611264732457011e6 0.0
0.0 0.0 0.0

-1.0303925327262305e7 -1.3810784701495338e6 0.0
-1.3810784701495338e6 3.0831329621742055e7 0.0
0.0 0.0 0.0

-963831.3876982513 1.6707938163997563e7 0.0
1.6707938163997563e7 -6.683028007855601e6 0.0
0.0 0.0 0.0

3.624481927985414e6 1.8338698112151187e7 0.0
1.8338698112151187e7 1.0614455395035187e7 0.0
0.0 0.0 0.0

-4.80022162239679e6 1.9872365833910834e7 0.0
1.9872365833910834e7 -6.225828503759639e6 0.0
0.0 0.0 0.0

-1.1763852107892865e6 1.389354341697778e7 0.0
1.389354341697778e7 -2.1064314794649374e7 0.0
0.0 0.0 0.0

1.2290327178731382e7 1.95149842508296e7 0.0
1.95149842508296e7 9.062404172870042e6 0.0
0.0 0.0 0.0

-1.410069356563278e6 1.5035542497240003e7 0.0
1.5035542497240003e7 -1.59706817567017e7 0.0
0.0 0.0 0.0

364415.26947055245 1.5835235863865932e7 0.0
1.5835235863865932e7 7.540020917912689e6 0.0
0.0 0.0 0.0

1.0699280673591965e6 1.7465430206481043e7 0.0
1.7465430206481043e7 1.1469305409035902e7 0.0
0.0 0.0 0.0

-4.574132620842037e6 1.7624083844966765e7 0.0
1.7624083844966765e7 1.2753039065371895e7 0.0
0.0 0.0 0.0

-2.9193599802092765e6 1.7391219638244838e7 0.0
1.7391219638244838e7 8.106539061750028e6 0.0
0.0 0.0 0.0

4.0440341554480344e6 5.486461207376168e6 0.0
5.486461207376168e6 -2.42258317435829e7 0.0
0.0 0.0 0.0

-1.3009958620307848e6 2.4354202651820872e7 0.0
2.4354202651820872e7 -748747.4593063642 0.0
0.0 0.0 0.0

-4.1622450724283597e6 1.669888210225711e7 0.0
1.669888210225711e7 -9.173013879038924e6 0.0
0.0 0.0 0.0

1.9158043071512006e7 1.6544382441812007e7 0.0
1.6544382441812007e7 5.965552750636486e6 0.0
0.0 0.0 0.0

-7.235650020179119e6 2.331613211544871e7 0.0
2.331613211544871e7 6.283188389716681e6 0.0
0.0 0.0 0.0

4.447437328441309e6 4.686262677703313e6 0.0
4.686262677703313e6 -2.7639153940771583e7 0.0
0.0 0.0 0.0

-4.232591257107362e6 1.5724026545045087e7 0.0
1.5724026545045087e7 4.784199854861386e6 0.0
0.0 0.0 0.0

9.124865899167532e6 1.704904944199789e7 0.0
1.704904944199789e7 4.585396228693439e6 0.0
0.0 0.0 0.0

2.56063539316127e7 1.471423802400516e7 0.0
1.471423802400516e7 2.843855193425879e6 0.0
0.0 0.0 0.0

-4.704209976287431e6 2.5767545695144378e7 0.0
2.5767545695144378e7 4.7085541710373135e6 0.0
0.0 0.0 0.0

392250.9846668774 1.5967829321039302e7 0.0
1.5967829321039302e7 -1.3615140637309032e7 0.0
0.0 0.0 0.0

-1.0060688890716646e7 7.215076485819733e6 0.0
7.215076485819733e6 1.5583055239486098e7 0.0
0.0 0.0 0.0

-1.058542012571535e7 -1.408657735440116e6 0.0
-1.408657735440116e6 2.9313895506822947e7 0.0
0.0 0.0 0.0

934366.430685587 1.4954802711070137e7 0.0
1.4954802711070137e7 4.1041263586691334e6 0.0
0.0 0.0 0.0

6.8864816835882105e6 1.5826573758446578e7 0.0
1.5826573758446578e7 8.902036786864545e6 0.0
0.0 0.0 0.0

-1.154772679127632e7 1.392087029458526e6 0.0
1.392087029458526e6 2.266402777908584e7 0.0
0.0 0.0 0.0

-2.4410985384210646e6 1.0757679974660907e7 0.0
1.0757679974660907e7 -2.512332674815557e6 0.0
0.0 0.0 0.0

-2.511232886218713e6 1.6927518555862825e7 0.0
1.6927518555862825e7 -9.724795523277981e6 0.0
0.0 0.0 0.0

-2.026747944891991e6 1.41105470578988e7 0.0
1.41105470578988e7 -1.9535672765448626e7 0.0
0.0 0.0 0.0

-1.8761019623348715e6 2.389314903661157e7 0.0
2.389314903661157e7 -431690.03367346653 0.0
0.0 0.0 0.0

624049.8855518184 2.320069583802108e7 0.0
2.320069583802108e7 -3.79719140791905e6 0.0
0.0 0.0 0.0

42663.777643863345 2.966158136723067e7 0.0
2.966158136723067e7 -2.8975339568760144e6 0.0
0.0 0.0 0.0

-1.2055798558177244e7 2.9528800460496582e7 0.0
2.9528800460496582e7 6.971663997901039e6 0.0
0.0 0.0 0.0

4.3189056192899095e6 1.6234072932990963e7 0.0
1.6234072932990963e7 1.684243652190119e7 0.0
0.0 0.0 0.0

-4.0453798407822587e6 1.5018700825022895e7 0.0
1.5018700825022895e7 -5.195408974817901e7 0.0
0.0 0.0 0.0

-9.666657883989368e6 -2.552211453694247e6 0.0
-2.552211453694247e6 1.4297403677530387e7 0.0
0.0 0.0 0.0

-6.05744233260503e6 1.3845775377501857e7 0.0
1.3845775377501857e7 -2.206300658449363e7 0.0
0.0 0.0 0.0

-2.6787001112203887e6 1.255314731776601e7 0.0
1.255314731776601e7 -1.0415481185930498e7 0.0
0.0 0.0 0.0

3.088825044453383e6 1.6656016833813498e7 0.0
1.6656016833813498e7 1.6659420963753633e7 0.0
0.0 0.0 0.0

-5.494164211518164e6 1.5099685966586582e7 0.0
1.5099685966586582e7 -2.6554473495460503e7 0.0
0.0 0.0 0.0

-4.203497088457825e6 1.3821741857488327e7 0.0
1.3821741857488327e7 -1.9105465431920335e7 0.0
0.0 0.0 0.0

1.0264143418473363e7 1.9118362608537238e7 0.0
1.9118362608537238e7 7.349889519513268e6 0.0
0.0 0.0 0.0

-4.029926135181914e6 1.744005126286986e7 0.0
1.744005126286986e7 -8.168486753241072e6 0.0
0.0 0.0 0.0

3.5839171494265916e6 8.301795406382607e6 0.0
8.301795406382607e6 -2.3539881593250636e7 0.0
0.0 0.0 0.0

545983.2669374761 1.4969579082813578e7 0.0
1.4969579082813578e7 2.0751138207891784e6 0.0
0.0 0.0 0.0

-6.609602908214469e6 2.057809953243991e7 0.0
2.057809953243991e7 -6.864886764503257e6 0.0
0.0 0.0 0.0

2.0720179906612274e6 1.5215275045254514e7 0.0
1.5215275045254514e7 1.042345903781571e7 0.0
0.0 0.0 0.0

3.5695019442338394e6 4.3335759522805875e6 0.0
4.3335759522805875e6 -1.232617092795136e7 0.0
0.0 0.0 0.0

-3.3097725142652756e6 2.1550214207839087e7 0.0
2.1550214207839087e7 842155.8868467491 0.0
0.0 0.0 0.0

-3.822730407211332e6 2.423377307477524e7 0.0
2.423377307477524e7 2.9283392264528065e6 0.0
0.0 0.0 0.0

-1.1343246980630074e7 1.282713131625966e7 0.0
1.282713131625966e7 2.3518416642031506e7 0.0
0.0 0.0 0.0

715777.6636151101 1.531741014159761e7 0.0
1.531741014159761e7 6.411288074744148e6 0.0
0.0 0.0 0.0

1.712423392360168e6 1.7856695205850355e7 0.0
1.7856695205850355e7 1.2217770614443073e7 0.0
0.0 0.0 0.0

-3.7910772937998595e6 2.6758533112689e7 0.0
2.6758533112689e7 3.4935613769515716e6 0.0
0.0 0.0 0.0

-6.019551454992532e6 1.7041634584178697e7 0.0
1.7041634584178697e7 1.3016353817337869e7 0.0
0.0 0.0 0.0

-9.517862543619651e6 -4.514971878850168e6 0.0
-4.514971878850168e6 1.7412978725845892e7 0.0
0.0 0.0 0.0

-3.522524650888551e6 2.4225260545898937e7 0.0
2.4225260545898937e7 3.9653857160315095e6 0.0
0.0 0.0 0.0

-2.194233344997729e6 2.0857199359734576e7 0.0
2.0857199359734576e7 -1.6767400483055473e6 0.0
0.0 0.0 0.0

-4.423657248217526e6 1.695570213713768e7 0.0
1.695570213713768e7 2.0472758750779936e6 0.0
0.0 0.0 0.0

-1.5299089785216039e6 2.4103015437656738e7 0.0
2.4103015437656738e7 -832747.8853404132 0.0
0.0 0.0 0.0

-1.5131611691652024e6 2.3736599031669464e7 0.0
2.3736599031669464e7 -599984.395963905 0.0
0.0 0.0 0.0

-1.3870753998640282e6 1.6132970962953366e7 0.0
1.6132970962953366e7 -7.514992751053564e6 0.0
0.0 0.0 0.0

2.3847135225876602e6 1.5858165353911761e7 0.0
1.5858165353911761e7 7.949045755033258e6 0.0
0.0 0.0 0.0

3.194310412345129e6 8.241475961745621e6 0.0
8.241475961745621e6 -2.2275262479034692e7 0.0
0.0 0.0 0.0

-7.727517724630741e6 1.4992187910891633e7 0.0
1.4992187910891633e7 -3.0853191726585925e7 0.0
0.0 0.0 0.0

-3.044503982578914e6 1.815305633334656e7 0.0
1.815305633334656e7 2.4866843262883276e6 0.0
0.0 0.0 0.0

-2.459883488845706e7 2.6818075852585062e7 0.0
2.6818075852585062e7 -6.374625193892903e6 0.0
0.0 0.0 0.0

-4.772086556767614e6 1.4430613124827355e7 0.0
1.4430613124827355e7 -1.835686021230364e7 0.0
0.0 0.0 0.0

-2.764217090879103e7 2.5929565661423273e7 0.0
2.5929565661423273e7 -1.6297379363856195e6 0.0
0.0 0.0 0.0

-4.321513197547446e6 1.8807954577316456e7 0.0
1.8807954577316456e7 9.468381852138927e6 0.0
0.0 0.0 0.0

-9.74717869372506e6 -2.1778901409242195e6 0.0
-2.1778901409242195e6 3.431511932323277e7 0.0
0.0 0.0 0.0

-254226.3894693082 2.2706215815168828e7 0.0
2.2706215815168828e7 -3.4014591828553826e6 0.0
0.0 0.0 0.0

-9.344150407522416e6 2.147750571315069e7 0.0
2.147750571315069e7 -6.470440525730871e6 0.0
0.0 0.0 0.0

168484.66207920713 1.6383474349821864e7 0.0
1.6383474349821864e7 -1.2543515218781296e7 0.0
0.0 0.0 0.0

-9.358133194348928e6 2.5294193835586026e7 0.0
2.5294193835586026e7 6.306861631157401e6 0.0
0.0 0.0 0.0

-1.1627675015586575e7 4.179407347912801e6 0.0
4.179407347912801e6 1.8208828973710403e7 0.0
0.0 0.0 0.0

2.9057282554601524e6 8.961984451521324e6 0.0
8.961984451521324e6 -2.735041796390473e7 0.0
0.0 0.0 0.0

-1.2304604783535874e7 2.5045594323316835e7 0.0
2.5045594323316835e7 6.478371169527606e6 0.0
0.0 0.0 0.0

540486.6070307525 1.5541815145362994e7 0.0
1.5541815145362994e7 3.5031184389914256e6 0.0
0.0 0.0 0.0

-1.1572795368023138e7 6.064391741328014e6 0.0
6.064391741328014e6 1.4106595980932318e7 0.0
0.0 0.0 0.0

-764988.3782015638 1.529918805799012e7 0.0
1.529918805799012e7 -9.114831152697247e6 0.0
0.0 0.0 0.0

-157021.46414915565 2.1677367365540493e7 0.0
2.1677367365540493e7 -4.1862837469978277e6 0.0
0.0 0.0 0.0

-2.2420847674520705e7 8.69303614510139e6 0.0
8.69303614510139e6 9.775834514326744e6 0.0
0.0 0.0 0.0

-5.426670443208875e6 2.3388896489491068e7 0.0
2.3388896489491068e7 6.174712136006751e6 0.0
0.0 0.0 0.0

124464.60675145872 1.5675308308063056e7 0.0
1.5675308308063056e7 -1.443157292535353e7 0.0
0.0 0.0 0.0

3.101750991274031e6 8.445999035847858e6 0.0
8.445999035847858e6 -1.990537219283899e7 0.0
0.0 0.0 0.0

693609.3259990304 4.754885422283945e6 0.0
4.754885422283945e6 -4.688064303307001e6 0.0
0.0 0.0 0.0

1.1154122132017808e6 1.4332743913505828e7 0.0
1.4332743913505828e7 -1.5609789170564523e7 0.0
0.0 0.0 0.0

-1.441273676114271e7 2.1367831360448666e7 0.0
2.1367831360448666e7 -2.0728176665717522e6 0.0
0.0 0.0 0.0

1.8570682707910636e6 2.9369364547719978e7 0.0
2.9369364547719978e7 -2.266344120025868e6 0.0
0.0 0.0 0.0

-1.6925581137862466e6 1.6572838454113785e7 0.0
1.6572838454113785e7 2.0708664308222026e7 0.0
0.0 0.0 0.0

1.2336043519702978e6 1.5797643802452853e7 0.0
1.5797643802452853e7 7.757299613688099e6 0.0
0.0 0.0 0.0

4.49220212115496e6 1.4693506766340347e7 0.0
1.4693506766340347e7 1.6101234997915784e7 0.0
0.0 0.0 0.0

-2.8962102648210344e6 1.5892229566434827e7 0.0
1.5892229566434827e7 -9.654034377269873e6 0.0
0.0 0.0 0.0

-1.1436172770234913e7 1.2459994785587426e7 0.0
1.2459994785587426e7 2.3960733574461006e7 0.0
0.0 0.0 0.0

-1.63688385852814e6 1.4108578389910573e7 0.0
1.4108578389910573e7 -1.0771051592907865e7 0.0
0.0 0.0 0.0

-2.2034675971829783e7 2.6961421438893825e7 0.0
2.6961421438893825e7 9.485221047006179e6 0.0
0.0 0.0 0.0

-1.11163894009089e7 1.637131693613392e6 0.0
1.637131693613392e6 2.7554354318764687e7 0.0
0.0 0.0 0.0

-9.841897155160638e6 -2.103222876217042e6 0.0
-2.103222876217042e6 3.493405959453323e7 0.0
0.0 0.0 0.0

1.0499577319190884e6 1.1442225682364218e7 0.0
1.1442225682364218e7 -1.233565691434993e7 0.0
0.0 0.0 0.0

-662138.7584463803 1.9213223547330315e6 0.0
1.9213223547330315e6 457983.683511501 0.0
0.0 0.0 0.0

2.3041304582969304e6 8.812171530648578e6 0.0
8.812171530648578e6 -3.381414668434338e7 0.0
0.0 0.0 0.0

-1.107770065037724e7 9.999264610698722e6 0.0
9.999264610698722e6 2.8895667168500923e7 0.0
0.0 0.0 0.0

1.697962510156542e6 1.07095067570005e7 0.0
1.07095067570005e7 -2.679565500093446e7 0.0
0.0 0.0 0.0

-9.798231148457889e6 -2.5695239114922564e6 0.0
-2.5695239114922564e6 2.2114964556455944e7 0.0
0.0 0.0 0.0

-3.752645912631181e6 2.2372253369492523e7 0.0
2.2372253369492523e7 3.0611021324045504e6 0.0
0.0 0.0 0.0

270462.940527302 2.202399321024237e7 0.0
2.202399321024237e7 -4.1397259713320923e6 0.0
0.0 0.0 0.0

-3.7326626070767506e6 2.5279239252639446e7 0.0
2.5279239252639446e7 2.5157883651553947e6 0.0
0.0 0.0 0.0

-17601.803871750017 2.874954498584083e7 0.0
2.874954498584083e7 -1.404430910757333e6 0.0
0.0 0.0 0.0

-1.0223146421201685e6 2.6323949385507546e7 0.0
2.6323949385507546e7 -1.0056551876115061e6 0.0
0.0 0.0 0.0

-1.0659582831201792e7 -1.4823225292158406e6 0.0
-1.4823225292158406e6 2.8097214208326835e7 0.0
0.0 0.0 0.0

4.0979681123398803e6 4.965213246436672e6 0.0
4.965213246436672e6 -2.953188855278484e7 0.0
0.0 0.0 0.0

308168.1979325968 1.6710725220532339e7 0.0
1.6710725220532339e7 -9.743974841675024e6 0.0
0.0 0.0 0.0

-856850.8916155093 1.8163103974049047e7 0.0
1.8163103974049047e7 -7.176777541196436e6 0.0
0.0 0.0 0.0

2.590382711134849e6 1.0472265776905844e7 0.0
1.0472265776905844e7 -1.6705184599055467e7 0.0
0.0 0.0 0.0

-4.1495068626320246e6 1.2988733596113333e7 0.0
1.2988733596113333e7 -1.5034200136029638e7 0.0
0.0 0.0 0.0

826745.1546354175 1.4227656505940625e7 0.0
1.4227656505940625e7 2.755817252363951e6 0.0
0.0 0.0 0.0

-4.491908538693794e6 2.0176746900159195e7 0.0
2.0176746900159195e7 7.225368122648878e6 0.0
0.0 0.0 0.0

-7.704335421732567e6 2.3964554403557632e7 0.0
2.3964554403557632e7 5.899174604058719e6 0.0
0.0 0.0 0.0

-1.4894132138158008e6 1.3842788624370407e7 0.0
1.3842788624370407e7 -6.039496379867638e6 0.0
0.0 0.0 0.0

-1.0671060603117177e6 1.0943217024444994e7 0.0
1.0943217024444994e7 -2.816441756410983e6 0.0
0.0 0.0 0.0

4.592193058172534e6 3.88552777561379e6 0.0
3.88552777561379e6 -2.4001750654109836e7 0.0
0.0 0.0 0.0

1.28453632294598e6 1.6343543494660744e7 0.0
1.6343543494660744e7 -5.728640804405107e6 0.0
0.0 0.0 0.0

3.028693524105327e6 8.743389023688389e6 0.0
8.743389023688389e6 -2.1273780029291842e7 0.0
0.0 0.0 0.0

-2.027301350794534e6 7.179894737662885e6 0.0
7.179894737662885e6 -1.488493066518838e6 0.0
0.0 0.0 0.0

-1.118293256000485e6 9.954358129968174e6 0.0
9.954358129968174e6 -4.785753794033675e6 0.0
0.0 0.0 0.0

-783771.9900703026 3.7018407494366015e6 0.0
3.7018407494366015e6 -1.5094303494607848e6 0.0
0.0 0.0 0.0

-3.3821156978028156e6 2.0630153432352208e7 0.0
2.0630153432352208e7 3.1028305398730156e6 0.0
0.0 0.0 0.0

467064.013571864 1.472697692350275e7 0.0
1.472697692350275e7 -1.663592721143305e7 0.0
0.0 0.0 0.0

1.7967544580025598e6 8.612089994573815e6 0.0
8.612089994573815e6 -3.880926308877615e7 0.0
0.0 0.0 0.0

-4.152880251251839e6 1.861662122452811e7 0.0
1.861662122452811e7 -4.305507904291507e6 0.0
0.0 0.0 0.0

-1.698126089384874e7 2.4428472307449374e7 0.0
2.4428472307449374e7 -6.957974027539605e6 0.0
0.0 0.0 0.0

-1.5908545918156981e7 2.4312218542052735e7 0.0
2.4312218542052735e7 6.354490492384466e6 0.0
0.0 0.0 0.0

-6.285512084369315e6 2.079534731618236e7 0.0
2.079534731618236e7 -6.954933254947238e6 0.0
0.0 0.0 0.0

-2.0656730830562422e6 1.3678718124683244e7 0.0
1.3678718124683244e7 -2.564734271961766e7 0.0
0.0 0.0 0.0

-5.641790954932241e6 1.4083003540028788e7 0.0
1.4083003540028788e7 -1.8805970566945065e7 0.0
0.0 0.0 0.0

-1.248667685558067e7 2.259389677677607e7 0.0
2.259389677677607e7 -6.415115198622869e6 0.0
0.0 0.0 0.0

-7.882087105536395e6 1.5102433452642733e7 0.0
1.5102433452642733e7 -2.6273624722932108e7 0.0
0.0 0.0 0.0

-9.297943300010044e6 1.6150101356857367e7 0.0
1.6150101356857367e7 1.7386772932864927e7 0.0
0.0 0.0 0.0

-9.890977990431149e6 -1.444629871523813e6 0.0
-1.444629871523813e6 1.3950175549390007e7 0.0
0.0 0.0 0.0

-2.1605404200131046e6 2.0558195823175896e7 0.0
2.0558195823175896e7 -2.933490035859844e6 0.0
0.0 0.0 0.0

-5.637039859213626e6 1.8175100174888697e7 0.0
1.8175100174888697e7 1.087010526144114e7 0.0
0.0 0.0 0.0

-1.0190076737449527e7 -3.3976423448856836e6 0.0
-3.3976423448856836e6 1.819169240179509e7 0.0
0.0 0.0 0.0

1.7381258502037833e6 1.2250692857218554e7 0.0
1.2250692857218554e7 -2.056681917004589e7 0.0
0.0 0.0 0.0

-3.218567081271084e6 2.1150979205835234e7 0.0
2.1150979205835234e7 17954.75324226101 0.0
0.0 0.0 0.0

194476.46985871787 1.4792794912184536e7 0.0
1.4792794912184536e7 -1.5531625597212655e6 0.0
0.0 0.0 0.0

-4.4187511477959035e6 2.216358349515536e7 0.0
2.216358349515536e7 5.443268881380687e6 0.0
0.0 0.0 0.0

-1.1575085081352554e7 2.3050682576969925e7 0.0
2.3050682576969925e7 -6.953552096788518e6 0.0
0.0 0.0 0.0

-6.310956025622359e6 1.442092081838713e7 0.0
1.442092081838713e7 -2.1036520699528713e7 0.0
0.0 0.0 0.0

1.6762662217196287e6 1.8030751639456376e7 0.0
1.8030751639456376e7 1.307645265744051e7 0.0
0.0 0.0 0.0

-2.216435430122514e7 2.4292350968205094e7 0.0
2.4292350968205094e7 6.369147298561574e6 0.0
0.0 0.0 0.0

-9.130689622804657e6 6.409118093854362e6 0.0
6.409118093854362e6 1.4645844297598422e7 0.0
0.0 0.0 0.0

-1.0504915657529633e7 7.887331376033676e6 0.0
7.887331376033676e6 3.665121013149452e7 0.0
0.0 0.0 0.0

-1.2659872602864204e6 1.6323840956268976e7 0.0
1.6323840956268976e7 -7.307345973928472e6 0.0
0.0 0.0 0.0

-121349.24755942367 2.6134191604811717e7 0.0
2.6134191604811717e7 -1.9515198803873851e6 0.0
0.0 0.0 0.0

4.515392462393079e6 1.5251936460957702e7 0.0
1.5251936460957702e7 1.5051308379855646e7 0.0
0.0 0.0 0.0

1.513933298931078e7 1.6659486340687338e7 0.0
1.6659486340687338e7 3.6298150707787676e6 0.0
0.0 0.0 0.0

-8.73501940965248e6 2.1808713729285706e7 0.0
2.1808713729285706e7 -7.019184750443282e6 0.0
0.0 0.0 0.0

791772.714525522 2.444553639730432e7 0.0
2.444553639730432e7 -3.355908138707163e6 0.0
0.0 0.0 0.0

6.3129031080543e6 1.500756488451654e7 0.0
1.500756488451654e7 2.4891406630751338e7 0.0
0.0 0.0 0.0

3.625305506001303e6 6.393634402490379e6 0.0
6.393634402490379e6 -3.72976314168766e7 0.0
0.0 0.0 0.0

-5.302539898322658e6 2.276458928114475e7 0.0
2.276458928114475e7 6.63182343155559e6 0.0
0.0 0.0 0.0

297870.62651879917 1.374186993041924e7 0.0
1.374186993041924e7 -422016.2430929098 0.0
0.0 0.0 0.0

-8.849164089265136e6 1.573444449882216e7 0.0
1.573444449882216e7 -2.9497215121705446e7 0.0
0.0 0.0 0.0

-3.5086671277305107e6 1.8654477381472785e7 0.0
1.8654477381472785e7 -1.6859275401774282e6 0.0
0.0 0.0 0.0

4.602960112464139e6 3.4690961964971167e6 0.0
3.4690961964971167e6 -3.2110787405012682e7 0.0
0.0 0.0 0.0

-1.337866859095915e6 1.7275219288551714e7 0.0
1.7275219288551714e7 -7.431927740041199e6 0.0
0.0 0.0 0.0

1.1207130709576271e6 1.8708608200036164e7 0.0
1.8708608200036164e7 -6.846215013564911e6 0.0
0.0 0.0 0.0

1.412095275024671e7 1.8146190233438242e7 0.0
1.8146190233438242e7 -3.348531770994762e6 0.0
0.0 0.0 0.0

-1.0695767308967814e7 1.4740686905444648e7 0.0
1.4740686905444648e7 1.767577699127426e7 0.0
0.0 0.0 0.0

-2.2623665857716454e6 1.3798624521065833e7 0.0
1.3798624521065833e7 -1.5099122420928637e6 0.0
0.0 0.0 0.0

-4.934077823115243e6 1.9804750525954172e7 0.0
1.9804750525954172e7 -6.760597598278778e6 0.0
0.0 0.0 0.0

-2.458252243204629e6 2.073070817934268e7 0.0
2.073070817934268e7 -2.450302367020325e6 0.0
0.0 0.0 0.0

-1.0012330290757598e7 463439.3152633467 0.0
463439.3152633467 3.7159037176968955e7 0.0
0.0 0.0 0.0

-1.3559666246453882e6 1.4762531959815133e7 0.0
1.4762531959815133e7 -6.816901585445618e6 0.0
0.0 0.0 0.0

-8.83143890380291e6 2.4306515562536687e7 0.0
2.4306515562536687e7 6.265355871084731e6 0.0
0.0 0.0 0.0

1.6804598076444478e6 7.83764721950821e6 0.0
7.83764721950821e6 -1.052155536504313e7 0.0
0.0 0.0 0.0

4.716706766621581e6 1.7728701713050053e7 0.0
1.7728701713050053e7 1.1345625757797709e7 0.0
0.0 0.0 0.0

-3.357281814699626e7 2.4516465154925194e7 0.0
2.4516465154925194e7 7.499511746052345e6 0.0
0.0 0.0 0.0

1.3732736697493305e6 1.3775880823358754e7 0.0
1.3775880823358754e7 5.476550143822385e6 0.0
0.0 0.0 0.0

3.678005097835277e6 6.662217809610986e6 0.0
6.662217809610986e6 -1.3359552548855161e7 0.0
0.0 0.0 0.0

435926.59795983694 1.7579410922769673e7 0.0
1.7579410922769673e7 1.5362729244285973e7 0.0
0.0 0.0 0.0

-725702.0350453146 2.0237291141384043e7 0.0
2.0237291141384043e7 -5.490708407328799e6 0.0
0.0 0.0 0.0

1.1103975994000096e7 2.4297900290222026e7 0.0
2.4297900290222026e7 -6.708169525128542e6 0.0
0.0 0.0 0.0

-2.7892298311228044e6 1.3166015016234944e7 0.0
1.3166015016234944e7 -9.297433189460801e6 0.0
0.0 0.0 0.0

-4.666001147366796e6 1.4254241673066711e7 0.0
1.4254241673066711e7 6.009576886789021e6 0.0
0.0 0.0 0.0

1.0883832809661771e6 7.881036113316043e6 0.0
7.881036113316043e6 -9.124491888271078e6 0.0
0.0 0.0 0.0

-2.672124056338803e6 1.4895326265132736e7 0.0
1.4895326265132736e7 -1.855956455402486e7 0.0
0.0 0.0 0.0

-698581.039001018 1.749752808167574e7 0.0
1.749752808167574e7 -7.799632354450713e6 0.0
0.0 0.0 0.0

9.082631304158155e6 1.935914545473467e7 0.0
1.935914545473467e7 8.791504697703857e6 0.0
0.0 0.0 0.0

-4.889800285464266e6 1.94365829652033e7 0.0
1.94365829652033e7 -6.389219268504707e6 0.0
0.0 0.0 0.0

905454.1768215057 1.8642996740619466e7 0.0
1.8642996740619466e7 -6.6221883102812385e6 0.0
0.0 0.0 0.0

-7.342521503740416e6 2.1589310769310333e6 0.0
2.1589310769310333e6 1.1442101714546278e7 0.0
0.0 0.0 0.0

-1.1880846087622838e6 5.322792673303877e6 0.0
5.322792673303877e6 3.1108359409524915e6 0.0
0.0 0.0 0.0

5.406615526239505e6 1.817130110944899e7 0.0
1.817130110944899e7 -3.1997829868753343e6 0.0
0.0 0.0 0.0

1.0140824984675283e6 1.4427564338914892e7 0.0
1.4427564338914892e7 4.823806068779451e6 0.0
0.0 0.0 0.0

3.491339436562948e7 1.57577158425631e7 0.0
1.57577158425631e7 5.947734864067391e6 0.0
0.0 0.0 0.0

-1.0483090175748028e7 -3.2911158427602816e6 0.0
-3.2911158427602816e6 2.0881150201250333e7 0.0
0.0 0.0 0.0

-1.0872991085966691e7 2.1358510583425198e7 0.0
2.1358510583425198e7 -4.932784737823516e6 0.0
0.0 0.0 0.0

-1.151168331312869e7 2.075223779107384e7 0.0
2.075223779107384e7 -82017.16787745757 0.0
0.0 0.0 0.0

-2.283666808566313e7 2.221720659060614e7 0.0
2.221720659060614e7 -5.730291190766884e6 0.0
0.0 0.0 0.0

2.5219569676457923e7 5.618494487742789e6 0.0
5.618494487742789e6 -2.8830073137926795e6 0.0
0.0 0.0 0.0

-9.187790847223433e6 6.921043326424189e6 0.0
6.921043326424189e6 4.335705788802777e7 0.0
0.0 0.0 0.0

-1.246931574393681e6 1.0349121884487987e7 0.0
1.0349121884487987e7 -1.880888653960706e6 0.0
0.0 0.0 0.0

-1.0081747880140498e7 2.1092407475889437e7 0.0
2.1092407475889437e7 -6.453279807977938e6 0.0
0.0 0.0 0.0

-4.294654665245198e6 2.2356690130290072e7 0.0
2.2356690130290072e7 6.419430717614315e6 0.0
0.0 0.0 0.0

-1.0488759705532833e6 1.7189534219814736e7 0.0
1.7189534219814736e7 -8.788813293472765e6 0.0
0.0 0.0 0.0

1.3506781147827692e6 1.2061790502484893e7 0.0
1.2061790502484893e7 -1.3079857346974734e7 0.0
0.0 0.0 0.0

-50214.08099796972 1.464918958176194e7 0.0
1.464918958176194e7 -4.710930629398644e6 0.0
0.0 0.0 0.0

-5.014604856717636e6 1.3473384193288317e7 0.0
1.3473384193288317e7 -1.9641555878960684e7 0.0
0.0 0.0 0.0

-5.906705667457436e6 1.5900356937921667e7 0.0
1.5900356937921667e7 -4.310224966507037e7 0.0
0.0 0.0 0.0

8.188671446070399e6 5.480406567026604e6 0.0
5.480406567026604e6 -1.9087070124027063e6 0.0
0.0 0.0 0.0

3.5463547312049037e6 2.5014554578239653e7 0.0
2.5014554578239653e7 -4.698410056121994e6 0.0
0.0 0.0 0.0

-4.282001454234966e6 1.3648079269756809e7 0.0
1.3648079269756809e7 -1.427333895573729e7 0.0
0.0 0.0 0.0

1.1346057367766958e7 1.4794206838723797e7 0.0
1.4794206838723797e7 3.836948197345937e6 0.0
0.0 0.0 0.0

24704.750330339186 1.4775698330528703e7 0.0
1.4775698330528703e7 -6.328337377759037e6 0.0
0.0 0.0 0.0

-1.9947656365702616e6 2.0264733828763854e7 0.0
2.0264733828763854e7 -2.726277838951907e6 0.0
0.0 0.0 0.0

-2.711169804431267e6 1.438798908065451e7 0.0
1.438798908065451e7 -1.2636476188754117e7 0.0
0.0 0.0 0.0

-1.7235345827897355e7 1.507467702719119e7 0.0
1.507467702719119e7 7.189080159612319e6 0.0
0.0 0.0 0.0

-6.256553236422299e6 -2.2861701134537538e6 0.0
-2.2861701134537538e6 7.765659208262961e6 0.0
0.0 0.0 0.0

-8.57422269171689e6 1.559008469002398e7 0.0
1.559008469002398e7 1.711988501032836e7 0.0
0.0 0.0 0.0

-678423.8493856242 1.3671604999509748e7 0.0
1.3671604999509748e7 1.5362274350911512e6 0.0
0.0 0.0 0.0

-4.605529878014747e6 1.5545706867129654e7 0.0
1.5545706867129654e7 -1.1467777244901937e7 0.0
0.0 0.0 0.0

-880118.0968823496 1.5663181486492395e7 0.0
1.5663181486492395e7 -6.377963684489787e6 0.0
0.0 0.0 0.0

-2.1795109719512183e6 1.1321867125719419e7 0.0
1.1321867125719419e7 -3.3956777679569437e6 0.0
0.0 0.0 0.0

1.6453800980777217e7 1.8124988942508183e7 0.0
1.8124988942508183e7 -3.4634929718625853e6 0.0
0.0 0.0 0.0

-8.68186716799805e6 2.6380891301892728e7 0.0
2.6380891301892728e7 6.385749084528459e6 0.0
0.0 0.0 0.0

2.5115048215630585e6 1.937757224339714e7 0.0
1.937757224339714e7 -5.372674470752583e6 0.0
0.0 0.0 0.0

-2.654509867564589e6 1.7815129205393314e7 0.0
1.7815129205393314e7 -2.7507093695840193e6 0.0
0.0 0.0 0.0

-3.0353008044256857e6 2.5588802792489734e7 0.0
2.5588802792489734e7 3.0016495284438254e6 0.0
0.0 0.0 0.0

-7.814371412580226e6 1.6669210873990549e7 0.0
1.6669210873990549e7 1.4676128993256614e7 0.0
0.0 0.0 0.0

1.4759216897097304e6 7.259575831491842e6 0.0
7.259575831491842e6 -7.390292908291367e6 0.0
0.0 0.0 0.0

-706108.9865112317 6.704953641259047e6 0.0
6.704953641259047e6 -746853.3482703241 0.0
0.0 0.0 0.0

-6.866835609132523e6 1.4483323967643926e7 0.0
1.4483323967643926e7 -2.757849813648155e7 0.0
0.0 0.0 0.0

-3.0020203530978537e6 1.7569260963304915e7 0.0
1.7569260963304915e7 4.299512031647968e6 0.0
0.0 0.0 0.0

1.877623796862572e6 5.21075013752563e6 0.0
5.21075013752563e6 -7.707389417734435e6 0.0
0.0 0.0 0.0

-4.0482411749678425e7 2.5702196513847437e7 0.0
2.5702196513847437e7 1.1646809919310845e6 0.0
0.0 0.0 0.0

1.6128065720450245e6 8.190611403582426e6 0.0
8.190611403582426e6 -4.4788226322919756e7 0.0
0.0 0.0 0.0

-817633.7463670999 8.956554941232657e6 0.0
8.956554941232657e6 -4.902340083170135e6 0.0
0.0 0.0 0.0

-5.86103563995794e6 1.4912951313082542e7 0.0
1.4912951313082542e7 -2.977085364270485e7 0.0
0.0 0.0 0.0

4.339440416032828e6 4.710949236813769e6 0.0
4.710949236813769e6 -2.881051767549157e7 0.0
0.0 0.0 0.0

1.405193490366052e7 2.6722148948041122e7 0.0
2.6722148948041122e7 -9.490040278702239e6 0.0
0.0 0.0 0.0

3.4660445442293007e6 8.922577817138236e6 0.0
8.922577817138236e6 -1.9952125529544685e7 0.0
0.0 0.0 0.0

-9.495792643811937e6 1.1030993389134588e7 0.0
1.1030993389134588e7 3.3168733964942485e7 0.0
0.0 0.0 0.0

-1.048062083804192e7 1.5129371492991127e7 0.0
1.5129371492991127e7 1.802760049400218e7 0.0
0.0 0.0 0.0

-4.384586148948001e6 1.9474999045517012e7 0.0
1.9474999045517012e7 9.185966613832854e6 0.0
0.0 0.0 0.0

-7.104081422297407e6 1.899098428914409e7 0.0
1.899098428914409e7 -3.9096669746864946e6 0.0
0.0 0.0 0.0

-9.31467021671091e6 1.574801003099472e7 0.0
1.574801003099472e7 1.8718896051533848e7 0.0
0.0 0.0 0.0

-3.7390080982922586e6 2.056332078509175e7 0.0
2.056332078509175e7 1.9059755922311044e6 0.0
0.0 0.0 0.0

6.946291334418103e6 1.6058138130800484e7 0.0
1.6058138130800484e7 2.3154305294163626e7 0.0
0.0 0.0 0.0

-8.552981003308857e6 -894745.6530889682 0.0
-894745.6530889682 1.1441466005871892e7 0.0
0.0 0.0 0.0

115919.67979679815 1.6853908047305048e7 0.0
1.6853908047305048e7 -1.1122803407799566e7 0.0
0.0 0.0 0.0

-758376.8318510689 1.1241224825090293e7 0.0
1.1241224825090293e7 -5.006195756957831e7 0.0
0.0 0.0 0.0

-7.630921913735088e6 2.7494884310242657e7 0.0
2.7494884310242657e7 6.225720069981056e6 0.0
0.0 0.0 0.0

20938.08666193881 2.141333976634574e7 0.0
2.141333976634574e7 -5.000157149116227e6 0.0
0.0 0.0 0.0

1.6704499972461956e6 1.665441720817075e7 0.0
1.665441720817075e7 1.247227271241513e6 0.0
0.0 0.0 0.0

-1.0243012004195763e7 1.497520035906548e7 0.0
1.497520035906548e7 1.9217894122852415e7 0.0
0.0 0.0 0.0

-1.7111830333035715e7 2.7697240743665524e7 0.0
2.7697240743665524e7 7.801150976684717e6 0.0
0.0 0.0 0.0

-287516.47172941826 1.8665629087656073e7 0.0
1.8665629087656073e7 -8.114828460803132e6 0.0
0.0 0.0 0.0

-2.4070078244057084e6 1.4044142118585473e7 0.0
1.4044142118585473e7 -2.3150216747317735e7 0.0
0.0 0.0 0.0

-1.3100596814263787e7 2.907261621686644e7 0.0
2.907261621686644e7 6.23227430986235e6 0.0
0.0 0.0 0.0

2.129030746252848e7 2.4272994033923145e7 0.0
2.4272994033923145e7 -1.1603256375779442e7 0.0
0.0 0.0 0.0

1.0956468890704345e6 1.5824369270875974e7 0.0
1.5824369270875974e7 2.467413977512193e6 0.0
0.0 0.0 0.0

2.5203305135252215e6 1.0353074067719711e7 0.0
1.0353074067719711e7 -1.7998833504094005e7 0.0
0.0 0.0 0.0

-7.901625544501852e6 1.6257688418909242e7 0.0
1.6257688418909242e7 -3.2539996683956437e7 0.0
0.0 0.0 0.0

8.249349504025997e6 2.458691103780601e7 0.0
2.458691103780601e7 -6.010011143034577e6 0.0
0.0 0.0 0.0

-70676.07669935375 1.539069188152522e7 0.0
1.539069188152522e7 -1.1657941352867544e7 0.0
0.0 0.0 0.0

-1.613255044587934e6 2.322517278368598e7 0.0
2.322517278368598e7 -1.8207888042186103e6 0.0
0.0 0.0 0.0

263076.3719699457 1.0442276300746426e7 0.0
1.0442276300746426e7 -4.200821368554777e7 0.0
0.0 0.0 0.0

313610.03436068166 1.5936052608107688e7 0.0
1.5936052608107688e7 5.212516469604226e6 0.0
0.0 0.0 0.0

-2.0015784621535286e7 2.5405990855099604e7 0.0
2.5405990855099604e7 8.038011823292192e6 0.0
0.0 0.0 0.0

-3.215131568262884e6 2.0927229901748993e7 0.0
2.0927229901748993e7 2.4354786954053137e6 0.0
0.0 0.0 0.0

1.4797414741304174e7 1.6357619474482957e7 0.0
1.6357619474482957e7 3.9750569371976634e6 0.0
0.0 0.0 0.0

-3.5970507713387045e6 2.6044414242469292e7 0.0
2.6044414242469292e7 2.1783737168342373e6 0.0
0.0 0.0 0.0

1.1961123519727164e6 1.5770681594281439e7 0.0
1.5770681594281439e7 8.305539471687943e6 0.0
0.0 0.0 0.0

-50932.03291832353 3.5634725541360094e6 0.0
3.5634725541360094e6 -2.5702580347261094e6 0.0
0.0 0.0 0.0

3.9623400624124315e6 2.61353381961709e7 0.0
2.61353381961709e7 -3.731484414936014e6 0.0
0.0 0.0 0.0

351214.4519899525 1.5241596236892162e7 0.0
1.5241596236892162e7 -1.5590795240577243e7 0.0
0.0 0.0 0.0

4.36057691228856e6 3.9252034916181625e6 0.0
3.9252034916181625e6 -3.54334631953661e7 0.0
0.0 0.0 0.0

85230.7349295225 9.832852761637295e6 0.0
9.832852761637295e6 -6.298984663747909e6 0.0
0.0 0.0 0.0

1.957389026202926e6 6.178475577197928e6 0.0
6.178475577197928e6 -7.802033457822179e6 0.0
0.0 0.0 0.0

1.311103886684848e6 1.272388898989119e7 0.0
1.272388898989119e7 -1.2997054682055362e7 0.0
0.0 0.0 0.0

-1.7074695653913412e7 2.3988134988648757e7 0.0
2.3988134988648757e7 6.842572374383264e6 0.0
0.0 0.0 0.0

-1.9687693852453982e6 1.7665946955047805e7 0.0
1.7665946955047805e7 2.2524885030484665e6 0.0
0.0 0.0 0.0

1.9435948068834925e6 1.9603988195564255e7 0.0
1.9603988195564255e7 -5.731032966140459e6 0.0
0.0 0.0 0.0

4.391968277534043e6 5.672801335618623e6 0.0
5.672801335618623e6 -2.8262212646430295e7 0.0
0.0 0.0 0.0

-838895.0591038621 1.7151747999312434e7 0.0
1.7151747999312434e7 -7.5628128191575585e6 0.0
0.0 0.0 0.0

-103590.94512676261 1.470252739557151e7 0.0
1.470252739557151e7 -1.133416798563695e7 0.0
0.0 0.0 0.0

-7.730511636419172e6 2.031988976356228e7 0.0
2.031988976356228e7 -6.540414640463449e6 0.0
0.0 0.0 0.0

7.366850311720433e6 2.29901003080056e7 0.0
2.29901003080056e7 -6.057820659616532e6 0.0
0.0 0.0 0.0

-4.921857768946367e6 2.0513375751490735e7 0.0
2.0513375751490735e7 8.797824796404574e6 0.0
0.0 0.0 0.0

545457.7601124523 1.6462591486676201e7 0.0
1.6462591486676201e7 9.376504882984893e6 0.0
0.0 0.0 0.0

88870.5550391078 1.5807296689504322e7 0.0
1.5807296689504322e7 5.652096450989682e7 0.0
0.0 0.0 0.0

-4.256498703881385e6 2.859364745022988e7 0.0
2.859364745022988e7 3.892338125284213e6 0.0
0.0 0.0 0.0

622536.4787132614 1.6906876237321593e7 0.0
1.6906876237321593e7 -8.222464994324324e6 0.0
0.0 0.0 0.0

3.219766295585855e6 9.4191677991877e6 0.0
9.4191677991877e6 -2.2925390039495934e7 0.0
0.0 0.0 0.0

3.3956660429558083e6 8.755890555435998e6 0.0
8.755890555435998e6 -2.40613176561595e7 0.0
0.0 0.0 0.0

4.977421596621022e6 3.8056305407151477e6 0.0
3.8056305407151477e6 -2.0632274192689784e7 0.0
0.0 0.0 0.0

-4.21683940076297e6 2.0008525719869126e7 0.0
2.0008525719869126e7 8.416039309028126e6 0.0
0.0 0.0 0.0

4.612216633224214e6 4.018385269135368e6 0.0
4.018385269135368e6 -2.0631366531410705e7 0.0
0.0 0.0 0.0

-1.1469416289061615e7 289865.1487232327 0.0
289865.1487232327 2.6285950102474447e7 0.0
0.0 0.0 0.0

-5.054070468639834e6 1.8165990225829225e7 0.0
1.8165990225829225e7 1.299212024151693e7 0.0
0.0 0.0 0.0

-1.392246765592144e6 9.33281614263943e6 0.0
9.33281614263943e6 -3.8487284748341064e6 0.0
0.0 0.0 0.0

-543809.4299211439 2.183258273737412e7 0.0
2.183258273737412e7 -4.4315661707682405e6 0.0
0.0 0.0 0.0

1.7150431152140726e6 2.4104365217662554e7 0.0
2.4104365217662554e7 -3.010954885900081e6 0.0
0.0 0.0 0.0

684995.8582700508 1.3653507591138747e7 0.0
1.3653507591138747e7 1.6965219645514472e6 0.0
0.0 0.0 0.0

837277.7953737713 1.0460165291085785e7 0.0
1.0460165291085785e7 -3.63293966442388e7 0.0
0.0 0.0 0.0

4.678597723237544e6 4.362387277866502e6 0.0
4.362387277866502e6 -3.0750101796990804e7 0.0
0.0 0.0 0.0

-3.640457017866934e7 2.9850519775828615e7 0.0
2.9850519775828615e7 -4.612037904788618e6 0.0
0.0 0.0 0.0

1.4368208963431302e7 1.9755540471816044e7 0.0
1.9755540471816044e7 7.7910283633831665e6 0.0
0.0 0.0 0.0

969846.8070788765 2.379822080756423e7 0.0
2.379822080756423e7 -2.8858204860130413e6 0.0
0.0 0.0 0.0

-2.359940013964151e6 1.6731060252077162e7 0.0
1.6731060252077162e7 1.3215585529009258e7 0.0
0.0 0.0 0.0

463123.2363235284 1.4950941875234742e7 0.0
1.4950941875234742e7 2.1080287904293714e6 0.0
0.0 0.0 0.0

-1.1750883288132882e7 5.390317451743193e6 0.0
5.390317451743193e6 3.078402194126082e7 0.0
0.0 0.0 0.0

-9.488795058735996e6 2.514461142989234e7 0.0
2.514461142989234e7 6.042054272712556e6 0.0
0.0 0.0 0.0

-837121.693534699 1.2595950302368173e7 0.0
1.2595950302368173e7 -7.429810239802206e6 0.0
0.0 0.0 0.0

-1.118570059590846e7 -1.3064396254332096e6 0.0
-1.3064396254332096e6 1.9974640857609943e7 0.0
0.0 0.0 0.0

-3.650700394637868e6 1.0710991861817084e7 0.0
1.0710991861817084e7 7.04773089422522e7 0.0
0.0 0.0 0.0

64993.18724038964 1.7238687318233293e7 0.0
1.7238687318233293e7 -1.0545997068654362e7 0.0
0.0 0.0 0.0

2.6733252392632416e6 4.6071361859254725e6 0.0
4.6071361859254725e6 -8.1442181713563185e6 0.0
0.0 0.0 0.0

-9.153573825643558e6 6.9605442024432905e6 0.0
6.9605442024432905e6 4.515472487276803e7 0.0
0.0 0.0 0.0

4.877748904445833e6 3.8404467199360956e6 0.0
3.8404467199360956e6 -2.5552574611877367e7 0.0
0.0 0.0 0.0

-4.903152617245346e6 1.8588411807932094e7 0.0
1.8588411807932094e7 -7.216989181053622e6 0.0
0.0 0.0 0.0

-1.3711674367776232e7 2.1813223540384855e7 0.0
2.1813223540384855e7 -6.177753015013078e6 0.0
0.0 0.0 0.0

-60509.75401948579 1.577967611981557e7 0.0
1.577967611981557e7 -1.3326024839650253e7 0.0
0.0 0.0 0.0

-3.5904897203540863e6 8.889556466201382e6 0.0
8.889556466201382e6 5.147039683503641e6 0.0
0.0 0.0 0.0

-3.3196187933684955e6 1.8425679228175636e7 0.0
1.8425679228175636e7 585285.717850788 0.0
0.0 0.0 0.0

1.0097345939932823e7 2.2146946640757766e7 0.0
2.2146946640757766e7 -6.430934784437807e6 0.0
0.0 0.0 0.0

-5.59777423942462e6 -3.412689777111944e6 0.0
-3.412689777111944e6 1.0611596689930525e7 0.0
0.0 0.0 0.0

6.466512072352597e6 1.6711977397784283e7 0.0
1.6711977397784283e7 3.6894111181768244e6 0.0
0.0 0.0 0.0

8.27788539208063e6 2.8250649805217743e7 0.0
2.8250649805217743e7 -8.627450542641334e6 0.0
0.0 0.0 0.0

4.914589908348606e6 3.925049153430767e6 0.0
3.925049153430767e6 -2.291583729349186e7 0.0
0.0 0.0 0.0

-4.777019501469744e6 1.5687719881463407e7 0.0
1.5687719881463407e7 2.971790879397765e6 0.0
0.0 0.0 0.0

6.513800262571568e6 1.7395348388136093e7 0.0
1.7395348388136093e7 2.749609917276875e7 0.0
0.0 0.0 0.0

4.120244379746394e7 6.060097580903933e6 0.0
6.060097580903933e6 -1.9628168063772675e6 0.0
0.0 0.0 0.0

-1.914733453424163e7 2.3373286356528644e7 0.0
2.3373286356528644e7 -4.358259870178945e6 0.0
0.0 0.0 0.0

-3.9145627313693617e6 2.0295580743484184e7 0.0
2.0295580743484184e7 2.632610256696394e6 0.0
0.0 0.0 0.0

1.072439925415758e6 1.0571945557571027e7 0.0
1.0571945557571027e7 -3.2013975187404245e7 0.0
0.0 0.0 0.0

-1.3170384727410022e7 2.3844544560259227e7 0.0
2.3844544560259227e7 6.26914735892361e6 0.0
0.0 0.0 0.0

5.034306492866593e6 1.7146277501920864e7 0.0
1.7146277501920864e7 5.637635647784504e6 0.0
0.0 0.0 0.0

-6.444942201569069e6 6.816690149296786e6 0.0
6.816690149296786e6 5.576591739292141e7 0.0
0.0 0.0 0.0

-4.8178754725272395e6 1.9192276312513206e7 0.0
1.9192276312513206e7 9.172012470025223e6 0.0
0.0 0.0 0.0

1.5211464055083988e6 1.5387907030329052e7 0.0
1.5387907030329052e7 1.0213477193829365e7 0.0
0.0 0.0 0.0

-1.0107303376898803e6 1.5983951971174162e7 0.0
1.5983951971174162e7 -8.574972592982415e6 0.0
0.0 0.0 0.0

4.47241755968048e6 1.7791375528902818e7 0.0
1.7791375528902818e7 -2.8720739156619357e6 0.0
0.0 0.0 0.0

1.1173962643760815e6 1.734557536248942e7 0.0
1.734557536248942e7 -6.270977515339735e6 0.0
0.0 0.0 0.0

-2.5289977522030026e6 1.2277606812159855e7 0.0
1.2277606812159855e7 -3.0834935481755547e6 0.0
0.0 0.0 0.0

-663063.5463653747 1.673776970398732e7 0.0
1.673776970398732e7 1.447503598808071e7 0.0
0.0 0.0 0.0

424284.2223682459 1.5581402183879636e7 0.0
1.5581402183879636e7 1.3973240777340191e6 0.0
0.0 0.0 0.0

91052.04997411685 1.5170015939974481e7 0.0
1.5170015939974481e7 -3.006932962429242e6 0.0
0.0 0.0 0.0

-2.621249719085108e6 1.4152127748168629e7 0.0
1.4152127748168629e7 -2.0513555882552743e7 0.0
0.0 0.0 0.0

-3.4409486593496e6 2.23485744616284e7 0.0
2.23485744616284e7 4.152350815143598e6 0.0
0.0 0.0 0.0

-1.2003524597566552e7 2.064622126992244e7 0.0
2.064622126992244e7 -6.621002452661758e6 0.0
0.0 0.0 0.0

-7.863444988296514e6 2.5690490558370322e7 0.0
2.5690490558370322e7 5.384556797127418e6 0.0
0.0 0.0 0.0

-2.328749924713601e6 1.704112703415165e7 0.0
1.704112703415165e7 9.882279782238625e6 0.0
0.0 0.0 0.0

4.3621747919029575e6 6.141900343065498e6 0.0
6.141900343065498e6 -2.3107352564035553e7 0.0
0.0 0.0 0.0

-169159.81382452417 1.6835303461847596e7 0.0
1.6835303461847596e7 -1.12204981115339e7 0.0
0.0 0.0 0.0

7.487253294681761e6 2.299472723329966e7 0.0
2.299472723329966e7 -6.077356492518922e6 0.0
0.0 0.0 0.0

-1.1193288815694872e7 -947871.0210448941 0.0
-947871.0210448941 2.389220149136234e7 0.0
0.0 0.0 0.0

-3.794218838950682e6 1.849852870159713e7 0.0
1.849852870159713e7 6.22370938055723e6 0.0
0.0 0.0 0.0

794565.024296698 1.6466130339695986e7 0.0
1.6466130339695986e7 1.0347584978601868e6 0.0
0.0 0.0 0.0

4.616316235920031e6 1.8667431812910937e7 0.0
1.8667431812910937e7 -4.1805036901356117e6 0.0
0.0 0.0 0.0

-1.1905773877132718e7 4.888754724432424e6 0.0
4.888754724432424e6 2.309218115313665e7 0.0
0.0 0.0 0.0

2.8589426491102437e6 1.5307085301895214e7 0.0
1.5307085301895214e7 1.3626610303546699e7 0.0
0.0 0.0 0.0

-6.540144632897381e6 1.840823756115835e7 0.0
1.840823756115835e7 -5.791885564852694e6 0.0
0.0 0.0 0.0

643471.5419061892 1.3942378342895934e7 0.0
1.3942378342895934e7 -1.9490820991625942e7 0.0
0.0 0.0 0.0

3.1865813335044505e6 2.7524815572943237e7 0.0
2.7524815572943237e7 -2.848056307363621e6 0.0
0.0 0.0 0.0

-7.5390804357882645e6 2.642540485291861e7 0.0
2.642540485291861e7 4.88910837220961e6 0.0
0.0 0.0 0.0

-1.1933479451436447e7 5.714116486797651e6 0.0
5.714116486797651e6 2.022270677496871e7 0.0
0.0 0.0 0.0

-4.707315096704772e6 1.9142010212520503e7 0.0
1.9142010212520503e7 -4.403397237906361e6 0.0
0.0 0.0 0.0

-5.811474719741769e6 2.651569159291774e7 0.0
2.651569159291774e7 3.9583898982831687e6 0.0
0.0 0.0 0.0

-6.297386598483918e6 2.5934696058285154e7 0.0
2.5934696058285154e7 4.526098145322286e6 0.0
0.0 0.0 0.0

1.5638971947064963e6 1.4718044532565905e7 0.0
1.4718044532565905e7 8.338594929945222e6 0.0
0.0 0.0 0.0

2.362884141978954e6 1.1494452681925979e7 0.0
1.1494452681925979e7 -1.6392613199276473e7 0.0
0.0 0.0 0.0

3.4268074060587905e7 2.3852991786229085e7 0.0
2.3852991786229085e7 1.2506210156475281e7 0.0
0.0 0.0 0.0

-3.1420383862891976e7 1.0473327894676714e6 0.0
1.0473327894676714e6 8.944507652931836e6 0.0
0.0 0.0 0.0

-1.4725697743186865e7 2.3206580347053174e7 0.0
2.3206580347053174e7 5.252576465284071e6 0.0
0.0 0.0 0.0

4.498951235915102e6 3.74441690276435e6 0.0
3.74441690276435e6 -2.5518966792967957e7 0.0
0.0 0.0 0.0

-799657.4023764147 1.670328011576164e7 0.0
1.670328011576164e7 -9.748413746748539e6 0.0
0.0 0.0 0.0

-1.105162848107856e7 2.4171716502760082e7 0.0
2.4171716502760082e7 6.4023301797206625e6 0.0
0.0 0.0 0.0

-1.2145976064024428e7 2.696732200630604e6 0.0
2.696732200630604e6 2.537905968702459e7 0.0
0.0 0.0 0.0

2.7634485275983484e6 9.265165435561838e6 0.0
9.265165435561838e6 -2.166517868879274e7 0.0
0.0 0.0 0.0

-3.9140681922198907e6 1.3707777139334656e7 0.0
1.3707777139334656e7 -1.66559147110334e7 0.0
0.0 0.0 0.0

5.069146732954539e6 1.796078994207765e7 0.0
1.796078994207765e7 5.480182468195026e6 0.0
0.0 0.0 0.0

-2.7230199967031136e7 2.4513052800357882e7 0.0
2.4513052800357882e7 -1.7564358860094761e6 0.0
0.0 0.0 0.0

-3.4738379343330814e6 1.0610153132889487e7 0.0
1.0610153132889487e7 -348954.02984827105 0.0
0.0 0.0 0.0

-8.519081981351933e6 2.3358347143136118e7 0.0
2.3358347143136118e7 6.187463267230194e6 0.0
0.0 0.0 0.0

-3.0762455784396483e6 2.2989465613531273e7 0.0
2.2989465613531273e7 2.9619736505911076e6 0.0
0.0 0.0 0.0

-8.73339362339165e6 4.38607450636052e6 0.0
4.38607450636052e6 1.6574785090703808e7 0.0
0.0 0.0 0.0

-7.028215396286318e6 -1.0954493244388693e6 0.0
-1.0954493244388693e6 1.1263804931678303e7 0.0
0.0 0.0 0.0

1.6821361734052775e6 1.1797545788369717e7 0.0
1.1797545788369717e7 -1.687768103851047e7 0.0
0.0 0.0 0.0

-1.1265814324905725e7 1.461520532472371e6 0.0
1.461520532472371e6 2.5603360845543243e7 0.0
0.0 0.0 0.0

615431.7231626883 1.4348246460447818e7 0.0
1.4348246460447818e7 -1.5596674960580405e7 0.0
0.0 0.0 0.0

4.693823046131698e6 1.6795615227720316e7 0.0
1.6795615227720316e7 -1.5657931727951937e6 0.0
0.0 0.0 0.0

1.190061913264051e6 8.365868157952339e6 0.0
8.365868157952339e6 -9.669013683314107e6 0.0
0.0 0.0 0.0

-1.4850987897383515e7 2.31108936379543e7 0.0
2.31108936379543e7 5.392138748138604e6 0.0
0.0 0.0 0.0

-6.822547482880594e6 2.054775307439114e7 0.0
2.054775307439114e7 -6.4360320718632545e6 0.0
0.0 0.0 0.0

350544.8669146348 1.3456398912728881e7 0.0
1.3456398912728881e7 1.1684835659496791e6 0.0
0.0 0.0 0.0

-473489.99508002115 1.449778888340358e7 0.0
1.449778888340358e7 -1.5783004262338474e6 0.0
0.0 0.0 0.0

2.101515700559263e6 1.2029364289955378e7 0.0
1.2029364289955378e7 -1.554541159245535e7 0.0
0.0 0.0 0.0

-3.7013539557538964e6 1.4132142642827032e7 0.0
1.4132142642827032e7 -1.6412463133294914e7 0.0
0.0 0.0 0.0

-1.054326505810859e7 -1.7623918653019303e6 0.0
-1.7623918653019303e6 1.7438713434548676e7 0.0
0.0 0.0 0.0

-4.1520711989034372e6 1.161872388648444e7 0.0
1.161872388648444e7 4.519294997191004e6 0.0
0.0 0.0 0.0

-176278.22189111216 1.8420638974382047e7 0.0
1.8420638974382047e7 -8.411883261364697e6 0.0
0.0 0.0 0.0

3.3907011058160774e6 6.901762881014299e6 0.0
6.901762881014299e6 -1.6899240812559407e7 0.0
0.0 0.0 0.0

-3.0481485336432055e7 2.087227965744194e7 0.0
2.087227965744194e7 -326100.6926088631 0.0
0.0 0.0 0.0

3.478209890353905e6 1.7602932742556512e7 0.0
1.7602932742556512e7 -2.909680947327067e6 0.0
0.0 0.0 0.0

1.4933598833151381e7 1.6139515332191966e7 0.0
1.6139515332191966e7 30925.590773250908 0.0
0.0 0.0 0.0

-8.547152444686512e6 2.9152727249827635e7 0.0
2.9152727249827635e7 6.166592744809812e6 0.0
0.0 0.0 0.0

-9.853303339100737e6 1.5073517648191468e6 0.0
1.5073517648191468e6 1.5690426830127895e7 0.0
0.0 0.0 0.0

-427762.0131250252 1.5180626176173534e7 0.0
1.5180626176173534e7 -1.0413637759967607e7 0.0
0.0 0.0 0.0

-6.115051324513578e6 1.8993201313582256e7 0.0
1.8993201313582256e7 -3.997040582958337e6 0.0
0.0 0.0 0.0

-1.6911634853658184e7 2.5902357873370748e7 0.0
2.5902357873370748e7 7.415685502586643e6 0.0
0.0 0.0 0.0

-4.344970252827473e6 1.495501011995255e7 0.0
1.495501011995255e7 -2.5362590532961685e7 0.0
0.0 0.0 0.0

747461.2024422141 1.5511589619237885e7 0.0
1.5511589619237885e7 5.719841095731846e6 0.0
0.0 0.0 0.0

-2.6109093500932977e6 1.4069939765378337e7 0.0
1.4069939765378337e7 -1.8090338976973634e7 0.0
0.0 0.0 0.0

-1.2587855511417532e7 2.803529129646882e7 0.0
2.803529129646882e7 7.278674760959838e6 0.0
0.0 0.0 0.0

-1.1111410885389475e6 2.0359343116007537e7 0.0
2.0359343116007537e7 -5.682968422870489e6 0.0
0.0 0.0 0.0

-4.753179922573888e6 1.9131563155515764e7 0.0
1.9131563155515764e7 -448614.67243847856 0.0
0.0 0.0 0.0

2.8970307490669424e6 1.0000591630829522e7 0.0
1.0000591630829522e7 -2.3297276286636293e7 0.0
0.0 0.0 0.0

-1.1584318535891738e7 5.144898352844766e6 0.0
5.144898352844766e6 2.9023670416128166e7 0.0
0.0 0.0 0.0

-1.4776865139669306e6 1.5209757358314686e7 0.0
1.5209757358314686e7 -7.108135497278789e6 0.0
0.0 0.0 0.0

4.696961449922281e6 1.7648164059745803e7 0.0
1.7648164059745803e7 -3.0585697883256786e6 0.0
0.0 0.0 0.0

-3.591658429386516e6 1.4872156668195944e7 0.0
1.4872156668195944e7 -2.1640427178004242e7 0.0
0.0 0.0 0.0

-9.192530202377366e6 2.3242559877765983e7 0.0
2.3242559877765983e7 5.989469651677741e6 0.0
0.0 0.0 0.0

1.4783929132405728e7 2.6547482811561257e7 0.0
2.6547482811561257e7 -9.234223449270383e6 0.0
0.0 0.0 0.0

-3.929117755710908e6 1.8838523088048626e7 0.0
1.8838523088048626e7 -3.1298245661851536e6 0.0
0.0 0.0 0.0

-9.460892276506651e6 2.42652286877868e7 0.0
2.42652286877868e7 6.158326625437245e6 0.0
0.0 0.0 0.0

-8.983587734193467e6 1.578724731156974e7 0.0
1.578724731156974e7 1.5663913033399297e7 0.0
0.0 0.0 0.0

1.654030333350414e6 1.6831371626848787e7 0.0
1.6831371626848787e7 -5.360428123274968e6 0.0
0.0 0.0 0.0

-3.7361169417456626e6 2.2463143592480265e7 0.0
2.2463143592480265e7 4.83831500370449e6 0.0
0.0 0.0 0.0

-3.269707238579708e6 1.4192468348026304e7 0.0
1.4192468348026304e7 -2.429323845507803e7 0.0
0.0 0.0 0.0

4.151001843796579e6 5.150847323571055e6 0.0
5.150847323571055e6 -2.2170004998939525e7 0.0
0.0 0.0 0.0

-3.6139501030146084e6 1.4819687624604091e7 0.0
1.4819687624604091e7 -1.9228843803908218e7 0.0
0.0 0.0 0.0

-4.321764199339659e6 2.4430745105238955e7 0.0
2.4430745105238955e7 3.651621534164735e6 0.0
0.0 0.0 0.0

-2.4114753082574424e6 1.553536501420464e7 0.0
1.553536501420464e7 -8.038250974416828e6 0.0
0.0 0.0 0.0

1.8863527272436563e6 1.5142713690841231e7 0.0
1.5142713690841231e7 6.2878428598783165e6 0.0
0.0 0.0 0.0

-1.1323098207873635e7 1.409691111891806e7 0.0
1.409691111891806e7 2.1257938748770885e7 0.0
0.0 0.0 0.0

-1.4479415612896082e6 1.1912430958385037e7 0.0
1.1912430958385037e7 -2.5238916710237064e6 0.0
0.0 0.0 0.0

7.157318528527308e6 1.5416028540635467e7 0.0
1.5416028540635467e7 2.9640076012946185e7 0.0
0.0 0.0 0.0

-1.1244449059625115e7 371908.6587886485 0.0
371908.6587886485 2.856858495843194e7 0.0
0.0 0.0 0.0

4.1863929523402657e6 4.530128805662202e6 0.0
4.530128805662202e6 -3.0585509514882363e7 0.0
0.0 0.0 0.0

-1.9920164527101545e6 1.4842145432398165e7 0.0
1.4842145432398165e7 -2.0001149980745386e7 0.0
0.0 0.0 0.0

-8.040539079749042e6 2.429891464311544e7 0.0
2.429891464311544e7 5.916557157447929e6 0.0
0.0 0.0 0.0

1.936223445151526e7 1.2032780686097126e7 0.0
1.2032780686097126e7 51159.48722353764 0.0
0.0 0.0 0.0

-1.2477076895046953e7 3.4187729334119433e6 0.0
3.4187729334119433e6 2.1371144385784768e7 0.0
0.0 0.0 0.0

-1.594853542780609e7 2.4733747306574132e7 0.0
2.4733747306574132e7 -6.320618984480623e6 0.0
0.0 0.0 0.0

-3.7894323148110257e6 1.80302459656291e7 0.0
1.80302459656291e7 6.367250118510185e6 0.0
0.0 0.0 0.0

-1.6874356407741934e7 2.7861404379611075e7 0.0
2.7861404379611075e7 8.077399921006998e6 0.0
0.0 0.0 0.0

3.999305513600638e6 4.923602558994213e6 0.0
4.923602558994213e6 -3.1592416727347482e7 0.0
0.0 0.0 0.0

1.6983961047705086e6 2.3295898342403103e7 0.0
2.3295898342403103e7 -3.6717988534083916e6 0.0
0.0 0.0 0.0

-8.19980289671139e6 1.0753896188707342e7 0.0
1.0753896188707342e7 4.045971816790418e7 0.0
0.0 0.0 0.0

-3.956927775585398e6 2.1879653887696948e7 0.0
2.1879653887696948e7 6.525524719716623e6 0.0
0.0 0.0 0.0

-1.1685342568517844e6 1.4590662268876646e7 0.0
1.4590662268876646e7 -5.051957275120422e6 0.0
0.0 0.0 0.0

-3.5279208824678776e6 2.855022134202782e6 0.0
2.855022134202782e6 5.700915139978587e6 0.0
0.0 0.0 0.0

2.1623284815537315e6 1.6328818240017826e7 0.0
1.6328818240017826e7 9.817031957829082e6 0.0
0.0 0.0 0.0

-4.515118137492042e6 1.8891063800081585e7 0.0
1.8891063800081585e7 7.896378937356354e6 0.0
0.0 0.0 0.0

1.7280020680002524e6 8.991797196665911e6 0.0
8.991797196665911e6 -8.701983593669921e6 0.0
0.0 0.0 0.0

-2.2711538983193412e6 1.733355368222182e7 0.0
1.733355368222182e7 494528.50283184694 0.0
0.0 0.0 0.0

3.779181366134772e6 1.7320440680813942e7 0.0
1.7320440680813942e7 -3.324969452698072e6 0.0
0.0 0.0 0.0

-2.242965932724792e6 1.1830690097736767e7 0.0
1.1830690097736767e7 -372663.9789969084 0.0
0.0 0.0 0.0

-1.697688190937601e6 1.391855241741352e7 0.0
1.391855241741352e7 -2.2054210477775067e7 0.0
0.0 0.0 0.0

-5.530915016653448e6 1.4775861377245696e7 0.0
1.4775861377245696e7 5.144412913260849e6 0.0
0.0 0.0 0.0

-8.954185572970685e6 1.6037292827616584e7 0.0
1.6037292827616584e7 1.866370459435405e7 0.0
0.0 0.0 0.0

-9.769683268350065e6 -1.8661658695061046e6 0.0
-1.8661658695061046e6 2.0138200634187795e7 0.0
0.0 0.0 0.0

-8.761760406900836e6 1.9145665637950934e7 0.0
1.9145665637950934e7 482221.7104076678 0.0
0.0 0.0 0.0

-6.266553023878364e6 2.2980173639111936e7 0.0
2.2980173639111936e7 6.320461076283727e6 0.0
0.0 0.0 0.0

5.315795799317626e6 2.3399967095970016e7 0.0
2.3399967095970016e7 -5.274210618253814e6 0.0
0.0 0.0 0.0

-1.2251195525933519e7 3.1448342883315915e6 0.0
3.1448342883315915e6 2.3217574305305872e7 0.0
0.0 0.0 0.0

-2.502405814659398e6 1.4538031096936828e7 0.0
1.4538031096936828e7 -2.2981115610016286e7 0.0
0.0 0.0 0.0

-4.432654727784383e6 2.2825795847288266e7 0.0
2.2825795847288266e7 6.06847585633429e6 0.0
0.0 0.0 0.0

461150.95706066536 1.5579115437578406e7 0.0
1.5579115437578406e7 -6.960805068050662e6 0.0
0.0 0.0 0.0

-1.3505512170225265e6 1.3063893784439879e7 0.0
1.3063893784439879e7 -6.416868209442304e6 0.0
0.0 0.0 0.0

-8.512244389329337e6 506487.7290425271 0.0
506487.7290425271 1.3146781416930433e7 0.0
0.0 0.0 0.0

-7.72540166339471e6 2.515729235846257e7 0.0
2.515729235846257e7 5.988089487852872e6 0.0
0.0 0.0 0.0

-2.8108600021760976e6 1.908903779899001e7 0.0
1.908903779899001e7 -221761.9427410696 0.0
0.0 0.0 0.0

1.7308156654595528e6 1.697493544125605e7 0.0
1.697493544125605e7 1.0202915661690325e7 0.0
0.0 0.0 0.0

-302590.00368411135 3.454779284779025e6 0.0
3.454779284779025e6 92414.25291029665 0.0
0.0 0.0 0.0

2.148200070900394e6 1.6547471130521884e7 0.0
1.6547471130521884e7 2.9751021420405055e6 0.0
0.0 0.0 0.0

1.7944690485688392e6 8.355196197999024e6 0.0
8.355196197999024e6 -4.136208768063207e7 0.0
0.0 0.0 0.0

1.6836568535732913e6 2.6204339171469044e7 0.0
2.6204339171469044e7 -3.555071800219268e6 0.0
0.0 0.0 0.0

-5.199350155166586e6 1.9808972430563588e7 0.0
1.9808972430563588e7 8.833901169357926e6 0.0
0.0 0.0 0.0

-8.399017824644875e6 7.5636950696817925e6 0.0
7.5636950696817925e6 9.041287052930476e6 0.0
0.0 0.0 0.0

-676569.5812079018 1.683412202636313e7 0.0
1.683412202636313e7 -2.5581487580387117e6 0.0
0.0 0.0 0.0

1.4212099721619058e6 1.0018217372933565e7 0.0
1.0018217372933565e7 -3.833107061155415e7 0.0
0.0 0.0 0.0

-10978.447065779008 1.4370284839544464e7 0.0
1.4370284839544464e7 -1.775383352930408e7 0.0
0.0 0.0 0.0

-7.909506145459719e6 2.73545541634048e7 0.0
2.73545541634048e7 4.695375104812183e6 0.0
0.0 0.0 0.0

-1.9009637683081497e6 1.5282939692534998e7 0.0
1.5282939692534998e7 -6.336546555655592e6 0.0
0.0 0.0 0.0

-3.1347806017496586e6 1.867458482860839e7 0.0
1.867458482860839e7 -8.168150513377675e6 0.0
0.0 0.0 0.0

-3.7213001759785227e6 1.994276177832347e7 0.0
1.994276177832347e7 4.739736016661865e6 0.0
0.0 0.0 0.0

351349.34064331837 1.5209134589265749e7 0.0
1.5209134589265749e7 -1.0529296231202392e7 0.0
0.0 0.0 0.0

3.870943152690325e6 1.776661390934559e7 0.0
1.776661390934559e7 4.570927468798669e6 0.0
0.0 0.0 0.0

-6.072060338450404e6 1.971322212741161e7 0.0
1.971322212741161e7 -6.796080005344538e6 0.0
0.0 0.0 0.0

-1.9098916795658215e6 1.7559155685624838e7 0.0
1.7559155685624838e7 4.169857385858756e6 0.0
0.0 0.0 0.0

-8.675850332631547e6 7.420371322954191e6 0.0
7.420371322954191e6 4.586272378929141e7 0.0
0.0 0.0 0.0

-380470.7056493019 1.274073348696214e7 0.0
1.274073348696214e7 -5.915543787351873e6 0.0
0.0 0.0 0.0

-4.603384762280933e6 1.3261961632908348e7 0.0
1.3261961632908348e7 -1.7344753828651953e7 0.0
0.0 0.0 0.0

-6520.523827108089 1.6426245819630867e7 0.0
1.6426245819630867e7 -1.2252221299157089e7 0.0
0.0 0.0 0.0

-4.230791019169869e6 1.707512585172515e7 0.0
1.707512585172515e7 -9.753179560472645e6 0.0
0.0 0.0 0.0

-4.127793913935867e6 1.8504073819101322e7 0.0
1.8504073819101322e7 8.130260437081551e6 0.0
0.0 0.0 0.0

188435.92030350034 1.4309368828218376e7 0.0
1.4309368828218376e7 628119.8348386887 0.0
0.0 0.0 0.0

-3.26996568325752e6 2.3204786282614432e7 0.0
2.3204786282614432e7 3.687538181458817e6 0.0
0.0 0.0 0.0

-2.1076711735368106e6 1.7887621741179056e7 0.0
1.7887621741179056e7 398033.7407341768 0.0
0.0 0.0 0.0

-9.357874596842976e6 1.2445279511855785e6 0.0
1.2445279511855785e6 4.5279198613928474e7 0.0
0.0 0.0 0.0

-1.2900158694129186e7 6.683711316495138e6 0.0
6.683711316495138e6 1.83550843871312e7 0.0
0.0 0.0 0.0

769721.4627551236 1.5943635699515179e7 0.0
1.5943635699515179e7 -6.3203241097295005e6 0.0
0.0 0.0 0.0

-2.0331456699257314e7 2.2736201030894216e7 0.0
2.2736201030894216e7 4.8735877684130855e6 0.0
0.0 0.0 0.0

-1.033264766864262e7 21028.47777825058 0.0
21028.47777825058 1.3521925898982968e7 0.0
0.0 0.0 0.0

-1.074466548740563e7 5.520272062107128e6 0.0
5.520272062107128e6 3.664471198091824e7 0.0
0.0 0.0 0.0

-1.7169269193037373e6 -77050.97250823941 0.0
-77050.97250823941 2.238727334946321e6 0.0
0.0 0.0 0.0

-4.365582213683767e6 3.482925568563947e6 0.0
3.482925568563947e6 370273.58687613066 0.0
0.0 0.0 0.0

2.194214535998786e6 1.0539798226786332e7 0.0
1.0539798226786332e7 -1.6979965272791006e7 0.0
0.0 0.0 0.0

-3.433673798439202e6 1.9356061248521898e7 0.0
1.9356061248521898e7 -651989.5720090859 0.0
0.0 0.0 0.0

-5.329991264000604e6 1.7177167521226857e7 0.0
1.7177167521226857e7 -8.222290423144091e6 0.0
0.0 0.0 0.0

-4.434222205135899e6 1.8349272154043462e7 0.0
1.8349272154043462e7 1.0822618697878344e7 0.0
0.0 0.0 0.0

-2.0355808974925717e6 1.4164837035638804e7 0.0
1.4164837035638804e7 -1.7108097567538496e7 0.0
0.0 0.0 0.0

343566.02903785696 1.640066535116908e7 0.0
1.640066535116908e7 9.398700257545942e6 0.0
0.0 0.0 0.0

-6.522489394495585e6 1.4114650462501483e7 0.0
1.4114650462501483e7 -2.4689045333909877e7 0.0
0.0 0.0 0.0

-3.2007890708222035e6 1.7732179416148476e7 0.0
1.7732179416148476e7 2.495818297409834e6 0.0
0.0 0.0 0.0

120292.54094174877 1.0598264285755498e7 0.0
1.0598264285755498e7 -4.530247733608536e7 0.0
0.0 0.0 0.0

1.6055172945156284e6 1.0332315280497504e7 0.0
1.0332315280497504e7 -3.3722523592163116e7 0.0
0.0 0.0 0.0

-2.080939254027624e6 1.8035906123300735e7 0.0
1.8035906123300735e7 -7.660569437278127e6 0.0
0.0 0.0 0.0

-9.21004588679982e6 2.1590065753940437e7 0.0
2.1590065753940437e7 -5.757303645219688e6 0.0
0.0 0.0 0.0

-1.005629743737487e7 2.319102906580091e7 0.0
2.319102906580091e7 6.130753373258912e6 0.0
0.0 0.0 0.0

-5.284824364770617e6 1.2097581773309456e7 0.0
1.2097581773309456e7 3.749971184398571e6 0.0
0.0 0.0 0.0

-2.64109019295488e6 4.7287424541985905e6 0.0
4.7287424541985905e6 5.661341795414784e6 0.0
0.0 0.0 0.0

427255.2672995287 1.5137102752797259e7 0.0
1.5137102752797259e7 -5.663964643964836e6 0.0
0.0 0.0 0.0

5.621252402176963e6 1.813371499700181e7 0.0
1.813371499700181e7 -3.189979710112191e6 0.0
0.0 0.0 0.0

-7.351969913488915e6 1.1299564039709974e7 0.0
1.1299564039709974e7 4.122818415364594e7 0.0
0.0 0.0 0.0

-1.9384511012997292e6 1.729353982734891e7 0.0
1.729353982734891e7 8.019916209386211e6 0.0
0.0 0.0 0.0

-6.237071672480292e6 2.3047716470293213e7 0.0
2.3047716470293213e7 6.439234555838388e6 0.0
0.0 0.0 0.0

-2.6509281087242556e6 1.3884983833334526e7 0.0
1.3884983833334526e7 -1.1048366973052042e7 0.0
0.0 0.0 0.0

-1.0536305191192241e7 8.593889703988882e6 0.0
8.593889703988882e6 3.386560531221369e7 0.0
0.0 0.0 0.0

-2.0765571201989462e6 1.700512306492386e7 0.0
1.700512306492386e7 4.386443772509714e6 0.0
0.0 0.0 0.0

-244344.0247974987 1.640297886749517e7 0.0
1.640297886749517e7 -1.202669155164167e7 0.0
0.0 0.0 0.0

223391.98872532602 1.3533704565643325e7 0.0
1.3533704565643325e7 -2.059350508099769e7 0.0
0.0 0.0 0.0

1.9547570568434969e6 9.404162621223044e6 0.0
9.404162621223044e6 -3.2489262292019088e7 0.0
0.0 0.0 0.0

2.1614664321432095e6 1.0016226255422361e7 0.0
1.0016226255422361e7 -2.6512897320361722e7 0.0
0.0 0.0 0.0

-6.254443575526705e6 1.5998021776183594e7 0.0
1.5998021776183594e7 -3.543071169395068e7 0.0
0.0 0.0 0.0

-3.515044472947452e6 2.2835115943295192e7 0.0
2.2835115943295192e7 4.256500609222537e6 0.0
0.0 0.0 0.0

-3.250548466807994e6 1.873771376327195e7 0.0
1.873771376327195e7 -7.645360287014773e6 0.0
0.0 0.0 0.0

-489949.899988736 1.5829590073958367e7 0.0
1.5829590073958367e7 -1.055997559306316e7 0.0
0.0 0.0 0.0

1.3266778992438499e7 1.8070841997277226e7 0.0
1.8070841997277226e7 -3.1089614560544463e6 0.0
0.0 0.0 0.0

-9.754233577853693e6 3.5974405597339417e6 0.0
3.5974405597339417e6 4.032947260948463e7 0.0
0.0 0.0 0.0

589830.8498902302 1.0417350709958173e7 0.0
1.0417350709958173e7 -3.892730959044458e7 0.0
0.0 0.0 0.0

2.489661542303091e6 1.0235793385526579e7 0.0
1.0235793385526579e7 -2.625515304475247e7 0.0
0.0 0.0 0.0

-7.359306953580584e6 7.447171191455144e6 0.0
7.447171191455144e6 5.09049098438986e7 0.0
0.0 0.0 0.0

1.1651569644412264e7 1.8312321263855457e7 0.0
1.8312321263855457e7 7.043595885365489e6 0.0
0.0 0.0 0.0

-9.823079600060146e6 6.641532696353713e6 0.0
6.641532696353713e6 3.798767054308328e7 0.0
0.0 0.0 0.0

-3.6041821076168017e6 1.1896158256774426e6 0.0
1.1896158256774426e6 3.6101494259488853e6 0.0
0.0 0.0 0.0

-3.69089136985676e6 2.3702565035847213e7 0.0
2.3702565035847213e7 2.7649846766395494e6 0.0
0.0 0.0 0.0

2.585671509438866e6 9.81978092588731e6 0.0
9.81978092588731e6 -2.0672452610462792e7 0.0
0.0 0.0 0.0

-5.983350369193861e6 2.560687403040354e7 0.0
2.560687403040354e7 5.569712179919263e6 0.0
0.0 0.0 0.0

-1.019357515681131e7 1.101502140444436e7 0.0
1.101502140444436e7 3.0209778407572366e7 0.0
0.0 0.0 0.0

-1.248076241034513e7 4.764553358538262e6 0.0
4.764553358538262e6 1.701900898437745e7 0.0
0.0 0.0 0.0

2.6268544015742387e6 2.3464691895366203e7 0.0
2.3464691895366203e7 -4.0429702671016655e6 0.0
0.0 0.0 0.0

-4.635215004136407e6 1.8829249986971147e7 0.0
1.8829249986971147e7 1.0569291641860232e7 0.0
0.0 0.0 0.0

-488861.77835494163 2.0647351639788106e7 0.0
2.0647351639788106e7 -5.222401991318334e6 0.0
0.0 0.0 0.0

-5.966711433229981e6 2.097653973966069e7 0.0
2.097653973966069e7 6.637425161206357e6 0.0
0.0 0.0 0.0

-1.8393773298683986e6 1.4929525836601805e7 0.0
1.4929525836601805e7 -1.825265085023929e7 0.0
0.0 0.0 0.0

1.9352419801353328e6 1.8403294012333743e7 0.0
1.8403294012333743e7 -6.239393931032189e6 0.0
0.0 0.0 0.0

3.397444272186514e6 1.609970348144249e7 0.0
1.609970348144249e7 2.8461161642412852e7 0.0
0.0 0.0 0.0

-5.82666506475579e6 3.2030068064610646e6 0.0
3.2030068064610646e6 1.3800605676034376e7 0.0
0.0 0.0 0.0

-3.750947542606518e6 6.947437490335868e6 0.0
6.947437490335868e6 -3.1619161874285527e6 0.0
0.0 0.0 0.0

-3.1890112219547825e6 1.6139268153546259e7 0.0
1.6139268153546259e7 -1.06300372624593e7 0.0
0.0 0.0 0.0

2.842866580159962e6 1.649841335565533e7 0.0
1.649841335565533e7 9.476222318033285e6 0.0
0.0 0.0 0.0

2.5765412839394584e6 2.670864665642314e7 0.0
2.670864665642314e7 -4.647051704848901e6 0.0
0.0 0.0 0.0

4.010978702320151e6 5.274461498324956e6 0.0
5.274461498324956e6 -1.3275590651220828e7 0.0
0.0 0.0 0.0

-4.159213747019075e6 2.6336089728413466e7 0.0
2.6336089728413466e7 4.197542262730107e6 0.0
0.0 0.0 0.0

-3.3373428054438557e7 1.1070571640703699e7 0.0
1.1070571640703699e7 9.813973248193393e6 0.0
0.0 0.0 0.0

-84385.28400086472 1.6646080875714464e7 0.0
1.6646080875714464e7 -1.1257518602223001e7 0.0
0.0 0.0 0.0

-1.0148742173371488e7 1.2652991453441996e7 0.0
1.2652991453441996e7 2.6328583335691273e7 0.0
0.0 0.0 0.0

348588.00602878374 1.612673414765228e7 0.0
1.612673414765228e7 -6.1495176698958855e6 0.0
0.0 0.0 0.0

-4.481354070548769e6 1.924323020437531e7 0.0
1.924323020437531e7 8.19520086563131e6 0.0
0.0 0.0 0.0

-3.2151017954078717e6 1.8935422518944215e7 0.0
1.8935422518944215e7 -1.537413056636353e6 0.0
0.0 0.0 0.0

507381.61731879413 1.6508487206946408e7 0.0
1.6508487206946408e7 -7.294941552791069e6 0.0
0.0 0.0 0.0

4.0696401752389446e6 4.279358154873575e6 0.0
4.279358154873575e6 -3.2875704582483694e7 0.0
0.0 0.0 0.0

-622699.2431686455 1.2988800005959956e7 0.0
1.2988800005959956e7 -2.0756644994262082e6 0.0
0.0 0.0 0.0

5.971500007627804e6 1.912887404609805e7 0.0
1.912887404609805e7 -4.399170174061183e6 0.0
0.0 0.0 0.0

-635335.6520317565 1.5665847954619257e7 0.0
1.5665847954619257e7 -1.1955791662626565e7 0.0
0.0 0.0 0.0

2.2401307183273747e6 1.779575124623773e7 0.0
1.779575124623773e7 7.951959478083542e6 0.0
0.0 0.0 0.0

978877.5243262276 1.055182328192856e7 0.0
1.055182328192856e7 -3.406599878616534e7 0.0
0.0 0.0 0.0

-1.4768703101525973e6 1.8403189495418724e7 0.0
1.8403189495418724e7 -6.73301126513218e6 0.0
0.0 0.0 0.0

1.354109540015155e6 1.8324018965938218e7 0.0
1.8324018965938218e7 1.2159298352677524e7 0.0
0.0 0.0 0.0

1.485014450880846e7 2.2366875048360053e7 0.0
2.2366875048360053e7 -6.89334757091922e6 0.0
0.0 0.0 0.0

1.7577282433143165e6 1.050300573625897e7 0.0
1.050300573625897e7 -2.9739052469340082e7 0.0
0.0 0.0 0.0

-2.7920877396814585e7 9.921431088687858e6 0.0
9.921431088687858e6 9.83843284569153e6 0.0
0.0 0.0 0.0

-73111.0725618857 1.6209678112999113e7 0.0
1.6209678112999113e7 1.1026454923753766e7 0.0
0.0 0.0 0.0

-5.445691535335852e6 2.6318330974104825e7 0.0
2.6318330974104825e7 5.147221377510034e6 0.0
0.0 0.0 0.0

-422333.7026019413 1.7036724916596655e7 0.0
1.7036724916596655e7 -8.586633846897118e6 0.0
0.0 0.0 0.0

-5.46432569359374e6 2.326655998530027e7 0.0
2.326655998530027e7 5.929388080156852e6 0.0
0.0 0.0 0.0

-7.933034410816506e6 1.0556773264761223e7 0.0
1.0556773264761223e7 4.4250876038166925e7 0.0
0.0 0.0 0.0

1.5450745051703136e6 1.3002133330907485e7 0.0
1.3002133330907485e7 -1.3756844384667588e7 0.0
0.0 0.0 0.0

1.2717389711340421e6 2.351655159082947e7 0.0
2.351655159082947e7 -4.0367242005762625e6 0.0
0.0 0.0 0.0

-2.1621496002810025e6 1.0160490688386133e7 0.0
1.0160490688386133e7 344821.50370622845 0.0
0.0 0.0 0.0

-2.5686148674310748e7 9.377758681645168e6 0.0
9.377758681645168e6 9.777498743686227e6 0.0
0.0 0.0 0.0

-3.6357353006059565e6 1.3233668507860428e7 0.0
1.3233668507860428e7 -708957.8571742252 0.0
0.0 0.0 0.0

-1.188302934960814e7 1.3174200290760351e6 0.0
1.3174200290760351e6 2.3341679617582805e7 0.0
0.0 0.0 0.0

-9.368587294753604e6 1.3455050823917013e7 0.0
1.3455050823917013e7 2.7420509333918106e7 0.0
0.0 0.0 0.0

-4.743509347715983e6 2.490560820866907e7 0.0
2.490560820866907e7 3.862214481157163e6 0.0
0.0 0.0 0.0

-4.962059911810807e6 2.6900072308583908e7 0.0
2.6900072308583908e7 4.574978930291722e6 0.0
0.0 0.0 0.0

-9.580825563746288e6 9.56485941350854e6 0.0
9.56485941350854e6 3.506164735672058e7 0.0
0.0 0.0 0.0

1.4418344290903327e6 1.1878099299826363e7 0.0
1.1878099299826363e7 -1.1479547202862944e7 0.0
0.0 0.0 0.0

3.7666811475201673e6 1.7347251028317947e7 0.0
1.7347251028317947e7 -824743.8933986779 0.0
0.0 0.0 0.0

-2.0306599009397547e6 1.2316003476253988e7 0.0
1.2316003476253988e7 -7.887091749842348e6 0.0
0.0 0.0 0.0

438764.4979987475 8.962681814035397e6 0.0
8.962681814035397e6 -4.9307877694247505e6 0.0
0.0 0.0 0.0

-3.7562752693873714e6 2.472898197062664e7 0.0
2.472898197062664e7 4.087795779338166e6 0.0
0.0 0.0 0.0

-1.0709271480094338e7 1.527819558460845e7 0.0
1.527819558460845e7 1.9884735331393227e7 0.0
0.0 0.0 0.0

1.1798846605504192e6 1.0828402058428003e7 0.0
1.0828402058428003e7 -3.023431766942433e7 0.0
0.0 0.0 0.0

-1.74585023340745e7 2.2088108389229584e7 0.0
2.2088108389229584e7 3.777189780400482e6 0.0
0.0 0.0 0.0

-522982.21080673987 2.1265693639388327e7 0.0
2.1265693639388327e7 -4.424453386110543e6 0.0
0.0 0.0 0.0

3.2356444188668597e6 5.529446321849915e6 0.0
5.529446321849915e6 -3.906170955127931e7 0.0
0.0 0.0 0.0

-3.914626448808464e6 1.7080359694180135e7 0.0
1.7080359694180135e7 1.4238271817254758e7 0.0
0.0 0.0 0.0

-3.229068248346937e6 1.9314693980394762e7 0.0
1.9314693980394762e7 1.2815317076756968e6 0.0
0.0 0.0 0.0

69144.02538604708 1.679361180616228e7 0.0
1.679361180616228e7 -1.1449260233921293e7 0.0
0.0 0.0 0.0

-7.191045614458593e6 2.6020264964426864e7 0.0
2.6020264964426864e7 5.924728905455215e6 0.0
0.0 0.0 0.0

-2.6169107988830376e6 1.9315406321752936e7 0.0
1.9315406321752936e7 -920046.3302100607 0.0
0.0 0.0 0.0

-5.454890597935784e6 2.541945939357935e7 0.0
2.541945939357935e7 4.1624897172879395e6 0.0
0.0 0.0 0.0

-1.460015798349974e6 7.077707812874382e6 0.0
7.077707812874382e6 398726.79446042166 0.0
0.0 0.0 0.0

3.2669741917377e6 1.5769899985922605e7 0.0
1.5769899985922605e7 1.2976785926442944e7 0.0
0.0 0.0 0.0

-242874.86271973792 1.4813940470231604e7 0.0
1.4813940470231604e7 -1.6065262667251153e7 0.0
0.0 0.0 0.0

-2.5508488627059944e6 1.2840815628834177e7 0.0
1.2840815628834177e7 -99433.19554898073 0.0
0.0 0.0 0.0

-84893.4581981292 1.5787702939312372e7 0.0
1.5787702939312372e7 -1.309640449707902e7 0.0
0.0 0.0 0.0

3.0412812257248936e6 7.448997400340914e6 0.0
7.448997400340914e6 -1.6043160966708332e7 0.0
0.0 0.0 0.0

6.829741715313985e6 1.8994057340526532e7 0.0
1.8994057340526532e7 8.281414567209585e6 0.0
0.0 0.0 0.0

-9.995411756250676e6 -2.0650031225589148e6 0.0
-2.0650031225589148e6 2.9577009686797924e7 0.0
0.0 0.0 0.0

3.756627633961686e6 1.5972651877095487e7 0.0
1.5972651877095487e7 1.4795293405500349e7 0.0
0.0 0.0 0.0

-3.935621569540458e6 2.3406674811799373e7 0.0
2.3406674811799373e7 3.3944173891971745e6 0.0
0.0 0.0 0.0

230057.53362917434 1.4582590253984675e7 0.0
1.4582590253984675e7 -1.8064487050893217e7 0.0
0.0 0.0 0.0

945454.6013118823 2.304712979611162e7 0.0
2.304712979611162e7 -3.562108407474835e6 0.0
0.0 0.0 0.0

-191697.08559167763 1.6182012468032984e7 0.0
1.6182012468032984e7 -2.058390835125945e6 0.0
0.0 0.0 0.0

3.2428665354921073e6 9.46812497240214e6 0.0
9.46812497240214e6 -2.0111734509110242e7 0.0
0.0 0.0 0.0

-829903.4240329734 2.0757401777283303e7 0.0
2.0757401777283303e7 -5.395047902452514e6 0.0
0.0 0.0 0.0

-187240.3156570578 1.5088611750512183e7 0.0
1.5088611750512183e7 -1.5056487159879824e7 0.0
0.0 0.0 0.0

-8.962149353190996e6 4.68021683400584e6 0.0
4.68021683400584e6 1.1755791715109307e7 0.0
0.0 0.0 0.0

1.1686198673893837e6 1.7709148207323447e7 0.0
1.7709148207323447e7 1.172389198510142e7 0.0
0.0 0.0 0.0

-5.191794243021818e6 1.955439905079016e7 0.0
1.955439905079016e7 7.8944937506358195e6 0.0
0.0 0.0 0.0

-4.10927747062024e6 2.3929376291809134e7 0.0
2.3929376291809134e7 3.49498506246634e6 0.0
0.0 0.0 0.0

-1.583801615206976e6 1.6576447905227281e7 0.0
1.6576447905227281e7 8.048315188971126e6 0.0
0.0 0.0 0.0

-3.2540661031248835e6 4.391250167355537e6 0.0
4.391250167355537e6 4.642517564399977e6 0.0
0.0 0.0 0.0

-1.163371497970252e7 8.012752858922122e6 0.0
8.012752858922122e6 2.902986640180131e7 0.0
0.0 0.0 0.0

-78093.8390708603 1.6176364695457008e7 0.0
1.6176364695457008e7 -1.219301022771253e7 0.0
0.0 0.0 0.0

-842338.2024361696 1.2896750787349287e7 0.0
1.2896750787349287e7 -4.429063275194274e7 0.0
0.0 0.0 0.0

-2.8524279433459314e6 5.482536765674672e6 0.0
5.482536765674672e6 3.5897529666325552e6 0.0
0.0 0.0 0.0

-1.0839842691824604e7 -489587.29511253344 0.0
-489587.29511253344 1.6744496000911672e7 0.0
0.0 0.0 0.0

-5.705653664511478e6 1.516803078591705e7 0.0
1.516803078591705e7 6.257608551873663e6 0.0
0.0 0.0 0.0

-866986.4807117144 2.1455759529326804e7 0.0
2.1455759529326804e7 -3.8455591185493385e6 0.0
0.0 0.0 0.0

-1.916077180990844e6 1.3818270546538157e7 0.0
1.3818270546538157e7 -2.8879165895483863e7 0.0
0.0 0.0 0.0

3.575029229961491e6 7.151097668715108e6 0.0
7.151097668715108e6 -1.3992184302068224e7 0.0
0.0 0.0 0.0

-3.0748598132100347e6 2.3503549392311864e7 0.0
2.3503549392311864e7 3.0685610449854014e6 0.0
0.0 0.0 0.0

-200777.152730308 2.101460080111721e7 0.0
2.101460080111721e7 -4.986820050174999e6 0.0
0.0 0.0 0.0

-8.684584912738467e6 3.0421482188927967e7 0.0
3.0421482188927967e7 4.261239900175864e6 0.0
0.0 0.0 0.0

-3.369180367963225e6 2.3699157380117908e7 0.0
2.3699157380117908e7 3.8388837354044896e6 0.0
0.0 0.0 0.0

-1.7321718859955143e7 2.360817638360025e7 0.0
2.360817638360025e7 -3.09625885654337e6 0.0
0.0 0.0 0.0

-2.3351068681119755e6 1.810731395749326e7 0.0
1.810731395749326e7 -1.2871935595209503e6 0.0
0.0 0.0 0.0

-1.0818427556101345e6 1.278263299905958e7 0.0
1.278263299905958e7 -4.083738498004108e7 0.0
0.0 0.0 0.0

-3.4071657453769944e6 1.2242042231279552e7 0.0
1.2242042231279552e7 -1.0080059601969057e6 0.0
0.0 0.0 0.0

-1.091020174108331e7 447917.9863910699 0.0
447917.9863910699 3.404686950028131e7 0.0
0.0 0.0 0.0

-1.0225074071617901e7 4.343400802212067e6 0.0
4.343400802212067e6 3.9733795486753665e7 0.0
0.0 0.0 0.0

3.660809883212315e6 6.293921263792247e6 0.0
6.293921263792247e6 -2.914444225496141e7 0.0
0.0 0.0 0.0

-4.806394953258637e6 2.0682438510170262e7 0.0
2.0682438510170262e7 7.98881942086926e6 0.0
0.0 0.0 0.0

-8.020068083191823e6 1.1583978623035679e7 0.0
1.1583978623035679e7 3.766348211964174e7 0.0
0.0 0.0 0.0

-126124.39093541075 1.5432147057660865e7 0.0
1.5432147057660865e7 -1.4059420147208627e7 0.0
0.0 0.0 0.0

-6.206800035302728e6 1.3574701894600572e7 0.0
1.3574701894600572e7 3.4638854410432905e7 0.0
0.0 0.0 0.0

-1.2171358032475847e6 2.0983264495206043e7 0.0
2.0983264495206043e7 -4.872113840583086e6 0.0
0.0 0.0 0.0

47740.671508877305 2.47737427352424e7 0.0
2.47737427352424e7 -2.4651596920034885e6 0.0
0.0 0.0 0.0

-13810.30271436437 1.607000891930764e7 0.0
1.607000891930764e7 -3.4309340832588766e6 0.0
0.0 0.0 0.0

-1.1253927631462302e7 2.11032709411843e6 0.0
2.11032709411843e6 1.698979025267636e7 0.0
0.0 0.0 0.0

-922851.8372689933 1.637345946006973e7 0.0
1.637345946006973e7 9.685845060736218e6 0.0
0.0 0.0 0.0

-4.953084583090685e6 1.4681690165524019e7 0.0
1.4681690165524019e7 7.091781558505311e6 0.0
0.0 0.0 0.0

4.223339203859283e6 4.8666095754282e6 0.0
4.8666095754282e6 -2.66607028054993e7 0.0
0.0 0.0 0.0

2.1150401848837524e6 1.8166223363240313e7 0.0
1.8166223363240313e7 -5.56742570933782e6 0.0
0.0 0.0 0.0

-1.171190097950967e7 1.7629439484392628e7 0.0
1.7629439484392628e7 7.026436261915757e6 0.0
0.0 0.0 0.0

-1.6160854558453368e7 2.0327610120659795e7 0.0
2.0327610120659795e7 -4.0770442303342195e6 0.0
0.0 0.0 0.0

-3.1590676128257313e6 2.375980694403036e7 0.0
2.375980694403036e7 1.4974570637897756e6 0.0
0.0 0.0 0.0

623129.3262740397 1.1529945102307752e7 0.0
1.1529945102307752e7 -1.089893404535801e7 0.0
0.0 0.0 0.0

-3.8706943317988846e6 1.790328024802391e7 0.0
1.790328024802391e7 -1.0402176739454996e6 0.0
0.0 0.0 0.0

-611500.33778482 2.490357059273572e7 0.0
2.490357059273572e7 -702723.5708587713 0.0
0.0 0.0 0.0

-4.827653692573477e6 1.71393999873316e7 0.0
1.71393999873316e7 1.5488207055155527e7 0.0
0.0 0.0 0.0

-2.249729666993204e6 1.6858501472942468e7 0.0
1.6858501472942468e7 8.174044615771217e6 0.0
0.0 0.0 0.0

1.4584743245238e6 1.11761080478821e7 0.0
1.11761080478821e7 -1.0335174684925124e7 0.0
0.0 0.0 0.0

-2.753176427107312e6 2.6401828438482758e7 0.0
2.6401828438482758e7 2.3601218340326995e6 0.0
0.0 0.0 0.0

-1.1397841468091045e7 -792630.9068297778 0.0
-792630.9068297778 2.5492949723273512e7 0.0
0.0 0.0 0.0

4.478326164680239e6 5.762211113910375e6 0.0
5.762211113910375e6 -2.1197113320101704e7 0.0
0.0 0.0 0.0

-1.55325024049078e6 2.299067585115493e7 0.0
2.299067585115493e7 -1.0308181657633252e6 0.0
0.0 0.0 0.0

-114749.9980878476 1.5054099065137492e7 0.0
1.5054099065137492e7 -1.644358998932724e7 0.0
0.0 0.0 0.0

-2.0342056157305841e6 1.952512850172629e6 0.0
1.952512850172629e6 2.7627067686024522e6 0.0
0.0 0.0 0.0

1.246225593248162e6 8.858703012752656e6 0.0
8.858703012752656e6 -1.0247600091469457e7 0.0
0.0 0.0 0.0

-6.565643890402446e6 2.0868203925677367e7 0.0
2.0868203925677367e7 -4.263640494151475e6 0.0
0.0 0.0 0.0

2.8534423942439966e6 1.0459021739919215e7 0.0
1.0459021739919215e7 -1.9577327398478623e7 0.0
0.0 0.0 0.0

6.266132348413684e6 1.930421074027736e7 0.0
1.930421074027736e7 8.8836848243704e6 0.0
0.0 0.0 0.0

-2.8879086857348876e6 7.535165028416099e6 0.0
7.535165028416099e6 -297230.4220627332 0.0
0.0 0.0 0.0

-3.964461656763782e6 4.483404926630458e6 0.0
4.483404926630458e6 2.11722914302151e6 0.0
0.0 0.0 0.0

3.843314103856787e6 2.3491464560251996e7 0.0
2.3491464560251996e7 -4.497609312375826e6 0.0
0.0 0.0 0.0

-1.095550059405222e7 -458172.9096971661 0.0
-458172.9096971661 2.5095812047642853e7 0.0
0.0 0.0 0.0

948802.8572446578 1.397967656193565e7 0.0
1.397967656193565e7 -1.1886844316305874e7 0.0
0.0 0.0 0.0

612732.1577078156 1.5416810075177852e7 0.0
1.5416810075177852e7 1.5094302967123964e6 0.0
0.0 0.0 0.0

9.522970808633544e6 2.0171722857571494e7 0.0
2.0171722857571494e7 -4.82096927620164e6 0.0
0.0 0.0 0.0

935663.8435065765 1.471350127608561e7 0.0
1.471350127608561e7 -1.4499881525552122e7 0.0
0.0 0.0 0.0

5.155149760160722e6 1.6592637815145886e7 0.0
1.6592637815145886e7 2.000161019028751e7 0.0
0.0 0.0 0.0

-7.267805850676215e6 2.3256746089881726e7 0.0
2.3256746089881726e7 6.177358960389547e6 0.0
0.0 0.0 0.0

-1.0299951307229187e7 107322.06114457175 0.0
107322.06114457175 3.167548360380487e7 0.0
0.0 0.0 0.0

-1.170763523061473e6 2.3026312050364424e7 0.0
2.3026312050364424e7 -1.4981493621306038e6 0.0
0.0 0.0 0.0

-1.6329384631990213e6 1.7350386318880375e7 0.0
1.7350386318880375e7 1.3988995366780953e7 0.0
0.0 0.0 0.0

2.2756733665020717e6 1.01021511042263e7 0.0
1.01021511042263e7 -1.653908100632003e7 0.0
0.0 0.0 0.0

4.531375361544777e6 4.947762674281105e6 0.0
4.947762674281105e6 -2.9564964492861312e7 0.0
0.0 0.0 0.0

-3.0170339469635915e6 1.912532084411134e7 0.0
1.912532084411134e7 -2.20539233932818e6 0.0
0.0 0.0 0.0

-7.553834245109846e6 9.234712864219768e6 0.0
9.234712864219768e6 1.185570538606952e7 0.0
0.0 0.0 0.0

-1.0672314723838074e7 1.426284216531858e7 0.0
1.426284216531858e7 2.3410449783761498e7 0.0
0.0 0.0 0.0

99301.8380551301 1.430982058786311e7 0.0
1.430982058786311e7 -1.915152445158701e7 0.0
0.0 0.0 0.0

-609355.9432366081 1.2316814733254448e7 0.0
1.2316814733254448e7 -3.8172533056457214e7 0.0
0.0 0.0 0.0

-916665.4852677791 2.3472302288738854e7 0.0
2.3472302288738854e7 -1.4348628610259106e6 0.0
0.0 0.0 0.0

-1.4088751645833678e6 1.6603967828353634e7 0.0
1.6603967828353634e7 6.215114919853318e6 0.0
0.0 0.0 0.0

-3.0608973008735582e7 1.0293968166209156e7 0.0
1.0293968166209156e7 9.593387875891013e6 0.0
0.0 0.0 0.0

5.6652713855770985e6 1.6982024059602123e7 0.0
1.6982024059602123e7 2.292159323412185e7 0.0
0.0 0.0 0.0

-2.840545635079925e7 2.5994769253329325e7 0.0
2.5994769253329325e7 8.534630963493153e6 0.0
0.0 0.0 0.0

2.550437111085495e6 9.769330809039399e6 0.0
9.769330809039399e6 -2.3453300171543457e7 0.0
0.0 0.0 0.0

5.736896060315695e6 5.2421940494154785e6 0.0
5.2421940494154785e6 -1.1136747216482798e6 0.0
0.0 0.0 0.0

-1.5331216307539089e7 -1.3019776917578413e6 0.0
-1.3019776917578413e6 7.123187474158488e6 0.0
0.0 0.0 0.0

-6.393827631209206e6 8.288494705677857e6 0.0
8.288494705677857e6 9.808465043029156e6 0.0
0.0 0.0 0.0

-1.084217508565499e7 1.3309402678022948e6 0.0
1.3309402678022948e6 3.0038094127779763e7 0.0
0.0 0.0 0.0

-1.1950243215671081e7 1.6001732818514467e6 0.0
1.6001732818514467e6 2.4623570148037616e7 0.0
0.0 0.0 0.0

166004.37706500012 1.5999800325451158e7 0.0
1.5999800325451158e7 -1.3468722574705347e7 0.0
0.0 0.0 0.0

-2.0141843085138856e6 1.301531973822749e7 0.0
1.301531973822749e7 -6.713947924463172e6 0.0
0.0 0.0 0.0

1.3966461560142676e6 1.4253912571380237e7 0.0
1.4253912571380237e7 4.655487337276658e6 0.0
0.0 0.0 0.0

729868.1170429247 1.5163741786220325e7 0.0
1.5163741786220325e7 -956277.6513401752 0.0
0.0 0.0 0.0

-623923.9991752835 2.3903067988723423e7 0.0
2.3903067988723423e7 -1.3405819931072416e6 0.0
0.0 0.0 0.0

-1.0711167895308945e7 7.873166911692655e6 0.0
7.873166911692655e6 1.6492202354463687e7 0.0
0.0 0.0 0.0

225021.1774169635 1.5225356227456257e7 0.0
1.5225356227456257e7 -1.3657093205675578e7 0.0
0.0 0.0 0.0

-3.8594284012264777e6 2.0837182004739717e7 0.0
2.0837182004739717e7 2.7697734349781396e6 0.0
0.0 0.0 0.0

2.999148469159685e6 8.156904122188056e6 0.0
8.156904122188056e6 -2.720786096734212e7 0.0
0.0 0.0 0.0

-1.0986780463076182e7 510568.4750934279 0.0
510568.4750934279 2.6903114114634693e7 0.0
0.0 0.0 0.0

-1.0280781842177131e6 2.2521672304976083e7 0.0
2.2521672304976083e7 -2.2858755805619895e6 0.0
0.0 0.0 0.0

-1.3192541995909968e6 1.6568096949049724e7 0.0
1.6568096949049724e7 4.3372112870488465e6 0.0
0.0 0.0 0.0

-1.2400417743191263e6 1.671735758353249e7 0.0
1.671735758353249e7 2.483790484780089e6 0.0
0.0 0.0 0.0

-4.461893177505925e6 1.9812365985259987e7 0.0
1.9812365985259987e7 -7.800237512055842e6 0.0
0.0 0.0 0.0

3.812293025640153e6 1.4605045969294542e7 0.0
1.4605045969294542e7 1.4057761958273383e7 0.0
0.0 0.0 0.0

-4.239723304097104e6 1.8934855253750198e7 0.0
1.8934855253750198e7 -6.482681993460176e6 0.0
0.0 0.0 0.0

-9.920425007796137e6 1.2119770532307368e7 0.0
1.2119770532307368e7 2.8407175878311556e7 0.0
0.0 0.0 0.0

-1.0999426645238545e7 85313.34470911627 0.0
85313.34470911627 3.1284084457178388e7 0.0
0.0 0.0 0.0

2.894121135271103e6 9.740504863947324e6 0.0
9.740504863947324e6 -1.5946459972160922e7 0.0
0.0 0.0 0.0

3.7772533687842004e6 5.628495392239125e6 0.0
5.628495392239125e6 -3.04349379711189e7 0.0
0.0 0.0 0.0

603324.2957908511 1.5588023229397645e7 0.0
1.5588023229397645e7 -1.2659885120846327e7 0.0
0.0 0.0 0.0

3.5733389887409927e6 1.8385065578478847e7 0.0
1.8385065578478847e7 6.874723774141071e6 0.0
0.0 0.0 0.0

3.197027648585896e6 6.557470488003775e6 0.0
6.557470488003775e6 -1.4947990088514347e7 0.0
0.0 0.0 0.0

-4.484034472141779e6 1.4843688773485152e7 0.0
1.4843688773485152e7 -2.2436127937541682e7 0.0
0.0 0.0 0.0

-224269.76574379206 1.2015772509351527e7 0.0
1.2015772509351527e7 -3.564697445646794e7 0.0
0.0 0.0 0.0

-5.268268508797441e6 1.4278674493332226e7 0.0
1.4278674493332226e7 3.996014080956587e6 0.0
0.0 0.0 0.0

-5.826062774419383e6 2.091342202701205e7 0.0
2.091342202701205e7 7.656581445710615e6 0.0
0.0 0.0 0.0

-5.88213653530397e6 1.960092968703716e7 0.0
1.960092968703716e7 -6.554615826680091e6 0.0
0.0 0.0 0.0

-9.77016683878357e6 1.4233172938598518e6 0.0
1.4233172938598518e6 3.938487921627995e7 0.0
0.0 0.0 0.0

161522.6004866641 1.1859904397292564e7 0.0
1.1859904397292564e7 -3.3481615585308284e7 0.0
0.0 0.0 0.0

-9.667202499889674e6 1.1504964448029906e7 0.0
1.1504964448029906e7 3.0589136060272064e7 0.0
0.0 0.0 0.0

-1.2915622297690292e6 1.6872185313312545e7 0.0
1.6872185313312545e7 646695.9195526259 0.0
0.0 0.0 0.0

-1.3925998545194026e6 2.3656939727001313e7 0.0
2.3656939727001313e7 -1.7257886388143871e6 0.0
0.0 0.0 0.0

-1.1193107873718953e7 2.2842736864681665e7 0.0
2.2842736864681665e7 5.593155887760372e6 0.0
0.0 0.0 0.0

-1.131421543635006e7 1.3345449500868227e7 0.0
1.3345449500868227e7 2.3395797208409596e7 0.0
0.0 0.0 0.0

-3.2490190649442393e6 1.2773260490289563e7 0.0
1.2773260490289563e7 -1.2835002984921658e7 0.0
0.0 0.0 0.0

2.425843374974305e6 1.523790247394114e7 0.0
1.523790247394114e7 8.974427534281485e6 0.0
0.0 0.0 0.0

3.445846354513703e6 6.800082327807146e6 0.0
6.800082327807146e6 -2.799912432046946e7 0.0
0.0 0.0 0.0

1.7206507583992463e6 8.315410444489819e6 0.0
8.315410444489819e6 -1.1118904851239512e7 0.0
0.0 0.0 0.0

-1.0910311245880175e7 9.180394828674354e6 0.0
9.180394828674354e6 3.0445447875309143e7 0.0
0.0 0.0 0.0

-4.1083012903055497e6 1.8181787221689403e7 0.0
1.8181787221689403e7 9.620711846753173e6 0.0
0.0 0.0 0.0

-2.5925088967289615e7 2.2744161550186176e7 0.0
2.2744161550186176e7 4.1134654618811402e6 0.0
0.0 0.0 0.0

637516.9400696075 1.3124701899139779e7 0.0
1.3124701899139779e7 -2.0982122055624977e7 0.0
0.0 0.0 0.0

2.523761273814993e6 9.327746967462456e6 0.0
9.327746967462456e6 -2.630236492787796e7 0.0
0.0 0.0 0.0

515200.712197816 1.1819576367957253e7 0.0
1.1819576367957253e7 -3.1474852957140982e7 0.0
0.0 0.0 0.0

2.8458598843232803e6 4.533161934856224e6 0.0
4.533161934856224e6 -8.876018872444186e6 0.0
0.0 0.0 0.0

-301988.993803998 1.717853813177649e7 0.0
1.717853813177649e7 -8.993940008158281e6 0.0
0.0 0.0 0.0

411096.51052428456 1.8294151863873336e7 0.0
1.8294151863873336e7 -7.990053822683947e6 0.0
0.0 0.0 0.0

-1.7234789740507673e7 2.9228920015302323e7 0.0
2.9228920015302323e7 7.534815924517973e6 0.0
0.0 0.0 0.0

1.8337147274998275e6 4.551870934036235e6 0.0
4.551870934036235e6 -5.668184323271005e6 0.0
0.0 0.0 0.0

26314.720646268688 1.5344972850708045e7 0.0
1.5344972850708045e7 -1.5378478816186367e7 0.0
0.0 0.0 0.0

-1.0053750718545135e7 1.5551421325542962e7 0.0
1.5551421325542962e7 2.0291240049922973e7 0.0
0.0 0.0 0.0

-1.069663121170366e7 269882.65166288725 0.0
269882.65166288725 2.196679963900043e7 0.0
0.0 0.0 0.0

4.0434396903239284e6 5.381839426756852e6 0.0
5.381839426756852e6 -2.563931567362904e7 0.0
0.0 0.0 0.0

-1.144664796786565e7 2.8291969063407243e6 0.0
2.8291969063407243e6 2.187438030676634e7 0.0
0.0 0.0 0.0

-1.1372511963429842e7 3.0830520860738475e6 0.0
3.0830520860738475e6 2.6323403201441243e7 0.0
0.0 0.0 0.0

-8.123166922546269e6 7.835027835375938e6 0.0
7.835027835375938e6 1.3162227690301765e7 0.0
0.0 0.0 0.0

-4.88368161969228e6 1.933763760953863e7 0.0
1.933763760953863e7 1.0017969520646457e7 0.0
0.0 0.0 0.0

-1.882455913546529e6 1.0792497079166142e7 0.0
1.0792497079166142e7 -645908.8043150667 0.0
0.0 0.0 0.0

1.5193999776248787e7 5.740293694300955e6 0.0
5.740293694300955e6 -2.9834152407522835e6 0.0
0.0 0.0 0.0

-2.879830446076515e7 747837.5612739361 0.0
747837.5612739361 8.390004479562888e6 0.0
0.0 0.0 0.0

2.9928441030595643e6 7.820620131365992e6 0.0
7.820620131365992e6 -1.1782811925490713e7 0.0
0.0 0.0 0.0

3.2141287862306796e6 8.93539768640105e6 0.0
8.93539768640105e6 -2.5709207642699387e7 0.0
0.0 0.0 0.0

3.724028202643225e6 7.631021031315308e6 0.0
7.631021031315308e6 -2.6413928932318937e7 0.0
0.0 0.0 0.0

479789.508429021 1.5359719044193823e6 0.0
1.5359719044193823e6 1.061182359914305e6 0.0
0.0 0.0 0.0

-1.7837059092180636e6 -1.7581952521848874e6 0.0
-1.7581952521848874e6 2.7834551629752633e6 0.0
0.0 0.0 0.0

-2.669696051619438e6 1.4767688781951929e7 0.0
1.4767688781951929e7 -2.071089161056666e7 0.0
0.0 0.0 0.0

3.8804555092120953e6 5.617024611138309e6 0.0
5.617024611138309e6 -2.8669599071640544e7 0.0
0.0 0.0 0.0

-1.8041648688427236e7 2.154021020603952e7 0.0
2.154021020603952e7 -5.737134480911451e6 0.0
0.0 0.0 0.0

-6.973059159533977e6 1.718141819487222e7 0.0
1.718141819487222e7 1.335642133949807e7 0.0
0.0 0.0 0.0

-936934.5250800619 2.1991817001417022e7 0.0
2.1991817001417022e7 -3.0549547827842683e6 0.0
0.0 0.0 0.0

3.214583437436421e6 1.44572751685389e7 0.0
1.44572751685389e7 1.2231169227479095e7 0.0
0.0 0.0 0.0

7.800931234964263e6 1.0319656740215048e7 0.0
1.0319656740215048e7 1.3552565536571913e6 0.0
0.0 0.0 0.0

-8.75716707476793e6 2.2018465997491714e7 0.0
2.2018465997491714e7 -5.842132434005382e6 0.0
0.0 0.0 0.0

-1.0687076812594231e7 3.919300224231624e6 0.0
3.919300224231624e6 3.402873204584518e7 0.0
0.0 0.0 0.0

-5.661438479831293e6 2.02221125527073e7 0.0
2.02221125527073e7 7.846890110675007e6 0.0
0.0 0.0 0.0

820840.0041637919 1.8330191976475142e7 0.0
1.8330191976475142e7 -7.225491910260964e6 0.0
0.0 0.0 0.0

-9.616353934378307e6 1.5848283735591441e7 0.0
1.5848283735591441e7 1.9560409045996185e7 0.0
0.0 0.0 0.0

-9.374116761979338e6 -3.51029057489945e6 0.0
-3.51029057489945e6 2.1145559530195855e7 0.0
0.0 0.0 0.0

-1.881141973393744e6 2.2750729730923325e7 0.0
2.2750729730923325e7 -1.9315193116314933e6 0.0
0.0 0.0 0.0

2.7000078042941634e6 9.237964339527583e6 0.0
9.237964339527583e6 -2.473101684344552e7 0.0
0.0 0.0 0.0

217137.32751276367 2.132686760732886e7 0.0
2.132686760732886e7 -4.864403554552231e6 0.0
0.0 0.0 0.0

4.1792543459440675e6 6.389727001113364e6 0.0
6.389727001113364e6 -2.734552723581604e7 0.0
0.0 0.0 0.0

3.342068615374129e6 1.6226578135249076e7 0.0
1.6226578135249076e7 1.181109375489199e7 0.0
0.0 0.0 0.0

-1.2955735353232631e6 1.7647565849936858e7 0.0
1.7647565849936858e7 -7.760466155766098e6 0.0
0.0 0.0 0.0

-9.719424647741545e6 1.2215666867701267e6 0.0
1.2215666867701267e6 1.1954842439488165e7 0.0
0.0 0.0 0.0

-1.4696545757579757e6 1.3007382855336228e7 0.0
1.3007382855336228e7 -7.060667662281714e6 0.0
0.0 0.0 0.0

4.586690892540326e6 5.010932245795787e6 0.0
5.010932245795787e6 -2.7740855343893528e7 0.0
0.0 0.0 0.0

7.339799484069616e6 2.1340069940880276e7 0.0
2.1340069940880276e7 -5.186967859190267e6 0.0
0.0 0.0 0.0

2.8638518171736198e6 7.127716620488445e6 0.0
7.127716620488445e6 -1.409978376058647e7 0.0
0.0 0.0 0.0

-1.2226620258466724e7 4.071287930670748e6 0.0
4.071287930670748e6 1.6115742407338694e7 0.0
0.0 0.0 0.0

-3.805694549426605e6 2.2883219932911877e7 0.0
2.2883219932911877e7 3.2033360439608395e6 0.0
0.0 0.0 0.0

604094.2067656498 1.1796381514593586e7 0.0
1.1796381514593586e7 -2.9516032585858226e7 0.0
0.0 0.0 0.0

-3.5172125330194836e6 1.336874331773738e7 0.0
1.336874331773738e7 -1.1724041912068898e7 0.0
0.0 0.0 0.0

2.4421295122058652e6 1.4543451901383441e7 0.0
1.4543451901383441e7 8.140431960291757e6 0.0
0.0 0.0 0.0

-2.5131545677775657e6 1.1253358337588832e7 0.0
1.1253358337588832e7 655129.4901138666 0.0
0.0 0.0 0.0

-6.241655071938775e6 1.3015026316929372e7 0.0
1.3015026316929372e7 6.315044162081742e6 0.0
0.0 0.0 0.0

422650.150172506 1.667732213869599e7 0.0
1.667732213869599e7 1.241448863653857e7 0.0
0.0 0.0 0.0

-9.601288412138782e6 -1.6223193144333365e6 0.0
-1.6223193144333365e6 1.847425096556258e7 0.0
0.0 0.0 0.0

711436.5808453374 1.6875091619087428e7 0.0
1.6875091619087428e7 3.4668857170187747e6 0.0
0.0 0.0 0.0

-5.240311662923459e6 1.8928562637585614e7 0.0
1.8928562637585614e7 1.0312065434259823e7 0.0
0.0 0.0 0.0

2.5450335514086494e6 7.237091017611932e6 0.0
7.237091017611932e6 -1.2701409104235338e7 0.0
0.0 0.0 0.0

-1.196021244607355e7 1.3397092516877367e6 0.0
1.3397092516877367e6 1.989508294926025e7 0.0
0.0 0.0 0.0

-3.3505502068917584e6 1.850079052719738e7 0.0
1.850079052719738e7 -5.581748907097171e6 0.0
0.0 0.0 0.0

-9.905495514800146e6 1.595799766877899e7 0.0
1.595799766877899e7 1.8593500844510023e7 0.0
0.0 0.0 0.0

-1.55676776739597e6 1.709041853508725e7 0.0
1.709041853508725e7 1.1366048375859365e7 0.0
0.0 0.0 0.0

-1.19947792081546e7 5.329421378690051e6 0.0
5.329421378690051e6 2.16760061359704e7 0.0
0.0 0.0 0.0

187262.35997634986 1.8047993167222243e7 0.0
1.8047993167222243e7 -8.545703070305636e6 0.0
0.0 0.0 0.0

-5.486450857740569e6 2.263486949629575e7 0.0
2.263486949629575e7 6.403088008217467e6 0.0
0.0 0.0 0.0

-1.119579713742611e7 7.482405052040281e6 0.0
7.482405052040281e6 3.0230944186290972e7 0.0
0.0 0.0 0.0

-8.689439810387827e6 1.0134292930746883e7 0.0
1.0134292930746883e7 1.0158063583709268e7 0.0
0.0 0.0 0.0

-1.1317739252695343e7 1.2722575208704919e6 0.0
1.2722575208704919e6 2.9299803940906078e7 0.0
0.0 0.0 0.0

432221.1232084017 1.4795480618884306e7 0.0
1.4795480618884306e7 -1.4630901593093753e7 0.0
0.0 0.0 0.0

-5.354224788598815e6 2.0422574902943533e7 0.0
2.0422574902943533e7 8.464513956254497e6 0.0
0.0 0.0 0.0

-1.4240664129879621e6 1.708072029279574e7 0.0
1.708072029279574e7 -1.0822419724003756e6 0.0
0.0 0.0 0.0

3.457970988750579e6 7.984896464624898e6 0.0
7.984896464624898e6 -1.5124716404655134e7 0.0
0.0 0.0 0.0

-1.0041769293710295e7 -2.608658578904916e6 0.0
-2.608658578904916e6 2.433524925899078e7 0.0
0.0 0.0 0.0

-7.0528525513711665e6 1.382847669690649e7 0.0
1.382847669690649e7 3.1790586723376535e7 0.0
0.0 0.0 0.0

-9.994284884304134e6 1.0295422311135223e7 0.0
1.0295422311135223e7 3.2349123795063734e7 0.0
0.0 0.0 0.0

-182721.39462781232 1.6031146236846084e7 0.0
1.6031146236846084e7 8.434406957109908e6 0.0
0.0 0.0 0.0

-1.2504003106630169e7 3.8944705569023504e6 0.0
3.8944705569023504e6 1.9766532307221383e7 0.0
0.0 0.0 0.0

-5.175154453134773e6 1.250685379970535e7 0.0
1.250685379970535e7 7.163665259327023e6 0.0
0.0 0.0 0.0

-1.4515030373500327e6 1.683448114662924e7 0.0
1.683448114662924e7 -5.047077793956733e6 0.0
0.0 0.0 0.0

563474.3536284892 1.3539530553955514e7 0.0
1.3539530553955514e7 -1.2585318656584118e7 0.0
0.0 0.0 0.0

-4.846343479477913e6 1.8869584463354733e7 0.0
1.8869584463354733e7 1.1316235037065674e7 0.0
0.0 0.0 0.0

-4.124737225752713e6 2.5217493081206996e7 0.0
2.5217493081206996e7 4.348141701391764e6 0.0
0.0 0.0 0.0

-1.2064476859372357e7 1.062284015222176e7 0.0
1.062284015222176e7 2.4368791912285864e7 0.0
0.0 0.0 0.0

5.0315980634531155e6 1.4793720957999755e7 0.0
1.4793720957999755e7 1.8417674327659603e7 0.0
0.0 0.0 0.0

167136.30974051869 1.6175574482506637e7 0.0
1.6175574482506637e7 -7.995370707602643e6 0.0
0.0 0.0 0.0

3.0242955974718565e6 1.0017678939997558e7 0.0
1.0017678939997558e7 -1.9238590801420886e7 0.0
0.0 0.0 0.0

4.581499993704494e6 3.547984925767025e6 0.0
3.547984925767025e6 -2.9711843808293343e7 0.0
0.0 0.0 0.0

-1.0573296049684258e7 -2.065604133864075e6 0.0
-2.065604133864075e6 2.7294905508173686e7 0.0
0.0 0.0 0.0

-4.359618375503677e6 1.8870215748619583e7 0.0
1.8870215748619583e7 1.039165562079064e7 0.0
0.0 0.0 0.0

-5.245877090521077e6 1.4199401796517227e7 0.0
1.4199401796517227e7 1.4245451507705625e7 0.0
0.0 0.0 0.0

-3.0824378873999715e6 1.4608635349751864e7 0.0
1.4608635349751864e7 4.790678046183691e7 0.0
0.0 0.0 0.0

439245.48611881724 1.2948861742672618e7 0.0
1.2948861742672618e7 -1.1686863452070802e7 0.0
0.0 0.0 0.0

3.9680023682803367e6 1.5075450312107392e7 0.0
1.5075450312107392e7 1.3226675006320084e7 0.0
0.0 0.0 0.0

-1.0653664340497445e7 -2.497450858360938e6 0.0
-2.497450858360938e6 1.9273832897877533e7 0.0
0.0 0.0 0.0

-2.083337837532048e7 -476999.27182549756 0.0
-476999.27182549756 9.24230393446504e6 0.0
0.0 0.0 0.0

2.9975617860212335e6 8.752362282174503e6 0.0
8.752362282174503e6 -2.267305473825068e7 0.0
0.0 0.0 0.0

-1.1773544545026906e7 1.8985471796225694e6 0.0
1.8985471796225694e6 1.7203921389871143e7 0.0
0.0 0.0 0.0

2.3997619442888554e6 9.806549708903855e6 0.0
9.806549708903855e6 -2.498979230833784e7 0.0
0.0 0.0 0.0

-9.698198538436454e6 1.453980355491049e7 0.0
1.453980355491049e7 2.411121174707709e7 0.0
0.0 0.0 0.0

4.7767975835060375e6 4.0572489922926147e6 0.0
4.0572489922926147e6 -1.9374302017255396e7 0.0
0.0 0.0 0.0

5.323072368636746e6 2.2106909703563947e7 0.0
2.2106909703563947e7 -5.044186607313832e6 0.0
0.0 0.0 0.0

-1.9989811036126746e6 1.2365435207421541e7 0.0
1.2365435207421541e7 -1.3322961224231222e6 0.0
0.0 0.0 0.0

1.2630081189723033e6 6.184465157375916e6 0.0
6.184465157375916e6 -4.497864935116017e6 0.0
0.0 0.0 0.0

2.1706110501970954e7 5.766001321155655e6 0.0
5.766001321155655e6 -3.008276129902064e6 0.0
0.0 0.0 0.0

-8.185808024828145e6 1.4962691472892407e7 0.0
1.4962691472892407e7 2.3624534962366905e7 0.0
0.0 0.0 0.0

-603868.4979843099 9.415868378626015e6 0.0
9.415868378626015e6 -5.707508729035068e6 0.0
0.0 0.0 0.0

-1.195015020450356e7 2.5544099711434026e6 0.0
2.5544099711434026e6 2.7378556491454933e7 0.0
0.0 0.0 0.0

2.1152378163820026e6 5.404151252041726e6 0.0
5.404151252041726e6 -8.674052630282145e6 0.0
0.0 0.0 0.0

-2.973474044873187e6 1.8103221349882122e7 0.0
1.8103221349882122e7 -4.273443835492331e6 0.0
0.0 0.0 0.0

-5.782256252466442e6 1.7346905655729577e7 0.0
1.7346905655729577e7 1.3543185218994318e7 0.0
0.0 0.0 0.0

-1.1519267467835391e7 5.393047661351799e6 0.0
5.393047661351799e6 1.78560696417461e7 0.0
0.0 0.0 0.0

3.348491665473031e6 7.673817368596292e6 0.0
7.673817368596292e6 -2.3276939257210363e7 0.0
0.0 0.0 0.0

-3.28033572960395e6 1.4153230470748652e7 0.0
1.4153230470748652e7 -2.7052843861569908e7 0.0
0.0 0.0 0.0

-4.515273845406552e6 6.002134711722824e6 0.0
6.002134711722824e6 2.814337433886486e6 0.0
0.0 0.0 0.0

4.2458569837279925e6 4.2455514824692765e6 0.0
4.2455514824692765e6 -1.7968790590791292e7 0.0
0.0 0.0 0.0

-389745.53932208195 1.5402130028839221e7 0.0
1.5402130028839221e7 -1.0802939996383028e7 0.0
0.0 0.0 0.0

1.1805711141726453e7 1.747791193375502e7 0.0
1.747791193375502e7 2.2183533365731994e6 0.0
0.0 0.0 0.0

4.311325427639419e6 5.707666031667813e6 0.0
5.707666031667813e6 -3.010977467332589e7 0.0
0.0 0.0 0.0

-1.0637548328273088e7 -1.2614115548405848e6 0.0
-1.2614115548405848e6 4.387929696700329e6 0.0
0.0 0.0 0.0

-8.325127793877124e6 1.5949242462684955e7 0.0
1.5949242462684955e7 1.7398197377989907e7 0.0
0.0 0.0 0.0

-1.2330284947481104e6 7.891387260278586e6 0.0
7.891387260278586e6 -394032.77219046 0.0
0.0 0.0 0.0

-1.1786724870366275e7 4.728484247936538e6 0.0
4.728484247936538e6 1.9415405231103864e7 0.0
0.0 0.0 0.0

3.956714731794905e6 6.007920155697845e6 0.0
6.007920155697845e6 -3.448654238501024e7 0.0
0.0 0.0 0.0

5.953235385833745e6 1.5641807934473863e7 0.0
1.5641807934473863e7 1.984411827228977e7 0.0
0.0 0.0 0.0

4.1209428802520875e6 1.934829213427036e7 0.0
1.934829213427036e7 9.721672012440355e6 0.0
0.0 0.0 0.0

-3.2103997050962755e6 1.4701993736460045e7 0.0
1.4701993736460045e7 -1.701711246270704e7 0.0
0.0 0.0 0.0

208221.02209963696 1.2000982538064789e7 0.0
1.2000982538064789e7 -1.0022107642451907e7 0.0
0.0 0.0 0.0

-5.155700990211232e6 1.7961683385704428e7 0.0
1.7961683385704428e7 1.2690803096175183e7 0.0
0.0 0.0 0.0

5.90742554674081e6 1.6946380334348604e7 0.0
1.6946380334348604e7 -1.3942115378132404e6 0.0
0.0 0.0 0.0

2.6006949175320826e6 9.761396969798137e6 0.0
9.761396969798137e6 -2.2015837897481754e7 0.0
0.0 0.0 0.0

-1.1646031202094844e6 2.410683108357539e7 0.0
2.410683108357539e7 -1.660472972687455e6 0.0
0.0 0.0 0.0

-657263.5845302662 1.4419607547265671e7 0.0
1.4419607547265671e7 2.9872131596377436e6 0.0
0.0 0.0 0.0

-5.491296297947986e7 3.6918489376234347e6 0.0
3.6918489376234347e6 6.759437420819942e6 0.0
0.0 0.0 0.0

3.9065471915929615e7 6.320490325262593e6 0.0
6.320490325262593e6 -2.2158270039277133e6 0.0
0.0 0.0 0.0

1.3565186514147033e6 1.7276161905880842e7 0.0
1.7276161905880842e7 6.79557036440236e6 0.0
0.0 0.0 0.0

-6.287042658227795e6 6.038540469319464e6 0.0
6.038540469319464e6 2.339228515107895e7 0.0
0.0 0.0 0.0

-620628.4441174595 1.680946416555986e7 0.0
1.680946416555986e7 1.1081977529564677e7 0.0
0.0 0.0 0.0

-461854.6290988114 2.0465667314729743e7 0.0
2.0465667314729743e7 -5.896037670133356e6 0.0
0.0 0.0 0.0

3.205659579988408e6 1.6862570916145794e7 0.0
1.6862570916145794e7 1.0685532741003064e7 0.0
0.0 0.0 0.0

-1.107741974491265e7 4.581932610887985e6 0.0
4.581932610887985e6 1.713308297154683e7 0.0
0.0 0.0 0.0

-4.62716888524057e6 1.7799312003090665e7 0.0
1.7799312003090665e7 8.362607696720838e6 0.0
0.0 0.0 0.0

-3.468922216760193e7 2.7976361765165433e7 0.0
2.7976361765165433e7 -2.120148073915541e6 0.0
0.0 0.0 0.0

4.246744804155371e6 4.627057573983945e6 0.0
4.627057573983945e6 -2.1821701007419e7 0.0
0.0 0.0 0.0

-1.6383920677174623e6 1.7353076000925787e7 0.0
1.7353076000925787e7 -2.6722408383223503e6 0.0
0.0 0.0 0.0

5.468794154418178e6 1.4897635067380855e7 0.0
1.4897635067380855e7 2.1187930098564588e7 0.0
0.0 0.0 0.0

-4.917386512516066e6 1.3791173008828368e7 0.0
1.3791173008828368e7 -1.639128854682386e7 0.0
0.0 0.0 0.0

3.446485594619355e6 1.4870121576340903e7 0.0
1.4870121576340903e7 1.1488285759882577e7 0.0
0.0 0.0 0.0

838660.6932052895 1.1985475841750814e7 0.0
1.1985475841750814e7 -2.796054930686115e7 0.0
0.0 0.0 0.0

-1.0205067432883382e7 -955717.5425668964 0.0
-955717.5425668964 2.1224428339253657e7 0.0
0.0 0.0 0.0

-1.4441801756371604e7 2.4778132064421102e7 0.0
2.4778132064421102e7 7.015143202730808e6 0.0
0.0 0.0 0.0

2.822814743419542e6 7.5839472007936025e6 0.0
7.5839472007936025e6 -1.4676731475606145e7 0.0
0.0 0.0 0.0

-8.20081082859608e6 1.5364537089907419e7 0.0
1.5364537089907419e7 2.2434329408036392e7 0.0
0.0 0.0 0.0

-1.125096270764061e7 2.4090340386191034e6 0.0
2.4090340386191034e6 1.4061835048959374e7 0.0
0.0 0.0 0.0

-4.456228861313852e6 2.4760164481562722e7 0.0
2.4760164481562722e7 4.850924444422101e6 0.0
0.0 0.0 0.0

-9.472637196577214e6 2.785710044418861e7 0.0
2.785710044418861e7 6.445435301528837e6 0.0
0.0 0.0 0.0

-8.737473959032755e6 -2.313977925681187e6 0.0
-2.313977925681187e6 6.189869851303456e6 0.0
0.0 0.0 0.0

-1.9190004570889263e6 1.387129885983829e7 0.0
1.387129885983829e7 -8.649465805611365e6 0.0
0.0 0.0 0.0

-467780.0325485624 2.002742764762316e7 0.0
2.002742764762316e7 -6.045713489546558e6 0.0
0.0 0.0 0.0

-5.404491178322494e6 3.3753022772861733e6 0.0
3.3753022772861733e6 4.907849509867141e6 0.0
0.0 0.0 0.0

3.6255967738939393e6 2.2521987200963676e7 0.0
2.2521987200963676e7 -4.844979641315404e6 0.0
0.0 0.0 0.0

-1.180379267657965e7 3.255307665631838e6 0.0
3.255307665631838e6 1.5250977143437289e7 0.0
0.0 0.0 0.0

4.191692597523814e6 4.872660769475876e6 0.0
4.872660769475876e6 -2.5193199677019056e7 0.0
0.0 0.0 0.0

4.0197522676408235e6 5.598531889089918e6 0.0
5.598531889089918e6 -2.2781708438092865e7 0.0
0.0 0.0 0.0

1.0830737180648567e6 1.1789569693169272e7 0.0
1.1789569693169272e7 -1.2816256865221592e7 0.0
0.0 0.0 0.0

-26012.649137577042 1.7999572508991648e7 0.0
1.7999572508991648e7 -9.06628202248191e6 0.0
0.0 0.0 0.0

4.02245728505758e6 5.458975344569284e6 0.0
5.458975344569284e6 -3.636564332044393e7 0.0
0.0 0.0 0.0

-4.509368886937818e6 1.9364486320870604e7 0.0
1.9364486320870604e7 -8.212207507774342e6 0.0
0.0 0.0 0.0

1.106677962896577e6 1.3257463661253413e7 0.0
1.3257463661253413e7 -1.753560866906515e7 0.0
0.0 0.0 0.0

-1.1083202107274098e7 1.5017929582585767e7 0.0
1.5017929582585767e7 1.9374360191336982e7 0.0
0.0 0.0 0.0

-3.277871989138364e6 1.9043053754428815e7 0.0
1.9043053754428815e7 -7.188093096647973e6 0.0
0.0 0.0 0.0

3.2488342114690524e6 9.436863610446863e6 0.0
9.436863610446863e6 -2.1507859211575337e7 0.0
0.0 0.0 0.0

-2.5360031815667726e7 1.8456425162265964e7 0.0
1.8456425162265964e7 8.477226263961231e6 0.0
0.0 0.0 0.0

4.31575388963463e6 4.249367136097604e6 0.0
4.249367136097604e6 -2.6206762858084034e7 0.0
0.0 0.0 0.0

4.516400287233968e6 5.646705389493354e6 0.0
5.646705389493354e6 -2.2610932875662062e7 0.0
0.0 0.0 0.0

142214.55131294578 1.6619919747743612e7 0.0
1.6619919747743612e7 -1.1191893284528304e7 0.0
0.0 0.0 0.0

-1.6036472230736915e7 -1.841461246885126e6 0.0
-1.841461246885126e6 8.19924805804695e6 0.0
0.0 0.0 0.0

1.7691661050625439e6 9.462658688044425e6 0.0
9.462658688044425e6 -9.30788323666517e6 0.0
0.0 0.0 0.0

-3.75386678533592e6 1.542106821630628e7 0.0
1.542106821630628e7 1.778587164090799e7 0.0
0.0 0.0 0.0

-3.7983271737039043e6 2.3783443918713197e7 0.0
2.3783443918713197e7 4.567426508052202e6 0.0
0.0 0.0 0.0

-5.151877663126209e6 2.518610247624813e7 0.0
2.518610247624813e7 5.1868490578540955e6 0.0
0.0 0.0 0.0

-1.2175918334416496e7 5.457323718525988e6 0.0
5.457323718525988e6 1.5583335443547623e7 0.0
0.0 0.0 0.0

-6.434673618572371e6 1.1570151523262696e7 0.0
1.1570151523262696e7 4.555970860986916e7 0.0
0.0 0.0 0.0

-3.1202909368046774e6 2.4015512929546487e7 0.0
2.4015512929546487e7 3.2732083953952137e6 0.0
0.0 0.0 0.0

-2.475228277123358e6 1.755251795893283e7 0.0
1.755251795893283e7 -1.1829803666521164e6 0.0
0.0 0.0 0.0

178072.42722377367 1.5790099046512295e7 0.0
1.5790099046512295e7 -4.674986289036118e6 0.0
0.0 0.0 0.0

2.2216953585168216e7 1.847761209942595e7 0.0
1.847761209942595e7 8.369024657701258e6 0.0
0.0 0.0 0.0

-1.1290253421697415e7 6.621607490887512e6 0.0
6.621607490887512e6 1.728103705281549e7 0.0
0.0 0.0 0.0

4.807780628716227e6 4.41079501611387e6 0.0
4.41079501611387e6 -2.4509710920433838e7 0.0
0.0 0.0 0.0

57349.89525952609 1.5900346382486844e7 0.0
1.5900346382486844e7 -1.001346809844919e7 0.0
0.0 0.0 0.0

-3.069600344214687e6 1.332757051498469e7 0.0
1.332757051498469e7 1.1592886108022337e6 0.0
0.0 0.0 0.0

-1.1740626699781328e7 1.553563212514064e7 0.0
1.553563212514064e7 6.755831095098169e6 0.0
0.0 0.0 0.0

-1.0423586388673862e7 -833063.8952115345 0.0
-833063.8952115345 2.6435287886764433e7 0.0
0.0 0.0 0.0

-5.622813677806699e7 3.558881738328171e7 0.0
3.558881738328171e7 -7.578995935191335e6 0.0
0.0 0.0 0.0

-7.038928022545535e6 1.4681055798420485e7 0.0
1.4681055798420485e7 -2.3463094039204434e7 0.0
0.0 0.0 0.0

5.195024617159784e6 1.5412843684248703e7 0.0
1.5412843684248703e7 1.731674933896882e7 0.0
0.0 0.0 0.0

1.4489367636258285e6 1.2451481769426765e7 0.0
1.2451481769426765e7 -1.964719418344821e7 0.0
0.0 0.0 0.0

-9.790041973424444e6 2.090096908737796e7 0.0
2.090096908737796e7 446881.298820694 0.0
0.0 0.0 0.0

3.2113548318656944e6 8.145671846690594e6 0.0
8.145671846690594e6 -1.3757453918331124e7 0.0
0.0 0.0 0.0

3.6411229855184453e6 8.376540630818535e6 0.0
8.376540630818535e6 -2.2084824900649e7 0.0
0.0 0.0 0.0

-6.537156918119204e6 1.679229265209805e7 0.0
1.679229265209805e7 1.488502431668256e7 0.0
0.0 0.0 0.0

2.4229012358411336e6 1.0262486958352245e7 0.0
1.0262486958352245e7 -2.099386912824215e7 0.0
0.0 0.0 0.0

-4.017953207768947e6 2.4279370241561547e7 0.0
2.4279370241561547e7 4.701699749494696e6 0.0
0.0 0.0 0.0

-1.2492471139656037e7 4.21017006241242e6 0.0
4.21017006241242e6 2.400333612310014e7 0.0
0.0 0.0 0.0

-9.080521846359627e6 -2.870831210783599e6 0.0
-2.870831210783599e6 1.9362556722497914e7 0.0
0.0 0.0 0.0

3.5379739968523122e6 7.1449736334999055e6 0.0
7.1449736334999055e6 -2.2798620152781162e7 0.0
0.0 0.0 0.0

-7.164740727903927e6 1.9495546167981282e7 0.0
1.9495546167981282e7 -6.043194246057311e6 0.0
0.0 0.0 0.0

952674.4121233504 2.5760524838377755e7 0.0
2.5760524838377755e7 -2.858906784034414e6 0.0
0.0 0.0 0.0

-9.595620665318727e6 1.5174217872379335e7 0.0
1.5174217872379335e7 1.8318822010294646e7 0.0
0.0 0.0 0.0

3.8900971808407214e6 5.975746779809409e6 0.0
5.975746779809409e6 -2.473717709547657e7 0.0
0.0 0.0 0.0

3.998653414667899e6 5.964594686954291e6 0.0
5.964594686954291e6 -3.213536609037321e7 0.0
0.0 0.0 0.0

-9.14979207944029e6 1.039544350474533e7 0.0
1.039544350474533e7 3.627190672216438e7 0.0
0.0 0.0 0.0

-1.1821096934370149e7 4.425999036146219e6 0.0
4.425999036146219e6 2.5033396835127324e7 0.0
0.0 0.0 0.0

2.4012826433878327e6 2.2616741589312937e7 0.0
2.2616741589312937e7 -4.622722310383783e6 0.0
0.0 0.0 0.0

-2.40839997779282e6 1.8886955877297997e7 0.0
1.8886955877297997e7 -1.8291351708057334e6 0.0
0.0 0.0 0.0

-1.1202177726367274e7 2.68486459631374e6 0.0
2.68486459631374e6 2.8633795951624572e7 0.0
0.0 0.0 0.0

3.577502093893812e6 5.080179653090069e6 0.0
5.080179653090069e6 -1.4597242377417784e7 0.0
0.0 0.0 0.0

-3.77552436008874e6 1.8995747966498848e7 0.0
1.8995747966498848e7 680063.4275479796 0.0
0.0 0.0 0.0

-1.1528020234489556e7 1.9957936052321088e7 0.0
1.9957936052321088e7 -4.928687575502074e6 0.0
0.0 0.0 0.0

-8.983277456874091e6 8.280138770610553e6 0.0
8.280138770610553e6 1.04600883804675e7 0.0
0.0 0.0 0.0

4.497596710451325e6 5.531132533822584e6 0.0
5.531132533822584e6 -2.4069065278116807e7 0.0
0.0 0.0 0.0

2.352252840317568e6 1.028848199795179e7 0.0
1.028848199795179e7 -1.9664000349373974e7 0.0
0.0 0.0 0.0

-9.425083964062415e6 -469085.62757774827 0.0
-469085.62757774827 1.225608229853385e7 0.0
0.0 0.0 0.0

-1.2159699756751187e7 6.647381026074323e6 0.0
6.647381026074323e6 2.0870073969472453e7 0.0
0.0 0.0 0.0

865360.9645996466 1.2147609226988047e7 0.0
1.2147609226988047e7 -2.6214969197664194e7 0.0
0.0 0.0 0.0

4.630172590495345e6 5.168091910151337e6 0.0
5.168091910151337e6 -2.2142483345392887e7 0.0
0.0 0.0 0.0

-2.817572331451368e6 1.8675092236912865e7 0.0
1.8675092236912865e7 -3.1347291340788533e6 0.0
0.0 0.0 0.0

4.0372209226288674e6 7.260220639243439e6 0.0
7.260220639243439e6 -2.2626755806018837e7 0.0
0.0 0.0 0.0

-9.064922555247769e6 996759.9782188807 0.0
996759.9782188807 1.4248686275900956e7 0.0
0.0 0.0 0.0

-9.971996926456394e6 1.6439312350761838e7 0.0
1.6439312350761838e7 -3.3239992311005086e7 0.0
0.0 0.0 0.0

8.255027276786893e6 1.6578416621761393e7 0.0
1.6578416621761393e7 2.7516759841754064e7 0.0
0.0 0.0 0.0

333262.3249317636 1.6036449786373932e7 0.0
1.6036449786373932e7 303717.65564542776 0.0
0.0 0.0 0.0

-2.24015072513879e7 -98813.16631652566 0.0
-98813.16631652566 8.70668257738524e6 0.0
0.0 0.0 0.0

-8.130180341431182e6 -1.119254635677674e6 0.0
-1.119254635677674e6 1.3327533651968444e7 0.0
0.0 0.0 0.0

3.929976520867725e6 1.6958307796790417e7 0.0
1.6958307796790417e7 1.3099919206320316e7 0.0
0.0 0.0 0.0

-3.380792328414462e6 1.542412837886042e7 0.0
1.542412837886042e7 -1.126930632400846e7 0.0
0.0 0.0 0.0

-5.650496739283141e6 1.1867075388408197e7 0.0
1.1867075388408197e7 5.0255891046534225e7 0.0
0.0 0.0 0.0

3.721698006121518e6 6.5804164944576e6 0.0
6.5804164944576e6 -2.3777350468133617e7 0.0
0.0 0.0 0.0

-705817.7700627709 1.9511796715776652e7 0.0
1.9511796715776652e7 -7.025634004610644e6 0.0
0.0 0.0 0.0

-4.44912076206151e6 1.4492278555168299e7 0.0
1.4492278555168299e7 -2.5863893323954187e7 0.0
0.0 0.0 0.0

-4.081494549329727e6 2.300046281317125e7 0.0
2.300046281317125e7 4.020638207774877e6 0.0
0.0 0.0 0.0

-4.42262735964716e6 1.876746043103564e7 0.0
1.876746043103564e7 6.696647169501308e6 0.0
0.0 0.0 0.0

-1.521830536932692e6 2.2690613888527706e7 0.0
2.2690613888527706e7 -2.5491962971366164e6 0.0
0.0 0.0 0.0

-8.245772048868101e6 1.5498652472668778e7 0.0
1.5498652472668778e7 -3.472703830310762e7 0.0
0.0 0.0 0.0

1.4215678059703833e6 2.2570973344192207e7 0.0
2.2570973344192207e7 -4.439265478087526e6 0.0
0.0 0.0 0.0

-1.0228680969217889e7 1.4548397367256932e7 0.0
1.4548397367256932e7 2.2332106767304078e7 0.0
0.0 0.0 0.0

2.473860051469044e6 8.553439857562184e6 0.0
8.553439857562184e6 -1.4407210822668018e7 0.0
0.0 0.0 0.0

3.870403457702741e6 6.07669388714615e6 0.0
6.07669388714615e6 -2.3278066654115524e7 0.0
0.0 0.0 0.0

-351317.72164172586 1.870386928448693e7 0.0
1.870386928448693e7 -8.172864853970505e6 0.0
0.0 0.0 0.0

-1.8301511316176828e6 1.3536055780101448e7 0.0
1.3536055780101448e7 -5.38222709322723e6 0.0
0.0 0.0 0.0

2.898563679461291e6 8.617995153990889e6 0.0
8.617995153990889e6 -2.5936716669582695e7 0.0
0.0 0.0 0.0

-3.8699093902464043e6 2.2065999002407573e7 0.0
2.2065999002407573e7 4.60277763723914e6 0.0
0.0 0.0 0.0

-2.725535032723748e6 1.508309479192578e7 0.0
1.508309479192578e7 -520660.2201334252 0.0
0.0 0.0 0.0

858719.2111457018 1.3456521000236774e7 0.0
1.3456521000236774e7 -1.0919435588591946e7 0.0
0.0 0.0 0.0

2.2300294462637994e6 1.0827645909304552e7 0.0
1.0827645909304552e7 -2.4917250103131853e7 0.0
0.0 0.0 0.0

71800.42990255589 2.2143817675567288e7 0.0
2.2143817675567288e7 -4.327145236722471e6 0.0
0.0 0.0 0.0

286202.93751504924 1.495524190003725e7 0.0
1.495524190003725e7 -1.0095150897367306e7 0.0
0.0 0.0 0.0

-982611.02929524 1.3001678562594637e7 0.0
1.3001678562594637e7 -4.535692064283189e6 0.0
0.0 0.0 0.0

1.880237698030257e7 5.592505721093051e6 0.0
5.592505721093051e6 -3.0060685998750916e6 0.0
0.0 0.0 0.0

-4.440396309346089e6 1.6166707144673897e7 0.0
1.6166707144673897e7 5.784675249656582e6 0.0
0.0 0.0 0.0

-7.631189186560237e6 7.593520193771254e6 0.0
7.593520193771254e6 1.1628598341294762e7 0.0
0.0 0.0 0.0

-1.0244309159088716e7 -1.3150058665408236e6 0.0
-1.3150058665408236e6 2.3126110330474943e7 0.0
0.0 0.0 0.0

4.864281220277528e6 4.216412419661185e6 0.0
4.216412419661185e6 -2.1156976066924237e7 0.0
0.0 0.0 0.0

3.8703491752406023e6 6.226276943289015e6 0.0
6.226276943289015e6 -1.6187695777980449e7 0.0
0.0 0.0 0.0

4.587467027796319e6 5.288352408096489e6 0.0
5.288352408096489e6 -2.068155659511464e7 0.0
0.0 0.0 0.0

-2.5638175436875047e6 1.4924248037494449e7 0.0
1.4924248037494449e7 -1.6299242869973494e7 0.0
0.0 0.0 0.0

672004.7478083088 2.2391741145498917e7 0.0
2.2391741145498917e7 -4.343541889532202e6 0.0
0.0 0.0 0.0

-1.0264904106744282e7 1.4831824175978938e7 0.0
1.4831824175978938e7 2.1109452994344592e7 0.0
0.0 0.0 0.0

-5.089080576947947e6 1.6583265645068077e7 0.0
1.6583265645068077e7 5.074622644270489e6 0.0
0.0 0.0 0.0

3.9891734013299355e6 5.742306207865774e6 0.0
5.742306207865774e6 -2.1425885670064393e7 0.0
0.0 0.0 0.0

-1.0568451191736145e7 1.6511703895088085e6 0.0
1.6511703895088085e6 1.3193994741726778e7 0.0
0.0 0.0 0.0

-1.0383468346723089e7 1.5630953803752242e7 0.0
1.5630953803752242e7 1.921423730294793e7 0.0
0.0 0.0 0.0

256794.33018702362 1.6365946206160905e7 0.0
1.6365946206160905e7 -1.2055524708416205e7 0.0
0.0 0.0 0.0

797012.9771781317 1.6453105627585277e7 0.0
1.6453105627585277e7 -5.58876451450619e6 0.0
0.0 0.0 0.0

-3.8162821973349703e6 2.2848234591112554e7 0.0
2.2848234591112554e7 5.051998875140837e6 0.0
0.0 0.0 0.0

1.66875881075064e6 1.3126380436967308e7 0.0
1.3126380436967308e7 -1.735631920192548e7 0.0
0.0 0.0 0.0

4.3314477230299525e6 6.2498920005802745e6 0.0
6.2498920005802745e6 -2.171406147448431e7 0.0
0.0 0.0 0.0

3.8688504004206713e6 6.195639783901577e6 0.0
6.195639783901577e6 -2.18845596523873e7 0.0
0.0 0.0 0.0

2.1610903065089416e6 7.769738359284322e6 0.0
7.769738359284322e6 -1.1900688305470478e7 0.0
0.0 0.0 0.0

3.70483664752582e6 6.653141065952316e6 0.0
6.653141065952316e6 -2.2362434168253582e7 0.0
0.0 0.0 0.0

4.452173634115461e6 5.681199924379437e6 0.0
5.681199924379437e6 -1.838961077006438e7 0.0
0.0 0.0 0.0

-6.506853429984469e6 2.686603248468547e7 0.0
2.686603248468547e7 5.599180182603686e6 0.0
0.0 0.0 0.0

2.385484669837569e6 2.3652733806535974e7 0.0
2.3652733806535974e7 -4.362618964080748e6 0.0
0.0 0.0 0.0

-4.937919818620556e6 1.9580672866535403e7 0.0
1.9580672866535403e7 7.047857149655316e6 0.0
0.0 0.0 0.0

3.7281801884107944e6 6.143268053957957e6 0.0
6.143268053957957e6 -1.9130940317785714e7 0.0
0.0 0.0 0.0

-2.0629025996643524e6 1.6387820842631364e7 0.0
1.6387820842631364e7 -5.754635662865116e6 0.0
0.0 0.0 0.0

-920049.0193705055 1.3421249227870274e7 0.0
1.3421249227870274e7 -356568.98636354564 0.0
0.0 0.0 0.0

-1.3236548919803053e7 1.8536967334222764e7 0.0
1.8536967334222764e7 -4.4121841563902944e7 0.0
0.0 0.0 0.0

1.2985414395669438e7 1.965179779983081e7 0.0
1.965179779983081e7 4.328473197812219e7 0.0
0.0 0.0 0.0

7.100767220510701e6 1.7265136380862214e7 0.0
1.7265136380862214e7 -1.5798460470222589e6 0.0
0.0 0.0 0.0

1.110093084142798e7 1.808673201019053e7 0.0
1.808673201019053e7 -3.0723285548344734e6 0.0
0.0 0.0 0.0

2.7529903937151264e6 6.523416923278018e6 0.0
6.523416923278018e6 -4.02251812068267e7 0.0
0.0 0.0 0.0

780775.4961246485 1.5158428342623482e7 0.0
1.5158428342623482e7 -1.3587135131434528e7 0.0
0.0 0.0 0.0

-1.434668979195577e6 1.698834734487972e7 0.0
1.698834734487972e7 9.82989498676542e6 0.0
0.0 0.0 0.0

-1.2252808220363483e7 3.9315549101320202e6 0.0
3.9315549101320202e6 2.591720018457579e7 0.0
0.0 0.0 0.0

-9.533159441060454e6 1.4044438078869836e7 0.0
1.4044438078869836e7 2.5621585222872492e7 0.0
0.0 0.0 0.0

-2.755416145588248e6 1.795340842179315e7 0.0
1.795340842179315e7 6.027228349976539e6 0.0
0.0 0.0 0.0

-889892.6498043863 1.3212440173500372e7 0.0
1.3212440173500372e7 -4.8806061053470755e6 0.0
0.0 0.0 0.0

-8.470165657148222e6 2.206044408512307e7 0.0
2.206044408512307e7 -6.798565808899636e6 0.0
0.0 0.0 0.0

-4.858316419969308e6 1.8530334932423852e7 0.0
1.8530334932423852e7 1.1511283100831004e7 0.0
0.0 0.0 0.0

-7.556260939153593e6 1.1500420429028422e7 0.0
1.1500420429028422e7 9.17666547918851e6 0.0
0.0 0.0 0.0

-4.118342837846803e6 1.8921630945639618e7 0.0
1.8921630945639618e7 4.241364588867028e6 0.0
0.0 0.0 0.0

4.0961912328756396e6 6.418116590810278e6 0.0
6.418116590810278e6 -2.8920812806827165e7 0.0
0.0 0.0 0.0

3.817073839801086e6 7.022389744654109e6 0.0
7.022389744654109e6 -1.5383818986218428e7 0.0
0.0 0.0 0.0

-423455.3328431365 1.6726085193217224e7 0.0
1.6726085193217224e7 -1.0636335906944549e7 0.0
0.0 0.0 0.0

2.1405822742951596e6 1.0831289799984766e7 0.0
1.0831289799984766e7 -1.8768327122489654e7 0.0
0.0 0.0 0.0

-1.0901679054334886e7 6.446582910890725e6 0.0
6.446582910890725e6 3.202566851051371e7 0.0
0.0 0.0 0.0

-4.029239886458037e6 3.3547543971417947e6 0.0
3.3547543971417947e6 3.324263123206474e6 0.0
0.0 0.0 0.0

-9.254675113541948e6 5.866443797692176e6 0.0
5.866443797692176e6 4.147971445251785e7 0.0
0.0 0.0 0.0

-608808.6056609983 1.6070914846267857e7 0.0
1.6070914846267857e7 -1.0268633466109844e7 0.0
0.0 0.0 0.0

-4.7458495125620365e6 1.997457858103704e7 0.0
1.997457858103704e7 8.169530703253062e6 0.0
0.0 0.0 0.0

-7.928448713259385e6 9.851595378908124e6 0.0
9.851595378908124e6 1.2822857438020099e7 0.0
0.0 0.0 0.0

-17908.774844937027 2.0730518174205318e7 0.0
2.0730518174205318e7 -5.637779240805711e6 0.0
0.0 0.0 0.0

-8.486259438344996e6 6.353509435144651e6 0.0
6.353509435144651e6 9.913205740087375e6 0.0
0.0 0.0 0.0

-6.104244022956793e6 1.7890858916689813e7 0.0
1.7890858916689813e7 1.2585112787070632e7 0.0
0.0 0.0 0.0

1.492339700950455e7 2.1286746155812517e7 0.0
2.1286746155812517e7 -8.516887780047167e6 0.0
0.0 0.0 0.0

-9.775769005615436e6 1.5808253665525185e7 0.0
1.5808253665525185e7 1.7118369714412063e7 0.0
0.0 0.0 0.0

-2.0712237906309536e6 4.14328510049902e6 0.0
4.14328510049902e6 2.563048382747054e6 0.0
0.0 0.0 0.0

-2.551028532747026e7 132964.6443029148 0.0
132964.6443029148 9.218924610566463e6 0.0
0.0 0.0 0.0

4.373791547914988e6 4.665557498453503e6 0.0
4.665557498453503e6 -2.3009929842583314e7 0.0
0.0 0.0 0.0

-6.841887718953471e6 2.4313862272448987e7 0.0
2.4313862272448987e7 6.27448765589729e6 0.0
0.0 0.0 0.0

-9.215323278128583e6 472888.82525847835 0.0
472888.82525847835 1.0791159252176693e7 0.0
0.0 0.0 0.0

-3.102035221508374e6 1.1216919758894037e7 0.0
1.1216919758894037e7 -1.3037721368152834e6 0.0
0.0 0.0 0.0

-1.1406893618206635e7 -181919.72775243036 0.0
-181919.72775243036 2.095036920420232e7 0.0
0.0 0.0 0.0

-13939.282304047607 1.6344543152013116e7 0.0
1.6344543152013116e7 -1.220699953590361e7 0.0
0.0 0.0 0.0

-1.1138949845098918e7 -1.5409309522042093e6 0.0
-1.5409309522042093e6 2.214391788485241e7 0.0
0.0 0.0 0.0

567536.6293346575 1.3718172141342916e7 0.0
1.3718172141342916e7 -1.3228296255039534e7 0.0
0.0 0.0 0.0

-9.942696428734532e6 1.5486304054547884e7 0.0
1.5486304054547884e7 2.033951806352571e7 0.0
0.0 0.0 0.0

-9.548593352466073e6 8.908720712007347e6 0.0
8.908720712007347e6 1.1398522208656024e7 0.0
0.0 0.0 0.0

-8.127175209655087e6 1.4538457640507592e7 0.0
1.4538457640507592e7 2.5085779527652394e7 0.0
0.0 0.0 0.0

-1.082958591785964e7 1.2534368803459803e7 0.0
1.2534368803459803e7 1.5405746285795894e7 0.0
0.0 0.0 0.0

-3.7014097116332e6 1.9614361236028332e7 0.0
1.9614361236028332e7 781056.2193746325 0.0
0.0 0.0 0.0

3.899408619702285e6 7.037183055986303e6 0.0
7.037183055986303e6 -2.7732551256691076e7 0.0
0.0 0.0 0.0

-8.217431798965886e6 1.5710950002535949e7 0.0
1.5710950002535949e7 2.1501005474753052e7 0.0
0.0 0.0 0.0

7.393400737256771e6 1.732319366546722e7 0.0
1.732319366546722e7 3.9893894699974395e6 0.0
0.0 0.0 0.0

-1.809278932474675e7 8.0573822752470635e6 0.0
8.0573822752470635e6 1.0471519691716565e7 0.0
0.0 0.0 0.0

2.661928548336871e6 1.0149961832384e7 0.0
1.0149961832384e7 -2.4724566790584173e7 0.0
0.0 0.0 0.0

-6.897098360805836e6 1.0967822931699362e7 0.0
1.0967822931699362e7 1.1391529741342634e7 0.0
0.0 0.0 0.0

2.912919299195447e6 8.68702723233739e6 0.0
8.68702723233739e6 -1.2958839368751029e7 0.0
0.0 0.0 0.0

-7.555805049771807e6 127770.54912864993 0.0
127770.54912864993 1.119730990412845e7 0.0
0.0 0.0 0.0

-9.918604442811076e6 -2.8983757109564464e6 0.0
-2.8983757109564464e6 1.6567223352536723e7 0.0
0.0 0.0 0.0

1.409618805736998e6 1.227273020696214e7 0.0
1.227273020696214e7 -1.5910169488384305e7 0.0
0.0 0.0 0.0

-1.0427037845386682e7 3.8415591733758925e6 0.0
3.8415591733758925e6 1.610032877668985e7 0.0
0.0 0.0 0.0

-5.202505658570072e6 2.0411266557319846e7 0.0
2.0411266557319846e7 7.339579555119934e6 0.0
0.0 0.0 0.0

1.2213748513881145e6 1.4788505615796696e7 0.0
1.4788505615796696e7 6.941385447785196e6 0.0
0.0 0.0 0.0

124852.79339044681 7.048030097861586e6 0.0
7.048030097861586e6 -2.593760089430304e6 0.0
0.0 0.0 0.0

-178106.44262866396 1.6545101731817035e7 0.0
1.6545101731817035e7 -9.519088072755259e6 0.0
0.0 0.0 0.0

3.2917226024215603e6 7.236029903139801e6 0.0
7.236029903139801e6 -1.7470925586485595e7 0.0
0.0 0.0 0.0

-1.3600491500917405e6 2.2140337627542395e7 0.0
2.2140337627542395e7 -3.282426573646578e6 0.0
0.0 0.0 0.0

-2.6109724191681147e6 1.3651311211440714e7 0.0
1.3651311211440714e7 -4.533303301888313e7 0.0
0.0 0.0 0.0

3.226608184328528e6 5.556132143221489e6 0.0
5.556132143221489e6 -1.3665383287991095e7 0.0
0.0 0.0 0.0

3.8924543413857305e6 5.621690846822248e6 0.0
5.621690846822248e6 -1.8712286387295574e7 0.0
0.0 0.0 0.0

-2.0350300687184287e6 1.4998355855633512e7 0.0
1.4998355855633512e7 -1.5090552276721403e7 0.0
0.0 0.0 0.0

-510266.7971969936 7.495485289953913e6 0.0
7.495485289953913e6 -1.531234886607126e6 0.0
0.0 0.0 0.0

-9.682154434625907e6 1.6199734710690545e7 0.0
1.6199734710690545e7 -4.018670861287223e7 0.0
0.0 0.0 0.0

2.1017056173901465e6 7.447907766833826e6 0.0
7.447907766833826e6 -8.428725981081208e6 0.0
0.0 0.0 0.0

3.27775801474478e6 7.707254148857567e6 0.0
7.707254148857567e6 -1.317496791059229e7 0.0
0.0 0.0 0.0

-405426.53226151294 1.624732440048112e7 0.0
1.624732440048112e7 -2.1841974550802773e6 0.0
0.0 0.0 0.0

-1.1192666887762437e7 1.0856394608106934e7 0.0
1.0856394608106934e7 2.692515206800819e7 0.0
0.0 0.0 0.0

-3.350354068360923e6 2.351097449500855e7 0.0
2.351097449500855e7 2.0951139460457428e6 0.0
0.0 0.0 0.0

-1.1664356583750676e7 5.622632441437293e6 0.0
5.622632441437293e6 8.814701676971633e6 0.0
0.0 0.0 0.0

1.9408076560110543e6 1.1270043609542515e7 0.0
1.1270043609542515e7 -1.777941670182035e7 0.0
0.0 0.0 0.0

-457606.2531037936 1.7018208109577835e7 0.0
1.7018208109577835e7 1.254306398479596e7 0.0
0.0 0.0 0.0

-1.293870519791004e6 2.1597328298344906e7 0.0
2.1597328298344906e7 -4.0643278649088903e6 0.0
0.0 0.0 0.0

-334370.3387785163 1.2135976855344402e7 0.0
1.2135976855344402e7 -8.413544005965296e6 0.0
0.0 0.0 0.0

-472257.2186625777 2.1127130510793e7 0.0
2.1127130510793e7 -5.163369051158726e6 0.0
0.0 0.0 0.0

729772.7331379452 1.2508328701662192e7 0.0
1.2508328701662192e7 -9.233865268251274e6 0.0
0.0 0.0 0.0

-8.017861580335853e6 -2.3794060117528667e6 0.0
-2.3794060117528667e6 1.1592112033054672e7 0.0
0.0 0.0 0.0

-538445.9600712787 1.62436747557192e7 0.0
1.62436747557192e7 -1.0647231254740842e7 0.0
0.0 0.0 0.0

6.078945113713992e6 3.2469659989713635e7 0.0
3.2469659989713635e7 -7.466160316628054e6 0.0
0.0 0.0 0.0

2.715236072828579e6 1.8657926233244263e7 0.0
1.8657926233244263e7 -4.865887503874777e6 0.0
0.0 0.0 0.0

493161.19183434173 1.5792878247781973e7 0.0
1.5792878247781973e7 -1.2846899516973397e7 0.0
0.0 0.0 0.0

-4.285255404239387e6 1.2747346248129979e7 0.0
1.2747346248129979e7 4.710998762427591e6 0.0
0.0 0.0 0.0

-3.6115071096209693e6 1.5422111976739723e7 0.0
1.5422111976739723e7 -1.0539956526784464e6 0.0
0.0 0.0 0.0

4.8508904795460515e6 3.8699653409901983e6 0.0
3.8699653409901983e6 -2.2188547210113227e7 0.0
0.0 0.0 0.0

3.229636811077607e6 4.419789323180165e6 0.0
4.419789323180165e6 -1.0297732822869333e7 0.0
0.0 0.0 0.0

-2.5807353489489574e6 8.346956064144006e6 0.0
8.346956064144006e6 -1.098434735942882e6 0.0
0.0 0.0 0.0

-6.1202974381746035e6 1.855370287960636e7 0.0
1.855370287960636e7 -1.3336126255712686e6 0.0
0.0 0.0 0.0

3.479005683714049e6 5.976908464555804e6 0.0
5.976908464555804e6 -1.58634911762938e7 0.0
0.0 0.0 0.0

167826.32354182657 1.3964540672600698e7 0.0
1.3964540672600698e7 -1.1774528548116203e7 0.0
0.0 0.0 0.0

-1.2558944005323984e6 1.6954565028945755e7 0.0
1.6954565028945755e7 7.963921776299898e6 0.0
0.0 0.0 0.0

2.779529696657636e6 1.0502848224225475e7 0.0
1.0502848224225475e7 -1.8244091089197733e7 0.0
0.0 0.0 0.0

-9.857007365311105e6 2.968894482070238e6 0.0
2.968894482070238e6 1.5090725374415487e7 0.0
0.0 0.0 0.0

-2.1829651047415223e7 2.441930609836929e7 0.0
2.441930609836929e7 6.315890209178178e6 0.0
0.0 0.0 0.0

3.0413222377265785e6 9.960220407154096e6 0.0
9.960220407154096e6 -2.0510952962113537e7 0.0
0.0 0.0 0.0

-4.40623693461753e7 2.503586484513852e6 0.0
2.503586484513852e6 7.468372302765254e6 0.0
0.0 0.0 0.0

3.11364788161717e6 7.020116772022749e6 0.0
7.020116772022749e6 -1.5511768772599313e7 0.0
0.0 0.0 0.0

-5.853959992476609e6 1.7063634828051757e7 0.0
1.7063634828051757e7 1.6295622414401881e7 0.0
0.0 0.0 0.0

915668.7459022207 1.2315949513437416e7 0.0
1.2315949513437416e7 -2.4918407846358027e7 0.0
0.0 0.0 0.0

1.389244532659186e6 1.3160950778480627e7 0.0
1.3160950778480627e7 -1.95935789257495e7 0.0
0.0 0.0 0.0

-4.744772463579068e6 2.9053970915387655e6 0.0
2.9053970915387655e6 7.595157789908988e6 0.0
0.0 0.0 0.0

-1.2921636948460951e7 6.319638046511081e6 0.0
6.319638046511081e6 1.9713700121752646e7 0.0
0.0 0.0 0.0

-2.822917676574749e6 1.3196576796050865e7 0.0
1.3196576796050865e7 -2.753004702955124e6 0.0
0.0 0.0 0.0

-4.69434665829476e6 1.2084981588015944e7 0.0
1.2084981588015944e7 5.840672809523041e6 0.0
0.0 0.0 0.0

-1.275425031735241e7 5.590277898791947e6 0.0
5.590277898791947e6 2.2591921694572862e7 0.0
0.0 0.0 0.0

-1.796412209780936e6 1.2853079080009803e7 0.0
1.2853079080009803e7 -2.227391093707225e6 0.0
0.0 0.0 0.0

-313561.1467235163 1.5597015380188314e7 0.0
1.5597015380188314e7 -1.1193741382653167e7 0.0
0.0 0.0 0.0

-233191.75338706188 1.6373935605802583e7 0.0
1.6373935605802583e7 -9.098556238394044e6 0.0
0.0 0.0 0.0

-661805.8728004135 1.681799549154378e7 0.0
1.681799549154378e7 -1.0114925003737396e7 0.0
0.0 0.0 0.0

889467.2169103706 1.3220547263675734e7 0.0
1.3220547263675734e7 -1.4085754871371428e7 0.0
0.0 0.0 0.0

2.1389873622804116e6 8.246404371726155e6 0.0
8.246404371726155e6 -1.2478529196919406e7 0.0
0.0 0.0 0.0

-253446.99776926055 1.545059598981848e7 0.0
1.545059598981848e7 -5.352647400355534e6 0.0
0.0 0.0 0.0

-706040.9741113521 1.5887784623111926e7 0.0
1.5887784623111926e7 -9.88761971174192e6 0.0
0.0 0.0 0.0

224588.15557924937 1.2648445972301008e7 0.0
1.2648445972301008e7 -7.633380435843891e6 0.0
0.0 0.0 0.0

-8.93049645757353e6 2.49552616233892e6 0.0
2.49552616233892e6 1.3832947703104757e7 0.0
0.0 0.0 0.0

1.1457278669491634e6 1.2767160921789482e7 0.0
1.2767160921789482e7 -1.5012121981045583e7 0.0
0.0 0.0 0.0

-1.1365970512690404e7 1.7409433820979096e7 0.0
1.7409433820979096e7 -3.788656891488989e7 0.0
0.0 0.0 0.0

-4.1819259694163976e6 4.446988758520402e6 0.0
4.446988758520402e6 6.448984032497024e6 0.0
0.0 0.0 0.0

2.7703686001855163e6 8.008945475409355e6 0.0
8.008945475409355e6 -1.521902927776386e7 0.0
0.0 0.0 0.0

251820.73571413825 6.690039329370123e6 0.0
6.690039329370123e6 -5.3120237689630175e6 0.0
0.0 0.0 0.0

-1.566190632175319e6 1.2888566206783794e7 0.0
1.2888566206783794e7 -4.101754267082015e7 0.0
0.0 0.0 0.0

-5.634399431709789e6 1.2834208304970924e7 0.0
1.2834208304970924e7 8.572505614805287e6 0.0
0.0 0.0 0.0

3.854190099694011e6 6.59933126145913e6 0.0
6.59933126145913e6 -1.484196630510336e7 0.0
0.0 0.0 0.0

-1.2712837536817376e7 5.698718142944645e6 0.0
5.698718142944645e6 1.7624364273028374e7 0.0
0.0 0.0 0.0

-1.0129612713198204e7 144978.29403178682 0.0
144978.29403178682 3.417766940952162e7 0.0
0.0 0.0 0.0

409912.37453780393 1.5747854730021652e7 0.0
1.5747854730021652e7 -1.6863672128630301e6 0.0
0.0 0.0 0.0

775977.8836834088 1.4366844003570389e7 0.0
1.4366844003570389e7 2.869532883321958e6 0.0
0.0 0.0 0.0

-6.468344182047327e6 2.057814951465288e7 0.0
2.057814951465288e7 6.948485440304097e6 0.0
0.0 0.0 0.0

-4.537156897662234e6 1.7402359195256565e7 0.0
1.7402359195256565e7 3.0640346296326667e6 0.0
0.0 0.0 0.0

4.659160292651765e6 4.975584513349859e6 0.0
4.975584513349859e6 -2.5012523371186998e7 0.0
0.0 0.0 0.0

4.637236132552488e6 5.470452943886665e6 0.0
5.470452943886665e6 -2.5372899483050182e7 0.0
0.0 0.0 0.0

-1.2153657714306297e7 1.1620765142979804e7 0.0
1.1620765142979804e7 2.0963711131362632e7 0.0
0.0 0.0 0.0

-34390.75441178493 1.4932183309383282e7 0.0
1.4932183309383282e7 -1.1750689244601972e7 0.0
0.0 0.0 0.0

4.891594418122322e6 1.747025107426112e7 0.0
1.747025107426112e7 -861289.1708608966 0.0
0.0 0.0 0.0

-1.0512248475533344e7 2.648452714943651e6 0.0
2.648452714943651e6 3.91188256665209e7 0.0
0.0 0.0 0.0

-4.756538883599041e6 1.5621223521475617e7 0.0
1.5621223521475617e7 6.946336863455748e6 0.0
0.0 0.0 0.0

-1.0607727726861532e6 1.4740577451175082e7 0.0
1.4740577451175082e7 -8.053385420681526e6 0.0
0.0 0.0 0.0

-5.47382737060711e6 1.3877817944160866e7 0.0
1.3877817944160866e7 3.8308787605684906e7 0.0
0.0 0.0 0.0

566876.7652720367 5.014178887246262e6 0.0
5.014178887246262e6 -2.103874676670911e6 0.0
0.0 0.0 0.0

-1.7373102473294202e6 1.8876852175223015e7 0.0
1.8876852175223015e7 -5.946881117569633e6 0.0
0.0 0.0 0.0

1.450809368610545e6 1.7670407836489502e7 0.0
1.7670407836489502e7 1.2461994658059906e7 0.0
0.0 0.0 0.0

3.4806844518796904e6 7.601018743378486e6 0.0
7.601018743378486e6 -1.4568309092092907e7 0.0
0.0 0.0 0.0

-2.8014610561045688e6 1.1764042666376285e7 0.0
1.1764042666376285e7 -2.2273721742306887e6 0.0
0.0 0.0 0.0

-9.151947399557536e6 1.293866802232789e7 0.0
1.293866802232789e7 2.9491526137352284e7 0.0
0.0 0.0 0.0

3.5212138560539205e6 8.294354898813832e6 0.0
8.294354898813832e6 -2.5431840906643126e7 0.0
0.0 0.0 0.0

675977.3499883218 1.538983398817853e7 0.0
1.538983398817853e7 -1.377099388048296e7 0.0
0.0 0.0 0.0

-1.038917502553033e7 -1.7557855336546022e6 0.0
-1.7557855336546022e6 2.733840115672097e7 0.0
0.0 0.0 0.0

3.0692887605150836e6 9.451346911031015e6 0.0
9.451346911031015e6 -2.444096199646459e7 0.0
0.0 0.0 0.0

526572.7102642164 9.043982636859946e6 0.0
9.043982636859946e6 -5.725247436168241e6 0.0
0.0 0.0 0.0

3.84207750722091e6 7.85858528859084e6 0.0
7.85858528859084e6 -2.1651562846216753e7 0.0
0.0 0.0 0.0

382671.8501926176 1.2661087808041535e7 0.0
1.2661087808041535e7 -1.1163322550503008e7 0.0
0.0 0.0 0.0

241364.53186607594 1.4223259409777086e7 0.0
1.4223259409777086e7 -1.226597014788316e7 0.0
0.0 0.0 0.0

-1.2621341968435552e7 4.349978082515199e6 0.0
4.349978082515199e6 2.215447486426977e7 0.0
0.0 0.0 0.0

1.7387062833442336e6 1.6422009584380642e7 0.0
1.6422009584380642e7 2.9019682737647663e6 0.0
0.0 0.0 0.0

-8.72160102717331e6 1.6830103793687583e6 0.0
1.6830103793687583e6 1.2661060107886663e7 0.0
0.0 0.0 0.0

1.5098929710996458e6 1.3562769058348937e7 0.0
1.3562769058348937e7 -1.6498574369107734e7 0.0
0.0 0.0 0.0

-1.8675769198024005e6 5.162121847594309e6 0.0
5.162121847594309e6 1.812491763069252e6 0.0
0.0 0.0 0.0

1.199604837772849e6 5.285383926915004e6 0.0
5.285383926915004e6 -6.277336799880004e6 0.0
0.0 0.0 0.0

123843.91681242455 1.3713544261182897e7 0.0
1.3713544261182897e7 -1.1319744772379024e7 0.0
0.0 0.0 0.0

4.1742631762464587e6 5.459624298991368e6 0.0
5.459624298991368e6 -1.508469037783729e7 0.0
0.0 0.0 0.0

-1.1581058338435594e7 241085.57933653585 0.0
241085.57933653585 1.89791681758198e7 0.0
0.0 0.0 0.0

4.141470723542951e6 3.7567889763156283e6 0.0
3.7567889763156283e6 -3.5973165852210216e7 0.0
0.0 0.0 0.0

-1.0567454332821928e6 1.4705582645790461e7 0.0
1.4705582645790461e7 -3.522484364931629e6 0.0
0.0 0.0 0.0

-1.2399659970945377e7 7.4805661833827095e6 0.0
7.4805661833827095e6 1.5749569635030098e7 0.0
0.0 0.0 0.0

-7.008002403773323e6 1.9656428237936404e7 0.0
1.9656428237936404e7 4.943144260950329e6 0.0
0.0 0.0 0.0

819519.6089802547 1.7290393181763254e7 0.0
1.7290393181763254e7 6.650936549725708e6 0.0
0.0 0.0 0.0

-9.661984853784554e6 1.5934406798739826e7 0.0
1.5934406798739826e7 1.96705094706079e7 0.0
0.0 0.0 0.0

-7.375088796776483e6 1.633915956198565e7 0.0
1.633915956198565e7 1.6131025839900365e7 0.0
0.0 0.0 0.0

-1.0013744855206326e7 -3.924378109264152e6 0.0
-3.924378109264152e6 2.7114325886423856e7 0.0
0.0 0.0 0.0

-3.1554977723125056e6 1.1742496794371748e7 0.0
1.1742496794371748e7 1.9991947668114349e6 0.0
0.0 0.0 0.0

2.8836134859388135e6 1.7502114278271068e7 0.0
1.7502114278271068e7 1.1481255633690963e7 0.0
0.0 0.0 0.0

-4.284392186447055e6 1.863982064432618e7 0.0
1.863982064432618e7 9.394550396283604e6 0.0
0.0 0.0 0.0

-1.2774871414632365e7 5.315090472816065e6 0.0
5.315090472816065e6 1.903780538073907e7 0.0
0.0 0.0 0.0

1.4424070447732722e6 1.24528391544629e7 0.0
1.24528391544629e7 -1.847943279450251e7 0.0
0.0 0.0 0.0

2.9355287582155764e6 6.686370901930167e6 0.0
6.686370901930167e6 -1.3489155329143358e7 0.0
0.0 0.0 0.0

644285.4314131741 1.4733899367024044e7 0.0
1.4733899367024044e7 -1.1447413213856298e7 0.0
0.0 0.0 0.0

-2.863174973476826e6 1.0636506963192211e7 0.0
1.0636506963192211e7 1.6860997832357406e6 0.0
0.0 0.0 0.0

3.297409770848478e6 5.304982479902768e6 0.0
5.304982479902768e6 -1.0286077396084324e7 0.0
0.0 0.0 0.0

-1.9295678212850853e6 1.9314339856043257e7 0.0
1.9314339856043257e7 -5.008081371314285e6 0.0
0.0 0.0 0.0

-1.0384625210860139e7 1.3075327906276595e6 0.0
1.3075327906276595e6 3.2545175617930748e7 0.0
0.0 0.0 0.0

-1.0602349660192778e7 -686918.6733163813 0.0
-686918.6733163813 2.83414854996898e7 0.0
0.0 0.0 0.0

-1.1888722536748925e7 9.03087596219609e6 0.0
9.03087596219609e6 2.7216475009595357e7 0.0
0.0 0.0 0.0

-1.2210813926316537e6 1.7802033542829394e7 0.0
1.7802033542829394e7 -8.262717354520056e6 0.0
0.0 0.0 0.0

-1.0706147635950968e6 7.5511414574894905e6 0.0
7.5511414574894905e6 -3.390932199161611e6 0.0
0.0 0.0 0.0

8.743710328077368e6 1.862791640803639e7 0.0
1.862791640803639e7 8.001616410417422e6 0.0
0.0 0.0 0.0

7.301077932600876e6 1.8475124905030396e7 0.0
1.8475124905030396e7 3.3228372670070022e7 0.0
0.0 0.0 0.0

3.7001173078909805e6 6.179094380249729e6 0.0
6.179094380249729e6 -1.2680237980804186e7 0.0
0.0 0.0 0.0

-1.0480856321841422e7 2.432533979004571e6 0.0
2.432533979004571e6 1.6760653606964791e7 0.0
0.0 0.0 0.0

-3.3747484702876788e6 1.2803882659301084e7 0.0
1.2803882659301084e7 2.2351207863768027e6 0.0
0.0 0.0 0.0

-6.173041887854962e6 1.769257464746834e7 0.0
1.769257464746834e7 1.2283026316389866e7 0.0
0.0 0.0 0.0

4.386413670876544e6 5.793364982630921e6 0.0
5.793364982630921e6 -2.7090915350665066e7 0.0
0.0 0.0 0.0

4.197255394255892e6 6.63398315156518e6 0.0
6.63398315156518e6 -2.359777798974543e7 0.0
0.0 0.0 0.0

-3.535390046314533e6 5.563989626016647e6 0.0
5.563989626016647e6 1.2576713633275933e6 0.0
0.0 0.0 0.0

-4.587776492999676e6 1.6487899698985176e7 0.0
1.6487899698985176e7 6.787861961540595e6 0.0
0.0 0.0 0.0

-5.887741060269015e6 1.4235818343149917e7 0.0
1.4235818343149917e7 3.539136787091938e7 0.0
0.0 0.0 0.0

380457.6649334021 1.543301938896832e7 0.0
1.543301938896832e7 -1.0949118993830603e7 0.0
0.0 0.0 0.0

-2.5500369317046725e6 6.477220021969052e6 0.0
6.477220021969052e6 2.622082550152698e6 0.0
0.0 0.0 0.0

4.368212063683985e6 6.019414131159923e6 0.0
6.019414131159923e6 -2.4523916291382957e7 0.0
0.0 0.0 0.0

-5.068219585935894e6 1.8240634052567422e7 0.0
1.8240634052567422e7 7.633612046553115e6 0.0
0.0 0.0 0.0

2.9855176498017926e6 7.8230304495189255e6 0.0
7.8230304495189255e6 -1.671481442984928e7 0.0
0.0 0.0 0.0

-8.154494721111852e6 6.24676237689716e6 0.0
6.24676237689716e6 192251.38163592946 0.0
0.0 0.0 0.0

470495.64941225946 1.3212507942624252e7 0.0
1.3212507942624252e7 -1.222806823309766e7 0.0
0.0 0.0 0.0

-1.75931739378103e6 3.920853940971559e6 0.0
3.920853940971559e6 -638813.1857654593 0.0
0.0 0.0 0.0

-2.482502466672344e6 9.494986986377358e6 0.0
9.494986986377358e6 1.302257969045655e6 0.0
0.0 0.0 0.0

-1.9931057227438744e6 8.29744042596125e6 0.0
8.29744042596125e6 866137.8837667785 0.0
0.0 0.0 0.0

74805.40961793391 1.3402296199960357e7 0.0
1.3402296199960357e7 -1.083700017874371e7 0.0
0.0 0.0 0.0

-3.1003727202516403e6 1.2745708305009233e7 0.0
1.2745708305009233e7 -1.9164519103735704e6 0.0
0.0 0.0 0.0

-1.2920450454222657e7 5.846277789966299e6 0.0
5.846277789966299e6 2.1158279325371556e7 0.0
0.0 0.0 0.0

-8.465928661117183e6 1.193137727833012e7 0.0
1.193137727833012e7 3.430562843536215e7 0.0
0.0 0.0 0.0

-1.0841506214825192e7 9.197729287524117e6 0.0
9.197729287524117e6 3.106944927904487e7 0.0
0.0 0.0 0.0

-8.866060117408048e6 1.242531304573804e7 0.0
1.242531304573804e7 3.1750546155209716e7 0.0
0.0 0.0 0.0

-8.643768654932663e6 5.931251955901807e6 0.0
5.931251955901807e6 4.897984973029279e7 0.0
0.0 0.0 0.0

-1.1392664702977533e6 1.6952020214571968e7 0.0
1.6952020214571968e7 6.133243641175074e6 0.0
0.0 0.0 0.0

-1.0815210887222515e7 3.6114307419328257e6 0.0
3.6114307419328257e6 3.6750184590170056e7 0.0
0.0 0.0 0.0

-2.5582116611255864e6 1.8205532733587917e7 0.0
1.8205532733587917e7 -4.09480282390794e6 0.0
0.0 0.0 0.0

-629780.2587197502 1.5559687033502346e7 0.0
1.5559687033502346e7 -9.568359020679926e6 0.0
0.0 0.0 0.0

-4.140799899850036e7 2.6247682579232126e7 0.0
2.6247682579232126e7 -4.818704069597517e6 0.0
0.0 0.0 0.0

3.3317496693085823e6 7.265456057487603e6 0.0
7.265456057487603e6 -1.2572743997717025e7 0.0
0.0 0.0 0.0

2.5762408708199216e6 1.1052838293384604e7 0.0
1.1052838293384604e7 -1.746005613390425e7 0.0
0.0 0.0 0.0

-1.6861073184226535e6 1.945039742193622e7 0.0
1.945039742193622e7 -4.319564307987982e6 0.0
0.0 0.0 0.0

-3.5271376624226198e6 1.8863862484610546e7 0.0
1.8863862484610546e7 2.8529304288272075e6 0.0
0.0 0.0 0.0

4.0092728412253e6 7.330166925305679e6 0.0
7.330166925305679e6 -2.1265394924717017e7 0.0
0.0 0.0 0.0

9.812240471300935e6 1.9624602233948175e7 0.0
1.9624602233948175e7 -5.475471340416301e6 0.0
0.0 0.0 0.0

-3.827033070130552e6 9.936500532692803e6 0.0
9.936500532692803e6 629226.1101665017 0.0
0.0 0.0 0.0

3.1389281072214544e6 6.013034829051427e6 0.0
6.013034829051427e6 -3.722295618591985e7 0.0
0.0 0.0 0.0

-3.3943170006111804e6 8.752693485990612e6 0.0
8.752693485990612e6 176138.0755021798 0.0
0.0 0.0 0.0

2.5388170120455856e6 7.700624967671805e6 0.0
7.700624967671805e6 -1.3273747251307536e7 0.0
0.0 0.0 0.0

-9.293853398780439e6 1.6153539003368901e7 0.0
1.6153539003368901e7 1.9018238838062447e7 0.0
0.0 0.0 0.0

-2.644930058069302e7 2.322552884048167e7 0.0
2.322552884048167e7 4.50846493114437e6 0.0
0.0 0.0 0.0

-1.077072358440471e7 -2.517658920749918e6 0.0
-2.517658920749918e6 2.1700472366148215e7 0.0
0.0 0.0 0.0

125901.58032583632 1.6085579936534176e7 0.0
1.6085579936534176e7 -1.0417227315243308e7 0.0
0.0 0.0 0.0

-1.179047718339223e7 2.2275352318380166e7 0.0
2.2275352318380166e7 -965101.2301943307 0.0
0.0 0.0 0.0

3.658280452007114e6 5.681689296097799e6 0.0
5.681689296097799e6 -1.2293380968832152e7 0.0
0.0 0.0 0.0

-1.1898381850593258e7 6.16875883419704e6 0.0
6.16875883419704e6 1.8871229039069183e7 0.0
0.0 0.0 0.0

565273.474278748 1.4224849019987907e7 0.0
1.4224849019987907e7 -1.0519389176318029e7 0.0
0.0 0.0 0.0

-695137.2830831474 1.357138292355706e7 0.0
1.357138292355706e7 -5.627755024929586e6 0.0
0.0 0.0 0.0

-4.1594792347570485e6 1.1082555010257503e7 0.0
1.1082555010257503e7 999288.8923576488 0.0
0.0 0.0 0.0

-1.2051314657482445e7 7.44968868628927e6 0.0
7.44968868628927e6 2.738124757270865e7 0.0
0.0 0.0 0.0

4.83527341552116e6 4.535912416625916e6 0.0
4.535912416625916e6 -2.3030147593579e7 0.0
0.0 0.0 0.0

3.5657069736600146e6 5.553186962100336e6 0.0
5.553186962100336e6 -1.5045428091207638e7 0.0
0.0 0.0 0.0

-5.079124493514795e6 1.79827734661661e7 0.0
1.79827734661661e7 6.865097600197695e6 0.0
0.0 0.0 0.0

-7.123190201885377e6 2.163843416210541e6 0.0
2.163843416210541e6 7.486453211628826e6 0.0
0.0 0.0 0.0

305191.9530781745 1.233046308779107e7 0.0
1.233046308779107e7 -1.063315693936841e7 0.0
0.0 0.0 0.0

4.0546357809545426e6 6.70083157463418e6 0.0
6.70083157463418e6 -1.8157951511633307e7 0.0
0.0 0.0 0.0

-1.11172948844348e7 2.463686866506605e6 0.0
2.463686866506605e6 3.052012511098968e7 0.0
0.0 0.0 0.0

-1.063766197640888e6 1.706791392613404e7 0.0
1.706791392613404e7 4.218195979615809e6 0.0
0.0 0.0 0.0

-1.1035355268882453e7 -831496.4372641756 0.0
-831496.4372641756 1.8288376159895305e7 0.0
0.0 0.0 0.0

2.507880279098753e6 1.0577646750473283e7 0.0
1.0577646750473283e7 -2.3554167843431354e7 0.0
0.0 0.0 0.0

-23919.33398695104 1.5033119498472465e7 0.0
1.5033119498472465e7 -1.5356629164200796e7 0.0
0.0 0.0 0.0

-1.1880671056122614e7 8.699628108828269e6 0.0
8.699628108828269e6 1.502532000444868e7 0.0
0.0 0.0 0.0

1.5415552037885617e6 1.3113192184869006e7 0.0
1.3113192184869006e7 -1.8508540243575916e7 0.0
0.0 0.0 0.0

1.225209359290854e6 1.3466849248450981e7 0.0
1.3466849248450981e7 -1.2837880083469734e7 0.0
0.0 0.0 0.0

348310.97195248085 3.4359376787378904e6 0.0
3.4359376787378904e6 -1.1649052068885018e6 0.0
0.0 0.0 0.0

-1.0475075775113404e7 -1.4997187790543297e6 0.0
-1.4997187790543297e6 1.558720689341363e7 0.0
0.0 0.0 0.0

459979.06480338564 1.0793038951004675e7 0.0
1.0793038951004675e7 -9.682960355003227e6 0.0
0.0 0.0 0.0

846913.9897841574 9.872495825767241e6 0.0
9.872495825767241e6 -9.96541384702983e6 0.0
0.0 0.0 0.0

647137.958427513 1.4469028899551414e7 0.0
1.4469028899551414e7 -1.098249707279462e7 0.0
0.0 0.0 0.0

-1.2094612980326922e6 1.7181671142216247e7 0.0
1.7181671142216247e7 2.3019121115069594e6 0.0
0.0 0.0 0.0

1.757145429498325e6 8.80129755184693e6 0.0
8.80129755184693e6 -1.1661310672148928e7 0.0
0.0 0.0 0.0

-112144.91668116488 1.1894902073225703e7 0.0
1.1894902073225703e7 -3.3550696683547467e7 0.0
0.0 0.0 0.0

-6.312406089601982e6 3.4972762434130353e6 0.0
3.4972762434130353e6 6.668599282061253e6 0.0
0.0 0.0 0.0

-7.186710564025311e6 1.5721224564632602e7 0.0
1.5721224564632602e7 -2.8766456846608598e7 0.0
0.0 0.0 0.0

-9.073190387684487e7 1.0289062530874707e7 0.0
1.0289062530874707e7 2.8494167829710357e6 0.0
0.0 0.0 0.0

7.237249064732869e7 1.1332558241725931e7 0.0
1.1332558241725931e7 2.3526659347680844e6 0.0
0.0 0.0 0.0

-1.05013012611565e6 1.2332117254213514e7 0.0
1.2332117254213514e7 -3.823081257781286e7 0.0
0.0 0.0 0.0

-9.21875881832692e6 1.3131529545484211e7 0.0
1.3131529545484211e7 1.6325825590798581e7 0.0
0.0 0.0 0.0

-3.9578435151914163e6 1.6726913491817605e7 0.0
1.6726913491817605e7 226852.28993283096 0.0
0.0 0.0 0.0

94091.16724607628 1.1649655634546915e7 0.0
1.1649655634546915e7 -9.39521199210339e6 0.0
0.0 0.0 0.0

127832.90159434103 5.975685495184531e6 0.0
5.975685495184531e6 -4.531293558721042e6 0.0
0.0 0.0 0.0

763965.5262050692 6.624658591801633e6 0.0
6.624658591801633e6 -3.5947864695075387e6 0.0
0.0 0.0 0.0

-4.378169729910323e6 1.2194530484248435e7 0.0
1.2194530484248435e7 1.2934532556085128e6 0.0
0.0 0.0 0.0

-553767.5779366381 1.2079881803423109e7 0.0
1.2079881803423109e7 -3.575885551589344e7 0.0
0.0 0.0 0.0

1.3706302194566382e6 1.0422000459769556e7 0.0
1.0422000459769556e7 -9.0947527987621e6 0.0
0.0 0.0 0.0

-1.1758718064073607e7 605350.8242571413 0.0
605350.8242571413 2.4105555424374133e7 0.0
0.0 0.0 0.0

5.749913291933432e7 1.3540756543883415e7 0.0
1.3540756543883415e7 -645555.7840442732 0.0
0.0 0.0 0.0

983450.0216370258 1.1311267175810015e7 0.0
1.1311267175810015e7 -8.863234763481393e6 0.0
0.0 0.0 0.0

4.312704634212724e6 6.344019982031528e6 0.0
6.344019982031528e6 -2.0411548422743857e7 0.0
0.0 0.0 0.0

4.1673687165378034e6 6.8297197110906e6 0.0
6.8297197110906e6 -2.083200295316088e7 0.0
0.0 0.0 0.0

-8.965821766106363e6 1.6398737345965868e7 0.0
1.6398737345965868e7 1.832810935554993e7 0.0
0.0 0.0 0.0

1.836199685355871e6 1.248300922006685e7 0.0
1.248300922006685e7 -1.455896852435359e7 0.0
0.0 0.0 0.0

-2.122358463675314e6 1.7728378066692777e7 0.0
1.7728378066692777e7 -8.337857967171367e6 0.0
0.0 0.0 0.0

3.489438225726525e6 1.8318153433748253e7 0.0
1.8318153433748253e7 -4.111197089918183e6 0.0
0.0 0.0 0.0

-1.6445852830001146e6 1.1363597804265436e7 0.0
1.1363597804265436e7 -1.6129693946747698e6 0.0
0.0 0.0 0.0

1.7905515655952871e6 5.72726036290936e6 0.0
5.72726036290936e6 -5.506056628654735e6 0.0
0.0 0.0 0.0

-1.7924872608885576e6 7.957732067498844e6 0.0
7.957732067498844e6 -2.2535764671450662e6 0.0
0.0 0.0 0.0

-3.804719306786252e6 5.848714188891858e6 0.0
5.848714188891858e6 5.288615384327329e6 0.0
0.0 0.0 0.0

-3.453756659288979e6 1.4084970510784749e7 0.0
1.4084970510784749e7 -2.1398764279156923e7 0.0
0.0 0.0 0.0

2.816884673594149e6 1.0445091110918708e7 0.0
1.0445091110918708e7 -2.084815600345496e7 0.0
0.0 0.0 0.0

2.8468780585758174e6 6.118792695172058e6 0.0
6.118792695172058e6 -1.2986073719515432e7 0.0
0.0 0.0 0.0

2.6078325792361847e6 8.376666426066151e6 0.0
8.376666426066151e6 -1.095924509739242e7 0.0
0.0 0.0 0.0

-2.302048773412959e6 1.3318803713562593e7 0.0
1.3318803713562593e7 -1.0433607651473072e6 0.0
0.0 0.0 0.0

2.5052116431535687e6 8.12985729438707e6 0.0
8.12985729438707e6 -1.3846503909599494e7 0.0
0.0 0.0 0.0

-407508.30974963354 7.110914744246304e6 0.0
7.110914744246304e6 -4.365940667334751e6 0.0
0.0 0.0 0.0

4.44670774923426e6 4.926668792746392e6 0.0
4.926668792746392e6 -1.5825477242709778e7 0.0
0.0 0.0 0.0

822838.4882434346 1.3134881235790785e7 0.0
1.3134881235790785e7 -1.041977230441005e7 0.0
0.0 0.0 0.0

-5.956350330058446e6 5.05775217038629e6 0.0
5.05775217038629e6 5.515437058196055e6 0.0
0.0 0.0 0.0

-1.6574562562607597e6 1.8852630102121744e7 0.0
1.8852630102121744e7 -6.518930391894193e6 0.0
0.0 0.0 0.0

3.630238326523466e6 5.658993312292693e6 0.0
5.658993312292693e6 -3.2497145342415478e7 0.0
0.0 0.0 0.0

517677.99388694623 1.3916102728600767e7 0.0
1.3916102728600767e7 -1.0053464432425044e7 0.0
0.0 0.0 0.0

3.6223629777985634e6 7.868989193443454e6 0.0
7.868989193443454e6 -1.6455569512709681e7 0.0
0.0 0.0 0.0

-974419.3401522097 4.796892524769389e6 0.0
4.796892524769389e6 702900.7069890318 0.0
0.0 0.0 0.0

3.8607679082595482e6 7.310392153548238e6 0.0
7.310392153548238e6 -1.7338395479346372e7 0.0
0.0 0.0 0.0

-4.062024515807933e6 1.741328139524916e7 0.0
1.741328139524916e7 4.647835313045623e6 0.0
0.0 0.0 0.0

-791235.6149618076 2.012444240201093e7 0.0
2.012444240201093e7 -6.199418877717054e6 0.0
0.0 0.0 0.0

-340676.431460659 1.545899826000078e7 0.0
1.545899826000078e7 -1.4993899756434947e7 0.0
0.0 0.0 0.0

750192.6388955317 6.18601677486192e6 0.0
6.18601677486192e6 -6.2097255881636515e6 0.0
0.0 0.0 0.0

-766419.8578904143 2.08395713638257e7 0.0
2.08395713638257e7 -4.6457735485138465e6 0.0
0.0 0.0 0.0

-569033.8999368874 1.7656744988314737e7 0.0
1.7656744988314737e7 -8.0846815464448985e6 0.0
0.0 0.0 0.0

-1.1790934654981624e7 4.649894274128039e6 0.0
4.649894274128039e6 1.4700406970085602e7 0.0
0.0 0.0 0.0

-4.284337673092488e6 1.8402505444195207e7 0.0
1.8402505444195207e7 1.0994309478200324e7 0.0
0.0 0.0 0.0

-2.6254477647333103e6 4.3242931610696e6 0.0
4.3242931610696e6 590247.9623774167 0.0
0.0 0.0 0.0

-1.762055816120355e6 9.05429366333316e6 0.0
9.05429366333316e6 -23190.843261731905 0.0
0.0 0.0 0.0

-1.0686626419878226e7 5.598585916944858e6 0.0
5.598585916944858e6 3.441339044810466e7 0.0
0.0 0.0 0.0

-5.746221474866532e6 1.136255416491595e7 0.0
1.136255416491595e7 4.814221036712935e6 0.0
0.0 0.0 0.0

1.7078386204800685e6 1.5869574442080827e7 0.0
1.5869574442080827e7 643041.8220715628 0.0
0.0 0.0 0.0

647576.9171463209 1.2173416502345238e7 0.0
1.2173416502345238e7 -8.574912774622288e6 0.0
0.0 0.0 0.0

-10283.951326510869 1.3115225411643285e7 0.0
1.3115225411643285e7 -1.0268016062838946e7 0.0
0.0 0.0 0.0

1306.4298830144107 1.18273310605554e7 0.0
1.18273310605554e7 -3.1535140644234616e7 0.0
0.0 0.0 0.0

3.295582117044842e6 5.9795733574211765e6 0.0
5.9795733574211765e6 -3.4480765960518e7 0.0
0.0 0.0 0.0

-1.3040936970105406e7 7.624428509114622e6 0.0
7.624428509114622e6 1.896894444268442e7 0.0
0.0 0.0 0.0

-3.8093548383781346e6 2.012606428725659e7 0.0
2.012606428725659e7 5.481808812081749e6 0.0
0.0 0.0 0.0

-1.1771258737859532e7 1.2498464487061736e6 0.0
1.2498464487061736e6 2.6879006058324162e7 0.0
0.0 0.0 0.0

-167698.39422970265 1.6691653434566572e7 0.0
1.6691653434566572e7 -9.921295236011863e6 0.0
0.0 0.0 0.0

-247612.91511255177 1.6297369358402956e7 0.0
1.6297369358402956e7 -1.1862503857236966e7 0.0
0.0 0.0 0.0

9.797831226636862e6 5.534083238361463e6 0.0
5.534083238361463e6 -2.094399704520308e6 0.0
0.0 0.0 0.0

1.6538152635967713e6 8.503424234138053e6 0.0
8.503424234138053e6 -8.202320775907671e6 0.0
0.0 0.0 0.0

-9.199384001108516e6 1.0654311730208851e7 0.0
1.0654311730208851e7 1.1470019914422117e7 0.0
0.0 0.0 0.0

-1.4697228407406518e6 1.5214295840376608e7 0.0
1.5214295840376608e7 -1.423673814377553e7 0.0
0.0 0.0 0.0

777559.140733215 1.2847059915507777e7 0.0
1.2847059915507777e7 -9.852612392224483e6 0.0
0.0 0.0 0.0

903351.198245876 1.3741527981466046e7 0.0
1.3741527981466046e7 -1.1433564123721529e7 0.0
0.0 0.0 0.0

-1.133650186934674e7 1.0725908470404964e7 0.0
1.0725908470404964e7 2.678270184652376e7 0.0
0.0 0.0 0.0

-1.2736320902785562e7 7.073760526277573e6 0.0
7.073760526277573e6 1.714772458476705e7 0.0
0.0 0.0 0.0

-109389.61003290629 1.2805177366236962e7 0.0
1.2805177366236962e7 -9.696565990864992e6 0.0
0.0 0.0 0.0

-1.2798059518923843e6 1.5428508020189807e7 0.0
1.5428508020189807e7 -7.7490944046895895e6 0.0
0.0 0.0 0.0

-4.77034994463167e6 1.7213095201705422e7 0.0
1.7213095201705422e7 -4.921002330192882e6 0.0
0.0 0.0 0.0

-2.9527464654414565e6 2.031575658686519e7 0.0
2.031575658686519e7 -1.6584206988445907e6 0.0
0.0 0.0 0.0

2.7272926307939133e6 1.0503746622235438e7 0.0
1.0503746622235438e7 -2.2174797991874404e7 0.0
0.0 0.0 0.0

-2.840508257756323e6 2.381329030415478e7 0.0
2.381329030415478e7 2.54342032937791e6 0.0
0.0 0.0 0.0

-8.219730479963898e6 1.1677044927404212e7 0.0
1.1677044927404212e7 1.0202493838116083e7 0.0
0.0 0.0 0.0

-4.530498210701745e6 2.0008373007407524e7 0.0
2.0008373007407524e7 -6.7644025473717945e6 0.0
0.0 0.0 0.0

-74753.17551912088 1.4728293362147383e7 0.0
1.4728293362147383e7 -1.6462046783644871e6 0.0
0.0 0.0 0.0

-170546.73454620037 1.5697334321812985e7 0.0
1.5697334321812985e7 -1.4065704319436971e7 0.0
0.0 0.0 0.0

-1.3788600378151832e6 1.5798697352573717e7 0.0
1.5798697352573717e7 -7.98253031124104e6 0.0
0.0 0.0 0.0

-4.598539858036981e6 1.958915426719225e7 0.0
1.958915426719225e7 7.4011986073622275e6 0.0
0.0 0.0 0.0

15408.913849907462 1.567631376862272e7 0.0
1.567631376862272e7 -9.598636924048377e6 0.0
0.0 0.0 0.0

-218325.89213927556 1.2491265184097061e7 0.0
1.2491265184097061e7 -9.072584046676334e6 0.0
0.0 0.0 0.0

280111.72967929486 1.4823666836066412e7 0.0
1.4823666836066412e7 -1.6639096210173389e7 0.0
0.0 0.0 0.0

-938611.8402098663 1.047150803336005e7 0.0
1.047150803336005e7 -5.714609942529075e6 0.0
0.0 0.0 0.0

-3.910411836533546e6 1.8830852973138563e7 0.0
1.8830852973138563e7 1.5773535775491823e6 0.0
0.0 0.0 0.0

-2.774564410958996e6 1.9901581975536056e7 0.0
1.9901581975536056e7 -2.59805767599731e6 0.0
0.0 0.0 0.0

-209769.41412187606 4.470432405494431e6 0.0
4.470432405494431e6 -400957.52535607765 0.0
0.0 0.0 0.0

783161.7163595245 9.393972522680277e6 0.0
9.393972522680277e6 -9.342429091102775e6 0.0
0.0 0.0 0.0

-2.5004405283998866e6 2.1097888883340966e7 0.0
2.1097888883340966e7 -233970.63107527606 0.0
0.0 0.0 0.0

-4.783329451353775e6 1.7018257635573987e7 0.0
1.7018257635573987e7 4.0196866579179135e6 0.0
0.0 0.0 0.0

-6.904149271712656e7 5.899304467732725e6 0.0
5.899304467732725e6 4.884279447887201e6 0.0
0.0 0.0 0.0

1.2542207837831527e6 1.34966940864065e7 0.0
1.34966940864065e7 -1.857786611484978e7 0.0
0.0 0.0 0.0

-5.444496225417461e6 1.6079638197377196e7 0.0
1.6079638197377196e7 6.161650682704885e6 0.0
0.0 0.0 0.0

-2.140632448269614e6 1.8443520556215987e7 0.0
1.8443520556215987e7 -2.7812653051470625e6 0.0
0.0 0.0 0.0

-5.193168214170477e6 1.6916857654504407e7 0.0
1.6916857654504407e7 6.055439124729008e6 0.0
0.0 0.0 0.0

-1.242437806265934e6 1.7400746748587057e7 0.0
1.7400746748587057e7 441897.6533242515 0.0
0.0 0.0 0.0

-543216.8133694404 1.681481343457038e7 0.0
1.681481343457038e7 -8.338684621309122e6 0.0
0.0 0.0 0.0

-7.225259211926756e6 1.265549165310475e7 0.0
1.265549165310475e7 8.783544784465058e6 0.0
0.0 0.0 0.0

-1.1768512538541418e7 4.260190994237974e6 0.0
4.260190994237974e6 2.1030266858226746e7 0.0
0.0 0.0 0.0

-411844.97615228524 1.0987018593813684e7 0.0
1.0987018593813684e7 -4.7397756323058065e6 0.0
0.0 0.0 0.0

2.914920781308028e6 5.764436317981194e6 0.0
5.764436317981194e6 -9.491442967131458e6 0.0
0.0 0.0 0.0

-1.6209494694591716e6 1.3880202056154596e7 0.0
1.3880202056154596e7 -6.105238797186592e6 0.0
0.0 0.0 0.0

-939071.0094993243 1.732159072143497e7 0.0
1.732159072143497e7 -9.185308464788046e6 0.0
0.0 0.0 0.0

-4.96201771540843e6 1.6191868679036357e7 0.0
1.6191868679036357e7 4.0312866821101215e6 0.0
0.0 0.0 0.0

-2.302838878200235e6 1.2729112396379247e7 0.0
1.2729112396379247e7 -3.8822871835518936e6 0.0
0.0 0.0 0.0

-5.381448937237799e6 1.5980569251729995e6 0.0
1.5980569251729995e6 8.295678317890111e6 0.0
0.0 0.0 0.0

2.497348944165496e6 5.670227441612039e6 0.0
5.670227441612039e6 -1.0879216903040173e7 0.0
0.0 0.0 0.0

-1.1615264818983754e7 4.2112665213274015e6 0.0
4.2112665213274015e6 2.708283914698363e7 0.0
0.0 0.0 0.0

-1.0794977749825418e7 836448.605485277 0.0
836448.605485277 1.4560161030427244e7 0.0
0.0 0.0 0.0

-4.615858199530687e6 1.706653784651293e7 0.0
1.706653784651293e7 1.679704177521543e7 0.0
0.0 0.0 0.0

-1.4775467110801723e6 1.6101590240673814e7 0.0
1.6101590240673814e7 -7.383430508896314e6 0.0
0.0 0.0 0.0

644482.3362257653 8.86657935506993e6 0.0
8.86657935506993e6 -8.758850640775483e6 0.0
0.0 0.0 0.0

-1.1315376163719801e7 4.071826086708643e6 0.0
4.071826086708643e6 2.9070207295177266e7 0.0
0.0 0.0 0.0

-1.9215926478809095e6 1.863254535819383e7 0.0
1.863254535819383e7 -3.4285977694823705e6 0.0
0.0 0.0 0.0

-3.766127180787216e6 1.1695408850796835e7 0.0
1.1695408850796835e7 -30148.856755200308 0.0
0.0 0.0 0.0

-1.0491973922549756e6 8.62695114866126e6 0.0
8.62695114866126e6 -1.2292718083606637e6 0.0
0.0 0.0 0.0

-1.3871621889998163e6 1.1357150450992577e7 0.0
1.1357150450992577e7 -5.319849747220071e6 0.0
0.0 0.0 0.0

-1.2123531775838556e6 1.4421324782859966e7 0.0
1.4421324782859966e7 -2.083004799128856e7 0.0
0.0 0.0 0.0

-4.28829146636762e6 1.697900701472911e7 0.0
1.697900701472911e7 5.684913229340374e6 0.0
0.0 0.0 0.0

341855.6727599725 1.6238843151361361e7 0.0
1.6238843151361361e7 -1.1883862803761419e7 0.0
0.0 0.0 0.0

-3.8695692998999692e6 1.4778709054800864e7 0.0
1.4778709054800864e7 4.274976585118176e7 0.0
0.0 0.0 0.0

1.1932113551561914e6 1.854290508692736e7 0.0
1.854290508692736e7 9.145595423630152e6 0.0
0.0 0.0 0.0

-1.0936442981343929e7 9.850543295478266e6 0.0
9.850543295478266e6 1.3900391152055813e7 0.0
0.0 0.0 0.0

2.6336244087859485e6 1.0967015853663148e7 0.0
1.0967015853663148e7 -1.856518251606636e7 0.0
0.0 0.0 0.0

-1.5685128824950517e6 1.3270092884259766e7 0.0
1.3270092884259766e7 -3.0473026000835868e6 0.0
0.0 0.0 0.0

-329100.08980768453 1.8215417614860073e7 0.0
1.8215417614860073e7 -8.938119894388905e6 0.0
0.0 0.0 0.0

-3.5182784402655098e6 2.084227363387899e7 0.0
2.084227363387899e7 3.942070944251634e6 0.0
0.0 0.0 0.0

-2.6107635203148792e6 1.9447354117504843e7 0.0
1.9447354117504843e7 -3.3954410109222983e6 0.0
0.0 0.0 0.0

-50037.680687719956 1.600959962837542e7 0.0
1.600959962837542e7 -1.312482257291125e7 0.0
0.0 0.0 0.0

-1.2539123948926348e6 1.2386078781426542e7 0.0
1.2386078781426542e7 -3.3583677440997944e6 0.0
0.0 0.0 0.0

-4.869887827490797e6 1.7377007901510153e7 0.0
1.7377007901510153e7 5.010195812175866e6 0.0
0.0 0.0 0.0

-1.1241540037437644e7 3.9663489400902423e6 0.0
3.9663489400902423e6 1.3341822831477642e7 0.0
0.0 0.0 0.0

2.8596147970161065e6 5.593780747915422e6 0.0
5.593780747915422e6 -1.2305496592002505e7 0.0
0.0 0.0 0.0

-1.1656399095228456e6 1.4040030545631215e7 0.0
1.4040030545631215e7 -4.601340009705684e6 0.0
0.0 0.0 0.0

3.153685280337319e6 8.564702966575475e6 0.0
8.564702966575475e6 -1.4322463148355473e7 0.0
0.0 0.0 0.0

-3.4549276663669716e6 1.6845602977886144e7 0.0
1.6845602977886144e7 1.8890778696588343e6 0.0
0.0 0.0 0.0

-337744.28785912634 8.224190470900054e6 0.0
8.224190470900054e6 -2.3800377771634096e6 0.0
0.0 0.0 0.0

-2.0099783312877563e6 2.2277177636707593e7 0.0
2.2277177636707593e7 -2.1778309571060976e6 0.0
0.0 0.0 0.0

-4.673092036407892e7 2.541183587012981e6 0.0
2.541183587012981e6 7.8801360854669865e6 0.0
0.0 0.0 0.0

232470.21612906642 7.756210802190129e6 0.0
7.756210802190129e6 -3.3886432901127255e6 0.0
0.0 0.0 0.0

-1.3597543223439446e6 1.3848916812154554e7 0.0
1.3848916812154554e7 -2.491610008350206e7 0.0
0.0 0.0 0.0

230224.67171558924 1.7354662372644387e7 0.0
1.7354662372644387e7 -8.487245425163273e6 0.0
0.0 0.0 0.0

1.0331662176433066e6 1.1669358545541221e7 0.0
1.1669358545541221e7 -9.498286947568035e6 0.0
0.0 0.0 0.0

809379.0781521387 1.4985344768307932e7 0.0
1.4985344768307932e7 -1.4693094147631276e7 0.0
0.0 0.0 0.0

777307.4344260516 7.332356855832395e6 0.0
7.332356855832395e6 -4.325833771908127e6 0.0
0.0 0.0 0.0

3.743233147442852e6 7.36693696261657e6 0.0
7.36693696261657e6 -1.5979048762774011e7 0.0
0.0 0.0 0.0

-3.081059272643529e6 2.07319478708317e7 0.0
2.07319478708317e7 -810560.2723458529 0.0
0.0 0.0 0.0

696030.2009393221 5.598641343713268e6 0.0
5.598641343713268e6 -5.33498106007853e6 0.0
0.0 0.0 0.0

1.2917302225793288e6 9.325936220637605e6 0.0
9.325936220637605e6 -1.0842337060577e7 0.0
0.0 0.0 0.0

-1.814900637607081e6 2.317074174111255e7 0.0
2.317074174111255e7 -1.338845071003607e6 0.0
0.0 0.0 0.0

2.116839141822395e6 1.6655315177261962e7 0.0
1.6655315177261962e7 -519689.45235565666 0.0
0.0 0.0 0.0

-426662.9613003116 1.943021549702357e7 0.0
1.943021549702357e7 -6.895340640176093e6 0.0
0.0 0.0 0.0

3.15083874154732e6 7.536205847312113e6 0.0
7.536205847312113e6 -4.023612206709426e7 0.0
0.0 0.0 0.0

-1.1037692387081753e7 1.4547357914308937e7 0.0
1.4547357914308937e7 2.121579376492145e7 0.0
0.0 0.0 0.0

-2.957990205142349e6 2.0196089419957384e7 0.0
2.0196089419957384e7 858460.0486035659 0.0
0.0 0.0 0.0

2.949713097713597e6 8.263982917274355e6 0.0
8.263982917274355e6 -1.237614750279359e7 0.0
0.0 0.0 0.0

1.2083709753114395e6 6.811332866423523e6 0.0
6.811332866423523e6 -5.232938276435093e6 0.0
0.0 0.0 0.0

566309.8829136267 8.351876991203274e6 0.0
8.351876991203274e6 -8.138227952366295e6 0.0
0.0 0.0 0.0

-3.637294635986002e6 2.3297574057320356e7 0.0
2.3297574057320356e7 4.4466801705124825e6 0.0
0.0 0.0 0.0

-8.77883523654459e6 -653724.2366090174 0.0
-653724.2366090174 1.4615552264923858e7 0.0
0.0 0.0 0.0

-1.2424561108700352e7 1.2326906040294543e7 0.0
1.2326906040294543e7 1.9452191340182595e7 0.0
0.0 0.0 0.0

-2.2383877912022066e6 1.967897210525994e7 0.0
1.967897210525994e7 -2.245257558928492e6 0.0
0.0 0.0 0.0

1.1689291615262083e6 1.2996690207591696e7 0.0
1.2996690207591696e7 -1.1893502556351902e7 0.0
0.0 0.0 0.0

-4.889380360003504e6 1.756672341051516e7 0.0
1.756672341051516e7 1.4967144483877381e7 0.0
0.0 0.0 0.0

-2.5678591610333486e6 1.3606253208867943e7 0.0
1.3606253208867943e7 -3.5637440795086133e6 0.0
0.0 0.0 0.0

472466.3578906213 1.3608186803075701e7 0.0
1.3608186803075701e7 -9.531909914172333e6 0.0
0.0 0.0 0.0

179801.86102703586 1.3321118786212819e7 0.0
1.3321118786212819e7 -2.1801802790680684e7 0.0
0.0 0.0 0.0

-217278.36870415416 2.038876584817713e7 0.0
2.038876584817713e7 -5.776028829076194e6 0.0
0.0 0.0 0.0

301595.4989276882 1.1978057214377778e7 0.0
1.1978057214377778e7 -2.977694354129858e7 0.0
0.0 0.0 0.0

-1.058215841900179e7 3.258869337729581e6 0.0
3.258869337729581e6 1.2577141429537717e7 0.0
0.0 0.0 0.0

2.9075873428426245e6 1.851826704161549e7 0.0
1.851826704161549e7 1.7426672778836418e7 0.0
0.0 0.0 0.0

-4.165624103610128e6 2.258479587554633e7 0.0
2.258479587554633e7 4.699226760443153e6 0.0
0.0 0.0 0.0

-2.3247985659138835e6 1.3989200672973571e7 0.0
1.3989200672973571e7 -4.330807534513161e6 0.0
0.0 0.0 0.0

1.426053074504884e6 1.8049897373715248e7 0.0
1.8049897373715248e7 -5.8060874808506975e6 0.0
0.0 0.0 0.0

-1.9704759175438513e6 1.9269692142002273e7 0.0
1.9269692142002273e7 -3.1299312241950994e6 0.0
0.0 0.0 0.0

-4.1084535803785147e6 6.96186927795935e6 0.0
6.96186927795935e6 1.8980204622461244e6 0.0
0.0 0.0 0.0

14108.17339503672 1.6323226412623169e7 0.0
1.6323226412623169e7 -1.2231741949035302e7 0.0
0.0 0.0 0.0

1.9845965337427082e6 1.2402606323837724e7 0.0
1.2402606323837724e7 -1.5908088509870464e7 0.0
0.0 0.0 0.0

1.7084819827293502e6 1.2850809605942396e7 0.0
1.2850809605942396e7 -1.4962069309871776e7 0.0
0.0 0.0 0.0

-663163.2025414067 1.2955546341058055e7 0.0
1.2955546341058055e7 -8.111418441050598e6 0.0
0.0 0.0 0.0

8.066187663365221e6 2.0821565454773374e7 0.0
2.0821565454773374e7 -5.862421079315457e6 0.0
0.0 0.0 0.0

1.7998651701670946e6 9.900596124475555e6 0.0
9.900596124475555e6 -9.943281929158637e6 0.0
0.0 0.0 0.0

2.8358182772590294e6 5.177108808006981e6 0.0
5.177108808006981e6 -1.1771160651443433e7 0.0
0.0 0.0 0.0

2.2177059693726655e6 1.1910094004127525e7 0.0
1.1910094004127525e7 -1.676551943363252e7 0.0
0.0 0.0 0.0

3.4945651025732737e6 6.333270590562836e6 0.0
6.333270590562836e6 -3.100452212576381e7 0.0
0.0 0.0 0.0

-5.41683082508276e6 6.427439206920454e6 0.0
6.427439206920454e6 4.3941235144581795e6 0.0
0.0 0.0 0.0

-4.1657831461021015e6 1.8443586617910694e7 0.0
1.8443586617910694e7 2.233114438839609e6 0.0
0.0 0.0 0.0

4.357820201514913e6 4.983220403421545e6 0.0
4.983220403421545e6 -1.869703466434503e7 0.0
0.0 0.0 0.0

2.0807045781558547e6 6.219852145007284e6 0.0
6.219852145007284e6 -1.0211497984438533e7 0.0
0.0 0.0 0.0

-221543.6828078772 1.3109685458963558e7 0.0
1.3109685458963558e7 -6.653655698326059e6 0.0
0.0 0.0 0.0

-1.0404980675595885e7 1.1724206976035152e7 0.0
1.1724206976035152e7 2.8163070680960037e7 0.0
0.0 0.0 0.0

-5.525051881055027e6 1.839320500026739e7 0.0
1.839320500026739e7 1.135340295437578e7 0.0
0.0 0.0 0.0

-3.7735175284968046e6 7.912877651600576e6 0.0
7.912877651600576e6 1.0412501835788181e6 0.0
0.0 0.0 0.0

-8.484212635544728e6 1.653124638643681e7 0.0
1.653124638643681e7 1.6258174261742527e7 0.0
0.0 0.0 0.0

3.967510178344149e6 6.092156343746586e6 0.0
6.092156343746586e6 -1.422578380366429e7 0.0
0.0 0.0 0.0

2.3679506113989586e6 1.144552389037134e7 0.0
1.144552389037134e7 -1.7781014156638548e7 0.0
0.0 0.0 0.0

-6.7941285752344355e6 4.445580439119935e7 0.0
4.445580439119935e7 2.6435498819466117e6 0.0
0.0 0.0 0.0

-5.217417255261928e6 1.0878021036703184e7 0.0
1.0878021036703184e7 3.424899758381051e6 0.0
0.0 0.0 0.0

-9.68596473031692e6 2.3513623962546275e6 0.0
2.3513623962546275e6 1.1366894284294732e7 0.0
0.0 0.0 0.0

-44770.32475681091 1.5686555675532896e7 0.0
1.5686555675532896e7 -1.2749627033168307e7 0.0
0.0 0.0 0.0

1.480552711143379e6 1.3318095633298833e7 0.0
1.3318095633298833e7 -1.4128466773722596e7 0.0
0.0 0.0 0.0

139903.1216393637 1.2376593245716547e6 0.0
1.2376593245716547e6 2.8789120681030406e6 0.0
0.0 0.0 0.0

-1.1357748140335751e6 402181.09115216444 0.0
402181.09115216444 4.887918364986634e6 0.0
0.0 0.0 0.0

-4.294231575986627e6 2.3506124814741734e7 0.0
2.3506124814741734e7 4.13129939727665e6 0.0
0.0 0.0 0.0

-5.300511121158173e6 1.5717538539661745e7 0.0
1.5717538539661745e7 5.089509433943298e6 0.0
0.0 0.0 0.0

-3.588113537256659e6 2.3217779033804733e7 0.0
2.3217779033804733e7 2.6111619400658533e6 0.0
0.0 0.0 0.0

3.363035193612322e6 8.439556249884337e6 0.0
8.439556249884337e6 -1.5699311776415553e7 0.0
0.0 0.0 0.0

-4.613213274653163e6 1.7781071696940016e7 0.0
1.7781071696940016e7 4.0267242232574173e6 0.0
0.0 0.0 0.0

-1.1095425877384566e7 1.3294483390885778e6 0.0
1.3294483390885778e6 2.2879605213639416e7 0.0
0.0 0.0 0.0

-5.622835028302081e7 3.800513420369304e6 0.0
3.800513420369304e6 7.2318414216244705e6 0.0
0.0 0.0 0.0

-4.08150748657899e6 1.915050218627917e7 0.0
1.915050218627917e7 2.3809751653826255e6 0.0
0.0 0.0 0.0

-7.564959826572569e6 1.690896669586709e7 0.0
1.690896669586709e7 1.505615675297112e7 0.0
0.0 0.0 0.0

-1.3759100726363536e6 2.052971688979889e7 0.0
2.052971688979889e7 -5.161828471293998e6 0.0
0.0 0.0 0.0

2.154824537788031e6 5.749060279977462e6 0.0
5.749060279977462e6 -9.418860169525553e6 0.0
0.0 0.0 0.0

-5.765090077418128e6 1.2567778770243725e7 0.0
1.2567778770243725e7 5.046464789749636e6 0.0
0.0 0.0 0.0

-8.231407270127658e6 2.0581006572976287e7 0.0
2.0581006572976287e7 -5.114323787730692e6 0.0
0.0 0.0 0.0

-3.665040245805031e6 1.9270414821948744e7 0.0
1.9270414821948744e7 -5.793021853052774e6 0.0
0.0 0.0 0.0

3.4027062661640216e6 6.779185056457898e6 0.0
6.779185056457898e6 -1.1950365820501918e7 0.0
0.0 0.0 0.0

-6.817675460174143e6 1.736497996565451e7 0.0
1.736497996565451e7 1.3835520912326384e7 0.0
0.0 0.0 0.0

-517917.45302416245 1.5176545034067983e7 0.0
1.5176545034067983e7 -7.354321493138645e6 0.0
0.0 0.0 0.0

3.72932082219515e6 4.942234941091755e6 0.0
4.942234941091755e6 -3.366174470298245e7 0.0
0.0 0.0 0.0

-1.0649183655994806e7 -444248.405365273 0.0
-444248.405365273 3.330538863369615e7 0.0
0.0 0.0 0.0

2.5935064277962055e6 8.824346615864707e6 0.0
8.824346615864707e6 -1.1564988796209253e7 0.0
0.0 0.0 0.0

4.1951682078031525e6 6.75367856034997e6 0.0
6.75367856034997e6 -2.217562673382031e7 0.0
0.0 0.0 0.0

-7285.351563720498 1.5823330088325525e7 0.0
1.5823330088325525e7 -6.791134715383252e6 0.0
0.0 0.0 0.0

1.8588384946402553e6 1.0337073577482501e7 0.0
1.0337073577482501e7 -2.8696466902367193e7 0.0
0.0 0.0 0.0

-909518.1639786618 2.4573353534932654e7 0.0
2.4573353534932654e7 -1.6618260136358007e6 0.0
0.0 0.0 0.0

-7.470908688566554e6 1.5159278305675946e7 0.0
1.5159278305675946e7 2.5902563512947585e7 0.0
0.0 0.0 0.0

-1.0933886736962685e7 -797908.7725220089 0.0
-797908.7725220089 3.051956735528088e7 0.0
0.0 0.0 0.0

-743925.7478419254 1.5873232236175384e7 0.0
1.5873232236175384e7 -7.03168659099605e6 0.0
0.0 0.0 0.0

3.46249337660243e6 7.333795663192376e6 0.0
7.333795663192376e6 -2.662464918206539e7 0.0
0.0 0.0 0.0

-2.8619134686485436e6 1.5908651848065216e7 0.0
1.5908651848065216e7 -291757.39634327404 0.0
0.0 0.0 0.0

-4.2652226459297165e6 1.7735583326454606e7 0.0
1.7735583326454606e7 2.120488161428502e6 0.0
0.0 0.0 0.0

-1.1109403561191646e7 3.2450508480658857e6 0.0
3.2450508480658857e6 1.7797377006640162e7 0.0
0.0 0.0 0.0

143028.9049300903 2.0680414357763596e7 0.0
2.0680414357763596e7 -5.560519937129549e6 0.0
0.0 0.0 0.0

645039.5051656596 1.610119161764247e7 0.0
1.610119161764247e7 -4.121093315320046e6 0.0
0.0 0.0 0.0

-2.3807397117115417e6 2.0125615274946753e7 0.0
2.0125615274946753e7 -1.3645889468244542e6 0.0
0.0 0.0 0.0

4.48653902527684e6 3.3888609874896724e6 0.0
3.3888609874896724e6 -3.184329758170274e7 0.0
0.0 0.0 0.0

-4.382471665669015e6 1.8139269171745606e7 0.0
1.8139269171745606e7 3.0707856206367584e6 0.0
0.0 0.0 0.0

1.0671957596421945e6 1.2006108676932072e7 0.0
1.2006108676932072e7 -1.0115179143973375e7 0.0
0.0 0.0 0.0

-3.0810364129748177e6 9.49132858604335e6 0.0
9.49132858604335e6 -695669.4013720625 0.0
0.0 0.0 0.0

-732037.4967869321 1.1936621298542446e7 0.0
1.1936621298542446e7 -4.440767111627403e6 0.0
0.0 0.0 0.0

-4.85633092717414e6 4.889547363031944e6 0.0
4.889547363031944e6 3.8982717444581846e6 0.0
0.0 0.0 0.0

803168.9748790693 1.5470720273309728e7 0.0
1.5470720273309728e7 -4.929250079491232e6 0.0
0.0 0.0 0.0

-1.184883358385536e7 5.656904424181097e6 0.0
5.656904424181097e6 2.56931967642508e7 0.0
0.0 0.0 0.0

401383.8565854323 1.3312747515812702e7 0.0
1.3312747515812702e7 -8.927481186503286e6 0.0
0.0 0.0 0.0

-2.4268102211980005e6 5.324340472551521e6 0.0
5.324340472551521e6 -117711.88083436864 0.0
0.0 0.0 0.0

-4.549916502005463e6 2.3996658434487708e7 0.0
2.3996658434487708e7 4.260922439259208e6 0.0
0.0 0.0 0.0

-1.376104700854424e6 1.9142956203412425e7 0.0
1.9142956203412425e7 -4.938213686858295e6 0.0
0.0 0.0 0.0

1.2699315381081356e6 1.3898101614077497e7 0.0
1.3898101614077497e7 -1.6523451856284743e7 0.0
0.0 0.0 0.0

2.20339708673233e6 9.361465873079494e6 0.0
9.361465873079494e6 -1.0773016355084391e7 0.0
0.0 0.0 0.0

-3.4600329787567984e6 1.9489367473040983e7 0.0
1.9489367473040983e7 2.895688483771598e6 0.0
0.0 0.0 0.0

-8.440000140614841e6 1.6638567116789669e7 0.0
1.6638567116789669e7 1.735068735709514e7 0.0
0.0 0.0 0.0

1.3284644882599565e6 1.7254184609990407e7 0.0
1.7254184609990407e7 1.0653838778240941e7 0.0
0.0 0.0 0.0

3.129884914054893e6 7.5328861145856185e6 0.0
7.5328861145856185e6 -2.8471644389026277e7 0.0
0.0 0.0 0.0

-4.1545786926566698e6 1.7734799823183797e7 0.0
1.7734799823183797e7 5.56537646659168e6 0.0
0.0 0.0 0.0

-3.738116514756359e6 1.8515742491064556e7 0.0
1.8515742491064556e7 3.6431641694285506e6 0.0
0.0 0.0 0.0

-1.0882056449106203e7 7.53903227617257e6 0.0
7.53903227617257e6 1.29208549800234e7 0.0
0.0 0.0 0.0

-569877.4806082514 2.5051336364547018e7 0.0
2.5051336364547018e7 -1.7117555792615707e6 0.0
0.0 0.0 0.0

554756.4163339916 1.1808843035294121e7 0.0
1.1808843035294121e7 -7.900852646844e6 0.0
0.0 0.0 0.0

-1.005049862861386e7 1.3825429689730806e7 0.0
1.3825429689730806e7 1.5058142217300683e7 0.0
0.0 0.0 0.0

2.2145053828956042e6 8.915842159798592e6 0.0
8.915842159798592e6 -1.0177962153799629e7 0.0
0.0 0.0 0.0

-2.2752872830469636e6 7.437140683151121e6 0.0
7.437140683151121e6 1.761163715270718e6 0.0
0.0 0.0 0.0

-3.2853213585176184e6 1.9724735685736366e7 0.0
1.9724735685736366e7 2.1277955711611146e6 0.0
0.0 0.0 0.0

-3.259066263568245e6 2.0356863253972933e7 0.0
2.0356863253972933e7 2.238180657033449e6 0.0
0.0 0.0 0.0

326759.26481411746 1.2995151675890617e7 0.0
1.2995151675890617e7 -8.288741317312341e6 0.0
0.0 0.0 0.0

1.1954830508076109e6 1.6778945764112335e7 0.0
1.6778945764112335e7 -5.173383511505818e6 0.0
0.0 0.0 0.0

6.241156833993258e6 2.1692743038403813e7 0.0
2.1692743038403813e7 -5.727394939499407e6 0.0
0.0 0.0 0.0

-4.868969843596265e6 1.9118481283396557e7 0.0
1.9118481283396557e7 6.486143102614328e6 0.0
0.0 0.0 0.0

-5.477925768004894e6 1.4574918398250364e7 0.0
1.4574918398250364e7 -2.678241371025543e7 0.0
0.0 0.0 0.0

1.322603247916272e6 9.992178507980365e6 0.0
9.992178507980365e6 -8.410617851626074e6 0.0
0.0 0.0 0.0

-1.098046688609093e7 1.738369241064867e6 0.0
1.738369241064867e6 2.1063818705260355e7 0.0
0.0 0.0 0.0

-1.444333972180487e6 1.7627692310118914e7 0.0
1.7627692310118914e7 -1.2927913510786963e6 0.0
0.0 0.0 0.0

-3.752322117763817e6 1.8135452981681596e7 0.0
1.8135452981681596e7 -786631.5008455846 0.0
0.0 0.0 0.0

-3.9445998420088366e6 1.811336481474861e7 0.0
1.811336481474861e7 4.5363897105943635e6 0.0
0.0 0.0 0.0

-1.0645474506230272e7 -304650.19149130816 0.0
-304650.19149130816 2.3681894222981952e7 0.0
0.0 0.0 0.0

-4.991563974999202e6 2.4488625863519922e7 0.0
2.4488625863519922e7 4.432216252163523e6 0.0
0.0 0.0 0.0

-3.8521194350718465e6 1.9415132888605226e7 0.0
1.9415132888605226e7 1.6009320016044094e6 0.0
0.0 0.0 0.0

1.286493041316062e6 1.5560636937321251e7 0.0
1.5560636937321251e7 -260545.53928912804 0.0
0.0 0.0 0.0

1.9360091846855294e6 1.4374944203170735e7 0.0
1.4374944203170735e7 6.453364218495412e6 0.0
0.0 0.0 0.0

-4.395677422976465e6 1.728103815019641e7 0.0
1.728103815019641e7 6.621366887015693e6 0.0
0.0 0.0 0.0

-6.86473037319432e6 1.545561112278481e7 0.0
1.545561112278481e7 1.0441739540653419e7 0.0
0.0 0.0 0.0

3.3571474555121646e6 6.265206372233494e6 0.0
6.265206372233494e6 -1.1340067460596064e7 0.0
0.0 0.0 0.0

-2.1777733114890186e6 2.029245705629967e7 0.0
2.029245705629967e7 -1.991009119320129e6 0.0
0.0 0.0 0.0

-9.981364838177953e6 1.1833188003889387e7 0.0
1.1833188003889387e7 1.6758339956901569e7 0.0
0.0 0.0 0.0

3.9609852150846673e6 4.747902873211215e6 0.0
4.747902873211215e6 -1.732814924728822e7 0.0
0.0 0.0 0.0

-2.599352879713271e6 1.8855389815865163e7 0.0
1.8855389815865163e7 -3.771184723859585e6 0.0
0.0 0.0 0.0

-3.798095453368851e6 1.7779029706126533e7 0.0
1.7779029706126533e7 3.674493688401195e6 0.0
0.0 0.0 0.0

-1.5413194175508264e6 4.999902213400065e6 0.0
4.999902213400065e6 -1.2389771269993286e6 0.0
0.0 0.0 0.0

1.7848546083128415e6 1.0010956352192616e7 0.0
1.0010956352192616e7 -1.3332337142183239e7 0.0
0.0 0.0 0.0

-3.802339886608088e6 3.931095403145019e7 0.0
3.931095403145019e7 1.925412133476424e6 0.0
0.0 0.0 0.0

2.7169083817324657e6 6.982346449268199e6 0.0
6.982346449268199e6 -4.751302784505751e7 0.0
0.0 0.0 0.0

3.995094064590442e6 5.58249141986097e6 0.0
5.58249141986097e6 -1.993723725763476e7 0.0
0.0 0.0 0.0

2.3157136479295045e6 1.1128159871241918e7 0.0
1.1128159871241918e7 -1.4799594721898139e7 0.0
0.0 0.0 0.0

-4.0856657459199596e6 1.864124319061848e7 0.0
1.864124319061848e7 4.582809197684359e6 0.0
0.0 0.0 0.0

1.217264772243455e6 1.285362680556834e7 0.0
1.285362680556834e7 -1.9745051685998674e7 0.0
0.0 0.0 0.0

1.258612477651475e6 9.527980459630243e6 0.0
9.527980459630243e6 -7.792130392033961e6 0.0
0.0 0.0 0.0

-2.332571751790244e6 9.078662666864995e6 0.0
9.078662666864995e6 -1.9307236056325454e6 0.0
0.0 0.0 0.0

1.4120570069973818e6 1.628105549004852e7 0.0
1.628105549004852e7 1.1857206195190111e7 0.0
0.0 0.0 0.0

-7.648383638478467e6 1.5433539526996322e7 0.0
1.5433539526996322e7 2.4265305164745398e7 0.0
0.0 0.0 0.0

6.685750446065182e6 1.3056032347025104e7 0.0
1.3056032347025104e7 6.062288549975454e6 0.0
0.0 0.0 0.0

-4.533425685131647e6 2.645255440431972e7 0.0
2.645255440431972e7 3.00563948266943e6 0.0
0.0 0.0 0.0

-1.1431293524843485e6 1.341371602888043e7 0.0
1.341371602888043e7 -7.123616324780952e6 0.0
0.0 0.0 0.0

-2.2777616296616297e7 2.081765111749742e7 0.0
2.081765111749742e7 1.3164231039665667e6 0.0
0.0 0.0 0.0

-256476.23051155498 1.45006633657828e7 0.0
1.45006633657828e7 -7.677940403944662e6 0.0
0.0 0.0 0.0

-3.672173317477084e6 1.8150592677226905e7 0.0
1.8150592677226905e7 2.75025931367746e6 0.0
0.0 0.0 0.0

-42668.07357419375 1.1884872638181467e7 0.0
1.1884872638181467e7 -6.187868744271737e6 0.0
0.0 0.0 0.0

-188606.85964915063 1.3912821041064901e7 0.0
1.3912821041064901e7 -2.0016015960521176e7 0.0
0.0 0.0 0.0

3.774031751875342e6 5.3640100492704e6 0.0
5.3640100492704e6 -1.6556429294337582e7 0.0
0.0 0.0 0.0

2.789601132862199e6 9.627257687544279e6 0.0
9.627257687544279e6 -2.597131347644076e7 0.0
0.0 0.0 0.0

-2.6950931882067304e6 1.7388229932753917e7 0.0
1.7388229932753917e7 1.2764396697650697e7 0.0
0.0 0.0 0.0

3.927808220373393e6 7.067578456295708e6 0.0
7.067578456295708e6 -1.863610978266446e7 0.0
0.0 0.0 0.0

-2.3527633547083735e6 1.8981244680450894e7 0.0
1.8981244680450894e7 -4.302414616533913e6 0.0
0.0 0.0 0.0

-895581.4411366556 1.6552630248413293e7 0.0
1.6552630248413293e7 -9.34178203642426e6 0.0
0.0 0.0 0.0

-1.9645066642333656e6 1.18125815898959e7 0.0
1.18125815898959e7 -4.2363719099996975e6 0.0
0.0 0.0 0.0

-4.481052259824638e6 1.3247745549569547e7 0.0
1.3247745549569547e7 1.5315791149965278e6 0.0
0.0 0.0 0.0

-9.971095164477492e6 1.438518865576606e7 0.0
1.438518865576606e7 1.5792188839545729e7 0.0
0.0 0.0 0.0

2.8617311850691633e6 9.102378341502773e6 0.0
9.102378341502773e6 -1.3520771599124739e7 0.0
0.0 0.0 0.0

-5.547091245661726e6 2.8095547857370798e7 0.0
2.8095547857370798e7 3.122327343933904e6 0.0
0.0 0.0 0.0

-5.626984699926898e6 2.488951219361487e7 0.0
2.488951219361487e7 4.734708962441788e6 0.0
0.0 0.0 0.0

-9.92107052254603e6 1.5344760955428144e7 0.0
1.5344760955428144e7 1.6749700229067352e7 0.0
0.0 0.0 0.0

-1.2786061011938064e6 1.293224464054558e7 0.0
1.293224464054558e7 -4.262020232242415e6 0.0
0.0 0.0 0.0

1.2276714873341266e6 1.3766013798282487e7 0.0
1.3766013798282487e7 -1.3210069828458637e7 0.0
0.0 0.0 0.0

3.9430575696611153e6 6.899094994859315e6 0.0
6.899094994859315e6 -1.6883049619650032e7 0.0
0.0 0.0 0.0

-4.422410851953696e6 2.0082393951615043e7 0.0
2.0082393951615043e7 8.821973551894184e6 0.0
0.0 0.0 0.0

-1.2610878845963648e7 6.181800332180071e6 0.0
6.181800332180071e6 1.6418708590605088e7 0.0
0.0 0.0 0.0

862750.09010882 2.2276823535391748e7 0.0
2.2276823535391748e7 -4.1628208560062507e6 0.0
0.0 0.0 0.0

-9.720828869079424e6 799941.9385821997 0.0
799941.9385821997 4.180184275277623e7 0.0
0.0 0.0 0.0

-1.8627891420398434e6 1.6600167746081643e7 0.0
1.6600167746081643e7 -6.40354564708244e6 0.0
0.0 0.0 0.0

-9.231204016857188e6 -5.190046064684788e6 0.0
-5.190046064684788e6 1.9994283122218527e7 0.0
0.0 0.0 0.0

-5.747006380603282e6 3.1620554150581555e6 0.0
3.1620554150581555e6 8.771579970731216e6 0.0
0.0 0.0 0.0

3.296177256914663e6 5.699387337072307e6 0.0
5.699387337072307e6 -1.0899523697711844e7 0.0
0.0 0.0 0.0

-1.1309381062760573e7 1.1677447957818944e7 0.0
1.1677447957818944e7 2.5152855763572488e7 0.0
0.0 0.0 0.0

3.0143405155547056e6 9.96287703704553e6 0.0
9.96287703704553e6 -2.1862223888359893e7 0.0
0.0 0.0 0.0

-2.195815855850227e6 1.9092573653743565e7 0.0
1.9092573653743565e7 -2.481976899705519e6 0.0
0.0 0.0 0.0

-3.6778521204587417e6 1.9170084931347787e7 0.0
1.9170084931347787e7 3.725025436049892e6 0.0
0.0 0.0 0.0

-1.8417200882688495e6 1.4134213040922558e7 0.0
1.4134213040922558e7 -2.750025804028917e6 0.0
0.0 0.0 0.0

-3.8781927232797565e6 1.9521031449657287e7 0.0
1.9521031449657287e7 5.552394108065089e6 0.0
0.0 0.0 0.0

1.3625896465079188e6 5.687779423572904e6 0.0
5.687779423572904e6 -6.969068399559799e6 0.0
0.0 0.0 0.0

-2.847678970182894e6 1.6357464881195867e7 0.0
1.6357464881195867e7 -3.364089304295754e6 0.0
0.0 0.0 0.0

4.7488199127490735e6 2.22548902746458e7 0.0
2.22548902746458e7 -5.260408230848946e6 0.0
0.0 0.0 0.0

1.0774001952096107e6 8.909032881173132e6 0.0
8.909032881173132e6 -7.323473947463938e6 0.0
0.0 0.0 0.0

-95632.61629341356 1.345195403924737e7 0.0
1.345195403924737e7 -7.342094854516496e6 0.0
0.0 0.0 0.0

-3.094703503229453e6 1.875963906242284e7 0.0
1.875963906242284e7 -4.485475634146271e6 0.0
0.0 0.0 0.0

-2.066509704498585e6 1.3738126830603363e7 0.0
1.3738126830603363e7 -1.9232767201832095e6 0.0
0.0 0.0 0.0

6.586210805523546e6 1.8577366248993997e7 0.0
1.8577366248993997e7 -3.7906987485103933e6 0.0
0.0 0.0 0.0

-780340.2806489918 4.581568633092832e6 0.0
4.581568633092832e6 -2.351927513360258e6 0.0
0.0 0.0 0.0

4.171488318235241e6 4.978639365020162e6 0.0
4.978639365020162e6 -2.3704607720489904e7 0.0
0.0 0.0 0.0

-1.1004093440271635e6 3.7310678358020196e6 0.0
3.7310678358020196e6 1.523890482993769e6 0.0
0.0 0.0 0.0

-1.5915098617489373e6 8.661489803537825e6 0.0
8.661489803537825e6 -3.0512423500476484e6 0.0
0.0 0.0 0.0

-2.086359160740823e6 1.4345397855192777e7 0.0
1.4345397855192777e7 -5.070666405141064e6 0.0
0.0 0.0 0.0

-5.2769452946710475e6 4.46485575267248e6 0.0
4.46485575267248e6 8.089875116239166e6 0.0
0.0 0.0 0.0

2.5869378763332833e6 6.336628102884688e6 0.0
6.336628102884688e6 -8.561054003981844e6 0.0
0.0 0.0 0.0

103390.81634808751 1.6708854697835403e7 0.0
1.6708854697835403e7 -1.1340578812145608e7 0.0
0.0 0.0 0.0

-880307.6856357142 8.254917930802423e6 0.0
8.254917930802423e6 -4.196955516745154e6 0.0
0.0 0.0 0.0

-3.459114823932233e6 3.574596626280316e7 0.0
3.574596626280316e7 1.4055657163684722e6 0.0
0.0 0.0 0.0

6.373201152732995e6 1.837771571950824e7 0.0
1.837771571950824e7 7.8399229858303275e6 0.0
0.0 0.0 0.0

-264630.61962213484 7.783762046197234e6 0.0
7.783762046197234e6 -5.051607155709176e6 0.0
0.0 0.0 0.0

-6.202916411161456e6 1.1985029432233373e7 0.0
1.1985029432233373e7 9.932551514836894e6 0.0
0.0 0.0 0.0

2.0366666512208707e6 4.461646455720893e6 0.0
4.461646455720893e6 -6.468270377957061e6 0.0
0.0 0.0 0.0

-1.2068860334393967e7 5.9890891621627435e6 0.0
5.9890891621627435e6 2.4025960772464097e7 0.0
0.0 0.0 0.0

279148.22981040645 7.26880314898633e6 0.0
7.26880314898633e6 -5.9714991733471975e6 0.0
0.0 0.0 0.0

-6.835966891893098e6 2.8344975454119444e7 0.0
2.8344975454119444e7 5.0061259622992e6 0.0
0.0 0.0 0.0

1.5639064616158279e6 2.2459425719686046e7 0.0
2.2459425719686046e7 -4.2525402953241505e6 0.0
0.0 0.0 0.0

4.191915627806749e6 6.301962578776391e6 0.0
6.301962578776391e6 -1.7641511235917524e7 0.0
0.0 0.0 0.0

-1.132117956582826e6 1.6969172801849578e7 0.0
1.6969172801849578e7 -8.372539852526526e6 0.0
0.0 0.0 0.0

3.5442902509911647e6 7.087553803224938e6 0.0
7.087553803224938e6 -2.4301946207407027e7 0.0
0.0 0.0 0.0

-2.544936531430794e6 1.480843605732323e7 0.0
1.480843605732323e7 -4.0133133169370303e6 0.0
0.0 0.0 0.0

151275.68752621347 1.6769203463384744e7 0.0
1.6769203463384744e7 9.510612941989765e6 0.0
0.0 0.0 0.0

3.469365264458266e6 2.2506770850495808e7 0.0
2.2506770850495808e7 -4.8023340477519035e6 0.0
0.0 0.0 0.0

1.0552393504812578e6 8.536068990751773e6 0.0
8.536068990751773e6 -6.5770784660453e6 0.0
0.0 0.0 0.0

2.6256503275261144e6 7.873104172071598e6 0.0
7.873104172071598e6 -1.0392762960607527e7 0.0
0.0 0.0 0.0

-417294.99066543684 1.0507158997909933e7 0.0
1.0507158997909933e7 -3.981403475163185e6 0.0
0.0 0.0 0.0

-6.658643272577842e6 2.5253071970781818e7 0.0
2.5253071970781818e7 4.981530395310091e6 0.0
0.0 0.0 0.0

-3.974811141692764e6 1.2740186232132278e7 0.0
1.2740186232132278e7 245116.52582473448 0.0
0.0 0.0 0.0

2.548712135609033e6 2.581186974595019e7 0.0
2.581186974595019e7 -2.941080911900105e6 0.0
0.0 0.0 0.0

-1.6181167634322783e6 1.45002157708161e7 0.0
1.45002157708161e7 -3.5420718732612655e6 0.0
0.0 0.0 0.0

2.862930501057089e6 1.6378978660754317e7 0.0
1.6378978660754317e7 1.4692101595428929e7 0.0
0.0 0.0 0.0

-2.6718402903685737e6 1.8403154702209346e7 0.0
1.8403154702209346e7 -2.984306764592551e6 0.0
0.0 0.0 0.0

-2.577111521806362e6 2.052220755675275e7 0.0
2.052220755675275e7 -479768.7198959066 0.0
0.0 0.0 0.0

-450276.54314726964 1.6085121875613151e7 0.0
1.6085121875613151e7 -1.1139455667072417e7 0.0
0.0 0.0 0.0

349906.57149226405 1.2034819277391614e7 0.0
1.2034819277391614e7 -2.8058694726495676e7 0.0
0.0 0.0 0.0

-9.669130563628167e6 1.497566583359059e7 0.0
1.497566583359059e7 2.3029000865781665e7 0.0
0.0 0.0 0.0

921902.4028344573 1.0294790690540988e7 0.0
1.0294790690540988e7 -1.0574622642425492e7 0.0
0.0 0.0 0.0

-1.2201183567685245e7 6.299499082677637e6 0.0
6.299499082677637e6 2.223606045443612e7 0.0
0.0 0.0 0.0

2.6287892230616445e6 1.0931995511928715e7 0.0
1.0931995511928715e7 -1.987750889401378e7 0.0
0.0 0.0 0.0

-1.5826602064702138e6 1.0861219778055761e7 0.0
1.0861219778055761e7 -4.522207950614406e6 0.0
0.0 0.0 0.0

3.184111393571434e6 4.449532754152245e6 0.0
4.449532754152245e6 -1.0915685562276792e7 0.0
0.0 0.0 0.0

-3.9293533085095263e6 1.5898584068558374e7 0.0
1.5898584068558374e7 55541.35332849715 0.0
0.0 0.0 0.0

-3.8097617365692006e6 2.00032272099728e7 0.0
2.00032272099728e7 1.6816353295534665e6 0.0
0.0 0.0 0.0

-1.2414194812442511e6 2.312990601043515e7 0.0
2.312990601043515e7 -2.4202535590898204e6 0.0
0.0 0.0 0.0

-2.713840981789385e6 1.5593432965778124e7 0.0
1.5593432965778124e7 -3.6828310891188714e6 0.0
0.0 0.0 0.0

2.575965246608338e6 5.771285414288926e6 0.0
5.771285414288926e6 -7.985651199210994e6 0.0
0.0 0.0 0.0

2.411268002993121e6 2.2549239864697527e7 0.0
2.2549239864697527e7 -4.504464540964297e6 0.0
0.0 0.0 0.0

-1.1690391634262435e7 7.422870079737943e6 0.0
7.422870079737943e6 1.8179163944736246e7 0.0
0.0 0.0 0.0

3.3169057462303843e6 6.981376695430579e6 0.0
6.981376695430579e6 -2.9734930814375844e7 0.0
0.0 0.0 0.0

547485.3138964488 1.8351992498182982e7 0.0
1.8351992498182982e7 9.869142175592346e6 0.0
0.0 0.0 0.0

-3.865028655620543e6 2.205043550428123e7 0.0
2.205043550428123e7 3.6882671905531585e6 0.0
0.0 0.0 0.0

-1.820550392831581e6 1.5258533427648038e7 0.0
1.5258533427648038e7 -8.71174087673525e6 0.0
0.0 0.0 0.0

-7.779246174166845e6 1.5751508349797364e7 0.0
1.5751508349797364e7 2.2961258804519363e7 0.0
0.0 0.0 0.0

-3.258291452632872e6 1.5956251872237472e7 0.0
1.5956251872237472e7 -1.086097134481943e7 0.0
0.0 0.0 0.0

-38923.086501329206 1.1258736202612128e7 0.0
1.1258736202612128e7 -8.720137787087131e6 0.0
0.0 0.0 0.0

183269.38814767776 1.6505472083281646e7 0.0
1.6505472083281646e7 1.0857948441232484e7 0.0
0.0 0.0 0.0

-2.816491818415574e6 3.3471014734118633e7 0.0
3.3471014734118633e7 1.4549081905087233e6 0.0
0.0 0.0 0.0

-1.8957252123971872e6 1.8522979175840817e7 0.0
1.8522979175840817e7 -6.64564126421404e6 0.0
0.0 0.0 0.0

3.864234068814957e7 1.5230532325342884e7 0.0
1.5230532325342884e7 2.0062713598166462e6 0.0
0.0 0.0 0.0

-1.74172079307786e6 1.2272701444096988e7 0.0
1.2272701444096988e7 -4.957383111354244e6 0.0
0.0 0.0 0.0

-3.6983653103082296e6 1.624350301725904e7 0.0
1.624350301725904e7 -821797.9540445749 0.0
0.0 0.0 0.0

1.128534667389188e6 1.2604715526126124e7 0.0
1.2604715526126124e7 -1.3266014256393349e7 0.0
0.0 0.0 0.0

-980838.1684498354 2.354599772012862e7 0.0
2.354599772012862e7 -2.376076214524413e6 0.0
0.0 0.0 0.0

3.891665368069496e6 5.902903431990079e6 0.0
5.902903431990079e6 -2.612247667171029e7 0.0
0.0 0.0 0.0

373000.9041410382 7.726373136073154e6 0.0
7.726373136073154e6 -6.666863335142749e6 0.0
0.0 0.0 0.0

2.033639308602103e6 1.0247831147290235e7 0.0
1.0247831147290235e7 -1.5163542036714325e7 0.0
0.0 0.0 0.0

-5.359170955956845e6 1.847108201726151e7 0.0
1.847108201726151e7 1.1779102340799334e7 0.0
0.0 0.0 0.0

-2.9547332943150266e6 1.709085662913006e7 0.0
1.709085662913006e7 -3.056710463470662e6 0.0
0.0 0.0 0.0

-362584.32619538554 1.5224925542713488e7 0.0
1.5224925542713488e7 4.311866630054529e6 0.0
0.0 0.0 0.0

-886670.2416508688 1.1446618818728656e7 0.0
1.1446618818728656e7 -3.6715177178001716e6 0.0
0.0 0.0 0.0

-2.0378250819725515e6 1.6077849098521486e7 0.0
1.6077849098521486e7 -2.932600996619428e6 0.0
0.0 0.0 0.0

1.2311461524602685e6 1.5825722136556458e7 0.0
1.5825722136556458e7 -4.383788993051546e6 0.0
0.0 0.0 0.0

-2.062227500700448e6 3.187591136853271e7 0.0
3.187591136853271e7 1.74604897193691e6 0.0
0.0 0.0 0.0

-2.1797963945723213e6 1.6821259688075725e7 0.0
1.6821259688075725e7 -2.640394818317011e6 0.0
0.0 0.0 0.0

-1.62229155653769e6 6.133855984078737e6 0.0
6.133855984078737e6 1.116218833732414e6 0.0
0.0 0.0 0.0

1.822059528595995e7 1.1626266633073015e7 0.0
1.1626266633073015e7 467285.70191461314 0.0
0.0 0.0 0.0

1.9207237331906687e6 8.909615185240576e6 0.0
8.909615185240576e6 -3.6348181536722675e7 0.0
0.0 0.0 0.0

-3.0979937813171027e6 2.0604117995367e7 0.0
2.0604117995367e7 1.6664008370300285e6 0.0
0.0 0.0 0.0

-3.436975859700749e6 6.914643686994156e6 0.0
6.914643686994156e6 4.168389514473265e6 0.0
0.0 0.0 0.0

-1.1801481523412708e6 1.1864994261083506e7 0.0
1.1864994261083506e7 -5.926823752270313e6 0.0
0.0 0.0 0.0

349138.8063299367 1.0379833344611797e7 0.0
1.0379833344611797e7 -9.024160896747876e6 0.0
0.0 0.0 0.0

-1.8247134793214882e6 3.053792207737234e7 0.0
3.053792207737234e7 1.4141225890293529e6 0.0
0.0 0.0 0.0

2.801249937188564e6 9.259462125099782e6 0.0
9.259462125099782e6 -2.305959584020403e7 0.0
0.0 0.0 0.0

-1.1830047108760862e7 1.8056408396287141e6 0.0
1.8056408396287141e6 1.8191439711633436e7 0.0
0.0 0.0 0.0

-3.4011222343210652e6 1.8296045086487353e7 0.0
1.8296045086487353e7 -8.250569229519705e6 0.0
0.0 0.0 0.0

-4.6946966011546105e6 6.044766016549258e6 0.0
6.044766016549258e6 6.981961366597315e6 0.0
0.0 0.0 0.0

-1.6833626696466422e6 1.5911614157183472e7 0.0
1.5911614157183472e7 -6.767094370777528e6 0.0
0.0 0.0 0.0

-3.4725018085055435e6 1.726553340977453e7 0.0
1.726553340977453e7 -1.3144386781649443e6 0.0
0.0 0.0 0.0

963359.1576124737 1.362202018939005e7 0.0
1.362202018939005e7 -1.6406514508724004e7 0.0
0.0 0.0 0.0

-1.8161076643334837e6 2.9445617614715252e7 0.0
2.9445617614715252e7 1.346021999553708e6 0.0
0.0 0.0 0.0

-5.04456924511385e6 1.9013569631083235e7 0.0
1.9013569631083235e7 1.0737083622797346e7 0.0
0.0 0.0 0.0

-2.2885247835036963e6 1.7534843583000332e7 0.0
1.7534843583000332e7 -2.3684267137943585e6 0.0
0.0 0.0 0.0

3.700572281987151e6 6.499920956908245e6 0.0
6.499920956908245e6 -2.5288483838473234e7 0.0
0.0 0.0 0.0

-2.7830666858627964e6 8.706769892038627e6 0.0
8.706769892038627e6 2.2420570263078175e6 0.0
0.0 0.0 0.0

-1.517141057351551e6 2.859199445849507e7 0.0
2.859199445849507e7 1.479147727799233e6 0.0
0.0 0.0 0.0

2.814875769393714e6 8.043030095904146e6 0.0
8.043030095904146e6 -3.7909529725837596e7 0.0
0.0 0.0 0.0

-1.3268740285879206e6 2.786055701333637e7 0.0
2.786055701333637e7 1.4216609348264502e6 0.0
0.0 0.0 0.0

-1.3383638811302716e6 2.7198846231748715e7 0.0
2.7198846231748715e7 1.244195970765521e6 0.0
0.0 0.0 0.0

-2.848527341572064e6 2.2331416976421773e7 0.0
2.2331416976421773e7 -111142.4110621023 0.0
0.0 0.0 0.0

-2.7536755382709447e6 2.279621672229036e7 0.0
2.279621672229036e7 76896.2239508318 0.0
0.0 0.0 0.0

-2.6760662421149397e6 2.324643751575213e7 0.0
2.324643751575213e7 236828.94143368932 0.0
0.0 0.0 0.0

-2.5897440401706942e6 2.36700942493291e7 0.0
2.36700942493291e7 326263.7338022705 0.0
0.0 0.0 0.0

-2.5358237998108957e6 2.4090959972816497e7 0.0
2.4090959972816497e7 464801.4490809931 0.0
0.0 0.0 0.0

-2.4712437166450797e6 2.45281393781895e7 0.0
2.45281393781895e7 514116.4113486224 0.0
0.0 0.0 0.0

-6.323001130030312e6 1.1834583032667313e7 0.0
1.1834583032667313e7 6.167216734976991e6 0.0
0.0 0.0 0.0

-2.3683404233982144e6 2.4961577118043218e7 0.0
2.4961577118043218e7 629082.4995824022 0.0
0.0 0.0 0.0

-2.4271236074891887e6 2.5431479191483337e7 0.0
2.5431479191483337e7 676236.1025024155 0.0
0.0 0.0 0.0

-9.532960611714508e6 1.3626020175270664e7 0.0
1.3626020175270664e7 1.702788727311744e7 0.0
0.0 0.0 0.0

-1.4129126075743153e6 2.6628247640891995e7 0.0
2.6628247640891995e7 1.2305369805581393e6 0.0
0.0 0.0 0.0

-2.493791892211502e6 2.5851866106877867e7 0.0
2.5851866106877867e7 733740.963648406 0.0
0.0 0.0 0.0

-2.415265067879934e6 2.63774113401769e7 0.0
2.63774113401769e7 843547.0377739815 0.0
0.0 0.0 0.0

-1.4770829987436477e6 2.613910728132946e7 0.0
2.613910728132946e7 1.18335243336464e6 0.0
0.0 0.0 0.0

-1.3620753364485432e6 1.3668443686082065e7 0.0
1.3668443686082065e7 -3.8376323807206773e6 0.0
0.0 0.0 0.0

-2.549249525159989e6 2.6921684383278944e7 0.0
2.6921684383278944e7 809754.2894450641 0.0
0.0 0.0 0.0

-1.6858902052154974e6 2.5643589381421212e7 0.0
2.5643589381421212e7 1.0173232989323412e6 0.0
0.0 0.0 0.0

-1.5519180254047122e6 2.518863144283976e7 0.0
2.518863144283976e7 996281.3445986201 0.0
0.0 0.0 0.0

-1.7452747074786741e6 2.4781821540604137e7 0.0
2.4781821540604137e7 910224.2786053602 0.0
0.0 0.0 0.0

-1.9025039069793466e6 2.4325061678158827e7 0.0
2.4325061678158827e7 831072.7255387858 0.0
0.0 0.0 0.0

-1.9836432366720755e6 2.3921369723305587e7 0.0
2.3921369723305587e7 723215.3812741875 0.0
0.0 0.0 0.0

-2.1530547699867515e6 2.3485751161755297e7 0.0
2.3485751161755297e7 621547.9117809641 0.0
0.0 0.0 0.0

-2.203041641401718e6 2.307017509565289e7 0.0
2.307017509565289e7 512102.99599478184 0.0
0.0 0.0 0.0

-2.282052053092676e6 2.2620713102198057e7 0.0
2.2620713102198057e7 352047.0447719097 0.0
0.0 0.0 0.0

-2.8123559783072635e6 1.931028622088081e7 0.0
1.931028622088081e7 -2.8188156106861737e6 0.0
0.0 0.0 0.0

-9.4766528809502e6 1.5444266417717889e7 0.0
1.5444266417717889e7 2.1938246159131378e7 0.0
0.0 0.0 0.0

-2.8215521745776455e6 2.74911887502256e7 0.0
2.74911887502256e7 843085.842472448 0.0
0.0 0.0 0.0

3.1684209186106436e6 7.705954746253022e6 0.0
7.705954746253022e6 -1.7963961998554856e7 0.0
0.0 0.0 0.0

-3.353743471397375e6 1.9125678589963246e7 0.0
1.9125678589963246e7 2.0342416065959868e6 0.0
0.0 0.0 0.0

-3.26277128703228e6 2.8232834620203573e7 0.0
2.8232834620203573e7 916770.8751055421 0.0
0.0 0.0 0.0

-1.1190960069656674e7 8.596483942635568e6 0.0
8.596483942635568e6 1.7390073181854863e7 0.0
0.0 0.0 0.0

-3.8537786965220715e6 2.908804981856877e7 0.0
2.908804981856877e7 808116.8996625785 0.0
0.0 0.0 0.0

-1.207205543289293e7 7.055457310896085e6 0.0
7.055457310896085e6 1.9417767699353393e7 0.0
0.0 0.0 0.0

-4.612801118338239e6 3.0003282138720572e7 0.0
3.0003282138720572e7 603903.3478119255 0.0
0.0 0.0 0.0

-11414.823370265774 1.5837389627072107e7 0.0
1.5837389627072107e7 -1.2841398443888161e7 0.0
0.0 0.0 0.0

2.6984554716414604e6 9.899150620867686e6 0.0
9.899150620867686e6 -1.4608978738786496e7 0.0
0.0 0.0 0.0

535927.7337830737 1.2167113718139648e7 0.0
1.2167113718139648e7 -2.6224903915642843e7 0.0
0.0 0.0 0.0

-2.5056644032750493e6 1.7286406873958707e7 0.0
1.7286406873958707e7 -1.6248639704209752e6 0.0
0.0 0.0 0.0

-966624.0531898902 1.3735488622337999e7 0.0
1.3735488622337999e7 -7.777928964012839e6 0.0
0.0 0.0 0.0

-2.330255700121826e6 1.8370791613814622e7 0.0
1.8370791613814622e7 -4.725031350554477e6 0.0
0.0 0.0 0.0

-56521.69637063658 1.5985620320132544e7 0.0
1.5985620320132544e7 -1.2884554770417629e7 0.0
0.0 0.0 0.0

4.966212278337195e6 3.0027552320948904e6 0.0
3.0027552320948904e6 -2.1408589993135564e7 0.0
0.0 0.0 0.0

-3.5312368100568103e6 1.1108602821228623e7 0.0
1.1108602821228623e7 3.0991298234995613e6 0.0
0.0 0.0 0.0

-5.533044579331107e6 3.1152240103223197e7 0.0
3.1152240103223197e7 613700.3843755603 0.0
0.0 0.0 0.0

2.2133242701049475e6 1.0558258701175453e7 0.0
1.0558258701175453e7 -1.2463110677961407e7 0.0
0.0 0.0 0.0

-1.2297368793337546e7 7.657669392896738e6 0.0
7.657669392896738e6 2.1479224726904042e7 0.0
0.0 0.0 0.0

-1.8418379943991809e6 1.5305443160176203e7 0.0
1.5305443160176203e7 -3.245067788253838e6 0.0
0.0 0.0 0.0

-1.5814122521191589e6 2.4128445338769995e7 0.0
2.4128445338769995e7 -363317.56317262584 0.0
0.0 0.0 0.0

3.4140085719868997e6 7.122643349841647e6 0.0
7.122643349841647e6 -1.8821581999355644e7 0.0
0.0 0.0 0.0

-9.821079117902238e6 2.8568897867700778e7 0.0
2.8568897867700778e7 5.209110987405997e6 0.0
0.0 0.0 0.0

-6.599172283963684e6 1.3436826795532228e7 0.0
1.3436826795532228e7 7.545961960336585e6 0.0
0.0 0.0 0.0

-1.3530375969463104e7 2.2095784254031796e7 0.0
2.2095784254031796e7 4.450265813550955e6 0.0
0.0 0.0 0.0

728610.6684784321 1.5981063109337315e7 0.0
1.5981063109337315e7 9.15846271949959e6 0.0
0.0 0.0 0.0

-7.3649969350937195e6 3.2833543362533327e7 0.0
3.2833543362533327e7 457390.8368586353 0.0
0.0 0.0 0.0

2.3855869529185407e6 1.0255712030183157e7 0.0
1.0255712030183157e7 -2.232093317013655e7 0.0
0.0 0.0 0.0

-5.338687517106512e6 1.3233978224099929e7 0.0
1.3233978224099929e7 3.9208421429217085e6 0.0
0.0 0.0 0.0

914710.8655400494 1.3833158719004355e7 0.0
1.3833158719004355e7 3.0490366005879776e6 0.0
0.0 0.0 0.0

2.7016031899793474e6 8.420389113154259e6 0.0
8.420389113154259e6 -1.58203132531184e7 0.0
0.0 0.0 0.0

121085.70855754788 1.6376831815509887e7 0.0
1.6376831815509887e7 2.8560280053710574e6 0.0
0.0 0.0 0.0

2.9330346386024756e6 8.2907204360503e6 0.0
8.2907204360503e6 -1.7130829426999863e7 0.0
0.0 0.0 0.0

-232073.1340232666 1.3955119348347234e7 0.0
1.3955119348347234e7 -2.5272603871276015e6 0.0
0.0 0.0 0.0

-2.806044102004677e6 1.7719385737787638e7 0.0
1.7719385737787638e7 -617102.4736270194 0.0
0.0 0.0 0.0

-3.0223081310925935e6 1.7788823879856184e7 0.0
1.7788823879856184e7 -2.7613305333128986e6 0.0
0.0 0.0 0.0

2.143918564696828e6 8.682990357974155e6 0.0
8.682990357974155e6 -1.3048132454774765e7 0.0
0.0 0.0 0.0

1.62988114215654e7 1.881823956354542e7 0.0
1.881823956354542e7 7.296234169231393e6 0.0
0.0 0.0 0.0

1.820463015176109e6 1.1383896253020477e7 0.0
1.1383896253020477e7 -1.2184026478860762e7 0.0
0.0 0.0 0.0

-522311.4292685967 1.3917751591200376e7 0.0
1.3917751591200376e7 -6.346532258808607e6 0.0
0.0 0.0 0.0

-4.859718399065804e6 1.9015645637106974e7 0.0
1.9015645637106974e7 5.405759843752369e6 0.0
0.0 0.0 0.0

817526.083581686 1.0513065522594083e7 0.0
1.0513065522594083e7 -7.534489697619445e6 0.0
0.0 0.0 0.0

-4.910303392155468e6 1.955829949422594e7 0.0
1.955829949422594e7 9.639393989282155e6 0.0
0.0 0.0 0.0

1.8730142577180485e6 1.5899492917553904e7 0.0
1.5899492917553904e7 1.5358720095573397e7 0.0
0.0 0.0 0.0

-8.522630660539474e6 1.0277989163578546e7 0.0
1.0277989163578546e7 1.3961996145730942e7 0.0
0.0 0.0 0.0

-1.0168986832992557e7 3.471898252496085e7 0.0
3.471898252496085e7 -191086.92608040292 0.0
0.0 0.0 0.0

-3.151385040499391e6 1.5949039763803104e7 0.0
1.5949039763803104e7 2.8941919340712085e7 0.0
0.0 0.0 0.0

-3.337470374183624e6 1.3681330297945607e7 0.0
1.3681330297945607e7 -1.6025724845993954e6 0.0
0.0 0.0 0.0

6.555528765146514e6 1.6442354524441013e7 0.0
1.6442354524441013e7 1.0249012592468063e6 0.0
0.0 0.0 0.0

3.7332332654760014e6 6.694767504021939e6 0.0
6.694767504021939e6 -2.099143593783149e7 0.0
0.0 0.0 0.0

2.0407723454005048e6 1.0441123208254451e7 0.0
1.0441123208254451e7 -2.5168087539748818e7 0.0
0.0 0.0 0.0

-6.184920763225071e6 1.60944701623403e7 0.0
1.60944701623403e7 9.225112458294338e6 0.0
0.0 0.0 0.0

-8.763764908386597e6 2.1831943760546807e7 0.0
2.1831943760546807e7 -4.964234406152608e6 0.0
0.0 0.0 0.0

-3.110974572666227e6 1.5558222513927607e7 0.0
1.5558222513927607e7 597443.671592881 0.0
0.0 0.0 0.0

-195566.24508575676 1.4145485512724305e7 0.0
1.4145485512724305e7 -1.039674782408954e7 0.0
0.0 0.0 0.0

-1.3069705353540637e7 2.7739253574980773e7 0.0
2.7739253574980773e7 6.819656169067982e6 0.0
0.0 0.0 0.0

1.9814933823920432e6 1.0605548817070952e7 0.0
1.0605548817070952e7 -1.565303250987894e7 0.0
0.0 0.0 0.0

-3.2060142004863904e6 1.6374362403240986e7 0.0
1.6374362403240986e7 796071.5524531933 0.0
0.0 0.0 0.0

-3.12897758169494e6 7.844093635189519e6 0.0
7.844093635189519e6 3.2252341475838493e6 0.0
0.0 0.0 0.0

-4.928964178231971e6 1.5929256154684799e7 0.0
1.5929256154684799e7 7.945898301816972e6 0.0
0.0 0.0 0.0

-1.2298721638047375e7 5.08811519128038e7 0.0
5.08811519128038e7 -1.301576295956308e6 0.0
0.0 0.0 0.0

-7.557175163099668e6 1.136686902660772e7 0.0
1.136686902660772e7 1.2565678422069615e7 0.0
0.0 0.0 0.0

-2.189636628346124e6 6.304090655580243e6 0.0
6.304090655580243e6 -803154.2243777347 0.0
0.0 0.0 0.0

-2.618717264016901e6 1.8673610396542437e7 0.0
1.8673610396542437e7 -1.1135857034963078e6 0.0
0.0 0.0 0.0

-4.1796522173155956e6 1.878082579856017e7 0.0
1.878082579856017e7 3.192369842972344e6 0.0
0.0 0.0 0.0

-944305.7942795828 1.6567559299003128e7 0.0
1.6567559299003128e7 -6.646070356263202e6 0.0
0.0 0.0 0.0

-3.262892088675289e6 1.8250527322804116e7 0.0
1.8250527322804116e7 -1.7681166419293894e6 0.0
0.0 0.0 0.0

-7.186723094458634e6 1.5873384613932697e6 0.0
1.5873384613932697e6 8.965147364773344e6 0.0
0.0 0.0 0.0

242415.4364470141 1.4738907942108657e7 0.0
1.4738907942108657e7 -4.062354757634233e6 0.0
0.0 0.0 0.0

-4.1656917698020497e6 1.9419088959940195e7 0.0
1.9419088959940195e7 3.3119677451394657e6 0.0
0.0 0.0 0.0

1.3513520239854269e6 9.763443201285873e6 0.0
9.763443201285873e6 -1.141786290159531e7 0.0
0.0 0.0 0.0

603805.9125188601 1.511050476035768e7 0.0
1.511050476035768e7 -3.3655785893778955e6 0.0
0.0 0.0 0.0

-1.5382931340320462e7 2.105650872158996e7 0.0
2.105650872158996e7 2.215475559748589e6 0.0
0.0 0.0 0.0

-6.571452693104415e6 1.2276832279046861e7 0.0
1.2276832279046861e7 1.1135296258693412e7 0.0
0.0 0.0 0.0

166685.18179512303 1.5416255777049046e7 0.0
1.5416255777049046e7 -1.3762928523202404e7 0.0
0.0 0.0 0.0

-4.268340772857355e6 1.9816351025083024e7 0.0
1.9816351025083024e7 5.044645514759313e6 0.0
0.0 0.0 0.0

3.8137424635986956e6 3.2580702163157747e6 0.0
3.2580702163157747e6 -1.2479809158840962e7 0.0
0.0 0.0 0.0

-2.4237541158946203e6 49318.400548010475 0.0
49318.400548010475 2.0956643476218595e6 0.0
0.0 0.0 0.0

-567235.1802477629 790165.0937710312 0.0
790165.0937710312 87032.08317574134 0.0
0.0 0.0 0.0

-7.706609509648768e6 -7.484256680276502e6 0.0
-7.484256680276502e6 1.8776053220474496e7 0.0
0.0 0.0 0.0

58804.1388201025 1.8149354773255668e6 0.0
1.8149354773255668e6 -1.4474847375180223e6 0.0
0.0 0.0 0.0

-6.841007467863124e6 -7.420118908116228e6 0.0
-7.420118908116228e6 1.6196171379265014e7 0.0
0.0 0.0 0.0

3.59322910707574e6 3.42348598509551e6 0.0
3.42348598509551e6 -1.0183860749451067e7 0.0
0.0 0.0 0.0

-3.6455432189203184e6 -2.7679009116705256e6 0.0
-2.7679009116705256e6 4.255214494221166e6 0.0
0.0 0.0 0.0

-5.279515746066919e6 -6.01258224172874e6 0.0
-6.01258224172874e6 9.027724480757754e6 0.0
0.0 0.0 0.0

788466.3052291123 2.546616381026453e6 0.0
2.546616381026453e6 -3.0831715252331886e6 0.0
0.0 0.0 0.0

-5.785055149810948e6 -7.423149724689568e6 0.0
-7.423149724689568e6 1.3143888266411921e7 0.0
0.0 0.0 0.0

2.871940010743205e6 3.4919778869840926e6 0.0
3.4919778869840926e6 -7.793395104130527e6 0.0
0.0 0.0 0.0

1.9685787685166385e6 3.305775137390493e6 0.0
3.305775137390493e6 -5.531110768505948e6 0.0
0.0 0.0 0.0

-2.928751171431288e6 -410440.40754573554 0.0
-410440.40754573554 2.5492642747523068e6 0.0
0.0 0.0 0.0

4.866456783470372e6 3.088919080548428e6 0.0
3.088919080548428e6 -1.9520414615487337e7 0.0
0.0 0.0 0.0

5.011237336675393e6 2.9868775022553145e6 0.0
2.9868775022553145e6 -2.0975150683254108e7 0.0
0.0 0.0 0.0

4.761084640477691e6 3.113118026529022e6 0.0
3.113118026529022e6 -1.8110329346193004e7 0.0
0.0 0.0 0.0

4.629135134587838e6 3.2183604808258894e6 0.0
3.2183604808258894e6 -1.5872777415694924e7 0.0
0.0 0.0 0.0

-4.010772604663029e6 -1.3963965123395848e6 0.0
-1.3963965123395848e6 3.810786677891671e6 0.0
0.0 0.0 0.0

-6.063481595937776e6 -7.456204286859033e6 0.0
-7.456204286859033e6 1.4511432378242318e7 0.0
0.0 0.0 0.0

4.950182396391145e6 3.0871881319521656e6 0.0
3.0871881319521656e6 -2.0315370718568016e7 0.0
0.0 0.0 0.0

4.0571645317701725e6 3.223144937609238e6 0.0
3.223144937609238e6 -1.412683755725244e7 0.0
0.0 0.0 0.0

4.302734854267775e6 3.1997802695308146e6 0.0
3.1997802695308146e6 -1.4991664962404877e7 0.0
0.0 0.0 0.0

4.113361353555152e6 3.2477028032383746e6 0.0
3.2477028032383746e6 -1.3433835248286061e7 0.0
0.0 0.0 0.0

920891.3510060147 1.4245327083714683e7 0.0
1.4245327083714683e7 -1.2381662334779333e7 0.0
0.0 0.0 0.0

-1.0226679246495472e7 9.635448979509646e6 0.0
9.635448979509646e6 1.6407264035229625e7 0.0
0.0 0.0 0.0

-1.2629333760240417e7 4.895694993880907e6 0.0
4.895694993880907e6 2.0480527509277876e7 0.0
0.0 0.0 0.0

-4.690183493639573e6 2.0157800758208018e7 0.0
2.0157800758208018e7 8.71964047713295e6 0.0
0.0 0.0 0.0

-82616.8378774235 1.411642023603889e7 0.0
1.411642023603889e7 -1.8816013927454844e7 0.0
0.0 0.0 0.0

-4.672169103836194e6 1.6571344583627604e7 0.0
1.6571344583627604e7 3.0128696836758936e6 0.0
0.0 0.0 0.0

-1.4532405148274422e7 3.74982668108353e7 0.0
3.74982668108353e7 -871652.6333058109 0.0
0.0 0.0 0.0

-3.50493539147842e6 1.4573018610157449e7 0.0
1.4573018610157449e7 -1.3173506106276913e6 0.0
0.0 0.0 0.0

-3.334465207916615e6 1.706979279841629e7 0.0
1.706979279841629e7 -9.99732774309608e6 0.0
0.0 0.0 0.0

4.618037824668494e6 1.854064877842963e7 0.0
1.854064877842963e7 7.641144895823798e6 0.0
0.0 0.0 0.0

-3.043487001946977e6 1.732899901654338e7 0.0
1.732899901654338e7 6.454603786484158e6 0.0
0.0 0.0 0.0

-4.707557339398423e6 1.6766951003489621e7 0.0
1.6766951003489621e7 7.724456066964222e6 0.0
0.0 0.0 0.0

129266.86203158926 1.7110240617476266e7 0.0
1.7110240617476266e7 -1.0506748310025271e7 0.0
0.0 0.0 0.0

-5.349665749125654e6 1.5316497862447843e7 0.0
1.5316497862447843e7 9.15165452032591e6 0.0
0.0 0.0 0.0

-3.4113849478656333e6 1.870858990613238e7 0.0
1.870858990613238e7 -868324.6358274001 0.0
0.0 0.0 0.0

-2.721070681925061e6 1.7328866539501294e7 0.0
1.7328866539501294e7 -3.760996864128563e6 0.0
0.0 0.0 0.0

-6.859779204410739e6 1.2185410072467862e7 0.0
1.2185410072467862e7 7.616875225730829e6 0.0
0.0 0.0 0.0

-527337.8616428757 1.3283272528320976e7 0.0
1.3283272528320976e7 -8.735616939734308e6 0.0
0.0 0.0 0.0

-3.3803564566049185e6 1.518375509783623e7 0.0
1.518375509783623e7 1.5361557981612727e6 0.0
0.0 0.0 0.0

1.7641260152227217e6 9.23378648441704e6 0.0
9.23378648441704e6 -1.222258836074599e7 0.0
0.0 0.0 0.0

-2.370289066020351e6 -45168.79796658952 0.0
-45168.79796658952 3.9201810736208176e6 0.0
0.0 0.0 0.0

-1.0080023435777238e6 865561.8190602915 0.0
865561.8190602915 1.432230346644656e6 0.0
0.0 0.0 0.0

-5.874519779280168e6 -7.350111135993288e6 0.0
-7.350111135993288e6 1.4413412676814253e7 0.0
0.0 0.0 0.0

-2.7120532827959964e6 -602310.0863779701 0.0
-602310.0863779701 5.338950117576906e6 0.0
0.0 0.0 0.0

-2.7837952449115715e6 -2.1939675342602017e6 0.0
-2.1939675342602017e6 6.199258473805471e6 0.0
0.0 0.0 0.0

4.859028930704951e6 3.0856147129928744e6 0.0
3.0856147129928744e6 -1.9630664449461102e7 0.0
0.0 0.0 0.0

4.864680348475922e6 3.0206866075011687e6 0.0
3.0206866075011687e6 -2.020719587346274e7 0.0
0.0 0.0 0.0

-6.480235927908396e6 -7.244994291982615e6 0.0
-7.244994291982615e6 1.6064028622274658e7 0.0
0.0 0.0 0.0

4.393274014622034e6 3.27520690941745e6 0.0
3.27520690941745e6 -1.5296583658190364e7 0.0
0.0 0.0 0.0

4.045552540201501e6 3.366149287377104e6 0.0
3.366149287377104e6 -1.264689861500642e7 0.0
0.0 0.0 0.0

4.213419770676736e6 3.290576168982994e6 0.0
3.290576168982994e6 -1.4182250744450238e7 0.0
0.0 0.0 0.0

4.11195977011568e6 3.2484807953973846e6 0.0
3.2484807953973846e6 -1.3420242029806037e7 0.0
0.0 0.0 0.0

-4.127453895369105e6 1.3739322937736373e7 0.0
1.3739322937736373e7 510178.16900620307 0.0
0.0 0.0 0.0

-9.310814569966057e6 1.5867038976363873e7 0.0
1.5867038976363873e7 2.0868942082859494e7 0.0
0.0 0.0 0.0

-6.154199530179683e6 1.4919396106332285e7 0.0
1.4919396106332285e7 1.1413472504679786e7 0.0
0.0 0.0 0.0

4.317003480515803e6 5.81490147807083e6 0.0
5.81490147807083e6 -1.7481044957362592e7 0.0
0.0 0.0 0.0

-2.0620371796881668e6 2.0398138492340457e7 0.0
2.0398138492340457e7 -3.7814397233959883e6 0.0
0.0 0.0 0.0

-3.159967513748456e6 1.752158967266744e7 0.0
1.752158967266744e7 1.5434537581529498e7 0.0
0.0 0.0 0.0

-1.2400130641800415e7 1.1564698647611149e7 0.0
1.1564698647611149e7 1.7824679117862258e7 0.0
0.0 0.0 0.0

2.424962745128519e6 8.964625568237096e6 0.0
8.964625568237096e6 -1.4966353203279812e7 0.0
0.0 0.0 0.0

1.9386480815750966e6 1.0943294057232793e7 0.0
1.0943294057232793e7 -1.604591966202936e7 0.0
0.0 0.0 0.0

-2.6242601387274535e6 1.6625618101328213e7 0.0
1.6625618101328213e7 -4.0749241084071e6 0.0
0.0 0.0 0.0

-4.31838993176583e6 1.737690783976467e7 0.0
1.737690783976467e7 1.7261744199515585e7 0.0
0.0 0.0 0.0

-3.2098224474462243e6 9.932890247602822e6 0.0
9.932890247602822e6 2.704776702503291e6 0.0
0.0 0.0 0.0

-1.2410409082353772e6 1.705226322473345e7 0.0
1.705226322473345e7 -5.6914952079663845e6 0.0
0.0 0.0 0.0

-2.7788803600184903e6 2.03631922557251e7 0.0
2.03631922557251e7 224806.9758084732 0.0
0.0 0.0 0.0

1.4044628192699817e6 1.2150149100590749e7 0.0
1.2150149100590749e7 -1.2033527818507716e7 0.0
0.0 0.0 0.0

-2.586411964042694e6 1.7991267168448474e7 0.0
1.7991267168448474e7 -1.3602895909955967e6 0.0
0.0 0.0 0.0

1.0181453171156843e6 2.9694190154372663e6 0.0
2.9694190154372663e6 2.387710331360299e6 0.0
0.0 0.0 0.0

-4.667852780283835e6 1.749398661859395e7 0.0
1.749398661859395e7 1.6722269292127619e7 0.0
0.0 0.0 0.0

2.456114949997958e6 9.45969939994213e6 0.0
9.45969939994213e6 -2.9247664003963567e7 0.0
0.0 0.0 0.0

2.264354454082989e6 1.029666282632199e7 0.0
1.029666282632199e7 -2.3751492415197946e7 0.0
0.0 0.0 0.0

-1.0681191279756734e6 1.636675537060237e7 0.0
1.636675537060237e7 -6.040770706342986e6 0.0
0.0 0.0 0.0

-8.281166894374531e6 2.0319550153892674e7 0.0
2.0319550153892674e7 4.677567149785003e6 0.0
0.0 0.0 0.0

2.9627597122532264e6 6.250667660970292e6 0.0
6.250667660970292e6 -9.970685638502808e6 0.0
0.0 0.0 0.0

-2.9812729300950104e6 1.4705677853419134e7 0.0
1.4705677853419134e7 397371.2720146434 0.0
0.0 0.0 0.0

-3.2545085666778875e6 1.755377627317793e7 0.0
1.755377627317793e7 -2.035772241399481e6 0.0
0.0 0.0 0.0

-2.3581054079338554e6 1.82280443436687e7 0.0
1.82280443436687e7 -2.081424328693098e6 0.0
0.0 0.0 0.0

-92013.65692582168 1.4106089169536145e7 0.0
1.4106089169536145e7 -2.035168064022003e7 0.0
0.0 0.0 0.0

2.1942369066810515e6 1.073203691914003e7 0.0
1.073203691914003e7 -2.000755098884477e7 0.0
0.0 0.0 0.0

-4.548395218946498e6 1.0385532582595387e7 0.0
1.0385532582595387e7 2.0186696797879841e6 0.0
0.0 0.0 0.0

-6.03109580597421e6 1.5819525297621489e7 0.0
1.5819525297621489e7 8.285072575385088e6 0.0
0.0 0.0 0.0

1.0769251814251067e6 1.2964957436698157e7 0.0
1.2964957436698157e7 -2.1065365513725214e7 0.0
0.0 0.0 0.0

-1.7388177086773627e6 1.881011536698484e7 0.0
1.881011536698484e7 -4.04272965027386e6 0.0
0.0 0.0 0.0

2.3487028339196527e6 3.369343302898657e6 0.0
3.369343302898657e6 -6.343454978025798e6 0.0
0.0 0.0 0.0

1.5281075502230395e6 2.5504467458482422e7 0.0
2.5504467458482422e7 -2.4528715521885618e6 0.0
0.0 0.0 0.0

2.5511215573547743e6 6.881651272485708e6 0.0
6.881651272485708e6 -9.23555381468321e6 0.0
0.0 0.0 0.0

-1.055163756266928e6 1.2802262676586403e7 0.0
1.2802262676586403e7 -4.1312893259480773e6 0.0
0.0 0.0 0.0

-5.613063115718672e6 1.8054993585273873e7 0.0
1.8054993585273873e7 1.019240022972592e7 0.0
0.0 0.0 0.0

-2.825741463453277e6 1.2308552579701416e7 0.0
1.2308552579701416e7 921479.1886373311 0.0
0.0 0.0 0.0

-3.0499190776597015e6 1.4077255171000808e7 0.0
1.4077255171000808e7 -2.4466290875900215e6 0.0
0.0 0.0 0.0

-3.488469991573451e6 1.7989832547070652e7 0.0
1.7989832547070652e7 -1.0440544519274385e6 0.0
0.0 0.0 0.0

-4.199729734993894e6 9.163140826258974e6 0.0
9.163140826258974e6 1.5568643921847076e6 0.0
0.0 0.0 0.0

-6.1813002216796875e6 582763.1084395928 0.0
582763.1084395928 8.805464395053174e6 0.0
0.0 0.0 0.0

-5.151611585120687e6 1.5005539146522792e7 0.0
1.5005539146522792e7 8.159791234753683e6 0.0
0.0 0.0 0.0

-4.162570932528156e6 1.6602608658233631e7 0.0
1.6602608658233631e7 4.70892617996548e6 0.0
0.0 0.0 0.0

741577.2460464132 6.714697387263134e6 0.0
6.714697387263134e6 -6.7537728602969e6 0.0
0.0 0.0 0.0

-5.980281932052987e6 1.3245644683508104e7 0.0
1.3245644683508104e7 9.687534417705465e6 0.0
0.0 0.0 0.0

-3.0420034320158865e6 1.8479626500140425e7 0.0
1.8479626500140425e7 -2.473599981139035e6 0.0
0.0 0.0 0.0

3.6585361182613783e6 8.43923888888381e6 0.0
8.43923888888381e6 -2.0759267530620962e7 0.0
0.0 0.0 0.0

-6.964865287534258e6 2.0513892578082338e7 0.0
2.0513892578082338e7 3.9952714933518074e6 0.0
0.0 0.0 0.0

-2.4912325827573338e6 1.5889105540636826e7 0.0
1.5889105540636826e7 -4.396774460095235e6 0.0
0.0 0.0 0.0

2.168951985372004e6 3.4221425714823846e6 0.0
3.4221425714823846e6 -5.546763962195672e6 0.0
0.0 0.0 0.0

-4.510491566173721e6 2.169576127249322e7 0.0
2.169576127249322e7 6.2475272151084e6 0.0
0.0 0.0 0.0

-1.1967935184647974e7 6.714504269770517e6 0.0
6.714504269770517e6 1.4969996124478597e7 0.0
0.0 0.0 0.0

-2.959682262191282e6 1.5279061316088544e7 0.0
1.5279061316088544e7 -2.950408850534186e6 0.0
0.0 0.0 0.0

-2.426574122852832e6 1.951441126728931e7 0.0
1.951441126728931e7 -1.5925775444728867e6 0.0
0.0 0.0 0.0

-3.3666088424924924e6 2.0016008602131464e7 0.0
2.0016008602131464e7 -365926.27543456457 0.0
0.0 0.0 0.0

-2.7865723707658816e6 1.8013454526127957e7 0.0
1.8013454526127957e7 -3.4531560264910227e6 0.0
0.0 0.0 0.0

-3.063308445166527e6 1.81405725842516e7 0.0
1.81405725842516e7 333220.89502080274 0.0
0.0 0.0 0.0

3.0771728673725133e6 3.445976961502639e6 0.0
3.445976961502639e6 -8.548921408326138e6 0.0
0.0 0.0 0.0

-1.872345022084081e6 2.1804194274451226e7 0.0
2.1804194274451226e7 -2.93465513907919e6 0.0
0.0 0.0 0.0

-1.0374097291966531e7 1.698141474062446e7 0.0
1.698141474062446e7 -4.726532470104006e7 0.0
0.0 0.0 0.0

1.0188948306959195e7 1.6991893097953353e7 0.0
1.6991893097953353e7 4.8163815900337204e7 0.0
0.0 0.0 0.0

1.112433720288678e6 1.3080732611480476e7 0.0
1.3080732611480476e7 -1.5323936293366708e7 0.0
0.0 0.0 0.0

-1.613789412985679e6 1.7505138466148328e7 0.0
1.7505138466148328e7 -4.729361450232926e6 0.0
0.0 0.0 0.0

-2.2860615081448145e6 1.3941081085397813e7 0.0
1.3941081085397813e7 -1.582655505387481e7 0.0
0.0 0.0 0.0

-2.303023271308432e6 1.512976207622245e7 0.0
1.512976207622245e7 -4.736645269354418e6 0.0
0.0 0.0 0.0

2089.6404833332635 1.7343179061444283e7 0.0
1.7343179061444283e7 -1.0356458452767981e7 0.0
0.0 0.0 0.0

-1.431789318215468e6 1.4202249918822834e7 0.0
1.4202249918822834e7 -6.780059261329242e6 0.0
0.0 0.0 0.0

-3.665712341195297e6 1.775230270974898e7 0.0
1.775230270974898e7 -305887.7932661091 0.0
0.0 0.0 0.0

2.7249811023670156e6 8.45292287366311e6 0.0
8.45292287366311e6 -3.565419997649068e7 0.0
0.0 0.0 0.0

-7.505399318287376e6 1.929101836619272e7 0.0
1.929101836619272e7 3.0437698387301625e6 0.0
0.0 0.0 0.0

-4.62705667004998e6 1.8088477639888216e7 0.0
1.8088477639888216e7 4.988642855884104e6 0.0
0.0 0.0 0.0

-987009.1462203856 1.4377373076089898e7 0.0
1.4377373076089898e7 -5.340710146572428e6 0.0
0.0 0.0 0.0

1.9964631735447869e6 1.1238497252752282e7 0.0
1.1238497252752282e7 -1.8995549734975267e7 0.0
0.0 0.0 0.0

1.0024091720143873e7 1.745850916797045e7 0.0
1.745850916797045e7 3.34136389495875e7 0.0
0.0 0.0 0.0

-1.0365626658133985e6 1.7808180330345105e7 0.0
1.7808180330345105e7 -7.103269967863278e6 0.0
0.0 0.0 0.0

-2.3227968685816016e7 4.188973308551505e7 0.0
4.188973308551505e7 -1.2399928688952057e6 0.0
0.0 0.0 0.0

1.326210216147503e6 1.2602886292329436e7 0.0
1.2602886292329436e7 -1.621465931244254e7 0.0
0.0 0.0 0.0

-2.0743851656463614e6 1.7769741191373777e7 0.0
1.7769741191373777e7 -3.0769165593027836e6 0.0
0.0 0.0 0.0

2.90581976244309e6 3.5064282116268896e6 0.0
3.5064282116268896e6 -7.914453032344932e6 0.0
0.0 0.0 0.0

3.4097309028575607e6 7.641783025455377e6 0.0
7.641783025455377e6 -2.048170429345443e7 0.0
0.0 0.0 0.0

-2.794206828509402e6 1.9760863632172797e7 0.0
1.9760863632172797e7 39777.73986300407 0.0
0.0 0.0 0.0

-4.0822500685736025e6 1.4849850412803492e7 0.0
1.4849850412803492e7 -2.8222555910293322e7 0.0
0.0 0.0 0.0

-1.418663300567797e6 1.4843864880807156e7 0.0
1.4843864880807156e7 -4.300274144276204e6 0.0
0.0 0.0 0.0

1.4130649762221458e6 1.0819819176700884e7 0.0
1.0819819176700884e7 -9.735973403526846e6 0.0
0.0 0.0 0.0

-3.8749377295591035e6 1.3308270179930847e7 0.0
1.3308270179930847e7 3.5406919693178055e6 0.0
0.0 0.0 0.0

1.6024315185845457e6 1.2158737206387509e7 0.0
1.2158737206387509e7 -1.7158481824380346e7 0.0
0.0 0.0 0.0

-4.909352378198354e6 1.2708902142799595e7 0.0
1.2708902142799595e7 2.626163419768105e6 0.0
0.0 0.0 0.0

348661.1569156917 1.500453467954448e7 0.0
1.500453467954448e7 -1.4688341345501015e7 0.0
0.0 0.0 0.0

-1.6043667449026e7 2.4342291500721578e7 0.0
2.4342291500721578e7 -4.509529164399993e6 0.0
0.0 0.0 0.0

-4.294198841023661e6 -4.095781567865615e6 0.0
-4.095781567865615e6 5.563147381483334e6 0.0
0.0 0.0 0.0

-4.720467654471686e6 1.3199071517162448e7 0.0
1.3199071517162448e7 5.997761231381666e6 0.0
0.0 0.0 0.0

-2.8328880885166507e6 1.841188379735951e7 0.0
1.841188379735951e7 -375351.61336920335 0.0
0.0 0.0 0.0

-9.844906717582399e6 -484387.3654117634 0.0
-484387.3654117634 3.598553889613498e7 0.0
0.0 0.0 0.0

-704967.8875672887 1.6696715415396199e7 0.0
1.6696715415396199e7 9.572097404180178e6 0.0
0.0 0.0 0.0

-1.874316853793922e6 1.4661998525065597e7 0.0
1.4661998525065597e7 -5.774797728854271e6 0.0
0.0 0.0 0.0

-270357.86436486105 1.729734051888591e7 0.0
1.729734051888591e7 -9.458698032456957e6 0.0
0.0 0.0 0.0

-1.1016242043050132e6 1.5664374391337946e7 0.0
1.5664374391337946e7 -8.2289339289894905e6 0.0
0.0 0.0 0.0

-1.0378596357990238e6 1.2218778046150215e7 0.0
1.2218778046150215e7 -6.709853129371055e6 0.0
0.0 0.0 0.0

-2.1961343908043234e6 1.707004896946714e7 0.0
1.707004896946714e7 -5.410989035039194e6 0.0
0.0 0.0 0.0

-5.68453945174467e6 1.5826713987352181e7 0.0
1.5826713987352181e7 1.1026445863600096e7 0.0
0.0 0.0 0.0

-3.4336201862170827e6 1.6016168744734237e7 0.0
1.6016168744734237e7 1.6850651952976508e6 0.0
0.0 0.0 0.0

-3.2230464619469405e6 1.4933441563876769e7 0.0
1.4933441563876769e7 -2.166050517047196e6 0.0
0.0 0.0 0.0

3.7550465433844123e6 7.427703228223537e6 0.0
7.427703228223537e6 -2.569774513434156e7 0.0
0.0 0.0 0.0

-5.022459228321247e6 2.2199989489282835e7 0.0
2.2199989489282835e7 6.610870490053728e6 0.0
0.0 0.0 0.0

-2.461640980750048e6 3.1702310104580806e6 0.0
3.1702310104580806e6 3.271081645885311e6 0.0
0.0 0.0 0.0

-5.517961274899732e6 1.558280507328671e7 0.0
1.558280507328671e7 1.0105064880883737e7 0.0
0.0 0.0 0.0

911102.5570695456 1.0931765837296305e7 0.0
1.0931765837296305e7 -8.210438933752934e6 0.0
0.0 0.0 0.0

4.277829919725155e6 4.11966391668366e6 0.0
4.11966391668366e6 -1.6626491425803564e7 0.0
0.0 0.0 0.0

1.7952205177516332e6 1.1669769913167216e7 0.0
1.1669769913167216e7 -1.813425907670397e7 0.0
0.0 0.0 0.0

-3.1829473333978266e6 6.579462848288955e6 0.0
6.579462848288955e6 467120.7588024286 0.0
0.0 0.0 0.0

-1.272007091497418e7 1.148462666686761e7 0.0
1.148462666686761e7 2.0897230977515735e7 0.0
0.0 0.0 0.0

-2.2720586396723846e6 1.6158753896066258e7 0.0
1.6158753896066258e7 -5.089394984563353e6 0.0
0.0 0.0 0.0

-2.984447931050409e6 -3.2914890666376995e6 0.0
-3.2914890666376995e6 7.383171312641348e6 0.0
0.0 0.0 0.0

-4.7951798048418835e6 1.1577000850156944e7 0.0
1.1577000850156944e7 2.3700934222845538e6 0.0
0.0 0.0 0.0

-470469.570763608 1.7766367430922616e7 0.0
1.7766367430922616e7 -8.4938002332747e6 0.0
0.0 0.0 0.0

-1.037203665965097e6 1.5286110202363465e7 0.0
1.5286110202363465e7 -1.5145599007235475e7 0.0
0.0 0.0 0.0

1.3960643705200423e6 1.091593815653339e7 0.0
1.091593815653339e7 -1.3041429292070221e7 0.0
0.0 0.0 0.0

-55204.015427650884 8.706805384161357e6 0.0
8.706805384161357e6 -6.379442800200047e6 0.0
0.0 0.0 0.0

-1.645326095707724e6 1.5616927168569263e7 0.0
1.5616927168569263e7 -3.981125443481704e6 0.0
0.0 0.0 0.0

-5.981070191280694e6 1.6873359868932646e7 0.0
1.6873359868932646e7 1.8831650264147047e7 0.0
0.0 0.0 0.0

-3.185503737829151e6 2.0156839628122978e7 0.0
2.0156839628122978e7 -1.0361356805920849e6 0.0
0.0 0.0 0.0

-8.7229025589866e6 1.6197901049647134e7 0.0
1.6197901049647134e7 1.5923682818866424e7 0.0
0.0 0.0 0.0

-4.6351343253362775e6 1.802063942841393e7 0.0
1.802063942841393e7 9.099410310277496e6 0.0
0.0 0.0 0.0

426249.2029316705 9.86861410696328e6 0.0
9.86861410696328e6 -8.333075097749469e6 0.0
0.0 0.0 0.0

-3.752729014085782e6 1.2238567514109842e7 0.0
1.2238567514109842e7 3.3740059492843235e6 0.0
0.0 0.0 0.0

-1.8018480946101393e6 1.6651014213308653e7 0.0
1.6651014213308653e7 9.926434298948739e6 0.0
0.0 0.0 0.0

-1.5241964726183184e6 1.269850038034969e7 0.0
1.269850038034969e7 -5.685365913395021e6 0.0
0.0 0.0 0.0

926755.8213043055 1.3198732824444344e7 0.0
1.3198732824444344e7 -1.9660416549386993e7 0.0
0.0 0.0 0.0

-1.8323673850794309e6 1.6359726577000566e7 0.0
1.6359726577000566e7 -3.6654749980821377e6 0.0
0.0 0.0 0.0

847306.942735211 1.3521900250683274e7 0.0
1.3521900250683274e7 -1.4443014512144072e7 0.0
0.0 0.0 0.0

-3.552106874516979e6 1.3819415602135355e7 0.0
1.3819415602135355e7 2.4097728789248993e6 0.0
0.0 0.0 0.0

-5.073272552684737e6 1.4259057115675017e7 0.0
1.4259057115675017e7 -2.1003984525118183e7 0.0
0.0 0.0 0.0

-1.9733495343361832e6 1.7077128528832067e7 0.0
1.7077128528832067e7 -3.373057115607455e6 0.0
0.0 0.0 0.0

3.638436946948749e6 1.6548165695062097e7 0.0
1.6548165695062097e7 -1.8775018304411783e6 0.0
0.0 0.0 0.0

-1.021571004143745e7 1.4658422554274348e6 0.0
1.4658422554274348e6 3.512466151111091e7 0.0
0.0 0.0 0.0

-6.889263557956055e6 2.801010199052899e7 0.0
2.801010199052899e7 4.68542756403991e6 0.0
0.0 0.0 0.0

-3.7212490678217234e6 1.786307388283992e7 0.0
1.786307388283992e7 8.02418851825931e6 0.0
0.0 0.0 0.0

-1.1310497962306058e7 1.2740731065076564e7 0.0
1.2740731065076564e7 2.2580827109335423e7 0.0
0.0 0.0 0.0

-4.380802389357162e6 2.014543974749095e7 0.0
2.014543974749095e7 7.924693830405382e6 0.0
0.0 0.0 0.0

-2.8019990027434947e6 1.379991147222152e7 0.0
1.379991147222152e7 156481.56590100797 0.0
0.0 0.0 0.0

-823735.4937350301 1.468350540312978e7 0.0
1.468350540312978e7 -6.024970322863612e6 0.0
0.0 0.0 0.0

-1.443907711985238e6 1.5895284555088237e7 0.0
1.5895284555088237e7 -4.683712391072324e6 0.0
0.0 0.0 0.0

-871675.2547259396 9.302542189428197e6 0.0
9.302542189428197e6 -2.114335441671906e6 0.0
0.0 0.0 0.0

-681840.8451006361 1.8253423480856743e7 0.0
1.8253423480856743e7 -7.5946706477402095e6 0.0
0.0 0.0 0.0

3.3908633121945476e6 6.441603225020607e6 0.0
6.441603225020607e6 -1.6408938386946801e7 0.0
0.0 0.0 0.0

1.7365028119383072e6 6.319924479169856e6 0.0
6.319924479169856e6 -8.831415232925434e6 0.0
0.0 0.0 0.0

-5.115722770273976e6 1.7612807568809282e7 0.0
1.7612807568809282e7 1.1012986919726036e7 0.0
0.0 0.0 0.0

-2.987340187343765e6 1.9743981876660056e7 0.0
1.9743981876660056e7 -1.9577426925700414e6 0.0
0.0 0.0 0.0

2.8870057085965523e6 1.691274812954039e7 0.0
1.691274812954039e7 -3.5366266624035756e6 0.0
0.0 0.0 0.0

-1.0343898319103885e7 2.1951457110274e7 0.0
2.1951457110274e7 5.0514869799429355e6 0.0
0.0 0.0 0.0

2.455061837979967e6 6.139399163064605e6 0.0
6.139399163064605e6 -1.1632203194014948e7 0.0
0.0 0.0 0.0

-2.0575382444872786e6 1.3140712618116386e7 0.0
1.3140712618116386e7 -4.652514996388129e6 0.0
0.0 0.0 0.0

3.058830973393595e7 1.330466396488932e7 0.0
1.330466396488932e7 894825.369656127 0.0
0.0 0.0 0.0

133788.49758648034 9.037856406297173e6 0.0
9.037856406297173e6 -7.246505900985287e6 0.0
0.0 0.0 0.0

3.622529916136314e6 6.591245409384956e6 0.0
6.591245409384956e6 -1.9615001557035174e7 0.0
0.0 0.0 0.0

-9.013402788093876e6 1.612612771894078e7 0.0
1.612612771894078e7 1.9976413837812677e7 0.0
0.0 0.0 0.0

755887.7351193856 1.4254902098034061e7 0.0
1.4254902098034061e7 -1.536834173787495e7 0.0
0.0 0.0 0.0

-8.67777448799989e6 8.399806093804166e6 0.0
8.399806093804166e6 1.4276608459198069e7 0.0
0.0 0.0 0.0

-1.0372620736677509e7 2.7445438861726213e7 0.0
2.7445438861726213e7 5.764941378649298e6 0.0
0.0 0.0 0.0

-8.706177256987862e6 1.630134495716201e7 0.0
1.630134495716201e7 1.9259326873641763e7 0.0
0.0 0.0 0.0

-4.572384285260803e6 2.068555060852297e7 0.0
2.068555060852297e7 7.819947545764454e6 0.0
0.0 0.0 0.0

-1.2455908537547564e7 2.2482252719111614e7 0.0
2.2482252719111614e7 -3.883423008575191e6 0.0
0.0 0.0 0.0

-3.900228415211039e6 1.5065606891774017e7 0.0
1.5065606891774017e7 -170816.78396067722 0.0
0.0 0.0 0.0

2.9255566166955393e7 5.933624112317415e6 0.0
5.933624112317415e6 -2.6123296087543126e6 0.0
0.0 0.0 0.0

-683757.3343630871 1.6165798448596645e7 0.0
1.6165798448596645e7 -7.595160414341406e6 0.0
0.0 0.0 0.0

-1.1003715851981116e6 1.2759784896602908e7 0.0
1.2759784896602908e7 -457295.8019329279 0.0
0.0 0.0 0.0

-911320.5491232954 1.8727610527004585e7 0.0
1.8727610527004585e7 -6.653356054129937e6 0.0
0.0 0.0 0.0

-8.676250294827173e6 1.9299935522119705e7 0.0
1.9299935522119705e7 -3.5765822637820905e6 0.0
0.0 0.0 0.0

314289.3832452642 8.404697236640068e6 0.0
8.404697236640068e6 -4.0177721598765505e6 0.0
0.0 0.0 0.0

-4.807621806446384e6 1.7923112627577085e7 0.0
1.7923112627577085e7 1.2214306201269025e7 0.0
0.0 0.0 0.0

-1.7371797710133684e6 1.4178066690527106e7 0.0
1.4178066690527106e7 -1.513715985608481e7 0.0
0.0 0.0 0.0

-1.219223682361115e7 2.4251204020172255e6 0.0
2.4251204020172255e6 2.0656138472604685e7 0.0
0.0 0.0 0.0

-3.215763578904169e6 1.9559380979888182e7 0.0
1.9559380979888182e7 -1.3066563065769547e6 0.0
0.0 0.0 0.0

-2.5379011653296114e6 1.4220215062964115e7 0.0
1.4220215062964115e7 -766708.5713404396 0.0
0.0 0.0 0.0

-2.595162024961663e6 1.9943630925397627e7 0.0
1.9943630925397627e7 -703653.370963142 0.0
0.0 0.0 0.0

198280.55565113015 1.46413580063602e7 0.0
1.46413580063602e7 -9.671354261812514e6 0.0
0.0 0.0 0.0

-4.249988832789781e6 7.286481921196102e6 0.0
7.286481921196102e6 5.683695485829866e6 0.0
0.0 0.0 0.0

-4.207618715441337e6 2.0378021183784276e7 0.0
2.0378021183784276e7 5.0552170250124335e6 0.0
0.0 0.0 0.0

-5.755333118622242e6 1.74342105673757e7 0.0
1.74342105673757e7 1.396781247978926e7 0.0
0.0 0.0 0.0

-4.9089722698493395e6 1.7250521668379337e7 0.0
1.7250521668379337e7 9.445776370498301e6 0.0
0.0 0.0 0.0

-578774.1064472226 1.2363689877728138e7 0.0
1.2363689877728138e7 -5.164586428570311e6 0.0
0.0 0.0 0.0

2.2068122271270705e6 1.0719249487865776e7 0.0
1.0719249487865776e7 -2.128163824144533e7 0.0
0.0 0.0 0.0

-4.168722354177449e6 1.6374095447127854e7 0.0
1.6374095447127854e7 1.1004125408096125e6 0.0
0.0 0.0 0.0

-221817.34059194522 1.576381411902857e7 0.0
1.576381411902857e7 -1.1509167254431264e7 0.0
0.0 0.0 0.0

-168485.7671655654 1.4452890937519006e7 0.0
1.4452890937519006e7 -1.0860087176811649e7 0.0
0.0 0.0 0.0

-2.012368179240414e6 1.983586547080216e7 0.0
1.983586547080216e7 -4.678664152677155e6 0.0
0.0 0.0 0.0

-1.3106998471243035e6 1.636418129247477e7 0.0
1.636418129247477e7 -7.772480970917296e6 0.0
0.0 0.0 0.0

2.0844633593250401e6 1.0988406129809806e7 0.0
1.0988406129809806e7 -1.7400468412240684e7 0.0
0.0 0.0 0.0

1.7292301321638054e6 6.307921344879196e6 0.0
6.307921344879196e6 -6.108217742120117e6 0.0
0.0 0.0 0.0

-829573.2502140013 5.797455956572338e6 0.0
5.797455956572338e6 -10611.617829582945 0.0
0.0 0.0 0.0

-1.2289172114602257e6 2.537262259347599e7 0.0
2.537262259347599e7 242608.4119815842 0.0
0.0 0.0 0.0

-4.211293506128658e6 1.5547771373145215e7 0.0
1.5547771373145215e7 951381.7530237846 0.0
0.0 0.0 0.0

-2.022152729945627e6 1.7283315463694576e7 0.0
1.7283315463694576e7 -6.041326587580993e6 0.0
0.0 0.0 0.0

3.501591172082232e6 4.456244845173821e6 0.0
4.456244845173821e6 -1.1077493560754443e7 0.0
0.0 0.0 0.0

-1.0878253375109836e7 3.7346491242160797e6 0.0
3.7346491242160797e6 3.500289672725669e7 0.0
0.0 0.0 0.0

2.1454950970149823e6 9.085371787959415e6 0.0
9.085371787959415e6 -1.3598234109335873e7 0.0
0.0 0.0 0.0

1.8768543510707568e6 2.028607157063667e7 0.0
2.028607157063667e7 -5.506788144391204e6 0.0
0.0 0.0 0.0

-1.1147595709768196e6 2.1011740923064753e7 0.0
2.1011740923064753e7 -4.1495812866733405e6 0.0
0.0 0.0 0.0

-4.090451209415866e6 2.0737468268508878e7 0.0
2.0737468268508878e7 4.299821043637916e6 0.0
0.0 0.0 0.0

4.5717375415485e6 4.0796743428114736e6 0.0
4.0796743428114736e6 -2.2466307851459228e7 0.0
0.0 0.0 0.0

-1.8691142892492535e6 1.7983228855335318e7 0.0
1.7983228855335318e7 -3.7565382799542076e6 0.0
0.0 0.0 0.0

-1.625332819777323e6 1.892362961979165e7 0.0
1.892362961979165e7 -4.665214500798137e6 0.0
0.0 0.0 0.0

3.512411208704532e6 7.181458745707688e6 0.0
7.181458745707688e6 -2.1399020454983894e7 0.0
0.0 0.0 0.0

-2.4314668085220656e6 2.1231606984564334e7 0.0
2.1231606984564334e7 -2.234354670405774e6 0.0
0.0 0.0 0.0

797127.979239156 1.7546605231988084e7 0.0
1.7546605231988084e7 -7.369873991115939e6 0.0
0.0 0.0 0.0

-2.4977305979635804e6 1.7544192942217704e7 0.0
1.7544192942217704e7 -4.43850905778146e6 0.0
0.0 0.0 0.0

526073.5633690925 1.3663312144606667e7 0.0
1.3663312144606667e7 -2.078582280690631e7 0.0
0.0 0.0 0.0

2.0606780105500375e6 6.770255240616129e6 0.0
6.770255240616129e6 -1.0824324134753335e7 0.0
0.0 0.0 0.0

981723.0371501478 1.0676141094446283e7 0.0
1.0676141094446283e7 -1.1177296127850337e7 0.0
0.0 0.0 0.0

-1.4715890819618911e6 1.7974246122525133e7 0.0
1.7974246122525133e7 -6.521330429487411e6 0.0
0.0 0.0 0.0

300752.26884680334 1.753189549594801e7 0.0
1.753189549594801e7 -8.45944228380601e6 0.0
0.0 0.0 0.0

-1.6332372062392142e6 1.6760784427869227e7 0.0
1.6760784427869227e7 -6.924103582253322e6 0.0
0.0 0.0 0.0

3.0043737121873135e6 7.349689234043213e6 0.0
7.349689234043213e6 -1.1196656713536212e7 0.0
0.0 0.0 0.0

4.580747212598842e6 5.050452720963181e6 0.0
5.050452720963181e6 -1.918246966629764e7 0.0
0.0 0.0 0.0

263946.8623101022 1.4434089004950846e7 0.0
1.4434089004950846e7 -1.2668209233207857e7 0.0
0.0 0.0 0.0

551329.5549731962 1.1170524018565435e7 0.0
1.1170524018565435e7 -1.029191637963898e7 0.0
0.0 0.0 0.0

-3.7985551131496895e6 1.4172081060329052e7 0.0
1.4172081060329052e7 -425272.4422585635 0.0
0.0 0.0 0.0

-8.573740128458865e6 2.2316192725776564e7 0.0
2.2316192725776564e7 5.891332192904616e6 0.0
0.0 0.0 0.0

-3.8261590117661953e6 1.278904480659643e7 0.0
1.278904480659643e7 5.738652578559018e7 0.0
0.0 0.0 0.0

-1.2283039993707243e7 2.8244117294284245e6 0.0
2.8244117294284245e6 1.9038205036098983e7 0.0
0.0 0.0 0.0

-1.0110445089166056e6 1.974463935133612e7 0.0
1.974463935133612e7 -6.513620240469243e6 0.0
0.0 0.0 0.0

-4.1891877971190256e6 1.467540380614549e7 0.0
1.467540380614549e7 749890.9771951812 0.0
0.0 0.0 0.0

-1.1649023001315178e7 5.475057693715167e6 0.0
5.475057693715167e6 2.7673423224252086e7 0.0
0.0 0.0 0.0

4.375120079766702e6 5.092562073012843e6 0.0
5.092562073012843e6 -1.7267800925505947e7 0.0
0.0 0.0 0.0

-3.6859664121575137e6 1.5654698918806205e7 0.0
1.5654698918806205e7 2.6865385959749604e6 0.0
0.0 0.0 0.0

751917.1431384515 1.3965862774746241e7 0.0
1.3965862774746241e7 -1.661413961068843e7 0.0
0.0 0.0 0.0

-1.0943008912053949e6 1.9264590019773494e7 0.0
1.9264590019773494e7 -5.792395840843553e6 0.0
0.0 0.0 0.0

-1.6509342497843762e6 1.8158726115532976e7 0.0
1.8158726115532976e7 -4.402437454470151e6 0.0
0.0 0.0 0.0

-5.72000349857641e6 1.37067013721793e7 0.0
1.37067013721793e7 5.1554825425949115e6 0.0
0.0 0.0 0.0

-2.0692083892685217e6 1.496211884356764e7 0.0
1.496211884356764e7 -2.4607989338691733e6 0.0
0.0 0.0 0.0

-6.457103688904043e6 8.193783240077585e6 0.0
8.193783240077585e6 6.479614864271769e6 0.0
0.0 0.0 0.0

-3.591094963757829e7 1.9713412622539498e7 0.0
1.9713412622539498e7 8.004654930318816e6 0.0
0.0 0.0 0.0

1.2140336269299118e6 1.7605765134735096e7 0.0
1.7605765134735096e7 8.887167840735165e6 0.0
0.0 0.0 0.0

-4.554522208282046e6 1.8849170217591427e7 0.0
1.8849170217591427e7 9.52221073715182e6 0.0
0.0 0.0 0.0

-2.8629120390818734e6 2.1312751577030804e7 0.0
2.1312751577030804e7 1.1772820787376615e6 0.0
0.0 0.0 0.0

2.625961329360472e6 8.83399114790576e6 0.0
8.83399114790576e6 -1.6330793290170435e7 0.0
0.0 0.0 0.0

3.3544245005797613e6 7.545710677977565e6 0.0
7.545710677977565e6 -1.9329980141517866e7 0.0
0.0 0.0 0.0

3.43624154311316e6 8.880786689059753e6 0.0
8.880786689059753e6 -2.2481687221531026e7 0.0
0.0 0.0 0.0

-4.909717315955279e6 1.3769958790873097e7 0.0
1.3769958790873097e7 2.7959054981860043e6 0.0
0.0 0.0 0.0

-1.2966740543406669e7 1.0568071929306323e7 0.0
1.0568071929306323e7 1.9591875707315564e7 0.0
0.0 0.0 0.0

-5.446411471340528e6 9.131809400451673e6 0.0
9.131809400451673e6 7.868274862972621e6 0.0
0.0 0.0 0.0

1.9956788499052585e6 1.7258302409807693e7 0.0
1.7258302409807693e7 -4.930115835763555e6 0.0
0.0 0.0 0.0

-1.2718363625661666e6 1.439975356019372e7 0.0
1.439975356019372e7 -1.421687742404918e7 0.0
0.0 0.0 0.0

-4.39506915405445e6 2.0646625979600716e7 0.0
2.0646625979600716e7 6.4940278006487675e6 0.0
0.0 0.0 0.0

1.8570922402118049e6 2.461934783064753e7 0.0
2.461934783064753e7 -3.050858455814654e6 0.0
0.0 0.0 0.0

-7.180876182013277e6 2.243624220961629e7 0.0
2.243624220961629e7 6.389841765205685e6 0.0
0.0 0.0 0.0

-7.191810478303393e6 1.6605042327920746e7 0.0
1.6605042327920746e7 1.6411305781594997e7 0.0
0.0 0.0 0.0

3.046653758429453e6 6.697919665715696e6 0.0
6.697919665715696e6 -3.538108861189861e7 0.0
0.0 0.0 0.0

82438.03949327767 1.4029915280336836e7 0.0
1.4029915280336836e7 -8.624387902771644e6 0.0
0.0 0.0 0.0

3.3575158704718184e6 3.5668861348636565e6 0.0
3.5668861348636565e6 -9.50812586707282e6 0.0
0.0 0.0 0.0

3.847009760774482e6 7.780695748389256e6 0.0
7.780695748389256e6 -2.3077021677980587e7 0.0
0.0 0.0 0.0

-3.960233617029993e6 2.107662242256536e7 0.0
2.107662242256536e7 3.5642398444080036e6 0.0
0.0 0.0 0.0

-1.1887127822415423e7 1.080832176259237e7 0.0
1.080832176259237e7 1.9185134531128693e7 0.0
0.0 0.0 0.0

-8.097030024049709e6 1.6297692479358897e7 0.0
1.6297692479358897e7 1.7680163483794373e7 0.0
0.0 0.0 0.0

-4.3546845298502855e6 1.9400324497317582e7 0.0
1.9400324497317582e7 9.09224954657904e6 0.0
0.0 0.0 0.0

2.582842932295298e6 9.23668379893455e6 0.0
9.23668379893455e6 -1.216314324555032e7 0.0
0.0 0.0 0.0

-3.5246914139318485e6 1.915455400965852e7 0.0
1.915455400965852e7 -6.90000590827002e6 0.0
0.0 0.0 0.0

-1.0716515653181504e6 2.5116089619611118e7 0.0
2.5116089619611118e7 -1.0347335619352716e6 0.0
0.0 0.0 0.0

-4.158436513300446e6 2.1934555204644173e7 0.0
2.1934555204644173e7 5.035819859515222e6 0.0
0.0 0.0 0.0

-8.136293313790062e6 1.6456215399880253e7 0.0
1.6456215399880253e7 1.8449518276062164e7 0.0
0.0 0.0 0.0

-1.1176419716365572e7 4.5475814028928615e7 0.0
4.5475814028928615e7 -1.2144785901434239e7 0.0
0.0 0.0 0.0

-4.1015490212781643e6 1.8631276803354196e7 0.0
1.8631276803354196e7 -8.60246739599324e6 0.0
0.0 0.0 0.0

-5.8774483709143475e6 1.5508412180233669e7 0.0
1.5508412180233669e7 7.2990119760323055e6 0.0
0.0 0.0 0.0

-8.043571392628809e6 1.7708882230506958e6 0.0
1.7708882230506958e6 9.420747727177782e6 0.0
0.0 0.0 0.0

-1.232305660881256e6 1.5154013342151197e7 0.0
1.5154013342151197e7 -5.011617113551463e6 0.0
0.0 0.0 0.0

-6.3629920183503125e6 1.9592224338474378e7 0.0
1.9592224338474378e7 -3.9965608564617126e6 0.0
0.0 0.0 0.0

-6.882004910459038e6 2.6992297648878757e7 0.0
2.6992297648878757e7 4.389310625072024e6 0.0
0.0 0.0 0.0

-1.150847208604238e6 1.720150809678911e7 0.0
1.720150809678911e7 -6.211487092407641e6 0.0
0.0 0.0 0.0

-2.147741715027505e6 1.849649441545815e7 0.0
1.849649441545815e7 -5.284939064021718e6 0.0
0.0 0.0 0.0

-1.0156219448024947e7 859265.9324293453 0.0
859265.9324293453 1.694797791502352e7 0.0
0.0 0.0 0.0

4.0710072797068944e6 5.90590183451828e6 0.0
5.90590183451828e6 -1.5561814757354055e7 0.0
0.0 0.0 0.0

-880912.2451836428 2.4499798491553534e7 0.0
2.4499798491553534e7 -670736.1447617965 0.0
0.0 0.0 0.0

-6.442684202386912e6 1.6996589570915215e7 0.0
1.6996589570915215e7 1.522351760326135e7 0.0
0.0 0.0 0.0

-9.983622888798213e6 2.0669575093428344e7 0.0
2.0669575093428344e7 -1.798616967189315e6 0.0
0.0 0.0 0.0

-629739.9829890104 5.539970643530746e6 0.0
5.539970643530746e6 -2.9376526522843214e6 0.0
0.0 0.0 0.0

-7.003636860018086e6 2.0671160451657318e7 0.0
2.0671160451657318e7 -6.2497094317563055e6 0.0
0.0 0.0 0.0

-2.281426257882851e6 1.7728238647863064e7 0.0
1.7728238647863064e7 -5.07383607695179e6 0.0
0.0 0.0 0.0

560120.408279106 1.3985660042964874e7 0.0
1.3985660042964874e7 -1.3549903509738455e7 0.0
0.0 0.0 0.0

-1.6405420737518347e6 1.6611734335145485e7 0.0
1.6611734335145485e7 -4.372368998613094e6 0.0
0.0 0.0 0.0

2.123299995600505e6 9.487214543718992e6 0.0
9.487214543718992e6 -1.4141253862688113e7 0.0
0.0 0.0 0.0

-2.992341167347812e6 1.7447545381630108e7 0.0
1.7447545381630108e7 191291.22249282035 0.0
0.0 0.0 0.0

-7.667300135483514e6 3.580408555733004e6 0.0
3.580408555733004e6 8.579158632091906e6 0.0
0.0 0.0 0.0

-9.07564437478584e6 1.0665201289150925e7 0.0
1.0665201289150925e7 1.5131754518128335e7 0.0
0.0 0.0 0.0

-5.099533288563732e6 1.3628762971810233e7 0.0
1.3628762971810233e7 7.242408417247187e6 0.0
0.0 0.0 0.0

-3.570467920356568e6 1.4095377233422117e7 0.0
1.4095377233422117e7 -1.3280329496080123e7 0.0
0.0 0.0 0.0

-4.310225590454678e6 1.378962925039047e7 0.0
1.378962925039047e7 4.793268889786478e6 0.0
0.0 0.0 0.0

-2.6187176066828415e7 2.371212554626314e7 0.0
2.371212554626314e7 1.8820086260106228e6 0.0
0.0 0.0 0.0

-4.525956086341884e6 1.5169672313508723e7 0.0
1.5169672313508723e7 1.8938878922526885e6 0.0
0.0 0.0 0.0

-854776.0327550235 1.6870427726303518e7 0.0
1.6870427726303518e7 -2.5101854413735922e6 0.0
0.0 0.0 0.0

-4.092625231682922e7 1.8788655177436695e7 0.0
1.8788655177436695e7 6.247218890105434e6 0.0
0.0 0.0 0.0

1.3592549029203416e6 1.7503553489605185e7 0.0
1.7503553489605185e7 -6.284439198753518e6 0.0
0.0 0.0 0.0

-3.2532250048293276e6 1.4289386216121312e7 0.0
1.4289386216121312e7 1.364867502928457e6 0.0
0.0 0.0 0.0

1.8178769498025593e6 1.0293155926530728e7 0.0
1.0293155926530728e7 -1.0565839894529289e7 0.0
0.0 0.0 0.0

-2.9811680057745045e6 2.1658177223261293e7 0.0
2.1658177223261293e7 1.92587882579631e6 0.0
0.0 0.0 0.0

1.7654084522977332e6 1.0734809458484974e7 0.0
1.0734809458484974e7 -1.4355384817318711e7 0.0
0.0 0.0 0.0

1.6509693981125345e6 1.1446738574931474e7 0.0
1.1446738574931474e7 -1.53166816857954e7 0.0
0.0 0.0 0.0

-4.910724315042723e6 7.407547473516981e6 0.0
7.407547473516981e6 3.419017690989512e6 0.0
0.0 0.0 0.0

-5.368696240787211e6 1.7484542357362315e7 0.0
1.7484542357362315e7 7.862084432875808e6 0.0
0.0 0.0 0.0

3.9558426088952916e6 7.322889705033582e6 0.0
7.322889705033582e6 -1.9970907496192113e7 0.0
0.0 0.0 0.0

-1.0249731427935958e7 4.504589213206931e6 0.0
4.504589213206931e6 1.469246041108903e7 0.0
0.0 0.0 0.0

1.7290199822174106e6 1.1073166935799116e7 0.0
1.1073166935799116e7 -1.485439938489744e7 0.0
0.0 0.0 0.0

-6.857920656231558e7 6.894280294704524e6 0.0
6.894280294704524e6 6.755116697990365e6 0.0
0.0 0.0 0.0

3.243030724144006e6 6.587631023074844e6 0.0
6.587631023074844e6 -3.307999242578505e7 0.0
0.0 0.0 0.0

-5.560614348005177e6 1.6395238307604397e7 0.0
1.6395238307604397e7 7.147707774765619e6 0.0
0.0 0.0 0.0

-4.98750477277212e6 1.771497825035946e7 0.0
1.771497825035946e7 5.889042788454549e6 0.0
0.0 0.0 0.0

-4.731115274699704e6 2.1730103356700186e7 0.0
2.1730103356700186e7 7.465626277508291e6 0.0
0.0 0.0 0.0

-2.0913929921606493e6 1.5425145934268009e7 0.0
1.5425145934268009e7 -5.426698896151083e6 0.0
0.0 0.0 0.0

-5.922859995378703e6 1.7687437027449958e7 0.0
1.7687437027449958e7 1.417116955060271e7 0.0
0.0 0.0 0.0

866235.7100773379 1.2539394947321188e7 0.0
1.2539394947321188e7 -1.2557155770016685e7 0.0
0.0 0.0 0.0

2.886143602419518e6 8.983835660984322e6 0.0
8.983835660984322e6 -1.9261983378062956e7 0.0
0.0 0.0 0.0

-3.169814229611734e6 2.1414850342061102e7 0.0
2.1414850342061102e7 2.5496045965146073e6 0.0
0.0 0.0 0.0

-1.0344146332268971e6 2.2031028178452104e7 0.0
2.2031028178452104e7 -3.9007268858515183e6 0.0
0.0 0.0 0.0

3.387788024036834e6 8.327094370418628e6 0.0
8.327094370418628e6 -2.6892409151531227e7 0.0
0.0 0.0 0.0

-5.171107345091106e6 1.1325262357552147e7 0.0
1.1325262357552147e7 6.994639490326601e6 0.0
0.0 0.0 0.0

-6.097252397448011e6 2.231425387884787e7 0.0
2.231425387884787e7 6.784967008349208e6 0.0
0.0 0.0 0.0

-4.017049301820486e7 4.915320762853745e7 0.0
4.915320762853745e7 -3.186573305605447e6 0.0
0.0 0.0 0.0

-1.2097261728958318e7 7.127420835516742e6 0.0
7.127420835516742e6 2.4417785347144768e7 0.0
0.0 0.0 0.0

-2.5443233492049025e6 1.326064400278751e7 0.0
1.326064400278751e7 -1.190091482986292e7 0.0
0.0 0.0 0.0

-72423.9330164856 5.411783741106106e6 0.0
5.411783741106106e6 -1.1023497876395027e6 0.0
0.0 0.0 0.0

-8.45774555314458e6 -6.764645819231074e6 0.0
-6.764645819231074e6 2.285679123393732e7 0.0
0.0 0.0 0.0

5.082341115822615e6 2.873572082118314e6 0.0
2.873572082118314e6 -2.317380727383172e7 0.0
0.0 0.0 0.0

-5.295749553694891e6 1.951037734025449e7 0.0
1.951037734025449e7 1.9268926793610237e6 0.0
0.0 0.0 0.0

-446287.8598056566 1.4868053956313321e7 0.0
1.4868053956313321e7 -1.5362958794122018e7 0.0
0.0 0.0 0.0

-1.021995567410287e7 1.3318418672119819e7 0.0
1.3318418672119819e7 2.4622914542105395e7 0.0
0.0 0.0 0.0

-868936.9138950442 1.918166247628042e7 0.0
1.918166247628042e7 -7.327422806568097e6 0.0
0.0 0.0 0.0

1.7923607750120787e6 1.038731077738345e7 0.0
1.038731077738345e7 -1.3832023199218612e7 0.0
0.0 0.0 0.0

-6.569775655162202e6 1.4129380936431982e7 0.0
1.4129380936431982e7 3.2194466718417414e7 0.0
0.0 0.0 0.0

-2.4788429713909384e6 1.542766153606756e7 0.0
1.542766153606756e7 -1.3758835753084747e6 0.0
0.0 0.0 0.0

-5.031281481210169e6 1.6266826735955292e7 0.0
1.6266826735955292e7 2.2116650636767548e7 0.0
0.0 0.0 0.0

-323245.867298672 1.5120583860681834e7 0.0
1.5120583860681834e7 -1.441734841628978e7 0.0
0.0 0.0 0.0

5.226919000376109e7 7.7681624232016355e6 0.0
7.7681624232016355e6 -177112.5661477819 0.0
0.0 0.0 0.0

-1.2797577673808867e6 1.9774586726275582e7 0.0
1.9774586726275582e7 -4.9699453688042015e6 0.0
0.0 0.0 0.0

-285684.53120593785 2.4345737599083908e7 0.0
2.4345737599083908e7 -1.3060298232349956e6 0.0
0.0 0.0 0.0

1.496893244632339e6 1.1214118269976119e7 0.0
1.1214118269976119e7 -1.3503150155242357e7 0.0
0.0 0.0 0.0

2.43301303560747e6 1.0399198200404417e7 0.0
1.0399198200404417e7 -1.3820056394060068e7 0.0
0.0 0.0 0.0

-1.6762612964474875e6 1.4955933310722098e7 0.0
1.4955933310722098e7 -6.4481250613784315e6 0.0
0.0 0.0 0.0

-1.2247334961257286e7 7.994023433474928e6 0.0
7.994023433474928e6 2.0077745274016283e7 0.0
0.0 0.0 0.0

-891683.0688688783 1.4031114294239422e7 0.0
1.4031114294239422e7 -2.0219871295074772e7 0.0
0.0 0.0 0.0

3.179597027250172e6 3.495393348827996e6 0.0
3.495393348827996e6 -8.792483245008405e6 0.0
0.0 0.0 0.0

911953.1850028811 1.3147801897345278e7 0.0
1.3147801897345278e7 -1.3503021968937075e7 0.0
0.0 0.0 0.0

-2.187702707572986e7 2.670596991210996e7 0.0
2.670596991210996e7 8.825202112149274e6 0.0
0.0 0.0 0.0

-2.7505843417834877e6 1.016411203695037e7 0.0
1.016411203695037e7 -1.6203426501431754e6 0.0
0.0 0.0 0.0

-4.7847988881448805e6 1.4222978950917557e7 0.0
1.4222978950917557e7 3.879080512260215e7 0.0
0.0 0.0 0.0

-4.411368854531645e6 1.7776467563435413e7 0.0
1.7776467563435413e7 1.1366998407906026e7 0.0
0.0 0.0 0.0

3.962373255810476e6 1.736201501076303e7 0.0
1.736201501076303e7 1.5938842629721127e6 0.0
0.0 0.0 0.0

-5.2311255028353445e6 2.2077907231619842e7 0.0
2.2077907231619842e7 7.095016385757772e6 0.0
0.0 0.0 0.0

-1.3751270055639448e6 2.0263920542632036e7 0.0
2.0263920542632036e7 -4.047695703834583e6 0.0
0.0 0.0 0.0

-4.316190150718559e6 2.1634317686347257e7 0.0
2.1634317686347257e7 5.627918016955565e6 0.0
0.0 0.0 0.0

-1.1974828384767536e7 8.234640757066121e6 0.0
8.234640757066121e6 1.8751203098202422e7 0.0
0.0 0.0 0.0

-8.869118384325586e6 1.2629877076356633e7 0.0
1.2629877076356633e7 1.5541318420517229e7 0.0
0.0 0.0 0.0

-7.295939978011472e6 5.01989565735084e6 0.0
5.01989565735084e6 7.309844717608177e6 0.0
0.0 0.0 0.0

1.1618323231327046e7 1.1028770412105905e7 0.0
1.1028770412105905e7 947722.7023899956 0.0
0.0 0.0 0.0

-217044.7555507049 1.538993612066179e7 0.0
1.538993612066179e7 -1.3543953814106395e7 0.0
0.0 0.0 0.0

-1.645948953134772e6 2.0193959390513826e7 0.0
2.0193959390513826e7 -3.501166376742345e6 0.0
0.0 0.0 0.0

-3.789981517193693e6 2.1360794353452988e7 0.0
2.1360794353452988e7 2.8546610545471096e6 0.0
0.0 0.0 0.0

-7.960274887249588e6 -4.85373696026062e6 0.0
-4.85373696026062e6 1.397376543780881e7 0.0
0.0 0.0 0.0

-3.9356740542318514e6 2.2542984792934425e7 0.0
2.2542984792934425e7 3.8463485256698537e6 0.0
0.0 0.0 0.0

-3.6422590696531837e6 1.4764907613997223e7 0.0
1.4764907613997223e7 2.550393986293759e6 0.0
0.0 0.0 0.0

-4.41088986718596e6 2.3050979789509427e7 0.0
2.3050979789509427e7 4.743507072275909e6 0.0
0.0 0.0 0.0

4.024531549285744e6 1.633355552788313e7 0.0
1.633355552788313e7 244899.01065562712 0.0
0.0 0.0 0.0

-812185.0661321892 2.2952817324858595e7 0.0
2.2952817324858595e7 -2.1386005463080057e6 0.0
0.0 0.0 0.0

4.152952755079938e6 5.130220367609401e6 0.0
5.130220367609401e6 -1.9313410683535434e7 0.0
0.0 0.0 0.0

-1.2250111822503595e7 7.287368317159409e6 0.0
7.287368317159409e6 2.2937569846609883e7 0.0
0.0 0.0 0.0

342914.6417790707 1.6502311057258079e7 0.0
1.6502311057258079e7 -8.767302157030879e6 0.0
0.0 0.0 0.0

-138756.72210252006 1.5730997066324526e7 0.0
1.5730997066324526e7 -1.26352198581112e7 0.0
0.0 0.0 0.0

-2.301601399020496e6 1.459537901422818e7 0.0
1.459537901422818e7 -1.6384478315442135e6 0.0
0.0 0.0 0.0

-4.010065576916147e6 1.8236209853637937e7 0.0
1.8236209853637937e7 4.6499010044364035e6 0.0
0.0 0.0 0.0

-222637.06870554993 1.9791871800914682e7 0.0
1.9791871800914682e7 -6.559804797969494e6 0.0
0.0 0.0 0.0

73007.7454446028 1.5211609462099861e7 0.0
1.5211609462099861e7 -7.656678159110651e6 0.0
0.0 0.0 0.0

-1.1324755431381036e7 1.0499112329418821e7 0.0
1.0499112329418821e7 1.4856001676650196e7 0.0
0.0 0.0 0.0

3.2646500748604126e6 8.830461578876719e6 0.0
8.830461578876719e6 -1.6225778492921889e7 0.0
0.0 0.0 0.0

-373661.67495565023 1.5545775059230726e7 0.0
1.5545775059230726e7 -1.3042233656717336e7 0.0
0.0 0.0 0.0

97488.35919023445 1.755747513840978e7 0.0
1.755747513840978e7 1.047340047879771e7 0.0
0.0 0.0 0.0

-2.4035344280116027e6 1.6863510613722216e7 0.0
1.6863510613722216e7 -4.761836218376184e6 0.0
0.0 0.0 0.0

4.0469337654702496e6 6.946600869381489e6 0.0
6.946600869381489e6 -2.5971422024879377e7 0.0
0.0 0.0 0.0

4.3393182638473045e6 5.358137125135744e6 0.0
5.358137125135744e6 -3.368132696222619e7 0.0
0.0 0.0 0.0

-5.962695216399482e6 1.4167329690256024e7 0.0
1.4167329690256024e7 6.317917207491161e6 0.0
0.0 0.0 0.0

-3.601683383989176e6 2.1626665134982497e7 0.0
2.1626665134982497e7 2.2061224381710268e6 0.0
0.0 0.0 0.0

-1.0725457092051681e7 670356.4374419524 0.0
670356.4374419524 2.0197588228730343e7 0.0
0.0 0.0 0.0

-7.703696575271505e6 1.2992082339320455e7 0.0
1.2992082339320455e7 9.904122531628069e6 0.0
0.0 0.0 0.0

-5.272673524717211e6 1.719468412024365e7 0.0
1.719468412024365e7 6.9970930817914475e6 0.0
0.0 0.0 0.0

3.056593033316453e6 8.995441915497674e6 0.0
8.995441915497674e6 -1.4881805848230857e7 0.0
0.0 0.0 0.0

5.033206980019914e6 2.7529680201579183e6 0.0
2.7529680201579183e6 -2.38517863194129e7 0.0
0.0 0.0 0.0

-5.058084701549309e6 1.6210988324197263e7 0.0
1.6210988324197263e7 8.891012648565002e6 0.0
0.0 0.0 0.0

-2.1040139842084963e6 1.5598397420981754e7 0.0
1.5598397420981754e7 4.8844336750967525e7 0.0
0.0 0.0 0.0

-4.220592613351028e6 1.8014844080010436e7 0.0
1.8014844080010436e7 6.354277407742551e6 0.0
0.0 0.0 0.0

-1.5996110302039632e6 2.0680710908768903e7 0.0
2.0680710908768903e7 -3.3255869603065504e6 0.0
0.0 0.0 0.0

1.4912988026736286e6 1.181715666162248e7 0.0
1.181715666162248e7 -1.4276177769879626e7 0.0
0.0 0.0 0.0

-2.1380453298387798e6 2.2277703671267387e7 0.0
2.2277703671267387e7 -337058.43544749904 0.0
0.0 0.0 0.0

-3.3412467585174683e6 2.1144089743220516e7 0.0
2.1144089743220516e7 3.208313689392926e6 0.0
0.0 0.0 0.0

3.777138399329761e6 1.5586923087684274e7 0.0
1.5586923087684274e7 2.3593907734225646e7 0.0
0.0 0.0 0.0

3.215006372334073e6 3.499177245047455e6 0.0
3.499177245047455e6 -9.25759733590159e6 0.0
0.0 0.0 0.0

1.252024899135109e6 1.8050275888341207e7 0.0
1.8050275888341207e7 -6.820489986764431e6 0.0
0.0 0.0 0.0

3.9450400358344372e6 4.283829963368288e6 0.0
4.283829963368288e6 -1.4515177556628533e7 0.0
0.0 0.0 0.0

-9.55241533261216e6 8.98067445699644e6 0.0
8.98067445699644e6 1.540055261325736e7 0.0
0.0 0.0 0.0

-4.1446719441637443e6 2.020090594348836e7 0.0
2.020090594348836e7 4.308096804635739e6 0.0
0.0 0.0 0.0

-1.779611173821542e6 1.730553734131732e7 0.0
1.730553734131732e7 -4.070276647451848e6 0.0
0.0 0.0 0.0

2.556366075222427e6 9.632128978401413e6 0.0
9.632128978401413e6 -1.2719327538825674e7 0.0
0.0 0.0 0.0

-7321.751407062169 1.5622208378665075e7 0.0
1.5622208378665075e7 -8.81164760231815e6 0.0
0.0 0.0 0.0

-1.7811522016404918e6 2.113573692820087e7 0.0
2.113573692820087e7 -2.570019146094648e6 0.0
0.0 0.0 0.0

-1.1350731861640766e7 2.3643887108758786e6 0.0
2.3643887108758786e6 2.373855439337916e7 0.0
0.0 0.0 0.0

-8.358658714625729e6 1.424692937372976e7 0.0
1.424692937372976e7 1.5748353918266607e7 0.0
0.0 0.0 0.0

-1.0878722115642628e7 5.924763882136598e6 0.0
5.924763882136598e6 1.6426048112869885e7 0.0
0.0 0.0 0.0

-4.5257911915541e6 1.4242674046156276e7 0.0
1.4242674046156276e7 1.7304483315630765e6 0.0
0.0 0.0 0.0

-3.8064767480742875e6 2.132731427501207e7 0.0
2.132731427501207e7 6.112498087232627e6 0.0
0.0 0.0 0.0

-3.1845621193748876e6 1.682404987093569e7 0.0
1.682404987093569e7 -2.3406458291865946e6 0.0
0.0 0.0 0.0

-3.085783228057295e6 2.22049956901308e7 0.0
2.22049956901308e7 420470.58803135296 0.0
0.0 0.0 0.0

-5.7526449496600125e6 7.744093075696422e6 0.0
7.744093075696422e6 5.01100216250723e6 0.0
0.0 0.0 0.0

-8.460116575280977e6 1.2129329972197281e7 0.0
1.2129329972197281e7 1.4676754177633263e7 0.0
0.0 0.0 0.0

-3.4394075813027504e6 2.185703442955048e7 0.0
2.185703442955048e7 1.6145805407948378e6 0.0
0.0 0.0 0.0

-58829.04402780114 1.894999931787999e7 0.0
1.894999931787999e7 -7.679233830640968e6 0.0
0.0 0.0 0.0

7.258042755311263e6 1.9216781692556206e7 0.0
1.9216781692556206e7 9.653746919329679e6 0.0
0.0 0.0 0.0

-3.9462477763249623e6 1.4311819507661875e7 0.0
1.4311819507661875e7 3.653744503291645e6 0.0
0.0 0.0 0.0

2.0201787893618273e6 2.1043523073687363e7 0.0
2.1043523073687363e7 -5.216141999834069e6 0.0
0.0 0.0 0.0

-4.569287282426316e6 1.5245024287474144e7 0.0
1.5245024287474144e7 5.88898706217906e6 0.0
0.0 0.0 0.0

-8.134255075757707e6 1.38218301431905e7 0.0
1.38218301431905e7 1.4972686524498798e7 0.0
0.0 0.0 0.0

-4.752447015089693e6 8.68134276097762e6 0.0
8.68134276097762e6 6.413699250536408e6 0.0
0.0 0.0 0.0

-3.278113025002168e6 2.204262754041149e7 0.0
2.204262754041149e7 974557.5566844943 0.0
0.0 0.0 0.0

4.336602101754375e6 6.135786887020948e6 0.0
6.135786887020948e6 -1.890371526137375e7 0.0
0.0 0.0 0.0

3.792490378979992e6 7.697795606129141e6 0.0
7.697795606129141e6 -1.784973439920092e7 0.0
0.0 0.0 0.0

-4.386076679251146e6 2.1325590068110082e7 0.0
2.1325590068110082e7 7.757708106950891e6 0.0
0.0 0.0 0.0

61741.47561595263 1.0725420262162168e7 0.0
1.0725420262162168e7 -6.0728490747641325e6 0.0
0.0 0.0 0.0

2.5069567829838274e6 1.0032320461476795e7 0.0
1.0032320461476795e7 -1.3261457829197371e7 0.0
0.0 0.0 0.0

-2.2212146448104065e6 2.3750184612184778e7 0.0
2.3750184612184778e7 -125978.43871574057 0.0
0.0 0.0 0.0

-1.987739940447196e6 2.192202602015939e7 0.0
2.192202602015939e7 -1.054061720162605e6 0.0
0.0 0.0 0.0

-2.0396291931060476e6 1.788781456048125e7 0.0
1.788781456048125e7 -5.6380776753880475e6 0.0
0.0 0.0 0.0

-470881.20899724495 1.463250893187631e7 0.0
1.463250893187631e7 -1.8602334539618287e7 0.0
0.0 0.0 0.0

-3.4432655963630304e6 2.403449869585835e7 0.0
2.403449869585835e7 2.197446696986345e6 0.0
0.0 0.0 0.0

-8.475369519080136e6 1.4666417811800899e7 0.0
1.4666417811800899e7 1.622298852717328e7 0.0
0.0 0.0 0.0

2.5268975348881353e6 6.736256102055269e6 0.0
6.736256102055269e6 -1.2120219642477077e7 0.0
0.0 0.0 0.0

-1.0492597176559162e6 2.543450798981934e7 0.0
2.543450798981934e7 -171205.4406462166 0.0
0.0 0.0 0.0

-3.6815342943874756e6 1.8161309238171037e7 0.0
1.8161309238171037e7 9.57486684081238e6 0.0
0.0 0.0 0.0

-1.8825170881604715e6 2.1537350989554618e7 0.0
2.1537350989554618e7 -1.7507602434581078e6 0.0
0.0 0.0 0.0

-66831.05769128492 1.607302062910599e7 0.0
1.607302062910599e7 -1.1790998071507208e7 0.0
0.0 0.0 0.0

-2.531935871771071e6 2.248901927317307e7 0.0
2.248901927317307e7 875545.247838202 0.0
0.0 0.0 0.0

-4.778592304969854e6 1.8528836268055096e7 0.0
1.8528836268055096e7 1.189724897931202e7 0.0
0.0 0.0 0.0

-2.59511619503629e6 2.2451061851418205e7 0.0
2.2451061851418205e7 -605956.9565333802 0.0
0.0 0.0 0.0

2.2514226756291566e6 2.6852110288790803e7 0.0
2.6852110288790803e7 -2.0594270678534773e6 0.0
0.0 0.0 0.0

-1.1934794536659878e7 1.2350835629166737e7 0.0
1.2350835629166737e7 2.011565802435404e7 0.0
0.0 0.0 0.0

2.164016817123846e6 1.0900597745331382e7 0.0
1.0900597745331382e7 -1.3011861368070474e7 0.0
0.0 0.0 0.0

-1.236118395210306e7 8.87511572559264e6 0.0
8.87511572559264e6 2.0661607608795337e7 0.0
0.0 0.0 0.0

-9.749900467641685e6 1.1062712452564342e7 0.0
1.1062712452564342e7 1.26317501916207e7 0.0
0.0 0.0 0.0

-586671.7735128406 -1.2724586040354513e6 0.0
-1.2724586040354513e6 1.0838218493798678e6 0.0
0.0 0.0 0.0

307770.43192011584 -2.1770068030127552e6 0.0
-2.1770068030127552e6 1.1557834256608402e6 0.0
0.0 0.0 0.0

-1.1808584299950829e7 1.3127636967080906e7 0.0
1.3127636967080906e7 2.0484559205799304e7 0.0
0.0 0.0 0.0

6.547866122014996e6 1.819051222300779e7 0.0
1.819051222300779e7 6.681640804052832e6 0.0
0.0 0.0 0.0

-1.3356587239333175e6 2.259319854604389e7 0.0
2.259319854604389e7 -1.7169594532669995e6 0.0
0.0 0.0 0.0

-1.5211164744085358e6 1.834905949857624e7 0.0
1.834905949857624e7 -5.073916687779478e6 0.0
0.0 0.0 0.0

2.103614834109186e6 1.1231655900108065e7 0.0
1.1231655900108065e7 -1.3585137591863684e7 0.0
0.0 0.0 0.0

3.5552793153233402e6 1.5642951085209927e7 0.0
1.5642951085209927e7 2.0365376064785372e7 0.0
0.0 0.0 0.0

-3.202401701657274e6 2.4443947092574164e7 0.0
2.4443947092574164e7 3.109090091344579e6 0.0
0.0 0.0 0.0

-2.16044195672652e6 2.413743344977947e7 0.0
2.413743344977947e7 -46583.68832584529 0.0
0.0 0.0 0.0

-1.8960295022180341e6 2.455277229367419e7 0.0
2.455277229367419e7 -19251.421222752542 0.0
0.0 0.0 0.0

-6.34123939096689e6 1.6351222700286414e7 0.0
1.6351222700286414e7 1.0096684513707954e7 0.0
0.0 0.0 0.0

-6.219387655897908e6 1.452815637949899e7 0.0
1.452815637949899e7 7.425431090510461e6 0.0
0.0 0.0 0.0

-6.716639050384991e6 9.740311090329047e6 0.0
9.740311090329047e6 6.863882531306123e6 0.0
0.0 0.0 0.0

-4.209416636240831e6 1.933165822998771e7 0.0
1.933165822998771e7 7.947697242427272e6 0.0
0.0 0.0 0.0

-5.367122927759655e6 1.3973358482828548e7 0.0
1.3973358482828548e7 8.372535019180442e6 0.0
0.0 0.0 0.0

-1.2123414495650405e7 1.225453122524949e7 0.0
1.225453122524949e7 2.2034017613587946e7 0.0
0.0 0.0 0.0

2.0652918098540232e6 1.1623812121508999e7 0.0
1.1623812121508999e7 -1.4011749692208605e7 0.0
0.0 0.0 0.0

-5.43932691325279e6 1.7723417778218873e7 0.0
1.7723417778218873e7 8.634380822154544e6 0.0
0.0 0.0 0.0

-1.2199302824330198e7 1.0536682168385707e7 0.0
1.0536682168385707e7 2.2891454746287126e7 0.0
0.0 0.0 0.0

1.2552768370967149e6 1.685552875543914e7 0.0
1.685552875543914e7 1.0469667821287729e7 0.0
0.0 0.0 0.0

-5.123986174993476e6 1.5267295299915027e7 0.0
1.5267295299915027e7 4.03721832714873e6 0.0
0.0 0.0 0.0

-2.4626529244308304e6 2.2933100412120745e7 0.0
2.2933100412120745e7 1.0164928608807276e6 0.0
0.0 0.0 0.0

-2.584277647714845e6 2.200950627399206e7 0.0
2.200950627399206e7 728817.1893827794 0.0
0.0 0.0 0.0

-4.538323985534088e6 1.9075946584523447e7 0.0
1.9075946584523447e7 1.0820622847257342e7 0.0
0.0 0.0 0.0

-573066.3405691609 1.519870235134996e7 0.0
1.519870235134996e7 -1.591020493129909e7 0.0
0.0 0.0 0.0

-4.431837420814946e6 1.9447208431935064e7 0.0
1.9447208431935064e7 5.978943121206089e6 0.0
0.0 0.0 0.0

-7.5367565683361e6 1.5229659119351262e7 0.0
1.5229659119351262e7 1.5005652527252963e7 0.0
0.0 0.0 0.0

-1.486914503861174e6 1.7714504642952062e7 0.0
1.7714504642952062e7 -5.3678358413645355e6 0.0
0.0 0.0 0.0

169003.16510052013 2.4790756471853536e7 0.0
2.4790756471853536e7 -1.3242129996455526e6 0.0
0.0 0.0 0.0

-4.4103746048757825e6 1.96646016392438e7 0.0
1.96646016392438e7 9.805068179675143e6 0.0
0.0 0.0 0.0

-1.6949098887328357e6 1.74246897390209e7 0.0
1.74246897390209e7 -6.557321998419699e6 0.0
0.0 0.0 0.0

3.5702696758953556e6 8.147813214717002e6 0.0
8.147813214717002e6 -1.8379558310667247e7 0.0
0.0 0.0 0.0

-5.196738437028034e6 1.644929449059388e7 0.0
1.644929449059388e7 9.778850017411295e6 0.0
0.0 0.0 0.0

626905.9655667332 2.089155655999385e7 0.0
2.089155655999385e7 -5.3914640475051105e6 0.0
0.0 0.0 0.0

2.7293076272981223e6 3.5511120069332505e6 0.0
3.5511120069332505e6 -7.184210672858293e6 0.0
0.0 0.0 0.0

3.1593292219110383e6 8.206752681632484e6 0.0
8.206752681632484e6 -2.3741239897527736e7 0.0
0.0 0.0 0.0

-620242.2950043313 1.6516564566010734e7 0.0
1.6516564566010734e7 -8.052972296708708e6 0.0
0.0 0.0 0.0

6.328855381702768e6 1.9005747247117788e7 0.0
1.9005747247117788e7 8.340353760312029e6 0.0
0.0 0.0 0.0

2.975475957677846e6 8.50468408824551e6 0.0
8.50468408824551e6 -1.894765757825048e7 0.0
0.0 0.0 0.0

2.6879519171341145e6 9.419034918597821e6 0.0
9.419034918597821e6 -1.8476922744226653e7 0.0
0.0 0.0 0.0

321088.3083136324 1.5788063296730239e7 0.0
1.5788063296730239e7 4.0805960039524687e6 0.0
0.0 0.0 0.0

-1.1710296130587807e7 3.895210933365346e6 0.0
3.895210933365346e6 2.252170463959328e7 0.0
0.0 0.0 0.0

-8.059338347878916e6 9.92180572549201e6 0.0
9.92180572549201e6 9.530086229925703e6 0.0
0.0 0.0 0.0

-5.834547668078338e6 1.5704485065887379e7 0.0
1.5704485065887379e7 -3.1713423756251127e7 0.0
0.0 0.0 0.0

-7.139524340587247e6 1.416737206566236e7 0.0
1.416737206566236e7 9.712409087793838e6 0.0
0.0 0.0 0.0

-1.2609264476338927e7 8.315878266385291e6 0.0
8.315878266385291e6 1.6540846776394619e7 0.0
0.0 0.0 0.0

332395.11165986024 1.7896339416609723e7 0.0
1.7896339416609723e7 8.431216800997723e6 0.0
0.0 0.0 0.0

-8.357077689976541e6 -7.14469139655959e6 0.0
-7.14469139655959e6 2.192292895594037e7 0.0
0.0 0.0 0.0

-5.679316864254802e6 1.6680530504245587e7 0.0
1.6680530504245587e7 8.087731267166154e6 0.0
0.0 0.0 0.0

-3.9754601563189006e6 2.1397790610375434e7 0.0
2.1397790610375434e7 6.713862084006359e6 0.0
0.0 0.0 0.0

19381.98512511421 1.5123988400256304e7 0.0
1.5123988400256304e7 -1.2129738851384882e7 0.0
0.0 0.0 0.0

-5.233427045276843e6 -329259.3341839695 0.0
-329259.3341839695 5.457218648489903e6 0.0
0.0 0.0 0.0

-6.144450669114355e6 9.281726807401128e6 0.0
9.281726807401128e6 5.4488050760252355e6 0.0
0.0 0.0 0.0

2.4625376261097044e6 7.2011876377571765e6 0.0
7.2011876377571765e6 -3.833087040435853e7 0.0
0.0 0.0 0.0

1.4790592086493522e6 2.493238310619642e7 0.0
2.493238310619642e7 -2.1548810263520814e6 0.0
0.0 0.0 0.0

-1.1041698514248317e7 9.975836767624615e6 0.0
9.975836767624615e6 2.8571226899693996e7 0.0
0.0 0.0 0.0

-3.6571098445280953e6 1.5974581459946426e7 0.0
1.5974581459946426e7 -1.0883076076372776e7 0.0
0.0 0.0 0.0

-1.293779193472185e7 7.921301093860657e6 0.0
7.921301093860657e6 1.7784932527966026e7 0.0
0.0 0.0 0.0

-8.233340925226748e6 2.1727379674805447e7 0.0
2.1727379674805447e7 -3.3932313884880655e6 0.0
0.0 0.0 0.0

-718071.0992104856 1.6517816099462528e7 0.0
1.6517816099462528e7 -3.821529416454012e6 0.0
0.0 0.0 0.0

940363.447147056 1.5839799395383619e7 0.0
1.5839799395383619e7 1.0741666544699129e7 0.0
0.0 0.0 0.0

3.3454314462638386e6 7.637759368414945e6 0.0
7.637759368414945e6 -2.479929383966925e7 0.0
0.0 0.0 0.0

-4.514207366560239e6 1.5151256995125074e7 0.0
1.5151256995125074e7 -7.598631969582704e6 0.0
0.0 0.0 0.0

1.8405853196428951e6 2.8082308840959936e7 0.0
2.8082308840959936e7 -3.7383862889658636e6 0.0
0.0 0.0 0.0

-5.318300794808735e6 1.6676302880253386e7 0.0
1.6676302880253386e7 1.060827029138048e7 0.0
0.0 0.0 0.0

-9.124189418714713e6 -6.07715527489894e6 0.0
-6.07715527489894e6 2.5218853981462285e7 0.0
0.0 0.0 0.0

-3.0382583311006865e6 1.682973545555522e7 0.0
1.682973545555522e7 1.2004567297019927e7 0.0
0.0 0.0 0.0

-6.396390890156853e6 2.076532460749064e7 0.0
2.076532460749064e7 -5.583676423369746e6 0.0
0.0 0.0 0.0

-4.603626317407385e6 8.332223328191061e6 0.0
8.332223328191061e6 2.4870532628531316e6 0.0
0.0 0.0 0.0

-281634.69136694446 1.6556636188732138e7 0.0
1.6556636188732138e7 2.3714351081304386e7 0.0
0.0 0.0 0.0

-9.782173258299347e6 1.3365401006251e7 0.0
1.3365401006251e7 1.4251010292670079e7 0.0
0.0 0.0 0.0

-1.0225123791839909e7 1.1491780720110046e7 0.0
1.1491780720110046e7 1.3683397458677135e7 0.0
0.0 0.0 0.0

-1.1452139451123323e7 8.133523962017915e6 0.0
8.133523962017915e6 2.8466427677607205e7 0.0
0.0 0.0 0.0

-3.550945573281315e6 1.703427270246475e7 0.0
1.703427270246475e7 1.479034394217134e7 0.0
0.0 0.0 0.0

-7.258837584230013e6 2.4577647673585605e7 0.0
2.4577647673585605e7 5.414976468049828e6 0.0
0.0 0.0 0.0

-1.8398093086071191e6 2.5955664676128954e7 0.0
2.5955664676128954e7 -9094.841514168307 0.0
0.0 0.0 0.0

-5.0830188347320855e6 1.840342978697661e7 0.0
1.840342978697661e7 8.4146037924071e6 0.0
0.0 0.0 0.0

2.4434718494423404e6 3.42105224975992e6 0.0
3.42105224975992e6 -6.362764034766685e6 0.0
0.0 0.0 0.0

2.6565646884334004e6 1.0268761850855747e7 0.0
1.0268761850855747e7 -1.5133593811748967e7 0.0
0.0 0.0 0.0

2.2074869209504095e6 1.0166164649700945e7 0.0
1.0166164649700945e7 -1.1929295967603462e7 0.0
0.0 0.0 0.0

-6.411858780257804e6 1.4879962570181241e7 0.0
1.4879962570181241e7 8.481055414562259e6 0.0
0.0 0.0 0.0

-4.1023842280448005e6 3.351701945697556e7 0.0
3.351701945697556e7 -2.845306743034736e6 0.0
0.0 0.0 0.0

-6.694063515937794e6 6.665716342185205e6 0.0
6.665716342185205e6 6.066552146052427e6 0.0
0.0 0.0 0.0

-504963.4319255538 2.3353496724854287e7 0.0
2.3353496724854287e7 -2.0709877434315914e6 0.0
0.0 0.0 0.0

760147.2226479298 2.156324957188641e7 0.0
2.156324957188641e7 -4.783585453638312e6 0.0
0.0 0.0 0.0

-3.5734001956680603e6 9.129008336816095e6 0.0
9.129008336816095e6 3.6901215669755214e6 0.0
0.0 0.0 0.0

-358849.9689065082 1.4302305166321719e7 0.0
1.4302305166321719e7 810010.3128740526 0.0
0.0 0.0 0.0

1.180099566521415e7 1.8431725798174527e7 0.0
1.8431725798174527e7 8.093116082348051e6 0.0
0.0 0.0 0.0

4.1866600248236526e6 1.708401908352203e7 0.0
1.708401908352203e7 2.1911976027564436e7 0.0
0.0 0.0 0.0

-145787.9713996225 1.6085062871898877e7 0.0
1.6085062871898877e7 9.488800958625924e6 0.0
0.0 0.0 0.0

-9.459183128404021e6 1.2896425690357117e7 0.0
1.2896425690357117e7 1.3362569043926936e7 0.0
0.0 0.0 0.0

-3.157771051238205e6 3.151887143383269e7 0.0
3.151887143383269e7 -1.8449253660027569e6 0.0
0.0 0.0 0.0

-1.2270867239995085e7 2.2552172730770927e7 0.0
2.2552172730770927e7 -2.4812412151850434e6 0.0
0.0 0.0 0.0

-1.0558150356520269e7 1.2025127429671025e7 0.0
1.2025127429671025e7 1.4603519414631672e7 0.0
0.0 0.0 0.0

1.6348215607618652e6 1.1063726689019114e7 0.0
1.1063726689019114e7 -2.5273799395595092e7 0.0
0.0 0.0 0.0

5.014371777999578e6 2.567396908312434e6 0.0
2.567396908312434e6 -2.757964850616123e7 0.0
0.0 0.0 0.0

901281.4203429017 1.4483672354355715e7 0.0
1.4483672354355715e7 -1.2749182075080298e7 0.0
0.0 0.0 0.0

2.3618230921918964e6 1.076126457045998e7 0.0
1.076126457045998e7 -1.435735893306259e7 0.0
0.0 0.0 0.0

396129.76258009905 1.560299212992333e7 0.0
1.560299212992333e7 -1.129967409102134e7 0.0
0.0 0.0 0.0

-5.336316108144395e6 3.6006727030926265e7 0.0
3.6006727030926265e7 -4.906073772161324e6 0.0
0.0 0.0 0.0

-3.603870728119502e6 1.9767332765065197e7 0.0
1.9767332765065197e7 3.753723014245237e6 0.0
0.0 0.0 0.0

-721187.0985420183 1.7937818913995564e7 0.0
1.7937818913995564e7 -9.21597877500457e6 0.0
0.0 0.0 0.0

-810486.2776635969 1.7375216765772294e7 0.0
1.7375216765772294e7 -9.525659633995488e6 0.0
0.0 0.0 0.0

2.7732175221232194e6 9.514227829809535e6 0.0
9.514227829809535e6 -1.407176177149063e7 0.0
0.0 0.0 0.0

-4.98942079747281e6 1.9232874074721023e7 0.0
1.9232874074721023e7 8.845158453227058e6 0.0
0.0 0.0 0.0

-1.5055208747544037e6 1.7303200857987322e7 0.0
1.7303200857987322e7 1.2747828887563026e7 0.0
0.0 0.0 0.0

-5.76292591484794e6 1.9848371967572372e7 0.0
1.9848371967572372e7 6.762710439567924e6 0.0
0.0 0.0 0.0

-6.654467074005969e6 6.675471954309824e6 0.0
6.675471954309824e6 5.5493352551617146e7 0.0
0.0 0.0 0.0

-7.564538944129467e6 -2.802519666007007e6 0.0
-2.802519666007007e6 1.3706606680951227e7 0.0
0.0 0.0 0.0

-1.720496418947727e7 5.2669070054593116e7 0.0
5.2669070054593116e7 -1.7786706923008706e7 0.0
0.0 0.0 0.0

1.7074579324055524e6 1.6042130980146099e7 0.0
1.6042130980146099e7 1.3365981931397168e7 0.0
0.0 0.0 0.0

-2.5441552343349867e6 3.018903350073628e7 0.0
3.018903350073628e7 -994657.7159810014 0.0
0.0 0.0 0.0

-39581.68052031705 1.5366521494233176e7 0.0
1.5366521494233176e7 -9.183814371124642e6 0.0
0.0 0.0 0.0

-38768.53639051784 1.738803690548637e7 0.0
1.738803690548637e7 -9.342084422499407e6 0.0
0.0 0.0 0.0

-3.7437553851414826e6 2.063977192133659e7 0.0
2.063977192133659e7 5.461123463722333e6 0.0
0.0 0.0 0.0

4.687267926009251e6 3.1041811173760053e6 0.0
3.1041811173760053e6 -1.660390547573304e7 0.0
0.0 0.0 0.0

5.211561197807154e6 1.6462491970184416e7 0.0
1.6462491970184416e7 716407.1807030267 0.0
0.0 0.0 0.0

2.5621925446698973e6 1.0688309714315908e7 0.0
1.0688309714315908e7 -1.5642825117013622e7 0.0
0.0 0.0 0.0

1.3850537484613587e6 1.9769730185211617e7 0.0
1.9769730185211617e7 -6.036121478869494e6 0.0
0.0 0.0 0.0

3.9813690400714576e6 7.15452737849701e6 0.0
7.15452737849701e6 -2.4061522843605492e7 0.0
0.0 0.0 0.0

-4.501291722148083e6 1.7555217937610026e7 0.0
1.7555217937610026e7 7.559502665397197e6 0.0
0.0 0.0 0.0

2.992745278334816e6 6.826507288512587e6 0.0
6.826507288512587e6 -1.0588261552160712e7 0.0
0.0 0.0 0.0

-1.4742629077864122e6 9.71644168355694e6 0.0
9.71644168355694e6 -925971.7389982255 0.0
0.0 0.0 0.0

-1.1563532232270362e7 1.9772987168143734e7 0.0
1.9772987168143734e7 -3.5492151293969573e6 0.0
0.0 0.0 0.0

3.2746727241534526e6 9.097566225189509e6 0.0
9.097566225189509e6 -1.795894246777244e7 0.0
0.0 0.0 0.0

-2.791286455411412e6 1.445665468229652e7 0.0
1.445665468229652e7 -3.2452009722263375e6 0.0
0.0 0.0 0.0

-1.256592407782553e6 1.836965310651937e7 0.0
1.836965310651937e7 -7.741814566205944e6 0.0
0.0 0.0 0.0

-3.8582066890435154e6 1.6943835472935792e7 0.0
1.6943835472935792e7 1.7958980519568525e7 0.0
0.0 0.0 0.0

348650.3495093322 1.5851254471636774e7 0.0
1.5851254471636774e7 -2.254174277219711e6 0.0
0.0 0.0 0.0

-6.848827925016014e6 1.3840626629663495e7 0.0
1.3840626629663495e7 8.66099297149253e6 0.0
0.0 0.0 0.0

-1.2579890663285341e7 5.42198391131845e6 0.0
5.42198391131845e6 2.4455860920228936e7 0.0
0.0 0.0 0.0

-3.266208008650411e6 1.718555347732696e7 0.0
1.718555347732696e7 1.832100985162074e7 0.0
0.0 0.0 0.0

-8.877937081348918e6 1.4482065642268954e7 0.0
1.4482065642268954e7 1.3838323504210174e7 0.0
0.0 0.0 0.0

-1.166969047932025e7 666921.5291052893 0.0
666921.5291052893 2.1705656126729388e7 0.0
0.0 0.0 0.0

-5.894547861044061e6 1.608346666280809e7 0.0
1.608346666280809e7 1.1808189609493952e7 0.0
0.0 0.0 0.0

-5.908977456414228e6 1.796815137092876e7 0.0
1.796815137092876e7 1.2962271658527805e7 0.0
0.0 0.0 0.0

-6.459785978822411e6 4.795882422432947e6 0.0
4.795882422432947e6 1.0131538522850262e7 0.0
0.0 0.0 0.0

-1.0252590585581679e6 1.7879296428246155e7 0.0
1.7879296428246155e7 -8.64957664025628e6 0.0
0.0 0.0 0.0

-3.991977457969596e6 2.05384683277382e7 0.0
2.05384683277382e7 3.527969261584686e6 0.0
0.0 0.0 0.0

-8.94022145024646e6 1.4928426041026233e7 0.0
1.4928426041026233e7 1.4540262203054348e7 0.0
0.0 0.0 0.0

-1.1187352067791821e7 1.3870888599766647e6 0.0
1.3870888599766647e6 3.1892734151108153e7 0.0
0.0 0.0 0.0

-3.1288089890167904e6 1.751188600949998e7 0.0
1.751188600949998e7 9.799700432439443e6 0.0
0.0 0.0 0.0

-9.58190247259626e6 1.1250500570871921e7 0.0
1.1250500570871921e7 1.6001322771127552e7 0.0
0.0 0.0 0.0

1.981663244044805e6 1.0831008231947618e7 0.0
1.0831008231947618e7 -2.394447665262127e7 0.0
0.0 0.0 0.0

-4.985386197819492e6 1.6419011442945303e7 0.0
1.6419011442945303e7 2.2306367382424675e7 0.0
0.0 0.0 0.0

-1.1440534102266066e7 1.304077238989852e7 0.0
1.304077238989852e7 1.9138859238075703e7 0.0
0.0 0.0 0.0

2.208000827569264e6 9.765289330347728e6 0.0
9.765289330347728e6 -1.1375796405430077e7 0.0
0.0 0.0 0.0

4.459313483572142e6 4.0455820097760404e6 0.0
4.0455820097760404e6 -2.247423712904578e7 0.0
0.0 0.0 0.0

-14687.899218284525 1.6484267631910326e7 0.0
1.6484267631910326e7 1.7686907036281824e7 0.0
0.0 0.0 0.0

-2.245850214742247e6 1.678054996598851e7 0.0
1.678054996598851e7 1.9941741641789123e7 0.0
0.0 0.0 0.0

-674554.9558971333 1.4945068714037312e7 0.0
1.4945068714037312e7 -6.694081669888035e6 0.0
0.0 0.0 0.0

-4.298599404990507e6 2.029011565931452e7 0.0
2.029011565931452e7 8.926886459194338e6 0.0
0.0 0.0 0.0

-1.852585609998467e6 2.76294457541465e7 0.0
2.76294457541465e7 -280656.3596007507 0.0
0.0 0.0 0.0

-28133.654887565877 1.6482158444086699e7 0.0
1.6482158444086699e7 -1.0942522237691568e7 0.0
0.0 0.0 0.0

-8.650768194214214e6 -1.9721920748917067e6 0.0
-1.9721920748917067e6 1.4790832756974824e7 0.0
0.0 0.0 0.0

1.3717121081986753e6 1.2438071980464056e7 0.0
1.2438071980464056e7 -2.0766716053185552e7 0.0
0.0 0.0 0.0

-4.811412180125535e6 1.827678172873733e7 0.0
1.827678172873733e7 1.053078622066053e7 0.0
0.0 0.0 0.0

-1.1841489436184041e7 1.1681369022292187e7 0.0
1.1681369022292187e7 1.9640948857009944e7 0.0
0.0 0.0 0.0

1.7834139605459e6 1.395034383837806e7 0.0
1.395034383837806e7 7.21369661764979e6 0.0
0.0 0.0 0.0

2.653511665306255e6 8.850622982124904e6 0.0
8.850622982124904e6 -2.7673672988914087e7 0.0
0.0 0.0 0.0

2.1356344829280954e6 1.0742825896932723e7 0.0
1.0742825896932723e7 -2.2547509286362566e7 0.0
0.0 0.0 0.0

2.593125453791731e6 2.9170075937119942e7 0.0
2.9170075937119942e7 -4.83645804679526e6 0.0
0.0 0.0 0.0

-3.4135449689699686e6 2.007989951342345e7 0.0
2.007989951342345e7 2.975430583455465e6 0.0
0.0 0.0 0.0

-3.615557080466111e6 2.100592595690192e7 0.0
2.100592595690192e7 4.717449623064063e6 0.0
0.0 0.0 0.0

-2.898245985809785e6 2.0896665876500122e7 0.0
2.0896665876500122e7 -1.412820217933246e6 0.0
0.0 0.0 0.0

4.2986956181626795e6 4.54696638496541e6 0.0
4.54696638496541e6 -1.396455601928209e7 0.0
0.0 0.0 0.0

-908540.8447764905 1.34842524094452e7 0.0
1.34842524094452e7 -6.30097529538468e6 0.0
0.0 0.0 0.0

-4.707036439110047e6 1.8170769969132032e7 0.0
1.8170769969132032e7 9.865311893175134e6 0.0
0.0 0.0 0.0

-376465.8392174239 1.8325208206416976e7 0.0
1.8325208206416976e7 -8.577677572190424e6 0.0
0.0 0.0 0.0

-1.7522985462198034e6 2.698339397849411e7 0.0
2.698339397849411e7 -94619.37892427278 0.0
0.0 0.0 0.0

-5.045141726567949e6 7.57671045605462e6 0.0
7.57671045605462e6 7.480365853669351e6 0.0
0.0 0.0 0.0

-1.3006362828749198e7 7.224973108288913e6 0.0
7.224973108288913e6 2.035904522291762e7 0.0
0.0 0.0 0.0

-1.778480932517524e6 2.6459281511650305e7 0.0
2.6459281511650305e7 49290.234829621855 0.0
0.0 0.0 0.0

-1.4461299575751456e6 1.888185484066951e7 0.0
1.888185484066951e7 -6.880346650024107e6 0.0
0.0 0.0 0.0

2.087226305100019e6 9.876847068277841e6 0.0
9.876847068277841e6 -1.4653501064884549e7 0.0
0.0 0.0 0.0

-5.888950560853041e6 1.463730866793393e7 0.0
1.463730866793393e7 1.0438768093085509e7 0.0
0.0 0.0 0.0

2.809820738548558e6 8.269479844454519e6 0.0
8.269479844454519e6 -2.8891987786740277e7 0.0
0.0 0.0 0.0

-2.317428655287694e6 2.3769680081155527e7 0.0
2.3769680081155527e7 1.2171733139133286e6 0.0
0.0 0.0 0.0

-3.6594470515716043e6 1.83339560779068e7 0.0
1.83339560779068e7 7.858898778852257e6 0.0
0.0 0.0 0.0

1.153287951787386e6 1.169402734085053e7 0.0
1.169402734085053e7 -2.5432251584901627e7 0.0
0.0 0.0 0.0

-4.135928689514295e6 2.142654997076885e7 0.0
2.142654997076885e7 5.0356266915400615e6 0.0
0.0 0.0 0.0

-1.2885547216359435e7 7.088477910849696e6 0.0
7.088477910849696e6 2.170082838366068e7 0.0
0.0 0.0 0.0

1.7803844988638563e6 9.619390240566198e6 0.0
9.619390240566198e6 -1.278078617925516e7 0.0
0.0 0.0 0.0

-233985.00493127154 1.711085150480872e7 0.0
1.711085150480872e7 8.320062451537003e6 0.0
0.0 0.0 0.0

-3.8912459079796006e6 1.9673431933103297e7 0.0
1.9673431933103297e7 6.326397628649333e6 0.0
0.0 0.0 0.0

577630.640797181 1.2401043531132417e7 0.0
1.2401043531132417e7 -2.5050236097845886e7 0.0
0.0 0.0 0.0

-6.770837855983708e6 3.942552814681219e7 0.0
3.942552814681219e7 -7.998805818674202e6 0.0
0.0 0.0 0.0

-1.0813350066154785e7 1.4316122627998361e7 0.0
1.4316122627998361e7 1.7338494677269693e7 0.0
0.0 0.0 0.0

-6.679589930900145e6 1.5787833534171632e7 0.0
1.5787833534171632e7 -3.779292175614382e7 0.0
0.0 0.0 0.0

-3.9396972208688306e6 8.286815880478405e6 0.0
8.286815880478405e6 4.740774976573534e6 0.0
0.0 0.0 0.0

-5.788366187097919e6 1.6932935074110508e7 0.0
1.6932935074110508e7 8.9489828230112e6 0.0
0.0 0.0 0.0

-7.796726757944953e6 1.5989714647541372e7 0.0
1.5989714647541372e7 2.1905035108899e7 0.0
0.0 0.0 0.0

-6.257634939690094e6 1.3553303876336101e7 0.0
1.3553303876336101e7 1.0773640767300481e7 0.0
0.0 0.0 0.0

-4.31489869014132e6 1.4568412080407783e7 0.0
1.4568412080407783e7 4.244558978266736e7 0.0
0.0 0.0 0.0

-4.798611029430205e6 1.702481645644782e7 0.0
1.702481645644782e7 8.625794077526253e6 0.0
0.0 0.0 0.0

-266241.45827862155 1.4841928796670746e7 0.0
1.4841928796670746e7 -1.755949087952994e7 0.0
0.0 0.0 0.0

70693.9569358183 1.6914946175450705e7 0.0
1.6914946175450705e7 -1.1307784772974785e7 0.0
0.0 0.0 0.0

1.0623054581765394e8 1.914652794924902e7 0.0
1.914652794924902e7 8.774062057408191e6 0.0
0.0 0.0 0.0

-9.245485277305413e6 -5.807886330248879e6 0.0
-5.807886330248879e6 2.6339190697376497e7 0.0
0.0 0.0 0.0

5.042662403152602e6 2.6541222453120677e6 0.0
2.6541222453120677e6 -2.534351826687018e7 0.0
0.0 0.0 0.0

-5.808076027273508e6 2.0453266837697108e6 0.0
2.0453266837697108e6 6.457846558086781e6 0.0
0.0 0.0 0.0

-2.7214144882420828e6 2.044456780652796e7 0.0
2.044456780652796e7 -2.2088298041749066e6 0.0
0.0 0.0 0.0

-9.194906052864766e6 -3.9422653429654497e6 0.0
-3.9422653429654497e6 3.4697856122165695e7 0.0
0.0 0.0 0.0

-4.45095539540091e6 1.4431234218494484e7 0.0
1.4431234218494484e7 -2.315434747256688e7 0.0
0.0 0.0 0.0

-1.2188818962410446e7 9.989929731590439e6 0.0
9.989929731590439e6 1.992833102710997e7 0.0
0.0 0.0 0.0

-9.098210013953619e6 1.5292227125696272e7 0.0
1.5292227125696272e7 1.5137363489299301e7 0.0
0.0 0.0 0.0

4.959665001666054e6 2.5127729998999205e6 0.0
2.5127729998999205e6 -2.8354950282975256e7 0.0
0.0 0.0 0.0

651861.305261076 1.4942757827433812e7 0.0
1.4942757827433812e7 -1.1854772234487433e7 0.0
0.0 0.0 0.0

-2.048614959455195e6 2.8411946616622247e7 0.0
2.8411946616622247e7 -231110.70045747858 0.0
0.0 0.0 0.0

1.384167919298877e6 1.0156683886737652e7 0.0
1.0156683886737652e7 -1.2002195784993986e7 0.0
0.0 0.0 0.0

-1.7723764576141639e6 1.7894730447959e7 0.0
1.7894730447959e7 -2.8767502621917482e6 0.0
0.0 0.0 0.0

-2.7058503376118504e6 7.314987150784919e6 0.0
7.314987150784919e6 8.060644079863414e7 0.0
0.0 0.0 0.0

-230298.92880658433 7.664095140092514e6 0.0
7.664095140092514e6 -6.6599180177162e7 0.0
0.0 0.0 0.0

-2.8374091024581045e6 1.4893606889971433e7 0.0
1.4893606889971433e7 -5.4812201370614894e7 0.0
0.0 0.0 0.0

1.375132047319091e6 1.3595725405525738e7 0.0
1.3595725405525738e7 -1.4486185511331253e7 0.0
0.0 0.0 0.0

3.931390503194142e6 6.534691667231516e6 0.0
6.534691667231516e6 -3.0785766472530425e7 0.0
0.0 0.0 0.0

-1.844923004675526e7 2.2877874177900214e7 0.0
2.2877874177900214e7 4.643127634772533e6 0.0
0.0 0.0 0.0

-514463.9146808791 1.7872700587417178e7 0.0
1.7872700587417178e7 -9.493405539372824e6 0.0
0.0 0.0 0.0

-9.201088619770812e6 -5.601159687997043e6 0.0
-5.601159687997043e6 2.7334778481045354e7 0.0
0.0 0.0 0.0

-6.798054260452116e6 9.484284104951011e6 0.0
9.484284104951011e6 9.293233146941371e6 0.0
0.0 0.0 0.0

-3.4580589964855993e6 2.1334922173723858e7 0.0
2.1334922173723858e7 3.967755738161818e6 0.0
0.0 0.0 0.0

-5.211497528734019e6 1.8591532018572986e7 0.0
1.8591532018572986e7 9.117921656241266e6 0.0
0.0 0.0 0.0

-8.701134423968982e6 1.2094659959049368e7 0.0
1.2094659959049368e7 1.1315893465112401e7 0.0
0.0 0.0 0.0

-5.81423531002145e6 6.1249318647408e6 0.0
6.1249318647408e6 9.140434051211175e6 0.0
0.0 0.0 0.0

4.0515610665004305e6 1.6490330515939752e7 0.0
1.6490330515939752e7 2.6147411426276173e6 0.0
0.0 0.0 0.0

-1.6739385619433066e6 1.9419373467412796e7 0.0
1.9419373467412796e7 -6.027365921160441e6 0.0
0.0 0.0 0.0

-1.3960136084762441e6 5.920960191256169e6 0.0
5.920960191256169e6 -1.9039425687072775e6 0.0
0.0 0.0 0.0

-1.7412746101366528e6 2.203812205642199e7 0.0
2.203812205642199e7 -1.5508904738042615e6 0.0
0.0 0.0 0.0

-1.2348298171366561e7 1.3105891414308455e7 0.0
1.3105891414308455e7 1.865633925814266e7 0.0
0.0 0.0 0.0

-5.649429673031494e6 1.4337820478280619e7 0.0
1.4337820478280619e7 9.42788759946922e6 0.0
0.0 0.0 0.0

-9.182472822284108e6 -5.243868820258386e6 0.0
-5.243868820258386e6 2.8377382991817016e7 0.0
0.0 0.0 0.0

4.968456361285223e6 2.6032297660692786e6 0.0
2.6032297660692786e6 -2.6823017963710226e7 0.0
0.0 0.0 0.0

3.8079182296574246e6 6.7603961783594685e6 0.0
6.7603961783594685e6 -3.2709115084667534e7 0.0
0.0 0.0 0.0

-1.3032008864269458e7 8.880631448803073e6 0.0
8.880631448803073e6 1.8375133247395318e7 0.0
0.0 0.0 0.0

1.7900568961991891e6 5.050607870969606e6 0.0
5.050607870969606e6 -5.711898735651492e7 0.0
0.0 0.0 0.0

-8.217842336667165e6 -1.8165110476894467e6 0.0
-1.8165110476894467e6 4.6769472429488346e7 0.0
0.0 0.0 0.0

2.3551701531368652e6 9.373670214341309e6 0.0
9.373670214341309e6 -1.5484284811430754e7 0.0
0.0 0.0 0.0

3.5265684477061303e6 8.269112143235488e6 0.0
8.269112143235488e6 -1.7023204893828493e7 0.0
0.0 0.0 0.0

1.3341665857011457e6 2.629717915779348e7 0.0
2.629717915779348e7 -1.772715189359791e6 0.0
0.0 0.0 0.0

-5.952125096492185e6 2.4491036272890456e7 0.0
2.4491036272890456e7 5.8154752209708225e6 0.0
0.0 0.0 0.0

-4.127868583640065e6 1.9278588040430963e7 0.0
1.9278588040430963e7 7.121481115316294e6 0.0
0.0 0.0 0.0

-1.5238213066021814e6 2.1171861474591166e7 0.0
2.1171861474591166e7 -3.051309767920548e6 0.0
0.0 0.0 0.0

-2.2120835853842124e6 2.698974659624393e7 0.0
2.698974659624393e7 1.9116171560979132e6 0.0
0.0 0.0 0.0

-3.978592368024139e6 2.036426188804091e7 0.0
2.036426188804091e7 6.973104444983994e6 0.0
0.0 0.0 0.0

-885484.4425677788 1.6339668301657567e7 0.0
1.6339668301657567e7 8.076743348696638e6 0.0
0.0 0.0 0.0

3.3473640800511446e6 3.0852414214801895e6 0.0
3.0852414214801895e6 -4.732047496516521e7 0.0
0.0 0.0 0.0

4.876622115745923e6 2.3287605098250126e6 0.0
2.3287605098250126e6 -3.1543403402105283e7 0.0
0.0 0.0 0.0

4.219073095621796e6 2.43899655427734e6 0.0
2.43899655427734e6 -4.060704762288099e7 0.0
0.0 0.0 0.0

-3.4998837803475442e6 2.1356522431164455e7 0.0
2.1356522431164455e7 1.4612399067120568e6 0.0
0.0 0.0 0.0

-5.454612998549513e6 8.78525660808888e6 0.0
8.78525660808888e6 3.99143298736848e6 0.0
0.0 0.0 0.0

-8.980419139575163e6 -3.7016995513479235e6 0.0
-3.7016995513479235e6 3.5723176387198135e7 0.0
0.0 0.0 0.0

-1.276481981116309e7 9.060671169360844e6 0.0
9.060671169360844e6 1.722255458617798e7 0.0
0.0 0.0 0.0

4.622746558915849e6 4.1516548813117533e6 0.0
4.1516548813117533e6 -1.799593680447182e7 0.0
0.0 0.0 0.0

-1.1576279946487712e7 2.283570822899858e7 0.0
2.283570822899858e7 5.612862963331669e6 0.0
0.0 0.0 0.0

-4.436323282827692e6 1.4819222653535722e7 0.0
1.4819222653535722e7 -2.0173125215209834e7 0.0
0.0 0.0 0.0

-8.745033176142812e6 -6.932196837131088e6 0.0
-6.932196837131088e6 2.157762832748627e7 0.0
0.0 0.0 0.0

-1.137586116474386e7 1.584360802664842e6 0.0
1.584360802664842e6 1.5619460377737693e7 0.0
0.0 0.0 0.0

-1.2593041933267025e7 6.703739481130039e6 0.0
6.703739481130039e6 2.4956033629473403e7 0.0
0.0 0.0 0.0

-5.7356412032719115e6 1.7322089660910476e7 0.0
1.7322089660910476e7 1.494987956337351e7 0.0
0.0 0.0 0.0

2.0237900251754895e6 1.1178432423231078e7 0.0
1.1178432423231078e7 -2.0266857914718647e7 0.0
0.0 0.0 0.0

3.9900696410226896e6 2.755114707562644e6 0.0
2.755114707562644e6 -4.478189991352234e7 0.0
0.0 0.0 0.0

4.942407695429477e6 2.7851807908816044e6 0.0
2.7851807908816044e6 -2.3219504242838383e7 0.0
0.0 0.0 0.0

5.696936011259626e6 2.788126614414228e7 0.0
2.788126614414228e7 -6.873189927466525e6 0.0
0.0 0.0 0.0

-8.504734256104654e6 -2.099489006275174e6 0.0
-2.099489006275174e6 4.481395275583499e7 0.0
0.0 0.0 0.0

3.579069334392391e6 7.751843285014352e6 0.0
7.751843285014352e6 -2.814446661895548e7 0.0
0.0 0.0 0.0

-7.203860435626142e6 1.1722206741684135e6 0.0
1.1722206741684135e6 6.0935193010441855e7 0.0
0.0 0.0 0.0

3.0532722262034602e6 3.7066725167861884e6 0.0
3.7066725167861884e6 -5.1181127300291255e7 0.0
0.0 0.0 0.0

-4.1590471117730667e6 2.139683281304614e7 0.0
2.139683281304614e7 7.2907658947118325e6 0.0
0.0 0.0 0.0

-810812.9968053896 1.0941741679676164e7 0.0
1.0941741679676164e7 -6.062089967457261e6 0.0
0.0 0.0 0.0

-748410.1731668003 1.5650318154792106e7 0.0
1.5650318154792106e7 -9.563008506496882e6 0.0
0.0 0.0 0.0

481290.17309233546 1.4603612156758694e7 0.0
1.4603612156758694e7 -1.5633384378552841e7 0.0
0.0 0.0 0.0

-7.922262079037901e6 -1.429065568095331e6 0.0
-1.429065568095331e6 4.927757206456348e7 0.0
0.0 0.0 0.0

4.018315381564658e6 2.6176173845247775e6 0.0
2.6176173845247775e6 -4.25040540982774e7 0.0
0.0 0.0 0.0

-1.1707022265523186e7 1.4012321347238561e7 0.0
1.4012321347238561e7 1.9231268537868068e7 0.0
0.0 0.0 0.0

-1.2448536766383667e7 1.2432414463509174e7 0.0
1.2432414463509174e7 1.825014627489036e7 0.0
0.0 0.0 0.0

-1.2904051593797062e7 8.164799689393772e6 0.0
8.164799689393772e6 2.217269753139204e7 0.0
0.0 0.0 0.0

-7.054522206770046e6 1.2691668382696182e7 0.0
1.2691668382696182e7 1.2245771755488109e7 0.0
0.0 0.0 0.0

635237.247167509 1.686701009210197e7 0.0
1.686701009210197e7 2.418749101506464e7 0.0
0.0 0.0 0.0

-1.0026804892287774e6 1.9844892202218387e7 0.0
1.9844892202218387e7 -5.35558577963045e6 0.0
0.0 0.0 0.0

-3.24734093010709e6 2.2530704354291543e7 0.0
2.2530704354291543e7 1.1427924398036778e6 0.0
0.0 0.0 0.0

-1.5021226548001575e6 2.084935355276946e7 0.0
2.084935355276946e7 -4.34986640665266e6 0.0
0.0 0.0 0.0

2.999586118983238e6 9.389821408822775e6 0.0
9.389821408822775e6 -1.5406086627214972e7 0.0
0.0 0.0 0.0

-3.9975983213530853e6 2.3314300133744217e7 0.0
2.3314300133744217e7 5.138612992786617e6 0.0
0.0 0.0 0.0

-1.0099928059254127e6 1.7124857308040768e7 0.0
1.7124857308040768e7 -4.118712252426365e6 0.0
0.0 0.0 0.0

1.856619449517846e6 1.2734177859054497e7 0.0
1.2734177859054497e7 -1.6208980330200167e7 0.0
0.0 0.0 0.0

-1.172971858678199e7 1.2483774750646215e7 0.0
1.2483774750646215e7 2.3305607739941537e7 0.0
0.0 0.0 0.0

-1.300180148553554e7 9.720688959840754e6 0.0
9.720688959840754e6 1.8980902142098993e7 0.0
0.0 0.0 0.0

2.8441038843086855e6 8.687631182398425e6 0.0
8.687631182398425e6 -1.7680425759463746e7 0.0
0.0 0.0 0.0

-9.293500257848807e6 -4.621406066559976e6 0.0
-4.621406066559976e6 3.1465517305059046e7 0.0
0.0 0.0 0.0

4.908910420193305e6 2.4969521776898615e6 0.0
2.4969521776898615e6 -2.9122633952921197e7 0.0
0.0 0.0 0.0

-2.5909112713410016e6 1.695141017464354e7 0.0
1.695141017464354e7 1.5744027643791724e7 0.0
0.0 0.0 0.0

-8.586389452761278e6 -2.3970906573985578e6 0.0
-2.3970906573985578e6 4.29530871056119e7 0.0
0.0 0.0 0.0

4.399800857717538e6 2.3997655740196276e6 0.0
2.3997655740196276e6 -3.768401696465184e7 0.0
0.0 0.0 0.0

4.841800225370638e6 2.5020278868680745e6 0.0
2.5020278868680745e6 -2.987625575206901e7 0.0
0.0 0.0 0.0

-9.216056704061128e6 -4.369402175146745e6 0.0
-4.369402175146745e6 3.247579976196619e7 0.0
0.0 0.0 0.0

-7.20931881032075e6 1.4820589424193805e7 0.0
1.4820589424193805e7 2.797725000787936e7 0.0
0.0 0.0 0.0

4.580863178951198e6 2.348773973588818e6 0.0
2.348773973588818e6 -3.6558615335936576e7 0.0
0.0 0.0 0.0

-8.658667790981257e6 -2.7600903087880136e6 0.0
-2.7600903087880136e6 4.1152066489487395e7 0.0
0.0 0.0 0.0

-6.065924507757929e6 1.730933047560829e7 0.0
1.730933047560829e7 1.6464995421776379e7 0.0
0.0 0.0 0.0

-1.0003729556352805e7 -2.5502626794414343e6 0.0
-2.5502626794414343e6 2.8343026315265294e7 0.0
0.0 0.0 0.0

-9.22955603451552e6 -4.1042541780496347e6 0.0
-4.1042541780496347e6 3.364863019596778e7 0.0
0.0 0.0 0.0

4.979064787709761e6 2.4489937641365994e6 0.0
2.4489937641365994e6 -3.0779627676723246e7 0.0
0.0 0.0 0.0

4.636795394498177e6 2.3852309826670014e6 0.0
2.3852309826670014e6 -3.5426251347011834e7 0.0
0.0 0.0 0.0

-8.797218139904335e6 -3.064280185125606e6 0.0
-3.064280185125606e6 3.960942880769035e7 0.0
0.0 0.0 0.0

-2.1253935658250427e8 4.867289972158076e7 0.0
4.867289972158076e7 -2.24783794482119e7 0.0
0.0 0.0 0.0

1.784296584985335e8 3.379671638710969e7 0.0
3.379671638710969e7 1.2727148619975343e7 0.0
0.0 0.0 0.0

-9.077508797391487e6 1.249352216248116e7 0.0
1.249352216248116e7 1.2372070175719962e7 0.0
0.0 0.0 0.0

4.581023437672343e6 2.3412417283036616e6 0.0
2.3412417283036616e6 -3.4334397288944006e7 0.0
0.0 0.0 0.0

-8.98465653985215e6 -3.241810552578129e6 0.0
-3.241810552578129e6 3.836898374554585e7 0.0
0.0 0.0 0.0

315447.4553773474 1.4778526954486111e7 0.0
1.4778526954486111e7 -1.7296047861481754e6 0.0
0.0 0.0 0.0

-1.2843805579490751e7 1.0795311634972643e7 0.0
1.0795311634972643e7 1.8373249346632548e7 0.0
0.0 0.0 0.0

-3.2746405461884513e6 2.164430974323308e7 0.0
2.164430974323308e7 3.294520753907698e6 0.0
0.0 0.0 0.0

-1.8461561843405375e6 1.738930128560537e7 0.0
1.738930128560537e7 1.6388923921205081e7 0.0
0.0 0.0 0.0

-9.022747741810113e6 -3.414399541341712e6 0.0
-3.414399541341712e6 3.707359920092893e7 0.0
0.0 0.0 0.0

4.75467003931942e6 2.2690493242115043e6 0.0
2.2690493242115043e6 -3.348259000412028e7 0.0
0.0 0.0 0.0

-1.7998869657876391e6 1.9922951712774903e7 0.0
1.9922951712774903e7 -5.174450055908743e6 0.0
0.0 0.0 0.0

-4.661360557763965e6 1.5226120697184583e7 0.0
1.5226120697184583e7 -3.950316530965242e7 0.0
0.0 0.0 0.0

-2.467160591405946e6 2.2093412757909186e7 0.0
2.2093412757909186e7 -1.3140336087704035e6 0.0
0.0 0.0 0.0

1.1775383904765602e6 1.4046320712207321e7 0.0
1.4046320712207321e7 -1.3601326023741344e7 0.0
0.0 0.0 0.0

1.058444702752404e6 1.3201826331503568e7 0.0
1.3201826331503568e7 -1.864380058919829e7 0.0
0.0 0.0 0.0

-727865.4176305472 1.6210023693117656e7 0.0
1.6210023693117656e7 4.546251850770797e6 0.0
0.0 0.0 0.0

-452428.54537903075 1.983353469492417e7 0.0
1.983353469492417e7 -6.6242852809106475e6 0.0
0.0 0.0 0.0

-409704.34364293143 1.8311035914185576e7 0.0
1.8311035914185576e7 -8.398265577111457e6 0.0
0.0 0.0 0.0

-2.900235558465643e6 1.412621762824971e7 0.0
1.412621762824971e7 -3.080687872454041e7 0.0
0.0 0.0 0.0

-2.763496771552071e6 2.233063762479714e7 0.0
2.233063762479714e7 1.450924842779164e6 0.0
0.0 0.0 0.0

-4.662523219842957e6 1.8968087613405127e7 0.0
1.8968087613405127e7 7.6951584278015215e6 0.0
0.0 0.0 0.0

-4.458818156485851e6 1.999043854934345e7 0.0
1.999043854934345e7 -7.379414681017584e6 0.0
0.0 0.0 0.0

808471.7911324827 1.3540100708856404e7 0.0
1.3540100708856404e7 -1.8648358189119227e7 0.0
0.0 0.0 0.0

-1.215324190564897e7 9.45898884199358e6 0.0
9.45898884199358e6 1.580734769904571e7 0.0
0.0 0.0 0.0

1.0393449486091293e6 1.551253866569536e7 0.0
1.551253866569536e7 7.557844324426003e6 0.0
0.0 0.0 0.0

-1.1587941017825844e7 1.1105537928119218e7 0.0
1.1105537928119218e7 1.5666893332384832e7 0.0
0.0 0.0 0.0

-2.2479582710899045e6 1.5763036551984297e7 0.0
1.5763036551984297e7 -2.1866118359273616e6 0.0
0.0 0.0 0.0

-2.9231438251510784e6 2.2154852293024674e7 0.0
2.2154852293024674e7 2.1087481720047733e6 0.0
0.0 0.0 0.0

-483918.27359518874 1.3694489113145728e7 0.0
1.3694489113145728e7 -2.2511262410247486e7 0.0
0.0 0.0 0.0

-4.926335525430146e6 1.7443599787399698e7 0.0
1.7443599787399698e7 1.5760899906508524e7 0.0
0.0 0.0 0.0

-2.3925506275484757e6 2.758521467339482e7 0.0
2.758521467339482e7 2.254968624927678e6 0.0
0.0 0.0 0.0

-3.0760207196635874e6 1.606300150599717e7 0.0
1.606300150599717e7 -2.649679663091195e6 0.0
0.0 0.0 0.0

-2.110896580014966e6 2.0839216718134284e7 0.0
2.0839216718134284e7 -3.565936902016629e6 0.0
0.0 0.0 0.0

8.97293430663941e6 1.900134774128668e7 0.0
1.900134774128668e7 8.29778556726783e6 0.0
0.0 0.0 0.0

-3.118858828448066e6 2.191834116006365e7 0.0
2.191834116006365e7 2.665102708766358e6 0.0
0.0 0.0 0.0

-9.157926572518077e6 1.2509919515734345e7 0.0
1.2509919515734345e7 3.7881509281153837e6 0.0
0.0 0.0 0.0

-2.59196532667956e6 2.360352006111234e7 0.0
2.360352006111234e7 1.7090997753716852e6 0.0
0.0 0.0 0.0

4.811396566638977e6 3.0675731969780233e6 0.0
3.0675731969780233e6 -1.880204369681698e7 0.0
0.0 0.0 0.0

4.81643309745333e6 3.129520161630334e6 0.0
3.129520161630334e6 -1.8196141484356157e7 0.0
0.0 0.0 0.0

-1.9055556270825097e6 2.0408425887483202e7 0.0
2.0408425887483202e7 -4.227305448906238e6 0.0
0.0 0.0 0.0

-1.4000783772015497e6 1.7152250173051856e7 0.0
1.7152250173051856e7 2.0494217375103626e7 0.0
0.0 0.0 0.0

-2.258116330514583e6 2.4177739438647557e7 0.0
2.4177739438647557e7 1.3785198541837586e6 0.0
0.0 0.0 0.0

-1.2973545742310517e7 8.316344011068229e6 0.0
8.316344011068229e6 2.085232080817578e7 0.0
0.0 0.0 0.0

-2.170220178066531e6 2.6026010540380307e7 0.0
2.6026010540380307e7 1.7770055849727634e6 0.0
0.0 0.0 0.0

-3.809056371026093e6 1.7667343939763345e7 0.0
1.7667343939763345e7 9.803638745676216e6 0.0
0.0 0.0 0.0

-569744.4335552312 1.4102557914608518e7 0.0
1.4102557914608518e7 3.522261263499355e6 0.0
0.0 0.0 0.0

2.5414735517432746e6 1.0941203709960064e7 0.0
1.0941203709960064e7 -2.1134922595905654e7 0.0
0.0 0.0 0.0

-3.9210515643621134e6 2.1578768922149304e7 0.0
2.1578768922149304e7 3.5753739019272393e6 0.0
0.0 0.0 0.0

-8.17110351041146e6 -5.139755976725021e6 0.0
-5.139755976725021e6 1.844454277088011e7 0.0
0.0 0.0 0.0

-7.496677525605541e6 1.386413997707205e7 0.0
1.386413997707205e7 2.925342292517433e7 0.0
0.0 0.0 0.0

-2.336394617872728e6 1.3783280591668407e7 0.0
1.3783280591668407e7 -3.480921655991568e7 0.0
0.0 0.0 0.0

-1.2207066276628269e7 9.447208022609789e6 0.0
9.447208022609789e6 2.379132895047504e7 0.0
0.0 0.0 0.0

2.55107279763728e6 2.0284565840293176e7 0.0
2.0284565840293176e7 -5.431413090708899e6 0.0
0.0 0.0 0.0

2.430597552217886e6 1.1390936172168843e7 0.0
1.1390936172168843e7 -1.893145569101435e7 0.0
0.0 0.0 0.0

-3.3512589488668824e6 1.5762501935989928e7 0.0
1.5762501935989928e7 -1.9018799987915568e6 0.0
0.0 0.0 0.0

-2.3135899180233325e6 2.171533845073833e7 0.0
2.171533845073833e7 -2.0346779839675622e6 0.0
0.0 0.0 0.0

-114058.70922923996 1.4362427675759109e7 0.0
1.4362427675759109e7 -4.815364598630583e6 0.0
0.0 0.0 0.0

-1.2129316839794163e7 9.060716261846947e6 0.0
9.060716261846947e6 1.9378688341602184e7 0.0
0.0 0.0 0.0

-1.206477835744929e7 1.1502765331593279e7 0.0
1.1502765331593279e7 2.314175587348801e7 0.0
0.0 0.0 0.0

-2.2088004931103587e6 2.1283833784331787e7 0.0
2.1283833784331787e7 -2.800091701822499e6 0.0
0.0 0.0 0.0

-8.049582008288081e6 1.173783506789175e7 0.0
1.173783506789175e7 1.3679724743856318e7 0.0
0.0 0.0 0.0

4.593272905590311e6 4.564808012965601e6 0.0
4.564808012965601e6 -2.888328484782382e7 0.0
0.0 0.0 0.0

-7.3983751561206095e6 1.4485977350961225e7 0.0
1.4485977350961225e7 1.0742024865606928e7 0.0
0.0 0.0 0.0

-626628.0388934836 1.4527844449826034e7 0.0
1.4527844449826034e7 -9.223912465120036e6 0.0
0.0 0.0 0.0

220616.08354173615 1.4991618610229887e7 0.0
1.4991618610229887e7 693098.2626446786 0.0
0.0 0.0 0.0

-2.2944153882959173e6 1.72243826926749e7 0.0
1.72243826926749e7 -9.110449992104689e6 0.0
0.0 0.0 0.0

-1.8795418213808243e6 1.5680370504161425e7 0.0
1.5680370504161425e7 -6.109492961540888e6 0.0
0.0 0.0 0.0

913913.3463532105 1.358337478285316e7 0.0
1.358337478285316e7 -1.7612344742203653e7 0.0
0.0 0.0 0.0

3.3481318551829187e6 7.688347193741323e6 0.0
7.688347193741323e6 -2.185732017271253e7 0.0
0.0 0.0 0.0

-393165.9142292221 1.4427085698780661e7 0.0
1.4427085698780661e7 -7.068453640575258e6 0.0
0.0 0.0 0.0

2.303599449334641e6 9.756618022033976e6 0.0
9.756618022033976e6 -1.5987417107729623e7 0.0
0.0 0.0 0.0

4.263939400718325e6 4.31368597113651e6 0.0
4.31368597113651e6 -1.5025480915957661e7 0.0
0.0 0.0 0.0

-3.5880001053896854e6 2.213696238437751e7 0.0
2.213696238437751e7 2.306862208342865e6 0.0
0.0 0.0 0.0

-727474.9744396713 1.1340748397470705e7 0.0
1.1340748397470705e7 -7.044508723019798e6 0.0
0.0 0.0 0.0

-5.205082110310103e6 1.7382960064506475e7 0.0
1.7382960064506475e7 1.4397805459105838e7 0.0
0.0 0.0 0.0

-3.6958252223824607e6 -5.254784352333693e6 0.0
-5.254784352333693e6 9.218316372177022e6 0.0
0.0 0.0 0.0

2.2072866696830946e6 1.6385344174342053e7 0.0
1.6385344174342053e7 757770.5501247334 0.0
0.0 0.0 0.0

-3.212104570528027e6 1.7672718796119306e7 0.0
1.7672718796119306e7 -9.047048209092563e6 0.0
0.0 0.0 0.0

3.0941767327822726e6 8.095979360338717e6 0.0
8.095979360338717e6 -1.8485635553917643e7 0.0
0.0 0.0 0.0

-8.14792101774643e7 1.3183206499029892e7 0.0
1.3183206499029892e7 7.2180316536712125e6 0.0
0.0 0.0 0.0

-7.529652124872937e6 1.667205334109372e7 0.0
1.667205334109372e7 1.7433524476580735e7 0.0
0.0 0.0 0.0

353398.6945844181 1.6018591549485598e7 0.0
1.6018591549485598e7 -1.1767794063165067e7 0.0
0.0 0.0 0.0

-1.2512754960485615e6 1.4488831318765296e7 0.0
1.4488831318765296e7 -7.426482260410035e6 0.0
0.0 0.0 0.0

1.9524803260051701e6 1.2272308737586647e7 0.0
1.2272308737586647e7 -1.936681971568709e7 0.0
0.0 0.0 0.0

-189420.51654140884 1.6061183739301857e7 0.0
1.6061183739301857e7 8.028588400899019e6 0.0
0.0 0.0 0.0

2.0935585448741447e6 1.123729494336932e7 0.0
1.123729494336932e7 -2.3670364171953477e7 0.0
0.0 0.0 0.0

-8697.720220431685 1.6333226122470893e7 0.0
1.6333226122470893e7 9.372877070099996e6 0.0
0.0 0.0 0.0

276150.83107765205 1.4654647825370833e7 0.0
1.4654647825370833e7 -1.3010676030206926e7 0.0
0.0 0.0 0.0

3.7871399856570484e6 7.893701440536399e6 0.0
7.893701440536399e6 -1.949622648218543e7 0.0
0.0 0.0 0.0

4.462771631610835e6 3.0939045648804507e6 0.0
3.0939045648804507e6 -3.2922363917903047e7 0.0
0.0 0.0 0.0

613990.8186842927 2.1631580382126626e7 0.0
2.1631580382126626e7 -4.893324999779964e6 0.0
0.0 0.0 0.0

2.409155658809729e6 1.1044485190438608e7 0.0
1.1044485190438608e7 -2.241711956511615e7 0.0
0.0 0.0 0.0

-4.131552664249067e6 2.2828660201282106e7 0.0
2.2828660201282106e7 5.664059746136927e6 0.0
0.0 0.0 0.0

-5.750513416673777e6 1.847007469831297e7 0.0
1.847007469831297e7 1.4945029291867828e6 0.0
0.0 0.0 0.0

2.593059482340895e6 7.417493110565014e6 0.0
7.417493110565014e6 -9.835723359818751e6 0.0
0.0 0.0 0.0

-2.784322616166108e6 2.8233959770206254e7 0.0
2.8233959770206254e7 2.515162141818981e6 0.0
0.0 0.0 0.0

3.4047068388033044e6 8.696190033849178e6 0.0
8.696190033849178e6 -1.749915574150796e7 0.0
0.0 0.0 0.0

-3.416517811004678e6 1.5872886463898921e7 0.0
1.5872886463898921e7 2.8819903599321753e7 0.0
0.0 0.0 0.0

-549525.8798521445 1.6339507043016378e7 0.0
1.6339507043016378e7 1.0436725117635285e6 0.0
0.0 0.0 0.0

-6.220082291477535e6 2.3795327139072172e7 0.0
2.3795327139072172e7 6.262104354655977e6 0.0
0.0 0.0 0.0

-1.069641606883148e7 1.0343299263879966e7 0.0
1.0343299263879966e7 1.7096032429740347e7 0.0
0.0 0.0 0.0

1.670799634708222e6 1.2043221518639145e7 0.0
1.2043221518639145e7 -1.9470995689704973e7 0.0
0.0 0.0 0.0

-2.0271607270417553e6 9.723311469862131e6 0.0
9.723311469862131e6 -2.7690028659250387e6 0.0
0.0 0.0 0.0

-1.2577887991842483e6 1.614313102211848e7 0.0
1.614313102211848e7 -5.377694757919708e6 0.0
0.0 0.0 0.0

8.071169655692734e6 1.6994307214600455e7 0.0
1.6994307214600455e7 475233.2236606339 0.0
0.0 0.0 0.0

435631.31194425374 1.5966456498664644e7 0.0
1.5966456498664644e7 -1.2939288744275533e7 0.0
0.0 0.0 0.0

981503.748186443 8.248326124132469e6 0.0
8.248326124132469e6 -5.723194816481613e6 0.0
0.0 0.0 0.0

1.2606022195202596e6 1.2823899900414083e7 0.0
1.2823899900414083e7 -1.8585246776478585e7 0.0
0.0 0.0 0.0

-9.434522345204575e6 -4.666693614870792e6 0.0
-4.666693614870792e6 2.4415007134997956e7 0.0
0.0 0.0 0.0

-5.157247853492367e6 1.7973379470979933e7 0.0
1.7973379470979933e7 1.2990974409981567e7 0.0
0.0 0.0 0.0

-1.2771648691371392e7 1.1478644602191398e7 0.0
1.1478644602191398e7 1.8954226984730124e7 0.0
0.0 0.0 0.0

-1.1918864862612253e7 2.2413898096364643e7 0.0
2.2413898096364643e7 -1.078978206088889e6 0.0
0.0 0.0 0.0

-2.6213613280802732e6 1.4254279125795087e7 0.0
1.4254279125795087e7 -2.976057682358241e7 0.0
0.0 0.0 0.0

-3.9574768965705726e6 2.0886268509670567e7 0.0
2.0886268509670567e7 6.875740700633366e6 0.0
0.0 0.0 0.0

-4.67287541969038e6 2.1698284407145284e7 0.0
2.1698284407145284e7 6.836793535043413e6 0.0
0.0 0.0 0.0

-49658.08577564452 1.8416511925518665e7 0.0
1.8416511925518665e7 -8.395483541807527e6 0.0
0.0 0.0 0.0

-1.0417814520704709e6 1.3082855072907325e7 0.0
1.3082855072907325e7 -3.0997027536683474e7 0.0
0.0 0.0 0.0

-4.818894260388801e6 1.713484908526922e7 0.0
1.713484908526922e7 1.446001998531756e7 0.0
0.0 0.0 0.0

-1.0969084228890073e7 3.5500148844696926e6 0.0
3.5500148844696926e6 3.3412722351732925e7 0.0
0.0 0.0 0.0

2.490949217717139e6 3.431245879621204e6 0.0
3.431245879621204e6 -6.991424179092221e6 0.0
0.0 0.0 0.0

-303903.32918439806 1.4572805432974678e7 0.0
1.4572805432974678e7 -1.7131548379329074e7 0.0
0.0 0.0 0.0

-404709.1191878235 1.9248245648817748e7 0.0
1.9248245648817748e7 -7.379171841702862e6 0.0
0.0 0.0 0.0

-2.3945787236716775e6 1.6535370385568049e7 0.0
1.6535370385568049e7 -1.8938630743736592e6 0.0
0.0 0.0 0.0

-406073.41189641925 1.356652367510833e7 0.0
1.356652367510833e7 -9.318376510577567e6 0.0
0.0 0.0 0.0

-5.317273425915864e6 1.4905757775493106e7 0.0
1.4905757775493106e7 -2.3737444950544015e7 0.0
0.0 0.0 0.0

-1.2763839131354887e7 1.0384091623247083e7 0.0
1.0384091623247083e7 2.170523490514131e7 0.0
0.0 0.0 0.0

-1.6670846047300408e6 2.3965879000021264e7 0.0
2.3965879000021264e7 214042.34357994795 0.0
0.0 0.0 0.0

-1.7790753115281012e7 2.171035363744969e7 0.0
2.171035363744969e7 3.4909528373058755e6 0.0
0.0 0.0 0.0

2.4244082804528186e6 1.6835987771004613e7 0.0
1.6835987771004613e7 942469.4886258331 0.0
0.0 0.0 0.0

2.1232342303017774e6 7.283582082355361e6 0.0
7.283582082355361e6 -1.1335622590939831e7 0.0
0.0 0.0 0.0

-2.618574166014389e6 1.622479891874691e7 0.0
1.622479891874691e7 -1.1614038469089342e6 0.0
0.0 0.0 0.0

-1.1914891008243388e7 7.984669618025167e6 0.0
7.984669618025167e6 2.6469019994518347e7 0.0
0.0 0.0 0.0

-4.807354007581142e6 2.4151868219076928e7 0.0
2.4151868219076928e7 5.249763886523024e6 0.0
0.0 0.0 0.0

-5.548708224470864e6 1.714224989320192e7 0.0
1.714224989320192e7 1.5315978289966777e7 0.0
0.0 0.0 0.0

-2.9959230013521975e6 2.266625042749309e7 0.0
2.266625042749309e7 596793.1416618951 0.0
0.0 0.0 0.0

548502.1253991164 1.4224649268629225e7 0.0
1.4224649268629225e7 -1.3875630926908495e7 0.0
0.0 0.0 0.0

-1.1971814268311985e7 9.903027991851833e6 0.0
9.903027991851833e6 2.5474498411386892e7 0.0
0.0 0.0 0.0

289205.4376085531 1.4852793653285446e7 0.0
1.4852793653285446e7 -1.5572019111301463e7 0.0
0.0 0.0 0.0

-3.8844876021153205e6 1.827473782023169e7 0.0
1.827473782023169e7 -2.8919772218055595e6 0.0
0.0 0.0 0.0

-1.6973757710857526e6 2.430323842043446e7 0.0
2.430323842043446e7 189166.88263675733 0.0
0.0 0.0 0.0

3.8460531338864854e6 5.133937432045698e6 0.0
5.133937432045698e6 -1.5796485947174825e7 0.0
0.0 0.0 0.0

642071.8756964533 1.788141394021336e7 0.0
1.788141394021336e7 -7.921334894312959e6 0.0
0.0 0.0 0.0

-3.835940104263814e6 2.0792974307959877e7 0.0
2.0792974307959877e7 6.172387393732254e6 0.0
0.0 0.0 0.0

-1.1516257975672785e7 9.370852947737144e6 0.0
9.370852947737144e6 1.8034879879880667e7 0.0
0.0 0.0 0.0

-3.13759463825234e6 1.9313640889831457e7 0.0
1.9313640889831457e7 -6.75420778683019e6 0.0
0.0 0.0 0.0

-1.2378256705005247e7 1.242344794214777e7 0.0
1.242344794214777e7 2.1089849002894096e7 0.0
0.0 0.0 0.0

-2.0820804012321373e6 4.935544779681818e6 0.0
4.935544779681818e6 5.4201054106319975e6 0.0
0.0 0.0 0.0

-3.8714973642420964e6 2.0260962443916004e7 0.0
2.0260962443916004e7 6.20608700239381e6 0.0
0.0 0.0 0.0

-1.3108667473880544e7 8.598610798239596e6 0.0
8.598610798239596e6 1.960123231073305e7 0.0
0.0 0.0 0.0

-5.856774155467835e6 1.7155301623015426e7 0.0
1.7155301623015426e7 9.77539472096063e6 0.0
0.0 0.0 0.0

1.4223492447986268e6 1.656978378968186e7 0.0
1.656978378968186e7 2.0014423129652888e7 0.0
0.0 0.0 0.0

-337312.75629303977 1.2912753277408829e7 0.0
1.2912753277408829e7 -2.7638653150599122e7 0.0
0.0 0.0 0.0

-3.474267262008113e6 -4.66225065995763e6 0.0
-4.66225065995763e6 8.555852622163335e6 0.0
0.0 0.0 0.0

3.4263054420754313e6 2.1581775517622758e7 0.0
2.1581775517622758e7 -4.930752927895508e6 0.0
0.0 0.0 0.0

-1.2214313623526096e7 8.407269136760226e6 0.0
8.407269136760226e6 2.339040806940853e7 0.0
0.0 0.0 0.0

701822.5370038734 1.1878454173122609e7 0.0
1.1878454173122609e7 -1.1408506060146773e7 0.0
0.0 0.0 0.0

-3.987340683629615e6 1.7106588242698047e7 0.0
1.7106588242698047e7 1.2440590722088428e7 0.0
0.0 0.0 0.0

-1.05770935943163e6 1.5421315684934627e7 0.0
1.5421315684934627e7 -5.706569755377885e6 0.0
0.0 0.0 0.0

-6.482791249360279e6 1.7549991321295734e7 0.0
1.7549991321295734e7 1.4148095286394933e7 0.0
0.0 0.0 0.0

278544.8654493238 1.0012375580237933e7 0.0
1.0012375580237933e7 -6.6449821434940975e6 0.0
0.0 0.0 0.0

-5.582510715306196e6 1.985317225647681e7 0.0
1.985317225647681e7 6.0082387584839165e6 0.0
0.0 0.0 0.0

-5.857489595835181e6 1.730332188364223e7 0.0
1.730332188364223e7 1.053255555992607e7 0.0
0.0 0.0 0.0

347086.8508253149 1.7764751267111093e7 0.0
1.7764751267111093e7 -8.86093428590942e6 0.0
0.0 0.0 0.0

-4.1751436374920434e6 2.0907817665634617e7 0.0
2.0907817665634617e7 5.027111460148356e6 0.0
0.0 0.0 0.0

-2.161657447927705e6 2.461363928330336e7 0.0
2.461363928330336e7 1.5255634223415824e6 0.0
0.0 0.0 0.0

-79617.83352956641 1.296377597093476e7 0.0
1.296377597093476e7 -2.4268429683690123e7 0.0
0.0 0.0 0.0

1.5584723076162322e6 3.2459975764816343e6 0.0
3.2459975764816343e6 -3.3356953122586915e6 0.0
0.0 0.0 0.0

-4.857141264188929e6 2.26595235313021e6 0.0
2.26595235313021e6 4.779010418637192e6 0.0
0.0 0.0 0.0

3.9489500489150938e6 4.269898991466093e6 0.0
4.269898991466093e6 -4.073924479476859e7 0.0
0.0 0.0 0.0

-1.2694552274987274e6 1.919524645652589e7 0.0
1.919524645652589e7 -5.329944075179812e6 0.0
0.0 0.0 0.0

-6.196386104311967e6 1.704917324852245e7 0.0
1.704917324852245e7 1.594250212225865e7 0.0
0.0 0.0 0.0

-1.2837211577998219e7 9.904906115726471e6 0.0
9.904906115726471e6 1.7787345580063153e7 0.0
0.0 0.0 0.0

-3.2865488198088035e6 2.8967453689004567e7 0.0
2.8967453689004567e7 2.725650406232503e6 0.0
0.0 0.0 0.0

-1.2707319230169747e7 6.795540869538537e6 0.0
6.795540869538537e6 2.3184747330798037e7 0.0
0.0 0.0 0.0

2.2774455998832345e7 4.7754063366569616e7 0.0
4.7754063366569616e7 -8.692869224876588e6 0.0
0.0 0.0 0.0

-635233.0823765071 1.746925118547392e7 0.0
1.746925118547392e7 -9.753870012611208e6 0.0
0.0 0.0 0.0

1.607054365259776e6 1.315707035396696e7 0.0
1.315707035396696e7 -1.5320769557652641e7 0.0
0.0 0.0 0.0

-5.02230611008678e6 1.7628490546229206e7 0.0
1.7628490546229206e7 1.3334020163421512e7 0.0
0.0 0.0 0.0

-1.25241995737081e7 9.18751713499466e6 0.0
9.18751713499466e6 2.407813934314041e7 0.0
0.0 0.0 0.0

-738017.938081884 1.8773259490541406e7 0.0
1.8773259490541406e7 -7.120015767917017e6 0.0
0.0 0.0 0.0

18945.945402396028 1.5335895302153187e7 0.0
1.5335895302153187e7 3.0761121783289276e6 0.0
0.0 0.0 0.0

4.632993337146025e6 3.3016600280521363e6 0.0
3.3016600280521363e6 -2.647394926993347e7 0.0
0.0 0.0 0.0

-6.6049058688746365e6 6.651336813711549e6 0.0
6.651336813711549e6 1.05211340611692e7 0.0
0.0 0.0 0.0

-4.649819123894831e6 3.1020065729205925e7 0.0
3.1020065729205925e7 3.5903560495821256e6 0.0
0.0 0.0 0.0

-7.297475941012441e6 1.704244588132061e7 0.0
1.704244588132061e7 1.709444616014482e7 0.0
0.0 0.0 0.0

-754965.6893490856 1.482754395352396e7 0.0
1.482754395352396e7 -1.4417583974464731e7 0.0
0.0 0.0 0.0

3.7647259860957605e6 1.6928851417935193e7 0.0
1.6928851417935193e7 4.8858350523397345e6 0.0
0.0 0.0 0.0

-7.769153656842114e6 2.6749272752088597e6 0.0
2.6749272752088597e6 1.020892248761984e7 0.0
0.0 0.0 0.0

-4.964788594830764e6 9.599286925808793e6 0.0
9.599286925808793e6 2.982005066433144e6 0.0
0.0 0.0 0.0

-833291.9771143557 1.4581356916847836e7 0.0
1.4581356916847836e7 -1.1284556901897134e7 0.0
0.0 0.0 0.0

159099.77606609557 1.4351294226015e7 0.0
1.4351294226015e7 -9.204263959374895e6 0.0
0.0 0.0 0.0

-8.1251107414032705e6 1.5853122202679433e7 0.0
1.5853122202679433e7 1.3952825990403589e7 0.0
0.0 0.0 0.0

-453496.136946341 1.43652018561187e7 0.0
1.43652018561187e7 -1.8184261015648324e7 0.0
0.0 0.0 0.0

2.377664084875148e6 1.1395569659362815e7 0.0
1.1395569659362815e7 -2.0139841793038905e7 0.0
0.0 0.0 0.0

-4.087998406083567e6 2.0933555014313042e7 0.0
2.0933555014313042e7 7.457250880681434e6 0.0
0.0 0.0 0.0

916497.618643566 1.4600576956445089e7 0.0
1.4600576956445089e7 -1.5664363694879688e7 0.0
0.0 0.0 0.0

-1.2260751013950177e7 1.0764077820492484e7 0.0
1.0764077820492484e7 2.0395183242361084e7 0.0
0.0 0.0 0.0

3.6493115100110956e6 5.268157056982582e6 0.0
5.268157056982582e6 -1.1810814930349082e7 0.0
0.0 0.0 0.0

-2.2702453643716164e7 2.6383104178196482e7 0.0
2.6383104178196482e7 -5.166185367126571e6 0.0
0.0 0.0 0.0

1.716093835739728e6 6.816345735557204e6 0.0
6.816345735557204e6 -9.362098572488213e6 0.0
0.0 0.0 0.0

3.876729718698293e6 3.3530137912371256e6 0.0
3.3530137912371256e6 -1.1742904865280524e7 0.0
0.0 0.0 0.0

-4.863289741106084e6 2.1621537864973426e7 0.0
2.1621537864973426e7 7.27563852707175e6 0.0
0.0 0.0 0.0

1.3821677051243477e6 1.4361843018326107e7 0.0
1.4361843018326107e7 4.607226164122977e6 0.0
0.0 0.0 0.0

2.6313900361966584e6 1.7259945892281737e7 0.0
1.7259945892281737e7 -3.0273562753081713e6 0.0
0.0 0.0 0.0

-8.234156859446563e6 1.5968640739475116e7 0.0
1.5968640739475116e7 2.0430236145099755e7 0.0
0.0 0.0 0.0

-5.272286068684903e6 1.65056471349674e7 0.0
1.65056471349674e7 2.120254486961752e7 0.0
0.0 0.0 0.0

6.071924574379929e6 1.5550020653523754e7 0.0
1.5550020653523754e7 3.656073557797325e7 0.0
0.0 0.0 0.0

197292.2713359798 1.5450572660410196e7 0.0
1.5450572660410196e7 -3.056639697298497e6 0.0
0.0 0.0 0.0

-5.616056629422628e6 1.755010045377983e7 0.0
1.755010045377983e7 1.4127975490600701e7 0.0
0.0 0.0 0.0

-6.649284092413517e6 1.5181228335019356e7 0.0
1.5181228335019356e7 9.479822611199487e6 0.0
0.0 0.0 0.0

-990422.4850019421 1.4632060575593151e7 0.0
1.4632060575593151e7 -1.3308735417259455e7 0.0
0.0 0.0 0.0

-4.300861911828649e6 2.1078743557302095e7 0.0
2.1078743557302095e7 5.710172638329282e6 0.0
0.0 0.0 0.0

-1.2794003084451426e7 9.194760302917741e6 0.0
9.194760302917741e6 2.2562650687655717e7 0.0
0.0 0.0 0.0

6.624327078564758e6 2.0384055490655232e7 0.0
2.0384055490655232e7 -4.64471490840647e6 0.0
0.0 0.0 0.0

-356834.61237319186 1.782503666421344e7 0.0
1.782503666421344e7 -8.8746072316329e6 0.0
0.0 0.0 0.0

3.4711215204025414e6 6.704352941446372e6 0.0
6.704352941446372e6 -1.833114419944481e7 0.0
0.0 0.0 0.0

1.4601639475990087e6 1.9007388873502214e7 0.0
1.9007388873502214e7 -6.177128987781805e6 0.0
0.0 0.0 0.0

-2.2361905133001977e6 2.1796796786436982e7 0.0
2.1796796786436982e7 -556973.5882250821 0.0
0.0 0.0 0.0

-3.9260656021583537e6 1.498746186341813e7 0.0
1.498746186341813e7 -1.3086888586091388e7 0.0
0.0 0.0 0.0

6.448364058816941e6 1.774525683964014e7 0.0
1.774525683964014e7 2.149455549017456e7 0.0
0.0 0.0 0.0

-1.0024386392581249e7 -2.282509960792696e6 0.0
-2.282509960792696e6 3.2624059084488146e7 0.0
0.0 0.0 0.0

81558.54846573668 1.6845114062046047e7 0.0
1.6845114062046047e7 5.136379256360223e6 0.0
0.0 0.0 0.0

-9.681721553769082e6 -4.236026422321205e6 0.0
-4.236026422321205e6 2.6213173976751484e7 0.0
0.0 0.0 0.0

-1.4789757524174503e6 2.2113786124515798e7 0.0
2.2113786124515798e7 -1.9989657816052279e6 0.0
0.0 0.0 0.0

546421.017797227 2.091939897759941e7 0.0
2.091939897759941e7 -5.434772648685239e6 0.0
0.0 0.0 0.0

-3.9517420688321325e6 2.986380720500866e7 0.0
2.986380720500866e7 2.8341123131500767e6 0.0
0.0 0.0 0.0

3.83419966950149e6 1.6725875364580253e7 0.0
1.6725875364580253e7 7.7373388510780735e6 0.0
0.0 0.0 0.0

-1.2127580486598464e7 8.197273943613638e6 0.0
8.197273943613638e6 2.485599871578429e7 0.0
0.0 0.0 0.0

-1.6391273081871518e6 2.2524649429984808e7 0.0
2.2524649429984808e7 -1.21495499563867e6 0.0
0.0 0.0 0.0

-5.511933877258494e6 1.791730999306838e7 0.0
1.791730999306838e7 9.466206008594334e6 0.0
0.0 0.0 0.0

-4.357237032420845e6 1.9992242172252662e7 0.0
1.9992242172252662e7 5.790040403776949e6 0.0
0.0 0.0 0.0

3.3062822937333994e6 8.086343431313899e6 0.0
8.086343431313899e6 -3.002205908477398e7 0.0
0.0 0.0 0.0

-4.256662959745482e6 2.0869378583404493e7 0.0
2.0869378583404493e7 8.095416331778016e6 0.0
0.0 0.0 0.0

9.552521477044057e6 1.4340679847588753e7 0.0
1.4340679847588753e7 3.623530018442611e6 0.0
0.0 0.0 0.0

2.240199690643074e6 1.1864640093733044e7 0.0
1.1864640093733044e7 -1.8008365197846398e7 0.0
0.0 0.0 0.0

-8.960231656370545e6 1.3704050544013486e6 0.0
1.3704050544013486e6 4.707251353338052e7 0.0
0.0 0.0 0.0

-2.3990475740586207e6 2.335022605604378e7 0.0
2.335022605604378e7 1.1425543836521874e6 0.0
0.0 0.0 0.0

1.1261829365969452e6 1.712444701560209e7 0.0
1.712444701560209e7 4.62815495847418e6 0.0
0.0 0.0 0.0

-7.027770728537603e7 5.9344210741305985e7 0.0
5.9344210741305985e7 -1.270949157692608e7 0.0
0.0 0.0 0.0

3.9226266425520796e6 4.448822310634093e6 0.0
4.448822310634093e6 -1.5228481680401227e7 0.0
0.0 0.0 0.0

-2.7274337408866873e6 1.6989157707090415e7 0.0
1.6989157707090415e7 -886630.2565142538 0.0
0.0 0.0 0.0

-1.2794281104783826e7 2.2271705862191334e7 0.0
2.2271705862191334e7 4.1830304860296324e6 0.0
0.0 0.0 0.0

-109386.49503650842 1.625661104586594e7 0.0
1.625661104586594e7 -1.1777209639511218e7 0.0
0.0 0.0 0.0

-566527.8589448137 1.7395977195294544e7 0.0
1.7395977195294544e7 -1.017584702553711e7 0.0
0.0 0.0 0.0

6.3251930143281e6 1.766448930093352e7 0.0
1.766448930093352e7 -1.3992422287591463e6 0.0
0.0 0.0 0.0

-3.3183387878570063e6 2.6193524477098044e7 0.0
2.6193524477098044e7 3.338362150176004e6 0.0
0.0 0.0 0.0

-2.1935754633967197e6 1.769968641982752e7 0.0
1.769968641982752e7 -8.3774888012198135e6 0.0
0.0 0.0 0.0

4.353674259676224e6 5.018525790371807e6 0.0
5.018525790371807e6 -3.159704205670426e7 0.0
0.0 0.0 0.0

-2.026792635935641e7 2.3977865314434633e7 0.0
2.3977865314434633e7 -3.404764291662517e6 0.0
0.0 0.0 0.0

-4.977398943730317e6 1.745972597859253e7 0.0
1.745972597859253e7 1.0251675819027118e7 0.0
0.0 0.0 0.0

464059.3376782974 2.025068937380874e7 0.0
2.025068937380874e7 -5.978306206845962e6 0.0
0.0 0.0 0.0

-3.9261304174248967e6 1.590884681589409e7 0.0
1.590884681589409e7 2.6903448800437726e7 0.0
0.0 0.0 0.0

8.145403221121945e6 1.8962332371053662e7 0.0
1.8962332371053662e7 -4.51177232477411e6 0.0
0.0 0.0 0.0

-4.809338715770265e6 1.9550522142300874e7 0.0
1.9550522142300874e7 1.0112860212271938e7 0.0
0.0 0.0 0.0

-474746.07248485833 1.4898767773320181e7 0.0
1.4898767773320181e7 -1.006503316887465e7 0.0
0.0 0.0 0.0

2.9111017417033436e6 1.0302829042038847e7 0.0
1.0302829042038847e7 3.7946334910921017e6 0.0
0.0 0.0 0.0

1.1169206991939382e6 1.782590173427318e7 0.0
1.782590173427318e7 -6.926993110892673e6 0.0
0.0 0.0 0.0

-7.947388117719284e6 1.6697936686427219e7 0.0
1.6697936686427219e7 1.85301081431537e7 0.0
0.0 0.0 0.0

-8.342963077602796e6 4.700932045532743e6 0.0
4.700932045532743e6 4.941266088267022e7 0.0
0.0 0.0 0.0

-8.215465043159332e6 -218956.5190255905 0.0
-218956.5190255905 5.214351753019272e7 0.0
0.0 0.0 0.0

-954605.1844135018 1.63281603446107e7 0.0
1.63281603446107e7 -8.976917524237702e6 0.0
0.0 0.0 0.0

178125.92351658037 1.6932780345893223e7 0.0
1.6932780345893223e7 -1.0251556056581115e7 0.0
0.0 0.0 0.0

-452743.6165946829 1.7360014988452636e7 0.0
1.7360014988452636e7 -1.0312833417833958e7 0.0
0.0 0.0 0.0

-7.976456383462825e6 1.976082197196913e7 0.0
1.976082197196913e7 -2.2169012032191595e6 0.0
0.0 0.0 0.0

1.1269214181998659e7 1.7385454528096087e7 0.0
1.7385454528096087e7 5.83550146174627e6 0.0
0.0 0.0 0.0

-7.803015288405327e6 1.690241953670772e7 0.0
1.690241953670772e7 1.6424010182405394e7 0.0
0.0 0.0 0.0

-269133.1181838303 1.7285163951296546e7 0.0
1.7285163951296546e7 -1.0359379402668381e7 0.0
0.0 0.0 0.0

-665918.8440627139 1.4282563639425673e7 0.0
1.4282563639425673e7 -9.019267666130317e6 0.0
0.0 0.0 0.0

-7.971623350586186e6 -4.675898893988015e6 0.0
-4.675898893988015e6 1.6066801057568133e7 0.0
0.0 0.0 0.0

1.1456254908376457e6 1.2030055760855347e7 0.0
1.2030055760855347e7 -2.3930722587718397e7 0.0
0.0 0.0 0.0

-1.1025536884725051e7 -1.723156408984671e6 0.0
-1.723156408984671e6 2.500646973393017e7 0.0
0.0 0.0 0.0

-7.191018935052329e6 -7.279129488729827e6 0.0
-7.279129488729827e6 1.7805297784318242e7 0.0
0.0 0.0 0.0

-6.959880870225249e6 -7.408767402702962e6 0.0
-7.408767402702962e6 1.7116420584630366e7 0.0
0.0 0.0 0.0

-4.304880980673732e6 9.598171925797734e6 0.0
9.598171925797734e6 5.204203801667765e6 0.0
0.0 0.0 0.0

812680.358310435 1.3776082963272534e7 0.0
1.3776082963272534e7 -1.4765601487670649e7 0.0
0.0 0.0 0.0

1.653778924953116e6 1.1874060741811778e7 0.0
1.1874060741811778e7 -2.3685260709914915e7 0.0
0.0 0.0 0.0

-397922.3622884109 1.6612646244143534e7 0.0
1.6612646244143534e7 -3.7425172889091014e6 0.0
0.0 0.0 0.0

484257.7023165575 1.8083106128530443e7 0.0
1.8083106128530443e7 -7.695185042489532e6 0.0
0.0 0.0 0.0

2.9209343351995423e6 1.711808645340149e7 0.0
1.711808645340149e7 -996728.1979941414 0.0
0.0 0.0 0.0

-1.865086830036874e6 2.0668136882949546e7 0.0
2.0668136882949546e7 -2.788569920958403e6 0.0
0.0 0.0 0.0

3.6548127565704614e7 1.942069620359754e7 0.0
1.942069620359754e7 4.752171078803949e6 0.0
0.0 0.0 0.0

2.954484858462177e6 1.3727045612270407e7 0.0
1.3727045612270407e7 9.009169311494613e6 0.0
0.0 0.0 0.0

2.1361560253955517e6 1.7509410084733717e7 0.0
1.7509410084733717e7 -4.569999484415874e6 0.0
0.0 0.0 0.0

1.2492491041576362e6 2.1013432675659638e7 0.0
2.1013432675659638e7 -5.28732080654193e6 0.0
0.0 0.0 0.0

-1.9653508166431626e6 2.3170727128575873e7 0.0
2.3170727128575873e7 39618.49158077943 0.0
0.0 0.0 0.0

630183.1596310316 1.5217698291629642e7 0.0
1.5217698291629642e7 -1.4780890260326495e7 0.0
0.0 0.0 0.0

-1.3019005487306694e7 2.1596713263531633e7 0.0
2.1596713263531633e7 1.812500531128374e6 0.0
0.0 0.0 0.0

-5.37008357318086e6 2.2020693067470133e7 0.0
2.2020693067470133e7 7.003855252498699e6 0.0
0.0 0.0 0.0

4.639703961847799e6 3.0836203077907218e6 0.0
3.0836203077907218e6 -1.697908791623156e7 0.0
0.0 0.0 0.0

-2.572203434986431e6 2.1611428887042973e7 0.0
2.1611428887042973e7 -1.53329104597195e6 0.0
0.0 0.0 0.0

-6.428080701125842e6 3.2156680791842833e7 0.0
3.2156680791842833e7 3.724010919780058e6 0.0
0.0 0.0 0.0

-1.395447579875045e6 1.219852522175261e7 0.0
1.219852522175261e7 -5.298338553339761e6 0.0
0.0 0.0 0.0

2.21162663762951e6 1.1848035648168195e7 0.0
1.1848035648168195e7 -1.9165699438871805e7 0.0
0.0 0.0 0.0

1.9546273794052824e6 1.159081883701486e7 0.0
1.159081883701486e7 -2.2611383474129476e7 0.0
0.0 0.0 0.0

987045.9747124575 1.2584725560568787e7 0.0
1.2584725560568787e7 -2.360192085603183e7 0.0
0.0 0.0 0.0

4.860790501186021e6 2.8223687122746285e7 0.0
2.8223687122746285e7 -3.943450693154106e6 0.0
0.0 0.0 0.0

-143891.58116314234 1.711998738718984e7 0.0
1.711998738718984e7 -1.0360485011714842e7 0.0
0.0 0.0 0.0

2.6742634387235553e6 1.7018080481730442e7 0.0
1.7018080481730442e7 2.0687323933492556e7 0.0
0.0 0.0 0.0

-1.9718272244083796e7 1.641715394316111e7 0.0
1.641715394316111e7 8.638393949923607e6 0.0
0.0 0.0 0.0

-5.095810087675435e7 2.6364971097795e7 0.0
2.6364971097795e7 19256.204682804644 0.0
0.0 0.0 0.0

3.6327008794774804e6 6.067589980629146e6 0.0
6.067589980629146e6 -3.950475955772182e7 0.0
0.0 0.0 0.0

1.4818680117251447e6 1.7747776218835615e7 0.0
1.7747776218835615e7 -5.878753613560664e6 0.0
0.0 0.0 0.0

964792.0344600487 1.968082729762869e7 0.0
1.968082729762869e7 -6.166498866265641e6 0.0
0.0 0.0 0.0

4.474695693884463e6 3.1162511359382896e6 0.0
3.1162511359382896e6 -1.6125513493306102e7 0.0
0.0 0.0 0.0

-1.060361073595954e7 2.0580073068038408e7 0.0
2.0580073068038408e7 -3.298091612791348e6 0.0
0.0 0.0 0.0

-3.3537421109246556e6 1.691984004129613e7 0.0
1.691984004129613e7 1.5179276930835916e7 0.0
0.0 0.0 0.0

2.9126449349593176e6 1.6545216371863948e7 0.0
1.6545216371863948e7 1.1792009733300902e7 0.0
0.0 0.0 0.0

-5.645765070636687e6 -6.07566802590184e6 0.0
-6.07566802590184e6 1.341740760029047e7 0.0
0.0 0.0 0.0

1.1320461168006258e6 1.3858707953667399e7 0.0
1.3858707953667399e7 -1.758815522263023e7 0.0
0.0 0.0 0.0

2.590807050329013e6 9.239830013761075e6 0.0
9.239830013761075e6 -1.6857051505041443e7 0.0
0.0 0.0 0.0

892074.0240713186 7.858219199600121e6 0.0
7.858219199600121e6 -4.973799797144185e6 0.0
0.0 0.0 0.0

-6.346409224886925e6 -5.607803774790203e6 0.0
-5.607803774790203e6 1.0635294501526603e7 0.0
0.0 0.0 0.0

1.2973848885171637e6 1.6473088162192311e7 0.0
1.6473088162192311e7 6.096667163894204e7 0.0
0.0 0.0 0.0

-1.1125095694129897e7 2.589339792089454e6 0.0
2.589339792089454e6 3.2594582593300954e7 0.0
0.0 0.0 0.0

-145591.84882075264 2.37654341954043e7 0.0
2.37654341954043e7 -2.0325681471282467e6 0.0
0.0 0.0 0.0

-2.93081248375228e6 1.668474764746502e7 0.0
1.668474764746502e7 -130787.4721503976 0.0
0.0 0.0 0.0

-981259.6589045171 1.422239839424465e7 0.0
1.422239839424465e7 -1.0029201019902632e7 0.0
0.0 0.0 0.0

56479.386825488415 1.950614686718938e7 0.0
1.950614686718938e7 -6.958770894064306e6 0.0
0.0 0.0 0.0

-4.390154432379482e6 2.1192778456399772e7 0.0
2.1192778456399772e7 6.383335582130885e6 0.0
0.0 0.0 0.0

1.5781370482372213e6 3.2339972147328135e7 0.0
3.2339972147328135e7 -1.1965142162216806e6 0.0
0.0 0.0 0.0

3.088305135269684e6 4.546677196446659e6 0.0
4.546677196446659e6 -9.535271330536565e6 0.0
0.0 0.0 0.0

-8.340009266737721e6 -4.994845392377514e6 0.0
-4.994845392377514e6 1.5097364245570134e7 0.0
0.0 0.0 0.0

-237238.81928259996 1.5705846867500342e7 0.0
1.5705846867500342e7 1.3182226320077532e6 0.0
0.0 0.0 0.0

-7.899715664160538e6 2.25436671381326e7 0.0
2.25436671381326e7 6.246349371672346e6 0.0
0.0 0.0 0.0

-4.319137019157645e6 1.6988481154803798e7 0.0
1.6988481154803798e7 1.737319281243156e7 0.0
0.0 0.0 0.0

-1.234955604362065e7 9.810447649285749e6 0.0
9.810447649285749e6 2.1147955032533392e7 0.0
0.0 0.0 0.0

1.810766714418319e6 1.2706583889593558e7 0.0
1.2706583889593558e7 -1.8414062133583844e7 0.0
0.0 0.0 0.0

-1.3010350734145851e8 2.0704371212539468e7 0.0
2.0704371212539468e7 -5.004738853356577e6 0.0
0.0 0.0 0.0

-1.2410889850393305e7 8.577452325091908e6 0.0
8.577452325091908e6 2.2055933925317597e7 0.0
0.0 0.0 0.0

-6.830694481019603e6 2.250790214429937e7 0.0
2.250790214429937e7 6.49633057489897e6 0.0
0.0 0.0 0.0

749811.0890464773 1.4883952208227322e7 0.0
1.4883952208227322e7 -1.5644825168572603e7 0.0
0.0 0.0 0.0

71339.58128982037 1.315643386799873e7 0.0
1.315643386799873e7 -2.308059253527724e7 0.0
0.0 0.0 0.0

753020.8010673153 3.0786423845947847e7 0.0
3.0786423845947847e7 -532673.4876347729 0.0
0.0 0.0 0.0

-324924.39840846416 1.3748819662589062e7 0.0
1.3748819662589062e7 -2.1162190363692928e7 0.0
0.0 0.0 0.0

-10697.646312806755 1.6909956479386427e7 0.0
1.6909956479386427e7 -1.013089576960136e7 0.0
0.0 0.0 0.0

187018.4802523955 1.5991936980723165e7 0.0
1.5991936980723165e7 2.898054695448937e6 0.0
0.0 0.0 0.0

-764401.7432094562 2.621735672662859e7 0.0
2.621735672662859e7 398680.2190280938 0.0
0.0 0.0 0.0

-9.11153712873555e6 2.2405719180831254e7 0.0
2.2405719180831254e7 5.763417632156526e6 0.0
0.0 0.0 0.0

1.4113481533788675e6 1.3509215703723969e7 0.0
1.3509215703723969e7 -1.751813638425897e7 0.0
0.0 0.0 0.0

-136926.66756681586 1.6927013180953737e7 0.0
1.6927013180953737e7 -1.0519632167402072e7 0.0
0.0 0.0 0.0

-3.6666966670192285e6 2.112313732888627e7 0.0
2.112313732888627e7 2.1180756293895845e6 0.0
0.0 0.0 0.0

-5.970714944076506e6 2.2301651843920063e7 0.0
2.2301651843920063e7 6.7543885841022115e6 0.0
0.0 0.0 0.0

-9.235501988980116e6 -5.925311816537975e6 0.0
-5.925311816537975e6 2.5530384920474187e7 0.0
0.0 0.0 0.0

-7.654884929027722e6 1.5576527903494073e7 0.0
1.5576527903494073e7 1.5602904370896095e7 0.0
0.0 0.0 0.0

-651968.9298696499 1.4173824310339425e7 0.0
1.4173824310339425e7 -1.9297731591733046e7 0.0
0.0 0.0 0.0

1.192191029454622e7 1.6555455357279355e7 0.0
1.6555455357279355e7 -310343.79825421143 0.0
0.0 0.0 0.0

796056.6937193163 1.411918307657392e7 0.0
1.411918307657392e7 -1.760624827767484e7 0.0
0.0 0.0 0.0

-127976.06770308118 1.5465374984100841e7 0.0
1.5465374984100841e7 -2.9986054917938737e6 0.0
0.0 0.0 0.0

-1.187561106749176e7 6.832361081158581e6 0.0
6.832361081158581e6 2.608670839111375e7 0.0
0.0 0.0 0.0

-4.965614631829854e6 1.8722434547618438e7 0.0
1.8722434547618438e7 -7.299182060080083e6 0.0
0.0 0.0 0.0

-510791.9185686393 1.3991589603128346e7 0.0
1.3991589603128346e7 -5.620528669577969e6 0.0
0.0 0.0 0.0

42687.06074447092 1.6451555582586572e7 0.0
1.6451555582586572e7 -1.0360495808123367e7 0.0
0.0 0.0 0.0

-1.2802837357026458e7 3.521195205481426e7 0.0
3.521195205481426e7 5.307444601461111e6 0.0
0.0 0.0 0.0

-4.0826420756533206e7 1.1869386324020673e7 0.0
1.1869386324020673e7 8.006981476412881e6 0.0
0.0 0.0 0.0

-246919.5931786308 2.435221369748137e7 0.0
2.435221369748137e7 -2.399972090257161e6 0.0
0.0 0.0 0.0

-8.816986989178415e6 3.3569303396274835e7 0.0
3.3569303396274835e7 4.54881509202053e6 0.0
0.0 0.0 0.0

1.3408512185247542e7 4.09530751577072e7 0.0
4.09530751577072e7 -5.002421280660031e6 0.0
0.0 0.0 0.0

639749.2307664873 1.286114089628732e7 0.0
1.286114089628732e7 -2.225961319470331e7 0.0
0.0 0.0 0.0

-5.790228044589575e6 1.4780391603768125e7 0.0
1.4780391603768125e7 -2.2865579462645188e7 0.0
0.0 0.0 0.0

-4.514894074378047e6 2.0665393819734275e7 0.0
2.0665393819734275e7 8.347111433188831e6 0.0
0.0 0.0 0.0

-1.2940309558644071e7 9.422468432531394e6 0.0
9.422468432531394e6 2.129396201663573e7 0.0
0.0 0.0 0.0

-8.988657684026187e6 1.9739734024995085e7 0.0
1.9739734024995085e7 2.7893390887556467e6 0.0
0.0 0.0 0.0

-582349.8709580721 1.5620803324689852e7 0.0
1.5620803324689852e7 6.228071829445701e6 0.0
0.0 0.0 0.0

-428485.518290326 1.546599661318357e7 0.0
1.546599661318357e7 -8.003796808372028e6 0.0
0.0 0.0 0.0

2.443279741823015e6 3.418792559167825e7 0.0
3.418792559167825e7 -2.2654177531018704e6 0.0
0.0 0.0 0.0

-113149.28167267982 1.8914147653894067e7 0.0
1.8914147653894067e7 -7.627891122924976e6 0.0
0.0 0.0 0.0

1.5336523258125435e6 1.6272903159525e7 0.0
1.6272903159525e7 -4.0792415278608296e6 0.0
0.0 0.0 0.0

4.923975649279781e6 2.5108842524828063e6 0.0
2.5108842524828063e6 -2.7630560558946554e7 0.0
0.0 0.0 0.0

-4.558213631607486e6 2.1216585317898497e7 0.0
2.1216585317898497e7 7.00253364177346e6 0.0
0.0 0.0 0.0

-3.9548245250497125e6 1.6147215466913685e7 0.0
1.6147215466913685e7 3.727494416065701e6 0.0
0.0 0.0 0.0

1.7984778911705767e6 1.102876845254225e7 0.0
1.102876845254225e7 -1.1653723440819276e7 0.0
0.0 0.0 0.0

238639.94939853437 1.32380159085455e7 0.0
1.32380159085455e7 -2.3220267897511013e7 0.0
0.0 0.0 0.0

-4.80873221226077e6 1.7700547817297433e7 0.0
1.7700547817297433e7 1.4164403475522343e7 0.0
0.0 0.0 0.0

-5.829649369214201e6 1.6784031770558663e7 0.0
1.6784031770558663e7 1.953795044267831e7 0.0
0.0 0.0 0.0

-818325.5426119464 1.47770183179177e7 0.0
1.47770183179177e7 -3.500292379521029e6 0.0
0.0 0.0 0.0

1.7175630302411565e6 2.0359164878862906e7 0.0
2.0359164878862906e7 -5.6255915906758e6 0.0
0.0 0.0 0.0

-4.269382597472541e6 2.047652011011554e7 0.0
2.047652011011554e7 8.202663954413623e6 0.0
0.0 0.0 0.0

-9.449279549306286e6 1.1878640686790368e6 0.0
1.1878640686790368e6 4.181108381241772e7 0.0
0.0 0.0 0.0

-3.912248006153744e6 1.0388212032084262e7 0.0
1.0388212032084262e7 4.172892644707162e6 0.0
0.0 0.0 0.0

-632.0801368209068 1.5666248464741152e7 0.0
1.5666248464741152e7 -4.497722823647807e6 0.0
0.0 0.0 0.0

-5.196000025333073e6 2.1437021036962055e7 0.0
2.1437021036962055e7 7.6349331323914435e6 0.0
0.0 0.0 0.0

-5.238999162023947e6 1.7790652791205205e7 0.0
1.7790652791205205e7 1.1690498273363333e7 0.0
0.0 0.0 0.0

2.4733344924285784e6 1.114231333559269e7 0.0
1.114231333559269e7 -1.597838326331047e7 0.0
0.0 0.0 0.0

-2.7181315845518503e6 2.2765685415659636e7 0.0
2.2765685415659636e7 1.5173882875297677e6 0.0
0.0 0.0 0.0

-402551.0378199178 2.7252283436487466e7 0.0
2.7252283436487466e7 278479.04727234115 0.0
0.0 0.0 0.0

-3.8067120345755317e6 1.8785766070180375e7 0.0
1.8785766070180375e7 4.452712012718554e6 0.0
0.0 0.0 0.0

1.8711967271938175e6 1.2712447182490949e7 0.0
1.2712447182490949e7 -1.7260203843464512e7 0.0
0.0 0.0 0.0

-2.498763577963181e6 2.2901586308812782e7 0.0
2.2901586308812782e7 -383754.7937478224 0.0
0.0 0.0 0.0

-53119.12912051845 2.009062015665471e7 0.0
2.009062015665471e7 -6.282843494227458e6 0.0
0.0 0.0 0.0

-2.1650546376217855e6 1.7105411559722364e7 0.0
1.7105411559722364e7 1.9744724987169206e7 0.0
0.0 0.0 0.0

-4.063355957170454e6 1.8320840746298056e7 0.0
1.8320840746298056e7 5.356573422358105e6 0.0
0.0 0.0 0.0

-4.533232197481165e6 2.2612896625580452e7 0.0
2.2612896625580452e7 5.334882178556873e6 0.0
0.0 0.0 0.0

-1.0136393498459997e7 -1.7540551342205515e6 0.0
-1.7540551342205515e6 3.2431246475336213e7 0.0
0.0 0.0 0.0

-605947.0396262864 2.6678588959524244e7 0.0
2.6678588959524244e7 391642.5700770493 0.0
0.0 0.0 0.0

4.9303087281471025e6 2.5775948076065485e6 0.0
2.5775948076065485e6 -2.693440497529297e7 0.0
0.0 0.0 0.0

-2.0019431221744732e6 2.1315412039245654e7 0.0
2.1315412039245654e7 -3.2657624176900806e6 0.0
0.0 0.0 0.0

-9.771412797373297e6 -3.9064199068649895e6 0.0
-3.9064199068649895e6 2.8245796508263465e7 0.0
0.0 0.0 0.0

-667753.1655912794 1.3443340187087143e7 0.0
1.3443340187087143e7 -3.937240916885704e6 0.0
0.0 0.0 0.0

-8.347617992026189e6 2.1215749647194788e7 0.0
2.1215749647194788e7 4.289709814300938e6 0.0
0.0 0.0 0.0

-1.0952625161844345e6 1.7405677173921153e7 0.0
1.7405677173921153e7 -2.766150876125476e6 0.0
0.0 0.0 0.0

-1.9162151865562368e6 1.7679523486762095e7 0.0
1.7679523486762095e7 -4.1151531441448024e6 0.0
0.0 0.0 0.0

-670778.0683476627 1.546528025540005e7 0.0
1.546528025540005e7 -1.4341776525539687e7 0.0
0.0 0.0 0.0

-1.2479118423091616e7 1.1302119957300797e7 0.0
1.1302119957300797e7 2.197089088397788e7 0.0
0.0 0.0 0.0

-550901.4514718982 1.6234209835285198e7 0.0
1.6234209835285198e7 8.195276618373795e6 0.0
0.0 0.0 0.0

3.787633517973937e6 7.865536405897326e6 0.0
7.865536405897326e6 -2.041974318382294e7 0.0
0.0 0.0 0.0

463500.26154737454 1.726085243004907e7 0.0
1.726085243004907e7 1.8131509321190674e7 0.0
0.0 0.0 0.0

-6.812159293109194e6 1.6600824992464995e7 0.0
1.6600824992464995e7 -4.571114566379492e7 0.0
0.0 0.0 0.0

-5.418360928382353e6 1.6880563330104083e7 0.0
1.6880563330104083e7 1.1357983746816803e7 0.0
0.0 0.0 0.0

-2.886688194917393e6 2.3098315482945163e7 0.0
2.3098315482945163e7 755916.6830106496 0.0
0.0 0.0 0.0

-4.0226986475273347e6 1.8172694343200516e7 0.0
1.8172694343200516e7 1.5299217293000796e6 0.0
0.0 0.0 0.0

-216854.31300352467 1.7861911995665178e7 0.0
1.7861911995665178e7 -9.14502130619935e6 0.0
0.0 0.0 0.0

940564.1696203286 1.696584543173316e7 0.0
1.696584543173316e7 -6.751875240464144e6 0.0
0.0 0.0 0.0

-4.721592865414364e6 2.1195475655186873e7 0.0
2.1195475655186873e7 7.552668782978777e6 0.0
0.0 0.0 0.0

-5.629597340194477e6 1.7638216634457808e7 0.0
1.7638216634457808e7 1.4790076062314145e7 0.0
0.0 0.0 0.0

-5.736543841206572e6 1.6808911456832383e7 0.0
1.6808911456832383e7 1.957822490983128e7 0.0
0.0 0.0 0.0

-2.5251132496110555e6 1.4831903549167562e7 0.0
1.4831903549167562e7 -1.3974082398018643e7 0.0
0.0 0.0 0.0

1.0273488623914458e6 1.3351537884844024e7 0.0
1.3351537884844024e7 -1.5621015744125707e7 0.0
0.0 0.0 0.0

-3.896350711028707e6 1.76396932578759e7 0.0
1.76396932578759e7 1.3204467124845123e7 0.0
0.0 0.0 0.0

2.5123560147914365e6 9.269082370304871e6 0.0
9.269082370304871e6 -2.8095396201473497e7 0.0
0.0 0.0 0.0

-1.6837969436602113e6 1.6681917216709094e7 0.0
1.6681917216709094e7 -8.479340704754064e6 0.0
0.0 0.0 0.0

-134239.03556984104 2.796975714259483e7 0.0
2.796975714259483e7 255528.14581013867 0.0
0.0 0.0 0.0

-68182.30930556543 1.6568491860373402e7 0.0
1.6568491860373402e7 1.5137596741911981e7 0.0
0.0 0.0 0.0

1.6978628973328218e7 2.1744451097909916e7 0.0
2.1744451097909916e7 5.659540350829282e7 0.0
0.0 0.0 0.0

-1.600645726345036e7 2.0453195694528017e7 0.0
2.0453195694528017e7 -5.335483503629836e7 0.0
0.0 0.0 0.0

-4.473568832783796e6 1.6069386234928086e7 0.0
1.6069386234928086e7 2.0090436827543562e6 0.0
0.0 0.0 0.0

-2.349255450556396e7 2.8870362445210878e7 0.0
2.8870362445210878e7 8.662317991629232e6 0.0
0.0 0.0 0.0

-2.5307999254586473e6 2.0015379583040975e7 0.0
2.0015379583040975e7 -3.1352320593506754e6 0.0
0.0 0.0 0.0

-3.1229029533667304e6 1.767988309030322e7 0.0
1.767988309030322e7 1.1169845745326495e7 0.0
0.0 0.0 0.0

-841109.9989977684 1.6770521010788884e7 0.0
1.6770521010788884e7 1.7381927382432852e7 0.0
0.0 0.0 0.0

3.573016453033913e6 1.7783874066520933e7 0.0
1.7783874066520933e7 3.17789378951989e7 0.0
0.0 0.0 0.0

3.4968902088123006e6 1.756642763036529e7 0.0
1.756642763036529e7 6.95109928249389e6 0.0
0.0 0.0 0.0

3.9998683047434334e6 1.5787181523519251e7 0.0
1.5787181523519251e7 1.8085611962214667e7 0.0
0.0 0.0 0.0

1.0957672129623634e6 2.031101343203742e7 0.0
2.031101343203742e7 -5.7048185984015595e6 0.0
0.0 0.0 0.0

-879906.9726982084 1.6551753417741688e7 0.0
1.6551753417741688e7 1.1188462187762324e7 0.0
0.0 0.0 0.0

-3.877728696204765e6 1.7118944581850365e7 0.0
1.7118944581850365e7 1.3454794851051226e7 0.0
0.0 0.0 0.0

562701.1407904339 2.5266440200346608e7 0.0
2.5266440200346608e7 -1.3522115196124928e6 0.0
0.0 0.0 0.0

1.05912097077089e6 1.7356113301206578e7 0.0
1.7356113301206578e7 1.0305411654215505e7 0.0
0.0 0.0 0.0

4.922747537572766e6 2.9698543503818084e6 0.0
2.9698543503818084e6 -2.136802970532508e7 0.0
0.0 0.0 0.0

-1.0897966846125508e7 1.3093015361504214e7 0.0
1.3093015361504214e7 1.6226919435403494e7 0.0
0.0 0.0 0.0

-9.300399372822335e6 -5.764424842357056e6 0.0
-5.764424842357056e6 2.6279849877407163e7 0.0
0.0 0.0 0.0

-6.876418979752063e6 1.7236035161059227e7 0.0
1.7236035161059227e7 1.621572943241946e7 0.0
0.0 0.0 0.0

-1.3039003896885393e6 2.3426405765797567e7 0.0
2.3426405765797567e7 -899841.4433767761 0.0
0.0 0.0 0.0

3.7647001707578516e6 1.822358761898371e7 0.0
1.822358761898371e7 1.2486827815928869e7 0.0
0.0 0.0 0.0

1.9460298193891863e6 1.580946489971572e7 0.0
1.580946489971572e7 1.3605421518798817e7 0.0
0.0 0.0 0.0

-3.892559391954593e6 2.2355125952219218e7 0.0
2.2355125952219218e7 5.742709793058872e6 0.0
0.0 0.0 0.0

3.8115478050118694e6 4.427077970762549e6 0.0
4.427077970762549e6 -1.247277541144863e7 0.0
0.0 0.0 0.0

-2.1146697729314836e6 2.1776543332376078e7 0.0
2.1776543332376078e7 -2.4969591097149085e6 0.0
0.0 0.0 0.0

3.1283982149703037e6 9.643358159511147e6 0.0
9.643358159511147e6 -1.7046543921804823e7 0.0
0.0 0.0 0.0

-6.890930122707637e6 2.169759998227581e7 0.0
2.169759998227581e7 6.61743454186795e6 0.0
0.0 0.0 0.0

1.3399687520238152e6 2.177028914117416e7 0.0
2.177028914117416e7 -4.856495704438078e6 0.0
0.0 0.0 0.0

-7.327592012507387e6 1.8745439929403033e7 0.0
1.8745439929403033e7 731928.5748883868 0.0
0.0 0.0 0.0

4.479006745025735e6 2.4075298415205944e6 0.0
2.4075298415205944e6 -3.911821973644265e7 0.0
0.0 0.0 0.0

3.0345203522954965e6 1.7235696058412105e7 0.0
1.7235696058412105e7 1.2485493941514678e6 0.0
0.0 0.0 0.0

-627279.9934563442 2.242432660349871e7 0.0
2.242432660349871e7 -2.84582932809323e6 0.0
0.0 0.0 0.0

-826882.0425863912 1.9781210385147735e7 0.0
1.9781210385147735e7 -5.8691098871474415e6 0.0
0.0 0.0 0.0

-1.0780497067858125e6 1.5206261531542296e7 0.0
1.5206261531542296e7 -1.0336994978320895e7 0.0
0.0 0.0 0.0

4.26217843657143e6 4.700525479790467e6 0.0
4.700525479790467e6 -2.0011443607763153e7 0.0
0.0 0.0 0.0

-4.384802455437135e6 1.930991248771173e7 0.0
1.930991248771173e7 5.218817901000582e6 0.0
0.0 0.0 0.0

1.5490267932364037e6 1.1457169257775737e7 0.0
1.1457169257775737e7 -2.4011736639001723e7 0.0
0.0 0.0 0.0

-9.358368699501298e6 -5.007011268366696e6 0.0
-5.007011268366696e6 2.9453004383486923e7 0.0
0.0 0.0 0.0

-6.763077862700832e6 1.6124843454222303e7 0.0
1.6124843454222303e7 1.4274452579560222e7 0.0
0.0 0.0 0.0

-1.2022638656241905e7 2.1239331207946707e7 0.0
2.1239331207946707e7 3.8595648283656044e6 0.0
0.0 0.0 0.0

2.6956516778508797e6 5.583436656233067e6 0.0
5.583436656233067e6 -5.757499673800439e7 0.0
0.0 0.0 0.0

-7.851910568633631e6 1.4105154064641219e7 0.0
1.4105154064641219e7 2.7033149664093174e7 0.0
0.0 0.0 0.0

-2.395286232560386e6 1.746907640395387e7 0.0
1.746907640395387e7 1.5985548394262519e7 0.0
0.0 0.0 0.0

-4.817031765458064e6 1.6068577578849956e7 0.0
1.6068577578849956e7 2.3223537374429885e7 0.0
0.0 0.0 0.0

-3.2677269865181386e6 1.7093409876041703e7 0.0
1.7093409876041703e7 815209.613564746 0.0
0.0 0.0 0.0

-6.438784931242188e6 1.6579178133314328e7 0.0
1.6579178133314328e7 1.0887830707765134e7 0.0
0.0 0.0 0.0

-875620.0219510894 1.5151365406527996e7 0.0
1.5151365406527996e7 -8.267583617946042e6 0.0
0.0 0.0 0.0

1.245353276228209e6 1.2915071900812455e7 0.0
1.2915071900812455e7 -1.6446795092794394e7 0.0
0.0 0.0 0.0

2.533572709178783e6 8.881361685928049e6 0.0
8.881361685928049e6 -3.417704102173958e7 0.0
0.0 0.0 0.0

-9.42698857259849e6 -5.413968244936737e6 0.0
-5.413968244936737e6 2.7319166257454164e7 0.0
0.0 0.0 0.0

-9.272162602041356e6 -3.8942252152380315e6 0.0
-3.8942252152380315e6 3.460093208576989e7 0.0
0.0 0.0 0.0

-6.579141528282805e6 2.00573348519147e7 0.0
2.00573348519147e7 1.9007024422481633e6 0.0
0.0 0.0 0.0

-158068.52389741968 1.7839200239421044e7 0.0
1.7839200239421044e7 -9.458330311797384e6 0.0
0.0 0.0 0.0

-3.621554164221933e6 1.6125792979193373e7 0.0
1.6125792979193373e7 2.7195722423229735e7 0.0
0.0 0.0 0.0

-645740.5887056021 1.5094297098151857e7 0.0
1.5094297098151857e7 -6.042730598801012e6 0.0
0.0 0.0 0.0

1.707214423398223e6 1.958797849144278e7 0.0
1.958797849144278e7 -5.744724388937428e6 0.0
0.0 0.0 0.0

-4.314382097912729e6 2.0528682566856693e7 0.0
2.0528682566856693e7 5.763317648970885e6 0.0
0.0 0.0 0.0

-7.853308524792531e6 -5.214462814539276e6 0.0
-5.214462814539276e6 1.688995995881529e7 0.0
0.0 0.0 0.0

5.6033437658760445e6 3.6817784399779126e7 0.0
3.6817784399779126e7 -3.68592314813642e6 0.0
0.0 0.0 0.0

297824.66387850186 1.6010034305712346e7 0.0
1.6010034305712346e7 -8.074749698345548e6 0.0
0.0 0.0 0.0

-3.347123403203992e6 1.4486366220087027e7 0.0
1.4486366220087027e7 -3.712561476744328e7 0.0
0.0 0.0 0.0

5.059429804502977e6 3.4609854616943533e6 0.0
3.4609854616943533e6 -2.506064387352171e7 0.0
0.0 0.0 0.0

-108992.54149537627 1.5882560638158143e7 0.0
1.5882560638158143e7 -4.609560504003992e6 0.0
0.0 0.0 0.0

-8.664232973945085e6 1.5177505894729985e7 0.0
1.5177505894729985e7 1.6705490509130463e7 0.0
0.0 0.0 0.0

-2.073464400591352e7 1.6841166303808343e7 0.0
1.6841166303808343e7 8.552161705782216e6 0.0
0.0 0.0 0.0

-2.8181538917740677e6 1.8450550587151576e7 0.0
1.8450550587151576e7 -6.348346974331559e6 0.0
0.0 0.0 0.0

3.146531283702788e6 1.544634301801052e7 0.0
1.544634301801052e7 1.5506693942316232e7 0.0
0.0 0.0 0.0

-1.5571321225151608e6 1.4909070342175426e7 0.0
1.4909070342175426e7 -1.1083865323522983e7 0.0
0.0 0.0 0.0

-8.806935546988986e6 -2.7390364277360947e6 0.0
-2.7390364277360947e6 1.7243170003431402e7 0.0
0.0 0.0 0.0

-1.2207231388945929e6 1.6672915561468013e7 0.0
1.6672915561468013e7 -8.048512126577186e6 0.0
0.0 0.0 0.0

-584509.270929009 1.633010414234742e7 0.0
1.633010414234742e7 2.5445277433771538e6 0.0
0.0 0.0 0.0

-2.2161959391486156e6 1.7374226818213537e7 0.0
1.7374226818213537e7 1.1477696437215071e7 0.0
0.0 0.0 0.0

217228.7461074274 1.5072653345228901e7 0.0
1.5072653345228901e7 -1.3486382368730389e7 0.0
0.0 0.0 0.0

-3.7695318552305456e6 1.7342839002448764e7 0.0
1.7342839002448764e7 1.7892338814010553e7 0.0
0.0 0.0 0.0

-90624.73365833725 1.4537892294053828e7 0.0
1.4537892294053828e7 -321296.7221379372 0.0
0.0 0.0 0.0

-60318.937268563546 1.778121340098652e7 0.0
1.778121340098652e7 -9.687464874204528e6 0.0
0.0 0.0 0.0

2.6923325241233152e6 1.6455024809453525e7 0.0
1.6455024809453525e7 -2.409231445786339e6 0.0
0.0 0.0 0.0

1.9813840160304764e6 1.119342242251252e7 0.0
1.119342242251252e7 -2.1529336447856683e7 0.0
0.0 0.0 0.0

-7.098291329066439e6 1.71813209754015e7 0.0
1.71813209754015e7 1.5285162678146096e7 0.0
0.0 0.0 0.0

-377351.6432724304 1.4225822138732981e7 0.0
1.4225822138732981e7 -7.020008460354804e6 0.0
0.0 0.0 0.0

-3.7708273038828224e7 2.274370347041161e7 0.0
2.274370347041161e7 6.113970248366224e6 0.0
0.0 0.0 0.0

-363794.13347045705 1.650800683410968e7 0.0
1.650800683410968e7 3.4923467735740826e7 0.0
0.0 0.0 0.0

4.906653401788602e6 2.4812116581454948e6 0.0
2.4812116581454948e6 -2.8352846586643625e7 0.0
0.0 0.0 0.0

-9.354887998300724e6 -4.023342119810747e6 0.0
-4.023342119810747e6 3.3388854525225386e7 0.0
0.0 0.0 0.0

-1.6089087865931299e6 1.3391888335845914e7 0.0
1.3391888335845914e7 -3.2740009194344804e7 0.0
0.0 0.0 0.0

-255376.8679038072 1.3937203521412361e7 0.0
1.3937203521412361e7 -2.1446378910692345e7 0.0
0.0 0.0 0.0

-1.1054596265678979e6 1.720824192993281e7 0.0
1.720824192993281e7 -3.9699237940907357e6 0.0
0.0 0.0 0.0

-1.1394190286392847e7 2.32755313196247e7 0.0
2.32755313196247e7 -6.239873713975374e6 0.0
0.0 0.0 0.0

-8.126073292085123e6 1.6288784193795223e7 0.0
1.6288784193795223e7 1.987185066302876e7 0.0
0.0 0.0 0.0

10723.839345395565 1.766304084092115e7 0.0
1.766304084092115e7 -9.811118100027477e6 0.0
0.0 0.0 0.0

-8.598572047803799e6 -2.0566824435877646e6 0.0
-2.0566824435877646e6 4.523676682060664e7 0.0
0.0 0.0 0.0

-1.0599574526392262e7 1.43132180509542e7 0.0
1.43132180509542e7 1.881211907121246e7 0.0
0.0 0.0 0.0

3.372605607878525e6 4.0235886910935445e6 0.0
4.0235886910935445e6 -5.359771817461176e7 0.0
0.0 0.0 0.0

-2.8556236495567444e6 2.3532596471685864e7 0.0
2.3532596471685864e7 853821.32869733 0.0
0.0 0.0 0.0

3.9036395761877075e6 2.7278075586529393e6 0.0
2.7278075586529393e6 -4.624684775786452e7 0.0
0.0 0.0 0.0

-2.1088447645009235e7 3.603205808390141e7 0.0
3.603205808390141e7 6.651627597149039e6 0.0
0.0 0.0 0.0

-8.45732455249996e6 -1.7011800343659404e6 0.0
-1.7011800343659404e6 4.746852153581678e7 0.0
0.0 0.0 0.0

2.2081949686938236e6 1.1419958026498169e7 0.0
1.1419958026498169e7 -2.1384954057307992e7 0.0
0.0 0.0 0.0

-9.476711277214693e6 2.09978589540791e7 0.0
2.09978589540791e7 4.653901395734094e6 0.0
0.0 0.0 0.0

-3.727768232489441e7 2.2169154790024314e7 0.0
2.2169154790024314e7 1.5517169432614278e6 0.0
0.0 0.0 0.0

3.6504183220496606e6 3.3029955386303314e6 0.0
3.3029955386303314e6 -4.9709148261961244e7 0.0
0.0 0.0 0.0

-3.9686144234154657e6 1.9731748637781568e7 0.0
1.9731748637781568e7 2.5030529887098474e6 0.0
0.0 0.0 0.0

-4.814341555739723e6 1.8406972647401314e7 0.0
1.8406972647401314e7 1.1206542331194978e7 0.0
0.0 0.0 0.0

1.0508146186448164e7 1.4998797654049722e7 0.0
1.4998797654049722e7 6.264297001401287e6 0.0
0.0 0.0 0.0

317239.28204603214 1.3796765325074695e7 0.0
1.3796765325074695e7 -1.923019840992244e7 0.0
0.0 0.0 0.0

-817829.3424524162 1.4470863122820104e7 0.0
1.4470863122820104e7 -1.9730124787098594e7 0.0
0.0 0.0 0.0

-1.4259786231333665e6 1.941503977688617e7 0.0
1.941503977688617e7 -6.461935720712848e6 0.0
0.0 0.0 0.0

-2.83716463422486e6 2.3926250267699562e7 0.0
2.3926250267699562e7 985209.0133610656 0.0
0.0 0.0 0.0

-1.2004156594875272e7 9.277875601237793e6 0.0
9.277875601237793e6 2.523968035244491e7 0.0
0.0 0.0 0.0

4.299148802239858e6 2.423944764693723e6 0.0
2.423944764693723e6 -4.1658704283675775e7 0.0
0.0 0.0 0.0

-9.228039056767702e6 2.679679167297364e7 0.0
2.679679167297364e7 5.169638902059721e6 0.0
0.0 0.0 0.0

4.380117249926685e6 5.518099946059204e6 0.0
5.518099946059204e6 -1.6364117737853575e7 0.0
0.0 0.0 0.0

-932923.2437589308 1.545924880679596e7 0.0
1.545924880679596e7 -1.3426081744311953e7 0.0
0.0 0.0 0.0

4.1360194610335585e6 2.6478352391749676e6 0.0
2.6478352391749676e6 -4.3423312858809546e7 0.0
0.0 0.0 0.0

-1.034667135663636e6 1.4848631730568416e7 0.0
1.4848631730568416e7 -1.792381485314682e7 0.0
0.0 0.0 0.0

-1.1875077335911956e7 6.369693016796386e6 0.0
6.369693016796386e6 2.8789862920706436e7 0.0
0.0 0.0 0.0

-1.0167829396484328e6 2.8949349004900367e6 0.0
2.8949349004900367e6 -857330.7404686457 0.0
0.0 0.0 0.0

-4.874800177985939e6 1.4770812693974437e7 0.0
1.4770812693974437e7 2.9087822924128855e6 0.0
0.0 0.0 0.0

998071.8422974166 1.7104049927753996e7 0.0
1.7104049927753996e7 1.5958750899952305e7 0.0
0.0 0.0 0.0

4.76583159830186e6 2.309093541240277e6 0.0
2.309093541240277e6 -3.1156926173702374e7 0.0
0.0 0.0 0.0

-4.617600800800954e6 2.0619831369665716e7 0.0
2.0619831369665716e7 8.312785646244673e6 0.0
0.0 0.0 0.0

-9.937202902393132e6 -3.924122487664477e6 0.0
-3.924122487664477e6 2.6148734306220673e7 0.0
0.0 0.0 0.0

-56646.854692241235 1.5626022943544503e7 0.0
1.5626022943544503e7 -516043.83784129773 0.0
0.0 0.0 0.0

1.8257625738077639e6 1.1622246926624708e7 0.0
1.1622246926624708e7 -2.049463753504427e7 0.0
0.0 0.0 0.0

-5.85885612085517e6 1.7455162233074352e7 0.0
1.7455162233074352e7 1.571117765382906e7 0.0
0.0 0.0 0.0

-591412.0968894623 1.671691363717188e7 0.0
1.671691363717188e7 2.21003002266078e7 0.0
0.0 0.0 0.0

-597353.0028393774 1.5781297085739456e7 0.0
1.5781297085739456e7 -3.398452683960263e6 0.0
0.0 0.0 0.0

-895299.7475432677 1.9276072323108535e7 0.0
1.9276072323108535e7 -6.262417122008495e6 0.0
0.0 0.0 0.0

-4.0749008236059537e6 2.1270324624456372e7 0.0
2.1270324624456372e7 4.290999143544324e6 0.0
0.0 0.0 0.0

-358188.82089902554 1.6485077208148705e7 0.0
1.6485077208148705e7 -4.988137555018797e6 0.0
0.0 0.0 0.0

1.364869575126148e7 5.703090502595933e6 0.0
5.703090502595933e6 -2.8109988089226214e6 0.0
0.0 0.0 0.0

-8.827503646795742e6 -2.2552758917708527e6 0.0
-2.2552758917708527e6 4.307678048214784e7 0.0
0.0 0.0 0.0

3.361617181079215e6 1.8131421799005903e7 0.0
1.8131421799005903e7 8.821752664686875e6 0.0
0.0 0.0 0.0

-9.223569488774804e6 -3.570587697188739e6 0.0
-3.570587697188739e6 3.597043836793414e7 0.0
0.0 0.0 0.0

-691240.7794593888 1.6669086837782295e7 0.0
1.6669086837782295e7 -900828.2563983031 0.0
0.0 0.0 0.0

-9.316845009861529e6 8.114090041511285e6 0.0
8.114090041511285e6 2.350569772611732e7 0.0
0.0 0.0 0.0

-4.301490514700845e6 1.4797174830431603e7 0.0
1.4797174830431603e7 4.817561840237724e6 0.0
0.0 0.0 0.0

781986.115655772 2.27696295398382e6 0.0
2.27696295398382e6 -1.7413992149652734e6 0.0
0.0 0.0 0.0

786683.9647592825 2.6554533804925154e6 0.0
2.6554533804925154e6 -1.6828422662192509e6 0.0
0.0 0.0 0.0

4478.6073138592765 1.7340332295014057e7 0.0
1.7340332295014057e7 -1.0468784947608128e7 0.0
0.0 0.0 0.0

-5.40243670101496e6 1.885366685641453e7 0.0
1.885366685641453e7 -2.7656839204944237e6 0.0
0.0 0.0 0.0

177462.69204547582 1.754317997394801e7 0.0
1.754317997394801e7 -9.735914153219419e6 0.0
0.0 0.0 0.0

-1.273122531875897e7 7.91004331781741e6 0.0
7.91004331781741e6 2.3612855661484566e7 0.0
0.0 0.0 0.0

-1.3031075550225852e6 1.5244184333337158e7 0.0
1.5244184333337158e7 -1.2345958359311126e7 0.0
0.0 0.0 0.0

1.868817593312893e6 1.1241085914939834e7 0.0
1.1241085914939834e7 -2.2721998621598907e7 0.0
0.0 0.0 0.0

-4.447836933069601e6 2.015256767443708e7 0.0
2.015256767443708e7 8.999487992626596e6 0.0
0.0 0.0 0.0

1.8495891467078393e6 1.1619468949029688e7 0.0
1.1619468949029688e7 -1.929225131200106e7 0.0
0.0 0.0 0.0

-7.923580814247793e7 2.7560961238934793e7 0.0
2.7560961238934793e7 -85986.58293203637 0.0
0.0 0.0 0.0

496416.6041974714 1.4633927890096962e7 0.0
1.4633927890096962e7 -1.4358635211099857e7 0.0
0.0 0.0 0.0

-3.525501618510923e6 2.724944858629447e7 0.0
2.724944858629447e7 1.7335037905365238e6 0.0
0.0 0.0 0.0

-498563.32957538054 1.5179604358621638e7 0.0
1.5179604358621638e7 4.1844116229607e6 0.0
0.0 0.0 0.0

-7.620057850972972e6 1.6870125022683337e7 0.0
1.6870125022683337e7 1.787732988635216e7 0.0
0.0 0.0 0.0

-3.0810580783936335e6 1.8226773642183226e7 0.0
1.8226773642183226e7 -8.906396118208533e6 0.0
0.0 0.0 0.0

6.405893442558454e6 2.9320517556452435e7 0.0
2.9320517556452435e7 -5.363271610249966e6 0.0
0.0 0.0 0.0

-9.435207346443437e6 -4.540595098231636e6 0.0
-4.540595098231636e6 3.1358802600407444e7 0.0
0.0 0.0 0.0

4.84720454895032e6 2.4597721030185344e6 0.0
2.4597721030185344e6 -2.913091766672244e7 0.0
0.0 0.0 0.0

-1.4334517856880235e6 1.971604467626524e7 0.0
1.971604467626524e7 -4.5151294024668485e6 0.0
0.0 0.0 0.0

-7.302374983524534e6 -4.263876656261282e6 0.0
-4.263876656261282e6 9.68651628551237e6 0.0
0.0 0.0 0.0

4.5678885733630825e6 2.3212914737577634e6 0.0
2.3212914737577634e6 -3.689980929181152e7 0.0
0.0 0.0 0.0

-8.921354957413033e6 -2.6292514392654947e6 0.0
-2.6292514392654947e6 4.1542184718594365e7 0.0
0.0 0.0 0.0

-9.012221303102346e6 -6.51093303415358e6 0.0
-6.51093303415358e6 2.3140183542286202e7 0.0
0.0 0.0 0.0

-859946.401347227 1.4701381614990039e7 0.0
1.4701381614990039e7 -4.460162249556968e6 0.0
0.0 0.0 0.0

-9.425989866219351e6 -4.248692944738948e6 0.0
-4.248692944738948e6 3.244778630718368e7 0.0
0.0 0.0 0.0

4.802431308742736e6 2.4870038579271343e6 0.0
2.4870038579271343e6 -3.0104435084819276e7 0.0
0.0 0.0 0.0

4.650616630904617e6 2.38736508855185e6 0.0
2.38736508855185e6 -3.554017696256995e7 0.0
0.0 0.0 0.0

-8.958566902840916e6 -2.977257266216504e6 0.0
-2.977257266216504e6 4.0046914364885345e7 0.0
0.0 0.0 0.0

-3.590415657306662e6 1.710054298853881e7 0.0
1.710054298853881e7 -9.975422785368603e6 0.0
0.0 0.0 0.0

123389.07637901185 1.6905968362722225e7 0.0
1.6905968362722225e7 -1.1247042181964224e7 0.0
0.0 0.0 0.0

-3.597932271969746e6 2.1508866387861237e7 0.0
2.1508866387861237e7 4.667477442650413e6 0.0
0.0 0.0 0.0

4.688297188986363e6 2.3521193059027004e6 0.0
2.3521193059027004e6 -3.46240032973621e7 0.0
0.0 0.0 0.0

-9.017136401900094e6 -3.222889250470909e6 0.0
-3.222889250470909e6 3.840452892874621e7 0.0
0.0 0.0 0.0

-488997.2032918234 1.5085385780768443e7 0.0
1.5085385780768443e7 -3.72830267179822e6 0.0
0.0 0.0 0.0

2.0547513432825124e6 1.2286515942436919e7 0.0
1.2286515942436919e7 -1.8270912125919014e7 0.0
0.0 0.0 0.0

-1.9438975059146832e6 2.1082974541983027e7 0.0
2.1082974541983027e7 -2.045088116822731e6 0.0
0.0 0.0 0.0

-3.6966780769485096e6 1.696943912387077e7 0.0
1.696943912387077e7 -576814.8937698173 0.0
0.0 0.0 0.0

-5.507325581531678e6 1.6640357985835744e7 0.0
1.6640357985835744e7 2.0351906393556673e7 0.0
0.0 0.0 0.0

-9.12813290612251e6 -3.353901696150715e6 0.0
-3.353901696150715e6 3.707382833266483e7 0.0
0.0 0.0 0.0

4.754793495606814e6 2.294804442514078e6 0.0
2.294804442514078e6 -3.335565869729182e7 0.0
0.0 0.0 0.0

132693.11275390466 2.2926993105812363e7 0.0
2.2926993105812363e7 -3.67118285535378e6 0.0
0.0 0.0 0.0

-2.092712223520793e6 1.6406074131302651e7 0.0
1.6406074131302651e7 3.204917880678366e7 0.0
0.0 0.0 0.0

4.8670415909142055e7 5.605259410445828e7 0.0
5.605259410445828e7 -1.959951204863973e7 0.0
0.0 0.0 0.0

25293.614512925036 9.853995462284023e6 0.0
9.853995462284023e6 -7.025598701773006e6 0.0
0.0 0.0 0.0

-2.8609248181551117e6 2.3385946202818386e7 0.0
2.3385946202818386e7 2.066885465798527e6 0.0
0.0 0.0 0.0

-6.716760350931501e6 852218.298349253 0.0
852218.298349253 6.9893507352350205e6 0.0
0.0 0.0 0.0

-3.4261908400019277e6 2.1855178893790383e7 0.0
2.1855178893790383e7 4.0057886769479783e6 0.0
0.0 0.0 0.0

3.5725250730774244e6 3.379690468112775e6 0.0
3.379690468112775e6 -1.088785313239999e7 0.0
0.0 0.0 0.0

4.855969384349341e6 2.1144897434763573e7 0.0
2.1144897434763573e7 -4.867342574011088e6 0.0
0.0 0.0 0.0

88285.86617455725 2.006919418249116e7 0.0
2.006919418249116e7 -6.250764796678167e6 0.0
0.0 0.0 0.0

-8.687676499830782e6 1.4093216513882956e7 0.0
1.4093216513882956e7 1.2982710300239265e7 0.0
0.0 0.0 0.0

-718846.9694309612 1.7183841508055087e7 0.0
1.7183841508055087e7 -1.1311338645297412e6 0.0
0.0 0.0 0.0

-7.327251063672472e6 -651850.1260324209 0.0
-651850.1260324209 5.254138580402678e7 0.0
0.0 0.0 0.0

1.0916599429362803e6 3.9635770231306553e6 0.0
3.9635770231306553e6 -2.783580737051684e6 0.0
0.0 0.0 0.0

-2.9988113559237425e6 -1.2276349901040862e6 0.0
-1.2276349901040862e6 902415.6099760854 0.0
0.0 0.0 0.0

1.1136423885966851e6 -1.6990991119650423e6 0.0
-1.6990991119650423e6 -2.4366883496722947e6 0.0
0.0 0.0 0.0

472409.74062675843 2.0268481708118074e7 0.0
2.0268481708118074e7 -6.007743753850951e6 0.0
0.0 0.0 0.0

-2.8507661200417485e6 1.4003088860375466e7 0.0
1.4003088860375466e7 -3.642366267039719e7 0.0
0.0 0.0 0.0

1.224203650706104e6 1.6560133358251657e7 0.0
1.6560133358251657e7 1.8800696230363462e7 0.0
0.0 0.0 0.0

-2.0791663153009855e6 1.6396457136763891e7 0.0
1.6396457136763891e7 -8.806173344377967e6 0.0
0.0 0.0 0.0

4.911448775532662e6 3.118374895791098e6 0.0
3.118374895791098e6 -1.8846484711741917e7 0.0
0.0 0.0 0.0

-1.1818060517815603e6 1.3795563689399589e7 0.0
1.3795563689399589e7 -3.6015641222389666e6 0.0
0.0 0.0 0.0

62728.564051844645 1.6571189496208126e7 0.0
1.6571189496208126e7 -1.1001859902941514e7 0.0
0.0 0.0 0.0

-1.2008258850477403e6 1.3252785386426955e7 0.0
1.3252785386426955e7 -2.6751930121616047e7 0.0
0.0 0.0 0.0

-1.6166342983647482e6 2.162276515010332e7 0.0
2.162276515010332e7 -2.283074829414916e6 0.0
0.0 0.0 0.0

-6.712592537729504e6 1.6932581787666336e7 0.0
1.6932581787666336e7 1.6973345053099677e7 0.0
0.0 0.0 0.0

-829565.0318924726 1.4194622250405736e7 0.0
1.4194622250405736e7 -3.017785562470041e6 0.0
0.0 0.0 0.0

-230863.49111717532 1.5910734133595984e7 0.0
1.5910734133595984e7 1.9753615726368194e6 0.0
0.0 0.0 0.0

-3.2890314326325133e6 1.4001345741142152e7 0.0
1.4001345741142152e7 -1.872236362804065e7 0.0
0.0 0.0 0.0

-1.5564796319381483e7 2.327186488481713e7 0.0
2.327186488481713e7 398268.1828660406 0.0
0.0 0.0 0.0

5.2070395558473915e6 3.1581051081379186e7 0.0
3.1581051081379186e7 -4.2800526904199235e6 0.0
0.0 0.0 0.0

-45912.366280119706 1.8290569854141837e6 0.0
1.8290569854141837e6 74854.7170714007 0.0
0.0 0.0 0.0

163040.83411118624 1.465602735382878e6 0.0
1.465602735382878e6 -231477.2901094067 0.0
0.0 0.0 0.0

-6.385223101148239e6 1.742434706680544e7 0.0
1.742434706680544e7 1.5267655717670353e7 0.0
0.0 0.0 0.0

-2.223680517841007e6 1.9044938632881735e7 0.0
1.9044938632881735e7 -4.734218038213477e6 0.0
0.0 0.0 0.0

-2.5562561627736455e6 2.4024659941094186e7 0.0
2.4024659941094186e7 1.9090355588446918e6 0.0
0.0 0.0 0.0

-3.25960616467576e6 2.2159412143202003e7 0.0
2.2159412143202003e7 3.4018997872519502e6 0.0
0.0 0.0 0.0

6.482434445529572e6 1.7501541151316945e7 0.0
1.7501541151316945e7 6.179676224512132e6 0.0
0.0 0.0 0.0

1.7976028332557748e6 1.7184664552687135e7 0.0
1.7184664552687135e7 -4.974391562011936e6 0.0
0.0 0.0 0.0

-315035.58978435025 1.5784128012865521e7 0.0
1.5784128012865521e7 3.551993672060254e7 0.0
0.0 0.0 0.0

-3.213307730998704e7 2.2873022364516266e7 0.0
2.2873022364516266e7 -6.354874571794097e6 0.0
0.0 0.0 0.0

-9.128958040859301e7 3.0381807932687897e7 0.0
3.0381807932687897e7 7.755499073975928e6 0.0
0.0 0.0 0.0

-8.057091771928243e6 1.3393457076289108e7 0.0
1.3393457076289108e7 1.1005194202652624e7 0.0
0.0 0.0 0.0

-4.1344717857787423e6 1.788646955205223e7 0.0
1.788646955205223e7 1.2533220982783234e7 0.0
0.0 0.0 0.0

3.9443255678319307e6 5.293860352841284e6 0.0
5.293860352841284e6 -1.7594560928231224e7 0.0
0.0 0.0 0.0

-9.575396110127848e6 1.4287579313614286e7 0.0
1.4287579313614286e7 1.7085957639977537e7 0.0
0.0 0.0 0.0

-3.9020301797714145e6 -5.037313653670681e6 0.0
-5.037313653670681e6 6.615341771070726e6 0.0
0.0 0.0 0.0

4.1808895899761803e6 1.8796565526421074e7 0.0
1.8796565526421074e7 9.850988679466158e6 0.0
0.0 0.0 0.0

-489972.674490246 1.3391024568437012e7 0.0
1.3391024568437012e7 -2.6137724698544342e7 0.0
0.0 0.0 0.0

4.767242237505235e6 4.768804520502114e6 0.0
4.768804520502114e6 -2.1550964600358177e7 0.0
0.0 0.0 0.0

2.83213930751966e6 1.6655382903541207e7 0.0
1.6655382903541207e7 4.186834653673556e6 0.0
0.0 0.0 0.0

-4.368074576770801e6 3.3275045435374924e6 0.0
3.3275045435374924e6 6.919378228742242e7 0.0
0.0 0.0 0.0

-4.369044387931078e6 2.3249345551774986e7 0.0
2.3249345551774986e7 5.691831641048652e6 0.0
0.0 0.0 0.0

-1.3408455443147238e7 2.030298413867048e7 0.0
2.030298413867048e7 1.413765971204657e6 0.0
0.0 0.0 0.0

-281270.2585455347 1.9217625082192063e7 0.0
1.9217625082192063e7 -7.330381510657033e6 0.0
0.0 0.0 0.0

-7.915027056329698e6 -7.153364028632686e6 0.0
-7.153364028632686e6 2.024241489320811e7 0.0
0.0 0.0 0.0

-587149.9073139445 1.4840303153509261e7 0.0
1.4840303153509261e7 4.928852557498491e6 0.0
0.0 0.0 0.0

-9.371896418881305e6 -5.131949531180812e6 0.0
-5.131949531180812e6 2.8451722828183375e7 0.0
0.0 0.0 0.0

2.8128364590576333e6 1.747756976122396e7 0.0
1.747756976122396e7 3.9464418101111725e6 0.0
0.0 0.0 0.0

-3.3276036598043097e6 1.863206353030121e7 0.0
1.863206353030121e7 1.0524291547847528e6 0.0
0.0 0.0 0.0

5.075717880042326e6 3.6110110574652255e6 0.0
3.6110110574652255e6 -2.3541854521887828e7 0.0
0.0 0.0 0.0

-3.490140971102364e6 1.767328731480713e7 0.0
1.767328731480713e7 -9.09956424807731e6 0.0
0.0 0.0 0.0

4.773788132929267e6 3.2282424135207655e6 0.0
3.2282424135207655e6 -1.712137942393883e7 0.0
0.0 0.0 0.0

601090.0466998387 1.4268705324370997e7 0.0
1.4268705324370997e7 -1.6647849301195914e7 0.0
0.0 0.0 0.0

-5.221407081475934e6 2.7122768465222694e7 0.0
2.7122768465222694e7 3.470551134711777e6 0.0
0.0 0.0 0.0

-353361.3951422058 1.2800870363736507e7 0.0
1.2800870363736507e7 -244860.42611007814 0.0
0.0 0.0 0.0

-1.2553688985539558e6 1.8891707888658326e7 0.0
1.8891707888658326e7 -7.292001297364787e6 0.0
0.0 0.0 0.0

-4.0683935734351925e6 2.5857412380755734e7 0.0
2.5857412380755734e7 2.7887523735544235e6 0.0
0.0 0.0 0.0

-3.730246427887091e6 2.1160895737172704e7 0.0
2.1160895737172704e7 5.434932675640472e6 0.0
0.0 0.0 0.0

-3.739335871933831e6 2.186810901616089e7 0.0
2.186810901616089e7 2.935241900259556e6 0.0
0.0 0.0 0.0

-1.9447688920640561e6 2.5571267194898557e7 0.0
2.5571267194898557e7 185674.5933217056 0.0
0.0 0.0 0.0

-532109.3032480939 1.830637983841508e7 0.0
1.830637983841508e7 -8.004141117927912e6 0.0
0.0 0.0 0.0

-3.995435477821849e6 2.7869447026792128e7 0.0
2.7869447026792128e7 1.9443799693168458e6 0.0
0.0 0.0 0.0

-1.0279629577732984e7 9.406234926894175e6 0.0
9.406234926894175e6 1.2639968191220663e7 0.0
0.0 0.0 0.0

1.259932575234605e6 1.2002124146272194e7 0.0
1.2002124146272194e7 -1.3243771265185682e7 0.0
0.0 0.0 0.0

-9.440829164456058e6 -3.5903208553107e6 0.0
-3.5903208553107e6 1.536860092480446e7 0.0
0.0 0.0 0.0

-9.899096612056863e6 2.1974182286849868e7 0.0
2.1974182286849868e7 5.005685585743502e6 0.0
0.0 0.0 0.0

-9.59409599316968e6 -1.1374685773776332e6 0.0
-1.1374685773776332e6 3.8202712631696306e7 0.0
0.0 0.0 0.0

-48594.749660504865 2.3682699267140616e7 0.0
2.3682699267140616e7 -3.078858868729088e6 0.0
0.0 0.0 0.0

1.0400551345918784e6 1.4229458072128506e7 0.0
1.4229458072128506e7 -1.661061855972525e7 0.0
0.0 0.0 0.0

-344872.4278769847 1.6670814025340019e7 0.0
1.6670814025340019e7 6.371196826732781e6 0.0
0.0 0.0 0.0

-808371.4154046657 1.4019089127790747e7 0.0
1.4019089127790747e7 -8.397846595833853e6 0.0
0.0 0.0 0.0

1.5949025325188683e6 1.2250625642400641e7 0.0
1.2250625642400641e7 -2.247183213350231e7 0.0
0.0 0.0 0.0

3.6087700455746446e6 4.295331141896536e6 0.0
4.295331141896536e6 -1.2792209680175785e7 0.0
0.0 0.0 0.0

1.0145459334844043e6 2.036910609457268e7 0.0
2.036910609457268e7 -5.797924586320801e6 0.0
0.0 0.0 0.0

-405247.50529781915 1.6699314867829952e7 0.0
1.6699314867829952e7 4.290353428778302e6 0.0
0.0 0.0 0.0

-3.397218130365707e6 1.6513754140806478e7 0.0
1.6513754140806478e7 -1.610748610373295e6 0.0
0.0 0.0 0.0

4.391742341920629e6 2.3165552083850796e6 0.0
2.3165552083850796e6 -3.9909927395877175e7 0.0
0.0 0.0 0.0

-1.0748428641491106e7 1.7926489040492768e6 0.0
1.7926489040492768e6 1.7652401010328904e7 0.0
0.0 0.0 0.0

3.8707238343840074e6 4.251393410709612e6 0.0
4.251393410709612e6 -3.983979428458545e7 0.0
0.0 0.0 0.0

-5.229132871120857e6 -6.654424709681321e6 0.0
-6.654424709681321e6 1.1299197366887853e7 0.0
0.0 0.0 0.0

-3.6039993550885306e6 1.8454333575652156e7 0.0
1.8454333575652156e7 -166775.68692601565 0.0
0.0 0.0 0.0

-455406.5649891561 1.6727148770969536e7 0.0
1.6727148770969536e7 2.393433330555497e6 0.0
0.0 0.0 0.0

-370296.7043152866 1.6253937631107165e7 0.0
1.6253937631107165e7 4.388428560974497e6 0.0
0.0 0.0 0.0

-7.481408632681184e6 1.3046813902449975e7 0.0
1.3046813902449975e7 1.3236725359640658e7 0.0
0.0 0.0 0.0

-9.12285420907286e6 -6.099046226262996e6 0.0
-6.099046226262996e6 2.372785294295358e7 0.0
0.0 0.0 0.0

1.4200698311100274e6 2.1714255736917786e7 0.0
2.1714255736917786e7 -4.76340795007162e6 0.0
0.0 0.0 0.0

1.6666466498839748e6 1.805189103689488e7 0.0
1.805189103689488e7 1.2553676730729215e7 0.0
0.0 0.0 0.0

3.203993774863187e6 8.013138901167101e6 0.0
8.013138901167101e6 -1.9533978272563294e7 0.0
0.0 0.0 0.0

-9.602010990765247e6 -4.280200412270849e6 0.0
-4.280200412270849e6 2.591299168531305e7 0.0
0.0 0.0 0.0

507523.88656405034 1.7390111620188124e7 0.0
1.7390111620188124e7 9.672107633269098e6 0.0
0.0 0.0 0.0

-6.8306706315768715e6 1.4530064524924845e7 0.0
1.4530064524924845e7 3.0090077380937833e7 0.0
0.0 0.0 0.0

2.3342261555342516e6 1.825717639085093e7 0.0
1.825717639085093e7 9.585131046913594e6 0.0
0.0 0.0 0.0

-2.123368631167149e6 1.350514477499759e7 0.0
1.350514477499759e7 -3.4411203252331264e7 0.0
0.0 0.0 0.0

-6.077929835136386e6 1.708796928790985e7 0.0
1.708796928790985e7 1.855263267783145e7 0.0
0.0 0.0 0.0

-1.0211888897513943e6 1.6446842487862682e7 0.0
1.6446842487862682e7 1.3005913956742505e7 0.0
0.0 0.0 0.0

247468.3116616276 1.788457645754402e7 0.0
1.788457645754402e7 -9.282117581691012e6 0.0
0.0 0.0 0.0

-1.5139222874483475e6 1.7714361454019673e7 0.0
1.7714361454019673e7 -4.22028595483539e6 0.0
0.0 0.0 0.0

2.996058135659052e6 7.70236318419031e6 0.0
7.70236318419031e6 -3.0174036454852868e7 0.0
0.0 0.0 0.0

3.175070045152068e6 7.04856417757847e6 0.0
7.04856417757847e6 -3.1619069165004104e7 0.0
0.0 0.0 0.0

-4131.208758864552 1.3760120946189975e7 0.0
1.3760120946189975e7 -7.993888208463252e6 0.0
0.0 0.0 0.0

-1.05305876550696e7 1.477033980517834e7 0.0
1.477033980517834e7 2.2044344014872342e7 0.0
0.0 0.0 0.0

-298129.78304166393 1.690602567021611e7 0.0
1.690602567021611e7 -1.1177562750890527e7 0.0
0.0 0.0 0.0

-8.081353710838072e6 2.0312288078452612e6 0.0
2.0312288078452612e6 4.99099739594568e7 0.0
0.0 0.0 0.0

70895.41019167192 1.3073018536328282e7 0.0
1.3073018536328282e7 -2.4429770644380774e7 0.0
0.0 0.0 0.0

-1.431720509398261e6 1.315094687535259e7 0.0
1.315094687535259e7 4.626209448935608e7 0.0
0.0 0.0 0.0

4.488594876557833e6 2.4146435908527984e6 0.0
2.4146435908527984e6 -3.8318306449888505e7 0.0
0.0 0.0 0.0

-721979.9893609537 1.9095826534843195e7 0.0
1.9095826534843195e7 -7.220363760923106e6 0.0
0.0 0.0 0.0

1.400778041949463e6 1.806293711946821e7 0.0
1.806293711946821e7 1.0320254255507998e7 0.0
0.0 0.0 0.0

-3.4387837881728346e6 1.4513898237868214e7 0.0
1.4513898237868214e7 -3.1367701370581385e7 0.0
0.0 0.0 0.0

5.4638768127300935e6 9.962985714018133e6 0.0
9.962985714018133e6 1.5844477243472363e6 0.0
0.0 0.0 0.0

-1.1417897979779716e6 1.7027177268056884e7 0.0
1.7027177268056884e7 -5.364595154928733e6 0.0
0.0 0.0 0.0

746652.8411811534 1.775358853312292e7 0.0
1.775358853312292e7 1.0720038566845668e7 0.0
0.0 0.0 0.0

-4.605657578524936e6 1.871710142856469e7 0.0
1.871710142856469e7 8.879371087670563e6 0.0
0.0 0.0 0.0

-4.735566744935271e6 1.7831745986179683e7 0.0
1.7831745986179683e7 1.3041418192283208e7 0.0
0.0 0.0 0.0

1.0346052364682565e6 1.1041914626390478e7 0.0
1.1041914626390478e7 -1.177844154885358e7 0.0
0.0 0.0 0.0

-1.218071329462238e7 1.3308555600316891e7 0.0
1.3308555600316891e7 2.0471596462186683e7 0.0
0.0 0.0 0.0

-1.429872898516778e6 1.3090610611646371e7 0.0
1.3090610611646371e7 -3.2292440368222207e7 0.0
0.0 0.0 0.0

-1.5169878110543992e6 1.689809749009402e7 0.0
1.689809749009402e7 -8.065511458960561e6 0.0
0.0 0.0 0.0

-5.455167276700873e6 1.9170668616637804e7 0.0
1.9170668616637804e7 5.227207431740761e6 0.0
0.0 0.0 0.0

684002.8813190139 9.843229271048492e6 0.0
9.843229271048492e6 -7.28634941713966e6 0.0
0.0 0.0 0.0

-6.989461036098015e6 4.875012664743524e6 0.0
4.875012664743524e6 6.6084111283702396e7 0.0
0.0 0.0 0.0

-3.8295821754538734e6 1.4604586685642593e7 0.0
1.4604586685642593e7 -3.86849434825508e7 0.0
0.0 0.0 0.0

-5.532860725325069e6 1.668726176799137e7 0.0
1.668726176799137e7 2.040625568577549e7 0.0
0.0 0.0 0.0

-2.771163701184539e6 2.4351770240262974e7 0.0
2.4351770240262974e7 1.1094162737462148e6 0.0
0.0 0.0 0.0

1.1098580051451262e7 1.8185588189109087e7 0.0
1.8185588189109087e7 5.757033021256996e6 0.0
0.0 0.0 0.0

-4.0713603983914126e6 1.6347895337048646e7 0.0
1.6347895337048646e7 2.5526273370725155e7 0.0
0.0 0.0 0.0

-6.164532016154183e6 1.7170409721451323e7 0.0
1.7170409721451323e7 1.531202300020989e7 0.0
0.0 0.0 0.0

838310.5463686343 1.2812695013585277e7 0.0
1.2812695013585277e7 -1.2935197475463152e7 0.0
0.0 0.0 0.0

-1.8795307925568004e6 1.6278992362562696e7 0.0
1.6278992362562696e7 -9.224573142674001e6 0.0
0.0 0.0 0.0

-7.024242966289742e6 1.5745867665835783e7 0.0
1.5745867665835783e7 1.127368566054476e7 0.0
0.0 0.0 0.0

-7.195636747717749e6 1.4496515824720204e7 0.0
1.4496515824720204e7 1.3582065585200105e7 0.0
0.0 0.0 0.0

4.543566803128706e6 3.7177327624444417e6 0.0
3.7177327624444417e6 -2.2107740677275483e7 0.0
0.0 0.0 0.0

-4.425040188933047e6 2.0722748042867493e7 0.0
2.0722748042867493e7 8.471973486066943e6 0.0
0.0 0.0 0.0

-971630.0931155365 1.3121450139770558e7 0.0
1.3121450139770558e7 -2.3243338872937416e6 0.0
0.0 0.0 0.0

4.840472558731808e6 3.960417994921896e6 0.0
3.960417994921896e6 -1.6497049984192198e7 0.0
0.0 0.0 0.0

-834943.6974161273 2.3000765026072856e7 0.0
2.3000765026072856e7 -3.0393981837714533e6 0.0
0.0 0.0 0.0

1.917568580088614e6 1.830566802593983e7 0.0
1.830566802593983e7 1.1475281916773086e7 0.0
0.0 0.0 0.0

-8.894953046215571e6 234724.14722258612 0.0
234724.14722258612 4.346610347685187e7 0.0
0.0 0.0 0.0

3.92559840073862e6 1.9094618230637304e7 0.0
1.9094618230637304e7 8.295795437067381e6 0.0
0.0 0.0 0.0

2.5832849537557666e6 1.7959025716028266e7 0.0
1.7959025716028266e7 6.320495918550859e6 0.0
0.0 0.0 0.0

-84791.12750671897 1.5932196409143807e7 0.0
1.5932196409143807e7 -1.1243525688542241e7 0.0
0.0 0.0 0.0

4.587394612702778e6 3.5441258755065887e6 0.0
3.5441258755065887e6 -2.8479873755925983e7 0.0
0.0 0.0 0.0

1.1206081830447924e6 1.5189363477956587e7 0.0
1.5189363477956587e7 7.91902728514365e6 0.0
0.0 0.0 0.0

13875.643899876159 1.6286823971268322e7 0.0
1.6286823971268322e7 -1.0352067227299478e7 0.0
0.0 0.0 0.0

-143959.71261726413 1.6437754556401173e7 0.0
1.6437754556401173e7 7.414795731857678e6 0.0
0.0 0.0 0.0

-9.25496547695237e6 4.1830034049879145e6 0.0
4.1830034049879145e6 1.3163731956229627e7 0.0
0.0 0.0 0.0

-4.57743480070111e6 -6.12491283048746e6 0.0
-6.12491283048746e6 1.0431998273940733e7 0.0
0.0 0.0 0.0

-4.209334992781181e6 1.8545811074567035e7 0.0
1.8545811074567035e7 3.1057110648331484e6 0.0
0.0 0.0 0.0

1.644335274473507e6 1.2710100374399342e7 0.0
1.2710100374399342e7 -1.952220035305947e7 0.0
0.0 0.0 0.0

-1.8499491000855588e6 1.5001549633851608e7 0.0
1.5001549633851608e7 -1.314949045443942e7 0.0
0.0 0.0 0.0

-7.301136496495713e6 1.437899374171257e6 0.0
1.437899374171257e6 6.423679878940319e7 0.0
0.0 0.0 0.0

-4.796197061710509e6 2.8564835865166098e7 0.0
2.8564835865166098e7 2.0961563486764717e6 0.0
0.0 0.0 0.0

1.1660712160847397e6 5.502341323785652e6 0.0
5.502341323785652e6 -3.7862248501442596e6 0.0
0.0 0.0 0.0

-801564.7151293564 1.6880134944198743e7 0.0
1.6880134944198743e7 658489.2566430476 0.0
0.0 0.0 0.0

198086.97980109556 1.737218491505965e7 0.0
1.737218491505965e7 9.438417825583389e6 0.0
0.0 0.0 0.0

-1.0777760100630064e7 1.4904278241389075e7 0.0
1.4904278241389075e7 2.038565351371414e7 0.0
0.0 0.0 0.0

-1.0521268554606674e7 2.1541249531209785e7 0.0
2.1541249531209785e7 3.411807868444543e6 0.0
0.0 0.0 0.0

1.4134543238918525e6 1.8062924542264197e7 0.0
1.8062924542264197e7 7.532048448927789e6 0.0
0.0 0.0 0.0

-195476.53398679057 1.781114497630617e7 0.0
1.781114497630617e7 8.952080480490962e6 0.0
0.0 0.0 0.0

433936.048161963 1.571680957084788e7 0.0
1.571680957084788e7 -1.3915218258813161e7 0.0
0.0 0.0 0.0

2.5111299177898667e6 5.337688378936342e6 0.0
5.337688378936342e6 -1.0260683636270756e7 0.0
0.0 0.0 0.0

-242528.86771526327 1.5950494925028779e7 0.0
1.5950494925028779e7 -1.2596597252243968e7 0.0
0.0 0.0 0.0

-865283.664815133 1.790384838297999e7 0.0
1.790384838297999e7 -8.948574736751162e6 0.0
0.0 0.0 0.0

-3.65576421403631e6 2.048634569258832e7 0.0
2.048634569258832e7 4.712547536060331e6 0.0
0.0 0.0 0.0

170562.6712541785 1.8644833015722025e7 0.0
1.8644833015722025e7 -7.916592799124977e6 0.0
0.0 0.0 0.0

-125703.08647906035 1.805801182357205e7 0.0
1.805801182357205e7 -8.623841150694557e6 0.0
0.0 0.0 0.0

4.725081551492818e6 4.3309881622083485e6 0.0
4.3309881622083485e6 -2.5849338508634117e7 0.0
0.0 0.0 0.0

974744.0641832347 1.7162559228950575e7 0.0
1.7162559228950575e7 5.318684165191411e6 0.0
0.0 0.0 0.0

-1.0842943032155565e6 1.837843440880752e7 0.0
1.837843440880752e7 -8.077763591623629e6 0.0
0.0 0.0 0.0

-1.2483523507376809e7 1.081885713635179e7 0.0
1.081885713635179e7 1.7177975619212717e7 0.0
0.0 0.0 0.0

-6.7498180449971e7 2.5339046517733064e7 0.0
2.5339046517733064e7 -1.9809349518726915e6 0.0
0.0 0.0 0.0

2.35387270097185e7 2.6157681176705796e7 0.0
2.6157681176705796e7 7.846259424755554e7 0.0
0.0 0.0 0.0

-2.0806906163567003e7 2.3669975789260864e7 0.0
2.3669975789260864e7 -6.935650306675354e7 0.0
0.0 0.0 0.0

-7.12537542216324e6 1.6810107718342107e7 0.0
1.6810107718342107e7 1.785532470563835e7 0.0
0.0 0.0 0.0

1.4673623588734698e6 1.2494024002268635e7 0.0
1.2494024002268635e7 -1.7328494724683356e7 0.0
0.0 0.0 0.0

-2.338172111962734e6 1.721280417731237e7 0.0
1.721280417731237e7 -9.114036896243736e6 0.0
0.0 0.0 0.0

-627481.3486718148 2.8574406100336276e7 0.0
2.8574406100336276e7 -1.6174386248096817e6 0.0
0.0 0.0 0.0

-607219.1139332866 1.4660543060683183e7 0.0
1.4660543060683183e7 -1.632314824764607e7 0.0
0.0 0.0 0.0

-2.3395323027344793e6 1.80328814352945e7 0.0
1.80328814352945e7 -5.368568821953923e6 0.0
0.0 0.0 0.0

-1.1820102834690232e7 1.2932421339997834e7 0.0
1.2932421339997834e7 1.788565112046963e7 0.0
0.0 0.0 0.0

-2.3299007720708773e6 2.0687556154318646e7 0.0
2.0687556154318646e7 -1.0869280808578222e6 0.0
0.0 0.0 0.0

-802773.969732793 1.3887341106651125e7 0.0
1.3887341106651125e7 -2.4186544227786634e7 0.0
0.0 0.0 0.0

-745135.5264017975 1.707547663377726e7 0.0
1.707547663377726e7 -5.128131694541563e6 0.0
0.0 0.0 0.0

-5.2393304193195645e6 1.8706421462019276e7 0.0
1.8706421462019276e7 9.814315112104772e6 0.0
0.0 0.0 0.0

1.063320796175099e7 1.7759441735616706e7 0.0
1.7759441735616706e7 -2.5518854045353257e6 0.0
0.0 0.0 0.0

-362692.41585847316 1.5784804145304589e7 0.0
1.5784804145304589e7 5.3834124177957615e6 0.0
0.0 0.0 0.0

-6.828275172092188e6 1.682792732222766e7 0.0
1.682792732222766e7 1.6331863694566023e7 0.0
0.0 0.0 0.0

-1.561264826634065e7 2.031950625766154e7 0.0
2.031950625766154e7 -384810.9054048499 0.0
0.0 0.0 0.0

-378323.68998971325 1.600544432118638e7 0.0
1.600544432118638e7 5.438428050118746e6 0.0
0.0 0.0 0.0

-449538.10973775206 2.3347535435895626e7 0.0
2.3347535435895626e7 -2.9223974217796726e6 0.0
0.0 0.0 0.0

4.1585279076482626e6 2.138217866853634e7 0.0
2.138217866853634e7 -5.235387660408255e6 0.0
0.0 0.0 0.0

1.8065434191814214e6 1.2002200062812876e7 0.0
1.2002200062812876e7 -1.3434941555867255e7 0.0
0.0 0.0 0.0

-7.840158466203732e6 1.6260576385663535e7 0.0
1.6260576385663535e7 2.085689523428995e7 0.0
0.0 0.0 0.0

-61011.6959039215 1.5382307766214838e7 0.0
1.5382307766214838e7 -1.4352940148292622e7 0.0
0.0 0.0 0.0

-3.9864707754840637e6 1.5249485574701473e7 0.0
1.5249485574701473e7 3.683246356578358e6 0.0
0.0 0.0 0.0

-7.974476261115989e6 1.5465387853399e7 0.0
1.5465387853399e7 1.3378894069457943e7 0.0
0.0 0.0 0.0

2.1472841373514873e6 6.90110489219562e6 0.0
6.90110489219562e6 -7.942534568854559e6 0.0
0.0 0.0 0.0

-151999.45322318282 1.5990659623734955e7 0.0
1.5990659623734955e7 6.610144462813046e6 0.0
0.0 0.0 0.0

1.2105084907559864e6 2.102703944215192e7 0.0
2.102703944215192e7 -5.308324016158526e6 0.0
0.0 0.0 0.0

1.2450455616404954e6 1.0145650439124702e7 0.0
1.0145650439124702e7 -4.4591415035711944e7 0.0
0.0 0.0 0.0

-1.2418718890206758e7 1.0181491935605764e7 0.0
1.0181491935605764e7 1.6533837213010293e7 0.0
0.0 0.0 0.0

1.0050374819809534e7 3.0096518553892687e7 0.0
3.0096518553892687e7 -6.823896816625213e6 0.0
0.0 0.0 0.0

3.822552935708018e6 7.150848856855571e6 0.0
7.150848856855571e6 -2.940906273502598e7 0.0
0.0 0.0 0.0

-234338.13358428422 1.580333949546886e7 0.0
1.580333949546886e7 5.218886605187672e6 0.0
0.0 0.0 0.0

-107322.95959030371 1.9487555947483886e7 0.0
1.9487555947483886e7 -6.928124768031098e6 0.0
0.0 0.0 0.0

9.230632998222664e6 2.0273638581364702e7 0.0
2.0273638581364702e7 1.1568151919694322e8 0.0
0.0 0.0 0.0

-9.694227352851178e6 1.9289483210383285e7 0.0
1.9289483210383285e7 -9.754490698763308e7 0.0
0.0 0.0 0.0

1.8789209806279555e7 1.6827386531600505e7 0.0
1.6827386531600505e7 4.000560589226169e6 0.0
0.0 0.0 0.0

5.402577975192453e6 2.0860135780701667e7 0.0
2.0860135780701667e7 -5.395299181191173e6 0.0
0.0 0.0 0.0

752159.6621659887 9.392773734731026e6 0.0
9.392773734731026e6 -6.574666285231234e6 0.0
0.0 0.0 0.0

1.0825365475394186e7 2.725583769453887e7 0.0
2.725583769453887e7 -7.134031809158164e6 0.0
0.0 0.0 0.0

-3.54263567135984e6 1.7503179864640985e7 0.0
1.7503179864640985e7 1.4819601737157445e7 0.0
0.0 0.0 0.0

8.652264717479689e6 1.7564206188267607e7 0.0
1.7564206188267607e7 -2.114233981812859e6 0.0
0.0 0.0 0.0

-4.459148342577196e6 2.008678466126767e7 0.0
2.008678466126767e7 6.547343680131992e6 0.0
0.0 0.0 0.0

-6.584159179809989e6 1.3897268646707337e7 0.0
1.3897268646707337e7 1.1791150926568218e7 0.0
0.0 0.0 0.0

720023.024179722 4.034424742017047e6 0.0
4.034424742017047e6 -4.227274886398367e6 0.0
0.0 0.0 0.0

2.3269269118293966e6 1.8326580231063865e7 0.0
1.8326580231063865e7 1.2394029544980997e7 0.0
0.0 0.0 0.0

-1.7066446130183258e6 2.0493140226835385e7 0.0
2.0493140226835385e7 -4.428161621983513e6 0.0
0.0 0.0 0.0

-7.380041130917758e6 1.6820835755495045e7 0.0
1.6820835755495045e7 1.8750033094107226e7 0.0
0.0 0.0 0.0

-5.245005878668465e6 2.0944928896896806e7 0.0
2.0944928896896806e7 8.102102346847416e6 0.0
0.0 0.0 0.0

-3.992799921335257e6 1.9804750922531825e7 0.0
1.9804750922531825e7 7.056720366655306e6 0.0
0.0 0.0 0.0

-1.3004843752419618e6 1.4210900512079999e7 0.0
1.4210900512079999e7 -5.264634765764619e6 0.0
0.0 0.0 0.0

-5.2571960014962405e6 1.6576480073773319e7 0.0
1.6576480073773319e7 2.1289523706722967e7 0.0
0.0 0.0 0.0

-4.1020680861923182e6 2.044219336265767e7 0.0
2.044219336265767e7 7.659742502151113e6 0.0
0.0 0.0 0.0

-4.591582364767015e6 1.0864857069974672e7 0.0
1.0864857069974672e7 5.619018733216621e6 0.0
0.0 0.0 0.0

-3.0067860606810216e7 2.554029121940407e7 0.0
2.554029121940407e7 1.5264643289480042e6 0.0
0.0 0.0 0.0

-9.228897966722792e6 2.8309484892787114e6 0.0
2.8309484892787114e6 4.33489656446106e7 0.0
0.0 0.0 0.0

-6.5570456509137135e6 2.1186412835401773e7 0.0
2.1186412835401773e7 7.041538597131412e6 0.0
0.0 0.0 0.0

-6.3138950946372915e6 2.4954099173905306e7 0.0
2.4954099173905306e7 5.874376271983905e6 0.0
0.0 0.0 0.0

387750.2408160353 1.3444377092743091e7 0.0
1.3444377092743091e7 -2.2002144910439953e7 0.0
0.0 0.0 0.0

-2.9008199359749747e6 2.6641873556740887e7 0.0
2.6641873556740887e7 2.3444203271997254e6 0.0
0.0 0.0 0.0

-6.040123428566704e6 2.9423416308181614e7 0.0
2.9423416308181614e7 2.1448661499893614e6 0.0
0.0 0.0 0.0

-7.309164569198921e6 3.0228530235422675e7 0.0
3.0228530235422675e7 2.4576021624623043e6 0.0
0.0 0.0 0.0

-2.250791400585605e6 2.2189746915343724e7 0.0
2.2189746915343724e7 -1.7412820833438113e6 0.0
0.0 0.0 0.0

-1.2054637955355514e7 1.0440083557951339e7 0.0
1.0440083557951339e7 2.4146749554350697e7 0.0
0.0 0.0 0.0

4.971643851321638e6 2.731558693847403e6 0.0
2.731558693847403e6 -2.4234809349826686e7 0.0
0.0 0.0 0.0

-5.953153798300037e6 1.699208913862396e7 0.0
1.699208913862396e7 1.9032504983388375e7 0.0
0.0 0.0 0.0

-633937.7079971813 2.3955302803422343e7 0.0
2.3955302803422343e7 -2.3314199858265226e6 0.0
0.0 0.0 0.0

725615.2454501893 1.3890250941494789e7 0.0
1.3890250941494789e7 -1.7619450605628014e7 0.0
0.0 0.0 0.0

-9.665366898600081e6 -2.559263868392482e6 0.0
-2.559263868392482e6 3.341606416766326e7 0.0
0.0 0.0 0.0

130195.11791330554 1.6550971782818535e7 0.0
1.6550971782818535e7 738739.6422129809 0.0
0.0 0.0 0.0

3020.028526786249 1.668970286100853e7 0.0
1.668970286100853e7 -9.633785615568304e6 0.0
0.0 0.0 0.0

-133413.46458777552 1.5580419841211623e7 0.0
1.5580419841211623e7 -1.2065723363113113e7 0.0
0.0 0.0 0.0

-2.0459193854155221e6 1.3640752419773322e7 0.0
1.3640752419773322e7 -1.1307318397010347e7 0.0
0.0 0.0 0.0

-7.048781077311839e6 -4.786294735366001e6 0.0
-4.786294735366001e6 1.1082442764736447e7 0.0
0.0 0.0 0.0

-34911.30803993193 1.4383090562945371e7 0.0
1.4383090562945371e7 -2.47362357263462e6 0.0
0.0 0.0 0.0

1.0505383369143337e6 1.62422423381701e7 0.0
1.62422423381701e7 4.67864754973562e6 0.0
0.0 0.0 0.0

1.1952719441389764e7 1.6405245496836852e7 0.0
1.6405245496836852e7 2.727571678313852e6 0.0
0.0 0.0 0.0

-8.323765032196346e6 3.1707514342469998e7 0.0
3.1707514342469998e7 2.9797120735112415e6 0.0
0.0 0.0 0.0

-6.920334086330329e6 1.4182435238247555e7 0.0
1.4182435238247555e7 1.2755927004564226e7 0.0
0.0 0.0 0.0

-6.087269305295598e6 1.6033832009654297e7 0.0
1.6033832009654297e7 -4.324656644581304e7 0.0
0.0 0.0 0.0

4.1832680298400223e6 6.585758301094817e6 0.0
6.585758301094817e6 -2.491708278029211e7 0.0
0.0 0.0 0.0

-8.402634290996308e6 -7.137188879754794e6 0.0
-7.137188879754794e6 2.03463711605727e7 0.0
0.0 0.0 0.0

-1.4318495871863844e7 2.3935804509589806e7 0.0
2.3935804509589806e7 -2.790996758890298e6 0.0
0.0 0.0 0.0

-1.446550026540771e7 2.0897759263161946e7 0.0
2.0897759263161946e7 -2.140693125946114e6 0.0
0.0 0.0 0.0

-1.078460697587784e6 1.4743781512356473e7 0.0
1.4743781512356473e7 -6.806692939563722e6 0.0
0.0 0.0 0.0

-1.739429257679349e6 2.3652727698307667e7 0.0
2.3652727698307667e7 -1.2935774223317378e6 0.0
0.0 0.0 0.0

2.6642837345958073e6 6.331223767977499e6 0.0
6.331223767977499e6 -4.270540663686721e7 0.0
0.0 0.0 0.0

4.39133950902484e6 1.8669921586570982e7 0.0
1.8669921586570982e7 -4.200998318197673e6 0.0
0.0 0.0 0.0

2.2434063601494757e6 1.8505242926831987e7 0.0
1.8505242926831987e7 8.26090877636879e6 0.0
0.0 0.0 0.0

2.037508022045116e6 1.2310202641233439e7 0.0
1.2310202641233439e7 -1.7091944465568077e7 0.0
0.0 0.0 0.0

-3.0064744823682397e6 1.9523516096913524e7 0.0
1.9523516096913524e7 707623.9114918583 0.0
0.0 0.0 0.0

1.8211217849847581e6 1.1620222563486783e7 0.0
1.1620222563486783e7 -1.2759171219146032e7 0.0
0.0 0.0 0.0

1.6149198771857787e6 1.2087489298136164e7 0.0
1.2087489298136164e7 -1.8356205661667913e7 0.0
0.0 0.0 0.0

-1.1806104563301676e6 1.4318897545151083e7 0.0
1.4318897545151083e7 -1.2069867747864805e7 0.0
0.0 0.0 0.0

-6.624524810541682e6 2.4157067451241918e7 0.0
2.4157067451241918e7 5.618646603336024e6 0.0
0.0 0.0 0.0

-1.0506033890718797e7 1.8903822283948887e7 0.0
1.8903822283948887e7 -5.02231477936768e7 0.0
0.0 0.0 0.0

8.393253435952356e6 2.689246781192576e7 0.0
2.689246781192576e7 -5.480290695023511e6 0.0
0.0 0.0 0.0

2.048519057565216e6 2.1023646948236722e7 0.0
2.1023646948236722e7 -5.179239121888532e6 0.0
0.0 0.0 0.0

-2.968855197394501e6 2.507882179027668e7 0.0
2.507882179027668e7 2.738529778983443e6 0.0
0.0 0.0 0.0

-4.650490352218429e6 1.9978016981186043e7 0.0
1.9978016981186043e7 8.825075983058028e6 0.0
0.0 0.0 0.0

2.8020414735369124e6 5.395156857807911e6 0.0
5.395156857807911e6 -4.445386338792578e7 0.0
0.0 0.0 0.0

-4.917332274769123e6 1.8452775525374953e7 0.0
1.8452775525374953e7 1.2161680739834335e7 0.0
0.0 0.0 0.0

3.5907211857208237e6 5.2421675398148745e6 0.0
5.2421675398148745e6 -3.616794840923864e7 0.0
0.0 0.0 0.0

-1.0825263725026536e6 1.744628737988687e7 0.0
1.744628737988687e7 -6.847605059160261e6 0.0
0.0 0.0 0.0

-915628.567750351 1.684247477214139e7 0.0
1.684247477214139e7 -7.162709633625808e6 0.0
0.0 0.0 0.0

-397731.6698840363 1.39910250758526e7 0.0
1.39910250758526e7 -3.2723692451814967e6 0.0
0.0 0.0 0.0

-4.646061593465127e6 1.729472602840743e7 0.0
1.729472602840743e7 1.3540534446696065e7 0.0
0.0 0.0 0.0

-2.8146675974009363e6 2.1438751652059995e7 0.0
2.1438751652059995e7 -1.0843433107030133e6 0.0
0.0 0.0 0.0

-5.848189651293295e6 1.74141253187249e7 0.0
1.74141253187249e7 1.1234742355608542e7 0.0
0.0 0.0 0.0

-8.758790513992086e6 -6.3319141763581885e6 0.0
-6.3319141763581885e6 2.434767562026227e7 0.0
0.0 0.0 0.0

3.726179849948844e6 6.3404667434452865e6 0.0
6.3404667434452865e6 -2.635376390682724e7 0.0
0.0 0.0 0.0

3.209784372399508e6 8.210890442759739e6 0.0
8.210890442759739e6 -2.098605334816798e7 0.0
0.0 0.0 0.0

-951674.7741058687 2.5577088946101602e7 0.0
2.5577088946101602e7 -557815.2200266552 0.0
0.0 0.0 0.0

-1.544296904960011e6 1.7166212454946745e7 0.0
1.7166212454946745e7 -7.779453902183183e6 0.0
0.0 0.0 0.0

1.040775458450675e6 1.2863239814022949e7 0.0
1.2863239814022949e7 -2.2259427759008266e7 0.0
0.0 0.0 0.0

-248402.73893993068 1.7287099095618542e7 0.0
1.7287099095618542e7 1.3025434613869226e7 0.0
0.0 0.0 0.0

-9.572617134139739e6 41633.19636983951 0.0
41633.19636983951 1.6111177602271594e7 0.0
0.0 0.0 0.0

2.4652301293483633e6 1.9097347538898855e7 0.0
1.9097347538898855e7 9.553748302431548e6 0.0
0.0 0.0 0.0

-1.2094508864544619e7 2.6484187185325693e7 0.0
2.6484187185325693e7 7.246070583977336e6 0.0
0.0 0.0 0.0

1.7375396954110223e6 1.6828670798529718e7 0.0
1.6828670798529718e7 5.009200374451881e6 0.0
0.0 0.0 0.0

638993.3553752187 1.567785049936591e7 0.0
1.567785049936591e7 9.452002677442756e6 0.0
0.0 0.0 0.0

-4.857171081856955e6 2.362074250813561e7 0.0
2.362074250813561e7 5.562109252549218e6 0.0
0.0 0.0 0.0

-5.27434676332988e6 1.780586493210031e7 0.0
1.780586493210031e7 1.374740103322331e7 0.0
0.0 0.0 0.0

-4.506539357594572e6 1.5697998067754658e7 0.0
1.5697998067754658e7 2.4700639202947393e7 0.0
0.0 0.0 0.0

-1.3482703762373539e7 2.152000521298886e7 0.0
2.152000521298886e7 -607164.5119260415 0.0
0.0 0.0 0.0

-1.060020537862248e7 2.0205266474794988e7 0.0
2.0205266474794988e7 2.662689906729981e6 0.0
0.0 0.0 0.0

-1.1042780229432842e7 1.2874921326256055e7 0.0
1.2874921326256055e7 5.730618879282821e6 0.0
0.0 0.0 0.0

-6.014133310115126e7 2.772795622063108e7 0.0
2.772795622063108e7 3.131688813671369e6 0.0
0.0 0.0 0.0

6.906815724714961e6 1.6736950601391707e7 0.0
1.6736950601391707e7 3.7837147056311714e6 0.0
0.0 0.0 0.0

-391430.3975856388 1.3662561222489042e7 0.0
1.3662561222489042e7 -2.2463352886020783e7 0.0
0.0 0.0 0.0

-4.586490461833254e6 1.9547044721907634e7 0.0
1.9547044721907634e7 6.680252899136042e6 0.0
0.0 0.0 0.0

-170615.70582453674 1.6463055276783831e7 0.0
1.6463055276783831e7 -1.2092900633995457e7 0.0
0.0 0.0 0.0

2.964242155734048e7 1.3529069480750652e7 0.0
1.3529069480750652e7 512456.4352242686 0.0
0.0 0.0 0.0

-3.94364956233083e6 461810.5927397766 0.0
461810.5927397766 5.81180113230254e6 0.0
0.0 0.0 0.0

3.7865272123518763e6 3.2958207103491537e6 0.0
3.2958207103491537e6 -1.181236325748336e7 0.0
0.0 0.0 0.0

-607807.2310334439 1.6987063622967962e7 0.0
1.6987063622967962e7 -1.025699296134915e7 0.0
0.0 0.0 0.0

-418957.20924075076 1.5147207143044747e7 0.0
1.5147207143044747e7 -1.2783516907129143e6 0.0
0.0 0.0 0.0

-1.0616609464246947e7 2.5388788276747414e6 0.0
2.5388788276747414e6 3.3172825160792764e7 0.0
0.0 0.0 0.0

3.0613723410662487e6 2.1663310683156908e7 0.0
2.1663310683156908e7 -5.043125353625098e6 0.0
0.0 0.0 0.0

-1.2182211610645734e7 3.2779845591693494e7 0.0
3.2779845591693494e7 3.298120171204312e6 0.0
0.0 0.0 0.0

6.413799137196891e6 1.729460403982226e7 0.0
1.729460403982226e7 2.9718362014045697e6 0.0
0.0 0.0 0.0

-6.956821170026307e6 -7.374764426663424e6 0.0
-7.374764426663424e6 1.7522119651687153e7 0.0
0.0 0.0 0.0

-1.735748144489627e7 2.209191192260582e7 0.0
2.209191192260582e7 3.649884781165735e6 0.0
0.0 0.0 0.0

290041.35914061265 1.4870554196186332e7 0.0
1.4870554196186332e7 4.795611301368678e6 0.0
0.0 0.0 0.0

-1.6751956721123422e7 3.428803920593388e7 0.0
3.428803920593388e7 3.904068743184942e6 0.0
0.0 0.0 0.0

-9.549117108321732e6 1.4773143031692501e7 0.0
1.4773143031692501e7 1.7985821283905707e7 0.0
0.0 0.0 0.0

1.2022206958350851e6 1.6157614916305926e7 0.0
1.6157614916305926e7 -2.390274135889087e6 0.0
0.0 0.0 0.0

-4.202539680666e6 1.455551281011587e7 0.0
1.455551281011587e7 -1.796033745028229e7 0.0
0.0 0.0 0.0

-1.3815024975496542e6 1.486461677717363e7 0.0
1.486461677717363e7 -8.97041238996734e6 0.0
0.0 0.0 0.0

3.933799669053424e6 1.8283940547689326e7 0.0
1.8283940547689326e7 -4.434936339655062e6 0.0
0.0 0.0 0.0

1.8917084330222704e7 3.2385086780462116e7 0.0
3.2385086780462116e7 -1.3864522988182804e7 0.0
0.0 0.0 0.0

-7.341790620572497e6 -4.3007606131526735e6 0.0
-4.3007606131526735e6 1.3205130103433514e7 0.0
0.0 0.0 0.0

-733906.8687624072 2.7623286529506173e7 0.0
2.7623286529506173e7 -1.55624548224211e6 0.0
0.0 0.0 0.0

318336.9165395682 2.4135587287596073e7 0.0
2.4135587287596073e7 -2.0591074338131403e6 0.0
0.0 0.0 0.0

-1.0597713598645806e7 -2.6185979967904114e6 0.0
-2.6185979967904114e6 2.6302020623506516e7 0.0
0.0 0.0 0.0

4.949434552153466e6 2.7242050028864834e6 0.0
2.7242050028864834e6 -2.4441284839557398e7 0.0
0.0 0.0 0.0

-4.271776318443467e6 2.1866900182947207e7 0.0
2.1866900182947207e7 7.106863706316493e6 0.0
0.0 0.0 0.0

1.5057992503655688e6 1.8907347532505143e7 0.0
1.8907347532505143e7 1.049266595813636e7 0.0
0.0 0.0 0.0

-3.476224637197513e6 3.4165201885603718e6 0.0
3.4165201885603718e6 6.377343729427284e6 0.0
0.0 0.0 0.0

-1.0723104378747767e7 1.2895606067812603e7 0.0
1.2895606067812603e7 1.7891612101327747e7 0.0
0.0 0.0 0.0

784225.7680455763 1.8562738910070244e7 0.0
1.8562738910070244e7 1.1126863667093521e7 0.0
0.0 0.0 0.0

-564984.1445457544 1.4593016293664312e7 0.0
1.4593016293664312e7 -9.557330281362481e6 0.0
0.0 0.0 0.0

-1.6031176820759694e6 1.409154926046059e7 0.0
1.409154926046059e7 -1.2850998368702808e7 0.0
0.0 0.0 0.0

-1.1199491243782104e6 2.257377487188403e7 0.0
2.257377487188403e7 -3.06722298462046e6 0.0
0.0 0.0 0.0

-4.831260257812833e6 -626621.978311635 0.0
-626621.978311635 8.019048209693393e6 0.0
0.0 0.0 0.0

-3.664854138109631e6 1.6512690374842005e7 0.0
1.6512690374842005e7 2.7659007017952423e6 0.0
0.0 0.0 0.0

-1.033953680921888e7 1.5186399787726793e7 0.0
1.5186399787726793e7 2.1095845072813407e7 0.0
0.0 0.0 0.0

1.1085026072083507e6 1.2367763712281756e7 0.0
1.2367763712281756e7 -1.0704343829823494e7 0.0
0.0 0.0 0.0

-647650.9194461901 1.893846956347717e7 0.0
1.893846956347717e7 -7.886604524978667e6 0.0
0.0 0.0 0.0

-228881.57297668766 2.975228654051001e7 0.0
2.975228654051001e7 -214194.72010030135 0.0
0.0 0.0 0.0

619092.1512070438 1.2604907673919026e7 0.0
1.2604907673919026e7 -2.3639558603415865e7 0.0
0.0 0.0 0.0

-3.748921185386894e7 3.4735530632910155e7 0.0
3.4735530632910155e7 6.667230237741288e6 0.0
0.0 0.0 0.0

1.381972396948647e6 2.8637112850808986e6 0.0
2.8637112850808986e6 -3.2751652132441504e6 0.0
0.0 0.0 0.0

1.1967956040677193e6 2.991401610762139e6 0.0
2.991401610762139e6 -4.045460721497342e6 0.0
0.0 0.0 0.0

2.196504214273145e6 1.7038386262239944e7 0.0
1.7038386262239944e7 1.6482098374341251e7 0.0
0.0 0.0 0.0

1.7854587614086177e6 1.830582508832152e7 0.0
1.830582508832152e7 1.2919765098971575e7 0.0
0.0 0.0 0.0

-585593.7323967395 1.6599071194518115e7 0.0
1.6599071194518115e7 6.158480674353686e6 0.0
0.0 0.0 0.0

-1.0979691037501737e7 1.1023823968281386e7 0.0
1.1023823968281386e7 1.780313241182349e7 0.0
0.0 0.0 0.0

2.997126419632709e6 4.894055379342199e6 0.0
4.894055379342199e6 -1.228597672493564e6 0.0
0.0 0.0 0.0

-2.772899286775074e6 1.7928467901519068e7 0.0
1.7928467901519068e7 7.702719365582866e6 0.0
0.0 0.0 0.0

-1.9538146070835523e6 2.3576090566073116e7 0.0
2.3576090566073116e7 145711.6237020886 0.0
0.0 0.0 0.0

-39202.87713814899 1.3249279518734997e7 0.0
1.3249279518734997e7 -2.468765875246306e7 0.0
0.0 0.0 0.0

4.758410716174253e6 1.917819203751857e7 0.0
1.917819203751857e7 9.476879152366126e6 0.0
0.0 0.0 0.0

9.091064991711916e6 1.7661106874507185e7 0.0
1.7661106874507185e7 5.362174630547177e6 0.0
0.0 0.0 0.0

-2.286671337344934e7 3.5511223758679144e7 0.0
3.5511223758679144e7 5.84889651413904e6 0.0
0.0 0.0 0.0

-316588.2988824253 1.6218092360280031e7 0.0
1.6218092360280031e7 7.397963002556021e6 0.0
0.0 0.0 0.0

-7.457945569227213e6 7.077260671516255e6 0.0
7.077260671516255e6 7.551740824373787e6 0.0
0.0 0.0 0.0

-1.3047199847712878e7 9.491348461872296e6 0.0
9.491348461872296e6 2.014082471208009e7 0.0
0.0 0.0 0.0

-2.224948242876117e6 2.3043746913273986e7 0.0
2.3043746913273986e7 -686553.0449958069 0.0
0.0 0.0 0.0

2.0191726444905484e6 1.8100080083611023e7 0.0
1.8100080083611023e7 1.288220623092111e7 0.0
0.0 0.0 0.0

-9.520704001942102e6 2.922918768048574e6 0.0
2.922918768048574e6 4.800358023137637e7 0.0
0.0 0.0 0.0

-1.8014731027403325e6 1.6757291956434045e7 0.0
1.6757291956434045e7 1.1427541399081584e7 0.0
0.0 0.0 0.0

-6.637682486445396e6 1.521403433266483e7 0.0
1.521403433266483e7 -2.5376693175118767e7 0.0
0.0 0.0 0.0

1.1568621040997072e6 1.8661461438665617e7 0.0
1.8661461438665617e7 1.1932211043377964e7 0.0
0.0 0.0 0.0

-7.720094142200587e6 1.6498663941698033e7 0.0
1.6498663941698033e7 1.9262880856841803e7 0.0
0.0 0.0 0.0

-289833.8908247384 1.3847947960116312e7 0.0
1.3847947960116312e7 -9.892373704316437e6 0.0
0.0 0.0 0.0

481385.9161353409 1.6547182861050855e7 0.0
1.6547182861050855e7 5.7221582591817334e7 0.0
0.0 0.0 0.0

3.09506488006582e6 2.0828952120368235e7 0.0
2.0828952120368235e7 -5.065555266112588e6 0.0
0.0 0.0 0.0

232532.7926748246 1.5174583684637591e7 0.0
1.5174583684637591e7 -1.4622948653740963e7 0.0
0.0 0.0 0.0

-226533.80779087264 1.1480213484506926e7 0.0
1.1480213484506926e7 -5.317100570203178e6 0.0
0.0 0.0 0.0

4.7033876462576445e6 3.540121019740096e6 0.0
3.540121019740096e6 -3.0098002577666424e7 0.0
0.0 0.0 0.0

-123875.57851317378 2.8639908850578703e7 0.0
2.8639908850578703e7 204176.79578463556 0.0
0.0 0.0 0.0

-1.2888164156434126e7 1.0415211633700412e7 0.0
1.0415211633700412e7 2.063508722577781e7 0.0
0.0 0.0 0.0

1.162270171984063e6 1.5796631897615042e7 0.0
1.5796631897615042e7 1.2192304619130619e7 0.0
0.0 0.0 0.0

-7.88247700420358e6 2.1574403188307557e7 0.0
2.1574403188307557e7 5.554005189575645e6 0.0
0.0 0.0 0.0

-3.6070777595174834e6 1.8014618105938986e7 0.0
1.8014618105938986e7 1.446371947583724e6 0.0
0.0 0.0 0.0

-1.1629482053011071e7 1.3701602495630754e7 0.0
1.3701602495630754e7 1.7981757739459835e7 0.0
0.0 0.0 0.0

2.498930948501775e6 9.629996297083609e6 0.0
9.629996297083609e6 -1.735398657928285e7 0.0
0.0 0.0 0.0

-1.1321735384245949e7 3.1308995976441465e7 0.0
3.1308995976441465e7 6.293450483348031e6 0.0
0.0 0.0 0.0

1.551015585534877e7 1.1063015801760266e7 0.0
1.1063015801760266e7 57927.67801520415 0.0
0.0 0.0 0.0

-9.30179209399771e6 -2.1337913860455537e6 0.0
-2.1337913860455537e6 1.2672603414467406e7 0.0
0.0 0.0 0.0

-5.652550070982086e6 2.4450835859496046e7 0.0
2.4450835859496046e7 5.337049893239342e6 0.0
0.0 0.0 0.0

-2.2504122935086966e7 1.747157157863492e7 0.0
1.747157157863492e7 8.330299499404659e6 0.0
0.0 0.0 0.0

-2.2173155443588775e6 1.8053967498721275e7 0.0
1.8053967498721275e7 -7.458179541994777e6 0.0
0.0 0.0 0.0

-3.920669979288846e7 2.640592196399611e7 0.0
2.640592196399611e7 3.1242305329126026e6 0.0
0.0 0.0 0.0

-2.18504698601941e6 1.8231823782689404e7 0.0
1.8231823782689404e7 -4.329093316972327e6 0.0
0.0 0.0 0.0

-6.755114465975615e6 1.5760018949663898e7 0.0
1.5760018949663898e7 1.3773560870056668e7 0.0
0.0 0.0 0.0

-1.1819238666833954e7 1.0037828138180627e7 0.0
1.0037828138180627e7 1.864684194942393e7 0.0
0.0 0.0 0.0

-8.376870159578392e6 1.3724153511890646e7 0.0
1.3724153511890646e7 1.2034220086703036e7 0.0
0.0 0.0 0.0

-4.926693064179547e6 1.9916571787123155e7 0.0
1.9916571787123155e7 9.619351922986185e6 0.0
0.0 0.0 0.0

-1.0144693008865975e7 -805410.0607760231 0.0
-805410.0607760231 3.323071531633748e7 0.0
0.0 0.0 0.0

-261447.70862410968 1.4226526051241074e7 0.0
1.4226526051241074e7 -1.1549776914875007e6 0.0
0.0 0.0 0.0

1.8125936177512594e6 1.0665857559722165e7 0.0
1.0665857559722165e7 -1.1161383446003955e7 0.0
0.0 0.0 0.0

1.046789823451139e6 1.396465206113491e7 0.0
1.396465206113491e7 -1.5060050301034871e7 0.0
0.0 0.0 0.0

-8.306908492262048e6 -5.722721282168813e6 0.0
-5.722721282168813e6 2.1020962394860186e7 0.0
0.0 0.0 0.0

-913763.2125145453 1.458426129359201e7 0.0
1.458426129359201e7 227689.464577352 0.0
0.0 0.0 0.0

-6.918020053505649e6 2.1798325961957034e7 0.0
2.1798325961957034e7 6.353612283589968e6 0.0
0.0 0.0 0.0

-615117.0913680075 1.7301281170730945e7 0.0
1.7301281170730945e7 1.757873399814341e7 0.0
0.0 0.0 0.0

-275864.6400007084 1.6473964807422344e7 0.0
1.6473964807422344e7 -1.0611099647658374e7 0.0
0.0 0.0 0.0

-91346.11338077404 1.5928789946441581e7 0.0
1.5928789946441581e7 2.928597784260738e6 0.0
0.0 0.0 0.0

-864910.1663444429 2.688814534122932e7 0.0
2.688814534122932e7 -1.1498424791482592e6 0.0
0.0 0.0 0.0

227182.82471129438 1.706250389812159e7 0.0
1.706250389812159e7 -9.17996833149232e6 0.0
0.0 0.0 0.0

6.540369834767421e7 2.4495771431833122e7 0.0
2.4495771431833122e7 1.4154168889079504e6 0.0
0.0 0.0 0.0

2.2003560877692383e6 1.6647813247217607e7 0.0
1.6647813247217607e7 -3.903706715090395e6 0.0
0.0 0.0 0.0

-800997.7194073051 1.5011861692675108e7 0.0
1.5011861692675108e7 -1.6873564189248923e7 0.0
0.0 0.0 0.0

178834.87845935905 1.852684493229595e7 0.0
1.852684493229595e7 -7.729705651442826e6 0.0
0.0 0.0 0.0

-2.0501191100004192e7 2.357295534575938e7 0.0
2.357295534575938e7 2.3065743125056773e6 0.0
0.0 0.0 0.0

-5.409577549338179e6 2.1078546449554104e7 0.0
2.1078546449554104e7 7.388890524947161e6 0.0
0.0 0.0 0.0

9.650365533247791e6 1.7405619649446156e7 0.0
1.7405619649446156e7 1.1471937790416637e6 0.0
0.0 0.0 0.0

-819652.2254683748 1.3017878472575866e7 0.0
1.3017878472575866e7 -2.924509272394676e7 0.0
0.0 0.0 0.0

2.432837974374645e6 1.6328013868309828e7 0.0
1.6328013868309828e7 2.0829181576156557e7 0.0
0.0 0.0 0.0

4.57421817866008e6 5.365972827626779e6 0.0
5.365972827626779e6 -1.9553242388840847e7 0.0
0.0 0.0 0.0

342748.71526936674 1.9156821843407936e7 0.0
1.9156821843407936e7 -7.248284183625273e6 0.0
0.0 0.0 0.0

3.8930117709464896e6 4.531712764995989e6 0.0
4.531712764995989e6 -3.515379994098227e7 0.0
0.0 0.0 0.0

-636186.9906971853 1.8752032696781732e7 0.0
1.8752032696781732e7 -8.074487228216097e6 0.0
0.0 0.0 0.0

2.174438824998197e6 2.1759817077139854e7 0.0
2.1759817077139854e7 -4.869452770555171e6 0.0
0.0 0.0 0.0

-3.2667915663580135e6 1.7813416254923496e7 0.0
1.7813416254923496e7 1.0130369569176754e6 0.0
0.0 0.0 0.0

-1.0732876412391413e7 2.622739122799694e7 0.0
2.622739122799694e7 5.848935845970454e6 0.0
0.0 0.0 0.0

-8.024978517362153e6 1.652535332472792e7 0.0
1.652535332472792e7 1.9259160619181797e7 0.0
0.0 0.0 0.0

-127729.00242996542 1.5309058329648012e7 0.0
1.5309058329648012e7 7.077541183839541e6 0.0
0.0 0.0 0.0

-3.107024775688633e7 2.774778426805752e7 0.0
2.774778426805752e7 8.88066089523687e6 0.0
0.0 0.0 0.0

8.52933514582278e6 1.7983106440295506e7 0.0
1.7983106440295506e7 7.025195838465577e6 0.0
0.0 0.0 0.0

-5.54976993779791e6 1.0071959565564811e7 0.0
1.0071959565564811e7 4.464258083871108e6 0.0
0.0 0.0 0.0

-4.963105161167154e6 2.3953484178163875e7 0.0
2.3953484178163875e7 4.974977869278664e6 0.0
0.0 0.0 0.0

-2.599662793331142e6 1.8641638644781284e7 0.0
1.8641638644781284e7 -5.638694840611431e6 0.0
0.0 0.0 0.0

1.188341415981243e6 1.2704295957485681e7 0.0
1.2704295957485681e7 -1.1314541866865367e7 0.0
0.0 0.0 0.0

4.972904691765383e6 2.6052168384128856e6 0.0
2.6052168384128856e6 -2.566364467467173e7 0.0
0.0 0.0 0.0

-741463.330096436 1.4089523813842926e7 0.0
1.4089523813842926e7 -7.857659205946767e6 0.0
0.0 0.0 0.0

3.288152447452293e7 5.795704407170893e6 0.0
5.795704407170893e6 -2.522218273630133e6 0.0
0.0 0.0 0.0

-7.821563109690678e6 1.6367439855813935e7 0.0
1.6367439855813935e7 1.999977898858751e7 0.0
0.0 0.0 0.0

-6.39824386265284e6 2.3649032918345183e7 0.0
2.3649032918345183e7 5.965869545493043e6 0.0
0.0 0.0 0.0

-9.461742091058632e6 -4.566814671967091e6 0.0
-4.566814671967091e6 2.989474369999633e7 0.0
0.0 0.0 0.0

-3.0274540174566098e6 2.677132864251006e7 0.0
2.677132864251006e7 1.560740628834527e6 0.0
0.0 0.0 0.0

-1.6159771948526282e7 2.131914325949402e7 0.0
2.131914325949402e7 3.9424664501698753e6 0.0
0.0 0.0 0.0

102120.90650842432 1.5578266991773974e7 0.0
1.5578266991773974e7 -1.3761215540027905e7 0.0
0.0 0.0 0.0

2.067674139793295e6 1.6729717449108051e7 0.0
1.6729717449108051e7 1.4623046715624936e7 0.0
0.0 0.0 0.0

-494478.2684554851 1.5647843181297736e7 0.0
1.5647843181297736e7 3.4026968297973243e6 0.0
0.0 0.0 0.0

-4.305705731314607e6 1.880889114501165e7 0.0
1.880889114501165e7 7.146833540357919e6 0.0
0.0 0.0 0.0

770732.8840876878 1.2206569503861852e7 0.0
1.2206569503861852e7 -1.2003150693895305e7 0.0
0.0 0.0 0.0

3.165085341582549e6 9.245347299888106e6 0.0
9.245347299888106e6 -1.6708975175623734e7 0.0
0.0 0.0 0.0

-193722.82422823086 8.338119380610727e6 0.0
8.338119380610727e6 -5.705922030586177e6 0.0
0.0 0.0 0.0

-4.649199722756343e6 2.3529752861648254e7 0.0
2.3529752861648254e7 4.821697823468972e6 0.0
0.0 0.0 0.0

-871869.2394492798 1.4968009296851035e7 0.0
1.4968009296851035e7 -8.652583103139512e6 0.0
0.0 0.0 0.0

1.2782426173916867e7 1.0984672982025808e7 0.0
1.0984672982025808e7 -175862.70047721732 0.0
0.0 0.0 0.0

4.957261509076711e6 2.657269393956054e6 0.0
2.657269393956054e6 -2.5879320326179914e7 0.0
0.0 0.0 0.0

670276.3269106224 1.630836912300313e7 0.0
1.630836912300313e7 1.53089387343734e7 0.0
0.0 0.0 0.0

531535.6143971244 8.193069842604878e6 0.0
8.193069842604878e6 -7.221663217313621e6 0.0
0.0 0.0 0.0

-361130.3893109337 2.2799602525556587e7 0.0
2.2799602525556587e7 -2.716331595962376e6 0.0
0.0 0.0 0.0

-763276.3459251341 1.6583700595470728e7 0.0
1.6583700595470728e7 7.978121965917546e6 0.0
0.0 0.0 0.0

-1.1707371483148273e7 5.337015817381616e6 0.0
5.337015817381616e6 2.9615294524759524e7 0.0
0.0 0.0 0.0

-4.487296565630094e6 1.8940453698586586e6 0.0
1.8940453698586586e6 6.483236558169924e6 0.0
0.0 0.0 0.0

2.283962731012103e6 2.1768598595562674e7 0.0
2.1768598595562674e7 -4.900518385011582e6 0.0
0.0 0.0 0.0

-4.217581335250865e7 1.2178812638440622e7 0.0
1.2178812638440622e7 9.547543070487637e6 0.0
0.0 0.0 0.0

447477.268179792 1.448258724579415e7 0.0
1.448258724579415e7 -1.657628636909913e7 0.0
0.0 0.0 0.0

371879.55283442314 1.1758234048395349e7 0.0
1.1758234048395349e7 3.659211194644813e6 0.0
0.0 0.0 0.0

-6.619870253436893e6 1.5482720308563486e7 0.0
1.5482720308563486e7 1.316399548918024e7 0.0
0.0 0.0 0.0

-4.4625563314500414e7 1.1671127971775027e7 0.0
1.1671127971775027e7 8.645548119889215e6 0.0
0.0 0.0 0.0

-799223.733922244 1.4519755928956445e7 0.0
1.4519755928956445e7 -1.742483822588649e7 0.0
0.0 0.0 0.0

-233966.3990163263 1.8185076346597567e7 0.0
1.8185076346597567e7 -8.890620408569101e6 0.0
0.0 0.0 0.0

1.6240725521210167e6 5.2782403622627985e6 0.0
5.2782403622627985e6 -4.833915210057302e6 0.0
0.0 0.0 0.0

-6.167371496178135e6 2.0022126824526988e7 0.0
2.0022126824526988e7 -5.089178256139605e6 0.0
0.0 0.0 0.0

2.142844390645054e6 2.4664358427998446e7 0.0
2.4664358427998446e7 -3.7432826026500016e6 0.0
0.0 0.0 0.0

-2.7652375578806326e6 2.481266699015914e7 0.0
2.481266699015914e7 1.2212982107183018e6 0.0
0.0 0.0 0.0

-4.4988835200037975e6 1.8451512215463143e7 0.0
1.8451512215463143e7 3.978164406191391e6 0.0
0.0 0.0 0.0

-1.1684590627445688e7 1.3238035354194684e7 0.0
1.3238035354194684e7 2.211432484569291e7 0.0
0.0 0.0 0.0

-4.671533826891527e6 1.8522462111928966e7 0.0
1.8522462111928966e7 1.1938939705521379e7 0.0
0.0 0.0 0.0

-2.8906319709984595e6 2.6196922209543604e7 0.0
2.6196922209543604e7 1.4954030294559603e6 0.0
0.0 0.0 0.0

1.4097294939249894e6 1.0539930307849167e7 0.0
1.0539930307849167e7 -1.2534695847468436e7 0.0
0.0 0.0 0.0

-2.964893211933697e6 2.5748590840492833e7 0.0
2.5748590840492833e7 1.361397697896025e6 0.0
0.0 0.0 0.0

1.6988332601219653e6 1.840005498370274e7 0.0
1.840005498370274e7 1.2341253509346884e7 0.0
0.0 0.0 0.0

-1.2444288264726814e7 1.0507351938784616e7 0.0
1.0507351938784616e7 2.1550780262422293e7 0.0
0.0 0.0 0.0

4.467375561258558e6 3.6858921975885783e6 0.0
3.6858921975885783e6 -2.6894881911492825e7 0.0
0.0 0.0 0.0

-8.094208458553169e6 2.146627981369028e7 0.0
2.146627981369028e7 5.817404678007734e6 0.0
0.0 0.0 0.0

-2.32370040737889e6 2.0831559653462663e7 0.0
2.0831559653462663e7 -3.037788438929639e6 0.0
0.0 0.0 0.0

-1.39422867068591e6 2.071547888463975e7 0.0
2.071547888463975e7 -3.773258241499692e6 0.0
0.0 0.0 0.0

-5.617280660683879e7 3.576877849626637e7 0.0
3.576877849626637e7 -1.717460442000077e7 0.0
0.0 0.0 0.0

363502.50700991414 1.6074893768158527e7 0.0
1.6074893768158527e7 -1.2951981040562984e7 0.0
0.0 0.0 0.0

-2.0456711689963704e6 2.2747306185517088e7 0.0
2.2747306185517088e7 -153368.21715320513 0.0
0.0 0.0 0.0

-7.202510290767518e6 1.6325737378892448e7 0.0
1.6325737378892448e7 1.279630761703713e7 0.0
0.0 0.0 0.0

-2.432095726263593e7 1.8605002952778175e7 0.0
1.8605002952778175e7 8.82183773016378e6 0.0
0.0 0.0 0.0

532563.6617408949 1.5812639845348109e7 0.0
1.5812639845348109e7 -37888.64325394653 0.0
0.0 0.0 0.0

-710156.1480024457 1.757969867521785e7 0.0
1.757969867521785e7 1.3465706650556967e7 0.0
0.0 0.0 0.0

4.745148301293489e6 2.2723882013601246e6 0.0
2.2723882013601246e6 -3.214658236176465e7 0.0
0.0 0.0 0.0

-1.6370338621077273e7 2.9812014416288994e7 0.0
2.9812014416288994e7 8.610692143057365e6 0.0
0.0 0.0 0.0

-9.625836216559652e6 -2.992228344722943e6 0.0
-2.992228344722943e6 3.071236252640508e7 0.0
0.0 0.0 0.0

-9.94959235122902e6 -1.1860831514971482e6 0.0
-1.1860831514971482e6 3.6126012449543074e7 0.0
0.0 0.0 0.0

-3.6584954084598483e6 1.3449875025442909e6 0.0
1.3449875025442909e6 5.7783910664712265e6 0.0
0.0 0.0 0.0

-1.180041753022013e7 1.1434455597448459e7 0.0
1.1434455597448459e7 2.42510689342232e7 0.0
0.0 0.0 0.0

-1.409512911849223e6 1.5391341787781077e7 0.0
1.5391341787781077e7 9.937511114218932e6 0.0
0.0 0.0 0.0

610662.6158452332 1.387654376406116e7 0.0
1.387654376406116e7 -1.876585451780234e7 0.0
0.0 0.0 0.0

-3.315649289019126e7 3.5775395327095754e7 0.0
3.5775395327095754e7 8.216969445024017e6 0.0
0.0 0.0 0.0

-1.2210021885916734e7 1.130849473430114e7 0.0
1.130849473430114e7 2.1943715142959703e7 0.0
0.0 0.0 0.0

-888026.5899274927 1.2751613013206484e7 0.0
1.2751613013206484e7 -3.044522257960841e7 0.0
0.0 0.0 0.0

-1.5914727235689152e7 2.0865038712273967e7 0.0
2.0865038712273967e7 4.0781691897174465e6 0.0
0.0 0.0 0.0

-9.406533748099191e6 -1.5505515469798981e6 0.0
-1.5505515469798981e6 3.715589190917088e7 0.0
0.0 0.0 0.0

22258.774723815266 1.5318031416179629e7 0.0
1.5318031416179629e7 -1.2384831245959237e7 0.0
0.0 0.0 0.0

-4.542278554953451e6 1.5104980732289383e7 0.0
1.5104980732289383e7 -3.338538291499051e7 0.0
0.0 0.0 0.0

-1.4472313010600829e6 1.7608840049859956e7 0.0
1.7608840049859956e7 -5.222660172094159e6 0.0
0.0 0.0 0.0

-1.4929260905903688e7 1.9332098340492133e7 0.0
1.9332098340492133e7 4.683774895064153e6 0.0
0.0 0.0 0.0

3.160964872632347e7 2.064937330596492e7 0.0
2.064937330596492e7 5.833962222987737e6 0.0
0.0 0.0 0.0

-955990.5286202651 1.2243984606895544e7 0.0
1.2243984606895544e7 -2.719462973544711e6 0.0
0.0 0.0 0.0

1.103229667158831e6 1.4310282118729169e7 0.0
1.4310282118729169e7 -1.3928313947086154e7 0.0
0.0 0.0 0.0

-1.3109298741241898e6 1.394271879704293e7 0.0
1.394271879704293e7 -1.0946847317654604e7 0.0
0.0 0.0 0.0

4.832800861142229e6 2.3437893100938504e6 0.0
2.3437893100938504e6 -3.2374238527098008e7 0.0
0.0 0.0 0.0

-1.1554246872541623e6 2.2107314410027836e7 0.0
2.2107314410027836e7 -2.456197694177693e6 0.0
0.0 0.0 0.0

-1.4583783397313943e6 1.4215146684613472e7 0.0
1.4215146684613472e7 -1.871239595388111e7 0.0
0.0 0.0 0.0

278141.41603457555 1.729561379748485e7 0.0
1.729561379748485e7 -9.54820141304043e6 0.0
0.0 0.0 0.0

-500899.5357539195 1.5431482621236097e7 0.0
1.5431482621236097e7 1.1462340511891244e6 0.0
0.0 0.0 0.0

-4.931164866669729e6 1.0035158839179307e7 0.0
1.0035158839179307e7 6.634013548094844e6 0.0
0.0 0.0 0.0

-4.708087671875758e6 1.854826341993948e7 0.0
1.854826341993948e7 6.743621429742342e6 0.0
0.0 0.0 0.0

-3.2211845538759045e6 1.7042472267862067e7 0.0
1.7042472267862067e7 1.8738166846097782e7 0.0
0.0 0.0 0.0

4.9774638580137445e6 2.9874838267475977e6 0.0
2.9874838267475977e6 -2.1728865540341143e7 0.0
0.0 0.0 0.0

-1.526982828981384e7 1.019018361887918e7 0.0
1.019018361887918e7 5.587631760854262e6 0.0
0.0 0.0 0.0

1.9546223374800836e6 1.907284718405907e7 0.0
1.907284718405907e7 1.1310558710223448e7 0.0
0.0 0.0 0.0

-603428.2246284559 1.5060433975604232e7 0.0
1.5060433975604232e7 -1.3511348526547741e7 0.0
0.0 0.0 0.0

5.0807544083614625e7 8.388581473397742e6 0.0
8.388581473397742e6 -1.1703211843618676e6 0.0
0.0 0.0 0.0

770411.3564104801 1.453922638428194e7 0.0
1.453922638428194e7 -1.6618739798847334e7 0.0
0.0 0.0 0.0

-1.734748319551149e6 2.130547015916498e7 0.0
2.130547015916498e7 -3.686642482224276e6 0.0
0.0 0.0 0.0

-3.6447558812972493e6 1.9133754951405246e7 0.0
1.9133754951405246e7 -15143.082519062795 0.0
0.0 0.0 0.0

2.437118490243405e6 1.6589474581112402e7 0.0
1.6589474581112402e7 4.362791067564982e7 0.0
0.0 0.0 0.0

-1.1820331325823288e7 1.030020722516686e7 0.0
1.030020722516686e7 2.54453197005022e7 0.0
0.0 0.0 0.0

-9.29722717991384e6 -5.045031835872609e6 0.0
-5.045031835872609e6 2.953746513111399e7 0.0
0.0 0.0 0.0

-1.1738426765895644e7 3.876704232168987e6 0.0
3.876704232168987e6 3.0488212341606658e7 0.0
0.0 0.0 0.0

-3.1052080150310136e6 2.4200629239538275e7 0.0
2.4200629239538275e7 1.6386637003880476e6 0.0
0.0 0.0 0.0

2.488006037632157e6 1.0336336777205762e7 0.0
1.0336336777205762e7 -1.812235989240705e7 0.0
0.0 0.0 0.0

-4.366498713984812e6 1.956313065423418e7 0.0
1.956313065423418e7 9.14135031482753e6 0.0
0.0 0.0 0.0

197107.6576599353 1.6464840581741754e7 0.0
1.6464840581741754e7 -1.2121850904357096e7 0.0
0.0 0.0 0.0

-7.699075627925878e6 1.47681946324678e7 0.0
1.47681946324678e7 1.1679779928778913e7 0.0
0.0 0.0 0.0

-5.032771595320307e6 2.1383092640746586e7 0.0
2.1383092640746586e7 7.563798867883405e6 0.0
0.0 0.0 0.0

4.279518984711388e6 2.044355489497952e7 0.0
2.044355489497952e7 -4.928932347596493e6 0.0
0.0 0.0 0.0

-5.545713918367296e6 1.806889302931458e7 0.0
1.806889302931458e7 1.317533071496086e7 0.0
0.0 0.0 0.0

-4.592192374168359e6 1.8936987771967966e7 0.0
1.8936987771967966e7 1.0146559630722102e7 0.0
0.0 0.0 0.0

-2.156980007600031e6 1.4633675996877428e7 0.0
1.4633675996877428e7 -1.1960000147567935e7 0.0
0.0 0.0 0.0

-1.2807975851867184e7 1.1193760128298866e7 0.0
1.1193760128298866e7 1.9969793715880312e7 0.0
0.0 0.0 0.0

-2.8454035290706763e6 2.4247742874883346e7 0.0
2.4247742874883346e7 2.5293548650464583e6 0.0
0.0 0.0 0.0

4.223712532572922e6 4.949475178193754e6 0.0
4.949475178193754e6 -2.075443788316139e7 0.0
0.0 0.0 0.0

-9.124842820615504e6 1.4592256787434502e6 0.0
1.4592256787434502e6 4.714699878476747e7 0.0
0.0 0.0 0.0

-724955.5998912775 1.7009882220155757e7 0.0
1.7009882220155757e7 -6.305775070946544e6 0.0
0.0 0.0 0.0

-3.105460526094574e6 2.464824184140892e7 0.0
2.464824184140892e7 1.7616016775066496e6 0.0
0.0 0.0 0.0

2.087177846877221e6 1.185733522827486e7 0.0
1.185733522827486e7 -2.0360600116791088e7 0.0
0.0 0.0 0.0

-1.7334109061926655e6 2.2256004181863334e7 0.0
2.2256004181863334e7 -2.702675814738823e6 0.0
0.0 0.0 0.0

2.7593009420656003e6 9.087067180981634e6 0.0
9.087067180981634e6 -1.8137790968230505e7 0.0
0.0 0.0 0.0

-1.2351457869003152e7 9.5495947521126e6 0.0
9.5495947521126e6 2.2493538829301387e7 0.0
0.0 0.0 0.0

-4.796523875392445e7 3.311686456793324e7 0.0
3.311686456793324e7 1.0333439373070356e7 0.0
0.0 0.0 0.0

-1.0123536370664468e7 2.0612666481207743e7 0.0
2.0612666481207743e7 367888.78353800206 0.0
0.0 0.0 0.0

-4.411337707783959e6 1.9525117035745215e7 0.0
1.9525117035745215e7 1.0047376859090526e7 0.0
0.0 0.0 0.0

-4.846277234761637e6 -6.320954513143568e6 0.0
-6.320954513143568e6 1.0889490753168184e7 0.0
0.0 0.0 0.0

-1.2242606587283028e7 1.9599295715451676e7 0.0
1.9599295715451676e7 -1.202071038456412e6 0.0
0.0 0.0 0.0

-6.168515576274566e6 2.180836903056682e7 0.0
2.180836903056682e7 6.850296758386625e6 0.0
0.0 0.0 0.0

4.713511578244993e6 3.498790139264663e6 0.0
3.498790139264663e6 -2.7458787831346594e7 0.0
0.0 0.0 0.0

-7.826325789688447e6 1.3403594225745304e7 0.0
1.3403594225745304e7 1.415949117548259e7 0.0
0.0 0.0 0.0

-1.1331398542057466e7 1.1581518129291099e7 0.0
1.1581518129291099e7 1.835066439214368e7 0.0
0.0 0.0 0.0

770631.3048652703 2.715427267330086e7 0.0
2.715427267330086e7 -835062.9184747695 0.0
0.0 0.0 0.0

-1.0840776266558044e7 -468807.18873945624 0.0
-468807.18873945624 1.479294101279072e7 0.0
0.0 0.0 0.0

-1.2548063336412959e7 1.2245455310077239e7 0.0
1.2245455310077239e7 2.0599384367308024e7 0.0
0.0 0.0 0.0

-2.080393469467993e6 2.506293250040419e7 0.0
2.506293250040419e7 1.6090770686083043e6 0.0
0.0 0.0 0.0

-9.665320869800644e6 -1.056252030695539e6 0.0
-1.056252030695539e6 3.869770461105508e7 0.0
0.0 0.0 0.0

-6.553349949633349e6 -3.8404461518917526e6 0.0
-3.8404461518917526e6 1.366337669882639e7 0.0
0.0 0.0 0.0

3.7393119847787367e6 6.984413565909026e6 0.0
6.984413565909026e6 -1.9822212883362003e7 0.0
0.0 0.0 0.0

-4.442574775383759e6 1.8835586370058443e7 0.0
1.8835586370058443e7 7.626326137856847e6 0.0
0.0 0.0 0.0

-1.1957931084191829e7 1.2147121548577772e7 0.0
1.2147121548577772e7 2.2274742247304995e7 0.0
0.0 0.0 0.0

-212354.75561278453 1.6069912798704743e7 0.0
1.6069912798704743e7 -1.177301809750205e7 0.0
0.0 0.0 0.0

625324.2344173659 1.5403629672660738e7 0.0
1.5403629672660738e7 -1.2396141149738206e7 0.0
0.0 0.0 0.0

2.594557030934345e6 1.0109875390431516e7 0.0
1.0109875390431516e7 -1.9281888026134446e7 0.0
0.0 0.0 0.0

572075.6622415902 1.4180780452468432e7 0.0
1.4180780452468432e7 -1.770480827935254e7 0.0
0.0 0.0 0.0

29664.15246067848 1.560477650424163e7 0.0
1.560477650424163e7 6.10484656383204e6 0.0
0.0 0.0 0.0

-1.1949801827824065e7 1.326385362601216e7 0.0
1.326385362601216e7 2.1224466095665284e7 0.0
0.0 0.0 0.0

-1.627840942525261e6 2.1696098444212183e7 0.0
2.1696098444212183e7 -3.5154634870824274e6 0.0
0.0 0.0 0.0

-4.921738250727819e6 2.3443057764662705e7 0.0
2.3443057764662705e7 5.430003097620708e6 0.0
0.0 0.0 0.0

-2.495291577326038e6 2.446028328132353e7 0.0
2.446028328132353e7 2.0517247373821724e6 0.0
0.0 0.0 0.0

9.858078453264294e6 2.115570873984112e7 0.0
2.115570873984112e7 5.391409946958808e7 0.0
0.0 0.0 0.0

-3.9838042142570117e6 1.9133804421187885e7 0.0
1.9133804421187885e7 6.485948276822482e6 0.0
0.0 0.0 0.0

888407.0857209107 1.4740989852760687e7 0.0
1.4740989852760687e7 -1.3043687836941723e7 0.0
0.0 0.0 0.0

-59382.264803514816 1.4709350019403387e7 0.0
1.4709350019403387e7 -1.6584769259254228e7 0.0
0.0 0.0 0.0

1.0445194293756532e6 1.4532977236616675e7 0.0
1.4532977236616675e7 -1.4198611010842424e7 0.0
0.0 0.0 0.0

-1.079598300328087e6 2.3914927084882032e7 0.0
2.3914927084882032e7 -880444.9609909267 0.0
0.0 0.0 0.0

-4.662664357814775e6 1.8274488123210803e7 0.0
1.8274488123210803e7 5.915073077378127e6 0.0
0.0 0.0 0.0

-279404.80814415915 1.4784298175032256e7 0.0
1.4784298175032256e7 2.03801453228658e6 0.0
0.0 0.0 0.0

-292671.1008656239 1.533175649433336e7 0.0
1.533175649433336e7 -1.3083139793192085e7 0.0
0.0 0.0 0.0

-6.009736244822383e6 1.0510433440209638e7 0.0
1.0510433440209638e7 5.862455649614902e6 0.0
0.0 0.0 0.0

446097.5784859434 3.0991824926604565e7 0.0
3.0991824926604565e7 -4.336232823460969e6 0.0
0.0 0.0 0.0

4.005481993961666e6 4.061574091472693e6 0.0
4.061574091472693e6 -3.827426298086378e7 0.0
0.0 0.0 0.0

6.751231727491406e7 2.6638938523451697e7 0.0
2.6638938523451697e7 1.3215129873777825e7 0.0
0.0 0.0 0.0

2.7459250336274646e7 2.9553260741693396e7 0.0
2.9553260741693396e7 -1.951771651662329e7 0.0
0.0 0.0 0.0

-2.798050596219442e6 1.7086088691174354e7 0.0
1.7086088691174354e7 1.3128810023470145e7 0.0
0.0 0.0 0.0

420921.3584588105 1.6111519702952031e7 0.0
1.6111519702952031e7 7.8805574823900135e6 0.0
0.0 0.0 0.0

-1.9493409402347244e7 2.1100197689481627e7 0.0
2.1100197689481627e7 1.8137866835237201e6 0.0
0.0 0.0 0.0

-4.7755502332654655e7 2.3285331023900423e7 0.0
2.3285331023900423e7 4.585712329815758e6 0.0
0.0 0.0 0.0

-6.94687517796822e6 1.060235649558577e7 0.0
1.060235649558577e7 1.0530623493490325e7 0.0
0.0 0.0 0.0

-2.0900992997314294e6 2.1420950654031683e7 0.0
2.1420950654031683e7 -1.240381358228792e6 0.0
0.0 0.0 0.0

1.240931452613051e6 1.384970190226308e7 0.0
1.384970190226308e7 -1.478507643313104e7 0.0
0.0 0.0 0.0

3.4198371568752136e6 7.056444604327122e6 0.0
7.056444604327122e6 -3.507739045155164e7 0.0
0.0 0.0 0.0

753931.9520074241 1.4026418858495146e7 0.0
1.4026418858495146e7 -1.5061585838837601e7 0.0
0.0 0.0 0.0

-475662.449673038 1.2706998697670083e7 0.0
1.2706998697670083e7 -2.7379697426787216e7 0.0
0.0 0.0 0.0

-1.1803181754332881e7 1.1764002207631625e7 0.0
1.1764002207631625e7 1.6399590572794791e7 0.0
0.0 0.0 0.0

-1.5954606000925768e6 1.6809673975277938e7 0.0
1.6809673975277938e7 1.6816242377295613e7 0.0
0.0 0.0 0.0

-392357.44656492025 1.4622725269550452e7 0.0
1.4622725269550452e7 5.29435920828158e6 0.0
0.0 0.0 0.0

-9.143253991301049e6 4.602351516575314e6 0.0
4.602351516575314e6 5.514108841779311e6 0.0
0.0 0.0 0.0

-1.1572522939107817e7 2.450653585280443e6 0.0
2.450653585280443e6 2.9985421073001914e7 0.0
0.0 0.0 0.0

-3.7508461034735707e6 2.161071266393711e7 0.0
2.161071266393711e7 5.345537784661256e6 0.0
0.0 0.0 0.0

-2.8449500599643122e6 1.7229947822781414e7 0.0
1.7229947822781414e7 1.901469378019946e7 0.0
0.0 0.0 0.0

-6.356239631885317e6 1.5194154700208196e7 0.0
1.5194154700208196e7 1.2340751613592148e7 0.0
0.0 0.0 0.0

-2.991529425532697e6 3.228239175567324e6 0.0
3.228239175567324e6 1.2336657614630717e6 0.0
0.0 0.0 0.0

-7.446331114974417e6 1.0640479523658156e7 0.0
1.0640479523658156e7 4.875219143403823e7 0.0
0.0 0.0 0.0

-3.4667326692422964e6 1.7521701873753205e7 0.0
1.7521701873753205e7 1.7015887536597934e6 0.0
0.0 0.0 0.0

-1.5036257596143428e6 2.1142264143974625e7 0.0
2.1142264143974625e7 -4.345598880573478e6 0.0
0.0 0.0 0.0

-2.8782687549137333e6 1.6851652478788964e7 0.0
1.6851652478788964e7 1.9352715202502754e7 0.0
0.0 0.0 0.0

-5.514841900613947e6 1.0488002145982046e7 0.0
1.0488002145982046e7 7.920121518817629e6 0.0
0.0 0.0 0.0

2.748138431435451e6 2.0927286328524604e7 0.0
2.0927286328524604e7 -5.204452570700619e6 0.0
0.0 0.0 0.0

-7.603045907520711e6 3.3710554009334496e6 0.0
3.3710554009334496e6 5.421834608912404e7 0.0
0.0 0.0 0.0

3.295570326082049e6 1.9321037808829844e7 0.0
1.9321037808829844e7 -5.249289483796322e6 0.0
0.0 0.0 0.0

-2.828694870681921e6 2.4662046862052247e7 0.0
2.4662046862052247e7 2.684885362238681e6 0.0
0.0 0.0 0.0

-3.0640811331912605e6 1.381478024244694e7 0.0
1.381478024244694e7 -1.6670982916291311e7 0.0
0.0 0.0 0.0

-5.3724517955162935e6 1.758210245784812e7 0.0
1.758210245784812e7 1.3892799937715905e7 0.0
0.0 0.0 0.0

-1.2525305415524501e7 1.021535584522373e7 0.0
1.021535584522373e7 2.299780746686451e7 0.0
0.0 0.0 0.0

356265.0275467463 2.3482751847372636e7 0.0
2.3482751847372636e7 -2.7627587919296715e6 0.0
0.0 0.0 0.0

2.923874878545287e6 5.405544755653773e6 0.0
5.405544755653773e6 -8.862835195385199e6 0.0
0.0 0.0 0.0

-2.4046427011848544e6 2.9268861117586985e7 0.0
2.9268861117586985e7 -591414.672976211 0.0
0.0 0.0 0.0

1.6635831954286692e6 1.7550815089545626e7 0.0
1.7550815089545626e7 5.557552562298039e6 0.0
0.0 0.0 0.0

-2.093455946047464e6 1.9815256845999546e7 0.0
1.9815256845999546e7 -2.8481609845911153e6 0.0
0.0 0.0 0.0

4.0735629691496156e6 5.384067072514581e6 0.0
5.384067072514581e6 -2.738844530815629e7 0.0
0.0 0.0 0.0

-1.1202298686524981e6 1.7659681325923827e7 0.0
1.7659681325923827e7 -7.146533749928544e6 0.0
0.0 0.0 0.0

2.684101376926304e6 1.8945292996783566e7 0.0
1.8945292996783566e7 1.1644981098425291e7 0.0
0.0 0.0 0.0

-2.6110877342147063e6 2.317684209731444e7 0.0
2.317684209731444e7 1.6574384223360778e6 0.0
0.0 0.0 0.0

1.371612210813702e6 1.7164183949198622e7 0.0
1.7164183949198622e7 1.8576764727684595e7 0.0
0.0 0.0 0.0

-1.2020950732928538e6 2.6205199475155175e6 0.0
2.6205199475155175e6 2.1836394302584566e6 0.0
0.0 0.0 0.0

-4.656504462925817e6 1.62634431972909e7 0.0
1.62634431972909e7 2.3491760440818347e7 0.0
0.0 0.0 0.0

-5.945349285613816e6 1.996377108683732e7 0.0
1.996377108683732e7 4.064809929471317e6 0.0
0.0 0.0 0.0

3.371450141602101e6 1.9988017105515517e7 0.0
1.9988017105515517e7 -5.219602620318228e6 0.0
0.0 0.0 0.0

270566.303201254 1.9075717229410518e7 0.0
1.9075717229410518e7 -7.106596033040695e6 0.0
0.0 0.0 0.0

2.571102335224512e6 2.4505353475917857e7 0.0
2.4505353475917857e7 -3.714525842613965e6 0.0
0.0 0.0 0.0

-112653.56482825731 1.3638176162149375e7 0.0
1.3638176162149375e7 3.4339860981855327e6 0.0
0.0 0.0 0.0

-4.526324530715192e6 2.0128882607684188e7 0.0
2.0128882607684188e7 9.260551351668432e6 0.0
0.0 0.0 0.0

253332.2098251998 2.5260400882708143e7 0.0
2.5260400882708143e7 -2.6527854141808744e6 0.0
0.0 0.0 0.0

-4.456446687966176e6 1.4768203387588887e7 0.0
1.4768203387588887e7 -3.2969502685291972e7 0.0
0.0 0.0 0.0

-7.035087058345087e6 8.3457883738521915e6 0.0
8.3457883738521915e6 7.639230121489907e6 0.0
0.0 0.0 0.0

-491333.50249833753 1.5414166095546948e7 0.0
1.5414166095546948e7 6.806117591598438e6 0.0
0.0 0.0 0.0

359070.56998073705 2.4066167272768024e7 0.0
2.4066167272768024e7 -3.319748047442083e6 0.0
0.0 0.0 0.0

-429233.92640221445 1.5675382679686066e7 0.0
1.5675382679686066e7 -1.3529946003071701e7 0.0
0.0 0.0 0.0

4.757664566843756e6 4.01398952091562e6 0.0
4.01398952091562e6 -1.9718520957470663e7 0.0
0.0 0.0 0.0

-8.405795668422721e6 -1.2950388131449877e6 0.0
-1.2950388131449877e6 4.990931714905882e7 0.0
0.0 0.0 0.0

1.9258954710444044e6 1.1909497231658293e7 0.0
1.1909497231658293e7 -2.1564064814543657e7 0.0
0.0 0.0 0.0

-261927.58739209082 1.690070533788757e7 0.0
1.690070533788757e7 9.329704216925764e6 0.0
0.0 0.0 0.0

-1.0276594336029097e7 1.2475340319277072e7 0.0
1.2475340319277072e7 1.7471938739056297e7 0.0
0.0 0.0 0.0

3.7584695235701334e6 1.980124166749916e7 0.0
1.980124166749916e7 -4.90853216965297e6 0.0
0.0 0.0 0.0

3.664887387821337e6 5.869772917458361e6 0.0
5.869772917458361e6 -1.6950575971976932e7 0.0
0.0 0.0 0.0

2.0700689068027565e6 1.7039854375732798e7 0.0
1.7039854375732798e7 -3.3487306376932818e6 0.0
0.0 0.0 0.0

2.7769849277321496e6 1.930051533645931e7 0.0
1.930051533645931e7 1.046954162965349e7 0.0
0.0 0.0 0.0

3.9928430977252643e6 3.04122291055973e7 0.0
3.04122291055973e7 -6.946640615909213e6 0.0
0.0 0.0 0.0

651697.8974659862 1.8775370278580155e7 0.0
1.8775370278580155e7 -7.349370992081891e6 0.0
0.0 0.0 0.0

-2.1432654165172894e6 1.584426848437966e7 0.0
1.584426848437966e7 3.1585637957371216e7 0.0
0.0 0.0 0.0

5.062637819914909e6 2.7475139611242535e6 0.0
2.7475139611242535e6 -2.4650791563887764e7 0.0
0.0 0.0 0.0

-1.4067322403904134e6 2.471317027719338e7 0.0
2.471317027719338e7 -992586.1439888973 0.0
0.0 0.0 0.0

2.935385695221368e6 1.6281513760610944e7 0.0
1.6281513760610944e7 2.320934581640035e6 0.0
0.0 0.0 0.0

-5.312181803085963e7 1.4494852418109966e7 0.0
1.4494852418109966e7 6.718822236929417e6 0.0
0.0 0.0 0.0

-5.804978775123138e6 2.1683922449380405e7 0.0
2.1683922449380405e7 7.246737232742034e6 0.0
0.0 0.0 0.0

-5.959561586381543e6 7.741767885995385e6 0.0
7.741767885995385e6 8.630677763886385e6 0.0
0.0 0.0 0.0

662506.3894488113 1.4139409375775851e7 0.0
1.4139409375775851e7 -1.8822510404539973e7 0.0
0.0 0.0 0.0

-3.2140300196890305e6 1.705696186710166e7 0.0
1.705696186710166e7 1.1673411525310738e7 0.0
0.0 0.0 0.0

-1.2042501220641565e6 1.40102515881704e7 0.0
1.40102515881704e7 -2.422270337918121e7 0.0
0.0 0.0 0.0

4.894908612409014e6 3.195865122031612e6 0.0
3.195865122031612e6 -3.1518431490645308e7 0.0
0.0 0.0 0.0

3.752176619163388e7 1.506368888051175e7 0.0
1.506368888051175e7 2.01976990737422e6 0.0
0.0 0.0 0.0

-9.477814123956645e7 3.71806206341392e7 0.0
3.71806206341392e7 -9.507625198211506e6 0.0
0.0 0.0 0.0

7.650623772936806e6 1.784134625742592e7 0.0
1.784134625742592e7 6.860808678334432e6 0.0
0.0 0.0 0.0

-1.1547700580969783e6 1.934012094147135e7 0.0
1.934012094147135e7 -6.9191748871597955e6 0.0
0.0 0.0 0.0

-4.593637326740934e6 1.8373457437027674e7 0.0
1.8373457437027674e7 1.1516449529318675e7 0.0
0.0 0.0 0.0

4.567950081390432e6 4.035960106246899e6 0.0
4.035960106246899e6 -1.936629369800664e7 0.0
0.0 0.0 0.0

-6.2374215080364235e6 2.0081497271541905e7 0.0
2.0081497271541905e7 5.736833302892193e6 0.0
0.0 0.0 0.0

-199637.24313024562 2.5292181129794598e7 0.0
2.5292181129794598e7 -753657.6410521448 0.0
0.0 0.0 0.0

-1.515503480029746e6 1.4742214215957243e7 0.0
1.4742214215957243e7 -1.906890984550782e7 0.0
0.0 0.0 0.0

-2.378184498361706e6 1.9530001910302285e7 0.0
1.9530001910302285e7 -3.9511424596423507e6 0.0
0.0 0.0 0.0

2.1734799051404125e6 5.360554328108181e6 0.0
5.360554328108181e6 -6.466215815380635e6 0.0
0.0 0.0 0.0

5.073115993534302e6 1.8925421781836253e7 0.0
1.8925421781836253e7 1.0629078263687838e7 0.0
0.0 0.0 0.0

-7.499219903586585e6 1.927042443939861e7 0.0
1.927042443939861e7 -1.4238263950178018e6 0.0
0.0 0.0 0.0

126787.39765202021 1.6216177359624935e7 0.0
1.6216177359624935e7 -1.0699429701442396e7 0.0
0.0 0.0 0.0

-3.6269002482161955e6 2.0250330157994393e7 0.0
2.0250330157994393e7 1.0635632126108482e6 0.0
0.0 0.0 0.0

1.6060786856797924e6 1.2056806899303922e7 0.0
1.2056806899303922e7 -2.0667220571307108e7 0.0
0.0 0.0 0.0

-9.507999684391713e6 -880585.3280418228 0.0
-880585.3280418228 3.9648553549815945e7 0.0
0.0 0.0 0.0

525500.4512818428 1.4442966840662746e7 0.0
1.4442966840662746e7 -1.4128332107879682e7 0.0
0.0 0.0 0.0

2.29326796158187e6 1.6102793365305334e7 0.0
1.6102793365305334e7 -1.140276640281897e6 0.0
0.0 0.0 0.0

-9.817495006728828e6 1.7675777798485246e7 0.0
1.7675777798485246e7 -4.182285343822928e7 0.0
0.0 0.0 0.0

4.209373625085457e6 6.3927038362036245e6 0.0
6.3927038362036245e6 -1.924147186120288e7 0.0
0.0 0.0 0.0

599786.5644858181 1.5590204050733395e7 0.0
1.5590204050733395e7 -1.3861428266564535e7 0.0
0.0 0.0 0.0

-4.905036823383641e6 2.1081084223910682e7 0.0
2.1081084223910682e7 7.949461727859061e6 0.0
0.0 0.0 0.0

-2.373106085144262e6 2.2570676649771404e7 0.0
2.2570676649771404e7 -1.1011500612085266e6 0.0
0.0 0.0 0.0

-4.230669138634734e6 1.932828582123348e7 0.0
1.932828582123348e7 8.60973119772559e6 0.0
0.0 0.0 0.0

2.4524041731955544e6 1.7186710121437877e7 0.0
1.7186710121437877e7 6.087515252212525e6 0.0
0.0 0.0 0.0

-6.547589751943975e7 1.9608670243732326e7 0.0
1.9608670243732326e7 4.416225041410729e6 0.0
0.0 0.0 0.0

550208.1502584699 2.4594542430135906e6 0.0
2.4594542430135906e6 -2.365013148073189e6 0.0
0.0 0.0 0.0

-777518.710496139 1.362128709890238e7 0.0
1.362128709890238e7 -1.7223226981902525e6 0.0
0.0 0.0 0.0

7.679759426333883e6 1.6792422605177462e7 0.0
1.6792422605177462e7 344572.8421835513 0.0
0.0 0.0 0.0

-2.0862406956690743e6 2.648781904009294e7 0.0
2.648781904009294e7 1.9144102637331404e6 0.0
0.0 0.0 0.0

-481018.61729521304 1.2918184938385319e7 0.0
1.2918184938385319e7 -2.908761022247222e7 0.0
0.0 0.0 0.0

-1.5144224384205788e6 1.7528564807926662e7 0.0
1.7528564807926662e7 -5.406017411059977e6 0.0
0.0 0.0 0.0

801277.5072871875 1.97839201163374e7 0.0
1.97839201163374e7 -6.32618161033082e6 0.0
0.0 0.0 0.0

1.1687490620799102e6 1.3344086821201071e7 0.0
1.3344086821201071e7 -1.2280913446016062e7 0.0
0.0 0.0 0.0

935180.58332957 1.922169619281986e7 0.0
1.922169619281986e7 -6.472032270558648e6 0.0
0.0 0.0 0.0

-364602.6370605915 1.6346638613978287e7 0.0
1.6346638613978287e7 6.2536844888420375e6 0.0
0.0 0.0 0.0

-1.920076203720021e6 2.239597184249934e7 0.0
2.239597184249934e7 -839797.7137687278 0.0
0.0 0.0 0.0

3.413004710113859e6 8.69703630703145e6 0.0
8.69703630703145e6 -1.881419207176159e7 0.0
0.0 0.0 0.0

4.717938100121941e6 3.502307556384719e6 0.0
3.502307556384719e6 -2.7723878707760945e7 0.0
0.0 0.0 0.0

-1.6338934817413827e6 518174.2908495307 0.0
518174.2908495307 -664246.315774955 0.0
0.0 0.0 0.0

-7.320257298403773e6 -117478.74925511566 0.0
-117478.74925511566 1.0612511293794774e6 0.0
0.0 0.0 0.0

598589.6980901202 1.7456981163688637e7 0.0
1.7456981163688637e7 1.134361195378743e7 0.0
0.0 0.0 0.0

487868.91394521995 1.563713159686812e7 0.0
1.563713159686812e7 7.693333085099691e6 0.0
0.0 0.0 0.0

-852464.9550106023 1.6274942272596637e7 0.0
1.6274942272596637e7 6.329286659511372e6 0.0
0.0 0.0 0.0

3.2288730588737456e6 5.1538914153791405e6 0.0
5.1538914153791405e6 -1.3160669650084624e7 0.0
0.0 0.0 0.0

1.4239587022933033e6 1.821930126079957e7 0.0
1.821930126079957e7 -6.4661632905920725e6 0.0
0.0 0.0 0.0

2.4387353963498343e6 4.463316789416237e6 0.0
4.463316789416237e6 -7.308723956624748e6 0.0
0.0 0.0 0.0

605725.4714142475 1.9249001871181756e7 0.0
1.9249001871181756e7 -6.839932623828646e6 0.0
0.0 0.0 0.0

-1.1192097365071302e7 1.4053486330708392e7 0.0
1.4053486330708392e7 2.2161005513225198e7 0.0
0.0 0.0 0.0

-1.066016379903338e6 2.1560598022326764e7 0.0
2.1560598022326764e7 -3.285713810447246e6 0.0
0.0 0.0 0.0

855043.3074588706 2.4530219121852044e7 0.0
2.4530219121852044e7 -2.0876235522727708e6 0.0
0.0 0.0 0.0

3.637667439044526e6 6.915015672070178e6 0.0
6.915015672070178e6 -2.0036655440772012e7 0.0
0.0 0.0 0.0

3.8768659037996586e6 5.931850689320154e6 0.0
5.931850689320154e6 -2.0433798834830567e7 0.0
0.0 0.0 0.0

9.323751461154813e6 1.7934076201004907e7 0.0
1.7934076201004907e7 -2.476134251740338e6 0.0
0.0 0.0 0.0

-1.421327009904311e6 1.732123175940363e7 0.0
1.732123175940363e7 1.685251038995945e7 0.0
0.0 0.0 0.0

235390.98972324654 1.4895123423192017e7 0.0
1.4895123423192017e7 -1.326342751297871e7 0.0
0.0 0.0 0.0

-9.057758266823363e6 -4.839221658964159e6 0.0
-4.839221658964159e6 3.05457438611719e7 0.0
0.0 0.0 0.0

-2.126089660821352e6 2.5511986846204877e7 0.0
2.5511986846204877e7 1.6587124667094434e6 0.0
0.0 0.0 0.0

-1.2113291061189743e7 1.2344306534840649e7 0.0
1.2344306534840649e7 2.1003349795894705e7 0.0
0.0 0.0 0.0

-6.206921722900275e6 -2.9911402720398414e6 0.0
-2.9911402720398414e6 8.380525234397873e6 0.0
0.0 0.0 0.0

-201617.04736158717 1.4752357869311629e7 0.0
1.4752357869311629e7 -8.331320282933908e6 0.0
0.0 0.0 0.0

4.799948048483705e6 3.566360780934827e6 0.0
3.566360780934827e6 -2.6761037303585913e7 0.0
0.0 0.0 0.0

-4.303599633250739e6 2.3768277352920942e7 0.0
2.3768277352920942e7 5.182420909306839e6 0.0
0.0 0.0 0.0

-1.78261579981064e6 1.9370425086946003e7 0.0
1.9370425086946003e7 -3.689234148388246e6 0.0
0.0 0.0 0.0

1.7581062118282001e6 1.1671066183543712e7 0.0
1.1671066183543712e7 -2.1749049017606795e7 0.0
0.0 0.0 0.0

1.0007557079184499e7 1.6320627117160039e7 0.0
1.6320627117160039e7 2.251623982553182e6 0.0
0.0 0.0 0.0

-4.836944814534118e6 2.310788546786627e7 0.0
2.310788546786627e7 5.998316771667572e6 0.0
0.0 0.0 0.0

-9.956429082680304e6 -3.8073644427867485e6 0.0
-3.8073644427867485e6 2.8949336291330934e7 0.0
0.0 0.0 0.0

-8.268133499184252e6 -7.223373134024724e6 0.0
-7.223373134024724e6 2.0563871320678346e7 0.0
0.0 0.0 0.0

3.1766339100080524e6 1.6405806086609239e7 0.0
1.6405806086609239e7 -900261.7261958702 0.0
0.0 0.0 0.0

-763559.2273735965 1.923303943277413e7 0.0
1.923303943277413e7 -6.74800061427688e6 0.0
0.0 0.0 0.0

-646680.7010089939 1.9665452307765134e7 0.0
1.9665452307765134e7 -6.379906344388363e6 0.0
0.0 0.0 0.0

-8.774068287868595e6 4.974598739476272e6 0.0
4.974598739476272e6 4.4045161868083015e7 0.0
0.0 0.0 0.0

3.5896653403808936e6 3.408979989470599e6 0.0
3.408979989470599e6 -1.034631917058429e7 0.0
0.0 0.0 0.0

-5.04740169179437e6 1.917943379084757e7 0.0
1.917943379084757e7 -1.6404364832955163e6 0.0
0.0 0.0 0.0

-8.69418952149636e6 1.965619381024106e7 0.0
1.965619381024106e7 -5.1167818396303e6 0.0
0.0 0.0 0.0

-2.2712116917926442e7 2.3472559878781766e7 0.0
2.3472559878781766e7 1.7555608451623227e6 0.0
0.0 0.0 0.0

-1.1264472514454292e6 2.567957049180591e7 0.0
2.567957049180591e7 424856.1587078689 0.0
0.0 0.0 0.0

254755.1767639516 1.4965034179850653e7 0.0
1.4965034179850653e7 177327.98681494925 0.0
0.0 0.0 0.0

-9.817515532662977e6 -3.0061681765946876e6 0.0
-3.0061681765946876e6 3.0817906331092216e7 0.0
0.0 0.0 0.0

7.750644753688822e6 1.7749420521705426e7 0.0
1.7749420521705426e7 -2.085419750923654e6 0.0
0.0 0.0 0.0

-331148.1383358012 1.612184067995562e7 0.0
1.612184067995562e7 -8.759686449414836e6 0.0
0.0 0.0 0.0

-9.759709934172234e6 -3.3495085477565033e6 0.0
-3.3495085477565033e6 2.33278074409896e7 0.0
0.0 0.0 0.0

-4.710996040227858e6 1.9671976684079718e7 0.0
1.9671976684079718e7 7.838999320070803e6 0.0
0.0 0.0 0.0

-4.45819791702241e6 2.074276159105719e7 0.0
2.074276159105719e7 7.160746455083813e6 0.0
0.0 0.0 0.0

-2.053191016338667e6 2.0540418047398229e6 0.0
2.0540418047398229e6 971998.6998426995 0.0
0.0 0.0 0.0

4.1169129141776506e6 5.292315836669141e6 0.0
5.292315836669141e6 -2.117924751013051e7 0.0
0.0 0.0 0.0

2.3338674995898325e6 7.823156955289061e6 0.0
7.823156955289061e6 -3.613349034551336e7 0.0
0.0 0.0 0.0

2.7906839673562176e6 1.8659076957213018e7 0.0
1.8659076957213018e7 1.0761340835027307e7 0.0
0.0 0.0 0.0

2.8854839020447074e6 4.589917451309857e6 0.0
4.589917451309857e6 -9.418612375801671e6 0.0
0.0 0.0 0.0

1.1508108927636176e7 2.3524595128655016e7 0.0
2.3524595128655016e7 -8.684132246985512e6 0.0
0.0 0.0 0.0

4.749506096852839e6 4.72903501252699e6 0.0
4.72903501252699e6 -2.017685191706152e7 0.0
0.0 0.0 0.0

4.213541075579023e6 5.164171079569391e6 0.0
5.164171079569391e6 -1.441178222508881e7 0.0
0.0 0.0 0.0

4.1534166618175004e6 5.035257217295461e6 0.0
5.035257217295461e6 -1.8129707784593556e7 0.0
0.0 0.0 0.0

385056.81426821137 1.5751510875046339e7 0.0
1.5751510875046339e7 1.5052103360947047e6 0.0
0.0 0.0 0.0

287294.4540354267 1.5457833190180147e7 0.0
1.5457833190180147e7 5.883715321854709e6 0.0
0.0 0.0 0.0

1.0368964557530936e6 1.339551963338643e7 0.0
1.339551963338643e7 -1.97521572934494e7 0.0
0.0 0.0 0.0

1.0193373356830787e7 2.4650112385222245e7 0.0
2.4650112385222245e7 -7.256240135587683e6 0.0
0.0 0.0 0.0

-9.49426982252823e6 -4.983298839319947e6 0.0
-4.983298839319947e6 2.2902199145446572e7 0.0
0.0 0.0 0.0

-4.489565825606266e6 1.98855558767356e7 0.0
1.98855558767356e7 9.247561820397755e6 0.0
0.0 0.0 0.0

-2.782457044601857e6 2.5273849270618774e7 0.0
2.5273849270618774e7 1.2884629722508732e6 0.0
0.0 0.0 0.0

-1.337509852793634e6 2.1663388793500558e7 0.0
2.1663388793500558e7 -2.7286770170265697e6 0.0
0.0 0.0 0.0

-6.489379169176364e6 -4.656494742941644e6 0.0
-4.656494742941644e6 1.3099951066543028e7 0.0
0.0 0.0 0.0

-7.482312455115075e6 -1.0741249056895042e6 0.0
-1.0741249056895042e6 9.450214090474991e6 0.0
0.0 0.0 0.0

31973.775051070377 1.7248962028955586e7 0.0
1.7248962028955586e7 1.564292004859829e7 0.0
0.0 0.0 0.0

-126533.35358487301 1.6635831651725736e6 0.0
1.6635831651725736e6 -756856.2023231295 0.0
0.0 0.0 0.0

2.8397425385679966e6 2.0120070493016146e7 0.0
2.0120070493016146e7 -5.154612699505169e6 0.0
0.0 0.0 0.0

-917395.0960930989 1.8381331658772834e7 0.0
1.8381331658772834e7 -8.23505135980872e6 0.0
0.0 0.0 0.0

538799.9220167184 1.5463698044741249e7 0.0
1.5463698044741249e7 -1.4675654465200176e7 0.0
0.0 0.0 0.0

-3.0058859602275062e6 1.882489428277452e7 0.0
1.882489428277452e7 503627.703168981 0.0
0.0 0.0 0.0

-4.953737166540032e6 1.904305943519672e7 0.0
1.904305943519672e7 8.181403477073217e6 0.0
0.0 0.0 0.0

-1.145780887604978e7 1.2211550403938591e7 0.0
1.2211550403938591e7 1.8830394203992732e7 0.0
0.0 0.0 0.0

-1.732776369080885e7 3.1488479992904585e7 0.0
3.1488479992904585e7 6.486654047399471e6 0.0
0.0 0.0 0.0

3.069383423432105e6 4.52946584250564e6 0.0
4.52946584250564e6 -9.619119324586568e6 0.0
0.0 0.0 0.0

614069.9225723688 1.5164481135504337e7 0.0
1.5164481135504337e7 -1.2200388156916317e7 0.0
0.0 0.0 0.0

4.144466049484944e6 4.1259507576651936e6 0.0
4.1259507576651936e6 -3.827739984264031e7 0.0
0.0 0.0 0.0

382668.11214650376 1.96403408575443e7 0.0
1.96403408575443e7 -6.54965897649716e6 0.0
0.0 0.0 0.0

-7.095671884373232e6 1.0268647646936055e7 0.0
1.0268647646936055e7 8.563960094106598e6 0.0
0.0 0.0 0.0

-5.29038173028513e6 1.4372857055987012e7 0.0
1.4372857055987012e7 -2.384843143532972e7 0.0
0.0 0.0 0.0

2.1118900690896925e7 1.727216572254146e7 0.0
1.727216572254146e7 4.342175668217199e6 0.0
0.0 0.0 0.0

-7.653473887684872e6 1.627103141061035e6 0.0
1.627103141061035e6 1.1307834427321963e7 0.0
0.0 0.0 0.0

5.158390101504412e6 1.8216450872123543e7 0.0
1.8216450872123543e7 8.737095288992338e6 0.0
0.0 0.0 0.0

3.349289390897546e6 1.474147247657798e7 0.0
1.474147247657798e7 1.737393537130639e7 0.0
0.0 0.0 0.0

-4.828952512590314e6 1.45906137127356e7 0.0
1.45906137127356e7 -1.2695360086269433e7 0.0
0.0 0.0 0.0

241888.20309830282 2.6688708925328635e7 0.0
2.6688708925328635e7 -2.3676530269806855e6 0.0
0.0 0.0 0.0

-1.8729457351581925e6 1.9368894094533194e7 0.0
1.9368894094533194e7 -5.599559525125999e6 0.0
0.0 0.0 0.0

-7.417569216059837e6 1.4833980253411181e7 0.0
1.4833980253411181e7 1.4400740940997457e7 0.0
0.0 0.0 0.0

1.4191293650748115e6 7.895535106949287e6 0.0
7.895535106949287e6 -5.035514107242705e7 0.0
0.0 0.0 0.0

-7.74202362147025e6 376845.20097876526 0.0
376845.20097876526 9.692689397103354e6 0.0
0.0 0.0 0.0

-622460.9954727825 1.6022920411153093e7 0.0
1.6022920411153093e7 -5.954515007364608e6 0.0
0.0 0.0 0.0

4.649644873055159e6 1.7919088934680622e7 0.0
1.7919088934680622e7 7.623233315380523e6 0.0
0.0 0.0 0.0

-2.491364917558953e6 1.1789793439710956e7 0.0
1.1789793439710956e7 6.17963275535334e6 0.0
0.0 0.0 0.0

-5.1741484226627825e6 1.840368610014161e7 0.0
1.840368610014161e7 1.207074686203023e7 0.0
0.0 0.0 0.0

-3.606728929384454e6 2.1996105054410502e7 0.0
2.1996105054410502e7 4.637921289077285e6 0.0
0.0 0.0 0.0

-1.5571680615475677e7 3.21453050754582e7 0.0
3.21453050754582e7 7.5118520074761165e6 0.0
0.0 0.0 0.0

1.2866723208683645e6 7.201923066666387e6 0.0
7.201923066666387e6 -5.915580747304447e6 0.0
0.0 0.0 0.0

-4.085785159826457e6 2.175487024463266e7 0.0
2.175487024463266e7 4.276248612139242e6 0.0
0.0 0.0 0.0

-1.5323518408415015e6 1.8626308026874192e7 0.0
1.8626308026874192e7 -5.70912998685088e6 0.0
0.0 0.0 0.0

8.661725694808401e6 1.8624053488554217e7 0.0
1.8624053488554217e7 9.65509698736969e6 0.0
0.0 0.0 0.0

-1.8753388473555634e6 2.0880691575656347e7 0.0
2.0880691575656347e7 -4.0089090719205285e6 0.0
0.0 0.0 0.0

2.416814401375441e6 4.522373613444929e6 0.0
4.522373613444929e6 -8.026432540727671e6 0.0
0.0 0.0 0.0

-371853.6852042414 1.6375485276976286e7 0.0
1.6375485276976286e7 -1.0941870176413191e7 0.0
0.0 0.0 0.0

-9.990029222971879e6 -325109.5391058889 0.0
-325109.5391058889 1.7599712790003292e7 0.0
0.0 0.0 0.0

4.46127488038132e6 5.798802645465684e6 0.0
5.798802645465684e6 -1.9853974480000928e7 0.0
0.0 0.0 0.0

3.949144435693981e6 4.7720652442051135e6 0.0
4.7720652442051135e6 -4.134364541321464e7 0.0
0.0 0.0 0.0

100640.96820123121 1.8003539232470516e7 0.0
1.8003539232470516e7 1.0339202325296696e7 0.0
0.0 0.0 0.0

303256.59352824185 1.6200271154436646e7 0.0
1.6200271154436646e7 -1.3011097470178679e7 0.0
0.0 0.0 0.0

-7.8591703508620635e6 1.5095857133251619e7 0.0
1.5095857133251619e7 1.2556316159661869e7 0.0
0.0 0.0 0.0

4.700132077636103e6 3.143084933714498e6 0.0
3.143084933714498e6 -1.7452544687712964e7 0.0
0.0 0.0 0.0

1.5260150951698497e6 1.3470851880798977e7 0.0
1.3470851880798977e7 -1.5564254938413337e7 0.0
0.0 0.0 0.0

183537.63515575696 1.496173370006121e7 0.0
1.496173370006121e7 -1.547578222114334e7 0.0
0.0 0.0 0.0

-7.205823847936221e6 1.6021707086543173e7 0.0
1.6021707086543173e7 1.2086406167568233e7 0.0
0.0 0.0 0.0

-3.684887140959275e6 5.910019818502254e6 0.0
5.910019818502254e6 4.31213923162722e6 0.0
0.0 0.0 0.0

-8.651241701830493e6 -3.740009543561394e6 0.0
-3.740009543561394e6 1.79710191586781e7 0.0
0.0 0.0 0.0

47979.02454864513 1.5721847952360695e7 0.0
1.5721847952360695e7 -1.3516241630144322e7 0.0
0.0 0.0 0.0

-6.163105297438582e6 9.205929862445166e6 0.0
9.205929862445166e6 9.203760723287135e6 0.0
0.0 0.0 0.0

7.940576543433013e6 1.7515604676116332e7 0.0
1.7515604676116332e7 9.204158043461602e6 0.0
0.0 0.0 0.0

-1.019609599856761e6 1.8834653534810826e7 0.0
1.8834653534810826e7 -7.701023368189636e6 0.0
0.0 0.0 0.0

2.5446022179482747e6 4.502324085269816e6 0.0
4.502324085269816e6 -7.319980378500318e6 0.0
0.0 0.0 0.0

-1.0723354286321966e7 3.6017516653773547e6 0.0
3.6017516653773547e6 3.1274339375191826e7 0.0
0.0 0.0 0.0

-3.0519366807327857e6 2.336226564943e7 0.0
2.336226564943e7 1.3599496898120898e6 0.0
0.0 0.0 0.0

-7.722522970221963e6 2.4959102757775124e7 0.0
2.4959102757775124e7 5.708954679063794e6 0.0
0.0 0.0 0.0

-9.370925619601179e6 2.1329727740939576e6 0.0
2.1329727740939576e6 1.0716206052304903e7 0.0
0.0 0.0 0.0

-1.040218687218807e7 -1.470095409655547e6 0.0
-1.470095409655547e6 2.4801972334436398e7 0.0
0.0 0.0 0.0

1.4307160053921156e6 1.2141586204221284e7 0.0
1.2141586204221284e7 -2.189554254296954e7 0.0
0.0 0.0 0.0

-6.129410992722744e6 1.6530364359001746e7 0.0
1.6530364359001746e7 1.283714522774915e7 0.0
0.0 0.0 0.0

-1.110089505773571e7 4.8489144629181875e6 0.0
4.8489144629181875e6 3.1650158503125627e7 0.0
0.0 0.0 0.0

-5.048617351637432e7 1.5371432011143606e7 0.0
1.5371432011143606e7 8.091485197035242e6 0.0
0.0 0.0 0.0

1.4917244705955833e6 1.1488761115145605e7 0.0
1.1488761115145605e7 -1.3993201259677343e7 0.0
0.0 0.0 0.0

468089.4807543486 1.5604931804921675e7 0.0
1.5604931804921675e7 -156205.8710824304 0.0
0.0 0.0 0.0

5.040489763640374e6 2.6493598231195514e6 0.0
2.6493598231195514e6 -2.6139574479612082e7 0.0
0.0 0.0 0.0

-982584.3780904962 1.7311296933514208e7 0.0
1.7311296933514208e7 1.2832545437566353e7 0.0
0.0 0.0 0.0

-1.1927516266992377e7 4.916171461581953e6 0.0
4.916171461581953e6 2.890006686614368e7 0.0
0.0 0.0 0.0

1.438565057348718e6 6.318915762141948e6 0.0
6.318915762141948e6 -7.34230749427495e6 0.0
0.0 0.0 0.0

-1.4508922879550667e6 1.8673423061510004e7 0.0
1.8673423061510004e7 -5.675492863246944e6 0.0
0.0 0.0 0.0

-3.3957166619603564e6 2.1021973448515177e7 0.0
2.1021973448515177e7 690051.9878761251 0.0
0.0 0.0 0.0

-4.462881499969713e6 1.8407857065909095e7 0.0
1.8407857065909095e7 7.875290304571995e6 0.0
0.0 0.0 0.0

-5.606270075122389e6 2.4314906772197966e7 0.0
2.4314906772197966e7 5.194510227792788e6 0.0
0.0 0.0 0.0

-3.7725844906981206e6 1.7392980699065913e7 0.0
1.7392980699065913e7 333716.774144795 0.0
0.0 0.0 0.0

-9.907312888218645e6 -1.760706424656708e6 0.0
-1.760706424656708e6 3.522529549929661e7 0.0
0.0 0.0 0.0

747882.5117289904 1.6665641484521594e7 0.0
1.6665641484521594e7 1.370703388491432e7 0.0
0.0 0.0 0.0

851150.6513776565 1.4955306100767318e7 0.0
1.4955306100767318e7 -1.3330390140707156e7 0.0
0.0 0.0 0.0

-1.2489398305564733e7 2.3039380477989465e7 0.0
2.3039380477989465e7 -977822.4881847026 0.0
0.0 0.0 0.0

-4.452096390111265e6 843218.5938822823 0.0
843218.5938822823 4.613708300598709e6 0.0
0.0 0.0 0.0

-2.4784936229235427e6 2.491706780671467e7 0.0
2.491706780671467e7 2.1839502473794874e6 0.0
0.0 0.0 0.0

131747.9057592228 1.5116370786594125e7 0.0
1.5116370786594125e7 -1.5603393131345091e6 0.0
0.0 0.0 0.0

-1.0970152712261215e7 1.4781373531923642e7 0.0
1.4781373531923642e7 2.0547461108892255e7 0.0
0.0 0.0 0.0

2.9705281727080224e6 1.0253050768517192e7 0.0
1.0253050768517192e7 -1.8079871434388146e7 0.0
0.0 0.0 0.0

-1.1184037031844202e7 1.3745848184325496e7 0.0
1.3745848184325496e7 1.9636399280159503e7 0.0
0.0 0.0 0.0

2.190670637331072e6 4.578704269311146e6 0.0
4.578704269311146e6 -7.042561781299128e6 0.0
0.0 0.0 0.0

4.1324549464714043e6 6.833663163954466e6 0.0
6.833663163954466e6 -1.9709237826240912e7 0.0
0.0 0.0 0.0

-1.16102258359417e6 1.7638255387874283e7 0.0
1.7638255387874283e7 -6.207825258240532e6 0.0
0.0 0.0 0.0

-3.5932154938701303e6 1.8553803537137948e7 0.0
1.8553803537137948e7 2.0218612224761003e6 0.0
0.0 0.0 0.0

-3.047990237408014e6 2.1145024500252046e7 0.0
2.1145024500252046e7 1.7981769087666818e6 0.0
0.0 0.0 0.0

801343.7575793606 1.9122203037024647e7 0.0
1.9122203037024647e7 -6.650900297798016e6 0.0
0.0 0.0 0.0

4.511928396453605e6 5.23688883614205e6 0.0
5.23688883614205e6 -1.8024689965362355e7 0.0
0.0 0.0 0.0

1.7079127241782665e6 4.490609880882731e6 0.0
4.490609880882731e6 -5.542441621842887e6 0.0
0.0 0.0 0.0

3.7091269336876404e6 6.316668608974743e6 0.0
6.316668608974743e6 -2.091808695872164e7 0.0
0.0 0.0 0.0

2.1112174994520852e6 6.284204230127832e6 0.0
6.284204230127832e6 -7.579523173097661e6 0.0
0.0 0.0 0.0

1.2023494171268819e7 1.72844649116126e7 0.0
1.72844649116126e7 7.5551209943533745e6 0.0
0.0 0.0 0.0

-3.145184047788185e6 2.727917095904177e7 0.0
2.727917095904177e7 2.9994649919239096e6 0.0
0.0 0.0 0.0

-9.90291944759242e6 -3.895239855725579e6 0.0
-3.895239855725579e6 2.778487849680756e7 0.0
0.0 0.0 0.0

3.243844830880724e6 7.633027774460394e6 0.0
7.633027774460394e6 -3.317466887884204e7 0.0
0.0 0.0 0.0

354248.46901750844 1.968410021232226e7 0.0
1.968410021232226e7 -6.619039868969371e6 0.0
0.0 0.0 0.0

-1.1195950576909014e6 1.7406607575648572e7 0.0
1.7406607575648572e7 -7.381408304454968e6 0.0
0.0 0.0 0.0

3.5045199769539703e6 7.085126927911047e6 0.0
7.085126927911047e6 -2.5726943567399647e7 0.0
0.0 0.0 0.0

-5.808473489056494e6 2.7459364739727046e7 0.0
2.7459364739727046e7 5.145960753077028e6 0.0
0.0 0.0 0.0

3.1743444102081414e6 1.8921092171764795e7 0.0
1.8921092171764795e7 1.0481906555136792e7 0.0
0.0 0.0 0.0

-3.3241352635460533e7 2.9716847082742166e7 0.0
2.9716847082742166e7 8.80579904345376e6 0.0
0.0 0.0 0.0

-4.87707088644961e6 1.708626714853075e7 0.0
1.708626714853075e7 1.617890373923795e7 0.0
0.0 0.0 0.0

2.962762298383807e6 9.459805018888813e6 0.0
9.459805018888813e6 -1.849208602300457e7 0.0
0.0 0.0 0.0

5.040484678485564e7 1.845575778079233e7 0.0
1.845575778079233e7 5.492052890710304e6 0.0
0.0 0.0 0.0

1.2266372266930914e6 1.7914967003840253e7 0.0
1.7914967003840253e7 1.384012702933841e7 0.0
0.0 0.0 0.0

-1.0747311298028942e7 551428.8972896893 0.0
551428.8972896893 1.8651961653285988e7 0.0
0.0 0.0 0.0

320580.6851130964 1.5873644441218853e7 0.0
1.5873644441218853e7 6.236888278249554e6 0.0
0.0 0.0 0.0

-1.1073309513525832e6 1.4364048952115415e7 0.0
1.4364048952115415e7 -1.8490976504227538e7 0.0
0.0 0.0 0.0

4.413344590981327e6 1.962453368644887e7 0.0
1.962453368644887e7 -4.957833286825759e6 0.0
0.0 0.0 0.0

-4.358441888574218e6 1.8690229440385386e7 0.0
1.8690229440385386e7 6.334630029383337e6 0.0
0.0 0.0 0.0

-1.1669658822687862e7 3.375717266861996e6 0.0
3.375717266861996e6 2.8209726246133193e7 0.0
0.0 0.0 0.0

-5.365370341363738e6 2.7838211177242205e7 0.0
2.7838211177242205e7 4.130586725149899e6 0.0
0.0 0.0 0.0

-6.295296300953418e6 1.9337034521860544e7 0.0
1.9337034521860544e7 4.123042968702261e6 0.0
0.0 0.0 0.0

-3.570452472151423e6 2.0837719221898027e7 0.0
2.0837719221898027e7 1.2945544585335338e6 0.0
0.0 0.0 0.0

-214566.92528213642 2.321498072949671e7 0.0
2.321498072949671e7 -2.7193705025468734e6 0.0
0.0 0.0 0.0

-3.072970308009593e6 2.293650649123875e7 0.0
2.293650649123875e7 1.2541424603916286e6 0.0
0.0 0.0 0.0

25804.35515832209 1.5839194688089365e7 0.0
1.5839194688089365e7 -183737.17277346618 0.0
0.0 0.0 0.0

-2.368674971468889e6 1.749749270146723e7 0.0
1.749749270146723e7 1.3620250649271972e7 0.0
0.0 0.0 0.0

1.3023392990018283e6 1.6459451094752515e7 0.0
1.6459451094752515e7 -696293.4781953986 0.0
0.0 0.0 0.0

-4.844364937799939e6 1.5056639276025599e7 0.0
1.5056639276025599e7 -2.9483392251118846e7 0.0
0.0 0.0 0.0

-70126.59714446409 1.592493845854374e7 0.0
1.592493845854374e7 1.3348594977969683e6 0.0
0.0 0.0 0.0

-3.806961843572251e6 1.8418535795127828e7 0.0
1.8418535795127828e7 897725.7662425949 0.0
0.0 0.0 0.0

-475215.60025858786 1.3717102896612383e7 0.0
1.3717102896612383e7 1.2683124248645462e7 0.0
0.0 0.0 0.0

-254252.60219025565 1.7429886908221506e7 0.0
1.7429886908221506e7 -9.687742902455518e6 0.0
0.0 0.0 0.0

1.177943247157989e6 1.3196521025671499e7 0.0
1.3196521025671499e7 -1.6446935038188877e7 0.0
0.0 0.0 0.0

4.606330398309488e6 4.766871824130582e6 0.0
4.766871824130582e6 -1.8699395367511127e7 0.0
0.0 0.0 0.0

732952.1564736664 1.7740353245696563e7 0.0
1.7740353245696563e7 1.2305627948791135e7 0.0
0.0 0.0 0.0

-2.5990647216569954e6 1.7612282733686004e7 0.0
1.7612282733686004e7 9.713251511133537e6 0.0
0.0 0.0 0.0

-1.1144694022367805e7 1.4275976325017117e7 0.0
1.4275976325017117e7 1.9663115559490927e7 0.0
0.0 0.0 0.0

-4.323152772504594e6 1.82018215536898e7 0.0
1.82018215536898e7 7.1734815005387105e6 0.0
0.0 0.0 0.0

-2.1649660399633097e6 1.7739209223153546e7 0.0
1.7739209223153546e7 -6.441224175068599e6 0.0
0.0 0.0 0.0

-1.1464092653305832e7 1.4333281815772962e7 0.0
1.4333281815772962e7 1.830531651818967e7 0.0
0.0 0.0 0.0

-1.1653269218128491e7 1.410650849110163e7 0.0
1.410650849110163e7 2.0616284817594912e7 0.0
0.0 0.0 0.0

-1.1943846113251269e7 1.2209294628782313e7 0.0
1.2209294628782313e7 1.702993339412329e7 0.0
0.0 0.0 0.0

-8.086380049436046e6 -5.344133891535221e6 0.0
-5.344133891535221e6 1.6645547607276406e7 0.0
0.0 0.0 0.0

-4.09916890784085e6 1.9879476974305563e7 0.0
1.9879476974305563e7 7.846824056622276e6 0.0
0.0 0.0 0.0

-1.3554236115641203e6 1.3835585273209106e7 0.0
1.3835585273209106e7 -2.6274823195562106e7 0.0
0.0 0.0 0.0

601968.9578978159 1.3369747283690678e7 0.0
1.3369747283690678e7 -1.9748615421366155e7 0.0
0.0 0.0 0.0

-2.073111422456195e7 2.540901309142472e7 0.0
2.540901309142472e7 -2.7433243686470874e6 0.0
0.0 0.0 0.0

-1.0146086407456987e7 2.678433557579877e6 0.0
2.678433557579877e6 3.590609886437583e7 0.0
0.0 0.0 0.0

1.0127928464541854e6 1.3785507779664202e7 0.0
1.3785507779664202e7 -1.860664952131373e7 0.0
0.0 0.0 0.0

-2.411058269437913e6 2.335373955118898e7 0.0
2.335373955118898e7 -233990.72458140657 0.0
0.0 0.0 0.0

956539.6388767897 1.6092338427489894e7 0.0
1.6092338427489894e7 1.0570885999007976e7 0.0
0.0 0.0 0.0

-4.708301049128066e6 -6.942651340492391e6 0.0
-6.942651340492391e6 1.2641892337407464e7 0.0
0.0 0.0 0.0

-329459.417652659 1.5625062825057803e7 0.0
1.5625062825057803e7 -1.7829189739356607e6 0.0
0.0 0.0 0.0

-1.5011785216046567e6 1.702209744831139e7 0.0
1.702209744831139e7 -7.273388624783811e6 0.0
0.0 0.0 0.0

-1.089895945003555e7 4.702406981988566e6 0.0
4.702406981988566e6 1.261747752755865e7 0.0
0.0 0.0 0.0

4.815021211941095e6 2.3094424567175163e6 0.0
2.3094424567175163e6 -3.2514795545404095e7 0.0
0.0 0.0 0.0

457225.0373059744 9.221597214419972e6 0.0
9.221597214419972e6 -7.8401661241803e6 0.0
0.0 0.0 0.0

-1.1765270815199057e7 -369458.30289836647 0.0
-369458.30289836647 2.2225241758688092e7 0.0
0.0 0.0 0.0

-293186.0704688155 1.7748020758588612e7 0.0
1.7748020758588612e7 -9.584697248545561e6 0.0
0.0 0.0 0.0

2.999240898141267e6 1.6274867827483367e7 0.0
1.6274867827483367e7 1.842768479783045e7 0.0
0.0 0.0 0.0

373558.3704816699 8.79894700539234e6 0.0
8.79894700539234e6 -4.831448451145107e6 0.0
0.0 0.0 0.0

3.4547377836483903e6 1.8692065101035446e7 0.0
1.8692065101035446e7 1.1672586734194912e7 0.0
0.0 0.0 0.0

-3.613144714227667e6 2.789310879361059e7 0.0
2.789310879361059e7 3.2242247328453837e6 0.0
0.0 0.0 0.0

-1.1465590531541446e7 692964.2409886573 0.0
692964.2409886573 1.6057336401333805e7 0.0
0.0 0.0 0.0

-1.8360541743108323e6 1.711389563153257e7 0.0
1.711389563153257e7 1.4013826283060346e7 0.0
0.0 0.0 0.0

2.4746592307771295e6 9.735621031929439e6 0.0
9.735621031929439e6 -1.8920470022923205e7 0.0
0.0 0.0 0.0

-1.6144422660022587e7 2.2279997239795998e7 0.0
2.2279997239795998e7 3.6546404127883743e6 0.0
0.0 0.0 0.0

-5.771978449289111e6 -1.2532204432301142e6 0.0
-1.2532204432301142e6 6.415176385511015e6 0.0
0.0 0.0 0.0

-6.80831411089052e6 1.9262439845705654e7 0.0
1.9262439845705654e7 -5.091592873018296e6 0.0
0.0 0.0 0.0

2.140088410740304e7 1.840691951090324e7 0.0
1.840691951090324e7 4.769770938607101e6 0.0
0.0 0.0 0.0

-1.9273410195181333e6 1.8767895017337147e7 0.0
1.8767895017337147e7 -5.499116896558189e6 0.0
0.0 0.0 0.0

2.892521329505492e6 9.915252726827877e6 0.0
9.915252726827877e6 -1.758924459634718e7 0.0
0.0 0.0 0.0

-4.7637202743386105e6 2.0045930295662403e7 0.0
2.0045930295662403e7 9.135838505629292e6 0.0
0.0 0.0 0.0

-9.465239702882681e6 -815220.6496466879 0.0
-815220.6496466879 4.054720361044647e7 0.0
0.0 0.0 0.0

-3.066922379029042e6 1.7613822038568847e7 0.0
1.7613822038568847e7 -9.553984059330583e6 0.0
0.0 0.0 0.0

-2.501969872993371e6 2.5364134142063383e7 0.0
2.5364134142063383e7 2.296947753879672e6 0.0
0.0 0.0 0.0

-36061.16175455041 1.2674114150149455e7 0.0
1.2674114150149455e7 -2.580067748144228e7 0.0
0.0 0.0 0.0

364334.5357645517 1.5576892992623607e7 0.0
1.5576892992623607e7 -1.460050668681192e7 0.0
0.0 0.0 0.0

515777.17035918497 1.5107468203606607e7 0.0
1.5107468203606607e7 -1.5625668931371326e7 0.0
0.0 0.0 0.0

-1.1646397941631768e7 1.1181611242504593e7 0.0
1.1181611242504593e7 2.53141398530993e7 0.0
0.0 0.0 0.0

-4.458318142846683e6 1.9024363061382737e7 0.0
1.9024363061382737e7 6.798700738822275e6 0.0
0.0 0.0 0.0

-7.528790116234757e6 1.0297163080805194e7 0.0
1.0297163080805194e7 7.599184982742082e7 0.0
0.0 0.0 0.0

4.247548245317884e6 1.0673853460281815e7 0.0
1.0673853460281815e7 -6.64150642292732e7 0.0
0.0 0.0 0.0

-1.1180954799485262e7 2.2993990052938968e7 0.0
2.2993990052938968e7 -5.104442030378998e6 0.0
0.0 0.0 0.0

-3.333258128368247e6 1.7011593233988643e7 0.0
1.7011593233988643e7 1.039189391813325e7 0.0
0.0 0.0 0.0

-1.715364305953092e7 2.2873726824955832e7 0.0
2.2873726824955832e7 -290715.3881294988 0.0
0.0 0.0 0.0

-5.681983020259855e6 -2.204022593140007e6 0.0
-2.204022593140007e6 1.0744035077438239e7 0.0
0.0 0.0 0.0

-9.959718616398748e6 1.490692698132506e7 0.0
1.490692698132506e7 1.6299610905899454e7 0.0
0.0 0.0 0.0

-7.854178933839437e6 2.0188852243107326e7 0.0
2.0188852243107326e7 -3.9742152933875206e6 0.0
0.0 0.0 0.0

-1.084452113618157e7 814134.3759053245 0.0
814134.3759053245 2.442270354997021e7 0.0
0.0 0.0 0.0

2.0387589678808697e7 1.675955472693313e7 0.0
1.675955472693313e7 4.416304221775946e6 0.0
0.0 0.0 0.0

-1.9518380879070098e6 1.7149397222319096e7 0.0
1.7149397222319096e7 1.6583156253239792e7 0.0
0.0 0.0 0.0

-5.97941493209245e6 1.6316202598147852e7 0.0
1.6316202598147852e7 1.2467429518247997e7 0.0
0.0 0.0 0.0

-2.152072075741259e7 2.9865392454999365e7 0.0
2.9865392454999365e7 1.0390602502628032e7 0.0
0.0 0.0 0.0

2.0978919093199195e6 1.721746657641343e7 0.0
1.721746657641343e7 3.2969963708810625e6 0.0
0.0 0.0 0.0

1.9916517306030402e6 1.5956614816362029e7 0.0
1.5956614816362029e7 -2.099050085831839e6 0.0
0.0 0.0 0.0

-4.661954961644165e6 2.113915152678085e7 0.0
2.113915152678085e7 8.020681482313197e6 0.0
0.0 0.0 0.0

-5.088566378781889e6 1.8631689733036965e7 0.0
1.8631689733036965e7 -359469.2278974855 0.0
0.0 0.0 0.0

-568895.4712782075 1.4706827400335483e7 0.0
1.4706827400335483e7 -2.179617603909988e6 0.0
0.0 0.0 0.0

1.940089949709641e6 1.6647754811209412e7 0.0
1.6647754811209412e7 -3.7428740548808244e6 0.0
0.0 0.0 0.0

715430.2716009705 1.7511245268196538e7 0.0
1.7511245268196538e7 1.0607605834493298e7 0.0
0.0 0.0 0.0

797421.5656327136 2.5795208413692553e7 0.0
2.5795208413692553e7 -1.4212114788185009e6 0.0
0.0 0.0 0.0

-4.546688113200215e6 1.9655080022562128e7 0.0
1.9655080022562128e7 8.615234372397494e6 0.0
0.0 0.0 0.0

-4.8000599836215535e6 2.75510415629694e7 0.0
2.75510415629694e7 2.6817897646571286e6 0.0
0.0 0.0 0.0

-3.7937880907125697e6 1.458447310275826e7 0.0
1.458447310275826e7 -3.252796739948871e7 0.0
0.0 0.0 0.0

-1.0593135054124326e7 1.7337936509269748e7 0.0
1.7337936509269748e7 -6.0890736056659035e7 0.0
0.0 0.0 0.0

9.752038677797772e6 1.763198711409698e7 0.0
1.763198711409698e7 6.7059017739074126e7 0.0
0.0 0.0 0.0

3.239230836061183e6 1.655188470497174e7 0.0
1.655188470497174e7 1.7895492154421084e7 0.0
0.0 0.0 0.0

2.382653692409504e6 9.02257964125122e6 0.0
9.02257964125122e6 -2.9319065800957657e7 0.0
0.0 0.0 0.0

-538357.9930312956 2.555024563810973e7 0.0
2.555024563810973e7 -1.7465439032772991e6 0.0
0.0 0.0 0.0

-588662.4901364085 1.8741107883335948e7 0.0
1.8741107883335948e7 -7.558006102076357e6 0.0
0.0 0.0 0.0

-605950.072811832 1.6442865989609674e7 0.0
1.6442865989609674e7 -5.187324042484198e6 0.0
0.0 0.0 0.0

-126061.43023454817 1.8039257978253085e7 0.0
1.8039257978253085e7 -9.127638129988372e6 0.0
0.0 0.0 0.0

-2.79776655477731e7 3.1030774134858377e7 0.0
3.1030774134858377e7 1.0949887341332877e7 0.0
0.0 0.0 0.0

-3.2177756602637535e6 2.5110396309534665e7 0.0
2.5110396309534665e7 1.9013967598718847e6 0.0
0.0 0.0 0.0

-5.870008322324248e6 2.163855334914172e7 0.0
2.163855334914172e7 7.165814080373127e6 0.0
0.0 0.0 0.0

4.393236778562676e6 3.5818410014205105e6 0.0
3.5818410014205105e6 -3.471700398580362e7 0.0
0.0 0.0 0.0

4.71406954643248e6 2.019525810491264e7 0.0
2.019525810491264e7 -5.225351690720861e6 0.0
0.0 0.0 0.0

-82680.1037439527 1.3108195700988958e7 0.0
1.3108195700988958e7 -2.4387196268114813e7 0.0
0.0 0.0 0.0

3.733391265038606e6 2.0627706651715398e7 0.0
2.0627706651715398e7 -5.206208630799725e6 0.0
0.0 0.0 0.0

-291491.10165735224 1.4118633051477704e7 0.0
1.4118633051477704e7 -1.379289013985878e6 0.0
0.0 0.0 0.0

-1.2653133104473203e6 1.7630959247793026e7 0.0
1.7630959247793026e7 1.466419991777205e7 0.0
0.0 0.0 0.0

-4.723137477365741e6 2.302288281613438e7 0.0
2.302288281613438e7 5.360299718736788e6 0.0
0.0 0.0 0.0

-9.964307216213066e6 -4.70164493856501e6 0.0
-4.70164493856501e6 2.2298004446725763e7 0.0
0.0 0.0 0.0

9.947408168192e6 1.6650190071376171e7 0.0
1.6650190071376171e7 -280412.9808752034 0.0
0.0 0.0 0.0

-5.6020975565631375e7 2.071388743956247e7 0.0
2.071388743956247e7 6.339314317140669e6 0.0
0.0 0.0 0.0

-1.226056067336684e7 1.1315611684487239e7 0.0
1.1315611684487239e7 2.3152046672888506e7 0.0
0.0 0.0 0.0

-5.389611879885001e6 1.91949112809148e7 0.0
1.91949112809148e7 4.357624827191258e6 0.0
0.0 0.0 0.0

2.2957965975275203e6 1.6921292053422414e7 0.0
1.6921292053422414e7 -1.5485162486947537e6 0.0
0.0 0.0 0.0

4.967876335318991e6 3.7670800481245187e6 0.0
3.7670800481245187e6 -2.3434359041385237e7 0.0
0.0 0.0 0.0

-3.399346963212747e6 1.7401148559548967e7 0.0
1.7401148559548967e7 8.254686355626759e6 0.0
0.0 0.0 0.0

-9.66953426043299e6 -1.9238052634041302e6 0.0
-1.9238052634041302e6 3.572022938677107e7 0.0
0.0 0.0 0.0

-1.1281461723944869e7 2.0035343951284066e7 0.0
2.0035343951284066e7 -6.591279154132711e7 0.0
0.0 0.0 0.0

1.0178412666914616e7 2.2165353635102242e7 0.0
2.2165353635102242e7 7.273026936874895e7 0.0
0.0 0.0 0.0

1.6227232992088087e6 1.1641963064389523e7 0.0
1.1641963064389523e7 -2.2676431833582014e7 0.0
0.0 0.0 0.0

1.3134468650512593e6 4.595555313896762e6 0.0
4.595555313896762e6 -5.499068859532777e6 0.0
0.0 0.0 0.0

6.47087222896534e6 1.6233511441686556e7 0.0
1.6233511441686556e7 5.669288910214198e6 0.0
0.0 0.0 0.0

-9.703985944697171e6 -125198.04102681173 0.0
-125198.04102681173 4.070780037197347e7 0.0
0.0 0.0 0.0

1.1814047332652514e6 7.483745217422395e6 0.0
7.483745217422395e6 -6.707718601096276e6 0.0
0.0 0.0 0.0

1.3981042644889737e6 2.4723707679257873e7 0.0
2.4723707679257873e7 -3.066723610098117e6 0.0
0.0 0.0 0.0

-218674.73902367614 1.5959983264483407e7 0.0
1.5959983264483407e7 -1.1655791107686438e7 0.0
0.0 0.0 0.0

1.9993961442332328e6 1.6406699792425988e7 0.0
1.6406699792425988e7 1.310530511156937e7 0.0
0.0 0.0 0.0

-4.086018179304557e6 1.910010102375386e7 0.0
1.910010102375386e7 289727.7033149891 0.0
0.0 0.0 0.0

-2.0406275611931793e7 2.1417441452238083e7 0.0
2.1417441452238083e7 -2.669188693274286e6 0.0
0.0 0.0 0.0

-3.457487916319046e6 2.485360127367097e7 0.0
2.485360127367097e7 2.4120031366019123e6 0.0
0.0 0.0 0.0

-162418.03190762363 1.6337121944054661e7 0.0
1.6337121944054661e7 7.911593197935074e6 0.0
0.0 0.0 0.0

-2.962514610620668e6 1.75195701893653e7 0.0
1.75195701893653e7 1.2079425613835901e7 0.0
0.0 0.0 0.0

1.2266699321865682e6 1.3810634258620702e7 0.0
1.3810634258620702e7 -1.5922432567897066e7 0.0
0.0 0.0 0.0

-106964.27481725393 1.7561088631285343e7 0.0
1.7561088631285343e7 -9.5990247715747e6 0.0
0.0 0.0 0.0

-1.0260173842139855e7 1.195544419167909e6 0.0
1.195544419167909e6 3.900566588596237e7 0.0
0.0 0.0 0.0

-2.319766396811026e7 3.182002685888275e7 0.0
3.182002685888275e7 7.6030786174474e6 0.0
0.0 0.0 0.0

-1.0030581246397117e7 2.6568703106486276e7 0.0
2.6568703106486276e7 6.428362594077364e6 0.0
0.0 0.0 0.0

-2.149567950569877e7 2.2316800103908263e7 0.0
2.2316800103908263e7 4.39328768194726e6 0.0
0.0 0.0 0.0

-143164.86867573427 1.6347022626893736e7 0.0
1.6347022626893736e7 2.63908607260937e6 0.0
0.0 0.0 0.0

-5.9614058537416505e6 1.9632194960978046e7 0.0
1.9632194960978046e7 -806965.3394667921 0.0
0.0 0.0 0.0

-1.150467831973885e7 2.2263384893419348e7 0.0
2.2263384893419348e7 -695034.2341998429 0.0
0.0 0.0 0.0

1.8544405379967685e6 6.856446883970463e6 0.0
6.856446883970463e6 -6.565766294157903e6 0.0
0.0 0.0 0.0

1.115501148997861e6 1.6809591286435787e7 0.0
1.6809591286435787e7 1.3865824841640303e7 0.0
0.0 0.0 0.0

3.2491846817420963e6 8.331393704976316e6 0.0
8.331393704976316e6 -2.8625159096678212e7 0.0
0.0 0.0 0.0

-1.12885833050089e7 1.2378704659637386e7 0.0
1.2378704659637386e7 2.440207398099472e7 0.0
0.0 0.0 0.0

-9.110822636177665e6 -517211.12673290865 0.0
-517211.12673290865 4.172183700721484e7 0.0
0.0 0.0 0.0

4.566837184858605e6 3.718283266193131e6 0.0
3.718283266193131e6 -3.430022962975015e7 0.0
0.0 0.0 0.0

-2.506322466868646e7 2.2630512028668776e7 0.0
2.2630512028668776e7 3.3090504410418067e6 0.0
0.0 0.0 0.0

-9.803729070076972e6 -2.891418815904758e6 0.0
-2.891418815904758e6 3.2468438311272815e7 0.0
0.0 0.0 0.0

-9.867980348986296e6 -3.842254376450087e6 0.0
-3.842254376450087e6 2.792250531473858e7 0.0
0.0 0.0 0.0

1.3248047769176937e6 6.611914348621239e6 0.0
6.611914348621239e6 -8.101812132730551e6 0.0
0.0 0.0 0.0

-1.0161192960160485e7 -2.637991609587756e6 0.0
-2.637991609587756e6 2.6794812391974635e7 0.0
0.0 0.0 0.0

1.715786702817797e6 3.2390466538621232e7 0.0
3.2390466538621232e7 -5.208741727664089e6 0.0
0.0 0.0 0.0

-5.497962467743674e6 1.7127136368716326e7 0.0
1.7127136368716326e7 1.1976994261885233e7 0.0
0.0 0.0 0.0

3.5934059136425853e6 4.540883251595253e6 0.0
4.540883251595253e6 -4.190640351609003e7 0.0
0.0 0.0 0.0

4.297472738644252e6 4.335001587846717e6 0.0
4.335001587846717e6 -2.743320272520431e7 0.0
0.0 0.0 0.0

-4.585502162244881e6 1.8832383755012218e7 0.0
1.8832383755012218e7 6.050230805093944e6 0.0
0.0 0.0 0.0

-4.474381553123485e6 2.741809958116764e7 0.0
2.741809958116764e7 3.9238935559975775e6 0.0
0.0 0.0 0.0

2.3503343077892484e6 9.790292228831483e6 0.0
9.790292228831483e6 2.3123260165596353e6 0.0
0.0 0.0 0.0

5.818083070039559e6 1.8622546076534975e7 0.0
1.8622546076534975e7 1.0708416231409537e7 0.0
0.0 0.0 0.0

4.757640416860457e6 1.9420499555250693e7 0.0
1.9420499555250693e7 -4.559367866758789e6 0.0
0.0 0.0 0.0

-1.007172013499752e7 -2.6571428831165894e6 0.0
-2.6571428831165894e6 3.176551362557331e7 0.0
0.0 0.0 0.0

-1.3827298743792903e7 1.959868010951639e7 0.0
1.959868010951639e7 5.038179861203868e6 0.0
0.0 0.0 0.0

-3.3906537504407135e6 2.4405067115201663e7 0.0
2.4405067115201663e7 2.2775571899912143e6 0.0
0.0 0.0 0.0

-1.2022154989121128e6 1.6208040819525037e7 0.0
1.6208040819525037e7 3.446493876475304e7 0.0
0.0 0.0 0.0

5.932007830235749e6 1.971586735793375e7 0.0
1.971586735793375e7 -4.468968259490774e6 0.0
0.0 0.0 0.0

-1.982645720917077e6 1.7920786209556654e7 0.0
1.7920786209556654e7 -6.243960532049384e6 0.0
0.0 0.0 0.0

-4.996689205846322e6 1.7977028913724996e7 0.0
1.7977028913724996e7 1.2921495279262474e7 0.0
0.0 0.0 0.0

-1.7999014261144241e6 1.723362984534224e7 0.0
1.723362984534224e7 -6.579621135258152e6 0.0
0.0 0.0 0.0

-5.324365685177327e7 2.895534429553637e7 0.0
2.895534429553637e7 164431.3183567673 0.0
0.0 0.0 0.0

-6.54762838248149e6 1.683753604806269e7 0.0
1.683753604806269e7 1.1534305603241595e7 0.0
0.0 0.0 0.0

-1.91254965066002e6 1.812004341001868e7 0.0
1.812004341001868e7 -5.439829345136715e6 0.0
0.0 0.0 0.0

-4.964022630180746e6 1.8503472624048714e7 0.0
1.8503472624048714e7 1.2339948472282518e7 0.0
0.0 0.0 0.0

3.43348235553644e6 1.9128570404313527e7 0.0
1.9128570404313527e7 -4.877209911002375e6 0.0
0.0 0.0 0.0

4.648606863429427e6 3.7838804991124477e6 0.0
3.7838804991124477e6 -2.2790662270738013e7 0.0
0.0 0.0 0.0

569740.535507794 1.867653904172971e7 0.0
1.867653904172971e7 -7.014802094244368e6 0.0
0.0 0.0 0.0

-2.2616659713374e7 3.1803306748497713e7 0.0
3.1803306748497713e7 7.455878168305212e6 0.0
0.0 0.0 0.0

-5.430489479764869e6 2.3980301827145778e7 0.0
2.3980301827145778e7 5.929884175145451e6 0.0
0.0 0.0 0.0

-8.57703206025688e6 -5.134513543066633e6 0.0
-5.134513543066633e6 1.658301679125493e7 0.0
0.0 0.0 0.0

-46716.54159262031 1.6065031458661666e7 0.0
1.6065031458661666e7 -1.2900409295235181e7 0.0
0.0 0.0 0.0

8.003899265776313e6 1.7295008025634713e7 0.0
1.7295008025634713e7 729452.9281832329 0.0
0.0 0.0 0.0

-4.9890494617508546e7 2.4046406054682188e7 0.0
2.4046406054682188e7 6.443722521210536e6 0.0
0.0 0.0 0.0

1.5641418434827283e6 1.5287150287580237e7 0.0
1.5287150287580237e7 9.259833618661357e6 0.0
0.0 0.0 0.0

2.7824507513820287e6 8.225426354587378e6 0.0
8.225426354587378e6 -3.020504181892661e7 0.0
0.0 0.0 0.0

934866.2422306454 1.3649919733349768e7 0.0
1.3649919733349768e7 -1.5832336824310185e7 0.0
0.0 0.0 0.0

-3.1066245594681166e6 1.766309531426265e7 0.0
1.766309531426265e7 9.753795463506011e6 0.0
0.0 0.0 0.0

-6.205250293304229e6 2.7617382767224777e7 0.0
2.7617382767224777e7 3.7706729327236237e6 0.0
0.0 0.0 0.0

-1.3679329192709727e6 2.1180707570705604e7 0.0
2.1180707570705604e7 -3.4919185296608256e6 0.0
0.0 0.0 0.0

4.740209557377027e6 3.5256526653226437e6 0.0
3.5256526653226437e6 -2.685045177560902e7 0.0
0.0 0.0 0.0

1.646493869470302e6 1.6421886172860857e7 0.0
1.6421886172860857e7 2.8053107477593053e7 0.0
0.0 0.0 0.0

-415280.26234187814 1.38339665764889e7 0.0
1.38339665764889e7 -1.5193619866723982e6 0.0
0.0 0.0 0.0

-3.868188682390973e7 2.7688246866254807e7 0.0
2.7688246866254807e7 1.1856777555394467e7 0.0
0.0 0.0 0.0

-1.0833380819720963e7 -2.3765904057069435e6 0.0
-2.3765904057069435e6 2.3181101253737327e7 0.0
0.0 0.0 0.0

-1.0137615571348643e7 -2.4941031037723683e6 0.0
-2.4941031037723683e6 2.547369848951351e7 0.0
0.0 0.0 0.0

7.47242370113641e6 1.7263708334677506e7 0.0
1.7263708334677506e7 3.2909470167381642e6 0.0
0.0 0.0 0.0

-9.777506119106865e6 -2.9707419143970143e6 0.0
-2.9707419143970143e6 3.1672063381687175e7 0.0
0.0 0.0 0.0

1.3708262187975494e6 1.5545604396294584e7 0.0
1.5545604396294584e7 9.079660784473773e6 0.0
0.0 0.0 0.0

4.074853442188392e6 1.6636481546050524e7 0.0
1.6636481546050524e7 1.8900992460734572e7 0.0
0.0 0.0 0.0

-1.26705573361794e6 2.5547932447721027e7 0.0
2.5547932447721027e7 -306062.56496194657 0.0
0.0 0.0 0.0

-9.965845494834086e6 4.242032203430815e6 0.0
4.242032203430815e6 4.27673455950902e7 0.0
0.0 0.0 0.0

-497729.2266609771 1.3178117204458527e7 0.0
1.3178117204458527e7 -2.4757046605040323e7 0.0
0.0 0.0 0.0

900921.9132053484 7.264496737378142e6 0.0
7.264496737378142e6 -7.209852810354838e6 0.0
0.0 0.0 0.0

-2.8733359376298846e6 1.735211326102822e7 0.0
1.735211326102822e7 8.126910460942335e6 0.0
0.0 0.0 0.0

1.249407297123286e6 1.703331481041081e7 0.0
1.703331481041081e7 1.9009877046461754e7 0.0
0.0 0.0 0.0

-1.070075154721236e7 -1.523908580571959e6 0.0
-1.523908580571959e6 3.0646333710049897e7 0.0
0.0 0.0 0.0

-8.892331013819696e6 6.225081937455296e6 0.0
6.225081937455296e6 7.734174258471547e6 0.0
0.0 0.0 0.0

-3.7175862540046666e6 1.799043912937367e7 0.0
1.799043912937367e7 944361.7616037456 0.0
0.0 0.0 0.0

-1.9100152990739704e6 9.046192085923357e6 0.0
9.046192085923357e6 1.1814889502091642e7 0.0
0.0 0.0 0.0

2.127550937066313e6 1.6186584348461542e7 0.0
1.6186584348461542e7 -2.8526786819473384e6 0.0
0.0 0.0 0.0

-1.0718670857994853e7 -2.797968959408065e6 0.0
-2.797968959408065e6 2.494687347172056e7 0.0
0.0 0.0 0.0

-9.175081896064892e6 4.236147298405187e6 0.0
4.236147298405187e6 4.5751151485502e7 0.0
0.0 0.0 0.0

1.7636558187164366e6 1.6677896821378242e7 0.0
1.6677896821378242e7 -1.9968133288479787e6 0.0
0.0 0.0 0.0

185581.20537991403 1.6397669762040159e7 0.0
1.6397669762040159e7 -1.1133524252334049e7 0.0
0.0 0.0 0.0

-9.202269213859024e6 4.087442842695314e6 0.0
4.087442842695314e6 4.5325025182094805e7 0.0
0.0 0.0 0.0

3.6030877439132608e6 1.9096067761190783e7 0.0
1.9096067761190783e7 -4.913564059255907e6 0.0
0.0 0.0 0.0

850351.207532234 1.6132577649325572e7 0.0
1.6132577649325572e7 1.3659714917796362e7 0.0
0.0 0.0 0.0

-6.845650523884171e6 9.60300411393314e6 0.0
9.60300411393314e6 8.401295649811856e6 0.0
0.0 0.0 0.0

-6.606984391680879e6 7.901316569885418e6 0.0
7.901316569885418e6 9.270039666879121e6 0.0
0.0 0.0 0.0

-1.110121411967134e7 5.278798913460647e6 0.0
5.278798913460647e6 4.893082321712971e6 0.0
0.0 0.0 0.0

