# vtk DataFile Version 2.0
phase field modeling fracture
ASCII
DATASET UNSTRUCTURED_GRID
POINTS 2538 float
0.0 0.0 0.0
10.0 0.0 0.0
0.0 10.0 0.0
10.0 10.0 0.0
0.0 4.9995 0.0
0.0 5.0005 0.0
5.0 5.0 0.0
0.9416964895726688 0.0 0.0
1.803581725054446 0.0 0.0
2.592419885431098 0.0 0.0
3.314401822861676 0.0 0.0
3.975193910351406 0.0 0.0
4.579982132660152 0.0 0.0
5.133512780936812 0.0 0.0
5.640130319506143 0.0 0.0
6.103810708661955 0.0 0.0
6.528192895506818 0.0 0.0
6.916607540127679 0.0 0.0
7.272102969376355 0.0 0.0
7.597469242948583 0.0 0.0
7.895259826292669 0.0 0.0
8.167811885738017 0.0 0.0
8.417264413845215 0.0 0.0
8.645575169389538 0.0 0.0
8.854535961159101 0.0 0.0
9.045786767735546 0.0 0.0
9.220828555767493 0.0 0.0
9.38103509633881 0.0 0.0
9.527663687265145 0.0 0.0
9.661865124984566 0.0 0.0
9.784692609918062 0.0 0.0
9.897110148790482 0.0 0.0
10.0 0.09999999999992584 0.0
10.0 0.199999999999856 0.0
10.0 0.2999999999997771 0.0
10.0 0.3999999999996677 0.0
10.0 0.4999999999995511 0.0
10.0 0.5999999999994683 0.0
10.0 0.6999999999993983 0.0
10.0 0.7999999999993286 0.0
10.0 0.8999999999992587 0.0
10.0 0.9999999999991888 0.0
10.0 1.099999999999119 0.0
10.0 1.199999999999033 0.0
10.0 1.299999999998852 0.0
10.0 1.399999999998576 0.0
10.0 1.499999999998284 0.0
10.0 1.599999999997992 0.0
10.0 1.6999999999977 0.0
10.0 1.799999999997408 0.0
10.0 1.899999999997116 0.0
10.0 1.999999999996825 0.0
10.0 2.099999999996533 0.0
10.0 2.199999999996241 0.0
10.0 2.299999999995949 0.0
10.0 2.399999999995657 0.0
10.0 2.499999999995365 0.0
10.0 2.599999999995073 0.0
10.0 2.699999999994782 0.0
10.0 2.79999999999449 0.0
10.0 2.899999999994198 0.0
10.0 2.999999999993906 0.0
10.0 3.099999999993614 0.0
10.0 3.199999999993322 0.0
10.0 3.299999999993029 0.0
10.0 3.399999999992738 0.0
10.0 3.499999999992446 0.0
10.0 3.599999999992154 0.0
10.0 3.699999999991863 0.0
10.0 3.799999999991571 0.0
10.0 3.899999999991278 0.0
10.0 3.999999999991022 0.0
10.0 4.099999999991035 0.0
10.0 4.199999999991187 0.0
10.0 4.299999999991338 0.0
10.0 4.399999999991491 0.0
10.0 4.499999999991642 0.0
10.0 4.599999999991795 0.0
10.0 4.699999999991947 0.0
10.0 4.799999999992099 0.0
10.0 4.89999999999225 0.0
10.0 4.999999999992403 0.0
10.0 5.099999999992555 0.0
10.0 5.199999999992706 0.0
10.0 5.299999999992858 0.0
10.0 5.39999999999301 0.0
10.0 5.499999999993161 0.0
10.0 5.599999999993313 0.0
10.0 5.699999999993466 0.0
10.0 5.799999999993618 0.0
10.0 5.899999999993771 0.0
10.0 5.999999999993922 0.0
10.0 6.099999999994074 0.0
10.0 6.199999999994227 0.0
10.0 6.299999999994378 0.0
10.0 6.39999999999453 0.0
10.0 6.499999999994682 0.0
10.0 6.599999999994833 0.0
10.0 6.699999999994986 0.0
10.0 6.799999999995138 0.0
10.0 6.899999999995289 0.0
10.0 6.999999999995442 0.0
10.0 7.099999999995594 0.0
10.0 7.199999999995747 0.0
10.0 7.299999999995897 0.0
10.0 7.39999999999605 0.0
10.0 7.499999999996202 0.0
10.0 7.599999999996353 0.0
10.0 7.699999999996505 0.0
10.0 7.799999999996658 0.0
10.0 7.899999999996808 0.0
10.0 7.999999999996962 0.0
10.0 8.099999999997113 0.0
10.0 8.199999999997265 0.0
10.0 8.299999999997418 0.0
10.0 8.399999999997569 0.0
10.0 8.499999999997721 0.0
10.0 8.599999999997873 0.0
10.0 8.699999999998024 0.0
10.0 8.799999999998176 0.0
10.0 8.899999999998329 0.0
10.0 8.99999999999848 0.0
10.0 9.099999999998634 0.0
10.0 9.199999999998786 0.0
10.0 9.299999999998937 0.0
10.0 9.399999999999089 0.0
10.0 9.499999999999241 0.0
10.0 9.599999999999392 0.0
10.0 9.699999999999545 0.0
10.0 9.799999999999697 0.0
10.0 9.899999999999848 0.0
9.897110148790565 10.0 0.0
9.784692609918244 10.0 0.0
9.66186512498486 10.0 0.0
9.527663687265571 10.0 0.0
9.381035096339392 10.0 0.0
9.220828555768257 10.0 0.0
9.045786767736512 10.0 0.0
8.854535961160305 10.0 0.0
8.645575169391027 10.0 0.0
8.417264413847017 10.0 0.0
8.167811885740178 10.0 0.0
7.895259826295246 10.0 0.0
7.597469242951631 10.0 0.0
7.272102969379938 10.0 0.0
6.916607540131873 10.0 0.0
6.528192895511704 10.0 0.0
6.103810708667616 10.0 0.0
5.640130319512691 10.0 0.0
5.13351278094435 10.0 0.0
4.579982132668816 10.0 0.0
3.975193910361222 10.0 0.0
3.314401822869852 10.0 0.0
2.592419885437257 10.0 0.0
1.803581725058137 10.0 0.0
0.9416964895740705 10.0 0.0
0.0 9.00010000000243 0.0
0.0 8.000200000005481 0.0
0.0 7.000300000005135 0.0
0.0 6.000400000002569 0.0
0.901790731451151 5.000409820926855 0.0
1.657200899774397 5.000334279910023 0.0
2.289991063707192 5.000271000893629 0.0
2.820065163538221 5.000217993483646 0.0
3.264096435579811 5.000173590356442 0.0
3.636051481595835 5.00013639485184 0.0
3.947629914072366 5.000105237008593 0.0
4.208632181002628 5.0000791367819 0.0
4.427267949625672 5.000057273205037 0.0
4.610414277633563 5.000038958572237 0.0
4.763831845154243 5.000023616815485 0.0
4.892346298799659 5.00001076537012 0.0
4.892346298799748 4.99998923462988 0.0
4.763831845154455 4.999976383184515 0.0
4.610414277633943 4.999961041427763 0.0
4.427267949626277 4.999942726794963 0.0
4.208632181003523 4.9999208632181 0.0
3.94762991407365 4.999894762991407 0.0
3.636051481597624 4.99986360514816 0.0
3.264096435582253 4.999826409643559 0.0
2.820065163541503 4.999782006516354 0.0
2.289991063711534 4.999728999106371 0.0
1.657200899778495 4.999665720089978 0.0
0.9017907314530094 4.999590179073145 0.0
0.0 3.999600000002013 0.0
0.0 2.999700000005187 0.0
0.0 1.99980000000512 0.0
0.0 0.9999000000025537 0.0
9.897889398521345 2.93573355845387 0.0
9.906568249974548 7.060009441434234 0.0
9.913122631074113 3.64016132281653 0.0
9.922462129543863 6.354535290629151 0.0
9.917693659967533 4.354211663134567 0.0
9.909873057440208 5.637584487339942 0.0
9.914183254994697 4.950672966925282 0.0
9.913885043715895 7.666887930262611 0.0
9.91009668007573 2.351889069770817 0.0
9.905135696074536 8.138152454502785 0.0
9.913397459621809 1.849999999997262 0.0
7.099302372137626 0.297750452375005 0.0
7.095143729410097 9.700359990366296 0.0
4.942912558701401 5.095838627899509 0.0
4.315009232304429 5.165022115481685 0.0
4.946182472483878 4.906763777264103 0.0
4.317967462990024 4.825955043772673 0.0
9.916390871492647 8.64999999999792 0.0
9.921504649680616 1.368376469890358 0.0
8.292538149791614 0.206877570318844 0.0
8.292538149793597 9.793122429681448 0.0
5.884594439766573 9.587645267048616 0.0
5.794826292691579 0.3794853783929359 0.0
9.913397459621425 9.049999999998557 0.0
9.908526577714177 0.9568239351922434 0.0
3.456851160380649 5.315740054130451 0.0
3.457889657868442 4.707121019609468 0.0
8.945214200703926 0.1503383337970344 0.0
8.950161364448409 9.8413906539257 0.0
9.913862335499305 4.055887885208452 0.0
9.916697353372683 4.650158482607802 0.0
9.919076340414442 6.049999999994006 0.0
9.906994308667635 5.25749687748192 0.0
9.917490342358025 6.655979201891897 0.0
9.915757520293784 7.343848891656911 0.0
9.910049507471042 3.363474386285078 0.0
9.914471988502868 2.647400064832979 0.0
9.91474124160965 9.337490423485129 0.0
9.916971008170838 0.6499999999994355 0.0
4.307157269264427 9.509674045029644 0.0
4.331527375865619 0.4401616696422582 0.0
9.45434939180249 9.878397030523757 0.0
9.457696120412969 0.1270877537061785 0.0
2.555070293622606 5.422044496190925 0.0
2.566232917480916 4.608001224030952 0.0
3.026511860837692 9.332320638257093 0.0
2.945561971800619 0.5895662714727601 0.0
7.7395404387124 0.2511088946967771 0.0
7.736379255744154 9.745848826372828 0.0
4.687135269408529 5.122111433928926 0.0
4.688420821504113 4.871895064967488 0.0
9.910554884115975 0.3448356354522978 0.0
9.911230082250466 9.65764729394159 0.0
9.921953841410854 6.851023993342036 0.0
9.912065178606017 5.448170483544033 0.0
9.911660025326261 3.861846960030188 0.0
9.914847467973438 3.14501593945607 0.0
9.913397459621425 5.849999999993703 0.0
9.913397459621425 7.849999999996735 0.0
9.906916878988277 2.15455769998631 0.0
9.913397459621425 8.349999999997479 0.0
9.909472363117661 1.640528221515488 0.0
9.913987325695956 1.152857110636247 0.0
9.913397459621425 8.849999999998241 0.0
0.9100099990995943 2.614215977520411 0.0
0.8395284981715456 7.451196254860987 0.0
9.723278867451556 9.898135916635193 0.0
9.723316350887044 0.09841820909386662 0.0
1.385819164827588 4.454539963646463 0.0
1.338343629665047 5.523111536005823 0.0
1.377179700550677 0.6809168304959698 0.0
1.418060461092743 9.285896715136046 0.0
9.91268220142518 0.1457914080939694 0.0
9.906737126737994 9.845745933882352 0.0
0.7108351382691361 6.537941170074089 0.0
1.527735020267026 6.915620208855231 0.0
1.630993885659103 7.838271825205868 0.0
2.232760943566823 7.370850737296832 0.0
2.243414218068206 6.688299277952821 0.0
2.779655053105118 7.021588754814074 0.0
2.80227799359795 7.632420170547022 0.0
3.282022065908813 7.305859666021318 0.0
3.327597298795347 7.857554136825748 0.0
3.743210251018715 7.549183328204379 0.0
3.716353232200752 7.062036086888612 0.0
4.111978858674101 7.27497101169417 0.0
4.104192177581432 6.879858986267289 0.0
4.436230765617037 7.045693351607117 0.0
4.430360014817357 6.703971783962796 0.0
4.732390145036301 6.849841042423394 0.0
5.056161327708878 5.095276573498806 0.0
5.111586796021131 4.999081142133581 0.0
5.169267363407189 5.09444870412406 0.0
5.223795108752053 4.996986220359468 0.0
5.281480803887719 5.092780870372803 0.0
5.335670761900611 4.994887492556936 0.0
5.393485214772442 5.090486192743301 0.0
5.447323082877892 4.992601527033996 0.0
5.505243219343024 5.087953380710069 0.0
5.558739102026105 4.990287787962959 0.0
5.616491581184779 5.085335255235766 0.0
5.669852346908056 4.9879269227514 0.0
5.727502713908907 5.082679981817038 0.0
5.780766004135139 4.988313988715834 0.0
5.838244881129535 5.080480568766611 0.0
5.891357695677371 4.986433849408193 0.0
5.948696036767613 5.077969900389505 0.0
6.001601341641615 4.981313698556656 0.0
6.058851024265095 5.074871552128682 0.0
6.111614020704875 4.978360695880202 0.0
6.168801161530775 5.072044953270978 0.0
6.221368818778567 4.975825765213497 0.0
6.278268309066882 5.066182320461055 0.0
6.330814273567539 4.972837984645718 0.0
6.387565032421376 5.062889771971895 0.0
6.437476667631405 4.971693683589553 0.0
6.496181111585419 5.060210690175857 0.0
6.539454812256072 4.964658165361536 0.0
6.604198202576491 5.056387520850258 0.0
6.648506025747331 4.939374587506267 0.0
6.714026758992516 5.05873885840664 0.0
6.764418045981209 4.959246676066148 0.0
6.8219334571197 5.055299567406268 0.0
6.873708540948134 4.960426349093742 0.0
6.930181428849307 5.053461390218819 0.0
6.981893615341967 4.96435459462232 0.0
7.037791764774784 5.051219747103022 0.0
7.090993561518408 4.96392420322464 0.0
5.504417457283294 4.900897920552702 0.0
7.145434864123609 5.048960634292441 0.0
6.054532384032612 4.883956083938546 0.0
6.738027949040956 4.850032323068674 0.0
7.198432914526514 4.956325226333323 0.0
7.252637187936749 5.046012229327236 0.0
7.30926729605109 4.948903216650376 0.0
7.248106275544042 4.860306312845646 0.0
7.363100274863074 4.849952416808486 0.0
7.365733472701664 5.039519554615095 0.0
7.308483293090149 5.137557220352172 0.0
6.768399513646964 5.145609705119954 0.0
7.422800035311104 5.132251445551834 0.0
7.358273518796229 5.235980394389298 0.0
7.480824155801127 5.227946127939927 0.0
7.302193400058628 4.761917474298247 0.0
7.413570879789824 4.754555110721153 0.0
7.414392998903179 5.334729114426734 0.0
7.352769630272076 4.660405502266205 0.0
7.467556835255426 4.658352623795039 0.0
7.536246869015014 5.328986926716081 0.0
7.478865844607288 5.432598185493195 0.0
7.406396991826072 4.556956233957538 0.0
7.523581002009154 4.552005631348623 0.0
7.597792398573263 5.429506106314967 0.0
7.540511043402902 5.53619421580439 0.0
7.46214474876342 4.452580994318881 0.0
7.5852185078634 4.446021810672608 0.0
7.663329342323453 5.533453399066901 0.0
7.603478967594521 5.643227430483237 0.0
7.513450346818673 4.347641323140766 0.0
7.640744971722214 4.333388343316237 0.0
7.727671715775243 5.642390483050116 0.0
7.667774597993788 5.753188858425915 0.0
7.570065256728661 4.230515669344811 0.0
7.702881065467917 4.218307808529532 0.0
7.638288257073729 4.107994211855027 0.0
7.493362356301017 4.120843902105771 0.0
7.779018500630071 5.521233457321821 0.0
7.794641287388929 5.752364621610818 0.0
7.73369774483611 5.865894287356292 0.0
7.600834531784728 5.867752110500446 0.0
6.233038857278689 5.15645045634683 0.0
7.669727996028819 5.985665563643058 0.0
7.528582452554481 5.987393423295551 0.0
7.598722674572824 6.11001923494443 0.0
7.778305000222867 4.104318908265786 0.0
7.704329019832056 3.987744174608892 0.0
7.838453459801382 4.213322728668484 0.0
7.864495721576461 5.862306066517277 0.0
7.846552353360407 3.98481756181946 0.0
7.769730409703277 3.86544808681145 0.0
5.785249360396857 5.177248808588045 0.0
7.908837087876153 3.861484036275285 0.0
7.834824606222196 3.740586825753288 0.0
7.97685993406276 3.736209527152902 0.0
7.89665098770825 3.615501862931453 0.0
7.753228010315262 3.617800245018972 0.0
7.826063013090472 3.483173292579822 0.0
7.66789744383048 3.48859328808356 0.0
8.042515855796823 3.595394268381807 0.0
7.75200750488492 3.341279823834038 0.0
7.582870318332553 3.346584916806707 0.0
8.120807847415062 3.732493963388337 0.0
8.189783970303546 3.61159165475499 0.0
7.657801000286734 3.200439907646711 0.0
7.486781956172036 3.201402473247712 0.0
7.452595103886905 6.11418616185016 0.0
7.527098033550077 6.243191052852112 0.0
8.260502906807751 3.728437634721859 0.0
8.327629317451398 3.608173631356984 0.0
7.372763970891452 6.247552889754036 0.0
7.456170570815929 6.384992468962936 0.0
7.621837793616884 6.376077080857113 0.0
7.548039512904141 6.520750676893614 0.0
7.717475944451644 6.514856553988943 0.0
7.636658166268699 6.661648164052906 0.0
7.807468267259438 6.664076174524672 0.0
7.718022764310774 6.817938967122142 0.0
7.887785766941087 6.807440365887151 0.0
7.545993589083432 6.815070675854734 0.0
7.809874785067209 6.967537287475282 0.0
7.975643812145337 6.948729406725126 0.0
8.396477808021062 3.725446935061211 0.0
7.565651643157136 3.044354774611752 0.0
7.384328725505071 3.043048915147076 0.0
8.056405351948353 6.802790889114673 0.0
8.14128318237188 6.940027831915737 0.0
8.064621760266059 7.086348792208953 0.0
8.225003598857908 6.805225152373254 0.0
8.463085452993242 3.606998510553562 0.0
8.230426869720718 7.079551841000411 0.0
8.155262284174286 7.224761758176069 0.0
8.530696760758996 3.721683301125054 0.0
8.596669886994064 3.604516769862316 0.0
8.528531058025589 3.490411531312337 0.0
8.320451770844851 7.218191678954744 0.0
8.245273958732774 7.363444652121271 0.0
8.66324687389452 3.717094013035765 0.0
8.600103125209296 3.831913857228569 0.0
8.662131102573216 3.488322280861316 0.0
8.594166125380536 3.374071873435548 0.0
8.411074336066186 7.353871649576861 0.0
8.339644223432472 7.505172120620427 0.0
8.165883718619623 7.513159193685373 0.0
8.483453820080417 7.2082285366806 0.0
8.261200365730348 7.657400951288149 0.0
8.081570576666843 7.670933304838066 0.0
7.471613195794025 2.872548423100142 0.0
7.268733678357991 2.881209199257603 0.0
7.184255506995786 3.084448584600423 0.0
7.065899603697895 2.883902449336828 0.0
6.960163891183182 3.081014635802978 0.0
6.847612128388715 2.885646860602812 0.0
6.739800729737967 3.078895733381448 0.0
8.729373804596847 3.827689165637365 0.0
8.668550856907444 3.938702277545298 0.0
8.72770789162863 3.371798381178293 0.0
8.659764090070603 3.257493349874974 0.0
8.436453928793245 7.648724489148887 0.0
6.619080287792762 2.90880017416788 0.0
6.511740956842646 3.09340654756684 0.0
8.793527829963288 3.935174834810256 0.0
8.736430500996828 4.042719556852617 0.0
7.631260330584174 4.565300771328012 0.0
8.359058396840432 7.801678182761817 0.0
5.339436215072359 5.184870243702279 0.0
4.994031736761993 5.193306795607908 0.0
6.383387675268097 4.87760645722207 0.0
7.29117392392962 6.382172868329505 0.0
6.378196825372041 2.907113079755629 0.0
6.269817199014261 3.12412150658573 0.0
8.793149127377946 3.255386294257182 0.0
8.725774239201558 3.141596687892195 0.0
8.857434600673502 4.041295940541356 0.0
8.802868937128341 4.1471119953668 0.0
8.532045262478793 7.7905977476835 0.0
7.364542641624493 2.699128473342751 0.0
7.571677611088925 2.695732556686516 0.0
6.723058333614999 2.672341359410618 0.0
8.456744924757372 7.94483904450548 0.0
6.140831279784704 2.921247401137864 0.0
6.02419219050745 3.14358702955763 0.0
8.916255604212301 3.934279868822481 0.0
8.859287250884009 3.140226640574265 0.0
8.791092798057303 3.025929352146465 0.0
7.210445465986021 6.245773134960393 0.0
7.120884161792869 6.385155584680196 0.0
7.036931702064287 6.240721609143972 0.0
6.943722280007011 6.3869279517155 0.0
8.920094519678617 4.144837222494242 0.0
8.864374107136287 4.250930406527029 0.0
7.347569838739255 4.463467417508182 0.0
5.90383431757064 2.935113219563906 0.0
5.783476009580765 3.156456199832474 0.0
8.626013191558314 7.935092223505354 0.0
8.687240186957197 7.796697889991163 0.0
5.642059327424706 2.903018174330269 0.0
5.52647853955939 3.162549070310043 0.0
8.555300051897738 8.086169516016518 0.0
8.405624441178524 8.083972416481254 0.0
5.374124307190728 2.945480555950917 0.0
8.935805220807357 3.249260758206028 0.0
8.981625171409894 4.247375537584228 0.0
8.924725364486765 4.352101286657735 0.0
8.807208588134106 4.356163101450244 0.0
8.868277832430604 4.45657124153171 0.0
8.75099635287701 4.460644845248524 0.0
8.812385950597063 4.560891222623518 0.0
8.693833206943118 4.564602972998703 0.0
8.756474732548273 4.665720853686476 0.0
8.63721608225855 4.669394550615355 0.0
8.700108119351134 4.770682016274914 0.0
8.81920502916846 4.767536120893284 0.0
8.76355311338807 4.871451945248518 0.0
8.881442328033694 4.868382238751069 0.0
8.826433523510634 4.97132552240372 0.0
8.943387824985514 4.967694248194483 0.0
8.888718468126953 5.071044784833541 0.0
8.580377663835254 4.774669738817985 0.0
8.770572242937233 5.073880380431421 0.0
8.832915096600454 5.174518948293615 0.0
8.952224483821848 5.170970838320107 0.0
8.897282771771884 5.275476392171722 0.0
7.463928467290875 2.513944501591933 0.0
7.675935950092034 2.509420347143072 0.0
8.924252417741767 3.024418701372628 0.0
8.857265893102921 2.911213535286156 0.0
8.776981063213334 5.27944309004916 0.0
8.840710910770163 5.380165700477552 0.0
8.960876896785969 5.375521424256389 0.0
8.904555918255223 5.482125846038813 0.0
7.567193097677677 2.32750151280277 0.0
7.780880844888839 2.323064027160363 0.0
6.851602118390116 6.234522818184622 0.0
6.758680682687229 6.389359516748128 0.0
6.66345977321418 6.231254850996584 0.0
8.715764716958308 8.079994249772627 0.0
8.65189989696114 8.227534663647639 0.0
9.042229096541828 4.348551764001607 0.0
6.436774206993324 3.316782326998922 0.0
7.590527613340588 5.22651784724799 0.0
9.024366884701616 5.476726561488805 0.0
8.968734351641839 5.583879050892151 0.0
8.845941080047659 5.586406316932274 0.0
8.909881305857882 5.690482454668167 0.0
7.348726871578975 5.44047403999932 0.0
6.567070253986433 6.398115757512583 0.0
6.697077150072261 6.553426749743366 0.0
5.252377383990728 3.187782967482479 0.0
8.988440431820699 2.908621158637298 0.0
8.922541972760119 2.796420836075996 0.0
6.466806010659505 6.229115583261771 0.0
9.033851153821296 5.686506775615425 0.0
8.978340519963718 5.795772485582058 0.0
8.85111463793018 5.798672910287243 0.0
8.922171984280597 5.907237880910408 0.0
8.795190680908043 5.911854068712683 0.0
8.864373398892472 6.019728357749566 0.0
8.991346995940626 6.014539153309398 0.0
8.93374019140187 6.12698887312768 0.0
5.095192648098848 2.952353430985476 0.0
7.672651464908932 2.141715359830917 0.0
7.886266921042761 2.136211284120189 0.0
9.098474286589756 4.245971410451114 0.0
8.813172564986438 8.216887361735234 0.0
8.74802978243154 8.366104673219047 0.0
9.059985162956899 6.120982589539211 0.0
9.00342813739303 6.233245043891739 0.0
4.961413514304496 3.214209167276753 0.0
9.05248113004685 2.794651022570942 0.0
8.986028039118027 2.681341972594222 0.0
5.671890458441996 3.377122473800023 0.0
4.755829262593116 7.184480462344647 0.0
9.158258644940048 4.34465968221255 0.0
4.799687186662534 2.961354824469195 0.0
6.030554747591715 2.726787502996874 0.0
8.938327180212585 8.34758372042188 0.0
8.847392320655468 8.503370672816716 0.0
8.67342124373679 8.518117686968314 0.0
5.234423106934083 2.694925204361751 0.0
8.964923046453565 8.185313058214797 0.0
7.456650986668838 2.134076476407834 0.0
9.111732084821366 2.897226832609386 0.0
6.368055837513985 6.402805870976705 0.0
6.265629899005033 6.226581076317183 0.0
8.736327196352686 6.026404178766982 0.0
9.117473097358854 2.67987006607594 0.0
9.052137415465204 2.565428515518978 0.0
7.781001557847192 1.955874236406257 0.0
7.992134447300669 1.949184538864554 0.0
8.593074792993455 3.143159483125708 0.0
9.1291360203536 6.226877897052981 0.0
9.072154326613617 6.338696745620542 0.0
8.916532550320525 2.566986282201109 0.0
8.984021113721658 2.449252898983242 0.0
9.178032243215632 6.120533546076094 0.0
9.213703592343162 4.244823670856978 0.0
9.11972142641474 2.449071238668887 0.0
9.052853896812186 2.33190758581705 0.0
8.635035926402708 4.462329956179506 0.0
8.773614475966344 8.657865377672689 0.0
8.596400917257634 8.67759750279447 0.0
8.942023339420883 8.644678093589654 0.0
9.19471670675691 6.33096438039349 0.0
9.138460613363325 6.443043552768813 0.0
8.66620319432524 5.916297234509582 0.0
8.606669825267202 6.032658196729024 0.0
9.27222540210304 4.341341907533128 0.0
9.013782808177437 6.451040569407859 0.0
9.08360982569773 6.55729980456602 0.0
7.885622149776354 1.768093045890686 0.0
8.095672144455353 1.768790621151345 0.0
9.208772072925791 6.549717411809656 0.0
9.154272208194383 6.662613503537815 0.0
9.187669783927937 2.334640996932141 0.0
9.122379015831417 2.215832190697178 0.0
6.164077036161143 6.404611236428829 0.0
6.062367614988677 6.224307160647549 0.0
8.987075041759633 2.211477580983978 0.0
9.056972755801603 2.093573581203428 0.0
9.194557288902232 2.096029761809264 0.0
9.131223008370409 1.972713028695079 0.0
8.87381302587057 8.795793668920256 0.0
9.039169086943392 8.781606667490083 0.0
4.662813350519927 3.228118291851354 0.0
4.474181267994617 2.945703616023359 0.0
6.562627723301209 6.075544382232434 0.0
9.326886053211574 4.243083624343211 0.0
9.280374192897945 6.656072830232892 0.0
9.224718905178564 6.766740750539347 0.0
4.703284910421452 6.528907865005451 0.0
8.955136474970331 6.565989985649191 0.0
8.998148826814893 4.865480736169776 0.0
8.99429836796776 1.965972383552685 0.0
9.065669391141741 1.847195105148808 0.0
9.207236162050343 1.853010386995843 0.0
9.143218073349985 1.725630086781897 0.0
8.998867447699345 1.719378449325465 0.0
9.082595782768397 1.592017827427701 0.0
8.92804562738841 1.585238202229766 0.0
9.01637794607019 1.453847302675876 0.0
8.854253119154375 1.446306868730686 0.0
8.941620273019874 1.320083886766936 0.0
8.775393064215876 1.308487027359826 0.0
9.102170347200483 1.324733726345249 0.0
9.013857060361985 1.178821526410403 0.0
7.991031819452564 1.587689878441685 0.0
7.767218744640202 1.595993197647291 0.0
9.191539171305216 1.194087248761656 0.0
9.123965901037613 1.057102462689568 0.0
4.853921953226772 3.470213116851758 0.0
7.496563223334782 3.470157221608763 0.0
8.536691379028115 5.921845852206257 0.0
8.475496498707471 6.037633662010236 0.0
7.978668526342969 2.307231488316941 0.0
9.384721922092124 4.337357165846226 0.0
9.331039180200886 4.435926256444196 0.0
8.546261775564837 6.150267290476958 0.0
8.411727261785726 6.155319300628062 0.0
8.972203609044218 8.930944433074036 0.0
9.133480321468399 8.90955269607895 0.0
9.197778815538276 8.768743880012563 0.0
6.162231825784922 6.05277753404107 0.0
5.962111081146334 6.046949845237622 0.0
9.268727788642101 4.146883230687689 0.0
9.380694211527906 4.144811697563401 0.0
9.323823335199954 4.049557759546529 0.0
9.283324894520613 1.736313094621396 0.0
5.858151623803662 6.22041808248046 0.0
5.759668475561988 6.038806123495502 0.0
7.836860473863919 3.191674397465999 0.0
9.348591928839294 6.75855034547469 0.0
9.293979592221298 6.870213350675044 0.0
9.170543172728557 6.879819332293818 0.0
9.240028263813034 6.983394994050525 0.0
4.347372565145963 3.312731475520695 0.0
4.114183445909965 2.96879678229065 0.0
8.616264880152233 4.042035981070631 0.0
9.403174760076901 6.650407069150438 0.0
4.173860112179449 7.723461240865885 0.0
9.365302975518428 6.973476802087294 0.0
9.312420275675276 7.088420778208979 0.0
9.184876614539778 7.0978133687822 0.0
9.25921281729617 7.204979813006656 0.0
9.12816413817609 7.21569648263899 0.0
9.203944409919862 7.322703303071253 0.0
9.334311975087337 7.311477957762272 0.0
9.280415785210538 7.428795599957155 0.0
9.274060219641907 1.066603180421249 0.0
9.211820491509728 0.9316562593680151 0.0
9.050684011148748 0.9017681241401576 0.0
9.441953732403995 4.432092590771756 0.0
9.394725873909666 4.526051349391942 0.0
9.43453556160865 4.048003950509361 0.0
9.378043599351757 3.952631412328806 0.0
9.289691247910705 8.890746792319852 0.0
9.228148443138926 9.030109127390128 0.0
4.440757888677695 6.389562448928118 0.0
4.689874463978985 6.239329075084555 0.0
4.291519540095677 2.622920583112654 0.0
3.886073352912894 2.632778677714434 0.0
9.344015622314338 1.202401041544343 0.0
8.193292196814806 3.849649660906171 0.0
6.960946604527747 6.07044529864598 0.0
9.347708267319902 8.756364147482309 0.0
6.826423138602714 3.261415861395883 0.0
6.06309517882478 5.884563187328262 0.0
9.4085057714426 7.414123963607981 0.0
9.356416821537886 7.532359471354527 0.0
5.042074134251055 6.938947182785697 0.0
5.063988238156824 7.311205832605263 0.0
3.946666851334923 3.30681624613374 0.0
8.189857914071878 1.939951128540477 0.0
7.880690277686857 1.38928908049477 0.0
7.63766396748483 1.399736360041063 0.0
9.345004233592562 1.857695941115052 0.0
9.440465164139875 7.085860901905448 0.0
7.918332480761888 5.744468010879592 0.0
9.08007135068879 5.372457017512481 0.0
8.78639561093144 3.718391405525285 0.0
9.356843485085705 0.9414458825132457 0.0
9.29705128845331 0.8103081541678832 0.0
9.251825423225316 2.451701826351773 0.0
8.483895366325516 6.270717564685176 0.0
8.346386886249478 6.275973306650227 0.0
9.493299170161215 4.138582531223591 0.0
5.321115649032961 7.117073603021904 0.0
5.354076009109965 7.436189411362466 0.0
5.597984079819928 7.254284331170681 0.0
5.644042313435943 7.564172740776336 0.0
5.383963016128051 7.753854027984002 0.0
5.681168258142109 7.880444993178456 0.0
5.935548099874979 7.687258900444162 0.0
5.979508404301389 7.994332725561488 0.0
6.21936843555201 7.802335560754011 0.0
6.267092590637372 8.104873033518185 0.0
6.498845418385807 7.917606504106031 0.0
6.544600005636809 8.209910620392591 0.0
6.77336078689533 8.027284686082275 0.0
6.814840179123049 8.311778392637773 0.0
6.721304148677048 7.737863326704131 0.0
7.031320924898797 8.1335673274533 0.0
7.077388928622946 8.403901803728003 0.0
5.417471987089176 8.090112295667405 0.0
8.845427688507666 2.446352368201366 0.0
9.318512319918124 2.339233739859646 0.0
9.380241452597096 2.451895615249572 0.0
7.283805558009199 8.237518806365102 0.0
7.329200330160381 8.497045124353782 0.0
7.233272584416691 7.991590926766813 0.0
9.142592248414191 5.471315142785471 0.0
9.196303265878848 5.36738298742727 0.0
9.25795832955665 5.465260877691205 0.0
9.310581303233182 5.36341558704714 0.0
9.371094700882272 5.459458038195667 0.0
9.422767107822985 5.360687090455724 0.0
9.36402660964156 5.264821436196721 0.0
9.474220736978928 5.262802348886269 0.0
9.41680330511366 5.169477108906666 0.0
5.168675939028436 4.895496152382537 0.0
9.482591449057548 5.454699312257291 0.0
9.431567605310825 5.552723344040521 0.0
7.531449703396948 4.741663470323411 0.0
8.517293123442691 4.672601123164268 0.0
8.459978676626639 4.778466809901586 0.0
8.396595115309985 4.67568709170855 0.0
8.338966609235166 4.782101664607259 0.0
8.275355646032752 4.678829956447008 0.0
8.217675280223542 4.785699596769931 0.0
8.28149024865807 4.888803783902183 0.0
8.16019781596952 4.892696417098926 0.0
8.22433278506531 4.995725219088695 0.0
8.102825704443651 4.999629142625341 0.0
8.166887930010795 5.098242831115916 0.0
8.034904900788316 4.896825406879729 0.0
8.15353539905931 4.682103688185489 0.0
8.211891449058882 4.574219757233394 0.0
8.290305306104333 5.094007100958221 0.0
8.225684228618732 5.201525567655179 0.0
9.444618942559746 2.343141375196729 0.0
6.929446520625337 4.868116916840016 0.0
5.737810725167649 4.893891407574175 0.0
8.720389971487277 5.38508368411851 0.0
8.805734920311323 8.951818172412821 0.0
8.905272694453211 9.083303226359831 0.0
6.006155038818204 5.171375272745409 0.0
6.431496448228514 5.152985998213245 0.0
9.052675024457304 7.106590131831544 0.0
7.740007013494393 6.09727525827826 0.0
9.375852260355511 9.013078430361404 0.0
9.32035844773103 9.14584923943073 0.0
6.989707597683965 5.146377438798643 0.0
9.488190206836386 3.951168069367155 0.0
9.432429152094464 3.855725756072153 0.0
5.568386402814275 5.185723849666124 0.0
9.525561551078322 5.166162126187324 0.0
9.465026391994275 5.072601962964018 0.0
9.320357339516937 3.857795423728873 0.0
9.375955927831914 3.759314274140895 0.0
9.261783786753899 3.761412578759438 0.0
9.31820665563318 3.661845422072752 0.0
9.431798673168924 3.660830894813109 0.0
9.374584413615914 3.563138564686839 0.0
9.48759661134647 3.562294297118573 0.0
9.431339678707085 3.464016717943268 0.0
9.417896212887529 1.746970678437863 0.0
8.731705369070733 9.110902182838881 0.0
5.652297951447118 6.21188565774667 0.0
5.569122518069258 6.024400786163834 0.0
8.257007204149394 3.505875091031567 0.0
8.717428603143034 2.925525757227976 0.0
6.882852832747376 8.57686572931064 0.0
6.337330066435714 8.416819098143066 0.0
9.50188906539997 4.521022403818629 0.0
9.453500859905136 4.617181635748691 0.0
9.46806769570129 6.749352117850711 0.0
8.836822104875719 1.72282859852854 0.0
7.481071063421426 5.64593758994851 0.0
5.668814988976305 5.86611128457842 0.0
5.487644760735084 5.847591822776978 0.0
8.993992818065195 7.228173913870249 0.0
7.98322414937693 7.229980191466666 0.0
9.22810751684646 7.54864871395298 0.0
9.304103360459063 7.654622011545798 0.0
9.432787371848761 7.633691049023619 0.0
9.382619818023882 7.759136995934441 0.0
7.239096822516492 4.679179578301165 0.0
9.47692479956498 1.861231395362419 0.0
8.041243110813022 5.095895152648969 0.0
6.190208781188077 7.509864122823853 0.0
9.283062812782122 4.549418667685757 0.0
9.503847665760087 2.450295046295932 0.0
9.443345385250678 2.557904120404248 0.0
9.52009568463353 6.644015937008899 0.0
9.203119005973903 3.662458522935253 0.0
8.406198651282708 5.92630414760378 0.0
8.467263597743843 5.811987729136874 0.0
9.461423029059445 9.128120577356565 0.0
9.408445330070542 9.26024300250086 0.0
9.266505293379728 9.277952925446408 0.0
4.14874709022218 3.631681332690154 0.0
9.437448107949258 0.8198473430736303 0.0
9.376993771693973 0.6910550697058979 0.0
9.22882356848217 0.6931820370818127 0.0
4.451823867195988 6.103664366188579 0.0
4.200031743909027 6.232039028149317 0.0
4.687154754667774 5.975132870483986 0.0
6.268889397098538 6.592235545990395 0.0
7.509366161722768 8.340075462391164 0.0
7.564775703413765 8.59800936579159 0.0
9.542148732924264 3.854614593058991 0.0
7.036231103929761 6.550562550831048 0.0
4.089373665437328 2.268193930262139 0.0
3.642558884866483 2.250386188148396 0.0
3.442182385618804 2.651948803899947 0.0
3.146832503011753 2.222630466765926 0.0
2.948870467975985 2.805088883766417 0.0
9.352005315330274 5.067356449300542 0.0
9.31729677031493 3.462944187594675 0.0
9.37428383619102 3.365546369736205 0.0
9.4883538239391 3.365384871181599 0.0
9.432147665178338 3.267287636377487 0.0
9.25034519267688 7.775848812012313 0.0
9.332091350002502 7.881724023243533 0.0
9.462101000264603 7.86490055671988 0.0
9.413353271651825 7.98561007219363 0.0
8.273592814723814 6.158623919352561 0.0
8.207135014732339 6.280394934566054 0.0
9.541483811580331 5.548224291759592 0.0
9.491365919893726 5.644847811894615 0.0
8.088095771120983 4.577581369371366 0.0
8.14760102783746 4.468303741922308 0.0
9.556217963323956 4.414867468889523 0.0
9.543667331547693 3.266908751519594 0.0
9.489307652535885 3.169908976697059 0.0
9.26285575842982 8.635341362685686 0.0
9.403220742003983 8.621447866627538 0.0
9.326013417886902 8.506778946171965 0.0
9.455477927154853 8.503896705359047 0.0
9.566646674069602 4.611465258087684 0.0
9.499341049870914 0.9352184973273918 0.0
8.683891958597638 1.444705608998412 0.0
8.599973456173778 1.287265568270043 0.0
7.760988189317371 1.175381292562583 0.0
7.50927661322749 1.171223823957793 0.0
7.380927152434357 1.411062577009695 0.0
7.242417847270241 1.170759311509981 0.0
7.107236746116019 1.421234419770886 0.0
6.960799033544566 1.169618322344823 0.0
6.817786081200392 1.434174581170586 0.0
9.48095050141868 8.738557748483624 0.0
9.319762046171894 3.263060331456388 0.0
8.920653400180534 7.117307656029475 0.0
9.452431221190624 6.544166520883111 0.0
9.571407933653493 6.540336592280795 0.0
9.507586285214174 6.443281357841339 0.0
9.575252974749443 5.070210512157044 0.0
5.755172844377253 6.370710487467459 0.0
9.541351959064952 7.969072511059531 0.0
9.354607289792183 9.3921968735401 0.0
9.495213435762107 9.37218405175897 0.0
3.77688136092967 3.643094492921176 0.0
5.460967180339239 6.159077196937325 0.0
8.656589552918996 5.283032675040985 0.0
8.599307076390474 5.387421722684671 0.0
9.584017606465821 5.263931993965828 0.0
9.51536593891754 4.977534386249715 0.0
7.788544970111893 2.70578432810479 0.0
7.381746833264364 8.755477463411431 0.0
7.615969996822885 8.852710176548548 0.0
7.783643411970649 8.691528137204457 0.0
7.845017394185501 8.938777577473743 0.0
8.570520580943368 7.342304222498308 0.0
9.103648004226827 5.781084627507008 0.0
8.338082930126799 5.815990105349368 0.0
8.930848895071895 4.561111316304916 0.0
7.381089602119859 5.983657236035151 0.0
8.42066837692862 6.393608568217351 0.0
8.888256157021065 6.459558428285236 0.0
8.826495664731354 6.575679897210801 0.0
4.22522220414496 5.921354747981145 0.0
3.943296448343383 6.075578573904587 0.0
9.563175937841836 2.554860696349795 0.0
9.505342423182917 2.656889632284623 0.0
6.660863480070611 1.168750929063519 0.0
6.518316961679488 1.436478598119306 0.0
6.683474168246802 1.694104067636375 0.0
6.376799057174731 1.707382100972048 0.0
6.205091481342603 1.443621641108414 0.0
6.058670988071357 1.728841803855816 0.0
5.877457486049096 1.454297236926778 0.0
5.724979192982589 1.756666409586195 0.0
5.529885788012015 1.462283739157555 0.0
9.514953777019835 0.7018468683209754 0.0
8.398665270372675 5.702731562702358 0.0
9.456442249775696 0.5772068858285652 0.0
9.565795671866349 2.345573662774494 0.0
8.830758563027459 9.247271599108435 0.0
8.523580738257648 4.88015211128435 0.0
5.580123316488715 5.701889892660689 0.0
5.398591029446707 5.685938459654249 0.0
5.367686360823392 1.778740548277203 0.0
9.546603444041448 1.754984055696778 0.0
9.489649223089446 1.641312329051244 0.0
9.617973952467912 3.363804764345866 0.0
9.584322830999731 6.729956156156573 0.0
9.597221861144487 3.948534024289882 0.0
9.49401963819799 8.089507968561776 0.0
9.207321074262563 9.416906871900888 0.0
8.27185428346661 4.464932191097996 0.0
8.207416067213774 4.35878753684812 0.0
8.332747746635944 4.354903699457511 0.0
3.990181919126853 3.930792395858886 0.0
8.267392138262498 4.254008221702929 0.0
7.997788712685495 1.196805377512679 0.0
9.600316638269724 5.639973985281733 0.0
9.550939606739425 5.737313319038155 0.0
9.44084303195315 5.74233753256161 0.0
9.50112296154558 5.834555019909565 0.0
8.897429225733994 6.685415510921676 0.0
8.762930941408914 6.695907295903629 0.0
8.654628175336732 9.278157371342388 0.0
8.544676900803436 9.133790942553834 0.0
5.294904777716057 5.855935872688884 0.0
5.216749389964556 5.66865685845661 0.0
9.508453581298625 2.239460033375932 0.0
9.599691370793206 3.169496930704394 0.0
9.546615051106684 3.073514534194011 0.0
7.484714626923596 5.028675123117963 0.0
9.588496050271255 7.850836295555126 0.0
5.153197381012662 1.471340286561097 0.0
9.433168304679345 3.071871997104804 0.0
9.610464706874994 5.829217654498672 0.0
9.561407772947403 5.926179534044419 0.0
8.273381980676042 5.705233340662362 0.0
8.330794188929296 5.594351887246082 0.0
8.207319603076424 5.596747949305344 0.0
7.251338559467102 5.233758892662348 0.0
8.708518799790543 1.130513882092466 0.0
9.590155250193266 0.5878623138195824 0.0
9.389919385420015 5.841079912164009 0.0
7.991397852194216 5.859910582924319 0.0
9.624951589233206 4.975554514425905 0.0
7.240016788025947 2.531866266726309 0.0
7.635666783493215 3.873554782053258 0.0
9.608476620993713 1.863530872936442 0.0
9.365330459496413 8.10677840682376 0.0
8.775076110585598 2.572737931759856 0.0
8.699389445914996 2.444602334375113 0.0
8.625078713232146 2.580891022578613 0.0
8.54447196848446 2.447624719286678 0.0
8.468898498943965 2.586757328881282 0.0
8.62282309213608 2.307826916202421 0.0
9.622102662978762 6.439307895185218 0.0
9.561995355724862 6.35103962032292 0.0
3.898245450818314 1.856155797593496 0.0
9.681759177700954 5.07069253017652 0.0
9.059254996454502 4.963357716933865 0.0
9.113144532326562 4.861710138088372 0.0
9.62140874877204 2.656009146517733 0.0
7.884510615470827 0.9666888912541309 0.0
8.14902661050739 1.005010215149227 0.0
8.491263206618079 8.527197931363634 0.0
8.408859203395778 8.697060715788105 0.0
6.54422152733529 1.954566069381189 0.0
9.563546573097593 2.755667904356369 0.0
9.453065492925557 2.761122255953964 0.0
9.676889098520615 2.755084315170127 0.0
9.678287124781653 2.556838324720633 0.0
2.60254317790297 2.278874965850319 0.0
9.211706272534968 4.050470567310489 0.0
8.526711683538949 5.698821878547752 0.0
8.296604023060945 8.533761944401608 0.0
9.649704314258118 5.543946557831669 0.0
9.651176136337964 3.85122804518279 0.0
9.44590154800397 9.498503704959054 0.0
9.580491248736612 9.476376347552954 0.0
4.3239388803087 3.921156392977062 0.0
9.65737873521736 3.075324100817917 0.0
8.128000846282253 6.160273991836929 0.0
8.06242981852327 6.292371360998262 0.0
8.500465019503922 1.442700595221201 0.0
9.615253212967009 1.649819368149096 0.0
9.561768620580791 1.538553925606111 0.0
9.435477757657937 1.527391516499924 0.0
9.627993450010088 2.242685831452484 0.0
9.5338252733548 0.4673994795805215 0.0
9.398055066504014 0.4589059948533885 0.0
9.669486082509058 5.920177035588319 0.0
9.621072177439727 6.016493814615133 0.0
9.506185962103057 6.018397021409126 0.0
9.196884440497488 7.898824858961557 0.0
9.112591143666748 7.789491461180181 0.0
9.664357762385308 7.950712034233033 0.0
8.46233617997115 2.308903464128035 0.0
8.547917980328803 2.169381684694277 0.0
8.139931430059324 6.410762600521521 0.0
7.672499127532963 9.099143622036436 0.0
7.91372855627271 9.178704612763656 0.0
8.463425076318451 9.290653726808348 0.0
9.643938029094286 9.335632419679458 0.0
9.647017668702574 0.7068996148634754 0.0
6.241662276606473 5.884018212993202 0.0
6.157742245066693 5.73500474100449 0.0
6.318815619949124 5.730068085823802 0.0
6.247706374231452 5.593094310939028 0.0
6.406948541886973 5.593272398468375 0.0
6.092564106310554 5.587409338401505 0.0
8.535507922245372 5.286142900439676 0.0
8.022959839404006 4.471630490587016 0.0
7.963561162854596 4.581393556789843 0.0
9.683487139413305 1.546750704925431 0.0
9.630761777960082 1.435922217091829 0.0
5.121714348989337 7.950140247572198 0.0
5.136464096196084 8.310254432483559 0.0
5.47349124035624 8.455234262268478 0.0
5.176273618280354 8.687190323573228 0.0
4.796664658962938 8.592678692862421 0.0
9.568705729418735 4.887269869750176 0.0
9.462711651199594 4.88832222094458 0.0
9.674903475028225 4.882285174433025 0.0
5.4996067353406 5.546583260717527 0.0
5.663632234555963 5.557613452957074 0.0
6.829408195405585 1.947174574944512 0.0
5.336529198289861 1.127585641139875 0.0
9.672387559812332 6.34138351957329 0.0
4.463988917379896 2.271060678869338 0.0
8.618048281355405 6.263841736419089 0.0
6.480949808711781 5.74815588680617 0.0
6.562207427719153 5.592185077216444 0.0
6.643040463857446 5.721233693378952 0.0
6.712825900331884 5.588664360236 0.0
6.79240375630333 5.711383948285569 0.0
6.86115931532141 5.584697050428064 0.0
6.939210100691576 5.704407337029545 0.0
7.007668476576536 5.580801046893123 0.0
7.084627386867475 5.702817970154801 0.0
6.633257976075473 5.460881327825488 0.0
6.931430743764456 5.461960451448691 0.0
9.682652370938209 6.533133024505995 0.0
8.761108695241376 9.450742747770144 0.0
9.146031326900015 3.764292700000154 0.0
9.089378801805193 3.661317181076136 0.0
9.514354521818781 8.994988681611192 0.0
8.157650730500988 4.262987189670279 0.0
6.329633198899328 5.4647789391701 0.0
2.340685767996258 2.811285337457589 0.0
7.379572471323651 0.9290892725587991 0.0
4.171878172186605 4.222320767259098 0.0
4.4876601621649 4.16473354200826 0.0
5.336389369563535 6.806464508860387 0.0
9.595468321212476 9.108133206829102 0.0
9.645038675267227 8.982113951305912 0.0
8.393140678816192 4.246338342095281 0.0
8.309440721624494 4.155300532283633 0.0
9.418269339704423 1.9925512363779 0.0
9.662781807969623 0.477809346089035 0.0
8.011297869803792 0.7518828483803571 0.0
8.250149975885678 0.7646904662196189 0.0
9.608674873602773 0.3618049194050078 0.0
8.692696069692623 6.582927327365709 0.0
8.628225948401226 6.705702462696891 0.0
8.701883181418305 6.822086652299242 0.0
8.559276855155542 6.829564723911442 0.0
7.069268463354993 5.459534423493629 0.0
2.654575201159115 3.323490466195074 0.0
3.610801136544596 4.044075244426243 0.0
8.263757217166944 5.48730323490738 0.0
8.138838162809126 5.491254533497952 0.0
7.90196833683664 4.477386962763833 0.0
7.987943097943191 3.978756490171551 0.0
9.704623491880403 3.945605151832784 0.0
9.461009573830147 7.301728818091931 0.0
9.532468631193666 7.399916015174975 0.0
9.582688928417856 7.292330983701011 0.0
9.652579613269625 7.387768793572397 0.0
9.699264016151023 7.282867433965265 0.0
9.633305589700536 7.188543855060478 0.0
9.505576100168666 6.961225778216469 0.0
9.43876966151099 6.342441564206569 0.0
4.908483672172518 6.098703904450545 0.0
9.135448256237908 5.269827196966999 0.0
5.905650502271389 2.025036080946255 0.0
9.709890722072377 9.452748507541063 0.0
9.663337613522643 9.572126259365891 0.0
9.603900123387826 7.495180532331903 0.0
9.720147629525837 7.483400774981126 0.0
9.674588415444239 7.588303295299578 0.0
9.653186673863587 4.039274180923234 0.0
9.053164539680804 4.764545162185531 0.0
9.164908495749003 4.763017269285045 0.0
9.226019227262443 4.858029410614327 0.0
8.809947621994619 3.4964384919072 0.0
9.10538997155458 4.665865142902959 0.0
9.331074106432244 5.748993480915537 0.0
9.055854333858068 7.918554535314415 0.0
9.446431573964945 8.209836764658437 0.0
9.573844810886287 8.191100251691205 0.0
9.309704769895653 8.244395007943949 0.0
7.240329561730736 1.676197957122907 0.0
9.543389817573933 3.660019800390455 0.0
9.598599341122098 3.563130123982772 0.0
9.652615161407017 3.658119804270645 0.0
9.706336063693934 3.564815526226687 0.0
8.632284427755456 6.946688912416058 0.0
9.682863230715835 2.349655023034811 0.0
9.571538455120994 2.142369886250143 0.0
8.090821900439733 9.017409120951333 0.0
6.812258669899192 0.9007667548831626 0.0
6.50135254578461 0.8974046495177885 0.0
9.598335906230732 6.246437748035812 0.0
9.719677442549804 6.253968775436637 0.0
8.593026822691716 5.180101360605356 0.0
5.537586126848265 8.836083861509138 0.0
9.688689404995035 2.143487155934306 0.0
2.821389253975936 6.507820864074362 0.0
9.176571289960709 8.507736431357309 0.0
2.918303740542162 8.256728920338826 0.0
3.428955230180972 8.401446814887457 0.0
8.490587404589881 6.715350139132777 0.0
8.86049054904785 7.243279881821806 0.0
8.93696309213556 7.356650230611625 0.0
3.951931175165697 5.78308550088855 0.0
3.65055612573298 5.91672400098539 0.0
3.668142216548471 6.247526235973777 0.0
9.717269848920886 5.821831227352286 0.0
9.708364917734201 3.164198601626433 0.0
8.45581975650687 4.569560863828342 0.0
8.204448312099833 6.040774355519757 0.0
8.65969449127868 5.485991799508151 0.0
9.707534571012967 5.634423933296901 0.0
9.62102991883279 2.849662850313935 0.0
9.144093558002634 3.560383427867003 0.0
8.29763273805118 1.77155302934031 0.0
5.280452715709455 9.01633391004168 0.0
8.984558945859158 6.99932633710603 0.0
8.4157550875812 1.275784953143711 0.0
2.068078118650995 3.355462780535101 0.0
9.205703884756806 5.568274778556933 0.0
9.745857863753141 7.178456670302003 0.0
9.681628895748586 7.081494416756802 0.0
8.875818787971069 6.240744812097083 0.0
7.993733797566922 6.414830952863579 0.0
8.462810157069566 3.377071044664789 0.0
9.29428363519789 4.759591981903337 0.0
7.933956818298286 5.97437536746848 0.0
9.028281726378319 3.558713145763133 0.0
9.083461773461467 3.455531762175701 0.0
9.73231939683535 2.849247643393067 0.0
6.70072305037728 2.192432536215492 0.0
6.423245125077639 2.212870246546939 0.0
4.931537051605536 1.135086496804522 0.0
4.746426561586179 1.500381091957315 0.0
9.707706579932626 7.836419656220658 0.0
8.590593344701457 1.595639668013959 0.0
8.708946574109854 2.1688179918246 0.0
8.634728854549891 2.028564483452208 0.0
9.230357659411311 8.129337203173913 0.0
9.102841374461482 4.452881308250647 0.0
8.472081531214734 5.388993924853032 0.0
4.925996806199801 5.844046944846857 0.0
4.702806345752284 5.745688656289065 0.0
4.884357002239844 5.633237011762874 0.0
4.709628434300812 5.536404116679045 0.0
4.530800966746534 5.627044171217377 0.0
6.040296145349247 6.603808099703576 0.0
6.162203578696918 6.795213950202512 0.0
5.923135943221574 6.824060069869489 0.0
6.046693245732212 7.010423490915212 0.0
6.297337598588478 6.979895528204233 0.0
7.760448385794147 0.7294020304851334 0.0
8.492228348169641 6.958778476405878 0.0
2.89219822877093 1.704113597264478 0.0
2.26178643438086 1.7814602252425 0.0
9.726968895980871 6.009547057102511 0.0
6.63195110828313 0.6072886418835157 0.0
7.984023036954866 7.515675826210831 0.0
7.893857204140559 7.681876703427663 0.0
7.778465117872411 7.537836322197895 0.0
7.998204230811618 7.844922503023499 0.0
7.798554315988981 7.858161805718108 0.0
7.917846202023782 8.03040048103727 0.0
8.547520504556728 2.721261126162116 0.0
8.39253850806587 2.732073315877738 0.0
8.306047241032278 2.59069854402512 0.0
8.233011054235162 2.739783364361515 0.0
8.318836035587811 2.879838477099622 0.0
8.159530874574331 2.888511553151382 0.0
8.245490421394788 3.024568439743106 0.0
9.759103003747676 3.077839427881478 0.0
8.083610090773394 3.033523757291178 0.0
8.174562583800352 3.166768504406541 0.0
6.046769434852523 1.155662270344939 0.0
6.968371001421964 2.176347877216873 0.0
8.324858098380334 3.152966249334499 0.0
8.145556596142626 2.609897633546475 0.0
8.970652052821418 7.804556541250797 0.0
9.033737629244714 7.681328986528639 0.0
9.62347010002576 4.796939565664328 0.0
9.72520380348743 4.790261082613535 0.0
4.882631186210167 5.455006233451049 0.0
4.618356368594037 3.933076284395493 0.0
4.748083507220199 4.151025177732873 0.0
4.641724290430313 4.358202249373887 0.0
4.87055838101999 4.337900676660481 0.0
4.974114446887331 4.149149057174687 0.0
5.081577844806959 4.3240148266423 0.0
5.179521650033781 4.148725180298481 0.0
5.276261408871418 4.316673822529601 0.0
5.369189110897883 4.148362797753505 0.0
5.463892033849439 4.338819369807593 0.0
5.550828466075906 4.146274465971151 0.0
5.646554822352869 4.303571429647391 0.0
5.728109623160046 4.138582010823754 0.0
5.821689108984419 4.291959598724587 0.0
5.906082534948073 4.141649907302701 0.0
5.99655838673762 4.288752711512514 0.0
6.077312859438928 4.141011188943332 0.0
6.164215275138099 4.281164574562373 0.0
6.241782344986693 4.140701084167517 0.0
6.324316420613108 4.277393447415522 0.0
6.40284165425941 4.140026953305852 0.0
6.483655157361099 4.273418937894759 0.0
6.561170698911611 4.136221843106807 0.0
6.63512300179586 4.269917278694155 0.0
6.720306110251473 4.133393659385058 0.0
6.63777078218551 3.99617001426095 0.0
6.802492763973074 3.994355399489989 0.0
6.798834760478153 4.276914787769972 0.0
6.15377608509923 4.000134206628027 0.0
6.548727135071258 4.400510710520637 0.0
6.251479300130713 4.421887359316258 0.0
5.275876048175579 3.979624500657822 0.0
5.910905077162284 4.431174408784691 0.0
6.717070288412452 3.851239795555301 0.0
6.883499045994213 3.852555480300214 0.0
6.96664848901999 3.994033961856844 0.0
7.048208567116626 3.854750001965969 0.0
5.810004974283072 3.982497501655442 0.0
5.586615391658107 4.471070246359201 0.0
6.547331954052155 3.853872077215347 0.0
5.179081233207816 4.485638492900557 0.0
7.126615227065496 3.995337770596979 0.0
7.209459742762513 3.856893463870469 0.0
7.130226097876905 3.713620439679428 0.0
6.63075064074106 3.699684148676045 0.0
6.446985573861992 3.697358756862005 0.0
7.043151422977365 4.131713936060725 0.0
7.198322215260019 4.129850614748363 0.0
7.119378405252723 4.26005098890218 0.0
4.797146270976422 4.525762781577414 0.0
4.608329098388589 4.573584257851931 0.0
7.294442092743627 3.720853338661503 0.0
7.215753312764997 3.571378507508807 0.0
7.049631633956289 3.568047985538775 0.0
7.133765707749521 3.414282375958479 0.0
9.755079417839903 5.539705890434435 0.0
9.698955703441971 5.450920012703194 0.0
9.717604099406742 9.09084770432896 0.0
9.276716006673976 5.847248422342224 0.0
9.339081208926798 5.941174203394446 0.0
9.031261921742963 3.750271483819014 0.0
9.08721978689863 3.853416037308712 0.0
4.801461566647803 7.510704110489921 0.0
8.206553504932042 5.818005960412773 0.0
7.362361315389098 3.863102442315545 0.0
9.492826845316191 2.963845037486267 0.0
9.376710375304633 2.97229517374228 0.0
9.3192743723601 3.070687802230453 0.0
7.915389082113898 6.293241865913004 0.0
6.735006382384437 5.832450056405368 0.0
8.456481836836168 4.35369289249905 0.0
8.517718268476031 4.246675068616396 0.0
5.583512022030555 5.411069060406398 0.0
5.73625200174779 5.422617752052123 0.0
5.81006929286229 5.548584937688919 0.0
5.903438861894402 5.420604003204523 0.0
5.43801870974416 5.402925156167655 0.0
7.022641548594327 5.825217331839047 0.0
7.165095795605366 5.826005223633447 0.0
7.223078558430726 5.690146755650336 0.0
7.841396000338385 4.586693006493787 0.0
7.904793170875705 4.690826189066096 0.0
7.785999820520073 4.696719777099973 0.0
7.846448506395101 4.798518978096564 0.0
7.728149182067156 4.803800941124008 0.0
7.788983823826226 4.904802634695232 0.0
7.672018889153144 4.910077510508749 0.0
7.731996012352178 5.014717724244488 0.0
7.852072803124419 5.00743796185411 0.0
7.779278698005006 5.118909346425974 0.0
8.088113864063853 5.605434545811022 0.0
8.016457362785575 5.494849890158723 0.0
8.072290383394757 5.385594956317259 0.0
7.95068657972964 5.38825563681957 0.0
8.309366678475389 1.438342408757099 0.0
9.748160780780179 1.447794693754379 0.0
9.696454228162398 1.337889922375316 0.0
9.568813761940916 1.329560834053294 0.0
9.638326779791626 1.226729570935787 0.0
8.472132467407484 5.182856496818138 0.0
8.066211547412054 6.53691730655352 0.0
8.217035586462373 6.522976700918602 0.0
3.544839338670893 3.324491119989469 0.0
6.999740002965287 5.347729916247808 0.0
6.874544698914502 5.347027470386579 0.0
4.880451234715014 5.193043717957879 0.0
9.104510033763066 9.313204713465637 0.0
9.0466357104558 9.45359399494339 0.0
9.146803165140184 9.569652364413551 0.0
8.134107047896672 0.5527712356100052 0.0
8.369770412730738 0.5571215815175228 0.0
8.47386979744655 0.7564607169846485 0.0
8.585193608569258 0.5749174254532757 0.0
8.683868132726584 0.75505070091701 0.0
8.787381435061018 0.5813987798627239 0.0
8.697570280442534 0.3771156480326233 0.0
8.530048434259976 5.077280516000916 0.0
7.995091351438729 2.90367515012593 0.0
9.731083608815164 1.662638626153251 0.0
7.260488865351954 4.255073962371814 0.0
9.760728358076392 8.990038509880067 0.0
9.716710396257366 8.884160310398862 0.0
8.794627466210242 7.369659405098349 0.0
8.868068657550866 7.515048014893154 0.0
8.702594597629135 7.510501129643432 0.0
5.132320689147051 0.7610757801158905 0.0
9.755852887652699 3.853180024615871 0.0
9.787424819067885 2.757921105725315 0.0
9.731193479931608 0.3736343090103709 0.0
9.796526908308536 0.489684029254899 0.0
8.226019692057042 2.453349105940535 0.0
4.560989821496479 5.428206018250252 0.0
4.348810639659689 5.517048281386008 0.0
8.785190163106925 7.119142251269924 0.0
9.015515413043023 7.464769766852701 0.0
9.754861440190705 3.659036930324926 0.0
9.7543610723378 4.033687839160082 0.0
9.707881226943384 4.127219992296752 0.0
9.52841017383273 8.309020665649431 0.0
9.65186044414544 8.289498614805698 0.0
9.714051275521857 8.173576484362068 0.0
8.209758892476394 8.715513071423135 0.0
8.097084883671858 8.548851201381087 0.0
8.177989947800599 8.367872862579052 0.0
7.974142434808908 8.36779470623567 0.0
8.409012054919861 2.142624252464372 0.0
7.707002321497132 8.039129945341395 0.0
7.574653123518228 7.83895791570255 0.0
9.229858094382692 5.951357214361815 0.0
9.75307989876696 1.229893222503321 0.0
9.715811155868643 1.128779429890018 0.0
9.597960915003707 1.117058287635912 0.0
9.672063923518955 1.020806103150243 0.0
8.99090422125785 9.593878510105375 0.0
8.133165456134304 9.257620998029804 0.0
7.976779931497633 9.420725324095141 0.0
9.77231778617502 7.927819487779705 0.0
7.957213679655531 4.364530256281665 0.0
9.609903116082736 8.403725680286847 0.0
9.724891358972584 8.388392708395173 0.0
9.687487059868507 8.495935345161797 0.0
9.810055520269009 8.494090598382963 0.0
9.755967487162335 8.599790818513082 0.0
9.645698986824481 8.606121319182705 0.0
9.721376049217765 8.699989876681524 0.0
9.773009257015609 4.884557953188837 0.0
9.830105798750992 4.796546393900876 0.0
9.775335108731761 4.686093304257503 0.0
7.455611517737074 3.730099283949135 0.0
8.906943567829634 0.4197477661467797 0.0
8.980613334153533 0.5814185917581446 0.0
9.081059111759728 0.4263421860552371 0.0
9.821654809259165 3.576985724143072 0.0
9.761309244784803 3.4792267780002 0.0
9.763329553045937 9.353068233045157 0.0
4.463051839136694 1.164440352584939 0.0
8.0213168204867 5.283436382300235 0.0
7.89385412333227 5.290429544753158 0.0
5.806940001023414 8.583716119232427 0.0
5.88977793877374 8.96065112858812 0.0
9.177759062826041 8.25539130897928 0.0
9.626582559276994 2.05283181283147 0.0
9.747673294325121 2.064954301745188 0.0
8.775905508647185 6.951821187702613 0.0
2.3581644273991 6.029034686663493 0.0
9.777798009058461 9.548066962498762 0.0
9.737129197219856 9.662299853506903 0.0
9.615080366030512 9.683349544763068 0.0
3.315839678697904 6.042943273456425 0.0
8.915083018115329 7.937748428923896 0.0
9.489832173860055 4.712364754630572 0.0
8.118313727862493 8.013944064029838 0.0
8.902248750797776 7.67372145952523 0.0
8.954075939212636 3.463080912810881 0.0
9.45247551997678 2.133243108303608 0.0
8.311151553157742 8.899233004613622 0.0
3.28672004268868 6.826745674539142 0.0
9.86008383798735 3.468233656255824 0.0
8.389990589860254 1.947086063498656 0.0
7.144231739553659 5.329544660076687 0.0
9.654500729007207 7.743301971143119 0.0
9.761920842881946 7.740144345898896 0.0
9.692820773976567 0.2651585113981998 0.0
9.690951720399688 6.100517071814821 0.0
9.775704281989471 6.077882312279847 0.0
9.823117117198079 4.115168542267924 0.0
9.764391943581737 4.214465954230587 0.0
9.659455011849253 4.218716850797838 0.0
9.713462125022623 4.30742830316693 0.0
9.849638067150842 4.208845651573708 0.0
6.376241713254513 3.858766051594979 0.0
6.274931849158213 3.701528298009006 0.0
7.097780104117746 1.926449727602711 0.0
2.457742027508782 3.810157622192786 0.0
2.963634206580268 3.740748099915693 0.0
5.065585416063965 5.544355730437482 0.0
9.783560252464587 7.566507987677117 0.0
9.825819294611026 7.470942204664841 0.0
9.799976114123012 1.01659516618323 0.0
9.745559590633832 0.9150866860898854 0.0
8.20473400632469 9.495828670767946 0.0
8.784586030320169 2.054461500762216 0.0
8.758471587067168 1.888286802854785 0.0
0.9188935087347281 8.510730800272478 0.0
9.674192026048217 9.20389587377276 0.0
9.796314981283475 9.185916994648775 0.0
7.206882433199502 5.452024361489832 0.0
9.773927048949279 6.334665846819535 0.0
9.830288393591173 6.225300227041885 0.0
8.25177349297509 3.282767705830209 0.0
8.099233469407428 3.304040153764131 0.0
9.607860512870598 4.315652630490023 0.0
9.403674738018715 8.367349042046314 0.0
7.611756786273919 5.018691202305147 0.0
7.549513964643336 4.923310232561835 0.0
9.80986724662116 0.2915868356190958 0.0
0.7757562810577034 3.504187313079081 0.0
7.659562100664981 4.698467529240196 0.0
6.539424975891206 3.541729955691742 0.0
6.717348880400739 3.55221857686142 0.0
6.836337579501807 2.417476958454302 0.0
7.096480496160066 5.959124656438389 0.0
7.189742782777612 4.377051328076039 0.0
7.051723187622053 4.38470822973091 0.0
7.125489805519186 4.497018383456762 0.0
6.994915621927777 4.501504591168814 0.0
7.056755276274058 4.607929817497045 0.0
6.932937068803914 4.613249390039674 0.0
6.86629288290367 4.50541343988659 0.0
6.80427099775847 4.617607827251794 0.0
6.739195362053689 4.511124964201849 0.0
6.677260697693361 4.624288827143181 0.0
6.996760608675822 4.711715831373894 0.0
6.316045249462968 0.6456945497683586 0.0
7.321834163850416 5.816449323512759 0.0
7.833101485370825 4.390058096386987 0.0
4.996572652976738 4.498711166259074 0.0
5.112334577457371 4.663858846723513 0.0
5.271923064784868 4.629759173373871 0.0
4.93773508827367 4.668006487116195 0.0
5.348137647919096 4.485934621930562 0.0
5.413454827497575 4.62999925573761 0.0
5.356581113747675 4.770594395332836 0.0
5.013422223730484 4.793321773780133 0.0
8.58674425943957 0.9312335381466886 0.0
8.776450596582496 0.9362399987293505 0.0
4.783496233934828 9.486061758876032 0.0
4.544176394620909 9.034071856445296 0.0
4.082330493623582 9.015765881393772 0.0
9.820867469965414 7.285959215547852 0.0
9.852697883440127 7.166089674802766 0.0
9.260999083164238 2.971390964911171 0.0
9.197701900169713 3.073162109379564 0.0
9.31960210441945 2.867465579641856 0.0
6.660951583415121 3.383363199709994 0.0
5.210469976037585 4.761678854423166 0.0
6.740780285297665 4.733615686805694 0.0
6.611362405615225 4.731958642073806 0.0
6.549091884465382 4.629620704100811 0.0
6.491761716522486 4.733409494449344 0.0
6.425259228542098 4.640546096196947 0.0
9.715556659367534 2.986725573570596 0.0
3.710524324925069 9.463213827486557 0.0
4.768537031214573 4.727001037865238 0.0
5.039413681704655 5.378508462165627 0.0
5.188746429211535 5.440476671296013 0.0
5.172214816037712 5.298914527247826 0.0
4.469063601436893 3.667917323494335 0.0
3.799121596584382 4.741629285988305 0.0
3.661085664896249 4.442847704416992 0.0
3.316563386321876 4.380147387454913 0.0
3.802087298647255 5.26743535640985 0.0
9.738116341343215 8.047178982429934 0.0
9.85106076399546 8.021725551312715 0.0
9.837581050304836 2.844176011307251 0.0
9.664579962075123 4.402853107737106 0.0
9.76433159763034 4.39807801415352 0.0
9.718924973226878 4.487825491046641 0.0
9.826405563645343 4.494594135148365 0.0
4.931068003413168 6.359330991212394 0.0
5.130175746947236 6.201075257041828 0.0
5.143884286052002 6.445382329515047 0.0
4.953395875296406 6.628748468717369 0.0
7.833019185167153 5.400347121613631 0.0
7.766636138801143 5.313240048256084 0.0
9.767038723422333 4.578090619166644 0.0
7.315369355237483 3.441501197259575 0.0
9.556068971301514 0.2347811136726856 0.0
5.733871280791703 4.444861510772459 0.0
5.828809543126846 4.569791247698539 0.0
5.986701526182213 4.562881783985375 0.0
5.912543327921148 4.692966271273211 0.0
6.052130330528581 4.682477327897978 0.0
5.773525984744635 4.697697018456535 0.0
6.121646311546238 4.572302645403103 0.0
6.182349700936326 4.67713231096357 0.0
5.846371383601797 4.808939734754761 0.0
5.117807918383606 5.974361363083184 0.0
6.256132501905665 4.575863546153224 0.0
6.324770064521816 9.645040261272253 0.0
7.345522892050965 4.12581088034536 0.0
9.338523512844539 4.854480276600515 0.0
9.286984287289403 4.959628690044808 0.0
5.676298026114105 4.589279806918992 0.0
5.631257891894775 4.722749088404111 0.0
7.970415275563177 5.621040275419208 0.0
9.565118337557308 7.081391220827488 0.0
9.626201005045262 6.980441083020495 0.0
9.733729506193331 6.979928568877979 0.0
9.684556253529976 6.887102896543928 0.0
9.780785815410074 6.890287441101827 0.0
9.740054813822885 6.794211367612523 0.0
6.462628988057306 7.629921412015864 0.0
6.692564520952154 7.473594130811262 0.0
6.927983108788191 7.570982428592125 0.0
6.899878641134941 7.329306734748538 0.0
7.117542472438434 7.416951094809493 0.0
7.089537168123128 7.186691566729968 0.0
7.296585396514727 7.275888419524222 0.0
6.879678873774065 7.097443005287856 0.0
7.063454637059129 6.967740076426161 0.0
7.329105042924355 7.496317641003757 0.0
6.867084781778411 6.878842928865059 0.0
7.494278796275744 7.351949197351029 0.0
7.462564159480594 7.150140034494138 0.0
7.644835001206406 7.21506678718646 0.0
6.682478929414216 7.008358327294905 0.0
6.449199855715812 7.365660640952548 0.0
7.548139855358765 7.57299228324251 0.0
7.008502809092701 7.844601794812628 0.0
7.371739019901781 7.707688433423657 0.0
5.665345294602155 5.290628720253272 0.0
3.987583013016546 4.486920698115711 0.0
8.893480480320447 0.7785000884179994 0.0
9.715485963651112 0.5955299613117169 0.0
9.761785841543585 0.7048670948649375 0.0
9.670304314877074 4.578896619304786 0.0
8.058509626083154 5.744161686650483 0.0
6.181795443628869 5.462040811515966 0.0
6.256771804808641 5.338464817889848 0.0
6.124070400983443 5.352376180901929 0.0
6.399679261813415 5.349186390888865 0.0
6.477776305607503 5.46505688468465 0.0
6.541624525938461 5.346017118512589 0.0
6.673064575428321 5.339051516933525 0.0
6.599301548842115 5.241958624987057 0.0
9.573774011620444 0.815274945835158 0.0
5.86493292693426 5.877588788523632 0.0
5.552663040119136 6.957487930464628 0.0
5.535080960199246 6.663033131707637 0.0
3.708603689392072 0.5979254716153909 0.0
3.31896983256719 1.188583855309964 0.0
3.895664898001925 1.128137111173669 0.0
6.363360407965353 6.032416442205533 0.0
9.445959758065749 1.070139246426051 0.0
9.50632172780449 1.214052376665338 0.0
9.441030033980638 1.325047485624912 0.0
9.295799464644857 1.341410624832976 0.0
9.184164107767781 1.461677744200096 0.0
6.407191016756832 4.407273313799791 0.0
5.544591888593027 0.7652641669375747 0.0
7.883090151006535 2.497506182548758 0.0
8.073420508370992 2.120510489750234 0.0
5.494822040671399 4.732314720081375 0.0
0.8986976806403217 1.464611451578306 0.0
9.536325549598013 6.83286654168725 0.0
5.972289519322897 5.727532110854501 0.0
9.82203607053145 9.443411729566549 0.0
7.263199949874008 7.064207941227515 0.0
7.233659553805083 6.853135694774254 0.0
9.793310082768443 7.072747972018893 0.0
6.734168931095253 9.67499220075154 0.0
6.941134861034159 9.382328333169653 0.0
7.285822522704258 9.443989747444657 0.0
6.576263515512108 9.333035011158342 0.0
7.160560566479093 9.127732577621245 0.0
6.218711947378506 9.298064908857533 0.0
6.432383355119106 8.980985203293491 0.0
6.795390278360442 9.046043538032663 0.0
8.54677014121837 0.1957422484480979 0.0
8.528696320820908 9.804850950580938 0.0
8.42644965647489 9.604735484095604 0.0
8.010239224104339 9.715048083583248 0.0
8.644359648763341 9.628432815860457 0.0
5.344212921686536 5.526744195650314 0.0
9.760936589662048 7.38409687515441 0.0
9.128187788393989 0.1445485608215519 0.0
9.133307661752394 9.854833215426817 0.0
4.867351616228264 3.944459575003425 0.0
5.905323253270366 7.385600364255367 0.0
5.909045412185362 3.361969954191194 0.0
5.80580919758911 3.569999290452344 0.0
5.578230704221431 3.587842862412673 0.0
6.013352753603037 3.550699073477782 0.0
5.936624955014758 3.721630401607248 0.0
5.735413275357409 3.78528948606432 0.0
5.512538847486775 3.794760621907932 0.0
5.360571639388366 3.618649018042938 0.0
5.134141179590394 3.459385929220745 0.0
6.167399567008798 3.367365990358096 0.0
9.766756262206602 8.291756450136036 0.0
5.486063578307141 9.64505925252771 0.0
9.497624614180321 4.328873442170357 0.0
9.811387324954623 1.570516917365688 0.0
9.389210081887331 4.69150887571586 0.0
9.704395728912932 3.754226393630331 0.0
9.808172776193384 3.748784464356272 0.0
6.549660911932182 4.839747932361234 0.0
6.757415124099031 6.077939876843736 0.0
3.805578542126494 8.040840085419626 0.0
4.232580149691158 8.198659880701744 0.0
4.559765382564095 7.87091698350757 0.0
8.3829075948167 0.9495097054886067 0.0
9.8571301061408 1.456307792614791 0.0
2.005900212453279 4.535525273813588 0.0
1.85904408608185 3.956445706785572 0.0
1.979307922430775 5.474327285927505 0.0
4.387923194305381 4.427191306527721 0.0
9.429258370703248 8.873693567695483 0.0
8.99196583083892 4.664567567015693 0.0
3.050357122593155 5.368999067452741 0.0
2.861107385476722 5.785089447130829 0.0
5.005058958272409 3.711196438448062 0.0
9.8972295764837 2.755337284632969 0.0
9.581048890980513 8.853909321617065 0.0
9.668838904423916 1.762418716497425 0.0
9.716576458425756 1.852218615166234 0.0
9.799043132681442 1.780583141193779 0.0
7.661868217848455 2.880323287492419 0.0
6.780136552904057 5.443858690999834 0.0
6.489544866845868 5.913957888434588 0.0
6.880149522020364 4.134257616716107 0.0
6.970134365280068 4.264072319341612 0.0
2.225481516813409 9.348422240784 0.0
1.843418032490818 8.641605249943353 0.0
2.198000805242772 0.6459947140825729 0.0
8.740020306282506 0.1903932731609072 0.0
6.86957996016679 4.720776242956433 0.0
7.430920333506809 0.2702852342693345 0.0
7.302066064947383 0.6134316505458445 0.0
9.305398039877746 4.64854361125207 0.0
4.078151380865065 5.203425462519088 0.0
4.080704120371218 4.778853303303787 0.0
8.052525541571825 5.965483159581719 0.0
6.367194027835946 4.754896037842673 0.0
8.604191121620719 7.648182513679963 0.0
9.546446695207845 9.234701521982952 0.0
9.018652854946867 3.351011585453845 0.0
9.143853648154607 3.350173119015413 0.0
9.067079866763024 3.245174561579149 0.0
8.991492136849105 3.135578770028028 0.0
9.29603967712795 0.1426516429033488 0.0
9.392428271030795 0.2506306237151588 0.0
9.223973843394301 0.2912279164401488 0.0
8.39375191941536 3.018777714002827 0.0
8.4836475746111 2.88135207267795 0.0
8.741089053946197 9.821127577434911 0.0
9.803966507713174 5.448064463539533 0.0
9.748132240148552 5.359371181503531 0.0
9.850258990973547 5.355211921626304 0.0
9.7965346514158 5.266762244994661 0.0
9.84142096963129 5.171050273734619 0.0
9.738843612428232 5.167483913244169 0.0
9.64168976006725 5.359875132194057 0.0
3.335917453809221 5.671837672982919 0.0
6.962669142802881 1.683222554707996 0.0
7.365210844496719 1.887492842536114 0.0
7.517378971174123 1.677983072937792 0.0
8.00383870208024 6.089394601875145 0.0
1.725435941000569 2.759295503019395 0.0
7.907977929549089 5.102827208603365 0.0
8.052861051278896 0.2683271125209605 0.0
9.80169732768395 3.385443381464333 0.0
9.831597648680848 3.28491948963525 0.0
9.736335895866404 3.316207814499244 0.0
9.597256128490281 3.756160701977744 0.0
8.865819925321706 3.366235906378775 0.0
8.489614436807788 1.757152185195495 0.0
8.88089641144391 1.078983279100314 0.0
7.430923851187758 9.724389499796425 0.0
7.584252919312249 9.509430586267927 0.0
9.744026095940516 2.247117754488748 0.0
9.729961521243718 2.659836747108116 0.0
9.790866569780063 2.558993767350471 0.0
9.736606445116795 2.455104424879619 0.0
9.846806182714698 2.452157456754448 0.0
4.518102112052724 5.141350889745285 0.0
4.519880229178207 4.85678334497067 0.0
9.7302407894617 6.434012603549242 0.0
9.787537474544765 6.523591663056312 0.0
9.744262337067932 6.617499601377625 0.0
9.8406238811518 6.41591236129004 0.0
8.914967252734657 3.579360039684312 0.0
9.154797282599406 5.670753066089419 0.0
4.228839454580575 4.612979739018002 0.0
6.095037541675208 4.42126627187728 0.0
9.304166983880842 9.864854494751789 0.0
9.406445527105628 9.759007358529582 0.0
9.256225114941945 9.700832989525724 0.0
9.796206564635622 2.351215649506205 0.0
9.849373673349081 2.25090453834006 0.0
6.332048155295931 3.511675163099286 0.0
9.069679774213784 3.022879178706259 0.0
9.070599961450037 9.055284879641471 0.0
1.808685691036764 6.331557276533421 0.0
7.120156826652838 4.698481230214924 0.0
7.052894345811342 4.799848851879358 0.0
4.739957520484086 5.369107149361242 0.0
9.389197839958292 7.197139943834638 0.0
9.046688232613976 4.560364044038737 0.0
9.162685461967492 4.562194096410666 0.0
4.227377821420887 1.564128177298305 0.0
9.201090975245227 2.794301402811909 0.0
9.251941624303948 2.677556975242327 0.0
9.186758273070138 2.563916005021366 0.0
9.317609833868786 2.560335260954038 0.0
6.57599191748324 2.437689779955877 0.0
6.305556560534859 2.459112595979303 0.0
6.981058048792093 2.642476994448363 0.0
9.886113463139504 6.510498309609482 0.0
9.250462794607717 6.221362629571698 0.0
9.305373999084068 6.108271307139882 0.0
9.390477915810829 6.228015172491477 0.0
9.44452571968143 6.114582165110393 0.0
9.502105740270528 6.197677857389309 0.0
9.31559697209813 6.331647407124485 0.0
9.370938253597153 6.437386206819511 0.0
9.594764406124872 0.1099001288712305 0.0
9.602872681151728 9.894988341116305 0.0
9.622661196143387 8.076680696281343 0.0
9.769069277144705 5.9102532189237 0.0
2.615076109785583 8.807551523115547 0.0
9.658920005405456 5.730890135691177 0.0
9.76063135061807 5.720703211793342 0.0
8.63963723169499 7.177334225227945 0.0
7.841904391869763 6.41346852896409 0.0
7.764520718520185 6.297267738834625 0.0
9.546492996136271 3.465225175657335 0.0
9.25600964352143 2.219157062786616 0.0
7.625057159226293 7.012987957636062 0.0
9.529121062829038 7.730283486008674 0.0
8.329887090625894 3.845190321147069 0.0
8.265841850823831 3.95687001944245 0.0
8.402006523775544 3.947660780406651 0.0
8.128436391670505 3.968543393650448 0.0
8.46705122470662 3.835767362024195 0.0
8.218867047074696 4.063481375518748 0.0
8.089763413611255 4.08062363292928 0.0
7.939578083855268 4.111915744184436 0.0
3.74991304509639 6.615676756107112 0.0
2.627714335615619 1.170993030860914 0.0
7.046129971268607 6.759930788612616 0.0
8.534603732661887 7.486325780553722 0.0
1.569381386467569 2.042794535871475 0.0
6.228703743210918 1.986421863690014 0.0
6.467030855792859 2.67190498312861 0.0
9.272246093269825 1.975478263632296 0.0
8.05269609263041 3.854522845257449 0.0
8.008595521536957 3.177870309354594 0.0
7.929796740504207 3.350600835935766 0.0
8.048703574664067 3.449582532910417 0.0
9.72947480375618 4.973926800124758 0.0
9.784850360535604 5.072865219810449 0.0
9.896036387646596 5.069261557893528 0.0
9.633140953203334 5.168645132864771 0.0
9.558102991128836 7.602453108835212 0.0
7.278758746505716 3.994295887299482 0.0
8.306681733482405 6.936428510427854 0.0
9.487163072013963 3.757777670075558 0.0
9.532950522284125 5.359403698944497 0.0
9.816036650072329 3.927268437107025 0.0
6.173882586235392 8.734645960664665 0.0
7.972518459433741 5.003005338485466 0.0
8.398453459336153 1.601072016988848 0.0
8.97460527296194 4.040886705742754 0.0
9.037941657530773 4.143578781749325 0.0
8.849604200183613 3.828506169652706 0.0
9.545296177100065 4.042698359132156 0.0
8.595941796785514 5.806754902023664 0.0
8.65588412428292 5.694192853853139 0.0
8.723710665131787 5.801528918332044 0.0
6.861288985046249 6.673713222735126 0.0
8.87477249219366 4.664500928777609 0.0
8.72385765226959 3.608276264790996 0.0
7.145228858696953 5.573648565429618 0.0
7.282945121585866 5.558559688509987 0.0
9.224761401603633 1.602363370249125 0.0
9.609115686587552 2.986868833620756 0.0
9.633989947851914 6.628120633848649 0.0
6.046214325132457 5.45615093027661 0.0
9.017014346798927 5.271996636983457 0.0
9.070824864071271 5.168510834798647 0.0
9.189021391555556 5.166867900487267 0.0
9.123328759137758 5.064718588163964 0.0
9.240587446378079 5.06459430516883 0.0
9.250848280531756 5.267364371053135 0.0
5.773050603406019 5.7192906317521 0.0
8.576466432793914 4.3559007860436 0.0
8.634627802680399 4.253467736542067 0.0
8.461790117175607 5.591735227444779 0.0
8.907610717370224 3.713397213891439 0.0
9.80665594564509 5.628066492225966 0.0
8.985935132601089 4.455263493464225 0.0
9.00640209566022 5.067597672073404 0.0
9.833659276096986 6.976519563917422 0.0
8.0283368553477 4.687271895436317 0.0
8.326580191759327 9.127498457128247 0.0
8.650637373791266 5.07513089931925 0.0
8.701067313435203 2.700069743477523 0.0
4.825307249916392 4.884175191874744 0.0
9.418335984190309 6.858444798015129 0.0
3.91434687300816 8.542956908935874 0.0
5.569239724399552 2.064135034637056 0.0
5.234271567762738 2.128974435011933 0.0
5.757920427527626 2.312422707096966 0.0
5.43365689737979 2.427455772745759 0.0
5.673210219624612 2.602111218343444 0.0
7.214258468265766 6.652783071431555 0.0
9.823626269633962 4.30685540664529 0.0
7.96996639420014 4.794005510174826 0.0
7.616003332725032 0.502676560965646 0.0
3.050634530589821 4.659174799474146 0.0
2.870894249800723 4.246924313393336 0.0
5.285393339952368 6.079037173753393 0.0
9.439954241218905 4.23581687956071 0.0
9.67709722097145 4.710772408106511 0.0
7.40767785509217 4.259947873553335 0.0
8.396202587439676 5.486075637998701 0.0
8.323689688705493 5.372061002264632 0.0
8.191312386254125 5.384662546230823 0.0
5.304380054816289 5.369675374029755 0.0
9.093848379546637 4.047647920840374 0.0
7.916313220758624 3.045043876114836 0.0
8.435854831444637 4.144861908356168 0.0
9.060262453079693 0.7340576053322918 0.0
7.053195520344596 5.238809779682351 0.0
9.621762679347093 2.45205452967588 0.0
8.410730269104743 5.287995309529392 0.0
9.655094569234972 3.472720279371932 0.0
7.982140513923982 6.667914768024983 0.0
8.402690325256646 4.883576657130221 0.0
9.17488654147479 4.962006474835693 0.0
9.013188196102961 8.49700148123058 0.0
9.795977244531603 2.156818021002043 0.0
9.893813711206834 9.545820400859157 0.0
7.965349232662289 4.250048884270795 0.0
8.644264557989125 4.874751532150782 0.0
8.215430976121077 1.26077208565765 0.0
8.379717637669398 8.37324652769609 0.0
9.320026533461409 5.559861899725609 0.0
7.885778178744864 0.4977439426642278 0.0
7.547066983926719 5.125166613071239 0.0
7.657542898944819 5.122996245335209 0.0
7.423918840193691 9.000935553397358 0.0
9.854133000712425 5.541931969512857 0.0
9.328508174398952 2.101486405523264 0.0
9.300749600926641 9.530012105354274 0.0
8.130307182491519 5.277079344947874 0.0
8.346752967392757 4.987627363826086 0.0
9.118404185029991 6.007087846617186 0.0
9.048232213728614 5.89431792713258 0.0
9.088340967655858 5.576242562571367 0.0
8.094762487139027 4.789727191449318 0.0
9.915265904493378 5.749591413470928 0.0
9.92169805280126 6.154216704502091 0.0
9.918022441582268 4.549125436287157 0.0
9.919332362905616 4.849536560132457 0.0
9.914800786693318 6.750595509794719 0.0
9.811792900437824 6.703950687575952 0.0
9.900643083988882 3.749855087409844 0.0
9.912423171222734 3.043228996968949 0.0
9.91892875832665 5.949999999993851 0.0
9.913300070218703 3.960831593817277 0.0
7.709347001661226 4.444236534782706 0.0
7.479443107717332 8.071637285053104 0.0
8.839057072155848 6.807845119358974 0.0
8.972330068019902 6.78765448182788 0.0
8.542093772125282 3.941452413628317 0.0
8.279144752968262 5.930387616620717 0.0
9.393455876855919 4.973162505621418 0.0
9.507123333872533 2.855087674515822 0.0
8.77504684283825 2.317347145885344 0.0
8.394133129040345 4.464046960801843 0.0
5.725509852450801 8.210843960481027 0.0
5.62632390239664 3.967637659758752 0.0
7.910815814627989 4.900765971697654 0.0
8.595808444085467 5.590040244353608 0.0
9.705160502006024 0.8106158419444889 0.0
9.82021247904746 0.808810893177099 0.0
9.218352146075844 4.447736986422823 0.0
9.20781892622228 3.858281726888132 0.0
8.713609974387523 5.178241668554946 0.0
3.55755059259364 8.921522400238844 0.0
9.59122926011489 5.452844834281716 0.0
9.70565100407009 9.77887811062354 0.0
9.826938454219809 9.74303055702321 0.0
7.238962096855633 3.278078153406256 0.0
8.575609105166194 4.567807831727537 0.0
8.936449841121737 4.765835458965493 0.0
5.59323463391086 9.248527978398117 0.0
5.280809113285124 4.886132326418428 0.0
9.328132730893216 6.544753806716806 0.0
9.026944889277736 6.67247283515637 0.0
9.81946239021469 3.007926663525007 0.0
8.677633568960493 6.144049349297466 0.0
8.33427489656924 4.571212803519522 0.0
8.55734024448315 6.382535186588269 0.0
8.692399379422756 6.372347713955898 0.0
8.495817478252626 6.503308565233578 0.0
9.905494734661673 2.544078755559835 0.0
6.177101405266569 7.228490244483556 0.0
9.825373011845263 5.807482724503027 0.0
9.808678508609606 8.118683092442964 0.0
8.397717712407108 7.08010313863416 0.0
7.428555529689225 4.935946611338556 0.0
9.575504958128711 6.125633853639113 0.0
9.154066996197898 4.146562596982661 0.0
8.074381802159323 4.337569667261167 0.0
7.018337246891919 8.843475095716133 0.0
7.970627172560641 2.658650028065857 0.0
7.382546388883145 6.723381543491632 0.0
6.822972334933889 4.884555620881615 0.0
8.343732976791593 6.041576709398377 0.0
7.743680217306919 8.423336160305476 0.0
8.505717922983454 1.115022897794028 0.0
9.113973198216474 6.992972408167606 0.0
5.818882632841168 5.300437503812764 0.0
5.951991891717714 5.279516346785062 0.0
9.450183479138845 5.92934813870612 0.0
8.783346541536119 5.48419035750989 0.0
9.38074895894124 5.65076274999803 0.0
9.513658728876734 7.193620441323493 0.0
6.396040948797887 6.776064256962667 0.0
5.389661780244388 4.89715084345563 0.0
4.473247649068957 5.85935163892416 0.0
9.249586607512612 8.37680799459232 0.0
9.103796366487646 8.379197231055114 0.0
6.274057301184156 4.87985402946409 0.0
9.259628836118232 3.561431822636308 0.0
4.037922477011971 5.489409780163391 0.0
5.62712958624254 4.893925433488392 0.0
8.806426003347967 6.133410188141932 0.0
9.53304466499349 9.59279975429444 0.0
9.542890959420024 1.966631379116419 0.0
7.459736176874619 5.863847835420528 0.0
5.937613117200432 4.89232797168023 0.0
6.171611131472617 4.879541833448487 0.0
6.100695199816815 2.291172318314745 0.0
2.315194906726768 8.081958163666464 0.0
6.878489987598286 5.148099521847569 0.0
9.105264414399338 8.639184652727645 0.0
9.20047261316883 3.457820810661327 0.0
9.895329010385955 7.55944047105717 0.0
9.912742873006831 7.76210330502246 0.0
9.37761459375249 3.168397068877758 0.0
8.946121261512507 6.345629828835438 0.0
9.918632496443566 4.449809517365367 0.0
6.848211525651934 5.945010613369067 0.0
9.915721525903255 2.047407395915179 0.0
6.117255841708726 5.163321965161054 0.0
7.276595248786602 5.347247322210079 0.0
6.32682869954104 5.23674259421017 0.0
8.785886448438022 5.692775375342819 0.0
9.099994401883361 6.776698531382792 0.0
9.913397459621638 0.2499999999998165 0.0
9.910352525643928 0.4481571029410266 0.0
9.907850422008579 0.5479735220323012 0.0
9.911983631350465 9.24778487019403 0.0
9.917634740384067 0.7514684821956668 0.0
9.195214232985496 3.254172408378337 0.0
5.000896927376288 1.846006038077654 0.0
9.917172478547403 8.250155740683276 0.0
9.908120476950126 1.742986232208194 0.0
9.914524635720774 1.949567899316728 0.0
9.907358878377153 9.145625165175748 0.0
9.917695944922635 8.949999999998397 0.0
7.648387553139914 5.325741673607362 0.0
9.605343588986079 4.130627398479715 0.0
6.648113233057817 6.774798386229164 0.0
9.910347203087213 8.446729917003672 0.0
9.913623694530468 8.548470085896316 0.0
9.9201245863254 1.536225488581779 0.0
9.906538426683255 1.059019360781604 0.0
9.912867352010919 8.74999999999809 0.0
9.799662981388353 8.79550485462418 0.0
9.831828680383174 5.99966894118311 0.0
9.91414179906643 1.263025320602998 0.0
9.920690092699912 7.240982963665807 0.0
9.385889285950551 2.235126904097426 0.0
9.28133998925606 8.00415195851526 0.0
9.817074723108401 3.172398890123306 0.0
9.482030285089927 7.512954023388035 0.0
6.682432918504054 7.233889573028878 0.0
8.528699633246763 3.260502457553277 0.0
8.91699963742029 2.327016692708648 0.0
9.267676068834481 3.954520684561369 0.0
8.70811637467455 4.974101624783084 0.0
8.18184214270768 7.816666208279135 0.0
9.690393137288163 5.264344933127836 0.0
6.937111790104696 5.245184991960528 0.0
5.895846026722989 5.174232967273284 0.0
8.281683356622615 6.400073017261236 0.0
9.150883172924027 7.444273543454419 0.0
5.430406600793122 3.390815886517273 0.0
5.049583827974758 5.697634876048387 0.0
8.3966710383105 3.495813899905868 0.0
9.007538428392454 8.046563579784266 0.0
4.645155158868719 2.637132843684674 0.0
4.887444326771336 2.30020425915506 0.0
6.483736782775559 4.522536327482678 0.0
7.843169154548308 8.2116075844056 0.0
5.06295551628385 4.901632590583318 0.0
7.201400991012747 5.138239336380897 0.0
8.519791031104612 8.848807089071627 0.0
8.658623737989732 3.031313729049854 0.0
7.585566208322493 3.629882964874684 0.0
8.411818469596405 6.834326722716643 0.0
9.172363528634236 7.669230647622864 0.0
8.85455683341768 2.682483055215344 0.0
9.359398739738925 1.631421337140716 0.0
9.071793864444992 7.337030604117359 0.0
6.968394563521436 3.712808894519514 0.0
7.899236117684646 7.094583340182754 0.0
9.54362864504834 9.781852543872333 0.0
7.151298729743687 7.644795130415299 0.0
5.452218361466201 5.186873761308322 0.0
5.517642289161902 5.293540933999446 0.0
7.802500357665464 5.978295671754199 0.0
6.594850839687122 8.491429270558893 0.0
6.029132431949566 8.294997405201931 0.0
9.31286590869111 0.5672913838331921 0.0
9.25238720319541 0.4415953739444106 0.0
9.550589523211062 4.228044955453704 0.0
8.748611832783206 6.250900951984038 0.0
7.566980108995873 3.995148257893202 0.0
7.426142759241261 3.996743578498081 0.0
6.478912513785404 4.000296412419969 0.0
9.30435638148753 5.168210982711592 0.0
7.542154188520517 5.752525075248498 0.0
7.219033852073297 2.139582470800704 0.0
7.370913620388047 6.545121498197235 0.0
5.226731036024996 5.187572666585561 0.0
8.515591031124366 4.462223215179979 0.0
6.762864307079274 0.3078036604979366 0.0
8.587432696997471 4.977010533175154 0.0
8.703948448756302 8.815629076400704 0.0
8.081003990931544 7.370949680119862 0.0
7.424404567669909 6.949730915714445 0.0
8.578903262311433 8.377992954045473 0.0
7.301258690263783 6.106184350645308 0.0
5.991600556904204 3.99820087171043 0.0
8.203048538477193 1.601044215405025 0.0
7.289972483120081 4.572350254111052 0.0
7.714697186439165 5.420586967696794 0.0
8.918853780709807 1.841796898567452 0.0
9.919941345877513 4.749808449067644 0.0
7.245589454939737 5.94251251443003 0.0
9.258480524497795 3.358952871140391 0.0
3.705877615124628 5.574038727593425 0.0
8.287096858129765 7.962370605242409 0.0
6.799629860952143 3.705385600481528 0.0
4.146753450763018 6.544154457143895 0.0
7.413973555029582 5.545687501585183 0.0
8.466524978378082 4.980481756569235 0.0
7.336312153537934 2.337983522449311 0.0
7.695505222753409 3.747498713679684 0.0
4.898236813123799 4.795853653580084 0.0
4.59779105899602 1.896916774247134 0.0
8.560170375862322 7.072369101894893 0.0
8.386150468360862 2.449771437140704 0.0
8.41200018115259 5.084601315536367 0.0
5.102189912301071 7.621598618277815 0.0
8.336320418935243 6.71651223072348 0.0
5.081745734883095 3.977838926197614 0.0
7.63590698378166 0.9500570055008507 0.0
7.743369677149255 3.051233984704873 0.0
5.357527459690566 0.3809996753407537 0.0
5.967373112873382 0.7731113464301924 0.0
8.169449265206127 6.666271947462212 0.0
5.95122726745053 5.55758205410881 0.0
9.922289489207834 3.53923011719877 0.0
9.39154684476555 2.659037023454942 0.0
7.701415639167884 7.690060291860976 0.0
9.819179654793023 1.329863870021845 0.0
8.358229579054417 6.506108206863729 0.0
9.269720555169467 5.657096143475924 0.0
4.473187658045934 7.435037860084884 0.0
9.65807158077373 3.255496360750368 0.0
9.605155446454205 8.713645566904637 0.0
7.097383547728313 5.141197376985936 0.0
9.812212483832656 1.89920712759492 0.0
9.83875570675407 6.81603549325055 0.0
8.926246869879279 2.079976511571457 0.0
9.166785856141402 9.169070814302419 0.0
8.763479010228052 1.587152667342957 0.0
5.957377924852992 6.404530806530254 0.0
7.14506854375872 6.10342416684208 0.0
5.672595070581394 5.164323323112049 0.0
4.899782787268781 0.3801727265981219 0.0
4.447133848117348 4.673614099606824 0.0
7.044865074789195 3.253639989243549 0.0
9.818461337102992 7.819456450952447 0.0
9.925334577033155 7.954012377173311 0.0
6.352907898232792 1.173665225954276 0.0
7.351721385581032 5.660361289755705 0.0
9.337367583861807 2.76534436379692 0.0
8.693118347802024 4.360254099729149 0.0
9.476812970101324 0.3524826622168163 0.0
7.109868985890334 0.9024224571333925 0.0
7.899106846231403 5.511805431542581 0.0
8.352799544476607 5.187887629361129 0.0
6.957483547582747 0.6176251309213842 0.0
8.099559500483094 1.412323841044818 0.0
9.913030944540278 0.8542404645334569 0.0
9.143075088381442 8.022165366829135 0.0
8.819861450593166 6.356592599428041 0.0
9.319444417409162 1.49938505915629 0.0
6.490262520326714 7.118204362551877 0.0
6.490874470087819 6.582907761235813 0.0
9.82506653058937 0.6146757679104559 0.0
6.803129818897624 4.419048038171804 0.0
9.840901379354312 0.08198751964190581 0.0
9.839740374244226 9.918356239418472 0.0
8.551927134544655 9.449788917425456 0.0
9.92097857388158 3.249999999993177 0.0
5.797087413057367 7.077351493358238 0.0
9.255412859987286 6.433984412022419 0.0
8.668174522249984 1.740767926084485 0.0
9.920991430240607 6.25262219124529 0.0
7.57275248448898 1.94367954756322 0.0
8.052865444445507 8.19900054463639 0.0
8.748697149245206 4.25201068974208 0.0
9.158270227735827 0.5542256343091421 0.0
5.997487767477439 4.787924707603557 0.0
6.119759900601896 4.78043793682227 0.0
4.353034750397793 8.619182743639561 0.0
8.721093521611476 5.588932824583312 0.0
5.717101151444983 1.123034066822819 0.0
9.825602081347064 8.68753399402474 0.0
8.005502510832988 8.7824052910506 0.0
5.548184234622668 6.408009287230429 0.0
5.77830300433981 6.598697187164234 0.0
9.613093825495433 4.50282172481406 0.0
9.928981132641653 9.74928475696928 0.0
6.613628176297015 4.515513362596662 0.0
1.822126723816303 1.297795131355289 0.0
9.514164594137375 1.43081427463862 0.0
4.735494753432723 3.698541604583975 0.0
9.52844959749262 8.615213629960298 0.0
4.660704511759056 0.7947595073298008 0.0
6.82340845160293 5.239926830264399 0.0
7.885938077030673 7.380147032865134 0.0
7.884599891021201 6.09005968568029 0.0
8.846834820720167 9.653276456345532 0.0
8.457777199486827 0.3851010632068662 0.0
6.66485224572131 8.771510767670392 0.0
9.091499342133352 9.708315832477556 0.0
9.824286725109655 4.976315293637262 0.0
7.848197684391786 5.632217046637356 0.0
3.88430598115417 4.225391362015386 0.0
8.776890759183289 2.809688928468134 0.0
7.393884285023409 3.59397875231041 0.0
6.927568893329758 4.396788356869783 0.0
4.96854327720728 2.662368428358774 0.0
9.1480130720193 3.951479613991279 0.0
7.071049729490975 2.38092990636632 0.0
3.40193058782919 1.686321186206593 0.0
7.612042194200681 4.815904436723407 0.0
9.043395868401339 6.888481825015849 0.0
9.098933057562759 8.152197681006806 0.0
6.058682303253315 3.857501492181965 0.0
3.707092669281355 2.986685502034343 0.0
5.113272509841263 5.189455016444592 0.0
6.960565857079232 3.416349532571279 0.0
8.755151527375476 7.649255597361291 0.0
3.393680865444538 3.679982303262531 0.0
3.117424600120088 3.35605258976247 0.0
8.530814041264104 5.488376426140491 0.0
4.820719767306654 5.106646490188182 0.0
9.918899263509473 4.144927088739744 0.0
9.918194630017027 7.447268230913605 0.0
8.461970084137805 3.144844565847669 0.0
9.924415919486059 6.949999999995354 0.0
7.184050152099684 2.72771667662237 0.0
8.834356715215904 7.801565642745232 0.0
8.689015446783005 4.145232831954543 0.0
8.490778532265319 8.234414357968106 0.0
8.63666290918932 2.83060276219705 0.0
4.61028976098935 4.741894230894578 0.0
6.314735925012879 4.003132559161639 0.0
9.20786580425652 4.67001723737971 0.0
7.141401229301469 4.873205425098625 0.0
6.235177809922153 4.774126344778935 0.0
9.12491895896937 3.145675090615719 0.0
9.255747684068178 3.162525801823036 0.0
8.312852272796098 2.290855459722148 0.0
1.449266720542303 3.363629101350872 0.0
9.525687840398492 4.800807314407045 0.0
4.829905263804087 8.14474456977717 0.0
9.09338914689732 7.563794106183232 0.0
5.389401689694107 5.283808684471545 0.0
8.530979415204587 3.029374286908943 0.0
7.901489077080633 6.535344047486632 0.0
9.218572924671975 5.760893551533255 0.0
8.562382833959296 4.143913974026883 0.0
8.62959127904665 8.974877485888243 0.0
9.408442441596518 9.62276529745719 0.0
7.5034765601713 3.869833107932387 0.0
9.842813436634783 6.600620949014236 0.0
9.826116984327193 8.911617279149695 0.0
7.529907780698261 0.7369111006685982 0.0
7.832164962480427 2.905293639437395 0.0
8.39517908433056 3.267417602291069 0.0
9.823014010107707 9.085319632577246 0.0
9.022314123618541 3.944559746338292 0.0
4.243701230676532 5.332574856090426 0.0
9.816740542566388 1.127839952679595 0.0
8.166775715766304 5.693916696568397 0.0
8.865374421689054 8.068986769641638 0.0
8.761145809863661 6.470583506581853 0.0
8.998345275919851 9.209303502026401 0.0
9.698477487436316 6.706902829754045 0.0
6.439032098063426 0.3109134377713525 0.0
7.562681994382136 4.643158005207056 0.0
9.03999088074715 0.2799354672273258 0.0
5.180741540467516 3.805018725608906 0.0
6.243990330956698 2.718077286244967 0.0
9.79416634023361 0.1815240178579244 0.0
9.926540005061975 2.847049370876555 0.0
9.826476210374608 2.670192168078066 0.0
6.365816673179121 4.536333049275508 0.0
5.546353765219417 4.618331215552614 0.0
9.820703096450293 2.000649418331399 0.0
6.884388790679166 3.561583980715254 0.0
7.431303395649604 5.747824222777201 0.0
8.849816832721245 2.19318290395604 0.0
4.185147517585975 5.697469360586313 0.0
9.165905238119013 5.873664931582344 0.0
7.70479478158537 1.788324620089049 0.0
9.627376046933474 0.9196091445437269 0.0
6.657687963328663 5.144792385996769 0.0
9.83245016645186 0.3925568446109945 0.0
7.483092985762584 9.253837199159435 0.0
5.445348362202234 3.977855663863651 0.0
7.476680532833337 4.837183287808616 0.0
9.572749890969304 8.505160319814301 0.0
9.915853314998252 9.437014513917465 0.0
7.679469018350979 7.390484878021194 0.0
9.418139053434402 4.790576000488359 0.0
8.096967733471567 5.865447162201908 0.0
9.829153508938724 8.378494945652118 0.0
9.926595955569645 5.157718300415699 0.0
8.774484245600224 7.939747459426853 0.0
8.629764448155779 6.481031318922794 0.0
8.961169458302376 3.839036702328818 0.0
4.617199205561317 5.256318959792646 0.0
8.480815774219478 4.031210317621497 0.0
9.708341592512763 3.401018043990571 0.0
7.183974816647467 4.77882314543966 0.0
9.821437962294304 7.659391965474772 0.0
8.150320284869602 2.286501016204562 0.0
9.828114434347311 1.684891358832554 0.0
5.349187766238684 6.538177907133678 0.0
8.076053471314525 2.76180604769483 0.0
4.907713691134565 5.29818629967416 0.0
0.6874399366049438 4.328593906714074 0.0
0.6980011780697519 5.702671170050627 0.0
8.263861466707834 8.182284285231713 0.0
5.838783785156478 4.913981390426639 0.0
7.807619472656604 7.235706382002089 0.0
9.388504256318683 6.022122644748753 0.0
9.929839894767033 6.436189192303577 0.0
8.3205848711706 3.39107920408397 0.0
3.240770542267401 4.019899919523968 0.0
8.059047070496568 2.468855909103855 0.0
9.932479519490421 2.449625056415224 0.0
7.737639000139152 4.580708137963557 0.0
8.26141077223695 0.3940397126348397 0.0
9.69568953371801 1.959951226402445 0.0
6.469120930453264 4.892267070266994 0.0
9.167223997255698 0.8102256463122337 0.0
6.236889648241256 0.9291076084031108 0.0
8.306379082772498 5.268830342852036 0.0
6.716089118890225 5.239344620507032 0.0
9.82511981852641 9.282822358664017 0.0
6.68375719572285 4.404998642130821 0.0
8.913754712375674 6.908138360584365 0.0
6.173250048857013 5.251634416326969 0.0
4.235907497612446 1.924052997345291 0.0
5.151007663981651 2.438629730660893 0.0
8.924254300637541 9.3764975797567 0.0
4.438612423541503 5.287968640901957 0.0
8.571203234299599 1.897009944569934 0.0
6.878800676380218 5.821332862798138 0.0
5.710626178601224 4.792560699857408 0.0
7.149510071621283 5.216310009157644 0.0
2.099966541549645 2.334742113488256 0.0
9.93396330620579 5.350566393301629 0.0
7.143046479323961 8.646955109387985 0.0
7.965747313080266 5.193641450105844 0.0
6.3314394693073 5.135050228240639 0.0
7.665821333021348 6.222698255001823 0.0
6.305321657053551 4.659816230868476 0.0
7.833020917089713 5.208837056143474 0.0
9.41455902676429 2.869725681199307 0.0
8.567151507735133 6.598605357295113 0.0
7.405527786978573 4.377085529441429 0.0
6.552969697053132 5.137148974085434 0.0
9.93630620742063 8.042778076596578 0.0
7.166743296019233 4.593171678848165 0.0
6.595561806063966 5.839366735225723 0.0
6.066152182102007 5.262519562574559 0.0
9.834694151277489 0.9093455747994099 0.0
8.98259191950674 7.579732466796592 0.0
6.465071238839505 5.25485771955322 0.0
9.759759896588413 3.236659507608532 0.0
4.775529448101694 5.224235675150505 0.0
9.935991245222917 7.153416415978829 0.0
0.6530736820718381 9.352299998916202 0.0
0.6449439415299687 0.6468300344151556 0.0
7.804690364869245 4.495816547678174 0.0
9.84503784553893 5.70620404704573 0.0
9.83525329400959 3.826992990746767 0.0
9.922964894244684 4.265000406933376 0.0
8.333767638401964 1.121219971446645 0.0
8.876012546033895 7.019147158538482 0.0
8.172413577824324 3.413096916572049 0.0
7.232233017296214 4.478957103028363 0.0
6.214597295185415 3.852860083673202 0.0
9.85013791746415 4.400709747289421 0.0
3.941627380932058 6.342995010255737 0.0
3.097271569675528 8.77391871286929 0.0
9.292917152323044 6.010976049411984 0.0
8.104342196673183 5.184165973282902 0.0
8.994300084006271 3.652611812846807 0.0
9.937157897030163 5.549999999993244 0.0
8.721368888525245 7.274540720770752 0.0
8.920003648712827 0.9516585309368178 0.0
7.910527456030004 8.536826514867816 0.0
9.846441288756814 4.60515911863952 0.0
9.584942233925151 4.712073182517884 0.0
9.642357858573972 6.805672051759494 0.0
9.797024725252207 9.838837222258014 0.0
9.842451438022124 4.018973836958878 0.0
6.112723137676118 3.704473949316424 0.0
7.574641969193845 3.765362276156904 0.0
7.826594968121701 6.200366572362263 0.0
7.762805366733504 9.34009502796868 0.0
9.56854033867856 1.012566255816665 0.0
7.71256563655353 5.219373702836014 0.0
9.68039392238282 8.786964504862018 0.0
5.910362452777086 9.277662068919813 0.0
7.418090653922814 3.326443419100716 0.0
9.857704179097952 4.697553149694669 0.0
8.452469674653342 8.996585816905599 0.0
9.522351366699843 2.057525484575908 0.0
7.802315574700843 9.548878971475935 0.0
9.938875656926385 3.449999999992592 0.0
8.425189037911712 6.608575180629274 0.0
5.925965231566842 2.523669697740033 0.0
6.654918072256329 5.95749128982984 0.0
9.826748589235729 9.631118448471485 0.0
8.6684585637523 7.39633999085442 0.0
9.844673843931567 3.090088625379724 0.0
9.93613850661301 2.250382721159617 0.0
9.218291993658738 2.892108990205171 0.0
9.83502846611296 8.212781989607324 0.0
7.754136409732265 7.104288507262783 0.0
8.510570542791681 2.036933285735889 0.0
7.757745059307245 4.315798612475442 0.0
7.989231770559189 6.201656630465583 0.0
8.068934521422738 4.198631572122605 0.0
4.957478134450373 9.038766150325067 0.0
7.208661142641733 6.501402463831379 0.0
7.299506095906239 4.363561999234681 0.0
8.250303873550486 2.105322217421675 0.0
8.678637541413377 7.053471135702286 0.0
9.761528395137384 6.163503990672834 0.0
9.84494857233395 8.59999999999775 0.0
9.83825138794677 3.672838954969637 0.0
5.121008544047756 5.808127183024784 0.0
8.343911550360986 4.043535893276861 0.0
9.85324441775315 5.899999999993774 0.0
9.51114465213134 8.41035540646284 0.0
6.505812179224195 6.93390566262983 0.0
6.15572847138365 9.023097246950844 0.0
3.352081892333425 3.024853379890529 0.0
6.433163283162099 8.675072413910678 0.0
8.825744236698243 3.624446391299867 0.0
4.883007294861279 7.819620905924936 0.0
5.876659170760434 5.638247433601083 0.0
6.859400040348503 6.510797998354633 0.0
7.946400945409184 3.500317276373196 0.0
7.496830255505493 6.653194511698024 0.0
9.852183479755313 4.891525833556942 0.0
9.77998778436291 2.922486526124376 0.0
6.774672660492365 5.324728659740495 0.0
5.717254072187427 6.824125962512845 0.0
9.713440940838062 4.63793103997539 0.0
8.859858662536796 0.2721395536350836 0.0
8.37556017530946 9.436653414116012 0.0
7.395237381047616 7.885576562773319 0.0
5.4709157802033 4.511152089197594 0.0
9.489749416979361 9.691840729914848 0.0
4.599216022837964 3.46438688931078 0.0
5.572287492757569 4.807021644849729 0.0
9.926499336309957 9.92730688390086 0.0
9.926499336310107 0.07269311609890093 0.0
9.338127766332573 0.3585313952168247 0.0
6.810761948165162 3.414693294319008 0.0
8.166274345037138 5.943611545564389 0.0
5.2892644736731 6.301081312912763 0.0
9.731911074791544 7.649313380659622 0.0
8.90251102352767 9.50983415326544 0.0
8.997881406541017 1.033666784655452 0.0
5.835124768755703 2.738139962594905 0.0
9.665357480775825 6.185331297099201 0.0
7.656532192558493 8.217157287499347 0.0
9.170463887605525 2.975444721032631 0.0
4.208158615905443 0.8648302238584886 0.0
6.97015686031129 5.933674629077266 0.0
6.181941366523793 3.565885175921835 0.0
3.30313590337911 6.393402837735046 0.0
6.447482061767014 4.816169316820496 0.0
8.185341428749446 4.169172087371246 0.0
4.552595724340015 8.298301336212145 0.0
9.84850676569699 8.999999999998423 0.0
9.846941514449377 7.393642828194986 0.0
7.924592433490734 2.788309934035703 0.0
8.154308714226714 8.853640122009672 0.0
8.876629743004642 1.96110242719995 0.0
7.228849192966834 8.90811350348676 0.0
9.852301635085423 8.296637825215246 0.0
5.219795195341889 5.547413133147649 0.0
9.861497117995457 6.901363010201344 0.0
2.953911258021604 6.136007283255669 0.0
6.93158841067062 4.77708273647784 0.0
9.67540418457871 2.912802891506324 0.0
4.194055958522277 4.437353127730132 0.0
6.133959559341536 0.406856611599261 0.0
8.29952795189331 9.309744645643846 0.0
9.843692337952948 1.209647690818311 0.0
5.164986286280336 6.671544079402435 0.0
9.838533350075606 2.081705440779448 0.0
8.301244777513975 6.604088853319459 0.0
5.471494771710784 2.714598185146428 0.0
8.86534684892311 1.208599471795828 0.0
9.940610684232212 1.451558535868664 0.0
9.40896208432968 1.428353940655538 0.0
2.329177605337097 4.238803555614174 0.0
5.980761651517799 7.182207186682233 0.0
9.66541573964336 0.1719254072074424 0.0
7.220979380229172 7.806128737674462 0.0
1.251721227904697 6.151932667911503 0.0
8.104967286191181 6.057912607875576 0.0
6.650768762224724 4.817922869198292 0.0
6.634976350437587 3.213339182992986 0.0
7.034320437500567 4.898219100342838 0.0
9.502772020064167 6.283064492634301 0.0
8.13187938667684 3.518506862055515 0.0
9.855471943454193 2.599999999994991 0.0
9.056747742708522 8.263936599935574 0.0
4.352645795441222 5.724453640019 0.0
3.744263984699181 1.488951698361357 0.0
5.175860134287045 3.6375726667098 0.0
7.736434712114619 6.400417475661193 0.0
9.857658576695343 6.316607183405179 0.0
7.876525261950537 4.304285002335559 0.0
9.856114384785611 7.914602773442983 0.0
9.848334119947063 0.7059644476295188 0.0
9.59694321995579 6.895814046141667 0.0
5.906465212962551 3.869023950643881 0.0
9.840676994268005 9.364956386459765 0.0
5.355015287544095 3.83518170601625 0.0
6.374090407153147 5.855743754257685 0.0
8.227401290513832 5.297819733684674 0.0
5.451235131977493 4.825706629991923 0.0
6.022070213762754 5.355923882747634 0.0
9.845674433677614 6.108401449483281 0.0
9.835067400944396 7.739582406783081 0.0
8.602026805792988 2.941372356914139 0.0
5.059869081004962 5.269480960018243 0.0
5.284714507903736 5.26496663762182 0.0
9.627110479149561 7.660076105040499 0.0
6.820001127809743 4.792514421153957 0.0
5.120512795059439 4.806607659110254 0.0
9.56933817216883 2.911464407429096 0.0
9.74091654291531 9.267545397628387 0.0
9.93006767325302 6.576784040838644 0.0
9.642486276936268 4.650227701598451 0.0
5.185183328569137 9.410919109238325 0.0
9.37052946854105 4.605636695802024 0.0
1.677077220416309 5.871167715901136 0.0
7.345783833404538 3.184020711886284 0.0
5.419239942654976 5.982692039856376 0.0
6.133318300188262 2.551919945731369 0.0
6.187291396343277 4.499077117404439 0.0
1.231465237822878 3.921479198315213 0.0
8.969849937139944 9.699215363213542 0.0
9.218303154263054 6.037447959776716 0.0
CELLS 4886 19544
3 1113 1356 1450
3 1402 231 1659
3 272 269 1414
3 396 394 1777
3 1451 945 1452
3 194 81 1801
3 1847 1501 2104
3 2024 2121 2479
3 1115 1113 1450
3 1124 1413 1844
3 1061 1955 2409
3 307 305 1645
3 1592 1369 1593
3 238 1501 1847
3 1955 1883 2409
3 1808 243 1910
3 1885 978 2362
3 1440 793 2092
3 189 1488 1608
3 353 350 1864
3 2007 2231 2232
3 307 1645 2493
3 1096 1760 2496
3 2178 874 2179
3 621 625 1595
3 1493 1480 1938
3 1655 1268 2137
3 1341 1410 2212
3 243 1808 2360
3 1902 1446 2516
3 1760 1096 1763
3 856 790 2180
3 2008 2046 2105
3 789 1809 2067
3 694 1543 1575
3 1127 1762 1953
3 1748 807 2228
3 1543 1308 1575
3 820 1872 2170
3 1417 954 1998
3 1369 1592 2386
3 272 1414 1787
3 329 333 1998
3 1544 1095 1545
3 2231 1490 2232
3 1342 1683 1790
3 374 377 1797
3 807 1678 2228
3 1665 198 2128
3 141 142 1620
3 325 322 1952
3 231 1402 1654
3 198 1665 2010
3 1890 1307 2387
3 208 1438 1619
3 2016 1970 2156
3 1436 212 2020
3 954 1417 2333
3 1736 1894 2244
3 1491 1750 2143
3 1677 1064 2146
3 1474 1258 1475
3 1500 233 1930
3 1446 2415 2516
3 1700 973 1800
3 2128 2270 2316
3 1316 1315 1593
3 1307 2341 2387
3 2258 1324 2328
3 1083 1507 1508
3 693 1095 1544
3 621 1595 1596
3 667 1571 1872
3 1932 1766 2061
3 393 391 2240
3 1342 1790 2400
3 252 1707 2234
3 931 978 1885
3 1430 1116 1704
3 1411 1109 1714
3 1478 1227 2440
3 1990 195 2297
3 1792 1167 1985
3 1682 444 1975
3 394 397 1777
3 1711 2028 2162
3 1574 856 2180
3 2008 1851 2046
3 736 1493 1938
3 1069 1060 1662
3 1458 455 1754
3 862 691 1705
3 1161 1642 2286
3 1699 1700 1800
3 447 516 1637
3 955 1482 1483
3 2024 206 2121
3 391 1773 2240
3 1072 1412 1893
3 212 1436 2350
3 1566 1365 1568
3 259 1441 1672
3 872 870 1764
3 330 328 1889
3 1539 1161 2286
3 1897 1898 2275
3 1434 1990 2297
3 1109 1411 1730
3 319 307 2493
3 1762 1761 1953
3 1369 1316 1593
3 1540 834 1832
3 1505 652 2442
3 1732 1655 2137
3 921 1712 2295
3 1872 1388 2170
3 1712 921 2125
3 2028 244 2162
3 1506 1570 1680
3 1569 368 1964
3 1571 667 2375
3 1587 2178 2179
3 196 1723 1737
3 524 2016 2156
3 1528 1250 1733
3 1115 1450 1973
3 1938 1480 1971
3 1809 1396 2067
3 1641 249 2299
3 1223 1258 1474
3 1365 1566 2120
3 1981 962 2316
3 1538 353 1864
3 455 1458 1756
3 152 233 1500
3 1116 1430 1703
3 817 652 1505
3 1347 2003 2004
3 1607 1958 2085
3 194 1801 2195
3 1410 1341 2351
3 223 1415 1710
3 197 1511 2346
3 2198 787 2225
3 81 82 1801
3 1438 208 1620
3 1444 522 1823
3 1511 197 1950
3 726 718 1567
3 1637 516 1739
3 1708 2337 2341
3 1280 1649 2124
3 2337 1395 2341
3 1327 1709 2315
3 1225 1227 1478
3 691 624 1705
3 476 2224 2305
3 830 832 2204
3 1750 1491 2403
3 1366 1897 2275
3 2345 1583 2352
3 2054 405 2110
3 1984 2172 2230
3 1846 2198 2225
3 1177 2042 2418
3 2121 1367 2479
3 1527 1531 1541
3 916 1039 1834
3 1413 1124 2467
3 1622 1503 1868
3 249 1641 2019
3 1805 405 2054
3 1761 1007 1953
3 1415 223 2395
3 960 1756 2203
3 368 1569 2135
3 1402 1659 2473
3 941 1433 2471
3 1267 1477 1501
3 260 2002 2265
3 1704 558 2077
3 2224 1886 2305
3 2053 1386 2199
3 1452 945 1952
3 1717 1611 1718
3 1682 1975 2230
3 1760 1762 2496
3 1481 203 2104
3 1264 1266 1670
3 142 236 1620
3 2133 1182 2179
3 1791 1602 2183
3 350 346 1864
3 1412 1072 2393
3 1281 1575 2255
3 1565 1948 2155
3 849 1449 1513
3 1958 396 2085
3 1339 1069 1662
3 834 1540 1917
3 269 267 1414
3 1268 1267 1501
3 1440 2092 2468
3 1399 1981 2316
3 1635 1636 2041
3 1454 252 2234
3 1451 1305 1890
3 1375 1883 1955
3 362 366 1786
3 1484 2410 2528
3 1449 849 1640
3 1267 1474 1477
3 200 1611 1717
3 1054 1581 1582
3 1350 1977 2253
3 190 1390 2118
3 788 1956 2193
3 1709 1327 1888
3 2233 2298 2413
3 1488 189 2355
3 478 1685 1714
3 230 1525 1690
3 1687 478 1688
3 427 429 1756
3 1570 1065 2476
3 1880 1133 1988
3 1649 656 2124
3 1537 209 1614
3 1134 1769 1986
3 1220 1268 1655
3 396 1777 2085
3 1167 1755 1985
3 2229 1744 2296
3 1575 1281 2287
3 127 240 1882
3 377 647 1797
3 954 329 1998
3 220 1697 1698
3 1342 1341 2212
3 1441 264 1672
3 1512 188 2433
3 763 2345 2352
3 1685 1411 1714
3 1805 1188 1951
3 1347 2004 2157
3 1054 1582 1667
3 1333 1617 1674
3 2217 73 2361
3 1539 1036 1917
3 1039 1292 1834
3 208 141 1620
3 1965 1964 2038
3 693 1544 1969
3 1453 239 2279
3 203 1481 2049
3 945 1451 1889
3 680 1459 2134
3 354 2147 2196
3 1405 1932 2061
3 1723 1722 1737
3 1748 1175 1927
3 1532 1528 1733
3 2057 1824 2154
3 1406 1659 1702
3 1948 1186 2155
3 210 1598 2114
3 1685 478 1687
3 1324 1325 2328
3 1526 1250 1527
3 165 166 1509
3 1493 736 2523
3 1526 1527 1541
3 1390 190 2417
3 522 1444 1998
3 1680 1570 1732
3 1017 1442 2525
3 374 1797 2430
3 1507 1083 2197
3 1756 960 2221
3 2270 1400 2316
3 2205 1452 2282
3 1074 1187 1888
3 2158 1245 2200
3 1442 1017 1684
3 864 1116 1703
3 1750 1751 2143
3 1456 516 1492
3 1677 2146 2149
3 2022 1339 2388
3 1602 258 2183
3 678 1594 1595
3 1245 1670 2200
3 972 830 2204
3 2143 983 2342
3 1268 1501 2226
3 1266 1461 1670
3 1487 222 2465
3 1382 2022 2388
3 58 59 1661
3 2147 1543 2196
3 1484 1485 2410
3 628 2053 2199
3 1906 1549 2259
3 364 362 1786
3 1339 2022 2247
3 1636 525 2041
3 625 678 1595
3 678 1593 1594
3 2212 1410 2222
3 1837 1865 2215
3 1699 1800 1801
3 866 864 1703
3 893 1472 1982
3 1735 1736 2244
3 1633 1255 1922
3 126 127 1882
3 681 867 1656
3 1351 1401 2363
3 11 228 1588
3 1127 1953 2454
3 265 266 267
3 1722 1122 1737
3 1389 1691 2069
3 1613 1610 1616
3 1227 1256 2440
3 429 455 1756
3 1535 1177 2418
3 322 324 1952
3 973 1700 1802
3 1964 368 2038
3 1176 1865 1866
3 1096 872 1764
3 1176 1866 1875
3 193 1839 1892
3 156 157 1441
3 615 617 1596
3 686 1520 2480
3 1409 2097 2305
3 2410 1151 2528
3 1427 2217 2361
3 440 1911 2314
3 1744 1743 2296
3 516 1456 1739
3 1939 589 2164
3 690 931 2150
3 1062 1579 1580
3 1054 1580 1581
3 955 1483 1716
3 1064 1677 2248
3 1956 1616 2193
3 1776 1893 2026
3 1398 1115 1973
3 2002 1453 2265
3 1541 1531 1542
3 216 2191 2536
3 1736 1326 1894
3 1065 994 1066
3 1598 2115 2175
3 2314 1911 2358
3 1433 941 2042
3 2115 1209 2175
3 717 1550 1551
3 188 1941 2433
3 267 1132 1414
3 771 1569 2064
3 1157 1545 1546
3 1231 1250 1526
3 1933 240 2181
3 222 1487 2025
3 1525 230 1765
3 1430 1704 2077
3 757 1744 2495
3 264 263 265
3 883 773 1917
3 739 2205 2282
3 1667 1582 2434
3 1744 757 2474
3 239 1453 2002
3 1441 259 2356
3 2005 1443 2012
3 254 1766 1932
3 1509 166 1679
3 1477 1475 1481
3 793 1440 2165
3 1385 1523 2377
3 1481 1475 2523
3 156 1441 2356
3 1066 1220 1655
3 945 325 1952
3 2094 2087 2134
3 1747 1175 1748
3 253 262 263
3 1327 1074 1888
3 718 715 1567
3 2046 1043 2105
3 240 1933 2399
3 1305 1307 1890
3 224 58 1661
3 1195 1566 2285
3 1590 1393 1749
3 1255 1230 1922
3 353 1538 2073
3 358 1999 2325
3 882 1802 2036
3 1024 1020 1604
3 333 522 1998
3 1401 1351 2414
3 1475 1258 1476
3 2310 786 2364
3 328 945 1889
3 807 1748 1927
3 825 724 1912
3 1742 263 2491
3 267 266 1132
3 2077 2102 2203
3 1431 1432 1860
3 1212 1957 2312
3 2097 476 2305
3 1132 1402 2473
3 717 713 1550
3 1746 693 1969
3 1372 1124 1844
3 1256 1541 2269
3 1977 1350 2274
3 2332 1978 2443
3 874 2133 2179
3 1983 1534 2171
3 1157 1544 1545
3 1230 1228 1922
3 1580 1579 1581
3 1565 806 1948
3 1416 1363 2413
3 1287 1995 2398
3 265 263 266
3 1534 1529 2171
3 1604 1834 2428
3 1255 1633 2509
3 1344 1643 1644
3 1332 1388 1571
3 1423 217 2217
3 2191 1057 2451
3 458 447 1637
3 1250 1233 1733
3 472 2212 2222
3 1175 1747 1840
3 1652 256 1653
3 1073 1347 1572
3 200 145 1609
3 683 640 1585
3 1116 862 1705
3 1221 1223 1474
3 1778 801 1803
3 1503 1622 2471
3 1475 1493 2523
3 464 680 2134
3 14 210 2114
3 579 1880 1988
3 1434 1435 1990
3 1447 2310 2364
3 275 274 276
3 2294 1871 2419
3 814 1068 1684
3 1172 1439 2273
3 273 272 274
3 1363 1416 2406
3 1220 1219 1221
3 1060 1656 1662
3 1099 1792 1985
3 2048 1198 2168
3 1241 1245 2323
3 699 723 1753
3 1640 1862 2070
3 910 1018 1584
3 1586 1067 1587
3 1656 867 1662
3 1067 686 2480
3 654 2242 2294
3 1593 1315 1594
3 1880 553 1974
3 236 1717 1718
3 617 621 1596
3 1723 196 2313
3 402 1877 2116
3 273 274 275
3 2202 1869 2252
3 1510 1358 1767
3 193 1892 2373
3 1188 1805 2054
3 1220 1221 1267
3 1066 1218 1219
3 1517 1097 1518
3 1677 1676 1858
3 686 277 1520
3 268 267 269
3 697 857 1592
3 220 1698 1699
3 1802 1700 2036
3 1612 1537 1614
3 929 817 994
3 228 12 2136
3 2110 2116 2482
3 1659 1658 1702
3 1611 1613 2280
3 1344 991 1643
3 683 1585 1604
3 1638 1358 2404
3 1485 1034 2410
3 2214 833 2424
3 271 272 273
3 1482 955 1962
3 1066 1219 1220
3 931 1885 2150
3 1613 1891 2280
3 1189 1589 2204
3 1566 1195 2120
3 726 1567 2490
3 1122 1722 1874
3 1494 319 2493
3 1671 259 1672
3 1267 1221 1474
3 603 528 1591
3 1664 2128 2316
3 1817 1924 2174
3 1626 1660 2111
3 1474 1475 1477
3 1023 1062 1580
3 1957 1599 2312
3 1764 1939 2164
3 1358 1950 2404
3 200 1609 1610
3 1431 1082 1432
3 1778 1803 2521
3 1830 1832 2075
3 1930 233 2369
3 1329 1482 1650
3 757 1959 2522
3 1239 1247 1597
3 758 1978 2332
3 1569 1290 2064
3 216 1694 2191
3 1453 1420 2265
3 1549 1906 2129
3 24 215 1674
3 19 235 1676
3 1621 1057 2191
3 1691 1389 2262
3 1617 1333 2192
3 929 994 1065
3 1769 1672 1986
3 1893 1412 2026
3 1609 1537 1612
3 271 269 272
3 1373 1438 1620
3 217 1423 2381
3 517 330 1889
3 1322 1055 1667
3 1974 553 2499
3 228 2136 2187
3 1589 1189 1788
3 1999 1577 2325
3 2110 405 2116
3 189 1608 1842
3 1055 1050 1667
3 739 1455 2205
3 1865 1176 2215
3 319 1494 2522
3 2474 757 2522
3 1484 227 1485
3 10 11 1588
3 723 809 1753
3 27 230 1689
3 1550 806 1565
3 1179 1180 1217
3 207 1617 2192
3 1433 1217 1502
3 1562 1556 1606
3 1379 2017 2018
3 1245 2158 2323
3 675 1097 1517
3 884 501 1599
3 1020 683 1604
3 1603 1095 1848
3 1001 2057 2154
3 1604 1585 1834
3 1610 1612 1616
3 1764 870 1939
3 2242 1871 2294
3 1669 1264 1670
3 1658 213 1702
3 1995 1646 2398
3 631 539 1600
3 1491 2143 2342
3 1801 1800 2195
3 1200 1199 1693
3 1535 940 1861
3 1534 758 2332
3 914 2258 2328
3 1588 228 2457
3 216 138 1694
3 151 152 1500
3 1133 1880 1974
3 1677 1858 2248
3 1294 1622 1868
3 875 1010 1767
3 1379 2018 2416
3 1279 2202 2252
3 182 256 1652
3 1592 857 2386
3 672 681 1656
3 615 1596 1824
3 1093 1487 1623
3 1823 522 2100
3 1245 1242 1669
3 1582 1581 1583
3 758 1534 2306
3 1975 1984 2230
3 1358 1510 1950
3 1663 1336 1665
3 2102 960 2203
3 366 1087 1786
3 1740 1490 2231
3 21 207 1709
3 145 146 1609
3 2339 765 2384
3 603 1591 1668
3 2081 199 2149
3 1540 1832 1879
3 1721 1723 1947
3 1754 455 1793
3 1751 1753 2119
3 882 1701 1807
3 1540 1539 1917
3 242 1695 1697
3 1521 354 2091
3 1363 2233 2413
3 1584 1018 1925
3 703 1067 1586
3 1177 1178 1179
3 795 916 1834
3 277 276 607
3 1571 1388 1872
3 22 23 1617
3 1097 823 1177
3 25 26 1624
3 419 418 1790
3 1728 1906 2259
3 440 1455 2261
3 1877 1318 2116
3 1488 1156 1608
3 1439 2130 2273
3 1889 1451 1890
3 1614 209 2389
3 1472 893 2094
3 675 821 823
3 23 24 1674
3 1788 1190 2183
3 917 941 1622
3 1763 1096 1764
3 1068 1442 1684
3 1034 1485 2173
3 2172 1533 2230
3 138 139 1694
3 1065 1570 2197
3 607 674 675
3 1536 1248 2268
3 229 135 1734
3 1437 1925 1926
3 680 510 1646
3 147 209 1537
3 26 27 1689
3 1627 705 2163
3 206 1651 2121
3 2409 1785 2462
3 1492 682 2447
3 1223 1225 1258
3 889 1772 2374
3 253 263 264
3 275 276 277
3 1455 739 2261
3 2022 1382 2176
3 150 227 1484
3 639 1019 1591
3 1449 1640 2070
3 1082 833 2214
3 1503 1502 1504
3 144 200 1717
3 1643 991 1713
3 1190 1791 2183
3 1538 1804 2073
3 1256 2269 2440
3 18 19 1676
3 521 531 2000
3 790 849 2180
3 1075 1329 1650
3 1087 1782 1785
3 1066 994 1218
3 270 269 271
3 682 1492 2494
3 185 252 1454
3 253 158 262
3 1629 1632 1633
3 200 1610 1611
3 1477 1481 2104
3 1623 1487 2465
3 1518 1097 1535
3 1414 1132 2460
3 1179 1217 1433
3 177 1506 1680
3 1392 1017 2525
3 1832 834 2075
3 675 823 1097
3 1459 2094 2134
3 1782 1087 1795
3 1838 1730 2372
3 1639 149 2528
3 1617 23 1674
3 2265 1420 2489
3 180 232 1859
3 1527 1250 1528
3 20 21 1709
3 1083 1508 2311
3 903 866 1703
3 1455 440 2314
3 1187 1858 1888
3 1659 1406 2473
3 1446 1902 2166
3 421 1951 2106
3 1598 210 2115
3 154 259 1671
3 1288 1835 2080
3 1832 1831 1879
3 1258 1225 1478
3 1024 1604 2117
3 1263 1429 1739
3 706 705 1627
3 1583 1581 2352
3 407 1805 1951
3 856 1574 2527
3 1701 882 2036
3 1624 26 1689
3 717 1551 1552
3 1385 2377 2391
3 2302 1745 2354
3 1572 1347 2157
3 1036 883 1917
3 1689 1690 1691
3 1664 1665 2128
3 1476 1479 1480
3 1751 2119 2143
3 815 814 1684
3 1790 889 2400
3 1606 1607 2085
3 265 267 268
3 418 889 1790
3 1522 1521 2091
3 135 136 1734
3 1726 1445 1729
3 647 1796 1797
3 1346 1453 2279
3 1293 1827 2117
3 1242 1244 1669
3 1853 1852 1854
3 889 2374 2400
3 1039 1038 1290
3 1524 628 2199
3 1331 1332 1571
3 1291 1290 1569
3 1475 1476 1493
3 1850 1852 1853
3 1490 1740 2456
3 1689 230 1690
3 1256 1526 1541
3 1704 1705 2167
3 1465 1470 1675
3 956 1073 1572
3 1613 1616 1956
3 916 917 1038
3 2014 1522 2091
3 1221 1222 1223
3 1999 763 2352
3 234 10 1588
3 1697 220 2335
3 1527 1528 1529
3 2298 1600 2413
3 1436 2020 2254
3 1642 1161 1678
3 1523 1385 2436
3 1730 1838 2426
3 795 796 916
3 713 711 1550
3 1456 1263 1739
3 999 1336 1663
3 1785 1784 2462
3 409 415 1783
3 607 675 1517
3 1229 1231 1526
3 1958 1855 2078
3 1589 1588 1590
3 1933 261 2380
3 762 1965 2038
3 1756 1458 2203
3 1776 597 1893
3 1794 1072 1893
3 188 1512 2266
3 1774 2339 2384
3 188 1908 1941
3 1010 1510 1767
3 2189 2285 2307
3 773 834 1917
3 1245 1669 1670
3 1248 1597 2268
3 146 1537 1609
3 818 910 1584
3 1641 1313 1651
3 1217 1745 2302
3 1065 1066 1655
3 1597 1247 2047
3 1360 2177 2376
3 1612 1615 1616
3 2126 867 2186
3 1019 683 1020
3 1747 892 1840
3 1092 1093 1623
3 261 1933 2181
3 400 424 1666
3 1516 1903 2377
3 1100 1392 1605
3 247 1738 1881
3 268 1134 1986
3 1177 823 1178
3 884 1599 1957
3 263 262 2491
3 806 1627 1948
3 1227 1229 1256
3 191 1729 2504
3 1636 1635 2502
3 1480 1479 1601
3 1721 1947 2498
3 1924 1146 2174
3 229 1734 1735
3 175 204 1725
3 1179 1178 1180
3 354 1521 2147
3 665 697 1592
3 640 646 1585
3 627 545 1636
3 1882 240 2399
3 1556 1555 1606
3 1373 1620 2394
3 1871 1071 2419
3 548 1628 1629
3 455 436 1793
3 974 1831 1841
3 1844 1413 2392
3 1612 1614 1615
3 209 1639 1937
3 1329 1330 1331
3 1823 2100 2142
3 1097 1177 1535
3 1021 1020 1022
3 825 1912 2455
3 913 1122 1874
3 400 1666 2113
3 1256 1229 1526
3 1419 1418 2450
3 1552 1551 1553
3 1850 1099 1852
3 1629 1631 1632
3 801 685 2029
3 1618 1619 1621
3 265 268 1986
3 1715 2165 2330
3 1531 1529 1534
3 1022 1024 1576
3 658 693 1746
3 703 686 1067
3 1062 1576 1577
3 1023 1022 1062
3 236 1718 2394
3 1688 502 1740
3 1501 1477 2104
3 213 165 1509
3 646 795 1585
3 196 1737 1738
3 379 679 1795
3 639 640 683
3 924 875 1767
3 1752 699 1753
3 207 2192 2315
3 627 1636 1660
3 1217 1180 1745
3 730 728 1833
3 528 561 1591
3 1444 1417 1998
3 252 186 1602
3 1729 1445 2504
3 460 502 1688
3 1418 946 1778
3 1203 1200 1693
3 548 470 1628
3 849 668 1640
3 646 785 795
3 607 276 674
3 14 15 210
3 147 148 209
3 478 460 1688
3 1709 207 2315
3 1157 1546 1608
3 1155 1731 1899
3 1524 1934 2390
3 1775 921 1876
3 1433 1502 1503
3 470 458 1628
3 1223 1224 1225
3 1291 1569 1964
3 871 1056 1826
3 1781 1783 1915
3 1587 1067 2300
3 916 1038 1039
3 1388 1387 1389
3 1611 1610 1613
3 1075 1328 1329
3 1039 1290 1291
3 1538 1265 1804
3 1184 1185 2163
3 597 598 1794
3 1450 1356 2421
3 1835 576 2080
3 1629 1628 1631
3 1331 1330 1332
3 561 639 1591
3 1476 1480 1493
3 705 703 1586
3 639 683 1019
3 1951 1188 2106
3 436 446 1793
3 1472 1297 2142
3 1332 1387 1388
3 1345 984 1720
3 1329 1328 1330
3 1050 1048 1667
3 150 151 227
3 11 12 228
3 557 541 2256
3 1831 974 1879
3 134 229 1766
3 1357 1358 1638
3 1336 1641 2299
3 1650 1482 1962
3 1591 1019 2512
3 1506 1507 1570
3 1803 801 2029
3 1178 823 1972
3 1552 1553 1554
3 1290 1038 1294
3 1028 1313 1641
3 1237 1239 1597
3 993 1017 1100
3 893 2087 2094
3 149 1484 2528
3 1768 1142 1949
3 9 234 1673
3 1554 1553 1555
3 668 632 1640
3 711 806 1550
3 1628 458 1637
3 1098 1829 1830
3 1482 1331 1483
3 531 1818 2000
3 435 419 1790
3 1156 1157 1608
3 1182 1184 2179
3 510 512 1646
3 1231 1233 1250
3 946 841 1778
3 1483 1331 1571
3 1459 680 2458
3 1166 1040 1210
3 892 1657 1820
3 1042 1445 1726
3 1019 1020 1021
3 749 805 1810
3 234 1588 1589
3 1695 242 1892
3 556 1853 2483
3 1018 1572 1573
3 1529 1528 1530
3 1606 1558 1607
3 1761 1759 2308
3 1396 1032 1921
3 1018 956 1572
3 689 1150 1416
3 1827 1293 2515
3 149 150 1484
3 1647 656 1648
3 1543 694 2196
3 399 409 1783
3 545 525 1636
3 268 269 270
3 715 713 717
3 1100 1017 1392
3 1657 892 1747
3 207 22 1617
3 1666 884 2249
3 1671 1672 1769
3 1554 1555 1556
3 146 147 1537
3 1081 1444 1822
3 711 709 806
3 1443 2005 2322
3 660 658 1746
3 1166 1458 1754
3 916 796 917
3 1056 1728 1826
3 1068 1069 1275
3 184 185 1454
3 158 159 262
3 2007 1687 2231
3 805 1708 1810
3 1672 264 1986
3 1561 1562 1563
3 978 1075 1650
3 1590 1588 2457
3 215 25 1624
3 1551 1550 1565
3 1073 1346 1347
3 857 818 1584
3 1648 656 1649
3 675 674 821
3 561 594 639
3 1731 529 1899
3 2303 1454 2535
3 981 903 1040
3 1630 1629 1633
3 993 877 1017
3 724 718 726
3 512 603 1646
3 1676 235 1858
3 814 1060 1068
3 715 717 1567
3 1796 647 1870
3 1715 1171 2165
3 678 1592 1593
3 644 613 1824
3 1690 1525 2145
3 1297 1822 1823
3 271 656 1647
3 1704 1116 1705
3 1225 1226 1227
3 1275 1069 1338
3 910 956 1018
3 1824 1596 2154
3 1403 1100 1605
3 1221 1219 1222
3 1068 1060 1069
3 1901 245 1949
3 1081 1055 1321
3 1751 563 1752
3 1021 1022 1023
3 672 638 681
3 1095 657 1848
3 1235 1237 1248
3 1561 1556 1562
3 1265 1259 1804
3 524 1819 2016
3 978 1650 2362
3 1492 516 2494
3 229 1735 2061
3 185 186 252
3 157 158 253
3 152 153 233
3 9 10 234
3 1527 1529 1531
3 1808 1344 2360
3 1062 1577 1579
3 1509 1679 1977
3 424 454 1666
3 637 638 672
3 981 1040 1166
3 1555 1558 1606
3 751 749 1810
3 1166 1210 1458
3 1651 1313 2121
3 15 16 2260
3 1633 1632 2509
3 2167 1705 2276
3 551 602 2045
3 697 818 857
3 364 1786 1883
3 832 1189 2204
3 1476 1478 1479
3 678 665 1592
3 213 1509 2096
3 1015 888 1124
3 1062 1022 1576
3 679 1782 1795
3 680 1646 1995
3 1101 1100 1403
3 1109 433 1714
3 1248 1237 1597
3 733 730 1833
3 1702 213 2096
3 499 498 1828
3 1418 1778 2521
3 637 600 638
3 1048 1046 1054
3 1577 1576 1578
3 814 766 1060
3 1279 2252 2292
3 474 470 548
3 199 18 1676
3 157 253 1441
3 1048 1054 1667
3 471 472 2290
3 625 665 678
3 795 785 796
3 1264 1265 1266
3 1437 1926 2350
3 1362 2048 2168
3 1394 2337 2371
3 454 884 1666
3 1022 1020 1024
3 751 1810 1923
3 1046 1023 1580
3 1807 1701 1931
3 1618 208 1619
3 566 588 689
3 1828 498 1829
3 501 509 1599
3 1118 780 1775
3 878 817 929
3 1510 1511 1950
3 1618 1621 1694
3 1052 1081 1822
3 1416 1150 1715
3 1239 1241 1247
3 1396 1921 2067
3 1751 1752 1753
3 1264 1259 1265
3 539 566 1600
3 1762 1127 2496
3 1673 1788 2183
3 1555 1557 1558
3 1052 1050 1055
3 725 724 825
3 1142 1770 1771
3 681 853 867
3 454 501 884
3 1346 1420 1453
3 932 1147 1770
3 1546 1545 1547
3 533 582 1818
3 1266 1337 1460
3 1872 820 2318
3 1117 1119 1713
3 1081 1321 1417
3 1253 1259 1264
3 1569 771 2135
3 1052 1055 1081
3 1181 1178 1972
3 709 706 1627
3 1073 1076 1346
3 1098 1828 1829
3 1382 1380 2176
3 1442 1275 1443
3 919 999 1663
3 1789 828 1855
3 877 815 1684
3 509 539 631
3 992 877 993
3 1266 1265 1337
3 2268 1498 2340
3 1130 1032 1396
3 1095 1603 2508
3 886 826 887
3 531 533 1818
3 1131 1400 1881
3 447 437 516
3 2460 1132 2473
3 940 1535 2418
3 768 1873 2037
3 1813 1869 1954
3 1627 2163 2488
3 1497 1495 1645
3 1198 1409 2168
3 724 726 1912
3 1869 987 1954
3 763 1999 2338
3 1010 1170 1374
3 984 976 1720
3 1470 1743 1744
3 689 588 1150
3 1901 1949 2359
3 1640 632 1862
3 274 272 1787
3 563 564 1752
3 994 817 1505
3 737 1807 1931
3 1770 1147 1771
3 1233 1235 1733
3 2450 1418 2521
3 414 410 1821
3 908 1099 1850
3 1227 1228 1229
3 1692 1203 1693
3 1625 216 2194
3 512 528 603
3 1377 1357 1638
3 1465 1464 1470
3 1360 1359 2177
3 1686 2007 2095
3 1336 1028 1641
3 1857 751 1923
3 1758 572 1759
3 553 541 557
3 1171 1715 1811
3 956 1003 1073
3 1467 1465 1675
3 719 718 724
3 1509 1977 2096
3 1734 1625 1736
3 1503 1504 1868
3 592 597 1776
3 180 181 232
3 162 163 231
3 2308 1759 2370
3 1357 1114 1358
3 875 946 1010
3 509 631 1599
3 17 18 199
3 144 145 200
3 1099 906 1792
3 1469 1467 1494
3 605 589 1939
3 1208 1205 1211
3 354 344 2091
3 692 782 804
3 1010 946 1170
3 1463 1462 1464
3 716 715 718
3 714 713 715
3 271 273 656
3 139 1618 1694
3 549 277 686
3 673 672 766
3 1378 1377 1379
3 2007 868 2095
3 999 1028 1336
3 1208 1211 1447
3 601 545 627
3 1119 1643 1713
3 1332 1333 1387
3 910 912 956
3 520 521 2000
3 828 1789 1819
3 277 607 1520
3 1338 1339 2247
3 818 819 910
3 767 766 814
3 712 711 713
3 1494 1467 1675
3 639 594 640
3 2044 557 2256
3 235 20 1709
3 1620 236 2394
3 804 919 962
3 1862 702 2070
3 681 852 853
3 1559 1556 1561
3 1622 941 2471
3 2165 1440 2330
3 612 644 692
3 697 698 818
3 1903 1516 1994
3 371 379 1795
3 428 426 2138
3 1290 1294 2064
3 1384 1904 2432
3 566 689 1600
3 471 452 472
3 1092 1091 1093
3 1002 1131 1719
3 1090 1089 1091
3 875 841 946
3 1758 1760 1763
3 1562 1606 2085
3 1833 1830 2075
3 178 179 214
3 164 165 213
3 769 923 1815
3 692 644 782
3 804 782 919
3 182 183 256
3 160 161 257
3 1329 1331 1482
3 962 1663 1664
3 1177 1179 2042
3 403 405 1805
3 1461 1460 1462
3 140 208 1618
3 1859 232 1860
3 274 1787 2099
3 1381 2126 2186
3 1558 1560 1789
3 430 428 682
3 452 435 1683
3 1487 1156 1488
3 1470 1464 1743
3 597 1794 1893
3 1244 1253 1669
3 962 919 1663
3 258 8 1673
3 1087 1785 1786
3 970 1042 1726
3 199 1677 2149
3 1664 1663 1665
3 1229 1230 1231
3 991 827 1713
3 792 1603 1848
3 1822 1444 1823
3 665 666 697
3 19 20 235
3 142 143 236
3 728 1098 1833
3 532 530 1898
3 1015 1124 1372
3 1546 1547 1548
3 1851 1850 1853
3 1877 393 2240
3 923 1105 1815
3 1090 1091 1092
3 687 686 703
3 1683 435 1790
3 887 826 1961
3 684 663 1089
3 426 1934 2138
3 464 510 680
3 853 854 855
3 568 572 1758
3 1376 1357 1377
3 1205 1203 1692
3 1607 1789 1855
3 710 709 711
3 780 781 1775
3 1434 1103 1435
3 876 815 877
3 766 672 1656
3 1393 1590 2457
3 684 1089 1090
3 530 890 1898
3 926 1920 1943
3 696 414 1821
3 1563 1562 1777
3 1054 1046 1580
3 1398 1973 1974
3 137 216 1625
3 1210 1040 1430
3 1750 563 1751
3 2010 1665 2299
3 1510 1374 1511
3 1777 1562 2085
3 1707 252 1791
3 1932 1404 1933
3 459 438 1814
3 139 140 1618
3 1093 1156 1487
3 231 163 1658
3 699 722 723
3 1545 1095 2508
3 598 612 1794
3 579 554 1880
3 1941 1908 2401
3 1231 1232 1233
3 1831 1829 1841
3 1037 1383 1799
3 177 178 1506
3 636 600 637
3 1036 1539 2286
3 1356 1114 1357
3 1523 1516 2377
3 704 703 705
3 403 402 405
3 648 792 1848
3 723 756 808
3 1388 1389 2170
3 933 932 1770
3 223 1710 1711
3 1779 399 1783
3 1223 1222 1224
3 1028 1029 1313
3 257 161 1654
3 418 412 421
3 734 882 1807
3 693 657 1095
3 1368 1370 1436
3 136 137 1625
3 688 652 817
3 1075 1327 1328
3 540 479 1813
3 398 395 402
3 548 1629 1630
3 574 591 699
3 1469 1494 1495
3 1041 1598 2175
3 167 168 202
3 175 176 204
3 2045 2046 2201
3 186 187 1602
3 886 887 888
3 1253 1254 1259
3 8 9 1673
3 792 655 810
3 843 1145 1960
3 1180 1349 1745
3 1165 1345 1512
3 708 706 709
3 136 1625 1734
3 21 22 207
3 140 141 208
3 625 626 665
3 1093 1094 1156
3 1585 795 1834
3 1117 1713 1806
3 599 579 600
3 810 871 1826
3 1047 1046 1048
3 1292 1291 1293
3 161 162 1654
3 199 1676 1677
3 1260 1282 1804
3 1005 1142 1768
3 1233 1234 1235
3 792 810 922
3 1122 1719 1737
3 976 985 1720
3 1278 1279 2292
3 2390 1934 2531
3 1436 1437 2350
3 270 271 1647
3 1199 966 1846
3 1683 1342 2212
3 656 273 2124
3 699 591 722
3 1977 1139 2096
3 1738 1719 1881
3 1722 985 1874
3 1797 1448 1798
3 162 231 1654
3 632 604 1862
3 252 1602 1791
3 1051 1050 1052
3 1045 1023 1046
3 648 655 792
3 993 1100 1101
3 1321 1055 1322
3 806 709 1627
3 904 903 981
3 1220 1267 1268
3 648 605 655
3 1737 1719 1738
3 385 399 1779
3 506 499 1828
3 1132 266 1402
3 1170 1418 1419
3 1323 2302 2354
3 24 25 215
3 137 138 216
3 721 965 1919
3 1787 1414 2460
3 778 1117 1806
3 723 722 756
3 407 403 1805
3 564 574 1752
3 1049 1048 1050
3 842 841 875
3 1608 1546 1842
3 809 808 899
3 1517 1519 1520
3 1530 1532 1533
3 889 421 1772
3 913 1002 1122
3 1314 1316 1367
3 1017 877 1684
3 841 802 1778
3 1235 1236 1237
3 751 1857 1900
3 1114 924 1767
3 1344 1644 2360
3 1895 1394 2371
3 1518 1535 1861
3 1758 1759 1760
3 1122 1002 1719
3 546 563 1750
3 1056 1726 1727
3 663 660 1746
3 621 622 625
3 1720 985 1721
3 1857 1843 1900
3 808 756 913
3 1056 970 1726
3 27 28 230
3 134 135 229
3 908 906 1099
3 163 164 1658
3 1727 1726 1729
3 7 8 258
3 154 155 259
3 1101 1403 1404
3 808 913 1874
3 1260 1269 1282
3 1389 1387 2262
3 1297 1053 1822
3 1555 1553 1557
3 1463 1464 1465
3 230 28 1765
3 1237 1238 1239
3 554 553 1880
3 775 778 1806
3 985 899 1874
3 1270 1524 2199
3 489 1820 1936
3 692 1072 1794
3 1472 2142 2272
3 1845 496 1929
3 438 431 1814
3 613 615 1824
3 1241 1242 1245
3 1783 415 1915
3 1192 2081 2149
3 178 214 1506
3 1816 988 1817
3 1760 1759 1761
3 1103 1092 1623
3 1512 1345 1661
3 1876 921 2295
3 1165 984 1345
3 978 1074 1075
3 1239 1240 1241
3 542 541 553
3 813 988 1816
3 1148 984 1165
3 871 970 1056
3 472 452 1683
3 1207 1796 1870
3 1167 1166 1754
3 1296 1053 1297
3 966 964 1846
3 976 899 985
3 982 976 984
3 702 1815 2015
3 900 899 976
3 1143 995 1206
3 1576 1024 1827
3 1235 1248 1733
3 1558 1557 1560
3 943 995 1143
3 1920 1144 1943
3 1471 2115 2477
3 29 30 255
3 132 133 254
3 1630 1633 1634
3 1225 1224 1226
3 1925 1573 1926
3 1211 1205 1692
3 725 825 826
3 1113 924 1114
3 600 579 1988
3 717 1552 1567
3 1820 1657 1936
3 674 276 2099
3 395 393 1877
3 572 543 1897
3 1575 1308 2255
3 999 1000 1028
3 1118 1775 1876
3 1797 1798 2430
3 526 546 559
3 867 853 2186
3 1142 1771 1949
3 1068 1275 1442
3 679 385 1779
3 1607 1558 1789
3 580 568 1758
3 1244 1252 1253
3 1760 1761 1762
3 398 402 403
3 1476 1258 1478
3 418 421 889
3 1771 1147 1839
3 164 213 1658
3 1720 1721 2267
3 1668 1591 2512
3 1042 1128 1445
3 1098 1830 1833
3 1102 1092 1103
3 2249 884 2466
3 1104 1103 1434
3 410 416 1821
3 514 513 541
3 580 1758 1763
3 637 673 1741
3 1913 936 1914
3 1394 1395 2337
3 919 920 999
3 577 554 579
3 2111 1660 2263
3 231 1658 1659
3 612 613 644
3 568 543 572
3 770 775 1806
3 1445 1128 1446
3 1546 1548 1842
3 448 460 478
3 810 870 871
3 1789 1560 1819
3 1154 1082 1431
3 873 973 1802
3 379 385 679
3 837 850 921
3 1461 1462 1463
3 1346 1076 1420
3 1088 1344 1808
3 2125 1143 2353
3 931 977 978
3 882 772 1802
3 29 255 1765
3 849 1513 2180
3 1713 827 1806
3 1130 1396 1397
3 681 638 852
3 1417 1321 1873
3 1654 1402 2530
3 502 526 1740
3 1124 888 2177
3 1266 1460 1461
3 515 1175 1840
3 1253 1264 1669
3 479 466 1813
3 1727 1729 1757
3 379 380 385
3 1971 1480 2514
3 1637 1739 2459
3 1207 1205 1208
3 529 519 1899
3 1129 1845 1929
3 224 1661 2267
3 192 1856 2361
3 732 734 1807
3 1184 2163 2435
3 1119 1120 1353
3 415 414 431
3 719 724 725
3 559 546 1750
3 871 872 970
3 1038 917 1622
3 574 699 1752
3 166 167 1679
3 1117 1118 1119
3 1409 1196 2035
3 617 619 621
3 1172 1173 1439
3 1191 1005 1768
3 664 663 684
3 494 493 1841
3 890 529 1731
3 840 802 841
3 493 974 1841
3 385 386 399
3 679 1779 1780
3 371 376 379
3 416 433 1109
3 670 769 1815
3 902 866 903
3 1780 1779 1781
3 480 515 1840
3 970 971 1042
3 433 448 1714
3 28 29 1765
3 1005 949 1142
3 778 780 1117
3 959 1037 1799
3 1073 1003 1076
3 535 532 1898
3 1119 1118 1120
3 658 657 693
3 1378 1379 1380
3 1397 1396 1809
3 1610 1609 1612
3 1819 1560 2016
3 1837 952 1865
3 1719 1131 1881
3 1131 1399 1400
3 1352 1138 2058
3 399 406 409
3 548 1630 2041
3 1275 1338 2251
3 582 1816 1818
3 1835 1836 2144
3 993 1101 1980
3 1699 1698 1700
3 2407 364 2505
3 1189 1190 1788
3 1117 780 1118
3 1830 1829 1831
3 637 672 673
3 692 804 1072
3 1204 1203 1205
3 1374 1170 2139
3 612 692 1794
3 1642 1408 2286
3 723 808 809
3 450 459 1812
3 409 410 414
3 802 801 1778
3 1853 1854 2483
3 1042 1127 1128
3 1199 1846 2225
3 1147 990 1273
3 1383 1384 2432
3 432 431 438
3 1353 1120 1390
3 1093 1091 1094
3 2020 250 2254
3 148 149 1639
3 606 605 648
3 1970 2016 2422
3 2201 2046 2327
3 475 471 513
3 412 407 1951
3 1991 246 2139
3 727 695 728
3 1673 234 1788
3 1554 1556 1559
3 1089 663 1746
3 1846 964 2056
3 923 991 1088
3 409 406 410
3 729 728 730
3 1424 1427 1856
3 1473 1911 2407
3 1376 1377 1378
3 1010 1374 1510
3 853 852 854
3 366 369 1087
3 772 873 1802
3 1219 1218 1626
3 1766 229 2061
3 1088 991 1344
3 922 810 1826
3 518 506 695
3 405 402 2116
3 962 1664 2316
3 913 942 1002
3 932 990 1147
3 629 813 1816
3 876 877 992
3 399 386 406
3 932 845 990
3 1002 1123 1131
3 843 996 1145
3 781 837 1775
3 262 2304 2491
3 431 696 1814
3 1273 1695 1892
3 731 730 732
3 737 732 1807
3 439 438 450
3 1829 498 1841
3 800 685 801
3 767 814 815
3 1060 766 1656
3 673 766 767
3 1403 1605 1882
3 716 718 719
3 1338 1069 1339
3 847 752 1843
3 864 862 1116
3 2302 443 2519
3 923 827 991
3 526 559 1740
3 1911 1473 2358
3 1085 1310 1867
3 809 899 900
3 1227 1226 1228
3 729 730 731
3 1436 1370 1437
3 731 732 737
3 769 827 923
3 456 452 471
3 1433 1503 2471
3 1435 1103 1623
3 385 380 386
3 1141 1787 2460
3 1354 1088 1808
3 657 649 1848
3 415 431 432
3 484 892 1820
3 727 728 729
3 855 854 1450
3 1721 1722 1723
3 1643 1353 1644
3 1145 1916 1960
3 1421 1191 1422
3 466 1812 1813
3 943 944 995
3 1356 1357 1376
3 714 715 716
3 1156 1094 1157
3 598 611 612
3 631 1600 2298
3 590 589 605
3 965 969 1919
3 416 1109 1821
3 242 1697 2335
3 1548 1547 1549
3 550 573 584
3 584 604 632
3 409 414 415
3 712 713 714
3 642 670 702
3 818 698 819
3 1006 1005 1191
3 1624 1689 1691
3 169 170 237
3 173 174 238
3 956 912 1003
3 937 936 1913
3 1317 1025 1875
3 515 540 550
3 973 1799 1800
3 973 959 1799
3 518 695 727
3 910 819 912
3 584 573 604
3 1170 946 1418
3 173 238 1847
3 550 540 573
3 982 984 1148
3 900 976 982
3 441 435 452
3 448 478 1714
3 1849 1648 2173
3 1631 1628 1637
3 1830 1831 1832
3 1383 1216 1384
3 734 772 882
3 949 933 1770
3 1332 1330 1333
3 574 575 591
3 1105 1088 1354
3 702 670 1815
3 498 494 1841
3 827 770 1806
3 873 959 973
3 1390 1391 1415
3 450 438 459
3 950 949 1005
3 351 362 364
3 1313 1029 1314
3 432 438 439
3 837 838 850
3 1273 1274 1695
3 850 851 943
3 911 952 1837
3 1259 1260 1804
3 566 587 588
3 1037 1216 1383
3 1337 1265 1538
3 1087 369 1795
3 810 655 870
3 1559 1561 1566
3 1147 1273 1839
3 732 733 734
3 1662 867 2126
3 890 1731 2241
3 1854 1852 2397
3 515 479 540
3 451 450 466
3 697 666 698
3 1367 1316 1368
3 662 660 663
3 365 355 694
3 1358 1114 1767
3 379 376 380
3 1796 1448 1797
3 179 180 1859
3 790 668 849
3 569 568 580
3 690 860 931
3 466 450 1812
3 431 414 696
3 1973 1133 1974
3 651 649 657
3 467 466 479
3 1288 1289 1835
3 264 265 1986
3 1302 1303 1304
3 592 596 597
3 1873 1321 2037
3 544 543 568
3 275 277 549
3 209 1937 2389
3 539 565 566
3 1485 227 1486
3 2384 2190 2408
3 1781 1779 1783
3 480 479 515
3 689 1416 2413
3 1108 1161 1539
3 1867 1310 1895
3 1300 1301 1302
3 1695 1696 1697
3 633 632 668
3 1304 1451 1452
3 988 911 1837
3 168 169 1724
3 969 1012 1172
3 582 629 1816
3 1843 752 1900
3 629 812 813
3 710 711 712
3 1782 1780 1784
3 536 535 543
3 1089 1746 1969
3 1108 1107 1161
3 1514 1426 1856
3 486 484 1820
3 369 371 1795
3 1817 988 1924
3 493 609 974
3 1422 1191 2023
3 1426 1424 1856
3 842 875 924
3 922 1826 2259
3 989 1361 1886
3 928 1070 1288
3 669 668 790
3 1113 1114 1356
3 1027 847 1843
3 728 695 1098
3 734 735 772
3 975 1107 1108
3 955 859 1962
3 813 911 988
3 1208 1448 1796
3 1101 1405 1980
3 602 676 2045
3 586 581 589
3 546 547 563
3 493 491 609
3 628 1524 2390
3 348 344 354
3 1298 1299 1300
3 509 538 539
3 974 609 975
3 813 891 911
3 871 870 872
3 1355 1354 1423
3 489 486 1820
3 778 779 780
3 1025 1176 1875
3 772 773 873
3 803 1743 2347
3 167 202 1679
3 873 883 959
3 1483 1571 2375
3 427 1756 2221
3 540 1813 1954
3 1202 1200 1203
3 959 1035 1037
3 837 921 1775
3 1304 1305 1451
3 1799 1383 2195
3 604 642 1862
3 1470 1744 2474
3 1854 2397 2453
3 1282 1269 1386
3 1573 1572 2157
3 472 2222 2290
3 1307 1708 2341
3 769 770 827
3 1037 1215 1216
3 791 790 856
3 1053 1052 1822
3 1056 1727 1728
3 1341 1138 1352
3 1300 1299 1301
3 1814 696 1838
3 1198 1196 1409
3 492 491 493
3 439 450 451
3 1171 858 2132
3 1259 1254 1260
3 665 626 666
3 970 872 971
3 258 1602 2357
3 1296 1297 1472
3 490 489 491
3 516 437 2494
3 1298 1027 1299
3 846 845 932
3 501 508 509
3 460 461 502
3 448 449 460
3 482 480 1840
3 1229 1228 1230
3 604 641 642
3 1424 1423 1427
3 502 503 526
3 1028 1000 1029
3 935 933 949
3 1084 1085 1867
3 2028 1711 2353
3 1513 1426 1514
3 892 482 1840
3 852 638 1988
3 402 395 1877
3 738 737 845
3 413 412 418
3 1119 1353 1643
3 526 527 546
3 280 279 281
3 1731 1155 2123
3 1042 971 1127
3 1208 1447 1448
3 433 434 448
3 262 159 2304
3 184 1454 2303
3 1051 1052 1053
3 1816 1817 1818
3 1081 1417 1444
3 781 836 837
3 911 951 952
3 1090 1092 1102
3 202 168 1724
3 1085 1309 1310
3 408 407 412
3 1337 1538 1864
3 1515 1514 1516
3 530 529 890
3 1517 1518 1519
3 549 686 687
3 923 1088 1105
3 404 403 407
3 1835 1289 1836
3 1314 1367 2121
3 1380 1379 2416
3 670 671 769
3 899 808 1874
3 1040 903 1703
3 1596 1595 2154
3 1496 1495 1497
3 636 637 1741
3 1377 1638 2288
3 1288 1070 1289
3 1072 804 1981
3 1129 1334 1845
3 1865 1084 1866
3 792 922 1603
3 1253 1252 1254
3 981 1167 1792
3 1302 1301 1303
3 1641 1651 2019
3 952 953 1084
3 1813 1812 1869
3 732 730 733
3 975 1106 1107
3 1142 949 1770
3 981 1166 1167
3 840 841 842
3 451 466 467
3 1273 990 1274
3 1049 1050 1051
3 1473 2407 2505
3 968 966 1199
3 642 643 670
3 1310 1309 1311
3 422 419 435
3 1063 833 1082
3 919 782 920
3 911 891 951
3 1084 953 1085
3 1763 1764 2164
3 1498 1497 1682
3 515 550 1175
3 1079 937 1913
3 642 702 1862
3 845 737 1931
3 1394 1311 1395
3 1395 1521 1522
3 467 479 480
3 1755 1754 1793
3 1231 1230 1232
3 1557 1553 2030
3 1624 1691 2262
3 584 632 633
3 1094 1091 1969
3 708 709 710
3 1948 1627 2488
3 952 951 953
3 1102 1103 1104
3 1047 1048 1049
3 1310 1311 1394
3 1852 1099 1985
3 143 144 1717
3 813 812 891
3 1944 1044 1945
3 1105 1354 1355
3 1300 1302 1455
3 1914 936 1940
3 1415 1391 1710
3 1299 1027 1843
3 952 1084 1865
3 1695 1274 1696
3 776 774 1928
3 282 281 283
3 2003 1347 2279
3 1206 995 1499
3 1164 1685 1686
3 1551 1565 2030
3 969 1172 1919
3 633 668 669
3 734 733 735
3 1373 1372 1438
3 599 600 636
3 1431 1860 2487
3 1579 1577 1999
3 484 482 892
3 917 940 941
3 2144 1836 2169
3 1866 1084 1867
3 1110 1747 1748
3 998 1171 1811
3 1390 1120 1391
3 644 1824 2057
3 1362 1961 2048
3 944 1283 1825
3 1086 1027 1298
3 679 1780 1782
3 974 975 1879
3 507 506 518
3 1121 1079 1401
3 775 777 778
3 1965 762 2349
3 1045 1046 1047
3 1772 421 2106
3 16 17 2081
3 416 417 433
3 921 850 2125
3 1607 1855 1958
3 649 648 1848
3 1241 1240 1242
3 2012 1443 2251
3 926 928 1920
3 1487 1488 2025
3 1006 1191 1421
3 1355 1423 1424
3 1133 852 1988
3 591 592 1776
3 1299 1843 1857
3 1085 1308 1309
3 490 491 492
3 958 694 1575
3 1384 1216 1385
3 741 915 1878
3 1233 1232 1234
3 669 790 791
3 481 480 482
3 687 703 704
3 492 493 494
3 1634 1633 1922
3 1697 1696 1698
3 1721 985 1722
3 1839 1273 1892
3 772 735 773
3 488 486 489
3 950 1005 1006
3 1513 1514 1515
3 454 500 501
3 873 773 883
3 284 283 285
3 2185 1505 2442
3 959 883 1035
3 543 535 1897
3 1904 1384 2093
3 800 801 802
3 1037 1035 1215
3 1293 1964 1965
3 1239 1238 1240
3 943 1143 2125
3 1782 1784 1785
3 913 756 942
3 488 490 1884
3 1590 1749 2501
3 1235 1234 1236
3 791 856 1408
3 702 2015 2070
3 1108 1539 1540
3 1021 1023 1045
3 695 506 1828
3 1530 1528 1532
3 488 489 490
3 1621 1619 2161
3 704 705 706
3 1304 1303 1305
3 558 1704 2167
3 625 622 626
3 542 553 554
3 604 573 641
3 664 684 685
3 564 571 574
3 1108 1540 1879
3 1856 1427 2361
3 880 1025 1129
3 1395 1311 1521
3 1466 1465 1467
3 915 495 1884
3 1515 1516 1523
3 1237 1236 1238
3 606 648 649
3 999 920 1000
3 676 829 1043
3 2100 794 2142
3 227 151 1500
3 577 579 599
3 153 154 1671
3 1175 550 1927
3 1014 888 1015
3 286 285 287
3 1649 1280 2427
3 1725 204 2137
3 975 609 1106
3 1129 1317 1334
3 1109 1730 2426
3 1468 1467 1469
3 1131 1123 1399
3 1215 2235 2378
3 1976 1149 1989
3 397 395 398
3 746 743 1878
3 1041 1343 1598
3 975 1108 1879
3 741 495 915
3 1167 1754 1755
3 288 287 289
3 743 741 1878
3 1274 990 1931
3 1506 214 1507
3 857 1584 2277
3 2341 1522 2387
3 846 932 933
3 1107 1106 1110
3 584 633 1927
3 290 289 291
3 722 591 1776
3 1544 1094 1969
3 1135 270 1647
3 935 949 950
3 1920 1288 2080
3 754 1896 2108
3 1693 1199 2225
3 292 291 293
3 394 393 395
3 745 743 746
3 1002 942 1123
3 731 737 738
3 294 293 295
3 1018 1573 1925
3 296 295 297
3 298 297 299
3 321 322 325
3 317 320 321
3 314 315 317
3 312 313 314
3 310 311 312
3 308 309 310
3 1898 890 2275
3 306 307 308
3 304 305 306
3 1401 1079 1913
3 300 299 301
3 302 303 304
3 300 301 302
3 302 301 303
3 491 489 1936
3 298 299 300
3 304 303 305
3 306 305 307
3 308 307 309
3 310 309 311
3 312 311 313
3 314 313 315
3 317 315 320
3 321 320 322
3 1301 1299 1857
3 514 541 542
3 296 297 298
3 850 838 851
3 1310 1394 1895
3 294 295 296
3 590 605 606
3 292 293 294
3 651 657 658
3 290 291 292
3 1207 1208 1796
3 835 1976 1989
3 621 619 622
3 746 1878 1896
3 481 482 483
3 1026 847 1027
3 1335 1207 1870
3 1661 59 2266
3 727 729 1155
3 288 289 290
3 1058 776 1928
3 662 663 664
3 495 488 1884
3 1959 319 2522
3 943 851 944
3 1293 1291 1964
3 534 532 535
3 640 645 646
3 2280 1014 2385
3 286 287 288
3 591 575 592
3 521 519 529
3 13 14 2114
3 780 779 781
3 918 908 1850
3 837 836 838
3 209 148 1639
3 754 748 1896
3 745 746 747
3 769 671 770
3 929 1065 2197
3 1278 1058 1279
3 483 482 484
3 1564 1557 2030
3 633 807 1927
3 392 391 393
3 1057 1621 2161
3 569 580 581
3 284 285 286
3 876 992 1894
3 497 494 498
3 1630 1635 2041
3 982 1148 1918
3 612 611 613
3 700 634 1044
3 822 674 2099
3 880 1129 1929
3 432 439 654
3 1039 1291 1292
3 1164 1686 1989
3 1129 1025 1317
3 738 845 846
3 582 583 629
3 278 6 279
3 544 568 569
3 1701 1274 1931
3 747 749 751
3 1085 953 1308
3 928 930 1070
3 747 748 749
3 1421 1422 2415
3 902 903 904
3 1309 1308 1543
3 642 641 643
3 904 981 1792
3 646 784 785
3 536 543 544
3 1204 1205 1207
3 365 694 958
3 71 72 217
3 88 89 1901
3 87 88 193
3 101 102 189
3 85 86 242
3 99 100 241
3 74 75 192
3 91 92 219
3 94 95 191
3 83 84 220
3 97 98 221
3 77 78 218
3 80 81 194
3 89 90 245
3 62 63 244
3 60 61 188
3 64 65 223
3 67 68 190
3 90 91 1909
3 98 99 1905
3 61 62 1908
3 69 70 243
3 68 69 1907
3 70 71 1910
3 410 411 416
3 586 589 590
3 685 684 2029
3 390 389 391
3 1715 1150 1811
3 1924 1837 2215
3 282 283 284
3 496 497 1929
3 233 1671 1769
3 627 2185 2442
3 1567 1552 2062
3 629 630 812
3 424 453 454
3 583 562 1942
3 749 750 805
3 744 743 745
3 1897 535 1898
3 467 480 481
3 504 759 880
3 670 643 671
3 89 245 1901
3 193 88 1901
3 221 98 1905
3 245 90 1909
3 91 219 1909
3 62 244 1908
3 188 61 1908
3 99 241 1905
3 190 68 1907
3 71 217 1910
3 69 243 1907
3 243 70 1910
3 505 499 506
3 475 513 514
3 1945 1044 2071
3 1712 2125 2353
3 339 343 440
3 989 1360 1361
3 764 869 1152
3 778 777 779
3 1686 1685 1687
3 742 741 743
3 979 989 1886
3 729 731 1887
3 926 927 928
3 1305 1306 1307
3 1838 1278 2292
3 747 746 748
3 181 182 1652
3 1886 1361 2305
3 1595 1594 2486
3 597 596 598
3 928 1288 1920
3 1970 824 2156
3 1425 1424 1426
3 497 504 1929
3 748 746 1896
3 745 747 1900
3 998 858 1171
3 563 547 564
3 1155 729 1887
3 634 583 1942
3 1439 1173 1440
3 1026 1027 1086
3 79 80 1904
3 1533 1532 1536
3 1449 1426 1513
3 1106 609 1936
3 1318 1013 1319
3 1098 695 1828
3 492 494 496
3 750 748 754
3 731 738 1887
3 2415 1422 2516
3 533 562 582
3 988 1837 1924
3 1216 1215 1863
3 534 535 536
3 747 751 1900
3 1753 809 2119
3 1183 824 1970
3 740 495 741
3 80 194 1904
3 893 383 2087
3 655 605 1939
3 1884 2034 2082
3 1301 1857 1923
3 1307 1306 1708
3 752 745 1900
3 750 754 755
3 76 77 1903
3 2090 2347 2365
3 255 30 2159
3 132 254 2160
3 448 434 449
3 753 848 926
3 1075 1074 1327
3 487 488 495
3 377 381 647
3 483 484 485
3 755 754 2148
3 1584 1925 2277
3 1186 1183 1970
3 951 891 1281
3 485 484 486
3 546 527 547
3 133 134 1766
3 1786 1785 2409
3 280 281 282
3 460 449 461
3 744 745 752
3 77 218 1903
3 983 1918 2342
3 1708 1306 1810
3 1389 2069 2170
3 487 486 488
3 641 573 1954
3 507 518 519
3 502 461 503
3 519 518 1899
3 1202 1203 1204
3 821 897 1972
3 92 93 1902
3 521 529 530
3 749 748 750
3 2176 1380 2416
3 885 826 886
3 485 486 487
3 371 372 376
3 1289 1070 1871
3 1110 1657 1747
3 753 926 1943
3 700 1044 1944
3 880 881 1025
3 496 1845 2034
3 1072 1981 2393
3 462 464 2134
3 1949 1771 2359
3 1044 634 1942
3 550 584 1927
3 1390 1415 2118
3 526 503 527
3 990 845 1931
3 1009 1213 1214
3 740 742 1144
3 219 92 1902
3 727 1155 1899
3 369 370 371
3 623 690 2150
3 1279 1058 1928
3 1408 2235 2286
3 487 495 740
3 979 1886 2086
3 1305 1303 1306
3 421 412 1951
3 843 844 996
3 633 669 807
3 518 727 1899
3 826 825 1961
3 1657 1106 1936
3 1172 1012 1173
3 740 741 742
3 433 417 434
3 505 506 507
3 1333 1674 2437
3 742 743 744
3 469 458 470
3 1381 1380 1382
3 1293 1965 2515
3 1554 1559 2062
3 553 557 2499
3 1774 389 2339
3 497 498 499
3 483 485 576
3 740 1144 1935
3 773 735 834
3 366 367 369
3 1120 1118 1876
3 1515 1523 1574
3 1319 1013 2039
3 1303 1301 1923
3 457 447 458
3 561 593 594
3 1355 1424 1425
3 609 491 1936
3 204 1732 2137
3 791 1408 1642
3 995 944 1825
3 456 471 475
3 1692 1693 2239
3 580 1763 2164
3 1292 1293 2117
3 441 452 456
3 388 384 389
3 823 821 1972
3 504 880 1929
3 176 177 1680
3 1070 1071 1871
3 15 2260 2477
3 362 363 366
3 2178 2300 2449
3 1035 883 1036
3 2285 1563 2307
3 978 977 1074
3 1090 1102 2029
3 1810 1306 1923
3 496 494 497
3 1306 1303 1923
3 432 654 1915
3 934 933 935
3 356 355 365
3 398 403 404
3 635 701 843
3 1110 1106 1657
3 574 571 575
3 1025 881 1176
3 386 380 786
3 415 432 1915
3 343 347 1911
3 1070 930 1071
3 1688 1740 2231
3 1385 1216 1863
3 1696 1274 1701
3 1645 305 2317
3 880 759 881
3 926 848 927
3 1427 1423 2217
3 1339 1662 2388
3 770 774 775
3 1263 1257 1428
3 1337 1864 2412
3 349 348 355
3 2267 1721 2498
3 753 752 847
3 1375 1086 1473
3 900 982 983
3 332 335 739
3 429 428 430
3 744 752 753
3 1171 2132 2165
3 1425 1426 1449
3 987 641 1954
3 1883 1786 2409
3 427 426 428
3 928 927 930
3 1815 1105 2015
3 1206 1499 1941
3 410 406 411
3 573 540 1954
3 497 499 504
3 528 560 561
3 1933 1404 2399
3 1091 1089 1969
3 1804 1282 2073
3 504 505 759
3 963 924 1113
3 1711 1710 1712
3 881 759 1146
3 968 1199 1200
3 351 352 362
3 848 847 1026
3 521 530 531
3 1884 490 2034
3 1277 957 1966
3 1349 1350 2329
3 676 1043 2045
3 997 1159 1286
3 517 1889 1890
3 781 835 836
3 944 948 1283
3 722 1776 2026
3 507 519 520
3 2040 1352 2058
3 1276 957 1277
3 446 437 447
3 931 860 977
3 361 359 765
3 1248 1536 2534
3 512 523 528
3 408 412 413
3 1368 1369 1370
3 451 2169 2223
3 192 75 1994
3 942 756 2026
3 345 344 348
3 764 1152 1963
3 413 418 419
3 1286 1773 1774
3 770 671 774
3 275 549 2124
3 1497 1645 2461
3 1982 1472 2272
3 422 435 441
3 281 279 736
3 1134 270 1135
3 582 562 583
3 1421 2415 2454
3 485 487 1935
3 2300 1067 2480
3 1578 1576 1827
3 930 927 1061
3 1026 1086 1375
3 922 2259 2379
3 1391 1120 1876
3 1495 1494 2493
3 404 407 408
3 879 2178 2449
3 1700 1698 2036
3 607 1517 1520
3 753 847 848
3 416 411 417
3 1144 742 1943
3 775 776 777
3 754 2108 2148
3 1006 1421 1953
3 585 581 586
3 531 530 532
3 235 1709 1888
3 520 519 521
3 1180 1181 1349
3 1146 759 1967
3 708 710 1921
3 1350 2253 2329
3 436 430 437
3 504 499 505
3 643 641 987
3 336 330 517
3 811 1059 1149
3 1164 1411 1685
3 846 933 934
3 635 843 1960
3 983 982 1918
3 971 872 1096
3 1149 1163 1164
3 169 237 1724
3 1314 1315 1316
3 629 583 630
3 891 812 1916
3 462 463 464
3 487 740 1935
3 798 2084 2189
3 1814 1838 2292
3 1284 1489 1491
3 340 336 2014
3 1670 1461 2200
3 920 782 2057
3 890 2241 2275
3 510 511 512
3 278 279 280
3 839 802 840
3 1858 235 1888
3 1698 1696 2036
3 104 105 222
3 57 58 224
3 1185 1183 1186
3 588 587 623
3 638 600 1988
3 1282 1386 2245
3 811 776 1058
3 816 815 876
3 2034 1845 2082
3 761 636 1741
3 566 565 587
3 174 175 1725
3 347 350 351
3 1469 1495 1496
3 1059 1058 1278
3 811 1149 1976
3 576 485 1935
3 659 658 660
3 859 1153 1962
3 76 1903 1994
3 1821 1109 2426
3 1294 1038 1622
3 733 1833 2075
3 992 993 1980
3 1566 1561 2285
3 525 474 2041
3 464 465 510
3 343 346 347
3 360 893 1982
3 650 649 651
3 896 608 936
3 950 1006 1007
3 1508 1859 1860
3 539 538 565
3 440 343 1911
3 341 340 344
3 221 1905 1906
3 1297 1823 2142
3 759 505 1967
3 1295 1053 1296
3 473 470 474
3 1463 1465 1466
3 1143 1206 2028
3 799 685 800
3 1210 2077 2203
3 509 508 538
3 492 496 2034
3 1553 1551 2030
3 1260 1261 1269
3 1430 1040 1703
3 586 590 1940
3 838 836 868
3 1705 624 2276
3 1749 972 2501
3 742 744 1943
3 804 962 1981
3 1367 1368 2254
3 531 532 533
3 337 336 340
3 1157 1094 1544
3 536 544 1158
3 812 630 1960
3 781 779 835
3 56 57 1947
3 630 583 634
3 1405 1404 1932
3 1281 891 1916
3 339 342 343
3 1411 1163 1730
3 322 323 324
3 344 340 2091
3 1735 1734 1736
3 75 76 1994
3 430 682 2494
3 1907 243 2360
3 589 581 2164
3 694 355 2196
3 744 753 1943
3 775 774 776
3 1210 1430 2077
3 335 338 339
3 1102 1803 2029
3 1078 937 1079
3 870 655 1939
3 505 507 1967
3 357 360 1982
3 1896 1878 2101
3 326 325 328
3 934 935 957
3 585 608 895
3 333 330 336
3 1270 1272 1524
3 688 817 878
3 507 520 1967
3 1428 1257 2074
3 1818 1817 2000
3 896 937 1077
3 934 957 1111
3 329 328 330
3 1499 995 1825
3 944 851 948
3 387 445 462
3 1678 1161 2228
3 777 776 811
3 313 311 757
3 324 331 332
3 848 1026 1955
3 1312 998 1811
3 1321 1322 2037
3 1080 1079 1121
3 1105 1355 2015
3 1645 2317 2461
3 1559 1568 2062
3 332 334 335
3 501 500 508
3 321 325 326
3 394 395 397
3 322 320 323
3 1529 1530 2171
3 1137 797 1138
3 811 1058 1059
3 661 660 662
3 569 581 585
3 183 4 2303
3 5 160 2304
3 1340 1138 1341
3 1660 1626 2185
3 1743 1464 2347
3 1026 1375 1955
3 1149 1059 1163
3 1736 1625 2194
3 1322 1667 2434
3 311 309 1959
3 309 307 319
3 894 700 1944
3 533 534 562
3 1276 1277 1366
3 2190 1706 2408
3 533 532 534
3 1214 1213 1410
3 1164 1163 1411
3 843 701 844
3 1009 1214 2055
3 234 1589 1788
3 2000 1817 2174
3 317 321 2050
3 328 325 945
3 392 393 394
3 588 623 2089
3 1162 958 1681
3 1078 1080 1136
3 927 848 1955
3 1496 1497 1498
3 390 391 392
3 1061 927 1955
3 1283 948 1284
3 635 634 700
3 1244 1251 1252
3 218 78 2093
3 756 722 2026
3 1071 1784 2419
3 1218 1505 2185
3 1284 948 1285
3 1489 1285 1490
3 918 1850 1851
3 684 1090 2029
3 1759 572 2537
3 1691 1690 2446
3 1979 1158 2071
3 606 649 650
3 2045 1043 2046
3 103 104 2025
3 630 634 635
3 360 383 893
3 406 386 2043
3 1909 219 2023
3 1111 957 1276
3 1925 1437 2277
3 1536 2268 2340
3 854 852 1133
3 233 153 1671
3 651 658 659
3 2099 1787 2368
3 1033 1032 1130
3 1015 1372 1373
3 1412 942 2026
3 253 264 1441
3 1531 1534 2332
3 701 700 894
3 106 107 1990
3 2048 1961 2455
3 276 274 2099
3 738 846 1968
3 1325 925 1326
3 896 936 937
3 585 586 608
3 1450 854 1973
3 1361 1360 1362
3 1045 1668 2512
3 303 301 444
3 996 844 997
3 79 1904 2093
3 1989 1686 2095
3 1928 774 2033
3 1942 562 1979
3 287 285 316
3 935 950 1966
3 1466 1467 1468
3 1242 1243 1244
3 1887 738 1968
3 2115 210 2477
3 878 929 1083
3 1326 1736 2194
3 886 888 1014
3 895 608 896
3 289 287 1978
3 821 822 897
3 936 608 1940
3 613 614 615
3 51 52 1996
3 417 411 1160
3 1149 1164 1989
3 386 786 2043
3 285 283 1971
3 1309 1543 2147
3 375 373 2053
3 371 370 372
3 779 777 1976
3 1286 1159 1773
3 2177 887 2376
3 1560 1557 1564
3 1403 1882 2399
3 1727 1757 2246
3 279 6 2049
3 1619 1438 2438
3 291 289 758
3 1781 1915 2294
3 425 401 426
3 349 355 356
3 66 67 2118
3 474 548 2041
3 1686 1687 2007
3 1262 1456 1457
3 1123 942 1412
3 1916 812 1960
3 1355 1425 2015
3 735 733 2075
3 1861 879 2449
3 1284 1285 1489
3 490 492 2034
3 366 363 367
3 980 578 2051
3 906 904 1792
3 534 536 1979
3 842 924 963
3 2051 578 2083
3 1077 937 1078
3 1102 1104 1803
3 894 1944 1946
3 398 404 2060
3 1007 1006 1953
3 369 367 370
3 348 354 2196
3 1078 1079 1080
3 1378 1380 1381
3 1568 1365 2439
3 608 586 1940
3 598 610 611
3 760 636 761
3 869 1137 1351
3 671 643 2033
3 1661 1345 2267
3 938 914 1057
3 783 761 914
3 576 1835 2144
3 388 389 390
3 297 295 318
3 454 453 500
3 1906 1728 2246
3 1439 1440 2468
3 1159 1013 1318
3 764 797 869
3 236 143 1717
3 782 644 2057
3 592 595 596
3 1542 2332 2443
3 1521 1311 2147
3 345 348 349
3 1304 1452 2205
3 1644 1907 2360
3 2146 1125 2149
3 997 844 1013
3 628 375 2053
3 299 297 1984
3 957 935 1966
3 664 685 799
3 301 299 1975
3 362 352 363
3 777 811 1976
3 1942 1979 2071
3 1001 920 2057
3 312 314 768
3 1552 1554 2062
3 615 616 617
3 357 1982 2076
3 800 802 839
3 774 671 2033
3 1749 1169 2105
3 365 958 1162
3 617 618 619
3 283 281 1938
3 1351 1772 2414
3 1525 1765 2489
3 846 934 1968
3 635 700 701
3 555 554 577
3 536 1158 1979
3 1101 1404 1405
3 630 635 1960
3 1811 1150 2089
3 2113 1666 2249
3 172 173 1847
3 107 108 195
3 54 55 196
3 1191 1768 2023
3 1455 1302 2205
3 115 116 2017
3 1387 1333 2437
3 659 661 764
3 1080 1121 1188
3 50 51 2011
3 411 406 2043
3 295 293 1983
3 643 987 2033
3 707 706 708
3 129 130 261
3 32 33 260
3 2159 260 2265
3 449 434 567
3 1314 1029 1315
3 917 796 940
3 378 375 628
3 108 109 1991
3 2370 1759 2537
3 341 344 345
3 997 1013 1159
3 544 569 1993
3 950 1007 1966
3 477 474 525
3 351 350 352
3 1696 1701 2036
3 334 331 803
3 1137 1138 1340
3 562 534 1979
3 109 110 246
3 52 53 247
3 1368 1316 1369
3 659 660 661
3 33 34 2002
3 123 124 2005
3 835 779 1976
3 851 838 1992
3 1530 1533 2172
3 1668 1045 2348
3 1162 1681 1706
3 342 338 468
3 298 300 358
3 765 359 2065
3 725 826 885
3 35 36 2003
3 46 47 2019
3 38 39 2006
3 336 517 2014
3 934 1111 1968
3 116 117 2018
3 650 651 1963
3 223 1711 2162
3 640 594 645
3 1333 1330 2192
3 104 222 2025
3 1603 922 2379
3 963 1113 1115
3 2084 1193 2189
3 564 570 571
3 36 37 2004
3 57 224 1947
3 1542 1601 2269
3 122 123 2012
3 1000 920 1001
3 127 128 240
3 34 35 239
3 383 387 2087
3 1161 1107 2228
3 1781 2294 2419
3 1201 1200 1202
3 124 125 225
3 37 38 226
3 1340 1341 1342
3 869 797 1137
3 839 840 1008
3 1158 544 1993
3 1326 925 1894
3 352 350 353
3 326 329 954
3 1864 2344 2412
3 836 835 2095
3 1051 1053 1295
3 1031 720 1032
3 503 461 787
3 1407 1112 2044
3 661 662 2058
3 838 868 1992
3 112 113 197
3 49 50 198
3 1359 980 1413
3 121 122 211
3 40 41 212
3 48 49 2010
3 113 114 2009
3 1741 673 2131
3 41 42 2020
3 120 121 2013
3 1409 2035 2097
3 1511 1374 2506
3 114 115 248
3 47 48 249
3 42 43 250
3 119 120 251
3 171 6 201
3 6 172 203
3 585 895 1993
3 43 44 2024
3 118 119 2021
3 905 904 906
3 764 661 797
3 337 340 341
3 1413 980 2051
3 117 118 205
3 44 45 206
3 347 346 350
3 1420 1076 1525
3 324 323 331
3 434 417 2031
3 965 967 969
3 716 719 788
3 1260 1254 1261
3 2053 373 2103
3 2069 2068 2170
3 326 328 329
3 1706 996 2408
3 273 275 2124
3 969 1011 1012
3 590 606 2001
3 1718 1611 2280
3 1914 1940 2001
3 915 1884 2082
3 329 330 333
3 620 859 955
3 2168 1409 2305
3 296 298 1997
3 915 2082 2101
3 339 338 342
3 1218 994 1505
3 333 336 337
3 266 263 1742
3 1873 768 2127
3 244 63 2162
3 64 223 2162
3 343 342 346
3 914 761 2258
3 310 312 1987
3 799 800 2055
3 302 304 763
3 1559 1566 1568
3 1598 1343 2114
3 592 575 595
3 341 345 794
3 189 1842 2220
3 767 815 816
3 1003 912 1004
3 839 1008 1009
3 1263 1428 1429
3 564 547 570
3 1845 1334 2082
3 332 331 334
3 901 866 902
3 651 659 1963
3 1009 1112 1213
3 335 334 338
3 569 585 1993
3 1665 1336 2299
3 1945 2071 2153
3 863 862 864
3 907 906 908
3 1849 1486 1930
3 1935 1144 2080
3 967 966 968
3 809 900 2119
3 865 864 866
3 835 1989 2095
3 190 1907 2417
3 333 337 522
3 1110 1748 2228
3 1193 1194 1195
3 94 191 2166
3 473 1854 2453
3 1769 1134 2369
3 948 851 1992
3 237 170 2216
3 420 419 422
3 1448 1447 2364
3 483 576 2144
3 721 1919 2032
3 885 886 1891
3 613 611 614
3 886 1014 1891
3 1160 411 2043
3 1918 1283 2342
3 1651 206 2485
3 1242 1240 1243
3 598 596 610
3 1295 1296 1459
3 1185 1186 1948
3 1425 1449 2070
3 294 296 762
3 1285 948 1992
3 925 876 1894
3 712 714 789
3 603 1668 2398
3 1940 590 2001
3 721 570 964
3 834 735 2075
3 1144 1920 2080
3 2263 1635 2511
3 1204 1207 1335
3 2235 1408 2378
3 965 964 966
3 1990 1435 2218
3 397 398 2060
3 1138 797 2058
3 1787 1141 2368
3 2068 820 2170
3 360 359 361
3 387 462 2087
3 1524 1272 1934
3 819 698 820
3 1197 1196 1198
3 1662 2126 2388
3 78 79 2093
3 1150 588 2089
3 1269 1261 1270
3 1878 915 2101
3 451 467 2169
3 2262 1387 2437
3 1009 1008 1112
3 757 311 1959
3 897 898 1139
3 1854 473 2483
3 2015 1425 2070
3 2082 1334 2101
3 963 1115 1174
3 1047 1049 1287
3 1194 423 1196
3 321 326 2050
3 417 1160 2031
3 854 1133 1973
3 1201 1212 1348
3 705 1586 2163
3 309 319 1959
3 1353 1390 2417
3 427 428 429
3 357 356 359
3 606 650 2001
3 549 1280 2124
3 1213 1112 1407
3 256 2303 2535
3 356 365 2065
3 662 664 2040
3 701 894 2039
3 1325 1371 2451
3 666 626 667
3 1902 93 2166
3 1236 1234 1246
3 800 839 2055
3 1869 1812 2252
3 1197 1364 1365
3 576 1935 2080
3 404 408 798
3 1678 807 2529
3 1560 1564 2016
3 1319 2039 2122
3 425 426 427
3 349 356 357
3 308 310 327
3 1716 622 2484
3 1801 82 2289
3 1768 1949 2420
3 2006 1926 2507
3 351 364 2407
3 420 423 1193
3 659 764 1963
3 292 294 2038
3 840 842 2027
3 736 279 2049
3 372 373 374
3 461 449 2052
3 2189 1195 2285
3 1174 1115 1398
3 367 363 961
3 909 908 918
3 1738 247 2402
3 1007 1761 2308
3 288 290 2135
3 422 441 2035
3 623 624 690
3 537 525 545
3 1953 1421 2454
3 1887 1968 2123
3 861 691 862
3 654 439 2223
3 1136 1080 2054
3 1312 1811 2089
3 575 571 2032
3 383 361 384
3 968 1200 1201
3 797 661 2058
3 1423 1354 2381
3 1180 1178 1181
3 1513 1515 2180
3 72 73 2217
3 462 445 463
3 12 13 2136
3 457 458 469
3 542 554 555
3 599 636 760
3 254 133 1766
3 1130 1397 1937
3 404 798 2060
3 1044 1942 2071
3 690 691 860
3 357 359 360
3 1008 2027 2152
3 1232 1230 1255
3 372 370 373
3 850 943 2125
3 1457 1456 1492
3 1952 324 2282
3 155 2 2356
3 0 7 2357
3 2017 1379 2288
3 918 1851 2008
3 195 1991 2517
3 2090 803 2347
3 1244 1243 1251
3 290 292 368
3 1432 1082 2214
3 1008 840 2027
3 1743 803 2296
3 1013 844 2039
3 365 1162 2065
3 1594 1315 2184
3 387 384 388
3 1508 1860 2311
3 547 527 2056
3 2005 225 2322
3 314 317 2127
3 1853 556 2327
3 201 6 278
3 1907 1644 2417
3 1896 2101 2108
3 646 645 784
3 538 508 558
3 374 375 377
3 1630 1634 1635
3 1579 1999 2352
3 1647 1648 1849
3 1313 1314 2121
3 1179 1433 2042
3 844 701 2039
3 1252 1251 2098
3 816 876 925
3 1922 1228 2281
3 392 394 396
3 1915 654 2294
3 1652 1653 2487
3 429 430 436
3 456 475 476
3 1605 1392 2510
3 126 1882 2284
3 1784 1780 2419
3 500 453 960
3 377 378 381
3 2178 1587 2300
3 1222 1219 1626
3 413 419 420
3 381 382 400
3 2169 1836 2223
3 1906 1905 2129
3 616 614 793
3 1170 1419 2139
3 101 189 2220
3 241 100 2220
3 1968 1111 2123
3 567 434 2031
3 615 614 616
3 1032 720 1921
3 682 428 2138
3 469 470 473
3 339 440 2261
3 1501 238 2226
3 1154 1431 1653
3 446 447 457
3 1251 1243 1257
3 2229 315 2495
3 1201 1202 1212
3 785 784 879
3 464 463 465
3 66 2118 2395
3 324 332 2282
3 286 288 771
3 17 199 2081
3 571 570 721
3 611 610 2092
3 617 616 618
3 1542 1531 2332
3 400 401 424
3 1325 1326 1371
3 1140 1406 1702
3 1323 443 2302
3 1926 1573 2507
3 436 437 446
3 1262 1457 2098
3 67 190 2118
3 1518 1861 2449
3 989 1359 1360
3 1063 1082 1154
3 1757 96 2526
3 969 967 1011
3 868 836 2095
3 1215 1035 2235
3 96 1757 2309
3 261 2160 2380
3 1381 1382 2126
3 1468 1469 2182
3 1334 1317 2108
3 861 863 1064
3 1270 1261 1271
3 360 361 383
3 287 316 1978
3 1856 192 2367
3 1905 241 2129
3 1615 1809 2425
3 528 523 560
3 979 980 989
3 662 2040 2058
3 721 964 965
3 170 171 2216
3 664 799 2040
3 512 511 523
3 1201 1348 2107
3 620 618 858
3 758 289 1978
3 859 858 998
3 424 425 453
3 1616 1615 2193
3 444 301 1975
3 561 560 593
3 965 966 967
3 1798 376 2430
3 340 2014 2091
3 510 465 511
3 107 195 1990
3 1080 1188 2054
3 1153 998 1312
3 1226 1224 1249
3 1012 1011 1363
3 902 904 905
3 842 963 2027
3 268 270 1134
3 865 901 1125
3 2077 558 2102
3 282 284 442
3 1977 1679 2253
3 1496 1498 2047
3 284 286 2063
3 281 736 1938
3 2132 793 2165
3 1674 215 2437
3 2078 1855 2411
3 839 1009 2055
3 1182 824 1183
3 1168 947 1169
3 1289 1871 2242
3 316 285 1971
3 1270 1271 1272
3 1755 1793 2264
3 51 1996 2011
3 383 384 387
3 1146 1924 2215
3 1279 1928 2202
3 619 618 620
3 1194 1196 1197
3 555 578 979
3 1937 1639 2528
3 1262 1257 1263
3 389 384 2339
3 2251 1338 2464
3 1155 1887 2123
3 1151 1937 2528
3 465 463 828
3 1318 1319 2116
3 1687 1688 2231
3 326 954 2050
3 297 318 1984
3 1308 953 2255
3 1846 2056 2198
3 320 315 2229
3 1254 1252 2059
3 760 761 783
3 951 1281 2255
3 1459 1296 2094
3 2288 1638 2470
3 1975 299 1984
3 52 247 1996
3 468 338 2090
3 2140 1511 2506
3 1125 1126 1192
3 593 824 1182
3 720 708 1921
3 704 706 707
3 623 587 624
3 2044 1112 2152
3 1393 1169 1749
3 900 983 2119
3 783 914 938
3 255 2265 2489
3 2039 894 2122
3 317 2050 2127
3 1866 1867 2513
3 374 373 375
3 429 436 455
3 387 388 445
3 1193 423 1194
3 555 577 578
3 1074 977 1187
3 449 567 2052
3 1197 1198 1364
3 2154 1595 2486
3 1486 1849 2173
3 318 295 1983
3 939 1016 1844
3 131 132 2160
3 30 31 2159
3 881 1146 2215
3 1294 1868 2238
3 1300 1455 2314
3 1365 1364 1912
3 783 938 939
3 2061 1735 2441
3 551 545 601
3 2194 216 2536
3 1251 1257 1262
3 888 887 2177
3 1364 1198 2048
3 1498 1682 2340
3 1589 1590 2501
3 60 188 2266
3 1401 1913 2324
3 195 108 1991
3 420 422 423
3 1675 1470 2474
3 258 1673 2183
3 2161 1619 2438
3 1296 1472 2094
3 1808 1910 2381
3 334 803 2090
3 1490 1285 2232
3 523 511 524
3 1240 1238 2074
3 1184 1183 1185
3 39 40 2151
3 473 474 477
3 1461 1463 2200
3 2072 353 2073
3 861 862 863
3 1206 1941 2401
3 958 1575 2287
3 614 611 2092
3 110 111 2140
3 1136 2054 2110
3 645 594 2133
3 260 33 2002
3 673 767 2131
3 989 980 1359
3 1741 2131 2258
3 1317 1875 2148
3 894 1946 2122
3 863 864 865
3 787 461 2052
3 857 2277 2386
3 109 246 1991
3 2017 116 2018
3 1182 1183 1184
3 377 375 378
3 816 925 1324
3 865 866 901
3 1262 1263 1456
3 359 356 2065
3 2129 241 2472
3 283 1938 1971
3 1458 1210 2203
3 1076 1003 2145
3 196 1738 2402
3 1033 1130 1151
3 1188 1121 2106
3 1140 1702 2096
3 549 687 1280
3 1694 1621 2191
3 861 1064 2112
3 1548 1549 2129
3 1784 1071 2462
3 714 716 2066
3 1961 825 2455
3 1447 1211 2250
3 979 578 980
3 905 907 1209
3 381 378 382
3 457 469 552
3 595 575 2032
3 408 413 2084
3 481 483 2144
3 1745 1349 2293
3 1980 1405 2441
3 198 50 2011
3 248 115 2017
3 912 819 2068
3 620 858 859
3 707 708 720
3 821 674 822
3 514 542 2086
3 400 382 401
3 123 2005 2012
3 1772 1351 2374
3 34 239 2002
3 768 314 2127
3 2003 36 2004
3 280 282 2079
3 124 225 2005
3 596 595 2130
3 593 560 824
3 1504 1502 2519
3 239 35 2003
3 1311 1309 2147
3 1318 1877 2240
3 1860 1432 2311
3 1416 1715 2330
3 859 998 1153
3 352 353 2072
3 312 768 1987
3 2027 1174 2152
3 226 38 2006
3 1827 1024 2117
3 1710 1391 2295
3 690 624 691
3 37 226 2004
3 1153 1312 1885
3 853 855 2186
3 1892 242 2373
3 1967 520 2174
3 939 938 1016
3 47 249 2019
3 388 390 2078
3 1991 2139 2517
3 905 906 907
3 571 721 2032
3 1196 423 2035
3 1324 925 1325
3 1151 1130 1937
3 363 352 2072
3 345 349 2076
3 1031 1032 1033
3 214 179 1859
3 211 122 2012
3 602 601 652
3 117 205 2018
3 710 712 2067
3 1602 187 2357
3 520 2000 2174
3 85 242 2335
3 220 84 2335
3 381 400 2113
3 1586 1587 2435
3 424 401 425
3 963 1174 2027
3 860 691 861
3 610 596 2130
3 1958 2078 2431
3 570 547 2056
3 237 2216 2354
3 1211 1692 2219
3 298 358 1997
3 909 947 1041
3 441 456 2097
3 1135 1647 1849
3 1601 1542 2443
3 197 113 2009
3 49 198 2010
3 1911 347 2407
3 1729 191 2309
3 212 41 2020
3 121 211 2013
3 222 105 2218
3 1125 901 1126
3 114 248 2009
3 249 48 2010
3 42 250 2020
3 251 120 2013
3 233 1769 2369
3 1870 647 2113
3 794 345 2076
3 250 43 2024
3 119 251 2021
3 901 902 2141
3 964 570 2056
3 739 335 2261
3 2108 1317 2148
3 577 599 2083
3 205 118 2021
3 44 206 2024
3 1247 1241 2323
3 1894 992 2244
3 6 203 2049
3 1642 1678 2529
3 1417 1873 2333
3 1422 2023 2516
3 341 794 2100
3 73 74 2361
3 1234 1232 2088
3 1261 1254 2059
3 896 1077 2257
3 1921 710 2067
3 125 126 2284
3 220 1699 2289
3 159 5 2304
3 4 184 2303
3 2059 1252 2098
3 1003 1004 2145
3 2328 1325 2451
3 1486 227 1500
3 63 64 2162
3 2081 1192 2260
3 508 500 2102
3 667 1872 2318
3 338 334 2090
3 423 422 2035
3 1192 1126 1471
3 907 908 909
3 1330 1328 2192
3 1972 897 2500
3 2443 316 2514
3 242 86 2373
3 87 193 2373
3 420 1193 2084
3 1473 1086 2358
3 1987 768 2037
3 522 337 2100
3 627 1660 2185
3 1793 446 2264
3 1405 2061 2441
3 1502 1217 2302
3 171 201 2216
3 1158 1993 2153
3 1197 1365 2120
3 1712 1710 2295
3 1121 1401 2414
3 93 94 2166
3 653 652 688
3 622 1716 2452
3 1345 1720 2267
3 477 537 556
3 128 129 2181
3 2331 1295 2458
3 784 645 874
3 1269 1270 2199
3 189 102 2355
3 1041 1168 1343
3 246 110 2140
3 477 525 537
3 755 1895 2371
3 1947 1723 2313
3 1134 1135 2369
3 223 65 2395
3 968 1201 2107
3 1577 1578 2325
3 210 15 2477
3 961 363 2072
3 1581 1579 2352
3 349 357 2076
3 337 341 2100
3 305 303 2317
3 370 367 2103
3 762 296 1997
3 581 580 2164
3 1278 1838 2372
3 1548 2129 2472
3 594 593 2133
3 2021 251 2022
3 2047 1247 2182
3 967 968 2107
3 1169 947 2008
3 481 2144 2169
3 793 614 2092
3 1910 217 2381
3 1251 1262 2098
3 716 788 2066
3 2101 1334 2108
3 2006 39 2151
3 1603 2379 2508
3 1926 2006 2151
3 96 97 2526
3 750 755 2371
3 789 714 2066
3 909 918 947
3 1993 895 2153
3 106 1990 2218
3 1243 1240 2074
3 832 986 1189
3 1283 1284 2342
3 2297 195 2517
3 1043 829 2326
3 767 816 2131
3 602 653 676
3 1004 912 2068
3 2086 1886 2224
3 1124 2177 2467
3 426 401 2531
3 707 720 1030
3 1000 1001 2184
3 1315 1029 2184
3 467 481 2169
3 541 513 2256
3 647 381 2113
3 225 2284 2510
3 2 156 2356
3 187 0 2357
3 40 212 2151
3 2245 1386 2383
3 676 677 829
3 1004 2068 2069
3 1860 232 2487
3 1031 1033 1034
3 829 830 972
3 996 997 2408
3 1195 1194 2120
3 987 1869 2202
3 1410 1213 2222
3 819 820 2068
3 1485 1486 2173
3 1564 2030 2155
3 807 669 2529
3 129 261 2181
3 1525 1076 2145
3 578 577 2083
3 327 310 1987
3 1083 929 2197
3 2131 1324 2258
3 798 408 2084
3 1838 696 2426
3 1486 1500 1930
3 1946 1944 2291
3 2257 1077 2291
3 1512 1661 2266
3 445 388 2078
3 1192 1471 2260
3 2118 1415 2395
3 1466 1468 2158
3 830 677 831
3 211 2012 2251
3 652 601 2442
3 537 545 551
3 558 508 2102
3 198 2011 2128
3 1718 2280 2385
3 500 960 2102
3 1168 1169 1393
3 1127 971 2496
3 95 96 2309
3 2030 1565 2155
3 1919 1172 2273
3 977 860 2112
3 240 128 2181
3 294 762 2038
3 1800 1799 2195
3 712 789 2067
3 972 1749 2326
3 472 1683 2212
3 874 645 2133
3 551 2045 2201
3 2105 1043 2326
3 1957 1212 2301
3 1514 1856 2367
3 565 538 2167
3 373 370 2103
3 355 348 2196
3 1934 1272 2138
3 1934 426 2531
3 1881 1400 2481
3 2046 1851 2327
3 367 961 2103
3 1963 1152 2206
3 201 278 443
3 3 131 2444
3 31 1 2445
3 2035 441 2097
3 503 787 2198
3 1135 1849 1930
3 1534 1983 2306
3 2089 623 2150
3 687 704 2109
3 869 1351 2363
3 1302 1304 2205
3 955 1716 2484
3 1030 720 1031
3 1159 1318 2240
3 1228 1226 2281
3 947 918 2008
3 413 420 2084
3 785 879 2532
3 1041 947 1168
3 1468 2182 2323
3 1246 1234 2088
3 1730 1163 2372
3 542 555 2086
3 1599 631 2312
3 1146 1967 2174
3 1078 1136 2343
3 1515 1574 2180
3 2336 885 2469
3 1257 1243 2074
3 1347 1346 2279
3 2001 650 2206
3 1480 1601 2514
3 1029 1000 2184
3 1956 788 2336
3 1271 1261 2059
3 130 3 2444
3 1 32 2445
3 1570 1507 2197
3 1232 1255 2088
3 791 1642 2529
3 1601 1479 2269
3 1361 1362 2168
3 1634 1922 2281
3 765 2065 2190
3 2071 1158 2153
3 1699 1801 2289
3 832 831 833
3 1864 346 2344
3 456 476 2097
3 1855 828 2411
3 2065 1162 2190
3 1125 1192 2149
3 599 760 2083
3 361 765 2339
3 1731 2123 2241
3 1349 1181 1350
3 1443 1275 2251
3 1819 524 2429
3 1021 1045 2512
3 858 618 2132
3 1999 358 2338
3 368 292 2038
3 290 368 2135
3 803 331 2296
3 1112 1008 2152
3 56 1947 2313
3 555 979 2086
3 1469 1496 2182
3 1011 967 2107
3 248 2017 2288
3 1809 789 2425
3 960 453 2221
3 538 558 2167
3 1858 1187 2248
3 2246 1757 2526
3 902 905 2141
3 1851 1853 2327
3 1224 1222 2111
3 771 288 2135
3 1945 2153 2257
3 1420 1525 2489
3 1399 1123 2393
3 103 2025 2355
3 897 822 898
3 1861 940 2532
3 865 1125 2146
3 1675 2474 2522
3 1573 2157 2507
3 1632 1631 2382
3 551 601 602
3 527 503 2198
3 1708 805 2337
3 1059 1278 2372
3 2056 527 2198
3 860 861 2112
3 1668 2348 2398
3 255 2159 2265
3 1541 1542 2269
3 1428 2074 2227
3 1582 1583 2321
3 389 1774 2503
3 2004 226 2157
3 1777 397 2405
3 1368 1436 2254
3 1061 2409 2462
3 1071 930 2462
3 1126 901 2141
3 1194 1197 2120
3 1452 1952 2282
3 2116 1319 2482
3 105 106 2218
3 1981 1399 2393
3 2119 983 2143
3 444 1682 2461
3 2173 1648 2463
3 616 793 2132
3 1791 1190 2334
3 1826 1728 2259
3 602 652 653
3 1834 1292 2428
3 556 2201 2327
3 1014 1015 2385
3 1995 1287 2331
3 1193 1195 2189
3 816 1324 2131
3 879 1861 2532
3 593 1182 2133
3 1402 266 1742
3 2216 1323 2354
3 1660 1636 2502
3 620 955 2484
3 1162 1706 2190
3 1870 2113 2249
3 204 1680 1732
3 1909 2023 2420
3 217 72 2217
3 376 372 2430
3 905 1209 2141
3 1378 1381 2283
3 1236 1246 2227
3 286 771 2063
3 1635 2263 2502
3 100 101 2220
3 1139 898 1140
3 2114 1343 2136
3 442 284 2063
3 1772 2106 2414
3 1985 1755 2533
3 2192 1328 2315
3 1064 863 2146
3 1631 1637 2459
3 736 2049 2523
3 221 1906 2246
3 318 1983 2171
3 1496 2047 2182
3 1374 2139 2506
3 196 55 2313
3 2087 462 2134
3 676 653 677
3 2304 257 2491
3 1401 2324 2363
3 829 677 830
3 654 2223 2242
3 1187 977 2112
3 1463 1466 2200
3 2023 219 2516
3 1176 881 2215
3 513 471 2290
3 1812 459 2252
3 1386 1269 2199
3 291 758 2306
3 618 616 2132
3 278 280 2210
3 83 220 2289
3 82 83 2289
3 938 1057 2161
3 1189 986 1190
3 788 719 2336
3 1914 2001 2206
3 232 181 1652
3 1567 2062 2490
3 313 757 2495
3 622 619 2484
3 688 878 1320
3 1222 1626 2111
3 282 442 2079
3 1169 2008 2105
3 1966 1007 2308
3 2040 799 2237
3 1744 2229 2495
3 986 833 1063
3 2284 1605 2510
3 887 1961 2376
3 215 1624 2262
3 830 831 832
3 476 475 2224
3 439 451 2223
3 1932 1933 2380
3 2227 1246 2366
3 1212 1202 2301
3 1107 1110 2228
3 249 2010 2299
3 1983 293 2306
3 2055 1214 2237
3 1438 1372 2478
3 824 560 2156
3 2320 1866 2513
3 1351 1137 2374
3 868 2007 2232
3 2063 771 2064
3 1507 214 1508
3 1728 1727 2246
3 1045 1047 2348
3 1139 1140 2096
3 1648 1649 2463
3 1502 2302 2519
3 704 707 2109
3 2343 1136 2396
3 650 1963 2206
3 2153 895 2257
3 396 1958 2431
3 1379 1377 2288
3 2115 1471 2319
3 2033 987 2202
3 2239 1693 2518
3 2025 1488 2355
3 1209 2115 2319
3 523 524 2156
3 783 939 2243
3 376 1798 2497
3 2066 788 2193
3 1984 318 2172
3 425 427 2221
3 203 172 1847
3 446 457 2264
3 1312 2089 2150
3 2138 1272 2211
3 897 1139 2274
3 828 1819 2429
3 1249 1224 2111
3 666 667 2318
3 1371 1326 2194
3 2433 1499 2475
3 1272 1271 2211
3 1367 2254 2479
3 1386 2053 2383
3 2074 1238 2227
3 755 2148 2320
3 2117 1604 2428
3 475 514 2224
3 228 2187 2457
3 1868 1504 2520
3 1626 1218 2185
3 2123 1111 2241
3 1287 1049 2331
3 1280 687 2109
3 459 1814 2292
3 54 196 2402
3 863 865 2146
3 204 176 1680
3 514 2086 2224
3 1646 603 2398
3 112 197 2346
3 358 300 2338
3 1140 898 1141
3 1204 1335 2301
3 1016 2161 2438
3 909 1041 2175
3 1681 2448 2492
3 2252 459 2292
3 1992 868 2232
3 1035 1036 2235
3 1051 1295 2331
3 1836 1289 2242
3 1508 214 1859
3 247 53 2402
3 1016 938 2161
3 1408 856 2378
3 1466 2158 2200
3 725 885 2336
3 855 1450 2421
3 2023 1768 2420
3 1238 1236 2227
3 1679 202 2253
3 2107 1348 2233
3 1653 1431 2487
3 1946 2291 2343
3 2253 202 2329
3 1885 1312 2150
3 378 628 2390
3 2195 1383 2432
3 1520 1519 2480
3 1532 1733 2534
3 308 327 2278
3 953 951 2255
3 1213 1407 2222
3 1561 1563 2285
3 302 763 2338
3 1928 2033 2202
3 763 304 2345
3 832 833 986
3 1352 2040 2237
3 247 1881 2481
3 560 523 2156
3 335 339 2261
3 346 342 2344
3 201 443 1323
3 2301 1335 2466
3 323 320 2229
3 1136 2110 2396
3 1139 1977 2274
3 1809 1615 2423
3 1707 1791 2334
3 46 2019 2485
3 2064 1294 2238
3 1950 197 2404
3 2021 2022 2176
3 1949 245 2420
3 2044 2152 2207
3 1063 1154 1707
3 1012 1363 2406
3 280 2079 2210
3 2237 1214 2351
3 820 698 2318
3 1140 1141 1406
3 205 2021 2176
3 2043 786 2310
3 2145 1004 2446
3 707 1030 2109
3 1406 2460 2473
3 2137 1268 2226
3 16 2081 2260
3 567 2031 2219
3 2112 1064 2248
3 206 45 2485
3 2347 1462 2365
3 1650 1962 2362
3 453 425 2221
3 1209 907 2175
3 1111 1276 2241
3 2448 1145 2492
3 2051 2083 2243
3 59 60 2266
3 1402 1742 2530
3 831 677 2209
3 624 587 2276
3 238 174 1725
3 1011 2107 2233
3 468 2365 2412
3 2337 805 2371
3 254 1932 2380
3 1174 1398 2207
3 2140 111 2346
3 1381 2186 2283
3 1987 2037 2188
3 1740 559 2456
3 1773 391 2503
3 1335 1870 2249
3 1945 2257 2291
3 828 463 2411
3 1246 2088 2208
3 2060 798 2307
3 1773 1159 2240
3 1187 2112 2248
3 1352 2237 2351
3 2037 1322 2188
3 1941 1499 2433
3 2322 225 2510
3 1031 1034 2236
3 327 2188 2321
3 595 2032 2273
3 1464 1462 2347
3 1285 1992 2232
3 799 2055 2237
3 443 278 2210
3 784 874 2178
3 392 396 2431
3 191 95 2309
3 879 784 2178
3 524 511 2429
3 2128 2011 2270
3 895 896 2257
3 2206 1152 2324
3 318 2171 2172
3 2259 1549 2379
3 1214 1410 2351
3 306 308 2278
3 2022 251 2247
3 1757 1729 2309
3 1283 1918 2524
3 996 1706 2492
3 557 2044 2207
3 1798 1448 2364
3 1447 2250 2310
3 559 1750 2403
3 1363 1011 2233
3 1343 1168 2187
3 1407 2044 2256
3 1462 1460 2365
3 1995 2331 2458
3 327 1987 2188
3 2160 254 2380
3 1681 958 2287
3 2031 1160 2250
3 1600 689 2413
3 2219 1692 2239
3 1494 1675 2522
3 1281 1916 2448
3 907 909 2175
3 565 2167 2276
3 2241 1276 2275
3 1978 316 2443
3 2151 212 2350
3 203 1847 2104
3 2049 1481 2523
3 1961 1362 2376
3 2187 1393 2457
3 940 796 2532
3 2293 1349 2329
3 572 1897 2537
3 332 739 2282
3 2052 567 2239
3 1437 1370 2277
3 567 2219 2239
3 667 626 2452
3 1914 2206 2324
3 2243 939 2392
3 2136 1343 2187
3 257 1654 2530
3 1376 1378 2283
3 2076 1982 2272
3 2083 760 2243
3 1944 1945 2291
3 1771 1839 2359
3 1404 1403 2399
3 1875 1866 2320
3 1460 1337 2412
3 760 783 2243
3 1276 1366 2275
3 1428 2227 2366
3 1882 1605 2284
3 1739 1429 2459
3 2321 2188 2434
3 1328 1327 2315
3 798 2189 2307
3 2152 1174 2207
3 2182 1247 2323
3 1516 1514 2367
3 293 291 2306
3 556 537 2201
3 1298 1300 2314
3 1400 1399 2316
3 1649 2236 2463
3 833 831 2424
3 2127 2050 2333
3 1057 914 2328
3 1839 193 2359
3 761 1741 2258
3 1186 1970 2422
3 1429 2366 2382
3 2211 1271 2271
3 1733 1248 2534
3 13 2114 2136
3 2078 390 2431
3 1533 1536 2340
3 1690 2145 2446
3 1277 2308 2370
3 1168 1393 2187
3 1597 2047 2268
3 587 565 2276
3 1908 244 2401
3 225 125 2284
3 610 2130 2468
3 1749 2105 2326
3 1913 1914 2324
3 2366 2208 2382
3 1391 1876 2295
3 457 552 2264
3 653 688 2209
3 1601 2443 2514
3 682 2138 2211
3 992 1980 2244
3 55 56 2313
3 1645 1495 2493
3 473 477 2483
3 202 1724 2329
3 465 828 2429
3 1277 1966 2308
3 1416 2330 2406
3 1912 1364 2455
3 1716 1483 2375
3 2019 1651 2485
3 1725 2137 2226
3 201 1323 2216
3 878 1083 2213
3 2072 2073 2245
3 1563 1777 2405
3 244 2028 2401
3 2016 1564 2422
3 1682 1497 2461
3 1962 1153 2362
3 1298 2314 2358
3 1384 1385 2391
3 688 1320 2209
3 1587 2179 2435
3 786 380 2497
3 1395 1522 2341
3 2032 1919 2273
3 251 2013 2247
3 2219 2031 2250
3 2397 552 2453
3 1765 255 2489
3 2475 1825 2524
3 1202 1204 2301
3 445 2078 2411
3 323 2229 2296
3 1286 2384 2408
3 537 551 2201
3 1724 237 2293
3 84 85 2335
3 1471 1126 2319
3 1635 1634 2511
3 300 302 2338
3 698 666 2318
3 1030 1031 2236
3 2098 1457 2271
3 696 1821 2426
3 1457 1492 2447
3 1956 2336 2469
3 331 323 2296
3 1284 1491 2342
3 2011 1996 2270
3 256 183 2303
3 160 257 2304
3 2204 1589 2501
3 1891 1014 2280
3 719 725 2336
3 1354 1808 2381
3 437 430 2494
3 2377 218 2391
3 2211 2271 2447
3 1407 2256 2290
3 2365 1460 2412
3 2047 1498 2268
3 1825 1283 2524
3 1499 1825 2475
3 1226 1249 2281
3 2051 2243 2392
3 2250 1160 2310
3 111 112 2346
3 304 306 2345
3 1341 1352 2351
3 2166 191 2504
3 2223 1836 2242
3 1996 247 2481
3 1049 1051 2331
3 1086 1298 2358
3 2130 595 2273
3 1249 2111 2263
3 680 1995 2458
3 1511 2140 2346
3 102 103 2355
3 469 473 2453
3 961 2072 2245
3 2073 1282 2245
3 1442 1443 2525
3 74 192 2361
3 2163 1586 2435
3 1519 1518 2449
3 897 2274 2500
3 303 444 2317
3 1615 1614 2423
3 197 2009 2404
3 1634 2281 2511
3 1780 1781 2419
3 1435 1623 2465
3 1286 1774 2384
3 384 361 2339
3 193 1901 2359
3 1165 2433 2475
3 2277 1370 2386
3 677 653 2209
3 1994 1516 2367
3 1479 1478 2440
3 1165 1512 2433
3 1644 1353 2417
3 1711 1712 2353
3 2193 1615 2425
3 1613 1956 2469
3 1440 1173 2330
3 2269 1479 2440
3 222 2218 2465
3 391 389 2503
3 306 2278 2345
3 468 2090 2365
3 221 2246 2526
3 1445 1446 2504
3 939 1844 2392
3 86 87 2373
3 1429 1428 2366
3 2053 2103 2383
3 1348 1212 2312
3 805 750 2371
3 997 1286 2408
3 1152 869 2363
3 2063 2064 2238
3 192 1994 2367
3 1160 2043 2310
3 1926 2151 2350
3 2059 2098 2271
3 1897 1366 2537
3 215 2262 2437
3 1655 1732 2476
3 2415 1128 2454
3 1320 2213 2214
3 7 258 2357
3 259 155 2356
3 2171 1530 2172
3 347 351 2407
3 1077 1078 2343
3 239 2003 2279
3 1446 1128 2415
3 1034 1033 2410
3 601 627 2442
3 1154 1653 2234
3 397 2060 2405
3 2142 794 2272
3 442 2063 2238
3 1863 1215 2378
3 794 2076 2272
3 1883 1375 2505
3 1320 878 2213
3 342 468 2344
3 1903 218 2377
3 380 376 2497
3 1549 1547 2379
3 1148 1165 2475
3 2157 226 2507
3 829 972 2326
3 884 1957 2466
3 2291 1077 2343
3 65 66 2395
3 787 2052 2518
3 2298 1348 2312
3 1946 2343 2396
3 1653 256 2535
3 1842 1548 2472
3 1957 2301 2466
3 1366 1277 2370
3 2213 1432 2214
3 961 2245 2383
3 218 2093 2391
3 1376 2283 2421
3 1873 2127 2333
3 1019 1021 2512
3 1128 1127 2454
3 1104 1434 2450
3 2130 1439 2468
3 2396 2110 2482
3 2186 855 2283
3 1724 2293 2329
3 1163 1059 2372
3 1614 2389 2423
3 53 54 2402
3 1063 1707 2334
3 2283 855 2421
3 1385 1863 2436
3 364 1883 2505
3 517 1890 2387
3 1145 996 2492
3 1047 1287 2348
3 2148 1875 2320
3 205 2176 2416
3 1372 1844 2478
3 1211 2219 2250
3 1141 898 2368
3 245 1909 2420
3 2278 327 2321
3 2389 1397 2423
3 2256 513 2290
3 559 2403 2456
3 1137 1340 2374
3 2093 1384 2391
3 1918 1148 2524
3 1030 2236 2427
3 1867 1895 2513
3 2014 517 2387
3 2271 1457 2447
3 1143 2028 2353
3 1904 194 2432
3 1148 2475 2524
3 1574 1523 2436
3 2213 1083 2311
3 1997 358 2325
3 2139 246 2506
3 1370 1369 2386
3 1271 2059 2271
3 1034 2173 2463
3 1123 1412 2393
3 1578 1827 2515
3 2209 1320 2424
3 2079 1504 2210
3 1361 2168 2305
3 1491 1489 2403
3 238 1725 2226
3 1190 986 2334
3 1547 1545 2508
3 1891 1613 2469
3 1153 1885 2362
3 2208 1632 2382
3 2287 1281 2448
3 1356 1376 2421
3 1965 2349 2515
3 2155 1186 2422
3 1522 2014 2387
3 2158 1468 2323
3 2050 954 2333
3 1397 1809 2423
3 1362 1360 2376
3 1852 1985 2397
3 2069 1691 2446
3 789 2066 2425
3 1895 755 2513
3 1707 1154 2234
3 372 374 2430
3 2225 787 2518
3 2028 1206 2401
3 986 1063 2334
3 1912 726 2439
3 1340 1342 2400
3 1916 1145 2448
3 2236 1649 2427
3 2374 1340 2400
3 2222 1407 2290
3 2324 1152 2363
3 241 2220 2472
3 765 2190 2384
3 2375 667 2452
3 2330 1173 2406
3 1181 1972 2500
3 2126 1382 2388
3 1173 1012 2406
3 315 313 2495
3 1015 1373 2385
3 97 221 2526
3 1937 1397 2389
3 930 1061 2462
3 971 1096 2496
3 45 46 2485
3 669 791 2529
3 1104 2450 2521
3 382 378 2390
3 2191 1371 2536
3 2235 1036 2286
3 831 2209 2424
3 762 1997 2349
3 2379 1547 2508
3 2177 1359 2467
3 2403 1489 2456
3 796 785 2532
3 219 1902 2516
3 1519 2300 2480
3 1065 1655 2476
3 1375 1473 2505
3 1489 1490 2456
3 390 392 2431
3 2247 2013 2464
3 1135 1930 2369
3 2278 1583 2345
3 626 622 2452
3 631 2298 2312
3 2233 1348 2298
3 1398 1974 2499
3 1706 1681 2492
3 261 130 2444
3 32 260 2445
3 822 2099 2368
3 1365 1912 2439
3 941 940 2418
3 1446 2166 2504
3 2106 1121 2414
3 2300 1519 2449
3 1803 1104 2521
3 1732 1570 2476
3 1413 2051 2392
3 2122 1946 2396
3 2238 1868 2520
3 477 556 2483
3 2397 1985 2533
3 463 445 2411
3 2163 1185 2488
3 1126 2141 2319
3 1755 2264 2533
3 972 2204 2501
3 2230 1533 2340
3 1774 1773 2503
3 1997 2325 2349
3 1004 2069 2446
3 2159 31 2445
3 131 2160 2444
3 1371 2191 2451
3 1001 2154 2486
3 1682 2230 2340
3 2103 961 2383
3 1033 1151 2410
3 382 2390 2531
3 1504 2079 2520
3 1583 2278 2321
3 511 465 2429
3 250 2024 2479
3 2208 2088 2509
3 619 620 2484
3 1246 2208 2366
3 2141 1209 2319
3 1359 1413 2467
3 1295 1459 2458
3 2218 1435 2465
3 2281 1249 2511
3 2293 237 2354
3 2207 1398 2499
3 1564 2155 2422
3 552 469 2453
3 1947 224 2498
3 2062 1568 2490
3 2018 205 2416
3 260 2159 2445
3 2160 261 2444
3 2092 610 2468
3 194 2195 2432
3 1432 2213 2311
3 211 2251 2464
3 2378 856 2527
3 1536 1532 2534
3 2364 786 2497
3 2438 1438 2478
3 1185 1948 2488
3 2042 941 2418
3 1582 2321 2434
3 885 1891 2469
3 1364 2048 2455
3 1693 2225 2518
3 401 382 2531
3 1338 2247 2464
3 442 2238 2520
3 1292 2117 2428
3 2274 1350 2500
3 2066 2193 2425
3 2179 1184 2435
3 898 822 2368
3 2436 1863 2527
3 1844 1016 2478
3 2184 1001 2486
3 557 2207 2499
3 2013 211 2464
3 2254 250 2479
3 1350 1181 2500
3 2009 248 2470
3 246 2140 2506
3 1574 2436 2527
3 2139 1419 2517
3 316 1971 2514
3 1319 2122 2482
3 226 2006 2507
3 1400 2270 2481
3 1681 2287 2448
3 2325 1578 2349
3 232 1652 2487
3 1320 2214 2424
3 1632 2208 2509
3 248 2288 2470
3 1406 1141 2460
3 2188 1322 2434
3 2244 1980 2441
3 2088 1255 2509
3 1280 2109 2427
3 2060 2307 2405
3 2236 1034 2463
3 1745 2293 2354
3 2122 2396 2482
3 2109 1030 2427
3 2307 1563 2405
3 1429 2382 2459
3 224 2267 2498
3 682 2211 2447
3 2079 442 2520
3 2348 1287 2398
3 2220 1842 2472
3 1335 2249 2466
3 1249 2263 2511
3 443 2210 2519
3 2385 1373 2394
3 1594 2184 2486
3 2052 2239 2518
3 1568 2439 2490
3 2349 1578 2515
3 2344 468 2412
3 2270 1996 2481
3 1735 2244 2441
3 2260 1471 2477
3 2210 1504 2519
3 1434 2297 2450
3 2297 1419 2450
3 2263 1660 2502
3 2404 2009 2470
3 1718 2385 2394
3 1371 2194 2536
3 2317 444 2461
3 1443 2322 2525
3 1716 2375 2452
3 1863 2378 2527
3 2439 726 2490
3 1057 2328 2451
3 1638 2404 2470
3 1454 2234 2535
3 755 2320 2513
3 2234 1653 2535
3 2264 552 2533
3 1419 2297 2517
3 1392 2322 2510
3 552 2397 2533
3 1798 2364 2497
3 2322 1392 2525
3 2382 1631 2459
3 1016 2438 2478
3 1366 2370 2537
3 1742 2491 2530
3 2491 257 2530
CELL_TYPES 4886
5
5
5
5
5
5
5
5
5
5
5
5
5
5
5
5
5
5
5
5
5
5
5
5
5
5
5
5
5
5
5
5
5
5
5
5
5
5
5
5
5
5
5
5
5
5
5
5
5
5
5
5
5
5
5
5
5
5
5
5
5
5
5
5
5
5
5
5
5
5
5
5
5
5
5
5
5
5
5
5
5
5
5
5
5
5
5
5
5
5
5
5
5
5
5
5
5
5
5
5
5
5
5
5
5
5
5
5
5
5
5
5
5
5
5
5
5
5
5
5
5
5
5
5
5
5
5
5
5
5
5
5
5
5
5
5
5
5
5
5
5
5
5
5
5
5
5
5
5
5
5
5
5
5
5
5
5
5
5
5
5
5
5
5
5
5
5
5
5
5
5
5
5
5
5
5
5
5
5
5
5
5
5
5
5
5
5
5
5
5
5
5
5
5
5
5
5
5
5
5
5
5
5
5
5
5
5
5
5
5
5
5
5
5
5
5
5
5
5
5
5
5
5
5
5
5
5
5
5
5
5
5
5
5
5
5
5
5
5
5
5
5
5
5
5
5
5
5
5
5
5
5
5
5
5
5
5
5
5
5
5
5
5
5
5
5
5
5
5
5
5
5
5
5
5
5
5
5
5
5
5
5
5
5
5
5
5
5
5
5
5
5
5
5
5
5
5
5
5
5
5
5
5
5
5
5
5
5
5
5
5
5
5
5
5
5
5
5
5
5
5
5
5
5
5
5
5
5
5
5
5
5
5
5
5
5
5
5
5
5
5
5
5
5
5
5
5
5
5
5
5
5
5
5
5
5
5
5
5
5
5
5
5
5
5
5
5
5
5
5
5
5
5
5
5
5
5
5
5
5
5
5
5
5
5
5
5
5
5
5
5
5
5
5
5
5
5
5
5
5
5
5
5
5
5
5
5
5
5
5
5
5
5
5
5
5
5
5
5
5
5
5
5
5
5
5
5
5
5
5
5
5
5
5
5
5
5
5
5
5
5
5
5
5
5
5
5
5
5
5
5
5
5
5
5
5
5
5
5
5
5
5
5
5
5
5
5
5
5
5
5
5
5
5
5
5
5
5
5
5
5
5
5
5
5
5
5
5
5
5
5
5
5
5
5
5
5
5
5
5
5
5
5
5
5
5
5
5
5
5
5
5
5
5
5
5
5
5
5
5
5
5
5
5
5
5
5
5
5
5
5
5
5
5
5
5
5
5
5
5
5
5
5
5
5
5
5
5
5
5
5
5
5
5
5
5
5
5
5
5
5
5
5
5
5
5
5
5
5
5
5
5
5
5
5
5
5
5
5
5
5
5
5
5
5
5
5
5
5
5
5
5
5
5
5
5
5
5
5
5
5
5
5
5
5
5
5
5
5
5
5
5
5
5
5
5
5
5
5
5
5
5
5
5
5
5
5
5
5
5
5
5
5
5
5
5
5
5
5
5
5
5
5
5
5
5
5
5
5
5
5
5
5
5
5
5
5
5
5
5
5
5
5
5
5
5
5
5
5
5
5
5
5
5
5
5
5
5
5
5
5
5
5
5
5
5
5
5
5
5
5
5
5
5
5
5
5
5
5
5
5
5
5
5
5
5
5
5
5
5
5
5
5
5
5
5
5
5
5
5
5
5
5
5
5
5
5
5
5
5
5
5
5
5
5
5
5
5
5
5
5
5
5
5
5
5
5
5
5
5
5
5
5
5
5
5
5
5
5
5
5
5
5
5
5
5
5
5
5
5
5
5
5
5
5
5
5
5
5
5
5
5
5
5
5
5
5
5
5
5
5
5
5
5
5
5
5
5
5
5
5
5
5
5
5
5
5
5
5
5
5
5
5
5
5
5
5
5
5
5
5
5
5
5
5
5
5
5
5
5
5
5
5
5
5
5
5
5
5
5
5
5
5
5
5
5
5
5
5
5
5
5
5
5
5
5
5
5
5
5
5
5
5
5
5
5
5
5
5
5
5
5
5
5
5
5
5
5
5
5
5
5
5
5
5
5
5
5
5
5
5
5
5
5
5
5
5
5
5
5
5
5
5
5
5
5
5
5
5
5
5
5
5
5
5
5
5
5
5
5
5
5
5
5
5
5
5
5
5
5
5
5
5
5
5
5
5
5
5
5
5
5
5
5
5
5
5
5
5
5
5
5
5
5
5
5
5
5
5
5
5
5
5
5
5
5
5
5
5
5
5
5
5
5
5
5
5
5
5
5
5
5
5
5
5
5
5
5
5
5
5
5
5
5
5
5
5
5
5
5
5
5
5
5
5
5
5
5
5
5
5
5
5
5
5
5
5
5
5
5
5
5
5
5
5
5
5
5
5
5
5
5
5
5
5
5
5
5
5
5
5
5
5
5
5
5
5
5
5
5
5
5
5
5
5
5
5
5
5
5
5
5
5
5
5
5
5
5
5
5
5
5
5
5
5
5
5
5
5
5
5
5
5
5
5
5
5
5
5
5
5
5
5
5
5
5
5
5
5
5
5
5
5
5
5
5
5
5
5
5
5
5
5
5
5
5
5
5
5
5
5
5
5
5
5
5
5
5
5
5
5
5
5
5
5
5
5
5
5
5
5
5
5
5
5
5
5
5
5
5
5
5
5
5
5
5
5
5
5
5
5
5
5
5
5
5
5
5
5
5
5
5
5
5
5
5
5
5
5
5
5
5
5
5
5
5
5
5
5
5
5
5
5
5
5
5
5
5
5
5
5
5
5
5
5
5
5
5
5
5
5
5
5
5
5
5
5
5
5
5
5
5
5
5
5
5
5
5
5
5
5
5
5
5
5
5
5
5
5
5
5
5
5
5
5
5
5
5
5
5
5
5
5
5
5
5
5
5
5
5
5
5
5
5
5
5
5
5
5
5
5
5
5
5
5
5
5
5
5
5
5
5
5
5
5
5
5
5
5
5
5
5
5
5
5
5
5
5
5
5
5
5
5
5
5
5
5
5
5
5
5
5
5
5
5
5
5
5
5
5
5
5
5
5
5
5
5
5
5
5
5
5
5
5
5
5
5
5
5
5
5
5
5
5
5
5
5
5
5
5
5
5
5
5
5
5
5
5
5
5
5
5
5
5
5
5
5
5
5
5
5
5
5
5
5
5
5
5
5
5
5
5
5
5
5
5
5
5
5
5
5
5
5
5
5
5
5
5
5
5
5
5
5
5
5
5
5
5
5
5
5
5
5
5
5
5
5
5
5
5
5
5
5
5
5
5
5
5
5
5
5
5
5
5
5
5
5
5
5
5
5
5
5
5
5
5
5
5
5
5
5
5
5
5
5
5
5
5
5
5
5
5
5
5
5
5
5
5
5
5
5
5
5
5
5
5
5
5
5
5
5
5
5
5
5
5
5
5
5
5
5
5
5
5
5
5
5
5
5
5
5
5
5
5
5
5
5
5
5
5
5
5
5
5
5
5
5
5
5
5
5
5
5
5
5
5
5
5
5
5
5
5
5
5
5
5
5
5
5
5
5
5
5
5
5
5
5
5
5
5
5
5
5
5
5
5
5
5
5
5
5
5
5
5
5
5
5
5
5
5
5
5
5
5
5
5
5
5
5
5
5
5
5
5
5
5
5
5
5
5
5
5
5
5
5
5
5
5
5
5
5
5
5
5
5
5
5
5
5
5
5
5
5
5
5
5
5
5
5
5
5
5
5
5
5
5
5
5
5
5
5
5
5
5
5
5
5
5
5
5
5
5
5
5
5
5
5
5
5
5
5
5
5
5
5
5
5
5
5
5
5
5
5
5
5
5
5
5
5
5
5
5
5
5
5
5
5
5
5
5
5
5
5
5
5
5
5
5
5
5
5
5
5
5
5
5
5
5
5
5
5
5
5
5
5
5
5
5
5
5
5
5
5
5
5
5
5
5
5
5
5
5
5
5
5
5
5
5
5
5
5
5
5
5
5
5
5
5
5
5
5
5
5
5
5
5
5
5
5
5
5
5
5
5
5
5
5
5
5
5
5
5
5
5
5
5
5
5
5
5
5
5
5
5
5
5
5
5
5
5
5
5
5
5
5
5
5
5
5
5
5
5
5
5
5
5
5
5
5
5
5
5
5
5
5
5
5
5
5
5
5
5
5
5
5
5
5
5
5
5
5
5
5
5
5
5
5
5
5
5
5
5
5
5
5
5
5
5
5
5
5
5
5
5
5
5
5
5
5
5
5
5
5
5
5
5
5
5
5
5
5
5
5
5
5
5
5
5
5
5
5
5
5
5
5
5
5
5
5
5
5
5
5
5
5
5
5
5
5
5
5
5
5
5
5
5
5
5
5
5
5
5
5
5
5
5
5
5
5
5
5
5
5
5
5
5
5
5
5
5
5
5
5
5
5
5
5
5
5
5
5
5
5
5
5
5
5
5
5
5
5
5
5
5
5
5
5
5
5
5
5
5
5
5
5
5
5
5
5
5
5
5
5
5
5
5
5
5
5
5
5
5
5
5
5
5
5
5
5
5
5
5
5
5
5
5
5
5
5
5
5
5
5
5
5
5
5
5
5
5
5
5
5
5
5
5
5
5
5
5
5
5
5
5
5
5
5
5
5
5
5
5
5
5
5
5
5
5
5
5
5
5
5
5
5
5
5
5
5
5
5
5
5
5
5
5
5
5
5
5
5
5
5
5
5
5
5
5
5
5
5
5
5
5
5
5
5
5
5
5
5
5
5
5
5
5
5
5
5
5
5
5
5
5
5
5
5
5
5
5
5
5
5
5
5
5
5
5
5
5
5
5
5
5
5
5
5
5
5
5
5
5
5
5
5
5
5
5
5
5
5
5
5
5
5
5
5
5
5
5
5
5
5
5
5
5
5
5
5
5
5
5
5
5
5
5
5
5
5
5
5
5
5
5
5
5
5
5
5
5
5
5
5
5
5
5
5
5
5
5
5
5
5
5
5
5
5
5
5
5
5
5
5
5
5
5
5
5
5
5
5
5
5
5
5
5
5
5
5
5
5
5
5
5
5
5
5
5
5
5
5
5
5
5
5
5
5
5
5
5
5
5
5
5
5
5
5
5
5
5
5
5
5
5
5
5
5
5
5
5
5
5
5
5
5
5
5
5
5
5
5
5
5
5
5
5
5
5
5
5
5
5
5
5
5
5
5
5
5
5
5
5
5
5
5
5
5
5
5
5
5
5
5
5
5
5
5
5
5
5
5
5
5
5
5
5
5
5
5
5
5
5
5
5
5
5
5
5
5
5
5
5
5
5
5
5
5
5
5
5
5
5
5
5
5
5
5
5
5
5
5
5
5
5
5
5
5
5
5
5
5
5
5
5
5
5
5
5
5
5
5
5
5
5
5
5
5
5
5
5
5
5
5
5
5
5
5
5
5
5
5
5
5
5
5
5
5
5
5
5
5
5
5
5
5
5
5
5
5
5
5
5
5
5
5
5
5
5
5
5
5
5
5
5
5
5
5
5
5
5
5
5
5
5
5
5
5
5
5
5
5
5
5
5
5
5
5
5
5
5
5
5
5
5
5
5
5
5
5
5
5
5
5
5
5
5
5
5
5
5
5
5
5
5
5
5
5
5
5
5
5
5
5
5
5
5
5
5
5
5
5
5
5
5
5
5
5
5
5
5
5
5
5
5
5
5
5
5
5
5
5
5
5
5
5
5
5
5
5
5
5
5
5
5
5
5
5
5
5
5
5
5
5
5
5
5
5
5
5
5
5
5
5
5
5
5
5
5
5
5
5
5
5
5
5
5
5
5
5
5
5
5
5
5
5
5
5
5
5
5
5
5
5
5
5
5
5
5
5
5
5
5
5
5
5
5
5
5
5
5
5
5
5
5
5
5
5
5
5
5
5
5
5
5
5
5
5
5
5
5
5
5
5
5
5
5
5
5
5
5
5
5
5
5
5
5
5
5
5
5
5
5
5
5
5
5
5
5
5
5
5
5
5
5
5
5
5
5
5
5
5
5
5
5
5
5
5
5
5
5
5
5
5
5
5
5
5
5
5
5
5
5
5
5
5
5
5
5
5
5
5
5
5
5
5
5
5
5
5
5
5
5
5
5
5
5
5
5
5
5
5
5
5
5
5
5
5
5
5
5
5
5
5
5
5
5
5
5
5
5
5
5
5
5
5
5
5
5
5
5
5
5
5
5
5
5
5
5
5
5
5
5
5
5
5
5
5
5
5
5
5
5
5
5
5
5
5
5
5
5
5
5
5
5
5
5
5
5
5
5
5
5
5
5
5
5
5
5
5
5
5
5
5
5
5
5
5
5
5
5
5
5
5
5
5
5
5
5
5
5
5
5
5
5
5
5
5
5
5
5
5
5
5
5
5
5
5
5
5
5
5
5
5
5
5
5
5
5
5
5
5
5
5
5
5
5
5
5
5
5
5
5
5
5
5
5
5
5
5
5
5
5
5
5
5
5
5
5
5
5
5
5
5
5
5
5
5
5
5
5
5
5
5
5
5
5
5
5
5
5
5
5
5
5
5
5
5
5
5
5
5
5
5
5
5
5
5
5
5
5
5
5
5
5
5
5
5
5
5
5
5
5
5
5
5
5
5
5
5
5
5
5
5
5
5
5
5
5
5
5
5
5
5
5
5
5
5
5
5
5
5
5
5
5
5
5
5
5
5
5
5
5
5
5
5
5
5
5
5
5
5
5
5
5
5
5
5
5
5
5
5
5
5
5
5
5
5
5
5
5
5
5
5
5
5
5
5
5
5
5
5
5
5
5
5
5
5
5
5
5
5
5
5
5
5
5
5
5
5
5
5
5
5
5
5
5
5
5
5
5
5
5
5
5
5
5
5
5
5
5
5
5
5
5
5
5
5
5
5
5
5
5
5
5
5
5
5
5
5
5
5
5
5
5
5
5
5
5
5
5
5
5
5
5
5
5
5
5
5
5
5
5
5
5
5
5
5
5
5
5
5
5
5
5
5
5
5
5
5
5
5
5
5
5
5
5
5
5
5
5
5
5
5
5
5
5
5
5
5
5
5
5
5
5
5
5
5
5
5
5
5
5
5
5
5
5
5
5
5
5
5
5
5
5
5
5
5
5
5
5
5
5
5
5
5
5
5
5
5
5
5
5
5
5
5
5
5
5
5
5
5
5
5
5
5
5
5
5
5
5
5
5
5
5
5
5
5
5
5
5
5
5
5
5
5
5
5
5
5
5
5
5
5
5
5
5
5
5
5
5
5
5
5
5
5
5
5
5
5
5
5
5
5
5
5
5
5
5
5
5
5
5
5
5
5
5
5
5
5
5
5
5
5
5
5
5
5
5
5
5
5
5
5
5
5
5
5
5
5
5
5
5
5
5
5
5
5
5
5
5
5
5
5
5
5
5
5
5
5
5
5
5
5
5
5
5
5
5
5
5
5
5
5
5
5
5
5
5
5
5
5
5
5
5
5
5
5
5
5
5
5
5
5
5
5
5
5
5
5
5
5
5
5
5
5
5
5
5
5
5
5
5
5
5
5
5
5
5
5
5
5
5
5
5
5
5
5
5
5
5
5
5
5
5
5
5
5
5
5
5
5
5
5
5
5
5
5
5
5
5
5
5
5
5
5
5
5
5
5
5
5
5
5
5
5
5
5
5
5
5
5
5
5
5
5
5
5
5
5
5
5
5
5
5
5
5
5
5
5
5
5
5
5
5
5
5
5
5
5
5
5
5
5
5
5
5
5
5
5
5
5
5
5
5
5
5
5
5
5
5
5
5
5
5
5
5
5
5
5
5
5
5
5
5
5
5
5
5
5
5
5
5
5
5
5
5
5
5
5
5
5
5
5
5
5
5
5
5
5
5
5
5
5
5
5
5
5
5
5
5
5
5
5
5
5
5
5
5
5
5
5
5
5
5
5
5
5
5
5
5
5
5
5
5
5
5
5
5
5
5
5
5
5
5
5
5
5
5
5
5
5
5
5
5
5
5
5
5
5
5
5
5
5
5
5
5
5
5
5
5
5
5
5
5
5
5
5
5
5
5
5
5
5
5
5
5
5
5
5
5
5
5
5
5
5
5
5
5
5
5
5
5
5
5
5
5
5
5
5
5
5
5
5
5
5
5
5
5
5
5
5
5
5
5
5
5
5
5
5
5
5
5
5
5
5
5
5
5
5
5
5
5
5
5
5
5
5
5
5
5
5
5
5
5
5
5
5
5
5
5
5
5
5
5
5
5
5
5
5
5
5
5
5
5
5
5
5
5
5
5
5
5
5
5
5
5
5
5
5
5
5
5
5
5
5
5
5
5
5
5
5
5
5
5
5
5
5
5
5
5
5
5
5
5
5
5
5
5
5
5
5
5
5
5
5
5
5
5
5
5
5
5
5
5
5
5
5
5
5
5
5
5
5
5
5
5
5
5
5
5
5
5
5
5
5
5
5
5
5
5
5
5
5
5
5
5
5
5
5
5
5
5
5
5
5
5
5
5
5
5
5
5
5
5
5
5
5
5
5
5
5
5
5
5
5
5
5
5
5
5
5
5
5
5
5
5
5
5
5
5
5
5
5
5
5
5
5
5
5
5
5
5
5
5
5
5
5
5
5
5
5
5
5
5
5
5
5
5
5
5
5
5
5
5
5
5
5
5
5
5
5
5
5
5
5
5
5
5
5
5
5
5
5
5
5
5
5
5
5
5
5
5
5
5
5
5
5
5
5
5
5
5
5
5
5
5
5
5
5
5
5
5
5
5
5
5
5
5
5
5
5
5
5
5
5
5
5
5
5
5
5
5
5
5
5
5
5
5
5
5
5
5
5
5
5
5
5
5
5
5
5
5
5
5
5
5
5
5
5
5
5
5
5
5
5
5
5
5
5
5
5
5
5
5
5
5
5
5
5
5
5
5
5
5
5
5
5
5
5
5
5
5
5
5
5
5
5
5
5
5
5
5
5
5
5
5
5
5
5
5
5
5
5
5
5
5
5
5
5
5
5
5
5
5
5
5
5
5
5
5
5
5
5
5
5
5
5
5
5
5
5
5
5
5
5
5
5
5
5
5
5
5
5
5
5
5
5
5
5
5
5
5
5
5
5
5
5
5
5
5
5
5
5
5
5
5
5
5
5
5
5
5
5
5
5
5
5
5
5
5
5
5
5
5
5
5
5
5
5
5
5
5
5
5
5
5
5
5
5
5
5
5
5
5
5
5
5
5
5
5
5
5
5
5
5
5
5
5
5
5
5
5
5
5
5
5
5
5
5
5
5
5
5
5
5
5
5
5
5
5
5
5
5
5
5
5
5
5
5
5
5
5
5
5
5
5
5
5
5
5
5
5
5
5
5
5
5
5
5
5
5
5
5
5
5
5
5
5
5
5
5
5
5
5
5
5
5
5
5
5
5
5
5
5
5
5
5
5
5
5
5
5
5
5
5
5
5
5
5
5
5
5
5
5
5
5
5
5
5
5
5
5
5
5
5
5
5
5
5
5
5
5
5
5
5
5
5
5
5
5
5
5
5
5
5
5
5
5
5
5
5
5
5
5
5
5
5
5
5
5
5
5
5
5
5
5
5
5
5
5
5
5
5
5
5
5
5
5
5
5
5
5
5
5
5
5
5
5
5
5
5
5
5
5
5
5
5
5
5
5
5
5
5
5
5
5
5
5
5
5
5
5
5
5
5
5
5
5
5
5
5
5
5
5
5
5
5
5
5
5
5
5
5
5
5
5
5
5
5
5
5
5
5
5
5
5
5
5
5
5
5
5
5
5
5
5
5
5
5
5
5
5
5
5
5
5
5
5
5
5
5
5
5
5
5
5
5
5
5
5
5
5
5
5
5
5
5
5
5
5
5
5
5
5
5
5
5
5
5
5
5
5
5
5
5
5
5
5
5
5
5
5
5
5
5
5
5
5
5
5
5
5
5
5
5
5
5
5
5
5
5
5
5
5
5
5
5
5
5
5
5
5
5
5
5
5
5
5
5
5
5
5
5
5
5
5
5
5
5
5
5
5
5
5
5
5
5
5
5
5
5
5
5
5
5
5
5
5
5
5
5
5
5
5
5
5
5
5
5
5
5
5
5
5
5
5
5
5
5
5
5
5
5
5
5
5
5
5
5
5
5
5
5
5
5
5
5
5
5
5
5
5
5
5
5
5
5
5
5
5
5
5
5
5
5
5
5
5
5
5
5
5
5
5
5
5
5
5
5
5
5
5
5
5
5
5
5
5
5
5
5
5
5
5
5
5
5
5
5
5
5
5
5
5
5
5
5
5
5
5
5
5
5
5
5
5
5
5
5
5
5
5
5
5
5
5
5
5
5
5
5
5
5
5
5
5
5
5
5
5
5
5
5
5
5
5
5
5
5
5
5
5
5
5
5
5
5
5
5
5
5
5
5
5
5
5
5
5
5
5
5
5
5
5
5
5
5
5
5
5
5
5
5
5
5
5
5
5
5
5
5
5
5
5
5
5
5
5
5
5
5
5
5
5
5
5
5
5
5
5
5
5
5
5
5
5
5
5
5
5
5
5
5
5
5
5
5
5
5
5
5
5
5
5
5
5
5
5
5
5
5
5
5
5
5
5
5
5
5
5
5
5
5
5
5
5
5
5
5
5
5
5
5
5
5
5
5
5
5
5
5
5
5
5
5
5
5
5
5
5
5
5
5
5
5
5
5
5
5
5
5
5
5
5
5
5
5
5
5
5
5
5
5
5
5
5
5
5
5
5
5
5
5
5
5
5
5
5
5
5
5
5
5
5
5
5
5
5
5
5
5
5
5
5
5
5
5
5
5
5
5
5
5
5
5
5
5
5
5
5
5
5
5
5
5
5
5
5
5
5
5
5
5
5
5
5
5
5
5
5
5
5
5
5
5
5
5
5
5
5
5
5
5
5
5
5
5
5
5
5
5
5
5
5
5
5
5
5
5
5
5
5
5
5
5
5
5
5
5
5
5
5
5
5
5
5
5
5
5
5
5
5
5
5
5
5
5
5
5
5
5
5
5
5
5
5
5
5
5
5
5
5
5
5
5
5
5
5
5
5
5
5
5
5
5
5
5
5
5
5
5
5
5
5
5
5
5
5
5
5
5
5
5
5
5
5
POINT_DATA 2538
VECTORS disp float
9.31797527048249e-12 1.0705225883688077e-11 0.0
4.6354179468959946e-14 -4.148679525464252e-12 0.0
0.0008000000000362871 1.2281084369815912e-12 0.0
0.000799999979594252 -2.966063588979881e-11 0.0
0.0004115995850475007 0.0002233020308628382 0.0
0.0006117603416290837 4.27886268537047e-6 0.0
0.0004995698310252099 -5.150770047569438e-5 0.0
-2.1391255288132867e-12 -2.7523205545131407e-12 0.0
6.646101072230144e-13 7.743655729191408e-13 0.0
2.0027868806109284e-13 -9.223062677339585e-13 0.0
1.0827793483382938e-13 -6.518247683798519e-13 0.0
-2.4567432558641337e-14 -8.969281882977821e-13 0.0
6.387271089040698e-14 -1.0505419917658448e-12 0.0
5.3150289861505375e-14 -1.0809164118861186e-12 0.0
8.088284032184838e-14 -1.189934249039506e-12 0.0
7.470254692680387e-14 -1.2513480068649536e-12 0.0
9.525297351558693e-14 -1.2622409046770821e-12 0.0
8.805042417618633e-14 -1.275942924863911e-12 0.0
9.187772670842991e-14 -1.2765870395900544e-12 0.0
8.65333728176276e-14 -1.291372636596633e-12 0.0
9.04911391556955e-14 -1.2730325333773921e-12 0.0
8.662872280203825e-14 -1.3178354217789986e-12 0.0
1.1436620312260042e-13 -1.2655466795651701e-12 0.0
1.2233259836989036e-13 -1.2959711746739047e-12 0.0
9.784568981120602e-14 -1.32793600075691e-12 0.0
1.1835324315417247e-13 -1.3370727243883248e-12 0.0
1.0481945697040153e-13 -1.389922881786411e-12 0.0
9.120960932598932e-14 -1.436592807943574e-12 0.0
1.0562177557472934e-13 -1.4829109381625108e-12 0.0
1.245188473843075e-13 -1.4735798362733452e-12 0.0
1.5891615094702153e-13 -1.6238114171866187e-12 0.0
2.1228440991935744e-13 -1.2148085381219075e-12 0.0
6.714211252657258e-6 -2.7981900119407275e-6 0.0
1.4288377280047342e-5 -5.1547509233622406e-6 0.0
2.1911164417524992e-5 -7.33396593195786e-6 0.0
2.9533637016970508e-5 -9.3512423053415e-6 0.0
3.715126629112528e-5 -1.1279537240293588e-5 0.0
4.4797723831211086e-5 -1.3154749221292704e-5 0.0
5.265714292073595e-5 -1.4965904201292748e-5 0.0
6.036616285484819e-5 -1.67605232804492e-5 0.0
6.778975183089566e-5 -1.8518826780026103e-5 0.0
7.487960717706697e-5 -2.0217373571298536e-5 0.0
8.163917413900601e-5 -2.192132491674187e-5 0.0
8.797235816332866e-5 -2.3599409871464885e-5 0.0
9.39445303094285e-5 -2.521901303337432e-5 0.0
9.975102463967625e-5 -2.6823088260038503e-5 0.0
0.00010535140910099386 -2.8476386901055634e-5 0.0
0.00011065914156472146 -3.0172949566265257e-5 0.0
0.00011599125418104386 -3.1838694776202386e-5 0.0
0.00012146180368896661 -3.3413826155149635e-5 0.0
0.00012717558839974 -3.491161444019381e-5 0.0
0.0001332530147924377 -3.632866502451382e-5 0.0
0.00013971308379501476 -3.768989645625761e-5 0.0
0.00014633047055437933 -3.9013600516212495e-5 0.0
0.0001534003260059348 -4.033129636358962e-5 0.0
0.00016058413266972072 -4.1630461365150314e-5 0.0
0.00016826742406068294 -4.291460970281211e-5 0.0
0.0001760009510219741 -4.417511050677253e-5 0.0
0.00018400731029021637 -4.540285600055093e-5 0.0
0.0001922032511968022 -4.655488370365404e-5 0.0
0.00020082074471674006 -4.775706987910949e-5 0.0
0.0002092411210352021 -4.897832611702045e-5 0.0
0.0002178721016881529 -5.019407391306546e-5 0.0
0.0002265266980856849 -5.131254621285188e-5 0.0
0.00023517807969577093 -5.238315662400402e-5 0.0
0.00024375785341950004 -5.337802343722669e-5 0.0
0.00025248524245735903 -5.4309185672346216e-5 0.0
0.0002618294008979538 -5.5007030948782115e-5 0.0
0.0002728877843022639 -5.545093902963786e-5 0.0
0.00028742142097456787 -5.5851442083873955e-5 0.0
0.0003041066858270181 -5.6162353548480784e-5 0.0
0.00031831886066912386 -5.623578307460339e-5 0.0
0.00032914104311923157 -5.654547175951382e-5 0.0
0.0003375950667149585 -5.700340512845313e-5 0.0
0.00034599988943869136 -5.68776523676694e-5 0.0
0.00035311282108791743 -5.713886453461449e-5 0.0
0.00035942701760252084 -5.781501788071537e-5 0.0
0.00036596031797256725 -5.856947978474666e-5 0.0
0.0003722142199303538 -5.9544344813376044e-5 0.0
0.0003776776204233285 -6.042148576320481e-5 0.0
0.00038286050320680435 -6.191879472923653e-5 0.0
0.000388041631878606 -6.347491639044601e-5 0.0
0.0003930720866949058 -6.506939146442504e-5 0.0
0.0003981616158138047 -6.665838978824172e-5 0.0
0.0004032121556761568 -6.823316693325144e-5 0.0
0.00040837753239655953 -6.999340447229491e-5 0.0
0.0004130839837447937 -7.138049428491248e-5 0.0
0.00041955828213261653 -7.247711244128404e-5 0.0
0.00042668664738235656 -7.326958685982822e-5 0.0
0.00043431541283509446 -7.419637417723121e-5 0.0
0.00044183876158034675 -7.520083794530544e-5 0.0
0.0004491157912538358 -7.62158552527877e-5 0.0
0.0004565761195092916 -7.734155747816117e-5 0.0
0.0004644023023824348 -7.824608023236624e-5 0.0
0.0004723294678996494 -7.88654045452164e-5 0.0
0.0004796464769372452 -7.945742721960698e-5 0.0
0.0004869526619138116 -8.008769366018445e-5 0.0
0.0004941687627702855 -8.064981447827052e-5 0.0
0.0005011208540514558 -8.120243969270213e-5 0.0
0.0005079778771857262 -8.179434367292764e-5 0.0
0.0005149949283556939 -8.23245721727059e-5 0.0
0.0005221353946381074 -8.294181616323844e-5 0.0
0.0005292959332175006 -8.361257554303453e-5 0.0
0.0005367737213797253 -8.44195741649316e-5 0.0
0.0005443089072605932 -8.541244317489887e-5 0.0
0.0005516917659735144 -8.606365382788237e-5 0.0
0.0005596483262189297 -8.665118690387834e-5 0.0
0.0005673612484964495 -8.740418615014327e-5 0.0
0.0005758244110021379 -8.792492492581773e-5 0.0
0.0005846624322968487 -8.842683821000172e-5 0.0
0.0005937996571258456 -8.857361287585593e-5 0.0
0.0006029362950382106 -8.824780714965152e-5 0.0
0.0006122467391536504 -8.76962456737568e-5 0.0
0.0006211970744656628 -8.671583550271576e-5 0.0
0.0006295548896712226 -8.59898779157912e-5 0.0
0.0006378861553870958 -8.545899991913014e-5 0.0
0.0006454884491350854 -8.501041079599416e-5 0.0
0.0006526292749089907 -8.470297248722038e-5 0.0
0.00065974614559735 -8.436599718297688e-5 0.0
0.0006663071653143027 -8.403071886769586e-5 0.0
0.0006726409111871748 -8.378112007573319e-5 0.0
0.0006796239345421052 -8.334014628469394e-5 0.0
0.0006872689290247984 -8.23279044269694e-5 0.0
0.0006944547566420576 -8.054968275015613e-5 0.0
0.0007017927693412993 -7.814039289432717e-5 0.0
0.000709273122009328 -7.507627332503295e-5 0.0
0.0007180236144845325 -7.11706718569951e-5 0.0
0.0007268704750752454 -6.546215245906479e-5 0.0
0.0007347392904803688 -5.656517809496384e-5 0.0
0.000747901497824016 -4.60178435503043e-5 0.0
0.0007623878133901703 -3.087036637386292e-5 0.0
0.0008000000027196062 2.9161801357634303e-12 0.0
0.0007999999979026357 -2.5268064480990874e-12 0.0
0.0007999999998900326 7.845329720183084e-13 0.0
0.0007999999992911995 2.6684144425745574e-13 0.0
0.0007999999997355278 6.40245974184394e-13 0.0
0.0007999999996390868 7.893800580532898e-13 0.0
0.0007999999997315575 8.166618021554216e-13 0.0
0.0007999999997155636 8.47711033101697e-13 0.0
0.0007999999996856555 8.657670652148583e-13 0.0
0.0007999999996883514 8.354369723379443e-13 0.0
0.0007999999996788848 8.618684177418362e-13 0.0
0.0007999999996889785 8.773153854403966e-13 0.0
0.0007999999996852222 9.121847590366826e-13 0.0
0.0007999999996836035 9.242361678973667e-13 0.0
0.0007999999996776642 9.241614276545411e-13 0.0
0.0007999999996584474 8.883509506040601e-13 0.0
0.0007999999996172387 8.318736269586438e-13 0.0
0.000799999999619158 7.199897164885523e-13 0.0
0.0007999999995295867 7.111375338045001e-13 0.0
0.000799999999668217 6.569391910817659e-13 0.0
0.0007999999996565205 6.493186230605031e-13 0.0
0.0007999999996262454 6.16454052902868e-13 0.0
0.0007999999997643589 5.652503552428472e-13 0.0
0.0007999999998477589 7.830718795012153e-13 0.0
0.0007999999999206468 5.925253854643437e-13 0.0
0.0007500088879751549 1.252910821715649e-5 0.0
0.0007134897885150813 1.5925391820346548e-5 0.0
0.0006755960878982182 1.2382976398235872e-5 0.0
0.0006399312932202299 7.006479155662835e-6 0.0
0.0006083154009394561 -2.6247708311184815e-5 0.0
0.0006057744070282418 -4.637445191929187e-5 0.0
0.0006042152414406745 -6.564365004818128e-5 0.0
0.0006005237323177044 -7.946100274130026e-5 0.0
0.0005953602507194821 -8.984664692183731e-5 0.0
0.000588267303385291 -9.832271785424004e-5 0.0
0.0005806026162070122 -0.00010407490482184637 0.0
0.0005712266121067624 -0.00010841630574216554 0.0
0.0005633661659677926 -0.00011247337159000863 0.0
0.000555482289467497 -0.0001114332909615801 0.0
0.0005442403353506063 -0.00010370867047399887 0.0
0.0005285050737599648 -8.754159447795081e-5 0.0
0.0004877203688848131 -3.264540866939202e-5 0.0
0.00047897876256363194 -2.0055205179834945e-5 0.0
0.0004711663150634578 -8.842914349413811e-6 0.0
0.00046343708075539627 3.8148018355644105e-6 0.0
0.000455479519969019 1.7119928082524738e-5 0.0
0.0004481184037828964 3.147523981390883e-5 0.0
0.0004404110661174467 4.758195710445668e-5 0.0
0.000432692983005782 6.480146626084095e-5 0.0
0.000425993609277427 8.732780178001305e-5 0.0
0.00041924455971777916 0.00011084061069953778 0.0
0.0004154746112763989 0.0001387501798854295 0.0
0.00040826780132894615 0.00017627819797002387 0.0
0.00037141126661325636 0.00022440443737172376 0.0
0.00031298845811365773 0.00022421728430245403 0.0
0.0002617789128586944 0.00021349540237512057 0.0
0.0002032893718817419 0.00017088092568108847 0.0
0.00020344108673213718 -4.2635562625069026e-5 0.0
0.0005259646355216835 -7.727282737744449e-5 0.0
0.00026605716014764053 -4.944877511099597e-5 0.0
0.00047586643874231106 -7.375355248230471e-5 0.0
0.00034973026431798474 -5.523393274174085e-5 0.0
0.00042178901206000674 -6.752723607831164e-5 0.0
0.0003844611580169254 -6.0276470939964736e-5 0.0
0.0005727857804688644 -8.064167011793651e-5 0.0
0.00015677684697621992 -3.649258487929244e-5 0.0
0.0006162899850719141 -7.915760377780582e-5 0.0
0.00012397205748695004 -2.99039514882501e-5 0.0
1.8435851801706117e-5 -2.8967658470920672e-6 0.0
0.0007715162409222004 6.788233734375702e-7 0.0
0.0004992489484106818 -5.962374685836032e-5 0.0
0.000559360628183694 -0.00010530732435918902 0.0
0.0004654229723625372 -3.7692545008061865e-5 0.0
0.00043401864711434604 1.2824489015681354e-5 0.0
0.0006562883516185341 -7.772869798123532e-5 0.0
9.756182323796449e-5 -2.2661646578555317e-5 0.0
1.2877077130162382e-5 -2.00920453610086e-6 0.0
0.0007802927954807569 3.219942226725944e-7 0.0
0.0007605439317078303 9.987553630944676e-8 0.0
2.311347330694389e-5 -3.646632691932457e-6 0.0
0.0006840687165358753 -7.28676542720477e-5 0.0
7.140766566865212e-5 -1.5071824831324077e-5 0.0
0.0005880244903542445 -8.830354544908648e-5 0.0
0.0004055735194741747 5.7294136046632467e-5 0.0
9.307942629238675e-6 -1.4312468654972177e-6 0.0
0.0007847834983789691 1.3674388669749056e-7 0.0
0.0003241797599524119 -5.34108208127227e-5 0.0
0.00036847136918832145 -5.734989018208528e-5 0.0
0.00045204539057477926 -7.09546711757873e-5 0.0
0.00039979809666244827 -6.425800758906991e-5 0.0
0.0004976985757841679 -7.577118456103246e-5 0.0
0.0005471273008856831 -7.93453255618516e-5 0.0
0.00024042074375702096 -4.739577414163808e-5 0.0
0.0001794658899925859 -4.0242816984137363e-5 0.0
0.000706422796133272 -6.431644565119464e-5 0.0
4.836860982237884e-5 -9.926668739425243e-6 0.0
0.0007581640430850907 -1.3012152050912696e-6 0.0
2.5640138886066136e-5 -2.8709815550041587e-6 0.0
0.0007864365668782219 -1.194628595322366e-6 0.0
7.980498299880228e-6 -1.3872146774778198e-6 0.0
0.000606516407555231 -6.889151014574215e-5 0.0
0.0003931429896812855 9.957941870394786e-5 0.0
0.0007520431264044098 -1.9341343534246988e-6 0.0
3.928471670942299e-5 1.2267327105005225e-6 0.0
1.5507882285154047e-5 -2.4878403698494554e-6 0.0
0.0007758829019408613 4.95974196823045e-7 0.0
0.0005353040085163789 -0.00010012657564425222 0.0
0.00045098497053377756 -1.2589546142048326e-5 0.0
2.5045862017067456e-5 -4.708235079331021e-6 0.0
0.0007375588596010989 -4.407657082306838e-5 0.0
0.0005112471559787316 -7.71548935593987e-5 0.0
0.00040972950351556904 -6.709657192855269e-5 0.0
0.000297617589758636 -5.101848779994649e-5 0.0
0.00022150939143346946 -4.5633862941594126e-5 0.0
0.0004373920289192667 -6.875104550727515e-5 0.0
0.0005891659623558359 -8.074938678842664e-5 0.0
0.00014297238965234584 -3.379547247408573e-5 0.0
0.0006339284492570001 -7.876957965231515e-5 0.0
0.00011238675710718324 -2.67028370107561e-5 0.0
8.461777766920104e-5 -1.8704513814376777e-5 0.0
0.0006696074859437102 -7.601713132715447e-5 0.0
0.0002799374626371886 0.00013671127126736938 0.0
0.0006854769673080632 -7.807864029826043e-6 0.0
0.000784395270741598 -3.145135695017083e-6 0.0
6.280599707968905e-6 -1.099411027123584e-6 0.0
0.0003843996521404067 0.00015499770780235398 0.0
0.0006189866135776354 -3.579164799154643e-5 0.0
5.145274597974137e-5 7.660779545086905e-6 0.0
0.0007616256680812171 6.324042280501612e-7 0.0
9.92881282267947e-6 -1.8039722887126286e-6 0.0
0.0007637448807744731 -1.8992605788329646e-5 0.0
0.0006536991836455269 -1.359362385780596e-5 0.0
0.0006555907474507435 -2.568024057604973e-5 0.0
0.0006901036738508874 -1.3593940774790983e-5 0.0
0.000659054096755364 -2.5565807473807104e-5 0.0
0.0006312763679889115 -4.0453931630885745e-5 0.0
0.0006297748796498772 -3.716790039939076e-5 0.0
0.0006573877231470832 -2.3194514995839094e-5 0.0
0.0006287620189063517 -3.0371953404579278e-5 0.0
0.0006577928828527395 -1.9306526245050382e-5 0.0
0.0006305805622414944 -2.3912300465515736e-5 0.0
0.0006041393486048722 -3.466840360766213e-5 0.0
0.000605538198699665 -2.696268287014369e-5 0.0
0.0005827782523007724 -3.571144675999985e-5 0.0
0.0005837029766718668 -2.843473129156551e-5 0.0
0.0005642261730066649 -3.523281363459074e-5 0.0
0.0005650568826598591 -2.7132437461752543e-5 0.0
0.0004911997282145633 -4.147754709473768e-5 0.0
0.0004879682171130275 -4.157506037905325e-5 0.0
0.00048339241942160066 -3.385047343492082e-5 0.0
0.00047793295656447697 -3.6774213533299214e-5 0.0
0.0004757979779306849 -3.000576402644591e-5 0.0
0.0004697186291371169 -3.243057525918707e-5 0.0
0.0004691656264625193 -2.6633169253475043e-5 0.0
0.0004626695462867378 -2.8910247488339067e-5 0.0
0.00046362524616150796 -2.4352975642229427e-5 0.0
0.00045633127593870746 -2.70021347073058e-5 0.0
0.0004584372762222071 -2.3101285449480254e-5 0.0
0.00045112915547017524 -2.5106595137691247e-5 0.0
0.0004538224054246628 -2.1722360413415173e-5 0.0
0.00044670177139276323 -2.3155259620308366e-5 0.0
0.000449591716070564 -2.0005114399433434e-5 0.0
0.00044244572537852176 -2.1336707459945403e-5 0.0
0.0004457823352123709 -1.868692748776087e-5 0.0
0.0004382692499701979 -2.02222262227499e-5 0.0
0.000442124388625095 -1.771986454595807e-5 0.0
0.00043467745165277243 -1.8883552970615615e-5 0.0
0.0004387365951135588 -1.6580933769406978e-5 0.0
0.00043132661256633164 -1.7710109815626554e-5 0.0
0.00043534219326341815 -1.5676314311977785e-5 0.0
0.0004281045543410806 -1.681012298806361e-5 0.0
0.00043226614585378814 -1.5027332870080045e-5 0.0
0.0004252767484796035 -1.6092270066270123e-5 0.0
0.00042931847440991883 -1.4360669559248551e-5 0.0
0.0004221996827200083 -1.5611317411342327e-5 0.0
0.0004264176199030218 -1.3951539742179732e-5 0.0
0.00041780240060894147 -1.5574125897544143e-5 0.0
0.00042397697856788575 -1.3713313150071828e-5 0.0
0.00041648322621665754 -1.4813654106871991e-5 0.0
0.00042140439640288177 -1.3495032395374793e-5 0.0
0.0004141604639602266 -1.465727702212713e-5 0.0
0.0004189843599957513 -1.3513097640373777e-5 0.0
0.0004121386694405874 -1.4645709114727493e-5 0.0
0.0004166044407601495 -1.3668513911808408e-5 0.0
0.00040989384646437617 -1.478131087640186e-5 0.0
0.00045108329028612057 -3.114516041477727e-5 0.0
0.0004143303013992129 -1.3977592583147874e-5 0.0
0.00042963500952226193 -2.1394838832056e-5 0.0
0.00040954038859486957 -1.6368672367601313e-5 0.0
0.0004073094266353746 -1.5195922516737945e-5 0.0
0.0004121009448524057 -1.4468235120736009e-5 0.0
0.0004047764881844385 -1.5758791483971774e-5 0.0
0.0003999185028426434 -1.638500319935915e-5 0.0
0.00039719491152770484 -1.7005244316954533e-5 0.0
0.0004096065263765863 -1.515007264312186e-5 0.0
0.0004167815304632612 -1.3799713376237864e-5 0.0
0.0004280530497198213 -1.2492844679254618e-5 0.0
0.00041439483311626256 -1.4614263363559205e-5 0.0
0.0004219201652921206 -1.312500337718378e-5 0.0
0.0004192756005257384 -1.414737137786566e-5 0.0
0.0003921571298884632 -1.7543274883842655e-5 0.0
0.00038979154198398136 -1.8125119804800114e-5 0.0
0.0004269780520669098 -1.2562917350780231e-5 0.0
0.0003839982191095702 -1.8624684099940205e-5 0.0
0.0003820624926357805 -1.918787153896042e-5 0.0
0.0004245342421875789 -1.368519990895939e-5 0.0
0.00043190178449701265 -1.216393910875422e-5 0.0
0.000375408104707361 -1.9617166091347685e-5 0.0
0.00037338811468541486 -2.018527885527954e-5 0.0
0.000429719735731635 -1.3363976637006968e-5 0.0
0.0004373476435021862 -1.176823707950614e-5 0.0
0.0003664215267935282 -2.0442492994889932e-5 0.0
0.00036434877039218946 -2.111941754951695e-5 0.0
0.00043518910428728367 -1.3149835615918838e-5 0.0
0.0004432087385457354 -1.1460847070855667e-5 0.0
0.00035684332046378824 -2.119740364451508e-5 0.0
0.0003542124207525826 -2.1882728556261955e-5 0.0
0.000441196616819657 -1.2951587736660188e-5 0.0
0.00044947090665976446 -1.1196179151637982e-5 0.0
0.00034542379393288886 -2.1804247906701505e-5 0.0
0.0003430021407364779 -2.248546586579679e-5 0.0
0.00033235244140012273 -2.2292579090734068e-5 0.0
0.00033494367015228483 -2.1722579694482676e-5 0.0
0.0004325916425399117 -1.4705844920821163e-5 0.0
0.0004474541087380091 -1.2844625699224753e-5 0.0
0.0004560950823666042 -1.099297455867237e-5 0.0
0.00045828003236162004 -9.352868747888634e-6 0.0
0.00044158548723270143 -1.4594822356715384e-5 0.0
0.00046537821303910645 -9.075871191147377e-6 0.0
0.0004676570769325736 -7.501723525083884e-6 0.0
0.0004752039200794179 -7.128444677343535e-6 0.0
0.00033084411012449433 -2.306702403693485e-5 0.0
0.000318328333479861 -2.2693722187310846e-5 0.0
0.0003413337284158667 -2.341289209784783e-5 0.0
0.00045387735019691096 -1.2857640173875017e-5 0.0
0.0003168905477892977 -2.3494629112249548e-5 0.0
0.00030320748383279967 -2.3064448104255543e-5 0.0
0.000455919526874416 -1.8657644704298273e-5 0.0
0.00030162047555358696 -2.3792736551349194e-5 0.0
0.000288027881638276 -2.3386030382155274e-5 0.0
0.0002863456582787237 -2.4161511778901343e-5 0.0
0.00027384914778874375 -2.3704910031307383e-5 0.0
0.00027519274828788137 -2.3044244802980728e-5 0.0
0.00026068951727687214 -2.3372790771043874e-5 0.0
0.000262296109494895 -2.2701810068577872e-5 0.0
0.0002705935906911394 -2.455592847852653e-5 0.0
0.0002469514606652966 -2.2952618868350436e-5 0.0
0.0002484919255032335 -2.2331544033030522e-5 0.0
0.0002847440753627045 -2.5093085388437357e-5 0.0
0.0002711742422379181 -2.5548735247183866e-5 0.0
0.00023375350979059476 -2.2414860190516722e-5 0.0
0.0002347512182678987 -2.189654788182416e-5 0.0
0.0004776602247353541 -5.71225535780955e-6 0.0
0.0004857010779993256 -5.286793083505121e-6 0.0
0.0002831503005842092 -2.6135489656553842e-5 0.0
0.00026981931381296945 -2.6560670535756636e-5 0.0
0.0004882032952053791 -3.990252474499306e-6 0.0
0.0004968018832559478 -3.5356509269191785e-6 0.0
0.0004938739548927093 -5.097425271464304e-6 0.0
0.0005053227151728718 -3.235365479717473e-6 0.0
0.0005026632590361889 -5.025219434751102e-6 0.0
0.0005144797905561915 -3.0090622943240773e-6 0.0
0.0005124572743316211 -4.90845991497665e-6 0.0
0.0005250558138332353 -2.6497859129209164e-6 0.0
0.0005220894971858935 -4.754147144707995e-6 0.0
0.0005268902766890741 -1.1630111498297732e-6 0.0
0.000535181822693954 -2.451539152926263e-6 0.0
0.0005316775204643718 -4.820704741819304e-6 0.0
0.0002817493591660142 -2.7249355241261354e-5 0.0
0.00021927976890186336 -2.1838510567861776e-5 0.0
0.00021999249689503734 -2.1360678130525223e-5 0.0
0.00051948829767598 -7.605731679768283e-6 0.0
0.0005287726210239211 -7.909469463909899e-6 0.0
0.0005411855446341519 -4.957395108985525e-6 0.0
0.0005173989483505428 -1.105341795213531e-5 0.0
0.00026876565744062404 -2.7668098282722747e-5 0.0
0.0005383632839586705 -8.396044430334522e-6 0.0
0.0005509476150051018 -5.170493074955907e-6 0.0
0.00028033128744769324 -2.8467912372894114e-5 0.0
0.0002676524961050498 -2.8872135724198408e-5 0.0
0.00025687994879944516 -2.8040951653948552e-5 0.0
0.0005481659744103305 -9.101803171810333e-6 0.0
0.0005611181273302502 -5.5273754258476995e-6 0.0
0.0002788889157801285 -2.9761642871582355e-5 0.0
0.00029299574379633756 -2.944507989595743e-5 0.0
0.00025593295284559946 -2.9228813772095677e-5 0.0
0.0002454505864211825 -2.8330312096624513e-5 0.0
0.000558015043204924 -1.0029896494299462e-5 0.0
0.0005718804450372349 -6.05246046230885e-6 0.0
0.0005747865946620747 -2.411392283757616e-6 0.0
0.0005452376896590055 -1.3837217334470565e-5 0.0
0.0005860627820475923 -2.5330830344048623e-6 0.0
0.0005890794082671579 -2.8675522568426736e-7 0.0
0.000203650689043076 -2.1145574623795288e-5 0.0
0.0002052633863537814 -2.0792781938082253e-5 0.0
0.0002248355508270561 -2.11001525467957e-5 0.0
0.00020635207783868654 -2.0508623162389946e-5 0.0
0.00022545451655996558 -2.1010371477408913e-5 0.0
0.00020732043672074202 -2.0503606071489036e-5 0.0
0.00022609078366548417 -2.1117644696216782e-5 0.0
0.0002917044273767648 -3.080843401090784e-5 0.0
0.0003063753240789079 -3.0594963362582705e-5 0.0
0.00024462654645894576 -2.9483460652560244e-5 0.0
0.00023420309344112408 -2.849823809847585e-5 0.0
0.0005829825578451926 -6.891746278641845e-6 0.0
0.00021022932421233784 -2.0742587978486248e-5 0.0
0.00022822390769119597 -2.1567201961706604e-5 0.0
0.0003054685181160043 -3.206786569168583e-5 0.0
0.0003186201490635769 -3.1909177546112126e-5 0.0
0.00037298366736525606 -2.080481028951677e-5 0.0
0.0005977154145141448 -2.837714278745837e-6 0.0
0.0004739148393770502 -2.4906000793479105e-5 0.0
0.0004895340340234569 -4.765958695980129e-5 0.0
0.00042002419250462884 -1.7926336275166944e-5 0.0
0.0004988065519853145 -2.475683927421615e-6 0.0
0.00021075874696482616 -2.125756034631833e-5 0.0
0.00023193333679790993 -2.2323285089851855e-5 0.0
0.00023349697607172976 -2.9615107826864706e-5 0.0
0.0002232245718753554 -2.8564180033246293e-5 0.0
0.0003181275491736788 -3.348232163793427e-5 0.0
0.0003293937439163966 -3.330823801028153e-5 0.0
0.0005944705831377713 -7.954414063583876e-6 0.0
0.00018858992310334698 -2.0410392842651102e-5 0.0
0.00018750157456701196 -2.087590191228078e-5 0.0
0.00018842414232030314 -1.984364708938427e-5 0.0
0.0006096898373853139 -3.4254378846183934e-6 0.0
0.00021262203992958341 -2.1729584646866925e-5 0.0
0.00023429259617038025 -2.3056938779611893e-5 0.0
0.00030503105088232037 -3.359693281495786e-5 0.0
0.000222688064109196 -2.960252733545559e-5 0.0
0.00021247984052600013 -2.8483156509056872e-5 0.0
0.0004903723187419595 -3.0810424981494425e-6 0.0
0.0005012770784092834 -1.743733097373832e-6 0.0
0.0004924597478430222 -2.4990715173355375e-6 0.0
0.0005037409052504396 -1.285417726614603e-6 0.0
0.00032883974117180973 -3.4952109269643626e-5 0.0
0.00033871723208777894 -3.468615314709755e-5 0.0
0.0003688221251294035 -2.00348025574764e-5 0.0
0.00021424144687858524 -2.2200257644600178e-5 0.0
0.0002357064118538734 -2.3620299144210983e-5 0.0
0.0006066956342726082 -9.359617187768576e-6 0.0
0.0005929828485976776 -1.3973893631279818e-5 0.0
0.00021124072207998827 -2.195356943410162e-5 0.0
0.00023615129030031803 -2.3310041753118787e-5 0.0
0.0006217194528572959 -4.5027378832547075e-6 0.0
0.0006229274940127713 -1.2295430399183398e-6 0.0
0.00021501860531308807 -2.0633267722097032e-5 0.0
0.00023247169402675148 -3.076369329673798e-5 0.0
0.00033805593639950473 -3.644476458314084e-5 0.0
0.00034672068508262465 -3.606046815122401e-5 0.0
0.0003475047118095831 -3.4251149011646556e-5 0.0
0.00035474690264101154 -3.554048358026725e-5 0.0
0.0003555789224942501 -3.3695752918632695e-5 0.0
0.00036226468947773397 -3.490187471719051e-5 0.0
0.0003631112759397477 -3.300067285174538e-5 0.0
0.00036935542149756523 -3.413572063878083e-5 0.0
0.0003702813537091034 -3.2183407368635474e-5 0.0
0.00037614879873368865 -3.321917350430888e-5 0.0
0.00037526130354982693 -3.533233386112225e-5 0.0
0.00038169923224787994 -3.4308854741256415e-5 0.0
0.0003807958907946536 -3.656780650992424e-5 0.0
0.00038699533345693286 -3.5429989880504025e-5 0.0
0.00038602150512147325 -3.783798101039978e-5 0.0
0.0003921668239676055 -3.657881347725277e-5 0.0
0.0003772201633157269 -3.12197737701803e-5 0.0
0.0003932644516222969 -3.412780321792313e-5 0.0
0.0003984963634061906 -3.5154127798445914e-5 0.0
0.0003973092263375818 -3.778960156057664e-5 0.0
0.0004037665349577142 -3.6268364731659865e-5 0.0
0.00017244170573615014 -1.9969446744508772e-5 0.0
0.00017134169693124135 -2.052832299415337e-5 0.0
0.0002120345362870433 -2.94092012634057e-5 0.0
0.0002020606254004511 -2.8256369918603055e-5 0.0
0.00040510293675107397 -3.361446972590459e-5 0.0
0.000410495606706371 -3.4616576623719464e-5 0.0
0.0004091131803203435 -3.742686014093067e-5 0.0
0.0004161365638080345 -3.5691296343305046e-5 0.0
0.0001570305630978102 -1.9468484062781094e-5 0.0
0.0001560566177288543 -2.01248289112713e-5 0.0
0.0004946595168956434 -2.2269654179964625e-6 0.0
0.0005063679878129309 -1.174246405055052e-6 0.0
0.0004971028886848034 -2.2826394589303824e-6 0.0
0.0006191040705773484 -1.0938976848184015e-5 0.0
0.0006336607125296117 -5.833953248016742e-6 0.0
0.0003460382585072807 -3.793987429877969e-5 0.0
0.00025106146162050166 -2.2461155850893504e-5 0.0
0.0004173362644592795 -1.516648627902146e-5 0.0
0.00041472306976682305 -3.865807667601162e-5 0.0
0.000421975446522245 -3.6878050278578056e-5 0.0
0.0004232878438561726 -3.38703090329791e-5 0.0
0.0004295032018246952 -3.4996847172869306e-5 0.0
0.0004346275403566769 -1.1029770599136528e-5 0.0
0.000509511462875911 -1.2832432198515254e-6 0.0
0.0005182473621452352 -1.8779483067697077e-7 0.0
0.0002380596387548493 -2.1115715631696856e-5 0.0
0.00020160413954159272 -2.907114596089697e-5 0.0
0.00019191591556885117 -2.7894690796412498e-5 0.0
0.0004997887651463437 -2.611731307784714e-6 0.0
0.00042814273019685573 -3.8222733400967575e-5 0.0
0.0004360379432951995 -3.6404111553940766e-5 0.0
0.0004373890058630173 -3.3084673312275194e-5 0.0
0.0004442715495676219 -3.450796987258332e-5 0.0
0.00044577736747534514 -3.120297537399213e-5 0.0
0.00045277373936522243 -3.2519269718896806e-5 0.0
0.00045128935880653603 -3.606875874956234e-5 0.0
0.000459937957839469 -3.402733529954065e-5 0.0
0.00021518990637852016 -1.7455804239668786e-5 0.0
0.00014267369511259897 -1.8937585267377383e-5 0.0
0.00014178466048123312 -1.956731709699776e-5 0.0
0.00033764481983490066 -3.824082448656122e-5 0.0
0.0006305840983724788 -1.3359759496771632e-5 0.0
0.0006454904206025388 -7.5231135695354904e-6 0.0
0.0004584901931606758 -3.780308883887834e-5 0.0
0.0004671504145318385 -3.576259808341021e-5 0.0
0.00023976004932851729 -1.6665895108067247e-5 0.0
0.00019160008727474786 -2.864284584254219e-5 0.0
0.00018206999601636493 -2.7419276229136525e-5 0.0
0.00025827144151494886 -2.5128554107478184e-5 0.0
0.0005852933981607151 -2.1588176163768124e-5 0.0
0.00034539677125747687 -3.980672271692193e-5 0.0
0.00021572868487118759 -1.2558851477539754e-5 0.0
0.00019498413288906432 -2.0927675686174043e-5 0.0
0.0006410542184241034 -1.7585763903497487e-5 0.0
0.0006569929588090906 -9.646711675983843e-6 0.0
0.0006603704880350469 -2.8612313351526752e-6 0.0
0.00019230466389618327 -1.762404795149595e-5 0.0
0.0006256732577419035 -2.187122469536247e-5 0.0
0.00014261201452683272 -1.8327953596832316e-5 0.0
0.00020045727441457602 -2.9780297225423333e-5 0.0
0.0005124719612788601 -1.7805090793486376e-6 0.0
0.0005025762793689768 -3.35172933970255e-6 0.0
0.00045447772179134296 -2.9207397262651696e-5 0.0
0.00018185251047050512 -2.819180900255759e-5 0.0
0.00017251685610468836 -2.687321842492276e-5 0.0
0.00012938145308095212 -1.8286532300675367e-5 0.0
0.00012862626413861298 -1.877086023287976e-5 0.0
0.00022385010175723647 -2.7534170412368215e-5 0.0
0.0004657646268093452 -3.972785714246063e-5 0.0
0.0004743884444504871 -3.766269286438619e-5 0.0
0.00017273096522118044 -2.619124679844369e-5 0.0
0.00016332262056984479 -2.557296926666524e-5 0.0
0.00045758117486013156 -4.146457253280729e-5 0.0
0.00033732810482652037 -3.994776454245995e-5 0.0
0.000163300323644206 -2.6282395529400533e-5 0.0
0.00015438855528592888 -2.4897107639819356e-5 0.0
0.00035630729063038916 -3.1972931491580536e-5 0.0
0.0006724013898286082 -4.173847144247657e-6 0.0
0.0006756225854389541 -3.18756238508453e-7 0.0
0.0006688814899318598 -1.140029443488413e-5 0.0
0.00047315295182522694 -4.189881948371333e-5 0.0
0.0004817479238933772 -3.9820329007050975e-5 0.0
0.0004473933957265096 -2.8098101074643722e-5 0.0
0.00045626537184990587 -2.6093172980050523e-5 0.0
0.0003448732150299914 -4.152179677786124e-5 0.0
0.00048305350077957997 -3.548834003895166e-5 0.0
0.0004904838175980167 -3.770382687553184e-5 0.0
0.00011711354411592632 -1.7330360941031625e-5 0.0
0.00011702924283002652 -1.7814640427541252e-5 0.0
0.0004895344052409134 -4.265745162020994e-5 0.0
0.0004980737289031279 -4.043372316780789e-5 0.0
0.00015464282714818626 -2.5711872793317225e-5 0.0
0.00014599447854258396 -2.421506665955406e-5 0.0
0.0005153356472551589 -2.760778002618215e-6 0.0
0.0005054073929245047 -4.517602052755712e-6 0.0
0.00014563464926837223 -2.35532373595947e-5 0.0
0.00013752070966768212 -2.2760266245105822e-5 0.0
0.0001378000770142646 -2.3505355928957327e-5 0.0
0.00012966879230855963 -2.1948728554916334e-5 0.0
0.0006842751451789516 -5.528252926560379e-6 0.0
0.00068034649584733 -1.3289738519793884e-5 0.0
0.00024061519597792233 -9.738706072493149e-6 0.0
0.0002146484240752548 -4.3088032354772016e-6 0.0
0.0004884081796645407 -3.5558904749785125e-6 0.0
0.0003370440218859512 -4.1311628956877145e-5 0.0
0.0004972397394709096 -4.566852801172854e-5 0.0
0.0005055724540926842 -4.328132791895754e-5 0.0
0.0005473572797203647 -3.355230077324128e-5 0.0
0.0004919210081099153 -3.3228040621770814e-5 0.0
0.0003800424551563137 -3.893120682470306e-5 0.0
0.00012914439457674049 -2.1346609777826487e-5 0.0
0.00012189530704983189 -2.044467324272985e-5 0.0
0.00012241561220536297 -2.1159953721884634e-5 0.0
0.00011489916026765552 -1.9532854528589445e-5 0.0
0.00011432860074172485 -1.8975160015178954e-5 0.0
0.0001072194094818284 -1.7885906051678802e-5 0.0
0.00010657402307540706 -1.7467383395755553e-5 0.0
9.929514241752689e-5 -1.619564369050214e-5 0.0
9.859971241249026e-5 -1.5944212756610322e-5 0.0
9.14929229022085e-5 -1.4618057156514284e-5 0.0
9.050786135901789e-5 -1.4430997281775139e-5 0.0
9.207006124465673e-5 -1.4945546897326908e-5 0.0
8.288347300837037e-5 -1.3082433011498336e-5 0.0
0.00010601169824910732 -1.622514217199415e-5 0.0
0.0001064884663592014 -1.581699079674408e-5 0.0
8.42193134550896e-5 -1.3672576214893044e-5 0.0
7.530236938634744e-5 -1.1869531308487253e-5 0.0
0.0002655369861850565 -1.5459935890821173e-5 0.0
0.0002615520253469605 -2.211360463989649e-5 0.0
0.00044918404956106737 -2.5164938713454534e-5 0.0
0.00045807072448203625 -2.310608745902871e-5 0.0
0.00015427722601708873 -2.072375904912212e-5 0.0
0.0003444090489648369 -4.266017271619508e-5 0.0
0.00035183992155484915 -4.304220047737662e-5 0.0
0.00046537858227384894 -2.4016835352872034e-5 0.0
0.0004672587537473412 -2.090193741152482e-5 0.0
0.000695965549286287 -6.819031297501666e-6 0.0
0.0006909915780517398 -1.5098829253504116e-5 0.0
0.0006756592673735384 -2.3497858046353664e-5 0.0
0.0004933352779862397 -5.129163015350069e-6 0.0
0.0004962842753278169 -6.456180789099258e-6 0.0
0.0003284852898056675 -3.97915514005419e-5 0.0
0.00032826806682319416 -4.066471535190289e-5 0.0
0.0003186393417347079 -3.932830145134104e-5 0.0
0.00011576501672409372 -2.038453177259728e-5 0.0
0.0005081295988634641 -6.265108170454356e-6 0.0
0.0004991688387930382 -8.51873736825086e-6 0.0
0.00023196306701814954 -2.3115307859784813e-5 0.0
0.000504504344942344 -4.850041999892521e-5 0.0
0.0005129495807659708 -4.602833871842249e-5 0.0
0.0005142250466969217 -4.083953833180647e-5 0.0
0.0005216203271285163 -4.349261126087687e-5 0.0
0.0002494229618623249 1.6272636165122167e-6 0.0
0.00021872714737893666 8.087893374380884e-6 0.0
0.00031897205800683707 -3.0438140447699974e-5 0.0
0.0004964817025903309 -5.083192324432399e-5 0.0
0.0006319262404488459 -1.8704226094621096e-5 0.0
0.0005202509949564413 -4.885899115267316e-5 0.0
0.0005290988790343548 -4.625916910165856e-5 0.0
0.0005305475509530845 -4.080015123342322e-5 0.0
0.0005383016917271974 -4.354853303746196e-5 0.0
0.0005399733468987028 -3.793478427990601e-5 0.0
0.0005477971996289639 -4.066245002875118e-5 0.0
0.0005460819749487373 -4.6444315945036915e-5 0.0
0.0005556862566769784 -4.3537214468009046e-5 0.0
7.628067480171863e-5 -1.2355593875502861e-5 0.0
6.695057963355505e-5 -1.0533449634875745e-5 0.0
6.455130803171487e-5 -9.877910257741609e-6 0.0
0.0003515642012044287 -4.404375897994777e-5 0.0
0.00035831332963904986 -4.4593290719732086e-5 0.0
0.00031855928033277744 -3.969465406684993e-5 0.0
0.00030741693215890066 -3.8559297415066284e-5 0.0
0.0006851884943865936 -2.5932029427826907e-5 0.0
0.0007007561787441207 -1.6908167561880513e-5 0.0
0.0005481887305859492 -4.229674079812573e-5 0.0
0.0005327334481537161 -4.0295901047934514e-5 0.0
0.00018764335813353287 -1.8212042912594852e-7 0.0
0.00019229215775095582 1.1946735429831268e-5 0.0
8.514558613883682e-5 -1.4325545059947043e-5 0.0
0.0002979844676884683 -2.5730273673516486e-5 0.0
0.00048199847665673283 -3.59058057983441e-6 0.0
0.0006709269515126921 -3.434599986146135e-5 0.0
0.00024399421899581837 -2.1459318326350098e-5 0.0
0.00048493112858958936 -7.089436536855625e-6 0.0
0.0005536934932334147 -4.9458917235209206e-5 0.0
0.0005635155631401338 -4.6516499701313395e-5 0.0
0.0005640943582682672 -1.914791109743205e-5 0.0
0.0005881960732030571 -1.4846293036451146e-5 0.0
0.00025214182238493787 1.8407559046485582e-5 0.0
0.0001277644926529997 -1.92314320062794e-5 0.0
9.403054241127301e-5 -1.4365915796188389e-5 0.0
9.446355331741422e-5 -1.3999854435726681e-5 0.0
0.00012292506662326598 -2.212332327750535e-5 0.0
0.000528259884239893 -5.1959377977111166e-5 0.0
0.00044506390654949014 -1.4721308940859698e-5 0.0
0.00040791932931050223 -4.037693545055046e-5 0.0
0.0002782221476073728 -3.104645839504697e-5 0.0
6.795581961230147e-5 -1.1062600074149506e-5 0.0
5.837206058868633e-5 -9.258846562324241e-6 0.0
0.00016353181086014483 -2.72322220940347e-5 0.0
0.00047479067920035134 -2.1805987060539585e-5 0.0
0.00047676518254717695 -1.8552356107545342e-5 0.0
0.0003278565010401522 -4.064149422667278e-5 0.0
0.0005713122739658626 -1.1412855696733396e-5 0.0
0.0005927483356534561 -8.753066766930456e-6 0.0
0.0005773085179173207 -5.5781284706830535e-6 0.0
0.0005985587667571751 -3.664715117078435e-6 0.0
0.0006148029176254422 -6.469272544518834e-6 0.0
0.0006211268943295124 -2.1518568490394084e-6 0.0
0.0006048790726395018 6.41785142531584e-8 0.0
0.0006275386539374808 9.465177271778204e-7 0.0
0.0006114364447740788 2.3019696749963183e-6 0.0
0.0006345213469475025 2.7278462531492615e-6 0.0
0.000618667738025577 3.528082588589293e-6 0.0
0.0006417616226397707 3.6046789484735133e-6 0.0
0.0006260408151782855 4.0288708803619566e-6 0.0
0.0006491803967659002 3.887382432215316e-6 0.0
0.0006034043607256171 3.834525519470099e-6 0.0
0.0006336670776467177 3.992885268754028e-6 0.0
0.0006561452007268088 3.7238787279228878e-6 0.0
0.0006388312635883949 -4.537555941141039e-6 0.0
0.00016318970344155983 -2.495368882551347e-5 0.0
0.0001550576068628738 -2.6761676546971057e-5 0.0
0.00016357850334733636 -2.835876830033419e-5 0.0
0.0006414820921120146 3.6807258866878516e-6 0.0
0.0006634778394362948 3.3425757973357344e-6 0.0
0.0006211043469011971 3.826016867160653e-6 0.0
0.00041340612707029564 -4.174384220661379e-5 0.0
0.0004067152747056534 -4.338934207387606e-5 0.0
0.0004121574545185919 -4.487475014080547e-5 0.0
0.0004056850369071356 -4.644258489539278e-5 0.0
0.0004110413710676927 -4.8049524452323665e-5 0.0
0.0004048425114595664 -4.9616700155951385e-5 0.0
0.0003997797152182649 -4.7938750452393554e-5 0.0
0.0003991660000629493 -5.103942877496231e-5 0.0
0.0003944410292370149 -4.924481199170108e-5 0.0
0.00046485558034807094 -4.291472479555371e-5 0.0
0.00041014193935907115 -5.145994476953411e-5 0.0
0.00041654392610312785 -4.984267038640591e-5 0.0
0.0003870397929903398 -1.8946971408794493e-5 0.0
0.0003712988968321184 -3.033005327388512e-5 0.0
0.00037840805295026776 -2.9316798966230088e-5 0.0
0.0003724285948417087 -2.8563928376778835e-5 0.0
0.0003797106361861439 -2.7505016631496217e-5 0.0
0.000373681598524988 -2.6888869000180795e-5 0.0
0.0003811307015568115 -2.5794111618680977e-5 0.0
0.0003869207014363526 -2.6303024257651906e-5 0.0
0.00038849822549388456 -2.4559336718923313e-5 0.0
0.0003941101956276401 -2.4971547060856334e-5 0.0
0.00039582163221262863 -2.3188283736301143e-5 0.0
0.0004010319673087389 -2.3534525521691307e-5 0.0
0.00039026049170091937 -2.2871405981450106e-5 0.0
0.00037506391974176736 -2.531692211753894e-5 0.0
0.0003671975171677243 -2.630482273526289e-5 0.0
0.00039927253052392383 -2.548356676761971e-5 0.0
0.0004065193966539533 -2.3825552011417448e-5 0.0
0.00015542583114425343 -2.7972235612414266e-5 0.0
0.00040664064423762386 -1.582692332458242e-5 0.0
0.00044120376773057766 -2.6332432792076548e-5 0.0
0.00041197760313010803 -3.1975656738398586e-5 0.0
0.0006997969821326551 -1.847698409848067e-6 0.0
0.000711405003826822 -2.5894771121710667e-6 0.0
0.00044885034986353516 -1.6424035931800413e-5 0.0
0.00043625187528004313 -1.3388873312928109e-5 0.0
0.0005320056177569568 -3.52615723491151e-5 0.0
0.00047219093038102384 -8.956913769872624e-6 0.0
0.0006947633832670267 -2.7921109667458243e-5 0.0
0.0007100504415572224 -1.856450246466861e-5 0.0
0.0004234769051719162 -1.246358309883166e-5 0.0
0.00030744592484750896 -3.863878032219841e-5 0.0
0.00029393682085262086 -3.765434593959221e-5 0.0
0.00046456441900115256 -2.0806333188591297e-5 0.0
0.0003939648623141831 -5.2296717857241006e-5 0.0
0.0003893829506223858 -5.024077051048954e-5 0.0
0.000294167527663212 -3.727172391342893e-5 0.0
0.0002803332458675851 -3.663804293121299e-5 0.0
0.00028095326282226674 -3.602269470908885e-5 0.0
0.0002699657376751168 -3.572832398505629e-5 0.0
0.00026938959562497825 -3.629116986435029e-5 0.0
0.00026005301395806674 -3.557968882135278e-5 0.0
0.000259359490393084 -3.632608909701223e-5 0.0
0.0002506071222621358 -3.562684580169835e-5 0.0
0.00011668268309662888 -2.1446728854505434e-5 0.0
0.0007151002578426288 -1.8801926321081172e-7 0.0
0.0005106169276775254 -9.098749587572705e-6 0.0
0.0005014660857079844 -1.1581851908352465e-5 0.0
0.0002600840191251998 -2.5946679433872647e-5 0.0
0.00020366430213600382 -2.741799051874755e-5 0.0
0.0006712365299253017 3.5359735288172587e-6 0.0
0.0006593355513063906 2.8537911318520925e-6 0.0
0.0003582466332104252 -4.596654345586172e-5 0.0
0.00036469935446164093 -4.6339328352647106e-5 0.0
0.0005034275902181524 -5.362961555076376e-5 0.0
0.0001143414783669219 -1.8734232158625143e-5 0.0
0.00044535053793021915 -1.0159022981251712e-5 0.0
0.0004911860183746901 -1.088276688518001e-5 0.0
0.0004935749833928462 -1.4280419307207513e-5 0.0
0.0005418611099566017 -3.2284467404245406e-5 0.0
0.0005535831774446566 -2.4183632000689908e-6 0.0
0.0005658064066184113 -4.05517443104696e-5 0.0
0.0005742530806165722 -4.340364954328013e-5 0.0
0.0005714960693662821 -4.9612626703569165e-5 0.0
0.0005829030951246146 -4.6479005656074635e-5 0.0
0.00038727026521787376 -1.8114383795162978e-5 0.0
0.00012340677965379113 -2.321354234571283e-5 0.0
0.00040251899857444593 -2.1722169397197942e-5 0.0
0.0005899239710959146 1.6380581136669063e-6 0.0
0.00036004242683577417 -4.318290813351449e-5 0.0
0.0001635129231397763 -2.962444757508276e-5 0.0
0.0001718898371629435 -2.99623435655287e-5 0.0
0.0004957397316374835 -5.5811817491793936e-5 0.0
0.000270430251527936 -3.495120101176219e-5 0.0
0.0004510051157619794 -2.2351174466588383e-5 0.0
0.00044236282665783606 -2.4364048067303345e-5 0.0
0.0007035774527063856 -3.0102478976293304e-5 0.0
0.000719364851138552 -1.987255365463726e-5 0.0
0.0007252805341881731 -1.0822534973689294e-5 0.0
0.00028278735853540417 1.330281586615688e-5 0.0
5.9386559128618165e-5 -9.73944154664319e-6 0.0
4.9677232811699876e-5 -7.962559423785095e-6 0.0
4.958517983266308e-5 -7.706619895190316e-6 0.0
0.0005358289062456438 -5.057827139932321e-5 0.0
0.0005510562820825089 -5.223903681369153e-5 0.0
0.000520405505093546 -4.780558090218986e-5 0.0
0.0005260798654901831 -1.1387716426477609e-6 0.0
0.0006494940912200236 3.1831171010940293e-6 0.0
0.0006717192704410518 2.8441973470436802e-6 0.0
0.0002939303893696487 -3.7861642443747624e-5 0.0
0.0005138579581846425 -4.226702043790952e-7 0.0
0.00015985530803453907 2.6913032138206026e-6 0.0
0.0001633269017508338 1.3382900174583364e-5 0.0
0.00020047551287234782 2.4616657405436474e-5 0.0
0.00016850765330136272 2.3202621679809922e-5 0.0
0.00022391299291356356 4.0953129991839476e-5 0.0
0.00038941138438926856 -4.7339681352371254e-5 0.0
0.00025102625355665685 -3.4774580001188566e-5 0.0
0.00024193764510247758 -3.477900575630518e-5 0.0
0.00024140776009239144 -3.5815418873801606e-5 0.0
0.0002327995979003835 -3.4859980473949744e-5 0.0
0.0005853723061607686 -4.024562138753705e-5 0.0
0.0005943574442190793 -4.342460500336616e-5 0.0
0.0005919309797982751 -4.985188274774338e-5 0.0
0.000603388086826943 -4.679641551271665e-5 0.0
0.00046918560323396197 -1.784707072979136e-5 0.0
0.00047886107547676375 -1.5437746244726144e-5 0.0
0.0004156245022162927 -5.326009397721947e-5 0.0
0.0004222394765783118 -5.164827962214666e-5 0.0
0.00036858049080403405 -2.4859373491384193e-5 0.0
0.00036015633172189197 -2.5741842902956454e-5 0.0
0.00035085918638176904 -4.5507843046398204e-5 0.0
0.00023230111918007593 -3.611811039912791e-5 0.0
0.00022388666683451856 -3.500917159559624e-5 0.0
0.0006616919830304896 -3.170336247750266e-5 0.0
0.0006576683199476176 -4.1721770250945697e-5 0.0
0.0006490953709549969 -3.8909548057960935e-5 0.0
0.0006474686092742688 -4.661945983970663e-5 0.0
0.000364900506753204 -4.914961514610019e-5 0.0
6.792912746053515e-5 -1.1480284004884079e-5 0.0
9.825834339589529e-5 -1.5854451547443795e-5 0.0
8.890919317453892e-5 -1.4160715560224157e-5 0.0
8.063022743468323e-5 -1.2192865885311485e-5 0.0
8.010496044531072e-5 -1.1816202218973297e-5 0.0
9.504006694308162e-5 -1.3731191325339985e-5 0.0
7.982202927955969e-5 -1.1592502444644984e-5 0.0
9.555256755032612e-5 -1.358618595533803e-5 0.0
7.94972599627013e-5 -1.1417322024275637e-5 0.0
9.625979517889926e-5 -1.3524983292311077e-5 0.0
0.0006664574345643921 -4.472667365756337e-5 0.0
0.00023279331228026292 -3.379230818805329e-5 0.0
0.0005336934696335357 -2.990680800890267e-5 0.0
0.0004886361361896379 -5.281425291686671e-5 0.0
0.00048821471834756627 -5.772683127624567e-5 0.0
0.00048121673202339906 -5.487193227066661e-5 0.0
0.00038917887831712704 -5.3330559632534e-5 0.0
0.000518661770975952 -6.751648635497864e-6 0.0
0.0006011981772643131 -5.365768842378039e-5 0.0
0.0007352117166016395 -1.118056403025355e-5 0.0
0.0007281284780999032 -2.047171626433424e-5 0.0
0.00028744182436755397 3.070831345261362e-5 0.0
0.0005104226938762928 -1.3529758008134232e-5 0.0
0.00040650353461214634 -3.11242200973488e-5 0.0
0.0004133925301281415 -2.9488102064515842e-5 0.0
0.0003989064707090635 -5.4343635724613425e-5 0.0
0.00038464827316284686 -5.110893436217389e-5 0.0
0.00018754855766223134 -2.1646950457053504e-5 0.0
0.0006858590687085993 2.855065745131832e-6 0.0
0.0006940426273813928 2.411646313229003e-6 0.0
0.0006794584284220151 2.3462252345575005e-6 0.0
0.0007013778138901903 1.9485854007782935e-6 0.0
0.0005550114647566147 -1.5176721614295765e-5 0.0
0.0004340145934592199 -3.9894841593184256e-5 0.0
0.0004441871821290113 -2.1722513655544568e-5 0.0
0.0003617777326151553 -3.6924113370468315e-5 0.0
0.00046966296946410267 -6.27199013986414e-6 0.0
0.00048444812287906387 -1.9458626728179833e-5 0.0
0.000484616428113843 -3.14908440168319e-5 0.0
0.0004936377970081472 -2.9132044234964746e-5 0.0
0.0005434313344638945 -6.476552068791701e-5 0.0
0.0005598598759156879 -6.415747396581984e-5 0.0
0.00017164344225216894 -3.127066235187455e-5 0.0
0.00017983727483942384 -3.149430840755276e-5 0.0
7.914694769475118e-5 -1.135418326762605e-5 0.0
9.627047641098519e-5 -1.3533428961558637e-5 0.0
0.00011307002041255413 -1.5288137539970397e-5 0.0
0.00011409886925519254 -1.53891084270019e-5 0.0
9.655724991876558e-5 -1.3540782402745394e-5 0.0
0.00011557178345552384 -1.5538607876175905e-5 0.0
9.690918070442862e-5 -1.3447537949046782e-5 0.0
0.00011739833024364031 -1.5284266366347925e-5 0.0
9.701021401179126e-5 -1.2740519089078684e-5 0.0
5.0773435731976566e-5 -8.434205184221858e-6 0.0
0.00043578909345590416 -2.3685905183666575e-5 0.0
4.122839312380974e-5 -6.7140842082293775e-6 0.0
0.00015571446692049678 -2.9298168741465594e-5 0.0
0.0007275866897395594 -5.770196396500566e-7 0.0
0.0003840666041110104 -3.0104527554195223e-5 0.0
0.0004843350603734531 -1.3490614555020047e-5 0.0
0.0004875210736462434 -1.766361580252887e-5 0.0
0.00011874075271652282 -1.4142617564290031e-5 0.0
0.00011745073197241555 -2.2652467862973738e-5 0.0
0.00011095504374904746 -2.0797546480006837e-5 0.0
0.0002406633538935574 -3.7529113698179905e-5 0.0
0.0005017691208958649 -5.8674550657063954e-5 0.0
0.0003077521415167077 -3.937021491662997e-5 0.0
0.0006127156390618422 -5.05080605478298e-5 0.0
0.0007408672712626863 -5.13317470519302e-6 0.0
0.0003588942125629148 -2.7165204273096324e-5 0.0
0.00035119798936202187 -2.648485956167273e-5 0.0
0.00034998359271856905 -2.7890541417456575e-5 0.0
0.00031598661864762985 2.4806550977394906e-5 0.0
0.00034186179963373927 -2.7093308172550775e-5 0.0
8.230307084126359e-5 -1.2726003225297665e-5 0.0
0.00042159917383254996 -5.5438678593787845e-5 0.0
0.0004285321305427163 -5.3919198454538986e-5 0.0
0.00042912312584870505 -5.011982911260726e-5 0.0
0.00043550907383045536 -5.246160586898848e-5 0.0
0.0005011450399173086 -3.090118314146779e-5 0.0
0.0005030258188512029 -2.6620767942268806e-5 0.0
0.00073116677615966 5.474695803421175e-7 0.0
0.0007178945497244768 8.27569237412867e-7 0.0
0.00049761459669501 -2.0136287837843744e-5 0.0
0.0004908740315286454 -2.489394534343905e-5 0.0
0.0001480242199816098 -2.7580660486777674e-5 0.0
0.00022351309841523554 -3.6441606183470735e-5 0.0
0.000215239434212193 -3.514546671039195e-5 0.0
0.00040682917140850587 -1.6079234377991922e-5 0.0
0.0005900816498530209 -5.6747451202700965e-5 0.0
9.716406307186615e-5 -1.145270161337842e-5 0.0
0.0002153634577326038 -3.380889376378958e-5 0.0
0.0004350858855010648 -5.646539130972129e-5 0.0
0.00044211130920515407 -5.504408197534593e-5 0.0
0.0004375094872095926 -2.1249145991401496e-5 0.0
0.00042951013310304153 -2.3104631160089587e-5 0.0
0.00043125475905233883 -2.0831340926871967e-5 0.0
0.00042372412729963367 -1.2477134659687055e-5 0.0
7.923796161040083e-5 -1.2433186841325192e-5 0.0
4.2295483275936035e-5 -7.143700618878256e-6 0.0
0.00043626749382694635 -4.850676748331952e-5 0.0
0.0004518549574113401 -1.4885398357068727e-5 0.0
0.0003846215491585026 -5.425851115581765e-5 0.0
0.00017470765612684705 -1.965861893688311e-5 0.0
0.0003052678884868848 -2.2413183824093056e-5 0.0
0.0001238601721587699 -2.4569024997966203e-5 0.0
0.0006149435128233177 -4.390227140068858e-5 0.0
0.00017337750687452448 -2.556674684204038e-5 0.0
0.00016324582012555803 -2.434299390822504e-5 0.0
0.00017434421116517947 -2.4875455881592372e-5 0.0
0.00016378838319851776 -2.368527231569119e-5 0.0
0.00017523411876293535 -2.4110456089039106e-5 0.0
0.0001529014145383688 -2.3110255684031016e-5 0.0
0.0004808938948761856 -5.947228146148054e-5 0.0
0.0004743629300264469 -5.6823668195771874e-5 0.0
0.00012809002604996142 3.3154649107518902e-6 0.0
0.0003892099750416275 -5.630560983446776e-5 0.0
0.00038513917233191393 -4.0340528567917615e-5 0.0
0.0003793843008475275 -4.135467760652221e-5 0.0
0.0001797303708654664 -3.29510373126901e-5 0.0
6.698047780595782e-5 -1.0235329996904088e-5 0.0
7.005129272093093e-5 -1.086819648330821e-5 0.0
0.0006624866280685693 1.5911661564987154e-7 0.0
0.000678226086368634 9.994074648206213e-7 0.0
0.00013128534006426687 -1.679839677821335e-5 0.0
0.0001878927287983002 -3.300425958863842e-5 0.0
0.00018845534218304717 -3.1764754053923166e-5 0.0
0.00018785157535452637 -3.475088244338653e-5 0.0
0.00017184275322202301 -3.291674483692865e-5 0.0
0.00018511768592441207 3.373748134436608e-5 0.0
0.0003187149483648224 -3.825408639929164e-5 0.0
0.00043402992220860836 -2.62804978153168e-5 0.0
0.0006639417685909608 1.210935334189404e-6 0.0
0.0004150290314486348 -5.7006003358397696e-5 0.0
0.00029406997630016424 -3.977680314659707e-5 0.0
0.0007438950728908687 -1.1158993191575602e-5 0.0
0.000736085535604298 -2.1287218087400306e-5 0.0
0.00031347130412362354 6.630260261125173e-6 0.0
0.0002151556578178368 -3.689620828932753e-5 0.0
0.00047121191258604777 -1.4825615870744559e-5 0.0
0.00048167942013950093 -1.240217040164406e-5 0.0
9.789269125116704e-5 -1.5710183178917246e-5 0.0
0.00011180843040818443 -2.2020818141122696e-5 0.0
0.00010550162357467211 -2.011580155260864e-5 0.0
0.00010445831644854614 -1.898754055376427e-5 0.0
0.00014840119003258043 -2.9021777309691486e-5 0.0
3.327432603715441e-5 -5.5164201821753045e-6 0.0
3.2471172180663805e-5 -5.203578472298275e-6 0.0
0.0004417904589798869 -5.920528378649139e-5 0.0
0.0004488841036226128 -5.775994678492461e-5 0.0
0.0004490019073864897 -5.3227906246906854e-5 0.0
0.0005969086385027092 -3.7099953411744246e-5 0.0
0.0005876381888185923 -3.386365635389813e-5 0.0
0.0005990438613873406 -6.0962453147966575e-5 0.0
0.00015327034103655582 -2.2476524826200768e-5 0.0
0.0001429465430452504 -2.1893612870702994e-5 0.0
0.0004892351189424298 -1.2893521444608579e-5 0.0
0.000716067581035427 1.8877618361737112e-6 0.0
0.0007230597726268392 1.4993251798625285e-6 0.0
0.000732720267211305 9.649318970605765e-7 0.0
0.0007175264555356152 -3.533407259847463e-5 0.0
5.153066159885164e-5 -8.93496308111896e-6 0.0
0.0004816748575367278 -6.1322062115052654e-6 0.0
0.00047430961812484565 -7.916987521840905e-6 0.0
0.00047092176778217737 -7.279953298572464e-6 0.0
0.0004643454621328151 -8.926130875637768e-6 0.0
0.00046119465852489683 -8.238797934717213e-6 0.0
0.0004672462921365447 -9.773603871832395e-6 0.0
0.0004079671008326259 -2.876742612709141e-5 0.0
0.0003615062553843551 -2.4423392694325194e-5 0.0
0.00037010982881739425 -2.355013512592271e-5 0.0
0.00010640379684546535 -2.1383324780440513e-5 0.0
0.00010004830299553224 -1.9342992437376276e-5 0.0
0.0006317527755018801 -8.765727141841649e-6 0.0
0.0006580081104651901 -6.199725595414096e-6 0.0
0.0006663561867240107 -2.7237910154989246e-6 0.0
0.0006867202436587658 -4.025256864433208e-6 0.0
0.00068260885627965 -6.311512788389182e-6 0.0
0.00038029650949393507 -5.2025036866663846e-5 0.0
0.0003802404793537392 -4.9201311616959964e-5 0.0
0.00038022790145707366 -5.510240598050082e-5 0.0
0.00047926247236934074 -1.626701935058503e-5 0.0
0.0004757491652654258 -1.3515972135655499e-5 0.0
0.00013036094004038857 -1.6779778016312375e-5 0.0
7.457328576054978e-5 -9.777691299867985e-6 0.0
0.0004737397752123736 -6.102918984804749e-5 0.0
0.00015764695743167013 -5.686545071166362e-6 0.0
0.00047284648219708393 -2.5074402314994982e-5 0.0
0.00046895667593450387 -6.490058518345889e-6 0.0
0.00045813173567408694 -7.77278903987856e-6 0.0
0.0004643678310132225 -6.391572301527933e-6 0.0
0.00045507941729126973 -7.583522393456292e-6 0.0
0.0004611355271737324 -6.448459951256401e-6 0.0
0.00045212078988002215 -7.677956996497137e-6 0.0
0.0004581683406858244 -6.686245067041834e-6 0.0
0.0004492650186857593 -7.976808817484769e-6 0.0
0.0004556125196473598 -7.101233450625698e-6 0.0
0.00044912375442929324 -8.96833888579039e-6 0.0
0.0004434608541216133 -8.972668887630205e-6 0.0
0.00048771679782599376 -6.214206832376417e-5 0.0
0.0007472033037839203 3.387306852459028e-7 0.0
0.0002817169278148012 -3.509096326853854e-5 0.0
0.00027074579440469575 -3.398130575055599e-5 0.0
0.0006889223754161916 -3.984338062155445e-5 0.0
0.00034339957807624696 -2.6023021967980733e-5 0.0
0.0004556037732225339 -9.914909776284554e-6 0.0
0.0002451115690149232 6.592906625796316e-5 0.0
6.366630406148347e-5 -9.38074679201298e-6 0.0
0.00034916709948238636 1.8132714183166865e-5 0.0
0.00034205363353066807 -1.2035990078088124e-6 0.0
0.0005512502107551823 -1.3128551960672535e-5 0.0
0.0006969568990590788 -4.23018355115036e-5 0.0
0.0006841887164706907 -5.112520346639168e-5 0.0
0.0003404253450331359 -2.844826975770266e-5 0.0
0.0003324242651874389 -2.737744861190312e-5 0.0
0.0001313087606946296 -2.4161058673432962e-5 0.0
3.429067901031898e-5 -5.86407639246565e-6 0.0
5.18282664802309e-5 -8.000818426644782e-6 0.0
5.3196008514516515e-5 -8.214343649930848e-6 0.0
2.5582951860660936e-5 -4.31617943810149e-6 0.0
0.0004953808041458671 -2.520904123075193e-5 0.0
0.0005050365556671666 -2.2631221892472604e-5 0.0
0.0005129813794849452 -2.403534929897116e-5 0.0
0.0005150307666436308 -1.9719774432473907e-5 0.0
0.00044077549734394307 -9.334767077953984e-6 0.0
0.00027844983530415376 6.993388232557357e-5 0.0
0.00033108976349328293 4.399187281568292e-5 0.0
0.00042353867912928395 -2.261666128013784e-5 0.0
0.0004254325590214925 -2.042175651022621e-5 0.0
0.0003631258414854678 -2.3347687454804747e-5 0.0
0.00031515118968985953 -2.4355292534504785e-5 0.0
0.00030848775724531043 -4.310419936144123e-5 0.0
0.0005446283836201475 -5.23281895521461e-5 0.0
0.0005518867095536908 -5.553072404106906e-5 0.0
0.0005433695413039961 -5.84376716834569e-5 0.0
0.0005504307642657597 -6.208121021900945e-5 0.0
0.0005423022396409391 -6.505673319241644e-5 0.0
0.0005353175164738913 -6.137624500572016e-5 0.0
0.0005187446175428787 -5.517905239861342e-5 0.0
0.0004738288929616378 -5.180235279307991e-5 0.0
0.0005186147708279242 -3.535124790577522e-5 0.0
0.00040152194439337 -4.1993151312162496e-5 0.0
0.0001370130458579673 -1.725166385531601e-5 0.0
0.0007271092109157265 -3.4514413924530904e-5 0.0
0.0007430790065473512 -2.1922034691272876e-5 0.0
0.0005590075081019527 -5.89932763999443e-5 0.0
0.0005576788397587885 -6.610007182669603e-5 0.0
0.0005664189757938275 -6.294023049469385e-5 0.0
0.00031896857774606365 -4.235124558597281e-5 0.0
0.00037410233848131396 -3.9846478666275356e-5 0.0
0.0003737350625889454 -4.212801542207571e-5 0.0
0.0003788725610798056 -4.378303841706596e-5 0.0
0.0002559596703879737 -3.064944820558224e-5 0.0
0.00036800476401724976 -4.053727040214715e-5 0.0
0.0004302161186541863 -4.66920652575564e-5 0.0
0.0005998405639285815 -3.0220916758062102e-5 0.0
0.0006237083336527217 -4.7520573689088116e-5 0.0
0.0006216599710579164 -5.465880078698923e-5 0.0
0.0006272940353472436 -4.077570145360121e-5 0.0
0.00011156204027233837 -1.5548214446261984e-5 0.0
0.00026869701750409575 -3.694648890620322e-5 0.0
0.00025874567087335037 -3.75647770496283e-5 0.0
0.00026804320242639854 -3.881524422093968e-5 0.0
0.00025850884960293137 -4.015137303762832e-5 0.0
0.0005230971215347558 -2.0973264433933833e-5 0.0
0.000156131170529202 -3.090858949095359e-5 0.0
0.00014141004592250225 -2.7268326795250075e-5 0.0
0.0007081039718102508 1.557013112401072e-6 0.0
6.097521029081294e-5 -8.866687024293293e-6 0.0
6.0305306168225564e-5 -8.887029615494468e-6 0.0
0.0004666819417202586 -5.78220685053623e-5 0.0
0.00046738114442591394 -6.251150845289522e-5 0.0
0.00040108008388186624 -3.0331866804902457e-5 0.0
0.0006964061091392929 -1.3437156132472626e-6 0.0
0.00014168963427555088 -2.8810873171954656e-5 0.0
0.0006110928682252352 -4.999310737420102e-5 0.0
0.0006517219941074528 -2.8965826685702415e-5 0.0
0.0006879547155879121 -1.3361519327331276e-5 0.0
0.0006877887856467449 -1.1146355140174406e-5 0.0
0.0005072694578051952 -1.873739851770577e-5 0.0
0.0005440614137914569 -2.6922761532740453e-5 0.0
0.0005524540799106511 -2.9230436354795134e-5 0.0
0.0005614672845115356 -7.708922384698498e-5 0.0
0.0005754423466522127 -7.26374705732921e-5 0.0
0.0005740563398434772 -6.061396807166382e-5 0.0
0.00043475387284114665 -6.0541160535418247e-5 0.0
0.00022283774337603595 -3.852292367488431e-5 0.0
0.0003649387467341991 -2.949424705165398e-5 0.0
0.0004616476931913652 -1.7346422545192544e-5 0.0
0.0004188278291920678 -3.0210966916029872e-5 0.0
0.0004210756873805885 -5.9295364664636914e-5 0.0
0.00019582438946443584 -3.463671885069437e-5 0.0
0.0002606647201749005 -3.3962872491924375e-5 0.0
0.00011712101066345615 -1.8271005756764763e-5 0.0
0.0007123081421212712 -2.457836456677613e-6 0.0
0.0005241782295412864 -3.2928980852372576e-5 0.0
8.790687752722044e-5 -1.3941773130210689e-5 0.0
0.00029696015699353084 9.636431112615586e-5 0.0
0.00041900010041344426 -4.3237365376855066e-5 0.0
0.0005344123515803795 -6.782288749537248e-5 0.0
0.0005272754692893458 -6.407003460933852e-5 0.0
0.0004687282855881978 -3.1956594135609536e-5 0.0
0.0004915197919875763 -1.0069831773270106e-5 0.0
0.0002463986217732854 -2.726579066645362e-5 0.0
0.00037336327627085546 -4.4765109659258835e-5 0.0
0.00046066070299471826 -1.2940831119065549e-5 0.0
0.000260941761641095 -3.2970297695103246e-5 0.0
0.0002510967049374941 -3.2982196245209025e-5 0.0
0.00019578163132490058 -3.66594046857174e-5 0.0
0.00014879336636826858 -1.794168586353266e-5 0.0
0.00015094278071440054 -1.8188758422585337e-5 0.0
7.459859722246132e-5 -8.597828282992716e-6 0.0
9.89226313827432e-5 -9.115296044196737e-6 0.0
0.000588296503398971 -6.422895645705257e-5 0.0
0.00010678306964463103 -1.7278786677946146e-5 0.0
0.00014272843052439145 -2.2352755179006692e-5 0.0
0.00013322944216713744 -2.1075104494563448e-5 0.0
0.000617769129734803 -3.74518240953769e-5 0.0
0.0003536152991803636 -3.949183043570419e-5 0.0
0.00041490984576235624 -2.7026895207286076e-5 0.0
0.0005061972387197146 -3.950610123826645e-5 0.0
0.000512195236077977 -5.4678526396210374e-5 0.0
0.0005001328164991512 -4.712494829342789e-5 0.0
0.0005071107845087133 -6.364828406611916e-5 0.0
0.0005215926193854859 -7.037779803924637e-5 0.0
0.0005296385270655359 -2.562473521522286e-6 0.0
0.0005406825707539515 -7.875179891161422e-7 0.0
0.0005452488338721264 -2.716978389095345e-6 0.0
0.0005562970402821205 -8.156664344389944e-7 0.0
0.0005516986890948142 6.934127475838318e-7 0.0
4.979911123074893e-5 -7.566068379786412e-6 0.0
0.0005255923401591483 -1.668303806620171e-5 0.0
0.00012902082227044984 1.6627335375391143e-5 0.0
0.00014717804209915387 2.530341105638533e-5 0.0
0.0004485244966834349 -6.191700603273399e-5 0.0
3.981772625847484e-5 -5.929577430652601e-6 0.0
0.0005768751216474869 -3.5844563788716927e-7 0.0
0.0005915759479111651 1.0806387123982e-6 0.0
0.0005804713435286351 1.21276882672858e-6 0.0
0.0006046376330106847 1.084798019306057e-6 0.0
0.0006070488834716886 2.087833478078887e-6 0.0
0.0006211714919489748 1.9278091010427636e-6 0.0
0.00018629137112864344 -2.5249800457467675e-5 0.0
0.00018769446282370273 -2.4443662004079996e-5 0.0
0.00017604376272549392 -2.333660064325997e-5 0.0
0.00018889953254808437 -2.3672891252891583e-5 0.0
0.00020086761282397058 -2.4693222822461578e-5 0.0
0.0002022465327564674 -2.3904116271786348e-5 0.0
0.00021429968805966606 -2.4825418031502518e-5 0.0
0.00021532874309418198 -3.927697813308191e-5 0.0
0.00021582904527305973 -2.3989957055113803e-5 0.0
0.00022786202984406606 -2.482750269420942e-5 0.0
7.758984992958962e-5 -1.1137407063391072e-5 0.0
0.000146934984083714 -1.7970417061988595e-5 0.0
0.00022587709137884628 -2.571470761099864e-5 0.0
0.00017816790215484512 -2.2734312614787948e-5 0.0
0.0005902687879578884 -2.7130950001555367e-5 0.0
0.0005786948199108372 -3.106462007077275e-5 0.0
0.00037602039064483307 -5.299647547128228e-5 0.0
0.00037584919067714756 -5.58808438255778e-5 0.0
0.0004939798973709131 -5.1957337158964936e-5 0.0
0.0003149951772966855 -8.781644335381355e-6 0.0
0.00034171989910048524 -1.5402943868411055e-5 0.0
0.0003672907567437993 -9.966643120346854e-6 0.0
0.00036725558140641377 -2.2832852119322326e-5 0.0
0.0003441520503741442 -2.4864746028516423e-5 0.0
0.0003690202542655531 -3.151146075450295e-5 0.0
0.0003469854262801282 -3.069422168187947e-5 0.0
0.0003708177665526348 -3.4894972797421544e-5 0.0
0.0003489246172227545 -3.259578844660676e-5 0.0
0.00037509039441023474 -3.440743736678672e-5 0.0
0.0003495902081355843 -3.1885690543890174e-5 0.0
0.000370511320095552 -3.197545277766202e-5 0.0
0.0003488680023595821 -3.0189471358957595e-5 0.0
0.00036860099153513537 -2.9860505703866002e-5 0.0
0.00034906095758845097 -2.856527080444186e-5 0.0
0.0003673003956843385 -2.788621126701227e-5 0.0
0.0003484058591834161 -2.690479552986491e-5 0.0
0.0003651602895038774 -2.600928314053618e-5 0.0
0.00034752824495860965 -2.538542787953988e-5 0.0
0.0003633218651142034 -2.4515686033665922e-5 0.0
0.00034643149045266586 -2.410840512730863e-5 0.0
0.00036131800361327674 -2.3239684646624718e-5 0.0
0.0003448150152908137 -2.3038486436850986e-5 0.0
0.0003593665481936139 -2.226918315629e-5 0.0
0.00034321249927842293 -2.2231284851349205e-5 0.0
0.00032754054030223717 -2.2732850428462662e-5 0.0
0.00032621448520692565 -2.2064581808952176e-5 0.0
0.00035835042828279845 -2.1464979951728762e-5 0.0
0.0003304862415923241 -2.5932688975248637e-5 0.0
0.000374450636001974 -2.2177499663756383e-5 0.0
0.00038078620627737147 -2.4633226361521364e-5 0.0
0.00032630262453593625 -2.9457184155501537e-5 0.0
0.00038573662319882986 -2.8720968304257827e-5 0.0
0.0003095216706853939 -2.2366623165257117e-5 0.0
0.0003086055949837301 -2.187702648106545e-5 0.0
0.00032496385368792596 -2.1618220284067712e-5 0.0
0.0003076989506020473 -2.1584257478931173e-5 0.0
0.00032886420427183274 -2.864798335130011e-5 0.0
0.0003932294141018283 -3.360432422498129e-5 0.0
0.0003108059602940597 -2.3106355950755218e-5 0.0
0.0003941415954007683 -3.72004034962107e-5 0.0
0.00032386624926141795 -2.1406182894846205e-5 0.0
0.0003067354386269111 -2.1510717927977978e-5 0.0
0.000290529725086502 -2.158162348024931e-5 0.0
0.00029205359878331516 -2.2559593792482475e-5 0.0
0.0002926645814169529 -2.3386487704259725e-5 0.0
0.0003401768335615402 -2.1267602925569874e-5 0.0
0.00033857032566141847 -2.1172205362687745e-5 0.0
0.00035301978613036755 -2.0814192530821988e-5 0.0
0.00039272707696810273 -2.0213276139454823e-5 0.0
0.00039800656737006153 -7.129317220415144e-6 0.0
0.00029015646844606657 -2.1636978301585565e-5 0.0
0.0002740974456743942 -2.1603103115172308e-5 0.0
0.00027480827864554606 -2.1623955482612284e-5 0.0
0.0002580353743674151 -2.1510872952353316e-5 0.0
0.0004146483999277141 -6.0703578735731225e-5 0.0
0.00040919519618156703 -5.843015364689361e-5 0.0
0.0006915135465249114 -5.3603090516963996e-5 0.0
0.0004373634652650357 -4.494796726332703e-5 0.0
0.0004436273832072536 -4.6865162083365324e-5 0.0
0.0002805658900662416 -3.386517264679051e-5 0.0
0.0002936579727885705 -3.511981094814313e-5 0.0
0.0006061082414372797 -1.6634137125674826e-5 0.0
0.0004459940098770588 -1.9126577138927865e-5 0.0
0.0003062704186734236 -2.166651415499258e-5 0.0
0.0002057445196334779 -3.377547708454222e-5 0.0
0.00020671766703796876 -3.257481634398558e-5 0.0
0.00021552735286702336 -3.264704820845823e-5 0.0
0.00048380588946501566 -9.839381071809103e-6 0.0
0.0004698606641552829 -5.362250233082326e-6 0.0
0.0003491026039215468 -2.9389589114889605e-5 0.0
0.00033978636909092906 -2.995756456565395e-5 0.0
0.00047221275701982824 -1.6280432270179585e-5 0.0
0.0004682987463361438 -1.4580877403299864e-5 0.0
0.00047181389737022665 -1.2266354409273881e-5 0.0
0.0004635582634366945 -1.3356923162867609e-5 0.0
0.00047615328842039514 -1.8930079213815578e-5 0.0
0.0004646204680135969 -5.818761586504867e-6 0.0
0.00046234620393932634 -6.33164543974163e-6 0.0
0.00045248274307990645 -7.848952489100758e-6 0.0
0.00037187539688649754 -2.234890720080665e-5 0.0
0.0003784020534111633 -2.2464725385504763e-5 0.0
0.0003803134284899112 -2.1232468220980565e-5 0.0
0.0003863480283411713 -2.1223453814949605e-5 0.0
0.00038831760907734103 -2.004159187305784e-5 0.0
0.00039406597802149596 -1.991685167351129e-5 0.0
0.0003961524425531008 -1.8706232383397258e-5 0.0
0.00040192922138805365 -1.845810795821083e-5 0.0
0.0003996799408416449 -1.9875547982338422e-5 0.0
0.0004077012713298597 -1.8139961430846706e-5 0.0
0.00043342959215421974 -1.8669614515726594e-5 0.0
0.00042736831610456187 -1.8386533969791953e-5 0.0
0.00041976436154943946 -2.012987274912244e-5 0.0
0.0004216621192256869 -1.8243336714103e-5 0.0
9.741651806174172e-5 -1.5458306830201756e-5 0.0
0.00010122325904124245 -2.073870113961009e-5 0.0
9.476632578911306e-5 -1.8564350918924385e-5 0.0
9.374209494642752e-5 -1.7365273640709356e-5 0.0
8.780310319091776e-5 -1.6461540179686663e-5 0.0
0.00040252046297900286 -2.811418218132919e-5 0.0
0.0004994846070769024 -1.0294709943108404e-5 0.0
0.0004964287408589064 -1.3528731658687546e-5 0.0
0.00025946769191497935 3.459007189545239e-5 0.0
0.0004353375945252479 -1.0270814793644845e-5 0.0
0.0004377033914911512 -1.0098878109279887e-5 0.0
0.0004997155858049249 -6.562946196161099e-5 0.0
0.0007317592943254952 -4.278422597830277e-6 0.0
0.0007462295673555664 -1.8989458330298726e-6 0.0
0.0007568815199380652 -1.9971665431454745e-6 0.0
3.747917128751862e-5 -5.795208441947247e-6 0.0
3.818782956493763e-5 -5.84877930305578e-6 0.0
5.302410174627509e-5 -8.15055414189035e-6 0.0
3.984883083512913e-5 -6.034164969396741e-6 0.0
5.330652805085306e-5 -8.10289840157771e-6 0.0
4.062882527511285e-5 -6.094941719691204e-6 0.0
2.5622188848174247e-5 -3.819947422267544e-6 0.0
0.0003956791560987262 -2.9595323278692577e-5 0.0
0.00020428069032686115 -2.318598602560354e-5 0.0
0.00011290688821487998 -2.3552123482950157e-5 0.0
0.000350965122364511 -2.0838915890108326e-5 0.0
0.0006819965399974323 -6.056961678759048e-5 0.0
0.0006743316835873859 -5.968713660189143e-5 0.0
0.00055478742857536 -2.346223421161925e-5 0.0
0.0005660029095292574 -2.522966154351808e-5 0.0
0.0005673949051811735 -1.834168900668953e-5 0.0
4.839342659663697e-5 -6.510539222250235e-6 0.0
0.0002952338255218089 -4.401076175688179e-5 0.0
0.00018815345000026916 -3.7177752874880196e-5 0.0
2.6698371654836054e-5 -4.613213608415466e-6 0.0
3.554448189746591e-5 -6.356061422641319e-6 0.0
0.0001650436201196882 -2.2323055472031963e-5 0.0
0.0005242336700820295 -8.304657401491629e-5 0.0
0.000540263582469809 -8.593420844117901e-5 0.0
0.0005348817775273761 -2.4898688053914806e-5 0.0
0.0005606095197636206 -3.182868423571707e-5 0.0
0.00026808641369479864 -4.231611842243411e-5 0.0
0.00031967728568669027 -4.7070092897631856e-5 0.0
0.0003288005180146688 -4.6470307146847826e-5 0.0
0.0006318649100723489 -5.162310479197723e-5 0.0
0.0006298385930166968 -5.941433936566482e-5 0.0
0.0006198400496649828 -6.378864203021483e-5 0.0
0.0006805408729921457 1.5529183736261054e-6 0.0
0.000666013407043526 1.7913416787089847e-6 0.0
0.0006496043126239003 1.417882140855701e-6 0.0
0.0006503774170626414 2.098379165179646e-6 0.0
0.0001412529069163301 -2.1206078825745966e-5 0.0
0.0006229620876827785 2.7067288955754057e-6 0.0
0.0006066961682772029 2.889266198008643e-6 0.0
0.00044502865716636146 -4.336435846905525e-5 0.0
8.85182250824975e-5 -1.758511589897334e-5 0.0
8.198198123949486e-5 -1.569566096794227e-5 0.0
8.065597082961134e-5 -1.4602246774441329e-5 0.0
7.458133903776331e-5 -1.3706731194932646e-5 0.0
0.000760271147684959 -7.029462896500387e-7 0.0
0.0007300355770454042 1.2532459222763475e-6 0.0
0.0007452987327244692 1.0611616646638794e-6 0.0
0.0005966242128865929 -6.868535155257775e-5 0.0
0.0003538184933330874 -2.4086582234088802e-5 0.0
0.0006389872842905583 -5.636149580080601e-5 0.0
0.000637448531367807 -6.431049704051473e-5 0.0
0.0006457201183345867 -6.138243744649514e-5 0.0
0.0006453374182572596 -7.034404619933325e-5 0.0
0.0006532077334958108 -6.597103267500381e-5 0.0
0.000654030720470795 -5.798768763685347e-5 0.0
0.0006607325885880437 -6.281633869746088e-5 0.0
0.000380400027453905 -5.720601908049911e-5 0.0
0.0003762608403969835 -5.740646216844694e-5 0.0
0.00037035652363109174 -5.6151301768957104e-5 0.0
0.00028998692131428316 -2.1922414657001902e-5 0.0
2.9023882467705487e-5 -4.307301731295342e-6 0.0
4.090288012325325e-5 -6.120358187012952e-6 0.0
2.9717889559103672e-5 -4.474184680023271e-6 0.0
0.00025957205211636105 -4.4636524615767546e-5 0.0
0.0002505306671838617 -4.177748328653696e-5 0.0
0.0007136701048229102 -4.6891401922780684e-5 0.0
7.690588090340261e-5 -6.12844687763601e-6 0.0
0.00041420391240577873 -2.0113368341000193e-5 0.0
0.00041647724123259494 -1.8218204330453498e-5 0.0
0.0006747204019498467 8.703566537756289e-8 0.0
0.0007054286364203401 5.921728580323314e-7 0.0
0.0006293833847567491 -3.356920644300641e-5 0.0
0.00013559405487419807 -2.6946084045994688e-5 0.0
0.00013665602976305265 -2.883162002788897e-5 0.0
0.0005220940979330215 -2.558996742630725e-5 0.0
0.0006183789469791475 -5.64912761545639e-5 0.0
0.0007335663231386751 -3.460983404293354e-5 0.0
0.0007497990798587788 -2.136370838072509e-5 0.0
0.000759559193641136 -1.0698692355298872e-5 0.0
0.0005888877666648957 -6.773829913670702e-5 0.0
0.0006031229602418175 -2.2988778012939962e-5 0.0
0.00037082665870858506 -4.82755399082977e-5 0.0
0.0006185965227048451 9.73615175919211e-7 0.0
0.00057929041257083 -2.522073979446027e-5 0.0
0.00025222524686211795 -3.190358213543591e-5 0.0
0.0001406329798590396 -2.5935306518241607e-5 0.0
0.0006968850396476666 1.391012038466127e-6 0.0
0.0006067920385569138 -4.2779064702847374e-5 0.0
0.0002495145006720371 -4.5820365336840856e-5 0.0
0.00012801589138802886 -1.9803743075853863e-5 0.0
0.0004315224162592918 -1.0949836800365994e-5 0.0
0.0005799649622986315 -6.112098268886561e-5 0.0
0.0005793333763504564 -6.843029867145383e-5 0.0
1.8542187467084817e-5 -3.1472373243107387e-6 0.0
0.0004555559140127111 -6.0829618465780294e-5 0.0
0.00045386889238988905 -6.410365522788864e-5 0.0
0.00032912578937766435 -5.232051857294273e-5 0.0
0.0003381953835219744 -5.115154570997454e-5 0.0
0.0003368667191051599 -4.589623365717084e-5 0.0
0.0003450520231650215 -5.064127359423477e-5 0.0
0.00033843932732323287 -5.417685040042514e-5 0.0
0.0003122388882825108 -2.4085330573918862e-5 0.0
0.00029381643254550253 -2.4356110027827424e-5 0.0
0.0001284954624339284 -1.6859866781950877e-5 0.0
0.00032401993026631503 9.115685939873983e-5 0.0
0.00030913517273848366 6.626942675520345e-5 0.0
0.0004901642529205827 -3.5830288613560406e-5 0.0
0.000564339567405421 -7.036139749179989e-5 0.0
0.0005565655654436783 -7.350737105799698e-5 0.0
7.495242416324e-5 -1.4679421475441475e-5 0.0
6.754757141888393e-5 -1.2623167399630537e-5 0.0
0.0007521894571409106 8.406725497919636e-7 0.0
0.0001348690161613402 -2.1612328024693314e-5 0.0
0.0001241807866087642 -2.0144208648125702e-5 0.0
0.0007283608962072195 -5.298131377803025e-7 0.0
0.0007030479416220582 -4.503363666612526e-5 0.0
0.0006976757139647322 -5.780051770072007e-5 0.0
0.00043783289934352313 -1.002676555027749e-5 0.0
0.0004734077399030691 -6.501701645691315e-5 0.0
0.0004655234993635993 -6.685248141614273e-5 0.0
0.00023849806831906115 -2.557374894285699e-5 0.0
0.0002413538404477204 -2.4649338994432884e-5 0.0
0.0003438239562742087 -4.5637732644744674e-5 0.0
0.000637037924105818 -4.495475940918957e-5 0.0
0.0004040744309567234 -1.723542183804539e-5 0.0
0.0003989521671944195 -1.7551590077718833e-5 0.0
2.077038306208534e-5 -3.5797022875731035e-6 0.0
0.00034057651897735777 0.00016738425364886149 0.0
0.00038215547063040695 -2.0190668296319337e-5 0.0
0.0002746815152540065 -2.266327976521946e-5 0.0
0.00027497533495275277 -2.212539120897774e-5 0.0
0.0001663858744079102 -1.888804552062158e-5 0.0
0.00047237220100323764 -4.890459248749124e-6 0.0
0.000363426465283585 -2.0256280893816186e-5 0.0
0.00036594069939083787 -2.0280922143838887e-5 0.0
0.0003748222854414794 -1.9508241493602652e-5 0.0
0.0003772017262589014 -1.9566943745030046e-5 0.0
0.0003849968808500728 -1.8625199701604248e-5 0.0
0.0003876178149730813 -1.8615010412387753e-5 0.0
0.000379646992492345 -1.9712161254184556e-5 0.0
0.0003903275844603078 -1.8877304901770026e-5 0.0
0.000382274405809029 -2.0167580183492136e-5 0.0
0.0003933154620413473 -1.9399356005259054e-5 0.0
0.00039413467930379397 -1.7568543481302177e-5 0.0
4.214678918180167e-5 -6.45847579044153e-6 0.0
0.0004591793998737778 -7.311866270562678e-6 0.0
0.00035707748131267594 -2.3075417626020553e-5 0.0
0.0003925362069296985 -3.1694826634444094e-5 0.0
0.0004213248216330949 -4.032807969379656e-5 0.0
0.00041736548126471043 -3.936672303849717e-5 0.0
0.00041794007928682396 -3.178396486908436e-5 0.0
0.0003955567153531832 -3.693605858035824e-5 0.0
0.0004167594574216267 -3.672867921187925e-5 0.0
0.0004397169487951985 -3.7611537899035016e-5 0.0
0.0004430792946365986 -3.973060003198457e-5 0.0
6.578342080846516e-5 -1.016835738027668e-5 0.0
6.648800019750325e-5 -1.0195386381336189e-5 0.0
0.000754021293366865 -1.1857716168133542e-6 0.0
0.0007184600099793379 -3.7899861540019483e-6 0.0
0.0007207955795715262 -4.2674333450449945e-6 0.0
0.0005424822029473783 -7.257470459449986e-5 0.0
0.0005335508044820444 -7.432255914070635e-5 0.0
0.0002068315098811372 -3.145157005735505e-5 0.0
0.0002159511188484821 -3.16301640318164e-5 0.0
0.00019762662999260933 -3.128536204263514e-5 0.0
0.00025721482182667103 -2.202519581709161e-5 0.0
0.0004405248389888653 -4.180315149337265e-5 0.0
0.0004008736308151093 -1.7853064950587707e-5 0.0
0.0004034707212378194 -1.8489107655919998e-5 0.0
0.00039636475304915777 -2.019366657186002e-5 0.0
0.00040629153681057606 -1.9349472052255453e-5 0.0
0.0003998521397520636 -2.1067289268055466e-5 0.0
0.00020742011909368152 -3.746570180552786e-5 0.0
0.0007575730739342494 -1.5296714032454994e-6 0.0
0.0004249944661433179 -1.8563367665769698e-5 0.0
0.0004858590486576365 -3.97457714177475e-5 0.0
0.0004835464638651562 -2.7717690914134857e-5 0.0
0.0004811518535163223 -2.9080921760088673e-5 0.0
0.00028551006726206625 -2.159779121044691e-6 0.0
0.0004132767137095966 4.097014753083857e-5 0.0
0.0003759985201523896 4.62090665824137e-5 0.0
0.00036975840088756813 6.18819490139341e-5 0.0
0.0005777175179457144 -9.548697875845777e-5 0.0
0.0006081258434208311 -6.575429325341269e-5 0.0
0.0006056288075779779 -7.502507757494565e-5 0.0
0.0001954834405460199 -3.952946253033358e-5 0.0
0.0003512716352138403 -5.0300110189277234e-5 0.0
0.0003519957868816937 -5.415690115429147e-5 0.0
0.000357677584456146 -5.3812384078707165e-5 0.0
0.000358485385498425 -5.582169688644778e-5 0.0
0.0005320096754961335 -2.9888876481933977e-5 0.0
0.0005185018461316491 -2.4393475144870614e-5 0.0
0.0005322063602283996 -2.11980001844031e-5 0.0
0.0005469424785021493 -2.5186444629508232e-5 0.0
0.0004241709882939076 -1.6480529107733245e-5 0.0
0.00041981820404631156 -1.6365712359666172e-5 0.0
0.00036359682725861235 -5.544574434724167e-5 0.0
0.00025976858356997236 -2.168205730944075e-5 0.0
1.609867681282917e-5 -2.7267012372556026e-6 0.0
0.0003889407774287799 -3.120659723984589e-5 0.0
0.0004039075099952191 -2.941175906862069e-5 0.0
0.0004006176331431487 -2.6992323738656053e-5 0.0
0.00041660274809457486 -2.6842632338118406e-5 0.0
0.00041225762170736335 -2.470621206347951e-5 0.0
0.00042038440248837525 -2.925129536338095e-5 0.0
0.00039931855731310584 -2.493826632063261e-5 0.0
0.0004086926054784059 -2.2968667676571418e-5 0.0
0.00042981210522060134 -2.6190762876091645e-5 0.0
0.0005068129315655009 -2.7561835464887304e-5 0.0
0.0003970304438132412 -2.3386811290030276e-5 0.0
0.0007659888836810225 5.174564793699544e-7 0.0
0.0003367939550033796 -2.1330859362353075e-5 0.0
0.00037853824782054684 -4.6213092935024584e-5 0.0
0.0003840564376400191 -4.549198065430457e-5 0.0
0.00040840391996133053 -3.1934908477873946e-5 0.0
0.00042666773921768624 -3.1752712703976636e-5 0.0
0.0004361271092107254 -1.6608392940399542e-5 0.0
0.0005274874142803282 -5.7920831282237146e-5 0.0
0.0005198545447886561 -6.108959955871066e-5 0.0
0.0005198048791132571 -6.67491563638501e-5 0.0
0.0005131733918927115 -6.389138349001831e-5 0.0
0.0005135522696180176 -6.897387865324205e-5 0.0
0.0005066428253585743 -6.631187963926857e-5 0.0
0.0005968165689452095 3.1252918928865976e-6 0.0
0.0005834992288675674 3.391864201653317e-6 0.0
0.0005892303768043459 3.7062822553701e-6 0.0
0.0005711607674727945 3.1592235744811684e-6 0.0
0.000576060624682931 3.1834436644770827e-6 0.0
0.0005589578937648116 2.5099918199604326e-6 0.0
0.0005638558923589255 2.3366832537945297e-6 0.0
0.0005543270662114587 2.4038101240115845e-6 0.0
0.0005431879382909731 1.6843854386249456e-6 0.0
0.0005806331655589288 2.9351828862254957e-6 0.0
0.0005388333137845679 1.5223651471177326e-6 0.0
0.0005680320867370347 1.8964962327750826e-6 0.0
0.0005527911464535908 1.1657716998893487e-6 0.0
0.0005559999773305115 4.72596090188804e-7 0.0
0.0005498309432336148 1.9841978537222084e-6 0.0
0.0005774350378942243 2.5551920134195903e-6 0.0
0.0005850941215076906 2.421371627484439e-6 0.0
0.0006101776204337753 4.003448025856336e-6 0.0
0.0005971704473420801 3.3028111524481844e-6 0.0
0.0004649831970515697 -1.7449965862491314e-5 0.0
0.00038205060423571224 3.059439554846124e-5 0.0
5.537631053472885e-5 -8.352326139316258e-6 0.0
4.3239339605487616e-5 -7.597564601817839e-6 0.0
5.185937984366524e-5 -9.465698219357336e-6 0.0
0.0003635053132647909 -5.281132638210726e-5 0.0
0.0004430031621553073 -1.7013636005158022e-5 0.0
0.00045871410629193254 -1.069575790284119e-5 0.0
0.00045046741548625735 -1.18152419763123e-5 0.0
0.0004544317816300906 -1.248661090301887e-5 0.0
0.0004477763293120405 -1.094977727970597e-5 0.0
0.00045250883543349144 -9.320881130272526e-6 0.0
0.0004445174420943496 -1.04447794886872e-5 0.0
0.0004413650154718811 -1.0234985508473404e-5 0.0
0.00043742027119190975 -1.1525893869910631e-5 0.0
5.9448576654315015e-5 -1.0150926441933361e-5 0.0
0.00048821352843644357 -8.61316012396806e-6 0.0
0.0005580197378296822 -7.609788448606596e-6 0.0
0.000539566265909672 -9.310081845071204e-6 0.0
3.624539950121755e-5 -1.4221615523520174e-6 0.0
8.711091034875266e-5 5.039531498107458e-6 0.0
7.750231226591422e-5 -5.902348569394388e-7 0.0
0.000488790908984174 -4.3770068328162535e-6 0.0
7.700345358684325e-5 -1.3064996406994962e-5 0.0
8.647484937413378e-5 -1.5352416499079e-5 0.0
9.298994538115548e-5 -1.646712488837053e-5 0.0
9.351241839355295e-5 -1.5835725468543322e-5 0.0
0.00010008239483813701 -1.6799425152156664e-5 0.0
0.0003771084353314087 -2.3230087252859647e-5 0.0
4.9415060102842984e-5 -7.178212313827377e-6 0.0
0.0001696524420223139 -2.1224885196291533e-5 0.0
0.00014028273973860125 -2.0025850149896565e-5 0.0
0.0004311690957805761 -3.4653691092966195e-5 0.0
0.0001899974980842454 7.472948428915627e-5 0.0
0.0005092766632832385 -5.663419080734479e-5 0.0
0.00047756205619860995 -9.147472912860763e-6 0.0
0.00071988584244838 -4.771861008520254e-5 0.0
0.0005482761662813037 1.585325573403528e-6 0.0
0.0005331263200781881 6.672737118827652e-7 0.0
0.00052665540015492 -7.040215273247343e-5 0.0
0.0007689864045972344 6.915625698840264e-7 0.0
0.0007420195969447259 1.5200440138527118e-6 0.0
0.0007477055019278478 1.3173100639619936e-6 0.0
0.0007374781580753667 1.500567378221538e-6 0.0
0.0007189957634241716 2.1996149862736954e-6 0.0
0.0007343343434385373 1.0965108406088464e-6 0.0
0.0007063617216727504 2.2163238871078758e-6 0.0
0.0007118702332553707 2.40473229778725e-6 0.0
1.2234829181121802e-5 -1.879728250434665e-6 0.0
0.0007813947952518774 3.274161142807225e-7 0.0
0.0007623602490284499 6.266587723565657e-7 0.0
0.0007729360292946819 4.927427387679139e-7 0.0
0.0007644124771961836 5.291446356490304e-7 0.0
0.0004823291753516091 -2.047358077966799e-5 0.0
0.000549920717398126 -6.893964040065014e-5 0.0
8.958697164018153e-6 -1.424572935670406e-6 0.0
0.0007857349477464723 -1.7832382302560313e-7 0.0
0.0003178199451798547 -1.881965515783617e-5 0.0
0.0005834183072105025 -1.0186291400147461e-6 0.0
0.0002567318420055319 -2.4573877564669502e-5 0.0
0.00027939036218927837 -2.6169815676833246e-5 0.0
0.00028111164988072054 -2.6717857006612555e-5 0.0
0.0002771715851272298 -2.510065265931241e-5 0.0
0.0002969978131265341 -2.637264506760514e-5 0.0
0.00030458683731365995 -2.786082172495353e-5 0.0
0.00030529302995269104 -2.8511565098154548e-5 0.0
0.0002838473677016128 -2.5946768270826563e-5 0.0
0.0002655370413029158 -2.152334792169385e-5 0.0
0.0002569848228046247 -2.3634895261709192e-5 0.0
0.000629769972162878 -6.754302411480144e-5 0.0
0.0007663620170941382 -3.992813940331081e-7 0.0
0.0003439355837937125 -4.312946245632867e-5 0.0
0.00010822816506616772 -2.342385017337639e-5 0.0
0.00036926624496628156 -4.603186221879546e-5 0.0
0.00027909144714586404 -4.080836291354253e-5 0.0
0.00027873183971814923 -4.5285755461139715e-5 0.0
0.00041306203495815883 -1.7466192246359374e-5 0.0
0.00048558278032441535 -3.3442778241541112e-6 0.0
0.0006591150894504458 -1.5298633293090896e-5 0.0
0.0006618107248044091 -1.1748865375657665e-5 0.0
0.0006343806681494558 -1.4314004775427324e-5 0.0
6.664482311783222e-5 -1.0360748886761319e-5 0.0
0.0001022014132472652 -2.259562543955381e-5 0.0
0.0003889613323351073 0.00012253104248692332 0.0
0.0003479607431715279 0.00012527137731141054 0.0
0.0006147107033402187 -5.435361315062064e-5 0.0
0.00037518907955529025 6.8115461649376825e-6 0.0
0.0006798798740129654 -3.6976104008246554e-5 0.0
0.0003682574678371532 -3.835256097324159e-5 0.0
0.0005974865193513826 -8.032181041992372e-5 0.0
0.0006042933812692869 -6.885258188720003e-5 0.0
0.00029210551516158697 -2.0750296376481286e-5 0.0
0.00018817471314197198 -4.06671233295297e-5 0.0
0.0006745112687522822 -4.9650508306713304e-5 0.0
0.00011822163774487943 -2.4025373853304093e-5 0.0
0.00012348065944000093 -2.575574017125274e-5 0.0
0.00011963026721235485 -2.6099714078989273e-5 0.0
0.00020358183080343173 -2.174399798575853e-5 0.0
0.00044524193184248325 -9.019396111159125e-6 0.0
0.00047918352517441394 -5.00452356635324e-6 0.0
0.00034192507581107376 -2.1626275811859106e-5 0.0
0.0003550875368688266 -2.09805650137541e-5 0.0
0.0007587421820284283 -1.4766200835962173e-6 0.0
0.0007241398662806733 -6.079617220587503e-6 0.0
4.71511016365177e-5 1.6711463064192498e-6 0.0
1.1951285770647666e-5 -1.810309795901664e-6 0.0
0.00039728301955472694 -1.7600600897281387e-5 0.0
1.6678296755282106e-5 -2.6247872852794774e-6 0.0
4.082485760599089e-5 -6.128970945269343e-6 0.0
0.00036658584988427765 -4.4251989561617084e-5 0.0
0.0005687790535036292 -9.985876073689648e-5 0.0
0.0004225459527786175 2.6087011296038892e-5 0.0
0.00045836882217308267 -1.504123710945892e-5 0.0
0.0004110053725218407 -2.0010052478932935e-5 0.0
0.0005806269457413879 -1.2621478354772324e-5 0.0
0.0007112136191058137 -3.212260168332057e-5 0.0
0.00024163663383013875 -3.19425811334752e-5 0.0
0.00024122444470352618 -3.29065277428259e-5 0.0
0.00023176669502543827 -3.174024577434915e-5 0.0
0.0002219462626244765 -3.055717379051181e-5 0.0
8.91755549962331e-6 -1.4720548583791934e-6 0.0
1.7076355174704623e-5 -2.7892409123931636e-6 0.0
1.9908492175209892e-5 -3.096195641459723e-6 0.0
0.00021317712048954528 -2.569359631288038e-5 0.0
0.00020042472393458466 -2.566549457008544e-5 0.0
0.0007829196085156467 3.1244947524013614e-7 0.0
0.0004091261467648021 -6.203735064426241e-5 0.0
0.00040389939370120455 -5.961117010232397e-5 0.0
0.0004040702493950324 -6.335706884895385e-5 0.0
0.00039916769083511814 -6.053344824515964e-5 0.0
0.00039468938446191715 -6.0876930490194875e-5 0.0
0.00039378676896674924 -5.803795558981165e-5 0.0
0.0004038938742565182 -5.623595550624982e-5 0.0
0.0005897000179205644 -7.816013547877071e-5 0.0
0.00011218323335305526 -1.533471335791328e-5 0.0
0.0001254129341472737 -1.69660701476399e-5 0.0
0.0001115555926732864 -1.5863966408419368e-5 0.0
0.00046781584974792746 -1.3136573023777594e-5 0.0
0.00026164437078563516 9.165068467148904e-5 0.0
0.0004047984024883474 -1.9864991861169543e-5 0.0
1.6820492556925868e-5 -2.6848979453006907e-6 0.0
0.00024222114654166813 -4.2782520583237025e-5 0.0
0.0002335197286689585 -4.328938191944193e-5 0.0
0.0002362479967471305 -4.0209284771882176e-5 0.0
0.00027921405072935264 -3.7852610547053286e-5 0.0
0.00024354213293558777 -3.0714849989449117e-5 0.0
0.00011620886166762563 -1.8565801814285326e-5 0.0
7.620412049326859e-5 -1.1851606328971437e-5 0.0
0.000773848219688906 5.975835607283641e-7 0.0
0.000753739288312042 1.065866532458965e-6 0.0
0.00014888864474268571 -3.084899727759797e-5 0.0
0.00018011511843863797 -3.492769212540116e-5 0.0
0.0001721740815787355 -3.5272515370647915e-5 0.0
0.00016406362494745703 -3.294772901972943e-5 0.0
0.0001640660272283698 -3.564486169881436e-5 0.0
0.0005484335508807638 -0.0001069400221372405 0.0
0.0004437099965166768 -6.427888271647092e-7 0.0
0.00048064359486284756 -6.362588534703813e-5 0.0
0.0004874092432090151 -6.698077856276196e-5 0.0
0.0004940571347248326 -6.542027030273199e-5 0.0
0.000479791407232396 -6.907366857087106e-5 0.0
0.00026339877360582293 -3.1963392642543064e-5 0.0
0.000426103226703352 -4.159369082130055e-5 0.0
0.0004011050836553015 1.795088030713755e-5 0.0
0.0003825195952543959 -2.6414140483748574e-5 0.0
0.0007860052802639493 -5.301535246042902e-7 0.0
0.0007734152673171439 -2.823828618019657e-6 0.0
0.0007689582680456339 -1.7061373849836485e-6 0.0
0.0001564341959267245 -3.31048354416415e-5 0.0
0.00014939308701066736 -3.332611763546711e-5 0.0
0.000272154697709496 -2.3541577009957735e-5 0.0
0.00021164496520425152 -3.0382422256006153e-5 0.0
0.0007066106893249377 -8.22025889320311e-6 0.0
0.0006355980894793983 -4.127714720790833e-5 0.0
0.00039080591604387984 -1.7734924702104398e-5 0.0
0.00039940398087637643 -1.659684784108102e-5 0.0
0.0005064438378793791 -7.259123823888974e-5 0.0
0.0005369497483093576 -4.9313443439691054e-5 0.0
0.000361326002017728 -3.898949005617269e-5 0.0
0.0003611370458229909 -4.1133612546833745e-5 0.0
0.0001044484239043512 -3.3760078697584833e-6 0.0
0.0001914304214237074 -2.9652199811589095e-5 0.0
0.00018160519433805565 -2.9142575583353887e-5 0.0
0.00017237477505732449 -2.770144019995845e-5 0.0
0.00017207227795490676 -2.8733766237562428e-5 0.0
0.00016877238095307326 -1.904937375498129e-5 0.0
0.00017117995470586662 -1.9512276735070967e-5 0.0
0.00018496869818695325 -1.9738248264842928e-5 0.0
0.00048704471445477936 -7.26671016538514e-5 0.0
0.00046472417973456145 -4.3893473188357456e-5 0.0
0.0004560008280217844 -4.580955057815294e-5 0.0
0.000465107764768599 -4.945958382078183e-5 0.0
0.00045639168722809106 -5.117608648739953e-5 0.0
0.00046285032849117307 -5.383045728258781e-5 0.0
0.000473051384540738 -4.672313312362366e-5 0.0
0.00048093732525865044 -4.924797422972959e-5 0.0
6.9356114624672365e-6 -1.2258586815285237e-6 0.0
0.0007868326194116553 -1.6409836544685033e-6 0.0
0.0006110724613057267 -5.802556802955086e-5 0.0
0.00044133877534850935 -6.309203624320696e-5 0.0
0.0007234934486300869 -5.5641687399904215e-6 0.0
0.0004280134141387933 -5.781714286687761e-5 0.0
0.0004274816651415278 -6.180763120015368e-5 0.0
0.0005408634858268633 -1.9318754124296694e-5 0.0
0.000493546852596782 -7.618208688619938e-6 0.0
0.00048622203868600315 -7.504568832768572e-6 0.0
0.00025007860986102316 -3.675329740248286e-5 0.0
0.0001463382275764775 -2.5129076456878117e-5 0.0
0.0005407506270487698 -4.9115617373785e-7 0.0
0.0005793526948191835 -5.395028310767434e-5 0.0
0.0002964387541826527 -2.686028098122642e-5 0.0
0.00031072620380181114 -2.653539407808758e-5 0.0
0.0003088049294710182 -2.778225652520217e-5 0.0
0.0003129866409611965 -2.5413409402350036e-5 0.0
0.0002943295283719959 -2.8115814597297955e-5 0.0
0.0003233876585845334 -2.6363040286229795e-5 0.0
0.00032607513677149674 -2.5268317323418978e-5 0.0
0.00033049000026452713 -2.4119703623900834e-5 0.0
0.0005817168329711735 -4.7352865847656285e-5 0.0
9.643823098469153e-5 9.122939879353741e-6 0.0
0.0005284887853238822 7.221494598191651e-7 0.0
0.0005675733420063986 -1.2247006443772467e-5 0.0
0.0002039750161916499 6.801127579127192e-5 0.0
0.00013392418833275589 -1.7113798101882786e-5 0.0
0.00018913723815101077 -2.0144120319600863e-5 0.0
0.00013000534396731723 -2.2824604659412255e-5 0.0
0.0002996472350892734 -2.4694155811753695e-5 0.0
0.0002297384953563477 -2.393477091277963e-5 0.0
0.000246818826327007 -2.3785987587336905e-5 0.0
0.0002558392092831088 -2.4542338231346065e-5 0.0
0.00038463194592785273 -5.687324238337884e-5 0.0
0.0003893788034859154 -5.835338047613228e-5 0.0
0.0003901595143306304 -6.126020509964898e-5 0.0
0.00039393973184356063 -5.545764271110691e-5 0.0
0.0005680860629779293 -5.604238472548726e-5 0.0
0.00032252064958423603 -2.1438035483013863e-5 0.0
0.0005262849797050844 -1.1737570798094769e-5 0.0
0.00027973396608040697 -3.693388794057857e-5 0.0
0.00040428470616459656 -5.296879842568673e-5 0.0
0.0003073660821769711 -4.815613110861635e-5 0.0
0.0006858194895098659 1.9595316379132755e-6 0.0
0.00039772659959301233 -2.140591573946218e-5 0.0
0.00010696161561517763 -1.7071096792702284e-5 0.0
0.00031785185133610525 -3.507713989772077e-5 0.0
0.00032845662472859164 -3.666232322660505e-5 0.0
0.00029118229630548494 -3.2195485496976754e-5 0.0
0.0003183405173539673 -3.972174673317935e-5 0.0
0.0004405531678016904 -2.7119754814851413e-5 0.0
0.0004322982702685646 -2.9033803701123727e-5 0.0
0.0004388424308963302 -3.0008691282677766e-5 0.0
0.0005245274902019363 5.183257687552604e-7 0.0
0.00036870740276292763 -3.6196317351735545e-5 0.0
0.00026727488370803596 -3.0112543680450682e-5 0.0
0.0004464198764370387 -8.536339114878876e-6 0.0
0.0004430980226196501 -9.450680539362867e-6 0.0
0.00010809504240768491 -1.8582094111061076e-5 0.0
0.00020752449369684412 -3.55090686015515e-5 0.0
0.0004945178725929162 -6.0495379161747446e-5 0.0
0.00046159351820583664 -1.1597205732420463e-5 0.0
0.00040255357075005116 -3.907367785583839e-5 0.0
0.00039629201629413327 -4.0552028598409584e-5 0.0
0.00039543541238719153 -4.342181789024839e-5 0.0
0.00039028533839806443 -4.1843180755116325e-5 0.0
0.0003896963699809746 -4.4627007533206384e-5 0.0
0.0004005942076770321 -4.493573980338748e-5 0.0
0.00048114993003812393 -1.080481040638211e-5 0.0
0.0003485942681061188 -3.0968440577814485e-5 0.0
0.0003398269872327849 -3.147748274391757e-5 0.0
0.0004277608546887341 -2.5627115630938252e-5 0.0
0.00027692350199761534 -3.235985585087209e-5 0.0
0.00042089583278687544 -6.333212841425792e-5 0.0
0.0003541836979095714 -3.749026412266341e-5 0.0
0.00039114890806841985 -3.9162417405337455e-5 0.0
0.0005197389752185179 -7.241670922801367e-5 0.0
0.0003767267751578915 -2.3827165366687074e-5 0.0
0.0007177716162335934 1.2230243614098747e-6 0.0
0.00039439146599951676 -3.1797680344298436e-5 0.0
0.00018410551553193374 -2.6005670343039967e-5 0.0
0.0004568170485729279 -2.3547728597993146e-5 0.0
0.0005115304077932769 -5.13972219395679e-5 0.0
0.00068933850527262 -8.470977433950039e-6 0.0
0.00014000565201824908 -1.6702304253792015e-5 0.0
0.0001450454641259194 -1.5096132242109111e-5 0.0
0.00015964378742153968 -1.870006215941426e-5 0.0
0.0001691949152294548 -1.8000449416029948e-5 0.0
0.00018425776703573393 -2.0182185278736544e-5 0.0
0.0005189442485075696 -3.7743524446586614e-7 0.0
0.0003462914287960193 -5.4686987011041174e-5 0.0
0.0003844650544232748 -2.2644325929751526e-5 0.0
3.3227760299174264e-5 -5.079287254393571e-6 0.0
0.0003977742947368248 7.572233710821116e-5 0.0
0.0003594004386602321 8.025897356456873e-5 0.0
0.0005087859531908335 -1.929200562163716e-5 0.0
0.000336431448327507 -4.178656451700667e-5 0.0
0.0003713854362992926 -5.404199835736243e-5 0.0
0.0003499262570048982 -2.1131725398705894e-5 0.0
0.0004218172967715814 -2.5029842944725042e-5 0.0
0.0004156416468796758 -2.4425160562356163e-5 0.0
0.00041810279319256946 -2.2071190966856013e-5 0.0
0.00047904060142168954 -2.2722459722265312e-5 0.0
0.00031845892967809973 -3.674991066807924e-5 0.0
0.00021768126047534057 -2.31912424606202e-5 0.0
0.0003306881588423995 -2.8712306680910873e-5 0.0
5.23699128547257e-5 -7.931098800258904e-6 0.0
0.00042779420288823877 -1.1582498894790644e-5 0.0
0.00016370915431182913 -3.104869073029696e-5 0.0
0.0004094859447628419 -2.6482917170899573e-5 0.0
0.000250228970589668 -3.854493933377757e-5 0.0
0.0005103693377653752 -7.517608011456604e-6 0.0
0.0003853783052550723 -2.8156286528019897e-5 0.0
0.0003845484251982508 -4.292648026113548e-5 0.0
0.000653694905169654 -1.881487236627675e-5 0.0
0.00014281720805107536 -3.084175923077559e-5 0.0
0.0007262422466365983 -4.9778626925699326e-5 0.0
0.00034381588079933237 -2.429723761626247e-5 0.0
0.00038275322548459345 -3.215825338400552e-5 0.0
8.666630384760661e-5 -1.36035854708173e-5 0.0
0.0006491741734105637 5.280232050530368e-7 0.0
0.0004176400730039856 -4.6489888479586074e-5 0.0
3.315339823766009e-5 -5.100104621258616e-6 0.0
0.0004118125806043978 -1.5689542377719938e-5 0.0
0.0004098603997729075 -1.6774047916423276e-5 0.0
0.0007074489948848681 2.348120647517325e-6 0.0
0.00041520053805380524 -6.490831405885208e-5 0.0
0.00013833423714535356 -2.453855791635272e-5 0.0
0.0007508919291748525 -5.179821624966651e-6 0.0
0.0004123303129081533 -2.1828597998550717e-5 0.0
0.00039224906043955517 -2.6888662272239616e-5 0.0
0.00044974351061157413 -3.98760294891896e-5 0.0
0.00044229901335385166 -3.8066637980357384e-5 0.0
0.00042044510717018644 -4.0016488346440425e-5 0.0
0.0003827135760050155 -2.4178622870440946e-5 0.0
0.00042996072000409206 -6.821967434138187e-5 0.0
0.0004601964589280393 -7.194645154984305e-5 0.0
0.0003621780999301949 -5.655470056820556e-5 0.0
0.00037924483415728284 -5.9232755966401265e-5 0.0
0.0005041882795749637 -7.619673647042883e-5 0.0
0.0005005049342299152 -6.96487841106353e-5 0.0
0.0002793236508806513 -4.940515840100947e-5 0.0
0.00021263894364885206 -4.4469526345907056e-5 0.0
0.000444762838996102 -7.0060093458424e-5 0.0
0.0003129911054807409 -5.2246954007214245e-5 0.0
0.00036277495010089445 -2.193487423511958e-5 0.0
0.0006267536325350809 3.3340766623947455e-6 0.0
0.0005107108799406876 -2.844435693335505e-5 0.0
0.000508237419667543 -3.3126083151507145e-5 0.0
0.0003072995042814671 -2.923012909279552e-5 0.0
0.0004528647087292801 -1.9715262853876255e-5 0.0
0.00038453374391635094 -4.802020701598408e-5 0.0
0.000196332950554267 -3.3091001173943374e-5 0.0
0.0001534173967633994 -2.370242365976363e-5 0.0
0.00035793429757747814 -2.86799553729941e-5 0.0
0.0006456690824896664 -1.0002393100615952e-6 0.0
0.00032683453092900765 -2.976269221651624e-5 0.0
0.00039211968643584915 -2.130196183251188e-5 0.0
0.0004261256630887804 -2.832805978445537e-5 0.0
5.96702049810265e-5 -1.0760606254406864e-5 0.0
6.009411946709428e-5 -1.149587912893511e-5 0.0
0.00035292639182254933 -4.1437466301072336e-5 0.0
0.0002942101791473239 -3.6409671929526095e-5 0.0
0.0003997898852886018 -3.267634803378352e-5 0.0
0.0007188386138764319 -5.117307010343429e-6 0.0
0.0004094847906038436 -5.481373735177105e-5 0.0
0.0007680124789610502 -9.154423429625502e-6 0.0
0.0007547738750959534 -2.225517405731895e-5 0.0
0.00024362378537247113 -2.1447417747833728e-5 0.0
0.00036402080256598573 -3.1211454992740055e-5 0.0
0.0003746010933454471 -3.75378064874746e-5 0.0
0.000730496725410234 -5.706297962982133e-7 0.0
0.0004594529903863814 -3.860740666828152e-5 0.0
0.0004889313641283906 -4.7609948367762506e-5 0.0
0.0004993200728016659 -3.542762714824298e-5 0.0
0.0002093451851289472 -4.0518076696814475e-5 0.0
0.00046355226530825556 -2.7175420279914728e-5 0.0
0.0003659649861447251 -2.7854289319409374e-5 0.0
0.0004821164418617758 -2.28704442607888e-5 0.0
0.0004799889783395826 -2.636689033768827e-5 0.0
0.0004916306927987479 -2.0528210395330617e-5 0.0
0.0001713196296310266 -3.860904409334146e-5 0.0
0.0005699976700243061 8.662554625876e-7 0.0
0.0004340319655228393 -6.484799573827379e-5 0.0
0.0006147613638393674 -7.130012999358085e-5 0.0
0.0005361783859043441 -1.2699261998973205e-5 0.0
0.0004018153995468272 -1.6566149467493385e-5 0.0
0.00045735476750856174 -5.640252657541335e-5 0.0
0.00032855717157688496 -3.8338156701668444e-5 0.0
0.00035059415101234583 -2.5131518619891156e-5 0.0
0.0006939742958686329 2.9666821144936525e-6 0.0
0.00018288072172118383 -2.2220611833545688e-5 0.0
0.0005220486700820324 -7.387607367251179e-7 0.0
0.0004100687145614215 -1.569744869324361e-5 0.0
0.00045992180443584326 -2.0223505866318072e-5 0.0
0.0006560078582522121 2.665711615356781e-6 0.0
7.784494721331878e-5 -1.2242371765189882e-5 0.0
0.0005229946537392313 -3.819306054276466e-5 0.0
0.00046055896002190194 -1.597515655123576e-5 0.0
0.0004557421122158183 -1.5157707916964109e-5 0.0
0.0004424526157406836 -5.080769578773105e-5 0.0
0.0004174365374888993 -3.288981097758431e-5 0.0
0.0004232370235204849 -4.827392095573178e-5 0.0
0.0005360917343071721 -5.5175999285652346e-5 0.0
0.0005368156789310704 2.945941015852767e-7 0.0
0.00045620878114318767 -3.387990640730122e-5 0.0
0.0005273890939064917 -6.078965344895792e-5 0.0
0.0006391060102600629 -3.6208407921302195e-5 0.0
0.0006413472473291979 -2.694927275565043e-5 0.0
0.00042309230614316954 -1.8848142489018942e-5 0.0
0.00026035584236941634 -3.48296124207491e-5 0.0
0.000562324849322921 -9.002825343341054e-5 0.0
0.0004453097354655234 -2.8485791176063306e-5 0.0
0.0004615328613888892 -3.0495864743746782e-5 0.0
0.0007517137330346226 -1.1286403875566039e-5 0.0
0.00012995849051149923 -2.5026379980581634e-5 0.0
0.0004602327674866662 -7.983702960791063e-6 0.0
0.00043388431746413706 -2.300589218710693e-5 0.0
0.0004258979385886288 -1.9944828527489096e-5 0.0
0.0001575791761917303 -1.878052996681439e-5 0.0
0.0006893929944506312 -1.3778521541896442e-5 0.0
0.0004258889655216265 -1.2353556527842985e-5 0.0
0.000665311747452913 -2.105903188515049e-5 0.0
0.00025094566883856643 -3.389746536845641e-5 0.0
0.0005636576826757392 -7.897221933448813e-5 0.0
0.0005810860158788418 -8.063707420747913e-5 0.0
0.00022409711187396816 -3.3796522922465156e-5 0.0
0.00047581754035912763 -3.3660851477667135e-5 0.0
0.00035579625611544414 -5.596263121801678e-5 0.0
0.00047537923942290696 -4.446153639772533e-6 0.0
0.00013598646423991262 -3.2695177191621155e-5 0.0
0.0004451652979755212 -1.5553773008347296e-5 0.0
0.0004301879478589836 -1.146773329243585e-5 0.0
0.0004434507115264306 -1.276064057846507e-5 0.0
0.0004308548358533623 -3.197557589837859e-5 0.0
0.0005067789687010769 -3.811204615246001e-5 0.0
1.7856236633972565e-5 -3.3334202933398296e-6 0.0
3.286674167035298e-5 -6.3720292595340565e-6 0.0
4.042471582846001e-5 -7.956124626356637e-6 0.0
0.0006995223291767434 -6.740593253776887e-5 0.0
5.6252311453657145e-5 -1.1738912401059374e-5 0.0
0.0002323075722826261 -3.273551722399155e-5 0.0
0.00012353782505444255 -1.2312470743772667e-5 0.0
0.0006256870887222146 -7.95215184514822e-5 0.0
0.00011796341571935492 -2.8177847535500255e-5 0.0
0.00012985370398212434 -3.1318347111365917e-5 0.0
0.0006917972486110722 -7.002981601989471e-5 0.0
0.0006763811799739935 -7.5104513949267e-5 0.0
0.00042247419784849756 -1.4870417839253813e-5 0.0
0.0003279297798903535 -4.202041592713506e-5 0.0
0.0005339112324188865 9.481895971275036e-7 0.0
0.000641623729012347 -7.818544001481797e-5 0.0
0.0006490130003133979 -7.804590040496026e-5 0.0
0.00010688213825834237 -2.5425101539918253e-5 0.0
7.842205331517946e-5 -1.6814379193950598e-5 0.0
0.0006632167054026004 -7.685020163398842e-5 0.0
0.0006668942206640216 -6.75381063981332e-5 0.0
0.00044799952029777923 -6.599184104796487e-5 0.0
9.136507872029952e-5 -2.063623683099264e-5 0.0
0.0005392573147008805 -7.914052985990077e-5 0.0
0.0001475830415695974 -2.6358031489234516e-5 0.0
0.0006059464490056842 -4.0443401168561355e-5 0.0
0.00022363181342339704 -4.179798136337894e-5 0.0
0.0005611134764754099 -5.257070323693458e-5 0.0
0.0005659832447865991 2.7737999557602984e-6 0.0
0.00023504217261965718 -2.746212002079716e-5 0.0
0.00015403641446672545 -2.4285645502604604e-5 0.0
0.0003074997427487108 -3.788773624568028e-5 0.0
0.00038805034871208343 -3.313626090859258e-5 0.0
0.0006007820854633957 -3.2125073869731143e-7 0.0
0.0003986817678541394 -5.732322311680339e-5 0.0
0.00043046624444026106 -1.1256007462571975e-5 0.0
0.00045224565517353206 -1.7449937300383306e-5 0.0
0.0004865844023809325 -1.6074594172834803e-5 0.0
0.0005578784943679981 -3.773465766007543e-5 0.0
0.0002592651225031726 -2.4542988789844162e-5 0.0
0.0004965994511363095 -3.462219785157438e-5 0.0
0.0002581984221183064 -2.6967805074494704e-5 0.0
0.0006120629116382113 -2.6430763011297888e-5 0.0
0.00018730558122289826 -8.881541907322201e-6 0.0
0.00015886384576228532 -1.2434127699931133e-5 0.0
0.00038771694169382944 -2.176086116884541e-5 0.0
0.0006372716494115285 2.397938843662306e-6 0.0
0.0004697332692641508 -4.809398416556497e-5 0.0
0.0004188334375689583 -1.3239942440802415e-5 0.0
0.0006916551757782058 7.133523418048236e-7 0.0
0.00021336275472564017 -2.7547801078447445e-5 0.0
0.0002777695296810827 -2.236279609691665e-5 0.0
0.0005171220595317211 -1.5601358855581523e-5 0.0
0.0005765112828647501 -3.734555877639274e-5 0.0
0.00018232722594916056 -2.6730337863055292e-5 0.0
0.00011004262870842548 -1.9681493566823788e-5 0.0
0.0005498729050362089 -3.4954327897886893e-5 0.0
0.00029155476345048216 -2.1720689599662017e-5 0.0
0.0005439501972247619 -2.5178536979490006e-6 0.0
0.0007735247733559231 -4.078807322672529e-6 0.0
0.000593558899825319 3.6080440549456834e-6 0.0
0.00046916376084936613 -2.2551172498094572e-5 0.0
0.000470158299842377 -1.920306023240592e-5 0.0
0.00046285809102930797 -1.0915418190320719e-5 0.0
0.0006647101477508484 3.412288316208805e-6 0.0
0.0006506277457204988 1.4627824916113061e-6 0.0
4.027608788406444e-5 -6.344274995010842e-6 0.0
3.103230335414208e-5 -4.8213347232282065e-6 0.0
0.0003362806774204117 -4.229854455726576e-5 0.0
0.0004706138979251956 -2.844315273191943e-5 0.0
0.0003202768146206046 -2.2078531521037854e-5 0.0
0.000321595044070604 -2.168242284671894e-5 0.0
0.000329005931125479 -2.360789531638361e-5 0.0
0.0003948671192039849 -4.631313690705081e-5 0.0
0.0004514158265223108 -9.795171374949029e-6 0.0
0.00014357559817687458 -1.807377174282471e-5 0.0
0.0005093478173620309 -1.7937103706452892e-6 0.0
0.0004797551695268444 -2.820387512712563e-5 0.0
0.00035700366667820857 -3.0288248928353887e-5 0.0
1.9046787713189758e-5 -2.9752212552011763e-6 0.0
0.0003892472134105873 -3.093870893046301e-5 0.0
0.0006877441726792667 -1.1011787229044762e-6 0.0
0.0005638344793820074 -2.468264817313326e-6 0.0
0.00053815859088291 3.2688848598273593e-7 0.0
0.0006482959141961632 -1.9367291763371835e-6 0.0
0.00047935181979993425 -4.671811686868265e-6 0.0
0.00033066560036250256 -2.729131876835621e-5 0.0
0.0001068772169398105 -1.6726163509707268e-5 0.0
0.0003783541872415306 -1.913276516574021e-5 0.0
0.0004272758899766386 -1.4784648404668393e-5 0.0
0.00012144849563791155 -1.999212686478909e-5 0.0
0.0003745201933167955 -5.8264009098168924e-5 0.0
0.00046893952265148825 -5.738226799091555e-6 0.0
0.00024172176787726297 -3.381274573514059e-5 0.0
0.0005767086336589367 -8.451573698363182e-5 0.0
0.0006128233786650745 -4.885754085932894e-7 0.0
0.0002917651228108747 -2.2052384211138248e-5 0.0
0.000564870008926735 -4.3843423569985855e-5 0.0
0.0004400624931573363 -1.052129778585824e-5 0.0
0.0003905918865015159 -2.886177717241706e-5 0.0
0.0001585140324953951 -1.9041039079717987e-5 0.0
0.0002899757086987074 -2.275860706233979e-5 0.0
0.0004405428360507858 -3.0442347021153977e-5 0.0
0.00012768963881164565 -8.086503266896449e-6 0.0
0.0005335033954936393 -1.768066826312744e-5 0.0
0.00016433707425055248 -2.2966232494412967e-5 0.0
0.000397346316787806 -2.7532257225457565e-5 0.0
0.0006090562250515433 -1.1456104579657095e-5 0.0
0.0005092371078792357 -1.473850237126281e-5 0.0
0.0003240532434937311 -2.5815382793119986e-5 0.0
6.545663262076655e-5 -9.803294764486368e-6 0.0
0.0002190824333173206 -2.245466203854646e-5 0.0
2.2692181401244973e-5 -3.4437547774634284e-6 0.0
5.066372227897316e-5 -7.590094457950139e-6 0.0
0.0005077123537519249 -1.1160281637936125e-5 0.0
0.0004687579700427909 -1.1189066555377512e-5 0.0
0.0002559952743400032 -4.9394937559022214e-5 0.0
0.00018007309733627199 -3.0299312769724415e-5 0.0
0.0005936411656821108 2.1081240698913507e-6 0.0
9.485285069489938e-5 -1.99320542226656e-5 0.0
0.0004934574807055547 -1.7075959337776687e-5 0.0
0.0004243429963108634 -4.490551370881266e-5 0.0
0.0006073680116803174 -2.1223974408636596e-5 0.0
0.00023089681827014898 -3.788417901441245e-5 0.0
0.0006626723268389804 -5.4013163589760695e-5 0.0
0.0004210125513645836 -1.2798798035527441e-5 0.0
0.0001265262500636221 -2.7947561825460895e-5 0.0
0.0005085004120772552 -7.186937739096802e-5 0.0
0.00013656324454155964 -2.219342260839472e-5 0.0
0.0007162194513474458 -9.461094205721928e-6 0.0
0.00010647082632027412 -1.7344234486116785e-5 0.0
0.0005180973350404803 -4.303976341826518e-6 0.0
0.0004815026866630732 -3.908007315436695e-6 0.0
0.00045961947302062384 -2.038887676886342e-5 0.0
2.2121530385044698e-5 -3.0927831842375765e-6 0.0
0.00041204913294346786 4.4329941980793e-6 0.0
0.0002421870648454559 -2.1333701076741874e-5 0.0
0.0005864662588119845 -7.259669772558786e-5 0.0
0.0005989851036801284 -8.17767696330867e-5 0.0
7.915076439339618e-5 -1.144082869276636e-5 0.0
0.00044841476963676226 -8.962740044889212e-6 0.0
0.00018889695207897545 -3.0663709705693154e-5 0.0
0.00034833955724643815 -3.258809956388513e-5 0.0
2.4722171041654816e-5 -4.066504555441396e-6 0.0
6.146664032141691e-5 -8.9918228210337e-6 0.0
0.00043016187140674307 -1.645748115239398e-5 0.0
0.0004041742221493986 -2.6021668354652913e-5 0.0
4.082357577972122e-5 -6.0682559591581334e-6 0.0
9.565580992257109e-5 -1.4919965784190943e-5 0.0
6.399120329811405e-5 -1.3409790121370571e-5 0.0
0.0006085511232305956 -3.3797714515010765e-5 0.0
0.0004776590460244725 -2.9902558074522764e-5 0.0
0.00010256851957681331 -1.7880135973543177e-5 0.0
0.0005594318752638425 1.9991943672904415e-6 0.0
0.0005227550680830484 -3.63513239716191e-7 0.0
4.516856359208591e-5 -8.398517165580808e-6 0.0
0.00037266122662282943 -2.0554339879603543e-5 0.0
5.212143326651098e-6 -8.798328616150906e-7 0.0
0.0007851326791499576 -4.228332805242195e-6 0.0
0.0007475217305276225 7.371455146810908e-7 0.0
0.0002306296353619213 -4.696452496018092e-5 0.0
0.0005632663998249381 -3.331389094697954e-6 0.0
0.0004808244044371547 -4.4455130643500996e-5 0.0
0.00011528439218962635 -1.870575282012757e-5 0.0
0.00046808964889322516 -7.262528919615981e-5 0.0
0.00012890601564038293 -1.7627256015867393e-5 0.0
0.0006352194675593781 1.6752007399947888e-6 0.0
0.0003392273374101429 -3.301201223322003e-5 0.0
3.9118700440366495e-5 -5.980060304468433e-6 0.0
0.0004235155820776524 -2.3976698148614616e-5 0.0
0.0004194997051621313 -2.2291828588802392e-5 0.0
0.0006893093306508021 -7.219880796522649e-6 0.0
0.0004247090488523064 -3.100796013539614e-5 0.0
7.484738695926476e-5 -1.0563893947594142e-5 0.0
0.0006592064053857778 -7.046086767583171e-5 0.0
0.0006870459439527902 1.9152793070213534e-6 0.0
0.0005235998777534149 -1.0160466072721535e-5 0.0
0.0005325157459668727 -5.350694290702005e-6 0.0
0.0003578875141784433 -4.939247095307903e-5 0.0
0.0007459512697249668 -3.64437748450028e-5 0.0
0.00038484876832722 -2.0907452387607946e-5 0.0
0.00012686356714638978 1.3359389073710684e-5 0.0
9.929618245362951e-5 -1.834281791459786e-5 0.0
0.000289284871747536 -1.2976916801338367e-5 0.0
0.0006555915220718106 -4.998874296728705e-5 0.0
5.005506642125043e-5 -5.697015383292266e-6 0.0
0.0004324866233866048 -1.1326433380092272e-5 0.0
0.0005667015135677525 -3.3179091064873555e-7 0.0
0.0004695491050345084 -1.1138155665544335e-5 0.0
0.0007664316151934886 2.7606047255792553e-7 0.0
2.584675528851086e-5 -3.922218974050992e-6 0.0
0.0006881276742807008 2.991089006913152e-6 0.0
0.0007708574018258173 -6.716255051675189e-7 0.0
0.00038487826504073454 -5.842306980365045e-5 0.0
0.0004386780930278488 -1.4670761080686206e-5 0.0
0.0003502629398325583 3.3446025258098596e-5 0.0
0.00019333460436121063 -2.712097343043318e-5 0.0
0.0002753074614358954 -2.183526613641295e-5 0.0
0.0003687378137522369 -2.0457712672158847e-5 0.0
0.0001893063182723907 -1.4465492523696787e-5 0.0
0.0003070223246847845 -3.6618694119833735e-5 0.0
0.00016269203564160944 -1.8909982324177535e-5 0.0
0.00012018885730472341 1.0372639384643085e-5 0.0
0.0003908468451383895 -1.8938350150787133e-5 0.0
0.0005154715403266928 -3.559624881991985e-5 0.0
0.0006209982872726677 -3.036247585730157e-5 0.0
0.00031318360564135225 -2.6185674104786532e-5 0.0
0.0002250156406034594 2.256211214309885e-5 0.0
0.00048495335577770714 -3.438101705558513e-5 0.0
0.0002592105762200409 -2.159263613917407e-5 0.0
0.0005787735791641035 -1.8995321784191456e-5 0.0
0.00029589375216777 4.71168836468336e-5 0.0
0.000270189894912265 5.045567673332813e-5 0.0
0.0004203924429510476 -2.7590986355626162e-5 0.0
0.0005198113478298368 -8.73518388500025e-5 0.0
0.00033278234442902816 -5.457128730865952e-5 0.0
0.0005550404813487013 -7.999063487546706e-5 0.0
0.0002245284126012987 -2.6593591940190557e-5 0.0
0.0005182105430540895 -7.780039403605627e-5 0.0
0.00019178660999091558 -2.026127605192962e-5 0.0
0.0005915037729359453 -2.073586383115424e-5 0.0
0.00032960144171933787 -3.176698328099769e-5 0.0
0.0006358265425210287 -1.442604612697195e-6 0.0
0.00019551285229254552 -2.6374691945703773e-5 0.0
0.0004255401519016543 -6.7852995744744075e-6 0.0
0.0003302058593587865 -2.469752722624931e-5 0.0
0.00036805247847985904 -4.255642365408775e-5 0.0
0.0004027743931871667 -1.5929454214195196e-5 0.0
0.0004159257453265584 -2.0940243541192922e-5 0.0
0.0002226037521591738 -3.155284088788045e-5 0.0
0.00022387072135761108 -3.2671734025417474e-5 0.0
0.00015222339819420411 -2.1771618243218158e-5 0.0
0.0003152120681231342 0.00013118798620561435 0.0
0.000375979759611877 -5.009912687557684e-5 0.0
0.0006494800108251416 -9.73356575501539e-6 0.0
0.0005681019590375786 -3.45238642061504e-5 0.0
0.00047427295884726626 -2.1661389189716375e-5 0.0
0.00021363122893303867 -2.6619739124386956e-5 0.0
0.0005016388320575381 -7.418198877313453e-6 0.0
0.00043175946160227885 -4.326657992927207e-5 0.0
0.00032999214283803164 -3.0205248823405717e-5 0.0
0.0007029240607410373 2.1887595354174993e-7 0.0
0.000758570833374295 -5.458875233736599e-6 0.0
0.0003059089401422535 -2.194140193559553e-5 0.0
0.0004933354970193995 -7.074201111357063e-5 0.0
0.0006746858355721932 -6.786346827155681e-5 0.0
5.0005043756964645e-5 -7.503354218390408e-6 0.0
0.00020512658208674084 -2.244983024607459e-5 0.0
0.00023631628476877966 -2.6501291317976052e-5 0.0
0.0006884842371571872 -6.347193033368085e-5 0.0
0.0003061859796464464 -3.502788092276864e-5 0.0
0.0005566148441230945 -9.673260546370761e-5 0.0
8.245774456029169e-5 -1.6693908689354804e-5 0.0
0.00043817490396044154 -1.936392308307028e-5 0.0
0.0006160993709380049 -1.8385740020411527e-5 0.0
0.0004865130904772641 -2.7726257293472418e-5 0.0
0.0007227576485837563 -3.2390264591868387e-6 0.0
0.0005002773862199906 -6.372249691216666e-5 0.0
1.9192256787335728e-5 -2.9807701409409558e-6 0.0
0.0003795689376169668 -1.9862821502865653e-5 0.0
1.8867160415820158e-5 -2.83112174834365e-6 0.0
0.00030457021206387947 -2.5614234702368694e-5 0.0
0.00019377494487733479 -2.070183532137175e-5 0.0
1.2436930856275208e-5 -2.0824288878834656e-6 0.0
0.00019598408796495624 -4.306145376748859e-5 0.0
0.0001810934799884389 -3.742333952322679e-5 0.0
0.0003910751672225978 -2.2724090923660346e-5 0.0
0.00041387801801962237 -3.436095035005101e-5 0.0
0.0001327295405411799 -2.9428885406557388e-5 0.0
0.00027510112384469766 -2.1798997072871123e-5 0.0
0.00045286303053994944 -8.778257180743037e-6 0.0
0.0001443563859943573 -2.2955094567775722e-5 0.0
0.0005476775831420409 -7.762964591511261e-5 0.0
0.00043996945055710363 -4.1514418360819006e-5 0.0
0.00011854548079796687 -1.7075572599737043e-5 0.0
6.733787291991083e-5 -1.1945111479372366e-5 0.0
0.00043047725341708643 -1.2628974496839287e-5 0.0
2.8396503224427237e-5 -5.0747076392422524e-6 0.0
0.0007302842705426476 1.7271499586458183e-6 0.0
0.00032737629607739035 -3.052653450221649e-5 0.0
0.00039442733990233705 -1.778918583979719e-5 0.0
0.0006468528791371795 -5.3722899051509365e-5 0.0
0.0007146529011862758 -5.9800108364380115e-5 0.0
0.0005694910985316353 1.116976112019846e-6 0.0
0.0003752303091459744 -4.7472727008526394e-5 0.0
0.0004507624226148121 -1.670493481622475e-5 0.0
0.0006364011816031024 -7.210695691328145e-5 0.0
0.0003950448122668414 -6.350020142420018e-5 0.0
0.0006051774744097555 -1.5849393440624176e-5 0.0
0.0004885554949762646 -2.4108459579017248e-5 0.0
0.0002920620426605269 -3.3562349330628485e-5 0.0
0.0005289050393885684 -9.431992143658886e-5 0.0
0.00031835443513114495 -2.887039590097649e-5 0.0
0.00024363752429657726 -3.982269336550645e-5 0.0
0.0003954470431489041 -1.701834064658471e-5 0.0
0.000572167477285425 -7.313417783285252e-5 0.0
0.00015227141499958712 -2.119884068973851e-5 0.0
0.00011446947962579358 -2.5394008238466476e-5 0.0
0.0005344114037981759 -1.4495893990459663e-5 0.0
0.0001913830209453904 -2.306098728632549e-5 0.0
0.0004917422805363481 -5.473483061509999e-5 0.0
0.0003840377470439059 0.000183598739058224 0.0
0.0006291642375791001 -1.6065994645335905e-5 0.0
0.0006326506142772155 6.803789452360982e-7 0.0
0.00043908796330814674 -2.3886822156249145e-5 0.0
0.0005560070632389395 -5.969418269344853e-7 0.0
0.0004493701209101752 -4.875065746674628e-5 0.0
0.00048184970827911235 -7.494128547442371e-5 0.0
0.00024851977028789304 -2.6240247785639283e-5 0.0
0.00033237393852036056 5.989211563391264e-5 0.0
0.0001667668885956239 -2.1774879633328808e-5 0.0
0.00016412397064554543 -3.869068490818319e-5 0.0
0.0003727469960195446 -2.1486911267852576e-5 0.0
2.6184299367801923e-5 -4.041027286780236e-6 0.0
0.00012986605937889248 -2.6731338606517695e-5 0.0
0.0004188686352961904 -1.7172641008147103e-5 0.0
5.8117659928298964e-5 -8.987899137893972e-6 0.0
6.209954672689455e-5 -9.227106021873941e-6 0.0
0.0004095874396408137 -2.476785193080185e-5 0.0
0.0004347245111607855 -1.1364281587992434e-5 0.0
0.0007050376076510095 -5.684663223678704e-5 0.0
0.00037304307799066377 -2.132971970819511e-5 0.0
0.0005177163792640096 -3.0578121158526745e-5 0.0
0.00044814788146540574 -1.3617483890150563e-5 0.0
0.00013119517978789702 -2.4071494899780313e-6 0.0
0.00017026683160066057 -1.5602442693565922e-5 0.0
0.0007394321795227062 -8.486758699490324e-7 0.0
0.0005446291630751687 -9.910189634129158e-5 0.0
0.00012476392021611984 -1.987417999918402e-5 0.0
0.00046673210292706116 -5.554833827503424e-6 0.0
0.0004322151302815255 -2.8947730741348066e-5 0.0
0.0004245841333993479 -1.2183405713367843e-5 0.0
0.00020965876295218658 5.77684068016122e-5 0.0
0.0004048386705806787 -6.663468006364048e-5 0.0
0.0006767739383888199 3.2820248088643466e-6 0.0
0.00040952551362938966 -1.997149907203864e-5 0.0
0.00043784026109196825 -1.4260543783881275e-5 0.0
0.0004822446292779173 -6.886070200666005e-6 0.0
0.0004042152292394277 -2.1899625067345755e-5 0.0
0.0004124035770273676 -1.8069848212489666e-5 0.0
0.00019769439517369864 -3.2262050787954216e-5 0.0
0.0004978247526732494 -2.1691528680520843e-5 0.0
0.0003607195364568295 -2.0619079970963378e-5 0.0
0.0004324254992798631 -1.3006222675237299e-5 0.0
0.0006072124902843077 -8.237587694968615e-5 0.0
0.00038195841429339105 -1.875325190230155e-5 0.0
0.00047265727664220944 -5.408704494032291e-6 0.0
0.0004516505266894177 -1.4329508515700764e-5 0.0
6.760418524697688e-5 -1.3300420721257652e-5 0.0
0.0005703917347409807 -2.9605262903637925e-5 0.0
0.0004411641336766669 -1.1826806854059719e-5 0.0
0.00022918820599977772 -4.045635921513242e-5 0.0
0.0005118826418462918 -8.078182488021677e-5 0.0
0.000532913542960554 -7.967026239315884e-5 0.0
0.0007693650347777972 1.857693366701754e-6 0.0
6.81284861452463e-5 1.7771939133795513e-5 0.0
0.0003655906681113226 -2.2446232442982276e-5 0.0
0.00042664712856687334 -6.521637287131155e-5 0.0
0.0002915895665589527 -4.753229213635959e-5 0.0
0.000343199822452174 -5.488724045611256e-5 0.0
7.7914579903167e-5 -1.2227991244120619e-5 0.0
0.0005264296804178072 -2.872074725441916e-5 0.0
0.00025152038786674776 -2.52739170818166e-5 0.0
0.0003717359375417936 -1.9702861168854237e-5 0.0
0.00031218312306213866 -2.509452967508049e-5 0.0
0.00035244615819685315 -5.5511172911404905e-5 0.0
0.0005653173131288921 -5.3728991100821175e-5 0.0
0.0007152378742616868 -7.331226445683628e-6 0.0
0.00044888081687285633 -4.533230000081698e-5 0.0
0.00040703779212314736 -2.2049531913055768e-5 0.0
0.00027029437738916064 -3.303315922138364e-5 0.0
0.0004158356516269171 -6.862913553824839e-5 0.0
0.0005478242412922445 -2.1465762402636945e-5 0.0
6.781034625161434e-5 -1.0392871806605665e-5 0.0
0.0006655058813054851 2.2459428819033792e-6 0.0
0.0003654282872113129 -5.652415682904206e-5 0.0
0.0003711908365202243 -5.094219550411566e-5 0.0
0.0005072748667482073 -6.15569699139657e-5 0.0
0.0007714333333308995 -9.451712390927273e-6 0.0
0.00031931314570543074 -5.1135636210128604e-5 0.0
0.0002946588000228191 -2.521412070110749e-5 0.0
0.0002930428389996023 -2.2239308817927066e-5 0.0
0.00047833061691352386 -9.249213893993543e-6 0.0
0.0007380200453503162 1.3316470487557303e-6 0.0
7.357246229027679e-5 -1.2954131897799777e-5 0.0
0.0004149158563359188 -1.6532575926527413e-5 0.0
0.0006676673707563924 -5.868849712511845e-5 0.0
0.0007327353769375261 3.7747971847572277e-7 0.0
0.0002474568808537892 -2.1861168944190126e-5 0.0
0.0003711675642620973 -5.693221770800015e-5 0.0
0.0007054891743820124 1.0500490635215596e-6 0.0
0.00013572134495523454 -2.584905982936296e-5 0.0
0.0007573673707920447 8.806272618750219e-7 0.0
0.00024799926325409316 -4.9780065725711346e-5 0.0
0.000500216349805135 -1.7912320371109572e-5 0.0
0.00017731737143046673 -1.9923625471803513e-5 0.0
0.0004793009207814506 -4.347365820234193e-6 0.0
0.0007397355683656675 -3.333786446656466e-5 0.0
0.0005584222697950798 -1.8304805250245403e-5 0.0
0.00021652168970735265 -4.216048631721694e-5 0.0
0.0001496347501642118 -3.634119121569195e-5 0.0
0.00019990890671177022 -3.050732158833761e-5 0.0
0.0006228917015261819 -7.317771994886152e-5 0.0
0.0005463523152543768 -9.783017940318806e-7 0.0
0.00013390863222656994 -2.0818080143189607e-5 0.0
0.00035150495142863535 -2.265020263387266e-5 0.0
0.0004761418201391123 -1.1888572172024413e-5 0.0
0.0003382121802002737 -2.5164492503176962e-5 0.0
0.0007158183821842598 -3.322774415053819e-6 0.0
0.000508269959849726 -1.3075982760316757e-6 0.0
0.0003608381960589585 -2.049085279199815e-5 0.0
0.00013889891042140486 -2.0464775930551594e-5 0.0
0.0005307732077630605 -2.165345059827179e-5 0.0
0.0004605709923555896 -6.377331928017282e-5 0.0
0.0006529127867832019 -7.24497460104263e-5 0.0
0.00026977447002930445 -4.600417330664403e-5 0.0
0.0004993403738775993 -2.9147516884566494e-5 0.0
0.0003204492060835429 -2.748191261373203e-5 0.0
0.00044078348208101864 -6.64187853816436e-5 0.0
0.0006397809830106313 -5.0451248077857554e-5 0.0
0.0005464230711415637 1.3316846899645202e-6 0.0
0.00071032945789435 1.4436033743552835e-6 0.0
0.00023468592554512347 3.510127573719198e-5 0.0
0.0006803489820923145 2.7632792492966016e-6 0.0
0.000268335391231943 -3.118022549121341e-5 0.0
0.0006258767511819632 -1.2487848103886228e-5 0.0
0.00047476356251530377 -1.0666478650684774e-5 0.0
0.00051330974317454 -4.4048226933555465e-7 0.0
0.00026160769149284065 -2.396824680957291e-5 0.0
0.0005155895061702446 -1.8982256735274853e-6 0.0
0.00038092512592956127 -5.8279559506655554e-5 0.0
0.0002020512508886125 -3.849718967036568e-5 0.0
0.0004384465541174485 -1.0354917661160515e-5 0.0
0.0005475419029845271 -5.42108829001853e-6 0.0
0.00036721378411095 -5.435871250770635e-5 0.0
1.8088426290738678e-5 -2.6967712712954945e-6 0.0
0.0007464745167136249 8.534366243916138e-7 0.0
0.0006115063520155052 3.4344920292489867e-6 0.0
0.00039912799776827234 -3.544012664590199e-5 0.0
0.0007645603710787067 -5.695777931932827e-6 0.0
0.0002644925200789646 -7.636054298491983e-6 0.0
0.0004382215412672629 -3.170955827249728e-5 0.0
0.0007821776660440016 -7.58706575273737e-6 0.0
4.569783082427509e-6 -9.210260167098217e-7 0.0
2.5008482524164327e-5 -3.965965541328873e-6 0.0
0.00025979237202155403 -2.1757182722558657e-5 0.0
0.00045526552101321255 -1.7363051457821866e-5 0.0
0.0005211490583094062 -1.7701343853472878e-5 0.0
0.000571488200933097 -6.656515972094412e-5 0.0
0.0007523933827806157 -2.7359437757962216e-7 0.0
7.348378771541074e-5 -1.1378768387673413e-5 0.0
0.0001962459266990955 -2.105549401532224e-5 0.0
0.00046209045498551434 -6.0170015817896284e-5 0.0
0.0006384707282938428 2.926515267461676e-6 0.0
0.00020730986312876185 -3.075419439268096e-5 0.0
5.521129120935114e-5 -4.355329467899207e-6 0.0
0.00047267313601024946 -4.770650617948719e-6 0.0
0.0002785689083016705 -2.4345794983402067e-5 0.0
0.0005914110961141152 -5.669963866361455e-5 0.0
0.00041370659722483053 -1.847479950318226e-5 0.0
0.00033455199748031096 -2.622737907320004e-5 0.0
0.0006641536385029462 -9.605257456621338e-6 0.0
0.0006811453775698697 -6.79217724068586e-5 0.0
0.000550762373933913 -7.466422838333151e-5 0.0
0.000194310262853358 -2.2509649258252512e-5 0.0
0.0006931654746813888 1.563675292576574e-6 0.0
0.00012880716434981337 -2.10193061617236e-5 0.0
0.0006994583227470098 2.639062873227144e-6 0.0
0.0006297444066835715 -7.418589318995969e-5 0.0
0.00048624353406326337 -2.5513039252136576e-5 0.0
0.0005145743357691517 -7.368269759631679e-5 0.0
0.0006016472100550049 -6.156897484212436e-5 0.0
0.0004001758840053588 -1.6875889286516916e-5 0.0
0.00020117510970425384 -3.605971480849869e-5 0.0
0.00037612985505573173 1.8614137153606314e-5 0.0
2.5250502844798573e-5 -4.032835789649396e-6 0.0
0.00073471373142226 1.0184398340342732e-6 0.0
8.774020913709581e-5 -1.8424938570193626e-5 0.0
0.0005455510319119396 -1.8449609169924338e-5 0.0
0.00013798418590643124 -3.093825272715052e-5 0.0
0.0005014334701594001 -1.487382840867899e-5 0.0
0.00019421894686411743 -1.987053401966487e-5 0.0
8.44549413625882e-5 -1.3326791599617339e-5 0.0
0.00010235780190247972 -2.479495275676188e-5 0.0
9.88001466833481e-5 -1.7579628607554466e-5 0.0
0.0003654646708684395 0.00010640012015938618 0.0
0.0005686183965726194 -9.73255762954695e-7 0.0
1.1593248816517636e-5 -2.000051746412144e-6 0.0
0.0006059399568514342 3.7005820448250747e-6 0.0
0.0006385963801591679 -2.7543939066747286e-5 0.0
0.0004642047048184528 -1.5237159773224172e-5 0.0
0.0004091736085007047 -1.7202701814223665e-5 0.0
0.0002398937570117308 -2.166134797040765e-5 0.0
0.00040657823792990413 -1.54610196982835e-5 0.0
0.0004693450195555696 -5.4226466822889114e-5 0.0
0.0002621958432230667 -2.5121135763690978e-5 0.0
0.000175534597676259 -3.767781854785196e-5 0.0
0.0006318136795236371 -2.616617513664365e-5 0.0
0.000534654869126067 -7.245162969314415e-5 0.0
0.00010246362436422665 3.199213109140506e-6 0.0
0.00028492899899524443 -2.377647867337842e-5 0.0
0.0004940310376808324 -6.281500779558531e-6 0.0
0.0004725203542186009 -6.917834053056014e-5 0.0
0.00034938990738388214 -2.3595693534895817e-5 0.0
0.0005952911193250704 -7.563498570882026e-5 0.0
5.237022582296575e-5 -1.0090711707943312e-5 0.0
0.0005138337542729208 -5.9592367740194044e-5 0.0
0.0003148200820865634 -2.7355665378357146e-5 0.0
0.0007113964074789979 -5.461189374898823e-5 0.0
0.00030936842253353417 -2.8335637100831176e-5 0.0
0.00047754731058718047 -5.887806119296657e-6 0.0
0.0004123319314787893 -2.324588479964523e-5 0.0
0.000444301991722622 -3.4429391537667934e-5 0.0
0.0004572915470334213 -1.3249609831965773e-5 0.0
0.00045632178110114534 -6.714579860059702e-5 0.0
0.0005791660350237267 -7.413429182304744e-5 0.0
0.00020542273557822732 -2.6722402800125366e-5 0.0
0.0004851192179032278 -3.922596894167253e-5 0.0
0.0004773968601758711 -2.4382052068318066e-5 0.0
0.0005728175654867817 -5.979310321673271e-5 0.0
0.00040355466896800494 -1.690702567379108e-5 0.0
0.0004490559364279709 -4.4749721874037185e-5 0.0
0.00020116431629691608 -3.438725826756613e-5 0.0
0.0007068243640974657 -4.900029944613179e-5 0.0
0.0004921629215349839 -7.601639502479953e-5 0.0
0.0003676887479074374 -5.2497056120292504e-5 0.0
0.0007459077637796252 -1.6965863016052412e-6 0.0
0.00036380628848329047 -4.4957725758841266e-5 0.0
0.0006255909417896584 -4.3957379755213684e-5 0.0
0.00023378177894241485 -2.1554800890908067e-5 0.0
0.0005016872856994188 -1.5482518366293745e-5 0.0
0.00017944974891906927 -2.0012032349225296e-5 0.0
0.0003900134120386686 -2.4999439882022303e-5 0.0
0.00035592169861240673 0.0001549058420275993 0.0
0.0007705321559153967 -3.697706999819197e-7 0.0
0.0004511900540484663 -4.290348041129092e-5 0.0
SCALARS damage float 1
LOOKUP_TABLE damage
0.946372362780655
0.9840868372577032
0.9929087391449682
0.7735411822888341
0.9992874403663174
0.9998812871537383
0.8640420904616593
1.003287748988217
0.991393036940497
0.9928879190998471
0.992657717726604
0.9924672286956635
0.9920143837412048
0.9917479241896289
0.9910819972915063
0.9906536542130764
0.9902845567100453
0.9902098881855286
0.9901803959455846
0.9900079525905862
0.9896849045390544
0.9894573045384946
0.9889979669108541
0.9886531526114561
0.9883715923644862
0.988156397985571
0.9880857238852141
0.9880523006842399
0.9879143546492634
0.9876936067921505
0.9873577845319748
0.9868278975383898
0.9834308133103398
0.9860189427795725
0.9861838247197006
0.9856786000121155
0.9859690396853094
0.9860412472281205
0.9861661125429475
0.986362391341759
0.9865732791268582
0.986871980535853
0.9868002109307227
0.9867624540596639
0.9867813705864144
0.9864245833675199
0.9861836785257689
0.9861819044527447
0.9860761322254736
0.9859639293631882
0.9859501436180621
0.985952464853219
0.9858648745838037
0.9856758232706889
0.9855120125939454
0.9856720252065201
0.9856232047765201
0.9859621093307641
0.9860753519045959
0.9861401792824344
0.9862828483978339
0.9866432886820076
0.9866613356896549
0.9872182870816274
0.9875029135526032
0.9866538036685122
0.9855220346612795
0.9846404652124056
0.9832812335265125
0.980641843736865
0.9812754521714887
0.9868609744158112
0.9900377764359314
0.9939685257656247
0.9935211268008197
0.9914607168941539
0.9912862123559288
0.990292576290102
0.9913625468754351
0.9906518880701898
0.9897429417882976
0.993353175884059
0.9945162038930051
0.9944789076948306
0.9943601235297509
0.9959468885705945
0.9985168901384307
0.9988667554867912
0.9993217310096896
0.9991506914047827
0.9990456851117568
0.9989631348087904
0.9991058516650914
0.9994929983116468
0.9994994258983295
0.9994580650857183
0.9992493229220645
0.9993629692975617
0.9993851073331077
0.9993802482452477
0.9993129124001018
0.9992264470672363
0.9993302595104703
0.9992256003797035
0.999459334250404
0.9998096209868201
0.9995659515075397
0.9997054534104673
0.9998260411067379
0.9998113266926926
0.9997615381103575
0.9996208943682681
0.9994338952499277
0.999227715082422
0.9990947787450782
0.9988096855255226
0.9984669994338643
0.9982549362332835
0.9975741436270051
0.9964334545237882
0.9957575183731501
0.9948556123520544
0.9922326183478002
0.9876168459832235
0.9840232067827198
0.9795975987791908
0.9720820296137175
0.9500066271644272
0.9233844628439546
0.8997579249093314
0.757352709959417
0.9151970905959719
0.9385064766060954
0.9562416004622025
0.9668334581236376
0.9734525425547711
0.9764923335358221
0.9786907127462068
0.9787799436069018
0.978561860776438
0.9781530101691249
0.9777084898492854
0.977430509391421
0.9771252267608082
0.9767811030151132
0.9764254097394756
0.9760382263833612
0.9758273438932199
0.9756251000735812
0.9773001342882777
0.9786680018547786
0.9817127709030407
0.9847904133943531
0.9876278779447366
0.9910986380061451
0.9943005973119082
0.99597061632357
0.9994270628925617
0.9995902033752382
0.9998332177532729
0.9997383226053895
1.0000331579410482
0.999206507703466
0.9979476841411973
0.9960428755553173
0.9923355301234218
0.988547178102858
0.984271602052006
0.9821183618764853
0.9727800772157501
0.9341365723267931
0.8526330950352136
0.8550042430827318
0.8940788222771894
0.9198624863016485
0.9392493336222183
0.9544264363028978
0.9695444479409697
0.9783864261304873
0.9880615240025373
0.995648431348942
0.9982830768656442
0.9999601747267033
0.999595346197456
0.9993566930000978
0.9994931404506393
0.9888389890996816
0.9355705533460819
0.9864793575703468
0.9994764508040705
0.9836952574503619
0.9990476000082193
0.992077793264818
0.9986544814600998
0.9943040278852668
0.9999103197249187
0.9852595539277452
0.9995685329009211
0.9857864161866198
0.9889620334629496
0.9768084040614442
0.9377819229860154
0.97333810173095
0.8739405663931366
0.9600105496003172
0.9986339734941762
0.9866168045751419
0.9880511024426355
0.9773500301474854
0.9768722704230528
0.9887767278082741
0.9954563214898653
0.9856869131202781
0.992565028172917
0.9848064603652512
0.9874696997954442
0.9789958644766911
0.9860287325464907
0.9927593556303049
0.9990893610022554
0.9959653967184171
0.9992456035698225
0.9998071546437872
0.987507416712665
0.9856041254972077
0.9840226543222467
0.9845554021808935
0.9838363371650515
0.9908727636318463
0.9754157515783939
0.9874006068365726
0.9984934024801171
0.9965840510520297
0.9896108987162374
0.9844281658403582
0.9887382682478818
0.9770324141919774
0.9375364936358458
0.939007639944869
0.9847128701196347
0.928704536006332
0.9994245949770996
0.9982638707997921
0.9777572173361473
0.9868821168137198
0.9986273091057979
0.9998573389178196
0.9853508358436655
0.9992666079682756
0.9863514724749061
0.9862280013845173
0.9971323918354753
0.9935750868133598
0.9983630908349098
0.9623989736428369
0.9870567411443808
0.9993275547228448
0.999637247463717
0.9764528814938508
0.9944753414601128
0.9849250960159639
0.8807895607154651
0.9997435750091569
0.998082157445305
0.9961106801084268
0.9963583984457293
0.9964524015794397
0.9959548862068215
0.9945161191491713
0.9937747570438625
0.993066981597722
0.992154817144006
0.9927501856407966
0.9909314862376963
0.9913561569738992
0.9889587878840518
0.9898920898010009
0.9853194813360917
1.0094259470721525
0.9510682068101449
0.9918000969483189
0.9680939558704011
0.9925734441211562
0.9779047505974887
0.9941744150094104
0.9840570527709207
0.9943100490662639
0.9857975176482863
0.994327706044402
0.9874526737145084
0.9942826996919939
0.9879072653475334
0.9940091055523402
0.9889025403346066
0.9940400122839685
0.9886036621845239
0.9933733164916851
0.9885737178469765
0.9930044741311768
0.9889058192736981
0.9929479119790866
0.9892227662055032
0.9928692585059878
0.9893349713503667
0.9926577186548614
0.9893934444275306
0.9928019769162465
0.9889857103666727
0.9923703433765607
0.9898018752327671
0.9924323200176347
0.9903767946105102
0.992600351311234
0.990493107592933
0.9926382286520256
0.9909321648335655
0.9689941462852443
0.9928148202635322
0.9823623909822998
0.9867902530495836
0.9911442603458457
0.9929191146709535
0.9913911840864509
0.9896548475069739
0.9900164340483464
0.9930566315465675
0.9940070046657766
0.9938132600895866
0.9941237842674804
0.9945564278110585
0.9946663398593965
0.9884182727260518
0.9888830411654793
0.9947615685401574
0.9872373779316708
0.9879088381743685
0.9949175756047159
0.9948252631332104
0.9864725571982349
0.9872946577019636
0.9949714720693607
0.9946865191758212
0.9857894209914644
0.9865499736752308
0.994830310479312
0.9943626310654784
0.984745304831099
0.9854296741445625
0.9945472465245853
0.9940053331325973
0.9831798708638098
0.9841424491615256
0.9813956330986647
0.9803927564793329
0.9950104270077972
0.9942603708771122
0.9937109463582487
0.9933272995647977
0.9946841521447787
0.9931002592770055
0.9925078923072498
0.9922592787784531
0.9822921817916422
0.9796085312486282
0.9848659816261714
0.994011424482062
0.980090577191479
0.9783999226239571
0.9956811035311763
0.9788499468487822
0.9785472407422166
0.9791986134993452
0.9792562869509209
0.978534531901778
0.9791897828244372
0.9786023595860321
0.980026061684993
0.9796113029995741
0.9789391499301382
0.9797680522420048
0.9804342895257673
0.9798545214383156
0.9791778805318896
0.9916643733814745
0.9913776222616874
0.9800093640323059
0.9806582115771951
0.9908135817238779
0.9905828699258211
0.9914475425347842
0.9903650142032616
0.9915676252547548
0.9903943959648386
0.9916892443748923
0.9902817215246705
0.9918141299773227
0.9890334619910583
0.9899948914218837
0.9919671139933525
0.9802118603182245
0.9801100576811616
0.9794292913009621
0.9933164909303349
0.9936856833560322
0.9923324440727654
0.9947313566535478
0.9809096393815074
0.9942113733538819
0.9927361284453127
0.9804043173470811
0.9811612305877889
0.9814479394190507
0.9945732017213652
0.9933021688711585
0.9806428921151629
0.9797944985000467
0.9816247254181797
0.9818076536199847
0.9949148072799746
0.9942678596208732
0.9907308329637586
0.9953896804558003
0.9918161191710329
0.9878378565234209
0.9806603224503873
0.9801299177290933
0.9784297311176194
0.9796388493436338
0.9773574281989075
0.9787400763612496
0.9763703085161936
0.9798396249346691
0.9812479834198871
0.9820589656695589
0.9820561083401538
0.9952291216209282
0.9779790260592992
0.9754638678568475
0.9813209961521601
0.9848972843940004
0.9880843341967906
0.9926933905335107
0.9950190555022725
0.9983682837545597
0.9852866812175628
0.9898435455601438
0.9773053350972233
0.9746391074439792
0.9823128156544788
0.9823104934393918
0.9852852395873304
0.9881032489316655
0.9957509526663563
0.9815646099784484
0.9820616852886999
0.9800120056070672
0.9936816544319454
0.9768237752747059
0.9737830140343269
0.9813643846111735
0.9823704166441611
0.982396025411858
0.9902843211182761
0.9895559018401145
0.9901104773656686
0.9892913063561612
0.9885711131413574
0.9902951892634064
0.9847543369818037
0.976268511787391
0.9739087000157539
0.9964463217141772
0.9968048954784855
0.9776164183551623
0.9751831655335094
0.9952924748760013
0.990951851288428
0.9796238613979579
0.9823224918881592
0.9908053263653689
0.9916718399744376
0.9911790054195856
0.9920305383050179
0.9916483381830274
0.9923862881510279
0.992100703358412
0.9928606197269813
0.9926317196272647
0.9932781333254478
0.9934663763515643
0.9937922803474556
0.9939168227184798
0.9943510368476971
0.9944494537546787
0.9947900584060209
0.9931171191596291
0.9947972879570093
0.9949686977556556
0.9949802553902015
0.9948801337883738
0.9826237965775695
0.9831251411293574
0.9822708486979178
0.9824482746747405
0.9949789100160764
0.9946336686189
0.9945443798121194
0.9941604345385977
0.9837293832878307
0.9841265483134539
0.9899472654295338
0.9892197978674833
0.9899496994822861
0.9971333638938781
0.9960194464007921
0.99220049596747
0.9726152105117587
0.9948136132469717
0.9941352395905446
0.9937119110437812
0.993933367923951
0.9937754955383321
0.994664342094055
0.989206081789263
0.9885829239699082
0.9781857538108296
0.982064184549417
0.9823087986256723
0.9901646504310817
0.9937203723251745
0.9938969781750027
0.993993284524787
0.9941167618937508
0.9941551236319403
0.9942755341818093
0.9943331084904845
0.9944870725797127
0.9833266503739367
0.9848683021689048
0.984942379337224
0.9913164332978502
0.9974830231660979
0.9965055380740895
0.9944952771300586
0.9946335565446637
0.9836588786713084
0.9818193749617188
0.9820759728184205
0.970840896723138
0.9849109015326206
0.9926674018003541
0.988478297010319
0.9786662825936073
0.9977689987236613
0.9966309113963743
0.9937134791102153
0.982606657203025
0.9982522431441968
0.9846595087266485
0.9812927173465882
0.98920299886245
0.9901940228259728
0.9943531127629323
0.9814741547620816
0.9817334923434915
0.9858154687904551
0.985849753695158
0.982098229189223
0.9947864750377972
0.9945369188713912
0.9823958529400436
0.9820959747712896
0.9950281630307184
0.9915432407691314
0.9814773867445755
0.9819237819639888
0.9912997763506686
0.9942529032971638
0.9885516687184033
0.9962958862637471
0.9950896649396699
0.9950229989670385
0.9942996121896618
0.9945163074984243
0.9926903593758863
0.994606055810754
0.9950392361087415
0.9866129779342491
0.9866449533223322
0.9961339766039055
0.995836430866241
0.9816023941094323
0.9819988115766561
0.9891800462995768
0.9903202801419343
0.9825403300245664
0.9825278732036427
0.9822625433990245
0.9827580724017694
0.9944531428890858
0.9956983250434164
0.9897890643010991
0.9924813084470132
0.9909697837287417
0.9907812480212883
0.9969116478169102
0.996605955662383
0.9861194958179864
0.9947950656289014
0.9941624282013124
0.9832287278625984
0.9833690205085013
0.9832940715992606
0.9837728382066266
0.9840222741257386
0.9842385238423483
0.9847134217832939
0.9848448160603056
0.9854436981417659
0.9853065689157751
0.9858494614271042
0.9849233509083919
0.9853315906036415
0.9870913239993919
0.9870798063992532
0.9848852597373742
0.9851600318050795
0.984865037302716
0.9779639219434647
0.9944998525253621
0.9947147379798673
0.9842732023886429
0.991490581873636
0.9928562967719088
0.9948201174224997
0.9949593966435403
0.9944776654534946
0.9946659220450085
0.9961296040503628
0.99159764759839
0.9918768179907828
0.9890214415542099
0.986976677244422
0.9850129440496201
0.9837630990691175
0.9901527720392274
0.9916058311971229
0.9804582045394944
0.9974681753079992
0.9971341282700046
0.9962287759136053
0.9966475192766471
0.9924952685784797
0.993501551042411
0.9844555710127516
0.9976102390215711
0.9903677687585087
0.9974903045688954
0.9970418286551338
0.9962054139633837
0.9965813703299704
0.9959023097974744
0.9963309929048725
0.9970406860817883
0.9969928248379536
0.9852453804218178
0.9852257639420839
0.9853063931735295
0.9920633322706225
0.9932910520273015
0.9827089780506544
0.9780180012917548
0.9948497098990208
0.992985857788067
0.9914078702299534
0.986874024411782
0.9932508779387657
0.9932459270982211
0.9849516776881361
0.9796850244149808
0.9908715245518218
0.9967300687552839
0.9755075905222044
0.9931229275903017
0.9977522553721964
0.9972735682345134
0.9821354766476867
0.9824188919053679
0.992414586574993
0.9859073622073091
0.9874612738899606
0.9875872683555911
0.9835192935567147
0.997874313420189
0.9945626877668003
0.9947421273186005
0.9807384886861652
0.9851887425319805
0.9853321939644215
0.9814822838970622
0.9951139016317699
0.9951518568549994
0.9862598748929167
0.9820360118044977
0.9822540233722525
0.983255114075044
0.9832116722133505
0.9828773715976106
0.9831002763126544
0.9839744682386812
0.9834657009490595
0.9842404968508754
0.98334588635082
0.9839613642800373
0.9830618355536845
0.9835775475748546
0.9827365977294127
0.9844328855408573
0.9830770797666084
0.9823784379337744
0.9826555148724778
0.9827720943771561
0.982008067114179
0.9821420654205795
0.98274669749597
0.9818364802003471
0.9833402691747456
0.9945017963968893
0.9952961378248335
0.9952669235007712
0.9962080857411177
0.9961887765543418
0.9972341340862988
0.9970724517993068
0.9979232535192899
0.9974954615606894
0.9089540774772794
0.9971750344184886
0.996128305233248
0.9893461172223855
0.992410730468349
0.9929693994486641
0.992174827760198
0.9927848894371093
0.9918894993193609
0.9925439699704287
0.9934838502495783
0.9933204335193996
0.99433154525139
0.9941977507660732
0.9949686244251076
0.9931159912238589
0.9915298474082692
0.9908988957431126
0.995031293971769
0.9953924704971726
0.9827763383443621
0.9881998625958504
0.9764941319923907
0.9948440936983007
0.9898662828839058
0.9900853265630066
0.9954104706428428
0.9943023684810005
0.9954650168995408
0.9930316048171229
0.9930297960170794
0.990894884041436
0.9938239972534383
0.9770239114447903
0.9715629508222464
0.99601048561722
0.9982204214258587
0.9976853667667813
0.9744449956988365
0.9735669494266507
0.9767271313815357
0.9769896474138783
0.975441984525691
0.9770043170616267
0.9780043176901689
0.9792311156520331
0.9843848522419846
0.9842873609936273
0.9894102647839432
0.9903944236463224
0.9808894843028577
0.9825708882836213
0.9818559323777335
0.9825814864309392
0.9939552385521426
0.9946503307722208
0.9980931779824557
0.9846875953622467
0.9941158517260419
0.9930101943857148
0.9917408779905119
0.9954634018807559
0.9901843953662732
0.9965180703805431
0.9964048977552639
0.9973040603956277
0.9968827793066067
0.9866120599322902
0.9841602214528334
0.9948317417521018
0.9849482429318925
0.9936281796172803
0.9829402090274448
0.9823761878536741
0.9980642777504185
0.9793870739124961
0.9946581585447275
0.9945692978120404
0.9905226829733573
0.9877419327605306
0.9916775661295095
0.9912806303377325
0.9851094971200791
0.9853785753290129
0.9856121035562493
0.9922188072881477
0.9946164556092608
0.9863476851694722
0.9883755121537678
0.982290754256375
0.9813567985653541
0.9728925264232068
0.9887015725722768
0.9923992145001467
0.9915494549367146
0.9919166121110873
0.9884064414640964
0.9908333962689276
0.9968035028977338
0.9791604173120446
0.9800559794948115
0.981817921432149
0.9813570805165398
0.9961274742637812
0.9967544755168691
0.9976135453917151
0.997272539902479
0.9948949911848745
0.9948689742533494
0.9969999813961898
0.9963575883334356
0.9904155518911176
0.9898594451124778
0.9941183746864775
0.9832611001440188
0.9825458850633031
0.9974827114023418
0.9984103937920621
0.9988231483379851
0.9994044278074157
0.9964458135979463
0.9849583789896741
0.9860827534216932
0.9864419293434017
0.9877521937771665
0.9878042643934828
0.987368470198558
0.9875826519523044
0.9871549792930688
0.9874051062840281
0.986796348040995
0.9979135266185807
0.9804718146117083
0.9949721218469059
0.9975263907467681
0.9979090372090184
0.9974113827578667
0.9982613889792789
0.9881872572080916
0.9982017607698757
0.9897487149511005
0.9831696946961507
0.9900531589587329
0.9868304895586916
0.9951407688977296
0.9950788240112234
0.9983299392248127
0.9978690321892576
0.9824170691844596
0.9808421393240154
0.980359659842061
0.9809472324490869
0.9797332256925357
0.9957084029163641
0.9940656349196325
0.994710430364468
0.9927153399995231
0.9921239946521098
0.9952664988064621
0.9947989347705812
0.9950675058086181
0.9882674824777402
0.9892699167324936
0.983245795556035
0.9828283045830536
0.9869878905345417
0.9864725454550858
0.985547378356558
0.9851309103716209
0.9862521797805779
0.9846649809118679
0.9860464146287433
0.9846315409879208
0.9864633575251115
0.985233583599701
0.994779529133592
0.9859292273260073
0.983473077375378
0.9844094298926184
0.9936597711671203
0.9952364341845553
0.9938594892498367
0.98535686238388
0.9850070165684455
0.9852095609463434
0.9846603604618848
0.9984490981703661
0.9811456885892412
0.998188051404938
0.9902904461062251
0.9902393369289304
0.9890900179213956
0.9894258835318294
0.9882662763026254
0.9879595061268056
0.9875882770682681
0.9967628976095505
0.9964121182212543
0.9963214481903503
0.9963643536820505
0.9948692861852171
0.9952003245001225
0.980895795486554
0.9810728446520488
0.9877994361732612
0.9886780894395364
0.9834363027157148
0.9843336179757705
0.9834107195542388
0.9932027292381054
0.9983834764439059
0.987486355296059
0.9819415738515409
0.9965088452021624
0.9964690969633981
0.9949416457909648
0.9950805165606276
0.9951938869968454
0.994449979928496
0.9860607073824803
0.9854583269195918
0.9961290476858352
0.9943259641872373
0.9982079883410196
0.9820230231633962
0.9779133504004052
0.9844552285968813
0.9972417957472426
0.9829143306147349
0.9833164978441541
0.9832486274545347
0.9836392372678543
0.9833414925526544
0.983894188996436
0.9976958813983069
0.9972957635186306
0.9909976021938375
0.9982915747674019
0.9947253174581443
0.9945861253207541
0.9835655702966946
0.9874380797517358
0.9872602758509001
0.9877300375330619
0.9838129967570779
0.983939693309119
0.9832578836574533
0.9822369359029953
0.9840234656844299
0.9839569437300322
0.9862966365821686
0.9863523920432455
0.9945413715105323
0.9837334982424724
0.9974237696098814
0.9774973740530717
0.9865093329909751
0.9783247298771975
0.9896928770726893
0.9848648976008126
0.9945163802789464
0.994236644180404
0.9866823703014634
0.9854815221012291
0.9855304354435903
0.9853176726247422
0.9840157699269776
0.9863499943488205
0.9867114969738431
0.9969324624340283
0.9965623276547355
0.9957665530684492
0.9967572335379901
0.9964265310028819
0.9989059173865666
0.9842483942773387
0.984560574477523
0.9945798343572076
0.9789940841564804
0.978573416264079
0.9789704879626986
0.9820506227071826
0.9846160690200076
0.9928963007139192
0.9943360440716392
0.9941507321743838
0.9952599946157781
0.9947324754591649
0.9955907076964561
0.9952913474978012
0.9893999848576946
0.9898470345911295
0.9858267249355627
0.9858047801127409
0.983742481792948
0.9835860242979606
0.9821368642598204
0.9830518991195122
0.9857328323225553
0.9981954312374266
0.9972503276791209
0.9983867601767215
0.9972936495615742
0.9974015769540593
0.9845037039652528
0.9869375362786993
0.9977278121333863
0.9912677552343819
0.9949488639731159
0.9935780090737157
0.9945524526464341
0.9935689359143375
0.9944128203386553
0.9935039987999159
0.9942741815019376
0.9933538544827553
0.9941268753080832
0.9933450892686572
0.994860278890694
0.9944804681881811
0.9981353753226901
0.9806726197504227
0.9789691924311927
0.9807059699796143
0.9942332033979022
0.987705830930345
0.9954667818383918
0.993109618398005
0.9876540772252452
0.9878740528103622
0.9889593501688759
0.9824012438260273
0.9918236435807661
0.9952828445961831
0.988405661226851
0.9863269989093897
0.9834662157442091
0.9856274018616996
0.9873850935947281
0.9869403930558736
0.9862975767358518
0.9953590590731118
0.9955745826090621
0.995409172305845
0.9955453709042482
0.9944986539486285
0.9928334705043861
0.9869779648149479
0.9953513781023077
0.9954240380390752
0.9889043570081434
0.9804686993598839
0.9839158818650999
0.9979159261853843
0.9987182869842659
0.998933267492816
0.9995690827631867
0.9996323895621132
0.999257135761617
0.9983831160154907
0.9965990766474471
0.9818693473272899
0.9953691072819977
0.9830167280455899
0.9745219682220799
0.9700750851767806
0.9991323274329893
0.9997690591344157
0.9992886473640652
0.9885192859386845
0.9940780197651586
0.9945689709795001
0.9951253149537858
0.9818148378796602
0.9938580346776898
0.9958697395451793
0.9975209482420481
0.9982377360599322
0.9991220334000022
0.9984698329117154
0.9864338720497574
0.9781688347327354
0.981578676321382
0.9825582774125539
0.9845373081918518
0.9956863090985596
0.9840548335346886
0.9839828761414546
0.979356769416
0.9873303527580559
0.9868496551312258
0.996956768859671
0.9977807707936238
0.995194782958667
0.9816157679075964
0.9842411571611365
0.9956312801232909
0.9980780155256785
0.9934282332980148
0.9918651330900089
0.9955880924222278
0.995357262803787
0.9957493050715169
0.9788496808582561
0.9863480841966764
0.9917641895269854
0.9972789301596471
0.9858852683316891
0.9915593071721426
0.9947592844165973
0.9947024327044495
0.9972347538745002
0.9837836860900682
0.980455883711744
0.986477922355614
0.9820689463422516
0.9950832204090687
0.9870136109201765
0.9936224522809783
0.9943963130503097
0.9996341030025792
0.9994036030525951
0.9946959744174477
0.9937457914285002
0.9815270554295454
0.9951531499864378
0.993943546777608
0.9813112101159359
0.9814882990711971
0.9850403954888493
0.982913063661583
0.9820769883084123
0.9878184619232389
0.9898814503447068
0.9993512386076436
0.9861750761445612
0.9840194581442437
0.9846873633700873
0.9977806763278569
0.9928920878679023
0.9952833962842663
0.9826959763382122
0.9878105345552701
0.9817612568161469
0.9843604252310073
0.9835141038416407
0.9880378509064434
0.9874891991608069
0.9868090076216711
0.9862693050311528
0.9870080077239882
0.9875478740642912
0.9956150889701014
0.9904993625009624
0.9906468813587567
0.9973468062202061
0.9875577129919227
0.9874817614646172
0.9857902484219752
0.9858195809930674
0.9854790610786477
0.9844260054817414
0.9839881854134103
0.9829271240834418
0.982920222956637
0.9832536816753563
0.982819160798836
0.9823501050191766
0.9821165606448828
0.9818155179371368
0.985882101233823
0.9815889777684357
0.9813406931250788
0.986771444208211
0.9836051238342042
0.9815988994638197
0.9830890801783589
0.9969603717876494
0.9962647056668527
0.9984760665605634
0.9983255318763887
0.9861255582421392
0.9884175617761436
0.9853053548655863
0.98572101357316
0.978218424366283
0.9746381403676536
0.960778624779914
0.9609473723447808
0.9484104942583055
0.9544338074442833
0.9479980171835897
0.9543789511925972
0.9518195667931175
0.9565476166940258
0.9564140543631542
0.959150461063592
0.9603777821889737
0.9615359766531224
0.9635847719946651
0.9644619972125337
0.9669021046718156
0.9671206637361809
0.9698042312348807
0.9695116334009459
0.9723814763423381
0.9718569320990138
0.9693382997561889
0.9713614163154066
0.97530483074746
0.9633189151988214
0.9732026813570762
0.9675069010917425
0.9630895778317612
0.9585369024385879
0.9700983163894659
0.9716753435356776
0.97316533606659
0.9731519200620385
0.9604879167758019
0.946980901076898
0.9682694946810353
0.9420164174848115
0.974794657211344
0.974562227806249
0.9739732681206926
0.9699763659484595
0.9684472019632631
0.9759583513360063
0.9776829741752356
0.9791187886789743
0.9792490419500537
0.9777310133335334
0.9752643764552931
0.975509181085203
0.97433670775534
0.9760659204734587
0.9979336281374522
0.9980443945556575
0.99389556849842
0.9954819333358995
0.995799331701001
0.9803280910396134
0.9787516777389946
0.9851378407798567
0.9947691646009208
0.9759120442227067
0.9826552440166327
0.9816062967781974
0.9811152343386785
0.9934982131493919
0.9924529306100625
0.9898461689522488
0.9888561823219493
0.9980030124419826
0.9975767968051261
0.9972176090938152
0.997014803646603
0.9983037789878473
0.9924130085997122
0.9926155478435372
0.9935625410737764
0.9894336892395953
0.9906985650332966
0.9901786017088235
0.9915555374148204
0.9910801722376633
0.9924931224684206
0.9922017376325781
0.9936198700486314
0.9938139025285196
0.9945702000199973
0.9952006770366714
0.9953618034009967
0.9955185867355532
0.9954128788913503
0.9871631317915912
0.9861297718883117
0.9860284522127376
0.9855688439472167
0.9855559574284339
0.9952897873121335
0.9939031276368596
0.9947772326696307
0.9912296011240878
0.9945550999173277
0.9945751775856075
0.9718301035793503
0.990300551880464
0.9850365343759504
0.9855177083138387
0.9872828894429329
0.9869839591596169
0.9864127119355283
0.9866904968660054
0.9859778746103096
0.9864257255580714
0.986780258453853
0.994916961306785
0.9819462610546434
0.985665317466097
0.9805167783244032
0.9960879120974092
0.9972665254349868
0.9961790376906889
0.9965041337685723
0.9968045933400638
0.9867161430511493
0.9788220937011113
0.9849920856744037
0.9851618175473069
0.983922290694416
0.9836202913462702
0.95947228334359
0.9596172845501948
0.9952725681746049
0.9962649655466599
0.9839748032979614
0.988565940692617
0.9910324127362616
0.9993085872413883
0.9997446295024123
0.9995821850155446
0.9816468914954588
0.982255322890811
0.9834830174813406
0.9825309358379446
0.9849741942658197
0.9833309812819712
0.9839087548662269
0.9954119439914664
0.9857300503979587
0.9854012268709196
0.9855797702942273
0.9854167516064487
0.9826697310973936
0.9782534206971206
0.9775023974500755
0.9996405282528315
0.987993904850076
0.9997487298710669
0.9997460966172195
0.9996991215759917
0.9995449872861378
0.9995321722974176
0.9994657009464902
0.9991433883882987
0.9976237563703512
0.9968893043092399
0.9967465914573891
0.9764662970383858
0.9868341375421953
0.9862506220181431
0.9869507910478196
0.9844997024682492
0.9859157563734491
0.980415760809945
0.9903444646394263
0.9954773912229071
0.995364721842054
0.9817837114117572
0.981006448566157
0.998889672473594
0.9844358974300258
0.9845751990035335
0.9952257695328602
0.997268470228575
0.9631326499779606
0.9586514865545397
0.9764571696784797
0.9901334021430889
0.997787182879423
0.9961915532853332
0.9853583119083318
0.9967072390535141
0.9820083907731716
0.9835094200981686
0.9808030460242674
0.995191345387694
0.986119754510942
0.9856238406265281
0.9945708138235108
0.9989056297001929
0.9996548366861525
0.9857182077969114
0.9969570497807877
0.9976532367268162
0.9887341824877081
0.9923138077258893
0.9912746626813944
0.9932730795948946
0.9905471802968727
0.9667210487079443
0.9672223443158298
0.9850684990067496
0.9915790328280256
0.990156385792611
0.985080816435898
0.9998536596950683
0.9998807352104028
0.9850951901421666
0.9847687994632418
0.9774245711852406
0.9840173960118918
0.9845988501566881
0.9964504797489873
0.9901443632422361
0.9927787873393495
0.9945732219772012
0.9981406837206902
0.9984616842268831
0.9811988953102989
0.9808682787773113
0.9933894820128797
0.9990350923667586
0.9933774826865512
0.9919095079602471
0.98415539342086
0.9997078746104561
0.9895129611213771
0.9711487494912185
0.9723373021205273
0.9818920366836158
0.9915816513249492
0.9817667820565504
0.9803846813444456
0.9829118168930269
0.9818031704691684
0.9837931771468111
0.9828037544467552
0.9806190454830411
0.981392205062009
0.9786550082798654
0.9801004169915023
0.9854582778420063
0.9870729189810292
0.9928112053686395
0.9876941627477268
0.9620920492123074
0.9225344407349956
0.9211305117711175
0.9615758328800095
0.9400063872269829
0.933246699431246
0.9318032450282455
0.9230714522649416
0.9862410036212528
0.9858665826554615
0.9814272536972987
0.986106164343448
0.9878319720188353
0.9997924285798538
0.9997326186803848
0.9812044970971582
0.9812755445282488
0.9815108315633053
0.9736456660897345
0.9007307095735124
0.9836384293600056
0.9821300443610058
0.9783876136721665
0.9812055309824128
0.9765396958749515
0.9853328498706833
0.9865360387465483
0.9690709376446904
0.9896486073591148
0.9936643479670698
0.9965255768556637
0.9909054429805475
0.9783237727542606
0.9839865101354149
0.9870711184121631
0.9873095938303689
0.9994141210171437
0.999777270883494
0.9857220185630057
0.9956954815225791
0.9961117308657583
0.997098157814081
0.9946213267175666
0.9817536901710257
0.9813186563704897
0.9811865045155128
0.9818088634954146
0.9952589139522935
0.9952071383255324
0.9967979188536176
0.9771938566085299
0.9867489340392803
0.9527638281472315
0.956877018876989
0.9623779958968252
0.965847181509022
0.9698222323570307
0.9605801769573339
0.9677282348900933
0.9734555270981408
0.9729450509144805
0.9823192758541337
0.9711075740036732
0.9764464240053174
0.9792717268176692
0.9959951320586687
0.995935530109189
0.9494260634742834
0.9535916615117679
0.9949839830000244
0.9988355342723081
0.9991900929876125
0.9994097253314479
0.9992020554130013
0.9993392556918727
0.9990084772310001
0.9847678165334399
0.9852298523440298
0.9847935531895191
0.9856705802959658
0.9852561027201109
0.9861951757276644
0.9859152309078864
0.9865016145902057
0.9871107889333866
0.9850107495003085
0.9873504630257984
0.9858792386695949
0.9868847961821354
0.9871760306018257
0.9869231681243594
0.9855863725213448
0.9850197435725282
0.9840058888774229
0.9843427618038536
0.9969354688241832
0.9798078935852631
0.9856165795962083
0.9844900925207288
0.9838292985440495
0.9977256997958338
0.994833853874077
0.9959831056600672
0.9957169108478975
0.9960849468761194
0.9953632215509111
0.9950647222897034
0.9950950154143209
0.994935203906523
0.9946379038339872
0.9848153704277517
0.9932348689809575
0.9839139148465343
0.9844832808038713
0.9883936457896665
0.9886473149867206
0.9906302666627381
0.991439281841313
0.9852751708932682
0.9850688750483074
0.9852629572943415
0.9848310631608058
0.9844423480774038
0.9705848151679145
0.98646099293976
0.9833863506015393
0.9850283232771992
0.9452372593465906
0.9741054399727581
0.9984363078093944
0.9947629861018934
0.9732024275593542
0.9869141957242726
0.9878289240421013
0.9996043130898377
0.976644053880675
0.9782044395903667
0.9778483636869831
0.9785214412113041
0.9792819287170136
0.9787211996683292
0.9803043195806523
0.9798093712537382
0.9876145483771597
0.9776314025872566
0.9775028660941399
0.9771530222730961
0.9780374623139032
0.9967796089264216
0.9998558555387425
0.9874139236963816
0.978627521659136
0.9815352109329378
0.9844843408188926
0.9704958248136197
0.9664032220765217
0.966813043037381
0.9672599674026064
0.9641492079023871
0.9629141037399238
0.9629166183587362
0.968586412800144
0.9781194265885178
0.9711899454397095
0.9997470104488962
0.9769934026416277
0.9917452882096939
0.9861487435871432
0.9951613502191162
0.9804848845424302
0.9802756223062917
0.9850695235785955
0.9908259320335809
0.9914642197356166
0.9896524162394184
0.9880491910975971
0.9867782438490721
0.9864661801032782
0.9982993254759072
0.9957512936526797
0.9995231198904175
0.9830589637881288
0.9956842083765253
0.9934492673044578
0.9961666884956555
0.9946838497461862
0.9791444325871215
0.9856860746943551
0.9970439986583928
0.9851817944686032
0.9847867513568243
0.985445964596716
0.9811646038215668
0.9947186860365518
0.9920151965586297
0.9739895248526635
0.9773093061044347
0.99255931209271
0.9943171023971015
0.9744003793048481
0.9874955119749843
0.9844014561920778
0.9888842178947786
0.9877110453540754
0.9943986543695682
0.9834603918073438
0.9691127649818556
0.9943201686341557
0.9807056146742876
0.9963722512139661
0.98679315264988
0.9820802731452515
0.9813778289726155
0.9818856047877528
0.9821658308983391
0.9874430088026473
0.9869044604957218
0.9868745652229223
0.9819835675720525
0.9824954174583566
0.9780210542396027
0.9987263243709419
0.9986291304479155
0.9980801644909274
0.9981429710181182
0.9967742905932151
0.9981206897000896
0.9980819198393387
0.9914615506252974
0.9860051094905817
0.985457629451606
0.9866447210156284
0.9940059542032326
0.992161695783804
0.9947117185845209
0.9882340290930997
0.9872129187952835
0.9874217767945709
0.9867517737092044
0.9770016662748277
0.9822979978997923
0.9861347896431443
0.9856815319991159
0.9769274787449566
0.977519349925999
0.9844369354464262
0.9842997622227527
0.9846102009317561
0.9842585597310031
0.984704350910109
0.9612896242901147
0.9506566994634129
0.9981476912026035
0.998544055857809
0.9985419826204586
0.9986448452248441
0.9816458287839882
0.9941259272987044
0.9725324403871338
0.9633974644287318
0.979007973160547
0.9830146852695867
0.9837455609881326
0.9845977191304555
0.9847957611190846
0.9696040324024461
0.9818903516807639
0.9940537610392425
0.9982988134115272
0.9860554532174918
0.9878350446377081
0.9759641817416345
0.9973962540097996
0.9930984868652588
0.9934946889930127
0.9924200460374787
0.9812073189347206
0.9810075089294666
0.9812729445070797
0.9814866806104446
0.9810509961502475
0.9803395165816693
0.9808898517219061
0.998896745911032
0.9953570461958569
0.9951065731747151
0.9954878881369311
0.9949789219424339
0.995698579245777
0.9958115596657289
0.9968370478410713
0.9873105273014191
0.973580604546931
0.9987555345797197
0.9978013567478471
0.9928041329630644
0.9968382572544984
0.9976734767143471
0.9957604352352131
0.9928563470789206
0.9926540205561717
0.9817074823523145
0.9820762914009008
0.9883894873711211
0.9978054581856702
0.979788381672012
0.9808605330455277
0.9809550361832894
0.9807956982924877
0.97979905994793
0.9835720591997597
0.9834113763873896
0.9832251310354166
0.9938531847320851
0.983760387821437
0.9879034697521575
0.9958612627722057
0.993962011143718
0.9833571107153188
0.9792030187724579
0.982935279476469
0.9793891173545878
0.9810374178054949
0.980255707002245
0.9803297425415162
0.9978274025711299
0.9974906980448094
0.9955979149538396
0.998525007889563
0.9982900155321959
0.9763093833849433
0.995082542694511
0.9729331657271696
0.9978364405674943
0.9803412530027923
0.98162684510957
0.9940260138561134
0.9867284282410052
0.9857740488174308
0.9890793671049452
0.9796487968418613
0.9845649139587488
0.9943613602302863
0.994261079693772
0.9941491283837688
0.9880629262417004
0.9931227435144773
0.9812571052740849
0.9941876686058898
0.9943162183273562
0.9841203033336564
0.9843952151532144
0.998260931491347
0.9963344800322528
0.9949696173762905
0.9952273803058418
0.9957758293401866
0.9953185161757009
0.9959760801826898
0.9960779815920547
0.9953628377860606
0.9902773685057367
0.9893207827514623
0.9948695036265739
0.9809446099758454
0.9978452317575459
0.9924516366064653
0.9949296969045395
0.9994437202538449
0.9911074093171885
0.9792541004080686
0.9948586489201112
0.9828323965269293
0.9425276760958972
0.997856222549052
0.9903462016560058
0.9833984284916881
0.9848567039174747
0.9813223040623338
0.9822601911304104
0.979501427727763
0.9885491258131229
0.9932057325867055
0.9919482278954646
0.9877871318866192
0.9922771925950628
0.9904518680082987
0.9843874600845278
0.9891386034538977
0.9979715328650877
0.982202902606473
0.9952454673665385
0.9954783212113087
0.9955102157921853
0.9982686430144916
0.9863734684847981
0.981254221664886
0.9866190238260475
0.9855163837775678
0.9944044386612325
0.9836291959570358
0.9954321894427871
0.9847851784612116
0.993149455201377
0.9935904649482393
0.995251631857522
0.9974447102262808
0.9846851629980158
0.964999700956521
0.9861414888356547
0.9937173220815023
0.98741639574789
0.9868222210235893
0.9951143778788155
0.9875993600715978
0.9942409143842939
0.9943917455763821
0.9796236135502187
0.9985991555309419
0.9826272649420925
0.9904326497327903
0.9954708025643316
0.9943721379356517
0.9946236457464115
0.9941474427888626
0.9938203387829045
0.9922520508640902
0.9986337403707324
0.9992935013935305
0.9922814587976697
0.9933695906902423
0.999403396403977
0.999062404849653
0.9802178263858903
0.9865635671814981
0.9988379491627587
0.981503302669616
0.9874860997160849
0.983009557747567
0.9948955129524887
0.9948214313671998
0.9811451608622103
0.9947160891473051
0.9969276847189128
0.9825853665042443
0.9833682809954527
0.9906074047550921
0.9824428572112832
0.9591993157035876
0.9928518534230902
0.9945696793333461
0.9843484553486226
0.9839929377435966
0.9931863413519438
0.9771817284125424
0.9950673493222999
0.9897255449796393
0.9976034948017021
0.9711283018112079
0.9374476198438705
0.9777576846173729
0.991833768720959
0.9937211015322719
0.9796722556144227
0.9365761557110039
0.9970436492378363
0.9949117067908771
0.9861299379210389
0.9946376619138694
0.9912526327531037
0.9951568448266012
0.9949819036327664
0.9953445278834854
0.9852959338357284
0.9858340036492367
0.9980007879365975
0.9997684953354953
0.9952824101674226
0.9916710909851401
0.9960314677404345
0.9894176015841255
0.9884111229434389
0.9806472876374795
0.9828322697063363
0.9886174970485294
0.9881141967761043
0.9948043451325901
0.9819995629063424
0.9866418618374005
0.9957423474969459
0.9966861130611223
0.9963122170343779
0.9961488590347106
0.9944049708534581
0.9957223322544899
0.9983357498073274
0.9877331493060494
0.9587665772526786
0.9922136973421817
0.9989623904849447
0.9984276350521863
0.9846401654950159
0.9787883889727613
0.9754516135112491
0.9735025204051625
0.9945190527003259
0.9818868934925966
0.9842968795083231
0.9928742420866541
0.9815959509463634
0.9835585282842254
0.9813332925096031
0.9945703595861278
0.9937794091010053
0.9969669233956705
0.9804920754856922
0.9997939784899764
0.9998806207026245
0.9810988444699674
0.9946214922415517
0.9917891447011338
0.9916621164632534
0.9856114203872358
0.9948875165316605
0.9946349122974726
0.995229234083011
0.9939954519470513
0.9955200173377667
0.9850116233329812
0.9841985842510916
0.984402012044306
0.9884354482659077
0.9848086249927358
0.9811179460635719
0.9871258031274456
0.9994044032492969
0.985939086878571
0.98580762479873
0.9925602498364432
0.9964557013181625
0.9950691712279109
0.9895339456874204
0.9877444690708843
0.999065674224651
0.9988478313410286
0.9863816971935019
0.9860691573793341
0.9979864512321657
0.9984349031609165
0.9983355197560176
0.9864910105748756
0.9996055296145034
0.9826677227987284
0.9966305958251264
0.9866163355505916
0.9981519169190426
0.986039894642835
0.9817658652900204
0.9826437643453553
0.9805323007336644
0.9943429254757017
0.9881469613453752
0.9984553103148637
0.9943896766810547
0.995661140872006
0.9951697054587945
0.996415571466568
0.973267975338467
0.9840043009794746
0.9811902997194709
0.9982194138012713
0.9905910917263845
0.9878272697679048
0.9745829849757689
0.9831320280468486
0.8527468647402068
0.9939170335636285
0.9836357109583055
0.9823797595682454
0.9777389475581205
0.9954220427141222
0.9959712539459389
0.9825427997015518
0.9844919915396755
0.9958639468495906
0.9727728957742664
0.9902138211509431
0.9854439715947488
0.9846141727490589
0.9960067096375808
0.9972608026399027
0.9935677599600325
0.9822865905764467
0.9824649172492825
0.9862059712129194
0.9868492650270173
0.9906909235250836
0.9947906834069752
0.9786366517621045
0.9776093816087895
0.967364719947432
0.9965749769083386
0.993728255535845
0.9841811020642596
0.9894451372140792
0.9956104964690309
0.9909603413905195
0.9891076155147344
0.9943569914549948
0.9891387778477195
0.9901856142997284
0.9877953257350836
0.9924773963983617
0.9912919983773311
0.9614461592524506
0.9870005058394726
0.9856095504376738
0.9951123608967525
0.9839667644343674
0.9942361723895918
0.9918585089095777
0.9804090001074599
0.9858910362800306
0.9889235034340866
0.9714688867479002
0.992324332359197
0.9944782607601009
0.9943649076184639
0.9831358308505175
0.9780757837668896
0.9613275269916391
0.9896662861892691
0.9956932504285848
0.9837088466837169
0.994969708629283
0.9830970069482846
0.9955166253382591
0.9713747794974169
0.9875639157447426
0.9806719694270943
0.9890194565783177
0.9867983411581859
0.9944820318272425
0.9963946262623699
0.9851552253822065
0.981568934078847
0.9848473374509934
0.9863133383968071
0.995246692523017
0.9948643948962731
0.9884887194829147
0.9851759768692606
0.9990466096187018
0.9938204328848548
0.9852768493777043
0.9993223281153224
0.9831887262577267
0.9929721517853735
0.9854922650888214
0.9889087832323472
0.9908793471223826
0.9956367451474051
0.989670986400812
0.9712503367848656
0.9765406962290027
0.9998363397341846
0.9997589656672266
0.9869329394745632
0.993872543154003
0.981307537397068
0.9907252740815693
0.9868723217469906
0.9874737003122227
0.9951881423399985
0.9953784591151269
0.987727894705344
0.9873870839325865
0.9852998515612578
0.9975780988569578
0.9948055161285903
0.9846543736823616
0.9864149335674804
0.9884292538180411
0.9832353337176875
0.9780153693420761
0.9862061156727359
0.9364572281452572
0.9787638816186154
0.9874553287311164
0.9850383826499586
0.9961047883578488
0.9854551522282956
0.9992496859115167
0.985885795187158
0.9838790277851507
0.9897835580400335
0.9863576274368049
0.9756083585998648
0.9776542671097608
0.988197109825346
0.9942481944810112
0.986477694299575
0.9992096982870957
0.9807138984645283
0.9857805023430457
0.9869668338042177
0.9965662785073993
0.9112940776915396
0.9768120312836621
0.9823993796637104
0.9856003762541512
0.9867250264088945
0.9992510297632594
0.9868023395705217
0.9943987725385184
0.9877709518939235
0.993525673501031
0.979806422962944
0.9869450159401529
0.981170471827555
0.9810743992251771
0.9967290352774933
0.9947870140330898
0.9854744457299648
0.9826280606394867
0.9766793889933447
0.9790927830241479
0.9861731364840903
0.9816250564450244
0.9825891849402036
0.9912220667805112
0.9907858592591438
0.9952769170749132
0.9984900429617053
0.963697094397217
0.9928868280552654
0.994327547868126
0.9751774216289613
0.9968830962672726
0.9889733638772986
0.9912443513427475
0.9949786043589152
0.9011727406472488
0.990140770970262
0.9997527572740629
0.981814080146637
0.9993168913260744
0.9810704814077036
0.9972326338302762
0.9875438748601213
0.9916429452953196
0.982716313971979
0.9632988430420458
0.9654994241657674
0.9941776319820377
0.9893809694420167
0.9795537177384047
0.9816904882988788
0.9808728807197913
0.9843933369500709
0.9959943746984043
0.9975537887752282
0.9859110959067913
0.9962554610418134
0.9975974972886353
0.9822571769713615
0.9928728539759958
0.9948775835859104
0.9869690226122887
0.9842995668168762
0.988998760635841
0.9769998411974079
0.9988544192425105
0.9975149239780036
0.9876440999711926
0.9817092070237826
0.9814919828184309
0.995800511973171
0.9816878044134048
0.9658261497462526
0.9854082952868652
0.9950346150778759
0.9978482044703952
0.9950357930621273
0.9904687239701317
0.9986283736002239
0.9890346471662383
0.9883701997105427
0.9868157252433828
0.9688597818247721
0.9788381474888798
0.9849834795311092
0.986082005205093
0.9849715472860826
0.9726418526201075
0.9423105232097692
0.9852018953331717
0.9733001810018487
0.9934529143130876
0.9832903138910258
0.9723436459194978
0.9945104216876028
0.9864868493070018
0.9848402942396924
0.9940834498407656
0.9835783560265318
0.9784869422005064
0.9591833183547877
0.9904243214025056
0.9995748602468476
0.9789297879115675
0.9863932196177736
0.9963367332867312
0.9945947288554193
0.9996054028377639
0.9951877701620486
0.9973862583673616
0.9952425333694688
0.9795906856690141
0.94386216014152
0.9839472460517803
0.986644782369597
0.9880751289667457
0.9998878956774817
0.9843614882109124
0.9859491713909172
0.9828610836148324
0.9825995633208172
0.9916251957432095
0.9991466920837117
0.9998620102808179
0.9864127761358754
0.981290517318543
0.9881971831516638
0.9954484864796599
0.9991252399035528
0.9812073519944542
0.987669349864636
0.9834964750569959
0.9853910036135197
0.9888554912117027
0.9870547947092749
0.9846815840183591
0.986152054853839
0.9852994901171834
0.9868094055867606
0.9955635462856106
0.9946174667952015
0.9879466903211754
0.975362696028176
0.9948808556047651
0.9956273898494038
0.9912276942548356
0.9841880635385023
0.9847993013093853
0.9496269678524857
0.9853767789254343
0.9924761027961552
0.9670701329947284
0.9943928458764485
0.9896475181708952
0.9956569923304553
0.981397838398252
0.9952475340847086
0.9944878983053832
0.9921970916828262
0.9754582749242794
0.995127756520258
0.981705062280218
0.9956117043293405
0.9841487986343648
0.9939936972713868
0.9996529159611894
0.9847423479677379
0.9924920145432298
0.9959604560136716
0.9845176170830654
0.996395553679852
0.994869053549064
0.9863841492381651
0.9497780994659394
0.9995177307052091
0.9943510803576731
0.9477804556698695
0.9887067647524236
0.9979273370274448
0.9773374950817985
0.9925397271073821
0.9871170272295572
0.9948321580948818
0.9808306482342085
0.9839596997883105
0.9654224446498592
0.9935569685847441
0.9946366110185271
0.992275072992615
0.9956104135913889
0.9953012984664692
0.9813842297470098
0.9991280941551496
0.9959147439951826
0.9855416319439622
0.9815713505917211
0.9944925940368707
0.9976428805410302
0.9987446717246123
0.9513085793186934
0.9832143695815088
0.965871186824112
0.977554975602841
0.9930531689525564
0.9780661336326021
0.9853493724407614
0.9949606555022766
0.9983335155453201
0.9788608061232563
0.9784126129321108
0.9953097882927463
0.9814504788700746
0.9842850149047292
0.9772240426424994
0.986379625073346
0.9955585019470921
0.9795091580938143
0.9916295872574038
0.9539252415461917
0.9964335743378482
0.986321196034073
0.9853647637968209
0.9811800223966115
0.9997477057094302
0.9886917521891473
0.9850605237907414
0.9860209112066844
0.9937748158718486
0.9861725933467406
0.9843614344910306
0.9890863224166825
0.9827499768687713
0.9850509932925197
0.9956566510119156
0.9975652943035934
0.9993089312621859
0.9826465160873338
0.9836093692072424
0.9837031851114465
0.9983246507681355
0.9994949935971446
0.9871698856699962
0.9802735510405965
0.9914565534041702
0.9817316110197011
0.9814391777826343
0.9853746987777512
0.9962044552900648
0.9887310934127822
0.9799145783294896
0.9895422501239254
0.9966350299990961
0.9859343418851771
0.9948436532413949
0.9855989794066037
0.9973457798265225
0.9866657578312426
0.977934167247102
0.9836028382277555
0.9437985087676777
0.988959219421575
0.9896971229032288
0.9609954814278244
0.8272028776621067
0.9848007744476026
0.9869401391091202
0.9742783029938571
0.9946234361659185
0.9834530381985815
0.9995227045151795
0.9825657851726753
0.985447311961129
0.9784349223557368
0.9971996039529364
0.982743291213769
0.981261578806288
0.9863717610433067
0.991811765613851
0.9685259521226453
0.993793162590475
0.9840101195634445
0.9861220031449431
0.987719506789864
0.9967936945605099
0.9998247426587034
0.9823703124158099
0.9804721851039294
0.9837870218774057
0.9805383571033661
0.9995973091684206
0.9924217790230139
0.9993831382511231
0.9925246537721764
0.986753495842154
0.9849231196717955
0.9820073452595574
0.98859549572339
0.9780730113325063
0.9858124092543016
0.9813492816772984
0.9849690002644071
0.9953429882474412
0.9807670396811082
0.9855522069317026
0.9863875045368589
0.9855849736755606
0.9937370799992119
0.9855636386988709
0.9866760336982179
0.9840567608270578
0.9996101516907878
0.994430848781838
0.9853931067836129
0.9745553521154848
0.9891713961505717
0.996455318831804
0.9805740963868818
0.9850660814761669
0.9987075399752116
0.9790575856369677
0.9942093271482029
0.973192485302092
0.9921497487932616
0.9986232862818925
0.9863510349153978
0.9998164988971279
0.9833427753704151
0.9989665996963065
0.9626825794607716
0.9836704578525732
0.9652488113694301
0.9928889823318118
0.9954884429371885
0.9559547957791182
0.9962665783884301
0.9986583272107191
0.9998733366352359
0.9825195248700351
0.9961025414696103
0.997648874281969
0.998771929999781
0.9864733665019784
0.887555661720328
0.9838498103470231
0.9866211535485977
0.9991311535299009
0.997779980092298
0.97998013612035
0.9942554114893088
0.9996657942195573
0.9786938054384757
0.9888343002158275
0.9799501911741965
0.9675514106613228
0.9980132080102783
0.9819225985095513
0.9952137807388327
CELL_DATA 4886
TENSORS stress float
-343899.11825841235 2.4251898199818246e6 0.0
2.4251898199818246e6 304102.99680003215 0.0
0.0 0.0 0.0

-3.857589620724544e6 -384414.18722817604 0.0
-384414.18722817604 1.799098811301696e6 0.0
0.0 0.0 0.0

-5.129141139004461e6 3.8631756348565514e6 0.0
3.8631756348565514e6 3.649607721762482e6 0.0
0.0 0.0 0.0

-2.1632387195262355e6 5.079351142297445e6 0.0
5.079351142297445e6 729639.1154289963 0.0
0.0 0.0 0.0

-3.0704804681782424e6 4.3180181349945245e6 0.0
4.3180181349945245e6 839316.5964669578 0.0
0.0 0.0 0.0

2.0005198236651658e6 1.5507861845884863e6 0.0
1.5507861845884863e6 -1.9732255065452673e6 0.0
0.0 0.0 0.0

3.482837009335053e6 8.033806071803577e6 0.0
8.033806071803577e6 1.3835326552451416e6 0.0
0.0 0.0 0.0

179776.84620891605 3.1827043235519244e6 0.0
3.1827043235519244e6 -3.2266355544076012e6 0.0
0.0 0.0 0.0

-935908.003822516 2.6670726071481924e6 0.0
2.6670726071481924e6 341667.3397093142 0.0
0.0 0.0 0.0

-434085.3568692059 6.962567359724052e6 0.0
6.962567359724052e6 -262434.0330136583 0.0
0.0 0.0 0.0

-1.3551774473461935e6 6.094622390500274e6 0.0
6.094622390500274e6 -279594.5231611596 0.0
0.0 0.0 0.0

-4.233855920943114e6 5.774230111633597e6 0.0
5.774230111633597e6 1.7628051653397195e6 0.0
0.0 0.0 0.0

55244.659306806745 4.464764013541214e6 0.0
4.464764013541214e6 -2.6605386971409023e6 0.0
0.0 0.0 0.0

5.3610837133119665e6 8.734572816553663e6 0.0
8.734572816553663e6 1.030043365587681e6 0.0
0.0 0.0 0.0

-2.08931466598096e6 6.261604634274699e6 0.0
6.261604634274699e6 -515837.81651570834 0.0
0.0 0.0 0.0

160129.45810916845 9.019052652638594e6 0.0
9.019052652638594e6 -2.3081948087380575e6 0.0
0.0 0.0 0.0

-245782.55678183603 4.8983824377681855e6 0.0
4.8983824377681855e6 -2.1734669891139837e6 0.0
0.0 0.0 0.0

-565599.3440612262 4.4471998835508125e6 0.0
4.4471998835508125e6 -2.0410788229000075e6 0.0
0.0 0.0 0.0

243775.75484706004 887661.4919784939 0.0
887661.4919784939 -562161.7345954597 0.0
0.0 0.0 0.0

-1.9040005837908771e6 7.555636677483672e6 0.0
7.555636677483672e6 -189251.43293793895 0.0
0.0 0.0 0.0

-825669.1858564503 6.37973837291908e6 0.0
6.37973837291908e6 -1.4171842505608688e6 0.0
0.0 0.0 0.0

-4.211374724437086e6 5.856717756909159e6 0.0
5.856717756909159e6 1.4390153042713732e6 0.0
0.0 0.0 0.0

-110026.48575974294 2.7038798902373267e6 0.0
2.7038798902373267e6 -678245.9308471394 0.0
0.0 0.0 0.0

-2.496059016720182e6 6.100993065914826e6 0.0
6.100993065914826e6 129934.6815076 0.0
0.0 0.0 0.0

-330636.24505681376 4.46239688191109e6 0.0
4.46239688191109e6 -2.533461655965314e6 0.0
0.0 0.0 0.0

-2.7248206331693036e6 1.4526850589053867e7 0.0
1.4526850589053867e7 1.1430270638850834e6 0.0
0.0 0.0 0.0

1.5266271912501093e6 6.211802566293862e6 0.0
6.211802566293862e6 1.777741175763387e6 0.0
0.0 0.0 0.0

-1.7467151043212945e6 3.2433724582950543e6 0.0
3.2433724582950543e6 1.3787231345051618e6 0.0
0.0 0.0 0.0

532626.913833218 9.17218112350735e6 0.0
9.17218112350735e6 -2.5926224337833943e6 0.0
0.0 0.0 0.0

364242.6039564487 1.4798816928929512e6 0.0
1.4798816928929512e6 -965875.1243720807 0.0
0.0 0.0 0.0

-293958.8197770395 2.7245902107111225e6 0.0
2.7245902107111225e6 -725938.6067935848 0.0
0.0 0.0 0.0

958234.0579312557 2.7069756683552247e6 0.0
2.7069756683552247e6 -2.064153594518217e6 0.0
0.0 0.0 0.0

-304691.94920765306 5.137982409404906e6 0.0
5.137982409404906e6 -687511.2142677398 0.0
0.0 0.0 0.0

-882401.6992397609 6.615522721898965e6 0.0
6.615522721898965e6 -346596.9441422734 0.0
0.0 0.0 0.0

-2.645568084137634e6 3.8406226854964276e6 0.0
3.8406226854964276e6 885572.6927227239 0.0
0.0 0.0 0.0

-116235.05118991554 2.905839103226033e6 0.0
2.905839103226033e6 -900007.3689977229 0.0
0.0 0.0 0.0

-863831.3340549812 3.647245680708868e6 0.0
3.647245680708868e6 -1.4200008539066936e6 0.0
0.0 0.0 0.0

-2.5578330371233337e6 3.8148021741435374e6 0.0
3.8148021741435374e6 920353.3397356555 0.0
0.0 0.0 0.0

-427702.33705189585 5.6181738680226e6 0.0
5.6181738680226e6 -2.4613304153907583e6 0.0
0.0 0.0 0.0

-3.345679532607733e6 4.288984178141455e6 0.0
4.288984178141455e6 1.0092240477172064e6 0.0
0.0 0.0 0.0

-186084.37350574252 4.699128214078479e6 0.0
4.699128214078479e6 -2.886898982438347e6 0.0
0.0 0.0 0.0

-5.221106732201124e6 3.921978438564357e6 0.0
3.921978438564357e6 4.1650665565758995e6 0.0
0.0 0.0 0.0

-3.2557696864120876e6 4.171362747536415e6 0.0
4.171362747536415e6 964801.4941870314 0.0
0.0 0.0 0.0

-465222.0127401019 1.9068376678201272e6 0.0
1.9068376678201272e6 178022.58630970452 0.0
0.0 0.0 0.0

-853950.4217473818 6.31952229317733e6 0.0
6.31952229317733e6 -1.5876281549465274e6 0.0
0.0 0.0 0.0

-2.0342134012576118e6 3.7028604650893304e6 0.0
3.7028604650893304e6 2.2218123226351417e6 0.0
0.0 0.0 0.0

-1.3504552980975988e6 7.329531118354746e6 0.0
7.329531118354746e6 -510989.56245996593 0.0
0.0 0.0 0.0

-536876.3021593816 3.6380498143240083e6 0.0
3.6380498143240083e6 -1.469741491088775e6 0.0
0.0 0.0 0.0

-208818.48266469536 2.4832648218882154e6 0.0
2.4832648218882154e6 -2.6112213096067985e6 0.0
0.0 0.0 0.0

-114013.89237534083 7.305947968675631e6 0.0
7.305947968675631e6 -380046.2832283509 0.0
0.0 0.0 0.0

-3.242726811441895e6 4.519611708679307e6 0.0
4.519611708679307e6 1.0755428892163336e6 0.0
0.0 0.0 0.0

-1.9895993059854866e6 -671184.1733906749 0.0
-671184.1733906749 1.9250251443303972e6 0.0
0.0 0.0 0.0

-104852.16667953739 2.442357821623896e6 0.0
2.442357821623896e6 -3.018734474436987e6 0.0
0.0 0.0 0.0

-2.8684939899717057e6 3.882834160520362e6 0.0
3.882834160520362e6 888185.9627445962 0.0
0.0 0.0 0.0

-256605.91907323868 7.276726344978908e6 0.0
7.276726344978908e6 -418433.5371108481 0.0
0.0 0.0 0.0

-2.148742446277255e6 5.378400719245206e6 0.0
5.378400719245206e6 293719.5466408512 0.0
0.0 0.0 0.0

398.7056313138455 4.276414135351018e6 0.0
4.276414135351018e6 -3.461264156858565e6 0.0
0.0 0.0 0.0

-3.426990192944789e6 4.2833654603284905e6 0.0
4.2833654603284905e6 1.1067420617856695e6 0.0
0.0 0.0 0.0

-2.49278560867077e6 6.548512501818862e6 0.0
6.548512501818862e6 2.4632680632538917e6 0.0
0.0 0.0 0.0

-602510.0405868918 5.873532494557919e6 0.0
5.873532494557919e6 -1.7131265789948641e6 0.0
0.0 0.0 0.0

-446691.28624363977 5.513500561511318e6 0.0
5.513500561511318e6 -2.173012141763651e6 0.0
0.0 0.0 0.0

2.4993889415434846e6 9.832782222546969e6 0.0
9.832782222546969e6 -5.178666649539451e6 0.0
0.0 0.0 0.0

-850850.7142798665 5.574098512589289e6 0.0
5.574098512589289e6 1.1097160091987927e6 0.0
0.0 0.0 0.0

52524.00136750282 2.8311721361673134e6 0.0
2.8311721361673134e6 -589612.7400033448 0.0
0.0 0.0 0.0

-270109.6316668211 2.0900412087636627e6 0.0
2.0900412087636627e6 -1.333149671799071e6 0.0
0.0 0.0 0.0

-190081.3332691947 3.353660459412981e6 0.0
3.353660459412981e6 -2.6880275098055853e6 0.0
0.0 0.0 0.0

36147.22644335043 4.1172156070794784e6 0.0
4.1172156070794784e6 -2.706408631052909e6 0.0
0.0 0.0 0.0

-2.8740626710699713e6 3.8056755198376044e6 0.0
3.8056755198376044e6 735564.9332267195 0.0
0.0 0.0 0.0

-1.506644735198168e6 6.090931718735612e6 0.0
6.090931718735612e6 937186.9151608923 0.0
0.0 0.0 0.0

226254.3373256874 5.025328457602091e6 0.0
5.025328457602091e6 2.3802354423765843e6 0.0
0.0 0.0 0.0

-717802.3436661151 2.0546090481788418e6 0.0
2.0546090481788418e6 -42343.53205584671 0.0
0.0 0.0 0.0

-191312.11279451498 4.105292140167191e6 0.0
4.105292140167191e6 -2.3316496000982462e6 0.0
0.0 0.0 0.0

-470995.20595088747 5.548779412873515e6 0.0
5.548779412873515e6 -2.4695155210505584e6 0.0
0.0 0.0 0.0

-4.4575363085409105e6 7.962819565800754e6 0.0
7.962819565800754e6 6.180883230066254e6 0.0
0.0 0.0 0.0

-2.42365492919081e6 4.609580373996577e6 0.0
4.609580373996577e6 1.122119017349118e6 0.0
0.0 0.0 0.0

-2.1164146066249567e6 3.43074318475637e6 0.0
3.43074318475637e6 1.564766119580432e6 0.0
0.0 0.0 0.0

-5.315784904217553e6 817196.3838350162 0.0
817196.3838350162 5.835190045663755e6 0.0
0.0 0.0 0.0

-461545.6429922506 4.902475419653319e6 0.0
4.902475419653319e6 -2.227507219584695e6 0.0
0.0 0.0 0.0

-793254.1766162324 5.027909050302861e6 0.0
5.027909050302861e6 -1.430432020530287e6 0.0
0.0 0.0 0.0

-1.172961245581311e6 6.462359738242714e6 0.0
6.462359738242714e6 -1.0694920949535388e6 0.0
0.0 0.0 0.0

-334236.6115630338 1.1768747325850049e7 0.0
1.1768747325850049e7 -1.409026413637287e6 0.0
0.0 0.0 0.0

-145787.71320779025 300384.0219971143 0.0
300384.0219971143 -350585.5842130587 0.0
0.0 0.0 0.0

-768750.3752777474 5.951958066791878e6 0.0
5.951958066791878e6 -1.2770327449602175e6 0.0
0.0 0.0 0.0

-4.776366396414758e6 6.595996627664791e6 0.0
6.595996627664791e6 1.7321238779030049e6 0.0
0.0 0.0 0.0

-2.126025529998092e6 5.07301664469816e6 0.0
5.07301664469816e6 724123.426179357 0.0
0.0 0.0 0.0

-80984.89874789753 3.3505743201447143e6 0.0
3.3505743201447143e6 -1.5374807737169664e6 0.0
0.0 0.0 0.0

751932.2320612511 2.1480341786000147e6 0.0
2.1480341786000147e6 -2.7470743483583587e6 0.0
0.0 0.0 0.0

-526252.2088407909 5.266116799980881e6 0.0
5.266116799980881e6 -656356.0117399414 0.0
0.0 0.0 0.0

-7.196443655849878e6 1.6151377430261545e7 0.0
1.6151377430261545e7 -1.4010851899522603e6 0.0
0.0 0.0 0.0

-4.0450012408392187e6 447349.8211403119 0.0
447349.8211403119 4.807630164115626e6 0.0
0.0 0.0 0.0

-795689.6973413465 6.59088532487433e6 0.0
6.59088532487433e6 -958345.5453274329 0.0
0.0 0.0 0.0

-376669.0281517065 4.635708012130782e6 0.0
4.635708012130782e6 -1.5711842390618036e6 0.0
0.0 0.0 0.0

-577161.2474003399 3.1183931221135925e6 0.0
3.1183931221135925e6 -1.933888317839293e6 0.0
0.0 0.0 0.0

895325.0391575149 1.7453285063788618e6 0.0
1.7453285063788618e6 -1.7224546028408832e6 0.0
0.0 0.0 0.0

-887086.0307058833 8.108407306832503e6 0.0
8.108407306832503e6 -1.0387158172376468e6 0.0
0.0 0.0 0.0

-324154.38944134925 5.113504966532822e6 0.0
5.113504966532822e6 -2.389812986952302e6 0.0
0.0 0.0 0.0

-196928.34711630887 2.9649037068239315e6 0.0
2.9649037068239315e6 -3.625078235527947e6 0.0
0.0 0.0 0.0

-2.4544229091929123e6 4.549982205087555e6 0.0
4.549982205087555e6 955550.317989764 0.0
0.0 0.0 0.0

-327131.40204832953 4.407520747385568e6 0.0
4.407520747385568e6 -2.203577244944241e6 0.0
0.0 0.0 0.0

230764.54905652883 4.42294796389079e6 0.0
4.42294796389079e6 -3.3449475784614068e6 0.0
0.0 0.0 0.0

-1.1771011635720064e6 6.032521090482636e6 0.0
6.032521090482636e6 66404.05843710416 0.0
0.0 0.0 0.0

-2.18388551361801e6 3.3548984907510346e6 0.0
3.3548984907510346e6 525423.9773217796 0.0
0.0 0.0 0.0

-377762.3672071609 2.451750148731479e6 0.0
2.451750148731479e6 -524527.4189399102 0.0
0.0 0.0 0.0

-3.1513478533844617e6 4.1063921691111024e6 0.0
4.1063921691111024e6 1.0120619627196502e6 0.0
0.0 0.0 0.0

-22199.315374047204 2.565861820761836e6 0.0
2.565861820761836e6 -1.153984657206697e6 0.0
0.0 0.0 0.0

-1.496839635706531e6 3.2051785301776687e6 0.0
3.2051785301776687e6 -54724.77959486854 0.0
0.0 0.0 0.0

-64760.07651826521 587546.6640258222 0.0
587546.6640258222 285720.7855897693 0.0
0.0 0.0 0.0

-1.1208209148901722e6 6.552956925089829e6 0.0
6.552956925089829e6 -1.08253706404245e6 0.0
0.0 0.0 0.0

-3.8994700138871768e6 5.7871842588136215e6 0.0
5.7871842588136215e6 1.529119637517638e6 0.0
0.0 0.0 0.0

-115166.64201419576 2.8940348137146914e6 0.0
2.8940348137146914e6 -946560.6686798905 0.0
0.0 0.0 0.0

-80794.44713847071 4.361168110574278e6 0.0
4.361168110574278e6 -2.8979812507756664e6 0.0
0.0 0.0 0.0

-1.0100797257382439e6 2.134266378809892e6 0.0
2.134266378809892e6 -801806.548436783 0.0
0.0 0.0 0.0

-211294.11933401378 4.917491768594361e6 0.0
4.917491768594361e6 425429.4643978612 0.0
0.0 0.0 0.0

2.391329474693234e6 6.453010285490022e6 0.0
6.453010285490022e6 1.8375750765164727e6 0.0
0.0 0.0 0.0

-795978.2909869757 4.790130167225866e6 0.0
4.790130167225866e6 -911255.747892451 0.0
0.0 0.0 0.0

-453114.3226550896 5.651642444773677e6 0.0
5.651642444773677e6 -2.4093496417567907e6 0.0
0.0 0.0 0.0

-664627.3041037798 4.974171048177028e6 0.0
4.974171048177028e6 -1.3989459366737842e6 0.0
0.0 0.0 0.0

-106526.55919783539 3.4329233665543855e6 0.0
3.4329233665543855e6 -2.0752767025800375e6 0.0
0.0 0.0 0.0

3.4434209197435393e6 6.215970001075725e6 0.0
6.215970001075725e6 1.3295420758800285e6 0.0
0.0 0.0 0.0

-5.698404528165343e6 4.20745209290324e6 0.0
4.20745209290324e6 2.1890607829640997e6 0.0
0.0 0.0 0.0

-257718.5420059978 5.45550952979438e6 0.0
5.45550952979438e6 -2.4180106367471796e6 0.0
0.0 0.0 0.0

-2.4901269251418966e6 6.104422348808732e6 0.0
6.104422348808732e6 98645.11240285519 0.0
0.0 0.0 0.0

-113342.08372142434 3.4333395698639825e6 0.0
3.4333395698639825e6 -2.0905897278226712e6 0.0
0.0 0.0 0.0

-2.3031990636549764e6 5.362570363098831e6 0.0
5.362570363098831e6 407797.5901597971 0.0
0.0 0.0 0.0

-2.0501437630692844e6 1.0167771872094614e7 0.0
1.0167771872094614e7 532439.1096640375 0.0
0.0 0.0 0.0

-1.2047670564678449e6 2.2525766998354523e6 0.0
2.2525766998354523e6 1.4329192601304841e6 0.0
0.0 0.0 0.0

-8.47801374112782e6 1.4107742485983001e7 0.0
1.4107742485983001e7 1.1818920769695365e6 0.0
0.0 0.0 0.0

-722338.547475338 6.648395429517145e6 0.0
6.648395429517145e6 -343983.63760625187 0.0
0.0 0.0 0.0

-62220.802507683635 2.339077277126228e6 0.0
2.339077277126228e6 -2.7735273343653907e6 0.0
0.0 0.0 0.0

3.1241941425423543e6 8.659446844975438e6 0.0
8.659446844975438e6 -2.321957871366204e6 0.0
0.0 0.0 0.0

-1.3519938393495688e6 6.017805337189481e6 0.0
6.017805337189481e6 19348.07321333204 0.0
0.0 0.0 0.0

-334405.53631344216 3.7514306717629675e6 0.0
3.7514306717629675e6 -2.4731357341133547e6 0.0
0.0 0.0 0.0

-1.8205753735268693e6 7.657838166965644e6 0.0
7.657838166965644e6 -12025.105070235324 0.0
0.0 0.0 0.0

-1.0320663088201231e6 6.527542737927833e6 0.0
6.527542737927833e6 -1.0618987872530194e6 0.0
0.0 0.0 0.0

-1.1660103145952919e6 5.732809794060054e6 0.0
5.732809794060054e6 226082.0051953107 0.0
0.0 0.0 0.0

-497087.2600743957 5.111323214860832e6 0.0
5.111323214860832e6 -1.301600820783829e6 0.0
0.0 0.0 0.0

-281356.0711284426 4.1310108219902385e6 0.0
4.1310108219902385e6 1.1383306527868996e6 0.0
0.0 0.0 0.0

-146969.29699076025 5.372120533629625e6 0.0
5.372120533629625e6 -3.2481131276919795e6 0.0
0.0 0.0 0.0

-1.9760564557170887e6 5.272651866686607e6 0.0
5.272651866686607e6 518890.9775558461 0.0
0.0 0.0 0.0

1.2941586081142789e6 1.959227840832534e6 0.0
1.959227840832534e6 -2.006322757906578e6 0.0
0.0 0.0 0.0

-1.6238986611547568e6 3.262056996758111e6 0.0
3.262056996758111e6 1.3996964335546908e6 0.0
0.0 0.0 0.0

-145112.0719780163 3.3512925057864725e6 0.0
3.3512925057864725e6 -1.2101026190756394e6 0.0
0.0 0.0 0.0

-662782.6174691073 475807.6251460947 0.0
475807.6251460947 830362.5093441511 0.0
0.0 0.0 0.0

-909825.0009494205 6.288881935521259e6 0.0
6.288881935521259e6 -1.4199576130170866e6 0.0
0.0 0.0 0.0

1.8370475619540461e6 1.4137882803326738e6 0.0
1.4137882803326738e6 -2.6378358793620374e6 0.0
0.0 0.0 0.0

-132483.4921495679 7.263404353591066e6 0.0
7.263404353591066e6 -380809.3446380929 0.0
0.0 0.0 0.0

-3.2062415593057843e6 4.283617694569396e6 0.0
4.283617694569396e6 1.0144351375986447e6 0.0
0.0 0.0 0.0

-468815.5429279185 841406.8075711591 0.0
841406.8075711591 375803.3093015958 0.0
0.0 0.0 0.0

-1.0516663071997156e6 6.219955594639625e6 0.0
6.219955594639625e6 -310063.05509047763 0.0
0.0 0.0 0.0

-642007.1478685009 8.532527937093444e6 0.0
8.532527937093444e6 -904935.6072167389 0.0
0.0 0.0 0.0

-2.733323924534631e6 3.684331440822596e6 0.0
3.684331440822596e6 660456.7617467293 0.0
0.0 0.0 0.0

-3.270477580224373e6 5.8898667991484245e6 0.0
5.8898667991484245e6 1.7594892987046293e6 0.0
0.0 0.0 0.0

-2.694996046630539e6 3.65411298567514e6 0.0
3.65411298567514e6 824881.6851019603 0.0
0.0 0.0 0.0

-425706.4356861297 5.565311928866077e6 0.0
5.565311928866077e6 -2.320772970807945e6 0.0
0.0 0.0 0.0

363744.39650851744 1.1378810487267833e7 0.0
1.1378810487267833e7 -2.6622201255913666e6 0.0
0.0 0.0 0.0

-539957.7198391824 4.540218803002308e6 0.0
4.540218803002308e6 -1.704454115320586e6 0.0
0.0 0.0 0.0

-1.146349883758842e6 6.08233760097639e6 0.0
6.08233760097639e6 547940.0207773295 0.0
0.0 0.0 0.0

-2.385923935303784e6 4.79355742706637e6 0.0
4.79355742706637e6 2.10911100024495e6 0.0
0.0 0.0 0.0

-771256.5709345513 5.963408700725495e6 0.0
5.963408700725495e6 -1.6491818217406005e6 0.0
0.0 0.0 0.0

-1.4255544639959612e6 3.0917275082152667e6 0.0
3.0917275082152667e6 -151053.2269758957 0.0
0.0 0.0 0.0

-4.0840654064460536e6 4.691787539852085e6 0.0
4.691787539852085e6 1.2943457168832591e6 0.0
0.0 0.0 0.0

-2.301103571645706e6 3.817456020319706e6 0.0
3.817456020319706e6 1.1485816021913067e6 0.0
0.0 0.0 0.0

-4.736631130758943e6 7.012248272183444e6 0.0
7.012248272183444e6 1.9924193727700675e6 0.0
0.0 0.0 0.0

-981195.846337714 6.143012644556471e6 0.0
6.143012644556471e6 -1.4715532934773376e6 0.0
0.0 0.0 0.0

-5.111924495329828e6 7.546101900227173e6 0.0
7.546101900227173e6 1.1850397136516504e6 0.0
0.0 0.0 0.0

70270.63096845907 3.6545970346425395e6 0.0
3.6545970346425395e6 -3.001956621831308e6 0.0
0.0 0.0 0.0

-2.4425152466579955e6 1.0811103095953576e7 0.0
1.0811103095953576e7 1.0465601771456166e6 0.0
0.0 0.0 0.0

-4.0536148989701043e6 4.668556711452235e6 0.0
4.668556711452235e6 348931.45740744495 0.0
0.0 0.0 0.0

-580905.035785194 6.866335105958877e6 0.0
6.866335105958877e6 -258291.99777922596 0.0
0.0 0.0 0.0

-4.782324530898561e6 5.512134079234979e6 0.0
5.512134079234979e6 -852581.8564625835 0.0
0.0 0.0 0.0

5814.737670735922 2.3243591855906714e6 0.0
2.3243591855906714e6 -2.918274780964626e6 0.0
0.0 0.0 0.0

-2.202679873124461e6 3.8432850831903964e6 0.0
3.8432850831903964e6 1.5408754943190096e6 0.0
0.0 0.0 0.0

-84254.17670359439 2.9073251988712465e6 0.0
2.9073251988712465e6 -831284.6181731625 0.0
0.0 0.0 0.0

-450108.4506517411 2.668264833090528e6 0.0
2.668264833090528e6 -2.142892677003504e6 0.0
0.0 0.0 0.0

-1.0723671058311283e6 6.356846878200634e6 0.0
6.356846878200634e6 -1.0393826360643917e6 0.0
0.0 0.0 0.0

-6.653033823725335e6 4.0715770403148253e6 0.0
4.0715770403148253e6 2.8025639388921866e6 0.0
0.0 0.0 0.0

-4.575129727088585e6 -998447.1739877937 0.0
-998447.1739877937 3.4588763208438656e6 0.0
0.0 0.0 0.0

-5.30410632368899e6 8.023365311595841e6 0.0
8.023365311595841e6 -234525.31438719016 0.0
0.0 0.0 0.0

3.0851270192126804e6 6.405090852972673e6 0.0
6.405090852972673e6 313264.63754722616 0.0
0.0 0.0 0.0

-577846.4947130312 5.691481419099038e6 0.0
5.691481419099038e6 -3.1058693978841966e6 0.0
0.0 0.0 0.0

-866592.8544761785 5.342979372328005e6 0.0
5.342979372328005e6 -1.2765089030988198e6 0.0
0.0 0.0 0.0

-1.128428875025542e6 6.155123346598569e6 0.0
6.155123346598569e6 795135.1482375301 0.0
0.0 0.0 0.0

-1.7228415472571433e6 8.354632453565094e6 0.0
8.354632453565094e6 -384012.38090673124 0.0
0.0 0.0 0.0

-3.09374421122061e6 4.399129164605876e6 0.0
4.399129164605876e6 987665.525850934 0.0
0.0 0.0 0.0

-214554.02126711656 7.157714010723249e6 0.0
7.157714010723249e6 -545070.5590144009 0.0
0.0 0.0 0.0

-4.6390370892465655e6 6.674573872827813e6 0.0
6.674573872827813e6 1.8727409045899261e6 0.0
0.0 0.0 0.0

-186639.68364646897 2.7483060631166906e6 0.0
2.7483060631166906e6 -920619.0770412025 0.0
0.0 0.0 0.0

3.8748844517833786e6 1.01141498530384e7 0.0
1.01141498530384e7 -4.882305984653244e6 0.0
0.0 0.0 0.0

-2.2274658681941405e6 8.291246749065871e6 0.0
8.291246749065871e6 -103116.25262914761 0.0
0.0 0.0 0.0

-137837.9034178892 7.28677309331839e6 0.0
7.28677309331839e6 -404632.0326156427 0.0
0.0 0.0 0.0

-2.397167318607613e6 5.657977796955257e6 0.0
5.657977796955257e6 150079.63115913747 0.0
0.0 0.0 0.0

-8.060449597320106e6 2.2210397372951293e6 0.0
2.2210397372951293e6 8.40768268056883e6 0.0
0.0 0.0 0.0

-2.1924460116494894e6 6.8200745193900205e6 0.0
6.8200745193900205e6 39178.16414746898 0.0
0.0 0.0 0.0

-408694.7809708624 4.318615463236107e6 0.0
4.318615463236107e6 -2.166365011053828e6 0.0
0.0 0.0 0.0

-2.4281511140196263e6 3.7824394988254714e6 0.0
3.7824394988254714e6 816082.246416116 0.0
0.0 0.0 0.0

-1.6954860377077553e6 5.8465316765164705e6 0.0
5.8465316765164705e6 96132.30473457661 0.0
0.0 0.0 0.0

1.2023530851831364e6 2.3519452809390565e6 0.0
2.3519452809390565e6 -4.24727933308557e6 0.0
0.0 0.0 0.0

-2.1450880199545957e6 5.188927052218732e6 0.0
5.188927052218732e6 514169.43811587966 0.0
0.0 0.0 0.0

-2.603822202104995e6 409170.9608103051 0.0
409170.9608103051 4.94042289641363e6 0.0
0.0 0.0 0.0

-638291.5467712984 2.119285553190514e6 0.0
2.119285553190514e6 -802249.8000677535 0.0
0.0 0.0 0.0

-4.405335084528813e6 3.420249964951037e6 0.0
3.420249964951037e6 3.855393741940356e6 0.0
0.0 0.0 0.0

2.7708792064899863e6 7.113937646313521e6 0.0
7.113937646313521e6 488415.8052482861 0.0
0.0 0.0 0.0

-401502.9980056749 4.637480041115126e6 0.0
4.637480041115126e6 -1.9644347753657629e6 0.0
0.0 0.0 0.0

-248304.37961922085 3.9723816502846824e6 0.0
3.9723816502846824e6 -2.268711322105278e6 0.0
0.0 0.0 0.0

240506.41817911516 7.434209952546324e6 0.0
7.434209952546324e6 -1.9267729715091952e6 0.0
0.0 0.0 0.0

-3.524826494276561e6 1.263221068869298e6 0.0
1.263221068869298e6 4.385498074619694e6 0.0
0.0 0.0 0.0

-2.8903639119784636e6 4.0399067320934073e6 0.0
4.0399067320934073e6 884883.5157303658 0.0
0.0 0.0 0.0

-1.5757226223036933e6 6.015504283148764e6 0.0
6.015504283148764e6 -227443.47288831358 0.0
0.0 0.0 0.0

-1.656712072004289e6 8.1511080745654e6 0.0
8.1511080745654e6 -526132.2455705453 0.0
0.0 0.0 0.0

-696040.8746112131 6.402323802466547e6 0.0
6.402323802466547e6 715001.2424456887 0.0
0.0 0.0 0.0

1.0153220120825113e6 3.920537684389005e6 0.0
3.920537684389005e6 -1.9425619642550224e6 0.0
0.0 0.0 0.0

3.0531570597748314e6 7.433487284011451e6 0.0
7.433487284011451e6 -3.3943822180615426e6 0.0
0.0 0.0 0.0

-104901.36836861048 7.155893829166206e6 0.0
7.155893829166206e6 -538566.7351047669 0.0
0.0 0.0 0.0

-3.876640041080381e6 4.539817746217147e6 0.0
4.539817746217147e6 1.0591589947900274e6 0.0
0.0 0.0 0.0

-1.1059592111065388e7 -3.260528530659531e6 0.0
-3.260528530659531e6 7.433310739571574e6 0.0
0.0 0.0 0.0

93476.42746279994 3.9004712040437898e6 0.0
3.9004712040437898e6 -971594.7221603827 0.0
0.0 0.0 0.0

-356161.2743508789 6.6276306870012395e6 0.0
6.6276306870012395e6 -575362.2348480956 0.0
0.0 0.0 0.0

-402331.4998089682 5.524804134455871e6 0.0
5.524804134455871e6 -2.284701968108329e6 0.0
0.0 0.0 0.0

-881855.0699500643 5.32358070611731e6 0.0
5.32358070611731e6 -1.4463588524211568e6 0.0
0.0 0.0 0.0

426917.91120304976 638286.6053825098 0.0
638286.6053825098 -910674.316825463 0.0
0.0 0.0 0.0

-1.018278263139261e6 6.477449472257815e6 0.0
6.477449472257815e6 -1.2388339410397212e6 0.0
0.0 0.0 0.0

-506701.24798351753 5.654873627939369e6 0.0
5.654873627939369e6 -2.501552964761122e6 0.0
0.0 0.0 0.0

-920998.6719008281 6.441320992466239e6 0.0
6.441320992466239e6 -1.385334541381856e6 0.0
0.0 0.0 0.0

-1.0263963637313988e6 6.9099657506923955e6 0.0
6.9099657506923955e6 -942709.4499287638 0.0
0.0 0.0 0.0

834988.1280438579 5.319137685538124e6 0.0
5.319137685538124e6 1.8553983121739526e6 0.0
0.0 0.0 0.0

-2.320340170305821e6 2.2841507969183214e6 0.0
2.2841507969183214e6 4.411410736173162e6 0.0
0.0 0.0 0.0

-3.149321771385004e6 5.49625858418141e6 0.0
5.49625858418141e6 1.9971409201070038e6 0.0
0.0 0.0 0.0

-25928.375208487763 7.099508105616903e6 0.0
7.099508105616903e6 -415808.4810059655 0.0
0.0 0.0 0.0

-3.169251161409748e6 3.9668656218024646e6 0.0
3.9668656218024646e6 1.5565358222466707e6 0.0
0.0 0.0 0.0

1.9553442419701633e6 6.043871097079448e6 0.0
6.043871097079448e6 1.1970108133132262e6 0.0
0.0 0.0 0.0

-1.9242555629266107e6 5.256048688864379e6 0.0
5.256048688864379e6 572130.2550380108 0.0
0.0 0.0 0.0

-490601.4447334034 6.342007143566079e6 0.0
6.342007143566079e6 -1.1648559988639276e6 0.0
0.0 0.0 0.0

-3.48471997586068e6 5.195381355269952e6 0.0
5.195381355269952e6 1.129235108152653e6 0.0
0.0 0.0 0.0

-2.5029313489236888e6 3.8402543374090525e6 0.0
3.8402543374090525e6 928981.4554129186 0.0
0.0 0.0 0.0

-5.615462805758869e6 -6.136799958243146e6 0.0
-6.136799958243146e6 1.4391487115966368e7 0.0
0.0 0.0 0.0

-1.3808841261451514e6 7.098059825202738e6 0.0
7.098059825202738e6 -719418.6194340598 0.0
0.0 0.0 0.0

-3.307630973360121e6 4.209213816228021e6 0.0
4.209213816228021e6 1.0657512843030412e6 0.0
0.0 0.0 0.0

1.4478969519126532e6 1.139240500324978e6 0.0
1.139240500324978e6 -1.7432272870941693e6 0.0
0.0 0.0 0.0

-1.632081913276235e6 3.3965745426422227e6 0.0
3.3965745426422227e6 1.7448556509668697e6 0.0
0.0 0.0 0.0

-1.6624261639012431e6 2.8968167856494603e6 0.0
2.8968167856494603e6 1.774620158412545e6 0.0
0.0 0.0 0.0

-289261.46485264704 3.975854718196388e6 0.0
3.975854718196388e6 -2.4204564120554975e6 0.0
0.0 0.0 0.0

-4.409314567440328e6 4.70188126104329e6 0.0
4.70188126104329e6 1.4185073792801718e6 0.0
0.0 0.0 0.0

-1.0120040842554646e6 6.471457072769213e6 0.0
6.471457072769213e6 -1.211918629626265e6 0.0
0.0 0.0 0.0

-2.134092001943025e6 3.7790335214774893e6 0.0
3.7790335214774893e6 1.5672149798593079e6 0.0
0.0 0.0 0.0

-98783.22937207692 5.344420260604574e6 0.0
5.344420260604574e6 -2.9960663173350524e6 0.0
0.0 0.0 0.0

-3.646425363742716e6 4.469805751428303e6 0.0
4.469805751428303e6 1.043673261692914e6 0.0
0.0 0.0 0.0

-585005.0762319054 5.646522212456879e6 0.0
5.646522212456879e6 -2.3252367624787753e6 0.0
0.0 0.0 0.0

-12984.511619794735 4.452215831974129e6 0.0
4.452215831974129e6 -334686.3477684711 0.0
0.0 0.0 0.0

-323466.2211949832 2.1355248235655464e6 0.0
2.1355248235655464e6 -1.0329506115101727e6 0.0
0.0 0.0 0.0

-4.539330928293316e6 4.516110143325165e6 0.0
4.516110143325165e6 748884.9533609299 0.0
0.0 0.0 0.0

-162355.7572025941 7.304861418013487e6 0.0
7.304861418013487e6 -378018.32115732937 0.0
0.0 0.0 0.0

-5.154423050083713e6 4.405447904050448e6 0.0
4.405447904050448e6 1.866978909019122e6 0.0
0.0 0.0 0.0

-600921.7667786982 2.1021450157290124e6 0.0
2.1021450157290124e6 333948.5192628248 0.0
0.0 0.0 0.0

-291755.62754095986 5.46603769794565e6 0.0
5.46603769794565e6 -2.87744483245637e6 0.0
0.0 0.0 0.0

7.924490333342424e6 1.0311263725531258e7 0.0
1.0311263725531258e7 -4.775065564171946e6 0.0
0.0 0.0 0.0

-3.06398017112604e6 4.163529962449729e6 0.0
4.163529962449729e6 968830.9266255905 0.0
0.0 0.0 0.0

-2.7620596844164785e6 5.012929020119633e6 0.0
5.012929020119633e6 744013.115167206 0.0
0.0 0.0 0.0

-2.7458975591644305e6 3.878762439758658e6 0.0
3.878762439758658e6 970070.4755586107 0.0
0.0 0.0 0.0

-4.0260597456050157e6 6.783153545828285e6 0.0
6.783153545828285e6 7.808511211569972e6 0.0
0.0 0.0 0.0

-395730.57360133535 3.8292420625149626e6 0.0
3.8292420625149626e6 -2.663523920560912e6 0.0
0.0 0.0 0.0

-995276.3824441541 4.0971667219752492e6 0.0
4.0971667219752492e6 -1.430560184700237e6 0.0
0.0 0.0 0.0

-3.3966352024704125e6 9.926696535680374e6 0.0
9.926696535680374e6 416669.32403784106 0.0
0.0 0.0 0.0

-259403.2669083716 3.86866114645758e6 0.0
3.86866114645758e6 -2.4683358167849975e6 0.0
0.0 0.0 0.0

-5.154521424889742e6 -1.3057627204968429e6 0.0
-1.3057627204968429e6 3.9288290894004516e6 0.0
0.0 0.0 0.0

-1.8761740386170961e6 5.6699114791380055e6 0.0
5.6699114791380055e6 26552.768993886653 0.0
0.0 0.0 0.0

-360616.28597091883 5.266226299425025e6 0.0
5.266226299425025e6 -2.0035113054640375e6 0.0
0.0 0.0 0.0

-905711.9347923636 6.500288878675416e6 0.0
6.500288878675416e6 -1.3501877014052498e6 0.0
0.0 0.0 0.0

-936272.2402255394 6.516215421183509e6 0.0
6.516215421183509e6 1.8484043356116128e6 0.0
0.0 0.0 0.0

-1.6041596577644171e6 1.0804181179554373e7 0.0
1.0804181179554373e7 217120.49710947007 0.0
0.0 0.0 0.0

-3.9515280248281304e6 -3.2804273221207336e6 0.0
-3.2804273221207336e6 3.2295479516429035e6 0.0
0.0 0.0 0.0

-897950.8337038023 1.6478809577191902e7 0.0
1.6478809577191902e7 186420.05599570915 0.0
0.0 0.0 0.0

-2.731537553313123e6 1.1259378173979186e7 0.0
1.1259378173979186e7 -492337.2887773484 0.0
0.0 0.0 0.0

-1.0390814645327618e6 4.491368336671757e6 0.0
4.491368336671757e6 -1.4836126717837101e6 0.0
0.0 0.0 0.0

-3.2396752791924854e6 4.2272947305753585e6 0.0
4.2272947305753585e6 941343.9678027143 0.0
0.0 0.0 0.0

1.815410897913304e6 6.386066174753445e6 0.0
6.386066174753445e6 851114.3175740568 0.0
0.0 0.0 0.0

-5.453639545246476e6 -427864.7438843644 0.0
-427864.7438843644 8.20350492406449e6 0.0
0.0 0.0 0.0

-1.4834869860517988e6 7.2810564898524e6 0.0
7.2810564898524e6 -580909.9424530566 0.0
0.0 0.0 0.0

-342889.492968904 5.165138056983381e6 0.0
5.165138056983381e6 2.171710053120967e6 0.0
0.0 0.0 0.0

-819342.6010770414 6.560292766488776e6 0.0
6.560292766488776e6 -926773.3468182546 0.0
0.0 0.0 0.0

-246816.45853883895 3.508403202616725e6 0.0
3.508403202616725e6 -2.296063280451656e6 0.0
0.0 0.0 0.0

-2.9508414891047375e6 4.538879859321229e6 0.0
4.538879859321229e6 869109.7161116367 0.0
0.0 0.0 0.0

-382578.88635961525 5.535595673545307e6 0.0
5.535595673545307e6 -2.3241477547487416e6 0.0
0.0 0.0 0.0

-2.536410603300579e6 7.923409998872788e6 0.0
7.923409998872788e6 508909.01172860083 0.0
0.0 0.0 0.0

-5.186759548201569e6 970031.6949863062 0.0
970031.6949863062 9.118662583369963e6 0.0
0.0 0.0 0.0

-615357.5362532849 4.782643591356809e6 0.0
4.782643591356809e6 -1.6243817097029628e6 0.0
0.0 0.0 0.0

-723484.7150338902 5.7399041454382995e6 0.0
5.7399041454382995e6 -1.891705992564653e6 0.0
0.0 0.0 0.0

-1.086352690842729e6 8.425656688524686e6 0.0
8.425656688524686e6 -739100.6760317705 0.0
0.0 0.0 0.0

-472859.7785743244 5.516404984635218e6 0.0
5.516404984635218e6 -2.1629277955577145e6 0.0
0.0 0.0 0.0

-1.3904612487025526e6 -195621.41993825295 0.0
-195621.41993825295 3.168652984977405e6 0.0
0.0 0.0 0.0

-5.664798951659603e6 7.266248117210622e6 0.0
7.266248117210622e6 8.417141555944616e6 0.0
0.0 0.0 0.0

-120673.03055352974 4.272305968963467e6 0.0
4.272305968963467e6 -2.611199813836412e6 0.0
0.0 0.0 0.0

-2.225577925308428e6 7.871371877601836e6 0.0
7.871371877601836e6 325529.6123569313 0.0
0.0 0.0 0.0

-1.757513428462665e6 4.831478100245445e6 0.0
4.831478100245445e6 2.143067072675432e6 0.0
0.0 0.0 0.0

-689895.9542675469 5.769613076036871e6 0.0
5.769613076036871e6 -1.8184604494493345e6 0.0
0.0 0.0 0.0

2.814685887116978e6 6.868840910355322e6 0.0
6.868840910355322e6 1.4259634400902556e6 0.0
0.0 0.0 0.0

-2.140555684997915e6 7.600542459560562e6 0.0
7.600542459560562e6 348908.73667100933 0.0
0.0 0.0 0.0

361979.0841943016 498761.8530007094 0.0
498761.8530007094 -390621.57798149344 0.0
0.0 0.0 0.0

-1.7948967019171505e6 -68327.15801786052 0.0
-68327.15801786052 1.8795731545016728e6 0.0
0.0 0.0 0.0

27427.33706637763 2.2827352284668605e6 0.0
2.2827352284668605e6 -2.295827205091487e6 0.0
0.0 0.0 0.0

-2.735195708222403e6 3.7931360135744005e6 0.0
3.7931360135744005e6 871982.1262378804 0.0
0.0 0.0 0.0

-1.2683319496265838e6 6.43302162135794e6 0.0
6.43302162135794e6 658372.1898446032 0.0
0.0 0.0 0.0

-1.516969035370874e6 7.894461756669436e6 0.0
7.894461756669436e6 -461026.00045730826 0.0
0.0 0.0 0.0

538761.5122025502 1.434467337368167e6 0.0
1.434467337368167e6 -777211.6902761874 0.0
0.0 0.0 0.0

-1.4892846818919133e6 7.191971282685848e6 0.0
7.191971282685848e6 -358739.0163847738 0.0
0.0 0.0 0.0

-2.1763605034200703e6 -625262.6717943294 0.0
-625262.6717943294 2.3645118591668634e6 0.0
0.0 0.0 0.0

113340.31349751516 6.964135192585383e6 0.0
6.964135192585383e6 -1.2866284797667433e6 0.0
0.0 0.0 0.0

-196658.51519770653 4.424470102151835e6 0.0
4.424470102151835e6 -2.4830016988191167e6 0.0
0.0 0.0 0.0

-32294.05618321791 4.2740500447474085e6 0.0
4.2740500447474085e6 -2.651051864303278e6 0.0
0.0 0.0 0.0

-1.7355491959899012e6 3.480462996295899e6 0.0
3.480462996295899e6 1.7958601714419806e6 0.0
0.0 0.0 0.0

-2.154534571561427e6 3.4125844553628587e6 0.0
3.4125844553628587e6 598363.5870963763 0.0
0.0 0.0 0.0

1.2045461828292236e6 1.741707575257249e6 0.0
1.741707575257249e6 -1.727407554929013e6 0.0
0.0 0.0 0.0

-370163.3504470445 4.85993852284101e6 0.0
4.85993852284101e6 -1.5035504413770875e6 0.0
0.0 0.0 0.0

-2.884981634848587e6 4.640765104619216e6 0.0
4.640765104619216e6 944024.6293633255 0.0
0.0 0.0 0.0

-1.4762674680696714e6 7.225210986941519e6 0.0
7.225210986941519e6 3.3817834839451094e6 0.0
0.0 0.0 0.0

-180320.7483427988 9.944091270659452e6 0.0
9.944091270659452e6 -1.3511771660230474e6 0.0
0.0 0.0 0.0

-4.856622758236075e6 -6.796636966010934e6 0.0
-6.796636966010934e6 9.960051968377378e6 0.0
0.0 0.0 0.0

-2.7805497615198595e6 1.3173944189186776e6 0.0
1.3173944189186776e6 4.9731979180595735e6 0.0
0.0 0.0 0.0

-1.4451407595429313e6 3.193795062925478e6 0.0
3.193795062925478e6 785318.4369092765 0.0
0.0 0.0 0.0

-668236.9410108107 4.344384661852692e6 0.0
4.344384661852692e6 -970522.3783155067 0.0
0.0 0.0 0.0

65316.68803691561 2.9140430305795283e6 0.0
2.9140430305795283e6 -855581.6934818288 0.0
0.0 0.0 0.0

-4.684646921058843e6 2.531139279662932e6 0.0
2.531139279662932e6 2.93412911454287e6 0.0
0.0 0.0 0.0

-265789.63117259153 4.241454175753577e6 0.0
4.241454175753577e6 -1.9855082451912335e6 0.0
0.0 0.0 0.0

-501005.53750159603 5.595910379090444e6 0.0
5.595910379090444e6 -2.4062424644287215e6 0.0
0.0 0.0 0.0

-306427.04291905486 6.918805859278151e6 0.0
6.918805859278151e6 -620655.0495005797 0.0
0.0 0.0 0.0

-1.0082356753498447e6 1.1783816957778122e7 0.0
1.1783816957778122e7 -1.6118044859771244e6 0.0
0.0 0.0 0.0

-851995.016862771 6.950148877450815e6 0.0
6.950148877450815e6 -879902.560094548 0.0
0.0 0.0 0.0

-5.230194959840428e6 7.654047473356743e6 0.0
7.654047473356743e6 550770.2787872145 0.0
0.0 0.0 0.0

-3.229630199408363e6 4.718441204263371e6 0.0
4.718441204263371e6 925997.0918130479 0.0
0.0 0.0 0.0

-431906.5771739725 1.7984191578867221e6 0.0
1.7984191578867221e6 -825240.2253098844 0.0
0.0 0.0 0.0

-5.792796637886908e6 4.447224545061786e6 0.0
4.447224545061786e6 1.9931947791167595e6 0.0
0.0 0.0 0.0

-2.2176800238315165e6 3.348734371652287e6 0.0
3.348734371652287e6 595666.9019211214 0.0
0.0 0.0 0.0

-412583.34752378246 2.5381442119961567e6 0.0
2.5381442119961567e6 -608753.2095163433 0.0
0.0 0.0 0.0

-2.2387520155235473e6 3.2879107980930503e6 0.0
3.2879107980930503e6 459646.13526809914 0.0
0.0 0.0 0.0

277151.1841966217 2.0906380616718053e6 0.0
2.0906380616718053e6 -697850.0983192697 0.0
0.0 0.0 0.0

-1.1268264567332084e6 1.5770970652368134e6 0.0
1.5770970652368134e6 -1.0173725901253576e6 0.0
0.0 0.0 0.0

-255633.23933543218 4.097421965955277e6 0.0
4.097421965955277e6 -2.2264889549900712e6 0.0
0.0 0.0 0.0

-3.4174122186927367e6 6.945835808178373e6 0.0
6.945835808178373e6 1.1749205378176016e6 0.0
0.0 0.0 0.0

-1.2117283532356315e6 6.319905495634525e6 0.0
6.319905495634525e6 545880.0408597873 0.0
0.0 0.0 0.0

-934684.2366673767 6.676552577078243e6 0.0
6.676552577078243e6 243547.45830077172 0.0
0.0 0.0 0.0

-498854.9837574491 6.071923520068533e6 0.0
6.071923520068533e6 -622580.2404798673 0.0
0.0 0.0 0.0

-2.5885929182657353e6 5.285175101209095e6 0.0
5.285175101209095e6 174321.62812072923 0.0
0.0 0.0 0.0

-3.407400968425922e6 5.455706279362148e6 0.0
5.455706279362148e6 1.0131244732295752e6 0.0
0.0 0.0 0.0

-913735.8005527551 8.550712979725428e6 0.0
8.550712979725428e6 -880467.1725196121 0.0
0.0 0.0 0.0

-509441.93442978815 2.533022284542743e6 0.0
2.533022284542743e6 -394558.9615643814 0.0
0.0 0.0 0.0

-414022.12360343954 4.613089758588286e6 0.0
4.613089758588286e6 -2.0150909372192293e6 0.0
0.0 0.0 0.0

-3.864577273801661e6 4.537081869010706e6 0.0
4.537081869010706e6 1.1145555686705073e6 0.0
0.0 0.0 0.0

-3.739902265047333e6 4.524845995920994e6 0.0
4.524845995920994e6 1.040685524353907e6 0.0
0.0 0.0 0.0

-265708.34515584115 5.1030433869059095e6 0.0
5.1030433869059095e6 -2.3889030193368895e6 0.0
0.0 0.0 0.0

-398193.0485315616 5.502976962900634e6 0.0
5.502976962900634e6 -2.1543304241930726e6 0.0
0.0 0.0 0.0

-413117.58029035555 6.7269331164784e6 0.0
6.7269331164784e6 -589615.3395952986 0.0
0.0 0.0 0.0

-415509.8899042355 4.653621385089029e6 0.0
4.653621385089029e6 -2.141509092353744e6 0.0
0.0 0.0 0.0

-1.254479453889071e6 2.4203246547575775e6 0.0
2.4203246547575775e6 1.6390165547320135e6 0.0
0.0 0.0 0.0

-398436.07398865966 5.576249771578257e6 0.0
5.576249771578257e6 -2.7570277083397442e6 0.0
0.0 0.0 0.0

-4.1779057598079094e6 1.1429806748577463e7 0.0
1.1429806748577463e7 298523.71370464005 0.0
0.0 0.0 0.0

-678875.5463623251 7.187784606551182e6 0.0
7.187784606551182e6 335567.168162449 0.0
0.0 0.0 0.0

-1.6938981258029656e6 6.61168669960258e6 0.0
6.61168669960258e6 2.696219553448076e6 0.0
0.0 0.0 0.0

307712.2524024083 4.480563593282252e6 0.0
4.480563593282252e6 1.6951165155708166e6 0.0
0.0 0.0 0.0

-235963.90884707728 5.344993054332384e6 0.0
5.344993054332384e6 -1.8857413068896113e6 0.0
0.0 0.0 0.0

-2.148638822322985e6 5.181853600291531e6 0.0
5.181853600291531e6 345295.12298418547 0.0
0.0 0.0 0.0

-5.1000085513992775e6 7.675014825721302e6 0.0
7.675014825721302e6 1.3128321521729927e6 0.0
0.0 0.0 0.0

-296404.4705895352 5.327690437607721e6 0.0
5.327690437607721e6 -1.9086462005766055e6 0.0
0.0 0.0 0.0

-1.277811707547235e6 6.010822683292119e6 0.0
6.010822683292119e6 -94879.69645041978 0.0
0.0 0.0 0.0

-7980.104981811601 3.852279622506925e6 0.0
3.852279622506925e6 -1.5709893595077333e6 0.0
0.0 0.0 0.0

-5.474931211515796e6 2.47789440933252e6 0.0
2.47789440933252e6 3.325413552417834e6 0.0
0.0 0.0 0.0

-6.18427063296507e6 3.6923436750739277e6 0.0
3.6923436750739277e6 2.274335040074625e6 0.0
0.0 0.0 0.0

-65581.4803707958 1.6046820704123045e6 0.0
1.6046820704123045e6 -144221.77725751497 0.0
0.0 0.0 0.0

-1.8483079342391407e6 1.0946839129131474e7 0.0
1.0946839129131474e7 -709294.160478923 0.0
0.0 0.0 0.0

-1.312387832682246e7 -2.7884867304167505e6 0.0
-2.7884867304167505e6 1.8373294432845533e7 0.0
0.0 0.0 0.0

139624.68436152796 651470.899626801 0.0
651470.899626801 -1.0098154284295203e6 0.0
0.0 0.0 0.0

-438667.28141426743 5.6569105391203975e6 0.0
5.6569105391203975e6 -2.556502685474199e6 0.0
0.0 0.0 0.0

-580554.9289773733 5.404805831160691e6 0.0
5.404805831160691e6 -1.184368262261677e6 0.0
0.0 0.0 0.0

-3.724951387669974e6 5.326229439193947e6 0.0
5.326229439193947e6 1.198067569895197e6 0.0
0.0 0.0 0.0

-3.6283913801412503e6 2.368086719014945e6 0.0
2.368086719014945e6 1.7315408124499458e6 0.0
0.0 0.0 0.0

-459771.84825734585 1.859847177134339e6 0.0
1.859847177134339e6 -978713.6344827608 0.0
0.0 0.0 0.0

-2.927004922263464e6 4.69973701957111e6 0.0
4.69973701957111e6 716231.0811984737 0.0
0.0 0.0 0.0

-3.778342100646529e6 4.490887021856964e6 0.0
4.490887021856964e6 1.1049764616370148e6 0.0
0.0 0.0 0.0

-3.5487027328710184e6 5.437734983784534e6 0.0
5.437734983784534e6 1.240588734381469e6 0.0
0.0 0.0 0.0

-450012.7063472422 5.568848190504448e6 0.0
5.568848190504448e6 -3.0552667178201904e6 0.0
0.0 0.0 0.0

-1.1724381453964848e6 3.493665736057031e6 0.0
3.493665736057031e6 127621.27460237371 0.0
0.0 0.0 0.0

-3.5244644898405364e6 -1.725255665302861e6 0.0
-1.725255665302861e6 4.977475731105153e6 0.0
0.0 0.0 0.0

-1.8010590747442087e6 9.772800599482715e6 0.0
9.772800599482715e6 9.94732263328559e6 0.0
0.0 0.0 0.0

-7.000056422191673e6 -3.2403900168285356e6 0.0
-3.2403900168285356e6 3.2797215533564184e6 0.0
0.0 0.0 0.0

3.0321034359183535e6 1.0499917761765573e7 0.0
1.0499917761765573e7 -5.766064498981219e6 0.0
0.0 0.0 0.0

-427212.79056844534 4.515458639613345e6 0.0
4.515458639613345e6 -1.9397370062825626e6 0.0
0.0 0.0 0.0

18551.482284670754 3.9070733109935694e6 0.0
3.9070733109935694e6 -1.1218556987271174e6 0.0
0.0 0.0 0.0

5.14012048019743e6 1.1469410193885364e7 0.0
1.1469410193885364e7 -4.156440662243077e6 0.0
0.0 0.0 0.0

500443.47125551617 2.6431999065971747e6 0.0
2.6431999065971747e6 -247068.296934007 0.0
0.0 0.0 0.0

1.1820741411767015e6 4.8569413154473035e6 0.0
4.8569413154473035e6 1.562855952031969e6 0.0
0.0 0.0 0.0

-3.211840187545701e6 4.43778505958588e6 0.0
4.43778505958588e6 928133.0982782803 0.0
0.0 0.0 0.0

-2.750908075199497e6 4.898317814657945e6 0.0
4.898317814657945e6 820392.3554316697 0.0
0.0 0.0 0.0

-927680.6313630121 3.992474167158233e6 0.0
3.992474167158233e6 -1.2667979847104088e6 0.0
0.0 0.0 0.0

-2.6438442179419906e6 1.3778559037868404e6 0.0
1.3778559037868404e6 1.0082677043635157e6 0.0
0.0 0.0 0.0

-462236.11507664097 5.580736033948604e6 0.0
5.580736033948604e6 -2.3915098523181593e6 0.0
0.0 0.0 0.0

-894053.9324402817 6.26769752943706e6 0.0
6.26769752943706e6 -273495.55009355885 0.0
0.0 0.0 0.0

-519543.2507211497 4.858918877923674e6 0.0
4.858918877923674e6 -16107.70687636704 0.0
0.0 0.0 0.0

-8.397536580186285e6 -1.8310386571791684e6 0.0
-1.8310386571791684e6 1.7340511510009628e7 0.0
0.0 0.0 0.0

-2.907952522274302e6 3.964930648139362e6 0.0
3.964930648139362e6 732229.5959350669 0.0
0.0 0.0 0.0

-118657.13000259711 2.188979435509048e6 0.0
2.188979435509048e6 -2.506579886462118e6 0.0
0.0 0.0 0.0

-1.4838696945864134e6 5.780564741473505e6 0.0
5.780564741473505e6 312262.8945896442 0.0
0.0 0.0 0.0

-1.0845725319771876e6 4.305916766318704e6 0.0
4.305916766318704e6 -107395.65424411927 0.0
0.0 0.0 0.0

-279506.0792722155 1.0391635432339294e7 0.0
1.0391635432339294e7 -1.367717589668142e6 0.0
0.0 0.0 0.0

-1.849465798645456e6 8.43736165991425e6 0.0
8.43736165991425e6 -336492.43046251766 0.0
0.0 0.0 0.0

-4.626363847526969e6 4.6122800782114165e6 0.0
4.6122800782114165e6 1.545220494488153e6 0.0
0.0 0.0 0.0

-688597.8147284238 1.7641324386649216e6 0.0
1.7641324386649216e6 -755277.9631936384 0.0
0.0 0.0 0.0

-3.708050572892194e6 4.834398007741249e6 0.0
4.834398007741249e6 852357.9339308769 0.0
0.0 0.0 0.0

-3.2268044237737255e6 4.177432375910456e6 0.0
4.177432375910456e6 1.0589238114701847e6 0.0
0.0 0.0 0.0

-1.5469241923345719e6 3.288096500754381e6 0.0
3.288096500754381e6 741451.032559079 0.0
0.0 0.0 0.0

762774.8398257948 1.2166573137545004e7 0.0
1.2166573137545004e7 -3.095908108939726e6 0.0
0.0 0.0 0.0

-1.3407038555536075e6 6.989034929611517e6 0.0
6.989034929611517e6 -632052.1017970023 0.0
0.0 0.0 0.0

-3.168189693699115e6 4.202944837238788e6 0.0
4.202944837238788e6 907132.4309333712 0.0
0.0 0.0 0.0

-734049.8309425086 4.101788348757646e6 0.0
4.101788348757646e6 -1.4064260783786573e6 0.0
0.0 0.0 0.0

-715800.8226616377 6.3854859100324735e6 0.0
6.3854859100324735e6 -281408.5333508605 0.0
0.0 0.0 0.0

-2.2774127537433538e6 -108458.47162690638 0.0
-108458.47162690638 1.886749832530661e6 0.0
0.0 0.0 0.0

-3.7161800752510345e6 1.9586456122708968e6 0.0
1.9586456122708968e6 3.732573138827386e6 0.0
0.0 0.0 0.0

-989920.9402629773 5.849502419017492e6 0.0
5.849502419017492e6 -1.1335650940277032e6 0.0
0.0 0.0 0.0

-2.301993361272499e6 3.8277566964838766e6 0.0
3.8277566964838766e6 3.130316978874488e6 0.0
0.0 0.0 0.0

-1.109901040374678e6 6.078379491417538e6 0.0
6.078379491417538e6 -1.1872001487037607e6 0.0
0.0 0.0 0.0

-1.160800875011472e6 6.069837090585423e6 0.0
6.069837090585423e6 491712.59651316423 0.0
0.0 0.0 0.0

-5.002528840326158e6 92575.35799758756 0.0
92575.35799758756 3.7803858849506015e6 0.0
0.0 0.0 0.0

-1.3712028334791174e6 6.081523449196059e6 0.0
6.081523449196059e6 -188673.06067631816 0.0
0.0 0.0 0.0

-904682.3523160877 2.219957718912858e6 0.0
2.219957718912858e6 149355.5611446143 0.0
0.0 0.0 0.0

-462625.65847249184 6.977953906976729e6 0.0
6.977953906976729e6 -359965.12962228945 0.0
0.0 0.0 0.0

-2.525430888628815e6 1.1980074461583743e7 0.0
1.1980074461583743e7 -764785.3262208663 0.0
0.0 0.0 0.0

-1.1637936377085062e7 -1.0108886085122335e6 0.0
-1.0108886085122335e6 7.238234848322867e6 0.0
0.0 0.0 0.0

-5.678782949888408e6 9.583598901845792e6 0.0
9.583598901845792e6 2.8925749114458445e6 0.0
0.0 0.0 0.0

-2.5666368939661277e6 5.643996667363111e6 0.0
5.643996667363111e6 230344.50192244689 0.0
0.0 0.0 0.0

-5.384418313594053e6 7.637011343333132e6 0.0
7.637011343333132e6 2.2317072204229096e6 0.0
0.0 0.0 0.0

-450240.6944410168 1.6686220942227652e6 0.0
1.6686220942227652e6 -244092.40814260056 0.0
0.0 0.0 0.0

-201191.13657176046 1.0556333805437557e7 0.0
1.0556333805437557e7 -1.657817707725613e6 0.0
0.0 0.0 0.0

-4.0162282879789528e6 4.561274326434213e6 0.0
4.561274326434213e6 1.0925595129418294e6 0.0
0.0 0.0 0.0

-1.7175252766656964e6 5.858256676785107e6 0.0
5.858256676785107e6 -12689.086633589934 0.0
0.0 0.0 0.0

-695854.328430822 4.9805815864504045e6 0.0
4.9805815864504045e6 -1.583652016480907e6 0.0
0.0 0.0 0.0

-2.99811857130078e6 5.016322945031275e6 0.0
5.016322945031275e6 725579.4236172617 0.0
0.0 0.0 0.0

-3.2248294499932704e6 2.0449087877629243e6 0.0
2.0449087877629243e6 3.352017626712352e6 0.0
0.0 0.0 0.0

-5.164285653576337e6 8.819728125084853e6 0.0
8.819728125084853e6 1.4878245204600124e6 0.0
0.0 0.0 0.0

-3.880348367560476e6 4.688157712724311e6 0.0
4.688157712724311e6 531732.127867847 0.0
0.0 0.0 0.0

-531499.4188756902 9.948534246316314e6 0.0
9.948534246316314e6 -1.4133262805309012e6 0.0
0.0 0.0 0.0

451653.66594878805 8.99257442247373e6 0.0
8.99257442247373e6 -1.797203231937569e6 0.0
0.0 0.0 0.0

-440471.63615934557 5.687086517451325e6 0.0
5.687086517451325e6 -2.4086892031352874e6 0.0
0.0 0.0 0.0

1.0396037817000796e6 5.872955947739385e6 0.0
5.872955947739385e6 -2.0707724914296907e6 0.0
0.0 0.0 0.0

-671028.9410947565 7.0278705357801085e6 0.0
7.0278705357801085e6 168864.2173554015 0.0
0.0 0.0 0.0

-610189.4380557169 8.077548548211275e6 0.0
8.077548548211275e6 -1.0385061967724147e6 0.0
0.0 0.0 0.0

-2.2721441350580486e6 1.0426139680804161e7 0.0
1.0426139680804161e7 -335789.48756375106 0.0
0.0 0.0 0.0

-2.0298524741049865e6 3.383116411625096e6 0.0
3.383116411625096e6 1.9296282868460617e6 0.0
0.0 0.0 0.0

-1.03997316693435e6 4.0564918172258786e6 0.0
4.0564918172258786e6 -1.1753942127043924e6 0.0
0.0 0.0 0.0

153030.74553444027 1.3681369602323319e6 0.0
1.3681369602323319e6 1.813679158860185e6 0.0
0.0 0.0 0.0

-297118.6583145269 5.563288567807248e6 0.0
5.563288567807248e6 -2.8131232151989024e6 0.0
0.0 0.0 0.0

-75521.67098065608 7.335877621165901e6 0.0
7.335877621165901e6 -461575.26883579174 0.0
0.0 0.0 0.0

-3.531589901952629e6 5.055913836817635e6 0.0
5.055913836817635e6 639622.621780799 0.0
0.0 0.0 0.0

-583074.838467539 4.692225689003748e6 0.0
4.692225689003748e6 -1.6613545230831562e6 0.0
0.0 0.0 0.0

2.4753001562651442e6 7.746774888417669e6 0.0
7.746774888417669e6 -3.6090603455955083e6 0.0
0.0 0.0 0.0

-890069.8299377684 2.83231053808732e6 0.0
2.83231053808732e6 736382.4050089773 0.0
0.0 0.0 0.0

-5.160893190342307e6 5.7448452392294705e6 0.0
5.7448452392294705e6 141453.07185360603 0.0
0.0 0.0 0.0

-1.63786320610835e6 1.6226709258322706e7 0.0
1.6226709258322706e7 -6.878900133772974e6 0.0
0.0 0.0 0.0

-2.757338694031965e6 4.996812145351954e6 0.0
4.996812145351954e6 733450.0751286218 0.0
0.0 0.0 0.0

-362516.54040011787 4.610221299717054e6 0.0
4.610221299717054e6 -1.9901573668697905e6 0.0
0.0 0.0 0.0

-2.6582062270589606e6 2.7225953702013306e6 0.0
2.7225953702013306e6 3.613080634178535e6 0.0
0.0 0.0 0.0

-294258.47135189176 291975.38671008876 0.0
291975.38671008876 -324509.7453245047 0.0
0.0 0.0 0.0

-1.4268278495342913e6 6.885107553236727e6 0.0
6.885107553236727e6 -795412.9088725848 0.0
0.0 0.0 0.0

-4.395115678087952e6 5.348027411562207e6 0.0
5.348027411562207e6 2.6186735041745333e6 0.0
0.0 0.0 0.0

-1.4396335234686953e6 7.37436624346322e6 0.0
7.37436624346322e6 -975493.6004700521 0.0
0.0 0.0 0.0

-4.441560374491535e6 1.1832415181688657e6 0.0
1.1832415181688657e6 8.256454203229729e6 0.0
0.0 0.0 0.0

-615622.6772332921 5.053774355465021e6 0.0
5.053774355465021e6 -1.854268353048692e6 0.0
0.0 0.0 0.0

-4.651606109981578e6 5.060896543425243e6 0.0
5.060896543425243e6 3.002900029958793e6 0.0
0.0 0.0 0.0

-824019.3021450974 4.965536314132807e6 0.0
4.965536314132807e6 -1.6171785999718439e6 0.0
0.0 0.0 0.0

2.3047211521403287e6 5.597162251123733e6 0.0
5.597162251123733e6 141453.02432735194 0.0
0.0 0.0 0.0

-3.054623150532401e6 900887.2528872723 0.0
900887.2528872723 5.4863723666471485e6 0.0
0.0 0.0 0.0

-432826.7638867364 5.942807656364376e6 0.0
5.942807656364376e6 -1.2437569169290091e6 0.0
0.0 0.0 0.0

-922314.485034496 6.430538415087748e6 0.0
6.430538415087748e6 -35916.548126135196 0.0
0.0 0.0 0.0

-2.004132944954052e6 8.445061751233086e6 0.0
8.445061751233086e6 452208.8904366059 0.0
0.0 0.0 0.0

-507707.20740903664 5.362234255982292e6 0.0
5.362234255982292e6 -1.8558161879972913e6 0.0
0.0 0.0 0.0

175471.62549433543 5.590740784307055e6 0.0
5.590740784307055e6 -2.1634942504949253e6 0.0
0.0 0.0 0.0

-256284.97869740438 5.516788757897719e6 0.0
5.516788757897719e6 -2.7639146343650883e6 0.0
0.0 0.0 0.0

-2.565506597035216e6 6.605116593738592e6 0.0
6.605116593738592e6 117480.18079534802 0.0
0.0 0.0 0.0

-3.4230540354263308e6 791179.8075729803 0.0
791179.8075729803 4.322550097351056e6 0.0
0.0 0.0 0.0

-2.878882476262519e6 6.65000957740101e6 0.0
6.65000957740101e6 848467.6322915396 0.0
0.0 0.0 0.0

-1.1041438124116836e6 7.293536903385178e6 0.0
7.293536903385178e6 -1.0672484750196883e6 0.0
0.0 0.0 0.0

-94799.78868129896 4.181253489611966e6 0.0
4.181253489611966e6 -2.8062063573833243e6 0.0
0.0 0.0 0.0

-2.0305291540693205e6 2.441074801948351e6 0.0
2.441074801948351e6 3.8420015561709306e6 0.0
0.0 0.0 0.0

-133035.9963756055 7.1874819590146765e6 0.0
7.1874819590146765e6 -500005.42490427097 0.0
0.0 0.0 0.0

-328611.00523551606 4.1729160170272323e6 0.0
4.1729160170272323e6 -2.440608957999876e6 0.0
0.0 0.0 0.0

-306968.356132829 2.9646930711561195e6 0.0
2.9646930711561195e6 -2.9424742277383823e6 0.0
0.0 0.0 0.0

-2.313150613849269e6 4.284481129739896e6 0.0
4.284481129739896e6 1.307326537672203e6 0.0
0.0 0.0 0.0

-4.322021860038039e6 5.314249585091523e6 0.0
5.314249585091523e6 3.0886755917773363e6 0.0
0.0 0.0 0.0

-520356.1429718516 8.213756225888154e6 0.0
8.213756225888154e6 -1.8035293472942363e6 0.0
0.0 0.0 0.0

-230656.10592750716 2.0093528953595508e6 0.0
2.0093528953595508e6 520753.99343954184 0.0
0.0 0.0 0.0

134450.5177041684 1.815616314500132e6 0.0
1.815616314500132e6 -227608.23394935904 0.0
0.0 0.0 0.0

-2.2336935457600155e6 3.742508895869376e6 0.0
3.742508895869376e6 1.1797877220148402e6 0.0
0.0 0.0 0.0

2.155372345366256e6 6.417732512131161e6 0.0
6.417732512131161e6 -1.0165046260610418e6 0.0
0.0 0.0 0.0

1.2349591527545415e6 5.016571857146345e6 0.0
5.016571857146345e6 772622.290428438 0.0
0.0 0.0 0.0

-4.404714565610616e6 7.306907815097322e6 0.0
7.306907815097322e6 2.152690907236035e6 0.0
0.0 0.0 0.0

-522113.0877257022 5.410800854726296e6 0.0
5.410800854726296e6 -2.221447446309969e6 0.0
0.0 0.0 0.0

-3.6853236647565695e6 6.40058925771506e6 0.0
6.40058925771506e6 1.5304273130128656e6 0.0
0.0 0.0 0.0

-4.6880770506550465e6 3.603456234539264e6 0.0
3.603456234539264e6 3.1643667059940877e6 0.0
0.0 0.0 0.0

-250406.54585995548 4.989199633924715e6 0.0
4.989199633924715e6 -2.701578598314319e6 0.0
0.0 0.0 0.0

1.364551743740887e6 1.285025028908808e6 0.0
1.285025028908808e6 -2.135641138656414e6 0.0
0.0 0.0 0.0

-517438.9995767585 1.97102147051105e6 0.0
1.97102147051105e6 -1.1268927179538824e6 0.0
0.0 0.0 0.0

-166369.77785161478 7.123389459569166e6 0.0
7.123389459569166e6 -465182.4358670077 0.0
0.0 0.0 0.0

-324749.5003545525 4.1909609300464243e6 0.0
4.1909609300464243e6 1.8502883128211221e6 0.0
0.0 0.0 0.0

-482690.2848523343 4.390682820417986e6 0.0
4.390682820417986e6 -1.578834752819574e6 0.0
0.0 0.0 0.0

-2.278377320971016e6 3.7997474846706907e6 0.0
3.7997474846706907e6 1.0589309150220538e6 0.0
0.0 0.0 0.0

-5.235853339950725e6 -918763.8037621678 0.0
-918763.8037621678 2.6127805930566285e6 0.0
0.0 0.0 0.0

-300774.38818389125 6.966805387766404e6 0.0
6.966805387766404e6 -613136.1229875248 0.0
0.0 0.0 0.0

1.0381424863554051e6 9.127317013091758e6 0.0
9.127317013091758e6 -1.976579170851096e6 0.0
0.0 0.0 0.0

-3.503836712449056e6 5.004467002543533e6 0.0
5.004467002543533e6 716724.5720051967 0.0
0.0 0.0 0.0

-295894.8219613073 490870.9974635488 0.0
490870.9974635488 576057.7391477551 0.0
0.0 0.0 0.0

-1.1805202891762939e6 6.009582725253279e6 0.0
6.009582725253279e6 909492.6383017376 0.0
0.0 0.0 0.0

-3.3115069647017852e6 4.791706671006065e6 0.0
4.791706671006065e6 4.211907681234312e6 0.0
0.0 0.0 0.0

-4.388668095424469e6 4.889404646335936e6 0.0
4.889404646335936e6 3.01306758657993e6 0.0
0.0 0.0 0.0

-351654.47394676873 5.10324080644272e6 0.0
5.10324080644272e6 -2.369174749757783e6 0.0
0.0 0.0 0.0

1.0594059469563346e6 5.5044715613273885e6 0.0
5.5044715613273885e6 -42175.35676944925 0.0
0.0 0.0 0.0

-164468.05434137787 4.595422702906285e6 0.0
4.595422702906285e6 -1.971248006698239e6 0.0
0.0 0.0 0.0

-226727.59570166582 6.908890392645178e6 0.0
6.908890392645178e6 -533091.2715512909 0.0
0.0 0.0 0.0

-2.442712516671559e6 4.393517544896825e6 0.0
4.393517544896825e6 1.8044063369618836e6 0.0
0.0 0.0 0.0

-1.4046577840370177e6 6.00280859968615e6 0.0
6.00280859968615e6 277785.0723253435 0.0
0.0 0.0 0.0

-1.0658163302423896e6 6.2164997169179125e6 0.0
6.2164997169179125e6 -167409.55913747443 0.0
0.0 0.0 0.0

-486629.33070296503 4.493889220987053e6 0.0
4.493889220987053e6 -2.3579220869774725e6 0.0
0.0 0.0 0.0

-4.204773132255774e6 6.055893171968341e6 0.0
6.055893171968341e6 1.311516833574073e6 0.0
0.0 0.0 0.0

-1.143464250807049e6 3.835083202525758e6 0.0
3.835083202525758e6 1.311040322611392e6 0.0
0.0 0.0 0.0

3.45073460485058e6 6.460187871180859e6 0.0
6.460187871180859e6 -771339.009351817 0.0
0.0 0.0 0.0

-2.9710693765510703e6 5.130118970087078e6 0.0
5.130118970087078e6 645032.189679998 0.0
0.0 0.0 0.0

-265963.7120089714 3.2992551760983607e6 0.0
3.2992551760983607e6 -2.5447982592067383e6 0.0
0.0 0.0 0.0

-1.9930607859956399e6 3.3932160657073986e6 0.0
3.3932160657073986e6 508845.21004841616 0.0
0.0 0.0 0.0

1.7340111372479047e6 6.585686326345164e6 0.0
6.585686326345164e6 -1.4921638771839347e6 0.0
0.0 0.0 0.0

3.920331167186479e6 8.364901703884073e6 0.0
8.364901703884073e6 -2.3598463224594016e6 0.0
0.0 0.0 0.0

-3.9129223497149036e6 4.62575909199623e6 0.0
4.62575909199623e6 954845.5358969558 0.0
0.0 0.0 0.0

-883849.7350787139 6.139034220130101e6 0.0
6.139034220130101e6 -1.0885541864488695e6 0.0
0.0 0.0 0.0

-347605.22520892543 2.5020076905696485e6 0.0
2.5020076905696485e6 -358105.96730524563 0.0
0.0 0.0 0.0

-541873.5959296708 693256.6305714219 0.0
693256.6305714219 228834.3501634175 0.0
0.0 0.0 0.0

-67792.09444027915 7.127503240433634e6 0.0
7.127503240433634e6 -564453.6470261618 0.0
0.0 0.0 0.0

-2.201747415582005e6 3.137578161317561e6 0.0
3.137578161317561e6 4.360453313301327e6 0.0
0.0 0.0 0.0

-705704.8698520346 2.3066859209667146e6 0.0
2.3066859209667146e6 468236.593789733 0.0
0.0 0.0 0.0

-1.2754757302181267e6 2.173710801364594e6 0.0
2.173710801364594e6 -552780.0186616571 0.0
0.0 0.0 0.0

-2.160851918227778e6 5.071862243884003e6 0.0
5.071862243884003e6 1.3264504345578095e6 0.0
0.0 0.0 0.0

-275621.8517988266 5.500205988754403e6 0.0
5.500205988754403e6 -2.3805963563898415e6 0.0
0.0 0.0 0.0

-3.786666959612771e6 5.558866523648099e6 0.0
5.558866523648099e6 1.4871155010183149e6 0.0
0.0 0.0 0.0

-2.6765166366572655e6 9.069112428045526e6 0.0
9.069112428045526e6 85291.1173170968 0.0
0.0 0.0 0.0

-6.789103543071663e6 9.085534773468653e6 0.0
9.085534773468653e6 2.0809478230453976e6 0.0
0.0 0.0 0.0

-6.353517424192092e6 3.764314239966297e6 0.0
3.764314239966297e6 1.6971988135789917e6 0.0
0.0 0.0 0.0

-144804.23707924676 7.466048665451519e6 0.0
7.466048665451519e6 -102374.88987726424 0.0
0.0 0.0 0.0

-450151.52529312775 5.752725808643938e6 0.0
5.752725808643938e6 -2.8374358756140554e6 0.0
0.0 0.0 0.0

270974.7214884938 1.2089990851709691e6 0.0
1.2089990851709691e6 -1.2424798419380395e6 0.0
0.0 0.0 0.0

-783898.9408551437 4.794858324674846e6 0.0
4.794858324674846e6 -2.138010228247392e6 0.0
0.0 0.0 0.0

-637500.3569027672 4.735923538479165e6 0.0
4.735923538479165e6 -2.153945419158094e6 0.0
0.0 0.0 0.0

-373415.0235113683 7.262231535856427e6 0.0
7.262231535856427e6 -65691.39580546401 0.0
0.0 0.0 0.0

-477343.8481777108 5.617798830257617e6 0.0
5.617798830257617e6 -2.3447978569544577e6 0.0
0.0 0.0 0.0

-383682.8826049609 5.588343528989628e6 0.0
5.588343528989628e6 -2.265948787592775e6 0.0
0.0 0.0 0.0

-201963.9238619951 4.790120125750202e6 0.0
4.790120125750202e6 2.1102731281602923e6 0.0
0.0 0.0 0.0

-1.8407364478979222e6 3.847859804873831e6 0.0
3.847859804873831e6 1.872222538265855e6 0.0
0.0 0.0 0.0

-449089.00572556414 4.620988909292763e6 0.0
4.620988909292763e6 -2.1070572232565433e6 0.0
0.0 0.0 0.0

-42762.12969089387 7.114052395532929e6 0.0
7.114052395532929e6 -543182.8535941567 0.0
0.0 0.0 0.0

-4.1428204996840665e6 4.469821869712427e6 0.0
4.469821869712427e6 3.146339626204804e6 0.0
0.0 0.0 0.0

-286607.0402745019 7.203169309676251e6 0.0
7.203169309676251e6 -464419.9436917878 0.0
0.0 0.0 0.0

1.951641545182111e6 6.286285123420712e6 0.0
6.286285123420712e6 -2.8063491140283854e6 0.0
0.0 0.0 0.0

-3.1090396659202185e6 4.0434572870634324e6 0.0
4.0434572870634324e6 886008.7287872094 0.0
0.0 0.0 0.0

-3.4743285413760436e6 4.501760456638736e6 0.0
4.501760456638736e6 1.008331051519847e6 0.0
0.0 0.0 0.0

-2.178795177874064e6 2.2276240858486495e6 0.0
2.2276240858486495e6 2.8830892920191763e6 0.0
0.0 0.0 0.0

-241321.48538301044 5.140039018465336e6 0.0
5.140039018465336e6 -1.458071499274486e6 0.0
0.0 0.0 0.0

-2.2139930200845757e6 4.794793977065108e6 0.0
4.794793977065108e6 2.7806861608549915e6 0.0
0.0 0.0 0.0

-4.699623735551524e6 4.483690596656321e6 0.0
4.483690596656321e6 1.4053896214551833e6 0.0
0.0 0.0 0.0

-2.260733302436695e6 3.881309719481715e6 0.0
3.881309719481715e6 1.4458811989561422e6 0.0
0.0 0.0 0.0

146360.13639894087 888723.4357388354 0.0
888723.4357388354 -900969.9934556993 0.0
0.0 0.0 0.0

-3.496010981745603e6 4.525655293713404e6 0.0
4.525655293713404e6 958779.5157068777 0.0
0.0 0.0 0.0

-2.8379354189275997e6 4.673773683417056e6 0.0
4.673773683417056e6 708557.1537601504 0.0
0.0 0.0 0.0

-2.1885770387716093e6 3.3020363443621807e6 0.0
3.3020363443621807e6 468396.44938500354 0.0
0.0 0.0 0.0

-3.8005149841874917e6 5.874293819476377e6 0.0
5.874293819476377e6 1.4214239234339462e6 0.0
0.0 0.0 0.0

-3.748395945277296e6 5.570029010440644e6 0.0
5.570029010440644e6 1.1888756688482407e6 0.0
0.0 0.0 0.0

-665394.0992482302 6.282045188288173e6 0.0
6.282045188288173e6 898235.4298452968 0.0
0.0 0.0 0.0

-156823.67086509167 4.662968491899212e6 0.0
4.662968491899212e6 -522745.43552391516 0.0
0.0 0.0 0.0

-592773.1499952935 5.262707879457026e6 0.0
5.262707879457026e6 -2.0187189843034565e6 0.0
0.0 0.0 0.0

-648164.2387988562 4.78122398442436e6 0.0
4.78122398442436e6 -2.31754339553607e6 0.0
0.0 0.0 0.0

-1.4516663075033417e6 6.024560563702968e6 0.0
6.024560563702968e6 -50905.19496561517 0.0
0.0 0.0 0.0

-1.1315379198515115e7 8.851253622022979e6 0.0
8.851253622022979e6 1.8731374558375059e6 0.0
0.0 0.0 0.0

-570380.0862058273 5.5554250024200305e6 0.0
5.5554250024200305e6 -2.3248484641123842e6 0.0
0.0 0.0 0.0

-7.292496079147926e6 8.823724868584711e6 0.0
8.823724868584711e6 -86041.8046767679 0.0
0.0 0.0 0.0

-1.8658839821386281e6 5.479748665530419e6 0.0
5.479748665530419e6 273135.2436474938 0.0
0.0 0.0 0.0

-338710.01608385285 -281629.4480686667 0.0
-281629.4480686667 664627.3959971662 0.0
0.0 0.0 0.0

-2.9082982899673255e6 8.223389244257242e6 0.0
8.223389244257242e6 374076.5358814015 0.0
0.0 0.0 0.0

-5.375859546000451e6 6.782842668254634e6 0.0
6.782842668254634e6 1.9863367219579564e6 0.0
0.0 0.0 0.0

-965566.343083485 6.219559797843121e6 0.0
6.219559797843121e6 -1.0192837489371923e6 0.0
0.0 0.0 0.0

-3.7461878628568877e6 4.9756232385015e6 0.0
4.9756232385015e6 774190.4187282925 0.0
0.0 0.0 0.0

-672234.8144699989 2.2116303536864757e6 0.0
2.2116303536864757e6 -53225.768032182794 0.0
0.0 0.0 0.0

-142889.5614664246 3.7697313850317444e6 0.0
3.7697313850317444e6 -2.363331820471748e6 0.0
0.0 0.0 0.0

-3.8616499010064253e6 4.95120248902463e6 0.0
4.95120248902463e6 689226.8586830408 0.0
0.0 0.0 0.0

-107755.46896632262 6.91803409218576e6 0.0
6.91803409218576e6 -596118.2318283782 0.0
0.0 0.0 0.0

-540417.967342536 2.4438800091748484e6 0.0
2.4438800091748484e6 -449935.11296850606 0.0
0.0 0.0 0.0

-1.2500568810374662e6 7.295250840258597e6 0.0
7.295250840258597e6 -1.0323340305490682e6 0.0
0.0 0.0 0.0

-1.7629876945008368e6 8.455216048502233e6 0.0
8.455216048502233e6 153484.19049830677 0.0
0.0 0.0 0.0

-3.706856877072368e6 -1.5379165688693027e6 0.0
-1.5379165688693027e6 3.4544352675721236e6 0.0
0.0 0.0 0.0

-2.977580994834314e6 5.063728939445076e6 0.0
5.063728939445076e6 768013.9899068978 0.0
0.0 0.0 0.0

-741852.5487771463 5.472407284125735e6 0.0
5.472407284125735e6 -1.263048255812504e6 0.0
0.0 0.0 0.0

-806331.1944751097 5.781210694050798e6 0.0
5.781210694050798e6 -1.8107487590257355e6 0.0
0.0 0.0 0.0

1.2351260672643632e6 1.8211263403390392e6 0.0
1.8211263403390392e6 -1.6475354826592149e6 0.0
0.0 0.0 0.0

-971167.5718582022 6.273746701371256e6 0.0
6.273746701371256e6 -1.2524829854740216e6 0.0
0.0 0.0 0.0

-3.797028670066343e6 7.3098226799780745e6 0.0
7.3098226799780745e6 7965.922486532712 0.0
0.0 0.0 0.0

-5.064481734578984e6 8.796337877971979e6 0.0
8.796337877971979e6 2.6890599416744853e6 0.0
0.0 0.0 0.0

-987702.4211450919 6.354691698409368e6 0.0
6.354691698409368e6 1.317249441835416e6 0.0
0.0 0.0 0.0

-151984.9185067658 5.104529371654082e6 0.0
5.104529371654082e6 -946041.225119458 0.0
0.0 0.0 0.0

-164811.63861163912 7.3079778855413385e6 0.0
7.3079778855413385e6 -308093.38989095436 0.0
0.0 0.0 0.0

187891.3945124287 6.079906374605925e6 0.0
6.079906374605925e6 626304.617830474 0.0
0.0 0.0 0.0

-2.6324800968563505e6 2.1132601450354224e6 0.0
2.1132601450354224e6 3.2583883889298234e6 0.0
0.0 0.0 0.0

-420754.4880384587 5.5172758275094945e6 0.0
5.5172758275094945e6 -2.221969555387782e6 0.0
0.0 0.0 0.0

-5.789069172930965e6 4.20631785030409e6 0.0
4.20631785030409e6 -216579.12111234805 0.0
0.0 0.0 0.0

-500226.67854734085 2.734011184358357e6 0.0
2.734011184358357e6 619422.4364396274 0.0
0.0 0.0 0.0

-180949.4843993964 -380546.76950388344 0.0
-380546.76950388344 1.062584498922854e6 0.0
0.0 0.0 0.0

-700992.1988499531 9.584282701407904e6 0.0
9.584282701407904e6 -1.7506767093452595e6 0.0
0.0 0.0 0.0

-284494.2640899347 401217.50367137 0.0
401217.50367137 -885188.3687061723 0.0
0.0 0.0 0.0

49343.02184035361 4.8723755185650755e6 0.0
4.8723755185650755e6 -2.7825543319390654e6 0.0
0.0 0.0 0.0

-3.8363185944161606e6 1.4799449689966089e6 0.0
1.4799449689966089e6 4.85573168493782e6 0.0
0.0 0.0 0.0

-305947.6646001856 4.0230976746302783e6 0.0
4.0230976746302783e6 -2.3917160378595195e6 0.0
0.0 0.0 0.0

-143152.8833148544 1.0555396860467265e6 0.0
1.0555396860467265e6 -183587.21788757335 0.0
0.0 0.0 0.0

-3.1327288175340365e6 4.229050202214356e6 0.0
4.229050202214356e6 926450.6909632781 0.0
0.0 0.0 0.0

-1.6849565297040315e6 8.767341983271431e6 0.0
8.767341983271431e6 150116.11049242585 0.0
0.0 0.0 0.0

-3.8464083448626576e6 4.521803950221952e6 0.0
4.521803950221952e6 1.1691495579092551e6 0.0
0.0 0.0 0.0

-6.807437923942591e6 8.087558285281157e6 0.0
8.087558285281157e6 2.627285166501064e6 0.0
0.0 0.0 0.0

-5.024895057122246e6 6.815234682918557e6 0.0
6.815234682918557e6 1.6663006883964378e6 0.0
0.0 0.0 0.0

55178.68261219896 1.0463921331840783e6 0.0
1.0463921331840783e6 115047.30878172966 0.0
0.0 0.0 0.0

-205533.24187578028 3.1662730107843867e6 0.0
3.1662730107843867e6 -2.7628368691223636e6 0.0
0.0 0.0 0.0

-778466.6677925481 6.247797257776038e6 0.0
6.247797257776038e6 -979680.6719065183 0.0
0.0 0.0 0.0

-1.6735997277896625e6 8.182168264122094e6 0.0
8.182168264122094e6 -591815.0375133597 0.0
0.0 0.0 0.0

-790217.3589994475 6.363599054304474e6 0.0
6.363599054304474e6 -1.487396784560294e6 0.0
0.0 0.0 0.0

-745797.3098832895 4.829859489763615e6 0.0
4.829859489763615e6 -2.2005239112085863e6 0.0
0.0 0.0 0.0

-140296.53696625272 7.340319731282359e6 0.0
7.340319731282359e6 -467655.15620400716 0.0
0.0 0.0 0.0

-2.601823767651095e6 4.47148734119274e6 0.0
4.47148734119274e6 922775.268277788 0.0
0.0 0.0 0.0

-2.9591118069547783e6 5.127891547120154e6 0.0
5.127891547120154e6 686651.0567068016 0.0
0.0 0.0 0.0

-594235.2301877385 5.388376855228072e6 0.0
5.388376855228072e6 -2.1668963064216604e6 0.0
0.0 0.0 0.0

-845704.4994538187 2.2580768474624287e6 0.0
2.2580768474624287e6 -632390.339927391 0.0
0.0 0.0 0.0

-260829.38161529228 3.577204050428948e6 0.0
3.577204050428948e6 -2.6012309092755066e6 0.0
0.0 0.0 0.0

-916167.4516998824 6.674335807459046e6 0.0
6.674335807459046e6 -1.099821515484247e6 0.0
0.0 0.0 0.0

-623214.2123544145 5.520030859014156e6 0.0
5.520030859014156e6 -1.9433358910710092e6 0.0
0.0 0.0 0.0

-951569.5341951109 1.8651014450072085e6 0.0
1.8651014450072085e6 -618857.3788700253 0.0
0.0 0.0 0.0

-749395.7542554239 2.176694388109196e6 0.0
2.176694388109196e6 -1.1249376718562988e6 0.0
0.0 0.0 0.0

613325.9917449075 800972.0153472706 0.0
800972.0153472706 -1.6392011131178434e6 0.0
0.0 0.0 0.0

-2.8180247269850844e6 3.8407094183188076e6 0.0
3.8407094183188076e6 947182.3726382656 0.0
0.0 0.0 0.0

-880319.31759644 5.330157868412945e6 0.0
5.330157868412945e6 -1.4520311729736144e6 0.0
0.0 0.0 0.0

-6570.239375470905 5.450780058895913e6 0.0
5.450780058895913e6 -2.9436779645072264e6 0.0
0.0 0.0 0.0

-2.500591807492722e6 6.528810915071272e6 0.0
6.528810915071272e6 560503.5926282068 0.0
0.0 0.0 0.0

-7.88105732273834e6 7.256939742896169e6 0.0
7.256939742896169e6 2.611464604524733e6 0.0
0.0 0.0 0.0

-4.104019310185015e6 5.104265579543466e6 0.0
5.104265579543466e6 526730.6589609324 0.0
0.0 0.0 0.0

-4.278319311216428e6 5.79695829168996e6 0.0
5.79695829168996e6 2.391773572888213e6 0.0
0.0 0.0 0.0

-378474.44974105223 5.665719995256856e6 0.0
5.665719995256856e6 -2.4278955157267707e6 0.0
0.0 0.0 0.0

-633169.5957479276 4.8080611240050765e6 0.0
4.8080611240050765e6 -2.1105653424216066e6 0.0
0.0 0.0 0.0

-6.192905079322281e6 7.0646613162919935e6 0.0
7.0646613162919935e6 2.0299147095963592e6 0.0
0.0 0.0 0.0

-649800.9941558354 4.7674673147238605e6 0.0
4.7674673147238605e6 -2.166003262307812e6 0.0
0.0 0.0 0.0

-2.2677023311215388e6 4.189611509572842e6 0.0
4.189611509572842e6 1.6852086315242099e6 0.0
0.0 0.0 0.0

330288.4116418569 1.4656562140035152e6 0.0
1.4656562140035152e6 -1.4806139940547447e6 0.0
0.0 0.0 0.0

-2.7572699546690905e6 5.006142674056404e6 0.0
5.006142674056404e6 386257.3112064458 0.0
0.0 0.0 0.0

-2.396048564523453e6 4.233524881810346e6 0.0
4.233524881810346e6 1.0348098391393287e6 0.0
0.0 0.0 0.0

-102620.15289227768 953333.8152388573 0.0
953333.8152388573 -644493.9809430474 0.0
0.0 0.0 0.0

-644399.23192101 5.07683601515645e6 0.0
5.07683601515645e6 -1.8868979235581555e6 0.0
0.0 0.0 0.0

-3.0421456644364307e6 4.0800921968547404e6 0.0
4.0800921968547404e6 818918.5668190604 0.0
0.0 0.0 0.0

-210022.90681577421 7.078914721274124e6 0.0
7.078914721274124e6 -202580.00997630652 0.0
0.0 0.0 0.0

-2.811222556365076e6 4.739045404294505e6 0.0
4.739045404294505e6 863292.8213596292 0.0
0.0 0.0 0.0

-6.898055701396137e6 5.70971487719998e6 0.0
5.70971487719998e6 3.5596030802805843e6 0.0
0.0 0.0 0.0

-626918.1781727521 4.828582694143037e6 0.0
4.828582694143037e6 -2.0897271824530237e6 0.0
0.0 0.0 0.0

-4.290349799050983e6 5.0444565786503395e6 0.0
5.0444565786503395e6 3.870036898691196e6 0.0
0.0 0.0 0.0

-4.615230574410081e6 6.121506090947586e6 0.0
6.121506090947586e6 -543414.5359748823 0.0
0.0 0.0 0.0

-210102.229451866 2.5904816764578316e6 0.0
2.5904816764578316e6 -544265.0398259107 0.0
0.0 0.0 0.0

-5.90893225079901e6 526790.624540488 0.0
526790.624540488 7.333786336494416e6 0.0
0.0 0.0 0.0

-1.8627886634629935e6 5.971129011768205e6 0.0
5.971129011768205e6 866664.4043917744 0.0
0.0 0.0 0.0

-4.807780636973789e6 7.790460205563067e6 0.0
7.790460205563067e6 1.380546896742245e6 0.0
0.0 0.0 0.0

-115171.48278106666 7.345325930453381e6 0.0
7.345325930453381e6 -383905.03802202037 0.0
0.0 0.0 0.0

114805.01437982195 5.337753215512245e6 0.0
5.337753215512245e6 2.050878431586973e6 0.0
0.0 0.0 0.0

-5.2833665084081e6 5.646095120559142e6 0.0
5.646095120559142e6 2.873603121881196e6 0.0
0.0 0.0 0.0

-3.02184915982714e6 8.83444647644544e6 0.0
8.83444647644544e6 658848.2745147678 0.0
0.0 0.0 0.0

-1.0504042184047147e6 7.876387901936543e6 0.0
7.876387901936543e6 1.0423802624816792e6 0.0
0.0 0.0 0.0

56866.631015365245 5.146258634047915e6 0.0
5.146258634047915e6 -3.035858060550589e6 0.0
0.0 0.0 0.0

-2.820383725216854e6 5.088313719425368e6 0.0
5.088313719425368e6 692508.3981463235 0.0
0.0 0.0 0.0

-78036.31417912187 7.446066223239527e6 0.0
7.446066223239527e6 -183839.10175509268 0.0
0.0 0.0 0.0

-680388.0396402939 4.808677859812164e6 0.0
4.808677859812164e6 -2.2679600754997227e6 0.0
0.0 0.0 0.0

-1.9044053225541043e6 6.337281795014629e6 0.0
6.337281795014629e6 -31604.51569357037 0.0
0.0 0.0 0.0

169145.2096666831 2.7250658854282023e6 0.0
2.7250658854282023e6 -2.893641672626679e6 0.0
0.0 0.0 0.0

-1.296163520250028e6 7.117258028494231e6 0.0
7.117258028494231e6 -542054.4228117331 0.0
0.0 0.0 0.0

-1.0496003216449704e6 8.060259806634043e6 0.0
8.060259806634043e6 -659615.5216775403 0.0
0.0 0.0 0.0

1.6502989666768743e6 9.86439491054022e6 0.0
9.86439491054022e6 -4.337785981173976e6 0.0
0.0 0.0 0.0

-1.848565558133793e6 3.35314710687295e6 0.0
3.35314710687295e6 1.327842857539567e6 0.0
0.0 0.0 0.0

-1.9235022473085136e6 1.8745176439877697e6 0.0
1.8745176439877697e6 2.3676626462525986e6 0.0
0.0 0.0 0.0

-4.198952900680077e6 5.752402352733832e6 0.0
5.752402352733832e6 2.6594055059017427e6 0.0
0.0 0.0 0.0

-2.6300965876566074e6 4.925044206201975e6 0.0
4.925044206201975e6 603759.4950204974 0.0
0.0 0.0 0.0

-746471.6512230005 -192113.71885680116 0.0
-192113.71885680116 1.7217654677242348e6 0.0
0.0 0.0 0.0

-793906.3700085109 6.777363317945919e6 0.0
6.777363317945919e6 252091.13774535345 0.0
0.0 0.0 0.0

-3.0666554981190385e6 5.0726083586672405e6 0.0
5.0726083586672405e6 697850.2155231202 0.0
0.0 0.0 0.0

477235.43271644926 4.239892882614365e6 0.0
4.239892882614365e6 -4.1670393601634786e6 0.0
0.0 0.0 0.0

-3.305966135886989e6 3.6285213285907595e6 0.0
3.6285213285907595e6 5.165018575695539e6 0.0
0.0 0.0 0.0

-5.182668003682573e6 7.701965205829573e6 0.0
7.701965205829573e6 -1.5077575714743615e6 0.0
0.0 0.0 0.0

-113502.52884827586 7.299148246456784e6 0.0
7.299148246456784e6 -477298.83014840545 0.0
0.0 0.0 0.0

65047.679309111554 9.81968992275965e6 0.0
9.81968992275965e6 -889796.834026162 0.0
0.0 0.0 0.0

-6.864119466060415e6 3.677314412688552e6 0.0
3.677314412688552e6 9.967269563258056e6 0.0
0.0 0.0 0.0

-1.6813478381181885e6 8.537079666194865e6 0.0
8.537079666194865e6 -170245.01611342275 0.0
0.0 0.0 0.0

-642425.801915511 1.1927071917544728e7 0.0
1.1927071917544728e7 -369448.60256514524 0.0
0.0 0.0 0.0

-640296.9615697588 4.746637010745377e6 0.0
4.746637010745377e6 -2.1343231942820936e6 0.0
0.0 0.0 0.0

-1.8251833156120004e6 3.335648180858723e6 0.0
3.335648180858723e6 349256.40346808103 0.0
0.0 0.0 0.0

511921.11667731055 3.057980480574905e6 0.0
3.057980480574905e6 -4.231299689678765e6 0.0
0.0 0.0 0.0

-350537.16277389653 5.484109464911017e6 0.0
5.484109464911017e6 -2.407982122240357e6 0.0
0.0 0.0 0.0

-1.6476824231452153e6 8.207760874881522e6 0.0
8.207760874881522e6 -761848.5886749879 0.0
0.0 0.0 0.0

300967.1859647474 4.967492715560945e6 0.0
4.967492715560945e6 711924.0751292773 0.0
0.0 0.0 0.0

-4.170765803621265e6 4.481468976322001e6 0.0
4.481468976322001e6 2.701048221311369e6 0.0
0.0 0.0 0.0

-1.1096092140880171e6 8.014775197223133e6 0.0
8.014775197223133e6 -811483.9358558902 0.0
0.0 0.0 0.0

-344873.17060451885 -1.5533125568209942e6 0.0
-1.5533125568209942e6 4.160901640460436e6 0.0
0.0 0.0 0.0

-951471.7725191667 473101.55799693783 0.0
473101.55799693783 1.8186889964288753e6 0.0
0.0 0.0 0.0

-568751.2183780025 9.404715113501668e6 0.0
9.404715113501668e6 -1.3833101346366156e6 0.0
0.0 0.0 0.0

-193445.01294366995 7.128648782324047e6 0.0
7.128648782324047e6 -574857.6233135347 0.0
0.0 0.0 0.0

4.775528032595746e6 7.9920937160954485e6 0.0
7.9920937160954485e6 -1.470847371451123e6 0.0
0.0 0.0 0.0

59908.55362048591 799685.1546262221 0.0
799685.1546262221 -657676.7402310988 0.0
0.0 0.0 0.0

-4.719737216879199e6 7.4618427698046705e6 0.0
7.4618427698046705e6 898117.3431128522 0.0
0.0 0.0 0.0

-5.08889277222821e6 2.1465704990123096e6 0.0
2.1465704990123096e6 4.849970504744172e6 0.0
0.0 0.0 0.0

-6.588850272514256e6 8.473215251384398e6 0.0
8.473215251384398e6 3.3002105686775185e6 0.0
0.0 0.0 0.0

3.1333377109286096e6 5.659638781396874e6 0.0
5.659638781396874e6 -439061.9298222142 0.0
0.0 0.0 0.0

-6.623039557599805e6 -951207.5260270487 0.0
-951207.5260270487 8.416826936764864e6 0.0
0.0 0.0 0.0

-933277.3118819508 2.150768039335731e6 0.0
2.150768039335731e6 -541767.5335598382 0.0
0.0 0.0 0.0

-5.700744550307862e6 6.742304333376597e6 0.0
6.742304333376597e6 3.891042695995479e6 0.0
0.0 0.0 0.0

-2.829046884718106e6 4.900708136459316e6 0.0
4.900708136459316e6 832776.238754246 0.0
0.0 0.0 0.0

-1.5291717826469927e6 8.7494598206819e6 0.0
8.7494598206819e6 -707767.6082258231 0.0
0.0 0.0 0.0

-1.5391066414271034e6 6.949359975943521e6 0.0
6.949359975943521e6 -1.165649265136255e6 0.0
0.0 0.0 0.0

-513874.38427090074 7.1905879569011815e6 0.0
7.1905879569011815e6 455850.43050883093 0.0
0.0 0.0 0.0

-571431.8708542874 4.825698642628297e6 0.0
4.825698642628297e6 -2.0824800663623682e6 0.0
0.0 0.0 0.0

-592919.3797633408 5.732097879464142e6 0.0
5.732097879464142e6 -2.655452833237351e6 0.0
0.0 0.0 0.0

210930.0720404132 2.6182913132220763e6 0.0
2.6182913132220763e6 200157.55895496855 0.0
0.0 0.0 0.0

-3.1299667367066764e6 1.0570275275198912e7 0.0
1.0570275275198912e7 -98861.91470975045 0.0
0.0 0.0 0.0

-659740.0899218807 4.8220398621006785e6 0.0
4.8220398621006785e6 -2.199133623625404e6 0.0
0.0 0.0 0.0

-1.310579477801529e6 4.771244915112532e6 0.0
4.771244915112532e6 2.560229814815823e6 0.0
0.0 0.0 0.0

-609298.0374622624 4.914341526293709e6 0.0
4.914341526293709e6 -1.5849074568698602e6 0.0
0.0 0.0 0.0

-2.3600955159503464e6 4.941923660715764e6 0.0
4.941923660715764e6 524833.469058404 0.0
0.0 0.0 0.0

-481203.2470415911 5.549801098479518e6 0.0
5.549801098479518e6 -2.3030324206872713e6 0.0
0.0 0.0 0.0

-6.094135175446517e6 -714928.3098774354 0.0
-714928.3098774354 2.9027986312443833e6 0.0
0.0 0.0 0.0

421875.3982948788 1.446628025648746e6 0.0
1.446628025648746e6 -1.3413403087274393e6 0.0
0.0 0.0 0.0

-2.0466439252609941e6 3.775008294213105e6 0.0
3.775008294213105e6 1.6416106385674323e6 0.0
0.0 0.0 0.0

-270999.9110833141 5.26654273597653e6 0.0
5.26654273597653e6 -2.0152842457483704e6 0.0
0.0 0.0 0.0

-1.7375270224170773e6 4.264620665734553e6 0.0
4.264620665734553e6 -411766.56163441576 0.0
0.0 0.0 0.0

-1.3121347565665548e6 4.825400946354744e6 0.0
4.825400946354744e6 -618606.3598708545 0.0
0.0 0.0 0.0

-1.1818706783022764e6 2.278389693513592e6 0.0
2.278389693513592e6 -628732.4980779421 0.0
0.0 0.0 0.0

945281.1238674899 1.109971292323633e7 0.0
1.109971292323633e7 -2.262874190630868e6 0.0
0.0 0.0 0.0

-4.15179369661124e6 4.787453416232498e6 0.0
4.787453416232498e6 966669.8902375563 0.0
0.0 0.0 0.0

-1.0423596004084991e6 9.113742213408984e6 0.0
9.113742213408984e6 -835499.0264221352 0.0
0.0 0.0 0.0

-1.9311847504943702e6 6.391783028063673e6 0.0
6.391783028063673e6 268392.31532531255 0.0
0.0 0.0 0.0

-4.1432283150190567e6 4.548775271796098e6 0.0
4.548775271796098e6 1.214325286735119e6 0.0
0.0 0.0 0.0

-2.2917826420032303e6 3.964766755950263e6 0.0
3.964766755950263e6 1.2375264831293155e6 0.0
0.0 0.0 0.0

540051.5660972389 1.7058070844900007e6 0.0
1.7058070844900007e6 -1.9737717214723006e6 0.0
0.0 0.0 0.0

-700542.102415366 1.9521817934356837e6 0.0
1.9521817934356837e6 -788767.1883259143 0.0
0.0 0.0 0.0

-565785.5429904894 4.759528870940958e6 0.0
4.759528870940958e6 -2.191702817932232e6 0.0
0.0 0.0 0.0

-1.4626449215465416e6 5.905410673593031e6 0.0
5.905410673593031e6 -118421.58187218994 0.0
0.0 0.0 0.0

50505.674200473266 4.072991295426016e6 0.0
4.072991295426016e6 -648264.916878469 0.0
0.0 0.0 0.0

-1.9301634892817363e7 6.118487467202456e6 0.0
6.118487467202456e6 1.265929203492263e7 0.0
0.0 0.0 0.0

-56993.333786614356 5.490067646194161e6 0.0
5.490067646194161e6 -3.073382888464269e6 0.0
0.0 0.0 0.0

-619971.7881056296 1.9084103973322213e6 0.0
1.9084103973322213e6 -1.499647119362554e6 0.0
0.0 0.0 0.0

-497458.2036763234 5.662536655437491e6 0.0
5.662536655437491e6 -2.424735821594543e6 0.0
0.0 0.0 0.0

-145660.4943831853 3.2001630115271807e6 0.0
3.2001630115271807e6 -2.800682493751799e6 0.0
0.0 0.0 0.0

-918210.0836117239 1.3852472612189729e7 0.0
1.3852472612189729e7 -23530.67639493663 0.0
0.0 0.0 0.0

-532368.6632582371 5.665307909257436e6 0.0
5.665307909257436e6 -1.8007808496771636e6 0.0
0.0 0.0 0.0

-5.792655885582536e6 1.7755725745879698e6 0.0
1.7755725745879698e6 7.299723792308096e6 0.0
0.0 0.0 0.0

-1.8516489575070576e6 3.566527665042772e6 0.0
3.566527665042772e6 1.6204962962550644e6 0.0
0.0 0.0 0.0

-2.0309683870351156e6 5.306578479293253e6 0.0
5.306578479293253e6 380718.6684700841 0.0
0.0 0.0 0.0

-3.7721742637241036e6 3.049631523170557e6 0.0
3.049631523170557e6 3.491345982014034e6 0.0
0.0 0.0 0.0

-1.9746598599550324e6 4.0518292806180413e6 0.0
4.0518292806180413e6 1.911340312280903e6 0.0
0.0 0.0 0.0

-2.879932466058333e6 3.7707683302222234e6 0.0
3.7707683302222234e6 835421.5112634063 0.0
0.0 0.0 0.0

258648.94429447947 7.965613560107971e6 0.0
7.965613560107971e6 862162.7463286625 0.0
0.0 0.0 0.0

453101.60923665867 1.8554981908645057e6 0.0
1.8554981908645057e6 -1.5236668900270541e6 0.0
0.0 0.0 0.0

-1.231946504974411e6 7.048660070512538e6 0.0
7.048660070512538e6 -642688.5648186796 0.0
0.0 0.0 0.0

-339486.4755451478 5.618447437641661e6 0.0
5.618447437641661e6 -2.9795370990388505e6 0.0
0.0 0.0 0.0

-4.754549467937258e6 4.308535079327944e6 0.0
4.308535079327944e6 1.098194728959729e6 0.0
0.0 0.0 0.0

-1.8410525515999873e6 9.299884326829452e6 0.0
9.299884326829452e6 -345301.4814079036 0.0
0.0 0.0 0.0

-254234.50838650425 6.212229380401873e6 0.0
6.212229380401873e6 -1.3587427600170006e6 0.0
0.0 0.0 0.0

-1.6945644309170316e6 3.46757858780439e6 0.0
3.46757858780439e6 1.4401233989835456e6 0.0
0.0 0.0 0.0

-4.593890840235402e6 4.1004533531333497e6 0.0
4.1004533531333497e6 634744.165929391 0.0
0.0 0.0 0.0

-1.4853256988093825e6 7.9235928499727305e6 0.0
7.9235928499727305e6 -397348.11604041833 0.0
0.0 0.0 0.0

-406855.8119090381 5.6967325411782e6 0.0
5.6967325411782e6 -2.423097946581232e6 0.0
0.0 0.0 0.0

-5.2224015104993135e6 3.878284692007109e6 0.0
3.878284692007109e6 1.7186594560283201e6 0.0
0.0 0.0 0.0

1.9533436230555882e6 1.418729988378461e7 0.0
1.418729988378461e7 -2.892836594646167e6 0.0
0.0 0.0 0.0

-574378.4958904407 5.84478363198863e6 0.0
5.84478363198863e6 -1.1815505783720468e6 0.0
0.0 0.0 0.0

-733275.8097354353 6.2910508141549155e6 0.0
6.2910508141549155e6 -1.6231213142519987e6 0.0
0.0 0.0 0.0

-469952.2126383501 5.672765373723373e6 0.0
5.672765373723373e6 -2.4738932205516417e6 0.0
0.0 0.0 0.0

-1.112545472984047e6 1.147114835338958e7 0.0
1.147114835338958e7 -22015.773704675725 0.0
0.0 0.0 0.0

-614867.998654489 4.924367264344211e6 0.0
4.924367264344211e6 -1.4503926281185471e6 0.0
0.0 0.0 0.0

-3.550477232916505e6 6.120330847075281e6 0.0
6.120330847075281e6 935336.0365551442 0.0
0.0 0.0 0.0

-237478.77457859286 5.530245368441245e6 0.0
5.530245368441245e6 -2.7658813150611124e6 0.0
0.0 0.0 0.0

-223574.31124987296 6.782428738604897e6 0.0
6.782428738604897e6 -611498.3155328856 0.0
0.0 0.0 0.0

-4.29060491476166e6 5.091761960699099e6 0.0
5.091761960699099e6 -38435.81461339095 0.0
0.0 0.0 0.0

-2.903041045223092e6 3.8522012840121295e6 0.0
3.8522012840121295e6 943963.5193428542 0.0
0.0 0.0 0.0

2.9362056720692106e6 6.9087377304713605e6 0.0
6.9087377304713605e6 -1.5673030892232186e6 0.0
0.0 0.0 0.0

-4.347499787834116e6 4.696453543000012e6 0.0
4.696453543000012e6 1.4355435392037926e6 0.0
0.0 0.0 0.0

-1.0347663174135953e6 4.633401859763027e6 0.0
4.633401859763027e6 -328519.89058413764 0.0
0.0 0.0 0.0

1.7150586772764954e6 827067.8126156181 0.0
827067.8126156181 -2.2785436622565193e6 0.0
0.0 0.0 0.0

-2.8159543641782356e6 9.970109033490272e6 0.0
9.970109033490272e6 1.1830461913691366e6 0.0
0.0 0.0 0.0

-717993.3164594772 5.3828882273973385e6 0.0
5.3828882273973385e6 -1.3535261639850708e6 0.0
0.0 0.0 0.0

274306.2511880079 4.069909267378946e6 0.0
4.069909267378946e6 -3.1281991228657095e6 0.0
0.0 0.0 0.0

-278001.6517012401 3.3192659920023535e6 0.0
3.3192659920023535e6 -1.3667860646268635e6 0.0
0.0 0.0 0.0

182626.49093927158 2.8478445152547685e6 0.0
2.8478445152547685e6 -861588.4602986543 0.0
0.0 0.0 0.0

-1.214438291295358e6 6.930189492462984e6 0.0
6.930189492462984e6 -1.0718776256253337e6 0.0
0.0 0.0 0.0

-3.6580559858640707e6 5.371142940294892e6 0.0
5.371142940294892e6 120113.58501513838 0.0
0.0 0.0 0.0

-1.2052545978194023e6 6.207510766860258e6 0.0
6.207510766860258e6 -182727.41514867838 0.0
0.0 0.0 0.0

-1.0525503193432686e6 9.044291480158338e6 0.0
9.044291480158338e6 -708251.6120765568 0.0
0.0 0.0 0.0

-63443.8206952482 3.344855645580123e6 0.0
3.344855645580123e6 -2.4492455516813197e6 0.0
0.0 0.0 0.0

-1.65487523029967e6 7.285313854832351e6 0.0
7.285313854832351e6 -790056.9791708393 0.0
0.0 0.0 0.0

-1.6122040727808967e6 8.38215887204393e6 0.0
8.38215887204393e6 -989284.9241484717 0.0
0.0 0.0 0.0

-4.89061758954481e6 6.472278565775263e6 0.0
6.472278565775263e6 2.891118930071426e6 0.0
0.0 0.0 0.0

-605073.81220491 1.1055832239823362e7 0.0
1.1055832239823362e7 -569871.2116516758 0.0
0.0 0.0 0.0

-2.1749588889964265e6 5.173591566660818e6 0.0
5.173591566660818e6 593245.499874613 0.0
0.0 0.0 0.0

-1.483936872785709e6 5.49619595007037e6 0.0
5.49619595007037e6 521698.0525994358 0.0
0.0 0.0 0.0

-1.0579295028397694e7 4.271971721160069e6 0.0
4.271971721160069e6 1.771277710758503e7 0.0
0.0 0.0 0.0

-5.392728208375911e6 4.513693365993703e6 0.0
4.513693365993703e6 1.6988266297650174e6 0.0
0.0 0.0 0.0

-797723.7182191304 6.434840324728437e6 0.0
6.434840324728437e6 -915325.4144451406 0.0
0.0 0.0 0.0

-367555.89982198045 4.725124612798006e6 0.0
4.725124612798006e6 -2.016555756388277e6 0.0
0.0 0.0 0.0

-384164.4959975778 4.427323446630397e6 0.0
4.427323446630397e6 -2.1231596973296553e6 0.0
0.0 0.0 0.0

109752.93766924588 3.505292290955029e6 0.0
3.505292290955029e6 -1.5553888855512426e6 0.0
0.0 0.0 0.0

-2.5225818574317223e6 4.529571812145688e6 0.0
4.529571812145688e6 1.1287072116796328e6 0.0
0.0 0.0 0.0

-105695.46019115113 3.6283658506052974e6 0.0
3.6283658506052974e6 -2.416936631170055e6 0.0
0.0 0.0 0.0

-186078.13540232595 2.189580499528018e6 0.0
2.189580499528018e6 196808.18247184562 0.0
0.0 0.0 0.0

-1.7356501844739036e6 5.574907464332854e6 0.0
5.574907464332854e6 577567.7634485619 0.0
0.0 0.0 0.0

-834856.7563164299 1.9349700485597514e6 0.0
1.9349700485597514e6 -1.0483344692375348e6 0.0
0.0 0.0 0.0

-2.202485135388575e6 8.613787669323875e6 0.0
8.613787669323875e6 -87749.55328683427 0.0
0.0 0.0 0.0

-2.587648436909115e6 8.726114005621215e6 0.0
8.726114005621215e6 627843.1942341673 0.0
0.0 0.0 0.0

-45586.82086886237 7.398889660747672e6 0.0
7.398889660747672e6 -368869.3920128825 0.0
0.0 0.0 0.0

-226990.60146113578 5.498178353228555e6 0.0
5.498178353228555e6 -2.735630143267515e6 0.0
0.0 0.0 0.0

134426.22912912944 2.9753922829851964e6 0.0
2.9753922829851964e6 -2.6896450415893723e6 0.0
0.0 0.0 0.0

-1.6779273981152378e7 9.420212846418709e6 0.0
9.420212846418709e6 2.41730465943572e6 0.0
0.0 0.0 0.0

632370.7376869072 5.126525109162845e6 0.0
5.126525109162845e6 1.75187244152702e6 0.0
0.0 0.0 0.0

-2.5644130960866567e6 8.39171623139299e6 0.0
8.39171623139299e6 744233.6294501928 0.0
0.0 0.0 0.0

-688421.8749559416 6.651127057556229e6 0.0
6.651127057556229e6 -289405.16548437224 0.0
0.0 0.0 0.0

-317680.8351030883 6.894875450794191e6 0.0
6.894875450794191e6 -579841.0618321673 0.0
0.0 0.0 0.0

-2.058941059646939e6 845955.250186096 0.0
845955.250186096 2.3883375209930427e6 0.0
0.0 0.0 0.0

-3.378194183175852e6 4.998606775405476e6 0.0
4.998606775405476e6 775141.7197089151 0.0
0.0 0.0 0.0

-1.0179036084339557e6 4.0073147387527707e6 0.0
4.0073147387527707e6 -1.0940879985791452e6 0.0
0.0 0.0 0.0

-451250.87544430397 1.0199154905591357e6 0.0
1.0199154905591357e6 -95413.13032482477 0.0
0.0 0.0 0.0

-1.1510025002511157e7 1.0916688949389763e6 0.0
1.0916688949389763e6 2.5902077707921244e7 0.0
0.0 0.0 0.0

-1.0729914525104123e6 6.938798481050354e6 0.0
6.938798481050354e6 -794797.7447166096 0.0
0.0 0.0 0.0

359403.9029655907 4.42079764703213e6 0.0
4.42079764703213e6 -991452.53278706 0.0
0.0 0.0 0.0

-8.0223425564696165e6 -572701.1695532071 0.0
-572701.1695532071 1.037273375241891e7 0.0
0.0 0.0 0.0

-122908.38205747853 3.1889332926330687e6 0.0
3.1889332926330687e6 -2.2700451986142052e6 0.0
0.0 0.0 0.0

-2.7611020422363253e6 3.7018093406501682e6 0.0
3.7018093406501682e6 2.4738521456942516e6 0.0
0.0 0.0 0.0

-6.884406365396876e6 6.626112164425745e6 0.0
6.626112164425745e6 4.651169236146636e6 0.0
0.0 0.0 0.0

-1.1033434311160624e6 6.154935792007679e6 0.0
6.154935792007679e6 -1.1143767158369205e6 0.0
0.0 0.0 0.0

-1.487287531393433e6 507230.9673709147 0.0
507230.9673709147 1.4238750080115173e6 0.0
0.0 0.0 0.0

-1.6514243486764554e6 6.115264404304687e6 0.0
6.115264404304687e6 -24137.722582533082 0.0
0.0 0.0 0.0

-90682.31875504562 1.1410894621637013e7 0.0
1.1410894621637013e7 -1.0928376142786876e6 0.0
0.0 0.0 0.0

1.0912308714710544e6 759053.8944938517 0.0
759053.8944938517 -1.6822335202000984e6 0.0
0.0 0.0 0.0

499150.32802659564 7.298424565327672e6 0.0
7.298424565327672e6 -1.7826684898158922e6 0.0
0.0 0.0 0.0

-3.9365375617939564e6 1.3681150681406785e7 0.0
1.3681150681406785e7 -645857.1500827746 0.0
0.0 0.0 0.0

-114974.40934746189 3.635859254842521e6 0.0
3.635859254842521e6 -2.1586864086342477e6 0.0
0.0 0.0 0.0

-2.0326483983205785e6 3.2457493396603614e6 0.0
3.2457493396603614e6 388155.0571222467 0.0
0.0 0.0 0.0

-532842.4749121077 8.161311112201625e6 0.0
8.161311112201625e6 3.040196887044363e6 0.0
0.0 0.0 0.0

4.671583132191606e6 6.81852188061481e6 0.0
6.81852188061481e6 -784811.2480778487 0.0
0.0 0.0 0.0

-8.552590321360163e6 7.087823338865373e6 0.0
7.087823338865373e6 6.459526039745321e6 0.0
0.0 0.0 0.0

-2.8049623469177894e6 3.7615863302884195e6 0.0
3.7615863302884195e6 850830.0782441144 0.0
0.0 0.0 0.0

-234560.0645050964 4.961866477127081e6 0.0
4.961866477127081e6 -2.6474213037054217e6 0.0
0.0 0.0 0.0

-3.17185016309397e6 5.157977457433027e6 0.0
5.157977457433027e6 458999.2989261211 0.0
0.0 0.0 0.0

575991.5376461837 6.195403713188394e6 0.0
6.195403713188394e6 -716582.0424727397 0.0
0.0 0.0 0.0

-8.389974076560259e6 -3.066476397051368e6 0.0
-3.066476397051368e6 1.236843147655489e7 0.0
0.0 0.0 0.0

-1.6379649210197553e6 5.571065212421855e6 0.0
5.571065212421855e6 298586.0688568313 0.0
0.0 0.0 0.0

-165189.69295319522 7.197540127359654e6 0.0
7.197540127359654e6 -427757.9146546587 0.0
0.0 0.0 0.0

-1.2590105977681798e6 7.295602576242153e6 0.0
7.295602576242153e6 -854258.0232833682 0.0
0.0 0.0 0.0

-337300.25026703795 8.54373449060083e6 0.0
8.54373449060083e6 -1.4460336107061647e6 0.0
0.0 0.0 0.0

-862669.7697896297 7.084758310235776e6 0.0
7.084758310235776e6 -915431.6943324015 0.0
0.0 0.0 0.0

-1.3493288255648827e6 2.4349842460370124e6 0.0
2.4349842460370124e6 -470159.6685746267 0.0
0.0 0.0 0.0

-535115.3584973518 6.896524435526927e6 0.0
6.896524435526927e6 -280700.3915463339 0.0
0.0 0.0 0.0

-137461.78265084603 6.900590965634389e6 0.0
6.900590965634389e6 -561006.821332512 0.0
0.0 0.0 0.0

-305841.57270188176 7.028805010158978e6 0.0
7.028805010158978e6 68618.00632025061 0.0
0.0 0.0 0.0

-358265.1045152272 5.680857290880013e6 0.0
5.680857290880013e6 -2.420725555052249e6 0.0
0.0 0.0 0.0

-3.079620613488205e6 4.340962924344273e6 0.0
4.340962924344273e6 1.0103819241311182e6 0.0
0.0 0.0 0.0

-4.984468192746012e6 7.361362559925503e6 0.0
7.361362559925503e6 2.4403647351083923e6 0.0
0.0 0.0 0.0

-3.5851504769457346e6 4.789475376524805e6 0.0
4.789475376524805e6 886243.2915833681 0.0
0.0 0.0 0.0

-856242.7827196842 6.393243516290102e6 0.0
6.393243516290102e6 -324203.8953928909 0.0
0.0 0.0 0.0

-407660.199655197 4.703643675652875e6 0.0
4.703643675652875e6 -1.998551885169256e6 0.0
0.0 0.0 0.0

-1.2029672249914957e6 6.8900750819230145e6 0.0
6.8900750819230145e6 -871271.1613430887 0.0
0.0 0.0 0.0

-1.4443612663411018e6 1.148218009565441e7 0.0
1.148218009565441e7 -1.2659184084130796e6 0.0
0.0 0.0 0.0

-600015.6973554869 1.4982121269023325e6 0.0
1.4982121269023325e6 205658.3560218489 0.0
0.0 0.0 0.0

-1.3745072709098407e6 5.845529476740011e6 0.0
5.845529476740011e6 30616.325951974723 0.0
0.0 0.0 0.0

-352312.2690471882 5.886707321955057e6 0.0
5.886707321955057e6 -1.3562757588239224e6 0.0
0.0 0.0 0.0

-330986.30205908715 9.2836908606603e6 0.0
9.2836908606603e6 -1.169807433226339e6 0.0
0.0 0.0 0.0

-1.0286018697329559e6 2.77335463544903e6 0.0
2.77335463544903e6 725120.2104656422 0.0
0.0 0.0 0.0

-303950.0171602072 7.332092583575906e6 0.0
7.332092583575906e6 -359431.0220119639 0.0
0.0 0.0 0.0

-4.1072331165716257e6 3.2137285448476877e6 0.0
3.2137285448476877e6 2.1674910668993075e6 0.0
0.0 0.0 0.0

-466025.0738816977 4.56691235911078e6 0.0
4.56691235911078e6 -1.828956120734957e6 0.0
0.0 0.0 0.0

-4.185597058747914e6 9.091617892353602e6 0.0
9.091617892353602e6 1.907109773193493e6 0.0
0.0 0.0 0.0

-3.8166461804457167e6 4.4936921972233625e6 0.0
4.4936921972233625e6 1.0465543575013853e6 0.0
0.0 0.0 0.0

-889683.439206756 2.4091209143021666e6 0.0
2.4091209143021666e6 392758.796850539 0.0
0.0 0.0 0.0

-2.8336631834726417e6 6.71651134169404e6 0.0
6.71651134169404e6 485330.7059893508 0.0
0.0 0.0 0.0

-4.0415551495168568e6 4.494344767267939e6 0.0
4.494344767267939e6 1.21300918016288e6 0.0
0.0 0.0 0.0

-3.6729634114384833e6 4.596804341238753e6 0.0
4.596804341238753e6 988959.0505704568 0.0
0.0 0.0 0.0

-215244.0752691366 7.185999082258694e6 0.0
7.185999082258694e6 -486467.62654953176 0.0
0.0 0.0 0.0

-790242.0485476323 6.419291085564035e6 0.0
6.419291085564035e6 -1.4849189018224427e6 0.0
0.0 0.0 0.0

3.9056579115488795e6 7.710272793116203e6 0.0
7.710272793116203e6 -1.8870760001073761e6 0.0
0.0 0.0 0.0

-5.72588659086225e6 -2.848322083635368e6 0.0
-2.848322083635368e6 2.6125885869565173e6 0.0
0.0 0.0 0.0

-3.5333283598304805e6 5.156480133421103e6 0.0
5.156480133421103e6 508444.78126250487 0.0
0.0 0.0 0.0

-323035.69125549216 3.222863221577976e6 0.0
3.222863221577976e6 -2.8004296926807766e6 0.0
0.0 0.0 0.0

-1.7585819974296407e6 8.492833160054503e6 0.0
8.492833160054503e6 -699746.7034011933 0.0
0.0 0.0 0.0

-3.100994207038109e6 5.082406973671079e6 0.0
5.082406973671079e6 645834.817830527 0.0
0.0 0.0 0.0

-521974.1818414962 2.7846533681662604e6 0.0
2.7846533681662604e6 506479.4069199924 0.0
0.0 0.0 0.0

-621307.869525842 5.429237279762874e6 0.0
5.429237279762874e6 -1.9658355805560548e6 0.0
0.0 0.0 0.0

-378482.6953604103 5.497384007735713e6 0.0
5.497384007735713e6 -2.281018812185447e6 0.0
0.0 0.0 0.0

374514.7209571969 6.591352988276598e6 0.0
6.591352988276598e6 -1.5244806351174642e6 0.0
0.0 0.0 0.0

-1.3049863211999677e7 6.976142371114781e6 0.0
6.976142371114781e6 1.0451765749687165e7 0.0
0.0 0.0 0.0

-1.4837688478766612e6 2.3602206765445415e6 0.0
2.3602206765445415e6 -263562.0720278035 0.0
0.0 0.0 0.0

-2.7541799414198734e6 5.169976588137661e6 0.0
5.169976588137661e6 591140.6686216804 0.0
0.0 0.0 0.0

-3.3291258483802304e6 4.273851956172611e6 0.0
4.273851956172611e6 1.0489347816644772e6 0.0
0.0 0.0 0.0

-3.638383191306716e6 -3.3097267034062627e6 0.0
-3.3097267034062627e6 9.930923338377219e6 0.0
0.0 0.0 0.0

673742.0112954404 1.7517485700564582e6 0.0
1.7517485700564582e6 -1.3495153858243725e6 0.0
0.0 0.0 0.0

-917631.1958761736 6.4005225850820085e6 0.0
6.4005225850820085e6 -1.4423327148340298e6 0.0
0.0 0.0 0.0

-664287.6987958073 2.5788149680095185e6 0.0
2.5788149680095185e6 847328.1943609184 0.0
0.0 0.0 0.0

-1.071001794491671e6 6.273194909778979e6 0.0
6.273194909778979e6 -1.243348538226426e6 0.0
0.0 0.0 0.0

-375663.1123175012 8.018928126240082e6 0.0
8.018928126240082e6 -1.2809006247745706e6 0.0
0.0 0.0 0.0

57592.74946557684 4.724996172214684e6 0.0
4.724996172214684e6 -3.4155374281304628e6 0.0
0.0 0.0 0.0

-3.200065417899999e6 5.416043109057197e6 0.0
5.416043109057197e6 129696.1926315315 0.0
0.0 0.0 0.0

-5.00463814038666e6 5.464602538652215e6 0.0
5.464602538652215e6 3.131062409336199e6 0.0
0.0 0.0 0.0

-633587.6303559665 4.685185718483929e6 0.0
4.685185718483929e6 -2.1119587589673693e6 0.0
0.0 0.0 0.0

-15969.621987930925 7.36036696578726e6 0.0
7.36036696578726e6 -53232.07053373627 0.0
0.0 0.0 0.0

-886053.7948455377 6.461526936369779e6 0.0
6.461526936369779e6 -1.3553427798726012e6 0.0
0.0 0.0 0.0

-307671.87594677496 5.495843016618466e6 0.0
5.495843016618466e6 -2.2622447366381944e6 0.0
0.0 0.0 0.0

-138212.4577130212 1.288192901779049e6 0.0
1.288192901779049e6 -605418.5059936445 0.0
0.0 0.0 0.0

-1.5659231611105339e6 2.9329477007740545e6 0.0
2.9329477007740545e6 28307.472769860644 0.0
0.0 0.0 0.0

-1.3537967863478076e6 7.647264496622703e6 0.0
7.647264496622703e6 -487591.36879050557 0.0
0.0 0.0 0.0

-1.3027290386525658e6 5.632520521374657e6 0.0
5.632520521374657e6 -1.1494810625354878e6 0.0
0.0 0.0 0.0

-5.406498183982356e6 8.161464552532478e6 0.0
8.161464552532478e6 710464.4013441096 0.0
0.0 0.0 0.0

-473506.6922376121 8.043979633476731e6 0.0
8.043979633476731e6 -1.317637786876126e6 0.0
0.0 0.0 0.0

2.1690121980907954e6 8.90365957148994e6 0.0
8.90365957148994e6 -2.285788416512089e6 0.0
0.0 0.0 0.0

-5.791525738655357e6 3.888598791590265e6 0.0
3.888598791590265e6 1.695785649351434e6 0.0
0.0 0.0 0.0

-167919.85187401937 2.445721645932072e6 0.0
2.445721645932072e6 -670387.5791403734 0.0
0.0 0.0 0.0

-1.3357676883849367e6 8.915643682021877e6 0.0
8.915643682021877e6 -1.0221584298739996e6 0.0
0.0 0.0 0.0

-2.6613622068473473e6 6.600867142950462e6 0.0
6.600867142950462e6 447155.43931572896 0.0
0.0 0.0 0.0

-4.7504898952056775e6 4.7291973163566375e6 0.0
4.7291973163566375e6 477521.11131442385 0.0
0.0 0.0 0.0

-454046.37541526376 5.567346919619839e6 0.0
5.567346919619839e6 -2.3296171206190297e6 0.0
0.0 0.0 0.0

-120846.4191236572 6.967279813139522e6 0.0
6.967279813139522e6 -586625.0589532374 0.0
0.0 0.0 0.0

-331931.5165316628 5.637012873183098e6 0.0
5.637012873183098e6 -2.3946758515533023e6 0.0
0.0 0.0 0.0

-5.414073462523481e6 3.838917615597821e6 0.0
3.838917615597821e6 1.0421603707488778e6 0.0
0.0 0.0 0.0

-1.8816075447507964e6 8.618439252780082e6 0.0
8.618439252780082e6 -295807.7752480015 0.0
0.0 0.0 0.0

-2.0470003774589119e6 5.917903042527205e6 0.0
5.917903042527205e6 -16355.66639506095 0.0
0.0 0.0 0.0

-385506.28234057256 4.565141233097352e6 0.0
4.565141233097352e6 -2.021476653530964e6 0.0
0.0 0.0 0.0

-1.0043924624756007e6 1.9223719639363026e6 0.0
1.9223719639363026e6 232331.26311710448 0.0
0.0 0.0 0.0

-1.4067945584e6 4.7395233096451815e6 0.0
4.7395233096451815e6 -757470.815404712 0.0
0.0 0.0 0.0

-483034.0178902962 8.713873288123041e6 0.0
8.713873288123041e6 -1.2174504029416821e6 0.0
0.0 0.0 0.0

-432443.9899132022 5.689443368978503e6 0.0
5.689443368978503e6 -2.434158280188826e6 0.0
0.0 0.0 0.0

-3.0703050284337793e6 5.179295786939634e6 0.0
5.179295786939634e6 588379.2423603497 0.0
0.0 0.0 0.0

-3.7982120869639767e6 1.5168495889385875e7 0.0
1.5168495889385875e7 -2.1322761553586526e6 0.0
0.0 0.0 0.0

-2.2498681420764076e6 6.604778099890941e6 0.0
6.604778099890941e6 109889.86039981362 0.0
0.0 0.0 0.0

-3.4081193772605537e6 5.075810084916399e6 0.0
5.075810084916399e6 673346.1586257515 0.0
0.0 0.0 0.0

-2.19745519542573e6 3.6209249877807e6 0.0
3.6209249877807e6 1.199483026842921e6 0.0
0.0 0.0 0.0

-881095.0054254862 7.155375434836632e6 0.0
7.155375434836632e6 -1.047541207161427e6 0.0
0.0 0.0 0.0

-2.9847856466657883e6 4.563958430881831e6 0.0
4.563958430881831e6 971063.9722100077 0.0
0.0 0.0 0.0

-425433.35800784855 5.592552722430484e6 0.0
5.592552722430484e6 -2.3586456090757125e6 0.0
0.0 0.0 0.0

-534502.180045445 4.606684031097454e6 0.0
4.606684031097454e6 -2.2065724295168174e6 0.0
0.0 0.0 0.0

-405911.7610041753 5.667099846131994e6 0.0
5.667099846131994e6 -2.4413656717190105e6 0.0
0.0 0.0 0.0

-3.392241432246799e6 4.5405154966419935e6 0.0
4.5405154966419935e6 930535.6479125444 0.0
0.0 0.0 0.0

174974.32764750364 6.563288102213838e6 0.0
6.563288102213838e6 583247.74593168 0.0
0.0 0.0 0.0

-430058.81917185854 4.480895319067216e6 0.0
4.480895319067216e6 -1.4335294947283575e6 0.0
0.0 0.0 0.0

-1.8331816614294932e6 3.1128790339008505e6 0.0
3.1128790339008505e6 2.5120239941060646e6 0.0
0.0 0.0 0.0

-1.0301803123987634e6 2.4025046876072166e6 0.0
2.4025046876072166e6 -445621.8114516339 0.0
0.0 0.0 0.0

-1.4851775089978706e6 8.728489532779211e6 0.0
8.728489532779211e6 2.0496767036170352e6 0.0
0.0 0.0 0.0

-512929.63967546873 1.0993320087283342e6 0.0
1.0993320087283342e6 -197574.49208360573 0.0
0.0 0.0 0.0

-169518.7090305586 2.9594059539682767e6 0.0
2.9594059539682767e6 -3.041015940875343e6 0.0
0.0 0.0 0.0

-366662.31162808265 5.101330495885343e6 0.0
5.101330495885343e6 -2.373183588166158e6 0.0
0.0 0.0 0.0

-3.3358568982080203e6 5.098357329604729e6 0.0
5.098357329604729e6 754703.9709721147 0.0
0.0 0.0 0.0

717859.3379552382 5.803933812886955e6 0.0
5.803933812886955e6 1.1881433975726007e6 0.0
0.0 0.0 0.0

-1.1506659246357358e6 2.5426561202669004e6 0.0
2.5426561202669004e6 450462.731795197 0.0
0.0 0.0 0.0

-8.857044487355562e6 5.789484427627624e6 0.0
5.789484427627624e6 3.919151248053947e6 0.0
0.0 0.0 0.0

-1.5955257497700492e6 5.7580850379269505e6 0.0
5.7580850379269505e6 -6411.34871915041 0.0
0.0 0.0 0.0

-5.646799533604388e6 3.974452130771879e6 0.0
3.974452130771879e6 504723.7037029604 0.0
0.0 0.0 0.0

-107064.14314412628 3.2191150893581007e6 0.0
3.2191150893581007e6 -3.053433100150239e6 0.0
0.0 0.0 0.0

-1.8370924652631702e6 9.27001632363054e6 0.0
9.27001632363054e6 391568.8705799667 0.0
0.0 0.0 0.0

-6.986992530615928e6 1.3911979026702053e6 0.0
1.3911979026702053e6 9.612487377769453e6 0.0
0.0 0.0 0.0

-2.8483824379234053e6 4.793818839393441e6 0.0
4.793818839393441e6 897514.758879117 0.0
0.0 0.0 0.0

-489488.85677827464 6.985403602757719e6 0.0
6.985403602757719e6 416093.18873399147 0.0
0.0 0.0 0.0

316832.855464873 2.4776733071804703e6 0.0
2.4776733071804703e6 -927400.7714862834 0.0
0.0 0.0 0.0

-1.0013159690966224e6 5.335589834826667e6 0.0
5.335589834826667e6 165888.3653958803 0.0
0.0 0.0 0.0

-1.5075408683596943e6 5.700040323035952e6 0.0
5.700040323035952e6 159964.0939092551 0.0
0.0 0.0 0.0

-451244.5900765168 5.357353521191025e6 0.0
5.357353521191025e6 -2.4490736671278584e6 0.0
0.0 0.0 0.0

-1.5164543325908864e6 6.07383602074414e6 0.0
6.07383602074414e6 -93933.43950718647 0.0
0.0 0.0 0.0

-581694.7207578681 8.144742698875116e6 0.0
8.144742698875116e6 -1.1695270936491087e6 0.0
0.0 0.0 0.0

-1.3399860945653694e6 2.4219764588070875e6 0.0
2.4219764588070875e6 -151697.01102808502 0.0
0.0 0.0 0.0

-367283.0082970088 5.537304313206139e6 0.0
5.537304313206139e6 -2.43672321877623e6 0.0
0.0 0.0 0.0

-1.8872173624482017e6 3.3651704564394597e6 0.0
3.3651704564394597e6 301462.60898348165 0.0
0.0 0.0 0.0

-2.0512910050244466e6 4.325583706730021e6 0.0
4.325583706730021e6 2.310106329947102e6 0.0
0.0 0.0 0.0

-27519.231335890137 1.2836545671087417e6 0.0
1.2836545671087417e6 -226288.44322143207 0.0
0.0 0.0 0.0

-2.365949977046827e6 5.76243733690167e6 0.0
5.76243733690167e6 271940.8725341103 0.0
0.0 0.0 0.0

-2.6444255267918603e6 5.12674460493433e6 0.0
5.12674460493433e6 612884.1334827116 0.0
0.0 0.0 0.0

-1.0633713467386551e6 1.0590481170837674e7 0.0
1.0590481170837674e7 -131183.357623404 0.0
0.0 0.0 0.0

-755981.1344025274 2.84899570511512e6 0.0
2.84899570511512e6 468512.9545191991 0.0
0.0 0.0 0.0

-360468.1533644389 5.532091802506872e6 0.0
5.532091802506872e6 -2.428922070252337e6 0.0
0.0 0.0 0.0

-2.9380438306842363e6 4.95851189136682e6 0.0
4.95851189136682e6 808504.8168204832 0.0
0.0 0.0 0.0

-877101.5034154248 5.648895861400827e6 0.0
5.648895861400827e6 -1.25311003063673e6 0.0
0.0 0.0 0.0

-1.0456853185315358e6 3.5788544133064062e6 0.0
3.5788544133064062e6 -901504.730714797 0.0
0.0 0.0 0.0

128669.08157510209 2.6184170013940567e6 0.0
2.6184170013940567e6 -634423.262407306 0.0
0.0 0.0 0.0

-3.5849590219024103e6 4.960067318982337e6 0.0
4.960067318982337e6 841428.3061641899 0.0
0.0 0.0 0.0

-2.429849767374565e6 3.6713018313967446e6 0.0
3.6713018313967446e6 588828.3206885776 0.0
0.0 0.0 0.0

-508770.3361760443 6.10188536528389e6 0.0
6.10188536528389e6 1.56491840726299e6 0.0
0.0 0.0 0.0

845787.8979935269 1.1511817241693495e6 0.0
1.1511817241693495e6 -861349.0349611045 0.0
0.0 0.0 0.0

-163631.62134932796 6.000145514213797e6 0.0
6.000145514213797e6 -1.1135404669085648e6 0.0
0.0 0.0 0.0

-60623.534076356445 5.550621508254432e6 0.0
5.550621508254432e6 -3.021214663044392e6 0.0
0.0 0.0 0.0

-4.347082847864378e6 9.686375680413546e6 0.0
9.686375680413546e6 759457.9248603708 0.0
0.0 0.0 0.0

-1.8539050256420914e6 5.413109470368019e6 0.0
5.413109470368019e6 391669.3372411353 0.0
0.0 0.0 0.0

-337808.995237142 2.915798786081986e6 0.0
2.915798786081986e6 -690543.0242255295 0.0
0.0 0.0 0.0

-1.107254133327042e6 6.697437529171516e6 0.0
6.697437529171516e6 -97412.48818670443 0.0
0.0 0.0 0.0

-274147.3394363049 5.648465515866393e6 0.0
5.648465515866393e6 -2.8260404089019084e6 0.0
0.0 0.0 0.0

-699895.405870721 4.614098702944433e6 0.0
4.614098702944433e6 -1.683055716763652e6 0.0
0.0 0.0 0.0

-4.767751934053169e6 4.456317091418532e6 0.0
4.456317091418532e6 1.4456788404696516e6 0.0
0.0 0.0 0.0

152124.81588133305 6.881806564651537e6 0.0
6.881806564651537e6 507082.88656926516 0.0
0.0 0.0 0.0

-2.958818881583772e6 5.240237552212481e6 0.0
5.240237552212481e6 1.9645121882576195e6 0.0
0.0 0.0 0.0

-2.6680842448423207e6 3.9318623979426743e6 0.0
3.9318623979426743e6 988422.0912545965 0.0
0.0 0.0 0.0

-1.7232865903149266e6 8.425227326659705e6 0.0
8.425227326659705e6 -919004.4309470712 0.0
0.0 0.0 0.0

205197.58351620391 6.662958812782886e6 0.0
6.662958812782886e6 -1.6373028864019918e6 0.0
0.0 0.0 0.0

-3.6334036625927016e6 4.0960082271461687e6 0.0
4.0960082271461687e6 2.9418738886023895e6 0.0
0.0 0.0 0.0

-1.0151780441292399e6 6.210770560305616e6 0.0
6.210770560305616e6 -230560.96947933736 0.0
0.0 0.0 0.0

-6.177450527067514e6 183400.46429902894 0.0
183400.46429902894 1.1551509326493178e7 0.0
0.0 0.0 0.0

-980417.4551936009 3.6030069096665415e6 0.0
3.6030069096665415e6 -946511.1524216022 0.0
0.0 0.0 0.0

-591760.2153728803 4.804230442604573e6 0.0
4.804230442604573e6 -2.1095452869669576e6 0.0
0.0 0.0 0.0

-1.0861106731364878e6 6.56177501625874e6 0.0
6.56177501625874e6 -970104.6197388918 0.0
0.0 0.0 0.0

-2.367569910111867e6 4.236763242256632e6 0.0
4.236763242256632e6 681792.6914658534 0.0
0.0 0.0 0.0

-1.7241730408603887e6 5.625660422352472e6 0.0
5.625660422352472e6 121529.21070636157 0.0
0.0 0.0 0.0

-96117.78898687367 7.370525181426958e6 0.0
7.370525181426958e6 -320392.6946913552 0.0
0.0 0.0 0.0

-3.3042403906956464e6 4.383047130002523e6 0.0
4.383047130002523e6 1.0050121228829252e6 0.0
0.0 0.0 0.0

-1.4369502863122118e6 6.269979940558106e6 0.0
6.269979940558106e6 -121800.48467922496 0.0
0.0 0.0 0.0

-3.7399187545338585e6 -1.5624998579318465e6 0.0
-1.5624998579318465e6 7.089003565341533e6 0.0
0.0 0.0 0.0

-1.0702858246927413e6 2.472563494674674e6 0.0
2.472563494674674e6 297979.1668673637 0.0
0.0 0.0 0.0

-938720.5886832741 6.172052965376724e6 0.0
6.172052965376724e6 -1.1564145942084033e6 0.0
0.0 0.0 0.0

-4.240883158302984e6 5.518451344610853e6 0.0
5.518451344610853e6 464816.96788458363 0.0
0.0 0.0 0.0

243850.14978693443 2.1416515543666915e6 0.0
2.1416515543666915e6 -1.0932385930621403e6 0.0
0.0 0.0 0.0

-4.688018111906873e6 95070.73694438317 0.0
95070.73694438317 5.713725771854952e6 0.0
0.0 0.0 0.0

-522678.1953531012 -1.1503477255209854e6 0.0
-1.1503477255209854e6 -119369.10131613274 0.0
0.0 0.0 0.0

-1.3167198166065842e6 201696.0179807545 0.0
201696.0179807545 680391.0442287936 0.0
0.0 0.0 0.0

-879525.3438711829 6.4231152842161935e6 0.0
6.4231152842161935e6 -1.493401987333176e6 0.0
0.0 0.0 0.0

-2.6134477732027667e6 3.7135361783381803e6 0.0
3.7135361783381803e6 545965.5700431608 0.0
0.0 0.0 0.0

-3.2272929955282323e6 3.315486583786713e6 0.0
3.315486583786713e6 1.1128564227492928e6 0.0
0.0 0.0 0.0

-1.8697801909781005e6 5.513416081467691e6 0.0
5.513416081467691e6 332799.522693446 0.0
0.0 0.0 0.0

-234473.86985728634 5.431366011444337e6 0.0
5.431366011444337e6 -2.3210948879008284e6 0.0
0.0 0.0 0.0

-681447.3872156003 5.470185630760979e6 0.0
5.470185630760979e6 692806.5454186979 0.0
0.0 0.0 0.0

-628321.7966589544 4.744403031992714e6 0.0
4.744403031992714e6 -2.128720049445308e6 0.0
0.0 0.0 0.0

-1.577271724251348e6 5.867416942425976e6 0.0
5.867416942425976e6 -67512.5443488392 0.0
0.0 0.0 0.0

-295532.5994309804 5.554896672118917e6 0.0
5.554896672118917e6 -2.8143381591455447e6 0.0
0.0 0.0 0.0

-238037.4687388502 5.310273921295129e6 0.0
5.310273921295129e6 -2.7177531958367825e6 0.0
0.0 0.0 0.0

-3.1602957972068647e6 5.480794647878659e6 0.0
5.480794647878659e6 1.8292395626360476e6 0.0
0.0 0.0 0.0

-6.117668564585096e6 5.224315124312482e6 0.0
5.224315124312482e6 4.1601669989496716e6 0.0
0.0 0.0 0.0

-2.7609848390801377e6 5.194324818840093e6 0.0
5.194324818840093e6 543710.7788606081 0.0
0.0 0.0 0.0

-1.6493480811709536e6 2.937124068522748e6 0.0
2.937124068522748e6 38388.492011275725 0.0
0.0 0.0 0.0

-1.9174757992217299e6 765876.6107190495 0.0
765876.6107190495 2.4726994399795434e6 0.0
0.0 0.0 0.0

-703786.8327042838 5.313371636584424e6 0.0
5.313371636584424e6 -1.380029463533575e6 0.0
0.0 0.0 0.0

-114441.45497210784 9.185816932346968e6 0.0
9.185816932346968e6 -1.4849473696854915e6 0.0
0.0 0.0 0.0

-5.549263524481676e6 2.1043046304306914e6 0.0
2.1043046304306914e6 1.0650743027650448e7 0.0
0.0 0.0 0.0

-783535.4936811582 6.345048705633525e6 0.0
6.345048705633525e6 -308633.43454751367 0.0
0.0 0.0 0.0

-2.8689319213022552e6 5.134556803204526e6 0.0
5.134556803204526e6 646028.5941732822 0.0
0.0 0.0 0.0

-553298.357359693 5.425482132063019e6 0.0
5.425482132063019e6 -2.2461174286056818e6 0.0
0.0 0.0 0.0

-5.11221818799849e6 845763.038922397 0.0
845763.038922397 6.329117222033792e6 0.0
0.0 0.0 0.0

-1.2516914675849667e6 6.12559534903401e6 0.0
6.12559534903401e6 -254261.5146934954 0.0
0.0 0.0 0.0

-1.3200885517057506e6 6.888563954019634e6 0.0
6.888563954019634e6 -828398.0212546679 0.0
0.0 0.0 0.0

-550244.4734492432 4.374626639082323e6 0.0
4.374626639082323e6 -1.959736722111224e6 0.0
0.0 0.0 0.0

-114858.26423570351 4.535994342790023e6 0.0
4.535994342790023e6 -2.7648269618060663e6 0.0
0.0 0.0 0.0

-324118.08903082873 3.939436392631637e6 0.0
3.939436392631637e6 -2.331395772876759e6 0.0
0.0 0.0 0.0

-521027.0823647865 5.638703916806867e6 0.0
5.638703916806867e6 -2.536697221736622e6 0.0
0.0 0.0 0.0

-3.136882247933862e6 4.455947621998696e6 0.0
4.455947621998696e6 985315.3444518258 0.0
0.0 0.0 0.0

-3.6063479730703356e6 5.079584921418873e6 0.0
5.079584921418873e6 2.2882178521831427e6 0.0
0.0 0.0 0.0

-497866.20512861415 4.978167690827787e6 0.0
4.978167690827787e6 -1.3613201775943472e6 0.0
0.0 0.0 0.0

774021.3225373086 1.0605707616253989e7 0.0
1.0605707616253989e7 -2.0633469802346986e6 0.0
0.0 0.0 0.0

-3.237076175285593e6 -5170.337199177088 0.0
-5170.337199177088 5.671015042807071e6 0.0
0.0 0.0 0.0

-269874.9629020336 5.612358773149946e6 0.0
5.612358773149946e6 -2.7775716964094047e6 0.0
0.0 0.0 0.0

-145161.10510138737 3.947877464200225e6 0.0
3.947877464200225e6 -2.298094285036156e6 0.0
0.0 0.0 0.0

-7.034710409827241e6 -304606.9168251393 0.0
-304606.9168251393 1.353767778000418e7 0.0
0.0 0.0 0.0

1.7918550194925684e6 6.686907802485432e6 0.0
6.686907802485432e6 -1.9138830971127325e6 0.0
0.0 0.0 0.0

-3.526311615966096e6 611387.6191438679 0.0
611387.6191438679 6.444457853103263e6 0.0
0.0 0.0 0.0

128161.79615206056 2.511019596647368e6 0.0
2.511019596647368e6 -1.1740920908688395e6 0.0
0.0 0.0 0.0

-3.3967145914399764e6 4.434033227711789e6 0.0
4.434033227711789e6 960487.5955436497 0.0
0.0 0.0 0.0

-659378.8337841928 5.712151726939454e6 0.0
5.712151726939454e6 -1.9061337444830567e6 0.0
0.0 0.0 0.0

-3.717918011318535e6 4.817118446049485e6 0.0
4.817118446049485e6 841245.1783979279 0.0
0.0 0.0 0.0

-3.051290650282251e6 2.0192388051597804e6 0.0
2.0192388051597804e6 5.591411525414204e6 0.0
0.0 0.0 0.0

-854123.3656505418 2.2226398486499996e6 0.0
2.2226398486499996e6 13341.249524974439 0.0
0.0 0.0 0.0

-1.6613060841478177e6 9.683217189719848e6 0.0
9.683217189719848e6 288791.49722468085 0.0
0.0 0.0 0.0

-1.5767420795139014e6 5.615044560424708e6 0.0
5.615044560424708e6 372241.3175351962 0.0
0.0 0.0 0.0

-1.6511987782757063e6 8.724371497189248e6 0.0
8.724371497189248e6 -126496.16996326426 0.0
0.0 0.0 0.0

-2.2246448592539434e6 5.279826618425946e6 0.0
5.279826618425946e6 379521.5947368975 0.0
0.0 0.0 0.0

-487215.8808041583 5.038589140775868e6 0.0
5.038589140775868e6 -2.34626799219412e6 0.0
0.0 0.0 0.0

-814825.3267750975 8.078965345799446e6 0.0
8.078965345799446e6 -755030.8107081451 0.0
0.0 0.0 0.0

-2.8661247995658116e6 8.022562043341579e6 0.0
8.022562043341579e6 2.8514867222283515e6 0.0
0.0 0.0 0.0

-2.5071964744477617e6 -3.1078801946823183e6 0.0
-3.1078801946823183e6 1.392431902216676e6 0.0
0.0 0.0 0.0

-1.6531205446634993e6 918808.884161663 0.0
918808.884161663 212617.77641682106 0.0
0.0 0.0 0.0

190997.89587433744 5.52509253256329e6 0.0
5.52509253256329e6 636659.7804462685 0.0
0.0 0.0 0.0

137191.55065024988 5.125634617525153e6 0.0
5.125634617525153e6 457305.25378620217 0.0
0.0 0.0 0.0

-4.504940591147205e6 1.0495292187176352e7 0.0
1.0495292187176352e7 423293.5986424936 0.0
0.0 0.0 0.0

369771.3613710117 8.386422408279445e6 0.0
8.386422408279445e6 -3.0318497810901287e6 0.0
0.0 0.0 0.0

-4.230641018777857e6 4.538967305166199e6 0.0
4.538967305166199e6 1.1455405444770544e6 0.0
0.0 0.0 0.0

-6.353847223209074e6 -2.782194872434647e6 0.0
-2.782194872434647e6 4.739946339081982e6 0.0
0.0 0.0 0.0

-1.092503855123844e6 6.619608078234409e6 0.0
6.619608078234409e6 -973850.1070513746 0.0
0.0 0.0 0.0

-3.63872945080377e6 2.4219874508402594e6 0.0
2.4219874508402594e6 4.830072208656736e6 0.0
0.0 0.0 0.0

-602584.9286232616 5.723762992199173e6 0.0
5.723762992199173e6 -1.134391272169204e6 0.0
0.0 0.0 0.0

-1.9033980028691879e6 5.441793881338048e6 0.0
5.441793881338048e6 241698.73011142528 0.0
0.0 0.0 0.0

-2.4700459486011285e6 3.7810638532936894e6 0.0
3.7810638532936894e6 429865.37198685715 0.0
0.0 0.0 0.0

-739716.9569829096 6.087065447216637e6 0.0
6.087065447216637e6 -1.0210783752606208e6 0.0
0.0 0.0 0.0

-78571.43607497052 3.1530012556456155e6 0.0
3.1530012556456155e6 -3.29030306711129e6 0.0
0.0 0.0 0.0

-632118.7338608525 4.748355195430507e6 0.0
4.748355195430507e6 -2.107062478485734e6 0.0
0.0 0.0 0.0

-236896.5376006153 9.745076046468174e6 0.0
9.745076046468174e6 -1.1736406025048657e6 0.0
0.0 0.0 0.0

-685702.560868043 4.819975790347561e6 0.0
4.819975790347561e6 -1.411493588202353e6 0.0
0.0 0.0 0.0

-151834.44383438522 4.824710511408333e6 0.0
4.824710511408333e6 105560.01859174247 0.0
0.0 0.0 0.0

-216127.19488251617 5.302916719110784e6 0.0
5.302916719110784e6 -2.706228894710534e6 0.0
0.0 0.0 0.0

-1.9412265130375526e6 7.011260568710615e6 0.0
7.011260568710615e6 -579204.4488197048 0.0
0.0 0.0 0.0

-1.9568885595665197e6 5.50822102244601e6 0.0
5.50822102244601e6 3.0912410163023146e6 0.0
0.0 0.0 0.0

-1.4593517257237919e6 1.2914036483475482e7 0.0
1.2914036483475482e7 -1.8411483435498606e6 0.0
0.0 0.0 0.0

-189339.2369600964 4.609286560428126e6 0.0
4.609286560428126e6 -2.559437487933526e6 0.0
0.0 0.0 0.0

-4.951241400280751e6 -2.289709212372293e6 0.0
-2.289709212372293e6 4.634105583558002e6 0.0
0.0 0.0 0.0

-476530.6361709004 6.904745007045931e6 0.0
6.904745007045931e6 -454780.14425723907 0.0
0.0 0.0 0.0

-4.122059671960893e6 4.548731449693901e6 0.0
4.548731449693901e6 953121.1949121617 0.0
0.0 0.0 0.0

-1.7606439248498762e6 8.816932172847575e6 0.0
8.816932172847575e6 -804393.8735034075 0.0
0.0 0.0 0.0

-2.8283457325101276e6 5.036324206489275e6 0.0
5.036324206489275e6 682525.4654509604 0.0
0.0 0.0 0.0

-8.693433452769589e6 1.0632549586688927e6 0.0
1.0632549586688927e6 1.095499468219879e7 0.0
0.0 0.0 0.0

-1.11995366523004e6 6.505193170870441e6 0.0
6.505193170870441e6 -1.0124076902653195e6 0.0
0.0 0.0 0.0

-2.5738120336074824e6 9.519146595570052e6 0.0
9.519146595570052e6 10673.292348182295 0.0
0.0 0.0 0.0

-1.2488851326496657e6 2.320704548859758e6 0.0
2.320704548859758e6 -214330.9088405911 0.0
0.0 0.0 0.0

-6.537833270052666e6 -1.4256395208806235e6 0.0
-1.4256395208806235e6 3.0156045670112837e6 0.0
0.0 0.0 0.0

-1.710380605486168e6 2.613483501495786e6 0.0
2.613483501495786e6 -58436.86424189882 0.0
0.0 0.0 0.0

-722180.4034566958 2.2887620599656748e6 0.0
2.2887620599656748e6 377063.3011503949 0.0
0.0 0.0 0.0

-2.6574685732897935e6 2.865359987783872e6 0.0
2.865359987783872e6 5.4873536574470475e6 0.0
0.0 0.0 0.0

-3.50055189682469e6 4.60499570533619e6 0.0
4.60499570533619e6 931942.7298737569 0.0
0.0 0.0 0.0

-4.515772009068138e6 4.486698936536912e6 0.0
4.486698936536912e6 1.2357606390102296e6 0.0
0.0 0.0 0.0

-3.735124939498248e6 1.3621569366419115e6 0.0
1.3621569366419115e6 7.094675212798376e6 0.0
0.0 0.0 0.0

-1.0887369778745198e6 9.533149712555742e6 0.0
9.533149712555742e6 -1.767617829139449e6 0.0
0.0 0.0 0.0

-342650.0628937981 7.786734882968674e6 0.0
7.786734882968674e6 -1.6099588220852348e6 0.0
0.0 0.0 0.0

-680558.6046740954 4.7559599249944575e6 0.0
4.7559599249944575e6 -2.148178931229909e6 0.0
0.0 0.0 0.0

-880692.725857507 1.4076598492551493e6 0.0
1.4076598492551493e6 1.4491954325133765e6 0.0
0.0 0.0 0.0

-3.6305348551863064e6 4.589750335262477e6 0.0
4.589750335262477e6 972777.8290336644 0.0
0.0 0.0 0.0

-1.9793583338437416e6 3.7787359118012697e6 0.0
3.7787359118012697e6 2.168567632319269e6 0.0
0.0 0.0 0.0

-265632.9212870265 4.64265946152019e6 0.0
4.64265946152019e6 -2.610872965056838e6 0.0
0.0 0.0 0.0

-3.635517840822703e6 5.481357649965221e6 0.0
5.481357649965221e6 298872.7477065744 0.0
0.0 0.0 0.0

-1.7896820659004343e6 8.163209566114762e6 0.0
8.163209566114762e6 92169.57792062883 0.0
0.0 0.0 0.0

84954.61561450013 5.019242283694254e6 0.0
5.019242283694254e6 -3.3145178918906343e6 0.0
0.0 0.0 0.0

-931086.7205108955 6.485009301394641e6 0.0
6.485009301394641e6 -94209.68868731451 0.0
0.0 0.0 0.0

-2.546731691822629e6 3.5503565220130845e6 0.0
3.5503565220130845e6 713244.9910607405 0.0
0.0 0.0 0.0

-1.0593148461247853e6 6.58526757483089e6 0.0
6.58526757483089e6 -924669.7280962395 0.0
0.0 0.0 0.0

-3.8873970614282656e6 4.778446567072621e6 0.0
4.778446567072621e6 900591.4875763366 0.0
0.0 0.0 0.0

-2.4273975051132925e6 3.864648235838796e6 0.0
3.864648235838796e6 570152.6800225751 0.0
0.0 0.0 0.0

-3.579590050970167e6 4.626100013250548e6 0.0
4.626100013250548e6 953491.6496480994 0.0
0.0 0.0 0.0

-911692.0594849446 2.1544723856919995e6 0.0
2.1544723856919995e6 -475051.414378351 0.0
0.0 0.0 0.0

-114933.32795971943 7.326749447593735e6 0.0
7.326749447593735e6 -343743.7083417924 0.0
0.0 0.0 0.0

-756010.5797397195 4.679954466517854e6 0.0
4.679954466517854e6 -1.5909015907980292e6 0.0
0.0 0.0 0.0

-1.4818049567774145e6 2.5701101179489633e6 0.0
2.5701101179489633e6 -4954.082281848765 0.0
0.0 0.0 0.0

-1.0572999127732932e6 5.878190593753521e6 0.0
5.878190593753521e6 -1.1561119326736154e6 0.0
0.0 0.0 0.0

-1.52284455929301e6 6.207307223602021e6 0.0
6.207307223602021e6 -928630.2679274254 0.0
0.0 0.0 0.0

-1.120623913868255e6 4.59259478616114e6 0.0
4.59259478616114e6 2.4383460655063344e6 0.0
0.0 0.0 0.0

-29230.5657921939 947365.0357178728 0.0
947365.0357178728 554342.5301110354 0.0
0.0 0.0 0.0

-116072.05315647362 7.396510399688851e6 0.0
7.396510399688851e6 -261372.50606809618 0.0
0.0 0.0 0.0

-3.228851710381437e6 4.425778104426418e6 0.0
4.425778104426418e6 907278.5714683221 0.0
0.0 0.0 0.0

-522804.83077847416 4.616028049517683e6 0.0
4.616028049517683e6 -1.6814613668775395e6 0.0
0.0 0.0 0.0

-1.9487303554386634e6 8.858903512609791e6 0.0
8.858903512609791e6 418908.2741035621 0.0
0.0 0.0 0.0

-1.1508813089308934e6 6.685397477324739e6 0.0
6.685397477324739e6 -101644.1022903567 0.0
0.0 0.0 0.0

-548735.1945109674 5.628127150100704e6 0.0
5.628127150100704e6 -1.7706631003701268e6 0.0
0.0 0.0 0.0

-1.881797455487388e6 8.825684526384376e6 0.0
8.825684526384376e6 -283993.6967814974 0.0
0.0 0.0 0.0

-880577.9750140237 5.088226117929254e6 0.0
5.088226117929254e6 -1.4495388708770215e6 0.0
0.0 0.0 0.0

-3932.089534352941 2.8282297700748867e6 0.0
2.8282297700748867e6 -867438.4474847831 0.0
0.0 0.0 0.0

-3.3957558527358305e6 8.297802018761899e6 0.0
8.297802018761899e6 2.2586895040335055e6 0.0
0.0 0.0 0.0

-1.7250100491601026e6 5.5341018528270675e6 0.0
5.5341018528270675e6 264189.399730538 0.0
0.0 0.0 0.0

-3.3033892475537667e6 4.502223346488684e6 0.0
4.502223346488684e6 914155.4308071209 0.0
0.0 0.0 0.0

-785542.7384530366 6.428710406228314e6 0.0
6.428710406228314e6 -434924.6492612274 0.0
0.0 0.0 0.0

157196.47341636813 2.5470808172334936e6 0.0
2.5470808172334936e6 -851225.3531706806 0.0
0.0 0.0 0.0

-3.1692565039042225e6 1.1288906874593305e6 0.0
1.1288906874593305e6 3.83501976207488e6 0.0
0.0 0.0 0.0

-1.0625661019462228e6 6.252280044848324e6 0.0
6.252280044848324e6 -1.0703038358314903e6 0.0
0.0 0.0 0.0

-382775.806296205 5.669070310701763e6 0.0
5.669070310701763e6 -2.768227115264837e6 0.0
0.0 0.0 0.0

-451508.0294506452 2.7076244525477933e6 0.0
2.7076244525477933e6 -711228.518075903 0.0
0.0 0.0 0.0

-217647.04516059323 1.4505745429144418e6 0.0
1.4505745429144418e6 -644775.5669430689 0.0
0.0 0.0 0.0

-1.920243533375707e6 3.5012705448834426e6 0.0
3.5012705448834426e6 357223.7155225973 0.0
0.0 0.0 0.0

-2.143838314158954e6 7.3589450709148655e6 0.0
7.3589450709148655e6 311367.68147162884 0.0
0.0 0.0 0.0

-482809.84571752744 5.544757880059854e6 0.0
5.544757880059854e6 -2.493864733099208e6 0.0
0.0 0.0 0.0

-878190.6616944955 7.273158222472532e6 0.0
7.273158222472532e6 -231552.11129703972 0.0
0.0 0.0 0.0

-3.4435338022590354e6 4.381102393500445e6 0.0
4.381102393500445e6 1.0618960261373057e6 0.0
0.0 0.0 0.0

-1.5938161855466934e6 8.933736713369126e6 0.0
8.933736713369126e6 -114481.50943166274 0.0
0.0 0.0 0.0

-7.046111804730784e6 3.777371882662298e6 0.0
3.777371882662298e6 2.6418705139254527e6 0.0
0.0 0.0 0.0

-3.390920006583128e6 4.477017137314297e6 0.0
4.477017137314297e6 973257.5634042898 0.0
0.0 0.0 0.0

-9.88814384378055e6 4.875914479384816e6 0.0
4.875914479384816e6 7.945921066866668e6 0.0
0.0 0.0 0.0

-1.7591487871986276e6 6.445485501214373e6 0.0
6.445485501214373e6 -45788.73083956505 0.0
0.0 0.0 0.0

-415927.5311516892 5.612872170370697e6 0.0
5.612872170370697e6 -2.6824893346885396e6 0.0
0.0 0.0 0.0

-1.5891840926982304e6 2.4532217023016997e6 0.0
2.4532217023016997e6 -180392.16882241907 0.0
0.0 0.0 0.0

-875470.0110979687 36975.46761149999 0.0
36975.46761149999 1.023073714003985e6 0.0
0.0 0.0 0.0

-4.256439794619089e6 -672116.1552863165 0.0
-672116.1552863165 6.282067173210969e6 0.0
0.0 0.0 0.0

-202500.5924176278 3.4701188461404652e6 0.0
3.4701188461404652e6 -2.626505093692885e6 0.0
0.0 0.0 0.0

-2.2404752870803494e6 5.190484882298869e6 0.0
5.190484882298869e6 449498.6452773366 0.0
0.0 0.0 0.0

-4.909077538910726e6 2.3083307654849575e6 0.0
2.3083307654849575e6 9.625747205508396e6 0.0
0.0 0.0 0.0

-987394.0389358919 5.481292252469376e6 0.0
5.481292252469376e6 -1.278901919621265e6 0.0
0.0 0.0 0.0

-5.683533421198466e6 3.2083485457018525e6 0.0
3.2083485457018525e6 7.77257757409052e6 0.0
0.0 0.0 0.0

-2.212899426020652e6 8.023265662891355e6 0.0
8.023265662891355e6 -123621.43438908982 0.0
0.0 0.0 0.0

-3.8784853737219023e6 8.065838265510215e6 0.0
8.065838265510215e6 1.0239485116816801e6 0.0
0.0 0.0 0.0

-1.0943862463772618e6 6.721570756876779e6 0.0
6.721570756876779e6 143269.93349729676 0.0
0.0 0.0 0.0

-268400.60080190754 1.9217764333032737e6 0.0
1.9217764333032737e6 -137232.55432121523 0.0
0.0 0.0 0.0

-591894.9887062432 6.6469001157027185e6 0.0
6.6469001157027185e6 -449078.0229379728 0.0
0.0 0.0 0.0

-1.853006256062348e6 3.477504587551323e6 0.0
3.477504587551323e6 393812.83331440133 0.0
0.0 0.0 0.0

-329716.32409744343 3.7308272752288887e6 0.0
3.7308272752288887e6 -2.651338059146758e6 0.0
0.0 0.0 0.0

-743478.468609102 8.011323419594566e6 0.0
8.011323419594566e6 -839958.4816001522 0.0
0.0 0.0 0.0

-6.475610609492939e6 362691.0598739004 0.0
362691.0598739004 3.775732302604508e6 0.0
0.0 0.0 0.0

-4.1804441062189783e6 7.189482789361834e6 0.0
7.189482789361834e6 842082.8330699753 0.0
0.0 0.0 0.0

-3.6033875735151763e6 4.464578231312187e6 0.0
4.464578231312187e6 1.1284454594046366e6 0.0
0.0 0.0 0.0

-879397.3511793409 6.841218641748988e6 0.0
6.841218641748988e6 -1.7411442537539229e6 0.0
0.0 0.0 0.0

-2.0023614343360004e6 6.128417661332328e6 0.0
6.128417661332328e6 148425.65941359173 0.0
0.0 0.0 0.0

-4.077438640873165e6 6.4129916865749825e6 0.0
6.4129916865749825e6 1.517356612091229e6 0.0
0.0 0.0 0.0

-1.0952301425992588e6 6.403995588734461e6 0.0
6.403995588734461e6 105595.83778966265 0.0
0.0 0.0 0.0

-953575.2898460634 6.2926680669106925e6 0.0
6.2926680669106925e6 -324685.2568991065 0.0
0.0 0.0 0.0

-615308.6196239989 6.89982485253885e6 0.0
6.89982485253885e6 -1.8665005752855954e6 0.0
0.0 0.0 0.0

-4.626391101371727e6 4.617766577654681e6 0.0
4.617766577654681e6 1.6165461508805435e6 0.0
0.0 0.0 0.0

-487165.64561681077 1.6779363186366484e6 0.0
1.6779363186366484e6 168890.8171200563 0.0
0.0 0.0 0.0

-389413.880320561 4.898000793780931e6 0.0
4.898000793780931e6 -1.7428607598318534e6 0.0
0.0 0.0 0.0

-3.4970536080699475e6 5.530215328532967e6 0.0
5.530215328532967e6 1.1757257821204711e6 0.0
0.0 0.0 0.0

-556659.125208673 4.6754888795842845e6 0.0
4.6754888795842845e6 -1.5844893165431314e6 0.0
0.0 0.0 0.0

144320.8389227526 2.545790320972092e6 0.0
2.545790320972092e6 -789990.3010437639 0.0
0.0 0.0 0.0

-355023.92033295543 5.732915866485228e6 0.0
5.732915866485228e6 -2.3720083612560164e6 0.0
0.0 0.0 0.0

-5.243742715063478e6 4.525378517541961e6 0.0
4.525378517541961e6 4.27654703418729e6 0.0
0.0 0.0 0.0

-555068.1009585713 5.800988922579175e6 0.0
5.800988922579175e6 -1.7582268082571302e6 0.0
0.0 0.0 0.0

-387345.5329151604 4.557324663640925e6 0.0
4.557324663640925e6 1.207298187263793e6 0.0
0.0 0.0 0.0

-1.1408312907650948e6 2.1475414042754974e6 0.0
2.1475414042754974e6 -439240.79133982596 0.0
0.0 0.0 0.0

148268.82563581952 2.5587927649220116e6 0.0
2.5587927649220116e6 -892438.7866773296 0.0
0.0 0.0 0.0

-1.4309814622938167e6 1.0123662027290596e7 0.0
1.0123662027290596e7 110370.10757380066 0.0
0.0 0.0 0.0

-482958.69138371217 1.77069962126393e6 0.0
1.77069962126393e6 882642.6500904498 0.0
0.0 0.0 0.0

-1.4672587209630823e6 7.206554648959159e6 0.0
7.206554648959159e6 -874517.5597799276 0.0
0.0 0.0 0.0

-462807.8944369898 5.464164314309555e6 0.0
5.464164314309555e6 -1.294713712117453e6 0.0
0.0 0.0 0.0

-394352.58936208003 1.1115009174912442e7 0.0
1.1115009174912442e7 -1.6706491482548406e6 0.0
0.0 0.0 0.0

-1.0395766589901953e6 6.510093258128694e6 0.0
6.510093258128694e6 -1.1197105508355207e6 0.0
0.0 0.0 0.0

-247057.7286059832 7.706901373853713e6 0.0
7.706901373853713e6 713933.939463411 0.0
0.0 0.0 0.0

-2.6864669378517116e6 5.133685036679273e6 0.0
5.133685036679273e6 622799.5890189232 0.0
0.0 0.0 0.0

-287325.66250572144 594475.8935160958 0.0
594475.8935160958 469227.92717239395 0.0
0.0 0.0 0.0

-3.233017343950103e6 6.007942688055001e6 0.0
6.007942688055001e6 1.1084169878068212e6 0.0
0.0 0.0 0.0

-606470.263434231 6.70449415577253e6 0.0
6.70449415577253e6 -219800.89801004893 0.0
0.0 0.0 0.0

-966756.3174689186 6.461025007497265e6 0.0
6.461025007497265e6 -1.4448966093401704e6 0.0
0.0 0.0 0.0

44755.873852705816 3.1463068358036466e6 0.0
3.1463068358036466e6 -2.619971590193266e6 0.0
0.0 0.0 0.0

-2.4689396082128882e6 4.005044126250731e6 0.0
4.005044126250731e6 392484.1800328505 0.0
0.0 0.0 0.0

-1.1228119565792703e6 3.116526445828893e6 0.0
3.116526445828893e6 -258045.2845696705 0.0
0.0 0.0 0.0

-1.7007458243091232e6 3.0970174875228633e6 0.0
3.0970174875228633e6 3.0546502397992746e6 0.0
0.0 0.0 0.0

-418956.17330528406 4.4221929101463435e6 0.0
4.4221929101463435e6 -1.8856614783953025e6 0.0
0.0 0.0 0.0

-419852.8512834016 5.563595937379703e6 0.0
5.563595937379703e6 -2.6716333307809187e6 0.0
0.0 0.0 0.0

-3.324623927958306e6 6.266245075459056e6 0.0
6.266245075459056e6 1.1729672491391413e6 0.0
0.0 0.0 0.0

-831201.7462539759 6.37397163002112e6 0.0
6.37397163002112e6 -418077.84280446457 0.0
0.0 0.0 0.0

-8.357494343473192e6 -2.037172968534683e6 0.0
-2.037172968534683e6 4.139037709442351e6 0.0
0.0 0.0 0.0

-487959.3745339232 7.903916865916265e6 0.0
7.903916865916265e6 1.435037392575793e6 0.0
0.0 0.0 0.0

-5.586053751089311e6 5.065580796805e6 0.0
5.065580796805e6 -819978.772890305 0.0
0.0 0.0 0.0

-464015.6555954779 4.794033714293081e6 0.0
4.794033714293081e6 -2.1185042574223643e6 0.0
0.0 0.0 0.0

2.6296441546940343e6 2.403684274697432e6 0.0
2.403684274697432e6 282337.09056276816 0.0
0.0 0.0 0.0

-957947.8448818529 -1.2487524714121707e6 0.0
-1.2487524714121707e6 1.4489436313752155e6 0.0
0.0 0.0 0.0

-783706.646180663 2.9153994151922953e6 0.0
2.9153994151922953e6 -301413.4717701253 0.0
0.0 0.0 0.0

-320368.86848076654 1.5573195072047352e6 0.0
1.5573195072047352e6 504198.6580541454 0.0
0.0 0.0 0.0

-641252.5675920488 2.580622335458831e6 0.0
2.580622335458831e6 329365.12762222136 0.0
0.0 0.0 0.0

-864334.9675781559 5.854427796510646e6 0.0
5.854427796510646e6 -1.1250708950210572e6 0.0
0.0 0.0 0.0

-641461.546001973 4.762855700158872e6 0.0
4.762855700158872e6 -2.1382051605173163e6 0.0
0.0 0.0 0.0

-149370.98380183114 7.312302414880133e6 0.0
7.312302414880133e6 -497903.2904775184 0.0
0.0 0.0 0.0

-603830.4274723551 5.50821523318214e6 0.0
5.50821523318214e6 -1.3669929982005204e6 0.0
0.0 0.0 0.0

-3.4892780414648866e6 6.542805065586217e6 0.0
6.542805065586217e6 1.234618231420475e6 0.0
0.0 0.0 0.0

-460254.66521811817 2.4828781372597544e6 0.0
2.4828781372597544e6 -211559.4941818292 0.0
0.0 0.0 0.0

-1.2290292550604462e6 6.681691254219272e6 0.0
6.681691254219272e6 -988927.7878978758 0.0
0.0 0.0 0.0

-2.89463904143214e6 3.8765875857718517e6 0.0
3.8765875857718517e6 888709.1166678283 0.0
0.0 0.0 0.0

-286088.4126256702 3.83092297841848e6 0.0
3.83092297841848e6 -2.355977454486086e6 0.0
0.0 0.0 0.0

-499778.48835309345 2.342189019664633e6 0.0
2.342189019664633e6 851414.6183277725 0.0
0.0 0.0 0.0

-2.8292486910649864e6 6.379381248742345e6 0.0
6.379381248742345e6 835138.3419788696 0.0
0.0 0.0 0.0

-956531.696264938 6.309073214973208e6 0.0
6.309073214973208e6 -388455.5189118692 0.0
0.0 0.0 0.0

-1.1052176780447478e6 6.278970698032219e6 0.0
6.278970698032219e6 -336580.9668928402 0.0
0.0 0.0 0.0

-3.645850635343956e6 5.1366656077276245e6 0.0
5.1366656077276245e6 2.4533620984263723e6 0.0
0.0 0.0 0.0

-142283.10701644834 7.344543144529993e6 0.0
7.344543144529993e6 -385534.26696385775 0.0
0.0 0.0 0.0

-3.606626661697958e6 6.414349636725076e6 0.0
6.414349636725076e6 1.9311298464413958e6 0.0
0.0 0.0 0.0

-4.201986870842302e6 2.163578745856932e6 0.0
2.163578745856932e6 5.445830209109193e6 0.0
0.0 0.0 0.0

-314980.2334473164 241508.0518853673 0.0
241508.0518853673 266769.7939764729 0.0
0.0 0.0 0.0

-932223.1514717408 6.410095144321737e6 0.0
6.410095144321737e6 -1.3576282263910687e6 0.0
0.0 0.0 0.0

-164069.2192353569 3.309783059235114e6 0.0
3.309783059235114e6 -2.832728251663823e6 0.0
0.0 0.0 0.0

-1.1469847693513173e6 6.81333315758026e6 0.0
6.81333315758026e6 -816051.4636426879 0.0
0.0 0.0 0.0

71139.07462575258 6.002608380864093e6 0.0
6.002608380864093e6 -1.004746346281205e6 0.0
0.0 0.0 0.0

-180942.67230747044 6.674499721743769e6 0.0
6.674499721743769e6 -1.2179168299009243e6 0.0
0.0 0.0 0.0

-421144.16601244267 5.597802875049061e6 0.0
5.597802875049061e6 -2.347834779902969e6 0.0
0.0 0.0 0.0

-413241.4042534885 5.65152149564758e6 0.0
5.65152149564758e6 -2.6779977983592204e6 0.0
0.0 0.0 0.0

-1.8586157899434904e6 3.1830720991733717e6 0.0
3.1830720991733717e6 262179.5358884983 0.0
0.0 0.0 0.0

-2.1439324723353004e6 5.303088531162419e6 0.0
5.303088531162419e6 464413.62961474655 0.0
0.0 0.0 0.0

-4.237496279528389e6 6.445988927585451e6 0.0
6.445988927585451e6 2.250299157844888e6 0.0
0.0 0.0 0.0

-1.990166373606076e6 -136926.7679693311 0.0
-136926.7679693311 4.479613683613505e6 0.0
0.0 0.0 0.0

-367071.23406008596 5.535424989384109e6 0.0
5.535424989384109e6 -2.641419865747181e6 0.0
0.0 0.0 0.0

-4.762409352824355e6 1.8692802230926561e6 0.0
1.8692802230926561e6 6.230710245015084e6 0.0
0.0 0.0 0.0

-1.265364002524034e6 6.255398073562815e6 0.0
6.255398073562815e6 -226524.58777283574 0.0
0.0 0.0 0.0

-3.683311958700757e6 6.386186129386495e6 0.0
6.386186129386495e6 989650.684829742 0.0
0.0 0.0 0.0

-3.1461780539919194e6 5.16830823787817e6 0.0
5.16830823787817e6 516574.75685714 0.0
0.0 0.0 0.0

-1.911683906536615e6 3.069129668754208e6 0.0
3.069129668754208e6 2.6802707436335487e6 0.0
0.0 0.0 0.0

-487497.4891689157 4.780997708663317e6 0.0
4.780997708663317e6 -2.1378639816176156e6 0.0
0.0 0.0 0.0

-177052.78318173892 7.207376209082509e6 0.0
7.207376209082509e6 -459787.23942680826 0.0
0.0 0.0 0.0

-248763.94894013053 3.6586061390925106e6 0.0
3.6586061390925106e6 -2.4549860164773366e6 0.0
0.0 0.0 0.0

122920.9285062349 6.559405364880333e6 0.0
6.559405364880333e6 -2.9409320250595086e6 0.0
0.0 0.0 0.0

-2.599952603310715e6 1.6451167584207787e6 0.0
1.6451167584207787e6 4.495214539003428e6 0.0
0.0 0.0 0.0

-1.6882795590184217e6 5.686140157347481e6 0.0
5.686140157347481e6 138876.05275774864 0.0
0.0 0.0 0.0

-5.137861029270886e6 6.083380477265789e6 0.0
6.083380477265789e6 -311482.2808068821 0.0
0.0 0.0 0.0

-633638.1682905632 4.511123376114532e6 0.0
4.511123376114532e6 -1.9145974765446745e6 0.0
0.0 0.0 0.0

-344357.96672542836 3.9609751701913266e6 0.0
3.9609751701913266e6 -2.295512278301727e6 0.0
0.0 0.0 0.0

-317012.14868660236 5.342300618539007e6 0.0
5.342300618539007e6 -2.611846473599045e6 0.0
0.0 0.0 0.0

56023.092636760615 4.602647479790521e6 0.0
4.602647479790521e6 -1.1809379688703208e6 0.0
0.0 0.0 0.0

-1.8010446331073896e6 8.548603151856534e6 0.0
8.548603151856534e6 -609927.2907573266 0.0
0.0 0.0 0.0

-1.0519488156380064e6 7.588841880172692e6 0.0
7.588841880172692e6 -653410.9705175301 0.0
0.0 0.0 0.0

-5.369365814253382e6 3.929387836763244e6 0.0
3.929387836763244e6 1.4162925464764535e6 0.0
0.0 0.0 0.0

751632.3388224128 2.349393602072323e6 0.0
2.349393602072323e6 -803510.4066605452 0.0
0.0 0.0 0.0

-655205.6328547248 5.074737683959467e6 0.0
5.074737683959467e6 -1.4135932014555458e6 0.0
0.0 0.0 0.0

-1.8634866995527197e6 4.1393063690442755e6 0.0
4.1393063690442755e6 2.622027881368179e6 0.0
0.0 0.0 0.0

-441481.9538809592 1.5112210843341134e6 0.0
1.5112210843341134e6 510036.8652971182 0.0
0.0 0.0 0.0

-410540.51601127203 4.1012221146675064e6 0.0
4.1012221146675064e6 -2.421716451125811e6 0.0
0.0 0.0 0.0

-719676.6781603235 2.091940680015858e6 0.0
2.091940680015858e6 527354.3026410446 0.0
0.0 0.0 0.0

-656788.0264066274 2.9410895611577965e6 0.0
2.9410895611577965e6 719474.5176127399 0.0
0.0 0.0 0.0

-339576.93367898243 2.7980407429326354e6 0.0
2.7980407429326354e6 -550308.9597489261 0.0
0.0 0.0 0.0

-1.7833194012685646e6 5.429666962967664e6 0.0
5.429666962967664e6 464333.06608886423 0.0
0.0 0.0 0.0

-1.1992754474459833e6 2.283359097545562e6 0.0
2.283359097545562e6 -287603.4199486234 0.0
0.0 0.0 0.0

4.228299746423315e6 4.62215549634158e6 0.0
4.62215549634158e6 268062.7856591265 0.0
0.0 0.0 0.0

-2.9512286421287227e6 -2.64489613418053e6 0.0
-2.64489613418053e6 2.8762557993911067e6 0.0
0.0 0.0 0.0

734019.3080833477 8.357162691689616e6 0.0
8.357162691689616e6 -1.286357754774549e6 0.0
0.0 0.0 0.0

-216770.813184949 3.9083224436192303e6 0.0
3.9083224436192303e6 -2.2143284308374985e6 0.0
0.0 0.0 0.0

-200637.89329228346 3.7641916349090305e6 0.0
3.7641916349090305e6 -2.2554674559141984e6 0.0
0.0 0.0 0.0

1.761095798099625e6 198444.2011744477 0.0
198444.2011744477 -486370.5943093224 0.0
0.0 0.0 0.0

-475493.1812619637 -263090.45274529984 0.0
-263090.45274529984 655959.4961617503 0.0
0.0 0.0 0.0

-365989.032857756 5.5364531384358e6 0.0
5.5364531384358e6 -2.4380711325334283e6 0.0
0.0 0.0 0.0

-294028.179891267 3.4566090087412996e6 0.0
3.4566090087412996e6 -2.63327879999829e6 0.0
0.0 0.0 0.0

-6.247762123725909e6 7.881819261468216e6 0.0
7.881819261468216e6 2.7180643803385394e6 0.0
0.0 0.0 0.0

-2.3436967467524456e6 4.08557659490406e6 0.0
4.08557659490406e6 1.1110834556848856e6 0.0
0.0 0.0 0.0

-2.5023476260248655e6 6.798871322699956e6 0.0
6.798871322699956e6 554269.02502049 0.0
0.0 0.0 0.0

-121372.87453349073 7.338749536303145e6 0.0
7.338749536303145e6 -360162.8961516333 0.0
0.0 0.0 0.0

660721.8440965383 3.292195862522081e6 0.0
3.292195862522081e6 2.3930292791507146e6 0.0
0.0 0.0 0.0

-5.675748724360357e6 4.815599019327975e6 0.0
4.815599019327975e6 3.4847696918197977e6 0.0
0.0 0.0 0.0

-839366.7519943265 791949.5037540701 0.0
791949.5037540701 2.0639112449665251e6 0.0
0.0 0.0 0.0

-1.9362172653793124e6 5.405070353955327e6 0.0
5.405070353955327e6 367236.0533207413 0.0
0.0 0.0 0.0

-985032.7832853795 7.7248914418709595e6 0.0
7.7248914418709595e6 -718039.9496452602 0.0
0.0 0.0 0.0

-2.0009675770329358e6 4.31774462545302e6 0.0
4.31774462545302e6 2.4980388159091086e6 0.0
0.0 0.0 0.0

20137.752546520845 1.049194547361289e6 0.0
1.049194547361289e6 -318554.9648141833 0.0
0.0 0.0 0.0

-3.447282506194261e6 5.920469480703299e6 0.0
5.920469480703299e6 970434.2279118961 0.0
0.0 0.0 0.0

-392242.3645225842 4.478248964636138e6 0.0
4.478248964636138e6 -2.186903900263246e6 0.0
0.0 0.0 0.0

-1.517382127333028e6 9.163202917462813e6 0.0
9.163202917462813e6 -130844.95119118987 0.0
0.0 0.0 0.0

-150490.10270230228 3.6093695494871857e6 0.0
3.6093695494871857e6 -2.3768476790559036e6 0.0
0.0 0.0 0.0

-4840.692728219728 5.1735025252229925e6 0.0
5.1735025252229925e6 1.3713417531545393e6 0.0
0.0 0.0 0.0

-1.3547856680340858e6 8.092007962734846e6 0.0
8.092007962734846e6 -624673.0305486786 0.0
0.0 0.0 0.0

26015.764305075223 2.701577560945669e6 0.0
2.701577560945669e6 -776890.6515988316 0.0
0.0 0.0 0.0

-473412.331587319 5.3901471989193605e6 0.0
5.3901471989193605e6 -2.1514473421441442e6 0.0
0.0 0.0 0.0

-140401.82255634782 3.2876127143830745e6 0.0
3.2876127143830745e6 -2.375141042230787e6 0.0
0.0 0.0 0.0

-833219.7005731503 1.0907214693074979e7 0.0
1.0907214693074979e7 -1.253980295739691e6 0.0
0.0 0.0 0.0

658935.2574672233 1.0382222087980738e7 0.0
1.0382222087980738e7 -1.8222057502903002e6 0.0
0.0 0.0 0.0

-714762.9268707039 2.1867261134663373e6 0.0
2.1867261134663373e6 -163466.95685394446 0.0
0.0 0.0 0.0

-3.192431321854515e6 4.323065780266521e6 0.0
4.323065780266521e6 924567.4590359221 0.0
0.0 0.0 0.0

-290701.147088926 5.01814101583908e6 0.0
5.01814101583908e6 -2.5271383719636635e6 0.0
0.0 0.0 0.0

-653235.9033921831 4.750584473574211e6 0.0
4.750584473574211e6 -2.177453020167567e6 0.0
0.0 0.0 0.0

-128669.62269754906 7.299440472059675e6 0.0
7.299440472059675e6 -428898.75073423557 0.0
0.0 0.0 0.0

-1.3935034341033471e6 2.4629723076942777e6 0.0
2.4629723076942777e6 -103340.42541380587 0.0
0.0 0.0 0.0

-1.678144862084101e6 3.2035683043679744e6 0.0
3.2035683043679744e6 84037.88858045626 0.0
0.0 0.0 0.0

-320360.31194286374 6.9835417190247085e6 0.0
6.9835417190247085e6 -323931.2467211769 0.0
0.0 0.0 0.0

163470.41778406544 1.374636270799436e6 0.0
1.374636270799436e6 -522505.63280718995 0.0
0.0 0.0 0.0

-261291.8313578014 5.7407550089934645e6 0.0
5.7407550089934645e6 -1.2343665962845632e6 0.0
0.0 0.0 0.0

-2.427939461823662e6 4.538103519603224e6 0.0
4.538103519603224e6 961721.0124403699 0.0
0.0 0.0 0.0

948065.0381764544 7.1376387578461375e6 0.0
7.1376387578461375e6 -3.2113101006823406e6 0.0
0.0 0.0 0.0

-841150.0451723663 1.752274720699895e6 0.0
1.752274720699895e6 75608.17644064425 0.0
0.0 0.0 0.0

-2.8512860838900018e6 6.679102823764564e6 0.0
6.679102823764564e6 1.2068352025579172e6 0.0
0.0 0.0 0.0

-2.210369492582896e6 4.0344264387231907e6 0.0
4.0344264387231907e6 1.8079443204584485e6 0.0
0.0 0.0 0.0

-529827.1551606631 6.605516175264963e6 0.0
6.605516175264963e6 -340984.3682581978 0.0
0.0 0.0 0.0

-938435.5283578124 2.459051488020706e6 0.0
2.459051488020706e6 513965.7046233162 0.0
0.0 0.0 0.0

-1.2085489307330532e6 7.543772449231356e6 0.0
7.543772449231356e6 -700158.3453925274 0.0
0.0 0.0 0.0

-2.6337685848525316e6 5.0797509154460905e6 0.0
5.0797509154460905e6 644362.9994712729 0.0
0.0 0.0 0.0

-1.3488386617738905e6 1.7525465972862265e6 0.0
1.7525465972862265e6 2.6638031153108007e6 0.0
0.0 0.0 0.0

-1.1030744549750923e6 3.096877072659533e6 0.0
3.096877072659533e6 -219668.80260817643 0.0
0.0 0.0 0.0

-531949.8217122813 777443.5472455893 0.0
777443.5472455893 120963.4279331668 0.0
0.0 0.0 0.0

-1.145973544835743e6 6.519769253939121e6 0.0
6.519769253939121e6 -1.1356516026882865e6 0.0
0.0 0.0 0.0

-2.0501002304855105e6 5.293751033712482e6 0.0
5.293751033712482e6 486523.24883191683 0.0
0.0 0.0 0.0

-1.4680823566436854e6 6.304719266050231e6 0.0
6.304719266050231e6 -69995.69815425633 0.0
0.0 0.0 0.0

-1.3219753290450776e6 6.344060376610803e6 0.0
6.344060376610803e6 -701499.0876865787 0.0
0.0 0.0 0.0

-85264.05297372845 849871.5181781531 0.0
849871.5181781531 380076.3472580022 0.0
0.0 0.0 0.0

-5.042263603916539e6 3.4982629463176136e6 0.0
3.4982629463176136e6 6.749242075611059e6 0.0
0.0 0.0 0.0

-3.3654482731416756e6 1.6957686227842513e6 0.0
1.6957686227842513e6 6.259586127329275e6 0.0
0.0 0.0 0.0

-1.1548109305470474e6 5.20009495014341e6 0.0
5.20009495014341e6 158229.4290595163 0.0
0.0 0.0 0.0

-1.0534973306245077e6 2.2586527380348714e6 0.0
2.2586527380348714e6 243451.372763403 0.0
0.0 0.0 0.0

-1.5895835076689268e6 3.2066605628394587e6 0.0
3.2066605628394587e6 56148.0890837583 0.0
0.0 0.0 0.0

-1.5606203509218462e6 4.496669296904924e6 0.0
4.496669296904924e6 -310480.67154097406 0.0
0.0 0.0 0.0

-1.5982441195151499e6 7.130959167645105e6 0.0
7.130959167645105e6 -993749.3405125453 0.0
0.0 0.0 0.0

-1.7610253014960284e6 5.4386492590828985e6 0.0
5.4386492590828985e6 537115.5056707378 0.0
0.0 0.0 0.0

-3.753339424929897e6 4.631547472588297e6 0.0
4.631547472588297e6 970902.2861732461 0.0
0.0 0.0 0.0

-2.0265913316759204e6 1.9278231081722244e6 0.0
1.9278231081722244e6 2.528501373757823e6 0.0
0.0 0.0 0.0

-412551.21816825116 7.336004642220183e6 0.0
7.336004642220183e6 -87137.90096752308 0.0
0.0 0.0 0.0

-602652.8962784559 5.572615372358563e6 0.0
5.572615372358563e6 -1.1388175659367281e6 0.0
0.0 0.0 0.0

-581283.4154851657 5.906825611802615e6 0.0
5.906825611802615e6 -1.6746327553325214e6 0.0
0.0 0.0 0.0

-157377.00878193078 2.379557560390989e6 0.0
2.379557560390989e6 -2.987679495521353e6 0.0
0.0 0.0 0.0

-19123.082299687696 1.10831289337899e6 0.0
1.10831289337899e6 215864.592746881 0.0
0.0 0.0 0.0

-2.0134535827109888e6 5.332167660754023e6 0.0
5.332167660754023e6 451767.94767461775 0.0
0.0 0.0 0.0

-5.314843527826304e6 1.9400515291206227e6 0.0
1.9400515291206227e6 7.774307902016051e6 0.0
0.0 0.0 0.0

-9.626533530300733e6 4.154687496035531e6 0.0
4.154687496035531e6 1.3535679637490138e7 0.0
0.0 0.0 0.0

-925279.3588000059 9.235917055169215e6 0.0
9.235917055169215e6 -1.3523775254683315e6 0.0
0.0 0.0 0.0

-110622.21505967587 7.3337255712505765e6 0.0
7.3337255712505765e6 -368740.70899341116 0.0
0.0 0.0 0.0

-167373.7443797515 1.0442303051558137e6 0.0
1.0442303051558137e6 -266979.49003063026 0.0
0.0 0.0 0.0

-3.1910801177471885e6 -1.4549157313422172e6 0.0
-1.4549157313422172e6 1.3067271566409026e6 0.0
0.0 0.0 0.0

-563394.844741282 5.1336304567034915e6 0.0
5.1336304567034915e6 -2.044432771769929e6 0.0
0.0 0.0 0.0

-548284.4609210168 1.7732542300912912e6 0.0
1.7732542300912912e6 -323597.550533531 0.0
0.0 0.0 0.0

-425834.76263039943 4.256774770282727e6 0.0
4.256774770282727e6 -2.208532743902636e6 0.0
0.0 0.0 0.0

-1.987023626741693e6 3.125684413853505e6 0.0
3.125684413853505e6 4.204839548589961e6 0.0
0.0 0.0 0.0

44196.20469344099 3.6184359485170064e6 0.0
3.6184359485170064e6 -1.5593353901884328e6 0.0
0.0 0.0 0.0

-1.2739869674110613e6 1.0644577982647877e7 0.0
1.0644577982647877e7 -842560.0028227171 0.0
0.0 0.0 0.0

-1.2703187006244692e6 2.4548476360281655e6 0.0
2.4548476360281655e6 -210554.66643589048 0.0
0.0 0.0 0.0

-295349.2871174508 2.0293680677533722e6 0.0
2.0293680677533722e6 -1.4179236909791091e6 0.0
0.0 0.0 0.0

4.96978946609124e6 5.307400543970772e6 0.0
5.307400543970772e6 83058.41313715931 0.0
0.0 0.0 0.0

-2.5415282193813613e6 3.694117544605509e6 0.0
3.694117544605509e6 3.5560081517370883e6 0.0
0.0 0.0 0.0

-570829.4026155465 2.2630274787872187e6 0.0
2.2630274787872187e6 -1.7041410122226547e6 0.0
0.0 0.0 0.0

-538474.836782373 1.734553323713968e6 0.0
1.734553323713968e6 142262.6011765925 0.0
0.0 0.0 0.0

115010.55418245145 3.8697733582801204e6 0.0
3.8697733582801204e6 -795195.7280843994 0.0
0.0 0.0 0.0

-2.2665608509410126e6 6.638235471081352e6 0.0
6.638235471081352e6 618118.6464303628 0.0
0.0 0.0 0.0

-2.270611474391982e6 4.261055079870847e6 0.0
4.261055079870847e6 1.4244324340089716e6 0.0
0.0 0.0 0.0

-689312.0706364567 2.296824790432188e6 0.0
2.296824790432188e6 -21793.402523105033 0.0
0.0 0.0 0.0

-541406.9923541938 4.989358183320183e6 0.0
4.989358183320183e6 -2.10038910284818e6 0.0
0.0 0.0 0.0

-496250.25297307863 5.531964481061166e6 0.0
5.531964481061166e6 -2.392011583011646e6 0.0
0.0 0.0 0.0

-312161.77983305795 2.666438918674953e6 0.0
2.666438918674953e6 -650760.8818567838 0.0
0.0 0.0 0.0

-316247.5033667611 3.2796484350455375e6 0.0
3.2796484350455375e6 -1.717099905046051e6 0.0
0.0 0.0 0.0

-1.7143344100534942e6 8.41311589880441e6 0.0
8.41311589880441e6 -897155.5375248832 0.0
0.0 0.0 0.0

1.7377039547597093e6 8.088014616320485e6 0.0
8.088014616320485e6 -3.587369117146397e6 0.0
0.0 0.0 0.0

88372.74267203943 3.439088363985504e6 0.0
3.439088363985504e6 -2.6532041930454415e6 0.0
0.0 0.0 0.0

-915796.7995638194 -501307.29073721723 0.0
-501307.29073721723 266425.6682971093 0.0
0.0 0.0 0.0

-2.0606545988810482e6 4.073690154648612e6 0.0
4.073690154648612e6 1.7959335156350373e6 0.0
0.0 0.0 0.0

-754584.2548157353 1.8993151779077954e6 0.0
1.8993151779077954e6 -563815.0465748566 0.0
0.0 0.0 0.0

-778960.7402986859 2.251626144362843e6 0.0
2.251626144362843e6 247318.76972794166 0.0
0.0 0.0 0.0

120513.99885910586 4.490503598085565e6 0.0
4.490503598085565e6 -2.991369750906392e6 0.0
0.0 0.0 0.0

80994.08436585472 7.55897217873374e6 0.0
7.55897217873374e6 269980.6334048106 0.0
0.0 0.0 0.0

-1.1261625192322084e6 4.418178224345561e6 0.0
4.418178224345561e6 1.7484699268321416e6 0.0
0.0 0.0 0.0

-388378.733154552 5.633955315864952e6 0.0
5.633955315864952e6 -2.3977508439014885e6 0.0
0.0 0.0 0.0

-946860.8066252455 5.824690890354435e6 0.0
5.824690890354435e6 -1.54097929066996e6 0.0
0.0 0.0 0.0

-2.2778164912235346e6 4.577616367219233e6 0.0
4.577616367219233e6 1.2917777718658415e6 0.0
0.0 0.0 0.0

-229200.41607178072 8.515697207015842e6 0.0
8.515697207015842e6 -1.4098731449473414e6 0.0
0.0 0.0 0.0

-549720.991000334 5.291829761152049e6 0.0
5.291829761152049e6 -1.9943180223920038e6 0.0
0.0 0.0 0.0

-3.8896303864756753e6 6.628274961855694e6 0.0
6.628274961855694e6 1.107692753193696e6 0.0
0.0 0.0 0.0

-211909.43105099135 5.243561674724616e6 0.0
5.243561674724616e6 -1.7473003169530297e6 0.0
0.0 0.0 0.0

-5.870945799592284e6 -5.177169620180621e6 0.0
-5.177169620180621e6 4.401592232451262e6 0.0
0.0 0.0 0.0

7.102291972753528e6 6.5672478489788445e6 0.0
6.5672478489788445e6 -580229.5342316306 0.0
0.0 0.0 0.0

-200271.01116068632 5.154875878606541e6 0.0
5.154875878606541e6 -414754.765242978 0.0
0.0 0.0 0.0

-7.088387252446368e6 -5.425559060612558e6 0.0
-5.425559060612558e6 6.397231537821993e6 0.0
0.0 0.0 0.0

-392574.72544658807 6.726329025348567e6 0.0
6.726329025348567e6 -361819.2962812192 0.0
0.0 0.0 0.0

-1.6869041630711444e6 9.283720231078656e6 0.0
9.283720231078656e6 -400109.8161223881 0.0
0.0 0.0 0.0

170567.01805239468 5.6146089108483335e6 0.0
5.6146089108483335e6 568557.1192592982 0.0
0.0 0.0 0.0

-554002.5266706347 2.244447576368833e6 0.0
2.244447576368833e6 -232105.02507679063 0.0
0.0 0.0 0.0

-2.293069704804809e6 3.90555009116382e6 0.0
3.90555009116382e6 891645.4184245828 0.0
0.0 0.0 0.0

-1.843833743308828e7 5.0760667499927115e6 0.0
5.0760667499927115e6 8.093464260841866e6 0.0
0.0 0.0 0.0

-462072.6036721485 4.343557612347557e6 0.0
4.343557612347557e6 -2.358394729606678e6 0.0
0.0 0.0 0.0

-1.7259171093157378e6 6.441070218992054e6 0.0
6.441070218992054e6 172818.89412203315 0.0
0.0 0.0 0.0

-783849.1847993835 7.590048976139043e6 0.0
7.590048976139043e6 276930.8675340888 0.0
0.0 0.0 0.0

-640354.2633064797 4.788070493608272e6 0.0
4.788070493608272e6 -2.134514285150547e6 0.0
0.0 0.0 0.0

-102622.67965922832 7.327709721334634e6 0.0
7.327709721334634e6 -342075.62416387984 0.0
0.0 0.0 0.0

-243175.99248450005 4.722372817779271e6 0.0
4.722372817779271e6 -2.460484446113838e6 0.0
0.0 0.0 0.0

-226629.94340303435 1.3681390009254087e6 0.0
1.3681390009254087e6 126363.1169926961 0.0
0.0 0.0 0.0

-3.555896293912358e6 5.110684133836397e6 0.0
5.110684133836397e6 408931.6313808912 0.0
0.0 0.0 0.0

-989800.1524118539 7.900710084993596e6 0.0
7.900710084993596e6 -1.2390622890882276e6 0.0
0.0 0.0 0.0

-2.22176779781817e6 3.80412594285907e6 0.0
3.80412594285907e6 3.010081184061938e6 0.0
0.0 0.0 0.0

-274577.3991938811 2.373643261251582e6 0.0
2.373643261251582e6 -486544.67378919024 0.0
0.0 0.0 0.0

-3.5005862371717775e6 4.740140025637375e6 0.0
4.740140025637375e6 904400.0509070905 0.0
0.0 0.0 0.0

-5.192600793738374e6 3.976797655910843e6 0.0
3.976797655910843e6 1.2392675534290096e6 0.0
0.0 0.0 0.0

-286622.3031476612 -763426.5094656782 0.0
-763426.5094656782 685859.6248010767 0.0
0.0 0.0 0.0

-554181.4361523372 5.426640392777767e6 0.0
5.426640392777767e6 -2.210623772126945e6 0.0
0.0 0.0 0.0

-1.658937491652812e6 9.060685300821336e6 0.0
9.060685300821336e6 -284745.4616076078 0.0
0.0 0.0 0.0

226415.73716756108 2.5600362035437776e6 0.0
2.5600362035437776e6 -1.0628957183674336e6 0.0
0.0 0.0 0.0

-1.6076031523139656e6 1.0396141148143493e7 0.0
1.0396141148143493e7 -589667.7039540415 0.0
0.0 0.0 0.0

-551939.6376166712 2.1795121708150636e6 0.0
2.1795121708150636e6 -321955.4781888459 0.0
0.0 0.0 0.0

-423085.73081492283 4.0329472204931476e6 0.0
4.0329472204931476e6 -2.5350274730584673e6 0.0
0.0 0.0 0.0

-537902.5314355126 4.778103830165806e6 0.0
4.778103830165806e6 -2.2764890254852045e6 0.0
0.0 0.0 0.0

-809844.2592574148 8.945331133611536e6 0.0
8.945331133611536e6 -1.407119770692571e6 0.0
0.0 0.0 0.0

-1.2276314216642776e6 7.436706584892113e6 0.0
7.436706584892113e6 -595065.9007295326 0.0
0.0 0.0 0.0

101668.48059615016 4.736813040584403e6 0.0
4.736813040584403e6 -3.0982269496568856e6 0.0
0.0 0.0 0.0

-3.3617533247180055e6 4.799101431434691e6 0.0
4.799101431434691e6 2.450954583293965e6 0.0
0.0 0.0 0.0

-976744.3080200369 5.991952938638568e6 0.0
5.991952938638568e6 -1.459315643942603e6 0.0
0.0 0.0 0.0

-2.0881515356491003e6 3.429823573553677e6 0.0
3.429823573553677e6 1.6360399523741654e6 0.0
0.0 0.0 0.0

-3.778510224546707e6 5.396585595037765e6 0.0
5.396585595037765e6 2.322096423583168e6 0.0
0.0 0.0 0.0

-464421.5574820221 5.225905454162647e6 0.0
5.225905454162647e6 -1.89111092568997e6 0.0
0.0 0.0 0.0

-7.672297840366555e6 -1.7437202893194386e6 0.0
-1.7437202893194386e6 6.170102429884034e6 0.0
0.0 0.0 0.0

-368407.7293473497 3.502974402858459e6 0.0
3.502974402858459e6 -2.776995624000648e6 0.0
0.0 0.0 0.0

-367274.5730892655 4.674292599057555e6 0.0
4.674292599057555e6 -1.9176003044002738e6 0.0
0.0 0.0 0.0

-1.2668763992496703e6 7.095007635332852e6 0.0
7.095007635332852e6 -608642.3263310725 0.0
0.0 0.0 0.0

-2.346529758872911e6 -840382.3940829852 0.0
-840382.3940829852 841577.4181351362 0.0
0.0 0.0 0.0

-827823.1404591344 5.648665187505329e6 0.0
5.648665187505329e6 -2.5049066839280147e6 0.0
0.0 0.0 0.0

-6.738555271085355e6 1.670621512293527e6 0.0
1.670621512293527e6 8.873721597918231e6 0.0
0.0 0.0 0.0

-3.297647576220922e6 4.643150563478573e6 0.0
4.643150563478573e6 900779.830510942 0.0
0.0 0.0 0.0

-3.596732355851611e6 4.80097179046237e6 0.0
4.80097179046237e6 885726.5385495594 0.0
0.0 0.0 0.0

-762284.9066341537 2.2701776394931558e6 0.0
2.2701776394931558e6 -251359.45533078635 0.0
0.0 0.0 0.0

-5.976283123697168e6 1.968211799342916e6 0.0
1.968211799342916e6 1.2337553963399032e7 0.0
0.0 0.0 0.0

-3.5338460087845214e6 4.475409232773848e6 0.0
4.475409232773848e6 1.0413967794872476e6 0.0
0.0 0.0 0.0

-1.7004620454845193e6 6.1627415483595375e6 0.0
6.1627415483595375e6 45159.23088645912 0.0
0.0 0.0 0.0

-453039.70160260086 5.371983088071532e6 0.0
5.371983088071532e6 -1.2870300633493094e6 0.0
0.0 0.0 0.0

2.0329754068446856e6 5.790272634286683e6 0.0
5.790272634286683e6 1.1156129899277743e6 0.0
0.0 0.0 0.0

-596081.976362382 2.3640818164402666e6 0.0
2.3640818164402666e6 -109789.69149361018 0.0
0.0 0.0 0.0

-175086.12006505707 3.709146442835216e6 0.0
3.709146442835216e6 -2.0655473634408545e6 0.0
0.0 0.0 0.0

-1.7792727722273332e6 8.474745293563245e6 0.0
8.474745293563245e6 -798270.4302506633 0.0
0.0 0.0 0.0

-1.6364496864754958e6 2.727719893990084e6 0.0
2.727719893990084e6 159777.71712340368 0.0
0.0 0.0 0.0

-5.20049934213049e6 372284.23492869 0.0
372284.23492869 2.9771329573628176e6 0.0
0.0 0.0 0.0

-345575.0317282162 1.8010890683039404e6 0.0
1.8010890683039404e6 978640.237772223 0.0
0.0 0.0 0.0

-2.4211851289234836e7 9.245398872513583e6 0.0
9.245398872513583e6 5.023708877864072e6 0.0
0.0 0.0 0.0

-627703.0709957951 4.762561616547741e6 0.0
4.762561616547741e6 -2.092343641471707e6 0.0
0.0 0.0 0.0

-56844.20798705774 7.379767525811202e6 0.0
7.379767525811202e6 -189480.74904247027 0.0
0.0 0.0 0.0

-778140.6833266474 5.5668075484283855e6 0.0
5.5668075484283855e6 -1.7267891321749024e6 0.0
0.0 0.0 0.0

-6.359626313348344e6 2.99059685002639e6 0.0
2.99059685002639e6 4.553577086037353e6 0.0
0.0 0.0 0.0

-1.4037585273402052e6 7.991842482549296e6 0.0
7.991842482549296e6 -1.0736047403436254e6 0.0
0.0 0.0 0.0

-469183.88042388146 5.07636969485962e6 0.0
5.07636969485962e6 -1.95480828312445e6 0.0
0.0 0.0 0.0

-2.2011355561842276e6 4.182408510486299e6 0.0
4.182408510486299e6 1.5686797766712685e6 0.0
0.0 0.0 0.0

-610755.7593706315 5.604774453284696e6 0.0
5.604774453284696e6 -1.924809427272933e6 0.0
0.0 0.0 0.0

-3.3976195993984453e6 4.679897213558477e6 0.0
4.679897213558477e6 880183.8404186519 0.0
0.0 0.0 0.0

-868691.3130874312 3.057335516211121e6 0.0
3.057335516211121e6 512711.74325093825 0.0
0.0 0.0 0.0

209291.79207398742 1.217209141173735e6 0.0
1.217209141173735e6 -514665.150809487 0.0
0.0 0.0 0.0

-638273.8094985547 5.12642629758159e6 0.0
5.12642629758159e6 -2.074090314512777e6 0.0
0.0 0.0 0.0

-3.9263551318547376e6 7.093841371099044e6 0.0
7.093841371099044e6 1.7335942762867343e6 0.0
0.0 0.0 0.0

-4.376846364549845e6 8.970570367588216e6 0.0
8.970570367588216e6 847971.8134953713 0.0
0.0 0.0 0.0

-1.8983378443665472e6 3.6818018692637673e6 0.0
3.6818018692637673e6 1.6992103783651695e6 0.0
0.0 0.0 0.0

-477683.8644199879 4.487666946227429e6 0.0
4.487666946227429e6 -2.298350672455325e6 0.0
0.0 0.0 0.0

81568.01321391365 3.91121662756731e6 0.0
3.91121662756731e6 -2.775276221634465e6 0.0
0.0 0.0 0.0

-6.483342232859322e6 1.4702799297754169e6 0.0
1.4702799297754169e6 8.513774929677254e6 0.0
0.0 0.0 0.0

-1.0515691864914605e6 3.1018577545246715e6 0.0
3.1018577545246715e6 805468.84971777 0.0
0.0 0.0 0.0

-1.8511194155374542e6 1.0007943292071851e7 0.0
1.0007943292071851e7 -411398.92734967405 0.0
0.0 0.0 0.0

-2.2449078713462017e6 3.979887515112659e6 0.0
3.979887515112659e6 414243.72090084804 0.0
0.0 0.0 0.0

-504722.06808169634 2.5370952051741784e6 0.0
2.5370952051741784e6 787048.9441354765 0.0
0.0 0.0 0.0

850992.9422871508 8.731356396984026e6 0.0
8.731356396984026e6 -2.144230720968853e6 0.0
0.0 0.0 0.0

-2.559466921479405e6 3.4943575719239125e6 0.0
3.4943575719239125e6 565572.9015577884 0.0
0.0 0.0 0.0

-3.8784300948280324e6 7.28943139403155e6 0.0
7.28943139403155e6 1.1727051770369082e6 0.0
0.0 0.0 0.0

-350851.5875353811 2.8501722870736346e6 0.0
2.8501722870736346e6 -566520.9747443916 0.0
0.0 0.0 0.0

-320002.7565299295 4.318059970335313e6 0.0
4.318059970335313e6 -2.0464518001179837e6 0.0
0.0 0.0 0.0

-720629.5291686057 5.967612817687922e6 0.0
5.967612817687922e6 -1.7733303091022943e6 0.0
0.0 0.0 0.0

323013.5499934799 2.0254014134797296e6 0.0
2.0254014134797296e6 -1.4044997665432945e6 0.0
0.0 0.0 0.0

-1.0054568093151349e6 2.538149982120052e6 0.0
2.538149982120052e6 481785.6022343854 0.0
0.0 0.0 0.0

-259340.7864331834 4.558996445427698e6 0.0
4.558996445427698e6 -2.347527575555328e6 0.0
0.0 0.0 0.0

-289014.43840254244 4.527125536014522e6 0.0
4.527125536014522e6 -1.9093650558548186e6 0.0
0.0 0.0 0.0

-2.293916320842264e6 4.1478462795303287e6 0.0
4.1478462795303287e6 200198.24193942477 0.0
0.0 0.0 0.0

-432092.71786552004 4.941179509447856e6 0.0
4.941179509447856e6 -2.0248281380722949e6 0.0
0.0 0.0 0.0

31139.160992274556 2.565805725873286e6 0.0
2.565805725873286e6 -701603.245057414 0.0
0.0 0.0 0.0

-719696.4481607311 4.830398335166055e6 0.0
4.830398335166055e6 -2.3989882260626284e6 0.0
0.0 0.0 0.0

647736.3984301781 8.579896959784102e6 0.0
8.579896959784102e6 2.1591233482988384e6 0.0
0.0 0.0 0.0

-296472.944069682 5.491715821076413e6 0.0
5.491715821076413e6 -1.380024681914408e6 0.0
0.0 0.0 0.0

-1.7466908084192881e6 -1.8740196529798808e6 0.0
-1.8740196529798808e6 1.9301915907572743e6 0.0
0.0 0.0 0.0

576686.8473903686 1.7384744149393842e6 0.0
1.7384744149393842e6 -892129.8146842474 0.0
0.0 0.0 0.0

741804.0967919619 5.812609748416537e6 0.0
5.812609748416537e6 2.4726781539554433e6 0.0
0.0 0.0 0.0

-58390.64210205019 4.1336761104016537e6 0.0
4.1336761104016537e6 -194635.41729477083 0.0
0.0 0.0 0.0

-7.1959610542191565e6 2.165036027380417e6 0.0
2.165036027380417e6 1.437730508302521e7 0.0
0.0 0.0 0.0

-550143.2708636754 4.835852245081089e6 0.0
4.835852245081089e6 -2.1992399902506e6 0.0
0.0 0.0 0.0

-1.693868801265905e6 8.920764836596936e6 0.0
8.920764836596936e6 -451283.61784153007 0.0
0.0 0.0 0.0

-468090.7784017591 5.63386177634003e6 0.0
5.63386177634003e6 -2.354698758780324e6 0.0
0.0 0.0 0.0

-3.104595148144008e6 4.515250164137076e6 0.0
4.515250164137076e6 860878.134104464 0.0
0.0 0.0 0.0

-1.7906131946536724e6 5.5757905271425955e6 0.0
5.5757905271425955e6 130332.88110302971 0.0
0.0 0.0 0.0

-3.2918370313990023e6 6.442472428234169e6 0.0
6.442472428234169e6 748450.6550550836 0.0
0.0 0.0 0.0

-667893.7369510361 4.825993108653855e6 0.0
4.825993108653855e6 -2.4061013368101544e6 0.0
0.0 0.0 0.0

-2.0122518757210895e6 9.653302336820101e6 0.0
9.653302336820101e6 -276430.7937824794 0.0
0.0 0.0 0.0

-2.3284822259744247e6 2.9397355025664163e6 0.0
2.9397355025664163e6 3.1237392812800324e6 0.0
0.0 0.0 0.0

-1.1879048748155653e6 8.16839819139324e6 0.0
8.16839819139324e6 -1.3704393331591336e6 0.0
0.0 0.0 0.0

-584811.7485327245 4.86780598989106e6 0.0
4.86780598989106e6 -2.2171171411417658e6 0.0
0.0 0.0 0.0

-1.4665661628056269e6 8.0024728545043e6 0.0
8.0024728545043e6 -511369.7455805757 0.0
0.0 0.0 0.0

-1.159892397745707e6 3.2471181153134955e6 0.0
3.2471181153134955e6 -702635.1648655011 0.0
0.0 0.0 0.0

-324814.82956807455 4.1015350578325195e6 0.0
4.1015350578325195e6 -2.262615712004919e6 0.0
0.0 0.0 0.0

-3.012845277257039e6 4.471487067640951e6 0.0
4.471487067640951e6 917044.7955996296 0.0
0.0 0.0 0.0

-1.713891161251041e6 2.9487141878448273e6 0.0
2.9487141878448273e6 150355.3147008561 0.0
0.0 0.0 0.0

-1.4702189714252318e6 9.205811016680323e6 0.0
9.205811016680323e6 -1.411290628281079e6 0.0
0.0 0.0 0.0

-239744.3180692781 4.0318373838543743e6 0.0
4.0318373838543743e6 -2.161818652978757e6 0.0
0.0 0.0 0.0

-2.2323450825025053e6 8.944212388099475e6 0.0
8.944212388099475e6 -126702.3480288256 0.0
0.0 0.0 0.0

-1.6162438126059053e6 9.010465881531704e6 0.0
9.010465881531704e6 -1.160937137222133e6 0.0
0.0 0.0 0.0

-461215.6023558715 5.355923021808759e6 0.0
5.355923021808759e6 -2.1210467605307894e6 0.0
0.0 0.0 0.0

2.182987150155944e6 4.982163671797032e6 0.0
4.982163671797032e6 -210843.4818010861 0.0
0.0 0.0 0.0

-2.0347815852900504e6 3.567457576811337e6 0.0
3.567457576811337e6 542282.7780255807 0.0
0.0 0.0 0.0

-354747.2420210454 2.930894849294837e6 0.0
2.930894849294837e6 -741384.0156607949 0.0
0.0 0.0 0.0

-285448.2459137517 1.081658940368481e6 0.0
1.081658940368481e6 440991.7666827495 0.0
0.0 0.0 0.0

-95942.99689379218 3.980036631048704e6 0.0
3.980036631048704e6 -1.7622903430367992e6 0.0
0.0 0.0 0.0

-884005.2412008622 4.927688428918062e6 0.0
4.927688428918062e6 -422597.3354137996 0.0
0.0 0.0 0.0

-364508.5930193059 4.777792377780257e6 0.0
4.777792377780257e6 -1.6006506486404531e6 0.0
0.0 0.0 0.0

-313860.7843196857 5.434656882468578e6 0.0
5.434656882468578e6 -2.3275997632604605e6 0.0
0.0 0.0 0.0

-2.10591083142357e6 9.304684556843245e6 0.0
9.304684556843245e6 -195352.50498994841 0.0
0.0 0.0 0.0

-2.015363848246529e6 3.265516350893074e6 0.0
3.265516350893074e6 2.743706824935076e6 0.0
0.0 0.0 0.0

-2.1028450578270094e6 3.5779608359613926e6 0.0
3.5779608359613926e6 530951.4565944248 0.0
0.0 0.0 0.0

-644912.4800495397 5.080497692288128e6 0.0
5.080497692288128e6 -2.1031389482193617e6 0.0
0.0 0.0 0.0

-130681.31669071157 2.516069762578493e6 0.0
2.516069762578493e6 -584697.2779100046 0.0
0.0 0.0 0.0

-2.0407806730006863e6 3.9426631776519846e6 0.0
3.9426631776519846e6 1.9609298076252956e6 0.0
0.0 0.0 0.0

-1.1546324477619412e6 6.849733225825919e6 0.0
6.849733225825919e6 -781723.5777959139 0.0
0.0 0.0 0.0

-677068.7510893191 6.239870127529771e6 0.0
6.239870127529771e6 -1.0474667179621616e6 0.0
0.0 0.0 0.0

-3.042371852378494e6 4.688897148804853e6 0.0
4.688897148804853e6 932020.3169914107 0.0
0.0 0.0 0.0

-840399.4185829698 6.01387294391231e6 0.0
6.01387294391231e6 -1.517244639304914e6 0.0
0.0 0.0 0.0

-478620.4138879739 5.045266325783905e6 0.0
5.045266325783905e6 -1.836379873078663e6 0.0
0.0 0.0 0.0

-614086.8282715671 5.113700962459983e6 0.0
5.113700962459983e6 -2.0861542267105023e6 0.0
0.0 0.0 0.0

644714.09296967 6.929196514550295e6 0.0
6.929196514550295e6 -3.1900980672204816e6 0.0
0.0 0.0 0.0

-685077.8207686032 5.19305041384338e6 0.0
5.19305041384338e6 -2.0748073660413192e6 0.0
0.0 0.0 0.0

-423339.5618215855 4.877634685266385e6 0.0
4.877634685266385e6 -1.116406206000183e6 0.0
0.0 0.0 0.0

-4.384800846616261e6 4.422502852069432e6 0.0
4.422502852069432e6 1.0296160863407124e6 0.0
0.0 0.0 0.0

-2.3585914588324763e6 9.967337380491097e6 0.0
9.967337380491097e6 -162394.90997336863 0.0
0.0 0.0 0.0

-1.9667327605401315e6 5.418178180388635e6 0.0
5.418178180388635e6 228260.3086508942 0.0
0.0 0.0 0.0

-896931.3623980857 5.234982572343453e6 0.0
5.234982572343453e6 -1.69251420058788e6 0.0
0.0 0.0 0.0

-1.6331369968526966e6 4.4052154886027165e6 0.0
4.4052154886027165e6 -456049.77621469484 0.0
0.0 0.0 0.0

-406294.4645099429 5.348420047062963e6 0.0
5.348420047062963e6 -2.097536678722607e6 0.0
0.0 0.0 0.0

-736535.7655467414 4.908878537268383e6 0.0
4.908878537268383e6 -2.4551194051862424e6 0.0
0.0 0.0 0.0

2.0357633206592922e6 1.1783971870271945e7 0.0
1.1783971870271945e7 6.7858885224590385e6 0.0
0.0 0.0 0.0

-116935.27959892462 9.233038243814299e6 0.0
9.233038243814299e6 -1.6046026941302794e6 0.0
0.0 0.0 0.0

1.0371290202805768e6 9.67702448801802e6 0.0
9.67702448801802e6 -3.5320677493126043e6 0.0
0.0 0.0 0.0

31725.77788420592 5.37222028145561e6 0.0
5.37222028145561e6 -3.1504713197027347e6 0.0
0.0 0.0 0.0

-1.0819468942304365e6 6.663902480580236e6 0.0
6.663902480580236e6 -970275.0482076397 0.0
0.0 0.0 0.0

-533318.2604955949 6.53204640617264e6 0.0
6.53204640617264e6 -349329.00166142 0.0
0.0 0.0 0.0

-429625.44379515614 2.6645179087030482e6 0.0
2.6645179087030482e6 438306.20516413124 0.0
0.0 0.0 0.0

-2.2745895579053806e6 2.9759787948092385e6 0.0
2.9759787948092385e6 4.822031985221881e6 0.0
0.0 0.0 0.0

-1.1338067412413966e6 6.028612114940968e6 0.0
6.028612114940968e6 -135125.61544278645 0.0
0.0 0.0 0.0

-985883.2289246374 3.2400441765362676e6 0.0
3.2400441765362676e6 -703833.9027549402 0.0
0.0 0.0 0.0

-5.172346896540772e6 5.182908568044327e6 0.0
5.182908568044327e6 3.0566873594136024e6 0.0
0.0 0.0 0.0

-2.357934307238852e6 4.589019654505192e6 0.0
4.589019654505192e6 1.2051269665975492e6 0.0
0.0 0.0 0.0

-1.4800309399796429e6 3.229265518627276e6 0.0
3.229265518627276e6 15115.275704459578 0.0
0.0 0.0 0.0

-2.53163672784494e6 3.6989986256252974e6 0.0
3.6989986256252974e6 861969.4995029836 0.0
0.0 0.0 0.0

-9050.479927715496 3.4866406737364624e6 0.0
3.4866406737364624e6 -2.506905118645827e6 0.0
0.0 0.0 0.0

-1.0444100086924866e6 5.738712316581994e6 0.0
5.738712316581994e6 -211235.50122147007 0.0
0.0 0.0 0.0

-1.5785819486530598e6 7.205045053468746e6 0.0
7.205045053468746e6 -586370.9374762219 0.0
0.0 0.0 0.0

-761947.4017949869 6.203034054448294e6 0.0
6.203034054448294e6 -1.7031580172096067e6 0.0
0.0 0.0 0.0

-1.5744750613199961e6 1.397309300839985e6 0.0
1.397309300839985e6 3.042997920030128e6 0.0
0.0 0.0 0.0

349339.5921508815 2.5178924370570704e6 0.0
2.5178924370570704e6 -862044.7372842846 0.0
0.0 0.0 0.0

-4.1942679322570823e6 253308.2619724439 0.0
253308.2619724439 7.258735561639067e6 0.0
0.0 0.0 0.0

-1.7221475171629048e6 8.456448979438849e6 0.0
8.456448979438849e6 -770047.3408370379 0.0
0.0 0.0 0.0

-2.0703336510544552e6 5.302655402149684e6 0.0
5.302655402149684e6 350096.70619756926 0.0
0.0 0.0 0.0

-1.0931587432064726e6 3.0737859106787876e6 0.0
3.0737859106787876e6 -177247.5172286827 0.0
0.0 0.0 0.0

-1.6075561767851736e6 9.437134702116625e6 0.0
9.437134702116625e6 -436077.4108911147 0.0
0.0 0.0 0.0

-100360.92552882849 2.841850257966969e6 0.0
2.841850257966969e6 -839837.2749336711 0.0
0.0 0.0 0.0

-2.381434430841853e6 4.45036740418823e6 0.0
4.45036740418823e6 1.0908785585141976e6 0.0
0.0 0.0 0.0

721001.6963816888 1.211671539296255e7 0.0
1.211671539296255e7 -2.995039930891875e6 0.0
0.0 0.0 0.0

-2.153010041600737e6 3.829297458494516e6 0.0
3.829297458494516e6 1.4495933704295624e6 0.0
0.0 0.0 0.0

365996.7781658112 2.4250969013125715e6 0.0
2.4250969013125715e6 -670435.035883007 0.0
0.0 0.0 0.0

-4.3258425126874875e6 -1.9958850337866368e6 0.0
-1.9958850337866368e6 1.8287816088956133e6 0.0
0.0 0.0 0.0

-406900.2170261018 4.236563274744248e6 0.0
4.236563274744248e6 -2.413124569255343e6 0.0
0.0 0.0 0.0

-3.2439676950224442e6 5.063425405766565e6 0.0
5.063425405766565e6 776439.818883698 0.0
0.0 0.0 0.0

58279.18303259788 2.6183372106473306e6 0.0
2.6183372106473306e6 -872171.0879142302 0.0
0.0 0.0 0.0

-1.4657866491602242e6 2.3125957475532093e6 0.0
2.3125957475532093e6 -316761.7909601886 0.0
0.0 0.0 0.0

-696995.6917719208 1.326085409667898e6 0.0
1.326085409667898e6 9310.143875825626 0.0
0.0 0.0 0.0

-1.1491134856773443e6 6.504119754053611e6 0.0
6.504119754053611e6 -952973.7479532969 0.0
0.0 0.0 0.0

-542623.8275474553 1.091107730552483e6 0.0
1.091107730552483e6 -43398.1066469253 0.0
0.0 0.0 0.0

-1.443580953289002e6 6.760156557676514e6 0.0
6.760156557676514e6 -910071.8056533597 0.0
0.0 0.0 0.0

-1.8649455977100302e6 3.6444228842501165e6 0.0
3.6444228842501165e6 2.405497162319404e6 0.0
0.0 0.0 0.0

-417431.5383053741 2.7968526602238654e6 0.0
2.7968526602238654e6 -544027.3155989874 0.0
0.0 0.0 0.0

-3.0714673679479873e6 3.597349601800916e6 0.0
3.597349601800916e6 4.1065236665079007e6 0.0
0.0 0.0 0.0

-1.3566119685626747e6 3.0839880660300646e6 0.0
3.0839880660300646e6 308384.1473423848 0.0
0.0 0.0 0.0

-2.697501472161837e6 3.5846887424414703e6 0.0
3.5846887424414703e6 664967.4700661915 0.0
0.0 0.0 0.0

-115484.49340508785 3.5915860749822273e6 0.0
3.5915860749822273e6 -2.402712228003815e6 0.0
0.0 0.0 0.0

-1.9661248534700451e6 3.964962006698074e6 0.0
3.964962006698074e6 2.5127521807415327e6 0.0
0.0 0.0 0.0

948722.4381668994 7.440323136230055e6 0.0
7.440323136230055e6 -2.3224655900029307e6 0.0
0.0 0.0 0.0

-2.6243814838120723e6 -975129.1657997649 0.0
-975129.1657997649 2.801016805768193e6 0.0
0.0 0.0 0.0

-282217.3235538357 4.0631865629964513e6 0.0
4.0631865629964513e6 -2.1058214094591336e6 0.0
0.0 0.0 0.0

-1.4942310177515296e6 3.2716262239349233e6 0.0
3.2716262239349233e6 -33616.98590046639 0.0
0.0 0.0 0.0

-1.3373370685917083e6 1.0793387979364157e7 0.0
1.0793387979364157e7 -2.1833822503154236e6 0.0
0.0 0.0 0.0

217553.86700154236 2.5338383173352303e6 0.0
2.5338383173352303e6 -729306.988342231 0.0
0.0 0.0 0.0

52314.076839900634 1.0602683683608305e6 0.0
1.0602683683608305e6 -993197.5654837757 0.0
0.0 0.0 0.0

-1.0313236761040239e6 6.441659411544874e6 0.0
6.441659411544874e6 -1.2799957558920025e6 0.0
0.0 0.0 0.0

-400892.1327451861 2.3552935203392026e6 0.0
2.3552935203392026e6 -519535.92705141095 0.0
0.0 0.0 0.0

-2.1469658054133262e6 5.2970787350537935e6 0.0
5.2970787350537935e6 341600.7021312277 0.0
0.0 0.0 0.0

-4.234370746247791e6 3.003504751068644e6 0.0
3.003504751068644e6 3.9205906353891054e6 0.0
0.0 0.0 0.0

-326479.58346676955 1.5702266562100435e6 0.0
1.5702266562100435e6 -1.1371161763518872e6 0.0
0.0 0.0 0.0

-1.8079478425173801e6 8.497657499243723e6 0.0
8.497657499243723e6 -703896.7833606526 0.0
0.0 0.0 0.0

-1.310375588548268e6 5.891602152639305e6 0.0
5.891602152639305e6 -1.2695847164534244e6 0.0
0.0 0.0 0.0

-2.9081105011598747e6 6.90087525094591e6 0.0
6.90087525094591e6 415424.40063481254 0.0
0.0 0.0 0.0

-444307.98409640917 5.642636770782657e6 0.0
5.642636770782657e6 -2.7541464751729886e6 0.0
0.0 0.0 0.0

2.1611950780086666e6 7.964374039252557e6 0.0
7.964374039252557e6 -2.724252937916044e6 0.0
0.0 0.0 0.0

-619753.7325124813 4.713070895883787e6 0.0
4.713070895883787e6 -1.7311859391441848e6 0.0
0.0 0.0 0.0

-220356.7507906714 4.973701026513634e6 0.0
4.973701026513634e6 -2.1434051653774926e6 0.0
0.0 0.0 0.0

-537249.6084825111 1.699132542696074e6 0.0
1.699132542696074e6 -844321.931148818 0.0
0.0 0.0 0.0

-610142.7451763717 4.880349053413852e6 0.0
4.880349053413852e6 -2.4155321132084928e6 0.0
0.0 0.0 0.0

1.639664927881253e6 2.033164698849353e6 0.0
2.033164698849353e6 -2.4134937864204533e6 0.0
0.0 0.0 0.0

-876641.6611714673 1.0740976668766763e7 0.0
1.0740976668766763e7 -1.2234174539813988e6 0.0
0.0 0.0 0.0

-752269.9895121891 6.7443026992213745e6 0.0
6.7443026992213745e6 -197028.66371724854 0.0
0.0 0.0 0.0

-3.4475730248186104e6 1.7654740176359667e6 0.0
1.7654740176359667e6 4.428336387128153e6 0.0
0.0 0.0 0.0

-3.459132973430682e6 4.35466082343752e6 0.0
4.35466082343752e6 1.0377102362785039e6 0.0
0.0 0.0 0.0

-2.482487947230346e6 -334904.38045737136 0.0
-334904.38045737136 1.3261109175421447e6 0.0
0.0 0.0 0.0

-821065.8867924229 6.334593219413429e6 0.0
6.334593219413429e6 -1.579926287097406e6 0.0
0.0 0.0 0.0

-394087.4854670955 6.8377682701450735e6 0.0
6.8377682701450735e6 -332322.59830024536 0.0
0.0 0.0 0.0

-2.5274839645122825e6 7.469573920628401e6 0.0
7.469573920628401e6 143874.59633889107 0.0
0.0 0.0 0.0

-1.0557898247714597e6 4.411351176839349e6 0.0
4.411351176839349e6 -1.2909378074236182e6 0.0
0.0 0.0 0.0

-1.874690645255622e6 9.05189237636428e6 0.0
9.05189237636428e6 -299897.4431529466 0.0
0.0 0.0 0.0

-883518.4352472981 5.8978785774002345e6 0.0
5.8978785774002345e6 -1.427344027476387e6 0.0
0.0 0.0 0.0

705092.3257290954 1.1375234036506622e6 0.0
1.1375234036506622e6 -1.7151342932121053e6 0.0
0.0 0.0 0.0

-1.854104324540144e6 7.69489601986779e6 0.0
7.69489601986779e6 -655558.6545133879 0.0
0.0 0.0 0.0

-5.50214238825228e6 1.2167237842314646e7 0.0
1.2167237842314646e7 3.232149279411959e6 0.0
0.0 0.0 0.0

-997265.1833531426 8.687106529386735e6 0.0
8.687106529386735e6 -1.0733917800166581e6 0.0
0.0 0.0 0.0

-1.118312624772791e6 6.763630761338751e6 0.0
6.763630761338751e6 -867966.4594761329 0.0
0.0 0.0 0.0

-1.6674108876401815e6 3.041091567045914e6 0.0
3.041091567045914e6 181444.5696224121 0.0
0.0 0.0 0.0

-1.9348299565023088e6 2.9960745929060723e6 0.0
2.9960745929060723e6 83834.62249943335 0.0
0.0 0.0 0.0

-71707.03426987818 3.5844832284902856e6 0.0
3.5844832284902856e6 -1.9095184170705033e6 0.0
0.0 0.0 0.0

-333761.362312088 5.341426157657426e6 0.0
5.341426157657426e6 -921641.667892899 0.0
0.0 0.0 0.0

-1.0667969355876283e6 1.9408878058591317e6 0.0
1.9408878058591317e6 -613278.6073454202 0.0
0.0 0.0 0.0

-2.1721886176010505e6 6.056703540959842e6 0.0
6.056703540959842e6 170567.61190273683 0.0
0.0 0.0 0.0

-461806.3217622073 5.208550441696098e6 0.0
5.208550441696098e6 -1.2117382076017319e6 0.0
0.0 0.0 0.0

-1.5413069534863213e6 8.374407025287167e6 0.0
8.374407025287167e6 -1.082105888721294e6 0.0
0.0 0.0 0.0

-597229.2585051609 6.4666776515354905e6 0.0
6.4666776515354905e6 -401148.62476165296 0.0
0.0 0.0 0.0

-677811.7274618654 6.160023650974621e6 0.0
6.160023650974621e6 -1.6345250851887949e6 0.0
0.0 0.0 0.0

-261502.0538077798 2.464109929896714e6 0.0
2.464109929896714e6 -664847.594138285 0.0
0.0 0.0 0.0

-4.9125852925918475e6 5.16136069611409e6 0.0
5.16136069611409e6 283749.11786530586 0.0
0.0 0.0 0.0

-504523.1813735081 5.529513912956605e6 0.0
5.529513912956605e6 -1.802403529530843e6 0.0
0.0 0.0 0.0

-5.824806467793727e6 -3.978444064474562e6 0.0
-3.978444064474562e6 4.535034626847065e6 0.0
0.0 0.0 0.0

-1.1564364005107887e6 6.3940677070169365e6 0.0
6.3940677070169365e6 -1.0272260238175881e6 0.0
0.0 0.0 0.0

-1.3576792335595149e6 6.223247684382865e6 0.0
6.223247684382865e6 455032.2457421264 0.0
0.0 0.0 0.0

-288338.8025907239 4.270761318119294e6 0.0
4.270761318119294e6 -2.2523291398745663e6 0.0
0.0 0.0 0.0

-708020.3226409568 5.073746790396243e6 0.0
5.073746790396243e6 -1.8001082310122305e6 0.0
0.0 0.0 0.0

289496.395645541 2.6178572220859467e6 0.0
2.6178572220859467e6 -897723.5741166573 0.0
0.0 0.0 0.0

-1.1873509016704953e6 2.5435307553900247e6 0.0
2.5435307553900247e6 391358.86442536657 0.0
0.0 0.0 0.0

-1.5039040166885068e6 2.600962275724586e6 0.0
2.600962275724586e6 -335264.8501175486 0.0
0.0 0.0 0.0

-1.5858830605944428e6 3.1127199701687796e6 0.0
3.1127199701687796e6 51371.54678743065 0.0
0.0 0.0 0.0

-1.2097818275971801e6 3.212327785661244e6 0.0
3.212327785661244e6 596023.3443245457 0.0
0.0 0.0 0.0

-1.1990220042570322e6 2.55748729043582e6 0.0
2.55748729043582e6 -288180.1396707678 0.0
0.0 0.0 0.0

-1.81924903353894e6 7.552959515796182e6 0.0
7.552959515796182e6 -755726.8278077662 0.0
0.0 0.0 0.0

-1.722360479723509e6 8.878939546934068e6 0.0
8.878939546934068e6 -890723.4939011959 0.0
0.0 0.0 0.0

-1.8472129396473973e6 7.8075348126721205e6 0.0
7.8075348126721205e6 -597985.2954324184 0.0
0.0 0.0 0.0

-1.30345055972846e6 6.521686253328061e6 0.0
6.521686253328061e6 -1.0163832448703174e6 0.0
0.0 0.0 0.0

47529.65467800712 8.921682519746725e6 0.0
8.921682519746725e6 -2.2537928688400863e6 0.0
0.0 0.0 0.0

-346142.9071129935 4.9913690896822745e6 0.0
4.9913690896822745e6 -1.4629719809816724e6 0.0
0.0 0.0 0.0

-1.40850455806943e6 8.873428035971655e6 0.0
8.873428035971655e6 -909893.9508060946 0.0
0.0 0.0 0.0

-1.0651474284233735e6 4.48691152830869e6 0.0
4.48691152830869e6 -1.1780813511397515e6 0.0
0.0 0.0 0.0

-81364.90314154828 2.6943620809390163e6 0.0
2.6943620809390163e6 -791585.6584700404 0.0
0.0 0.0 0.0

-1.1615863864279836e6 6.479057272282334e6 0.0
6.479057272282334e6 -1.1426976099301102e6 0.0
0.0 0.0 0.0

-735447.2382883764 4.854485351853335e6 0.0
4.854485351853335e6 -2.4514908881687527e6 0.0
0.0 0.0 0.0

80110.96557836095 2.612210631010857e6 0.0
2.612210631010857e6 -1.0020268013862567e6 0.0
0.0 0.0 0.0

-1.4031014658079222e6 7.137551606028173e6 0.0
7.137551606028173e6 -1.017590176524818e6 0.0
0.0 0.0 0.0

-104574.73461437982 1.7286849049238937e6 0.0
1.7286849049238937e6 -908623.81016084 0.0
0.0 0.0 0.0

-411966.50478947716 5.576815169513304e6 0.0
5.576815169513304e6 -2.635360755941859e6 0.0
0.0 0.0 0.0

-1.6180128082874073e6 3.302544603064167e6 0.0
3.302544603064167e6 199990.77958280907 0.0
0.0 0.0 0.0

-794517.0984618365 5.846378066031128e6 0.0
5.846378066031128e6 -139844.84876207617 0.0
0.0 0.0 0.0

-969880.7666586995 2.3210385843117507e6 0.0
2.3210385843117507e6 140391.71836180508 0.0
0.0 0.0 0.0

-180351.72977111442 28577.560606652696 0.0
28577.560606652696 743635.6602033062 0.0
0.0 0.0 0.0

-772276.9069598903 6.712340034123126e6 0.0
6.712340034123126e6 -183606.6828474854 0.0
0.0 0.0 0.0

-168415.71293681426 7.118414357564654e6 0.0
7.118414357564654e6 -560425.661381566 0.0
0.0 0.0 0.0

-2.0523574791874313e6 5.4112401138177235e6 0.0
5.4112401138177235e6 361526.01530651376 0.0
0.0 0.0 0.0

-2.2446805365677704e6 3.4322152412833245e6 0.0
3.4322152412833245e6 571236.5000023368 0.0
0.0 0.0 0.0

-232955.6664726435 3.902821919725227e6 0.0
3.902821919725227e6 -2.1176150212559216e6 0.0
0.0 0.0 0.0

-219919.10675867688 3.9409672935428265e6 0.0
3.9409672935428265e6 -2.1922916218023575e6 0.0
0.0 0.0 0.0

-1.2172972373440173e6 3.0185117132422565e6 0.0
3.0185117132422565e6 866911.4433748211 0.0
0.0 0.0 0.0

-1.7780795246056137e6 7.400838006746531e6 0.0
7.400838006746531e6 -852480.9441292015 0.0
0.0 0.0 0.0

-125031.80799086049 8.183926200448174e6 0.0
8.183926200448174e6 -1.8060898735151624e6 0.0
0.0 0.0 0.0

-3.388246372161486e6 -620605.8856373888 0.0
-620605.8856373888 4.928032365626747e6 0.0
0.0 0.0 0.0

-1.962537941042403e6 3.602097006935823e6 0.0
3.602097006935823e6 497042.04479758744 0.0
0.0 0.0 0.0

-1.3455283833826953e6 5.2940183772369865e6 0.0
5.2940183772369865e6 -974388.785880731 0.0
0.0 0.0 0.0

-6.857106686700905e6 3.2262370211469033e6 0.0
3.2262370211469033e6 9.197399522087201e6 0.0
0.0 0.0 0.0

941868.3285754588 1.7495406880398213e6 0.0
1.7495406880398213e6 -1.565464802971954e6 0.0
0.0 0.0 0.0

-1.8639130453627165e6 6.495262853458842e6 0.0
6.495262853458842e6 -305086.4434388854 0.0
0.0 0.0 0.0

-3.1142641431258656e6 4.5949407268641e6 0.0
4.5949407268641e6 3.00664958300166e6 0.0
0.0 0.0 0.0

-1.3778955799447026e6 6.767113147893569e6 0.0
6.767113147893569e6 -408845.0871657334 0.0
0.0 0.0 0.0

-1.4155693836433797e6 2.331714288360745e6 0.0
2.331714288360745e6 -392908.45328690816 0.0
0.0 0.0 0.0

-3.1250651627149833e6 2.7416684195800503e6 0.0
2.7416684195800503e6 6.270906851660886e6 0.0
0.0 0.0 0.0

-267804.0899914482 4.0844694630487245e6 0.0
4.0844694630487245e6 -2.235865167720171e6 0.0
0.0 0.0 0.0

-1.0464971341879226e6 6.598843335886705e6 0.0
6.598843335886705e6 -1.0181109507244274e6 0.0
0.0 0.0 0.0

-233014.31118115142 1.3725564092630334e6 0.0
1.3725564092630334e6 769439.446376566 0.0
0.0 0.0 0.0

-307531.374773654 4.1894722967163217e6 0.0
4.1894722967163217e6 -2.1047127222155933e6 0.0
0.0 0.0 0.0

144969.0200045443 2.9795980774157597e6 0.0
2.9795980774157597e6 -1.6666112146249302e6 0.0
0.0 0.0 0.0

-485222.02403775125 5.21235010845116e6 0.0
5.21235010845116e6 -1.9380496326726251e6 0.0
0.0 0.0 0.0

-847478.7789090861 8.283453653928146e6 0.0
8.283453653928146e6 -1.53877052116203e6 0.0
0.0 0.0 0.0

-1.7368982918183818e6 7.252439885772732e6 0.0
7.252439885772732e6 -938357.2302729795 0.0
0.0 0.0 0.0

-1.1809315816400044e6 2.9360027535358383e6 0.0
2.9360027535358383e6 641128.6134265234 0.0
0.0 0.0 0.0

-547988.195578171 6.340172959006611e6 0.0
6.340172959006611e6 -1.339849775070278e6 0.0
0.0 0.0 0.0

13325.891412744677 2.6911172806744664e6 0.0
2.6911172806744664e6 -760310.4993109554 0.0
0.0 0.0 0.0

-884765.1681195328 6.195221472891781e6 0.0
6.195221472891781e6 -1.393417752624685e6 0.0
0.0 0.0 0.0

-382500.3949190441 2.4771603406205163e6 0.0
2.4771603406205163e6 -675320.8461609558 0.0
0.0 0.0 0.0

111760.12991069019 2.7341260576211354e6 0.0
2.7341260576211354e6 -1.1998407700098273e6 0.0
0.0 0.0 0.0

-1.0907136270588744e6 9.098245257040506e6 0.0
9.098245257040506e6 -1.2482901569355305e6 0.0
0.0 0.0 0.0

-555754.2983852699 4.915836827138784e6 0.0
4.915836827138784e6 -789446.8554167529 0.0
0.0 0.0 0.0

-611159.1930982422 1.4926425413154664e6 0.0
1.4926425413154664e6 -53749.45866116995 0.0
0.0 0.0 0.0

-72691.97048088815 3.829684039163656e6 0.0
3.829684039163656e6 -3.7992192319140565e6 0.0
0.0 0.0 0.0

74170.99060738251 7.290053717748506e6 0.0
7.290053717748506e6 247236.51748969758 0.0
0.0 0.0 0.0

-802397.2534045366 2.407123355103969e6 0.0
2.407123355103969e6 -161648.0270950897 0.0
0.0 0.0 0.0

-2.14338042053575e6 5.481353443426625e6 0.0
5.481353443426625e6 307113.170517365 0.0
0.0 0.0 0.0

-437839.6239410872 5.6920256907770755e6 0.0
5.6920256907770755e6 -792532.1510194811 0.0
0.0 0.0 0.0

-1.893330497460037e6 4.14723750685528e6 0.0
4.14723750685528e6 2.1559551522108475e6 0.0
0.0 0.0 0.0

-2.1606118092774535e6 4.1227221893936233e6 0.0
4.1227221893936233e6 1.6792884481457155e6 0.0
0.0 0.0 0.0

-292869.98270429636 481868.7311591338 0.0
481868.7311591338 -215816.54544028203 0.0
0.0 0.0 0.0

-1.5328484419531613e6 2.659821818020494e6 0.0
2.659821818020494e6 39144.77972900466 0.0
0.0 0.0 0.0

200336.36692463642 7.459899269444085e6 0.0
7.459899269444085e6 2.825358895165568e6 0.0
0.0 0.0 0.0

-1.4129867997137618e6 5.759628482623061e6 0.0
5.759628482623061e6 187602.0955223175 0.0
0.0 0.0 0.0

-1.0239472522277704e6 2.384513679587421e6 0.0
2.384513679587421e6 274412.99864712165 0.0
0.0 0.0 0.0

-892290.8411065573 5.96676457790925e6 0.0
5.96676457790925e6 -1.5942788545048425e6 0.0
0.0 0.0 0.0

1.3732910740735848e6 8.572301381913308e6 0.0
8.572301381913308e6 -2.6541609001987157e6 0.0
0.0 0.0 0.0

-1.5125689908343812e6 7.351550598869041e6 0.0
7.351550598869041e6 -782235.7849175408 0.0
0.0 0.0 0.0

-1.4170788147564114e6 2.5621242619613213e6 0.0
2.5621242619613213e6 -101440.03697578586 0.0
0.0 0.0 0.0

840320.0355187369 3.5265351530821947e6 0.0
3.5265351530821947e6 -2.7247438174374923e6 0.0
0.0 0.0 0.0

-1.841061415340903e6 5.860714399857373e6 0.0
5.860714399857373e6 -50157.31772407435 0.0
0.0 0.0 0.0

-500291.5560183316 545442.7022299421 0.0
545442.7022299421 517543.7908737962 0.0
0.0 0.0 0.0

-178240.8206120286 1.9337644361190086e6 0.0
1.9337644361190086e6 810816.3821356695 0.0
0.0 0.0 0.0

-2.9271348286982486e6 1.4612296043464968e6 0.0
1.4612296043464968e6 3.5341725252555273e6 0.0
0.0 0.0 0.0

-1.6154997560189606e6 8.775764227281213e6 0.0
8.775764227281213e6 -618953.3895743617 0.0
0.0 0.0 0.0

-590177.1229865097 1.5299606801532966e6 0.0
1.5299606801532966e6 -1.05493266458839e6 0.0
0.0 0.0 0.0

863853.6199795331 6.084133816496529e6 0.0
6.084133816496529e6 -1.0534400105475937e6 0.0
0.0 0.0 0.0

-825638.4191090788 9.054132968035948e6 0.0
9.054132968035948e6 4.663920519134006e6 0.0
0.0 0.0 0.0

1.013945046593503e6 8.293793784334432e6 0.0
8.293793784334432e6 -2.192187243507147e6 0.0
0.0 0.0 0.0

-340354.88970538625 2.257227290544325e6 0.0
2.257227290544325e6 -569070.3915179691 0.0
0.0 0.0 0.0

-1.6400442403595804e6 2.774591081239201e6 0.0
2.774591081239201e6 169550.11928598164 0.0
0.0 0.0 0.0

-2.36874113133634e6 4.1938674668717305e6 0.0
4.1938674668717305e6 1.0887134651697674e6 0.0
0.0 0.0 0.0

-148848.3436815485 3.6639167618295313e6 0.0
3.6639167618295313e6 -2.3277997248572186e6 0.0
0.0 0.0 0.0

-379921.3387336357 4.617248871980094e6 0.0
4.617248871980094e6 -2.076787218631244e6 0.0
0.0 0.0 0.0

-450287.4641791335 2.4326638884320706e6 0.0
2.4326638884320706e6 -582661.2187887869 0.0
0.0 0.0 0.0

-2.0710135786312085e6 3.6948140249554147e6 0.0
3.6948140249554147e6 596179.7338912322 0.0
0.0 0.0 0.0

-4.242973453768028e6 4.036867553229506e6 0.0
4.036867553229506e6 8.876613493860798e6 0.0
0.0 0.0 0.0

-1.578312172935083e6 7.505520504393107e6 0.0
7.505520504393107e6 -686966.3615493136 0.0
0.0 0.0 0.0

-727322.5715645576 2.4828600420464925e6 0.0
2.4828600420464925e6 -520431.9679771943 0.0
0.0 0.0 0.0

-286997.8118255064 4.280489003495826e6 0.0
4.280489003495826e6 -2.1107997169211614e6 0.0
0.0 0.0 0.0

-2.361099172190216e6 3.9221410215001865e6 0.0
3.9221410215001865e6 866777.8998506172 0.0
0.0 0.0 0.0

-1.4617386269060948e6 6.179008725304462e6 0.0
6.179008725304462e6 -1.1825495499155084e6 0.0
0.0 0.0 0.0

-1.2940868571942584e6 465930.20905700175 0.0
465930.20905700175 275744.23254100245 0.0
0.0 0.0 0.0

-1.3870137266386526e6 8.396126215105047e6 0.0
8.396126215105047e6 -1.1815928827743544e6 0.0
0.0 0.0 0.0

389331.47944784816 1.5549544117293507e6 0.0
1.5549544117293507e6 -1.4821660031619486e6 0.0
0.0 0.0 0.0

-1.2609222012201566e6 2.4093901794121754e6 0.0
2.4093901794121754e6 -162536.17824164245 0.0
0.0 0.0 0.0

-977374.8027593337 2.209760645975738e6 0.0
2.209760645975738e6 -342236.3956520372 0.0
0.0 0.0 0.0

-942197.6502614229 8.293740066561397e6 0.0
8.293740066561397e6 -1.3748343725470179e6 0.0
0.0 0.0 0.0

-1.5595508561856737e6 2.4949301194639746e6 0.0
2.4949301194639746e6 -250911.73186425364 0.0
0.0 0.0 0.0

-1.345327678619443e6 2.8563059496796024e6 0.0
2.8563059496796024e6 631510.3027657818 0.0
0.0 0.0 0.0

-4.045650144670345e6 2.351585553472559e6 0.0
2.351585553472559e6 8.186212918981239e6 0.0
0.0 0.0 0.0

-4.310567415591957e6 1.054803087821136e6 0.0
1.054803087821136e6 5.440180025661257e6 0.0
0.0 0.0 0.0

-3.580202788977187e6 2.5655760074524516e6 0.0
2.5655760074524516e6 7.185562215473058e6 0.0
0.0 0.0 0.0

-8.775558014878526e6 -1.8837256719939157e6 0.0
-1.8837256719939157e6 1.1480719699949501e7 0.0
0.0 0.0 0.0

-681298.7214245793 6.410632789924255e6 0.0
6.410632789924255e6 -393489.31856714585 0.0
0.0 0.0 0.0

-3.670737768170196e6 -62857.83651015177 0.0
-62857.83651015177 4.169785418460861e6 0.0
0.0 0.0 0.0

-2.0994712103756038e6 4.368988370297051e6 0.0
4.368988370297051e6 -30855.00887775293 0.0
0.0 0.0 0.0

-380425.42028476496 4.750370139471486e6 0.0
4.750370139471486e6 -1.569642137327434e6 0.0
0.0 0.0 0.0

-9.009353609160107e6 6.777871652770473e6 0.0
6.777871652770473e6 1.1867253581516836e6 0.0
0.0 0.0 0.0

889917.7075861945 9.696504654029213e6 0.0
9.696504654029213e6 -864813.557104074 0.0
0.0 0.0 0.0

-700469.8080386152 6.328749109383204e6 0.0
6.328749109383204e6 -1.59641053369391e6 0.0
0.0 0.0 0.0

-2.4299382081455197e6 5.362787399454975e6 0.0
5.362787399454975e6 58292.07203190378 0.0
0.0 0.0 0.0

-2.468433790987162e6 3.529216574316052e6 0.0
3.529216574316052e6 754181.6953512696 0.0
0.0 0.0 0.0

-564332.7402981446 5.320412975745144e6 0.0
5.320412975745144e6 -1.8699279177626562e6 0.0
0.0 0.0 0.0

394900.29053914326 1.0659249757597119e7 0.0
1.0659249757597119e7 -2.159714768989295e6 0.0
0.0 0.0 0.0

-1.4306235692569064e6 2.463944736227057e6 0.0
2.463944736227057e6 -245304.9358011092 0.0
0.0 0.0 0.0

96851.89786462288 4.771309531421529e6 0.0
4.771309531421529e6 -3.1509112183112926e6 0.0
0.0 0.0 0.0

-1.2204029126303724e6 2.252550008418797e6 0.0
2.252550008418797e6 -393791.85034640465 0.0
0.0 0.0 0.0

590585.4742180905 1.0499164279897729e7 0.0
1.0499164279897729e7 -2.214672193324912e6 0.0
0.0 0.0 0.0

-1.8844129764457543e6 4.485230722399071e6 0.0
4.485230722399071e6 1.9550788378840745e6 0.0
0.0 0.0 0.0

-5.651723521539642e6 7.667093596780162e6 0.0
7.667093596780162e6 -1.4559303334315368e6 0.0
0.0 0.0 0.0

-319577.4275929184 571660.7796170792 0.0
571660.7796170792 -137415.60386460944 0.0
0.0 0.0 0.0

-1.615630793000873e6 7.652678024153818e6 0.0
7.652678024153818e6 -598686.7110479836 0.0
0.0 0.0 0.0

-5.593491028903698e6 2.4756713577347803e6 0.0
2.4756713577347803e6 5.376310073137959e6 0.0
0.0 0.0 0.0

1.0082584496769251e6 5.628097174219201e6 0.0
5.628097174219201e6 -3.251299693754347e6 0.0
0.0 0.0 0.0

-824871.4649483939 2.3698249603717783e6 0.0
2.3698249603717783e6 204516.43487606896 0.0
0.0 0.0 0.0

-1.527777705205725e6 9.101268115907855e6 0.0
9.101268115907855e6 -1.2434698985477965e6 0.0
0.0 0.0 0.0

-1.076053273286286e6 3.666426829487445e6 0.0
3.666426829487445e6 -766251.7246491737 0.0
0.0 0.0 0.0

-1.559420079553655e6 2.5677606608174806e6 0.0
2.5677606608174806e6 -96278.65616282 0.0
0.0 0.0 0.0

-1.6877755038570198e6 1.6271701943148097e6 0.0
1.6271701943148097e6 1.556542962959118e6 0.0
0.0 0.0 0.0

-166653.42093836382 4.0195110233233543e6 0.0
4.0195110233233543e6 -1.9424760009163092e6 0.0
0.0 0.0 0.0

110131.19675320387 5.654194716747602e6 0.0
5.654194716747602e6 -1.4139715895322112e6 0.0
0.0 0.0 0.0

-2.321689713716982e6 3.861947806049892e6 0.0
3.861947806049892e6 794058.7167387232 0.0
0.0 0.0 0.0

-65115.90190005774 2.9224498710819473e6 0.0
2.9224498710819473e6 -766852.8251212662 0.0
0.0 0.0 0.0

-893879.4854395976 6.92330811600072e6 0.0
6.92330811600072e6 -1.5568300864640875e6 0.0
0.0 0.0 0.0

-797015.264665733 5.513857135573431e6 0.0
5.513857135573431e6 -1.2004853371792312e6 0.0
0.0 0.0 0.0

-626573.4236086132 1.2394630793472049e6 0.0
1.2394630793472049e6 564534.6148362432 0.0
0.0 0.0 0.0

-791237.1409078906 6.395089265372856e6 0.0
6.395089265372856e6 -374901.65147760353 0.0
0.0 0.0 0.0

-347411.3487784223 1.3205525331526785e6 0.0
1.3205525331526785e6 -248342.07646358392 0.0
0.0 0.0 0.0

-375501.7640975679 4.359009275652398e6 0.0
4.359009275652398e6 -2.0224212540081805e6 0.0
0.0 0.0 0.0

-977820.548896912 5.391969763077422e6 0.0
5.391969763077422e6 -1.3889267918268903e6 0.0
0.0 0.0 0.0

-629654.8787663822 2.5212285810720925e6 0.0
2.5212285810720925e6 -259207.70672863114 0.0
0.0 0.0 0.0

-772300.4334266759 5.612386807812376e6 0.0
5.612386807812376e6 -1.648325274783029e6 0.0
0.0 0.0 0.0

-1.297624059345694e6 6.7486060080848895e6 0.0
6.7486060080848895e6 -887703.1437212895 0.0
0.0 0.0 0.0

1.759482427336571e6 993047.6646212959 0.0
993047.6646212959 -2.2097300605584644e6 0.0
0.0 0.0 0.0

-8359.324204858916 1.431450504173017e6 0.0
1.431450504173017e6 -1.0808266645621802e6 0.0
0.0 0.0 0.0

-966079.5204693284 4.946131130748651e6 0.0
4.946131130748651e6 -1.701613767872999e6 0.0
0.0 0.0 0.0

-814773.9347935431 5.2723077851027185e6 0.0
5.2723077851027185e6 -1.8293022548945383e6 0.0
0.0 0.0 0.0

-1.6604194862947585e6 8.407108261525184e6 0.0
8.407108261525184e6 -1.0303643422421113e6 0.0
0.0 0.0 0.0

-907288.0300579811 6.376474786950751e6 0.0
6.376474786950751e6 -321623.99223227816 0.0
0.0 0.0 0.0

-244627.5092189705 7.770492821296634e6 0.0
7.770492821296634e6 -2.117436632894922e6 0.0
0.0 0.0 0.0

-352594.3060906779 5.52306534032038e6 0.0
5.52306534032038e6 -2.624033236648561e6 0.0
0.0 0.0 0.0

4027.3410007144557 2.6783762756134802e6 0.0
2.6783762756134802e6 -976212.5696147076 0.0
0.0 0.0 0.0

-603235.2808264148 5.6811214230712e6 0.0
5.6811214230712e6 -2.4068858486509784e6 0.0
0.0 0.0 0.0

-1.2087115459189245e7 -5.298469347547007e6 0.0
-5.298469347547007e6 8.56878902751166e6 0.0
0.0 0.0 0.0

1.018154324946141e7 8.885366003316171e6 0.0
8.885366003316171e6 2536.966295972001 0.0
0.0 0.0 0.0

-362766.9424421685 5.514666447697092e6 0.0
5.514666447697092e6 -2.602999637853655e6 0.0
0.0 0.0 0.0

-1.4656373080585783e6 3.292179204744552e6 0.0
3.292179204744552e6 576848.7793140122 0.0
0.0 0.0 0.0

-2.1598248930583145e6 3.186334851398286e6 0.0
3.186334851398286e6 325069.33289682656 0.0
0.0 0.0 0.0

-1.0188304532881787e6 4.92133507904787e6 0.0
4.92133507904787e6 -1.505332146981191e6 0.0
0.0 0.0 0.0

-117041.49628283668 2.141640455007129e6 0.0
2.141640455007129e6 -812795.3291298603 0.0
0.0 0.0 0.0

-244644.28777976203 1.739127300144318e6 0.0
1.739127300144318e6 -1.3772765426835017e6 0.0
0.0 0.0 0.0

-1.6649570102263484e6 2.6773395711557404e6 0.0
2.6773395711557404e6 21419.856426528888 0.0
0.0 0.0 0.0

-388649.266986328 5.630742750948911e6 0.0
5.630742750948911e6 -2.648744054113222e6 0.0
0.0 0.0 0.0

-872890.6781946567 5.136267859829239e6 0.0
5.136267859829239e6 -2.0455967213210072e6 0.0
0.0 0.0 0.0

-700933.2744386365 2.247353352822656e6 0.0
2.247353352822656e6 254119.20911534107 0.0
0.0 0.0 0.0

4.559822603125371e6 9.63618672402116e6 0.0
9.63618672402116e6 -987506.8823552453 0.0
0.0 0.0 0.0

-881310.1245665195 4.988626754794206e6 0.0
4.988626754794206e6 -1.6347833079604595e6 0.0
0.0 0.0 0.0

-506450.5565484655 5.299190873885215e6 0.0
5.299190873885215e6 -1.7356157932784522e6 0.0
0.0 0.0 0.0

-584125.910215577 5.316757160797436e6 0.0
5.316757160797436e6 -1.7463770076237493e6 0.0
0.0 0.0 0.0

-2.0730070787959273e6 4.6865144918743735e6 0.0
4.6865144918743735e6 1.7630029277812638e6 0.0
0.0 0.0 0.0

-1.0022813929805532e6 6.498150924826602e6 0.0
6.498150924826602e6 -1.2037961047607178e6 0.0
0.0 0.0 0.0

-1.9527849002252165e6 5.3745012177831195e6 0.0
5.3745012177831195e6 1.5090266352764273e6 0.0
0.0 0.0 0.0

-605401.7640711995 8.673475395750584e6 0.0
8.673475395750584e6 -1.1528080455785978e6 0.0
0.0 0.0 0.0

-1.1037045018124236e6 2.297666877389878e6 0.0
2.297666877389878e6 -368354.7663226095 0.0
0.0 0.0 0.0

-220212.91132923187 2.583876592827618e6 0.0
2.583876592827618e6 -1.4439702041159705e6 0.0
0.0 0.0 0.0

-832966.5770505881 1.708827554612148e6 0.0
1.708827554612148e6 -842164.5807234407 0.0
0.0 0.0 0.0

-393453.9744313114 2.716518681045359e6 0.0
2.716518681045359e6 -950803.9873426738 0.0
0.0 0.0 0.0

-400895.2453430991 5.603615113621586e6 0.0
5.603615113621586e6 -2.352593603384888e6 0.0
0.0 0.0 0.0

-482155.4024791368 5.384018983563115e6 0.0
5.384018983563115e6 -1.8391273769861832e6 0.0
0.0 0.0 0.0

1.7930175704682346e6 5.516632361576411e6 0.0
5.516632361576411e6 -3.086702916524267e6 0.0
0.0 0.0 0.0

-31277.931283790385 7.6976032297761785e6 0.0
7.6976032297761785e6 -2.0062393449116463e6 0.0
0.0 0.0 0.0

-1.42221973641001e6 2.616706229918152e6 0.0
2.616706229918152e6 -66281.45700690895 0.0
0.0 0.0 0.0

-246118.6626310125 1.1063172114135435e7 0.0
1.1063172114135435e7 -1.7656652963166935e6 0.0
0.0 0.0 0.0

-303617.4153670632 1.559528123166445e6 0.0
1.559528123166445e6 -1.0613238712058295e6 0.0
0.0 0.0 0.0

-244400.85869460323 3.9337272925878675e6 0.0
3.9337272925878675e6 -818137.2726046465 0.0
0.0 0.0 0.0

-972080.1250930217 8.33868145678953e6 0.0
8.33868145678953e6 -1.4516900765254311e6 0.0
0.0 0.0 0.0

-88409.88548811409 2.632899375803874e6 0.0
2.632899375803874e6 -1.0186296566270248e6 0.0
0.0 0.0 0.0

-1.849807737090725e6 7.24265153055522e6 0.0
7.24265153055522e6 -436979.15223252866 0.0
0.0 0.0 0.0

-43929.705185767845 3.566119507555955e6 0.0
3.566119507555955e6 -2.993109888269476e6 0.0
0.0 0.0 0.0

-1.1688642296199012e6 8.332080492557248e6 0.0
8.332080492557248e6 -1.3215093850089714e6 0.0
0.0 0.0 0.0

-1.1306459311152815e6 6.0649339556247955e6 0.0
6.0649339556247955e6 -993063.0187362367 0.0
0.0 0.0 0.0

-33468.33053990558 2.0258202285827873e6 0.0
2.0258202285827873e6 -775242.8609731009 0.0
0.0 0.0 0.0

-944937.9027405749 5.80510023274158e6 0.0
5.80510023274158e6 -1.1137476784480193e6 0.0
0.0 0.0 0.0

-2.211404071863669e6 3.565707730526539e6 0.0
3.565707730526539e6 659151.7832186823 0.0
0.0 0.0 0.0

-1.7231007125931536e6 9.132913757785402e6 0.0
9.132913757785402e6 -390453.9889041312 0.0
0.0 0.0 0.0

-570788.6649649757 4.742415713509835e6 0.0
4.742415713509835e6 -1.493517536104023e6 0.0
0.0 0.0 0.0

-70798.00459317933 2.043581263313857e6 0.0
2.043581263313857e6 -665339.8911466654 0.0
0.0 0.0 0.0

-1.8196629778880195e6 7.8900194835074525e6 0.0
7.8900194835074525e6 84834.50083526329 0.0
0.0 0.0 0.0

-1.767479119596283e6 8.799901756974319e6 0.0
8.799901756974319e6 -640695.0088127038 0.0
0.0 0.0 0.0

-594340.756793947 2.315052945472655e6 0.0
2.315052945472655e6 -401581.61637751554 0.0
0.0 0.0 0.0

-1.3864307219154567e6 5.806770042551318e6 0.0
5.806770042551318e6 228243.94817319652 0.0
0.0 0.0 0.0

196471.3495788175 2.1598717055823915e6 0.0
2.1598717055823915e6 -1.0931907042118749e6 0.0
0.0 0.0 0.0

-1.017206954411275e6 2.112050034189059e6 0.0
2.112050034189059e6 -356925.82953047194 0.0
0.0 0.0 0.0

-1.8368055355951297e6 847546.7064554142 0.0
847546.7064554142 3.2299448421178125e6 0.0
0.0 0.0 0.0

-1.5518623178262569e6 3.0126864027719973e6 0.0
3.0126864027719973e6 -74420.04016944306 0.0
0.0 0.0 0.0

-612734.0883144864 6.461180764903918e6 0.0
6.461180764903918e6 -1.2434045657275598e6 0.0
0.0 0.0 0.0

-925512.1072546102 4.998969846930511e6 0.0
4.998969846930511e6 -1.3837507005247693e6 0.0
0.0 0.0 0.0

-962539.4678939374 6.996268820341036e6 0.0
6.996268820341036e6 -1.4172733459653112e6 0.0
0.0 0.0 0.0

-369393.66638676624 5.33345780128704e6 0.0
5.33345780128704e6 -2.605812101044354e6 0.0
0.0 0.0 0.0

-16336.125430948683 4.1241724883087487e6 0.0
4.1241724883087487e6 -3.0513662263242435e6 0.0
0.0 0.0 0.0

-1.1688658791629989e6 2.5847194022463276e6 0.0
2.5847194022463276e6 419319.3263775794 0.0
0.0 0.0 0.0

-2.6903283559558527e6 4.1044585287368144e6 0.0
4.1044585287368144e6 1.0230243682729439e6 0.0
0.0 0.0 0.0

-214101.8109627555 2.0764910731533896e6 0.0
2.0764910731533896e6 282866.7566519983 0.0
0.0 0.0 0.0

-1.742313032524128e6 7.768786772257114e6 0.0
7.768786772257114e6 -537250.9877446872 0.0
0.0 0.0 0.0

-1.3869963852572788e6 6.9753171103402665e6 0.0
6.9753171103402665e6 -750669.8040012941 0.0
0.0 0.0 0.0

3.296175103789518e6 3.2558221142394e6 0.0
3.2558221142394e6 935042.8781723207 0.0
0.0 0.0 0.0

251752.96583439794 4.415164993155491e6 0.0
4.415164993155491e6 -2.2821017449056786e6 0.0
0.0 0.0 0.0

-1.1258930097625381e6 3.0669350369776688e6 0.0
3.0669350369776688e6 -160903.91594738222 0.0
0.0 0.0 0.0

-294709.0870785875 4.6475909811877245e6 0.0
4.6475909811877245e6 -1.9631117183478128e6 0.0
0.0 0.0 0.0

-828814.2751856055 7.002235386956748e6 0.0
7.002235386956748e6 -1.4377697503367055e6 0.0
0.0 0.0 0.0

-1.6816283844081797e6 8.420868074763533e6 0.0
8.420868074763533e6 -1.1539720643516136e6 0.0
0.0 0.0 0.0

-1.7354464897533043e6 1.9548891267887459e6 0.0
1.9548891267887459e6 3.495927856443502e6 0.0
0.0 0.0 0.0

-975266.1492404991 2.425025453786257e6 0.0
2.425025453786257e6 119906.59504571784 0.0
0.0 0.0 0.0

-989034.0499680032 5.879561424584657e6 0.0
5.879561424584657e6 -1.3881963029305735e6 0.0
0.0 0.0 0.0

-1.4148300083412456e6 5.432978897484615e6 0.0
5.432978897484615e6 -864270.1784152653 0.0
0.0 0.0 0.0

-2.5794501258629966e6 2.937529799974648e6 0.0
2.937529799974648e6 2.6906508793083867e6 0.0
0.0 0.0 0.0

-2.7882088516050773e6 4.295872386836895e6 0.0
4.295872386836895e6 617860.8746363863 0.0
0.0 0.0 0.0

-423267.22096945357 4.894502040732324e6 0.0
4.894502040732324e6 -1.9447747328331473e6 0.0
0.0 0.0 0.0

-3.6175149903000756e6 4.4118488543758e6 0.0
4.4118488543758e6 1.1062711051593327e6 0.0
0.0 0.0 0.0

-1.4504529640916793e6 3.2337526619198406e6 0.0
3.2337526619198406e6 33772.19459314208 0.0
0.0 0.0 0.0

-3.7999723472557226e6 5.898784345425255e6 0.0
5.898784345425255e6 1.9680193882265226e6 0.0
0.0 0.0 0.0

-300230.79325330385 7.127769377051319e6 0.0
7.127769377051319e6 -218493.0341161912 0.0
0.0 0.0 0.0

-674681.7175885083 5.161975934496374e6 0.0
5.161975934496374e6 -1.3341061103102511e6 0.0
0.0 0.0 0.0

-1.4314027446393934e6 6.169500032782495e6 0.0
6.169500032782495e6 697925.4222346144 0.0
0.0 0.0 0.0

-2.5197040783101604e6 4.302703236162594e6 0.0
4.302703236162594e6 955079.405389034 0.0
0.0 0.0 0.0

-1.6464137660726581e6 8.93208966447919e6 0.0
8.93208966447919e6 -981388.9326543671 0.0
0.0 0.0 0.0

-1.0758020140729088e6 4.981644335052249e6 0.0
4.981644335052249e6 -1.3436116770406612e6 0.0
0.0 0.0 0.0

-683200.5477783718 5.00966380930347e6 0.0
5.00966380930347e6 -1.504450776823712e6 0.0
0.0 0.0 0.0

-608179.1305020195 2.5654887502276516e6 0.0
2.5654887502276516e6 -1.2052972362419767e6 0.0
0.0 0.0 0.0

-2.50352478364029e6 3.4649045105803483e6 0.0
3.4649045105803483e6 641557.2413416456 0.0
0.0 0.0 0.0

-2.611226654353224e6 4.434675437185891e6 0.0
4.434675437185891e6 389711.1425648554 0.0
0.0 0.0 0.0

598638.3382988132 1.5063417620897254e6 0.0
1.5063417620897254e6 -652004.8305942299 0.0
0.0 0.0 0.0

-564085.8581274503 5.085706444853579e6 0.0
5.085706444853579e6 -1.961699679854091e6 0.0
0.0 0.0 0.0

-2.9181346174163464e6 4.2791232638658555e6 0.0
4.2791232638658555e6 892993.9219176522 0.0
0.0 0.0 0.0

-2.178607982972351e6 3.5060106305457978e6 0.0
3.5060106305457978e6 560544.4045459764 0.0
0.0 0.0 0.0

-7.121318064813131e6 -5.56336173629536e6 0.0
-5.56336173629536e6 4.965388057196725e6 0.0
0.0 0.0 0.0

-718715.9973552506 5.355666822441504e6 0.0
5.355666822441504e6 -1.6619181288383915e6 0.0
0.0 0.0 0.0

-2.0261557400099218e6 3.6146294793369523e6 0.0
3.6146294793369523e6 481284.65314498544 0.0
0.0 0.0 0.0

-2.051537598427074e6 4.1207601676573716e6 0.0
4.1207601676573716e6 219067.93418428826 0.0
0.0 0.0 0.0

-2.1369163953485736e6 3.6970178122893255e6 0.0
3.6970178122893255e6 599507.7470624968 0.0
0.0 0.0 0.0

-1.151067946915153e6 6.397697108852347e6 0.0
6.397697108852347e6 -253644.9244356804 0.0
0.0 0.0 0.0

-1.5881635340135987e6 8.27003576619235e6 0.0
8.27003576619235e6 -888099.637931684 0.0
0.0 0.0 0.0

-1.5676629413114116e6 3.310808067237797e6 0.0
3.310808067237797e6 110347.22359832982 0.0
0.0 0.0 0.0

-811202.210314498 2.2812459569022586e6 0.0
2.2812459569022586e6 446653.4598638035 0.0
0.0 0.0 0.0

-590978.653473996 2.6529662826696867e6 0.0
2.6529662826696867e6 -1.0246149920143292e6 0.0
0.0 0.0 0.0

1.3579399964136416e6 2.558721229963833e6 0.0
2.558721229963833e6 -3.216859657550534e6 0.0
0.0 0.0 0.0

-1.1878214132183404e6 3.664426728567557e6 0.0
3.664426728567557e6 -754892.6719405667 0.0
0.0 0.0 0.0

-1.795297067684224e6 8.560249312014448e6 0.0
8.560249312014448e6 -632791.347715649 0.0
0.0 0.0 0.0

-2.0728380465319213e6 3.424576186831822e6 0.0
3.424576186831822e6 459498.32423685526 0.0
0.0 0.0 0.0

-1.27579980834743e6 2.607499976173383e6 0.0
2.607499976173383e6 -561497.1506031317 0.0
0.0 0.0 0.0

221512.1095652795 2.876351462983563e6 0.0
2.876351462983563e6 -736548.0566896417 0.0
0.0 0.0 0.0

1.596839550151024e6 3.334496752588185e6 0.0
3.334496752588185e6 -2.455429871414269e6 0.0
0.0 0.0 0.0

-747312.3283229577 3.134750613589169e6 0.0
3.134750613589169e6 847209.716258754 0.0
0.0 0.0 0.0

50237.96861332597 2.0668623444169147e6 0.0
2.0668623444169147e6 -802883.8823022029 0.0
0.0 0.0 0.0

-865403.3058912121 6.553644049939502e6 0.0
6.553644049939502e6 129100.71484959498 0.0
0.0 0.0 0.0

-1.489232712716177e6 5.570003227249811e6 0.0
5.570003227249811e6 -768950.9139602866 0.0
0.0 0.0 0.0

-211238.5991988181 4.603105914052627e6 0.0
4.603105914052627e6 -2.580717702012822e6 0.0
0.0 0.0 0.0

-489997.1146035957 2.2920253754165373e6 0.0
2.2920253754165373e6 734446.1393504516 0.0
0.0 0.0 0.0

-1.989713313427059e6 4.48641686137564e6 0.0
4.48641686137564e6 152122.14412295027 0.0
0.0 0.0 0.0

-1.6000643630552867e6 2.4827335518527725e6 0.0
2.4827335518527725e6 -118784.2309677878 0.0
0.0 0.0 0.0

-738803.0032723746 1.8631553876126176e6 0.0
1.8631553876126176e6 -607450.1496346872 0.0
0.0 0.0 0.0

-827686.6453644346 2.629936669873444e6 0.0
2.629936669873444e6 -949920.9810347467 0.0
0.0 0.0 0.0

-280883.8345193057 4.847822864773434e6 0.0
4.847822864773434e6 -2.3014564488872075e6 0.0
0.0 0.0 0.0

-2.1449802541396827e6 3.6486390461243032e6 0.0
3.6486390461243032e6 635094.5048602321 0.0
0.0 0.0 0.0

-1.1927813375309873e6 6.930470388613087e6 0.0
6.930470388613087e6 -701212.7147333374 0.0
0.0 0.0 0.0

-5.455540724001775e6 4.444494044530729e6 0.0
4.444494044530729e6 1.2430013937819693e7 0.0
0.0 0.0 0.0

-894316.58330003 4.7320491898274e6 0.0
4.7320491898274e6 -35739.99729818423 0.0
0.0 0.0 0.0

-700884.3045977129 2.7223918454319104e6 0.0
2.7223918454319104e6 -308273.47568378306 0.0
0.0 0.0 0.0

-637189.1231666504 6.043333203467785e6 0.0
6.043333203467785e6 -1.6518955224890367e6 0.0
0.0 0.0 0.0

-1.1243576427488758e6 2.7327127792312857e6 0.0
2.7327127792312857e6 -368498.4136377513 0.0
0.0 0.0 0.0

-1.3964644081930304e6 7.62790870757053e6 0.0
7.62790870757053e6 -518766.9770259862 0.0
0.0 0.0 0.0

-2.8337421878074836e6 3.9931816157655073e6 0.0
3.9931816157655073e6 987976.4789963623 0.0
0.0 0.0 0.0

-2.4362002881774185e6 4.632646088587418e6 0.0
4.632646088587418e6 279236.5374249576 0.0
0.0 0.0 0.0

-800135.1248032174 5.542750674074757e6 0.0
5.542750674074757e6 -1.1830179500893103e6 0.0
0.0 0.0 0.0

-945140.1952201391 2.5704018160777227e6 0.0
2.5704018160777227e6 -526918.813615329 0.0
0.0 0.0 0.0

-2.2138034880649215e6 3.651615082864797e6 0.0
3.651615082864797e6 636938.6675744132 0.0
0.0 0.0 0.0

-408934.1355145611 2.425213452893525e6 0.0
2.425213452893525e6 -566001.3766211816 0.0
0.0 0.0 0.0

1.7106338753764704e6 3.963458445215257e6 0.0
3.963458445215257e6 -3.4562337302407166e6 0.0
0.0 0.0 0.0

-1.1325668741982607e6 3.351088775397318e6 0.0
3.351088775397318e6 -542637.4074059626 0.0
0.0 0.0 0.0

-1.410792959565482e6 7.0848709498278e6 0.0
7.0848709498278e6 -1.1032310045447072e6 0.0
0.0 0.0 0.0

-2.10290260362846e6 3.2558857647947622e6 0.0
3.2558857647947622e6 505982.0609247186 0.0
0.0 0.0 0.0

-420523.96241624735 1.6432987237141915e6 0.0
1.6432987237141915e6 -883104.0052364813 0.0
0.0 0.0 0.0

-3.223714772539818e6 5.738325624052085e6 0.0
5.738325624052085e6 812333.5389326438 0.0
0.0 0.0 0.0

-8.222161354201144e6 -4.6131701556257e6 0.0
-4.6131701556257e6 3.6324891536970846e6 0.0
0.0 0.0 0.0

-213019.60806871348 1.5108337394621577e6 0.0
1.5108337394621577e6 -1.131387639698809e6 0.0
0.0 0.0 0.0

-440898.38301146385 5.497077014273725e6 0.0
5.497077014273725e6 -2.4856974818642526e6 0.0
0.0 0.0 0.0

-1.1063649298421945e6 6.815921661492085e6 0.0
6.815921661492085e6 -868134.19841638 0.0
0.0 0.0 0.0

-782272.858814508 5.87289725844204e6 0.0
5.87289725844204e6 -1.6328554113754418e6 0.0
0.0 0.0 0.0

-1.0078127283462507e6 6.342764421464755e6 0.0
6.342764421464755e6 -1.1423546056397667e6 0.0
0.0 0.0 0.0

-84858.25529675739 1.4367374336830536e6 0.0
1.4367374336830536e6 -1.3531432920571268e6 0.0
0.0 0.0 0.0

-1.1332263011168619e6 5.870331434724918e6 0.0
5.870331434724918e6 -676572.4379181676 0.0
0.0 0.0 0.0

-2.924151743539837e6 4.177925899717547e6 0.0
4.177925899717547e6 732209.5127860333 0.0
0.0 0.0 0.0

28940.41209906398 2.4452853970173416e6 0.0
2.4452853970173416e6 -828878.6973072314 0.0
0.0 0.0 0.0

-533774.1676331962 6.514858251289531e6 0.0
6.514858251289531e6 -2.0014923904673513e6 0.0
0.0 0.0 0.0

-3.6733668180683064e6 5.597743634497309e6 0.0
5.597743634497309e6 1.0696164351332814e6 0.0
0.0 0.0 0.0

-385120.94234342343 6.731984703564669e6 0.0
6.731984703564669e6 -1.2310091103485154e6 0.0
0.0 0.0 0.0

-1.6629589470541244e6 8.859833125760004e6 0.0
8.859833125760004e6 -367699.33746321464 0.0
0.0 0.0 0.0

-86961.88281848305 5.570598736864134e6 0.0
5.570598736864134e6 -3.0478192666952065e6 0.0
0.0 0.0 0.0

-1.8837126493817377e6 3.5995348855537474e6 0.0
3.5995348855537474e6 2.480672224387755e6 0.0
0.0 0.0 0.0

-2.737218076186858e6 3.75520015549853e6 0.0
3.75520015549853e6 814646.7694754953 0.0
0.0 0.0 0.0

-303340.5686851563 1.0673963512696084e7 0.0
1.0673963512696084e7 -1.9222918509047835e6 0.0
0.0 0.0 0.0

-152885.65355512826 1.505207426119519e6 0.0
1.505207426119519e6 -1.505895648326593e6 0.0
0.0 0.0 0.0

57615.84186774399 3.391259029081862e6 0.0
3.391259029081862e6 -3.34321525238433e6 0.0
0.0 0.0 0.0

-3.203852418632859e6 4.571035263152663e6 0.0
4.571035263152663e6 925247.3530524457 0.0
0.0 0.0 0.0

485169.46292469406 1.992653430167419e6 0.0
1.992653430167419e6 -823475.842846059 0.0
0.0 0.0 0.0

-1.464107477749008e6 3.02426736181819e6 0.0
3.02426736181819e6 920809.608790854 0.0
0.0 0.0 0.0

-2.40700152423171e6 4.368606450083247e6 0.0
4.368606450083247e6 491767.13386862306 0.0
0.0 0.0 0.0

-1.5305841593098321e6 8.460024548822474e6 0.0
8.460024548822474e6 -1.2827193922925661e6 0.0
0.0 0.0 0.0

-1.0898102883087697e6 6.316189094297295e6 0.0
6.316189094297295e6 187945.05962456105 0.0
0.0 0.0 0.0

-1.4396024588669373e6 2.778916940129216e6 0.0
2.778916940129216e6 -421545.59393907 0.0
0.0 0.0 0.0

-958779.9088247006 7.072831177254755e6 0.0
7.072831177254755e6 -1.3055861130754123e6 0.0
0.0 0.0 0.0

-438516.111848028 4.325215390645796e6 0.0
4.325215390645796e6 -2.1262448331047473e6 0.0
0.0 0.0 0.0

-1.5942731822852239e6 9.204354286495509e6 0.0
9.204354286495509e6 -274310.1606670953 0.0
0.0 0.0 0.0

-330793.1773305757 5.051246911385801e6 0.0
5.051246911385801e6 -2.57328161764708e6 0.0
0.0 0.0 0.0

-224819.30677811016 2.60735813421655e6 0.0
2.60735813421655e6 -585373.7348871618 0.0
0.0 0.0 0.0

-1.6794150665167999e6 1.085211336295344e7 0.0
1.085211336295344e7 1.4499618620774614e7 0.0
0.0 0.0 0.0

-2.984999762593982e6 4.612718735213731e6 0.0
4.612718735213731e6 849755.1170354562 0.0
0.0 0.0 0.0

-1.3759556648384312e6 3.0380901970918784e6 0.0
3.0380901970918784e6 -496527.7793278795 0.0
0.0 0.0 0.0

-1.0073022738761716e6 7.952561127209006e6 0.0
7.952561127209006e6 -944187.142767009 0.0
0.0 0.0 0.0

-2.1993290118177785e6 4.616065502647899e6 0.0
4.616065502647899e6 289937.41799860273 0.0
0.0 0.0 0.0

-725315.767877603 2.4703330534632066e6 0.0
2.4703330534632066e6 -496862.6984387788 0.0
0.0 0.0 0.0

-894637.627426827 5.941602885266967e6 0.0
5.941602885266967e6 -1.0565827793410262e6 0.0
0.0 0.0 0.0

-878489.2527765336 6.436637127343443e6 0.0
6.436637127343443e6 -1.3848022907887897e6 0.0
0.0 0.0 0.0

-978951.067585229 6.482368920267311e6 0.0
6.482368920267311e6 -1.214266060496342e6 0.0
0.0 0.0 0.0

-1.1333783464979006e6 4.467228384863307e6 0.0
4.467228384863307e6 -1.1401605703907171e6 0.0
0.0 0.0 0.0

-47238.20900924504 1.0868859117403401e7 0.0
1.0868859117403401e7 -1.259961748798556e6 0.0
0.0 0.0 0.0

-786808.5563367894 6.241711737731163e6 0.0
6.241711737731163e6 -2.428832453499146e6 0.0
0.0 0.0 0.0

1.3993431199766165e6 4.667946635016451e6 0.0
4.667946635016451e6 -1.4981894225476794e6 0.0
0.0 0.0 0.0

-801881.0420655501 6.367939133302186e6 0.0
6.367939133302186e6 -1.5271414350427103e6 0.0
0.0 0.0 0.0

-110460.92687871295 3.5479230975440033e6 0.0
3.5479230975440033e6 -2.8133460217127334e6 0.0
0.0 0.0 0.0

-337871.96212051867 2.673015598041867e6 0.0
2.673015598041867e6 -874596.8358253819 0.0
0.0 0.0 0.0

-2.4420795921776635e6 3.4553436936319456e6 0.0
3.4553436936319456e6 653852.6051307651 0.0
0.0 0.0 0.0

-285909.40835337795 4.174413191922685e6 0.0
4.174413191922685e6 -1.8736880075758027e6 0.0
0.0 0.0 0.0

1.241520471451198e6 2.397571019331531e6 0.0
2.397571019331531e6 -2.955290327621646e6 0.0
0.0 0.0 0.0

-1.0991238879135898e6 4.080634815891749e6 0.0
4.080634815891749e6 -988680.7004696424 0.0
0.0 0.0 0.0

-2.6352984454062013e6 2.1370799834572193e6 0.0
2.1370799834572193e6 4.99015252941892e6 0.0
0.0 0.0 0.0

-2.3737830695328964e6 4.4838134237387935e6 0.0
4.4838134237387935e6 993622.8416083212 0.0
0.0 0.0 0.0

-1.2568871066023638e6 2.400409608404778e6 0.0
2.400409608404778e6 -312682.6519981321 0.0
0.0 0.0 0.0

-2.3564284424128053e6 4.261782932044762e6 0.0
4.261782932044762e6 1.4687192952157056e6 0.0
0.0 0.0 0.0

-286174.8589831461 6.2360558055239385e6 0.0
6.2360558055239385e6 -546259.3966209034 0.0
0.0 0.0 0.0

-738181.1512556195 6.24806141475941e6 0.0
6.24806141475941e6 -1.630904971081999e6 0.0
0.0 0.0 0.0

-1.6037327385762166e7 3.834290217528163e6 0.0
3.834290217528163e6 6.08982582127006e6 0.0
0.0 0.0 0.0

-1.532795818235818e6 2.8443074602043414e6 0.0
2.8443074602043414e6 -93425.30285425286 0.0
0.0 0.0 0.0

-74580.44348907503 2.713876189982755e6 0.0
2.713876189982755e6 -783612.6297726408 0.0
0.0 0.0 0.0

-1.3383232565546366e6 6.841464828820067e6 0.0
6.841464828820067e6 -840633.5400921514 0.0
0.0 0.0 0.0

-1.0769103299156348e6 6.54066645488074e6 0.0
6.54066645488074e6 -1.0447170498343678e6 0.0
0.0 0.0 0.0

-405257.9650205778 -166739.57252688776 0.0
-166739.57252688776 567478.3208580142 0.0
0.0 0.0 0.0

-599936.738633795 -1.0306812719332945e6 0.0
-1.0306812719332945e6 2.3520289079672284e6 0.0
0.0 0.0 0.0

-3.124494859163098e6 4.609117436321054e6 0.0
4.609117436321054e6 845520.1019955766 0.0
0.0 0.0 0.0

-1.9997395350305273e6 3.48287059848853e6 0.0
3.48287059848853e6 414904.6298939609 0.0
0.0 0.0 0.0

-3.3223338218435613e6 4.32864413950171e6 0.0
4.32864413950171e6 970139.3248647614 0.0
0.0 0.0 0.0

-1.2131365828473663e6 6.274476657007824e6 0.0
6.274476657007824e6 -1.0325158979496919e6 0.0
0.0 0.0 0.0

-2.28571258084333e6 3.5690015334700067e6 0.0
3.5690015334700067e6 660835.9001721696 0.0
0.0 0.0 0.0

-653374.7980136678 1.832137387483957e6 0.0
1.832137387483957e6 649160.598081229 0.0
0.0 0.0 0.0

-1.0800044729830172e7 -5.336367218140693e6 0.0
-5.336367218140693e6 5.008014962516248e6 0.0
0.0 0.0 0.0

-2.5738967674219375e6 3.541908976353989e6 0.0
3.541908976353989e6 742163.9305990852 0.0
0.0 0.0 0.0

-2.3391474452738655e6 4.322163303195048e6 0.0
4.322163303195048e6 1.3186763383234418e6 0.0
0.0 0.0 0.0

-2.1378558388506323e6 7.74453270651912e6 0.0
7.74453270651912e6 -152585.71081674378 0.0
0.0 0.0 0.0

392549.7419620131 3.591330444386101e6 0.0
3.591330444386101e6 -971449.2990804401 0.0
0.0 0.0 0.0

-1.6195250449689175e6 3.120217675937807e6 0.0
3.120217675937807e6 44012.36139880819 0.0
0.0 0.0 0.0

-4.1651084118463197e6 7.20912716978456e6 0.0
7.20912716978456e6 958214.1392409145 0.0
0.0 0.0 0.0

-3.181518266123418e6 6.41025835253786e6 0.0
6.41025835253786e6 1.1499992980268258e6 0.0
0.0 0.0 0.0

1.4691704568935889e6 6.333759433333286e6 0.0
6.333759433333286e6 -1.8034630494408477e6 0.0
0.0 0.0 0.0

-2.414730876228531e6 4.40251282712824e6 0.0
4.40251282712824e6 1.1783619431858757e6 0.0
0.0 0.0 0.0

-1.1381086961231832e6 5.398672141864893e6 0.0
5.398672141864893e6 -808490.6681377108 0.0
0.0 0.0 0.0

3515.6350592017407 3.702881565744791e6 0.0
3.702881565744791e6 -3.0869528520790036e6 0.0
0.0 0.0 0.0

-495122.6112829325 -11110.25847333976 0.0
-11110.25847333976 673298.8197475574 0.0
0.0 0.0 0.0

-354954.5640810963 8.837688234171662e6 0.0
8.837688234171662e6 -2.3839659097908377e6 0.0
0.0 0.0 0.0

-479473.37465007685 5.040156070807495e6 0.0
5.040156070807495e6 -1.9370741090824422e6 0.0
0.0 0.0 0.0

-484216.0387203397 5.248167764948032e6 0.0
5.248167764948032e6 -1.279370193403526e6 0.0
0.0 0.0 0.0

-258011.44309530815 4.0291920328470967e6 0.0
4.0291920328470967e6 -2.5288137061060946e6 0.0
0.0 0.0 0.0

-4.1581559317922615e6 6.96269462281144e6 0.0
6.96269462281144e6 1.190358192067546e6 0.0
0.0 0.0 0.0

-2.123926796201896e6 3.980992549207403e6 0.0
3.980992549207403e6 4.676606753267927e6 0.0
0.0 0.0 0.0

-500970.6338207888 281142.0782701016 0.0
281142.0782701016 69810.98747662012 0.0
0.0 0.0 0.0

-1.2841658312716682e6 5.529028178718867e6 0.0
5.529028178718867e6 -709782.0016444512 0.0
0.0 0.0 0.0

-342738.32485794456 3.9762996637209984e6 0.0
3.9762996637209984e6 -2.3774918340009255e6 0.0
0.0 0.0 0.0

-1.8555806741272896e6 3.0952103037517443e6 0.0
3.0952103037517443e6 239243.47560937086 0.0
0.0 0.0 0.0

-2.3181043889515623e6 3.3771727393635656e6 0.0
3.3771727393635656e6 554089.6791523914 0.0
0.0 0.0 0.0

-528687.5337495767 2.1863744082739237e6 0.0
2.1863744082739237e6 -248172.12706801156 0.0
0.0 0.0 0.0

-1.5084350926756556e6 9.351059136886133e6 0.0
9.351059136886133e6 -294364.7402869068 0.0
0.0 0.0 0.0

-496989.27955679153 5.865109976785854e6 0.0
5.865109976785854e6 -1.180776289077624e6 0.0
0.0 0.0 0.0

-2.553797360496685e6 4.270259708789858e6 0.0
4.270259708789858e6 646355.2534594206 0.0
0.0 0.0 0.0

-31257.24179883604 2.387756309156194e6 0.0
2.387756309156194e6 -3.3568114527944275e6 0.0
0.0 0.0 0.0

-2.378920129168199e6 3.505966008367383e6 0.0
3.505966008367383e6 663805.9690363085 0.0
0.0 0.0 0.0

-637584.5857734499 6.932810067488707e6 0.0
6.932810067488707e6 -1.5972885834265961e6 0.0
0.0 0.0 0.0

-1.359014941306131e6 2.17482096635568e6 0.0
2.17482096635568e6 -440558.7103331784 0.0
0.0 0.0 0.0

-745131.5864947988 2.727738894834318e6 0.0
2.727738894834318e6 -802311.2092894235 0.0
0.0 0.0 0.0

79270.45835039241 2.6428187937261453e6 0.0
2.6428187937261453e6 -1.0235126018703107e6 0.0
0.0 0.0 0.0

-826451.2121335254 5.813460210984955e6 0.0
5.813460210984955e6 -1.2765434769798853e6 0.0
0.0 0.0 0.0

-1.1078425138927235e6 3.345282053327292e6 0.0
3.345282053327292e6 796180.353660043 0.0
0.0 0.0 0.0

-971828.3577622535 5.956510110318172e6 0.0
5.956510110318172e6 -1.2731880029145523e6 0.0
0.0 0.0 0.0

-464623.63872759475 2.0691282098624406e6 0.0
2.0691282098624406e6 -807332.279914059 0.0
0.0 0.0 0.0

-3.199484710859132e6 4.660972526977016e6 0.0
4.660972526977016e6 852076.8393522333 0.0
0.0 0.0 0.0

-1.9663618080381644e6 5.924593612828063e6 0.0
5.924593612828063e6 -161723.0632727114 0.0
0.0 0.0 0.0

-923118.5862742509 6.045875456769089e6 0.0
6.045875456769089e6 -1.3743544387068772e6 0.0
0.0 0.0 0.0

-636592.1783580199 7.4766271296868725e6 0.0
7.4766271296868725e6 -2.5818158357244898e6 0.0
0.0 0.0 0.0

-2.5948841680138535e6 3.61413187504528e6 0.0
3.61413187504528e6 845398.5927148125 0.0
0.0 0.0 0.0

-2.2265803536444544e6 4.766343308400803e6 0.0
4.766343308400803e6 1.4465943951923267e6 0.0
0.0 0.0 0.0

-5.306828819854917e6 3.475312980967202e6 0.0
3.475312980967202e6 4.9640285050228145e6 0.0
0.0 0.0 0.0

-244495.7135965412 3.6366979197064894e6 0.0
3.6366979197064894e6 -2.4730966867907294e6 0.0
0.0 0.0 0.0

-2.2597082089883965e6 3.708892467801037e6 0.0
3.708892467801037e6 723379.7647281409 0.0
0.0 0.0 0.0

-2.402988834450262e6 3.5681552141312785e6 0.0
3.5681552141312785e6 753522.9262548549 0.0
0.0 0.0 0.0

-416975.71987257747 2.6003543681176873e6 0.0
2.6003543681176873e6 -564779.9530799472 0.0
0.0 0.0 0.0

-4.199990486966511e6 7.184530734773493e6 0.0
7.184530734773493e6 1.3568893269531117e6 0.0
0.0 0.0 0.0

-1.0241969379561958e6 4.470540135018584e6 0.0
4.470540135018584e6 -1.3917360815825728e6 0.0
0.0 0.0 0.0

-1.5917579678981185e6 3.310721545724269e6 0.0
3.310721545724269e6 562576.9571910785 0.0
0.0 0.0 0.0

-515752.65329402173 6.801657428158343e6 0.0
6.801657428158343e6 -2.5603877668388095e6 0.0
0.0 0.0 0.0

-1.0852078854586396e6 2.376798994252585e6 0.0
2.376798994252585e6 -287615.2989892479 0.0
0.0 0.0 0.0

-2.64388384722248e6 3.6140346227163933e6 0.0
3.6140346227163933e6 831246.1657166659 0.0
0.0 0.0 0.0

-2.7782134574828427e6 3.7347658019049913e6 0.0
3.7347658019049913e6 887223.1546279038 0.0
0.0 0.0 0.0

-1.0000770784510006e6 5.066986623828661e6 0.0
5.066986623828661e6 -1.2109411546939719e6 0.0
0.0 0.0 0.0

-725218.9433060831 6.720685459257836e6 0.0
6.720685459257836e6 -1.0227996119559293e6 0.0
0.0 0.0 0.0

-479897.98463050695 1.06570006666099e7 0.0
1.06570006666099e7 -835898.3304204171 0.0
0.0 0.0 0.0

-1.6262500649934025e6 5.66824331696206e6 0.0
5.66824331696206e6 157514.77888283494 0.0
0.0 0.0 0.0

-471345.0743184786 5.626588208444466e6 0.0
5.626588208444466e6 -2.319835660804217e6 0.0
0.0 0.0 0.0

-957326.4848532848 4.932367992687464e6 0.0
4.932367992687464e6 -2.201499697022206e6 0.0
0.0 0.0 0.0

-508756.7248614043 1.8699574202692965e6 0.0
1.8699574202692965e6 468305.78838748427 0.0
0.0 0.0 0.0

-1.4557676234625974e6 6.509896799244853e6 0.0
6.509896799244853e6 -143374.51156657236 0.0
0.0 0.0 0.0

-1.8497785352734234e6 5.998054187286983e6 0.0
5.998054187286983e6 43151.095119306 0.0
0.0 0.0 0.0

-2.346464147875885e6 3.631961446048393e6 0.0
3.631961446048393e6 750899.8471732537 0.0
0.0 0.0 0.0

-440407.2542801108 1.6310210937555498e6 0.0
1.6310210937555498e6 614896.7888424719 0.0
0.0 0.0 0.0

-3.274768640954362e6 4.692501454284747e6 0.0
4.692501454284747e6 838926.434855382 0.0
0.0 0.0 0.0

-2.63961589194717e6 3.553448005115867e6 0.0
3.553448005115867e6 707601.602198822 0.0
0.0 0.0 0.0

-610552.964783154 5.96734302305693e6 0.0
5.96734302305693e6 -1.249254259223606e6 0.0
0.0 0.0 0.0

-142959.18701542277 7.298979472830033e6 0.0
7.298979472830033e6 -476530.62670153385 0.0
0.0 0.0 0.0

-2.1844497065815586e6 3.766411801166533e6 0.0
3.766411801166533e6 704146.5589262742 0.0
0.0 0.0 0.0

-1.8888713665238994e6 3.6449015989480736e6 0.0
3.6449015989480736e6 541583.2167225542 0.0
0.0 0.0 0.0

1.663454067752812e6 4.32920644366161e6 0.0
4.32920644366161e6 -2.9485637916601934e6 0.0
0.0 0.0 0.0

-2.554146817209245e6 4.556492212399873e6 0.0
4.556492212399873e6 577750.133851108 0.0
0.0 0.0 0.0

-1.2299102966960561e6 3.0512229234197494e6 0.0
3.0512229234197494e6 347024.25325119164 0.0
0.0 0.0 0.0

-577038.0555483166 3.5901673919164636e6 0.0
3.5901673919164636e6 -1.6247275927364037e6 0.0
0.0 0.0 0.0

-2.2727719935509646e6 4.5120089907309385e6 0.0
4.5120089907309385e6 129953.22560416185 0.0
0.0 0.0 0.0

-2.2778561470541717e6 3.49197857072485e6 0.0
3.49197857072485e6 679060.6040366461 0.0
0.0 0.0 0.0

-167272.73406562625 1.8339906061559608e6 0.0
1.8339906061559608e6 -1.176939872950076e6 0.0
0.0 0.0 0.0

-499284.96474817453 9.944353672212655e6 0.0
9.944353672212655e6 -1.806211961062279e6 0.0
0.0 0.0 0.0

-1.2965420920223068e7 4.7219182355104955e6 0.0
4.7219182355104955e6 5.459914998803854e6 0.0
0.0 0.0 0.0

-164888.0663378113 5.329952318065765e6 0.0
5.329952318065765e6 -3.1115300287100896e6 0.0
0.0 0.0 0.0

-678982.0218495774 4.909835203237322e6 0.0
4.909835203237322e6 -1.9632167233047786e6 0.0
0.0 0.0 0.0

-927545.194970066 6.4949590598572055e6 0.0
6.4949590598572055e6 -1.308499493126296e6 0.0
0.0 0.0 0.0

-1.514161664990962e6 5.825697992373335e6 0.0
5.825697992373335e6 41673.96762894944 0.0
0.0 0.0 0.0

-750077.1995321271 5.3120914289270425e6 0.0
5.3120914289270425e6 -1.7382742728191847e6 0.0
0.0 0.0 0.0

-697697.5975171726 4.802598186483852e6 0.0
4.802598186483852e6 -2.323546758457124e6 0.0
0.0 0.0 0.0

-1.1338306366745739e6 1.9446108950382655e6 0.0
1.9446108950382655e6 -719448.7572485779 0.0
0.0 0.0 0.0

-206133.27131985629 7.130752785959426e6 0.0
7.130752785959426e6 -381787.247640218 0.0
0.0 0.0 0.0

-1.8516519972152074e6 4.057204386893046e6 0.0
4.057204386893046e6 4.079125246556641e6 0.0
0.0 0.0 0.0

-1.3822526838580314e6 3.410878701087026e6 0.0
3.410878701087026e6 3.7840246726829605e6 0.0
0.0 0.0 0.0

-4.172672749711148e6 4.488748949574174e6 0.0
4.488748949574174e6 1.3088533129236344e6 0.0
0.0 0.0 0.0

-1.1311432229095974e6 4.055986157324708e6 0.0
4.055986157324708e6 -943614.0950274167 0.0
0.0 0.0 0.0

-4.397765887017571e6 6.490846339349018e6 0.0
6.490846339349018e6 515593.7588883487 0.0
0.0 0.0 0.0

-1.123616428133947e6 5.271565638683947e6 0.0
5.271565638683947e6 -939254.229475471 0.0
0.0 0.0 0.0

-2.3435149758563116e6 3.4450335446607796e6 0.0
3.4450335446607796e6 653132.9297496196 0.0
0.0 0.0 0.0

-874379.2345318703 3.5665944071842832e6 0.0
3.5665944071842832e6 -1.147271860737773e6 0.0
0.0 0.0 0.0

-469444.17470549967 4.335979593419928e6 0.0
4.335979593419928e6 -2.0331825380147046e6 0.0
0.0 0.0 0.0

-496543.0303787369 4.195492517536143e6 0.0
4.195492517536143e6 -1.2694095360787907e6 0.0
0.0 0.0 0.0

-208336.1061395359 3.879467798104792e6 0.0
3.879467798104792e6 -2.245710859126956e6 0.0
0.0 0.0 0.0

-761432.4073200399 6.493397274329563e6 0.0
6.493397274329563e6 -204079.16262862197 0.0
0.0 0.0 0.0

-824928.7695351966 5.677119617920525e6 0.0
5.677119617920525e6 -1.3949928373861194e6 0.0
0.0 0.0 0.0

-2.223419441344693e6 4.934083776799458e6 0.0
4.934083776799458e6 88859.5868416403 0.0
0.0 0.0 0.0

-1.4444724888086459e6 8.81371662789187e6 0.0
8.81371662789187e6 -808555.6211701989 0.0
0.0 0.0 0.0

-1.1081955880036561e6 2.4505873577866014e6 0.0
2.4505873577866014e6 -710652.3631174796 0.0
0.0 0.0 0.0

-1.7716895237524703e6 2.8069239864976862e6 0.0
2.8069239864976862e6 123717.20679257042 0.0
0.0 0.0 0.0

-1.702072370742688e6 3.33799735908365e6 0.0
3.33799735908365e6 787411.9038557016 0.0
0.0 0.0 0.0

-1.3207747121290672e6 7.983460329135772e6 0.0
7.983460329135772e6 -1.66902919876485e6 0.0
0.0 0.0 0.0

-5.165234838475377e6 4.553099786901087e6 0.0
4.553099786901087e6 1.766408410600353e6 0.0
0.0 0.0 0.0

-3.4214849762572525e6 4.7686436761721885e6 0.0
4.7686436761721885e6 843507.4611225873 0.0
0.0 0.0 0.0

-2.0734759158260527e6 3.555201234928865e6 0.0
3.555201234928865e6 1.28532370202584e6 0.0
0.0 0.0 0.0

-637316.5009651528 4.759974284260879e6 0.0
4.759974284260879e6 -2.124388324188206e6 0.0
0.0 0.0 0.0

-1.1807691956434823e6 6.598620732144692e6 0.0
6.598620732144692e6 -894258.5813647796 0.0
0.0 0.0 0.0

-915274.0448642403 5.632549789637516e6 0.0
5.632549789637516e6 -780630.0211796776 0.0
0.0 0.0 0.0

-2.204152125319187e6 5.184831514828654e6 0.0
5.184831514828654e6 469125.96886566305 0.0
0.0 0.0 0.0

-909725.7813275527 2.336751293780578e6 0.0
2.336751293780578e6 -58290.70553037248 0.0
0.0 0.0 0.0

-1.5781744334942517e6 9.109357483024135e6 0.0
9.109357483024135e6 110485.09237490036 0.0
0.0 0.0 0.0

-2.8310710002783393e6 -1.0516697221775316e6 0.0
-1.0516697221775316e6 5.158925585061e6 0.0
0.0 0.0 0.0

-1.6203330073148329e6 4.966060792666619e6 0.0
4.966060792666619e6 -539010.1250082598 0.0
0.0 0.0 0.0

99722.4185349172 587657.3653088817 0.0
587657.3653088817 -625432.5882832089 0.0
0.0 0.0 0.0

134907.01869948627 2.9597674550507925e6 0.0
2.9597674550507925e6 -696476.2972363293 0.0
0.0 0.0 0.0

1.6163001508252039e6 3.564371536375254e6 0.0
3.564371536375254e6 -3.406101224002144e6 0.0
0.0 0.0 0.0

-2.9833708402513354e6 1.9369892131470176e6 0.0
1.9369892131470176e6 3.870189062972129e6 0.0
0.0 0.0 0.0

-421290.19536241813 5.057783468477671e6 0.0
5.057783468477671e6 -1.9188265495493538e6 0.0
0.0 0.0 0.0

-2.223788394027211e6 4.24962173978176e6 0.0
4.24962173978176e6 359246.5233876419 0.0
0.0 0.0 0.0

-2.5325290460134028e6 3.650139410221722e6 0.0
3.650139410221722e6 852781.987758328 0.0
0.0 0.0 0.0

-1.3039520807261413e6 2.906087624290905e6 0.0
2.906087624290905e6 -226164.51705720916 0.0
0.0 0.0 0.0

-2.6104193703045817e6 3.977155869017606e6 0.0
3.977155869017606e6 1.00015093105391e6 0.0
0.0 0.0 0.0

-118768.00732106765 2.9846094785380303e6 0.0
2.9846094785380303e6 -891483.9349973511 0.0
0.0 0.0 0.0

-1.851579410155921e6 3.48434999602573e6 0.0
3.48434999602573e6 -96929.18094036548 0.0
0.0 0.0 0.0

-826184.2768721165 1.044209873263366e7 0.0
1.044209873263366e7 -516864.19006002304 0.0
0.0 0.0 0.0

-128497.10562881804 4.2381460223176265e6 0.0
4.2381460223176265e6 -2.1535266921214e6 0.0
0.0 0.0 0.0

-1.1239876574829826e6 4.546363152912059e6 0.0
4.546363152912059e6 -1.0182344002841297e6 0.0
0.0 0.0 0.0

-2.621983410710201e6 6.679243881044352e6 0.0
6.679243881044352e6 503905.4308532084 0.0
0.0 0.0 0.0

-1.3614070377369914e6 2.725183884455902e6 0.0
2.725183884455902e6 -145623.9855481551 0.0
0.0 0.0 0.0

-132779.35875915963 9.675803929380002e6 0.0
9.675803929380002e6 -1.8217625516612118e6 0.0
0.0 0.0 0.0

222397.5797778283 1.2335203626519963e6 0.0
1.2335203626519963e6 -1.8156545050825186e6 0.0
0.0 0.0 0.0

-440928.3234174383 4.353855282260238e6 0.0
4.353855282260238e6 -2.4450946245110556e6 0.0
0.0 0.0 0.0

555441.2373922642 2.0008328248945163e6 0.0
2.0008328248945163e6 -840626.8337200473 0.0
0.0 0.0 0.0

-868804.1561060017 1.7406347362678277e6 0.0
1.7406347362678277e6 -1.0095464091893493e6 0.0
0.0 0.0 0.0

-1.333449119397266e6 3.3715491229304294e6 0.0
3.3715491229304294e6 -561579.4565913286 0.0
0.0 0.0 0.0

-41240.575814562355 2.7291557820025412e6 0.0
2.7291557820025412e6 -906724.9272561709 0.0
0.0 0.0 0.0

1.2552997827108896e6 2.246833067447643e6 0.0
2.246833067447643e6 -2.8460192783777937e6 0.0
0.0 0.0 0.0

-965341.1559338518 6.318225161461656e6 0.0
6.318225161461656e6 -965820.3095527417 0.0
0.0 0.0 0.0

-552306.2217397393 1.6333662391193763e6 0.0
1.6333662391193763e6 -1.3211358483827827e6 0.0
0.0 0.0 0.0

-1.1023952354227962e7 4.951577063664448e6 0.0
4.951577063664448e6 4.906193728172243e6 0.0
0.0 0.0 0.0

528537.2182427329 4.917916139089236e6 0.0
4.917916139089236e6 334377.32494267914 0.0
0.0 0.0 0.0

-316172.44580588397 1.5169423134275586e6 0.0
1.5169423134275586e6 -1.4765287684301203e6 0.0
0.0 0.0 0.0

-1.5439316769816508e6 3.303847735032819e6 0.0
3.303847735032819e6 120539.83149835817 0.0
0.0 0.0 0.0

515903.95273773663 2.5201141499352767e6 0.0
2.5201141499352767e6 -1.805891736360047e6 0.0
0.0 0.0 0.0

-1.1586685959848026e6 3.141012127318955e6 0.0
3.141012127318955e6 868310.7599149095 0.0
0.0 0.0 0.0

-105927.59605533705 1.4627073040803068e6 0.0
1.4627073040803068e6 -1.4344898163203234e6 0.0
0.0 0.0 0.0

-5.347902265819368e6 4.154991110436446e6 0.0
4.154991110436446e6 1.541161916213142e6 0.0
0.0 0.0 0.0

-1.4734809171024598e6 9.454584798723321e6 0.0
9.454584798723321e6 34728.210447861464 0.0
0.0 0.0 0.0

-672355.4811693473 5.220051721436253e6 0.0
5.220051721436253e6 -932128.0690406879 0.0
0.0 0.0 0.0

-1.335967866559438e6 8.165464723978831e6 0.0
8.165464723978831e6 -742707.3808920633 0.0
0.0 0.0 0.0

-478711.23589090176 4.710119007994966e6 0.0
4.710119007994966e6 -2.220662553674923e6 0.0
0.0 0.0 0.0

-1.5447310630987294e6 3.1993246070690257e6 0.0
3.1993246070690257e6 -357804.1471098031 0.0
0.0 0.0 0.0

-1.076775058049569e6 4.019110918678295e6 0.0
4.019110918678295e6 576544.1058151536 0.0
0.0 0.0 0.0

-1.0783413323742712e6 1.0149840375214323e7 0.0
1.0149840375214323e7 -191360.91259819982 0.0
0.0 0.0 0.0

382017.50633116707 2.8549292462020386e6 0.0
2.8549292462020386e6 -2.0165800243230604e6 0.0
0.0 0.0 0.0

871859.7260700201 5.8953097875525e6 0.0
5.8953097875525e6 -1.7741145879609734e6 0.0
0.0 0.0 0.0

-543513.2426423046 2.3158218832173953e6 0.0
2.3158218832173953e6 -920604.209701379 0.0
0.0 0.0 0.0

-3.487461500779627e6 4.836107098615182e6 0.0
4.836107098615182e6 847284.0636892382 0.0
0.0 0.0 0.0

-1.703094006484156e6 2.6203988623132226e6 0.0
2.6203988623132226e6 -6606.022648681421 0.0
0.0 0.0 0.0

-3.012889570250856e6 9.315925539585834e6 0.0
9.315925539585834e6 1.3393988120243074e6 0.0
0.0 0.0 0.0

-1.2732578183597082e6 3.1584829027884365e6 0.0
3.1584829027884365e6 -311625.9676102828 0.0
0.0 0.0 0.0

-266462.56414619036 7.2833606929676365e6 0.0
7.2833606929676365e6 -277620.2174892237 0.0
0.0 0.0 0.0

-2.1541609587897863e6 6.620330218867057e6 0.0
6.620330218867057e6 117104.08647251863 0.0
0.0 0.0 0.0

-2.754636379131291e6 4.138206503930293e6 0.0
4.138206503930293e6 792508.3447370062 0.0
0.0 0.0 0.0

-819567.0041296366 5.2858589105945835e6 0.0
5.2858589105945835e6 -1.2110964387674867e6 0.0
0.0 0.0 0.0

-351534.6751658573 4.7550087218816485e6 0.0
4.7550087218816485e6 -2.51226165813061e6 0.0
0.0 0.0 0.0

-1.7070567620378516e6 3.3262715162884956e6 0.0
3.3262715162884956e6 3.7489709605885204e6 0.0
0.0 0.0 0.0

-805054.6022437065 5.959387357891481e6 0.0
5.959387357891481e6 -1.929072937048197e6 0.0
0.0 0.0 0.0

-1.084765783249847e6 2.6602290402707392e6 0.0
2.6602290402707392e6 626396.4683100657 0.0
0.0 0.0 0.0

-548235.0813970808 5.6874054231546875e6 0.0
5.6874054231546875e6 -1.7885706526284986e6 0.0
0.0 0.0 0.0

-918606.5193106852 2.310080428783484e6 0.0
2.310080428783484e6 -885303.6566944533 0.0
0.0 0.0 0.0

225603.6470491623 5.8587449263711665e6 0.0
5.8587449263711665e6 -1.224846701144537e6 0.0
0.0 0.0 0.0

-2.0417667685974492e6 3.0661374534565224e6 0.0
3.0661374534565224e6 238362.34516354697 0.0
0.0 0.0 0.0

-2.766984267022234e6 3.657078850167607e6 0.0
3.657078850167607e6 764041.2486765321 0.0
0.0 0.0 0.0

-3.419044490865927e6 6.729511203509951e6 0.0
6.729511203509951e6 720606.8962838801 0.0
0.0 0.0 0.0

-1.7015112442736079e6 3.350099355853193e6 0.0
3.350099355853193e6 -221530.30082484486 0.0
0.0 0.0 0.0

215355.74864750693 3.5033660862404346e6 0.0
3.5033660862404346e6 -1.6179496189091178e6 0.0
0.0 0.0 0.0

-1.2832222946349976e6 9.791293164228115e6 0.0
9.791293164228115e6 -70691.95207055035 0.0
0.0 0.0 0.0

-718206.3601780854 2.4440743664109497e6 0.0
2.4440743664109497e6 101277.51768790191 0.0
0.0 0.0 0.0

-176457.27853838075 3.5650732231224556e6 0.0
3.5650732231224556e6 -2.6246311042340454e6 0.0
0.0 0.0 0.0

-1.1260672251918125e6 4.5887779099649405e6 0.0
4.5887779099649405e6 595042.6723434543 0.0
0.0 0.0 0.0

-3.04043457620346e6 4.277557359833914e6 0.0
4.277557359833914e6 912436.8525295348 0.0
0.0 0.0 0.0

-997881.0811573323 6.296477651092309e6 0.0
6.296477651092309e6 254062.09732349165 0.0
0.0 0.0 0.0

-1.6124774425524424e6 4.191630109912708e6 0.0
4.191630109912708e6 3.5569231065762863e6 0.0
0.0 0.0 0.0

149421.29835456284 4.870759063879294e6 0.0
4.870759063879294e6 498071.0649986145 0.0
0.0 0.0 0.0

-966339.3301505646 4.4218780198672945e6 0.0
4.4218780198672945e6 -1.4596833090943322e6 0.0
0.0 0.0 0.0

-301623.3724220876 6.887068481631048e6 0.0
6.887068481631048e6 -402197.4072467378 0.0
0.0 0.0 0.0

-9.867350588707397e6 4.762799285479751e6 0.0
4.762799285479751e6 4.424897659306277e6 0.0
0.0 0.0 0.0

-2.652361520435898e6 5.811708252142695e6 0.0
5.811708252142695e6 1.4944952078285962e6 0.0
0.0 0.0 0.0

4.96954017653259e6 7.478093924160414e6 0.0
7.478093924160414e6 1.23082961213475e6 0.0
0.0 0.0 0.0

-1.0113301030448752e6 2.73769174189542e6 0.0
2.73769174189542e6 -795983.9864035145 0.0
0.0 0.0 0.0

-2.0582036522905778e6 3.134548385928937e6 0.0
3.134548385928937e6 185813.32997070986 0.0
0.0 0.0 0.0

-1.5296141689971902e6 6.707442871834818e6 0.0
6.707442871834818e6 -1.0355730612340745e6 0.0
0.0 0.0 0.0

-3.548535964264213e6 7.0617081243651975e6 0.0
7.0617081243651975e6 796656.612696738 0.0
0.0 0.0 0.0

-380402.86033934774 4.0753234146053614e6 0.0
4.0753234146053614e6 -2.4391987205295125e6 0.0
0.0 0.0 0.0

-120859.32826177566 1.9746199050262223e6 0.0
1.9746199050262223e6 -2.1491688958820133e6 0.0
0.0 0.0 0.0

-1.0850968352800375e6 6.56696257287052e6 0.0
6.56696257287052e6 -1.2731181327394114e6 0.0
0.0 0.0 0.0

-2.2408950548466193e6 4.789833739181862e6 0.0
4.789833739181862e6 900028.4740979181 0.0
0.0 0.0 0.0

-2.0033087583074158e6 3.6156724234091197e6 0.0
3.6156724234091197e6 19070.76737888134 0.0
0.0 0.0 0.0

-143932.41161033843 5.300814496603634e6 0.0
5.300814496603634e6 -1.654679429235313e6 0.0
0.0 0.0 0.0

-771985.438913787 2.432310835422934e6 0.0
2.432310835422934e6 -707599.3694528996 0.0
0.0 0.0 0.0

-1.6098903425180493e6 3.4525828037661267e6 0.0
3.4525828037661267e6 -63378.05073134601 0.0
0.0 0.0 0.0

-858738.4770044779 6.333240830487093e6 0.0
6.333240830487093e6 -1.204838799358752e6 0.0
0.0 0.0 0.0

-8.059635610536068e6 5.204837410107208e6 0.0
5.204837410107208e6 3.638993526938734e6 0.0
0.0 0.0 0.0

-1.7669419893289662e6 3.582255531043578e6 0.0
3.582255531043578e6 55658.50001854182 0.0
0.0 0.0 0.0

-511873.5770783255 2.1737506344611174e6 0.0
2.1737506344611174e6 -651110.7710810076 0.0
0.0 0.0 0.0

2.611503379011742e6 5.50914563168626e6 0.0
5.50914563168626e6 1.7415914856372199e6 0.0
0.0 0.0 0.0

277.2459433618933 5.230913983460511e6 0.0
5.230913983460511e6 -2.885454247831572e6 0.0
0.0 0.0 0.0

-2.8350198440031614e6 3.781338829248289e6 0.0
3.781338829248289e6 887739.9697655097 0.0
0.0 0.0 0.0

-742593.0057859486 2.6880505987007995e6 0.0
2.6880505987007995e6 -639780.618933189 0.0
0.0 0.0 0.0

-793327.2821751914 3.078435811497175e6 0.0
3.078435811497175e6 -1.0046384396209947e6 0.0
0.0 0.0 0.0

-843379.5610220941 4.602059157489522e6 0.0
4.602059157489522e6 -1.6085828644618802e6 0.0
0.0 0.0 0.0

-7.16090777184396e6 5.40989949791054e6 0.0
5.40989949791054e6 2.864796989450119e6 0.0
0.0 0.0 0.0

-493589.54728567915 4.969163787147006e6 0.0
4.969163787147006e6 -2.0671282288522262e6 0.0
0.0 0.0 0.0

-674445.3174939943 1.7978109729969192e6 0.0
1.7978109729969192e6 -60333.55413771063 0.0
0.0 0.0 0.0

-3.396436423414093e6 4.744156706793815e6 0.0
4.744156706793815e6 1.8760799395016115e6 0.0
0.0 0.0 0.0

-336624.1533587038 2.7285973936467553e6 0.0
2.7285973936467553e6 -894109.3766704383 0.0
0.0 0.0 0.0

-1.5019100419976956e6 4.853208959044171e6 0.0
4.853208959044171e6 -662533.1926110013 0.0
0.0 0.0 0.0

-2.1640742093527694e6 3.353696184750583e6 0.0
3.353696184750583e6 242431.86598503205 0.0
0.0 0.0 0.0

-1.0522230572222113e6 6.20401675135346e6 0.0
6.20401675135346e6 -1.3404308981052348e6 0.0
0.0 0.0 0.0

-6.692585824516969e6 5.5093556282562725e6 0.0
5.5093556282562725e6 2.726780074939137e6 0.0
0.0 0.0 0.0

-2.3179256940683164e6 4.806317408265947e6 0.0
4.806317408265947e6 855096.1783830543 0.0
0.0 0.0 0.0

-1.9215730990572877e6 3.7126866560775163e6 0.0
3.7126866560775163e6 168777.27487215574 0.0
0.0 0.0 0.0

-431954.95138958615 4.400106409270674e6 0.0
4.400106409270674e6 -2.301523550563131e6 0.0
0.0 0.0 0.0

-1.147754448863716e6 2.456727118542899e6 0.0
2.456727118542899e6 -226269.90122812486 0.0
0.0 0.0 0.0

-6.280249227809963e6 5.3546550403773235e6 0.0
5.3546550403773235e6 2.5111533345568893e6 0.0
0.0 0.0 0.0

-54170.07998783211 5.479231293611741e6 0.0
5.479231293611741e6 -2.9887138804931655e6 0.0
0.0 0.0 0.0

-5.568467681203923e6 5.6056706763918325e6 0.0
5.6056706763918325e6 2.1272101393857636e6 0.0
0.0 0.0 0.0

-5.226070856779654e6 5.554267963167275e6 0.0
5.554267963167275e6 1.9924161885788445e6 0.0
0.0 0.0 0.0

-3.363931615816025e6 4.560143291495263e6 0.0
4.560143291495263e6 1.0133305847558258e6 0.0
0.0 0.0 0.0

-3.4725030590414423e6 4.663984690526036e6 0.0
4.663984690526036e6 1.0986145109272897e6 0.0
0.0 0.0 0.0

-3.60970299366822e6 4.783709099956128e6 0.0
4.783709099956128e6 1.1450964049900214e6 0.0
0.0 0.0 0.0

-3.771739934220519e6 4.890769459258344e6 0.0
4.890769459258344e6 1.2720478425591302e6 0.0
0.0 0.0 0.0

-3.862610229608858e6 4.9842209919897765e6 0.0
4.9842209919897765e6 1.295849780918078e6 0.0
0.0 0.0 0.0

-3.979606544681906e6 5.130543786770512e6 0.0
5.130543786770512e6 1.2625978266143973e6 0.0
0.0 0.0 0.0

-1.5421668325499077e6 3.114262985606407e6 0.0
3.114262985606407e6 -67432.19043858012 0.0
0.0 0.0 0.0

-4.227735791515524e6 5.118794197318707e6 0.0
5.118794197318707e6 1.645668731611824e6 0.0
0.0 0.0 0.0

-4.417496007305574e6 5.205748412976287e6 0.0
5.205748412976287e6 1.6837697881328992e6 0.0
0.0 0.0 0.0

-1.5255997031822545e6 3.3623231505807564e6 0.0
3.3623231505807564e6 742422.9448263606 0.0
0.0 0.0 0.0

-4.975468560235286e6 5.431098644004275e6 0.0
5.431098644004275e6 1.9148329511389644e6 0.0
0.0 0.0 0.0

-4.619958117063195e6 5.319063725374593e6 0.0
5.319063725374593e6 1.6624976653808714e6 0.0
0.0 0.0 0.0

-4.731108634048096e6 5.320823391022562e6 0.0
5.320823391022562e6 1.731918063306769e6 0.0
0.0 0.0 0.0

-4.660608661783055e6 5.338031461737593e6 0.0
5.338031461737593e6 1.6921326154537501e6 0.0
0.0 0.0 0.0

-1.0951530890858618e6 3.0014524167892663e6 0.0
3.0014524167892663e6 -455794.8662132821 0.0
0.0 0.0 0.0

-4.982916876261055e6 5.464736432636556e6 0.0
5.464736432636556e6 1.8531382121717683e6 0.0
0.0 0.0 0.0

-4.643217785150352e6 5.276832991995265e6 0.0
5.276832991995265e6 1.750132883406797e6 0.0
0.0 0.0 0.0

-4.590734560700512e6 5.220943355929921e6 0.0
5.220943355929921e6 1.6913480916546364e6 0.0
0.0 0.0 0.0

-4.0401760596092357e6 5.253127660837132e6 0.0
5.253127660837132e6 1.4346298253061795e6 0.0
0.0 0.0 0.0

-3.9695523161878325e6 5.051320808894447e6 0.0
5.051320808894447e6 1.4001424832840096e6 0.0
0.0 0.0 0.0

-3.7982121868081028e6 4.943936910612301e6 0.0
4.943936910612301e6 1.362371423657982e6 0.0
0.0 0.0 0.0

-3.673797591338428e6 4.868602820367661e6 0.0
4.868602820367661e6 1.3016357416622574e6 0.0
0.0 0.0 0.0

-3.5298570614227513e6 4.737833267071679e6 0.0
4.737833267071679e6 1.22216241678086e6 0.0
0.0 0.0 0.0

-3.362992730633479e6 4.63559528422105e6 0.0
4.63559528422105e6 1.1406878456858476e6 0.0
0.0 0.0 0.0

-2.457497385493248e6 4.272465495890642e6 0.0
4.272465495890642e6 342907.71546086913 0.0
0.0 0.0 0.0

-1.5522155156219446e6 3.7611479042335604e6 0.0
3.7611479042335604e6 3.3941442974931197e6 0.0
0.0 0.0 0.0

-5.241181494868309e6 5.538230975671959e6 0.0
5.538230975671959e6 2.0223072184270648e6 0.0
0.0 0.0 0.0

-1.252155541451629e6 5.983343844531677e6 0.0
5.983343844531677e6 -1.3957067422864493e6 0.0
0.0 0.0 0.0

-2.5005347558981422e6 3.5325900663388735e6 0.0
3.5325900663388735e6 744515.7549652141 0.0
0.0 0.0 0.0

-5.538928162039388e6 5.373473042024578e6 0.0
5.373473042024578e6 2.5409057931224946e6 0.0
0.0 0.0 0.0

-564164.5599259759 2.493908301606117e6 0.0
2.493908301606117e6 -26716.81603688706 0.0
0.0 0.0 0.0

-5.898230399786195e6 5.358171653444141e6 0.0
5.358171653444141e6 2.464662889815016e6 0.0
0.0 0.0 0.0

-903992.5938509679 2.4668180478864214e6 0.0
2.4668180478864214e6 332810.60094289697 0.0
0.0 0.0 0.0

-6.562204917051653e6 5.422543436825373e6 0.0
5.422543436825373e6 2.8730105885390667e6 0.0
0.0 0.0 0.0

-1.2715403989009925e6 6.784494088877539e6 0.0
6.784494088877539e6 -881452.3282059475 0.0
0.0 0.0 0.0

-1.0609016833984065e6 6.573428032142301e6 0.0
6.573428032142301e6 -1.284452852527382e6 0.0
0.0 0.0 0.0

-377814.43411591044 4.628360968843518e6 0.0
4.628360968843518e6 -2.461331842792536e6 0.0
0.0 0.0 0.0

-1.9550989732501437e6 3.4984807294473513e6 0.0
3.4984807294473513e6 224759.19425029086 0.0
0.0 0.0 0.0

-1.1991234276253744e6 4.540028981763129e6 0.0
4.540028981763129e6 -1.0010582924181437e6 0.0
0.0 0.0 0.0

-2.0562613413647967e6 4.807956385786306e6 0.0
4.807956385786306e6 -155908.64753446076 0.0
0.0 0.0 0.0

-1.2235066634451356e6 6.706998703504723e6 0.0
6.706998703504723e6 -928108.9774823413 0.0
0.0 0.0 0.0

-37107.3400000789 2.383200244015145e6 0.0
2.383200244015145e6 -1.8221647863478956e6 0.0
0.0 0.0 0.0

-1.5126106749535156e6 2.736651040714105e6 0.0
2.736651040714105e6 -16457.443603841413 0.0
0.0 0.0 0.0

-7.028210714806786e6 5.079370318010278e6 0.0
5.079370318010278e6 3.4425096921176985e6 0.0
0.0 0.0 0.0

-1.2783691925438489e6 9.752862285773024e6 0.0
9.752862285773024e6 -2.1031587334433463e6 0.0
0.0 0.0 0.0

-1.095255159211183e6 2.6914262066427395e6 0.0
2.6914262066427395e6 588699.0775358647 0.0
0.0 0.0 0.0

-1.4466045754269706e6 3.3130944469954437e6 0.0
3.3130944469954437e6 -182774.5162579234 0.0
0.0 0.0 0.0

-4.1596596246375944e6 5.7004203191639315e6 0.0
5.7004203191639315e6 1.3636870076244953e6 0.0
0.0 0.0 0.0

-1.0880607879535551e6 5.760721759518724e6 0.0
5.760721759518724e6 -1.5894083566134176e6 0.0
0.0 0.0 0.0

-5.026119605290428e6 4.004117261866743e6 0.0
4.004117261866743e6 1.7915959307282246e6 0.0
0.0 0.0 0.0

-1.7077085178963332e6 3.326993971768551e6 0.0
3.326993971768551e6 165019.06504639343 0.0
0.0 0.0 0.0

-3.1833690502734813e6 5.249595674226863e6 0.0
5.249595674226863e6 452528.2154772612 0.0
0.0 0.0 0.0

-241790.01643705403 6.961517101374713e6 0.0
6.961517101374713e6 -474620.1942442796 0.0
0.0 0.0 0.0

-7.768321938236647e6 4.755856294048939e6 0.0
4.755856294048939e6 4.413974067802176e6 0.0
0.0 0.0 0.0

-527410.1072575612 5.131605185416052e6 0.0
5.131605185416052e6 -2.0345792311800478e6 0.0
0.0 0.0 0.0

-1.7284817227428555e6 3.061933320913859e6 0.0
3.061933320913859e6 149464.71402000322 0.0
0.0 0.0 0.0

-595960.2861173156 4.581506277087506e6 0.0
4.581506277087506e6 -1.9865343235514557e6 0.0
0.0 0.0 0.0

-1.4162943986721786e6 6.580529079398168e6 0.0
6.580529079398168e6 -1.0889125013519656e6 0.0
0.0 0.0 0.0

-245871.43874202107 5.411176857253706e6 0.0
5.411176857253706e6 -1.3601062198006976e6 0.0
0.0 0.0 0.0

-1.2915223062353611e6 6.249802198371036e6 0.0
6.249802198371036e6 -1.2935004702874455e6 0.0
0.0 0.0 0.0

-159560.4341410731 7.422182236398615e6 0.0
7.422182236398615e6 61543.086514263676 0.0
0.0 0.0 0.0

-2.133336832279789e6 3.441504578343211e6 0.0
3.441504578343211e6 375370.1845193537 0.0
0.0 0.0 0.0

-2.1582632357220743e6 3.7465304391218973e6 0.0
3.7465304391218973e6 129461.10457084293 0.0
0.0 0.0 0.0

-179745.85456495453 1.0726714761998784e7 0.0
1.0726714761998784e7 -2.017254999906749e6 0.0
0.0 0.0 0.0

107720.74576182466 4.790876246499739e6 0.0
4.790876246499739e6 2.0778830601940309e6 0.0
0.0 0.0 0.0

-1.7391166097032558e6 9.251159021448603e6 0.0
9.251159021448603e6 -1.8860671325146297e6 0.0
0.0 0.0 0.0

-1.1830773780178074e6 4.1344261420479864e6 0.0
4.1344261420479864e6 -824785.6785164995 0.0
0.0 0.0 0.0

-1.8687125591159621e6 5.551012038046014e6 0.0
5.551012038046014e6 139623.78073036228 0.0
0.0 0.0 0.0

-976081.0482576988 4.332519155919513e6 0.0
4.332519155919513e6 -1.812077190593363e6 0.0
0.0 0.0 0.0

-2.333650347124186e6 4.782912052133837e6 0.0
4.782912052133837e6 810605.7524861621 0.0
0.0 0.0 0.0

-442149.94203904714 7.2045449276422765e6 0.0
7.2045449276422765e6 -168499.66453631848 0.0
0.0 0.0 0.0

-1.108385121134384e6 3.0372429389676256e6 0.0
3.0372429389676256e6 -85377.07544081245 0.0
0.0 0.0 0.0

-8.395935820935346e6 4.675823988165718e6 0.0
4.675823988165718e6 4.465229348289284e6 0.0
0.0 0.0 0.0

-3.6677669405713594e6 5.312046894388751e6 0.0
5.312046894388751e6 4.89726314447987e6 0.0
0.0 0.0 0.0

-1.691797285911928e6 2.667726581184208e6 0.0
2.667726581184208e6 -130339.56114451721 0.0
0.0 0.0 0.0

121285.88871564192 8.011287105402646e6 0.0
8.011287105402646e6 -1.4788119153104867e6 0.0
0.0 0.0 0.0

-676241.6793987803 5.435321068135268e6 0.0
5.435321068135268e6 -1.9652722719532952e6 0.0
0.0 0.0 0.0

-408178.3343036054 4.1340341412304877e6 0.0
4.1340341412304877e6 -2.212450142972369e6 0.0
0.0 0.0 0.0

-1.9789715498539053e6 3.7308950114241308e6 0.0
3.7308950114241308e6 585619.4687349596 0.0
0.0 0.0 0.0

-6.067049314677238e6 4.561574099291091e6 0.0
4.561574099291091e6 4.287501962397179e6 0.0
0.0 0.0 0.0

-1.8710756229401636e6 3.0277590798794795e6 0.0
3.0277590798794795e6 292264.15789050807 0.0
0.0 0.0 0.0

-1.1012191592060206e6 8.296983226018115e6 0.0
8.296983226018115e6 -1.262998119299422e6 0.0
0.0 0.0 0.0

-4.484343053841667e6 3.9584853514401973e6 0.0
3.9584853514401973e6 1.236103426321569e6 0.0
0.0 0.0 0.0

-1.018120615161042e6 6.477637012018905e6 0.0
6.477637012018905e6 -1.3342680078224074e6 0.0
0.0 0.0 0.0

-2.001303126396818e6 3.1525132567635514e6 0.0
3.1525132567635514e6 372226.67823945894 0.0
0.0 0.0 0.0

-1.2116915480809193e6 2.6496553259053873e6 0.0
2.6496553259053873e6 -250175.10551380774 0.0
0.0 0.0 0.0

-1.9924051667880106e6 3.7169978872113097e6 0.0
3.7169978872113097e6 556173.1909404346 0.0
0.0 0.0 0.0

-1.943343272081966e7 4.846808639399755e6 0.0
4.846808639399755e6 4.679963465992281e6 0.0
0.0 0.0 0.0

-1.4436734110794067e6 3.2293111348414742e6 0.0
3.2293111348414742e6 58514.59253863915 0.0
0.0 0.0 0.0

-552758.3273153063 1.971493334183351e6 0.0
1.971493334183351e6 -756171.8281798502 0.0
0.0 0.0 0.0

-2.266478076989616e6 3.750187913083862e6 0.0
3.750187913083862e6 458920.4566909551 0.0
0.0 0.0 0.0

-2.4879751007145853e6 3.5707963536329586e6 0.0
3.5707963536329586e6 760230.569866752 0.0
0.0 0.0 0.0

-1.4355843236667775e6 5.671275084650599e6 0.0
5.671275084650599e6 -608047.6360464818 0.0
0.0 0.0 0.0

-2.325902754806563e6 3.652567451790206e6 0.0
3.652567451790206e6 309082.0902944956 0.0
0.0 0.0 0.0

54824.13398568079 3.008405699815946e6 0.0
3.008405699815946e6 -514582.683457577 0.0
0.0 0.0 0.0

-564154.4183227515 5.044163414411402e6 0.0
5.044163414411402e6 -1.5357477750309561e6 0.0
0.0 0.0 0.0

-2.6341269867369826e6 3.6700667994102426e6 0.0
3.6700667994102426e6 828305.4897456442 0.0
0.0 0.0 0.0

-626499.7310553086 7.1658517681495845e6 0.0
7.1658517681495845e6 -2.0422649907166115e6 0.0
0.0 0.0 0.0

-670043.2033636002 5.444442663260862e6 0.0
5.444442663260862e6 -1.3950481328465235e6 0.0
0.0 0.0 0.0

-3.163755019709495e6 5.510285794230081e6 0.0
5.510285794230081e6 315817.2623041782 0.0
0.0 0.0 0.0

-1.5458792651420177e6 3.3354690181912817e6 0.0
3.3354690181912817e6 173216.0944447444 0.0
0.0 0.0 0.0

-1.1891816548167584e6 6.6166135452711e6 0.0
6.6166135452711e6 -1.0351989486630158e6 0.0
0.0 0.0 0.0

-2.6537067723815884e6 4.0217221166478135e6 0.0
4.0217221166478135e6 921745.1610678849 0.0
0.0 0.0 0.0

273934.21211726667 5.647430798080536e6 0.0
5.647430798080536e6 -537197.1061852702 0.0
0.0 0.0 0.0

709520.2741132961 866644.1039942403 0.0
866644.1039942403 -1.6407185525723838e6 0.0
0.0 0.0 0.0

571013.2062778122 1.0044412487877039e6 0.0
1.0044412487877039e6 -1.4136448752075236e6 0.0
0.0 0.0 0.0

658052.5444797035 509387.6733863811 0.0
509387.6733863811 -1.1441029962447109e6 0.0
0.0 0.0 0.0

1.372716946355753e6 501778.2701031514 0.0
501778.2701031514 -2.362364541322467e6 0.0
0.0 0.0 0.0

526467.925414675 558392.4521756204 0.0
558392.4521756204 -902516.6219300007 0.0
0.0 0.0 0.0

163328.22062000984 3.8029284835497756e6 0.0
3.8029284835497756e6 -473425.8677036817 0.0
0.0 0.0 0.0

1.4320292755857003e6 202598.78051994496 0.0
202598.78051994496 -1.821795668071825e6 0.0
0.0 0.0 0.0

894759.5687185058 236846.68626843506 0.0
236846.68626843506 -915617.4781620834 0.0
0.0 0.0 0.0

1.9567091746959253e6 1.1508473795815182e6 0.0
1.1508473795815182e6 -2.5625415376125816e6 0.0
0.0 0.0 0.0

599653.9422414307 511046.5750306388 0.0
511046.5750306388 -925354.2461878882 0.0
0.0 0.0 0.0

1.0083306917122438e6 3.232973963925775e6 0.0
3.232973963925775e6 -1.6472308497467667e6 0.0
0.0 0.0 0.0

1.5984813472981441e6 1.8065500426830633e6 0.0
1.8065500426830633e6 -2.6326989182284935e6 0.0
0.0 0.0 0.0

1.07625943752772e6 504382.593469088 0.0
504382.593469088 -1.6860497048804876e6 0.0
0.0 0.0 0.0

-69852.96923111437 2.083054896603685e6 0.0
2.083054896603685e6 -2.257900490347787e6 0.0
0.0 0.0 0.0

31098.474380871397 2.2902702452719263e6 0.0
2.2902702452719263e6 -2.4331829335140856e6 0.0
0.0 0.0 0.0

-159236.8594295227 1.7947313844956595e6 0.0
1.7947313844956595e6 -2.0375046842805077e6 0.0
0.0 0.0 0.0

247252.92463378608 3.427198059216754e6 0.0
3.427198059216754e6 -813640.2843234255 0.0
0.0 0.0 0.0

1.2675631544415671e6 238465.6406618236 0.0
238465.6406618236 -1.6497656686240481e6 0.0
0.0 0.0 0.0

646528.7679207288 484791.1394174887 0.0
484791.1394174887 -989849.3300720453 0.0
0.0 0.0 0.0

34756.90304755897 2.217291626994726e6 0.0
2.217291626994726e6 -2.4210685211840426e6 0.0
0.0 0.0 0.0

101412.82445935765 8.4590288890746e6 0.0
8.4590288890746e6 -591399.0818766119 0.0
0.0 0.0 0.0

1.5274324419504914e6 6.344431875942301e6 0.0
6.344431875942301e6 -342776.3758891177 0.0
0.0 0.0 0.0

-654084.1683793629 7.41893752863163e6 0.0
7.41893752863163e6 -343084.3027595323 0.0
0.0 0.0 0.0

-1.3509868842410336e6 6.83133004582273e6 0.0
6.83133004582273e6 -796626.921365872 0.0
0.0 0.0 0.0

-639772.2177849289 2.6618924175099717e6 0.0
2.6618924175099717e6 -70113.22831334526 0.0
0.0 0.0 0.0

-1.2248101863941117e6 2.5005634083130737e6 0.0
2.5005634083130737e6 416452.86328961607 0.0
0.0 0.0 0.0

-2.393766754108336e6 4.778074756040287e6 0.0
4.778074756040287e6 805357.047195964 0.0
0.0 0.0 0.0

-612913.4708716099 4.404560300483972e6 0.0
4.404560300483972e6 -1.8469450594556953e6 0.0
0.0 0.0 0.0

-2.1360819721533204e6 3.3535781967874668e6 0.0
3.3535781967874668e6 476976.94616626773 0.0
0.0 0.0 0.0

-1.0117220023271987e7 4.663761710963037e6 0.0
4.663761710963037e6 5.347571754009003e6 0.0
0.0 0.0 0.0

-1.8154040966426418e6 2.838736523683421e6 0.0
2.838736523683421e6 -21267.145166361937 0.0
0.0 0.0 0.0

-1.0948123351415424e6 4.583839979785258e6 0.0
4.583839979785258e6 1.121741278483918e6 0.0
0.0 0.0 0.0

44386.481384082406 5.714386114221638e6 0.0
5.714386114221638e6 -986302.3260412404 0.0
0.0 0.0 0.0

-1.3527987853891235e6 5.96933806651396e6 0.0
5.96933806651396e6 -136544.0169795662 0.0
0.0 0.0 0.0

-2.107859705996071e6 3.793030568089391e6 0.0
3.793030568089391e6 668167.4766793763 0.0
0.0 0.0 0.0

-1.0195742168495586e6 6.684096049620412e6 0.0
6.684096049620412e6 -870511.7296389985 0.0
0.0 0.0 0.0

-1.9097382726381852e6 3.71008695903978e6 0.0
3.71008695903978e6 510956.0515659638 0.0
0.0 0.0 0.0

-2.461662502370872e6 3.5948245742238644e6 0.0
3.5948245742238644e6 447786.61302367656 0.0
0.0 0.0 0.0

-1.976942392769937e6 3.876038408663082e6 0.0
3.876038408663082e6 -58399.79422699637 0.0
0.0 0.0 0.0

-1.5934540614879224e6 3.1674633186525744e6 0.0
3.1674633186525744e6 23845.653314076597 0.0
0.0 0.0 0.0

-1.132104080905835e6 5.066483752427607e6 0.0
5.066483752427607e6 -1.2018136995694137e6 0.0
0.0 0.0 0.0

-1.8680008621715568e6 3.0191321079422124e6 0.0
3.0191321079422124e6 340483.6485213572 0.0
0.0 0.0 0.0

-450496.634860949 8.680296932756152e6 0.0
8.680296932756152e6 -2.107629565798483e6 0.0
0.0 0.0 0.0

1.1698762790493555e6 576733.5592325835 0.0
576733.5592325835 -955500.1602948243 0.0
0.0 0.0 0.0

655311.0773091885 868020.9123615419 0.0
868020.9123615419 -447779.2198884934 0.0
0.0 0.0 0.0

643533.0355659882 480606.6567182016 0.0
480606.6567182016 -1.0616739551020563e6 0.0
0.0 0.0 0.0

1.3848297221705108e6 313867.92603257566 0.0
313867.92603257566 -1.437939216773455e6 0.0
0.0 0.0 0.0

1.3481046465664695e6 179642.76401674905 0.0
179642.76401674905 -1.3639216982754706e6 0.0
0.0 0.0 0.0

66502.57940616284 2.169902761985341e6 0.0
2.169902761985341e6 -1.987465031571899e6 0.0
0.0 0.0 0.0

84013.98006496544 2.2286029543622723e6 0.0
2.2286029543622723e6 -1.868425817493284e6 0.0
0.0 0.0 0.0

518839.8569170606 557782.0957709465 0.0
557782.0957709465 -858466.3726244859 0.0
0.0 0.0 0.0

-1.4095065524416913e6 4.317406096647005e6 0.0
4.317406096647005e6 -1.8068608934797524e6 0.0
0.0 0.0 0.0

1.0320210251071699e6 5.928630860229036e6 0.0
5.928630860229036e6 -2.0911767511408245e6 0.0
0.0 0.0 0.0

-774117.5609129106 7.909903626427477e6 0.0
7.909903626427477e6 -1.9207352886867125e6 0.0
0.0 0.0 0.0

651829.7560158881 7.84281743604963e6 0.0
7.84281743604963e6 -2.1101328558431217e6 0.0
0.0 0.0 0.0

-1.8132519807376435e6 2.7719718729026383e6 0.0
2.7719718729026383e6 97489.50268303847 0.0
0.0 0.0 0.0

-1.6383507944276277e6 4.1325695496208477e6 0.0
4.1325695496208477e6 3.014641024432528e6 0.0
0.0 0.0 0.0

-1.8202865314746026e6 3.641937058536175e6 0.0
3.641937058536175e6 534196.8694276051 0.0
0.0 0.0 0.0

-387115.4957986296 4.806923271064463e6 0.0
4.806923271064463e6 -1.0347181017827181e6 0.0
0.0 0.0 0.0

-2.5932143647010103e6 5.473409380530756e6 0.0
5.473409380530756e6 242348.82335725077 0.0
0.0 0.0 0.0

-749996.9630429824 6.629852795135306e6 0.0
6.629852795135306e6 -67038.55575717191 0.0
0.0 0.0 0.0

-1.1824579913155138e6 2.835868414249809e6 0.0
2.835868414249809e6 408036.8793483879 0.0
0.0 0.0 0.0

-1.2096589160368068e6 7.15654596211184e6 0.0
7.15654596211184e6 -1.2345293868087376e6 0.0
0.0 0.0 0.0

-947536.4674561084 6.484301016520147e6 0.0
6.484301016520147e6 -1.3745274450158519e6 0.0
0.0 0.0 0.0

-1.8221153681358655e6 3.7477779114208682e6 0.0
3.7477779114208682e6 -171976.6574234233 0.0
0.0 0.0 0.0

-880426.9288500311 6.487935906304444e6 0.0
6.487935906304444e6 32382.047886179585 0.0
0.0 0.0 0.0

-1.3801367336715076e6 2.641152967581718e6 0.0
2.641152967581718e6 -155129.98729328922 0.0
0.0 0.0 0.0

-1.5796928307882606e6 5.056783699076648e6 0.0
5.056783699076648e6 -395538.94887493673 0.0
0.0 0.0 0.0

-2.7486254688197477e6 3.9138414813342853e6 0.0
3.9138414813342853e6 812452.0941321012 0.0
0.0 0.0 0.0

-1.9613303311776288e6 8.69055200118301e6 0.0
8.69055200118301e6 -1.5922960219612897e6 0.0
0.0 0.0 0.0

-2.105939717006251e6 3.6246467616350483e6 0.0
3.6246467616350483e6 338436.99991350085 0.0
0.0 0.0 0.0

1.4272773225888817e6 1.345299248603138e6 0.0
1.345299248603138e6 789924.2689337253 0.0
0.0 0.0 0.0

-865347.3701065925 6.523239144023192e6 0.0
6.523239144023192e6 122251.51354098739 0.0
0.0 0.0 0.0

-204120.02645947563 3.950851988919679e6 0.0
3.950851988919679e6 -2.572779953183135e6 0.0
0.0 0.0 0.0

-465614.225293078 4.635206577410255e6 0.0
4.635206577410255e6 -2.126228536199653e6 0.0
0.0 0.0 0.0

-1.4279340582415368e6 4.947016100620607e6 0.0
4.947016100620607e6 -511711.43628259323 0.0
0.0 0.0 0.0

-2.329879850208238e6 5.425463156346549e6 0.0
5.425463156346549e6 346967.8303096823 0.0
0.0 0.0 0.0

2.0375308260418535e6 2.4258003054416184e6 0.0
2.4258003054416184e6 -3.877948029064781e6 0.0
0.0 0.0 0.0

-1.742531880834908e6 2.8845086235177917e6 0.0
2.8845086235177917e6 209941.56903734943 0.0
0.0 0.0 0.0

-2.17141781333313e6 3.5308118177352003e6 0.0
3.5308118177352003e6 194767.7579961822 0.0
0.0 0.0 0.0

-2.0756057565150235e6 3.8504123351893e6 0.0
3.8504123351893e6 289337.2914001136 0.0
0.0 0.0 0.0

-349467.0866557215 4.357379067141254e6 0.0
4.357379067141254e6 -2.076117108666797e6 0.0
0.0 0.0 0.0

-696880.3683905958 5.848312016155087e6 0.0
5.848312016155087e6 -1.832007657293784e6 0.0
0.0 0.0 0.0

-1.4997963701571382e6 2.645623738477105e6 0.0
2.645623738477105e6 -145959.86036178796 0.0
0.0 0.0 0.0

-1.946843885567585e6 3.716450720880936e6 0.0
3.716450720880936e6 503426.30679399404 0.0
0.0 0.0 0.0

-599943.2752436813 4.787059015066133e6 0.0
4.787059015066133e6 -1.8804482636037332e6 0.0
0.0 0.0 0.0

-1.9656197237366932e6 4.944777317058825e6 0.0
4.944777317058825e6 55850.57948266878 0.0
0.0 0.0 0.0

1.7378457293147505e6 2.145998266286337e6 0.0
2.145998266286337e6 -2.4732642132671056e6 0.0
0.0 0.0 0.0

-3.515199830183533e6 8.617706788421903e6 0.0
8.617706788421903e6 1.4048182506459572e6 0.0
0.0 0.0 0.0

2.402778770548556e6 1.925468418955944e6 0.0
1.925468418955944e6 -3.590416139810675e6 0.0
0.0 0.0 0.0

-914691.1854761795 2.8511154830365567e6 0.0
2.8511154830365567e6 -619208.7711821296 0.0
0.0 0.0 0.0

-2.400100590043386e6 4.054963167869843e6 0.0
4.054963167869843e6 986149.0609140539 0.0
0.0 0.0 0.0

-1.51711084625506e6 2.5849598161239186e6 0.0
2.5849598161239186e6 39159.45886379038 0.0
0.0 0.0 0.0

-1.648816353318585e6 2.776929009199103e6 0.0
2.776929009199103e6 -211457.6054926308 0.0
0.0 0.0 0.0

-2.327905799193036e6 3.468115930798325e6 0.0
3.468115930798325e6 355546.0771121499 0.0
0.0 0.0 0.0

-1.2602941052478529e6 2.5172156881810483e6 0.0
2.5172156881810483e6 -327453.41344412486 0.0
0.0 0.0 0.0

-17972.44185242962 2.7921548828972145e6 0.0
2.7921548828972145e6 -628451.4236017178 0.0
0.0 0.0 0.0

-1.878700105066847e6 3.6056180010731835e6 0.0
3.6056180010731835e6 464927.00899074005 0.0
0.0 0.0 0.0

-2.09947110278449e6 3.489272036156938e6 0.0
3.489272036156938e6 584190.978895862 0.0
0.0 0.0 0.0

44646.69280799397 2.0200170464016965e6 0.0
2.0200170464016965e6 -1.1358854120780567e6 0.0
0.0 0.0 0.0

-1.6605376023547018e6 3.4341521255835732e6 0.0
3.4341521255835732e6 284889.4096108447 0.0
0.0 0.0 0.0

-2.315181855360591e6 3.882002637915818e6 0.0
3.882002637915818e6 258253.7452954502 0.0
0.0 0.0 0.0

-529954.7785806137 5.464670688148728e6 0.0
5.464670688148728e6 -1.8429724007691944e6 0.0
0.0 0.0 0.0

-2.1579995544450106e6 5.467637036389987e6 0.0
5.467637036389987e6 222605.30754117796 0.0
0.0 0.0 0.0

-1.664508563255764e6 3.623982769209002e6 0.0
3.623982769209002e6 -292993.4681195664 0.0
0.0 0.0 0.0

1.9067543120615482e6 2.0141079112993896e6 0.0
2.0141079112993896e6 -1.7568286050078706e6 0.0
0.0 0.0 0.0

-2.716234344888926e6 4.775999384340422e6 0.0
4.775999384340422e6 844070.052196718 0.0
0.0 0.0 0.0

-652269.8323082048 2.412762383666127e6 0.0
2.412762383666127e6 -317905.1616192551 0.0
0.0 0.0 0.0

-1.7475546398184432e6 3.124302701294601e6 0.0
3.124302701294601e6 -158157.01916153688 0.0
0.0 0.0 0.0

-2.4147191299218656e6 4.0990628478589244e6 0.0
4.0990628478589244e6 541242.1946516472 0.0
0.0 0.0 0.0

-2.7564726743945684e6 3.833706047388351e6 0.0
3.833706047388351e6 657569.4678034836 0.0
0.0 0.0 0.0

-2.132493528321923e6 4.0140194016696746e6 0.0
4.0140194016696746e6 52462.13705072645 0.0
0.0 0.0 0.0

-2.280892869855091e6 3.422121663743336e6 0.0
3.422121663743336e6 526552.5699537446 0.0
0.0 0.0 0.0

731594.3491865648 3.495224964192901e6 0.0
3.495224964192901e6 -1.2894455033058058e6 0.0
0.0 0.0 0.0

-2.9594405888922857e6 6.052271611246595e6 0.0
6.052271611246595e6 562337.0457608566 0.0
0.0 0.0 0.0

-763529.3871543548 4.925797482975532e6 0.0
4.925797482975532e6 -2.4213460437853574e6 0.0
0.0 0.0 0.0

-2.288014893140753e6 1.1574040510827303e7 0.0
1.1574040510827303e7 7.463341317275426e6 0.0
0.0 0.0 0.0

-1.1216260469111498e6 6.469544240520888e6 0.0
6.469544240520888e6 -1.1841372264190868e6 0.0
0.0 0.0 0.0

-1.6999933368431819e6 4.619682517120105e6 0.0
4.619682517120105e6 -187711.17950854637 0.0
0.0 0.0 0.0

-346038.0928258904 5.606686230683473e6 0.0
5.606686230683473e6 -2.355082862756286e6 0.0
0.0 0.0 0.0

-1.5020988115454738e6 3.5003052792298775e6 0.0
3.5003052792298775e6 -422619.102911984 0.0
0.0 0.0 0.0

-1.2284158172029504e6 7.172711103243948e6 0.0
7.172711103243948e6 -601234.6962688153 0.0
0.0 0.0 0.0

-1.2326690229614596e6 4.124985061884674e6 0.0
4.124985061884674e6 -803656.0611249534 0.0
0.0 0.0 0.0

-2.2803911355258333e6 3.3457939659642386e6 0.0
3.3457939659642386e6 392747.32417209167 0.0
0.0 0.0 0.0

-16297.335305421846 5.250412103440503e6 0.0
5.250412103440503e6 -2.9143876957317893e6 0.0
0.0 0.0 0.0

-2.127873440412122e6 5.590661666028352e6 0.0
5.590661666028352e6 235803.0378180307 0.0
0.0 0.0 0.0

-2.3169134770329595e6 3.6987522836029953e6 0.0
3.6987522836029953e6 743166.9794346573 0.0
0.0 0.0 0.0

-1.2062240007384578e6 3.7568821918848394e6 0.0
3.7568821918848394e6 -615033.308100068 0.0
0.0 0.0 0.0

-765651.6225695941 6.076669589436723e6 0.0
6.076669589436723e6 -1.702280676515513e6 0.0
0.0 0.0 0.0

1.0303319205604518e6 9.645361696930118e6 0.0
9.645361696930118e6 3.4344367604045924e6 0.0
0.0 0.0 0.0

-1.8499631183683176e6 7.203066738930985e6 0.0
7.203066738930985e6 -652595.9742166663 0.0
0.0 0.0 0.0

-1.154560996920405e7 4.1002485195280104e6 0.0
4.1002485195280104e6 6.452290765079379e6 0.0
0.0 0.0 0.0

-1.0153029143755324e6 6.409437693091211e6 0.0
6.409437693091211e6 -1.328989313148351e6 0.0
0.0 0.0 0.0

-1.8934568077291779e6 3.9768956765277735e6 0.0
3.9768956765277735e6 97480.60759579227 0.0
0.0 0.0 0.0

1.0950888389712712e6 3.2963652272339608e6 0.0
3.2963652272339608e6 -1.2968298888620138e6 0.0
0.0 0.0 0.0

-833845.7983079092 5.718890773847304e6 0.0
5.718890773847304e6 -1.8931235721705044e6 0.0
0.0 0.0 0.0

-2.576452056194513e6 3.7997070520389555e6 0.0
3.7997070520389555e6 706601.6350305309 0.0
0.0 0.0 0.0

-473424.1228941047 5.519850175902951e6 0.0
5.519850175902951e6 -2.3723135695279287e6 0.0
0.0 0.0 0.0

-1.2934928566683305e6 3.4768913323585354e6 0.0
3.4768913323585354e6 -400055.74607069517 0.0
0.0 0.0 0.0

-766767.8664530421 5.934087419562798e6 0.0
5.934087419562798e6 -1.9705554392526841e6 0.0
0.0 0.0 0.0

-1.7150359825204087e6 2.9571871963142185e6 0.0
2.9571871963142185e6 254646.27981229872 0.0
0.0 0.0 0.0

-909314.948010517 6.343082631340489e6 0.0
6.343082631340489e6 -1.4783924763221147e6 0.0
0.0 0.0 0.0

-1.722332202745559e6 2.853099383408931e6 0.0
2.853099383408931e6 101534.82603495696 0.0
0.0 0.0 0.0

-1.122647342717485e6 6.357650102699291e6 0.0
6.357650102699291e6 -1.1593095501298022e6 0.0
0.0 0.0 0.0

-9.681097519146997e6 4.353273146959954e6 0.0
4.353273146959954e6 5.929732249140611e6 0.0
0.0 0.0 0.0

1.1515898059395244e6 238274.08611118168 0.0
238274.08611118168 -1.4635685666253536e6 0.0
0.0 0.0 0.0

-1.7046266362331363e6 3.221249048981791e6 0.0
3.221249048981791e6 184798.4316900085 0.0
0.0 0.0 0.0

-2.277865013526233e6 3.556300847609223e6 0.0
3.556300847609223e6 496609.29648711695 0.0
0.0 0.0 0.0

-328410.86538295186 -130462.28074496253 0.0
-130462.28074496253 1.226582224928721e6 0.0
0.0 0.0 0.0

-441277.8401412608 6.666613070196128e6 0.0
6.666613070196128e6 -419926.3830395539 0.0
0.0 0.0 0.0

-1.3343095280483998e6 3.7624111217801515e6 0.0
3.7624111217801515e6 -612971.8057883184 0.0
0.0 0.0 0.0

-1.6146199944322365e6 7.892579346911001e6 0.0
7.892579346911001e6 -467141.9284018833 0.0
0.0 0.0 0.0

-1.3474367148211582e6 6.275461875805127e6 0.0
6.275461875805127e6 -903203.5872952228 0.0
0.0 0.0 0.0

-915326.6830196676 3.5186445843718196e6 0.0
3.5186445843718196e6 -1.0703694325576443e6 0.0
0.0 0.0 0.0

-1.7658935035511728e6 4.521230532081741e6 0.0
4.521230532081741e6 -342025.00392460194 0.0
0.0 0.0 0.0

-1.9539175291562e6 3.734510041348461e6 0.0
3.734510041348461e6 668184.2402760964 0.0
0.0 0.0 0.0

-1.9827978478488375e6 3.1442195812886953e6 0.0
3.1442195812886953e6 417898.67503711756 0.0
0.0 0.0 0.0

-1.787226688137082e6 2.950490965622352e6 0.0
2.950490965622352e6 -94337.69887869048 0.0
0.0 0.0 0.0

-192363.36837719532 4.2075504883077275e6 0.0
4.2075504883077275e6 -2.2864664655736014e6 0.0
0.0 0.0 0.0

-2.5927771300855004e6 5.014050339399349e6 0.0
5.014050339399349e6 712054.6043108422 0.0
0.0 0.0 0.0

313083.3461538556 2.4856943881197073e6 0.0
2.4856943881197073e6 -775902.8729027687 0.0
0.0 0.0 0.0

-1.9257272344934791e6 3.738648410439482e6 0.0
3.738648410439482e6 565123.0388008928 0.0
0.0 0.0 0.0

-990123.4961256275 4.554778220281749e6 0.0
4.554778220281749e6 -1.6829481018241837e6 0.0
0.0 0.0 0.0

-656812.3885486654 3.2565070588254915e6 0.0
3.2565070588254915e6 -1.539582837221955e6 0.0
0.0 0.0 0.0

-830942.6301011378 6.233252700080515e6 0.0
6.233252700080515e6 -1.601029465796049e6 0.0
0.0 0.0 0.0

-782517.2228781462 2.162413842375363e6 0.0
2.162413842375363e6 -594938.9256958652 0.0
0.0 0.0 0.0

-1.4578750787817342e6 3.285433483360024e6 0.0
3.285433483360024e6 1.1781334523823266e6 0.0
0.0 0.0 0.0

-1.6443805947044552e6 3.9754281842925884e6 0.0
3.9754281842925884e6 -371514.4294070898 0.0
0.0 0.0 0.0

1.2063090294248983e6 293746.04310813476 0.0
293746.04310813476 -1.1681001962392735e6 0.0
0.0 0.0 0.0

-1.611749874597894e6 2.7418009920626557e6 0.0
2.7418009920626557e6 -12395.238884780789 0.0
0.0 0.0 0.0

-1.8087846139730238e6 8.615769256611897e6 0.0
8.615769256611897e6 -546880.3414666575 0.0
0.0 0.0 0.0

-307861.66549554426 4.470401925701208e6 0.0
4.470401925701208e6 -1.7840151668657977e6 0.0
0.0 0.0 0.0

-651078.5508332311 9.465119273962302e6 0.0
9.465119273962302e6 -1.6333361262457604e6 0.0
0.0 0.0 0.0

-409172.765205396 2.638756073549674e6 0.0
2.638756073549674e6 -2.352446935753621e6 0.0
0.0 0.0 0.0

-1.444980124568986e6 3.5996817227388867e6 0.0
3.5996817227388867e6 -269219.1881855185 0.0
0.0 0.0 0.0

-1.0061558628169e6 6.054493048572484e6 0.0
6.054493048572484e6 1.0351249859276064e6 0.0
0.0 0.0 0.0

-2.7795675617311522e6 4.0366837231669887e6 0.0
4.0366837231669887e6 642802.7157088817 0.0
0.0 0.0 0.0

-2.211828849036542e6 3.926602330977746e6 0.0
3.926602330977746e6 1.365136252153314e6 0.0
0.0 0.0 0.0

-2.317483985646232e6 3.9731822525654836e6 0.0
3.9731822525654836e6 1.007202902754913e6 0.0
0.0 0.0 0.0

-562813.0690634722 4.458869332598749e6 0.0
4.458869332598749e6 -1.6123705914793338e6 0.0
0.0 0.0 0.0

-1.6159266451342858e6 2.834597469178001e6 0.0
2.834597469178001e6 123078.8049221827 0.0
0.0 0.0 0.0

-730654.1771997713 6.53358447972354e6 0.0
6.53358447972354e6 -400997.51662750624 0.0
0.0 0.0 0.0

-977408.6662261127 3.1427264786076215e6 0.0
3.1427264786076215e6 -856295.5526137572 0.0
0.0 0.0 0.0

-745353.0675916213 5.033816640211624e6 0.0
5.033816640211624e6 -1.7409468684053826e6 0.0
0.0 0.0 0.0

-1.5930413061443109e6 3.720536913377782e6 0.0
3.720536913377782e6 -143439.55933170428 0.0
0.0 0.0 0.0

-1.2323911277845774e6 6.554885322187784e6 0.0
6.554885322187784e6 -1.0600238760100012e6 0.0
0.0 0.0 0.0

-1.745660316282142e6 2.9091930140770013e6 0.0
2.9091930140770013e6 277627.8845441077 0.0
0.0 0.0 0.0

-468891.10859819443 5.647450208720667e6 0.0
5.647450208720667e6 -2.2953926264292384e6 0.0
0.0 0.0 0.0

-1.7432437684789381e6 3.8444183027066183e6 0.0
3.8444183027066183e6 -22196.28864373616 0.0
0.0 0.0 0.0

-505175.95438459795 7.588263181459285e6 0.0
7.588263181459285e6 -1.2109445044739232e6 0.0
0.0 0.0 0.0

-270194.6274297745 151528.36784518659 0.0
151528.36784518659 1.243211039561072e6 0.0
0.0 0.0 0.0

-5.05856043560454e6 4.268972674698927e6 0.0
4.268972674698927e6 1.7013751551906888e6 0.0
0.0 0.0 0.0

-1.5327621549627562e6 5.841978250065541e6 0.0
5.841978250065541e6 -28365.786399712844 0.0
0.0 0.0 0.0

-1.670003912082625e6 2.4527142681254745e6 0.0
2.4527142681254745e6 2.78632429908636e6 0.0
0.0 0.0 0.0

-2.5338268292215886e6 4.571161575001097e6 0.0
4.571161575001097e6 861445.6805818535 0.0
0.0 0.0 0.0

-1.614138896395894e6 2.727377838894598e6 0.0
2.727377838894598e6 113798.51180803799 0.0
0.0 0.0 0.0

-1.2569074557782635e6 4.2060717905263025e6 0.0
4.2060717905263025e6 -676103.1981946975 0.0
0.0 0.0 0.0

-1.4439692311630615e6 3.953381844973558e6 0.0
3.953381844973558e6 -345777.4076749829 0.0
0.0 0.0 0.0

-735498.0018720379 1.9504306448982758e6 0.0
1.9504306448982758e6 -708695.1662346032 0.0
0.0 0.0 0.0

-1.7724193398060985e6 8.810106934418855e6 0.0
8.810106934418855e6 -577764.8924531268 0.0
0.0 0.0 0.0

-1.070878199085024e6 5.229598632443787e6 0.0
5.229598632443787e6 -1.1454234256880607e6 0.0
0.0 0.0 0.0

91623.32066484168 2.8862307273119097e6 0.0
2.8862307273119097e6 -685136.639986675 0.0
0.0 0.0 0.0

-2.28546974066902e6 3.955583097359056e6 0.0
3.955583097359056e6 1.170001105659111e6 0.0
0.0 0.0 0.0

-2.6239773730901894e6 4.1526578690390307e6 0.0
4.1526578690390307e6 464554.4783285998 0.0
0.0 0.0 0.0

-734252.1900191666 7.619940253756981e6 0.0
7.619940253756981e6 -1.1390785379605978e6 0.0
0.0 0.0 0.0

-2.7850367236034167e6 5.3063896277604215e6 0.0
5.3063896277604215e6 474377.1460344035 0.0
0.0 0.0 0.0

2.282615617071118e6 3.539978678764151e6 0.0
3.539978678764151e6 -3.4502253896559947e6 0.0
0.0 0.0 0.0

-1.1972985739812187e6 2.8792325635027126e6 0.0
2.8792325635027126e6 -643726.949107152 0.0
0.0 0.0 0.0

1.930219141001121e6 6.817196840840384e6 0.0
6.817196840840384e6 996519.3900232415 0.0
0.0 0.0 0.0

-330381.3601438216 3.3724060493273917e6 0.0
3.3724060493273917e6 -2.6685572388787414e6 0.0
0.0 0.0 0.0

-949804.9276158278 5.521078297959647e6 0.0
5.521078297959647e6 -1.7091735659703417e6 0.0
0.0 0.0 0.0

-1.6355364997751375e6 4.581824447383522e6 0.0
4.581824447383522e6 2.7443606973397844e6 0.0
0.0 0.0 0.0

-1.0967212570246877e6 6.460319974360925e6 0.0
6.460319974360925e6 -1.208445302311935e6 0.0
0.0 0.0 0.0

-364074.63948272273 2.716044406537438e6 0.0
2.716044406537438e6 -370111.3999821113 0.0
0.0 0.0 0.0

-4.52240095889682e6 4.101670347062292e6 0.0
4.101670347062292e6 1.3359058380388045e6 0.0
0.0 0.0 0.0

-1.8060535219469303e6 4.908613002642485e6 0.0
4.908613002642485e6 2.5390726915215375e6 0.0
0.0 0.0 0.0

-2.522971937709575e6 4.796925996304711e6 0.0
4.796925996304711e6 812120.5040375841 0.0
0.0 0.0 0.0

-7.807497929548694e6 5.122905622874367e6 0.0
5.122905622874367e6 6.65454864333242e6 0.0
0.0 0.0 0.0

-1.9339119508050662e6 2.9316996816484104e6 0.0
2.9316996816484104e6 142845.90743138536 0.0
0.0 0.0 0.0

5.619659755667261e6 5.974015767915639e6 0.0
5.974015767915639e6 -61133.564996320754 0.0
0.0 0.0 0.0

-1.4487832698388572e6 6.3618801336958585e6 0.0
6.3618801336958585e6 -816463.4829738943 0.0
0.0 0.0 0.0

-728195.080544347 4.800828293691112e6 0.0
4.800828293691112e6 -2.2056914932740023e6 0.0
0.0 0.0 0.0

-1.689738201223961e6 8.20673170754615e6 0.0
8.20673170754615e6 -433623.2000747829 0.0
0.0 0.0 0.0

-2.8925235573565387e6 6.620667302034942e6 0.0
6.620667302034942e6 507541.78230174386 0.0
0.0 0.0 0.0

-148290.3796727654 1.701054284219233e6 0.0
1.701054284219233e6 -1.169781604864812e6 0.0
0.0 0.0 0.0

-1.8522068910685815e6 5.512121729263565e6 0.0
5.512121729263565e6 463984.9170097833 0.0
0.0 0.0 0.0

-436202.5519345389 5.421466739245918e6 0.0
5.421466739245918e6 -2.307650880372875e6 0.0
0.0 0.0 0.0

-1.0754773590435036e6 2.0596784588551375e6 0.0
2.0596784588551375e6 248705.18070380815 0.0
0.0 0.0 0.0

-2.623908977914377e6 3.9044546938518677e6 0.0
3.9044546938518677e6 514198.3519774155 0.0
0.0 0.0 0.0

-1.5693551480516102e6 2.7856585368284076e6 0.0
2.7856585368284076e6 52057.4890957711 0.0
0.0 0.0 0.0

-2.5730110331495134e6 4.0077814637167356e6 0.0
4.0077814637167356e6 676764.556880123 0.0
0.0 0.0 0.0

-1.2978387068816638e6 8.357012604883252e6 0.0
8.357012604883252e6 -1.1868195217068512e6 0.0
0.0 0.0 0.0

-652770.4889407987 2.7703893585835984e6 0.0
2.7703893585835984e6 -746648.6797665979 0.0
0.0 0.0 0.0

-2.7370703215122335e6 4.15359910212516e6 0.0
4.15359910212516e6 936173.6965920249 0.0
0.0 0.0 0.0

-2.2508055942701087e6 4.592361337375863e6 0.0
4.592361337375863e6 1.4647385426389787e6 0.0
0.0 0.0 0.0

-2.1854561688762624e6 3.8644806371216397e6 0.0
3.8644806371216397e6 863485.4008091064 0.0
0.0 0.0 0.0

-850439.6135105061 3.1555681599787776e6 0.0
3.1555681599787776e6 -890006.9305214633 0.0
0.0 0.0 0.0

-596126.5223530565 5.450652975517016e6 0.0
5.450652975517016e6 -1.9454628484733244e6 0.0
0.0 0.0 0.0

-2.1247899872939447e6 3.179007677007189e6 0.0
3.179007677007189e6 368827.4076915692 0.0
0.0 0.0 0.0

-1.67458892364662e6 7.143965121180977e6 0.0
7.143965121180977e6 -686034.531211399 0.0
0.0 0.0 0.0

-1.2438671831669302e6 9.024044546363598e6 0.0
9.024044546363598e6 -1.132576007288199e6 0.0
0.0 0.0 0.0

-2.2850209476426886e6 5.986415740767825e6 0.0
5.986415740767825e6 27209.493319718982 0.0
0.0 0.0 0.0

-1.3775539381141388e6 6.329468964428051e6 0.0
6.329468964428051e6 -764701.2550703629 0.0
0.0 0.0 0.0

-836763.3082033799 6.393489830436198e6 0.0
6.393489830436198e6 -1.5294549656072394e6 0.0
0.0 0.0 0.0

112935.78717966087 2.351127536061685e6 0.0
2.351127536061685e6 -1.7262944520381032e6 0.0
0.0 0.0 0.0

-201403.71903575805 2.0225591506054858e6 0.0
2.0225591506054858e6 -889051.7657559607 0.0
0.0 0.0 0.0

-4.649408768411854e6 5.9559055576301655e6 0.0
5.9559055576301655e6 1.6793414531425794e6 0.0
0.0 0.0 0.0

-2.0195001342757745e6 3.0585246215753756e6 0.0
3.0585246215753756e6 283539.17577585333 0.0
0.0 0.0 0.0

-1.73553994222793e6 5.07366674938951e6 0.0
5.07366674938951e6 -413489.3445900627 0.0
0.0 0.0 0.0

804227.6401150516 6.011174018776996e6 0.0
6.011174018776996e6 -2.645340195671135e6 0.0
0.0 0.0 0.0

-2.7338440967159476e6 -220805.47823361904 0.0
-220805.47823361904 2.9693022215531506e6 0.0
0.0 0.0 0.0

-438180.6497535813 1.0554762753512086e7 0.0
1.0554762753512086e7 -1.8214733751344648e6 0.0
0.0 0.0 0.0

-1.2136434006946385e6 9.597249785356037e6 0.0
9.597249785356037e6 -733074.362548056 0.0
0.0 0.0 0.0

-1.9783777907111158e6 7.119316150810534e6 0.0
7.119316150810534e6 200698.37563358352 0.0
0.0 0.0 0.0

-2.815625241608399e6 4.1062957992193014e6 0.0
4.1062957992193014e6 925333.6132253772 0.0
0.0 0.0 0.0

-309398.68540356547 3.726757236774823e6 0.0
3.726757236774823e6 -1.9553180903426753e6 0.0
0.0 0.0 0.0

-1.8600793530204478e6 4.328595135940652e6 0.0
4.328595135940652e6 18706.679711444303 0.0
0.0 0.0 0.0

-2.0840971192393391e6 5.372983613688711e6 0.0
5.372983613688711e6 -56127.64408835152 0.0
0.0 0.0 0.0

-783567.8777260913 5.42508136651598e6 0.0
5.42508136651598e6 -1.9211192735916781e6 0.0
0.0 0.0 0.0

-2.907466338211319e6 5.038261407986764e6 0.0
5.038261407986764e6 647967.530382945 0.0
0.0 0.0 0.0

-1.0259416015486897e6 7.348041125547882e6 0.0
7.348041125547882e6 -885855.1907561898 0.0
0.0 0.0 0.0

-1.9480028070147412e6 4.2244695440826565e6 0.0
4.2244695440826565e6 -142538.5696548599 0.0
0.0 0.0 0.0

-389661.0832503777 4.398588977460528e6 0.0
4.398588977460528e6 -1.9936641790861927e6 0.0
0.0 0.0 0.0

2.3967608818951147e6 2.470702716806595e6 0.0
2.470702716806595e6 -3.986461152657101e6 0.0
0.0 0.0 0.0

-758457.8316697555 6.863546779119158e6 0.0
6.863546779119158e6 -1.9203284601627067e6 0.0
0.0 0.0 0.0

-1.2327277935519344e6 6.868097012531364e6 0.0
6.868097012531364e6 -319155.2325490366 0.0
0.0 0.0 0.0

-1.1063544773330993e6 7.253315992502564e6 0.0
7.253315992502564e6 -879487.4769749413 0.0
0.0 0.0 0.0

-1.591341614391042e6 5.679303309092673e6 0.0
5.679303309092673e6 -602206.6543076881 0.0
0.0 0.0 0.0

1.383832657736455e6 6.014250108798421e6 0.0
6.014250108798421e6 -1.4442595775954265e6 0.0
0.0 0.0 0.0

-227803.50562024568 4.485449947298222e6 0.0
4.485449947298222e6 -1.362397284213196e6 0.0
0.0 0.0 0.0

-1.554117176259438e6 6.865097255038487e6 0.0
6.865097255038487e6 -842460.8690389096 0.0
0.0 0.0 0.0

-890569.4524980036 5.807438961608716e6 0.0
5.807438961608716e6 -1.736363709335973e6 0.0
0.0 0.0 0.0

-1.825146213455596e6 2.7770277188340533e6 0.0
2.7770277188340533e6 45656.582010383136 0.0
0.0 0.0 0.0

-2.7741874199368353e6 5.251783604346378e6 0.0
5.251783604346378e6 533353.9023229636 0.0
0.0 0.0 0.0

-7.8549073156650085e6 2.7223235357795716e6 0.0
2.7223235357795716e6 1.74832137811089e7 0.0
0.0 0.0 0.0

-840374.4748126074 2.058210054755068e6 0.0
2.058210054755068e6 140636.9636682897 0.0
0.0 0.0 0.0

-1.7685052636222462e6 8.995226342917722e6 0.0
8.995226342917722e6 -395010.2549368803 0.0
0.0 0.0 0.0

-1.9168216689087958e6 2.9226827659618775e6 0.0
2.9226827659618775e6 192797.88346476434 0.0
0.0 0.0 0.0

-857327.0156231185 2.965829821986238e6 0.0
2.965829821986238e6 698947.4068406891 0.0
0.0 0.0 0.0

-385271.36784247175 4.0379521337781497e6 0.0
4.0379521337781497e6 -1.129669358863017e6 0.0
0.0 0.0 0.0

-1.964688312037771e6 3.163700869136569e6 0.0
3.163700869136569e6 448829.1902302244 0.0
0.0 0.0 0.0

-1.0446911236330644e6 6.038906887115527e6 0.0
6.038906887115527e6 -1.3569082901771127e6 0.0
0.0 0.0 0.0

-1.6864704747035028e6 7.36911893028103e6 0.0
7.36911893028103e6 -212426.15503600007 0.0
0.0 0.0 0.0

-1.8016315613111886e6 4.748205052757057e6 0.0
4.748205052757057e6 -70573.47000480065 0.0
0.0 0.0 0.0

-1.759612202629511e6 3.2270348264155337e6 0.0
3.2270348264155337e6 181327.02777368098 0.0
0.0 0.0 0.0

-1.476610879283648e6 3.0757467824816257e6 0.0
3.0757467824816257e6 -100508.12731055386 0.0
0.0 0.0 0.0

-751353.4157348316 2.798951801606467e6 0.0
2.798951801606467e6 -568486.1926610419 0.0
0.0 0.0 0.0

-1.7007854656000614e7 -1.011916865711906e6 0.0
-1.011916865711906e6 9.927887446379714e6 0.0
0.0 0.0 0.0

-712465.7291704087 4.492586173066549e6 0.0
4.492586173066549e6 489557.8460697245 0.0
0.0 0.0 0.0

-2.470947055794159e6 4.239241130419533e6 0.0
4.239241130419533e6 1.1186111329237907e6 0.0
0.0 0.0 0.0

-3.005200381064302e6 3.994237165679676e6 0.0
3.994237165679676e6 956850.5540115722 0.0
0.0 0.0 0.0

-1.278879913285029e6 6.402486065943874e6 0.0
6.402486065943874e6 -1.244348085088691e6 0.0
0.0 0.0 0.0

-965281.1492125851 5.850241590146778e6 0.0
5.850241590146778e6 -1.6419195975832855e6 0.0
0.0 0.0 0.0

-456842.2167660068 4.917481968491583e6 0.0
4.917481968491583e6 -1.9898336503729415e6 0.0
0.0 0.0 0.0

-1.816200742044292e6 2.9911338110849066e6 0.0
2.9911338110849066e6 202670.0313540349 0.0
0.0 0.0 0.0

-1.3833631372986697e6 2.904388368359728e6 0.0
2.904388368359728e6 709428.1921955127 0.0
0.0 0.0 0.0

-1.253304820355852e6 3.0117199035585867e6 0.0
3.0117199035585867e6 -286816.9230243522 0.0
0.0 0.0 0.0

-926867.9717427302 7.590449942445025e6 0.0
7.590449942445025e6 -993447.481871061 0.0
0.0 0.0 0.0

-431177.06395709864 4.978376990352259e6 0.0
4.978376990352259e6 -2.1629715653774627e6 0.0
0.0 0.0 0.0

-2.715080319628508e6 4.48549492980369e6 0.0
4.48549492980369e6 929437.7540732487 0.0
0.0 0.0 0.0

-3.076810347438485e6 9.299168884512182e6 0.0
9.299168884512182e6 605881.1064411751 0.0
0.0 0.0 0.0

-2.7038949913149835e6 5.20448015228354e6 0.0
5.20448015228354e6 571362.3426803376 0.0
0.0 0.0 0.0

-2.155420946502187e6 4.526584714699358e6 0.0
4.526584714699358e6 1.863214799349421e6 0.0
0.0 0.0 0.0

8299.817271537497 4.531583984278805e6 0.0
4.531583984278805e6 -3.052919588568746e6 0.0
0.0 0.0 0.0

-1.0071492426414143e6 6.04217984350296e6 0.0
6.04217984350296e6 -1.1284906572958368e6 0.0
0.0 0.0 0.0

790813.0469603533 3.414481533401822e6 0.0
3.414481533401822e6 -1.2499303410240076e6 0.0
0.0 0.0 0.0

-408643.19047941023 4.800310606018019e6 0.0
4.800310606018019e6 -2.0640121642947576e6 0.0
0.0 0.0 0.0

-2.880207605268043e6 4.039668879971161e6 0.0
4.039668879971161e6 910778.6857097073 0.0
0.0 0.0 0.0

-924472.1525189094 2.7628690988981873e6 0.0
2.7628690988981873e6 514845.2723960377 0.0
0.0 0.0 0.0

-2.120275953027459e6 4.520704567091746e6 0.0
4.520704567091746e6 2.132924220648225e6 0.0
0.0 0.0 0.0

-2.49077466006298e6 4.39868179534173e6 0.0
4.39868179534173e6 1.085819468452739e6 0.0
0.0 0.0 0.0

-636490.0655874667 1.0443910431590447e7 0.0
1.0443910431590447e7 -2.4654272413917137e6 0.0
0.0 0.0 0.0

-3.77594935776274e6 5.912098639182837e6 0.0
5.912098639182837e6 2.306339209176032e6 0.0
0.0 0.0 0.0

-4.348490919146596e6 6.412471481766099e6 0.0
6.412471481766099e6 1.5171114108531086e6 0.0
0.0 0.0 0.0

-2.8274187907225736e6 4.571330842703749e6 0.0
4.571330842703749e6 908133.8445702756 0.0
0.0 0.0 0.0

-1.945664888964328e6 5.039354981744405e6 0.0
5.039354981744405e6 2.2718925006299363e6 0.0
0.0 0.0 0.0

-1.650264888605775e7 1.6855256714070857e7 0.0
1.6855256714070857e7 2.4277897542905957e6 0.0
0.0 0.0 0.0

-2.713882784528123e6 4.490785920302834e6 0.0
4.490785920302834e6 2.183105542118281e6 0.0
0.0 0.0 0.0

-1.9440954064049465e6 3.6282681344893826e6 0.0
3.6282681344893826e6 430088.288057034 0.0
0.0 0.0 0.0

148176.93582428418 3.0203183207550505e6 0.0
3.0203183207550505e6 -713356.6348285251 0.0
0.0 0.0 0.0

-1.327520642458566e6 3.8520359289096724e6 0.0
3.8520359289096724e6 -474928.98999686295 0.0
0.0 0.0 0.0

-3.0040434862114917e6 6.7750367122384915e6 0.0
6.7750367122384915e6 366678.3598816267 0.0
0.0 0.0 0.0

-4.292614622476858e6 4.421695792154357e6 0.0
4.421695792154357e6 1.3383679136125958e6 0.0
0.0 0.0 0.0

-1.5345140663777154e6 5.794834853224083e6 0.0
5.794834853224083e6 -413266.252271325 0.0
0.0 0.0 0.0

-1.9810182444773917e6 5.303407506876305e6 0.0
5.303407506876305e6 -144834.15984241362 0.0
0.0 0.0 0.0

69417.49776555781 2.0532421376459287e6 0.0
2.0532421376459287e6 -702210.0287988628 0.0
0.0 0.0 0.0

-641633.0880179041 4.695395674149e6 0.0
4.695395674149e6 -298040.44924721355 0.0
0.0 0.0 0.0

-3.7811875796789443e6 6.210473895189466e6 0.0
6.210473895189466e6 1.422961340864504e6 0.0
0.0 0.0 0.0

-2.2511870154700074e6 4.560124580394919e6 0.0
4.560124580394919e6 1.66999122807018e6 0.0
0.0 0.0 0.0

-2.92834488020439e6 6.57911964290427e6 0.0
6.57911964290427e6 -99643.04898957303 0.0
0.0 0.0 0.0

239520.04896485707 1.704693738774968e6 0.0
1.704693738774968e6 -1.460619774708211e6 0.0
0.0 0.0 0.0

-4.404889512142204e6 6.527075054907629e6 0.0
6.527075054907629e6 1.7154065749521395e6 0.0
0.0 0.0 0.0

-1.9101905861938512e6 4.649480838111781e6 0.0
4.649480838111781e6 -224408.33871953888 0.0
0.0 0.0 0.0

-1.399302942804255e6 6.626932127478796e6 0.0
6.626932127478796e6 -930075.3315687572 0.0
0.0 0.0 0.0

-1.57527870130779e6 4.0685182345939935e6 0.0
4.0685182345939935e6 -223396.54110492597 0.0
0.0 0.0 0.0

-1.1561393868624875e6 7.915633553246322e6 0.0
7.915633553246322e6 -1.561637789088086e6 0.0
0.0 0.0 0.0

-2.1216859669937636e6 3.3266043749864986e6 0.0
3.3266043749864986e6 404854.3543295928 0.0
0.0 0.0 0.0

56074.8254190218 3.0006976015536776e6 0.0
3.0006976015536776e6 -769193.7067440349 0.0
0.0 0.0 0.0

-1.1370419287991363e6 3.005975679190987e6 0.0
3.005975679190987e6 39399.33527358918 0.0
0.0 0.0 0.0

-1.7289506708720753e6 3.331549999494846e6 0.0
3.331549999494846e6 263007.8214006836 0.0
0.0 0.0 0.0

-637916.6608217304 5.487589401749951e6 0.0
5.487589401749951e6 -2.303951931281513e6 0.0
0.0 0.0 0.0

-1.7778487581724604e6 3.1576430640099873e6 0.0
3.1576430640099873e6 300931.76463725744 0.0
0.0 0.0 0.0

-1.592582995890041e7 3.695759635888587e6 0.0
3.695759635888587e6 1.0265370140246298e7 0.0
0.0 0.0 0.0

-1.9789957427630688e6 3.0814945015388727e6 0.0
3.0814945015388727e6 305607.33421744243 0.0
0.0 0.0 0.0

-1.44471820836334e6 6.5227065457301e6 0.0
6.5227065457301e6 7525.475460108311 0.0
0.0 0.0 0.0

-1.2081600669672515e7 -3.5630388322504293e6 0.0
-3.5630388322504293e6 7.957726714196542e6 0.0
0.0 0.0 0.0

-946551.7733833203 7.486503544228807e6 0.0
7.486503544228807e6 -973621.7755393694 0.0
0.0 0.0 0.0

-1.7525996622719874e6 2.876920431602744e6 0.0
2.876920431602744e6 259629.1251414728 0.0
0.0 0.0 0.0

-641597.6022846941 7.045045276942996e6 0.0
7.045045276942996e6 -2.2386447904382814e6 0.0
0.0 0.0 0.0

-3.0768146842977772e6 4.0106856715988303e6 0.0
4.0106856715988303e6 997180.4843938018 0.0
0.0 0.0 0.0

-1.1406147229588963e6 6.8740535187136615e6 0.0
6.8740535187136615e6 -1.298014680228255e6 0.0
0.0 0.0 0.0

-1.0339486865931234e6 6.458729420064064e6 0.0
6.458729420064064e6 -1.2323157447203584e6 0.0
0.0 0.0 0.0

-631994.3533244521 2.681345529825142e6 0.0
2.681345529825142e6 -641491.3630190282 0.0
0.0 0.0 0.0

-2.2164858573767724e6 3.836338537843642e6 0.0
3.836338537843642e6 765719.1794592032 0.0
0.0 0.0 0.0

-694877.447120973 5.598593352236573e6 0.0
5.598593352236573e6 -1.6981288156721022e6 0.0
0.0 0.0 0.0

-361755.0939406903 2.5588126518188617e6 0.0
2.5588126518188617e6 -661172.8461550801 0.0
0.0 0.0 0.0

-1.1142010536399197e6 6.531431633552976e6 0.0
6.531431633552976e6 -1.2210441832553605e6 0.0
0.0 0.0 0.0

-1.5650083146117069e7 -4.711391565353016e6 0.0
-4.711391565353016e6 7.864472378300196e6 0.0
0.0 0.0 0.0

-60215.92014554504 4.0047618341506203e6 0.0
4.0047618341506203e6 -2.9179259782540663e6 0.0
0.0 0.0 0.0

-2.0472274548843652e6 3.7190257727772263e6 0.0
3.7190257727772263e6 558543.4601344914 0.0
0.0 0.0 0.0

-2.2663265135159916e6 3.76472365809477e6 0.0
3.76472365809477e6 714720.3505357803 0.0
0.0 0.0 0.0

-2.6053772974199834e6 5.049591595644376e6 0.0
5.049591595644376e6 678938.7095406525 0.0
0.0 0.0 0.0

-1.491364153827659e6 3.865244107344312e6 0.0
3.865244107344312e6 -485855.7250562246 0.0
0.0 0.0 0.0

-1.9358391923638333e6 5.359004075373972e6 0.0
5.359004075373972e6 821969.3870807908 0.0
0.0 0.0 0.0

-1.0973607347096624e6 8.478222907730065e6 0.0
8.478222907730065e6 -1.235310799996856e6 0.0
0.0 0.0 0.0

-831051.9771707226 5.998368063817653e6 0.0
5.998368063817653e6 -1.6577515319423887e6 0.0
0.0 0.0 0.0

-3.0184401015815623e6 3.9574320163806477e6 0.0
3.9574320163806477e6 994169.3114065602 0.0
0.0 0.0 0.0

-2.5414841598150088e6 7.736409942712128e6 0.0
7.736409942712128e6 145143.7969203021 0.0
0.0 0.0 0.0

-146381.48863791 3.720758919664692e6 0.0
3.720758919664692e6 -2.3191937433015695e6 0.0
0.0 0.0 0.0

-1.5039604551986794e6 3.102975322344541e6 0.0
3.102975322344541e6 -51327.30314451235 0.0
0.0 0.0 0.0

-2.6552539753032755e6 5.176980414813969e6 0.0
5.176980414813969e6 584326.19948009 0.0
0.0 0.0 0.0

-1.2540909434636083e7 4.732434183332363e6 0.0
4.732434183332363e6 4.244880618939253e6 0.0
0.0 0.0 0.0

-1.2089963012731005e6 3.3893930473301355e6 0.0
3.3893930473301355e6 796079.3924874899 0.0
0.0 0.0 0.0

-463385.0869352493 5.436268483243188e6 0.0
5.436268483243188e6 -2.2255674553220747e6 0.0
0.0 0.0 0.0

360508.07719110313 1.74952474936211e6 0.0
1.74952474936211e6 -1.0478267461749965e6 0.0
0.0 0.0 0.0

663519.7355936491 -121593.15335140112 0.0
-121593.15335140112 -1.1033653852886553e6 0.0
0.0 0.0 0.0

38701.083570558694 2.098668433423711e6 0.0
2.098668433423711e6 -2.443880662494197e6 0.0
0.0 0.0 0.0

-2.0173465774376425e6 5.655288845608632e6 0.0
5.655288845608632e6 58327.84507620579 0.0
0.0 0.0 0.0

-624670.0681862485 4.531160092657965e6 0.0
4.531160092657965e6 -1.6792087984426087e6 0.0
0.0 0.0 0.0

-3.1027226462923903e6 2.550948048320539e6 0.0
2.550948048320539e6 4.198835999605953e6 0.0
0.0 0.0 0.0

-1.751010924405416e6 8.82740093061094e6 0.0
8.82740093061094e6 -417261.4153534892 0.0
0.0 0.0 0.0

-1.2493206255829001e6 7.727160850778951e6 0.0
7.727160850778951e6 -1.568419047791674e6 0.0
0.0 0.0 0.0

-3.412399632305763e6 3.853778028366068e6 0.0
3.853778028366068e6 7.375280185742704e6 0.0
0.0 0.0 0.0

-1.6796544548007923e6 3.0598832467846395e6 0.0
3.0598832467846395e6 82059.76198803447 0.0
0.0 0.0 0.0

-1.8962694118794524e6 4.923735926276943e6 0.0
4.923735926276943e6 2.1967574145541387e6 0.0
0.0 0.0 0.0

-764673.8695522604 4.767450152802751e6 0.0
4.767450152802751e6 -1.526295433849698e6 0.0
0.0 0.0 0.0

8.376791594697835e6 7.382898323830509e6 0.0
7.382898323830509e6 -201360.52119226567 0.0
0.0 0.0 0.0

-1.9747004696706221e6 6.711554621285503e6 0.0
6.711554621285503e6 -72997.91704874381 0.0
0.0 0.0 0.0

-3.6519684328875863e6 6.812407179673729e6 0.0
6.812407179673729e6 1.4178276476057281e6 0.0
0.0 0.0 0.0

-1.0501088028155982e6 7.558777942817877e6 0.0
7.558777942817877e6 -1.365650652450756e6 0.0
0.0 0.0 0.0

-1.1367076159666604e6 6.944277777512461e6 0.0
6.944277777512461e6 -1.41551554931284e6 0.0
0.0 0.0 0.0

-1.3621302574767554e6 4.20705117167143e6 0.0
4.20705117167143e6 -674163.8701376799 0.0
0.0 0.0 0.0

-1.0071943084837113e6 2.6013433407465043e6 0.0
2.6013433407465043e6 467180.9041857652 0.0
0.0 0.0 0.0

-388744.8341596997 4.839232838359037e6 0.0
4.839232838359037e6 -2.2880928820834775e6 0.0
0.0 0.0 0.0

690712.8066238468 3.482473026067699e6 0.0
3.482473026067699e6 -1.0084429960993116e6 0.0
0.0 0.0 0.0

-1.2981675118974035e6 6.71409807542478e6 0.0
6.71409807542478e6 -971506.2526003353 0.0
0.0 0.0 0.0

-4.7474388382805735e6 4.460057385549321e6 0.0
4.460057385549321e6 42465.167911229655 0.0
0.0 0.0 0.0

-1.3408568881039722e6 2.1534144755124687e6 0.0
2.1534144755124687e6 -488743.0324417005 0.0
0.0 0.0 0.0

-4.566603640214942e6 4.0777277145128814e6 0.0
4.0777277145128814e6 1.0469760390690695e7 0.0
0.0 0.0 0.0

-1.658478543041993e6 5.718051656755171e6 0.0
5.718051656755171e6 218820.5955121616 0.0
0.0 0.0 0.0

-62086.13137251977 7.188123054963323e6 0.0
7.188123054963323e6 -1.8434662991845445e6 0.0
0.0 0.0 0.0

-2.634114781285191e6 5.109979541378935e6 0.0
5.109979541378935e6 652000.4745328634 0.0
0.0 0.0 0.0

-2.1760367435574024e6 6.120966183592217e6 0.0
6.120966183592217e6 219930.3121301278 0.0
0.0 0.0 0.0

-2.799511065810311e6 4.621849341051642e6 0.0
4.621849341051642e6 894098.5418603331 0.0
0.0 0.0 0.0

-835676.8125636388 2.5077100837414893e6 0.0
2.5077100837414893e6 240781.66639291216 0.0
0.0 0.0 0.0

-1.4365215765645732e6 3.226279326916435e6 0.0
3.226279326916435e6 419636.886023822 0.0
0.0 0.0 0.0

-214418.3144268309 2.718142448228371e6 0.0
2.718142448228371e6 -857771.2929821026 0.0
0.0 0.0 0.0

-629749.4746862607 3.980789091403288e6 0.0
3.980789091403288e6 1.4148284985273653e6 0.0
0.0 0.0 0.0

-866985.6080647563 5.159044577870039e6 0.0
5.159044577870039e6 -1.3204280515744728e6 0.0
0.0 0.0 0.0

-2.204412281034985e6 5.412645430684004e6 0.0
5.412645430684004e6 367642.53531667625 0.0
0.0 0.0 0.0

-2.9594866647528e6 3.982001737692636e6 0.0
3.982001737692636e6 917250.326733761 0.0
0.0 0.0 0.0

609125.5951667309 613284.6764328366 0.0
613284.6764328366 -1.0621626166842675e6 0.0
0.0 0.0 0.0

-3.104912084381224e6 4.392988862672866e6 0.0
4.392988862672866e6 909081.9023891832 0.0
0.0 0.0 0.0

-1.8529779198524896e6 3.042516733094923e6 0.0
3.042516733094923e6 364007.14811878605 0.0
0.0 0.0 0.0

-3.0191420752601023e6 4.74451579236023e6 0.0
4.74451579236023e6 820316.9618199286 0.0
0.0 0.0 0.0

-263171.05770228023 7.298674962289085e6 0.0
7.298674962289085e6 -1.244107110038324e6 0.0
0.0 0.0 0.0

-3.003347144762398e6 6.576753568395909e6 0.0
6.576753568395909e6 959357.2083834405 0.0
0.0 0.0 0.0

-409331.8864742463 4.453188553129014e6 0.0
4.453188553129014e6 -1.8403782346475017e6 0.0
0.0 0.0 0.0

-1.1698746365110101e6 3.0038658193703457e6 0.0
3.0038658193703457e6 826914.543699339 0.0
0.0 0.0 0.0

-700288.6556065308 5.922565781554154e6 0.0
5.922565781554154e6 -1.0270773290421568e6 0.0
0.0 0.0 0.0

-963752.0550495891 5.570142935280571e6 0.0
5.570142935280571e6 -1.2203166784210172e6 0.0
0.0 0.0 0.0

-1.5230252820760675e6 2.8973433313665777e6 0.0
2.8973433313665777e6 -23807.24364409421 0.0
0.0 0.0 0.0

-1.6802838976337065e6 5.6986065635296665e6 0.0
5.6986065635296665e6 6081.624473811127 0.0
0.0 0.0 0.0

-1.5882542281659879e6 8.988861170826193e6 0.0
8.988861170826193e6 -336811.30507837655 0.0
0.0 0.0 0.0

-759378.7304448448 5.173783347855779e6 0.0
5.173783347855779e6 -1.3985358215911102e6 0.0
0.0 0.0 0.0

-850389.6710491895 2.728503032321545e6 0.0
2.728503032321545e6 -167887.3790884685 0.0
0.0 0.0 0.0

-1.047849198983025e6 6.284012471407567e6 0.0
6.284012471407567e6 -1.247764671779505e6 0.0
0.0 0.0 0.0

-406799.1501577186 4.661647508760331e6 0.0
4.661647508760331e6 -1.573160396462576e6 0.0
0.0 0.0 0.0

-1.1624666631508966e6 4.477205888044391e6 0.0
4.477205888044391e6 940114.1236275209 0.0
0.0 0.0 0.0

-1.7956304117041915e6 4.0936723539305953e6 0.0
4.0936723539305953e6 -253299.3401275422 0.0
0.0 0.0 0.0

-192277.94239383296 3.8887163496351773e6 0.0
3.8887163496351773e6 -2.2316296762531605e6 0.0
0.0 0.0 0.0

175935.04937826493 4.050758593865167e6 0.0
4.050758593865167e6 -2.9451218367173835e6 0.0
0.0 0.0 0.0

-1.7981756175132592e6 3.355034799216184e6 0.0
3.355034799216184e6 227347.66125956376 0.0
0.0 0.0 0.0

-3.070775097812303e6 3.9989239601608505e6 0.0
3.9989239601608505e6 924163.2666521771 0.0
0.0 0.0 0.0

-325987.26973501017 1.653421860078018e6 0.0
1.653421860078018e6 169969.97864100424 0.0
0.0 0.0 0.0

-1.567401457918288e6 3.348045630989745e6 0.0
3.348045630989745e6 151808.79395481804 0.0
0.0 0.0 0.0

-2.1788231797765996e6 3.785673443987481e6 0.0
3.785673443987481e6 688662.3598123528 0.0
0.0 0.0 0.0

-1.2487496593267664e6 6.558049345962654e6 0.0
6.558049345962654e6 -1.1312037604197052e6 0.0
0.0 0.0 0.0

-1709.3375570370117 1.9920839561365033e6 0.0
1.9920839561365033e6 -2.521514409194586e6 0.0
0.0 0.0 0.0

-2.0255189637791773e6 3.7904381266024155e6 0.0
3.7904381266024155e6 607633.8563094077 0.0
0.0 0.0 0.0

-6.611836419460221e6 5.270025255704106e6 0.0
5.270025255704106e6 1.5036126040211137e7 0.0
0.0 0.0 0.0

-2.2952946871696147e6 3.8231982566818586e6 0.0
3.8231982566818586e6 798738.1797879797 0.0
0.0 0.0 0.0

-2.4067986582212155e6 5.593746726264907e6 0.0
5.593746726264907e6 436927.3512281594 0.0
0.0 0.0 0.0

-1.2233606782484087e6 6.54083019274215e6 0.0
6.54083019274215e6 -1.1133497288184804e6 0.0
0.0 0.0 0.0

-3.2093430569835305e6 4.810632567781599e6 0.0
4.810632567781599e6 1.069198544936841e6 0.0
0.0 0.0 0.0

-2.93018419936983e6 3.9486400263640843e6 0.0
3.9486400263640843e6 976099.3146379425 0.0
0.0 0.0 0.0

-1.9270222353803145e6 7.376720279455981e6 0.0
7.376720279455981e6 1.529324686816546e6 0.0
0.0 0.0 0.0

801100.2586279515 3.4266959546318064e6 0.0
3.4266959546318064e6 -1.111976614612866e6 0.0
0.0 0.0 0.0

-979670.5849442543 7.811839288820996e6 0.0
7.811839288820996e6 -832673.0542686565 0.0
0.0 0.0 0.0

323087.25068455725 9.385324057752062e6 0.0
9.385324057752062e6 -1.9797297543893992e6 0.0
0.0 0.0 0.0

-498719.46833104815 2.6719024003203637e6 0.0
2.6719024003203637e6 -240034.9258297798 0.0
0.0 0.0 0.0

-2.744012565300708e6 3.9768556932910164e6 0.0
3.9768556932910164e6 913408.1618560344 0.0
0.0 0.0 0.0

-1.7148289919007004e6 4.191004185184494e6 0.0
4.191004185184494e6 -101037.63869890163 0.0
0.0 0.0 0.0

-1.2641065457829074e6 1.0252738422389347e7 0.0
1.0252738422389347e7 -2.2945704616667978e6 0.0
0.0 0.0 0.0

-945807.1201243944 5.476235719780544e6 0.0
5.476235719780544e6 -1.2918161406315053e6 0.0
0.0 0.0 0.0

-2.6399430086212787e6 5.352506459552515e6 0.0
5.352506459552515e6 604052.3141387508 0.0
0.0 0.0 0.0

-805097.7052565957 2.343187318163087e6 0.0
2.343187318163087e6 826870.5116606413 0.0
0.0 0.0 0.0

-1.6723371764625467e6 3.4722486074498207e6 0.0
3.4722486074498207e6 775399.2345941471 0.0
0.0 0.0 0.0

-496068.7452972621 2.387132810722518e6 0.0
2.387132810722518e6 -299770.48802094243 0.0
0.0 0.0 0.0

-1.870831419690451e6 2.94920412911851e6 0.0
2.94920412911851e6 216868.1978122485 0.0
0.0 0.0 0.0

-2.8371041304663788e6 4.530960900952392e6 0.0
4.530960900952392e6 1.0397477658355029e6 0.0
0.0 0.0 0.0

-2.020546749820558e6 3.4051703382985154e6 0.0
3.4051703382985154e6 81165.06787621265 0.0
0.0 0.0 0.0

-3.297565379480716e6 4.309747548263192e6 0.0
4.309747548263192e6 986878.4094101393 0.0
0.0 0.0 0.0

-719862.1048820865 2.7153122427478055e6 0.0
2.7153122427478055e6 -629483.9069445935 0.0
0.0 0.0 0.0

-1.4095706022562685e6 3.2094826752405823e6 0.0
3.2094826752405823e6 284817.0602337657 0.0
0.0 0.0 0.0

-3.152560162567066e6 4.0529978973742235e6 0.0
4.0529978973742235e6 930922.5321954901 0.0
0.0 0.0 0.0

-1.38502869887968e6 8.0453217577627795e6 0.0
8.0453217577627795e6 -436151.83179178176 0.0
0.0 0.0 0.0

-1.2078691471783856e6 4.138739213639887e6 0.0
4.138739213639887e6 2.2677981598654287e6 0.0
0.0 0.0 0.0

-1.8230982905612965e6 3.085975899445449e6 0.0
3.085975899445449e6 355909.5481528549 0.0
0.0 0.0 0.0

-1.1238780313433388e6 9.824123419273956e6 0.0
9.824123419273956e6 -489509.1394427725 0.0
0.0 0.0 0.0

-1.9368484402532782e6 3.4575171273140064e6 0.0
3.4575171273140064e6 455132.84992443863 0.0
0.0 0.0 0.0

-1.624897939887432e6 3.4059656580267097e6 0.0
3.4059656580267097e6 621513.519185682 0.0
0.0 0.0 0.0

-1.247928694307589e6 2.936594427981421e6 0.0
2.936594427981421e6 -326572.30629383086 0.0
0.0 0.0 0.0

-3.2244450825196803e6 4.147852320224132e6 0.0
4.147852320224132e6 944155.6223781265 0.0
0.0 0.0 0.0

-562242.8963724663 5.257911183594536e6 0.0
5.257911183594536e6 -1.298250540802223e6 0.0
0.0 0.0 0.0

-886682.8577364634 5.891964826809548e6 0.0
5.891964826809548e6 -1.3745194812889458e6 0.0
0.0 0.0 0.0

-2.5914893223596765e6 4.962464740010779e6 0.0
4.962464740010779e6 783345.4267952557 0.0
0.0 0.0 0.0

-788437.0238500922 3.234683844382046e6 0.0
3.234683844382046e6 -1.5373263315201849e6 0.0
0.0 0.0 0.0

-1.2087465939749493e6 7.815708832672371e6 0.0
7.815708832672371e6 -1.7233297308636222e6 0.0
0.0 0.0 0.0

-3.8336636957093254e6 5.255972382996121e6 0.0
5.255972382996121e6 1.3423530304601684e6 0.0
0.0 0.0 0.0

-3.055620556383271e6 4.935745372479966e6 0.0
4.935745372479966e6 943411.9164844637 0.0
0.0 0.0 0.0

-1.8409433256575451e6 5.192033192859235e6 0.0
5.192033192859235e6 -304806.58747435786 0.0
0.0 0.0 0.0

-356701.5563429574 4.3777366741120145e6 0.0
4.3777366741120145e6 -1.9681045429930682e6 0.0
0.0 0.0 0.0

-3.5350884276757725e6 4.447420287551394e6 0.0
4.447420287551394e6 1.0358938281701421e6 0.0
0.0 0.0 0.0

-1.7688043856390684e6 3.5012957552113584e6 0.0
3.5012957552113584e6 1.049939057094953e6 0.0
0.0 0.0 0.0

1.3464338496413548e6 4.639515524906109e6 0.0
4.639515524906109e6 -3.485067083969577e6 0.0
0.0 0.0 0.0

-4.1562554647127795e6 6.219691254715076e6 0.0
6.219691254715076e6 1.8149906339925646e6 0.0
0.0 0.0 0.0

-1.2436738809455591e6 5.96257762263485e6 0.0
5.96257762263485e6 55257.75102768652 0.0
0.0 0.0 0.0

-2.8724871054634466e6 5.141549156460829e6 0.0
5.141549156460829e6 813815.3364684987 0.0
0.0 0.0 0.0

-1.0383684257477771e6 6.001045574154505e6 0.0
6.001045574154505e6 -1.1508319192877763e6 0.0
0.0 0.0 0.0

-3.3606228574980847e6 4.382969481502446e6 0.0
4.382969481502446e6 1.1136013583732417e6 0.0
0.0 0.0 0.0

-2.245807965841435e6 4.898796133170615e6 0.0
4.898796133170615e6 1.0481075528856398e6 0.0
0.0 0.0 0.0

-3.3630693782062507e6 4.85286562938925e6 0.0
4.85286562938925e6 1.0124199013613956e6 0.0
0.0 0.0 0.0

-4.265224475576793e6 8.520888730950452e6 0.0
8.520888730950452e6 1.8106497251360666e6 0.0
0.0 0.0 0.0

-1.2423805116663e6 3.0503337803677623e6 0.0
3.0503337803677623e6 878863.674968411 0.0
0.0 0.0 0.0

-1.2527899244420903e6 7.707804982316074e6 0.0
7.707804982316074e6 -1.5995131656901161e6 0.0
0.0 0.0 0.0

-1.105870895932895e6 2.706881330952618e6 0.0
2.706881330952618e6 584361.8162120618 0.0
0.0 0.0 0.0

-1.167243318070806e6 3.0385665658415966e6 0.0
3.0385665658415966e6 -80914.70229659649 0.0
0.0 0.0 0.0

-433836.64291741437 -1.142577975215072e6 0.0
-1.142577975215072e6 1.0194511222667728e6 0.0
0.0 0.0 0.0

-530691.9324436028 -405398.2147686069 0.0
-405398.2147686069 775862.1951322478 0.0
0.0 0.0 0.0

-1.4387274804576612e6 3.219500296513437e6 0.0
3.219500296513437e6 1.1578563527984559e6 0.0
0.0 0.0 0.0

569786.0313534142 6.526038569724917e6 0.0
6.526038569724917e6 -1.531330301284538e6 0.0
0.0 0.0 0.0

-3.1790296387051176e6 5.88196013686843e6 0.0
5.88196013686843e6 992794.408310075 0.0
0.0 0.0 0.0

-1.9841374600577753e6 5.326955292363785e6 0.0
5.326955292363785e6 -186938.51933619357 0.0
0.0 0.0 0.0

-1.1517066641630232e6 6.870395192862542e6 0.0
6.870395192862542e6 -1.3037440295721795e6 0.0
0.0 0.0 0.0

-1.164852956062016e6 7.495434051890374e6 0.0
7.495434051890374e6 669118.4737101619 0.0
0.0 0.0 0.0

-3.7414239980920553e6 4.464457322920816e6 0.0
4.464457322920816e6 1.1191348782298937e6 0.0
0.0 0.0 0.0

-3.9868739537427393e6 5.379270740895315e6 0.0
5.379270740895315e6 1.3730740343998584e6 0.0
0.0 0.0 0.0

-4.237888328210484e6 5.652669931204482e6 0.0
5.652669931204482e6 1.368577933769702e6 0.0
0.0 0.0 0.0

-2.0218787690955484e6 3.723841012004076e6 0.0
3.723841012004076e6 699372.4991260613 0.0
0.0 0.0 0.0

-1.8311909508104844e6 3.4902511019978253e6 0.0
3.4902511019978253e6 299384.2922638088 0.0
0.0 0.0 0.0

-1.3144187154006825e6 2.9883738222202165e6 0.0
2.9883738222202165e6 -230448.40079242655 0.0
0.0 0.0 0.0

-2.5164360121422377e6 4.278211023039241e6 0.0
4.278211023039241e6 1.0335997622205871e6 0.0
0.0 0.0 0.0

-1.7512225977977952e6 3.4571635764045375e6 0.0
3.4571635764045375e6 352168.6590299291 0.0
0.0 0.0 0.0

-1.5396611725158703e6 3.3854045502474145e6 0.0
3.3854045502474145e6 1.3191902297507343e6 0.0
0.0 0.0 0.0

-1.0113538051172951e6 6.544259290095434e6 0.0
6.544259290095434e6 -1.1999587372155108e6 0.0
0.0 0.0 0.0

-2.293479435531812e6 3.875115361883446e6 0.0
3.875115361883446e6 854450.3260441843 0.0
0.0 0.0 0.0

-1.3202194186541722e6 3.3702390694015305e6 0.0
3.3702390694015305e6 948985.373977054 0.0
0.0 0.0 0.0

-2.7939545643784925e6 6.423678897455763e6 0.0
6.423678897455763e6 1.2036969543727073e6 0.0
0.0 0.0 0.0

-1.9684771633508157e6 3.314476826607166e6 0.0
3.314476826607166e6 363187.9584520989 0.0
0.0 0.0 0.0

-3.4718207911219373e6 4.471052482662929e6 0.0
4.471052482662929e6 1.1469977112939095e6 0.0
0.0 0.0 0.0

-3.217621964724455e6 4.2769069926017895e6 0.0
4.2769069926017895e6 1.0390603037712006e6 0.0
0.0 0.0 0.0

-2.2975044432700397e6 4.85752462452455e6 0.0
4.85752462452455e6 940364.0019304877 0.0
0.0 0.0 0.0

-450014.6010045161 4.523672881269467e6 0.0
4.523672881269467e6 -1.6732800052560335e6 0.0
0.0 0.0 0.0

-2.541928755291254e6 4.0596387182417917e6 0.0
4.0596387182417917e6 920507.9394402436 0.0
0.0 0.0 0.0

-1.8845004833403607e6 3.603275150271083e6 0.0
3.603275150271083e6 1.0491479858010635e6 0.0
0.0 0.0 0.0

-1.645419988325053e6 5.167075261905447e6 0.0
5.167075261905447e6 -267639.0581397165 0.0
0.0 0.0 0.0

-3.7230875853851307e6 7.1047508845625585e6 0.0
7.1047508845625585e6 1.4124812996342399e6 0.0
0.0 0.0 0.0

-2.3572196311539533e6 4.844423519326722e6 0.0
4.844423519326722e6 907545.6620238004 0.0
0.0 0.0 0.0

-1.9901618471388172e6 5.840918611129883e6 0.0
5.840918611129883e6 -495939.19224339223 0.0
0.0 0.0 0.0

-848807.6995090868 5.934745635958033e6 0.0
5.934745635958033e6 -1.5090025807549767e6 0.0
0.0 0.0 0.0

-2.0466166635504104e6 3.8001107437269394e6 0.0
3.8001107437269394e6 684601.7353893722 0.0
0.0 0.0 0.0

-1.3955981926092522e6 9.494737577539874e6 0.0
9.494737577539874e6 -347425.3552892791 0.0
0.0 0.0 0.0

1.3712523904384116e6 3.011223872862902e6 0.0
3.011223872862902e6 -1.2848072292777896e6 0.0
0.0 0.0 0.0

-502405.83477134013 4.841935099484026e6 0.0
4.841935099484026e6 -2.1290317065692693e6 0.0
0.0 0.0 0.0

-1.607967793454745e6 7.37018981797227e6 0.0
7.37018981797227e6 -866282.2036491573 0.0
0.0 0.0 0.0

176815.4299822405 5.386368691430403e6 0.0
5.386368691430403e6 -399022.29755696957 0.0
0.0 0.0 0.0

-956095.5150218369 6.0022266565180505e6 0.0
6.0022266565180505e6 -1.6165480680632568e6 0.0
0.0 0.0 0.0

-834539.0718259031 6.158018599744539e6 0.0
6.158018599744539e6 -1.65963392652049e6 0.0
0.0 0.0 0.0

-444218.67681223305 5.319368227796489e6 0.0
5.319368227796489e6 -1.1155064111267757e6 0.0
0.0 0.0 0.0

-908114.6746695326 2.3625353339930237e6 0.0
2.3625353339930237e6 640340.2020031583 0.0
0.0 0.0 0.0

-1.0994519229694786e6 3.1028192469922462e6 0.0
3.1028192469922462e6 -166114.3662152586 0.0
0.0 0.0 0.0

-523362.1850827124 5.624125677506649e6 0.0
5.624125677506649e6 -2.430458556082156e6 0.0
0.0 0.0 0.0

-1.713059644890272e6 3.5048005160526116e6 0.0
3.5048005160526116e6 293863.5773060039 0.0
0.0 0.0 0.0

-899912.2242853107 2.493916104349978e6 0.0
2.493916104349978e6 32144.21123745275 0.0
0.0 0.0 0.0

-672308.1112270633 5.117569286614499e6 0.0
5.117569286614499e6 -376005.9283247174 0.0
0.0 0.0 0.0

1.0206618733356978e6 281463.997664822 0.0
281463.997664822 -1.6795394579317267e6 0.0
0.0 0.0 0.0

-2.0614207935876907e6 3.7729321298512467e6 0.0
3.7729321298512467e6 643929.5791699436 0.0
0.0 0.0 0.0

-2.7848511027668314e6 4.701557246028635e6 0.0
4.701557246028635e6 960596.8290735928 0.0
0.0 0.0 0.0

-1.613297418918859e6 6.998998277823299e6 0.0
6.998998277823299e6 -765517.633485972 0.0
0.0 0.0 0.0

374478.65807116707 1.6195003600357522e6 0.0
1.6195003600357522e6 -1.6615324956275844e6 0.0
0.0 0.0 0.0

-1.2713081690559739e6 2.9280206241437504e6 0.0
2.9280206241437504e6 -307451.78288973996 0.0
0.0 0.0 0.0

-5033.051502745599 5.176995892690745e6 0.0
5.176995892690745e6 -3.0779645617771773e6 0.0
0.0 0.0 0.0

-3.48382300982783e6 8.245074893262572e6 0.0
8.245074893262572e6 1.2954794974628119e6 0.0
0.0 0.0 0.0

-2.1913369479069645e6 1.787642954798766e6 0.0
1.787642954798766e6 4.030167715204712e6 0.0
0.0 0.0 0.0

-1.3721348541198112e6 5.134488695431999e6 0.0
5.134488695431999e6 100140.6691235872 0.0
0.0 0.0 0.0

-1.0806103247406986e6 2.510621081906029e6 0.0
2.510621081906029e6 277328.85179253126 0.0
0.0 0.0 0.0

-5.7212030843541585e6 3.818677999757916e6 0.0
3.818677999757916e6 5.062768760337142e6 0.0
0.0 0.0 0.0

-1.1796302832212548e6 6.638817163267674e6 0.0
6.638817163267674e6 156433.06859978783 0.0
0.0 0.0 0.0

-415151.1734357134 7.056223013667038e6 0.0
7.056223013667038e6 -459593.92811599944 0.0
0.0 0.0 0.0

-432357.18947456346 4.566740645893308e6 0.0
4.566740645893308e6 -2.2152251930269906e6 0.0
0.0 0.0 0.0

-2.674614183826779e6 2.3448560926115834e6 0.0
2.3448560926115834e6 737363.1054473795 0.0
0.0 0.0 0.0

-5.647185101072439e6 9.465702453857936e6 0.0
9.465702453857936e6 1.392233167030174e6 0.0
0.0 0.0 0.0

-2.0798576974305892e6 3.787281270865861e6 0.0
3.787281270865861e6 789333.6783865595 0.0
0.0 0.0 0.0

711364.2259497633 -39215.76817620123 0.0
-39215.76817620123 -1.2925892247456731e6 0.0
0.0 0.0 0.0

-849932.4085554987 6.44998711024931e6 0.0
6.44998711024931e6 -268382.8315024265 0.0
0.0 0.0 0.0

-4.904404409420382e6 5.008921031478887e6 0.0
5.008921031478887e6 3.7688699441005336e6 0.0
0.0 0.0 0.0

-1.200482730114887e6 2.685646575193193e6 0.0
2.685646575193193e6 -321261.85959607654 0.0
0.0 0.0 0.0

-1.3694120302288085e6 6.442875159138267e6 0.0
6.442875159138267e6 2.350200162890193e6 0.0
0.0 0.0 0.0

-1.5299000890720072e6 3.2491295061939033e6 0.0
3.2491295061939033e6 388310.47082270624 0.0
0.0 0.0 0.0

-1.2296533788975622e6 3.021755402431332e6 0.0
3.021755402431332e6 22452.302554276946 0.0
0.0 0.0 0.0

-1.0446718937536078e6 1.9832444004202136e6 0.0
1.9832444004202136e6 2.117859601434298e6 0.0
0.0 0.0 0.0

-803370.4141560042 6.586127839286414e6 0.0
6.586127839286414e6 -126788.31012992615 0.0
0.0 0.0 0.0

-3.2407059935291284e6 5.061473946208303e6 0.0
5.061473946208303e6 786373.9487396707 0.0
0.0 0.0 0.0

-4.63636254037017e6 5.963743919629145e6 0.0
5.963743919629145e6 1.7147813100007742e6 0.0
0.0 0.0 0.0

-2.415330924727048e6 4.0200614841003413e6 0.0
4.0200614841003413e6 929960.5356981931 0.0
0.0 0.0 0.0

1.4831620699909644e6 2.0504054294361856e6 0.0
2.0504054294361856e6 -1.5232046423853384e6 0.0
0.0 0.0 0.0

-937193.2695906637 6.478149302915816e6 0.0
6.478149302915816e6 -1.3329703868067376e6 0.0
0.0 0.0 0.0

-648910.4322405499 1.0019111930082824e7 0.0
1.0019111930082824e7 -2.3077916844506874e6 0.0
0.0 0.0 0.0

-1.830321490262946e6 3.6069385252567576e6 0.0
3.6069385252567576e6 370745.09516507504 0.0
0.0 0.0 0.0

-9.74232816197524e6 8.460015636313355e6 0.0
8.460015636313355e6 4.1758103907060986e6 0.0
0.0 0.0 0.0

-421390.4261377179 2.656733348973213e6 0.0
2.656733348973213e6 -739876.4686013425 0.0
0.0 0.0 0.0

-3.057907395816241e6 6.916982855718293e6 0.0
6.916982855718293e6 1.015031302724445e6 0.0
0.0 0.0 0.0

-1.403368033515196e6 9.410462355397152e6 0.0
9.410462355397152e6 -179613.86667307263 0.0
0.0 0.0 0.0

-1.212078316701683e6 2.7163298574919114e6 0.0
2.7163298574919114e6 -276679.24821700144 0.0
0.0 0.0 0.0

-501981.81455491553 5.334774877909914e6 0.0
5.334774877909914e6 -2.1242411860017404e6 0.0
0.0 0.0 0.0

-915883.3366030884 4.536961060861223e6 0.0
4.536961060861223e6 2.5055511339812838e6 0.0
0.0 0.0 0.0

-1.082061268538823e6 7.077909573652272e6 0.0
7.077909573652272e6 1.1123448879341343e6 0.0
0.0 0.0 0.0

-494873.9059547477 6.802152782264133e6 0.0
6.802152782264133e6 -512241.26882957725 0.0
0.0 0.0 0.0

-1.4836385920316437e6 3.227822357182495e6 0.0
3.227822357182495e6 258798.2407793888 0.0
0.0 0.0 0.0

-8.063741062669201e6 7.695645839608693e6 0.0
7.695645839608693e6 3.1659313550716154e6 0.0
0.0 0.0 0.0

-8.186100151639165e6 3.754528200823051e6 0.0
3.754528200823051e6 6.067261956717211e6 0.0
0.0 0.0 0.0

-1.291713133380685e6 3.0249915218144148e6 0.0
3.0249915218144148e6 158060.09283508128 0.0
0.0 0.0 0.0

-383069.72351665614 4.108021797088202e6 0.0
4.108021797088202e6 -2.271987326527102e6 0.0
0.0 0.0 0.0

-39290.16173762095 1.063904638641773e6 0.0
1.063904638641773e6 -2.734249912019315e6 0.0
0.0 0.0 0.0

-1.2467574776005764e6 6.711238135999483e6 0.0
6.711238135999483e6 -796441.4688001121 0.0
0.0 0.0 0.0

-1.0058555681613337e6 6.563492049780856e6 0.0
6.563492049780856e6 -1.2787622465193023e6 0.0
0.0 0.0 0.0

-1.4512849075603464e6 7.089155418471615e6 0.0
7.089155418471615e6 -617254.3503031342 0.0
0.0 0.0 0.0

-1.1254834868342606e7 1.051771335926117e7 0.0
1.051771335926117e7 3.1465625615052027e6 0.0
0.0 0.0 0.0

-2.6329951088950075e6 3.7614721503653578e6 0.0
3.7614721503653578e6 918820.1877859563 0.0
0.0 0.0 0.0

-1.7130955115111473e6 7.76198627779e6 0.0
7.76198627779e6 -507449.61621178634 0.0
0.0 0.0 0.0

-1.873627294209938e6 7.976704699998025e6 0.0
7.976704699998025e6 -592415.7571923583 0.0
0.0 0.0 0.0

-1.2411486507541495e6 7.049351875349045e6 0.0
7.049351875349045e6 -1.4100691894635796e6 0.0
0.0 0.0 0.0

-2.512882908487028e6 4.326144380420122e6 0.0
4.326144380420122e6 957827.4623263224 0.0
0.0 0.0 0.0

-497992.2316438834 6.680995827062965e6 0.0
6.680995827062965e6 -290857.2670452324 0.0
0.0 0.0 0.0

-1.8155836677770633e6 5.518227383249311e6 0.0
5.518227383249311e6 258146.48783829552 0.0
0.0 0.0 0.0

-7.383457373853828e6 -1.4420135850912547e6 0.0
-1.4420135850912547e6 1.6052117223181779e7 0.0
0.0 0.0 0.0

860943.6466897028 1.0828206544641284e6 0.0
1.0828206544641284e6 -1.0991855682601212e6 0.0
0.0 0.0 0.0

-2.094385727079367e7 2.5171397575155135e7 0.0
2.5171397575155135e7 -1.8066208728521587e6 0.0
0.0 0.0 0.0

-224139.63421934255 7.257874917417257e6 0.0
7.257874917417257e6 -315564.18793550687 0.0
0.0 0.0 0.0

-7.138179631733727e6 7.231708015981684e6 0.0
7.231708015981684e6 2.9956628958863383e6 0.0
0.0 0.0 0.0

-1.405709209316568e6 8.382023126261042e6 0.0
8.382023126261042e6 -1.0503869656527597e6 0.0
0.0 0.0 0.0

-1.1772134864811173e6 7.122133992207659e6 0.0
7.122133992207659e6 -802535.6403445053 0.0
0.0 0.0 0.0

-2.779374298850243e6 4.221711666441688e6 0.0
4.221711666441688e6 1.0396860150389822e6 0.0
0.0 0.0 0.0

-19789.742668904248 2.052370244295342e6 0.0
2.052370244295342e6 -1.4016274756748846e6 0.0
0.0 0.0 0.0

-67457.42391951208 7.627809972163727e6 0.0
7.627809972163727e6 -1.336021029243195e6 0.0
0.0 0.0 0.0

-864734.7541505314 6.487014727821459e6 0.0
6.487014727821459e6 -1.403811769384324e6 0.0
0.0 0.0 0.0

-1.1739683647273742e6 8.92030017660381e6 0.0
8.92030017660381e6 -578189.7536200696 0.0
0.0 0.0 0.0

-385839.1920879542 4.500120337526482e6 0.0
4.500120337526482e6 -2.1145122107901946e6 0.0
0.0 0.0 0.0

-2.2335261235496216e6 3.8570675152217173e6 0.0
3.8570675152217173e6 798588.0740620998 0.0
0.0 0.0 0.0

1.434695790685399e6 3.8730075884366804e6 0.0
3.8730075884366804e6 -2.968301502533713e6 0.0
0.0 0.0 0.0

-1.0134006410219354e6 2.1153062883673813e6 0.0
2.1153062883673813e6 -449765.8779331525 0.0
0.0 0.0 0.0

-3.1199339882267555e6 6.596256921594481e6 0.0
6.596256921594481e6 392889.5826487271 0.0
0.0 0.0 0.0

-788431.5832311586 6.069248288331974e6 0.0
6.069248288331974e6 -1.5108559346763599e6 0.0
0.0 0.0 0.0

-1.5980662175477797e6 2.955754075967465e6 0.0
2.955754075967465e6 -286261.7149257484 0.0
0.0 0.0 0.0

-1.679838140443568e6 8.763055420809774e6 0.0
8.763055420809774e6 -499935.0413212061 0.0
0.0 0.0 0.0

-760346.7632112474 6.536484177715444e6 0.0
6.536484177715444e6 376634.68604559 0.0
0.0 0.0 0.0

-368513.63919435034 5.476376681970023e6 0.0
5.476376681970023e6 -1.3408797902287801e6 0.0
0.0 0.0 0.0

-1.7016055100281578e6 3.4599803320666873e6 0.0
3.4599803320666873e6 240782.0316186929 0.0
0.0 0.0 0.0

-801127.7359112625 3.2806092699163724e6 0.0
3.2806092699163724e6 507665.7438657336 0.0
0.0 0.0 0.0

-927666.5913431274 6.306316415280088e6 0.0
6.306316415280088e6 73982.8312593365 0.0
0.0 0.0 0.0

-1.7309093776746239e6 3.4164049684268907e6 0.0
3.4164049684268907e6 612795.1426509552 0.0
0.0 0.0 0.0

-779539.9723411934 1.8372737272912264e6 0.0
1.8372737272912264e6 236007.81639754883 0.0
0.0 0.0 0.0

-1.9885857268472686e6 3.7465347661094503e6 0.0
3.7465347661094503e6 796316.7842052598 0.0
0.0 0.0 0.0

-2.2811401564257583e6 4.8513053609758485e6 0.0
4.8513053609758485e6 971121.8403096643 0.0
0.0 0.0 0.0

-210122.08414754292 2.9389924406888634e6 0.0
2.9389924406888634e6 -875175.5296782815 0.0
0.0 0.0 0.0

-1.7826086947593468e6 8.625216000842331e6 0.0
8.625216000842331e6 -566026.9434461843 0.0
0.0 0.0 0.0

-2.819748054295283e6 3.9190982270631995e6 0.0
3.9190982270631995e6 903476.4369979517 0.0
0.0 0.0 0.0

-1.8432173559566112e6 3.459351008998404e6 0.0
3.459351008998404e6 819046.6088037585 0.0
0.0 0.0 0.0

-478073.22201027523 154321.23960990564 0.0
154321.23960990564 541872.8165730069 0.0
0.0 0.0 0.0

-1.1745718305193344e6 6.04515777439634e6 0.0
6.04515777439634e6 -131614.2112238961 0.0
0.0 0.0 0.0

-1.1845206614461048e6 3.001131985284619e6 0.0
3.001131985284619e6 187292.29781461344 0.0
0.0 0.0 0.0

-479318.6011279404 4.431122191359214e6 0.0
4.431122191359214e6 -2.132149336392244e6 0.0
0.0 0.0 0.0

-1.376202406929954e6 5.278675865959806e6 0.0
5.278675865959806e6 2.6861503395662615e6 0.0
0.0 0.0 0.0

-1.2936582580749416e6 3.2103345037271194e6 0.0
3.2103345037271194e6 826063.3994800779 0.0
0.0 0.0 0.0

-481457.57482685364 8.476752107443465e6 0.0
8.476752107443465e6 -2.4339007993379054e6 0.0
0.0 0.0 0.0

-292413.77581921313 3.797386053701388e6 0.0
3.797386053701388e6 -2.3809770787609825e6 0.0
0.0 0.0 0.0

-637288.140982039 6.862445547843385e6 0.0
6.862445547843385e6 301423.47329929133 0.0
0.0 0.0 0.0

-900669.2597872368 6.39507339216933e6 0.0
6.39507339216933e6 1.0202136405212708e6 0.0
0.0 0.0 0.0

-1.2178055474313332e6 4.723172159615036e6 0.0
4.723172159615036e6 -732328.9012862234 0.0
0.0 0.0 0.0

-2.484987380597635e6 4.855224224032027e6 0.0
4.855224224032027e6 912403.656207765 0.0
0.0 0.0 0.0

-5.502365054266553e6 6.512503421336853e6 0.0
6.512503421336853e6 2.136566942605177e6 0.0
0.0 0.0 0.0

-1.0866692036215684e6 6.371028649281063e6 0.0
6.371028649281063e6 -1.0498213589180151e6 0.0
0.0 0.0 0.0

665288.5831760586 1.2162254341632547e6 0.0
1.2162254341632547e6 -987710.7858162399 0.0
0.0 0.0 0.0

-677539.3490342677 4.787020294048034e6 0.0
4.787020294048034e6 -1.9019542649350017e6 0.0
0.0 0.0 0.0

-2.3619906593630197e6 4.1734409538340205e6 0.0
4.1734409538340205e6 1.1849411205034256e6 0.0
0.0 0.0 0.0

-1.0822464378529869e6 2.907520563190236e6 0.0
2.907520563190236e6 697358.9876117501 0.0
0.0 0.0 0.0

-136600.6162199195 7.284735488311092e6 0.0
7.284735488311092e6 -451863.69339800964 0.0
0.0 0.0 0.0

-255549.85603403742 3.792801069955286e6 0.0
3.792801069955286e6 -2.427087239139105e6 0.0
0.0 0.0 0.0

-526878.5371188263 4.960720834004533e6 0.0
4.960720834004533e6 -2.047096850412303e6 0.0
0.0 0.0 0.0

-5.8669537810755465e6 1.0518312318039143e7 0.0
1.0518312318039143e7 1.3649476843064048e6 0.0
0.0 0.0 0.0

-2.707854843469132e6 3.729120872744064e6 0.0
3.729120872744064e6 901182.554385921 0.0
0.0 0.0 0.0

-2.8437795503869765e6 4.17085730880313e6 0.0
4.17085730880313e6 1.0245589746082023e6 0.0
0.0 0.0 0.0

-2.925781960373353e6 4.443177238407118e6 0.0
4.443177238407118e6 706769.2545281766 0.0
0.0 0.0 0.0

111803.28407117876 9.111238984785235e6 0.0
9.111238984785235e6 -2.6370886757540624e6 0.0
0.0 0.0 0.0

-388878.5151390796 5.496088328103636e6 0.0
5.496088328103636e6 -2.130749154754165e6 0.0
0.0 0.0 0.0

-2.360003192544416e6 4.0314501748620574e6 0.0
4.0314501748620574e6 1.1099479887668598e6 0.0
0.0 0.0 0.0

-1.5142085074512155e6 7.843214531202564e6 0.0
7.843214531202564e6 -379185.53090309014 0.0
0.0 0.0 0.0

-5.195712875142617e6 6.338721369590294e6 0.0
6.338721369590294e6 1.9364713148313125e6 0.0
0.0 0.0 0.0

-685632.3239828562 2.7834773767031967e6 0.0
2.7834773767031967e6 -549244.8912870989 0.0
0.0 0.0 0.0

-1.3374519214408023e6 2.713482254128766e6 0.0
2.713482254128766e6 577100.6294003756 0.0
0.0 0.0 0.0

-4.950199715870501e6 6.105635828096209e6 0.0
6.105635828096209e6 1.8392646705477547e6 0.0
0.0 0.0 0.0

-1.6996105211095046e6 8.215731137057232e6 0.0
8.215731137057232e6 -449358.574477145 0.0
0.0 0.0 0.0

-1.1019877733056757e6 6.998064653303291e6 0.0
6.998064653303291e6 -1.3296825524883715e6 0.0
0.0 0.0 0.0

-1.8004901106157403e6 3.6272824157449403e6 0.0
3.6272824157449403e6 457385.4639891167 0.0
0.0 0.0 0.0

-198303.20558321744 3.697790378433113e6 0.0
3.697790378433113e6 -2.510765439323783e6 0.0
0.0 0.0 0.0

-3.783078909021276e6 4.654057526252161e6 0.0
4.654057526252161e6 1.2769984415372151e6 0.0
0.0 0.0 0.0

-1.2532282087903451e6 5.894158833416616e6 0.0
5.894158833416616e6 29640.483863896283 0.0
0.0 0.0 0.0

-363808.08591247036 4.1785137189263366e6 0.0
4.1785137189263366e6 -2.3431802504558163e6 0.0
0.0 0.0 0.0

-2.865398478215038e6 4.432397298570772e6 0.0
4.432397298570772e6 921516.4715816815 0.0
0.0 0.0 0.0

-1.2882134828079324e6 3.2278588594808076e6 0.0
3.2278588594808076e6 705332.023351243 0.0
0.0 0.0 0.0

-287441.0196200392 1.0189885527435625e7 0.0
1.0189885527435625e7 -2.041005774163813e6 0.0
0.0 0.0 0.0

-507156.8904358115 4.662054139778902e6 0.0
4.662054139778902e6 -477152.87799191044 0.0
0.0 0.0 0.0

-2.6167729062304674e6 4.1372012186061577e6 0.0
4.1372012186061577e6 1.0260767280850954e6 0.0
0.0 0.0 0.0

-383941.4475769918 4.338060437801054e6 0.0
4.338060437801054e6 -2.3589291226652083e6 0.0
0.0 0.0 0.0

-1.316986200563971e7 1.305506554566985e7 0.0
1.305506554566985e7 3.4213049848772706e6 0.0
0.0 0.0 0.0

-1.6328066712595657e6 3.3196570060447454e6 0.0
3.3196570060447454e6 1.0610400376137476e6 0.0
0.0 0.0 0.0

-538324.7685049877 5.647829627940369e6 0.0
5.647829627940369e6 -2.584967348793878e6 0.0
0.0 0.0 0.0

-1.1938811789795826e6 2.869434128056599e6 0.0
2.869434128056599e6 -385055.5441932205 0.0
0.0 0.0 0.0

-2.0983094219452324e6 3.778016313283144e6 0.0
3.778016313283144e6 730638.0875373214 0.0
0.0 0.0 0.0

-1.3561253185099019e6 4.366165870538496e6 0.0
4.366165870538496e6 3.094588518436817e6 0.0
0.0 0.0 0.0

-1.6705789602750205e6 3.4797400843978873e6 0.0
3.4797400843978873e6 336297.51069811196 0.0
0.0 0.0 0.0

-8.436916953996237e6 3.6164512252450245e6 0.0
3.6164512252450245e6 1.1086891691965025e7 0.0
0.0 0.0 0.0

-2.155769229278758e6 3.8426054880965212e6 0.0
3.8426054880965212e6 750908.6092785298 0.0
0.0 0.0 0.0

-439799.07495827205 4.467604142877513e6 0.0
4.467604142877513e6 -1.7482653017461677e6 0.0
0.0 0.0 0.0

-1.153606858827463e6 6.850833823099927e6 0.0
6.850833823099927e6 -815209.8115265522 0.0
0.0 0.0 0.0

1.3504075939857185e7 9.962319787425684e6 0.0
9.962319787425684e6 -318191.0801163288 0.0
0.0 0.0 0.0

259739.87928931223 158304.73618187066 0.0
158304.73618187066 -963555.5875598916 0.0
0.0 0.0 0.0

1691.0514359542867 1.6647323701894875e6 0.0
1.6647323701894875e6 -2.597822687694148e6 0.0
0.0 0.0 0.0

95704.98366231122 2.6040462027830533e6 0.0
2.6040462027830533e6 -938443.6113435725 0.0
0.0 0.0 0.0

-2.7587878867090843e6 4.561969191388518e6 0.0
4.561969191388518e6 596196.917671159 0.0
0.0 0.0 0.0

-157815.80197315768 -213014.5948799931 0.0
-213014.5948799931 849833.5056811617 0.0
0.0 0.0 0.0

-443853.5202194421 5.659574774282476e6 0.0
5.659574774282476e6 -2.308090302392347e6 0.0
0.0 0.0 0.0

-1.0160197830963819e6 2.731200858088015e6 0.0
2.731200858088015e6 552903.7639187467 0.0
0.0 0.0 0.0

-1.9507436071197558e6 3.534392514896836e6 0.0
3.534392514896836e6 1.0074584392494522e6 0.0
0.0 0.0 0.0

-74648.41344573023 809079.5605554954 0.0
809079.5605554954 -2.856495692681979e6 0.0
0.0 0.0 0.0

-1.4022164742526233e6 6.954302050437559e6 0.0
6.954302050437559e6 -701208.6872455006 0.0
0.0 0.0 0.0

-6.0382539716375135e6 6.556474785236809e6 0.0
6.556474785236809e6 2.8358673350371188e6 0.0
0.0 0.0 0.0

-561974.6392722484 8.260803864424196e6 0.0
8.260803864424196e6 -2.0589846458043377e6 0.0
0.0 0.0 0.0

-1.8951746472977728e6 6.58689060772999e6 0.0
6.58689060772999e6 79483.15859724232 0.0
0.0 0.0 0.0

-1.1731912205308177e7 -5.431734153360929e6 0.0
-5.431734153360929e6 2.677538069128107e7 0.0
0.0 0.0 0.0

-915170.1571679302 3.999779199541237e6 0.0
3.999779199541237e6 -4.9876728699966185e6 0.0
0.0 0.0 0.0

-658529.2506220595 5.497883476765602e6 0.0
5.497883476765602e6 -2.755414063502366e6 0.0
0.0 0.0 0.0

-1.0518629646329037e6 6.52737583344031e6 0.0
6.52737583344031e6 -1.0911495208323908e6 0.0
0.0 0.0 0.0

49924.902136423276 3.7131176944505465e6 0.0
3.7131176944505465e6 -2.7132899568949747e6 0.0
0.0 0.0 0.0

-3.881108373952539e6 6.031861337809378e6 0.0
6.031861337809378e6 -345588.06812367064 0.0
0.0 0.0 0.0

-1.4758307114963303e6 7.519374805601354e6 0.0
7.519374805601354e6 -560709.3452608932 0.0
0.0 0.0 0.0

241075.84018242697 98954.23444272316 0.0
98954.23444272316 -931503.8163116565 0.0
0.0 0.0 0.0

-1.094761338242734e6 3.1529219476781124e6 0.0
3.1529219476781124e6 -469524.6469232292 0.0
0.0 0.0 0.0

-2.9299090555585297e6 4.093489832219476e6 0.0
4.093489832219476e6 994393.2659425449 0.0
0.0 0.0 0.0

-2.4398067794655706e6 4.12637276251306e6 0.0
4.12637276251306e6 936324.1824368731 0.0
0.0 0.0 0.0

-1.4344305871126922e6 3.214362626256761e6 0.0
3.214362626256761e6 86222.50062901876 0.0
0.0 0.0 0.0

-419037.6062355683 2.766893341287296e6 0.0
2.766893341287296e6 -759286.6201453952 0.0
0.0 0.0 0.0

-2775.5953888237127 6.726934071256532e6 0.0
6.726934071256532e6 -1.2618736325090502e6 0.0
0.0 0.0 0.0

-1.8734956542961076e6 7.440087110926462e6 0.0
7.440087110926462e6 -323921.08053824125 0.0
0.0 0.0 0.0

-247903.387737657 1.7681769267150806e6 0.0
1.7681769267150806e6 -1.0336225504522418e6 0.0
0.0 0.0 0.0

-3.109833368557715e6 5.306058011922149e6 0.0
5.306058011922149e6 901255.0827753001 0.0
0.0 0.0 0.0

-1.5594636834175696e6 3.093936689976437e6 0.0
3.093936689976437e6 847222.0455907692 0.0
0.0 0.0 0.0

-1.7850376561004394e6 3.582074947088036e6 0.0
3.582074947088036e6 412639.10491228197 0.0
0.0 0.0 0.0

68391.7169050978 144097.80483235748 0.0
144097.80483235748 -273031.8166362133 0.0
0.0 0.0 0.0

-44047.49801119219 1.275174304365463e6 0.0
1.275174304365463e6 -2.660622369323227e6 0.0
0.0 0.0 0.0

161649.18999776128 4.266610607410611e6 0.0
4.266610607410611e6 -2.762080909001272e6 0.0
0.0 0.0 0.0

-1.168558272808928e6 2.640228302110824e6 0.0
2.640228302110824e6 419384.3989726401 0.0
0.0 0.0 0.0

-818803.1068569312 3.278096389686327e6 0.0
3.278096389686327e6 -4.604070949251761e6 0.0
0.0 0.0 0.0

-2.309614997569968e6 -4.836357284047166e6 0.0
-4.836357284047166e6 4.125695212368346e6 0.0
0.0 0.0 0.0

-1.1666802433670158e6 6.609420197563045e6 0.0
6.609420197563045e6 -1.2183243464202092e6 0.0
0.0 0.0 0.0

-997642.7190258667 6.070604542584275e6 0.0
6.070604542584275e6 -1.2598264926621045e6 0.0
0.0 0.0 0.0

-4.21295028051467e6 8.017706277699439e6 0.0
8.017706277699439e6 1.7379805551441836e6 0.0
0.0 0.0 0.0

-3.2684607658803384e6 4.999475002735956e6 0.0
4.999475002735956e6 786478.5383215218 0.0
0.0 0.0 0.0

-2.51104768397487e6 4.128055018912981e6 0.0
4.128055018912981e6 979916.5923926944 0.0
0.0 0.0 0.0

-2.539755377484909e6 5.842744132382893e6 0.0
5.842744132382893e6 503658.7333178787 0.0
0.0 0.0 0.0

-5.074140490015925e6 4.942823359315856e6 0.0
4.942823359315856e6 1.790974232351157e6 0.0
0.0 0.0 0.0

-2.687500954358015e6 4.399811272050556e6 0.0
4.399811272050556e6 1.0856359919772288e6 0.0
0.0 0.0 0.0

-618701.8018668605 6.5882335188609455e6 0.0
6.5882335188609455e6 -504665.3478127328 0.0
0.0 0.0 0.0

-449318.9209768424 2.5065601495296145e6 0.0
2.5065601495296145e6 -3.9913855462013544e6 0.0
0.0 0.0 0.0

-39947.02874450665 552494.826271205 0.0
552494.826271205 -3.4051094390527145e6 0.0
0.0 0.0 0.0

-189175.51066551066 2.0536097298162796e6 0.0
2.0536097298162796e6 -3.6459908115151897e6 0.0
0.0 0.0 0.0

-3.053439873920479e6 3.9344281013229964e6 0.0
3.9344281013229964e6 882991.8685366346 0.0
0.0 0.0 0.0

-1.2596196181292757e6 2.837945832351334e6 0.0
2.837945832351334e6 -313497.81123804656 0.0
0.0 0.0 0.0

41422.033201436774 -576647.8983230112 0.0
-576647.8983230112 627303.2275077077 0.0
0.0 0.0 0.0

-983075.439430204 2.5416951307440666e6 0.0
2.5416951307440666e6 197821.30380629358 0.0
0.0 0.0 0.0

-217610.69804381952 3.242627943726619e6 0.0
3.242627943726619e6 -1.6780868109472904e6 0.0
0.0 0.0 0.0

-2.7730804214967256e6 5.235078382997677e6 0.0
5.235078382997677e6 399972.14842098416 0.0
0.0 0.0 0.0

-409258.1344177938 5.601782249749135e6 0.0
5.601782249749135e6 -2.355380419331113e6 0.0
0.0 0.0 0.0

1.0669807984413875e6 145713.45090866755 0.0
145713.45090866755 -796648.5746972053 0.0
0.0 0.0 0.0

-178967.63964476748 1.9925695250646346e6 0.0
1.9925695250646346e6 -468738.7445157339 0.0
0.0 0.0 0.0

-662849.8694437437 3.0463726810665675e6 0.0
3.0463726810665675e6 420289.5194995329 0.0
0.0 0.0 0.0

-1.8786269624478063e6 5.559614546831091e6 0.0
5.559614546831091e6 931384.3589560987 0.0
0.0 0.0 0.0

-686106.8379025877 5.723672884330349e6 0.0
5.723672884330349e6 -1.8434865927257342e6 0.0
0.0 0.0 0.0

-294729.89837907325 2.3566705093217986e6 0.0
2.3566705093217986e6 -3.838842931514774e6 0.0
0.0 0.0 0.0

-75892.57156370196 2.0272925805190555e6 0.0
2.0272925805190555e6 -2.2777401036781226e6 0.0
0.0 0.0 0.0

-4.5947490047628805e6 1.2540952825278467e7 0.0
1.2540952825278467e7 76594.92487381306 0.0
0.0 0.0 0.0

-1.7924883915613962e6 -4.0102979712766134e6 0.0
-4.0102979712766134e6 3.018696836152695e6 0.0
0.0 0.0 0.0

-62270.995509804925 3.6592261131822215e6 0.0
3.6592261131822215e6 -2.4488351697128643e6 0.0
0.0 0.0 0.0

-9.365796129486088e6 -8.034232199048254e6 0.0
-8.034232199048254e6 1.4984209889296964e7 0.0
0.0 0.0 0.0

-634977.4636873306 2.827466519420547e6 0.0
2.827466519420547e6 -4.225045985877167e6 0.0
0.0 0.0 0.0

-2.709550990826377e6 4.832043602616495e6 0.0
4.832043602616495e6 892462.1159594689 0.0
0.0 0.0 0.0

-600432.9943833323 3.077193017567775e6 0.0
3.077193017567775e6 -1.1537657128120915e6 0.0
0.0 0.0 0.0

-1.225165512154276e6 8.32500689878863e6 0.0
8.32500689878863e6 -1.0048849058330539e6 0.0
0.0 0.0 0.0

-1.074495005927185e6 6.113200683153386e6 0.0
6.113200683153386e6 -1.2693054135611553e6 0.0
0.0 0.0 0.0

-2.685765276772977e6 -5.681834517541611e6 0.0
-5.681834517541611e6 5.322509555521568e6 0.0
0.0 0.0 0.0

-244351.4614636941 2.2160363776395554e6 0.0
2.2160363776395554e6 -3.695615398441522e6 0.0
0.0 0.0 0.0

-1.7541993084096876e6 3.1279582301611886e6 0.0
3.1279582301611886e6 1.2727327858220101e6 0.0
0.0 0.0 0.0

-1.3513724253272926e6 3.004722945530624e6 0.0
3.004722945530624e6 547540.7822152188 0.0
0.0 0.0 0.0

-1.2629887936434615e6 3.42399739972714e6 0.0
3.42399739972714e6 730954.8501182277 0.0
0.0 0.0 0.0

-1.5371762012158157e6 3.3376175085371174e6 0.0
3.3376175085371174e6 259000.99080996576 0.0
0.0 0.0 0.0

-2.009060041589153e6 6.34247984525587e6 0.0
6.34247984525587e6 2.1456629814649634e6 0.0
0.0 0.0 0.0

-1.822220054864452e6 7.537572210847816e6 0.0
7.537572210847816e6 -168881.90561338066 0.0
0.0 0.0 0.0

-3.326899237621765e6 4.240152952016009e6 0.0
4.240152952016009e6 1.0070179708424481e6 0.0
0.0 0.0 0.0

-2.536045981363632e6 6.934044256208422e6 0.0
6.934044256208422e6 107999.35834351461 0.0
0.0 0.0 0.0

-1.0421704532639596e6 6.406458253177691e6 0.0
6.406458253177691e6 -1.248782434850939e6 0.0
0.0 0.0 0.0

-3.107671255965486e6 4.792271821444216e6 0.0
4.792271821444216e6 884263.0734326455 0.0
0.0 0.0 0.0

-1.5632851901517203e6 6.569083748223639e6 0.0
6.569083748223639e6 255895.64116208628 0.0
0.0 0.0 0.0

-888214.1220904537 6.37754589230743e6 0.0
6.37754589230743e6 -1.421740456982409e6 0.0
0.0 0.0 0.0

-1.676021950813016e6 3.1904556054365276e6 0.0
3.1904556054365276e6 1.6515439648938426e6 0.0
0.0 0.0 0.0

-1.275803656041855e6 2.734743482267801e6 0.0
2.734743482267801e6 564284.2864338899 0.0
0.0 0.0 0.0

-1.1016856874887897e6 6.195804164843061e6 0.0
6.195804164843061e6 -1.4568847670117402e6 0.0
0.0 0.0 0.0

-809613.40457866 264411.6407521373 0.0
264411.6407521373 1.7179363207064795e6 0.0
0.0 0.0 0.0

-107852.21243264095 612447.7490027582 0.0
612447.7490027582 -3.02793223382613e6 0.0
0.0 0.0 0.0

-666024.3159901939 6.770401377073431e6 0.0
6.770401377073431e6 -75559.84402456437 0.0
0.0 0.0 0.0

-911824.1347932359 -2.971676594951723e6 0.0
-2.971676594951723e6 1.7509364750096668e6 0.0
0.0 0.0 0.0

-132854.7654856533 1.7433817570326084e6 0.0
1.7433817570326084e6 -3.4369500121926735e6 0.0
0.0 0.0 0.0

-130953.57858269254 576321.5369701548 0.0
576321.5369701548 -3.1895488314777715e6 0.0
0.0 0.0 0.0

-312319.43189959315 85779.30683071805 0.0
85779.30683071805 1.358219344278666e6 0.0
0.0 0.0 0.0

-2.5080127510530567e6 3.9964164680184256e6 0.0
3.9964164680184256e6 5.539629078837359e6 0.0
0.0 0.0 0.0

-72321.77506322204 1.5711451445635848e6 0.0
1.5711451445635848e6 -3.4295992234071917e6 0.0
0.0 0.0 0.0

-373515.3464679431 -2.5317079926310955e6 0.0
-2.5317079926310955e6 769892.9781371284 0.0
0.0 0.0 0.0

-1.335799906532841e6 6.1965785024622595e6 0.0
6.1965785024622595e6 436418.9156836698 0.0
0.0 0.0 0.0

-33996.39699611017 1.0629951708731167e6 0.0
1.0629951708731167e6 348676.3230799421 0.0
0.0 0.0 0.0

-177647.7045801364 231143.0600434632 0.0
231143.0600434632 1.0084616819438499e6 0.0
0.0 0.0 0.0

-46110.77392581175 579360.7572788434 0.0
579360.7572788434 -3.3453236520633744e6 0.0
0.0 0.0 0.0

-163725.34084359708 1.2015605082205967e6 0.0
1.2015605082205967e6 -3.4052875117021627e6 0.0
0.0 0.0 0.0

-174093.37435457425 -2.1349554190772097e6 0.0
-2.1349554190772097e6 446969.57161698944 0.0
0.0 0.0 0.0

-5.1513475075561464e7 1.3174730829488885e7 0.0
1.3174730829488885e7 7.486481592790607e6 0.0
0.0 0.0 0.0

2.1083010874377873e7 9.80887719436913e6 0.0
9.80887719436913e6 -3.0832347328476375e6 0.0
0.0 0.0 0.0

-1.4450887452017735e6 3.2149855435781516e6 0.0
3.2149855435781516e6 161457.1967712625 0.0
0.0 0.0 0.0

-117516.93391180632 1.0246469205949092e6 0.0
1.0246469205949092e6 -3.274461403999175e6 0.0
0.0 0.0 0.0

-258312.4427302461 -1.4402145327920935e6 0.0
-1.4402145327920935e6 593062.8977414615 0.0
0.0 0.0 0.0

-492181.00033009186 5.122525898912429e6 0.0
5.122525898912429e6 -1.5488273925398344e6 0.0
0.0 0.0 0.0

-1.2157699171909145e6 2.773157204259244e6 0.0
2.773157204259244e6 506454.16443490697 0.0
0.0 0.0 0.0

-3.037374775532267e6 4.0522994659568216e6 0.0
4.0522994659568216e6 1.023672083715e6 0.0
0.0 0.0 0.0

-659511.0730898182 6.741101178355519e6 0.0
6.741101178355519e6 -114685.95195217042 0.0
0.0 0.0 0.0

-42370.710767499375 -787026.0374413402 0.0
-787026.0374413402 661239.3952557466 0.0
0.0 0.0 0.0

-69310.248337692 885551.3223879564 0.0
885551.3223879564 -3.2289435278374446e6 0.0
0.0 0.0 0.0

-2.0859634652757768e6 6.725885191011429e6 0.0
6.725885191011429e6 -80519.63095262263 0.0
0.0 0.0 0.0

-505755.80134476157 5.6734564706621645e6 0.0
5.6734564706621645e6 -2.6274129508746415e6 0.0
0.0 0.0 0.0

-3.2232259398836195e6 4.979618053945003e6 0.0
4.979618053945003e6 886225.1214448051 0.0
0.0 0.0 0.0

-1.1331693382534725e6 6.62444612848738e6 0.0
6.62444612848738e6 -949397.5929187131 0.0
0.0 0.0 0.0

-873449.5494090205 5.567630849172021e6 0.0
5.567630849172021e6 -1.5749319623452956e6 0.0
0.0 0.0 0.0

-728568.5876798293 6.444766439236176e6 0.0
6.444766439236176e6 -474809.5511900328 0.0
0.0 0.0 0.0

-1.6397384031876232e6 9.056161292823255e6 0.0
9.056161292823255e6 -443024.5578148932 0.0
0.0 0.0 0.0

-1.597806609222744e6 8.204192355854939e6 0.0
8.204192355854939e6 -398047.73210246547 0.0
0.0 0.0 0.0

-463588.7809973346 5.501142415618937e6 0.0
5.501142415618937e6 -2.4286845190683417e6 0.0
0.0 0.0 0.0

-3.289103873734229e6 4.206173002133373e6 0.0
4.206173002133373e6 1.0572327657497793e6 0.0
0.0 0.0 0.0

-2.4923156397365034e6 4.1369253189631486e6 0.0
4.1369253189631486e6 992421.7055365677 0.0
0.0 0.0 0.0

-3.846520377919944e6 5.4589523667775225e6 0.0
5.4589523667775225e6 2.3978850102751534e6 0.0
0.0 0.0 0.0

-834746.9356986696 5.299287412936225e6 0.0
5.299287412936225e6 -1.5758975800847937e6 0.0
0.0 0.0 0.0

-774883.4481920196 2.5492696944447886e6 0.0
2.5492696944447886e6 -101075.92922817523 0.0
0.0 0.0 0.0

-139754.0452346201 7.032629816474579e6 0.0
7.032629816474579e6 -535520.3873007931 0.0
0.0 0.0 0.0

-994549.0836421335 2.779449759993867e6 0.0
2.779449759993867e6 6714.685942539596 0.0
0.0 0.0 0.0

-1.6454151142448713e6 3.232177872203492e6 0.0
3.232177872203492e6 12641.293188391603 0.0
0.0 0.0 0.0

-3.1976806024635993e6 4.1169368682372244e6 0.0
4.1169368682372244e6 1.0523712875057827e6 0.0
0.0 0.0 0.0

-400887.26334440976 4.812324557201861e6 0.0
4.812324557201861e6 -2.350945371969225e6 0.0
0.0 0.0 0.0

-999713.8022915814 6.418769771948429e6 0.0
6.418769771948429e6 137069.93759800628 0.0
0.0 0.0 0.0

-5.32357072216872e6 4.970514768325963e6 0.0
4.970514768325963e6 1.8738926714143946e6 0.0
0.0 0.0 0.0

-1.8921830074008591e6 3.2759173936005216e6 0.0
3.2759173936005216e6 -35377.61619882868 0.0
0.0 0.0 0.0

-2.6993755974826245e6 5.696059525898379e6 0.0
5.696059525898379e6 278324.9788144649 0.0
0.0 0.0 0.0

455179.24593680014 4.482772767996391e6 0.0
4.482772767996391e6 1.0575203871394629e6 0.0
0.0 0.0 0.0

-3.1209848886681516e6 4.0663170261474065e6 0.0
4.0663170261474065e6 1.0314075406195875e6 0.0
0.0 0.0 0.0

-4.687385942022594e6 519993.20757151564 0.0
519993.20757151564 2.553680247305411e6 0.0
0.0 0.0 0.0

-3.6462411464022337e6 4.450852771097654e6 0.0
4.450852771097654e6 1.1655726643712174e6 0.0
0.0 0.0 0.0

43978.5892216044 1.9926498943600883e6 0.0
1.9926498943600883e6 -1.8116763246653734e6 0.0
0.0 0.0 0.0

-32644.511579006794 1.860574759602021e6 0.0
1.860574759602021e6 -1.9712139100282774e6 0.0
0.0 0.0 0.0

-2.397812405484449e6 6.15441763679871e6 0.0
6.15441763679871e6 205699.78538020642 0.0
0.0 0.0 0.0

-1.2103721438257778e6 6.216094008775351e6 0.0
6.216094008775351e6 763909.4878000659 0.0
0.0 0.0 0.0

-3.875315045788765e6 4.719779817173759e6 0.0
4.719779817173759e6 1.29241860340704e6 0.0
0.0 0.0 0.0

-1.3199076143036322e6 3.0660775336358147e6 0.0
3.0660775336358147e6 727770.5429392618 0.0
0.0 0.0 0.0

-4.6668214281308465e6 4.86896322077693e6 0.0
4.86896322077693e6 1.6024106467243275e6 0.0
0.0 0.0 0.0

-1.5034492667373857e6 5.8909983741123965e6 0.0
5.8909983741123965e6 25063.282144343248 0.0
0.0 0.0 0.0

-200434.15840565314 5.165223453644081e6 0.0
5.165223453644081e6 -1.855020099173842e6 0.0
0.0 0.0 0.0

-498021.5384506264 5.222880413132602e6 0.0
5.222880413132602e6 -1.8772268161834492e6 0.0
0.0 0.0 0.0

-2.9389188746732455e6 4.1370152993852003e6 0.0
4.1370152993852003e6 920567.2822214032 0.0
0.0 0.0 0.0

532221.5001331469 794169.1190640471 0.0
794169.1190640471 -854047.9302092949 0.0
0.0 0.0 0.0

-4.054290017012335e6 3.3918749887427427e6 0.0
3.3918749887427427e6 5.655891458876925e6 0.0
0.0 0.0 0.0

-499971.34946520795 5.5244088359723445e6 0.0
5.5244088359723445e6 -2.55032316365411e6 0.0
0.0 0.0 0.0

-1.2692428049172242e6 3.4455357414780473e6 0.0
3.4455357414780473e6 756026.4802184406 0.0
0.0 0.0 0.0

-958242.5952719981 9.630689489979347e6 0.0
9.630689489979347e6 -663394.6689522072 0.0
0.0 0.0 0.0

-642874.4573581147 5.918190185814694e6 0.0
5.918190185814694e6 -1.7186953600307214e6 0.0
0.0 0.0 0.0

-1.9209570395288444e6 3.1094556636428395e6 0.0
3.1094556636428395e6 18908.856982578174 0.0
0.0 0.0 0.0

-3.0706610954143405e6 5.191908651241765e6 0.0
5.191908651241765e6 743679.7282448227 0.0
0.0 0.0 0.0

-437179.9419942183 4.936015272029359e6 0.0
4.936015272029359e6 -1.7627916235496374e6 0.0
0.0 0.0 0.0

-911285.584922413 2.596134708068593e6 0.0
2.596134708068593e6 404842.78483778395 0.0
0.0 0.0 0.0

-1.4493196705639856e6 3.3856952753458233e6 0.0
3.3856952753458233e6 1.1118389321355892e6 0.0
0.0 0.0 0.0

-2.942314429731168e6 5.400857788199067e6 0.0
5.400857788199067e6 540596.7041059281 0.0
0.0 0.0 0.0

-1.4115902950445379e6 3.211058294275015e6 0.0
3.211058294275015e6 164654.18409685692 0.0
0.0 0.0 0.0

-42505.24986170174 2.986724463516982e6 0.0
2.986724463516982e6 -2.4698920121720308e6 0.0
0.0 0.0 0.0

-1.7391863177236412e6 3.5172628912153305e6 0.0
3.5172628912153305e6 381288.42601124395 0.0
0.0 0.0 0.0

-451276.4976476154 4.785727297927765e6 0.0
4.785727297927765e6 -1.8182477510170692e6 0.0
0.0 0.0 0.0

-404049.31718113605 5.117734553484285e6 0.0
5.117734553484285e6 -1.4696802363118157e6 0.0
0.0 0.0 0.0

-1.3439116653297856e6 5.359687415804378e6 0.0
5.359687415804378e6 1.3732068437657268e6 0.0
0.0 0.0 0.0

-1.4971987932983655e6 4.299049887041489e6 0.0
4.299049887041489e6 -567197.2037645702 0.0
0.0 0.0 0.0

-969886.8316015942 5.823189243115638e6 0.0
5.823189243115638e6 -1.458085367754945e6 0.0
0.0 0.0 0.0

-700962.5782984928 5.382046598940741e6 0.0
5.382046598940741e6 -1.969391631791605e6 0.0
0.0 0.0 0.0

-458342.33923964296 4.845763334121629e6 0.0
4.845763334121629e6 -1.7937452685128984e6 0.0
0.0 0.0 0.0

-1.0671147655433374e6 6.466643737099527e6 0.0
6.466643737099527e6 -1.3461332529149684e6 0.0
0.0 0.0 0.0

389583.18901077664 5.622179856241064e6 0.0
5.622179856241064e6 -900956.978468151 0.0
0.0 0.0 0.0

-3.160788074291799e6 4.115824746800216e6 0.0
4.115824746800216e6 940049.5802900756 0.0
0.0 0.0 0.0

-808207.7450188063 3.5035342222218346e6 0.0
3.5035342222218346e6 -1.247422008920481e6 0.0
0.0 0.0 0.0

-1.5419703141924064e6 5.90299568304328e6 0.0
5.90299568304328e6 495851.639969141 0.0
0.0 0.0 0.0

1.0918703079695993e6 247688.34913626546 0.0
247688.34913626546 -1.675992710614255e6 0.0
0.0 0.0 0.0

-652975.0439877205 6.856657272386378e6 0.0
6.856657272386378e6 -1.3817887800795285e6 0.0
0.0 0.0 0.0

-2.0522238797111525e6 4.1930892498985208e6 0.0
4.1930892498985208e6 1.9089636976263528e6 0.0
0.0 0.0 0.0

-1.0784194556137566e6 5.994650341658015e6 0.0
5.994650341658015e6 -1.5381479900771077e6 0.0
0.0 0.0 0.0

-2.3138976201612137e7 -3.9011165142183434e6 0.0
-3.9011165142183434e6 1.234413020285207e7 0.0
0.0 0.0 0.0

-1.9689004453502083e6 5.0940687634963915e6 0.0
5.0940687634963915e6 1.933330759403875e6 0.0
0.0 0.0 0.0

-1.2499149727581812e6 6.958552427803239e6 0.0
6.958552427803239e6 -678672.4869837951 0.0
0.0 0.0 0.0

-1.3019832867390958e6 4.63164522587323e6 0.0
4.63164522587323e6 -880087.6298322958 0.0
0.0 0.0 0.0

-693155.605779006 5.586400713755296e6 0.0
5.586400713755296e6 -1.757086412593178e6 0.0
0.0 0.0 0.0

-496181.3815628507 6.702589425131856e6 0.0
6.702589425131856e6 -523589.9067249776 0.0
0.0 0.0 0.0

-327100.26100304234 4.2318140026012575e6 0.0
4.2318140026012575e6 -2.0375975730777564e6 0.0
0.0 0.0 0.0

-277675.4937506169 6.80176999655708e6 0.0
6.80176999655708e6 -457416.8348479221 0.0
0.0 0.0 0.0

-1.469754205537748e6 6.751580721493698e6 0.0
6.751580721493698e6 -855100.3706720318 0.0
0.0 0.0 0.0

-732689.7231477562 5.864464694157717e6 0.0
5.864464694157717e6 -1.745690726436698e6 0.0
0.0 0.0 0.0

-157292.70611621346 2.234016038606187e6 0.0
2.234016038606187e6 -3.915633206252899e6 0.0
0.0 0.0 0.0

-1.7090202189238495e6 9.54425856418654e6 0.0
9.54425856418654e6 -393142.33012530836 0.0
0.0 0.0 0.0

-467888.3725628364 4.722759163172636e6 0.0
4.722759163172636e6 -1.9683258942003325e6 0.0
0.0 0.0 0.0

-3.0003002634694953e6 4.865101488394775e6 0.0
4.865101488394775e6 888909.5683614959 0.0
0.0 0.0 0.0

-1.9379931676797727e6 5.7904842148724e6 0.0
5.7904842148724e6 185227.28600683284 0.0
0.0 0.0 0.0

1.624891023075396e6 3.3705016593107823e6 0.0
3.3705016593107823e6 -2.639699047693327e6 0.0
0.0 0.0 0.0

-5.754409424395413e6 4.743650590148022e6 0.0
4.743650590148022e6 1.9748436943799742e6 0.0
0.0 0.0 0.0

-896320.1596871119 6.075185949022289e6 0.0
6.075185949022289e6 -1.4106547645979505e6 0.0
0.0 0.0 0.0

-2.601622484978823e6 5.35224335030712e6 0.0
5.35224335030712e6 5.104626083013291e6 0.0
0.0 0.0 0.0

-987582.8730511086 6.447882669800801e6 0.0
6.447882669800801e6 -363545.86710586055 0.0
0.0 0.0 0.0

-3.035677094450153e6 5.097770632253537e6 0.0
5.097770632253537e6 716601.9796097872 0.0
0.0 0.0 0.0

-772764.2827771619 2.7079808855953333e6 0.0
2.7079808855953333e6 109718.90089401486 0.0
0.0 0.0 0.0

-783778.1416396952 5.781051961152419e6 0.0
5.781051961152419e6 -1.7306117728696088e6 0.0
0.0 0.0 0.0

-1.1018509533773647e6 1.9984920818685591e6 0.0
1.9984920818685591e6 -756117.7787016849 0.0
0.0 0.0 0.0

-1.4505998415728556e6 4.385061067355695e6 0.0
4.385061067355695e6 -430414.38194295834 0.0
0.0 0.0 0.0

810309.1091233457 8.030691432390575e6 0.0
8.030691432390575e6 -2.0334121790021923e6 0.0
0.0 0.0 0.0

-1.0614847527278196e6 6.689615607551207e6 0.0
6.689615607551207e6 -923319.8395522644 0.0
0.0 0.0 0.0

270432.6882913589 2.198178063970016e6 0.0
2.198178063970016e6 -1.76699679665981e6 0.0
0.0 0.0 0.0

-893388.7322383809 5.794651066104737e6 0.0
5.794651066104737e6 -1.5911771437073404e6 0.0
0.0 0.0 0.0

373313.5207521502 454401.3464359457 0.0
454401.3464359457 -991140.4069179674 0.0
0.0 0.0 0.0

-2.126938034136229e6 4.953553219651895e6 0.0
4.953553219651895e6 1.127178830549413e6 0.0
0.0 0.0 0.0

-1.3317587137282905e6 2.874892291596345e6 0.0
2.874892291596345e6 653881.355272962 0.0
0.0 0.0 0.0

-7.168864749022129e6 3.3777585074193045e6 0.0
3.3777585074193045e6 4.446710592807135e6 0.0
0.0 0.0 0.0

-516227.98872881057 5.643322003087077e6 0.0
5.643322003087077e6 -2.501360849340627e6 0.0
0.0 0.0 0.0

-2.742364470390127e6 4.557570220056588e6 0.0
4.557570220056588e6 1.0488277421620379e6 0.0
0.0 0.0 0.0

-2.597476045954775e6 4.928680241098189e6 0.0
4.928680241098189e6 760170.6951967354 0.0
0.0 0.0 0.0

-1.314417060044657e6 7.742714790311377e6 0.0
7.742714790311377e6 -608334.3367813474 0.0
0.0 0.0 0.0

-430628.6407316813 5.54907646486035e6 0.0
5.54907646486035e6 -2.558159866575351e6 0.0
0.0 0.0 0.0

-1.2345064836899533e6 6.271471422265441e6 0.0
6.271471422265441e6 117348.88700492168 0.0
0.0 0.0 0.0

-1.8326175064146423e6 221716.71362167964 0.0
221716.71362167964 2.948934449847036e6 0.0
0.0 0.0 0.0

561658.2442088095 2.5526466185078695e6 0.0
2.5526466185078695e6 -1.5857844263912728e6 0.0
0.0 0.0 0.0

-600018.3617320936 4.471619542636435e6 0.0
4.471619542636435e6 -1.7532843950662683e6 0.0
0.0 0.0 0.0

-1.5794239016028882e6 8.528972486793235e6 0.0
8.528972486793235e6 -483895.51574821374 0.0
0.0 0.0 0.0

-1.7962710660235756e6 3.369914728026726e6 0.0
3.369914728026726e6 116051.89449296682 0.0
0.0 0.0 0.0

-1.088609445928037e6 5.953346638231438e6 0.0
5.953346638231438e6 -1.2610885105634853e6 0.0
0.0 0.0 0.0

-464665.11591547425 5.649663508080083e6 0.0
5.649663508080083e6 -2.30386721538302e6 0.0
0.0 0.0 0.0

-1.2945925924009169e6 3.3259399639489595e6 0.0
3.3259399639489595e6 1.0568699902150165e6 0.0
0.0 0.0 0.0

-3.887226517334448e6 5.324257250632615e6 0.0
5.324257250632615e6 1.4666054505821553e6 0.0
0.0 0.0 0.0

-1.0730274027385259e7 1.1581734027172e6 0.0
1.1581734027172e6 5.755548000551896e6 0.0
0.0 0.0 0.0

-277694.8376301738 6.509000207005068e6 0.0
6.509000207005068e6 -1.366753898410852e6 0.0
0.0 0.0 0.0

1.4545562743962198e6 4.481732147775255e6 0.0
4.481732147775255e6 -4.0663455106783696e6 0.0
0.0 0.0 0.0

-1.8344946904278335e6 3.2056131241897214e6 0.0
3.2056131241897214e6 174939.99025517295 0.0
0.0 0.0 0.0

-1.15832962729571e6 3.07632244145067e6 0.0
3.07632244145067e6 382207.8098387735 0.0
0.0 0.0 0.0

-3.233061110744577e6 4.924755441107874e6 0.0
4.924755441107874e6 845121.6242559657 0.0
0.0 0.0 0.0

-1.530412420090842e6 6.031812423225006e6 0.0
6.031812423225006e6 444651.0449936782 0.0
0.0 0.0 0.0

-3.4347367277623382e6 4.416483798779459e6 0.0
4.416483798779459e6 1.0597828441363093e6 0.0
0.0 0.0 0.0

-1.3051657463892358e6 6.645592395631248e6 0.0
6.645592395631248e6 -978431.4695779134 0.0
0.0 0.0 0.0

-2.5356071908236146e6 1.5726623069502336e6 0.0
1.5726623069502336e6 2.894396378357064e6 0.0
0.0 0.0 0.0

-1.0709139661010192e6 5.9804448307512915e6 0.0
5.9804448307512915e6 -1.2921483888952194e6 0.0
0.0 0.0 0.0

-2.174572081620134e6 6.307665754642538e6 0.0
6.307665754642538e6 249660.83484876493 0.0
0.0 0.0 0.0

-3.8795086394178094e6 5.474817594875152e6 0.0
5.474817594875152e6 1.5704389637025755e6 0.0
0.0 0.0 0.0

145496.15659784497 4.836120742047953e6 0.0
4.836120742047953e6 -1.3174582709661226e6 0.0
0.0 0.0 0.0

-977609.9475740696 7.29963904554796e6 0.0
7.29963904554796e6 -807050.4308139647 0.0
0.0 0.0 0.0

-2.776193765758134e6 4.386864815840354e6 0.0
4.386864815840354e6 1.0639636620181284e6 0.0
0.0 0.0 0.0

-695430.0042125682 2.572417785116646e6 0.0
2.572417785116646e6 152636.2071483864 0.0
0.0 0.0 0.0

-3.310124106759009e6 5.947421158089188e6 0.0
5.947421158089188e6 1.7411692496429519e6 0.0
0.0 0.0 0.0

-1.6915986300545502e6 3.2336180320614805e6 0.0
3.2336180320614805e6 1.5421264489031404e6 0.0
0.0 0.0 0.0

-1.2770018408977757e6 997382.5718620124 0.0
997382.5718620124 2.15564803170464e6 0.0
0.0 0.0 0.0

-2.6975321792921266e6 4.259994801018785e6 0.0
4.259994801018785e6 1.0429093646984051e6 0.0
0.0 0.0 0.0

-1.3114785517524097e6 2.728488458245191e6 0.0
2.728488458245191e6 562654.5032886295 0.0
0.0 0.0 0.0

-2.1418397099898234e6 3.759645489732325e6 0.0
3.759645489732325e6 847822.0389165103 0.0
0.0 0.0 0.0

-649021.6413449727 6.841584456185357e6 0.0
6.841584456185357e6 762788.902696131 0.0
0.0 0.0 0.0

-293540.4311033824 5.099954100043558e6 0.0
5.099954100043558e6 -2.477610247847932e6 0.0
0.0 0.0 0.0

1.0003860368125822e6 319967.0316992688 0.0
319967.0316992688 -1.1888492138189902e6 0.0
0.0 0.0 0.0

-1.245691074954778e6 1.0282001552008234e7 0.0
1.0282001552008234e7 -751359.0578105514 0.0
0.0 0.0 0.0

-1.218780579685001e6 3.3189474206343503e6 0.0
3.3189474206343503e6 824564.7413947107 0.0
0.0 0.0 0.0

-858011.8802508024 8.202668387851064e6 0.0
8.202668387851064e6 -1.708509007388178e6 0.0
0.0 0.0 0.0

-1.1551491512651402e6 6.256078634090248e6 0.0
6.256078634090248e6 -38110.148667124624 0.0
0.0 0.0 0.0

-1.3429701474977867e6 4.285055112287369e6 0.0
4.285055112287369e6 -548242.0834018249 0.0
0.0 0.0 0.0

-2.262619076394218e6 4.8661726303266715e6 0.0
4.8661726303266715e6 1.073660648296428e6 0.0
0.0 0.0 0.0

-323873.744309913 3.8639291863556793e6 0.0
3.8639291863556793e6 -1.5502104017812244e6 0.0
0.0 0.0 0.0

-2.054322751104019e6 5.406296451731386e6 0.0
5.406296451731386e6 254569.80908196652 0.0
0.0 0.0 0.0

-2.163342004707255e6 3.806970700114768e6 0.0
3.806970700114768e6 951466.2377483095 0.0
0.0 0.0 0.0

-1.0424802631399587e6 7.166399624016631e6 0.0
7.166399624016631e6 -734003.254025768 0.0
0.0 0.0 0.0

-2.8157100521746967e6 4.27840207082744e6 0.0
4.27840207082744e6 945317.2502309575 0.0
0.0 0.0 0.0

-3.988640784961179e6 4.85044768301708e6 0.0
4.85044768301708e6 1.3100247316191688e6 0.0
0.0 0.0 0.0

-264155.33223556384 4.867052133232564e6 0.0
4.867052133232564e6 -2.3711345631267657e6 0.0
0.0 0.0 0.0

1.9305506684961831e6 1.4048065949082412e6 0.0
1.4048065949082412e6 -2.242005246442202e6 0.0
0.0 0.0 0.0

163349.03563846607 2.4763029624760402e6 0.0
2.4763029624760402e6 -929520.6895316937 0.0
0.0 0.0 0.0

122129.43321356433 4.930619428408401e6 0.0
4.930619428408401e6 -3.382644734956588e6 0.0
0.0 0.0 0.0

-1.8198004354315873e6 6.574655205595384e6 0.0
6.574655205595384e6 -122702.80877763242 0.0
0.0 0.0 0.0

-1.771442767560578e6 5.684427079642708e6 0.0
5.684427079642708e6 966405.3224274655 0.0
0.0 0.0 0.0

-1.0951090936483694e6 2.646892731206912e6 0.0
2.646892731206912e6 334927.5148114483 0.0
0.0 0.0 0.0

-6.040739335330539e6 4.707497631845881e6 0.0
4.707497631845881e6 2.117292697006538e6 0.0
0.0 0.0 0.0

-1.1117120916827205e6 3.424161015567334e6 0.0
3.424161015567334e6 601168.343226854 0.0
0.0 0.0 0.0

-4.814791586950703e6 1.966287116803977e7 0.0
1.966287116803977e7 6.806118425904926e6 0.0
0.0 0.0 0.0

-1.6976264219917422e6 7.611642512834235e6 0.0
7.611642512834235e6 -519721.05527691334 0.0
0.0 0.0 0.0

-966277.9666979522 6.459038147623323e6 0.0
6.459038147623323e6 -1.2494838080412634e6 0.0
0.0 0.0 0.0

-1.7372874405816463e6 5.701307357138171e6 0.0
5.701307357138171e6 516756.5254744722 0.0
0.0 0.0 0.0

-1.3099308018802004e6 2.6681276614911617e6 0.0
2.6681276614911617e6 1.2669680643842835e6 0.0
0.0 0.0 0.0

-1.763020794867043e6 8.803753974937959e6 0.0
8.803753974937959e6 -439310.88186263875 0.0
0.0 0.0 0.0

-303063.1214959304 5.026357813148782e6 0.0
5.026357813148782e6 -1.344277609928405e6 0.0
0.0 0.0 0.0

-348243.42068869923 2.5927241426297864e6 0.0
2.5927241426297864e6 -3.292507334154659e6 0.0
0.0 0.0 0.0

-362031.3736109133 2.940667439227471e6 0.0
2.940667439227471e6 -732741.5730622575 0.0
0.0 0.0 0.0

-7.252225529028535e6 4.367097994756719e6 0.0
4.367097994756719e6 2.8424299443647773e6 0.0
0.0 0.0 0.0

-1.7081635188108739e6 5.683522274187089e6 0.0
5.683522274187089e6 909935.102109038 0.0
0.0 0.0 0.0

-516137.500112775 4.477016997972884e6 0.0
4.477016997972884e6 -1.792422020483881e6 0.0
0.0 0.0 0.0

285544.70292664546 6.116562559101512e6 0.0
6.116562559101512e6 -920342.1990907714 0.0
0.0 0.0 0.0

9862.852782505914 2.9381113898355286e6 0.0
2.9381113898355286e6 -809377.9914561205 0.0
0.0 0.0 0.0

-1.3246675762055141e6 2.724519412185427e6 0.0
2.724519412185427e6 -274092.3760983322 0.0
0.0 0.0 0.0

-464081.73930248374 4.701066724954267e6 0.0
4.701066724954267e6 -1.8894436992146508e6 0.0
0.0 0.0 0.0

-1.056651507841788e6 7.17470158247419e6 0.0
7.17470158247419e6 -1.16976063012942e6 0.0
0.0 0.0 0.0

-2.0543951127187689e6 3.6427853313845396e6 0.0
3.6427853313845396e6 991604.5600863346 0.0
0.0 0.0 0.0

-496692.0782347288 4.35848679776709e6 0.0
4.35848679776709e6 -1.938043206484728e6 0.0
0.0 0.0 0.0

-574419.6726370776 5.52650604134616e6 0.0
5.52650604134616e6 -1.817529120630614e6 0.0
0.0 0.0 0.0

-2.6732129754259777e6 4.725270110228083e6 0.0
4.725270110228083e6 948222.4215336696 0.0
0.0 0.0 0.0

-964684.6260495749 6.10273611231824e6 0.0
6.10273611231824e6 -1.259743409433732e6 0.0
0.0 0.0 0.0

-1.1445249871014692e6 2.8319100095605087e6 0.0
2.8319100095605087e6 701593.6791312379 0.0
0.0 0.0 0.0

1.461576823708394e6 4.215994713054434e6 0.0
4.215994713054434e6 -4.030292572842239e6 0.0
0.0 0.0 0.0

-1.2389892269289602e7 6.3361841783120185e6 0.0
6.3361841783120185e6 5.248323335493425e6 0.0
0.0 0.0 0.0

868897.4091160834 2.0479692574029171e6 0.0
2.0479692574029171e6 -2.421056588920012e6 0.0
0.0 0.0 0.0

123111.50494593085 4.43546651850565e6 0.0
4.43546651850565e6 -878933.2863951589 0.0
0.0 0.0 0.0

-2.4645814027442317e6 5.040105349909278e6 0.0
5.040105349909278e6 642709.9080400162 0.0
0.0 0.0 0.0

-536386.982330321 4.476008031008207e6 0.0
4.476008031008207e6 -1.787956594853762e6 0.0
0.0 0.0 0.0

-591581.0423671319 7.580201757629662e6 0.0
7.580201757629662e6 -1.1943017199923154e6 0.0
0.0 0.0 0.0

-1.7564515215180027e6 4.1699714685398745e6 0.0
4.1699714685398745e6 1.8780399670553626e6 0.0
0.0 0.0 0.0

-1.7144147253366923e6 5.088823814215343e6 0.0
5.088823814215343e6 1.7197622957072738e6 0.0
0.0 0.0 0.0

-3.7311049900874286e6 9.66974611636715e6 0.0
9.66974611636715e6 3.4770688097926024e6 0.0
0.0 0.0 0.0

-756165.6469796638 6.787956694261023e6 0.0
6.787956694261023e6 11057.071891826577 0.0
0.0 0.0 0.0

-2.1764286122660087e6 4.9846314762308085e6 0.0
4.9846314762308085e6 1.2647955270937518e6 0.0
0.0 0.0 0.0

-1.848996641376653e6 3.642447433315523e6 0.0
3.642447433315523e6 435094.95996272063 0.0
0.0 0.0 0.0

-404233.47302654746 4.634615004101115e6 0.0
4.634615004101115e6 -1.940685396821336e6 0.0
0.0 0.0 0.0

-2.7820705934945797e6 4.468628753702625e6 0.0
4.468628753702625e6 925854.7317418817 0.0
0.0 0.0 0.0

-1.1183596423228935e6 3.3926544886588133e6 0.0
3.3926544886588133e6 895297.1738947977 0.0
0.0 0.0 0.0

-577487.1467461267 1.0522159364975998e7 0.0
1.0522159364975998e7 -1.1816537553803804e6 0.0
0.0 0.0 0.0

-1.6548340998548784e6 8.076034421029351e6 0.0
8.076034421029351e6 -441521.1363544624 0.0
0.0 0.0 0.0

-1.1524246081736607e6 5.553188895404231e6 0.0
5.553188895404231e6 -1.5248469008864642e6 0.0
0.0 0.0 0.0

-1.1277031735464814e6 8.450095801766917e6 0.0
8.450095801766917e6 -665370.6784299186 0.0
0.0 0.0 0.0

-3.0810088632752527e6 4.67311693761198e6 0.0
4.67311693761198e6 984310.508564818 0.0
0.0 0.0 0.0

-189107.98562538592 3.638313641153432e6 0.0
3.638313641153432e6 -630359.8702179593 0.0
0.0 0.0 0.0

1.8115645788668883e6 8.102054136853005e6 0.0
8.102054136853005e6 6.038556707187888e6 0.0
0.0 0.0 0.0

42255.5135078177 17040.379238140038 0.0
17040.379238140038 518822.5320877652 0.0
0.0 0.0 0.0

-163463.77198720374 5.345358290789816e6 0.0
5.345358290789816e6 -1.043127871439284e6 0.0
0.0 0.0 0.0

-184733.46566348014 286577.24942971277 0.0
286577.24942971277 -245952.4638814155 0.0
0.0 0.0 0.0

-3.041758402710138e6 5.693774155526467e6 0.0
5.693774155526467e6 841866.1967942705 0.0
0.0 0.0 0.0

-1.4975493154551648e6 9.592609474232508e6 0.0
9.592609474232508e6 -511064.43167054176 0.0
0.0 0.0 0.0

-6.705735583558084e6 4.685781527860521e6 0.0
4.685781527860521e6 2.520984501672239e6 0.0
0.0 0.0 0.0

-3.78004925513634e6 3.675637471908402e6 0.0
3.675637471908402e6 3.589828103362078e6 0.0
0.0 0.0 0.0

-1.254452057000284e6 3.502093258279683e6 0.0
3.502093258279683e6 670442.4838810666 0.0
0.0 0.0 0.0

-3.2932520047726557e6 5.426417956146003e6 0.0
5.426417956146003e6 1.0411358892162603e6 0.0
0.0 0.0 0.0

-2.3586372871669736e6 3.9189829503322304e6 0.0
3.9189829503322304e6 946203.4081535109 0.0
0.0 0.0 0.0

-2.6474255485773627e6 4.1886587125782277e6 0.0
4.1886587125782277e6 935267.4933543155 0.0
0.0 0.0 0.0

-18485.618707988993 3.8755461373260235e6 0.0
3.8755461373260235e6 -2.6448295477799843e6 0.0
0.0 0.0 0.0

-2.576272566359379e6 4.847195764790661e6 0.0
4.847195764790661e6 879930.4774892427 0.0
0.0 0.0 0.0

-825556.5781806634 4.596694509173519e6 0.0
4.596694509173519e6 2.782703735046604e6 0.0
0.0 0.0 0.0

-733312.0797770405 6.1218170306192655e6 0.0
6.1218170306192655e6 -1.6311712584926058e6 0.0
0.0 0.0 0.0

-4.561521910886782e6 -2.1878198363856357e6 0.0
-2.1878198363856357e6 6.173465356165324e6 0.0
0.0 0.0 0.0

-3.604450340765553e6 4.575995966255967e6 0.0
4.575995966255967e6 1.2004647321276958e6 0.0
0.0 0.0 0.0

-419018.98419553734 5.956017413526771e6 0.0
5.956017413526771e6 -1.1379863305039785e6 0.0
0.0 0.0 0.0

-1.4959410365501052e7 8.805077835659308e6 0.0
8.805077835659308e6 -2.3293860768681895e6 0.0
0.0 0.0 0.0

564281.9145329387 5.805803453179808e6 0.0
5.805803453179808e6 -1.4600380642796832e6 0.0
0.0 0.0 0.0

-1.979005660286936e6 3.3281450544938818e6 0.0
3.3281450544938818e6 261452.74638435536 0.0
0.0 0.0 0.0

-2.8429658662629277e6 5.441018435319003e6 0.0
5.441018435319003e6 158745.0165391236 0.0
0.0 0.0 0.0

-815545.4148767837 5.63436240604622e6 0.0
5.63436240604622e6 -1.119040303383065e6 0.0
0.0 0.0 0.0

-1.525247411882095e6 7.3891660667521525e6 0.0
7.3891660667521525e6 -604368.835663752 0.0
0.0 0.0 0.0

237825.12776051136 8.706993809749005e6 0.0
8.706993809749005e6 -1.9794870715500505e6 0.0
0.0 0.0 0.0

-4.338156687852423e6 4.524933431180047e6 0.0
4.524933431180047e6 1.26179165346315e6 0.0
0.0 0.0 0.0

-2.961248765347168e6 5.193665243569657e6 0.0
5.193665243569657e6 1.6763504413773133e6 0.0
0.0 0.0 0.0

39433.56337150268 3.4313708350243503e6 0.0
3.4313708350243503e6 -2.80953642139205e6 0.0
0.0 0.0 0.0

-6.972101643785291e6 8.304366643329622e6 0.0
8.304366643329622e6 941215.1151725734 0.0
0.0 0.0 0.0

-2.245398924392079e6 3.8751918780825385e6 0.0
3.8751918780825385e6 1.0151893732470203e6 0.0
0.0 0.0 0.0

-1.4470454084811257e6 9.311020663272137e6 0.0
9.311020663272137e6 -531538.2852228555 0.0
0.0 0.0 0.0

-2.9687567369463085e6 5.105389443973237e6 0.0
5.105389443973237e6 4.161630075849198e6 0.0
0.0 0.0 0.0

263082.8789656095 1.0218417905075068e7 0.0
1.0218417905075068e7 -1.9905950365266516e6 0.0
0.0 0.0 0.0

-2.162177563924576e6 5.008043847373554e6 0.0
5.008043847373554e6 722865.6971102576 0.0
0.0 0.0 0.0

-1.3446898349245621e6 8.343373379369622e6 0.0
8.343373379369622e6 -1.1419249662396987e6 0.0
0.0 0.0 0.0

-948304.1293713397 2.1835726984815015e6 0.0
2.1835726984815015e6 1.00075410333007e6 0.0
0.0 0.0 0.0

-854028.9006526952 7.399223828705993e6 0.0
7.399223828705993e6 -806099.4595345787 0.0
0.0 0.0 0.0

-1.5615508449977064e6 5.361690450225106e6 0.0
5.361690450225106e6 1.0727597607866602e6 0.0
0.0 0.0 0.0

-5.679033225625236e6 -897772.4924024811 0.0
-897772.4924024811 1.0673565734803956e7 0.0
0.0 0.0 0.0

-3.8646755021241126e6 -5.974313890644049e6 0.0
-5.974313890644049e6 1.008265523326428e7 0.0
0.0 0.0 0.0

-1.2419047989844345e6 8.250522718404195e6 0.0
8.250522718404195e6 -872915.8150393905 0.0
0.0 0.0 0.0

-936530.1029041294 6.445408494814985e6 0.0
6.445408494814985e6 -934249.4735511072 0.0
0.0 0.0 0.0

-1.4158254715878034e6 7.233562645424828e6 0.0
7.233562645424828e6 -691559.4106895379 0.0
0.0 0.0 0.0

-2.7384001894455887e6 6.669031662262759e6 0.0
6.669031662262759e6 100245.72173784068 0.0
0.0 0.0 0.0

2.082917445435812e6 6.198242029779542e6 0.0
6.198242029779542e6 -908311.5822958496 0.0
0.0 0.0 0.0

-2.166690224065443e6 4.922296077489901e6 0.0
4.922296077489901e6 1.338690816763558e6 0.0
0.0 0.0 0.0

-1.2886756896037988e6 7.139544223627307e6 0.0
7.139544223627307e6 -765993.186333329 0.0
0.0 0.0 0.0

-1.1669766241730265e6 6.070926999103393e6 0.0
6.070926999103393e6 -1.1723990805565794e6 0.0
0.0 0.0 0.0

517904.19947239687 702369.2382853073 0.0
702369.2382853073 -859164.7988649341 0.0
0.0 0.0 0.0

-431463.89594535355 4.2693403494261885e6 0.0
4.2693403494261885e6 -2.1972586296452642e6 0.0
0.0 0.0 0.0

-466112.0458106429 1.2564446737642502e6 0.0
1.2564446737642502e6 99668.6121829651 0.0
0.0 0.0 0.0

680299.5716260079 535960.7953624328 0.0
535960.7953624328 -922983.2807542598 0.0
0.0 0.0 0.0

537749.5972221913 548065.5911746406 0.0
548065.5911746406 -828946.3982084257 0.0
0.0 0.0 0.0

-1.2854123599552803e6 2.8982980299816793e6 0.0
2.8982980299816793e6 -228789.4183350166 0.0
0.0 0.0 0.0

-1.1861733020034847e6 6.542063297976691e6 0.0
6.542063297976691e6 -1.109939248357277e6 0.0
0.0 0.0 0.0

-293204.63451191067 4.204280405744641e6 0.0
4.204280405744641e6 -2.0965936289650304e6 0.0
0.0 0.0 0.0

-1.4934903455549995e6 6.671668905214632e6 0.0
6.671668905214632e6 234115.30765153398 0.0
0.0 0.0 0.0

-1.1813596037811425e6 7.673470892508413e6 0.0
7.673470892508413e6 -778043.6139055002 0.0
0.0 0.0 0.0

-516180.14888597233 7.431724388387741e6 0.0
7.431724388387741e6 -1.453851126379595e6 0.0
0.0 0.0 0.0

-2.396497796823637e6 5.135741784772357e6 0.0
5.135741784772357e6 549343.6818624847 0.0
0.0 0.0 0.0

3.119698834903617e6 8.676202371925954e6 0.0
8.676202371925954e6 951798.3498803374 0.0
0.0 0.0 0.0

-2.5865300217929794e6 2.1626388341852576e6 0.0
2.1626388341852576e6 5.405474009800142e6 0.0
0.0 0.0 0.0

-728245.1645691944 7.559481080547775e6 0.0
7.559481080547775e6 -1.0260556699852274e6 0.0
0.0 0.0 0.0

-1.259243244279341e6 9.659411959435567e6 0.0
9.659411959435567e6 -406490.88380736223 0.0
0.0 0.0 0.0

-3.5670080066511366e6 5.067055633582735e6 0.0
5.067055633582735e6 1.2800029978117005e6 0.0
0.0 0.0 0.0

-968381.4956140991 6.187600918859603e6 0.0
6.187600918859603e6 -1.160326061266682e6 0.0
0.0 0.0 0.0

-2.8964694305884424e6 5.948484381090787e6 0.0
5.948484381090787e6 -192032.65927114978 0.0
0.0 0.0 0.0

-2.464017588968263e6 5.093183181503921e6 0.0
5.093183181503921e6 599676.0929421188 0.0
0.0 0.0 0.0

-524319.5556700015 1.7110397279573623e6 0.0
1.7110397279573623e6 -1.7990727042712385e6 0.0
0.0 0.0 0.0

-3.088232237551543e6 4.83626618449752e6 0.0
4.83626618449752e6 793314.313511956 0.0
0.0 0.0 0.0

-8.162841559314995e6 3.92713191434242e6 0.0
3.92713191434242e6 3.266036028195945e6 0.0
0.0 0.0 0.0

-631780.2520289021 4.756922657872506e6 0.0
4.756922657872506e6 -2.128369672836332e6 0.0
0.0 0.0 0.0

-663959.087766549 5.784727050475161e6 0.0
5.784727050475161e6 -1.7432426573900697e6 0.0
0.0 0.0 0.0

-437450.3693426639 4.519863911327453e6 0.0
4.519863911327453e6 -1.979534503703754e6 0.0
0.0 0.0 0.0

-320446.79252448154 4.265230336891245e6 0.0
4.265230336891245e6 -2.1754515112555996e6 0.0
0.0 0.0 0.0

-4.416111871964756e6 9.89141596596692e6 0.0
9.89141596596692e6 2.039614426078448e6 0.0
0.0 0.0 0.0

-1.1833691274594455e6 6.990203610085927e6 0.0
6.990203610085927e6 -875226.7511239729 0.0
0.0 0.0 0.0

-1.0822012505125527e6 6.9259617859813925e6 0.0
6.9259617859813925e6 789627.8603158679 0.0
0.0 0.0 0.0

-7.360618159306468e6 -660302.6924669283 0.0
-660302.6924669283 3.3637560663789446e6 0.0
0.0 0.0 0.0

-1.5545088562512191e7 8.111228393524528e6 0.0
8.111228393524528e6 7.8629304898025235e6 0.0
0.0 0.0 0.0

56728.45517042128 5.34047113330067e6 0.0
5.34047113330067e6 -3.0996534071649928e6 0.0
0.0 0.0 0.0

-842214.5191243669 7.535973970714522e6 0.0
7.535973970714522e6 -894814.4131136718 0.0
0.0 0.0 0.0

-1.2870683598955616e6 8.893793584773785e6 0.0
8.893793584773785e6 -617672.5392396642 0.0
0.0 0.0 0.0

-1.0282739339915635e6 2.4928163644940397e6 0.0
2.4928163644940397e6 -1.6329059801065975e6 0.0
0.0 0.0 0.0

-3.6513616974343066e6 7.229278441933628e6 0.0
7.229278441933628e6 204911.68235038663 0.0
0.0 0.0 0.0

-759000.6092868914 6.671926742489766e6 0.0
6.671926742489766e6 -125694.61546670693 0.0
0.0 0.0 0.0

-3.6967190940484684e6 2.9618340236731353e6 0.0
2.9618340236731353e6 5.748964303526412e6 0.0
0.0 0.0 0.0

851871.323701002 575203.7976760386 0.0
575203.7976760386 -1.1244568665453491e6 0.0
0.0 0.0 0.0

-810586.5411587321 5.606598457443638e6 0.0
5.606598457443638e6 -1.5132204811587571e6 0.0
0.0 0.0 0.0

-1.0816998976475121e6 6.380784018660547e6 0.0
6.380784018660547e6 -1.3946645817604528e6 0.0
0.0 0.0 0.0

28159.66353079758 1.4490085631727285e6 0.0
1.4490085631727285e6 -1.4689410216627768e6 0.0
0.0 0.0 0.0

770388.8229238994 577359.5941479973 0.0
577359.5941479973 -1.4050427388574306e6 0.0
0.0 0.0 0.0

-1.0738255688498875e7 9.460217720582211e6 0.0
9.460217720582211e6 2.0045860214194924e7 0.0
0.0 0.0 0.0

-1.0868377060087689e6 215184.05197624135 0.0
215184.05197624135 1.432480465963354e6 0.0
0.0 0.0 0.0

-3.1566453735617977e6 7.252238193405263e6 0.0
7.252238193405263e6 1.0947451292662246e6 0.0
0.0 0.0 0.0

-1.9956965257807618e6 3.2208088594410904e6 0.0
3.2208088594410904e6 320990.96844425215 0.0
0.0 0.0 0.0

-426929.4964565687 5.120304360151524e6 0.0
5.120304360151524e6 -2.0517199029910632e6 0.0
0.0 0.0 0.0

-1.417448817807341e6 8.59432581640662e6 0.0
8.59432581640662e6 -380477.5442852367 0.0
0.0 0.0 0.0

-2.6984331677755993e6 4.658911321002084e6 0.0
4.658911321002084e6 880391.4048458266 0.0
0.0 0.0 0.0

-7.172199599047816e6 8.298519066225464e6 0.0
8.298519066225464e6 4.262490676367457e6 0.0
0.0 0.0 0.0

359167.5893122853 4.829692968926162e6 0.0
4.829692968926162e6 -1.5567793642961602e6 0.0
0.0 0.0 0.0

441964.61108147015 667624.1225974222 0.0
667624.1225974222 -901545.7154471967 0.0
0.0 0.0 0.0

-460747.5669750231 6.747683651894466e6 0.0
6.747683651894466e6 -494441.36356795294 0.0
0.0 0.0 0.0

-2.5156939895223314e6 5.2375468485750025e6 0.0
5.2375468485750025e6 503396.6992146793 0.0
0.0 0.0 0.0

-816233.5095769861 6.553109154378165e6 0.0
6.553109154378165e6 227981.95613893546 0.0
0.0 0.0 0.0

-1.1875106866370637e6 2.865356597587262e6 0.0
2.865356597587262e6 741785.6028223333 0.0
0.0 0.0 0.0

-764954.3133377323 5.828154484588468e6 0.0
5.828154484588468e6 -1.6556599424828556e6 0.0
0.0 0.0 0.0

-2.1224345725946322e7 -2.9209185941134407e6 0.0
-2.9209185941134407e6 1.0889516673855055e7 0.0
0.0 0.0 0.0

-1.2120060232401148e6 2.8592591489557377e6 0.0
2.8592591489557377e6 767116.0387261112 0.0
0.0 0.0 0.0

-2.508375005631782e6 5.193280174705392e6 0.0
5.193280174705392e6 545348.4301079096 0.0
0.0 0.0 0.0

-897038.9604933776 5.95920489847233e6 0.0
5.95920489847233e6 -1.2639678651208112e6 0.0
0.0 0.0 0.0

-387030.0862089558 4.419383596056771e6 0.0
4.419383596056771e6 -2.2632930050894725e6 0.0
0.0 0.0 0.0

-6.36096616765692e6 7.555456158485952e6 0.0
7.555456158485952e6 3.5121494550043936e6 0.0
0.0 0.0 0.0

-388477.67036408454 4.460668041294209e6 0.0
4.460668041294209e6 -2.1964106488886853e6 0.0
0.0 0.0 0.0

-1.1116610175488233e6 6.732816732624285e6 0.0
6.732816732624285e6 -950377.566519723 0.0
0.0 0.0 0.0

-249803.1570058366 6.741403095130503e6 0.0
6.741403095130503e6 -595857.4509859007 0.0
0.0 0.0 0.0

-4.758569401551902e6 6.071185729533937e6 0.0
6.071185729533937e6 1.8851587336133656e6 0.0
0.0 0.0 0.0

-2.5594258664668067e6 5.295701145244324e6 0.0
5.295701145244324e6 450463.59968665475 0.0
0.0 0.0 0.0

-839718.4475755126 5.846928829082547e6 0.0
5.846928829082547e6 -1.5096496719172935e6 0.0
0.0 0.0 0.0

-1.4152667837325057e6 7.318413503946807e6 0.0
7.318413503946807e6 -492273.48425781826 0.0
0.0 0.0 0.0

-2.9674191288207015e6 3.8820331461987505e6 0.0
3.8820331461987505e6 894660.9732056861 0.0
0.0 0.0 0.0

-2.497071768222504e6 5.162760487732962e6 0.0
5.162760487732962e6 548783.525205266 0.0
0.0 0.0 0.0

465438.36808767554 355091.0327393328 0.0
355091.0327393328 -208742.69500860196 0.0
0.0 0.0 0.0

-1.9759421831602263e6 3.693251779112125e6 0.0
3.693251779112125e6 1.2397706587813194e6 0.0
0.0 0.0 0.0

-411427.0533438527 4.473663902287659e6 0.0
4.473663902287659e6 -2.131818036158629e6 0.0
0.0 0.0 0.0

1.4409996749271133e6 9.094253435936905e6 0.0
9.094253435936905e6 -2.176167271630021e6 0.0
0.0 0.0 0.0

-830448.4327753652 5.319754765167093e6 0.0
5.319754765167093e6 -1.5394719616021516e6 0.0
0.0 0.0 0.0

-326095.0679457086 5.075841800936122e6 0.0
5.075841800936122e6 -1.4818566918929282e6 0.0
0.0 0.0 0.0

-1.0569010324174445e6 3.495891288296433e6 0.0
3.495891288296433e6 702113.1557664352 0.0
0.0 0.0 0.0

-3.796797252834763e6 4.1346359936530464e6 0.0
4.1346359936530464e6 1.9847045688335632e6 0.0
0.0 0.0 0.0

-405599.5486803401 5.244136731110408e6 0.0
5.244136731110408e6 -1.998847991212909e6 0.0
0.0 0.0 0.0

-776918.2639252557 5.805750052791805e6 0.0
5.805750052791805e6 -1.070206798983572e6 0.0
0.0 0.0 0.0

-1.056825933565294e7 3.650102468726286e6 0.0
3.650102468726286e6 4.0224253163327146e6 0.0
0.0 0.0 0.0

-8.865033357584165e6 -2.8306794528037305e6 0.0
-2.8306794528037305e6 4.014240106211276e6 0.0
0.0 0.0 0.0

-3.741043400588671e6 7.75845106707462e6 0.0
7.75845106707462e6 838021.2291876306 0.0
0.0 0.0 0.0

-8.801531981018703e6 3.9114813150520558e6 0.0
3.9114813150520558e6 3.261518584454594e6 0.0
0.0 0.0 0.0

-5.367031560764902e6 1.4605698580054848e7 0.0
1.4605698580054848e7 5.974274018971007e6 0.0
0.0 0.0 0.0

-512600.70089312014 4.348011855032545e6 0.0
4.348011855032545e6 -2.0740976511457497e6 0.0
0.0 0.0 0.0

-391777.9092466086 5.603471091445889e6 0.0
5.603471091445889e6 -2.224914732463803e6 0.0
0.0 0.0 0.0

-2.326490926555871e6 5.098148143857212e6 0.0
5.098148143857212e6 565704.6240893052 0.0
0.0 0.0 0.0

-1.2731427006854222e6 3.307936051944959e6 0.0
3.307936051944959e6 864722.5877172183 0.0
0.0 0.0 0.0

-2.3537013187338854e6 5.537774204934006e6 0.0
5.537774204934006e6 322047.2634568929 0.0
0.0 0.0 0.0

-197898.56788646668 4.672846796684171e6 0.0
4.672846796684171e6 -957553.6586322825 0.0
0.0 0.0 0.0

-1.2352953681906248e6 6.261811202334031e6 0.0
6.261811202334031e6 -916007.0806163086 0.0
0.0 0.0 0.0

-7.975750312018234e6 9.165362334716732e6 0.0
9.165362334716732e6 5.292669356509392e6 0.0
0.0 0.0 0.0

-1.4491454789349735e6 8.132326277634605e6 0.0
8.132326277634605e6 -566644.6466811157 0.0
0.0 0.0 0.0

-908602.7349826499 6.784475029342914e6 0.0
6.784475029342914e6 -1.1137903015250082e6 0.0
0.0 0.0 0.0

-270211.0498894551 920581.911694619 0.0
920581.911694619 -2.771534524036143e6 0.0
0.0 0.0 0.0

-2.5964118573179315e6 4.797502792580384e6 0.0
4.797502792580384e6 824840.7130481941 0.0
0.0 0.0 0.0

-2.035860589492632e6 3.321647967173246e6 0.0
3.321647967173246e6 525050.379348245 0.0
0.0 0.0 0.0

-792545.0041094072 9.733071019331124e6 0.0
9.733071019331124e6 -2.0130275212144237e6 0.0
0.0 0.0 0.0

-290925.2994489509 4.403723724890705e6 0.0
4.403723724890705e6 -2.240379111649859e6 0.0
0.0 0.0 0.0

-1.2213161001073443e6 6.111230146058411e6 0.0
6.111230146058411e6 255374.10441483778 0.0
0.0 0.0 0.0

-1.0065103079487663e6 5.851632960071802e6 0.0
5.851632960071802e6 1.3241111131168788e6 0.0
0.0 0.0 0.0

-349417.6656433985 7.168882800704437e6 0.0
7.168882800704437e6 159145.53067707596 0.0
0.0 0.0 0.0

-1.1344953070273735e6 9.50156546568295e6 0.0
9.50156546568295e6 -561163.29567624 0.0
0.0 0.0 0.0

-2.572458439898746e6 4.728785726225319e6 0.0
4.728785726225319e6 973315.3099286789 0.0
0.0 0.0 0.0

-2.4062288787200637e6 -487927.3589909509 0.0
-487927.3589909509 4.525941094544375e6 0.0
0.0 0.0 0.0

-1.451061692710833e6 2.8412275740104723e6 0.0
2.8412275740104723e6 -107837.05386228213 0.0
0.0 0.0 0.0

-754019.884964762 6.770576609085442e6 0.0
6.770576609085442e6 348066.41673261736 0.0
0.0 0.0 0.0

-2.462598928006485e6 5.136727154070132e6 0.0
5.136727154070132e6 600629.7342088589 0.0
0.0 0.0 0.0

-2.303801693849885e6 4.1346607186118886e6 0.0
4.1346607186118886e6 1.2499940633006117e6 0.0
0.0 0.0 0.0

-822521.3956151279 6.457134136554104e6 0.0
6.457134136554104e6 -1.438591229829773e6 0.0
0.0 0.0 0.0

-3.4216097100144494e6 4.2966278137656385e6 0.0
4.2966278137656385e6 1.1101627180510245e6 0.0
0.0 0.0 0.0

-5.19403259907308e6 6.475524040771791e6 0.0
6.475524040771791e6 2.179145044397086e6 0.0
0.0 0.0 0.0

-2.4467333367877617e6 3.694752805044663e6 0.0
3.694752805044663e6 820262.5825023289 0.0
0.0 0.0 0.0

-816937.068305209 6.152330287103644e6 0.0
6.152330287103644e6 -1.5253423595612824e6 0.0
0.0 0.0 0.0

-3.5117534216337693e6 4.976215262616712e6 0.0
4.976215262616712e6 1.134838644414519e6 0.0
0.0 0.0 0.0

-1.5570280211277902e6 9.19182687743909e6 0.0
9.19182687743909e6 -474826.0484948626 0.0
0.0 0.0 0.0

-1.138200445976405e6 6.156465582048291e6 0.0
6.156465582048291e6 521215.31382854015 0.0
0.0 0.0 0.0

-2.4245546829448575e6 3.7527611567125074e6 0.0
3.7527611567125074e6 842336.3850576816 0.0
0.0 0.0 0.0

-2.859055691837848e6 4.812534683391734e6 0.0
4.812534683391734e6 817628.35662917 0.0
0.0 0.0 0.0

-845235.342810089 161622.39158244076 0.0
161622.39158244076 423077.07523883984 0.0
0.0 0.0 0.0

-4.898916028962258e6 6.253615271431494e6 0.0
6.253615271431494e6 2.0714092608167855e6 0.0
0.0 0.0 0.0

-210947.16595093475 1.1688649592934013e6 0.0
1.1688649592934013e6 -2.94330963151268e6 0.0
0.0 0.0 0.0

-2.8130686462796065e6 5.879976262396311e6 0.0
5.879976262396311e6 464293.2381950014 0.0
0.0 0.0 0.0

-240741.52327610127 528197.6279182772 0.0
528197.6279182772 221431.01403215926 0.0
0.0 0.0 0.0

-362707.4247834908 5.493580194951805e6 0.0
5.493580194951805e6 -2.1318798038283326e6 0.0
0.0 0.0 0.0

-2.376506158539615e6 5.433029598262676e6 0.0
5.433029598262676e6 291787.848097211 0.0
0.0 0.0 0.0

-1.468917759522533e6 6.61069698440211e6 0.0
6.61069698440211e6 -30205.44461871189 0.0
0.0 0.0 0.0

-2.0507696491811527e6 6.574302900675087e6 0.0
6.574302900675087e6 540426.882299621 0.0
0.0 0.0 0.0

-450361.4984807543 4.579540175229416e6 0.0
4.579540175229416e6 -1.6053650596834843e6 0.0
0.0 0.0 0.0

-1.4135664212512951e6 3.026946166758764e6 0.0
3.026946166758764e6 1.5271131171136047e6 0.0
0.0 0.0 0.0

-491129.5868954537 4.347215479491252e6 0.0
4.347215479491252e6 -68299.90777447833 0.0
0.0 0.0 0.0

-636912.5581126433 5.520829889560887e6 0.0
5.520829889560887e6 -1.7783849925255112e6 0.0
0.0 0.0 0.0

-728054.8593328288 6.785204220432836e6 0.0
6.785204220432836e6 98218.83177107057 0.0
0.0 0.0 0.0

-552653.2053251653 5.646063521492815e6 0.0
5.646063521492815e6 -2.5755642489838637e6 0.0
0.0 0.0 0.0

-2.1084995222777217e6 3.805110256283024e6 0.0
3.805110256283024e6 941230.4894512403 0.0
0.0 0.0 0.0

-3.5064671412380813e6 4.501717679649087e6 0.0
4.501717679649087e6 1.0939894834116919e6 0.0
0.0 0.0 0.0

-2.3855797297415114e6 3.3823443827441675e6 0.0
3.3823443827441675e6 562273.2828859247 0.0
0.0 0.0 0.0

-1.4381860763108358e6 7.686734817603904e6 0.0
7.686734817603904e6 -401848.2776016702 0.0
0.0 0.0 0.0

-1.0094732297749578e6 7.026816116520154e6 0.0
7.026816116520154e6 -1.0023751277639578e6 0.0
0.0 0.0 0.0

-2.4555780508516384e6 4.932318618092489e6 0.0
4.932318618092489e6 719673.8688079299 0.0
0.0 0.0 0.0

-1.527675150801154e6 5.914540156152605e6 0.0
5.914540156152605e6 513801.57295803155 0.0
0.0 0.0 0.0

-1.3697502098063843e6 5.436925084036239e6 0.0
5.436925084036239e6 738125.0265941799 0.0
0.0 0.0 0.0

-346529.13151193305 5.443789353772654e6 0.0
5.443789353772654e6 -2.274240935682739e6 0.0
0.0 0.0 0.0

-1.0927624296285475e6 6.447809168731171e6 0.0
6.447809168731171e6 -1.2194135721477584e6 0.0
0.0 0.0 0.0

-984702.8081031248 6.292150776875299e6 0.0
6.292150776875299e6 21418.28219833091 0.0
0.0 0.0 0.0

-126087.31680682453 3.899579584683757e6 0.0
3.899579584683757e6 -2.441163250595248e6 0.0
0.0 0.0 0.0

-2.1699788684540386e6 5.56370569123411e6 0.0
5.56370569123411e6 1.0281315261852121e6 0.0
0.0 0.0 0.0

-5.518787463956194e6 6.688702421118952e6 0.0
6.688702421118952e6 2.4097901981180264e6 0.0
0.0 0.0 0.0

-472561.7007165045 7.046039094680019e6 0.0
7.046039094680019e6 -154285.4905620546 0.0
0.0 0.0 0.0

3.4147367782265274e6 1.4007688786348779e7 0.0
1.4007688786348779e7 1.1382427361472962e7 0.0
0.0 0.0 0.0

-707557.1504890599 4.89018465822285e6 0.0
4.89018465822285e6 -2.3585241514518647e6 0.0
0.0 0.0 0.0

-2.0826780701934532e6 3.2032607791484087e6 0.0
3.2032607791484087e6 387835.6603725692 0.0
0.0 0.0 0.0

-5.413141468092281e6 4.0477052685908685e6 0.0
4.0477052685908685e6 902048.2984458783 0.0
0.0 0.0 0.0

-2.617620275715864e6 4.8249032010044325e6 0.0
4.8249032010044325e6 333873.2143190843 0.0
0.0 0.0 0.0

-959968.8047201085 6.2826728313356e6 0.0
6.2826728313356e6 -121538.58940691405 0.0
0.0 0.0 0.0

-609317.47593774 6.870791734017706e6 0.0
6.870791734017706e6 218858.56489026727 0.0
0.0 0.0 0.0

-2.137167324657576e6 7.431033314148766e6 0.0
7.431033314148766e6 4.565877185782115e6 0.0
0.0 0.0 0.0

243692.20294390293 5.446693071428974e6 0.0
5.446693071428974e6 -199696.39024857618 0.0
0.0 0.0 0.0

-839514.2745900993 7.450523913753718e6 0.0
7.450523913753718e6 385341.90133006626 0.0
0.0 0.0 0.0

-1.337973226431763e6 9.4508114021049e6 0.0
9.4508114021049e6 -641057.00936399 0.0
0.0 0.0 0.0

-599854.6378500424 6.754470151327033e6 0.0
6.754470151327033e6 -430666.015950385 0.0
0.0 0.0 0.0

-1.0044646814008089e6 6.398618496618644e6 0.0
6.398618496618644e6 -83221.58139285585 0.0
0.0 0.0 0.0

-4.038546484734215e6 7.327755413580694e6 0.0
7.327755413580694e6 1.5692098018679894e6 0.0
0.0 0.0 0.0

-1.7215226415742775e6 4.306953028439864e6 0.0
4.306953028439864e6 823728.7687955863 0.0
0.0 0.0 0.0

85055.0126667457 2.3692926660549813e6 0.0
2.3692926660549813e6 -2.545418795158921e6 0.0
0.0 0.0 0.0

-1.4082714388826732e6 3.1475375314161987e6 0.0
3.1475375314161987e6 495870.83445553714 0.0
0.0 0.0 0.0

323094.9486616033 229864.95384889038 0.0
229864.95384889038 -95439.2992815499 0.0
0.0 0.0 0.0

-1.8168582285362098e6 5.620516535799493e6 0.0
5.620516535799493e6 868569.9391351786 0.0
0.0 0.0 0.0

-3.5290143277286403e6 5.692460471993318e6 0.0
5.692460471993318e6 1.2767201295173944e6 0.0
0.0 0.0 0.0

919193.7199803201 8.890391365585964e6 0.0
8.890391365585964e6 3.0896367871919377e6 0.0
0.0 0.0 0.0

-325188.847598347 7.252394940131206e6 0.0
7.252394940131206e6 -332775.59663035464 0.0
0.0 0.0 0.0

-2.9377795891098212e6 4.768905841797852e6 0.0
4.768905841797852e6 925390.7797119245 0.0
0.0 0.0 0.0

1.6509405766988748e6 7.069663894725024e6 0.0
7.069663894725024e6 -4.02950927975781e6 0.0
0.0 0.0 0.0

-3.0490487019181945e6 5.580291448894687e6 0.0
5.580291448894687e6 690520.0568456906 0.0
0.0 0.0 0.0

-769762.3670638326 6.247002201841897e6 0.0
6.247002201841897e6 -1.4591572919826603e6 0.0
0.0 0.0 0.0

-2.51098240736906e6 5.250805614041335e6 0.0
5.250805614041335e6 513658.96035677614 0.0
0.0 0.0 0.0

-1.5997014125568375e6 9.80689374554928e6 0.0
9.80689374554928e6 -460267.66842504934 0.0
0.0 0.0 0.0

-2.1350779160291096e6 5.786926534719819e6 0.0
5.786926534719819e6 257872.14336600376 0.0
0.0 0.0 0.0

-144563.93968480977 1.9032234265050548e6 0.0
1.9032234265050548e6 -3.559976181061835e6 0.0
0.0 0.0 0.0

-263648.7146825561 6.947883993497425e6 0.0
6.947883993497425e6 -1.6760350481648948e6 0.0
0.0 0.0 0.0

-2.5622364341670917e6 7.063250304889189e6 0.0
7.063250304889189e6 660064.5199843748 0.0
0.0 0.0 0.0

-1.6998082313603547e6 8.395936832562163e6 0.0
8.395936832562163e6 -271438.6768932678 0.0
0.0 0.0 0.0

-346510.48521469993 4.765903272485782e6 0.0
4.765903272485782e6 -1.7890005418305004e6 0.0
0.0 0.0 0.0

-334976.8622457044 4.202451431000946e6 0.0
4.202451431000946e6 -2.1191325072832867e6 0.0
0.0 0.0 0.0

-2.5257322671309686e6 3.9024215459940303e6 0.0
3.9024215459940303e6 871445.8653739388 0.0
0.0 0.0 0.0

-470392.1653579349 4.309697652582689e6 0.0
4.309697652582689e6 -2.157067856811612e6 0.0
0.0 0.0 0.0

-522630.2420552807 207120.39754056002 0.0
207120.39754056002 494822.37979114766 0.0
0.0 0.0 0.0

-2.070103162039926e6 3.760563821651314e6 0.0
3.760563821651314e6 1.2275381468102634e6 0.0
0.0 0.0 0.0

-2.7866370219626594e6 5.415407496522737e6 0.0
5.415407496522737e6 384532.60588758194 0.0
0.0 0.0 0.0

-358416.7877524119 3.5896870031334595e6 0.0
3.5896870031334595e6 -3.0025414501246624e6 0.0
0.0 0.0 0.0

-3.560678815877784e6 3.4919997473361627e6 0.0
3.4919997473361627e6 4.807116863806033e6 0.0
0.0 0.0 0.0

-688980.7722135733 6.693957862870742e6 0.0
6.693957862870742e6 -90923.46171761348 0.0
0.0 0.0 0.0

-2.294814888614408e6 4.973762731975766e6 0.0
4.973762731975766e6 2.692944412403874e6 0.0
0.0 0.0 0.0

-2.1367476920589707e6 3.255223345986872e6 0.0
3.255223345986872e6 440538.69432774594 0.0
0.0 0.0 0.0

-2.1054690809416156e6 3.7386925295195994e6 0.0
3.7386925295195994e6 835601.6831393141 0.0
0.0 0.0 0.0

-348649.1948959371 4.822945965913082e6 0.0
4.822945965913082e6 -1.7600401190208427e6 0.0
0.0 0.0 0.0

-1.008343887481601e6 6.363979080303425e6 0.0
6.363979080303425e6 -1.3567384453496868e6 0.0
0.0 0.0 0.0

-92145.71317979426 4.934027066054501e6 0.0
4.934027066054501e6 -2.8781038631572756e6 0.0
0.0 0.0 0.0

193814.45323554365 223918.80300421576 0.0
223918.80300421576 -64841.06462382671 0.0
0.0 0.0 0.0

246434.94768142395 -447096.94445771066 0.0
-447096.94445771066 853477.6479448793 0.0
0.0 0.0 0.0

-2.224300477195023e6 5.647127459720813e6 0.0
5.647127459720813e6 100307.77125460748 0.0
0.0 0.0 0.0

-1.3335176070423177e6 7.467928142117674e6 0.0
7.467928142117674e6 -480296.870328132 0.0
0.0 0.0 0.0

-2.04985028982189e6 5.3963660271697715e6 0.0
5.3963660271697715e6 4.617648528600099e6 0.0
0.0 0.0 0.0

-315868.72625743994 4.90040454640124e6 0.0
4.90040454640124e6 -1.7083530034150262e6 0.0
0.0 0.0 0.0

-1.1734412988788506e6 9.0194926914238e6 0.0
9.0194926914238e6 -743943.2011325589 0.0
0.0 0.0 0.0

-2.7398158467206866e6 4.312712811220144e6 0.0
4.312712811220144e6 951941.3045784683 0.0
0.0 0.0 0.0

441273.2374840077 675089.2856268298 0.0
675089.2856268298 -840577.0747605982 0.0
0.0 0.0 0.0

-6.691636879762981e6 1.192490532043917e7 0.0
1.192490532043917e7 5.345430760107903e6 0.0
0.0 0.0 0.0

-1.0413744364659949e6 6.0010779310120195e6 0.0
6.0010779310120195e6 -1.155653057963565e6 0.0
0.0 0.0 0.0

-509456.5705301712 5.594716117426574e6 0.0
5.594716117426574e6 -2.5732736450752458e6 0.0
0.0 0.0 0.0

19022.652043410577 2.7979120991187347e6 0.0
2.7979120991187347e6 -2.0788489947656651e6 0.0
0.0 0.0 0.0

-1.1386042126870395e6 6.6094009008897105e6 0.0
6.6094009008897105e6 213417.71759340476 0.0
0.0 0.0 0.0

-1.8688502040234013e6 3.5776835700349114e6 0.0
3.5776835700349114e6 1.2535523277329244e6 0.0
0.0 0.0 0.0

-6.089717149334647e6 -1.3965410129023087e6 0.0
-1.3965410129023087e6 4.835192704302598e6 0.0
0.0 0.0 0.0

-3.0739275713150254e6 6.37606492379455e6 0.0
6.37606492379455e6 1.6509842073083057e6 0.0
0.0 0.0 0.0

-459369.91947029287 7.3714039855676275e6 0.0
7.3714039855676275e6 -243755.95828317376 0.0
0.0 0.0 0.0

-303764.9869927679 5.094261522234761e6 0.0
5.094261522234761e6 -2.0102728169643756e6 0.0
0.0 0.0 0.0

428705.22711978963 1.167738451139081e6 0.0
1.167738451139081e6 -718019.9398834172 0.0
0.0 0.0 0.0

-1.3295331366011195e6 7.262877816524598e6 0.0
7.262877816524598e6 -742250.614023282 0.0
0.0 0.0 0.0

-833331.5104997245 6.426270959906803e6 0.0
6.426270959906803e6 -436580.5373711076 0.0
0.0 0.0 0.0

-652886.9461544771 6.476498121358414e6 0.0
6.476498121358414e6 -273904.0838958216 0.0
0.0 0.0 0.0

-1.3033959572683456e6 6.738009270139592e6 0.0
6.738009270139592e6 -934967.1505921476 0.0
0.0 0.0 0.0

-880553.2019812925 6.432304933419419e6 0.0
6.432304933419419e6 59560.02608253999 0.0
0.0 0.0 0.0

-299003.36830555694 4.980191914930514e6 0.0
4.980191914930514e6 -1.6988249765900744e6 0.0
0.0 0.0 0.0

-1.225830049522295e6 7.315668424869808e6 0.0
7.315668424869808e6 -565079.757053159 0.0
0.0 0.0 0.0

-659735.3388852231 7.171424917283385e6 0.0
7.171424917283385e6 -1.214204281528381e6 0.0
0.0 0.0 0.0

-590734.4743251182 5.270862974208513e6 0.0
5.270862974208513e6 -1.9522355290626322e6 0.0
0.0 0.0 0.0

-2.2052289564881665e6 4.880583498555104e6 0.0
4.880583498555104e6 1.1863304507612577e6 0.0
0.0 0.0 0.0

-1.1887306490000584e6 4.6242738508626735e6 0.0
4.6242738508626735e6 -871888.0752153683 0.0
0.0 0.0 0.0

-2.0442675056349024e7 1.7587798342951706e6 0.0
1.7587798342951706e6 1.2855700546078961e7 0.0
0.0 0.0 0.0

-4.397612753705682e6 6.038319907974853e6 0.0
6.038319907974853e6 6.718327189258749e6 0.0
0.0 0.0 0.0

-260848.26439951325 699254.4260006223 0.0
699254.4260006223 -2.806231780623998e6 0.0
0.0 0.0 0.0

183451.1878784312 20099.721699595837 0.0
20099.721699595837 762773.9854705904 0.0
0.0 0.0 0.0

-486747.1829962339 5.652340195052345e6 0.0
5.652340195052345e6 -2.5813715685035936e6 0.0
0.0 0.0 0.0

-247008.0856522349 4.463620657427696e6 0.0
4.463620657427696e6 -2.1984262361196466e6 0.0
0.0 0.0 0.0

-1.8062017009465452e6 6.5404931338160075e6 0.0
6.5404931338160075e6 355658.92621598835 0.0
0.0 0.0 0.0

-6.651709849414972e6 4.885257734901281e6 0.0
4.885257734901281e6 3.9665464022853407e6 0.0
0.0 0.0 0.0

-1.5444579695301414e6 4.620084222561602e6 0.0
4.620084222561602e6 1.5818225474570747e6 0.0
0.0 0.0 0.0

-1.1273711263208725e6 7.197639009697431e6 0.0
7.197639009697431e6 -675587.8514708851 0.0
0.0 0.0 0.0

-1.4561892057587444e6 -4.291808014961514e6 0.0
-4.291808014961514e6 5.896371866614146e6 0.0
0.0 0.0 0.0

-1.5500977808967351e6 3.3964026941924896e6 0.0
3.3964026941924896e6 1.0536724624920813e6 0.0
0.0 0.0 0.0

-369843.1421744472 2.9784786372590563e6 0.0
2.9784786372590563e6 -3.233207574271602e6 0.0
0.0 0.0 0.0

-3.623360786581628e6 4.584753603847262e6 0.0
4.584753603847262e6 1.186118136446069e6 0.0
0.0 0.0 0.0

-252951.50678230857 2.3772403964251266e6 0.0
2.3772403964251266e6 -3.4750733223816482e6 0.0
0.0 0.0 0.0

-1.2285377461463366e7 2.8864268156372746e6 0.0
2.8864268156372746e6 4.141216862583342e6 0.0
0.0 0.0 0.0

-1.8763909739873195e6 -5.191660331428902e6 0.0
-5.191660331428902e6 7.216847318029774e6 0.0
0.0 0.0 0.0

-542908.7784609915 5.037360044623354e6 0.0
5.037360044623354e6 -1.9141220344510055e6 0.0
0.0 0.0 0.0

-2.568443271239673e6 5.35731590796569e6 0.0
5.35731590796569e6 415670.9521392146 0.0
0.0 0.0 0.0

-7.004978290303108e6 6.724198015586185e6 0.0
6.724198015586185e6 219339.71866371064 0.0
0.0 0.0 0.0

-301132.5331518459 2.598038380124827e6 0.0
2.598038380124827e6 -3.327379447243367e6 0.0
0.0 0.0 0.0

-2.710199668169316e6 3.6434698230962483e6 0.0
3.6434698230962483e6 802772.1238748124 0.0
0.0 0.0 0.0

-2.375279019542182e6 4.360412528524506e6 0.0
4.360412528524506e6 1.2737355592035244e6 0.0
0.0 0.0 0.0

-1.6970157944845364e6 4.144195270013054e6 0.0
4.144195270013054e6 3.445415130938821e6 0.0
0.0 0.0 0.0

-715534.8769960052 4.548630532066269e6 0.0
4.548630532066269e6 -1.7868697705455485e6 0.0
0.0 0.0 0.0

-291618.3800389972 4.490963523069996e6 0.0
4.490963523069996e6 -2.1510456669795257e6 0.0
0.0 0.0 0.0

-1.7097509403984917e6 8.319052724060848e6 0.0
8.319052724060848e6 -401469.15949602006 0.0
0.0 0.0 0.0

-3.7779905436118133e6 4.678996043876598e6 0.0
4.678996043876598e6 1.2289853201867447e6 0.0
0.0 0.0 0.0

-1.2155999506082302e6 3.397006213237475e6 0.0
3.397006213237475e6 548265.4148509328 0.0
0.0 0.0 0.0

-83059.0088510937 2.1176569592212373e6 0.0
2.1176569592212373e6 -3.5313616360397586e6 0.0
0.0 0.0 0.0

-3.9604183062864463e6 4.482139459374334e6 0.0
4.482139459374334e6 1.050023985851133e6 0.0
0.0 0.0 0.0

-301006.5623503641 4.322275851623374e6 0.0
4.322275851623374e6 -723212.601784532 0.0
0.0 0.0 0.0

-347755.83798727184 4.528655923126815e6 0.0
4.528655923126815e6 -1.7116434504439856e6 0.0
0.0 0.0 0.0

-181722.06995310425 2.277099905992144e6 0.0
2.277099905992144e6 -3.0603982328903475e6 0.0
0.0 0.0 0.0

-276874.15796700923 4.514287903729161e6 0.0
4.514287903729161e6 -2.07231199774325e6 0.0
0.0 0.0 0.0

-1.9259659007555842e6 1.2157607016477967e6 0.0
1.2157607016477967e6 1.9414622610703474e6 0.0
0.0 0.0 0.0

139723.350999963 1.1605752248284898e6 0.0
1.1605752248284898e6 -779112.342708608 0.0
0.0 0.0 0.0

-1.930118612464926e6 3.1224334910048447e6 0.0
3.1224334910048447e6 299548.92558156175 0.0
0.0 0.0 0.0

-460490.2068376783 7.020698398669735e6 0.0
7.020698398669735e6 -190984.34497943867 0.0
0.0 0.0 0.0

-70565.43181957875 565068.5182667704 0.0
565068.5182667704 -3.4090770156227592e6 0.0
0.0 0.0 0.0

-2.3670306400302565e6 4.947629323749016e6 0.0
4.947629323749016e6 702332.4055371435 0.0
0.0 0.0 0.0

-254473.55295332134 525042.7355436875 0.0
525042.7355436875 271706.41466770467 0.0
0.0 0.0 0.0

-234045.87258930068 5.132146667641896e6 0.0
5.132146667641896e6 -1.52466368375022e6 0.0
0.0 0.0 0.0

-679292.5509354644 5.540157391308161e6 0.0
5.540157391308161e6 -1.838846860175507e6 0.0
0.0 0.0 0.0

-1.4169881395075703e6 6.055451383908952e6 0.0
6.055451383908952e6 484856.3003366602 0.0
0.0 0.0 0.0

-1.7572054217345035e6 6.203707519801391e6 0.0
6.203707519801391e6 1.3829513732141457e6 0.0
0.0 0.0 0.0

-705872.3624577684 6.791924595435302e6 0.0
6.791924595435302e6 23907.732212494506 0.0
0.0 0.0 0.0

-1.7295909771890836e6 8.286421826916222e6 0.0
8.286421826916222e6 -338323.3580019222 0.0
0.0 0.0 0.0

-2.889152158194476e6 4.231237364203986e6 0.0
4.231237364203986e6 924393.2242792025 0.0
0.0 0.0 0.0

-1.5181345457597564e6 6.558615279463971e6 0.0
6.558615279463971e6 525014.9180516788 0.0
0.0 0.0 0.0

1.4169537595068845e6 4.0719137818878028e6 0.0
4.0719137818878028e6 -374714.7230515217 0.0
0.0 0.0 0.0

-609782.9065320401 -3.2074284794944697e6 0.0
-3.2074284794944697e6 4.212513604275232e6 0.0
0.0 0.0 0.0

-336763.38884815504 4.527727699503429e6 0.0
4.527727699503429e6 719895.6410739289 0.0
0.0 0.0 0.0

153051.6221464577 -658261.4469100636 0.0
-658261.4469100636 1.1081405825363433e6 0.0
0.0 0.0 0.0

-1.1800476637394403e6 6.432721488237435e6 0.0
6.432721488237435e6 -205651.29587428976 0.0
0.0 0.0 0.0

-1.596761727009536e7 971995.1940737856 0.0
971995.1940737856 1.9710344359346107e7 0.0
0.0 0.0 0.0

-1.8860100246852506e6 3.279450773594679e6 0.0
3.279450773594679e6 419184.31101842574 0.0
0.0 0.0 0.0

2.114328762824096e6 975611.0284866362 0.0
975611.0284866362 -2.130106563030781e6 0.0
0.0 0.0 0.0

2.02969809821838e6 1.1039850623474915e6 0.0
1.1039850623474915e6 -2.422838276335425e6 0.0
0.0 0.0 0.0

-1.1681293992254988e6 7.089809818240881e6 0.0
7.089809818240881e6 -687272.4342352785 0.0
0.0 0.0 0.0

-2.387055388052891e6 6.196197275551428e6 0.0
6.196197275551428e6 233987.67065146146 0.0
0.0 0.0 0.0

-1.0117781111005817e6 7.076492463731114e6 0.0
7.076492463731114e6 -743510.8798362359 0.0
0.0 0.0 0.0

-900856.385082647 3.476568454640984e6 0.0
3.476568454640984e6 681353.763382378 0.0
0.0 0.0 0.0

-347313.4876470094 4.683773753500696e6 0.0
4.683773753500696e6 -1.863560300396899e6 0.0
0.0 0.0 0.0

-506832.42285250337 4.7717172636458315e6 0.0
4.7717172636458315e6 -2.0381924740183947e6 0.0
0.0 0.0 0.0

-2.2794657875818405e6 5.060741473614177e6 0.0
5.060741473614177e6 581470.5903032415 0.0
0.0 0.0 0.0

-768250.5004640883 5.931950881194581e6 0.0
5.931950881194581e6 -1.7333737891166154e6 0.0
0.0 0.0 0.0

-2.2080226526321307e7 -796918.5616569155 0.0
-796918.5616569155 1.276329290389491e7 0.0
0.0 0.0 0.0

-1.1933801914945208e6 6.598624656393355e6 0.0
6.598624656393355e6 -1.0693001598366676e6 0.0
0.0 0.0 0.0

-4.993562983768599e6 4.928317472513486e6 0.0
4.928317472513486e6 1.798484596738366e6 0.0
0.0 0.0 0.0

-186391.118972638 4.828371026287936e6 0.0
4.828371026287936e6 -1.412513132142975e6 0.0
0.0 0.0 0.0

-1.5428361319039008e6 5.641500589311728e6 0.0
5.641500589311728e6 977063.6797575903 0.0
0.0 0.0 0.0

-2.494783146193632e6 5.012551225375259e6 0.0
5.012551225375259e6 1.8995490772387213e6 0.0
0.0 0.0 0.0

-4.336493591171761e6 1.0945625618272383e7 0.0
1.0945625618272383e7 1.9360077885862135e6 0.0
0.0 0.0 0.0

-325674.77464717283 64964.20974157042 0.0
64964.20974157042 1.0450194375124769e6 0.0
0.0 0.0 0.0

-172675.56579908554 578648.1019266364 0.0
578648.1019266364 -2.799812049296154e6 0.0
0.0 0.0 0.0

-2.1013894732442712e6 5.977431770486994e6 0.0
5.977431770486994e6 26318.905837188824 0.0
0.0 0.0 0.0

860736.4532147191 685519.0759972644 0.0
685519.0759972644 -1.4985502803034082e6 0.0
0.0 0.0 0.0

25035.051353289047 1.6137845205597787e6 0.0
1.6137845205597787e6 -3.5885766960530616e6 0.0
0.0 0.0 0.0

-403130.8762836745 -2.6300548963204557e6 0.0
-2.6300548963204557e6 3.4005781090691965e6 0.0
0.0 0.0 0.0

418351.26249898656 -27523.945401621222 0.0
-27523.945401621222 -760491.9901061591 0.0
0.0 0.0 0.0

-295378.3643750966 5.290148308679644e6 0.0
5.290148308679644e6 -1.9264431144156852e6 0.0
0.0 0.0 0.0

-344244.0091113083 126453.52170189608 0.0
126453.52170189608 792044.319114959 0.0
0.0 0.0 0.0

-105381.10848108248 585627.94835325 0.0
585627.94835325 -3.0345452217592187e6 0.0
0.0 0.0 0.0

166127.17745136004 1.3933703123544224e6 0.0
1.3933703123544224e6 -3.2251633062849883e6 0.0
0.0 0.0 0.0

-42149.954736877815 -2.2629691246635355e6 0.0
-2.2629691246635355e6 2.6493795373598365e6 0.0
0.0 0.0 0.0

-2.164901966260949e6 4.714886014231764e6 0.0
4.714886014231764e6 1.20711353953517e6 0.0
0.0 0.0 0.0

-1.1548572767088853e6 6.963463498814787e6 0.0
6.963463498814787e6 -711527.146245733 0.0
0.0 0.0 0.0

-2.9048613337992337e6 4.281983033408224e6 0.0
4.281983033408224e6 1.0063990656074409e6 0.0
0.0 0.0 0.0

43217.58762129606 1.0694502780288318e6 0.0
1.0694502780288318e6 -3.4806215309552946e6 0.0
0.0 0.0 0.0

314364.62014779047 -1.810871659509588e6 0.0
-1.810871659509588e6 1.8531716947368549e6 0.0
0.0 0.0 0.0

-307834.5131769289 4.973303122827058e6 0.0
4.973303122827058e6 -1.7040403651382893e6 0.0
0.0 0.0 0.0

-742181.5365986272 5.978885057855796e6 0.0
5.978885057855796e6 -1.6613576616792092e6 0.0
0.0 0.0 0.0

-2.7744946177904764e6 5.0172126356183365e6 0.0
5.0172126356183365e6 652403.1025296719 0.0
0.0 0.0 0.0

-2.184408595925297e6 3.2512513297636798e6 0.0
3.2512513297636798e6 282267.3094877313 0.0
0.0 0.0 0.0

-1.5469680046275503e6 5.22686055242029e6 0.0
5.22686055242029e6 1.2160774152425472e6 0.0
0.0 0.0 0.0

370221.86129512463 -1.0469927485501724e6 0.0
-1.0469927485501724e6 1.2839174440731055e6 0.0
0.0 0.0 0.0

14500.636042968603 921859.0476358254 0.0
921859.0476358254 -3.1908031971474118e6 0.0
0.0 0.0 0.0

-2.7540156294273664e6 8.645527686969642e6 0.0
8.645527686969642e6 124031.32831943303 0.0
0.0 0.0 0.0

-2.9467571099784677e6 5.954045070914871e6 0.0
5.954045070914871e6 6.2753181966386335e6 0.0
0.0 0.0 0.0

5.139381792640491e6 1.8706247967013985e7 0.0
1.8706247967013985e7 -1.73312305168672e7 0.0
0.0 0.0 0.0

-737241.5701159918 3.6190649735337426e6 0.0
3.6190649735337426e6 -1.9969613680322403e6 0.0
0.0 0.0 0.0

-3.5183484816043116e6 4.357122307335939e6 0.0
4.357122307335939e6 1.0884602528328567e6 0.0
0.0 0.0 0.0

34684.690305829805 2.706162900160964e6 0.0
2.706162900160964e6 -1.0645923378144307e6 0.0
0.0 0.0 0.0

-3.020791025052573e6 4.2134391755240625e6 0.0
4.2134391755240625e6 1.037979247412435e6 0.0
0.0 0.0 0.0

-321031.40751370817 4.433781959282307e6 0.0
4.433781959282307e6 155196.09931335988 0.0
0.0 0.0 0.0

-942186.2672502777 1.0455526477078239e7 0.0
1.0455526477078239e7 -903987.9263700265 0.0
0.0 0.0 0.0

-1.4901270404647235e6 9.114528898218844e6 0.0
9.114528898218844e6 -351170.62108102476 0.0
0.0 0.0 0.0

-1.6793438452397394e6 3.4118458529243334e6 0.0
3.4118458529243334e6 435608.3594618256 0.0
0.0 0.0 0.0

-1.1145725774469415e6 6.588645937889378e6 0.0
6.588645937889378e6 -255107.47339270113 0.0
0.0 0.0 0.0

-3.0164402135692853e6 -5.912090135625186e6 0.0
-5.912090135625186e6 6.906270872000282e6 0.0
0.0 0.0 0.0

1.70878283226256e6 1.30717248488145e6 0.0
1.30717248488145e6 -2.303006574084533e6 0.0
0.0 0.0 0.0

-569189.3148427554 -285979.084589343 0.0
-285979.084589343 374821.0573894295 0.0
0.0 0.0 0.0

-263416.57157837134 -1.4337654240354425e6 0.0
-1.4337654240354425e6 -299528.32358627976 0.0
0.0 0.0 0.0

-1.410813896954745e6 9.23551598958048e6 0.0
9.23551598958048e6 -408581.559899443 0.0
0.0 0.0 0.0

-494970.1545848542 5.554758335490796e6 0.0
5.554758335490796e6 -2.516780004176461e6 0.0
0.0 0.0 0.0

-960734.598204516 6.6244750877231145e6 0.0
6.6244750877231145e6 240203.77850391436 0.0
0.0 0.0 0.0

-718136.4793132849 5.991063301282581e6 0.0
5.991063301282581e6 993679.7085000868 0.0
0.0 0.0 0.0

-86358.42740456539 1.9012552037575648e6 0.0
1.9012552037575648e6 -2.1671283505299776e6 0.0
0.0 0.0 0.0

-604819.381467682 5.336367461963149e6 0.0
5.336367461963149e6 -2.161216190320192e6 0.0
0.0 0.0 0.0

-853607.880045334 6.085851571123716e6 0.0
6.085851571123716e6 -1.0177055659497873e6 0.0
0.0 0.0 0.0

-345918.02794114465 5.476393584169489e6 0.0
5.476393584169489e6 -2.4431233657469577e6 0.0
0.0 0.0 0.0

-2.8536497755892742e6 5.53534398126797e6 0.0
5.53534398126797e6 740770.3893605309 0.0
0.0 0.0 0.0

-1.7204393070603425e6 5.801873332567178e6 0.0
5.801873332567178e6 1.0749147469647068e6 0.0
0.0 0.0 0.0

-376513.76163122844 5.512014173462825e6 0.0
5.512014173462825e6 -2.11033898809989e6 0.0
0.0 0.0 0.0

-192054.06116314203 5.092991060781939e6 0.0
5.092991060781939e6 -1.4943123445470042e6 0.0
0.0 0.0 0.0

-360175.00508301985 5.59073241920437e6 0.0
5.59073241920437e6 -2.3416278596921046e6 0.0
0.0 0.0 0.0

-1.0150843175225252e7 2.6158056282116603e6 0.0
2.6158056282116603e6 8.743784274141245e6 0.0
0.0 0.0 0.0

-5.542801903911004e6 1.0744293429471724e7 0.0
1.0744293429471724e7 3.3475007355435807e6 0.0
0.0 0.0 0.0

486010.78197835677 964549.4629869281 0.0
964549.4629869281 -566794.1605253045 0.0
0.0 0.0 0.0

564885.4663861771 936025.988315525 0.0
936025.988315525 -871435.0103952957 0.0
0.0 0.0 0.0

-1.8042577274431284e6 5.537754621220983e6 0.0
5.537754621220983e6 874560.4206292484 0.0
0.0 0.0 0.0

-2.0956088456674274e6 5.312696247078725e6 0.0
5.312696247078725e6 100387.19847289717 0.0
0.0 0.0 0.0

-3.785930961069297e6 4.529046523734695e6 0.0
4.529046523734695e6 1.2226363958801702e6 0.0
0.0 0.0 0.0

-3.1239851791959596e6 4.1683756601343164e6 0.0
4.1683756601343164e6 1.0362022193390625e6 0.0
0.0 0.0 0.0

934694.5331651678 6.014129946024059e6 0.0
6.014129946024059e6 -516594.09029758855 0.0
0.0 0.0 0.0

-691485.456087443 7.142463070380855e6 0.0
7.142463070380855e6 -1.0296176623460465e6 0.0
0.0 0.0 0.0

-4.350828799524967e6 6.267107015839003e6 0.0
6.267107015839003e6 6.74005502796722e6 0.0
0.0 0.0 0.0

-8.530355992007786e6 7.7188801446722625e6 0.0
7.7188801446722625e6 3.985479721529759e6 0.0
0.0 0.0 0.0

-3.0195976162834793e7 2.659497981298266e6 0.0
2.659497981298266e6 2.3729326020778567e7 0.0
0.0 0.0 0.0

-1.5795952532089844e6 3.3576388253439586e6 0.0
3.3576388253439586e6 225992.40277078864 0.0
0.0 0.0 0.0

-1.0825145236567864e6 6.092764324840708e6 0.0
6.092764324840708e6 85094.76768915093 0.0
0.0 0.0 0.0

-560039.5338316688 4.1661803480146592e6 0.0
4.1661803480146592e6 -1.4182331841573769e6 0.0
0.0 0.0 0.0

-1.6246377422023984e6 3.359782094121557e6 0.0
3.359782094121557e6 1.0533070310929683e6 0.0
0.0 0.0 0.0

938292.7184451289 308094.17060987407 0.0
308094.17060987407 -957160.8101683287 0.0
0.0 0.0 0.0

-1.158898547227292e6 4.059847949568517e6 0.0
4.059847949568517e6 1.5934004160505307e6 0.0
0.0 0.0 0.0

-384391.8225678297 4.929155214810502e6 0.0
4.929155214810502e6 -2.4520406050683497e6 0.0
0.0 0.0 0.0

-232998.2751878078 4.3190350556099815e6 0.0
4.3190350556099815e6 -1.7326527572727422e6 0.0
0.0 0.0 0.0

-16911.86099818442 6.018038940890938e6 0.0
6.018038940890938e6 -1.1214674580578874e6 0.0
0.0 0.0 0.0

-7.6681003094636565e6 -6.03905010403904e6 0.0
-6.03905010403904e6 1.879423899634069e7 0.0
0.0 0.0 0.0

-3.0486559652040303e6 4.939100288281296e6 0.0
4.939100288281296e6 817939.0364994679 0.0
0.0 0.0 0.0

-2.8058689079650277e6 5.662134117245082e6 0.0
5.662134117245082e6 362937.3331701341 0.0
0.0 0.0 0.0

-1.577969398910208e6 8.455995436662413e6 0.0
8.455995436662413e6 -374915.71383051673 0.0
0.0 0.0 0.0

641453.659068797 559612.8749008055 0.0
559612.8749008055 -799868.9119932075 0.0
0.0 0.0 0.0

-201622.2693842305 5.20677612155699e6 0.0
5.20677612155699e6 -1.5037972019281234e6 0.0
0.0 0.0 0.0

-200369.346836415 298170.6747751325 0.0
298170.6747751325 45103.89536099728 0.0
0.0 0.0 0.0

-130300.837866585 6.491356464928805e6 0.0
6.491356464928805e6 -1.6014085244576288e6 0.0
0.0 0.0 0.0

-2.3994270687650004e6 3.4597902265257025e6 0.0
3.4597902265257025e6 627657.1025312738 0.0
0.0 0.0 0.0

31125.05710734648 3.1689958890333064e6 0.0
3.1689958890333064e6 -1.8649910323582473e6 0.0
0.0 0.0 0.0

-2.9795308521051593e6 4.596854053148138e6 0.0
4.596854053148138e6 1.358778105531959e6 0.0
0.0 0.0 0.0

-21928.97919437103 1.7712023800807134e6 0.0
1.7712023800807134e6 -1.2553806553357781e6 0.0
0.0 0.0 0.0

-1.0161808704391976e6 5.883056555697238e6 0.0
5.883056555697238e6 -1.3855363514522358e6 0.0
0.0 0.0 0.0

-4.453570045854066e6 4.38019634295359e6 0.0
4.38019634295359e6 1.5507169401216004e6 0.0
0.0 0.0 0.0

-366126.074815553 4.740402881273163e6 0.0
4.740402881273163e6 -2.0872219282678985e6 0.0
0.0 0.0 0.0

-1.692347474180497e6 8.813849931875924e6 0.0
8.813849931875924e6 -461895.3312308815 0.0
0.0 0.0 0.0

-3.987988569785121e6 4.527529403895018e6 0.0
4.527529403895018e6 1.1933751452611813e6 0.0
0.0 0.0 0.0

-2.8520369319607215e6 4.341124059455204e6 0.0
4.341124059455204e6 1.0531538545201158e6 0.0
0.0 0.0 0.0

-3.072925259618145e6 4.1064670690757716e6 0.0
4.1064670690757716e6 932058.3013819177 0.0
0.0 0.0 0.0

-4.511547916128468e6 5.877934348382871e6 0.0
5.877934348382871e6 1.8302682695439802e6 0.0
0.0 0.0 0.0

-1.778147192008572e6 8.678878947208297e6 0.0
8.678878947208297e6 -486694.42409428145 0.0
0.0 0.0 0.0

-5.218646405682414e6 4.836920222220622e6 0.0
4.836920222220622e6 2.121345916156197e6 0.0
0.0 0.0 0.0

-539751.8179454679 2.7635783086569826e6 0.0
2.7635783086569826e6 -442149.577427128 0.0
0.0 0.0 0.0

-763432.7059043301 7.31782513409287e6 0.0
7.31782513409287e6 -1.1109693295097917e6 0.0
0.0 0.0 0.0

270199.00074513134 988725.5447240373 0.0
988725.5447240373 -1.1026667091659799e6 0.0
0.0 0.0 0.0

-2.5769805512188086e6 5.390641231192458e6 0.0
5.390641231192458e6 333579.6314513582 0.0
0.0 0.0 0.0

-913773.0092515525 -1.1383769946219553e6 0.0
-1.1383769946219553e6 1.4754928762833173e6 0.0
0.0 0.0 0.0

-3.197371800851386e6 8.214370323127176e6 0.0
8.214370323127176e6 464506.3493641829 0.0
0.0 0.0 0.0

-887213.1172609497 5.873984237513111e6 0.0
5.873984237513111e6 -1.3789338522822643e6 0.0
0.0 0.0 0.0

-155463.51983363804 4.96923754577779e6 0.0
4.96923754577779e6 -1.0004383885187078e6 0.0
0.0 0.0 0.0

-1.202199855116745e6 5.171309967693168e6 0.0
5.171309967693168e6 -1.087693015438043e6 0.0
0.0 0.0 0.0

-362157.8924986372 4.403175337061681e6 0.0
4.403175337061681e6 -1.9906536423418424e6 0.0
0.0 0.0 0.0

813014.936275664 7.08097413733316e6 0.0
7.08097413733316e6 -2.1745939086492164e6 0.0
0.0 0.0 0.0

-1.2841577160724772e6 9.348353547469297e6 0.0
9.348353547469297e6 -474429.22613244073 0.0
0.0 0.0 0.0

-583366.9638608394 6.511934545017279e6 0.0
6.511934545017279e6 -485830.94922254025 0.0
0.0 0.0 0.0

-2.0477103250649301e6 3.2431376799699846e6 0.0
3.2431376799699846e6 133405.91680610424 0.0
0.0 0.0 0.0

-25643.47474217508 1.9598881804305566e6 0.0
1.9598881804305566e6 -3.7078714368783417e6 0.0
0.0 0.0 0.0

-175783.54716911624 1.9798889126755483e6 0.0
1.9798889126755483e6 -419310.7452050755 0.0
0.0 0.0 0.0

-5261.608237931039 4.8565876114315735e6 0.0
4.8565876114315735e6 -3.364211845349704e6 0.0
0.0 0.0 0.0

668222.0159421866 597797.1745380202 0.0
597797.1745380202 -923775.0313865158 0.0
0.0 0.0 0.0

-2.4450270698065776e6 3.461016408625035e6 0.0
3.461016408625035e6 467161.0862921955 0.0
0.0 0.0 0.0

-711079.8152412382 6.502290355161599e6 0.0
6.502290355161599e6 -439104.76221992134 0.0
0.0 0.0 0.0

-136258.99210663274 5.057213155886776e6 0.0
5.057213155886776e6 -1.2928880654010277e6 0.0
0.0 0.0 0.0

-1.5406205435491453e6 3.3565797826182647e6 0.0
3.3565797826182647e6 359773.0872317994 0.0
0.0 0.0 0.0

884373.5987763364 70111.3107293817 0.0
70111.3107293817 -1.0636331847673228e6 0.0
0.0 0.0 0.0

-1.2867422894256287e6 9.656405988470636e6 0.0
9.656405988470636e6 -217543.3480712493 0.0
0.0 0.0 0.0

-3.3449306064963266e6 5.35113162033153e6 0.0
5.35113162033153e6 3.219417872784958e6 0.0
0.0 0.0 0.0

-912017.6297085672 5.874495598674409e6 0.0
5.874495598674409e6 -1.684465415933888e6 0.0
0.0 0.0 0.0

2424.3553775773034 463322.5800819963 0.0
463322.5800819963 270594.83342575486 0.0
0.0 0.0 0.0

-1.0831774637048075e6 4.4695058258889e6 0.0
4.4695058258889e6 730122.0619568336 0.0
0.0 0.0 0.0

-2.9055139443654288e6 3.9756329408366736e6 0.0
3.9756329408366736e6 6.468878287852487e6 0.0
0.0 0.0 0.0

-838221.5865034936 4.069142875383432e6 0.0
4.069142875383432e6 1.0420211661466176e6 0.0
0.0 0.0 0.0

-438828.6401063084 5.499566857052217e6 0.0
5.499566857052217e6 -2.512211126159948e6 0.0
0.0 0.0 0.0

-1.1671164722429249e6 6.031378546453556e6 0.0
6.031378546453556e6 492881.0869995387 0.0
0.0 0.0 0.0

-524463.377556556 6.800699172242753e6 0.0
6.800699172242753e6 -318721.66464471 0.0
0.0 0.0 0.0

-1.0450633465784765e6 7.306474722485856e6 0.0
7.306474722485856e6 -680919.6189762808 0.0
0.0 0.0 0.0

-1.981175063363891e6 6.510935902369616e6 0.0
6.510935902369616e6 312433.9094715385 0.0
0.0 0.0 0.0

-133172.37991001096 3.719662199721057e6 0.0
3.719662199721057e6 -2.643390522377337e6 0.0
0.0 0.0 0.0

-51038.63507568848 3.7708241060949923e6 0.0
3.7708241060949923e6 -2.8061674219913427e6 0.0
0.0 0.0 0.0

-1.048916290036277e6 5.155057795088186e6 0.0
5.155057795088186e6 -1.0641137168318152e6 0.0
0.0 0.0 0.0

-1.7946900506933033e6 3.4411009775534696e6 0.0
3.4411009775534696e6 2.8319336359762372e6 0.0
0.0 0.0 0.0

-1.3067298692388833e6 7.0197276211192915e6 0.0
7.0197276211192915e6 -798766.9968524977 0.0
0.0 0.0 0.0

-4.910025166917488e6 -2.356038244771565e6 0.0
-2.356038244771565e6 7.8570197510445705e6 0.0
0.0 0.0 0.0

-238082.3465439818 3.108722456532329e6 0.0
3.108722456532329e6 -2.577496708979395e6 0.0
0.0 0.0 0.0

-1.0329699004285747e7 4.574437076126952e6 0.0
4.574437076126952e6 3.108069125389503e7 0.0
0.0 0.0 0.0

646.5005330261774 1.8040089585151179e6 0.0
1.8040089585151179e6 -3.6712340576131386e6 0.0
0.0 0.0 0.0

-1.9201985423591263e6 8.777592891369423e6 0.0
8.777592891369423e6 -403315.0486026291 0.0
0.0 0.0 0.0

-1.4907942232124219e6 4.154643385725871e6 0.0
4.154643385725871e6 1.3177056654979624e6 0.0
0.0 0.0 0.0

-493636.03621679184 5.515673233027726e6 0.0
5.515673233027726e6 -2.4504308277289537e6 0.0
0.0 0.0 0.0

-1.900781112947106e6 2.6545841024039937e6 0.0
2.6545841024039937e6 1.9560859331796207e6 0.0
0.0 0.0 0.0

-1.488441523994145e6 6.289614106078801e6 0.0
6.289614106078801e6 607734.835285952 0.0
0.0 0.0 0.0

-1.7839210502293422e6 4.453798803164893e6 0.0
4.453798803164893e6 1.417861628324903e6 0.0
0.0 0.0 0.0

-2.46187805429264e6 4.145342744899489e6 0.0
4.145342744899489e6 1.101859944950061e6 0.0
0.0 0.0 0.0

-1.3698719676640641e6 5.974370375905329e6 0.0
5.974370375905329e6 238894.67672268482 0.0
0.0 0.0 0.0

-702978.7902724367 8.152821693448378e6 0.0
8.152821693448378e6 -1.8986699328045736e6 0.0
0.0 0.0 0.0

-1.7615568965212952e6 3.2719189473321945e6 0.0
3.2719189473321945e6 1.4807913845610674e6 0.0
0.0 0.0 0.0

-423772.4906832071 5.629169469911391e6 0.0
5.629169469911391e6 -2.545262883556912e6 0.0
0.0 0.0 0.0

-1.2323332562796096e6 5.74312626812529e6 0.0
5.74312626812529e6 1.2174316993731554e6 0.0
0.0 0.0 0.0

-1.751882065926929e6 5.65692578445561e6 0.0
5.65692578445561e6 174729.10401095124 0.0
0.0 0.0 0.0

-837278.6228218394 4.1668686366930483e6 0.0
4.1668686366930483e6 -2.0494549267541813e6 0.0
0.0 0.0 0.0

-1.1193769482520958e7 -4.835035592090615e6 0.0
-4.835035592090615e6 2.237037138681361e7 0.0
0.0 0.0 0.0

-513824.15103499196 5.622547618599233e6 0.0
5.622547618599233e6 -2.570715198301662e6 0.0
0.0 0.0 0.0

-1.0140842149780003e6 5.633915580156042e6 0.0
5.633915580156042e6 1.7718946728605155e6 0.0
0.0 0.0 0.0

-3.853433081336227e6 4.7806797553932015e6 0.0
4.7806797553932015e6 1.1820591275748007e6 0.0
0.0 0.0 0.0

-424125.28109801875 5.189907015274313e6 0.0
5.189907015274313e6 2.3712506331462394e6 0.0
0.0 0.0 0.0

-1.7313913631300326e6 5.3775397917646915e6 0.0
5.3775397917646915e6 3.94023039563813e6 0.0
0.0 0.0 0.0

-2.129095958968534e6 5.0731193913762625e6 0.0
5.0731193913762625e6 1.46541293362518e6 0.0
0.0 0.0 0.0

-1.6352300751285425e6 7.04275778260063e6 0.0
7.04275778260063e6 -1.1243937815388534e6 0.0
0.0 0.0 0.0

-1.6814960915590918e6 5.743877851863661e6 0.0
5.743877851863661e6 794567.4739409813 0.0
0.0 0.0 0.0

-1.950564767317372e6 3.6625392133759856e6 0.0
3.6625392133759856e6 677346.6335763006 0.0
0.0 0.0 0.0

-1.7507626052075438e6 3.533283870949558e6 0.0
3.533283870949558e6 657819.0399669413 0.0
0.0 0.0 0.0

-254926.40523662616 3.458161037386771e6 0.0
3.458161037386771e6 -2.788086601254695e6 0.0
0.0 0.0 0.0

-2.4505081741984375e6 4.975497992008018e6 0.0
4.975497992008018e6 742989.6787486908 0.0
0.0 0.0 0.0

-452914.0808381706 5.335901074565018e6 0.0
5.335901074565018e6 -2.1818402972439392e6 0.0
0.0 0.0 0.0

-251.0869772696169 2.956407747028121e6 0.0
2.956407747028121e6 -1.0503243685342434e6 0.0
0.0 0.0 0.0

-3.170167055451002e6 7.449500466517904e6 0.0
7.449500466517904e6 429722.856686861 0.0
0.0 0.0 0.0

-2.3182159747650204e6 4.400698830243976e6 0.0
4.400698830243976e6 2.1115140996509227e6 0.0
0.0 0.0 0.0

-2.3292697500426844e6 -1.1531486460900595e6 0.0
-1.1531486460900595e6 4.0406026782084843e6 0.0
0.0 0.0 0.0

-249623.87290021262 4.966214029850911e6 0.0
4.966214029850911e6 -247223.40890378001 0.0
0.0 0.0 0.0

-133938.66363297257 5.971374137460827e6 0.0
5.971374137460827e6 -1.147327792072684e6 0.0
0.0 0.0 0.0

-962396.2728228851 5.705525541908962e6 0.0
5.705525541908962e6 -1.2319353620613108e6 0.0
0.0 0.0 0.0

-155551.60572408722 2.5333237534272796e6 0.0
2.5333237534272796e6 -2.828640699352446e6 0.0
0.0 0.0 0.0

-313226.62031751033 7.027308250089344e6 0.0
7.027308250089344e6 -555868.5981943586 0.0
0.0 0.0 0.0

-1.0521928364308076e6 6.156544729784909e6 0.0
6.156544729784909e6 -1.1226975256096746e6 0.0
0.0 0.0 0.0

-449231.70484737685 4.66599556799558e6 0.0
4.66599556799558e6 -979100.7680100553 0.0
0.0 0.0 0.0

-198087.72148893424 2.6428563710505106e6 0.0
2.6428563710505106e6 -873150.9786012383 0.0
0.0 0.0 0.0

965325.2476590862 418599.70176767174 0.0
418599.70176767174 -970935.3068589211 0.0
0.0 0.0 0.0

-1.7645158162016238e6 5.671052496314014e6 0.0
5.671052496314014e6 827.8601613418432 0.0
0.0 0.0 0.0

-725258.7577429226 5.343478171915401e6 0.0
5.343478171915401e6 -1.7741955228901212e6 0.0
0.0 0.0 0.0

-289358.02411941317 5.025892381665731e6 0.0
5.025892381665731e6 -2.0892383342228571e6 0.0
0.0 0.0 0.0

-1.024188598082941e7 -7.008450810721673e6 0.0
-7.008450810721673e6 2.128792298057796e7 0.0
0.0 0.0 0.0

-5.273624618138095e6 4.672355681005518e6 0.0
4.672355681005518e6 2.060945748755024e6 0.0
0.0 0.0 0.0

-78923.36927458149 2.383948725653826e6 0.0
2.383948725653826e6 -1.2025382654520692e6 0.0
0.0 0.0 0.0

-813551.2203842045 6.547201589409071e6 0.0
6.547201589409071e6 -378529.7081722247 0.0
0.0 0.0 0.0

-1.064106688171661e6 4.375086931242291e6 0.0
4.375086931242291e6 302424.724233509 0.0
0.0 0.0 0.0

-1.8794126227078438e6 3.699646538129127e6 0.0
3.699646538129127e6 2.348568491677661e6 0.0
0.0 0.0 0.0

-2.562464765535217e6 5.577121163100168e6 0.0
5.577121163100168e6 138643.32467791333 0.0
0.0 0.0 0.0

-362448.3729410764 5.459585956983344e6 0.0
5.459585956983344e6 -755192.2818629683 0.0
0.0 0.0 0.0

-777386.8369347553 4.8525795310015995e6 0.0
4.8525795310015995e6 -68384.43416757527 0.0
0.0 0.0 0.0

-943237.1151052128 6.2713341564710075e6 0.0
6.2713341564710075e6 -1.0839165058871957e6 0.0
0.0 0.0 0.0

430193.19774433674 3.7696804725413998e6 0.0
3.7696804725413998e6 -743147.9268498847 0.0
0.0 0.0 0.0

-745970.2140831545 5.199050516754506e6 0.0
5.199050516754506e6 -1.258277316856163e6 0.0
0.0 0.0 0.0

-1.8579202897554785e6 8.13051494992217e6 0.0
8.13051494992217e6 -516876.45899373613 0.0
0.0 0.0 0.0

-2.7583624981082957e6 4.0563214700798006e6 0.0
4.0563214700798006e6 1.0097981379362108e6 0.0
0.0 0.0 0.0

-1.2409696707199942e6 7.781627117006276e6 0.0
7.781627117006276e6 -539688.5171257841 0.0
0.0 0.0 0.0

-1.2584382843241272e6 7.421352847555821e6 0.0
7.421352847555821e6 -619278.4540995937 0.0
0.0 0.0 0.0

-159265.93658927153 3.426911833865641e6 0.0
3.426911833865641e6 -2.1938930515069547e6 0.0
0.0 0.0 0.0

-187500.78438492384 5.521805329434234e6 0.0
5.521805329434234e6 -909273.06675235 0.0
0.0 0.0 0.0

-1.7882410655555318e6 8.658126708932472e6 0.0
8.658126708932472e6 -447062.5914994584 0.0
0.0 0.0 0.0

-1.0261925598096309e6 2.7011144558986705e6 0.0
2.7011144558986705e6 199768.10327432526 0.0
0.0 0.0 0.0

-1.314308066706533e7 7.553157931964534e6 0.0
7.553157931964534e6 3.7793515553327957e6 0.0
0.0 0.0 0.0

6.881560570348567e6 1.8859374450381167e7 0.0
1.8859374450381167e7 2.2938685073401555e7 0.0
0.0 0.0 0.0

-835386.9497608271 4.835693148187547e6 0.0
4.835693148187547e6 -2.784622090737598e6 0.0
0.0 0.0 0.0

-1.5705147896585576e6 5.860814685411506e6 0.0
5.860814685411506e6 1.2458364581804047e6 0.0
0.0 0.0 0.0

-935695.1023632379 6.253943469035203e6 0.0
6.253943469035203e6 -1.4716160431856092e6 0.0
0.0 0.0 0.0

-2.639479945386405e6 5.060583349329969e6 0.0
5.060583349329969e6 1.4130548652282197e6 0.0
0.0 0.0 0.0

-5.924922217681872e6 7.677071227213434e6 0.0
7.677071227213434e6 2.8106289862939147e6 0.0
0.0 0.0 0.0

-488386.2896536269 4.418906437976126e6 0.0
4.418906437976126e6 -1.86070283962184e6 0.0
0.0 0.0 0.0

-2.4976171725455504e6 6.626229815162954e6 0.0
6.626229815162954e6 1.011500520002263e6 0.0
0.0 0.0 0.0

-1.387262022727537e6 3.1234167464392823e6 0.0
3.1234167464392823e6 524085.25487711304 0.0
0.0 0.0 0.0

-2.7525847022711057e6 4.397818813957544e6 0.0
4.397818813957544e6 771457.0309774248 0.0
0.0 0.0 0.0

-424823.18161751487 4.908012259260621e6 0.0
4.908012259260621e6 -2.4043902274015713e6 0.0
0.0 0.0 0.0

-1.9296356660227913e6 6.499204229476317e6 0.0
6.499204229476317e6 754960.2620444307 0.0
0.0 0.0 0.0

-2.463088410824534e6 4.2980498849959755e6 0.0
4.2980498849959755e6 975792.9315233584 0.0
0.0 0.0 0.0

441923.561801436 1.0189589759034067e7 0.0
1.0189589759034067e7 -1.95608925123491e6 0.0
0.0 0.0 0.0

-348182.47659030574 4.959395759245812e6 0.0
4.959395759245812e6 -1.0387080571831947e6 0.0
0.0 0.0 0.0

-2.0459357980318996e6 5.112842323013348e6 0.0
5.112842323013348e6 1.6280846239307458e6 0.0
0.0 0.0 0.0

-3.242712317543459e6 5.996099423401135e6 0.0
5.996099423401135e6 79317.71212673909 0.0
0.0 0.0 0.0

-171644.03497206408 4.8697057959163645e6 0.0
4.8697057959163645e6 -1.3495987954736117e6 0.0
0.0 0.0 0.0

-3.259207884143409e6 7.854227899939352e6 0.0
7.854227899939352e6 568517.4856036801 0.0
0.0 0.0 0.0

-726802.7974693812 1.032243827047189e7 0.0
1.032243827047189e7 -685686.3901957149 0.0
0.0 0.0 0.0

-1.1059155243208918e6 6.81461602842387e6 0.0
6.81461602842387e6 -1.1636821570699334e6 0.0
0.0 0.0 0.0

-1.2225396255493155e6 4.690288843065921e6 0.0
4.690288843065921e6 2.6277509201135207e6 0.0
0.0 0.0 0.0

-1.0778673287200404e6 5.781583097681358e6 0.0
5.781583097681358e6 -1.2390136514516613e6 0.0
0.0 0.0 0.0

-1.931675608277644e6 3.20795596139571e6 0.0
3.20795596139571e6 447464.2161707855 0.0
0.0 0.0 0.0

-1.9643798359536945e6 3.5271016666683704e6 0.0
3.5271016666683704e6 825893.7882064844 0.0
0.0 0.0 0.0

877949.2198405043 1.8911995658706985e6 0.0
1.8911995658706985e6 -2.1825815533064846e6 0.0
0.0 0.0 0.0

-514590.99807039846 6.663522444830721e6 0.0
6.663522444830721e6 -595061.4792292325 0.0
0.0 0.0 0.0

-1.3907919379202677e6 9.765070854023224e6 0.0
9.765070854023224e6 -589604.6906137782 0.0
0.0 0.0 0.0

-297240.93123477977 5.590838170125855e6 0.0
5.590838170125855e6 -2.872443120824888e6 0.0
0.0 0.0 0.0

-914562.0435226312 2.636673384387451e6 0.0
2.636673384387451e6 62509.97977972595 0.0
0.0 0.0 0.0

-4.84048395681084e6 1.1822015219145462e7 0.0
1.1822015219145462e7 1.3930687544867415e6 0.0
0.0 0.0 0.0

28588.04806743504 3.678069107261544e6 0.0
3.678069107261544e6 -2.5746333713774458e6 0.0
0.0 0.0 0.0

-555991.0941255395 6.601275546273475e6 0.0
6.601275546273475e6 -546661.1445532324 0.0
0.0 0.0 0.0

-1.527549177982021e6 8.6672944859371e6 0.0
8.6672944859371e6 -495359.5658093234 0.0
0.0 0.0 0.0

-8.109880826618578e6 1.3387234608545957e7 0.0
1.3387234608545957e7 5.930770917826708e7 0.0
0.0 0.0 0.0

-915052.6417375266 3.999883471579218e6 0.0
3.999883471579218e6 -5.87088751904794e6 0.0
0.0 0.0 0.0

1.0502661158413298e6 5.514933514763403e6 0.0
5.514933514763403e6 2.0014069532671561e6 0.0
0.0 0.0 0.0

-521982.07591955224 1.0416009687652977e7 0.0
1.0416009687652977e7 -998607.826923445 0.0
0.0 0.0 0.0

-169842.62598211184 3.675072551258129e6 0.0
3.675072551258129e6 -1.8836625801003536e6 0.0
0.0 0.0 0.0

-1.537283374079913e6 1.2775272628927037e7 0.0
1.2775272628927037e7 681430.6019655934 0.0
0.0 0.0 0.0

-778310.7670710251 6.513709544522688e6 0.0
6.513709544522688e6 -43496.75127484411 0.0
0.0 0.0 0.0

219794.084998947 9.670500136287771e6 0.0
9.670500136287771e6 -1.8653113461824816e6 0.0
0.0 0.0 0.0

-2.662126199909876e6 4.3114769594376385e6 0.0
4.3114769594376385e6 954785.8139174607 0.0
0.0 0.0 0.0

-1.6805238024955483e6 3.498471545584713e6 0.0
3.498471545584713e6 408933.2530139594 0.0
0.0 0.0 0.0

1.7540682134010124e6 1.388324224744812e6 0.0
1.388324224744812e6 -2.259715409137025e6 0.0
0.0 0.0 0.0

-3.00130510430656e6 4.757343073590407e6 0.0
4.757343073590407e6 3.3970048861237206e6 0.0
0.0 0.0 0.0

-2.0971882571736393e6 6.7505675151344575e6 0.0
6.7505675151344575e6 230765.1423976001 0.0
0.0 0.0 0.0

-1.3277776426310954e6 5.811152442312759e6 0.0
5.811152442312759e6 1.5604523509975763e6 0.0
0.0 0.0 0.0

-2.262675025061242e6 5.201391954595633e6 0.0
5.201391954595633e6 574840.5020087288 0.0
0.0 0.0 0.0

-2.609389558560092e6 4.266492131869076e6 0.0
4.266492131869076e6 1.0422206962711599e6 0.0
0.0 0.0 0.0

-475902.4355507116 5.49846694916181e6 0.0
5.49846694916181e6 -2.130794319984864e6 0.0
0.0 0.0 0.0

-1.1903446796296248e6 5.451992026837696e6 0.0
5.451992026837696e6 2.2176442576462016e6 0.0
0.0 0.0 0.0

-2.65565287319203e6 4.557950514660955e6 0.0
4.557950514660955e6 1.0743338900159257e6 0.0
0.0 0.0 0.0

-1.4821340726745706e6 3.020127587769889e6 0.0
3.020127587769889e6 -106984.45846155909 0.0
0.0 0.0 0.0

-1.440506939111664e7 1.2760921931184945e6 0.0
1.2760921931184945e6 9.727664899402399e6 0.0
0.0 0.0 0.0

-3.229096706460415e6 -540224.1108108342 0.0
-540224.1108108342 5.426125541726952e6 0.0
0.0 0.0 0.0

-2.314850953250425e6 5.306758572649601e6 0.0
5.306758572649601e6 482634.16894356394 0.0
0.0 0.0 0.0

-3.541044151219916e6 4.989927172044851e6 0.0
4.989927172044851e6 816799.8008209227 0.0
0.0 0.0 0.0

-350705.9690398894 4.338533246533366e6 0.0
4.338533246533366e6 -2.14876815037598e6 0.0
0.0 0.0 0.0

-4.792618256104787e6 4.665228652645346e6 0.0
4.665228652645346e6 1.5725876807846422e6 0.0
0.0 0.0 0.0

-5.681324534642765e6 4.568120549929313e6 0.0
4.568120549929313e6 2.3369663171755564e6 0.0
0.0 0.0 0.0

-6.731086818066813e6 4.456882809634727e6 0.0
4.456882809634727e6 2.9322446611441034e6 0.0
0.0 0.0 0.0

-3.2293561460009203e6 5.329122142356155e6 0.0
5.329122142356155e6 886625.69823122 0.0
0.0 0.0 0.0

-1.3894152903378988e6 3.3008231853091316e6 0.0
3.3008231853091316e6 753298.5686522501 0.0
0.0 0.0 0.0

-103888.83873640106 1.9346465675336812e6 0.0
1.9346465675336812e6 -2.8351074556693085e6 0.0
0.0 0.0 0.0

-1.2642292938455057e6 5.73757252241581e6 0.0
5.73757252241581e6 508206.3415087071 0.0
0.0 0.0 0.0

-3.750810857227603e6 7.399029256310996e6 0.0
7.399029256310996e6 873887.1857170814 0.0
0.0 0.0 0.0

-925519.964750859 5.586963435677181e6 0.0
5.586963435677181e6 -1.4729451425105594e6 0.0
0.0 0.0 0.0

-306535.57531140797 123164.64041655291 0.0
123164.64041655291 624674.0505348449 0.0
0.0 0.0 0.0

-577901.3927639807 6.53626783354058e6 0.0
6.53626783354058e6 -449948.85656738793 0.0
0.0 0.0 0.0

-1.1262799925316584e6 6.512411064965829e6 0.0
6.512411064965829e6 -1.031941691665228e6 0.0
0.0 0.0 0.0

-834879.5793651962 5.230914890781713e6 0.0
5.230914890781713e6 -1.3079064629255475e6 0.0
0.0 0.0 0.0

-377030.4064972433 5.5034696121526705e6 0.0
5.5034696121526705e6 -2.228206329741932e6 0.0
0.0 0.0 0.0

841442.425951725 773253.5085278581 0.0
773253.5085278581 -1.5161146952530288e6 0.0
0.0 0.0 0.0

-395025.9355436308 4.971590548770386e6 0.0
4.971590548770386e6 -1.6913491836481357e6 0.0
0.0 0.0 0.0

-388159.1716268265 5.58874715223694e6 0.0
5.58874715223694e6 -908137.3849219951 0.0
0.0 0.0 0.0

2.278030122009946e6 7.519130471043392e6 0.0
7.519130471043392e6 -1.7760842900524493e6 0.0
0.0 0.0 0.0

-6.699775002127012e6 4.0096797665278194e6 0.0
4.0096797665278194e6 3.4870751167391064e6 0.0
0.0 0.0 0.0

-1.698791369852723e6 3.522634013431159e6 0.0
3.522634013431159e6 516450.8421810996 0.0
0.0 0.0 0.0

-495743.4852086229 5.673432194230338e6 0.0
5.673432194230338e6 -2.588115732150536e6 0.0
0.0 0.0 0.0

-297681.48525009886 4.233961771785498e6 0.0
4.233961771785498e6 -2.1604823588424176e6 0.0
0.0 0.0 0.0

1.0741709189028475e6 299086.59591761517 0.0
299086.59591761517 -904833.2682958941 0.0
0.0 0.0 0.0

-7.544225896486681e6 3.1969427096474906e6 0.0
3.1969427096474906e6 6.138200102512363e6 0.0
0.0 0.0 0.0

-3.5128782378446986e6 6.269120571100238e6 0.0
6.269120571100238e6 -22679.089923338266 0.0
0.0 0.0 0.0

-332554.95080530376 5.217052200620147e6 0.0
5.217052200620147e6 -1.9564415568777665e6 0.0
0.0 0.0 0.0

-3.7011922704630983e6 5.793221953155104e6 0.0
5.793221953155104e6 1.0702517262470655e6 0.0
0.0 0.0 0.0

-23511.93938231282 5.432783425942059e6 0.0
5.432783425942059e6 -3.3571026758377412e6 0.0
0.0 0.0 0.0

-765024.5850249375 9.321583349009674e6 0.0
9.321583349009674e6 -1.1682443676872267e6 0.0
0.0 0.0 0.0

-406835.52506626805 5.190389502681667e6 0.0
5.190389502681667e6 -596882.8027178318 0.0
0.0 0.0 0.0

-820826.6985796894 6.265824589809401e6 0.0
6.265824589809401e6 -1.5479611172261087e6 0.0
0.0 0.0 0.0

-2.571819808189872e6 3.643742868068097e6 0.0
3.643742868068097e6 717624.8584178156 0.0
0.0 0.0 0.0

-1.4356130562745426e6 7.505272129842563e6 0.0
7.505272129842563e6 -1.4138063502858395e6 0.0
0.0 0.0 0.0

-873169.9989466548 6.1084451542819785e6 0.0
6.1084451542819785e6 -1.5991715099528886e6 0.0
0.0 0.0 0.0

-434263.75447036617 5.035514488380564e6 0.0
5.035514488380564e6 -2.1032386292790496e6 0.0
0.0 0.0 0.0

-3.0392023901177896e6 5.096854435620453e6 0.0
5.096854435620453e6 698920.8734654419 0.0
0.0 0.0 0.0

-542325.6910569001 5.638967757949645e6 0.0
5.638967757949645e6 -2.5610872097930913e6 0.0
0.0 0.0 0.0

-2.195061179556791e6 1.1780988928714655e7 0.0
1.1780988928714655e7 999652.1339762536 0.0
0.0 0.0 0.0

-1.2360685549702053e6 9.911698112713872e6 0.0
9.911698112713872e6 -655510.1479904448 0.0
0.0 0.0 0.0

-3.9979371015519137e6 4.526580503676868e6 0.0
4.526580503676868e6 1.208532842082119e6 0.0
0.0 0.0 0.0

-2.4923345005451962e6 4.597766168009126e6 0.0
4.597766168009126e6 962178.0817277267 0.0
0.0 0.0 0.0

-103688.58654142288 5.221273904941478e6 0.0
5.221273904941478e6 -3.7235017215123023e6 0.0
0.0 0.0 0.0

-1.9805803147037528e6 5.253147955658477e6 0.0
5.253147955658477e6 839482.2632987506 0.0
0.0 0.0 0.0

78217.6487823755 4.355216458915644e6 0.0
4.355216458915644e6 -3.295500337709691e6 0.0
0.0 0.0 0.0

-1.836291044950492e6 6.355377897242767e6 0.0
6.355377897242767e6 -662584.6552133647 0.0
0.0 0.0 0.0

-1.5643741760417048e6 6.4099556354514025e6 0.0
6.4099556354514025e6 -693842.6539030651 0.0
0.0 0.0 0.0

-366152.20751925086 5.302655003268824e6 0.0
5.302655003268824e6 -1.944171364598871e6 0.0
0.0 0.0 0.0

-1.383690226395696e6 6.052551069684256e6 0.0
6.052551069684256e6 163591.34638074832 0.0
0.0 0.0 0.0

-3.0873229784068232e6 4.572619125719472e6 0.0
4.572619125719472e6 846797.8014159193 0.0
0.0 0.0 0.0

-2.1727840844589896e6 3.8807077051599417e6 0.0
3.8807077051599417e6 1.048929601545448e6 0.0
0.0 0.0 0.0

720068.2957475665 148718.9403234852 0.0
148718.9403234852 -959045.6632637882 0.0
0.0 0.0 0.0

-398550.39010028815 4.0561513983797883e6 0.0
4.0561513983797883e6 -2.4289276660974193e6 0.0
0.0 0.0 0.0

-732587.4880888909 5.597671318706217e6 0.0
5.597671318706217e6 -1.9067207408022534e6 0.0
0.0 0.0 0.0

-4.425734045095871e6 6.434112159510052e6 0.0
6.434112159510052e6 1.8875639716899095e6 0.0
0.0 0.0 0.0

-2.5056643357451973e6 5.628063288351674e6 0.0
5.628063288351674e6 1.1918801679304524e6 0.0
0.0 0.0 0.0

-360413.8401217243 4.34224525152434e6 0.0
4.34224525152434e6 -2.0639164417388805e6 0.0
0.0 0.0 0.0

-6.723553784934495e6 4.271731160715249e6 0.0
4.271731160715249e6 7.118888680511348e6 0.0
0.0 0.0 0.0

314077.25928319583 1.9907672120965284e6 0.0
1.9907672120965284e6 -722382.3711594171 0.0
0.0 0.0 0.0

-892149.412024162 4.51812449876782e6 0.0
4.51812449876782e6 606904.0236546614 0.0
0.0 0.0 0.0

-4.288955580234408e6 4.5721876671138e6 0.0
4.5721876671138e6 845200.0677828786 0.0
0.0 0.0 0.0

-104897.98700389513 5.720434759947376e6 0.0
5.720434759947376e6 -869127.6295107713 0.0
0.0 0.0 0.0

-394792.5154319727 6.968708737020552e6 0.0
6.968708737020552e6 -507419.1089691743 0.0
0.0 0.0 0.0

-3.0835376082499386e6 5.010363473173138e6 0.0
5.010363473173138e6 835201.6179068834 0.0
0.0 0.0 0.0

-1.5905732805736093e6 5.7129289156622365e6 0.0
5.7129289156622365e6 512640.94229472196 0.0
0.0 0.0 0.0

-2.6638474458671734e6 4.921424665545729e6 0.0
4.921424665545729e6 3.285509697831293e6 0.0
0.0 0.0 0.0

-3.0209170953759714e6 6.47454538951587e6 0.0
6.47454538951587e6 -164939.49624903745 0.0
0.0 0.0 0.0

-2.5704544509856924e6 5.4575880620254185e6 0.0
5.4575880620254185e6 355559.076292436 0.0
0.0 0.0 0.0

-3.5766767266713213e6 -15857.054929232567 0.0
-15857.054929232567 3.2418364656470967e6 0.0
0.0 0.0 0.0

-2.5457178002034236e7 4.2583153761680955e6 0.0
4.2583153761680955e6 1.751046818479994e7 0.0
0.0 0.0 0.0

468163.3194480279 6.672640568131984e6 0.0
6.672640568131984e6 -1.4030843068740456e6 0.0
0.0 0.0 0.0

-267353.4134130031 4.7990071266401615e6 0.0
4.7990071266401615e6 -2.3152150054718056e6 0.0
0.0 0.0 0.0

-2.5506430599354072e6 4.1605599818091006e6 0.0
4.1605599818091006e6 925253.4039496131 0.0
0.0 0.0 0.0

-1.228176618451849e6 6.797049086072439e6 0.0
6.797049086072439e6 -905035.1225628247 0.0
0.0 0.0 0.0

4.1877391660989565e6 6.978748246521265e6 0.0
6.978748246521265e6 1.1085116516803773e6 0.0
0.0 0.0 0.0

601135.3053187362 1.7664749563179987e6 0.0
1.7664749563179987e6 -1.1307956275745446e6 0.0
0.0 0.0 0.0

1.0924692570447293e6 5.041492317392015e6 0.0
5.041492317392015e6 -1.9326565741007533e6 0.0
0.0 0.0 0.0

-1.808502241098201e6 7.452801370094054e6 0.0
7.452801370094054e6 -592250.5551175363 0.0
0.0 0.0 0.0

-253279.41462134657 4.973472553263713e6 0.0
4.973472553263713e6 -1.6883767512684267e6 0.0
0.0 0.0 0.0

-489900.24821170286 587057.7253580907 0.0
587057.7253580907 985884.8329787984 0.0
0.0 0.0 0.0

-950355.8296767328 1.0112514228621194e7 0.0
1.0112514228621194e7 -469483.27653512056 0.0
0.0 0.0 0.0

-6.884473446001242e6 3.864124731453555e6 0.0
3.864124731453555e6 3.215863458142542e6 0.0
0.0 0.0 0.0

651161.8128389245 8.021844124044968e6 0.0
8.021844124044968e6 -1.924856402084963e6 0.0
0.0 0.0 0.0

624170.5777654143 574251.6232460245 0.0
574251.6232460245 -1.0472368077353509e6 0.0
0.0 0.0 0.0

-7.944672018933766e6 -158301.39950515542 0.0
-158301.39950515542 6.487946492446724e6 0.0
0.0 0.0 0.0

-314489.93815724086 5.1950414332033405e6 0.0
5.1950414332033405e6 -1.7971615975085134e6 0.0
0.0 0.0 0.0

-7.384926871233183e6 3.559847115018657e6 0.0
3.559847115018657e6 3.7747789222242665e6 0.0
0.0 0.0 0.0

-1.7503056008254685e6 3.5375839222823926e6 0.0
3.5375839222823926e6 1.2205910720796026e6 0.0
0.0 0.0 0.0

-894481.3701997634 6.503145273419946e6 0.0
6.503145273419946e6 -1.2212985980756418e6 0.0
0.0 0.0 0.0

-387093.6971046272 5.588428381513535e6 0.0
5.588428381513535e6 -2.346071437552925e6 0.0
0.0 0.0 0.0

-300718.5808605455 5.167119287451785e6 0.0
5.167119287451785e6 -1.9783382090605597e6 0.0
0.0 0.0 0.0

-592501.6232896091 8.743723757121418e6 0.0
8.743723757121418e6 -964742.6315832685 0.0
0.0 0.0 0.0

-8.009793069077241e6 1.8863227136175092e7 0.0
1.8863227136175092e7 -3.5471334983542087e6 0.0
0.0 0.0 0.0

737081.4042367798 738393.6291757228 0.0
738393.6291757228 -1.3555577161826147e6 0.0
0.0 0.0 0.0

-5.517193193009828e6 7.453477572424662e6 0.0
7.453477572424662e6 1.9323414308267934e6 0.0
0.0 0.0 0.0

-3.0908362041307054e6 7.565354196724076e6 0.0
7.565354196724076e6 1.1299195803495771e6 0.0
0.0 0.0 0.0

-209653.11220885807 801869.8172882348 0.0
801869.8172882348 104193.00654917341 0.0
0.0 0.0 0.0

-175398.1204397193 1.7850121611740852e6 0.0
1.7850121611740852e6 -2.1957315262408135e6 0.0
0.0 0.0 0.0

-2.75983618355415e6 4.935499424500835e6 0.0
4.935499424500835e6 796304.3257700707 0.0
0.0 0.0 0.0

-1.4931231706812119e6 4.257496965444064e6 0.0
4.257496965444064e6 1.2882121536477976e6 0.0
0.0 0.0 0.0

-1.0259140544495723e6 149512.17943500078 0.0
149512.17943500078 1.5380590455863504e6 0.0
0.0 0.0 0.0

-1.3684003854284647e6 3.173553547982369e6 0.0
3.173553547982369e6 582226.7541529826 0.0
0.0 0.0 0.0

-1.6560636512716096e6 4.492206685892334e6 0.0
4.492206685892334e6 1.859454390967998e6 0.0
0.0 0.0 0.0

-1.198428144608559e6 7.205008412622473e6 0.0
7.205008412622473e6 -1.2022232749565756e6 0.0
0.0 0.0 0.0

-413742.8149554132 5.437703645454441e6 0.0
5.437703645454441e6 -2.2671798201610423e6 0.0
0.0 0.0 0.0

-3.065512209823755e6 7.125457143917792e6 0.0
7.125457143917792e6 606594.0680509601 0.0
0.0 0.0 0.0

286537.2190124043 1.6499798547342115e6 0.0
1.6499798547342115e6 -641382.5144826479 0.0
0.0 0.0 0.0

-2.0765903072162224e6 3.268386974014245e6 0.0
3.268386974014245e6 519990.14455592236 0.0
0.0 0.0 0.0

-1.8060366378515149e6 3.8123312314678407e6 0.0
3.8123312314678407e6 2.7571943236839315e6 0.0
0.0 0.0 0.0

-630617.1465747517 8.298391395884218e6 0.0
8.298391395884218e6 -1.5620260295548737e6 0.0
0.0 0.0 0.0

-1.6223724004976458e6 8.417785495709855e6 0.0
8.417785495709855e6 -453263.9228334326 0.0
0.0 0.0 0.0

-6.222654707185012e6 7.213356264152464e6 0.0
7.213356264152464e6 3.10962790896837e6 0.0
0.0 0.0 0.0

-409556.1394173216 4.295654146218343e6 0.0
4.295654146218343e6 -2.2230918267907714e6 0.0
0.0 0.0 0.0

-1.2947810116098713e7 3.3327662658664514e6 0.0
3.3327662658664514e6 2.977128186830179e6 0.0
0.0 0.0 0.0

2.0151496116684708e6 1.1975532863484847e6 0.0
1.1975532863484847e6 -2.2786285731815365e6 0.0
0.0 0.0 0.0

1.8412238879294924e6 1.3094932920077047e6 0.0
1.3094932920077047e6 -2.6256294812425044e6 0.0
0.0 0.0 0.0

-431159.8002035751 7.093760968004605e6 0.0
7.093760968004605e6 -136241.8608795127 0.0
0.0 0.0 0.0

-2.3373448497159355e6 5.983435099215424e6 0.0
5.983435099215424e6 4.1664503153538043e6 0.0
0.0 0.0 0.0

-485211.7822724996 6.523798864773576e6 0.0
6.523798864773576e6 -480814.419170685 0.0
0.0 0.0 0.0

-903249.7271202577 2.802914157047869e6 0.0
2.802914157047869e6 300124.62110805756 0.0
0.0 0.0 0.0

-241069.67107557194 1.9185128500632897e6 0.0
1.9185128500632897e6 -97525.54604574991 0.0
0.0 0.0 0.0

-1.1601987448288216e6 5.995319714171128e6 0.0
5.995319714171128e6 -127466.71871141973 0.0
0.0 0.0 0.0

-3.6165690339383166e6 5.235952028406331e6 0.0
5.235952028406331e6 1.3742109215474797e6 0.0
0.0 0.0 0.0

-335473.0121124642 4.71423146268897e6 0.0
4.71423146268897e6 -2.3356745813828595e6 0.0
0.0 0.0 0.0

-1.9645740820878926e6 4.492411252931044e6 0.0
4.492411252931044e6 2.7335826892910823e6 0.0
0.0 0.0 0.0

1.2656680243484955e6 7.153812531143707e6 0.0
7.153812531143707e6 -2.3442122571783336e6 0.0
0.0 0.0 0.0

-8.924855211436348e6 3.2397224379820325e6 0.0
3.2397224379820325e6 4.60530249571478e6 0.0
0.0 0.0 0.0

-354782.77944190195 4.725986072591163e6 0.0
4.725986072591163e6 -386731.90647414647 0.0
0.0 0.0 0.0

-382721.99390893296 2.7611082792575513e6 0.0
2.7611082792575513e6 -752489.2782273515 0.0
0.0 0.0 0.0

-1.352541613752259e6 2.8963543718881323e6 0.0
2.8963543718881323e6 723337.840552836 0.0
0.0 0.0 0.0

-3.5110223452855744e6 5.1942108600017e6 0.0
5.1942108600017e6 1.1897191975702262e6 0.0
0.0 0.0 0.0

-4.777260241936872e6 4.25904158622714e6 0.0
4.25904158622714e6 6.660586066291864e6 0.0
0.0 0.0 0.0

-6.97454163263678e6 -2.1761303369143056e6 0.0
-2.1761303369143056e6 9.549292765522685e6 0.0
0.0 0.0 0.0

-683629.8251853167 6.612647820540558e6 0.0
6.612647820540558e6 -386778.17200165754 0.0
0.0 0.0 0.0

-606460.4822829096 5.627587336112911e6 0.0
5.627587336112911e6 -2.2986393548585344e6 0.0
0.0 0.0 0.0

-2.1815263618416428e6 4.932962806268225e6 0.0
4.932962806268225e6 2.865343813197776e6 0.0
0.0 0.0 0.0

-1.338832457093353e6 5.31040511790319e6 0.0
5.31040511790319e6 1.8091108308008579e6 0.0
0.0 0.0 0.0

-1.1024753420370962e6 7.07803170565093e6 0.0
7.07803170565093e6 -1.2981998454571706e6 0.0
0.0 0.0 0.0

-6.726952921742933e6 6.0413604160596095e6 0.0
6.0413604160596095e6 1.9996089207808558e7 0.0
0.0 0.0 0.0

-1.049862997915624e6 1.002591804672936e7 0.0
1.002591804672936e7 -815519.8422111237 0.0
0.0 0.0 0.0

-1.1265673922936686e6 6.21056732746964e6 0.0
6.21056732746964e6 -1.1787829391744845e6 0.0
0.0 0.0 0.0

-724584.4607694105 3.1282048283202485e6 0.0
3.1282048283202485e6 -1.0998057024088188e6 0.0
0.0 0.0 0.0

-67069.42021968891 2.336318643055711e6 0.0
2.336318643055711e6 -2.962995803204937e6 0.0
0.0 0.0 0.0

-6.424741505593001e6 6.7151761916525e6 0.0
6.7151761916525e6 3.030195036473762e6 0.0
0.0 0.0 0.0

-1.369401529899058e6 3.170522530286857e6 0.0
3.170522530286857e6 936153.1190491451 0.0
0.0 0.0 0.0

-342348.11066122295 7.106246513307576e6 0.0
7.106246513307576e6 -391474.9162523467 0.0
0.0 0.0 0.0

-2.335827096119704e6 5.319331686188437e6 0.0
5.319331686188437e6 365915.83305689925 0.0
0.0 0.0 0.0

-2.3307922698445683e6 3.3638915840222733e6 0.0
3.3638915840222733e6 535024.6464185672 0.0
0.0 0.0 0.0

-1.5830303390183877e6 3.2132068828523364e6 0.0
3.2132068828523364e6 843073.4496929771 0.0
0.0 0.0 0.0

-956987.1379227687 6.332235534766189e6 0.0
6.332235534766189e6 -1.4904570642714188e6 0.0
0.0 0.0 0.0

-7.175569206392816e6 3.7417535420793765e6 0.0
3.7417535420793765e6 2.2557572564600627e6 0.0
0.0 0.0 0.0

-31655.56013005419 4.906614141956875e6 0.0
4.906614141956875e6 1.212962985641419e6 0.0
0.0 0.0 0.0

553998.66119988 1.3582305025006984e6 0.0
1.3582305025006984e6 -1.6288854926140467e6 0.0
0.0 0.0 0.0

-3.3173254369267225e6 5.009955617487048e6 0.0
5.009955617487048e6 840161.9841998564 0.0
0.0 0.0 0.0

-9.072831119049069e6 -876787.3709823643 0.0
-876787.3709823643 4.231439170045832e6 0.0
0.0 0.0 0.0

-2.4116684979029247e6 5.590338303029449e6 0.0
5.590338303029449e6 1.4909257454165663e6 0.0
0.0 0.0 0.0

-8.644748594984697e6 7.946454223998953e6 0.0
7.946454223998953e6 383079.1016288698 0.0
0.0 0.0 0.0

-2.4223421915808553e6 6.585591148552021e6 0.0
6.585591148552021e6 429187.47498707427 0.0
0.0 0.0 0.0

-2.0301079994848548e6 3.6293011587373563e6 0.0
3.6293011587373563e6 1.0357940752971232e6 0.0
0.0 0.0 0.0

-839990.4267254047 2.624507220392339e6 0.0
2.624507220392339e6 321933.3228494446 0.0
0.0 0.0 0.0

-1.6180739736442901e6 3.3840077741738716e6 0.0
3.3840077741738716e6 317784.10764089506 0.0
0.0 0.0 0.0

-2.103730414393775e6 5.161841737712105e6 0.0
5.161841737712105e6 653831.6652018735 0.0
0.0 0.0 0.0

-410315.6411132498 181044.15940330343 0.0
181044.15940330343 465415.8029052259 0.0
0.0 0.0 0.0

-332459.2079665756 5.418840391811218e6 0.0
5.418840391811218e6 -2.0736941473369014e6 0.0
0.0 0.0 0.0

-429266.99550068716 8.23979312942648e6 0.0
8.23979312942648e6 -2.100424114385103e6 0.0
0.0 0.0 0.0

-1.0736506366996053e6 6.431991731582791e6 0.0
6.431991731582791e6 -1.1794418212042353e6 0.0
0.0 0.0 0.0

411174.87389095954 618400.8573875207 0.0
618400.8573875207 -938729.2092766936 0.0
0.0 0.0 0.0

-177862.73027382564 5.321802614125359e6 0.0
5.321802614125359e6 -1.8745723508323797e6 0.0
0.0 0.0 0.0

-2.3391303777087205e6 5.249264578869869e6 0.0
5.249264578869869e6 430717.89313988923 0.0
0.0 0.0 0.0

-736720.292337284 6.688178447599398e6 0.0
6.688178447599398e6 -22260.60251545682 0.0
0.0 0.0 0.0

-1.601415253589131e6 7.248902610545013e6 0.0
7.248902610545013e6 -555486.4034100156 0.0
0.0 0.0 0.0

-623234.792752739 6.548741600360131e6 0.0
6.548741600360131e6 -535011.5123133115 0.0
0.0 0.0 0.0

-5.242607038766754e6 7.131541750613284e6 0.0
7.131541750613284e6 1.8011467793548447e6 0.0
0.0 0.0 0.0

-1.0927685605731162e6 6.820435625961849e6 0.0
6.820435625961849e6 -861884.7635543668 0.0
0.0 0.0 0.0

4.457239215366301e6 1.0633593070642518e7 0.0
1.0633593070642518e7 -1.0886564852167885e6 0.0
0.0 0.0 0.0

-802436.4153885085 7.1759398536423175e6 0.0
7.1759398536423175e6 -1.075749653893906e6 0.0
0.0 0.0 0.0

-337426.58157477045 4.4139821596395075e6 0.0
4.4139821596395075e6 -1.8531039585697132e6 0.0
0.0 0.0 0.0

-1.3137431635511755e6 7.861135020779028e6 0.0
7.861135020779028e6 -665161.82769943 0.0
0.0 0.0 0.0

-1.0049325940117106e7 750236.3921903606 0.0
750236.3921903606 7.846174115612911e6 0.0
0.0 0.0 0.0

-2.3398318920577657e6 5.213414537016931e6 0.0
5.213414537016931e6 477957.0142413953 0.0
0.0 0.0 0.0

1.1064142253843585e6 8.434303949650502e6 0.0
8.434303949650502e6 -3.2502390116165476e6 0.0
0.0 0.0 0.0

-465227.1304612915 5.412112105305243e6 0.0
5.412112105305243e6 -2.5505570932215382e6 0.0
0.0 0.0 0.0

-985365.4314212191 6.995249675693339e6 0.0
6.995249675693339e6 1.0366439133502019e6 0.0
0.0 0.0 0.0

-313087.92354629986 4.728952517382094e6 0.0
4.728952517382094e6 -1.4333616706607235e6 0.0
0.0 0.0 0.0

-1.244717656398381e6 8.194411638197733e6 0.0
8.194411638197733e6 -469467.0119685832 0.0
0.0 0.0 0.0

83763.20786667243 3.826375232867628e6 0.0
3.826375232867628e6 -3.3478412813781113e6 0.0
0.0 0.0 0.0

-1.613244355372518e6 8.404854969127296e6 0.0
8.404854969127296e6 -347862.1443704023 0.0
0.0 0.0 0.0

-1.1415164994282604e6 9.88561784994585e6 0.0
9.88561784994585e6 -336142.51069971296 0.0
0.0 0.0 0.0

-2.2480929425388495e6 3.3345510538873523e6 0.0
3.3345510538873523e6 515188.1043917063 0.0
0.0 0.0 0.0

-3.998850465544595e6 4.596953938026426e6 0.0
4.596953938026426e6 1.0720728078412756e6 0.0
0.0 0.0 0.0

-1.5104759893140355e6 4.932958884412503e6 0.0
4.932958884412503e6 1.3361297031403654e6 0.0
0.0 0.0 0.0

-441616.5533600518 5.059710974319749e6 0.0
5.059710974319749e6 -1.0448410814564879e6 0.0
0.0 0.0 0.0

-5.45755175032182e6 4.987899519522403e6 0.0
4.987899519522403e6 -122113.61456987332 0.0
0.0 0.0 0.0

1.2159484666599482e6 5.5770332048473405e6 0.0
5.5770332048473405e6 -74627.15369167353 0.0
0.0 0.0 0.0

-1.3737531884366607e6 2.914460916068828e6 0.0
2.914460916068828e6 -246315.09332458867 0.0
0.0 0.0 0.0

-3.1219439359639953e6 4.879506094122207e6 0.0
4.879506094122207e6 794275.3232437109 0.0
0.0 0.0 0.0

-2.8406924543886585e6 6.381131958820337e6 0.0
6.381131958820337e6 992116.8479976066 0.0
0.0 0.0 0.0

-1.4327971823386473e6 9.40215207728406e6 0.0
9.40215207728406e6 -1.6056323214580046e6 0.0
0.0 0.0 0.0

-175692.24485857505 1.5500254914469963e6 0.0
1.5500254914469963e6 -2.974523012690084e6 0.0
0.0 0.0 0.0

-427072.8411949661 5.183592953613187e6 0.0
5.183592953613187e6 -2.008801082689668e6 0.0
0.0 0.0 0.0

4.051094326458283e6 6.35707121633455e6 0.0
6.35707121633455e6 -641024.3996523204 0.0
0.0 0.0 0.0

-1.2310144183391617e6 5.074370182194487e6 0.0
5.074370182194487e6 2.220201353217466e6 0.0
0.0 0.0 0.0

-2.870787862455266e6 5.090274313059909e6 0.0
5.090274313059909e6 635117.1592814878 0.0
0.0 0.0 0.0

-770499.3957496965 425978.13221359096 0.0
425978.13221359096 765120.3576992758 0.0
0.0 0.0 0.0

-4.665373453314648e6 4.84278699615437e6 0.0
4.84278699615437e6 1.6716726074749893e6 0.0
0.0 0.0 0.0

-9.168700849730842e6 624499.6482944605 0.0
624499.6482944605 4.417480128308231e6 0.0
0.0 0.0 0.0

-1.159678629587744e6 6.447335548674036e6 0.0
6.447335548674036e6 -1.0600462999505256e6 0.0
0.0 0.0 0.0

-300140.40176288737 7.154570146188509e6 0.0
7.154570146188509e6 -312182.7310015418 0.0
0.0 0.0 0.0

-169304.94639089756 4.923560318402548e6 0.0
4.923560318402548e6 -1.5720391745840737e6 0.0
0.0 0.0 0.0

-2.438052396059211e6 4.008710001518905e6 0.0
4.008710001518905e6 974722.2564761713 0.0
0.0 0.0 0.0

-909283.8720697211 9.404426839221101e6 0.0
9.404426839221101e6 -1.5591033237224158e6 0.0
0.0 0.0 0.0

-906702.2886039346 6.259401382711735e6 0.0
6.259401382711735e6 -1.3592174404435682e6 0.0
0.0 0.0 0.0

-367789.763112593 1.745353582377231e6 0.0
1.745353582377231e6 -1.9054780942540832e6 0.0
0.0 0.0 0.0

-3.0431990167494374e6 4.82198479186805e6 0.0
4.82198479186805e6 808691.9780144198 0.0
0.0 0.0 0.0

-1.3210197437813075e6 6.176393009364666e6 0.0
6.176393009364666e6 -1.0284303202263232e6 0.0
0.0 0.0 0.0

1.8324083448586236e6 4.67317485336522e6 0.0
4.67317485336522e6 1.714378021777959e6 0.0
0.0 0.0 0.0

-182649.1186411765 1.3950366718484059e6 0.0
1.3950366718484059e6 -2.280388589545716e6 0.0
0.0 0.0 0.0

-447692.23739832593 7.070211315671003e6 0.0
7.070211315671003e6 -176214.04297331837 0.0
0.0 0.0 0.0

45036.92752369121 2.5935309754460896e6 0.0
2.5935309754460896e6 -2.528841791914773e6 0.0
0.0 0.0 0.0

-2.7802011927773203e6 7.242201350465199e6 0.0
7.242201350465199e6 790145.4988542804 0.0
0.0 0.0 0.0

-428495.7499475436 6.605540099887087e6 0.0
6.605540099887087e6 -464113.2889464767 0.0
0.0 0.0 0.0

-746528.4177466272 1.8536941705564174e6 0.0
1.8536941705564174e6 1.47655228205654e6 0.0
0.0 0.0 0.0

216553.61352151743 2.5263234089370742e6 0.0
2.5263234089370742e6 -799327.6109287248 0.0
0.0 0.0 0.0

-1.4364385562017525e6 1.0038821532830052e7 0.0
1.0038821532830052e7 -590419.6452217262 0.0
0.0 0.0 0.0

-7.083316534178652e6 -3.9673389202494235e6 0.0
-3.9673389202494235e6 6.765748387905456e6 0.0
0.0 0.0 0.0

-959046.9913029028 5.640148921587542e6 0.0
5.640148921587542e6 -1.409092334590927e6 0.0
0.0 0.0 0.0

-2.5665161975631546e6 3.0215883343454706e6 0.0
3.0215883343454706e6 3.2163842154103974e6 0.0
0.0 0.0 0.0

-1.9169917510781912e6 3.654556257489426e6 0.0
3.654556257489426e6 812275.1310677836 0.0
0.0 0.0 0.0

-1.2526047396044556e7 -3.6647829824154763e6 0.0
-3.6647829824154763e6 6.43557687631037e6 0.0
0.0 0.0 0.0

-433260.0911161625 4.513860110127428e6 0.0
4.513860110127428e6 -2.0751101733419008e6 0.0
0.0 0.0 0.0

-1.3579542975351568e6 7.5837127947848765e6 0.0
7.5837127947848765e6 -449780.9438358563 0.0
0.0 0.0 0.0

145871.67065204878 2.6460602154510934e6 0.0
2.6460602154510934e6 -1.1523437586517504e6 0.0
0.0 0.0 0.0

-3.529423338743023e6 6.977814802489193e6 0.0
6.977814802489193e6 812810.9532092281 0.0
0.0 0.0 0.0

-2.700169991101128e6 9.396838693033315e6 0.0
9.396838693033315e6 850737.5329568292 0.0
0.0 0.0 0.0

-4.0316129149741656e6 4.772209316388683e6 0.0
4.772209316388683e6 1.458770292311574e6 0.0
0.0 0.0 0.0

-2.417099495962008e6 3.6333978364982684e6 0.0
3.6333978364982684e6 753969.719638337 0.0
0.0 0.0 0.0

-1.6817183111454085e6 3.4396655627316097e6 0.0
3.4396655627316097e6 1.779263286880364e6 0.0
0.0 0.0 0.0

-1.552542149880593e6 5.645734589914107e6 0.0
5.645734589914107e6 473728.6382458225 0.0
0.0 0.0 0.0

-4.725930514529247e6 4.84089977995048e6 0.0
4.84089977995048e6 1.6367598025313367e6 0.0
0.0 0.0 0.0

-479745.50032945623 9.800523170178983e6 0.0
9.800523170178983e6 -1.9245214977524732e6 0.0
0.0 0.0 0.0

-4.340752206379891e6 4.847291555191211e6 0.0
4.847291555191211e6 1.4853705667481632e6 0.0
0.0 0.0 0.0

-3.0791877809708016e6 5.464637739964516e6 0.0
5.464637739964516e6 4.029573117725635e6 0.0
0.0 0.0 0.0

-1.2943959872454463e6 3.0092391930531156e6 0.0
3.0092391930531156e6 879341.5686515148 0.0
0.0 0.0 0.0

-318000.44762275903 2.9990718954156595e6 0.0
2.9990718954156595e6 -2.8876003563500913e6 0.0
0.0 0.0 0.0

-2.526665535476261e6 5.293732419612704e6 0.0
5.293732419612704e6 455266.2610627075 0.0
0.0 0.0 0.0

-2.7578348531586532e6 5.220872372823309e6 0.0
5.220872372823309e6 404489.0812100597 0.0
0.0 0.0 0.0

-2.4454436292296406e6 6.241588813440892e6 0.0
6.241588813440892e6 321939.0569380983 0.0
0.0 0.0 0.0

-1.7049150542418864e7 8.107549633857877e6 0.0
8.107549633857877e6 2.849235119092987e6 0.0
0.0 0.0 0.0

-1.051274957046439e6 6.502319424520606e6 0.0
6.502319424520606e6 -972713.5887617846 0.0
0.0 0.0 0.0

-3.3775463485336206e6 4.952440737520122e6 0.0
4.952440737520122e6 1.157536521241265e6 0.0
0.0 0.0 0.0

-2.146657959043749e6 3.6667651260016775e6 0.0
3.6667651260016775e6 978436.4490877129 0.0
0.0 0.0 0.0

-1.1619643986809682e7 -549557.3842879339 0.0
-549557.3842879339 6.235133117370061e6 0.0
0.0 0.0 0.0

-419738.4763255525 6.725128251898077e6 0.0
6.725128251898077e6 -451607.2291958467 0.0
0.0 0.0 0.0

-5.59732831602584e6 3.5566698988439846e6 0.0
3.5566698988439846e6 6.773254168898931e6 0.0
0.0 0.0 0.0

16113.821966530755 624182.2026052173 0.0
624182.2026052173 -3.743651317630622e6 0.0
0.0 0.0 0.0

-6.5210482831669375e6 3.6762335148088513e6 0.0
3.6762335148088513e6 1.1613957545856806e6 0.0
0.0 0.0 0.0

-171178.88425530193 369423.64560690674 0.0
369423.64560690674 554404.7220770271 0.0
0.0 0.0 0.0

-406722.82840125705 -679423.7417053435 0.0
-679423.7417053435 1.4957806115482005e6 0.0
0.0 0.0 0.0

472563.8850881522 2.2808530648007602e6 0.0
2.2808530648007602e6 -705634.1588864633 0.0
0.0 0.0 0.0

-1.4721141076846633e6 3.0583986088975854e6 0.0
3.0583986088975854e6 1.2554374472598517e6 0.0
0.0 0.0 0.0

-5.150593126553867e6 2.6039600281003625e6 0.0
2.6039600281003625e6 5.16777956652041e6 0.0
0.0 0.0 0.0

-690066.0393648476 4.995475412114299e6 0.0
4.995475412114299e6 -1.6292103184624917e6 0.0
0.0 0.0 0.0

-8.343556657493127e6 3.400817412048896e6 0.0
3.400817412048896e6 2.8500682047338053e6 0.0
0.0 0.0 0.0

-1.335123974346974e6 3.2759046036161385e6 0.0
3.2759046036161385e6 1.0884319786505895e6 0.0
0.0 0.0 0.0

-373592.9666419518 5.525173158351621e6 0.0
5.525173158351621e6 -2.5203514433165374e6 0.0
0.0 0.0 0.0

-6.595721832880087e6 -225110.9539759814 0.0
-225110.9539759814 5.300284671282851e6 0.0
0.0 0.0 0.0

-381058.4134834948 -645490.4804687208 0.0
-645490.4804687208 1.0961783935209624e6 0.0
0.0 0.0 0.0

-1.5317862168417948e6 6.900954707651432e6 0.0
6.900954707651432e6 -770321.8768194227 0.0
0.0 0.0 0.0

-512139.71606863814 5.571702456058086e6 0.0
5.571702456058086e6 -2.472679645584882e6 0.0
0.0 0.0 0.0

-2.2358537940690415e6 6.466936355955072e6 0.0
6.466936355955072e6 797621.1510914884 0.0
0.0 0.0 0.0

-5.355131511372816e6 -234838.92590997947 0.0
-234838.92590997947 4.627523935720046e6 0.0
0.0 0.0 0.0

3.3305629193951865e6 7.189805211969811e6 0.0
7.189805211969811e6 1.5709411744038821e6 0.0
0.0 0.0 0.0

-601898.060238259 4.74575121624597e6 0.0
4.74575121624597e6 -2.1023057239035293e6 0.0
0.0 0.0 0.0

-1.0944103866813923e6 6.613896089738675e6 0.0
6.613896089738675e6 -997406.8663003852 0.0
0.0 0.0 0.0

-443689.5531288852 5.472929959964642e6 0.0
5.472929959964642e6 -2.2118013719821433e6 0.0
0.0 0.0 0.0

150325.56214645156 726238.0600119296 0.0
726238.0600119296 -2.9234397917184485e6 0.0
0.0 0.0 0.0

-2.8207052589871567e6 6.176726431868016e6 0.0
6.176726431868016e6 763750.183218711 0.0
0.0 0.0 0.0

-290705.04852017306 5.055290863108125e6 0.0
5.055290863108125e6 -2.289588947309903e6 0.0
0.0 0.0 0.0

-951211.5881520356 6.805140276308066e6 0.0
6.805140276308066e6 -838422.6569607956 0.0
0.0 0.0 0.0

-145774.030344041 4.984495739527614e6 0.0
4.984495739527614e6 -1.6954388323890627e6 0.0
0.0 0.0 0.0

-1.3428090895190223e6 2.988952918579957e6 0.0
2.988952918579957e6 -210466.86709298854 0.0
0.0 0.0 0.0

-2.43662558148376e6 3.9345165970925363e6 0.0
3.9345165970925363e6 861501.9288279624 0.0
0.0 0.0 0.0

-709670.5190565393 6.470972763805611e6 0.0
6.470972763805611e6 592575.1054256997 0.0
0.0 0.0 0.0

26034.795940711745 2.378436712307054e6 0.0
2.378436712307054e6 -2.3965619121409515e6 0.0
0.0 0.0 0.0

-2.895695178053617e6 412821.74336861173 0.0
412821.74336861173 1.5050427132144491e6 0.0
0.0 0.0 0.0

-2.1961756573894406e6 4.395437874111271e6 0.0
4.395437874111271e6 2.522612402033451e6 0.0
0.0 0.0 0.0

-685398.6398360268 4.62785434682767e6 0.0
4.62785434682767e6 -1.6586093494334486e6 0.0
0.0 0.0 0.0

5.180559358014962e6 8.050401267743139e6 0.0
8.050401267743139e6 -1.0857655040342389e6 0.0
0.0 0.0 0.0

-884939.7639526287 5.636055011198031e6 0.0
5.636055011198031e6 -1.3969407786680618e6 0.0
0.0 0.0 0.0

-2.631339111228496e6 6.488757547802106e6 0.0
6.488757547802106e6 328267.5494582418 0.0
0.0 0.0 0.0

-2.5871575752701787e6 3.5771949979473436e6 0.0
3.5771949979473436e6 560397.08840687 0.0
0.0 0.0 0.0

-9.113538249104308e6 8.136963798298448e6 0.0
8.136963798298448e6 8.532750104044065e6 0.0
0.0 0.0 0.0

-1.4351437671251479e6 2.762002123700741e6 0.0
2.762002123700741e6 1.357794374630568e6 0.0
0.0 0.0 0.0

-708823.4178011297 302704.4749827239 0.0
302704.4749827239 645249.577048637 0.0
0.0 0.0 0.0

-1.1827789192489847e6 671326.5754556786 0.0
671326.5754556786 980621.8800027889 0.0
0.0 0.0 0.0

-3.7689455114818113e6 4.587530981287358e6 0.0
4.587530981287358e6 1.118312370310842e6 0.0
0.0 0.0 0.0

-760736.315194464 6.272394743941685e6 0.0
6.272394743941685e6 -1.658875831534104e6 0.0
0.0 0.0 0.0

-2.42529008400672e6 4.570754173194796e6 0.0
4.570754173194796e6 1.0123622885778057e6 0.0
0.0 0.0 0.0

-1.1087151302178237e6 6.758933161334291e6 0.0
6.758933161334291e6 -846466.4362163054 0.0
0.0 0.0 0.0

-1.797652531997603e6 3.545368874406945e6 0.0
3.545368874406945e6 489948.2091159455 0.0
0.0 0.0 0.0

-2.3453823973680753e6 5.099402305996505e6 0.0
5.099402305996505e6 551571.7149157824 0.0
0.0 0.0 0.0

-818727.83018419 1.0111345493634382e7 0.0
1.0111345493634382e7 -1.0140552338365366e6 0.0
0.0 0.0 0.0

-2.0104253887388483e6 5.229613784461532e6 0.0
5.229613784461532e6 802213.7166762851 0.0
0.0 0.0 0.0

-2.4472347798783192e6 4.385449266079445e6 0.0
4.385449266079445e6 1.181321360855867e6 0.0
0.0 0.0 0.0

-373855.94519696117 5.473928500382826e6 0.0
5.473928500382826e6 -2.2092219534814563e6 0.0
0.0 0.0 0.0

-1.4757152698120214e6 3.013463886219662e6 0.0
3.013463886219662e6 939628.0043854062 0.0
0.0 0.0 0.0

-3.746817251439059e6 4.505817858197432e6 0.0
4.505817858197432e6 1.159570528452284e6 0.0
0.0 0.0 0.0

-464896.9224578721 4.438317873081494e6 0.0
4.438317873081494e6 -2.365373911184609e6 0.0
0.0 0.0 0.0

-4.689146776545601e6 -2.2137018219118584e6 0.0
-2.2137018219118584e6 8.315711643888266e6 0.0
0.0 0.0 0.0

-2.0207828108873372e6 6.170208175764824e6 0.0
6.170208175764824e6 1.0273306243794317e6 0.0
0.0 0.0 0.0

-3.8493784422138766e6 4.587948405260749e6 0.0
4.587948405260749e6 1.285150737282833e6 0.0
0.0 0.0 0.0

-625096.8679315049 5.327295453493171e6 0.0
5.327295453493171e6 -1.849586513747075e6 0.0
0.0 0.0 0.0

-3.1508551502743796e6 6.25221556202442e6 0.0
6.25221556202442e6 634110.1084764656 0.0
0.0 0.0 0.0

-960337.1685303594 6.172531987323502e6 0.0
6.172531987323502e6 -1.575823204975442e6 0.0
0.0 0.0 0.0

-1.2258672327431333e6 3.1761828961872943e6 0.0
3.1761828961872943e6 877849.0857290806 0.0
0.0 0.0 0.0

-8.236722360035291e6 5.338814981873117e6 0.0
5.338814981873117e6 -936663.0373864067 0.0
0.0 0.0 0.0

-2.6561847984681465e6 5.871364476573313e6 0.0
5.871364476573313e6 -60631.40261973196 0.0
0.0 0.0 0.0

-2.254703283271404e6 5.015369539405093e6 0.0
5.015369539405093e6 740525.4460322144 0.0
0.0 0.0 0.0

792619.8413975581 311729.5344719298 0.0
311729.5344719298 -1.4304514934313265e6 0.0
0.0 0.0 0.0

-2.9121379640821666e6 6.131581789564673e6 0.0
6.131581789564673e6 326611.0353313292 0.0
0.0 0.0 0.0

-2.3834127602159847e6 5.206158631064135e6 0.0
5.206158631064135e6 489329.4316789971 0.0
0.0 0.0 0.0

-259269.11438686727 2.621104803099602e6 0.0
2.621104803099602e6 -2.548589346720277e6 0.0
0.0 0.0 0.0

-1.5701360784643483e6 3.3788065420192974e6 0.0
3.3788065420192974e6 485327.8267237906 0.0
0.0 0.0 0.0

-1.0399598463534028e6 2.8692327972333087e6 0.0
2.8692327972333087e6 452935.62155546586 0.0
0.0 0.0 0.0

-4.9479265335768685e6 7.322805208193035e6 0.0
7.322805208193035e6 2.1243978583730785e6 0.0
0.0 0.0 0.0

28945.980333383195 1.7367559466564457e6 0.0
1.7367559466564457e6 -1.218867578803861e6 0.0
0.0 0.0 0.0

-1.5518146265458898e6 3.200410497340791e6 0.0
3.200410497340791e6 1.1844552520217323e6 0.0
0.0 0.0 0.0

-4.255350868155026e6 4.770675667111765e6 0.0
4.770675667111765e6 1.4887994313550517e6 0.0
0.0 0.0 0.0

-997080.0553929976 -996430.8423014417 0.0
-996430.8423014417 2.885054431342827e6 0.0
0.0 0.0 0.0

921361.8025346794 730210.0215187407 0.0
730210.0215187407 -1.15187591987048e6 0.0
0.0 0.0 0.0

-681542.1411273158 5.609727546111212e6 0.0
5.609727546111212e6 -1.8186721552475565e6 0.0
0.0 0.0 0.0

-2.421455877383625e6 4.09548685670796e6 0.0
4.09548685670796e6 898632.009741398 0.0
0.0 0.0 0.0

-1.5756835333022103e6 2.6750287012918536e6 0.0
2.6750287012918536e6 2.4275073158945525e6 0.0
0.0 0.0 0.0

-1.4575846791328369e6 7.002347547632985e6 0.0
7.002347547632985e6 -730931.7441286657 0.0
0.0 0.0 0.0

-1.21894360912485e6 6.84711731041882e6 0.0
6.84711731041882e6 -748523.475945937 0.0
0.0 0.0 0.0

-707364.5359451585 6.128832460555459e6 0.0
6.128832460555459e6 -1.7081779515709204e6 0.0
0.0 0.0 0.0

-814070.7467147156 5.30009460228082e6 0.0
5.30009460228082e6 -1.5192257855794956e6 0.0
0.0 0.0 0.0

-107677.83996382571 5.283366869840212e6 0.0
5.283366869840212e6 -1.3855618215841337e6 0.0
0.0 0.0 0.0

-2.0348646905053507e6 3.0322910566302207e6 0.0
3.0322910566302207e6 2.290791807023367e6 0.0
0.0 0.0 0.0

-2.72213785654457e6 6.660280821397465e6 0.0
6.660280821397465e6 339944.4151937929 0.0
0.0 0.0 0.0

-2.9693380469285245e6 4.928740058918165e6 0.0
4.928740058918165e6 809515.8386933089 0.0
0.0 0.0 0.0

-3.837819096786538e6 4.634783574115537e6 0.0
4.634783574115537e6 1.2055412413826918e6 0.0
0.0 0.0 0.0

-575535.0311399605 1.2570102105171481e7 0.0
1.2570102105171481e7 1.5418099665524991e7 0.0
0.0 0.0 0.0

-2.500950022965211e6 4.009009403446835e6 0.0
4.009009403446835e6 1.0036435703828087e6 0.0
0.0 0.0 0.0

-1.1799982860524966e6 6.729321400502072e6 0.0
6.729321400502072e6 -845035.4992288725 0.0
0.0 0.0 0.0

-853936.7969509116 5.002057585910535e6 0.0
5.002057585910535e6 -1.5265167087326068e6 0.0
0.0 0.0 0.0

-1.0756898731183712e6 6.587047688617617e6 0.0
6.587047688617617e6 -1.0505169421840068e6 0.0
0.0 0.0 0.0

-3.7426185605776943e6 5.8723918343313895e6 0.0
5.8723918343313895e6 1.2448933881152296e6 0.0
0.0 0.0 0.0

-2.378419114126264e6 3.8203398328558644e6 0.0
3.8203398328558644e6 815364.6867136677 0.0
0.0 0.0 0.0

-233982.66386821354 4.907377596602792e6 0.0
4.907377596602792e6 -1.5972698579220744e6 0.0
0.0 0.0 0.0

-731661.1728305524 4.812187097168801e6 0.0
4.812187097168801e6 -1.4086836088069107e6 0.0
0.0 0.0 0.0

-1.4448497554634279e6 2.98953641046771e6 0.0
2.98953641046771e6 -193539.42143024807 0.0
0.0 0.0 0.0

-7.508624144485487e6 1.002770558098439e7 0.0
1.002770558098439e7 2.269191828940536e6 0.0
0.0 0.0 0.0

-32583.42213898897 4.562351239028684e6 0.0
4.562351239028684e6 -3.36605867512445e6 0.0
0.0 0.0 0.0

5.939289868570212e6 7.426503778389277e6 0.0
7.426503778389277e6 -1.4346789044201318e6 0.0
0.0 0.0 0.0

1.9908129894174123e6 1.4946190609618856e7 0.0
1.4946190609618856e7 -1.1230331559374154e7 0.0
0.0 0.0 0.0

-695483.1554790948 6.603116050114954e6 0.0
6.603116050114954e6 -220405.82965337153 0.0
0.0 0.0 0.0

-233219.22523372297 5.316692571510487e6 0.0
5.316692571510487e6 -670078.7758402333 0.0
0.0 0.0 0.0

-3.6882540683487533e6 6.247052020031935e6 0.0
6.247052020031935e6 219691.12322786963 0.0
0.0 0.0 0.0

-1.646201433333707e7 -1.434654425202274e6 0.0
-1.434654425202274e6 1.0844524713870876e7 0.0
0.0 0.0 0.0

-1.5532444022225097e6 3.243206765295886e6 0.0
3.243206765295886e6 -7553.082850537205 0.0
0.0 0.0 0.0

-2.9190136044042567e6 4.785394368447759e6 0.0
4.785394368447759e6 857645.8634333177 0.0
0.0 0.0 0.0

-1.0390467991589805e6 6.500648087060709e6 0.0
6.500648087060709e6 -1.132253193151673e6 0.0
0.0 0.0 0.0

11042.40739710175 4.870839152524316e6 0.0
4.870839152524316e6 -2.922108026031016e6 0.0
0.0 0.0 0.0

-1.1470962539332013e6 6.519989609496081e6 0.0
6.519989609496081e6 -1.1626482568586916e6 0.0
0.0 0.0 0.0

-418392.80876088695 5.134776045446759e6 0.0
5.134776045446759e6 -2.5337383072610125e6 0.0
0.0 0.0 0.0

-1.1123804425398076e6 2.886163243220311e6 0.0
2.886163243220311e6 169208.45274380344 0.0
0.0 0.0 0.0

-597221.8511636433 6.769784383396128e6 0.0
6.769784383396128e6 103943.76055921154 0.0
0.0 0.0 0.0

-204919.37940429756 5.068078796580884e6 0.0
5.068078796580884e6 -1.5792362811940375e6 0.0
0.0 0.0 0.0

-779619.7443613925 -377986.3796781794 0.0
-377986.3796781794 645535.0316333149 0.0
0.0 0.0 0.0

-717788.9155300355 734043.3091047978 0.0
734043.3091047978 106356.54136962496 0.0
0.0 0.0 0.0

-2.8916307242475674e6 4.450443973644834e6 0.0
4.450443973644834e6 970880.8441155741 0.0
0.0 0.0 0.0

-1.0372152325279575e6 6.258363526677682e6 0.0
6.258363526677682e6 287671.30707756866 0.0
0.0 0.0 0.0

-1.8493065945667864e6 3.652775558372353e6 0.0
3.652775558372353e6 670538.9899326415 0.0
0.0 0.0 0.0

298634.1213269672 2.407208939663941e6 0.0
2.407208939663941e6 -699257.3100352967 0.0
0.0 0.0 0.0

-1.0619371209364181e7 777767.1664851352 0.0
777767.1664851352 1.2425873893670376e7 0.0
0.0 0.0 0.0

-2.2497238428597897e6 3.314800906627665e6 0.0
3.314800906627665e6 578838.2413798567 0.0
0.0 0.0 0.0

-2.3580253466869406e6 7.200511442234141e6 0.0
7.200511442234141e6 54305.05422574468 0.0
0.0 0.0 0.0

-858412.8609587289 6.353867884698477e6 0.0
6.353867884698477e6 801618.475646764 0.0
0.0 0.0 0.0

-1.3752231179958205e6 3.0747080671528657e6 0.0
3.0747080671528657e6 -129187.81275659573 0.0
0.0 0.0 0.0

-1.0120180238395727e6 9.922401964701915e6 0.0
9.922401964701915e6 -614893.9170679342 0.0
0.0 0.0 0.0

-6.3980991073537795e6 -2.127923481673615e6 0.0
-2.127923481673615e6 1.1469357658044899e7 0.0
0.0 0.0 0.0

-574282.3753388848 9.065756732843304e6 0.0
9.065756732843304e6 -773285.1822533137 0.0
0.0 0.0 0.0

-3.885947067215456e6 4.492697962017947e6 0.0
4.492697962017947e6 1.1587656214570627e6 0.0
0.0 0.0 0.0

-363096.5393802477 5.5748081890571145e6 0.0
5.5748081890571145e6 -2.322863166868902e6 0.0
0.0 0.0 0.0

-1.97622558465866e6 5.382700385766333e6 0.0
5.382700385766333e6 873164.9404564282 0.0
0.0 0.0 0.0

-1.2818291759628244e6 3.1094298509897427e6 0.0
3.1094298509897427e6 1.3385077068054085e6 0.0
0.0 0.0 0.0

-2.5038961647650637e6 8.012645574233026e6 0.0
8.012645574233026e6 777591.4488733638 0.0
0.0 0.0 0.0

236981.19978840987 3.814392206289368e6 0.0
3.814392206289368e6 -1.3771091138884171e6 0.0
0.0 0.0 0.0

-6.668714830833271e6 6.938410846201213e6 0.0
6.938410846201213e6 2.59566034205962e6 0.0
0.0 0.0 0.0

-276227.8685754616 5.990864372658036e6 0.0
5.990864372658036e6 -1.1654829210153746e6 0.0
0.0 0.0 0.0

-2.3567828860125104e6 4.751857978884607e6 0.0
4.751857978884607e6 452132.21370324085 0.0
0.0 0.0 0.0

-321774.284138907 3.783991894341827e6 0.0
3.783991894341827e6 -2.6833903887450034e6 0.0
0.0 0.0 0.0

-2.448269997937946e6 5.777803921507818e6 0.0
5.777803921507818e6 1.4881319988296474e6 0.0
0.0 0.0 0.0

-3.088076751072108e6 4.646454502581723e6 0.0
4.646454502581723e6 3.4227271415131837e6 0.0
0.0 0.0 0.0

-3.5036995046405955e6 4.381235825939322e6 0.0
4.381235825939322e6 1.1330120986965986e6 0.0
0.0 0.0 0.0

-821512.73727533 6.822368770783952e6 0.0
6.822368770783952e6 229547.59542949498 0.0
0.0 0.0 0.0

142975.3040607876 2.49245777632203e6 0.0
2.49245777632203e6 -826480.8348601045 0.0
0.0 0.0 0.0

-1.5096236602952597e6 5.235981345940208e6 0.0
5.235981345940208e6 3.1025786049627326e6 0.0
0.0 0.0 0.0

-2.0095044656643136e6 5.5338831854578005e6 0.0
5.5338831854578005e6 167249.4754840167 0.0
0.0 0.0 0.0

-845750.1265217524 9.646575173197454e6 0.0
9.646575173197454e6 -811882.5949236337 0.0
0.0 0.0 0.0

-1.359326002530428e6 8.261145488552304e6 0.0
8.261145488552304e6 -577371.975650503 0.0
0.0 0.0 0.0

-2.220812867256249e6 9.332896804338105e6 0.0
9.332896804338105e6 275058.40808253374 0.0
0.0 0.0 0.0

-316229.30236299644 4.4721486422324665e6 0.0
4.4721486422324665e6 -1.8142779607807167e6 0.0
0.0 0.0 0.0

-2.315283997545166e6 5.03571146363599e6 0.0
5.03571146363599e6 773285.4377818281 0.0
0.0 0.0 0.0

-4.176810862871046e6 8.39237599058398e6 0.0
8.39237599058398e6 1.07876929595459e6 0.0
0.0 0.0 0.0

-503207.07997299434 5.605625346228422e6 0.0
5.605625346228422e6 -2.455635804102389e6 0.0
0.0 0.0 0.0

-849814.1331577504 2.8798266497866525e6 0.0
2.8798266497866525e6 -568950.8273335064 0.0
0.0 0.0 0.0

-356929.69049392483 5.14585739392394e6 0.0
5.14585739392394e6 -931747.9720821972 0.0
0.0 0.0 0.0

-3.1637949048643927e6 8.608787547648348e6 0.0
8.608787547648348e6 409692.32504511625 0.0
0.0 0.0 0.0

-556082.2906141295 4.835272165149309e6 0.0
4.835272165149309e6 -1.4203560892062185e6 0.0
0.0 0.0 0.0

-48051.209662315785 3.5203299375822335e6 0.0
3.5203299375822335e6 -2.1054116615810744e6 0.0
0.0 0.0 0.0

-2.9164812745469366e6 -5.983788575527396e6 0.0
-5.983788575527396e6 8.560254373121144e6 0.0
0.0 0.0 0.0

-547749.1516914106 4.827796300800209e6 0.0
4.827796300800209e6 -1.938161014602011e6 0.0
0.0 0.0 0.0

-701047.5586042083 4.534219985716945e6 0.0
4.534219985716945e6 401350.0741134715 0.0
0.0 0.0 0.0

-1.2858231691250422e6 3.1327489709797613e6 0.0
3.1327489709797613e6 492809.31860993494 0.0
0.0 0.0 0.0

-883220.4144792787 9.764079550977163e6 0.0
9.764079550977163e6 -1.0486968357417008e6 0.0
0.0 0.0 0.0

-888172.4735795488 4.599362551881241e6 0.0
4.599362551881241e6 -1.1809412352443337e6 0.0
0.0 0.0 0.0

-726266.7866633192 7.127709025407623e6 0.0
7.127709025407623e6 -1.1412753121908116e6 0.0
0.0 0.0 0.0

-1.6245414745202842e6 4.481057223882452e6 0.0
4.481057223882452e6 2.1519599657178842e6 0.0
0.0 0.0 0.0

-5.840055319405746e6 1.1606710576311342e7 0.0
1.1606710576311342e7 1.0256525799163284e6 0.0
0.0 0.0 0.0

-1.105358300383282e6 7.904032509284995e6 0.0
7.904032509284995e6 -595159.6722438354 0.0
0.0 0.0 0.0

-4.0513412889752584e6 5.455243068019735e6 0.0
5.455243068019735e6 5.635939580395916e6 0.0
0.0 0.0 0.0

41927.118870310485 1.8350665433919597e6 0.0
1.8350665433919597e6 -2.5557185396700767e6 0.0
0.0 0.0 0.0

-4.0012406835299414e6 6.286127636058018e6 0.0
6.286127636058018e6 1.3056209864143485e6 0.0
0.0 0.0 0.0

-338540.0788132431 6.486619360322394e6 0.0
6.486619360322394e6 -1.2549983372252844e6 0.0
0.0 0.0 0.0

-9.876238766446503e6 -4.674270251430326e6 0.0
-4.674270251430326e6 7.51975093583771e6 0.0
0.0 0.0 0.0

-2.3261370422700685e6 5.198543868703674e6 0.0
5.198543868703674e6 497171.29715004854 0.0
0.0 0.0 0.0

-724433.1945259881 2.84827819651144e6 0.0
2.84827819651144e6 -522837.0126095826 0.0
0.0 0.0 0.0

-489296.9236072451 4.834789034988539e6 0.0
4.834789034988539e6 -1.717759840006647e6 0.0
0.0 0.0 0.0

-934892.2709553675 6.398332498840134e6 0.0
6.398332498840134e6 -186042.33465411916 0.0
0.0 0.0 0.0

-304873.0695199972 5.109015193710738e6 0.0
5.109015193710738e6 -2.391454819738835e6 0.0
0.0 0.0 0.0

171200.0850057659 2.11537618366885e6 0.0
2.11537618366885e6 -2.750656559799536e6 0.0
0.0 0.0 0.0

2.6964536791326525e6 7.643414179440914e6 0.0
7.643414179440914e6 712188.9080551817 0.0
0.0 0.0 0.0

-3.3239728034162145e7 9.634142360444063e6 0.0
9.634142360444063e6 7.846631087505158e6 0.0
0.0 0.0 0.0

-1.5931905491968144e6 4.813995611559934e6 0.0
4.813995611559934e6 2.728350068353159e6 0.0
0.0 0.0 0.0

-1.7398852996028862e6 8.915910964648997e6 0.0
8.915910964648997e6 -456149.02668258053 0.0
0.0 0.0 0.0

-1.9922780868277894e6 5.294825590003655e6 0.0
5.294825590003655e6 506465.1153551864 0.0
0.0 0.0 0.0

-34001.202750669676 3.489550115038808e6 0.0
3.489550115038808e6 -1.941749672972362e6 0.0
0.0 0.0 0.0

-1.9371837462298558e6 5.506609359283662e6 0.0
5.506609359283662e6 248761.99771462858 0.0
0.0 0.0 0.0

-4.446679331563672e6 6.480932850954282e6 0.0
6.480932850954282e6 1.6198199867665605e6 0.0
0.0 0.0 0.0

-299349.5557326991 4.8593685259450525e6 0.0
4.8593685259450525e6 -2.2570563458239157e6 0.0
0.0 0.0 0.0

-2.4890894407336405e6 5.054703489227538e6 0.0
5.054703489227538e6 159701.97715004592 0.0
0.0 0.0 0.0

96909.49430175446 3.360549162428e6 0.0
3.360549162428e6 -1.402173148273187e6 0.0
0.0 0.0 0.0

-1.9907395232060584e6 4.284746163758216e6 0.0
4.284746163758216e6 2.7255280521734855e6 0.0
0.0 0.0 0.0

-2.397599428622197e6 6.214549070644598e6 0.0
6.214549070644598e6 163187.44004288595 0.0
0.0 0.0 0.0

-1.5069232985353374e6 7.229930555317587e6 0.0
7.229930555317587e6 -544198.4509687265 0.0
0.0 0.0 0.0

-2.830054601603468e6 3.7060562963671624e6 0.0
3.7060562963671624e6 745512.9631185052 0.0
0.0 0.0 0.0

-666749.4725930637 5.313090051428132e6 0.0
5.313090051428132e6 -1.8316931244825071e6 0.0
0.0 0.0 0.0

-1.3697665556323763e6 -1.2496415726299e6 0.0
-1.2496415726299e6 2.1400151323912516e6 0.0
0.0 0.0 0.0

-1.246646191447406e6 6.6344103531191265e6 0.0
6.6344103531191265e6 -1.0260334950542458e6 0.0
0.0 0.0 0.0

-637625.4116408159 6.772006399394928e6 0.0
6.772006399394928e6 -1.2166122308790921e6 0.0
0.0 0.0 0.0

-492515.1875800718 5.639006639224254e6 0.0
5.639006639224254e6 -2.617000590633688e6 0.0
0.0 0.0 0.0

-648364.8009540306 5.321077863154014e6 0.0
5.321077863154014e6 -1.5151486183393593e6 0.0
0.0 0.0 0.0

-1.0096330009451886e6 6.430947749215147e6 0.0
6.430947749215147e6 -1.0508981184016862e6 0.0
0.0 0.0 0.0

-2.301862223682738e6 5.078582768696321e6 0.0
5.078582768696321e6 611375.1687086013 0.0
0.0 0.0 0.0

-3.369686511906399e6 5.100221407184056e6 0.0
5.100221407184056e6 1.0222025985048632e6 0.0
0.0 0.0 0.0

-2.475367218567649e6 4.312830770133281e6 0.0
4.312830770133281e6 1.1035935156461063e6 0.0
0.0 0.0 0.0

-5787.489606275136 5.55449718298695e6 0.0
5.55449718298695e6 -608556.157665508 0.0
0.0 0.0 0.0

-1.4910758724110639e7 -3.5099641703129974e6 0.0
-3.5099641703129974e6 9.191471583496388e6 0.0
0.0 0.0 0.0

2.1190649665351976e6 1.0745407047906003e6 0.0
1.0745407047906003e6 -2.884755588113889e6 0.0
0.0 0.0 0.0

-265564.8613830113 5.4614443842962505e6 0.0
5.4614443842962505e6 -2.0268092548588708e6 0.0
0.0 0.0 0.0

233170.25333557813 8.769335131775063e6 0.0
8.769335131775063e6 -2.1569177627667584e6 0.0
0.0 0.0 0.0

-4.780948988995772e6 4.8532497299052e6 0.0
4.8532497299052e6 1.687770352105091e6 0.0
0.0 0.0 0.0

-368242.46660205146 5.381403576409453e6 0.0
5.381403576409453e6 -2.5033082824032726e6 0.0
0.0 0.0 0.0

-2.145939955584391e6 6.24968989473286e6 0.0
6.24968989473286e6 716984.0589672495 0.0
0.0 0.0 0.0

-1.261007019141243e6 8.814740358089855e6 0.0
8.814740358089855e6 -496466.88536419004 0.0
0.0 0.0 0.0

-1.4803185814943572e6 7.133094063685205e6 0.0
7.133094063685205e6 -1.0001832465041794e6 0.0
0.0 0.0 0.0

-1.2165585608812529e6 8.381467738475301e6 0.0
8.381467738475301e6 -621035.147384855 0.0
0.0 0.0 0.0

-294584.2424517933 6.63054066419291e6 0.0
6.63054066419291e6 -522276.9071518886 0.0
0.0 0.0 0.0

-3.2795437605224513e6 5.078413156950465e6 0.0
5.078413156950465e6 1.0416468700671773e6 0.0
0.0 0.0 0.0

-748075.6360243238 5.949484805086101e6 0.0
5.949484805086101e6 -1.5814522877887026e6 0.0
0.0 0.0 0.0

-146847.1606228972 2.6940710161362104e6 0.0
2.6940710161362104e6 -2.790952855061385e6 0.0
0.0 0.0 0.0

-1.2458820534307654e6 -248215.83131401063 0.0
-248215.83131401063 87335.6855194071 0.0
0.0 0.0 0.0

-1.411893332084147e6 -139293.11343119986 0.0
-139293.11343119986 786758.5002027543 0.0
0.0 0.0 0.0

-1.8448051130813058e6 4.232484072168129e6 0.0
4.232484072168129e6 2.038907579306761e6 0.0
0.0 0.0 0.0

-389405.0319347029 6.890735751315623e6 0.0
6.890735751315623e6 -562425.8067581127 0.0
0.0 0.0 0.0

-658588.5616145963 6.509283613196191e6 0.0
6.509283613196191e6 -510633.4564460416 0.0
0.0 0.0 0.0

2.488591496182303e6 5.863169323134188e6 0.0
5.863169323134188e6 -2.9164599895303356e6 0.0
0.0 0.0 0.0

-826277.4447684612 7.858202702622859e6 0.0
7.858202702622859e6 -775488.8444165274 0.0
0.0 0.0 0.0

627571.6077245793 3.997750899343481e6 0.0
3.997750899343481e6 -459029.789204024 0.0
0.0 0.0 0.0

-1.1683492898508129e6 8.297279808226235e6 0.0
8.297279808226235e6 -518481.0236971071 0.0
0.0 0.0 0.0

-1.8682042337825391e6 3.3304099762279023e6 0.0
3.3304099762279023e6 2.624842326598643e6 0.0
0.0 0.0 0.0

-2.4383524005297404e6 6.578527401041131e6 0.0
6.578527401041131e6 471217.6490385119 0.0
0.0 0.0 0.0

-3.1426190987844695e6 7.967809791476796e6 0.0
7.967809791476796e6 1.1643798990256777e6 0.0
0.0 0.0 0.0

-858266.6628464528 5.523928569643319e6 0.0
5.523928569643319e6 -1.8236872467792914e6 0.0
0.0 0.0 0.0

-785663.3645691429 5.119717262336841e6 0.0
5.119717262336841e6 -2.0413775459877115e6 0.0
0.0 0.0 0.0

699556.8700231847 9.488161173236087e6 0.0
9.488161173236087e6 -2.7949956662628474e6 0.0
0.0 0.0 0.0

-690572.8306750729 6.729749999926903e6 0.0
6.729749999926903e6 -177385.84936429618 0.0
0.0 0.0 0.0

-1.3706375414812053e6 6.762171822253057e6 0.0
6.762171822253057e6 -887197.562704358 0.0
0.0 0.0 0.0

-648615.6718913442 355296.250376087 0.0
355296.250376087 908538.2502202783 0.0
0.0 0.0 0.0

-4.49436374945312e6 4.8439369465667745e6 0.0
4.8439369465667745e6 1.5380169440146103e6 0.0
0.0 0.0 0.0

-1.36553480406554e6 3.1076672243915787e6 0.0
3.1076672243915787e6 1.036164543819784e6 0.0
0.0 0.0 0.0

877131.0919557207 887588.0029591034 0.0
887588.0029591034 -1.7643845560161413e6 0.0
0.0 0.0 0.0

-1.1207263516921317e6 6.165003318027142e6 0.0
6.165003318027142e6 -1.0370388529296833e6 0.0
0.0 0.0 0.0

-126112.51443643647 2.853921947278705e6 0.0
2.853921947278705e6 -2.5576475435706936e6 0.0
0.0 0.0 0.0

-3.172194472067007e6 4.860807327246882e6 0.0
4.860807327246882e6 860743.5390206969 0.0
0.0 0.0 0.0

-2.203240291138513e6 5.025240938951297e6 0.0
5.025240938951297e6 233368.8080851693 0.0
0.0 0.0 0.0

-557263.0568828268 5.05768643694172e6 0.0
5.05768643694172e6 -1.9415645776473433e6 0.0
0.0 0.0 0.0

1.5253870376625676e6 7.6997617928273035e6 0.0
7.6997617928273035e6 -1.911874574663837e6 0.0
0.0 0.0 0.0

-2.9455272017355086e6 5.018260671739131e6 0.0
5.018260671739131e6 816766.1706053913 0.0
0.0 0.0 0.0

-711744.8591749631 462274.2205038947 0.0
462274.2205038947 592897.613786069 0.0
0.0 0.0 0.0

761543.344229556 496393.8715683933 0.0
496393.8715683933 -1.3855342405250398e6 0.0
0.0 0.0 0.0

-317578.8440380795 7.001904825977901e6 0.0
7.001904825977901e6 -1.2408787461156086e6 0.0
0.0 0.0 0.0

-1.7531736894800074e6 8.862850033826886e6 0.0
8.862850033826886e6 -381025.1358351511 0.0
0.0 0.0 0.0

-1.7514551758722556e6 8.969580429446174e6 0.0
8.969580429446174e6 -359531.1048635986 0.0
0.0 0.0 0.0

-4.01243658437925e6 -551029.4212456985 0.0
-551029.4212456985 6.986521430337097e6 0.0
0.0 0.0 0.0

313772.21298496437 3.8413091560107744e6 0.0
3.8413091560107744e6 -960140.3010736612 0.0
0.0 0.0 0.0

-2.1229840876582107e6 6.258931566559707e6 0.0
6.258931566559707e6 9882.654808511026 0.0
0.0 0.0 0.0

-3.5099497543742177e6 7.096865005969089e6 0.0
7.096865005969089e6 1.1692763387265617e6 0.0
0.0 0.0 0.0

-1.3378164426717747e7 1.3154468008120903e6 0.0
1.3154468008120903e6 6.679924050257433e6 0.0
0.0 0.0 0.0

-4.556303197999501e6 5.889153393432045e6 0.0
5.889153393432045e6 1.8358320037105982e6 0.0
0.0 0.0 0.0

-344821.814812762 6.92670321422266e6 0.0
6.92670321422266e6 -471045.67585616925 0.0
0.0 0.0 0.0

-607128.8300444523 363431.7297503264 0.0
363431.7297503264 879864.6824741459 0.0
0.0 0.0 0.0

401081.367219227 9.10134794438032e6 0.0
9.10134794438032e6 -2.3999808211239427e6 0.0
0.0 0.0 0.0

-1.5172376404952046e6 8.33846182815087e6 0.0
8.33846182815087e6 -959016.8511351864 0.0
0.0 0.0 0.0

103841.25042634385 711202.0958853599 0.0
711202.0958853599 -594288.0029370752 0.0
0.0 0.0 0.0

-2.552334678122418e6 4.39696072150021e6 0.0
4.39696072150021e6 880574.1065156894 0.0
0.0 0.0 0.0

-2.622252316995008e6 4.674280421641621e6 0.0
4.674280421641621e6 870742.9620334407 0.0
0.0 0.0 0.0

197738.46196731954 2.516372819757888e6 0.0
2.516372819757888e6 -790574.8840049009 0.0
0.0 0.0 0.0

-590782.2948339825 4.843383145330435e6 0.0
4.843383145330435e6 -2.289261783611164e6 0.0
0.0 0.0 0.0

-48072.52041916095 4.894345031938079e6 0.0
4.894345031938079e6 -2.9573655290480554e6 0.0
0.0 0.0 0.0

-1.7488040329009013e6 3.966153063720056e6 0.0
3.966153063720056e6 1.9326749279978732e6 0.0
0.0 0.0 0.0

243112.37036504043 4.719412671175393e6 0.0
4.719412671175393e6 -769196.7570443985 0.0
0.0 0.0 0.0

-573514.7880207453 1.2373446661648491e7 0.0
1.2373446661648491e7 -1.072859450129099e6 0.0
0.0 0.0 0.0

-194408.6263057748 4.398520341135406e6 0.0
4.398520341135406e6 -1.482979597477119e6 0.0
0.0 0.0 0.0

-349667.59306456003 5.787518378780325e6 0.0
5.787518378780325e6 -1.617080076263808e6 0.0
0.0 0.0 0.0

-344311.48009800527 4.172999863209525e6 0.0
4.172999863209525e6 -1.5236399182312065e6 0.0
0.0 0.0 0.0

-517261.96038245875 6.67339940934952e6 0.0
6.67339940934952e6 -511887.75836335483 0.0
0.0 0.0 0.0

-403298.09695168346 6.749368365700177e6 0.0
6.749368365700177e6 -574650.3237477287 0.0
0.0 0.0 0.0

-568775.9825563979 4.813753583046405e6 0.0
4.813753583046405e6 -1.82001922285955e6 0.0
0.0 0.0 0.0

-2.1402983834730447e6 1.2430379549879046e7 0.0
1.2430379549879046e7 -1.1075065065800906e6 0.0
0.0 0.0 0.0

248732.4559533042 394953.40954377013 0.0
394953.40954377013 -837181.3303575031 0.0
0.0 0.0 0.0

-2.520317247041491e6 4.68095019132589e6 0.0
4.68095019132589e6 1.0341064093098762e6 0.0
0.0 0.0 0.0

-4.1669343169087707e6 4.803547058503604e6 0.0
4.803547058503604e6 1.4241435646312227e6 0.0
0.0 0.0 0.0

-2.7154956854429534e6 5.996364552927091e6 0.0
5.996364552927091e6 641187.433610046 0.0
0.0 0.0 0.0

851416.4709675852 656326.7594315324 0.0
656326.7594315324 -1.1043306265678261e6 0.0
0.0 0.0 0.0

569028.0417161676 1.7784554021848019e6 0.0
1.7784554021848019e6 -1.8159280895065211e6 0.0
0.0 0.0 0.0

-485424.33796002256 6.924225180912677e6 0.0
6.924225180912677e6 -227813.71652854903 0.0
0.0 0.0 0.0

974848.4224233022 941208.0782421159 0.0
941208.0782421159 -1.9007817860190603e6 0.0
0.0 0.0 0.0

-1.0412001149833404e6 9.69918921138007e6 0.0
9.69918921138007e6 -783559.9283665963 0.0
0.0 0.0 0.0

-1.9006939285736796e6 8.293241279881686e6 0.0
8.293241279881686e6 -455838.3098241369 0.0
0.0 0.0 0.0

-883766.0438162177 6.058711911926507e6 0.0
6.058711911926507e6 -1.1712719782071696e6 0.0
0.0 0.0 0.0

-2.4082063885364104e6 3.5315899303472876e6 0.0
3.5315899303472876e6 615910.624134083 0.0
0.0 0.0 0.0

-2.5329113936586874e6 4.229850630196781e6 0.0
4.229850630196781e6 912523.2434279016 0.0
0.0 0.0 0.0

-1.129285778015149e6 3.015479311503824e6 0.0
3.015479311503824e6 685782.8718141166 0.0
0.0 0.0 0.0

-6.201594323566175e6 3.694333264668232e6 0.0
3.694333264668232e6 2.2573469455729905e6 0.0
0.0 0.0 0.0

256122.16174700344 4.791104806463354e6 0.0
4.791104806463354e6 -1.4454420942871578e6 0.0
0.0 0.0 0.0

-1.2972217230096404e6 6.844909254139169e6 0.0
6.844909254139169e6 -708021.4999335365 0.0
0.0 0.0 0.0

219931.9829254821 4.702181248621488e6 0.0
4.702181248621488e6 -3.157099469471624e6 0.0
0.0 0.0 0.0

-1.3977687599051313e6 8.786815828675942e6 0.0
8.786815828675942e6 -537001.3318755316 0.0
0.0 0.0 0.0

-1.4537685574941565e6 3.073113208717512e6 0.0
3.073113208717512e6 -189029.70772609464 0.0
0.0 0.0 0.0

-441683.9064996013 5.586118776352491e6 0.0
5.586118776352491e6 -2.250809528881015e6 0.0
0.0 0.0 0.0

1.1062194770138804e6 6.249718601667992e6 0.0
6.249718601667992e6 1.9710379144918986e6 0.0
0.0 0.0 0.0

66436.07375046276 2.893708151907679e6 0.0
2.893708151907679e6 -736554.1294843503 0.0
0.0 0.0 0.0

-2.6510343265349492e6 4.549151989786876e6 0.0
4.549151989786876e6 3.221670739250255e6 0.0
0.0 0.0 0.0

-4.590911693635594e6 6.009422836428532e6 0.0
6.009422836428532e6 2.7623822177449744e6 0.0
0.0 0.0 0.0

-1.408737678438985e6 3.699638665761489e6 0.0
3.699638665761489e6 -837454.4253898284 0.0
0.0 0.0 0.0

-5.013791464931645e6 8.257982607126954e6 0.0
8.257982607126954e6 1.3997748392565497e6 0.0
0.0 0.0 0.0

-1.9104824791098982e6 6.625991795330628e6 0.0
6.625991795330628e6 -204029.8907726226 0.0
0.0 0.0 0.0

-1.825261429555011e6 3.542093937924955e6 0.0
3.542093937924955e6 797375.1556932447 0.0
0.0 0.0 0.0

-325410.6920162224 5.4267898567695385e6 0.0
5.4267898567695385e6 -3.3202582677318286e6 0.0
0.0 0.0 0.0

363229.14885248034 2.7863949117000434e6 0.0
2.7863949117000434e6 -847218.812513491 0.0
0.0 0.0 0.0

-1.532188398300237e6 6.329342144891308e6 0.0
6.329342144891308e6 535401.0196940494 0.0
0.0 0.0 0.0

432136.5031772618 5.446694316759915e6 0.0
5.446694316759915e6 255091.65329171641 0.0
0.0 0.0 0.0

-4.375556521858163e6 1.4653890626592746e6 0.0
1.4653890626592746e6 4.418846488671748e6 0.0
0.0 0.0 0.0

-2.0688907895520094e6 5.143880763163111e6 0.0
5.143880763163111e6 705172.1792965778 0.0
0.0 0.0 0.0

-2.9652852613001033e6 4.4277197368205795e6 0.0
4.4277197368205795e6 1.0213972115653628e6 0.0
0.0 0.0 0.0

-7.876269385800068e6 3.5076889308255976e6 0.0
3.5076889308255976e6 2.127362421341954e6 0.0
0.0 0.0 0.0

51158.41726041399 1.679283104522921e6 0.0
1.679283104522921e6 -1.7603750799838644e6 0.0
0.0 0.0 0.0

-2.8984152048059804e6 4.341481409771742e6 0.0
4.341481409771742e6 907853.5462510504 0.0
0.0 0.0 0.0

-2.0722642771667219e6 6.122526673785236e6 0.0
6.122526673785236e6 -354316.31593649316 0.0
0.0 0.0 0.0

-1.623200196751197e6 4.303908154059304e6 0.0
4.303908154059304e6 3.0645329702049806e6 0.0
0.0 0.0 0.0

-2.518076061515454e6 6.312103412682568e6 0.0
6.312103412682568e6 179468.1416992537 0.0
0.0 0.0 0.0

220167.0209703372 4.282887376473618e6 0.0
4.282887376473618e6 -1.5255273082030024e6 0.0
0.0 0.0 0.0

-1.6009035722099897e6 7.246981476520464e6 0.0
7.246981476520464e6 -566151.7964596965 0.0
0.0 0.0 0.0

205968.09877568934 1.7226341335328184e6 0.0
1.7226341335328184e6 -587930.9613955163 0.0
0.0 0.0 0.0

-467433.53870470234 5.123191938756495e6 0.0
5.123191938756495e6 -1.512898047186928e6 0.0
0.0 0.0 0.0

50695.47185128799 5.160239064892228e6 0.0
5.160239064892228e6 -3.155113304297993e6 0.0
0.0 0.0 0.0

-1.0669667994528986e6 4.766445292364618e6 0.0
4.766445292364618e6 1.0797979950602604e6 0.0
0.0 0.0 0.0

-924873.5053490622 6.380296982784458e6 0.0
6.380296982784458e6 -1.0147830234197122e6 0.0
0.0 0.0 0.0

-1.867196302490298e6 3.5449736589615387e6 0.0
3.5449736589615387e6 647329.6156454135 0.0
0.0 0.0 0.0

-174263.2465072553 1.5995394657172544e6 0.0
1.5995394657172544e6 -1.9146034441955592e6 0.0
0.0 0.0 0.0

-956963.0002134298 6.413556772778057e6 0.0
6.413556772778057e6 -1.278273733947646e6 0.0
0.0 0.0 0.0

-1.0093350135655734e6 5.70748388053361e6 0.0
5.70748388053361e6 -1.3100468275907119e6 0.0
0.0 0.0 0.0

-2.0809448633096796e6 3.6635340863040322e6 0.0
3.6635340863040322e6 842576.2632643209 0.0
0.0 0.0 0.0

-2.570727251477139e6 771422.7049612997 0.0
771422.7049612997 2.04329405819682e6 0.0
0.0 0.0 0.0

377287.9433770237 933758.1302603296 0.0
933758.1302603296 -793698.2030566266 0.0
0.0 0.0 0.0

-1.1618414326472967e6 6.336617051437789e6 0.0
6.336617051437789e6 -1.09952856597215e6 0.0
0.0 0.0 0.0

-1.3078862492180022e6 3.014547682707914e6 0.0
3.014547682707914e6 -229861.89661602615 0.0
0.0 0.0 0.0

-2.2117472334710574e6 4.092719736612084e6 0.0
4.092719736612084e6 4.276098090759964e6 0.0
0.0 0.0 0.0

-1.7662658922316108e6 8.77043279313292e6 0.0
8.77043279313292e6 -447380.6279327782 0.0
0.0 0.0 0.0

81417.35265960079 3.5786194115779595e6 0.0
3.5786194115779595e6 -1.7185531313480681e6 0.0
0.0 0.0 0.0

-361278.85157785 1.3012707396585164e6 0.0
1.3012707396585164e6 730795.5907013398 0.0
0.0 0.0 0.0

-3.4919699006900126e6 4.392126679207319e6 0.0
4.392126679207319e6 1.1075526802387133e6 0.0
0.0 0.0 0.0

-3.381878413927116e6 4.967272057549267e6 0.0
4.967272057549267e6 862307.9802252413 0.0
0.0 0.0 0.0

-18589.57792064367 2.911630374134041e6 0.0
2.911630374134041e6 -747799.1044174181 0.0
0.0 0.0 0.0

-202138.9818520752 1.361902823929135e6 0.0
1.361902823929135e6 708839.3852770403 0.0
0.0 0.0 0.0

-532661.2196638616 4.818493361481759e6 0.0
4.818493361481759e6 -1.9255060533439552e6 0.0
0.0 0.0 0.0

-2.1510405384909315e6 3.7281140936914436e6 0.0
3.7281140936914436e6 1.145369266478104e6 0.0
0.0 0.0 0.0

-709372.4591321674 1.2524353910814251e6 0.0
1.2524353910814251e6 1.6885304102821755e6 0.0
0.0 0.0 0.0

-1.7567734545463365e7 -3.185461316401645e6 0.0
-3.185461316401645e6 9.770161670309454e6 0.0
0.0 0.0 0.0

-1.2030650186835998e6 6.806063053924387e6 0.0
6.806063053924387e6 -1.1891518882904234e6 0.0
0.0 0.0 0.0

-252145.45976196305 6.914674486401151e6 0.0
6.914674486401151e6 -440460.12727265526 0.0
0.0 0.0 0.0

18088.167284383788 1.4196769193898735e6 0.0
1.4196769193898735e6 -2.6299652445778074e6 0.0
0.0 0.0 0.0

-4.978538465950099e6 3.5930450787551007e6 0.0
3.5930450787551007e6 6.496038700150292e6 0.0
0.0 0.0 0.0

-1.0178577061814091e6 1.3793094156999963e6 0.0
1.3793094156999963e6 671736.5664670009 0.0
0.0 0.0 0.0

503594.4715645873 2.7848738355233045e6 0.0
2.7848738355233045e6 -1.304351672280178e6 0.0
0.0 0.0 0.0

-1.4504412941622324e6 6.476164060816665e6 0.0
6.476164060816665e6 -228677.6397665357 0.0
0.0 0.0 0.0

-2.997330356938271e6 3.925008584351888e6 0.0
3.925008584351888e6 822502.8607307826 0.0
0.0 0.0 0.0

-2.3850673453501416e6 3.978789492318243e6 0.0
3.978789492318243e6 977173.7494100855 0.0
0.0 0.0 0.0

-3.148173481367643e6 4.933412735458858e6 0.0
4.933412735458858e6 780719.4848401649 0.0
0.0 0.0 0.0

-2.2738703272165875e6 3.27358083728794e6 0.0
3.27358083728794e6 415149.98216683685 0.0
0.0 0.0 0.0

-219629.57106522517 -496373.22774979094 0.0
-496373.22774979094 1.040913426017659e6 0.0
0.0 0.0 0.0

-295256.0466269583 7.062112591731532e6 0.0
7.062112591731532e6 -343152.962876675 0.0
0.0 0.0 0.0

-1.12686337101712e6 6.712420663700419e6 0.0
6.712420663700419e6 -904299.4519340335 0.0
0.0 0.0 0.0

-5.993991358190821e6 2.4385570963919605e6 0.0
2.4385570963919605e6 6.015636614362778e6 0.0
0.0 0.0 0.0

336815.3384475701 1.9983957358799633e6 0.0
1.9983957358799633e6 -1.991903853751374e6 0.0
0.0 0.0 0.0

-4.072051581349046e6 4.603698704466872e6 0.0
4.603698704466872e6 1.3131690182672301e6 0.0
0.0 0.0 0.0

-460540.85709510767 6.897633071062688e6 0.0
6.897633071062688e6 -317927.65770385705 0.0
0.0 0.0 0.0

-1.9333518572172932e6 3.4678530364686386e6 0.0
3.4678530364686386e6 2.3446268467361187e6 0.0
0.0 0.0 0.0

-665422.4934322395 6.24051548013481e6 0.0
6.24051548013481e6 -1.614232636958224e6 0.0
0.0 0.0 0.0

-1.467272937203178e6 3.2849881613130914e6 0.0
3.2849881613130914e6 1.1319111064371173e6 0.0
0.0 0.0 0.0

1.3255135417233943e6 3.0600559022559565e6 0.0
3.0600559022559565e6 -1.3455786995831928e6 0.0
0.0 0.0 0.0

-582273.0143991827 5.551305258208875e6 0.0
5.551305258208875e6 -1.6981093083889417e6 0.0
0.0 0.0 0.0

-2.375389099448769e6 6.1845494117483245e6 0.0
6.1845494117483245e6 1.3103717947678058e6 0.0
0.0 0.0 0.0

-2.4102194210118265e6 3.4599569580516573e6 0.0
3.4599569580516573e6 647405.2290818086 0.0
0.0 0.0 0.0

-2.9644186518714004e6 3.892301445679981e6 0.0
3.892301445679981e6 950147.821749266 0.0
0.0 0.0 0.0

-1.2368214440814082e6 8.374671263993303e6 0.0
8.374671263993303e6 -631171.0140295951 0.0
0.0 0.0 0.0

-209150.40560518444 4.416694430673563e6 0.0
4.416694430673563e6 -1.1856861931165857e6 0.0
0.0 0.0 0.0

888924.8269199544 2.356138545022609e6 0.0
2.356138545022609e6 -2.0144640401893998e6 0.0
0.0 0.0 0.0

-812143.9419847123 5.379413354912232e6 0.0
5.379413354912232e6 -2.0549595346463602e6 0.0
0.0 0.0 0.0

-92655.42952678865 2.651213088175459e6 0.0
2.651213088175459e6 -1.2825536262456747e6 0.0
0.0 0.0 0.0

-1.0688164430391288e6 4.508569295917196e6 0.0
4.508569295917196e6 3.2258119127261126e6 0.0
0.0 0.0 0.0

-5.064731266943272e6 4.667461707701051e6 0.0
4.667461707701051e6 1.6944576564919373e6 0.0
0.0 0.0 0.0

-198418.7672680919 519611.5674911336 0.0
519611.5674911336 410621.8189374678 0.0
0.0 0.0 0.0

52155.00226101442 4.64498955728621e6 0.0
4.64498955728621e6 -2.7924347318152534e6 0.0
0.0 0.0 0.0

-1.3591061797481799e6 8.7144400682949e6 0.0
8.7144400682949e6 -422169.9416905185 0.0
0.0 0.0 0.0

-1.7822505573610268e6 5.711766420436954e6 0.0
5.711766420436954e6 1.2739755682868813e6 0.0
0.0 0.0 0.0

-387384.80474316556 4.294808401580191e6 0.0
4.294808401580191e6 -2.2588806120056016e6 0.0
0.0 0.0 0.0

-4.825193895587363e6 4.40386850851405e6 0.0
4.40386850851405e6 1.4649652159393423e6 0.0
0.0 0.0 0.0

-2.4755656644360516e6 4.656770237818864e6 0.0
4.656770237818864e6 3.1885700743305515e6 0.0
0.0 0.0 0.0

-8.85734047142848e6 3.445275376924262e6 0.0
3.445275376924262e6 1.1296259941061446e6 0.0
0.0 0.0 0.0

-1.0038029520515446e6 6.493227409290894e6 0.0
6.493227409290894e6 70957.72923762584 0.0
0.0 0.0 0.0

-703457.1118897998 6.044479016839953e6 0.0
6.044479016839953e6 -1.5855536746299267e6 0.0
0.0 0.0 0.0

5.807727167905342e6 8.3666824187003095e6 0.0
8.3666824187003095e6 1.309718678919305e6 0.0
0.0 0.0 0.0

-5.195192644066762e6 4.560027939009495e6 0.0
4.560027939009495e6 7.680296715502609e6 0.0
0.0 0.0 0.0

-144882.11917804411 1.704747693633778e6 0.0
1.704747693633778e6 -184216.5276270816 0.0
0.0 0.0 0.0

-403447.8154518801 6.778480336954959e6 0.0
6.778480336954959e6 -550443.1340939372 0.0
0.0 0.0 0.0

-391325.85747254133 4.846964285190633e6 0.0
4.846964285190633e6 -2.2402437962279688e6 0.0
0.0 0.0 0.0

-613693.7300477049 9.744895919933058e6 0.0
9.744895919933058e6 -1.0179140394359772e6 0.0
0.0 0.0 0.0

-2.4172548919583308e6 3.9160143081066245e6 0.0
3.9160143081066245e6 889773.4445878727 0.0
0.0 0.0 0.0

-529649.7608776524 1.375702433939981e6 0.0
1.375702433939981e6 117805.47130071069 0.0
0.0 0.0 0.0

-5.284124841454263e6 4.339924552415702e6 0.0
4.339924552415702e6 1.6383499479116646e6 0.0
0.0 0.0 0.0

-1.9193446438582384e6 5.667875446448806e6 0.0
5.667875446448806e6 214955.97041598556 0.0
0.0 0.0 0.0

-2.946066165892148e6 3.8217110396344285e6 0.0
3.8217110396344285e6 824514.1542062261 0.0
0.0 0.0 0.0

-2.615550490490945e6 7.6931315323528405e6 0.0
7.6931315323528405e6 825837.5537376162 0.0
0.0 0.0 0.0

-3.4692590742726247e6 4.339804909455832e6 0.0
4.339804909455832e6 1.044846004933886e6 0.0
0.0 0.0 0.0

-433167.5544314898 6.803468915968224e6 0.0
6.803468915968224e6 -442752.97141772124 0.0
0.0 0.0 0.0

-656937.8379603326 6.611277419373848e6 0.0
6.611277419373848e6 -205690.50109893383 0.0
0.0 0.0 0.0

-527423.1623079835 6.440874427864895e6 0.0
6.440874427864895e6 -1.2266087880308419e6 0.0
0.0 0.0 0.0

-482192.5947331678 5.5992121677965745e6 0.0
5.5992121677965745e6 -2.402856189274064e6 0.0
0.0 0.0 0.0

-751137.5421760008 6.541186674358294e6 0.0
6.541186674358294e6 -484226.5302432891 0.0
0.0 0.0 0.0

-2.4253646660497235e6 3.434547349443022e6 0.0
3.434547349443022e6 533201.0629811799 0.0
0.0 0.0 0.0

-3.6292424928917144e6 1.528358296365744e6 0.0
1.528358296365744e6 6.9006687587295845e6 0.0
0.0 0.0 0.0

-1.5457843387082478e6 7.557898294827695e6 0.0
7.557898294827695e6 -435660.1020462858 0.0
0.0 0.0 0.0

-1.0241319617967256e6 6.288534675360837e6 0.0
6.288534675360837e6 -1.3570702257246727e6 0.0
0.0 0.0 0.0

-103327.05096034898 4.163890483752911e6 0.0
4.163890483752911e6 -1.3467991538598384e6 0.0
0.0 0.0 0.0

-5.863537365010975e6 3.8710935676583215e6 0.0
3.8710935676583215e6 6.057621180595402e6 0.0
0.0 0.0 0.0

-924798.462085038 6.290219356640799e6 0.0
6.290219356640799e6 -191910.12804904714 0.0
0.0 0.0 0.0

-1.781597412860394e6 3.3472093527479763e6 0.0
3.3472093527479763e6 1.7039511518392651e6 0.0
0.0 0.0 0.0

-2.325304136201739e6 3.913869783429328e6 0.0
3.913869783429328e6 900616.9613868337 0.0
0.0 0.0 0.0

-2.7005946652323124e6 5.946020649428994e6 0.0
5.946020649428994e6 1.1186587883303165e6 0.0
0.0 0.0 0.0

-1.9241463687468967e6 3.312626771122889e6 0.0
3.312626771122889e6 1.2275260359143266e6 0.0
0.0 0.0 0.0

-2.033933627658079e6 3.2776779630016247e6 0.0
3.2776779630016247e6 2.0785741906871188e6 0.0
0.0 0.0 0.0

-1.2522097279674998e6 2.930078189308073e6 0.0
2.930078189308073e6 381463.21055387554 0.0
0.0 0.0 0.0

434554.156842652 667724.1095424278 0.0
667724.1095424278 -867587.4187084931 0.0
0.0 0.0 0.0

-2.604728235428478e6 4.405709893764226e6 0.0
4.405709893764226e6 1.1064737813758678e6 0.0
0.0 0.0 0.0

-525287.2727271125 5.2060482339698905e6 0.0
5.2060482339698905e6 -2.471499516384171e6 0.0
0.0 0.0 0.0

-760227.4417485311 4.790686161520748e6 0.0
4.790686161520748e6 -1.8026353529222384e6 0.0
0.0 0.0 0.0

-1.1803129628373165e7 3.647532386514745e6 0.0
3.647532386514745e6 6.6742982508430835e6 0.0
0.0 0.0 0.0

-881978.1887071964 138446.39766371326 0.0
138446.39766371326 2.227234475759607e6 0.0
0.0 0.0 0.0

-675484.9044472926 5.069965114600883e6 0.0
5.069965114600883e6 -1.681862724747116e6 0.0
0.0 0.0 0.0

-3.7130144050283246e6 5.136928247682715e6 0.0
5.136928247682715e6 1.161732504058179e6 0.0
0.0 0.0 0.0

-256716.57318834052 7.032259968715223e6 0.0
7.032259968715223e6 -405483.4465454796 0.0
0.0 0.0 0.0

678495.3694715687 523948.9894220374 0.0
523948.9894220374 -1.2072856442811482e6 0.0
0.0 0.0 0.0

-246671.1502799514 6.866474970188484e6 0.0
6.866474970188484e6 -249321.4052540656 0.0
0.0 0.0 0.0

-1.4654073133315586e6 6.353284943400847e6 0.0
6.353284943400847e6 -583161.6143202989 0.0
0.0 0.0 0.0

-381109.9493974766 2.617670318460491e6 0.0
2.617670318460491e6 -690478.2392109227 0.0
0.0 0.0 0.0

-51312.95032271941 576998.2879984018 0.0
576998.2879984018 -3.3219911671419507e6 0.0
0.0 0.0 0.0

-365344.8201868063 4.1533568930116007e6 0.0
4.1533568930116007e6 -1.959689421489939e6 0.0
0.0 0.0 0.0

-754144.6724476453 1.7037642130285304e6 0.0
1.7037642130285304e6 10462.741848318983 0.0
0.0 0.0 0.0

-1.3437291452490836e6 7.364956096316639e6 0.0
7.364956096316639e6 -643988.7458429699 0.0
0.0 0.0 0.0

-492820.3318971472 6.989289205448831e6 0.0
6.989289205448831e6 245513.4221294414 0.0
0.0 0.0 0.0

29346.69465549226 2.0377107667156549e6 0.0
2.0377107667156549e6 -1.3603014858749185e6 0.0
0.0 0.0 0.0

-2.5952460305580497e6 4.17468797794091e6 0.0
4.17468797794091e6 3.2422778364663525e6 0.0
0.0 0.0 0.0

-5.368951129063544e6 4.556069143900786e6 0.0
4.556069143900786e6 1.7917830699224772e6 0.0
0.0 0.0 0.0

-273186.6037594815 1.7866620896885116e6 0.0
1.7866620896885116e6 -698151.4192548608 0.0
0.0 0.0 0.0

-532830.9291073713 6.8076888467808645e6 0.0
6.8076888467808645e6 -305912.79763770185 0.0
0.0 0.0 0.0

-794507.6475264651 6.1536010470641265e6 0.0
6.1536010470641265e6 -1.7539376839906902e6 0.0
0.0 0.0 0.0

-3.2558834027991523e6 5.919772135590638e6 0.0
5.919772135590638e6 -226615.703994198 0.0
0.0 0.0 0.0

324454.21644661005 1.5245566328093496e6 0.0
1.5245566328093496e6 -1.5126670223941272e6 0.0
0.0 0.0 0.0

-3.0282530518883783e6 6.838795777430893e6 0.0
6.838795777430893e6 992994.548883287 0.0
0.0 0.0 0.0

934533.2071041632 4.982860327722771e6 0.0
4.982860327722771e6 1.9747586839040958e6 0.0
0.0 0.0 0.0

-1.7764785083735397e6 5.961857870205002e6 0.0
5.961857870205002e6 -99598.47539778473 0.0
0.0 0.0 0.0

-731363.5131777856 6.214717509483764e6 0.0
6.214717509483764e6 -1.5660446702781403e6 0.0
0.0 0.0 0.0

-2.2583252620766186e6 4.953051231447485e6 0.0
4.953051231447485e6 695261.2994726415 0.0
0.0 0.0 0.0

-1.5511456148651298e6 -894690.880307906 0.0
-894690.880307906 3.8689838382978574e6 0.0
0.0 0.0 0.0

-1.9577992890030348e6 4.91767517775073e6 0.0
4.91767517775073e6 1.6725140525885795e6 0.0
0.0 0.0 0.0

-4.161437469841296e6 4.6461867977689365e6 0.0
4.6461867977689365e6 1.3414248480153566e6 0.0
0.0 0.0 0.0

-225597.5131157844 4.826277501801303e6 0.0
4.826277501801303e6 -2.376612769454398e6 0.0
0.0 0.0 0.0

-806675.8911758619 5.771366669763597e6 0.0
5.771366669763597e6 -1.2093147165252017e6 0.0
0.0 0.0 0.0

-865024.7082915944 5.710985397109829e6 0.0
5.710985397109829e6 -1.299967482818774e6 0.0
0.0 0.0 0.0

-1.8775441321164612e6 2.1873227201395896e6 0.0
2.1873227201395896e6 2.9704062308690604e6 0.0
0.0 0.0 0.0

-2.4568867692600247e6 4.051177623682163e6 0.0
4.051177623682163e6 905835.6524006287 0.0
0.0 0.0 0.0

-2.4257113714542903e7 1.8641476065209485e6 0.0
1.8641476065209485e6 3.2464497905491162e7 0.0
0.0 0.0 0.0

-643455.0897538285 4.1526559113479173e6 0.0
4.1526559113479173e6 -3.352444058316627e6 0.0
0.0 0.0 0.0

-6.59783305513599e6 4.329141208346932e6 0.0
4.329141208346932e6 4.0383968752224725e6 0.0
0.0 0.0 0.0

-1.0356980715122648e6 6.256729329030719e6 0.0
6.256729329030719e6 -161169.352576289 0.0
0.0 0.0 0.0

-4.639000176605226e6 7.383163887191874e6 0.0
7.383163887191874e6 -538005.8212739622 0.0
0.0 0.0 0.0

794976.085629575 1.0296847458956825e6 0.0
1.0296847458956825e6 -1.1673898629957116e6 0.0
0.0 0.0 0.0

-1.8751081374181653e6 3.4055939307454913e6 0.0
3.4055939307454913e6 968885.9562830991 0.0
0.0 0.0 0.0

-3.21613009902672e6 6.9263144214056255e6 0.0
6.9263144214056255e6 224867.40421042638 0.0
0.0 0.0 0.0

-496890.98652041773 2.157477519148115e6 0.0
2.157477519148115e6 867985.3814370615 0.0
0.0 0.0 0.0

1.631887698355016e6 6.5321669547952395e6 0.0
6.5321669547952395e6 1.9625754963417833e6 0.0
0.0 0.0 0.0

-543747.8691418153 6.87170204584571e6 0.0
6.87170204584571e6 16389.41998407332 0.0
0.0 0.0 0.0

-2.0528775884787696e6 3.7486500235116454e6 0.0
3.7486500235116454e6 1.0093687063983876e6 0.0
0.0 0.0 0.0

-6.681954572235227e6 3.5379331375647853e6 0.0
3.5379331375647853e6 265894.6337707648 0.0
0.0 0.0 0.0

-337853.8906411805 6.2646953489408605e6 0.0
6.2646953489408605e6 -1.511965974921647e6 0.0
0.0 0.0 0.0

-568950.1609313439 6.480219248419151e6 0.0
6.480219248419151e6 -1.1208052624954928e6 0.0
0.0 0.0 0.0

-2.4630095434015873e6 5.077277815179348e6 0.0
5.077277815179348e6 642305.714802104 0.0
0.0 0.0 0.0

-1.9119121505128043e6 6.074556421440951e6 0.0
6.074556421440951e6 84315.8930009153 0.0
0.0 0.0 0.0

-275525.0662890899 5.323562817614225e6 0.0
5.323562817614225e6 -1.911073306322459e6 0.0
0.0 0.0 0.0

-547273.6387093634 6.728278919362169e6 0.0
6.728278919362169e6 -1.0596318092174092e6 0.0
0.0 0.0 0.0

-1.5594609012267184e6 4.381366794805795e6 0.0
4.381366794805795e6 998388.65956375 0.0
0.0 0.0 0.0

-4.297946202753689e6 7.576031103150077e6 0.0
7.576031103150077e6 1.7157391496347578e6 0.0
0.0 0.0 0.0

-2.431656536261718e6 4.488342126221859e6 0.0
4.488342126221859e6 896967.0691670671 0.0
0.0 0.0 0.0

-4.947015717120043e6 4.580686688962992e6 0.0
4.580686688962992e6 1.8434710329461982e6 0.0
0.0 0.0 0.0

-517254.4202760309 5.571626412198376e6 0.0
5.571626412198376e6 -2.472224156743015e6 0.0
0.0 0.0 0.0

-930814.0325383854 4.719070675961602e6 0.0
4.719070675961602e6 -2.6694147438089424e6 0.0
0.0 0.0 0.0

-6.907022444214766e6 1.343362030469489e7 0.0
1.343362030469489e7 1.4961382569075203e7 0.0
0.0 0.0 0.0

-537152.3352462861 6.964874742120346e6 0.0
6.964874742120346e6 123221.39720750498 0.0
0.0 0.0 0.0

-235231.27171389293 3.8370691707930993e6 0.0
3.8370691707930993e6 -2.563834173449995e6 0.0
0.0 0.0 0.0

-4.473063853831995e6 7.42044682971706e6 0.0
7.42044682971706e6 1.4510146240026879e6 0.0
0.0 0.0 0.0

-1.7104918831009024e6 8.717351270958584e6 0.0
8.717351270958584e6 -362441.45669581636 0.0
0.0 0.0 0.0

-923571.0191671338 6.336822140152229e6 0.0
6.336822140152229e6 488983.37074104784 0.0
0.0 0.0 0.0

-1.227919409933948e6 7.415532188470057e6 0.0
7.415532188470057e6 -564786.5415191853 0.0
0.0 0.0 0.0

-6.658626954952311e6 3.212513304589872e6 0.0
3.212513304589872e6 953118.7000121367 0.0
0.0 0.0 0.0

-3.9716669359394554e6 4.617706574116719e6 0.0
4.617706574116719e6 1.2785269529134608e6 0.0
0.0 0.0 0.0

-2.4967300361941494e6 5.206056472142788e6 0.0
5.206056472142788e6 544989.6023459136 0.0
0.0 0.0 0.0

-43477.33070594631 3.316610304445422e6 0.0
3.316610304445422e6 -3.5148221341213454e6 0.0
0.0 0.0 0.0

-593630.2675799737 1.0072476285701042e7 0.0
1.0072476285701042e7 -1.048205099227751e6 0.0
0.0 0.0 0.0

-397437.9452322571 4.746404305879591e6 0.0
4.746404305879591e6 -2.390137225376478e6 0.0
0.0 0.0 0.0

-791598.3078194025 1.0004388582526805e7 0.0
1.0004388582526805e7 -804649.020557517 0.0
0.0 0.0 0.0

-356304.9992769342 5.289492825309639e6 0.0
5.289492825309639e6 -1.8724995876256635e6 0.0
0.0 0.0 0.0

-583105.991821831 6.8743505201961305e6 0.0
6.8743505201961305e6 -240134.68415329832 0.0
0.0 0.0 0.0

-2.9195751193015114e6 4.920242819033547e6 0.0
4.920242819033547e6 801558.1346656878 0.0
0.0 0.0 0.0

346650.30684301944 348603.4928706355 0.0
348603.4928706355 -801834.2774757938 0.0
0.0 0.0 0.0

926727.167517883 8.844292588135416e6 0.0
8.844292588135416e6 -1.979247594378477e6 0.0
0.0 0.0 0.0

-2.2318581272222754e7 -811184.6530351841 0.0
-811184.6530351841 1.2942811366918681e7 0.0
0.0 0.0 0.0

-2.012037021217056e6 2.4250442937897327e6 0.0
2.4250442937897327e6 2.3672556398161193e6 0.0
0.0 0.0 0.0

-1.968878723352584e6 5.525087625307398e6 0.0
5.525087625307398e6 169027.29440534697 0.0
0.0 0.0 0.0

-637928.9908996663 7.081796377195194e6 0.0
7.081796377195194e6 -1.375370655450188e6 0.0
0.0 0.0 0.0

-75843.86811552569 3.4966691879927805e6 0.0
3.4966691879927805e6 -2.6104196809470956e6 0.0
0.0 0.0 0.0

-1.2935140526003444e6 5.976243590888597e6 0.0
5.976243590888597e6 -120797.76003032317 0.0
0.0 0.0 0.0

-304747.9031442725 -447630.93454803736 0.0
-447630.93454803736 956181.12806012 0.0
0.0 0.0 0.0

-716890.4653216272 5.5054081159585165e6 0.0
5.5054081159585165e6 -2.7000405837458726e6 0.0
0.0 0.0 0.0

-2.842361175851809e6 1.4288920780495374e7 0.0
1.4288920780495374e7 2.9756631625094946e7 0.0
0.0 0.0 0.0

-555601.5987216261 4.569093183001736e6 0.0
4.569093183001736e6 -2.0577991023782252e6 0.0
0.0 0.0 0.0

1.483455081056274e6 2.0370673129788477e6 0.0
2.0370673129788477e6 -1.425689135849229e6 0.0
0.0 0.0 0.0

-2.431825726353255e6 4.45586124415178e6 0.0
4.45586124415178e6 3.018495687946932e6 0.0
0.0 0.0 0.0

-2.2175869613782912e6 -1.0585146202518228e6 0.0
-1.0585146202518228e6 4.1113230036593806e6 0.0
0.0 0.0 0.0

453445.83688885835 1.7644408405630246e6 0.0
1.7644408405630246e6 -2.0228023492318268e6 0.0
0.0 0.0 0.0

-3.6550466022064523e6 9.267462687475575e6 0.0
9.267462687475575e6 1.0871203082700025e6 0.0
0.0 0.0 0.0

-1.5959673241015186e6 7.069378244571887e6 0.0
7.069378244571887e6 -705101.8236751806 0.0
0.0 0.0 0.0

-319662.3097966663 7.156251932388695e6 0.0
7.156251932388695e6 -318656.1059201128 0.0
0.0 0.0 0.0

-1.8299206494361497e6 5.925965695424725e6 0.0
5.925965695424725e6 -57719.40092131996 0.0
0.0 0.0 0.0

-5.211809985881817e6 7.866978943445206e6 0.0
7.866978943445206e6 581906.9452138764 0.0
0.0 0.0 0.0

-3.765196870453202e6 4.473844666468376e6 0.0
4.473844666468376e6 1.1739191680603954e6 0.0
0.0 0.0 0.0

-343075.4257286288 6.7361783823293485e6 0.0
6.7361783823293485e6 -496945.96317551855 0.0
0.0 0.0 0.0

-821164.8606737951 6.399876510426153e6 0.0
6.399876510426153e6 -159281.0946164985 0.0
0.0 0.0 0.0

-933086.3689012541 6.329536163194467e6 0.0
6.329536163194467e6 -1.3037611180603073e6 0.0
0.0 0.0 0.0

-1.2320500829910606e6 7.251113334569362e6 0.0
7.251113334569362e6 -764262.0780714985 0.0
0.0 0.0 0.0

-2.6754385480331867e6 -644750.9234553266 0.0
-644750.9234553266 3.430787566936941e6 0.0
0.0 0.0 0.0

-5.944965698217806e6 3.280953889250243e6 0.0
3.280953889250243e6 2.543764282111754e6 0.0
0.0 0.0 0.0

-4.6355130981555395e6 4.478942225178556e6 0.0
4.478942225178556e6 1.1654194431510053e6 0.0
0.0 0.0 0.0

-1.1917147840931328e7 -398367.6255826315 0.0
-398367.6255826315 9.350219907457724e6 0.0
0.0 0.0 0.0

-429952.42423644615 6.596021314040381e6 0.0
6.596021314040381e6 -519533.8454694471 0.0
0.0 0.0 0.0

-2.2294369929630174e6 5.9061905277068755e6 0.0
5.9061905277068755e6 -19842.87618646107 0.0
0.0 0.0 0.0

-7.650370496659939e6 3.2837607537676985e6 0.0
3.2837607537676985e6 5.532497531548714e6 0.0
0.0 0.0 0.0

146359.33990004926 2.395331876007733e6 0.0
2.395331876007733e6 -1.8701830861496243e6 0.0
0.0 0.0 0.0

-377024.25017842074 7.099688131467267e6 0.0
7.099688131467267e6 -351434.65417802066 0.0
0.0 0.0 0.0

-67048.392059654 3.7888892461737534e6 0.0
3.7888892461737534e6 -2.490315506299606e6 0.0
0.0 0.0 0.0

-1.6669617418754937e6 2.505989577048378e6 0.0
2.505989577048378e6 2.507025416443823e6 0.0
0.0 0.0 0.0

-1.7990083191400054e6 -1.0902302715651859e6 0.0
-1.0902302715651859e6 3.1563504093436357e6 0.0
0.0 0.0 0.0

311226.17747710587 3.531798858783721e6 0.0
3.531798858783721e6 -3.042004976649335e6 0.0
0.0 0.0 0.0

-1.4940842810677905e7 1.6370799974935846e6 0.0
1.6370799974935846e6 8.346184296126868e6 0.0
0.0 0.0 0.0

-468516.4531002654 262790.319540177 0.0
262790.319540177 768332.4643765189 0.0
0.0 0.0 0.0

-68210.84347888708 425857.7700099469 0.0
425857.7700099469 44909.11467534879 0.0
0.0 0.0 0.0

405916.4931680913 2.521483727079546e6 0.0
2.521483727079546e6 -1.1279564644577927e6 0.0
0.0 0.0 0.0

-148423.1754398305 1.008427363048387e6 0.0
1.008427363048387e6 564020.7715913513 0.0
0.0 0.0 0.0

-8.900589806574935e6 1.1353197357779162e7 0.0
1.1353197357779162e7 2.821208218198901e6 0.0
0.0 0.0 0.0

-2.1161231871394967e6 3.8627691004867987e6 0.0
3.8627691004867987e6 1.0553569657072192e6 0.0
0.0 0.0 0.0

-68417.03148696967 5.042704546823177e6 0.0
5.042704546823177e6 -3.5767173798562298e6 0.0
0.0 0.0 0.0

-318502.4539018469 3.3560601816744795e6 0.0
3.3560601816744795e6 -2.914070666195797e6 0.0
0.0 0.0 0.0

-2.497494806252642e6 3.9280255625853324e6 0.0
3.9280255625853324e6 904590.2651239355 0.0
0.0 0.0 0.0

-5.093149056858776e6 4.386876849996245e6 0.0
4.386876849996245e6 1.5173589911043781e6 0.0
0.0 0.0 0.0

27260.233938664664 2.651427335943356e6 0.0
2.651427335943356e6 1.7150883300188158e6 0.0
0.0 0.0 0.0

-2.586367905815034e6 4.523417872363248e6 0.0
4.523417872363248e6 3.4576307037432855e6 0.0
0.0 0.0 0.0

-698032.1733603328 9.83681306767343e6 0.0
9.83681306767343e6 -1.244761779222044e6 0.0
0.0 0.0 0.0

-227419.75380229007 214745.0248992623 0.0
214745.0248992623 602375.6666827976 0.0
0.0 0.0 0.0

-7.880368595080319e6 572973.7531276093 0.0
572973.7531276093 3.949137557315862e6 0.0
0.0 0.0 0.0

-3.750427981123478e6 4.500241549362539e6 0.0
4.500241549362539e6 1.1667219308768436e6 0.0
0.0 0.0 0.0

-3.2019117361389105e6 6.228607490514172e6 0.0
6.228607490514172e6 7.085892753960609e6 0.0
0.0 0.0 0.0

-469681.0010908701 1.0078647366171323e7 0.0
1.0078647366171323e7 -1.0795131140693538e6 0.0
0.0 0.0 0.0

-2.710366727915138e6 6.27839070665298e6 0.0
6.27839070665298e6 1.1537134538139948e6 0.0
0.0 0.0 0.0

-2.02725588071148e6 5.225989042291403e6 0.0
5.225989042291403e6 797549.9767497458 0.0
0.0 0.0 0.0

-2.218335892017736e6 5.9202093908746885e6 0.0
5.9202093908746885e6 920741.1021063322 0.0
0.0 0.0 0.0

-2.1246061491669446e7 2.6730693500110884e6 0.0
2.6730693500110884e6 9.944511693174608e6 0.0
0.0 0.0 0.0

-2.217319325142266e6 3.794281407179449e6 0.0
3.794281407179449e6 944405.9448821095 0.0
0.0 0.0 0.0

-2.4937976215587063e6 6.259964406877626e6 0.0
6.259964406877626e6 753081.3714474086 0.0
0.0 0.0 0.0

-1.760874211732784e6 5.394518930134085e6 0.0
5.394518930134085e6 647568.1037941987 0.0
0.0 0.0 0.0

-925292.1746267551 9.212801451426253e6 0.0
9.212801451426253e6 -1.0089443076483386e6 0.0
0.0 0.0 0.0

-213310.46786027116 3.4845712010784694e6 0.0
3.4845712010784694e6 -2.216369013151987e6 0.0
0.0 0.0 0.0

-1.2233592235003917e6 7.97499764289965e6 0.0
7.97499764289965e6 -732808.8372521579 0.0
0.0 0.0 0.0

-9.567137318071771e6 2.9317020718490616e6 0.0
2.9317020718490616e6 2.5247531290705395e6 0.0
0.0 0.0 0.0

-3.135130688527419e6 5.03595219096989e6 0.0
5.03595219096989e6 780078.3677419014 0.0
0.0 0.0 0.0

419141.5526645221 697201.3713395657 0.0
697201.3713395657 -1.0241830352317797e6 0.0
0.0 0.0 0.0

-1.1498910427127064e6 6.500618185622562e6 0.0
6.500618185622562e6 -961514.0110318941 0.0
0.0 0.0 0.0

470772.0410485199 8.294329019836268e6 0.0
8.294329019836268e6 -2.8401251097104116e6 0.0
0.0 0.0 0.0

-7.685943258660344e6 6.748602187994044e6 0.0
6.748602187994044e6 509043.6181521062 0.0
0.0 0.0 0.0

-349908.1776982632 7.105072414381755e6 0.0
7.105072414381755e6 -518674.300640115 0.0
0.0 0.0 0.0

-110521.93595957407 3.8721500727311433e6 0.0
3.8721500727311433e6 -2.618561689615772e6 0.0
0.0 0.0 0.0

-1.0707206978088107e6 6.4052587084180955e6 0.0
6.4052587084180955e6 -1.2504776142767149e6 0.0
0.0 0.0 0.0

-1.0562254406292508e6 6.098463460286625e6 0.0
6.098463460286625e6 -116403.60230027096 0.0
0.0 0.0 0.0

-4.78373985927701e6 4.304827160167897e6 0.0
4.304827160167897e6 1.633630166838587e6 0.0
0.0 0.0 0.0

-2.2873279162762375e6 6.446484405652104e6 0.0
6.446484405652104e6 410431.54319676117 0.0
0.0 0.0 0.0

-232224.12650322937 2.766842706265546e6 0.0
2.766842706265546e6 -2.550084976526542e6 0.0
0.0 0.0 0.0

-2.8459058112306115e6 6.890432401776677e6 0.0
6.890432401776677e6 2.9584010322482605e6 0.0
0.0 0.0 0.0

-256254.78329203965 5.344565359456933e6 0.0
5.344565359456933e6 -2.1393886319680223e6 0.0
0.0 0.0 0.0

-6.723663024300148e6 5.543847077878708e6 0.0
5.543847077878708e6 -2.064992742114177e6 0.0
0.0 0.0 0.0

-432866.47358890774 900407.0702728818 0.0
900407.0702728818 -115214.65551398665 0.0
0.0 0.0 0.0

-233624.8130803287 1.0227473969691625e6 0.0
1.0227473969691625e6 700208.8334531235 0.0
0.0 0.0 0.0

1.1736425867985878e6 7.298684134448761e6 0.0
7.298684134448761e6 -1.7136900945580788e6 0.0
0.0 0.0 0.0

-481376.4305722286 250609.27476723987 0.0
250609.27476723987 712977.1057318876 0.0
0.0 0.0 0.0

-165174.42643849543 7.093574704418853e6 0.0
7.093574704418853e6 -463621.1945574599 0.0
0.0 0.0 0.0

-825787.8149193063 7.217299205220096e6 0.0
7.217299205220096e6 277803.88983896666 0.0
0.0 0.0 0.0

-4.7807791262544505e6 6.268828316806483e6 0.0
6.268828316806483e6 1.6374976971162716e6 0.0
0.0 0.0 0.0

-5.515043604807468e6 -1.0319395838812469e6 0.0
-1.0319395838812469e6 6.281874893940635e6 0.0
0.0 0.0 0.0

-194892.55419755692 5.097732030827861e6 0.0
5.097732030827861e6 -2.3774501936395327e6 0.0
0.0 0.0 0.0

236970.18203397543 1.9727737879559768e6 0.0
1.9727737879559768e6 -1.176554727741283e6 0.0
0.0 0.0 0.0

-1.1562291785247044e6 6.172116644406075e6 0.0
6.172116644406075e6 -186512.4303735349 0.0
0.0 0.0 0.0

-583497.9555180231 6.989771652979875e6 0.0
6.989771652979875e6 500297.96713971964 0.0
0.0 0.0 0.0

-838450.1569284678 374751.35457521223 0.0
374751.35457521223 552476.6126471794 0.0
0.0 0.0 0.0

-3.821304087881462e6 1.1224248767807784e6 0.0
1.1224248767807784e6 3.542410395108626e6 0.0
0.0 0.0 0.0

-2.333022811551048e6 3.356545561524474e6 0.0
3.356545561524474e6 564493.5385132731 0.0
0.0 0.0 0.0

-2.0492803825309717e6 1.3878159250336213e6 0.0
1.3878159250336213e6 4.0987426464448897e6 0.0
0.0 0.0 0.0

-771096.1681941662 6.805539231326209e6 0.0
6.805539231326209e6 -1.1768836092729536e6 0.0
0.0 0.0 0.0

-303485.3010000491 736492.2098866769 0.0
736492.2098866769 65163.62693586649 0.0
0.0 0.0 0.0

-6.21629987510456e6 -1.6646055261755208e6 0.0
-1.6646055261755208e6 7.63461032864785e6 0.0
0.0 0.0 0.0

-705152.8764314929 6.777770213251045e6 0.0
6.777770213251045e6 -1.2275528318956043e6 0.0
0.0 0.0 0.0

-1.3111548602255466e6 7.146219887256014e6 0.0
7.146219887256014e6 -579369.368128482 0.0
0.0 0.0 0.0

-4.850032266139884e6 -973219.3797692914 0.0
-973219.3797692914 8.850899590042133e6 0.0
0.0 0.0 0.0

-710510.1732456224 9.22200039771962e6 0.0
9.22200039771962e6 -984297.2923693198 0.0
0.0 0.0 0.0

-349219.04351977 7.153139358115085e6 0.0
7.153139358115085e6 -311270.59322016407 0.0
0.0 0.0 0.0

-1.214387061284457e6 2.969253744790639e6 0.0
2.969253744790639e6 -157601.29288521942 0.0
0.0 0.0 0.0

-2.0656647309969987e6 -276204.4987626842 0.0
-276204.4987626842 2.215762089688896e6 0.0
0.0 0.0 0.0

-1.8497221212984382e6 -250201.31411391022 0.0
-250201.31411391022 1.1612429419361602e6 0.0
0.0 0.0 0.0

