# vtk DataFile Version 2.0
phase field modeling fracture
ASCII
DATASET UNSTRUCTURED_GRID
POINTS 2538 float
0.0 0.0 0.0
10.0 0.0 0.0
0.0 10.0 0.0
10.0 10.0 0.0
0.0 4.9995 0.0
0.0 5.0005 0.0
5.0 5.0 0.0
0.9416964895726688 0.0 0.0
1.803581725054446 0.0 0.0
2.592419885431098 0.0 0.0
3.314401822861676 0.0 0.0
3.975193910351406 0.0 0.0
4.579982132660152 0.0 0.0
5.133512780936812 0.0 0.0
5.640130319506143 0.0 0.0
6.103810708661955 0.0 0.0
6.528192895506818 0.0 0.0
6.916607540127679 0.0 0.0
7.272102969376355 0.0 0.0
7.597469242948583 0.0 0.0
7.895259826292669 0.0 0.0
8.167811885738017 0.0 0.0
8.417264413845215 0.0 0.0
8.645575169389538 0.0 0.0
8.854535961159101 0.0 0.0
9.045786767735546 0.0 0.0
9.220828555767493 0.0 0.0
9.38103509633881 0.0 0.0
9.527663687265145 0.0 0.0
9.661865124984566 0.0 0.0
9.784692609918062 0.0 0.0
9.897110148790482 0.0 0.0
10.0 0.09999999999992584 0.0
10.0 0.199999999999856 0.0
10.0 0.2999999999997771 0.0
10.0 0.3999999999996677 0.0
10.0 0.4999999999995511 0.0
10.0 0.5999999999994683 0.0
10.0 0.6999999999993983 0.0
10.0 0.7999999999993286 0.0
10.0 0.8999999999992587 0.0
10.0 0.9999999999991888 0.0
10.0 1.099999999999119 0.0
10.0 1.199999999999033 0.0
10.0 1.299999999998852 0.0
10.0 1.399999999998576 0.0
10.0 1.499999999998284 0.0
10.0 1.599999999997992 0.0
10.0 1.6999999999977 0.0
10.0 1.799999999997408 0.0
10.0 1.899999999997116 0.0
10.0 1.999999999996825 0.0
10.0 2.099999999996533 0.0
10.0 2.199999999996241 0.0
10.0 2.299999999995949 0.0
10.0 2.399999999995657 0.0
10.0 2.499999999995365 0.0
10.0 2.599999999995073 0.0
10.0 2.699999999994782 0.0
10.0 2.79999999999449 0.0
10.0 2.899999999994198 0.0
10.0 2.999999999993906 0.0
10.0 3.099999999993614 0.0
10.0 3.199999999993322 0.0
10.0 3.299999999993029 0.0
10.0 3.399999999992738 0.0
10.0 3.499999999992446 0.0
10.0 3.599999999992154 0.0
10.0 3.699999999991863 0.0
10.0 3.799999999991571 0.0
10.0 3.899999999991278 0.0
10.0 3.999999999991022 0.0
10.0 4.099999999991035 0.0
10.0 4.199999999991187 0.0
10.0 4.299999999991338 0.0
10.0 4.399999999991491 0.0
10.0 4.499999999991642 0.0
10.0 4.599999999991795 0.0
10.0 4.699999999991947 0.0
10.0 4.799999999992099 0.0
10.0 4.89999999999225 0.0
10.0 4.999999999992403 0.0
10.0 5.099999999992555 0.0
10.0 5.199999999992706 0.0
10.0 5.299999999992858 0.0
10.0 5.39999999999301 0.0
10.0 5.499999999993161 0.0
10.0 5.599999999993313 0.0
10.0 5.699999999993466 0.0
10.0 5.799999999993618 0.0
10.0 5.899999999993771 0.0
10.0 5.999999999993922 0.0
10.0 6.099999999994074 0.0
10.0 6.199999999994227 0.0
10.0 6.299999999994378 0.0
10.0 6.39999999999453 0.0
10.0 6.499999999994682 0.0
10.0 6.599999999994833 0.0
10.0 6.699999999994986 0.0
10.0 6.799999999995138 0.0
10.0 6.899999999995289 0.0
10.0 6.999999999995442 0.0
10.0 7.099999999995594 0.0
10.0 7.199999999995747 0.0
10.0 7.299999999995897 0.0
10.0 7.39999999999605 0.0
10.0 7.499999999996202 0.0
10.0 7.599999999996353 0.0
10.0 7.699999999996505 0.0
10.0 7.799999999996658 0.0
10.0 7.899999999996808 0.0
10.0 7.999999999996962 0.0
10.0 8.099999999997113 0.0
10.0 8.199999999997265 0.0
10.0 8.299999999997418 0.0
10.0 8.399999999997569 0.0
10.0 8.499999999997721 0.0
10.0 8.599999999997873 0.0
10.0 8.699999999998024 0.0
10.0 8.799999999998176 0.0
10.0 8.899999999998329 0.0
10.0 8.99999999999848 0.0
10.0 9.099999999998634 0.0
10.0 9.199999999998786 0.0
10.0 9.299999999998937 0.0
10.0 9.399999999999089 0.0
10.0 9.499999999999241 0.0
10.0 9.599999999999392 0.0
10.0 9.699999999999545 0.0
10.0 9.799999999999697 0.0
10.0 9.899999999999848 0.0
9.897110148790565 10.0 0.0
9.784692609918244 10.0 0.0
9.66186512498486 10.0 0.0
9.527663687265571 10.0 0.0
9.381035096339392 10.0 0.0
9.220828555768257 10.0 0.0
9.045786767736512 10.0 0.0
8.854535961160305 10.0 0.0
8.645575169391027 10.0 0.0
8.417264413847017 10.0 0.0
8.167811885740178 10.0 0.0
7.895259826295246 10.0 0.0
7.597469242951631 10.0 0.0
7.272102969379938 10.0 0.0
6.916607540131873 10.0 0.0
6.528192895511704 10.0 0.0
6.103810708667616 10.0 0.0
5.640130319512691 10.0 0.0
5.13351278094435 10.0 0.0
4.579982132668816 10.0 0.0
3.975193910361222 10.0 0.0
3.314401822869852 10.0 0.0
2.592419885437257 10.0 0.0
1.803581725058137 10.0 0.0
0.9416964895740705 10.0 0.0
0.0 9.00010000000243 0.0
0.0 8.000200000005481 0.0
0.0 7.000300000005135 0.0
0.0 6.000400000002569 0.0
0.901790731451151 5.000409820926855 0.0
1.657200899774397 5.000334279910023 0.0
2.289991063707192 5.000271000893629 0.0
2.820065163538221 5.000217993483646 0.0
3.264096435579811 5.000173590356442 0.0
3.636051481595835 5.00013639485184 0.0
3.947629914072366 5.000105237008593 0.0
4.208632181002628 5.0000791367819 0.0
4.427267949625672 5.000057273205037 0.0
4.610414277633563 5.000038958572237 0.0
4.763831845154243 5.000023616815485 0.0
4.892346298799659 5.00001076537012 0.0
4.892346298799748 4.99998923462988 0.0
4.763831845154455 4.999976383184515 0.0
4.610414277633943 4.999961041427763 0.0
4.427267949626277 4.999942726794963 0.0
4.208632181003523 4.9999208632181 0.0
3.94762991407365 4.999894762991407 0.0
3.636051481597624 4.99986360514816 0.0
3.264096435582253 4.999826409643559 0.0
2.820065163541503 4.999782006516354 0.0
2.289991063711534 4.999728999106371 0.0
1.657200899778495 4.999665720089978 0.0
0.9017907314530094 4.999590179073145 0.0
0.0 3.999600000002013 0.0
0.0 2.999700000005187 0.0
0.0 1.99980000000512 0.0
0.0 0.9999000000025537 0.0
9.897889398521345 2.93573355845387 0.0
9.906568249974548 7.060009441434234 0.0
9.913122631074113 3.64016132281653 0.0
9.922462129543863 6.354535290629151 0.0
9.917693659967533 4.354211663134567 0.0
9.909873057440208 5.637584487339942 0.0
9.914183254994697 4.950672966925282 0.0
9.913885043715895 7.666887930262611 0.0
9.91009668007573 2.351889069770817 0.0
9.905135696074536 8.138152454502785 0.0
9.913397459621809 1.849999999997262 0.0
7.099302372137626 0.297750452375005 0.0
7.095143729410097 9.700359990366296 0.0
4.942912558701401 5.095838627899509 0.0
4.315009232304429 5.165022115481685 0.0
4.946182472483878 4.906763777264103 0.0
4.317967462990024 4.825955043772673 0.0
9.916390871492647 8.64999999999792 0.0
9.921504649680616 1.368376469890358 0.0
8.292538149791614 0.206877570318844 0.0
8.292538149793597 9.793122429681448 0.0
5.884594439766573 9.587645267048616 0.0
5.794826292691579 0.3794853783929359 0.0
9.913397459621425 9.049999999998557 0.0
9.908526577714177 0.9568239351922434 0.0
3.456851160380649 5.315740054130451 0.0
3.457889657868442 4.707121019609468 0.0
8.945214200703926 0.1503383337970344 0.0
8.950161364448409 9.8413906539257 0.0
9.913862335499305 4.055887885208452 0.0
9.916697353372683 4.650158482607802 0.0
9.919076340414442 6.049999999994006 0.0
9.906994308667635 5.25749687748192 0.0
9.917490342358025 6.655979201891897 0.0
9.915757520293784 7.343848891656911 0.0
9.910049507471042 3.363474386285078 0.0
9.914471988502868 2.647400064832979 0.0
9.91474124160965 9.337490423485129 0.0
9.916971008170838 0.6499999999994355 0.0
4.307157269264427 9.509674045029644 0.0
4.331527375865619 0.4401616696422582 0.0
9.45434939180249 9.878397030523757 0.0
9.457696120412969 0.1270877537061785 0.0
2.555070293622606 5.422044496190925 0.0
2.566232917480916 4.608001224030952 0.0
3.026511860837692 9.332320638257093 0.0
2.945561971800619 0.5895662714727601 0.0
7.7395404387124 0.2511088946967771 0.0
7.736379255744154 9.745848826372828 0.0
4.687135269408529 5.122111433928926 0.0
4.688420821504113 4.871895064967488 0.0
9.910554884115975 0.3448356354522978 0.0
9.911230082250466 9.65764729394159 0.0
9.921953841410854 6.851023993342036 0.0
9.912065178606017 5.448170483544033 0.0
9.911660025326261 3.861846960030188 0.0
9.914847467973438 3.14501593945607 0.0
9.913397459621425 5.849999999993703 0.0
9.913397459621425 7.849999999996735 0.0
9.906916878988277 2.15455769998631 0.0
9.913397459621425 8.349999999997479 0.0
9.909472363117661 1.640528221515488 0.0
9.913987325695956 1.152857110636247 0.0
9.913397459621425 8.849999999998241 0.0
0.9100099990995943 2.614215977520411 0.0
0.8395284981715456 7.451196254860987 0.0
9.723278867451556 9.898135916635193 0.0
9.723316350887044 0.09841820909386662 0.0
1.385819164827588 4.454539963646463 0.0
1.338343629665047 5.523111536005823 0.0
1.377179700550677 0.6809168304959698 0.0
1.418060461092743 9.285896715136046 0.0
9.91268220142518 0.1457914080939694 0.0
9.906737126737994 9.845745933882352 0.0
0.7108351382691361 6.537941170074089 0.0
1.527735020267026 6.915620208855231 0.0
1.630993885659103 7.838271825205868 0.0
2.232760943566823 7.370850737296832 0.0
2.243414218068206 6.688299277952821 0.0
2.779655053105118 7.021588754814074 0.0
2.80227799359795 7.632420170547022 0.0
3.282022065908813 7.305859666021318 0.0
3.327597298795347 7.857554136825748 0.0
3.743210251018715 7.549183328204379 0.0
3.716353232200752 7.062036086888612 0.0
4.111978858674101 7.27497101169417 0.0
4.104192177581432 6.879858986267289 0.0
4.436230765617037 7.045693351607117 0.0
4.430360014817357 6.703971783962796 0.0
4.732390145036301 6.849841042423394 0.0
5.056161327708878 5.095276573498806 0.0
5.111586796021131 4.999081142133581 0.0
5.169267363407189 5.09444870412406 0.0
5.223795108752053 4.996986220359468 0.0
5.281480803887719 5.092780870372803 0.0
5.335670761900611 4.994887492556936 0.0
5.393485214772442 5.090486192743301 0.0
5.447323082877892 4.992601527033996 0.0
5.505243219343024 5.087953380710069 0.0
5.558739102026105 4.990287787962959 0.0
5.616491581184779 5.085335255235766 0.0
5.669852346908056 4.9879269227514 0.0
5.727502713908907 5.082679981817038 0.0
5.780766004135139 4.988313988715834 0.0
5.838244881129535 5.080480568766611 0.0
5.891357695677371 4.986433849408193 0.0
5.948696036767613 5.077969900389505 0.0
6.001601341641615 4.981313698556656 0.0
6.058851024265095 5.074871552128682 0.0
6.111614020704875 4.978360695880202 0.0
6.168801161530775 5.072044953270978 0.0
6.221368818778567 4.975825765213497 0.0
6.278268309066882 5.066182320461055 0.0
6.330814273567539 4.972837984645718 0.0
6.387565032421376 5.062889771971895 0.0
6.437476667631405 4.971693683589553 0.0
6.496181111585419 5.060210690175857 0.0
6.539454812256072 4.964658165361536 0.0
6.604198202576491 5.056387520850258 0.0
6.648506025747331 4.939374587506267 0.0
6.714026758992516 5.05873885840664 0.0
6.764418045981209 4.959246676066148 0.0
6.8219334571197 5.055299567406268 0.0
6.873708540948134 4.960426349093742 0.0
6.930181428849307 5.053461390218819 0.0
6.981893615341967 4.96435459462232 0.0
7.037791764774784 5.051219747103022 0.0
7.090993561518408 4.96392420322464 0.0
5.504417457283294 4.900897920552702 0.0
7.145434864123609 5.048960634292441 0.0
6.054532384032612 4.883956083938546 0.0
6.738027949040956 4.850032323068674 0.0
7.198432914526514 4.956325226333323 0.0
7.252637187936749 5.046012229327236 0.0
7.30926729605109 4.948903216650376 0.0
7.248106275544042 4.860306312845646 0.0
7.363100274863074 4.849952416808486 0.0
7.365733472701664 5.039519554615095 0.0
7.308483293090149 5.137557220352172 0.0
6.768399513646964 5.145609705119954 0.0
7.422800035311104 5.132251445551834 0.0
7.358273518796229 5.235980394389298 0.0
7.480824155801127 5.227946127939927 0.0
7.302193400058628 4.761917474298247 0.0
7.413570879789824 4.754555110721153 0.0
7.414392998903179 5.334729114426734 0.0
7.352769630272076 4.660405502266205 0.0
7.467556835255426 4.658352623795039 0.0
7.536246869015014 5.328986926716081 0.0
7.478865844607288 5.432598185493195 0.0
7.406396991826072 4.556956233957538 0.0
7.523581002009154 4.552005631348623 0.0
7.597792398573263 5.429506106314967 0.0
7.540511043402902 5.53619421580439 0.0
7.46214474876342 4.452580994318881 0.0
7.5852185078634 4.446021810672608 0.0
7.663329342323453 5.533453399066901 0.0
7.603478967594521 5.643227430483237 0.0
7.513450346818673 4.347641323140766 0.0
7.640744971722214 4.333388343316237 0.0
7.727671715775243 5.642390483050116 0.0
7.667774597993788 5.753188858425915 0.0
7.570065256728661 4.230515669344811 0.0
7.702881065467917 4.218307808529532 0.0
7.638288257073729 4.107994211855027 0.0
7.493362356301017 4.120843902105771 0.0
7.779018500630071 5.521233457321821 0.0
7.794641287388929 5.752364621610818 0.0
7.73369774483611 5.865894287356292 0.0
7.600834531784728 5.867752110500446 0.0
6.233038857278689 5.15645045634683 0.0
7.669727996028819 5.985665563643058 0.0
7.528582452554481 5.987393423295551 0.0
7.598722674572824 6.11001923494443 0.0
7.778305000222867 4.104318908265786 0.0
7.704329019832056 3.987744174608892 0.0
7.838453459801382 4.213322728668484 0.0
7.864495721576461 5.862306066517277 0.0
7.846552353360407 3.98481756181946 0.0
7.769730409703277 3.86544808681145 0.0
5.785249360396857 5.177248808588045 0.0
7.908837087876153 3.861484036275285 0.0
7.834824606222196 3.740586825753288 0.0
7.97685993406276 3.736209527152902 0.0
7.89665098770825 3.615501862931453 0.0
7.753228010315262 3.617800245018972 0.0
7.826063013090472 3.483173292579822 0.0
7.66789744383048 3.48859328808356 0.0
8.042515855796823 3.595394268381807 0.0
7.75200750488492 3.341279823834038 0.0
7.582870318332553 3.346584916806707 0.0
8.120807847415062 3.732493963388337 0.0
8.189783970303546 3.61159165475499 0.0
7.657801000286734 3.200439907646711 0.0
7.486781956172036 3.201402473247712 0.0
7.452595103886905 6.11418616185016 0.0
7.527098033550077 6.243191052852112 0.0
8.260502906807751 3.728437634721859 0.0
8.327629317451398 3.608173631356984 0.0
7.372763970891452 6.247552889754036 0.0
7.456170570815929 6.384992468962936 0.0
7.621837793616884 6.376077080857113 0.0
7.548039512904141 6.520750676893614 0.0
7.717475944451644 6.514856553988943 0.0
7.636658166268699 6.661648164052906 0.0
7.807468267259438 6.664076174524672 0.0
7.718022764310774 6.817938967122142 0.0
7.887785766941087 6.807440365887151 0.0
7.545993589083432 6.815070675854734 0.0
7.809874785067209 6.967537287475282 0.0
7.975643812145337 6.948729406725126 0.0
8.396477808021062 3.725446935061211 0.0
7.565651643157136 3.044354774611752 0.0
7.384328725505071 3.043048915147076 0.0
8.056405351948353 6.802790889114673 0.0
8.14128318237188 6.940027831915737 0.0
8.064621760266059 7.086348792208953 0.0
8.225003598857908 6.805225152373254 0.0
8.463085452993242 3.606998510553562 0.0
8.230426869720718 7.079551841000411 0.0
8.155262284174286 7.224761758176069 0.0
8.530696760758996 3.721683301125054 0.0
8.596669886994064 3.604516769862316 0.0
8.528531058025589 3.490411531312337 0.0
8.320451770844851 7.218191678954744 0.0
8.245273958732774 7.363444652121271 0.0
8.66324687389452 3.717094013035765 0.0
8.600103125209296 3.831913857228569 0.0
8.662131102573216 3.488322280861316 0.0
8.594166125380536 3.374071873435548 0.0
8.411074336066186 7.353871649576861 0.0
8.339644223432472 7.505172120620427 0.0
8.165883718619623 7.513159193685373 0.0
8.483453820080417 7.2082285366806 0.0
8.261200365730348 7.657400951288149 0.0
8.081570576666843 7.670933304838066 0.0
7.471613195794025 2.872548423100142 0.0
7.268733678357991 2.881209199257603 0.0
7.184255506995786 3.084448584600423 0.0
7.065899603697895 2.883902449336828 0.0
6.960163891183182 3.081014635802978 0.0
6.847612128388715 2.885646860602812 0.0
6.739800729737967 3.078895733381448 0.0
8.729373804596847 3.827689165637365 0.0
8.668550856907444 3.938702277545298 0.0
8.72770789162863 3.371798381178293 0.0
8.659764090070603 3.257493349874974 0.0
8.436453928793245 7.648724489148887 0.0
6.619080287792762 2.90880017416788 0.0
6.511740956842646 3.09340654756684 0.0
8.793527829963288 3.935174834810256 0.0
8.736430500996828 4.042719556852617 0.0
7.631260330584174 4.565300771328012 0.0
8.359058396840432 7.801678182761817 0.0
5.339436215072359 5.184870243702279 0.0
4.994031736761993 5.193306795607908 0.0
6.383387675268097 4.87760645722207 0.0
7.29117392392962 6.382172868329505 0.0
6.378196825372041 2.907113079755629 0.0
6.269817199014261 3.12412150658573 0.0
8.793149127377946 3.255386294257182 0.0
8.725774239201558 3.141596687892195 0.0
8.857434600673502 4.041295940541356 0.0
8.802868937128341 4.1471119953668 0.0
8.532045262478793 7.7905977476835 0.0
7.364542641624493 2.699128473342751 0.0
7.571677611088925 2.695732556686516 0.0
6.723058333614999 2.672341359410618 0.0
8.456744924757372 7.94483904450548 0.0
6.140831279784704 2.921247401137864 0.0
6.02419219050745 3.14358702955763 0.0
8.916255604212301 3.934279868822481 0.0
8.859287250884009 3.140226640574265 0.0
8.791092798057303 3.025929352146465 0.0
7.210445465986021 6.245773134960393 0.0
7.120884161792869 6.385155584680196 0.0
7.036931702064287 6.240721609143972 0.0
6.943722280007011 6.3869279517155 0.0
8.920094519678617 4.144837222494242 0.0
8.864374107136287 4.250930406527029 0.0
7.347569838739255 4.463467417508182 0.0
5.90383431757064 2.935113219563906 0.0
5.783476009580765 3.156456199832474 0.0
8.626013191558314 7.935092223505354 0.0
8.687240186957197 7.796697889991163 0.0
5.642059327424706 2.903018174330269 0.0
5.52647853955939 3.162549070310043 0.0
8.555300051897738 8.086169516016518 0.0
8.405624441178524 8.083972416481254 0.0
5.374124307190728 2.945480555950917 0.0
8.935805220807357 3.249260758206028 0.0
8.981625171409894 4.247375537584228 0.0
8.924725364486765 4.352101286657735 0.0
8.807208588134106 4.356163101450244 0.0
8.868277832430604 4.45657124153171 0.0
8.75099635287701 4.460644845248524 0.0
8.812385950597063 4.560891222623518 0.0
8.693833206943118 4.564602972998703 0.0
8.756474732548273 4.665720853686476 0.0
8.63721608225855 4.669394550615355 0.0
8.700108119351134 4.770682016274914 0.0
8.81920502916846 4.767536120893284 0.0
8.76355311338807 4.871451945248518 0.0
8.881442328033694 4.868382238751069 0.0
8.826433523510634 4.97132552240372 0.0
8.943387824985514 4.967694248194483 0.0
8.888718468126953 5.071044784833541 0.0
8.580377663835254 4.774669738817985 0.0
8.770572242937233 5.073880380431421 0.0
8.832915096600454 5.174518948293615 0.0
8.952224483821848 5.170970838320107 0.0
8.897282771771884 5.275476392171722 0.0
7.463928467290875 2.513944501591933 0.0
7.675935950092034 2.509420347143072 0.0
8.924252417741767 3.024418701372628 0.0
8.857265893102921 2.911213535286156 0.0
8.776981063213334 5.27944309004916 0.0
8.840710910770163 5.380165700477552 0.0
8.960876896785969 5.375521424256389 0.0
8.904555918255223 5.482125846038813 0.0
7.567193097677677 2.32750151280277 0.0
7.780880844888839 2.323064027160363 0.0
6.851602118390116 6.234522818184622 0.0
6.758680682687229 6.389359516748128 0.0
6.66345977321418 6.231254850996584 0.0
8.715764716958308 8.079994249772627 0.0
8.65189989696114 8.227534663647639 0.0
9.042229096541828 4.348551764001607 0.0
6.436774206993324 3.316782326998922 0.0
7.590527613340588 5.22651784724799 0.0
9.024366884701616 5.476726561488805 0.0
8.968734351641839 5.583879050892151 0.0
8.845941080047659 5.586406316932274 0.0
8.909881305857882 5.690482454668167 0.0
7.348726871578975 5.44047403999932 0.0
6.567070253986433 6.398115757512583 0.0
6.697077150072261 6.553426749743366 0.0
5.252377383990728 3.187782967482479 0.0
8.988440431820699 2.908621158637298 0.0
8.922541972760119 2.796420836075996 0.0
6.466806010659505 6.229115583261771 0.0
9.033851153821296 5.686506775615425 0.0
8.978340519963718 5.795772485582058 0.0
8.85111463793018 5.798672910287243 0.0
8.922171984280597 5.907237880910408 0.0
8.795190680908043 5.911854068712683 0.0
8.864373398892472 6.019728357749566 0.0
8.991346995940626 6.014539153309398 0.0
8.93374019140187 6.12698887312768 0.0
5.095192648098848 2.952353430985476 0.0
7.672651464908932 2.141715359830917 0.0
7.886266921042761 2.136211284120189 0.0
9.098474286589756 4.245971410451114 0.0
8.813172564986438 8.216887361735234 0.0
8.74802978243154 8.366104673219047 0.0
9.059985162956899 6.120982589539211 0.0
9.00342813739303 6.233245043891739 0.0
4.961413514304496 3.214209167276753 0.0
9.05248113004685 2.794651022570942 0.0
8.986028039118027 2.681341972594222 0.0
5.671890458441996 3.377122473800023 0.0
4.755829262593116 7.184480462344647 0.0
9.158258644940048 4.34465968221255 0.0
4.799687186662534 2.961354824469195 0.0
6.030554747591715 2.726787502996874 0.0
8.938327180212585 8.34758372042188 0.0
8.847392320655468 8.503370672816716 0.0
8.67342124373679 8.518117686968314 0.0
5.234423106934083 2.694925204361751 0.0
8.964923046453565 8.185313058214797 0.0
7.456650986668838 2.134076476407834 0.0
9.111732084821366 2.897226832609386 0.0
6.368055837513985 6.402805870976705 0.0
6.265629899005033 6.226581076317183 0.0
8.736327196352686 6.026404178766982 0.0
9.117473097358854 2.67987006607594 0.0
9.052137415465204 2.565428515518978 0.0
7.781001557847192 1.955874236406257 0.0
7.992134447300669 1.949184538864554 0.0
8.593074792993455 3.143159483125708 0.0
9.1291360203536 6.226877897052981 0.0
9.072154326613617 6.338696745620542 0.0
8.916532550320525 2.566986282201109 0.0
8.984021113721658 2.449252898983242 0.0
9.178032243215632 6.120533546076094 0.0
9.213703592343162 4.244823670856978 0.0
9.11972142641474 2.449071238668887 0.0
9.052853896812186 2.33190758581705 0.0
8.635035926402708 4.462329956179506 0.0
8.773614475966344 8.657865377672689 0.0
8.596400917257634 8.67759750279447 0.0
8.942023339420883 8.644678093589654 0.0
9.19471670675691 6.33096438039349 0.0
9.138460613363325 6.443043552768813 0.0
8.66620319432524 5.916297234509582 0.0
8.606669825267202 6.032658196729024 0.0
9.27222540210304 4.341341907533128 0.0
9.013782808177437 6.451040569407859 0.0
9.08360982569773 6.55729980456602 0.0
7.885622149776354 1.768093045890686 0.0
8.095672144455353 1.768790621151345 0.0
9.208772072925791 6.549717411809656 0.0
9.154272208194383 6.662613503537815 0.0
9.187669783927937 2.334640996932141 0.0
9.122379015831417 2.215832190697178 0.0
6.164077036161143 6.404611236428829 0.0
6.062367614988677 6.224307160647549 0.0
8.987075041759633 2.211477580983978 0.0
9.056972755801603 2.093573581203428 0.0
9.194557288902232 2.096029761809264 0.0
9.131223008370409 1.972713028695079 0.0
8.87381302587057 8.795793668920256 0.0
9.039169086943392 8.781606667490083 0.0
4.662813350519927 3.228118291851354 0.0
4.474181267994617 2.945703616023359 0.0
6.562627723301209 6.075544382232434 0.0
9.326886053211574 4.243083624343211 0.0
9.280374192897945 6.656072830232892 0.0
9.224718905178564 6.766740750539347 0.0
4.703284910421452 6.528907865005451 0.0
8.955136474970331 6.565989985649191 0.0
8.998148826814893 4.865480736169776 0.0
8.99429836796776 1.965972383552685 0.0
9.065669391141741 1.847195105148808 0.0
9.207236162050343 1.853010386995843 0.0
9.143218073349985 1.725630086781897 0.0
8.998867447699345 1.719378449325465 0.0
9.082595782768397 1.592017827427701 0.0
8.92804562738841 1.585238202229766 0.0
9.01637794607019 1.453847302675876 0.0
8.854253119154375 1.446306868730686 0.0
8.941620273019874 1.320083886766936 0.0
8.775393064215876 1.308487027359826 0.0
9.102170347200483 1.324733726345249 0.0
9.013857060361985 1.178821526410403 0.0
7.991031819452564 1.587689878441685 0.0
7.767218744640202 1.595993197647291 0.0
9.191539171305216 1.194087248761656 0.0
9.123965901037613 1.057102462689568 0.0
4.853921953226772 3.470213116851758 0.0
7.496563223334782 3.470157221608763 0.0
8.536691379028115 5.921845852206257 0.0
8.475496498707471 6.037633662010236 0.0
7.978668526342969 2.307231488316941 0.0
9.384721922092124 4.337357165846226 0.0
9.331039180200886 4.435926256444196 0.0
8.546261775564837 6.150267290476958 0.0
8.411727261785726 6.155319300628062 0.0
8.972203609044218 8.930944433074036 0.0
9.133480321468399 8.90955269607895 0.0
9.197778815538276 8.768743880012563 0.0
6.162231825784922 6.05277753404107 0.0
5.962111081146334 6.046949845237622 0.0
9.268727788642101 4.146883230687689 0.0
9.380694211527906 4.144811697563401 0.0
9.323823335199954 4.049557759546529 0.0
9.283324894520613 1.736313094621396 0.0
5.858151623803662 6.22041808248046 0.0
5.759668475561988 6.038806123495502 0.0
7.836860473863919 3.191674397465999 0.0
9.348591928839294 6.75855034547469 0.0
9.293979592221298 6.870213350675044 0.0
9.170543172728557 6.879819332293818 0.0
9.240028263813034 6.983394994050525 0.0
4.347372565145963 3.312731475520695 0.0
4.114183445909965 2.96879678229065 0.0
8.616264880152233 4.042035981070631 0.0
9.403174760076901 6.650407069150438 0.0
4.173860112179449 7.723461240865885 0.0
9.365302975518428 6.973476802087294 0.0
9.312420275675276 7.088420778208979 0.0
9.184876614539778 7.0978133687822 0.0
9.25921281729617 7.204979813006656 0.0
9.12816413817609 7.21569648263899 0.0
9.203944409919862 7.322703303071253 0.0
9.334311975087337 7.311477957762272 0.0
9.280415785210538 7.428795599957155 0.0
9.274060219641907 1.066603180421249 0.0
9.211820491509728 0.9316562593680151 0.0
9.050684011148748 0.9017681241401576 0.0
9.441953732403995 4.432092590771756 0.0
9.394725873909666 4.526051349391942 0.0
9.43453556160865 4.048003950509361 0.0
9.378043599351757 3.952631412328806 0.0
9.289691247910705 8.890746792319852 0.0
9.228148443138926 9.030109127390128 0.0
4.440757888677695 6.389562448928118 0.0
4.689874463978985 6.239329075084555 0.0
4.291519540095677 2.622920583112654 0.0
3.886073352912894 2.632778677714434 0.0
9.344015622314338 1.202401041544343 0.0
8.193292196814806 3.849649660906171 0.0
6.960946604527747 6.07044529864598 0.0
9.347708267319902 8.756364147482309 0.0
6.826423138602714 3.261415861395883 0.0
6.06309517882478 5.884563187328262 0.0
9.4085057714426 7.414123963607981 0.0
9.356416821537886 7.532359471354527 0.0
5.042074134251055 6.938947182785697 0.0
5.063988238156824 7.311205832605263 0.0
3.946666851334923 3.30681624613374 0.0
8.189857914071878 1.939951128540477 0.0
7.880690277686857 1.38928908049477 0.0
7.63766396748483 1.399736360041063 0.0
9.345004233592562 1.857695941115052 0.0
9.440465164139875 7.085860901905448 0.0
7.918332480761888 5.744468010879592 0.0
9.08007135068879 5.372457017512481 0.0
8.78639561093144 3.718391405525285 0.0
9.356843485085705 0.9414458825132457 0.0
9.29705128845331 0.8103081541678832 0.0
9.251825423225316 2.451701826351773 0.0
8.483895366325516 6.270717564685176 0.0
8.346386886249478 6.275973306650227 0.0
9.493299170161215 4.138582531223591 0.0
5.321115649032961 7.117073603021904 0.0
5.354076009109965 7.436189411362466 0.0
5.597984079819928 7.254284331170681 0.0
5.644042313435943 7.564172740776336 0.0
5.383963016128051 7.753854027984002 0.0
5.681168258142109 7.880444993178456 0.0
5.935548099874979 7.687258900444162 0.0
5.979508404301389 7.994332725561488 0.0
6.21936843555201 7.802335560754011 0.0
6.267092590637372 8.104873033518185 0.0
6.498845418385807 7.917606504106031 0.0
6.544600005636809 8.209910620392591 0.0
6.77336078689533 8.027284686082275 0.0
6.814840179123049 8.311778392637773 0.0
6.721304148677048 7.737863326704131 0.0
7.031320924898797 8.1335673274533 0.0
7.077388928622946 8.403901803728003 0.0
5.417471987089176 8.090112295667405 0.0
8.845427688507666 2.446352368201366 0.0
9.318512319918124 2.339233739859646 0.0
9.380241452597096 2.451895615249572 0.0
7.283805558009199 8.237518806365102 0.0
7.329200330160381 8.497045124353782 0.0
7.233272584416691 7.991590926766813 0.0
9.142592248414191 5.471315142785471 0.0
9.196303265878848 5.36738298742727 0.0
9.25795832955665 5.465260877691205 0.0
9.310581303233182 5.36341558704714 0.0
9.371094700882272 5.459458038195667 0.0
9.422767107822985 5.360687090455724 0.0
9.36402660964156 5.264821436196721 0.0
9.474220736978928 5.262802348886269 0.0
9.41680330511366 5.169477108906666 0.0
5.168675939028436 4.895496152382537 0.0
9.482591449057548 5.454699312257291 0.0
9.431567605310825 5.552723344040521 0.0
7.531449703396948 4.741663470323411 0.0
8.517293123442691 4.672601123164268 0.0
8.459978676626639 4.778466809901586 0.0
8.396595115309985 4.67568709170855 0.0
8.338966609235166 4.782101664607259 0.0
8.275355646032752 4.678829956447008 0.0
8.217675280223542 4.785699596769931 0.0
8.28149024865807 4.888803783902183 0.0
8.16019781596952 4.892696417098926 0.0
8.22433278506531 4.995725219088695 0.0
8.102825704443651 4.999629142625341 0.0
8.166887930010795 5.098242831115916 0.0
8.034904900788316 4.896825406879729 0.0
8.15353539905931 4.682103688185489 0.0
8.211891449058882 4.574219757233394 0.0
8.290305306104333 5.094007100958221 0.0
8.225684228618732 5.201525567655179 0.0
9.444618942559746 2.343141375196729 0.0
6.929446520625337 4.868116916840016 0.0
5.737810725167649 4.893891407574175 0.0
8.720389971487277 5.38508368411851 0.0
8.805734920311323 8.951818172412821 0.0
8.905272694453211 9.083303226359831 0.0
6.006155038818204 5.171375272745409 0.0
6.431496448228514 5.152985998213245 0.0
9.052675024457304 7.106590131831544 0.0
7.740007013494393 6.09727525827826 0.0
9.375852260355511 9.013078430361404 0.0
9.32035844773103 9.14584923943073 0.0
6.989707597683965 5.146377438798643 0.0
9.488190206836386 3.951168069367155 0.0
9.432429152094464 3.855725756072153 0.0
5.568386402814275 5.185723849666124 0.0
9.525561551078322 5.166162126187324 0.0
9.465026391994275 5.072601962964018 0.0
9.320357339516937 3.857795423728873 0.0
9.375955927831914 3.759314274140895 0.0
9.261783786753899 3.761412578759438 0.0
9.31820665563318 3.661845422072752 0.0
9.431798673168924 3.660830894813109 0.0
9.374584413615914 3.563138564686839 0.0
9.48759661134647 3.562294297118573 0.0
9.431339678707085 3.464016717943268 0.0
9.417896212887529 1.746970678437863 0.0
8.731705369070733 9.110902182838881 0.0
5.652297951447118 6.21188565774667 0.0
5.569122518069258 6.024400786163834 0.0
8.257007204149394 3.505875091031567 0.0
8.717428603143034 2.925525757227976 0.0
6.882852832747376 8.57686572931064 0.0
6.337330066435714 8.416819098143066 0.0
9.50188906539997 4.521022403818629 0.0
9.453500859905136 4.617181635748691 0.0
9.46806769570129 6.749352117850711 0.0
8.836822104875719 1.72282859852854 0.0
7.481071063421426 5.64593758994851 0.0
5.668814988976305 5.86611128457842 0.0
5.487644760735084 5.847591822776978 0.0
8.993992818065195 7.228173913870249 0.0
7.98322414937693 7.229980191466666 0.0
9.22810751684646 7.54864871395298 0.0
9.304103360459063 7.654622011545798 0.0
9.432787371848761 7.633691049023619 0.0
9.382619818023882 7.759136995934441 0.0
7.239096822516492 4.679179578301165 0.0
9.47692479956498 1.861231395362419 0.0
8.041243110813022 5.095895152648969 0.0
6.190208781188077 7.509864122823853 0.0
9.283062812782122 4.549418667685757 0.0
9.503847665760087 2.450295046295932 0.0
9.443345385250678 2.557904120404248 0.0
9.52009568463353 6.644015937008899 0.0
9.203119005973903 3.662458522935253 0.0
8.406198651282708 5.92630414760378 0.0
8.467263597743843 5.811987729136874 0.0
9.461423029059445 9.128120577356565 0.0
9.408445330070542 9.26024300250086 0.0
9.266505293379728 9.277952925446408 0.0
4.14874709022218 3.631681332690154 0.0
9.437448107949258 0.8198473430736303 0.0
9.376993771693973 0.6910550697058979 0.0
9.22882356848217 0.6931820370818127 0.0
4.451823867195988 6.103664366188579 0.0
4.200031743909027 6.232039028149317 0.0
4.687154754667774 5.975132870483986 0.0
6.268889397098538 6.592235545990395 0.0
7.509366161722768 8.340075462391164 0.0
7.564775703413765 8.59800936579159 0.0
9.542148732924264 3.854614593058991 0.0
7.036231103929761 6.550562550831048 0.0
4.089373665437328 2.268193930262139 0.0
3.642558884866483 2.250386188148396 0.0
3.442182385618804 2.651948803899947 0.0
3.146832503011753 2.222630466765926 0.0
2.948870467975985 2.805088883766417 0.0
9.352005315330274 5.067356449300542 0.0
9.31729677031493 3.462944187594675 0.0
9.37428383619102 3.365546369736205 0.0
9.4883538239391 3.365384871181599 0.0
9.432147665178338 3.267287636377487 0.0
9.25034519267688 7.775848812012313 0.0
9.332091350002502 7.881724023243533 0.0
9.462101000264603 7.86490055671988 0.0
9.413353271651825 7.98561007219363 0.0
8.273592814723814 6.158623919352561 0.0
8.207135014732339 6.280394934566054 0.0
9.541483811580331 5.548224291759592 0.0
9.491365919893726 5.644847811894615 0.0
8.088095771120983 4.577581369371366 0.0
8.14760102783746 4.468303741922308 0.0
9.556217963323956 4.414867468889523 0.0
9.543667331547693 3.266908751519594 0.0
9.489307652535885 3.169908976697059 0.0
9.26285575842982 8.635341362685686 0.0
9.403220742003983 8.621447866627538 0.0
9.326013417886902 8.506778946171965 0.0
9.455477927154853 8.503896705359047 0.0
9.566646674069602 4.611465258087684 0.0
9.499341049870914 0.9352184973273918 0.0
8.683891958597638 1.444705608998412 0.0
8.599973456173778 1.287265568270043 0.0
7.760988189317371 1.175381292562583 0.0
7.50927661322749 1.171223823957793 0.0
7.380927152434357 1.411062577009695 0.0
7.242417847270241 1.170759311509981 0.0
7.107236746116019 1.421234419770886 0.0
6.960799033544566 1.169618322344823 0.0
6.817786081200392 1.434174581170586 0.0
9.48095050141868 8.738557748483624 0.0
9.319762046171894 3.263060331456388 0.0
8.920653400180534 7.117307656029475 0.0
9.452431221190624 6.544166520883111 0.0
9.571407933653493 6.540336592280795 0.0
9.507586285214174 6.443281357841339 0.0
9.575252974749443 5.070210512157044 0.0
5.755172844377253 6.370710487467459 0.0
9.541351959064952 7.969072511059531 0.0
9.354607289792183 9.3921968735401 0.0
9.495213435762107 9.37218405175897 0.0
3.77688136092967 3.643094492921176 0.0
5.460967180339239 6.159077196937325 0.0
8.656589552918996 5.283032675040985 0.0
8.599307076390474 5.387421722684671 0.0
9.584017606465821 5.263931993965828 0.0
9.51536593891754 4.977534386249715 0.0
7.788544970111893 2.70578432810479 0.0
7.381746833264364 8.755477463411431 0.0
7.615969996822885 8.852710176548548 0.0
7.783643411970649 8.691528137204457 0.0
7.845017394185501 8.938777577473743 0.0
8.570520580943368 7.342304222498308 0.0
9.103648004226827 5.781084627507008 0.0
8.338082930126799 5.815990105349368 0.0
8.930848895071895 4.561111316304916 0.0
7.381089602119859 5.983657236035151 0.0
8.42066837692862 6.393608568217351 0.0
8.888256157021065 6.459558428285236 0.0
8.826495664731354 6.575679897210801 0.0
4.22522220414496 5.921354747981145 0.0
3.943296448343383 6.075578573904587 0.0
9.563175937841836 2.554860696349795 0.0
9.505342423182917 2.656889632284623 0.0
6.660863480070611 1.168750929063519 0.0
6.518316961679488 1.436478598119306 0.0
6.683474168246802 1.694104067636375 0.0
6.376799057174731 1.707382100972048 0.0
6.205091481342603 1.443621641108414 0.0
6.058670988071357 1.728841803855816 0.0
5.877457486049096 1.454297236926778 0.0
5.724979192982589 1.756666409586195 0.0
5.529885788012015 1.462283739157555 0.0
9.514953777019835 0.7018468683209754 0.0
8.398665270372675 5.702731562702358 0.0
9.456442249775696 0.5772068858285652 0.0
9.565795671866349 2.345573662774494 0.0
8.830758563027459 9.247271599108435 0.0
8.523580738257648 4.88015211128435 0.0
5.580123316488715 5.701889892660689 0.0
5.398591029446707 5.685938459654249 0.0
5.367686360823392 1.778740548277203 0.0
9.546603444041448 1.754984055696778 0.0
9.489649223089446 1.641312329051244 0.0
9.617973952467912 3.363804764345866 0.0
9.584322830999731 6.729956156156573 0.0
9.597221861144487 3.948534024289882 0.0
9.49401963819799 8.089507968561776 0.0
9.207321074262563 9.416906871900888 0.0
8.27185428346661 4.464932191097996 0.0
8.207416067213774 4.35878753684812 0.0
8.332747746635944 4.354903699457511 0.0
3.990181919126853 3.930792395858886 0.0
8.267392138262498 4.254008221702929 0.0
7.997788712685495 1.196805377512679 0.0
9.600316638269724 5.639973985281733 0.0
9.550939606739425 5.737313319038155 0.0
9.44084303195315 5.74233753256161 0.0
9.50112296154558 5.834555019909565 0.0
8.897429225733994 6.685415510921676 0.0
8.762930941408914 6.695907295903629 0.0
8.654628175336732 9.278157371342388 0.0
8.544676900803436 9.133790942553834 0.0
5.294904777716057 5.855935872688884 0.0
5.216749389964556 5.66865685845661 0.0
9.508453581298625 2.239460033375932 0.0
9.599691370793206 3.169496930704394 0.0
9.546615051106684 3.073514534194011 0.0
7.484714626923596 5.028675123117963 0.0
9.588496050271255 7.850836295555126 0.0
5.153197381012662 1.471340286561097 0.0
9.433168304679345 3.071871997104804 0.0
9.610464706874994 5.829217654498672 0.0
9.561407772947403 5.926179534044419 0.0
8.273381980676042 5.705233340662362 0.0
8.330794188929296 5.594351887246082 0.0
8.207319603076424 5.596747949305344 0.0
7.251338559467102 5.233758892662348 0.0
8.708518799790543 1.130513882092466 0.0
9.590155250193266 0.5878623138195824 0.0
9.389919385420015 5.841079912164009 0.0
7.991397852194216 5.859910582924319 0.0
9.624951589233206 4.975554514425905 0.0
7.240016788025947 2.531866266726309 0.0
7.635666783493215 3.873554782053258 0.0
9.608476620993713 1.863530872936442 0.0
9.365330459496413 8.10677840682376 0.0
8.775076110585598 2.572737931759856 0.0
8.699389445914996 2.444602334375113 0.0
8.625078713232146 2.580891022578613 0.0
8.54447196848446 2.447624719286678 0.0
8.468898498943965 2.586757328881282 0.0
8.62282309213608 2.307826916202421 0.0
9.622102662978762 6.439307895185218 0.0
9.561995355724862 6.35103962032292 0.0
3.898245450818314 1.856155797593496 0.0
9.681759177700954 5.07069253017652 0.0
9.059254996454502 4.963357716933865 0.0
9.113144532326562 4.861710138088372 0.0
9.62140874877204 2.656009146517733 0.0
7.884510615470827 0.9666888912541309 0.0
8.14902661050739 1.005010215149227 0.0
8.491263206618079 8.527197931363634 0.0
8.408859203395778 8.697060715788105 0.0
6.54422152733529 1.954566069381189 0.0
9.563546573097593 2.755667904356369 0.0
9.453065492925557 2.761122255953964 0.0
9.676889098520615 2.755084315170127 0.0
9.678287124781653 2.556838324720633 0.0
2.60254317790297 2.278874965850319 0.0
9.211706272534968 4.050470567310489 0.0
8.526711683538949 5.698821878547752 0.0
8.296604023060945 8.533761944401608 0.0
9.649704314258118 5.543946557831669 0.0
9.651176136337964 3.85122804518279 0.0
9.44590154800397 9.498503704959054 0.0
9.580491248736612 9.476376347552954 0.0
4.3239388803087 3.921156392977062 0.0
9.65737873521736 3.075324100817917 0.0
8.128000846282253 6.160273991836929 0.0
8.06242981852327 6.292371360998262 0.0
8.500465019503922 1.442700595221201 0.0
9.615253212967009 1.649819368149096 0.0
9.561768620580791 1.538553925606111 0.0
9.435477757657937 1.527391516499924 0.0
9.627993450010088 2.242685831452484 0.0
9.5338252733548 0.4673994795805215 0.0
9.398055066504014 0.4589059948533885 0.0
9.669486082509058 5.920177035588319 0.0
9.621072177439727 6.016493814615133 0.0
9.506185962103057 6.018397021409126 0.0
9.196884440497488 7.898824858961557 0.0
9.112591143666748 7.789491461180181 0.0
9.664357762385308 7.950712034233033 0.0
8.46233617997115 2.308903464128035 0.0
8.547917980328803 2.169381684694277 0.0
8.139931430059324 6.410762600521521 0.0
7.672499127532963 9.099143622036436 0.0
7.91372855627271 9.178704612763656 0.0
8.463425076318451 9.290653726808348 0.0
9.643938029094286 9.335632419679458 0.0
9.647017668702574 0.7068996148634754 0.0
6.241662276606473 5.884018212993202 0.0
6.157742245066693 5.73500474100449 0.0
6.318815619949124 5.730068085823802 0.0
6.247706374231452 5.593094310939028 0.0
6.406948541886973 5.593272398468375 0.0
6.092564106310554 5.587409338401505 0.0
8.535507922245372 5.286142900439676 0.0
8.022959839404006 4.471630490587016 0.0
7.963561162854596 4.581393556789843 0.0
9.683487139413305 1.546750704925431 0.0
9.630761777960082 1.435922217091829 0.0
5.121714348989337 7.950140247572198 0.0
5.136464096196084 8.310254432483559 0.0
5.47349124035624 8.455234262268478 0.0
5.176273618280354 8.687190323573228 0.0
4.796664658962938 8.592678692862421 0.0
9.568705729418735 4.887269869750176 0.0
9.462711651199594 4.88832222094458 0.0
9.674903475028225 4.882285174433025 0.0
5.4996067353406 5.546583260717527 0.0
5.663632234555963 5.557613452957074 0.0
6.829408195405585 1.947174574944512 0.0
5.336529198289861 1.127585641139875 0.0
9.672387559812332 6.34138351957329 0.0
4.463988917379896 2.271060678869338 0.0
8.618048281355405 6.263841736419089 0.0
6.480949808711781 5.74815588680617 0.0
6.562207427719153 5.592185077216444 0.0
6.643040463857446 5.721233693378952 0.0
6.712825900331884 5.588664360236 0.0
6.79240375630333 5.711383948285569 0.0
6.86115931532141 5.584697050428064 0.0
6.939210100691576 5.704407337029545 0.0
7.007668476576536 5.580801046893123 0.0
7.084627386867475 5.702817970154801 0.0
6.633257976075473 5.460881327825488 0.0
6.931430743764456 5.461960451448691 0.0
9.682652370938209 6.533133024505995 0.0
8.761108695241376 9.450742747770144 0.0
9.146031326900015 3.764292700000154 0.0
9.089378801805193 3.661317181076136 0.0
9.514354521818781 8.994988681611192 0.0
8.157650730500988 4.262987189670279 0.0
6.329633198899328 5.4647789391701 0.0
2.340685767996258 2.811285337457589 0.0
7.379572471323651 0.9290892725587991 0.0
4.171878172186605 4.222320767259098 0.0
4.4876601621649 4.16473354200826 0.0
5.336389369563535 6.806464508860387 0.0
9.595468321212476 9.108133206829102 0.0
9.645038675267227 8.982113951305912 0.0
8.393140678816192 4.246338342095281 0.0
8.309440721624494 4.155300532283633 0.0
9.418269339704423 1.9925512363779 0.0
9.662781807969623 0.477809346089035 0.0
8.011297869803792 0.7518828483803571 0.0
8.250149975885678 0.7646904662196189 0.0
9.608674873602773 0.3618049194050078 0.0
8.692696069692623 6.582927327365709 0.0
8.628225948401226 6.705702462696891 0.0
8.701883181418305 6.822086652299242 0.0
8.559276855155542 6.829564723911442 0.0
7.069268463354993 5.459534423493629 0.0
2.654575201159115 3.323490466195074 0.0
3.610801136544596 4.044075244426243 0.0
8.263757217166944 5.48730323490738 0.0
8.138838162809126 5.491254533497952 0.0
7.90196833683664 4.477386962763833 0.0
7.987943097943191 3.978756490171551 0.0
9.704623491880403 3.945605151832784 0.0
9.461009573830147 7.301728818091931 0.0
9.532468631193666 7.399916015174975 0.0
9.582688928417856 7.292330983701011 0.0
9.652579613269625 7.387768793572397 0.0
9.699264016151023 7.282867433965265 0.0
9.633305589700536 7.188543855060478 0.0
9.505576100168666 6.961225778216469 0.0
9.43876966151099 6.342441564206569 0.0
4.908483672172518 6.098703904450545 0.0
9.135448256237908 5.269827196966999 0.0
5.905650502271389 2.025036080946255 0.0
9.709890722072377 9.452748507541063 0.0
9.663337613522643 9.572126259365891 0.0
9.603900123387826 7.495180532331903 0.0
9.720147629525837 7.483400774981126 0.0
9.674588415444239 7.588303295299578 0.0
9.653186673863587 4.039274180923234 0.0
9.053164539680804 4.764545162185531 0.0
9.164908495749003 4.763017269285045 0.0
9.226019227262443 4.858029410614327 0.0
8.809947621994619 3.4964384919072 0.0
9.10538997155458 4.665865142902959 0.0
9.331074106432244 5.748993480915537 0.0
9.055854333858068 7.918554535314415 0.0
9.446431573964945 8.209836764658437 0.0
9.573844810886287 8.191100251691205 0.0
9.309704769895653 8.244395007943949 0.0
7.240329561730736 1.676197957122907 0.0
9.543389817573933 3.660019800390455 0.0
9.598599341122098 3.563130123982772 0.0
9.652615161407017 3.658119804270645 0.0
9.706336063693934 3.564815526226687 0.0
8.632284427755456 6.946688912416058 0.0
9.682863230715835 2.349655023034811 0.0
9.571538455120994 2.142369886250143 0.0
8.090821900439733 9.017409120951333 0.0
6.812258669899192 0.9007667548831626 0.0
6.50135254578461 0.8974046495177885 0.0
9.598335906230732 6.246437748035812 0.0
9.719677442549804 6.253968775436637 0.0
8.593026822691716 5.180101360605356 0.0
5.537586126848265 8.836083861509138 0.0
9.688689404995035 2.143487155934306 0.0
2.821389253975936 6.507820864074362 0.0
9.176571289960709 8.507736431357309 0.0
2.918303740542162 8.256728920338826 0.0
3.428955230180972 8.401446814887457 0.0
8.490587404589881 6.715350139132777 0.0
8.86049054904785 7.243279881821806 0.0
8.93696309213556 7.356650230611625 0.0
3.951931175165697 5.78308550088855 0.0
3.65055612573298 5.91672400098539 0.0
3.668142216548471 6.247526235973777 0.0
9.717269848920886 5.821831227352286 0.0
9.708364917734201 3.164198601626433 0.0
8.45581975650687 4.569560863828342 0.0
8.204448312099833 6.040774355519757 0.0
8.65969449127868 5.485991799508151 0.0
9.707534571012967 5.634423933296901 0.0
9.62102991883279 2.849662850313935 0.0
9.144093558002634 3.560383427867003 0.0
8.29763273805118 1.77155302934031 0.0
5.280452715709455 9.01633391004168 0.0
8.984558945859158 6.99932633710603 0.0
8.4157550875812 1.275784953143711 0.0
2.068078118650995 3.355462780535101 0.0
9.205703884756806 5.568274778556933 0.0
9.745857863753141 7.178456670302003 0.0
9.681628895748586 7.081494416756802 0.0
8.875818787971069 6.240744812097083 0.0
7.993733797566922 6.414830952863579 0.0
8.462810157069566 3.377071044664789 0.0
9.29428363519789 4.759591981903337 0.0
7.933956818298286 5.97437536746848 0.0
9.028281726378319 3.558713145763133 0.0
9.083461773461467 3.455531762175701 0.0
9.73231939683535 2.849247643393067 0.0
6.70072305037728 2.192432536215492 0.0
6.423245125077639 2.212870246546939 0.0
4.931537051605536 1.135086496804522 0.0
4.746426561586179 1.500381091957315 0.0
9.707706579932626 7.836419656220658 0.0
8.590593344701457 1.595639668013959 0.0
8.708946574109854 2.1688179918246 0.0
8.634728854549891 2.028564483452208 0.0
9.230357659411311 8.129337203173913 0.0
9.102841374461482 4.452881308250647 0.0
8.472081531214734 5.388993924853032 0.0
4.925996806199801 5.844046944846857 0.0
4.702806345752284 5.745688656289065 0.0
4.884357002239844 5.633237011762874 0.0
4.709628434300812 5.536404116679045 0.0
4.530800966746534 5.627044171217377 0.0
6.040296145349247 6.603808099703576 0.0
6.162203578696918 6.795213950202512 0.0
5.923135943221574 6.824060069869489 0.0
6.046693245732212 7.010423490915212 0.0
6.297337598588478 6.979895528204233 0.0
7.760448385794147 0.7294020304851334 0.0
8.492228348169641 6.958778476405878 0.0
2.89219822877093 1.704113597264478 0.0
2.26178643438086 1.7814602252425 0.0
9.726968895980871 6.009547057102511 0.0
6.63195110828313 0.6072886418835157 0.0
7.984023036954866 7.515675826210831 0.0
7.893857204140559 7.681876703427663 0.0
7.778465117872411 7.537836322197895 0.0
7.998204230811618 7.844922503023499 0.0
7.798554315988981 7.858161805718108 0.0
7.917846202023782 8.03040048103727 0.0
8.547520504556728 2.721261126162116 0.0
8.39253850806587 2.732073315877738 0.0
8.306047241032278 2.59069854402512 0.0
8.233011054235162 2.739783364361515 0.0
8.318836035587811 2.879838477099622 0.0
8.159530874574331 2.888511553151382 0.0
8.245490421394788 3.024568439743106 0.0
9.759103003747676 3.077839427881478 0.0
8.083610090773394 3.033523757291178 0.0
8.174562583800352 3.166768504406541 0.0
6.046769434852523 1.155662270344939 0.0
6.968371001421964 2.176347877216873 0.0
8.324858098380334 3.152966249334499 0.0
8.145556596142626 2.609897633546475 0.0
8.970652052821418 7.804556541250797 0.0
9.033737629244714 7.681328986528639 0.0
9.62347010002576 4.796939565664328 0.0
9.72520380348743 4.790261082613535 0.0
4.882631186210167 5.455006233451049 0.0
4.618356368594037 3.933076284395493 0.0
4.748083507220199 4.151025177732873 0.0
4.641724290430313 4.358202249373887 0.0
4.87055838101999 4.337900676660481 0.0
4.974114446887331 4.149149057174687 0.0
5.081577844806959 4.3240148266423 0.0
5.179521650033781 4.148725180298481 0.0
5.276261408871418 4.316673822529601 0.0
5.369189110897883 4.148362797753505 0.0
5.463892033849439 4.338819369807593 0.0
5.550828466075906 4.146274465971151 0.0
5.646554822352869 4.303571429647391 0.0
5.728109623160046 4.138582010823754 0.0
5.821689108984419 4.291959598724587 0.0
5.906082534948073 4.141649907302701 0.0
5.99655838673762 4.288752711512514 0.0
6.077312859438928 4.141011188943332 0.0
6.164215275138099 4.281164574562373 0.0
6.241782344986693 4.140701084167517 0.0
6.324316420613108 4.277393447415522 0.0
6.40284165425941 4.140026953305852 0.0
6.483655157361099 4.273418937894759 0.0
6.561170698911611 4.136221843106807 0.0
6.63512300179586 4.269917278694155 0.0
6.720306110251473 4.133393659385058 0.0
6.63777078218551 3.99617001426095 0.0
6.802492763973074 3.994355399489989 0.0
6.798834760478153 4.276914787769972 0.0
6.15377608509923 4.000134206628027 0.0
6.548727135071258 4.400510710520637 0.0
6.251479300130713 4.421887359316258 0.0
5.275876048175579 3.979624500657822 0.0
5.910905077162284 4.431174408784691 0.0
6.717070288412452 3.851239795555301 0.0
6.883499045994213 3.852555480300214 0.0
6.96664848901999 3.994033961856844 0.0
7.048208567116626 3.854750001965969 0.0
5.810004974283072 3.982497501655442 0.0
5.586615391658107 4.471070246359201 0.0
6.547331954052155 3.853872077215347 0.0
5.179081233207816 4.485638492900557 0.0
7.126615227065496 3.995337770596979 0.0
7.209459742762513 3.856893463870469 0.0
7.130226097876905 3.713620439679428 0.0
6.63075064074106 3.699684148676045 0.0
6.446985573861992 3.697358756862005 0.0
7.043151422977365 4.131713936060725 0.0
7.198322215260019 4.129850614748363 0.0
7.119378405252723 4.26005098890218 0.0
4.797146270976422 4.525762781577414 0.0
4.608329098388589 4.573584257851931 0.0
7.294442092743627 3.720853338661503 0.0
7.215753312764997 3.571378507508807 0.0
7.049631633956289 3.568047985538775 0.0
7.133765707749521 3.414282375958479 0.0
9.755079417839903 5.539705890434435 0.0
9.698955703441971 5.450920012703194 0.0
9.717604099406742 9.09084770432896 0.0
9.276716006673976 5.847248422342224 0.0
9.339081208926798 5.941174203394446 0.0
9.031261921742963 3.750271483819014 0.0
9.08721978689863 3.853416037308712 0.0
4.801461566647803 7.510704110489921 0.0
8.206553504932042 5.818005960412773 0.0
7.362361315389098 3.863102442315545 0.0
9.492826845316191 2.963845037486267 0.0
9.376710375304633 2.97229517374228 0.0
9.3192743723601 3.070687802230453 0.0
7.915389082113898 6.293241865913004 0.0
6.735006382384437 5.832450056405368 0.0
8.456481836836168 4.35369289249905 0.0
8.517718268476031 4.246675068616396 0.0
5.583512022030555 5.411069060406398 0.0
5.73625200174779 5.422617752052123 0.0
5.81006929286229 5.548584937688919 0.0
5.903438861894402 5.420604003204523 0.0
5.43801870974416 5.402925156167655 0.0
7.022641548594327 5.825217331839047 0.0
7.165095795605366 5.826005223633447 0.0
7.223078558430726 5.690146755650336 0.0
7.841396000338385 4.586693006493787 0.0
7.904793170875705 4.690826189066096 0.0
7.785999820520073 4.696719777099973 0.0
7.846448506395101 4.798518978096564 0.0
7.728149182067156 4.803800941124008 0.0
7.788983823826226 4.904802634695232 0.0
7.672018889153144 4.910077510508749 0.0
7.731996012352178 5.014717724244488 0.0
7.852072803124419 5.00743796185411 0.0
7.779278698005006 5.118909346425974 0.0
8.088113864063853 5.605434545811022 0.0
8.016457362785575 5.494849890158723 0.0
8.072290383394757 5.385594956317259 0.0
7.95068657972964 5.38825563681957 0.0
8.309366678475389 1.438342408757099 0.0
9.748160780780179 1.447794693754379 0.0
9.696454228162398 1.337889922375316 0.0
9.568813761940916 1.329560834053294 0.0
9.638326779791626 1.226729570935787 0.0
8.472132467407484 5.182856496818138 0.0
8.066211547412054 6.53691730655352 0.0
8.217035586462373 6.522976700918602 0.0
3.544839338670893 3.324491119989469 0.0
6.999740002965287 5.347729916247808 0.0
6.874544698914502 5.347027470386579 0.0
4.880451234715014 5.193043717957879 0.0
9.104510033763066 9.313204713465637 0.0
9.0466357104558 9.45359399494339 0.0
9.146803165140184 9.569652364413551 0.0
8.134107047896672 0.5527712356100052 0.0
8.369770412730738 0.5571215815175228 0.0
8.47386979744655 0.7564607169846485 0.0
8.585193608569258 0.5749174254532757 0.0
8.683868132726584 0.75505070091701 0.0
8.787381435061018 0.5813987798627239 0.0
8.697570280442534 0.3771156480326233 0.0
8.530048434259976 5.077280516000916 0.0
7.995091351438729 2.90367515012593 0.0
9.731083608815164 1.662638626153251 0.0
7.260488865351954 4.255073962371814 0.0
9.760728358076392 8.990038509880067 0.0
9.716710396257366 8.884160310398862 0.0
8.794627466210242 7.369659405098349 0.0
8.868068657550866 7.515048014893154 0.0
8.702594597629135 7.510501129643432 0.0
5.132320689147051 0.7610757801158905 0.0
9.755852887652699 3.853180024615871 0.0
9.787424819067885 2.757921105725315 0.0
9.731193479931608 0.3736343090103709 0.0
9.796526908308536 0.489684029254899 0.0
8.226019692057042 2.453349105940535 0.0
4.560989821496479 5.428206018250252 0.0
4.348810639659689 5.517048281386008 0.0
8.785190163106925 7.119142251269924 0.0
9.015515413043023 7.464769766852701 0.0
9.754861440190705 3.659036930324926 0.0
9.7543610723378 4.033687839160082 0.0
9.707881226943384 4.127219992296752 0.0
9.52841017383273 8.309020665649431 0.0
9.65186044414544 8.289498614805698 0.0
9.714051275521857 8.173576484362068 0.0
8.209758892476394 8.715513071423135 0.0
8.097084883671858 8.548851201381087 0.0
8.177989947800599 8.367872862579052 0.0
7.974142434808908 8.36779470623567 0.0
8.409012054919861 2.142624252464372 0.0
7.707002321497132 8.039129945341395 0.0
7.574653123518228 7.83895791570255 0.0
9.229858094382692 5.951357214361815 0.0
9.75307989876696 1.229893222503321 0.0
9.715811155868643 1.128779429890018 0.0
9.597960915003707 1.117058287635912 0.0
9.672063923518955 1.020806103150243 0.0
8.99090422125785 9.593878510105375 0.0
8.133165456134304 9.257620998029804 0.0
7.976779931497633 9.420725324095141 0.0
9.77231778617502 7.927819487779705 0.0
7.957213679655531 4.364530256281665 0.0
9.609903116082736 8.403725680286847 0.0
9.724891358972584 8.388392708395173 0.0
9.687487059868507 8.495935345161797 0.0
9.810055520269009 8.494090598382963 0.0
9.755967487162335 8.599790818513082 0.0
9.645698986824481 8.606121319182705 0.0
9.721376049217765 8.699989876681524 0.0
9.773009257015609 4.884557953188837 0.0
9.830105798750992 4.796546393900876 0.0
9.775335108731761 4.686093304257503 0.0
7.455611517737074 3.730099283949135 0.0
8.906943567829634 0.4197477661467797 0.0
8.980613334153533 0.5814185917581446 0.0
9.081059111759728 0.4263421860552371 0.0
9.821654809259165 3.576985724143072 0.0
9.761309244784803 3.4792267780002 0.0
9.763329553045937 9.353068233045157 0.0
4.463051839136694 1.164440352584939 0.0
8.0213168204867 5.283436382300235 0.0
7.89385412333227 5.290429544753158 0.0
5.806940001023414 8.583716119232427 0.0
5.88977793877374 8.96065112858812 0.0
9.177759062826041 8.25539130897928 0.0
9.626582559276994 2.05283181283147 0.0
9.747673294325121 2.064954301745188 0.0
8.775905508647185 6.951821187702613 0.0
2.3581644273991 6.029034686663493 0.0
9.777798009058461 9.548066962498762 0.0
9.737129197219856 9.662299853506903 0.0
9.615080366030512 9.683349544763068 0.0
3.315839678697904 6.042943273456425 0.0
8.915083018115329 7.937748428923896 0.0
9.489832173860055 4.712364754630572 0.0
8.118313727862493 8.013944064029838 0.0
8.902248750797776 7.67372145952523 0.0
8.954075939212636 3.463080912810881 0.0
9.45247551997678 2.133243108303608 0.0
8.311151553157742 8.899233004613622 0.0
3.28672004268868 6.826745674539142 0.0
9.86008383798735 3.468233656255824 0.0
8.389990589860254 1.947086063498656 0.0
7.144231739553659 5.329544660076687 0.0
9.654500729007207 7.743301971143119 0.0
9.761920842881946 7.740144345898896 0.0
9.692820773976567 0.2651585113981998 0.0
9.690951720399688 6.100517071814821 0.0
9.775704281989471 6.077882312279847 0.0
9.823117117198079 4.115168542267924 0.0
9.764391943581737 4.214465954230587 0.0
9.659455011849253 4.218716850797838 0.0
9.713462125022623 4.30742830316693 0.0
9.849638067150842 4.208845651573708 0.0
6.376241713254513 3.858766051594979 0.0
6.274931849158213 3.701528298009006 0.0
7.097780104117746 1.926449727602711 0.0
2.457742027508782 3.810157622192786 0.0
2.963634206580268 3.740748099915693 0.0
5.065585416063965 5.544355730437482 0.0
9.783560252464587 7.566507987677117 0.0
9.825819294611026 7.470942204664841 0.0
9.799976114123012 1.01659516618323 0.0
9.745559590633832 0.9150866860898854 0.0
8.20473400632469 9.495828670767946 0.0
8.784586030320169 2.054461500762216 0.0
8.758471587067168 1.888286802854785 0.0
0.9188935087347281 8.510730800272478 0.0
9.674192026048217 9.20389587377276 0.0
9.796314981283475 9.185916994648775 0.0
7.206882433199502 5.452024361489832 0.0
9.773927048949279 6.334665846819535 0.0
9.830288393591173 6.225300227041885 0.0
8.25177349297509 3.282767705830209 0.0
8.099233469407428 3.304040153764131 0.0
9.607860512870598 4.315652630490023 0.0
9.403674738018715 8.367349042046314 0.0
7.611756786273919 5.018691202305147 0.0
7.549513964643336 4.923310232561835 0.0
9.80986724662116 0.2915868356190958 0.0
0.7757562810577034 3.504187313079081 0.0
7.659562100664981 4.698467529240196 0.0
6.539424975891206 3.541729955691742 0.0
6.717348880400739 3.55221857686142 0.0
6.836337579501807 2.417476958454302 0.0
7.096480496160066 5.959124656438389 0.0
7.189742782777612 4.377051328076039 0.0
7.051723187622053 4.38470822973091 0.0
7.125489805519186 4.497018383456762 0.0
6.994915621927777 4.501504591168814 0.0
7.056755276274058 4.607929817497045 0.0
6.932937068803914 4.613249390039674 0.0
6.86629288290367 4.50541343988659 0.0
6.80427099775847 4.617607827251794 0.0
6.739195362053689 4.511124964201849 0.0
6.677260697693361 4.624288827143181 0.0
6.996760608675822 4.711715831373894 0.0
6.316045249462968 0.6456945497683586 0.0
7.321834163850416 5.816449323512759 0.0
7.833101485370825 4.390058096386987 0.0
4.996572652976738 4.498711166259074 0.0
5.112334577457371 4.663858846723513 0.0
5.271923064784868 4.629759173373871 0.0
4.93773508827367 4.668006487116195 0.0
5.348137647919096 4.485934621930562 0.0
5.413454827497575 4.62999925573761 0.0
5.356581113747675 4.770594395332836 0.0
5.013422223730484 4.793321773780133 0.0
8.58674425943957 0.9312335381466886 0.0
8.776450596582496 0.9362399987293505 0.0
4.783496233934828 9.486061758876032 0.0
4.544176394620909 9.034071856445296 0.0
4.082330493623582 9.015765881393772 0.0
9.820867469965414 7.285959215547852 0.0
9.852697883440127 7.166089674802766 0.0
9.260999083164238 2.971390964911171 0.0
9.197701900169713 3.073162109379564 0.0
9.31960210441945 2.867465579641856 0.0
6.660951583415121 3.383363199709994 0.0
5.210469976037585 4.761678854423166 0.0
6.740780285297665 4.733615686805694 0.0
6.611362405615225 4.731958642073806 0.0
6.549091884465382 4.629620704100811 0.0
6.491761716522486 4.733409494449344 0.0
6.425259228542098 4.640546096196947 0.0
9.715556659367534 2.986725573570596 0.0
3.710524324925069 9.463213827486557 0.0
4.768537031214573 4.727001037865238 0.0
5.039413681704655 5.378508462165627 0.0
5.188746429211535 5.440476671296013 0.0
5.172214816037712 5.298914527247826 0.0
4.469063601436893 3.667917323494335 0.0
3.799121596584382 4.741629285988305 0.0
3.661085664896249 4.442847704416992 0.0
3.316563386321876 4.380147387454913 0.0
3.802087298647255 5.26743535640985 0.0
9.738116341343215 8.047178982429934 0.0
9.85106076399546 8.021725551312715 0.0
9.837581050304836 2.844176011307251 0.0
9.664579962075123 4.402853107737106 0.0
9.76433159763034 4.39807801415352 0.0
9.718924973226878 4.487825491046641 0.0
9.826405563645343 4.494594135148365 0.0
4.931068003413168 6.359330991212394 0.0
5.130175746947236 6.201075257041828 0.0
5.143884286052002 6.445382329515047 0.0
4.953395875296406 6.628748468717369 0.0
7.833019185167153 5.400347121613631 0.0
7.766636138801143 5.313240048256084 0.0
9.767038723422333 4.578090619166644 0.0
7.315369355237483 3.441501197259575 0.0
9.556068971301514 0.2347811136726856 0.0
5.733871280791703 4.444861510772459 0.0
5.828809543126846 4.569791247698539 0.0
5.986701526182213 4.562881783985375 0.0
5.912543327921148 4.692966271273211 0.0
6.052130330528581 4.682477327897978 0.0
5.773525984744635 4.697697018456535 0.0
6.121646311546238 4.572302645403103 0.0
6.182349700936326 4.67713231096357 0.0
5.846371383601797 4.808939734754761 0.0
5.117807918383606 5.974361363083184 0.0
6.256132501905665 4.575863546153224 0.0
6.324770064521816 9.645040261272253 0.0
7.345522892050965 4.12581088034536 0.0
9.338523512844539 4.854480276600515 0.0
9.286984287289403 4.959628690044808 0.0
5.676298026114105 4.589279806918992 0.0
5.631257891894775 4.722749088404111 0.0
7.970415275563177 5.621040275419208 0.0
9.565118337557308 7.081391220827488 0.0
9.626201005045262 6.980441083020495 0.0
9.733729506193331 6.979928568877979 0.0
9.684556253529976 6.887102896543928 0.0
9.780785815410074 6.890287441101827 0.0
9.740054813822885 6.794211367612523 0.0
6.462628988057306 7.629921412015864 0.0
6.692564520952154 7.473594130811262 0.0
6.927983108788191 7.570982428592125 0.0
6.899878641134941 7.329306734748538 0.0
7.117542472438434 7.416951094809493 0.0
7.089537168123128 7.186691566729968 0.0
7.296585396514727 7.275888419524222 0.0
6.879678873774065 7.097443005287856 0.0
7.063454637059129 6.967740076426161 0.0
7.329105042924355 7.496317641003757 0.0
6.867084781778411 6.878842928865059 0.0
7.494278796275744 7.351949197351029 0.0
7.462564159480594 7.150140034494138 0.0
7.644835001206406 7.21506678718646 0.0
6.682478929414216 7.008358327294905 0.0
6.449199855715812 7.365660640952548 0.0
7.548139855358765 7.57299228324251 0.0
7.008502809092701 7.844601794812628 0.0
7.371739019901781 7.707688433423657 0.0
5.665345294602155 5.290628720253272 0.0
3.987583013016546 4.486920698115711 0.0
8.893480480320447 0.7785000884179994 0.0
9.715485963651112 0.5955299613117169 0.0
9.761785841543585 0.7048670948649375 0.0
9.670304314877074 4.578896619304786 0.0
8.058509626083154 5.744161686650483 0.0
6.181795443628869 5.462040811515966 0.0
6.256771804808641 5.338464817889848 0.0
6.124070400983443 5.352376180901929 0.0
6.399679261813415 5.349186390888865 0.0
6.477776305607503 5.46505688468465 0.0
6.541624525938461 5.346017118512589 0.0
6.673064575428321 5.339051516933525 0.0
6.599301548842115 5.241958624987057 0.0
9.573774011620444 0.815274945835158 0.0
5.86493292693426 5.877588788523632 0.0
5.552663040119136 6.957487930464628 0.0
5.535080960199246 6.663033131707637 0.0
3.708603689392072 0.5979254716153909 0.0
3.31896983256719 1.188583855309964 0.0
3.895664898001925 1.128137111173669 0.0
6.363360407965353 6.032416442205533 0.0
9.445959758065749 1.070139246426051 0.0
9.50632172780449 1.214052376665338 0.0
9.441030033980638 1.325047485624912 0.0
9.295799464644857 1.341410624832976 0.0
9.184164107767781 1.461677744200096 0.0
6.407191016756832 4.407273313799791 0.0
5.544591888593027 0.7652641669375747 0.0
7.883090151006535 2.497506182548758 0.0
8.073420508370992 2.120510489750234 0.0
5.494822040671399 4.732314720081375 0.0
0.8986976806403217 1.464611451578306 0.0
9.536325549598013 6.83286654168725 0.0
5.972289519322897 5.727532110854501 0.0
9.82203607053145 9.443411729566549 0.0
7.263199949874008 7.064207941227515 0.0
7.233659553805083 6.853135694774254 0.0
9.793310082768443 7.072747972018893 0.0
6.734168931095253 9.67499220075154 0.0
6.941134861034159 9.382328333169653 0.0
7.285822522704258 9.443989747444657 0.0
6.576263515512108 9.333035011158342 0.0
7.160560566479093 9.127732577621245 0.0
6.218711947378506 9.298064908857533 0.0
6.432383355119106 8.980985203293491 0.0
6.795390278360442 9.046043538032663 0.0
8.54677014121837 0.1957422484480979 0.0
8.528696320820908 9.804850950580938 0.0
8.42644965647489 9.604735484095604 0.0
8.010239224104339 9.715048083583248 0.0
8.644359648763341 9.628432815860457 0.0
5.344212921686536 5.526744195650314 0.0
9.760936589662048 7.38409687515441 0.0
9.128187788393989 0.1445485608215519 0.0
9.133307661752394 9.854833215426817 0.0
4.867351616228264 3.944459575003425 0.0
5.905323253270366 7.385600364255367 0.0
5.909045412185362 3.361969954191194 0.0
5.80580919758911 3.569999290452344 0.0
5.578230704221431 3.587842862412673 0.0
6.013352753603037 3.550699073477782 0.0
5.936624955014758 3.721630401607248 0.0
5.735413275357409 3.78528948606432 0.0
5.512538847486775 3.794760621907932 0.0
5.360571639388366 3.618649018042938 0.0
5.134141179590394 3.459385929220745 0.0
6.167399567008798 3.367365990358096 0.0
9.766756262206602 8.291756450136036 0.0
5.486063578307141 9.64505925252771 0.0
9.497624614180321 4.328873442170357 0.0
9.811387324954623 1.570516917365688 0.0
9.389210081887331 4.69150887571586 0.0
9.704395728912932 3.754226393630331 0.0
9.808172776193384 3.748784464356272 0.0
6.549660911932182 4.839747932361234 0.0
6.757415124099031 6.077939876843736 0.0
3.805578542126494 8.040840085419626 0.0
4.232580149691158 8.198659880701744 0.0
4.559765382564095 7.87091698350757 0.0
8.3829075948167 0.9495097054886067 0.0
9.8571301061408 1.456307792614791 0.0
2.005900212453279 4.535525273813588 0.0
1.85904408608185 3.956445706785572 0.0
1.979307922430775 5.474327285927505 0.0
4.387923194305381 4.427191306527721 0.0
9.429258370703248 8.873693567695483 0.0
8.99196583083892 4.664567567015693 0.0
3.050357122593155 5.368999067452741 0.0
2.861107385476722 5.785089447130829 0.0
5.005058958272409 3.711196438448062 0.0
9.8972295764837 2.755337284632969 0.0
9.581048890980513 8.853909321617065 0.0
9.668838904423916 1.762418716497425 0.0
9.716576458425756 1.852218615166234 0.0
9.799043132681442 1.780583141193779 0.0
7.661868217848455 2.880323287492419 0.0
6.780136552904057 5.443858690999834 0.0
6.489544866845868 5.913957888434588 0.0
6.880149522020364 4.134257616716107 0.0
6.970134365280068 4.264072319341612 0.0
2.225481516813409 9.348422240784 0.0
1.843418032490818 8.641605249943353 0.0
2.198000805242772 0.6459947140825729 0.0
8.740020306282506 0.1903932731609072 0.0
6.86957996016679 4.720776242956433 0.0
7.430920333506809 0.2702852342693345 0.0
7.302066064947383 0.6134316505458445 0.0
9.305398039877746 4.64854361125207 0.0
4.078151380865065 5.203425462519088 0.0
4.080704120371218 4.778853303303787 0.0
8.052525541571825 5.965483159581719 0.0
6.367194027835946 4.754896037842673 0.0
8.604191121620719 7.648182513679963 0.0
9.546446695207845 9.234701521982952 0.0
9.018652854946867 3.351011585453845 0.0
9.143853648154607 3.350173119015413 0.0
9.067079866763024 3.245174561579149 0.0
8.991492136849105 3.135578770028028 0.0
9.29603967712795 0.1426516429033488 0.0
9.392428271030795 0.2506306237151588 0.0
9.223973843394301 0.2912279164401488 0.0
8.39375191941536 3.018777714002827 0.0
8.4836475746111 2.88135207267795 0.0
8.741089053946197 9.821127577434911 0.0
9.803966507713174 5.448064463539533 0.0
9.748132240148552 5.359371181503531 0.0
9.850258990973547 5.355211921626304 0.0
9.7965346514158 5.266762244994661 0.0
9.84142096963129 5.171050273734619 0.0
9.738843612428232 5.167483913244169 0.0
9.64168976006725 5.359875132194057 0.0
3.335917453809221 5.671837672982919 0.0
6.962669142802881 1.683222554707996 0.0
7.365210844496719 1.887492842536114 0.0
7.517378971174123 1.677983072937792 0.0
8.00383870208024 6.089394601875145 0.0
1.725435941000569 2.759295503019395 0.0
7.907977929549089 5.102827208603365 0.0
8.052861051278896 0.2683271125209605 0.0
9.80169732768395 3.385443381464333 0.0
9.831597648680848 3.28491948963525 0.0
9.736335895866404 3.316207814499244 0.0
9.597256128490281 3.756160701977744 0.0
8.865819925321706 3.366235906378775 0.0
8.489614436807788 1.757152185195495 0.0
8.88089641144391 1.078983279100314 0.0
7.430923851187758 9.724389499796425 0.0
7.584252919312249 9.509430586267927 0.0
9.744026095940516 2.247117754488748 0.0
9.729961521243718 2.659836747108116 0.0
9.790866569780063 2.558993767350471 0.0
9.736606445116795 2.455104424879619 0.0
9.846806182714698 2.452157456754448 0.0
4.518102112052724 5.141350889745285 0.0
4.519880229178207 4.85678334497067 0.0
9.7302407894617 6.434012603549242 0.0
9.787537474544765 6.523591663056312 0.0
9.744262337067932 6.617499601377625 0.0
9.8406238811518 6.41591236129004 0.0
8.914967252734657 3.579360039684312 0.0
9.154797282599406 5.670753066089419 0.0
4.228839454580575 4.612979739018002 0.0
6.095037541675208 4.42126627187728 0.0
9.304166983880842 9.864854494751789 0.0
9.406445527105628 9.759007358529582 0.0
9.256225114941945 9.700832989525724 0.0
9.796206564635622 2.351215649506205 0.0
9.849373673349081 2.25090453834006 0.0
6.332048155295931 3.511675163099286 0.0
9.069679774213784 3.022879178706259 0.0
9.070599961450037 9.055284879641471 0.0
1.808685691036764 6.331557276533421 0.0
7.120156826652838 4.698481230214924 0.0
7.052894345811342 4.799848851879358 0.0
4.739957520484086 5.369107149361242 0.0
9.389197839958292 7.197139943834638 0.0
9.046688232613976 4.560364044038737 0.0
9.162685461967492 4.562194096410666 0.0
4.227377821420887 1.564128177298305 0.0
9.201090975245227 2.794301402811909 0.0
9.251941624303948 2.677556975242327 0.0
9.186758273070138 2.563916005021366 0.0
9.317609833868786 2.560335260954038 0.0
6.57599191748324 2.437689779955877 0.0
6.305556560534859 2.459112595979303 0.0
6.981058048792093 2.642476994448363 0.0
9.886113463139504 6.510498309609482 0.0
9.250462794607717 6.221362629571698 0.0
9.305373999084068 6.108271307139882 0.0
9.390477915810829 6.228015172491477 0.0
9.44452571968143 6.114582165110393 0.0
9.502105740270528 6.197677857389309 0.0
9.31559697209813 6.331647407124485 0.0
9.370938253597153 6.437386206819511 0.0
9.594764406124872 0.1099001288712305 0.0
9.602872681151728 9.894988341116305 0.0
9.622661196143387 8.076680696281343 0.0
9.769069277144705 5.9102532189237 0.0
2.615076109785583 8.807551523115547 0.0
9.658920005405456 5.730890135691177 0.0
9.76063135061807 5.720703211793342 0.0
8.63963723169499 7.177334225227945 0.0
7.841904391869763 6.41346852896409 0.0
7.764520718520185 6.297267738834625 0.0
9.546492996136271 3.465225175657335 0.0
9.25600964352143 2.219157062786616 0.0
7.625057159226293 7.012987957636062 0.0
9.529121062829038 7.730283486008674 0.0
8.329887090625894 3.845190321147069 0.0
8.265841850823831 3.95687001944245 0.0
8.402006523775544 3.947660780406651 0.0
8.128436391670505 3.968543393650448 0.0
8.46705122470662 3.835767362024195 0.0
8.218867047074696 4.063481375518748 0.0
8.089763413611255 4.08062363292928 0.0
7.939578083855268 4.111915744184436 0.0
3.74991304509639 6.615676756107112 0.0
2.627714335615619 1.170993030860914 0.0
7.046129971268607 6.759930788612616 0.0
8.534603732661887 7.486325780553722 0.0
1.569381386467569 2.042794535871475 0.0
6.228703743210918 1.986421863690014 0.0
6.467030855792859 2.67190498312861 0.0
9.272246093269825 1.975478263632296 0.0
8.05269609263041 3.854522845257449 0.0
8.008595521536957 3.177870309354594 0.0
7.929796740504207 3.350600835935766 0.0
8.048703574664067 3.449582532910417 0.0
9.72947480375618 4.973926800124758 0.0
9.784850360535604 5.072865219810449 0.0
9.896036387646596 5.069261557893528 0.0
9.633140953203334 5.168645132864771 0.0
9.558102991128836 7.602453108835212 0.0
7.278758746505716 3.994295887299482 0.0
8.306681733482405 6.936428510427854 0.0
9.487163072013963 3.757777670075558 0.0
9.532950522284125 5.359403698944497 0.0
9.816036650072329 3.927268437107025 0.0
6.173882586235392 8.734645960664665 0.0
7.972518459433741 5.003005338485466 0.0
8.398453459336153 1.601072016988848 0.0
8.97460527296194 4.040886705742754 0.0
9.037941657530773 4.143578781749325 0.0
8.849604200183613 3.828506169652706 0.0
9.545296177100065 4.042698359132156 0.0
8.595941796785514 5.806754902023664 0.0
8.65588412428292 5.694192853853139 0.0
8.723710665131787 5.801528918332044 0.0
6.861288985046249 6.673713222735126 0.0
8.87477249219366 4.664500928777609 0.0
8.72385765226959 3.608276264790996 0.0
7.145228858696953 5.573648565429618 0.0
7.282945121585866 5.558559688509987 0.0
9.224761401603633 1.602363370249125 0.0
9.609115686587552 2.986868833620756 0.0
9.633989947851914 6.628120633848649 0.0
6.046214325132457 5.45615093027661 0.0
9.017014346798927 5.271996636983457 0.0
9.070824864071271 5.168510834798647 0.0
9.189021391555556 5.166867900487267 0.0
9.123328759137758 5.064718588163964 0.0
9.240587446378079 5.06459430516883 0.0
9.250848280531756 5.267364371053135 0.0
5.773050603406019 5.7192906317521 0.0
8.576466432793914 4.3559007860436 0.0
8.634627802680399 4.253467736542067 0.0
8.461790117175607 5.591735227444779 0.0
8.907610717370224 3.713397213891439 0.0
9.80665594564509 5.628066492225966 0.0
8.985935132601089 4.455263493464225 0.0
9.00640209566022 5.067597672073404 0.0
9.833659276096986 6.976519563917422 0.0
8.0283368553477 4.687271895436317 0.0
8.326580191759327 9.127498457128247 0.0
8.650637373791266 5.07513089931925 0.0
8.701067313435203 2.700069743477523 0.0
4.825307249916392 4.884175191874744 0.0
9.418335984190309 6.858444798015129 0.0
3.91434687300816 8.542956908935874 0.0
5.569239724399552 2.064135034637056 0.0
5.234271567762738 2.128974435011933 0.0
5.757920427527626 2.312422707096966 0.0
5.43365689737979 2.427455772745759 0.0
5.673210219624612 2.602111218343444 0.0
7.214258468265766 6.652783071431555 0.0
9.823626269633962 4.30685540664529 0.0
7.96996639420014 4.794005510174826 0.0
7.616003332725032 0.502676560965646 0.0
3.050634530589821 4.659174799474146 0.0
2.870894249800723 4.246924313393336 0.0
5.285393339952368 6.079037173753393 0.0
9.439954241218905 4.23581687956071 0.0
9.67709722097145 4.710772408106511 0.0
7.40767785509217 4.259947873553335 0.0
8.396202587439676 5.486075637998701 0.0
8.323689688705493 5.372061002264632 0.0
8.191312386254125 5.384662546230823 0.0
5.304380054816289 5.369675374029755 0.0
9.093848379546637 4.047647920840374 0.0
7.916313220758624 3.045043876114836 0.0
8.435854831444637 4.144861908356168 0.0
9.060262453079693 0.7340576053322918 0.0
7.053195520344596 5.238809779682351 0.0
9.621762679347093 2.45205452967588 0.0
8.410730269104743 5.287995309529392 0.0
9.655094569234972 3.472720279371932 0.0
7.982140513923982 6.667914768024983 0.0
8.402690325256646 4.883576657130221 0.0
9.17488654147479 4.962006474835693 0.0
9.013188196102961 8.49700148123058 0.0
9.795977244531603 2.156818021002043 0.0
9.893813711206834 9.545820400859157 0.0
7.965349232662289 4.250048884270795 0.0
8.644264557989125 4.874751532150782 0.0
8.215430976121077 1.26077208565765 0.0
8.379717637669398 8.37324652769609 0.0
9.320026533461409 5.559861899725609 0.0
7.885778178744864 0.4977439426642278 0.0
7.547066983926719 5.125166613071239 0.0
7.657542898944819 5.122996245335209 0.0
7.423918840193691 9.000935553397358 0.0
9.854133000712425 5.541931969512857 0.0
9.328508174398952 2.101486405523264 0.0
9.300749600926641 9.530012105354274 0.0
8.130307182491519 5.277079344947874 0.0
8.346752967392757 4.987627363826086 0.0
9.118404185029991 6.007087846617186 0.0
9.048232213728614 5.89431792713258 0.0
9.088340967655858 5.576242562571367 0.0
8.094762487139027 4.789727191449318 0.0
9.915265904493378 5.749591413470928 0.0
9.92169805280126 6.154216704502091 0.0
9.918022441582268 4.549125436287157 0.0
9.919332362905616 4.849536560132457 0.0
9.914800786693318 6.750595509794719 0.0
9.811792900437824 6.703950687575952 0.0
9.900643083988882 3.749855087409844 0.0
9.912423171222734 3.043228996968949 0.0
9.91892875832665 5.949999999993851 0.0
9.913300070218703 3.960831593817277 0.0
7.709347001661226 4.444236534782706 0.0
7.479443107717332 8.071637285053104 0.0
8.839057072155848 6.807845119358974 0.0
8.972330068019902 6.78765448182788 0.0
8.542093772125282 3.941452413628317 0.0
8.279144752968262 5.930387616620717 0.0
9.393455876855919 4.973162505621418 0.0
9.507123333872533 2.855087674515822 0.0
8.77504684283825 2.317347145885344 0.0
8.394133129040345 4.464046960801843 0.0
5.725509852450801 8.210843960481027 0.0
5.62632390239664 3.967637659758752 0.0
7.910815814627989 4.900765971697654 0.0
8.595808444085467 5.590040244353608 0.0
9.705160502006024 0.8106158419444889 0.0
9.82021247904746 0.808810893177099 0.0
9.218352146075844 4.447736986422823 0.0
9.20781892622228 3.858281726888132 0.0
8.713609974387523 5.178241668554946 0.0
3.55755059259364 8.921522400238844 0.0
9.59122926011489 5.452844834281716 0.0
9.70565100407009 9.77887811062354 0.0
9.826938454219809 9.74303055702321 0.0
7.238962096855633 3.278078153406256 0.0
8.575609105166194 4.567807831727537 0.0
8.936449841121737 4.765835458965493 0.0
5.59323463391086 9.248527978398117 0.0
5.280809113285124 4.886132326418428 0.0
9.328132730893216 6.544753806716806 0.0
9.026944889277736 6.67247283515637 0.0
9.81946239021469 3.007926663525007 0.0
8.677633568960493 6.144049349297466 0.0
8.33427489656924 4.571212803519522 0.0
8.55734024448315 6.382535186588269 0.0
8.692399379422756 6.372347713955898 0.0
8.495817478252626 6.503308565233578 0.0
9.905494734661673 2.544078755559835 0.0
6.177101405266569 7.228490244483556 0.0
9.825373011845263 5.807482724503027 0.0
9.808678508609606 8.118683092442964 0.0
8.397717712407108 7.08010313863416 0.0
7.428555529689225 4.935946611338556 0.0
9.575504958128711 6.125633853639113 0.0
9.154066996197898 4.146562596982661 0.0
8.074381802159323 4.337569667261167 0.0
7.018337246891919 8.843475095716133 0.0
7.970627172560641 2.658650028065857 0.0
7.382546388883145 6.723381543491632 0.0
6.822972334933889 4.884555620881615 0.0
8.343732976791593 6.041576709398377 0.0
7.743680217306919 8.423336160305476 0.0
8.505717922983454 1.115022897794028 0.0
9.113973198216474 6.992972408167606 0.0
5.818882632841168 5.300437503812764 0.0
5.951991891717714 5.279516346785062 0.0
9.450183479138845 5.92934813870612 0.0
8.783346541536119 5.48419035750989 0.0
9.38074895894124 5.65076274999803 0.0
9.513658728876734 7.193620441323493 0.0
6.396040948797887 6.776064256962667 0.0
5.389661780244388 4.89715084345563 0.0
4.473247649068957 5.85935163892416 0.0
9.249586607512612 8.37680799459232 0.0
9.103796366487646 8.379197231055114 0.0
6.274057301184156 4.87985402946409 0.0
9.259628836118232 3.561431822636308 0.0
4.037922477011971 5.489409780163391 0.0
5.62712958624254 4.893925433488392 0.0
8.806426003347967 6.133410188141932 0.0
9.53304466499349 9.59279975429444 0.0
9.542890959420024 1.966631379116419 0.0
7.459736176874619 5.863847835420528 0.0
5.937613117200432 4.89232797168023 0.0
6.171611131472617 4.879541833448487 0.0
6.100695199816815 2.291172318314745 0.0
2.315194906726768 8.081958163666464 0.0
6.878489987598286 5.148099521847569 0.0
9.105264414399338 8.639184652727645 0.0
9.20047261316883 3.457820810661327 0.0
9.895329010385955 7.55944047105717 0.0
9.912742873006831 7.76210330502246 0.0
9.37761459375249 3.168397068877758 0.0
8.946121261512507 6.345629828835438 0.0
9.918632496443566 4.449809517365367 0.0
6.848211525651934 5.945010613369067 0.0
9.915721525903255 2.047407395915179 0.0
6.117255841708726 5.163321965161054 0.0
7.276595248786602 5.347247322210079 0.0
6.32682869954104 5.23674259421017 0.0
8.785886448438022 5.692775375342819 0.0
9.099994401883361 6.776698531382792 0.0
9.913397459621638 0.2499999999998165 0.0
9.910352525643928 0.4481571029410266 0.0
9.907850422008579 0.5479735220323012 0.0
9.911983631350465 9.24778487019403 0.0
9.917634740384067 0.7514684821956668 0.0
9.195214232985496 3.254172408378337 0.0
5.000896927376288 1.846006038077654 0.0
9.917172478547403 8.250155740683276 0.0
9.908120476950126 1.742986232208194 0.0
9.914524635720774 1.949567899316728 0.0
9.907358878377153 9.145625165175748 0.0
9.917695944922635 8.949999999998397 0.0
7.648387553139914 5.325741673607362 0.0
9.605343588986079 4.130627398479715 0.0
6.648113233057817 6.774798386229164 0.0
9.910347203087213 8.446729917003672 0.0
9.913623694530468 8.548470085896316 0.0
9.9201245863254 1.536225488581779 0.0
9.906538426683255 1.059019360781604 0.0
9.912867352010919 8.74999999999809 0.0
9.799662981388353 8.79550485462418 0.0
9.831828680383174 5.99966894118311 0.0
9.91414179906643 1.263025320602998 0.0
9.920690092699912 7.240982963665807 0.0
9.385889285950551 2.235126904097426 0.0
9.28133998925606 8.00415195851526 0.0
9.817074723108401 3.172398890123306 0.0
9.482030285089927 7.512954023388035 0.0
6.682432918504054 7.233889573028878 0.0
8.528699633246763 3.260502457553277 0.0
8.91699963742029 2.327016692708648 0.0
9.267676068834481 3.954520684561369 0.0
8.70811637467455 4.974101624783084 0.0
8.18184214270768 7.816666208279135 0.0
9.690393137288163 5.264344933127836 0.0
6.937111790104696 5.245184991960528 0.0
5.895846026722989 5.174232967273284 0.0
8.281683356622615 6.400073017261236 0.0
9.150883172924027 7.444273543454419 0.0
5.430406600793122 3.390815886517273 0.0
5.049583827974758 5.697634876048387 0.0
8.3966710383105 3.495813899905868 0.0
9.007538428392454 8.046563579784266 0.0
4.645155158868719 2.637132843684674 0.0
4.887444326771336 2.30020425915506 0.0
6.483736782775559 4.522536327482678 0.0
7.843169154548308 8.2116075844056 0.0
5.06295551628385 4.901632590583318 0.0
7.201400991012747 5.138239336380897 0.0
8.519791031104612 8.848807089071627 0.0
8.658623737989732 3.031313729049854 0.0
7.585566208322493 3.629882964874684 0.0
8.411818469596405 6.834326722716643 0.0
9.172363528634236 7.669230647622864 0.0
8.85455683341768 2.682483055215344 0.0
9.359398739738925 1.631421337140716 0.0
9.071793864444992 7.337030604117359 0.0
6.968394563521436 3.712808894519514 0.0
7.899236117684646 7.094583340182754 0.0
9.54362864504834 9.781852543872333 0.0
7.151298729743687 7.644795130415299 0.0
5.452218361466201 5.186873761308322 0.0
5.517642289161902 5.293540933999446 0.0
7.802500357665464 5.978295671754199 0.0
6.594850839687122 8.491429270558893 0.0
6.029132431949566 8.294997405201931 0.0
9.31286590869111 0.5672913838331921 0.0
9.25238720319541 0.4415953739444106 0.0
9.550589523211062 4.228044955453704 0.0
8.748611832783206 6.250900951984038 0.0
7.566980108995873 3.995148257893202 0.0
7.426142759241261 3.996743578498081 0.0
6.478912513785404 4.000296412419969 0.0
9.30435638148753 5.168210982711592 0.0
7.542154188520517 5.752525075248498 0.0
7.219033852073297 2.139582470800704 0.0
7.370913620388047 6.545121498197235 0.0
5.226731036024996 5.187572666585561 0.0
8.515591031124366 4.462223215179979 0.0
6.762864307079274 0.3078036604979366 0.0
8.587432696997471 4.977010533175154 0.0
8.703948448756302 8.815629076400704 0.0
8.081003990931544 7.370949680119862 0.0
7.424404567669909 6.949730915714445 0.0
8.578903262311433 8.377992954045473 0.0
7.301258690263783 6.106184350645308 0.0
5.991600556904204 3.99820087171043 0.0
8.203048538477193 1.601044215405025 0.0
7.289972483120081 4.572350254111052 0.0
7.714697186439165 5.420586967696794 0.0
8.918853780709807 1.841796898567452 0.0
9.919941345877513 4.749808449067644 0.0
7.245589454939737 5.94251251443003 0.0
9.258480524497795 3.358952871140391 0.0
3.705877615124628 5.574038727593425 0.0
8.287096858129765 7.962370605242409 0.0
6.799629860952143 3.705385600481528 0.0
4.146753450763018 6.544154457143895 0.0
7.413973555029582 5.545687501585183 0.0
8.466524978378082 4.980481756569235 0.0
7.336312153537934 2.337983522449311 0.0
7.695505222753409 3.747498713679684 0.0
4.898236813123799 4.795853653580084 0.0
4.59779105899602 1.896916774247134 0.0
8.560170375862322 7.072369101894893 0.0
8.386150468360862 2.449771437140704 0.0
8.41200018115259 5.084601315536367 0.0
5.102189912301071 7.621598618277815 0.0
8.336320418935243 6.71651223072348 0.0
5.081745734883095 3.977838926197614 0.0
7.63590698378166 0.9500570055008507 0.0
7.743369677149255 3.051233984704873 0.0
5.357527459690566 0.3809996753407537 0.0
5.967373112873382 0.7731113464301924 0.0
8.169449265206127 6.666271947462212 0.0
5.95122726745053 5.55758205410881 0.0
9.922289489207834 3.53923011719877 0.0
9.39154684476555 2.659037023454942 0.0
7.701415639167884 7.690060291860976 0.0
9.819179654793023 1.329863870021845 0.0
8.358229579054417 6.506108206863729 0.0
9.269720555169467 5.657096143475924 0.0
4.473187658045934 7.435037860084884 0.0
9.65807158077373 3.255496360750368 0.0
9.605155446454205 8.713645566904637 0.0
7.097383547728313 5.141197376985936 0.0
9.812212483832656 1.89920712759492 0.0
9.83875570675407 6.81603549325055 0.0
8.926246869879279 2.079976511571457 0.0
9.166785856141402 9.169070814302419 0.0
8.763479010228052 1.587152667342957 0.0
5.957377924852992 6.404530806530254 0.0
7.14506854375872 6.10342416684208 0.0
5.672595070581394 5.164323323112049 0.0
4.899782787268781 0.3801727265981219 0.0
4.447133848117348 4.673614099606824 0.0
7.044865074789195 3.253639989243549 0.0
9.818461337102992 7.819456450952447 0.0
9.925334577033155 7.954012377173311 0.0
6.352907898232792 1.173665225954276 0.0
7.351721385581032 5.660361289755705 0.0
9.337367583861807 2.76534436379692 0.0
8.693118347802024 4.360254099729149 0.0
9.476812970101324 0.3524826622168163 0.0
7.109868985890334 0.9024224571333925 0.0
7.899106846231403 5.511805431542581 0.0
8.352799544476607 5.187887629361129 0.0
6.957483547582747 0.6176251309213842 0.0
8.099559500483094 1.412323841044818 0.0
9.913030944540278 0.8542404645334569 0.0
9.143075088381442 8.022165366829135 0.0
8.819861450593166 6.356592599428041 0.0
9.319444417409162 1.49938505915629 0.0
6.490262520326714 7.118204362551877 0.0
6.490874470087819 6.582907761235813 0.0
9.82506653058937 0.6146757679104559 0.0
6.803129818897624 4.419048038171804 0.0
9.840901379354312 0.08198751964190581 0.0
9.839740374244226 9.918356239418472 0.0
8.551927134544655 9.449788917425456 0.0
9.92097857388158 3.249999999993177 0.0
5.797087413057367 7.077351493358238 0.0
9.255412859987286 6.433984412022419 0.0
8.668174522249984 1.740767926084485 0.0
9.920991430240607 6.25262219124529 0.0
7.57275248448898 1.94367954756322 0.0
8.052865444445507 8.19900054463639 0.0
8.748697149245206 4.25201068974208 0.0
9.158270227735827 0.5542256343091421 0.0
5.997487767477439 4.787924707603557 0.0
6.119759900601896 4.78043793682227 0.0
4.353034750397793 8.619182743639561 0.0
8.721093521611476 5.588932824583312 0.0
5.717101151444983 1.123034066822819 0.0
9.825602081347064 8.68753399402474 0.0
8.005502510832988 8.7824052910506 0.0
5.548184234622668 6.408009287230429 0.0
5.77830300433981 6.598697187164234 0.0
9.613093825495433 4.50282172481406 0.0
9.928981132641653 9.74928475696928 0.0
6.613628176297015 4.515513362596662 0.0
1.822126723816303 1.297795131355289 0.0
9.514164594137375 1.43081427463862 0.0
4.735494753432723 3.698541604583975 0.0
9.52844959749262 8.615213629960298 0.0
4.660704511759056 0.7947595073298008 0.0
6.82340845160293 5.239926830264399 0.0
7.885938077030673 7.380147032865134 0.0
7.884599891021201 6.09005968568029 0.0
8.846834820720167 9.653276456345532 0.0
8.457777199486827 0.3851010632068662 0.0
6.66485224572131 8.771510767670392 0.0
9.091499342133352 9.708315832477556 0.0
9.824286725109655 4.976315293637262 0.0
7.848197684391786 5.632217046637356 0.0
3.88430598115417 4.225391362015386 0.0
8.776890759183289 2.809688928468134 0.0
7.393884285023409 3.59397875231041 0.0
6.927568893329758 4.396788356869783 0.0
4.96854327720728 2.662368428358774 0.0
9.1480130720193 3.951479613991279 0.0
7.071049729490975 2.38092990636632 0.0
3.40193058782919 1.686321186206593 0.0
7.612042194200681 4.815904436723407 0.0
9.043395868401339 6.888481825015849 0.0
9.098933057562759 8.152197681006806 0.0
6.058682303253315 3.857501492181965 0.0
3.707092669281355 2.986685502034343 0.0
5.113272509841263 5.189455016444592 0.0
6.960565857079232 3.416349532571279 0.0
8.755151527375476 7.649255597361291 0.0
3.393680865444538 3.679982303262531 0.0
3.117424600120088 3.35605258976247 0.0
8.530814041264104 5.488376426140491 0.0
4.820719767306654 5.106646490188182 0.0
9.918899263509473 4.144927088739744 0.0
9.918194630017027 7.447268230913605 0.0
8.461970084137805 3.144844565847669 0.0
9.924415919486059 6.949999999995354 0.0
7.184050152099684 2.72771667662237 0.0
8.834356715215904 7.801565642745232 0.0
8.689015446783005 4.145232831954543 0.0
8.490778532265319 8.234414357968106 0.0
8.63666290918932 2.83060276219705 0.0
4.61028976098935 4.741894230894578 0.0
6.314735925012879 4.003132559161639 0.0
9.20786580425652 4.67001723737971 0.0
7.141401229301469 4.873205425098625 0.0
6.235177809922153 4.774126344778935 0.0
9.12491895896937 3.145675090615719 0.0
9.255747684068178 3.162525801823036 0.0
8.312852272796098 2.290855459722148 0.0
1.449266720542303 3.363629101350872 0.0
9.525687840398492 4.800807314407045 0.0
4.829905263804087 8.14474456977717 0.0
9.09338914689732 7.563794106183232 0.0
5.389401689694107 5.283808684471545 0.0
8.530979415204587 3.029374286908943 0.0
7.901489077080633 6.535344047486632 0.0
9.218572924671975 5.760893551533255 0.0
8.562382833959296 4.143913974026883 0.0
8.62959127904665 8.974877485888243 0.0
9.408442441596518 9.62276529745719 0.0
7.5034765601713 3.869833107932387 0.0
9.842813436634783 6.600620949014236 0.0
9.826116984327193 8.911617279149695 0.0
7.529907780698261 0.7369111006685982 0.0
7.832164962480427 2.905293639437395 0.0
8.39517908433056 3.267417602291069 0.0
9.823014010107707 9.085319632577246 0.0
9.022314123618541 3.944559746338292 0.0
4.243701230676532 5.332574856090426 0.0
9.816740542566388 1.127839952679595 0.0
8.166775715766304 5.693916696568397 0.0
8.865374421689054 8.068986769641638 0.0
8.761145809863661 6.470583506581853 0.0
8.998345275919851 9.209303502026401 0.0
9.698477487436316 6.706902829754045 0.0
6.439032098063426 0.3109134377713525 0.0
7.562681994382136 4.643158005207056 0.0
9.03999088074715 0.2799354672273258 0.0
5.180741540467516 3.805018725608906 0.0
6.243990330956698 2.718077286244967 0.0
9.79416634023361 0.1815240178579244 0.0
9.926540005061975 2.847049370876555 0.0
9.826476210374608 2.670192168078066 0.0
6.365816673179121 4.536333049275508 0.0
5.546353765219417 4.618331215552614 0.0
9.820703096450293 2.000649418331399 0.0
6.884388790679166 3.561583980715254 0.0
7.431303395649604 5.747824222777201 0.0
8.849816832721245 2.19318290395604 0.0
4.185147517585975 5.697469360586313 0.0
9.165905238119013 5.873664931582344 0.0
7.70479478158537 1.788324620089049 0.0
9.627376046933474 0.9196091445437269 0.0
6.657687963328663 5.144792385996769 0.0
9.83245016645186 0.3925568446109945 0.0
7.483092985762584 9.253837199159435 0.0
5.445348362202234 3.977855663863651 0.0
7.476680532833337 4.837183287808616 0.0
9.572749890969304 8.505160319814301 0.0
9.915853314998252 9.437014513917465 0.0
7.679469018350979 7.390484878021194 0.0
9.418139053434402 4.790576000488359 0.0
8.096967733471567 5.865447162201908 0.0
9.829153508938724 8.378494945652118 0.0
9.926595955569645 5.157718300415699 0.0
8.774484245600224 7.939747459426853 0.0
8.629764448155779 6.481031318922794 0.0
8.961169458302376 3.839036702328818 0.0
4.617199205561317 5.256318959792646 0.0
8.480815774219478 4.031210317621497 0.0
9.708341592512763 3.401018043990571 0.0
7.183974816647467 4.77882314543966 0.0
9.821437962294304 7.659391965474772 0.0
8.150320284869602 2.286501016204562 0.0
9.828114434347311 1.684891358832554 0.0
5.349187766238684 6.538177907133678 0.0
8.076053471314525 2.76180604769483 0.0
4.907713691134565 5.29818629967416 0.0
0.6874399366049438 4.328593906714074 0.0
0.6980011780697519 5.702671170050627 0.0
8.263861466707834 8.182284285231713 0.0
5.838783785156478 4.913981390426639 0.0
7.807619472656604 7.235706382002089 0.0
9.388504256318683 6.022122644748753 0.0
9.929839894767033 6.436189192303577 0.0
8.3205848711706 3.39107920408397 0.0
3.240770542267401 4.019899919523968 0.0
8.059047070496568 2.468855909103855 0.0
9.932479519490421 2.449625056415224 0.0
7.737639000139152 4.580708137963557 0.0
8.26141077223695 0.3940397126348397 0.0
9.69568953371801 1.959951226402445 0.0
6.469120930453264 4.892267070266994 0.0
9.167223997255698 0.8102256463122337 0.0
6.236889648241256 0.9291076084031108 0.0
8.306379082772498 5.268830342852036 0.0
6.716089118890225 5.239344620507032 0.0
9.82511981852641 9.282822358664017 0.0
6.68375719572285 4.404998642130821 0.0
8.913754712375674 6.908138360584365 0.0
6.173250048857013 5.251634416326969 0.0
4.235907497612446 1.924052997345291 0.0
5.151007663981651 2.438629730660893 0.0
8.924254300637541 9.3764975797567 0.0
4.438612423541503 5.287968640901957 0.0
8.571203234299599 1.897009944569934 0.0
6.878800676380218 5.821332862798138 0.0
5.710626178601224 4.792560699857408 0.0
7.149510071621283 5.216310009157644 0.0
2.099966541549645 2.334742113488256 0.0
9.93396330620579 5.350566393301629 0.0
7.143046479323961 8.646955109387985 0.0
7.965747313080266 5.193641450105844 0.0
6.3314394693073 5.135050228240639 0.0
7.665821333021348 6.222698255001823 0.0
6.305321657053551 4.659816230868476 0.0
7.833020917089713 5.208837056143474 0.0
9.41455902676429 2.869725681199307 0.0
8.567151507735133 6.598605357295113 0.0
7.405527786978573 4.377085529441429 0.0
6.552969697053132 5.137148974085434 0.0
9.93630620742063 8.042778076596578 0.0
7.166743296019233 4.593171678848165 0.0
6.595561806063966 5.839366735225723 0.0
6.066152182102007 5.262519562574559 0.0
9.834694151277489 0.9093455747994099 0.0
8.98259191950674 7.579732466796592 0.0
6.465071238839505 5.25485771955322 0.0
9.759759896588413 3.236659507608532 0.0
4.775529448101694 5.224235675150505 0.0
9.935991245222917 7.153416415978829 0.0
0.6530736820718381 9.352299998916202 0.0
0.6449439415299687 0.6468300344151556 0.0
7.804690364869245 4.495816547678174 0.0
9.84503784553893 5.70620404704573 0.0
9.83525329400959 3.826992990746767 0.0
9.922964894244684 4.265000406933376 0.0
8.333767638401964 1.121219971446645 0.0
8.876012546033895 7.019147158538482 0.0
8.172413577824324 3.413096916572049 0.0
7.232233017296214 4.478957103028363 0.0
6.214597295185415 3.852860083673202 0.0
9.85013791746415 4.400709747289421 0.0
3.941627380932058 6.342995010255737 0.0
3.097271569675528 8.77391871286929 0.0
9.292917152323044 6.010976049411984 0.0
8.104342196673183 5.184165973282902 0.0
8.994300084006271 3.652611812846807 0.0
9.937157897030163 5.549999999993244 0.0
8.721368888525245 7.274540720770752 0.0
8.920003648712827 0.9516585309368178 0.0
7.910527456030004 8.536826514867816 0.0
9.846441288756814 4.60515911863952 0.0
9.584942233925151 4.712073182517884 0.0
9.642357858573972 6.805672051759494 0.0
9.797024725252207 9.838837222258014 0.0
9.842451438022124 4.018973836958878 0.0
6.112723137676118 3.704473949316424 0.0
7.574641969193845 3.765362276156904 0.0
7.826594968121701 6.200366572362263 0.0
7.762805366733504 9.34009502796868 0.0
9.56854033867856 1.012566255816665 0.0
7.71256563655353 5.219373702836014 0.0
9.68039392238282 8.786964504862018 0.0
5.910362452777086 9.277662068919813 0.0
7.418090653922814 3.326443419100716 0.0
9.857704179097952 4.697553149694669 0.0
8.452469674653342 8.996585816905599 0.0
9.522351366699843 2.057525484575908 0.0
7.802315574700843 9.548878971475935 0.0
9.938875656926385 3.449999999992592 0.0
8.425189037911712 6.608575180629274 0.0
5.925965231566842 2.523669697740033 0.0
6.654918072256329 5.95749128982984 0.0
9.826748589235729 9.631118448471485 0.0
8.6684585637523 7.39633999085442 0.0
9.844673843931567 3.090088625379724 0.0
9.93613850661301 2.250382721159617 0.0
9.218291993658738 2.892108990205171 0.0
9.83502846611296 8.212781989607324 0.0
7.754136409732265 7.104288507262783 0.0
8.510570542791681 2.036933285735889 0.0
7.757745059307245 4.315798612475442 0.0
7.989231770559189 6.201656630465583 0.0
8.068934521422738 4.198631572122605 0.0
4.957478134450373 9.038766150325067 0.0
7.208661142641733 6.501402463831379 0.0
7.299506095906239 4.363561999234681 0.0
8.250303873550486 2.105322217421675 0.0
8.678637541413377 7.053471135702286 0.0
9.761528395137384 6.163503990672834 0.0
9.84494857233395 8.59999999999775 0.0
9.83825138794677 3.672838954969637 0.0
5.121008544047756 5.808127183024784 0.0
8.343911550360986 4.043535893276861 0.0
9.85324441775315 5.899999999993774 0.0
9.51114465213134 8.41035540646284 0.0
6.505812179224195 6.93390566262983 0.0
6.15572847138365 9.023097246950844 0.0
3.352081892333425 3.024853379890529 0.0
6.433163283162099 8.675072413910678 0.0
8.825744236698243 3.624446391299867 0.0
4.883007294861279 7.819620905924936 0.0
5.876659170760434 5.638247433601083 0.0
6.859400040348503 6.510797998354633 0.0
7.946400945409184 3.500317276373196 0.0
7.496830255505493 6.653194511698024 0.0
9.852183479755313 4.891525833556942 0.0
9.77998778436291 2.922486526124376 0.0
6.774672660492365 5.324728659740495 0.0
5.717254072187427 6.824125962512845 0.0
9.713440940838062 4.63793103997539 0.0
8.859858662536796 0.2721395536350836 0.0
8.37556017530946 9.436653414116012 0.0
7.395237381047616 7.885576562773319 0.0
5.4709157802033 4.511152089197594 0.0
9.489749416979361 9.691840729914848 0.0
4.599216022837964 3.46438688931078 0.0
5.572287492757569 4.807021644849729 0.0
9.926499336309957 9.92730688390086 0.0
9.926499336310107 0.07269311609890093 0.0
9.338127766332573 0.3585313952168247 0.0
6.810761948165162 3.414693294319008 0.0
8.166274345037138 5.943611545564389 0.0
5.2892644736731 6.301081312912763 0.0
9.731911074791544 7.649313380659622 0.0
8.90251102352767 9.50983415326544 0.0
8.997881406541017 1.033666784655452 0.0
5.835124768755703 2.738139962594905 0.0
9.665357480775825 6.185331297099201 0.0
7.656532192558493 8.217157287499347 0.0
9.170463887605525 2.975444721032631 0.0
4.208158615905443 0.8648302238584886 0.0
6.97015686031129 5.933674629077266 0.0
6.181941366523793 3.565885175921835 0.0
3.30313590337911 6.393402837735046 0.0
6.447482061767014 4.816169316820496 0.0
8.185341428749446 4.169172087371246 0.0
4.552595724340015 8.298301336212145 0.0
9.84850676569699 8.999999999998423 0.0
9.846941514449377 7.393642828194986 0.0
7.924592433490734 2.788309934035703 0.0
8.154308714226714 8.853640122009672 0.0
8.876629743004642 1.96110242719995 0.0
7.228849192966834 8.90811350348676 0.0
9.852301635085423 8.296637825215246 0.0
5.219795195341889 5.547413133147649 0.0
9.861497117995457 6.901363010201344 0.0
2.953911258021604 6.136007283255669 0.0
6.93158841067062 4.77708273647784 0.0
9.67540418457871 2.912802891506324 0.0
4.194055958522277 4.437353127730132 0.0
6.133959559341536 0.406856611599261 0.0
8.29952795189331 9.309744645643846 0.0
9.843692337952948 1.209647690818311 0.0
5.164986286280336 6.671544079402435 0.0
9.838533350075606 2.081705440779448 0.0
8.301244777513975 6.604088853319459 0.0
5.471494771710784 2.714598185146428 0.0
8.86534684892311 1.208599471795828 0.0
9.940610684232212 1.451558535868664 0.0
9.40896208432968 1.428353940655538 0.0
2.329177605337097 4.238803555614174 0.0
5.980761651517799 7.182207186682233 0.0
9.66541573964336 0.1719254072074424 0.0
7.220979380229172 7.806128737674462 0.0
1.251721227904697 6.151932667911503 0.0
8.104967286191181 6.057912607875576 0.0
6.650768762224724 4.817922869198292 0.0
6.634976350437587 3.213339182992986 0.0
7.034320437500567 4.898219100342838 0.0
9.502772020064167 6.283064492634301 0.0
8.13187938667684 3.518506862055515 0.0
9.855471943454193 2.599999999994991 0.0
9.056747742708522 8.263936599935574 0.0
4.352645795441222 5.724453640019 0.0
3.744263984699181 1.488951698361357 0.0
5.175860134287045 3.6375726667098 0.0
7.736434712114619 6.400417475661193 0.0
9.857658576695343 6.316607183405179 0.0
7.876525261950537 4.304285002335559 0.0
9.856114384785611 7.914602773442983 0.0
9.848334119947063 0.7059644476295188 0.0
9.59694321995579 6.895814046141667 0.0
5.906465212962551 3.869023950643881 0.0
9.840676994268005 9.364956386459765 0.0
5.355015287544095 3.83518170601625 0.0
6.374090407153147 5.855743754257685 0.0
8.227401290513832 5.297819733684674 0.0
5.451235131977493 4.825706629991923 0.0
6.022070213762754 5.355923882747634 0.0
9.845674433677614 6.108401449483281 0.0
9.835067400944396 7.739582406783081 0.0
8.602026805792988 2.941372356914139 0.0
5.059869081004962 5.269480960018243 0.0
5.284714507903736 5.26496663762182 0.0
9.627110479149561 7.660076105040499 0.0
6.820001127809743 4.792514421153957 0.0
5.120512795059439 4.806607659110254 0.0
9.56933817216883 2.911464407429096 0.0
9.74091654291531 9.267545397628387 0.0
9.93006767325302 6.576784040838644 0.0
9.642486276936268 4.650227701598451 0.0
5.185183328569137 9.410919109238325 0.0
9.37052946854105 4.605636695802024 0.0
1.677077220416309 5.871167715901136 0.0
7.345783833404538 3.184020711886284 0.0
5.419239942654976 5.982692039856376 0.0
6.133318300188262 2.551919945731369 0.0
6.187291396343277 4.499077117404439 0.0
1.231465237822878 3.921479198315213 0.0
8.969849937139944 9.699215363213542 0.0
9.218303154263054 6.037447959776716 0.0
CELLS 4886 19544
3 1113 1356 1450
3 1402 231 1659
3 272 269 1414
3 396 394 1777
3 1451 945 1452
3 194 81 1801
3 1847 1501 2104
3 2024 2121 2479
3 1115 1113 1450
3 1124 1413 1844
3 1061 1955 2409
3 307 305 1645
3 1592 1369 1593
3 238 1501 1847
3 1955 1883 2409
3 1808 243 1910
3 1885 978 2362
3 1440 793 2092
3 189 1488 1608
3 353 350 1864
3 2007 2231 2232
3 307 1645 2493
3 1096 1760 2496
3 2178 874 2179
3 621 625 1595
3 1493 1480 1938
3 1655 1268 2137
3 1341 1410 2212
3 243 1808 2360
3 1902 1446 2516
3 1760 1096 1763
3 856 790 2180
3 2008 2046 2105
3 789 1809 2067
3 694 1543 1575
3 1127 1762 1953
3 1748 807 2228
3 1543 1308 1575
3 820 1872 2170
3 1417 954 1998
3 1369 1592 2386
3 272 1414 1787
3 329 333 1998
3 1544 1095 1545
3 2231 1490 2232
3 1342 1683 1790
3 374 377 1797
3 807 1678 2228
3 1665 198 2128
3 141 142 1620
3 325 322 1952
3 231 1402 1654
3 198 1665 2010
3 1890 1307 2387
3 208 1438 1619
3 2016 1970 2156
3 1436 212 2020
3 954 1417 2333
3 1736 1894 2244
3 1491 1750 2143
3 1677 1064 2146
3 1474 1258 1475
3 1500 233 1930
3 1446 2415 2516
3 1700 973 1800
3 2128 2270 2316
3 1316 1315 1593
3 1307 2341 2387
3 2258 1324 2328
3 1083 1507 1508
3 693 1095 1544
3 621 1595 1596
3 667 1571 1872
3 1932 1766 2061
3 393 391 2240
3 1342 1790 2400
3 252 1707 2234
3 931 978 1885
3 1430 1116 1704
3 1411 1109 1714
3 1478 1227 2440
3 1990 195 2297
3 1792 1167 1985
3 1682 444 1975
3 394 397 1777
3 1711 2028 2162
3 1574 856 2180
3 2008 1851 2046
3 736 1493 1938
3 1069 1060 1662
3 1458 455 1754
3 862 691 1705
3 1161 1642 2286
3 1699 1700 1800
3 447 516 1637
3 955 1482 1483
3 2024 206 2121
3 391 1773 2240
3 1072 1412 1893
3 212 1436 2350
3 1566 1365 1568
3 259 1441 1672
3 872 870 1764
3 330 328 1889
3 1539 1161 2286
3 1897 1898 2275
3 1434 1990 2297
3 1109 1411 1730
3 319 307 2493
3 1762 1761 1953
3 1369 1316 1593
3 1540 834 1832
3 1505 652 2442
3 1732 1655 2137
3 921 1712 2295
3 1872 1388 2170
3 1712 921 2125
3 2028 244 2162
3 1506 1570 1680
3 1569 368 1964
3 1571 667 2375
3 1587 2178 2179
3 196 1723 1737
3 524 2016 2156
3 1528 1250 1733
3 1115 1450 1973
3 1938 1480 1971
3 1809 1396 2067
3 1641 249 2299
3 1223 1258 1474
3 1365 1566 2120
3 1981 962 2316
3 1538 353 1864
3 455 1458 1756
3 152 233 1500
3 1116 1430 1703
3 817 652 1505
3 1347 2003 2004
3 1607 1958 2085
3 194 1801 2195
3 1410 1341 2351
3 223 1415 1710
3 197 1511 2346
3 2198 787 2225
3 81 82 1801
3 1438 208 1620
3 1444 522 1823
3 1511 197 1950
3 726 718 1567
3 1637 516 1739
3 1708 2337 2341
3 1280 1649 2124
3 2337 1395 2341
3 1327 1709 2315
3 1225 1227 1478
3 691 624 1705
3 476 2224 2305
3 830 832 2204
3 1750 1491 2403
3 1366 1897 2275
3 2345 1583 2352
3 2054 405 2110
3 1984 2172 2230
3 1846 2198 2225
3 1177 2042 2418
3 2121 1367 2479
3 1527 1531 1541
3 916 1039 1834
3 1413 1124 2467
3 1622 1503 1868
3 249 1641 2019
3 1805 405 2054
3 1761 1007 1953
3 1415 223 2395
3 960 1756 2203
3 368 1569 2135
3 1402 1659 2473
3 941 1433 2471
3 1267 1477 1501
3 260 2002 2265
3 1704 558 2077
3 2224 1886 2305
3 2053 1386 2199
3 1452 945 1952
3 1717 1611 1718
3 1682 1975 2230
3 1760 1762 2496
3 1481 203 2104
3 1264 1266 1670
3 142 236 1620
3 2133 1182 2179
3 1791 1602 2183
3 350 346 1864
3 1412 1072 2393
3 1281 1575 2255
3 1565 1948 2155
3 849 1449 1513
3 1958 396 2085
3 1339 1069 1662
3 834 1540 1917
3 269 267 1414
3 1268 1267 1501
3 1440 2092 2468
3 1399 1981 2316
3 1635 1636 2041
3 1454 252 2234
3 1451 1305 1890
3 1375 1883 1955
3 362 366 1786
3 1484 2410 2528
3 1449 849 1640
3 1267 1474 1477
3 200 1611 1717
3 1054 1581 1582
3 1350 1977 2253
3 190 1390 2118
3 788 1956 2193
3 1709 1327 1888
3 2233 2298 2413
3 1488 189 2355
3 478 1685 1714
3 230 1525 1690
3 1687 478 1688
3 427 429 1756
3 1570 1065 2476
3 1880 1133 1988
3 1649 656 2124
3 1537 209 1614
3 1134 1769 1986
3 1220 1268 1655
3 396 1777 2085
3 1167 1755 1985
3 2229 1744 2296
3 1575 1281 2287
3 127 240 1882
3 377 647 1797
3 954 329 1998
3 220 1697 1698
3 1342 1341 2212
3 1441 264 1672
3 1512 188 2433
3 763 2345 2352
3 1685 1411 1714
3 1805 1188 1951
3 1347 2004 2157
3 1054 1582 1667
3 1333 1617 1674
3 2217 73 2361
3 1539 1036 1917
3 1039 1292 1834
3 208 141 1620
3 1965 1964 2038
3 693 1544 1969
3 1453 239 2279
3 203 1481 2049
3 945 1451 1889
3 680 1459 2134
3 354 2147 2196
3 1405 1932 2061
3 1723 1722 1737
3 1748 1175 1927
3 1532 1528 1733
3 2057 1824 2154
3 1406 1659 1702
3 1948 1186 2155
3 210 1598 2114
3 1685 478 1687
3 1324 1325 2328
3 1526 1250 1527
3 165 166 1509
3 1493 736 2523
3 1526 1527 1541
3 1390 190 2417
3 522 1444 1998
3 1680 1570 1732
3 1017 1442 2525
3 374 1797 2430
3 1507 1083 2197
3 1756 960 2221
3 2270 1400 2316
3 2205 1452 2282
3 1074 1187 1888
3 2158 1245 2200
3 1442 1017 1684
3 864 1116 1703
3 1750 1751 2143
3 1456 516 1492
3 1677 2146 2149
3 2022 1339 2388
3 1602 258 2183
3 678 1594 1595
3 1245 1670 2200
3 972 830 2204
3 2143 983 2342
3 1268 1501 2226
3 1266 1461 1670
3 1487 222 2465
3 1382 2022 2388
3 58 59 1661
3 2147 1543 2196
3 1484 1485 2410
3 628 2053 2199
3 1906 1549 2259
3 364 362 1786
3 1339 2022 2247
3 1636 525 2041
3 625 678 1595
3 678 1593 1594
3 2212 1410 2222
3 1837 1865 2215
3 1699 1800 1801
3 866 864 1703
3 893 1472 1982
3 1735 1736 2244
3 1633 1255 1922
3 126 127 1882
3 681 867 1656
3 1351 1401 2363
3 11 228 1588
3 1127 1953 2454
3 265 266 267
3 1722 1122 1737
3 1389 1691 2069
3 1613 1610 1616
3 1227 1256 2440
3 429 455 1756
3 1535 1177 2418
3 322 324 1952
3 973 1700 1802
3 1964 368 2038
3 1176 1865 1866
3 1096 872 1764
3 1176 1866 1875
3 193 1839 1892
3 156 157 1441
3 615 617 1596
3 686 1520 2480
3 1409 2097 2305
3 2410 1151 2528
3 1427 2217 2361
3 440 1911 2314
3 1744 1743 2296
3 516 1456 1739
3 1939 589 2164
3 690 931 2150
3 1062 1579 1580
3 1054 1580 1581
3 955 1483 1716
3 1064 1677 2248
3 1956 1616 2193
3 1776 1893 2026
3 1398 1115 1973
3 2002 1453 2265
3 1541 1531 1542
3 216 2191 2536
3 1736 1326 1894
3 1065 994 1066
3 1598 2115 2175
3 2314 1911 2358
3 1433 941 2042
3 2115 1209 2175
3 717 1550 1551
3 188 1941 2433
3 267 1132 1414
3 771 1569 2064
3 1157 1545 1546
3 1231 1250 1526
3 1933 240 2181
3 222 1487 2025
3 1525 230 1765
3 1430 1704 2077
3 757 1744 2495
3 264 263 265
3 883 773 1917
3 739 2205 2282
3 1667 1582 2434
3 1744 757 2474
3 239 1453 2002
3 1441 259 2356
3 2005 1443 2012
3 254 1766 1932
3 1509 166 1679
3 1477 1475 1481
3 793 1440 2165
3 1385 1523 2377
3 1481 1475 2523
3 156 1441 2356
3 1066 1220 1655
3 945 325 1952
3 2094 2087 2134
3 1747 1175 1748
3 253 262 263
3 1327 1074 1888
3 718 715 1567
3 2046 1043 2105
3 240 1933 2399
3 1305 1307 1890
3 224 58 1661
3 1195 1566 2285
3 1590 1393 1749
3 1255 1230 1922
3 353 1538 2073
3 358 1999 2325
3 882 1802 2036
3 1024 1020 1604
3 333 522 1998
3 1401 1351 2414
3 1475 1258 1476
3 2310 786 2364
3 328 945 1889
3 807 1748 1927
3 825 724 1912
3 1742 263 2491
3 267 266 1132
3 2077 2102 2203
3 1431 1432 1860
3 1212 1957 2312
3 2097 476 2305
3 1132 1402 2473
3 717 713 1550
3 1746 693 1969
3 1372 1124 1844
3 1256 1541 2269
3 1977 1350 2274
3 2332 1978 2443
3 874 2133 2179
3 1983 1534 2171
3 1157 1544 1545
3 1230 1228 1922
3 1580 1579 1581
3 1565 806 1948
3 1416 1363 2413
3 1287 1995 2398
3 265 263 266
3 1534 1529 2171
3 1604 1834 2428
3 1255 1633 2509
3 1344 1643 1644
3 1332 1388 1571
3 1423 217 2217
3 2191 1057 2451
3 458 447 1637
3 1250 1233 1733
3 472 2212 2222
3 1175 1747 1840
3 1652 256 1653
3 1073 1347 1572
3 200 145 1609
3 683 640 1585
3 1116 862 1705
3 1221 1223 1474
3 1778 801 1803
3 1503 1622 2471
3 1475 1493 2523
3 464 680 2134
3 14 210 2114
3 579 1880 1988
3 1434 1435 1990
3 1447 2310 2364
3 275 274 276
3 2294 1871 2419
3 814 1068 1684
3 1172 1439 2273
3 273 272 274
3 1363 1416 2406
3 1220 1219 1221
3 1060 1656 1662
3 1099 1792 1985
3 2048 1198 2168
3 1241 1245 2323
3 699 723 1753
3 1640 1862 2070
3 910 1018 1584
3 1586 1067 1587
3 1656 867 1662
3 1067 686 2480
3 654 2242 2294
3 1593 1315 1594
3 1880 553 1974
3 236 1717 1718
3 617 621 1596
3 1723 196 2313
3 402 1877 2116
3 273 274 275
3 2202 1869 2252
3 1510 1358 1767
3 193 1892 2373
3 1188 1805 2054
3 1220 1221 1267
3 1066 1218 1219
3 1517 1097 1518
3 1677 1676 1858
3 686 277 1520
3 268 267 269
3 697 857 1592
3 220 1698 1699
3 1802 1700 2036
3 1612 1537 1614
3 929 817 994
3 228 12 2136
3 2110 2116 2482
3 1659 1658 1702
3 1611 1613 2280
3 1344 991 1643
3 683 1585 1604
3 1638 1358 2404
3 1485 1034 2410
3 2214 833 2424
3 271 272 273
3 1482 955 1962
3 1066 1219 1220
3 931 1885 2150
3 1613 1891 2280
3 1189 1589 2204
3 1566 1195 2120
3 726 1567 2490
3 1122 1722 1874
3 1494 319 2493
3 1671 259 1672
3 1267 1221 1474
3 603 528 1591
3 1664 2128 2316
3 1817 1924 2174
3 1626 1660 2111
3 1474 1475 1477
3 1023 1062 1580
3 1957 1599 2312
3 1764 1939 2164
3 1358 1950 2404
3 200 1609 1610
3 1431 1082 1432
3 1778 1803 2521
3 1830 1832 2075
3 1930 233 2369
3 1329 1482 1650
3 757 1959 2522
3 1239 1247 1597
3 758 1978 2332
3 1569 1290 2064
3 216 1694 2191
3 1453 1420 2265
3 1549 1906 2129
3 24 215 1674
3 19 235 1676
3 1621 1057 2191
3 1691 1389 2262
3 1617 1333 2192
3 929 994 1065
3 1769 1672 1986
3 1893 1412 2026
3 1609 1537 1612
3 271 269 272
3 1373 1438 1620
3 217 1423 2381
3 517 330 1889
3 1322 1055 1667
3 1974 553 2499
3 228 2136 2187
3 1589 1189 1788
3 1999 1577 2325
3 2110 405 2116
3 189 1608 1842
3 1055 1050 1667
3 739 1455 2205
3 1865 1176 2215
3 319 1494 2522
3 2474 757 2522
3 1484 227 1485
3 10 11 1588
3 723 809 1753
3 27 230 1689
3 1550 806 1565
3 1179 1180 1217
3 207 1617 2192
3 1433 1217 1502
3 1562 1556 1606
3 1379 2017 2018
3 1245 2158 2323
3 675 1097 1517
3 884 501 1599
3 1020 683 1604
3 1603 1095 1848
3 1001 2057 2154
3 1604 1585 1834
3 1610 1612 1616
3 1764 870 1939
3 2242 1871 2294
3 1669 1264 1670
3 1658 213 1702
3 1995 1646 2398
3 631 539 1600
3 1491 2143 2342
3 1801 1800 2195
3 1200 1199 1693
3 1535 940 1861
3 1534 758 2332
3 914 2258 2328
3 1588 228 2457
3 216 138 1694
3 151 152 1500
3 1133 1880 1974
3 1677 1858 2248
3 1294 1622 1868
3 875 1010 1767
3 1379 2018 2416
3 1279 2202 2252
3 182 256 1652
3 1592 857 2386
3 672 681 1656
3 615 1596 1824
3 1093 1487 1623
3 1823 522 2100
3 1245 1242 1669
3 1582 1581 1583
3 758 1534 2306
3 1975 1984 2230
3 1358 1510 1950
3 1663 1336 1665
3 2102 960 2203
3 366 1087 1786
3 1740 1490 2231
3 21 207 1709
3 145 146 1609
3 2339 765 2384
3 603 1591 1668
3 2081 199 2149
3 1540 1832 1879
3 1721 1723 1947
3 1754 455 1793
3 1751 1753 2119
3 882 1701 1807
3 1540 1539 1917
3 242 1695 1697
3 1521 354 2091
3 1363 2233 2413
3 1584 1018 1925
3 703 1067 1586
3 1177 1178 1179
3 795 916 1834
3 277 276 607
3 1571 1388 1872
3 22 23 1617
3 1097 823 1177
3 25 26 1624
3 419 418 1790
3 1728 1906 2259
3 440 1455 2261
3 1877 1318 2116
3 1488 1156 1608
3 1439 2130 2273
3 1889 1451 1890
3 1614 209 2389
3 1472 893 2094
3 675 821 823
3 23 24 1674
3 1788 1190 2183
3 917 941 1622
3 1763 1096 1764
3 1068 1442 1684
3 1034 1485 2173
3 2172 1533 2230
3 138 139 1694
3 1065 1570 2197
3 607 674 675
3 1536 1248 2268
3 229 135 1734
3 1437 1925 1926
3 680 510 1646
3 147 209 1537
3 26 27 1689
3 1627 705 2163
3 206 1651 2121
3 2409 1785 2462
3 1492 682 2447
3 1223 1225 1258
3 889 1772 2374
3 253 263 264
3 275 276 277
3 1455 739 2261
3 2022 1382 2176
3 150 227 1484
3 639 1019 1591
3 1449 1640 2070
3 1082 833 2214
3 1503 1502 1504
3 144 200 1717
3 1643 991 1713
3 1190 1791 2183
3 1538 1804 2073
3 1256 2269 2440
3 18 19 1676
3 521 531 2000
3 790 849 2180
3 1075 1329 1650
3 1087 1782 1785
3 1066 994 1218
3 270 269 271
3 682 1492 2494
3 185 252 1454
3 253 158 262
3 1629 1632 1633
3 200 1610 1611
3 1477 1481 2104
3 1623 1487 2465
3 1518 1097 1535
3 1414 1132 2460
3 1179 1217 1433
3 177 1506 1680
3 1392 1017 2525
3 1832 834 2075
3 675 823 1097
3 1459 2094 2134
3 1782 1087 1795
3 1838 1730 2372
3 1639 149 2528
3 1617 23 1674
3 2265 1420 2489
3 180 232 1859
3 1527 1250 1528
3 20 21 1709
3 1083 1508 2311
3 903 866 1703
3 1455 440 2314
3 1187 1858 1888
3 1659 1406 2473
3 1446 1902 2166
3 421 1951 2106
3 1598 210 2115
3 154 259 1671
3 1288 1835 2080
3 1832 1831 1879
3 1258 1225 1478
3 1024 1604 2117
3 1263 1429 1739
3 706 705 1627
3 1583 1581 2352
3 407 1805 1951
3 856 1574 2527
3 1701 882 2036
3 1624 26 1689
3 717 1551 1552
3 1385 2377 2391
3 2302 1745 2354
3 1572 1347 2157
3 1036 883 1917
3 1689 1690 1691
3 1664 1665 2128
3 1476 1479 1480
3 1751 2119 2143
3 815 814 1684
3 1790 889 2400
3 1606 1607 2085
3 265 267 268
3 418 889 1790
3 1522 1521 2091
3 135 136 1734
3 1726 1445 1729
3 647 1796 1797
3 1346 1453 2279
3 1293 1827 2117
3 1242 1244 1669
3 1853 1852 1854
3 889 2374 2400
3 1039 1038 1290
3 1524 628 2199
3 1331 1332 1571
3 1291 1290 1569
3 1475 1476 1493
3 1850 1852 1853
3 1490 1740 2456
3 1689 230 1690
3 1256 1526 1541
3 1704 1705 2167
3 1465 1470 1675
3 956 1073 1572
3 1613 1616 1956
3 916 917 1038
3 2014 1522 2091
3 1221 1222 1223
3 1999 763 2352
3 234 10 1588
3 1697 220 2335
3 1527 1528 1529
3 2298 1600 2413
3 1436 2020 2254
3 1642 1161 1678
3 1523 1385 2436
3 1730 1838 2426
3 795 796 916
3 713 711 1550
3 1456 1263 1739
3 999 1336 1663
3 1785 1784 2462
3 409 415 1783
3 607 675 1517
3 1229 1231 1526
3 1958 1855 2078
3 1589 1588 1590
3 1933 261 2380
3 762 1965 2038
3 1756 1458 2203
3 1776 597 1893
3 1794 1072 1893
3 188 1512 2266
3 1774 2339 2384
3 188 1908 1941
3 1010 1510 1767
3 2189 2285 2307
3 773 834 1917
3 1245 1669 1670
3 1248 1597 2268
3 146 1537 1609
3 818 910 1584
3 1641 1313 1651
3 1217 1745 2302
3 1065 1066 1655
3 1597 1247 2047
3 1360 2177 2376
3 1612 1615 1616
3 2126 867 2186
3 1019 683 1020
3 1747 892 1840
3 1092 1093 1623
3 261 1933 2181
3 400 424 1666
3 1516 1903 2377
3 1100 1392 1605
3 247 1738 1881
3 268 1134 1986
3 1177 823 1178
3 884 1599 1957
3 263 262 2491
3 806 1627 1948
3 1227 1229 1256
3 191 1729 2504
3 1636 1635 2502
3 1480 1479 1601
3 1721 1947 2498
3 1924 1146 2174
3 229 1734 1735
3 175 204 1725
3 1179 1178 1180
3 354 1521 2147
3 665 697 1592
3 640 646 1585
3 627 545 1636
3 1882 240 2399
3 1556 1555 1606
3 1373 1620 2394
3 1871 1071 2419
3 548 1628 1629
3 455 436 1793
3 974 1831 1841
3 1844 1413 2392
3 1612 1614 1615
3 209 1639 1937
3 1329 1330 1331
3 1823 2100 2142
3 1097 1177 1535
3 1021 1020 1022
3 825 1912 2455
3 913 1122 1874
3 400 1666 2113
3 1256 1229 1526
3 1419 1418 2450
3 1552 1551 1553
3 1850 1099 1852
3 1629 1631 1632
3 801 685 2029
3 1618 1619 1621
3 265 268 1986
3 1715 2165 2330
3 1531 1529 1534
3 1022 1024 1576
3 658 693 1746
3 703 686 1067
3 1062 1576 1577
3 1023 1022 1062
3 236 1718 2394
3 1688 502 1740
3 1501 1477 2104
3 213 165 1509
3 646 795 1585
3 196 1737 1738
3 379 679 1795
3 639 640 683
3 924 875 1767
3 1752 699 1753
3 207 2192 2315
3 627 1636 1660
3 1217 1180 1745
3 730 728 1833
3 528 561 1591
3 1444 1417 1998
3 252 186 1602
3 1729 1445 2504
3 460 502 1688
3 1418 946 1778
3 1203 1200 1693
3 548 470 1628
3 849 668 1640
3 646 785 795
3 607 276 674
3 14 15 210
3 147 148 209
3 478 460 1688
3 1709 207 2315
3 1157 1546 1608
3 1155 1731 1899
3 1524 1934 2390
3 1775 921 1876
3 1433 1502 1503
3 470 458 1628
3 1223 1224 1225
3 1291 1569 1964
3 871 1056 1826
3 1781 1783 1915
3 1587 1067 2300
3 916 1038 1039
3 1388 1387 1389
3 1611 1610 1613
3 1075 1328 1329
3 1039 1290 1291
3 1538 1265 1804
3 1184 1185 2163
3 597 598 1794
3 1450 1356 2421
3 1835 576 2080
3 1629 1628 1631
3 1331 1330 1332
3 561 639 1591
3 1476 1480 1493
3 705 703 1586
3 639 683 1019
3 1951 1188 2106
3 436 446 1793
3 1472 1297 2142
3 1332 1387 1388
3 1345 984 1720
3 1329 1328 1330
3 1050 1048 1667
3 150 151 227
3 11 12 228
3 557 541 2256
3 1831 974 1879
3 134 229 1766
3 1357 1358 1638
3 1336 1641 2299
3 1650 1482 1962
3 1591 1019 2512
3 1506 1507 1570
3 1803 801 2029
3 1178 823 1972
3 1552 1553 1554
3 1290 1038 1294
3 1028 1313 1641
3 1237 1239 1597
3 993 1017 1100
3 893 2087 2094
3 149 1484 2528
3 1768 1142 1949
3 9 234 1673
3 1554 1553 1555
3 668 632 1640
3 711 806 1550
3 1628 458 1637
3 1098 1829 1830
3 1482 1331 1483
3 531 1818 2000
3 435 419 1790
3 1156 1157 1608
3 1182 1184 2179
3 510 512 1646
3 1231 1233 1250
3 946 841 1778
3 1483 1331 1571
3 1459 680 2458
3 1166 1040 1210
3 892 1657 1820
3 1042 1445 1726
3 1019 1020 1021
3 749 805 1810
3 234 1588 1589
3 1695 242 1892
3 556 1853 2483
3 1018 1572 1573
3 1529 1528 1530
3 1606 1558 1607
3 1761 1759 2308
3 1396 1032 1921
3 1018 956 1572
3 689 1150 1416
3 1827 1293 2515
3 149 150 1484
3 1647 656 1648
3 1543 694 2196
3 399 409 1783
3 545 525 1636
3 268 269 270
3 715 713 717
3 1100 1017 1392
3 1657 892 1747
3 207 22 1617
3 1666 884 2249
3 1671 1672 1769
3 1554 1555 1556
3 146 147 1537
3 1081 1444 1822
3 711 709 806
3 1443 2005 2322
3 660 658 1746
3 1166 1458 1754
3 916 796 917
3 1056 1728 1826
3 1068 1069 1275
3 184 185 1454
3 158 159 262
3 2007 1687 2231
3 805 1708 1810
3 1672 264 1986
3 1561 1562 1563
3 978 1075 1650
3 1590 1588 2457
3 215 25 1624
3 1551 1550 1565
3 1073 1346 1347
3 857 818 1584
3 1648 656 1649
3 675 674 821
3 561 594 639
3 1731 529 1899
3 2303 1454 2535
3 981 903 1040
3 1630 1629 1633
3 993 877 1017
3 724 718 726
3 512 603 1646
3 1676 235 1858
3 814 1060 1068
3 715 717 1567
3 1796 647 1870
3 1715 1171 2165
3 678 1592 1593
3 644 613 1824
3 1690 1525 2145
3 1297 1822 1823
3 271 656 1647
3 1704 1116 1705
3 1225 1226 1227
3 1275 1069 1338
3 910 956 1018
3 1824 1596 2154
3 1403 1100 1605
3 1221 1219 1222
3 1068 1060 1069
3 1901 245 1949
3 1081 1055 1321
3 1751 563 1752
3 1021 1022 1023
3 672 638 681
3 1095 657 1848
3 1235 1237 1248
3 1561 1556 1562
3 1265 1259 1804
3 524 1819 2016
3 978 1650 2362
3 1492 516 2494
3 229 1735 2061
3 185 186 252
3 157 158 253
3 152 153 233
3 9 10 234
3 1527 1529 1531
3 1808 1344 2360
3 1062 1577 1579
3 1509 1679 1977
3 424 454 1666
3 637 638 672
3 981 1040 1166
3 1555 1558 1606
3 751 749 1810
3 1166 1210 1458
3 1651 1313 2121
3 15 16 2260
3 1633 1632 2509
3 2167 1705 2276
3 551 602 2045
3 697 818 857
3 364 1786 1883
3 832 1189 2204
3 1476 1478 1479
3 678 665 1592
3 213 1509 2096
3 1015 888 1124
3 1062 1022 1576
3 679 1782 1795
3 680 1646 1995
3 1101 1100 1403
3 1109 433 1714
3 1248 1237 1597
3 733 730 1833
3 1702 213 2096
3 499 498 1828
3 1418 1778 2521
3 637 600 638
3 1048 1046 1054
3 1577 1576 1578
3 814 766 1060
3 1279 2252 2292
3 474 470 548
3 199 18 1676
3 157 253 1441
3 1048 1054 1667
3 471 472 2290
3 625 665 678
3 795 785 796
3 1264 1265 1266
3 1437 1926 2350
3 1362 2048 2168
3 1394 2337 2371
3 454 884 1666
3 1022 1020 1024
3 751 1810 1923
3 1046 1023 1580
3 1807 1701 1931
3 1618 208 1619
3 566 588 689
3 1828 498 1829
3 501 509 1599
3 1118 780 1775
3 878 817 929
3 1510 1511 1950
3 1618 1621 1694
3 1052 1081 1822
3 1416 1150 1715
3 1239 1241 1247
3 1396 1921 2067
3 1751 1752 1753
3 1264 1259 1265
3 539 566 1600
3 1762 1127 2496
3 1673 1788 2183
3 1555 1557 1558
3 1052 1050 1055
3 725 724 825
3 1142 1770 1771
3 681 853 867
3 454 501 884
3 1346 1420 1453
3 932 1147 1770
3 1546 1545 1547
3 533 582 1818
3 1266 1337 1460
3 1872 820 2318
3 1117 1119 1713
3 1081 1321 1417
3 1253 1259 1264
3 1569 771 2135
3 1052 1055 1081
3 1181 1178 1972
3 709 706 1627
3 1073 1076 1346
3 1098 1828 1829
3 1382 1380 2176
3 1442 1275 1443
3 919 999 1663
3 1789 828 1855
3 877 815 1684
3 509 539 631
3 992 877 993
3 1266 1265 1337
3 2268 1498 2340
3 1130 1032 1396
3 1095 1603 2508
3 886 826 887
3 531 533 1818
3 1131 1400 1881
3 447 437 516
3 2460 1132 2473
3 940 1535 2418
3 768 1873 2037
3 1813 1869 1954
3 1627 2163 2488
3 1497 1495 1645
3 1198 1409 2168
3 724 726 1912
3 1869 987 1954
3 763 1999 2338
3 1010 1170 1374
3 984 976 1720
3 1470 1743 1744
3 689 588 1150
3 1901 1949 2359
3 1640 632 1862
3 274 272 1787
3 563 564 1752
3 994 817 1505
3 737 1807 1931
3 1770 1147 1771
3 1233 1235 1733
3 2450 1418 2521
3 414 410 1821
3 908 1099 1850
3 1227 1228 1229
3 1692 1203 1693
3 1625 216 2194
3 512 528 603
3 1377 1357 1638
3 1465 1464 1470
3 1360 1359 2177
3 1686 2007 2095
3 1336 1028 1641
3 1857 751 1923
3 1758 572 1759
3 553 541 557
3 1171 1715 1811
3 956 1003 1073
3 1467 1465 1675
3 719 718 724
3 1509 1977 2096
3 1734 1625 1736
3 1503 1504 1868
3 592 597 1776
3 180 181 232
3 162 163 231
3 2308 1759 2370
3 1357 1114 1358
3 875 946 1010
3 509 631 1599
3 17 18 199
3 144 145 200
3 1099 906 1792
3 1469 1467 1494
3 605 589 1939
3 1208 1205 1211
3 354 344 2091
3 692 782 804
3 1010 946 1170
3 1463 1462 1464
3 716 715 718
3 714 713 715
3 271 273 656
3 139 1618 1694
3 549 277 686
3 673 672 766
3 1378 1377 1379
3 2007 868 2095
3 999 1028 1336
3 1208 1211 1447
3 601 545 627
3 1119 1643 1713
3 1332 1333 1387
3 910 912 956
3 520 521 2000
3 828 1789 1819
3 277 607 1520
3 1338 1339 2247
3 818 819 910
3 767 766 814
3 712 711 713
3 1494 1467 1675
3 639 594 640
3 2044 557 2256
3 235 20 1709
3 1620 236 2394
3 804 919 962
3 1862 702 2070
3 681 852 853
3 1559 1556 1561
3 1622 941 2471
3 2165 1440 2330
3 612 644 692
3 697 698 818
3 1903 1516 1994
3 371 379 1795
3 428 426 2138
3 1290 1294 2064
3 1384 1904 2432
3 566 689 1600
3 471 452 472
3 1092 1091 1093
3 1002 1131 1719
3 1090 1089 1091
3 875 841 946
3 1758 1760 1763
3 1562 1606 2085
3 1833 1830 2075
3 178 179 214
3 164 165 213
3 769 923 1815
3 692 644 782
3 804 782 919
3 182 183 256
3 160 161 257
3 1329 1331 1482
3 962 1663 1664
3 1177 1179 2042
3 403 405 1805
3 1461 1460 1462
3 140 208 1618
3 1859 232 1860
3 274 1787 2099
3 1381 2126 2186
3 1558 1560 1789
3 430 428 682
3 452 435 1683
3 1487 1156 1488
3 1470 1464 1743
3 597 1794 1893
3 1244 1253 1669
3 962 919 1663
3 258 8 1673
3 1087 1785 1786
3 970 1042 1726
3 199 1677 2149
3 1664 1663 1665
3 1229 1230 1231
3 991 827 1713
3 792 1603 1848
3 1822 1444 1823
3 665 666 697
3 19 20 235
3 142 143 236
3 728 1098 1833
3 532 530 1898
3 1015 1124 1372
3 1546 1547 1548
3 1851 1850 1853
3 1877 393 2240
3 923 1105 1815
3 1090 1091 1092
3 687 686 703
3 1683 435 1790
3 887 826 1961
3 684 663 1089
3 426 1934 2138
3 464 510 680
3 853 854 855
3 568 572 1758
3 1376 1357 1377
3 1205 1203 1692
3 1607 1789 1855
3 710 709 711
3 780 781 1775
3 1434 1103 1435
3 876 815 877
3 766 672 1656
3 1393 1590 2457
3 684 1089 1090
3 530 890 1898
3 926 1920 1943
3 696 414 1821
3 1563 1562 1777
3 1054 1046 1580
3 1398 1973 1974
3 137 216 1625
3 1210 1040 1430
3 1750 563 1751
3 2010 1665 2299
3 1510 1374 1511
3 1777 1562 2085
3 1707 252 1791
3 1932 1404 1933
3 459 438 1814
3 139 140 1618
3 1093 1156 1487
3 231 163 1658
3 699 722 723
3 1545 1095 2508
3 598 612 1794
3 579 554 1880
3 1941 1908 2401
3 1231 1232 1233
3 1831 1829 1841
3 1037 1383 1799
3 177 178 1506
3 636 600 637
3 1036 1539 2286
3 1356 1114 1357
3 1523 1516 2377
3 704 703 705
3 403 402 405
3 648 792 1848
3 723 756 808
3 1388 1389 2170
3 933 932 1770
3 223 1710 1711
3 1779 399 1783
3 1223 1222 1224
3 1028 1029 1313
3 257 161 1654
3 418 412 421
3 734 882 1807
3 693 657 1095
3 1368 1370 1436
3 136 137 1625
3 688 652 817
3 1075 1327 1328
3 540 479 1813
3 398 395 402
3 548 1629 1630
3 574 591 699
3 1469 1494 1495
3 1041 1598 2175
3 167 168 202
3 175 176 204
3 2045 2046 2201
3 186 187 1602
3 886 887 888
3 1253 1254 1259
3 8 9 1673
3 792 655 810
3 843 1145 1960
3 1180 1349 1745
3 1165 1345 1512
3 708 706 709
3 136 1625 1734
3 21 22 207
3 140 141 208
3 625 626 665
3 1093 1094 1156
3 1585 795 1834
3 1117 1713 1806
3 599 579 600
3 810 871 1826
3 1047 1046 1048
3 1292 1291 1293
3 161 162 1654
3 199 1676 1677
3 1260 1282 1804
3 1005 1142 1768
3 1233 1234 1235
3 792 810 922
3 1122 1719 1737
3 976 985 1720
3 1278 1279 2292
3 2390 1934 2531
3 1436 1437 2350
3 270 271 1647
3 1199 966 1846
3 1683 1342 2212
3 656 273 2124
3 699 591 722
3 1977 1139 2096
3 1738 1719 1881
3 1722 985 1874
3 1797 1448 1798
3 162 231 1654
3 632 604 1862
3 252 1602 1791
3 1051 1050 1052
3 1045 1023 1046
3 648 655 792
3 993 1100 1101
3 1321 1055 1322
3 806 709 1627
3 904 903 981
3 1220 1267 1268
3 648 605 655
3 1737 1719 1738
3 385 399 1779
3 506 499 1828
3 1132 266 1402
3 1170 1418 1419
3 1323 2302 2354
3 24 25 215
3 137 138 216
3 721 965 1919
3 1787 1414 2460
3 778 1117 1806
3 723 722 756
3 407 403 1805
3 564 574 1752
3 1049 1048 1050
3 842 841 875
3 1608 1546 1842
3 809 808 899
3 1517 1519 1520
3 1530 1532 1533
3 889 421 1772
3 913 1002 1122
3 1314 1316 1367
3 1017 877 1684
3 841 802 1778
3 1235 1236 1237
3 751 1857 1900
3 1114 924 1767
3 1344 1644 2360
3 1895 1394 2371
3 1518 1535 1861
3 1758 1759 1760
3 1122 1002 1719
3 546 563 1750
3 1056 1726 1727
3 663 660 1746
3 621 622 625
3 1720 985 1721
3 1857 1843 1900
3 808 756 913
3 1056 970 1726
3 27 28 230
3 134 135 229
3 908 906 1099
3 163 164 1658
3 1727 1726 1729
3 7 8 258
3 154 155 259
3 1101 1403 1404
3 808 913 1874
3 1260 1269 1282
3 1389 1387 2262
3 1297 1053 1822
3 1555 1553 1557
3 1463 1464 1465
3 230 28 1765
3 1237 1238 1239
3 554 553 1880
3 775 778 1806
3 985 899 1874
3 1270 1524 2199
3 489 1820 1936
3 692 1072 1794
3 1472 2142 2272
3 1845 496 1929
3 438 431 1814
3 613 615 1824
3 1241 1242 1245
3 1783 415 1915
3 1192 2081 2149
3 178 214 1506
3 1816 988 1817
3 1760 1759 1761
3 1103 1092 1623
3 1512 1345 1661
3 1876 921 2295
3 1165 984 1345
3 978 1074 1075
3 1239 1240 1241
3 542 541 553
3 813 988 1816
3 1148 984 1165
3 871 970 1056
3 472 452 1683
3 1207 1796 1870
3 1167 1166 1754
3 1296 1053 1297
3 966 964 1846
3 976 899 985
3 982 976 984
3 702 1815 2015
3 900 899 976
3 1143 995 1206
3 1576 1024 1827
3 1235 1248 1733
3 1558 1557 1560
3 943 995 1143
3 1920 1144 1943
3 1471 2115 2477
3 29 30 255
3 132 133 254
3 1630 1633 1634
3 1225 1224 1226
3 1925 1573 1926
3 1211 1205 1692
3 725 825 826
3 1113 924 1114
3 600 579 1988
3 717 1552 1567
3 1820 1657 1936
3 674 276 2099
3 395 393 1877
3 572 543 1897
3 1575 1308 2255
3 999 1000 1028
3 1118 1775 1876
3 1797 1798 2430
3 526 546 559
3 867 853 2186
3 1142 1771 1949
3 1068 1275 1442
3 679 385 1779
3 1607 1558 1789
3 580 568 1758
3 1244 1252 1253
3 1760 1761 1762
3 398 402 403
3 1476 1258 1478
3 418 421 889
3 1771 1147 1839
3 164 213 1658
3 1720 1721 2267
3 1668 1591 2512
3 1042 1128 1445
3 1098 1830 1833
3 1102 1092 1103
3 2249 884 2466
3 1104 1103 1434
3 410 416 1821
3 514 513 541
3 580 1758 1763
3 637 673 1741
3 1913 936 1914
3 1394 1395 2337
3 919 920 999
3 577 554 579
3 2111 1660 2263
3 231 1658 1659
3 612 613 644
3 568 543 572
3 770 775 1806
3 1445 1128 1446
3 1546 1548 1842
3 448 460 478
3 810 870 871
3 1789 1560 1819
3 1154 1082 1431
3 873 973 1802
3 379 385 679
3 837 850 921
3 1461 1462 1463
3 1346 1076 1420
3 1088 1344 1808
3 2125 1143 2353
3 931 977 978
3 882 772 1802
3 29 255 1765
3 849 1513 2180
3 1713 827 1806
3 1130 1396 1397
3 681 638 852
3 1417 1321 1873
3 1654 1402 2530
3 502 526 1740
3 1124 888 2177
3 1266 1460 1461
3 515 1175 1840
3 1253 1264 1669
3 479 466 1813
3 1727 1729 1757
3 379 380 385
3 1971 1480 2514
3 1637 1739 2459
3 1207 1205 1208
3 529 519 1899
3 1129 1845 1929
3 224 1661 2267
3 192 1856 2361
3 732 734 1807
3 1184 2163 2435
3 1119 1120 1353
3 415 414 431
3 719 724 725
3 559 546 1750
3 871 872 970
3 1038 917 1622
3 574 699 1752
3 166 167 1679
3 1117 1118 1119
3 1409 1196 2035
3 617 619 621
3 1172 1173 1439
3 1191 1005 1768
3 664 663 684
3 494 493 1841
3 890 529 1731
3 840 802 841
3 493 974 1841
3 385 386 399
3 679 1779 1780
3 371 376 379
3 416 433 1109
3 670 769 1815
3 902 866 903
3 1780 1779 1781
3 480 515 1840
3 970 971 1042
3 433 448 1714
3 28 29 1765
3 1005 949 1142
3 778 780 1117
3 959 1037 1799
3 1073 1003 1076
3 535 532 1898
3 1119 1118 1120
3 658 657 693
3 1378 1379 1380
3 1397 1396 1809
3 1610 1609 1612
3 1819 1560 2016
3 1837 952 1865
3 1719 1131 1881
3 1131 1399 1400
3 1352 1138 2058
3 399 406 409
3 548 1630 2041
3 1275 1338 2251
3 582 1816 1818
3 1835 1836 2144
3 993 1101 1980
3 1699 1698 1700
3 2407 364 2505
3 1189 1190 1788
3 1117 780 1118
3 1830 1829 1831
3 637 672 673
3 692 804 1072
3 1204 1203 1205
3 1374 1170 2139
3 612 692 1794
3 1642 1408 2286
3 723 808 809
3 450 459 1812
3 409 410 414
3 802 801 1778
3 1853 1854 2483
3 1042 1127 1128
3 1199 1846 2225
3 1147 990 1273
3 1383 1384 2432
3 432 431 438
3 1353 1120 1390
3 1093 1091 1094
3 2020 250 2254
3 148 149 1639
3 606 605 648
3 1970 2016 2422
3 2201 2046 2327
3 475 471 513
3 412 407 1951
3 1991 246 2139
3 727 695 728
3 1673 234 1788
3 1554 1556 1559
3 1089 663 1746
3 1846 964 2056
3 923 991 1088
3 409 406 410
3 729 728 730
3 1424 1427 1856
3 1473 1911 2407
3 1376 1377 1378
3 1010 1374 1510
3 853 852 854
3 366 369 1087
3 772 873 1802
3 1219 1218 1626
3 1766 229 2061
3 1088 991 1344
3 922 810 1826
3 518 506 695
3 405 402 2116
3 962 1664 2316
3 913 942 1002
3 932 990 1147
3 629 813 1816
3 876 877 992
3 399 386 406
3 932 845 990
3 1002 1123 1131
3 843 996 1145
3 781 837 1775
3 262 2304 2491
3 431 696 1814
3 1273 1695 1892
3 731 730 732
3 737 732 1807
3 439 438 450
3 1829 498 1841
3 800 685 801
3 767 814 815
3 1060 766 1656
3 673 766 767
3 1403 1605 1882
3 716 718 719
3 1338 1069 1339
3 847 752 1843
3 864 862 1116
3 2302 443 2519
3 923 827 991
3 526 559 1740
3 1911 1473 2358
3 1085 1310 1867
3 809 899 900
3 1227 1226 1228
3 729 730 731
3 1436 1370 1437
3 731 732 737
3 769 827 923
3 456 452 471
3 1433 1503 2471
3 1435 1103 1623
3 385 380 386
3 1141 1787 2460
3 1354 1088 1808
3 657 649 1848
3 415 431 432
3 484 892 1820
3 727 728 729
3 855 854 1450
3 1721 1722 1723
3 1643 1353 1644
3 1145 1916 1960
3 1421 1191 1422
3 466 1812 1813
3 943 944 995
3 1356 1357 1376
3 714 715 716
3 1156 1094 1157
3 598 611 612
3 631 1600 2298
3 590 589 605
3 965 969 1919
3 416 1109 1821
3 242 1697 2335
3 1548 1547 1549
3 550 573 584
3 584 604 632
3 409 414 415
3 712 713 714
3 642 670 702
3 818 698 819
3 1006 1005 1191
3 1624 1689 1691
3 169 170 237
3 173 174 238
3 956 912 1003
3 937 936 1913
3 1317 1025 1875
3 515 540 550
3 973 1799 1800
3 973 959 1799
3 518 695 727
3 910 819 912
3 584 573 604
3 1170 946 1418
3 173 238 1847
3 550 540 573
3 982 984 1148
3 900 976 982
3 441 435 452
3 448 478 1714
3 1849 1648 2173
3 1631 1628 1637
3 1830 1831 1832
3 1383 1216 1384
3 734 772 882
3 949 933 1770
3 1332 1330 1333
3 574 575 591
3 1105 1088 1354
3 702 670 1815
3 498 494 1841
3 827 770 1806
3 873 959 973
3 1390 1391 1415
3 450 438 459
3 950 949 1005
3 351 362 364
3 1313 1029 1314
3 432 438 439
3 837 838 850
3 1273 1274 1695
3 850 851 943
3 911 952 1837
3 1259 1260 1804
3 566 587 588
3 1037 1216 1383
3 1337 1265 1538
3 1087 369 1795
3 810 655 870
3 1559 1561 1566
3 1147 1273 1839
3 732 733 734
3 1662 867 2126
3 890 1731 2241
3 1854 1852 2397
3 515 479 540
3 451 450 466
3 697 666 698
3 1367 1316 1368
3 662 660 663
3 365 355 694
3 1358 1114 1767
3 379 376 380
3 1796 1448 1797
3 179 180 1859
3 790 668 849
3 569 568 580
3 690 860 931
3 466 450 1812
3 431 414 696
3 1973 1133 1974
3 651 649 657
3 467 466 479
3 1288 1289 1835
3 264 265 1986
3 1302 1303 1304
3 592 596 597
3 1873 1321 2037
3 544 543 568
3 275 277 549
3 209 1937 2389
3 539 565 566
3 1485 227 1486
3 2384 2190 2408
3 1781 1779 1783
3 480 479 515
3 689 1416 2413
3 1108 1161 1539
3 1867 1310 1895
3 1300 1301 1302
3 1695 1696 1697
3 633 632 668
3 1304 1451 1452
3 988 911 1837
3 168 169 1724
3 969 1012 1172
3 582 629 1816
3 1843 752 1900
3 629 812 813
3 710 711 712
3 1782 1780 1784
3 536 535 543
3 1089 1746 1969
3 1108 1107 1161
3 1514 1426 1856
3 486 484 1820
3 369 371 1795
3 1817 988 1924
3 493 609 974
3 1422 1191 2023
3 1426 1424 1856
3 842 875 924
3 922 1826 2259
3 989 1361 1886
3 928 1070 1288
3 669 668 790
3 1113 1114 1356
3 1027 847 1843
3 728 695 1098
3 734 735 772
3 975 1107 1108
3 955 859 1962
3 813 911 988
3 1208 1448 1796
3 1101 1405 1980
3 602 676 2045
3 586 581 589
3 546 547 563
3 493 491 609
3 628 1524 2390
3 348 344 354
3 1298 1299 1300
3 509 538 539
3 974 609 975
3 813 891 911
3 871 870 872
3 1355 1354 1423
3 489 486 1820
3 778 779 780
3 1025 1176 1875
3 772 773 873
3 803 1743 2347
3 167 202 1679
3 873 883 959
3 1483 1571 2375
3 427 1756 2221
3 540 1813 1954
3 1202 1200 1203
3 959 1035 1037
3 837 921 1775
3 1304 1305 1451
3 1799 1383 2195
3 604 642 1862
3 1470 1744 2474
3 1854 2397 2453
3 1282 1269 1386
3 1573 1572 2157
3 472 2222 2290
3 1307 1708 2341
3 769 770 827
3 1037 1215 1216
3 791 790 856
3 1053 1052 1822
3 1056 1727 1728
3 1341 1138 1352
3 1300 1299 1301
3 1814 696 1838
3 1198 1196 1409
3 492 491 493
3 439 450 451
3 1171 858 2132
3 1259 1254 1260
3 665 626 666
3 970 872 971
3 258 1602 2357
3 1296 1297 1472
3 490 489 491
3 516 437 2494
3 1298 1027 1299
3 846 845 932
3 501 508 509
3 460 461 502
3 448 449 460
3 482 480 1840
3 1229 1228 1230
3 604 641 642
3 1424 1423 1427
3 502 503 526
3 1028 1000 1029
3 935 933 949
3 1084 1085 1867
3 2028 1711 2353
3 1513 1426 1514
3 892 482 1840
3 852 638 1988
3 402 395 1877
3 738 737 845
3 413 412 418
3 1119 1353 1643
3 526 527 546
3 280 279 281
3 1731 1155 2123
3 1042 971 1127
3 1208 1447 1448
3 433 434 448
3 262 159 2304
3 184 1454 2303
3 1051 1052 1053
3 1816 1817 1818
3 1081 1417 1444
3 781 836 837
3 911 951 952
3 1090 1092 1102
3 202 168 1724
3 1085 1309 1310
3 408 407 412
3 1337 1538 1864
3 1515 1514 1516
3 530 529 890
3 1517 1518 1519
3 549 686 687
3 923 1088 1105
3 404 403 407
3 1835 1289 1836
3 1314 1367 2121
3 1380 1379 2416
3 670 671 769
3 899 808 1874
3 1040 903 1703
3 1596 1595 2154
3 1496 1495 1497
3 636 637 1741
3 1377 1638 2288
3 1288 1070 1289
3 1072 804 1981
3 1129 1334 1845
3 1865 1084 1866
3 792 922 1603
3 1253 1252 1254
3 981 1167 1792
3 1302 1301 1303
3 1641 1651 2019
3 952 953 1084
3 1813 1812 1869
3 732 730 733
3 975 1106 1107
3 1142 949 1770
3 981 1166 1167
3 840 841 842
3 451 466 467
3 1273 990 1274
3 1049 1050 1051
3 1473 2407 2505
3 968 966 1199
3 642 643 670
3 1310 1309 1311
3 422 419 435
3 1063 833 1082
3 919 782 920
3 911 891 951
3 1084 953 1085
3 1763 1764 2164
3 1498 1497 1682
3 515 550 1175
3 1079 937 1913
3 642 702 1862
3 845 737 1931
3 1394 1311 1395
3 1395 1521 1522
3 467 479 480
3 1755 1754 1793
3 1231 1230 1232
3 1557 1553 2030
3 1624 1691 2262
3 584 632 633
3 1094 1091 1969
3 708 709 710
3 1948 1627 2488
3 952 951 953
3 1102 1103 1104
3 1047 1048 1049
3 1310 1311 1394
3 1852 1099 1985
3 143 144 1717
3 813 812 891
3 1944 1044 1945
3 1105 1354 1355
3 1300 1302 1455
3 1914 936 1940
3 1415 1391 1710
3 1299 1027 1843
3 952 1084 1865
3 1695 1274 1696
3 776 774 1928
3 282 281 283
3 2003 1347 2279
3 1206 995 1499
3 1164 1685 1686
3 1551 1565 2030
3 969 1172 1919
3 633 668 669
3 734 733 735
3 1373 1372 1438
3 599 600 636
3 1431 1860 2487
3 1579 1577 1999
3 484 482 892
3 917 940 941
3 2144 1836 2169
3 1866 1084 1867
3 1110 1747 1748
3 998 1171 1811
3 1390 1120 1391
3 644 1824 2057
3 1362 1961 2048
3 944 1283 1825
3 1086 1027 1298
3 679 1780 1782
3 974 975 1879
3 507 506 518
3 1121 1079 1401
3 775 777 778
3 1965 762 2349
3 1045 1046 1047
3 1772 421 2106
3 16 17 2081
3 416 417 433
3 921 850 2125
3 1607 1855 1958
3 649 648 1848
3 1241 1240 1242
3 2012 1443 2251
3 926 928 1920
3 1487 1488 2025
3 1006 1191 1421
3 1355 1423 1424
3 1133 852 1988
3 591 592 1776
3 1299 1843 1857
3 1085 1308 1309
3 490 491 492
3 958 694 1575
3 1384 1216 1385
3 741 915 1878
3 1233 1232 1234
3 669 790 791
3 481 480 482
3 687 703 704
3 492 493 494
3 1634 1633 1922
3 1697 1696 1698
3 1721 985 1722
3 1839 1273 1892
3 772 735 773
3 488 486 489
3 950 1005 1006
3 1513 1514 1515
3 454 500 501
3 873 773 883
3 284 283 285
3 2185 1505 2442
3 959 883 1035
3 543 535 1897
3 1904 1384 2093
3 800 801 802
3 1037 1035 1215
3 1293 1964 1965
3 1239 1238 1240
3 943 1143 2125
3 1782 1784 1785
3 913 756 942
3 488 490 1884
3 1590 1749 2501
3 1235 1234 1236
3 791 856 1408
3 702 2015 2070
3 1108 1539 1540
3 1021 1023 1045
3 695 506 1828
3 1530 1528 1532
3 488 489 490
3 1621 1619 2161
3 704 705 706
3 1304 1303 1305
3 558 1704 2167
3 625 622 626
3 542 553 554
3 604 573 641
3 664 684 685
3 564 571 574
3 1108 1540 1879
3 1856 1427 2361
3 880 1025 1129
3 1395 1311 1521
3 1466 1465 1467
3 915 495 1884
3 1515 1516 1523
3 1237 1236 1238
3 606 648 649
3 999 920 1000
3 676 829 1043
3 2100 794 2142
3 227 151 1500
3 577 579 599
3 153 154 1671
3 1175 550 1927
3 1014 888 1015
3 286 285 287
3 1649 1280 2427
3 1725 204 2137
3 975 609 1106
3 1129 1317 1334
3 1109 1730 2426
3 1468 1467 1469
3 1131 1123 1399
3 1215 2235 2378
3 1976 1149 1989
3 397 395 398
3 746 743 1878
3 1041 1343 1598
3 975 1108 1879
3 741 495 915
3 1167 1754 1755
3 288 287 289
3 743 741 1878
3 1274 990 1931
3 1506 214 1507
3 857 1584 2277
3 2341 1522 2387
3 846 932 933
3 1107 1106 1110
3 584 633 1927
3 290 289 291
3 722 591 1776
3 1544 1094 1969
3 1135 270 1647
3 935 949 950
3 1920 1288 2080
3 754 1896 2108
3 1693 1199 2225
3 292 291 293
3 394 393 395
3 745 743 746
3 1002 942 1123
3 731 737 738
3 294 293 295
3 1018 1573 1925
3 296 295 297
3 298 297 299
3 321 322 325
3 317 320 321
3 314 315 317
3 312 313 314
3 310 311 312
3 308 309 310
3 1898 890 2275
3 306 307 308
3 304 305 306
3 1401 1079 1913
3 300 299 301
3 302 303 304
3 300 301 302
3 302 301 303
3 491 489 1936
3 298 299 300
3 304 303 305
3 306 305 307
3 308 307 309
3 310 309 311
3 312 311 313
3 314 313 315
3 317 315 320
3 321 320 322
3 1301 1299 1857
3 514 541 542
3 296 297 298
3 850 838 851
3 1310 1394 1895
3 294 295 296
3 590 605 606
3 292 293 294
3 651 657 658
3 290 291 292
3 1207 1208 1796
3 835 1976 1989
3 621 619 622
3 746 1878 1896
3 481 482 483
3 1026 847 1027
3 1335 1207 1870
3 1661 59 2266
3 727 729 1155
3 288 289 290
3 1058 776 1928
3 662 663 664
3 495 488 1884
3 1959 319 2522
3 943 851 944
3 1293 1291 1964
3 534 532 535
3 640 645 646
3 2280 1014 2385
3 286 287 288
3 591 575 592
3 521 519 529
3 13 14 2114
3 780 779 781
3 918 908 1850
3 837 836 838
3 209 148 1639
3 754 748 1896
3 745 746 747
3 769 671 770
3 929 1065 2197
3 1278 1058 1279
3 483 482 484
3 1564 1557 2030
3 633 807 1927
3 392 391 393
3 1057 1621 2161
3 569 580 581
3 284 285 286
3 876 992 1894
3 497 494 498
3 1630 1635 2041
3 982 1148 1918
3 612 611 613
3 700 634 1044
3 822 674 2099
3 880 1129 1929
3 432 439 654
3 1039 1291 1292
3 1164 1686 1989
3 1129 1025 1317
3 738 845 846
3 582 583 629
3 278 6 279
3 544 568 569
3 1701 1274 1931
3 747 749 751
3 1085 953 1308
3 928 930 1070
3 747 748 749
3 1421 1422 2415
3 902 903 904
3 1309 1308 1543
3 642 641 643
3 904 981 1792
3 646 784 785
3 536 543 544
3 1204 1205 1207
3 365 694 958
3 71 72 217
3 88 89 1901
3 87 88 193
3 101 102 189
3 85 86 242
3 99 100 241
3 74 75 192
3 91 92 219
3 94 95 191
3 83 84 220
3 97 98 221
3 77 78 218
3 80 81 194
3 89 90 245
3 62 63 244
3 60 61 188
3 64 65 223
3 67 68 190
3 90 91 1909
3 98 99 1905
3 61 62 1908
3 69 70 243
3 68 69 1907
3 70 71 1910
3 410 411 416
3 586 589 590
3 685 684 2029
3 390 389 391
3 1715 1150 1811
3 1924 1837 2215
3 282 283 284
3 496 497 1929
3 233 1671 1769
3 627 2185 2442
3 1567 1552 2062
3 629 630 812
3 424 453 454
3 583 562 1942
3 749 750 805
3 744 743 745
3 1897 535 1898
3 467 480 481
3 504 759 880
3 670 643 671
3 89 245 1901
3 193 88 1901
3 221 98 1905
3 245 90 1909
3 91 219 1909
3 62 244 1908
3 188 61 1908
3 99 241 1905
3 190 68 1907
3 71 217 1910
3 69 243 1907
3 243 70 1910
3 505 499 506
3 475 513 514
3 1945 1044 2071
3 1712 2125 2353
3 339 343 440
3 989 1360 1361
3 764 869 1152
3 778 777 779
3 1686 1685 1687
3 742 741 743
3 979 989 1886
3 729 731 1887
3 926 927 928
3 1305 1306 1307
3 1838 1278 2292
3 747 746 748
3 181 182 1652
3 1886 1361 2305
3 1595 1594 2486
3 597 596 598
3 928 1288 1920
3 1970 824 2156
3 1425 1424 1426
3 497 504 1929
3 748 746 1896
3 745 747 1900
3 998 858 1171
3 563 547 564
3 1155 729 1887
3 634 583 1942
3 1439 1173 1440
3 1026 1027 1086
3 79 80 1904
3 1533 1532 1536
3 1449 1426 1513
3 1106 609 1936
3 1318 1013 1319
3 1098 695 1828
3 492 494 496
3 750 748 754
3 731 738 1887
3 2415 1422 2516
3 533 562 582
3 988 1837 1924
3 1216 1215 1863
3 534 535 536
3 747 751 1900
3 1753 809 2119
3 1183 824 1970
3 740 495 741
3 80 194 1904
3 893 383 2087
3 655 605 1939
3 1884 2034 2082
3 1301 1857 1923
3 1307 1306 1708
3 752 745 1900
3 750 754 755
3 76 77 1903
3 2090 2347 2365
3 255 30 2159
3 132 254 2160
3 448 434 449
3 753 848 926
3 1075 1074 1327
3 487 488 495
3 377 381 647
3 483 484 485
3 755 754 2148
3 1584 1925 2277
3 1186 1183 1970
3 951 891 1281
3 485 484 486
3 546 527 547
3 133 134 1766
3 1786 1785 2409
3 280 281 282
3 460 449 461
3 744 745 752
3 77 218 1903
3 983 1918 2342
3 1708 1306 1810
3 1389 2069 2170
3 487 486 488
3 641 573 1954
3 507 518 519
3 502 461 503
3 519 518 1899
3 1202 1203 1204
3 821 897 1972
3 92 93 1902
3 521 529 530
3 749 748 750
3 2176 1380 2416
3 885 826 886
3 485 486 487
3 371 372 376
3 1289 1070 1871
3 1110 1657 1747
3 753 926 1943
3 700 1044 1944
3 880 881 1025
3 496 1845 2034
3 1072 1981 2393
3 462 464 2134
3 1949 1771 2359
3 1044 634 1942
3 550 584 1927
3 1390 1415 2118
3 526 503 527
3 990 845 1931
3 1009 1213 1214
3 740 742 1144
3 219 92 1902
3 727 1155 1899
3 369 370 371
3 623 690 2150
3 1279 1058 1928
3 1408 2235 2286
3 487 495 740
3 979 1886 2086
3 1305 1303 1306
3 421 412 1951
3 843 844 996
3 633 669 807
3 518 727 1899
3 826 825 1961
3 1657 1106 1936
3 1172 1012 1173
3 740 741 742
3 433 417 434
3 505 506 507
3 1333 1674 2437
3 742 743 744
3 469 458 470
3 1381 1380 1382
3 1293 1965 2515
3 1554 1559 2062
3 553 557 2499
3 1774 389 2339
3 497 498 499
3 483 485 576
3 740 1144 1935
3 773 735 834
3 366 367 369
3 1120 1118 1876
3 1515 1523 1574
3 1319 1013 2039
3 1303 1301 1923
3 457 447 458
3 561 593 594
3 1355 1424 1425
3 609 491 1936
3 204 1732 2137
3 791 1408 1642
3 995 944 1825
3 456 471 475
3 1692 1693 2239
3 580 1763 2164
3 1292 1293 2117
3 441 452 456
3 388 384 389
3 823 821 1972
3 504 880 1929
3 176 177 1680
3 1070 1071 1871
3 15 2260 2477
3 362 363 366
3 2178 2300 2449
3 1035 883 1036
3 2285 1563 2307
3 978 977 1074
3 1090 1102 2029
3 1810 1306 1923
3 496 494 497
3 1306 1303 1923
3 432 654 1915
3 934 933 935
3 356 355 365
3 398 403 404
3 635 701 843
3 1110 1106 1657
3 574 571 575
3 1025 881 1176
3 386 380 786
3 415 432 1915
3 343 347 1911
3 1070 930 1071
3 1688 1740 2231
3 1385 1216 1863
3 1696 1274 1701
3 1645 305 2317
3 880 759 881
3 926 848 927
3 1427 1423 2217
3 1339 1662 2388
3 770 774 775
3 1263 1257 1428
3 1337 1864 2412
3 349 348 355
3 2267 1721 2498
3 753 752 847
3 1375 1086 1473
3 900 982 983
3 332 335 739
3 429 428 430
3 744 752 753
3 1171 2132 2165
3 1425 1426 1449
3 987 641 1954
3 1883 1786 2409
3 427 426 428
3 928 927 930
3 1815 1105 2015
3 1206 1499 1941
3 410 406 411
3 573 540 1954
3 497 499 504
3 528 560 561
3 1933 1404 2399
3 1091 1089 1969
3 1804 1282 2073
3 504 505 759
3 963 924 1113
3 1711 1710 1712
3 881 759 1146
3 968 1199 1200
3 351 352 362
3 848 847 1026
3 521 530 531
3 1884 490 2034
3 1277 957 1966
3 1349 1350 2329
3 676 1043 2045
3 997 1159 1286
3 517 1889 1890
3 781 835 836
3 944 948 1283
3 722 1776 2026
3 507 519 520
3 2040 1352 2058
3 1276 957 1277
3 446 437 447
3 931 860 977
3 361 359 765
3 1248 1536 2534
3 512 523 528
3 408 412 413
3 1368 1369 1370
3 451 2169 2223
3 192 75 1994
3 942 756 2026
3 345 344 348
3 764 1152 1963
3 413 418 419
3 1286 1773 1774
3 770 671 774
3 275 549 2124
3 1497 1645 2461
3 1982 1472 2272
3 422 435 441
3 281 279 736
3 1134 270 1135
3 582 562 583
3 1421 2415 2454
3 485 487 1935
3 2300 1067 2480
3 1578 1576 1827
3 930 927 1061
3 1026 1086 1375
3 922 2259 2379
3 1391 1120 1876
3 1495 1494 2493
3 404 407 408
3 879 2178 2449
3 1700 1698 2036
3 607 1517 1520
3 753 847 848
3 416 411 417
3 1144 742 1943
3 775 776 777
3 754 2108 2148
3 1006 1421 1953
3 585 581 586
3 531 530 532
3 235 1709 1888
3 520 519 521
3 1180 1181 1349
3 1146 759 1967
3 708 710 1921
3 1350 2253 2329
3 436 430 437
3 504 499 505
3 643 641 987
3 336 330 517
3 811 1059 1149
3 1164 1411 1685
3 846 933 934
3 635 843 1960
3 983 982 1918
3 971 872 1096
3 1149 1163 1164
3 169 237 1724
3 1314 1315 1316
3 629 583 630
3 891 812 1916
3 462 463 464
3 487 740 1935
3 798 2084 2189
3 1814 1838 2292
3 1284 1489 1491
3 340 336 2014
3 1670 1461 2200
3 920 782 2057
3 890 2241 2275
3 510 511 512
3 278 279 280
3 839 802 840
3 1858 235 1888
3 1698 1696 2036
3 104 105 222
3 57 58 224
3 1185 1183 1186
3 588 587 623
3 638 600 1988
3 1282 1386 2245
3 811 776 1058
3 816 815 876
3 2034 1845 2082
3 761 636 1741
3 566 565 587
3 174 175 1725
3 347 350 351
3 1469 1495 1496
3 1059 1058 1278
3 811 1149 1976
3 576 485 1935
3 659 658 660
3 859 1153 1962
3 76 1903 1994
3 1821 1109 2426
3 1294 1038 1622
3 733 1833 2075
3 992 993 1980
3 1566 1561 2285
3 525 474 2041
3 464 465 510
3 343 346 347
3 360 893 1982
3 650 649 651
3 896 608 936
3 950 1006 1007
3 1508 1859 1860
3 539 538 565
3 440 343 1911
3 341 340 344
3 221 1905 1906
3 1297 1823 2142
3 759 505 1967
3 1295 1053 1296
3 473 470 474
3 1463 1465 1466
3 1143 1206 2028
3 799 685 800
3 1210 2077 2203
3 509 508 538
3 492 496 2034
3 1553 1551 2030
3 1260 1261 1269
3 1430 1040 1703
3 586 590 1940
3 838 836 868
3 1705 624 2276
3 1749 972 2501
3 742 744 1943
3 804 962 1981
3 1367 1368 2254
3 531 532 533
3 337 336 340
3 1157 1094 1544
3 536 544 1158
3 812 630 1960
3 781 779 835
3 56 57 1947
3 630 583 634
3 1405 1404 1932
3 1281 891 1916
3 339 342 343
3 1411 1163 1730
3 322 323 324
3 344 340 2091
3 1735 1734 1736
3 75 76 1994
3 430 682 2494
3 1907 243 2360
3 589 581 2164
3 694 355 2196
3 744 753 1943
3 775 774 776
3 1210 1430 2077
3 335 338 339
3 1102 1803 2029
3 1078 937 1079
3 870 655 1939
3 505 507 1967
3 357 360 1982
3 1896 1878 2101
3 326 325 328
3 934 935 957
3 585 608 895
3 333 330 336
3 1270 1272 1524
3 688 817 878
3 507 520 1967
3 1428 1257 2074
3 1818 1817 2000
3 896 937 1077
3 934 957 1111
3 329 328 330
3 1499 995 1825
3 944 851 948
3 387 445 462
3 1678 1161 2228
3 777 776 811
3 313 311 757
3 324 331 332
3 848 1026 1955
3 1312 998 1811
3 1321 1322 2037
3 1080 1079 1121
3 1105 1355 2015
3 1645 2317 2461
3 1559 1568 2062
3 332 334 335
3 501 500 508
3 321 325 326
3 394 395 397
3 322 320 323
3 1529 1530 2171
3 1137 797 1138
3 811 1058 1059
3 661 660 662
3 569 581 585
3 183 4 2303
3 5 160 2304
3 1340 1138 1341
3 1660 1626 2185
3 1743 1464 2347
3 1026 1375 1955
3 1149 1059 1163
3 1736 1625 2194
3 1322 1667 2434
3 311 309 1959
3 309 307 319
3 894 700 1944
3 533 534 562
3 1276 1277 1366
3 2190 1706 2408
3 533 532 534
3 1214 1213 1410
3 1164 1163 1411
3 843 701 844
3 1009 1214 2055
3 234 1589 1788
3 2000 1817 2174
3 317 321 2050
3 328 325 945
3 392 393 394
3 588 623 2089
3 1162 958 1681
3 1078 1080 1136
3 927 848 1955
3 1496 1497 1498
3 390 391 392
3 1061 927 1955
3 1283 948 1284
3 635 634 700
3 1244 1251 1252
3 218 78 2093
3 756 722 2026
3 1071 1784 2419
3 1218 1505 2185
3 1284 948 1285
3 1489 1285 1490
3 918 1850 1851
3 684 1090 2029
3 1759 572 2537
3 1691 1690 2446
3 1979 1158 2071
3 606 649 650
3 2045 1043 2046
3 103 104 2025
3 630 634 635
3 360 383 893
3 406 386 2043
3 1909 219 2023
3 1111 957 1276
3 1925 1437 2277
3 1536 2268 2340
3 854 852 1133
3 233 153 1671
3 651 658 659
3 2099 1787 2368
3 1033 1032 1130
3 1015 1372 1373
3 1412 942 2026
3 253 264 1441
3 1531 1534 2332
3 701 700 894
3 106 107 1990
3 2048 1961 2455
3 276 274 2099
3 738 846 1968
3 1325 925 1326
3 896 936 937
3 585 586 608
3 1450 854 1973
3 1361 1360 1362
3 1045 1668 2512
3 303 301 444
3 996 844 997
3 79 1904 2093
3 1989 1686 2095
3 1928 774 2033
3 1942 562 1979
3 287 285 316
3 935 950 1966
3 1466 1467 1468
3 1242 1243 1244
3 1887 738 1968
3 2115 210 2477
3 878 929 1083
3 1326 1736 2194
3 886 888 1014
3 895 608 896
3 289 287 1978
3 821 822 897
3 936 608 1940
3 613 614 615
3 51 52 1996
3 417 411 1160
3 1149 1164 1989
3 386 786 2043
3 285 283 1971
3 1309 1543 2147
3 375 373 2053
3 371 370 372
3 779 777 1976
3 1286 1159 1773
3 2177 887 2376
3 1560 1557 1564
3 1403 1882 2399
3 1727 1757 2246
3 279 6 2049
3 1619 1438 2438
3 291 289 758
3 1781 1915 2294
3 425 401 426
3 349 355 356
3 66 67 2118
3 474 548 2041
3 1686 1687 2007
3 1262 1456 1457
3 1123 942 1412
3 1916 812 1960
3 1355 1425 2015
3 735 733 2075
3 1861 879 2449
3 1284 1285 1489
3 490 492 2034
3 366 363 367
3 980 578 2051
3 906 904 1792
3 534 536 1979
3 842 924 963
3 2051 578 2083
3 1077 937 1078
3 1102 1104 1803
3 894 1944 1946
3 398 404 2060
3 1007 1006 1953
3 369 367 370
3 348 354 2196
3 1078 1079 1080
3 1378 1380 1381
3 1568 1365 2439
3 608 586 1940
3 598 610 611
3 760 636 761
3 869 1137 1351
3 671 643 2033
3 1661 1345 2267
3 938 914 1057
3 783 761 914
3 576 1835 2144
3 388 389 390
3 297 295 318
3 454 453 500
3 1906 1728 2246
3 1439 1440 2468
3 1159 1013 1318
3 764 797 869
3 236 143 1717
3 782 644 2057
3 592 595 596
3 1542 2332 2443
3 1521 1311 2147
3 345 348 349
3 1304 1452 2205
3 1644 1907 2360
3 2146 1125 2149
3 997 844 1013
3 628 375 2053
3 299 297 1984
3 957 935 1966
3 664 685 799
3 301 299 1975
3 362 352 363
3 777 811 1976
3 1942 1979 2071
3 1001 920 2057
3 312 314 768
3 1552 1554 2062
3 615 616 617
3 357 1982 2076
3 800 802 839
3 774 671 2033
3 1749 1169 2105
3 365 958 1162
3 617 618 619
3 283 281 1938
3 1351 1772 2414
3 1525 1765 2489
3 846 934 1968
3 635 700 701
3 555 554 577
3 536 1158 1979
3 1101 1404 1405
3 630 635 1960
3 1811 1150 2089
3 2113 1666 2249
3 172 173 1847
3 107 108 195
3 54 55 196
3 1191 1768 2023
3 1455 1302 2205
3 115 116 2017
3 1387 1333 2437
3 659 661 764
3 1080 1121 1188
3 50 51 2011
3 411 406 2043
3 295 293 1983
3 643 987 2033
3 707 706 708
3 129 130 261
3 32 33 260
3 2159 260 2265
3 449 434 567
3 1314 1029 1315
3 917 796 940
3 378 375 628
3 108 109 1991
3 2370 1759 2537
3 341 344 345
3 997 1013 1159
3 544 569 1993
3 950 1007 1966
3 477 474 525
3 351 350 352
3 1696 1701 2036
3 334 331 803
3 1137 1138 1340
3 562 534 1979
3 109 110 246
3 52 53 247
3 1368 1316 1369
3 659 660 661
3 33 34 2002
3 123 124 2005
3 835 779 1976
3 851 838 1992
3 1530 1533 2172
3 1668 1045 2348
3 1162 1681 1706
3 342 338 468
3 298 300 358
3 765 359 2065
3 725 826 885
3 35 36 2003
3 46 47 2019
3 38 39 2006
3 336 517 2014
3 934 1111 1968
3 116 117 2018
3 650 651 1963
3 223 1711 2162
3 640 594 645
3 1333 1330 2192
3 104 222 2025
3 1603 922 2379
3 963 1113 1115
3 2084 1193 2189
3 564 570 571
3 36 37 2004
3 57 224 1947
3 1542 1601 2269
3 122 123 2012
3 1000 920 1001
3 127 128 240
3 34 35 239
3 383 387 2087
3 1161 1107 2228
3 1781 2294 2419
3 1201 1200 1202
3 124 125 225
3 37 38 226
3 1340 1341 1342
3 869 797 1137
3 839 840 1008
3 1158 544 1993
3 1326 925 1894
3 352 350 353
3 326 329 954
3 1864 2344 2412
3 836 835 2095
3 1051 1053 1295
3 1031 720 1032
3 503 461 787
3 1407 1112 2044
3 661 662 2058
3 838 868 1992
3 112 113 197
3 49 50 198
3 1359 980 1413
3 121 122 211
3 40 41 212
3 48 49 2010
3 113 114 2009
3 1741 673 2131
3 41 42 2020
3 120 121 2013
3 1409 2035 2097
3 1511 1374 2506
3 114 115 248
3 47 48 249
3 42 43 250
3 119 120 251
3 171 6 201
3 6 172 203
3 585 895 1993
3 43 44 2024
3 118 119 2021
3 905 904 906
3 764 661 797
3 337 340 341
3 1413 980 2051
3 117 118 205
3 44 45 206
3 347 346 350
3 1420 1076 1525
3 324 323 331
3 434 417 2031
3 965 967 969
3 716 719 788
3 1260 1254 1261
3 2053 373 2103
3 2069 2068 2170
3 326 328 329
3 1706 996 2408
3 273 275 2124
3 969 1011 1012
3 590 606 2001
3 1718 1611 2280
3 1914 1940 2001
3 915 1884 2082
3 329 330 333
3 620 859 955
3 2168 1409 2305
3 296 298 1997
3 915 2082 2101
3 339 338 342
3 1218 994 1505
3 333 336 337
3 266 263 1742
3 1873 768 2127
3 244 63 2162
3 64 223 2162
3 343 342 346
3 914 761 2258
3 310 312 1987
3 799 800 2055
3 302 304 763
3 1559 1566 1568
3 1598 1343 2114
3 592 575 595
3 341 345 794
3 189 1842 2220
3 767 815 816
3 1003 912 1004
3 839 1008 1009
3 1263 1428 1429
3 564 547 570
3 1845 1334 2082
3 332 331 334
3 901 866 902
3 651 659 1963
3 1009 1112 1213
3 335 334 338
3 569 585 1993
3 1665 1336 2299
3 1945 2071 2153
3 863 862 864
3 907 906 908
3 1849 1486 1930
3 1935 1144 2080
3 967 966 968
3 809 900 2119
3 865 864 866
3 835 1989 2095
3 190 1907 2417
3 333 337 522
3 1110 1748 2228
3 1193 1194 1195
3 94 191 2166
3 473 1854 2453
3 1769 1134 2369
3 948 851 1992
3 237 170 2216
3 420 419 422
3 1448 1447 2364
3 483 576 2144
3 721 1919 2032
3 885 886 1891
3 613 611 614
3 886 1014 1891
3 1160 411 2043
3 1918 1283 2342
3 1651 206 2485
3 1242 1240 1243
3 598 596 610
3 1295 1296 1459
3 1185 1186 1948
3 1425 1449 2070
3 294 296 762
3 1285 948 1992
3 925 876 1894
3 712 714 789
3 603 1668 2398
3 1940 590 2001
3 721 570 964
3 834 735 2075
3 1144 1920 2080
3 2263 1635 2511
3 1204 1207 1335
3 2235 1408 2378
3 965 964 966
3 1990 1435 2218
3 397 398 2060
3 1138 797 2058
3 1787 1141 2368
3 2068 820 2170
3 360 359 361
3 387 462 2087
3 1524 1272 1934
3 819 698 820
3 1197 1196 1198
3 1662 2126 2388
3 78 79 2093
3 1150 588 2089
3 1269 1261 1270
3 1878 915 2101
3 451 467 2169
3 2262 1387 2437
3 1009 1008 1112
3 757 311 1959
3 897 898 1139
3 1854 473 2483
3 2015 1425 2070
3 2082 1334 2101
3 963 1115 1174
3 1047 1049 1287
3 1194 423 1196
3 321 326 2050
3 417 1160 2031
3 854 1133 1973
3 1201 1212 1348
3 705 1586 2163
3 309 319 1959
3 1353 1390 2417
3 427 428 429
3 357 356 359
3 606 650 2001
3 549 1280 2124
3 1213 1112 1407
3 256 2303 2535
3 356 365 2065
3 662 664 2040
3 701 894 2039
3 1325 1371 2451
3 666 626 667
3 1902 93 2166
3 1236 1234 1246
3 800 839 2055
3 1869 1812 2252
3 1197 1364 1365
3 576 1935 2080
3 404 408 798
3 1678 807 2529
3 1560 1564 2016
3 1319 2039 2122
3 425 426 427
3 349 356 357
3 308 310 327
3 1716 622 2484
3 1801 82 2289
3 1768 1949 2420
3 2006 1926 2507
3 351 364 2407
3 420 423 1193
3 659 764 1963
3 292 294 2038
3 840 842 2027
3 736 279 2049
3 372 373 374
3 461 449 2052
3 2189 1195 2285
3 1174 1115 1398
3 367 363 961
3 909 908 918
3 1738 247 2402
3 1007 1761 2308
3 288 290 2135
3 422 441 2035
3 623 624 690
3 537 525 545
3 1953 1421 2454
3 1887 1968 2123
3 861 691 862
3 654 439 2223
3 1136 1080 2054
3 1312 1811 2089
3 575 571 2032
3 383 361 384
3 968 1200 1201
3 797 661 2058
3 1423 1354 2381
3 1180 1178 1181
3 1513 1515 2180
3 72 73 2217
3 462 445 463
3 12 13 2136
3 457 458 469
3 542 554 555
3 599 636 760
3 254 133 1766
3 1130 1397 1937
3 404 798 2060
3 1044 1942 2071
3 690 691 860
3 357 359 360
3 1008 2027 2152
3 1232 1230 1255
3 372 370 373
3 850 943 2125
3 1457 1456 1492
3 1952 324 2282
3 155 2 2356
3 0 7 2357
3 2017 1379 2288
3 918 1851 2008
3 195 1991 2517
3 2090 803 2347
3 1244 1243 1251
3 290 292 368
3 1432 1082 2214
3 1008 840 2027
3 1743 803 2296
3 1013 844 2039
3 365 1162 2065
3 1594 1315 2184
3 387 384 388
3 1508 1860 2311
3 547 527 2056
3 2005 225 2322
3 314 317 2127
3 1853 556 2327
3 201 6 278
3 1907 1644 2417
3 1896 2101 2108
3 646 645 784
3 538 508 558
3 374 375 377
3 1630 1634 1635
3 1579 1999 2352
3 1647 1648 1849
3 1313 1314 2121
3 1179 1433 2042
3 844 701 2039
3 1252 1251 2098
3 816 876 925
3 1922 1228 2281
3 392 394 396
3 1915 654 2294
3 1652 1653 2487
3 429 430 436
3 456 475 476
3 1605 1392 2510
3 126 1882 2284
3 1784 1780 2419
3 500 453 960
3 377 378 381
3 2178 1587 2300
3 1222 1219 1626
3 413 419 420
3 381 382 400
3 2169 1836 2223
3 1906 1905 2129
3 616 614 793
3 1170 1419 2139
3 101 189 2220
3 241 100 2220
3 1968 1111 2123
3 567 434 2031
3 615 614 616
3 1032 720 1921
3 682 428 2138
3 469 470 473
3 339 440 2261
3 1501 238 2226
3 1154 1431 1653
3 446 447 457
3 1251 1243 1257
3 2229 315 2495
3 1201 1202 1212
3 785 784 879
3 464 463 465
3 66 2118 2395
3 324 332 2282
3 286 288 771
3 17 199 2081
3 571 570 721
3 611 610 2092
3 617 616 618
3 1542 1531 2332
3 400 401 424
3 1325 1326 1371
3 1140 1406 1702
3 1323 443 2302
3 1926 1573 2507
3 436 437 446
3 1262 1457 2098
3 67 190 2118
3 1518 1861 2449
3 989 1359 1360
3 1063 1082 1154
3 1757 96 2526
3 969 967 1011
3 868 836 2095
3 1215 1035 2235
3 96 1757 2309
3 261 2160 2380
3 1381 1382 2126
3 1468 1469 2182
3 1334 1317 2108
3 861 863 1064
3 1270 1261 1271
3 360 361 383
3 287 316 1978
3 1856 192 2367
3 1905 241 2129
3 1615 1809 2425
3 528 523 560
3 979 980 989
3 662 2040 2058
3 721 964 965
3 170 171 2216
3 664 799 2040
3 512 511 523
3 1201 1348 2107
3 620 618 858
3 758 289 1978
3 859 858 998
3 424 425 453
3 1616 1615 2193
3 444 301 1975
3 561 560 593
3 965 966 967
3 1798 376 2430
3 340 2014 2091
3 510 465 511
3 107 195 1990
3 1080 1188 2054
3 1153 998 1312
3 1226 1224 1249
3 1012 1011 1363
3 902 904 905
3 842 963 2027
3 268 270 1134
3 865 901 1125
3 2077 558 2102
3 282 284 442
3 1977 1679 2253
3 1496 1498 2047
3 284 286 2063
3 281 736 1938
3 2132 793 2165
3 1674 215 2437
3 2078 1855 2411
3 839 1009 2055
3 1182 824 1183
3 1168 947 1169
3 1289 1871 2242
3 316 285 1971
3 1270 1271 1272
3 1755 1793 2264
3 51 1996 2011
3 383 384 387
3 1146 1924 2215
3 1279 1928 2202
3 619 618 620
3 1194 1196 1197
3 555 578 979
3 1937 1639 2528
3 1262 1257 1263
3 389 384 2339
3 2251 1338 2464
3 1155 1887 2123
3 1151 1937 2528
3 465 463 828
3 1318 1319 2116
3 1687 1688 2231
3 326 954 2050
3 297 318 1984
3 1308 953 2255
3 1846 2056 2198
3 320 315 2229
3 1254 1252 2059
3 760 761 783
3 951 1281 2255
3 1459 1296 2094
3 2288 1638 2470
3 1975 299 1984
3 52 247 1996
3 468 338 2090
3 2140 1511 2506
3 1125 1126 1192
3 593 824 1182
3 720 708 1921
3 704 706 707
3 623 587 624
3 2044 1112 2152
3 1393 1169 1749
3 900 983 2119
3 783 914 938
3 255 2265 2489
3 2039 894 2122
3 317 2050 2127
3 1866 1867 2513
3 374 373 375
3 429 436 455
3 387 388 445
3 1193 423 1194
3 555 577 578
3 1074 977 1187
3 449 567 2052
3 1197 1198 1364
3 2154 1595 2486
3 1486 1849 2173
3 318 295 1983
3 939 1016 1844
3 131 132 2160
3 30 31 2159
3 881 1146 2215
3 1294 1868 2238
3 1300 1455 2314
3 1365 1364 1912
3 783 938 939
3 2061 1735 2441
3 551 545 601
3 2194 216 2536
3 1251 1257 1262
3 888 887 2177
3 1364 1198 2048
3 1498 1682 2340
3 1589 1590 2501
3 60 188 2266
3 1401 1913 2324
3 195 108 1991
3 420 422 423
3 1675 1470 2474
3 258 1673 2183
3 2161 1619 2438
3 1296 1472 2094
3 1808 1910 2381
3 334 803 2090
3 1490 1285 2232
3 523 511 524
3 1240 1238 2074
3 1184 1183 1185
3 39 40 2151
3 473 474 477
3 1461 1463 2200
3 2072 353 2073
3 861 862 863
3 1206 1941 2401
3 958 1575 2287
3 614 611 2092
3 110 111 2140
3 1136 2054 2110
3 645 594 2133
3 260 33 2002
3 673 767 2131
3 989 980 1359
3 1741 2131 2258
3 1317 1875 2148
3 894 1946 2122
3 863 864 865
3 787 461 2052
3 857 2277 2386
3 109 246 1991
3 2017 116 2018
3 1182 1183 1184
3 377 375 378
3 816 925 1324
3 865 866 901
3 1262 1263 1456
3 359 356 2065
3 2129 241 2472
3 283 1938 1971
3 1458 1210 2203
3 1076 1003 2145
3 196 1738 2402
3 1033 1130 1151
3 1188 1121 2106
3 1140 1702 2096
3 549 687 1280
3 1694 1621 2191
3 861 1064 2112
3 1548 1549 2129
3 1784 1071 2462
3 714 716 2066
3 1961 825 2455
3 1447 1211 2250
3 979 578 980
3 905 907 1209
3 381 378 382
3 457 469 552
3 595 575 2032
3 408 413 2084
3 481 483 2144
3 1745 1349 2293
3 1980 1405 2441
3 198 50 2011
3 248 115 2017
3 912 819 2068
3 620 858 859
3 707 708 720
3 821 674 822
3 514 542 2086
3 400 382 401
3 123 2005 2012
3 1772 1351 2374
3 34 239 2002
3 768 314 2127
3 2003 36 2004
3 280 282 2079
3 124 225 2005
3 596 595 2130
3 593 560 824
3 1504 1502 2519
3 239 35 2003
3 1311 1309 2147
3 1318 1877 2240
3 1860 1432 2311
3 1416 1715 2330
3 859 998 1153
3 352 353 2072
3 312 768 1987
3 2027 1174 2152
3 226 38 2006
3 1827 1024 2117
3 1710 1391 2295
3 690 624 691
3 37 226 2004
3 1153 1312 1885
3 853 855 2186
3 1892 242 2373
3 1967 520 2174
3 939 938 1016
3 47 249 2019
3 388 390 2078
3 1991 2139 2517
3 905 906 907
3 571 721 2032
3 1196 423 2035
3 1324 925 1325
3 1151 1130 1937
3 363 352 2072
3 345 349 2076
3 1031 1032 1033
3 214 179 1859
3 211 122 2012
3 602 601 652
3 117 205 2018
3 710 712 2067
3 1602 187 2357
3 520 2000 2174
3 85 242 2335
3 220 84 2335
3 381 400 2113
3 1586 1587 2435
3 424 401 425
3 963 1174 2027
3 860 691 861
3 610 596 2130
3 1958 2078 2431
3 570 547 2056
3 237 2216 2354
3 1211 1692 2219
3 298 358 1997
3 909 947 1041
3 441 456 2097
3 1135 1647 1849
3 1601 1542 2443
3 197 113 2009
3 49 198 2010
3 1911 347 2407
3 1729 191 2309
3 212 41 2020
3 121 211 2013
3 222 105 2218
3 1125 901 1126
3 114 248 2009
3 249 48 2010
3 42 250 2020
3 251 120 2013
3 233 1769 2369
3 1870 647 2113
3 794 345 2076
3 250 43 2024
3 119 251 2021
3 901 902 2141
3 964 570 2056
3 739 335 2261
3 2108 1317 2148
3 577 599 2083
3 205 118 2021
3 44 206 2024
3 1247 1241 2323
3 1894 992 2244
3 6 203 2049
3 1642 1678 2529
3 1417 1873 2333
3 1422 2023 2516
3 341 794 2100
3 73 74 2361
3 1234 1232 2088
3 1261 1254 2059
3 896 1077 2257
3 1921 710 2067
3 125 126 2284
3 220 1699 2289
3 159 5 2304
3 4 184 2303
3 2059 1252 2098
3 1003 1004 2145
3 2328 1325 2451
3 1486 227 1500
3 63 64 2162
3 2081 1192 2260
3 508 500 2102
3 667 1872 2318
3 338 334 2090
3 423 422 2035
3 1192 1126 1471
3 907 908 909
3 1330 1328 2192
3 1972 897 2500
3 2443 316 2514
3 242 86 2373
3 87 193 2373
3 420 1193 2084
3 1473 1086 2358
3 1987 768 2037
3 522 337 2100
3 627 1660 2185
3 1793 446 2264
3 1405 2061 2441
3 1502 1217 2302
3 171 201 2216
3 1158 1993 2153
3 1197 1365 2120
3 1712 1710 2295
3 1121 1401 2414
3 93 94 2166
3 653 652 688
3 622 1716 2452
3 1345 1720 2267
3 477 537 556
3 128 129 2181
3 2331 1295 2458
3 784 645 874
3 1269 1270 2199
3 189 102 2355
3 1041 1168 1343
3 246 110 2140
3 477 525 537
3 755 1895 2371
3 1947 1723 2313
3 1134 1135 2369
3 223 65 2395
3 968 1201 2107
3 1577 1578 2325
3 210 15 2477
3 961 363 2072
3 1581 1579 2352
3 349 357 2076
3 337 341 2100
3 305 303 2317
3 370 367 2103
3 762 296 1997
3 581 580 2164
3 1278 1838 2372
3 1548 2129 2472
3 594 593 2133
3 2021 251 2022
3 2047 1247 2182
3 967 968 2107
3 1169 947 2008
3 481 2144 2169
3 793 614 2092
3 1910 217 2381
3 1251 1262 2098
3 716 788 2066
3 2101 1334 2108
3 2006 39 2151
3 1603 2379 2508
3 1926 2006 2151
3 96 97 2526
3 750 755 2371
3 789 714 2066
3 909 918 947
3 1993 895 2153
3 106 1990 2218
3 1243 1240 2074
3 832 986 1189
3 1283 1284 2342
3 2297 195 2517
3 1043 829 2326
3 767 816 2131
3 602 653 676
3 1004 912 2068
3 2086 1886 2224
3 1124 2177 2467
3 426 401 2531
3 707 720 1030
3 1000 1001 2184
3 1315 1029 2184
3 467 481 2169
3 541 513 2256
3 647 381 2113
3 225 2284 2510
3 2 156 2356
3 187 0 2357
3 40 212 2151
3 2245 1386 2383
3 676 677 829
3 1004 2068 2069
3 1860 232 2487
3 1031 1033 1034
3 829 830 972
3 996 997 2408
3 1195 1194 2120
3 987 1869 2202
3 1410 1213 2222
3 819 820 2068
3 1485 1486 2173
3 1564 2030 2155
3 807 669 2529
3 129 261 2181
3 1525 1076 2145
3 578 577 2083
3 327 310 1987
3 1083 929 2197
3 2131 1324 2258
3 798 408 2084
3 1838 696 2426
3 1486 1500 1930
3 1946 1944 2291
3 2257 1077 2291
3 1512 1661 2266
3 445 388 2078
3 1192 1471 2260
3 2118 1415 2395
3 1466 1468 2158
3 830 677 831
3 211 2012 2251
3 652 601 2442
3 537 545 551
3 558 508 2102
3 198 2011 2128
3 1718 2280 2385
3 500 960 2102
3 1168 1169 1393
3 1127 971 2496
3 95 96 2309
3 2030 1565 2155
3 1919 1172 2273
3 977 860 2112
3 240 128 2181
3 294 762 2038
3 1800 1799 2195
3 712 789 2067
3 972 1749 2326
3 472 1683 2212
3 874 645 2133
3 551 2045 2201
3 2105 1043 2326
3 1957 1212 2301
3 1514 1856 2367
3 565 538 2167
3 373 370 2103
3 355 348 2196
3 1934 1272 2138
3 1934 426 2531
3 1881 1400 2481
3 2046 1851 2327
3 367 961 2103
3 1963 1152 2206
3 201 278 443
3 3 131 2444
3 31 1 2445
3 2035 441 2097
3 503 787 2198
3 1135 1849 1930
3 1534 1983 2306
3 2089 623 2150
3 687 704 2109
3 869 1351 2363
3 1302 1304 2205
3 955 1716 2484
3 1030 720 1031
3 1159 1318 2240
3 1228 1226 2281
3 947 918 2008
3 413 420 2084
3 785 879 2532
3 1041 947 1168
3 1468 2182 2323
3 1246 1234 2088
3 1730 1163 2372
3 542 555 2086
3 1599 631 2312
3 1146 1967 2174
3 1078 1136 2343
3 1515 1574 2180
3 2336 885 2469
3 1257 1243 2074
3 1347 1346 2279
3 2001 650 2206
3 1480 1601 2514
3 1029 1000 2184
3 1956 788 2336
3 1271 1261 2059
3 130 3 2444
3 1 32 2445
3 1570 1507 2197
3 1232 1255 2088
3 791 1642 2529
3 1601 1479 2269
3 1361 1362 2168
3 1634 1922 2281
3 765 2065 2190
3 2071 1158 2153
3 1699 1801 2289
3 832 831 833
3 1864 346 2344
3 456 476 2097
3 1855 828 2411
3 2065 1162 2190
3 1125 1192 2149
3 599 760 2083
3 361 765 2339
3 1731 2123 2241
3 1349 1181 1350
3 1443 1275 2251
3 1819 524 2429
3 1021 1045 2512
3 858 618 2132
3 1999 358 2338
3 368 292 2038
3 290 368 2135
3 803 331 2296
3 1112 1008 2152
3 56 1947 2313
3 555 979 2086
3 1469 1496 2182
3 1011 967 2107
3 248 2017 2288
3 1809 789 2425
3 960 453 2221
3 538 558 2167
3 1858 1187 2248
3 2246 1757 2526
3 902 905 2141
3 1851 1853 2327
3 1224 1222 2111
3 771 288 2135
3 1945 2153 2257
3 1420 1525 2489
3 1399 1123 2393
3 103 2025 2355
3 897 822 898
3 1861 940 2532
3 865 1125 2146
3 1675 2474 2522
3 1573 2157 2507
3 1632 1631 2382
3 551 601 602
3 527 503 2198
3 1708 805 2337
3 1059 1278 2372
3 2056 527 2198
3 860 861 2112
3 1668 2348 2398
3 255 2159 2265
3 1541 1542 2269
3 1428 2074 2227
3 1582 1583 2321
3 389 1774 2503
3 2004 226 2157
3 1777 397 2405
3 1368 1436 2254
3 1061 2409 2462
3 1071 930 2462
3 1126 901 2141
3 1194 1197 2120
3 1452 1952 2282
3 2116 1319 2482
3 105 106 2218
3 1981 1399 2393
3 2119 983 2143
3 444 1682 2461
3 2173 1648 2463
3 616 793 2132
3 1791 1190 2334
3 1826 1728 2259
3 602 652 653
3 1834 1292 2428
3 556 2201 2327
3 1014 1015 2385
3 1995 1287 2331
3 1193 1195 2189
3 816 1324 2131
3 879 1861 2532
3 593 1182 2133
3 1402 266 1742
3 2216 1323 2354
3 1660 1636 2502
3 620 955 2484
3 1162 1706 2190
3 1870 2113 2249
3 204 1680 1732
3 1909 2023 2420
3 217 72 2217
3 376 372 2430
3 905 1209 2141
3 1378 1381 2283
3 1236 1246 2227
3 286 771 2063
3 1635 2263 2502
3 100 101 2220
3 1139 898 1140
3 2114 1343 2136
3 442 284 2063
3 1772 2106 2414
3 1985 1755 2533
3 2192 1328 2315
3 1064 863 2146
3 1631 1637 2459
3 736 2049 2523
3 221 1906 2246
3 318 1983 2171
3 1496 2047 2182
3 1374 2139 2506
3 196 55 2313
3 2087 462 2134
3 676 653 677
3 2304 257 2491
3 1401 2324 2363
3 829 677 830
3 654 2223 2242
3 1187 977 2112
3 1463 1466 2200
3 2023 219 2516
3 1176 881 2215
3 513 471 2290
3 1812 459 2252
3 1386 1269 2199
3 291 758 2306
3 618 616 2132
3 278 280 2210
3 83 220 2289
3 82 83 2289
3 938 1057 2161
3 1189 986 1190
3 788 719 2336
3 1914 2001 2206
3 232 181 1652
3 1567 2062 2490
3 313 757 2495
3 622 619 2484
3 688 878 1320
3 1222 1626 2111
3 282 442 2079
3 1169 2008 2105
3 1966 1007 2308
3 2040 799 2237
3 1744 2229 2495
3 986 833 1063
3 2284 1605 2510
3 887 1961 2376
3 215 1624 2262
3 830 831 832
3 476 475 2224
3 439 451 2223
3 1932 1933 2380
3 2227 1246 2366
3 1212 1202 2301
3 1107 1110 2228
3 249 2010 2299
3 1983 293 2306
3 2055 1214 2237
3 1438 1372 2478
3 824 560 2156
3 2320 1866 2513
3 1351 1137 2374
3 868 2007 2232
3 2063 771 2064
3 1507 214 1508
3 1728 1727 2246
3 1045 1047 2348
3 1139 1140 2096
3 1648 1649 2463
3 1502 2302 2519
3 704 707 2109
3 2343 1136 2396
3 650 1963 2206
3 2153 895 2257
3 396 1958 2431
3 1379 1377 2288
3 2115 1471 2319
3 2033 987 2202
3 2239 1693 2518
3 2025 1488 2355
3 1209 2115 2319
3 523 524 2156
3 783 939 2243
3 376 1798 2497
3 2066 788 2193
3 1984 318 2172
3 425 427 2221
3 203 172 1847
3 446 457 2264
3 1312 2089 2150
3 2138 1272 2211
3 897 1139 2274
3 828 1819 2429
3 1249 1224 2111
3 666 667 2318
3 1371 1326 2194
3 2433 1499 2475
3 1272 1271 2211
3 1367 2254 2479
3 1386 2053 2383
3 2074 1238 2227
3 755 2148 2320
3 2117 1604 2428
3 475 514 2224
3 228 2187 2457
3 1868 1504 2520
3 1626 1218 2185
3 2123 1111 2241
3 1287 1049 2331
3 1280 687 2109
3 459 1814 2292
3 54 196 2402
3 863 865 2146
3 204 176 1680
3 514 2086 2224
3 1646 603 2398
3 112 197 2346
3 358 300 2338
3 1140 898 1141
3 1204 1335 2301
3 1016 2161 2438
3 909 1041 2175
3 1681 2448 2492
3 2252 459 2292
3 1992 868 2232
3 1035 1036 2235
3 1051 1295 2331
3 1836 1289 2242
3 1508 214 1859
3 247 53 2402
3 1016 938 2161
3 1408 856 2378
3 1466 2158 2200
3 725 885 2336
3 855 1450 2421
3 2023 1768 2420
3 1238 1236 2227
3 1679 202 2253
3 2107 1348 2233
3 1653 1431 2487
3 1946 2291 2343
3 2253 202 2329
3 1885 1312 2150
3 378 628 2390
3 2195 1383 2432
3 1520 1519 2480
3 1532 1733 2534
3 308 327 2278
3 953 951 2255
3 1213 1407 2222
3 1561 1563 2285
3 302 763 2338
3 1928 2033 2202
3 763 304 2345
3 832 833 986
3 1352 2040 2237
3 247 1881 2481
3 560 523 2156
3 335 339 2261
3 346 342 2344
3 201 443 1323
3 2301 1335 2466
3 323 320 2229
3 1136 2110 2396
3 1139 1977 2274
3 1809 1615 2423
3 1707 1791 2334
3 46 2019 2485
3 2064 1294 2238
3 1950 197 2404
3 2021 2022 2176
3 1949 245 2420
3 2044 2152 2207
3 1063 1154 1707
3 1012 1363 2406
3 280 2079 2210
3 2237 1214 2351
3 820 698 2318
3 1140 1141 1406
3 205 2021 2176
3 2043 786 2310
3 2145 1004 2446
3 707 1030 2109
3 1406 2460 2473
3 2137 1268 2226
3 16 2081 2260
3 567 2031 2219
3 2112 1064 2248
3 206 45 2485
3 2347 1462 2365
3 1650 1962 2362
3 453 425 2221
3 1209 907 2175
3 1111 1276 2241
3 2448 1145 2492
3 2051 2083 2243
3 59 60 2266
3 1402 1742 2530
3 831 677 2209
3 624 587 2276
3 238 174 1725
3 1011 2107 2233
3 468 2365 2412
3 2337 805 2371
3 254 1932 2380
3 1174 1398 2207
3 2140 111 2346
3 1381 2186 2283
3 1987 2037 2188
3 1740 559 2456
3 1773 391 2503
3 1335 1870 2249
3 1945 2257 2291
3 828 463 2411
3 1246 2088 2208
3 2060 798 2307
3 1773 1159 2240
3 1187 2112 2248
3 1352 2237 2351
3 2037 1322 2188
3 1941 1499 2433
3 2322 225 2510
3 1031 1034 2236
3 327 2188 2321
3 595 2032 2273
3 1464 1462 2347
3 1285 1992 2232
3 799 2055 2237
3 443 278 2210
3 784 874 2178
3 392 396 2431
3 191 95 2309
3 879 784 2178
3 524 511 2429
3 2128 2011 2270
3 895 896 2257
3 2206 1152 2324
3 318 2171 2172
3 2259 1549 2379
3 1214 1410 2351
3 306 308 2278
3 2022 251 2247
3 1757 1729 2309
3 1283 1918 2524
3 996 1706 2492
3 557 2044 2207
3 1798 1448 2364
3 1447 2250 2310
3 559 1750 2403
3 1363 1011 2233
3 1343 1168 2187
3 1407 2044 2256
3 1462 1460 2365
3 1995 2331 2458
3 327 1987 2188
3 2160 254 2380
3 1681 958 2287
3 2031 1160 2250
3 1600 689 2413
3 2219 1692 2239
3 1494 1675 2522
3 1281 1916 2448
3 907 909 2175
3 565 2167 2276
3 2241 1276 2275
3 1978 316 2443
3 2151 212 2350
3 203 1847 2104
3 2049 1481 2523
3 1961 1362 2376
3 2187 1393 2457
3 940 796 2532
3 2293 1349 2329
3 572 1897 2537
3 332 739 2282
3 2052 567 2239
3 1437 1370 2277
3 567 2219 2239
3 667 626 2452
3 1914 2206 2324
3 2243 939 2392
3 2136 1343 2187
3 257 1654 2530
3 1376 1378 2283
3 2076 1982 2272
3 2083 760 2243
3 1944 1945 2291
3 1771 1839 2359
3 1404 1403 2399
3 1875 1866 2320
3 1460 1337 2412
3 760 783 2243
3 1276 1366 2275
3 1428 2227 2366
3 1882 1605 2284
3 1739 1429 2459
3 2321 2188 2434
3 1328 1327 2315
3 798 2189 2307
3 2152 1174 2207
3 2182 1247 2323
3 1516 1514 2367
3 293 291 2306
3 556 537 2201
3 1298 1300 2314
3 1400 1399 2316
3 1649 2236 2463
3 833 831 2424
3 2127 2050 2333
3 1057 914 2328
3 1839 193 2359
3 761 1741 2258
3 1186 1970 2422
3 1429 2366 2382
3 2211 1271 2271
3 1733 1248 2534
3 13 2114 2136
3 2078 390 2431
3 1533 1536 2340
3 1690 2145 2446
3 1277 2308 2370
3 1168 1393 2187
3 1597 2047 2268
3 587 565 2276
3 1908 244 2401
3 225 125 2284
3 610 2130 2468
3 1749 2105 2326
3 1913 1914 2324
3 2366 2208 2382
3 1391 1876 2295
3 457 552 2264
3 653 688 2209
3 1601 2443 2514
3 682 2138 2211
3 992 1980 2244
3 55 56 2313
3 1645 1495 2493
3 473 477 2483
3 202 1724 2329
3 465 828 2429
3 1277 1966 2308
3 1416 2330 2406
3 1912 1364 2455
3 1716 1483 2375
3 2019 1651 2485
3 1725 2137 2226
3 201 1323 2216
3 878 1083 2213
3 2072 2073 2245
3 1563 1777 2405
3 244 2028 2401
3 2016 1564 2422
3 1682 1497 2461
3 1962 1153 2362
3 1298 2314 2358
3 1384 1385 2391
3 688 1320 2209
3 1587 2179 2435
3 786 380 2497
3 1395 1522 2341
3 2032 1919 2273
3 251 2013 2247
3 2219 2031 2250
3 2397 552 2453
3 1765 255 2489
3 2475 1825 2524
3 1202 1204 2301
3 445 2078 2411
3 323 2229 2296
3 1286 2384 2408
3 537 551 2201
3 1724 237 2293
3 84 85 2335
3 1471 1126 2319
3 1635 1634 2511
3 300 302 2338
3 698 666 2318
3 1030 1031 2236
3 2098 1457 2271
3 696 1821 2426
3 1457 1492 2447
3 1956 2336 2469
3 331 323 2296
3 1284 1491 2342
3 2011 1996 2270
3 256 183 2303
3 160 257 2304
3 2204 1589 2501
3 1891 1014 2280
3 719 725 2336
3 1354 1808 2381
3 437 430 2494
3 2377 218 2391
3 2211 2271 2447
3 1407 2256 2290
3 2365 1460 2412
3 2047 1498 2268
3 1825 1283 2524
3 1499 1825 2475
3 1226 1249 2281
3 2051 2243 2392
3 2250 1160 2310
3 111 112 2346
3 304 306 2345
3 1341 1352 2351
3 2166 191 2504
3 2223 1836 2242
3 1996 247 2481
3 1049 1051 2331
3 1086 1298 2358
3 2130 595 2273
3 1249 2111 2263
3 680 1995 2458
3 1511 2140 2346
3 102 103 2355
3 469 473 2453
3 961 2072 2245
3 2073 1282 2245
3 1442 1443 2525
3 74 192 2361
3 2163 1586 2435
3 1519 1518 2449
3 897 2274 2500
3 303 444 2317
3 1615 1614 2423
3 197 2009 2404
3 1634 2281 2511
3 1780 1781 2419
3 1435 1623 2465
3 1286 1774 2384
3 384 361 2339
3 193 1901 2359
3 1165 2433 2475
3 2277 1370 2386
3 677 653 2209
3 1994 1516 2367
3 1479 1478 2440
3 1165 1512 2433
3 1644 1353 2417
3 1711 1712 2353
3 2193 1615 2425
3 1613 1956 2469
3 1440 1173 2330
3 2269 1479 2440
3 222 2218 2465
3 391 389 2503
3 306 2278 2345
3 468 2090 2365
3 221 2246 2526
3 1445 1446 2504
3 939 1844 2392
3 86 87 2373
3 1429 1428 2366
3 2053 2103 2383
3 1348 1212 2312
3 805 750 2371
3 997 1286 2408
3 1152 869 2363
3 2063 2064 2238
3 192 1994 2367
3 1160 2043 2310
3 1926 2151 2350
3 2059 2098 2271
3 1897 1366 2537
3 215 2262 2437
3 1655 1732 2476
3 2415 1128 2454
3 1320 2213 2214
3 7 258 2357
3 259 155 2356
3 2171 1530 2172
3 347 351 2407
3 1077 1078 2343
3 239 2003 2279
3 1446 1128 2415
3 1034 1033 2410
3 601 627 2442
3 1154 1653 2234
3 397 2060 2405
3 2142 794 2272
3 442 2063 2238
3 1863 1215 2378
3 794 2076 2272
3 1883 1375 2505
3 1320 878 2213
3 342 468 2344
3 1903 218 2377
3 380 376 2497
3 1549 1547 2379
3 1148 1165 2475
3 2157 226 2507
3 829 972 2326
3 884 1957 2466
3 2291 1077 2343
3 65 66 2395
3 787 2052 2518
3 2298 1348 2312
3 1946 2343 2396
3 1653 256 2535
3 1842 1548 2472
3 1957 2301 2466
3 1366 1277 2370
3 2213 1432 2214
3 961 2245 2383
3 218 2093 2391
3 1376 2283 2421
3 1873 2127 2333
3 1019 1021 2512
3 1128 1127 2454
3 1104 1434 2450
3 2130 1439 2468
3 2396 2110 2482
3 2186 855 2283
3 1724 2293 2329
3 1163 1059 2372
3 1614 2389 2423
3 53 54 2402
3 1063 1707 2334
3 2283 855 2421
3 1385 1863 2436
3 364 1883 2505
3 517 1890 2387
3 1145 996 2492
3 1047 1287 2348
3 2148 1875 2320
3 205 2176 2416
3 1372 1844 2478
3 1211 2219 2250
3 1141 898 2368
3 245 1909 2420
3 2278 327 2321
3 2389 1397 2423
3 2256 513 2290
3 559 2403 2456
3 1137 1340 2374
3 2093 1384 2391
3 1918 1148 2524
3 1030 2236 2427
3 1867 1895 2513
3 2014 517 2387
3 2271 1457 2447
3 1143 2028 2353
3 1904 194 2432
3 1148 2475 2524
3 1574 1523 2436
3 2213 1083 2311
3 1997 358 2325
3 2139 246 2506
3 1370 1369 2386
3 1271 2059 2271
3 1034 2173 2463
3 1123 1412 2393
3 1578 1827 2515
3 2209 1320 2424
3 2079 1504 2210
3 1361 2168 2305
3 1491 1489 2403
3 238 1725 2226
3 1190 986 2334
3 1547 1545 2508
3 1891 1613 2469
3 1153 1885 2362
3 2208 1632 2382
3 2287 1281 2448
3 1356 1376 2421
3 1965 2349 2515
3 2155 1186 2422
3 1522 2014 2387
3 2158 1468 2323
3 2050 954 2333
3 1397 1809 2423
3 1362 1360 2376
3 1852 1985 2397
3 2069 1691 2446
3 789 2066 2425
3 1895 755 2513
3 1707 1154 2234
3 372 374 2430
3 2225 787 2518
3 2028 1206 2401
3 986 1063 2334
3 1912 726 2439
3 1340 1342 2400
3 1916 1145 2448
3 2236 1649 2427
3 2374 1340 2400
3 2222 1407 2290
3 2324 1152 2363
3 241 2220 2472
3 765 2190 2384
3 2375 667 2452
3 2330 1173 2406
3 1181 1972 2500
3 2126 1382 2388
3 1173 1012 2406
3 315 313 2495
3 1015 1373 2385
3 97 221 2526
3 1937 1397 2389
3 930 1061 2462
3 971 1096 2496
3 45 46 2485
3 669 791 2529
3 1104 2450 2521
3 382 378 2390
3 2191 1371 2536
3 2235 1036 2286
3 831 2209 2424
3 762 1997 2349
3 2379 1547 2508
3 2177 1359 2467
3 2403 1489 2456
3 796 785 2532
3 219 1902 2516
3 1519 2300 2480
3 1065 1655 2476
3 1375 1473 2505
3 1489 1490 2456
3 390 392 2431
3 2247 2013 2464
3 1135 1930 2369
3 2278 1583 2345
3 626 622 2452
3 631 2298 2312
3 2233 1348 2298
3 1398 1974 2499
3 1706 1681 2492
3 261 130 2444
3 32 260 2445
3 822 2099 2368
3 1365 1912 2439
3 941 940 2418
3 1446 2166 2504
3 2106 1121 2414
3 2300 1519 2449
3 1803 1104 2521
3 1732 1570 2476
3 1413 2051 2392
3 2122 1946 2396
3 2238 1868 2520
3 477 556 2483
3 2397 1985 2533
3 463 445 2411
3 2163 1185 2488
3 1126 2141 2319
3 1755 2264 2533
3 972 2204 2501
3 2230 1533 2340
3 1774 1773 2503
3 1997 2325 2349
3 1004 2069 2446
3 2159 31 2445
3 131 2160 2444
3 1371 2191 2451
3 1001 2154 2486
3 1682 2230 2340
3 2103 961 2383
3 1033 1151 2410
3 382 2390 2531
3 1504 2079 2520
3 1583 2278 2321
3 511 465 2429
3 250 2024 2479
3 2208 2088 2509
3 619 620 2484
3 1246 2208 2366
3 2141 1209 2319
3 1359 1413 2467
3 1295 1459 2458
3 2218 1435 2465
3 2281 1249 2511
3 2293 237 2354
3 2207 1398 2499
3 1564 2155 2422
3 552 469 2453
3 1947 224 2498
3 2062 1568 2490
3 2018 205 2416
3 260 2159 2445
3 2160 261 2444
3 2092 610 2468
3 194 2195 2432
3 1432 2213 2311
3 211 2251 2464
3 2378 856 2527
3 1536 1532 2534
3 2364 786 2497
3 2438 1438 2478
3 1185 1948 2488
3 2042 941 2418
3 1582 2321 2434
3 885 1891 2469
3 1364 2048 2455
3 1693 2225 2518
3 401 382 2531
3 1338 2247 2464
3 442 2238 2520
3 1292 2117 2428
3 2274 1350 2500
3 2066 2193 2425
3 2179 1184 2435
3 898 822 2368
3 2436 1863 2527
3 1844 1016 2478
3 2184 1001 2486
3 557 2207 2499
3 2013 211 2464
3 2254 250 2479
3 1350 1181 2500
3 2009 248 2470
3 246 2140 2506
3 1574 2436 2527
3 2139 1419 2517
3 316 1971 2514
3 1319 2122 2482
3 226 2006 2507
3 1400 2270 2481
3 1681 2287 2448
3 2325 1578 2349
3 232 1652 2487
3 1320 2214 2424
3 1632 2208 2509
3 248 2288 2470
3 1406 1141 2460
3 2188 1322 2434
3 2244 1980 2441
3 2088 1255 2509
3 1280 2109 2427
3 2060 2307 2405
3 2236 1034 2463
3 1745 2293 2354
3 2122 2396 2482
3 2109 1030 2427
3 2307 1563 2405
3 1429 2382 2459
3 224 2267 2498
3 682 2211 2447
3 2079 442 2520
3 2348 1287 2398
3 2220 1842 2472
3 1335 2249 2466
3 1249 2263 2511
3 443 2210 2519
3 2385 1373 2394
3 1594 2184 2486
3 2052 2239 2518
3 1568 2439 2490
3 2349 1578 2515
3 2344 468 2412
3 2270 1996 2481
3 1735 2244 2441
3 2260 1471 2477
3 2210 1504 2519
3 1434 2297 2450
3 2297 1419 2450
3 2263 1660 2502
3 2404 2009 2470
3 1718 2385 2394
3 1371 2194 2536
3 2317 444 2461
3 1443 2322 2525
3 1716 2375 2452
3 1863 2378 2527
3 2439 726 2490
3 1057 2328 2451
3 1638 2404 2470
3 1454 2234 2535
3 755 2320 2513
3 2234 1653 2535
3 2264 552 2533
3 1419 2297 2517
3 1392 2322 2510
3 552 2397 2533
3 1798 2364 2497
3 2322 1392 2525
3 2382 1631 2459
3 1016 2438 2478
3 1366 2370 2537
3 1742 2491 2530
3 2491 257 2530
CELL_TYPES 4886
5
5
5
5
5
5
5
5
5
5
5
5
5
5
5
5
5
5
5
5
5
5
5
5
5
5
5
5
5
5
5
5
5
5
5
5
5
5
5
5
5
5
5
5
5
5
5
5
5
5
5
5
5
5
5
5
5
5
5
5
5
5
5
5
5
5
5
5
5
5
5
5
5
5
5
5
5
5
5
5
5
5
5
5
5
5
5
5
5
5
5
5
5
5
5
5
5
5
5
5
5
5
5
5
5
5
5
5
5
5
5
5
5
5
5
5
5
5
5
5
5
5
5
5
5
5
5
5
5
5
5
5
5
5
5
5
5
5
5
5
5
5
5
5
5
5
5
5
5
5
5
5
5
5
5
5
5
5
5
5
5
5
5
5
5
5
5
5
5
5
5
5
5
5
5
5
5
5
5
5
5
5
5
5
5
5
5
5
5
5
5
5
5
5
5
5
5
5
5
5
5
5
5
5
5
5
5
5
5
5
5
5
5
5
5
5
5
5
5
5
5
5
5
5
5
5
5
5
5
5
5
5
5
5
5
5
5
5
5
5
5
5
5
5
5
5
5
5
5
5
5
5
5
5
5
5
5
5
5
5
5
5
5
5
5
5
5
5
5
5
5
5
5
5
5
5
5
5
5
5
5
5
5
5
5
5
5
5
5
5
5
5
5
5
5
5
5
5
5
5
5
5
5
5
5
5
5
5
5
5
5
5
5
5
5
5
5
5
5
5
5
5
5
5
5
5
5
5
5
5
5
5
5
5
5
5
5
5
5
5
5
5
5
5
5
5
5
5
5
5
5
5
5
5
5
5
5
5
5
5
5
5
5
5
5
5
5
5
5
5
5
5
5
5
5
5
5
5
5
5
5
5
5
5
5
5
5
5
5
5
5
5
5
5
5
5
5
5
5
5
5
5
5
5
5
5
5
5
5
5
5
5
5
5
5
5
5
5
5
5
5
5
5
5
5
5
5
5
5
5
5
5
5
5
5
5
5
5
5
5
5
5
5
5
5
5
5
5
5
5
5
5
5
5
5
5
5
5
5
5
5
5
5
5
5
5
5
5
5
5
5
5
5
5
5
5
5
5
5
5
5
5
5
5
5
5
5
5
5
5
5
5
5
5
5
5
5
5
5
5
5
5
5
5
5
5
5
5
5
5
5
5
5
5
5
5
5
5
5
5
5
5
5
5
5
5
5
5
5
5
5
5
5
5
5
5
5
5
5
5
5
5
5
5
5
5
5
5
5
5
5
5
5
5
5
5
5
5
5
5
5
5
5
5
5
5
5
5
5
5
5
5
5
5
5
5
5
5
5
5
5
5
5
5
5
5
5
5
5
5
5
5
5
5
5
5
5
5
5
5
5
5
5
5
5
5
5
5
5
5
5
5
5
5
5
5
5
5
5
5
5
5
5
5
5
5
5
5
5
5
5
5
5
5
5
5
5
5
5
5
5
5
5
5
5
5
5
5
5
5
5
5
5
5
5
5
5
5
5
5
5
5
5
5
5
5
5
5
5
5
5
5
5
5
5
5
5
5
5
5
5
5
5
5
5
5
5
5
5
5
5
5
5
5
5
5
5
5
5
5
5
5
5
5
5
5
5
5
5
5
5
5
5
5
5
5
5
5
5
5
5
5
5
5
5
5
5
5
5
5
5
5
5
5
5
5
5
5
5
5
5
5
5
5
5
5
5
5
5
5
5
5
5
5
5
5
5
5
5
5
5
5
5
5
5
5
5
5
5
5
5
5
5
5
5
5
5
5
5
5
5
5
5
5
5
5
5
5
5
5
5
5
5
5
5
5
5
5
5
5
5
5
5
5
5
5
5
5
5
5
5
5
5
5
5
5
5
5
5
5
5
5
5
5
5
5
5
5
5
5
5
5
5
5
5
5
5
5
5
5
5
5
5
5
5
5
5
5
5
5
5
5
5
5
5
5
5
5
5
5
5
5
5
5
5
5
5
5
5
5
5
5
5
5
5
5
5
5
5
5
5
5
5
5
5
5
5
5
5
5
5
5
5
5
5
5
5
5
5
5
5
5
5
5
5
5
5
5
5
5
5
5
5
5
5
5
5
5
5
5
5
5
5
5
5
5
5
5
5
5
5
5
5
5
5
5
5
5
5
5
5
5
5
5
5
5
5
5
5
5
5
5
5
5
5
5
5
5
5
5
5
5
5
5
5
5
5
5
5
5
5
5
5
5
5
5
5
5
5
5
5
5
5
5
5
5
5
5
5
5
5
5
5
5
5
5
5
5
5
5
5
5
5
5
5
5
5
5
5
5
5
5
5
5
5
5
5
5
5
5
5
5
5
5
5
5
5
5
5
5
5
5
5
5
5
5
5
5
5
5
5
5
5
5
5
5
5
5
5
5
5
5
5
5
5
5
5
5
5
5
5
5
5
5
5
5
5
5
5
5
5
5
5
5
5
5
5
5
5
5
5
5
5
5
5
5
5
5
5
5
5
5
5
5
5
5
5
5
5
5
5
5
5
5
5
5
5
5
5
5
5
5
5
5
5
5
5
5
5
5
5
5
5
5
5
5
5
5
5
5
5
5
5
5
5
5
5
5
5
5
5
5
5
5
5
5
5
5
5
5
5
5
5
5
5
5
5
5
5
5
5
5
5
5
5
5
5
5
5
5
5
5
5
5
5
5
5
5
5
5
5
5
5
5
5
5
5
5
5
5
5
5
5
5
5
5
5
5
5
5
5
5
5
5
5
5
5
5
5
5
5
5
5
5
5
5
5
5
5
5
5
5
5
5
5
5
5
5
5
5
5
5
5
5
5
5
5
5
5
5
5
5
5
5
5
5
5
5
5
5
5
5
5
5
5
5
5
5
5
5
5
5
5
5
5
5
5
5
5
5
5
5
5
5
5
5
5
5
5
5
5
5
5
5
5
5
5
5
5
5
5
5
5
5
5
5
5
5
5
5
5
5
5
5
5
5
5
5
5
5
5
5
5
5
5
5
5
5
5
5
5
5
5
5
5
5
5
5
5
5
5
5
5
5
5
5
5
5
5
5
5
5
5
5
5
5
5
5
5
5
5
5
5
5
5
5
5
5
5
5
5
5
5
5
5
5
5
5
5
5
5
5
5
5
5
5
5
5
5
5
5
5
5
5
5
5
5
5
5
5
5
5
5
5
5
5
5
5
5
5
5
5
5
5
5
5
5
5
5
5
5
5
5
5
5
5
5
5
5
5
5
5
5
5
5
5
5
5
5
5
5
5
5
5
5
5
5
5
5
5
5
5
5
5
5
5
5
5
5
5
5
5
5
5
5
5
5
5
5
5
5
5
5
5
5
5
5
5
5
5
5
5
5
5
5
5
5
5
5
5
5
5
5
5
5
5
5
5
5
5
5
5
5
5
5
5
5
5
5
5
5
5
5
5
5
5
5
5
5
5
5
5
5
5
5
5
5
5
5
5
5
5
5
5
5
5
5
5
5
5
5
5
5
5
5
5
5
5
5
5
5
5
5
5
5
5
5
5
5
5
5
5
5
5
5
5
5
5
5
5
5
5
5
5
5
5
5
5
5
5
5
5
5
5
5
5
5
5
5
5
5
5
5
5
5
5
5
5
5
5
5
5
5
5
5
5
5
5
5
5
5
5
5
5
5
5
5
5
5
5
5
5
5
5
5
5
5
5
5
5
5
5
5
5
5
5
5
5
5
5
5
5
5
5
5
5
5
5
5
5
5
5
5
5
5
5
5
5
5
5
5
5
5
5
5
5
5
5
5
5
5
5
5
5
5
5
5
5
5
5
5
5
5
5
5
5
5
5
5
5
5
5
5
5
5
5
5
5
5
5
5
5
5
5
5
5
5
5
5
5
5
5
5
5
5
5
5
5
5
5
5
5
5
5
5
5
5
5
5
5
5
5
5
5
5
5
5
5
5
5
5
5
5
5
5
5
5
5
5
5
5
5
5
5
5
5
5
5
5
5
5
5
5
5
5
5
5
5
5
5
5
5
5
5
5
5
5
5
5
5
5
5
5
5
5
5
5
5
5
5
5
5
5
5
5
5
5
5
5
5
5
5
5
5
5
5
5
5
5
5
5
5
5
5
5
5
5
5
5
5
5
5
5
5
5
5
5
5
5
5
5
5
5
5
5
5
5
5
5
5
5
5
5
5
5
5
5
5
5
5
5
5
5
5
5
5
5
5
5
5
5
5
5
5
5
5
5
5
5
5
5
5
5
5
5
5
5
5
5
5
5
5
5
5
5
5
5
5
5
5
5
5
5
5
5
5
5
5
5
5
5
5
5
5
5
5
5
5
5
5
5
5
5
5
5
5
5
5
5
5
5
5
5
5
5
5
5
5
5
5
5
5
5
5
5
5
5
5
5
5
5
5
5
5
5
5
5
5
5
5
5
5
5
5
5
5
5
5
5
5
5
5
5
5
5
5
5
5
5
5
5
5
5
5
5
5
5
5
5
5
5
5
5
5
5
5
5
5
5
5
5
5
5
5
5
5
5
5
5
5
5
5
5
5
5
5
5
5
5
5
5
5
5
5
5
5
5
5
5
5
5
5
5
5
5
5
5
5
5
5
5
5
5
5
5
5
5
5
5
5
5
5
5
5
5
5
5
5
5
5
5
5
5
5
5
5
5
5
5
5
5
5
5
5
5
5
5
5
5
5
5
5
5
5
5
5
5
5
5
5
5
5
5
5
5
5
5
5
5
5
5
5
5
5
5
5
5
5
5
5
5
5
5
5
5
5
5
5
5
5
5
5
5
5
5
5
5
5
5
5
5
5
5
5
5
5
5
5
5
5
5
5
5
5
5
5
5
5
5
5
5
5
5
5
5
5
5
5
5
5
5
5
5
5
5
5
5
5
5
5
5
5
5
5
5
5
5
5
5
5
5
5
5
5
5
5
5
5
5
5
5
5
5
5
5
5
5
5
5
5
5
5
5
5
5
5
5
5
5
5
5
5
5
5
5
5
5
5
5
5
5
5
5
5
5
5
5
5
5
5
5
5
5
5
5
5
5
5
5
5
5
5
5
5
5
5
5
5
5
5
5
5
5
5
5
5
5
5
5
5
5
5
5
5
5
5
5
5
5
5
5
5
5
5
5
5
5
5
5
5
5
5
5
5
5
5
5
5
5
5
5
5
5
5
5
5
5
5
5
5
5
5
5
5
5
5
5
5
5
5
5
5
5
5
5
5
5
5
5
5
5
5
5
5
5
5
5
5
5
5
5
5
5
5
5
5
5
5
5
5
5
5
5
5
5
5
5
5
5
5
5
5
5
5
5
5
5
5
5
5
5
5
5
5
5
5
5
5
5
5
5
5
5
5
5
5
5
5
5
5
5
5
5
5
5
5
5
5
5
5
5
5
5
5
5
5
5
5
5
5
5
5
5
5
5
5
5
5
5
5
5
5
5
5
5
5
5
5
5
5
5
5
5
5
5
5
5
5
5
5
5
5
5
5
5
5
5
5
5
5
5
5
5
5
5
5
5
5
5
5
5
5
5
5
5
5
5
5
5
5
5
5
5
5
5
5
5
5
5
5
5
5
5
5
5
5
5
5
5
5
5
5
5
5
5
5
5
5
5
5
5
5
5
5
5
5
5
5
5
5
5
5
5
5
5
5
5
5
5
5
5
5
5
5
5
5
5
5
5
5
5
5
5
5
5
5
5
5
5
5
5
5
5
5
5
5
5
5
5
5
5
5
5
5
5
5
5
5
5
5
5
5
5
5
5
5
5
5
5
5
5
5
5
5
5
5
5
5
5
5
5
5
5
5
5
5
5
5
5
5
5
5
5
5
5
5
5
5
5
5
5
5
5
5
5
5
5
5
5
5
5
5
5
5
5
5
5
5
5
5
5
5
5
5
5
5
5
5
5
5
5
5
5
5
5
5
5
5
5
5
5
5
5
5
5
5
5
5
5
5
5
5
5
5
5
5
5
5
5
5
5
5
5
5
5
5
5
5
5
5
5
5
5
5
5
5
5
5
5
5
5
5
5
5
5
5
5
5
5
5
5
5
5
5
5
5
5
5
5
5
5
5
5
5
5
5
5
5
5
5
5
5
5
5
5
5
5
5
5
5
5
5
5
5
5
5
5
5
5
5
5
5
5
5
5
5
5
5
5
5
5
5
5
5
5
5
5
5
5
5
5
5
5
5
5
5
5
5
5
5
5
5
5
5
5
5
5
5
5
5
5
5
5
5
5
5
5
5
5
5
5
5
5
5
5
5
5
5
5
5
5
5
5
5
5
5
5
5
5
5
5
5
5
5
5
5
5
5
5
5
5
5
5
5
5
5
5
5
5
5
5
5
5
5
5
5
5
5
5
5
5
5
5
5
5
5
5
5
5
5
5
5
5
5
5
5
5
5
5
5
5
5
5
5
5
5
5
5
5
5
5
5
5
5
5
5
5
5
5
5
5
5
5
5
5
5
5
5
5
5
5
5
5
5
5
5
5
5
5
5
5
5
5
5
5
5
5
5
5
5
5
5
5
5
5
5
5
5
5
5
5
5
5
5
5
5
5
5
5
5
5
5
5
5
5
5
5
5
5
5
5
5
5
5
5
5
5
5
5
5
5
5
5
5
5
5
5
5
5
5
5
5
5
5
5
5
5
5
5
5
5
5
5
5
5
5
5
5
5
5
5
5
5
5
5
5
5
5
5
5
5
5
5
5
5
5
5
5
5
5
5
5
5
5
5
5
5
5
5
5
5
5
5
5
5
5
5
5
5
5
5
5
5
5
5
5
5
5
5
5
5
5
5
5
5
5
5
5
5
5
5
5
5
5
5
5
5
5
5
5
5
5
5
5
5
5
5
5
5
5
5
5
5
5
5
5
5
5
5
5
5
5
5
5
5
5
5
5
5
5
5
5
5
5
5
5
5
5
5
5
5
5
5
5
5
5
5
5
5
5
5
5
5
5
5
5
5
5
5
5
5
5
5
5
5
5
5
5
5
5
5
5
5
5
5
5
5
5
5
5
5
5
5
5
5
5
5
5
5
5
5
5
5
5
5
5
5
5
5
5
5
5
5
5
5
5
5
5
5
5
5
5
5
5
5
5
5
5
5
5
5
5
5
5
5
5
5
5
5
5
5
5
5
5
5
5
5
5
5
5
5
5
5
5
5
5
5
5
5
5
5
5
5
5
5
5
5
5
5
5
5
5
5
5
5
5
5
5
5
5
5
5
5
5
5
5
5
5
5
5
5
5
5
5
5
5
5
5
5
5
5
5
5
5
5
5
5
5
5
5
5
5
5
5
5
5
5
5
5
5
5
5
5
5
5
5
5
5
5
5
5
5
5
5
5
5
5
5
5
5
5
5
5
5
5
5
5
5
5
5
5
5
5
5
5
5
5
5
5
5
5
5
5
5
5
5
5
5
5
5
5
5
5
5
5
5
5
5
5
5
5
5
5
5
5
5
5
5
5
5
5
5
5
5
5
5
5
5
5
5
5
5
5
5
5
5
5
5
5
5
5
5
5
5
5
5
5
5
5
5
5
5
5
5
5
5
5
5
5
5
5
5
5
5
5
5
5
5
5
5
5
5
5
5
5
5
5
5
5
5
5
5
5
5
5
5
5
5
5
5
5
5
5
5
5
5
5
5
5
5
5
5
5
5
5
5
5
5
5
5
5
5
5
5
5
5
5
5
5
5
5
5
5
5
5
5
5
5
5
5
5
5
5
5
5
5
5
5
5
5
5
5
5
5
5
5
5
5
5
5
5
5
5
5
5
5
5
5
5
5
5
5
5
5
5
5
5
5
5
5
5
5
5
5
5
5
5
5
5
5
5
5
5
5
5
5
5
5
5
5
5
5
5
5
5
5
5
5
5
5
5
5
5
5
5
5
5
5
5
5
5
5
5
5
5
5
5
5
5
5
5
5
5
5
5
5
5
5
5
5
5
5
5
5
5
5
5
5
5
5
5
5
5
5
5
5
5
5
5
5
5
5
5
5
5
5
5
5
5
5
5
5
5
5
5
5
5
5
5
5
5
5
5
5
5
5
5
5
5
5
5
5
5
5
5
5
5
5
5
5
5
5
5
5
5
5
5
5
5
5
5
5
5
5
5
5
5
5
5
5
5
5
5
5
5
5
5
5
5
5
5
5
5
5
5
5
5
5
5
5
5
5
5
5
5
5
5
5
5
5
5
5
5
5
5
5
5
5
5
5
5
5
5
5
5
5
5
5
5
5
5
5
5
5
5
5
5
5
5
5
5
5
5
5
5
5
5
5
5
5
5
5
5
5
5
5
5
5
5
5
5
5
5
5
5
5
5
5
5
5
5
5
5
5
5
5
5
5
5
5
5
5
5
5
5
5
5
5
5
5
5
5
5
5
5
5
5
5
5
5
5
5
5
5
5
5
5
5
5
5
5
5
5
5
5
5
5
5
5
5
5
5
5
5
5
5
5
5
5
5
5
5
5
5
5
5
5
5
5
5
5
5
5
5
5
5
5
5
5
5
5
5
5
5
5
5
5
5
5
5
5
5
5
5
5
5
5
5
5
5
5
5
5
5
5
5
5
5
5
5
5
5
5
5
5
5
5
5
5
5
5
5
5
5
5
5
5
5
5
5
5
5
5
5
5
5
5
5
5
5
5
5
5
5
5
5
5
5
5
5
5
5
5
5
5
5
5
5
5
5
5
5
5
5
5
5
5
5
5
5
5
5
5
5
5
5
5
5
5
5
5
5
5
5
5
5
5
5
5
5
5
5
5
5
5
5
5
5
5
5
5
5
5
5
5
5
5
5
5
5
5
5
5
5
5
5
5
5
5
5
5
5
5
5
5
5
5
5
5
5
5
5
5
5
5
5
5
5
5
5
5
5
5
5
5
5
5
5
5
5
5
5
5
5
5
5
5
5
5
5
5
5
5
5
5
5
5
5
5
5
5
5
5
5
5
5
5
5
5
5
5
5
5
5
5
5
5
5
5
5
5
5
5
5
5
5
5
5
5
5
5
5
5
5
5
5
5
5
5
5
5
5
5
5
5
5
5
5
5
5
5
5
5
5
5
5
5
5
5
5
5
5
5
5
5
5
5
5
5
5
5
5
5
5
5
5
5
5
5
5
5
5
5
5
5
5
5
5
5
5
5
5
5
5
5
5
5
5
5
5
5
5
5
5
5
5
5
5
5
5
5
5
5
5
5
5
5
5
5
5
5
5
5
5
5
5
5
5
5
5
5
5
5
5
5
5
5
5
5
5
5
5
5
5
5
5
5
5
5
5
5
5
5
5
5
5
5
5
5
5
5
5
5
5
5
5
5
5
5
5
5
5
5
5
5
5
5
5
5
5
5
5
5
5
5
5
5
5
5
5
5
5
5
5
5
5
5
5
5
5
5
5
5
5
5
5
5
5
5
5
5
5
5
5
5
5
5
5
5
5
5
5
5
5
5
5
5
5
5
5
5
5
5
5
5
5
5
5
5
5
5
5
5
5
5
5
5
5
5
5
5
5
5
5
5
5
5
5
5
5
5
5
5
5
5
5
5
5
5
5
5
5
5
5
5
5
5
5
5
5
5
5
5
5
5
5
5
5
5
5
5
5
5
5
5
5
5
5
5
5
5
5
5
5
5
5
5
5
5
5
5
5
5
5
5
5
5
5
5
5
5
5
5
5
5
5
5
5
5
5
5
5
5
5
5
5
5
5
5
5
5
5
5
5
5
5
5
5
5
5
5
5
5
5
5
5
5
5
5
5
5
5
5
5
5
5
5
5
5
5
5
5
5
5
5
5
5
5
5
5
5
5
5
5
5
5
5
5
5
5
5
5
5
5
5
5
5
5
5
5
5
5
5
5
5
5
5
5
5
5
5
5
5
5
5
5
5
5
5
5
5
5
5
5
5
5
5
5
5
5
5
5
5
5
5
5
5
5
5
5
5
5
5
5
5
5
5
5
5
5
5
5
5
5
5
5
5
5
5
5
5
5
5
5
5
5
5
5
5
5
5
5
5
5
5
5
5
5
5
5
5
5
5
5
5
5
5
5
5
5
5
5
5
5
5
5
5
5
5
5
5
5
5
5
5
5
5
5
5
5
5
5
5
5
5
5
5
5
5
5
5
5
5
5
5
5
5
5
5
5
5
5
5
5
5
5
5
5
5
5
5
5
5
5
5
5
5
5
5
5
5
5
5
5
5
5
5
5
5
5
5
5
5
5
5
5
5
5
5
5
5
5
5
5
5
5
5
5
5
5
5
5
5
5
5
5
5
5
5
5
5
5
5
5
5
5
5
5
5
5
5
5
5
5
5
5
5
5
5
5
5
5
5
5
5
5
5
5
5
5
5
5
5
5
5
5
5
5
5
5
5
5
5
5
5
5
5
5
5
5
5
5
5
5
5
5
5
5
5
5
5
5
5
5
5
5
5
5
5
5
5
5
5
5
5
5
5
5
5
5
5
5
5
5
5
5
5
5
5
5
5
5
5
5
5
5
5
5
5
5
5
5
5
5
5
5
5
5
5
5
5
5
5
5
5
5
5
5
5
5
5
5
5
5
5
5
5
5
5
5
5
5
5
5
5
5
5
5
5
5
5
5
5
5
5
5
5
5
5
5
5
5
5
5
5
5
5
5
5
5
5
5
5
5
5
5
5
5
5
5
5
5
5
5
5
5
5
5
5
5
5
5
5
5
5
5
5
5
5
5
5
5
5
5
5
5
5
5
5
5
5
5
5
5
5
5
5
5
5
5
5
5
5
5
5
5
5
5
5
5
5
5
5
5
5
5
5
5
5
5
5
5
5
5
5
5
5
5
5
5
5
5
5
5
5
5
5
5
5
5
5
5
5
5
5
5
5
5
5
5
5
5
5
5
5
5
5
5
5
5
5
5
5
5
5
5
5
5
5
5
5
5
5
5
5
5
5
5
5
5
5
5
5
5
5
5
5
5
5
5
5
5
5
5
5
5
5
5
5
5
5
5
5
5
5
5
5
5
5
5
5
5
5
5
5
5
5
5
5
5
5
5
5
5
5
5
5
5
5
5
5
5
5
5
5
5
5
5
5
5
5
5
5
5
5
5
POINT_DATA 2538
VECTORS disp float
1.8640365364841125e-11 4.774091353680663e-11 0.0
3.9101186522247025e-11 -1.0692250375948531e-10 0.0
0.004399999984619199 4.0751233857978966e-11 0.0
0.004399999959833222 -1.1099765997934158e-10 0.0
0.0013982972494973706 0.0005834753920954817 0.0
0.0031702859419301347 0.0003753090472034518 0.0
0.0021660314564666354 0.000136412624302805 0.0
5.187352841098831e-12 4.8167404442758e-12 0.0
9.373517735009265e-12 1.1542721295736866e-11 0.0
8.629132674956043e-12 7.216783935485402e-12 0.0
8.507980167538687e-12 6.69917525462075e-12 0.0
8.018066733523626e-12 5.0269547199504315e-12 0.0
7.529531961525298e-12 3.642830383381946e-12 0.0
7.08235605366846e-12 2.161839784861904e-12 0.0
6.723981486655938e-12 5.950678688433037e-13 0.0
5.933240835254124e-12 -1.129795878189369e-12 0.0
6.226987430860951e-12 -2.653420249306516e-12 0.0
5.9518806321995315e-12 -4.399436299350361e-12 0.0
5.925870825212285e-12 -6.2590734791618295e-12 0.0
6.071309792214633e-12 -8.115618705135539e-12 0.0
5.993688736223907e-12 -9.883115353120797e-12 0.0
6.308020955750384e-12 -1.1995030899591395e-11 0.0
6.29737800658824e-12 -1.3795838562455164e-11 0.0
6.637856788750915e-12 -1.5894489338121465e-11 0.0
6.743484014308291e-12 -1.828822551950053e-11 0.0
7.026070973816267e-12 -2.0536492323892442e-11 0.0
7.330132133653765e-12 -2.3217274235496073e-11 0.0
7.72771556617307e-12 -2.6209162642881884e-11 0.0
8.465671926038439e-12 -2.979526243660446e-11 0.0
8.486911421547204e-12 -3.360788737323052e-11 0.0
1.1463621212870143e-11 -4.2163730827672476e-11 0.0
4.913825710463893e-12 -3.873521899777719e-11 0.0
5.434936722039694e-5 -7.342926120780427e-5 0.0
9.383645406023514e-5 -0.00012688341150187289 0.0
0.00013213357372621608 -0.00017353983774404913 0.0
0.00016882995224697572 -0.0002159915807308818 0.0
0.00020441991851237226 -0.0002554848180765706 0.0
0.000239639137079521 -0.0002929819860495666 0.0
0.00027506181824023506 -0.00032864600698569944 0.0
0.0003103499919996447 -0.0003627528323088813 0.0
0.0003458065714941307 -0.0003955990653290543 0.0
0.00038151192368772045 -0.0004271945015143901 0.0
0.0004174871590923236 -0.00045779865665877584 0.0
0.00045399093366282005 -0.0004874296076811701 0.0
0.000490745298065714 -0.0005160843921128071 0.0
0.0005279372031160571 -0.0005439728001572149 0.0
0.0005657802188464888 -0.0005710564192106552 0.0
0.0006038611348393422 -0.0005972954622970036 0.0
0.0006424418970519498 -0.0006228400838890452 0.0
0.0006815072577558487 -0.0006475752346141882 0.0
0.0007210293250609346 -0.0006716341699340113 0.0
0.0007610263287705917 -0.0006950144444385229 0.0
0.0008015466182011835 -0.0007177194820517803 0.0
0.0008424875936310561 -0.0007397297831363182 0.0
0.000884089508305779 -0.0007611548017445917 0.0
0.0009259665246206128 -0.0007818594340032679 0.0
0.0009685508894577827 -0.0008019604644672909 0.0
0.001011376094222758 -0.0008213481084967048 0.0
0.0010547469047655158 -0.0008401409439163691 0.0
0.0010985004282957496 -0.0008582090893550777 0.0
0.0011428738714394527 -0.00087570978220286 0.0
0.0011874595215775447 -0.0008925228425921206 0.0
0.0012326533612118744 -0.0009087399642474735 0.0
0.0012781960210177063 -0.0009242399680267073 0.0
0.001324191811848098 -0.0009391120456878684 0.0
0.0013704911600659596 -0.0009532942902721699 0.0
0.0014173537776567128 -0.0009668618295193532 0.0
0.0014643879960477397 -0.0009796921694486362 0.0
0.001511844867914396 -0.0009918654345313239 0.0
0.0015595876159982757 -0.0010032920483259255 0.0
0.0016076766020692815 -0.0010140029377088138 0.0
0.0016560323322994618 -0.001024070991747552 0.0
0.0017046237337158844 -0.0010333434800320828 0.0
0.001753523630049495 -0.0010419757343751938 0.0
0.0018026637471521033 -0.0010498294082699378 0.0
0.0018519409866337036 -0.0010570218727785664 0.0
0.0019014502883906465 -0.0010633759085645238 0.0
0.0019509529194103598 -0.001069048865609966 0.0
0.0020006587092983113 -0.0010739950508943878 0.0
0.002050382956120707 -0.0010781218789180174 0.0
0.0021001347690014546 -0.0010815754786235065 0.0
0.0021500305381964664 -0.0010842047148382071 0.0
0.0021994652545403166 -0.0010858962990157829 0.0
0.0022493618028611067 -0.0010869562575945952 0.0
0.002297915756573654 -0.0010870079358912049 0.0
0.0023471452386877823 -0.001086184873395272 0.0
0.0023941855082444084 -0.0010842214808214144 0.0
0.0024428788759379458 -0.0010815561743355154 0.0
0.0024899282929388192 -0.0010777703308108436 0.0
0.002536948667119999 -0.0010722823660890145 0.0
0.002584137191360503 -0.001065723131539811 0.0
0.002631661294344817 -0.001057471982539308 0.0
0.0026792750486561777 -0.0010482470554055042 0.0
0.002727204328981091 -0.0010377178679760331 0.0
0.0027753429817661377 -0.00102633619740618 0.0
0.002823554772898094 -0.0010138042033049205 0.0
0.0028719194554249145 -0.0010004141797394126 0.0
0.0029201966900465324 -0.0009864111371367414 0.0
0.0029681197016664935 -0.0009715780472641112 0.0
0.00301584362349302 -0.0009561553829830717 0.0
0.0030634043852220526 -0.0009399866167136781 0.0
0.0031107141845074147 -0.0009230723064293095 0.0
0.0031575339590857628 -0.0009055859275982731 0.0
0.00320428201444263 -0.0008873466473394424 0.0
0.0032504314040114743 -0.0008684453766596472 0.0
0.003296208014616555 -0.0008490022512710035 0.0
0.0033417760604903214 -0.0008287638047114974 0.0
0.0033867090010794906 -0.0008079834901099107 0.0
0.0034313609924645316 -0.0007865480334532822 0.0
0.0034755442998954137 -0.0007644543353320849 0.0
0.003519409440814701 -0.0007417080826030454 0.0
0.0035628520004410903 -0.0007182115508084749 0.0
0.003605920657971398 -0.0006940043769227527 0.0
0.0036483811113714243 -0.0006691824910477428 0.0
0.0036905489819828766 -0.0006436675587537108 0.0
0.0037323839501044852 -0.0006173772208479823 0.0
0.003773719788586564 -0.000590334776555121 0.0
0.003814746086719763 -0.0005625715727964553 0.0
0.0038555714002654396 -0.0005338883945946073 0.0
0.003895914203591041 -0.0005043188595128815 0.0
0.003935877609515172 -0.0004739145301337138 0.0
0.003975794970311588 -0.0004424973920358313 0.0
0.004015629963464387 -0.00040991015253068143 0.0
0.004055155151245432 -0.0003760803536679651 0.0
0.004094473437275704 -0.0003409522493555277 0.0
0.004133927449868507 -0.0003042529882653159 0.0
0.004173992607541185 -0.0002655749544511435 0.0
0.0042141317440716666 -0.00022466041396708067 0.0
0.004254822480763339 -0.0001805818970139342 0.0
0.004297996365365321 -0.00013192605645187918 0.0
0.004342314184483598 -7.620362821256361e-5 0.0
0.004399999994508275 -3.672668756237271e-11 0.0
0.0043999999877439525 -4.064515011645195e-11 0.0
0.004399999991145163 -2.931230099866427e-11 0.0
0.0043999999911020805 -2.6163499735358712e-11 0.0
0.0043999999916495254 -2.2472397800895257e-11 0.0
0.004399999992062775 -1.9601019273794617e-11 0.0
0.004399999992221425 -1.7332095701253264e-11 0.0
0.0043999999925117455 -1.5283285589551695e-11 0.0
0.004399999992599262 -1.3365452138159735e-11 0.0
0.004399999992753625 -1.1493960646955002e-11 0.0
0.004399999993087258 -9.97785489028723e-12 0.0
0.004399999993026538 -7.991738436250274e-12 0.0
0.004399999993189439 -6.507301179577291e-12 0.0
0.004399999993276946 -4.783494929472865e-12 0.0
0.004399999993292457 -3.137799418359905e-12 0.0
0.004399999993237678 -1.4130578966162487e-12 0.0
0.004399999993237643 2.6715240892256543e-13 0.0
0.004399999992604079 2.1408422704309387e-12 0.0
0.004399999993006258 3.639316530368872e-12 0.0
0.004399999991995684 5.527383767271436e-12 0.0
0.00439999999197678 6.765640037419531e-12 0.0
0.004399999991597938 8.120832674026499e-12 0.0
0.004399999991914205 8.519893526637098e-12 0.0
0.004399999991680017 1.1936865503357077e-11 0.0
0.004399999995556595 5.593772016277321e-12 0.0
0.004076861450395098 0.00024368959899148966 0.0
0.0037930859018626443 0.00035465774512072107 0.0
0.0035335755845356336 0.00039721982597656983 0.0
0.0033126095558216185 0.000394208521574568 0.0
0.003162268232887529 0.00024159193281856267 0.0
0.0031391213732811533 0.00017087647233128645 0.0
0.003090786636540426 0.00013947673420089645 0.0
0.003033382332665198 0.00012745592279487893 0.0
0.0029661813867541617 0.00012756514916623593 0.0
0.002893092953686943 0.0001316475722072695 0.0
0.002815299175740859 0.00013696637986404888 0.0
0.002734154956486873 0.00014428012341906676 0.0
0.002648122653770248 0.00015029906937939042 0.0
0.002556497754082313 0.00015421989136447202 0.0
0.0024549718376898487 0.00015602829176201017 0.0
0.002332948193643493 0.00015693223757448432 0.0
0.0020054145586472037 0.0001775348635573282 0.0
0.001892526848707715 0.00018958016103756762 0.0
0.0017995605627581953 0.0001936732275804713 0.0
0.001718695548217231 0.0001961205705603048 0.0
0.0016455922438693845 0.00019852572400997162 0.0
0.0015796206369101224 0.00020187157923287245 0.0
0.001520590409211644 0.000207649626352093 0.0
0.0014704783233013166 0.00021786291005919725 0.0
0.0014314238022772657 0.00023822649964832805 0.0
0.0014048657198396243 0.00027399994880106964 0.0
0.0013945867108210886 0.00033438526459170605 0.0
0.0013940428313134782 0.0004323286742395737 0.0
0.0012338731954519549 0.0005940834375235321 0.0
0.0009942226623621717 0.0005561082707908059 0.0
0.0006909571960730266 0.00045848131574708056 0.0
0.000365140499680605 0.0003002480145062577 0.0
0.0011522099977281871 -0.0008385709574278245 0.0
0.0031472016191158455 -0.0008652591137294664 0.0
0.0014788606169560908 -0.000945804464726227 0.0
0.0028075009060261865 -0.0009775006255029462 0.0
0.0018263428565951712 -0.0010159477327246805 0.0
0.002463189129010708 -0.001033974299876427 0.0
0.002124148905036562 -0.0010429591539421789 0.0
0.003425129874143353 -0.0007528397405803325 0.0
0.0008991504316915501 -0.0007359579312084469 0.0
0.0036322492603933177 -0.0006421122878393692 0.0
0.0006941504526083356 -0.000626946704856851 0.0
7.186381900223062e-5 -1.3876830000156656e-5 0.0
0.004326785281067402 -1.342897980467918e-5 0.0
0.00236070366819054 0.00017515318234608723 0.0
0.002703284026776799 0.00016895655604015188 0.0
0.0019734956716205396 0.00018532993174801354 0.0
0.0016617447652078564 0.00021477526621876085 0.0
0.0038448103936639306 -0.0005128922825032964 0.0
0.0005089571203203746 -0.0005072042282696468 0.0
4.9221191524993234e-5 -2.5237756626507703e-5 0.0
0.004349202587122015 -2.3026062948527222e-5 0.0
0.004294936498423632 3.0378240543928985e-6 0.0
9.686678115117835e-5 3.6428612901349513e-6 0.0
0.004006418757353231 -0.00039123338561465945 0.0
0.0003568675902823023 -0.00038272740772562 0.0
0.002941189284241117 0.00015699371637161428 0.0
0.0014647054117055051 0.0002268047528668386 0.0
3.656438711374735e-5 -2.7590443575647715e-5 0.0
0.004359773925748506 -2.619104712209245e-5 0.0
0.0016795076950478136 -0.0009900871996286953 0.0
0.001973615106196115 -0.001033103454843619 0.0
0.002660287733532623 -0.001008746767381252 0.0
0.0022776211036969747 -0.0010431485564680095 0.0
0.002953843996952086 -0.0009346276295206287 0.0
0.003278392100597079 -0.0008185601813290108 0.0
0.001348426757326467 -0.0009086917718090535 0.0
0.0010259800240787192 -0.0007950304636867491 0.0
0.004120517772085022 -0.000293891539626956 0.0
0.0002481012107342463 -0.00028353321598280096 0.0
0.004266053127184269 2.743019591024519e-5 0.0
0.00012082225671038447 2.2925655435727074e-5 0.0
0.004366380807009025 -2.9222341354260843e-5 0.0
3.378400066927432e-5 -3.366875976967329e-5 0.0
0.0030824814783344968 0.00015886706452987795 0.0
0.001361716398016623 0.0002640254454097679 0.0
0.004212515673187703 5.1204671301204315e-5 0.0
0.00016756652237739727 4.534383203288546e-5 0.0
5.991703507562127e-5 -2.1022078506165222e-5 0.0
0.004337978272852939 -1.978364661868534e-5 0.0
0.0025304012234978386 0.00017767651886950748 0.0
0.0018142408013147424 0.00021120117441722375 0.0
0.00013713349289543923 -0.0001638901467617368 0.0
0.004250949581625138 -0.00016630835875458262 0.0
0.003046826863689817 -0.0009074614289662813 0.0
0.0023715002385737254 -0.0010427250594963234 0.0
0.0015851823953688012 -0.0009700781075983326 0.0
0.0012479851202318974 -0.0008790134215596959 0.0
0.0025645179864451596 -0.001022603668750831 0.0
0.0035062918254808355 -0.0007128724252616162 0.0
0.0008167088180114963 -0.000693370306621069 0.0
0.003720995629453663 -0.000592645670633087 0.0
0.0006116274603860516 -0.0005743822735434827 0.0
0.00042849015706463063 -0.00044370066799440827 0.0
0.0039261849067224585 -0.00045345347392582923 0.0
0.0008297014028449471 0.00031987757695564373 0.0
0.003654295818098417 0.00026145047489778135 0.0
0.004367365086168546 -3.374278733887023e-5 0.0
2.9449529138477824e-5 -3.4179961079968985e-5 0.0
0.001307289897499052 0.0003647881246238485 0.0
0.0031947470363430674 0.00021482823210379947 0.0
0.0001898566577824544 7.30036843657123e-5 0.0
0.0042076678742517725 6.989507283324121e-5 0.0
5.978088270869784e-5 -7.354890100584599e-5 0.0
0.004333379157986041 -7.64716027696287e-5 0.0
0.0034170044075924224 0.00029370494067790546 0.0
0.0034980844079939557 0.00023236987325037057 0.0
0.0037695402670655984 0.0001841414646679696 0.0
0.0036159857882105254 0.0001918187588795938 0.0
0.003407507768673525 0.00021118744064371113 0.0
0.003484416071689889 0.0001986143141739635 0.0
0.0036835267943880223 0.00017118476322802988 0.0
0.0035594558916005412 0.00018307701035645362 0.0
0.00374717757115103 0.00015146236208263842 0.0
0.003632481001614105 0.00016208183431081155 0.0
0.0034564149765277316 0.00018843170779180515 0.0
0.0035233369233520066 0.0001664457452468719 0.0
0.003371533726260645 0.0001871262748289685 0.0
0.0034255585978839446 0.00016363793466978193 0.0
0.0032870205596461474 0.00018101710164117714 0.0
0.003335706361882059 0.00015344568309893014 0.0
0.0023036415849083305 0.00011731137523945274 0.0
0.0021622286137725757 9.410649141078787e-5 0.0
0.002273052315866949 8.321871856861142e-5 0.0
0.0021586124166605362 6.645265101598844e-5 0.0
0.0022551918354353348 5.707355985973531e-5 0.0
0.002156848771092985 4.419916907110108e-5 0.0
0.00224368714720652 3.486912424699555e-5 0.0
0.0021549011208400483 2.369057713511784e-5 0.0
0.002235322560990514 1.4761884998713381e-5 0.0
0.0021531963615390964 4.665121145813708e-6 0.0
0.0022289812263397327 -3.7932804962580547e-6 0.0
0.002151884442518863 -1.3160296648216916e-5 0.0
0.002224093902832614 -2.176567469209354e-5 0.0
0.002152802432513039 -3.0473816831492542e-5 0.0
0.0022202791304896602 -3.901894521642383e-5 0.0
0.002151860778789061 -4.743486480353425e-5 0.0
0.0022168186966707976 -5.5834973997168564e-5 0.0
0.002148786619941653 -6.405835952527762e-5 0.0
0.002213419385593708 -7.241618656830789e-5 0.0
0.0021473558949346746 -8.041983275333991e-5 0.0
0.0022105886833421497 -8.888657040613356e-5 0.0
0.0021462128286467773 -9.674582250113425e-5 0.0
0.0022059926993403902 -0.00010522652448910712 0.0
0.002144712424787468 -0.00011314561162088433 0.0
0.002203279470664158 -0.00012169708301192029 0.0
0.00214438119821697 -0.00012926212237286715 0.0
0.002200961934033189 -0.00013827149294456633 0.0
0.002140132661030773 -0.00014485687072482545 0.0
0.0021980448500351106 -0.00015495533162499444 0.0
0.002124607131593132 -0.0001617545214299085 0.0
0.0021990938265775343 -0.0001721995802559473 0.0
0.0021372349653076767 -0.00018012629322137566 0.0
0.0021964904266020633 -0.0001895240183748357 0.0
0.002138054706916523 -0.00019793167314317934 0.0
0.0021948765409076794 -0.00020737035786519138 0.0
0.0021405056992078817 -0.0002159417742662876 0.0
0.002193035340063595 -0.00022553071377266051 0.0
0.002140163997562717 -0.00023461578557280492 0.0
0.0020775415022403136 1.539789313934176e-5 0.0
0.0021911715923666644 -0.0002442234807662575 0.0
0.0020824344728868262 -7.103911978222583e-5 0.0
0.0020696886609319243 -0.00017520653367601973 0.0
0.0021355120853358447 -0.00025351391768416317 0.0
0.0021889070292105957 -0.0002634292622817205 0.0
0.0021309632486338874 -0.0002736318178634872 0.0
0.0020783928357826593 -0.0002618536550525461 0.0
0.002072487056988589 -0.0002829776808273975 0.0
0.0021845014357237103 -0.0002843489627098283 0.0
0.0022431268759373862 -0.0002734015324681735 0.0
0.0022526608114215576 -0.00018044401806615847 0.0
0.0022390352710219643 -0.0002949413162445478 0.0
0.0023011597577394303 -0.0002819168468665971 0.0
0.0022950241952192844 -0.00030545558285993864 0.0
0.002020447592989238 -0.0002706290716492519 0.0
0.0020166587607975115 -0.00029138697428589033 0.0
0.002358984217894045 -0.00029126078331719274 0.0
0.0019612958981617607 -0.00027834601201874874 0.0
0.001960917300868044 -0.00030017136703118453 0.0
0.0023538754256510305 -0.0003150997597826926 0.0
0.002415745696240116 -0.00030199092520988134 0.0
0.0019017473590105121 -0.0002862280422695546 0.0
0.00189998488672247 -0.0003087549281731992 0.0
0.002411949805306483 -0.0003257115625273332 0.0
0.002475451047629249 -0.00031180179540287226 0.0
0.001842446463799418 -0.000294131254588354 0.0
0.0018401507592163404 -0.0003180606638286165 0.0
0.0024714904543469813 -0.00033678572421526294 0.0
0.0025365690537339247 -0.0003214810952207944 0.0
0.0017835691215747611 -0.00030082181634439106 0.0
0.0017773319554338838 -0.00032554579779212284 0.0
0.002533402905777664 -0.0003471429200635522 0.0
0.002598713266055317 -0.00033095589500256736 0.0
0.001718835615286133 -0.0003075563605300164 0.0
0.0017141286623246102 -0.0003337680256374339 0.0
0.0016523034599252703 -0.000315923468511358 0.0
0.0016566290648600517 -0.0002881632334216394 0.0
0.0024622291299778885 -0.0003614652158510352 0.0
0.002595244961071877 -0.0003576631480824884 0.0
0.0026617364077173673 -0.000340284838930915 0.0
0.0026662885528593487 -0.0003129086470601146 0.0
0.002266234653142628 -9.781812388645016e-5 0.0
0.00273171741935394 -0.0003217485670984053 0.0
0.00273682774645052 -0.00029337966480967766 0.0
0.002804202202268282 -0.0003013278475573061 0.0
0.0016527406830281475 -0.00034431507277780845 0.0
0.0015881655321126216 -0.0003234455124193327 0.0
0.0017133681508761638 -0.0003619857621271117 0.0
0.002656365281164607 -0.0003684299684593727 0.0
0.0015893343563582894 -0.00035265551530352403 0.0
0.0015240436397624222 -0.0003301829349871106 0.0
0.002292558093737064 -2.90455350147996e-5 0.0
0.0015249153851851552 -0.00035886258680124496 0.0
0.001459779287142799 -0.00033602303358210836 0.0
0.0014607924785175858 -0.0003654788866371577 0.0
0.001396552750587282 -0.00034049233275029045 0.0
0.0013941130965017575 -0.00031177611998063815 0.0
0.0013272022992312771 -0.00031707228849854065 0.0
0.0013257004850495506 -0.0002867395662547261 0.0
0.0013898813594178583 -0.00036973392817917953 0.0
0.0012539481075354948 -0.000292418753626153 0.0
0.0012518829864609149 -0.000261361345868537 0.0
0.0014622456895347327 -0.0003967066372593456 0.0
0.0014018957742971468 -0.00040337801673182597 0.0
0.0011818742738661525 -0.00026461779517560427 0.0
0.00117744415777882 -0.0002344142786134876 0.0
0.0028112378608325162 -0.00027264763088940104 0.0
0.002881163743256 -0.00028022913704484455 0.0
0.001463458082213808 -0.0004283886194146496 0.0
0.0014037816319978883 -0.0004349087815530172 0.0
0.0028890099550797476 -0.0002507050910662228 0.0
0.002962154584124637 -0.00025855559321347497 0.0
0.002951342822704537 -0.0002909324797493038 0.0
0.003032690119053025 -0.00026750189045669006 0.0
0.003023274976172451 -0.0003006968884696183 0.0
0.0031045517586707886 -0.0002747121876936723 0.0
0.00309929644590973 -0.0003077094673524634 0.0
0.003183097316249249 -0.0002783489568355581 0.0
0.003170872038700917 -0.00031205736639591195 0.0
0.003188367338656476 -0.00024674342454543023 0.0
0.003255875641281272 -0.0002832473936512091 0.0
0.0032393305327324423 -0.00031682805661992816 0.0
0.0014652627344849218 -0.0004607056307350635 0.0
0.0011037960898511647 -0.00023694341616778536 0.0
0.0010979879430400978 -0.00020635399958572744 0.0
0.0031614204497380314 -0.0003466856858643372 0.0
0.0032273873509218003 -0.0003509740216651608 0.0
0.003303998518173596 -0.00032067134188960627 0.0
0.003155050429301246 -0.00038216442322233765 0.0
0.0014069139481685082 -0.00046745775850806626 0.0
0.0032923862252762968 -0.0003543670510181906 0.0
0.003367185492341911 -0.00032324926494768316 0.0
0.0014668275380417962 -0.0004939741738379645 0.0
0.0014095126593668163 -0.0005009748197528234 0.0
0.0013505546419703561 -0.0004733764496165728 0.0
0.0033550910459686986 -0.00035653357434459084 0.0
0.003428820246700188 -0.00032422621995769463 0.0
0.0014681274382623288 -0.0005282902370081157 0.0
0.0015248719576257655 -0.0005208096110797979 0.0
0.0013537421591093529 -0.0005071872177972202 0.0
0.001295328695518758 -0.00047866311938878433 0.0
0.0034145607455826335 -0.0003576616611776386 0.0
0.0034898763431503 -0.0003240510871643574 0.0
0.0035033174665229753 -0.0002916241090362266 0.0
0.0033405340332654174 -0.00039142822618033854 0.0
0.003564388907256135 -0.0002902715415753294 0.0
0.003579938661179064 -0.00025863491890729763 0.0
0.0010200172298462774 -0.0002087667606527265 0.0
0.0010183858190449188 -0.00017728556670234942 0.0
0.0011118449431329878 -0.00017659406034358212 0.0
0.0010138539941879421 -0.00014652847767608756 0.0
0.001103447612725913 -0.0001413245581204355 0.0
0.0010083854005335673 -0.00011452934268779451 0.0
0.0010954238004100658 -0.00010771770407659669 0.0
0.0015260024785001872 -0.000555463270869564 0.0
0.0015813988377300673 -0.0005473252434954598 0.0
0.0012988137725445663 -0.0005127573871522047 0.0
0.0012409510154915674 -0.0004832245237121449 0.0
0.0035500487047068117 -0.000322725057788704 0.0
0.0010122603852226247 -8.273011659541411e-5 0.0
0.0010945203488685854 -7.44939765393056e-5 0.0
0.0015825490061283504 -0.0005820146033446931 0.0
0.0016366747859050596 -0.0005736900692965489 0.0
0.0019085021364535254 -0.00033059346438983487 0.0
0.003623722685302414 -0.00028785578414003665 0.0
0.0023322860847621086 5.07698813234423e-5 0.0
0.0024264115637204486 0.00015532434994923222 0.0
0.002083455787609906 -0.00012035578623372507 0.0
0.002966821596601672 -0.00022832810647477832 0.0
0.0010041189524049507 -4.8970730877240735e-5 0.0
0.0011000683301741797 -3.99988566291386e-5 0.0
0.0012448905513978749 -0.0005175739562637779 0.0
0.0011878687098140375 -0.00048726016254849506 0.0
0.0016385897598985184 -0.0006085399233477773 0.0
0.0016923025995071368 -0.0005998461431298247 0.0
0.0036079348716348586 -0.00031992034594995083 0.0
0.0009374489174426715 -0.00017979563741818614 0.0
0.0009414954401589496 -0.00021150325246349947 0.0
0.0009087555122079773 -8.737442705809163e-5 0.0
0.003681078754674898 -0.0002841000247397694 0.0
0.001002896028512485 -1.6574477991721908e-5 0.0
0.001099448731092449 -4.602351634980071e-6 0.0
0.0015852005269409689 -0.0006177866678457563 0.0
0.0011925137937023544 -0.0005220679670595354 0.0
0.0011358105455526965 -0.0004904580703558717 0.0
0.0028940240338936026 -0.00022112120793492122 0.0
0.002975247708474987 -0.00019786674617231555 0.0
0.0028981747113604097 -0.000190795966575082 0.0
0.0029839714788341435 -0.00016729752304221466 0.0
0.0016934454229299355 -0.0006345696337860511 0.0
0.0017476826262718347 -0.0006245595010769956 0.0
0.001847217769488508 -0.00027274032411469385 0.0
0.001001418238986516 1.5162385693829483e-5 0.0
0.0010955857743375048 2.9831937742880152e-5 0.0
0.0036656994049741654 -0.00031509117600141324 0.0
0.0035997626958100414 -0.00034837867382104637 0.0
0.000979143081907404 4.8910090151825245e-5 0.0
0.0010883122530322858 6.53772904864547e-5 0.0
0.0037362509575459024 -0.0002793797622981611 0.0
0.0037442727107206528 -0.0002559233333522784 0.0
0.0009897686339534824 8.136549907130501e-5 0.0
0.0012475466917501558 -0.0005558574711345758 0.0
0.0017478973883319911 -0.0006602390796970874 0.0
0.0018017796456751215 -0.0006487549915103275 0.0
0.001802322497144088 -0.0006134113059876902 0.0
0.0018563789837159207 -0.0006367657614725678 0.0
0.0018574284433481658 -0.0006018729374928685 0.0
0.0019117734868842405 -0.0006242825223789151 0.0
0.0019131219000844877 -0.0005893897143688226 0.0
0.001968308905127393 -0.0006111604350350608 0.0
0.001970098606640247 -0.0005764845279749399 0.0
0.002025742752887184 -0.0005972703198270656 0.0
0.002023892165935944 -0.0006328418971519717 0.0
0.0020810727946748184 -0.0006180433532921728 0.0
0.0020789048912068925 -0.0006541685824753661 0.0
0.002135835424437805 -0.0006384309780064101 0.0
0.0021329986262810857 -0.0006751648356829404 0.0
0.0021903941733892878 -0.0006583859375658964 0.0
0.0020281373401775785 -0.0005629272150067578 0.0
0.002193208756947223 -0.0006218511137370792 0.0
0.0022484839366470905 -0.000640675806992818 0.0
0.0022448791567441896 -0.0006784239607460756 0.0
0.00230366315748355 -0.0006597817377239717 0.0
0.00085737603304255 -0.0001812199421923641 0.0
0.0008609346625833714 -0.0002126564946034021 0.0
0.0011407883367737773 -0.0005253731574804232 0.0
0.001085229468227528 -0.0004932014304260665 0.0
0.0023078560649114088 -0.0006224047102943881 0.0
0.002362971314406342 -0.0006401265553758592 0.0
0.002358009173125751 -0.0006782547988618229 0.0
0.0024183247710406397 -0.0006573891528889702 0.0
0.000779044947745955 -0.00018155002139765393 0.0
0.0007825927688914025 -0.00021219550716420794 0.0
0.0029028727671686033 -0.0001593165965338717 0.0
0.0029942367615689996 -0.0001359246906803497 0.0
0.0029104636532150297 -0.00012782030877050057 0.0
0.003722578205893581 -0.0003080912747813448 0.0
0.003790244982745383 -0.00027284548339570575 0.0
0.0018017202629586246 -0.0006855164361735885 0.0
0.001198585272507922 -7.164312870381652e-5 0.0
0.0022929830568112148 -0.0003272266612250756 0.0
0.002412515986909551 -0.0006961600308799763 0.0
0.0024729608158456273 -0.0006741844593669875 0.0
0.002477568444549113 -0.0006354582312671267 0.0
0.0025332612500350675 -0.0006507910476568117 0.0
0.0024226784068363113 -0.0002769209939306162 0.0
0.0030094961384782384 -0.00010364894417591912 0.0
0.0030872321543898846 -0.00011743367427992521 0.0
0.001089213546652349 0.00010105344644542544 0.0
0.0010899671043363758 -0.0005278157742839377 0.0
0.0010354966756393623 -0.0004949588805372631 0.0
0.002920512525375477 -9.516779166847956e-5 0.0
0.002527229695961098 -0.0006905227247664165 0.0
0.002588518921287984 -0.0006666613774165339 0.0
0.002594410771935718 -0.0006270058785259821 0.0
0.002650946762271833 -0.0006420657056651824 0.0
0.0026580675269696724 -0.0006034926046233646 0.0
0.002713717709554907 -0.0006165734070270761 0.0
0.0027053970011603214 -0.0006555038397077872 0.0
0.0027675804388409588 -0.0006285967099738577 0.0
0.0009856466349569587 0.00011163461884403744 0.0
0.0007031436806483691 -0.00018056240513765733 0.0
0.0007062320861939223 -0.0002098602657216032 0.0
0.0017494424984330495 -0.00069735389823885 0.0
0.0037741589600988564 -0.00030252029499628627 0.0
0.003841840211611779 -0.0002652486016290764 0.0
0.0027578431493903485 -0.0006676272493571739 0.0
0.00281925005465881 -0.0006395412203292171 0.0
0.0010906405680415766 0.00013491206744614323 0.0
0.0010408784404539512 -0.0005296623485076613 0.0
0.00098639580320104 -0.0004955101272961864 0.0
0.001191847933386946 4.452716289074385e-5 0.0
0.003472823362309389 0.00013631714993391495 0.0
0.0018016867506747002 -0.0007232386427903581 0.0
0.0009828009299526182 0.0001391872457203945 0.0
0.000914390740399672 1.015379591792035e-6 0.0
0.0038197438676365876 -0.000301871825382528 0.0
0.003891598070368245 -0.00025717662557700564 0.0
0.00390906337897303 -0.00022824667076470445 0.0
0.0008838626478661725 8.956555017822129e-5 0.0
0.003748318104243003 -0.00033738253600459905 0.0
0.0006950989425508827 -0.00015163471246186695 0.0
0.0010906356839591744 -0.000560917199850028 0.0
0.0030243131832449082 -7.038961741683248e-5 0.0
0.0029323330812604624 -6.140965472210168e-5 0.0
0.0027223285611820466 -0.000578691026057274 0.0
0.0009923498070097956 -0.0005310385880152959 0.0
0.000937993435353124 -0.0004958502944940076 0.0
0.00062954309973042 -0.00017804441109349988 0.0
0.0006320711702619034 -0.0002055206410609592 0.0
0.001183624938816226 -0.0004543958999256691 0.0
0.002808131432023277 -0.000678547234626665 0.0
0.0028689273756021365 -0.0006490089076084766 0.0
0.000931895111789015 -0.0004610471373942285 0.0
0.0008833105687908022 -0.00046036033238028176 0.0
0.002750641247291234 -0.0007048214914064999 0.0
0.001751318668687529 -0.0007354362767390619 0.0
0.0008903853855981106 -0.0004957176646679646 0.0
0.000835912158292531 -0.0004592153514986041 0.0
0.0018573745023010833 -0.0005685678379086241 0.0
0.003958983755175796 -0.0002184113691337328 0.0
0.003976531433215959 -0.0001923857586156953 0.0
0.003942208524587958 -0.00024603348895964864 0.0
0.002856243694042745 -0.0006874930307938364 0.0
0.0029168050544093353 -0.0006568920604166594 0.0
0.002664793247782059 -0.0005659023401503918 0.0
0.0027303716999407925 -0.0005418942794993666 0.0
0.0018021817407679777 -0.000761760080556142 0.0
0.002929894017794588 -0.0006189609842467442 0.0
0.002978111641663681 -0.0006264126149253824 0.0
0.0005571745264227476 -0.00017282981598472252 0.0
0.0005626231972941523 -0.00019946027726226373 0.0
0.0029643432552109335 -0.0006650793692282932 0.0
0.003024703591900245 -0.0006336634522159701 0.0
0.0008445701772862159 -0.0004951804417395767 0.0
0.0007900328884840484 -0.00045757750188615923 0.0
0.0030394794936186038 -3.608032143669984e-5 0.0
0.00294656156316037 -2.6558174030157447e-5 0.0
0.0007807935462703592 -0.00042324794229234823 0.0
0.0007347596517297595 -0.00042016551846115233 0.0
0.0007437010621351891 -0.0004550102580186599 0.0
0.0006887436281175135 -0.00041653200945708047 0.0
0.004007149407465095 -0.00020726451582479816 0.0
0.003989909167251527 -0.00023464158061318972 0.0
0.0010870382842719044 0.00016342216763747889 0.0
0.0009700864292293128 0.00016218551020740147 0.0
0.002826280266989672 -0.00011839025637518898 0.0
0.0017531065293057387 -0.0007742916082189553 0.0
0.0030106866829371333 -0.0006735005820127455 0.0
0.0030698301306577706 -0.0006407896971322187 0.0
0.0031993704588620274 0.00017023104137932227 0.0
0.0029918979323662674 -0.0005885738993436535 0.0
0.0020769329483863825 -0.0006913589157116042 0.0
0.0006782589105749795 -0.0003833712465765399 0.0
0.0006336356153210712 -0.00037805311779775543 0.0
0.0006443332796135002 -0.00041246571113362463 0.0
0.0005890996858550716 -0.00037252172761960477 0.0
0.0005784039423245014 -0.00034003573738112326 0.0
0.0005325468891164129 -0.0003332141901782797 0.0
0.000521508530169244 -0.0003014023722235054 0.0
0.00047504780120898293 -0.0002929726041021586 0.0
0.0004640676158207312 -0.0002631314822740126 0.0
0.0004202673995202772 -0.0002540005269313902 0.0
0.0004085618172363275 -0.00022645406560951124 0.0
0.0004303807403944507 -0.0002829063509953659 0.0
0.0003709802714800901 -0.0002377325683850993 0.0
0.0004899475987079741 -0.00016630061084811038 0.0
0.0004886664801979538 -0.0001425988807294847 0.0
0.0003863604487120827 -0.00027139512310541005 0.0
0.0003321109422348081 -0.0002297353767997223 0.0
0.0011949885125464375 0.0001564396296011846 0.0
0.0013116819242408185 -0.0002537394901908702 0.0
0.0026718609102349277 -0.0005296487142300635 0.0
0.0027374588213626948 -0.0005062852961511223 0.0
0.0007813750239907884 -0.0002411056006264793 0.0
0.0018025953647081041 -0.000801254430812012 0.0
0.0018520755330245816 -0.0007880553803626122 0.0
0.002796366008654242 -0.0005173081603958866 0.0
0.0028038984178300036 -0.00048191223500340663 0.0
0.004053425288076926 -0.00019473652265860714 0.0
0.004033349986121616 -0.00022312665062734183 0.0
0.003971391432337178 -0.00026581224973791794 0.0
0.0028390665374182435 -5.219554011568122e-5 0.0
0.002852321024067706 -1.7317127590233677e-5 0.0
0.0017026572901623178 -0.0007471155953096767 0.0
0.0017046962812979234 -0.0007860750251115056 0.0
0.001655016851727125 -0.0007584297706439238 0.0
0.0006020870466288734 -0.00040791111618176826 0.0
0.002962178466340498 9.38823938877025e-6 0.0
0.0028673184154736076 1.962412493629699e-5 0.0
0.0011827469623704471 -0.0002971099444653641 0.0
0.003054700763830798 -0.0006816021876548331 0.0
0.003113972392529853 -0.0006476984612567134 0.0
0.003129683409350412 -0.0006084161829718396 0.0
0.0031735103037748217 -0.0006140830399885453 0.0
0.0011106218006929852 0.00019026335935184483 0.0
0.000970947812699008 0.0001831059299707295 0.0
0.001633866262025056 -0.0005403326965636668 0.0
0.0029969266635819177 -0.0007151899389212238 0.0
0.00368831870232095 0.00013847970066204748 0.0
0.0031570975749464435 -0.0006555371104880039 0.0
0.003217015688891197 -0.0006205654168137171 0.0
0.003233353301581641 -0.0005801588581921233 0.0
0.0032773748824108653 -0.0005854839031038113 0.0
0.003294562138665092 -0.0005455676922626142 0.0
0.003337985786217634 -0.0005499160978550587 0.0
0.0033202508151861866 -0.0005914277642042897 0.0
0.0033801307029386043 -0.0005547517994360714 0.0
0.00034433521860738374 -0.00025713987130338153 0.0
0.0002915796870612711 -0.000214955215658883 0.0
0.0002728414668034904 -0.00018553523136385043 0.0
0.0018523214864709218 -0.0008280622764052213 0.0
0.0018997963981085093 -0.0008159131636565736 0.0
0.0016577043974539704 -0.0007975615003666722 0.0
0.001608223907063643 -0.0007690666543368422 0.0
0.004012181846930654 -0.00025605753299118566 0.0
0.004073130033297755 -0.0002118203589221705 0.0
0.0031542716649097095 0.00019478233851504787 0.0
0.003070537475953442 0.00018379851002218398 0.0
0.0008440007554379834 0.00015409863378234272 0.0
0.0008420792966814403 0.0001721400914710074 0.0
0.0003993063251396169 -0.00030333873116507613 0.0
0.0015247258767756484 -0.00042120322983246614 0.0
0.0028042339998313975 -0.00018580248672940268 0.0
0.003951984668043953 -0.0003008560215880868 0.0
0.001186360098086522 -0.0001297231867204581 0.0
0.0027456898424212868 -4.3495051679374955e-5 0.0
0.0033607219647735003 -0.0005980960883599385 0.0
0.0034203742043173594 -0.0005601768479960849 0.0
0.003362873054627101 0.0001223767321197449 0.0
0.0035173432481041575 0.00010620158659244554 0.0
0.0010928019938725609 0.00020864274446181705 0.0
0.0006339679803551178 -0.00023279422123662766 0.0
0.00041410616142978715 -0.00013396218891874117 0.0
0.0004142537416916868 -0.00011253148185709724 0.0
0.000655018994312993 -0.00044869304235025005 0.0
0.003203548421466281 -0.0006638762283718019 0.0
0.0025878739251972652 -0.0003850217968166639 0.0
0.0023538383759597963 -0.000717600888152337 0.0
0.001472328295692855 -0.0005620273911102797 0.0
0.00030388322029104817 -0.00024171487776351083 0.0
0.00025304687895169023 -0.00019882916254425836 0.0
0.0008989191677658172 -0.0005328867855585874 0.0
0.0028636102122715865 -0.0004918020955487867 0.0
0.0028716379584524713 -0.00045681956609095977 0.0
0.0017049438371975962 -0.0008265805982693766 0.0
0.0034300582163311923 8.81995232201197e-5 0.0
0.0035623268774240867 7.636155746908653e-5 0.0
0.0034806541244372814 5.560931821090759e-5 0.0
0.0036089658227823275 4.629976590746481e-5 0.0
0.0036879234247976875 6.498908276132438e-5 0.0
0.003733693325407081 3.7860378552149297e-5 0.0
0.00365370631610378 1.658642995994383e-5 0.0
0.003774466193537248 1.1427051477634007e-5 0.0
0.0036953070427330056 -1.1575187959100426e-5 0.0
0.0038137902935779064 -1.3111865159516882e-5 0.0
0.0037368291460103827 -3.808219087971074e-5 0.0
0.003850425779575102 -3.54997345004115e-5 0.0
0.003775775282178514 -6.256327038507647e-5 0.0
0.0038855522512142005 -5.581374717858308e-5 0.0
0.0036575126084114106 -6.78434275624158e-5 0.0
0.003813015735323101 -8.409030582798085e-5 0.0
0.003916266347228081 -7.440604341972789e-5 0.0
0.003814309298601816 5.301195677875766e-5 0.0
0.0008751823517275432 -0.0004260931559912963 0.0
0.0008542491539029887 -0.0005328040654015665 0.0
0.0009065885069630644 -0.000570938709616368 0.0
0.003848682764437713 -0.00010321244677145585 0.0
0.003946722667920657 -9.031239822228806e-5 0.0
0.0037506925984538003 -0.00011392489485894742 0.0
0.0024065621236307785 -0.0007359658379931193 0.0
0.002348507272385743 -0.0007575572951291901 0.0
0.002400153730390332 -0.0007763898309974483 0.0
0.0023437114698353985 -0.0007983663437167888 0.0
0.0023937693210578127 -0.0008176125234780338 0.0
0.0023395355748369938 -0.0008399800035165395 0.0
0.0022894920289265193 -0.0008199532805777927 0.0
0.0022863469428406305 -0.0008615693581105218 0.0
0.0022376620581733126 -0.0008405944519436563 0.0
0.0020384837789444903 8.542567778534085e-5 0.0
0.0023878318940883437 -0.0008598848886979977 0.0
0.002441396423879534 -0.0008362778673724894 0.0
0.002009587787587475 -0.0003140705993853836 0.0
0.001971719376241917 -0.0005429729300705909 0.0
0.0020304856247116984 -0.0005297567796932981 0.0
0.00197332690122914 -0.0005105752157109351 0.0
0.002032765148907865 -0.0004977604331053774 0.0
0.001974984469742535 -0.0004793406724729281 0.0
0.0020350249616637745 -0.0004669893076296973 0.0
0.0020930347109967278 -0.0004844774136574775 0.0
0.0020957904622363227 -0.0004541985447695726 0.0
0.0021540293318671605 -0.00047078975166340035 0.0
0.0021570930394542854 -0.0004409788190848286 0.0
0.0022129894888216297 -0.0004565872496276434 0.0
0.0020986635693752754 -0.00042424489201936083 0.0
0.0019767098016042098 -0.0004492339625114992 0.0
0.0019164804045425706 -0.00046075818103710807 0.0
0.0022094028507437143 -0.00048763286896730674 0.0
0.00227140617319046 -0.0004706689903101851 0.0
0.0008637231010507135 -0.000571402093985 0.0
0.002081972660811697 -0.00020662125325053256 0.0
0.0020815184513587937 -2.2760385732480552e-5 0.0
0.0023679854416091663 -0.0006034711463308106 0.0
0.004070873434398046 -0.00017063340736416633 0.0
0.004114809628901263 -0.00015757937625828714 0.0
0.0022810140524778862 -6.32559679850485e-5 0.0
0.0022611139049184196 -0.0001278193641555457 0.0
0.00324924976044773 -0.0005415713036634762 0.0
0.002792681287865483 -0.00033072709496873015 0.0
0.004052963565047877 -0.00024372324718228053 0.0
0.004110653988195666 -0.000199719848064852 0.0
0.002251110446658409 -0.00021699999333710666 0.0
0.001611340513922541 -0.0008085963194390937 0.0
0.001562114553570885 -0.000779361368633723 0.0
0.0023107578087310844 7.258949016797192e-6 0.0
0.002234549122557535 -0.0008823594289804862 0.0
0.0021857973267739137 -0.0008588109206478196 0.0
0.0015590842152794148 -0.0007402874807749606 0.0
0.0015125262676898088 -0.0007498825541691078 0.0
0.0015092978326826777 -0.0007111987289883645 0.0
0.0014625351270709094 -0.0007199846783574536 0.0
0.0014666355292566055 -0.0007591737085837008 0.0
0.0014168597364705882 -0.0007284348013857413 0.0
0.0014213655467481944 -0.0007680812630130969 0.0
0.0013716585482011912 -0.0007365699202866151 0.0
0.0006153870207076637 -0.0004451277456641435 0.0
0.004132237819081079 -0.00013619834727131302 0.0
0.002977436565224729 4.648382908799319e-5 0.0
0.002880080933218839 5.6000446459253674e-5 0.0
0.0013503087998213356 -0.0004102124272711991 0.0
0.0010858998511248641 -0.00045971600545659675 0.0
0.0039817831611755625 -5.106685187463295e-5 0.0
0.003928555507000696 -1.529172731935647e-5 0.0
0.0018990945783413137 -0.0008556194115501935 0.0
0.0019477645474657243 -0.0008421996645081361 0.0
0.0030391818371026465 -0.0007243919887518246 0.0
0.0005714485719694406 -0.0003086988567649394 0.0
0.0025408837001504223 -0.0002970636162622509 0.0
0.002773119400288228 2.856509429652928e-5 0.0
0.0027846542188444813 6.481231422365936e-5 0.0
0.0033122494360977397 -0.0005075003521688388 0.0
0.003378136313774198 -0.00029048289251910984 0.0
0.0034404507321865074 -0.000518471150450122 0.0
0.0034813782857377926 -0.0005217868193636482 0.0
0.003458897796695874 -0.0005665483890191254 0.0
0.0035206884195765576 -0.0005263378831096323 0.0
0.0019713493165137365 -0.0002578110589683315 0.0
0.0006654333533184681 -0.000486055180405823 0.0
0.002212746837716061 -0.00042640402264814624 0.0
0.0035739531809646234 -1.1578707491251849e-5 0.0
0.001910141078590618 -0.0007770950076814839 0.0
0.000913535219131484 -0.0006096193109231923 0.0
0.0009566097131543361 -0.0006089164147007688 0.0
0.0029830769718954477 -0.0007584288915427971 0.0
0.0014584156906689303 -0.0006819923776750151 0.0
0.0026781492368308925 -0.0004947186856715471 0.0
0.002612861097547998 -0.0005167194497703622 0.0
0.004090379691793475 -0.0002318041559427063 0.0
0.004147659622241968 -0.0001857123314331313 0.0
0.0041658013581706765 -0.00015931036970224187 0.0
0.0012259708071832688 0.00021639368672255404 0.0
0.0002654964227483388 -0.00022432047470919027 0.0
0.00021575746809055917 -0.00017987554610722546 0.0
0.00020861753230787242 -0.0001609105510951602 0.0
0.0030284157918073324 0.00020544567004594815 0.0
0.003105883077025721 0.00021019137334185202 0.0
0.0029471767597177797 0.00019455780354511588 0.0
0.003133168246779894 -4.578165784867584e-5 0.0
0.003883469663633446 -0.00011817466565110532 0.0
0.003979444976256385 -0.00010243903294533855 0.0
0.0015657684159822158 -0.0008194081314769563 0.0
0.0030693401848407493 -0.00017416932499404432 0.0
0.0007127199186860017 0.00014121275565850378 0.0
0.0007033544986678574 0.00015519480668210996 0.0
0.0008410538520307264 0.00018743574871123142 0.0
0.0006896033802710619 0.00016621999620192957 0.0
0.0008833425476002078 0.00021031273882612397 0.0
0.002183877142977294 -0.0008164027419064927 0.0
0.0013660942555844798 -0.0006975752728670267 0.0
0.0013220793859031583 -0.00070497904945605 0.0
0.0013274016825615415 -0.0007444607168224982 0.0
0.001278360076262463 -0.0007122061959933571 0.0
0.003541436843439488 -0.000483696206725849 0.0
0.003580589120874129 -0.0004871625229007386 0.0
0.003559771073140212 -0.000531490726054984 0.0
0.003618212399132037 -0.0004911896364752696 0.0
0.0028103443092087027 -0.000447240422032871 0.0
0.0028789983134193883 -0.000422984813282579 0.0
0.00243478634820262 -0.0008787818969386007 0.0
0.002487154525032861 -0.0008539751051522259 0.0
0.0019178816660109061 -0.0004309844029579917 0.0
0.0018573349633553655 -0.00044178989153249225 0.0
0.0018461383411415091 -0.0008701416045466307 0.0
0.001283756351284331 -0.0007514732425774669 0.0
0.0012356669501931339 -0.0007189543826020185 0.0
0.0039106426210468925 -0.00030948309540525546 0.0
0.003890598329999752 -0.0003470736037165499 0.0
0.003850806855377911 -0.0003537538298584564 0.0
0.0038360268179447768 -0.0003895081123328907 0.0
0.0019465617938253642 -0.0008851081694746085 0.0
0.00031189886003067175 -0.00026783620683198885 0.0
0.00045617793600180427 -0.0002362167222267592 0.0
0.00039413164229731195 -0.0001992721430217571 0.0
0.0003369707157378093 -0.00010302377842258414 0.0
0.00033311567611026216 -8.389006692497673e-5 0.0
0.00041528144540134405 -9.119100632528654e-5 0.0
0.00033109624136427163 -6.53914917618707e-5 0.0
0.00041646864713873255 -6.96073169799672e-5 0.0
0.00032950428036229994 -4.719379421617516e-5 0.0
0.0004191622127737003 -4.801683590335045e-5 0.0
0.003930697858791466 -0.0003392918826122996 0.0
0.001270964256762478 -0.0006739319893479277 0.0
0.0032653721661605544 -0.000505255872856084 0.0
0.0029403397814850222 -0.0007468876415035813 0.0
0.002927722796380901 -0.0007922063472348658 0.0
0.0028857792612791613 -0.0007801129473188903 0.0
0.002183942631078092 -0.0009016851874111542 0.0
0.00305357213351075 3.2427043781358936e-5 0.0
0.0035975201325993272 -0.0005370409744692588 0.0
0.00420261906716821 -0.000143069385741672 0.0
0.0041834211101441365 -0.00017003522301902335 0.0
0.0012063604614413078 0.00022828111747802535 0.0
0.002967616873243724 8.011981631102676e-5 0.0
0.0023117802954537464 -0.0005865166061933617 0.0
0.0023714766370842477 -0.0005681319602523683 0.0
0.002284969707114534 -0.0009046572856406656 0.0
0.0021356766577787932 -0.0008770456659159161 0.0
0.0009521315985914232 -0.00024775263631284026 0.0
0.004038653259335183 -7.699409883509666e-5 0.0
0.00406901501800536 -8.573943282478044e-5 0.0
0.004008951403609746 -0.00011228828709009632 0.0
0.004094866985465912 -9.351427397202836e-5 0.0
0.0033987012727636633 -0.0003918089675478823 0.0
0.0025759242176745757 -0.0007080461791345354 0.0
0.0026184317534620103 -0.00048268156655570415 0.0
0.0019126968191568335 -0.0006606913380912934 0.0
0.002739208083574026 -0.00026518512006916655 0.0
0.002931759869654132 -0.00046577035770690946 0.0
0.002942483683527274 -0.0005822963715137595 0.0
0.00300538819104952 -0.0005522058379807823 0.0
0.002974321798428126 0.000216088824873073 0.0
0.0030686331257791717 0.00021498182567189863 0.0
0.0009626719445192415 -0.0006479037462178614 0.0
0.0010038970560862707 -0.0006459679839741912 0.0
0.0003285913129257078 -2.912737296337533e-5 0.0
0.0004186898362105165 -2.6577557737180506e-5 0.0
0.0005117389335378686 -4.625824482800538e-5 0.0
0.0005144778561180119 -2.1075737573820624e-5 0.0
0.0004205799236169234 -5.770364963158086e-6 0.0
0.0005207603440122506 3.490317027411034e-6 0.0
0.0004243129737447608 1.4212754643585718e-5 0.0
0.0005300251796321791 2.764012661792258e-5 0.0
0.0004280250618589987 3.3368728591285316e-5 0.0
0.00022880505482976234 -0.00020501519614902434 0.0
0.002553340876264451 -0.0005033227348273015 0.0
0.0001806920720542409 -0.00015987173336355466 0.0
0.0008726068367846491 -0.0006106774086192077 0.0
0.004176736198845852 -0.00012134957633426954 0.0
0.002087020510788849 -0.0005488089454852314 0.0
0.0026799937457873675 3.6932075000711436e-5 0.0
0.002695988776520308 7.582025652469671e-5 0.0
0.0005380049307070431 5.125753758835395e-5 0.0
0.0006277670586898635 -0.00048339415671527623 0.0
0.0005785628151214795 -0.00044155178505876424 0.0
0.0013330649073833303 -0.0007915726370060353 0.0
0.0030189164730239143 -0.0007713629008229154 0.0
0.0016140960219436762 -0.0008493456836143615 0.0
0.0036551588392743717 -0.0004952261847612679 0.0
0.004220612452488067 -0.00012056563810556238 0.0
0.0018562619428663498 -0.00047211158708550363 0.0
0.0017974239125821572 -0.00045212265208919607 0.0
0.0017964950852258751 -0.0004830940707378294 0.0
0.001324492712758904 0.00023189245784689287 0.0
0.0017410612615445802 -0.000462192490493614 0.0
0.0003475039139714136 -0.0001245180205214748 0.0
0.0024793820200204163 -0.000897088712330846 0.0
0.00253156987634945 -0.0008708220702044533 0.0
0.0025401678562284205 -0.0008284725165350988 0.0
0.0025838858106535445 -0.000843985315722107 0.0
0.003055767131133813 -0.0005580063871024363 0.0
0.00307011781959715 -0.0005213092886180786 0.0
0.0041923761092029 -0.00010384780081176828 0.0
0.004146220301381653 -0.00011788699355714158 0.0
0.002817404753315902 0.00010669800690616371 0.0
0.0027154108739084627 0.00011823448546225356 0.0
0.0008238320266715512 -0.0005719768929042866 0.0
0.001241299047006341 -0.0007584484336528558 0.0
0.0011941353698966155 -0.000725493080577696 0.0
0.002177518316101469 -0.0003071264351677728 0.0
0.003540401546774003 -0.0005785925551450885 0.0
0.00043297195542309425 5.1765305619571395e-5 0.0
0.0011872906087323836 -0.000685893573091509 0.0
0.0025740513464265675 -0.0008871213746248967 0.0
0.0026256713863419905 -0.0008589227233881983 0.0
0.002557617987617909 -0.0004709294751890275 0.0
0.0024936290736459798 -0.0004895332358462301 0.0
0.0024974922650733405 -0.0004581561723847195 0.0
0.002301104146075527 -0.00026215796675204377 0.0
0.0003407007099150803 -0.0001868732735918102 0.0
0.00019378274361184458 -0.00018403563954794133 0.0
0.0025939208361576782 -0.0008022910295449083 0.0
0.0026518475656116085 -0.00039688003768507377 0.0
0.002134752190984716 -0.0009203351400205891 0.0
0.0008597101322787321 -0.0001505300037375125 0.0
0.0015254313725901272 -0.0003038090317920988 0.0
0.0006758295281940725 -0.0005262814619255414 0.0
0.0036761562133779207 -0.0004515864238378924 0.0
0.0009277823301266684 -0.00042757323914979686 0.0
0.0008676709196398539 -0.00039251060506585007 0.0
0.0009248695484554896 -0.00039446317433279403 0.0
0.0008624099732174781 -0.000359825407301468 0.0
0.0009211859769261731 -0.0003617772699584514 0.0
0.0008047319035478532 -0.00035714620707834457 0.0
0.0028736821500838536 -0.0008257932724012031 0.0
0.0028354665254291824 -0.0008124651987045285 0.0
0.0005685239663142561 0.00012074220837585148 0.0
0.0021838380576060267 -0.0009448085160553688 0.0
0.0021298609210106036 -0.000712974640452582 0.0
0.002074633956545877 -0.0007293858751449586 0.0
0.0010106406175028851 -0.0006856877770963531 0.0
0.0002684291882857908 -9.199120882637845e-5 0.0
0.00028406644693641775 -0.00011506054161655244 0.0
0.003922624973480142 -0.0002027739193329503 0.0
0.003992357086054947 -0.00016856524842600253 0.0
0.0006086196442990035 -4.129439222933513e-5 0.0
0.0010512258037510694 -0.0006822192493913142 0.0
0.0010471782113822736 -0.0006456551423793789 0.0
0.001057897767248477 -0.0007225237930409774 0.0
0.0009709007398154117 -0.0006884116100170376 0.0
0.0007022815971152776 0.00018545260298712633 0.0
0.0016522131926385928 -0.0007203514853707082 0.0
0.002548109231200615 -0.0005379488404999831 0.0
0.0039339539031799705 -0.00017891134295481618 0.0
0.0024281499626946364 -0.0009227400744648523 0.0
0.001568517464033416 -0.0008607929730580523 0.0
0.004235955339038237 -0.00012697235535892113 0.0
0.004216239134288807 -0.00015454041173334538 0.0
0.0013516659345449167 0.00022047362788706336 0.0
0.0012010820607779359 -0.0007661435021217593 0.0
0.002815926166463191 -0.00041244955109152984 0.0
0.002890448349543599 -0.0003888237451625757 0.0
0.0004488003945180021 -0.00021017374218095333 0.0
0.0005913441370772641 -0.0004797799121772904 0.0
0.0005437380035169446 -0.00043790861467469323 0.0
0.0005299917572993519 -0.00040110548826439123 0.0
0.0008332547501202008 -0.0006116018160849535 0.0
0.00014717028181793839 -0.0001381143637709394 0.0
0.00013692933705725362 -0.0001199719466893351 0.0
0.002614760837494119 -0.0009032663703338101 0.0
0.002665644796228976 -0.0008738061519399476 0.0
0.002675628362070314 -0.0008285410337724234 0.0
0.0036016321597777583 -0.0004459101603908602 0.0
0.0035608008713333846 -0.00044423585414321093 0.0
0.003576504728025976 -0.0005860785376799304 0.0
0.000798636495277175 -0.00032535814656560344 0.0
0.0007423374810283634 -0.0003230577849126126 0.0
0.0029518097922744922 -0.0003978602454599635 0.0
0.004150527016684349 -6.914241895824126e-5 0.0
0.00417320843325583 -7.459301479891186e-5 0.0
0.004200563989912922 -9.075241080897035e-5 0.0
0.00415370885422369 -0.00021230029583834832 0.0
0.00024135059126126587 -0.0002325645876044755 0.0
0.0027320976449124604 -7.388099304504447e-5 0.0
0.002645852306016803 -6.690105502428537e-5 0.0
0.0026325933381312035 -9.36432938397282e-5 0.0
0.0025505808375814905 -8.784522087606858e-5 0.0
0.0025426683664148434 -0.00011339251021836936 0.0
0.002556261084152506 -6.287255751339826e-5 0.0
0.0023153744358568023 -0.000551893657167556 0.0
0.0018583188666521332 -0.000412612253330622 0.0
0.001919491124186641 -0.00040225912649495055 0.0
0.0005565259184767357 -0.00047577129463534303 0.0
0.0005095955650279521 -0.00043260274535194426 0.0
0.0037641246501370347 7.732440534567825e-5 0.0
0.003893268182639802 6.258486451208045e-5 0.0
0.00394376045758704 3.933984402685506e-5 0.0
0.004020638652399287 4.626437482622186e-5 0.0
0.003988566711276575 6.561336186871202e-5 0.0
0.002088788354622144 -0.0008960333592450159 0.0
0.0020889077188311848 -0.0008551450387412711 0.0
0.0020869546769603955 -0.0009384833945520407 0.0
0.0025865321111502946 4.3661324546527044e-5 0.0
0.002573424290022453 1.0878485635975327e-5 0.0
0.0006092719356530054 -6.938023948066343e-5 0.0
0.00031966380589955014 3.2241475665693864e-5 0.0
0.002821260039591815 -0.0008591356381383435 0.0
0.0007154026104784317 0.00012483534683345172 0.0
0.0028544774469580606 -0.0005275366865719891 0.0
0.002635102481064177 -0.0001194364726683149 0.0
0.00253530720815936 -0.0001383186957534397 0.0
0.002611188440670091 -0.00014692171678125474 0.0
0.002527629904452354 -0.00016279690784687953 0.0
0.0025993371767450593 -0.00017186171448688585 0.0
0.002520498289911908 -0.00018740189449227782 0.0
0.0025900601330565032 -0.00019678965508362306 0.0
0.002513957057789907 -0.00021235019951877852 0.0
0.0025845860828388805 -0.0002219980892750031 0.0
0.002451423376744105 -0.000153569274311692 0.0
0.0024440849074008676 -0.0002023920739767746 0.0
0.002914242405619129 -0.0008393690841506137 0.0
0.004246522412913716 -8.309856460823087e-5 0.0
0.0015066303598539413 -0.0006737559698058536 0.0
0.0014537057945385894 -0.000645893943359055 0.0
0.0040314231934411495 -0.00028064027458417557 0.0
0.0017446632594542797 -0.00043609275903860656 0.0
0.0024646382814683954 -0.00010553094758214188 0.0
0.0008734711126305081 0.0002310862034541325 0.0
0.000253023219236256 -5.859013198490199e-5 0.0
0.0014502916571273177 0.00023360528798150264 0.0
0.0014668577902024293 0.00022075464111857986 0.0
0.003293071926308123 9.394930104934968e-5 0.0
0.004068012889476259 -0.0002696343212154377 0.0
0.004011547033524838 -0.0003202875581549013 0.0
0.0017384667253222167 -0.0004934090367169212 0.0
0.0016885082096152542 -0.0004675621431001418 0.0
0.0007149153258902974 -0.0004962765207910362 0.0
0.0001603408458077906 -0.00016101985047794185 0.0
0.00020115316027834434 -7.753044783830196e-5 0.0
0.00020752032561933254 -9.281010494495556e-5 0.0
0.00011487784458618707 -0.00011436662636558091 0.0
0.0030171887178145657 -0.0005162109644743267 0.0
0.0030833292664581525 -0.0004861562605624288 0.0
0.003137205810141044 -0.0004905155627788958 0.0
0.0031497286209729793 -0.0004551759497467929 0.0
0.0024395243862947976 -0.00022607055234130785 0.0
0.0010411098464661941 0.0002462799269579328 0.0
0.001325215532829071 0.00023940513936974734 0.0
0.0024340552506260183 -0.00047541449971698666 0.0
0.002438534013655883 -0.0004442966626489265 0.0
0.0018606806391101565 -0.0003855541778354238 0.0
0.0015887230397214935 -0.0003827466841603403 0.0
0.0016169050394265934 -0.0008912822409589162 0.0
0.003303249213425023 -0.0006355371456025997 0.0
0.003341778323332224 -0.0006442671215087893 0.0
0.0032868188130783134 -0.0006822242674103603 0.0
0.0033241896087729803 -0.0006931293201703548 0.0
0.0032709831496091574 -0.0007312543793511959 0.0
0.0032333611180589954 -0.0007200798308865623 0.0
0.003137843291025704 -0.000706781937870976 0.0
0.0028422206448675616 -0.0007676279591983698 0.0
0.0029870460047063956 0.00016656054391577213 0.0
0.0022964032557837733 -0.0007383847104408027 0.0
0.0006294278550392347 1.6384225742434326e-5 0.0
0.004193104203405117 -0.00018948578277296614 0.0
0.004245970389938684 -0.00013866942627135774 0.0
0.0033784654646212375 -0.0006540491837172783 0.0
0.0033614928529925227 -0.0007034823137106976 0.0
0.003413768676198945 -0.000664528645791663 0.0
0.001660980765098983 -0.0008794440398160074 0.0
0.0020223479652374476 -0.0007070168896638585 0.0
0.002021792327817747 -0.000744457570440452 0.0
0.0020725736208552486 -0.000768164336686015 0.0
0.001362671345162146 -0.0005475746736663633 0.0
0.0019697344102248006 -0.0007211900977055168 0.0
0.0025491424353306234 -0.0007880558868571005 0.0
0.00362369090524441 -0.00040676562861157784 0.0
0.00371222520540418 -0.0004538338004464958 0.0
0.0036905438468012386 -0.0004997408029986585 0.0
0.0037413475390090664 -0.0004069642071227934 0.0
0.000510794074670123 -9.602296044345533e-5 0.0
0.0014709810308978792 -0.0007994800179038084 0.0
0.0014268015032719698 -0.0008090389608328037 0.0
0.0014749286970293387 -0.000840669086355248 0.0
0.0014327218386205598 -0.000850782809999093 0.0
0.003203407398283011 -0.000458171697970612 0.0
0.0008822038297525604 -0.000651310769677624 0.0
0.0007873811664274539 -0.0005730664661213901 0.0
0.004117188936256297 -0.00010157346380662813 0.0
0.00024324918152784624 -2.8868941543436484e-5 0.0
0.00024270263634116088 -1.5260837148509083e-5 0.0
0.0027810502678586794 -0.0008392977423660609 0.0
0.002774390817169398 -0.00089017891118544 0.0
0.0022547715510699887 -0.0005692761793726489 0.0
0.0040703736771338945 2.6242429259520182e-5 0.0
0.0007960712260647905 -0.000612243160083454 0.0
0.003316281441217485 0.0002070336551207452 0.0
0.0038658594332367942 -0.0003181708259335849 0.0
0.0038834171212802876 0.00013075496338233947 0.0
0.0039256036169429765 0.00011395762394092016 0.0
0.0030958949011745287 -0.0004517718735207261 0.0
0.0033304500077531492 -0.0004717329520347546 0.0
0.003377705287430568 -0.0004731288579958163 0.0
0.0029605639051472924 0.00020955128968536436 0.0
0.0030485526214321062 0.00020643158985602064 0.0
0.0031601479255812305 0.00021210165541335954 0.0
0.002563231042314099 -0.0009324107837067993 0.0
0.0012447996657243463 -0.0007985091871218976 0.0
0.0019147890832719398 -0.0005232808170479696 0.0
0.0027475513675079225 -0.00043776775442820365 0.0
0.002425765620321593 -0.000583054695607715 0.0
0.0024711347715758703 -0.0009420359243295496 0.0
0.0010966948559208494 -0.000717866828860069 0.0
0.0014062214782982437 -0.0006524930558479657 0.0
0.0005695920437233811 -0.00022763319393509935 0.0
0.004125466153847838 3.058885328338009e-5 0.0
0.003203363262476554 -0.0005390551520157562 0.0
0.00038445524322872906 -0.00017551066162192636 0.0
0.0010333454084816185 0.000273680858937151 0.0
0.002457483760998947 -0.0007539406899368271 0.0
0.003217823576188542 -0.0007697148769802505 0.0
0.003178245528177532 -0.0007580282818248087 0.0
0.0028302023837080102 -0.0006012643600191086 0.0
0.00295930213806741 -0.0003651253572722914 0.0
0.0012925167578694758 -0.00044675673543191066 0.0
0.0020204736617490658 -0.0007895144707769672 0.0
0.0027180107646206076 -0.0003786346184336843 0.0
0.0014010531809089005 -0.0006167823894632327 0.0
0.0013528554627934574 -0.0006223550032728566 0.0
0.0011032545246894994 -0.0007588514668261902 0.0
0.0007048687007040105 -6.533236912334931e-5 0.0
0.000708647335798868 -3.5510901681515576e-5 0.0
0.0003249155253539852 4.614618087522723e-5 0.0
0.00044504591267269093 7.02030360625035e-5 0.0
0.003521548798927688 -0.0006275664974838852 0.0
0.000510632991785667 -0.0002461928727674505 0.0
0.000749009756921467 -0.0003548622423040455 0.0
0.0006867944603108336 -0.0003195093102934301 0.0
0.0036996425250073552 -0.00040968852798557725 0.0
0.0018572458461109317 -0.0007109196912763326 0.0
0.002374537900937733 -0.0005325592902551134 0.0
0.002856824652540434 0.0001724560445210272 0.0
0.0028329084019571376 0.0002009499284542785 0.0
0.0027478376935038593 0.00018377640828386258 0.0
0.0027233098806642795 0.00020490725067862732 0.0
0.002800550332715219 0.00021213936562490546 0.0
0.0031544668896143287 -8.314706047125344e-6 0.0
0.003244182225727153 -2.1829079036674097e-5 0.0
0.0032720373030453854 1.4706921355591948e-5 0.0
0.0033543779151660007 -2.0802800553114043e-7 0.0
0.0033279841169405345 -3.665957397822255e-5 0.0
0.00019293022789996212 -6.277659411250906e-5 0.0
0.0032180605245722698 -0.00042440948118182057 0.0
0.00051462963598846 0.00013409878132960147 0.0
0.0005371292608445776 0.00015529351906464766 0.0
0.002654197286045039 -0.0009195698078659132 0.0
0.00015694256821885877 -1.3928053172725977e-5 0.0
0.0035135340100594346 -0.0002601971892997877 0.0
0.003593567149236419 -0.00022792892263683983 0.0
0.003532888752575973 -0.00022461658742583382 0.0
0.0036613940572374475 -0.00022568373542121092 0.0
0.003675618917758214 -0.00019580993317223935 0.0
0.003744734225942855 -0.0001938475916867539 0.0
0.0009850174457565668 -0.00039507282985022126 0.0
0.0009839938646600684 -0.00036314596866711066 0.0
0.0009168703765862373 -0.00032953935140603074 0.0
0.0009818250412774437 -0.0003317392117060022 0.0
0.001049450320105956 -0.0003640971908254501 0.0
0.0010480625099736549 -0.000332618766381014 0.0
0.0011149463674879733 -0.0003636709343372257 0.0
0.001208083207516322 -0.0008054453894910776 0.0
0.00111397545435323 -0.000331480247137986 0.0
0.0011807599238118464 -0.00036238238414402845 0.0
0.00032495613698545195 3.403012666409632e-6 0.0
0.0007029878346181361 -9.519054214554607e-5 0.0
0.0011789620373634957 -0.00039344334503920044 0.0
0.0009199718691017776 -0.00030128092720920884 0.0
0.0035804322399654595 -0.00040716741265591074 0.0
0.0035191199645608915 -0.00044360873251497404 0.0
0.00204263100419127 -0.0009150950018727928 0.0
0.002040440813822733 -0.0009563316661515564 0.0
0.002643618541435912 0.00018730655084519906 0.0
0.001380381502781042 0.00020081196986393088 0.0
0.0014883382069581675 0.00019714180420654962 0.0
0.001570307833391694 0.00021684497422934238 0.0
0.001591474729514148 0.00018737476036430066 0.0
0.0015100752951567068 0.00016420810822156699 0.0
0.0016119056260046607 0.0001458816013700978 0.0
0.001531613929480756 0.00012540111386848696 0.0
0.0016343905967037933 0.00010118947848830603 0.0
0.001552355341393809 8.613373548270565e-5 0.0
0.0016717393726479858 5.82952051961352e-5 0.0
0.0015707893235943143 4.909549132791749e-5 0.0
0.0016716929560789795 2.2827690673961444e-5 0.0
0.0015837331186706947 1.5355646075067243e-5 0.0
0.0016818001899337152 -9.412661109854092e-6 0.0
0.001600855491177272 -1.7269130129517784e-5 0.0
0.0016941748032788934 -4.00645288413031e-5 0.0
0.0016133378121660988 -4.696587260543108e-5 0.0
0.0017011135330921936 -6.784756916803734e-5 0.0
0.0016237467373995823 -7.448388137295014e-5 0.0
0.001708082689112071 -9.390983990129275e-5 0.0
0.0016322704327043254 -0.0001009260130210958 0.0
0.001713482689913009 -0.00011952768766728299 0.0
0.001637617534884249 -0.0001266101439207687 0.0
0.0017177013233815313 -0.0001439639298371925 0.0
0.001642517103220663 -0.00015261062866277892 0.0
0.0015621275842048307 -0.00013325907715683197 0.0
0.001567679483897201 -0.00016041960804093818 0.0
0.0017274833970311214 -0.00017111163587868935 0.0
0.0015388944379422234 -5.3603784823774716e-5 0.0
0.0017913865840307182 -0.0001347123532540176 0.0
0.0017911487817237376 -8.80206664413702e-5 0.0
0.0014552891882672692 0.0001072832767215267 0.0
0.0017750390739549424 -3.223765459799439e-5 0.0
0.001485974655089935 -0.00013993713879289807 0.0
0.0014930519277780252 -0.00016763163114654378 0.0
0.0015731916950872337 -0.00018801690587262943 0.0
0.0014998077828508876 -0.00019562419879991016 0.0
0.0015041785050160673 6.869715708639526e-6 0.0
0.001769362471597804 2.5074051837794522e-5 0.0
0.001480029532163289 -0.00011217694714668068 0.0
0.0017190861025051965 0.00011868174541973388 0.0
0.0015787584859191749 -0.0002156424970202972 0.0
0.0015058111242391419 -0.0002237812672541645 0.0
0.0014270533112057694 -0.00020281366895379423 0.0
0.0014013976330136818 -0.00011894613648253969 0.0
0.0013917706419834105 -8.892408472938906e-5 0.0
0.0016521322244567036 -0.00020687701306621158 0.0
0.0016551798735867365 -0.00023401669128250143 0.0
0.0017266195383379916 -0.00022504945868763495 0.0
0.001675952972465588 0.0002057143198902268 0.0
0.001661346240347321 0.00022454785871837602 0.0
0.0014357515348951834 -0.0002319302940091649 0.0
0.0013554013920140655 -0.00021003825497119104 0.0
0.0013484278584360986 -0.00018161616341757448 0.0
0.0012726421789094541 -0.0001874307893763869 0.0
0.0024216927173894977 -0.0009677155995111856 0.0
0.0023789705398481057 -0.0009473322133482532 0.0
0.004046846761060557 -0.00030987111144358274 0.0
0.002603322330715724 -0.0007618956750635459 0.0
0.0026484534709791193 -0.0007757336624421404 0.0
0.0014958225462015436 -0.0006365453827869114 0.0
0.0015492325164267215 -0.0006633025418676944 0.0
0.0036009084120106265 0.00011765786611899444 0.0
0.0026228235659371698 -0.00044955911851276285 0.0
0.0015132995355829134 -0.0002515796850081124 0.0
0.0011409080601224586 -0.0006904592516725693 0.0
0.0011385529412346503 -0.0006528227401829433 0.0
0.00118090314497828 -0.0006481845470512922 0.0
0.0028958976598195485 -0.00035651200225937174 0.0
0.002674174050093976 -0.00015778882314767124 0.0
0.0017970537182562115 -0.0005150569333640822 0.0
0.001740258838957977 -0.0005260644420633161 0.0
0.002479363811420994 1.707611084344114e-5 0.0
0.00247245115872647 -1.0488039449742792e-5 0.0
0.0025524912046988877 -1.67348247870652e-5 0.0
0.0024582491944438326 -3.908798276761129e-5 0.0
0.0024919248917378203 4.6510913294287704e-5 0.0
0.002658928169385931 -0.0002068051867070104 0.0
0.0026547064204815356 -0.00023193263484199453 0.0
0.002573183580049985 -0.00024717799363053837 0.0
0.0019219031201717935 -0.00037526643197079086 0.0
0.0019812837569179328 -0.0003915360117352462 0.0
0.001984402087210324 -0.0003656263812207014 0.0
0.0020427915811529183 -0.00038038850750365754 0.0
0.0020458471304049255 -0.00035504328821903575 0.0
0.0021040766410516535 -0.00036902711180314553 0.0
0.0021074574929475275 -0.0003443405853475796 0.0
0.002168049199907999 -0.0003573456114830198 0.0
0.0021631296119395053 -0.00038329019120679497 0.0
0.0022283040302409057 -0.0003673108005437724 0.0
0.0025047834769075686 -0.00042890891780023683 0.0
0.002442765237405537 -0.00041517457752572807 0.0
0.002379047527329965 -0.00043066501530443225 0.0
0.002382427625533541 -0.00040234564588547626 0.0
0.0004414451948873331 -0.00018548680555733162 0.0
0.0005238566954480271 -0.0004710235510263883 0.0
0.00047783494768490424 -0.00042658520433073934 0.0
0.000464169703471054 -0.00038852086208455934 0.0
0.0004311048385767389 -0.0003806197300674706 0.0
0.002257855880005344 -0.0005354891595143989 0.0
0.003021967007208943 -0.0003716336897842262 0.0
0.0030085820564420083 -0.0004063459056354302 0.0
0.0010810449902379942 0.00022128920658627066 0.0
0.002373386109023913 -0.0002162760823416344 0.0
0.002375303065917714 -0.00019531070274767253 0.0
0.0024657064465995675 0.00018278188928714034 0.0
0.0041885030797953315 -0.00013267182914673177 0.0
0.004239821609473907 -9.984457427717513e-5 0.0
0.004275453817576821 -8.331366103599053e-5 0.0
0.00014255144093088882 -6.148668646789677e-5 0.0
0.0001455404484111907 -7.238587150787634e-5 0.0
0.00020794565425532598 -0.00010596770771875903 0.0
0.00015296858908473346 -8.571025559842103e-5 0.0
0.0002113909125079898 -0.00012105158973333983 0.0
0.00015803280566641426 -9.873635753179799e-5 0.0
9.60907714784923e-5 -5.9680496636740994e-5 0.0
0.0021975976470352326 -0.0005518855417666239 0.0
0.0010498962883625684 -0.00030234720468457757 0.0
0.0006055170259865334 -0.000519085545995353 0.0
0.0017268919637062796 -0.0002500157807212744 0.0
0.004001009456104664 -0.00035474934707682465 0.0
0.003963348646940628 -0.0003712645915917056 0.0
0.003395382967613915 -0.0004372620908566817 0.0
0.003457294451076193 -0.0004316346650843128 0.0
0.003468034562068229 -0.0003955801384403751 0.0
0.00020894496610767376 2.550248556200168e-5 0.0
0.0015739120282786537 -0.0009029799162474025 0.0
0.0010660997877406527 -0.0007645105362865327 0.0
0.0001285730371767576 -0.00013651525232580254 0.0
0.0001772774612185409 -0.00019223012077064605 0.0
0.0008529571399391938 -0.00029886982149276845 0.0
0.002702241982786192 0.00020641313783382513 0.0
0.0027900577553113394 0.00020675071744999396 0.0
0.0032768602986279196 -0.00047147339802056424 0.0
0.0034214627346867412 -0.0004754471432671683 0.0
0.0014801526560264363 -0.0008814171318990194 0.0
0.001662090367931377 -0.0009198405329332197 0.0
0.001706506165704718 -0.0009089275764855523 0.0
0.003745987367425585 -0.00045752875421956713 0.0
0.0037241862161002054 -0.0005046291190544589 0.0
0.003667855727257614 -0.0005550071256020886 0.0
0.004006303664083092 -0.00014658139097122394 0.0
0.003947145867505913 -0.00015577552160469025 0.0
0.0038731240100489954 -0.00018674952865306932 0.0
0.0038807011752107928 -0.0001635225870578609 0.0
0.0007255790259599681 -0.00029384224169980394 0.0
0.0037562340499286122 -0.00016614661661696435 0.0
0.003675781127438084 -0.00016740768763816462 0.0
0.002660120935606787 -0.0007375740624112015 0.0
0.00044214711388343366 -0.0004145608649321144 0.0
0.00040121381192155504 -0.0003755532136629321 0.0
0.0003866588579784248 -0.0003403682553772385 0.0
0.0003576427962377632 -0.0003328246564298305 0.0
0.004286804833809352 -7.041627601111697e-5 0.0
0.004195443818691662 -7.739205134946898e-5 0.0
0.004247150508750228 -5.4029461829363665e-5 0.0
0.0035550869853528517 -0.0006342779014372709 0.0
0.0017983101924802895 -0.0003939598969980636 0.0
0.0037770722013631313 -0.00046244828494361326 0.0
0.00375797182955907 -0.0005074156540673221 0.0
0.0038070890085056845 -0.0004665242972165157 0.0
0.0037925823401959253 -0.0005127663106821377 0.0
0.0038425291641810176 -0.0004643352810807536 0.0
0.003857644728459748 -0.0004236344840992911 0.0
0.0038878727725263984 -0.0004247078165758837 0.0
0.002089092595529749 -0.0009795065664456755 0.0
0.0020452976065663776 -0.0010010666652706388 0.0
0.0019884646761716704 -0.0009732343838720346 0.0
0.0014450270729630989 -0.00026170823633548534 0.0
0.00011102867032758984 -7.64065639252926e-5 0.0
0.00016249385199097583 -0.00011240856377763497 0.0
0.00011624694890912647 -8.747751670169817e-5 0.0
0.0014442141703544875 -0.0008990643093506066 0.0
0.0013948049472373991 -0.0008622094094030893 0.0
0.004146348634186025 -0.00023845382493329885 0.0
0.00033762348593551763 6.111636070798814e-5 0.0
0.0023209749687558654 -0.0004203039578809609 0.0
0.00232664763920936 -0.000391037334336215 0.0
0.003987971871442272 1.817213552419761e-5 0.0
0.004111281443404053 9.325836622980883e-6 0.0
0.0037591648990254875 -0.0003710588836900182 0.0
0.0007541380304882648 -0.0005726916987652943 0.0
0.0007680352759360298 -0.0006160233302467909 0.0
0.0031962692461191622 -0.000492133879899361 0.0
0.003215746705994027 0.00019782554209078925 0.0
0.004223358247189926 -0.00017198386890986852 0.0
0.004274737480727613 -0.00012050873955091942 0.0
0.004293921785266995 -9.450694311817788e-5 0.0
0.0031296642208409583 0.0002034093650384158 0.0
0.0036445737208933007 -0.00037158364306288114 0.0
0.001997510507565841 -0.0008600002242798763 0.0
0.003729087827361938 -0.0002230423740706383 0.0
0.003527153398585469 -0.0004137545558947891 0.0
0.0013515369856925315 -0.0005848328907557855 0.0
0.000775540740367798 -0.0005341549420676599 0.0
0.004070591740807158 -0.00013180083788714482 0.0
0.0033923074355893313 0.00020166466175264847 0.0
0.0013947369761251214 -0.000901573604442141 0.0
0.0006434653619590696 -0.0002648772785699427 0.0
0.0023599556702165094 -0.00024167487053023467 0.0
0.0034855052095646532 -0.0006257310039820237 0.0
0.0034730968137791094 -0.000670170990217333 0.0
8.60381281720837e-5 -9.127653962696266e-5 0.0
0.002701640675990904 -0.0008946145181449771 0.0
0.0026839377760037443 -0.000935085368079157 0.0
0.001704834636131378 -0.0009557786939431429 0.0
0.001751756673623307 -0.0009393243304852886 0.0
0.0017503435857867137 -0.000896820031647948 0.0
0.0017963887065818513 -0.0009252342457656314 0.0
0.0017520472422838695 -0.0009750089777751116 0.0
0.001474224913378608 -8.438495011376782e-5 0.0
0.001385217152036616 -6.123351725979232e-5 0.0
0.0006049541869854753 -9.633035096305184e-5 0.0
0.0011719332676181837 0.00026851421365340597 0.0
0.001181673970539135 0.00024799602983959954 0.0
0.002664162678026169 0.0001508455395386309 0.0
0.003392956443074732 -0.0007145599098718382 0.0
0.003345375748406983 -0.0007521125394062258 0.0
0.00036782038914419174 -0.00036722963961820227 0.0
0.00032583474589088557 -0.00032131879807760776 0.0
0.004267617988774014 -5.415040498528321e-5 0.0
0.0007044311243923976 -0.0003528508437171368 0.0
0.0006345361735636223 -0.00032129482495956113 0.0
0.0039697368425446805 0.0001669239578259891 0.0
0.004097306397365675 -0.00026178294062061694 0.0
0.004075425768595634 -0.0003046838143493913 0.0
0.002432238156288982 -0.00025057833061966175 0.0
0.0028093956767740133 -0.0009057579177225322 0.0
0.002751540814390003 -0.0009452215505454274 0.0
0.0012396312240572122 -0.0003896209685204343 0.0
0.0012454868281702098 -0.0003586974556701485 0.0
0.0017973525721103735 -0.0008836049064647127 0.0
0.003784011346433195 -0.000406105805249958 0.0
0.0021710036014522907 -0.00033240447007701384 0.0
0.0021154527366723293 -0.00031957758751378446 0.0
0.00010587360092186727 -0.00011874316133152069 0.0
0.0010960817985663056 0.0004127810723571884 0.0
0.001985019213942449 -0.0003391614490559409 0.0
0.0013154335540669962 -9.715922010782614e-5 0.0
0.0013282612656905347 -0.00012624622701881257 0.0
0.0008008930458223261 -9.083935525300238e-5 0.0
0.0027346452154059986 -0.00021441964923664267 0.0
0.001794991434230745 -0.0002414470053750926 0.0
0.0017966115522594281 -0.00021745935121339447 0.0
0.0018632492032794013 -0.00023355953821906973 0.0
0.0018635053175142474 -0.000211079680718367 0.0
0.0019272981133262907 -0.00022426010863101507 0.0
0.0019285706457439695 -0.00020327389033565686 0.0
0.0018631449392155354 -0.00018953006982527375 0.0
0.0019288823340633467 -0.0001820546986891535 0.0
0.0018635171940150613 -0.00016878457695692584 0.0
0.0019303014951662313 -0.00016169093203051497 0.0
0.001988323266439753 -0.00021591393800300484 0.0
0.00016902236014968748 -5.673968119981838e-6 0.0
0.0026444625382120485 -0.00026093549091627113 0.0
0.0018113201870494941 -0.00036767119835373103 0.0
0.0016951143655068012 0.00016630967330005992 0.0
0.001821404001033283 0.0001291411017739272 0.0
0.00183048720821773 8.510476967347242e-5 0.0
0.0017851386389972099 0.00018345954972299287 0.0
0.001746615122447938 7.622794475516517e-5 0.0
0.0018542540666374137 5.049234532624342e-5 0.0
0.001954078202046514 5.1889404770748214e-5 0.0
0.001893728054034153 0.00015716953403533229 0.0
0.0002676221175878545 -0.0001413629057419422 0.0
0.0002746677897988619 -0.0001608538357768674 0.0
0.004261598742342105 2.242336783109538e-5 0.0
0.004127003884033524 5.0193320571407756e-5 0.0
0.004119241429820075 6.0905417858332124e-5 0.0
0.0032607438469717267 -0.0007845496656862021 0.0
0.0032019509598308605 -0.0008208975841278558 0.0
0.001132154456993756 -0.0006159364034647328 0.0
0.0011760525885078812 -0.0006104225345067912 0.0
0.0010876359539060275 -0.0006191801232201389 0.0
0.0012406724497419058 -0.00010950433216125419 0.0
0.0019210638223232182 8.913100784548748e-5 0.0
0.001998156336864774 -0.0001740427433501172 0.0
0.0019950122970162575 -0.0001534600237333609 0.0
0.0019304685868931132 -0.00014154376771824615 0.0
0.001993633292091002 -0.00013485594897479447 0.0
0.001933729170495176 -0.0001224876132257034 0.0
0.0011640250628428546 -0.0007745751287722011 0.0
0.004250702476280205 3.6369869916308154e-5 0.0
0.0017772468491966992 0.00021544011216160865 0.0
0.002557059258524092 0.000152392820681883 0.0
0.002566079125594284 0.00011243572207720344 0.0
0.0024611343366775533 0.00010462254595566971 0.0
0.0012589039614103472 0.0002001226960329507 0.0
0.001524855994185956 0.00022085537831439733 0.0
0.0014421109514700173 0.0002336748871473331 0.0
0.001382878196507967 0.00024060752343147175 0.0
0.0028637233956556136 0.00016145970742475636 0.0
0.0036107917418368315 -0.0005935325066597271 0.0
0.0035878658802961675 -0.0006462929984830875 0.0
0.001107553677288034 -0.0007989487007844248 0.0
0.0018428468204803837 -0.0009119544034534234 0.0
0.0018433004287418669 -0.0009525850818322876 0.0
0.0018871340745311128 -0.0009392848737432608 0.0
0.001893437848168226 -0.0009849098078077922 0.0
0.003109560913134372 0.00015492536840435621 0.0
0.0030192298220798933 0.00013394560762486045 0.0
0.0031364855446113847 0.00012623047912562922 0.0
0.003230938029649654 0.00014263298017954328 0.0
0.0023912203662513985 -0.0003758401401082673 0.0
0.002341548338849683 -0.0003628608318743982 0.0
0.0019338394642032179 -0.0009644098842399133 0.0
0.0012919566127932648 -0.0002198610590799186 0.0
6.888766280511935e-5 -6.89911299599145e-5 0.0
0.0017682158710478815 -1.5168924207236525e-6 0.0
0.0018581096592160048 -2.5043717862923707e-5 0.0
0.0018646863913844068 -5.1023771025386504e-5 0.0
0.0019467135042054557 -4.433210912599601e-5 0.0
0.0019468357915854025 -6.58466703496406e-5 0.0
0.0019413355482575073 -2.1834461267715804e-5 0.0
0.0018784853116235595 -7.298096946159256e-5 0.0
0.001948793059206243 -8.583582773690108e-5 0.0
0.002023864729943346 -3.7768383558136276e-5 0.0
0.0029042797339616914 0.00014002528894664165 0.0
0.0018869473866482852 -9.422701646552009e-5 0.0
0.004311222993381512 -3.6225471964853128e-6 0.0
0.001656347651019025 -0.00026052991059082704 0.0
0.0020708482820706226 -0.0008081912413772718 0.0
0.002126697204377079 -0.0007917082267185422 0.0
0.001857757854167222 7.523590837312427e-7 0.0
0.0019479780349551253 1.2324852646610986e-6 0.0
0.002516090131659489 -0.00040106098957962426 0.0
0.003189407211093893 -0.0007105707316824898 0.0
0.003135419739453288 -0.0007510301351737061 0.0
0.003125141918810616 -0.0007972124640961214 0.0
0.003085445304603083 -0.0007901339319481925 0.0
0.0030781277480074164 -0.0008327565953554397 0.0
0.0030357308748849635 -0.0008285977866173116 0.0
0.0036181763565267437 -4.107371943538006e-5 0.0
0.0035428760294096448 -7.442310843653532e-5 0.0
0.003578916922482296 -0.00010069047294728043 0.0
0.0034692684218660783 -0.00010925013266325694 0.0
0.0035021781516722562 -0.00013533999443790854 0.0
0.003393786041747315 -0.0001453198729747407 0.0
0.0034287822054809894 -0.00017131686832600254 0.0
0.003358765521987863 -0.00011840105118246268 0.0
0.003286290722194046 -0.000154444036741243 0.0
0.0035312315086299026 -0.0001604709677973389 0.0
0.0032497297401466955 -0.00012809390792824422 0.0
0.003457456719823883 -0.00019642926780417402 0.0
0.0033611077951514884 -0.00020710721017026872 0.0
0.0033855394226640113 -0.0002323760095018155 0.0
0.003323508979522919 -9.293267302476986e-5 0.0
0.0035024341233923194 -4.645850243466544e-5 0.0
0.0035583731031147395 -0.000186369502626894 0.0
0.003695416847712465 -9.657913094245229e-5 0.0
0.0036250100151589784 -0.0001508875885050177 0.0
0.0023832338984288194 -4.9505179664585434e-6 0.0
0.0015061926661050556 0.0002323889849093937 0.0
0.00022447161684905264 -0.0001433218599291479 0.0
0.00020740292976501086 -0.00021135862261162597 0.0
0.00025142306191279555 -0.00025894105787963923 0.0
0.0019320102484432465 -0.0009245847184239234 0.0
0.00258451112885333 -0.00041710025180216706 0.0
0.0024695766353391956 -8.232915742062801e-5 0.0
0.002385660675105731 -9.788683085386862e-5 0.0
0.002400036673127597 -7.69692869770302e-5 0.0
0.002387978045826015 -0.00011963336231845842 0.0
0.0024591060574781108 -0.00012880242730064256 0.0
0.0023819994246680964 -0.00014179619723011543 0.0
0.002374501697541073 -0.00016266868042339705 0.0
0.0023151617865309875 -0.00015261791628065017 0.0
0.00027428512877943913 -0.0002496074794779224 0.0
0.0027591143659798567 -8.40938327239957e-6 0.0
0.003352018762382497 6.48223140055751e-5 0.0
0.0032165051317796585 6.970731993643377e-5 0.0
0.0001684072684004105 3.8768293087416226e-5 0.0
0.000349715349393798 8.635269749167876e-5 0.0
0.0003294863249494894 7.209084790840074e-5 0.0
0.0028129629292108996 -8.727364244709042e-5 0.0
0.000357319744962512 -0.00029218303067855925 0.0
0.0004156905258749667 -0.0003430743393757246 0.0
0.0004525939877311696 -0.0003549263216681433 0.0
0.0004486084138227509 -0.0003252950797765925 0.0
0.00048768022898193356 -0.0003280089979765835 0.0
0.0017897109561574392 -0.0001122933236817674 0.0
0.00020733953170579605 1.5636311304519025e-5 0.0
0.0008615225010922486 -0.0002444726452463485 0.0
0.000704979460272657 -0.00023601992048075284 0.0
0.001941866395721124 2.6056522617313594e-5 0.0
0.0004565768164088507 0.00019050952209265787 0.0
0.003073190285276885 -0.0007376855173318313 0.0
0.0026551321304166676 -3.581654785277808e-5 0.0
0.004175379611953201 -0.00022352709809266813 0.0
0.0033265012562346315 -0.0001805895993545181 0.0
0.003220603428207743 -0.00018957130928612436 0.0
0.003163601390347686 -0.0008090304499156017 0.0
0.0043198920831149 -9.10021268773413e-6 0.0
0.004240023763331982 -2.3184439232389436e-5 0.0
0.004257090150453261 -3.035906636952174e-5 0.0
0.004225664749583282 -1.3743770927249907e-5 0.0
0.00416350954731426 -4.2625841145543774e-5 0.0
0.004214512519143039 -3.5333395845205866e-6 0.0
0.0041191941528722015 -1.4296348784679334e-5 0.0
0.00413921030450797 -2.936946429259582e-5 0.0
4.676847559472174e-5 -2.7939496909536804e-5 0.0
0.004351610554139261 -2.5004302979389712e-5 0.0
0.00429698449743789 -4.8208658571345485e-5 0.0
0.004329808615661433 -2.6590744092509052e-5 0.0
0.00430210057781261 -5.161090475541715e-5 0.0
0.002597338515270534 7.8427514749628e-5 0.0
0.00331185375668656 -0.0007397640231670884 0.0
3.578771914107846e-5 -2.999522321373392e-5 0.0
0.004362464040813771 -2.699475846119984e-5 0.0
0.0014044323529833174 0.0001735921992080867 0.0
0.0035284140608362173 2.03886559115202e-5 0.0
0.0011966212629792303 8.165478944428619e-6 0.0
0.001291379468994318 2.022651675860038e-5 0.0
0.001286021403154378 5.748683268639742e-5 0.0
0.0012937749604674293 -1.3042920825888154e-5 0.0
0.0013756026216346032 -5.6899822146946795e-6 0.0
0.0013943543454384092 2.6965917433603127e-5 0.0
0.0013827703562768656 6.607840476164507e-5 0.0
0.001287173047326949 9.261213498382854e-5 0.0
0.0012027653486630448 0.00012275324770976985 0.0
0.0012114894803018728 -3.1896967605870856e-5 0.0
0.0037126050845216383 -0.0005473512166465914 0.0
0.004308058373798161 7.914267654777522e-6 0.0
0.0018010277089443494 -0.0008422576347596216 0.0
0.0005762871060532583 -0.0005227123344021539 0.0
0.001985599712182788 -0.0008215138265287974 0.0
0.0015236841022526998 -0.0008716968782955487 0.0
0.001525791208900125 -0.0009133956782572294 0.0
0.002061334536911386 -0.0001455290046647198 0.0
0.002817622678539138 -0.00015086677632716002 0.0
0.0038034592291513528 0.0001303791241872609 0.0
0.003855185832009712 0.00010794476389168486 0.0
0.0037384554839958294 0.00011339862348970506 0.0
0.000269500632237711 -0.0001265234610714247 0.0
0.0005364876343290114 -0.0005087447617422414 0.0
0.0013265340202912208 0.0003018929222252851 0.0
0.0011904425579934638 0.00030646031464035244 0.0
0.00314254922921037 0.00018007146862301476 0.0
0.0015586958785974987 0.00023118805455468822 0.0
0.003991383779691008 -0.00029131304055512704 0.0
0.001968448909486217 -0.0006839815472927166 0.0
0.0030136176875596335 0.00015567665644539036 0.0
0.0031115141866890393 0.00018557085880128969 0.0
0.0013080801487360667 0.00014709276168950951 0.0
0.0010720613200495281 -0.0008074701867630125 0.0
0.003966780521189829 -0.0003372095082397587 0.0
0.0006399682591859828 -0.0005224583821366832 0.0
0.0006794914750551104 -0.0005585500381534514 0.0
0.0006574180493315505 -0.0005696820140901543 0.0
0.0010290276934464455 -0.00024090217859012704 0.0
0.0024368095212313357 -0.0001777376130147455 0.0
0.0027349733506827362 -0.00011374619033304154 0.0
0.0016486207609422495 -0.00017926288535296614 0.0
0.0017251505289288067 -0.00019936750075040522 0.0
0.0042198464507856095 5.4877284938035484e-5 0.0
0.004011255831548335 0.00011600015186506195 0.0
0.0001829321097820759 5.6708899546022956e-5 0.0
4.607922719109703e-5 -3.0827178497934574e-5 0.0
0.001992212484957118 -0.00019480031574020004 0.0
6.471815780969208e-5 -1.76570758131916e-5 0.0
0.00015747729130172704 -3.564203550120251e-5 0.0
0.001962288614124745 -0.0007893528287533651 0.0
0.002784243383461926 0.00016348488013819587 0.0
0.0015900200793440874 0.0002174097248924165 0.0
0.002709788574312793 -0.0004058778976057541 0.0
0.0020043220335409406 -0.0001161419814459184 0.0
0.0035386028446615665 -0.0003547542235439931 0.0
0.004124018736340621 -0.00022057114047608993 0.0
0.0012997447798775174 -0.0005912536347671189 0.0
0.0013045132517151713 -0.0006287951336397348 0.0
0.0012510911638755169 -0.0005931057739189593 0.0
0.0011959074109596294 -0.0005579174055010443 0.0
3.653948605361294e-5 -3.342611850465522e-5 0.0
6.936920930259368e-5 -6.393101510212374e-5 0.0
7.808268502183154e-5 -6.554575572933134e-5 0.0
0.0011172961078609745 -0.00039499557919939725 0.0
0.0010561259957325227 -0.0003998097546140466 0.0
0.004355182551992755 -2.598351963226098e-5 0.0
0.002374318104415378 -0.0009931223776360823 0.0
0.00233101467172193 -0.0009710846372600185 0.0
0.0023268916058786166 -0.0010164835803720823 0.0
0.0022832187670575256 -0.0009936076681149539 0.0
0.0022345756997756328 -0.0010136896463311855 0.0
0.0022332223500736155 -0.0009691302012863617 0.0
0.002333714525069878 -0.000926197856722551 0.0
0.0030231705719005767 0.00018386204477119082 0.0
0.0005102700807901979 -7.05079580067839e-5 0.0
0.0005938826838165471 -0.00012291150042740577 0.0
0.000515246089321374 -0.00012354591029694904 0.0
0.002780414133098389 -0.0003882346927798668 0.0
0.00085428240167519 0.0002584150726543394 0.0
0.00221789915999076 -0.00039568183609030717 0.0
6.416873481991818e-5 -2.7971853008727377e-5 0.0
0.0013527796233555643 -0.0008663744481119837 0.0
0.0013075889700325193 -0.0008648493606520329 0.0
0.0013169691017089697 -0.000830806863858811 0.0
0.0015199354316627594 -0.0008301311035346972 0.0
0.0013011275508411702 -0.0005494345561989538 0.0
0.0005704279988077869 -0.00025455019226533915 0.0
0.0003287208413960823 -0.00019925384814763026 0.0
0.004332844506059655 -1.6962582794002745e-5 0.0
0.004274673135240017 -3.440904894019356e-5 0.0
0.0008432085268812913 -0.0006526533891950329 0.0
0.0010192196943215658 -0.0007257094647564789 0.0
0.0009792721287064157 -0.0007302990007494769 0.0
0.000930864165992969 -0.0006906904180558198 0.0
0.0009371916256863449 -0.0007314083630267617 0.0
0.0026182987576996004 0.00017379520009501963 0.0
0.001737146650822892 0.0002120394266520391 0.0
0.0028617079657124625 -0.0008732462448019213 0.0
0.0029005240967840224 -0.0008883723826148139 0.0
0.0029499583149658216 -0.0008555794486954477 0.0
0.0028436479446494337 -0.000927849727871748 0.0
0.001407122949820232 -0.0005855216047831081 0.0
0.0025146132552827166 -0.000731478269108174 0.0
0.0015876795568683184 0.00022768945674093362 0.0
0.001781741426425886 -6.26424319545151e-5 0.0
0.0043639226636596916 -2.854227034553094e-5 0.0
0.004329891148038449 -5.6515130389800347e-5 0.0
0.00431533140457358 -6.17707399387453e-5 0.0
0.0008907319097654346 -0.0006924603272131289 0.0
0.0008523766092334141 -0.000692032532662287 0.0
0.0012907466513569531 -6.281704321582342e-5 0.0
0.0011466230067467909 -0.0005657915184600993 0.0
0.004094731793178047 -0.00018269203312980912 0.0
0.0033347144558238833 0.00022325158662585867 0.0
0.0019816721216263417 -0.00023698299098672836 0.0
0.0020415256202748846 -0.00022677776446719495 0.0
0.002625660293413538 0.000201766511987367 0.0
0.0032612151000756947 -0.0006283100309794778 0.0
0.0019132587439220992 -0.0006976438248659028 0.0
0.0019153971660175336 -0.0007361703048019492 0.0
0.00046899354024501844 9.19606394872082e-5 0.0
0.001048197744592694 -0.0005720780919221796 0.0
0.0009984828764425095 -0.0005694154175840192 0.0
0.0009444863534733278 -0.0005326171352449324 0.0
0.000950232718658944 -0.0005703056558314113 0.0
0.000803951161115639 -5.9499933198207315e-5 0.0
0.0008073787225569343 -2.778095426414515e-5 0.0
0.0009019958406654587 -0.00012107018787822549 0.0
0.002886077309479889 -0.0009385315142123023 0.0
0.0027968280208636215 -0.0007176615800992022 0.0
0.0027356593525502395 -0.0007480696772233785 0.0
0.002789335688041063 -0.0007640675474103025 0.0
0.0027281391852957983 -0.0007957394141061878 0.0
0.0027651419651564422 -0.0008079722707146081 0.0
0.002847169087215927 -0.0007265012429294489 0.0
0.002894940630523684 -0.0007321083517177242 0.0
3.084021597137245e-5 -3.310199444907685e-5 0.0
0.0043695549344918445 -2.915243470735491e-5 0.0
0.0036358862030130795 -0.0005428860300401587 0.0
0.0026027922488877377 -0.0009479697547212379 0.0
0.004056656333663804 9.421108723635902e-5 0.0
0.0025220051880848722 -0.0009148621379904236 0.0
0.0025108881171894016 -0.000959484202320621 0.0
0.0033153330931437954 -0.0004295295244638657 0.0
0.0029639777729981043 -0.0003330176800748457 0.0
0.002903117099203518 -0.0003244190837376357 0.0
0.0013775904165776302 -0.0007779487309328545 0.0
0.0007992514707506793 -0.0004937286665997777 0.0
0.003286438524729377 -0.0002456825511215625 0.0
0.0034926799135033292 -0.0005812111359610907 0.0
0.0015253890489784 -0.0004532964255777423 0.0
0.0015824332555495497 -0.00044527187615869655 0.0
0.0015803050791561837 -0.00047810224533797064 0.0
0.0015859560266585297 -0.00041371251144402965 0.0
0.0015236431393294972 -0.00048663415854399743 0.0
0.0016380518014382625 -0.0004404541405497395 0.0
0.0016450863114459112 -0.0004111668992444177 0.0
0.0016595190457732575 -0.00037911734277794497 0.0
0.0032885674637941195 0.0002060328917208056 0.0
0.00034424613958250374 9.582855609196573e-5 0.0
0.0031801613008431333 -0.00016389122639007625 0.0
0.003468843320909435 -0.0003643222756752474 0.0
0.0006243979707696053 0.0002081033396402565 0.0
0.0006175333073076888 -1.2228567294633805e-5 0.0
0.0009019540025448415 -5.344425982942786e-5 0.0
0.0006984232252083475 -0.0004527026570583164 0.0
0.0015242870205579245 -0.00038963626784088934 0.0
0.001181050681514673 -0.00032939294155822404 0.0
0.001263541538988441 -0.0003277875509150439 0.0
0.0013162516638074372 -0.0003600471318365186 0.0
0.002134342609343565 -0.0009632268699901345 0.0
0.0021849288918480043 -0.000988181202377645 0.0
0.0021834874337053212 -0.0010370170485967962 0.0
0.0022346998989882607 -0.0009252387954947315 0.0
0.003431949530998913 -0.0006164340554627986 0.0
0.0015822731218650232 -0.00024263247598106842 0.0
0.003217340855619674 -0.00038613901941707295 0.0
0.0015161559584960793 -0.000789312340359458 0.0
0.0023361348950839654 -0.0008824992542970505 0.0
0.0016125627816516814 -0.0009353863372673451 0.0
0.0040391942524347435 -3.1824635673732426e-6 0.0
0.002159848309952927 -0.00041039384225000455 0.0
0.0005059905428853712 -0.0002190577223799201 0.0
0.0016411384855349194 -0.0006437256697171004 0.0
0.0016953439842667256 -0.0006709820315119642 0.0
0.0015296618785874767 -0.0005895286963396495 0.0
0.0016587846003950336 -0.0008380791705703578 0.0
0.0026064696081473573 -0.000552175316905192 0.0
0.0025423040966027926 -0.0005744408420439848 0.0
0.0025999227712280365 -0.0005889276116233285 0.0
0.0031431644360668818 -0.0001381695256647792 0.0
0.0019679684022923393 -0.0006470137689277891 0.0
0.00141526428513764 -0.0005349751227424559 0.0
0.0025061240250591173 -0.00023661694964263415 0.0
0.0024939524727100575 -0.00026193114207784864 0.0
0.0005451728987811853 -0.00036627393240932024 0.0
0.0011579145248421397 -0.000735065387795891 0.0
0.0029649225804490153 -0.0008058589185986893 0.0
0.0024730807959925656 -6.090834129934961e-5 0.0
0.0022996905401751764 -0.0006985165851879633 0.0
0.002241876528610442 -0.00071747400255072 0.0
0.002239331699611517 -0.0007579615604049682 0.0
0.002184518900019964 -0.0007353598737327536 0.0
0.002183340714182938 -0.0007761497468820042 0.0
0.002292965957984934 -0.0007787837349148183 0.0
0.002668642327350663 -1.5027975409459145e-7 0.0
0.001799484339603321 -0.0005474844737336905 0.0
0.0017454879887696254 -0.0005583167968156703 0.0
0.0024894007050457563 -0.0005242574265404243 0.0
0.0014734788754486546 -0.0005961569182030865 0.0
0.002463156157057136 -0.0009859735038877512 0.0
0.0018569919853749528 -0.0006732743239444424 0.0
0.002187268852025012 -0.000696241611171623 0.0
0.0031143745058752332 -0.0008438732126094717 0.0
0.0019794703325984554 -0.00041960400291797637 0.0
0.004149498902313528 -0.00010390833247178048 0.0
0.0021951574575987415 -0.0005862387760252355 0.0
0.000981778855948252 -0.00042726936494060994 0.0
0.0018875439131084651 0.0002052244992550261 0.0
0.0030966906554768677 -0.0006909566763082173 0.0
0.003970132636707669 9.503337070218501e-5 0.0
0.0006421419621123509 4.450537523669169e-5 0.0
0.0006650562150749765 7.146163332034387e-5 0.0
0.0007390797564771267 3.163967565793536e-5 0.0
0.0007802613878229606 6.396323254092049e-5 0.0
0.0008540170259089745 4.292272789992591e-5 0.0
0.003116458958523206 -0.00019878458522058185 0.0
0.001799666545882313 -0.0009712518614244679 0.0
0.0020401067528062174 -0.0004080027886947931 0.0
0.00012687569558226784 -3.8390233081141176e-5 0.0
0.0014089907751466623 0.00023962073111175375 0.0
0.00130948342882562 0.00025454141365118096 0.0
0.0029424491070040464 0.00011035788132099906 0.0
0.0017523523798726615 -0.0008143356841296518 0.0
0.001999266865289067 -0.0009335331408381154 0.0
0.001732488000449708 -0.0002773929895298344 0.0
0.002430956546957051 -0.0005098664751286449 0.0
0.002367365579771135 -0.000493357333437542 0.0
0.002376685628193314 -0.00045950910230232864 0.0
0.0024888094002052325 7.512036661191177e-5 0.0
0.0016475836293101673 -0.0006816387293103562 0.0
0.0011143556443758247 -0.00030005305963452794 0.0
0.0016848493741243686 -0.0004989524949693322 0.0
0.00021545305452244727 -0.0001513483761285242 0.0
0.002306525120224907 -0.00022703684666830725 0.0
0.0009218939676114886 -0.0006494087275311617 0.0
0.0023182578910807025 -0.0005177852950312927 0.0
0.0013864335194582501 -0.0008195285740294446 0.0
0.0030944298610013563 -0.0003429343951615171 0.0
0.0020895176054525964 -0.000516000948863067 0.0
0.0021284742087273553 -0.0007522206213272777 0.0
0.003875987190239818 -0.00028728569879559856 0.0
0.0008093954981632023 -0.0006526208634936912 0.0
0.00420726615214849 -0.00020687269033941146 0.0
0.0017352427623093774 -0.0003912038400229848 0.0
0.0020834401935228932 -0.0005829142194000735 0.0
0.0003741433867967414 -0.00015219990691091502 0.0
0.00386629720389333 -0.0002110457277442852 0.0
0.002449185883610791 -0.0007948149351976405 0.0
0.00012584836776293986 -4.657496826554143e-5 0.0
0.0022338601418332342 -0.00031922532130603367 0.0
0.0022316899152390597 -0.00034165303452273133 0.0
0.004121163245822467 -6.292795401932695e-5 0.0
0.0024189117726535017 -0.00101240636723707 0.0
0.00075423181164863 -0.0004921587391744371 0.0
0.004256132062606533 -0.00010342278144620553 0.0
0.002315891864554804 -0.0004463488493532787 0.0
0.0021485519661604744 -0.0005021086282753884 0.0
0.002695232917272839 -0.0006962296893603655 0.0
0.002638884140362347 -0.0006825155211796874 0.0
0.002465395784326415 -0.0007136402825111145 0.0
0.0020375105864045596 -0.0004371036320734392 0.0
0.0025168133838844127 -0.0010304856039977423 0.0
0.0027105130292964805 -0.0009997595086229552 0.0
0.0019232730361878813 -0.0010284453051086588 0.0
0.0020734394998556636 -0.0010424556265050857 0.0
0.0029993768100868277 -0.0009193028642986534 0.0
0.002985895011035775 -0.0008750470621704423 0.0
0.0015307072339529177 -0.0009530413979186922 0.0
0.0012014946187143627 -0.0008621017255941936 0.0
0.002612498797799787 -0.001017584121191761 0.0
0.0016331089994481858 -0.0009808287002464116 0.0
0.0018404269071636602 -0.000343300239347783 0.0
0.0037771279097753734 -0.00013615196759873688 0.0
0.0031207783076308677 -0.0005270078875838979 0.0
0.003100933688518213 -0.0005650602038882811 0.0
0.0015800204560433204 -0.0005136245965316645 0.0
0.00268399063102977 -0.00046218873124319055 0.0
0.0021336055982079786 -0.0008307794232268136 0.0
0.0010924297727470328 -0.0006786981846883879 0.0
0.000815674628521118 -0.00039096643888421285 0.0
0.0018565758861824276 -0.0005032967401275466 0.0
0.0038572265345936858 2.8968111909522188e-5 0.0
0.001480878060653901 4.116765891032763e-5 0.0
0.0021013702951245784 -0.0003957958440312817 0.0
0.002485519477509521 -0.0005614032836760271 0.0
0.00028414354944539884 -0.0002784974897756913 0.0
0.0002946472645440576 -0.0003086040264027716 0.0
0.001856253139302956 -0.0007494504139105934 0.0
0.0015554958440632323 -0.0007025525961283713 0.0
0.002252160027366558 -0.0006044268239647506 0.0
0.0040891612971564 7.570318851424563e-5 0.0
0.0023833810733534804 -0.0009027843280085658 0.0
0.00432444252987924 -7.286245253985617e-5 0.0
0.004298546458964178 -0.00010601548321496138 0.0
0.0012078757623707156 -0.000197115376906524 0.0
0.0019143162414675626 -0.0005559239642004366 0.0
0.002022937364325508 -0.0006692917189818951 0.0
0.0041976606292409985 1.4767257727434342e-5 0.0
0.0020466002374271994 5.953650644052716e-5 0.0
0.002951704571167937 -0.0007038752476532645 0.0
0.0030397673787495873 -0.0005953830199423455 0.0
0.0011798434624195298 -0.0008184770914088448 0.0
0.002787980298733092 -0.0005534395277180199 0.0
0.0019152543622592288 -0.0004914632725938505 0.0
0.002920021927240791 -0.0005012635098514199 0.0
0.0029083359176414396 -0.0005377409509368759 0.0
0.0029862719645400953 -0.00047457395908052035 0.0
0.0009807349146579388 -0.0007719434408994096 0.0
0.0034501892117394088 -1.3875522349674325e-5 0.0
0.002549310121159094 -0.0009825492944679436 0.0
0.0036341543323581494 -0.0006058454678962963 0.0
0.0032834910830805333 -0.0003891749136121251 0.0
0.002123114833719344 -0.00029599777675038037 0.0
0.002723364351049521 -0.000843815942333582 0.0
0.0016995810468304205 -0.0007086361397866648 0.0
0.0017845167040293783 -0.000419660614048376 0.0
0.00407252746640367 -4.883707303877882e-5 0.0
0.0009363374175888188 -0.0002747394986033293 0.0
0.003147038800198288 -0.0002238142660449544 0.0
0.0020914481794330206 -0.0001891907481360158 0.0
0.002743766072993961 -0.0004720569746367418 0.0
0.003909702771715289 -0.00013377346669319498 0.0
0.0003292413817444525 -0.00016178972562450638 0.0
0.0031893723743676656 -0.0005755327993553626 0.0
0.0023798418747907686 -3.0138115868771482e-5 0.0
0.002358144063525973 -5.218883672237287e-5 0.0
0.0026352275449089842 -0.0008166025337561534 0.0
0.0024221608735043973 -0.0006198235934970259 0.0
0.0024951742633324368 -0.0008122011475381777 0.0
0.003247383343942729 -0.0006727592255375563 0.0
0.003221076458306898 -5.877202182821122e-5 0.0
0.002067359339622759 3.6728790956382454e-5 0.0
0.002916651075096369 0.00021078727149567207 0.0
0.0038037573299716213 -0.0003630828286459264 0.0
0.003818671611114872 -0.0003290646445854557 0.0
0.00208338266572105 -0.00010394060783730181 0.0
0.0014112818571382388 -0.0006896660761352791 0.0
0.0028507437974287946 0.00019188083180599153 0.0
0.002077575533783341 -4.998191668930978e-6 0.0
0.0027769016719221833 -0.0005906755600608592 0.0
0.004265265547545661 -0.00011178159267835898 0.0
0.0007129861157178496 -0.0005279631566835303 0.0
0.002667887102915102 -0.0002852259823522461 0.0
0.0020857261788984186 -5.368427016194637e-5 0.0
0.00208158318828699 -8.85215623709567e-5 0.0
0.0007351213567837822 -2.6679619873682543e-6 0.0
0.003836249010832512 0.0001496298590767019 0.0
0.0022531763159834134 -0.00019838181024651116 0.0
0.003926751962208772 -0.000275840625669508 0.0
0.001358688045668507 -0.0006589763723369955 0.0
0.0033787297956950537 -0.0007663965711372968 0.0
0.0034675726183509715 -0.0007319294342305085 0.0
0.0012292905741119234 -0.0006805964442332774 0.0
0.0028805986333007108 -0.0006111004539115968 0.0
0.0018739341294905182 -0.0010227631325774272 0.0
0.0027359725407495507 -0.00017212710199524217 0.0
0.0007735626717565462 -0.0006732007331684235 0.0
0.002272978932226661 -8.024240035292282e-5 0.0
0.0023684604074482255 -0.0002652254764623281 0.0
0.002317192833821552 -0.00011080382449237368 0.0
0.0025380693616456826 -0.0006126925992796631 0.0
0.0030853522995472637 -0.0006023243431153916 0.0
0.00010135039773612615 -0.00012301901628363198 0.0
0.00017521094497225648 -0.0002062324264055548 0.0
0.00021051690832787003 -0.00024365187225460289 0.0
0.004085317367040044 -0.00032465434476855714 0.0
0.00028435734800147925 -0.0003189501432144153 0.0
0.001261024242805059 -0.0006330152775091222 0.0
0.0005625702991477685 7.469665691720198e-5 0.0
0.003678486756804086 -0.0006197493723517245 0.0
0.0006515367483534652 -0.0005993114093376835 0.0
0.0007339600546419595 -0.0006505748078764045 0.0
0.004045407273372086 -0.00035757814165046837 0.0
0.003965783184316397 -0.0004246081631208611 0.0
0.0023504310183777894 -0.0003378526186116674 0.0
0.001704614825285992 -0.0008685311588967456 0.0
0.003206869199738996 -9.85717886590991e-5 0.0
0.003761729426189143 -0.0005660255250155134 0.0
0.003803344636109761 -0.0005400049207288743 0.0
0.0005725188648250288 -0.0005514843863900612 0.0
0.00039349432581214363 -0.00041338985576098124 0.0
0.003885989477979156 -0.0004827684008486689 0.0
0.0039177247299606996 -0.00042583964680379863 0.0
0.0026418741858790407 -0.0009691366216071566 0.0
0.0004691606803309325 -0.0004754402877500132 0.0
0.0032305631185581096 -0.0008401429829505717 0.0
0.0008140532221051651 -0.0005337043391961258 0.0
0.003639833815334537 -0.0004484434596749338 0.0
0.001254761657915388 -0.0008425772377262409 0.0
0.003398889553259284 -0.0006057049231265471 0.0
0.003432684690338967 -8.284300186712761e-5 0.0
0.0012377869393736126 -0.00045116516059357734 0.0
0.000826738245248664 -0.0004250026883338478 0.0
0.0016055585981524685 -0.0007311078017901842 0.0
0.00213826034830252 -0.0006027019634633043 0.0
0.0036401196080470795 -0.0002569218065765181 0.0
0.0022834112978003702 -0.0009481672825726507 0.0
0.0023119698442895 -0.0002072243064020239 0.0
0.0022862054456437037 -4.631041059213852e-5 0.0
0.002940727920507237 -0.0004315409053350822 0.0
0.0033996579767199067 -0.0005147017547269473 0.0
0.0011862607511033702 8.045574797622387e-5 0.0
0.0027595876856300124 0.00015426082361678597 0.0
0.001349279419589246 -0.00044179767230309705 0.0
0.0036844288693514437 -0.00037216216749676336 0.0
0.0008532499803942579 0.00013453775169807654 0.0
0.0007273582484540832 0.00010206158308224587 0.0
0.0018627642377522882 -0.00012834017257804176 0.0
0.00382268455160461 -0.0001654271407181208 0.0
0.0020198778182257595 0.00011940154839448145 0.0
0.002244423892355507 -0.0002538752655125587 0.0
0.004044944406823606 -0.00015777288819568785 0.0
0.0011330395689827441 -0.0004578473164961139 0.0
0.0013960372978629612 -0.00028009441011208724 0.0
0.003160427270700465 -0.00042058838973855003 0.0
0.0035008058552018135 -0.0004815742013230464 0.0
0.0009806545535750123 -0.00046199187686189194 0.0
0.0005654657391132218 -0.0004047776327108744 0.0
0.003356807543316987 -0.0005108630348310851 0.0
0.0014213361185029362 -0.00017525249095477242 0.0
0.003315604785207706 -0.000288429078228057 0.0
0.004333231891648309 -5.838146101589962e-5 0.0
0.003604499731969889 -0.0001258246053464655 0.0
0.0023212333933919035 2.8387702677759635e-5 0.0
0.0023990650641610477 2.233442332407972e-5 0.0
0.0027238094180990057 -0.000349848112435519 0.0
0.003953639077452898 -3.296826402047991e-5 0.0
0.0038865508241005538 6.356877322106386e-6 0.0
0.00016955674013660935 -0.00013945253038137587 0.0
0.0001256447573730805 -0.00010257367111862267 0.0
0.0017516053850066093 -0.0008551159768610432 0.0
0.0028417970910553235 -0.0005642699402124287 0.0
0.0015893754794497521 -0.0002966093680986184 0.0
0.0015871442394614823 -0.0002698476018573522 0.0
0.0015571647973728275 -0.00010738152963374864 0.0
0.0022384735068053355 -0.000799013488657156 0.0
0.0026014022818711784 -0.000305604118735078 0.0
0.0006925461378337019 -0.00012281469359508003 0.0
0.0030525866955858623 -0.0002331355417679473 0.0
0.0023526108669222542 7.75315469021788e-5 0.0
0.0018564226880804936 -0.0005355094499696714 0.0
7.494385247302128e-5 -9.063184434199427e-6 0.0
0.0021407929732821856 -0.0005677095592468412 0.0
0.004024369998186738 -0.00018254971000871242 0.0
0.003440981470626573 -0.0002930340951863614 0.0
0.0032623969328935748 -0.00021549713514277746 0.0
0.0038575556527939885 -0.00023746955002095277 0.0
0.0028118381437373767 -0.0002446410239383207 0.0
0.0015268303559206934 -2.5883783754297142e-5 0.0
0.0005002015463956639 -0.0001932831286911781 0.0
0.001909412278623648 -0.00026487852984463547 0.0
0.0024048417765350585 -0.00035003173744736543 0.0
0.0006235329652685429 -0.00034543132251633503 0.0
0.002023613115472376 -0.0010390574021786705 0.0
0.0027198616378935727 -0.00024184651852998147 0.0
0.0013136900959873365 -0.0006659604003614642 0.0
0.002939483904007082 0.00018730586854497368 0.0
0.0036984443547533985 -0.00025443094317022664 0.0
0.0014112753283969813 -0.0001468512588461843 0.0
0.003236904021803658 0.00020032870312283 0.0
0.002483551904286331 -0.00028687567514318834 0.0
0.002143640171047958 -0.0005340602807203146 0.0
0.0007780823837209691 -0.00015073339655475248 0.0
0.0014601083005991145 -0.00030847897654827925 0.0
0.0018608522634872293 0.00019619854696159914 0.0
0.0005813725601411429 9.751611321152949e-5 0.0
0.003269767128894806 -0.00042563386678176233 0.0
0.0008571584139755623 -0.00032842887156289805 0.0
0.002202890092812488 -0.0005195762433209703 0.0
0.003639884038375045 9.125702815631908e-5 0.0
0.0031042852650723257 -0.0004158277537204045 0.0
0.001437192611922936 0.00014207706212905445 0.0
0.00026112501132337113 -7.489640268867541e-5 0.0
0.0011122041179993805 -0.0002686721661084839 0.0
9.907184730568609e-5 9.334470634459526e-6 0.0
0.00020709469837281529 4.193005122555432e-6 0.0
0.0030858791446637056 -0.00038321542431761475 0.0
0.0025469695965903163 -4.061674628934436e-5 0.0
0.0014315830294557325 -0.0009373481649936392 0.0
0.0009981459662092168 -0.000609293618650043 0.0
0.003605124529200982 -0.00019847718431042596 0.0
0.0004853930857812091 -0.00046241867793020793 0.0
0.0029938684546800035 -0.0004408058712027627 0.0
0.002503032878915298 -0.0007719308093953832 0.0
0.0035767975024728936 0.0001411111886336189 0.0
0.0012843728654992662 -0.00079220996486955 0.0
0.003906654950362214 -0.0003821259411295453 0.0
0.002247049090425072 -0.00023547204914959184 0.0
0.0007057763199575984 -0.0006019212472406516 0.0
0.003037384215924004 -0.0008715579117945468 0.0
0.0007220905261023867 -0.00038745275387647637 0.0
0.0041315047032801635 -0.00017092516881224486 0.0
0.0005144385911876727 -0.00027255740907827515 0.0
0.003055278085143636 -8.037237929011735e-7 0.0
0.0028158530459904177 -0.00021646563159082193 0.0
0.0022882025471541566 -1.0849861500634066e-5 0.0
0.00010109189242378454 1.4377189971570284e-5 0.0
0.001660087890637252 0.00022534771375628707 0.0
0.0011898070213252712 -0.00016398678516107344 0.0
0.003502584321766313 -0.0006773530934802183 0.0
0.0035506768396110847 -0.0006947105781297094 0.0
0.0003302524449735326 -1.2203273578326568e-5 0.0
0.002552363689696346 -0.000271832332346679 0.0
0.0010425213779823026 -0.0006092025677707464 0.0
0.0018031016401212085 -0.0005803934715782417 0.0
0.0001047078596036304 -9.772902480127091e-5 0.0
0.000243860450753581 -4.31998701491775e-5 0.0
0.0024546056432281763 -0.00038801569724467467 0.0
0.0022621585565474056 -0.0005034026570916992 0.0
0.00015909863523149028 -2.4285750266305865e-5 0.0
0.0004266621053698764 -0.0001585566676789755 0.0
0.0003204283377369505 -0.00035153615125137194 0.0
0.0036612822907960475 -0.00040857130953240854 0.0
0.002893534798280191 -0.0005741381736979611 0.0
0.0005110752583847791 -0.0003661330321939305 0.0
0.003385595080744181 -5.990039615859752e-5 0.0
0.0031145154165359234 -8.233312299485737e-5 0.0
0.00022547551727120725 -0.0002444898375669057 0.0
0.001810537888264936 -0.0001765290044432404 0.0
2.7382464632837193e-5 -3.385543473246187e-5 0.0
0.004371367023262947 -3.300065852886101e-5 0.0
0.004249594638050956 -7.326996446132677e-5 0.0
0.0012964850222094558 -0.0008972721883823483 0.0
0.0033963969483562562 3.359787323621181e-5 0.0
0.0029030491912780602 -0.0006944267904140138 0.0
0.0005709593778163611 -0.00028141746467991185 0.0
0.002757994207162575 -0.000988665510036476 0.0
0.000620074119865386 -0.00015105221317826477 0.0
0.00380962319372677 -0.00019204506115087962 0.0
0.0017464027210925977 -0.0005905449151912409 0.0
0.0001589810384969692 -0.00012122798074249999 0.0
0.002015366354621353 -6.050846970632479e-5 0.0
0.0020144132118191326 -7.895489298193849e-5 0.0
0.003995359687577296 7.881581998718108e-5 0.0
0.0024820249793496138 -0.0005976951434642219 0.0
0.0003158153829430442 1.7367886856971807e-5 0.0
0.0038706303843645475 -0.0004663299483615328 0.0
0.004036801856197101 -0.00012100306072496985 0.0
0.003090266152995129 6.764175334799644e-5 0.0
0.0031698133726201735 3.3388155801974254e-5 0.0
0.0018921210157320726 -0.0008975526285305439 0.0
0.0042867054396939054 -0.0001306100350893886 0.0
0.00186268633410396 -0.00014873273838022794 0.0
0.0003846491965512697 0.00012254209945768033 0.0
0.000498463938556166 -0.00039910291016006296 0.0
0.0012870223287160523 0.00017878423492073776 0.0
0.003874532194375545 -0.0003839709541005127 0.0
0.0002221934414562627 3.682981787665772e-5 0.0
0.0023103523204675647 -0.00018843680405582992 0.0
0.003454515002978704 -0.00025788739316038337 0.0
0.0027843204070713934 -0.0003618568377255452 0.0
0.0043071990872761805 -5.449779435855613e-5 0.0
9.680710185456932e-5 -5.242583835480196e-5 0.0
0.0040503200618184475 -3.0481988737262947e-5 0.0
0.004320288507005982 -5.348009323553848e-5 0.0
0.0021361775162329127 -0.0010037373536345483 0.0
0.0025250175292194834 -0.0003733579846623579 0.0
0.0014124461591172404 0.00023656249431893965 0.0
0.0010350053917089533 -0.000459769187259043 0.0
0.0013722832782296272 -0.000242672387624451 0.0
0.0018007399386126412 -0.00019667574196912204 0.0
0.0008669297402863006 0.00011198322384345174 0.0
0.0016003762230416747 -0.0006912267073594304 0.0
0.0007904425434434813 -0.00011879184162022986 0.0
0.000510608929244015 0.0001215591974660966 0.0
0.002052800321886264 -0.00033117711361861223 0.0
0.003144726667310823 -0.0005707981438287603 0.0
0.003722145428695091 -0.0003729360143790264 0.0
0.001454961923096906 -3.1468368466110424e-5 0.0
0.0009668433826119854 0.00019958559301761928 0.0
0.002380832781686355 0.00011031837548617457 0.0
0.0012680143883537494 -0.00015900343829436893 0.0
0.003527920222073882 -0.0003854523002888477 0.0
0.0011912713995812074 0.00023673476817445227 0.0
0.0010706682149378246 0.00023249934319368798 0.0
0.002429678059497343 -0.0005463570783108587 0.0
0.00244505509775268 0.00017938135475588512 0.0
0.0017232113958956755 -0.0010001871630769515 0.0
0.003325592757307122 -0.0007996831094252958 0.0
0.0011797333695104564 -0.0004235611056944069 0.0
0.0030936830149342373 -0.0008927038399257904 0.0
0.0009457063458106745 -0.00015483677995457233 0.0
0.00359057641003949 -0.0003776187277954455 0.0
0.001689240409527953 -0.0005671120533552856 0.0
0.0038030915246601276 -0.00024669544138804824 0.0
0.0010387252972517873 -0.00042870244878974223 0.0
0.001733169737455864 0.0002205272126154097 0.0
0.0015501599485996192 -8.0509312310569e-5 0.0
0.001972634106357074 -0.0007561884259658304 0.0
0.002085813591230406 -0.000242921208150714 0.0
0.0020135431511948583 -9.630245831353368e-5 0.0
0.0012066299941594896 -0.0005978840986827173 0.0
0.0012206010472228166 -0.0006402872050820085 0.0
0.0007852231485554508 -0.00029545386647683965 0.0
0.0010313086540048636 0.0003173716004023967 0.0
0.0020436582689087276 -0.0008768269767351223 0.0
0.0038353271791362747 8.556172817705959e-5 0.0
0.0034600934171104755 -0.0004790200254590924 0.0
0.002407334145316321 4.769550974612666e-5 0.0
0.0011273069902185716 -0.000427161593980994 0.0
0.0030273750948621426 -0.00033661384357991836 0.0
0.002560452664484455 -0.0007479143753711339 0.0
0.0016863946168889845 -0.0005322238168506828 0.0
0.004087140985547456 -0.0001490032479580312 0.0
0.004283637136490607 -9.011520917844048e-5 0.0
0.0015204072297338716 -0.0002781188441869891 0.0
0.002933254094375001 -0.0009047709626373303 0.0
0.003961462929528758 -0.00040144274997827275 0.0
0.00019456530904956944 -5.2785565100409606e-5 0.0
0.0010457160008785348 -0.00027255853862977186 0.0
0.0012366799828691303 -0.0004204219745896139 0.0
0.00403172782920902 -0.0003464815392331223 0.0
0.0015932821893293093 -0.0006508686808404471 0.0
0.0027596322188206943 0.00018602542488773644 0.0
0.00041013494169765165 -0.0004050669391159391 0.0
0.002553596148085546 -0.0004449028825750251 0.0
0.0037062873637613044 -0.0003383339689285051 0.0
0.002955681839674265 -0.0005463391359243173 0.0
0.0041563287374886525 -0.00014314241929577125 0.0
0.0029973315660618066 -0.0008225425034756462 0.0
7.669827261089247e-5 -4.43246774382703e-6 0.0
0.0019527248042562038 -0.0003185539398730883 0.0
7.228885364490735e-5 -5.5189575629445405e-5 0.0
0.0013632674754630444 0.00012280796152010765 0.0
0.0009162912713472171 -2.597200007909953e-5 0.0
6.219392187104823e-5 -7.08349004780356e-5 0.0
0.0011145354314462264 -0.000835542020210053 0.0
0.0010300826281204837 -0.000764227681959698 0.0
0.0018668679274115771 -0.00011025891181210875 0.0
0.0018637366449785508 2.3454313955648117e-5 0.0
0.0007472639716134423 -0.0006277284251908705 0.0
0.0013394087293697103 -0.00015386874496763574 0.0
0.0026015017131297375 -0.00028414495311335247 0.0
0.0007660112228013858 -0.0003886589020265776 0.0
0.0028905059712873737 0.00021156857666999987 0.0
0.00262257872112689 -0.0007223523532740295 0.0
0.0005614019403979531 -0.00015332553691163302 0.0
0.0003168147284484151 -0.00029230027581505044 0.0
0.0022532332365473415 -0.00016287652230556507 0.0
0.00014574391232028013 -0.00016392585587538178 0.0
0.004200393742460002 -4.887916892975046e-5 0.0
0.0014700999702996214 7.503927084319477e-5 0.0
0.0020651313791952247 -0.00030452722059599283 0.0
0.0038237268243282575 -0.00042518295149593784 0.0
0.004160078584042242 -0.00025738311951469136 0.0
0.003468262786887354 -0.00022266221190967534 0.0
0.0020375696239048925 -0.0008357172195209992 0.0
0.002652350278091581 -0.0004210817889634304 0.0
0.003742219326967436 -0.0005503433967011701 0.0
0.0022279820349943875 -0.0010519047014227838 0.0
0.0036568317565131366 -0.00034242538529417416 0.0
0.002968130361489408 -0.0005106334077244642 0.0
0.001538212090238915 -0.0006232523982783189 0.0
0.0026107408673654723 0.00019285671747238582 0.0
0.0016256090173091457 -0.0005036777303722491 0.0
0.001355170201673589 -0.0008311588272889631 0.0
0.002029810392357361 -0.0002494209638765777 0.0
0.0034309695933521954 -0.000712543244425024 0.0
0.0007777943025118729 -0.00026686628870846007 0.0
0.0006221254003587103 -0.0005567842193916356 0.0
0.003167995443369849 9.6967405700897e-5 0.0
0.0009866691485559348 -0.0003039826744807149 0.0
0.0025354100962701157 0.00018314803566539571 0.0
0.001292311463119534 0.00046339731850862474 0.0
0.0032492234535377996 0.000282029157830306 0.0
0.003793359982352341 -0.00022174888965270366 0.0
0.0020989447823128006 -3.868700557699765e-5 0.0
0.003388763503838014 -0.00025849866815802513 0.0
0.0026862638387412474 -0.0007855818011390205 0.0
0.00284640528788788 -0.0009712409314919699 0.0
0.001295028914690759 -0.0004147926742660843 0.0
0.0012815042694449682 0.00024431069764878767 0.0
0.0008542453653434152 -0.00027110389460617204 0.0
0.0009421919981976301 -0.0007644378256898047 0.0
0.0019179883680224502 -0.00035294304448022743 0.0
9.867476838799334e-5 -4.748164510293392e-5 0.0
0.0007213412857494533 -0.0005754791977512312 0.0
0.002093743737871824 -0.00013364270429001222 0.0
0.0002461976216865299 -0.00018068695880340069 0.0
0.00025335701539758735 -4.875025162015158e-6 0.0
0.0023087656158142286 -0.0004905370177667295 0.0
0.0023115794277392453 -0.00017109944361752658 0.0
0.004110565023919003 -0.0002818289326826144 0.0
0.0017987308638079311 -0.00015664358391017137 0.0
0.0031646596500751138 -0.0005331047254249205 0.0
0.002331031998302307 -8.714879526484864e-5 0.0
0.0005919036032122771 0.00011375933267169266 0.0
0.0007820806102143658 8.838647241791306e-5 0.0
0.004217732158667626 -0.00010544563556421122 0.0
0.002686320371466857 0.0001891138110810261 0.0
0.0006300406488063367 -0.00028834556516810976 0.0
0.00266180341809546 -0.00018228732207660738 0.0
0.0020050412658826644 -1.5470950235876593e-5 0.0
0.002291809914446589 -0.0002440066760536314 0.0
0.0007173071253701665 0.0002075944849342511 0.0
0.0023234450571286325 -0.001054771755315417 0.0
0.0040036760613483295 -6.676215878678654e-5 0.0
0.0022698207241570512 -0.0004083213409672022 0.0
0.0022507529441577684 -0.00011273273523508918 0.0
0.0028651166917987698 -0.00030868315738942725 0.0
0.0019419925626557367 -0.00010444873008231474 0.0
0.002280027640512517 -0.00037843807908151535 0.0
0.0010937830536144504 -0.0006500290302479428 0.0
0.003032111504223202 -0.00048274804796334306 0.0
0.0017986763979913553 -0.00028101552917808 0.0
0.0022494969772601753 -0.00014659908958188355 0.0
0.0035879311058055253 -0.000678865279355126 0.0
0.0019200810069533952 -0.00024314936884422696 0.0
0.00268465550481456 -0.00013446200541815222 0.0
0.002341875753718026 -7.0525697556016e-5 0.0
0.0003323897528457212 -0.00034487213377297574 0.0
0.0034772791651766486 -0.00044842206343414164 0.0
0.0023258234155733265 -0.00013159477797852135 0.0
0.0012811860865819117 -0.0008290337785486239 0.0
0.0025317727107619934 0.0001924367836493127 0.0
0.0031883840146648707 -0.0008635804861904828 0.0
0.004226479514641883 8.725623129008647e-5 0.0
0.0001846049012974716 0.00010055372593429683 0.0
0.001870335505914776 -0.00036494476424006676 0.0
0.0024992281816128155 -0.0009990038442247856 0.0
0.0015647980448138853 -0.0009333059984492289 0.0
0.0017825216532159575 -0.0010117469891981552 0.0
0.0003274865809472153 -0.00014562895418130794 0.0
0.003221563978264461 -0.0005080678554159253 0.0
0.0013015903684971961 -0.0003836296311933552 0.0
0.001854473476844631 -0.0002520752194612307 0.0
0.001462088093306909 -5.7479328962762876e-5 0.0
0.001847257857072299 -0.0009892755549350608 0.0
0.0031717811268077876 0.0002111109481263429 0.0
0.0040440802690007455 9.180465394685822e-5 0.0
0.002686937156359613 -0.0007534586817293215 0.0
0.0022628254391972077 -0.0004409657254481462 0.0
0.0014461111264910229 -0.0006161024016641682 0.0
0.0024199341393575683 -0.0010511077648100884 0.0
0.0033559444865097583 -0.0004344168682646405 0.0
0.0002853324373866383 -0.00017987203120866377 0.0
0.003948179491374733 -0.00013890770671946823 0.0
0.0019493998131205627 -0.000999793802086125 0.0
0.0019985834034151532 -0.0008966609237990235 0.0
0.0030501959092859143 -0.0007843147517272039 0.0
0.004341173555126063 -6.149923639050034e-5 0.0
0.0016584829028880954 -0.0009554599600010005 0.0
0.0013776090710096221 -3.460202388381789e-5 0.0
0.0014666219399860488 -0.0002860022665177123 0.0
0.0028475383122026853 -0.00034316353096001186 0.0
0.004224604095587678 -5.336521018068519e-5 0.0
0.0003458742145549849 -0.0003048224746529815 0.0
0.002287470503330738 -0.0003524702897661038 0.0
0.003928204730951574 -0.0003867656541714756 0.0
0.0042069520819592605 5.319960869290354e-6 0.0
0.0012371840552139843 -0.0002306727034983057 0.0
0.001995927385964975 -0.0010090971842362044 0.0
0.004100934119432354 -0.00013048282522209494 0.0
0.0007487760263117931 -0.0005404699132286424 0.0
0.004284661612435192 -3.7122991108488785e-5 0.0
0.0013905149224127792 -0.0009329909435710552 0.0
0.0030443838001743746 -0.00044724629512693786 0.0
0.0008266288612341567 1.482061801903855e-5 0.0
0.002752077743312938 -0.0001391349462222872 0.0
0.004251225636204987 -0.00015260660498791906 0.0
0.003417337393877717 -0.00040518856274869433 0.0
0.0012186938617190159 -0.0008414725661104902 0.0
0.0008585988316901333 -0.0007251810015268186 0.0
0.0010937251133768735 -0.0005915521806022744 0.0
0.0036714733528213205 -0.0005941458664872317 0.0
0.003326526253614195 -0.0002610615321183391 0.0
0.000685188700634481 -0.00029775264068277217 0.0
0.0017689946509521746 -0.00034901816544440886 0.0
0.0028431567569443005 -0.00037836027187558466 0.0
0.001708483959886617 -0.0004123456372710361 0.0
0.0041308147070020325 3.939993182638613e-5 0.0
0.0030352809532315467 -0.00020678767807285527 0.0
0.0017892686577848072 -0.0002609086517764927 0.0
0.0007042493804205897 -0.0002622583617157407 0.0
0.0032526324711175656 -0.00045528725774654987 0.0
0.002726831538275845 -0.0009194477297855369 0.0
0.003832444826425833 -0.0004981154740249132 0.0
0.0014907957267673085 -0.0009174669582688123 0.0
0.0028130340026544997 0.00014029829941314363 0.0
0.0016296242154756728 -0.00046971075518961573 0.0
0.002592270602611231 -0.0009884381391527931 0.0
0.0037905486449226877 -0.00042855588570835074 0.0
0.0032947674219884096 -6.932666135226694e-5 0.0
0.004131333537334996 -1.9829921897016133e-6 0.0
0.0009695151587977702 0.00021181343914993225 0.0
0.004018284206069068 -1.870322113382997e-5 0.0
0.0014265658602902087 -0.0005644706521634421 0.0
0.003716983355024937 9.768762907923432e-5 0.0
0.0026055373606345858 -2.364118602965838e-5 0.0
0.0030558645560531473 -0.00014654062999913456 0.0
0.001339101076096436 -0.00034256901875562973 0.0
0.0031054152860783973 -0.0002492090888454434 0.0
0.00209359714887717 -0.0010138225118126011 0.0
0.0011389487983021523 -0.0007891500524039891 0.0
0.0023635122942898814 -0.0001792098646608708 0.0
0.0032827247548240183 4.3802169520293404e-5 0.0
0.0019628168084085307 -0.0009452731434590391 0.0
6.851114559544101e-5 -4.765918084058609e-5 0.0
0.004247718611361908 -6.756254258310837e-5 0.0
0.0037014232590190732 -0.00014053894641963052 0.0
0.001780928763119611 4.6388096006569214e-5 0.0
0.004304075644503438 -7.922473297532015e-5 0.0
0.0011819906028902568 0.00018006014925972002 0.0
0.0020069084667845524 7.481435824591774e-6 0.0
0.004369523734909429 -3.771769907316559e-5 0.0
2.888083564351958e-5 -3.7625207623541806e-5 0.0
0.00010175753238507149 -8.846310753566671e-5 0.0
0.0012620027837343935 -0.0001347684816526806 0.0
0.002694419178868339 -0.0004337706844673103 0.0
0.0030563619239130607 0.00010856245352953723 0.0
0.0034354722343443375 -0.0006761169991091712 0.0
0.004262041509149865 -8.076919714848731e-5 0.0
0.0003176276137291494 -0.00020606295965233765 0.0
0.000914364155230156 2.48889298557648e-5 0.0
0.0027453164053894393 -0.0008745014606699592 0.0
0.003830778016791482 -0.00014385080438221017 0.0
0.001129574815715245 -0.0005890200475100861 0.0
0.0002463949810433867 4.9080471264380416e-5 0.0
0.0027244598531008437 -0.00019336149350136295 0.0
0.0013105995193894268 -4.0880499423164216e-5 0.0
0.0032428664865554674 0.0002084175125198817 0.0
0.0020449708658725717 -0.00012947954349859893 0.0
0.001694187006689322 -0.00043814807868965627 0.0
0.003888735382120321 9.015204536069098e-5 0.0
0.00399430169250416 -0.00038262703749485224 0.0
0.003307873163724491 -0.000776642719875087 0.0
0.000994165188779328 -0.00027880460335166665 0.0
0.00405821582418015 -0.0001252490744178229 0.0
0.0006701476278194821 -0.0003570043548750424 0.0
0.004092181227847587 -5.790236868028701e-5 0.0
0.0037052119463461763 -0.000580570763940383 0.0
0.0026344590529650738 0.00011075859379154333 0.0
0.0030761150622327016 -0.0008694319881429657 0.0
0.0031947714943301136 0.00020066609993269605 0.0
0.0020268828521822846 -0.00020593389053045032 0.0
0.0011282710200311448 -0.0007478475759335951 0.0
0.0015263395816921916 0.00023064724878014127 0.0
0.0001033849419049011 -7.193217689362523e-7 0.0
0.0042093591401263 -7.980683291576643e-5 0.0
0.0004428778937620255 -0.00043702329101682824 0.0
0.003239865896398182 0.00011745536750986924 0.0
0.0007816838816406363 -0.0006520738242090976 0.0
0.0030477021459899825 -0.0004185882727506406 0.0
0.0008963431910739369 6.608456436929338e-5 0.0
0.000375311213429763 -0.00022138858822846414 0.0
0.0005420926746601925 -0.0005364460275149628 0.0
0.0004897756024248818 -0.00037160167087909007 0.0
0.001272869897933765 0.0002800476673941573 0.0
0.003436161131300714 1.0284652603339312e-5 0.0
5.241187336913435e-5 -5.645969639069711e-5 0.0
0.003672637996374428 -0.0001244923703489705 0.0
0.003314703835775362 0.00024730954533038596 0.0
0.002759978525435629 -0.00041314970237837435 0.0
0.0020489290554681597 -0.0001609498033512008 0.0
0.0011562280524042845 -9.788977125642031e-5 0.0
0.002100541263933616 -0.00022450859902238259 0.0
0.0028072904796509154 -0.0007983637861601967 0.0
0.0013532630303365344 -0.0003833722675918287 0.0
0.0010013772945334772 -0.0007628936000228546 0.0
0.003774072092328349 -0.00034189397736177074 0.0
0.0028734380580530644 0.00021374095105962875 0.0
0.00044596864030072437 9.971647130582235e-5 0.0
0.0012853159217544533 0.00012044007836025538 0.0
0.0029604495408186104 -0.0003121534670303253 0.0
0.00279396374048269 -0.0009484723737005813 0.0
0.0017640957249862993 -0.00037392958111060127 0.0
0.0035405857780952026 -0.000672884564961949 0.0
0.0002607056068315521 -0.00028259523935584907 0.0
0.003097884121588397 -0.0007523504366626269 0.0
0.0014508255512009178 -5.772299956250351e-6 0.0
0.004141209058426761 -0.0002581709250200528 0.0
0.0013908500963335587 9.340021281697344e-5 0.0
0.0027065317631291864 -9.726958917076805e-5 0.0
0.002326387142407567 -0.0004700268825279411 0.0
0.002011575211161166 2.8411008132451933e-5 0.0
0.002407203205812253 -6.086947386699886e-5 0.0
0.0026936213443010467 -0.0009653715360757405 0.0
0.0034653548506300906 -0.0007018165626157672 0.0
0.0010886510821677456 -0.0004338548609607315 0.0
0.0024675199758933527 0.0001391457764931095 0.0
0.0024087994615927316 7.016309969850952e-5 0.0
0.0034510648396538475 -0.0006317425187449893 0.0
0.002035184887693054 -0.00018780074685145886 0.0
0.0019391169219781918 0.00011206120451864578 0.0
0.00112150131797952 -0.000709270381717296 0.0
0.004115033491897656 -0.00026077565036992635 0.0
0.0029146408008607866 -0.0009524490522894792 0.0
0.0019677055489457714 -0.0009169600818049765 0.0
0.00424227499417243 1.9734409544398765e-5 0.0
0.00194058746713958 -0.0008110275745521361 0.0
0.0032342476803781297 0.00021253710865756694 0.0
0.0011649155931611442 -0.0002092300250317157 0.0
0.002873931707284992 8.450647353781846e-5 0.0
0.0008427312016791393 -9.257266038324001e-6 0.0
0.0018357961754276336 -8.075476073561397e-5 0.0
0.0011837256153638476 0.00037010838131360397 0.0
0.004318825072959822 -5.116126316904461e-5 0.0
0.002705112077421732 -0.0007261425818797536 0.0
SCALARS damage float 1
LOOKUP_TABLE damage
0.28821169892837845
0.07303491194587602
0.31698419519104504
0.10406071231147673
0.9639173489732727
0.9688783451343644
0.01488011096340711
0.44598993288476296
0.4375275266991729
0.43839877208162503
0.45798805960842953
0.47544130836841964
0.50096072947157
0.5260199523709951
0.5430578535042457
0.558875853238025
0.5569816834133318
0.5538426123974188
0.5426453544835973
0.5237651672162041
0.5050668833485924
0.49192226140265183
0.4699524075418626
0.44470142320578515
0.4278270200917018
0.40404899328723276
0.37358249488069994
0.34633187370754864
0.3096642779649816
0.2734424058398115
0.2309575151148907
0.1837164320495945
0.060667999212899074
0.1165827182106773
0.13033268194097752
0.15110491884029795
0.16587691928807424
0.17734137884757636
0.1904726664036575
0.20038524937588015
0.21070136344343554
0.22111910899351625
0.2295048546223308
0.23932440328764343
0.2493461890783124
0.256378250325666
0.2640473170994401
0.2728409618438837
0.2828793296484358
0.2945547439708834
0.301656448194399
0.31108557855949204
0.3203702976735938
0.3330297886905432
0.3381173125126585
0.35341847580798347
0.3603866971116344
0.37462863881198594
0.3842276743412004
0.40104924140257836
0.40609206737518294
0.424706304000858
0.43665543194902406
0.453192409243595
0.4648861990611639
0.4828807501049456
0.49321601967051837
0.5083588856835521
0.5267204790563906
0.5488687955714862
0.57122958543843
0.5901017494122116
0.610846086863507
0.6395570342330194
0.6590436107459311
0.6845846434955577
0.7139524408407061
0.7334792382942066
0.7649835862449513
0.7886504081985224
0.8137732045705768
0.8432759453851018
0.8666339776526011
0.8767076765988268
0.9056930332221385
0.9146502893719437
0.9360501728638667
0.9333402185323527
0.9298113989785026
0.9132026012540183
0.8928352740599365
0.8648213991539275
0.8405123462710294
0.8139654266052125
0.7932912468331684
0.7662258391937976
0.7534214353950616
0.7314591083351929
0.7069459678658807
0.6904097728043215
0.6716363348484209
0.6614232198954892
0.6384997319988585
0.6322282120270919
0.6174458040639036
0.6042305093385512
0.5940231287450087
0.5745900654793663
0.5679581259332839
0.5562400467642236
0.54408141027451
0.5287042498475703
0.527956657831733
0.5080774094992392
0.5013397888024658
0.48684733124044455
0.47684236887408643
0.46708423667283233
0.4518714450236078
0.44110179154953694
0.43199817672432367
0.41838957274637306
0.40211366125820736
0.3855767456508462
0.37320210162804784
0.35669226635824053
0.34189845905610033
0.30578329515585356
0.27663194125963814
0.2610657424222897
0.16161300106169654
0.2117786175819182
0.2730067890428833
0.3417018733401781
0.383835527709487
0.40858532330442177
0.42882099455831324
0.443773269291373
0.4543948818169609
0.46244746170681644
0.47339472349703093
0.48076697223559506
0.48765551155382564
0.49426146906813345
0.5003769334008351
0.5021345224344144
0.4991551715527564
0.4921196927637352
0.48587962534882484
0.46637823236336257
0.4579530939761266
0.44600530101565805
0.436008969586038
0.44299851807395096
0.4532841982670193
0.5282133904562765
0.3836454238634753
0.7568384731111556
0.9823740758332378
0.993589111445243
0.9797407403695297
0.9120479086283626
0.7685700101627057
0.6663491900607739
0.5517835035537217
0.45828835026142173
0.3669348441941081
0.30794626329103253
0.2382333054809064
0.17414892589519732
0.1111352281077178
0.08378193675828911
0.01029139030599434
0.04087171287811756
0.0785370311494164
0.1297688131815989
0.19406957596066085
0.28058905376391313
0.3854331663468638
0.5237384612412053
0.6805645068114278
0.8662372102671658
1.0091303653984134
1.0030544089257611
1.0038109684484873
0.9382398114172468
0.8055645717929508
0.5271925810219431
0.4179072945816116
0.6695360536353386
0.5235187317313307
0.7895340171395266
0.6684352607248648
0.9285555296530252
0.8188205835697703
0.5877302406228899
0.34968264920168923
0.5320035575409471
0.30044104298483354
0.5233247900484689
0.49570947210587013
0.32441655923164403
0.3536886773090588
0.027089093475459836
0.16023327572595258
0.47200139845951644
0.2567276193539928
0.4621257872361633
0.472985768683894
0.4754449761354491
0.5387970282647165
0.4222841053301588
0.21604075401142628
0.6038884799152323
0.38213045363997544
0.39943736652441286
0.43958407006954986
0.5973761071063278
0.7450849986926297
0.8609887657557254
0.8793138221645408
0.7369497673347954
0.6234461103883765
0.4783549963140586
0.38121311594986973
0.3728412877554979
0.1834201403509577
0.4373567791397387
0.5034967980805659
0.38878024515967974
0.2996095785505342
0.7668836167381049
0.6534418704102993
0.4334836519987851
0.44436937359584056
0.4987788533502084
0.49169185152265876
0.27717881607542094
0.07584762506887602
0.1420226344143204
0.30857698500591574
0.6941520376332191
0.9162811555715109
0.5575179626681219
0.444440067381042
0.9044502309131559
0.5620802078629464
0.3295372159959425
0.5067100235057713
0.2804411097001573
0.23618840797844856
0.4453981073445602
0.7049897899652312
0.6903255678752181
0.3142800614604741
0.22205774287501698
0.9583710571516574
0.9370564462601316
0.39629900488208164
0.4745154375926353
0.10842971144416118
0.2480270829445764
0.9144837829558117
0.6540386649031398
0.500285559540577
0.5181267423296141
0.6177745649614518
0.4970676466208241
0.4524908224142598
0.4358876886285174
0.4149035319812726
0.4013312525296337
0.41183750041215467
0.39189841028364464
0.40126600207395297
0.38885392276254743
0.3985163265306917
0.39938257070852085
0.20988211378405622
0.07696903372780707
0.1847177762212681
0.10012859654304175
0.17786671372515897
0.12986313641604935
0.18380912977132646
0.15291475911137897
0.1923867185684688
0.16930135606418603
0.19752112851288064
0.18497797777282912
0.21033280364864676
0.1973372214803043
0.21834899947981243
0.20964129397489858
0.22659571044024
0.21813141867633065
0.23324357028969242
0.2274345995875995
0.240309182425543
0.23681403438311457
0.24702717108707314
0.2447642489247007
0.2556941562011446
0.2546618271120932
0.26375169724773073
0.2619515661395548
0.270860657112069
0.2683495603119865
0.27815137038752064
0.27864161476343136
0.28686950689694357
0.2875905343890494
0.2948709455918342
0.29596441163235493
0.3032633431299568
0.30529011414106827
0.14571501922723476
0.3122224628649222
0.2163465850909833
0.2743654247252548
0.31451264052350814
0.32179627486078116
0.32448662049006705
0.3173361111499951
0.3275258449524454
0.3318783108110504
0.32945015577916786
0.28634131255433665
0.3399765668886801
0.3374060148602277
0.3476171412148063
0.3204209083646321
0.3310317934350171
0.34515030240489575
0.3241975618794645
0.3349364087236837
0.356843651192461
0.35478504042555914
0.32912092112201763
0.33982457752039363
0.36683236804436314
0.3652211107589573
0.33371802833608527
0.3442609185866809
0.3778332732132552
0.37644559640070663
0.33732021731533496
0.3489559235931497
0.3895098412838228
0.3881937912834949
0.34150435005866636
0.35495455816036997
0.3470012125911979
0.3351084767391169
0.3910713554396911
0.40178026131888733
0.40001668995348894
0.38608075632877653
0.25213340575238197
0.398887759181397
0.3846874634535578
0.397749378474399
0.36049510606224516
0.3531134168296041
0.36582925732188426
0.4146738223673045
0.36418912418114663
0.3564851755596833
0.23491883419353185
0.36710755801737766
0.35966933389199496
0.36966317476090366
0.3621505727058293
0.3527203287859096
0.3547279501228107
0.34797769501248593
0.3717538483602614
0.3524991705529242
0.3443819501875691
0.3806497314549099
0.3814659091104695
0.34838878217345376
0.34258077191606795
0.38602008254026504
0.39874548342230465
0.39073403923803385
0.39015757108823895
0.3881759350521896
0.4021493980132275
0.4138269600767769
0.4159527081824595
0.4320563241111887
0.431447893141112
0.44822412552767543
0.44564352666202955
0.46384703830929924
0.43206536001592327
0.4592361736214173
0.47974269245171025
0.4005516856974883
0.34716536688272664
0.3423022740957217
0.48512281581236305
0.5018418699600187
0.494032540897989
0.5124011505426583
0.3994432806190428
0.5173272577452749
0.5067802468291166
0.41053044511570586
0.4095774856729199
0.39882652938241064
0.5307396558179063
0.5187972119468677
0.42211340632428773
0.42396728331813605
0.4076820360503735
0.396495119303252
0.5399625644813322
0.5285409884355223
0.5043187141888296
0.5536399254951959
0.511743673604719
0.4921391097853005
0.34732302079679067
0.34445203748920483
0.33687497682141765
0.3442753510005045
0.3332710812367425
0.34208831682602325
0.3296373667513033
0.4362420515894636
0.4380849808054523
0.4040758062879571
0.39335479505665566
0.5342750044192242
0.34368369209485655
0.3303239372019261
0.45103728794377046
0.4531317268528773
0.3492949059097178
0.518093300272284
0.2471606625047091
0.6602878889044992
0.24675318994927933
0.3924002548706539
0.34608713874919034
0.33174594594302664
0.401482214285868
0.39111517123027134
0.46646509656958407
0.46988808675543664
0.5402750454028402
0.3519265156518606
0.3528118313236526
0.35660386028714647
0.520718816063205
0.35354712971019664
0.3360243004719157
0.4632419560426719
0.39690731960487513
0.3864829637153026
0.3789004429220297
0.38604333986217704
0.372371517424094
0.38419400549550303
0.48368612775677006
0.48686196480004235
0.3224288504788802
0.35951762302876766
0.349446031624614
0.5437521297461675
0.5607407275472137
0.3781247086767136
0.36182563115894817
0.5260331380320268
0.5045673904535088
0.3892043910957992
0.4088271827061206
0.502614298201545
0.5053138603563748
0.4887767502104076
0.5075574293610702
0.48980552736953215
0.5087637091135432
0.48978138395507376
0.5082579629851784
0.48801994584855657
0.5061814965913678
0.5281641282912662
0.526002095729561
0.5498283379458091
0.5470199740738603
0.5727148440070987
0.5690899752451402
0.48526939011877185
0.5421637441150745
0.5636268784751703
0.5930222662299
0.5868979291413627
0.3562156075390134
0.3558755039926516
0.39226502478031877
0.38218144918980895
0.5568000422052176
0.579290551321308
0.6120396266795781
0.6036977550514097
0.3610061335706092
0.35863680186271496
0.3708465371287799
0.38635249391653
0.3741691446572677
0.5474702341715563
0.528589051392635
0.5229077758599642
0.31305406426453875
0.3596961667507849
0.6392667685919153
0.6300138062142913
0.5942825282310292
0.6205704354114512
0.3433445123321417
0.39493296231712355
0.40588409927655156
0.37511266143010036
0.3869239764253537
0.3772592731733998
0.38141823701834093
0.657934069557296
0.6483973877786519
0.6096187058290133
0.6385069555905716
0.6000190191218573
0.6269439733588689
0.6672881255554804
0.6537722673828107
0.3970511427345458
0.363996477963875
0.36000893750425483
0.5198174534496285
0.5510923772810399
0.5332099081546816
0.6908794593071036
0.6787498281873774
0.37759712125024614
0.3827857726392389
0.3723579077597049
0.3318955278405953
0.39314295535445987
0.5411337526429828
0.39547664311427677
0.3743363711557146
0.5558190194076408
0.5316089537063126
0.5063599985019719
0.4073798063120156
0.5687697189292874
0.37052970561814413
0.3890777428926936
0.4120105043835853
0.3992038594723686
0.5903119919561247
0.37527216892173676
0.3657237375477233
0.36641072076190206
0.3606747326791107
0.3844688270900707
0.7151987110005141
0.6966914567775425
0.36311769267170985
0.35738283339018645
0.7293927250939954
0.5360428637819087
0.3585188726467515
0.35052062251773825
0.4727351535904896
0.5060085301657332
0.48371165469659666
0.5312164768680828
0.7312648348874499
0.7120196077290301
0.565634226563235
0.5569140744511712
0.5585571867294429
0.6798052047149398
0.6925012542451899
0.36945830004280394
0.3604842475765156
0.7219308559874346
0.7012139292455495
0.35057357141255935
0.3426505512486658
0.4356094787185774
0.4259266328859961
0.3435072559401103
0.33616620559033633
0.3333261445261861
0.3270191720335133
0.504507738843808
0.5284926031852492
0.37581902188878424
0.39143222513555914
0.36018259269087394
0.5532159029771075
0.7285991605868793
0.707714665444101
0.4101136224096609
0.6618757023051661
0.5743645329056671
0.3307366420027505
0.3224165723928775
0.318337565083199
0.3129359584018612
0.31831516738903876
0.3091124447817521
0.3167512147118449
0.30772680588294404
0.31944594213756095
0.30992008425511547
0.32506966198086523
0.2975878338038013
0.30367922004499853
0.37049619671657213
0.3817132784489463
0.28239531819298325
0.2898873219754606
0.363475590534692
0.33954115814091274
0.534442544421301
0.5269920709332621
0.35639068195636936
0.5768696665928276
0.5813640480552194
0.5483704420011002
0.5194977949013599
0.5024755950880874
0.521668882629126
0.5394681508423922
0.3859001958189367
0.41606442232163127
0.5307467949150998
0.5465230831657758
0.5254287791952474
0.307500286787115
0.4586998626319853
0.4564363163445525
0.3542613758242737
0.7321542133624812
0.7115507348878001
0.6890030683000645
0.6940678805707978
0.3601586073596506
0.3790748036760963
0.4396716502774839
0.7506292027638941
0.39015604837205325
0.7131679777560769
0.6963901317476501
0.6749206534481197
0.6786424332979831
0.6573197621556728
0.6614505799872061
0.6785144500758461
0.6620925947586563
0.2725155257679173
0.2757033833748429
0.3002901857567673
0.600163825758139
0.6081056541511853
0.5394435066550363
0.5187940179976543
0.5260359777316739
0.5104281891353237
0.41072632483361826
0.4202266497440765
0.4060650490860071
0.39769001201107557
0.26950591795868883
0.3898803252053848
0.35846150823105005
0.5383984378643117
0.3222947175478647
0.36882567112233183
0.6744023687726736
0.6599994099037478
0.4096109142911704
0.3998639838104251
0.3531437514679093
0.35591239850431133
0.3843183540769781
0.3975041698430136
0.31361999883440184
0.7109370859206664
0.41773066644209617
0.6472589037157421
0.43288263194946786
0.25817647761596485
0.2639258149872102
0.3599738130059557
0.5402381615223467
0.5121292922711916
0.5610013453268151
0.4153765211533926
0.4083788607808578
0.4198791047656089
0.41629108308639834
0.4073573732669065
0.41504008589754077
0.42397934585004654
0.42123276578552526
0.43160228685594243
0.433684177094568
0.4392051429975046
0.4412809719571743
0.4479229534051511
0.44783670869335956
0.44467639147412985
0.4522985196993858
0.4550270111086004
0.4099315618623189
0.3557328154664289
0.35152849004848336
0.36098727236175887
0.45931182302670637
0.4596608693551891
0.45659572199768456
0.6772211653609216
0.6845862596746419
0.7164783773377779
0.7233561116714065
0.7566239159698632
0.7624158165374433
0.7276912045015711
0.76462179436867
0.7281649587859776
0.06951272653850123
0.797576087563382
0.7910406966207073
0.342995613296835
0.46870831673224767
0.465223191551386
0.4500585749358097
0.4459746790000709
0.4321062074283879
0.4277352760004821
0.44115486811768395
0.42273047411960657
0.43645194734216725
0.41683997974025816
0.4302341729538272
0.4052321897743929
0.41485731982542473
0.41941878163672924
0.4499373367285201
0.4437936842765657
0.3521318985650215
0.288940029177863
0.1809830325488569
0.5492559107042456
0.4764182171178804
0.4710205827403741
0.24146430465981006
0.26515155736909074
0.6515903404757921
0.41276741604988687
0.511687824686392
0.4971049682683641
0.30290827185339936
0.531857430314975
0.5116117903883154
0.23209769874481143
0.7609792363365345
0.7228508892960376
0.4992484975536022
0.4932788951179456
0.48103074943619406
0.476178026563057
0.4871313145840797
0.4702840744613471
0.48146689378903346
0.46425922480554566
0.3040381945630353
0.4557082487976663
0.4990248215022731
0.5020546108056122
0.3824326707878688
0.37886399087224554
0.4520368618450015
0.43768601034035987
0.6278989201508194
0.6344591802975619
0.7483080206383519
0.32582489670550163
0.36428569694758123
0.44595298577718073
0.5097389070644479
0.6343247585126074
0.4857907559100324
0.645905361573006
0.6436856555125968
0.6522772189107238
0.6372256985493172
0.3134325488174435
0.31217381564153346
0.411677391309992
0.43472252702577097
0.5894013732452855
0.36237175919807507
0.3712101829554942
0.7661645806057803
0.464782373087613
0.5061144060512306
0.51319724535402
0.4922863082113733
0.47870759521889417
0.47907546025757525
0.32677789881358227
0.24204738976300041
0.25010053169481294
0.27798028219896664
0.4353756697486451
0.43474601851805783
0.4411482309888044
0.4373022079442642
0.4607248628593004
0.46260941062062405
0.5240554129005417
0.397913757901757
0.420863763035798
0.41636361426448215
0.3917390987407111
0.40769074144998263
0.40440721848598216
0.6907535841734184
0.45486844583978864
0.4482439162960873
0.4576606617124807
0.44263131916038545
0.6299434468201727
0.6255509690211264
0.6277514049432822
0.6149277729117675
0.4921653282534395
0.48596517903645486
0.8319245303925075
0.8225957072975485
0.4029156610416014
0.4076307706891093
0.6159564495983791
0.4495345130236534
0.4350423839346763
0.5519330353015313
0.5515543395626411
0.5652404243228042
0.5596695126699038
0.6569056653048981
0.23942402206738625
0.33189535421311295
0.33960538941252394
0.404517291398585
0.41892393630461744
0.40785412805786553
0.433821258025795
0.42156105159063956
0.44818873529872216
0.4355244294156716
0.5337314097813406
0.4337407469065396
0.6269066153054511
0.769150178900149
0.7847067808467543
0.7872840763074807
0.7549460953713175
0.48441177785000195
0.6109859049338154
0.4620057951276989
0.455391864882423
0.32642815201484515
0.49940915437896255
0.5292567753094053
0.5211684323516264
0.7993574837223308
0.7171896212986177
0.3537711852584158
0.4603281498860429
0.46302589548923667
0.45992384607192094
0.4602773841352708
0.5631670469561004
0.6881113812083198
0.48665691037902
0.5286039830287445
0.37298805087758463
0.5322810226656675
0.6469980465083062
0.6305130593652118
0.48342852534858033
0.4899345629242906
0.3727000568376002
0.3826179811906387
0.4620456588494854
0.4496345648572571
0.422239520643356
0.4357654942131347
0.4618974072718468
0.4476861307188171
0.4712658117579433
0.456804801397841
0.4774922863170803
0.22748391020064054
0.4937176457778661
0.23677429787829704
0.35271645489283143
0.4513937686337622
0.48128575730674544
0.4317439883286941
0.5176011038678257
0.46151978745072764
0.30056656736895027
0.2934113133188478
0.4659472501985417
0.7602491862815506
0.5439452149836587
0.5990741156872667
0.4515074410509496
0.42284575808100416
0.41050505321332115
0.4253972823840425
0.28648558932927537
0.4139457041498845
0.3874617450403672
0.8605313858058155
0.8489127074944005
0.8125357310423993
0.8365052708011373
0.6444003752060843
0.6146933766607876
0.44575225902749904
0.4519857811011892
0.5527032749527426
0.5852499618631514
0.3428872420271659
0.44146569859916585
0.4275992952918834
0.34366693463653397
0.6218502110215837
0.4765063123174693
0.4214423795854779
0.8664901763972919
0.8516449975331276
0.47191804277286087
0.4764223676700284
0.4542155298516871
0.3279101445167104
0.33466756867313213
0.21089374147629203
0.798230656733386
0.43004525993048837
0.7472295070412025
0.35782859802594374
0.3468351531108636
0.3071896298688741
0.603803397418621
0.3617281927730555
0.35547914734457003
0.36081051221548455
0.35547344435092415
0.3591834519916969
0.3506159178488297
0.8025736985865325
0.8047320716484394
0.43004842838624474
0.7859313779883185
0.5991690159286086
0.5989581292063314
0.3830468858074303
0.4118373816633981
0.38959490021922377
0.48455759996881653
0.47131565100045963
0.41030299240204543
0.3932504628189192
0.39120920317396013
0.39483258886758016
0.3736405852808552
0.4125597927489152
0.5104606365106643
0.5204308041919276
0.4746821755532047
0.8674899481690151
0.5371237186238547
0.4394257962639927
0.4287838718156934
0.29296312566216626
0.43142806472371287
0.4677837691953441
0.46456944208479073
0.34494592597514034
0.2890972307161143
0.28188978700559786
0.28759140835290836
0.34372654414794873
0.2213097579114199
0.25548173488589154
0.8742829358436166
0.856347184412839
0.8306055796698548
0.6149692979277409
0.6139641982331747
0.5988502562223189
0.3517504848481377
0.34806186937999906
0.4815319778031593
0.4646442345970553
0.4621748204579377
0.45054189856815835
0.436203642897143
0.20863519154310167
0.3515406522366081
0.3337271248884771
0.32523037754567846
0.30768343335014137
0.3074521434128371
0.3124828564994455
0.5030370504605497
0.39243674246731813
0.3872792244121323
0.277861906612922
0.27024575027122505
0.40009465595811694
0.40406768835889223
0.41668684837633413
0.4174706913479051
0.4085493721516825
0.7129116177921722
0.6860591463305767
0.7401327777845481
0.4003341027980681
0.35555808130155064
0.39917550857943424
0.49785522272213073
0.8172159743236003
0.43138076405552767
0.5711433502560159
0.3248257880965265
0.3078515102898134
0.32272515749776226
0.31170608139667644
0.32476074158789897
0.31760580793896576
0.330425357618658
0.32542675826752737
0.3379222725835019
0.2986136866287109
0.3140245760581625
0.7896105295895132
0.4382848624319628
0.4694565982405348
0.4545851847217838
0.5022623042648543
0.40285483999823185
0.29037788897227285
0.45470815780465135
0.44736895940695826
0.2461633538895142
0.26138052474233475
0.42621255872635755
0.47527803852611067
0.4817487094116318
0.42762440136946545
0.41401684542361816
0.32218697717980466
0.19276952013514845
0.4203918212242859
0.39894458322997417
0.20639917446498512
0.6006990106556066
0.5855336671946669
0.5985547223547751
0.5714110952596959
0.3225918550100516
0.43851290557864747
0.3049888989723919
0.4605381744626904
0.43924352803709965
0.3798815271971953
0.3757806697061055
0.5586251801701441
0.6873568529672294
0.6761072961106562
0.6878211515077222
0.6707813428494591
0.6780043582949948
0.6986082126793395
0.7274564667456027
0.7854520331273277
0.44550328104834386
0.6538369420330272
0.4312666040278267
0.4022300395941201
0.39385147070531207
0.6624576356116987
0.6516516636105125
0.6465994966892796
0.5682002643410986
0.5728008612063724
0.5982474519176365
0.622505301566433
0.4183199906962832
0.5722552769391261
0.7716068709123002
0.5989219124133973
0.5908369406150573
0.5812130092929939
0.5897905418550061
0.40129974568364857
0.4985914877547714
0.49026646217765046
0.5075613975836453
0.500042177073799
0.5842665356563173
0.3527541859838319
0.33461308211892943
0.4590973647151415
0.4804281608184185
0.49324266034328934
0.8219009100083
0.8284378268192141
0.510287149030608
0.4306740312510046
0.33321690655523223
0.5697904776409076
0.5626466013670575
0.4281050105517107
0.41065189165392274
0.5562503957626564
0.6117821427138976
0.6177813422889302
0.5695013626117613
0.5859807240752222
0.4991583643713642
0.8895514039441932
0.44480933285293395
0.45326466019909323
0.47674819685336184
0.5401817766651543
0.8898631723907475
0.40232093033738964
0.4495264263477637
0.3512397880414029
0.4266630102374704
0.647900870178556
0.35502171197613475
0.5306230316489268
0.7081180262633644
0.6859662893558514
0.70947611797299
0.6403909792854356
0.4594386415324451
0.3889566643294616
0.6206651103565165
0.42907481585488033
0.43855244366350626
0.4346722232911897
0.40626468822365325
0.3880893046995621
0.3982748262635677
0.48964675864067814
0.4706556198286112
0.6057339895677898
0.3380158336389314
0.34453007273990144
0.3413233486671951
0.5980856336612561
0.544958003205189
0.49345858766810624
0.4803387119439641
0.4649043039880089
0.5111183731035468
0.5093594546141131
0.5106268797352903
0.45535273498463086
0.4496545960172036
0.454712235064849
0.4423493109086255
0.44683069730148567
0.44158506592521357
0.5577388917085102
0.42000711785717704
0.43657245883252316
0.8727726281364825
0.5100120500181556
0.485068700282914
0.4787518715410255
0.47028075094754096
0.48387613580827826
0.47430792677390465
0.47552247765759975
0.3640373769423433
0.3621449690354301
0.35780220585425393
0.3597715006222035
0.364897186340812
0.36022527012711864
0.3660022113869203
0.4352768755808851
0.3617049441373484
0.3668507227039755
0.48983928316685854
0.38048233747165916
0.372745282760938
0.35713357893012176
0.596564428059828
0.6122146087683181
0.7127529678438809
0.7374638748979448
0.5579590774428714
0.3098683113056633
0.287914580741257
0.23053954061887105
0.26276590015528456
0.2938471216708782
0.25117193078679495
0.2691228130019423
0.2177199716320721
0.24095538694671742
0.1986785855929845
0.2302853685321957
0.2025578366380343
0.22798772005984244
0.21047916397543273
0.23007250532375803
0.22122587600388408
0.2367526978953959
0.2313190999881936
0.24540459723562394
0.2427952867997625
0.25508541323859724
0.25443942946642717
0.26566961058623717
0.2659228046520296
0.27639803367653726
0.27648758197126
0.2866503120489493
0.27885241605494954
0.2521138558485691
0.25632151812495546
0.23202810223444167
0.28852631223415437
0.20413571786781884
0.2877971737540927
0.2967626105156236
0.2973779266489076
0.3066028413869438
0.24924056550189397
0.17641422090428607
0.27880000277291656
0.18900235183092684
0.3083446659561598
0.3168103562978383
0.31518949822867687
0.29079947440302406
0.28560658368973935
0.29972530643315504
0.31140987150303573
0.30390725873055263
0.20813920138646347
0.16309271973630332
0.32460633443410297
0.32364828830741343
0.31562032597478573
0.32416602399762684
0.8953801674182907
0.8687880892406004
0.45345300385359816
0.7559170410741314
0.7858035737742558
0.45881646979163593
0.47392841814001474
0.3917019318252893
0.4635081994026433
0.32697242206966504
0.41347972910722797
0.4101222881742776
0.4152434070224732
0.4440686129544714
0.3343352555769271
0.440746819268689
0.4421829462025412
0.3184711940223213
0.2952340024400383
0.3287815301904478
0.28663708936377413
0.3531007440880517
0.342674861850838
0.3499239930258866
0.3452550791867122
0.37438899686384614
0.38385438007569983
0.3696653715003327
0.37902010657551505
0.36481858918905724
0.37441146088395755
0.36056806743014036
0.36978520440967366
0.3841887518999253
0.37801460876751514
0.4348448941414827
0.4208903880917963
0.4245268887045426
0.4081385382859469
0.3561125862807978
0.2661081528343954
0.25954382898403955
0.2631551937333461
0.25243797636086324
0.4866999541997018
0.47604427370972424
0.4984688167960543
0.3531311357842768
0.3126275893286511
0.3046370343566855
0.6712301585810475
0.45724613548935816
0.4369699518850474
0.42474059677757053
0.4313175389184242
0.4085581423582354
0.3799549462536957
0.3843866423819117
0.35558323204184117
0.35681685182507145
0.39410361949449196
0.4924303181691058
0.35745222120578746
0.2871397589724368
0.3152942820502995
0.45704651654868333
0.47857553826365373
0.5964733453024472
0.5990146709210011
0.5775491502258683
0.5101997859823607
0.5455443811258676
0.3965618698650283
0.17184953066945682
0.1719277732391088
0.3546383893134391
0.5610145361083385
0.5892220016734032
0.6047197655478874
0.6256982068210047
0.5158256838727814
0.5752672965528806
0.5898100304490289
0.5772038214768066
0.561977611683176
0.5658765944705887
0.4603247499473249
0.47073186572119785
0.4751368493364753
0.46699546624447635
0.3499081916113156
0.46745705036145613
0.46505534226225326
0.750225857670141
0.24719305900380148
0.23842876132439184
0.24747832236040168
0.23353807758834375
0.4268756999437784
0.45860970640547655
0.46707123381340004
0.5848223462549084
0.3825517547490182
0.5539163705357997
0.5387809879621394
0.5309608669078734
0.5131012619198994
0.510526648308059
0.5251272892368878
0.5027322680640187
0.7646451165401145
0.7581444580861053
0.7192274285571056
0.33367434514009753
0.35654346476580356
0.3276442341996838
0.32639726853659967
0.5086010121639063
0.49101970849732124
0.4026504245860159
0.4783540925988727
0.4138829105542321
0.39710869622591294
0.42594132064397805
0.44064759408974397
0.5844766136342928
0.3251461191954109
0.3225689400777108
0.6095590118712044
0.772147399066884
0.3712710634417593
0.35452046358693173
0.3792170757638647
0.6199500687218421
0.5807752910592299
0.6570894568950814
0.48503962479777984
0.5942547239649171
0.42550684735224387
0.33451058034295467
0.4568372289429027
0.46843550792266986
0.4904910197707394
0.3476392133518746
0.32194156478046354
0.6213030004205886
0.6119272890861025
0.1851660079717581
0.8575164804490567
0.865267300332789
0.5976817079208174
0.6097059901723385
0.5977843546182314
0.6224691090425258
0.6183005470276202
0.27104939122940425
0.2798945384450051
0.39076319036592366
0.49119736274333886
0.4012215311928795
0.5988071413936549
0.6272298416809104
0.6326256335407344
0.22529492388424824
0.21814098908755042
0.4592428482109629
0.33856065375144434
0.3344599406362848
0.5161532036996931
0.4491310612879127
0.4277703707229283
0.3321086476893136
0.820159113789751
0.836035462075845
0.37390535859768653
0.3674931525832335
0.6066903127658717
0.5772071556333116
0.35610177658405817
0.3476343136733545
0.14971440992205468
0.9092710674666649
0.35529849745675945
0.3004039881179974
0.30354435421375087
0.36906454524795623
0.3554387596533398
0.30802316011863196
0.29731560013654
0.301908913932055
0.2919828027410174
0.2968543042918096
0.2862551086460865
0.2813136038605559
0.2757744480464128
0.2702313874324922
0.26540668554355823
0.29326656889608843
0.5158446174588444
0.35983586378832844
0.36990304896283943
0.21923013143849307
0.14240634245859327
0.13466402457652552
0.17537822147290102
0.17284331305710787
0.14341749865384112
0.11923264199308892
0.11317975942152868
0.3526212987192484
0.33271225423747897
0.4466764688952383
0.41630313511419914
0.4125756722733257
0.6599383428617833
0.6734990701045146
0.40576747186295054
0.4102423067798223
0.3994596098222656
0.3101486402327416
0.09727415194230464
0.27111283634103434
0.2606112105939816
0.254402256940858
0.25019524786710295
0.2433906625465167
0.42170240927882296
0.4317419756348418
0.11837593679333727
0.6585758788645656
0.5641268384108491
0.45518796386356947
0.33223149242941175
0.2934030370507089
0.27981520678493976
0.35594110327129636
0.5211135266447833
0.5779952253922763
0.5594799365399569
0.4057702094248327
0.6317534706189122
0.6484511636389291
0.6622266412796323
0.6827904423581365
0.4321561333637585
0.4618206500848658
0.4363041704179555
0.416224143408794
0.39321492098383415
0.3819653728265211
0.6888707477256701
0.33155186288632865
0.23987086773490252
0.1899609209158699
0.18786582754645903
0.2030178843756899
0.19471359242313457
0.20896633820043095
0.1782490126432941
0.21858458517090376
0.22188931735217152
0.18962261802773958
0.5081527041626115
0.22987872333121312
0.4890078302540719
0.32328418839061523
0.6502803432828045
0.6533407082950454
0.1713896367650686
0.16033899358746606
0.41917015834332305
0.7160453579994467
0.723371620727937
0.7177671608225396
0.7338659193305649
0.7238000968712129
0.7461155145463525
0.4405901975483969
0.44374627215671436
0.44786155483665996
0.4432057484721998
0.4465630755945591
0.43741373273262696
0.44391023743563174
0.43427721813771347
0.42583218334192713
0.45183184725259795
0.4231732217152355
0.45323543838198177
0.44438188306159254
0.4548744801276557
0.43501241969181675
0.442320234197511
0.46296035622962955
0.45185377913133395
0.4582209777216267
0.2636023648899264
0.2355650579408308
0.32567726351624576
0.19052111542329767
0.19618524682484775
0.6727545406244512
0.4363959411631696
0.28991838953200405
0.27539428056742365
0.273197671564974
0.2792922224077688
0.2942055330906938
0.2854143035944689
0.2917208336734016
0.2815275626125688
0.22489239892035326
0.40026691423896477
0.42873819233590194
0.45023481155273254
0.47030714095271814
0.441226859482746
0.4659743601787134
0.3655830013661173
0.2552314061661084
0.25786354904240866
0.27142108709639057
0.2827941803164916
0.2965244809953401
0.2444282995486478
0.5165054930943548
0.3549286518529264
0.35579896965273783
0.14083333549734178
0.5447995592632264
0.7454486649984208
0.3479698129128682
0.3747687420070004
0.4329183325018379
0.4207726694543805
0.6932901437093666
0.49261223702781615
0.47372451228728996
0.4750897057891401
0.46661676956725445
0.4673557468216481
0.45656580605845437
0.45504470131530245
0.4628486553138854
0.4396963521917279
0.46262262554279443
0.4553160339804168
0.4803657318286192
0.44612727212990877
0.4683636996821412
0.6577696845457355
0.366974200679026
0.4270663133738353
0.3216822401569452
0.42820710860528965
0.3192575162042005
0.30115902173305104
0.31275177326306836
0.295775053862377
0.27755750346963587
0.27677493566449274
0.29083483418929656
0.3261313330237415
0.35947488924229526
0.31226178588246445
0.5421185961951831
0.4652928317942177
0.5931639819699805
0.27580852493499974
0.6348659537814004
0.5267871006018222
0.5364353505373686
0.25720633597946774
0.35754848175414794
0.39871533207111504
0.3957373780191866
0.39169053327383857
0.3741345069670788
0.264461503256871
0.8128845153801029
0.6804738324207563
0.8536003481461318
0.20053570089153258
0.5223569140634591
0.5507883720344556
0.671458284545484
0.7400041493299154
0.3401227514968971
0.3958816315349238
0.5084332282890005
0.29747389426564136
0.3034717831865072
0.295311365643256
0.34959744843260343
0.30495956360686144
0.3443220977872766
0.28775924850851897
0.29131112098913253
0.4594198573229517
0.46373380480052034
0.41214933432312895
0.4220586907920216
0.2818369556832509
0.5115425012160306
0.47854285191314366
0.6090907868230145
0.43805046111728824
0.21247480536772662
0.4449139057067239
0.24029049751561993
0.5556235668830976
0.4656616270953904
0.42092798360155614
0.43042062703196404
0.415793729225055
0.4024041111065522
0.3368024537597497
0.28622862803559174
0.3202739945490843
0.369800665782187
0.3689590037761028
0.45308618600025674
0.8985474799903429
0.8674441779232747
0.8871802495496806
0.8603160156504888
0.8444360298743285
0.8245551091878682
0.8350177692169893
0.7023399174079565
0.4102695591743106
0.38113352039253917
0.3872950923550972
0.4438005082390227
0.5546698942080664
0.3940576615865827
0.4730897098726153
0.47913012087513424
0.4655368012679391
0.4658973972042735
0.5163606807202126
0.41295571501603107
0.3436533654167433
0.31711505979865895
0.49463465146000635
0.47649152348835283
0.34243903230255596
0.3841315686082531
0.3736746444595557
0.3626551310024417
0.36043848954783236
0.30730811330378255
0.11113804024663915
0.8027340024052436
0.7875659067595249
0.7725329512333338
0.7978984632710436
0.43357366418125526
0.6980549168167868
0.18930578010562113
0.21798300577898264
0.41469193227881956
0.3994586844253762
0.4155076259788622
0.35179301932726204
0.3393577574129256
0.29444299292907467
0.3996467167435636
0.4980347922270062
0.8043486788248039
0.3034692096455535
0.29935830302413335
0.5558226975145907
0.6937044211849869
0.5482526465492334
0.5694661170502077
0.4582936011272767
0.38623833836777316
0.3776591112463454
0.3681002785210836
0.36980646310448717
0.37507374400114624
0.38104049791448336
0.3545239855378845
0.7682517797349324
0.7542441204251289
0.7710591450754688
0.7873959914627697
0.8080956227237857
0.8179707479881059
0.7636026765358331
0.7675759419420124
0.26892589730566924
0.36228792555481026
0.5920015035441818
0.8880255576923618
0.42925548757402626
0.8799996241428972
0.9030321306204343
0.5785150690586451
0.44071684681575723
0.426715872719515
0.47276458118100245
0.3419036702091007
0.4459579539840797
0.6393297590952272
0.4012307671163369
0.40006809494502316
0.4128758897441772
0.3875615460308906
0.41213277191075876
0.3996437923445721
0.3877302485060635
0.374205465128734
0.43507135964083377
0.42276013885701375
0.41212855573973234
0.5521315244205863
0.486070659410503
0.42170203676563345
0.3606589567180806
0.32483601581258653
0.3780493765964024
0.3612665024016463
0.36016298188483437
0.3675169430406813
0.777206285805364
0.8156936897226044
0.8394044961998175
0.79444816241686
0.6534071651272609
0.31958572878697966
0.5292056264947059
0.5048942239624866
0.800550123748217
0.5627136011233469
0.434726355537212
0.4000223159497306
0.3485905492986874
0.4813755339077337
0.49991307105249405
0.44639231739404106
0.5533418708190211
0.5418981414186854
0.5506801703446905
0.5740497741801656
0.4085460436860487
0.5292142495240477
0.41768477921075436
0.33385018384949783
0.3432112203933582
0.30175056099239267
0.4211509822878996
0.7748810983349831
0.29217855344622007
0.6193113869440113
0.6246183258964496
0.6579934352848508
0.6271384563070134
0.658392208780157
0.6901374562752363
0.3803562946889687
0.45691213131933817
0.4566964653536039
0.5018716403915509
0.44407191586713646
0.9118872448891371
0.525871190035677
0.5972705928578611
0.7021731307984401
0.3986126297509507
0.45301328020281195
0.5164958349000908
0.3664567484514342
0.05404645045302325
0.7314600852568723
0.4032727759258701
0.44136767455195297
0.4436975530183015
0.4207806831768898
0.4225444956082603
0.39983326855821255
0.4079682209049392
0.6392750218206326
0.3942039840952965
0.47294638319182847
0.4936627221384311
0.44689230826013504
0.4996185728509458
0.569560365748769
0.7081881234030071
0.3282543554826568
0.48386604587878174
0.4668482353619236
0.4442534014631098
0.4047807959950251
0.49572521247858553
0.35687473394594904
0.42711957551705765
0.30365107685504567
0.31113282763691263
0.362942482199123
0.48009103495440836
0.48429117266970106
0.47021716863434304
0.4605599054815801
0.6274382462536102
0.5518899433931697
0.3321442258094861
0.34098565473964687
0.38044484678576673
0.5030571276400267
0.3702274866245483
0.4864326844106795
0.7496061258924105
0.4526311544204673
0.35160806437352893
0.3642055925996767
0.4616289951377115
0.9171429954764428
0.33228556544280874
0.43962711656090475
0.4306688331474129
0.45558534049491206
0.7083490306775811
0.678461845176889
0.6677883403298055
0.41027749079574594
0.9205178730117274
0.8347765279908187
0.7184563722724128
0.7983878833287744
0.7129284168095815
0.7502831142744063
0.539349921518531
0.43108097122303823
0.8843537000184908
0.5793866603846485
0.3575528689245404
0.46333448915207764
0.6269777659794021
0.6548216570091923
0.4255886352081485
0.4818501849171164
0.685571282427912
0.4009768649607576
0.34965177097618616
0.43875483175577057
0.41895633478416183
0.2545485949089872
0.3891107656374914
0.5300706909768799
0.21155743844558267
0.2036477129786553
0.564856038894534
0.4870320231770486
0.5359743944445972
0.4111807621123123
0.8358227861150147
0.3421339295523059
0.30654311379682764
0.3334769688750562
0.4710756663052435
0.5508279756568754
0.4441968117038793
0.09697317589749528
0.7475660780576908
0.673558111589409
0.42581807740074507
0.5804142748640456
0.4361868060544684
0.5612824896005568
0.5936854250487658
0.5518332649029083
0.36814859018941937
0.44003384972354864
0.9045732907319727
0.5560227115407049
0.5417443435664776
0.33566643178391964
0.8345350037142911
0.5152332739647895
0.39586451198941136
0.4587979751886089
0.35570135350433063
0.418507678413984
0.2824134612176703
0.4993544613328659
0.46666151448004367
0.354896185340226
0.6707990609210696
0.2622589122001881
0.2578788092475911
0.8213050442627065
0.5708744323559303
0.7821430813850152
0.7021467345447048
0.4377696553074296
0.12536301986973653
0.4548692505272524
0.578105922660705
0.56885274797496
0.23578027260536227
0.46033108972061665
0.6267222458361028
0.1653513418001409
0.6153543602659377
0.4156767363585747
0.31879156510978046
0.37400392236272584
0.2044155173836627
0.22717231748899358
0.40577972630612347
0.4656615568900173
0.2947800057955227
0.5477523102136201
0.44502843858820296
0.6024516996539973
0.5746203129668677
0.42804583883880726
0.6623299151751255
0.6906165865195703
0.34512607199079204
0.3183569047257312
0.24638469758411932
0.33383234168001746
0.2665676373002635
0.5842309400278564
0.6819883588378524
0.1276231003466433
0.15376588455764315
0.17196730168646807
0.38940939723028223
0.19367236998086784
0.42509805255066013
0.45747631611066675
0.518178636750694
0.2885732951406452
0.3102319466297801
0.41010924473188964
0.43244817360507715
0.36870618270833677
0.575271393476178
0.4244186977198823
0.4977492531856716
0.4820948003086586
0.26914085219027795
0.2274819756939894
0.462074252398633
0.4750827893567602
0.8788037968089645
0.24535538875157967
0.6432733621265816
0.3425522020817666
0.6121841880741279
0.4476335746392757
0.6651543822936374
0.4405419731759061
0.3863937753429135
0.35009353298787815
0.5055090716965661
0.522210423063603
0.4974255230585349
0.831426928948985
0.30295521855724183
0.23630704236906153
0.5057050655800808
0.6448566504458786
0.3495089298453833
0.5598560858594898
0.39023848808659467
0.5842887725066692
0.411399568405467
0.43463898681800606
0.24881712454640656
0.471730014365212
0.05057679344650141
0.32001856308594673
0.46339009847196677
0.38207794105567866
0.34311680763293717
0.5439678562061376
0.6306454727879433
0.3687821954155897
0.29739054983557645
0.6400685507500076
0.30671470694428393
0.4742258498796001
0.3843954852951236
0.45373443045207124
0.23534023175414642
0.278811443814379
0.4133170217518514
0.444799256759246
0.4301647460459543
0.26638523579511075
0.2897431298224472
0.5839822120404191
0.6042137739442975
0.34128374315770327
0.3304001694355002
0.2668697768196911
0.6925816121160383
0.375892462801286
0.37462216570228113
0.40569114173830423
0.28222804214433916
0.45530918268263926
0.5386778247696167
0.4983028575397268
0.478724192793577
0.49566538120186665
0.43068922661279846
0.5040532478894368
0.37453942836495613
0.24758414151975155
0.3592933396593655
0.31747011973104217
0.37938569555409585
0.32702105014999466
0.7679887042283469
0.3623115297405284
0.43930118541140944
0.6675241479475296
0.5007377774533387
0.2984877818862718
0.413388579131955
0.3536760850494755
0.47622610521462155
0.3629590764354833
0.3509906004034233
0.10423070606631052
0.44814940334150516
0.5664586873445625
0.3547915985449077
0.4706221408550596
0.40129230236760094
0.5307504865309397
0.3137136916720848
0.4272605660857115
0.3512772179032488
0.5363004406402474
0.5130906064648139
0.49637657679166935
0.3161478077078917
0.5027158587155115
0.37901145596579405
0.4691042983953193
0.2547893237891114
0.5237612204995182
0.7403518867095511
0.38893459973893246
0.45301725803067233
0.5207128266334008
0.31046626424246676
0.30643233960277316
0.7265558114615601
0.3377354153529775
0.48871470877783735
0.32775076800207426
0.4563429955712345
0.36639353514196665
0.22426174371613328
0.5223076005666719
0.14549079382840224
0.32631738441441066
0.5886562843995894
0.5462885457430103
0.4747473839517966
0.3534688903551095
0.3866756072617357
0.47243265147322433
0.2458440905765995
0.46145750698749155
0.4052912055883995
0.46466015398610666
0.49687270979848264
0.3715984078669662
0.20655961494689806
0.6008986563331733
0.6271883609257751
0.2897601059200175
0.4408745346997992
0.4187317790215608
0.18090939380463464
0.27834032637670103
0.16060335820878538
0.2579589657070181
0.44513099809900664
0.4616429499372389
0.435747619366192
0.7420911431005995
0.33401378385199454
0.8156757747721778
0.37443602164560913
0.478244941166443
0.47188329877544355
0.29931474050935464
0.20493011303730166
0.21792769706579848
0.4040307414142393
0.5612379391711805
0.4938449683692849
0.4868357598818012
0.46099478046048
0.47118488106541656
0.4641939833641327
0.6425661514790456
0.26709336923875826
0.25990534556714856
0.4332265588342734
0.2753454351396117
0.34196972316725427
0.5414304277226655
0.4964578267773116
0.2950996015899633
0.4777109618485105
0.4282804107359612
0.4351979803000308
0.41993763164972353
0.44725982474155623
0.41938344488294343
0.8008103502907663
0.403821235483742
0.2581798709320002
0.37445581066122113
0.3329851170849712
0.2861937762166104
0.41349170553398995
0.4911006412481396
0.36585565210035637
0.42972621102013414
0.3524463455344603
0.6641976105366316
0.5875705286409554
0.26297743098014564
0.37728388430101006
0.366063628261666
0.31792653996829157
0.5753469233834252
0.3442226185148768
0.3790556504663494
0.5107531182612617
0.2892857204251408
0.6202149618664116
0.614186881556265
0.3777608008499661
0.6843818247039478
0.34881883461588736
0.5780369280750149
0.4555365257402375
0.5061373221508075
0.3715945833191418
0.11182177503617904
0.25897084631115247
0.5896893340443341
0.30754690502001475
0.22935479471959438
0.4124468909398584
0.4203474517087539
0.35254643349861486
0.7088766771338232
0.685502587478328
0.4019900200672029
0.6307685163349624
0.29899318581906026
0.37691293944129733
0.45411233318694083
0.7298496644812149
0.44093319720563706
0.46192320175033214
0.41520023240760734
0.3370933065775432
0.7688192576076958
0.45720650369359733
0.44978240218525894
0.3547711525640589
0.3801717365747415
0.435645666499679
0.47712806947016834
0.5698368293769208
0.23451427471837127
0.45238122688714255
0.5660660657426181
0.6146495681045832
0.46918019993628973
0.7631197661117044
0.5486701512673795
0.3445228055085808
0.3589437198607488
0.31933398890405607
0.36429145086826037
0.15196154447819787
0.40645540522384
0.38676762460145714
0.23824909889639986
0.15520665751483517
0.3179380980279706
0.30899952465150016
0.3658951486751939
0.34370605646070357
0.5579754705811637
0.7157545169534053
0.373786288670274
0.22617128492422675
0.2785559493746705
0.15509687703725858
0.4704875674382417
0.2653709082651075
0.33960751490504276
0.5463138238830575
0.3544541886719176
0.46434696966009176
0.6576739583736312
0.44792027520490846
0.5229403761918484
0.8589533101445204
0.563127650302191
0.5820716859722763
0.45963703118293275
0.5408685216159349
0.42542178518611085
0.4793692170640642
0.310126245470279
0.6099872740648598
0.354394255507768
0.28633000678772996
0.452881154219107
0.35740989811294116
0.6149014769464518
0.9688728550830057
0.9778711161896582
0.4886839891957098
0.19781717780662436
0.46827063407542296
0.8047226767480942
0.7689817513410182
0.38162589940535396
0.3512859359890405
0.3549246178247515
0.35948683309743584
0.3639005972407393
0.4346577163294873
0.3146912043494643
0.25252184243068926
0.2865051278277615
0.4971781717536494
0.4591378129214456
0.28763307339537947
0.4024367989383752
0.26635213146773584
0.6386787595856718
0.2606228240928633
0.43928292231359595
0.42519453107524996
0.43967364630453204
0.545798963403554
0.34175979173861626
0.3366388408943627
0.17113955821514565
0.31740753558415
0.43731314427324025
0.898402608066185
0.46004432978076676
0.40441306169381447
0.25579808550442024
0.41066275304114047
0.2343825234253442
0.3869928582833037
0.3998172603807035
0.5705393377340444
0.328742684517896
0.27165961840000086
0.5348560115862563
0.3069707142195811
0.33506158541780007
0.2584820260539039
0.21351548698302728
0.613691861194148
0.27471336706431293
0.45271200183481786
0.560542487052811
0.6522349414147935
0.40084446655094724
0.39583237615835065
0.36939157753616786
0.9181225895426258
0.5462900424512369
0.6444390469037489
0.36667852254387995
0.6288303200222352
0.37457335758650995
0.3125098357551897
0.26672840373330065
0.6661625797243935
0.44531510866465035
0.42166150326268426
0.7724896037404175
0.422832639572162
0.4464069005682245
0.9313197960786188
0.5877560988040446
0.31473390280593866
0.46630249261207574
0.7200477586925961
0.6834530261797307
0.752086252700398
0.2988850165610656
0.5771047852146253
0.2785281233316366
0.3435875468139528
0.42680494126853136
0.4692628547936571
0.23844493921804152
0.37249904102745746
0.5011433132123269
0.4574601949279539
0.3383178611659178
0.7382906417344719
0.45860955323840896
0.32941699537443975
0.4700692067192187
0.48882595958302333
0.5430873728264841
0.39535437654303596
0.34528874249147684
0.3398964013549889
0.5773277786838709
0.43746336017248766
0.33775194034507094
0.39593058910404744
0.5378514737042578
0.46147255053934677
0.3464149249841972
0.3600910979436388
0.44632246572364875
0.3893866012717657
0.4189226007272895
0.3965844877944817
0.3173721085296633
0.3512724184295742
0.5871483293262939
0.8478450715274175
0.4932001648269817
0.5267788595123586
0.5227536067541763
0.4120680987002603
0.8957220489138559
0.5631444990004886
0.43900958269009366
0.44752124124073006
0.37437369352963124
0.4435868699012203
0.4289981272967006
0.394387414585119
0.3386743124507425
0.39660493174205524
0.36455736904852
0.4219378627321121
0.7902787963035334
0.41537058512955
0.296170758007266
0.44397605615192975
0.6908524011230545
0.383708929361274
0.4511675711835556
0.4601616107286926
0.16801503268543658
0.40733775381187
0.3551072518718489
0.15227336332156435
0.1713094445740518
0.09053431902532799
0.28128983122880885
0.31421064646641483
0.4632820923053983
0.4701001092520345
0.6248202071368494
0.4441780785261681
0.3042279858925824
0.38355451247044164
0.8371826878634357
0.46680889940561976
0.39937432334136624
0.47805842768488876
0.34725403431226365
0.29293120258905514
0.5266152332436326
0.24897691887821607
0.40145786710277365
0.3933374756659388
0.4402377151215661
0.6395728888957919
0.3556664719529797
0.4630389986754255
0.33527035318411635
0.46157204526624884
0.5242565686615894
0.5843430176892348
0.7094735887570135
0.6378164282316977
0.2879952795757863
0.41343810753441484
0.2072290592577029
0.5448902708618313
0.4539892062710783
0.24176481077430284
0.42977500425508397
0.3239791686325684
0.5187910804401107
0.40289371995241513
0.3170804511828072
0.2617575605839093
0.284132603999779
0.5595860041170694
0.4408513515336193
0.21729671262516534
0.45580105317924924
0.8755786947855778
0.45721717176625926
0.26373257471678285
0.32195158427997833
0.29959427524228915
0.8023966674817922
0.376164001246085
0.3787525567148887
0.5790614072200935
0.5143052305058964
0.44418241587301394
0.3450415807135789
0.4281195390183432
0.8204841218391634
0.370286951518628
0.5736890472016994
0.19062081492931163
0.7402618879010974
0.2587882609733983
0.38671657349575
0.30095437345962406
0.34144100307353636
0.4481024324890463
0.13207759848266712
0.2748993154095638
0.8583792963977575
0.5979442272983038
0.37605024061033926
0.5942273519264119
0.3292350490276441
0.6387992119347757
0.2798547628143835
0.07757032373502223
0.4112144657820425
0.4316650165354226
0.7505486797842483
0.68498290307856
0.4502739119619187
0.6161024898566877
0.8867202428355403
0.33745404102930887
0.530378416783266
0.38418997198008553
0.22322726440891202
0.8738354739433528
0.44245735593441954
0.7469393291965197
CELL_DATA 4886
TENSORS stress float
-8.65706762382393e6 9.025518151330447e6 0.0
9.025518151330447e6 4.118060369785763e7 0.0
0.0 0.0 0.0

-2.1875258261040844e7 1.452242081130606e7 0.0
1.452242081130606e7 6.794903863487403e6 0.0
0.0 0.0 0.0

-1.1711798176179234e7 2.607376608524998e7 0.0
2.607376608524998e7 -1.129135257702231e7 0.0
0.0 0.0 0.0

-3.378644463747021e6 2.508574169394532e7 0.0
2.508574169394532e7 1.4842624285731168e7 0.0
0.0 0.0 0.0

-1.4426419568012506e6 2.973156328767077e7 0.0
2.973156328767077e7 -1.3147987489705957e6 0.0
0.0 0.0 0.0

1.403581209456193e6 2.623040493997253e6 0.0
2.623040493997253e6 -3.887906766256479e6 0.0
0.0 0.0 0.0

7.305144383581567e7 3.379276939632566e7 0.0
3.379276939632566e7 1.9091867167827073e7 0.0
0.0 0.0 0.0

1.5963275243644305e6 2.9630931619174406e6 0.0
2.9630931619174406e6 -5.5379322086496845e7 0.0
0.0 0.0 0.0

-8.215640733067874e6 1.0878806923916796e7 0.0
1.0878806923916796e7 4.2620330643880166e7 0.0
0.0 0.0 0.0

2.8338043610824337e6 2.1402874556831293e7 0.0
2.1402874556831293e7 2.622351393928638e7 0.0
0.0 0.0 0.0

-409832.5767747578 2.389261817213312e7 0.0
2.389261817213312e7 -8.800664403862884e6 0.0
0.0 0.0 0.0

382413.9048467452 3.6499242838567294e7 0.0
3.6499242838567294e7 -1.3693420922624427e6 0.0
0.0 0.0 0.0

409576.29842129163 1.0319828398643972e7 0.0
1.0319828398643972e7 -5.057317454494115e7 0.0
0.0 0.0 0.0

1.0398052541962996e8 3.740429579642324e7 0.0
3.740429579642324e7 2.1019418709282752e7 0.0
0.0 0.0 0.0

-17755.260769830085 2.468390992689235e7 0.0
2.468390992689235e7 -8.764289009455018e6 0.0
0.0 0.0 0.0

3.073309433017361e6 3.941859747383156e6 0.0
3.941859747383156e6 -1.9367543735099096e7 0.0
0.0 0.0 0.0

-4.5142068398410035e6 1.995484680205477e7 0.0
1.995484680205477e7 -2.579613929470957e7 0.0
0.0 0.0 0.0

-585759.7212137002 1.5714044830735017e7 0.0
1.5714044830735017e7 -3.434423467759136e7 0.0
0.0 0.0 0.0

-8.608109290448189e6 -558854.5486479184 0.0
-558854.5486479184 3.264368732564751e7 0.0
0.0 0.0 0.0

908175.9495661287 2.78679490827298e7 0.0
2.78679490827298e7 -8.055526251825743e6 0.0
0.0 0.0 0.0

1.936141200956015e6 1.2567768219941907e7 0.0
1.2567768219941907e7 -2.425273700157582e7 0.0
0.0 0.0 0.0

1.979131775810135e6 3.605870427859925e7 0.0
3.605870427859925e7 -1.307377521638411e6 0.0
0.0 0.0 0.0

-1.0348630845004998e7 1.0138708183574095e7 0.0
1.0138708183574095e7 2.155274136905984e7 0.0
0.0 0.0 0.0

-1.7041723929038625e7 2.7080004824711647e7 0.0
2.7080004824711647e7 -894453.1634152513 0.0
0.0 0.0 0.0

-1.2953669669836722e6 1.3802807307521155e7 0.0
1.3802807307521155e7 -4.5313831735889964e7 0.0
0.0 0.0 0.0

3.102204924578607e7 5.103867453046491e7 0.0
5.103867453046491e7 -1.0110724571483707e7 0.0
0.0 0.0 0.0

4.9036276341776654e7 2.610124403941981e7 0.0
2.610124403941981e7 1.0793367551921088e7 0.0
0.0 0.0 0.0

-7.340150763066297e6 1.836923419406323e7 0.0
1.836923419406323e7 2.976969088292767e7 0.0
0.0 0.0 0.0

3.1545239942096528e6 3.9371879880359927e6 0.0
3.9371879880359927e6 -1.9832347592710722e7 0.0
0.0 0.0 0.0

-8.664376592778742e6 -2.2450221710311146e6 0.0
-2.2450221710311146e6 1.830939901269545e7 0.0
0.0 0.0 0.0

-1.0894663900152307e7 1.1818773406824404e7 0.0
1.1818773406824404e7 1.9534850359055914e7 0.0
0.0 0.0 0.0

1.253550561113522e6 9.590450024280153e6 0.0
9.590450024280153e6 -9.65917731468198e6 0.0
0.0 0.0 0.0

2.95264716507913e6 2.400020131656579e7 0.0
2.400020131656579e7 1.0407924437517665e7 0.0
0.0 0.0 0.0

-130325.60477948972 2.128151687243494e7 0.0
2.128151687243494e7 289475.9756403247 0.0
0.0 0.0 0.0

-2.7945888956566243e6 2.640160769224016e7 0.0
2.640160769224016e7 5.844483102221577e6 0.0
0.0 0.0 0.0

-1.1415402870944086e7 8.659748550518915e6 0.0
8.659748550518915e6 1.8455236949676365e7 0.0
0.0 0.0 0.0

-60345.76850094786 1.3953587667055551e7 0.0
1.3953587667055551e7 -8.290586986931691e6 0.0
0.0 0.0 0.0

-2.1429165530794375e6 2.6035979121026084e7 0.0
2.6035979121026084e7 6.484906172240825e6 0.0
0.0 0.0 0.0

-6.058809888847761e6 1.724717495080275e7 0.0
1.724717495080275e7 -4.754233119671071e7 0.0
0.0 0.0 0.0

-2.571996475258773e6 3.210160501722294e7 0.0
3.210160501722294e7 1.8189871208982563e6 0.0
0.0 0.0 0.0

-658947.779370062 1.0443493639528362e7 0.0
1.0443493639528362e7 -5.515863564849299e7 0.0
0.0 0.0 0.0

-1.4617470200075362e7 2.7930737660040684e7 0.0
2.7930737660040684e7 -1.2404738357639894e7 0.0
0.0 0.0 0.0

-2.4550591837787842e6 3.1242331299555466e7 0.0
3.1242331299555466e7 1.6885846989547606e6 0.0
0.0 0.0 0.0

-1.0350589850214921e7 6.452470347031361e6 0.0
6.452470347031361e6 2.9516239718801375e7 0.0
0.0 0.0 0.0

1.3146144013948496e6 1.2430359370425018e7 0.0
1.2430359370425018e7 -2.6597211537364967e7 0.0
0.0 0.0 0.0

-5.8814582752127275e6 1.9555242572808154e7 0.0
1.9555242572808154e7 2.789273433536537e7 0.0
0.0 0.0 0.0

1.3371083675516471e6 2.358948680739822e7 0.0
2.358948680739822e7 -1.3976248540423088e7 0.0
0.0 0.0 0.0

-912672.9686085146 1.3390914577455444e7 0.0
1.3390914577455444e7 -9.237554921207633e6 0.0
0.0 0.0 0.0

2.0968303130566776e6 2.9867892052331767e6 0.0
2.9867892052331767e6 -4.573185584307533e7 0.0
0.0 0.0 0.0

6.152740883652822e6 1.894823740977847e7 0.0
1.894823740977847e7 2.0509136130318027e7 0.0
0.0 0.0 0.0

-422269.9012634588 3.108674227396226e7 0.0
3.108674227396226e7 -395444.42221586953 0.0
0.0 0.0 0.0

-1.556168948800664e7 1.226175259893962e7 0.0
1.226175259893962e7 6.095783329427982e6 0.0
0.0 0.0 0.0

2.1356398738790713e6 3.042082815070081e6 0.0
3.042082815070081e6 -4.751007051435962e7 0.0
0.0 0.0 0.0

-1.2843951724815725e6 2.868988611520793e7 0.0
2.868988611520793e7 1.2021979162527462e6 0.0
0.0 0.0 0.0

6.860595700695688e6 1.8956150209416147e7 0.0
1.8956150209416147e7 2.4698085194902543e7 0.0
0.0 0.0 0.0

-8.868737550479863e6 2.8279946243842274e7 0.0
2.8279946243842274e7 6.25343033838149e6 0.0
0.0 0.0 0.0

1.2442134311931506e6 3.767746413195314e6 0.0
3.767746413195314e6 -6.0845501539022304e7 0.0
0.0 0.0 0.0

-1.7803029238908035e6 3.2378488236980066e7 0.0
3.2378488236980066e7 1.9031523672571136e6 0.0
0.0 0.0 0.0

7.131742038182256e6 2.0522790229865834e7 0.0
2.0522790229865834e7 4.722649092609174e7 0.0
0.0 0.0 0.0

1.983170191202961e6 1.1290262790773988e7 0.0
1.1290262790773988e7 -2.953781631772957e7 0.0
0.0 0.0 0.0

-3.0546179673048137e6 1.9273383308409348e7 0.0
1.9273383308409348e7 -1.2946026502598733e7 0.0
0.0 0.0 0.0

3.630438399355705e7 2.8972697605030872e7 0.0
2.8972697605030872e7 2.8665780761414543e6 0.0
0.0 0.0 0.0

-4.9221422102542e6 2.233447712445245e7 0.0
2.233447712445245e7 -1.5533768100211173e7 0.0
0.0 0.0 0.0

-9.63436068277492e6 895128.0704249472 0.0
895128.0704249472 1.9113973359673213e7 0.0
0.0 0.0 0.0

-248615.2415216355 6.897072045716714e6 0.0
6.897072045716714e6 -712803.041085296 0.0
0.0 0.0 0.0

1.8955952755970173e6 4.467458937909763e6 0.0
4.467458937909763e6 -4.45447226639797e7 0.0
0.0 0.0 0.0

1.064864357959669e6 8.916231463072104e6 0.0
8.916231463072104e6 -5.022031799203195e7 0.0
0.0 0.0 0.0

-2.0777317289346051e6 2.8194660094979025e7 0.0
2.8194660094979025e7 345703.0364083748 0.0
0.0 0.0 0.0

3.7380173700314946e6 2.036284505337823e7 0.0
2.036284505337823e7 3.867089574680083e7 0.0
0.0 0.0 0.0

2.5874832343570944e7 1.9993531613816146e7 0.0
1.9993531613816146e7 5.3404022140206285e6 0.0
0.0 0.0 0.0

-1.1193011723228617e7 8.283120802978952e6 0.0
8.283120802978952e6 2.6920732764213577e7 0.0
0.0 0.0 0.0

-320545.20527634583 1.3909691490170395e7 0.0
1.3909691490170395e7 -4.190765018694342e7 0.0
0.0 0.0 0.0

-5.550189722306525e6 1.8485533984492015e7 0.0
1.8485533984492015e7 -4.362220676172423e7 0.0
0.0 0.0 0.0

9.402564369262086e6 2.0177605137619194e7 0.0
2.0177605137619194e7 6.327081408507774e7 0.0
0.0 0.0 0.0

-3.1156456848478997e6 2.5238334781224053e7 0.0
2.5238334781224053e7 1.4227281227833977e7 0.0
0.0 0.0 0.0

-6.150597200734684e6 1.988191465150615e7 0.0
1.988191465150615e7 2.73727080192917e7 0.0
0.0 0.0 0.0

-617684.4411898036 1.5221764823148414e7 0.0
1.5221764823148414e7 1.1487883050839938e7 0.0
0.0 0.0 0.0

-3.5137579849461485e6 1.9645258242657617e7 0.0
1.9645258242657617e7 -2.5345341137335327e7 0.0
0.0 0.0 0.0

-944984.6717363237 2.123141931951606e7 0.0
2.123141931951606e7 -1.289951224551867e7 0.0
0.0 0.0 0.0

768970.6288205711 1.5742345896039188e7 0.0
1.5742345896039188e7 -2.1229826521164842e7 0.0
0.0 0.0 0.0

2.916405460369042e7 3.0513756152084228e7 0.0
3.0513756152084228e7 -3.188357388301287e6 0.0
0.0 0.0 0.0

-8.414266264831552e6 -262825.16392003745 0.0
-262825.16392003745 3.8337683534808524e7 0.0
0.0 0.0 0.0

2.0000103199830968e6 2.2028315776986815e7 0.0
2.2028315776986815e7 -1.938469353195186e6 0.0
0.0 0.0 0.0

2.0972496420868533e6 3.789297043818518e7 0.0
3.789297043818518e7 -2.2680871783552626e6 0.0
0.0 0.0 0.0

-3.458714626658543e6 2.5176900823046114e7 0.0
2.5176900823046114e7 1.495759569803413e7 0.0
0.0 0.0 0.0

2.898647881124284e6 3.3279530733205355e6 0.0
3.3279530733205355e6 -2.7903245258943036e7 0.0
0.0 0.0 0.0

654847.7235502792 8.551179246514603e6 0.0
8.551179246514603e6 -1.0955649881212045e7 0.0
0.0 0.0 0.0

2.745093409741482e6 2.2765735090503044e7 0.0
2.2765735090503044e7 9.540656855543174e6 0.0
0.0 0.0 0.0

2.61133131550253e7 5.267221466561628e7 0.0
5.267221466561628e7 -1.2660090642151358e7 0.0
0.0 0.0 0.0

-6.843197686227206e6 9.87696175593665e6 0.0
9.87696175593665e6 5.197374851066647e7 0.0
0.0 0.0 0.0

2.0803372463291707e6 2.3796036572719883e7 0.0
2.3796036572719883e7 -7.642826550365915e6 0.0
0.0 0.0 0.0

-2.3852981410820005e6 2.1671840819085464e7 0.0
2.1671840819085464e7 -1.6112922621029573e7 0.0
0.0 0.0 0.0

-837864.7817412778 1.2208305938064342e7 0.0
1.2208305938064342e7 -7.682019624432005e6 0.0
0.0 0.0 0.0

-1.6239962312139855e6 5.704880808832193e6 0.0
5.704880808832193e6 -2.4291572041497775e6 0.0
0.0 0.0 0.0

7.032055573016478e6 2.477392254663801e7 0.0
2.477392254663801e7 -4.148795638238217e6 0.0
0.0 0.0 0.0

-4.962447928360265e6 1.933500970195825e7 0.0
1.933500970195825e7 -3.514966670305627e7 0.0
0.0 0.0 0.0

1.5428497681652755e6 2.9590452645662283e6 0.0
2.9590452645662283e6 -5.518421982176523e7 0.0
0.0 0.0 0.0

-3.685885453460533e6 2.5819722406286076e7 0.0
2.5819722406286076e7 1.2837102249575596e7 0.0
0.0 0.0 0.0

1.2763910130778719e6 9.787897800081024e6 0.0
9.787897800081024e6 -3.947245555994152e7 0.0
0.0 0.0 0.0

1.2304074708117098e6 3.757262966626538e6 0.0
3.757262966626538e6 -6.161509971425856e7 0.0
0.0 0.0 0.0

-2.712147715859566e6 2.376012120674223e7 0.0
2.376012120674223e7 1.6163217188609187e7 0.0
0.0 0.0 0.0

-6.155037623865075e6 2.0369199614817847e7 0.0
2.0369199614817847e7 -2.158640813335482e7 0.0
0.0 0.0 0.0

-1.0562259616788024e7 1.0420047726428611e7 0.0
1.0420047726428611e7 2.3654207117834188e7 0.0
0.0 0.0 0.0

-1.2114754584703557e6 3.0384090565583896e7 0.0
3.0384090565583896e7 1.3025585182138928e6 0.0
0.0 0.0 0.0

-409978.8318490961 1.2428879850704804e7 0.0
1.2428879850704804e7 -5.309336475070873e6 0.0
0.0 0.0 0.0

-4.785504215654762e6 1.5674302336125929e7 0.0
1.5674302336125929e7 1.4620089115719639e7 0.0
0.0 0.0 0.0

-8.175029156170053e6 -93810.08524903619 0.0
-93810.08524903619 3.8655713756075606e7 0.0
0.0 0.0 0.0

1.316937779684879e6 1.6030807000862846e7 0.0
1.6030807000862846e7 -1.9746349519133456e7 0.0
0.0 0.0 0.0

1.247456048286649e6 3.564786035655392e7 0.0
3.564786035655392e7 -1.5465524353156332e6 0.0
0.0 0.0 0.0

-9.778085288707536e6 9.471563161757823e6 0.0
9.471563161757823e6 1.9823392605289634e7 0.0
0.0 0.0 0.0

-193517.44555266574 9.019555473842638e6 0.0
9.019555473842638e6 -5.444726907807595e7 0.0
0.0 0.0 0.0

-2.6096336302142027e6 1.3453553002829501e7 0.0
1.3453553002829501e7 -3.051635265136039e6 0.0
0.0 0.0 0.0

1.2317002627064727e7 2.550484821051052e7 0.0
2.550484821051052e7 1.41876410860643e7 0.0
0.0 0.0 0.0

4.970788570280227e7 2.7002983378829215e7 0.0
2.7002983378829215e7 1.038567002120038e7 0.0
0.0 0.0 0.0

2.806463519699158e6 6.421398788368558e6 0.0
6.421398788368558e6 -2.5347177400009885e7 0.0
0.0 0.0 0.0

-7.210472734992993e6 1.9132175566146385e7 0.0
1.9132175566146385e7 -4.461378147269078e7 0.0
0.0 0.0 0.0

2.5169005080018714e6 6.336680899554103e6 0.0
6.336680899554103e6 -2.6698961571281128e7 0.0
0.0 0.0 0.0

3.119957386539506e6 3.3793817249098965e6 0.0
3.3793817249098965e6 -2.900545554778395e7 0.0
0.0 0.0 0.0

4.112748468796948e7 1.6694253448985213e7 0.0
1.6694253448985213e7 2.4393522201749235e6 0.0
0.0 0.0 0.0

-1.2656290504498884e7 4.31438229948806e7 0.0
4.31438229948806e7 3.5146004939625924e6 0.0
0.0 0.0 0.0

-4.720139101013837e6 1.760109397724152e7 0.0
1.760109397724152e7 -4.00453783094053e7 0.0
0.0 0.0 0.0

-1.3570434683530172e7 2.6355287256236926e7 0.0
2.6355287256236926e7 -3.9845352943043755e6 0.0
0.0 0.0 0.0

2.838640936648162e6 3.3610817458256558e6 0.0
3.3610817458256558e6 -3.814326537977869e7 0.0
0.0 0.0 0.0

-9.255337791506555e6 2.8050741228090007e7 0.0
2.8050741228090007e7 7.04474906557826e6 0.0
0.0 0.0 0.0

1.2522820025309922e7 3.6329439266808964e7 0.0
3.6329439266808964e7 -5.478669659916753e6 0.0
0.0 0.0 0.0

-8.55150830027527e6 1.2207822086722603e7 0.0
1.2207822086722603e7 3.953405222238663e7 0.0
0.0 0.0 0.0

1.8194552078493338e7 5.118918241239818e7 0.0
5.118918241239818e7 -7.899996209629205e6 0.0
0.0 0.0 0.0

-1.0106635558077154e6 2.2417644562613755e7 0.0
2.2417644562613755e7 -890111.6380122292 0.0
0.0 0.0 0.0

1.9586080877580848e6 2.913941912053783e6 0.0
2.913941912053783e6 -4.8732032893452875e7 0.0
0.0 0.0 0.0

3.699225666901506e7 2.2924326266871847e7 0.0
2.2924326266871847e7 9.015789274395516e6 0.0
0.0 0.0 0.0

-1.9971071676727384e6 2.3112776451561976e7 0.0
2.3112776451561976e7 1.6539528061634455e7 0.0
0.0 0.0 0.0

1.401073596649604e6 6.606138629402041e6 0.0
6.606138629402041e6 -4.36309223097332e7 0.0
0.0 0.0 0.0

2.0002425705663865e6 2.8450256747154895e7 0.0
2.8450256747154895e7 -7.101030034771163e6 0.0
0.0 0.0 0.0

2.190054122470575e6 2.291265300462433e7 0.0
2.291265300462433e7 -8.716045916579315e6 0.0
0.0 0.0 0.0

-4.337733830237254e6 2.0936390460307024e7 0.0
2.0936390460307024e7 -1.5980319589572778e7 0.0
0.0 0.0 0.0

-1.0403787353778272e6 2.2275833364972502e7 0.0
2.2275833364972502e7 -1.1183319981736746e7 0.0
0.0 0.0 0.0

1.580728785533485e7 2.6273339945446927e7 0.0
2.6273339945446927e7 1.4138737484331453e7 0.0
0.0 0.0 0.0

-554872.6268160678 7.256381229839803e6 0.0
7.256381229839803e6 -7.645741877629028e7 0.0
0.0 0.0 0.0

-4.951510841225234e6 2.6700552681257825e7 0.0
2.6700552681257825e7 1.2169246847453568e7 0.0
0.0 0.0 0.0

902120.7293629746 4.656391764029655e6 0.0
4.656391764029655e6 -3.21286798052153e6 0.0
0.0 0.0 0.0

-7.729053135230219e6 1.6854265398569215e7 0.0
1.6854265398569215e7 3.0530140654692754e7 0.0
0.0 0.0 0.0

3.3962610215816237e6 3.927977082493363e6 0.0
3.927977082493363e6 -2.5180639853657346e7 0.0
0.0 0.0 0.0

-7.290674894839132e6 -878542.1461002785 0.0
-878542.1461002785 4.601726286062539e7 0.0
0.0 0.0 0.0

1.194799581004317e6 1.7015763641414993e7 0.0
1.7015763641414993e7 -2.4172781858038563e7 0.0
0.0 0.0 0.0

538585.6720853674 2.245484670391639e6 0.0
2.245484670391639e6 -3.2215926535155345e6 0.0
0.0 0.0 0.0

5.526710733431848e6 1.99199525910104e7 0.0
1.99199525910104e7 2.3646657900261484e7 0.0
0.0 0.0 0.0

-2.578847269066947e6 3.1478439135646228e7 0.0
3.1478439135646228e7 4.1464311088850796e6 0.0
0.0 0.0 0.0

-8.132689491893582e6 606799.1597036411 0.0
606799.1597036411 4.402360706352905e7 0.0
0.0 0.0 0.0

-1.2563082685966329e6 2.288251550472422e7 0.0
2.288251550472422e7 1.0022716324987179e7 0.0
0.0 0.0 0.0

7.503175352414245e6 2.635942310032678e7 0.0
2.635942310032678e7 -5.312048913470895e6 0.0
0.0 0.0 0.0

-2.0961380323314527e6 2.7215557358747732e7 0.0
2.7215557358747732e7 125015.25917016866 0.0
0.0 0.0 0.0

-6.185421187830351e6 2.414381122965634e7 0.0
2.414381122965634e7 -1.220709250228507e7 0.0
0.0 0.0 0.0

-1.5089026092096309e6 2.73488926241954e7 0.0
2.73488926241954e7 2.025505970696404e6 0.0
0.0 0.0 0.0

-7.429289525050764e6 1.912148109484546e7 0.0
1.912148109484546e7 -2.4239522543017264e7 0.0
0.0 0.0 0.0

2.4452124043040015e7 2.9744230886080638e7 0.0
2.9744230886080638e7 -3.275171201195499e6 0.0
0.0 0.0 0.0

-2.3152471319603687e6 2.041262123225931e7 0.0
2.041262123225931e7 -1.7603914613919143e7 0.0
0.0 0.0 0.0

-2.491811265176611e6 2.145713795459483e7 0.0
2.145713795459483e7 2.7659486568711415e7 0.0
0.0 0.0 0.0

6.606732252054559e6 2.3980104937457412e7 0.0
2.3980104937457412e7 1.6143969257226069e7 0.0
0.0 0.0 0.0

1.6394123209757376e6 1.1427342186126674e7 0.0
1.1427342186126674e7 -2.8497315483429465e7 0.0
0.0 0.0 0.0

-6.318482307044565e6 1.4910333160322169e7 0.0
1.4910333160322169e7 1.3608881638430802e7 0.0
0.0 0.0 0.0

-3.305565436617434e6 3.685649559605636e7 0.0
3.685649559605636e7 1.2738272469182005e6 0.0
0.0 0.0 0.0

-4.402591392267347e6 2.2106846953988615e7 0.0
2.2106846953988615e7 1.8985477874118406e7 0.0
0.0 0.0 0.0

5.161643051669987e6 3.934628996739631e7 0.0
3.934628996739631e7 -1.930664483385554e6 0.0
0.0 0.0 0.0

581417.3119815644 1.6605809677313441e7 0.0
1.6605809677313441e7 -2.5794063486999348e7 0.0
0.0 0.0 0.0

-2.776823851953047e7 3.0292426936834183e7 0.0
3.0292426936834183e7 -1.1863842327272655e7 0.0
0.0 0.0 0.0

1.9673945809853598e6 4.852291193788601e6 0.0
4.852291193788601e6 -5.4268004121726945e7 0.0
0.0 0.0 0.0

1.6527968076456375e7 3.95491604326874e7 0.0
3.95491604326874e7 -5.20618108272234e6 0.0
0.0 0.0 0.0

-2.1861027944587037e7 3.626783187592026e7 0.0
3.626783187592026e7 6.6193915009409515e6 0.0
0.0 0.0 0.0

2.516559789286659e6 2.1216163488186847e7 0.0
2.1216163488186847e7 2.3829403990852628e7 0.0
0.0 0.0 0.0

-4.07665216799847e7 3.666237203998223e7 0.0
3.666237203998223e7 5.582803896323809e6 0.0
0.0 0.0 0.0

2.185521352162674e6 2.986966900988322e6 0.0
2.986966900988322e6 -5.029660256525992e7 0.0
0.0 0.0 0.0

-3.8579027669741428e6 2.1797250595791128e7 0.0
2.1797250595791128e7 2.0491752146394882e7 0.0
0.0 0.0 0.0

-1.0592467971818114e7 9.248635353333408e6 0.0
9.248635353333408e6 1.6881750558795586e7 0.0
0.0 0.0 0.0

2.9757954178211372e6 2.895871007871284e6 0.0
2.895871007871284e6 -2.6587011051560197e7 0.0
0.0 0.0 0.0

1.1676297171027856e6 2.280058058983926e7 0.0
2.280058058983926e7 -1.0869400689116271e7 0.0
0.0 0.0 0.0

-7.954807126417647e6 4.4914657119575165e7 0.0
4.4914657119575165e7 5.05178271222415e6 0.0
0.0 0.0 0.0

-1.5063304397864006e7 1.9673541366341412e7 0.0
1.9673541366341412e7 4.248442861496691e6 0.0
0.0 0.0 0.0

-4.1587406880789526e7 3.0882032785493307e7 0.0
3.0882032785493307e7 -1.4557674467407372e6 0.0
0.0 0.0 0.0

5.28585685385918e7 2.7341655562151942e7 0.0
2.7341655562151942e7 2.037311745459874e7 0.0
0.0 0.0 0.0

-9.31243726054633e6 1.788741744831611e7 0.0
1.788741744831611e7 -9.751069469795214e7 0.0
0.0 0.0 0.0

-260965.7279261062 2.154591148574317e7 0.0
2.154591148574317e7 -1.4258008035939854e7 0.0
0.0 0.0 0.0

-2.0519591710331514e6 2.083590587647242e7 0.0
2.083590587647242e7 2.7909561215753537e7 0.0
0.0 0.0 0.0

2.0245990969418557e6 2.599038899277553e7 0.0
2.599038899277553e7 -1.0608015543223832e7 0.0
0.0 0.0 0.0

-545437.7607176176 3.021022013185725e7 0.0
3.021022013185725e7 -530633.2391562976 0.0
0.0 0.0 0.0

3.9951272523523974e6 1.8709958480899114e7 0.0
1.8709958480899114e7 1.3561203692184385e7 0.0
0.0 0.0 0.0

4.438893992226794e6 3.83635805330443e7 0.0
3.83635805330443e7 -1.8917531849707763e6 0.0
0.0 0.0 0.0

-1.0506107882940356e7 1.0176850016118752e7 0.0
1.0176850016118752e7 1.9918882477604866e7 0.0
0.0 0.0 0.0

7.016519536081274e7 4.200501107563574e7 0.0
4.200501107563574e7 3.0654646068319492e7 0.0
0.0 0.0 0.0

2.9558985959579344e6 3.018324060365085e7 0.0
3.018324060365085e7 -6.867271266791283e6 0.0
0.0 0.0 0.0

5.26273078155477e6 1.772186707600827e7 0.0
1.772186707600827e7 1.9028100400705017e7 0.0
0.0 0.0 0.0

-1.323345846520605e7 2.820398260975933e7 0.0
2.820398260975933e7 1.7848605330419298e6 0.0
0.0 0.0 0.0

1.687121495643274e6 1.9874096412067257e7 0.0
1.9874096412067257e7 1.965511356457e7 0.0
0.0 0.0 0.0

1.544842327893713e6 2.838847168455261e7 0.0
2.838847168455261e7 -6.614011938939221e6 0.0
0.0 0.0 0.0

1.691606677618336e6 8.640729531561825e6 0.0
8.640729531561825e6 -3.8632373629296966e7 0.0
0.0 0.0 0.0

-2.5254643491731784e6 2.5124258611320425e7 0.0
2.5124258611320425e7 7.04127553347354e6 0.0
0.0 0.0 0.0

-7.237106305928439e6 2.533388270345011e7 0.0
2.533388270345011e7 4.186910513455159e6 0.0
0.0 0.0 0.0

1.0725651738405805e6 8.579007799381077e6 0.0
8.579007799381077e6 -1.350573669075057e7 0.0
0.0 0.0 0.0

-3.490708293041949e6 2.591869569620234e7 0.0
2.591869569620234e7 1.2941377984786168e7 0.0
0.0 0.0 0.0

-6.423668356654417e6 7.040881003819134e6 0.0
7.040881003819134e6 5.5974531739683256e7 0.0
0.0 0.0 0.0

-1.1680442581949173e6 1.281334193095511e7 0.0
1.281334193095511e7 -2.0277547466646133e6 0.0
0.0 0.0 0.0

-1.3063738447428133e7 2.6113533814527586e7 0.0
2.6113533814527586e7 -1.1695802481416494e7 0.0
0.0 0.0 0.0

4.90376367735505e7 3.406073530693982e7 0.0
3.406073530693982e7 2.1796276913855977e7 0.0
0.0 0.0 0.0

-105042.39121621102 1.6099651194843294e7 0.0
1.6099651194843294e7 -3.3520144687418856e7 0.0
0.0 0.0 0.0

2.205604034381885e6 6.689264487582103e6 0.0
6.689264487582103e6 -4.0965204399390526e7 0.0
0.0 0.0 0.0

1.1753183904138045e7 2.4460411902361564e7 0.0
2.4460411902361564e7 5.591551632124083e6 0.0
0.0 0.0 0.0

-1.997238790502361e6 1.3099412566139169e7 0.0
1.3099412566139169e7 1.6544476402903834e7 0.0
0.0 0.0 0.0

-1.0026958998863508e6 2.898280153882761e7 0.0
2.898280153882761e7 169466.04497198592 0.0
0.0 0.0 0.0

-639072.1071547747 2.4840211716093574e7 0.0
2.4840211716093574e7 -8.2560291817083005e6 0.0
0.0 0.0 0.0

214483.30729957577 2.513232752045089e7 0.0
2.513232752045089e7 -1.0345271260553867e7 0.0
0.0 0.0 0.0

-1.321981066436417e6 2.1559709203068987e7 0.0
2.1559709203068987e7 -9.144640467515063e6 0.0
0.0 0.0 0.0

1.8221831489145672e6 9.481087967839096e6 0.0
9.481087967839096e6 -1.2153199411935091e7 0.0
0.0 0.0 0.0

4.105715215514779e7 3.0782175256016992e7 0.0
3.0782175256016992e7 1.916609818604362e7 0.0
0.0 0.0 0.0

3.3499768883532e6 1.9721484802611973e7 0.0
1.9721484802611973e7 1.2058764445765736e7 0.0
0.0 0.0 0.0

-3.744351741654774e6 3.5844335724948525e7 0.0
3.5844335724948525e7 3.517809092987705e6 0.0
0.0 0.0 0.0

-4.2675142086761825e7 2.5442356113073844e7 0.0
2.5442356113073844e7 5.124668446932174e6 0.0
0.0 0.0 0.0

3.3497860360330986e6 3.596158700083998e6 0.0
3.596158700083998e6 -2.3496745525873013e7 0.0
0.0 0.0 0.0

969865.8260623093 2.186259536300432e7 0.0
2.186259536300432e7 8.043189492247876e6 0.0
0.0 0.0 0.0

-5.631786833042542e6 1.826474036504611e7 0.0
1.826474036504611e7 -2.3184857493994854e7 0.0
0.0 0.0 0.0

-415286.8355833441 1.940088612213398e7 0.0
1.940088612213398e7 -2.426712569844067e7 0.0
0.0 0.0 0.0

-8.8048567551235e6 -1.2850920872435877e6 0.0
-1.2850920872435877e6 3.1595413580068495e7 0.0
0.0 0.0 0.0

921049.5784269348 1.5090425856892006e7 0.0
1.5090425856892006e7 -2.286272037490324e7 0.0
0.0 0.0 0.0

-1.2376453122176463e7 1.879539452571824e7 0.0
1.879539452571824e7 -5.878905272155385e7 0.0
0.0 0.0 0.0

1.0887769724440072e6 1.4395661751614623e7 0.0
1.4395661751614623e7 -2.4221871352499124e7 0.0
0.0 0.0 0.0

2.7558679660905916e6 2.35558118324792e7 0.0
2.35558118324792e7 -9.929980772364646e6 0.0
0.0 0.0 0.0

3.830705804371365e7 2.4910615533710722e7 0.0
2.4910615533710722e7 8.977143381796762e6 0.0
0.0 0.0 0.0

-5.640665039746132e6 1.6297808559685336e7 0.0
1.6297808559685336e7 4.069373588156191e7 0.0
0.0 0.0 0.0

-6.420146205253701e6 2.533624056979619e7 0.0
2.533624056979619e7 -1.2892166970380504e7 0.0
0.0 0.0 0.0

450299.3450920214 2.0214683278318375e7 0.0
2.0214683278318375e7 1.0449456163442172e6 0.0
0.0 0.0 0.0

-7.203246258520081e6 2.2920055130643196e7 0.0
2.2920055130643196e7 -1.6575943101465747e7 0.0
0.0 0.0 0.0

3.87193169099476e7 3.0756727774962727e7 0.0
3.0756727774962727e7 1.7253696194511577e7 0.0
0.0 0.0 0.0

-4.2144601527414415e6 2.6008166362277627e7 0.0
2.6008166362277627e7 1.3713116898620497e7 0.0
0.0 0.0 0.0

2.5050796306871194e6 2.3279613637328e7 0.0
2.3279613637328e7 -3.156582350150969e6 0.0
0.0 0.0 0.0

731421.6901608114 3.245225038359619e7 0.0
3.245225038359619e7 -1.7325772580804469e6 0.0
0.0 0.0 0.0

-2.400991958905761e6 2.507318799491069e7 0.0
2.507318799491069e7 7.997341239257748e6 0.0
0.0 0.0 0.0

-4.29956511489651e6 2.337082222629572e6 0.0
2.337082222629572e6 8.318964767139311e7 0.0
0.0 0.0 0.0

974408.4681655439 2.2855029161805492e7 0.0
2.2855029161805492e7 -1.5532222797765378e7 0.0
0.0 0.0 0.0

-1.6741237898115208e6 3.1621485593526497e7 0.0
3.1621485593526497e7 2.3292709187954436e6 0.0
0.0 0.0 0.0

-1.0715311306506987e6 3.977957107941473e6 0.0
3.977957107941473e6 2.3019811640175516e6 0.0
0.0 0.0 0.0

-6.686748360990085e6 1.836709311738123e7 0.0
1.836709311738123e7 2.942536843019001e7 0.0
0.0 0.0 0.0

-4.284023303589407e6 1.9654319588857073e7 0.0
1.9654319588857073e7 -1.5883284473084064e7 0.0
0.0 0.0 0.0

2.5348632217989173e6 3.5807975241800654e6 0.0
3.5807975241800654e6 -3.3074191894263726e7 0.0
0.0 0.0 0.0

-1.82303544091675e6 3.741488690440839e7 0.0
3.741488690440839e7 2.117091465746566e6 0.0
0.0 0.0 0.0

1.6030958476027148e6 1.5424762471641572e7 0.0
1.5424762471641572e7 -2.081697479174632e7 0.0
0.0 0.0 0.0

-4.452519558146734e6 2.117345846441053e7 0.0
2.117345846441053e7 2.2386838741215926e7 0.0
0.0 0.0 0.0

720511.6907701939 6.503942414680199e6 0.0
6.503942414680199e6 -7.080159757443321e7 0.0
0.0 0.0 0.0

-4.578502400763402e6 3.5417078239462376e7 0.0
3.5417078239462376e7 2.9763089135729773e6 0.0
0.0 0.0 0.0

-9.627570718879677e6 1.9182894790894277e7 0.0
1.9182894790894277e7 -3.467274968057598e7 0.0
0.0 0.0 0.0

3.3037724609586196e6 2.472501506476195e6 0.0
2.472501506476195e6 -1.5145154815344902e7 0.0
0.0 0.0 0.0

-823597.1570706193 1.1905923012291152e7 0.0
1.1905923012291152e7 -3.7548865083873854e6 0.0
0.0 0.0 0.0

-1.873852222511996e7 3.639740955937197e7 0.0
3.639740955937197e7 5.783055182479057e6 0.0
0.0 0.0 0.0

6.869112685877811e6 1.772242102086687e7 0.0
1.772242102086687e7 2.2444993000481047e7 0.0
0.0 0.0 0.0

-9.299845452511571e6 4.228502692715236e7 0.0
4.228502692715236e7 3.2089795041447096e6 0.0
0.0 0.0 0.0

-1.01393125556863e7 7.98163272848431e6 0.0
7.98163272848431e6 3.0540914164890848e7 0.0
0.0 0.0 0.0

-629411.3281147704 9.919602314009558e6 0.0
9.919602314009558e6 -7.8944294036955e7 0.0
0.0 0.0 0.0

9.075375807179978e7 3.0400178193539787e7 0.0
3.0400178193539787e7 9.482563234638728e6 0.0
0.0 0.0 0.0

-927837.8480733652 2.9883503093746994e7 0.0
2.9883503093746994e7 328378.1117787598 0.0
0.0 0.0 0.0

-5.8766982270057965e6 3.090437625979389e7 0.0
3.090437625979389e7 7.154218198233998e6 0.0
0.0 0.0 0.0

-2.0680000154729488e6 2.755985183769218e7 0.0
2.755985183769218e7 5.224463843249673e6 0.0
0.0 0.0 0.0

9.723435026425295e6 2.1601613874555986e7 0.0
2.1601613874555986e7 6.411465715393356e7 0.0
0.0 0.0 0.0

2.0684729691985678e6 3.922006987914207e6 0.0
3.922006987914207e6 -3.897451505448313e7 0.0
0.0 0.0 0.0

125210.55800155317 1.4479362084645586e7 0.0
1.4479362084645586e7 -9.408094194749864e6 0.0
0.0 0.0 0.0

1.014748724476286e7 3.618232477765041e7 0.0
3.618232477765041e7 -5.011806437554229e6 0.0
0.0 0.0 0.0

-6226.603876307607 1.1810894903999047e7 0.0
1.1810894903999047e7 -4.411130615884408e7 0.0
0.0 0.0 0.0

-2.2681908913428053e7 2.22768181876442e7 0.0
2.22768181876442e7 3.828338338620933e6 0.0
0.0 0.0 0.0

-7.145327736365985e6 2.5694144419717953e7 0.0
2.5694144419717953e7 2.8145291223951834e6 0.0
0.0 0.0 0.0

604241.180876113 2.083020653307743e7 0.0
2.083020653307743e7 4.720776846632283e6 0.0
0.0 0.0 0.0

1.6968195723361615e6 1.4737512410623923e7 0.0
1.4737512410623923e7 -2.2281605818465702e7 0.0
0.0 0.0 0.0

4.540510094702814e6 2.0665154358902767e7 0.0
2.0665154358902767e7 4.148242460674611e7 0.0
0.0 0.0 0.0

1.603346684601622e7 3.6485252205751434e7 0.0
3.6485252205751434e7 -5.853232644808427e6 0.0
0.0 0.0 0.0

-4.821879076623251e7 4.7916805299770385e6 0.0
4.7916805299770385e6 5.718609438966449e6 0.0
0.0 0.0 0.0

5.347850009216398e7 4.976739535897096e7 0.0
4.976739535897096e7 -9.38277947551677e6 0.0
0.0 0.0 0.0

1.5288809427457465e7 3.6781727512528874e7 0.0
3.6781727512528874e7 -6.311826175207676e6 0.0
0.0 0.0 0.0

3.015229681312111e6 3.668321762217238e6 0.0
3.668321762217238e6 -2.2609487888683032e7 0.0
0.0 0.0 0.0

-3.0117960853395658e6 3.1679934448046986e7 0.0
3.1679934448046986e7 2.5281717814288214e6 0.0
0.0 0.0 0.0

4.59416005483497e7 1.723745608259676e7 0.0
1.723745608259676e7 2.9591139118804727e6 0.0
0.0 0.0 0.0

-5.230674654075362e6 9.20928475127812e6 0.0
9.20928475127812e6 6.062322647383814e7 0.0
0.0 0.0 0.0

984449.3269796846 2.3127552739711497e7 0.0
2.3127552739711497e7 -1.499256990506998e7 0.0
0.0 0.0 0.0

2.894416929726372e7 2.1157393945394956e7 0.0
2.1157393945394956e7 5.833170313042227e6 0.0
0.0 0.0 0.0

1.9803774864619588e6 2.3593104798055287e7 0.0
2.3593104798055287e7 -1.1821117647135643e7 0.0
0.0 0.0 0.0

2.3126225643184576e6 4.565762854420469e6 0.0
4.565762854420469e6 -4.203476093214009e7 0.0
0.0 0.0 0.0

-334917.25240771833 2.9668089058085747e7 0.0
2.9668089058085747e7 -1.5577554501735969e6 0.0
0.0 0.0 0.0

-4.96751939949862e6 1.869066574697836e7 0.0
1.869066574697836e7 -2.090066335889146e7 0.0
0.0 0.0 0.0

3.4590276102511683e6 3.1981231821358085e7 0.0
3.1981231821358085e7 -5.571032903899437e6 0.0
0.0 0.0 0.0

-3.5831600789330974e6 1.2059758908468148e7 0.0
1.2059758908468148e7 6.276652965247714e7 0.0
0.0 0.0 0.0

-1.180944630309735e6 2.0836930479297966e7 0.0
2.0836930479297966e7 -1.133661609127395e7 0.0
0.0 0.0 0.0

1.5483974595408477e6 1.1056743127860803e7 0.0
1.1056743127860803e7 -3.071447998499717e7 0.0
0.0 0.0 0.0

5.734563641817601e6 2.656804729181558e7 0.0
2.656804729181558e7 -6.692100355301692e6 0.0
0.0 0.0 0.0

-3.431902270346066e6 2.0357766542485356e7 0.0
2.0357766542485356e7 -1.0722170240554096e7 0.0
0.0 0.0 0.0

-6.592170241813291e6 4.376944172856464e6 0.0
4.376944172856464e6 5.595074446269466e7 0.0
0.0 0.0 0.0

3.7275146523930826e6 2.1291669580612738e7 0.0
2.1291669580612738e7 2.47215834798235e7 0.0
0.0 0.0 0.0

-277127.5381578095 1.1396178169629613e7 0.0
1.1396178169629613e7 -4.768688076546335e7 0.0
0.0 0.0 0.0

4.345148571442359e6 3.1666043667632982e7 0.0
3.1666043667632982e7 -5.381526161300009e6 0.0
0.0 0.0 0.0

4.5963434961636495e6 2.430824891886348e7 0.0
2.430824891886348e7 1.55080321303339e7 0.0
0.0 0.0 0.0

2.296678346014796e6 9.886625042902267e6 0.0
9.886625042902267e6 -3.0106279000400614e7 0.0
0.0 0.0 0.0

6.84173752894186e7 2.9897533858367518e7 0.0
2.9897533858367518e7 1.5827590219986357e7 0.0
0.0 0.0 0.0

3.394738910481555e6 3.094312695532468e7 0.0
3.094312695532468e7 -5.579120411804711e6 0.0
0.0 0.0 0.0

-8.49848857463487e6 -955401.9528221213 0.0
-955401.9528221213 3.504699302557497e7 0.0
0.0 0.0 0.0

-7.762557458329599e6 4.722796574401265e6 0.0
4.722796574401265e6 5.220608390093604e7 0.0
0.0 0.0 0.0

2.8378278307167534e6 1.718919579893848e6 0.0
1.718919579893848e6 -3.52849425282836e7 0.0
0.0 0.0 0.0

-2.697758690307664e6 2.7072878558728218e7 0.0
2.7072878558728218e7 4.578137113655059e6 0.0
0.0 0.0 0.0

-1.8673542814915893e6 2.070015249294939e7 0.0
2.070015249294939e7 -1.0140203032311138e7 0.0
0.0 0.0 0.0

1.9964531040861737e6 2.5315321254705977e7 0.0
2.5315321254705977e7 -1.1954164403565079e7 0.0
0.0 0.0 0.0

-9.569077982377887e6 1.7261562546962523e6 0.0
1.7261562546962523e6 2.70178661370593e7 0.0
0.0 0.0 0.0

658982.3841544855 2.5654728447350338e7 0.0
2.5654728447350338e7 -8.63870292964337e6 0.0
0.0 0.0 0.0

-6.966017773762319e6 4.2466104929221915e6 0.0
4.2466104929221915e6 5.581251283648598e7 0.0
0.0 0.0 0.0

1.1335088936884943e7 2.3057926260223772e7 0.0
2.3057926260223772e7 7.346968395053515e6 0.0
0.0 0.0 0.0

-780484.0303120818 1.3832983455490936e7 0.0
1.3832983455490936e7 -4.550086439913072e7 0.0
0.0 0.0 0.0

388330.80392176285 1.1418236984343758e7 0.0
1.1418236984343758e7 -4.8009551885003485e7 0.0
0.0 0.0 0.0

-6.781771322164709e6 1.7946401620493792e7 0.0
1.7946401620493792e7 3.1131589094387192e7 0.0
0.0 0.0 0.0

-2.0726806525688278e6 2.256859503968051e7 0.0
2.256859503968051e7 5.861123312082267e6 0.0
0.0 0.0 0.0

302930.13750430284 4.943681525780563e6 0.0
4.943681525780563e6 -1.2311454721993087e6 0.0
0.0 0.0 0.0

-1.5049894191696856e6 2.1937882732018374e7 0.0
2.1937882732018374e7 -9.59667754982187e6 0.0
0.0 0.0 0.0

-3.451762876287534e6 2.969630659101686e7 0.0
2.969630659101686e7 7.392366869447945e6 0.0
0.0 0.0 0.0

8.651593989062637e6 2.1447423631198253e7 0.0
2.1447423631198253e7 5.1743159657252766e7 0.0
0.0 0.0 0.0

1.6418160212689163e7 2.622024493959539e7 0.0
2.622024493959539e7 -1.527357567684207e6 0.0
0.0 0.0 0.0

-3.824797347137969e6 1.9321644091575409e6 0.0
1.9321644091575409e6 8.068164176389524e7 0.0
0.0 0.0 0.0

-6.1002044397658035e6 1.1912303360970832e7 0.0
1.1912303360970832e7 4.97460214776755e7 0.0
0.0 0.0 0.0

-7.205680086944606e6 1.8012265832312968e7 0.0
1.8012265832312968e7 2.5326201896369785e7 0.0
0.0 0.0 0.0

2.723366721136249e6 2.068860736486552e7 0.0
2.068860736486552e7 1.2878736642431073e7 0.0
0.0 0.0 0.0

-1.0647783108976018e7 5.716673469124913e6 0.0
5.716673469124913e6 2.0122131013391998e7 0.0
0.0 0.0 0.0

-1.198073467981606e7 2.299752524232804e7 0.0
2.299752524232804e7 -9.287558078921687e6 0.0
0.0 0.0 0.0

2.736429834063085e6 5.050760517231755e6 0.0
5.050760517231755e6 -3.712800216043508e7 0.0
0.0 0.0 0.0

-9.43066336627135e6 1.8757987895874903e7 0.0
1.8757987895874903e7 -4.953488897272225e7 0.0
0.0 0.0 0.0

2.364965250932035e6 1.9636945133594207e7 0.0
1.9636945133594207e7 8.267295312378804e6 0.0
0.0 0.0 0.0

2.1900232227370672e7 3.2579673639345687e7 0.0
3.2579673639345687e7 -5.575548602484891e6 0.0
0.0 0.0 0.0

2.5841342683086526e6 2.4284370050410535e7 0.0
2.4284370050410535e7 -8.786996718160402e6 0.0
0.0 0.0 0.0

-2.7547342264529936e7 2.928625659005492e7 0.0
2.928625659005492e7 -9.231090205703724e6 0.0
0.0 0.0 0.0

-904484.7734765345 3.0897432549132142e7 0.0
3.0897432549132142e7 -1.8772037650119062e6 0.0
0.0 0.0 0.0

-2.2468761133393757e6 7.678144126110096e6 0.0
7.678144126110096e6 -1.9433299091448132e6 0.0
0.0 0.0 0.0

-6.106921909586132e6 4.335958049979876e7 0.0
4.335958049979876e7 4.868328421598942e6 0.0
0.0 0.0 0.0

-1.9775287859908985e6 2.3169824085755933e7 0.0
2.3169824085755933e7 4.413763317689776e6 0.0
0.0 0.0 0.0

-1.1526090869307306e7 1.044217855853354e7 0.0
1.044217855853354e7 2.04315114644386e7 0.0
0.0 0.0 0.0

-2.5961376194798467e6 2.3174714743490893e7 0.0
2.3174714743490893e7 2.271650668204826e6 0.0
0.0 0.0 0.0

-6.668411255148931e6 1.5004267271276242e6 0.0
1.5004267271276242e6 7.619816295030678e6 0.0
0.0 0.0 0.0

279089.04022605997 1.0858387480820356e7 0.0
1.0858387480820356e7 -2.2112122098727282e7 0.0
0.0 0.0 0.0

-333561.8504853416 1.4543772153152822e7 0.0
1.4543772153152822e7 -3.920907185450714e7 0.0
0.0 0.0 0.0

-1.2413536550425583e7 2.5103596244405955e7 0.0
2.5103596244405955e7 -1.0364810949220808e7 0.0
0.0 0.0 0.0

-2.494814271674104e6 2.1610129095790844e7 0.0
2.1610129095790844e7 2.5904868229265474e7 0.0
0.0 0.0 0.0

-1.3921611955688535e6 2.056325375346324e7 0.0
2.056325375346324e7 -7.353004783411633e6 0.0
0.0 0.0 0.0

3.0527809370389665e6 4.1529478207065244e6 0.0
4.1529478207065244e6 -1.5368179111605544e7 0.0
0.0 0.0 0.0

-288097.40468660626 2.7755418869977865e7 0.0
2.7755418869977865e7 -5.674856068978539e6 0.0
0.0 0.0 0.0

283543.7676058854 3.2244349690867923e7 0.0
3.2244349690867923e7 -3.036821953064675e6 0.0
0.0 0.0 0.0

7.625807575399069e6 2.6025830756401803e7 0.0
2.6025830756401803e7 -5.820806567280149e6 0.0
0.0 0.0 0.0

-1.0524823180051545e7 1.3492101927840464e7 0.0
1.3492101927840464e7 2.1778494380658176e7 0.0
0.0 0.0 0.0

-2.9489107472166307e6 1.9787533064200804e7 0.0
1.9787533064200804e7 -2.29566962413943e7 0.0
0.0 0.0 0.0

-6.705580404411571e6 3.713066900823296e7 0.0
3.713066900823296e7 3.3442266348510245e6 0.0
0.0 0.0 0.0

-5.552838876035867e6 3.628231713896352e7 0.0
3.628231713896352e7 3.146957898964194e6 0.0
0.0 0.0 0.0

-3.8295323266934715e6 1.750132320501948e7 0.0
1.750132320501948e7 -3.6671206665914394e7 0.0
0.0 0.0 0.0

-4.4442233635568e6 2.0130831952654026e7 0.0
2.0130831952654026e7 -1.384274565346321e7 0.0
0.0 0.0 0.0

1.3453312780024288e6 2.0539342159834627e7 0.0
2.0539342159834627e7 6.7682881006529145e6 0.0
0.0 0.0 0.0

1.2318747938561589e6 1.0486802603525763e7 0.0
1.0486802603525763e7 -3.7366760713498786e7 0.0
0.0 0.0 0.0

-7.62948756644398e6 1.3232582128495822e7 0.0
1.3232582128495822e7 4.0915721592889704e7 0.0
0.0 0.0 0.0

-2.7214384260694087e6 1.360109886649921e7 0.0
1.360109886649921e7 -8.204000089865005e7 0.0
0.0 0.0 0.0

1.3320213353502218e7 4.0785321774823174e7 0.0
4.0785321774823174e7 -6.873228759034724e6 0.0
0.0 0.0 0.0

8.519225664154008e6 1.9209648246280372e7 0.0
1.9209648246280372e7 3.666878958148742e7 0.0
0.0 0.0 0.0

6.281634544763548e6 2.0284953651222046e7 0.0
2.0284953651222046e7 4.686057623842527e7 0.0
0.0 0.0 0.0

2.88300132929676e7 2.7215647231332567e7 0.0
2.7215647231332567e7 1.3727815282008413e7 0.0
0.0 0.0 0.0

-186165.60480743647 2.144754165212222e7 0.0
2.144754165212222e7 3.554649808434777e6 0.0
0.0 0.0 0.0

-210221.3124654172 2.7249240781914994e7 0.0
2.7249240781914994e7 -5.37818135245206e6 0.0
0.0 0.0 0.0

-3.501053568314919e7 3.0029445070127714e7 0.0
3.0029445070127714e7 -1.0547364964871805e7 0.0
0.0 0.0 0.0

-167793.31238301774 2.0433801850204613e7 0.0
2.0433801850204613e7 1.3231955824031292e6 0.0
0.0 0.0 0.0

-4.167172356362353e6 2.4445690975625083e7 0.0
2.4445690975625083e7 6.323982015044307e6 0.0
0.0 0.0 0.0

3.2045691369542107e6 3.7374468880084204e6 0.0
3.7374468880084204e6 -3.0593361162312176e7 0.0
0.0 0.0 0.0

-1.376348961909276e7 2.479080724019115e7 0.0
2.479080724019115e7 -7.411252221524164e6 0.0
0.0 0.0 0.0

-1.6675378434586339e7 4.554805657501253e7 0.0
4.554805657501253e7 5.672873309159767e6 0.0
0.0 0.0 0.0

-9.571754689354176e6 3.5600523109482494e6 0.0
3.5600523109482494e6 3.0306414040697593e7 0.0
0.0 0.0 0.0

1.5600248898431621e7 3.362934737192146e7 0.0
3.362934737192146e7 -5.3715048076086e6 0.0
0.0 0.0 0.0

-2.019564675079625e6 1.1503331601379681e7 0.0
1.1503331601379681e7 8.769217945638862e7 0.0
0.0 0.0 0.0

-8.517103719150418e6 -937171.9188877793 0.0
-937171.9188877793 3.487549957401234e7 0.0
0.0 0.0 0.0

-1.580176961300016e7 2.129775088338136e7 0.0
2.129775088338136e7 -6.4274805244739324e7 0.0
0.0 0.0 0.0

-374915.50017918414 2.252058912525332e7 0.0
2.252058912525332e7 -1.261909671865995e7 0.0
0.0 0.0 0.0

440948.67296259594 3.3286996380367793e7 0.0
3.3286996380367793e7 -1.6011692232421981e6 0.0
0.0 0.0 0.0

-8.644854604102e6 2.0872238998101585e7 0.0
2.0872238998101585e7 -1.2474375132031234e7 0.0
0.0 0.0 0.0

-1.0056450145854016e6 1.1309605849271404e7 0.0
1.1309605849271404e7 -2.0972025372115634e6 0.0
0.0 0.0 0.0

-864825.8636128566 2.9427961280015927e7 0.0
2.9427961280015927e7 -3.1118908824415454e6 0.0
0.0 0.0 0.0

-3.3798353848408847e6 3.50945963642712e7 0.0
3.50945963642712e7 2.925558749709919e6 0.0
0.0 0.0 0.0

800585.4420775006 3.351228153240072e7 0.0
3.351228153240072e7 -2.06832350214516e6 0.0
0.0 0.0 0.0

-4.846889180007048e6 1.2581654575398631e7 0.0
1.2581654575398631e7 -8.894870835875389e7 0.0
0.0 0.0 0.0

-6.476348479293002e6 2.1069750362542428e7 0.0
2.1069750362542428e7 -2.2883878424835213e7 0.0
0.0 0.0 0.0

-5.4979967921230085e6 3.2922008804120226e6 0.0
3.2922008804120226e6 6.600755389158618e7 0.0
0.0 0.0 0.0

1.599644249665372e7 2.4394522451173365e7 0.0
2.4394522451173365e7 7.179003715504612e7 0.0
0.0 0.0 0.0

-5.463766061578306e7 4.663839438837921e6 0.0
4.663839438837921e6 5.49465347629891e6 0.0
0.0 0.0 0.0

4.804099619137311e7 3.2229431871222615e7 0.0
3.2229431871222615e7 1.0095658627073225e7 0.0
0.0 0.0 0.0

-546136.8535492923 1.7237524202089947e7 0.0
1.7237524202089947e7 -3.233003485171726e7 0.0
0.0 0.0 0.0

2.100084414882775e6 5.7624253476850595e6 0.0
5.7624253476850595e6 -9.12026718550644e6 0.0
0.0 0.0 0.0

6.482940824020955e7 3.052164306386361e7 0.0
3.052164306386361e7 208447.8853169419 0.0
0.0 0.0 0.0

2.530364088645978e6 1.2419657476330815e7 0.0
1.2419657476330815e7 -2.8347808526546232e7 0.0
0.0 0.0 0.0

3.587020758761502e7 2.758775744541437e7 0.0
2.758775744541437e7 1.4837572389611144e7 0.0
0.0 0.0 0.0

-1.3411313578294031e6 3.060778679677577e7 0.0
3.060778679677577e7 -1.1743457943739435e6 0.0
0.0 0.0 0.0

-4.942104613843694e6 3.022861746951709e7 0.0
3.022861746951709e7 7.427374720804073e6 0.0
0.0 0.0 0.0

-1.0435912069805241e6 1.5005830783902435e7 0.0
1.5005830783902435e7 -1.0231871673702737e7 0.0
0.0 0.0 0.0

-6.652288001442077e6 1.5394487153611988e7 0.0
1.5394487153611988e7 -7.288022279771963e6 0.0
0.0 0.0 0.0

-6.42703598008313e6 1.9869638993698575e7 0.0
1.9869638993698575e7 -2.2622461934375495e7 0.0
0.0 0.0 0.0

-1.9006672506536567e6 2.340035950740122e7 0.0
2.340035950740122e7 9.726554672483202e6 0.0
0.0 0.0 0.0

4.228735807729169e6 2.3237454945814982e7 0.0
2.3237454945814982e7 1.176717971770622e7 0.0
0.0 0.0 0.0

-2.43409186399471e6 9.999632705741817e6 0.0
9.999632705741817e6 8.263298850984934e7 0.0
0.0 0.0 0.0

-1.817882237165717e6 2.8561234858796403e7 0.0
2.8561234858796403e7 -544621.7668073748 0.0
0.0 0.0 0.0

2.788090989038801e6 1.687994450462898e6 0.0
1.687994450462898e6 -3.549516207801069e7 0.0
0.0 0.0 0.0

-2.832879827401327e6 2.4058844961880255e7 0.0
2.4058844961880255e7 1.6981529383085158e7 0.0
0.0 0.0 0.0

2.7619804525887445e6 2.3191078501344994e7 0.0
2.3191078501344994e7 1.3503582533068888e7 0.0
0.0 0.0 0.0

1.5293117598951256e7 2.841858256624972e7 0.0
2.841858256624972e7 -3.7779023591331597e6 0.0
0.0 0.0 0.0

1.4702930652636546e6 2.7726550491432037e7 0.0
2.7726550491432037e7 -8.66207860942015e6 0.0
0.0 0.0 0.0

-4.563326507831916e6 3.939976612279854e7 0.0
3.939976612279854e7 1.8984462860838391e6 0.0
0.0 0.0 0.0

-3.3249094679109375e6 8.456092938790245e6 0.0
8.456092938790245e6 26748.02461516019 0.0
0.0 0.0 0.0

-1.353314965812677e7 3.6228351271546096e7 0.0
3.6228351271546096e7 5.454196055508422e6 0.0
0.0 0.0 0.0

-1.9951491304430512e6 3.1224086720354687e7 0.0
3.1224086720354687e7 3.2758515513130515e6 0.0
0.0 0.0 0.0

-6.805316429377649e6 1.9197132989600345e7 0.0
1.9197132989600345e7 2.5274084388967436e7 0.0
0.0 0.0 0.0

3.9702692191093005e7 2.776229430817e7 0.0
2.776229430817e7 2.20285852167093e6 0.0
0.0 0.0 0.0

1.0295844502152111e6 2.11762286755864e7 0.0
2.11762286755864e7 -1.6380991992633926e7 0.0
0.0 0.0 0.0

-1.7144335272785854e6 3.0287899186967507e7 0.0
3.0287899186967507e7 -342629.65706545743 0.0
0.0 0.0 0.0

-838656.4101517568 1.3613681951909399e7 0.0
1.3613681951909399e7 -1.0652216844476549e7 0.0
0.0 0.0 0.0

-830163.3097884534 2.2864644889289517e7 0.0
2.2864644889289517e7 1.5417844860103084e7 0.0
0.0 0.0 0.0

-1.0622620569014985e7 1.6565875063568482e7 0.0
1.6565875063568482e7 -4.0812413858257765e6 0.0
0.0 0.0 0.0

-1.3696803597210208e7 2.3845827865167078e7 0.0
2.3845827865167078e7 -7.591625257115165e6 0.0
0.0 0.0 0.0

469876.7473845598 2.2147654503063764e7 0.0
2.2147654503063764e7 -1.2552109252059598e7 0.0
0.0 0.0 0.0

1.2523170860009935e7 1.714194289301513e7 0.0
1.714194289301513e7 4.885327624526367e6 0.0
0.0 0.0 0.0

9660.821846891195 2.049858087624895e7 0.0
2.049858087624895e7 -2.0646291477449253e7 0.0
0.0 0.0 0.0

-2.372783433315564e6 2.1333451905079313e7 0.0
2.1333451905079313e7 2.586397284508908e7 0.0
0.0 0.0 0.0

-1.8227256680810343e7 2.284179535725856e7 0.0
2.284179535725856e7 -1.9296209767216705e6 0.0
0.0 0.0 0.0

-3.017843836522703e6 2.317668140235056e7 0.0
2.317668140235056e7 4.0397435950594554e6 0.0
0.0 0.0 0.0

-1.1124246634594403e7 9.268507115170212e6 0.0
9.268507115170212e6 2.8087674408514038e7 0.0
0.0 0.0 0.0

3.747528906179711e6 2.0511895367198553e7 0.0
2.0511895367198553e7 2.344403578438902e7 0.0
0.0 0.0 0.0

1.8642136060520463e7 3.696071035428982e7 0.0
3.696071035428982e7 -6.925331580196355e6 0.0
0.0 0.0 0.0

-4.548980506298358e7 3.026173859790857e7 0.0
3.026173859790857e7 -674837.5281404089 0.0
0.0 0.0 0.0

1.2336772751075007e7 4.6238716521182925e7 0.0
4.6238716521182925e7 -3.5974492655570563e6 0.0
0.0 0.0 0.0

-1.5778624658331087e7 2.691493303921461e7 0.0
2.691493303921461e7 -483713.3423141567 0.0
0.0 0.0 0.0

7.451716151004223e6 4.181829686844071e7 0.0
4.181829686844071e7 -2.3145428162103747e6 0.0
0.0 0.0 0.0

-1.0977945790738268e7 5.316238586530474e6 0.0
5.316238586530474e6 2.7554757245453004e7 0.0
0.0 0.0 0.0

1.8814617802101452e7 2.7095559976724528e7 0.0
2.7095559976724528e7 -1.7008404273263607e6 0.0
0.0 0.0 0.0

-4.456453964459738e6 3.67047930959476e7 0.0
3.67047930959476e7 3.806546656767982e6 0.0
0.0 0.0 0.0

-5.764079131061375e6 2.4187194447416935e7 0.0
2.4187194447416935e7 1.0850848556284937e6 0.0
0.0 0.0 0.0

-660326.9653246133 1.9103918070400484e7 0.0
1.9103918070400484e7 -2.655483713172581e7 0.0
0.0 0.0 0.0

-7.137920995056044e6 3.278718457811661e7 0.0
3.278718457811661e7 6.174396808123345e6 0.0
0.0 0.0 0.0

-8.436434410752611e6 2.047480605583088e7 0.0
2.047480605583088e7 -8.327435328714959e6 0.0
0.0 0.0 0.0

6.564008200788155e6 4.098692143243056e7 0.0
4.098692143243056e7 -4.388069188667484e6 0.0
0.0 0.0 0.0

-1.7057926073024392e7 3.66003703991973e7 0.0
3.66003703991973e7 6.469948058228982e6 0.0
0.0 0.0 0.0

1.3127993574452056e7 2.7425237210585233e7 0.0
2.7425237210585233e7 -3.305011446259531e6 0.0
0.0 0.0 0.0

3.158734360365306e6 5.88886681694738e6 0.0
5.88886681694738e6 -1.992155662288779e7 0.0
0.0 0.0 0.0

-7.337469816886018e6 1.9533376273575295e7 0.0
1.9533376273575295e7 -3.982703403278054e7 0.0
0.0 0.0 0.0

2.9531266327837985e6 4.0390808800254525e6 0.0
4.0390808800254525e6 -1.686702949273362e7 0.0
0.0 0.0 0.0

6.629177370329592e6 1.9680701266560063e7 0.0
1.9680701266560063e7 3.460673103554544e7 0.0
0.0 0.0 0.0

6.960354360928617e6 2.5278577628370922e7 0.0
2.5278577628370922e7 -3.574597710526079e6 0.0
0.0 0.0 0.0

1.2184738753579117e7 3.398473767681892e7 0.0
3.398473767681892e7 -5.511489100656122e6 0.0
0.0 0.0 0.0

-6.623163680056918e6 1.9049944837239444e7 0.0
1.9049944837239444e7 2.9512892681935832e7 0.0
0.0 0.0 0.0

-138665.32438907633 1.5765677037127199e7 0.0
1.5765677037127199e7 -9.081021662513848e6 0.0
0.0 0.0 0.0

1.2937954716201867e6 1.0083393038626224e7 0.0
1.0083393038626224e7 4.077484561469397e6 0.0
0.0 0.0 0.0

-1.3280175964759625e6 1.1831279167440541e7 0.0
1.1831279167440541e7 -6.770114565297127e7 0.0
0.0 0.0 0.0

2.790046098503902e6 1.7762312986138634e7 0.0
1.7762312986138634e7 8.06857675991289e6 0.0
0.0 0.0 0.0

-1.6243550770783005e7 3.2503359406782344e7 0.0
3.2503359406782344e7 5.128281126882116e6 0.0
0.0 0.0 0.0

-1.6478157372989072e6 2.0662988676060773e7 0.0
2.0662988676060773e7 -1.4627004867576806e7 0.0
0.0 0.0 0.0

3.054718845366367e7 2.6580256464945305e7 0.0
2.6580256464945305e7 1.3555972222398147e7 0.0
0.0 0.0 0.0

-9.557597430024935e6 7.903321930477811e6 0.0
7.903321930477811e6 3.641070196438631e7 0.0
0.0 0.0 0.0

-3.652324086474946e7 3.402105409350905e7 0.0
3.402105409350905e7 446226.3265269026 0.0
0.0 0.0 0.0

3.8385618183383286e7 3.899596318883558e7 0.0
3.899596318883558e7 -8.909176982790327e6 0.0
0.0 0.0 0.0

-5.306370164554158e6 3.0286191125736192e7 0.0
3.0286191125736192e7 8.1879366484106295e6 0.0
0.0 0.0 0.0

68693.10865954927 1.876824970847348e7 0.0
1.876824970847348e7 2.997436151097221e6 0.0
0.0 0.0 0.0

-4.957385811987221e6 1.7952467204064865e7 0.0
1.7952467204064865e7 3.7413479000618875e7 0.0
0.0 0.0 0.0

-8.918351294738546e6 210584.25474983585 0.0
210584.25474983585 3.597844729725153e7 0.0
0.0 0.0 0.0

418493.14693006966 2.0717136616312236e7 0.0
2.0717136616312236e7 -1.792702747267936e7 0.0
0.0 0.0 0.0

-1.2118561002621258e7 2.7720737888174746e7 0.0
2.7720737888174746e7 -1.3649971459476236e7 0.0
0.0 0.0 0.0

142852.5989211402 2.115966360845104e7 0.0
2.115966360845104e7 -1.1690166915502913e7 0.0
0.0 0.0 0.0

-4.053819942358546e6 1.2527282665917806e7 0.0
1.2527282665917806e7 5.7862679322591625e7 0.0
0.0 0.0 0.0

75429.79461527057 1.6067832495075464e7 0.0
1.6067832495075464e7 -3.1613373076382585e7 0.0
0.0 0.0 0.0

-1.1774552327846255e7 2.7481324016438954e7 0.0
2.7481324016438954e7 -1.3891389852091707e7 0.0
0.0 0.0 0.0

-797511.8930438189 1.8577984027217038e7 0.0
1.8577984027217038e7 -2.6461409191917624e7 0.0
0.0 0.0 0.0

3.1384703387316275e7 2.6014823759528622e7 0.0
2.6014823759528622e7 1.548980057246321e7 0.0
0.0 0.0 0.0

-5.8449166866495535e6 1.077719206508153e7 0.0
1.077719206508153e7 5.324164067386115e7 0.0
0.0 0.0 0.0

1.7474559076192775e6 2.312768703326994e7 0.0
2.312768703326994e7 -703678.3600141397 0.0
0.0 0.0 0.0

-1.1417714510349585e6 2.263758267270819e7 0.0
2.263758267270819e7 2.1094256943277374e7 0.0
0.0 0.0 0.0

5.326629454171096e6 3.254157868884455e7 0.0
3.254157868884455e7 -5.34146709215593e6 0.0
0.0 0.0 0.0

2.0911977147412077e6 1.080922248159349e7 0.0
1.080922248159349e7 -3.240517945006676e7 0.0
0.0 0.0 0.0

1.791757221519933e6 1.0141378155308185e7 0.0
1.0141378155308185e7 -1.3188629872335209e7 0.0
0.0 0.0 0.0

-1.3075827287798524e6 1.2410248498991841e7 0.0
1.2410248498991841e7 -5.853706467570926e7 0.0
0.0 0.0 0.0

-1.1783079934412362e7 2.5754828991339542e7 0.0
2.5754828991339542e7 -5.318988613537342e6 0.0
0.0 0.0 0.0

-7.342102211425094e6 1.0604135635176096e7 0.0
1.0604135635176096e7 4.8185632646693856e7 0.0
0.0 0.0 0.0

-1.0501544029485106e7 2.5478587145348083e7 0.0
2.5478587145348083e7 -9.705221147731448e6 0.0
0.0 0.0 0.0

146178.01722111274 1.9990606402363963e7 0.0
1.9990606402363963e7 -1.2147329892470915e7 0.0
0.0 0.0 0.0

89702.57598610967 9.542945256922485e6 0.0
9.542945256922485e6 -5.11945474613792e7 0.0
0.0 0.0 0.0

-5.932511265798865e6 1.6730288519008154e7 0.0
1.6730288519008154e7 3.8021238046416566e7 0.0
0.0 0.0 0.0

4.22088604610905e6 1.9607223203075156e7 0.0
1.9607223203075156e7 1.546935949108706e7 0.0
0.0 0.0 0.0

-1.2516075324366447e6 1.423561252761885e7 0.0
1.423561252761885e7 -4.241514094491314e7 0.0
0.0 0.0 0.0

2.2815419956090916e6 2.5120980502103656e6 0.0
2.5120980502103656e6 -3.966344399697532e7 0.0
0.0 0.0 0.0

-3.087250293475086e6 2.3465349026694722e7 0.0
2.3465349026694722e7 1.710629372672164e7 0.0
0.0 0.0 0.0

-9.869655445376381e6 2.6133993253900703e7 0.0
2.6133993253900703e7 -1.3251549421388304e7 0.0
0.0 0.0 0.0

1.0813101068942705e6 1.4631888939096069e7 0.0
1.4631888939096069e7 -1.541461076774855e7 0.0
0.0 0.0 0.0

-8.226339075966144e6 3.986020146661676e6 0.0
3.986020146661676e6 4.405053454049385e7 0.0
0.0 0.0 0.0

-4.385035687908776e6 937028.7874190295 0.0
937028.7874190295 8.469623975347314e6 0.0
0.0 0.0 0.0

-5.037040349168017e6 2.1523714636527892e7 0.0
2.1523714636527892e7 2.073255533320294e7 0.0
0.0 0.0 0.0

3.3372931498574127e7 2.914146614681908e7 0.0
2.914146614681908e7 1.98109207877026e7 0.0
0.0 0.0 0.0

2.550742735898514e7 2.645405997941427e7 0.0
2.645405997941427e7 1.4852519262599733e7 0.0
0.0 0.0 0.0

-1.865041894179329e7 2.6522377196020737e7 0.0
2.6522377196020737e7 -1.2239943812495168e7 0.0
0.0 0.0 0.0

-4.7677824315447975e6 1.8307782300064843e7 0.0
1.8307782300064843e7 -1.427128361177892e7 0.0
0.0 0.0 0.0

-1.09302438524171e7 2.671353913821503e7 0.0
2.671353913821503e7 -1.1259616456316885e7 0.0
0.0 0.0 0.0

-1.0821955681890361e7 2.474290025081876e7 0.0
2.474290025081876e7 -1.2185893223854609e7 0.0
0.0 0.0 0.0

-1.1027316438493486e6 1.3127561162197702e7 0.0
1.3127561162197702e7 -5.181694617256545e7 0.0
0.0 0.0 0.0

-1.8762639135049798e6 4.288675634034558e6 0.0
4.288675634034558e6 -670390.4194022937 0.0
0.0 0.0 0.0

-1.2530687548021774e6 7.603713781180785e6 0.0
7.603713781180785e6 1.3776638190449283e6 0.0
0.0 0.0 0.0

1.4661570734801525e6 1.9082723105929695e7 0.0
1.9082723105929695e7 2.186384828895425e6 0.0
0.0 0.0 0.0

2.2549436950622916e7 2.6546752876698304e7 0.0
2.6546752876698304e7 1.3605339152600562e7 0.0
0.0 0.0 0.0

1.7141463222707754e6 2.0069083566231713e7 0.0
2.0069083566231713e7 9.785336588345442e6 0.0
0.0 0.0 0.0

-3.776898799594233e6 2.2588195458642527e7 0.0
2.2588195458642527e7 1.7746193356136918e7 0.0
0.0 0.0 0.0

-2.684162127803449e7 1.4166807590961304e7 0.0
1.4166807590961304e7 7.6979187683798075e6 0.0
0.0 0.0 0.0

3.2782438682839265e6 1.966466678251405e7 0.0
1.966466678251405e7 1.197963890017596e7 0.0
0.0 0.0 0.0

2.2418294242504006e6 6.498830525718524e6 0.0
6.498830525718524e6 -2.0848579905178785e7 0.0
0.0 0.0 0.0

-1.6151967333642952e7 3.45906882841996e7 0.0
3.45906882841996e7 6.074042066190753e6 0.0
0.0 0.0 0.0

-7.730308312922599e6 1.8705417228596492e6 0.0
1.8705417228596492e6 4.655764927701459e7 0.0
0.0 0.0 0.0

-2.031609584902134e6 2.2407719902724035e7 0.0
2.2407719902724035e7 -1.0519776182257451e7 0.0
0.0 0.0 0.0

1.05885431295452e7 2.3668790924930394e7 0.0
2.3668790924930394e7 1.2568620435671266e7 0.0
0.0 0.0 0.0

-9.213895977755118e6 2.5814993448966805e7 0.0
2.5814993448966805e7 -1.3281524301740173e7 0.0
0.0 0.0 0.0

-3.9984918501830203e6 1.823116241697483e7 0.0
1.823116241697483e7 -3.3254331973117396e7 0.0
0.0 0.0 0.0

2.66262807277396e7 2.785501657705634e7 0.0
2.785501657705634e7 1.7968590647157505e7 0.0
0.0 0.0 0.0

-3.8057472770119775e6 2.0429354509998072e7 0.0
2.0429354509998072e7 -2.3871908616801e7 0.0
0.0 0.0 0.0

2.3936601512404946e6 2.077947676681501e7 0.0
2.077947676681501e7 1.3945550591321668e7 0.0
0.0 0.0 0.0

5.647430060821656e6 2.312953739928082e7 0.0
2.312953739928082e7 1.6574332307948163e7 0.0
0.0 0.0 0.0

-2.8376946461359533e6 2.3232227471499868e7 0.0
2.3232227471499868e7 1.8149808035270184e7 0.0
0.0 0.0 0.0

-2.4528461476590727e6 2.3329056288771804e7 0.0
2.3329056288771804e7 1.2245729815840116e7 0.0
0.0 0.0 0.0

1.9560842304053959e6 5.622748586722256e6 0.0
5.622748586722256e6 -3.798406762402948e7 0.0
0.0 0.0 0.0

1.6657548179011436e6 3.510769053930175e7 0.0
3.510769053930175e7 -2.2482681304358277e6 0.0
0.0 0.0 0.0

-7.041218397269984e6 2.208252940000833e7 0.0
2.208252940000833e7 -1.806457025581518e7 0.0
0.0 0.0 0.0

3.7876613284665965e7 2.460269121954905e7 0.0
2.460269121954905e7 1.567324794332048e7 0.0
0.0 0.0 0.0

-9.650236966782618e6 3.160994410948972e7 0.0
3.160994410948972e7 6.581615039591799e6 0.0
0.0 0.0 0.0

2.099454685188202e6 4.596759432235454e6 0.0
4.596759432235454e6 -4.412029583624091e7 0.0
0.0 0.0 0.0

-2.296164472818795e6 2.0703187428949352e7 0.0
2.0703187428949352e7 7.650217045773292e6 0.0
0.0 0.0 0.0

1.9431713096496806e7 2.3852780493336648e7 0.0
2.3852780493336648e7 1.0742664467139427e7 0.0
0.0 0.0 0.0

4.837562502336086e7 2.290053132179096e7 0.0
2.290053132179096e7 1.3137237145879889e7 0.0
0.0 0.0 0.0

-6.266786026810506e6 3.640770728730796e7 0.0
3.640770728730796e7 4.795134417942973e6 0.0
0.0 0.0 0.0

516078.1852994198 2.154133254639499e7 0.0
2.154133254639499e7 -1.925033239091364e7 0.0
0.0 0.0 0.0

-9.966801392816806e6 1.268083850236492e7 0.0
1.268083850236492e7 2.32849159945218e7 0.0
0.0 0.0 0.0

-8.253147233608184e6 2.064693567224024e6 0.0
2.064693567224024e6 4.4799614732918434e7 0.0
0.0 0.0 0.0

2.4728973391105696e6 1.9861521704364028e7 0.0
1.9861521704364028e7 8.295249547330825e6 0.0
0.0 0.0 0.0

1.5106735319619257e7 1.973451638702797e7 0.0
1.973451638702797e7 1.0732694162881192e7 0.0
0.0 0.0 0.0

-9.633465909642322e6 5.560023658761855e6 0.0
5.560023658761855e6 3.498859170148265e7 0.0
0.0 0.0 0.0

-3.125208543445809e6 1.42015170980669e7 0.0
1.42015170980669e7 -1.2603895063621355e6 0.0
0.0 0.0 0.0

-4.631476770453243e6 2.2351967370626893e7 0.0
2.2351967370626893e7 -1.6215045582779465e7 0.0
0.0 0.0 0.0

-5.246134219185209e6 1.8646747775188126e7 0.0
1.8646747775188126e7 -3.0972278052971993e7 0.0
0.0 0.0 0.0

533215.6886035971 3.4299712724903055e7 0.0
3.4299712724903055e7 -1.793757182052711e6 0.0
0.0 0.0 0.0

6.353082112771153e6 3.3248564740310684e7 0.0
3.3248564740310684e7 -5.586186094572859e6 0.0
0.0 0.0 0.0

5.975535342684509e6 4.4970803646807164e7 0.0
4.4970803646807164e7 -3.9836678402459375e6 0.0
0.0 0.0 0.0

-1.6536784448304096e7 4.243042534635424e7 0.0
4.243042534635424e7 6.6688243768636435e6 0.0
0.0 0.0 0.0

9.327290522032814e6 2.0461952360146336e7 0.0
2.0461952360146336e7 3.470085674734199e7 0.0
0.0 0.0 0.0

-9.239048397029225e6 1.8782340774513196e7 0.0
1.8782340774513196e7 -8.580737472035134e7 0.0
0.0 0.0 0.0

-1.0230672274865108e7 1.073139621175271e6 0.0
1.073139621175271e6 2.5623675871744554e7 0.0
0.0 0.0 0.0

-1.116937449945465e7 1.728295080815445e7 0.0
1.728295080815445e7 -3.7891306753726415e7 0.0
0.0 0.0 0.0

-5.0945229160320675e6 1.718852182680005e7 0.0
1.718852182680005e7 -1.6511252254143706e7 0.0
0.0 0.0 0.0

7.556512968807151e6 2.0880157446714282e7 0.0
2.0880157446714282e7 3.3330184426548198e7 0.0
0.0 0.0 0.0

-1.0815046926727086e7 1.946279025112711e7 0.0
1.946279025112711e7 -4.491118092908932e7 0.0
0.0 0.0 0.0

-8.3161753007192835e6 1.783989295049183e7 0.0
1.783989295049183e7 -3.1657312957520258e7 0.0
0.0 0.0 0.0

2.202871757303015e7 2.6200007634637773e7 0.0
2.6200007634637773e7 1.1952210635075487e7 0.0
0.0 0.0 0.0

-6.247959266387017e6 2.2595481418885376e7 0.0
2.2595481418885376e7 -1.6078253184126869e7 0.0
0.0 0.0 0.0

1.8759040203306135e6 9.912888541249e6 0.0
9.912888541249e6 -3.66097192149465e7 0.0
0.0 0.0 0.0

1.5792454816018476e6 2.001476019715945e7 0.0
2.001476019715945e7 4.563483829705406e6 0.0
0.0 0.0 0.0

-1.082476259943513e7 2.6597260227821995e7 0.0
2.6597260227821995e7 -1.3872558088621961e7 0.0
0.0 0.0 0.0

5.764418043540033e6 1.913106710827989e7 0.0
1.913106710827989e7 2.111270996905492e7 0.0
0.0 0.0 0.0

3.0074849271282163e6 4.0305190926841204e6 0.0
4.0305190926841204e6 -1.7355697704220135e7 0.0
0.0 0.0 0.0

-2.0031605973659605e6 2.9974462501692045e7 0.0
2.9974462501692045e7 622774.6879598293 0.0
0.0 0.0 0.0

-4.1588038628487177e6 3.4264929804729e7 0.0
3.4264929804729e7 2.800593529342394e6 0.0
0.0 0.0 0.0

-6.409953170450404e6 1.7018510247386597e7 0.0
1.7018510247386597e7 3.6772492620409735e7 0.0
0.0 0.0 0.0

2.2840625805425756e6 2.15219753305946e7 0.0
2.15219753305946e7 1.0371200358757526e7 0.0
0.0 0.0 0.0

5.198557482017598e6 2.3382615691481907e7 0.0
2.3382615691481907e7 1.7477731954797488e7 0.0
0.0 0.0 0.0

-4.374272657617367e6 3.868441654291338e7 0.0
3.868441654291338e7 3.167786953937865e6 0.0
0.0 0.0 0.0

-3.463841304480537e6 2.2386362061888922e7 0.0
2.2386362061888922e7 1.8446206840691525e7 0.0
0.0 0.0 0.0

-9.477455174754392e6 -394961.40391986474 0.0
-394961.40391986474 2.9462984708028782e7 0.0
0.0 0.0 0.0

-3.6513087958490066e6 3.401904858367666e7 0.0
3.401904858367666e7 4.301642543770895e6 0.0
0.0 0.0 0.0

-138970.03209689807 2.9096190936105955e7 0.0
2.9096190936105955e7 -2.649703956650947e6 0.0
0.0 0.0 0.0

-2.790993949252189e6 2.2669949911910214e7 0.0
2.2669949911910214e7 3.4796502594336667e6 0.0
0.0 0.0 0.0

1.3713422787250697e6 3.47180176080666e7 0.0
3.47180176080666e7 -2.360399139438119e6 0.0
0.0 0.0 0.0

1.2958092884026123e6 3.3945732275741965e7 0.0
3.3945732275741965e7 -1.893485596848334e6 0.0
0.0 0.0 0.0

-2.431193529656614e6 2.1675522349946797e7 0.0
2.1675522349946797e7 -1.1618343778905606e7 0.0
0.0 0.0 0.0

4.275032325203012e6 2.1665583970187586e7 0.0
2.1665583970187586e7 1.425010824494557e7 0.0
0.0 0.0 0.0

1.5653582241217531e6 9.708531294188363e6 0.0
9.708531294188363e6 -3.422225564990804e7 0.0
0.0 0.0 0.0

-1.4676767717195837e7 1.8110279818358965e7 0.0
1.8110279818358965e7 -5.430865147153963e7 0.0
0.0 0.0 0.0

-5.153802989896882e6 2.458797251088238e7 0.0
2.458797251088238e7 3.7481949146367493e6 0.0
0.0 0.0 0.0

-4.182285302120183e7 3.661377318656563e7 0.0
3.661377318656563e7 -1.6294076662301023e7 0.0
0.0 0.0 0.0

-8.609125732836181e6 1.9118782667343657e7 0.0
1.9118782667343657e7 -3.00085403428889e7 0.0
0.0 0.0 0.0

-4.678367687178886e7 3.611743513011547e7 0.0
3.611743513011547e7 -9.241747806356754e6 0.0
0.0 0.0 0.0

-3.595714151335451e6 2.5083343192238644e7 0.0
2.5083343192238644e7 1.2822990157111116e7 0.0
0.0 0.0 0.0

-7.06110220487643e6 657191.0267489677 0.0
657191.0267489677 5.163567252953779e7 0.0
0.0 0.0 0.0

4.457910555156477e6 3.2365621956521552e7 0.0
3.2365621956521552e7 -5.302407407031143e6 0.0
0.0 0.0 0.0

-1.8918317827521022e7 2.8824195534440745e7 0.0
2.8824195534440745e7 -1.2838249120593552e7 0.0
0.0 0.0 0.0

500593.615229371 2.2260750742599804e7 0.0
2.2260750742599804e7 -1.7401426217454415e7 0.0
0.0 0.0 0.0

-1.3246566940862428e7 3.465190067674058e7 0.0
3.465190067674058e7 5.860686895369103e6 0.0
0.0 0.0 0.0

-1.071391522685307e7 9.097446938238867e6 0.0
9.097446938238867e6 2.7560748469839755e7 0.0
0.0 0.0 0.0

748266.3247730006 1.094120612513134e7 0.0
1.094120612513134e7 -4.3246037301254295e7 0.0
0.0 0.0 0.0

-1.70986219670402e7 3.420856173866351e7 0.0
3.420856173866351e7 5.471217047468866e6 0.0
0.0 0.0 0.0

1.805721800347261e6 2.0783959595813245e7 0.0
2.0783959595813245e7 6.8311491629864685e6 0.0
0.0 0.0 0.0

-1.1325593881792346e7 1.1362711766719352e7 0.0
1.1362711766719352e7 2.1648908299458683e7 0.0
0.0 0.0 0.0

-576914.5931061013 2.032423375282931e7 0.0
2.032423375282931e7 -1.2700169166593151e7 0.0
0.0 0.0 0.0

4.242057721522646e6 3.0650856365636244e7 0.0
3.0650856365636244e7 -6.1353021197373e6 0.0
0.0 0.0 0.0

-2.8763088756458588e7 1.4719280881300967e7 0.0
1.4719280881300967e7 7.3945456121408995e6 0.0
0.0 0.0 0.0

-7.0479370694792755e6 3.1944947767885767e7 0.0
3.1944947767885767e7 6.956142679902656e6 0.0
0.0 0.0 0.0

-417552.1224514637 2.1185361205942314e7 0.0
2.1185361205942314e7 -2.0631575252407536e7 0.0
0.0 0.0 0.0

1.7411453988010176e6 9.996247502147613e6 0.0
9.996247502147613e6 -3.019435347663483e7 0.0
0.0 0.0 0.0

-464206.89453210775 5.116551245582022e6 0.0
5.116551245582022e6 -3.8451747864808813e6 0.0
0.0 0.0 0.0

917414.6918922709 1.8890664727323305e7 0.0
1.8890664727323305e7 -2.2720880775626026e7 0.0
0.0 0.0 0.0

-2.561802916186284e7 2.869117225615021e7 0.0
2.869117225615021e7 -5.959894673508105e6 0.0
0.0 0.0 0.0

8.912878317580529e6 4.467283457548124e7 0.0
4.467283457548124e7 -3.0866646976901097e6 0.0
0.0 0.0 0.0

2.879194961339224e6 2.00377266623769e7 0.0
2.00377266623769e7 3.817828765357229e7 0.0
0.0 0.0 0.0

3.5014128683468704e6 2.1893049846511725e7 0.0
2.1893049846511725e7 1.2751402014982475e7 0.0
0.0 0.0 0.0

9.705332411188176e6 1.8158972390477523e7 0.0
1.8158972390477523e7 3.4001114166084714e7 0.0
0.0 0.0 0.0

-4.467352130802554e6 2.139478394948709e7 0.0
2.139478394948709e7 -1.4891174151551735e7 0.0
0.0 0.0 0.0

-6.522942041119657e6 1.6586270887797026e7 0.0
1.6586270887797026e7 3.788039794895232e7 0.0
0.0 0.0 0.0

-3.7697214420076204e6 1.96847326921357e7 0.0
1.96847326921357e7 -1.5993044824862795e7 0.0
0.0 0.0 0.0

-2.9556793445824556e7 3.823840858686426e7 0.0
3.823840858686426e7 7.217135748473464e6 0.0
0.0 0.0 0.0

-8.60273155705651e6 5.451374478321015e6 0.0
5.451374478321015e6 4.1796434086734354e7 0.0
0.0 0.0 0.0

-6.966330503299944e6 605672.5133043365 0.0
605672.5133043365 5.231856877180903e7 0.0
0.0 0.0 0.0

457737.1207927661 1.442747566537923e7 0.0
1.442747566537923e7 -1.7611013372132808e7 0.0
0.0 0.0 0.0

2.0066875312326686e6 4.158372935425004e6 0.0
4.158372935425004e6 -526714.382433626 0.0
0.0 0.0 0.0

-440212.7211397998 1.0566719420209818e7 0.0
1.0566719420209818e7 -5.4481330814466916e7 0.0
0.0 0.0 0.0

-6.262729774496889e6 1.3946828281528823e7 0.0
1.3946828281528823e7 4.5480986574480474e7 0.0
0.0 0.0 0.0

-536988.8480082024 1.3379530464695536e7 0.0
1.3379530464695536e7 -4.2016911755830064e7 0.0
0.0 0.0 0.0

-8.836517019071937e6 1.4773098593894776e6 0.0
1.4773098593894776e6 3.45142154072852e7 0.0
0.0 0.0 0.0

-3.2119052055605887e6 3.1041633038093448e7 0.0
3.1041633038093448e7 3.4560331042685835e6 0.0
0.0 0.0 0.0

5.220470806098345e6 3.12521227890853e7 0.0
3.12521227890853e7 -5.991206288941635e6 0.0
0.0 0.0 0.0

-4.1234469537358484e6 3.624967349943832e7 0.0
3.624967349943832e7 2.0553666624660864e6 0.0
0.0 0.0 0.0

5.271496404896831e6 4.3318931692876145e7 0.0
4.3318931692876145e7 -2.3892658705369113e6 0.0
0.0 0.0 0.0

2.3065627933119903e6 3.879828456554648e7 0.0
3.879828456554648e7 -2.6911562106386265e6 0.0
0.0 0.0 0.0

-8.277154269468961e6 2.0079505578043275e6 0.0
2.0079505578043275e6 4.304703710025336e7 0.0
0.0 0.0 0.0

1.5839700429799575e6 5.017336019701702e6 0.0
5.017336019701702e6 -4.737179849464797e7 0.0
0.0 0.0 0.0

941654.2763766982 2.322344646547935e7 0.0
2.322344646547935e7 -1.2496520287895402e7 0.0
0.0 0.0 0.0

771194.955047532 2.4882764566523314e7 0.0
2.4882764566523314e7 -9.935762765465973e6 0.0
0.0 0.0 0.0

1.758365288264283e6 1.3014208571809957e7 0.0
1.3014208571809957e7 -2.4863492419919886e7 0.0
0.0 0.0 0.0

-7.619297977438787e6 1.7032877073134664e7 0.0
1.7032877073134664e7 -2.4609371320784364e7 0.0
0.0 0.0 0.0

1.8461522503607403e6 1.8959996769283313e7 0.0
1.8959996769283313e7 6.153840740513789e6 0.0
0.0 0.0 0.0

-3.4590100458042603e6 2.7053908241608296e7 0.0
2.7053908241608296e7 9.618585431459554e6 0.0
0.0 0.0 0.0

-1.0451976480225796e7 3.2820765597471014e7 0.0
3.2820765597471014e7 6.150603538821548e6 0.0
0.0 0.0 0.0

-2.82221146702787e6 1.97521954573974e7 0.0
1.97521954573974e7 -8.727881174230004e6 0.0
0.0 0.0 0.0

-1.4753818588907854e6 1.425017264237226e7 0.0
1.425017264237226e7 -1.9530635834211074e6 0.0
0.0 0.0 0.0

2.372396758553313e6 3.187210222449339e6 0.0
3.187210222449339e6 -3.788604518157436e7 0.0
0.0 0.0 0.0

3.3188971268554907e6 2.2921820639148414e7 0.0
2.2921820639148414e7 -6.158266027900048e6 0.0
0.0 0.0 0.0

1.5344400579986721e6 1.0438877296791669e7 0.0
1.0438877296791669e7 -3.2472739136644527e7 0.0
0.0 0.0 0.0

-4.262957048789265e6 9.297041062162742e6 0.0
9.297041062162742e6 2.140181719346517e6 0.0
0.0 0.0 0.0

-1.9784789051402635e6 1.2748615750510335e7 0.0
1.2748615750510335e7 -4.944504656441474e6 0.0
0.0 0.0 0.0

-4.332270954200987e6 2.9727300863630176e6 0.0
2.9727300863630176e6 3.262763540490801e6 0.0
0.0 0.0 0.0

-1.9510953480446762e6 2.81674488050555e7 0.0
2.81674488050555e7 4.065475814545352e6 0.0
0.0 0.0 0.0

-413346.77033944055 1.9563710935147543e7 0.0
1.9563710935147543e7 -2.441451066449524e7 0.0
0.0 0.0 0.0

-1.3396011400204264e6 1.0177872330146939e7 0.0
1.0177872330146939e7 -6.307675440178773e7 0.0
0.0 0.0 0.0

-9.126194829553058e6 2.47410005074299e7 0.0
2.47410005074299e7 -7.597742841108283e6 0.0
0.0 0.0 0.0

-3.1108467093120262e7 3.3014114390333757e7 0.0
3.3014114390333757e7 -1.557215320736593e7 0.0
0.0 0.0 0.0

-2.1746491208882958e7 3.3253416562645268e7 0.0
3.3253416562645268e7 4.5888972531046495e6 0.0
0.0 0.0 0.0

-1.314255512899486e7 2.7686903766395643e7 0.0
2.7686903766395643e7 -1.3150661036874473e7 0.0
0.0 0.0 0.0

-5.908043276052897e6 1.749561537529324e7 0.0
1.749561537529324e7 -4.215662674727184e7 0.0
0.0 0.0 0.0

-9.411170014352478e6 1.8379141123566717e7 0.0
1.8379141123566717e7 -3.13705677087052e7 0.0
0.0 0.0 0.0

-2.4322947235456605e7 3.0385419280819226e7 0.0
3.0385419280819226e7 -1.3431360651518513e7 0.0
0.0 0.0 0.0

-1.3681945509481246e7 1.9044816046430487e7 0.0
1.9044816046430487e7 -4.560648618965586e7 0.0
0.0 0.0 0.0

-5.153049018442726e6 2.1098890923190698e7 0.0
2.1098890923190698e7 2.457102824839589e7 0.0
0.0 0.0 0.0

-1.0569657696714124e7 1.9081569710216355e6 0.0
1.9081569710216355e6 2.363453145228711e7 0.0
0.0 0.0 0.0

-109208.75665198569 2.8694864102860093e7 0.0
2.8694864102860093e7 -4.38776432072008e6 0.0
0.0 0.0 0.0

-3.64212950731125e6 2.403799309499685e7 0.0
2.403799309499685e7 1.521272547147084e7 0.0
0.0 0.0 0.0

-9.766262615880178e6 830986.6184738933 0.0
830986.6184738933 3.016493107177074e7 0.0
0.0 0.0 0.0

413892.1820162125 1.5759944887927454e7 0.0
1.5759944887927454e7 -3.118161094470131e7 0.0
0.0 0.0 0.0

-1.7607598470601568e6 2.9414563866139453e7 0.0
2.9414563866139453e7 -439879.4127833231 0.0
0.0 0.0 0.0

614980.5274707483 1.9710777347025663e7 0.0
1.9710777347025663e7 -1.754613800515014e6 0.0
0.0 0.0 0.0

-4.579236624297061e6 3.0299918747884985e7 0.0
3.0299918747884985e7 6.610083099591088e6 0.0
0.0 0.0 0.0

-2.2349618087665256e7 3.0748135853733357e7 0.0
3.0748135853733357e7 -1.4709550701957988e7 0.0
0.0 0.0 0.0

-1.0675587668747375e7 1.861701937721433e7 0.0
1.861701937721433e7 -3.5585292566150084e7 0.0
0.0 0.0 0.0

5.542537358188463e6 2.2768956198390257e7 0.0
2.2768956198390257e7 1.8784603880788032e7 0.0
0.0 0.0 0.0

-3.332619495601861e7 3.374761062455076e7 0.0
3.374761062455076e7 3.08605249704618e6 0.0
0.0 0.0 0.0

-9.962313101902118e6 1.1574497450150289e7 0.0
1.1574497450150289e7 2.252658529750883e7 0.0
0.0 0.0 0.0

-5.719157170044173e6 1.1231799606050344e7 0.0
1.1231799606050344e7 5.623507939372489e7 0.0
0.0 0.0 0.0

-2.7675477045286978e6 2.1745508458889473e7 0.0
2.1745508458889473e7 -1.1589657888128892e7 0.0
0.0 0.0 0.0

4.514578928321589e6 3.8504732760276966e7 0.0
3.8504732760276966e7 -3.7044485495782057e6 0.0
0.0 0.0 0.0

9.577765630739579e6 1.9273486949376326e7 0.0
1.9273486949376326e7 3.1925885715010438e7 0.0
0.0 0.0 0.0

2.8858920257942043e7 2.2676041135097116e7 0.0
2.2676041135097116e7 6.2882206030936595e6 0.0
0.0 0.0 0.0

-1.7375305287884343e7 2.904406339508696e7 0.0
2.904406339508696e7 -1.3931209307967152e7 0.0
0.0 0.0 0.0

6.608667212976122e6 3.55365223373169e7 0.0
3.55365223373169e7 -5.118080270968917e6 0.0
0.0 0.0 0.0

1.3072046561392259e7 1.897874173497995e7 0.0
1.897874173497995e7 4.898740752152127e7 0.0
0.0 0.0 0.0

1.0807283161711767e6 7.313935392844055e6 0.0
7.313935392844055e6 -6.104275996416093e7 0.0
0.0 0.0 0.0

-6.654507049104847e6 3.088321976795408e7 0.0
3.088321976795408e7 7.647015248239601e6 0.0
0.0 0.0 0.0

940079.7791419518 1.8261936282579962e7 0.0
1.8261936282579962e7 427514.06029859453 0.0
0.0 0.0 0.0

-1.5449651720267098e7 1.9703445793437637e7 0.0
1.9703445793437637e7 -5.149884072201893e7 0.0
0.0 0.0 0.0

-7.337362169395887e6 2.5107272669724178e7 0.0
2.5107272669724178e7 -2.81611206500485e6 0.0
0.0 0.0 0.0

1.906180838800177e6 3.0513786687570494e6 0.0
3.0513786687570494e6 -5.241649783372306e7 0.0
0.0 0.0 0.0

-366544.2679611845 2.3460956058748182e7 0.0
2.3460956058748182e7 -1.039164448649282e7 0.0
0.0 0.0 0.0

5.192616028471205e6 2.6080604879564878e7 0.0
2.6080604879564878e7 -8.261799795303481e6 0.0
0.0 0.0 0.0

2.8271168585400056e7 2.6893202543198347e7 0.0
2.6893202543198347e7 2.653536846571764e6 0.0
0.0 0.0 0.0

-6.317742000500962e6 1.960137506274018e7 0.0
1.960137506274018e7 2.5282045899155624e7 0.0
0.0 0.0 0.0

-2.483451991777207e6 1.674762220817519e7 0.0
1.674762220817519e7 -9.491738412589677e6 0.0
0.0 0.0 0.0

-1.094587257648394e7 2.6056047565250754e7 0.0
2.6056047565250754e7 -1.3224115281572498e7 0.0
0.0 0.0 0.0

-520083.3362475105 2.8935548008265868e7 0.0
2.8935548008265868e7 -3.8696169850407816e6 0.0
0.0 0.0 0.0

-6.6942374017421715e6 3.3187256177774197e6 0.0
3.3187256177774197e6 5.5455999301884815e7 0.0
0.0 0.0 0.0

-2.3180380755097754e6 1.984482035336093e7 0.0
1.984482035336093e7 -1.0445342004630448e7 0.0
0.0 0.0 0.0

-1.1929891481355602e7 3.3227078698865455e7 0.0
3.3227078698865455e7 6.167627122905589e6 0.0
0.0 0.0 0.0

1.078226079786813e6 9.265589305428728e6 0.0
9.265589305428728e6 -1.4511430707747418e7 0.0
0.0 0.0 0.0

1.2298911250974922e7 2.2629586835383043e7 0.0
2.2629586835383043e7 1.3782324588098915e7 0.0
0.0 0.0 0.0

-5.111349873292733e7 3.587754768668673e7 0.0
3.587754768668673e7 2.834275934313938e6 0.0
0.0 0.0 0.0

3.641571724430326e6 1.766620240718481e7 0.0
1.766620240718481e7 1.1749254003721436e7 0.0
0.0 0.0 0.0

2.930183334459015e6 7.416428109101527e6 0.0
7.416428109101527e6 -1.9410475897487894e7 0.0
0.0 0.0 0.0

5.574330390436007e6 2.171324644067867e7 0.0
2.171324644067867e7 2.2079851998130012e7 0.0
0.0 0.0 0.0

2.436512182845378e6 2.824330814018542e7 0.0
2.824330814018542e7 -7.810254455197515e6 0.0
0.0 0.0 0.0

2.5160353311677344e7 3.6155434741864026e7 0.0
3.6155434741864026e7 -6.00897867011518e6 0.0
0.0 0.0 0.0

-4.307310034997179e6 1.841876144303948e7 0.0
1.841876144303948e7 -1.4357700414657764e7 0.0
0.0 0.0 0.0

-2.761831634785181e6 1.8722442268045098e7 0.0
1.8722442268045098e7 9.868785743486974e6 0.0
0.0 0.0 0.0

499597.5370627339 9.409151177020974e6 0.0
9.409151177020974e6 -1.2114204604296338e7 0.0
0.0 0.0 0.0

-5.955262347635236e6 2.0119718862306684e7 0.0
2.0119718862306684e7 -2.9098239952398557e7 0.0
0.0 0.0 0.0

598515.2391976574 2.382992014559038e7 0.0
2.382992014559038e7 -1.0762653288124679e7 0.0
0.0 0.0 0.0

2.0830408396577165e7 2.692751569304703e7 0.0
2.692751569304703e7 1.5714949162419502e7 0.0
0.0 0.0 0.0

-8.558908635571927e6 2.5085123068284586e7 0.0
2.5085123068284586e7 -1.3764465322715338e7 0.0
0.0 0.0 0.0

4.524258695066275e6 2.587681919626911e7 0.0
2.587681919626911e7 -7.566760460506367e6 0.0
0.0 0.0 0.0

-8.083897238535273e6 4.656750644521452e6 0.0
4.656750644521452e6 1.1511292986979455e7 0.0
0.0 0.0 0.0

115609.4547428668 8.057098843753343e6 0.0
8.057098843753343e6 -2.6762668707433864e6 0.0
0.0 0.0 0.0

1.2649956358977946e7 2.5348640265663493e7 0.0
2.5348640265663493e7 -1.0600863558287881e6 0.0
0.0 0.0 0.0

3.112754553979957e6 1.874112050972653e7 0.0
1.874112050972653e7 9.857740497456986e6 0.0
0.0 0.0 0.0

6.570367582204684e7 2.662331625966221e7 0.0
2.662331625966221e7 1.869604138945399e7 0.0
0.0 0.0 0.0

-9.414480137451319e6 942570.0503096106 0.0
942570.0503096106 3.360567513517122e7 0.0
0.0 0.0 0.0

-2.1327371571547676e7 2.8752964171085462e7 0.0
2.8752964171085462e7 -1.0253501459808972e7 0.0
0.0 0.0 0.0

-1.6661990487414412e7 2.625582093637517e7 0.0
2.625582093637517e7 -8.1215633299958855e6 0.0
0.0 0.0 0.0

-3.944878758072999e7 3.0454634561319035e7 0.0
3.0454634561319035e7 -1.5426993328574343e7 0.0
0.0 0.0 0.0

4.363531233056237e7 6.365080049491437e6 0.0
6.365080049491437e6 -1.2967866715190094e6 0.0
0.0 0.0 0.0

-4.47861113025552e6 1.0009521182211095e7 0.0
1.0009521182211095e7 6.487321927590427e7 0.0
0.0 0.0 0.0

-1.7565887407996948e6 1.3538236105669642e7 0.0
1.3538236105669642e7 -184608.60864144308 0.0
0.0 0.0 0.0

-2.04214776200305e7 2.7954127626323078e7 0.0
2.7954127626323078e7 -1.4056510152650628e7 0.0
0.0 0.0 0.0

-4.685978294919732e6 3.0445486932635177e7 0.0
3.0445486932635177e7 7.800143506805379e6 0.0
0.0 0.0 0.0

41596.40534031531 2.3348208926350668e7 0.0
2.3348208926350668e7 -1.2340411133257603e7 0.0
0.0 0.0 0.0

876694.055865461 1.5361397253459487e7 0.0
1.5361397253459487e7 -1.886798567884439e7 0.0
0.0 0.0 0.0

-165473.69929337502 1.9709254220596194e7 0.0
1.9709254220596194e7 -6.966736388961356e6 0.0
0.0 0.0 0.0

-9.369792971773004e6 1.7025177158786483e7 0.0
1.7025177158786483e7 -3.32925595803143e7 0.0
0.0 0.0 0.0

-1.1931292425383478e7 2.0017505688901454e7 0.0
2.0017505688901454e7 -7.322962779436864e7 0.0
0.0 0.0 0.0

1.623995484458699e7 5.885106584605502e6 0.0
5.885106584605502e6 -2.257779695988384e6 0.0
0.0 0.0 0.0

1.223188521556716e7 3.645868075197405e7 0.0
3.645868075197405e7 -5.683308790077563e6 0.0
0.0 0.0 0.0

-6.873316613749296e6 1.8395665809776194e7 0.0
1.8395665809776194e7 -2.2911056148025922e7 0.0
0.0 0.0 0.0

2.1726518268409427e7 1.902785525830847e7 0.0
1.902785525830847e7 4.999008941845979e6 0.0
0.0 0.0 0.0

-631232.2037682435 2.0948833799323004e7 0.0
2.0948833799323004e7 -7.96902211781522e6 0.0
0.0 0.0 0.0

10382.24065991654 2.8164488686929923e7 0.0
2.8164488686929923e7 -4.059772173600006e6 0.0
0.0 0.0 0.0

-5.4204179155943645e6 1.988086069073444e7 0.0
1.988086069073444e7 -1.9068969383146983e7 0.0
0.0 0.0 0.0

-2.1932682516765706e7 2.1857511135329567e7 0.0
2.1857511135329567e7 1.1003246284396928e6 0.0
0.0 0.0 0.0

-9.080208912305672e6 -2.2959727971739257e6 0.0
-2.2959727971739257e6 1.9088408109549034e7 0.0
0.0 0.0 0.0

-5.00681908196911e6 2.0610835105065994e7 0.0
2.0610835105065994e7 2.419745528621827e7 0.0
0.0 0.0 0.0

-398410.4299094286 1.963617167166982e7 0.0
1.963617167166982e7 2.5547136346365404e6 0.0
0.0 0.0 0.0

-7.368382629963398e6 2.0083515696225405e7 0.0
2.0083515696225405e7 -2.0544330438500747e7 0.0
0.0 0.0 0.0

-485040.2973285327 2.0917099187687013e7 0.0
2.0917099187687013e7 -8.480039796121283e6 0.0
0.0 0.0 0.0

-2.77226508685198e6 1.484762428437552e7 0.0
1.484762428437552e7 -2.924580606276342e6 0.0
0.0 0.0 0.0

3.2865600996188518e7 2.6405345813379243e7 0.0
2.6405345813379243e7 1.68653295799895e6 0.0
0.0 0.0 0.0

-1.2241872332592484e7 3.6719029862766735e7 0.0
3.6719029862766735e7 6.135951032460076e6 0.0
0.0 0.0 0.0

8.440720038276162e6 2.699044195529238e7 0.0
2.699044195529238e7 -5.542165578348514e6 0.0
0.0 0.0 0.0

-5.965180630614842e6 2.3754533585734252e7 0.0
2.3754533585734252e7 -4.567784088840856e6 0.0
0.0 0.0 0.0

-2.9130384435288156e6 3.6697524513139986e7 0.0
3.6697524513139986e7 2.7566676594723538e6 0.0
0.0 0.0 0.0

-4.7300800647195205e6 2.205448021872641e7 0.0
2.205448021872641e7 2.076868925205306e7 0.0
0.0 0.0 0.0

1.0916958966937843e6 8.62791031129813e6 0.0
8.62791031129813e6 -9.161009410833467e6 0.0
0.0 0.0 0.0

-2.2506371920392886e6 8.38222508957e6 0.0
8.38222508957e6 3.605334030789224e6 0.0
0.0 0.0 0.0

-1.3040852703237044e7 1.7640687039452445e7 0.0
1.7640687039452445e7 -4.83560467653512e7 0.0
0.0 0.0 0.0

-3.5089218162451717e6 2.3782323082236312e7 0.0
2.3782323082236312e7 6.702585023042453e6 0.0
0.0 0.0 0.0

1.3981571530446429e6 5.567574271720046e6 0.0
5.567574271720046e6 -9.26844772727559e6 0.0
0.0 0.0 0.0

-6.201033455570142e7 3.709858366083557e7 0.0
3.709858366083557e7 -1.03128130759685e7 0.0
0.0 0.0 0.0

-1.641144151677359e6 9.506760306050543e6 0.0
9.506760306050543e6 -7.320725726116651e7 0.0
0.0 0.0 0.0

-1.8547870860918383e6 1.1277900143047681e7 0.0
1.1277900143047681e7 -4.94866192099703e6 0.0
0.0 0.0 0.0

-1.1896265361905392e7 1.846674818514595e7 0.0
1.846674818514595e7 -5.1475593667164974e7 0.0
0.0 0.0 0.0

1.887416497413693e6 4.651897428972362e6 0.0
4.651897428972362e6 -4.627473271477442e7 0.0
0.0 0.0 0.0

3.0753442780427635e7 4.1000186139326476e7 0.0
4.1000186139326476e7 -8.560018553798597e6 0.0
0.0 0.0 0.0

2.2498936255992893e6 1.0779535017559525e7 0.0
1.0779535017559525e7 -3.036871865711514e7 0.0
0.0 0.0 0.0

-3.9878048481043987e6 1.4691497404048141e7 0.0
1.4691497404048141e7 5.2287184693541534e7 0.0
0.0 0.0 0.0

-6.064233826228516e6 1.978309050121154e7 0.0
1.978309050121154e7 2.5744504744037323e7 0.0
0.0 0.0 0.0

-3.9015047299952507e6 2.5961613066933047e7 0.0
2.5961613066933047e7 1.2083972910192763e7 0.0
0.0 0.0 0.0

-9.879366709135981e6 2.394327891049622e7 0.0
2.394327891049622e7 -1.182726283342486e7 0.0
0.0 0.0 0.0

-5.125882505919788e6 2.051761133319248e7 0.0
2.051761133319248e7 2.6457213377362624e7 0.0
0.0 0.0 0.0

-2.4131164310172787e6 2.8198304801359475e7 0.0
2.8198304801359475e7 2.323252203636283e6 0.0
0.0 0.0 0.0

1.3925039267412905e7 2.0534748084841873e7 0.0
2.0534748084841873e7 4.6416799277695216e7 0.0
0.0 0.0 0.0

-1.050456194852992e7 1.1279586542659516e6 0.0
1.1279586542659516e6 2.0499961720838174e7 0.0
0.0 0.0 0.0

1.2710510650076773e6 2.2823797360186297e7 0.0
2.2823797360186297e7 -1.5493179894013386e7 0.0
0.0 0.0 0.0

-4.655490641471822e6 1.3636568125418535e7 0.0
1.3636568125418535e7 -8.2160455879825e7 0.0
0.0 0.0 0.0

-1.0765863796419391e7 3.886886186795747e7 0.0
3.886886186795747e7 6.003894905495491e6 0.0
0.0 0.0 0.0

4.941764183296161e6 3.019431748782117e7 0.0
3.019431748782117e7 -6.96986686359141e6 0.0
0.0 0.0 0.0

4.0930118433724497e6 2.349569447934627e7 0.0
2.349569447934627e7 3.4147114899987914e6 0.0
0.0 0.0 0.0

-5.962050554401992e6 1.9713420090804286e7 0.0
1.9713420090804286e7 2.735214859446204e7 0.0
0.0 0.0 0.0

-2.3497332592412394e7 3.901338015262559e7 0.0
3.901338015262559e7 6.858114816358594e6 0.0
0.0 0.0 0.0

2.2848427656297423e6 2.5745876911670774e7 0.0
2.5745876911670774e7 -1.092543865578602e7 0.0
0.0 0.0 0.0

-6.082621177949987e6 1.82160500736711e7 0.0
1.82160500736711e7 -3.779374372545608e7 0.0
0.0 0.0 0.0

-1.829651995815527e7 4.193130932209424e7 0.0
4.193130932209424e7 5.975551540410116e6 0.0
0.0 0.0 0.0

4.252231089442398e7 3.790378569855822e7 0.0
3.790378569855822e7 -9.014591370936451e6 0.0
0.0 0.0 0.0

3.2343895732442774e6 2.2349574928135548e7 0.0
2.2349574928135548e7 4.740705405320103e6 0.0
0.0 0.0 0.0

1.6067422889305055e6 1.2867488776596125e7 0.0
1.2867488776596125e7 -2.688385916352398e7 0.0
0.0 0.0 0.0

-1.4596847683396732e7 2.0581445505274482e7 0.0
2.0581445505274482e7 -5.616221793860236e7 0.0
0.0 0.0 0.0

2.026950431878978e7 3.635937891860759e7 0.0
3.635937891860759e7 -6.033689524608634e6 0.0
0.0 0.0 0.0

-743861.4136513509 2.125100195790645e7 0.0
2.125100195790645e7 -1.6176675074099874e7 0.0
0.0 0.0 0.0

1.3490627679067822e6 3.3197505985933073e7 0.0
3.3197505985933073e7 -3.5647113494833526e6 0.0
0.0 0.0 0.0

-3.3413985286633484e6 1.2597177430452866e7 0.0
1.2597177430452866e7 -6.886299353892776e7 0.0
0.0 0.0 0.0

1.7191069210661713e6 2.127211867327186e7 0.0
2.127211867327186e7 9.527078376079138e6 0.0
0.0 0.0 0.0

-2.7787057297526233e7 3.522414198007443e7 0.0
3.522414198007443e7 5.856759666847318e6 0.0
0.0 0.0 0.0

-1.7667538468724317e6 2.873259721688765e7 0.0
2.873259721688765e7 3.091967197725475e6 0.0
0.0 0.0 0.0

2.9562869323053665e7 2.3607288805351436e7 0.0
2.3607288805351436e7 1.1951490300289668e7 0.0
0.0 0.0 0.0

-3.917284605918438e6 3.7712687384613276e7 0.0
3.7712687384613276e7 1.4390158803840992e6 0.0
0.0 0.0 0.0

4.244306542868432e6 2.104417100400793e7 0.0
2.104417100400793e7 1.5479774857542763e7 0.0
0.0 0.0 0.0

-2.4985451050985437e6 3.0237719022094533e6 0.0
3.0237719022094533e6 758389.2515838512 0.0
0.0 0.0 0.0

1.2744086605127342e7 3.881615325198616e7 0.0
3.881615325198616e7 -4.865827041757064e6 0.0
0.0 0.0 0.0

-336905.57449156046 2.0439728578381587e7 0.0
2.0439728578381587e7 -2.2627103779584773e7 0.0
0.0 0.0 0.0

1.6464189857388549e6 3.788837860146676e6 0.0
3.788837860146676e6 -5.798399512531271e7 0.0
0.0 0.0 0.0

-507089.3655627393 1.2352183772509959e7 0.0
1.2352183772509959e7 -7.735332848863452e6 0.0
0.0 0.0 0.0

1.5701493964778301e6 7.016723121688777e6 0.0
7.016723121688777e6 -9.527353202305418e6 0.0
0.0 0.0 0.0

1.0309146873403778e6 1.6382389713657327e7 0.0
1.6382389713657327e7 -1.8676316072147023e7 0.0
0.0 0.0 0.0

-2.4310007265671995e7 3.3104108910134528e7 0.0
3.3104108910134528e7 4.795284352436606e6 0.0
0.0 0.0 0.0

-3.4400388558474733e6 2.3902837954947207e7 0.0
2.3902837954947207e7 3.6803879476287565e6 0.0
0.0 0.0 0.0

6.945146624868836e6 2.747660412466299e7 0.0
2.747660412466299e7 -6.285689636928719e6 0.0
0.0 0.0 0.0

2.1587495125967115e6 6.188492577662406e6 0.0
6.188492577662406e6 -4.52792076756658e7 0.0
0.0 0.0 0.0

227949.79195736954 2.3279727051514328e7 0.0
2.3279727051514328e7 -1.0400376818886077e7 0.0
0.0 0.0 0.0

-6266.910345775075 1.940374866232441e7 0.0
1.940374866232441e7 -1.6052832700025702e7 0.0
0.0 0.0 0.0

-1.6186406877228798e7 2.6849908504239716e7 0.0
2.6849908504239716e7 -1.3312501013191978e7 0.0
0.0 0.0 0.0

1.804001271205551e7 3.3398849505971096e7 0.0
3.3398849505971096e7 -5.834380092349118e6 0.0
0.0 0.0 0.0

-4.964368196011757e6 2.7469714004205704e7 0.0
2.7469714004205704e7 1.1258911500016041e7 0.0
0.0 0.0 0.0

3.865297402785018e6 2.2108148320717078e7 0.0
2.2108148320717078e7 1.4963646288089426e7 0.0
0.0 0.0 0.0

5.938089060107723e6 1.9389369124764405e7 0.0
1.9389369124764405e7 8.456122396149455e7 0.0
0.0 0.0 0.0

-4.668354487066384e6 4.198289031708832e7 0.0
4.198289031708832e7 3.746014009645655e6 0.0
0.0 0.0 0.0

1.6212156727343346e6 2.3631004602657985e7 0.0
2.3631004602657985e7 -1.0013741903375894e7 0.0
0.0 0.0 0.0

1.6656302386504933e6 1.1574235424118407e7 0.0
1.1574235424118407e7 -3.543990310886142e7 0.0
0.0 0.0 0.0

1.66774833126707e6 1.0605606720599178e7 0.0
1.0605606720599178e7 -3.745876987266989e7 0.0
0.0 0.0 0.0

3.185964023845913e6 3.039413898253097e6 0.0
3.039413898253097e6 -3.2108484787378334e7 0.0
0.0 0.0 0.0

-3.100394742302752e6 2.6675499206116922e7 0.0
2.6675499206116922e7 1.1375580002911117e7 0.0
0.0 0.0 0.0

2.8172385316084474e6 3.3115467593202097e6 0.0
3.3115467593202097e6 -3.1927897891157154e7 0.0
0.0 0.0 0.0

-9.02582112468106e6 4.067139726129664e6 0.0
4.067139726129664e6 4.048133721658197e7 0.0
0.0 0.0 0.0

-3.1605866444032723e6 2.4033879027375687e7 0.0
2.4033879027375687e7 1.7888206346984904e7 0.0
0.0 0.0 0.0

-2.482852954775199e6 1.1976282870351955e7 0.0
1.1976282870351955e7 -3.192996840070591e6 0.0
0.0 0.0 0.0

3.8482396885771775e6 3.0887900544009697e7 0.0
3.0887900544009697e7 -6.551418462422063e6 0.0
0.0 0.0 0.0

8.296277036310261e6 3.493388191122668e7 0.0
3.493388191122668e7 -4.565316721139377e6 0.0
0.0 0.0 0.0

1.8900862632135528e6 1.797220540138732e7 0.0
1.797220540138732e7 4.298118998769269e6 0.0
0.0 0.0 0.0

-2.4122214581563137e6 1.2766659393723076e7 0.0
1.2766659393723076e7 -5.909712778572631e7 0.0
0.0 0.0 0.0

2.217521720992258e6 4.34816727049984e6 0.0
4.34816727049984e6 -4.993988457803248e7 0.0
0.0 0.0 0.0

-5.743104554037854e7 4.159693484833514e7 0.0
4.159693484833514e7 -1.5348911263710916e7 0.0
0.0 0.0 0.0

2.917789097856561e7 2.780423797053957e7 0.0
2.780423797053957e7 1.3972728316506784e7 0.0
0.0 0.0 0.0

6.798207502630016e6 3.436230926808842e7 0.0
3.436230926808842e7 -4.556812379533895e6 0.0
0.0 0.0 0.0

802852.3328459868 2.1134416613376517e7 0.0
2.1134416613376517e7 2.2367517056121033e7 0.0
0.0 0.0 0.0

1.5414766223564115e6 1.976219647020805e7 0.0
1.976219647020805e7 4.463445361557029e6 0.0
0.0 0.0 0.0

-7.958544817648899e6 9.053181609526882e6 0.0
9.053181609526882e6 4.733827980218701e7 0.0
0.0 0.0 0.0

-1.308836409987936e7 3.465847750266285e7 0.0
3.465847750266285e7 5.854917235551693e6 0.0
0.0 0.0 0.0

-1.3000553325855795e6 1.6251986378645673e7 0.0
1.6251986378645673e7 -9.849269209704338e6 0.0
0.0 0.0 0.0

-1.0060612803727614e7 3.0050018489588546e6 0.0
3.0050018489588546e6 3.1889146262745917e7 0.0
0.0 0.0 0.0

1.301193436861325e6 1.3780637466415219e7 0.0
1.3780637466415219e7 1.0011410085729173e8 0.0
0.0 0.0 0.0

1.3414783268608889e6 2.356618918752519e7 0.0
2.356618918752519e7 -1.4235144581725437e7 0.0
0.0 0.0 0.0

2.423245792010586e6 4.489494698133567e6 0.0
4.489494698133567e6 -1.0147374262456797e7 0.0
0.0 0.0 0.0

-4.702812631010901e6 9.797092281864531e6 0.0
9.797092281864531e6 6.7362601901936e7 0.0
0.0 0.0 0.0

2.629038014916064e6 3.3129876500921585e6 0.0
3.3129876500921585e6 -4.08160072836293e7 0.0
0.0 0.0 0.0

-7.492984253515591e6 2.3830638388616968e7 0.0
2.3830638388616968e7 -1.470752014728733e7 0.0
0.0 0.0 0.0

-2.630562365377632e7 2.912021926341725e7 0.0
2.912021926341725e7 -1.4991833017876e7 0.0
0.0 0.0 0.0

240364.4695026977 2.1213894032431882e7 0.0
2.1213894032431882e7 -1.8744432450199205e7 0.0
0.0 0.0 0.0

-2.5046938153242376e6 1.2764850519711861e7 0.0
1.2764850519711861e7 1.0672994662511735e6 0.0
0.0 0.0 0.0

-6.279785208726343e6 2.4861922372585446e7 0.0
2.4861922372585446e7 849617.7710635839 0.0
0.0 0.0 0.0

2.2532782123307545e7 3.2343696942587487e7 0.0
3.2343696942587487e7 -5.286455801294177e6 0.0
0.0 0.0 0.0

-8.924053541283332e6 -2.330248881644634e6 0.0
-2.330248881644634e6 2.1101433905632596e7 0.0
0.0 0.0 0.0

1.3780378402962444e7 2.320801225557288e7 0.0
2.320801225557288e7 8.487981671026489e6 0.0
0.0 0.0 0.0

2.192200388091168e7 4.246083171704383e7 0.0
4.246083171704383e7 -8.210917307140841e6 0.0
0.0 0.0 0.0

2.9467006883992516e6 3.3346610743591185e6 0.0
3.3346610743591185e6 -3.604372881227653e7 0.0
0.0 0.0 0.0

-3.0379054485327005e6 2.083058549912e7 0.0
2.083058549912e7 5.167398952700931e6 0.0
0.0 0.0 0.0

1.3210563949557215e7 2.186218027671466e7 0.0
2.186218027671466e7 5.177704560178728e7 0.0
0.0 0.0 0.0

7.143390136154634e7 8.129806378929924e6 0.0
8.129806378929924e6 -405514.65665403754 0.0
0.0 0.0 0.0

-3.38280375470999e7 3.1568301781834144e7 0.0
3.1568301781834144e7 -1.463750801598521e7 0.0
0.0 0.0 0.0

-2.578571255337647e6 2.768537166093178e7 0.0
2.768537166093178e7 3.402875914047329e6 0.0
0.0 0.0 0.0

-1.851324824357679e6 1.3041622425504344e7 0.0
1.3041622425504344e7 -5.147925915883906e7 0.0
0.0 0.0 0.0

-1.813025408839341e7 3.2479613576802935e7 0.0
3.2479613576802935e7 5.228798627191228e6 0.0
0.0 0.0 0.0

1.1971407051599523e7 2.363658205514252e7 0.0
2.363658205514252e7 1.0425257880822675e7 0.0
0.0 0.0 0.0

-2.203124037426494e6 9.304974236753812e6 0.0
9.304974236753812e6 8.092974356193796e7 0.0
0.0 0.0 0.0

-4.72800695025246e6 2.575747652655451e7 0.0
2.575747652655451e7 1.2230610307902548e7 0.0
0.0 0.0 0.0

4.575966406819929e6 1.965551712592211e7 0.0
1.965551712592211e7 2.0614588567205265e7 0.0
0.0 0.0 0.0

-596850.7084178585 2.140704963286699e7 0.0
2.140704963286699e7 -1.1951128275595881e7 0.0
0.0 0.0 0.0

9.941064589347139e6 2.5093514368567508e7 0.0
2.5093514368567508e7 -758484.1814845572 0.0
0.0 0.0 0.0

3.124948486917103e6 2.435495175473689e7 0.0
2.435495175473689e7 -6.783597389860009e6 0.0
0.0 0.0 0.0

-2.8241678569467873e6 1.621807312686941e7 0.0
1.621807312686941e7 -2.6912840724006635e6 0.0
0.0 0.0 0.0

3.0062696981387073e6 2.0679659285857555e7 0.0
2.0679659285857555e7 2.6401804955435757e7 0.0
0.0 0.0 0.0

1.2782738343790886e6 2.0910694652885213e7 0.0
2.0910694652885213e7 3.14182725108569e6 0.0
0.0 0.0 0.0

230114.2372818638 2.039279125851032e7 0.0
2.039279125851032e7 -4.21567668115766e6 0.0
0.0 0.0 0.0

-6.234395894403072e6 1.856213959344839e7 0.0
1.856213959344839e7 -3.312511627091939e7 0.0
0.0 0.0 0.0

-2.8034261129304525e6 3.0835839940403443e7 0.0
3.0835839940403443e7 5.039853854155286e6 0.0
0.0 0.0 0.0

-2.3189215193449013e7 2.756046915228065e7 0.0
2.756046915228065e7 -1.3601962647764375e7 0.0
0.0 0.0 0.0

-1.0991544452780955e7 3.5902415496028125e7 0.0
3.5902415496028125e7 5.337415425826969e6 0.0
0.0 0.0 0.0

-249020.79249951523 2.2344708750072382e7 0.0
2.2344708750072382e7 1.5736845814972073e7 0.0
0.0 0.0 0.0

2.5633159279697035e6 6.689718707605476e6 0.0
6.689718707605476e6 -3.616893318138208e7 0.0
0.0 0.0 0.0

1.1798531450190758e6 2.2872993742665447e7 0.0
2.2872993742665447e7 -1.5406072673853513e7 0.0
0.0 0.0 0.0

1.8926964092774745e7 3.3037218355482716e7 0.0
3.3037218355482716e7 -5.260184351175444e6 0.0
0.0 0.0 0.0

-9.292762514731511e6 3.0939821516580316e6 0.0
3.0939821516580316e6 3.725253301675142e7 0.0
0.0 0.0 0.0

-4.635500840514848e6 2.5024532155034605e7 0.0
2.5024532155034605e7 8.77714827995495e6 0.0
0.0 0.0 0.0

2.2405936558061214e6 2.329143133476882e7 0.0
2.329143133476882e7 2.8233698718779483e6 0.0
0.0 0.0 0.0

1.0866327989554038e7 2.629750072426912e7 0.0
2.629750072426912e7 -2.780052993998232e6 0.0
0.0 0.0 0.0

-9.689555466485932e6 9.43391304422616e6 0.0
9.43391304422616e6 3.4764307797327586e7 0.0
0.0 0.0 0.0

7.207577055032964e6 1.8957496659836657e7 0.0
1.8957496659836657e7 2.840695445513924e7 0.0
0.0 0.0 0.0

-9.333513808877295e6 2.3319803899257533e7 0.0
2.3319803899257533e7 -1.4445784525972608e7 0.0
0.0 0.0 0.0

-849592.2697041966 1.8389696590171594e7 0.0
1.8389696590171594e7 -2.9464057135329e7 0.0
0.0 0.0 0.0

1.1341380135825312e7 4.137370043527335e7 0.0
4.137370043527335e7 -3.887499357066132e6 0.0
0.0 0.0 0.0

-1.065865653887242e7 3.7388290087071724e7 0.0
3.7388290087071724e7 4.72130438855458e6 0.0
0.0 0.0 0.0

-1.0133383972732972e7 1.0706600727387723e7 0.0
1.0706600727387723e7 3.002029401354198e7 0.0
0.0 0.0 0.0

-1.0253438385627244e7 2.552196367516521e7 0.0
2.552196367516521e7 -7.833514334933243e6 0.0
0.0 0.0 0.0

-7.9932828167528175e6 3.799793893987732e7 0.0
3.799793893987732e7 3.669036730324632e6 0.0
0.0 0.0 0.0

-8.74491676624919e6 3.670198070768129e7 0.0
3.670198070768129e7 4.451172378557609e6 0.0
0.0 0.0 0.0

4.55844179957786e6 1.8687341796860315e7 0.0
1.8687341796860315e7 1.7182639935165033e7 0.0
0.0 0.0 0.0

1.741411055588537e6 1.4564960083800418e7 0.0
1.4564960083800418e7 -2.424954771154637e7 0.0
0.0 0.0 0.0

6.5397889063797705e7 3.899782247771896e7 0.0
3.899782247771896e7 2.8864713956696726e7 0.0
0.0 0.0 0.0

-4.220245615831208e7 4.107996280365353e6 0.0
4.107996280365353e6 6.383255879296605e6 0.0
0.0 0.0 0.0

-2.020680344921637e7 3.155081053102629e7 0.0
3.155081053102629e7 3.721583358514324e6 0.0
0.0 0.0 0.0

2.114006576193448e6 3.039759549226619e6 0.0
3.039759549226619e6 -4.0575437545171335e7 0.0
0.0 0.0 0.0

118708.9674912151 2.2562919934564833e7 0.0
2.2562919934564833e7 -1.3706130028458111e7 0.0
0.0 0.0 0.0

-1.5004712862848327e7 3.297818817788194e7 0.0
3.297818817788194e7 5.875238223934956e6 0.0
0.0 0.0 0.0

-9.519776678421814e6 6.712352505825475e6 0.0
6.712352505825475e6 3.910695711319583e7 0.0
0.0 0.0 0.0

1.2606651112479474e6 1.1222550397097724e7 0.0
1.1222550397097724e7 -3.307414118635197e7 0.0
0.0 0.0 0.0

-7.616804697789646e6 1.7986809173270613e7 0.0
1.7986809173270613e7 -2.707989387999916e7 0.0
0.0 0.0 0.0

1.22027140244417e7 2.4797081766218342e7 0.0
2.4797081766218342e7 1.0809235827371571e7 0.0
0.0 0.0 0.0

-4.466969340644442e7 3.425054941679314e7 0.0
3.425054941679314e7 -1.3328812728477208e7 0.0
0.0 0.0 0.0

-3.907743964410323e6 1.432414254547154e7 0.0
1.432414254547154e7 2.3909746947923717e6 0.0
0.0 0.0 0.0

-1.1330202881303933e7 3.177783052785528e7 0.0
3.177783052785528e7 6.288376185693884e6 0.0
0.0 0.0 0.0

-2.166028502553366e6 3.2128004292310487e7 0.0
3.2128004292310487e7 3.2828315072026635e6 0.0
0.0 0.0 0.0

-7.183136672552943e6 7.339387650968786e6 0.0
7.339387650968786e6 2.08038776568839e7 0.0
0.0 0.0 0.0

-9.208558157270804e6 268087.852569086 0.0
268087.852569086 2.2192950560381416e7 0.0
0.0 0.0 0.0

963858.8876892328 1.497895819039124e7 0.0
1.497895819039124e7 -2.492337913035476e7 0.0
0.0 0.0 0.0

-9.11322123595865e6 5.407691266046015e6 0.0
5.407691266046015e6 3.8706619295746915e7 0.0
0.0 0.0 0.0

455414.2301590834 1.8878994957663585e7 0.0
1.8878994957663585e7 -2.2662323362751827e7 0.0
0.0 0.0 0.0

1.015636862006917e7 2.363615887060596e7 0.0
2.363615887060596e7 786332.2485967441 0.0
0.0 0.0 0.0

591291.6723325886 1.0066419420331612e7 0.0
1.0066419420331612e7 -1.3123035002826497e7 0.0
0.0 0.0 0.0

-2.1427566370969217e7 3.15398464167655e7 0.0
3.15398464167655e7 3.707016975564681e6 0.0
0.0 0.0 0.0

-1.4337622124740936e7 2.7034468012467355e7 0.0
2.7034468012467355e7 -1.3514371983262068e7 0.0
0.0 0.0 0.0

632932.1935516912 1.9635249937197696e7 0.0
1.9635249937197696e7 2.109775115410382e6 0.0
0.0 0.0 0.0

-485736.8562550956 1.9599161829244666e7 0.0
1.9599161829244666e7 -1.6191237651054533e6 0.0
0.0 0.0 0.0

1.6159704726012796e6 1.5363713192994053e7 0.0
1.5363713192994053e7 -2.2859206675497092e7 0.0
0.0 0.0 0.0

-6.819691252408974e6 1.8865416290045675e7 0.0
1.8865416290045675e7 -2.6477892091145325e7 0.0
0.0 0.0 0.0

-1.0238947668366509e7 2.33404953672215e6 0.0
2.33404953672215e6 2.8504408961527985e7 0.0
0.0 0.0 0.0

-3.4079505709162606e6 1.556241036807914e7 0.0
1.556241036807914e7 9.03993925328821e6 0.0
0.0 0.0 0.0

2.319485280007458e6 2.537602729729146e7 0.0
2.537602729729146e7 -1.1114003237054778e7 0.0
0.0 0.0 0.0

2.1953150635451507e6 7.648878939166964e6 0.0
7.648878939166964e6 -2.518671994408767e7 0.0
0.0 0.0 0.0

-4.649866390410915e7 3.0667010054011688e7 0.0
3.0667010054011688e7 -6.909629778048558e6 0.0
0.0 0.0 0.0

7.858521615228875e6 2.48150327642163e7 0.0
2.48150327642163e7 -1.132895068041673e6 0.0
0.0 0.0 0.0

2.9037624208976157e7 2.337146284573389e7 0.0
2.337146284573389e7 6.375835448142382e6 0.0
0.0 0.0 0.0

-1.170338958123173e7 4.1934953289790735e7 0.0
4.1934953289790735e7 6.052252814610756e6 0.0
0.0 0.0 0.0

-1.0445752383557387e7 5.597511702393945e6 0.0
5.597511702393945e6 2.4914911074388288e7 0.0
0.0 0.0 0.0

-211099.95825334545 2.0135444202099867e7 0.0
2.0135444202099867e7 -1.467045492534958e7 0.0
0.0 0.0 0.0

-1.2276002240414925e7 2.5309479892441556e7 0.0
2.5309479892441556e7 -7.218529825071935e6 0.0
0.0 0.0 0.0

-2.329458485984402e7 3.5568267950140014e7 0.0
3.5568267950140014e7 5.5047929605824035e6 0.0
0.0 0.0 0.0

-8.990382151361361e6 1.9531420891550675e7 0.0
1.9531420891550675e7 -4.212014269334922e7 0.0
0.0 0.0 0.0

2.5282075855172067e6 2.057605768878215e7 0.0
2.057605768878215e7 1.0882088293540388e7 0.0
0.0 0.0 0.0

-6.018089920432419e6 1.8646228973901395e7 0.0
1.8646228973901395e7 -2.8836634359750513e7 0.0
0.0 0.0 0.0

-1.7624488309602626e7 3.926414621214028e7 0.0
3.926414621214028e7 6.473545306993774e6 0.0
0.0 0.0 0.0

2.1666637750334744e6 2.8477254879596237e7 0.0
2.8477254879596237e7 -8.15728217659214e6 0.0
0.0 0.0 0.0

-8.75996758510572e6 2.5899038415278938e7 0.0
2.5899038415278938e7 -970265.1393072191 0.0
0.0 0.0 0.0

1.2899570706074145e6 1.2435987097568823e7 0.0
1.2435987097568823e7 -3.603952029434989e7 0.0
0.0 0.0 0.0

-8.2398154626518935e6 9.131053405990997e6 0.0
9.131053405990997e6 4.439658386825393e7 0.0
0.0 0.0 0.0

-1.3752013367397028e6 2.023735766735167e7 0.0
2.023735766735167e7 -9.574836936858648e6 0.0
0.0 0.0 0.0

1.092831682158629e7 2.4703294531461835e7 0.0
2.4703294531461835e7 -1.244864860882402e6 0.0
0.0 0.0 0.0

-7.521258495248493e6 1.9768000078924198e7 0.0
1.9768000078924198e7 -3.501235745872616e7 0.0
0.0 0.0 0.0

-1.2487219410159891e7 3.1492463942995884e7 0.0
3.1492463942995884e7 5.825788410094642e6 0.0
0.0 0.0 0.0

3.367865154907569e7 4.00249273812041e7 0.0
4.00249273812041e7 -7.051714518080914e6 0.0
0.0 0.0 0.0

-8.552192713435136e6 2.5231003324030578e7 0.0
2.5231003324030578e7 -5.393030385727879e6 0.0
0.0 0.0 0.0

-1.3131293522923388e7 3.2990061052276183e7 0.0
3.2990061052276183e7 5.755946205262587e6 0.0
0.0 0.0 0.0

-5.507133582042593e6 2.1001198380128488e7 0.0
2.1001198380128488e7 2.2355896454531964e7 0.0
0.0 0.0 0.0

4.511676954920545e6 2.354106915783526e7 0.0
2.354106915783526e7 -5.411024002639251e6 0.0
0.0 0.0 0.0

-3.5166321645835317e6 3.087412587996048e7 0.0
3.087412587996048e7 5.875406943126055e6 0.0
0.0 0.0 0.0

-7.4904084167771675e6 1.8237817189508002e7 0.0
1.8237817189508002e7 -4.033798059726551e7 0.0
0.0 0.0 0.0

2.235886717666136e6 5.059892752733884e6 0.0
5.059892752733884e6 -3.446811144744049e7 0.0
0.0 0.0 0.0

-7.402763182630418e6 1.9866105891848434e7 0.0
1.9866105891848434e7 -3.0681688963242523e7 0.0
0.0 0.0 0.0

-5.2257983614240335e6 3.440644396814101e7 0.0
3.440644396814101e7 3.7124369328239383e6 0.0
0.0 0.0 0.0

-3.688533969609056e6 2.1013786447908144e7 0.0
2.1013786447908144e7 -1.2295113252868265e7 0.0
0.0 0.0 0.0

3.434150280482485e6 2.111501231441694e7 0.0
2.111501231441694e7 1.1447168140127117e7 0.0
0.0 0.0 0.0

-6.282126451877916e6 1.8218414738865446e7 0.0
1.8218414738865446e7 3.288081907292147e7 0.0
0.0 0.0 0.0

-1.6537392944927665e6 1.5641078485180693e7 0.0
1.5641078485180693e7 -1.7462422548903364e6 0.0
0.0 0.0 0.0

1.4727059007644074e7 1.9564427889777523e7 0.0
1.9564427889777523e7 5.588976812281074e7 0.0
0.0 0.0 0.0

-8.659419128453428e6 3.919001787259374e6 0.0
3.919001787259374e6 4.393178293405887e7 0.0
0.0 0.0 0.0

1.576101435162358e6 4.420365793808542e6 0.0
4.420365793808542e6 -4.941580351643164e7 0.0
0.0 0.0 0.0

-5.063090491936506e6 1.9897467827258576e7 0.0
1.9897467827258576e7 -3.134549004858836e7 0.0
0.0 0.0 0.0

-1.128424774486098e7 3.3212332761396706e7 0.0
3.3212332761396706e7 5.905702598052161e6 0.0
0.0 0.0 0.0

3.435356215781711e7 1.5433140775438273e7 0.0
1.5433140775438273e7 1.542246467249412e6 0.0
0.0 0.0 0.0

-1.0413319482572077e7 7.884065257496724e6 0.0
7.884065257496724e6 3.29326837705321e7 0.0
0.0 0.0 0.0

-2.8988787077957217e7 3.315763597002044e7 0.0
3.315763597002044e7 -1.5068328558162058e7 0.0
0.0 0.0 0.0

-3.8470955562180956e6 2.4371511589792524e7 0.0
2.4371511589792524e7 9.202175701449504e6 0.0
0.0 0.0 0.0

-2.322270466212712e7 3.896352657238135e7 0.0
3.896352657238135e7 6.741561233020526e6 0.0
0.0 0.0 0.0

1.3338218975993134e6 5.0085921703846315e6 0.0
5.0085921703846315e6 -5.093426809434562e7 0.0
0.0 0.0 0.0

8.195067373050174e6 3.3509660180721063e7 0.0
3.3509660180721063e7 -5.21006397786095e6 0.0
0.0 0.0 0.0

-2.6506501509846337e6 1.412961028645306e7 0.0
1.412961028645306e7 6.2112747425100654e7 0.0
0.0 0.0 0.0

-3.776308658466252e6 2.9709827451760247e7 0.0
2.9709827451760247e7 8.125248945599193e6 0.0
0.0 0.0 0.0

-1.842499061448969e6 1.959592388382887e7 0.0
1.959592388382887e7 -7.483980959463364e6 0.0
0.0 0.0 0.0

-8.292896141663874e6 2.547633374407855e6 0.0
2.547633374407855e6 1.5279116869289037e7 0.0
0.0 0.0 0.0

5.61526402896439e6 2.1131811983306825e7 0.0
2.1131811983306825e7 1.8143758728871014e7 0.0
0.0 0.0 0.0

-4.847530114674467e6 2.5481343144099146e7 0.0
2.5481343144099146e7 1.0726307729561746e7 0.0
0.0 0.0 0.0

1.3631919099003547e6 1.0952551419001509e7 0.0
1.0952551419001509e7 -1.175390082676307e7 0.0
0.0 0.0 0.0

-3.9732271518879416e6 2.3370329464101672e7 0.0
2.3370329464101672e7 1.0686975619287742e6 0.0
0.0 0.0 0.0

8.970864197815288e6 2.427262951418103e7 0.0
2.427262951418103e7 -1.9174562077027066e6 0.0
0.0 0.0 0.0

-2.270091294238649e6 1.5745216701740388e7 0.0
1.5745216701740388e7 1.717206248161159e6 0.0
0.0 0.0 0.0

-4.952189150745558e6 1.8192086116160467e7 0.0
1.8192086116160467e7 -3.53774142728673e7 0.0
0.0 0.0 0.0

-3.611033651101379e6 1.9483105271026563e7 0.0
1.9483105271026563e7 8.570220048878247e6 0.0
0.0 0.0 0.0

-4.704756888187597e6 2.067185174698319e7 0.0
2.067185174698319e7 2.6478325326969363e7 0.0
0.0 0.0 0.0

-9.311066494420221e6 2.11509743911225e6 0.0
2.11509743911225e6 3.1807803811609987e7 0.0
0.0 0.0 0.0

-1.371119994965819e7 2.599383871770986e7 0.0
2.599383871770986e7 -183590.20948408917 0.0
0.0 0.0 0.0

-7.947456104027867e6 3.1268242449626505e7 0.0
3.1268242449626505e7 7.061206520650625e6 0.0
0.0 0.0 0.0

1.4675897796408713e7 3.391733696813011e7 0.0
3.391733696813011e7 -5.802091539285297e6 0.0
0.0 0.0 0.0

-9.921998575216124e6 7.3725027673127055e6 0.0
7.3725027673127055e6 3.594300317107933e7 0.0
0.0 0.0 0.0

-6.12588158973029e6 1.9227861954365354e7 0.0
1.9227861954365354e7 -3.691995804461811e7 0.0
0.0 0.0 0.0

-5.132075351998533e6 3.118190820228746e7 0.0
3.118190820228746e7 7.150878001531579e6 0.0
0.0 0.0 0.0

859700.4695829744 2.188448588762081e7 0.0
2.188448588762081e7 -8.421566922514742e6 0.0
0.0 0.0 0.0

-1.7232677561570052e6 1.7017910698521182e7 0.0
1.7017910698521182e7 -8.274207842445467e6 0.0
0.0 0.0 0.0

-1.0051514396826444e7 2.9851729741419074e6 0.0
2.9851729741419074e6 2.2805383499053776e7 0.0
0.0 0.0 0.0

-1.0927835900763532e7 3.460824947207835e7 0.0
3.460824947207835e7 5.895220626894595e6 0.0
0.0 0.0 0.0

-1.293979711074187e6 2.6110242679831553e7 0.0
2.6110242679831553e7 -133669.58549287182 0.0
0.0 0.0 0.0

4.408179020089774e6 2.2772816263833083e7 0.0
2.2772816263833083e7 1.6190405944534255e7 0.0
0.0 0.0 0.0

-3.2092315521010254e6 2.3349534824542524e6 0.0
2.3349534824542524e6 7.0008180104698185e6 0.0
0.0 0.0 0.0

5.606169918969426e6 2.3150803178926572e7 0.0
2.3150803178926572e7 5.814926990587918e6 0.0
0.0 0.0 0.0

-1.4107219910858907e6 9.76627951913261e6 0.0
9.76627951913261e6 -6.749400567797649e7 0.0
0.0 0.0 0.0

8.571827829274071e6 3.864005199868851e7 0.0
3.864005199868851e7 -5.039522759223422e6 0.0
0.0 0.0 0.0

-5.358723557153524e6 2.6572544973434247e7 0.0
2.6572544973434247e7 1.1449314552669983e7 0.0
0.0 0.0 0.0

-1.0230882265930854e7 1.1710881024434475e7 0.0
1.1710881024434475e7 1.7024135977154613e7 0.0
0.0 0.0 0.0

-1.690865290733344e6 2.2624001945335254e7 0.0
2.2624001945335254e7 -3.802580918868596e6 0.0
0.0 0.0 0.0

-1.547522871658083e6 1.2252453346453281e7 0.0
1.2252453346453281e7 -6.2999750239972346e7 0.0
0.0 0.0 0.0

-1.3208641301739737e6 1.9060442137781646e7 0.0
1.9060442137781646e7 -2.6450887004565753e7 0.0
0.0 0.0 0.0

-1.1417852882382004e7 3.9240061114147075e7 0.0
3.9240061114147075e7 4.325089084098121e6 0.0
0.0 0.0 0.0

-2.8767333695876603e6 2.0715037362858742e7 0.0
2.0715037362858742e7 -9.589112449083649e6 0.0
0.0 0.0 0.0

-5.982290229389897e6 2.4777259054372635e7 0.0
2.4777259054372635e7 -1.3900568995019753e7 0.0
0.0 0.0 0.0

-2.1875234293051665e6 2.6881720174320318e7 0.0
2.6881720174320318e7 6.479153981454988e6 0.0
0.0 0.0 0.0

768214.0842366777 2.0197170891497776e7 0.0
2.0197170891497776e7 -1.4793051696678378e7 0.0
0.0 0.0 0.0

9.573702315856582e6 2.45742494529371e7 0.0
2.45742494529371e7 8.960329205387477e6 0.0
0.0 0.0 0.0

-9.323620736309597e6 2.5301101172877043e7 0.0
2.5301101172877043e7 -1.4035604223533273e7 0.0
0.0 0.0 0.0

-2.6282177277944917e6 2.375571247316784e7 0.0
2.375571247316784e7 6.599235022637378e6 0.0
0.0 0.0 0.0

-3.6695933099512234e6 1.0358780245774882e7 0.0
1.0358780245774882e7 6.82336342817409e7 0.0
0.0 0.0 0.0

-585593.5418561506 1.6520095244316276e7 0.0
1.6520095244316276e7 -7.482420784008093e6 0.0
0.0 0.0 0.0

-8.520991925773002e6 1.7076898173703693e7 0.0
1.7076898173703693e7 -2.8932955347436186e7 0.0
0.0 0.0 0.0

932829.7779769087 2.2250948626862124e7 0.0
2.2250948626862124e7 -1.7013005819792867e7 0.0
0.0 0.0 0.0

-6.46426260365845e6 2.2079720885857385e7 0.0
2.2079720885857385e7 -1.8055301468061417e7 0.0
0.0 0.0 0.0

-3.754349566130813e6 2.483588037065581e7 0.0
2.483588037065581e7 1.1244501902780287e7 0.0
0.0 0.0 0.0

672891.0340614166 1.9238801294218693e7 0.0
1.9238801294218693e7 2.242970113483701e6 0.0
0.0 0.0 0.0

-2.811815371042824e6 3.2342987092126627e7 0.0
3.2342987092126627e7 4.1986663670465695e6 0.0
0.0 0.0 0.0

-4.28038946965487e6 2.4135961834225427e7 0.0
2.4135961834225427e7 780273.0978678188 0.0
0.0 0.0 0.0

-5.823688064475607e6 3.511665618726648e6 0.0
3.511665618726648e6 6.6544039097000055e7 0.0
0.0 0.0 0.0

-1.0828662008825159e7 1.1847349386579022e7 0.0
1.1847349386579022e7 2.771970013958502e7 0.0
0.0 0.0 0.0

1.9191482583694602e6 2.2383039172436062e7 0.0
2.2383039172436062e7 -7.219895739796929e6 0.0
0.0 0.0 0.0

-2.802300881731844e7 3.142852078041373e7 0.0
3.142852078041373e7 2.084433338080939e6 0.0
0.0 0.0 0.0

-1.1045147202993015e7 3.812330200937579e6 0.0
3.812330200937579e6 2.2309420436437234e7 0.0
0.0 0.0 0.0

-6.557940481019266e6 8.744353217025239e6 0.0
8.744353217025239e6 5.571590184126248e7 0.0
0.0 0.0 0.0

-2.893987674858999e6 2.3244706263622544e6 0.0
2.3244706263622544e6 6.727596623404225e6 0.0
0.0 0.0 0.0

-4.252276804439755e6 5.947899043977356e6 0.0
5.947899043977356e6 -673361.9288218495 0.0
0.0 0.0 0.0

1.3161038320478462e6 1.3086783710828098e7 0.0
1.3086783710828098e7 -2.5168039806666855e7 0.0
0.0 0.0 0.0

-2.0271344240939927e6 2.6560932308846034e7 0.0
2.6560932308846034e7 -953957.1014164449 0.0
0.0 0.0 0.0

-7.548890058803428e6 2.164457314095767e7 0.0
2.164457314095767e7 -1.8048196737057794e7 0.0
0.0 0.0 0.0

-3.1696385382284513e6 2.4354132189712502e7 0.0
2.4354132189712502e7 1.487450426955301e7 0.0
0.0 0.0 0.0

-5.043577671371576e6 1.8913926372134008e7 0.0
1.8913926372134008e7 -2.6666828770383373e7 0.0
0.0 0.0 0.0

2.834861013681951e6 2.2350558519834936e7 0.0
2.2350558519834936e7 1.4544772686867157e7 0.0
0.0 0.0 0.0

-1.2179370409856414e7 1.740099701599179e7 0.0
1.740099701599179e7 -4.294848488836908e7 0.0
0.0 0.0 0.0

-4.543167044842387e6 2.4049303976362187e7 0.0
2.4049303976362187e7 4.001176930530629e6 0.0
0.0 0.0 0.0

-3.5267807896305583e6 1.2766047290570123e7 0.0
1.2766047290570123e7 -7.4471644838926e7 0.0
0.0 0.0 0.0

-1.1535528435870223e6 1.2806198301545344e7 0.0
1.2806198301545344e7 -5.489873169567772e7 0.0
0.0 0.0 0.0

-4.872810951334834e6 2.378926501900687e7 0.0
2.378926501900687e7 -1.3264328498182686e7 0.0
0.0 0.0 0.0

-1.8531314583579663e7 2.8402855909083344e7 0.0
2.8402855909083344e7 -1.3546687446089543e7 0.0
0.0 0.0 0.0

-1.3564322749676842e7 3.1548214210410725e7 0.0
3.1548214210410725e7 5.794290594592085e6 0.0
0.0 0.0 0.0

-4.363554398284089e6 1.6271363861917753e7 0.0
1.6271363861917753e7 7.73623952298424e6 0.0
0.0 0.0 0.0

-2.0466094298445103e6 7.619268123328569e6 0.0
7.619268123328569e6 8.741440989509583e6 0.0
0.0 0.0 0.0

412158.618406713 2.146603743458336e7 0.0
2.146603743458336e7 -6.689648171485215e6 0.0
0.0 0.0 0.0

1.2265375302412605e7 2.563687856881541e7 0.0
2.563687856881541e7 -883636.4191308501 0.0
0.0 0.0 0.0

-1.4596446922520772e6 1.4784163087772511e7 0.0
1.4784163087772511e7 6.3052489248662606e7 0.0
0.0 0.0 0.0

-1.2117975192126324e6 2.3172194140698433e7 0.0
2.3172194140698433e7 1.2553508702665068e7 0.0
0.0 0.0 0.0

-8.169144407493203e6 3.1282895712178435e7 0.0
3.1282895712178435e7 7.106395231616678e6 0.0
0.0 0.0 0.0

-4.836939675470242e6 1.9307034319704067e7 0.0
1.9307034319704067e7 -1.6798168089340776e7 0.0
0.0 0.0 0.0

-5.7105507826670185e6 1.2182133620037315e7 0.0
1.2182133620037315e7 5.241971977036207e7 0.0
0.0 0.0 0.0

-2.122796399206331e6 2.2920129203047223e7 0.0
2.2920129203047223e7 7.130424472360599e6 0.0
0.0 0.0 0.0

707136.2054061452 2.2092959671179995e7 0.0
2.2092959671179995e7 -1.689021810881227e7 0.0
0.0 0.0 0.0

-1.585154916194437e6 1.7697199392892584e7 0.0
1.7697199392892584e7 -3.1413761053363465e7 0.0
0.0 0.0 0.0

-782227.515933115 1.140680291377204e7 0.0
1.140680291377204e7 -5.198070906139037e7 0.0
0.0 0.0 0.0

39989.7543817386 1.2372248054393342e7 0.0
1.2372248054393342e7 -4.145203962291188e7 0.0
0.0 0.0 0.0

-1.2451843408155408e7 2.038971683942674e7 0.0
2.038971683942674e7 -6.0429232542777754e7 0.0
0.0 0.0 0.0

-3.2067484543542e6 3.1604596359708123e7 0.0
3.1604596359708123e7 5.034769258483922e6 0.0
0.0 0.0 0.0

-6.563966168086284e6 2.4536563785503138e7 0.0
2.4536563785503138e7 -1.4097629009801598e7 0.0
0.0 0.0 0.0

-1.5502477841222943e6 2.20234602408798e7 0.0
2.20234602408798e7 -1.4225755374494975e7 0.0
0.0 0.0 0.0

2.6926126112517577e7 2.5863573475212798e7 0.0
2.5863573475212798e7 1.1741005351142092e6 0.0
0.0 0.0 0.0

-5.744856014668856e6 6.52824144945475e6 0.0
6.52824144945475e6 6.001778924578202e7 0.0
0.0 0.0 0.0

-2.8435951242342554e6 1.2632216842674643e7 0.0
1.2632216842674643e7 -6.360598933447937e7 0.0
0.0 0.0 0.0

437299.0187159665 1.2778107992791139e7 0.0
1.2778107992791139e7 -4.1337551676898375e7 0.0
0.0 0.0 0.0

-2.4199654750195183e6 1.0292533428644892e7 0.0
1.0292533428644892e7 7.476992998647635e7 0.0
0.0 0.0 0.0

2.4857675597422056e7 2.6221531752131794e7 0.0
2.6221531752131794e7 1.6055941724774156e7 0.0
0.0 0.0 0.0

-5.296802571362335e6 9.960072160821753e6 0.0
9.960072160821753e6 5.721189612373085e7 0.0
0.0 0.0 0.0

-7.777470490979816e6 -1.1156116076748786e6 0.0
-1.1156116076748786e6 1.154821006786888e7 0.0
0.0 0.0 0.0

-3.675559043061143e6 3.3388494365812823e7 0.0
3.3388494365812823e7 2.700787659752705e6 0.0
0.0 0.0 0.0

1.2513345201282874e6 1.203680278560521e7 0.0
1.203680278560521e7 -3.133396856903455e7 0.0
0.0 0.0 0.0

-8.372078507977372e6 3.572522924452541e7 0.0
3.572522924452541e7 5.684504265283711e6 0.0
0.0 0.0 0.0

-5.1768994182464965e6 1.4825556964740714e7 0.0
1.4825556964740714e7 4.665644656772905e7 0.0
0.0 0.0 0.0

-1.1347771122705104e7 9.892116254722856e6 0.0
9.892116254722856e6 2.5663448377883e7 0.0
0.0 0.0 0.0

9.93788384866406e6 3.386303188180158e7 0.0
3.386303188180158e7 -5.378045955535924e6 0.0
0.0 0.0 0.0

-3.9247563696226478e6 2.5155404144561563e7 0.0
2.5155404144561563e7 1.4335227206745913e7 0.0
0.0 0.0 0.0

3.1495015014179843e6 2.893178196732136e7 0.0
2.893178196732136e7 -7.430474050928698e6 0.0
0.0 0.0 0.0

-7.202360884080024e6 2.8272067062608395e7 0.0
2.8272067062608395e7 7.6970590703831e6 0.0
0.0 0.0 0.0

-4.652244759939214e6 2.017454738732928e7 0.0
2.017454738732928e7 -2.8279811400293402e7 0.0
0.0 0.0 0.0

6.326345568774416e6 2.5735309687292323e7 0.0
2.5735309687292323e7 -7.008073665415512e6 0.0
0.0 0.0 0.0

1.0285803809319131e7 2.012881243432841e7 0.0
2.012881243432841e7 5.324990959549631e7 0.0
0.0 0.0 0.0

-5.059830655314114e6 6.543369197086353e6 0.0
6.543369197086353e6 1.800939454652383e7 0.0
0.0 0.0 0.0

-1.8389168275159677e6 9.282843064146277e6 0.0
9.282843064146277e6 -9.06494254617138e6 0.0
0.0 0.0 0.0

-5.05651647407905e6 2.1599994630067762e7 0.0
2.1599994630067762e7 -1.6855054621561337e7 0.0
0.0 0.0 0.0

5.071020637949302e6 2.1863075319141578e7 0.0
2.1863075319141578e7 1.6903402238367975e7 0.0
0.0 0.0 0.0

1.0566633339426177e7 3.953709838932207e7 0.0
3.953709838932207e7 -5.935334945576511e6 0.0
0.0 0.0 0.0

3.3156848038692465e6 5.3830901343085e6 0.0
5.3830901343085e6 -1.9060983815142374e7 0.0
0.0 0.0 0.0

-5.1721802213140605e6 3.764948042704368e7 0.0
3.764948042704368e7 4.1470158279230017e6 0.0
0.0 0.0 0.0

-4.6322019359501824e7 1.768377982376463e7 0.0
1.768377982376463e7 6.844678557951987e6 0.0
0.0 0.0 0.0

1.1123877667738665e6 2.2656830611521892e7 0.0
2.2656830611521892e7 -1.532653789655387e7 0.0
0.0 0.0 0.0

-4.761171056186404e6 1.6590895986933239e7 0.0
1.6590895986933239e7 4.235497428607856e7 0.0
0.0 0.0 0.0

409764.68261017324 2.28434189945761e7 0.0
2.28434189945761e7 -7.007730809729712e6 0.0
0.0 0.0 0.0

-4.342198320418401e6 2.5787759840230737e7 0.0
2.5787759840230737e7 1.0849442081310183e7 0.0
0.0 0.0 0.0

-1.8862897439874192e6 2.5970621936727837e7 0.0
2.5970621936727837e7 -2.0806437359342545e6 0.0
0.0 0.0 0.0

1.0139078836852042e6 2.3202521060884923e7 0.0
2.3202521060884923e7 -8.5966859606139e6 0.0
0.0 0.0 0.0

1.2602773420101255e6 4.076988180682874e6 0.0
4.076988180682874e6 -5.337841989039481e7 0.0
0.0 0.0 0.0

-939973.5869379567 1.8975913701538764e7 0.0
1.8975913701538764e7 -3.133245751242962e6 0.0
0.0 0.0 0.0

1.3662713072837513e7 2.7043988353702262e7 0.0
2.7043988353702262e7 -3.1221813603216214e6 0.0
0.0 0.0 0.0

-1.7873630562872603e6 2.150564496705561e7 0.0
2.150564496705561e7 -1.6587739787877573e7 0.0
0.0 0.0 0.0

7.704667315917129e6 2.437508440584932e7 0.0
2.437508440584932e7 1.2139806208581066e7 0.0
0.0 0.0 0.0

-2.1096725660615284e6 1.2944998746399611e7 0.0
1.2944998746399611e7 -5.512339695068262e7 0.0
0.0 0.0 0.0

84099.69906523591 2.529702942706346e7 0.0
2.529702942706346e7 -9.391490201170905e6 0.0
0.0 0.0 0.0

5.639522568092453e6 2.4116307156168953e7 0.0
2.4116307156168953e7 1.6248147777376002e7 0.0
0.0 0.0 0.0

3.218527849219546e7 3.2853639486389678e7 0.0
3.2853639486389678e7 -3.9069579074654896e6 0.0
0.0 0.0 0.0

-743586.3406437319 1.3141496853764862e7 0.0
1.3141496853764862e7 -4.776422084483733e7 0.0
0.0 0.0 0.0

-3.753933053192209e7 1.6205081201483076e7 0.0
1.6205081201483076e7 7.221216996522987e6 0.0
0.0 0.0 0.0

3.105331622749419e6 2.0535143460134674e7 0.0
2.0535143460134674e7 2.0362121767824117e7 0.0
0.0 0.0 0.0

-7.498353180700844e6 3.717231571915059e7 0.0
3.717231571915059e7 5.187842701343115e6 0.0
0.0 0.0 0.0

701189.699210763 2.307969143690336e7 0.0
2.307969143690336e7 -1.1913282953228828e7 0.0
0.0 0.0 0.0

-6.843703328443294e6 3.1842996826448448e7 0.0
3.1842996826448448e7 6.706071029738918e6 0.0
0.0 0.0 0.0

-2.5894397435698025e6 1.3760936770147778e7 0.0
1.3760936770147778e7 6.723294048762664e7 0.0
0.0 0.0 0.0

1.3168837198061282e6 1.6819964951059543e7 0.0
1.6819964951059543e7 -1.9890024783481408e7 0.0
0.0 0.0 0.0

7.699179696734108e6 3.376387349178587e7 0.0
3.376387349178587e7 -5.629962751030639e6 0.0
0.0 0.0 0.0

-2.627442771705889e6 1.358454190474181e7 0.0
1.358454190474181e7 3.6181642435544915e6 0.0
0.0 0.0 0.0

-3.422932633581464e7 1.5436161228092857e7 0.0
1.5436161228092857e7 7.004616820623228e6 0.0
0.0 0.0 0.0

-3.2006321626103213e6 1.771086939090186e7 0.0
1.771086939090186e7 726365.9145407698 0.0
0.0 0.0 0.0

-9.890577821062118e6 5.580742220895009e6 0.0
5.580742220895009e6 3.618906271765399e7 0.0
0.0 0.0 0.0

-3.8900762772508115e6 1.7155806493906915e7 0.0
1.7155806493906915e7 4.315543040883602e7 0.0
0.0 0.0 0.0

-6.138466739078263e6 3.517324346984977e7 0.0
3.517324346984977e7 3.871977417273018e6 0.0
0.0 0.0 0.0

-6.587841655545595e6 3.851957586387189e7 0.0
3.851957586387189e7 4.486450012425521e6 0.0
0.0 0.0 0.0

-4.50396841562178e6 1.3174519987121614e7 0.0
1.3174519987121614e7 5.367641476507786e7 0.0
0.0 0.0 0.0

1.086000937732309e6 1.5101343520891689e7 0.0
1.5101343520891689e7 -1.6292929430686332e7 0.0
0.0 0.0 0.0

8.373025007207809e6 2.4432478987723194e7 0.0
2.4432478987723194e7 1.8347367342823064e6 0.0
0.0 0.0 0.0

-4.0460603799767415e6 1.72596886000042e7 0.0
1.72596886000042e7 -1.239552488311052e7 0.0
0.0 0.0 0.0

1.0687321471346682e6 1.0320239612185288e7 0.0
1.0320239612185288e7 -1.5103614397179343e7 0.0
0.0 0.0 0.0

-4.367218076462602e6 3.482619381638824e7 0.0
3.482619381638824e7 4.331951254993874e6 0.0
0.0 0.0 0.0

-5.840300044316057e6 1.9602774345498085e7 0.0
1.9602774345498085e7 2.9627975138725497e7 0.0
0.0 0.0 0.0

-1.549475017171001e6 1.346388013249623e7 0.0
1.346388013249623e7 -4.826368094606815e7 0.0
0.0 0.0 0.0

-2.4478576161303703e7 3.0197743571619444e7 0.0
3.0197743571619444e7 1.5472150751255397e6 0.0
0.0 0.0 0.0

3.337906637202092e6 2.9950669208670992e7 0.0
2.9950669208670992e7 -6.488153511779253e6 0.0
0.0 0.0 0.0

199126.44162289798 5.894828014583091e6 0.0
5.894828014583091e6 -6.3884720661814876e7 0.0
0.0 0.0 0.0

-912989.4305063654 2.1785177886627562e7 0.0
2.1785177886627562e7 2.231488362294593e7 0.0
0.0 0.0 0.0

-1.6509252328488599e6 2.629162253156943e7 0.0
2.629162253156943e7 1.8683813741244292e6 0.0
0.0 0.0 0.0

851525.4363801852 2.2861203696343265e7 0.0
2.2861203696343265e7 -1.5623409114680283e7 0.0
0.0 0.0 0.0

-1.0213508271044916e7 3.621743454573231e7 0.0
3.621743454573231e7 5.8376931163749695e6 0.0
0.0 0.0 0.0

-1.072878870056829e6 2.6517827896719e7 0.0
2.6517827896719e7 -1.1891652354941266e6 0.0
0.0 0.0 0.0

-7.368692619076697e6 3.59728553923929e7 0.0
3.59728553923929e7 4.1138873406800623e6 0.0
0.0 0.0 0.0

-3.170085118727367e6 9.146479729570646e6 0.0
9.146479729570646e6 5.777638338110639e6 0.0
0.0 0.0 0.0

7.376182217784315e6 2.0017755786023352e7 0.0
2.0017755786023352e7 2.6885905376084257e7 0.0
0.0 0.0 0.0

-1.413329141832048e6 1.9837769483325195e7 0.0
1.9837769483325195e7 -2.3598161492757525e7 0.0
0.0 0.0 0.0

-2.251741436620994e6 1.7111016588600628e7 0.0
1.7111016588600628e7 1.746897015467328e6 0.0
0.0 0.0 0.0

74100.43680523057 2.1325827724517923e7 0.0
2.1325827724517923e7 -1.8366285189055484e7 0.0
0.0 0.0 0.0

1.949073232942868e6 8.494824261779472e6 0.0
8.494824261779472e6 -2.3748693118631735e7 0.0
0.0 0.0 0.0

1.6377501724211035e7 2.556687531974614e7 0.0
2.556687531974614e7 1.200253904759641e7 0.0
0.0 0.0 0.0

-7.6800529200917e6 1.3275539799065047e6 0.0
1.3275539799065047e6 4.494486936165625e7 0.0
0.0 0.0 0.0

8.297196325946346e6 2.0178330785184335e7 0.0
2.0178330785184335e7 3.0633668022323806e7 0.0
0.0 0.0 0.0

-4.0562855075677074e6 3.2737215083482236e7 0.0
3.2737215083482236e7 3.6171534097062377e6 0.0
0.0 0.0 0.0

-1.1838179015057618e6 1.9421070429627977e7 0.0
1.9421070429627977e7 -2.6985451923216775e7 0.0
0.0 0.0 0.0

6.724734220373399e6 3.3041329943640463e7 0.0
3.3041329943640463e7 -5.271495619202488e6 0.0
0.0 0.0 0.0

-1.0320747362878578e6 2.1542826813136946e7 0.0
2.1542826813136946e7 -3.011143649766697e6 0.0
0.0 0.0 0.0

2.0202817907788828e6 1.1593014383125478e7 0.0
1.1593014383125478e7 -3.0624399797362953e7 0.0
0.0 0.0 0.0

2.9382960652372316e6 2.913060645879525e7 0.0
2.913060645879525e7 -7.735385840875814e6 0.0
0.0 0.0 0.0

-951747.727849952 2.0271424564975098e7 0.0
2.0271424564975098e7 -2.1770696359988764e7 0.0
0.0 0.0 0.0

-1.1094738231664704e7 8.478483019867491e6 0.0
8.478483019867491e6 1.977678315534648e7 0.0
0.0 0.0 0.0

5.58931323663592e6 2.227517868948828e7 0.0
2.227517868948828e7 1.9687525410172477e7 0.0
0.0 0.0 0.0

-5.748521692322091e6 2.6340771622601513e7 0.0
2.6340771622601513e7 1.0273769872741587e7 0.0
0.0 0.0 0.0

-4.619786493268483e6 3.358680864320739e7 0.0
3.358680864320739e7 3.617894252930159e6 0.0
0.0 0.0 0.0

204576.8681397615 2.188304547135343e7 0.0
2.188304547135343e7 1.3382547270138938e7 0.0
0.0 0.0 0.0

-7.711297606319576e6 4.728077175904339e6 0.0
4.728077175904339e6 1.4321758008381931e7 0.0
0.0 0.0 0.0

-7.394048439751083e6 1.1931063949778846e7 0.0
1.1931063949778846e7 4.516167354977305e7 0.0
0.0 0.0 0.0

599686.7981763985 2.1924016407134436e7 0.0
2.1924016407134436e7 -1.68475634072229e7 0.0
0.0 0.0 0.0

-4.604893501531143e6 1.6023458137492761e7 0.0
1.6023458137492761e7 -7.398635501327087e7 0.0
0.0 0.0 0.0

-6.43033645570241e6 6.630104232762636e6 0.0
6.630104232762636e6 1.2533745343384046e7 0.0
0.0 0.0 0.0

-1.055924554722498e7 3.7158349345752923e6 0.0
3.7158349345752923e6 2.7008115443962675e7 0.0
0.0 0.0 0.0

-3.6437384457446127e6 1.992762661050972e7 0.0
1.992762661050972e7 1.001825997072056e7 0.0
0.0 0.0 0.0

2.672594638765092e6 3.02311884617124e7 0.0
3.02311884617124e7 -5.806997380907616e6 0.0
0.0 0.0 0.0

-5.627787259937732e6 1.781460762684365e7 0.0
1.781460762684365e7 -4.727011656178795e7 0.0
0.0 0.0 0.0

2.7731947942772405e6 8.097745187653482e6 0.0
8.097745187653482e6 -2.046640850784532e7 0.0
0.0 0.0 0.0

-2.4430066169546163e6 3.2998113617623217e7 0.0
3.2998113617623217e7 3.293898914044752e6 0.0
0.0 0.0 0.0

3.934055071961183e6 2.955279577346568e7 0.0
2.955279577346568e7 -7.062181159851087e6 0.0
0.0 0.0 0.0

-1.1322535245545961e7 4.4819635778416984e7 0.0
4.4819635778416984e7 4.037376352372135e6 0.0
0.0 0.0 0.0

-3.2197763499463634e6 3.31574405588637e7 0.0
3.31574405588637e7 4.256773458018335e6 0.0
0.0 0.0 0.0

-3.063087115702843e7 3.1885081523221858e7 0.0
3.1885081523221858e7 -1.2936309586930275e7 0.0
0.0 0.0 0.0

-5.189435940237656e6 2.436609513648565e7 0.0
2.436609513648565e7 -2.0562429381601657e6 0.0
0.0 0.0 0.0

-4.928216270636242e6 1.5934757054484155e7 0.0
1.5934757054484155e7 -6.804607235285586e7 0.0
0.0 0.0 0.0

-3.3457288021003865e6 1.6383853366054792e7 0.0
1.6383853366054792e7 641764.2133401781 0.0
0.0 0.0 0.0

-7.808783651482806e6 3.477520608451508e6 0.0
3.477520608451508e6 5.139915706729463e7 0.0
0.0 0.0 0.0

-6.129776285445318e6 7.246871988928595e6 0.0
7.246871988928595e6 5.973755300657355e7 0.0
0.0 0.0 0.0

1.2379446170370076e6 6.955330798368326e6 0.0
6.955330798368326e6 -4.6369842149188004e7 0.0
0.0 0.0 0.0

-5.097198499901215e6 2.7701589684725028e7 0.0
2.7701589684725028e7 9.906943484555243e6 0.0
0.0 0.0 0.0

-2.196727630539544e6 1.5174948575453239e7 0.0
1.5174948575453239e7 5.808232480895765e7 0.0
0.0 0.0 0.0

-443043.22302723397 2.07867406745823e7 0.0
2.07867406745823e7 -2.0018083578537226e7 0.0
0.0 0.0 0.0

38888.40313233435 1.7254566859024663e7 0.0
1.7254566859024663e7 5.577954415259421e7 0.0
0.0 0.0 0.0

2.192421525877067e6 2.950500465408813e7 0.0
2.950500465408813e7 -7.190737281845543e6 0.0
0.0 0.0 0.0

4.976448942876292e6 3.605185787498361e7 0.0
3.605185787498361e7 -4.288188758068389e6 0.0
0.0 0.0 0.0

-615847.532284593 2.1379055920478106e7 0.0
2.1379055920478106e7 -5.254820526308514e6 0.0
0.0 0.0 0.0

-1.0706992113480091e7 6.735258010022368e6 0.0
6.735258010022368e6 2.6065393809590407e7 0.0
0.0 0.0 0.0

1.667385536563538e6 2.1168333542078532e7 0.0
2.1168333542078532e7 1.6824310544348486e7 0.0
0.0 0.0 0.0

-2.80799268448819e6 1.9199913314515755e7 0.0
1.9199913314515755e7 1.1306221297835825e7 0.0
0.0 0.0 0.0

1.9045863858688846e6 4.780296958362983e6 0.0
4.780296958362983e6 -4.233100054915157e7 0.0
0.0 0.0 0.0

5.89697304455054e6 2.5486819896293998e7 0.0
2.5486819896293998e7 -5.56139860594229e6 0.0
0.0 0.0 0.0

-1.6646637273924349e7 2.3482235979224958e7 0.0
2.3482235979224958e7 -1.0283915099295927e6 0.0
0.0 0.0 0.0

-2.7848487855783705e7 2.7287390723211836e7 0.0
2.7287390723211836e7 -9.421405960059896e6 0.0
0.0 0.0 0.0

-2.411359871699449e6 3.3734707679791376e7 0.0
3.3734707679791376e7 942414.1996173213 0.0
0.0 0.0 0.0

71442.79324707761 1.4552681913383339e7 0.0
1.4552681913383339e7 -1.5325149079575898e7 0.0
0.0 0.0 0.0

-7.556139128495941e6 2.4032850333928756e7 0.0
2.4032850333928756e7 -1.8376971264149724e6 0.0
0.0 0.0 0.0

3.177051044231719e6 3.619258225257527e7 0.0
3.619258225257527e7 -2.161108449972472e6 0.0
0.0 0.0 0.0

-1.7034250777390022e6 2.184234812823112e7 0.0
2.184234812823112e7 2.338188853384346e7 0.0
0.0 0.0 0.0

-834415.3844912797 2.241535843853912e7 0.0
2.241535843853912e7 1.3061560568400161e7 0.0
0.0 0.0 0.0

1.0708380030337768e6 1.403794552999204e7 0.0
1.403794552999204e7 -1.4487884104988733e7 0.0
0.0 0.0 0.0

-2.163749623476011e6 3.844572181971637e7 0.0
3.844572181971637e7 1.7576459205325395e6 0.0
0.0 0.0 0.0

-9.160028729078896e6 3.0205798572431635e6 0.0
3.0205798572431635e6 3.937291993671878e7 0.0
0.0 0.0 0.0

2.827306626475293e6 6.054324943625154e6 0.0
6.054324943625154e6 -3.2886306846473485e7 0.0
0.0 0.0 0.0

1.3348778309639443e6 3.2691876259057857e7 0.0
3.2691876259057857e7 -2.3171790668311142e6 0.0
0.0 0.0 0.0

-1.4598974624052495e6 2.0229845036363512e7 0.0
2.0229845036363512e7 -2.4215017959569417e7 0.0
0.0 0.0 0.0

-6.372596683288656e6 -380308.9123178795 0.0
-380308.9123178795 1.1557974892106403e7 0.0
0.0 0.0 0.0

614219.6583075691 1.0727957055404384e7 0.0
1.0727957055404384e7 -1.414498618208828e7 0.0
0.0 0.0 0.0

-1.2332091489228923e7 2.6927398694564316e7 0.0
2.6927398694564316e7 -1.1927369544441178e7 0.0
0.0 0.0 0.0

1.7691050582830869e6 1.30597986616987e7 0.0
1.30597986616987e7 -2.9587108251453657e7 0.0
0.0 0.0 0.0

1.5841569768731073e7 2.639170412681162e7 0.0
2.639170412681162e7 1.4378861842019612e7 0.0
0.0 0.0 0.0

-5.127539528178728e6 1.0091532936733738e7 0.0
1.0091532936733738e7 4.239884392664922e6 0.0
0.0 0.0 0.0

-8.865980021916922e6 5.003073918969055e6 0.0
5.003073918969055e6 1.0104693242660679e7 0.0
0.0 0.0 0.0

1.214659404634117e7 3.398240780597353e7 0.0
3.398240780597353e7 -5.4945585203876e6 0.0
0.0 0.0 0.0

-9.10143848821909e6 3.4810847976052593e6 0.0
3.4810847976052593e6 3.820238475961581e7 0.0
0.0 0.0 0.0

999459.0129622752 1.8302051705785707e7 0.0
1.8302051705785707e7 -1.6909944218551457e7 0.0
0.0 0.0 0.0

1.9476892845965107e6 2.1928207723708693e7 0.0
2.1928207723708693e7 3.2430123542385558e6 0.0
0.0 0.0 0.0

2.1415374521041013e7 2.85851037543e7 0.0
2.85851037543e7 -2.314898835974939e6 0.0
0.0 0.0 0.0

961965.5931732813 1.9467751583676413e7 0.0
1.9467751583676413e7 -2.0926512689256728e7 0.0
0.0 0.0 0.0

1.0812364297468135e7 2.089971961411693e7 0.0
2.089971961411693e7 4.042605738898216e7 0.0
0.0 0.0 0.0

-9.493819544721123e6 3.1634275011374183e7 0.0
3.1634275011374183e7 6.6104875025638705e6 0.0
0.0 0.0 0.0

-7.490325251673259e6 3.496172041246101e6 0.0
3.496172041246101e6 4.7761228286729574e7 0.0
0.0 0.0 0.0

2.1898424162197355e6 3.2815903389020514e7 0.0
3.2815903389020514e7 -2.9444384076516377e6 0.0
0.0 0.0 0.0

1.5979334327376755e6 2.196349409490132e7 0.0
2.196349409490132e7 2.337555241119662e7 0.0
0.0 0.0 0.0

1.3743843822705615e6 1.2432340729664288e7 0.0
1.2432340729664288e7 -2.4468761799685758e7 0.0
0.0 0.0 0.0

2.151874285278322e6 5.140557932712482e6 0.0
5.140557932712482e6 -4.7644518082610816e7 0.0
0.0 0.0 0.0

-1.654374257038774e6 2.6318724925774656e7 0.0
2.6318724925774656e7 -3.078450815467178e6 0.0
0.0 0.0 0.0

-7.925366918064948e6 1.3720100625072295e7 0.0
1.3720100625072295e7 1.9437948883443594e7 0.0
0.0 0.0 0.0

-5.539770600127427e6 1.8161942563314237e7 0.0
1.8161942563314237e7 3.585409761641769e7 0.0
0.0 0.0 0.0

-1.6518223191859294e6 1.9000179813220054e7 0.0
1.9000179813220054e7 -2.9007480720512502e7 0.0
0.0 0.0 0.0

-4.236508855725927e6 1.5375568985555016e7 0.0
1.5375568985555016e7 -6.3239879750938624e7 0.0
0.0 0.0 0.0

2.71710473152827e6 3.360885166006793e7 0.0
3.360885166006793e7 -2.9333247221872304e6 0.0
0.0 0.0 0.0

-322788.03715766035 2.2119515561704904e7 0.0
2.2119515561704904e7 1.0384435412492665e7 0.0
0.0 0.0 0.0

-4.244731043493342e7 1.6596371781458382e7 0.0
1.6596371781458382e7 6.530936702723023e6 0.0
0.0 0.0 0.0

1.1791446879097417e7 2.1351789204083342e7 0.0
2.1351789204083342e7 4.530006902007714e7 0.0
0.0 0.0 0.0

-3.824439334929064e7 3.808165134231404e7 0.0
3.808165134231404e7 5.862667472248031e6 0.0
0.0 0.0 0.0

874343.7422534395 1.1997096504318394e7 0.0
1.1997096504318394e7 -3.6076478325241104e7 0.0
0.0 0.0 0.0

9.549430849496812e6 5.999028369956813e6 0.0
5.999028369956813e6 -1.5605887237332598e6 0.0
0.0 0.0 0.0

-1.982931696124707e7 1.9766363124441293e6 0.0
1.9766363124441293e6 6.095629937449464e6 0.0
0.0 0.0 0.0

-8.013038987073353e6 1.2427708058898857e7 0.0
1.2427708058898857e7 1.757731505487947e7 0.0
0.0 0.0 0.0

-8.045116055777391e6 4.885955502375551e6 0.0
4.885955502375551e6 4.54162134454912e7 0.0
0.0 0.0 0.0

-9.581031135743229e6 5.624108134942253e6 0.0
5.624108134942253e6 3.8055986937072e7 0.0
0.0 0.0 0.0

51658.80231887009 2.168288675145695e7 0.0
2.168288675145695e7 -1.8971596737924967e7 0.0
0.0 0.0 0.0

-3.0728936550395065e6 1.856583409489101e7 0.0
1.856583409489101e7 -1.024297880135505e7 0.0
0.0 0.0 0.0

2.9549691200976814e6 1.8795556841600075e7 0.0
1.8795556841600075e7 9.849897096080113e6 0.0
0.0 0.0 0.0

1.491195323078301e6 2.1684508876182724e7 0.0
2.1684508876182724e7 -26978.26335469383 0.0
0.0 0.0 0.0

3.3111837236810373e6 3.440076348792793e7 0.0
3.440076348792793e7 -2.8544293480612235e6 0.0
0.0 0.0 0.0

-9.807550048673583e6 1.3372102366778791e7 0.0
1.3372102366778791e7 2.422551812205578e7 0.0
0.0 0.0 0.0

537662.5557619156 2.0236425523179024e7 0.0
2.0236425523179024e7 -1.9545628083767757e7 0.0
0.0 0.0 0.0

-2.6777973702427484e6 2.8536926634099524e7 0.0
2.8536926634099524e7 3.455615090673347e6 0.0
0.0 0.0 0.0

811642.820227785 9.641193532849371e6 0.0
9.641193532849371e6 -4.272740926627715e7 0.0
0.0 0.0 0.0

-8.716777117349464e6 4.348253032658567e6 0.0
4.348253032658567e6 4.0813560300229676e7 0.0
0.0 0.0 0.0

2.4758182761856248e6 3.198735564569493e7 0.0
3.198735564569493e7 -3.9261041257851655e6 0.0
0.0 0.0 0.0

-900094.8161068461 2.2227014481485084e7 0.0
2.2227014481485084e7 7.367128741126785e6 0.0
0.0 0.0 0.0

-1.5375172222730347e6 2.2459063555991914e7 0.0
2.2459063555991914e7 4.401695848035481e6 0.0
0.0 0.0 0.0

-8.297819396837922e6 2.6103643179995585e7 0.0
2.6103643179995585e7 -1.4096250804169739e7 0.0
0.0 0.0 0.0

8.542089269723793e6 1.80160812475147e7 0.0
1.80160812475147e7 3.00000423212528e7 0.0
0.0 0.0 0.0

-9.739265018749293e6 2.496497932333691e7 0.0
2.496497932333691e7 -1.1935031175114715e7 0.0
0.0 0.0 0.0

-4.51428491433187e6 1.6019574710807119e7 0.0
1.6019574710807119e7 4.54367871147666e7 0.0
0.0 0.0 0.0

-8.12546667154748e6 3.402852409775883e6 0.0
3.402852409775883e6 4.762729216328663e7 0.0
0.0 0.0 0.0

2.0952354879171057e6 1.1925976019572023e7 0.0
1.1925976019572023e7 -2.3628475545932062e7 0.0
0.0 0.0 0.0

1.2100808020164259e6 6.0051585389481615e6 0.0
6.0051585389481615e6 -4.87472582412333e7 0.0
0.0 0.0 0.0

1.1324800101965498e6 2.0823078596340783e7 0.0
2.0823078596340783e7 -1.7991134833879754e7 0.0
0.0 0.0 0.0

9.919440539284792e6 2.5193216455772854e7 0.0
2.5193216455772854e7 1.1951526041981684e7 0.0
0.0 0.0 0.0

2.1768403505915646e6 7.21188764513797e6 0.0
7.21188764513797e6 -2.1892065671534035e7 0.0
0.0 0.0 0.0

-8.982957291991513e6 1.950721219389819e7 0.0
1.950721219389819e7 -3.697646106544999e7 0.0
0.0 0.0 0.0

-3.6683225798001345e6 1.5039887477320075e7 0.0
1.5039887477320075e7 -5.872736102462253e7 0.0
0.0 0.0 0.0

-3.5743496674490017e6 1.893535994533139e7 0.0
1.893535994533139e7 7.123417672323069e6 0.0
0.0 0.0 0.0

-6.750422823037149e6 2.8143326215114586e7 0.0
2.8143326215114586e7 9.36000352876404e6 0.0
0.0 0.0 0.0

-1.2781937229190998e7 2.585119897219283e7 0.0
2.585119897219283e7 -1.2611265431565829e7 0.0
0.0 0.0 0.0

-6.2094716413065605e6 4.112468653514259e6 0.0
4.112468653514259e6 5.857485244204883e7 0.0
0.0 0.0 0.0

-3.080391878373405e6 1.4898769978470573e7 0.0
1.4898769978470573e7 -5.48138493405458e7 0.0
0.0 0.0 0.0

-4.223450686628016e6 1.5315924890179386e7 0.0
1.5315924890179386e7 4.862571032855415e7 0.0
0.0 0.0 0.0

-2.3493411222886704e6 2.2662576632209245e7 0.0
2.2662576632209245e7 1.4091693123896106e6 0.0
0.0 0.0 0.0

1.7753659380081992e6 3.39780269617667e7 0.0
3.39780269617667e7 -3.516149818344474e6 0.0
0.0 0.0 0.0

-1.5146270096651651e7 3.097372607501259e7 0.0
3.097372607501259e7 4.894841711360654e6 0.0
0.0 0.0 0.0

-6.43325685437341e6 1.736631768857106e7 0.0
1.736631768857106e7 3.539429715458645e7 0.0
0.0 0.0 0.0

-6.117747650613969e6 1.706791305769601e7 0.0
1.706791305769601e7 -2.0687278259602573e7 0.0
0.0 0.0 0.0

5.600984738922786e6 1.9642827137261465e7 0.0
1.9642827137261465e7 1.8245936489739545e7 0.0
0.0 0.0 0.0

1.1202656006889194e6 7.680984923391035e6 0.0
7.680984923391035e6 -4.4269116485312395e7 0.0
0.0 0.0 0.0

1.0542046720889239e6 9.929688825082444e6 0.0
9.929688825082444e6 -1.5553519443238953e7 0.0
0.0 0.0 0.0

-6.427251128927963e6 1.3017947667834213e7 0.0
1.3017947667834213e7 4.6519751858385e7 0.0
0.0 0.0 0.0

-3.1195647327784356e6 2.4254859961852793e7 0.0
2.4254859961852793e7 1.3470583263377298e7 0.0
0.0 0.0 0.0

-3.771700321394475e7 3.1714474445950467e7 0.0
3.1714474445950467e7 -242487.84546080045 0.0
0.0 0.0 0.0

-1.005563106567638e6 1.703291558144949e7 0.0
1.703291558144949e7 -3.19245182658258e7 0.0
0.0 0.0 0.0

452783.90144155733 1.1360131945204917e7 0.0
1.1360131945204917e7 -4.104751175664073e7 0.0
0.0 0.0 0.0

-2.4808157735657934e6 1.4914250036284031e7 0.0
1.4914250036284031e7 -5.115452263897313e7 0.0
0.0 0.0 0.0

2.6100322892997423e6 4.418527117031271e6 0.0
4.418527117031271e6 -1.1199580832220469e7 0.0
0.0 0.0 0.0

953229.204576144 2.3305589896317862e7 0.0
2.3305589896317862e7 -1.2527862567993935e7 0.0
0.0 0.0 0.0

3.009499598603942e6 2.530620518309999e7 0.0
2.530620518309999e7 -9.98999305322811e6 0.0
0.0 0.0 0.0

-2.359381358657129e7 4.223345854870404e7 0.0
4.223345854870404e7 7.095674659963133e6 0.0
0.0 0.0 0.0

1.389546226025178e6 4.561059934718661e6 0.0
4.561059934718661e6 -5.726724239900239e6 0.0
0.0 0.0 0.0

-925904.5294304024 2.0676524904415928e7 0.0
2.0676524904415928e7 -2.230453425245e7 0.0
0.0 0.0 0.0

-5.090446184608759e6 1.9682266547823373e7 0.0
1.9682266547823373e7 2.9808183729791854e7 0.0
0.0 0.0 0.0

-9.528280520058425e6 4.44255555564002e6 0.0
4.44255555564002e6 3.3715284744624235e7 0.0
0.0 0.0 0.0

1.8179181334601399e6 5.5087098877043305e6 0.0
5.5087098877043305e6 -4.049697434115233e7 0.0
0.0 0.0 0.0

-9.90971444428271e6 7.291725491769839e6 0.0
7.291725491769839e6 3.306758286204275e7 0.0
0.0 0.0 0.0

-8.886459011074787e6 7.118434285285486e6 0.0
7.118434285285486e6 3.9785583372045e7 0.0
0.0 0.0 0.0

-9.16285554135184e6 1.269791579832054e7 0.0
1.269791579832054e7 2.1037135652688384e7 0.0
0.0 0.0 0.0

-4.444108645412418e6 2.584744464405613e7 0.0
2.584744464405613e7 1.330634236676401e7 0.0
0.0 0.0 0.0

-2.2403353623329927e6 1.4313855130198795e7 0.0
1.4313855130198795e7 1.701744306810187e6 0.0
0.0 0.0 0.0

2.639510310872284e7 6.266220071787479e6 0.0
6.266220071787479e6 -1.8265214920515325e6 0.0
0.0 0.0 0.0

-3.747909257854916e7 3.9853339301095447e6 0.0
3.9853339301095447e6 6.065655101141617e6 0.0
0.0 0.0 0.0

2.4065477398722535e6 9.173641591234608e6 0.0
9.173641591234608e6 -1.6800674606145296e7 0.0
0.0 0.0 0.0

1.2965890783741642e6 1.0892599623150805e7 0.0
1.0892599623150805e7 -4.033973397793912e7 0.0
0.0 0.0 0.0

1.7118122174766213e6 9.004800244923435e6 0.0
9.004800244923435e6 -4.176581219590539e7 0.0
0.0 0.0 0.0

733315.0320914417 2.317954066340231e6 0.0
2.317954066340231e6 1.975050076999086e6 0.0
0.0 0.0 0.0

-4.95365285490188e6 -452995.45572527306 0.0
-452995.45572527306 3.9096062172975666e6 0.0
0.0 0.0 0.0

-6.1580772097566435e6 1.9735004000398245e7 0.0
1.9735004000398245e7 -3.2938946976126514e7 0.0
0.0 0.0 0.0

1.450180990852261e6 5.942594398774825e6 0.0
5.942594398774825e6 -4.564659074051473e7 0.0
0.0 0.0 0.0

-3.236164490514571e7 2.8771749183975957e7 0.0
2.8771749183975957e7 -1.369857605849059e7 0.0
0.0 0.0 0.0

-4.291567325551834e6 2.271601401690564e7 0.0
2.271601401690564e7 1.8851979381640878e7 0.0
0.0 0.0 0.0

2.633209054842954e6 3.1119459570898287e7 0.0
3.1119459570898287e7 -4.845019044902334e6 0.0
0.0 0.0 0.0

7.455709571044954e6 1.788088908762834e7 0.0
1.788088908762834e7 2.6225621781499118e7 0.0
0.0 0.0 0.0

1.5626471280077571e7 1.227845821733355e7 0.0
1.227845821733355e7 1.7051177568302546e6 0.0
0.0 0.0 0.0

-1.5801364745111238e7 2.858146352445094e7 0.0
2.858146352445094e7 -1.3162838554596247e7 0.0
0.0 0.0 0.0

-7.049810104917362e6 7.381224832380358e6 0.0
7.381224832380358e6 5.113907691176879e7 0.0
0.0 0.0 0.0

-6.399610155968889e6 2.7213011082169127e7 0.0
2.7213011082169127e7 9.854018037727937e6 0.0
0.0 0.0 0.0

3.7898564201019956e6 2.546992615553399e7 0.0
2.546992615553399e7 -8.544502425221872e6 0.0
0.0 0.0 0.0

-4.9103253147393875e6 2.0194898303746644e7 0.0
2.0194898303746644e7 2.8147692009039484e7 0.0
0.0 0.0 0.0

-8.83988935169656e6 560619.6769458513 0.0
560619.6769458513 3.3668118430707835e7 0.0
0.0 0.0 0.0

861796.6376536177 3.2369490051839292e7 0.0
3.2369490051839292e7 -3.6397198062214977e6 0.0
0.0 0.0 0.0

847386.0151791852 1.1221100307787277e7 0.0
1.1221100307787277e7 -3.830655594178928e7 0.0
0.0 0.0 0.0

4.8959436231153365e6 3.0085505794167705e7 0.0
3.0085505794167705e7 -6.796425758885732e6 0.0
0.0 0.0 0.0

2.0501322896493264e6 7.198274910697832e6 0.0
7.198274910697832e6 -4.3502129415373966e7 0.0
0.0 0.0 0.0

7.194144488716017e6 2.0409280835494827e7 0.0
2.0409280835494827e7 2.1633564792525776e7 0.0
0.0 0.0 0.0

-95076.91917929053 2.405409106731553e7 0.0
2.405409106731553e7 -1.0902169020886458e7 0.0
0.0 0.0 0.0

-1.126569707826458e7 4.444579440833538e6 0.0
4.444579440833538e6 2.0245265458469316e7 0.0
0.0 0.0 0.0

-3.4321494516731394e6 1.8351078697349228e7 0.0
1.8351078697349228e7 -1.0511242440707926e7 0.0
0.0 0.0 0.0

2.346767458847655e6 5.173016788730872e6 0.0
5.173016788730872e6 -4.446733369628062e7 0.0
0.0 0.0 0.0

1.8029662724029806e7 3.026611117756683e7 0.0
3.026611117756683e7 -4.042438806919366e6 0.0
0.0 0.0 0.0

1.9256839607937904e6 8.097830262936438e6 0.0
8.097830262936438e6 -2.0498529913244672e7 0.0
0.0 0.0 0.0

-1.148962583991313e7 9.112727170754923e6 0.0
9.112727170754923e6 2.4503940478708733e7 0.0
0.0 0.0 0.0

-3.569157834843251e6 3.188261916467056e7 0.0
3.188261916467056e7 3.505911203956917e6 0.0
0.0 0.0 0.0

-2.22319948325786e6 1.4957075442463111e7 0.0
1.4957075442463111e7 -4.762868938654855e7 0.0
0.0 0.0 0.0

-5.519798634219432e6 1.835459522398455e7 0.0
1.835459522398455e7 -1.839932860696043e7 0.0
0.0 0.0 0.0

5.132440416039271e6 1.8771904111068822e7 0.0
1.8771904111068822e7 1.7108135084818352e7 0.0
0.0 0.0 0.0

-2.566493650567211e6 1.5061226378026607e7 0.0
1.5061226378026607e7 3.542293398551103e6 0.0
0.0 0.0 0.0

-4.773759362990816e6 1.732428994785824e7 0.0
1.732428994785824e7 1.1002966830731926e7 0.0
0.0 0.0 0.0

3.5304611860091966e6 2.1267791648704417e7 0.0
2.1267791648704417e7 2.3035410972599067e7 0.0
0.0 0.0 0.0

-9.547876804817885e6 2.1551867363167927e6 0.0
2.1551867363167927e6 2.937661863353019e7 0.0
0.0 0.0 0.0

2.8988323272579373e6 2.3590449424544003e7 0.0
2.3590449424544003e7 5.9408794938393375e6 0.0
0.0 0.0 0.0

-3.669806762645033e6 2.5115651391284894e7 0.0
2.5115651391284894e7 1.4103929054890668e7 0.0
0.0 0.0 0.0

1.764057713778358e6 8.315221166541469e6 0.0
8.315221166541469e6 -1.8152081470172897e7 0.0
0.0 0.0 0.0

-1.0587600399896584e7 5.761452038962445e6 0.0
5.761452038962445e6 3.102088826423028e7 0.0
0.0 0.0 0.0

-7.989780668961063e6 2.4460471884145882e7 0.0
2.4460471884145882e7 -9.92818106343235e6 0.0
0.0 0.0 0.0

-5.37308870683003e6 2.0707788655121326e7 0.0
2.0707788655121326e7 2.6590735622420512e7 0.0
0.0 0.0 0.0

642142.1569811963 2.2242789487381227e7 0.0
2.2242789487381227e7 1.8736686913063705e7 0.0
0.0 0.0 0.0

-9.961804373034185e6 1.006536706448732e7 0.0
1.006536706448732e7 3.2380394761081036e7 0.0
0.0 0.0 0.0

3.035384266703549e6 2.491022271947649e7 0.0
2.491022271947649e7 -1.1067393371521702e7 0.0
0.0 0.0 0.0

-6.662287993085479e6 3.077727028799764e7 0.0
3.077727028799764e7 7.436512656855131e6 0.0
0.0 0.0 0.0

-7.183786959685322e6 1.1292639287511636e7 0.0
1.1292639287511636e7 4.596437646736371e7 0.0
0.0 0.0 0.0

-8.740797387600988e6 1.4661075255032655e7 0.0
1.4661075255032655e7 1.7566998190983318e7 0.0
0.0 0.0 0.0

-8.477072462111844e6 4.865688586360204e6 0.0
4.865688586360204e6 4.4906805131410114e7 0.0
0.0 0.0 0.0

512525.3301393632 1.9572536285404824e7 0.0
1.9572536285404824e7 -2.1092010875678018e7 0.0
0.0 0.0 0.0

-5.75383877126951e6 2.7405805806235414e7 0.0
2.7405805806235414e7 1.072210778253048e7 0.0
0.0 0.0 0.0

-3.1859424199894415e6 2.2854722057538796e7 0.0
2.2854722057538796e7 -1.5072006208817428e6 0.0
0.0 0.0 0.0

2.591948900458296e6 9.311509571305651e6 0.0
9.311509571305651e6 -2.2349628295128986e7 0.0
0.0 0.0 0.0

-8.575777990460042e6 1.3444856621542673e6 0.0
1.3444856621542673e6 3.740136844920264e7 0.0
0.0 0.0 0.0

-881952.3594871499 1.7559014932750873e7 0.0
1.7559014932750873e7 5.173876898895991e7 0.0
0.0 0.0 0.0

-4.990753561508235e6 1.4026781032186357e7 0.0
1.4026781032186357e7 4.983387344818312e7 0.0
0.0 0.0 0.0

2.7537012774157906e6 2.199554874390246e7 0.0
2.199554874390246e7 1.2803519387458414e7 0.0
0.0 0.0 0.0

-1.0790963469343713e7 8.589173000212265e6 0.0
8.589173000212265e6 3.0389321308491055e7 0.0
0.0 0.0 0.0

-3.773637642740324e6 1.6565051557676299e7 0.0
1.6565051557676299e7 1.2412705199925758e7 0.0
0.0 0.0 0.0

-679047.9539678795 2.2765027713460978e7 0.0
2.2765027713460978e7 -6.635425371426472e6 0.0
0.0 0.0 0.0

359744.7282914072 1.760391498327823e7 0.0
1.760391498327823e7 -1.8017505774515502e7 0.0
0.0 0.0 0.0

-3.8308881904244274e6 2.512192263921771e7 0.0
2.512192263921771e7 1.530779029414369e7 0.0
0.0 0.0 0.0

-5.189617552500617e6 3.558978292231632e7 0.0
3.558978292231632e7 4.521925665325119e6 0.0
0.0 0.0 0.0

-7.65374873568831e6 1.4896051550729316e7 0.0
1.4896051550729316e7 3.805834846439759e7 0.0
0.0 0.0 0.0

1.0671304571653914e7 1.8370875635326058e7 0.0
1.8370875635326058e7 3.830998187687276e7 0.0
0.0 0.0 0.0

-6056.222147510853 2.2747721863966584e7 0.0
2.2747721863966584e7 -9.885371487163188e6 0.0
0.0 0.0 0.0

1.9485330502035506e6 1.2394500149291346e7 0.0
1.2394500149291346e7 -2.906126423611586e7 0.0
0.0 0.0 0.0

1.967022739833979e6 2.950583292454095e6 0.0
2.950583292454095e6 -4.795494033761305e7 0.0
0.0 0.0 0.0

-8.353411077304581e6 1.5072269142212044e6 0.0
1.5072269142212044e6 4.186164202507874e7 0.0
0.0 0.0 0.0

-3.345688719653653e6 2.5049708696566053e7 0.0
2.5049708696566053e7 1.3998501813973367e7 0.0
0.0 0.0 0.0

-216846.27012108825 1.8118220892819446e7 0.0
1.8118220892819446e7 1.796051960651118e7 0.0
0.0 0.0 0.0

3.0992280313377827e6 1.8070523548016477e7 0.0
1.8070523548016477e7 7.371857954039776e7 0.0
0.0 0.0 0.0

84812.32353071682 1.6695091529626757e7 0.0
1.6695091529626757e7 -1.659564125368618e7 0.0
0.0 0.0 0.0

8.4480786307661e6 1.9073955989192516e7 0.0
1.9073955989192516e7 2.8160262553292647e7 0.0
0.0 0.0 0.0

-9.847450292631024e6 1.8198422212081654e6 0.0
1.8198422212081654e6 3.1213456238820594e7 0.0
0.0 0.0 0.0

-2.4846825535927106e7 2.522424010726364e6 0.0
2.522424010726364e6 7.645462783797089e6 0.0
0.0 0.0 0.0

1.3598742163653914e6 1.0473318495179774e7 0.0
1.0473318495179774e7 -3.4847334476441674e7 0.0
0.0 0.0 0.0

-1.116901353372094e7 6.608400384623787e6 0.0
6.608400384623787e6 2.6793933850176714e7 0.0
0.0 0.0 0.0

501544.7113980185 1.2062932535882732e7 0.0
1.2062932535882732e7 -3.873410846351799e7 0.0
0.0 0.0 0.0

-4.34023437441699e6 1.819648495916868e7 0.0
1.819648495916868e7 3.778707147833693e7 0.0
0.0 0.0 0.0

3.128099138304729e6 3.342559326143289e6 0.0
3.342559326143289e6 -2.9822239749940135e7 0.0
0.0 0.0 0.0

1.4833287491971662e7 3.139444742366365e7 0.0
3.139444742366365e7 -4.87549544823393e6 0.0
0.0 0.0 0.0

-1.9996569170192275e6 1.6389672922362598e7 0.0
1.6389672922362598e7 25457.025630742777 0.0
0.0 0.0 0.0

782874.7993317372 7.193569564901542e6 0.0
7.193569564901542e6 -4.0235947708771294e6 0.0
0.0 0.0 0.0

3.749265576054703e7 6.505738879588989e6 0.0
6.505738879588989e6 -1.3212304548766185e6 0.0
0.0 0.0 0.0

-2.7060051664230637e6 1.872204014121887e7 0.0
1.872204014121887e7 3.922491782447595e7 0.0
0.0 0.0 0.0

-1.4078270929225879e6 1.1856636861602709e7 0.0
1.1856636861602709e7 -6.439977490568081e6 0.0
0.0 0.0 0.0

-9.117352164742256e6 6.324541936972187e6 0.0
6.324541936972187e6 4.2195690998733625e7 0.0
0.0 0.0 0.0

1.7012312063867743e6 5.812800029748183e6 0.0
5.812800029748183e6 -1.0971869237593722e7 0.0
0.0 0.0 0.0

-6.983571014739414e6 2.4020612279445924e7 0.0
2.4020612279445924e7 -7.351802581616474e6 0.0
0.0 0.0 0.0

-3.337990827594866e6 2.282411101119951e7 0.0
2.282411101119951e7 1.8956939654821705e7 0.0
0.0 0.0 0.0

-1.0555406511376422e7 1.063412270769018e7 0.0
1.063412270769018e7 2.6518923770844482e7 0.0
0.0 0.0 0.0

1.5524819613362234e6 8.878699182235636e6 0.0
8.878699182235636e6 -3.6010192389437385e7 0.0
0.0 0.0 0.0

-7.807550769889259e6 1.80308739571945e7 0.0
1.80308739571945e7 -4.51727658954654e7 0.0
0.0 0.0 0.0

-8.565911214094644e6 7.8848570876770755e6 0.0
7.8848570876770755e6 1.04131927963368e7 0.0
0.0 0.0 0.0

2.7069474215972424e6 3.599580496954955e6 0.0
3.599580496954955e6 -2.714167729251592e7 0.0
0.0 0.0 0.0

-50158.76911906246 2.049440625688324e7 0.0
2.049440625688324e7 -1.5254714734776355e7 0.0
0.0 0.0 0.0

2.4024559682559077e7 2.5256467475637604e7 0.0
2.5256467475637604e7 9.464804523805346e6 0.0
0.0 0.0 0.0

1.9644520731676314e6 6.28574936567165e6 0.0
6.28574936567165e6 -4.8537046236701906e7 0.0
0.0 0.0 0.0

-1.3376565947771225e7 718496.6057654368 0.0
718496.6057654368 6.683526674123348e6 0.0
0.0 0.0 0.0

-4.669637791475678e6 2.094300844812591e7 0.0
2.094300844812591e7 2.447653649623318e7 0.0
0.0 0.0 0.0

-2.4924658690593e6 1.0281076558401784e7 0.0
1.0281076558401784e7 3.6640939793237974e6 0.0
0.0 0.0 0.0

-1.0408977915167382e7 9.689483310016165e6 0.0
9.689483310016165e6 2.902443079484494e7 0.0
0.0 0.0 0.0

1.480387889706485e6 6.778500290479402e6 0.0
6.778500290479402e6 -5.61516615665334e7 0.0
0.0 0.0 0.0

1.2260882838992754e7 1.9890092180238307e7 0.0
1.9890092180238307e7 4.086961006754575e7 0.0
0.0 0.0 0.0

1.200850494606845e7 2.6088614183599077e7 0.0
2.6088614183599077e7 1.4177772867285151e7 0.0
0.0 0.0 0.0

-6.598778975365881e6 1.990180596698649e7 0.0
1.990180596698649e7 -2.672643084018683e7 0.0
0.0 0.0 0.0

-297171.06531701237 1.5260919908132687e7 0.0
1.5260919908132687e7 -1.3946537726810982e7 0.0
0.0 0.0 0.0

-3.1356039965901813e6 2.3677765829877872e7 0.0
2.3677765829877872e7 1.7529852408539526e7 0.0
0.0 0.0 0.0

1.2570732253646085e7 2.3788527945198722e7 0.0
2.3788527945198722e7 1.435866105520106e6 0.0
0.0 0.0 0.0

1.106942691248944e6 1.1971244610870264e7 0.0
1.1971244610870264e7 -3.361987439790315e7 0.0
0.0 0.0 0.0

2.252760240471603e6 3.479354971446343e7 0.0
3.479354971446343e7 -3.4703945657807123e6 0.0
0.0 0.0 0.0

135345.73968463182 2.0577612867795143e7 0.0
2.0577612867795143e7 4.750352407729373e6 0.0
0.0 0.0 0.0

-7.778825466244252e7 7.24273087123211e6 0.0
7.24273087123211e6 3.032050640921969e6 0.0
0.0 0.0 0.0

6.686927434956452e7 8.176521933672793e6 0.0
8.176521933672793e6 -2024.963900566101 0.0
0.0 0.0 0.0

5.621767678360136e6 2.380263275988275e7 0.0
2.380263275988275e7 1.0442170367005806e7 0.0
0.0 0.0 0.0

-4.236689554700129e6 9.377785226311162e6 0.0
9.377785226311162e6 3.0378818364196368e7 0.0
0.0 0.0 0.0

1.8427770618629698e6 2.1802226795087103e7 0.0
2.1802226795087103e7 1.915986114903075e7 0.0
0.0 0.0 0.0

3.6207662332072584e6 2.864038830392959e7 0.0
2.864038830392959e7 -8.171152369471954e6 0.0
0.0 0.0 0.0

5.788046694166207e6 2.1782995248707086e7 0.0
2.1782995248707086e7 1.9293489609652273e7 0.0
0.0 0.0 0.0

-1.066124504001431e7 9.64256034355055e6 0.0
9.64256034355055e6 2.5674533907809056e7 0.0
0.0 0.0 0.0

-2.431992455458396e6 2.3390599803784765e7 0.0
2.3390599803784765e7 1.2125754667285264e7 0.0
0.0 0.0 0.0

-5.398835508085289e7 3.979389656589995e7 0.0
3.979389656589995e7 -1.3204053812119627e7 0.0
0.0 0.0 0.0

2.281563326796461e6 4.2413256679373095e6 0.0
4.2413256679373095e6 -3.389754301062528e7 0.0
0.0 0.0 0.0

-4.036034845150189e6 2.3122021682151336e7 0.0
2.3122021682151336e7 -4.308069936710154e6 0.0
0.0 0.0 0.0

1.1573290833962232e7 1.8616797668570228e7 0.0
1.8616797668570228e7 4.3158830285389274e7 0.0
0.0 0.0 0.0

-8.043535403895537e6 1.8301862770249795e7 0.0
1.8301862770249795e7 -2.6811784651208308e7 0.0
0.0 0.0 0.0

7.338645661969241e6 1.8887947354512695e7 0.0
1.8887947354512695e7 2.4462153098205067e7 0.0
0.0 0.0 0.0

-1.7785903820587303e6 1.5286440411198767e7 0.0
1.5286440411198767e7 -4.47241356594768e7 0.0
0.0 0.0 0.0

-9.374686511610676e6 3.169212831992396e6 0.0
3.169212831992396e6 3.2929271102464113e7 0.0
0.0 0.0 0.0

-1.994843389245747e7 3.4041021834756635e7 0.0
3.4041021834756635e7 5.869496128026205e6 0.0
0.0 0.0 0.0

1.8495319021662623e6 8.736668171161935e6 0.0
8.736668171161935e6 -2.1479727235216983e7 0.0
0.0 0.0 0.0

-2.9367844317544475e6 1.913558278985202e7 0.0
1.913558278985202e7 3.694788335864707e7 0.0
0.0 0.0 0.0

-1.1563328806640051e7 6.944152563180819e6 0.0
6.944152563180819e6 2.224436842025971e7 0.0
0.0 0.0 0.0

-5.780734456111589e6 3.45598574965868e7 0.0
3.45598574965868e7 5.190887179274268e6 0.0
0.0 0.0 0.0

-1.3552011332164485e7 3.922467497858754e7 0.0
3.922467497858754e7 5.994320369635475e6 0.0
0.0 0.0 0.0

-1.3284135636131521e7 732254.4477618885 0.0
732254.4477618885 6.637948623144328e6 0.0
0.0 0.0 0.0

-3.6672975576695306e6 1.9569203720353045e7 0.0
1.9569203720353045e7 -1.2802634459522856e7 0.0
0.0 0.0 0.0

2.855625364570621e6 2.7921594027263336e7 0.0
2.7921594027263336e7 -8.434215357012806e6 0.0
0.0 0.0 0.0

-1.0278200723661397e7 3.7344026361274594e6 0.0
3.7344026361274594e6 1.3359622702327956e7 0.0
0.0 0.0 0.0

1.1941759335550364e7 3.203666579483137e7 0.0
3.203666579483137e7 -5.413142972505807e6 0.0
0.0 0.0 0.0

-1.1589132135045065e7 8.081694028304171e6 0.0
8.081694028304171e6 2.345567617165052e7 0.0
0.0 0.0 0.0

1.954355662646789e6 4.726716970791866e6 0.0
4.726716970791866e6 -3.9775109242680155e7 0.0
0.0 0.0 0.0

2.0907287940953076e6 5.760162932996041e6 0.0
5.760162932996041e6 -3.544113113158881e7 0.0
0.0 0.0 0.0

526326.3787777582 1.4943812326635346e7 0.0
1.4943812326635346e7 -1.839829931094132e7 0.0
0.0 0.0 0.0

2.5408570645977864e6 2.4752229592508547e7 0.0
2.4752229592508547e7 -1.2088826556230906e7 0.0
0.0 0.0 0.0

1.4855178185930438e6 6.009230936139865e6 0.0
6.009230936139865e6 -5.960678977203311e7 0.0
0.0 0.0 0.0

-7.685583742050258e6 2.534351772416154e7 0.0
2.534351772416154e7 -1.468504970745124e7 0.0
0.0 0.0 0.0

472471.6677807234 1.720059208595235e7 0.0
1.720059208595235e7 -2.5882770972534712e7 0.0
0.0 0.0 0.0

-6.3528290266245175e6 1.9631909636419263e7 0.0
1.9631909636419263e7 2.817834747494723e7 0.0
0.0 0.0 0.0

-7.213204423756925e6 2.4984026611192446e7 0.0
2.4984026611192446e7 -1.3385806298017371e7 0.0
0.0 0.0 0.0

1.8649754049466047e6 1.1568361238842987e7 0.0
1.1568361238842987e7 -3.2989239081989788e7 0.0
0.0 0.0 0.0

-3.626288518749947e7 2.7000358601572294e7 0.0
2.7000358601572294e7 2.9975931488100197e6 0.0
0.0 0.0 0.0

1.925530908862602e6 3.8234227804978644e6 0.0
3.8234227804978644e6 -4.163254930733321e7 0.0
0.0 0.0 0.0

2.7186214090038445e6 5.929974827468016e6 0.0
5.929974827468016e6 -3.536594874442029e7 0.0
0.0 0.0 0.0

1.2804609177971808e6 2.247023294099915e7 0.0
2.247023294099915e7 -1.5669274092968822e7 0.0
0.0 0.0 0.0

-1.775164041244158e7 962283.3074672143 0.0
962283.3074672143 7.752064724155607e6 0.0
0.0 0.0 0.0

1.3633653996196063e6 1.1581912627769386e7 0.0
1.1581912627769386e7 -1.281624120733548e7 0.0
0.0 0.0 0.0

909456.3671508711 1.9498174294707984e7 0.0
1.9498174294707984e7 2.291985726594591e7 0.0
0.0 0.0 0.0

-4.1939922757723206e6 3.310483351629406e7 0.0
3.310483351629406e7 5.151601221055931e6 0.0
0.0 0.0 0.0

-6.993607732295349e6 3.516168414485231e7 0.0
3.516168414485231e7 5.413598490896048e6 0.0
0.0 0.0 0.0

-1.139121917925352e7 1.0759787563893784e7 0.0
1.0759787563893784e7 2.3596243797089323e7 0.0
0.0 0.0 0.0

-429589.19553945586 1.4973612270830045e7 0.0
1.4973612270830045e7 6.885603174673514e7 0.0
0.0 0.0 0.0

-2.7081690132009434e6 3.385668194341691e7 0.0
3.385668194341691e7 3.4537803962143613e6 0.0
0.0 0.0 0.0

-4.99323964293741e6 2.3537530143799074e7 0.0
2.3537530143799074e7 -1.7826816045983788e6 0.0
0.0 0.0 0.0

-62902.378618273186 2.2512887292855382e7 0.0
2.2512887292855382e7 -5.105340182227375e6 0.0
0.0 0.0 0.0

4.357972860420701e7 2.7542429729149222e7 0.0
2.7542429729149222e7 1.729951374695075e7 0.0
0.0 0.0 0.0

-1.0268164181536617e7 1.2012233523470672e7 0.0
1.2012233523470672e7 2.543084430927942e7 0.0
0.0 0.0 0.0

2.7101859313019924e6 4.1396602862604554e6 0.0
4.1396602862604554e6 -3.890779394319193e7 0.0
0.0 0.0 0.0

718129.1296729576 2.1275542149182603e7 0.0
2.1275542149182603e7 -1.4017616509250648e7 0.0
0.0 0.0 0.0

-2.393830252814589e6 1.7781179564315706e7 0.0
1.7781179564315706e7 3.4048558261735383e6 0.0
0.0 0.0 0.0

-1.4248105832573688e7 2.135614207988847e7 0.0
2.135614207988847e7 -252437.8013487626 0.0
0.0 0.0 0.0

-8.458661221947398e6 2.934981844359931e6 0.0
2.934981844359931e6 4.008080256063394e7 0.0
0.0 0.0 0.0

-8.659600360391444e7 5.250838768792655e7 0.0
5.250838768792655e7 -2.090171134064804e7 0.0
0.0 0.0 0.0

-1.2100365588729644e7 1.870876460164703e7 0.0
1.870876460164703e7 -4.033455294748058e7 0.0
0.0 0.0 0.0

1.0887637723896924e7 1.9509018621280886e7 0.0
1.9509018621280886e7 3.629212675833069e7 0.0
0.0 0.0 0.0

410881.2380875144 1.5991177008958027e7 0.0
1.5991177008958027e7 -2.9436447074529722e7 0.0
0.0 0.0 0.0

-1.596569544870634e7 2.6511614636503447e7 0.0
2.6511614636503447e7 -7.888379751470603e6 0.0
0.0 0.0 0.0

2.467165327075827e6 9.583731679870911e6 0.0
9.583731679870911e6 -2.0094570229123805e7 0.0
0.0 0.0 0.0

2.1229763452145997e6 1.0002232453285126e7 0.0
1.0002232453285126e7 -3.4109988287890054e7 0.0
0.0 0.0 0.0

-3.717008636103507e6 2.2118092151665095e7 0.0
2.2118092151665095e7 2.088287667677414e7 0.0
0.0 0.0 0.0

1.0831522794220597e6 1.270145829928205e7 0.0
1.270145829928205e7 -3.1839586069985263e7 0.0
0.0 0.0 0.0

-4.826424994877756e6 3.3847031078677066e7 0.0
3.3847031078677066e7 5.176557608399076e6 0.0
0.0 0.0 0.0

-9.819168088331852e6 8.42270503094213e6 0.0
8.42270503094213e6 3.697831367491507e7 0.0
0.0 0.0 0.0

-9.010172560229138e6 920821.0388230741 0.0
920821.0388230741 3.1038580011299126e7 0.0
0.0 0.0 0.0

1.7475400920464862e6 8.080203973182814e6 0.0
8.080203973182814e6 -3.526590401269815e7 0.0
0.0 0.0 0.0

-1.5004818725241333e7 2.5759064209857315e7 0.0
2.5759064209857315e7 -1.1630640255628431e7 0.0
0.0 0.0 0.0

6.96382139222714e6 3.782742516409639e7 0.0
3.782742516409639e7 -4.501645845460195e6 0.0
0.0 0.0 0.0

-5.621670901501741e6 2.004828431701525e7 0.0
2.004828431701525e7 2.588738374936807e7 0.0
0.0 0.0 0.0

1.8062827520264834e6 6.375376011717726e6 0.0
6.375376011717726e6 -3.8797083084888734e7 0.0
0.0 0.0 0.0

1.5575114767836183e6 6.6880483823533645e6 0.0
6.6880483823533645e6 -5.20580913505629e7 0.0
0.0 0.0 0.0

-3.6502553494405113e6 1.3868566715346338e7 0.0
1.3868566715346338e7 5.651716171538387e7 0.0
0.0 0.0 0.0

-9.299613613403141e6 8.646971782601478e6 0.0
8.646971782601478e6 3.776029316118564e7 0.0
0.0 0.0 0.0

9.732976245803753e6 3.2200469587186966e7 0.0
3.2200469587186966e7 -5.722198059471378e6 0.0
0.0 0.0 0.0

-965145.5247958036 2.590411141545372e7 0.0
2.590411141545372e7 -2.3824885688083554e6 0.0
0.0 0.0 0.0

-8.373798688770821e6 6.498847197487991e6 0.0
6.498847197487991e6 4.323687255990689e7 0.0
0.0 0.0 0.0

2.5662821080115708e6 5.012096277488137e6 0.0
5.012096277488137e6 -2.1188412812854238e7 0.0
0.0 0.0 0.0

-2.3080346748354156e6 2.58727137411324e7 0.0
2.58727137411324e7 1.0477572997560857e6 0.0
0.0 0.0 0.0

-2.140680295645722e7 2.6624398085797403e7 0.0
2.6624398085797403e7 -9.974936963623442e6 0.0
0.0 0.0 0.0

-1.0058861437739806e7 1.2833601201100543e7 0.0
1.2833601201100543e7 1.8086138398091022e7 0.0
0.0 0.0 0.0

2.551947992355032e6 5.80467871292068e6 0.0
5.80467871292068e6 -3.7940874920852445e7 0.0
0.0 0.0 0.0

1.1796798711751644e6 1.2731768497136153e7 0.0
1.2731768497136153e7 -2.9610066553659856e7 0.0
0.0 0.0 0.0

-1.0879335106082022e7 2.5010274773879917e6 0.0
2.5010274773879917e6 2.1302600419659905e7 0.0
0.0 0.0 0.0

-9.925596833182607e6 1.1615870965477167e7 0.0
1.1615870965477167e7 3.088602441334875e7 0.0
0.0 0.0 0.0

-1.5984412856551819e6 1.5567379896777147e7 0.0
1.5567379896777147e7 -4.1603780816775754e7 0.0
0.0 0.0 0.0

2.827625891901506e6 5.179008150454724e6 0.0
5.179008150454724e6 -3.458264532267795e7 0.0
0.0 0.0 0.0

-1.5626394891102752e6 2.5655783208700046e7 0.0
2.5655783208700046e7 -4.307191177434376e6 0.0
0.0 0.0 0.0

2.3847046703443043e6 8.35314695589771e6 0.0
8.35314695589771e6 -3.518375106064094e7 0.0
0.0 0.0 0.0

-1.0229001246502645e7 4.313857939862495e6 0.0
4.313857939862495e6 2.378217899616756e7 0.0
0.0 0.0 0.0

-1.7467585739487782e7 2.044861399510135e7 0.0
2.044861399510135e7 -5.822528915351073e7 0.0
0.0 0.0 0.0

1.5844564378066598e7 2.1266675318839863e7 0.0
2.1266675318839863e7 5.281521708258746e7 0.0
0.0 0.0 0.0

1.07262600707294e6 2.2813019215635993e7 0.0
2.2813019215635993e7 1.6057311597981518e6 0.0
0.0 0.0 0.0

-2.8226140424005084e7 3.166560743007942e6 0.0
3.166560743007942e6 6.805352691867687e6 0.0
0.0 0.0 0.0

-9.606667885687169e6 1.0864784406015421e6 0.0
1.0864784406015421e6 2.382583867173922e7 0.0
0.0 0.0 0.0

7.06904236761389e6 2.1448079242423337e7 0.0
2.1448079242423337e7 2.3563471320722014e7 0.0
0.0 0.0 0.0

-6.4535012571280785e6 2.0717981719103537e7 0.0
2.0717981719103537e7 -2.151166785856682e7 0.0
0.0 0.0 0.0

257981.16521969438 1.5224323224613853e7 0.0
1.5224323224613853e7 7.508979925851776e7 0.0
0.0 0.0 0.0

1.7871108883031998e6 7.256922953045209e6 0.0
7.256922953045209e6 -3.7034198595000416e7 0.0
0.0 0.0 0.0

2.5639151672922187e6 2.7108333272267133e7 0.0
2.7108333272267133e7 -9.699268660098214e6 0.0
0.0 0.0 0.0

-9.376829921359405e6 1.8396064984828133e7 0.0
1.8396064984828133e7 -4.37883931179892e7 0.0
0.0 0.0 0.0

-4.227543702886447e6 3.193152593509542e7 0.0
3.193152593509542e7 4.551625067421369e6 0.0
0.0 0.0 0.0

-4.7046051566880215e6 2.5322147409710936e7 0.0
2.5322147409710936e7 9.106650157576885e6 0.0
0.0 0.0 0.0

1.6868252837494602e6 3.2314310165319476e7 0.0
3.2314310165319476e7 -4.442686723649058e6 0.0
0.0 0.0 0.0

-1.580245720407873e7 1.8584760802689083e7 0.0
1.8584760802689083e7 -6.116578317901392e7 0.0
0.0 0.0 0.0

7.894369167041587e6 3.21327147755119e7 0.0
3.21327147755119e7 -5.916001131009292e6 0.0
0.0 0.0 0.0

-4.984280304526662e6 1.8545963573257927e7 0.0
1.8545963573257927e7 3.551366416712165e7 0.0
0.0 0.0 0.0

1.5653408900081469e6 1.017383375836724e7 0.0
1.017383375836724e7 -2.1039659238022245e7 0.0
0.0 0.0 0.0

1.937231599358024e6 6.492854258706544e6 0.0
6.492854258706544e6 -3.623863082127988e7 0.0
0.0 0.0 0.0

2.6696282739762724e6 2.5824596487886406e7 0.0
2.5824596487886406e7 -1.1025368816862902e7 0.0
0.0 0.0 0.0

-2.0614885071551166e6 1.779152193055637e7 0.0
1.779152193055637e7 -6.689705265352023e6 0.0
0.0 0.0 0.0

890073.1672324128 1.032050520776307e7 0.0
1.032050520776307e7 -4.046632992898409e7 0.0
0.0 0.0 0.0

-3.4440415312067377e6 3.0302440932768207e7 0.0
3.0302440932768207e7 5.606962798736756e6 0.0
0.0 0.0 0.0

-1.9652222000793682e6 2.0177798920602176e7 0.0
2.0177798920602176e7 394262.5155513261 0.0
0.0 0.0 0.0

769814.9324025763 1.7475646463818207e7 0.0
1.7475646463818207e7 -1.5414645574722795e7 0.0
0.0 0.0 0.0

319637.579262726 1.3668983762660075e7 0.0
1.3668983762660075e7 -3.892896485076302e7 0.0
0.0 0.0 0.0

5.174882608491635e6 3.1427492949888244e7 0.0
3.1427492949888244e7 -6.2653387521728715e6 0.0
0.0 0.0 0.0

599778.8116351217 1.9795519185132988e7 0.0
1.9795519185132988e7 -1.4126138871101059e7 0.0
0.0 0.0 0.0

-2.409713170235957e6 1.861791985981024e7 0.0
1.861791985981024e7 -6.670861004461481e6 0.0
0.0 0.0 0.0

3.290951467443641e7 5.967562166954832e6 0.0
5.967562166954832e6 -1.8107250488894004e6 0.0
0.0 0.0 0.0

-2.308547042082298e6 2.1227868946529847e7 0.0
2.1227868946529847e7 8.964643487970253e6 0.0
0.0 0.0 0.0

-9.404436835490212e6 1.193500979313563e7 0.0
1.193500979313563e7 1.9884963036836065e7 0.0
0.0 0.0 0.0

-8.98900289169682e6 2.7388800726979366e6 0.0
2.7388800726979366e6 3.555212707997507e7 0.0
0.0 0.0 0.0

3.0511854617928676e6 3.6724819519407996e6 0.0
3.6724819519407996e6 -3.297309534290129e7 0.0
0.0 0.0 0.0

2.715321672065066e6 6.645969671729231e6 0.0
6.645969671729231e6 -2.416687117532067e7 0.0
0.0 0.0 0.0

2.9417514986324683e6 5.315296721085863e6 0.0
5.315296721085863e6 -3.2053585403127097e7 0.0
0.0 0.0 0.0

-5.646996881146888e6 2.036573833287993e7 0.0
2.036573833287993e7 -2.5067721747648533e7 0.0
0.0 0.0 0.0

6.408292504162926e6 3.184398141913441e7 0.0
3.184398141913441e7 -6.087688551710837e6 0.0
0.0 0.0 0.0

-5.105020258401677e6 1.88582991746091e7 0.0
1.88582991746091e7 3.309234852409665e7 0.0
0.0 0.0 0.0

-3.0423397773356214e6 2.1865766959703397e7 0.0
2.1865766959703397e7 7.844309860285936e6 0.0
0.0 0.0 0.0

2.2011402694119103e6 5.931185231218269e6 0.0
5.931185231218269e6 -3.306712384038505e7 0.0
0.0 0.0 0.0

-1.1500357863221683e7 5.698241073796036e6 0.0
5.698241073796036e6 2.1296882168940473e7 0.0
0.0 0.0 0.0

-5.663710612153025e6 2.0150218701908372e7 0.0
2.0150218701908372e7 2.8048536039591957e7 0.0
0.0 0.0 0.0

1.08874058421682e6 2.207008421688887e7 0.0
2.207008421688887e7 -1.6923419389312353e7 0.0
0.0 0.0 0.0

1.5698772323166113e6 2.3283459428578757e7 0.0
2.3283459428578757e7 -5.944782745484879e6 0.0
0.0 0.0 0.0

-3.9020689645838873e6 3.1484357214864817e7 0.0
3.1484357214864817e7 6.029772003820417e6 0.0
0.0 0.0 0.0

1.0655280819916055e6 1.7057384263384074e7 0.0
1.7057384263384074e7 -2.568434828642961e7 0.0
0.0 0.0 0.0

2.6751956375648156e6 6.805813210335294e6 0.0
6.805813210335294e6 -3.3729902343815975e7 0.0
0.0 0.0 0.0

2.0864372965717278e6 6.635123340156358e6 0.0
6.635123340156358e6 -3.380862802825728e7 0.0
0.0 0.0 0.0

1.4419186530737085e6 9.113838626842612e6 0.0
9.113838626842612e6 -1.685655472846478e7 0.0
0.0 0.0 0.0

1.9123774420009851e6 7.332633082784498e6 0.0
7.332633082784498e6 -3.4578910009589e7 0.0
0.0 0.0 0.0

3.0998164709211085e6 5.857446230371968e6 0.0
5.857446230371968e6 -2.7985177436819192e7 0.0
0.0 0.0 0.0

-9.179818759075454e6 3.792781346820929e7 0.0
3.792781346820929e7 5.538385379928069e6 0.0
0.0 0.0 0.0

9.862934867844608e6 3.399629947501284e7 0.0
3.399629947501284e7 -5.613769855069144e6 0.0
0.0 0.0 0.0

-5.415608499392405e6 2.6364962319906592e7 0.0
2.6364962319906592e7 9.068487925274294e6 0.0
0.0 0.0 0.0

2.2207541248626094e6 6.5127571832000045e6 0.0
6.5127571832000045e6 -2.9041312742567103e7 0.0
0.0 0.0 0.0

-1.5778408555075915e6 2.2101223162292928e7 0.0
2.2101223162292928e7 -7.687093144869472e6 0.0
0.0 0.0 0.0

-1.463626287988013e6 1.9383367674759466e7 0.0
1.9383367674759466e7 -309317.96106313367 0.0
0.0 0.0 0.0

-2.2898412863557197e7 2.30175606869494e7 0.0
2.30175606869494e7 -7.6328059035113e7 0.0
0.0 0.0 0.0

2.1840831090569768e7 2.4644372866024863e7 0.0
2.4644372866024863e7 7.2802788762535e7 0.0
0.0 0.0 0.0

1.5057472580285756e7 2.4199281553217627e7 0.0
2.4199281553217627e7 1.639838165710478e6 0.0
0.0 0.0 0.0

2.262420144839825e7 2.625221674692801e7 0.0
2.625221674692801e7 1.8110522689299742e6 0.0
0.0 0.0 0.0

-302883.56152905896 7.270638931516428e6 0.0
7.270638931516428e6 -6.565235394479462e7 0.0
0.0 0.0 0.0

1.0598634837030498e6 2.016245317986221e7 0.0
2.016245317986221e7 -1.9459771406042155e7 0.0
0.0 0.0 0.0

254069.71667773463 2.2420385535854068e7 0.0
2.2420385535854068e7 1.595071218521753e7 0.0
0.0 0.0 0.0

-9.328176879127415e6 7.941971725138079e6 0.0
7.941971725138079e6 3.999025900955593e7 0.0
0.0 0.0 0.0

-4.1085111141978614e6 1.771109033126849e7 0.0
1.771109033126849e7 4.032348344852219e7 0.0
0.0 0.0 0.0

-3.188341757843699e6 2.4295288448837228e7 0.0
2.4295288448837228e7 9.029591891362999e6 0.0
0.0 0.0 0.0

-1.0033512101184389e6 1.7285771698732324e7 0.0
1.7285771698732324e7 -5.873163642338953e6 0.0
0.0 0.0 0.0

-1.6187362564355485e7 2.9046334460991807e7 0.0
2.9046334460991807e7 -1.3894405503846401e7 0.0
0.0 0.0 0.0

-3.1236562398737203e6 2.4444757699708864e7 0.0
2.4444757699708864e7 1.5799118582355604e7 0.0
0.0 0.0 0.0

-7.060325815504519e6 1.5746339302047972e7 0.0
1.5746339302047972e7 1.5820785457064556e7 0.0
0.0 0.0 0.0

-2.3746934898131313e6 2.5312876256481927e7 0.0
2.5312876256481927e7 6.018349457814997e6 0.0
0.0 0.0 0.0

1.8650076376435421e6 7.284509485973738e6 0.0
7.284509485973738e6 -4.631605949609477e7 0.0
0.0 0.0 0.0

2.874994378233551e6 7.85425537247475e6 0.0
7.85425537247475e6 -2.276303809982032e7 0.0
0.0 0.0 0.0

625239.7416278832 2.2577086258545298e7 0.0
2.2577086258545298e7 -1.4936981732107716e7 0.0
0.0 0.0 0.0

1.1198475201138742e6 1.3531861162136246e7 0.0
1.3531861162136246e7 -2.807104570991972e7 0.0
0.0 0.0 0.0

-6.94525763701205e6 1.0144136006390836e7 0.0
1.0144136006390836e7 4.864232641371781e7 0.0
0.0 0.0 0.0

-9.186783747270025e6 2.7818812538753394e6 0.0
2.7818812538753394e6 1.1844058122810574e7 0.0
0.0 0.0 0.0

-4.757139262650069e6 8.993787086526172e6 0.0
8.993787086526172e6 6.178153500324279e7 0.0
0.0 0.0 0.0

12743.952676838264 2.1554440277454868e7 0.0
2.1554440277454868e7 -1.4457669415371587e7 0.0
0.0 0.0 0.0

-4.839583098436238e6 2.6738159507651586e7 0.0
2.6738159507651586e7 1.041528129938116e7 0.0
0.0 0.0 0.0

-7.905317128902224e6 1.4555251300521221e7 0.0
1.4555251300521221e7 2.0411490392224118e7 0.0
0.0 0.0 0.0

4.632828966176304e6 2.9067404840941895e7 0.0
2.9067404840941895e7 -7.656206986884885e6 0.0
0.0 0.0 0.0

-1.0748668342039378e7 1.049736614035355e7 0.0
1.049736614035355e7 1.7868538395334784e7 0.0
0.0 0.0 0.0

-3.8266967940064557e6 2.365342875246964e7 0.0
2.365342875246964e7 1.749604569433102e7 0.0
0.0 0.0 0.0

3.0831118969068687e7 3.2140633752973724e7 0.0
3.2140633752973724e7 -5.008068411651649e6 0.0
0.0 0.0 0.0

-5.692666468165491e6 2.0867862397644084e7 0.0
2.0867862397644084e7 2.431308173013949e7 0.0
0.0 0.0 0.0

-6.295126131942352e6 3.999589501855973e6 0.0
3.999589501855973e6 1.1687803627311332e7 0.0
0.0 0.0 0.0

-3.2797540249130607e7 3.211878270265334e6 0.0
3.211878270265334e6 7.0634583014490865e6 0.0
0.0 0.0 0.0

2.3513970253351945e6 4.34449698897629e6 0.0
4.34449698897629e6 -3.601946007145396e7 0.0
0.0 0.0 0.0

-9.176672573868498e6 3.3298946159033313e7 0.0
3.3298946159033313e7 6.544585070940143e6 0.0
0.0 0.0 0.0

-1.1249480382258503e7 2.9757325613698843e6 0.0
2.9757325613698843e6 1.8763855096814647e7 0.0
0.0 0.0 0.0

-3.4583371371691017e6 1.4996768469150385e7 0.0
1.4996768469150385e7 577308.6771677921 0.0
0.0 0.0 0.0

-1.0012675576386267e7 4.092978296634685e6 0.0
4.092978296634685e6 3.286632646980121e7 0.0
0.0 0.0 0.0

531131.4312539017 2.2055845395686805e7 0.0
2.2055845395686805e7 -1.700326640164177e7 0.0
0.0 0.0 0.0

-9.564134146892158e6 2.5718908755726544e6 0.0
2.5718908755726544e6 3.478901265117726e7 0.0
0.0 0.0 0.0

409149.1885571014 1.7897960652636856e7 0.0
1.7897960652636856e7 -1.8986694053635158e7 0.0
0.0 0.0 0.0

-4.90794695380857e6 1.957670056035657e7 0.0
1.957670056035657e7 3.1312643440721877e7 0.0
0.0 0.0 0.0

-9.81737397759172e6 1.3780829011630539e7 0.0
1.3780829011630539e7 1.9215592904391892e7 0.0
0.0 0.0 0.0

-2.4787507642244324e6 1.829919055044341e7 0.0
1.829919055044341e7 4.172117689092991e7 0.0
0.0 0.0 0.0

-7.897047432266576e6 1.7647960539940495e7 0.0
1.7647960539940495e7 2.2866300566326268e7 0.0
0.0 0.0 0.0

-2.264798930769164e6 2.6804487742701393e7 0.0
2.6804487742701393e7 993608.4164801241 0.0
0.0 0.0 0.0

1.765458906562984e6 8.157899606913491e6 0.0
8.157899606913491e6 -4.4105915723406106e7 0.0
0.0 0.0 0.0

-3.1230948013418596e6 1.9516731651756812e7 0.0
1.9516731651756812e7 3.492212423839917e7 0.0
0.0 0.0 0.0

1.6052773505374689e7 2.414599046772677e7 0.0
2.414599046772677e7 9.764957253835049e6 0.0
0.0 0.0 0.0

-2.1524378915351126e7 1.4012716553166106e7 0.0
1.4012716553166106e7 8.031607333198594e6 0.0
0.0 0.0 0.0

832536.5475947671 1.2665875750194361e7 0.0
1.2665875750194361e7 -3.8564835114511445e7 0.0
0.0 0.0 0.0

-6.229197435331358e6 1.5289267353914976e7 0.0
1.5289267353914976e7 1.8606404215556167e7 0.0
0.0 0.0 0.0

2.2506490995514095e6 1.0410755145124009e7 0.0
1.0410755145124009e7 -1.8782364533704735e7 0.0
0.0 0.0 0.0

-9.677994149597889e6 1.6374840740696702e6 0.0
1.6374840740696702e6 2.1193619265185047e7 0.0
0.0 0.0 0.0

-9.944524787476333e6 1.1357247811322778e6 0.0
1.1357247811322778e6 2.784925053944764e7 0.0
0.0 0.0 0.0

815380.4380351296 1.568096031378344e7 0.0
1.568096031378344e7 -2.3357590410310086e7 0.0
0.0 0.0 0.0

-1.0648179076323984e7 8.676510860723045e6 0.0
8.676510860723045e6 2.4704699833415587e7 0.0
0.0 0.0 0.0

-5.845695909904206e6 2.7421399039017867e7 0.0
2.7421399039017867e7 8.997993366189105e6 0.0
0.0 0.0 0.0

8.074772589126567e6 1.8086491854050167e7 0.0
1.8086491854050167e7 7.901439376016868e6 0.0
0.0 0.0 0.0

-808085.3839357939 8.67034601343814e6 0.0
8.67034601343814e6 -477373.00745057897 0.0
0.0 0.0 0.0

762463.7115506828 2.229742460484799e7 0.0
2.229742460484799e7 -1.3283852037025146e7 0.0
0.0 0.0 0.0

2.0382604103270918e6 8.144602399215239e6 0.0
8.144602399215239e6 -2.616062172729866e7 0.0
0.0 0.0 0.0

2.007667750680045e6 3.1409458399444208e7 0.0
3.1409458399444208e7 -5.319458052197367e6 0.0
0.0 0.0 0.0

-7.283035447248157e6 1.6889216040598378e7 0.0
1.6889216040598378e7 -7.530026098827338e7 0.0
0.0 0.0 0.0

2.3526092388742967e6 5.800930477967094e6 0.0
5.800930477967094e6 -1.9729173731970165e7 0.0
0.0 0.0 0.0

2.400609871605605e6 5.7262606339728385e6 0.0
5.7262606339728385e6 -2.8343052558113124e7 0.0
0.0 0.0 0.0

-4.77845192500593e6 2.0524705971405696e7 0.0
2.0524705971405696e7 -2.2628540654894266e7 0.0
0.0 0.0 0.0

-1.655261408380269e6 9.480777909582382e6 0.0
9.480777909582382e6 1.5813124896011625e6 0.0
0.0 0.0 0.0

-1.8050257605596617e7 1.9422839086374544e7 0.0
1.9422839086374544e7 -7.021277720597686e7 0.0
0.0 0.0 0.0

1.8353393999364e6 8.758847563872987e6 0.0
8.758847563872987e6 -1.104448824654763e7 0.0
0.0 0.0 0.0

2.5667717791422503e6 8.96418524389467e6 0.0
8.96418524389467e6 -1.9116343567527372e7 0.0
0.0 0.0 0.0

-816843.1910881464 2.1842386550247353e7 0.0
2.1842386550247353e7 -3.04533881358497e6 0.0
0.0 0.0 0.0

-6.37467113721478e6 1.4870639681621134e7 0.0
1.4870639681621134e7 4.2546372292203784e7 0.0
0.0 0.0 0.0

-2.795562620599877e6 3.3195779733928885e7 0.0
3.3195779733928885e7 1.8314751909395158e6 0.0
0.0 0.0 0.0

-1.1416578845205868e7 1.1103139283980103e7 0.0
1.1103139283980103e7 7.685663117173636e6 0.0
0.0 0.0 0.0

1.0782772602326553e6 1.4192100700806078e7 0.0
1.4192100700806078e7 -2.642652386289363e7 0.0
0.0 0.0 0.0

2.4271034067234173e6 2.1745705558898795e7 0.0
2.1745705558898795e7 2.212998658780188e7 0.0
0.0 0.0 0.0

2.1253567107366263e6 3.0509688640374836e7 0.0
3.0509688640374836e7 -6.257611075005865e6 0.0
0.0 0.0 0.0

-848600.8272409416 1.5506957531061184e7 0.0
1.5506957531061184e7 -1.1404704891583461e7 0.0
0.0 0.0 0.0

3.842406678493848e6 2.9730257434121273e7 0.0
2.9730257434121273e7 -7.343849338964472e6 0.0
0.0 0.0 0.0

502806.4390541762 1.6029557904260652e7 0.0
1.6029557904260652e7 -1.2752276677291306e7 0.0
0.0 0.0 0.0

-9.799649256351514e6 -345197.8321601283 0.0
-345197.8321601283 2.1834508770067967e7 0.0
0.0 0.0 0.0

203478.79974408448 2.181698964348387e7 0.0
2.181698964348387e7 -1.5030669716606198e7 0.0
0.0 0.0 0.0

1.809025423127272e7 5.063105112067123e7 0.0
5.063105112067123e7 -7.537412629029707e6 0.0
0.0 0.0 0.0

8.067201902974603e6 2.5963349907850664e7 0.0
2.5963349907850664e7 -4.311321509821851e6 0.0
0.0 0.0 0.0

1.0315132851204807e6 2.115779211284021e7 0.0
2.115779211284021e7 -1.8227047423119236e7 0.0
0.0 0.0 0.0

-3.0532715516749285e6 1.6920736225802675e7 0.0
1.6920736225802675e7 8.715428951096455e6 0.0
0.0 0.0 0.0

-2.752169044907661e6 2.071484366634225e7 0.0
2.071484366634225e7 -501276.2534949655 0.0
0.0 0.0 0.0

2.8902943713884987e6 3.175984817602093e6 0.0
3.175984817602093e6 -3.484410820494552e7 0.0
0.0 0.0 0.0

2.9347896158390176e6 4.222203315194314e6 0.0
4.222203315194314e6 -1.3717854688480562e7 0.0
0.0 0.0 0.0

-4.25048808988513e6 1.1132028473730553e7 0.0
1.1132028473730553e7 2.288894406709615e6 0.0
0.0 0.0 0.0

-1.1095604315527791e7 2.491515371302797e7 0.0
2.491515371302797e7 -2.4775417615059586e6 0.0
0.0 0.0 0.0

2.3430312240074156e6 6.296190514013138e6 0.0
6.296190514013138e6 -2.3385044605853777e7 0.0
0.0 0.0 0.0

48150.671942435205 1.8256804030837383e7 0.0
1.8256804030837383e7 -1.6740905897355715e7 0.0
0.0 0.0 0.0

-130925.77207446378 2.2621724485033043e7 0.0
2.2621724485033043e7 1.2952278256867003e7 0.0
0.0 0.0 0.0

1.8530123739789557e6 1.3097184022476451e7 0.0
1.3097184022476451e7 -2.7373037868452907e7 0.0
0.0 0.0 0.0

-1.0599952343088383e7 7.400742288349731e6 0.0
7.400742288349731e6 2.3746481142841466e7 0.0
0.0 0.0 0.0

-3.0022142539220404e7 3.392569008548083e7 0.0
3.392569008548083e7 3.549832824023502e6 0.0
0.0 0.0 0.0

1.8010683731505387e6 1.232845556614599e7 0.0
1.232845556614599e7 -3.1241606620210264e7 0.0
0.0 0.0 0.0

-6.091441056760006e7 5.758897594779291e6 0.0
5.758897594779291e6 4.211970253377028e6 0.0
0.0 0.0 0.0

2.0439445914084418e6 7.861515450536452e6 0.0
7.861515450536452e6 -2.286382638323282e7 0.0
0.0 0.0 0.0

-2.629455303763061e6 2.185122643394673e7 0.0
2.185122643394673e7 2.382180067900553e7 0.0
0.0 0.0 0.0

-1.3599542563791424e6 1.5850625254968405e7 0.0
1.5850625254968405e7 -3.918132412664238e7 0.0
0.0 0.0 0.0

177311.48972292803 1.71349989112481e7 0.0
1.71349989112481e7 -2.951699252364502e7 0.0
0.0 0.0 0.0

-9.153862029252727e6 3.7222905942920255e6 0.0
3.7222905942920255e6 1.7234999096239023e7 0.0
0.0 0.0 0.0

-1.0651052611806825e7 1.1222550886625413e7 0.0
1.1222550886625413e7 2.998329966006777e7 0.0
0.0 0.0 0.0

-2.8199392368485443e6 1.753184807815656e7 0.0
1.753184807815656e7 -2.431784866264383e6 0.0
0.0 0.0 0.0

-3.5822183224246134e6 1.6076509382121969e7 0.0
1.6076509382121969e7 1.0715913125541877e7 0.0
0.0 0.0 0.0

-1.0026298818092031e7 9.996949294690894e6 0.0
9.996949294690894e6 3.4816155941795036e7 0.0
0.0 0.0 0.0

-1.7804514992005536e6 1.699056062226427e7 0.0
1.699056062226427e7 -1.5392859358073303e6 0.0
0.0 0.0 0.0

145390.60958222207 2.080490388557596e7 0.0
2.080490388557596e7 -1.5839693403854024e7 0.0
0.0 0.0 0.0

596844.2478028014 2.2024834974791527e7 0.0
2.2024834974791527e7 -1.2637917630032247e7 0.0
0.0 0.0 0.0

403586.77698276844 2.2744862257896915e7 0.0
2.2744862257896915e7 -1.4237999386467377e7 0.0
0.0 0.0 0.0

583206.9490715656 1.7127343245927267e7 0.0
1.7127343245927267e7 -2.0382328973092448e7 0.0
0.0 0.0 0.0

1.36969084486904e6 9.785687750451744e6 0.0
9.785687750451744e6 -1.7819991139203526e7 0.0
0.0 0.0 0.0

-1.0482505200684386e6 2.204433580760634e7 0.0
2.204433580760634e7 -6.384033598161246e6 0.0
0.0 0.0 0.0

-230515.22536496352 2.125299017184894e7 0.0
2.125299017184894e7 -1.3888231290068675e7 0.0
0.0 0.0 0.0

10069.375942503102 1.6282473259713411e7 0.0
1.6282473259713411e7 -1.0223785880883962e7 0.0
0.0 0.0 0.0

-1.031986513297984e7 6.142236142493226e6 0.0
6.142236142493226e6 2.2743837541674577e7 0.0
0.0 0.0 0.0

682623.7719473075 1.6428324362930967e7 0.0
1.6428324362930967e7 -2.187723807911115e7 0.0
0.0 0.0 0.0

-1.9859366981046446e7 2.1586174990529258e7 0.0
2.1586174990529258e7 -6.619789004233201e7 0.0
0.0 0.0 0.0

-8.636891244162355e6 5.667271141633516e6 0.0
5.667271141633516e6 1.610039659150144e7 0.0
0.0 0.0 0.0

1.774364460379308e6 9.341132117516829e6 0.0
9.341132117516829e6 -2.2388991774237808e7 0.0
0.0 0.0 0.0

-774848.7155113633 7.99305258573899e6 0.0
7.99305258573899e6 -5.313577924408534e6 0.0
0.0 0.0 0.0

-5.778167083321828e6 1.5915690778450225e7 0.0
1.5915690778450225e7 -6.809630888545766e7 0.0
0.0 0.0 0.0

-3.956753470934298e6 1.698746040099386e7 0.0
1.698746040099386e7 1.4126287052093815e7 0.0
0.0 0.0 0.0

2.93365092148091e6 7.23017871138106e6 0.0
7.23017871138106e6 -2.1853142755654924e7 0.0
0.0 0.0 0.0

-1.1127687979666509e7 1.0925702204862736e7 0.0
1.0925702204862736e7 2.6663910678267907e7 0.0
0.0 0.0 0.0

-7.02172020785103e6 3.224063425725531e6 0.0
3.224063425725531e6 5.133231581662282e7 0.0
0.0 0.0 0.0

442458.7111188591 2.0965702786570583e7 0.0
2.0965702786570583e7 -2.2154120777468933e6 0.0
0.0 0.0 0.0

2.293676567039471e6 1.8842567814543065e7 0.0
1.8842567814543065e7 6.133224622907301e6 0.0
0.0 0.0 0.0

-7.847768378636571e6 2.774255091416948e7 0.0
2.774255091416948e7 8.375228546601742e6 0.0
0.0 0.0 0.0

-2.762723956893312e6 2.320261306107674e7 0.0
2.320261306107674e7 4.7706854914489295e6 0.0
0.0 0.0 0.0

2.5845716584775634e6 4.996559182895934e6 0.0
4.996559182895934e6 -3.9706955670358814e7 0.0
0.0 0.0 0.0

2.6242912763645556e6 5.761543336799525e6 0.0
5.761543336799525e6 -4.025329876901511e7 0.0
0.0 0.0 0.0

-8.25576868701301e6 1.6302449913726557e7 0.0
1.6302449913726557e7 3.0422701074521407e7 0.0
0.0 0.0 0.0

169242.03743415885 1.9765206306336943e7 0.0
1.9765206306336943e7 -1.6689146962105624e7 0.0
0.0 0.0 0.0

1.0617195236305203e7 2.4612697702831283e7 0.0
2.4612697702831283e7 2.235574263616268e6 0.0
0.0 0.0 0.0

-6.880186496620312e6 5.458542219346063e6 0.0
5.458542219346063e6 5.861837294967218e7 0.0
0.0 0.0 0.0

-2.507048243797672e6 2.042743606232428e7 0.0
2.042743606232428e7 1.0782591923609456e7 0.0
0.0 0.0 0.0

-1.0745360055953097e6 1.9486005915086444e7 0.0
1.9486005915086444e7 -1.0983075116711682e7 0.0
0.0 0.0 0.0

863898.6274890751 1.748957974908268e7 0.0
1.748957974908268e7 6.080832904537818e7 0.0
0.0 0.0 0.0

-572534.2557253244 5.503916350147389e6 0.0
5.503916350147389e6 1.0278198360162863e6 0.0
0.0 0.0 0.0

-51607.017802843824 2.605706121341855e7 0.0
2.605706121341855e7 -8.381088384759385e6 0.0
0.0 0.0 0.0

6.227747967783409e6 2.265849134041231e7 0.0
2.265849134041231e7 1.854609713065018e7 0.0
0.0 0.0 0.0

2.6392304753338955e6 8.744050516307382e6 0.0
8.744050516307382e6 -2.1431506132845707e7 0.0
0.0 0.0 0.0

-3.1286668975269594e6 1.5615892354375828e7 0.0
1.5615892354375828e7 -1.1308014637087572e6 0.0
0.0 0.0 0.0

-3.6119490141042806e6 1.6646397352958463e7 0.0
1.6646397352958463e7 4.6301826090902835e7 0.0
0.0 0.0 0.0

1.6385416584931593e6 9.952808900103854e6 0.0
9.952808900103854e6 -3.98925091313657e7 0.0
0.0 0.0 0.0

947345.2052170718 2.052922456128233e7 0.0
2.052922456128233e7 -1.9705892154942628e7 0.0
0.0 0.0 0.0

-8.274816851161214e6 1.888955795921145e6 0.0
1.888955795921145e6 4.161162161346229e7 0.0
0.0 0.0 0.0

1.3099398609170634e6 1.1649450606762568e7 0.0
1.1649450606762568e7 -3.809465259196274e7 0.0
0.0 0.0 0.0

31661.090232160874 1.123858334622331e7 0.0
1.123858334622331e7 -6.734829187793346e6 0.0
0.0 0.0 0.0

2.337869103911061e6 9.223725552232053e6 0.0
9.223725552232053e6 -3.3429644904946987e7 0.0
0.0 0.0 0.0

-22140.42620709259 1.6250647717189083e7 0.0
1.6250647717189083e7 -1.576705528029097e7 0.0
0.0 0.0 0.0

209838.14825414028 1.86618109496654e7 0.0
1.86618109496654e7 -1.7484077049745895e7 0.0
0.0 0.0 0.0

-1.0245747131834254e7 8.741050278701885e6 0.0
8.741050278701885e6 3.399590167417352e7 0.0
0.0 0.0 0.0

4.578690217938752e6 2.3017172415101435e7 0.0
2.3017172415101435e7 5.569027159881229e6 0.0
0.0 0.0 0.0

-1.056293663306148e7 4.84633860112189e6 0.0
4.84633860112189e6 2.1653731489638425e7 0.0
0.0 0.0 0.0

1.128872619099998e6 1.7718334138898876e7 0.0
1.7718334138898876e7 -2.4221040462520994e7 0.0
0.0 0.0 0.0

-5.20626704547859e6 5.9140457910776865e6 0.0
5.9140457910776865e6 1.004721019928588e7 0.0
0.0 0.0 0.0

465429.53075060854 5.787442390541286e6 0.0
5.787442390541286e6 -6.711164049873178e6 0.0
0.0 0.0 0.0

-76614.6795449201 1.7857117483631592e7 0.0
1.7857117483631592e7 -1.6024162089220133e7 0.0
0.0 0.0 0.0

3.179211424301467e6 5.507562809853156e6 0.0
5.507562809853156e6 -2.2206171656807937e7 0.0
0.0 0.0 0.0

-1.0558849111096023e7 4.632872565231213e6 0.0
4.632872565231213e6 3.0072936195935227e7 0.0
0.0 0.0 0.0

1.20377356526611e6 3.437753085216681e6 0.0
3.437753085216681e6 -5.9149544736377925e7 0.0
0.0 0.0 0.0

-1.470160131833756e6 1.992566983322344e7 0.0
1.992566983322344e7 -4.900533243543966e6 0.0
0.0 0.0 0.0

-1.0874761263724461e7 1.297553585475327e7 0.0
1.297553585475327e7 2.3608086124817364e7 0.0
0.0 0.0 0.0

-9.009485419696165e6 2.666364937273796e7 0.0
2.666364937273796e7 5.854586484683953e6 0.0
0.0 0.0 0.0

4.215280025258182e6 2.3765399421363954e7 0.0
2.3765399421363954e7 1.0107392734795583e7 0.0
0.0 0.0 0.0

-4.800048801539127e6 2.0153566870053887e7 0.0
2.0153566870053887e7 2.964588989611e7 0.0
0.0 0.0 0.0

-4.144697635731099e6 2.1491836191929486e7 0.0
2.1491836191929486e7 2.2703958310736578e7 0.0
0.0 0.0 0.0

-8.105482275547216e6 -283461.3519787494 0.0
-283461.3519787494 4.159338616982933e7 0.0
0.0 0.0 0.0

-2.8002932560306024e6 1.5754304490290921e7 0.0
1.5754304490290921e7 5.317200497049547e6 0.0
0.0 0.0 0.0

5.94612591013989e6 2.278541313383978e7 0.0
2.278541313383978e7 1.816335044710629e7 0.0
0.0 0.0 0.0

-3.9576533552514696e6 2.502062215440298e7 0.0
2.502062215440298e7 1.2940207371579861e7 0.0
0.0 0.0 0.0

-1.0914102290648742e7 1.0270518640673134e7 0.0
1.0270518640673134e7 2.9008341517629847e7 0.0
0.0 0.0 0.0

596621.2765192091 1.5976008380322054e7 0.0
1.5976008380322054e7 -2.7483075524924926e7 0.0
0.0 0.0 0.0

2.0684109881660305e6 7.4706460175377475e6 0.0
7.4706460175377475e6 -1.945563555138936e7 0.0
0.0 0.0 0.0

906886.7660652148 1.9459943572679907e7 0.0
1.9459943572679907e7 -1.6205936448182505e7 0.0
0.0 0.0 0.0

-2.986557335758893e6 1.43262638626322e7 0.0
1.43262638626322e7 5.472227441384135e6 0.0
0.0 0.0 0.0

3.0450137632119693e6 5.534350554418974e6 0.0
5.534350554418974e6 -1.389853566648545e7 0.0
0.0 0.0 0.0

-163684.51866424643 2.6723493871601596e7 0.0
2.6723493871601596e7 -7.159795812778828e6 0.0
0.0 0.0 0.0

-7.361212664838534e6 4.726154532957246e6 0.0
4.726154532957246e6 4.901099895020992e7 0.0
0.0 0.0 0.0

-8.281805291762626e6 2.9304850446535605e6 0.0
2.9304850446535605e6 4.296475458024122e7 0.0
0.0 0.0 0.0

-7.599476551273404e6 1.3061929826596169e7 0.0
1.3061929826596169e7 4.245328791989301e7 0.0
0.0 0.0 0.0

207053.2838204489 2.433185411588829e7 0.0
2.433185411588829e7 -1.1620846698591076e7 0.0
0.0 0.0 0.0

-2.665648184191784e6 9.495003556447327e6 0.0
9.495003556447327e6 -1.789244775252169e6 0.0
0.0 0.0 0.0

1.9975488705301303e7 2.6038446232429206e7 0.0
2.6038446232429206e7 1.5908213754818648e7 0.0
0.0 0.0 0.0

1.4692086276542438e7 2.2997285729421455e7 0.0
2.2997285729421455e7 5.92363192075561e7 0.0
0.0 0.0 0.0

3.005064396178852e6 6.726600107379021e6 0.0
6.726600107379021e6 -1.8264923372730058e7 0.0
0.0 0.0 0.0

-1.0543849091147238e7 6.875899053967427e6 0.0
6.875899053967427e6 2.594563761573682e7 0.0
0.0 0.0 0.0

-2.616200431157043e6 1.7099641307776768e7 0.0
1.7099641307776768e7 5.152303599273609e6 0.0
0.0 0.0 0.0

-3.859806865916404e6 2.3393924929623835e7 0.0
2.3393924929623835e7 1.728780345516818e7 0.0
0.0 0.0 0.0

2.248303959319288e6 6.287280266138675e6 0.0
6.287280266138675e6 -4.321891148412577e7 0.0
0.0 0.0 0.0

2.3968334253621735e6 7.448168104488172e6 0.0
7.448168104488172e6 -3.694670433382995e7 0.0
0.0 0.0 0.0

-7.642430148919643e6 6.999263990981373e6 0.0
6.999263990981373e6 8.293191561024741e6 0.0
0.0 0.0 0.0

-2.3350151095449883e6 2.160776415429874e7 0.0
2.160776415429874e7 1.0305385649860434e7 0.0
0.0 0.0 0.0

574253.0191918723 1.786344174857886e7 0.0
1.786344174857886e7 5.6509951771251e7 0.0
0.0 0.0 0.0

875012.5394282667 2.0547598039657757e7 0.0
2.0547598039657757e7 -1.543799105423907e7 0.0
0.0 0.0 0.0

-5.107934017290344e6 8.350067958225503e6 0.0
8.350067958225503e6 1.035287375385543e7 0.0
0.0 0.0 0.0

2.438249535187207e6 6.558046864444074e6 0.0
6.558046864444074e6 -3.8668411020002626e7 0.0
0.0 0.0 0.0

-3.1337001660864763e6 2.4104685084125333e7 0.0
2.4104685084125333e7 1.0945607455624532e7 0.0
0.0 0.0 0.0

1.8547438005566169e6 9.045770890725112e6 0.0
9.045770890725112e6 -2.4831977896116685e7 0.0
0.0 0.0 0.0

-8.955254641038561e6 9.737501314816069e6 0.0
9.737501314816069e6 339524.26230387343 0.0
0.0 0.0 0.0

168868.1021927949 1.7110003503104858e7 0.0
1.7110003503104858e7 -1.743961934049827e7 0.0
0.0 0.0 0.0

-6.238671118686307e6 3.387924310166061e6 0.0
3.387924310166061e6 5.352919015826829e6 0.0
0.0 0.0 0.0

-3.149525537706269e6 1.2792399595377337e7 0.0
1.2792399595377337e7 5.619041617482141e6 0.0
0.0 0.0 0.0

-3.213354060536406e6 1.1071977891617626e7 0.0
1.1071977891617626e7 5.753495893554486e6 0.0
0.0 0.0 0.0

-199853.49906591885 1.7385013644296266e7 0.0
1.7385013644296266e7 -1.5255218951547828e7 0.0
0.0 0.0 0.0

-3.0702448687333576e6 1.69810127670743e7 0.0
1.69810127670743e7 -961609.917862807 0.0
0.0 0.0 0.0

-1.0390989623226527e7 1.0536636644505503e7 0.0
1.0536636644505503e7 3.2386235820641764e7 0.0
0.0 0.0 0.0

-2.763510417668745e6 1.557784905538642e7 0.0
1.557784905538642e7 5.343714903225422e7 0.0
0.0 0.0 0.0

-6.022458790658087e6 1.29768087876744e7 0.0
1.29768087876744e7 4.8574365390574425e7 0.0
0.0 0.0 0.0

-3.2532338817830235e6 1.613666036341612e7 0.0
1.613666036341612e7 4.969523970164414e7 0.0
0.0 0.0 0.0

-4.4789487170477845e6 8.424744503553156e6 0.0
8.424744503553156e6 7.233696324156551e7 0.0
0.0 0.0 0.0

-622431.0510148797 2.2795066625492647e7 0.0
2.2795066625492647e7 1.0000584328895926e7 0.0
0.0 0.0 0.0

-7.126501822505388e6 6.73021802957536e6 0.0
6.73021802957536e6 5.546752327904468e7 0.0
0.0 0.0 0.0

-1.4448928591173592e6 2.495218152292419e7 0.0
2.495218152292419e7 -5.586006109355846e6 0.0
0.0 0.0 0.0

-2.0093450459831383e6 2.1846066285353668e7 0.0
2.1846066285353668e7 -1.2852981246768147e7 0.0
0.0 0.0 0.0

-6.294692270236236e7 3.942151347460227e7 0.0
3.942151347460227e7 -1.2425196994533187e7 0.0
0.0 0.0 0.0

2.6645744769855933e6 8.332545380898079e6 0.0
8.332545380898079e6 -1.809171911437808e7 0.0
0.0 0.0 0.0

1.81618991080188e6 1.3916773645471571e7 0.0
1.3916773645471571e7 -2.600533784537416e7 0.0
0.0 0.0 0.0

239344.03386827884 2.695405252107934e7 0.0
2.695405252107934e7 -6.075977094713974e6 0.0
0.0 0.0 0.0

-1.8256366271537517e6 2.542430284440939e7 0.0
2.542430284440939e7 4.1531660910935896e6 0.0
0.0 0.0 0.0

2.501359188213257e6 8.41790382668138e6 0.0
8.41790382668138e6 -3.2822739122158248e7 0.0
0.0 0.0 0.0

2.0817509256138425e7 2.8359098847855885e7 0.0
2.8359098847855885e7 -2.658717627888893e6 0.0
0.0 0.0 0.0

-4.458912560745219e6 1.35706603981475e7 0.0
1.35706603981475e7 4.315905616655999e6 0.0
0.0 0.0 0.0

163069.9677872099 6.583807730719559e6 0.0
6.583807730719559e6 -6.050145947821635e7 0.0
0.0 0.0 0.0

-4.806942852162548e6 1.1940215957997825e7 0.0
1.1940215957997825e7 4.308707022580925e6 0.0
0.0 0.0 0.0

1.6953255759321796e6 8.973301297780655e6 0.0
8.973301297780655e6 -1.9133592589356527e7 0.0
0.0 0.0 0.0

-4.680104354191907e6 2.058990914673247e7 0.0
2.058990914673247e7 2.7992732928648192e7 0.0
0.0 0.0 0.0

-4.14160542672933e7 3.371182846735839e7 0.0
3.371182846735839e7 -397035.3123015128 0.0
0.0 0.0 0.0

-9.397146664870583e6 1.624621362285092e6 0.0
1.624621362285092e6 3.42422773445423e7 0.0
0.0 0.0 0.0

879803.9351059664 2.1564018944326967e7 0.0
2.1564018944326967e7 -1.4633828959679278e7 0.0
0.0 0.0 0.0

-1.8739014237065457e7 2.8448826161192868e7 0.0
2.8448826161192868e7 -9.061614303406283e6 0.0
0.0 0.0 0.0

3.066121903754643e6 6.036896807772537e6 0.0
6.036896807772537e6 -1.7505967058028363e7 0.0
0.0 0.0 0.0

-1.0343973917123238e7 1.1449147514809042e7 0.0
1.1449147514809042e7 2.7750697175755482e7 0.0
0.0 0.0 0.0

667683.5797446007 1.865119613044909e7 0.0
1.865119613044909e7 -1.4781186679143036e7 0.0
0.0 0.0 0.0

-772966.9955329164 1.776927071517972e7 0.0
1.776927071517972e7 -7.106019228975113e6 0.0
0.0 0.0 0.0

-4.119490513584022e6 1.5053014443916196e7 0.0
1.5053014443916196e7 4.245614099556673e6 0.0
0.0 0.0 0.0

-8.234756995442117e6 1.1501256753911966e7 0.0
1.1501256753911966e7 4.241554935074304e7 0.0
0.0 0.0 0.0

2.9035981039820965e6 4.269625529058827e6 0.0
4.269625529058827e6 -3.6265469679845884e7 0.0
0.0 0.0 0.0

2.48946135484148e6 5.666894713521411e6 0.0
5.666894713521411e6 -2.206943450443535e7 0.0
0.0 0.0 0.0

-3.0868545198703147e6 2.3750135907374695e7 0.0
2.3750135907374695e7 9.960613060880452e6 0.0
0.0 0.0 0.0

-1.0817341015408162e7 2.974006509852358e6 0.0
2.974006509852358e6 1.58239047541351e7 0.0
0.0 0.0 0.0

-154704.87809413392 1.5749698354656752e7 0.0
1.5749698354656752e7 -1.4918829243523458e7 0.0
0.0 0.0 0.0

2.7872704002074264e6 7.398030178851745e6 0.0
7.398030178851745e6 -2.7500532547671005e7 0.0
0.0 0.0 0.0

-8.083645849459555e6 6.123785989902942e6 0.0
6.123785989902942e6 4.6226682671922944e7 0.0
0.0 0.0 0.0

-1.178192233118744e6 2.3019212102527373e7 0.0
2.3019212102527373e7 6.986878485959922e6 0.0
0.0 0.0 0.0

-1.0370552929642973e7 3.4728115363003234e6 0.0
3.4728115363003234e6 2.9284312924328826e7 0.0
0.0 0.0 0.0

819580.1552875955 1.3291965539626228e7 0.0
1.3291965539626228e7 -3.646301535520575e7 0.0
0.0 0.0 0.0

-577323.1467452804 2.0092326639772672e7 0.0
2.0092326639772672e7 -2.2201790319304634e7 0.0
0.0 0.0 0.0

-1.0300403711963875e7 1.4163554696819255e7 0.0
1.4163554696819255e7 2.270954822120915e7 0.0
0.0 0.0 0.0

649325.4036754463 1.7052220662778955e7 0.0
1.7052220662778955e7 -2.761600995131827e7 0.0
0.0 0.0 0.0

1.11489629079944e6 1.751716872825774e7 0.0
1.751716872825774e7 -1.840627221498133e7 0.0
0.0 0.0 0.0

-1.6937903556843195e6 2.534502533261348e6 0.0
2.534502533261348e6 3.704005084155145e6 0.0
0.0 0.0 0.0

-1.0543342648258086e7 2.498743663999321e6 0.0
2.498743663999321e6 2.6146231508875616e7 0.0
0.0 0.0 0.0

-140979.89740915783 1.3485028055730928e7 0.0
1.3485028055730928e7 -1.3365362249556547e7 0.0
0.0 0.0 0.0

232923.71060459316 1.2158205645885164e7 0.0
1.2158205645885164e7 -1.3755152821763892e7 0.0
0.0 0.0 0.0

840356.9214941356 1.9052183018362522e7 0.0
1.9052183018362522e7 -1.5492282255963381e7 0.0
0.0 0.0 0.0

-2.0186825167870175e6 2.321720275850889e7 0.0
2.321720275850889e7 3.9573218281323956e6 0.0
0.0 0.0 0.0

1.049501097585654e6 1.059417413236363e7 0.0
1.059417413236363e7 -1.6483757252502063e7 0.0
0.0 0.0 0.0

-3.5245020592070576e6 1.4815024857829256e7 0.0
1.4815024857829256e7 -5.474229705623089e7 0.0
0.0 0.0 0.0

-1.0648093414002635e7 4.9216631966309035e6 0.0
4.9216631966309035e6 1.5139033127595885e7 0.0
0.0 0.0 0.0

-1.3301590365649791e7 2.002498493012626e7 0.0
2.002498493012626e7 -4.94591344367172e7 0.0
0.0 0.0 0.0

-1.3325753014130896e8 1.6455629681437489e7 0.0
1.6455629681437489e7 -3.0305746305274516e6 0.0
0.0 0.0 0.0

1.2307937728755836e8 1.7522565313246585e7 0.0
1.7522565313246585e7 6.302238928006396e6 0.0
0.0 0.0 0.0

-5.0096758225408085e6 1.5247248768419676e7 0.0
1.5247248768419676e7 -6.3140219252396986e7 0.0
0.0 0.0 0.0

-6.46995508628509e6 1.8139539153996635e7 0.0
1.8139539153996635e7 2.3631586898173153e7 0.0
0.0 0.0 0.0

-2.650807146896909e6 2.2514327645519745e7 0.0
2.2514327645519745e7 968943.8893787077 0.0
0.0 0.0 0.0

-459513.0697648879 1.4750630281225454e7 0.0
1.4750630281225454e7 -1.2945678065758506e7 0.0
0.0 0.0 0.0

-1.1604248621803047e6 7.0027850043467255e6 0.0
7.0027850043467255e6 -3.736932044989671e6 0.0
0.0 0.0 0.0

98385.55460198259 7.920322373343233e6 0.0
7.920322373343233e6 -2.3908301835769583e6 0.0
0.0 0.0 0.0

-3.8018771426509535e6 1.6445433457558189e7 0.0
1.6445433457558189e7 4.1395881347485464e6 0.0
0.0 0.0 0.0

-4.247085779508859e6 1.4990937585150307e7 0.0
1.4990937585150307e7 -5.87127299966591e7 0.0
0.0 0.0 0.0

984938.3393054139 1.2949292792423133e7 0.0
1.2949292792423133e7 -1.2501696741827354e7 0.0
0.0 0.0 0.0

-9.626861535715848e6 4.6218053977645645e6 0.0
4.6218053977645645e6 3.7337065960408285e7 0.0
0.0 0.0 0.0

1.015715683995474e8 2.1717319035989158e7 0.0
2.1717319035989158e7 255464.9860746339 0.0
0.0 0.0 0.0

640368.5363334259 1.4253876288298462e7 0.0
1.4253876288298462e7 -1.2149253548176112e7 0.0
0.0 0.0 0.0

2.8092034928228725e6 6.915721331972618e6 0.0
6.915721331972618e6 -3.1411736066477112e7 0.0
0.0 0.0 0.0

2.6543168670754395e6 7.650836715137551e6 0.0
7.650836715137551e6 -3.2126271367596664e7 0.0
0.0 0.0 0.0

-4.578928964198459e6 2.104661717388584e7 0.0
2.104661717388584e7 2.6361304550511297e7 0.0
0.0 0.0 0.0

1.4870897867731191e6 1.6042006734174015e7 0.0
1.6042006734174015e7 -2.1241149936440505e7 0.0
0.0 0.0 0.0

-4.167291342100832e6 2.363221299190929e7 0.0
2.363221299190929e7 -1.3600729649720397e7 0.0
0.0 0.0 0.0

8.62629275614529e6 2.5700589312515747e7 0.0
2.5700589312515747e7 -2.8086930077386447e6 0.0
0.0 0.0 0.0

-1.9204282372961247e6 1.4986696731191922e7 0.0
1.4986696731191922e7 -86392.26696100377 0.0
0.0 0.0 0.0

1.4764478460005994e6 6.406171780922753e6 0.0
6.406171780922753e6 -5.656583949770925e6 0.0
0.0 0.0 0.0

-3.511420805280672e6 1.0303364999233529e7 0.0
1.0303364999233529e7 268474.6540198836 0.0
0.0 0.0 0.0

-7.415243717604067e6 7.49614343295755e6 0.0
7.49614343295755e6 1.4493197467564698e7 0.0
0.0 0.0 0.0

-7.474813555578726e6 1.825010701184212e7 0.0
1.825010701184212e7 -3.5280206610135734e7 0.0
0.0 0.0 0.0

1.5576018702463564e6 1.3060781892906291e7 0.0
1.3060781892906291e7 -3.1765295314933922e7 0.0
0.0 0.0 0.0

2.05953238413906e6 6.685187149717195e6 0.0
6.685187149717195e6 -1.8537438240956057e7 0.0
0.0 0.0 0.0

2.0930713799050217e6 1.0000262547218867e7 0.0
1.0000262547218867e7 -1.5481576987184865e7 0.0
0.0 0.0 0.0

-2.0312905195521817e6 1.7715130797943134e7 0.0
1.7715130797943134e7 157244.16586487682 0.0
0.0 0.0 0.0

1.623287063337206e6 9.581917416997163e6 0.0
9.581917416997163e6 -2.0102558839329753e7 0.0
0.0 0.0 0.0

-1.7542431795183676e6 8.700738742525192e6 0.0
8.700738742525192e6 -3.6302361122309216e6 0.0
0.0 0.0 0.0

3.344890646600713e6 4.704505537715728e6 0.0
4.704505537715728e6 -2.3510799243688725e7 0.0
0.0 0.0 0.0

684515.2158660069 1.698501088314289e7 0.0
1.698501088314289e7 -1.4614635201624358e7 0.0
0.0 0.0 0.0

-1.0495239972385827e7 6.898429232277633e6 0.0
6.898429232277633e6 1.3980503771587798e7 0.0
0.0 0.0 0.0

143036.30350660952 2.602521753311415e7 0.0
2.602521753311415e7 -9.221125268681532e6 0.0
0.0 0.0 0.0

927333.9924146943 6.074791952924723e6 0.0
6.074791952924723e6 -5.2296557568313904e7 0.0
0.0 0.0 0.0

540049.5113982661 1.81794213486177e7 0.0
1.81794213486177e7 -1.4042684496093495e7 0.0
0.0 0.0 0.0

2.6257113485447476e6 9.13435986328699e6 0.0
9.13435986328699e6 -2.4574116848744567e7 0.0
0.0 0.0 0.0

-3.7599062605885374e6 5.058670154538258e6 0.0
5.058670154538258e6 7.928335178278176e6 0.0
0.0 0.0 0.0

2.731001393331306e6 8.300654944228472e6 0.0
8.300654944228472e6 -2.607209308591676e7 0.0
0.0 0.0 0.0

-2.0931444256516416e6 2.3061086164877016e7 0.0
2.3061086164877016e7 7.029855649979738e6 0.0
0.0 0.0 0.0

2.758328946136723e6 2.809477997649886e7 0.0
2.809477997649886e7 -8.684884588121716e6 0.0
0.0 0.0 0.0

-1.589760274826182e6 2.0975240838577844e7 0.0
2.0975240838577844e7 -2.1708829588460907e7 0.0
0.0 0.0 0.0

-65239.16823612107 7.194963300778384e6 0.0
7.194963300778384e6 -6.854971580443093e6 0.0
0.0 0.0 0.0

2.633480719088276e6 2.9225861289151154e7 0.0
2.9225861289151154e7 -6.776162678073632e6 0.0
0.0 0.0 0.0

883336.00817888 2.4081149799654033e7 0.0
2.4081149799654033e7 -1.123305384915195e7 0.0
0.0 0.0 0.0

-1.1560830887032019e7 9.802757291145384e6 0.0
9.802757291145384e6 2.257180857048659e7 0.0
0.0 0.0 0.0

-3.2692202916969387e6 2.4571391225766733e7 0.0
2.4571391225766733e7 1.5269663289860962e7 0.0
0.0 0.0 0.0

-7.364629336686829e6 4.427601924659511e6 0.0
4.427601924659511e6 7.836466106902845e6 0.0
0.0 0.0 0.0

-2.6570658146322495e6 1.2020168548568938e7 0.0
1.2020168548568938e7 3.653586192685034e6 0.0
0.0 0.0 0.0

-6.671591350855157e6 9.14247873788178e6 0.0
9.14247873788178e6 5.2053419818834744e7 0.0
0.0 0.0 0.0

-5.150669388713112e6 1.5383162865176896e7 0.0
1.5383162865176896e7 9.679951209969439e6 0.0
0.0 0.0 0.0

4.0380912156665395e6 2.2502083462783523e7 0.0
2.2502083462783523e7 2.6273024549167324e6 0.0
0.0 0.0 0.0

380270.84288286464 1.5535755456597133e7 0.0
1.5535755456597133e7 -1.1716044653471973e7 0.0
0.0 0.0 0.0

-350057.6980015291 1.694000280405841e7 0.0
1.694000280405841e7 -1.4364966393293245e7 0.0
0.0 0.0 0.0

-3.2196819085477777e6 1.4804074414887352e7 0.0
1.4804074414887352e7 -5.108780905055013e7 0.0
0.0 0.0 0.0

452292.1319791898 6.5447477904569805e6 0.0
6.5447477904569805e6 -5.578499729755137e7 0.0
0.0 0.0 0.0

-1.0516185038176356e7 1.2712853873681689e7 0.0
1.2712853873681689e7 2.8659058478516635e7 0.0
0.0 0.0 0.0

-2.390804462458738e6 2.708308043331932e7 0.0
2.708308043331932e7 7.471389267718701e6 0.0
0.0 0.0 0.0

-9.157036279273925e6 5.005938517692214e6 0.0
5.005938517692214e6 4.138743246480514e7 0.0
0.0 0.0 0.0

854999.7362604514 2.252378095942919e7 0.0
2.252378095942919e7 -1.3887215831716958e7 0.0
0.0 0.0 0.0

627931.7095065331 2.190665207263009e7 0.0
2.190665207263009e7 -1.671648163819045e7 0.0
0.0 0.0 0.0

1.7011245701372806e7 6.118133183854305e6 0.0
6.118133183854305e6 -1.9237801895155841e6 0.0
0.0 0.0 0.0

1.330776155423846e6 1.029612812525845e7 0.0
1.029612812525845e7 -1.0798953005823575e7 0.0
0.0 0.0 0.0

-8.615437486156166e6 1.5389675213635605e7 0.0
1.5389675213635605e7 1.893795123571244e7 0.0
0.0 0.0 0.0

-3.7724082032388067e6 2.0906617089822304e7 0.0
2.0906617089822304e7 -2.090060620374292e7 0.0
0.0 0.0 0.0

592805.1601899611 1.6538771029170766e7 0.0
1.6538771029170766e7 -1.3725882520961389e7 0.0
0.0 0.0 0.0

891386.0519788871 1.792391314255591e7 0.0
1.792391314255591e7 -1.6215543009738266e7 0.0
0.0 0.0 0.0

-6.799697937237445e6 1.4715744594699012e7 0.0
1.4715744594699012e7 4.09331378703821e7 0.0
0.0 0.0 0.0

-1.0868652263623225e7 1.2486297295783397e7 0.0
1.2486297295783397e7 2.5685515860193804e7 0.0
0.0 0.0 0.0

-515698.3357334682 1.6473406200790906e7 0.0
1.6473406200790906e7 -1.3460019945521591e7 0.0
0.0 0.0 0.0

-1.097264620832108e6 2.0563447575593326e7 0.0
2.0563447575593326e7 -1.0579349919171374e7 0.0
0.0 0.0 0.0

-6.61730038745929e6 2.15941988020664e7 0.0
2.15941988020664e7 -1.3142067041151512e7 0.0
0.0 0.0 0.0

-1.3486986909923991e6 2.8205155444017064e7 0.0
2.8205155444017064e7 -2.610229104828513e6 0.0
0.0 0.0 0.0

1.2786839300148655e6 1.3166948258303562e7 0.0
1.3166948258303562e7 -3.404861748862761e7 0.0
0.0 0.0 0.0

-1.9608991269591753e6 3.3644147903533444e7 0.0
3.3644147903533444e7 2.5013679306461876e6 0.0
0.0 0.0 0.0

-7.349022807518348e6 1.6167591701440405e7 0.0
1.6167591701440405e7 1.7058743773770683e7 0.0
0.0 0.0 0.0

-9.884192646999344e6 2.6667249302153558e7 0.0
2.6667249302153558e7 -1.2288321456467167e7 0.0
0.0 0.0 0.0

59236.99225312576 1.963144573569974e7 0.0
1.963144573569974e7 -1.9350165717279818e6 0.0
0.0 0.0 0.0

-1.0121668819155861e6 2.133897212704104e7 0.0
2.133897212704104e7 -2.0031084121891204e7 0.0
0.0 0.0 0.0

-2.7171084105472285e6 2.1079285641691424e7 0.0
2.1079285641691424e7 -1.2469051941277659e7 0.0
0.0 0.0 0.0

-3.236411385786134e6 2.6135995560322527e7 0.0
2.6135995560322527e7 1.0115916324817073e7 0.0
0.0 0.0 0.0

583444.9097255617 2.0926561232896596e7 0.0
2.0926561232896596e7 -1.3373395786057258e7 0.0
0.0 0.0 0.0

-683677.4813660374 1.6008333317113608e7 0.0
1.6008333317113608e7 -1.2470706839034459e7 0.0
0.0 0.0 0.0

-794580.615538259 1.977221354088966e7 0.0
1.977221354088966e7 -2.446896083667026e7 0.0
0.0 0.0 0.0

-1.7054646207779266e6 1.334547995097514e7 0.0
1.334547995097514e7 -6.61246282573749e6 0.0
0.0 0.0 0.0

-2.3826182662177747e6 2.5505004243190918e7 0.0
2.5505004243190918e7 2.290734669598121e6 0.0
0.0 0.0 0.0

-1.1897552998146864e6 2.7590895391673077e7 0.0
2.7590895391673077e7 -3.823408541303582e6 0.0
0.0 0.0 0.0

-2.373433054606461e6 4.424895180909301e6 0.0
4.424895180909301e6 5.405692989821465e6 0.0
0.0 0.0 0.0

180707.49698535074 1.1534085958914207e7 0.0
1.1534085958914207e7 -1.2693370831663698e7 0.0
0.0 0.0 0.0

-641617.5753822741 2.934208707750911e7 0.0
2.934208707750911e7 -672765.8835533027 0.0
0.0 0.0 0.0

-2.868122320586602e6 2.2557936801820915e7 0.0
2.2557936801820915e7 6.226039960527782e6 0.0
0.0 0.0 0.0

-9.989347641670474e7 1.0150618376855232e7 0.0
1.0150618376855232e7 536031.4882262498 0.0
0.0 0.0 0.0

264176.69151606783 1.765049450453354e7 0.0
1.765049450453354e7 -2.7740527681263432e7 0.0
0.0 0.0 0.0

-3.3134969329530825e6 2.112255078947468e7 0.0
2.112255078947468e7 9.56265064916666e6 0.0
0.0 0.0 0.0

-829168.0994188194 2.5252934891093407e7 0.0
2.5252934891093407e7 -3.631133251678374e6 0.0
0.0 0.0 0.0

-3.0974874961369145e6 2.2273701934538808e7 0.0
2.2273701934538808e7 9.148302773810228e6 0.0
0.0 0.0 0.0

-2.639121558727869e6 2.3476230439697877e7 0.0
2.3476230439697877e7 992624.2675580774 0.0
0.0 0.0 0.0

429178.25206711795 2.2740192595241297e7 0.0
2.2740192595241297e7 -1.1509193402331712e7 0.0
0.0 0.0 0.0

-5.9811778079839945e6 1.7006412918473616e7 0.0
1.7006412918473616e7 1.4789731200211527e7 0.0
0.0 0.0 0.0

-1.0118933432455825e7 8.988246628418647e6 0.0
8.988246628418647e6 3.1515737027008496e7 0.0
0.0 0.0 0.0

-798681.6067237486 1.4079915328844145e7 0.0
1.4079915328844145e7 -5.256686843175165e6 0.0
0.0 0.0 0.0

2.6849366729857335e6 6.252583691847653e6 0.0
6.252583691847653e6 -1.2617518089043342e7 0.0
0.0 0.0 0.0

-1.825062168456975e6 1.8253183153933786e7 0.0
1.8253183153933786e7 -7.882207555129046e6 0.0
0.0 0.0 0.0

315661.8553639436 2.355169967085837e7 0.0
2.355169967085837e7 -1.2915063740719834e7 0.0
0.0 0.0 0.0

-3.0298931671694294e6 2.141398900476888e7 0.0
2.141398900476888e7 6.49269609414123e6 0.0
0.0 0.0 0.0

-2.572196956386213e6 1.6768265497101605e7 0.0
1.6768265497101605e7 -4.1172607161536096e6 0.0
0.0 0.0 0.0

-8.958794555206824e6 1.7978518283308588e6 0.0
1.7978518283308588e6 1.79399542550588e7 0.0
0.0 0.0 0.0

1.9983324065515008e6 6.131254195450644e6 0.0
6.131254195450644e6 -1.4900917923764244e7 0.0
0.0 0.0 0.0

-8.775735394919805e6 8.240977601538886e6 0.0
8.240977601538886e6 4.08583918401342e7 0.0
0.0 0.0 0.0

-1.1211093288014676e7 4.954052492920389e6 0.0
4.954052492920389e6 2.3276688152576894e7 0.0
0.0 0.0 0.0

-806471.5503600929 2.110886027677041e7 0.0
2.110886027677041e7 2.6949372683211982e7 0.0
0.0 0.0 0.0

-1.0741517658039303e6 2.1627258608192977e7 0.0
2.1627258608192977e7 -1.0112853372307535e7 0.0
0.0 0.0 0.0

18233.19562712824 1.0834696675521523e7 0.0
1.0834696675521523e7 -1.1657213646968104e7 0.0
0.0 0.0 0.0

-8.219657385492232e6 7.905894725483697e6 0.0
7.905894725483697e6 4.399607914498589e7 0.0
0.0 0.0 0.0

-516316.96471749246 2.557659894338198e7 0.0
2.557659894338198e7 -4.611827598077107e6 0.0
0.0 0.0 0.0

-3.675211932371809e6 1.5752708608813474e7 0.0
1.5752708608813474e7 2.3844461614186903e6 0.0
0.0 0.0 0.0

-1.9995053713252698e6 1.1206132834249191e7 0.0
1.1206132834249191e7 1.6601319873839505e6 0.0
0.0 0.0 0.0

-2.0208639417505418e6 1.4655872037376506e7 0.0
1.4655872037376506e7 -6.197687031044813e6 0.0
0.0 0.0 0.0

-3.956796021785045e6 1.91667996807905e7 0.0
1.91667996807905e7 -3.2481155089596845e7 0.0
0.0 0.0 0.0

-2.172154804731758e6 2.2361122996455558e7 0.0
2.2361122996455558e7 8.604756286697842e6 0.0
0.0 0.0 0.0

1.1679472011328628e6 2.1847140055119865e7 0.0
2.1847140055119865e7 -1.6723019297263017e7 0.0
0.0 0.0 0.0

2.9677135524671786e6 1.84643080661516e7 0.0
1.84643080661516e7 6.6942474240588725e7 0.0
0.0 0.0 0.0

6.153721817555623e6 2.514881098330803e7 0.0
2.514881098330803e7 1.3379497407228276e7 0.0
0.0 0.0 0.0

-9.49867985162169e6 1.5131532128303317e7 0.0
1.5131532128303317e7 2.1551034757043697e7 0.0
0.0 0.0 0.0

1.70623713752326e6 1.3801696138218768e7 0.0
1.3801696138218768e7 -2.787931577281449e7 0.0
0.0 0.0 0.0

-1.5474525919030758e6 1.7520783331147578e7 0.0
1.7520783331147578e7 -2.9557290666481685e6 0.0
0.0 0.0 0.0

2.251043967646244e6 2.503452241696989e7 0.0
2.503452241696989e7 -1.2111123071115421e7 0.0
0.0 0.0 0.0

-2.2228773029948296e6 2.840093777272353e7 0.0
2.840093777272353e7 5.154615604295794e6 0.0
0.0 0.0 0.0

-1.0656684399311864e6 2.690733107650611e7 0.0
2.690733107650611e7 -4.872766895161169e6 0.0
0.0 0.0 0.0

-438933.9801754849 2.180515849257334e7 0.0
2.180515849257334e7 -1.8367187689541005e7 0.0
0.0 0.0 0.0

-1.4170984904897537e6 1.6230714762814464e7 0.0
1.6230714762814464e7 -3.2465808842405663e6 0.0
0.0 0.0 0.0

-2.8885201905160514e6 2.2980851824042294e7 0.0
2.2980851824042294e7 7.53392989869339e6 0.0
0.0 0.0 0.0

-1.1702342691164281e7 8.811941853406826e6 0.0
8.811941853406826e6 2.1141823698711697e7 0.0
0.0 0.0 0.0

2.213532938596597e6 5.947453251168438e6 0.0
5.947453251168438e6 -1.734452132106632e7 0.0
0.0 0.0 0.0

-1.1168373688926802e6 1.8530191614164215e7 0.0
1.8530191614164215e7 -5.545462419284031e6 0.0
0.0 0.0 0.0

2.3892915219180603e6 1.0186143814656667e7 0.0
1.0186143814656667e7 -2.1026525135170236e7 0.0
0.0 0.0 0.0

-1.9398117728240932e6 2.25465259468945e7 0.0
2.25465259468945e7 3.3363682766401996e6 0.0
0.0 0.0 0.0

-1.1983400325555766e6 1.0433205996743564e7 0.0
1.0433205996743564e7 -364685.6805445357 0.0
0.0 0.0 0.0

579532.3175135846 3.1562139448717732e7 0.0
3.1562139448717732e7 -3.900983551535165e6 0.0
0.0 0.0 0.0

-6.60074987600691e7 5.615703078155804e6 0.0
5.615703078155804e6 4.58869702156109e6 0.0
0.0 0.0 0.0

-479441.0638123251 9.612539858667841e6 0.0
9.612539858667841e6 -2.239491624901651e6 0.0
0.0 0.0 0.0

-4.624666676397117e6 1.8010515476796057e7 0.0
1.8010515476796057e7 -4.0182997035218164e7 0.0
0.0 0.0 0.0

1.721225026817454e6 2.396650800551045e7 0.0
2.396650800551045e7 -1.050931238221227e7 0.0
0.0 0.0 0.0

703500.041228788 1.4773430918590449e7 0.0
1.4773430918590449e7 -1.3164796332506208e7 0.0
0.0 0.0 0.0

813973.8492796952 1.990857838666739e7 0.0
1.990857838666739e7 -2.119959267287562e7 0.0
0.0 0.0 0.0

211300.8594129698 8.887017004723642e6 0.0
8.887017004723642e6 -3.937347593422021e6 0.0
0.0 0.0 0.0

2.76926109509053e6 8.378803721424608e6 0.0
8.378803721424608e6 -2.3747609312057503e7 0.0
0.0 0.0 0.0

-1.521199396066815e6 2.8807806036400236e7 0.0
2.8807806036400236e7 -1.514322927818598e6 0.0
0.0 0.0 0.0

-259404.1083265599 6.375239096541147e6 0.0
6.375239096541147e6 -5.209848034603002e6 0.0
0.0 0.0 0.0

634768.6677948087 1.136220146845497e7 0.0
1.136220146845497e7 -1.5151664051008696e7 0.0
0.0 0.0 0.0

816252.8007302595 3.3031680731091425e7 0.0
3.3031680731091425e7 -2.8954692122577913e6 0.0
0.0 0.0 0.0

4.694772731190628e6 2.3608650125526145e7 0.0
2.3608650125526145e7 1.3744814423287201e6 0.0
0.0 0.0 0.0

2.553955356836271e6 2.6956852788740452e7 0.0
2.6956852788740452e7 -9.49818338357239e6 0.0
0.0 0.0 0.0

577685.3586714752 8.843555017097283e6 0.0
8.843555017097283e6 -6.616672389014414e7 0.0
0.0 0.0 0.0

-6.009639478743596e6 1.859818151937833e7 0.0
1.859818151937833e7 3.1434767400270537e7 0.0
0.0 0.0 0.0

-1.3440796861988616e6 2.774195085391423e7 0.0
2.774195085391423e7 1.0865787949052306e6 0.0
0.0 0.0 0.0

2.3170118428745717e6 9.804786859230293e6 0.0
9.804786859230293e6 -1.78089911807519e7 0.0
0.0 0.0 0.0

768417.3584581444 8.06465749088352e6 0.0
8.06465749088352e6 -5.4961835008668415e6 0.0
0.0 0.0 0.0

-99556.35252846358 1.015107216609726e7 0.0
1.015107216609726e7 -1.0552470221707784e7 0.0
0.0 0.0 0.0

-3.6574018603607626e6 3.2342558143746473e7 0.0
3.2342558143746473e7 5.137227957324825e6 0.0
0.0 0.0 0.0

-9.803466394064434e6 2.4645497773135165e6 0.0
2.4645497773135165e6 2.5010980678218603e7 0.0
0.0 0.0 0.0

-8.221988913785925e6 1.7065842623074416e7 0.0
1.7065842623074416e7 2.870020227958013e7 0.0
0.0 0.0 0.0

-521705.3191367226 2.7188375605489656e7 0.0
2.7188375605489656e7 -3.1677476463900823e6 0.0
0.0 0.0 0.0

967420.7881336212 1.6785388698815852e7 0.0
1.6785388698815852e7 -1.6928144157293834e7 0.0
0.0 0.0 0.0

-1.9597537333907587e6 2.264925773390318e7 0.0
2.264925773390318e7 2.192232691918979e7 0.0
0.0 0.0 0.0

-2.5863443561558854e6 1.8047603528682895e7 0.0
1.8047603528682895e7 -3.818242185303027e6 0.0
0.0 0.0 0.0

418176.7767296126 1.770182214436118e7 0.0
1.770182214436118e7 -1.322657050778374e7 0.0
0.0 0.0 0.0

-1.9005001329304539e6 1.7345745446239114e7 0.0
1.7345745446239114e7 -3.364598437492527e7 0.0
0.0 0.0 0.0

3.601035332224045e6 2.8526027771042213e7 0.0
2.8526027771042213e7 -7.988019448979435e6 0.0
0.0 0.0 0.0

-2.675747958271848e6 1.5100657994684475e7 0.0
1.5100657994684475e7 -4.785479562658453e7 0.0
0.0 0.0 0.0

-1.1684893342942562e7 7.570814776450381e6 0.0
7.570814776450381e6 2.006540156350819e7 0.0
0.0 0.0 0.0

6.28702484024995e6 2.2447490316711526e7 0.0
2.2447490316711526e7 2.6577676628692996e7 0.0
0.0 0.0 0.0

-4.242276620969608e6 3.1114621977518056e7 0.0
3.1114621977518056e7 5.553368828240874e6 0.0
0.0 0.0 0.0

-2.356261938684575e6 1.8542047711281303e7 0.0
1.8542047711281303e7 -5.108462414187189e6 0.0
0.0 0.0 0.0

5.310841822454703e6 2.5029377063720837e7 0.0
2.5029377063720837e7 -6.088176171438577e6 0.0
0.0 0.0 0.0

-326179.64261527965 2.6569654465650532e7 0.0
2.6569654465650532e7 -4.330167096402073e6 0.0
0.0 0.0 0.0

-7.121303304982325e6 9.508840890074404e6 0.0
9.508840890074404e6 8.404464072974736e6 0.0
0.0 0.0 0.0

80535.02649845742 2.2281609937242936e7 0.0
2.2281609937242936e7 -1.6819845102896165e7 0.0
0.0 0.0 0.0

1.5227307042942476e6 1.5927364193858279e7 0.0
1.5927364193858279e7 -2.340496045255903e7 0.0
0.0 0.0 0.0

1.3811225867816051e6 1.6597281672913231e7 0.0
1.6597281672913231e7 -2.1857791259419374e7 0.0
0.0 0.0 0.0

-1.0724174021493965e6 1.674880923484859e7 0.0
1.674880923484859e7 -1.0965147445418216e7 0.0
0.0 0.0 0.0

1.8306866389497325e7 2.993917972850084e7 0.0
2.993917972850084e7 -4.479191204220305e6 0.0
0.0 0.0 0.0

1.3633254364458108e6 1.2188742400135806e7 0.0
1.2188742400135806e7 -1.3858541673464198e7 0.0
0.0 0.0 0.0

2.2882355100152753e6 5.352882694932773e6 0.0
5.352882694932773e6 -1.6349665553111384e7 0.0
0.0 0.0 0.0

1.6081893237274094e6 1.5200129760004627e7 0.0
1.5200129760004627e7 -2.483046588228739e7 0.0
0.0 0.0 0.0

928440.5053027105 7.043442481008143e6 0.0
7.043442481008143e6 -4.9624407649609e7 0.0
0.0 0.0 0.0

-9.358921457172474e6 8.748506000485031e6 0.0
8.748506000485031e6 1.234632181067697e7 0.0
0.0 0.0 0.0

-2.561755830939138e6 2.4848065001003634e7 0.0
2.4848065001003634e7 3.3120141473772014e6 0.0
0.0 0.0 0.0

2.9018862600315306e6 4.755726339519096e6 0.0
4.755726339519096e6 -2.8383861078380097e7 0.0
0.0 0.0 0.0

1.578722044740065e6 6.981079182694376e6 0.0
6.981079182694376e6 -1.3773094480059352e7 0.0
0.0 0.0 0.0

-380904.71885539964 1.702230001016623e7 0.0
1.702230001016623e7 -8.685596980864845e6 0.0
0.0 0.0 0.0

-5.371645051601389e6 1.5571230772138325e7 0.0
1.5571230772138325e7 4.357027521212654e7 0.0
0.0 0.0 0.0

-3.6323901479000254e6 2.435449579114712e7 0.0
2.435449579114712e7 1.5707938934304925e7 0.0
0.0 0.0 0.0

-5.817818785207745e6 1.087025990204276e7 0.0
1.087025990204276e7 6.335839465413257e6 0.0
0.0 0.0 0.0

-4.821445478622188e6 2.1746817858272795e7 0.0
2.1746817858272795e7 2.2890588531884715e7 0.0
0.0 0.0 0.0

3.114669196420435e6 6.5041692764276685e6 0.0
6.5041692764276685e6 -2.0796117929381467e7 0.0
0.0 0.0 0.0

1.577640423073044e6 1.4505937046536645e7 0.0
1.4505937046536645e7 -2.650701754059842e7 0.0
0.0 0.0 0.0

-13886.01130213635 7.096624362405778e7 0.0
7.096624362405778e7 6.89650111869373e6 0.0
0.0 0.0 0.0

-4.955664475311242e6 1.483534051153647e7 0.0
1.483534051153647e7 7.936828049670152e6 0.0
0.0 0.0 0.0

-1.1400012053498453e7 5.9644683091162415e6 0.0
5.9644683091162415e6 1.9195888230189472e7 0.0
0.0 0.0 0.0

487464.63095228747 2.0947548552165955e7 0.0
2.0947548552165955e7 -1.8133152900056858e7 0.0
0.0 0.0 0.0

1.2939331394810602e6 1.7303326817116402e7 0.0
1.7303326817116402e7 -2.047521125028485e7 0.0
0.0 0.0 0.0

-42866.10169664305 3.631042855996963e6 0.0
3.631042855996963e6 3.2552908625099743e6 0.0
0.0 0.0 0.0

-3.469534422036154e6 2.022698295160972e6 0.0
2.022698295160972e6 6.765273448456829e6 0.0
0.0 0.0 0.0

-4.853779205954652e6 3.2726115560097296e7 0.0
3.2726115560097296e7 4.555879279503603e6 0.0
0.0 0.0 0.0

-3.2657808428848726e6 2.0697207807926323e7 0.0
2.0697207807926323e7 8.144411245111772e6 0.0
0.0 0.0 0.0

-3.2539693009236264e6 3.256661069659562e7 0.0
3.256661069659562e7 2.6045439667274896e6 0.0
0.0 0.0 0.0

2.4794251763729984e6 9.983075019593235e6 0.0
9.983075019593235e6 -2.3290034705114666e7 0.0
0.0 0.0 0.0

-2.7636424743175698e6 2.3644983898148064e7 0.0
2.3644983898148064e7 6.022421884387396e6 0.0
0.0 0.0 0.0

-9.557550450708758e6 5.5568169412662815e6 0.0
5.5568169412662815e6 3.475036271021844e7 0.0
0.0 0.0 0.0

-8.132689317732859e7 7.237960031183238e6 0.0
7.237960031183238e6 3.6924399998509884e6 0.0
0.0 0.0 0.0

-2.5410249242701763e6 2.590710677038603e7 0.0
2.590710677038603e7 3.3342585605214755e6 0.0
0.0 0.0 0.0

-4.427142215359576e6 2.2324560657856394e7 0.0
2.2324560657856394e7 2.1133820273573022e7 0.0
0.0 0.0 0.0

1.6438416033678302e6 2.87626084162637e7 0.0
2.87626084162637e7 -7.535736838043277e6 0.0
0.0 0.0 0.0

1.6870929606256587e6 6.28117632812245e6 0.0
6.28117632812245e6 -1.23971333396302e7 0.0
0.0 0.0 0.0

-4.576862754975054e6 1.6783081871163275e7 0.0
1.6783081871163275e7 9.386230826982416e6 0.0
0.0 0.0 0.0

-1.681106850274487e7 2.761014170012255e7 0.0
2.761014170012255e7 -9.957585738437714e6 0.0
0.0 0.0 0.0

-8.442186855969803e6 2.5745613365319498e7 0.0
2.5745613365319498e7 -1.0259378936954612e7 0.0
0.0 0.0 0.0

2.8059905675319256e6 7.644585654152604e6 0.0
7.644585654152604e6 -1.7032688554354094e7 0.0
0.0 0.0 0.0

-4.1294582589128017e6 2.2966675211396474e7 0.0
2.2966675211396474e7 1.9327372460140634e7 0.0
0.0 0.0 0.0

-248257.01106910268 2.0144344127101664e7 0.0
2.0144344127101664e7 -9.927607024943441e6 0.0
0.0 0.0 0.0

880023.3137783408 5.056609749624601e6 0.0
5.056609749624601e6 -5.450059286713856e7 0.0
0.0 0.0 0.0

-7.740855193176914e6 2.5991312715553553e6 0.0
2.5991312715553553e6 5.040021821249906e7 0.0
0.0 0.0 0.0

2.0341998100720132e6 1.0624175257933108e7 0.0
1.0624175257933108e7 -1.6494651884153176e7 0.0
0.0 0.0 0.0

2.543437499363944e6 7.580654679994998e6 0.0
7.580654679994998e6 -3.446950959903723e7 0.0
0.0 0.0 0.0

-564091.4604025125 2.242037779899709e7 0.0
2.242037779899709e7 -8.243770747469511e6 0.0
0.0 0.0 0.0

-499883.3139452394 1.2825844243620154e7 0.0
1.2825844243620154e7 -4.529938702530514e7 0.0
0.0 0.0 0.0

2.7584894966309317e6 3.563786934437729e7 0.0
3.563786934437729e7 -3.4985890988057824e6 0.0
0.0 0.0 0.0

-1.9020158702888303e6 1.8623952619394623e7 0.0
1.8623952619394623e7 4.217659303394367e7 0.0
0.0 0.0 0.0

-8.26360888046138e6 2.5276029402629193e6 0.0
2.5276029402629193e6 4.6513127489822194e7 0.0
0.0 0.0 0.0

-261045.90066273278 2.12386360068577e7 0.0
2.12386360068577e7 -9.490856585945213e6 0.0
0.0 0.0 0.0

1.3251086917349137e6 8.432524045691548e6 0.0
8.432524045691548e6 -4.180394553066235e7 0.0
0.0 0.0 0.0

-1.895131239724162e6 2.134800656737601e7 0.0
2.134800656737601e7 490826.7504220975 0.0
0.0 0.0 0.0

-2.6295609828594653e6 2.3795075461808074e7 0.0
2.3795075461808074e7 3.314605253933753e6 0.0
0.0 0.0 0.0

-1.0649775523713352e7 8.06215816631837e6 0.0
8.06215816631837e6 2.6909420355166584e7 0.0
0.0 0.0 0.0

4.476474385627199e6 2.9020108554991312e7 0.0
2.9020108554991312e7 -7.5676590028114505e6 0.0
0.0 0.0 0.0

1.065927803920842e6 2.2943038625548266e7 0.0
2.2943038625548266e7 -4.0371492197729913e6 0.0
0.0 0.0 0.0

-622855.2676100509 2.7839698610497564e7 0.0
2.7839698610497564e7 -2.01915909285344e6 0.0
0.0 0.0 0.0

1.7002860347360633e6 2.767171614690881e6 0.0
2.767171614690881e6 -5.174533292915675e7 0.0
0.0 0.0 0.0

-2.674004241328016e6 2.4276353774734557e7 0.0
2.4276353774734557e7 4.581370417877394e6 0.0
0.0 0.0 0.0

757201.2395454897 1.5273414236174818e7 0.0
1.5273414236174818e7 -1.413943990958151e7 0.0
0.0 0.0 0.0

-4.1171814225425934e6 1.2794669245293263e7 0.0
1.2794669245293263e7 2.3872437185452646e6 0.0
0.0 0.0 0.0

-1.0091170616497693e6 1.5483126061177151e7 0.0
1.5483126061177151e7 -4.940630194940055e6 0.0
0.0 0.0 0.0

-9.727969773082513e6 5.961904417443555e6 0.0
5.961904417443555e6 1.2230394031611329e7 0.0
0.0 0.0 0.0

1.4845347313066013e6 2.1913286934786282e7 0.0
2.1913286934786282e7 -5.343273638043813e6 0.0
0.0 0.0 0.0

-8.957145479222676e6 9.879719509629257e6 0.0
9.879719509629257e6 3.871096100620882e7 0.0
0.0 0.0 0.0

289479.7953436347 1.7249844421752237e7 0.0
1.7249844421752237e7 -1.2282910562107872e7 0.0
0.0 0.0 0.0

-6.3972942905148715e6 6.2911300047824625e6 0.0
6.2911300047824625e6 5.925277712463506e6 0.0
0.0 0.0 0.0

-5.519297649911724e6 3.3482402402001552e7 0.0
3.3482402402001552e7 4.608022808527742e6 0.0
0.0 0.0 0.0

499425.2179445196 2.6455142112332065e7 0.0
2.6455142112332065e7 -6.835503820389524e6 0.0
0.0 0.0 0.0

827464.2500525201 1.823067611299714e7 0.0
1.823067611299714e7 -2.42558586473733e7 0.0
0.0 0.0 0.0

1.7077089254442202e6 1.1406441666284338e7 0.0
1.1406441666284338e7 -1.519580759267559e7 0.0
0.0 0.0 0.0

-1.8234832101531122e6 2.638870431455111e7 0.0
2.638870431455111e7 4.0587888087884705e6 0.0
0.0 0.0 0.0

-4.431652886940647e6 2.15590823925932e7 0.0
2.15590823925932e7 2.462790736398507e7 0.0
0.0 0.0 0.0

7.588680505029667e6 2.1671408141342435e7 0.0
2.1671408141342435e7 1.2332844132539812e7 0.0
0.0 0.0 0.0

793490.5853646081 8.755678227536812e6 0.0
8.755678227536812e6 -4.499953221475796e7 0.0
0.0 0.0 0.0

-2.106023382783378e6 2.344491899075729e7 0.0
2.344491899075729e7 8.251810702469446e6 0.0
0.0 0.0 0.0

-1.95476007882187e6 2.479062620275047e7 0.0
2.479062620275047e7 5.357293042120742e6 0.0
0.0 0.0 0.0

-1.075622285412036e7 1.2805756994992679e7 0.0
1.2805756994992679e7 2.0678541816939943e7 0.0
0.0 0.0 0.0

3.478295855740115e6 3.651433654870388e7 0.0
3.651433654870388e7 -3.51412789780753e6 0.0
0.0 0.0 0.0

254378.26203028997 1.5022999490946421e7 0.0
1.5022999490946421e7 -1.0637367365837922e7 0.0
0.0 0.0 0.0

-6.93174135350578e6 1.8875403365698077e7 0.0
1.8875403365698077e7 2.2207945284655355e7 0.0
0.0 0.0 0.0

1.7556286560779298e6 1.0791234325170223e7 0.0
1.0791234325170223e7 -1.4203374853174606e7 0.0
0.0 0.0 0.0

-4.0048140200365954e6 9.856872964801e6 0.0
9.856872964801e6 8.020363801396241e6 0.0
0.0 0.0 0.0

-1.678845250472919e6 2.6844300486378927e7 0.0
2.6844300486378927e7 2.945679390687672e6 0.0
0.0 0.0 0.0

-1.729864202962843e6 2.7835198217073187e7 0.0
2.7835198217073187e7 2.96220650771634e6 0.0
0.0 0.0 0.0

162758.8872797815 1.6778492661656007e7 0.0
1.6778492661656007e7 -1.1272581597570797e7 0.0
0.0 0.0 0.0

2.70617387658256e6 2.374379434239269e7 0.0
2.374379434239269e7 -5.149760851563271e6 0.0
0.0 0.0 0.0

1.5613328045449147e7 3.1108339337094992e7 0.0
3.1108339337094992e7 -5.349913368771484e6 0.0
0.0 0.0 0.0

-5.9123954042110825e6 2.5847144756089907e7 0.0
2.5847144756089907e7 8.63348552499139e6 0.0
0.0 0.0 0.0

-1.0964835754884023e7 1.8140354855386652e7 0.0
1.8140354855386652e7 -4.612865733267776e7 0.0
0.0 0.0 0.0

956764.5382157434 1.2366126655695312e7 0.0
1.2366126655695312e7 -1.1397225038376056e7 0.0
0.0 0.0 0.0

-9.826484388970882e6 6.117960953705693e6 0.0
6.117960953705693e6 3.2149754010557532e7 0.0
0.0 0.0 0.0

-3.4156433717499357e6 2.371994696832097e7 0.0
2.371994696832097e7 -1.895840542239247e6 0.0
0.0 0.0 0.0

-6.924387305193232e6 2.4426370102808375e7 0.0
2.4426370102808375e7 -1.3348403166480702e6 0.0
0.0 0.0 0.0

-2.0486258754959628e6 2.409061782873847e7 0.0
2.409061782873847e7 6.699625293605943e6 0.0
0.0 0.0 0.0

-9.083690967080474e6 3.80643902534215e6 0.0
3.80643902534215e6 3.632337658726284e7 0.0
0.0 0.0 0.0

-6.426199692850062e6 3.4222952821751535e7 0.0
3.4222952821751535e7 4.671853498788066e6 0.0
0.0 0.0 0.0

-2.3750821819171607e6 2.642101016636297e7 0.0
2.642101016636297e7 2.2113154707993167e6 0.0
0.0 0.0 0.0

2.859502960089631e6 2.2153301304109965e7 0.0
2.2153301304109965e7 1.1953034062015386e6 0.0
0.0 0.0 0.0

4.057942873581291e6 1.8743141460852664e7 0.0
1.8743141460852664e7 1.3526476424570832e7 0.0
0.0 0.0 0.0

-2.2161664640626833e6 2.2726499824825913e7 0.0
2.2726499824825913e7 9.850172974936407e6 0.0
0.0 0.0 0.0

-4.550885243274728e6 2.0368365143982798e7 0.0
2.0368365143982798e7 1.5945189752398264e7 0.0
0.0 0.0 0.0

2.862104984517508e6 6.919747736219892e6 0.0
6.919747736219892e6 -1.5950598996461969e7 0.0
0.0 0.0 0.0

-270927.2557545821 2.8151365557940785e7 0.0
2.8151365557940785e7 -2.9524081499830047e6 0.0
0.0 0.0 0.0

-7.507492404736599e6 1.6972418205613814e7 0.0
1.6972418205613814e7 2.4290094155978475e7 0.0
0.0 0.0 0.0

2.5438757187202647e6 4.381655537789399e6 0.0
4.381655537789399e6 -2.596067179410916e7 0.0
0.0 0.0 0.0

-1.258770708904862e6 2.5971197406073757e7 0.0
2.5971197406073757e7 -5.256760884838772e6 0.0
0.0 0.0 0.0

-1.9527065721767265e6 2.3694649460234642e7 0.0
2.3694649460234642e7 5.579444137750449e6 0.0
0.0 0.0 0.0

-5.016977301035348e6 5.545072143700697e6 0.0
5.545072143700697e6 3.613761890981416e6 0.0
0.0 0.0 0.0

1.0320430673059579e6 1.2318402932488067e7 0.0
1.2318402932488067e7 -1.9245524383974086e7 0.0
0.0 0.0 0.0

2.1103868373399624e6 6.2139255745417945e7 0.0
6.2139255745417945e7 4.95886361484934e6 0.0
0.0 0.0 0.0

-198808.7802660428 7.879859074172675e6 0.0
7.879859074172675e6 -7.79526755924048e7 0.0
0.0 0.0 0.0

2.362197826989798e6 5.657434269286388e6 0.0
5.657434269286388e6 -3.0491425702101175e7 0.0
0.0 0.0 0.0

1.7505919976106416e6 1.3994116965338802e7 0.0
1.3994116965338802e7 -2.171003168501699e7 0.0
0.0 0.0 0.0

-5.757300441899473e6 2.5256977372722495e7 0.0
2.5256977372722495e7 6.422167146177234e6 0.0
0.0 0.0 0.0

125305.09728117846 1.6606035431446243e7 0.0
1.6606035431446243e7 -2.962877933204733e7 0.0
0.0 0.0 0.0

912882.6601626235 1.1754808781460378e7 0.0
1.1754808781460378e7 -1.031029042312769e7 0.0
0.0 0.0 0.0

-3.6298972964523695e6 1.1976463979399852e7 0.0
1.1976463979399852e7 414456.51893698284 0.0
0.0 0.0 0.0

4.703257270089036e6 2.0774549448894348e7 0.0
2.0774549448894348e7 2.3103949565856926e7 0.0
0.0 0.0 0.0

-2.258056133807335e6 1.8874439849523976e7 0.0
1.8874439849523976e7 3.946116128818793e7 0.0
0.0 0.0 0.0

1.485483314267686e7 1.5948458088577857e7 0.0
1.5948458088577857e7 7.001945265922253e6 0.0
0.0 0.0 0.0

-5.773733198494018e6 3.8221654970584586e7 0.0
3.8221654970584586e7 2.4860979376206533e6 0.0
0.0 0.0 0.0

-1.4696029992904789e6 1.7491498555547427e7 0.0
1.7491498555547427e7 -9.43263626689675e6 0.0
0.0 0.0 0.0

-3.383508904590596e7 2.8979215763245035e7 0.0
2.8979215763245035e7 -2.70757942177944e6 0.0
0.0 0.0 0.0

-149481.0974364588 1.90939935468892e7 0.0
1.90939935468892e7 -1.036960383849832e7 0.0
0.0 0.0 0.0

-1.965649415227377e6 2.4376228073797926e7 0.0
2.4376228073797926e7 4.1911418180465857e6 0.0
0.0 0.0 0.0

-338208.4471764304 1.5244567358827915e7 0.0
1.5244567358827915e7 -7.846149228183627e6 0.0
0.0 0.0 0.0

-2.1820493071135087e6 1.832333765841276e7 0.0
1.832333765841276e7 -3.0612910106115747e7 0.0
0.0 0.0 0.0

2.5277544175971067e6 5.349214383981299e6 0.0
5.349214383981299e6 -2.4604303183892004e7 0.0
0.0 0.0 0.0

795380.083975736 1.1899916430802016e7 0.0
1.1899916430802016e7 -4.079523496007361e7 0.0
0.0 0.0 0.0

-34376.735252101906 2.245030391334586e7 0.0
2.245030391334586e7 2.0028050342902e7 0.0
0.0 0.0 0.0

2.618061095271729e6 7.947369119551032e6 0.0
7.947369119551032e6 -2.8303066583552312e7 0.0
0.0 0.0 0.0

-888103.5088378087 2.6190418193437196e7 0.0
2.6190418193437196e7 -6.070530138108292e6 0.0
0.0 0.0 0.0

-131698.000559974 2.2317779729426652e7 0.0
2.2317779729426652e7 -1.3102038607597576e7 0.0
0.0 0.0 0.0

-2.474574202781125e6 1.5437277563858872e7 0.0
1.5437277563858872e7 -4.462842837996669e6 0.0
0.0 0.0 0.0

-3.502251325556089e6 1.776091538749438e7 0.0
1.776091538749438e7 4.0233087466860474e6 0.0
0.0 0.0 0.0

-6.55912287876902e6 1.9442316711595375e7 0.0
1.9442316711595375e7 2.303167565877297e7 0.0
0.0 0.0 0.0

2.181403664380715e6 1.1000887515530277e7 0.0
1.1000887515530277e7 -1.9704867222562578e7 0.0
0.0 0.0 0.0

-7.064568687062523e6 4.126764884650578e7 0.0
4.126764884650578e7 2.611467985209946e6 0.0
0.0 0.0 0.0

-7.566004392360379e6 3.4821695436827965e7 0.0
3.4821695436827965e7 4.894435200522862e6 0.0
0.0 0.0 0.0

-5.966304114302253e6 2.0403680389613006e7 0.0
2.0403680389613006e7 2.388115815480867e7 0.0
0.0 0.0 0.0

-1.9414077223778216e6 1.8729183229075156e7 0.0
1.8729183229075156e7 -6.471358602405258e6 0.0
0.0 0.0 0.0

1.1892095233278014e6 1.7986515566920634e7 0.0
1.7986515566920634e7 -1.9004378442798987e7 0.0
0.0 0.0 0.0

2.841913310176775e6 7.673666620822086e6 0.0
7.673666620822086e6 -2.5301612615159467e7 0.0
0.0 0.0 0.0

-4.1776286046663597e6 2.679522133905025e7 0.0
2.679522133905025e7 1.133564368595834e7 0.0
0.0 0.0 0.0

-1.121986427907572e7 1.1591726814132214e7 0.0
1.1591726814132214e7 2.4628767824613433e7 0.0
0.0 0.0 0.0

6.443593582910975e6 3.1709697259442847e7 0.0
3.1709697259442847e7 -5.875279569039468e6 0.0
0.0 0.0 0.0

-6.321611385309063e6 3.154669388943184e6 0.0
3.154669388943184e6 6.207904027275957e7 0.0
0.0 0.0 0.0

-1.3016619224440902e6 2.2420967960921243e7 0.0
2.2420967960921243e7 -8.689544555481186e6 0.0
0.0 0.0 0.0

-8.675776034037245e6 -883266.1682989399 0.0
-883266.1682989399 3.2688178352648545e7 0.0
0.0 0.0 0.0

-9.684826290059667e6 5.099364706106256e6 0.0
5.099364706106256e6 1.8289947604812253e7 0.0
0.0 0.0 0.0

2.9264303675884195e6 6.127003106316488e6 0.0
6.127003106316488e6 -1.5055272170097707e7 0.0
0.0 0.0 0.0

-6.471963844598988e6 1.5759665197115945e7 0.0
1.5759665197115945e7 3.985600916507344e7 0.0
0.0 0.0 0.0

1.6076993771179244e6 1.2358810033494847e7 0.0
1.2358810033494847e7 -3.354919993864776e7 0.0
0.0 0.0 0.0

-669886.13536436 2.626077146572027e7 0.0
2.626077146572027e7 -3.361271366208541e6 0.0
0.0 0.0 0.0

-1.9624194824794333e6 2.5787038453365896e7 0.0
2.5787038453365896e7 5.29866649872629e6 0.0
0.0 0.0 0.0

-1.6158780420168485e6 1.8780440679345336e7 0.0
1.8780440679345336e7 -2.6893489648335553e6 0.0
0.0 0.0 0.0

-2.2262065174309844e6 2.613896543068912e7 0.0
2.613896543068912e7 7.7440927257717205e6 0.0
0.0 0.0 0.0

750421.3650031639 6.361120756498417e6 0.0
6.361120756498417e6 -8.127021921354995e6 0.0
0.0 0.0 0.0

-2.2008948232967444e6 2.208597264658101e7 0.0
2.208597264658101e7 -4.122423833821848e6 0.0
0.0 0.0 0.0

1.3326854225354642e7 3.1891145289625652e7 0.0
3.1891145289625652e7 -5.638428138603249e6 0.0
0.0 0.0 0.0

705751.6232999363 1.0940792229130736e7 0.0
1.0940792229130736e7 -9.393532453265663e6 0.0
0.0 0.0 0.0

-196612.65628494276 1.750759952062566e7 0.0
1.750759952062566e7 -9.789114890233275e6 0.0
0.0 0.0 0.0

-7.23450362486076e6 2.5084392998735722e7 0.0
2.5084392998735722e7 -7.711228639204606e6 0.0
0.0 0.0 0.0

-1.821300587464048e6 1.8259215479440816e7 0.0
1.8259215479440816e7 -1.3177410189743917e6 0.0
0.0 0.0 0.0

1.443465480103861e7 2.6315945147577368e7 0.0
2.6315945147577368e7 -1.2319363014335483e6 0.0
0.0 0.0 0.0

-3.6137585966854785e6 4.7451351689509945e6 0.0
4.7451351689509945e6 1.136696570834396e6 0.0
0.0 0.0 0.0

2.077838064501064e6 4.844572527581809e6 0.0
4.844572527581809e6 -3.714028187632239e7 0.0
0.0 0.0 0.0

-4.811095712307088e6 3.048151874626543e6 0.0
3.048151874626543e6 1.0052517043948613e7 0.0
0.0 0.0 0.0

-2.9545649390529417e6 1.115729050499121e7 0.0
1.115729050499121e7 -1.5194569326934754e6 0.0
0.0 0.0 0.0

-2.118624944500868e6 1.901315979387453e7 0.0
1.901315979387453e7 -6.328569551356021e6 0.0
0.0 0.0 0.0

-9.432438435387822e6 6.666929805854096e6 0.0
6.666929805854096e6 1.7669252318455357e7 0.0
0.0 0.0 0.0

2.379155031701432e6 7.133323089862268e6 0.0
7.133323089862268e6 -1.1149943763854578e7 0.0
0.0 0.0 0.0

662121.3986156704 2.2860781571039837e7 0.0
2.2860781571039837e7 -1.5344227227198847e7 0.0
0.0 0.0 0.0

-2.141993907830665e6 1.0388408509883035e7 0.0
1.0388408509883035e7 -3.5062603405175847e6 0.0
0.0 0.0 0.0

1.1289692524600062e6 5.57126466807024e7 0.0
5.57126466807024e7 3.0033612843564516e6 0.0
0.0 0.0 0.0

1.562266123942792e7 2.5363709405145604e7 0.0
2.5363709405145604e7 1.3509740047240544e7 0.0
0.0 0.0 0.0

-1.327193212171832e6 9.582393154759515e6 0.0
9.582393154759515e6 -5.063407578589521e6 0.0
0.0 0.0 0.0

-4.926369791818685e6 1.6090500608607039e7 0.0
1.6090500608607039e7 1.6404604356468417e7 0.0
0.0 0.0 0.0

1.6661776489163567e6 4.439366723771587e6 0.0
4.439366723771587e6 -6.854962656194505e6 0.0
0.0 0.0 0.0

-9.437385545429602e6 1.0448980080011247e7 0.0
1.0448980080011247e7 3.5980196983740926e7 0.0
0.0 0.0 0.0

-605820.6425891116 8.76436665200341e6 0.0
8.76436665200341e6 -6.629160495904005e6 0.0
0.0 0.0 0.0

-9.464766209796958e6 4.085303442138376e7 0.0
4.085303442138376e7 4.739997582753948e6 0.0
0.0 0.0 0.0

7.809826120190142e6 3.2055763580921367e7 0.0
3.2055763580921367e7 -5.773423106167955e6 0.0
0.0 0.0 0.0

2.9637664008341692e6 6.792177507305452e6 0.0
6.792177507305452e6 -2.6665613890949655e7 0.0
0.0 0.0 0.0

-254626.23771936493 2.29705028461948e7 0.0
2.29705028461948e7 -1.1722301674243899e7 0.0
0.0 0.0 0.0

1.6037074695095997e6 8.028216082301292e6 0.0
8.028216082301292e6 -3.7846861678250454e7 0.0
0.0 0.0 0.0

-2.3498535846161456e6 1.976178964854015e7 0.0
1.976178964854015e7 -4.7804526706209555e6 0.0
0.0 0.0 0.0

3.790442339581471e6 2.2735630787674896e7 0.0
2.2735630787674896e7 1.4246796624256648e7 0.0
0.0 0.0 0.0

1.1172474066007353e7 3.2227461028416954e7 0.0
3.2227461028416954e7 -5.687384124262733e6 0.0
0.0 0.0 0.0

667592.4575646757 1.0415415445634888e7 0.0
1.0415415445634888e7 -8.092077009187134e6 0.0
0.0 0.0 0.0

2.172827940736302e6 9.300293239358023e6 0.0
9.300293239358023e6 -1.4498991656947777e7 0.0
0.0 0.0 0.0

-863612.6832465131 1.3500361312138218e7 0.0
1.3500361312138218e7 -3.840276555423133e6 0.0
0.0 0.0 0.0

-9.287941408109568e6 3.531885401635723e7 0.0
3.531885401635723e7 5.027354001054441e6 0.0
0.0 0.0 0.0

-3.4532096024064617e6 1.710674934217956e7 0.0
1.710674934217956e7 2.35507957288725e6 0.0
0.0 0.0 0.0

1.0014302903575674e7 3.8140652617180325e7 0.0
3.8140652617180325e7 -4.2579849694203045e6 0.0
0.0 0.0 0.0

-1.3973058281950273e6 1.9274320279274736e7 0.0
1.9274320279274736e7 -3.978997754651227e6 0.0
0.0 0.0 0.0

7.059017984884362e6 2.0619301571888752e7 0.0
2.0619301571888752e7 2.9523765850215673e7 0.0
0.0 0.0 0.0

-6.186300431644148e6 2.467550741491048e7 0.0
2.467550741491048e7 -4.987915232465202e6 0.0
0.0 0.0 0.0

-810651.197507069 2.841559323924844e7 0.0
2.841559323924844e7 -888408.1586992672 0.0
0.0 0.0 0.0

-1.169825097315404e6 2.2199512637980532e7 0.0
2.2199512637980532e7 -1.506932718760876e7 0.0
0.0 0.0 0.0

-2.4474576844743527e6 1.5262334121166091e7 0.0
1.5262334121166091e7 -4.473166909775156e7 0.0
0.0 0.0 0.0

-4.393757355859438e6 1.8670398129580863e7 0.0
1.8670398129580863e7 3.56972295211826e7 0.0
0.0 0.0 0.0

298991.68371059094 1.2745185360374121e7 0.0
1.2745185360374121e7 -1.4762609498211935e7 0.0
0.0 0.0 0.0

-9.778331226896862e6 1.1026519599285323e7 0.0
1.1026519599285323e7 3.3216935507535294e7 0.0
0.0 0.0 0.0

1.5264308430843726e6 1.3770706623711422e7 0.0
1.3770706623711422e7 -3.0061445365483325e7 0.0
0.0 0.0 0.0

-2.3133484333388917e6 1.4055902521061087e7 0.0
1.4055902521061087e7 -4.714336180320746e6 0.0
0.0 0.0 0.0

2.762731862991998e6 4.205813129650999e6 0.0
4.205813129650999e6 -1.490127030087081e7 0.0
0.0 0.0 0.0

-2.754381721908524e6 2.1348522024395492e7 0.0
2.1348522024395492e7 962360.8038072315 0.0
0.0 0.0 0.0

-2.3958017684515077e6 2.7327860480756693e7 0.0
2.7327860480756693e7 2.1629051352038886e6 0.0
0.0 0.0 0.0

2.2539898733069887e6 3.3075140617149e7 0.0
3.3075140617149e7 -4.325148868256051e6 0.0
0.0 0.0 0.0

-2.2932052731384262e6 2.0938584912967212e7 0.0
2.0938584912967212e7 -4.442654755102063e6 0.0
0.0 0.0 0.0

2.374511917592931e6 6.303651593955045e6 0.0
6.303651593955045e6 -1.006537111077982e7 0.0
0.0 0.0 0.0

9.341102022113962e6 3.2245484020981338e7 0.0
3.2245484020981338e7 -5.773133049561281e6 0.0
0.0 0.0 0.0

-1.0060079899814041e7 1.2852444791546438e7 0.0
1.2852444791546438e7 2.643181344474335e7 0.0
0.0 0.0 0.0

857578.8561090287 7.957485598353938e6 0.0
7.957485598353938e6 -4.72944124482588e7 0.0
0.0 0.0 0.0

5.011065856755571e6 2.4878747718970217e7 0.0
2.4878747718970217e7 1.3804863990124691e7 0.0
0.0 0.0 0.0

-3.3339540417916486e6 3.041427454195031e7 0.0
3.041427454195031e7 4.384046233738393e6 0.0
0.0 0.0 0.0

-3.208840445287876e6 2.045769539516256e7 0.0
2.045769539516256e7 -1.3518123513870994e7 0.0
0.0 0.0 0.0

-2.552590457170926e6 1.920594703276708e7 0.0
1.920594703276708e7 3.7075226840247e7 0.0
0.0 0.0 0.0

-5.553108225603729e6 2.1268320289793387e7 0.0
2.1268320289793387e7 -1.8510360949931078e7 0.0
0.0 0.0 0.0

-635235.5321399258 1.4207315233971326e7 0.0
1.4207315233971326e7 -1.185256453214785e7 0.0
0.0 0.0 0.0

2.8960858564307457e6 2.1320730728900485e7 0.0
2.1320730728900485e7 1.9715657246452715e7 0.0
0.0 0.0 0.0

1.1373276360179605e6 5.165660408532992e7 0.0
5.165660408532992e7 2.3333957717233896e6 0.0
0.0 0.0 0.0

-4.713264191437138e6 2.4690324754571147e7 0.0
2.4690324754571147e7 -1.136046323378682e7 0.0
0.0 0.0 0.0

6.762200923807573e7 2.2104057813989926e7 0.0
2.2104057813989926e7 5.963178518064292e6 0.0
0.0 0.0 0.0

-2.1916140775959906e6 1.600124239677946e7 0.0
1.600124239677946e7 -5.771305219588268e6 0.0
0.0 0.0 0.0

-2.6502154806120135e6 2.187542600781662e7 0.0
2.187542600781662e7 -391665.84770647745 0.0
0.0 0.0 0.0

714245.5530866096 1.617603601448889e7 0.0
1.617603601448889e7 -1.9153262426453702e7 0.0
0.0 0.0 0.0

2.794819150953608e6 3.3820282249726236e7 0.0
3.3820282249726236e7 -4.323129737490184e6 0.0
0.0 0.0 0.0

1.6840187312496006e6 6.309405749199745e6 0.0
6.309405749199745e6 -4.120376497480413e7 0.0
0.0 0.0 0.0

-396955.46295052255 9.35818010269949e6 0.0
9.35818010269949e6 -7.888075832467422e6 0.0
0.0 0.0 0.0

1.202435260586705e6 1.2645745705651037e7 0.0
1.2645745705651037e7 -2.225680251963272e7 0.0
0.0 0.0 0.0

-3.5257167483852897e6 2.444360246627338e7 0.0
2.444360246627338e7 1.616744646795174e7 0.0
0.0 0.0 0.0

-2.102348809369105e6 2.3191215716431092e7 0.0
2.3191215716431092e7 -3.828253709460092e6 0.0
0.0 0.0 0.0

564310.0066723761 2.1672002891965542e7 0.0
2.1672002891965542e7 6.549553773585201e6 0.0
0.0 0.0 0.0

-1.2072560222300088e6 1.4860992178099114e7 0.0
1.4860992178099114e7 -3.5350573550331583e6 0.0
0.0 0.0 0.0

-1.3971834600789105e6 2.16321431101995e7 0.0
2.16321431101995e7 -3.369312656909153e6 0.0
0.0 0.0 0.0

2.669893447002439e6 2.2393418033416934e7 0.0
2.2393418033416934e7 -4.326154424952634e6 0.0
0.0 0.0 0.0

1.6664195094585938e6 4.8769957028460406e7 0.0
4.8769957028460406e7 2.175506802722584e6 0.0
0.0 0.0 0.0

-1.327091142215231e6 2.2747766946366236e7 0.0
2.2747766946366236e7 -3.0900311548812822e6 0.0
0.0 0.0 0.0

-3.964953686565519e6 7.624402852463473e6 0.0
7.624402852463473e6 7.981379242203162e6 0.0
0.0 0.0 0.0

3.177298665082093e7 1.4719020949221233e7 0.0
1.4719020949221233e7 2.220068865487719e6 0.0
0.0 0.0 0.0

-1.079177908039242e6 1.0637081340359785e7 0.0
1.0637081340359785e7 -5.886285141041239e7 0.0
0.0 0.0 0.0

-1.5375664304052903e6 2.830053608710373e7 0.0
2.830053608710373e7 2.1067726633081846e6 0.0
0.0 0.0 0.0

-5.986848809658479e6 9.15466832670701e6 0.0
9.15466832670701e6 1.2347321212689877e7 0.0
0.0 0.0 0.0

-1.7249396112168373e6 1.5299002581320975e7 0.0
1.5299002581320975e7 -7.306226972419675e6 0.0
0.0 0.0 0.0

-264143.00254945876 1.2914792644819526e7 0.0
1.2914792644819526e7 -1.2280978969563596e7 0.0
0.0 0.0 0.0

1.511760620338412e6 4.634938633118794e7 0.0
4.634938633118794e7 1.2864918789259603e6 0.0
0.0 0.0 0.0

1.1582432864680178e6 1.1235270320079753e7 0.0
1.1235270320079753e7 -3.5455601410765454e7 0.0
0.0 0.0 0.0

-1.0895074714472596e7 6.404783351313755e6 0.0
6.404783351313755e6 2.8462109048922144e7 0.0
0.0 0.0 0.0

-6.217290517034832e6 2.3895530476902794e7 0.0
2.3895530476902794e7 -1.494726250840193e7 0.0
0.0 0.0 0.0

-8.244894350757992e6 8.404357716996565e6 0.0
8.404357716996565e6 1.623355802134765e7 0.0
0.0 0.0 0.0

-1.3621833258494562e6 2.1338327055496152e7 0.0
2.1338327055496152e7 -9.138031027300822e6 0.0
0.0 0.0 0.0

-2.353174944041121e6 2.33939029320905e7 0.0
2.33939029320905e7 -1.3745513647850775e6 0.0
0.0 0.0 0.0

536974.9213925805 1.7745841691729434e7 0.0
1.7745841691729434e7 -2.4024273555829193e7 0.0
0.0 0.0 0.0

1.0463398108645781e6 4.433641271574598e7 0.0
4.433641271574598e7 894078.6518780562 0.0
0.0 0.0 0.0

-3.582345408833433e6 2.5215941418650605e7 0.0
2.5215941418650605e7 1.4566061236902498e7 0.0
0.0 0.0 0.0

-1.2344417275008955e6 2.3826887943649724e7 0.0
2.3826887943649724e7 -2.843739367456735e6 0.0
0.0 0.0 0.0

1.608384687340472e6 7.171831783846521e6 0.0
7.171831783846521e6 -3.9645470495147005e7 0.0
0.0 0.0 0.0

-3.7954519651306286e6 1.1790175241118928e7 0.0
1.1790175241118928e7 7.754925979283947e6 0.0
0.0 0.0 0.0

1.2556217379426165e6 4.276056404173065e7 0.0
4.276056404173065e7 898695.9715928012 0.0
0.0 0.0 0.0

187328.02877093107 9.576434030216403e6 0.0
9.576434030216403e6 -6.213293031853263e7 0.0
0.0 0.0 0.0

1.3061221458381373e6 4.144756964226206e7 0.0
4.144756964226206e7 721082.4813919938 0.0
0.0 0.0 0.0

1.1490356378182666e6 4.023860130572169e7 0.0
4.023860130572169e7 428559.99568872375 0.0
0.0 0.0 0.0

-1.2600231931762022e6 3.1439490770506456e7 0.0
3.1439490770506456e7 -958577.8730926153 0.0
0.0 0.0 0.0

-1.174751827022848e6 3.2227339255819272e7 0.0
3.2227339255819272e7 -800788.4171451721 0.0
0.0 0.0 0.0

-1.142369273761535e6 3.3009611673529644e7 0.0
3.3009611673529644e7 -699383.4873857251 0.0
0.0 0.0 0.0

-1.0952037590518296e6 3.375343989093312e7 0.0
3.375343989093312e7 -681963.5160479976 0.0
0.0 0.0 0.0

-1.077111543062392e6 3.450732135812947e7 0.0
3.450732135812947e7 -596049.6130624759 0.0
0.0 0.0 0.0

-1.0729146539235245e6 3.5301842063265406e7 0.0
3.5301842063265406e7 -656174.1444003382 0.0
0.0 0.0 0.0

-5.539639669543909e6 1.5924812883829651e7 0.0
1.5924812883829651e7 1.1419881738382492e7 0.0
0.0 0.0 0.0

-935167.8550233401 3.6089385424463145e7 0.0
3.6089385424463145e7 -547770.593881192 0.0
0.0 0.0 0.0

-1.0683063561721968e6 3.692722702588997e7 0.0
3.692722702588997e7 -529988.4332877663 0.0
0.0 0.0 0.0

-6.369226915361071e6 1.8610522926882986e7 0.0
1.8610522926882986e7 2.4393801245336987e7 0.0
0.0 0.0 0.0

972873.2022533802 3.915957863244886e7 0.0
3.915957863244886e7 390585.4472885857 0.0
0.0 0.0 0.0

-1.24217417132832e6 3.771015940062847e7 0.0
3.771015940062847e7 -486675.8109324806 0.0
0.0 0.0 0.0

-1.1280354441409127e6 3.868545858121571e7 0.0
3.868545858121571e7 -337036.8072246343 0.0
0.0 0.0 0.0

862338.9041293142 3.821934045777628e7 0.0
3.821934045777628e7 310486.2299398519 0.0
0.0 0.0 0.0

-1.3320241926834933e6 1.8037261579453737e7 0.0
1.8037261579453737e7 -4.28751868801646e6 0.0
0.0 0.0 0.0

-1.3842173495499e6 3.971771981206547e7 0.0
3.971771981206547e7 -388334.16604013863 0.0
0.0 0.0 0.0

489477.8798014586 3.728576832767567e7 0.0
3.728576832767567e7 77395.72990731792 0.0
0.0 0.0 0.0

715769.8287712833 3.644704434215089e7 0.0
3.644704434215089e7 90364.41751349234 0.0
0.0 0.0 0.0

438609.1915794626 3.572608914618397e7 0.0
3.572608914618397e7 20268.459495795978 0.0
0.0 0.0 0.0

167250.72819588654 3.488325963500938e7 0.0
3.488325963500938e7 -7319.2980501911225 0.0
0.0 0.0 0.0

80500.7260077626 3.41538626719845e7 0.0
3.41538626719845e7 -57985.71393527203 0.0
0.0 0.0 0.0

-179660.8768035937 3.3387705032751836e7 0.0
3.3387705032751836e7 -102526.81607229117 0.0
0.0 0.0 0.0

-207081.46542387683 3.264968901716408e7 0.0
3.264968901716408e7 -133446.77995005483 0.0
0.0 0.0 0.0

-302155.1759267111 3.1881666327380452e7 0.0
3.1881666327380452e7 -254722.03843577873 0.0
0.0 0.0 0.0

-1.3786906525201036e6 2.6649328038142838e7 0.0
2.6649328038142838e7 -4.0064609167907443e6 0.0
0.0 0.0 0.0

-4.291475156451553e6 1.920880036680514e7 0.0
1.920880036680514e7 3.360872652001761e7 0.0
0.0 0.0 0.0

-1.747066384946128e6 4.0786858174009874e7 0.0
4.0786858174009874e7 -314314.1625055289 0.0
0.0 0.0 0.0

1.9076850812390484e6 8.860285561601166e6 0.0
8.860285561601166e6 -2.6959551184306674e7 0.0
0.0 0.0 0.0

-1.7379651891125331e6 2.5925880785310965e7 0.0
2.5925880785310965e7 2.940638984658056e6 0.0
0.0 0.0 0.0

-2.289233243188876e6 4.2096724509105496e7 0.0
4.2096724509105496e7 -140892.67108937236 0.0
0.0 0.0 0.0

-9.57384800101793e6 1.4054396647050397e7 0.0
1.4054396647050397e7 2.5200856310060017e7 0.0
0.0 0.0 0.0

-3.059501055463739e6 4.360478513704135e7 0.0
4.360478513704135e7 -207870.90375711198 0.0
0.0 0.0 0.0

-1.0067944501526246e7 1.2308932424577322e7 0.0
1.2308932424577322e7 2.85306682707704e7 0.0
0.0 0.0 0.0

-4.03199665206057e6 4.528232242461317e7 0.0
4.528232242461317e7 -331017.0999718484 0.0
0.0 0.0 0.0

610248.696327501 2.119587540788483e7 0.0
2.119587540788483e7 -1.822435534723652e7 0.0
0.0 0.0 0.0

1.9988094883419173e6 1.2150457465932624e7 0.0
1.2150457465932624e7 -2.1464804336125445e7 0.0
0.0 0.0 0.0

-2.0101878134176657e6 1.5494345099402323e7 0.0
1.5494345099402323e7 -4.1443977753496215e7 0.0
0.0 0.0 0.0

-1.4497038812291753e6 2.342182887763076e7 0.0
2.342182887763076e7 -1.727155353655559e6 0.0
0.0 0.0 0.0

-1.235901262216047e6 1.7945330159931425e7 0.0
1.7945330159931425e7 -1.048598813884271e7 0.0
0.0 0.0 0.0

-1.120496597756965e6 2.5229043910739504e7 0.0
2.5229043910739504e7 -6.539007033234994e6 0.0
0.0 0.0 0.0

591810.0622384865 2.143517322254989e7 0.0
2.143517322254989e7 -1.8219068674112376e7 0.0
0.0 0.0 0.0

2.9365761824959945e6 1.8058314896106268e6 0.0
1.8058314896106268e6 -3.356307958952597e7 0.0
0.0 0.0 0.0

-3.2260710450862176e6 1.496677794726784e7 0.0
1.496677794726784e7 7.288372905595886e6 0.0
0.0 0.0 0.0

-5.089063805913968e6 4.737193142495997e7 0.0
4.737193142495997e7 -12017.806072573178 0.0
0.0 0.0 0.0

1.6997602137243366e6 1.3143541220285384e7 0.0
1.3143541220285384e7 -1.7935286497378968e7 0.0
0.0 0.0 0.0

-9.653987887893986e6 1.2527062393543214e7 0.0
1.2527062393543214e7 3.1741481051060416e7 0.0
0.0 0.0 0.0

-1.4154860927080414e6 2.0476588615764078e7 0.0
2.0476588615764078e7 -3.6765711520728045e6 0.0
0.0 0.0 0.0

1.0659142350822077e6 3.464877248957775e7 0.0
3.464877248957775e7 -1.6637591359289128e6 0.0
0.0 0.0 0.0

2.0195118567352518e6 7.990688611680951e6 0.0
7.990688611680951e6 -2.8433796817591727e7 0.0
0.0 0.0 0.0

-1.3799433129968822e7 4.121221727050541e7 0.0
4.121221727050541e7 4.961639736118807e6 0.0
0.0 0.0 0.0

-4.939167046007295e6 1.783604684212537e7 0.0
1.783604684212537e7 1.263106216503582e7 0.0
0.0 0.0 0.0

-1.8494977400771774e7 3.0062326052922413e7 0.0
3.0062326052922413e7 3.15972850155152e6 0.0
0.0 0.0 0.0

3.27877652080257e6 2.0766762306439314e7 0.0
2.0766762306439314e7 1.7150056523588687e7 0.0
0.0 0.0 0.0

-7.482236807141005e6 5.028762452797696e7 0.0
5.028762452797696e7 191180.3108758647 0.0
0.0 0.0 0.0

876832.4288347587 1.270983606635027e7 0.0
1.270983606635027e7 -3.409911235638882e7 0.0
0.0 0.0 0.0

-3.973913540714999e6 1.7645844476604123e7 0.0
1.7645844476604123e7 7.462326390929483e6 0.0
0.0 0.0 0.0

1.615380500330742e6 2.000240735414394e7 0.0
2.000240735414394e7 5.384602139360351e6 0.0
0.0 0.0 0.0

1.685736988945065e6 9.93809679299943e6 0.0
9.93809679299943e6 -2.3356041183488995e7 0.0
0.0 0.0 0.0

1.4986632306973808e6 2.30775571100049e7 0.0
2.30775571100049e7 4.861743365533152e6 0.0
0.0 0.0 0.0

1.8049988269169014e6 9.731463910236884e6 0.0
9.731463910236884e6 -2.5535048882537406e7 0.0
0.0 0.0 0.0

-145624.6291873809 1.8669264193665013e7 0.0
1.8669264193665013e7 -3.2409920390176987e6 0.0
0.0 0.0 0.0

-1.5504123827340852e6 2.403154462288693e7 0.0
2.403154462288693e7 -397516.1814384277 0.0
0.0 0.0 0.0

-1.9816455353115043e6 2.4257828725807548e7 0.0
2.4257828725807548e7 -3.557131308021209e6 0.0
0.0 0.0 0.0

1.3425531648888206e6 1.04026279955585e7 0.0
1.04026279955585e7 -1.877585174388285e7 0.0
0.0 0.0 0.0

3.054319648821328e7 2.5925335300474677e7 0.0
2.5925335300474677e7 1.1603614294678908e7 0.0
0.0 0.0 0.0

1.3777651356405132e6 1.4351145630843977e7 0.0
1.4351145630843977e7 -1.747605070155553e7 0.0
0.0 0.0 0.0

-543197.9842373761 1.8251516695216637e7 0.0
1.8251516695216637e7 -8.261035036043986e6 0.0
0.0 0.0 0.0

-5.820165515050685e6 2.5748308210066292e7 0.0
2.5748308210066292e7 7.195327463223205e6 0.0
0.0 0.0 0.0

477585.2189222537 1.3159143367991524e7 0.0
1.3159143367991524e7 -9.953428146536108e6 0.0
0.0 0.0 0.0

-3.8031184236955205e6 2.603103055203467e7 0.0
2.603103055203467e7 1.2881244421703655e7 0.0
0.0 0.0 0.0

6.088808241791287e6 1.958268901379363e7 0.0
1.958268901379363e7 3.1006014353561778e7 0.0
0.0 0.0 0.0

-7.891673515176083e6 1.522280726702149e7 0.0
1.522280726702149e7 2.147248287305815e7 0.0
0.0 0.0 0.0

-1.1064414234931866e7 5.3634082471192054e7 0.0
5.3634082471192054e7 -232020.66728740046 0.0
0.0 0.0 0.0

3.0179225219233874e6 1.968355490949633e7 0.0
1.968355490949633e7 4.991845555355734e7 0.0
0.0 0.0 0.0

-2.984204200593223e6 1.8277820374856826e7 0.0
1.8277820374856826e7 -788068.6896793854 0.0
0.0 0.0 0.0

1.345512223032906e7 2.3116253325259715e7 0.0
2.3116253325259715e7 4.850109156272788e6 0.0
0.0 0.0 0.0

2.0918518520726897e6 7.393290645435906e6 0.0
7.393290645435906e6 -3.2207268634686027e7 0.0
0.0 0.0 0.0

74159.0288070254 1.2993754895836951e7 0.0
1.2993754895836951e7 -3.906730873752261e7 0.0
0.0 0.0 0.0

-3.9088632390000587e6 2.1138344851291157e7 0.0
2.1138344851291157e7 1.3996823248915887e7 0.0
0.0 0.0 0.0

-1.7088899299145572e7 2.842237176294498e7 0.0
2.842237176294498e7 -1.2777303959668487e7 0.0
0.0 0.0 0.0

-2.037820016824138e6 2.0812380004262157e7 0.0
2.0812380004262157e7 1.868559314172199e6 0.0
0.0 0.0 0.0

-296643.1692586653 1.8530785309178572e7 0.0
1.8530785309178572e7 -1.4605435983518224e7 0.0
0.0 0.0 0.0

-1.8136072369745754e7 3.916553989209543e7 0.0
3.916553989209543e7 6.316569515874874e6 0.0
0.0 0.0 0.0

1.171240327594514e6 1.317815225398123e7 0.0
1.317815225398123e7 -2.304070113386564e7 0.0
0.0 0.0 0.0

-1.9559534591559018e6 2.1957816148175016e7 0.0
2.1957816148175016e7 1.9098919434654687e6 0.0
0.0 0.0 0.0

-4.7390624144430235e6 1.057864579666281e7 0.0
1.057864579666281e7 1.0054099416638758e7 0.0
0.0 0.0 0.0

-2.5828587199662626e6 2.080776416135828e7 0.0
2.080776416135828e7 1.2129355070900485e7 0.0
0.0 0.0 0.0

-3.343466027627172e6 8.295338284830907e7 0.0
8.295338284830907e7 3.574636154484247e6 0.0
0.0 0.0 0.0

-6.564394210987817e6 1.592781119851646e7 0.0
1.592781119851646e7 1.9800865163169634e7 0.0
0.0 0.0 0.0

-5.14412756718183e6 7.998577977852523e6 0.0
7.998577977852523e6 3.9889852462096554e6 0.0
0.0 0.0 0.0

-1.2150656653335756e6 2.5527010389928713e7 0.0
2.5527010389928713e7 -1.3092233492782987e6 0.0
0.0 0.0 0.0

-2.533173781245337e6 2.5241482951909866e7 0.0
2.5241482951909866e7 4.566597009046228e6 0.0
0.0 0.0 0.0

-217572.8991860384 2.2340573761107102e7 0.0
2.2340573761107102e7 -8.984506673079845e6 0.0
0.0 0.0 0.0

-2.056780537971838e6 2.492054490703348e7 0.0
2.492054490703348e7 -2.2463708769485904e6 0.0
0.0 0.0 0.0

-1.0120341296572644e7 3.029703728792399e6 0.0
3.029703728792399e6 1.8637559737177085e7 0.0
0.0 0.0 0.0

-89477.58534082957 2.106777344577025e7 0.0
2.106777344577025e7 -4.648759092244789e6 0.0
0.0 0.0 0.0

-2.624983952383614e6 2.6209561936904654e7 0.0
2.6209561936904654e7 4.575106436820461e6 0.0
0.0 0.0 0.0

677284.1569864005 1.197150391892506e7 0.0
1.197150391892506e7 -1.6112850114691438e7 0.0
0.0 0.0 0.0

901350.2322844146 2.157193664305716e7 0.0
2.157193664305716e7 -3.3613629914338957e6 0.0
0.0 0.0 0.0

-2.1843767312838886e7 2.8805966779117033e7 0.0
2.8805966779117033e7 469127.2727066912 0.0
0.0 0.0 0.0

-5.129111966354103e6 1.6619437727010656e7 0.0
1.6619437727010656e7 1.781037399281577e7 0.0
0.0 0.0 0.0

512689.39541639015 2.053738982208723e7 0.0
2.053738982208723e7 -1.9672165662450753e7 0.0
0.0 0.0 0.0

-2.9075640812852685e6 2.6648057483150695e7 0.0
2.6648057483150695e7 6.869806323363502e6 0.0
0.0 0.0 0.0

3.279219090491052e6 2.401798076756556e6 0.0
2.401798076756556e6 -1.7561210841902122e7 0.0
0.0 0.0 0.0

-5.633575836852907e6 -4.285695369911731e6 0.0
-4.285695369911731e6 9.285856692604579e6 0.0
0.0 0.0 0.0

-3.9098732341477377e6 -3.2046965662972713e6 0.0
-3.2046965662972713e6 6.398725079111248e6 0.0
0.0 0.0 0.0

-8.209084330512332e6 -2.9434728789475807e6 0.0
-2.9434728789475807e6 3.2510032362826113e7 0.0
0.0 0.0 0.0

-2.9430460751388827e6 -1.005343561107017e6 0.0
-1.005343561107017e6 3.0438713251648373e6 0.0
0.0 0.0 0.0

-8.25127377167408e6 -3.2768145712547055e6 0.0
-3.2768145712547055e6 2.986215040722026e7 0.0
0.0 0.0 0.0

3.361725037606487e6 2.5958016289819456e6 0.0
2.5958016289819456e6 -1.3376411505962014e7 0.0
0.0 0.0 0.0

-7.007058300882627e6 -5.306006602138768e6 0.0
-5.306006602138768e6 1.6347736777347662e7 0.0
0.0 0.0 0.0

-8.362794590731207e6 -4.582194003235121e6 0.0
-4.582194003235121e6 2.255514982522499e7 0.0
0.0 0.0 0.0

-842941.8700078698 1.092179469459806e6 0.0
1.092179469459806e6 -356239.1542218056 0.0
0.0 0.0 0.0

-8.387344429579107e6 -3.672250275837818e6 0.0
-3.672250275837818e6 2.7149976416308966e7 0.0
0.0 0.0 0.0

2.7264340130742774e6 2.751686745105049e6 0.0
2.751686745105049e6 -9.074440364929596e6 0.0
0.0 0.0 0.0

1.5177578088944538e6 2.572824344646728e6 0.0
2.572824344646728e6 -4.80314508673143e6 0.0
0.0 0.0 0.0

-5.763143582017474e6 -4.914244991680748e6 0.0
-4.914244991680748e6 1.1389526023738766e7 0.0
0.0 0.0 0.0

3.1232987952428814e6 1.8760117618992948e6 0.0
1.8760117618992948e6 -3.0063017919972025e7 0.0
0.0 0.0 0.0

3.111338506946804e6 1.792886986292967e6 0.0
1.792886986292967e6 -3.269271922652544e7 0.0
0.0 0.0 0.0

3.2403221375883278e6 1.9020079448407723e6 0.0
1.9020079448407723e6 -2.739239252741672e7 0.0
0.0 0.0 0.0

3.576957735551793e6 2.171613294758391e6 0.0
2.171613294758391e6 -2.3273442844766594e7 0.0
0.0 0.0 0.0

-7.028853243655678e6 -5.204402136958187e6 0.0
-5.204402136958187e6 1.4393642027843725e7 0.0
0.0 0.0 0.0

-8.174636395408658e6 -3.441347586895425e6 0.0
-3.441347586895425e6 2.8392937643385045e7 0.0
0.0 0.0 0.0

3.11441246885005e6 1.8864451816876759e6 0.0
1.8864451816876759e6 -3.1499919570161205e7 0.0
0.0 0.0 0.0

3.254652758840914e6 2.3018570470237206e6 0.0
2.3018570470237206e6 -2.0445382938150555e7 0.0
0.0 0.0 0.0

3.392992170174919e6 2.2567723310459647e6 0.0
2.2567723310459647e6 -2.1835329938209657e7 0.0
0.0 0.0 0.0

3.458854954924076e6 2.3295103184650023e6 0.0
2.3295103184650023e6 -1.9098451591070153e7 0.0
0.0 0.0 0.0

1.0269278460212369e6 1.8717084882555537e7 0.0
1.8717084882555537e7 -1.7672465602040917e7 0.0
0.0 0.0 0.0

-8.801006560684018e6 1.5014076647353955e7 0.0
1.5014076647353955e7 2.396525364217909e7 0.0
0.0 0.0 0.0

-1.056210846098899e7 9.596883454551639e6 0.0
9.596883454551639e6 3.138998980684e7 0.0
0.0 0.0 0.0

-3.893692455143008e6 2.691265148572227e7 0.0
2.691265148572227e7 1.1459698135212943e7 0.0
0.0 0.0 0.0

-1.75394849726946e6 1.864775149760567e7 0.0
1.864775149760567e7 -2.8406599296561513e7 0.0
0.0 0.0 0.0

-2.8896860850378247e6 2.2033237356642716e7 0.0
2.2033237356642716e7 4.925684400376558e6 0.0
0.0 0.0 0.0

-1.680663790462251e7 5.852388613753804e7 0.0
5.852388613753804e7 -637415.6668894608 0.0
0.0 0.0 0.0

-2.8730084403449693e6 1.9519698437660165e7 0.0
1.9519698437660165e7 -633404.0545451812 0.0
0.0 0.0 0.0

-5.774715472175221e6 2.256352037074851e7 0.0
2.256352037074851e7 -1.7160931664295524e7 0.0
0.0 0.0 0.0

1.23240161374573e7 2.543437095781881e7 0.0
2.543437095781881e7 1.353291770669182e7 0.0
0.0 0.0 0.0

-2.8554091962303366e6 2.3394387401549507e7 0.0
2.3394387401549507e7 9.81021646722361e6 0.0
0.0 0.0 0.0

-2.40407949929487e6 2.195669135082627e7 0.0
2.195669135082627e7 1.1562111148426037e7 0.0
0.0 0.0 0.0

1.2135246057184935e6 2.347319537401566e7 0.0
2.347319537401566e7 -1.3999923417720268e7 0.0
0.0 0.0 0.0

-2.972777951365292e6 1.9992902449645653e7 0.0
1.9992902449645653e7 1.4078897383217536e7 0.0
0.0 0.0 0.0

-2.0748621156091017e6 2.556404886273726e7 0.0
2.556404886273726e7 -1.072033139645626e6 0.0
0.0 0.0 0.0

-1.8698652153011719e6 2.356865408963874e7 0.0
2.356865408963874e7 -4.900904549824418e6 0.0
0.0 0.0 0.0

-5.797210063527927e6 1.6460377955361644e7 0.0
1.6460377955361644e7 1.3280995129539102e7 0.0
0.0 0.0 0.0

-874648.9026277452 1.721765706378792e7 0.0
1.721765706378792e7 -1.1970258503045127e7 0.0
0.0 0.0 0.0

-2.180585276256391e6 2.0244560281053916e7 0.0
2.0244560281053916e7 3.316923744178527e6 0.0
0.0 0.0 0.0

1.0315629517445648e6 1.1198160720953029e7 0.0
1.1198160720953029e7 -1.7425624364566892e7 0.0
0.0 0.0 0.0

-5.264018862857759e6 -4.598483926136231e6 0.0
-4.598483926136231e6 1.2132928029735606e7 0.0
0.0 0.0 0.0

-4.207894384775991e6 -3.424462311715888e6 0.0
-3.424462311715888e6 1.0022669486637473e7 0.0
0.0 0.0 0.0

-8.434902849768475e6 -3.643979649089703e6 0.0
-3.643979649089703e6 2.687112051651684e7 0.0
0.0 0.0 0.0

-6.1646762275133645e6 -4.736148788906252e6 0.0
-4.736148788906252e6 1.4210643982776372e7 0.0
0.0 0.0 0.0

-6.959777807999162e6 -5.310456868410715e6 0.0
-5.310456868410715e6 1.5748232481718123e7 0.0
0.0 0.0 0.0

3.0510480905116796e6 1.8307783533461927e6 0.0
1.8307783533461927e6 -3.025885087881832e7 0.0
0.0 0.0 0.0

2.9814467751613967e6 1.7834469431193927e6 0.0
1.7834469431193927e6 -3.1341247915850278e7 0.0
0.0 0.0 0.0

-8.2725184445049595e6 -3.3865836178212585e6 0.0
-3.3865836178212585e6 2.8543080835841145e7 0.0
0.0 0.0 0.0

3.30782370467465e6 2.2184202944775177e6 0.0
2.2184202944775177e6 -2.2430538185766883e7 0.0
0.0 0.0 0.0

3.425974984873333e6 2.452593670595065e6 0.0
2.452593670595065e6 -1.7912818033423014e7 0.0
0.0 0.0 0.0

3.3458162184636863e6 2.3346705370649784e6 0.0
2.3346705370649784e6 -2.054020307257457e7 0.0
0.0 0.0 0.0

3.410843369014863e6 2.296849283974799e6 0.0
2.296849283974799e6 -1.9195497342946257e7 0.0
0.0 0.0 0.0

-3.2576213731336026e6 1.8396615582269438e7 0.0
1.8396615582269438e7 2.3497041053843545e6 0.0
0.0 0.0 0.0

-4.27472575323008e6 1.971417637104624e7 0.0
1.971417637104624e7 3.1552146933169685e7 0.0
0.0 0.0 0.0

-3.7663817587138982e6 1.9610328374774788e7 0.0
1.9610328374774788e7 1.7362314644113332e7 0.0
0.0 0.0 0.0

3.0943672119463272e6 6.048881588220645e6 0.0
6.048881588220645e6 -2.6343574883982133e7 0.0
0.0 0.0 0.0

71446.34176407894 2.8485952560232718e7 0.0
2.8485952560232718e7 -5.603887926760632e6 0.0
0.0 0.0 0.0

137997.46753778122 2.2008486786554083e7 0.0
2.2008486786554083e7 2.4738264908471286e7 0.0
0.0 0.0 0.0

-8.783389807465991e6 1.6705335532217e7 0.0
1.6705335532217e7 2.6126691247444768e7 0.0
0.0 0.0 0.0

1.5016972645921158e6 1.0756557122026384e7 0.0
1.0756557122026384e7 -2.1952186204120558e7 0.0
0.0 0.0 0.0

1.158527042004371e6 1.3687868647365116e7 0.0
1.3687868647365116e7 -2.3666072620699853e7 0.0
0.0 0.0 0.0

-1.9860184108199056e6 2.2486027345085178e7 0.0
2.2486027345085178e7 -5.224142557346524e6 0.0
0.0 0.0 0.0

-664232.0040877573 2.1570937269407522e7 0.0
2.1570937269407522e7 2.7630792805518765e7 0.0
0.0 0.0 0.0

-3.520802565198821e6 1.3468067648038799e7 0.0
1.3468067648038799e7 7.514120946368157e6 0.0
0.0 0.0 0.0

-371726.1973052928 2.3093780592376597e7 0.0
2.3093780592376597e7 -7.629896733396188e6 0.0
0.0 0.0 0.0

-1.1095103215410025e6 2.8076426886361737e7 0.0
2.8076426886361737e7 136085.2343076371 0.0
0.0 0.0 0.0

1.0386847440821435e6 1.5499622179408569e7 0.0
1.5499622179408569e7 -1.719852185115798e7 0.0
0.0 0.0 0.0

-1.3510569473906239e6 2.44807411885022e7 0.0
2.44807411885022e7 -1.5107940025014216e6 0.0
0.0 0.0 0.0

3.4553838721925877e6 4.8758314388819905e6 0.0
4.8758314388819905e6 699236.6680220441 0.0
0.0 0.0 0.0

-1.1795463692627996e6 2.1934788019642223e7 0.0
2.1934788019642223e7 2.589423635994126e7 0.0
0.0 0.0 0.0

129761.87193587236 1.1655229677597826e7 0.0
1.1655229677597826e7 -4.654018234805035e7 0.0
0.0 0.0 0.0

542511.6307201423 1.2778168831705173e7 0.0
1.2778168831705173e7 -3.6565115333662815e7 0.0
0.0 0.0 0.0

-446625.1716545946 2.2017817555249702e7 0.0
2.2017817555249702e7 -8.0536234471843755e6 0.0
0.0 0.0 0.0

-1.0884863870686125e7 2.756058156229277e7 0.0
2.756058156229277e7 5.135451387909098e6 0.0
0.0 0.0 0.0

2.655244569210577e6 6.9684885237066215e6 0.0
6.9684885237066215e6 -1.3590438630413001e7 0.0
0.0 0.0 0.0

-2.1246386308046915e6 1.963673217000347e7 0.0
1.963673217000347e7 1.8368010478847744e6 0.0
0.0 0.0 0.0

-2.1942468845900437e6 2.385754773681116e7 0.0
2.385754773681116e7 -2.471311328172108e6 0.0
0.0 0.0 0.0

-1.1039630077919988e6 2.488630765996348e7 0.0
2.488630765996348e7 -2.585165919114217e6 0.0
0.0 0.0 0.0

-2.157091532496092e6 1.8673170852529105e7 0.0
1.8673170852529105e7 -3.1212582700387828e7 0.0
0.0 0.0 0.0

1.0188060790494289e6 1.3404763217423668e7 0.0
1.3404763217423668e7 -3.013308677996984e7 0.0
0.0 0.0 0.0

-4.716760201145966e6 1.4240147914878227e7 0.0
1.4240147914878227e7 6.180918568006394e6 0.0
0.0 0.0 0.0

-3.8153488309615217e6 2.0751370928306773e7 0.0
2.0751370928306773e7 1.2749973194780724e7 0.0
0.0 0.0 0.0

-333518.93684705347 1.6798021988656715e7 0.0
1.6798021988656715e7 -3.1951544563606802e7 0.0
0.0 0.0 0.0

-228826.7115448087 2.5865957246483784e7 0.0
2.5865957246483784e7 -5.549565954819641e6 0.0
0.0 0.0 0.0

2.051592221691954e6 2.628606287100764e6 0.0
2.628606287100764e6 -6.291721744466005e6 0.0
0.0 0.0 0.0

7.995016456799312e6 3.746030467021198e7 0.0
3.746030467021198e7 -3.927591750806661e6 0.0
0.0 0.0 0.0

2.2794068671177747e6 7.916383185207562e6 0.0
7.916383185207562e6 -1.2392354155378435e7 0.0
0.0 0.0 0.0

-1.1908800367826156e6 1.6756916224109251e7 0.0
1.6756916224109251e7 -4.592417833476377e6 0.0
0.0 0.0 0.0

-3.560009723744222e6 2.3851832794964746e7 0.0
2.3851832794964746e7 1.4450400241957419e7 0.0
0.0 0.0 0.0

-2.4955387544238428e6 1.645021291958159e7 0.0
1.645021291958159e7 3.4680720695008403e6 0.0
0.0 0.0 0.0

-2.7673942125912826e6 1.87926306021865e7 0.0
1.87926306021865e7 -2.2022401951442687e6 0.0
0.0 0.0 0.0

-2.251566010046409e6 2.447396496613339e7 0.0
2.447396496613339e7 -1.1682611353208367e6 0.0
0.0 0.0 0.0

-5.251148885841915e6 1.265981547685011e7 0.0
1.265981547685011e7 6.2778555683344025e6 0.0
0.0 0.0 0.0

-9.597403456336346e6 816178.8189809612 0.0
816178.8189809612 1.7820538439202785e7 0.0
0.0 0.0 0.0

-2.8618060889967373e6 1.9594878803543206e7 0.0
1.9594878803543206e7 1.2733851334177783e7 0.0
0.0 0.0 0.0

-2.1750287766523617e6 2.1909254939532336e7 0.0
2.1909254939532336e7 7.322628947919698e6 0.0
0.0 0.0 0.0

5153.7230944824405 7.904907340362917e6 0.0
7.904907340362917e6 -7.981925997758532e6 0.0
0.0 0.0 0.0

-4.100713642097125e6 1.748880190796104e7 0.0
1.748880190796104e7 1.5563825924547078e7 0.0
0.0 0.0 0.0

-1.831425667447552e6 2.531789400740349e7 0.0
2.531789400740349e7 -3.310607227563462e6 0.0
0.0 0.0 0.0

2.2987197814545184e6 1.0063897631735427e7 0.0
1.0063897631735427e7 -3.1834565598726552e7 0.0
0.0 0.0 0.0

-9.997675491938233e6 2.7866214865368806e7 0.0
2.7866214865368806e7 4.308868930943642e6 0.0
0.0 0.0 0.0

-2.077783863201651e6 2.1362858608308848e7 0.0
2.1362858608308848e7 -5.571001169948546e6 0.0
0.0 0.0 0.0

1.7825519011991206e6 2.7141784389517303e6 0.0
2.7141784389517303e6 -5.215834425925064e6 0.0
0.0 0.0 0.0

-4.499960143021798e6 2.9466101668730352e7 0.0
2.9466101668730352e7 7.755369032045193e6 0.0
0.0 0.0 0.0

-1.1085780528534343e7 1.2154088688822376e7 0.0
1.2154088688822376e7 2.263060485567746e7 0.0
0.0 0.0 0.0

-2.495851473712055e6 2.049200319031062e7 0.0
2.049200319031062e7 -3.2739405217006127e6 0.0
0.0 0.0 0.0

-813296.3799341464 2.6883591354882512e7 0.0
2.6883591354882512e7 -2.1886661597118652e6 0.0
0.0 0.0 0.0

-1.9068547549623873e6 2.7585429852880564e7 0.0
2.7585429852880564e7 -704253.0206027045 0.0
0.0 0.0 0.0

-1.7302710768786361e6 2.4628721150191873e7 0.0
2.4628721150191873e7 -4.60626915337229e6 0.0
0.0 0.0 0.0

-1.6365171097538034e6 2.458990031297702e7 0.0
2.458990031297702e7 854635.7100804896 0.0
0.0 0.0 0.0

2.9503388444892876e6 2.687020469072232e6 0.0
2.687020469072232e6 -1.046081243753131e7 0.0
0.0 0.0 0.0

874636.3072849647 3.0803970971789535e7 0.0
3.0803970971789535e7 -4.821581877840931e6 0.0
0.0 0.0 0.0

-1.9125597506714653e7 2.0434269508669388e7 0.0
2.0434269508669388e7 -8.144968625225565e7 0.0
0.0 0.0 0.0

1.88921583634131e7 2.1351901384006813e7 0.0
2.1351901384006813e7 7.880565145232695e7 0.0
0.0 0.0 0.0

712878.4155718954 1.691102033200617e7 0.0
1.691102033200617e7 -2.235977397931453e7 0.0
0.0 0.0 0.0

-599370.226504267 2.382068400684994e7 0.0
2.382068400684994e7 -6.271939699294607e6 0.0
0.0 0.0 0.0

-5.347173066396529e6 1.8697557697481774e7 0.0
1.8697557697481774e7 -2.4842247036074124e7 0.0
0.0 0.0 0.0

-2.1179672809311072e6 2.0206370804725643e7 0.0
2.0206370804725643e7 -5.947795412799542e6 0.0
0.0 0.0 0.0

1.51522084322296e6 2.363827559896176e7 0.0
2.363827559896176e7 -1.426680646897536e7 0.0
0.0 0.0 0.0

-1.5941776224501962e6 1.8699776935557116e7 0.0
1.8699776935557116e7 -8.976397705777248e6 0.0
0.0 0.0 0.0

-2.3440381044826256e6 2.403997544804052e7 0.0
2.403997544804052e7 -60568.680873707635 0.0
0.0 0.0 0.0

134033.8689782545 1.017491001968432e7 0.0
1.017491001968432e7 -5.814490794090031e7 0.0
0.0 0.0 0.0

-1.0587942895351693e7 2.6235873683420334e7 0.0
2.6235873683420334e7 3.4839487145538433e6 0.0
0.0 0.0 0.0

-2.7608790260511176e6 2.4025589682915647e7 0.0
2.4025589682915647e7 7.299370425279705e6 0.0
0.0 0.0 0.0

-900685.2793979803 1.899701761485672e7 0.0
1.899701761485672e7 -6.738779272103524e6 0.0
0.0 0.0 0.0

988645.382112965 1.4145599083966725e7 0.0
1.4145599083966725e7 -2.8428878205842484e7 0.0
0.0 0.0 0.0

1.8304031557672754e7 2.2301592687735107e7 0.0
2.2301592687735107e7 6.1013438311557226e7 0.0
0.0 0.0 0.0

351380.6797024347 2.434043592916052e7 0.0
2.434043592916052e7 -9.789401576933064e6 0.0
0.0 0.0 0.0

-2.863631755171165e7 6.629802741040303e7 0.0
6.629802741040303e7 -186765.38697656803 0.0
0.0 0.0 0.0

781813.4396861354 1.6193179125834707e7 0.0
1.6193179125834707e7 -2.3820175954881627e7 0.0
0.0 0.0 0.0

-983354.5982220053 2.4207410332537558e7 0.0
2.4207410332537558e7 -3.910263077038002e6 0.0
0.0 0.0 0.0

2.757222438502961e6 2.7478890067428797e6 0.0
2.7478890067428797e6 -9.60815226788878e6 0.0
0.0 0.0 0.0

1.9128150302708633e6 8.78932826233635e6 0.0
8.78932826233635e6 -3.1226998652631383e7 0.0
0.0 0.0 0.0

-1.1874541627344177e6 2.713222458034653e7 0.0
2.713222458034653e7 30799.37412450323 0.0
0.0 0.0 0.0

-8.85224835321604e6 1.9220049256968495e7 0.0
1.9220049256968495e7 -4.7193030308296494e7 0.0
0.0 0.0 0.0

-1.1831045746913361e6 1.9745623283825424e7 0.0
1.9745623283825424e7 -5.197109885199664e6 0.0
0.0 0.0 0.0

1.0208561156818233e6 1.35166307256057e7 0.0
1.35166307256057e7 -1.3530351712175066e7 0.0
0.0 0.0 0.0

-2.6867460793842445e6 1.768855749534417e7 0.0
1.768855749534417e7 6.786972433405213e6 0.0
0.0 0.0 0.0

925452.6455271579 1.5528948607230922e7 0.0
1.5528948607230922e7 -2.5357475703626763e7 0.0
0.0 0.0 0.0

-3.884445595482527e6 1.7063858094575085e7 0.0
1.7063858094575085e7 5.829832721869621e6 0.0
0.0 0.0 0.0

428407.2951071542 1.990012136828646e7 0.0
1.990012136828646e7 -2.115159434876663e7 0.0
0.0 0.0 0.0

-2.8151263293243326e7 3.22638420160627e7 0.0
3.22638420160627e7 -1.3299418907433217e7 0.0
0.0 0.0 0.0

-7.80000172126168e6 -5.156968300211397e6 0.0
-5.156968300211397e6 1.8718374342529487e7 0.0
0.0 0.0 0.0

-3.1273809397765985e6 1.74152953635315e7 0.0
1.74152953635315e7 1.035723376133033e7 0.0
0.0 0.0 0.0

-1.4363291534581257e6 2.507462336535152e7 0.0
2.507462336535152e7 -214752.9849076039 0.0
0.0 0.0 0.0

-6.719975772725917e6 2.3604441745458306e6 0.0
2.3604441745458306e6 5.379834354549624e7 0.0
0.0 0.0 0.0

1.3335342847563494e6 2.1909436254348062e7 0.0
2.1909436254348062e7 1.6344531892679824e7 0.0
0.0 0.0 0.0

-1.8865502421279913e6 1.9449703245035563e7 0.0
1.9449703245035563e7 -7.469446443360444e6 0.0
0.0 0.0 0.0

1.1052181514720991e6 2.3506670126050863e7 0.0
2.3506670126050863e7 -1.3188051957710875e7 0.0
0.0 0.0 0.0

-824418.973873212 2.091090011357721e7 0.0
2.091090011357721e7 -1.1376486023048727e7 0.0
0.0 0.0 0.0

-1.5455050517305362e6 1.575474955697395e7 0.0
1.575474955697395e7 -8.647014098394144e6 0.0
0.0 0.0 0.0

-1.4728818261516832e6 2.3171805823739648e7 0.0
2.3171805823739648e7 -7.288490953151018e6 0.0
0.0 0.0 0.0

-3.214040896043687e6 2.0725634425062712e7 0.0
2.0725634425062712e7 1.6516460891497474e7 0.0
0.0 0.0 0.0

-2.058102186873841e6 2.1390133932994705e7 0.0
2.1390133932994705e7 3.27866398829836e6 0.0
0.0 0.0 0.0

-2.6906362512007914e6 2.001866563293671e7 0.0
2.001866563293671e7 -2.010196826349386e6 0.0
0.0 0.0 0.0

1.8218200314828586e6 8.666911994137783e6 0.0
8.666911994137783e6 -4.0388061613496974e7 0.0
0.0 0.0 0.0

-5.711558024775427e6 3.011945542668507e7 0.0
3.011945542668507e7 7.927898436522406e6 0.0
0.0 0.0 0.0

-7.214061300036216e6 2.1785491562246163e6 0.0
2.1785491562246163e6 1.26413011173107e7 0.0
0.0 0.0 0.0

-3.090247290118753e6 2.0368451254160415e7 0.0
2.0368451254160415e7 1.5341781929040506e7 0.0
0.0 0.0 0.0

558273.0782170002 1.372343416227258e7 0.0
1.372343416227258e7 -1.1088830795079997e7 0.0
0.0 0.0 0.0

2.981206620966807e6 3.443803720675025e6 0.0
3.443803720675025e6 -2.4780312534756627e7 0.0
0.0 0.0 0.0

946001.8229315951 1.4797077910264265e7 0.0
1.4797077910264265e7 -2.69712522343185e7 0.0
0.0 0.0 0.0

-6.300985772618646e6 8.696890721222017e6 0.0
8.696890721222017e6 6.237652806896515e6 0.0
0.0 0.0 0.0

-8.573897056225164e6 1.602271133546264e7 0.0
1.602271133546264e7 3.16949678051316e7 0.0
0.0 0.0 0.0

-1.8366345667005912e6 2.1756235637457907e7 0.0
2.1756235637457907e7 -6.652498908453154e6 0.0
0.0 0.0 0.0

-7.497196527314842e6 -5.107975462386535e6 0.0
-5.107975462386535e6 1.776503223731685e7 0.0
0.0 0.0 0.0

-4.277499354412082e6 1.5698300185675882e7 0.0
1.5698300185675882e7 6.0190850158063825e6 0.0
0.0 0.0 0.0

1.1109244306553882e6 2.4250126022057205e7 0.0
2.4250126022057205e7 -1.1828862011892855e7 0.0
0.0 0.0 0.0

-3.0379899125366984e6 2.0846527461090975e7 0.0
2.0846527461090975e7 -2.226102710775391e7 0.0
0.0 0.0 0.0

729296.1074496806 1.3643961820907922e7 0.0
1.3643961820907922e7 -1.8770659744960174e7 0.0
0.0 0.0 0.0

-825778.9516988448 1.0776173867718033e7 0.0
1.0776173867718033e7 -7.588961050768684e6 0.0
0.0 0.0 0.0

-1.2045652514501794e6 2.0918039001617752e7 0.0
2.0918039001617752e7 -4.84454662605575e6 0.0
0.0 0.0 0.0

-1.710984653587304e6 2.064400649321737e7 0.0
2.064400649321737e7 2.998290445882657e7 0.0
0.0 0.0 0.0

-1.6812032919215008e6 2.7888349907768175e7 0.0
2.7888349907768175e7 -1.6910216082044253e6 0.0
0.0 0.0 0.0

-5.150687929757947e6 2.141795860612297e7 0.0
2.141795860612297e7 2.2599866653880615e7 0.0
0.0 0.0 0.0

-2.502701484266077e6 2.3697971267929204e7 0.0
2.3697971267929204e7 1.308972244164603e7 0.0
0.0 0.0 0.0

-166516.60152658029 1.2239316912400061e7 0.0
1.2239316912400061e7 -1.1104225919477902e7 0.0
0.0 0.0 0.0

-2.946442960685415e6 1.6365356834912067e7 0.0
1.6365356834912067e7 7.041273119008387e6 0.0
0.0 0.0 0.0

554556.4602388665 2.1635514070732314e7 0.0
2.1635514070732314e7 1.6472593750489883e7 0.0
0.0 0.0 0.0

-1.933121286292601e6 1.6536543479682952e7 0.0
1.6536543479682952e7 -7.046350146524148e6 0.0
0.0 0.0 0.0

-280066.052195834 1.714324002680003e7 0.0
1.714324002680003e7 -2.953934771470627e7 0.0
0.0 0.0 0.0

-1.1745039433810737e6 2.204855383598649e7 0.0
2.204855383598649e7 -4.505926035650444e6 0.0
0.0 0.0 0.0

594378.5232177302 1.7590805595241576e7 0.0
1.7590805595241576e7 -2.0930451298621595e7 0.0
0.0 0.0 0.0

-2.4675403121291986e6 1.8394107699078657e7 0.0
1.8394107699078657e7 4.99614442143174e6 0.0
0.0 0.0 0.0

-9.790571397428293e6 1.8336792432364088e7 0.0
1.8336792432364088e7 -3.522186365808244e7 0.0
0.0 0.0 0.0

-1.0968834337841119e6 2.3143711752682205e7 0.0
2.3143711752682205e7 -4.202216014628963e6 0.0
0.0 0.0 0.0

7.999481890997164e6 2.334458630994777e7 0.0
2.334458630994777e7 28951.71017183736 0.0
0.0 0.0 0.0

-6.879438221551888e6 4.615339364535953e6 0.0
4.615339364535953e6 5.263259616799917e7 0.0
0.0 0.0 0.0

-9.345345864729917e6 4.057135332087916e7 0.0
4.057135332087916e7 4.501161953871559e6 0.0
0.0 0.0 0.0

-3.10352345605143e6 2.3969589228491604e7 0.0
2.3969589228491604e7 1.1639974534805909e7 0.0
0.0 0.0 0.0

-6.394884310297081e6 1.6838930099163808e7 0.0
1.6838930099163808e7 3.50502739795236e7 0.0
0.0 0.0 0.0

-3.382011150260332e6 2.6915821495343123e7 0.0
2.6915821495343123e7 1.0494205988110393e7 0.0
0.0 0.0 0.0

-2.203866769644384e6 1.8405321435841e7 0.0
1.8405321435841e7 1.7870959011642095e6 0.0
0.0 0.0 0.0

-687752.474492512 1.942595767067206e7 0.0
1.942595767067206e7 -7.836992820270479e6 0.0
0.0 0.0 0.0

-963565.4986588142 2.1318405250705995e7 0.0
2.1318405250705995e7 -5.946837412782848e6 0.0
0.0 0.0 0.0

-1.6069030840062022e6 1.2020993582390314e7 0.0
1.2020993582390314e7 -235833.5431645562 0.0
0.0 0.0 0.0

1.1180018350571762e6 2.5032855702050634e7 0.0
2.5032855702050634e7 -1.057980102414954e7 0.0
0.0 0.0 0.0

2.206740566891201e6 6.975006058292899e6 0.0
6.975006058292899e6 -2.4312601698124647e7 0.0
0.0 0.0 0.0

1.2144690990416165e6 7.147484602441591e6 0.0
7.147484602441591e6 -1.1363920468579069e7 0.0
0.0 0.0 0.0

-2.869652263078619e6 2.3135084937341865e7 0.0
2.3135084937341865e7 1.5803724904536732e7 0.0
0.0 0.0 0.0

-1.4945340120316688e6 2.729127932998616e7 0.0
2.729127932998616e7 -2.8715395987631897e6 0.0
0.0 0.0 0.0

6.97370352930152e6 2.3736061961194783e7 0.0
2.3736061961194783e7 -2.447144395030441e6 0.0
0.0 0.0 0.0

-1.3844066177559746e7 2.97227714648197e7 0.0
2.97227714648197e7 4.68439892611759e6 0.0
0.0 0.0 0.0

1.8550602609452838e6 6.803985533394147e6 0.0
6.803985533394147e6 -1.6212998362593789e7 0.0
0.0 0.0 0.0

-2.30905927574199e6 1.7285363284174807e7 0.0
1.7285363284174807e7 -5.448357714828378e6 0.0
0.0 0.0 0.0

5.427856645722797e7 1.871955802956564e7 0.0
1.871955802956564e7 3.5769987492921147e6 0.0
0.0 0.0 0.0

-539483.1849232833 1.1170654738801353e7 0.0
1.1170654738801353e7 -9.070619000838479e6 0.0
0.0 0.0 0.0

2.0875749189592805e6 7.182074072286707e6 0.0
7.182074072286707e6 -2.986534498269996e7 0.0
0.0 0.0 0.0

-4.23796032036793e6 2.0157522722605933e7 0.0
2.0157522722605933e7 2.9699726806722347e7 0.0
0.0 0.0 0.0

646478.1884230906 1.8725679241614293e7 0.0
1.8725679241614293e7 -2.2328185061515413e7 0.0
0.0 0.0 0.0

-8.995241187873343e6 1.3602397681004958e7 0.0
1.3602397681004958e7 2.1947562169329323e7 0.0
0.0 0.0 0.0

-1.4844410157206565e7 3.8775337990137056e7 0.0
3.8775337990137056e7 5.337241172715545e6 0.0
0.0 0.0 0.0

-4.1671101021885946e6 2.0580376051601995e7 0.0
2.0580376051601995e7 2.8013768999247395e7 0.0
0.0 0.0 0.0

-4.064991017282321e6 2.777103688506513e7 0.0
2.777103688506513e7 1.0103456813991314e7 0.0
0.0 0.0 0.0

-2.3806679986977812e7 2.981136410575534e7 0.0
2.981136410575534e7 -1.2586958412878683e7 0.0
0.0 0.0 0.0

-2.9085063648471814e6 2.0189795822657023e7 0.0
2.0189795822657023e7 898151.0783761899 0.0
0.0 0.0 0.0

5.040651565172839e7 7.100469440841369e6 0.0
7.100469440841369e6 -479661.4825346656 0.0
0.0 0.0 0.0

-64014.281281482894 2.1707323877450716e7 0.0
2.1707323877450716e7 -1.035730539410653e7 0.0
0.0 0.0 0.0

-1.6798758213820574e6 1.8632047482920203e7 0.0
1.8632047482920203e7 -673232.9610262426 0.0
0.0 0.0 0.0

1.0867469952886254e6 2.5790727805285618e7 0.0
2.5790727805285618e7 -9.28689340763813e6 0.0
0.0 0.0 0.0

-1.6241997729122505e7 2.5757113688052077e7 0.0
2.5757113688052077e7 -6.87357692337728e6 0.0
0.0 0.0 0.0

-276102.34359771456 1.045495731415972e7 0.0
1.045495731415972e7 -3.6236741725192335e6 0.0
0.0 0.0 0.0

-3.126270278915953e6 2.3683089456423208e7 0.0
2.3683089456423208e7 1.692090162735437e7 0.0
0.0 0.0 0.0

-4.433243867294585e6 1.9177567110555843e7 0.0
1.9177567110555843e7 -2.3217739465713274e7 0.0
0.0 0.0 0.0

-1.0499435938006839e7 6.872153979554716e6 0.0
6.872153979554716e6 3.1962893413889006e7 0.0
0.0 0.0 0.0

-1.7815408263319852e6 2.694992260203824e7 0.0
2.694992260203824e7 -1.8992531739963135e6 0.0
0.0 0.0 0.0

-2.01135952844589e6 1.897016916569784e7 0.0
1.897016916569784e7 285287.11528441426 0.0
0.0 0.0 0.0

-931146.0621582314 2.749378683186178e7 0.0
2.749378683186178e7 -1.0456674127511135e6 0.0
0.0 0.0 0.0

397633.66109964345 1.9307516863527797e7 0.0
1.9307516863527797e7 -1.3465499443963364e7 0.0
0.0 0.0 0.0

-6.721387476992749e6 9.918587422265796e6 0.0
9.918587422265796e6 1.414554265702463e7 0.0
0.0 0.0 0.0

-3.062356021294586e6 2.753238903896382e7 0.0
2.753238903896382e7 6.706096436206111e6 0.0
0.0 0.0 0.0

-3.3607358668924468e6 2.298170148340119e7 0.0
2.298170148340119e7 1.9371040687216893e7 0.0
0.0 0.0 0.0

-2.587327509420949e6 2.2611429076973308e7 0.0
2.2611429076973308e7 1.3821401351082996e7 0.0
0.0 0.0 0.0

-821925.5774941687 1.6016911039381728e7 0.0
1.6016911039381728e7 -6.208120742072697e6 0.0
0.0 0.0 0.0

857386.1403559186 1.3390264527404731e7 0.0
1.3390264527404731e7 -3.2287192597959347e7 0.0
0.0 0.0 0.0

-2.720916226027761e6 2.19453915319065e7 0.0
2.19453915319065e7 2.319197405230781e6 0.0
0.0 0.0 0.0

343848.28931266814 2.1065746629280437e7 0.0
2.1065746629280437e7 -1.6316388253211204e7 0.0
0.0 0.0 0.0

-180660.27136524394 1.900053861256846e7 0.0
1.900053861256846e7 -1.5337965393153543e7 0.0
0.0 0.0 0.0

24517.74347921461 2.7614717981957063e7 0.0
2.7614717981957063e7 -6.797854698735853e6 0.0
0.0 0.0 0.0

-804249.2466707276 2.200986282059507e7 0.0
2.200986282059507e7 -1.0785426740399197e7 0.0
0.0 0.0 0.0

1.2297395811335612e6 1.3757331781588573e7 0.0
1.3757331781588573e7 -2.5843773714261863e7 0.0
0.0 0.0 0.0

1.4303775634112158e6 7.234405502110315e6 0.0
7.234405502110315e6 -6.902742294985689e6 0.0
0.0 0.0 0.0

-2.8656254834812474e6 6.920059072021716e6 0.0
6.920059072021716e6 5.743064015178402e6 0.0
0.0 0.0 0.0

1.6156549776665268e6 3.687919029938542e7 0.0
3.687919029938542e7 -925999.2599443679 0.0
0.0 0.0 0.0

-2.888245984395654e6 2.080377304885549e7 0.0
2.080377304885549e7 2.360030185356042e6 0.0
0.0 0.0 0.0

-1.2207727537712725e6 2.349153456987309e7 0.0
2.349153456987309e7 -8.270323840524259e6 0.0
0.0 0.0 0.0

3.1490903945351746e6 4.201428020905728e6 0.0
4.201428020905728e6 -1.5287292188562922e7 0.0
0.0 0.0 0.0

-7.178735507939171e6 7.085586735341559e6 0.0
7.085586735341559e6 5.310616027522715e7 0.0
0.0 0.0 0.0

1.3211889047857951e6 1.0973962007794864e7 0.0
1.0973962007794864e7 -1.969386038383962e7 0.0
0.0 0.0 0.0

7.927398572076002e6 2.8361728733339015e7 0.0
2.8361728733339015e7 -6.346059127041947e6 0.0
0.0 0.0 0.0

1.9855930073128375e6 2.947522878868374e7 0.0
2.947522878868374e7 -6.187503382700413e6 0.0
0.0 0.0 0.0

-3.0483313544213325e6 2.8184240121752616e7 0.0
2.8184240121752616e7 5.566525470673388e6 0.0
0.0 0.0 0.0

2.5006062276929356e6 3.525018487744404e6 0.0
3.525018487744404e6 -3.528509883856937e7 0.0
0.0 0.0 0.0

-700710.5548891788 2.455686322970396e7 0.0
2.455686322970396e7 -4.934315781072807e6 0.0
0.0 0.0 0.0

20847.676729409955 2.607489663174821e7 0.0
2.607489663174821e7 -6.488767288976582e6 0.0
0.0 0.0 0.0

1.8570335643174555e6 8.108878667938215e6 0.0
8.108878667938215e6 -3.286758402788315e7 0.0
0.0 0.0 0.0

-379450.7370851039 2.9774265390037708e7 0.0
2.9774265390037708e7 -3.666982948782915e6 0.0
0.0 0.0 0.0

3.7449347901507355e6 2.4320573306678656e7 0.0
2.4320573306678656e7 -8.790093301167233e6 0.0
0.0 0.0 0.0

-1.6098784022064419e6 2.391289971025141e7 0.0
2.391289971025141e7 -5.934503693014334e6 0.0
0.0 0.0 0.0

-1.27213156157697e6 1.795178857274709e7 0.0
1.795178857274709e7 -3.1795915781734608e7 0.0
0.0 0.0 0.0

1.5117312722974475e6 7.743916506609347e6 0.0
7.743916506609347e6 -1.488051301160958e7 0.0
0.0 0.0 0.0

358921.64888057485 1.3293150456030872e7 0.0
1.3293150456030872e7 -1.5742268499132482e7 0.0
0.0 0.0 0.0

-209577.65795438597 2.456059090541487e7 0.0
2.456059090541487e7 -9.10919526741572e6 0.0
0.0 0.0 0.0

2.8555797428722167e6 2.4173526826916188e7 0.0
2.4173526826916188e7 -1.0653970197797416e7 0.0
0.0 0.0 0.0

-972215.7232610183 2.2674363616872493e7 0.0
2.2674363616872493e7 -9.524374515357222e6 0.0
0.0 0.0 0.0

2.4841115681523904e6 8.502571645687493e6 0.0
8.502571645687493e6 -1.5796249739247499e7 0.0
0.0 0.0 0.0

3.0468334700959455e6 4.892907444859836e6 0.0
4.892907444859836e6 -2.9418902504170984e7 0.0
0.0 0.0 0.0

313378.9172798591 1.8995631143401448e7 0.0
1.8995631143401448e7 -1.8111524534841333e7 0.0
0.0 0.0 0.0

-26654.99505576957 1.4026096035541747e7 0.0
1.4026096035541747e7 -1.4353665205398075e7 0.0
0.0 0.0 0.0

-3.0520666175305853e6 1.897393229585175e7 0.0
1.897393229585175e7 816482.592067441 0.0
0.0 0.0 0.0

-1.1371345090043813e7 3.0138901795386028e7 0.0
3.0138901795386028e7 5.972125717040305e6 0.0
0.0 0.0 0.0

2.1624147973291688e6 1.6142555743828066e7 0.0
1.6142555743828066e7 8.398483175724418e7 0.0
0.0 0.0 0.0

-1.0935556265879873e7 7.50538782227516e6 0.0
7.50538782227516e6 2.9439062384592734e7 0.0
0.0 0.0 0.0

2.0611963225527066e6 2.7479470567407813e7 0.0
2.7479470567407813e7 -9.172397040338784e6 0.0
0.0 0.0 0.0

-3.055802365826239e6 1.9625322948025838e7 0.0
1.9625322948025838e7 2.360721046384645e6 0.0
0.0 0.0 0.0

-8.483876997811472e6 9.486598761389084e6 0.0
9.486598761389084e6 4.178393143412258e7 0.0
0.0 0.0 0.0

3.104789573982209e6 4.937988059754871e6 0.0
4.937988059754871e6 -2.5991940173018757e7 0.0
0.0 0.0 0.0

-2.166646154527597e6 2.0803652516986016e7 0.0
2.0803652516986016e7 4.768106934499254e6 0.0
0.0 0.0 0.0

332429.10609531775 1.828777933437559e7 0.0
1.828777933437559e7 -2.432956578515277e7 0.0
0.0 0.0 0.0

1.0659589383599171e6 2.6636909017523933e7 0.0
2.6636909017523933e7 -8.156103602214001e6 0.0
0.0 0.0 0.0

-375277.223302596 2.484656095806336e7 0.0
2.484656095806336e7 -5.91497345688582e6 0.0
0.0 0.0 0.0

-4.0641533365789964e6 1.817632215841622e7 0.0
1.817632215841622e7 9.015541198996466e6 0.0
0.0 0.0 0.0

-1.6314070481431996e6 1.999414660870135e7 0.0
1.999414660870135e7 -2.4359028555156705e6 0.0
0.0 0.0 0.0

-8.713660760885218e6 1.177043310085795e7 0.0
1.177043310085795e7 1.3981480008390885e7 0.0
0.0 0.0 0.0

-5.294375163164656e7 2.956386908309056e7 0.0
2.956386908309056e7 2.38946061897213e6 0.0
0.0 0.0 0.0

6.095902962589402e6 2.4113077259064063e7 0.0
2.4113077259064063e7 1.2823114940277867e7 0.0
0.0 0.0 0.0

-2.790926824082531e6 2.4918645382632725e7 0.0
2.4918645382632725e7 1.3259317226903612e7 0.0
0.0 0.0 0.0

-1.2536563530202257e6 2.9536527162772447e7 0.0
2.9536527162772447e7 1.2316545623160405e6 0.0
0.0 0.0 0.0

1.6016175536442036e6 1.0542848560087584e7 0.0
1.0542848560087584e7 -2.4192903731292486e7 0.0
0.0 0.0 0.0

1.9550314811428487e6 8.624193055236671e6 0.0
8.624193055236671e6 -2.9275756931813292e7 0.0
0.0 0.0 0.0

1.898388927929256e6 1.0759651627537195e7 0.0
1.0759651627537195e7 -3.4731560211710654e7 0.0
0.0 0.0 0.0

-3.5397673865780802e6 1.8364612049072627e7 0.0
1.8364612049072627e7 5.622821964227717e6 0.0
0.0 0.0 0.0

-9.32382019430157e6 1.5427406714023853e7 0.0
1.5427406714023853e7 2.923827516991589e7 0.0
0.0 0.0 0.0

-6.360031418091412e6 1.2677820298281157e7 0.0
1.2677820298281157e7 1.5387470983321974e7 0.0
0.0 0.0 0.0

5.688668845401671e6 2.4093476742857803e7 0.0
2.4093476742857803e7 -4.671430487063347e6 0.0
0.0 0.0 0.0

-3.5902108496207157e6 1.962410622704012e7 0.0
1.962410622704012e7 -2.13116043551278e7 0.0
0.0 0.0 0.0

-3.556139026660389e6 2.7821991548969254e7 0.0
2.7821991548969254e7 8.505995081991363e6 0.0
0.0 0.0 0.0

8.811879117995841e6 3.574083011805377e7 0.0
3.574083011805377e7 -4.475005639627332e6 0.0
0.0 0.0 0.0

-9.363695074879043e6 3.0299483301460475e7 0.0
3.0299483301460475e7 6.918499005707363e6 0.0
0.0 0.0 0.0

-3.9463491519421134e6 2.1759658379437976e7 0.0
2.1759658379437976e7 2.2939948284474403e7 0.0
0.0 0.0 0.0

215009.97048967332 7.558231439069255e6 0.0
7.558231439069255e6 -5.719639684147735e7 0.0
0.0 0.0 0.0

96173.1120907925 1.8355262470170345e7 0.0
1.8355262470170345e7 -1.183157166303658e7 0.0
0.0 0.0 0.0

3.1255100584576176e6 2.737633342002759e6 0.0
2.737633342002759e6 -1.2413586317109942e7 0.0
0.0 0.0 0.0

2.187385652312828e6 9.140122946187515e6 0.0
9.140122946187515e6 -3.5890641860436745e7 0.0
0.0 0.0 0.0

-2.9713384828521684e6 2.8817608839558654e7 0.0
2.8817608839558654e7 4.480796622827454e6 0.0
0.0 0.0 0.0

-8.620149768266205e6 1.5920923897146218e7 0.0
1.5920923897146218e7 2.758089521847202e7 0.0
0.0 0.0 0.0

-4.333735446130397e6 2.122079350388514e7 0.0
2.122079350388514e7 2.4799091673060372e7 0.0
0.0 0.0 0.0

-2.9319167083399342e6 2.5767161785676725e7 0.0
2.5767161785676725e7 1.2416855235398661e7 0.0
0.0 0.0 0.0

1.9977582617681026e6 1.1216510818389647e7 0.0
1.1216510818389647e7 -1.747515768711269e7 0.0
0.0 0.0 0.0

-8.18787788034685e6 2.5196096964403953e7 0.0
2.5196096964403953e7 -1.2832851051919019e7 0.0
0.0 0.0 0.0

2.2068042453929973e6 3.655873526203071e7 0.0
3.655873526203071e7 -2.73382436138001e6 0.0
0.0 0.0 0.0

-3.99436996248405e6 3.0038098009541314e7 0.0
3.0038098009541314e7 6.194018451700965e6 0.0
0.0 0.0 0.0

-3.9895176190334894e6 2.101704509835218e7 0.0
2.101704509835218e7 2.634722682015599e7 0.0
0.0 0.0 0.0

-5.669566996838599e6 7.243559134870075e7 0.0
7.243559134870075e7 -1.2213750841760162e7 0.0
0.0 0.0 0.0

-6.776508775651926e6 2.4307316919944666e7 0.0
2.4307316919944666e7 -1.5298791082802443e7 0.0
0.0 0.0 0.0

-3.7209057849494223e6 2.034766725236676e7 0.0
2.034766725236676e7 1.1417937238651503e7 0.0
0.0 0.0 0.0

-1.097102121559361e7 3.5855508672250924e6 0.0
3.5855508672250924e6 1.734372104211378e7 0.0
0.0 0.0 0.0

-958949.7930946798 2.0182082256170824e7 0.0
2.0182082256170824e7 -6.3336777532823e6 0.0
0.0 0.0 0.0

-1.3111446035160426e7 2.615100308404437e7 0.0
2.615100308404437e7 -7.362985485784279e6 0.0
0.0 0.0 0.0

-9.695536586089611e6 3.872000716047543e7 0.0
3.872000716047543e7 4.109568172482362e6 0.0
0.0 0.0 0.0

-188912.25269408757 2.3336296321086127e7 0.0
2.3336296321086127e7 -8.455882440924352e6 0.0
0.0 0.0 0.0

-838004.8892162931 2.5438909461304564e7 0.0
2.5438909461304564e7 -7.416781668687473e6 0.0
0.0 0.0 0.0

-1.0254790896472767e7 5.006950062044768e6 0.0
5.006950062044768e6 2.6813600019783877e7 0.0
0.0 0.0 0.0

3.0240440332469195e6 6.188941651296655e6 0.0
6.188941651296655e6 -2.3067662233574007e7 0.0
0.0 0.0 0.0

2.65218554241384e6 3.544947943292755e7 0.0
3.544947943292755e7 -2.0654883967004465e6 0.0
0.0 0.0 0.0

-3.6352393853028053e6 2.2352679961891066e7 0.0
2.2352679961891066e7 2.1202581346068174e7 0.0
0.0 0.0 0.0

-1.8232814468700502e7 2.783348504130761e7 0.0
2.783348504130761e7 -4.2429942781973835e6 0.0
0.0 0.0 0.0

-2.809955989239202e6 6.404476976053657e6 0.0
6.404476976053657e6 -392372.2901307724 0.0
0.0 0.0 0.0

-1.4676695234070366e7 2.767929393028463e7 0.0
2.767929393028463e7 -1.194887214835517e7 0.0
0.0 0.0 0.0

-1.3158890482056583e6 2.4210069311351467e7 0.0
2.4210069311351467e7 -6.907693304611976e6 0.0
0.0 0.0 0.0

461558.03058499005 1.8299304897797912e7 0.0
1.8299304897797912e7 -1.950176278092024e7 0.0
0.0 0.0 0.0

-939158.6889891806 2.242403808889641e7 0.0
2.242403808889641e7 -5.595006877235492e6 0.0
0.0 0.0 0.0

1.2837012608278338e6 1.1542170716296803e7 0.0
1.1542170716296803e7 -2.058563331784058e7 0.0
0.0 0.0 0.0

-1.684313403515921e6 2.356451930703723e7 0.0
2.356451930703723e7 779599.2113799503 0.0
0.0 0.0 0.0

-1.1068983906785782e7 5.927672495136356e6 0.0
5.927672495136356e6 1.6713987813807866e7 0.0
0.0 0.0 0.0

-7.789850760679793e6 1.579800605034488e7 0.0
1.579800605034488e7 2.257234823820054e7 0.0
0.0 0.0 0.0

-3.2159651503101513e6 1.7903005382019017e7 0.0
1.7903005382019017e7 1.1901395152347723e7 0.0
0.0 0.0 0.0

-6.419492716891622e6 1.930519520489464e7 0.0
1.930519520489464e7 -2.0626021555435687e7 0.0
0.0 0.0 0.0

-2.7303804053115086e6 1.8212736323001325e7 0.0
1.8212736323001325e7 8.351378898365792e6 0.0
0.0 0.0 0.0

-4.155671563086505e7 3.3583707780018575e7 0.0
3.3583707780018575e7 -7.557550431450507e6 0.0
0.0 0.0 0.0

-3.0530645822418835e6 2.022778118549436e7 0.0
2.022778118549436e7 3.8193067577689216e6 0.0
0.0 0.0 0.0

-2.448406642941975e6 2.247628997549291e7 0.0
2.247628997549291e7 -3.9013386762469662e6 0.0
0.0 0.0 0.0

-5.9764712910030216e7 2.8635261277749445e7 0.0
2.8635261277749445e7 350923.9168007001 0.0
0.0 0.0 0.0

4.629803931183575e6 2.436756027724994e7 0.0
2.436756027724994e7 -6.937285504105975e6 0.0
0.0 0.0 0.0

-2.2862274308817536e6 1.9045382862029057e7 0.0
1.9045382862029057e7 3.3572369657790503e6 0.0
0.0 0.0 0.0

1.3663366056941561e6 1.2748676616519682e7 0.0
1.2748676616519682e7 -1.486290088318285e7 0.0
0.0 0.0 0.0

-1.5276845641345154e6 3.0013300829813458e7 0.0
3.0013300829813458e7 2.2041253621145897e6 0.0
0.0 0.0 0.0

1.0249946883123266e6 1.3378411471350236e7 0.0
1.3378411471350236e7 -2.09099878943312e7 0.0
0.0 0.0 0.0

957614.6342442222 1.443590165975488e7 0.0
1.443590165975488e7 -2.243939870087166e7 0.0
0.0 0.0 0.0

-7.789745140814277e6 1.0288826547899691e7 0.0
1.0288826547899691e7 1.0414244139363287e7 0.0
0.0 0.0 0.0

-3.249409468750208e6 2.3016407349168986e7 0.0
2.3016407349168986e7 1.1526496399115661e7 0.0
0.0 0.0 0.0

2.5719061235367134e6 8.39135846193677e6 0.0
8.39135846193677e6 -3.0588767303403378e7 0.0
0.0 0.0 0.0

-1.0984598179864053e7 9.218948152934644e6 0.0
9.218948152934644e6 2.2850107714649614e7 0.0
0.0 0.0 0.0

1.0079511930738939e6 1.3881586068896847e7 0.0
1.3881586068896847e7 -2.170665982097327e7 0.0
0.0 0.0 0.0

-1.0071156827674195e8 1.1333013409733916e7 0.0
1.1333013409733916e7 2.958021758875277e6 0.0
0.0 0.0 0.0

536808.0207169801 7.420025476896737e6 0.0
7.420025476896737e6 -5.317173676869582e7 0.0
0.0 0.0 0.0

-3.374879775266101e6 2.152137834503883e7 0.0
2.152137834503883e7 1.0887317620503297e7 0.0
0.0 0.0 0.0

-2.992143018878006e6 2.3396436900237188e7 0.0
2.3396436900237188e7 8.706939091087688e6 0.0
0.0 0.0 0.0

-5.291158058627803e6 2.9278459706366424e7 0.0
2.9278459706366424e7 9.12004875685115e6 0.0
0.0 0.0 0.0

-1.8838962996468386e6 2.0623466466031462e7 0.0
2.0623466466031462e7 -7.045480337041144e6 0.0
0.0 0.0 0.0

-3.4680942257602364e6 2.330684543067463e7 0.0
2.330684543067463e7 1.965836522420091e7 0.0
0.0 0.0 0.0

450153.6184396995 1.6080716617601043e7 0.0
1.6080716617601043e7 -1.795333900853614e7 0.0
0.0 0.0 0.0

1.616120829880001e6 1.0762467683463968e7 0.0
1.0762467683463968e7 -2.9094017329249047e7 0.0
0.0 0.0 0.0

-1.8136118546593247e6 2.9523012687659465e7 0.0
2.9523012687659465e7 3.122610171103991e6 0.0
0.0 0.0 0.0

2.754784045113288e6 3.1241444546593007e7 0.0
3.1241444546593007e7 -6.07036766807765e6 0.0
0.0 0.0 0.0

1.340382369499961e6 1.002482302773154e7 0.0
1.002482302773154e7 -4.250112343863413e7 0.0
0.0 0.0 0.0

-4.414737302332429e6 1.5163156806897257e7 0.0
1.5163156806897257e7 1.276249224825821e7 0.0
0.0 0.0 0.0

-7.702752113520391e6 3.0133811035194825e7 0.0
3.0133811035194825e7 7.706687919886539e6 0.0
0.0 0.0 0.0

-5.2842948203777984e7 7.8374933778815e7 0.0
7.8374933778815e7 -2.2847859049868826e6 0.0
0.0 0.0 0.0

-9.068925432549722e6 1.1522057838597614e7 0.0
1.1522057838597614e7 3.666961008992282e7 0.0
0.0 0.0 0.0

-5.3497838119594995e6 1.8061718841678195e7 0.0
1.8061718841678195e7 -1.8544694888996106e7 0.0
0.0 0.0 0.0

-1.6794282089325264e6 6.195972805513733e6 0.0
6.195972805513733e6 3.3407673405402666e6 0.0
0.0 0.0 0.0

-7.759779375588411e6 -2.553296566424153e6 0.0
-2.553296566424153e6 3.655831696460241e7 0.0
0.0 0.0 0.0

2.9086825069276094e6 1.6807186783005288e6 0.0
1.6807186783005288e6 -3.67130660873811e7 0.0
0.0 0.0 0.0

-8.516379197155789e6 2.6528398093713064e7 0.0
2.6528398093713064e7 2.239968173295807e6 0.0
0.0 0.0 0.0

-1.8379572819982236e6 2.0049065432041008e7 0.0
2.0049065432041008e7 -2.2562838755664874e7 0.0
0.0 0.0 0.0

-4.879543217317507e6 1.728151996602683e7 0.0
1.728151996602683e7 3.969959774742563e7 0.0
0.0 0.0 0.0

1.9509668094865694e6 2.6567626895961933e7 0.0
2.6567626895961933e7 -1.0194942050642546e7 0.0
0.0 0.0 0.0

1.0449651639544927e6 1.2865689076697536e7 0.0
1.2865689076697536e7 -2.0062003624405973e7 0.0
0.0 0.0 0.0

-385149.59136321396 1.772301581150162e7 0.0
1.772301581150162e7 5.199171461908566e7 0.0
0.0 0.0 0.0

-1.7857448924386997e6 2.0684530819265593e7 0.0
2.0684530819265593e7 -943035.667793778 0.0
0.0 0.0 0.0

-4375.726838862523 1.986157102994117e7 0.0
1.986157102994117e7 3.82788667690909e7 0.0
0.0 0.0 0.0

-1.3194499071844816e6 2.044098621383583e7 0.0
2.044098621383583e7 -2.0811074402196802e7 0.0
0.0 0.0 0.0

8.913549913556856e7 1.1029914794406764e7 0.0
1.1029914794406764e7 2.7739309368073866e6 0.0
0.0 0.0 0.0

1.042524931767235e6 2.7461954190892555e7 0.0
2.7461954190892555e7 -7.076061376233247e6 0.0
0.0 0.0 0.0

4.007522067086309e6 3.521992494447084e7 0.0
3.521992494447084e7 -2.8534661698142993e6 0.0
0.0 0.0 0.0

876861.9851621119 1.4099951732433036e7 0.0
1.4099951732433036e7 -1.95051640041453e7 0.0
0.0 0.0 0.0

1.8284941143509718e6 1.2904685275934435e7 0.0
1.2904685275934435e7 -2.014904881334777e7 0.0
0.0 0.0 0.0

-1.6407508935613784e6 1.986748971990145e7 0.0
1.986748971990145e7 -8.537334974875433e6 0.0
0.0 0.0 0.0

-9.791000249291686e6 1.3112169183831694e7 0.0
1.3112169183831694e7 2.9422378151524622e7 0.0
0.0 0.0 0.0

-3.426920080495772e6 1.8521643575023275e7 0.0
1.8521643575023275e7 -3.1472317138379008e7 0.0
0.0 0.0 0.0

2.9888425364791285e6 2.6843049244838925e6 0.0
2.6843049244838925e6 -1.1113647783866974e7 0.0
0.0 0.0 0.0

633296.2489563012 1.70187801565588e7 0.0
1.70187801565588e7 -1.9448054815018382e7 0.0
0.0 0.0 0.0

-3.0410863085101683e7 3.801733127001178e7 0.0
3.801733127001178e7 6.973737840653984e6 0.0
0.0 0.0 0.0

-3.5661706539001614e6 1.3536362665453646e7 0.0
1.3536362665453646e7 493669.1712914838 0.0
0.0 0.0 0.0

1.8560639984156862e6 1.7887335877300948e7 0.0
1.7887335877300948e7 6.13917216006257e7 0.0
0.0 0.0 0.0

-2.9268843591246484e6 2.3596738726144686e7 0.0
2.3596738726144686e7 1.5982207656872524e7 0.0
0.0 0.0 0.0

9.053558590931451e6 2.429814051657346e7 0.0
2.429814051657346e7 5.0622566838436e6 0.0
0.0 0.0 0.0

-6.293706337102121e6 2.9782394968389556e7 0.0
2.9782394968389556e7 8.379831703217713e6 0.0
0.0 0.0 0.0

1.0843805913848605e6 2.8234427366923876e7 0.0
2.8234427366923876e7 -5.875943773282142e6 0.0
0.0 0.0 0.0

-4.0385470274316627e6 2.9456129950654756e7 0.0
2.9456129950654756e7 7.009810174830178e6 0.0
0.0 0.0 0.0

-9.757875909354746e6 1.3599965495905003e7 0.0
1.3599965495905003e7 2.725348034699946e7 0.0
0.0 0.0 0.0

-6.564028485626268e6 1.7618227184639115e7 0.0
1.7618227184639115e7 2.2801816557754703e7 0.0
0.0 0.0 0.0

-1.1069998075673372e7 7.858794160795362e6 0.0
7.858794160795362e6 1.5570713967319226e7 0.0
0.0 0.0 0.0

2.167350722506547e7 1.3190531408785127e7 0.0
1.3190531408785127e7 1.3134671595709026e6 0.0
0.0 0.0 0.0

-756747.2191654006 2.084921540218297e7 0.0
2.084921540218297e7 -1.9214760325516853e7 0.0
0.0 0.0 0.0

544489.5854597241 2.8100443660347827e7 0.0
2.8100443660347827e7 -5.124113530348812e6 0.0
0.0 0.0 0.0

-2.8066117731722193e6 2.9381128841984153e7 0.0
2.9381128841984153e7 3.4412728855444463e6 0.0
0.0 0.0 0.0

-9.137226163538104e6 -1.3686601043391672e6 0.0
-1.3686601043391672e6 2.682914378491532e7 0.0
0.0 0.0 0.0

-3.673283434188547e6 3.1193368821768537e7 0.0
3.1193368821768537e7 4.469859572100808e6 0.0
0.0 0.0 0.0

-2.3075680662994087e6 1.9622718339866612e7 0.0
1.9622718339866612e7 4.868473436044952e6 0.0
0.0 0.0 0.0

-4.943456289062489e6 3.185606320843499e7 0.0
3.185606320843499e7 5.457111316208643e6 0.0
0.0 0.0 0.0

8.625278411205713e6 2.304629807597635e7 0.0
2.304629807597635e7 2.9623687787534804e6 0.0
0.0 0.0 0.0

3.034746114006323e6 3.2736629317109264e7 0.0
3.2736629317109264e7 -3.7830813139629094e6 0.0
0.0 0.0 0.0

2.5702324129033387e6 4.97694862067482e6 0.0
4.97694862067482e6 -2.9458872466807276e7 0.0
0.0 0.0 0.0

-9.447166452894926e6 1.1943563306486761e7 0.0
1.1943563306486761e7 3.415914504386947e7 0.0
0.0 0.0 0.0

619777.0329364063 2.3018002102327876e7 0.0
2.3018002102327876e7 -1.1001034529059123e7 0.0
0.0 0.0 0.0

-206784.8359576231 2.1362777017246515e7 0.0
2.1362777017246515e7 -1.761322861792342e7 0.0
0.0 0.0 0.0

-1.82865802664121e6 1.9487005945479006e7 0.0
1.9487005945479006e7 -1.1193706083092408e6 0.0
0.0 0.0 0.0

-4.791775381063832e6 2.4745831649512637e7 0.0
2.4745831649512637e7 6.766456278516306e6 0.0
0.0 0.0 0.0

3.214308602261179e6 2.7559813161598e7 0.0
2.7559813161598e7 -8.935222452320619e6 0.0
0.0 0.0 0.0

-240537.66894186568 2.1360634516715627e7 0.0
2.1360634516715627e7 -9.734226718905848e6 0.0
0.0 0.0 0.0

-9.231996694251819e6 1.5781227366154984e7 0.0
1.5781227366154984e7 2.249280752102169e7 0.0
0.0 0.0 0.0

2.358922004063042e6 1.0563413609041005e7 0.0
1.0563413609041005e7 -2.4142249699993003e7 0.0
0.0 0.0 0.0

-1.5833941812037667e6 2.144448982537551e7 0.0
2.144448982537551e7 -1.8499501127643302e7 0.0
0.0 0.0 0.0

3.50849666460638e6 2.3766467153873242e7 0.0
2.3766467153873242e7 1.4744137125189561e7 0.0
0.0 0.0 0.0

-1.740034788864577e6 2.284983991181291e7 0.0
2.284983991181291e7 -6.284262930025995e6 0.0
0.0 0.0 0.0

2.0603339900981262e6 8.000735384965924e6 0.0
8.000735384965924e6 -4.108415962027927e7 0.0
0.0 0.0 0.0

1.918318853416521e6 5.844158909203145e6 0.0
5.844158909203145e6 -5.4834219487467535e7 0.0
0.0 0.0 0.0

-4.103385502118883e6 1.868223610248008e7 0.0
1.868223610248008e7 1.051053527074725e7 0.0
0.0 0.0 0.0

-2.581092584450759e6 2.9915000264273662e7 0.0
2.9915000264273662e7 2.484278856520148e6 0.0
0.0 0.0 0.0

-9.901221001509175e6 4.919417437173833e6 0.0
4.919417437173833e6 3.1140802308817666e7 0.0
0.0 0.0 0.0

-6.164839064286895e6 1.752130231258793e7 0.0
1.752130231258793e7 1.6199415806300826e7 0.0
0.0 0.0 0.0

-3.146957041447296e6 2.262886712186813e7 0.0
2.262886712186813e7 1.0404704197367612e7 0.0
0.0 0.0 0.0

2.2711616974712936e6 1.0807330739705686e7 0.0
1.0807330739705686e7 -2.1938927539545324e7 0.0
0.0 0.0 0.0

2.7816086018102467e6 1.5540180984897525e6 0.0
1.5540180984897525e6 -3.7940805478386685e7 0.0
0.0 0.0 0.0

-2.658371856483178e6 2.1169819126290936e7 0.0
2.1169819126290936e7 1.3402275873092176e7 0.0
0.0 0.0 0.0

5.003081540391594e6 1.9473707702888366e7 0.0
1.9473707702888366e7 7.516772326160848e7 0.0
0.0 0.0 0.0

-2.16845512697393e6 2.3787586510120925e7 0.0
2.3787586510120925e7 9.30716306407536e6 0.0
0.0 0.0 0.0

873907.4388819279 2.8892354978341907e7 0.0
2.8892354978341907e7 -4.954114933153377e6 0.0
0.0 0.0 0.0

918793.8362232642 1.5001450124759376e7 0.0
1.5001450124759376e7 -2.075513004905441e7 0.0
0.0 0.0 0.0

47515.91909234173 3.136964877110826e7 0.0
3.136964877110826e7 -1.139963019948278e6 0.0
0.0 0.0 0.0

-2.0368061525257945e6 2.8987849415651012e7 0.0
2.8987849415651012e7 4.088022013993756e6 0.0
0.0 0.0 0.0

9.889776373069322e6 1.9469342178907327e7 0.0
1.9469342178907327e7 4.634950523526538e7 0.0
0.0 0.0 0.0

3.014852951967695e6 2.7045649797459543e6 0.0
2.7045649797459543e6 -1.1803615686319713e7 0.0
0.0 0.0 0.0

4.935477185197374e6 2.511019585621242e7 0.0
2.511019585621242e7 -7.9765933858295195e6 0.0
0.0 0.0 0.0

3.0985372965989495e6 3.8900884665265554e6 0.0
3.8900884665265554e6 -2.101118879349811e7 0.0
0.0 0.0 0.0

-8.921074418925406e6 1.4365099135439865e7 0.0
1.4365099135439865e7 2.2972039223004248e7 0.0
0.0 0.0 0.0

-2.8652256356967296e6 2.732377674562779e7 0.0
2.732377674562779e7 5.735155743572082e6 0.0
0.0 0.0 0.0

-845605.3517742069 2.3501868867674947e7 0.0
2.3501868867674947e7 -5.264157984199762e6 0.0
0.0 0.0 0.0

1.9564072656470947e6 1.179114696433311e7 0.0
1.179114696433311e7 -1.8380681522554338e7 0.0
0.0 0.0 0.0

30958.99970036326 2.1742789559101984e7 0.0
2.1742789559101984e7 -1.1355509475284906e7 0.0
0.0 0.0 0.0

673877.4275442485 2.9597945344358947e7 0.0
2.9597945344358947e7 -4.0029711823293283e6 0.0
0.0 0.0 0.0

-9.489256766607026e6 6.68420106824064e6 0.0
6.68420106824064e6 3.581967025915874e7 0.0
0.0 0.0 0.0

-5.484881428740033e6 1.9215980365306072e7 0.0
1.9215980365306072e7 2.2771305015773885e7 0.0
0.0 0.0 0.0

-1.0470888918367518e7 1.1225191919130083e7 0.0
1.1225191919130083e7 2.450374940248824e7 0.0
0.0 0.0 0.0

-3.2562550025263224e6 1.902052434087087e7 0.0
1.902052434087087e7 3.9226678119219774e6 0.0
0.0 0.0 0.0

-3.0738229989871886e6 2.8904404703518562e7 0.0
2.8904404703518562e7 7.880098252367973e6 0.0
0.0 0.0 0.0

-2.300321658799174e6 2.276949945292567e7 0.0
2.276949945292567e7 -2.7357461980910017e6 0.0
0.0 0.0 0.0

-1.7049045594718056e6 3.1140052158415686e7 0.0
3.1140052158415686e7 -175470.63920772215 0.0
0.0 0.0 0.0

-8.331875591853987e6 1.0982982591977794e7 0.0
1.0982982591977794e7 1.2305706604765618e7 0.0
0.0 0.0 0.0

-6.623396119406199e6 1.70585640814479e7 0.0
1.70585640814479e7 2.1906489384083543e7 0.0
0.0 0.0 0.0

-2.339529954855914e6 3.0392372705345295e7 0.0
3.0392372705345295e7 1.6106533680079137e6 0.0
0.0 0.0 0.0

2.905031476511239e6 2.62279010976308e7 0.0
2.62279010976308e7 -1.0131142663880194e7 0.0
0.0 0.0 0.0

1.6916442139160845e7 2.6107880371964637e7 0.0
2.6107880371964637e7 1.365979898709672e7 0.0
0.0 0.0 0.0

-2.472264706565224e6 1.894976734303454e7 0.0
1.894976734303454e7 6.548725696448326e6 0.0
0.0 0.0 0.0

8.030410424564595e6 2.9715798784195974e7 0.0
2.9715798784195974e7 -6.338433029277386e6 0.0
0.0 0.0 0.0

-2.495239752703281e6 1.999146098955227e7 0.0
1.999146098955227e7 9.374795826628964e6 0.0
0.0 0.0 0.0

-5.567620899400167e6 1.8741571843406763e7 0.0
1.8741571843406763e7 2.1956713439299114e7 0.0
0.0 0.0 0.0

-5.937655406837886e6 1.1918186988564573e7 0.0
1.1918186988564573e7 1.3756976142719742e7 0.0
0.0 0.0 0.0

-2.0570188838534881e6 3.0788360869805668e7 0.0
3.0788360869805668e7 650513.7466465104 0.0
0.0 0.0 0.0

2.947364366434019e6 6.536005590254183e6 0.0
6.536005590254183e6 -2.8856770829000555e7 0.0
0.0 0.0 0.0

2.6564392167908046e6 8.898756903333519e6 0.0
8.898756903333519e6 -2.6901767013306674e7 0.0
0.0 0.0 0.0

-4.475695623140251e6 2.8671534149184164e7 0.0
2.8671534149184164e7 9.735844206767473e6 0.0
0.0 0.0 0.0

-305357.7218840916 1.3606691447545862e7 0.0
1.3606691447545862e7 -7.3492208007318955e6 0.0
0.0 0.0 0.0

1.9062168370578578e6 1.2367917725442622e7 0.0
1.2367917725442622e7 -1.9253851588493194e7 0.0
0.0 0.0 0.0

-283913.527899135 3.397290625276024e7 0.0
3.397290625276024e7 -1.3347759303669021e6 0.0
0.0 0.0 0.0

348664.3776236612 3.0822069062757842e7 0.0
3.0822069062757842e7 -2.0616401518808824e6 0.0
0.0 0.0 0.0

-969280.7862674231 2.446546145580328e7 0.0
2.446546145580328e7 -7.810908920671375e6 0.0
0.0 0.0 0.0

-2.4992551093338076e6 1.9558898748859406e7 0.0
1.9558898748859406e7 -2.82078694813967e7 0.0
0.0 0.0 0.0

-3.191370564251591e6 3.406333616114624e7 0.0
3.406333616114624e7 1.8530047521735926e6 0.0
0.0 0.0 0.0

-5.344675246571559e6 1.965673814171666e7 0.0
1.965673814171666e7 2.3359156181112736e7 0.0
0.0 0.0 0.0

1.8469158287169328e6 7.6175141755222315e6 0.0
7.6175141755222315e6 -1.712731135125101e7 0.0
0.0 0.0 0.0

2.1723828696028898e6 3.712342064442182e7 0.0
3.712342064442182e7 -1.498067984369811e6 0.0
0.0 0.0 0.0

-3.045144577521638e6 2.4344876025967173e7 0.0
2.4344876025967173e7 1.3574556519966599e7 0.0
0.0 0.0 0.0

543428.2187109615 3.023130424739099e7 0.0
3.023130424739099e7 -2.9457702873599106e6 0.0
0.0 0.0 0.0

365579.23756633047 2.188859378548748e7 0.0
2.188859378548748e7 -1.615399572592112e7 0.0
0.0 0.0 0.0

-802766.0073488222 3.1572217646034483e7 0.0
3.1572217646034483e7 514249.01030814584 0.0
0.0 0.0 0.0

-3.213479199114796e6 2.446495704798675e7 0.0
2.446495704798675e7 1.6217766218866255e7 0.0
0.0 0.0 0.0

-755873.8561405467 3.170974494544236e7 0.0
3.170974494544236e7 -1.6867112284470722e6 0.0
0.0 0.0 0.0

9.361872861033114e6 4.002233137672667e7 0.0
4.002233137672667e7 -3.2775280471067755e6 0.0
0.0 0.0 0.0

-7.89123188739451e6 1.71147708279794e7 0.0
1.71147708279794e7 2.8925525727083337e7 0.0
0.0 0.0 0.0

1.6493133031004313e6 1.3653083657168955e7 0.0
1.3653083657168955e7 -1.8804394594943576e7 0.0
0.0 0.0 0.0

-9.441364026100636e6 1.3871150201123143e7 0.0
1.3871150201123143e7 3.026463130914794e7 0.0
0.0 0.0 0.0

-8.49334003780156e6 1.5998974745993828e7 0.0
1.5998974745993828e7 2.008444266900064e7 0.0
0.0 0.0 0.0

-562844.301490206 -1.114125500433122e6 0.0
-1.114125500433122e6 1.2792235629826658e6 0.0
0.0 0.0 0.0

-991864.3693701323 -2.0794519501553013e6 0.0
-2.0794519501553013e6 2.612952697339172e6 0.0
0.0 0.0 0.0

-7.453365730861161e6 1.7655742947343837e7 0.0
1.7655742947343837e7 2.949773970522326e7 0.0
0.0 0.0 0.0

1.5394456223484298e7 2.5170167307167858e7 0.0
2.5170167307167858e7 1.3219583730835613e7 0.0
0.0 0.0 0.0

1.7834775393432172e6 3.205240137182823e7 0.0
3.205240137182823e7 -3.1685170585740637e6 0.0
0.0 0.0 0.0

-124890.2267740015 2.515105251573478e7 0.0
2.515105251573478e7 -6.9605609032748565e6 0.0
0.0 0.0 0.0

1.5941483178939614e6 1.4146943149966916e7 0.0
1.4146943149966916e7 -1.971824463949118e7 0.0
0.0 0.0 0.0

9.008763083353166e6 1.9312885976758264e7 0.0
1.9312885976758264e7 4.122871411025595e7 0.0
0.0 0.0 0.0

-2.973155642334208e6 3.46534859106871e7 0.0
3.46534859106871e7 3.099418821130332e6 0.0
0.0 0.0 0.0

-223271.0385022652 3.468098508831762e7 0.0
3.468098508831762e7 -1.3284483398592977e6 0.0
0.0 0.0 0.0

203331.11362045555 3.541923787207881e7 0.0
3.541923787207881e7 -1.3469549556957523e6 0.0
0.0 0.0 0.0

-4.010869129335976e6 2.1498731078637533e7 0.0
2.1498731078637533e7 1.5120213401734235e7 0.0
0.0 0.0 0.0

-4.212790893900665e6 1.9117446627256665e7 0.0
1.9117446627256665e7 1.1988364967318976e7 0.0
0.0 0.0 0.0

-7.581272755036543e6 1.364150315048375e7 0.0
1.364150315048375e7 1.366849541540794e7 0.0
0.0 0.0 0.0

-2.615138935424054e6 2.570356076490865e7 0.0
2.570356076490865e7 1.1059034021649964e7 0.0
0.0 0.0 0.0

-3.276675906887438e6 1.8316479536280666e7 0.0
1.8316479536280666e7 1.3393075485142961e7 0.0
0.0 0.0 0.0

-7.692213946541999e6 1.659454215868625e7 0.0
1.659454215868625e7 3.2557337777708273e7 0.0
0.0 0.0 0.0

1.6153068977874573e6 1.4745918920171227e7 0.0
1.4745918920171227e7 -2.0382757385284234e7 0.0
0.0 0.0 0.0

-3.3501728509543864e6 2.335070172904677e7 0.0
2.335070172904677e7 1.2546605698349718e7 0.0
0.0 0.0 0.0

-8.3319224288262855e6 1.499168504641088e7 0.0
1.499168504641088e7 3.395332070282536e7 0.0
0.0 0.0 0.0

5.197956133464154e6 2.217459535769502e7 0.0
2.217459535769502e7 1.7208722801560268e7 0.0
0.0 0.0 0.0

-3.261257733460128e6 2.0187005425455794e7 0.0
2.0187005425455794e7 6.801995721169896e6 0.0
0.0 0.0 0.0

-747524.4221663007 3.233383317850753e7 0.0
3.233383317850753e7 601130.6009121027 0.0
0.0 0.0 0.0

-835704.2123611032 3.0762988427411247e7 0.0
3.0762988427411247e7 427986.3617116946 0.0
0.0 0.0 0.0

-3.2594217603692356e6 2.5242740465678193e7 0.0
2.5242740465678193e7 1.4597500207038937e7 0.0
0.0 0.0 0.0

-2.231247319773116e6 2.056550675263975e7 0.0
2.056550675263975e7 -2.3410238325601816e7 0.0
0.0 0.0 0.0

-2.915751026797283e6 2.601040594633843e7 0.0
2.601040594633843e7 8.289141920813271e6 0.0
0.0 0.0 0.0

-4.665975672494695e6 2.0249298986399166e7 0.0
2.0249298986399166e7 2.1713311527987238e7 0.0
0.0 0.0 0.0

-385322.4392571149 2.412763440833305e7 0.0
2.412763440833305e7 -7.27669011444611e6 0.0
0.0 0.0 0.0

4.896582327663392e6 3.605263966258795e7 0.0
3.605263966258795e7 -2.854930081100801e6 0.0
0.0 0.0 0.0

-3.4865554012749735e6 2.6142110104329064e7 0.0
2.6142110104329064e7 1.3055070232282482e7 0.0
0.0 0.0 0.0

-715737.0220565707 2.373662341727483e7 0.0
2.373662341727483e7 -9.061483006041106e6 0.0
0.0 0.0 0.0

2.4059555167827085e6 9.578040931410175e6 0.0
9.578040931410175e6 -2.7770701546656687e7 0.0
0.0 0.0 0.0

-2.771638392024873e6 2.1505565259241845e7 0.0
2.1505565259241845e7 1.4573879613789959e7 0.0
0.0 0.0 0.0

5.492413365568195e6 2.93883637145752e7 0.0
2.93883637145752e7 -7.152855048818522e6 0.0
0.0 0.0 0.0

2.5360023528221333e6 2.8271229282619716e6 0.0
2.8271229282619716e6 -8.166801517272543e6 0.0
0.0 0.0 0.0

1.3638829736939631e6 9.681335744474588e6 0.0
9.681335744474588e6 -3.6734146955742374e7 0.0
0.0 0.0 0.0

175573.71646287292 2.2261897901734717e7 0.0
2.2261897901734717e7 -1.1082588335805668e7 0.0
0.0 0.0 0.0

1.5787914300358776e7 2.618058475612528e7 0.0
2.618058475612528e7 1.493490963085559e7 0.0
0.0 0.0 0.0

1.6969461054303646e6 1.0060415405921236e7 0.0
1.0060415405921236e7 -2.8540844621974997e7 0.0
0.0 0.0 0.0

1.552569768613793e6 1.1425102585998192e7 0.0
1.1425102585998192e7 -2.7692398040686175e7 0.0
0.0 0.0 0.0

2.35419155418296e6 2.22062727579286e7 0.0
2.22062727579286e7 6.543125896665257e6 0.0
0.0 0.0 0.0

-9.826570709838575e6 8.406262364936465e6 0.0
8.406262364936465e6 3.392793497840226e7 0.0
0.0 0.0 0.0

-8.595220882960996e6 1.4204683410340637e7 0.0
1.4204683410340637e7 1.6722991225540912e7 0.0
0.0 0.0 0.0

-1.1541829993863352e7 2.0040499576028865e7 0.0
2.0040499576028865e7 -5.411220274665077e7 0.0
0.0 0.0 0.0

-5.160348766941198e6 1.8785406008423526e7 0.0
1.8785406008423526e7 1.5447807947887635e7 0.0
0.0 0.0 0.0

-1.0488078777695175e7 1.377256523027101e7 0.0
1.377256523027101e7 2.465502747820257e7 0.0
0.0 0.0 0.0

4.1532195851080753e6 2.4446534404343452e7 0.0
2.4446534404343452e7 1.2244530949813072e7 0.0
0.0 0.0 0.0

-7.9547244249152e6 -2.7703643395575513e6 0.0
-2.7703643395575513e6 3.541612403207601e7 0.0
0.0 0.0 0.0

-3.460923665361651e6 2.1898764781688195e7 0.0
2.1898764781688195e7 1.2137817134858076e7 0.0
0.0 0.0 0.0

-3.5331694540065583e6 2.8936975065714173e7 0.0
2.8936975065714173e7 8.583469485828795e6 0.0
0.0 0.0 0.0

315971.41256619897 2.0069933176203072e7 0.0
2.0069933176203072e7 -1.726596436125059e7 0.0
0.0 0.0 0.0

-8.341282936393759e6 -2.1094357934380667e6 0.0
-2.1094357934380667e6 1.532150092564656e7 0.0
0.0 0.0 0.0

-7.3314756618654905e6 1.2939684939534582e7 0.0
1.2939684939534582e7 1.19949651214839e7 0.0
0.0 0.0 0.0

-625517.5253796913 8.2118347863533795e6 0.0
8.2118347863533795e6 -6.225671499194079e7 0.0
0.0 0.0 0.0

7.694729094732858e6 3.638485122194617e7 0.0
3.638485122194617e7 -3.6553969793258677e6 0.0
0.0 0.0 0.0

-6.51040233902066e6 1.389298453151293e7 0.0
1.389298453151293e7 4.3666501961836666e7 0.0
0.0 0.0 0.0

-6.103656831252113e6 2.094476280281941e7 0.0
2.094476280281941e7 -1.7976365015216667e7 0.0
0.0 0.0 0.0

-1.0582695237656808e7 1.3263432102631724e7 0.0
1.3263432102631724e7 2.6640865478389997e7 0.0
0.0 0.0 0.0

-1.5506777215906054e7 2.8101386937690947e7 0.0
2.8101386937690947e7 -1.1231453751342729e7 0.0
0.0 0.0 0.0

-1.6218270362743095e6 2.2155032893861175e7 0.0
2.2155032893861175e7 -5.872914751392164e6 0.0
0.0 0.0 0.0

4.350848572576173e6 2.0014343783034712e7 0.0
2.0014343783034712e7 2.0788500148975283e7 0.0
0.0 0.0 0.0

1.4013905174513608e6 8.851340995918225e6 0.0
8.851340995918225e6 -3.8609453700800546e7 0.0
0.0 0.0 0.0

-5.60361795073437e6 1.8585711502731312e7 0.0
1.8585711502731312e7 -1.8683645148028433e7 0.0
0.0 0.0 0.0

9.175495383146655e6 4.210388879257726e7 0.0
4.210388879257726e7 -4.994064157797715e6 0.0
0.0 0.0 0.0

-2.892646121953815e6 2.1830126927480202e7 0.0
2.1830126927480202e7 1.564462937062388e7 0.0
0.0 0.0 0.0

-7.811174636362877e6 -2.192630980611663e6 0.0
-2.192630980611663e6 3.921727681228506e7 0.0
0.0 0.0 0.0

-577316.7695201477 2.1800949066663504e7 0.0
2.1800949066663504e7 1.9132395877712004e7 0.0
0.0 0.0 0.0

-1.3059859559201945e7 2.7102820429370407e7 0.0
2.7102820429370407e7 -1.287045275638789e7 0.0
0.0 0.0 0.0

-6.378957757485875e6 1.158567978503394e7 0.0
1.158567978503394e7 8.336420953692811e6 0.0
0.0 0.0 0.0

4.897121830597479e6 2.0162482500654664e7 0.0
2.0162482500654664e7 4.386214645058841e7 0.0
0.0 0.0 0.0

-7.078868441266885e6 1.8387890235522103e7 0.0
1.8387890235522103e7 2.139225944201347e7 0.0
0.0 0.0 0.0

-8.330642131869702e6 1.6572633531190602e7 0.0
1.6572633531190602e7 2.1133778264157534e7 0.0
0.0 0.0 0.0

-7.453350207385898e6 1.2068275140405478e7 0.0
1.2068275140405478e7 4.331213920845775e7 0.0
0.0 0.0 0.0

-277858.48165908176 2.14105013058697e7 0.0
2.14105013058697e7 2.395458567674817e7 0.0
0.0 0.0 0.0

-1.012292783373915e7 3.393029762370882e7 0.0
3.393029762370882e7 5.530615571103845e6 0.0
0.0 0.0 0.0

328212.7911501705 3.8012721132976174e7 0.0
3.8012721132976174e7 -1.451337507359599e6 0.0
0.0 0.0 0.0

-3.1938507864760133e6 2.435420463010713e7 0.0
2.435420463010713e7 1.1903917351817552e7 0.0
0.0 0.0 0.0

2.1961960916714612e6 2.6880662339743907e6 0.0
2.6880662339743907e6 -6.72378033460397e6 0.0
0.0 0.0 0.0

1.960357905049812e6 1.2695988192499984e7 0.0
1.2695988192499984e7 -2.2301560111403022e7 0.0
0.0 0.0 0.0

1.6844275893351408e6 1.2564043905827856e7 0.0
1.2564043905827856e7 -1.707998609635526e7 0.0
0.0 0.0 0.0

-4.309599853601399e6 1.9555771204383433e7 0.0
1.9555771204383433e7 1.3392298347439231e7 0.0
0.0 0.0 0.0

-567371.1734196618 5.183747495514502e7 0.0
5.183747495514502e7 -3.388977161872466e6 0.0
0.0 0.0 0.0

-1.0081328924131142e7 9.623005020391691e6 0.0
9.623005020391691e6 1.411818285242521e7 0.0
0.0 0.0 0.0

3.6782924741665684e6 3.3452110249738544e7 0.0
3.3452110249738544e7 -3.7374187229298875e6 0.0
0.0 0.0 0.0

6.026852824299271e6 3.049911913832888e7 0.0
3.049911913832888e7 -6.506460437498361e6 0.0
0.0 0.0 0.0

-4.287280405114456e6 1.2437461335771158e7 0.0
1.2437461335771158e7 9.656259279742714e6 0.0
0.0 0.0 0.0

-289437.3399557721 2.0624398780066956e7 0.0
2.0624398780066956e7 1.3719889329269524e6 0.0
0.0 0.0 0.0

2.3189981602623735e7 2.493833948853306e7 0.0
2.493833948853306e7 1.1416561631925646e7 0.0
0.0 0.0 0.0

9.651344913621124e6 2.121324243223257e7 0.0
2.121324243223257e7 4.263081567446183e7 0.0
0.0 0.0 0.0

2.674051494582423e6 2.0676440247182645e7 0.0
2.0676440247182645e7 1.7246724021198463e7 0.0
0.0 0.0 0.0

-7.1966119323556805e6 1.7849470528961215e7 0.0
1.7849470528961215e7 2.0502344152217224e7 0.0
0.0 0.0 0.0

177165.5721012171 4.827256723849427e7 0.0
4.827256723849427e7 -2.703751831465833e6 0.0
0.0 0.0 0.0

-2.2448895424693104e7 2.9687650685001668e7 0.0
2.9687650685001668e7 -1.1013617570982698e7 0.0
0.0 0.0 0.0

-8.114817706851683e6 1.714323722864836e7 0.0
1.714323722864836e7 2.2049206118062906e7 0.0
0.0 0.0 0.0

-416973.58999626525 1.3914487073490534e7 0.0
1.3914487073490534e7 -3.931154916040272e7 0.0
0.0 0.0 0.0

2.432107951074738e6 1.4350806416838532e6 0.0
1.4350806416838532e6 -4.468044284136677e7 0.0
0.0 0.0 0.0

1.061370850080911e6 1.9085096914721087e7 0.0
1.9085096914721087e7 -1.823958261403452e7 0.0
0.0 0.0 0.0

1.7680391038154112e6 1.344371635296146e7 0.0
1.344371635296146e7 -2.100397744710738e7 0.0
0.0 0.0 0.0

983651.8159951596 2.083012295613752e7 0.0
2.083012295613752e7 -1.5954736742300017e7 0.0
0.0 0.0 0.0

-1.3800141511364868e6 5.6318817027409315e7 0.0
5.6318817027409315e7 -5.478275684125202e6 0.0
0.0 0.0 0.0

-2.0233942009055798e6 2.67143038459913e7 0.0
2.67143038459913e7 5.178410544599746e6 0.0
0.0 0.0 0.0

1.2562068061406584e6 2.4534906284073096e7 0.0
2.4534906284073096e7 -1.2791809018934878e7 0.0
0.0 0.0 0.0

597834.7281604102 2.364570682877355e7 0.0
2.364570682877355e7 -1.3382155380122222e7 0.0
0.0 0.0 0.0

2.080568000764451e6 1.1588737658230048e7 0.0
1.1588737658230048e7 -2.0599139172857437e7 0.0
0.0 0.0 0.0

-3.5034686843445553e6 2.5568718824860595e7 0.0
2.5568718824860595e7 1.2109058628952423e7 0.0
0.0 0.0 0.0

1.081962444122632e6 2.222712393332774e7 0.0
2.222712393332774e7 2.126111731381987e7 0.0
0.0 0.0 0.0

-6.996998107006715e6 2.6798232585713245e7 0.0
2.6798232585713245e7 8.533887042743342e6 0.0
0.0 0.0 0.0

-1.9642851436271183e6 9.209506098164318e6 0.0
9.209506098164318e6 8.05968547044693e7 0.0
0.0 0.0 0.0

-8.917375826843088e6 -494655.5314415508 0.0
-494655.5314415508 2.5125436619763583e7 0.0
0.0 0.0 0.0

-9.447268695914434e6 8.400224772455263e7 0.0
8.400224772455263e7 -1.685042801419642e7 0.0
0.0 0.0 0.0

5.315029639348438e6 2.0172658901635367e7 0.0
2.0172658901635367e7 2.6740516035883762e7 0.0
0.0 0.0 0.0

536875.442981328 4.587029150010791e7 0.0
4.587029150010791e7 -1.9777361912163715e6 0.0
0.0 0.0 0.0

405377.1542351423 2.045400339723189e7 0.0
2.045400339723189e7 -1.2726369067487387e7 0.0
0.0 0.0 0.0

2.011647458435989e6 2.3819287103375036e7 0.0
2.3819287103375036e7 -1.2181052734082839e7 0.0
0.0 0.0 0.0

-2.5391754283599695e6 2.790343043192467e7 0.0
2.790343043192467e7 7.279742782354121e6 0.0
0.0 0.0 0.0

3.4819858611510377e6 1.9832080534385326e6 0.0
1.9832080534385326e6 -2.4616084100265335e7 0.0
0.0 0.0 0.0

1.0919982132026099e7 2.3152355963034395e7 0.0
2.3152355963034395e7 3.9802693854116593e6 0.0
0.0 0.0 0.0

1.8867231932538059e6 1.3339465439477589e7 0.0
1.3339465439477589e7 -2.308069962354133e7 0.0
0.0 0.0 0.0

6.141319509386286e6 2.7650155399184763e7 0.0
2.7650155399184763e7 -7.146224133760804e6 0.0
0.0 0.0 0.0

2.16255154591183e6 8.234059967768923e6 0.0
8.234059967768923e6 -3.766826691668973e7 0.0
0.0 0.0 0.0

-2.309667141172152e6 2.306350582922304e7 0.0
2.306350582922304e7 1.1082067596361984e7 0.0
0.0 0.0 0.0

2.575156259947352e6 7.775763324350638e6 0.0
7.775763324350638e6 -1.4737426160063338e7 0.0
0.0 0.0 0.0

-2.139764771099412e6 1.2796641403272122e7 0.0
1.2796641403272122e7 1.703832598709024e6 0.0
0.0 0.0 0.0

-2.0393412912630957e7 2.6517033788480498e7 0.0
2.6517033788480498e7 -7.14283597205417e6 0.0
0.0 0.0 0.0

2.242495957217792e6 1.0992341337861754e7 0.0
1.0992341337861754e7 -2.6990142196922213e7 0.0
0.0 0.0 0.0

-2.5627387600869443e6 1.9288669846237555e7 0.0
1.9288669846237555e7 -3.529994692670986e6 0.0
0.0 0.0 0.0

574375.8312726603 2.5236494266953148e7 0.0
2.5236494266953148e7 -1.0898012860532671e7 0.0
0.0 0.0 0.0

157732.67591105215 2.0634667202679466e7 0.0
2.0634667202679466e7 3.052933094855012e7 0.0
0.0 0.0 0.0

542824.1234473088 2.2638068388434943e7 0.0
2.2638068388434943e7 -1.7615884331718208e6 0.0
0.0 0.0 0.0

-5.050010602201632e6 1.8325900573197603e7 0.0
1.8325900573197603e7 1.4082684849091439e7 0.0
0.0 0.0 0.0

-9.575944083177507e6 9.610887044014538e6 0.0
9.610887044014538e6 3.777834414713416e7 0.0
0.0 0.0 0.0

683052.5369785987 2.1040478976632208e7 0.0
2.1040478976632208e7 3.108738923476761e7 0.0
0.0 0.0 0.0

-6.072685483104275e6 1.951830520519834e7 0.0
1.951830520519834e7 2.058602420655198e7 0.0
0.0 0.0 0.0

-1.0013775516645603e7 5.002603488818958e6 0.0
5.002603488818958e6 3.377980428252525e7 0.0
0.0 0.0 0.0

-3.399766880261453e6 2.1102274221797917e7 0.0
2.1102274221797917e7 1.7483304904655017e7 0.0
0.0 0.0 0.0

-3.6931126171775516e6 2.376832754035221e7 0.0
2.376832754035221e7 1.7903939638936717e7 0.0
0.0 0.0 0.0

-9.97058416093105e6 7.988229290306732e6 0.0
7.988229290306732e6 1.921988019404548e7 0.0
0.0 0.0 0.0

606893.5225325855 2.4449048038342103e7 0.0
2.4449048038342103e7 -1.2143129341755476e7 0.0
0.0 0.0 0.0

-2.7756330518424697e6 2.7956857056406267e7 0.0
2.7956857056406267e7 4.567083321704411e6 0.0
0.0 0.0 0.0

-5.897718510372838e6 2.0006714698860485e7 0.0
2.0006714698860485e7 2.1339635441200946e7 0.0
0.0 0.0 0.0

-8.078988231661063e6 4.723984851205142e6 0.0
4.723984851205142e6 4.8539019609132595e7 0.0
0.0 0.0 0.0

-1.6825664195600962e6 2.3337156656349093e7 0.0
2.3337156656349093e7 1.456930294025122e7 0.0
0.0 0.0 0.0

-7.671669711430531e6 1.6410270539764823e7 0.0
1.6410270539764823e7 2.3457967120008912e7 0.0
0.0 0.0 0.0

211139.22074942477 1.3576969897069829e7 0.0
1.3576969897069829e7 -3.6902560301928684e7 0.0
0.0 0.0 0.0

-49341.43634514883 1.975256846619988e7 0.0
1.975256846619988e7 3.814160811249139e7 0.0
0.0 0.0 0.0

-7.456300910284312e6 1.783237072010226e7 0.0
1.783237072010226e7 2.7356588371649258e7 0.0
0.0 0.0 0.0

1.690428063626784e6 1.1978112697025819e7 0.0
1.1978112697025819e7 -1.618310951055915e7 0.0
0.0 0.0 0.0

2.3852856965515744e6 3.3742176604848867e6 0.0
3.3742176604848867e6 -3.513555701533594e7 0.0
0.0 0.0 0.0

4.1010707434507757e6 2.0146219632402807e7 0.0
2.0146219632402807e7 3.3992455039915495e7 0.0
0.0 0.0 0.0

2.1640276075920295e6 2.023040615624254e7 0.0
2.023040615624254e7 3.621420937991286e7 0.0
0.0 0.0 0.0

-480999.82456306554 1.980256713836817e7 0.0
1.980256713836817e7 -8.893361309641557e6 0.0
0.0 0.0 0.0

-3.688852551724213e6 2.707189908982213e7 0.0
2.707189908982213e7 1.1697627527487228e7 0.0
0.0 0.0 0.0

567007.5169655848 4.119039946041638e7 0.0
4.119039946041638e7 -1.6880599437641115e6 0.0
0.0 0.0 0.0

950282.2202240843 2.25002819719785e7 0.0
2.25002819719785e7 -1.4739751356927732e7 0.0
0.0 0.0 0.0

-9.476856383228187e6 703953.0670359501 0.0
703953.0670359501 2.621332453241881e7 0.0
0.0 0.0 0.0

-130650.63488850743 1.6016908304299401e7 0.0
1.6016908304299401e7 -3.1573738712903645e7 0.0
0.0 0.0 0.0

-2.8279390868640495e6 2.4087842233466823e7 0.0
2.4087842233466823e7 1.4816074750699911e7 0.0
0.0 0.0 0.0

-8.192725139655624e6 1.6563980769203452e7 0.0
1.6563980769203452e7 2.8237501403970543e7 0.0
0.0 0.0 0.0

4.550726505532639e6 1.766897209372556e7 0.0
1.766897209372556e7 1.5385691730709888e7 0.0
0.0 0.0 0.0

425482.3197772503 1.0666002400871689e7 0.0
1.0666002400871689e7 -4.3458697155807465e7 0.0
0.0 0.0 0.0

593603.7531201318 1.343877071383026e7 0.0
1.343877071383026e7 -3.44725605523189e7 0.0
0.0 0.0 0.0

1.1148773818300974e7 4.41258419447652e7 0.0
4.41258419447652e7 -5.707144679787932e6 0.0
0.0 0.0 0.0

-1.8622205597105825e6 2.7299314974531356e7 0.0
2.7299314974531356e7 4.026907297826917e6 0.0
0.0 0.0 0.0

-2.471407859076819e6 2.8567614832281683e7 0.0
2.8567614832281683e7 6.162064884272e6 0.0
0.0 0.0 0.0

-1.2100917834525863e6 2.9128351508657444e7 0.0
2.9128351508657444e7 -2.4292730322057246e6 0.0
0.0 0.0 0.0

3.4316539574349374e6 4.213310767607134e6 0.0
4.213310767607134e6 -2.028078132165318e7 0.0
0.0 0.0 0.0

-2.600276878897262e6 1.9190871294936717e7 0.0
1.9190871294936717e7 -8.933822255656693e6 0.0
0.0 0.0 0.0

-2.661703223806724e6 2.3912230592654876e7 0.0
2.3912230592654876e7 1.4039892206423614e7 0.0
0.0 0.0 0.0

1.7977156998686478e6 2.5177497565891024e7 0.0
2.5177497565891024e7 -1.1731676926469916e7 0.0
0.0 0.0 0.0

548336.5441157235 3.997667975218356e7 0.0
3.997667975218356e7 -1.5244943524136227e6 0.0
0.0 0.0 0.0

-7.317397459536139e6 1.0733737391799547e7 0.0
1.0733737391799547e7 1.5851241846591758e7 0.0
0.0 0.0 0.0

-1.0312383290658386e7 1.2083619589079633e7 0.0
1.2083619589079633e7 3.0963240350717008e7 0.0
0.0 0.0 0.0

440428.1043240864 3.899593984425291e7 0.0
3.899593984425291e7 -1.3494413611294786e6 0.0
0.0 0.0 0.0

553150.6197288204 2.606461749788234e7 0.0
2.606461749788234e7 -9.738554249952128e6 0.0
0.0 0.0 0.0

1.2500495014026575e6 1.2102078438752368e7 0.0
1.2102078438752368e7 -2.142898951354474e7 0.0
0.0 0.0 0.0

-3.58479601631941e6 1.9200959524412848e7 0.0
1.9200959524412848e7 1.6119416768347744e7 0.0
0.0 0.0 0.0

442583.7140856646 9.829574741183124e6 0.0
9.829574741183124e6 -4.567817687400677e7 0.0
0.0 0.0 0.0

-685236.5923823203 3.379925374728462e7 0.0
3.379925374728462e7 678112.0246580653 0.0
0.0 0.0 0.0

-3.7776386354862293e6 2.4731066518991895e7 0.0
2.4731066518991895e7 1.115602642967808e7 0.0
0.0 0.0 0.0

-1.0355047387631442e6 1.483950345839196e7 0.0
1.483950345839196e7 -3.9657850140133e7 0.0
0.0 0.0 0.0

-3.5566680250765025e6 2.9215247200823016e7 0.0
2.9215247200823016e7 6.341601667627269e6 0.0
0.0 0.0 0.0

-9.98586710855515e6 1.1668304447700158e7 0.0
1.1668304447700158e7 3.3287696547656752e7 0.0
0.0 0.0 0.0

1.0313997022450315e6 1.1749886861450864e7 0.0
1.1749886861450864e7 -1.8347933415680565e7 0.0
0.0 0.0 0.0

2.772851224650038e6 2.3629435992302544e7 0.0
2.3629435992302544e7 1.1978353004228398e7 0.0
0.0 0.0 0.0

-2.3565074192042863e6 2.6324538035967387e7 0.0
2.6324538035967387e7 8.761639482290171e6 0.0
0.0 0.0 0.0

-1.7747450842797644e6 1.588751281946673e7 0.0
1.588751281946673e7 -3.923481612408724e7 0.0
0.0 0.0 0.0

-1.9491716447575493e6 6.2495176427814946e7 0.0
6.2495176427814946e7 -8.645394275425151e6 0.0
0.0 0.0 0.0

-6.731828999344822e6 1.91801090896164e7 0.0
1.91801090896164e7 2.480032553827811e7 0.0
0.0 0.0 0.0

-1.366586780866262e7 1.941001837300337e7 0.0
1.941001837300337e7 -6.5392107878893405e7 0.0
0.0 0.0 0.0

-5.3477507768910555e6 1.1278251637873648e7 0.0
1.1278251637873648e7 1.1947718356359726e7 0.0
0.0 0.0 0.0

-3.559670520212033e6 2.225816013442324e7 0.0
2.225816013442324e7 1.3268833863465002e7 0.0
0.0 0.0 0.0

-2.7412604759311415e6 1.9497282278288614e7 0.0
1.9497282278288614e7 3.492569394355699e7 0.0
0.0 0.0 0.0

-4.255569981405231e6 1.7959586012998693e7 0.0
1.7959586012998693e7 1.691292134775171e7 0.0
0.0 0.0 0.0

2.03318440637495e6 1.81559144516228e7 0.0
1.81559144516228e7 6.646307308261498e7 0.0
0.0 0.0 0.0

-2.4732075012167525e6 2.2287585312863454e7 0.0
2.2287585312863454e7 1.2745431820993207e7 0.0
0.0 0.0 0.0

-1.9602386564101642e6 1.9897928218303174e7 0.0
1.9897928218303174e7 -2.6247512818376705e7 0.0
0.0 0.0 0.0

1.0598000427172072e6 2.298157103493466e7 0.0
2.298157103493466e7 -1.5559902382915778e7 0.0
0.0 0.0 0.0

1.808573056125983e8 3.1970253657090813e7 0.0
3.1970253657090813e7 1.728845579911214e7 0.0
0.0 0.0 0.0

-7.698219787311489e6 -2.102711099818672e6 0.0
-2.102711099818672e6 4.056144737697095e7 0.0
0.0 0.0 0.0

2.651017004397353e6 1.4618407163979511e6 0.0
1.4618407163979511e6 -4.06139594160897e7 0.0
0.0 0.0 0.0

-9.860014976601753e6 1.7727964013468912e6 0.0
1.7727964013468912e6 1.4873635760627514e7 0.0
0.0 0.0 0.0

-981050.1239351904 2.846790614193042e7 0.0
2.846790614193042e7 -3.4655224165199855e6 0.0
0.0 0.0 0.0

-6.75617582622676e6 -1.4209078617853883e6 0.0
-1.4209078617853883e6 5.205803583792311e7 0.0
0.0 0.0 0.0

-8.952114367440647e6 1.8514372558546428e7 0.0
1.8514372558546428e7 -3.889166365512508e7 0.0
0.0 0.0 0.0

-9.05141927540817e6 1.5016681733778443e7 0.0
1.5016681733778443e7 2.8896919361391317e7 0.0
0.0 0.0 0.0

-5.768115120706374e6 2.04571211098344e7 0.0
2.04571211098344e7 2.1933288682443436e7 0.0
0.0 0.0 0.0

2.313197867014773e6 1.3851149257559925e6 0.0
1.3851149257559925e6 -4.6066589649054915e7 0.0
0.0 0.0 0.0

984384.5393273495 1.979617195992951e7 0.0
1.979617195992951e7 -1.6832350523296326e7 0.0
0.0 0.0 0.0

549179.630342945 4.261571920546213e7 0.0
4.261571920546213e7 -1.4129058477971468e6 0.0
0.0 0.0 0.0

698295.3907800205 1.2529433827779962e7 0.0
1.2529433827779962e7 -1.707467953264184e7 0.0
0.0 0.0 0.0

-4.341412591091456e6 2.399805872165304e7 0.0
2.399805872165304e7 -4.664317717429829e6 0.0
0.0 0.0 0.0

1.1342367226846442e6 9.376608601017555e6 0.0
9.376608601017555e6 1.1178512749540254e8 0.0
0.0 0.0 0.0

-3.4038063565337323e6 8.916577242742667e6 0.0
8.916577242742667e6 -1.0792944249517022e8 0.0
0.0 0.0 0.0

-7.577168256114073e6 1.8393296040283885e7 0.0
1.8393296040283885e7 -9.133468280357881e7 0.0
0.0 0.0 0.0

1.2177381052789018e6 1.773275599329204e7 0.0
1.773275599329204e7 -2.1025353629344188e7 0.0
0.0 0.0 0.0

1.59048572775504e6 7.481592162783138e6 0.0
7.481592162783138e6 -4.957813959059016e7 0.0
0.0 0.0 0.0

-2.805378014811786e7 3.1692943126741663e7 0.0
3.1692943126741663e7 1.6678771774556208e6 0.0
0.0 0.0 0.0

1.61404660242985e6 2.4455979235088132e7 0.0
2.4455979235088132e7 -1.3066142171796007e7 0.0
0.0 0.0 0.0

-7.528170816069059e6 -2.0669220279271188e6 0.0
-2.0669220279271188e6 4.19289449975037e7 0.0
0.0 0.0 0.0

-7.409281085120727e6 1.3649605828436755e7 0.0
1.3649605828436755e7 1.734063440987979e7 0.0
0.0 0.0 0.0

-2.328207182144273e6 2.9197480754998613e7 0.0
2.9197480754998613e7 5.073945438037314e6 0.0
0.0 0.0 0.0

-3.3997519094609935e6 2.461388131323258e7 0.0
2.461388131323258e7 1.2778347969308298e7 0.0
0.0 0.0 0.0

-7.3870269020685535e6 1.6762379420969294e7 0.0
1.6762379420969294e7 1.8297782403947257e7 0.0
0.0 0.0 0.0

-8.94427973067411e6 9.326181503999202e6 0.0
9.326181503999202e6 1.79911872794817e7 0.0
0.0 0.0 0.0

9.045106533406692e6 2.3074074469708774e7 0.0
2.3074074469708774e7 6.038360975252356e6 0.0
0.0 0.0 0.0

461573.1341370684 2.6933426189272393e7 0.0
2.6933426189272393e7 -8.630405160773758e6 0.0
0.0 0.0 0.0

-4.0486404982869984e6 7.173194502785947e6 0.0
7.173194502785947e6 1.7890250006445865e6 0.0
0.0 0.0 0.0

862627.6117907315 3.1059489528233066e7 0.0
3.1059489528233066e7 -2.788990547842974e6 0.0
0.0 0.0 0.0

-8.032660642913125e6 1.7931804283762064e7 0.0
1.7931804283762064e7 2.7291489975247752e7 0.0
0.0 0.0 0.0

-3.4249240404583532e6 1.8771614091969807e7 0.0
1.8771614091969807e7 1.4794130966665711e7 0.0
0.0 0.0 0.0

-7.373093650120648e6 -1.9722794411847263e6 0.0
-1.9722794411847263e6 4.328057736293644e7 0.0
0.0 0.0 0.0

2.426974586626727e6 1.4475467819658983e6 0.0
1.4475467819658983e6 -4.329250979325579e7 0.0
0.0 0.0 0.0

1.3818792794535533e6 7.805327210876167e6 0.0
7.805327210876167e6 -5.296589404722771e7 0.0
0.0 0.0 0.0

-1.0208347341156399e7 1.4056293345955437e7 0.0
1.4056293345955437e7 2.75207693786075e7 0.0
0.0 0.0 0.0

-1.2361106202472448e6 5.306000135863086e6 0.0
5.306000135863086e6 -9.368368567050035e7 0.0
0.0 0.0 0.0

-5.239982654020954e6 -29332.194917121673 0.0
-29332.194917121673 6.868421382839765e7 0.0
0.0 0.0 0.0

1.4294553795370795e6 1.134631428486985e7 0.0
1.134631428486985e7 -2.280218331534138e7 0.0
0.0 0.0 0.0

2.5005479177375603e6 9.735962376033263e6 0.0
9.735962376033263e6 -2.54985159694202e7 0.0
0.0 0.0 0.0

7.479309096993164e6 3.8932894076010145e7 0.0
3.8932894076010145e7 -3.1699965378289204e6 0.0
0.0 0.0 0.0

-7.948742726905787e6 3.3820305792569295e7 0.0
3.3820305792569295e7 6.192386841181103e6 0.0
0.0 0.0 0.0

-2.4837581854470326e6 2.565059345610069e7 0.0
2.565059345610069e7 9.992489279097565e6 0.0
0.0 0.0 0.0

1.1901489198857525e6 2.9691832112736177e7 0.0
2.9691832112736177e7 -4.699145120877215e6 0.0
0.0 0.0 0.0

-916848.5697602385 3.963728052019063e7 0.0
3.963728052019063e7 1.2209434197239513e6 0.0
0.0 0.0 0.0

-2.8445872574891136e6 2.732387637882598e7 0.0
2.732387637882598e7 9.353664243700076e6 0.0
0.0 0.0 0.0

1.214883609902991e6 2.1396671665125675e7 0.0
2.1396671665125675e7 1.3948548454137035e7 0.0
0.0 0.0 0.0

335127.1319227256 2.68363353648024e6 0.0
2.68363353648024e6 -7.888593655188535e7 0.0
0.0 0.0 0.0

2.1153509847199135e6 1.2905047426361202e6 0.0
1.2905047426361202e6 -5.184348087743715e7 0.0
0.0 0.0 0.0

1.1716907818987966e6 1.6951385428879075e6 0.0
1.6951385428879075e6 -6.786214341184406e7 0.0
0.0 0.0 0.0

-2.2895432029533847e6 2.956942761306994e7 0.0
2.956942761306994e7 1.5204572614875925e6 0.0
0.0 0.0 0.0

-6.929759656377602e6 1.2281522447924336e7 0.0
1.2281522447924336e7 1.0219315862273682e7 0.0
0.0 0.0 0.0

-6.475922977827303e6 -1.2788465452390127e6 0.0
-1.2788465452390127e6 5.3583630623957835e7 0.0
0.0 0.0 0.0

-1.015277610090981e7 1.4461284942989409e7 0.0
1.4461284942989409e7 2.558513076627273e7 0.0
0.0 0.0 0.0

3.180514096327424e6 3.493705445062921e6 0.0
3.493705445062921e6 -2.7220647277279776e7 0.0
0.0 0.0 0.0

-1.6079131040847182e7 3.1069766253634013e7 0.0
3.1069766253634013e7 4.758885078411014e6 0.0
0.0 0.0 0.0

-8.523115980972055e6 1.9696985834925923e7 0.0
1.9696985834925923e7 -3.2887410406958565e7 0.0
0.0 0.0 0.0

-7.993739770525536e6 -2.674667250546001e6 0.0
-2.674667250546001e6 3.481464320498256e7 0.0
0.0 0.0 0.0

-1.1223259539498331e7 6.152178510046274e6 0.0
6.152178510046274e6 2.4381012322837714e7 0.0
0.0 0.0 0.0

-9.193298726149999e6 1.0862055156812182e7 0.0
1.0862055156812182e7 3.8605717003573224e7 0.0
0.0 0.0 0.0

-3.153906325493587e6 2.2665136993248045e7 0.0
2.2665136993248045e7 2.097695433309668e7 0.0
0.0 0.0 0.0

846341.690905232 1.4071627045417974e7 0.0
1.4071627045417974e7 -3.0539736941559263e7 0.0
0.0 0.0 0.0

1.0323997118341438e6 2.1976838575099055e6 0.0
2.1976838575099055e6 -7.46846160324981e7 0.0
0.0 0.0 0.0

2.7103794917888753e6 1.5557336865910876e6 0.0
1.5557336865910876e6 -3.67220632750676e7 0.0
0.0 0.0 0.0

1.7028518835728195e7 4.173467958395482e7 0.0
4.173467958395482e7 -7.166116049501654e6 0.0
0.0 0.0 0.0

-5.555613626403838e6 -232935.25785862183 0.0
-232935.25785862183 6.599291363740784e7 0.0
0.0 0.0 0.0

1.4274856647259332e6 9.199322998119136e6 0.0
9.199322998119136e6 -4.476419957924493e7 0.0
0.0 0.0 0.0

-4.016284818835631e6 2.7548751391134975e6 0.0
2.7548751391134975e6 8.695214846034941e7 0.0
0.0 0.0 0.0

151930.88934876025 3.56034281349488e6 0.0
3.56034281349488e6 -8.485790670693828e7 0.0
0.0 0.0 0.0

-3.9782826461698133e6 2.8856629017415255e7 0.0
2.8856629017415255e7 9.227264847099047e6 0.0
0.0 0.0 0.0

-1.472152976486438e6 1.3935723176481213e7 0.0
1.3935723176481213e7 -7.473212642006513e6 0.0
0.0 0.0 0.0

-432397.3868918093 2.086203107575398e7 0.0
2.086203107575398e7 -1.3417439879788712e7 0.0
0.0 0.0 0.0

290691.8245691806 1.928450538143964e7 0.0
1.928450538143964e7 -2.2692868479829777e7 0.0
0.0 0.0 0.0

-4.810328788556211e6 303149.49321308965 0.0
303149.49321308965 7.19554235434377e7 0.0
0.0 0.0 0.0

968346.5632042177 1.9736521358431552e6 0.0
1.9736521358431552e6 -7.103753790335019e7 0.0
0.0 0.0 0.0

-7.126518876394134e6 1.8695700523747645e7 0.0
1.8695700523747645e7 2.8034553622343782e7 0.0
0.0 0.0 0.0

-8.463753154700048e6 1.7376679081479385e7 0.0
1.7376679081479385e7 2.6671412678452495e7 0.0
0.0 0.0 0.0

-9.613855070904074e6 1.2664518483753098e7 0.0
1.2664518483753098e7 3.4073197126048066e7 0.0
0.0 0.0 0.0

-5.372097621773881e6 1.7210759438194364e7 0.0
1.7210759438194364e7 1.9029913616048083e7 0.0
0.0 0.0 0.0

6.01572778279352e6 2.0686127325378068e7 0.0
2.0686127325378068e7 4.45961177362115e7 0.0
0.0 0.0 0.0

1.5696605066169202e6 2.7585933222003255e7 0.0
2.7585933222003255e7 -7.601144272164474e6 0.0
0.0 0.0 0.0

-2.1416596523937006e6 3.159245344237702e7 0.0
3.159245344237702e7 763540.3283641428 0.0
0.0 0.0 0.0

1.3896727334264363e6 2.9237138909423057e7 0.0
2.9237138909423057e7 -6.4483257751204185e6 0.0
0.0 0.0 0.0

2.2069720087341648e6 1.139187549159804e7 0.0
1.139187549159804e7 -2.2782055273226548e7 0.0
0.0 0.0 0.0

-4.443168635612872e6 3.2202377916938532e7 0.0
3.2202377916938532e7 5.974707644882295e6 0.0
0.0 0.0 0.0

-2.5311718192086318e6 2.2952853795328468e7 0.0
2.2952853795328468e7 -6.511686460180689e6 0.0
0.0 0.0 0.0

1.417607648332864e6 1.6443700398231633e7 0.0
1.6443700398231633e7 -2.3851300955924906e7 0.0
0.0 0.0 0.0

-7.149069716086455e6 1.6659242564587604e7 0.0
1.6659242564587604e7 3.496279299370423e7 0.0
0.0 0.0 0.0

-9.764063577757116e6 1.4769221475481598e7 0.0
1.4769221475481598e7 2.839472961709044e7 0.0
0.0 0.0 0.0

1.7036528717817198e6 1.031961455088396e7 0.0
1.031961455088396e7 -2.641575131282535e7 0.0
0.0 0.0 0.0

-7.100401129000399e6 -1.7369886145680589e6 0.0
-1.7369886145680589e6 4.7513651411268584e7 0.0
0.0 0.0 0.0

2.200641095774198e6 1.3937385423120158e6 0.0
1.3937385423120158e6 -4.7457678311042204e7 0.0
0.0 0.0 0.0

1.00343313347001e6 2.090191188933246e7 0.0
2.090191188933246e7 2.720279525911976e7 0.0
0.0 0.0 0.0

-5.684368159810562e6 -419485.5082783792 0.0
-419485.5082783792 6.346916856231099e7 0.0
0.0 0.0 0.0

1.3400622714096867e6 1.5435166929414542e6 0.0
1.5435166929414542e6 -6.2788853689288124e7 0.0
0.0 0.0 0.0

2.10479598005555e6 1.4497942149252512e6 0.0
1.4497942149252512e6 -4.88388626564022e7 0.0
0.0 0.0 0.0

-6.9415314367959425e6 -1.587463192933537e6 0.0
-1.587463192933537e6 4.894740515700544e7 0.0
0.0 0.0 0.0

-1.4636825218726117e6 1.83463970371924e7 0.0
1.83463970371924e7 4.531973941804408e7 0.0
0.0 0.0 0.0

1.5732254729679078e6 1.4452657334943288e6 0.0
1.4452657334943288e6 -6.0736342646909066e7 0.0
0.0 0.0 0.0

-5.847042923707902e6 -695536.6695346759 0.0
-695536.6695346759 6.108016331858206e7 0.0
0.0 0.0 0.0

-2.486310268284847e6 2.209907530718148e7 0.0
2.209907530718148e7 2.406498059704984e7 0.0
0.0 0.0 0.0

-7.858259283611324e6 901591.8164668265 0.0
901591.8164668265 4.328203975452735e7 0.0
0.0 0.0 0.0

-6.848854391398676e6 -1.4625383795687752e6 0.0
-1.4625383795687752e6 5.052601949382832e7 0.0
0.0 0.0 0.0

2.2633815247570537e6 1.4107742303207798e6 0.0
1.4107742303207798e6 -5.041022872683033e7 0.0
0.0 0.0 0.0

1.6504864297066107e6 1.464738964041833e6 0.0
1.464738964041833e6 -5.876675611593052e7 0.0
0.0 0.0 0.0

-6.0646488377566e6 -936103.4203957706 0.0
-936103.4203957706 5.8989264106766276e7 0.0
0.0 0.0 0.0

-3.215767527709044e8 7.055116296643965e7 0.0
7.055116296643965e7 -3.833171427400338e7 0.0
0.0 0.0 0.0

3.078242947342085e8 6.3226995507207744e7 0.0
6.3226995507207744e7 3.1509589630272962e7 0.0
0.0 0.0 0.0

-7.30529011346728e6 1.7313705724058356e7 0.0
1.7313705724058356e7 1.9448881262469225e7 0.0
0.0 0.0 0.0

1.5718854397161752e6 1.3506584443033433e6 0.0
1.3506584443033433e6 -5.683800323147888e7 0.0
0.0 0.0 0.0

-6.349445948896579e6 -1.0448025747309574e6 0.0
-1.0448025747309574e6 5.723423637864878e7 0.0
0.0 0.0 0.0

408181.4260322666 2.1201141321808144e7 0.0
2.1201141321808144e7 -1.3636929901479657e6 0.0
0.0 0.0 0.0

-9.354587661601743e6 1.5855588475071538e7 0.0
1.5855588475071538e7 2.7198001247045193e7 0.0
0.0 0.0 0.0

-2.107667834076816e6 2.9800711576896463e7 0.0
2.9800711576896463e7 4.091415671004041e6 0.0
0.0 0.0 0.0

1.7682279319077348e6 2.151532012317676e7 0.0
2.151532012317676e7 2.8086287657414522e7 0.0
0.0 0.0 0.0

-6.458949744793087e6 -1.1077299147869898e6 0.0
-1.1077299147869898e6 5.542867148017427e7 0.0
0.0 0.0 0.0

1.8237474896524437e6 1.219712997029359e6 0.0
1.219712997029359e6 -5.522969184205494e7 0.0
0.0 0.0 0.0

457727.4662590022 2.7748887995750763e7 0.0
2.7748887995750763e7 -7.555975290079087e6 0.0
0.0 0.0 0.0

-1.0149621185816271e7 1.9189122362605885e7 0.0
1.9189122362605885e7 -6.686193189443177e7 0.0
0.0 0.0 0.0

-431809.5195756466 3.1161027746993974e7 0.0
3.1161027746993974e7 -2.6107805949956244e6 0.0
0.0 0.0 0.0

1.1794105091176936e6 1.8416514071154166e7 0.0
1.8416514071154166e7 -1.960639457688144e7 0.0
0.0 0.0 0.0

174436.4963372536 1.7130127809527665e7 0.0
1.7130127809527665e7 -2.7734158722081624e7 0.0
0.0 0.0 0.0

104242.93456271337 2.1632341585883837e7 0.0
2.1632341585883837e7 7.960191807448761e6 0.0
0.0 0.0 0.0

3.3186213229595516e6 2.7621864955764305e7 0.0
2.7621864955764305e7 -9.034128274149444e6 0.0
0.0 0.0 0.0

1.7234272738928315e6 2.5160672089247536e7 0.0
2.5160672089247536e7 -1.1607161650408186e7 0.0
0.0 0.0 0.0

-7.358530996907862e6 1.7908805374958385e7 0.0
1.7908805374958385e7 -5.154936356206393e7 0.0
0.0 0.0 0.0

-1.2422914059947534e6 3.12129152019591e7 0.0
3.12129152019591e7 1.3472014375580307e6 0.0
0.0 0.0 0.0

-2.9180003296087747e6 2.512390952391107e7 0.0
2.512390952391107e7 1.0775769438773526e7 0.0
0.0 0.0 0.0

-9.060650308074005e6 2.6491021094695847e7 0.0
2.6491021094695847e7 -1.3407953242240854e7 0.0
0.0 0.0 0.0

-156181.2226081323 1.7659439519688804e7 0.0
1.7659439519688804e7 -2.775767252348921e7 0.0
0.0 0.0 0.0

-9.964713101153802e6 1.4866924770841232e7 0.0
1.4866924770841232e7 2.3615569655962996e7 0.0
0.0 0.0 0.0

3.31797579315362e6 2.03265125324868e7 0.0
2.03265125324868e7 1.4570568635279603e7 0.0
0.0 0.0 0.0

-8.939462204232164e6 1.6347668176403051e7 0.0
1.6347668176403051e7 2.334875476314671e7 0.0
0.0 0.0 0.0

-1.5957308356967024e6 2.1174599088877738e7 0.0
2.1174599088877738e7 -2.1956715235005785e6 0.0
0.0 0.0 0.0

-1.5502057905308905e6 3.0831849248983763e7 0.0
3.0831849248983763e7 2.337167260716182e6 0.0
0.0 0.0 0.0

-3.020574849562441e6 1.7917611669648465e7 0.0
1.7917611669648465e7 -3.530440496663632e7 0.0
0.0 0.0 0.0

-1.6474717753998097e6 2.219296865945607e7 0.0
2.219296865945607e7 2.3727034276591808e7 0.0
0.0 0.0 0.0

-1.1464068314344655e6 4.071599615740729e7 0.0
4.071599615740729e7 1.7077301972131454e6 0.0
0.0 0.0 0.0

-2.3965457009994267e6 2.1650369712622624e7 0.0
2.1650369712622624e7 -3.0094625113634933e6 0.0
0.0 0.0 0.0

196866.7078900505 2.920369491907936e7 0.0
2.920369491907936e7 -5.456453550289829e6 0.0
0.0 0.0 0.0

2.0476728545133766e7 2.647502360473278e7 0.0
2.647502360473278e7 1.4370478898455689e7 0.0
0.0 0.0 0.0

-1.880733097669334e6 3.0349424356633995e7 0.0
3.0349424356633995e7 3.1680255135758542e6 0.0
0.0 0.0 0.0

-9.676977227116676e6 1.7632051825668953e7 0.0
1.7632051825668953e7 -2.5786133880391903e6 0.0
0.0 0.0 0.0

-1.2984198313915348e6 3.340742256250981e7 0.0
3.340742256250981e7 1.4005578922700768e6 0.0
0.0 0.0 0.0

3.1090732791816723e6 1.7931890290415518e6 0.0
1.7931890290415518e6 -2.876759133718227e7 0.0
0.0 0.0 0.0

3.211804149694586e6 1.8641504085322425e6 0.0
1.8641504085322425e6 -2.762072724352371e7 0.0
0.0 0.0 0.0

419208.7725322484 2.8504704774202913e7 0.0
2.8504704774202913e7 -6.30219812331521e6 0.0
0.0 0.0 0.0

3.0259819976635966e6 2.0782431641412955e7 0.0
2.0782431641412955e7 3.6995433289868265e7 0.0
0.0 0.0 0.0

-658799.1896249132 3.4522700919052735e7 0.0
3.4522700919052735e7 797280.1308291281 0.0
0.0 0.0 0.0

-9.845668728400312e6 1.305760647949571e7 0.0
1.305760647949571e7 3.1804029903923333e7 0.0
0.0 0.0 0.0

-774730.0898511634 3.785624873692352e7 0.0
3.785624873692352e7 1.043059687055982e6 0.0
0.0 0.0 0.0

-2.5156666463936577e6 2.3552496351773918e7 0.0
2.3552496351773918e7 1.4134234167889394e7 0.0
0.0 0.0 0.0

366294.02009960916 2.0064683275727168e7 0.0
2.0064683275727168e7 5.747724963271993e6 0.0
0.0 0.0 0.0

1.237849186272068e6 1.380218527057408e7 0.0
1.380218527057408e7 -3.221658775465395e7 0.0
0.0 0.0 0.0

-3.1522556980719278e6 2.9635306160283368e7 0.0
2.9635306160283368e7 4.36905310740624e6 0.0
0.0 0.0 0.0

-8.577565815102357e6 -1.2628096454908801e6 0.0
-1.2628096454908801e6 3.1478178011169568e7 0.0
0.0 0.0 0.0

-1.5531184772682972e6 1.7628152469928276e7 0.0
1.7628152469928276e7 4.801277123843874e7 0.0
0.0 0.0 0.0

-6.601677116266701e6 1.7475955318659082e7 0.0
1.7475955318659082e7 -5.797390455168869e7 0.0
0.0 0.0 0.0

-8.560241205800015e6 1.3854497046492482e7 0.0
1.3854497046492482e7 3.5623047858785816e7 0.0
0.0 0.0 0.0

8.384524594421338e6 2.8555663936298855e7 0.0
2.8555663936298855e7 -6.059202627960624e6 0.0
0.0 0.0 0.0

1.490090684741063e6 1.4448852695232302e7 0.0
1.4448852695232302e7 -2.8430620254525084e7 0.0
0.0 0.0 0.0

-2.598658601562161e6 2.120640678518177e7 0.0
2.120640678518177e7 -1.8346280494437139e6 0.0
0.0 0.0 0.0

-125118.20339201589 3.05769286627846e7 0.0
3.05769286627846e7 -3.5196426704337406e6 0.0
0.0 0.0 0.0

-973540.4235641412 2.053432039993038e7 0.0
2.053432039993038e7 -6.034249811912021e6 0.0
0.0 0.0 0.0

-9.43841499718488e6 1.4298335667340405e7 0.0
1.4298335667340405e7 2.811825170956171e7 0.0
0.0 0.0 0.0

-7.82300684955254e6 1.5825900170479316e7 0.0
1.5825900170479316e7 3.447490327882003e7 0.0
0.0 0.0 0.0

63074.626413007034 2.99038304408573e7 0.0
2.99038304408573e7 -4.497692582158229e6 0.0
0.0 0.0 0.0

-6.650919629784646e6 1.6509963466168579e7 0.0
1.6509963466168579e7 2.0895792154850546e7 0.0
0.0 0.0 0.0

2.2061540732431468e6 4.545228421912157e6 0.0
4.545228421912157e6 -4.660840364848215e7 0.0
0.0 0.0 0.0

-5.249441065049211e6 1.922157849696436e7 0.0
1.922157849696436e7 1.6726420271927958e7 0.0
0.0 0.0 0.0

-2.1279699338303944e6 2.0331941387516428e7 0.0
2.0331941387516428e7 -1.2760104821812574e7 0.0
0.0 0.0 0.0

862891.3695170814 2.1435425456994683e7 0.0
2.1435425456994683e7 1.9106770102797903e6 0.0
0.0 0.0 0.0

-4.217495309011714e6 2.298730043376142e7 0.0
2.298730043376142e7 -1.4545138494852528e7 0.0
0.0 0.0 0.0

-1.6253601678292975e6 2.0996412459828466e7 0.0
2.0996412459828466e7 -8.113386044599749e6 0.0
0.0 0.0 0.0

255996.6570524387 1.770324386609017e7 0.0
1.770324386609017e7 -2.599643501303804e7 0.0
0.0 0.0 0.0

1.697695273673214e6 8.873567602995908e6 0.0
8.873567602995908e6 -3.357967798057317e7 0.0
0.0 0.0 0.0

-1.618221526898265e6 2.0427399724556517e7 0.0
2.0427399724556517e7 -9.387257675093055e6 0.0
0.0 0.0 0.0

1.3867555084285634e6 1.1911064681446629e7 0.0
1.1911064681446629e7 -2.360853915974391e7 0.0
0.0 0.0 0.0

3.276928312204891e6 3.823357871656475e6 0.0
3.823357871656475e6 -2.1962859122484062e7 0.0
0.0 0.0 0.0

-2.7459627461613496e6 3.0757780302917745e7 0.0
3.0757780302917745e7 2.497174648842606e6 0.0
0.0 0.0 0.0

-1.3362844168185268e6 1.447490064417452e7 0.0
1.447490064417452e7 -9.057695016861873e6 0.0
0.0 0.0 0.0

-2.8406961355677983e6 2.273763890994442e7 0.0
2.273763890994442e7 2.0442735125145853e7 0.0
0.0 0.0 0.0

-8.155221285558709e6 -4.646471040137161e6 0.0
-4.646471040137161e6 2.10434132579675e7 0.0
0.0 0.0 0.0

5.230839572939421e6 2.3092984905062318e7 0.0
2.3092984905062318e7 3.1088391084584417e6 0.0
0.0 0.0 0.0

-5.684516921410806e6 2.3241196229868192e7 0.0
2.3241196229868192e7 -1.6075421095974956e7 0.0
0.0 0.0 0.0

1.8245229705486689e6 9.450268864545802e6 0.0
9.450268864545802e6 -2.7786722111960273e7 0.0
0.0 0.0 0.0

-1.2129784108958204e8 2.0719270105925977e7 0.0
2.0719270105925977e7 3.584678096017912e6 0.0
0.0 0.0 0.0

-3.8572065963434987e6 2.152504529107278e7 0.0
2.152504529107278e7 2.4599868850954145e7 0.0
0.0 0.0 0.0

1.1213067370990328e6 2.1495903055408075e7 0.0
2.1495903055408075e7 -1.6595756147788195e7 0.0
0.0 0.0 0.0

-1.3476151666833851e6 1.911410947935917e7 0.0
1.911410947935917e7 -9.99864258313395e6 0.0
0.0 0.0 0.0

929883.991359055 1.5781645725138858e7 0.0
1.5781645725138858e7 -2.91087481200979e7 0.0
0.0 0.0 0.0

2.177147356551208e6 2.0935396750210647e7 0.0
2.0935396750210647e7 1.437602955333729e7 0.0
0.0 0.0 0.0

322905.7917612735 1.426311924366209e7 0.0
1.426311924366209e7 -3.669948499382759e7 0.0
0.0 0.0 0.0

2.2652947922896896e6 2.1321706851666234e7 0.0
2.1321706851666234e7 1.6752966740420684e7 0.0
0.0 0.0 0.0

397457.9467476867 1.933671328546622e7 0.0
1.933671328546622e7 -1.8634728640495487e7 0.0
0.0 0.0 0.0

2.516878213983888e6 9.191271808887236e6 0.0
9.191271808887236e6 -2.9647797651872057e7 0.0
0.0 0.0 0.0

1.563642861004971e6 2.361436079422175e6 0.0
2.361436079422175e6 -5.3885083088752344e7 0.0
0.0 0.0 0.0

6.170272272523729e6 3.0551726149126593e7 0.0
3.0551726149126593e7 -6.608679240622573e6 0.0
0.0 0.0 0.0

890727.3095858116 1.3968034319817273e7 0.0
1.3968034319817273e7 -3.44522718332856e7 0.0
0.0 0.0 0.0

-4.550795263256824e6 3.13039543066731e7 0.0
3.13039543066731e7 6.73963540265261e6 0.0
0.0 0.0 0.0

-9.11648378622244e6 2.5043250684343442e7 0.0
2.5043250684343442e7 1.7941726709745834e6 0.0
0.0 0.0 0.0

2.231970593326457e6 8.654969877527015e6 0.0
8.654969877527015e6 -1.3489488545775874e7 0.0
0.0 0.0 0.0

-1.638420003152715e6 4.185271257798841e7 0.0
4.185271257798841e7 2.0933443784465576e6 0.0
0.0 0.0 0.0

2.371699029209025e6 1.0379255421775341e7 0.0
1.0379255421775341e7 -2.6262189255309604e7 0.0
0.0 0.0 0.0

2.6739026505939215e6 1.9429845507146962e7 0.0
1.9429845507146962e7 4.95951914403659e7 0.0
0.0 0.0 0.0

-932808.7239279537 2.187556556538912e7 0.0
2.187556556538912e7 2.163754592864489e6 0.0
0.0 0.0 0.0

-8.260881427245544e6 3.2511427451512244e7 0.0
3.2511427451512244e7 6.760938458503688e6 0.0
0.0 0.0 0.0

-8.59002531128142e6 1.5649439276777403e7 0.0
1.5649439276777403e7 2.4762670012390196e7 0.0
0.0 0.0 0.0

667138.6484390572 1.5367592133000322e7 0.0
1.5367592133000322e7 -2.9150834930740252e7 0.0
0.0 0.0 0.0

-3.06005096988572e6 1.2717267747084081e7 0.0
1.2717267747084081e7 -1.3727172124853146e6 0.0
0.0 0.0 0.0

-714653.9519388622 2.1685601970057588e7 0.0
2.1685601970057588e7 -7.023348746879802e6 0.0
0.0 0.0 0.0

1.6453050248939466e7 2.400817153870529e7 0.0
2.400817153870529e7 4.798415998396756e6 0.0
0.0 0.0 0.0

970851.6259942232 2.1445344671840623e7 0.0
2.1445344671840623e7 -1.8312570241505526e7 0.0
0.0 0.0 0.0

589104.637884968 1.0077491957844816e7 0.0
1.0077491957844816e7 -6.612434007658081e6 0.0
0.0 0.0 0.0

413597.1987387873 1.6548838570220117e7 0.0
1.6548838570220117e7 -2.763517371654068e7 0.0
0.0 0.0 0.0

-8.1685023502466045e6 -719610.6791736156 0.0
-719610.6791736156 3.801782938488477e7 0.0
0.0 0.0 0.0

-3.2478217806067206e6 2.3732088463552587e7 0.0
2.3732088463552587e7 1.786255760957501e7 0.0
0.0 0.0 0.0

-8.896867613390805e6 1.6425910924090965e7 0.0
1.6425910924090965e7 2.7970504868676644e7 0.0
0.0 0.0 0.0

-1.999781920858052e7 2.847784328301851e7 0.0
2.847784328301851e7 -9.398903069643985e6 0.0
0.0 0.0 0.0

-6.773580053937312e6 1.8383144240027413e7 0.0
1.8383144240027413e7 -4.920033751199455e7 0.0
0.0 0.0 0.0

-3.1506821837210194e6 2.813810971208657e7 0.0
2.813810971208657e7 9.014478898272248e6 0.0
0.0 0.0 0.0

-4.881621547607554e6 2.9372721260385547e7 0.0
2.9372721260385547e7 8.448922151468456e6 0.0
0.0 0.0 0.0

2.962452816747366e6 2.5399601397445265e7 0.0
2.5399601397445265e7 -1.1088658079587119e7 0.0
0.0 0.0 0.0

-4.603757180572895e6 1.6677261063133197e7 0.0
1.6677261063133197e7 -5.08044358140586e7 0.0
0.0 0.0 0.0

-2.1288729423810877e6 2.219212849975698e7 0.0
2.219212849975698e7 2.135654434239233e7 0.0
0.0 0.0 0.0

-7.2318386709588915e6 6.862988734080894e6 0.0
6.862988734080894e6 5.087283946794955e7 0.0
0.0 0.0 0.0

2.254679588338282e6 2.705136876538831e6 0.0
2.705136876538831e6 -7.577252170740474e6 0.0
0.0 0.0 0.0

-1.8343272193852384e6 1.946140778242121e7 0.0
1.946140778242121e7 -2.5554975035701927e7 0.0
0.0 0.0 0.0

3.0050733799248207e6 2.6680898770239e7 0.0
2.6680898770239e7 -9.974490146591315e6 0.0
0.0 0.0 0.0

-1.53432478733394e6 2.2310771288580824e7 0.0
2.2310771288580824e7 -1.9504384082231242e6 0.0
0.0 0.0 0.0

-678934.6850546934 1.764129117577686e7 0.0
1.764129117577686e7 -1.2901647864492243e7 0.0
0.0 0.0 0.0

-1.0233620630770328e7 1.934220209385707e7 0.0
1.934220209385707e7 -3.98619081251909e7 0.0
0.0 0.0 0.0

-8.840434549162624e6 1.4882663698253922e7 0.0
1.4882663698253922e7 3.321516692773249e7 0.0
0.0 0.0 0.0

822146.1217635189 3.432580391337548e7 0.0
3.432580391337548e7 -792933.2476895815 0.0
0.0 0.0 0.0

-2.8326363760079395e7 2.921672216649118e7 0.0
2.921672216649118e7 -4.7001197951013325e6 0.0
0.0 0.0 0.0

5.705259686053101e6 2.3705355742410414e7 0.0
2.3705355742410414e7 3.4118812101342073e6 0.0
0.0 0.0 0.0

1.4915210361463139e6 8.450719984164292e6 0.0
8.450719984164292e6 -1.5858518355771543e7 0.0
0.0 0.0 0.0

-1.7254512565056079e6 2.1840841088859882e7 0.0
2.1840841088859882e7 -814395.8371964344 0.0
0.0 0.0 0.0

-8.296651526262078e6 1.21400172903897e7 0.0
1.21400172903897e7 4.01468120432454e7 0.0
0.0 0.0 0.0

-6.229473533652365e6 3.3447360085729145e7 0.0
3.3447360085729145e7 5.786173337029824e6 0.0
0.0 0.0 0.0

-2.714744954434122e6 2.222370727639654e7 0.0
2.222370727639654e7 2.2025158744602174e7 0.0
0.0 0.0 0.0

-1.6742665443675793e6 3.1923813652918216e7 0.0
3.1923813652918216e7 -42724.1734432301 0.0
0.0 0.0 0.0

508374.5764472615 1.8669476811597686e7 0.0
1.8669476811597686e7 -2.000343712032952e7 0.0
0.0 0.0 0.0

-7.63465135271875e6 1.4068842286277143e7 0.0
1.4068842286277143e7 3.990877220339784e7 0.0
0.0 0.0 0.0

26765.699295480736 1.968956135757696e7 0.0
1.968956135757696e7 -2.25598052687441e7 0.0
0.0 0.0 0.0

-8.181948179807991e6 2.437644342924748e7 0.0
2.437644342924748e7 -4.948199418785529e6 0.0
0.0 0.0 0.0

784755.1058319894 3.499494046285169e7 0.0
3.499494046285169e7 -932652.643828457 0.0
0.0 0.0 0.0

2.7278244954549754e6 5.016130009362832e6 0.0
5.016130009362832e6 -2.3300058947625652e7 0.0
0.0 0.0 0.0

2.872581567269641e6 2.4844115511088233e7 0.0
2.4844115511088233e7 -9.630104844039151e6 0.0
0.0 0.0 0.0

-2.8072593694273885e6 2.8063868890358612e7 0.0
2.8063868890358612e7 8.167884913253016e6 0.0
0.0 0.0 0.0

-9.285180292417927e6 1.4727718164712964e7 0.0
1.4727718164712964e7 2.6023837755720373e7 0.0
0.0 0.0 0.0

-7.0887238611584045e6 2.5760992844597857e7 0.0
2.5760992844597857e7 -1.1881981815113647e7 0.0
0.0 0.0 0.0

-7.880580025437439e6 1.68170052189008e7 0.0
1.68170052189008e7 3.217909541165915e7 0.0
0.0 0.0 0.0

-2.570346279383649e6 6.995603946889419e6 0.0
6.995603946889419e6 5.750387483995431e6 0.0
0.0 0.0 0.0

-2.5774491077351575e6 2.7224834168981057e7 0.0
2.7224834168981057e7 8.39945868866961e6 0.0
0.0 0.0 0.0

-1.0137703953675102e7 1.3546650949924802e7 0.0
1.3546650949924802e7 2.9603680380097095e7 0.0
0.0 0.0 0.0

-3.613795471676315e6 2.256882161524304e7 0.0
2.256882161524304e7 1.434794419262918e7 0.0
0.0 0.0 0.0

6.158406121094751e6 2.0316519271667123e7 0.0
2.0316519271667123e7 3.9054544573912114e7 0.0
0.0 0.0 0.0

-3.3742588709304146e6 1.6598674117006069e7 0.0
1.6598674117006069e7 -4.450049066326548e7 0.0
0.0 0.0 0.0

-7.918181975765003e6 -5.105552082659409e6 0.0
-5.105552082659409e6 1.9384506344502382e7 0.0
0.0 0.0 0.0

1.1259019327336244e7 3.0458386625394925e7 0.0
3.0458386625394925e7 -5.369988248880108e6 0.0
0.0 0.0 0.0

-8.986276280121762e6 1.291409918010412e7 0.0
1.291409918010412e7 3.492390041805066e7 0.0
0.0 0.0 0.0

189171.82277713064 1.5071289052246662e7 0.0
1.5071289052246662e7 -1.6151938691259608e7 0.0
0.0 0.0 0.0

-1.8978277935986845e6 2.242605298905425e7 0.0
2.242605298905425e7 1.8549116339133322e7 0.0
0.0 0.0 0.0

-731871.472740849 2.0563564960859563e7 0.0
2.0563564960859563e7 -7.427872412859237e6 0.0
0.0 0.0 0.0

-3.8739164131158944e6 2.3168212365160804e7 0.0
2.3168212365160804e7 1.964431333105379e7 0.0
0.0 0.0 0.0

-234550.71265811846 1.2519053094823774e7 0.0
1.2519053094823774e7 -8.547259662084632e6 0.0
0.0 0.0 0.0

-6.701516709884401e6 2.682178047355243e7 0.0
2.682178047355243e7 7.447085987295967e6 0.0
0.0 0.0 0.0

-3.579567705539535e6 2.279460938929409e7 0.0
2.279460938929409e7 1.5277885241675217e7 0.0
0.0 0.0 0.0

2.3338534250149066e6 2.4561933665533107e7 0.0
2.4561933665533107e7 -1.1291357733655196e7 0.0
0.0 0.0 0.0

-3.2957870099111334e6 2.8384735213403266e7 0.0
2.8384735213403266e7 6.4995832156724725e6 0.0
0.0 0.0 0.0

-602793.1732026197 3.530745763134779e7 0.0
3.530745763134779e7 914186.320293475 0.0
0.0 0.0 0.0

-2.7657251416754406e6 1.6682498388134915e7 0.0
1.6682498388134915e7 -3.853142327272448e7 0.0
0.0 0.0 0.0

783561.4193117605 2.5290476100756503e6 0.0
2.5290476100756503e6 -1.0740234696130664e6 0.0
0.0 0.0 0.0

-9.34515859213304e6 1.0009414953845249e6 0.0
1.0009414953845249e6 1.2858116159263697e7 0.0
0.0 0.0 0.0

1.060861038487777e6 4.225759023772248e6 0.0
4.225759023772248e6 -6.6882752918046765e7 0.0
0.0 0.0 0.0

709659.9061812996 2.6531624214235097e7 0.0
2.6531624214235097e7 -7.486710154125813e6 0.0
0.0 0.0 0.0

-3.195980251474498e6 2.2140917435602333e7 0.0
2.2140917435602333e7 2.2564024166912638e7 0.0
0.0 0.0 0.0

-9.761947440999867e6 1.5165861449721862e7 0.0
1.5165861449721862e7 2.6409241381810393e7 0.0
0.0 0.0 0.0

-2.300925209501043e6 4.312303005816924e7 0.0
4.312303005816924e7 2.419755773081472e6 0.0
0.0 0.0 0.0

-9.615863608491976e6 1.1160470984548546e7 0.0
1.1160470984548546e7 3.577218922255536e7 0.0
0.0 0.0 0.0

4.93450924828211e7 7.748696261128943e7 0.0
7.748696261128943e7 -4.4765509021728765e6 0.0
0.0 0.0 0.0

948920.6908074608 2.3792559092846315e7 0.0
2.3792559092846315e7 -1.3632460430402286e7 0.0
0.0 0.0 0.0

1.3047245141766295e6 1.707090695128538e7 0.0
1.707090695128538e7 -2.240604760555301e7 0.0
0.0 0.0 0.0

-3.023209398875827e6 2.3222413242125973e7 0.0
2.3222413242125973e7 1.8704734885785855e7 0.0
0.0 0.0 0.0

-8.609613004590265e6 1.3489757962630503e7 0.0
1.3489757962630503e7 3.738802018571906e7 0.0
0.0 0.0 0.0

1.4352778382873554e6 2.5866114236603938e7 0.0
2.5866114236603938e7 -9.9272200150965e6 0.0
0.0 0.0 0.0

1.3463509416617362e6 2.172481463913853e7 0.0
2.172481463913853e7 5.081729716120797e6 0.0
0.0 0.0 0.0

2.1289193468142543e6 2.398378221349682e6 0.0
2.398378221349682e6 -4.237469847522536e7 0.0
0.0 0.0 0.0

-9.195051298199147e6 1.05015657514147e7 0.0
1.05015657514147e7 1.9086885746944584e7 0.0
0.0 0.0 0.0

-3.9755018528193915e6 4.6667656954737104e7 0.0
4.6667656954737104e7 3.852582891249844e6 0.0
0.0 0.0 0.0

-3.5756014568395484e6 2.1887945898354247e7 0.0
2.1887945898354247e7 2.4488655317446068e7 0.0
0.0 0.0 0.0

-2.438446738546944e6 2.013332943644207e7 0.0
2.013332943644207e7 -2.1130408923581358e7 0.0
0.0 0.0 0.0

9.298500898327535e6 2.3406202414522197e7 0.0
2.3406202414522197e7 8.964791498120999e6 0.0
0.0 0.0 0.0

-1.0544530564162202e7 5.742348543023856e6 0.0
5.742348543023856e6 1.917507945780013e7 0.0
0.0 0.0 0.0

-5.634604975534271e6 1.3307259273111055e7 0.0
1.3307259273111055e7 8.139561604540835e6 0.0
0.0 0.0 0.0

-2.558521477574007e6 2.0166917086947728e7 0.0
2.0166917086947728e7 -1.6114616270676382e7 0.0
0.0 0.0 0.0

260179.73759229016 1.8844199114343833e7 0.0
1.8844199114343833e7 -1.273372403537617e7 0.0
0.0 0.0 0.0

-5.164348936554779e6 2.108677309077451e7 0.0
2.108677309077451e7 2.0278887955244064e7 0.0
0.0 0.0 0.0

-2.342410001832625e6 1.9120635726695117e7 0.0
1.9120635726695117e7 -2.752237583393141e7 0.0
0.0 0.0 0.0

1.2359598322628923e6 1.4467613105096785e7 0.0
1.4467613105096785e7 -3.0473591223079484e7 0.0
0.0 0.0 0.0

-3.528004776703115e6 2.814438784125188e7 0.0
2.814438784125188e7 9.680702154956412e6 0.0
0.0 0.0 0.0

651804.4746468524 1.9319065739444982e7 0.0
1.9319065739444982e7 -2.278501295350567e7 0.0
0.0 0.0 0.0

-8.69541348698631e6 1.564846667484812e7 0.0
1.564846667484812e7 2.962648888808668e7 0.0
0.0 0.0 0.0

3.2197847505699387e6 5.4696151369087575e6 0.0
5.4696151369087575e6 -1.6538642141418496e7 0.0
0.0 0.0 0.0

-3.856313099855972e7 3.5945929077890344e7 0.0
3.5945929077890344e7 -1.568232196677569e7 0.0
0.0 0.0 0.0

1.1887284431459382e6 7.859164965966919e6 0.0
7.859164965966919e6 -1.2377784107761206e7 0.0
0.0 0.0 0.0

3.4725259903354757e6 2.488489726832413e6 0.0
2.488489726832413e6 -1.622275088912739e7 0.0
0.0 0.0 0.0

-5.26906144422663e6 2.917356323381815e7 0.0
2.917356323381815e7 8.917181056052476e6 0.0
0.0 0.0 0.0

2.493462244762357e6 2.0454646626636207e7 0.0
2.0454646626636207e7 8.311541354448625e6 0.0
0.0 0.0 0.0

6.058709708755836e6 2.43446289466127e7 0.0
2.43446289466127e7 -1.5671176744246944e6 0.0
0.0 0.0 0.0

-3.294758719965039e6 1.9847961159690484e7 0.0
1.9847961159690484e7 3.277555235890675e7 0.0
0.0 0.0 0.0

-492946.59782355465 2.0127236555091344e7 0.0
2.0127236555091344e7 3.615881981133378e7 0.0
0.0 0.0 0.0

1.4262710904773343e7 1.9888746255037155e7 0.0
1.9888746255037155e7 6.4975774701422244e7 0.0
0.0 0.0 0.0

137206.3179415043 2.0578398227758057e7 0.0
2.0578398227758057e7 -4.441069420099338e6 0.0
0.0 0.0 0.0

-3.294616335080459e6 2.3106586022695947e7 0.0
2.3106586022695947e7 1.9530261940260064e7 0.0
0.0 0.0 0.0

-4.441933285278066e6 1.9975820033463277e7 0.0
1.9975820033463277e7 1.471651828220555e7 0.0
0.0 0.0 0.0

-2.9385226805633698e6 2.0021512188571695e7 0.0
2.0021512188571695e7 -1.949139855579752e7 0.0
0.0 0.0 0.0

-3.6386525793390386e6 2.8575224751839302e7 0.0
2.8575224751839302e7 7.34077241678613e6 0.0
0.0 0.0 0.0

-9.09785241843342e6 1.3621150051107742e7 0.0
1.3621150051107742e7 3.478728103332736e7 0.0
0.0 0.0 0.0

1.6309070187210783e7 2.8657564887959365e7 0.0
2.8657564887959365e7 -3.3951793115207814e6 0.0
0.0 0.0 0.0

1.360286750314272e6 2.436441618663104e7 0.0
2.436441618663104e7 -1.2339661624640916e7 0.0
0.0 0.0 0.0

2.0779691034320593e6 7.345988807595447e6 0.0
7.345988807595447e6 -2.763458479927061e7 0.0
0.0 0.0 0.0

6.311922360179224e6 2.6444174180995747e7 0.0
2.6444174180995747e7 -7.194840196568234e6 0.0
0.0 0.0 0.0

-136007.8576846138 3.05600989877368e7 0.0
3.05600989877368e7 -1.3290211379610258e6 0.0
0.0 0.0 0.0

-8.882438420205293e6 2.0607885071529496e7 0.0
2.0607885071529496e7 -2.9608135810395032e7 0.0
0.0 0.0 0.0

1.0249852979266025e7 2.1953795084075708e7 0.0
2.1953795084075708e7 3.416618612150845e7 0.0
0.0 0.0 0.0

-7.3154294341541715e6 611032.0275432654 0.0
611032.0275432654 4.9289695097418554e7 0.0
0.0 0.0 0.0

2.257987072705171e6 2.3480688754752833e7 0.0
2.3480688754752833e7 7.847200560778712e6 0.0
0.0 0.0 0.0

-7.928600030127753e6 -402503.51900471054 0.0
-402503.51900471054 4.046445079544433e7 0.0
0.0 0.0 0.0

1.4436517113389804e6 3.123591336214785e7 0.0
3.123591336214785e7 -3.4423791658612746e6 0.0
0.0 0.0 0.0

5.804373829603209e6 2.936993092273017e7 0.0
2.936993092273017e7 -7.140478482239695e6 0.0
0.0 0.0 0.0

-3.1752352402567538e6 4.466376154845098e7 0.0
4.466376154845098e7 2.634886216930409e6 0.0
0.0 0.0 0.0

1.11321068730596e7 2.1059828547970656e7 0.0
2.1059828547970656e7 8.860450423336934e6 0.0
0.0 0.0 0.0

-8.696938300464114e6 1.2525349662169553e7 0.0
1.2525349662169553e7 3.7447391189575e7 0.0
0.0 0.0 0.0

1.1153181209053933e6 3.1880487854129843e7 0.0
3.1880487854129843e7 -2.44945623543231e6 0.0
0.0 0.0 0.0

-3.4275284322701404e6 2.362123462837053e7 0.0
2.362123462837053e7 1.3587574397914631e7 0.0
0.0 0.0 0.0

-3.087115798150605e6 2.6865654121247668e7 0.0
2.6865654121247668e7 7.845543827687811e6 0.0
0.0 0.0 0.0

1.0144754075377863e6 9.690626368617596e6 0.0
9.690626368617596e6 -4.805486254288256e7 0.0
0.0 0.0 0.0

-3.9123182201381777e6 2.7991684363605496e7 0.0
2.7991684363605496e7 1.042191391739554e7 0.0
0.0 0.0 0.0

1.86346726185114e7 1.794066031354e7 0.0
1.794066031354e7 4.800390234794901e6 0.0
0.0 0.0 0.0

1.460869753635604e6 1.5138395407294223e7 0.0
1.5138395407294223e7 -2.686403330582542e7 0.0
0.0 0.0 0.0

-5.417068755561613e6 3.5438691683487543e6 0.0
3.5438691683487543e6 6.91150489812765e7 0.0
0.0 0.0 0.0

-727968.9390040258 3.3063144469757047e7 0.0
3.3063144469757047e7 674047.926185081 0.0
0.0 0.0 0.0

4.1402088145179003e6 2.377077307909601e7 0.0
2.377077307909601e7 7.703608328919778e6 0.0
0.0 0.0 0.0

-1.0223323204668538e8 9.4307485371664e7 0.0
9.4307485371664e7 -1.0612164377566762e7 0.0
0.0 0.0 0.0

2.837346847775503e6 4.0194282994756172e6 0.0
4.0194282994756172e6 -2.2282074318449646e7 0.0
0.0 0.0 0.0

-1.6418447226602284e6 2.2956416443866562e7 0.0
2.2956416443866562e7 -614647.3892957031 0.0
0.0 0.0 0.0

-1.8742899456602182e7 3.0268721218943767e7 0.0
3.0268721218943767e7 2.838959951051197e6 0.0
0.0 0.0 0.0

-345748.2254019473 2.2317059179832973e7 0.0
2.2317059179832973e7 -1.6050735017562415e7 0.0
0.0 0.0 0.0

1.0989418864763184e6 2.369726177226253e7 0.0
2.369726177226253e7 -1.4142670726540143e7 0.0
0.0 0.0 0.0

1.3340687051719327e7 2.499958585390479e7 0.0
2.499958585390479e7 1.9683813608429139e6 0.0
0.0 0.0 0.0

-3.455083774348744e6 3.773966743418115e7 0.0
3.773966743418115e7 3.097304950243649e6 0.0
0.0 0.0 0.0

-4.599018490117865e6 2.334427478651412e7 0.0
2.334427478651412e7 -1.4209371448038679e7 0.0
0.0 0.0 0.0

1.8935047273463607e6 5.32420543843422e6 0.0
5.32420543843422e6 -5.123172302220358e7 0.0
0.0 0.0 0.0

-3.599480287279056e7 3.2719461487667754e7 0.0
3.2719461487667754e7 -1.01003129957306e7 0.0
0.0 0.0 0.0

-2.6984753675017552e6 2.2891569100396123e7 0.0
2.2891569100396123e7 1.4852371649491407e7 0.0
0.0 0.0 0.0

5.347349583377808e6 2.8292015108756132e7 0.0
2.8292015108756132e7 -7.711622902475201e6 0.0
0.0 0.0 0.0

1.9260660326211974e6 1.9584962661436517e7 0.0
1.9584962661436517e7 4.661865004921924e7 0.0
0.0 0.0 0.0

1.7462325509335764e7 2.709518807047614e7 0.0
2.709518807047614e7 -1.874724417975016e6 0.0
0.0 0.0 0.0

-3.8357165743540376e6 2.6008416470451515e7 0.0
2.6008416470451515e7 1.3451216445016747e7 0.0
0.0 0.0 0.0

-377609.9152644882 1.9698224683232374e7 0.0
1.9698224683232374e7 -1.413478855283543e7 0.0
0.0 0.0 0.0

9.356727242883675e6 1.2623084468544673e7 0.0
1.2623084468544673e7 4.307654523116592e6 0.0
0.0 0.0 0.0

3.718084794653369e6 2.4896512790384784e7 0.0
2.4896512790384784e7 -7.86831676697491e6 0.0
0.0 0.0 0.0

-3.668314955195315e6 2.1026402629793398e7 0.0
2.1026402629793398e7 2.773106900627487e7 0.0
0.0 0.0 0.0

-4.0473592783242613e6 7.196311152789343e6 0.0
7.196311152789343e6 7.230227982490814e7 0.0
0.0 0.0 0.0

-4.946012991670866e6 1.4926206395305267e6 0.0
1.4926206395305267e6 7.571282073803695e7 0.0
0.0 0.0 0.0

-367157.07114842813 2.194516347689072e7 0.0
2.194516347689072e7 -1.2565821095456613e7 0.0
0.0 0.0 0.0

1.0159557135937279e6 2.3337471135426387e7 0.0
2.3337471135426387e7 -1.346019717010706e7 0.0
0.0 0.0 0.0

1.2678394222700903e6 2.363957549102714e7 0.0
2.363957549102714e7 -1.4227296231236793e7 0.0
0.0 0.0 0.0

-1.5157906352129165e7 2.649584116554788e7 0.0
2.649584116554788e7 -4.438168669183028e6 0.0
0.0 0.0 0.0

2.3961759703809027e7 2.4499184429550566e7 0.0
2.4499184429550566e7 1.3192858027131561e7 0.0
0.0 0.0 0.0

-4.244386178565373e6 2.207394412551614e7 0.0
2.207394412551614e7 2.3080723240438886e7 0.0
0.0 0.0 0.0

1.4914536560477e6 2.3562310143224612e7 0.0
2.3562310143224612e7 -1.4111554743305774e7 0.0
0.0 0.0 0.0

-786550.8442390831 1.875245593127012e7 0.0
1.875245593127012e7 -1.2456391640968516e7 0.0
0.0 0.0 0.0

-9.074930401875144e6 -1.3672969177627938e6 0.0
-1.3672969177627938e6 2.746179648487084e7 0.0
0.0 0.0 0.0

-830020.2664423492 1.5363573439197911e7 0.0
1.5363573439197911e7 -3.701707607616821e7 0.0
0.0 0.0 0.0

-8.97901715822583e6 2.112942686750402e6 0.0
2.112942686750402e6 3.876055458840982e7 0.0
0.0 0.0 0.0

-8.178547169867504e6 -3.0404917620868078e6 0.0
-3.0404917620868078e6 3.0832423979320385e7 0.0
0.0 0.0 0.0

-8.2226881506199725e6 -3.296328033413855e6 0.0
-3.296328033413855e6 2.9932829542352304e7 0.0
0.0 0.0 0.0

-4.690339670531246e6 1.3063535788293196e7 0.0
1.3063535788293196e7 1.1440331602951217e7 0.0
0.0 0.0 0.0

609939.2214781037 1.7983328804155104e7 0.0
1.7983328804155104e7 -2.1421326649247453e7 0.0
0.0 0.0 0.0

-221263.15582098253 1.5216962313345633e7 0.0
1.5216962313345633e7 -3.67833383111979e7 0.0
0.0 0.0 0.0

-1.7011628215197464e6 2.2080681869141437e7 0.0
2.2080681869141437e7 -5.9301991105815945e6 0.0
0.0 0.0 0.0

3.7353410476493975e6 2.502449990290072e7 0.0
2.502449990290072e7 -9.556284023876268e6 0.0
0.0 0.0 0.0

6.548888895454199e6 2.4134318751654685e7 0.0
2.4134318751654685e7 1.247265484328117e6 0.0
0.0 0.0 0.0

350172.48261845554 2.884487809792486e7 0.0
2.884487809792486e7 -4.224899449782071e6 0.0
0.0 0.0 0.0

6.687635688627446e7 3.0383134433492526e7 0.0
3.0383134433492526e7 1.0140524017640585e7 0.0
0.0 0.0 0.0

1.0257470119390009e7 1.686344601719409e7 0.0
1.686344601719409e7 1.018050337985225e7 0.0
0.0 0.0 0.0

5.30831037239966e6 2.4632412794143576e7 0.0
2.4632412794143576e7 -3.935809287341045e6 0.0
0.0 0.0 0.0

6.683383414024057e6 2.9618811300428163e7 0.0
2.9618811300428163e7 -6.750883657131476e6 0.0
0.0 0.0 0.0

306564.0247175534 3.289431836029238e7 0.0
3.289431836029238e7 -825665.1833173197 0.0
0.0 0.0 0.0

581556.0398250418 2.029571181640757e7 0.0
2.029571181640757e7 -2.1286125410125315e7 0.0
0.0 0.0 0.0

-2.099479455827267e7 2.933968581152204e7 0.0
2.933968581152204e7 -92027.39794796612 0.0
0.0 0.0 0.0

-6.227839230749026e6 2.9765637662939783e7 0.0
2.9765637662939783e7 8.3402148236616235e6 0.0
0.0 0.0 0.0

3.252669504120551e6 1.8482373498044144e6 0.0
1.8482373498044144e6 -2.538302177585383e7 0.0
0.0 0.0 0.0

-616366.0753424971 3.0354407279090993e7 0.0
3.0354407279090993e7 -2.7850743445740975e6 0.0
0.0 0.0 0.0

-6.397350452663068e6 4.847639433180521e7 0.0
4.847639433180521e7 4.183659947805448e6 0.0
0.0 0.0 0.0

-2.868459057170548e6 1.7469909867007498e7 0.0
1.7469909867007498e7 -8.28964772554503e6 0.0
0.0 0.0 0.0

1.2470197948516011e6 1.513816969406063e7 0.0
1.513816969406063e7 -2.8789033537208933e7 0.0
0.0 0.0 0.0

325150.97576672025 1.4787682250297802e7 0.0
1.4787682250297802e7 -3.478911364425711e7 0.0
0.0 0.0 0.0

-1.084711716054991e6 1.6265264744206106e7 0.0
1.6265264744206106e7 -3.676612988698281e7 0.0
0.0 0.0 0.0

1.4789702090363594e7 4.269820827797253e7 0.0
4.269820827797253e7 -4.716913894106256e6 0.0
0.0 0.0 0.0

1.5492137994748466e6 2.3367683747995686e7 0.0
2.3367683747995686e7 -1.3924658456734836e7 0.0
0.0 0.0 0.0

7.567679883661195e6 2.0976321803717494e7 0.0
2.0976321803717494e7 3.998025509579608e7 0.0
0.0 0.0 0.0

-2.651208550359832e7 2.377304665609996e7 0.0
2.377304665609996e7 2.9001511508623417e6 0.0
0.0 0.0 0.0

-7.205452539058585e7 3.932332441366156e7 0.0
3.932332441366156e7 -8.375491103494376e6 0.0
0.0 0.0 0.0

1.047414059167467e6 6.841615395388112e6 0.0
6.841615395388112e6 -6.4983500232833624e7 0.0
0.0 0.0 0.0

4.293504626656836e6 2.4882350617752887e7 0.0
2.4882350617752887e7 -6.056945011181645e6 0.0
0.0 0.0 0.0

5.923602775599917e6 2.7410026236343306e7 0.0
2.7410026236343306e7 -7.54427689867596e6 0.0
0.0 0.0 0.0

3.254650637657267e6 1.9663780966214666e6 0.0
1.9663780966214666e6 -2.3910380351853706e7 0.0
0.0 0.0 0.0

-2.015032870949312e7 2.7569770479705665e7 0.0
2.7569770479705665e7 -7.117701373441021e6 0.0
0.0 0.0 0.0

166084.47341266368 2.1066843274388224e7 0.0
2.1066843274388224e7 2.5462734188499648e7 0.0
0.0 0.0 0.0

1.0329360950478436e7 2.0400981296050765e7 0.0
2.0400981296050765e7 1.4380725357811637e7 0.0
0.0 0.0 0.0

-8.178836507599089e6 -3.5794757781287823e6 0.0
-3.5794757781287823e6 2.5883752584947325e7 0.0
0.0 0.0 0.0

374005.08890655637 1.8196689826118074e7 0.0
1.8196689826118074e7 -2.602138188052838e7 0.0
0.0 0.0 0.0

1.572848924101511e6 1.1147013780430403e7 0.0
1.1147013780430403e7 -2.5038959574962765e7 0.0
0.0 0.0 0.0

412536.3743367358 9.583842366390824e6 0.0
9.583842366390824e6 -5.254661012581838e6 0.0
0.0 0.0 0.0

-9.055976337379048e6 -3.421624514961359e6 0.0
-3.421624514961359e6 2.2752607119072467e7 0.0
0.0 0.0 0.0

7.860245714994248e6 2.0606826696853537e7 0.0
2.0606826696853537e7 9.171983940605414e7 0.0
0.0 0.0 0.0

-7.74662971633143e6 5.943322301869995e6 0.0
5.943322301869995e6 4.9551725440042794e7 0.0
0.0 0.0 0.0

4.44274454416183e6 3.421425725929936e7 0.0
3.421425725929936e7 -3.706322011342331e6 0.0
0.0 0.0 0.0

-1.794792195970394e6 2.2464111191752337e7 0.0
2.2464111191752337e7 530416.1664574821 0.0
0.0 0.0 0.0

-2.907046530161566e6 1.9832736244006842e7 0.0
1.9832736244006842e7 -1.4355609728079898e7 0.0
0.0 0.0 0.0

3.52981780125085e6 2.7124042959707238e7 0.0
2.7124042959707238e7 -9.233649504872723e6 0.0
0.0 0.0 0.0

-3.9457787361104516e6 2.867493046900089e7 0.0
2.867493046900089e7 8.153205630200218e6 0.0
0.0 0.0 0.0

9.06037149466867e6 5.0052175571397915e7 0.0
5.0052175571397915e7 -966993.1518320269 0.0
0.0 0.0 0.0

2.809147987094138e6 4.349284091293405e6 0.0
4.349284091293405e6 -1.2638600978467606e7 0.0
0.0 0.0 0.0

-9.200290133451674e6 -1.3271430834374116e6 0.0
-1.3271430834374116e6 2.7887078168701913e7 0.0
0.0 0.0 0.0

-127352.04340302176 2.1020663751988266e7 0.0
2.1020663751988266e7 2.8140718990837107e6 0.0
0.0 0.0 0.0

-1.0264001879839467e7 3.0526855548425376e7 0.0
3.0526855548425376e7 6.578687371818099e6 0.0
0.0 0.0 0.0

-397624.84496869147 2.0840249393020056e7 0.0
2.0840249393020056e7 2.8736912305556692e7 0.0
0.0 0.0 0.0

-9.048797089017363e6 1.4616026808468653e7 0.0
1.4616026808468653e7 3.101723821750496e7 0.0
0.0 0.0 0.0

989643.6360307522 1.6428906716363639e7 0.0
1.6428906716363639e7 -2.7460915667407725e7 0.0
0.0 0.0 0.0

-1.9447780623974845e8 3.2355506560593355e7 0.0
3.2355506560593355e7 -1.5291229219449714e7 0.0
0.0 0.0 0.0

-9.34069344161698e6 1.334773408568816e7 0.0
1.334773408568816e7 3.2597483242403347e7 0.0
0.0 0.0 0.0

-8.634307026063101e6 3.0471680223778207e7 0.0
3.0471680223778207e7 7.178585866129556e6 0.0
0.0 0.0 0.0

414539.0466322666 1.9778231029244956e7 0.0
1.9778231029244956e7 -2.2726412612543896e7 0.0
0.0 0.0 0.0

-2.2520901382618323e6 1.7073154977645095e7 0.0
1.7073154977645095e7 -3.601096130552276e7 0.0
0.0 0.0 0.0

6.965918931808131e6 4.7209519875332e7 0.0
4.7209519875332e7 -688352.9477370004 0.0
0.0 0.0 0.0

-2.6044486511820406e6 1.8046785624252614e7 0.0
1.8046785624252614e7 -3.2763677453484323e7 0.0
0.0 0.0 0.0

1.4968834715729794e6 2.3147566769705225e7 0.0
2.3147566769705225e7 -1.3435687755897067e7 0.0
0.0 0.0 0.0

1.0209249212993577e6 2.146956064109063e7 0.0
2.146956064109063e7 5.508880410589711e6 0.0
0.0 0.0 0.0

2.609746682056763e6 3.851571885005992e7 0.0
3.851571885005992e7 -668679.8017483944 0.0
0.0 0.0 0.0

-1.217722778778233e7 3.0344789219908167e7 0.0
3.0344789219908167e7 5.659820591111976e6 0.0
0.0 0.0 0.0

741540.2186712716 1.764458259940994e7 0.0
1.764458259940994e7 -2.5928724043403734e7 0.0
0.0 0.0 0.0

1.1156970590337152e6 2.2920248691420846e7 0.0
2.2920248691420846e7 -1.4718841773462113e7 0.0
0.0 0.0 0.0

-2.4878557482581437e6 2.9091113044578757e7 0.0
2.9091113044578757e7 2.48782130250708e6 0.0
0.0 0.0 0.0

-7.29349779246452e6 3.0177595008952986e7 0.0
3.0177595008952986e7 7.755681906460868e6 0.0
0.0 0.0 0.0

-7.694845300119733e6 -2.2693369051383915e6 0.0
-2.2693369051383915e6 3.9442899040486895e7 0.0
0.0 0.0 0.0

-4.595155964760801e6 2.067818554179687e7 0.0
2.067818554179687e7 2.2296975241397403e7 0.0
0.0 0.0 0.0

-2.8760568715210464e6 1.8795493199335873e7 0.0
1.8795493199335873e7 -2.9617010972925723e7 0.0
0.0 0.0 0.0

2.3535799039540514e7 2.3628858221050613e7 0.0
2.3628858221050613e7 4.89318451886191e6 0.0
0.0 0.0 0.0

-144050.38383790664 1.859979314607968e7 0.0
1.859979314607968e7 -2.6068198618483372e7 0.0
0.0 0.0 0.0

-509055.44099087495 2.2146082931450732e7 0.0
2.2146082931450732e7 -3.0659709089073977e6 0.0
0.0 0.0 0.0

-8.625632158983026e6 1.102951304329055e7 0.0
1.102951304329055e7 3.9455014345863454e7 0.0
0.0 0.0 0.0

-7.972665788382826e6 2.4060210297062844e7 0.0
2.4060210297062844e7 -1.4948281072073363e7 0.0
0.0 0.0 0.0

-1.8376662707659737e6 1.9963357577150118e7 0.0
1.9963357577150118e7 -7.5385225225179e6 0.0
0.0 0.0 0.0

5709.270915288478 2.2782488908163425e7 0.0
2.2782488908163425e7 -1.3616417539384395e7 0.0
0.0 0.0 0.0

-1.490048468670083e7 5.3324964050361864e7 0.0
5.3324964050361864e7 6.648929532216616e6 0.0
0.0 0.0 0.0

-5.833137814564238e7 1.873726563878131e7 0.0
1.873726563878131e7 3.8470108504902907e6 0.0
0.0 0.0 0.0

4.3037851861988185e6 3.5296162113107756e7 0.0
3.5296162113107756e7 -4.284982479781358e6 0.0
0.0 0.0 0.0

-9.516008186424917e6 5.073705609092832e7 0.0
5.073705609092832e7 5.50738566890889e6 0.0
0.0 0.0 0.0

3.2116647115620587e7 6.606890550502011e7 0.0
6.606890550502011e7 -2.141819774760181e6 0.0
0.0 0.0 0.0

-1.2642235768196508e6 1.6622861235827636e7 0.0
1.6622861235827636e7 -3.422017101183569e7 0.0
0.0 0.0 0.0

-1.051131451788302e7 1.9016952890637483e7 0.0
1.9016952890637483e7 -3.8767717022352666e7 0.0
0.0 0.0 0.0

-4.478095430498597e6 2.7634870203274228e7 0.0
2.7634870203274228e7 1.0549396706220023e7 0.0
0.0 0.0 0.0

-9.415536909059308e6 1.402103583348843e7 0.0
1.402103583348843e7 3.2536600260860503e7 0.0
0.0 0.0 0.0

-1.2627668538085897e7 2.6870773813203037e7 0.0
2.6870773813203037e7 2.7575196321467496e6 0.0
0.0 0.0 0.0

1.519135730644998e6 2.1803596481601518e7 0.0
2.1803596481601518e7 9.355074601608416e6 0.0
0.0 0.0 0.0

-36700.775635121856 2.0603277990705553e7 0.0
2.0603277990705553e7 -1.0917271463029135e7 0.0
0.0 0.0 0.0

1.1544195379258463e7 5.352659281609287e7 0.0
5.352659281609287e7 -1.4958664570570062e6 0.0
0.0 0.0 0.0

3.338612672936021e6 2.6173166838680618e7 0.0
2.6173166838680618e7 -1.0037219502291873e7 0.0
0.0 0.0 0.0

3.7200170881064218e6 2.2941486522072107e7 0.0
2.2941486522072107e7 -3.574324504204761e6 0.0
0.0 0.0 0.0

2.294462029743433e6 1.350602942141816e6 0.0
1.350602942141816e6 -4.461774331294192e7 0.0
0.0 0.0 0.0

-4.326471607282195e6 2.864329977445306e7 0.0
2.864329977445306e7 8.878016081956176e6 0.0
0.0 0.0 0.0

-2.1683684240809674e6 2.1378109325483542e7 0.0
2.1378109325483542e7 6.077441886102509e6 0.0
0.0 0.0 0.0

1.3515465057270443e6 1.3836037919729298e7 0.0
1.3836037919729298e7 -1.6618665638516817e7 0.0
0.0 0.0 0.0

-2.0761295843856316e6 1.7250047222750403e7 0.0
1.7250047222750403e7 -3.630813835077138e7 0.0
0.0 0.0 0.0

-2.277719254290118e6 2.3087841429894805e7 0.0
2.3087841429894805e7 2.033124137369681e7 0.0
0.0 0.0 0.0

-1.3879619646231942e6 2.0372424390226558e7 0.0
2.0372424390226558e7 3.1825203181894e7 0.0
0.0 0.0 0.0

-1.1597524282667355e6 1.9808064934824876e7 0.0
1.9808064934824876e7 -4.958275374560263e6 0.0
0.0 0.0 0.0

7.113636353931933e6 2.8603377999654587e7 0.0
2.8603377999654587e7 -6.7024538690867135e6 0.0
0.0 0.0 0.0

-3.570113974724134e6 2.7390180026513595e7 0.0
2.7390180026513595e7 1.0814828693715468e7 0.0
0.0 0.0 0.0

-5.860948215823699e6 3.7316271877940944e6 0.0
3.7316271877940944e6 6.183623778362909e7 0.0
0.0 0.0 0.0

-3.819805218041312e6 1.4075846082848158e7 0.0
1.4075846082848158e7 9.32749725213908e6 0.0
0.0 0.0 0.0

-160319.2964639531 2.0978086247286443e7 0.0
2.0978086247286443e7 -6.784915916909669e6 0.0
0.0 0.0 0.0

-5.9785715645169355e6 2.8804147144486293e7 0.0
2.8804147144486293e7 9.254751570872046e6 0.0
0.0 0.0 0.0

-3.03604940070731e6 2.3388963733234227e7 0.0
2.3388963733234227e7 1.6625174624604892e7 0.0
0.0 0.0 0.0

1.835848769483829e6 1.4028272973177912e7 0.0
1.4028272973177912e7 -2.3606495672747374e7 0.0
0.0 0.0 0.0

-1.2587972684233878e6 3.1956710460430656e7 0.0
3.1956710460430656e7 1.3405275212187392e6 0.0
0.0 0.0 0.0

3.423778672182397e6 4.053899321427693e7 0.0
4.053899321427693e7 -748327.528580826 0.0
0.0 0.0 0.0

-2.0137736044746647e6 2.510589191633315e7 0.0
2.510589191633315e7 6.413495637618053e6 0.0
0.0 0.0 0.0

1.2847877745299563e6 1.6424031969668292e7 0.0
1.6424031969668292e7 -2.5558913843497694e7 0.0
0.0 0.0 0.0

-635907.0344368499 3.2478689875359073e7 0.0
3.2478689875359073e7 -1.478327401520637e6 0.0
0.0 0.0 0.0

4.265683191311479e6 2.8036497662132367e7 0.0
2.8036497662132367e7 -8.384320759382991e6 0.0
0.0 0.0 0.0

2.0564211612574644e6 2.0787606626095183e7 0.0
2.0787606626095183e7 3.4986935482927725e7 0.0
0.0 0.0 0.0

-2.1100968984787706e6 2.433869129230393e7 0.0
2.433869129230393e7 7.801366624816766e6 0.0
0.0 0.0 0.0

-4.947781303946976e6 3.10212984574985e7 0.0
3.10212984574985e7 6.313223372001797e6 0.0
0.0 0.0 0.0

-7.436970354628794e6 1.3823063622561693e6 0.0
1.3823063622561693e6 4.8836100961071864e7 0.0
0.0 0.0 0.0

2.9119576231815214e6 3.944014160492659e7 0.0
3.944014160492659e7 -656164.0292518572 0.0
0.0 0.0 0.0

2.3560390983016007e6 1.4038157357463934e6 0.0
1.4038157357463934e6 -4.3361815751584664e7 0.0
0.0 0.0 0.0

531916.9415372608 2.9985806803116035e7 0.0
2.9985806803116035e7 -5.173258954396188e6 0.0
0.0 0.0 0.0

-7.596995845881678e6 -629309.2892575206 0.0
-629309.2892575206 4.3171987316567264e7 0.0
0.0 0.0 0.0

-1.9089205259933954e6 1.934260731378674e7 0.0
1.934260731378674e7 -5.408553548321759e6 0.0
0.0 0.0 0.0

-1.1955754029042322e7 2.879125290750493e7 0.0
2.879125290750493e7 4.164924386066187e6 0.0
0.0 0.0 0.0

-2.818343214559743e6 2.335839152165407e7 0.0
2.335839152165407e7 -4.315692645023378e6 0.0
0.0 0.0 0.0

-4.925183263653755e6 2.3464373642787665e7 0.0
2.3464373642787665e7 -6.912505966337664e6 0.0
0.0 0.0 0.0

-2.2176988905540537e6 2.113117625488809e7 0.0
2.113117625488809e7 -2.0713810670320887e7 0.0
0.0 0.0 0.0

-8.179082794571733e6 1.5685326177292498e7 0.0
1.5685326177292498e7 3.3794860573833406e7 0.0
0.0 0.0 0.0

2.3612814649389386e6 2.2310798877379414e7 0.0
2.2310798877379414e7 1.2018221761643726e7 0.0
0.0 0.0 0.0

2.3926525106888115e6 9.191391437327202e6 0.0
9.191391437327202e6 -3.1312688988415018e7 0.0
0.0 0.0 0.0

4.433562842911073e6 2.118828310819298e7 0.0
2.118828310819298e7 3.345138696941529e7 0.0
0.0 0.0 0.0

-1.3415428723521667e7 2.0574334545857713e7 0.0
2.0574334545857713e7 -7.789516004049264e7 0.0
0.0 0.0 0.0

-2.996435411296672e6 2.2133318747017596e7 0.0
2.2133318747017596e7 1.6596240688889781e7 0.0
0.0 0.0 0.0

-1.6055746030327512e6 3.267102910623132e7 0.0
3.267102910623132e7 68528.96238939895 0.0
0.0 0.0 0.0

-2.4744330641882005e6 2.4489248975510746e7 0.0
2.4489248975510746e7 2.3509780857888125e6 0.0
0.0 0.0 0.0

1.6127826228872929e6 2.4431071849288642e7 0.0
2.4431071849288642e7 -1.264253256814201e7 0.0
0.0 0.0 0.0

3.4338897574721016e6 2.3598807772011947e7 0.0
2.3598807772011947e7 -7.666358540770959e6 0.0
0.0 0.0 0.0

-4.699914894040374e6 2.853714814641936e7 0.0
2.853714814641936e7 9.5148185144402e6 0.0
0.0 0.0 0.0

-2.9292923950375374e6 2.3028050862338904e7 0.0
2.3028050862338904e7 2.0891489221931014e7 0.0
0.0 0.0 0.0

-1.3318099692153092e6 2.0600616804428738e7 0.0
2.0600616804428738e7 3.2137324240363773e7 0.0
0.0 0.0 0.0

-5.405989597111391e6 2.04388658547111e7 0.0
2.04388658547111e7 -2.1003646353497766e7 0.0
0.0 0.0 0.0

668571.3299913239 1.7329189518555183e7 0.0
1.7329189518555183e7 -2.281547019794968e7 0.0
0.0 0.0 0.0

-1.540828277303286e6 2.304249198832851e7 0.0
2.304249198832851e7 1.9444417892076444e7 0.0
0.0 0.0 0.0

199553.29659935646 1.133274931272096e7 0.0
1.133274931272096e7 -4.4518931552438e7 0.0
0.0 0.0 0.0

-3.515086694971315e6 2.2177635414032046e7 0.0
2.2177635414032046e7 -1.3640910445652377e7 0.0
0.0 0.0 0.0

4.1042136628187173e6 4.185423248418757e7 0.0
4.185423248418757e7 -641246.5267549397 0.0
0.0 0.0 0.0

3.6610745453934167e6 2.0430784528981008e7 0.0
2.0430784528981008e7 2.8643383606995218e7 0.0
0.0 0.0 0.0

2.6650733701218996e7 2.697739775001149e7 0.0
2.697739775001149e7 8.883573888978569e7 0.0
0.0 0.0 0.0

-2.7226398096741367e7 2.5691019864193596e7 0.0
2.5691019864193596e7 -9.07546214803975e7 0.0
0.0 0.0 0.0

-2.8797578627784746e6 2.143551945799525e7 0.0
2.143551945799525e7 3.6944618806909164e6 0.0
0.0 0.0 0.0

-3.1836465369766958e7 4.186948346055011e7 0.0
4.186948346055011e7 7.685717376586992e6 0.0
0.0 0.0 0.0

-784431.840057011 2.7815566626499403e7 0.0
2.7815566626499403e7 -4.62482860824283e6 0.0
0.0 0.0 0.0

-1.2786304935064232e6 2.331454431161405e7 0.0
2.331454431161405e7 1.6693455763212333e7 0.0
0.0 0.0 0.0

3.198527036890528e6 2.0451219038665667e7 0.0
2.0451219038665667e7 3.2392571853380654e7 0.0
0.0 0.0 0.0

1.0331402384247469e7 2.1972758622510873e7 0.0
2.1972758622510873e7 5.634836962018103e7 0.0
0.0 0.0 0.0

9.642083824680647e6 2.409044067728459e7 0.0
2.409044067728459e7 1.1469311531645028e7 0.0
0.0 0.0 0.0

9.218941849627769e6 1.9603249347624794e7 0.0
1.9603249347624794e7 3.7008959307950266e7 0.0
0.0 0.0 0.0

6.551643408306608e6 2.8396525732284606e7 0.0
2.8396525732284606e7 -7.025928651168667e6 0.0
0.0 0.0 0.0

2.177680976555032e6 2.1059905048055418e7 0.0
2.1059905048055418e7 1.972931007416019e7 0.0
0.0 0.0 0.0

-1.324315662196842e6 2.2132045760274604e7 0.0
2.2132045760274604e7 2.049846603941542e7 0.0
0.0 0.0 0.0

5.749459699818556e6 3.692558412794889e7 0.0
3.692558412794889e7 -2.8218958931790437e6 0.0
0.0 0.0 0.0

4.2797911801302e6 2.344721088264202e7 0.0
2.344721088264202e7 1.5130437486352455e7 0.0
0.0 0.0 0.0

2.908179102892233e6 1.7011759636667673e6 0.0
1.7011759636667673e6 -3.33249903214797e7 0.0
0.0 0.0 0.0

-7.554448956958443e6 1.816237341981662e7 0.0
1.816237341981662e7 2.3716063329211816e7 0.0
0.0 0.0 0.0

-7.561755021697506e6 -2.239900886118409e6 0.0
-2.239900886118409e6 4.051714774829001e7 0.0
0.0 0.0 0.0

-3.5467554048591917e6 2.23625255575965e7 0.0
2.23625255575965e7 2.289524686391457e7 0.0
0.0 0.0 0.0

1.7961057585576023e6 3.3475342262639392e7 0.0
3.3475342262639392e7 -2.2257257846143437e6 0.0
0.0 0.0 0.0

7.11903919759972e6 2.2794427268911615e7 0.0
2.2794427268911615e7 2.0497025992356334e7 0.0
0.0 0.0 0.0

5.911320949016776e6 1.9591682293686453e7 0.0
1.9591682293686453e7 2.7338527971904047e7 0.0
0.0 0.0 0.0

-3.888203976076583e6 3.0571041112021975e7 0.0
3.0571041112021975e7 7.037906899164408e6 0.0
0.0 0.0 0.0

3.2106844028380318e6 4.118082314060019e6 0.0
4.118082314060019e6 -1.776148563993388e7 0.0
0.0 0.0 0.0

322266.4734252391 3.071872877741137e7 0.0
3.071872877741137e7 -4.217593012440972e6 0.0
0.0 0.0 0.0

2.237204098661745e6 1.1780922361279465e7 0.0
1.1780922361279465e7 -2.5470261525785487e7 0.0
0.0 0.0 0.0

-8.698304353439042e6 2.9241463341232195e7 0.0
2.9241463341232195e7 7.45454415320229e6 0.0
0.0 0.0 0.0

7.583949163286855e6 3.0770254512604576e7 0.0
3.0770254512604576e7 -6.259398752355691e6 0.0
0.0 0.0 0.0

-1.1562228277230069e7 2.5398442950029947e7 0.0
2.5398442950029947e7 474203.7977922503 0.0
0.0 0.0 0.0

1.474947010194309e6 1.5952817006548585e6 0.0
1.5952817006548585e6 -6.524998193733601e7 0.0
0.0 0.0 0.0

7.060351384647795e6 2.415920373638489e7 0.0
2.415920373638489e7 4.1633544111031266e6 0.0
0.0 0.0 0.0

3.330207577485984e6 3.1851876169696696e7 0.0
3.1851876169696696e7 -4.62693930256615e6 0.0
0.0 0.0 0.0

1.9192617846889868e6 2.7495644705864523e7 0.0
2.7495644705864523e7 -8.3022550009975685e6 0.0
0.0 0.0 0.0

-2.918188286155438e6 2.131633673640934e7 0.0
2.131633673640934e7 -1.4370367748745626e7 0.0
0.0 0.0 0.0

2.552691951362267e6 4.332186516012358e6 0.0
4.332186516012358e6 -3.0756612732003942e7 0.0
0.0 0.0 0.0

-2.818968402794257e6 2.5837165048999816e7 0.0
2.5837165048999816e7 7.261947929569883e6 0.0
0.0 0.0 0.0

-329209.49092290737 1.450122915495766e7 0.0
1.450122915495766e7 -3.707099522768715e7 0.0
0.0 0.0 0.0

-7.476294610246079e6 -1.9264382053216393e6 0.0
-1.9264382053216393e6 4.475017520598663e7 0.0
0.0 0.0 0.0

-3.965027720672385e6 2.128788403793371e7 0.0
2.128788403793371e7 2.048648090478873e7 0.0
0.0 0.0 0.0

-1.648787027981548e7 2.8905396945506655e7 0.0
2.8905396945506655e7 3.0372641088182535e6 0.0
0.0 0.0 0.0

267219.2407547608 6.19079209810484e6 0.0
6.19079209810484e6 -9.44284714665295e7 0.0
0.0 0.0 0.0

-2.0731207491660845e6 1.7896868576546308e7 0.0
1.7896868576546308e7 4.470359433393797e7 0.0
0.0 0.0 0.0

1.0074533814822026e6 2.1785488414623775e7 0.0
2.1785488414623775e7 2.6485934848535433e7 0.0
0.0 0.0 0.0

487959.8613283541 1.9681242446938083e7 0.0
1.9681242446938083e7 4.0555564179004535e7 0.0
0.0 0.0 0.0

-1.8991397567557273e6 2.300154808259786e7 0.0
2.300154808259786e7 1.7586904491470875e6 0.0
0.0 0.0 0.0

-4.0614663651638366e6 2.1825011124033473e7 0.0
2.1825011124033473e7 1.6115476370538525e7 0.0
0.0 0.0 0.0

-2.4648831031851703e6 2.1441019897556707e7 0.0
2.1441019897556707e7 -1.1058036069294792e7 0.0
0.0 0.0 0.0

736757.5724734245 1.666696252490765e7 0.0
1.666696252490765e7 -2.4165726410119884e7 0.0
0.0 0.0 0.0

-44571.99909649417 1.078754205406281e7 0.0
1.078754205406281e7 -5.541783881299707e7 0.0
0.0 0.0 0.0

-7.514990784862215e6 -2.0901102767471333e6 0.0
-2.0901102767471333e6 4.1805486159524955e7 0.0
0.0 0.0 0.0

-6.711343365439847e6 -1.441979843096613e6 0.0
-1.441979843096613e6 5.191609183991181e7 0.0
0.0 0.0 0.0

-1.0600801962544613e7 2.7257628613044046e7 0.0
2.7257628613044046e7 1.784339474420406e6 0.0
0.0 0.0 0.0

1.7008471836188193e6 2.4408712449898824e7 0.0
2.4408712449898824e7 -1.2989382120864965e7 0.0
0.0 0.0 0.0

2.0194305480605047e6 1.958466623071133e7 0.0
1.958466623071133e7 4.663001188975123e7 0.0
0.0 0.0 0.0

-1.8954737743735309e6 2.152937431853601e7 0.0
2.152937431853601e7 -7.691968272198163e6 0.0
0.0 0.0 0.0

7.186320741660697e6 2.730116194923341e7 0.0
2.730116194923341e7 -6.602944291138159e6 0.0
0.0 0.0 0.0

-3.308963837396767e6 2.7700542012252413e7 0.0
2.7700542012252413e7 7.608043562859935e6 0.0
0.0 0.0 0.0

-8.76574122329102e6 -1.59066499275854e6 0.0
-1.59066499275854e6 2.88887964268697e7 0.0
0.0 0.0 0.0

1.7948429136295475e7 5.8549332013691396e7 0.0
5.8549332013691396e7 -2.0615955958759785e6 0.0
0.0 0.0 0.0

1.092781757975984e6 2.2315344174902186e7 0.0
2.2315344174902186e7 -9.984549437773015e6 0.0
0.0 0.0 0.0

-8.119295232972259e6 1.832845769678962e7 0.0
1.832845769678962e7 -6.230228266831336e7 0.0
0.0 0.0 0.0

2.830833691870317e6 2.712527792637386e6 0.0
2.712527792637386e6 -4.00511035485993e7 0.0
0.0 0.0 0.0

-662114.1270029189 2.1153622089131393e7 0.0
2.1153622089131393e7 -7.118315351180914e6 0.0
0.0 0.0 0.0

-5.289168907902511e6 2.0172865514782898e7 0.0
2.0172865514782898e7 2.3784846378097847e7 0.0
0.0 0.0 0.0

-2.86682437381386e7 2.4573419460337814e7 0.0
2.4573419460337814e7 3.3733283058632743e6 0.0
0.0 0.0 0.0

-7.007565565211341e6 2.4339746014937416e7 0.0
2.4339746014937416e7 -1.1339143871177927e7 0.0
0.0 0.0 0.0

7.828605900671885e6 1.9038405646563016e7 0.0
1.9038405646563016e7 3.2218775567950293e7 0.0
0.0 0.0 0.0

-3.809576565003467e6 2.081832688596713e7 0.0
2.081832688596713e7 -1.5870470844397562e7 0.0
0.0 0.0 0.0

-9.325039069143342e6 721347.4888197713 0.0
721347.4888197713 2.837191241967387e7 0.0
0.0 0.0 0.0

-547174.8140147878 2.2492128894239724e7 0.0
2.2492128894239724e7 -1.122950796300099e7 0.0
0.0 0.0 0.0

-352724.8981847856 2.1844336073188137e7 0.0
2.1844336073188137e7 4.699515495265768e6 0.0
0.0 0.0 0.0

-248490.05170701537 2.2768601465811383e7 0.0
2.2768601465811383e7 1.8050907067810442e7 0.0
0.0 0.0 0.0

468952.5863299873 1.998788549662063e7 0.0
1.998788549662063e7 -1.9329819912550572e7 0.0
0.0 0.0 0.0

34985.48705655895 2.1341331364110738e7 0.0
2.1341331364110738e7 2.9447043016427528e7 0.0
0.0 0.0 0.0

-15215.214509181184 2.0880403664415758e7 0.0
2.0880403664415758e7 325017.9172374431 0.0
0.0 0.0 0.0

1.7898057922600368e6 2.436521636812035e7 0.0
2.436521636812035e7 -1.3156121602831407e7 0.0
0.0 0.0 0.0

6.064587925798799e6 2.325855440512453e7 0.0
2.325855440512453e7 -990262.6309009255 0.0
0.0 0.0 0.0

609473.0176523644 1.4101643881709972e7 0.0
1.4101643881709972e7 -3.268480729204255e7 0.0
0.0 0.0 0.0

-4.027311423754813e6 2.2582245341564395e7 0.0
2.2582245341564395e7 2.136224503694912e7 0.0
0.0 0.0 0.0

-335491.27752324333 1.8691864948425215e7 0.0
1.8691864948425215e7 -9.332013646533102e6 0.0
0.0 0.0 0.0

-5.691709164588291e7 3.3845783285813905e7 0.0
3.3845783285813905e7 -1.295593168798685e6 0.0
0.0 0.0 0.0

6.377334623340851e6 2.0355090897211175e7 0.0
2.0355090897211175e7 5.8677965642786466e7 0.0
0.0 0.0 0.0

2.2327734721896667e6 1.3404991861030255e6 0.0
1.3404991861030255e6 -4.59277074564344e7 0.0
0.0 0.0 0.0

-6.857028506726757e6 -1.4510652710327723e6 0.0
-1.4510652710327723e6 5.023004842727368e7 0.0
0.0 0.0 0.0

-5.49343326275898e6 1.7028564699675694e7 0.0
1.7028564699675694e7 -5.411019304528299e7 0.0
0.0 0.0 0.0

-2.592282367708789e6 1.8392304373855185e7 0.0
1.8392304373855185e7 -3.3286918118603326e7 0.0
0.0 0.0 0.0

-3.224469720676693e6 2.2847068686637692e7 0.0
2.2847068686637692e7 -6.5069989345738e6 0.0
0.0 0.0 0.0

-2.1216992988309268e7 3.063848577112131e7 0.0
3.063848577112131e7 -1.412364261036218e7 0.0
0.0 0.0 0.0

-3.3777228325809017e6 2.0273401453819845e7 0.0
2.0273401453819845e7 3.117092421086438e7 0.0
0.0 0.0 0.0

1.7670947923695818e6 2.4237167373001944e7 0.0
2.4237167373001944e7 -1.3143995135617433e7 0.0
0.0 0.0 0.0

-5.571960437913261e6 -235228.50342412048 0.0
-235228.50342412048 6.64009422126286e7 0.0
0.0 0.0 0.0

-6.527970162124896e6 1.909945245215879e7 0.0
1.909945245215879e7 2.6783226369704258e7 0.0
0.0 0.0 0.0

663970.2521042638 4.0398253893803433e6 0.0
4.0398253893803433e6 -8.796581542759725e7 0.0
0.0 0.0 0.0

-1.6825652598903752e6 3.3428385789475694e7 0.0
3.3428385789475694e7 102205.66503768694 0.0
0.0 0.0 0.0

1.012801671006225e6 2.219306660291063e6 0.0
2.219306660291063e6 -7.631636297791605e7 0.0
0.0 0.0 0.0

-2.6494719355547838e7 5.477779611956047e7 0.0
5.477779611956047e7 8.44173241483529e6 0.0
0.0 0.0 0.0

-5.4117734298399575e6 46308.66249387518 0.0
46308.66249387518 6.939625756220691e7 0.0
0.0 0.0 0.0

818821.4028965123 1.4517812993681606e7 0.0
1.4517812993681606e7 -3.262627689788127e7 0.0
0.0 0.0 0.0

-1.2521873009244913e7 2.8491418340478588e7 0.0
2.8491418340478588e7 4.652932865867323e6 0.0
0.0 0.0 0.0

-5.296698415266218e7 3.456728098653189e7 0.0
3.456728098653189e7 -3.7187223617937155e6 0.0
0.0 0.0 0.0

832546.3706753328 3.033143644307862e6 0.0
3.033143644307862e6 -8.184145632192843e7 0.0
0.0 0.0 0.0

-2.497658103196132e6 2.680155084792674e7 0.0
2.680155084792674e7 3.372511539948553e6 0.0
0.0 0.0 0.0

-2.9101177001506304e6 2.4266660169839818e7 0.0
2.4266660169839818e7 1.555463595698282e7 0.0
0.0 0.0 0.0

2.022989521965095e7 1.8973491720067427e7 0.0
1.8973491720067427e7 7.840889811578673e6 0.0
0.0 0.0 0.0

-1.1590319177430682e6 1.809611498267739e7 0.0
1.809611498267739e7 -2.8954236407866385e7 0.0
0.0 0.0 0.0

-3.2137131841831896e6 1.9286468897194777e7 0.0
1.9286468897194777e7 -3.0334635058398563e7 0.0
0.0 0.0 0.0

949378.8166642333 2.6935675100001242e7 0.0
2.6935675100001242e7 -9.206263222803405e6 0.0
0.0 0.0 0.0

-1.7674331572034894e6 3.413097409542852e7 0.0
3.413097409542852e7 184269.91120746185 0.0
0.0 0.0 0.0

-8.179190502840389e6 1.35288510860212e7 0.0
1.35288510860212e7 3.812706834173172e7 0.0
0.0 0.0 0.0

1.3000479007834718e6 1.7025722166616677e6 0.0
1.7025722166616677e6 -6.898115115905958e7 0.0
0.0 0.0 0.0

-1.3252428565818075e7 3.79172945737112e7 0.0
3.79172945737112e7 4.806714520577296e6 0.0
0.0 0.0 0.0

3.2534981509420797e6 5.575352675752302e6 0.0
5.575352675752302e6 -2.445927811829056e7 0.0
0.0 0.0 0.0

-2.7367458301066007e6 2.130257227530186e7 0.0
2.130257227530186e7 -1.929525178766879e7 0.0
0.0 0.0 0.0

1.1896177623234764e6 2.0652034652543063e6 0.0
2.0652034652543063e6 -7.189723446908462e7 0.0
0.0 0.0 0.0

-3.3638039364456013e6 1.9981985987667467e7 0.0
1.9981985987667467e7 -2.722855739490159e7 0.0
0.0 0.0 0.0

-8.131924430044252e6 1.0268391934860077e7 0.0
1.0268391934860077e7 4.460272969228179e7 0.0
0.0 0.0 0.0

-5.436328413172433e6 1.1396202039986292e6 0.0
1.1396202039986292e6 5.037840176238995e6 0.0
0.0 0.0 0.0

-3.266132722010451e6 1.963012667011555e7 0.0
1.963012667011555e7 5.395249543399466e6 0.0
0.0 0.0 0.0

4.79330793257624e6 2.126414018596941e7 0.0
2.126414018596941e7 2.9902978105065558e7 0.0
0.0 0.0 0.0

1.9479562179429345e6 1.1931401206938545e6 0.0
1.1931401206938545e6 -5.08434248654978e7 0.0
0.0 0.0 0.0

-4.26714532127006e6 2.7620102664412327e7 0.0
2.7620102664412327e7 1.068536016365124e7 0.0
0.0 0.0 0.0

-8.060293159395743e6 -321935.64420071384 0.0
-321935.64420071384 4.015122433582634e7 0.0
0.0 0.0 0.0

88972.75027895703 2.2331659916074183e7 0.0
2.2331659916074183e7 262152.16863959923 0.0
0.0 0.0 0.0

634699.061300056 1.474295625811911e7 0.0
1.474295625811911e7 -3.0904606568555813e7 0.0
0.0 0.0 0.0

-2.7167275622700527e6 2.256255098824502e7 0.0
2.256255098824502e7 2.2478358177845336e7 0.0
0.0 0.0 0.0

4.395139910093838e6 2.0438812557551984e7 0.0
2.0438812557551984e7 4.1206870036241174e7 0.0
0.0 0.0 0.0

-1.1203008787647048e6 2.116142530029222e7 0.0
2.116142530029222e7 -5.003025334006188e6 0.0
0.0 0.0 0.0

1.4761389869926046e6 2.667581064489607e7 0.0
2.667581064489607e7 -8.780641410272188e6 0.0
0.0 0.0 0.0

-3.2718603403522577e6 2.9036214787843138e7 0.0
2.9036214787843138e7 5.40561945702272e6 0.0
0.0 0.0 0.0

-1.461360141647725e6 2.1898127097580753e7 0.0
2.1898127097580753e7 -7.983924541275809e6 0.0
0.0 0.0 0.0

2.427654924372279e7 5.881942813208796e6 0.0
5.881942813208796e6 -2.2507066281043747e6 0.0
0.0 0.0 0.0

-5.83929360703785e6 -328042.39806772256 0.0
-328042.39806772256 6.3534168702417076e7 0.0
0.0 0.0 0.0

1.0191881156374024e7 2.479816635606591e7 0.0
2.479816635606591e7 1.3440080433532242e7 0.0
0.0 0.0 0.0

-6.568501857271638e6 -1.232178652868723e6 0.0
-1.232178652868723e6 5.3768025298402354e7 0.0
0.0 0.0 0.0

-1.733188064637568e6 2.228902133534427e7 0.0
2.228902133534427e7 -1.113631908835292e6 0.0
0.0 0.0 0.0

-6.770144316708745e6 1.117944259833586e7 0.0
1.117944259833586e7 3.3199686255935427e7 0.0
0.0 0.0 0.0

-2.49217622637403e6 1.9490940399435084e7 0.0
1.9490940399435084e7 8.00275824222434e6 0.0
0.0 0.0 0.0

-876312.6352291041 315076.55794020643 0.0
315076.55794020643 2.596727373463133e6 0.0
0.0 0.0 0.0

-828277.5825089788 1.2969133207315332e6 0.0
1.2969133207315332e6 2.463195514532883e6 0.0
0.0 0.0 0.0

1.4345090642164806e6 2.366588191148545e7 0.0
2.366588191148545e7 -1.4286013478622014e7 0.0
0.0 0.0 0.0

-1.0649252456397438e7 2.5255327798592426e7 0.0
2.5255327798592426e7 -4.9048935793676255e6 0.0
0.0 0.0 0.0

1.7924511499063056e6 2.4131501233662467e7 0.0
2.4131501233662467e7 -1.2811237273658052e7 0.0
0.0 0.0 0.0

-9.246558530662611e6 1.2234356931215476e7 0.0
1.2234356931215476e7 3.6533925757753454e7 0.0
0.0 0.0 0.0

-3.402674159923735e6 2.1159551674482897e7 0.0
2.1159551674482897e7 -1.7701713756677236e7 0.0
0.0 0.0 0.0

283777.8003373947 1.4181669388761029e7 0.0
1.4181669388761029e7 -3.4784820543309286e7 0.0
0.0 0.0 0.0

-3.965324075608993e6 2.688622126186974e7 0.0
2.688622126186974e7 1.165387549208869e7 0.0
0.0 0.0 0.0

847451.1147569772 1.4729058573455565e7 0.0
1.4729058573455565e7 -2.8878431027748443e7 0.0
0.0 0.0 0.0

-1.1931686268850884e8 4.16650480855329e7 0.0
4.16650480855329e7 -1.152938471587826e7 0.0
0.0 0.0 0.0

563094.6170084663 1.9315266864110522e7 0.0
1.9315266864110522e7 -2.0707398950710397e7 0.0
0.0 0.0 0.0

-3.4085921694560754e6 4.014975210735597e7 0.0
4.014975210735597e7 835666.8018370387 0.0
0.0 0.0 0.0

894367.3065709688 2.143977295527226e7 0.0
2.143977295527226e7 6.498121139481097e6 0.0
0.0 0.0 0.0

-3.5495510317365434e6 2.1435641742554065e7 0.0
2.1435641742554065e7 2.6131185620472305e7 0.0
0.0 0.0 0.0

-5.541058656344747e6 2.4107367875399586e7 0.0
2.4107367875399586e7 -1.488710205959729e7 0.0
0.0 0.0 0.0

1.799776398587594e7 4.480441448936569e7 0.0
4.480441448936569e7 -5.782649583244836e6 0.0
0.0 0.0 0.0

-7.088348499573227e6 -1.735563217903443e6 0.0
-1.735563217903443e6 4.741023684135199e7 0.0
0.0 0.0 0.0

2.1296659579454623e6 1.3547892649800468e6 0.0
1.3547892649800468e6 -4.729536489836034e7 0.0
0.0 0.0 0.0

706077.2128999075 2.7348102427994058e7 0.0
2.7348102427994058e7 -6.3770756317389235e6 0.0
0.0 0.0 0.0

-9.244668157162286e6 -2.3656911677377922e6 0.0
-2.3656911677377922e6 2.1853530592534672e7 0.0
0.0 0.0 0.0

1.6116101947582848e6 1.458877553214045e6 0.0
1.458877553214045e6 -6.085220825337966e7 0.0
0.0 0.0 0.0

-5.975216628757745e6 -638985.9378526481 0.0
-638985.9378526481 6.1437243919955745e7 0.0
0.0 0.0 0.0

-7.907222061500285e6 -2.470254529226364e6 0.0
-2.470254529226364e6 3.644657774354367e7 0.0
0.0 0.0 0.0

-2.0519216696840043e6 2.1078455290213604e7 0.0
2.1078455290213604e7 -5.722645370246139e6 0.0
0.0 0.0 0.0

-6.966201219799101e6 -1.5699068267268334e6 0.0
-1.5699068267268334e6 4.885922611468307e7 0.0
0.0 0.0 0.0

2.0443356433456298e6 1.4161723475958076e6 0.0
1.4161723475958076e6 -4.9031087145616114e7 0.0
0.0 0.0 0.0

1.730522852500081e6 1.5173837500799482e6 0.0
1.5173837500799482e6 -5.859745118207131e7 0.0
0.0 0.0 0.0

-6.111316473893657e6 -917427.1004440724 0.0
-917427.1004440724 5.940823357071382e7 0.0
0.0 0.0 0.0

-5.996678816528598e6 2.2372470336134493e7 0.0
2.2372470336134493e7 -1.659777308437142e7 0.0
0.0 0.0 0.0

1.2686180829641568e6 2.293929460707204e7 0.0
2.293929460707204e7 -1.5578773995520664e7 0.0
0.0 0.0 0.0

-2.6955597771616927e6 2.937594819399396e7 0.0
2.937594819399396e7 5.94348808100688e6 0.0
0.0 0.0 0.0

1.7425485739843473e6 1.4054552679326572e6 0.0
1.4054552679326572e6 -5.699915757309361e7 0.0
0.0 0.0 0.0

-6.264061411654636e6 -1.0955598384652184e6 0.0
-1.0955598384652184e6 5.7192551541904196e7 0.0
0.0 0.0 0.0

-1.3177304355049694e6 2.1634136261252616e7 0.0
2.1634136261252616e7 -4.376449683070602e6 0.0
0.0 0.0 0.0

1.2789361964030042e6 1.5790901062390601e7 0.0
1.5790901062390601e7 -2.725122197542336e7 0.0
0.0 0.0 0.0

314020.5012862128 2.9491655512728043e7 0.0
2.9491655512728043e7 -3.225374568981673e6 0.0
0.0 0.0 0.0

-2.504678581230388e6 2.2929501251848713e7 0.0
2.2929501251848713e7 -244238.09200057143 0.0
0.0 0.0 0.0

-941396.541893309 2.033602870579849e7 0.0
2.033602870579849e7 3.410330941936077e7 0.0
0.0 0.0 0.0

-6.422092208395734e6 -1.1257784952103943e6 0.0
-1.1257784952103943e6 5.5344681856936894e7 0.0
0.0 0.0 0.0

1.8568961371603198e6 1.319472102424521e6 0.0
1.319472102424521e6 -5.479303895514465e7 0.0
0.0 0.0 0.0

5.302037816441704e6 3.2775070654352937e7 0.0
3.2775070654352937e7 -5.573240548810737e6 0.0
0.0 0.0 0.0

4.374440833098924e6 2.008034600150927e7 0.0
2.008034600150927e7 5.432133302495796e7 0.0
0.0 0.0 0.0

9.180516718351822e7 9.363445701215664e7 0.0
9.363445701215664e7 -1.122937310997916e7 0.0
0.0 0.0 0.0

-536666.5961406222 1.2341270704085063e7 0.0
1.2341270704085063e7 -8.85868699962746e6 0.0
0.0 0.0 0.0

-1.8846395882048262e6 3.292057016519562e7 0.0
3.292057016519562e7 1.9377991916359745e6 0.0
0.0 0.0 0.0

-9.83445111272109e6 842320.098326014 0.0
842320.098326014 1.6054084665907457e7 0.0
0.0 0.0 0.0

-2.521533430806377e6 3.0039734046820387e7 0.0
3.0039734046820387e7 4.998132828765178e6 0.0
0.0 0.0 0.0

3.2188182653000327e6 2.5178091358751124e6 0.0
2.5178091358751124e6 -1.4741702309898393e7 0.0
0.0 0.0 0.0

1.3617356811471948e7 2.978074981974604e7 0.0
2.978074981974604e7 -4.601816973203465e6 0.0
0.0 0.0 0.0

4.017570638273751e6 2.8032387893860344e7 0.0
2.8032387893860344e7 -8.373246018711185e6 0.0
0.0 0.0 0.0

-6.19568387238325e6 1.9032497482010204e7 0.0
1.9032497482010204e7 1.9706432741156913e7 0.0
0.0 0.0 0.0

-1.8688398098932747e6 2.313939089022031e7 0.0
2.313939089022031e7 -1.518857878183335e6 0.0
0.0 0.0 0.0

-4.067532934099894e6 1.060528529219999e6 0.0
1.060528529219999e6 7.613580774806912e7 0.0
0.0 0.0 0.0

77327.12290343535 3.7582577912184666e6 0.0
3.7582577912184666e6 -56281.51714136261 0.0
0.0 0.0 0.0

-5.3685696189072095e6 -793463.2016142018 0.0
-793463.2016142018 2.1697020158315166e6 0.0
0.0 0.0 0.0

687503.4237806152 -1.583670898593454e6 0.0
-1.583670898593454e6 -1.915570240606936e6 0.0
0.0 0.0 0.0

4.865780246077452e6 2.8373551793705884e7 0.0
2.8373551793705884e7 -7.832263484336961e6 0.0
0.0 0.0 0.0

-7.536769336147569e6 1.7500304019506536e7 0.0
1.7500304019506536e7 -6.1114993349505566e7 0.0
0.0 0.0 0.0

5.761993443684089e6 2.0294090162640467e7 0.0
2.0294090162640467e7 3.664778999561786e7 0.0
0.0 0.0 0.0

-3.578397738242869e6 2.1997223619629886e7 0.0
2.1997223619629886e7 -1.3712676974829728e7 0.0
0.0 0.0 0.0

3.290958501394976e6 1.891124285197777e6 0.0
1.891124285197777e6 -2.8756867771963846e7 0.0
0.0 0.0 0.0

-2.1048476967180795e6 1.9850646545504794e7 0.0
1.9850646545504794e7 -5.149405499371347e6 0.0
0.0 0.0 0.0

359876.56410788745 2.2808112570859846e7 0.0
2.2808112570859846e7 -1.469558131175078e7 0.0
0.0 0.0 0.0

-4.665461783746362e6 1.696182134928129e7 0.0
1.696182134928129e7 -4.3585900404388994e7 0.0
0.0 0.0 0.0

1.0889426905445664e6 3.040725190889304e7 0.0
3.040725190889304e7 -3.724781004552585e6 0.0
0.0 0.0 0.0

-3.2544297272588294e6 2.1740744425098546e7 0.0
2.1740744425098546e7 2.4300553210919887e7 0.0
0.0 0.0 0.0

-1.6757439568938313e6 2.0482973157294963e7 0.0
2.0482973157294963e7 -3.9632883232191387e6 0.0
0.0 0.0 0.0

519804.4706287049 2.257963486817978e7 0.0
2.257963486817978e7 3.5178037944280882e6 0.0
0.0 0.0 0.0

-7.005982592507541e6 1.8353096062814128e7 0.0
1.8353096062814128e7 -3.043951409306626e7 0.0
0.0 0.0 0.0

-2.753324250707921e7 3.152179184751614e7 0.0
3.152179184751614e7 -8.715371030435989e6 0.0
0.0 0.0 0.0

1.6175273265621934e7 4.8890824850961186e7 0.0
4.8890824850961186e7 -4.303408312964681e6 0.0
0.0 0.0 0.0

-3.131030493329097e6 -1.0180704702141316e6 0.0
-1.0180704702141316e6 7.007740700530557e6 0.0
0.0 0.0 0.0

-2.5397886951659974e6 -2.0070502441610456e6 0.0
-2.0070502441610456e6 6.3992331918593235e6 0.0
0.0 0.0 0.0

-3.530130726339616e6 2.2826785351317193e7 0.0
2.2826785351317193e7 2.136723216570563e7 0.0
0.0 0.0 0.0

-665130.0111757095 2.6290363667660482e7 0.0
2.6290363667660482e7 -6.760429215532279e6 0.0
0.0 0.0 0.0

-1.3495375605156617e6 3.414138865982182e7 0.0
3.414138865982182e7 1.5768703980869022e6 0.0
0.0 0.0 0.0

-2.288303401081308e6 3.0637960516857315e7 0.0
3.0637960516857315e7 4.1034851497298684e6 0.0
0.0 0.0 0.0

1.5074817896440517e7 2.413795893488068e7 0.0
2.413795893488068e7 1.1723873608783131e7 0.0
0.0 0.0 0.0

4.1454439066072153e6 2.427049310852301e7 0.0
2.427049310852301e7 -4.7229310302675385e6 0.0
0.0 0.0 0.0

6.820906612392487e6 1.9676207964519523e7 0.0
1.9676207964519523e7 6.0582257113435686e7 0.0
0.0 0.0 0.0

-5.200408896413018e7 3.2703072380779367e7 0.0
3.2703072380779367e7 -1.7575311349875525e7 0.0
0.0 0.0 0.0

-1.2644474523919469e8 4.675019924215381e7 0.0
4.675019924215381e7 1.8882722374411747e6 0.0
0.0 0.0 0.0

-6.231624090905653e6 1.8047715674140077e7 0.0
1.8047715674140077e7 1.7492400325606838e7 0.0
0.0 0.0 0.0

-2.2989298079978507e6 2.3597401235648006e7 0.0
2.3597401235648006e7 1.807411745965136e7 0.0
0.0 0.0 0.0

2.5444490704202596e6 5.215339167089366e6 0.0
5.215339167089366e6 -2.64689561875972e7 0.0
0.0 0.0 0.0

-6.089166841053752e6 1.915283047512895e7 0.0
1.915283047512895e7 2.451425195401426e7 0.0
0.0 0.0 0.0

-7.678999262930197e6 -4.896657153495576e6 0.0
-4.896657153495576e6 2.045964136085506e7 0.0
0.0 0.0 0.0

1.1998940089610495e7 2.562414407965362e7 0.0
2.562414407965362e7 1.408640254269053e7 0.0
0.0 0.0 0.0

-3.367864775595557e6 1.7357882011018302e7 0.0
1.7357882011018302e7 -4.16329167739123e7 0.0
0.0 0.0 0.0

2.987058438952269e6 4.544916791903366e6 0.0
4.544916791903366e6 -3.362984310149913e7 0.0
0.0 0.0 0.0

7.268562253153289e6 2.3152757925629582e7 0.0
2.3152757925629582e7 7.660975625721354e6 0.0
0.0 0.0 0.0

-737667.366443675 5.057870113155389e6 0.0
5.057870113155389e6 9.709038091353439e7 0.0
0.0 0.0 0.0

-5.177496696797833e6 3.1947466845579673e7 0.0
3.1947466845579673e7 6.633551070366198e6 0.0
0.0 0.0 0.0

-1.931530402155266e7 2.7732476421014413e7 0.0
2.7732476421014413e7 4615.36879070662 0.0
0.0 0.0 0.0

2.724032327060575e6 2.662748881720962e7 0.0
2.662748881720962e7 -9.901766369767169e6 0.0
0.0 0.0 0.0

-8.114774747043002e6 -2.956489733388463e6 0.0
-2.956489733388463e6 3.31490791256627e7 0.0
0.0 0.0 0.0

844573.4274839754 2.0962299700351212e7 0.0
2.0962299700351212e7 7.680016973660212e6 0.0
0.0 0.0 0.0

-7.309562392981663e6 -2.0128613109349213e6 0.0
-2.0128613109349213e6 4.339276978676635e7 0.0
0.0 0.0 0.0

7.32337289101871e6 2.4248346725024644e7 0.0
2.4248346725024644e7 7.609581163930744e6 0.0
0.0 0.0 0.0

-1.7977272565974644e6 2.5229925895829834e7 0.0
2.5229925895829834e7 1.6419549906772827e6 0.0
0.0 0.0 0.0

3.002391780944705e6 2.8594841112159463e6 0.0
2.8594841112159463e6 -3.7343476551588565e7 0.0
0.0 0.0 0.0

-5.995014305408375e6 2.3070812368585628e7 0.0
2.3070812368585628e7 -1.5974469361340491e7 0.0
0.0 0.0 0.0

3.325666560486097e6 2.0356369727633877e6 0.0
2.0356369727633877e6 -2.5747809234849114e7 0.0
0.0 0.0 0.0

141391.51937490143 1.8767470607689563e7 0.0
1.8767470607689563e7 -2.4373497603756215e7 0.0
0.0 0.0 0.0

-6.786539958887208e6 3.932354358697727e7 0.0
3.932354358697727e7 3.0429877398761776e6 0.0
0.0 0.0 0.0

-338989.3557385891 1.85696967215963e7 0.0
1.85696967215963e7 -265645.71648760873 0.0
0.0 0.0 0.0

950125.8831556826 2.607980916989365e7 0.0
2.607980916989365e7 -1.0268452761155276e7 0.0
0.0 0.0 0.0

-4.874882429549263e6 3.722320886705395e7 0.0
3.722320886705395e7 2.309189810115598e6 0.0
0.0 0.0 0.0

-2.7693717677727723e6 2.873426563515871e7 0.0
2.873426563515871e7 7.066894187248836e6 0.0
0.0 0.0 0.0

-2.9511094039181285e6 3.02151465094014e7 0.0
3.02151465094014e7 3.4250634243599814e6 0.0
0.0 0.0 0.0

133524.28834998392 3.731978943483067e7 0.0
3.731978943483067e7 -1.1471926615369325e6 0.0
0.0 0.0 0.0

1.4177328387315865e6 2.5116620405063666e7 0.0
2.5116620405063666e7 -1.1133023004970139e7 0.0
0.0 0.0 0.0

-4.1466494363904255e6 4.12426161847717e7 0.0
4.12426161847717e7 1.1370424626694378e6 0.0
0.0 0.0 0.0

-9.645890575026516e6 1.4527582756988186e7 0.0
1.4527582756988186e7 2.0399810336152658e7 0.0
0.0 0.0 0.0

790120.5141830333 1.529809481115051e7 0.0
1.529809481115051e7 -1.908504268077171e7 0.0
0.0 0.0 0.0

-9.904579349250184e6 218216.88217222385 0.0
218216.88217222385 2.7341605214035805e7 0.0
0.0 0.0 0.0

-1.397998262987687e7 2.9838086367103618e7 0.0
2.9838086367103618e7 4.500158052737359e6 0.0
0.0 0.0 0.0

-6.583224150002629e6 1.4118417412817513e6 0.0
1.4118417412817513e6 5.706225158163303e7 0.0
0.0 0.0 0.0

4.8898124239596e6 3.409305388116715e7 0.0
3.409305388116715e7 -4.998430346715838e6 0.0
0.0 0.0 0.0

525778.5852952125 1.8750733502294797e7 0.0
1.8750733502294797e7 -2.4371989242376514e7 0.0
0.0 0.0 0.0

1.776093321772889e6 2.320264886941177e7 0.0
2.320264886941177e7 9.344454558558209e6 0.0
0.0 0.0 0.0

-1.0054294291400202e6 1.835836736310131e7 0.0
1.835836736310131e7 -1.1469802181138102e7 0.0
0.0 0.0 0.0

-82523.82983524539 1.5787250193465516e7 0.0
1.5787250193465516e7 -3.460028685940729e7 0.0
0.0 0.0 0.0

3.029067571714729e6 3.998671415500503e6 0.0
3.998671415500503e6 -1.8055655308714293e7 0.0
0.0 0.0 0.0

5.900685007721664e6 2.8563445058763225e7 0.0
2.8563445058763225e7 -7.282167262408663e6 0.0
0.0 0.0 0.0

57415.30165338004 2.2462714889558677e7 0.0
2.2462714889558677e7 7.38392538947097e6 0.0
0.0 0.0 0.0

-2.455126906909559e6 2.2301965398001336e7 0.0
2.2301965398001336e7 -1.6084314026421397e6 0.0
0.0 0.0 0.0

1.3925956300494112e6 1.5088468595337118e6 0.0
1.5088468595337118e6 -6.60077256114194e7 0.0
0.0 0.0 0.0

-1.0415339219737235e7 6.268230488315378e6 0.0
6.268230488315378e6 2.743193074272919e7 0.0
0.0 0.0 0.0

996787.1397675611 4.220809098104112e6 0.0
4.220809098104112e6 -6.580969199599084e7 0.0
0.0 0.0 0.0

-8.530500747728342e6 -3.796672714374411e6 0.0
-3.796672714374411e6 2.54469349809499e7 0.0
0.0 0.0 0.0

-2.2247058267141436e6 2.5127955111673165e7 0.0
2.5127955111673165e7 -11826.780602567364 0.0
0.0 0.0 0.0

-566553.3152524761 2.255063577597052e7 0.0
2.255063577597052e7 4.310671063018999e6 0.0
0.0 0.0 0.0

1.0396411321811844e6 2.2845019409433313e7 0.0
2.2845019409433313e7 6.689843271789455e6 0.0
0.0 0.0 0.0

-5.529988963163276e6 1.773257760728579e7 0.0
1.773257760728579e7 2.0129301124209978e7 0.0
0.0 0.0 0.0

-7.817218330077397e6 -2.2255041928105624e6 0.0
-2.2255041928105624e6 3.7301574835603155e7 0.0
0.0 0.0 0.0

7.30272620872004e6 3.0778586796859834e7 0.0
3.0778586796859834e7 -6.2532022593327e6 0.0
0.0 0.0 0.0

7.3977221783352215e6 2.3423314447666425e7 0.0
2.3423314447666425e7 1.7313496076518092e7 0.0
0.0 0.0 0.0

1.8054106763535794e6 9.316203190192234e6 0.0
9.316203190192234e6 -2.9637144839392588e7 0.0
0.0 0.0 0.0

-7.929408632194458e6 -561749.4953257294 0.0
-561749.4953257294 3.977206061172886e7 0.0
0.0 0.0 0.0

4.999601047229269e6 2.3752388351808175e7 0.0
2.3752388351808175e7 1.3691924412593776e7 0.0
0.0 0.0 0.0

-892611.5109590013 1.8105421797465507e7 0.0
1.8105421797465507e7 4.8638201188099205e7 0.0
0.0 0.0 0.0

8.493140306982335e6 2.490136473927172e7 0.0
2.490136473927172e7 1.3729888590487845e7 0.0
0.0 0.0 0.0

-6.397225428666811e6 1.6940751332009573e7 0.0
1.6940751332009573e7 -5.7220529868870385e7 0.0
0.0 0.0 0.0

-2.0568530985143054e6 2.1239806594788376e7 0.0
2.1239806594788376e7 2.8951297726856507e7 0.0
0.0 0.0 0.0

2.145579711850604e6 2.0642103046436436e7 0.0
2.0642103046436436e7 2.3165315400333863e7 0.0
0.0 0.0 0.0

2.4827122303672256e6 2.469365759589191e7 0.0
2.469365759589191e7 -1.2202035162256278e7 0.0
0.0 0.0 0.0

-3.78925629403539e6 2.3702761591557857e7 0.0
2.3702761591557857e7 -6.893685234072459e6 0.0
0.0 0.0 0.0

521069.70880192704 9.00905856265859e6 0.0
9.00905856265859e6 -4.8008740452252984e7 0.0
0.0 0.0 0.0

592323.3371891249 8.077547745323888e6 0.0
8.077547745323888e6 -5.05392640817661e7 0.0
0.0 0.0 0.0

-49853.63046667958 1.7951134256910034e7 0.0
1.7951134256910034e7 -1.0829240934703596e7 0.0
0.0 0.0 0.0

-5.389540497043371e6 1.8648851642923232e7 0.0
1.8648851642923232e7 3.3453816701210625e7 0.0
0.0 0.0 0.0

1.0546376148133557e6 2.292077465324045e7 0.0
2.292077465324045e7 -1.5506475761711976e7 0.0
0.0 0.0 0.0

-4.442028276124921e6 4.164615920202471e6 0.0
4.164615920202471e6 7.280400369068213e7 0.0
0.0 0.0 0.0

-4.0221149471386354e6 1.6543904935177831e7 0.0
1.6543904935177831e7 -4.994942041090385e7 0.0
0.0 0.0 0.0

2.213728137844112e6 1.6917814500502143e7 0.0
1.6917814500502143e7 6.071971735415999e7 0.0
0.0 0.0 0.0

1.507284848473534e6 1.6060233634244928e6 0.0
1.6060233634244928e6 -6.333492318882277e7 0.0
0.0 0.0 0.0

1.7977655929579143e6 2.636838549622372e7 0.0
2.636838549622372e7 -1.0040025598147208e7 0.0
0.0 0.0 0.0

6.989470073120974e6 2.456539230424631e7 0.0
2.456539230424631e7 1.42650206852186e7 0.0
0.0 0.0 0.0

-8.118371741650297e6 1.8561722842123035e7 0.0
1.8561722842123035e7 -5.248304842744738e7 0.0
0.0 0.0 0.0

1.3321814151160719e7 1.1714051609754305e7 0.0
1.1714051609754305e7 1.3378489415186313e6 0.0
0.0 0.0 0.0

-2.4868020895563676e6 2.281501213173124e7 0.0
2.281501213173124e7 -8.533731084136838e6 0.0
0.0 0.0 0.0

5.882796326664114e6 2.4057234586776122e7 0.0
2.4057234586776122e7 1.484600246842113e7 0.0
0.0 0.0 0.0

-2.817152254729516e6 2.477704663458695e7 0.0
2.477704663458695e7 1.2514999408642797e7 0.0
0.0 0.0 0.0

-2.605759221701122e6 2.34586070872916e7 0.0
2.34586070872916e7 1.8483535989392538e7 0.0
0.0 0.0 0.0

419271.88153090887 1.382503253378539e7 0.0
1.382503253378539e7 -1.6707834720480602e7 0.0
0.0 0.0 0.0

-7.616137526606174e6 1.775991459411272e7 0.0
1.775991459411272e7 3.083391004648743e7 0.0
0.0 0.0 0.0

-5.354081808671396e6 1.646572634100203e7 0.0
1.646572634100203e7 -5.328074737564789e7 0.0
0.0 0.0 0.0

-2.968494716626294e6 2.2651855076239116e7 0.0
2.2651855076239116e7 -1.2767972881543709e7 0.0
0.0 0.0 0.0

-7.242924872870478e6 2.598250573953475e7 0.0
2.598250573953475e7 6.768623934988375e6 0.0
0.0 0.0 0.0

311047.6287063975 1.2288687879956776e7 0.0
1.2288687879956776e7 -9.369586722101355e6 0.0
0.0 0.0 0.0

-3.6707750842099003e6 6.68398447157569e6 0.0
6.68398447157569e6 9.454314906933634e7 0.0
0.0 0.0 0.0

-9.047405857413584e6 1.8162419855524957e7 0.0
1.8162419855524957e7 -6.554713896087253e7 0.0
0.0 0.0 0.0

-955371.8512789588 2.01590013567815e7 0.0
2.01590013567815e7 3.3885873510458216e7 0.0
0.0 0.0 0.0

-1.7776955203714562e6 3.488137631392122e7 0.0
3.488137631392122e7 247605.23953072028 0.0
0.0 0.0 0.0

2.21243831799378e7 2.4368914812349577e7 0.0
2.4368914812349577e7 8.594411423252322e6 0.0
0.0 0.0 0.0

1.3039893400394507e6 1.9747945349927858e7 0.0
1.9747945349927858e7 4.3686425248571195e7 0.0
0.0 0.0 0.0

-3.428476094397707e6 2.2522252587163504e7 0.0
2.2522252587163504e7 2.1303607353228092e7 0.0
0.0 0.0 0.0

443852.9383760989 1.6484859228776773e7 0.0
1.6484859228776773e7 -1.8574485419351593e7 0.0
0.0 0.0 0.0

-3.618876300200102e6 2.1625294940033875e7 0.0
2.1625294940033875e7 -1.4706214207528664e7 0.0
0.0 0.0 0.0

-4.574743470588043e6 2.076724320342621e7 0.0
2.076724320342621e7 1.695050030704079e7 0.0
0.0 0.0 0.0

-4.72012145829404e6 1.9345958003239177e7 0.0
1.9345958003239177e7 2.014695451249945e7 0.0
0.0 0.0 0.0

2.473300776408829e6 2.843035251890452e6 0.0
2.843035251890452e6 -3.4546737348734766e7 0.0
0.0 0.0 0.0

-4.263278414952932e6 2.7730149481468182e7 0.0
2.7730149481468182e7 1.0851928393299023e7 0.0
0.0 0.0 0.0

-2.0023307823621994e6 1.893392013163752e7 0.0
1.893392013163752e7 -3.386523376526534e6 0.0
0.0 0.0 0.0

3.683554372280428e6 3.235328804263667e6 0.0
3.235328804263667e6 -2.459005700534665e7 0.0
0.0 0.0 0.0

3.212115307245337e6 3.286406999778905e7 0.0
3.286406999778905e7 -5.070353418734983e6 0.0
0.0 0.0 0.0

8.0970142331136e6 2.4612766942817774e7 0.0
2.4612766942817774e7 1.5325901099083537e7 0.0
0.0 0.0 0.0

-5.517736039851613e6 2.5584944995350637e6 0.0
2.5584944995350637e6 6.4103964227750435e7 0.0
0.0 0.0 0.0

1.1202523507149847e7 2.616260129164706e7 0.0
2.616260129164706e7 1.360340024212429e7 0.0
0.0 0.0 0.0

7.640096978808481e6 2.4641135009004533e7 0.0
2.4641135009004533e7 1.0674362984269243e7 0.0
0.0 0.0 0.0

76773.96547350194 2.182745385182098e7 0.0
2.182745385182098e7 -1.5256671054300204e7 0.0
0.0 0.0 0.0

2.0084071548913606e6 2.9373946875404613e6 0.0
2.9373946875404613e6 -4.6041995633678935e7 0.0
0.0 0.0 0.0

3.960975666933487e6 1.952647287901674e7 0.0
1.952647287901674e7 1.5531160100453101e7 0.0
0.0 0.0 0.0

724632.5558781559 2.2338801350617025e7 0.0
2.2338801350617025e7 -1.3742688073001215e7 0.0
0.0 0.0 0.0

1.9018504632611128e6 2.282352291760518e7 0.0
2.282352291760518e7 1.08289393255492e7 0.0
0.0 0.0 0.0

-1.0873117683113728e7 8.412728990289718e6 0.0
8.412728990289718e6 2.158847599612858e7 0.0
0.0 0.0 0.0

-7.9234491943760235e6 -4.149649812982302e6 0.0
-4.149649812982302e6 2.4403012372738894e7 0.0
0.0 0.0 0.0

-5.763481755734253e6 2.522865216139874e7 0.0
2.522865216139874e7 4.545985878803703e6 0.0
0.0 0.0 0.0

515717.97717919946 1.6438598463367566e7 0.0
1.6438598463367566e7 -2.9380487003313858e7 0.0
0.0 0.0 0.0

-4.367998542626792e6 2.076223055840093e7 0.0
2.076223055840093e7 -1.9310695541346535e7 0.0
0.0 0.0 0.0

-3.9522102589383572e6 2.973474392761316e6 0.0
2.973474392761316e6 9.152405886851843e7 0.0
0.0 0.0 0.0

-5.35257667775779e6 4.244287412284666e7 0.0
4.244287412284666e7 1.3571123225636415e6 0.0
0.0 0.0 0.0

568314.8353503962 6.206009511019429e6 0.0
6.206009511019429e6 -2.482488495339001e6 0.0
0.0 0.0 0.0

-1.56353100772274e6 2.277571499836642e7 0.0
2.277571499836642e7 1.468987045248727e6 0.0
0.0 0.0 0.0

4.1714378293547826e6 2.3727596828644726e7 0.0
2.3727596828644726e7 1.3520830730760122e7 0.0
0.0 0.0 0.0

-5.891356405875521e6 1.9131610427840173e7 0.0
1.9131610427840173e7 2.968599875435044e7 0.0
0.0 0.0 0.0

-1.5985022890733942e7 2.9255334081703737e7 0.0
2.9255334081703737e7 2.5053623396562217e6 0.0
0.0 0.0 0.0

5.796985308612419e6 2.4651445714914136e7 0.0
2.4651445714914136e7 1.1623189577991046e7 0.0
0.0 0.0 0.0

3.3540150341700497e6 2.437791699972007e7 0.0
2.437791699972007e7 1.2713359392297506e7 0.0
0.0 0.0 0.0

667255.5220068963 2.1122176982971035e7 0.0
2.1122176982971035e7 -1.9789873397987075e7 0.0
0.0 0.0 0.0

2.0379230244831266e6 5.613394577773965e6 0.0
5.613394577773965e6 -1.3763776449032292e7 0.0
0.0 0.0 0.0

-947287.4235578645 2.1848580876907215e7 0.0
2.1848580876907215e7 -1.75193607159735e7 0.0
0.0 0.0 0.0

924240.1895486526 2.449007877429265e7 0.0
2.449007877429265e7 -1.251875951153381e7 0.0
0.0 0.0 0.0

-2.314071943315333e6 2.7737318700287215e7 0.0
2.7737318700287215e7 6.304188514099952e6 0.0
0.0 0.0 0.0

3.005565976483289e6 2.5783146636939913e7 0.0
2.5783146636939913e7 -1.0166163330540579e7 0.0
0.0 0.0 0.0

2.171837778076501e6 2.48150253657774e7 0.0
2.48150253657774e7 -1.1190543893480208e7 0.0
0.0 0.0 0.0

2.5023004419370666e6 4.0823913126703715e6 0.0
4.0823913126703715e6 -4.127524353837597e7 0.0
0.0 0.0 0.0

4.111867948989272e6 2.3804077694844514e7 0.0
2.3804077694844514e7 8.367202719973577e6 0.0
0.0 0.0 0.0

923751.6831033835 2.5248289243743155e7 0.0
2.5248289243743155e7 -1.1323676971224716e7 0.0
0.0 0.0 0.0

-9.276844298858294e6 1.6096931995842312e7 0.0
1.6096931995842312e7 2.5300277484563474e7 0.0
0.0 0.0 0.0

-1.054812317332873e8 3.273401555996685e7 0.0
3.273401555996685e7 -1.8790978802487653e7 0.0
0.0 0.0 0.0

3.42105578418163e7 3.224958550346057e7 0.0
3.224958550346057e7 1.1403541748032427e8 0.0
0.0 0.0 0.0

-3.412666709957583e7 3.0561324456663046e7 0.0
3.0561324456663046e7 -1.1375577851289104e8 0.0
0.0 0.0 0.0

-3.254503448042052e6 2.131502001105089e7 0.0
2.131502001105089e7 2.6012973547756e7 0.0
0.0 0.0 0.0

796993.6720169932 1.6033901635631906e7 0.0
1.6033901635631906e7 -2.5611472386142053e7 0.0
0.0 0.0 0.0

-4.529019346280484e6 2.2735992167205587e7 0.0
2.2735992167205587e7 -1.5134849180661865e7 0.0
0.0 0.0 0.0

3.7830410477627474e6 4.310042559790785e7 0.0
4.310042559790785e7 -2.8698256704556104e6 0.0
0.0 0.0 0.0

-2.378166133012484e6 1.971775027342968e7 0.0
1.971775027342968e7 -2.4374923317278236e7 0.0
0.0 0.0 0.0

-5.958252518714597e6 2.3848132148674406e7 0.0
2.3848132148674406e7 -9.282311303295478e6 0.0
0.0 0.0 0.0

-7.895094762662893e6 1.8032190014703315e7 0.0
1.8032190014703315e7 2.5869660054006934e7 0.0
0.0 0.0 0.0

-421229.0733601793 2.873864731225692e7 0.0
2.873864731225692e7 -1.7894238976232274e6 0.0
0.0 0.0 0.0

-3.6154729776609335e6 1.8209859903162464e7 0.0
1.8209859903162464e7 -3.829670214081395e7 0.0
0.0 0.0 0.0

-2.53466327605516e6 2.2657294282425396e7 0.0
2.2657294282425396e7 -8.421551626045646e6 0.0
0.0 0.0 0.0

-3.5062951738629816e6 2.480866382285495e7 0.0
2.480866382285495e7 1.3611705691825077e7 0.0
0.0 0.0 0.0

2.1921256922556687e7 2.509684837171979e7 0.0
2.509684837171979e7 1.3471169532762486e6 0.0
0.0 0.0 0.0

1.6694501437395494e6 2.2109767646120403e7 0.0
2.2109767646120403e7 8.11403161764349e6 0.0
0.0 0.0 0.0

-3.6436444015236907e6 2.194734865445893e7 0.0
2.194734865445893e7 2.2902441286056273e7 0.0
0.0 0.0 0.0

-2.3700844108076636e7 2.78458760327353e7 0.0
2.78458760327353e7 -2.8020265225859834e6 0.0
0.0 0.0 0.0

1.0394896726956281e6 2.248533829977984e7 0.0
2.248533829977984e7 8.085663833806907e6 0.0
0.0 0.0 0.0

4.026914402764339e6 3.3490090995411593e7 0.0
3.3490090995411593e7 -4.8773409874430075e6 0.0
0.0 0.0 0.0

1.1877703597230239e7 3.0366319061201155e7 0.0
3.0366319061201155e7 -5.50884068663374e6 0.0
0.0 0.0 0.0

1.432801887571765e6 1.5310759038199231e7 0.0
1.5310759038199231e7 -1.9396975277146686e7 0.0
0.0 0.0 0.0

-2.958572030589115e6 1.987599761486624e7 0.0
1.987599761486624e7 3.2835536849776786e7 0.0
0.0 0.0 0.0

-212729.26283382345 2.06265038398519e7 0.0
2.06265038398519e7 -2.047788753521707e7 0.0
0.0 0.0 0.0

-2.3203230274312044e6 2.0169234304593526e7 0.0
2.0169234304593526e7 6.270749661945108e6 0.0
0.0 0.0 0.0

-5.194740691704489e6 2.058131427629384e7 0.0
2.058131427629384e7 1.971900395712116e7 0.0
0.0 0.0 0.0

1.894921681483381e6 8.001150670980501e6 0.0
8.001150670980501e6 -1.0057026999017391e7 0.0
0.0 0.0 0.0

1.7723838659591237e6 2.1021815493404448e7 0.0
2.1021815493404448e7 1.1819392205632543e7 0.0
0.0 0.0 0.0

7.100248640919557e6 2.9538826168900076e7 0.0
2.9538826168900076e7 -6.649788341029687e6 0.0
0.0 0.0 0.0

-1.7587002001711242e6 1.2313284572367413e7 0.0
1.2313284572367413e7 -7.377238772468485e7 0.0
0.0 0.0 0.0

-9.66479183362967e6 1.55043477793409e7 0.0
1.55043477793409e7 2.4490957569152474e7 0.0
0.0 0.0 0.0

2.517618695918294e7 4.640447172015428e7 0.0
4.640447172015428e7 -6.688074381057881e6 0.0
0.0 0.0 0.0

1.5893919094095584e6 8.354056106377403e6 0.0
8.354056106377403e6 -4.709057067472696e7 0.0
0.0 0.0 0.0

1.0594888607395834e6 2.0946722888394628e7 0.0
2.0946722888394628e7 9.358972119475232e6 0.0
0.0 0.0 0.0

3.7955383137383033e6 2.7073287690710116e7 0.0
2.7073287690710116e7 -9.155097360942215e6 0.0
0.0 0.0 0.0

1.5984499600319594e7 2.5873449854716018e7 0.0
2.5873449854716018e7 1.572023843094059e8 0.0
0.0 0.0 0.0

-1.6636916606531024e7 2.5320835936382856e7 0.0
2.5320835936382856e7 -1.518493835526726e8 0.0
0.0 0.0 0.0

3.332883155681732e7 2.268333145766517e7 0.0
2.268333145766517e7 6.955891800763357e6 0.0
0.0 0.0 0.0

1.3767660005988471e7 2.9615043686129563e7 0.0
2.9615043686129563e7 -4.898636689786999e6 0.0
0.0 0.0 0.0

328411.262453435 1.1633250792861713e7 0.0
1.1633250792861713e7 -8.230728577975862e6 0.0
0.0 0.0 0.0

2.5355198985842824e7 4.135391865746312e7 0.0
4.135391865746312e7 -6.794825091553006e6 0.0
0.0 0.0 0.0

-567192.7955701752 2.2284420679357085e7 0.0
2.2284420679357085e7 2.2993041439240746e7 0.0
0.0 0.0 0.0

1.8080710354010735e7 2.46979096144831e7 0.0
2.46979096144831e7 1.3923538396729268e6 0.0
0.0 0.0 0.0

-3.30622341851555e6 2.6953433336055707e7 0.0
2.6953433336055707e7 8.789987910899457e6 0.0
0.0 0.0 0.0

-4.434113937452412e6 1.844465485931068e7 0.0
1.844465485931068e7 1.8157312658763234e7 0.0
0.0 0.0 0.0

-556783.7026980515 3.9951183550931807e6 0.0
3.9951183550931807e6 -2.690922478007995e6 0.0
0.0 0.0 0.0

8.726155414608154e6 2.413175219195117e7 0.0
2.413175219195117e7 1.6019799948608637e7 0.0
0.0 0.0 0.0

859173.0884806896 2.864484269918335e7 0.0
2.864484269918335e7 -6.635582102161621e6 0.0
0.0 0.0 0.0

-3.186428435759539e6 2.0999569817246716e7 0.0
2.0999569817246716e7 2.7787222202238478e7 0.0
0.0 0.0 0.0

-5.802635899904212e6 2.8123415493822664e7 0.0
2.8123415493822664e7 1.010669732321911e7 0.0
0.0 0.0 0.0

-2.5681458786923354e6 2.646898135018872e7 0.0
2.646898135018872e7 9.682952285519931e6 0.0
0.0 0.0 0.0

-2.717430634703902e6 2.038314373512476e7 0.0
2.038314373512476e7 -7.2123253960535275e6 0.0
0.0 0.0 0.0

-532177.5920704808 1.9947675621156104e7 0.0
1.9947675621156104e7 3.593821547926809e7 0.0
0.0 0.0 0.0

-3.168453625308717e6 2.73893297700478e7 0.0
2.73893297700478e7 1.0178720487913279e7 0.0
0.0 0.0 0.0

-4.120295955197133e6 1.4628680299632302e7 0.0
1.4628680299632302e7 1.1069915854442801e7 0.0
0.0 0.0 0.0

-4.653894355676555e7 3.6311787633159086e7 0.0
3.6311787633159086e7 -7.86257689039063e6 0.0
0.0 0.0 0.0

-5.272141806639299e6 5.522462358095512e6 0.0
5.522462358095512e6 6.399433236718235e7 0.0
0.0 0.0 0.0

-7.992618597254911e6 2.8550012265192114e7 0.0
2.8550012265192114e7 8.262212983656377e6 0.0
0.0 0.0 0.0

-8.741920270761875e6 3.443211561850312e7 0.0
3.443211561850312e7 6.024651398896426e6 0.0
0.0 0.0 0.0

-1.6763136830599476e6 1.759511007225772e7 0.0
1.759511007225772e7 -3.404866110427335e7 0.0
0.0 0.0 0.0

-2.578276589981801e6 3.874849198939024e7 0.0
3.874849198939024e7 1.6697778557361974e6 0.0
0.0 0.0 0.0

-7.095005037118024e6 4.389984506400584e7 0.0
4.389984506400584e7 1.4392727320971908e6 0.0
0.0 0.0 0.0

-8.958858584225703e6 4.530217546351431e7 0.0
4.530217546351431e7 1.968190364604442e6 0.0
0.0 0.0 0.0

45190.71584468265 3.1368706183150783e7 0.0
3.1368706183150783e7 -3.252865830227098e6 0.0
0.0 0.0 0.0

-8.019737044892125e6 1.4760388147568986e7 0.0
1.4760388147568986e7 3.628316232618096e7 0.0
0.0 0.0 0.0

2.62195555766383e6 1.4681675189096634e6 0.0
1.4681675189096634e6 -3.848805575111159e7 0.0
0.0 0.0 0.0

-1.7186804281203058e6 2.093049173767642e7 0.0
2.093049173767642e7 3.0471321319516074e7 0.0
0.0 0.0 0.0

3.5195516296699033e6 3.456029451849238e7 0.0
3.456029451849238e7 -4.249421414222447e6 0.0
0.0 0.0 0.0

19534.940090416 1.8192892763024304e7 0.0
1.8192892763024304e7 -2.5994815794810295e7 0.0
0.0 0.0 0.0

-7.038674175968174e6 319470.4932103909 0.0
319470.4932103909 5.0320924680705994e7 0.0
0.0 0.0 0.0

381765.76842890086 2.228990855685754e7 0.0
2.228990855685754e7 1.773745541746555e6 0.0
0.0 0.0 0.0

1.230755231068004e6 2.290220156680277e7 0.0
2.290220156680277e7 -1.2515120236678608e7 0.0
0.0 0.0 0.0

-453672.2945957836 2.130510679943689e7 0.0
2.130510679943689e7 -1.6723311998208165e7 0.0
0.0 0.0 0.0

-4.648084926136352e6 1.8765910857233018e7 0.0
1.8765910857233018e7 -1.7059177286817078e7 0.0
0.0 0.0 0.0

-9.282992082204081e6 -2.0460803254265375e6 0.0
-2.0460803254265375e6 2.3016051458155062e7 0.0
0.0 0.0 0.0

-482288.05940592475 2.0674370728151307e7 0.0
2.0674370728151307e7 -2.685228700821018e6 0.0
0.0 0.0 0.0

3.983143860023396e6 2.269821126754062e7 0.0
2.269821126754062e7 7.546967874510625e6 0.0
0.0 0.0 0.0

2.396125186712511e7 2.3311997287157986e7 0.0
2.3311997287157986e7 9.288552064819667e6 0.0
0.0 0.0 0.0

-1.0020858071144853e7 4.7754619137760565e7 0.0
4.7754619137760565e7 2.9439961579137575e6 0.0
0.0 0.0 0.0

-4.623379906848518e6 1.8892908066892568e7 0.0
1.8892908066892568e7 1.9286179631418675e7 0.0
0.0 0.0 0.0

-1.2312823065242e7 2.006358349733925e7 0.0
2.006358349733925e7 -7.334944269425987e7 0.0
0.0 0.0 0.0

2.236272123753706e6 7.402839881502656e6 0.0
7.402839881502656e6 -3.928110418007273e7 0.0
0.0 0.0 0.0

-8.062128011164052e6 -2.798365172293482e6 0.0
-2.798365172293482e6 3.356079321450219e7 0.0
0.0 0.0 0.0

-2.4947892519578367e7 3.1382368373507284e7 0.0
3.1382368373507284e7 -1.1390368596118327e7 0.0
0.0 0.0 0.0

-2.4037372464600362e7 2.8356703599781033e7 0.0
2.8356703599781033e7 -5.525407977111568e6 0.0
0.0 0.0 0.0

-2.6890254011262027e6 2.098133912995804e7 0.0
2.098133912995804e7 -9.143341294447294e6 0.0
0.0 0.0 0.0

976764.4418038405 3.3900894206548184e7 0.0
3.3900894206548184e7 -2.9654647643926516e6 0.0
0.0 0.0 0.0

-433761.7875383496 6.989458862411056e6 0.0
6.989458862411056e6 -6.990690738237727e7 0.0
0.0 0.0 0.0

1.1222395040944472e7 2.6050052783466585e7 0.0
2.6050052783466585e7 -3.0500959316694816e6 0.0
0.0 0.0 0.0

7.861294390953697e6 2.5206430538214926e7 0.0
2.5206430538214926e7 1.301471276068598e7 0.0
0.0 0.0 0.0

1.44084729977992e6 1.581541975081055e7 0.0
1.581541975081055e7 -2.5316718819356874e7 0.0
0.0 0.0 0.0

-1.4214319536901263e6 2.6697653518865563e7 0.0
2.6697653518865563e7 1.0195761484485872e6 0.0
0.0 0.0 0.0

1.3773395924154846e6 1.47117968614414e7 0.0
1.47117968614414e7 -1.838601391734561e7 0.0
0.0 0.0 0.0

764125.3213869389 1.5420379252734415e7 0.0
1.5420379252734415e7 -2.731010161699457e7 0.0
0.0 0.0 0.0

-3.3348617957872106e6 1.973109965811781e7 0.0
1.973109965811781e7 -1.7680147995755937e7 0.0
0.0 0.0 0.0

-9.003636647130085e6 3.3304689301530674e7 0.0
3.3304689301530674e7 5.9617306724999705e6 0.0
0.0 0.0 0.0

-1.876415630205232e7 2.4065686908284146e7 0.0
2.4065686908284146e7 -8.487247995354387e7 0.0
0.0 0.0 0.0

2.103910313623376e7 4.047970884784405e7 0.0
4.047970884784405e7 -5.663375965843448e6 0.0
0.0 0.0 0.0

8.609885791458774e6 2.9521157699769743e7 0.0
2.9521157699769743e7 -6.058178013524499e6 0.0
0.0 0.0 0.0

-2.5894759348227307e6 3.584463362870628e7 0.0
3.584463362870628e7 2.5087640271759136e6 0.0
0.0 0.0 0.0

-3.7483814320201837e6 2.6688756973979898e7 0.0
2.6688756973979898e7 1.1824491343132604e7 0.0
0.0 0.0 0.0

-290535.10874846205 5.718572740943123e6 0.0
5.718572740943123e6 -7.318166628871168e7 0.0
0.0 0.0 0.0

-3.541441411297797e6 2.4440356571498327e7 0.0
2.4440356571498327e7 1.6584657693732128e7 0.0
0.0 0.0 0.0

683138.7397768162 5.48980721332531e6 0.0
5.48980721332531e6 -5.892397456388015e7 0.0
0.0 0.0 0.0

68816.24243703019 2.374902306901704e7 0.0
2.374902306901704e7 -9.38530311157384e6 0.0
0.0 0.0 0.0

-50550.0925762034 2.2775065099718235e7 0.0
2.2775065099718235e7 -9.794629977386042e6 0.0
0.0 0.0 0.0

-1.3025002653293142e6 2.011340055088122e7 0.0
2.011340055088122e7 -4.1151452124701957e6 0.0
0.0 0.0 0.0

-2.345085490629225e6 2.2650509200937685e7 0.0
2.2650509200937685e7 1.9656874710396744e7 0.0
0.0 0.0 0.0

-1.0652444798527088e6 3.0013155566847272e7 0.0
3.0013155566847272e7 -2.1376910922313975e6 0.0
0.0 0.0 0.0

-3.511179790002981e6 2.2894782564520396e7 0.0
2.2894782564520396e7 1.6090661914840532e7 0.0
0.0 0.0 0.0

-7.733963161665009e6 -2.3279247309999918e6 0.0
-2.3279247309999918e6 3.815670417037941e7 0.0
0.0 0.0 0.0

1.540630617050171e6 6.997738690504638e6 0.0
6.997738690504638e6 -4.145509390651998e7 0.0
0.0 0.0 0.0

1.6947938772248346e6 9.633266504155492e6 0.0
9.633266504155492e6 -3.204021447620664e7 0.0
0.0 0.0 0.0

2.5438708402876e6 3.747877666114036e7 0.0
3.747877666114036e7 -1.9983544748452865e6 0.0
0.0 0.0 0.0

-3.6082511943977242e6 2.2741387020726364e7 0.0
2.2741387020726364e7 -1.279563121775947e7 0.0
0.0 0.0 0.0

-794921.9098224603 1.6709641387742264e7 0.0
1.6709641387742264e7 -3.4349859289717466e7 0.0
0.0 0.0 0.0

4.580474272590768e6 2.1461238790285766e7 0.0
2.1461238790285766e7 1.761080865472927e7 0.0
0.0 0.0 0.0

-9.959448318677774e6 3.6484727882549195e6 0.0
3.6484727882549195e6 2.6174647046187773e7 0.0
0.0 0.0 0.0

8.787371709073149e6 2.5871012133175965e7 0.0
2.5871012133175965e7 1.4176499726397293e7 0.0
0.0 0.0 0.0

-1.6528780893914204e7 3.683257408250402e7 0.0
3.683257408250402e7 6.598928553146232e6 0.0
0.0 0.0 0.0

5.647254573982326e6 2.335552841819896e7 0.0
2.335552841819896e7 8.368600788060792e6 0.0
0.0 0.0 0.0

3.7144461387844514e6 2.0012673662011664e7 0.0
2.0012673662011664e7 1.7989770916520122e7 0.0
0.0 0.0 0.0

-6.19803030078872e6 3.249821698302736e7 0.0
3.249821698302736e7 6.299152634840768e6 0.0
0.0 0.0 0.0

-3.005499874736958e6 2.345359732872488e7 0.0
2.345359732872488e7 1.9177345530473523e7 0.0
0.0 0.0 0.0

1.0242559245403688e6 1.9377176743780844e7 0.0
1.9377176743780844e7 4.3211621436235294e7 0.0
0.0 0.0 0.0

-2.3163239905240398e7 2.8999996911015183e7 0.0
2.8999996911015183e7 -3.3905894312779605e6 0.0
0.0 0.0 0.0

-1.4646282160846457e7 2.7611713473331865e7 0.0
2.7611713473331865e7 2.271650511978303e6 0.0
0.0 0.0 0.0

-1.2810780533156695e7 1.8552631993769106e7 0.0
1.8552631993769106e7 -1.141597061167858e6 0.0
0.0 0.0 0.0

-9.620810901829097e7 3.7904597779821694e7 0.0
3.7904597779821694e7 -1.1778186122879088e7 0.0
0.0 0.0 0.0

1.4669831049663069e7 2.325639132290111e7 0.0
2.325639132290111e7 8.679763887977578e6 0.0
0.0 0.0 0.0

-2.9930604165675594e6 1.7886681505277168e7 0.0
1.7886681505277168e7 -3.526828801109005e7 0.0
0.0 0.0 0.0

-3.165499179279876e6 2.6124310096324384e7 0.0
2.6124310096324384e7 9.203985403011106e6 0.0
0.0 0.0 0.0

812343.3255552668 2.222673728978377e7 0.0
2.222673728978377e7 -1.68836401639665e7 0.0
0.0 0.0 0.0

5.188514010137802e7 1.8640063409330457e7 0.0
1.8640063409330457e7 3.3528603777976893e6 0.0
0.0 0.0 0.0

-7.818024864847114e6 -1.8039963430846995e6 0.0
-1.8039963430846995e6 1.4553229140407145e7 0.0
0.0 0.0 0.0

3.329320759529843e6 2.3968282568486515e6 0.0
2.3968282568486515e6 -1.651349086257103e7 0.0
0.0 0.0 0.0

573307.3884568093 2.2987083812935844e7 0.0
2.2987083812935844e7 -1.4407467728531688e7 0.0
0.0 0.0 0.0

-766841.2257609608 2.173803412292707e7 0.0
2.173803412292707e7 -1.0213397828201053e6 0.0
0.0 0.0 0.0

-7.330850751611151e6 5.935597838443728e6 0.0
5.935597838443728e6 4.990971216259192e7 0.0
0.0 0.0 0.0

1.0135438854877736e7 3.0776996970354617e7 0.0
3.0776996970354617e7 -5.8406252076971475e6 0.0
0.0 0.0 0.0

-1.5357108864060814e7 4.946473735582757e7 0.0
4.946473735582757e7 3.4859326235010084e6 0.0
0.0 0.0 0.0

1.387237155577605e7 2.423774423089366e7 0.0
2.423774423089366e7 7.857297682008529e6 0.0
0.0 0.0 0.0

-8.107912041864904e6 -3.12127678217453e6 0.0
-3.12127678217453e6 3.139624695617476e7 0.0
0.0 0.0 0.0

-2.7271151762602028e7 2.957497367533988e7 0.0
2.957497367533988e7 -4.356888497832498e6 0.0
0.0 0.0 0.0

1.2883144090498718e6 2.1159944249726173e7 0.0
2.1159944249726173e7 7.581054032168662e6 0.0
0.0 0.0 0.0

-2.137137538622215e7 5.1867669864892095e7 0.0
5.1867669864892095e7 4.442868369242079e6 0.0
0.0 0.0 0.0

-5.818326129992243e6 1.9723908951747272e7 0.0
1.9723908951747272e7 2.544826520861866e7 0.0
0.0 0.0 0.0

2.7953486208233633e6 2.2859949009269677e7 0.0
2.2859949009269677e7 -1.375196184098855e6 0.0
0.0 0.0 0.0

-7.940875184064281e6 1.952969408612242e7 0.0
1.952969408612242e7 -2.8779880868398055e7 0.0
0.0 0.0 0.0

-3.356089321810913e6 2.0980847320571795e7 0.0
2.0980847320571795e7 -1.2469300618912946e7 0.0
0.0 0.0 0.0

9.928866367899487e6 2.5622244283210896e7 0.0
2.5622244283210896e7 -3.6968575283750785e6 0.0
0.0 0.0 0.0

4.330252746130402e7 5.099281322531345e7 0.0
5.099281322531345e7 -1.1347405255716423e7 0.0
0.0 0.0 0.0

-9.284202522960905e6 -1.3109800684538367e6 0.0
-1.3109800684538367e6 2.4638432542639963e7 0.0
0.0 0.0 0.0

3.248389653620324e6 4.123350019533763e7 0.0
4.123350019533763e7 -3.14722700085364e6 0.0
0.0 0.0 0.0

5.391291859423218e6 3.49210977044228e7 0.0
3.49210977044228e7 -3.703694023547518e6 0.0
0.0 0.0 0.0

-8.537631380378542e6 1.0550955941160293e6 0.0
1.0550955941160293e6 4.0602327628457874e7 0.0
0.0 0.0 0.0

2.5717701163041145e6 1.5297451569896445e6 0.0
1.5297451569896445e6 -3.899617138321536e7 0.0
0.0 0.0 0.0

-4.512832438314782e6 2.9558551347267028e7 0.0
2.9558551347267028e7 8.756906718660425e6 0.0
0.0 0.0 0.0

7.116984045257261e6 2.547149638743518e7 0.0
2.547149638743518e7 1.4499517040940512e7 0.0
0.0 0.0 0.0

-4.6686733013098845e6 7.087987689738729e6 0.0
7.087987689738729e6 6.337857396319065e6 0.0
0.0 0.0 0.0

-7.27095297530465e6 1.8009982112233605e7 0.0
1.8009982112233605e7 2.572282197345382e7 0.0
0.0 0.0 0.0

5.812196926940082e6 2.4970241879908424e7 0.0
2.4970241879908424e7 1.4926570630562512e7 0.0
0.0 0.0 0.0

-597291.5501661329 1.9213377998889696e7 0.0
1.9213377998889696e7 -1.3330463944313852e7 0.0
0.0 0.0 0.0

-4.1121373658774057e6 1.93130850418729e7 0.0
1.93130850418729e7 -1.929902589377238e7 0.0
0.0 0.0 0.0

2.6034117509247684e6 3.2130624059190948e7 0.0
3.2130624059190948e7 -5.064800136472337e6 0.0
0.0 0.0 0.0

-8.482870579169098e6 -2.0700793778636402e6 0.0
-2.0700793778636402e6 1.7408463267685823e7 0.0
0.0 0.0 0.0

-2.02573982786151e6 2.197250491934316e7 0.0
2.197250491934316e7 4.63462071302407e6 0.0
0.0 0.0 0.0

-5.229416323505929e6 1.9133727180008218e7 0.0
1.9133727180008218e7 3.1542469057653803e7 0.0
0.0 0.0 0.0

827389.411870162 1.5813307231541026e7 0.0
1.5813307231541026e7 -1.5082835445292631e7 0.0
0.0 0.0 0.0

2.2735307137422934e6 2.61866250410211e7 0.0
2.61866250410211e7 -1.082956294505716e7 0.0
0.0 0.0 0.0

4.687261024501902e6 4.5245790332673885e7 0.0
4.5245790332673885e7 -778449.2550214869 0.0
0.0 0.0 0.0

-1.5158461056419294e6 1.621877284021964e7 0.0
1.621877284021964e7 -3.670441392433465e7 0.0
0.0 0.0 0.0

-5.073925122353668e7 5.220404862900054e7 0.0
5.220404862900054e7 6.389120623584814e6 0.0
0.0 0.0 0.0

569310.9244619447 1.8414114966714284e6 0.0
1.8414114966714284e6 -916710.4452878372 0.0
0.0 0.0 0.0

147440.64853679657 2.1196660885811388e6 0.0
2.1196660885811388e6 -2.0756849630555604e6 0.0
0.0 0.0 0.0

6.313814555728665e6 2.1233856962019283e7 0.0
2.1233856962019283e7 3.1821338816023156e7 0.0
0.0 0.0 0.0

6.111619761791852e6 2.34370073985892e7 0.0
2.34370073985892e7 1.7268839532417305e7 0.0
0.0 0.0 0.0

376566.3978215051 2.2242296534082454e7 0.0
2.2242296534082454e7 1.0411249694313217e7 0.0
0.0 0.0 0.0

-8.316372584820701e6 1.621786292192675e7 0.0
1.621786292192675e7 2.5572260719656214e7 0.0
0.0 0.0 0.0

8.435562535102855e6 5.890068994304642e6 0.0
5.890068994304642e6 -1.5371054947065762e6 0.0
0.0 0.0 0.0

-2.2898406215151236e6 2.4169171402812514e7 0.0
2.4169171402812514e7 1.1369622052298369e7 0.0
0.0 0.0 0.0

341385.6154530538 3.3644397435550556e7 0.0
3.3644397435550556e7 -821709.2058377615 0.0
0.0 0.0 0.0

-2.6043739775957074e6 1.7214985490065925e7 0.0
1.7214985490065925e7 -3.8986380879189305e7 0.0
0.0 0.0 0.0

1.2781730559285186e7 2.5454618552811243e7 0.0
2.5454618552811243e7 1.2529401335454555e7 0.0
0.0 0.0 0.0

1.9542366128480352e7 2.4828084351308033e7 0.0
2.4828084351308033e7 1.2572694815078352e7 0.0
0.0 0.0 0.0

-2.943868097698953e7 5.392247790587678e7 0.0
5.392247790587678e7 7.124365194227053e6 0.0
0.0 0.0 0.0

2.554896842994306e6 2.24796240864717e7 0.0
2.24796240864717e7 1.0772174961706847e7 0.0
0.0 0.0 0.0

-1.0205379945460783e7 1.0652425881131526e7 0.0
1.0652425881131526e7 1.5667319883439679e7 0.0
0.0 0.0 0.0

-9.67891507490822e6 1.4331342610241631e7 0.0
1.4331342610241631e7 3.0433678220662706e7 0.0
0.0 0.0 0.0

-49541.921646103845 3.278466789607863e7 0.0
3.278466789607863e7 -1.981501786611948e6 0.0
0.0 0.0 0.0

8.875362951881066e6 2.290218497172401e7 0.0
2.290218497172401e7 1.6514421574075691e7 0.0
0.0 0.0 0.0

-5.952700241398726e6 5.162756579322491e6 0.0
5.162756579322491e6 7.055235953295684e7 0.0
0.0 0.0 0.0

1.0513716887260163e6 2.143730808771361e7 0.0
2.143730808771361e7 1.9165287991536796e7 0.0
0.0 0.0 0.0

-1.2142523898534203e7 1.946349413745697e7 0.0
1.946349413745697e7 -4.33927949230553e7 0.0
0.0 0.0 0.0

6.263925343893268e6 2.4695778651810586e7 0.0
2.4695778651810586e7 1.5341244367071128e7 0.0
0.0 0.0 0.0

-3.1737011302359216e6 2.0454083867299467e7 0.0
2.0454083867299467e7 2.9307998188833214e7 0.0
0.0 0.0 0.0

-482367.82309510326 1.8065110013489973e7 0.0
1.8065110013489973e7 -1.3803178811643282e7 0.0
0.0 0.0 0.0

7.695368186276652e6 2.0529237225120857e7 0.0
2.0529237225120857e7 8.588103739538065e7 0.0
0.0 0.0 0.0

1.0351046876847042e7 2.921959283076171e7 0.0
2.921959283076171e7 -5.3728964698181115e6 0.0
0.0 0.0 0.0

266195.17302798666 2.0188764316486545e7 0.0
2.0188764316486545e7 -2.1013451447481807e7 0.0
0.0 0.0 0.0

-562074.1928480898 1.4725532875486145e7 0.0
1.4725532875486145e7 -6.375577358943364e6 0.0
0.0 0.0 0.0

2.106264898207037e6 3.0092260282356557e6 0.0
3.0092260282356557e6 -4.895786434531504e7 0.0
0.0 0.0 0.0

4.376832434088536e6 4.3088509587811604e7 0.0
4.3088509587811604e7 -520466.8037227867 0.0
0.0 0.0 0.0

-9.105788573250026e6 1.5097881878804196e7 0.0
1.5097881878804196e7 3.1230200551259622e7 0.0
0.0 0.0 0.0

4.680874365126115e6 1.9766285865583863e7 0.0
1.9766285865583863e7 2.3908661901159666e7 0.0
0.0 0.0 0.0

-1.0510010508544438e7 2.9216475970976885e7 0.0
2.9216475970976885e7 5.785093463626865e6 0.0
0.0 0.0 0.0

-2.0471347730464663e6 2.430057269515419e7 0.0
2.430057269515419e7 2.4431520415897174e6 0.0
0.0 0.0 0.0

-7.362781752454445e6 1.855947312444933e7 0.0
1.855947312444933e7 2.6060423102060493e7 0.0
0.0 0.0 0.0

1.4775120573720802e6 1.1724801134691654e7 0.0
1.1724801134691654e7 -2.5846478227767438e7 0.0
0.0 0.0 0.0

-1.452966000432671e7 4.606914274551821e7 0.0
4.606914274551821e7 6.536314228978377e6 0.0
0.0 0.0 0.0

2.7749326356531885e7 1.3651136879146045e7 0.0
1.3651136879146045e7 1.0492358310933635e6 0.0
0.0 0.0 0.0

-1.0400071949107636e7 748502.2040967526 0.0
748502.2040967526 2.2759160866639435e7 0.0
0.0 0.0 0.0

-7.782096430060122e6 3.3840260731069736e7 0.0
3.3840260731069736e7 5.663568909999952e6 0.0
0.0 0.0 0.0

-3.1621814713326354e7 2.5373629926750727e7 0.0
2.5373629926750727e7 2.8963757407065406e6 0.0
0.0 0.0 0.0

-4.644863398779886e6 2.4083600356903277e7 0.0
2.4083600356903277e7 -1.2401041465907462e7 0.0
0.0 0.0 0.0

-6.17641634178805e7 3.758182787046816e7 0.0
3.758182787046816e7 -4.586874678890241e6 0.0
0.0 0.0 0.0

-5.333465855253971e6 2.4377601907114375e7 0.0
2.4377601907114375e7 -7.255679356097565e6 0.0
0.0 0.0 0.0

-4.0734843613800686e6 2.0821296699955665e7 0.0
2.0821296699955665e7 2.0021337016457353e7 0.0
0.0 0.0 0.0

-9.002466841848604e6 1.5313406128194882e7 0.0
1.5313406128194882e7 2.6844794867952704e7 0.0
0.0 0.0 0.0

-6.233672996754379e6 1.8518129878776755e7 0.0
1.8518129878776755e7 1.8680180907415487e7 0.0
0.0 0.0 0.0

-4.571858073178892e6 2.659370356648949e7 0.0
2.659370356648949e7 1.2571472714330152e7 0.0
0.0 0.0 0.0

-7.281333209414739e6 2.3328953175366437e6 0.0
2.3328953175366437e6 5.004481287743158e7 0.0
0.0 0.0 0.0

-483694.46620654024 2.054305806114211e7 0.0
2.054305806114211e7 -1.2776294437558474e6 0.0
0.0 0.0 0.0

1.355578061005434e6 1.329327716679615e7 0.0
1.329327716679615e7 -1.5813977815756494e7 0.0
0.0 0.0 0.0

811198.330841992 1.8280571603836972e7 0.0
1.8280571603836972e7 -2.1912816299425967e7 0.0
0.0 0.0 0.0

-8.1641897763302475e6 -1.4617468575983457e6 0.0
-1.4617468575983457e6 3.414589930554571e7 0.0
0.0 0.0 0.0

-1.298879514405495e6 2.098364634403123e7 0.0
2.098364634403123e7 728197.4573657665 0.0
0.0 0.0 0.0

-8.760951714490656e6 2.942888314011994e7 0.0
2.942888314011994e7 6.969863348696827e6 0.0
0.0 0.0 0.0

3.2413169779806063e6 2.1224764340348735e7 0.0
2.1224764340348735e7 3.167846254355586e7 0.0
0.0 0.0 0.0

644281.3662644671 2.217902152011646e7 0.0
2.217902152011646e7 -1.4941320680253604e7 0.0
0.0 0.0 0.0

639917.2630004147 2.12102580661706e7 0.0
2.12102580661706e7 5.502338584100779e6 0.0
0.0 0.0 0.0

2.7504323725427743e6 3.987614855196305e7 0.0
3.987614855196305e7 -2.7849161117231306e6 0.0
0.0 0.0 0.0

2.149456571867872e6 2.3489439225308236e7 0.0
2.3489439225308236e7 -1.1782850995495455e7 0.0
0.0 0.0 0.0

1.1773337219517383e8 4.193994326951623e7 0.0
4.193994326951623e7 3.0681672580627054e6 0.0
0.0 0.0 0.0

5.353418905154737e6 2.3412079683080144e7 0.0
2.3412079683080144e7 -3.146499926656843e6 0.0
0.0 0.0 0.0

-2.8181772563123144e6 2.0262431907338485e7 0.0
2.0262431907338485e7 -2.522817457582032e7 0.0
0.0 0.0 0.0

3.5679138428482395e6 2.5599425668359015e7 0.0
2.5599425668359015e7 -9.878945918549161e6 0.0
0.0 0.0 0.0

-3.245451298466927e7 3.2062474408822756e7 0.0
3.2062474408822756e7 -6.237899004086668e6 0.0
0.0 0.0 0.0

-6.243976887772104e6 2.8318377848281976e7 0.0
2.8318377848281976e7 8.793574717399271e6 0.0
0.0 0.0 0.0

1.980220183455762e7 2.481293950417143e7 0.0
2.481293950417143e7 6.938776105153363e6 0.0
0.0 0.0 0.0

-4.145657834806742e6 1.6574176220802208e7 0.0
1.6574176220802208e7 -4.7419403896576725e7 0.0
0.0 0.0 0.0

7.516782181320669e6 2.0091358558003124e7 0.0
2.0091358558003124e7 4.109325598705278e7 0.0
0.0 0.0 0.0

3.0544403746685535e6 5.40785088378538e6 0.0
5.40785088378538e6 -3.0051359317071248e7 0.0
0.0 0.0 0.0

3.761852397240921e6 2.6620429612820845e7 0.0
2.6620429612820845e7 -9.33786486173976e6 0.0
0.0 0.0 0.0

983399.5221349038 4.471775219013563e6 0.0
4.471775219013563e6 -5.725989774979735e7 0.0
0.0 0.0 0.0

1.9440391491863853e6 2.587780652762127e7 0.0
2.587780652762127e7 -1.1149403217382217e7 0.0
0.0 0.0 0.0

8.670394529303215e6 3.089446547609496e7 0.0
3.089446547609496e7 -6.062110975282066e6 0.0
0.0 0.0 0.0

-1.778334941730576e6 2.406720346879224e7 0.0
2.406720346879224e7 1.867247879630479e6 0.0
0.0 0.0 0.0

-1.5506161816046821e7 3.640266423599001e7 0.0
3.640266423599001e7 5.30491201301733e6 0.0
0.0 0.0 0.0

-3.4776302960070316e6 2.0636668793520186e7 0.0
2.0636668793520186e7 2.9491433026444167e7 0.0
0.0 0.0 0.0

1.9384728153406614e6 2.1153477836993787e7 0.0
2.1153477836993787e7 1.1832548435756912e7 0.0
0.0 0.0 0.0

-4.22553842612724e7 4.072782375434173e7 0.0
4.072782375434173e7 7.172740337029116e6 0.0
0.0 0.0 0.0

1.937949044515229e7 2.502037555724849e7 0.0
2.502037555724849e7 1.350266665640857e7 0.0
0.0 0.0 0.0

-5.878442275477849e6 1.3902821109208869e7 0.0
1.3902821109208869e7 9.958453317416845e6 0.0
0.0 0.0 0.0

-6.296406255600127e6 3.3215738340996683e7 0.0
3.3215738340996683e7 5.474619041381162e6 0.0
0.0 0.0 0.0

-6.257547805151489e6 2.4883666957843103e7 0.0
2.4883666957843103e7 -9.700834858900191e6 0.0
0.0 0.0 0.0

951954.0927593997 1.633434953788267e7 0.0
1.633434953788267e7 -1.6020252025294963e7 0.0
0.0 0.0 0.0

2.484580741041584e6 1.3521802825994163e6 0.0
1.3521802825994163e6 -4.105950658999271e7 0.0
0.0 0.0 0.0

-2.4001245327034825e6 1.988769444050851e7 0.0
1.988769444050851e7 -1.0896708824111888e7 0.0
0.0 0.0 0.0

5.6786683816785984e7 7.152410067812425e6 0.0
7.152410067812425e6 -813890.2873837687 0.0
0.0 0.0 0.0

-3.0782924243303463e6 2.014243023321214e7 0.0
2.014243023321214e7 3.101398039529723e7 0.0
0.0 0.0 0.0

-8.39449055846747e6 3.2374609088590536e7 0.0
3.2374609088590536e7 6.471312990826666e6 0.0
0.0 0.0 0.0

-7.257992506728115e6 -1.599700751326188e6 0.0
-1.599700751326188e6 4.5390702623683676e7 0.0
0.0 0.0 0.0

-2.554493355550619e6 3.92641878906823e7 0.0
3.92641878906823e7 608630.2307602253 0.0
0.0 0.0 0.0

-2.4846282183432788e7 2.8008554790033262e7 0.0
2.8008554790033262e7 -4.243754998448513e6 0.0
0.0 0.0 0.0

437748.3021703623 2.080907401065101e7 0.0
2.080907401065101e7 -1.961342138281103e7 0.0
0.0 0.0 0.0

5.9719206768119605e6 2.0996453513988804e7 0.0
2.0996453513988804e7 2.8467820789670754e7 0.0
0.0 0.0 0.0

336938.48226413317 2.2197261073655196e7 0.0
2.2197261073655196e7 5.254660338649717e6 0.0
0.0 0.0 0.0

-2.491189830759584e6 2.4921816752394214e7 0.0
2.4921816752394214e7 1.0153977698324468e7 0.0
0.0 0.0 0.0

308804.0568970265 1.5580277631952498e7 0.0
1.5580277631952498e7 -1.7064386897867944e7 0.0
0.0 0.0 0.0

2.2569682045764066e6 1.118236643297278e7 0.0
1.118236643297278e7 -2.4917677380311895e7 0.0
0.0 0.0 0.0

-1.094819534922643e6 1.0299543793566737e7 0.0
1.0299543793566737e7 -6.340170624002241e6 0.0
0.0 0.0 0.0

-5.585569419311968e6 3.2580270173769977e7 0.0
3.2580270173769977e7 5.418758319199348e6 0.0
0.0 0.0 0.0

-796940.6657265015 1.9826481386174276e7 0.0
1.9826481386174276e7 -1.1937375513256777e7 0.0
0.0 0.0 0.0

2.2868970833856296e7 1.334250713552616e7 0.0
1.334250713552616e7 831501.4882152835 0.0
0.0 0.0 0.0

2.4541052134876344e6 1.510829192725406e6 0.0
1.510829192725406e6 -4.158154967252954e7 0.0
0.0 0.0 0.0

4.601650754714322e6 2.0086309811386302e7 0.0
2.0086309811386302e7 2.9932509666402765e7 0.0
0.0 0.0 0.0

-121817.48305312917 9.933981013398217e6 0.0
9.933981013398217e6 -8.97842893802905e6 0.0
0.0 0.0 0.0

4.0005508325152434e6 3.2507120683255583e7 0.0
3.2507120683255583e7 -4.482458147425048e6 0.0
0.0 0.0 0.0

697730.8531437274 2.200619333818323e7 0.0
2.200619333818323e7 1.348683117935539e7 0.0
0.0 0.0 0.0

-8.128102063940957e6 9.097928169183984e6 0.0
9.097928169183984e6 4.49105265680806e7 0.0
0.0 0.0 0.0

-8.411047835835595e6 1.0782459500092668e6 0.0
1.0782459500092668e6 1.6033391985214515e7 0.0
0.0 0.0 0.0

9.291460774131328e6 3.0759223036709953e7 0.0
3.0759223036709953e7 -5.884695025677649e6 0.0
0.0 0.0 0.0

-5.990693965017924e7 1.9040955679603644e7 0.0
1.9040955679603644e7 6.024366765699916e6 0.0
0.0 0.0 0.0

-77760.52154356241 1.9136016250969645e7 0.0
1.9136016250969645e7 -2.4245339371616054e7 0.0
0.0 0.0 0.0

6.875449062988039e6 1.4061157077015165e7 0.0
1.4061157077015165e7 3.7668811794880023e6 0.0
0.0 0.0 0.0

-4.0490970458607757e6 2.04487467708245e7 0.0
2.04487467708245e7 1.9370300399084855e7 0.0
0.0 0.0 0.0

-6.491142119415867e7 1.835586937739387e7 0.0
1.835586937739387e7 4.593644625545207e6 0.0
0.0 0.0 0.0

-2.918688830413364e6 1.948038353707173e7 0.0
1.948038353707173e7 -2.6465624252023377e7 0.0
0.0 0.0 0.0

1.9304810855365563e6 2.497844832988012e7 0.0
2.497844832988012e7 -1.2024345687262138e7 0.0
0.0 0.0 0.0

1.1962770989708025e6 5.75768471251525e6 0.0
5.75768471251525e6 -4.239552456368097e6 0.0
0.0 0.0 0.0

-1.311976906688543e7 2.6815785688834116e7 0.0
2.6815785688834116e7 -9.582000926013535e6 0.0
0.0 0.0 0.0

9.169760093024094e6 3.602270122083567e7 0.0
3.602270122083567e7 -5.203446607132105e6 0.0
0.0 0.0 0.0

-1.8544689043939495e6 3.569467204014213e7 0.0
3.569467204014213e7 330276.0323990175 0.0
0.0 0.0 0.0

-2.779576837396112e6 2.4640233783657413e7 0.0
2.4640233783657413e7 5.778756233207495e6 0.0
0.0 0.0 0.0

-6.96531024666409e6 1.7368546337225836e7 0.0
1.7368546337225836e7 3.293195684809649e7 0.0
0.0 0.0 0.0

-3.38644446269169e6 2.4617601055044826e7 0.0
2.4617601055044826e7 1.6366792769424401e7 0.0
0.0 0.0 0.0

-2.3712772142657186e6 3.816906484071602e7 0.0
3.816906484071602e7 509016.91782873997 0.0
0.0 0.0 0.0

728167.3012321787 1.3092969554001791e7 0.0
1.3092969554001791e7 -1.795366624569598e7 0.0
0.0 0.0 0.0

-2.3311170851924606e6 3.7380377808065996e7 0.0
3.7380377808065996e7 372254.6670139157 0.0
0.0 0.0 0.0

6.875805364592246e6 2.3693191766323835e7 0.0
2.3693191766323835e7 1.5264726636615891e7 0.0
0.0 0.0 0.0

-8.723971524190988e6 1.5214420678233739e7 0.0
1.5214420678233739e7 3.1690933460528623e7 0.0
0.0 0.0 0.0

1.9614985181333479e6 3.0212613230149965e6 0.0
3.0212613230149965e6 -4.2992360960467175e7 0.0
0.0 0.0 0.0

-1.0459115906870788e7 2.8990162452263284e7 0.0
2.8990162452263284e7 6.24165319465552e6 0.0
0.0 0.0 0.0

-223202.9050571462 2.916449073466757e7 0.0
2.916449073466757e7 -4.672584306620876e6 0.0
0.0 0.0 0.0

1.3438174585702997e6 2.8980364997635044e7 0.0
2.8980364997635044e7 -5.590123984253706e6 0.0
0.0 0.0 0.0

-8.153240019542451e7 4.731299181743594e7 0.0
4.731299181743594e7 -3.980853441580905e7 0.0
0.0 0.0 0.0

853134.8170773424 2.1638667921494726e7 0.0
2.1638667921494726e7 -1.826102510213511e7 0.0
0.0 0.0 0.0

208016.92041664844 3.2162872771771897e7 0.0
3.2162872771771897e7 -990097.1007664362 0.0
0.0 0.0 0.0

-4.519139919026486e6 2.1624874668926764e7 0.0
2.1624874668926764e7 1.86171173514694e7 0.0
0.0 0.0 0.0

-3.553570478382739e7 2.7298166127178706e7 0.0
2.7298166127178706e7 3.3902222500350326e6 0.0
0.0 0.0 0.0

1.142998519668321e6 2.1186888840399746e7 0.0
2.1186888840399746e7 616952.449977839 0.0
0.0 0.0 0.0

4.918061400183131e6 2.12469533189132e7 0.0
2.12469533189132e7 1.7478804830797497e7 0.0
0.0 0.0 0.0

1.862371978359811e6 1.1547322665563577e6 0.0
1.1547322665563577e6 -5.266276274603054e7 0.0
0.0 0.0 0.0

-2.2032667357990745e7 4.2823531473103166e7 0.0
4.2823531473103166e7 7.996831278396354e6 0.0
0.0 0.0 0.0

-7.201554028414955e6 84749.53303295045 0.0
84749.53303295045 4.651449783177773e7 0.0
0.0 0.0 0.0

-6.993243927613772e6 1.4208189128449608e6 0.0
1.4208189128449608e6 5.417590388071465e7 0.0
0.0 0.0 0.0

-7.585326854839754e6 -1.0792793405442694e6 0.0
-1.0792793405442694e6 1.4911628420755304e7 0.0
0.0 0.0 0.0

-7.411872981180817e6 1.563141671093705e7 0.0
1.563141671093705e7 3.672832628385668e7 0.0
0.0 0.0 0.0

4.885295711449961e6 1.906829540776578e7 0.0
1.906829540776578e7 1.221486274811588e7 0.0
0.0 0.0 0.0

-463556.6885710675 1.8215349080934342e7 0.0
1.8215349080934342e7 -2.800241623005966e7 0.0
0.0 0.0 0.0

-4.3378822919647105e7 5.465815941195562e7 0.0
5.465815941195562e7 1.0198046221513595e7 0.0
0.0 0.0 0.0

-8.186571958345821e6 1.582132135464308e7 0.0
1.582132135464308e7 3.2307024622842226e7 0.0
0.0 0.0 0.0

-4.438242306970354e6 1.608766636856536e7 0.0
1.608766636856536e7 -4.981751458137299e7 0.0
0.0 0.0 0.0

-2.3726501664892852e7 2.757964195020237e7 0.0
2.757964195020237e7 -3.8513680819053473e6 0.0
0.0 0.0 0.0

-6.5130891178718135e6 1.0494559350701089e6 0.0
1.0494559350701089e6 5.551683638186492e7 0.0
0.0 0.0 0.0

392445.75926512387 2.0365588329954483e7 0.0
2.0365588329954483e7 -1.766186114222638e7 0.0
0.0 0.0 0.0

-9.778437884546876e6 1.928254396654113e7 0.0
1.928254396654113e7 -5.634724155252241e7 0.0
0.0 0.0 0.0

-4.0844815415170114e6 2.332025870676276e7 0.0
2.332025870676276e7 -8.810401379103534e6 0.0
0.0 0.0 0.0

-2.0512826158657078e7 2.544829001240543e7 0.0
2.544829001240543e7 -3.213444771640432e6 0.0
0.0 0.0 0.0

5.792565831660933e7 3.1072043263761606e7 0.0
3.1072043263761606e7 1.264579614768157e7 0.0
0.0 0.0 0.0

-1.8855969102189983e6 1.7794897590544675e7 0.0
1.7794897590544675e7 -4.247219761531185e6 0.0
0.0 0.0 0.0

1.1436200626270315e6 1.88262894654854e7 0.0
1.88262894654854e7 -2.0100175834408894e7 0.0
0.0 0.0 0.0

-3.566434690644171e6 1.935880657206484e7 0.0
1.935880657206484e7 -1.6101457912247403e7 0.0
0.0 0.0 0.0

1.9690957405358441e6 1.357901369113604e6 0.0
1.357901369113604e6 -5.3174284654134e7 0.0
0.0 0.0 0.0

2.0901610734693047e6 3.1267917310220722e7 0.0
3.1267917310220722e7 -4.0930443977376847e6 0.0
0.0 0.0 0.0

-4.23553466681257e6 1.8857715406246457e7 0.0
1.8857715406246457e7 -2.919112787194645e7 0.0
0.0 0.0 0.0

1.6696040576000465e6 2.3860932037872043e7 0.0
2.3860932037872043e7 -1.2366973688227203e7 0.0
0.0 0.0 0.0

-321979.0667577728 2.203146882107251e7 0.0
2.203146882107251e7 2.2101359288088065e6 0.0
0.0 0.0 0.0

-5.03108846430171e6 1.3657363095890813e7 0.0
1.3657363095890813e7 1.3116280139148278e7 0.0
0.0 0.0 0.0

-2.858478485612133e6 2.459412284004607e7 0.0
2.459412284004607e7 9.648877041975215e6 0.0
0.0 0.0 0.0

874083.6841504406 2.061197626893826e7 0.0
2.061197626893826e7 3.2544692636106614e7 0.0
0.0 0.0 0.0

2.948813681319615e6 1.775633179966725e6 0.0
1.775633179966725e6 -3.41167415913473e7 0.0
0.0 0.0 0.0

-1.6219876783967607e7 1.6393282744603133e7 0.0
1.6393282744603133e7 1.4414232813670244e6 0.0
0.0 0.0 0.0

7.992570518454045e6 2.5368919360742856e7 0.0
2.5368919360742856e7 1.4690987542879267e7 0.0
0.0 0.0 0.0

-1.8929794199238624e6 2.0473360552572526e7 0.0
2.0473360552572526e7 -1.9407979412779447e7 0.0
0.0 0.0 0.0

8.872178343296868e7 1.2493746872939335e7 0.0
1.2493746872939335e7 86265.33109798282 0.0
0.0 0.0 0.0

118707.98133481294 1.9246995006071784e7 0.0
1.9246995006071784e7 -2.436918806868201e7 0.0
0.0 0.0 0.0

1.0984916948927348e6 3.0002159534088522e7 0.0
3.0002159534088522e7 -5.725350375999867e6 0.0
0.0 0.0 0.0

-2.2345780239340593e6 2.615207058729553e7 0.0
2.615207058729553e7 -21152.159469131613 0.0
0.0 0.0 0.0

9.692745585052485e6 2.061141563013138e7 0.0
2.061141563013138e7 7.148858069810593e7 0.0
0.0 0.0 0.0

-7.620793260219481e6 1.4466063962067317e7 0.0
1.4466063962067317e7 3.863693076688312e7 0.0
0.0 0.0 0.0

-7.186413461700993e6 -2.094738781097223e6 0.0
-2.094738781097223e6 4.4909242780175954e7 0.0
0.0 0.0 0.0

-8.335065545755528e6 7.497240365894929e6 0.0
7.497240365894929e6 4.669558030722453e7 0.0
0.0 0.0 0.0

-2.525915978531079e6 3.449986734348396e7 0.0
3.449986734348396e7 1.0302898454264703e6 0.0
0.0 0.0 0.0

1.5071438575647473e6 1.2803317649255523e7 0.0
1.2803317649255523e7 -2.7068014858165752e7 0.0
0.0 0.0 0.0

-3.0751371103437888e6 2.5953945148190513e7 0.0
2.5953945148190513e7 1.227455409563152e7 0.0
0.0 0.0 0.0

992270.693301022 2.2245449879706584e7 0.0
2.2245449879706584e7 -1.6929141822877266e7 0.0
0.0 0.0 0.0

-5.335033412109197e6 1.964066072862458e7 0.0
1.964066072862458e7 1.7849600994479243e7 0.0
0.0 0.0 0.0

-5.508753764654888e6 2.8770284126546483e7 0.0
2.8770284126546483e7 9.225262861081295e6 0.0
0.0 0.0 0.0

1.218553834528776e7 2.867256183725769e7 0.0
2.867256183725769e7 -4.657359997225915e6 0.0
0.0 0.0 0.0

-3.471315656042083e6 2.388203141056223e7 0.0
2.388203141056223e7 1.813334675073192e7 0.0
0.0 0.0 0.0

-2.9356671924318774e6 2.5035171323717404e7 0.0
2.5035171323717404e7 1.3960687894943232e7 0.0
0.0 0.0 0.0

-4.666445705049432e6 2.0368819589252185e7 0.0
2.0368819589252185e7 -1.757466359304533e7 0.0
0.0 0.0 0.0

-8.81841663085779e6 1.5945449565239316e7 0.0
1.5945449565239316e7 2.9892661214433424e7 0.0
0.0 0.0 0.0

-2.1139114060643236e6 3.4404972231015146e7 0.0
3.4404972231015146e7 2.3743055281448793e6 0.0
0.0 0.0 0.0

2.4666558918671645e6 4.740624801047044e6 0.0
4.740624801047044e6 -3.194909530093502e7 0.0
0.0 0.0 0.0

-5.584006164267447e6 3.6324507350974237e6 0.0
3.6324507350974237e6 6.922346179222408e7 0.0
0.0 0.0 0.0

-2.2661847643707907e6 2.2574144963195525e7 0.0
2.2574144963195525e7 -1.0313130733902756e7 0.0
0.0 0.0 0.0

-2.6257463668038687e6 3.5285114797187395e7 0.0
3.5285114797187395e7 1.1137447862612978e6 0.0
0.0 0.0 0.0

871709.8911410309 1.515906236077206e7 0.0
1.515906236077206e7 -3.0830502223965205e7 0.0
0.0 0.0 0.0

1.2208283211097037e6 3.157351158421945e7 0.0
3.157351158421945e7 -4.560528636247574e6 0.0
0.0 0.0 0.0

1.6241781530387271e6 1.0918826037315724e7 0.0
1.0918826037315724e7 -2.7152840845662456e7 0.0
0.0 0.0 0.0

-8.89078276878376e6 1.4174055595058281e7 0.0
1.4174055595058281e7 3.332592296885138e7 0.0
0.0 0.0 0.0

-6.6688431181877464e7 5.066805820334529e7 0.0
5.066805820334529e7 1.032552985360299e7 0.0
0.0 0.0 0.0

-1.6608148569307512e7 2.8112380780100435e7 0.0
2.8112380780100435e7 -1.0975337142670983e6 0.0
0.0 0.0 0.0

-3.575331435555555e6 2.593834203049279e7 0.0
2.593834203049279e7 1.33166344196849e7 0.0
0.0 0.0 0.0

-8.502404028877638e6 -4.500589402905452e6 0.0
-4.500589402905452e6 2.2573445003883194e7 0.0
0.0 0.0 0.0

-1.9762818242356114e7 2.663361832811707e7 0.0
2.663361832811707e7 -3.3897395577034787e6 0.0
0.0 0.0 0.0

-7.503597713508884e6 2.9402134123128153e7 0.0
2.9402134123128153e7 7.816693023995558e6 0.0
0.0 0.0 0.0

2.2413949664901383e6 2.8565170812143167e6 0.0
2.8565170812143167e6 -4.4091884808460966e7 0.0
0.0 0.0 0.0

-5.585895538540019e6 1.8232038890760507e7 0.0
1.8232038890760507e7 2.1110572051094595e7 0.0
0.0 0.0 0.0

-8.110920872291805e6 1.673564338634843e7 0.0
1.673564338634843e7 2.6286384652929816e7 0.0
0.0 0.0 0.0

6.140446772840432e6 4.048519180485868e7 0.0
4.048519180485868e7 -2.0256465357632735e6 0.0
0.0 0.0 0.0

-1.0931621675249822e7 3.5635660820263033e6 0.0
3.5635660820263033e6 2.4469752108154323e7 0.0
0.0 0.0 0.0

-8.244565901948482e6 1.6860440292726375e7 0.0
1.6860440292726375e7 3.0832091335663743e7 0.0
0.0 0.0 0.0

-488621.89529145125 3.6113764123018876e7 0.0
3.6113764123018876e7 947318.8942929904 0.0
0.0 0.0 0.0

-6.531334113842651e6 1.4052528335289487e6 0.0
1.4052528335289487e6 5.763179270264932e7 0.0
0.0 0.0 0.0

-8.57543659440231e6 -2.3299116766702207e6 0.0
-2.3299116766702207e6 2.459167463125186e7 0.0
0.0 0.0 0.0

2.265650404445853e6 7.819874884264382e6 0.0
7.819874884264382e6 -3.0190350631794903e7 0.0
0.0 0.0 0.0

-2.7196279818317187e6 2.5002475298011348e7 0.0
2.5002475298011348e7 1.0824412648536691e7 0.0
0.0 0.0 0.0

-7.316640437400399e6 1.6408162814268418e7 0.0
1.6408162814268418e7 3.441989401056152e7 0.0
0.0 0.0 0.0

550516.198336592 2.1570760792942636e7 0.0
2.1570760792942636e7 -1.6647581773974715e7 0.0
0.0 0.0 0.0

1.1078062535575368e6 2.0518677857688066e7 0.0
2.0518677857688066e7 -1.763531580566402e7 0.0
0.0 0.0 0.0

1.478603806538025e6 1.2458371707043396e7 0.0
1.2458371707043396e7 -2.9016844549923886e7 0.0
0.0 0.0 0.0

-212766.04217585362 1.867890765668309e7 0.0
1.867890765668309e7 -2.615024299100728e7 0.0
0.0 0.0 0.0

1.5414826389656265e6 2.1990561975669786e7 0.0
2.1990561975669786e7 9.260083959195824e6 0.0
0.0 0.0 0.0

-7.156766892959332e6 1.7508492324443977e7 0.0
1.7508492324443977e7 3.257222240745759e7 0.0
0.0 0.0 0.0

1.4286615086525567e6 3.0672141006273713e7 0.0
3.0672141006273713e7 -5.543900653548502e6 0.0
0.0 0.0 0.0

-6.059339608861124e6 3.2269059000644613e7 0.0
3.2269059000644613e7 6.182778682012706e6 0.0
0.0 0.0 0.0

-1.3508308930218525e6 3.491630011510446e7 0.0
3.491630011510446e7 1.6795556922791314e6 0.0
0.0 0.0 0.0

1.8161367721412823e7 2.590791238070273e7 0.0
2.590791238070273e7 8.374342530372551e7 0.0
0.0 0.0 0.0

-2.214186523372041e6 2.5488628310252175e7 0.0
2.5488628310252175e7 9.134979208710706e6 0.0
0.0 0.0 0.0

1.1112150766975246e6 1.948594990410717e7 0.0
1.948594990410717e7 -1.8689321257240918e7 0.0
0.0 0.0 0.0

-1.0271183343654135e6 1.96050290646862e7 0.0
1.96050290646862e7 -2.434375321306226e7 0.0
0.0 0.0 0.0

1.096698626703578e6 1.917774659327548e7 0.0
1.917774659327548e7 -2.049108301092504e7 0.0
0.0 0.0 0.0

2.22410313620295e6 3.434198454596582e7 0.0
3.434198454596582e7 -2.2989369686225606e6 0.0
0.0 0.0 0.0

-2.768750948072837e6 2.4243586948879637e7 0.0
2.4243586948879637e7 8.512211947660193e6 0.0
0.0 0.0 0.0

433038.9237744508 2.1101002715981394e7 0.0
2.1101002715981394e7 3.523099176500427e6 0.0
0.0 0.0 0.0

-1.1107492287139613e6 2.094521809696324e7 0.0
2.094521809696324e7 -1.8533727812297642e7 0.0
0.0 0.0 0.0

-6.045171657360445e6 1.4449163160304423e7 0.0
1.4449163160304423e7 1.1691949161007127e7 0.0
0.0 0.0 0.0

7.397902110285231e6 4.7424052843395226e7 0.0
4.7424052843395226e7 -5.25514838229788e6 0.0
0.0 0.0 0.0

1.0981748157497272e6 3.933544430611272e6 0.0
3.933544430611272e6 -6.319106477350455e7 0.0
0.0 0.0 0.0

1.2271081794432116e8 4.702664355300545e7 0.0
4.702664355300545e7 3.0972451807597514e7 0.0
0.0 0.0 0.0

5.417732557351466e7 4.835212606901557e7 0.0
4.835212606901557e7 -1.683766137926623e7 0.0
0.0 0.0 0.0

-125676.7696185913 2.1813507589669615e7 0.0
2.1813507589669615e7 2.130661040930748e7 0.0
0.0 0.0 0.0

2.4524066407847553e6 2.2371332477960214e7 0.0
2.2371332477960214e7 1.1904857239478076e7 0.0
0.0 0.0 0.0

-2.934437943634922e7 2.861040205441056e7 0.0
2.861040205441056e7 -1.494906000354954e6 0.0
0.0 0.0 0.0

-7.072535958465543e7 3.501981958852824e7 0.0
3.501981958852824e7 -3.0185144260451347e6 0.0
0.0 0.0 0.0

-6.551181996248216e6 1.4649215641460476e7 0.0
1.4649215641460476e7 1.7468764050785888e7 0.0
0.0 0.0 0.0

112655.0206140806 3.0003595274587233e7 0.0
3.0003595274587233e7 -2.1910360231885365e6 0.0
0.0 0.0 0.0

1.0955483839964112e6 1.8125475278970636e7 0.0
1.8125475278970636e7 -2.1483418281288628e7 0.0
0.0 0.0 0.0

897775.5006280877 8.2367112316638315e6 0.0
8.2367112316638315e6 -5.7164697805525914e7 0.0
0.0 0.0 0.0

599091.920991458 1.836980888948656e7 0.0
1.836980888948656e7 -2.1865303267624475e7 0.0
0.0 0.0 0.0

-3.5759518377869558e6 1.6231642644371009e7 0.0
1.6231642644371009e7 -4.403481521240131e7 0.0
0.0 0.0 0.0

-8.636087857866181e6 1.691025709647664e7 0.0
1.691025709647664e7 2.415512656704644e7 0.0
0.0 0.0 0.0

2.274467315902964e6 2.0545038459456258e7 0.0
2.0545038459456258e7 3.0630348753206942e7 0.0
0.0 0.0 0.0

1.1146289935314597e6 2.0518322930685505e7 0.0
2.0518322930685505e7 8.741906040909605e6 0.0
0.0 0.0 0.0

-1.206078902817626e7 9.884571229318455e6 0.0
9.884571229318455e6 4.982804738916952e6 0.0
0.0 0.0 0.0

-8.470424991731517e6 6.028209802282988e6 0.0
6.028209802282988e6 4.5969053036026426e7 0.0
0.0 0.0 0.0

-3.0479809430673243e6 2.9475570002640665e7 0.0
2.9475570002640665e7 6.790260843499801e6 0.0
0.0 0.0 0.0

1.2273006292339321e6 2.0960193272978704e7 0.0
2.0960193272978704e7 3.3027998328530423e7 0.0
0.0 0.0 0.0

-3.882229842090911e6 2.0027005620979294e7 0.0
2.0027005620979294e7 1.844072060035736e7 0.0
0.0 0.0 0.0

-8.081135397655087e6 2.3162078571266127e6 0.0
2.3162078571266127e6 9.236843010145472e6 0.0
0.0 0.0 0.0

-2.239929490073297e6 1.360880685490943e7 0.0
1.360880685490943e7 7.308542389189966e7 0.0
0.0 0.0 0.0

-1.893690263127932e6 2.3516830232723918e7 0.0
2.3516830232723918e7 2.829836809115571e6 0.0
0.0 0.0 0.0

1.5850761584839374e6 2.976665296918925e7 0.0
2.976665296918925e7 -6.542118328854991e6 0.0
0.0 0.0 0.0

1.3896708893999904e6 2.0338846463875975e7 0.0
2.0338846463875975e7 3.434674710177437e7 0.0
0.0 0.0 0.0

-5.371179256059668e6 1.4320663745527048e7 0.0
1.4320663745527048e7 1.4743936214798339e7 0.0
0.0 0.0 0.0

9.228889853011888e6 2.9581537954752237e7 0.0
2.9581537954752237e7 -5.909872886819871e6 0.0
0.0 0.0 0.0

-3.6066507590089515e6 5.571743486513428e6 0.0
5.571743486513428e6 7.823905385993573e7 0.0
0.0 0.0 0.0

9.063474307704674e6 2.71567756496796e7 0.0
2.71567756496796e7 -5.274325193478263e6 0.0
0.0 0.0 0.0

-2.2010520915571265e6 3.513370491381771e7 0.0
3.513370491381771e7 2.5223992472619913e6 0.0
0.0 0.0 0.0

-6.500731992152024e6 1.8341726888825357e7 0.0
1.8341726888825357e7 -2.6649145047591727e7 0.0
0.0 0.0 0.0

-3.1911939357291358e6 2.313169356703028e7 0.0
2.313169356703028e7 1.92829126287427e7 0.0
0.0 0.0 0.0

-8.425238289317686e6 1.45481797872886e7 0.0
1.45481797872886e7 3.554406657289565e7 0.0
0.0 0.0 0.0

5.534033855920967e6 3.378159572670203e7 0.0
3.378159572670203e7 -4.506318514527347e6 0.0
0.0 0.0 0.0

2.7387360573643763e6 5.688002050325941e6 0.0
5.688002050325941e6 -1.140115238735401e7 0.0
0.0 0.0 0.0

231519.14654195367 4.415636900200689e7 0.0
4.415636900200689e7 -1.7978205672901694e6 0.0
0.0 0.0 0.0

5.629281782625653e6 2.417007385439546e7 0.0
2.417007385439546e7 9.215716485109244e6 0.0
0.0 0.0 0.0

-266463.0798894116 2.7421036482038505e7 0.0
2.7421036482038505e7 -4.1047254572993396e6 0.0
0.0 0.0 0.0

1.7479667214828841e6 5.558954029521774e6 0.0
5.558954029521774e6 -4.3448099309403144e7 0.0
0.0 0.0 0.0

-3.1692444913365003e6 2.3427147554041643e7 0.0
2.3427147554041643e7 -1.1987368471699787e7 0.0
0.0 0.0 0.0

8.902143420676019e6 2.475653683111856e7 0.0
2.475653683111856e7 1.4382632959096918e7 0.0
0.0 0.0 0.0

-1.1949383947399245e6 3.2683832468951106e7 0.0
3.2683832468951106e7 1.4375191054679407e6 0.0
0.0 0.0 0.0

5.713317695975263e6 2.106154836306753e7 0.0
2.106154836306753e7 3.51422773034134e7 0.0
0.0 0.0 0.0

-5.46708540594803e6 952496.0630646681 0.0
952496.0630646681 1.1279865730015673e7 0.0
0.0 0.0 0.0

475591.592545351 1.9603190469896246e7 0.0
1.9603190469896246e7 4.045257289448793e7 0.0
0.0 0.0 0.0

-8.328542368280424e6 2.7091913718493413e7 0.0
2.7091913718493413e7 4.802496063323633e6 0.0
0.0 0.0 0.0

9.725933909717228e6 2.812151253565675e7 0.0
2.812151253565675e7 -5.271413274745597e6 0.0
0.0 0.0 0.0

4.2071005503748e6 2.6450088440199517e7 0.0
2.6450088440199517e7 -9.07004824954082e6 0.0
0.0 0.0 0.0

9.99052762344494e6 3.571439751567235e7 0.0
3.571439751567235e7 -5.129321902015556e6 0.0
0.0 0.0 0.0

970341.5175974742 1.9371754144268833e7 0.0
1.9371754144268833e7 6.493135978947034e6 0.0
0.0 0.0 0.0

-4.143344461714207e6 2.686383286877271e7 0.0
2.686383286877271e7 1.2085877864050515e7 0.0
0.0 0.0 0.0

5.502915708161433e6 3.692058311622022e7 0.0
3.692058311622022e7 -4.459428210426866e6 0.0
0.0 0.0 0.0

-9.871386553457564e6 1.8415328508360654e7 0.0
1.8415328508360654e7 -5.632897445660431e7 0.0
0.0 0.0 0.0

-8.626421747741371e6 1.2383057654440409e7 0.0
1.2383057654440409e7 1.5397097027062612e7 0.0
0.0 0.0 0.0

1.5967682377306286e6 2.148126693506896e7 0.0
2.148126693506896e7 1.053827368902038e7 0.0
0.0 0.0 0.0

5.738080786867915e6 3.478090047487123e7 0.0
3.478090047487123e7 -5.217481033177493e6 0.0
0.0 0.0 0.0

-1.551373297587065e6 2.144397974539943e7 0.0
2.144397974539943e7 -1.9206320598911233e7 0.0
0.0 0.0 0.0

3.108636000916032e6 3.282766891528263e6 0.0
3.282766891528263e6 -3.033153414885419e7 0.0
0.0 0.0 0.0

-5.251461714837734e6 408148.13249700615 0.0
408148.13249700615 7.267040325895101e7 0.0
0.0 0.0 0.0

461910.48701326177 1.5240853248301538e7 0.0
1.5240853248301538e7 -3.2955454258190658e7 0.0
0.0 0.0 0.0

3.2896920517734936e6 2.3176820116958488e7 0.0
2.3176820116958488e7 1.3290700133007944e7 0.0
0.0 0.0 0.0

-7.318729653009405e6 1.7536662928473487e7 0.0
1.7536662928473487e7 2.5097592045779984e7 0.0
0.0 0.0 0.0

1.093299021226882e7 2.7629351740160268e7 0.0
2.7629351740160268e7 -4.489098052635884e6 0.0
0.0 0.0 0.0

2.363842739536397e6 6.090187608089582e6 0.0
6.090187608089582e6 -2.5346793015407484e7 0.0
0.0 0.0 0.0

4.694260618763956e6 2.405484788949671e7 0.0
2.405484788949671e7 -2.2569675970027475e6 0.0
0.0 0.0 0.0

9.564198415185481e6 2.581836757286831e7 0.0
2.581836757286831e7 1.4213589020181678e7 0.0
0.0 0.0 0.0

1.4214324965578409e7 4.637245524234227e7 0.0
4.637245524234227e7 -7.693492581155642e6 0.0
0.0 0.0 0.0

3.9627433221084396e6 2.610195830183278e7 0.0
2.610195830183278e7 -9.129164102653468e6 0.0
0.0 0.0 0.0

4.288107694408335e6 1.9632625792264357e7 0.0
1.9632625792264357e7 5.394202383224952e7 0.0
0.0 0.0 0.0

2.7190701253623683e6 1.545299495317e6 0.0
1.545299495317e6 -3.938633989055583e7 0.0
0.0 0.0 0.0

1.5055049016342931e6 3.584668657240673e7 0.0
3.584668657240673e7 -2.68073239250458e6 0.0
0.0 0.0 0.0

6.830358751685378e6 2.2856720212816786e7 0.0
2.2856720212816786e7 5.285378596692394e6 0.0
0.0 0.0 0.0

-7.722314677067979e7 2.2422482142139286e7 0.0
2.2422482142139286e7 1.8961327390327565e6 0.0
0.0 0.0 0.0

-6.85124734953873e6 2.9242242272886682e7 0.0
2.9242242272886682e7 8.561439257102827e6 0.0
0.0 0.0 0.0

-7.933815261959393e6 1.1482578431192258e7 0.0
1.1482578431192258e7 1.6949781105584078e7 0.0
0.0 0.0 0.0

-542746.4331076331 1.869591649664006e7 0.0
1.869591649664006e7 -2.8188616293479387e7 0.0
0.0 0.0 0.0

-1.2920534344461123e6 2.2349127067534145e7 0.0
2.2349127067534145e7 1.792821534567439e7 0.0
0.0 0.0 0.0

-4.294515838291453e6 1.8427133089378573e7 0.0
1.8427133089378573e7 -3.863912385326946e7 0.0
0.0 0.0 0.0

2.276165057396192e6 2.626562971827373e6 0.0
2.626562971827373e6 -5.1618584406094655e7 0.0
0.0 0.0 0.0

6.684399558970503e7 2.2479494972829346e7 0.0
2.2479494972829346e7 5.440061431625368e6 0.0
0.0 0.0 0.0

-1.346637182323178e8 4.966754973020543e7 0.0
4.966754973020543e7 -2.8472053771179914e7 0.0
0.0 0.0 0.0

1.6822616245372817e7 2.350082762883474e7 0.0
2.350082762883474e7 8.922271302720234e6 0.0
0.0 0.0 0.0

1.4638657220121985e6 2.6818351183367006e7 0.0
2.6818351183367006e7 -9.754314059401322e6 0.0
0.0 0.0 0.0

-3.082882240546016e6 2.4321530844040755e7 0.0
2.4321530844040755e7 1.572991332154927e7 0.0
0.0 0.0 0.0

2.886819740624685e6 3.2712535803940655e6 0.0
3.2712535803940655e6 -2.967757078976448e7 0.0
0.0 0.0 0.0

-8.114754144596332e6 2.719953853539148e7 0.0
2.719953853539148e7 6.905679324465508e6 0.0
0.0 0.0 0.0

4.011285802191954e6 3.689618854536836e7 0.0
3.689618854536836e7 -2.1931798039672147e6 0.0
0.0 0.0 0.0

-4.216887596623548e6 1.9791510098195508e7 0.0
1.9791510098195508e7 -2.9421660273202464e7 0.0
0.0 0.0 0.0

-676135.637093887 2.7061934309490316e7 0.0
2.7061934309490316e7 -5.665768148663766e6 0.0
0.0 0.0 0.0

1.9329727150476752e6 5.724416179842678e6 0.0
5.724416179842678e6 -7.171677312054078e6 0.0
0.0 0.0 0.0

1.3217458906747166e7 2.541983433758281e7 0.0
2.541983433758281e7 1.4003754882246062e7 0.0
0.0 0.0 0.0

-1.3673025075696139e7 2.5833650038572595e7 0.0
2.5833650038572595e7 -2.861587081647425e6 0.0
0.0 0.0 0.0

969238.1087013474 2.178175466571503e7 0.0
2.178175466571503e7 -1.5043463745140402e7 0.0
0.0 0.0 0.0

-2.2224236615505754e6 2.778782892943738e7 0.0
2.778782892943738e7 1.2234541199100807e6 0.0
0.0 0.0 0.0

380276.4778137915 1.5399803654714031e7 0.0
1.5399803654714031e7 -3.1195928044071548e7 0.0
0.0 0.0 0.0

-6.48873242926237e6 1.5747085185096674e6 0.0
1.5747085185096674e6 5.9016966635362856e7 0.0
0.0 0.0 0.0

541820.1240502531 1.9012453079959776e7 0.0
1.9012453079959776e7 -2.0388437893163845e7 0.0
0.0 0.0 0.0

5.060867609167975e6 2.2847106086974327e7 0.0
2.2847106086974327e7 534790.0178872817 0.0
0.0 0.0 0.0

-1.7926536002516873e7 2.220893519515551e7 0.0
2.220893519515551e7 -7.200570814483415e7 0.0
0.0 0.0 0.0

2.801996509003943e6 6.957374699680481e6 0.0
6.957374699680481e6 -2.940554922471647e7 0.0
0.0 0.0 0.0

859757.8095515212 2.086488154982954e7 0.0
2.086488154982954e7 -1.9788372369162958e7 0.0
0.0 0.0 0.0

-5.106872608315488e6 2.832742653149175e7 0.0
2.832742653149175e7 9.978163358704107e6 0.0
0.0 0.0 0.0

-270882.68480967626 3.1965563190063745e7 0.0
3.1965563190063745e7 -2.443511813217838e6 0.0
0.0 0.0 0.0

-2.6834974512496684e6 2.5669667440042935e7 0.0
2.5669667440042935e7 1.192725004327438e7 0.0
0.0 0.0 0.0

7.364925265024943e6 2.3677945992365997e7 0.0
2.3677945992365997e7 1.0009600664336221e7 0.0
0.0 0.0 0.0

-9.680632400469796e7 2.9723238783900432e7 0.0
2.9723238783900432e7 -2.4495599685687535e6 0.0
0.0 0.0 0.0

-1.5731181636496726e6 803207.0605167777 0.0
803207.0605167777 1.1741895427649552e6 0.0
0.0 0.0 0.0

-1.6054305706734369e6 1.9688631595660765e7 0.0
1.9688631595660765e7 -2.1679379806713215e6 0.0
0.0 0.0 0.0

1.5780284009064907e7 2.3615297709212452e7 0.0
2.3615297709212452e7 4.570772599771467e6 0.0
0.0 0.0 0.0

-652676.2851435906 3.8724738222977534e7 0.0
3.8724738222977534e7 1.2415824799485765e6 0.0
0.0 0.0 0.0

-3.6812560328544844e6 1.6526263777526326e7 0.0
1.6526263777526326e7 -4.72918081815995e7 0.0
0.0 0.0 0.0

-3.589289313320089e6 2.344333915218744e7 0.0
2.344333915218744e7 -8.820078393819667e6 0.0
0.0 0.0 0.0

5.1303683387992475e6 2.7625240188918304e7 0.0
2.7625240188918304e7 -7.883275488857159e6 0.0
0.0 0.0 0.0

1.0386234256250681e6 1.7307782132881623e7 0.0
1.7307782132881623e7 -1.7550329749841377e7 0.0
0.0 0.0 0.0

4.97477109806047e6 2.673347216899955e7 0.0
2.673347216899955e7 -7.715468553622174e6 0.0
0.0 0.0 0.0

910529.3169522933 2.1794080556164496e7 0.0
2.1794080556164496e7 1.0966564671215104e7 0.0
0.0 0.0 0.0

523103.699339245 3.1621268421062727e7 0.0
3.1621268421062727e7 -1.88968911644588e6 0.0
0.0 0.0 0.0

2.2247940668301843e6 1.0381656847325474e7 0.0
1.0381656847325474e7 -2.8499763706603162e7 0.0
0.0 0.0 0.0

2.2042484418441486e6 2.834122798927113e6 0.0
2.834122798927113e6 -4.469198253115704e7 0.0
0.0 0.0 0.0

-1.458395215196862e6 972484.6126412741 0.0
972484.6126412741 -691467.8082946856 0.0
0.0 0.0 0.0

-1.0099781371469764e7 865450.1652268103 0.0
865450.1652268103 2.8761230552144195e6 0.0
0.0 0.0 0.0

4.402209405814828e6 2.327824104700152e7 0.0
2.327824104700152e7 1.6167527172587635e7 0.0
0.0 0.0 0.0

3.093479836177495e6 2.0231780393419318e7 0.0
2.0231780393419318e7 1.445880439962377e7 0.0
0.0 0.0 0.0

604966.871389817 2.155013172328558e7 0.0
2.155013172328558e7 1.0961289346849e7 0.0
0.0 0.0 0.0

2.5080034904950047e6 5.256166951843466e6 0.0
5.256166951843466e6 -1.8791954115580224e7 0.0
0.0 0.0 0.0

4.7620882490068935e6 2.5441075079418488e7 0.0
2.5441075079418488e7 -7.0909214055777015e6 0.0
0.0 0.0 0.0

2.207217085907807e6 4.333602512571413e6 0.0
4.333602512571413e6 -8.64387084507122e6 0.0
0.0 0.0 0.0

4.336384986474081e6 2.6803009409030702e7 0.0
2.6803009409030702e7 -8.54195692256213e6 0.0
0.0 0.0 0.0

-6.199955823187208e6 1.8053711042353045e7 0.0
1.8053711042353045e7 3.3289809025257163e7 0.0
0.0 0.0 0.0

2.1922816700044237e6 3.0389900236897103e7 0.0
3.0389900236897103e7 -5.1194616468508225e6 0.0
0.0 0.0 0.0

6.448821564854336e6 3.5649223923579104e7 0.0
3.5649223923579104e7 -3.667848472147476e6 0.0
0.0 0.0 0.0

2.1378752763407268e6 7.722548526872765e6 0.0
7.722548526872765e6 -3.0566363668010082e7 0.0
0.0 0.0 0.0

2.2128768538879137e6 6.211625336391199e6 0.0
6.211625336391199e6 -3.130129221476354e7 0.0
0.0 0.0 0.0

1.908989450060663e7 2.5647985625355404e7 0.0
2.5647985625355404e7 1.7252699259777712e6 0.0
0.0 0.0 0.0

2.251424928476775e6 2.1302427841338232e7 0.0
2.1302427841338232e7 2.9702950642483246e7 0.0
0.0 0.0 0.0

419718.57795987 1.970371509809084e7 0.0
1.970371509809084e7 -1.902075339885254e7 0.0
0.0 0.0 0.0

-7.003363016303536e6 -1.8826211722920812e6 0.0
-1.8826211722920812e6 4.63133388664763e7 0.0
0.0 0.0 0.0

-631398.6139654557 3.691840232016553e7 0.0
3.691840232016553e7 934646.3822224305 0.0
0.0 0.0 0.0

-7.906755305679442e6 1.695928678234108e7 0.0
1.695928678234108e7 3.0870346556377e7 0.0
0.0 0.0 0.0

-9.001777264203673e6 -2.2732122140987427e6 0.0
-2.2732122140987427e6 2.070055576832163e7 0.0
0.0 0.0 0.0

-20502.379901696928 1.9484129197839294e7 0.0
1.9484129197839294e7 -1.1382753199307743e7 0.0
0.0 0.0 0.0

2.393361086103013e6 2.928131461321461e6 0.0
2.928131461321461e6 -4.302452613803228e7 0.0
0.0 0.0 0.0

-5.214315384627892e6 3.288632419725224e7 0.0
3.288632419725224e7 5.879011561424952e6 0.0
0.0 0.0 0.0

-30187.71334543312 2.6735430748577785e7 0.0
2.6735430748577785e7 -5.212289630753384e6 0.0
0.0 0.0 0.0

352700.85722786933 1.4827345475423617e7 0.0
1.4827345475423617e7 -3.3066931039577957e7 0.0
0.0 0.0 0.0

2.009928416238032e7 2.3024917367709402e7 0.0
2.3024917367709402e7 7.786733435378806e6 0.0
0.0 0.0 0.0

-5.999232661930552e6 3.1576057552010205e7 0.0
3.1576057552010205e7 6.96341829549791e6 0.0
0.0 0.0 0.0

-7.971448544937121e6 -522657.2525583301 0.0
-522657.2525583301 4.4177157425962396e7 0.0
0.0 0.0 0.0

-8.159938078869076e6 -2.8119031819773903e6 0.0
-2.8119031819773903e6 3.4030579093995735e7 0.0
0.0 0.0 0.0

6.792312043730791e6 2.3257105792529136e7 0.0
2.3257105792529136e7 1.1163473187157111e6 0.0
0.0 0.0 0.0

1.7371987526942287e6 2.660339782540901e7 0.0
2.660339782540901e7 -9.43466763569538e6 0.0
0.0 0.0 0.0

2.233680058060979e6 2.7311992458588682e7 0.0
2.7311992458588682e7 -8.935964328669505e6 0.0
0.0 0.0 0.0

-4.367639546077687e6 7.821582918492057e6 0.0
7.821582918492057e6 6.523719870017866e7 0.0
0.0 0.0 0.0

3.297327749150942e6 2.5244135631616903e6 0.0
2.5244135631616903e6 -1.3871345158774585e7 0.0
0.0 0.0 0.0

-1.0029770116814934e7 2.5811408005516306e7 0.0
2.5811408005516306e7 -3.014386502426577e6 0.0
0.0 0.0 0.0

-1.7106635674735583e7 2.6085777421545435e7 0.0
2.6085777421545435e7 -9.822806955487322e6 0.0
0.0 0.0 0.0

-3.549613310532126e7 3.1867078407907978e7 0.0
3.1867078407907978e7 -6.969024398395244e6 0.0
0.0 0.0 0.0

1.8520793742056675e6 3.7516039654341236e7 0.0
3.7516039654341236e7 -678819.9623690154 0.0
0.0 0.0 0.0

750677.9074714747 1.986054068216052e7 0.0
1.986054068216052e7 1.1058216876021093e6 0.0
0.0 0.0 0.0

-7.509624316548513e6 90120.4258038101 0.0
90120.4258038101 4.677639618862173e7 0.0
0.0 0.0 0.0

1.6179759903893024e7 2.524261961150924e7 0.0
2.524261961150924e7 1.6064341448239689e6 0.0
0.0 0.0 0.0

364365.2868712903 2.163682636714761e7 0.0
2.163682636714761e7 -1.2105827192569017e7 0.0
0.0 0.0 0.0

-8.549859119292704e6 634090.8744584902 0.0
634090.8744584902 3.629061163937844e7 0.0
0.0 0.0 0.0

-3.4425813365489654e6 2.6244631793071438e7 0.0
2.6244631793071438e7 1.0600268502775982e7 0.0
0.0 0.0 0.0

-3.7891134890425e6 2.790871916566782e7 0.0
2.790871916566782e7 9.316764187548328e6 0.0
0.0 0.0 0.0

-6.695783442016065e6 -64983.48243432035 0.0
-64983.48243432035 8.860711230394678e6 0.0
0.0 0.0 0.0

2.332901444498431e6 5.263187798776139e6 0.0
5.263187798776139e6 -3.2640378775439076e7 0.0
0.0 0.0 0.0

-622585.1358258426 9.139204861444203e6 0.0
9.139204861444203e6 -5.8434823823997274e7 0.0
0.0 0.0 0.0

9.597213974951532e6 2.521881514157938e7 0.0
2.521881514157938e7 1.4554101116626827e7 0.0
0.0 0.0 0.0

2.556229449402985e6 4.434135151359663e6 0.0
4.434135151359663e6 -1.2285276179689776e7 0.0
0.0 0.0 0.0

2.556366101423116e7 3.512453785882201e7 0.0
3.512453785882201e7 -7.426284524743129e6 0.0
0.0 0.0 0.0

3.1102785754855834e6 4.469341570603132e6 0.0
4.469341570603132e6 -3.1211510564864274e7 0.0
0.0 0.0 0.0

3.3166965955716744e6 5.065549059944822e6 0.0
5.065549059944822e6 -2.1079640009051487e7 0.0
0.0 0.0 0.0

2.6817116813018695e6 4.782062663774059e6 0.0
4.782062663774059e6 -2.7429724385849137e7 0.0
0.0 0.0 0.0

1.1527398638865924e6 2.10071438550451e7 0.0
2.10071438550451e7 3.1980022795995795e6 0.0
0.0 0.0 0.0

2.103970662350626e6 2.032068078784512e7 0.0
2.032068078784512e7 1.0885935771771096e7 0.0
0.0 0.0 0.0

-317410.7899768036 1.7516439315012258e7 0.0
1.7516439315012258e7 -2.981209134398449e7 0.0
0.0 0.0 0.0

2.4414483193690047e7 3.623446823914334e7 0.0
3.623446823914334e7 -6.007669983092571e6 0.0
0.0 0.0 0.0

-8.448541119017387e6 -798143.3890435987 0.0
-798143.3890435987 3.618198858951685e7 0.0
0.0 0.0 0.0

-3.4622298405048475e6 2.6432075390894227e7 0.0
2.6432075390894227e7 1.2375831045253184e7 0.0
0.0 0.0 0.0

-1.9663594474041609e6 3.65189911736044e7 0.0
3.65189911736044e7 340903.4308411563 0.0
0.0 0.0 0.0

1.663532714703675e6 3.0510061594959784e7 0.0
3.0510061594959784e7 -4.361220666175114e6 0.0
0.0 0.0 0.0

-8.411781039863113e6 -1.9145734012247676e6 0.0
-1.9145734012247676e6 2.638075991058782e7 0.0
0.0 0.0 0.0

-1.0095069722511409e7 148173.61761924138 0.0
148173.61761924138 1.900972954801938e7 0.0
0.0 0.0 0.0

3.5652350965086725e6 2.1448331713678725e7 0.0
2.1448331713678725e7 2.85782545405931e7 0.0
0.0 0.0 0.0

-3.1457417492256043e6 -1.445780464852493e6 0.0
-1.445780464852493e6 4.386890447037148e6 0.0
0.0 0.0 0.0

9.544021063062623e6 2.8094004071438506e7 0.0
2.8094004071438506e7 -5.328299147556316e6 0.0
0.0 0.0 0.0

1.2300962581999972e6 2.5242417257055536e7 0.0
2.5242417257055536e7 -1.1492822345799794e7 0.0
0.0 0.0 0.0

410554.7892515082 2.071093760536093e7 0.0
2.071093760536093e7 -2.106246933986495e7 0.0
0.0 0.0 0.0

-1.4796441769845774e6 2.563504177168368e7 0.0
2.563504177168368e7 925640.0567771286 0.0
0.0 0.0 0.0

-3.3647248566234056e6 2.532487619819484e7 0.0
2.532487619819484e7 1.1325608400499048e7 0.0
0.0 0.0 0.0

-7.841347910479022e6 1.720951595536537e7 0.0
1.720951595536537e7 2.691208673448224e7 0.0
0.0 0.0 0.0

-2.3164336035131533e7 4.645162433709735e7 0.0
4.645162433709735e7 6.590381472111463e6 0.0
0.0 0.0 0.0

2.8009076848882055e6 4.3537219821747085e6 0.0
4.3537219821747085e6 -1.2552204589590255e7 0.0
0.0 0.0 0.0

1.0217908567712847e6 2.0148637150668576e7 0.0
2.0148637150668576e7 -1.734529584902931e7 0.0
0.0 0.0 0.0

1.3652827124871947e6 4.0913275041708215e6 0.0
4.0913275041708215e6 -6.287735134952669e7 0.0
0.0 0.0 0.0

4.823094200539161e6 2.7327224475153007e7 0.0
2.7327224475153007e7 -8.376852963609422e6 0.0
0.0 0.0 0.0

-6.789608302220166e6 1.449260067666869e7 0.0
1.449260067666869e7 1.5756322533037148e7 0.0
0.0 0.0 0.0

-1.0366524395318173e7 1.8090468954503722e7 0.0
1.8090468954503722e7 -4.0779907470908366e7 0.0
0.0 0.0 0.0

3.9151412708120376e7 2.4218988058302373e7 0.0
2.4218988058302373e7 8.302396743392642e6 0.0
0.0 0.0 0.0

-9.992079331937682e6 3.684984954193585e6 0.0
3.684984954193585e6 2.0986306749823578e7 0.0
0.0 0.0 0.0

1.290251046657961e7 2.3616269693120956e7 0.0
2.3616269693120956e7 1.053937754407901e7 0.0
0.0 0.0 0.0

7.605662754561637e6 1.836384728215991e7 0.0
1.836384728215991e7 2.9342715346678317e7 0.0
0.0 0.0 0.0

-8.192391510201718e6 1.8105213038680077e7 0.0
1.8105213038680077e7 -2.6450465876905896e7 0.0
0.0 0.0 0.0

5.386900528391425e6 3.957091170405772e7 0.0
3.957091170405772e7 -4.0750793700755276e6 0.0
0.0 0.0 0.0

59042.198565272614 2.686177604180422e7 0.0
2.686177604180422e7 -8.008490188057218e6 0.0
0.0 0.0 0.0

-4.737108554992588e6 1.9783807744243264e7 0.0
1.9783807744243264e7 2.1016525023289684e7 0.0
0.0 0.0 0.0

-1.7635476602203064e6 9.117416170150751e6 0.0
9.117416170150751e6 -8.25892931922366e7 0.0
0.0 0.0 0.0

-1.0569148388449075e7 1.4321155621041525e6 0.0
1.4321155621041525e6 1.8037577666597873e7 0.0
0.0 0.0 0.0

-1.6953069421403925e6 2.130287779204927e7 0.0
2.130287779204927e7 -9.382697119394915e6 0.0
0.0 0.0 0.0

1.2117807755830863e7 2.4561992507038828e7 0.0
2.4561992507038828e7 1.267121746100589e7 0.0
0.0 0.0 0.0

3.4745602645248054e6 1.4888390753049102e7 0.0
1.4888390753049102e7 7.067116346192017e6 0.0
0.0 0.0 0.0

-3.4128709080579765e6 2.4371860561821114e7 0.0
2.4371860561821114e7 1.6526377421506772e7 0.0
0.0 0.0 0.0

-3.011105607257441e6 3.0156402799677357e7 0.0
3.0156402799677357e7 5.762539767289145e6 0.0
0.0 0.0 0.0

-2.012128875597757e7 4.735729252671226e7 0.0
4.735729252671226e7 7.918672690805663e6 0.0
0.0 0.0 0.0

889164.947989645 8.597149241561428e6 0.0
8.597149241561428e6 -6.80186227215287e6 0.0
0.0 0.0 0.0

-3.543459819850238e6 2.9809772423061173e7 0.0
2.9809772423061173e7 5.253170114575283e6 0.0
0.0 0.0 0.0

40758.413015660364 2.5622228691270832e7 0.0
2.5622228691270832e7 -7.91049845096959e6 0.0
0.0 0.0 0.0

1.820556724399193e7 2.4778294613260344e7 0.0
2.4778294613260344e7 1.2566085743738826e7 0.0
0.0 0.0 0.0

682957.5623248278 2.9282358739784803e7 0.0
2.9282358739784803e7 -6.089866443389569e6 0.0
0.0 0.0 0.0

2.1420765064852135e6 4.44013195748599e6 0.0
4.44013195748599e6 -9.734891248396773e6 0.0
0.0 0.0 0.0

537249.9186086943 2.2037840895292357e7 0.0
2.2037840895292357e7 -1.5469544751455067e7 0.0
0.0 0.0 0.0

-9.997098710038759e6 3.477038904467515e6 0.0
3.477038904467515e6 2.781331054637876e7 0.0
0.0 0.0 0.0

2.9580503812502194e6 6.080144303760368e6 0.0
6.080144303760368e6 -3.054880030215604e7 0.0
0.0 0.0 0.0

1.2461580176582262e6 5.012886932839891e6 0.0
5.012886932839891e6 -6.816833510883255e7 0.0
0.0 0.0 0.0

4.0363230800176677e6 2.4362373688107036e7 0.0
2.4362373688107036e7 1.4285147488663267e7 0.0
0.0 0.0 0.0

851327.0856328383 2.1928485567020603e7 0.0
2.1928485567020603e7 -1.8239134072692018e7 0.0
0.0 0.0 0.0

-5.259439881944856e6 2.010253822696187e7 0.0
2.010253822696187e7 1.882466532069175e7 0.0
0.0 0.0 0.0

3.3066291333630085e6 1.9598773789675173e6 0.0
1.9598773789675173e6 -2.6143089754420463e7 0.0
0.0 0.0 0.0

1.2556525297198575e6 1.7545612937158845e7 0.0
1.7545612937158845e7 -2.2771235906914476e7 0.0
0.0 0.0 0.0

-166218.98589108512 1.9920860890860695e7 0.0
1.9920860890860695e7 -2.2382098913606588e7 0.0
0.0 0.0 0.0

-4.64382508758574e6 2.1166251344696205e7 0.0
2.1166251344696205e7 1.7877818520348277e7 0.0
0.0 0.0 0.0

805001.6318211061 9.995098991784044e6 0.0
9.995098991784044e6 4.182340094177376e6 0.0
0.0 0.0 0.0

-9.048561554650001e6 -90910.79120914481 0.0
-90910.79120914481 2.9976636593886405e7 0.0
0.0 0.0 0.0

337618.0070376657 2.1054485892698456e7 0.0
2.1054485892698456e7 -1.9170510199837215e7 0.0
0.0 0.0 0.0

-6.793465419515577e6 1.3203220423526213e7 0.0
1.3203220423526213e7 1.6730524502506971e7 0.0
0.0 0.0 0.0

1.677959698570577e7 2.2581953817121055e7 0.0
2.2581953817121055e7 1.1353780236241687e7 0.0
0.0 0.0 0.0

1.3875967973882072e6 2.5983119990285058e7 0.0
2.5983119990285058e7 -1.075456597607966e7 0.0
0.0 0.0 0.0

2.3394212933989926e6 4.431350465290588e6 0.0
4.431350465290588e6 -8.361411316080106e6 0.0
0.0 0.0 0.0

-7.453026720005821e6 7.211459363296889e6 0.0
7.211459363296889e6 4.731894319933294e7 0.0
0.0 0.0 0.0

-2.0761385926908846e6 3.3043687777485833e7 0.0
3.3043687777485833e7 865618.3959924189 0.0
0.0 0.0 0.0

-1.0607230261859367e7 3.4489181586464606e7 0.0
3.4489181586464606e7 5.744365878788209e6 0.0
0.0 0.0 0.0

-1.1588792288898379e7 5.006023209459168e6 0.0
5.006023209459168e6 1.8280748256997466e7 0.0
0.0 0.0 0.0

-8.771012813335659e6 2.4652187588338032e6 0.0
2.4652187588338032e6 3.801626683648853e7 0.0
0.0 0.0 0.0

-70954.83009945229 1.5537349176019792e7 0.0
1.5537349176019792e7 -3.3365683927304257e7 0.0
0.0 0.0 0.0

-3.552782442020093e6 2.174954921124739e7 0.0
2.174954921124739e7 1.8493743808566477e7 0.0
0.0 0.0 0.0

-7.495563804846436e6 8.515576780467743e6 0.0
8.515576780467743e6 4.79375569398296e7 0.0
0.0 0.0 0.0

-7.445867550159267e7 2.3314583462098453e7 0.0
2.3314583462098453e7 3.293648290828742e6 0.0
0.0 0.0 0.0

871374.4733469887 1.450149389346922e7 0.0
1.450149389346922e7 -2.028836049623263e7 0.0
0.0 0.0 0.0

1.0677154450421287e6 2.0975564441176757e7 0.0
2.0975564441176757e7 510881.7112011353 0.0
0.0 0.0 0.0

2.5613039300486706e6 1.47472399294236e6 0.0
1.47472399294236e6 -4.2081646037676595e7 0.0
0.0 0.0 0.0

5.743442389894566e6 2.116194633308712e7 0.0
2.116194633308712e7 1.67094914120459e7 0.0
0.0 0.0 0.0

-8.560829132108074e6 8.794518148770686e6 0.0
8.794518148770686e6 4.441148023803707e7 0.0
0.0 0.0 0.0

907204.5151107064 7.202411675886446e6 0.0
7.202411675886446e6 -8.981222774769153e6 0.0
0.0 0.0 0.0

124899.27384074079 2.56692150121772e7 0.0
2.56692150121772e7 -7.9123626536565805e6 0.0
0.0 0.0 0.0

-2.0274021366806955e6 2.9114613212304607e7 0.0
2.9114613212304607e7 524781.5628987736 0.0
0.0 0.0 0.0

-2.5391908291667583e6 2.4318283770161416e7 0.0
2.4318283770161416e7 1.1276566936984371e7 0.0
0.0 0.0 0.0

-7.365896487943301e6 3.372140870718152e7 0.0
3.372140870718152e7 5.593614216309447e6 0.0
0.0 0.0 0.0

-2.3915656034105057e6 2.3498645562659953e7 0.0
2.3498645562659953e7 946329.8127817002 0.0
0.0 0.0 0.0

-7.04253555288313e6 900637.8329576505 0.0
900637.8329576505 5.286478242956634e7 0.0
0.0 0.0 0.0

4.15024775043379e6 2.0943224700267237e7 0.0
2.0943224700267237e7 2.610725932550442e7 0.0
0.0 0.0 0.0

1.117457178501538e6 1.983383982075856e7 0.0
1.983383982075856e7 -1.910898961227854e7 0.0
0.0 0.0 0.0

-2.1154034501114875e7 2.973647682800899e7 0.0
2.973647682800899e7 -9.239447011479672e6 0.0
0.0 0.0 0.0

-7.997232486072843e6 -1.5389314398938774e6 0.0
-1.5389314398938774e6 1.3205757647994453e7 0.0
0.0 0.0 0.0

-1.4159740331950304e6 3.571952392479674e7 0.0
3.571952392479674e7 1.7937576191438893e6 0.0
0.0 0.0 0.0

351282.06286741735 2.010176339426615e7 0.0
2.010176339426615e7 -1.9002522967934033e6 0.0
0.0 0.0 0.0

-5.9740724726363085e6 1.897440539549508e7 0.0
1.897440539549508e7 3.1261392346361734e7 0.0
0.0 0.0 0.0

2.0950189363866728e6 1.2719212606559739e7 0.0
1.2719212606559739e7 -2.705705341073548e7 0.0
0.0 0.0 0.0

-6.948183962531595e6 1.8414308175106544e7 0.0
1.8414308175106544e7 2.8036809080874186e7 0.0
0.0 0.0 0.0

1.8132137356061805e6 4.565348755561467e6 0.0
4.565348755561467e6 -8.059146475822059e6 0.0
0.0 0.0 0.0

2.7478558393653575e6 7.648167461517465e6 0.0
7.648167461517465e6 -3.0111431808991417e7 0.0
0.0 0.0 0.0

-3.411259951969435e6 2.3397987250753958e7 0.0
2.3397987250753958e7 -1.042924354538941e7 0.0
0.0 0.0 0.0

-1.957357505029276e6 2.503688670187023e7 0.0
2.503688670187023e7 3.044438287409751e6 0.0
0.0 0.0 0.0

-1.5341763423971753e6 2.9172915685694586e7 0.0
2.9172915685694586e7 2.1562340035766754e6 0.0
0.0 0.0 0.0

5.211749933771266e6 2.654905578844989e7 0.0
2.654905578844989e7 -8.137858724260386e6 0.0
0.0 0.0 0.0

3.1671688229369484e6 5.165486045419274e6 0.0
5.165486045419274e6 -2.7308437103999276e7 0.0
0.0 0.0 0.0

1.210213686897612e6 4.495975928336067e6 0.0
4.495975928336067e6 -5.15014024081846e6 0.0
0.0 0.0 0.0

2.0064712816473357e6 6.798155172606234e6 0.0
6.798155172606234e6 -3.207600431813022e7 0.0
0.0 0.0 0.0

1.8288407615992203e6 7.141701405227207e6 0.0
7.141701405227207e6 -9.315165857855948e6 0.0
0.0 0.0 0.0

2.2563857737949744e7 2.2708111097313747e7 0.0
2.2708111097313747e7 9.940719737165831e6 0.0
0.0 0.0 0.0

-2.9278839834136134e6 3.98728815344577e7 0.0
3.98728815344577e7 2.599450869938261e6 0.0
0.0 0.0 0.0

-7.791465709419947e6 -467489.3718952927 0.0
-467489.3718952927 4.235844592672337e7 0.0
0.0 0.0 0.0

766227.406799227 9.040368489257326e6 0.0
9.040368489257326e6 -5.37842175135501e7 0.0
0.0 0.0 0.0

4.257611509354804e6 2.7446501718551833e7 0.0
2.7446501718551833e7 -8.56135240278365e6 0.0
0.0 0.0 0.0

-2.650411887059883e6 2.3239797770822644e7 0.0
2.3239797770822644e7 -1.1977953079675125e7 0.0
0.0 0.0 0.0

1.4144651330790576e6 8.049564458164727e6 0.0
8.049564458164727e6 -4.0332239356648415e7 0.0
0.0 0.0 0.0

-7.869938872799458e6 3.9389529812961645e7 0.0
3.9389529812961645e7 5.1035134652908705e6 0.0
0.0 0.0 0.0

9.995746451574072e6 2.4894635695410803e7 0.0
2.4894635695410803e7 1.3059251394764053e7 0.0
0.0 0.0 0.0

-4.476466857143485e7 4.4046730593540564e7 0.0
4.4046730593540564e7 7.101871768299146e6 0.0
0.0 0.0 0.0

-1.3674355144209862e6 2.142278581881344e7 0.0
2.142278581881344e7 2.521876466490859e7 0.0
0.0 0.0 0.0

1.8660354669240955e6 1.1532923600549867e7 0.0
1.1532923600549867e7 -2.7850279403219096e7 0.0
0.0 0.0 0.0

8.847818870649089e7 2.846999496611322e7 0.0
2.846999496611322e7 1.2010484073082935e7 0.0
0.0 0.0 0.0

6.995802762503812e6 2.252939803387878e7 0.0
2.252939803387878e7 1.897609483205605e7 0.0
0.0 0.0 0.0

-1.029767815602161e7 4.679372552458522e6 0.0
4.679372552458522e6 2.8755504954729475e7 0.0
0.0 0.0 0.0

2.391775819733244e6 2.0914535859543517e7 0.0
2.0914535859543517e7 1.1440640922949053e7 0.0
0.0 0.0 0.0

-3.5767031855572825e6 1.917716541068211e7 0.0
1.917716541068211e7 -2.8483250518056147e7 0.0
0.0 0.0 0.0

1.1241780141399663e7 2.766892466443542e7 0.0
2.766892466443542e7 -4.3951196451618355e6 0.0
0.0 0.0 0.0

-2.543735299678304e6 2.484561560271447e7 0.0
2.484561560271447e7 9.07591953167534e6 0.0
0.0 0.0 0.0

-8.605291944884121e6 7.197876394154282e6 0.0
7.197876394154282e6 4.343277728932564e7 0.0
0.0 0.0 0.0

-7.11548246853481e6 4.028601862572458e7 0.0
4.028601862572458e7 3.7971272868308052e6 0.0
0.0 0.0 0.0

-8.786725317112423e6 2.617743279107577e7 0.0
2.617743279107577e7 5.09302580618494e6 0.0
0.0 0.0 0.0

-2.2520511191593064e6 2.8727040193648115e7 0.0
2.8727040193648115e7 1.4226294910282786e6 0.0
0.0 0.0 0.0

4.413458868447991e6 3.3250236898486163e7 0.0
3.3250236898486163e7 -4.511110404963138e6 0.0
0.0 0.0 0.0

-2.0431483686814257e6 3.22994038512818e7 0.0
3.22994038512818e7 810309.0018117592 0.0
0.0 0.0 0.0

181874.71769187634 2.1275908261894733e7 0.0
2.1275908261894733e7 346667.82891332987 0.0
0.0 0.0 0.0

473541.13418374397 2.232890668876294e7 0.0
2.232890668876294e7 2.1932416909607373e7 0.0
0.0 0.0 0.0

2.9627761432376876e6 2.335600974910779e7 0.0
2.335600974910779e7 889021.291963511 0.0
0.0 0.0 0.0

-1.0286521327557515e7 1.9178417800931606e7 0.0
1.9178417800931606e7 -4.99723280647784e7 0.0
0.0 0.0 0.0

103241.60653120314 2.124446181367423e7 0.0
2.124446181367423e7 2.77871915034297e6 0.0
0.0 0.0 0.0

-2.3311796021926748e6 2.499907848264764e7 0.0
2.499907848264764e7 1.5124071661525448e6 0.0
0.0 0.0 0.0

5.913581668875707e6 1.742162405943922e7 0.0
1.742162405943922e7 1.4911585474119825e7 0.0
0.0 0.0 0.0

1.1955129838629859e6 2.369878098416504e7 0.0
2.369878098416504e7 -1.3486092884860924e7 0.0
0.0 0.0 0.0

706060.4195014331 1.710192436646465e7 0.0
1.710192436646465e7 -2.4151581123436056e7 0.0
0.0 0.0 0.0

3.1236818366558775e6 4.453186545897468e6 0.0
4.453186545897468e6 -2.8565220310583584e7 0.0
0.0 0.0 0.0

5.82584073570346e6 2.2157858467808805e7 0.0
2.2157858467808805e7 1.529708251044426e7 0.0
0.0 0.0 0.0

-1.4394078878028728e6 2.3480245082106188e7 0.0
2.3480245082106188e7 1.4680403035796853e7 0.0
0.0 0.0 0.0

-6.624079444338474e6 1.878906329714406e7 0.0
1.878906329714406e7 2.814329615082392e7 0.0
0.0 0.0 0.0

-2.3095154225769853e6 2.4013226381075155e7 0.0
2.4013226381075155e7 1.0354911866670242e7 0.0
0.0 0.0 0.0

-5.016700566602201e6 2.3582287953510083e7 0.0
2.3582287953510083e7 -1.0792693052375628e7 0.0
0.0 0.0 0.0

-6.910921842042152e6 1.90579986553117e7 0.0
1.90579986553117e7 2.64555174295211e7 0.0
0.0 0.0 0.0

-6.837298507159477e6 1.8416406489489235e7 0.0
1.8416406489489235e7 3.1119307451790325e7 0.0
0.0 0.0 0.0

-8.325410484017873e6 1.7330638549747497e7 0.0
1.7330638549747497e7 2.4899289230212495e7 0.0
0.0 0.0 0.0

-8.794091874387816e6 -1.4639828842482413e6 0.0
-1.4639828842482413e6 2.96431989133734e7 0.0
0.0 0.0 0.0

-2.786861415214319e6 2.653217999008592e7 0.0
2.653217999008592e7 1.071809412733927e7 0.0
0.0 0.0 0.0

-4.630094988985309e6 1.802680892938798e7 0.0
1.802680892938798e7 -4.2226687678721696e7 0.0
0.0 0.0 0.0

-781023.4796838257 1.7429853349761076e7 0.0
1.7429853349761076e7 -2.9728516276743717e7 0.0
0.0 0.0 0.0

-3.51530589549568e7 3.436601793860401e7 0.0
3.436601793860401e7 -1.2407595176762167e7 0.0
0.0 0.0 0.0

-6.5239992823306285e6 5.899005836478117e6 0.0
5.899005836478117e6 5.385336748674597e7 0.0
0.0 0.0 0.0

-102817.30382227339 1.8096163526362754e7 0.0
1.8096163526362754e7 -2.7831418556437913e7 0.0
0.0 0.0 0.0

-571753.20915442 3.326905023807575e7 0.0
3.326905023807575e7 -1.4055060141022447e6 0.0
0.0 0.0 0.0

3.8933210707465955e6 2.0722582242008742e7 0.0
2.0722582242008742e7 2.0190388612849753e7 0.0
0.0 0.0 0.0

-8.45895566135453e6 -3.851568440742888e6 0.0
-3.851568440742888e6 2.55617815150351e7 0.0
0.0 0.0 0.0

-361904.9210861149 2.0991215191923827e7 0.0
2.0991215191923827e7 -2.2618214418439483e6 0.0
0.0 0.0 0.0

-740426.89062424 2.304222857842818e7 0.0
2.304222857842818e7 -1.0119164423034107e7 0.0
0.0 0.0 0.0

-1.1902294262807354e7 9.244387145337287e6 0.0
9.244387145337287e6 1.9760837930484302e7 0.0
0.0 0.0 0.0

1.9628368046645038e6 1.2745338614239115e6 0.0
1.2745338614239115e6 -5.357838706565965e7 0.0
0.0 0.0 0.0

-140711.7161249346 1.1410022042383036e7 0.0
1.1410022042383036e7 -1.0180408789737191e7 0.0
0.0 0.0 0.0

-9.998884657744301e6 3.6903541809715135e6 0.0
3.6903541809715135e6 3.491866252939407e7 0.0
0.0 0.0 0.0

1.8718220559685538e6 2.42824402456082e7 0.0
2.42824402456082e7 -1.300516450588935e7 0.0
0.0 0.0 0.0

7.660086595707687e6 2.016624126343539e7 0.0
2.016624126343539e7 3.7326601638883084e7 0.0
0.0 0.0 0.0

-158119.34771948145 1.0941402433799982e7 0.0
1.0941402433799982e7 -5.159969298355066e6 0.0
0.0 0.0 0.0

1.0520718441014308e7 2.4897112933641873e7 0.0
2.4897112933641873e7 1.4870570720589343e7 0.0
0.0 0.0 0.0

-3.7035018182493164e6 4.08717196198477e7 0.0
4.08717196198477e7 2.875320758277865e6 0.0
0.0 0.0 0.0

-1.114634862443718e7 4.980937250907275e6 0.0
4.980937250907275e6 2.5570167491939027e7 0.0
0.0 0.0 0.0

1.2698092052705986e6 2.136582383870527e7 0.0
2.136582383870527e7 2.4368220774275914e7 0.0
0.0 0.0 0.0

1.281705928737972e6 1.1889747574348282e7 0.0
1.1889747574348282e7 -2.8403973500318028e7 0.0
0.0 0.0 0.0

-2.4661810821390882e7 3.039726683890552e7 0.0
3.039726683890552e7 1.2747402892484972e6 0.0
0.0 0.0 0.0

-8.69421737853645e6 -2.1839363155957223e6 0.0
-2.1839363155957223e6 1.721532791276841e7 0.0
0.0 0.0 0.0

-1.3946388096025955e7 2.5521658589418348e7 0.0
2.5521658589418348e7 -9.508652833992574e6 0.0
0.0 0.0 0.0

3.961518810939629e7 2.5899453314365778e7 0.0
2.5899453314365778e7 9.090867520723004e6 0.0
0.0 0.0 0.0

-456588.8082761201 2.5819262540665064e7 0.0
2.5819262540665064e7 -7.787475601860834e6 0.0
0.0 0.0 0.0

1.9414812815807536e6 1.2200249113840671e7 0.0
1.2200249113840671e7 -2.6312559944148e7 0.0
0.0 0.0 0.0

-4.10061570782464e6 2.6757198021707587e7 0.0
2.6757198021707587e7 1.1980378462673638e7 0.0
0.0 0.0 0.0

-6.260122293869682e6 1.4990931025784228e6 0.0
1.4990931025784228e6 6.009599547827724e7 0.0
0.0 0.0 0.0

-5.342282275356472e6 2.3299545805382524e7 0.0
2.3299545805382524e7 -1.5701804214391962e7 0.0
0.0 0.0 0.0

-1.513484732747736e6 3.6524176356388874e7 0.0
3.6524176356388874e7 1.87866155272895e6 0.0
0.0 0.0 0.0

-2.8502220693218205e6 1.6311968800079811e7 0.0
1.6311968800079811e7 -4.1182966228846654e7 0.0
0.0 0.0 0.0

62090.86666984018 2.095274613544339e7 0.0
2.095274613544339e7 -2.0917897678256497e7 0.0
0.0 0.0 0.0

7678.430820312351 2.0168169094030272e7 0.0
2.0168169094030272e7 -2.2675580756565955e7 0.0
0.0 0.0 0.0

-7.0406456734707225e6 1.525862876504707e7 0.0
1.525862876504707e7 3.86499885451758e7 0.0
0.0 0.0 0.0

-2.745944897858133e6 2.5287328616081566e7 0.0
2.5287328616081566e7 9.563328890239473e6 0.0
0.0 0.0 0.0

-5.029644520751819e6 1.3110094387199916e7 0.0
1.3110094387199916e7 1.0895232720585406e8 0.0
0.0 0.0 0.0

2.957810451950185e6 1.320149890184396e7 0.0
1.320149890184396e7 -1.0815903510647911e8 0.0
0.0 0.0 0.0

-2.002389295387965e7 2.9809946935614888e7 0.0
2.9809946935614888e7 -1.2958024147404887e7 0.0
0.0 0.0 0.0

-1.925572191889287e6 2.2571324592888966e7 0.0
2.2571324592888966e7 1.5770634068891453e7 0.0
0.0 0.0 0.0

-2.9514387226069868e7 3.109320435010154e7 0.0
3.109320435010154e7 -4.554068964539226e6 0.0
0.0 0.0 0.0

-8.797471838472813e6 -2.1100126430432755e6 0.0
-2.1100126430432755e6 2.109870066157443e7 0.0
0.0 0.0 0.0

-6.248394345073282e6 1.998323043671978e7 0.0
1.998323043671978e7 2.350204953155294e7 0.0
0.0 0.0 0.0

-1.568111418892407e7 2.7061733724413056e7 0.0
2.7061733724413056e7 -7.612590751153781e6 0.0
0.0 0.0 0.0

-9.04583669827049e6 4.935362696867446e6 0.0
4.935362696867446e6 3.723260064685319e7 0.0
0.0 0.0 0.0

3.710866958286209e7 2.3311575173578855e7 0.0
2.3311575173578855e7 8.236184567221155e6 0.0
0.0 0.0 0.0

1.7365622762146061e6 2.10071746671002e7 0.0
2.10071746671002e7 2.927925175674009e7 0.0
0.0 0.0 0.0

-3.4534540239546765e6 2.1435198344902135e7 0.0
2.1435198344902135e7 1.8213571395601995e7 0.0
0.0 0.0 0.0

-2.8486274652916793e7 4.327915439915956e7 0.0
4.327915439915956e7 9.597608402266392e6 0.0
0.0 0.0 0.0

5.603893601986173e6 2.395466043246078e7 0.0
2.395466043246078e7 6.39888386089535e6 0.0
0.0 0.0 0.0

4.07094096244688e6 2.271833893374128e7 0.0
2.271833893374128e7 -964492.0704483276 0.0
0.0 0.0 0.0

-4.9752450613387525e6 2.8360889485079583e7 0.0
2.8360889485079583e7 1.0020972583355134e7 0.0
0.0 0.0 0.0

-9.299319485433973e6 2.507366452288322e7 0.0
2.507366452288322e7 -761188.9832172804 0.0
0.0 0.0 0.0

-1.2466635016613714e6 2.1156474973135997e7 0.0
2.1156474973135997e7 -2.519009756516412e6 0.0
0.0 0.0 0.0

3.9795847951154187e6 2.364330293171234e7 0.0
2.364330293171234e7 -3.0687430320029967e6 0.0
0.0 0.0 0.0

5.0980530120228045e6 2.3672235033224374e7 0.0
2.3672235033224374e7 1.5060944644778535e7 0.0
0.0 0.0 0.0

6.340041893539624e6 3.794617773792851e7 0.0
3.794617773792851e7 -2.8294932482247395e6 0.0
0.0 0.0 0.0

-3.361767983961922e6 2.6223380537249044e7 0.0
2.6223380537249044e7 1.1576846786532203e7 0.0
0.0 0.0 0.0

-5.858897764978413e6 4.035301174482671e7 0.0
4.035301174482671e7 2.0394101981167565e6 0.0
0.0 0.0 0.0

-8.742018634469237e6 1.8382746195921987e7 0.0
1.8382746195921987e7 -5.4848756989127785e7 0.0
0.0 0.0 0.0

-1.8799137284737937e7 2.136809301532777e7 0.0
2.136809301532777e7 -1.013930848399055e8 0.0
0.0 0.0 0.0

1.784172868100258e7 2.235652876021198e7 0.0
2.235652876021198e7 1.0074964595421971e8 0.0
0.0 0.0 0.0

7.9316709524389375e6 2.0594694305767108e7 0.0
2.0594694305767108e7 3.5776498212021284e7 0.0
0.0 0.0 0.0

-34765.313970606774 1.0931492799980992e7 0.0
1.0931492799980992e7 -4.6453754484788775e7 0.0
0.0 0.0 0.0

3.6308078591779787e6 3.7436487036834404e7 0.0
3.7436487036834404e7 -3.51245698786244e6 0.0
0.0 0.0 0.0

1.7322108347230172e6 2.5821747698436208e7 0.0
2.5821747698436208e7 -1.0499854373026816e7 0.0
0.0 0.0 0.0

-1.3197612046373666e6 2.2064057794084344e7 0.0
2.2064057794084344e7 -8.02624713626947e6 0.0
0.0 0.0 0.0

1.9554078687792122e6 2.48028412059908e7 0.0
2.48028412059908e7 -1.2188040273852332e7 0.0
0.0 0.0 0.0

-3.689722860602939e7 4.639547047225139e7 0.0
4.639547047225139e7 1.0834471936306678e7 0.0
0.0 0.0 0.0

-2.9545774199524904e6 3.6103148713529676e7 0.0
3.6103148713529676e7 1.2396753807599805e6 0.0
0.0 0.0 0.0

-7.141285257885028e6 2.91285940644889e7 0.0
2.91285940644889e7 8.382857780072371e6 0.0
0.0 0.0 0.0

1.576126553551685e6 3.204798809825285e6 0.0
3.204798809825285e6 -5.705564359725793e7 0.0
0.0 0.0 0.0

1.2221745315849975e7 2.8564983884155322e7 0.0
2.8564983884155322e7 -4.797649992529852e6 0.0
0.0 0.0 0.0

-2.644494239040591e6 1.694454479389053e7 0.0
1.694454479389053e7 -3.841888158577426e7 0.0
0.0 0.0 0.0

1.0782253440097623e7 2.915462401645708e7 0.0
2.915462401645708e7 -5.387589561770847e6 0.0
0.0 0.0 0.0

-661172.1156774361 2.0336864858163904e7 0.0
2.0336864858163904e7 -1.3878150862772008e6 0.0
0.0 0.0 0.0

2.156535080264869e6 2.2100798859434057e7 0.0
2.2100798859434057e7 2.5303696213682495e7 0.0
0.0 0.0 0.0

-5.630251979775097e6 3.164986146015846e7 0.0
3.164986146015846e7 6.19875955696838e6 0.0
0.0 0.0 0.0

-8.70519096256657e6 -579142.3642480787 0.0
-579142.3642480787 3.5373109853014484e7 0.0
0.0 0.0 0.0

1.9808080031634133e7 2.3576839546105623e7 0.0
2.3576839546105623e7 4.307430300653788e6 0.0
0.0 0.0 0.0

-8.45144740794914e7 3.0874517093046043e7 0.0
3.0874517093046043e7 -370657.9272411093 0.0
0.0 0.0 0.0

-7.750946433742685e6 1.5554228004599063e7 0.0
1.5554228004599063e7 3.606193559956673e7 0.0
0.0 0.0 0.0

-7.012809434795368e6 2.6101246788279776e7 0.0
2.6101246788279776e7 5.596936125156146e6 0.0
0.0 0.0 0.0

5.122353152900833e6 2.3891562789355725e7 0.0
2.3891562789355725e7 210056.64207535633 0.0
0.0 0.0 0.0

2.9175685980026815e6 3.0183807904986897e6 0.0
3.0183807904986897e6 -3.699250330643159e7 0.0
0.0 0.0 0.0

-2.568527404885426e6 2.3346715186545346e7 0.0
2.3346715186545346e7 1.2314455482266951e7 0.0
0.0 0.0 0.0

-6.932998911253903e6 781335.131139098 0.0
781335.131139098 5.351620827009767e7 0.0
0.0 0.0 0.0

-1.9415188302982055e7 2.580858718559393e7 0.0
2.580858718559393e7 -1.078726775543992e8 0.0
0.0 0.0 0.0

1.7927795197376415e7 2.7212451447245788e7 0.0
2.7212451447245788e7 1.0554757923544711e8 0.0
0.0 0.0 0.0

-28086.72616321221 1.4787280789276458e7 0.0
1.4787280789276458e7 -3.4760938490514964e7 0.0
0.0 0.0 0.0

499519.1255692609 4.736369593099558e6 0.0
4.736369593099558e6 -5.280630175391457e6 0.0
0.0 0.0 0.0

1.478094735815244e7 2.073798282062847e7 0.0
2.073798282062847e7 6.678501298571026e6 0.0
0.0 0.0 0.0

-6.442347009962596e6 2.2129073094939296e6 0.0
2.2129073094939296e6 6.049805448196002e7 0.0
0.0 0.0 0.0

721571.2101430036 8.910817250335041e6 0.0
8.910817250335041e6 -8.262437205739247e6 0.0
0.0 0.0 0.0

7.910388236341417e6 3.596169517092078e7 0.0
3.596169517092078e7 -4.554985191983987e6 0.0
0.0 0.0 0.0

426286.53284887224 2.1357743583240412e7 0.0
2.1357743583240412e7 -1.6527201328379413e7 0.0
0.0 0.0 0.0

5.691646091295762e6 2.08280693220761e7 0.0
2.08280693220761e7 2.5478085105310578e7 0.0
0.0 0.0 0.0

-7.381195547428394e6 2.5821738078176156e7 0.0
2.5821738078176156e7 326250.5069570388 0.0
0.0 0.0 0.0

-3.488934668584369e7 2.8853136917963237e7 0.0
2.8853136917963237e7 -8.13851971332578e6 0.0
0.0 0.0 0.0

-3.488046298705828e6 3.550810928167099e7 0.0
3.550810928167099e7 2.0005638524462888e6 0.0
0.0 0.0 0.0

1.7089255883664326e6 2.1578709392543968e7 0.0
2.1578709392543968e7 1.395831450823733e7 0.0
0.0 0.0 0.0

-703657.700332826 2.2850032761182662e7 0.0
2.2850032761182662e7 1.8438972482238755e7 0.0
0.0 0.0 0.0

1.0053547964858497e6 1.8101016047658995e7 0.0
1.8101016047658995e7 -2.3252436901317503e7 0.0
0.0 0.0 0.0

2.032164237040677e6 2.403266183242669e7 0.0
2.403266183242669e7 -1.2786526851084445e7 0.0
0.0 0.0 0.0

-6.919648346712805e6 3.893400406856448e6 0.0
3.893400406856448e6 5.8329437434133366e7 0.0
0.0 0.0 0.0

-3.0782053505588323e7 4.709432257045959e7 0.0
4.709432257045959e7 7.7735624224764705e6 0.0
0.0 0.0 0.0

-1.4358385730119683e7 3.685172153720379e7 0.0
3.685172153720379e7 5.900377167774495e6 0.0
0.0 0.0 0.0

-3.452604868803967e7 3.1743813280842453e7 0.0
3.1743813280842453e7 -3.6451330734213814e6 0.0
0.0 0.0 0.0

261083.19133830233 2.1987109732573275e7 0.0
2.1987109732573275e7 4.896176490177728e6 0.0
0.0 0.0 0.0

-1.0852090327496229e7 2.6580034817090053e7 0.0
2.6580034817090053e7 -1.670446219690629e6 0.0
0.0 0.0 0.0

-2.065847967159326e7 2.887389756008332e7 0.0
2.887389756008332e7 -9.104796040850831e6 0.0
0.0 0.0 0.0

1.5506831121490002e6 7.993291954743977e6 0.0
7.993291954743977e6 -7.836939026853299e6 0.0
0.0 0.0 0.0

4.762938930292167e6 2.106526804759627e7 0.0
2.106526804759627e7 2.6326114653233133e7 0.0
0.0 0.0 0.0

1.0428451913192682e6 1.0025313582961459e7 0.0
1.0025313582961459e7 -4.555764785034553e7 0.0
0.0 0.0 0.0

-6.586740082930256e6 1.6486135172846057e7 0.0
1.6486135172846057e7 3.7209062035543874e7 0.0
0.0 0.0 0.0

-5.94878161281861e6 1.831076982800491e6 0.0
1.831076982800491e6 6.172133881554237e7 0.0
0.0 0.0 0.0

1.887779745840501e6 3.4689566953907707e6 0.0
3.4689566953907707e6 -5.619301295811238e7 0.0
0.0 0.0 0.0

-3.8980556575153664e7 3.1909638647706136e7 0.0
3.1909638647706136e7 -4.98807247082677e6 0.0
0.0 0.0 0.0

-7.301711382532261e6 58297.91061527644 0.0
58297.91061527644 4.8919136751603276e7 0.0
0.0 0.0 0.0

-7.978490588021092e6 -389177.3851164229 0.0
-389177.3851164229 4.271372382912823e7 0.0
0.0 0.0 0.0

755891.5829854263 7.675823962512525e6 0.0
7.675823962512525e6 -1.0224583905242069e7 0.0
0.0 0.0 0.0

-8.224574108169386e6 1.0646162006400654e6 0.0
1.0646162006400654e6 4.086783122673453e7 0.0
0.0 0.0 0.0

1.0709795239086406e7 4.994781740272854e7 0.0
4.994781740272854e7 -5.302596065023955e6 0.0
0.0 0.0 0.0

-3.099857786125914e6 2.2473398927426234e7 0.0
2.2473398927426234e7 1.729880546145127e7 0.0
0.0 0.0 0.0

659822.256658487 4.610033926232727e6 0.0
4.610033926232727e6 -6.922264259836504e7 0.0
0.0 0.0 0.0

1.83382069687308e6 4.025085402238348e6 0.0
4.025085402238348e6 -4.386586325680548e7 0.0
0.0 0.0 0.0

-2.835851417934778e6 2.5077456810662497e7 0.0
2.5077456810662497e7 8.562333792415088e6 0.0
0.0 0.0 0.0

-5.561805714112803e6 3.970816673052009e7 0.0
3.970816673052009e7 3.650127654368589e6 0.0
0.0 0.0 0.0

7.5885489102524035e6 1.1607465411052128e7 0.0
1.1607465411052128e7 2.2754170818879097e6 0.0
0.0 0.0 0.0

1.3913220522106014e7 2.4432085636223584e7 0.0
2.4432085636223584e7 1.3433403254514892e7 0.0
0.0 0.0 0.0

1.2339806859963525e7 2.711697752958596e7 0.0
2.711697752958596e7 -3.428682442293884e6 0.0
0.0 0.0 0.0

-7.492784288506839e6 307674.11277375324 0.0
307674.11277375324 4.801397779426683e7 0.0
0.0 0.0 0.0

-2.076957396034158e7 2.5804651785393417e7 0.0
2.5804651785393417e7 -3.2565626645412105e6 0.0
0.0 0.0 0.0

-3.3228326730884584e6 3.471568677838343e7 0.0
3.471568677838343e7 1.866795940276507e6 0.0
0.0 0.0 0.0

5.552682497367891e6 1.9992146049652267e7 0.0
1.9992146049652267e7 5.814509397328736e7 0.0
0.0 0.0 0.0

1.4639352059147092e7 2.7674603771477226e7 0.0
2.7674603771477226e7 -3.416831991527602e6 0.0
0.0 0.0 0.0

-5.209467160038795e6 2.365532310657164e7 0.0
2.365532310657164e7 -1.0751668451704355e7 0.0
0.0 0.0 0.0

-3.1482094955328926e6 2.3731497946144644e7 0.0
2.3731497946144644e7 1.7797560285016984e7 0.0
0.0 0.0 0.0

-3.8706301622630884e6 2.2990689568000216e7 0.0
2.2990689568000216e7 -1.07059084875205e7 0.0
0.0 0.0 0.0

-8.055959119587754e7 4.339022335574601e7 0.0
4.339022335574601e7 -1.0750533903794292e7 0.0
0.0 0.0 0.0

-4.0845707293795077e6 2.2181978915013276e7 0.0
2.2181978915013276e7 1.6850289404060557e7 0.0
0.0 0.0 0.0

-4.652983888852694e6 2.419406359849396e7 0.0
2.419406359849396e7 -9.11427939999916e6 0.0
0.0 0.0 0.0

-3.429094589217079e6 2.4541410248567473e7 0.0
2.4541410248567473e7 1.6856050156729016e7 0.0
0.0 0.0 0.0

9.908405162493149e6 2.667125611127803e7 0.0
2.667125611127803e7 -4.43406903496688e6 0.0
0.0 0.0 0.0

2.5151358717310484e6 2.9910145336715397e6 0.0
2.9910145336715397e6 -3.588760283708237e7 0.0
0.0 0.0 0.0

4.355497710459694e6 2.583144372495855e7 0.0
2.583144372495855e7 -8.571356636783607e6 0.0
0.0 0.0 0.0

-2.982057241797239e7 4.695522151555693e7 0.0
4.695522151555693e7 7.299798669217847e6 0.0
0.0 0.0 0.0

-7.1846328493037615e6 3.2970268081869423e7 0.0
3.2970268081869423e7 6.52794383734989e6 0.0
0.0 0.0 0.0

-9.119366734153775e6 -1.212034006257113e6 0.0
-1.212034006257113e6 2.883858800425908e7 0.0
0.0 0.0 0.0

601657.1939514847 2.160290628998774e7 0.0
2.160290628998774e7 -1.8176239650068216e7 0.0
0.0 0.0 0.0

1.6492329385026429e7 2.4412539911634862e7 0.0
2.4412539911634862e7 5.616405872581985e6 0.0
0.0 0.0 0.0

-7.069868373947878e7 3.634949477458364e7 0.0
3.634949477458364e7 938112.4040407427 0.0
0.0 0.0 0.0

4.849051758559592e6 1.948938276525933e7 0.0
1.948938276525933e7 1.833479919140988e7 0.0
0.0 0.0 0.0

305627.1580361277 9.768662858479453e6 0.0
9.768662858479453e6 -4.807123972382572e7 0.0
0.0 0.0 0.0

614111.5193035062 1.777915662101592e7 0.0
1.777915662101592e7 -2.3134971655249543e7 0.0
0.0 0.0 0.0

-2.234570414000878e6 2.3665973523876835e7 0.0
2.3665973523876835e7 1.4298986570564691e7 0.0
0.0 0.0 0.0

-8.327309131651951e6 4.004195637716537e7 0.0
4.004195637716537e7 3.3758662846940462e6 0.0
0.0 0.0 0.0

1.543147346797922e6 2.9732863285880543e7 0.0
2.9732863285880543e7 -5.330614078199539e6 0.0
0.0 0.0 0.0

2.2886157968997527e6 2.8464949824297684e6 0.0
2.8464949824297684e6 -4.3065741209080175e7 0.0
0.0 0.0 0.0

8.145594242182999e6 2.033191474334836e7 0.0
2.033191474334836e7 5.154894557400674e7 0.0
0.0 0.0 0.0

-795475.2867997086 2.002955588650009e7 0.0
2.002955588650009e7 -2.0882830779882544e6 0.0
0.0 0.0 0.0

-5.5016434745549075e7 4.214266176958446e7 0.0
4.214266176958446e7 9.90901189806695e6 0.0
0.0 0.0 0.0

-9.23169162633366e6 1.6483301518881272e6 0.0
1.6483301518881272e6 3.656288773760075e7 0.0
0.0 0.0 0.0

-8.436561217909487e6 1.3261361621512102e6 0.0
1.3261361621512102e6 3.899148912522629e7 0.0
0.0 0.0 0.0

1.58438662432431e7 2.4269503143402714e7 0.0
2.4269503143402714e7 8.444813229071474e6 0.0
0.0 0.0 0.0

-7.238805547356283e6 -50226.70965729383 0.0
-50226.70965729383 4.772244742348951e7 0.0
0.0 0.0 0.0

4.0536540758579355e6 2.0108926268646702e7 0.0
2.0108926268646702e7 1.781424202502588e7 0.0
0.0 0.0 0.0

9.308061824530056e6 2.0739711041953266e7 0.0
2.0739711041953266e7 3.8061989813645355e7 0.0
0.0 0.0 0.0

1.6652045060856207e6 3.728830770121323e7 0.0
3.728830770121323e7 -1.7369108873690595e6 0.0
0.0 0.0 0.0

-5.994991971291017e6 6.957473321834728e6 0.0
6.957473321834728e6 6.3771218778105065e7 0.0
0.0 0.0 0.0

-3.455623881868759e6 1.6979632663139623e7 0.0
1.6979632663139623e7 -3.9651181631687865e7 0.0
0.0 0.0 0.0

277506.0406099083 8.628460451764164e6 0.0
8.628460451764164e6 -8.845791162286378e6 0.0
0.0 0.0 0.0

-1.7606150260489378e6 2.3149814994438473e7 0.0
2.3149814994438473e7 1.2481558843398696e7 0.0
0.0 0.0 0.0

5.597896337130784e6 2.0837186513479386e7 0.0
2.0837186513479386e7 3.6834679414768085e7 0.0
0.0 0.0 0.0

-8.188332582864538e6 1.7574544007939023e6 0.0
1.7574544007939023e6 4.649411202394951e7 0.0
0.0 0.0 0.0

-6.552388693601085e6 9.525583948489834e6 0.0
9.525583948489834e6 6.575734514292788e6 0.0
0.0 0.0 0.0

-2.2166884483667067e6 2.42795509852165e7 0.0
2.42795509852165e7 1.5800830798601038e6 0.0
0.0 0.0 0.0

2.572962541789995e6 1.2852354929142462e7 0.0
1.2852354929142462e7 1.1525744363937978e7 0.0
0.0 0.0 0.0

4.719729668628555e6 2.2933120842628993e7 0.0
2.2933120842628993e7 -1.7726889252704866e6 0.0
0.0 0.0 0.0

-8.858456547181968e6 1.166123988399236e6 0.0
1.166123988399236e6 3.874775164608607e7 0.0
0.0 0.0 0.0

-5.182669888013128e6 6.853088113822369e6 0.0
6.853088113822369e6 6.772728884185475e7 0.0
0.0 0.0 0.0

3.86161803816709e6 2.359584140204491e7 0.0
2.359584140204491e7 -599650.6105371108 0.0
0.0 0.0 0.0

1.190872974844033e6 2.210083654073511e7 0.0
2.210083654073511e7 -1.5628053063333374e7 0.0
0.0 0.0 0.0

-4.970674367937613e6 6.677941204306071e6 0.0
6.677941204306071e6 6.707484124927506e7 0.0
0.0 0.0 0.0

9.483782036071694e6 2.6805928261380024e7 0.0
2.6805928261380024e7 -4.268242343852827e6 0.0
0.0 0.0 0.0

4.6209197201106e6 2.005183718099503e7 0.0
2.005183718099503e7 2.690383363909399e7 0.0
0.0 0.0 0.0

-7.634036440714676e6 1.3804958915902618e7 0.0
1.3804958915902618e7 1.5275643890435359e7 0.0
0.0 0.0 0.0

-5.753172646962849e6 1.3324615589204665e7 0.0
1.3324615589204665e7 6.121625169087162e6 0.0
0.0 0.0 0.0

-1.2357515892212905e7 9.904842843932083e6 0.0
9.904842843932083e6 5.179397053544026e6 0.0
0.0 0.0 0.0

