# vtk DataFile Version 2.0
phase field modeling fracture
ASCII
DATASET UNSTRUCTURED_GRID
POINTS 2538 float
0.0 0.0 0.0
10.0 0.0 0.0
0.0 10.0 0.0
10.0 10.0 0.0
0.0 4.9995 0.0
0.0 5.0005 0.0
5.0 5.0 0.0
0.9416964895726688 0.0 0.0
1.803581725054446 0.0 0.0
2.592419885431098 0.0 0.0
3.314401822861676 0.0 0.0
3.975193910351406 0.0 0.0
4.579982132660152 0.0 0.0
5.133512780936812 0.0 0.0
5.640130319506143 0.0 0.0
6.103810708661955 0.0 0.0
6.528192895506818 0.0 0.0
6.916607540127679 0.0 0.0
7.272102969376355 0.0 0.0
7.597469242948583 0.0 0.0
7.895259826292669 0.0 0.0
8.167811885738017 0.0 0.0
8.417264413845215 0.0 0.0
8.645575169389538 0.0 0.0
8.854535961159101 0.0 0.0
9.045786767735546 0.0 0.0
9.220828555767493 0.0 0.0
9.38103509633881 0.0 0.0
9.527663687265145 0.0 0.0
9.661865124984566 0.0 0.0
9.784692609918062 0.0 0.0
9.897110148790482 0.0 0.0
10.0 0.09999999999992584 0.0
10.0 0.199999999999856 0.0
10.0 0.2999999999997771 0.0
10.0 0.3999999999996677 0.0
10.0 0.4999999999995511 0.0
10.0 0.5999999999994683 0.0
10.0 0.6999999999993983 0.0
10.0 0.7999999999993286 0.0
10.0 0.8999999999992587 0.0
10.0 0.9999999999991888 0.0
10.0 1.099999999999119 0.0
10.0 1.199999999999033 0.0
10.0 1.299999999998852 0.0
10.0 1.399999999998576 0.0
10.0 1.499999999998284 0.0
10.0 1.599999999997992 0.0
10.0 1.6999999999977 0.0
10.0 1.799999999997408 0.0
10.0 1.899999999997116 0.0
10.0 1.999999999996825 0.0
10.0 2.099999999996533 0.0
10.0 2.199999999996241 0.0
10.0 2.299999999995949 0.0
10.0 2.399999999995657 0.0
10.0 2.499999999995365 0.0
10.0 2.599999999995073 0.0
10.0 2.699999999994782 0.0
10.0 2.79999999999449 0.0
10.0 2.899999999994198 0.0
10.0 2.999999999993906 0.0
10.0 3.099999999993614 0.0
10.0 3.199999999993322 0.0
10.0 3.299999999993029 0.0
10.0 3.399999999992738 0.0
10.0 3.499999999992446 0.0
10.0 3.599999999992154 0.0
10.0 3.699999999991863 0.0
10.0 3.799999999991571 0.0
10.0 3.899999999991278 0.0
10.0 3.999999999991022 0.0
10.0 4.099999999991035 0.0
10.0 4.199999999991187 0.0
10.0 4.299999999991338 0.0
10.0 4.399999999991491 0.0
10.0 4.499999999991642 0.0
10.0 4.599999999991795 0.0
10.0 4.699999999991947 0.0
10.0 4.799999999992099 0.0
10.0 4.89999999999225 0.0
10.0 4.999999999992403 0.0
10.0 5.099999999992555 0.0
10.0 5.199999999992706 0.0
10.0 5.299999999992858 0.0
10.0 5.39999999999301 0.0
10.0 5.499999999993161 0.0
10.0 5.599999999993313 0.0
10.0 5.699999999993466 0.0
10.0 5.799999999993618 0.0
10.0 5.899999999993771 0.0
10.0 5.999999999993922 0.0
10.0 6.099999999994074 0.0
10.0 6.199999999994227 0.0
10.0 6.299999999994378 0.0
10.0 6.39999999999453 0.0
10.0 6.499999999994682 0.0
10.0 6.599999999994833 0.0
10.0 6.699999999994986 0.0
10.0 6.799999999995138 0.0
10.0 6.899999999995289 0.0
10.0 6.999999999995442 0.0
10.0 7.099999999995594 0.0
10.0 7.199999999995747 0.0
10.0 7.299999999995897 0.0
10.0 7.39999999999605 0.0
10.0 7.499999999996202 0.0
10.0 7.599999999996353 0.0
10.0 7.699999999996505 0.0
10.0 7.799999999996658 0.0
10.0 7.899999999996808 0.0
10.0 7.999999999996962 0.0
10.0 8.099999999997113 0.0
10.0 8.199999999997265 0.0
10.0 8.299999999997418 0.0
10.0 8.399999999997569 0.0
10.0 8.499999999997721 0.0
10.0 8.599999999997873 0.0
10.0 8.699999999998024 0.0
10.0 8.799999999998176 0.0
10.0 8.899999999998329 0.0
10.0 8.99999999999848 0.0
10.0 9.099999999998634 0.0
10.0 9.199999999998786 0.0
10.0 9.299999999998937 0.0
10.0 9.399999999999089 0.0
10.0 9.499999999999241 0.0
10.0 9.599999999999392 0.0
10.0 9.699999999999545 0.0
10.0 9.799999999999697 0.0
10.0 9.899999999999848 0.0
9.897110148790565 10.0 0.0
9.784692609918244 10.0 0.0
9.66186512498486 10.0 0.0
9.527663687265571 10.0 0.0
9.381035096339392 10.0 0.0
9.220828555768257 10.0 0.0
9.045786767736512 10.0 0.0
8.854535961160305 10.0 0.0
8.645575169391027 10.0 0.0
8.417264413847017 10.0 0.0
8.167811885740178 10.0 0.0
7.895259826295246 10.0 0.0
7.597469242951631 10.0 0.0
7.272102969379938 10.0 0.0
6.916607540131873 10.0 0.0
6.528192895511704 10.0 0.0
6.103810708667616 10.0 0.0
5.640130319512691 10.0 0.0
5.13351278094435 10.0 0.0
4.579982132668816 10.0 0.0
3.975193910361222 10.0 0.0
3.314401822869852 10.0 0.0
2.592419885437257 10.0 0.0
1.803581725058137 10.0 0.0
0.9416964895740705 10.0 0.0
0.0 9.00010000000243 0.0
0.0 8.000200000005481 0.0
0.0 7.000300000005135 0.0
0.0 6.000400000002569 0.0
0.901790731451151 5.000409820926855 0.0
1.657200899774397 5.000334279910023 0.0
2.289991063707192 5.000271000893629 0.0
2.820065163538221 5.000217993483646 0.0
3.264096435579811 5.000173590356442 0.0
3.636051481595835 5.00013639485184 0.0
3.947629914072366 5.000105237008593 0.0
4.208632181002628 5.0000791367819 0.0
4.427267949625672 5.000057273205037 0.0
4.610414277633563 5.000038958572237 0.0
4.763831845154243 5.000023616815485 0.0
4.892346298799659 5.00001076537012 0.0
4.892346298799748 4.99998923462988 0.0
4.763831845154455 4.999976383184515 0.0
4.610414277633943 4.999961041427763 0.0
4.427267949626277 4.999942726794963 0.0
4.208632181003523 4.9999208632181 0.0
3.94762991407365 4.999894762991407 0.0
3.636051481597624 4.99986360514816 0.0
3.264096435582253 4.999826409643559 0.0
2.820065163541503 4.999782006516354 0.0
2.289991063711534 4.999728999106371 0.0
1.657200899778495 4.999665720089978 0.0
0.9017907314530094 4.999590179073145 0.0
0.0 3.999600000002013 0.0
0.0 2.999700000005187 0.0
0.0 1.99980000000512 0.0
0.0 0.9999000000025537 0.0
9.897889398521345 2.93573355845387 0.0
9.906568249974548 7.060009441434234 0.0
9.913122631074113 3.64016132281653 0.0
9.922462129543863 6.354535290629151 0.0
9.917693659967533 4.354211663134567 0.0
9.909873057440208 5.637584487339942 0.0
9.914183254994697 4.950672966925282 0.0
9.913885043715895 7.666887930262611 0.0
9.91009668007573 2.351889069770817 0.0
9.905135696074536 8.138152454502785 0.0
9.913397459621809 1.849999999997262 0.0
7.099302372137626 0.297750452375005 0.0
7.095143729410097 9.700359990366296 0.0
4.942912558701401 5.095838627899509 0.0
4.315009232304429 5.165022115481685 0.0
4.946182472483878 4.906763777264103 0.0
4.317967462990024 4.825955043772673 0.0
9.916390871492647 8.64999999999792 0.0
9.921504649680616 1.368376469890358 0.0
8.292538149791614 0.206877570318844 0.0
8.292538149793597 9.793122429681448 0.0
5.884594439766573 9.587645267048616 0.0
5.794826292691579 0.3794853783929359 0.0
9.913397459621425 9.049999999998557 0.0
9.908526577714177 0.9568239351922434 0.0
3.456851160380649 5.315740054130451 0.0
3.457889657868442 4.707121019609468 0.0
8.945214200703926 0.1503383337970344 0.0
8.950161364448409 9.8413906539257 0.0
9.913862335499305 4.055887885208452 0.0
9.916697353372683 4.650158482607802 0.0
9.919076340414442 6.049999999994006 0.0
9.906994308667635 5.25749687748192 0.0
9.917490342358025 6.655979201891897 0.0
9.915757520293784 7.343848891656911 0.0
9.910049507471042 3.363474386285078 0.0
9.914471988502868 2.647400064832979 0.0
9.91474124160965 9.337490423485129 0.0
9.916971008170838 0.6499999999994355 0.0
4.307157269264427 9.509674045029644 0.0
4.331527375865619 0.4401616696422582 0.0
9.45434939180249 9.878397030523757 0.0
9.457696120412969 0.1270877537061785 0.0
2.555070293622606 5.422044496190925 0.0
2.566232917480916 4.608001224030952 0.0
3.026511860837692 9.332320638257093 0.0
2.945561971800619 0.5895662714727601 0.0
7.7395404387124 0.2511088946967771 0.0
7.736379255744154 9.745848826372828 0.0
4.687135269408529 5.122111433928926 0.0
4.688420821504113 4.871895064967488 0.0
9.910554884115975 0.3448356354522978 0.0
9.911230082250466 9.65764729394159 0.0
9.921953841410854 6.851023993342036 0.0
9.912065178606017 5.448170483544033 0.0
9.911660025326261 3.861846960030188 0.0
9.914847467973438 3.14501593945607 0.0
9.913397459621425 5.849999999993703 0.0
9.913397459621425 7.849999999996735 0.0
9.906916878988277 2.15455769998631 0.0
9.913397459621425 8.349999999997479 0.0
9.909472363117661 1.640528221515488 0.0
9.913987325695956 1.152857110636247 0.0
9.913397459621425 8.849999999998241 0.0
0.9100099990995943 2.614215977520411 0.0
0.8395284981715456 7.451196254860987 0.0
9.723278867451556 9.898135916635193 0.0
9.723316350887044 0.09841820909386662 0.0
1.385819164827588 4.454539963646463 0.0
1.338343629665047 5.523111536005823 0.0
1.377179700550677 0.6809168304959698 0.0
1.418060461092743 9.285896715136046 0.0
9.91268220142518 0.1457914080939694 0.0
9.906737126737994 9.845745933882352 0.0
0.7108351382691361 6.537941170074089 0.0
1.527735020267026 6.915620208855231 0.0
1.630993885659103 7.838271825205868 0.0
2.232760943566823 7.370850737296832 0.0
2.243414218068206 6.688299277952821 0.0
2.779655053105118 7.021588754814074 0.0
2.80227799359795 7.632420170547022 0.0
3.282022065908813 7.305859666021318 0.0
3.327597298795347 7.857554136825748 0.0
3.743210251018715 7.549183328204379 0.0
3.716353232200752 7.062036086888612 0.0
4.111978858674101 7.27497101169417 0.0
4.104192177581432 6.879858986267289 0.0
4.436230765617037 7.045693351607117 0.0
4.430360014817357 6.703971783962796 0.0
4.732390145036301 6.849841042423394 0.0
5.056161327708878 5.095276573498806 0.0
5.111586796021131 4.999081142133581 0.0
5.169267363407189 5.09444870412406 0.0
5.223795108752053 4.996986220359468 0.0
5.281480803887719 5.092780870372803 0.0
5.335670761900611 4.994887492556936 0.0
5.393485214772442 5.090486192743301 0.0
5.447323082877892 4.992601527033996 0.0
5.505243219343024 5.087953380710069 0.0
5.558739102026105 4.990287787962959 0.0
5.616491581184779 5.085335255235766 0.0
5.669852346908056 4.9879269227514 0.0
5.727502713908907 5.082679981817038 0.0
5.780766004135139 4.988313988715834 0.0
5.838244881129535 5.080480568766611 0.0
5.891357695677371 4.986433849408193 0.0
5.948696036767613 5.077969900389505 0.0
6.001601341641615 4.981313698556656 0.0
6.058851024265095 5.074871552128682 0.0
6.111614020704875 4.978360695880202 0.0
6.168801161530775 5.072044953270978 0.0
6.221368818778567 4.975825765213497 0.0
6.278268309066882 5.066182320461055 0.0
6.330814273567539 4.972837984645718 0.0
6.387565032421376 5.062889771971895 0.0
6.437476667631405 4.971693683589553 0.0
6.496181111585419 5.060210690175857 0.0
6.539454812256072 4.964658165361536 0.0
6.604198202576491 5.056387520850258 0.0
6.648506025747331 4.939374587506267 0.0
6.714026758992516 5.05873885840664 0.0
6.764418045981209 4.959246676066148 0.0
6.8219334571197 5.055299567406268 0.0
6.873708540948134 4.960426349093742 0.0
6.930181428849307 5.053461390218819 0.0
6.981893615341967 4.96435459462232 0.0
7.037791764774784 5.051219747103022 0.0
7.090993561518408 4.96392420322464 0.0
5.504417457283294 4.900897920552702 0.0
7.145434864123609 5.048960634292441 0.0
6.054532384032612 4.883956083938546 0.0
6.738027949040956 4.850032323068674 0.0
7.198432914526514 4.956325226333323 0.0
7.252637187936749 5.046012229327236 0.0
7.30926729605109 4.948903216650376 0.0
7.248106275544042 4.860306312845646 0.0
7.363100274863074 4.849952416808486 0.0
7.365733472701664 5.039519554615095 0.0
7.308483293090149 5.137557220352172 0.0
6.768399513646964 5.145609705119954 0.0
7.422800035311104 5.132251445551834 0.0
7.358273518796229 5.235980394389298 0.0
7.480824155801127 5.227946127939927 0.0
7.302193400058628 4.761917474298247 0.0
7.413570879789824 4.754555110721153 0.0
7.414392998903179 5.334729114426734 0.0
7.352769630272076 4.660405502266205 0.0
7.467556835255426 4.658352623795039 0.0
7.536246869015014 5.328986926716081 0.0
7.478865844607288 5.432598185493195 0.0
7.406396991826072 4.556956233957538 0.0
7.523581002009154 4.552005631348623 0.0
7.597792398573263 5.429506106314967 0.0
7.540511043402902 5.53619421580439 0.0
7.46214474876342 4.452580994318881 0.0
7.5852185078634 4.446021810672608 0.0
7.663329342323453 5.533453399066901 0.0
7.603478967594521 5.643227430483237 0.0
7.513450346818673 4.347641323140766 0.0
7.640744971722214 4.333388343316237 0.0
7.727671715775243 5.642390483050116 0.0
7.667774597993788 5.753188858425915 0.0
7.570065256728661 4.230515669344811 0.0
7.702881065467917 4.218307808529532 0.0
7.638288257073729 4.107994211855027 0.0
7.493362356301017 4.120843902105771 0.0
7.779018500630071 5.521233457321821 0.0
7.794641287388929 5.752364621610818 0.0
7.73369774483611 5.865894287356292 0.0
7.600834531784728 5.867752110500446 0.0
6.233038857278689 5.15645045634683 0.0
7.669727996028819 5.985665563643058 0.0
7.528582452554481 5.987393423295551 0.0
7.598722674572824 6.11001923494443 0.0
7.778305000222867 4.104318908265786 0.0
7.704329019832056 3.987744174608892 0.0
7.838453459801382 4.213322728668484 0.0
7.864495721576461 5.862306066517277 0.0
7.846552353360407 3.98481756181946 0.0
7.769730409703277 3.86544808681145 0.0
5.785249360396857 5.177248808588045 0.0
7.908837087876153 3.861484036275285 0.0
7.834824606222196 3.740586825753288 0.0
7.97685993406276 3.736209527152902 0.0
7.89665098770825 3.615501862931453 0.0
7.753228010315262 3.617800245018972 0.0
7.826063013090472 3.483173292579822 0.0
7.66789744383048 3.48859328808356 0.0
8.042515855796823 3.595394268381807 0.0
7.75200750488492 3.341279823834038 0.0
7.582870318332553 3.346584916806707 0.0
8.120807847415062 3.732493963388337 0.0
8.189783970303546 3.61159165475499 0.0
7.657801000286734 3.200439907646711 0.0
7.486781956172036 3.201402473247712 0.0
7.452595103886905 6.11418616185016 0.0
7.527098033550077 6.243191052852112 0.0
8.260502906807751 3.728437634721859 0.0
8.327629317451398 3.608173631356984 0.0
7.372763970891452 6.247552889754036 0.0
7.456170570815929 6.384992468962936 0.0
7.621837793616884 6.376077080857113 0.0
7.548039512904141 6.520750676893614 0.0
7.717475944451644 6.514856553988943 0.0
7.636658166268699 6.661648164052906 0.0
7.807468267259438 6.664076174524672 0.0
7.718022764310774 6.817938967122142 0.0
7.887785766941087 6.807440365887151 0.0
7.545993589083432 6.815070675854734 0.0
7.809874785067209 6.967537287475282 0.0
7.975643812145337 6.948729406725126 0.0
8.396477808021062 3.725446935061211 0.0
7.565651643157136 3.044354774611752 0.0
7.384328725505071 3.043048915147076 0.0
8.056405351948353 6.802790889114673 0.0
8.14128318237188 6.940027831915737 0.0
8.064621760266059 7.086348792208953 0.0
8.225003598857908 6.805225152373254 0.0
8.463085452993242 3.606998510553562 0.0
8.230426869720718 7.079551841000411 0.0
8.155262284174286 7.224761758176069 0.0
8.530696760758996 3.721683301125054 0.0
8.596669886994064 3.604516769862316 0.0
8.528531058025589 3.490411531312337 0.0
8.320451770844851 7.218191678954744 0.0
8.245273958732774 7.363444652121271 0.0
8.66324687389452 3.717094013035765 0.0
8.600103125209296 3.831913857228569 0.0
8.662131102573216 3.488322280861316 0.0
8.594166125380536 3.374071873435548 0.0
8.411074336066186 7.353871649576861 0.0
8.339644223432472 7.505172120620427 0.0
8.165883718619623 7.513159193685373 0.0
8.483453820080417 7.2082285366806 0.0
8.261200365730348 7.657400951288149 0.0
8.081570576666843 7.670933304838066 0.0
7.471613195794025 2.872548423100142 0.0
7.268733678357991 2.881209199257603 0.0
7.184255506995786 3.084448584600423 0.0
7.065899603697895 2.883902449336828 0.0
6.960163891183182 3.081014635802978 0.0
6.847612128388715 2.885646860602812 0.0
6.739800729737967 3.078895733381448 0.0
8.729373804596847 3.827689165637365 0.0
8.668550856907444 3.938702277545298 0.0
8.72770789162863 3.371798381178293 0.0
8.659764090070603 3.257493349874974 0.0
8.436453928793245 7.648724489148887 0.0
6.619080287792762 2.90880017416788 0.0
6.511740956842646 3.09340654756684 0.0
8.793527829963288 3.935174834810256 0.0
8.736430500996828 4.042719556852617 0.0
7.631260330584174 4.565300771328012 0.0
8.359058396840432 7.801678182761817 0.0
5.339436215072359 5.184870243702279 0.0
4.994031736761993 5.193306795607908 0.0
6.383387675268097 4.87760645722207 0.0
7.29117392392962 6.382172868329505 0.0
6.378196825372041 2.907113079755629 0.0
6.269817199014261 3.12412150658573 0.0
8.793149127377946 3.255386294257182 0.0
8.725774239201558 3.141596687892195 0.0
8.857434600673502 4.041295940541356 0.0
8.802868937128341 4.1471119953668 0.0
8.532045262478793 7.7905977476835 0.0
7.364542641624493 2.699128473342751 0.0
7.571677611088925 2.695732556686516 0.0
6.723058333614999 2.672341359410618 0.0
8.456744924757372 7.94483904450548 0.0
6.140831279784704 2.921247401137864 0.0
6.02419219050745 3.14358702955763 0.0
8.916255604212301 3.934279868822481 0.0
8.859287250884009 3.140226640574265 0.0
8.791092798057303 3.025929352146465 0.0
7.210445465986021 6.245773134960393 0.0
7.120884161792869 6.385155584680196 0.0
7.036931702064287 6.240721609143972 0.0
6.943722280007011 6.3869279517155 0.0
8.920094519678617 4.144837222494242 0.0
8.864374107136287 4.250930406527029 0.0
7.347569838739255 4.463467417508182 0.0
5.90383431757064 2.935113219563906 0.0
5.783476009580765 3.156456199832474 0.0
8.626013191558314 7.935092223505354 0.0
8.687240186957197 7.796697889991163 0.0
5.642059327424706 2.903018174330269 0.0
5.52647853955939 3.162549070310043 0.0
8.555300051897738 8.086169516016518 0.0
8.405624441178524 8.083972416481254 0.0
5.374124307190728 2.945480555950917 0.0
8.935805220807357 3.249260758206028 0.0
8.981625171409894 4.247375537584228 0.0
8.924725364486765 4.352101286657735 0.0
8.807208588134106 4.356163101450244 0.0
8.868277832430604 4.45657124153171 0.0
8.75099635287701 4.460644845248524 0.0
8.812385950597063 4.560891222623518 0.0
8.693833206943118 4.564602972998703 0.0
8.756474732548273 4.665720853686476 0.0
8.63721608225855 4.669394550615355 0.0
8.700108119351134 4.770682016274914 0.0
8.81920502916846 4.767536120893284 0.0
8.76355311338807 4.871451945248518 0.0
8.881442328033694 4.868382238751069 0.0
8.826433523510634 4.97132552240372 0.0
8.943387824985514 4.967694248194483 0.0
8.888718468126953 5.071044784833541 0.0
8.580377663835254 4.774669738817985 0.0
8.770572242937233 5.073880380431421 0.0
8.832915096600454 5.174518948293615 0.0
8.952224483821848 5.170970838320107 0.0
8.897282771771884 5.275476392171722 0.0
7.463928467290875 2.513944501591933 0.0
7.675935950092034 2.509420347143072 0.0
8.924252417741767 3.024418701372628 0.0
8.857265893102921 2.911213535286156 0.0
8.776981063213334 5.27944309004916 0.0
8.840710910770163 5.380165700477552 0.0
8.960876896785969 5.375521424256389 0.0
8.904555918255223 5.482125846038813 0.0
7.567193097677677 2.32750151280277 0.0
7.780880844888839 2.323064027160363 0.0
6.851602118390116 6.234522818184622 0.0
6.758680682687229 6.389359516748128 0.0
6.66345977321418 6.231254850996584 0.0
8.715764716958308 8.079994249772627 0.0
8.65189989696114 8.227534663647639 0.0
9.042229096541828 4.348551764001607 0.0
6.436774206993324 3.316782326998922 0.0
7.590527613340588 5.22651784724799 0.0
9.024366884701616 5.476726561488805 0.0
8.968734351641839 5.583879050892151 0.0
8.845941080047659 5.586406316932274 0.0
8.909881305857882 5.690482454668167 0.0
7.348726871578975 5.44047403999932 0.0
6.567070253986433 6.398115757512583 0.0
6.697077150072261 6.553426749743366 0.0
5.252377383990728 3.187782967482479 0.0
8.988440431820699 2.908621158637298 0.0
8.922541972760119 2.796420836075996 0.0
6.466806010659505 6.229115583261771 0.0
9.033851153821296 5.686506775615425 0.0
8.978340519963718 5.795772485582058 0.0
8.85111463793018 5.798672910287243 0.0
8.922171984280597 5.907237880910408 0.0
8.795190680908043 5.911854068712683 0.0
8.864373398892472 6.019728357749566 0.0
8.991346995940626 6.014539153309398 0.0
8.93374019140187 6.12698887312768 0.0
5.095192648098848 2.952353430985476 0.0
7.672651464908932 2.141715359830917 0.0
7.886266921042761 2.136211284120189 0.0
9.098474286589756 4.245971410451114 0.0
8.813172564986438 8.216887361735234 0.0
8.74802978243154 8.366104673219047 0.0
9.059985162956899 6.120982589539211 0.0
9.00342813739303 6.233245043891739 0.0
4.961413514304496 3.214209167276753 0.0
9.05248113004685 2.794651022570942 0.0
8.986028039118027 2.681341972594222 0.0
5.671890458441996 3.377122473800023 0.0
4.755829262593116 7.184480462344647 0.0
9.158258644940048 4.34465968221255 0.0
4.799687186662534 2.961354824469195 0.0
6.030554747591715 2.726787502996874 0.0
8.938327180212585 8.34758372042188 0.0
8.847392320655468 8.503370672816716 0.0
8.67342124373679 8.518117686968314 0.0
5.234423106934083 2.694925204361751 0.0
8.964923046453565 8.185313058214797 0.0
7.456650986668838 2.134076476407834 0.0
9.111732084821366 2.897226832609386 0.0
6.368055837513985 6.402805870976705 0.0
6.265629899005033 6.226581076317183 0.0
8.736327196352686 6.026404178766982 0.0
9.117473097358854 2.67987006607594 0.0
9.052137415465204 2.565428515518978 0.0
7.781001557847192 1.955874236406257 0.0
7.992134447300669 1.949184538864554 0.0
8.593074792993455 3.143159483125708 0.0
9.1291360203536 6.226877897052981 0.0
9.072154326613617 6.338696745620542 0.0
8.916532550320525 2.566986282201109 0.0
8.984021113721658 2.449252898983242 0.0
9.178032243215632 6.120533546076094 0.0
9.213703592343162 4.244823670856978 0.0
9.11972142641474 2.449071238668887 0.0
9.052853896812186 2.33190758581705 0.0
8.635035926402708 4.462329956179506 0.0
8.773614475966344 8.657865377672689 0.0
8.596400917257634 8.67759750279447 0.0
8.942023339420883 8.644678093589654 0.0
9.19471670675691 6.33096438039349 0.0
9.138460613363325 6.443043552768813 0.0
8.66620319432524 5.916297234509582 0.0
8.606669825267202 6.032658196729024 0.0
9.27222540210304 4.341341907533128 0.0
9.013782808177437 6.451040569407859 0.0
9.08360982569773 6.55729980456602 0.0
7.885622149776354 1.768093045890686 0.0
8.095672144455353 1.768790621151345 0.0
9.208772072925791 6.549717411809656 0.0
9.154272208194383 6.662613503537815 0.0
9.187669783927937 2.334640996932141 0.0
9.122379015831417 2.215832190697178 0.0
6.164077036161143 6.404611236428829 0.0
6.062367614988677 6.224307160647549 0.0
8.987075041759633 2.211477580983978 0.0
9.056972755801603 2.093573581203428 0.0
9.194557288902232 2.096029761809264 0.0
9.131223008370409 1.972713028695079 0.0
8.87381302587057 8.795793668920256 0.0
9.039169086943392 8.781606667490083 0.0
4.662813350519927 3.228118291851354 0.0
4.474181267994617 2.945703616023359 0.0
6.562627723301209 6.075544382232434 0.0
9.326886053211574 4.243083624343211 0.0
9.280374192897945 6.656072830232892 0.0
9.224718905178564 6.766740750539347 0.0
4.703284910421452 6.528907865005451 0.0
8.955136474970331 6.565989985649191 0.0
8.998148826814893 4.865480736169776 0.0
8.99429836796776 1.965972383552685 0.0
9.065669391141741 1.847195105148808 0.0
9.207236162050343 1.853010386995843 0.0
9.143218073349985 1.725630086781897 0.0
8.998867447699345 1.719378449325465 0.0
9.082595782768397 1.592017827427701 0.0
8.92804562738841 1.585238202229766 0.0
9.01637794607019 1.453847302675876 0.0
8.854253119154375 1.446306868730686 0.0
8.941620273019874 1.320083886766936 0.0
8.775393064215876 1.308487027359826 0.0
9.102170347200483 1.324733726345249 0.0
9.013857060361985 1.178821526410403 0.0
7.991031819452564 1.587689878441685 0.0
7.767218744640202 1.595993197647291 0.0
9.191539171305216 1.194087248761656 0.0
9.123965901037613 1.057102462689568 0.0
4.853921953226772 3.470213116851758 0.0
7.496563223334782 3.470157221608763 0.0
8.536691379028115 5.921845852206257 0.0
8.475496498707471 6.037633662010236 0.0
7.978668526342969 2.307231488316941 0.0
9.384721922092124 4.337357165846226 0.0
9.331039180200886 4.435926256444196 0.0
8.546261775564837 6.150267290476958 0.0
8.411727261785726 6.155319300628062 0.0
8.972203609044218 8.930944433074036 0.0
9.133480321468399 8.90955269607895 0.0
9.197778815538276 8.768743880012563 0.0
6.162231825784922 6.05277753404107 0.0
5.962111081146334 6.046949845237622 0.0
9.268727788642101 4.146883230687689 0.0
9.380694211527906 4.144811697563401 0.0
9.323823335199954 4.049557759546529 0.0
9.283324894520613 1.736313094621396 0.0
5.858151623803662 6.22041808248046 0.0
5.759668475561988 6.038806123495502 0.0
7.836860473863919 3.191674397465999 0.0
9.348591928839294 6.75855034547469 0.0
9.293979592221298 6.870213350675044 0.0
9.170543172728557 6.879819332293818 0.0
9.240028263813034 6.983394994050525 0.0
4.347372565145963 3.312731475520695 0.0
4.114183445909965 2.96879678229065 0.0
8.616264880152233 4.042035981070631 0.0
9.403174760076901 6.650407069150438 0.0
4.173860112179449 7.723461240865885 0.0
9.365302975518428 6.973476802087294 0.0
9.312420275675276 7.088420778208979 0.0
9.184876614539778 7.0978133687822 0.0
9.25921281729617 7.204979813006656 0.0
9.12816413817609 7.21569648263899 0.0
9.203944409919862 7.322703303071253 0.0
9.334311975087337 7.311477957762272 0.0
9.280415785210538 7.428795599957155 0.0
9.274060219641907 1.066603180421249 0.0
9.211820491509728 0.9316562593680151 0.0
9.050684011148748 0.9017681241401576 0.0
9.441953732403995 4.432092590771756 0.0
9.394725873909666 4.526051349391942 0.0
9.43453556160865 4.048003950509361 0.0
9.378043599351757 3.952631412328806 0.0
9.289691247910705 8.890746792319852 0.0
9.228148443138926 9.030109127390128 0.0
4.440757888677695 6.389562448928118 0.0
4.689874463978985 6.239329075084555 0.0
4.291519540095677 2.622920583112654 0.0
3.886073352912894 2.632778677714434 0.0
9.344015622314338 1.202401041544343 0.0
8.193292196814806 3.849649660906171 0.0
6.960946604527747 6.07044529864598 0.0
9.347708267319902 8.756364147482309 0.0
6.826423138602714 3.261415861395883 0.0
6.06309517882478 5.884563187328262 0.0
9.4085057714426 7.414123963607981 0.0
9.356416821537886 7.532359471354527 0.0
5.042074134251055 6.938947182785697 0.0
5.063988238156824 7.311205832605263 0.0
3.946666851334923 3.30681624613374 0.0
8.189857914071878 1.939951128540477 0.0
7.880690277686857 1.38928908049477 0.0
7.63766396748483 1.399736360041063 0.0
9.345004233592562 1.857695941115052 0.0
9.440465164139875 7.085860901905448 0.0
7.918332480761888 5.744468010879592 0.0
9.08007135068879 5.372457017512481 0.0
8.78639561093144 3.718391405525285 0.0
9.356843485085705 0.9414458825132457 0.0
9.29705128845331 0.8103081541678832 0.0
9.251825423225316 2.451701826351773 0.0
8.483895366325516 6.270717564685176 0.0
8.346386886249478 6.275973306650227 0.0
9.493299170161215 4.138582531223591 0.0
5.321115649032961 7.117073603021904 0.0
5.354076009109965 7.436189411362466 0.0
5.597984079819928 7.254284331170681 0.0
5.644042313435943 7.564172740776336 0.0
5.383963016128051 7.753854027984002 0.0
5.681168258142109 7.880444993178456 0.0
5.935548099874979 7.687258900444162 0.0
5.979508404301389 7.994332725561488 0.0
6.21936843555201 7.802335560754011 0.0
6.267092590637372 8.104873033518185 0.0
6.498845418385807 7.917606504106031 0.0
6.544600005636809 8.209910620392591 0.0
6.77336078689533 8.027284686082275 0.0
6.814840179123049 8.311778392637773 0.0
6.721304148677048 7.737863326704131 0.0
7.031320924898797 8.1335673274533 0.0
7.077388928622946 8.403901803728003 0.0
5.417471987089176 8.090112295667405 0.0
8.845427688507666 2.446352368201366 0.0
9.318512319918124 2.339233739859646 0.0
9.380241452597096 2.451895615249572 0.0
7.283805558009199 8.237518806365102 0.0
7.329200330160381 8.497045124353782 0.0
7.233272584416691 7.991590926766813 0.0
9.142592248414191 5.471315142785471 0.0
9.196303265878848 5.36738298742727 0.0
9.25795832955665 5.465260877691205 0.0
9.310581303233182 5.36341558704714 0.0
9.371094700882272 5.459458038195667 0.0
9.422767107822985 5.360687090455724 0.0
9.36402660964156 5.264821436196721 0.0
9.474220736978928 5.262802348886269 0.0
9.41680330511366 5.169477108906666 0.0
5.168675939028436 4.895496152382537 0.0
9.482591449057548 5.454699312257291 0.0
9.431567605310825 5.552723344040521 0.0
7.531449703396948 4.741663470323411 0.0
8.517293123442691 4.672601123164268 0.0
8.459978676626639 4.778466809901586 0.0
8.396595115309985 4.67568709170855 0.0
8.338966609235166 4.782101664607259 0.0
8.275355646032752 4.678829956447008 0.0
8.217675280223542 4.785699596769931 0.0
8.28149024865807 4.888803783902183 0.0
8.16019781596952 4.892696417098926 0.0
8.22433278506531 4.995725219088695 0.0
8.102825704443651 4.999629142625341 0.0
8.166887930010795 5.098242831115916 0.0
8.034904900788316 4.896825406879729 0.0
8.15353539905931 4.682103688185489 0.0
8.211891449058882 4.574219757233394 0.0
8.290305306104333 5.094007100958221 0.0
8.225684228618732 5.201525567655179 0.0
9.444618942559746 2.343141375196729 0.0
6.929446520625337 4.868116916840016 0.0
5.737810725167649 4.893891407574175 0.0
8.720389971487277 5.38508368411851 0.0
8.805734920311323 8.951818172412821 0.0
8.905272694453211 9.083303226359831 0.0
6.006155038818204 5.171375272745409 0.0
6.431496448228514 5.152985998213245 0.0
9.052675024457304 7.106590131831544 0.0
7.740007013494393 6.09727525827826 0.0
9.375852260355511 9.013078430361404 0.0
9.32035844773103 9.14584923943073 0.0
6.989707597683965 5.146377438798643 0.0
9.488190206836386 3.951168069367155 0.0
9.432429152094464 3.855725756072153 0.0
5.568386402814275 5.185723849666124 0.0
9.525561551078322 5.166162126187324 0.0
9.465026391994275 5.072601962964018 0.0
9.320357339516937 3.857795423728873 0.0
9.375955927831914 3.759314274140895 0.0
9.261783786753899 3.761412578759438 0.0
9.31820665563318 3.661845422072752 0.0
9.431798673168924 3.660830894813109 0.0
9.374584413615914 3.563138564686839 0.0
9.48759661134647 3.562294297118573 0.0
9.431339678707085 3.464016717943268 0.0
9.417896212887529 1.746970678437863 0.0
8.731705369070733 9.110902182838881 0.0
5.652297951447118 6.21188565774667 0.0
5.569122518069258 6.024400786163834 0.0
8.257007204149394 3.505875091031567 0.0
8.717428603143034 2.925525757227976 0.0
6.882852832747376 8.57686572931064 0.0
6.337330066435714 8.416819098143066 0.0
9.50188906539997 4.521022403818629 0.0
9.453500859905136 4.617181635748691 0.0
9.46806769570129 6.749352117850711 0.0
8.836822104875719 1.72282859852854 0.0
7.481071063421426 5.64593758994851 0.0
5.668814988976305 5.86611128457842 0.0
5.487644760735084 5.847591822776978 0.0
8.993992818065195 7.228173913870249 0.0
7.98322414937693 7.229980191466666 0.0
9.22810751684646 7.54864871395298 0.0
9.304103360459063 7.654622011545798 0.0
9.432787371848761 7.633691049023619 0.0
9.382619818023882 7.759136995934441 0.0
7.239096822516492 4.679179578301165 0.0
9.47692479956498 1.861231395362419 0.0
8.041243110813022 5.095895152648969 0.0
6.190208781188077 7.509864122823853 0.0
9.283062812782122 4.549418667685757 0.0
9.503847665760087 2.450295046295932 0.0
9.443345385250678 2.557904120404248 0.0
9.52009568463353 6.644015937008899 0.0
9.203119005973903 3.662458522935253 0.0
8.406198651282708 5.92630414760378 0.0
8.467263597743843 5.811987729136874 0.0
9.461423029059445 9.128120577356565 0.0
9.408445330070542 9.26024300250086 0.0
9.266505293379728 9.277952925446408 0.0
4.14874709022218 3.631681332690154 0.0
9.437448107949258 0.8198473430736303 0.0
9.376993771693973 0.6910550697058979 0.0
9.22882356848217 0.6931820370818127 0.0
4.451823867195988 6.103664366188579 0.0
4.200031743909027 6.232039028149317 0.0
4.687154754667774 5.975132870483986 0.0
6.268889397098538 6.592235545990395 0.0
7.509366161722768 8.340075462391164 0.0
7.564775703413765 8.59800936579159 0.0
9.542148732924264 3.854614593058991 0.0
7.036231103929761 6.550562550831048 0.0
4.089373665437328 2.268193930262139 0.0
3.642558884866483 2.250386188148396 0.0
3.442182385618804 2.651948803899947 0.0
3.146832503011753 2.222630466765926 0.0
2.948870467975985 2.805088883766417 0.0
9.352005315330274 5.067356449300542 0.0
9.31729677031493 3.462944187594675 0.0
9.37428383619102 3.365546369736205 0.0
9.4883538239391 3.365384871181599 0.0
9.432147665178338 3.267287636377487 0.0
9.25034519267688 7.775848812012313 0.0
9.332091350002502 7.881724023243533 0.0
9.462101000264603 7.86490055671988 0.0
9.413353271651825 7.98561007219363 0.0
8.273592814723814 6.158623919352561 0.0
8.207135014732339 6.280394934566054 0.0
9.541483811580331 5.548224291759592 0.0
9.491365919893726 5.644847811894615 0.0
8.088095771120983 4.577581369371366 0.0
8.14760102783746 4.468303741922308 0.0
9.556217963323956 4.414867468889523 0.0
9.543667331547693 3.266908751519594 0.0
9.489307652535885 3.169908976697059 0.0
9.26285575842982 8.635341362685686 0.0
9.403220742003983 8.621447866627538 0.0
9.326013417886902 8.506778946171965 0.0
9.455477927154853 8.503896705359047 0.0
9.566646674069602 4.611465258087684 0.0
9.499341049870914 0.9352184973273918 0.0
8.683891958597638 1.444705608998412 0.0
8.599973456173778 1.287265568270043 0.0
7.760988189317371 1.175381292562583 0.0
7.50927661322749 1.171223823957793 0.0
7.380927152434357 1.411062577009695 0.0
7.242417847270241 1.170759311509981 0.0
7.107236746116019 1.421234419770886 0.0
6.960799033544566 1.169618322344823 0.0
6.817786081200392 1.434174581170586 0.0
9.48095050141868 8.738557748483624 0.0
9.319762046171894 3.263060331456388 0.0
8.920653400180534 7.117307656029475 0.0
9.452431221190624 6.544166520883111 0.0
9.571407933653493 6.540336592280795 0.0
9.507586285214174 6.443281357841339 0.0
9.575252974749443 5.070210512157044 0.0
5.755172844377253 6.370710487467459 0.0
9.541351959064952 7.969072511059531 0.0
9.354607289792183 9.3921968735401 0.0
9.495213435762107 9.37218405175897 0.0
3.77688136092967 3.643094492921176 0.0
5.460967180339239 6.159077196937325 0.0
8.656589552918996 5.283032675040985 0.0
8.599307076390474 5.387421722684671 0.0
9.584017606465821 5.263931993965828 0.0
9.51536593891754 4.977534386249715 0.0
7.788544970111893 2.70578432810479 0.0
7.381746833264364 8.755477463411431 0.0
7.615969996822885 8.852710176548548 0.0
7.783643411970649 8.691528137204457 0.0
7.845017394185501 8.938777577473743 0.0
8.570520580943368 7.342304222498308 0.0
9.103648004226827 5.781084627507008 0.0
8.338082930126799 5.815990105349368 0.0
8.930848895071895 4.561111316304916 0.0
7.381089602119859 5.983657236035151 0.0
8.42066837692862 6.393608568217351 0.0
8.888256157021065 6.459558428285236 0.0
8.826495664731354 6.575679897210801 0.0
4.22522220414496 5.921354747981145 0.0
3.943296448343383 6.075578573904587 0.0
9.563175937841836 2.554860696349795 0.0
9.505342423182917 2.656889632284623 0.0
6.660863480070611 1.168750929063519 0.0
6.518316961679488 1.436478598119306 0.0
6.683474168246802 1.694104067636375 0.0
6.376799057174731 1.707382100972048 0.0
6.205091481342603 1.443621641108414 0.0
6.058670988071357 1.728841803855816 0.0
5.877457486049096 1.454297236926778 0.0
5.724979192982589 1.756666409586195 0.0
5.529885788012015 1.462283739157555 0.0
9.514953777019835 0.7018468683209754 0.0
8.398665270372675 5.702731562702358 0.0
9.456442249775696 0.5772068858285652 0.0
9.565795671866349 2.345573662774494 0.0
8.830758563027459 9.247271599108435 0.0
8.523580738257648 4.88015211128435 0.0
5.580123316488715 5.701889892660689 0.0
5.398591029446707 5.685938459654249 0.0
5.367686360823392 1.778740548277203 0.0
9.546603444041448 1.754984055696778 0.0
9.489649223089446 1.641312329051244 0.0
9.617973952467912 3.363804764345866 0.0
9.584322830999731 6.729956156156573 0.0
9.597221861144487 3.948534024289882 0.0
9.49401963819799 8.089507968561776 0.0
9.207321074262563 9.416906871900888 0.0
8.27185428346661 4.464932191097996 0.0
8.207416067213774 4.35878753684812 0.0
8.332747746635944 4.354903699457511 0.0
3.990181919126853 3.930792395858886 0.0
8.267392138262498 4.254008221702929 0.0
7.997788712685495 1.196805377512679 0.0
9.600316638269724 5.639973985281733 0.0
9.550939606739425 5.737313319038155 0.0
9.44084303195315 5.74233753256161 0.0
9.50112296154558 5.834555019909565 0.0
8.897429225733994 6.685415510921676 0.0
8.762930941408914 6.695907295903629 0.0
8.654628175336732 9.278157371342388 0.0
8.544676900803436 9.133790942553834 0.0
5.294904777716057 5.855935872688884 0.0
5.216749389964556 5.66865685845661 0.0
9.508453581298625 2.239460033375932 0.0
9.599691370793206 3.169496930704394 0.0
9.546615051106684 3.073514534194011 0.0
7.484714626923596 5.028675123117963 0.0
9.588496050271255 7.850836295555126 0.0
5.153197381012662 1.471340286561097 0.0
9.433168304679345 3.071871997104804 0.0
9.610464706874994 5.829217654498672 0.0
9.561407772947403 5.926179534044419 0.0
8.273381980676042 5.705233340662362 0.0
8.330794188929296 5.594351887246082 0.0
8.207319603076424 5.596747949305344 0.0
7.251338559467102 5.233758892662348 0.0
8.708518799790543 1.130513882092466 0.0
9.590155250193266 0.5878623138195824 0.0
9.389919385420015 5.841079912164009 0.0
7.991397852194216 5.859910582924319 0.0
9.624951589233206 4.975554514425905 0.0
7.240016788025947 2.531866266726309 0.0
7.635666783493215 3.873554782053258 0.0
9.608476620993713 1.863530872936442 0.0
9.365330459496413 8.10677840682376 0.0
8.775076110585598 2.572737931759856 0.0
8.699389445914996 2.444602334375113 0.0
8.625078713232146 2.580891022578613 0.0
8.54447196848446 2.447624719286678 0.0
8.468898498943965 2.586757328881282 0.0
8.62282309213608 2.307826916202421 0.0
9.622102662978762 6.439307895185218 0.0
9.561995355724862 6.35103962032292 0.0
3.898245450818314 1.856155797593496 0.0
9.681759177700954 5.07069253017652 0.0
9.059254996454502 4.963357716933865 0.0
9.113144532326562 4.861710138088372 0.0
9.62140874877204 2.656009146517733 0.0
7.884510615470827 0.9666888912541309 0.0
8.14902661050739 1.005010215149227 0.0
8.491263206618079 8.527197931363634 0.0
8.408859203395778 8.697060715788105 0.0
6.54422152733529 1.954566069381189 0.0
9.563546573097593 2.755667904356369 0.0
9.453065492925557 2.761122255953964 0.0
9.676889098520615 2.755084315170127 0.0
9.678287124781653 2.556838324720633 0.0
2.60254317790297 2.278874965850319 0.0
9.211706272534968 4.050470567310489 0.0
8.526711683538949 5.698821878547752 0.0
8.296604023060945 8.533761944401608 0.0
9.649704314258118 5.543946557831669 0.0
9.651176136337964 3.85122804518279 0.0
9.44590154800397 9.498503704959054 0.0
9.580491248736612 9.476376347552954 0.0
4.3239388803087 3.921156392977062 0.0
9.65737873521736 3.075324100817917 0.0
8.128000846282253 6.160273991836929 0.0
8.06242981852327 6.292371360998262 0.0
8.500465019503922 1.442700595221201 0.0
9.615253212967009 1.649819368149096 0.0
9.561768620580791 1.538553925606111 0.0
9.435477757657937 1.527391516499924 0.0
9.627993450010088 2.242685831452484 0.0
9.5338252733548 0.4673994795805215 0.0
9.398055066504014 0.4589059948533885 0.0
9.669486082509058 5.920177035588319 0.0
9.621072177439727 6.016493814615133 0.0
9.506185962103057 6.018397021409126 0.0
9.196884440497488 7.898824858961557 0.0
9.112591143666748 7.789491461180181 0.0
9.664357762385308 7.950712034233033 0.0
8.46233617997115 2.308903464128035 0.0
8.547917980328803 2.169381684694277 0.0
8.139931430059324 6.410762600521521 0.0
7.672499127532963 9.099143622036436 0.0
7.91372855627271 9.178704612763656 0.0
8.463425076318451 9.290653726808348 0.0
9.643938029094286 9.335632419679458 0.0
9.647017668702574 0.7068996148634754 0.0
6.241662276606473 5.884018212993202 0.0
6.157742245066693 5.73500474100449 0.0
6.318815619949124 5.730068085823802 0.0
6.247706374231452 5.593094310939028 0.0
6.406948541886973 5.593272398468375 0.0
6.092564106310554 5.587409338401505 0.0
8.535507922245372 5.286142900439676 0.0
8.022959839404006 4.471630490587016 0.0
7.963561162854596 4.581393556789843 0.0
9.683487139413305 1.546750704925431 0.0
9.630761777960082 1.435922217091829 0.0
5.121714348989337 7.950140247572198 0.0
5.136464096196084 8.310254432483559 0.0
5.47349124035624 8.455234262268478 0.0
5.176273618280354 8.687190323573228 0.0
4.796664658962938 8.592678692862421 0.0
9.568705729418735 4.887269869750176 0.0
9.462711651199594 4.88832222094458 0.0
9.674903475028225 4.882285174433025 0.0
5.4996067353406 5.546583260717527 0.0
5.663632234555963 5.557613452957074 0.0
6.829408195405585 1.947174574944512 0.0
5.336529198289861 1.127585641139875 0.0
9.672387559812332 6.34138351957329 0.0
4.463988917379896 2.271060678869338 0.0
8.618048281355405 6.263841736419089 0.0
6.480949808711781 5.74815588680617 0.0
6.562207427719153 5.592185077216444 0.0
6.643040463857446 5.721233693378952 0.0
6.712825900331884 5.588664360236 0.0
6.79240375630333 5.711383948285569 0.0
6.86115931532141 5.584697050428064 0.0
6.939210100691576 5.704407337029545 0.0
7.007668476576536 5.580801046893123 0.0
7.084627386867475 5.702817970154801 0.0
6.633257976075473 5.460881327825488 0.0
6.931430743764456 5.461960451448691 0.0
9.682652370938209 6.533133024505995 0.0
8.761108695241376 9.450742747770144 0.0
9.146031326900015 3.764292700000154 0.0
9.089378801805193 3.661317181076136 0.0
9.514354521818781 8.994988681611192 0.0
8.157650730500988 4.262987189670279 0.0
6.329633198899328 5.4647789391701 0.0
2.340685767996258 2.811285337457589 0.0
7.379572471323651 0.9290892725587991 0.0
4.171878172186605 4.222320767259098 0.0
4.4876601621649 4.16473354200826 0.0
5.336389369563535 6.806464508860387 0.0
9.595468321212476 9.108133206829102 0.0
9.645038675267227 8.982113951305912 0.0
8.393140678816192 4.246338342095281 0.0
8.309440721624494 4.155300532283633 0.0
9.418269339704423 1.9925512363779 0.0
9.662781807969623 0.477809346089035 0.0
8.011297869803792 0.7518828483803571 0.0
8.250149975885678 0.7646904662196189 0.0
9.608674873602773 0.3618049194050078 0.0
8.692696069692623 6.582927327365709 0.0
8.628225948401226 6.705702462696891 0.0
8.701883181418305 6.822086652299242 0.0
8.559276855155542 6.829564723911442 0.0
7.069268463354993 5.459534423493629 0.0
2.654575201159115 3.323490466195074 0.0
3.610801136544596 4.044075244426243 0.0
8.263757217166944 5.48730323490738 0.0
8.138838162809126 5.491254533497952 0.0
7.90196833683664 4.477386962763833 0.0
7.987943097943191 3.978756490171551 0.0
9.704623491880403 3.945605151832784 0.0
9.461009573830147 7.301728818091931 0.0
9.532468631193666 7.399916015174975 0.0
9.582688928417856 7.292330983701011 0.0
9.652579613269625 7.387768793572397 0.0
9.699264016151023 7.282867433965265 0.0
9.633305589700536 7.188543855060478 0.0
9.505576100168666 6.961225778216469 0.0
9.43876966151099 6.342441564206569 0.0
4.908483672172518 6.098703904450545 0.0
9.135448256237908 5.269827196966999 0.0
5.905650502271389 2.025036080946255 0.0
9.709890722072377 9.452748507541063 0.0
9.663337613522643 9.572126259365891 0.0
9.603900123387826 7.495180532331903 0.0
9.720147629525837 7.483400774981126 0.0
9.674588415444239 7.588303295299578 0.0
9.653186673863587 4.039274180923234 0.0
9.053164539680804 4.764545162185531 0.0
9.164908495749003 4.763017269285045 0.0
9.226019227262443 4.858029410614327 0.0
8.809947621994619 3.4964384919072 0.0
9.10538997155458 4.665865142902959 0.0
9.331074106432244 5.748993480915537 0.0
9.055854333858068 7.918554535314415 0.0
9.446431573964945 8.209836764658437 0.0
9.573844810886287 8.191100251691205 0.0
9.309704769895653 8.244395007943949 0.0
7.240329561730736 1.676197957122907 0.0
9.543389817573933 3.660019800390455 0.0
9.598599341122098 3.563130123982772 0.0
9.652615161407017 3.658119804270645 0.0
9.706336063693934 3.564815526226687 0.0
8.632284427755456 6.946688912416058 0.0
9.682863230715835 2.349655023034811 0.0
9.571538455120994 2.142369886250143 0.0
8.090821900439733 9.017409120951333 0.0
6.812258669899192 0.9007667548831626 0.0
6.50135254578461 0.8974046495177885 0.0
9.598335906230732 6.246437748035812 0.0
9.719677442549804 6.253968775436637 0.0
8.593026822691716 5.180101360605356 0.0
5.537586126848265 8.836083861509138 0.0
9.688689404995035 2.143487155934306 0.0
2.821389253975936 6.507820864074362 0.0
9.176571289960709 8.507736431357309 0.0
2.918303740542162 8.256728920338826 0.0
3.428955230180972 8.401446814887457 0.0
8.490587404589881 6.715350139132777 0.0
8.86049054904785 7.243279881821806 0.0
8.93696309213556 7.356650230611625 0.0
3.951931175165697 5.78308550088855 0.0
3.65055612573298 5.91672400098539 0.0
3.668142216548471 6.247526235973777 0.0
9.717269848920886 5.821831227352286 0.0
9.708364917734201 3.164198601626433 0.0
8.45581975650687 4.569560863828342 0.0
8.204448312099833 6.040774355519757 0.0
8.65969449127868 5.485991799508151 0.0
9.707534571012967 5.634423933296901 0.0
9.62102991883279 2.849662850313935 0.0
9.144093558002634 3.560383427867003 0.0
8.29763273805118 1.77155302934031 0.0
5.280452715709455 9.01633391004168 0.0
8.984558945859158 6.99932633710603 0.0
8.4157550875812 1.275784953143711 0.0
2.068078118650995 3.355462780535101 0.0
9.205703884756806 5.568274778556933 0.0
9.745857863753141 7.178456670302003 0.0
9.681628895748586 7.081494416756802 0.0
8.875818787971069 6.240744812097083 0.0
7.993733797566922 6.414830952863579 0.0
8.462810157069566 3.377071044664789 0.0
9.29428363519789 4.759591981903337 0.0
7.933956818298286 5.97437536746848 0.0
9.028281726378319 3.558713145763133 0.0
9.083461773461467 3.455531762175701 0.0
9.73231939683535 2.849247643393067 0.0
6.70072305037728 2.192432536215492 0.0
6.423245125077639 2.212870246546939 0.0
4.931537051605536 1.135086496804522 0.0
4.746426561586179 1.500381091957315 0.0
9.707706579932626 7.836419656220658 0.0
8.590593344701457 1.595639668013959 0.0
8.708946574109854 2.1688179918246 0.0
8.634728854549891 2.028564483452208 0.0
9.230357659411311 8.129337203173913 0.0
9.102841374461482 4.452881308250647 0.0
8.472081531214734 5.388993924853032 0.0
4.925996806199801 5.844046944846857 0.0
4.702806345752284 5.745688656289065 0.0
4.884357002239844 5.633237011762874 0.0
4.709628434300812 5.536404116679045 0.0
4.530800966746534 5.627044171217377 0.0
6.040296145349247 6.603808099703576 0.0
6.162203578696918 6.795213950202512 0.0
5.923135943221574 6.824060069869489 0.0
6.046693245732212 7.010423490915212 0.0
6.297337598588478 6.979895528204233 0.0
7.760448385794147 0.7294020304851334 0.0
8.492228348169641 6.958778476405878 0.0
2.89219822877093 1.704113597264478 0.0
2.26178643438086 1.7814602252425 0.0
9.726968895980871 6.009547057102511 0.0
6.63195110828313 0.6072886418835157 0.0
7.984023036954866 7.515675826210831 0.0
7.893857204140559 7.681876703427663 0.0
7.778465117872411 7.537836322197895 0.0
7.998204230811618 7.844922503023499 0.0
7.798554315988981 7.858161805718108 0.0
7.917846202023782 8.03040048103727 0.0
8.547520504556728 2.721261126162116 0.0
8.39253850806587 2.732073315877738 0.0
8.306047241032278 2.59069854402512 0.0
8.233011054235162 2.739783364361515 0.0
8.318836035587811 2.879838477099622 0.0
8.159530874574331 2.888511553151382 0.0
8.245490421394788 3.024568439743106 0.0
9.759103003747676 3.077839427881478 0.0
8.083610090773394 3.033523757291178 0.0
8.174562583800352 3.166768504406541 0.0
6.046769434852523 1.155662270344939 0.0
6.968371001421964 2.176347877216873 0.0
8.324858098380334 3.152966249334499 0.0
8.145556596142626 2.609897633546475 0.0
8.970652052821418 7.804556541250797 0.0
9.033737629244714 7.681328986528639 0.0
9.62347010002576 4.796939565664328 0.0
9.72520380348743 4.790261082613535 0.0
4.882631186210167 5.455006233451049 0.0
4.618356368594037 3.933076284395493 0.0
4.748083507220199 4.151025177732873 0.0
4.641724290430313 4.358202249373887 0.0
4.87055838101999 4.337900676660481 0.0
4.974114446887331 4.149149057174687 0.0
5.081577844806959 4.3240148266423 0.0
5.179521650033781 4.148725180298481 0.0
5.276261408871418 4.316673822529601 0.0
5.369189110897883 4.148362797753505 0.0
5.463892033849439 4.338819369807593 0.0
5.550828466075906 4.146274465971151 0.0
5.646554822352869 4.303571429647391 0.0
5.728109623160046 4.138582010823754 0.0
5.821689108984419 4.291959598724587 0.0
5.906082534948073 4.141649907302701 0.0
5.99655838673762 4.288752711512514 0.0
6.077312859438928 4.141011188943332 0.0
6.164215275138099 4.281164574562373 0.0
6.241782344986693 4.140701084167517 0.0
6.324316420613108 4.277393447415522 0.0
6.40284165425941 4.140026953305852 0.0
6.483655157361099 4.273418937894759 0.0
6.561170698911611 4.136221843106807 0.0
6.63512300179586 4.269917278694155 0.0
6.720306110251473 4.133393659385058 0.0
6.63777078218551 3.99617001426095 0.0
6.802492763973074 3.994355399489989 0.0
6.798834760478153 4.276914787769972 0.0
6.15377608509923 4.000134206628027 0.0
6.548727135071258 4.400510710520637 0.0
6.251479300130713 4.421887359316258 0.0
5.275876048175579 3.979624500657822 0.0
5.910905077162284 4.431174408784691 0.0
6.717070288412452 3.851239795555301 0.0
6.883499045994213 3.852555480300214 0.0
6.96664848901999 3.994033961856844 0.0
7.048208567116626 3.854750001965969 0.0
5.810004974283072 3.982497501655442 0.0
5.586615391658107 4.471070246359201 0.0
6.547331954052155 3.853872077215347 0.0
5.179081233207816 4.485638492900557 0.0
7.126615227065496 3.995337770596979 0.0
7.209459742762513 3.856893463870469 0.0
7.130226097876905 3.713620439679428 0.0
6.63075064074106 3.699684148676045 0.0
6.446985573861992 3.697358756862005 0.0
7.043151422977365 4.131713936060725 0.0
7.198322215260019 4.129850614748363 0.0
7.119378405252723 4.26005098890218 0.0
4.797146270976422 4.525762781577414 0.0
4.608329098388589 4.573584257851931 0.0
7.294442092743627 3.720853338661503 0.0
7.215753312764997 3.571378507508807 0.0
7.049631633956289 3.568047985538775 0.0
7.133765707749521 3.414282375958479 0.0
9.755079417839903 5.539705890434435 0.0
9.698955703441971 5.450920012703194 0.0
9.717604099406742 9.09084770432896 0.0
9.276716006673976 5.847248422342224 0.0
9.339081208926798 5.941174203394446 0.0
9.031261921742963 3.750271483819014 0.0
9.08721978689863 3.853416037308712 0.0
4.801461566647803 7.510704110489921 0.0
8.206553504932042 5.818005960412773 0.0
7.362361315389098 3.863102442315545 0.0
9.492826845316191 2.963845037486267 0.0
9.376710375304633 2.97229517374228 0.0
9.3192743723601 3.070687802230453 0.0
7.915389082113898 6.293241865913004 0.0
6.735006382384437 5.832450056405368 0.0
8.456481836836168 4.35369289249905 0.0
8.517718268476031 4.246675068616396 0.0
5.583512022030555 5.411069060406398 0.0
5.73625200174779 5.422617752052123 0.0
5.81006929286229 5.548584937688919 0.0
5.903438861894402 5.420604003204523 0.0
5.43801870974416 5.402925156167655 0.0
7.022641548594327 5.825217331839047 0.0
7.165095795605366 5.826005223633447 0.0
7.223078558430726 5.690146755650336 0.0
7.841396000338385 4.586693006493787 0.0
7.904793170875705 4.690826189066096 0.0
7.785999820520073 4.696719777099973 0.0
7.846448506395101 4.798518978096564 0.0
7.728149182067156 4.803800941124008 0.0
7.788983823826226 4.904802634695232 0.0
7.672018889153144 4.910077510508749 0.0
7.731996012352178 5.014717724244488 0.0
7.852072803124419 5.00743796185411 0.0
7.779278698005006 5.118909346425974 0.0
8.088113864063853 5.605434545811022 0.0
8.016457362785575 5.494849890158723 0.0
8.072290383394757 5.385594956317259 0.0
7.95068657972964 5.38825563681957 0.0
8.309366678475389 1.438342408757099 0.0
9.748160780780179 1.447794693754379 0.0
9.696454228162398 1.337889922375316 0.0
9.568813761940916 1.329560834053294 0.0
9.638326779791626 1.226729570935787 0.0
8.472132467407484 5.182856496818138 0.0
8.066211547412054 6.53691730655352 0.0
8.217035586462373 6.522976700918602 0.0
3.544839338670893 3.324491119989469 0.0
6.999740002965287 5.347729916247808 0.0
6.874544698914502 5.347027470386579 0.0
4.880451234715014 5.193043717957879 0.0
9.104510033763066 9.313204713465637 0.0
9.0466357104558 9.45359399494339 0.0
9.146803165140184 9.569652364413551 0.0
8.134107047896672 0.5527712356100052 0.0
8.369770412730738 0.5571215815175228 0.0
8.47386979744655 0.7564607169846485 0.0
8.585193608569258 0.5749174254532757 0.0
8.683868132726584 0.75505070091701 0.0
8.787381435061018 0.5813987798627239 0.0
8.697570280442534 0.3771156480326233 0.0
8.530048434259976 5.077280516000916 0.0
7.995091351438729 2.90367515012593 0.0
9.731083608815164 1.662638626153251 0.0
7.260488865351954 4.255073962371814 0.0
9.760728358076392 8.990038509880067 0.0
9.716710396257366 8.884160310398862 0.0
8.794627466210242 7.369659405098349 0.0
8.868068657550866 7.515048014893154 0.0
8.702594597629135 7.510501129643432 0.0
5.132320689147051 0.7610757801158905 0.0
9.755852887652699 3.853180024615871 0.0
9.787424819067885 2.757921105725315 0.0
9.731193479931608 0.3736343090103709 0.0
9.796526908308536 0.489684029254899 0.0
8.226019692057042 2.453349105940535 0.0
4.560989821496479 5.428206018250252 0.0
4.348810639659689 5.517048281386008 0.0
8.785190163106925 7.119142251269924 0.0
9.015515413043023 7.464769766852701 0.0
9.754861440190705 3.659036930324926 0.0
9.7543610723378 4.033687839160082 0.0
9.707881226943384 4.127219992296752 0.0
9.52841017383273 8.309020665649431 0.0
9.65186044414544 8.289498614805698 0.0
9.714051275521857 8.173576484362068 0.0
8.209758892476394 8.715513071423135 0.0
8.097084883671858 8.548851201381087 0.0
8.177989947800599 8.367872862579052 0.0
7.974142434808908 8.36779470623567 0.0
8.409012054919861 2.142624252464372 0.0
7.707002321497132 8.039129945341395 0.0
7.574653123518228 7.83895791570255 0.0
9.229858094382692 5.951357214361815 0.0
9.75307989876696 1.229893222503321 0.0
9.715811155868643 1.128779429890018 0.0
9.597960915003707 1.117058287635912 0.0
9.672063923518955 1.020806103150243 0.0
8.99090422125785 9.593878510105375 0.0
8.133165456134304 9.257620998029804 0.0
7.976779931497633 9.420725324095141 0.0
9.77231778617502 7.927819487779705 0.0
7.957213679655531 4.364530256281665 0.0
9.609903116082736 8.403725680286847 0.0
9.724891358972584 8.388392708395173 0.0
9.687487059868507 8.495935345161797 0.0
9.810055520269009 8.494090598382963 0.0
9.755967487162335 8.599790818513082 0.0
9.645698986824481 8.606121319182705 0.0
9.721376049217765 8.699989876681524 0.0
9.773009257015609 4.884557953188837 0.0
9.830105798750992 4.796546393900876 0.0
9.775335108731761 4.686093304257503 0.0
7.455611517737074 3.730099283949135 0.0
8.906943567829634 0.4197477661467797 0.0
8.980613334153533 0.5814185917581446 0.0
9.081059111759728 0.4263421860552371 0.0
9.821654809259165 3.576985724143072 0.0
9.761309244784803 3.4792267780002 0.0
9.763329553045937 9.353068233045157 0.0
4.463051839136694 1.164440352584939 0.0
8.0213168204867 5.283436382300235 0.0
7.89385412333227 5.290429544753158 0.0
5.806940001023414 8.583716119232427 0.0
5.88977793877374 8.96065112858812 0.0
9.177759062826041 8.25539130897928 0.0
9.626582559276994 2.05283181283147 0.0
9.747673294325121 2.064954301745188 0.0
8.775905508647185 6.951821187702613 0.0
2.3581644273991 6.029034686663493 0.0
9.777798009058461 9.548066962498762 0.0
9.737129197219856 9.662299853506903 0.0
9.615080366030512 9.683349544763068 0.0
3.315839678697904 6.042943273456425 0.0
8.915083018115329 7.937748428923896 0.0
9.489832173860055 4.712364754630572 0.0
8.118313727862493 8.013944064029838 0.0
8.902248750797776 7.67372145952523 0.0
8.954075939212636 3.463080912810881 0.0
9.45247551997678 2.133243108303608 0.0
8.311151553157742 8.899233004613622 0.0
3.28672004268868 6.826745674539142 0.0
9.86008383798735 3.468233656255824 0.0
8.389990589860254 1.947086063498656 0.0
7.144231739553659 5.329544660076687 0.0
9.654500729007207 7.743301971143119 0.0
9.761920842881946 7.740144345898896 0.0
9.692820773976567 0.2651585113981998 0.0
9.690951720399688 6.100517071814821 0.0
9.775704281989471 6.077882312279847 0.0
9.823117117198079 4.115168542267924 0.0
9.764391943581737 4.214465954230587 0.0
9.659455011849253 4.218716850797838 0.0
9.713462125022623 4.30742830316693 0.0
9.849638067150842 4.208845651573708 0.0
6.376241713254513 3.858766051594979 0.0
6.274931849158213 3.701528298009006 0.0
7.097780104117746 1.926449727602711 0.0
2.457742027508782 3.810157622192786 0.0
2.963634206580268 3.740748099915693 0.0
5.065585416063965 5.544355730437482 0.0
9.783560252464587 7.566507987677117 0.0
9.825819294611026 7.470942204664841 0.0
9.799976114123012 1.01659516618323 0.0
9.745559590633832 0.9150866860898854 0.0
8.20473400632469 9.495828670767946 0.0
8.784586030320169 2.054461500762216 0.0
8.758471587067168 1.888286802854785 0.0
0.9188935087347281 8.510730800272478 0.0
9.674192026048217 9.20389587377276 0.0
9.796314981283475 9.185916994648775 0.0
7.206882433199502 5.452024361489832 0.0
9.773927048949279 6.334665846819535 0.0
9.830288393591173 6.225300227041885 0.0
8.25177349297509 3.282767705830209 0.0
8.099233469407428 3.304040153764131 0.0
9.607860512870598 4.315652630490023 0.0
9.403674738018715 8.367349042046314 0.0
7.611756786273919 5.018691202305147 0.0
7.549513964643336 4.923310232561835 0.0
9.80986724662116 0.2915868356190958 0.0
0.7757562810577034 3.504187313079081 0.0
7.659562100664981 4.698467529240196 0.0
6.539424975891206 3.541729955691742 0.0
6.717348880400739 3.55221857686142 0.0
6.836337579501807 2.417476958454302 0.0
7.096480496160066 5.959124656438389 0.0
7.189742782777612 4.377051328076039 0.0
7.051723187622053 4.38470822973091 0.0
7.125489805519186 4.497018383456762 0.0
6.994915621927777 4.501504591168814 0.0
7.056755276274058 4.607929817497045 0.0
6.932937068803914 4.613249390039674 0.0
6.86629288290367 4.50541343988659 0.0
6.80427099775847 4.617607827251794 0.0
6.739195362053689 4.511124964201849 0.0
6.677260697693361 4.624288827143181 0.0
6.996760608675822 4.711715831373894 0.0
6.316045249462968 0.6456945497683586 0.0
7.321834163850416 5.816449323512759 0.0
7.833101485370825 4.390058096386987 0.0
4.996572652976738 4.498711166259074 0.0
5.112334577457371 4.663858846723513 0.0
5.271923064784868 4.629759173373871 0.0
4.93773508827367 4.668006487116195 0.0
5.348137647919096 4.485934621930562 0.0
5.413454827497575 4.62999925573761 0.0
5.356581113747675 4.770594395332836 0.0
5.013422223730484 4.793321773780133 0.0
8.58674425943957 0.9312335381466886 0.0
8.776450596582496 0.9362399987293505 0.0
4.783496233934828 9.486061758876032 0.0
4.544176394620909 9.034071856445296 0.0
4.082330493623582 9.015765881393772 0.0
9.820867469965414 7.285959215547852 0.0
9.852697883440127 7.166089674802766 0.0
9.260999083164238 2.971390964911171 0.0
9.197701900169713 3.073162109379564 0.0
9.31960210441945 2.867465579641856 0.0
6.660951583415121 3.383363199709994 0.0
5.210469976037585 4.761678854423166 0.0
6.740780285297665 4.733615686805694 0.0
6.611362405615225 4.731958642073806 0.0
6.549091884465382 4.629620704100811 0.0
6.491761716522486 4.733409494449344 0.0
6.425259228542098 4.640546096196947 0.0
9.715556659367534 2.986725573570596 0.0
3.710524324925069 9.463213827486557 0.0
4.768537031214573 4.727001037865238 0.0
5.039413681704655 5.378508462165627 0.0
5.188746429211535 5.440476671296013 0.0
5.172214816037712 5.298914527247826 0.0
4.469063601436893 3.667917323494335 0.0
3.799121596584382 4.741629285988305 0.0
3.661085664896249 4.442847704416992 0.0
3.316563386321876 4.380147387454913 0.0
3.802087298647255 5.26743535640985 0.0
9.738116341343215 8.047178982429934 0.0
9.85106076399546 8.021725551312715 0.0
9.837581050304836 2.844176011307251 0.0
9.664579962075123 4.402853107737106 0.0
9.76433159763034 4.39807801415352 0.0
9.718924973226878 4.487825491046641 0.0
9.826405563645343 4.494594135148365 0.0
4.931068003413168 6.359330991212394 0.0
5.130175746947236 6.201075257041828 0.0
5.143884286052002 6.445382329515047 0.0
4.953395875296406 6.628748468717369 0.0
7.833019185167153 5.400347121613631 0.0
7.766636138801143 5.313240048256084 0.0
9.767038723422333 4.578090619166644 0.0
7.315369355237483 3.441501197259575 0.0
9.556068971301514 0.2347811136726856 0.0
5.733871280791703 4.444861510772459 0.0
5.828809543126846 4.569791247698539 0.0
5.986701526182213 4.562881783985375 0.0
5.912543327921148 4.692966271273211 0.0
6.052130330528581 4.682477327897978 0.0
5.773525984744635 4.697697018456535 0.0
6.121646311546238 4.572302645403103 0.0
6.182349700936326 4.67713231096357 0.0
5.846371383601797 4.808939734754761 0.0
5.117807918383606 5.974361363083184 0.0
6.256132501905665 4.575863546153224 0.0
6.324770064521816 9.645040261272253 0.0
7.345522892050965 4.12581088034536 0.0
9.338523512844539 4.854480276600515 0.0
9.286984287289403 4.959628690044808 0.0
5.676298026114105 4.589279806918992 0.0
5.631257891894775 4.722749088404111 0.0
7.970415275563177 5.621040275419208 0.0
9.565118337557308 7.081391220827488 0.0
9.626201005045262 6.980441083020495 0.0
9.733729506193331 6.979928568877979 0.0
9.684556253529976 6.887102896543928 0.0
9.780785815410074 6.890287441101827 0.0
9.740054813822885 6.794211367612523 0.0
6.462628988057306 7.629921412015864 0.0
6.692564520952154 7.473594130811262 0.0
6.927983108788191 7.570982428592125 0.0
6.899878641134941 7.329306734748538 0.0
7.117542472438434 7.416951094809493 0.0
7.089537168123128 7.186691566729968 0.0
7.296585396514727 7.275888419524222 0.0
6.879678873774065 7.097443005287856 0.0
7.063454637059129 6.967740076426161 0.0
7.329105042924355 7.496317641003757 0.0
6.867084781778411 6.878842928865059 0.0
7.494278796275744 7.351949197351029 0.0
7.462564159480594 7.150140034494138 0.0
7.644835001206406 7.21506678718646 0.0
6.682478929414216 7.008358327294905 0.0
6.449199855715812 7.365660640952548 0.0
7.548139855358765 7.57299228324251 0.0
7.008502809092701 7.844601794812628 0.0
7.371739019901781 7.707688433423657 0.0
5.665345294602155 5.290628720253272 0.0
3.987583013016546 4.486920698115711 0.0
8.893480480320447 0.7785000884179994 0.0
9.715485963651112 0.5955299613117169 0.0
9.761785841543585 0.7048670948649375 0.0
9.670304314877074 4.578896619304786 0.0
8.058509626083154 5.744161686650483 0.0
6.181795443628869 5.462040811515966 0.0
6.256771804808641 5.338464817889848 0.0
6.124070400983443 5.352376180901929 0.0
6.399679261813415 5.349186390888865 0.0
6.477776305607503 5.46505688468465 0.0
6.541624525938461 5.346017118512589 0.0
6.673064575428321 5.339051516933525 0.0
6.599301548842115 5.241958624987057 0.0
9.573774011620444 0.815274945835158 0.0
5.86493292693426 5.877588788523632 0.0
5.552663040119136 6.957487930464628 0.0
5.535080960199246 6.663033131707637 0.0
3.708603689392072 0.5979254716153909 0.0
3.31896983256719 1.188583855309964 0.0
3.895664898001925 1.128137111173669 0.0
6.363360407965353 6.032416442205533 0.0
9.445959758065749 1.070139246426051 0.0
9.50632172780449 1.214052376665338 0.0
9.441030033980638 1.325047485624912 0.0
9.295799464644857 1.341410624832976 0.0
9.184164107767781 1.461677744200096 0.0
6.407191016756832 4.407273313799791 0.0
5.544591888593027 0.7652641669375747 0.0
7.883090151006535 2.497506182548758 0.0
8.073420508370992 2.120510489750234 0.0
5.494822040671399 4.732314720081375 0.0
0.8986976806403217 1.464611451578306 0.0
9.536325549598013 6.83286654168725 0.0
5.972289519322897 5.727532110854501 0.0
9.82203607053145 9.443411729566549 0.0
7.263199949874008 7.064207941227515 0.0
7.233659553805083 6.853135694774254 0.0
9.793310082768443 7.072747972018893 0.0
6.734168931095253 9.67499220075154 0.0
6.941134861034159 9.382328333169653 0.0
7.285822522704258 9.443989747444657 0.0
6.576263515512108 9.333035011158342 0.0
7.160560566479093 9.127732577621245 0.0
6.218711947378506 9.298064908857533 0.0
6.432383355119106 8.980985203293491 0.0
6.795390278360442 9.046043538032663 0.0
8.54677014121837 0.1957422484480979 0.0
8.528696320820908 9.804850950580938 0.0
8.42644965647489 9.604735484095604 0.0
8.010239224104339 9.715048083583248 0.0
8.644359648763341 9.628432815860457 0.0
5.344212921686536 5.526744195650314 0.0
9.760936589662048 7.38409687515441 0.0
9.128187788393989 0.1445485608215519 0.0
9.133307661752394 9.854833215426817 0.0
4.867351616228264 3.944459575003425 0.0
5.905323253270366 7.385600364255367 0.0
5.909045412185362 3.361969954191194 0.0
5.80580919758911 3.569999290452344 0.0
5.578230704221431 3.587842862412673 0.0
6.013352753603037 3.550699073477782 0.0
5.936624955014758 3.721630401607248 0.0
5.735413275357409 3.78528948606432 0.0
5.512538847486775 3.794760621907932 0.0
5.360571639388366 3.618649018042938 0.0
5.134141179590394 3.459385929220745 0.0
6.167399567008798 3.367365990358096 0.0
9.766756262206602 8.291756450136036 0.0
5.486063578307141 9.64505925252771 0.0
9.497624614180321 4.328873442170357 0.0
9.811387324954623 1.570516917365688 0.0
9.389210081887331 4.69150887571586 0.0
9.704395728912932 3.754226393630331 0.0
9.808172776193384 3.748784464356272 0.0
6.549660911932182 4.839747932361234 0.0
6.757415124099031 6.077939876843736 0.0
3.805578542126494 8.040840085419626 0.0
4.232580149691158 8.198659880701744 0.0
4.559765382564095 7.87091698350757 0.0
8.3829075948167 0.9495097054886067 0.0
9.8571301061408 1.456307792614791 0.0
2.005900212453279 4.535525273813588 0.0
1.85904408608185 3.956445706785572 0.0
1.979307922430775 5.474327285927505 0.0
4.387923194305381 4.427191306527721 0.0
9.429258370703248 8.873693567695483 0.0
8.99196583083892 4.664567567015693 0.0
3.050357122593155 5.368999067452741 0.0
2.861107385476722 5.785089447130829 0.0
5.005058958272409 3.711196438448062 0.0
9.8972295764837 2.755337284632969 0.0
9.581048890980513 8.853909321617065 0.0
9.668838904423916 1.762418716497425 0.0
9.716576458425756 1.852218615166234 0.0
9.799043132681442 1.780583141193779 0.0
7.661868217848455 2.880323287492419 0.0
6.780136552904057 5.443858690999834 0.0
6.489544866845868 5.913957888434588 0.0
6.880149522020364 4.134257616716107 0.0
6.970134365280068 4.264072319341612 0.0
2.225481516813409 9.348422240784 0.0
1.843418032490818 8.641605249943353 0.0
2.198000805242772 0.6459947140825729 0.0
8.740020306282506 0.1903932731609072 0.0
6.86957996016679 4.720776242956433 0.0
7.430920333506809 0.2702852342693345 0.0
7.302066064947383 0.6134316505458445 0.0
9.305398039877746 4.64854361125207 0.0
4.078151380865065 5.203425462519088 0.0
4.080704120371218 4.778853303303787 0.0
8.052525541571825 5.965483159581719 0.0
6.367194027835946 4.754896037842673 0.0
8.604191121620719 7.648182513679963 0.0
9.546446695207845 9.234701521982952 0.0
9.018652854946867 3.351011585453845 0.0
9.143853648154607 3.350173119015413 0.0
9.067079866763024 3.245174561579149 0.0
8.991492136849105 3.135578770028028 0.0
9.29603967712795 0.1426516429033488 0.0
9.392428271030795 0.2506306237151588 0.0
9.223973843394301 0.2912279164401488 0.0
8.39375191941536 3.018777714002827 0.0
8.4836475746111 2.88135207267795 0.0
8.741089053946197 9.821127577434911 0.0
9.803966507713174 5.448064463539533 0.0
9.748132240148552 5.359371181503531 0.0
9.850258990973547 5.355211921626304 0.0
9.7965346514158 5.266762244994661 0.0
9.84142096963129 5.171050273734619 0.0
9.738843612428232 5.167483913244169 0.0
9.64168976006725 5.359875132194057 0.0
3.335917453809221 5.671837672982919 0.0
6.962669142802881 1.683222554707996 0.0
7.365210844496719 1.887492842536114 0.0
7.517378971174123 1.677983072937792 0.0
8.00383870208024 6.089394601875145 0.0
1.725435941000569 2.759295503019395 0.0
7.907977929549089 5.102827208603365 0.0
8.052861051278896 0.2683271125209605 0.0
9.80169732768395 3.385443381464333 0.0
9.831597648680848 3.28491948963525 0.0
9.736335895866404 3.316207814499244 0.0
9.597256128490281 3.756160701977744 0.0
8.865819925321706 3.366235906378775 0.0
8.489614436807788 1.757152185195495 0.0
8.88089641144391 1.078983279100314 0.0
7.430923851187758 9.724389499796425 0.0
7.584252919312249 9.509430586267927 0.0
9.744026095940516 2.247117754488748 0.0
9.729961521243718 2.659836747108116 0.0
9.790866569780063 2.558993767350471 0.0
9.736606445116795 2.455104424879619 0.0
9.846806182714698 2.452157456754448 0.0
4.518102112052724 5.141350889745285 0.0
4.519880229178207 4.85678334497067 0.0
9.7302407894617 6.434012603549242 0.0
9.787537474544765 6.523591663056312 0.0
9.744262337067932 6.617499601377625 0.0
9.8406238811518 6.41591236129004 0.0
8.914967252734657 3.579360039684312 0.0
9.154797282599406 5.670753066089419 0.0
4.228839454580575 4.612979739018002 0.0
6.095037541675208 4.42126627187728 0.0
9.304166983880842 9.864854494751789 0.0
9.406445527105628 9.759007358529582 0.0
9.256225114941945 9.700832989525724 0.0
9.796206564635622 2.351215649506205 0.0
9.849373673349081 2.25090453834006 0.0
6.332048155295931 3.511675163099286 0.0
9.069679774213784 3.022879178706259 0.0
9.070599961450037 9.055284879641471 0.0
1.808685691036764 6.331557276533421 0.0
7.120156826652838 4.698481230214924 0.0
7.052894345811342 4.799848851879358 0.0
4.739957520484086 5.369107149361242 0.0
9.389197839958292 7.197139943834638 0.0
9.046688232613976 4.560364044038737 0.0
9.162685461967492 4.562194096410666 0.0
4.227377821420887 1.564128177298305 0.0
9.201090975245227 2.794301402811909 0.0
9.251941624303948 2.677556975242327 0.0
9.186758273070138 2.563916005021366 0.0
9.317609833868786 2.560335260954038 0.0
6.57599191748324 2.437689779955877 0.0
6.305556560534859 2.459112595979303 0.0
6.981058048792093 2.642476994448363 0.0
9.886113463139504 6.510498309609482 0.0
9.250462794607717 6.221362629571698 0.0
9.305373999084068 6.108271307139882 0.0
9.390477915810829 6.228015172491477 0.0
9.44452571968143 6.114582165110393 0.0
9.502105740270528 6.197677857389309 0.0
9.31559697209813 6.331647407124485 0.0
9.370938253597153 6.437386206819511 0.0
9.594764406124872 0.1099001288712305 0.0
9.602872681151728 9.894988341116305 0.0
9.622661196143387 8.076680696281343 0.0
9.769069277144705 5.9102532189237 0.0
2.615076109785583 8.807551523115547 0.0
9.658920005405456 5.730890135691177 0.0
9.76063135061807 5.720703211793342 0.0
8.63963723169499 7.177334225227945 0.0
7.841904391869763 6.41346852896409 0.0
7.764520718520185 6.297267738834625 0.0
9.546492996136271 3.465225175657335 0.0
9.25600964352143 2.219157062786616 0.0
7.625057159226293 7.012987957636062 0.0
9.529121062829038 7.730283486008674 0.0
8.329887090625894 3.845190321147069 0.0
8.265841850823831 3.95687001944245 0.0
8.402006523775544 3.947660780406651 0.0
8.128436391670505 3.968543393650448 0.0
8.46705122470662 3.835767362024195 0.0
8.218867047074696 4.063481375518748 0.0
8.089763413611255 4.08062363292928 0.0
7.939578083855268 4.111915744184436 0.0
3.74991304509639 6.615676756107112 0.0
2.627714335615619 1.170993030860914 0.0
7.046129971268607 6.759930788612616 0.0
8.534603732661887 7.486325780553722 0.0
1.569381386467569 2.042794535871475 0.0
6.228703743210918 1.986421863690014 0.0
6.467030855792859 2.67190498312861 0.0
9.272246093269825 1.975478263632296 0.0
8.05269609263041 3.854522845257449 0.0
8.008595521536957 3.177870309354594 0.0
7.929796740504207 3.350600835935766 0.0
8.048703574664067 3.449582532910417 0.0
9.72947480375618 4.973926800124758 0.0
9.784850360535604 5.072865219810449 0.0
9.896036387646596 5.069261557893528 0.0
9.633140953203334 5.168645132864771 0.0
9.558102991128836 7.602453108835212 0.0
7.278758746505716 3.994295887299482 0.0
8.306681733482405 6.936428510427854 0.0
9.487163072013963 3.757777670075558 0.0
9.532950522284125 5.359403698944497 0.0
9.816036650072329 3.927268437107025 0.0
6.173882586235392 8.734645960664665 0.0
7.972518459433741 5.003005338485466 0.0
8.398453459336153 1.601072016988848 0.0
8.97460527296194 4.040886705742754 0.0
9.037941657530773 4.143578781749325 0.0
8.849604200183613 3.828506169652706 0.0
9.545296177100065 4.042698359132156 0.0
8.595941796785514 5.806754902023664 0.0
8.65588412428292 5.694192853853139 0.0
8.723710665131787 5.801528918332044 0.0
6.861288985046249 6.673713222735126 0.0
8.87477249219366 4.664500928777609 0.0
8.72385765226959 3.608276264790996 0.0
7.145228858696953 5.573648565429618 0.0
7.282945121585866 5.558559688509987 0.0
9.224761401603633 1.602363370249125 0.0
9.609115686587552 2.986868833620756 0.0
9.633989947851914 6.628120633848649 0.0
6.046214325132457 5.45615093027661 0.0
9.017014346798927 5.271996636983457 0.0
9.070824864071271 5.168510834798647 0.0
9.189021391555556 5.166867900487267 0.0
9.123328759137758 5.064718588163964 0.0
9.240587446378079 5.06459430516883 0.0
9.250848280531756 5.267364371053135 0.0
5.773050603406019 5.7192906317521 0.0
8.576466432793914 4.3559007860436 0.0
8.634627802680399 4.253467736542067 0.0
8.461790117175607 5.591735227444779 0.0
8.907610717370224 3.713397213891439 0.0
9.80665594564509 5.628066492225966 0.0
8.985935132601089 4.455263493464225 0.0
9.00640209566022 5.067597672073404 0.0
9.833659276096986 6.976519563917422 0.0
8.0283368553477 4.687271895436317 0.0
8.326580191759327 9.127498457128247 0.0
8.650637373791266 5.07513089931925 0.0
8.701067313435203 2.700069743477523 0.0
4.825307249916392 4.884175191874744 0.0
9.418335984190309 6.858444798015129 0.0
3.91434687300816 8.542956908935874 0.0
5.569239724399552 2.064135034637056 0.0
5.234271567762738 2.128974435011933 0.0
5.757920427527626 2.312422707096966 0.0
5.43365689737979 2.427455772745759 0.0
5.673210219624612 2.602111218343444 0.0
7.214258468265766 6.652783071431555 0.0
9.823626269633962 4.30685540664529 0.0
7.96996639420014 4.794005510174826 0.0
7.616003332725032 0.502676560965646 0.0
3.050634530589821 4.659174799474146 0.0
2.870894249800723 4.246924313393336 0.0
5.285393339952368 6.079037173753393 0.0
9.439954241218905 4.23581687956071 0.0
9.67709722097145 4.710772408106511 0.0
7.40767785509217 4.259947873553335 0.0
8.396202587439676 5.486075637998701 0.0
8.323689688705493 5.372061002264632 0.0
8.191312386254125 5.384662546230823 0.0
5.304380054816289 5.369675374029755 0.0
9.093848379546637 4.047647920840374 0.0
7.916313220758624 3.045043876114836 0.0
8.435854831444637 4.144861908356168 0.0
9.060262453079693 0.7340576053322918 0.0
7.053195520344596 5.238809779682351 0.0
9.621762679347093 2.45205452967588 0.0
8.410730269104743 5.287995309529392 0.0
9.655094569234972 3.472720279371932 0.0
7.982140513923982 6.667914768024983 0.0
8.402690325256646 4.883576657130221 0.0
9.17488654147479 4.962006474835693 0.0
9.013188196102961 8.49700148123058 0.0
9.795977244531603 2.156818021002043 0.0
9.893813711206834 9.545820400859157 0.0
7.965349232662289 4.250048884270795 0.0
8.644264557989125 4.874751532150782 0.0
8.215430976121077 1.26077208565765 0.0
8.379717637669398 8.37324652769609 0.0
9.320026533461409 5.559861899725609 0.0
7.885778178744864 0.4977439426642278 0.0
7.547066983926719 5.125166613071239 0.0
7.657542898944819 5.122996245335209 0.0
7.423918840193691 9.000935553397358 0.0
9.854133000712425 5.541931969512857 0.0
9.328508174398952 2.101486405523264 0.0
9.300749600926641 9.530012105354274 0.0
8.130307182491519 5.277079344947874 0.0
8.346752967392757 4.987627363826086 0.0
9.118404185029991 6.007087846617186 0.0
9.048232213728614 5.89431792713258 0.0
9.088340967655858 5.576242562571367 0.0
8.094762487139027 4.789727191449318 0.0
9.915265904493378 5.749591413470928 0.0
9.92169805280126 6.154216704502091 0.0
9.918022441582268 4.549125436287157 0.0
9.919332362905616 4.849536560132457 0.0
9.914800786693318 6.750595509794719 0.0
9.811792900437824 6.703950687575952 0.0
9.900643083988882 3.749855087409844 0.0
9.912423171222734 3.043228996968949 0.0
9.91892875832665 5.949999999993851 0.0
9.913300070218703 3.960831593817277 0.0
7.709347001661226 4.444236534782706 0.0
7.479443107717332 8.071637285053104 0.0
8.839057072155848 6.807845119358974 0.0
8.972330068019902 6.78765448182788 0.0
8.542093772125282 3.941452413628317 0.0
8.279144752968262 5.930387616620717 0.0
9.393455876855919 4.973162505621418 0.0
9.507123333872533 2.855087674515822 0.0
8.77504684283825 2.317347145885344 0.0
8.394133129040345 4.464046960801843 0.0
5.725509852450801 8.210843960481027 0.0
5.62632390239664 3.967637659758752 0.0
7.910815814627989 4.900765971697654 0.0
8.595808444085467 5.590040244353608 0.0
9.705160502006024 0.8106158419444889 0.0
9.82021247904746 0.808810893177099 0.0
9.218352146075844 4.447736986422823 0.0
9.20781892622228 3.858281726888132 0.0
8.713609974387523 5.178241668554946 0.0
3.55755059259364 8.921522400238844 0.0
9.59122926011489 5.452844834281716 0.0
9.70565100407009 9.77887811062354 0.0
9.826938454219809 9.74303055702321 0.0
7.238962096855633 3.278078153406256 0.0
8.575609105166194 4.567807831727537 0.0
8.936449841121737 4.765835458965493 0.0
5.59323463391086 9.248527978398117 0.0
5.280809113285124 4.886132326418428 0.0
9.328132730893216 6.544753806716806 0.0
9.026944889277736 6.67247283515637 0.0
9.81946239021469 3.007926663525007 0.0
8.677633568960493 6.144049349297466 0.0
8.33427489656924 4.571212803519522 0.0
8.55734024448315 6.382535186588269 0.0
8.692399379422756 6.372347713955898 0.0
8.495817478252626 6.503308565233578 0.0
9.905494734661673 2.544078755559835 0.0
6.177101405266569 7.228490244483556 0.0
9.825373011845263 5.807482724503027 0.0
9.808678508609606 8.118683092442964 0.0
8.397717712407108 7.08010313863416 0.0
7.428555529689225 4.935946611338556 0.0
9.575504958128711 6.125633853639113 0.0
9.154066996197898 4.146562596982661 0.0
8.074381802159323 4.337569667261167 0.0
7.018337246891919 8.843475095716133 0.0
7.970627172560641 2.658650028065857 0.0
7.382546388883145 6.723381543491632 0.0
6.822972334933889 4.884555620881615 0.0
8.343732976791593 6.041576709398377 0.0
7.743680217306919 8.423336160305476 0.0
8.505717922983454 1.115022897794028 0.0
9.113973198216474 6.992972408167606 0.0
5.818882632841168 5.300437503812764 0.0
5.951991891717714 5.279516346785062 0.0
9.450183479138845 5.92934813870612 0.0
8.783346541536119 5.48419035750989 0.0
9.38074895894124 5.65076274999803 0.0
9.513658728876734 7.193620441323493 0.0
6.396040948797887 6.776064256962667 0.0
5.389661780244388 4.89715084345563 0.0
4.473247649068957 5.85935163892416 0.0
9.249586607512612 8.37680799459232 0.0
9.103796366487646 8.379197231055114 0.0
6.274057301184156 4.87985402946409 0.0
9.259628836118232 3.561431822636308 0.0
4.037922477011971 5.489409780163391 0.0
5.62712958624254 4.893925433488392 0.0
8.806426003347967 6.133410188141932 0.0
9.53304466499349 9.59279975429444 0.0
9.542890959420024 1.966631379116419 0.0
7.459736176874619 5.863847835420528 0.0
5.937613117200432 4.89232797168023 0.0
6.171611131472617 4.879541833448487 0.0
6.100695199816815 2.291172318314745 0.0
2.315194906726768 8.081958163666464 0.0
6.878489987598286 5.148099521847569 0.0
9.105264414399338 8.639184652727645 0.0
9.20047261316883 3.457820810661327 0.0
9.895329010385955 7.55944047105717 0.0
9.912742873006831 7.76210330502246 0.0
9.37761459375249 3.168397068877758 0.0
8.946121261512507 6.345629828835438 0.0
9.918632496443566 4.449809517365367 0.0
6.848211525651934 5.945010613369067 0.0
9.915721525903255 2.047407395915179 0.0
6.117255841708726 5.163321965161054 0.0
7.276595248786602 5.347247322210079 0.0
6.32682869954104 5.23674259421017 0.0
8.785886448438022 5.692775375342819 0.0
9.099994401883361 6.776698531382792 0.0
9.913397459621638 0.2499999999998165 0.0
9.910352525643928 0.4481571029410266 0.0
9.907850422008579 0.5479735220323012 0.0
9.911983631350465 9.24778487019403 0.0
9.917634740384067 0.7514684821956668 0.0
9.195214232985496 3.254172408378337 0.0
5.000896927376288 1.846006038077654 0.0
9.917172478547403 8.250155740683276 0.0
9.908120476950126 1.742986232208194 0.0
9.914524635720774 1.949567899316728 0.0
9.907358878377153 9.145625165175748 0.0
9.917695944922635 8.949999999998397 0.0
7.648387553139914 5.325741673607362 0.0
9.605343588986079 4.130627398479715 0.0
6.648113233057817 6.774798386229164 0.0
9.910347203087213 8.446729917003672 0.0
9.913623694530468 8.548470085896316 0.0
9.9201245863254 1.536225488581779 0.0
9.906538426683255 1.059019360781604 0.0
9.912867352010919 8.74999999999809 0.0
9.799662981388353 8.79550485462418 0.0
9.831828680383174 5.99966894118311 0.0
9.91414179906643 1.263025320602998 0.0
9.920690092699912 7.240982963665807 0.0
9.385889285950551 2.235126904097426 0.0
9.28133998925606 8.00415195851526 0.0
9.817074723108401 3.172398890123306 0.0
9.482030285089927 7.512954023388035 0.0
6.682432918504054 7.233889573028878 0.0
8.528699633246763 3.260502457553277 0.0
8.91699963742029 2.327016692708648 0.0
9.267676068834481 3.954520684561369 0.0
8.70811637467455 4.974101624783084 0.0
8.18184214270768 7.816666208279135 0.0
9.690393137288163 5.264344933127836 0.0
6.937111790104696 5.245184991960528 0.0
5.895846026722989 5.174232967273284 0.0
8.281683356622615 6.400073017261236 0.0
9.150883172924027 7.444273543454419 0.0
5.430406600793122 3.390815886517273 0.0
5.049583827974758 5.697634876048387 0.0
8.3966710383105 3.495813899905868 0.0
9.007538428392454 8.046563579784266 0.0
4.645155158868719 2.637132843684674 0.0
4.887444326771336 2.30020425915506 0.0
6.483736782775559 4.522536327482678 0.0
7.843169154548308 8.2116075844056 0.0
5.06295551628385 4.901632590583318 0.0
7.201400991012747 5.138239336380897 0.0
8.519791031104612 8.848807089071627 0.0
8.658623737989732 3.031313729049854 0.0
7.585566208322493 3.629882964874684 0.0
8.411818469596405 6.834326722716643 0.0
9.172363528634236 7.669230647622864 0.0
8.85455683341768 2.682483055215344 0.0
9.359398739738925 1.631421337140716 0.0
9.071793864444992 7.337030604117359 0.0
6.968394563521436 3.712808894519514 0.0
7.899236117684646 7.094583340182754 0.0
9.54362864504834 9.781852543872333 0.0
7.151298729743687 7.644795130415299 0.0
5.452218361466201 5.186873761308322 0.0
5.517642289161902 5.293540933999446 0.0
7.802500357665464 5.978295671754199 0.0
6.594850839687122 8.491429270558893 0.0
6.029132431949566 8.294997405201931 0.0
9.31286590869111 0.5672913838331921 0.0
9.25238720319541 0.4415953739444106 0.0
9.550589523211062 4.228044955453704 0.0
8.748611832783206 6.250900951984038 0.0
7.566980108995873 3.995148257893202 0.0
7.426142759241261 3.996743578498081 0.0
6.478912513785404 4.000296412419969 0.0
9.30435638148753 5.168210982711592 0.0
7.542154188520517 5.752525075248498 0.0
7.219033852073297 2.139582470800704 0.0
7.370913620388047 6.545121498197235 0.0
5.226731036024996 5.187572666585561 0.0
8.515591031124366 4.462223215179979 0.0
6.762864307079274 0.3078036604979366 0.0
8.587432696997471 4.977010533175154 0.0
8.703948448756302 8.815629076400704 0.0
8.081003990931544 7.370949680119862 0.0
7.424404567669909 6.949730915714445 0.0
8.578903262311433 8.377992954045473 0.0
7.301258690263783 6.106184350645308 0.0
5.991600556904204 3.99820087171043 0.0
8.203048538477193 1.601044215405025 0.0
7.289972483120081 4.572350254111052 0.0
7.714697186439165 5.420586967696794 0.0
8.918853780709807 1.841796898567452 0.0
9.919941345877513 4.749808449067644 0.0
7.245589454939737 5.94251251443003 0.0
9.258480524497795 3.358952871140391 0.0
3.705877615124628 5.574038727593425 0.0
8.287096858129765 7.962370605242409 0.0
6.799629860952143 3.705385600481528 0.0
4.146753450763018 6.544154457143895 0.0
7.413973555029582 5.545687501585183 0.0
8.466524978378082 4.980481756569235 0.0
7.336312153537934 2.337983522449311 0.0
7.695505222753409 3.747498713679684 0.0
4.898236813123799 4.795853653580084 0.0
4.59779105899602 1.896916774247134 0.0
8.560170375862322 7.072369101894893 0.0
8.386150468360862 2.449771437140704 0.0
8.41200018115259 5.084601315536367 0.0
5.102189912301071 7.621598618277815 0.0
8.336320418935243 6.71651223072348 0.0
5.081745734883095 3.977838926197614 0.0
7.63590698378166 0.9500570055008507 0.0
7.743369677149255 3.051233984704873 0.0
5.357527459690566 0.3809996753407537 0.0
5.967373112873382 0.7731113464301924 0.0
8.169449265206127 6.666271947462212 0.0
5.95122726745053 5.55758205410881 0.0
9.922289489207834 3.53923011719877 0.0
9.39154684476555 2.659037023454942 0.0
7.701415639167884 7.690060291860976 0.0
9.819179654793023 1.329863870021845 0.0
8.358229579054417 6.506108206863729 0.0
9.269720555169467 5.657096143475924 0.0
4.473187658045934 7.435037860084884 0.0
9.65807158077373 3.255496360750368 0.0
9.605155446454205 8.713645566904637 0.0
7.097383547728313 5.141197376985936 0.0
9.812212483832656 1.89920712759492 0.0
9.83875570675407 6.81603549325055 0.0
8.926246869879279 2.079976511571457 0.0
9.166785856141402 9.169070814302419 0.0
8.763479010228052 1.587152667342957 0.0
5.957377924852992 6.404530806530254 0.0
7.14506854375872 6.10342416684208 0.0
5.672595070581394 5.164323323112049 0.0
4.899782787268781 0.3801727265981219 0.0
4.447133848117348 4.673614099606824 0.0
7.044865074789195 3.253639989243549 0.0
9.818461337102992 7.819456450952447 0.0
9.925334577033155 7.954012377173311 0.0
6.352907898232792 1.173665225954276 0.0
7.351721385581032 5.660361289755705 0.0
9.337367583861807 2.76534436379692 0.0
8.693118347802024 4.360254099729149 0.0
9.476812970101324 0.3524826622168163 0.0
7.109868985890334 0.9024224571333925 0.0
7.899106846231403 5.511805431542581 0.0
8.352799544476607 5.187887629361129 0.0
6.957483547582747 0.6176251309213842 0.0
8.099559500483094 1.412323841044818 0.0
9.913030944540278 0.8542404645334569 0.0
9.143075088381442 8.022165366829135 0.0
8.819861450593166 6.356592599428041 0.0
9.319444417409162 1.49938505915629 0.0
6.490262520326714 7.118204362551877 0.0
6.490874470087819 6.582907761235813 0.0
9.82506653058937 0.6146757679104559 0.0
6.803129818897624 4.419048038171804 0.0
9.840901379354312 0.08198751964190581 0.0
9.839740374244226 9.918356239418472 0.0
8.551927134544655 9.449788917425456 0.0
9.92097857388158 3.249999999993177 0.0
5.797087413057367 7.077351493358238 0.0
9.255412859987286 6.433984412022419 0.0
8.668174522249984 1.740767926084485 0.0
9.920991430240607 6.25262219124529 0.0
7.57275248448898 1.94367954756322 0.0
8.052865444445507 8.19900054463639 0.0
8.748697149245206 4.25201068974208 0.0
9.158270227735827 0.5542256343091421 0.0
5.997487767477439 4.787924707603557 0.0
6.119759900601896 4.78043793682227 0.0
4.353034750397793 8.619182743639561 0.0
8.721093521611476 5.588932824583312 0.0
5.717101151444983 1.123034066822819 0.0
9.825602081347064 8.68753399402474 0.0
8.005502510832988 8.7824052910506 0.0
5.548184234622668 6.408009287230429 0.0
5.77830300433981 6.598697187164234 0.0
9.613093825495433 4.50282172481406 0.0
9.928981132641653 9.74928475696928 0.0
6.613628176297015 4.515513362596662 0.0
1.822126723816303 1.297795131355289 0.0
9.514164594137375 1.43081427463862 0.0
4.735494753432723 3.698541604583975 0.0
9.52844959749262 8.615213629960298 0.0
4.660704511759056 0.7947595073298008 0.0
6.82340845160293 5.239926830264399 0.0
7.885938077030673 7.380147032865134 0.0
7.884599891021201 6.09005968568029 0.0
8.846834820720167 9.653276456345532 0.0
8.457777199486827 0.3851010632068662 0.0
6.66485224572131 8.771510767670392 0.0
9.091499342133352 9.708315832477556 0.0
9.824286725109655 4.976315293637262 0.0
7.848197684391786 5.632217046637356 0.0
3.88430598115417 4.225391362015386 0.0
8.776890759183289 2.809688928468134 0.0
7.393884285023409 3.59397875231041 0.0
6.927568893329758 4.396788356869783 0.0
4.96854327720728 2.662368428358774 0.0
9.1480130720193 3.951479613991279 0.0
7.071049729490975 2.38092990636632 0.0
3.40193058782919 1.686321186206593 0.0
7.612042194200681 4.815904436723407 0.0
9.043395868401339 6.888481825015849 0.0
9.098933057562759 8.152197681006806 0.0
6.058682303253315 3.857501492181965 0.0
3.707092669281355 2.986685502034343 0.0
5.113272509841263 5.189455016444592 0.0
6.960565857079232 3.416349532571279 0.0
8.755151527375476 7.649255597361291 0.0
3.393680865444538 3.679982303262531 0.0
3.117424600120088 3.35605258976247 0.0
8.530814041264104 5.488376426140491 0.0
4.820719767306654 5.106646490188182 0.0
9.918899263509473 4.144927088739744 0.0
9.918194630017027 7.447268230913605 0.0
8.461970084137805 3.144844565847669 0.0
9.924415919486059 6.949999999995354 0.0
7.184050152099684 2.72771667662237 0.0
8.834356715215904 7.801565642745232 0.0
8.689015446783005 4.145232831954543 0.0
8.490778532265319 8.234414357968106 0.0
8.63666290918932 2.83060276219705 0.0
4.61028976098935 4.741894230894578 0.0
6.314735925012879 4.003132559161639 0.0
9.20786580425652 4.67001723737971 0.0
7.141401229301469 4.873205425098625 0.0
6.235177809922153 4.774126344778935 0.0
9.12491895896937 3.145675090615719 0.0
9.255747684068178 3.162525801823036 0.0
8.312852272796098 2.290855459722148 0.0
1.449266720542303 3.363629101350872 0.0
9.525687840398492 4.800807314407045 0.0
4.829905263804087 8.14474456977717 0.0
9.09338914689732 7.563794106183232 0.0
5.389401689694107 5.283808684471545 0.0
8.530979415204587 3.029374286908943 0.0
7.901489077080633 6.535344047486632 0.0
9.218572924671975 5.760893551533255 0.0
8.562382833959296 4.143913974026883 0.0
8.62959127904665 8.974877485888243 0.0
9.408442441596518 9.62276529745719 0.0
7.5034765601713 3.869833107932387 0.0
9.842813436634783 6.600620949014236 0.0
9.826116984327193 8.911617279149695 0.0
7.529907780698261 0.7369111006685982 0.0
7.832164962480427 2.905293639437395 0.0
8.39517908433056 3.267417602291069 0.0
9.823014010107707 9.085319632577246 0.0
9.022314123618541 3.944559746338292 0.0
4.243701230676532 5.332574856090426 0.0
9.816740542566388 1.127839952679595 0.0
8.166775715766304 5.693916696568397 0.0
8.865374421689054 8.068986769641638 0.0
8.761145809863661 6.470583506581853 0.0
8.998345275919851 9.209303502026401 0.0
9.698477487436316 6.706902829754045 0.0
6.439032098063426 0.3109134377713525 0.0
7.562681994382136 4.643158005207056 0.0
9.03999088074715 0.2799354672273258 0.0
5.180741540467516 3.805018725608906 0.0
6.243990330956698 2.718077286244967 0.0
9.79416634023361 0.1815240178579244 0.0
9.926540005061975 2.847049370876555 0.0
9.826476210374608 2.670192168078066 0.0
6.365816673179121 4.536333049275508 0.0
5.546353765219417 4.618331215552614 0.0
9.820703096450293 2.000649418331399 0.0
6.884388790679166 3.561583980715254 0.0
7.431303395649604 5.747824222777201 0.0
8.849816832721245 2.19318290395604 0.0
4.185147517585975 5.697469360586313 0.0
9.165905238119013 5.873664931582344 0.0
7.70479478158537 1.788324620089049 0.0
9.627376046933474 0.9196091445437269 0.0
6.657687963328663 5.144792385996769 0.0
9.83245016645186 0.3925568446109945 0.0
7.483092985762584 9.253837199159435 0.0
5.445348362202234 3.977855663863651 0.0
7.476680532833337 4.837183287808616 0.0
9.572749890969304 8.505160319814301 0.0
9.915853314998252 9.437014513917465 0.0
7.679469018350979 7.390484878021194 0.0
9.418139053434402 4.790576000488359 0.0
8.096967733471567 5.865447162201908 0.0
9.829153508938724 8.378494945652118 0.0
9.926595955569645 5.157718300415699 0.0
8.774484245600224 7.939747459426853 0.0
8.629764448155779 6.481031318922794 0.0
8.961169458302376 3.839036702328818 0.0
4.617199205561317 5.256318959792646 0.0
8.480815774219478 4.031210317621497 0.0
9.708341592512763 3.401018043990571 0.0
7.183974816647467 4.77882314543966 0.0
9.821437962294304 7.659391965474772 0.0
8.150320284869602 2.286501016204562 0.0
9.828114434347311 1.684891358832554 0.0
5.349187766238684 6.538177907133678 0.0
8.076053471314525 2.76180604769483 0.0
4.907713691134565 5.29818629967416 0.0
0.6874399366049438 4.328593906714074 0.0
0.6980011780697519 5.702671170050627 0.0
8.263861466707834 8.182284285231713 0.0
5.838783785156478 4.913981390426639 0.0
7.807619472656604 7.235706382002089 0.0
9.388504256318683 6.022122644748753 0.0
9.929839894767033 6.436189192303577 0.0
8.3205848711706 3.39107920408397 0.0
3.240770542267401 4.019899919523968 0.0
8.059047070496568 2.468855909103855 0.0
9.932479519490421 2.449625056415224 0.0
7.737639000139152 4.580708137963557 0.0
8.26141077223695 0.3940397126348397 0.0
9.69568953371801 1.959951226402445 0.0
6.469120930453264 4.892267070266994 0.0
9.167223997255698 0.8102256463122337 0.0
6.236889648241256 0.9291076084031108 0.0
8.306379082772498 5.268830342852036 0.0
6.716089118890225 5.239344620507032 0.0
9.82511981852641 9.282822358664017 0.0
6.68375719572285 4.404998642130821 0.0
8.913754712375674 6.908138360584365 0.0
6.173250048857013 5.251634416326969 0.0
4.235907497612446 1.924052997345291 0.0
5.151007663981651 2.438629730660893 0.0
8.924254300637541 9.3764975797567 0.0
4.438612423541503 5.287968640901957 0.0
8.571203234299599 1.897009944569934 0.0
6.878800676380218 5.821332862798138 0.0
5.710626178601224 4.792560699857408 0.0
7.149510071621283 5.216310009157644 0.0
2.099966541549645 2.334742113488256 0.0
9.93396330620579 5.350566393301629 0.0
7.143046479323961 8.646955109387985 0.0
7.965747313080266 5.193641450105844 0.0
6.3314394693073 5.135050228240639 0.0
7.665821333021348 6.222698255001823 0.0
6.305321657053551 4.659816230868476 0.0
7.833020917089713 5.208837056143474 0.0
9.41455902676429 2.869725681199307 0.0
8.567151507735133 6.598605357295113 0.0
7.405527786978573 4.377085529441429 0.0
6.552969697053132 5.137148974085434 0.0
9.93630620742063 8.042778076596578 0.0
7.166743296019233 4.593171678848165 0.0
6.595561806063966 5.839366735225723 0.0
6.066152182102007 5.262519562574559 0.0
9.834694151277489 0.9093455747994099 0.0
8.98259191950674 7.579732466796592 0.0
6.465071238839505 5.25485771955322 0.0
9.759759896588413 3.236659507608532 0.0
4.775529448101694 5.224235675150505 0.0
9.935991245222917 7.153416415978829 0.0
0.6530736820718381 9.352299998916202 0.0
0.6449439415299687 0.6468300344151556 0.0
7.804690364869245 4.495816547678174 0.0
9.84503784553893 5.70620404704573 0.0
9.83525329400959 3.826992990746767 0.0
9.922964894244684 4.265000406933376 0.0
8.333767638401964 1.121219971446645 0.0
8.876012546033895 7.019147158538482 0.0
8.172413577824324 3.413096916572049 0.0
7.232233017296214 4.478957103028363 0.0
6.214597295185415 3.852860083673202 0.0
9.85013791746415 4.400709747289421 0.0
3.941627380932058 6.342995010255737 0.0
3.097271569675528 8.77391871286929 0.0
9.292917152323044 6.010976049411984 0.0
8.104342196673183 5.184165973282902 0.0
8.994300084006271 3.652611812846807 0.0
9.937157897030163 5.549999999993244 0.0
8.721368888525245 7.274540720770752 0.0
8.920003648712827 0.9516585309368178 0.0
7.910527456030004 8.536826514867816 0.0
9.846441288756814 4.60515911863952 0.0
9.584942233925151 4.712073182517884 0.0
9.642357858573972 6.805672051759494 0.0
9.797024725252207 9.838837222258014 0.0
9.842451438022124 4.018973836958878 0.0
6.112723137676118 3.704473949316424 0.0
7.574641969193845 3.765362276156904 0.0
7.826594968121701 6.200366572362263 0.0
7.762805366733504 9.34009502796868 0.0
9.56854033867856 1.012566255816665 0.0
7.71256563655353 5.219373702836014 0.0
9.68039392238282 8.786964504862018 0.0
5.910362452777086 9.277662068919813 0.0
7.418090653922814 3.326443419100716 0.0
9.857704179097952 4.697553149694669 0.0
8.452469674653342 8.996585816905599 0.0
9.522351366699843 2.057525484575908 0.0
7.802315574700843 9.548878971475935 0.0
9.938875656926385 3.449999999992592 0.0
8.425189037911712 6.608575180629274 0.0
5.925965231566842 2.523669697740033 0.0
6.654918072256329 5.95749128982984 0.0
9.826748589235729 9.631118448471485 0.0
8.6684585637523 7.39633999085442 0.0
9.844673843931567 3.090088625379724 0.0
9.93613850661301 2.250382721159617 0.0
9.218291993658738 2.892108990205171 0.0
9.83502846611296 8.212781989607324 0.0
7.754136409732265 7.104288507262783 0.0
8.510570542791681 2.036933285735889 0.0
7.757745059307245 4.315798612475442 0.0
7.989231770559189 6.201656630465583 0.0
8.068934521422738 4.198631572122605 0.0
4.957478134450373 9.038766150325067 0.0
7.208661142641733 6.501402463831379 0.0
7.299506095906239 4.363561999234681 0.0
8.250303873550486 2.105322217421675 0.0
8.678637541413377 7.053471135702286 0.0
9.761528395137384 6.163503990672834 0.0
9.84494857233395 8.59999999999775 0.0
9.83825138794677 3.672838954969637 0.0
5.121008544047756 5.808127183024784 0.0
8.343911550360986 4.043535893276861 0.0
9.85324441775315 5.899999999993774 0.0
9.51114465213134 8.41035540646284 0.0
6.505812179224195 6.93390566262983 0.0
6.15572847138365 9.023097246950844 0.0
3.352081892333425 3.024853379890529 0.0
6.433163283162099 8.675072413910678 0.0
8.825744236698243 3.624446391299867 0.0
4.883007294861279 7.819620905924936 0.0
5.876659170760434 5.638247433601083 0.0
6.859400040348503 6.510797998354633 0.0
7.946400945409184 3.500317276373196 0.0
7.496830255505493 6.653194511698024 0.0
9.852183479755313 4.891525833556942 0.0
9.77998778436291 2.922486526124376 0.0
6.774672660492365 5.324728659740495 0.0
5.717254072187427 6.824125962512845 0.0
9.713440940838062 4.63793103997539 0.0
8.859858662536796 0.2721395536350836 0.0
8.37556017530946 9.436653414116012 0.0
7.395237381047616 7.885576562773319 0.0
5.4709157802033 4.511152089197594 0.0
9.489749416979361 9.691840729914848 0.0
4.599216022837964 3.46438688931078 0.0
5.572287492757569 4.807021644849729 0.0
9.926499336309957 9.92730688390086 0.0
9.926499336310107 0.07269311609890093 0.0
9.338127766332573 0.3585313952168247 0.0
6.810761948165162 3.414693294319008 0.0
8.166274345037138 5.943611545564389 0.0
5.2892644736731 6.301081312912763 0.0
9.731911074791544 7.649313380659622 0.0
8.90251102352767 9.50983415326544 0.0
8.997881406541017 1.033666784655452 0.0
5.835124768755703 2.738139962594905 0.0
9.665357480775825 6.185331297099201 0.0
7.656532192558493 8.217157287499347 0.0
9.170463887605525 2.975444721032631 0.0
4.208158615905443 0.8648302238584886 0.0
6.97015686031129 5.933674629077266 0.0
6.181941366523793 3.565885175921835 0.0
3.30313590337911 6.393402837735046 0.0
6.447482061767014 4.816169316820496 0.0
8.185341428749446 4.169172087371246 0.0
4.552595724340015 8.298301336212145 0.0
9.84850676569699 8.999999999998423 0.0
9.846941514449377 7.393642828194986 0.0
7.924592433490734 2.788309934035703 0.0
8.154308714226714 8.853640122009672 0.0
8.876629743004642 1.96110242719995 0.0
7.228849192966834 8.90811350348676 0.0
9.852301635085423 8.296637825215246 0.0
5.219795195341889 5.547413133147649 0.0
9.861497117995457 6.901363010201344 0.0
2.953911258021604 6.136007283255669 0.0
6.93158841067062 4.77708273647784 0.0
9.67540418457871 2.912802891506324 0.0
4.194055958522277 4.437353127730132 0.0
6.133959559341536 0.406856611599261 0.0
8.29952795189331 9.309744645643846 0.0
9.843692337952948 1.209647690818311 0.0
5.164986286280336 6.671544079402435 0.0
9.838533350075606 2.081705440779448 0.0
8.301244777513975 6.604088853319459 0.0
5.471494771710784 2.714598185146428 0.0
8.86534684892311 1.208599471795828 0.0
9.940610684232212 1.451558535868664 0.0
9.40896208432968 1.428353940655538 0.0
2.329177605337097 4.238803555614174 0.0
5.980761651517799 7.182207186682233 0.0
9.66541573964336 0.1719254072074424 0.0
7.220979380229172 7.806128737674462 0.0
1.251721227904697 6.151932667911503 0.0
8.104967286191181 6.057912607875576 0.0
6.650768762224724 4.817922869198292 0.0
6.634976350437587 3.213339182992986 0.0
7.034320437500567 4.898219100342838 0.0
9.502772020064167 6.283064492634301 0.0
8.13187938667684 3.518506862055515 0.0
9.855471943454193 2.599999999994991 0.0
9.056747742708522 8.263936599935574 0.0
4.352645795441222 5.724453640019 0.0
3.744263984699181 1.488951698361357 0.0
5.175860134287045 3.6375726667098 0.0
7.736434712114619 6.400417475661193 0.0
9.857658576695343 6.316607183405179 0.0
7.876525261950537 4.304285002335559 0.0
9.856114384785611 7.914602773442983 0.0
9.848334119947063 0.7059644476295188 0.0
9.59694321995579 6.895814046141667 0.0
5.906465212962551 3.869023950643881 0.0
9.840676994268005 9.364956386459765 0.0
5.355015287544095 3.83518170601625 0.0
6.374090407153147 5.855743754257685 0.0
8.227401290513832 5.297819733684674 0.0
5.451235131977493 4.825706629991923 0.0
6.022070213762754 5.355923882747634 0.0
9.845674433677614 6.108401449483281 0.0
9.835067400944396 7.739582406783081 0.0
8.602026805792988 2.941372356914139 0.0
5.059869081004962 5.269480960018243 0.0
5.284714507903736 5.26496663762182 0.0
9.627110479149561 7.660076105040499 0.0
6.820001127809743 4.792514421153957 0.0
5.120512795059439 4.806607659110254 0.0
9.56933817216883 2.911464407429096 0.0
9.74091654291531 9.267545397628387 0.0
9.93006767325302 6.576784040838644 0.0
9.642486276936268 4.650227701598451 0.0
5.185183328569137 9.410919109238325 0.0
9.37052946854105 4.605636695802024 0.0
1.677077220416309 5.871167715901136 0.0
7.345783833404538 3.184020711886284 0.0
5.419239942654976 5.982692039856376 0.0
6.133318300188262 2.551919945731369 0.0
6.187291396343277 4.499077117404439 0.0
1.231465237822878 3.921479198315213 0.0
8.969849937139944 9.699215363213542 0.0
9.218303154263054 6.037447959776716 0.0
CELLS 4886 19544
3 1113 1356 1450
3 1402 231 1659
3 272 269 1414
3 396 394 1777
3 1451 945 1452
3 194 81 1801
3 1847 1501 2104
3 2024 2121 2479
3 1115 1113 1450
3 1124 1413 1844
3 1061 1955 2409
3 307 305 1645
3 1592 1369 1593
3 238 1501 1847
3 1955 1883 2409
3 1808 243 1910
3 1885 978 2362
3 1440 793 2092
3 189 1488 1608
3 353 350 1864
3 2007 2231 2232
3 307 1645 2493
3 1096 1760 2496
3 2178 874 2179
3 621 625 1595
3 1493 1480 1938
3 1655 1268 2137
3 1341 1410 2212
3 243 1808 2360
3 1902 1446 2516
3 1760 1096 1763
3 856 790 2180
3 2008 2046 2105
3 789 1809 2067
3 694 1543 1575
3 1127 1762 1953
3 1748 807 2228
3 1543 1308 1575
3 820 1872 2170
3 1417 954 1998
3 1369 1592 2386
3 272 1414 1787
3 329 333 1998
3 1544 1095 1545
3 2231 1490 2232
3 1342 1683 1790
3 374 377 1797
3 807 1678 2228
3 1665 198 2128
3 141 142 1620
3 325 322 1952
3 231 1402 1654
3 198 1665 2010
3 1890 1307 2387
3 208 1438 1619
3 2016 1970 2156
3 1436 212 2020
3 954 1417 2333
3 1736 1894 2244
3 1491 1750 2143
3 1677 1064 2146
3 1474 1258 1475
3 1500 233 1930
3 1446 2415 2516
3 1700 973 1800
3 2128 2270 2316
3 1316 1315 1593
3 1307 2341 2387
3 2258 1324 2328
3 1083 1507 1508
3 693 1095 1544
3 621 1595 1596
3 667 1571 1872
3 1932 1766 2061
3 393 391 2240
3 1342 1790 2400
3 252 1707 2234
3 931 978 1885
3 1430 1116 1704
3 1411 1109 1714
3 1478 1227 2440
3 1990 195 2297
3 1792 1167 1985
3 1682 444 1975
3 394 397 1777
3 1711 2028 2162
3 1574 856 2180
3 2008 1851 2046
3 736 1493 1938
3 1069 1060 1662
3 1458 455 1754
3 862 691 1705
3 1161 1642 2286
3 1699 1700 1800
3 447 516 1637
3 955 1482 1483
3 2024 206 2121
3 391 1773 2240
3 1072 1412 1893
3 212 1436 2350
3 1566 1365 1568
3 259 1441 1672
3 872 870 1764
3 330 328 1889
3 1539 1161 2286
3 1897 1898 2275
3 1434 1990 2297
3 1109 1411 1730
3 319 307 2493
3 1762 1761 1953
3 1369 1316 1593
3 1540 834 1832
3 1505 652 2442
3 1732 1655 2137
3 921 1712 2295
3 1872 1388 2170
3 1712 921 2125
3 2028 244 2162
3 1506 1570 1680
3 1569 368 1964
3 1571 667 2375
3 1587 2178 2179
3 196 1723 1737
3 524 2016 2156
3 1528 1250 1733
3 1115 1450 1973
3 1938 1480 1971
3 1809 1396 2067
3 1641 249 2299
3 1223 1258 1474
3 1365 1566 2120
3 1981 962 2316
3 1538 353 1864
3 455 1458 1756
3 152 233 1500
3 1116 1430 1703
3 817 652 1505
3 1347 2003 2004
3 1607 1958 2085
3 194 1801 2195
3 1410 1341 2351
3 223 1415 1710
3 197 1511 2346
3 2198 787 2225
3 81 82 1801
3 1438 208 1620
3 1444 522 1823
3 1511 197 1950
3 726 718 1567
3 1637 516 1739
3 1708 2337 2341
3 1280 1649 2124
3 2337 1395 2341
3 1327 1709 2315
3 1225 1227 1478
3 691 624 1705
3 476 2224 2305
3 830 832 2204
3 1750 1491 2403
3 1366 1897 2275
3 2345 1583 2352
3 2054 405 2110
3 1984 2172 2230
3 1846 2198 2225
3 1177 2042 2418
3 2121 1367 2479
3 1527 1531 1541
3 916 1039 1834
3 1413 1124 2467
3 1622 1503 1868
3 249 1641 2019
3 1805 405 2054
3 1761 1007 1953
3 1415 223 2395
3 960 1756 2203
3 368 1569 2135
3 1402 1659 2473
3 941 1433 2471
3 1267 1477 1501
3 260 2002 2265
3 1704 558 2077
3 2224 1886 2305
3 2053 1386 2199
3 1452 945 1952
3 1717 1611 1718
3 1682 1975 2230
3 1760 1762 2496
3 1481 203 2104
3 1264 1266 1670
3 142 236 1620
3 2133 1182 2179
3 1791 1602 2183
3 350 346 1864
3 1412 1072 2393
3 1281 1575 2255
3 1565 1948 2155
3 849 1449 1513
3 1958 396 2085
3 1339 1069 1662
3 834 1540 1917
3 269 267 1414
3 1268 1267 1501
3 1440 2092 2468
3 1399 1981 2316
3 1635 1636 2041
3 1454 252 2234
3 1451 1305 1890
3 1375 1883 1955
3 362 366 1786
3 1484 2410 2528
3 1449 849 1640
3 1267 1474 1477
3 200 1611 1717
3 1054 1581 1582
3 1350 1977 2253
3 190 1390 2118
3 788 1956 2193
3 1709 1327 1888
3 2233 2298 2413
3 1488 189 2355
3 478 1685 1714
3 230 1525 1690
3 1687 478 1688
3 427 429 1756
3 1570 1065 2476
3 1880 1133 1988
3 1649 656 2124
3 1537 209 1614
3 1134 1769 1986
3 1220 1268 1655
3 396 1777 2085
3 1167 1755 1985
3 2229 1744 2296
3 1575 1281 2287
3 127 240 1882
3 377 647 1797
3 954 329 1998
3 220 1697 1698
3 1342 1341 2212
3 1441 264 1672
3 1512 188 2433
3 763 2345 2352
3 1685 1411 1714
3 1805 1188 1951
3 1347 2004 2157
3 1054 1582 1667
3 1333 1617 1674
3 2217 73 2361
3 1539 1036 1917
3 1039 1292 1834
3 208 141 1620
3 1965 1964 2038
3 693 1544 1969
3 1453 239 2279
3 203 1481 2049
3 945 1451 1889
3 680 1459 2134
3 354 2147 2196
3 1405 1932 2061
3 1723 1722 1737
3 1748 1175 1927
3 1532 1528 1733
3 2057 1824 2154
3 1406 1659 1702
3 1948 1186 2155
3 210 1598 2114
3 1685 478 1687
3 1324 1325 2328
3 1526 1250 1527
3 165 166 1509
3 1493 736 2523
3 1526 1527 1541
3 1390 190 2417
3 522 1444 1998
3 1680 1570 1732
3 1017 1442 2525
3 374 1797 2430
3 1507 1083 2197
3 1756 960 2221
3 2270 1400 2316
3 2205 1452 2282
3 1074 1187 1888
3 2158 1245 2200
3 1442 1017 1684
3 864 1116 1703
3 1750 1751 2143
3 1456 516 1492
3 1677 2146 2149
3 2022 1339 2388
3 1602 258 2183
3 678 1594 1595
3 1245 1670 2200
3 972 830 2204
3 2143 983 2342
3 1268 1501 2226
3 1266 1461 1670
3 1487 222 2465
3 1382 2022 2388
3 58 59 1661
3 2147 1543 2196
3 1484 1485 2410
3 628 2053 2199
3 1906 1549 2259
3 364 362 1786
3 1339 2022 2247
3 1636 525 2041
3 625 678 1595
3 678 1593 1594
3 2212 1410 2222
3 1837 1865 2215
3 1699 1800 1801
3 866 864 1703
3 893 1472 1982
3 1735 1736 2244
3 1633 1255 1922
3 126 127 1882
3 681 867 1656
3 1351 1401 2363
3 11 228 1588
3 1127 1953 2454
3 265 266 267
3 1722 1122 1737
3 1389 1691 2069
3 1613 1610 1616
3 1227 1256 2440
3 429 455 1756
3 1535 1177 2418
3 322 324 1952
3 973 1700 1802
3 1964 368 2038
3 1176 1865 1866
3 1096 872 1764
3 1176 1866 1875
3 193 1839 1892
3 156 157 1441
3 615 617 1596
3 686 1520 2480
3 1409 2097 2305
3 2410 1151 2528
3 1427 2217 2361
3 440 1911 2314
3 1744 1743 2296
3 516 1456 1739
3 1939 589 2164
3 690 931 2150
3 1062 1579 1580
3 1054 1580 1581
3 955 1483 1716
3 1064 1677 2248
3 1956 1616 2193
3 1776 1893 2026
3 1398 1115 1973
3 2002 1453 2265
3 1541 1531 1542
3 216 2191 2536
3 1736 1326 1894
3 1065 994 1066
3 1598 2115 2175
3 2314 1911 2358
3 1433 941 2042
3 2115 1209 2175
3 717 1550 1551
3 188 1941 2433
3 267 1132 1414
3 771 1569 2064
3 1157 1545 1546
3 1231 1250 1526
3 1933 240 2181
3 222 1487 2025
3 1525 230 1765
3 1430 1704 2077
3 757 1744 2495
3 264 263 265
3 883 773 1917
3 739 2205 2282
3 1667 1582 2434
3 1744 757 2474
3 239 1453 2002
3 1441 259 2356
3 2005 1443 2012
3 254 1766 1932
3 1509 166 1679
3 1477 1475 1481
3 793 1440 2165
3 1385 1523 2377
3 1481 1475 2523
3 156 1441 2356
3 1066 1220 1655
3 945 325 1952
3 2094 2087 2134
3 1747 1175 1748
3 253 262 263
3 1327 1074 1888
3 718 715 1567
3 2046 1043 2105
3 240 1933 2399
3 1305 1307 1890
3 224 58 1661
3 1195 1566 2285
3 1590 1393 1749
3 1255 1230 1922
3 353 1538 2073
3 358 1999 2325
3 882 1802 2036
3 1024 1020 1604
3 333 522 1998
3 1401 1351 2414
3 1475 1258 1476
3 2310 786 2364
3 328 945 1889
3 807 1748 1927
3 825 724 1912
3 1742 263 2491
3 267 266 1132
3 2077 2102 2203
3 1431 1432 1860
3 1212 1957 2312
3 2097 476 2305
3 1132 1402 2473
3 717 713 1550
3 1746 693 1969
3 1372 1124 1844
3 1256 1541 2269
3 1977 1350 2274
3 2332 1978 2443
3 874 2133 2179
3 1983 1534 2171
3 1157 1544 1545
3 1230 1228 1922
3 1580 1579 1581
3 1565 806 1948
3 1416 1363 2413
3 1287 1995 2398
3 265 263 266
3 1534 1529 2171
3 1604 1834 2428
3 1255 1633 2509
3 1344 1643 1644
3 1332 1388 1571
3 1423 217 2217
3 2191 1057 2451
3 458 447 1637
3 1250 1233 1733
3 472 2212 2222
3 1175 1747 1840
3 1652 256 1653
3 1073 1347 1572
3 200 145 1609
3 683 640 1585
3 1116 862 1705
3 1221 1223 1474
3 1778 801 1803
3 1503 1622 2471
3 1475 1493 2523
3 464 680 2134
3 14 210 2114
3 579 1880 1988
3 1434 1435 1990
3 1447 2310 2364
3 275 274 276
3 2294 1871 2419
3 814 1068 1684
3 1172 1439 2273
3 273 272 274
3 1363 1416 2406
3 1220 1219 1221
3 1060 1656 1662
3 1099 1792 1985
3 2048 1198 2168
3 1241 1245 2323
3 699 723 1753
3 1640 1862 2070
3 910 1018 1584
3 1586 1067 1587
3 1656 867 1662
3 1067 686 2480
3 654 2242 2294
3 1593 1315 1594
3 1880 553 1974
3 236 1717 1718
3 617 621 1596
3 1723 196 2313
3 402 1877 2116
3 273 274 275
3 2202 1869 2252
3 1510 1358 1767
3 193 1892 2373
3 1188 1805 2054
3 1220 1221 1267
3 1066 1218 1219
3 1517 1097 1518
3 1677 1676 1858
3 686 277 1520
3 268 267 269
3 697 857 1592
3 220 1698 1699
3 1802 1700 2036
3 1612 1537 1614
3 929 817 994
3 228 12 2136
3 2110 2116 2482
3 1659 1658 1702
3 1611 1613 2280
3 1344 991 1643
3 683 1585 1604
3 1638 1358 2404
3 1485 1034 2410
3 2214 833 2424
3 271 272 273
3 1482 955 1962
3 1066 1219 1220
3 931 1885 2150
3 1613 1891 2280
3 1189 1589 2204
3 1566 1195 2120
3 726 1567 2490
3 1122 1722 1874
3 1494 319 2493
3 1671 259 1672
3 1267 1221 1474
3 603 528 1591
3 1664 2128 2316
3 1817 1924 2174
3 1626 1660 2111
3 1474 1475 1477
3 1023 1062 1580
3 1957 1599 2312
3 1764 1939 2164
3 1358 1950 2404
3 200 1609 1610
3 1431 1082 1432
3 1778 1803 2521
3 1830 1832 2075
3 1930 233 2369
3 1329 1482 1650
3 757 1959 2522
3 1239 1247 1597
3 758 1978 2332
3 1569 1290 2064
3 216 1694 2191
3 1453 1420 2265
3 1549 1906 2129
3 24 215 1674
3 19 235 1676
3 1621 1057 2191
3 1691 1389 2262
3 1617 1333 2192
3 929 994 1065
3 1769 1672 1986
3 1893 1412 2026
3 1609 1537 1612
3 271 269 272
3 1373 1438 1620
3 217 1423 2381
3 517 330 1889
3 1322 1055 1667
3 1974 553 2499
3 228 2136 2187
3 1589 1189 1788
3 1999 1577 2325
3 2110 405 2116
3 189 1608 1842
3 1055 1050 1667
3 739 1455 2205
3 1865 1176 2215
3 319 1494 2522
3 2474 757 2522
3 1484 227 1485
3 10 11 1588
3 723 809 1753
3 27 230 1689
3 1550 806 1565
3 1179 1180 1217
3 207 1617 2192
3 1433 1217 1502
3 1562 1556 1606
3 1379 2017 2018
3 1245 2158 2323
3 675 1097 1517
3 884 501 1599
3 1020 683 1604
3 1603 1095 1848
3 1001 2057 2154
3 1604 1585 1834
3 1610 1612 1616
3 1764 870 1939
3 2242 1871 2294
3 1669 1264 1670
3 1658 213 1702
3 1995 1646 2398
3 631 539 1600
3 1491 2143 2342
3 1801 1800 2195
3 1200 1199 1693
3 1535 940 1861
3 1534 758 2332
3 914 2258 2328
3 1588 228 2457
3 216 138 1694
3 151 152 1500
3 1133 1880 1974
3 1677 1858 2248
3 1294 1622 1868
3 875 1010 1767
3 1379 2018 2416
3 1279 2202 2252
3 182 256 1652
3 1592 857 2386
3 672 681 1656
3 615 1596 1824
3 1093 1487 1623
3 1823 522 2100
3 1245 1242 1669
3 1582 1581 1583
3 758 1534 2306
3 1975 1984 2230
3 1358 1510 1950
3 1663 1336 1665
3 2102 960 2203
3 366 1087 1786
3 1740 1490 2231
3 21 207 1709
3 145 146 1609
3 2339 765 2384
3 603 1591 1668
3 2081 199 2149
3 1540 1832 1879
3 1721 1723 1947
3 1754 455 1793
3 1751 1753 2119
3 882 1701 1807
3 1540 1539 1917
3 242 1695 1697
3 1521 354 2091
3 1363 2233 2413
3 1584 1018 1925
3 703 1067 1586
3 1177 1178 1179
3 795 916 1834
3 277 276 607
3 1571 1388 1872
3 22 23 1617
3 1097 823 1177
3 25 26 1624
3 419 418 1790
3 1728 1906 2259
3 440 1455 2261
3 1877 1318 2116
3 1488 1156 1608
3 1439 2130 2273
3 1889 1451 1890
3 1614 209 2389
3 1472 893 2094
3 675 821 823
3 23 24 1674
3 1788 1190 2183
3 917 941 1622
3 1763 1096 1764
3 1068 1442 1684
3 1034 1485 2173
3 2172 1533 2230
3 138 139 1694
3 1065 1570 2197
3 607 674 675
3 1536 1248 2268
3 229 135 1734
3 1437 1925 1926
3 680 510 1646
3 147 209 1537
3 26 27 1689
3 1627 705 2163
3 206 1651 2121
3 2409 1785 2462
3 1492 682 2447
3 1223 1225 1258
3 889 1772 2374
3 253 263 264
3 275 276 277
3 1455 739 2261
3 2022 1382 2176
3 150 227 1484
3 639 1019 1591
3 1449 1640 2070
3 1082 833 2214
3 1503 1502 1504
3 144 200 1717
3 1643 991 1713
3 1190 1791 2183
3 1538 1804 2073
3 1256 2269 2440
3 18 19 1676
3 521 531 2000
3 790 849 2180
3 1075 1329 1650
3 1087 1782 1785
3 1066 994 1218
3 270 269 271
3 682 1492 2494
3 185 252 1454
3 253 158 262
3 1629 1632 1633
3 200 1610 1611
3 1477 1481 2104
3 1623 1487 2465
3 1518 1097 1535
3 1414 1132 2460
3 1179 1217 1433
3 177 1506 1680
3 1392 1017 2525
3 1832 834 2075
3 675 823 1097
3 1459 2094 2134
3 1782 1087 1795
3 1838 1730 2372
3 1639 149 2528
3 1617 23 1674
3 2265 1420 2489
3 180 232 1859
3 1527 1250 1528
3 20 21 1709
3 1083 1508 2311
3 903 866 1703
3 1455 440 2314
3 1187 1858 1888
3 1659 1406 2473
3 1446 1902 2166
3 421 1951 2106
3 1598 210 2115
3 154 259 1671
3 1288 1835 2080
3 1832 1831 1879
3 1258 1225 1478
3 1024 1604 2117
3 1263 1429 1739
3 706 705 1627
3 1583 1581 2352
3 407 1805 1951
3 856 1574 2527
3 1701 882 2036
3 1624 26 1689
3 717 1551 1552
3 1385 2377 2391
3 2302 1745 2354
3 1572 1347 2157
3 1036 883 1917
3 1689 1690 1691
3 1664 1665 2128
3 1476 1479 1480
3 1751 2119 2143
3 815 814 1684
3 1790 889 2400
3 1606 1607 2085
3 265 267 268
3 418 889 1790
3 1522 1521 2091
3 135 136 1734
3 1726 1445 1729
3 647 1796 1797
3 1346 1453 2279
3 1293 1827 2117
3 1242 1244 1669
3 1853 1852 1854
3 889 2374 2400
3 1039 1038 1290
3 1524 628 2199
3 1331 1332 1571
3 1291 1290 1569
3 1475 1476 1493
3 1850 1852 1853
3 1490 1740 2456
3 1689 230 1690
3 1256 1526 1541
3 1704 1705 2167
3 1465 1470 1675
3 956 1073 1572
3 1613 1616 1956
3 916 917 1038
3 2014 1522 2091
3 1221 1222 1223
3 1999 763 2352
3 234 10 1588
3 1697 220 2335
3 1527 1528 1529
3 2298 1600 2413
3 1436 2020 2254
3 1642 1161 1678
3 1523 1385 2436
3 1730 1838 2426
3 795 796 916
3 713 711 1550
3 1456 1263 1739
3 999 1336 1663
3 1785 1784 2462
3 409 415 1783
3 607 675 1517
3 1229 1231 1526
3 1958 1855 2078
3 1589 1588 1590
3 1933 261 2380
3 762 1965 2038
3 1756 1458 2203
3 1776 597 1893
3 1794 1072 1893
3 188 1512 2266
3 1774 2339 2384
3 188 1908 1941
3 1010 1510 1767
3 2189 2285 2307
3 773 834 1917
3 1245 1669 1670
3 1248 1597 2268
3 146 1537 1609
3 818 910 1584
3 1641 1313 1651
3 1217 1745 2302
3 1065 1066 1655
3 1597 1247 2047
3 1360 2177 2376
3 1612 1615 1616
3 2126 867 2186
3 1019 683 1020
3 1747 892 1840
3 1092 1093 1623
3 261 1933 2181
3 400 424 1666
3 1516 1903 2377
3 1100 1392 1605
3 247 1738 1881
3 268 1134 1986
3 1177 823 1178
3 884 1599 1957
3 263 262 2491
3 806 1627 1948
3 1227 1229 1256
3 191 1729 2504
3 1636 1635 2502
3 1480 1479 1601
3 1721 1947 2498
3 1924 1146 2174
3 229 1734 1735
3 175 204 1725
3 1179 1178 1180
3 354 1521 2147
3 665 697 1592
3 640 646 1585
3 627 545 1636
3 1882 240 2399
3 1556 1555 1606
3 1373 1620 2394
3 1871 1071 2419
3 548 1628 1629
3 455 436 1793
3 974 1831 1841
3 1844 1413 2392
3 1612 1614 1615
3 209 1639 1937
3 1329 1330 1331
3 1823 2100 2142
3 1097 1177 1535
3 1021 1020 1022
3 825 1912 2455
3 913 1122 1874
3 400 1666 2113
3 1256 1229 1526
3 1419 1418 2450
3 1552 1551 1553
3 1850 1099 1852
3 1629 1631 1632
3 801 685 2029
3 1618 1619 1621
3 265 268 1986
3 1715 2165 2330
3 1531 1529 1534
3 1022 1024 1576
3 658 693 1746
3 703 686 1067
3 1062 1576 1577
3 1023 1022 1062
3 236 1718 2394
3 1688 502 1740
3 1501 1477 2104
3 213 165 1509
3 646 795 1585
3 196 1737 1738
3 379 679 1795
3 639 640 683
3 924 875 1767
3 1752 699 1753
3 207 2192 2315
3 627 1636 1660
3 1217 1180 1745
3 730 728 1833
3 528 561 1591
3 1444 1417 1998
3 252 186 1602
3 1729 1445 2504
3 460 502 1688
3 1418 946 1778
3 1203 1200 1693
3 548 470 1628
3 849 668 1640
3 646 785 795
3 607 276 674
3 14 15 210
3 147 148 209
3 478 460 1688
3 1709 207 2315
3 1157 1546 1608
3 1155 1731 1899
3 1524 1934 2390
3 1775 921 1876
3 1433 1502 1503
3 470 458 1628
3 1223 1224 1225
3 1291 1569 1964
3 871 1056 1826
3 1781 1783 1915
3 1587 1067 2300
3 916 1038 1039
3 1388 1387 1389
3 1611 1610 1613
3 1075 1328 1329
3 1039 1290 1291
3 1538 1265 1804
3 1184 1185 2163
3 597 598 1794
3 1450 1356 2421
3 1835 576 2080
3 1629 1628 1631
3 1331 1330 1332
3 561 639 1591
3 1476 1480 1493
3 705 703 1586
3 639 683 1019
3 1951 1188 2106
3 436 446 1793
3 1472 1297 2142
3 1332 1387 1388
3 1345 984 1720
3 1329 1328 1330
3 1050 1048 1667
3 150 151 227
3 11 12 228
3 557 541 2256
3 1831 974 1879
3 134 229 1766
3 1357 1358 1638
3 1336 1641 2299
3 1650 1482 1962
3 1591 1019 2512
3 1506 1507 1570
3 1803 801 2029
3 1178 823 1972
3 1552 1553 1554
3 1290 1038 1294
3 1028 1313 1641
3 1237 1239 1597
3 993 1017 1100
3 893 2087 2094
3 149 1484 2528
3 1768 1142 1949
3 9 234 1673
3 1554 1553 1555
3 668 632 1640
3 711 806 1550
3 1628 458 1637
3 1098 1829 1830
3 1482 1331 1483
3 531 1818 2000
3 435 419 1790
3 1156 1157 1608
3 1182 1184 2179
3 510 512 1646
3 1231 1233 1250
3 946 841 1778
3 1483 1331 1571
3 1459 680 2458
3 1166 1040 1210
3 892 1657 1820
3 1042 1445 1726
3 1019 1020 1021
3 749 805 1810
3 234 1588 1589
3 1695 242 1892
3 556 1853 2483
3 1018 1572 1573
3 1529 1528 1530
3 1606 1558 1607
3 1761 1759 2308
3 1396 1032 1921
3 1018 956 1572
3 689 1150 1416
3 1827 1293 2515
3 149 150 1484
3 1647 656 1648
3 1543 694 2196
3 399 409 1783
3 545 525 1636
3 268 269 270
3 715 713 717
3 1100 1017 1392
3 1657 892 1747
3 207 22 1617
3 1666 884 2249
3 1671 1672 1769
3 1554 1555 1556
3 146 147 1537
3 1081 1444 1822
3 711 709 806
3 1443 2005 2322
3 660 658 1746
3 1166 1458 1754
3 916 796 917
3 1056 1728 1826
3 1068 1069 1275
3 184 185 1454
3 158 159 262
3 2007 1687 2231
3 805 1708 1810
3 1672 264 1986
3 1561 1562 1563
3 978 1075 1650
3 1590 1588 2457
3 215 25 1624
3 1551 1550 1565
3 1073 1346 1347
3 857 818 1584
3 1648 656 1649
3 675 674 821
3 561 594 639
3 1731 529 1899
3 2303 1454 2535
3 981 903 1040
3 1630 1629 1633
3 993 877 1017
3 724 718 726
3 512 603 1646
3 1676 235 1858
3 814 1060 1068
3 715 717 1567
3 1796 647 1870
3 1715 1171 2165
3 678 1592 1593
3 644 613 1824
3 1690 1525 2145
3 1297 1822 1823
3 271 656 1647
3 1704 1116 1705
3 1225 1226 1227
3 1275 1069 1338
3 910 956 1018
3 1824 1596 2154
3 1403 1100 1605
3 1221 1219 1222
3 1068 1060 1069
3 1901 245 1949
3 1081 1055 1321
3 1751 563 1752
3 1021 1022 1023
3 672 638 681
3 1095 657 1848
3 1235 1237 1248
3 1561 1556 1562
3 1265 1259 1804
3 524 1819 2016
3 978 1650 2362
3 1492 516 2494
3 229 1735 2061
3 185 186 252
3 157 158 253
3 152 153 233
3 9 10 234
3 1527 1529 1531
3 1808 1344 2360
3 1062 1577 1579
3 1509 1679 1977
3 424 454 1666
3 637 638 672
3 981 1040 1166
3 1555 1558 1606
3 751 749 1810
3 1166 1210 1458
3 1651 1313 2121
3 15 16 2260
3 1633 1632 2509
3 2167 1705 2276
3 551 602 2045
3 697 818 857
3 364 1786 1883
3 832 1189 2204
3 1476 1478 1479
3 678 665 1592
3 213 1509 2096
3 1015 888 1124
3 1062 1022 1576
3 679 1782 1795
3 680 1646 1995
3 1101 1100 1403
3 1109 433 1714
3 1248 1237 1597
3 733 730 1833
3 1702 213 2096
3 499 498 1828
3 1418 1778 2521
3 637 600 638
3 1048 1046 1054
3 1577 1576 1578
3 814 766 1060
3 1279 2252 2292
3 474 470 548
3 199 18 1676
3 157 253 1441
3 1048 1054 1667
3 471 472 2290
3 625 665 678
3 795 785 796
3 1264 1265 1266
3 1437 1926 2350
3 1362 2048 2168
3 1394 2337 2371
3 454 884 1666
3 1022 1020 1024
3 751 1810 1923
3 1046 1023 1580
3 1807 1701 1931
3 1618 208 1619
3 566 588 689
3 1828 498 1829
3 501 509 1599
3 1118 780 1775
3 878 817 929
3 1510 1511 1950
3 1618 1621 1694
3 1052 1081 1822
3 1416 1150 1715
3 1239 1241 1247
3 1396 1921 2067
3 1751 1752 1753
3 1264 1259 1265
3 539 566 1600
3 1762 1127 2496
3 1673 1788 2183
3 1555 1557 1558
3 1052 1050 1055
3 725 724 825
3 1142 1770 1771
3 681 853 867
3 454 501 884
3 1346 1420 1453
3 932 1147 1770
3 1546 1545 1547
3 533 582 1818
3 1266 1337 1460
3 1872 820 2318
3 1117 1119 1713
3 1081 1321 1417
3 1253 1259 1264
3 1569 771 2135
3 1052 1055 1081
3 1181 1178 1972
3 709 706 1627
3 1073 1076 1346
3 1098 1828 1829
3 1382 1380 2176
3 1442 1275 1443
3 919 999 1663
3 1789 828 1855
3 877 815 1684
3 509 539 631
3 992 877 993
3 1266 1265 1337
3 2268 1498 2340
3 1130 1032 1396
3 1095 1603 2508
3 886 826 887
3 531 533 1818
3 1131 1400 1881
3 447 437 516
3 2460 1132 2473
3 940 1535 2418
3 768 1873 2037
3 1813 1869 1954
3 1627 2163 2488
3 1497 1495 1645
3 1198 1409 2168
3 724 726 1912
3 1869 987 1954
3 763 1999 2338
3 1010 1170 1374
3 984 976 1720
3 1470 1743 1744
3 689 588 1150
3 1901 1949 2359
3 1640 632 1862
3 274 272 1787
3 563 564 1752
3 994 817 1505
3 737 1807 1931
3 1770 1147 1771
3 1233 1235 1733
3 2450 1418 2521
3 414 410 1821
3 908 1099 1850
3 1227 1228 1229
3 1692 1203 1693
3 1625 216 2194
3 512 528 603
3 1377 1357 1638
3 1465 1464 1470
3 1360 1359 2177
3 1686 2007 2095
3 1336 1028 1641
3 1857 751 1923
3 1758 572 1759
3 553 541 557
3 1171 1715 1811
3 956 1003 1073
3 1467 1465 1675
3 719 718 724
3 1509 1977 2096
3 1734 1625 1736
3 1503 1504 1868
3 592 597 1776
3 180 181 232
3 162 163 231
3 2308 1759 2370
3 1357 1114 1358
3 875 946 1010
3 509 631 1599
3 17 18 199
3 144 145 200
3 1099 906 1792
3 1469 1467 1494
3 605 589 1939
3 1208 1205 1211
3 354 344 2091
3 692 782 804
3 1010 946 1170
3 1463 1462 1464
3 716 715 718
3 714 713 715
3 271 273 656
3 139 1618 1694
3 549 277 686
3 673 672 766
3 1378 1377 1379
3 2007 868 2095
3 999 1028 1336
3 1208 1211 1447
3 601 545 627
3 1119 1643 1713
3 1332 1333 1387
3 910 912 956
3 520 521 2000
3 828 1789 1819
3 277 607 1520
3 1338 1339 2247
3 818 819 910
3 767 766 814
3 712 711 713
3 1494 1467 1675
3 639 594 640
3 2044 557 2256
3 235 20 1709
3 1620 236 2394
3 804 919 962
3 1862 702 2070
3 681 852 853
3 1559 1556 1561
3 1622 941 2471
3 2165 1440 2330
3 612 644 692
3 697 698 818
3 1903 1516 1994
3 371 379 1795
3 428 426 2138
3 1290 1294 2064
3 1384 1904 2432
3 566 689 1600
3 471 452 472
3 1092 1091 1093
3 1002 1131 1719
3 1090 1089 1091
3 875 841 946
3 1758 1760 1763
3 1562 1606 2085
3 1833 1830 2075
3 178 179 214
3 164 165 213
3 769 923 1815
3 692 644 782
3 804 782 919
3 182 183 256
3 160 161 257
3 1329 1331 1482
3 962 1663 1664
3 1177 1179 2042
3 403 405 1805
3 1461 1460 1462
3 140 208 1618
3 1859 232 1860
3 274 1787 2099
3 1381 2126 2186
3 1558 1560 1789
3 430 428 682
3 452 435 1683
3 1487 1156 1488
3 1470 1464 1743
3 597 1794 1893
3 1244 1253 1669
3 962 919 1663
3 258 8 1673
3 1087 1785 1786
3 970 1042 1726
3 199 1677 2149
3 1664 1663 1665
3 1229 1230 1231
3 991 827 1713
3 792 1603 1848
3 1822 1444 1823
3 665 666 697
3 19 20 235
3 142 143 236
3 728 1098 1833
3 532 530 1898
3 1015 1124 1372
3 1546 1547 1548
3 1851 1850 1853
3 1877 393 2240
3 923 1105 1815
3 1090 1091 1092
3 687 686 703
3 1683 435 1790
3 887 826 1961
3 684 663 1089
3 426 1934 2138
3 464 510 680
3 853 854 855
3 568 572 1758
3 1376 1357 1377
3 1205 1203 1692
3 1607 1789 1855
3 710 709 711
3 780 781 1775
3 1434 1103 1435
3 876 815 877
3 766 672 1656
3 1393 1590 2457
3 684 1089 1090
3 530 890 1898
3 926 1920 1943
3 696 414 1821
3 1563 1562 1777
3 1054 1046 1580
3 1398 1973 1974
3 137 216 1625
3 1210 1040 1430
3 1750 563 1751
3 2010 1665 2299
3 1510 1374 1511
3 1777 1562 2085
3 1707 252 1791
3 1932 1404 1933
3 459 438 1814
3 139 140 1618
3 1093 1156 1487
3 231 163 1658
3 699 722 723
3 1545 1095 2508
3 598 612 1794
3 579 554 1880
3 1941 1908 2401
3 1231 1232 1233
3 1831 1829 1841
3 1037 1383 1799
3 177 178 1506
3 636 600 637
3 1036 1539 2286
3 1356 1114 1357
3 1523 1516 2377
3 704 703 705
3 403 402 405
3 648 792 1848
3 723 756 808
3 1388 1389 2170
3 933 932 1770
3 223 1710 1711
3 1779 399 1783
3 1223 1222 1224
3 1028 1029 1313
3 257 161 1654
3 418 412 421
3 734 882 1807
3 693 657 1095
3 1368 1370 1436
3 136 137 1625
3 688 652 817
3 1075 1327 1328
3 540 479 1813
3 398 395 402
3 548 1629 1630
3 574 591 699
3 1469 1494 1495
3 1041 1598 2175
3 167 168 202
3 175 176 204
3 2045 2046 2201
3 186 187 1602
3 886 887 888
3 1253 1254 1259
3 8 9 1673
3 792 655 810
3 843 1145 1960
3 1180 1349 1745
3 1165 1345 1512
3 708 706 709
3 136 1625 1734
3 21 22 207
3 140 141 208
3 625 626 665
3 1093 1094 1156
3 1585 795 1834
3 1117 1713 1806
3 599 579 600
3 810 871 1826
3 1047 1046 1048
3 1292 1291 1293
3 161 162 1654
3 199 1676 1677
3 1260 1282 1804
3 1005 1142 1768
3 1233 1234 1235
3 792 810 922
3 1122 1719 1737
3 976 985 1720
3 1278 1279 2292
3 2390 1934 2531
3 1436 1437 2350
3 270 271 1647
3 1199 966 1846
3 1683 1342 2212
3 656 273 2124
3 699 591 722
3 1977 1139 2096
3 1738 1719 1881
3 1722 985 1874
3 1797 1448 1798
3 162 231 1654
3 632 604 1862
3 252 1602 1791
3 1051 1050 1052
3 1045 1023 1046
3 648 655 792
3 993 1100 1101
3 1321 1055 1322
3 806 709 1627
3 904 903 981
3 1220 1267 1268
3 648 605 655
3 1737 1719 1738
3 385 399 1779
3 506 499 1828
3 1132 266 1402
3 1170 1418 1419
3 1323 2302 2354
3 24 25 215
3 137 138 216
3 721 965 1919
3 1787 1414 2460
3 778 1117 1806
3 723 722 756
3 407 403 1805
3 564 574 1752
3 1049 1048 1050
3 842 841 875
3 1608 1546 1842
3 809 808 899
3 1517 1519 1520
3 1530 1532 1533
3 889 421 1772
3 913 1002 1122
3 1314 1316 1367
3 1017 877 1684
3 841 802 1778
3 1235 1236 1237
3 751 1857 1900
3 1114 924 1767
3 1344 1644 2360
3 1895 1394 2371
3 1518 1535 1861
3 1758 1759 1760
3 1122 1002 1719
3 546 563 1750
3 1056 1726 1727
3 663 660 1746
3 621 622 625
3 1720 985 1721
3 1857 1843 1900
3 808 756 913
3 1056 970 1726
3 27 28 230
3 134 135 229
3 908 906 1099
3 163 164 1658
3 1727 1726 1729
3 7 8 258
3 154 155 259
3 1101 1403 1404
3 808 913 1874
3 1260 1269 1282
3 1389 1387 2262
3 1297 1053 1822
3 1555 1553 1557
3 1463 1464 1465
3 230 28 1765
3 1237 1238 1239
3 554 553 1880
3 775 778 1806
3 985 899 1874
3 1270 1524 2199
3 489 1820 1936
3 692 1072 1794
3 1472 2142 2272
3 1845 496 1929
3 438 431 1814
3 613 615 1824
3 1241 1242 1245
3 1783 415 1915
3 1192 2081 2149
3 178 214 1506
3 1816 988 1817
3 1760 1759 1761
3 1103 1092 1623
3 1512 1345 1661
3 1876 921 2295
3 1165 984 1345
3 978 1074 1075
3 1239 1240 1241
3 542 541 553
3 813 988 1816
3 1148 984 1165
3 871 970 1056
3 472 452 1683
3 1207 1796 1870
3 1167 1166 1754
3 1296 1053 1297
3 966 964 1846
3 976 899 985
3 982 976 984
3 702 1815 2015
3 900 899 976
3 1143 995 1206
3 1576 1024 1827
3 1235 1248 1733
3 1558 1557 1560
3 943 995 1143
3 1920 1144 1943
3 1471 2115 2477
3 29 30 255
3 132 133 254
3 1630 1633 1634
3 1225 1224 1226
3 1925 1573 1926
3 1211 1205 1692
3 725 825 826
3 1113 924 1114
3 600 579 1988
3 717 1552 1567
3 1820 1657 1936
3 674 276 2099
3 395 393 1877
3 572 543 1897
3 1575 1308 2255
3 999 1000 1028
3 1118 1775 1876
3 1797 1798 2430
3 526 546 559
3 867 853 2186
3 1142 1771 1949
3 1068 1275 1442
3 679 385 1779
3 1607 1558 1789
3 580 568 1758
3 1244 1252 1253
3 1760 1761 1762
3 398 402 403
3 1476 1258 1478
3 418 421 889
3 1771 1147 1839
3 164 213 1658
3 1720 1721 2267
3 1668 1591 2512
3 1042 1128 1445
3 1098 1830 1833
3 1102 1092 1103
3 2249 884 2466
3 1104 1103 1434
3 410 416 1821
3 514 513 541
3 580 1758 1763
3 637 673 1741
3 1913 936 1914
3 1394 1395 2337
3 919 920 999
3 577 554 579
3 2111 1660 2263
3 231 1658 1659
3 612 613 644
3 568 543 572
3 770 775 1806
3 1445 1128 1446
3 1546 1548 1842
3 448 460 478
3 810 870 871
3 1789 1560 1819
3 1154 1082 1431
3 873 973 1802
3 379 385 679
3 837 850 921
3 1461 1462 1463
3 1346 1076 1420
3 1088 1344 1808
3 2125 1143 2353
3 931 977 978
3 882 772 1802
3 29 255 1765
3 849 1513 2180
3 1713 827 1806
3 1130 1396 1397
3 681 638 852
3 1417 1321 1873
3 1654 1402 2530
3 502 526 1740
3 1124 888 2177
3 1266 1460 1461
3 515 1175 1840
3 1253 1264 1669
3 479 466 1813
3 1727 1729 1757
3 379 380 385
3 1971 1480 2514
3 1637 1739 2459
3 1207 1205 1208
3 529 519 1899
3 1129 1845 1929
3 224 1661 2267
3 192 1856 2361
3 732 734 1807
3 1184 2163 2435
3 1119 1120 1353
3 415 414 431
3 719 724 725
3 559 546 1750
3 871 872 970
3 1038 917 1622
3 574 699 1752
3 166 167 1679
3 1117 1118 1119
3 1409 1196 2035
3 617 619 621
3 1172 1173 1439
3 1191 1005 1768
3 664 663 684
3 494 493 1841
3 890 529 1731
3 840 802 841
3 493 974 1841
3 385 386 399
3 679 1779 1780
3 371 376 379
3 416 433 1109
3 670 769 1815
3 902 866 903
3 1780 1779 1781
3 480 515 1840
3 970 971 1042
3 433 448 1714
3 28 29 1765
3 1005 949 1142
3 778 780 1117
3 959 1037 1799
3 1073 1003 1076
3 535 532 1898
3 1119 1118 1120
3 658 657 693
3 1378 1379 1380
3 1397 1396 1809
3 1610 1609 1612
3 1819 1560 2016
3 1837 952 1865
3 1719 1131 1881
3 1131 1399 1400
3 1352 1138 2058
3 399 406 409
3 548 1630 2041
3 1275 1338 2251
3 582 1816 1818
3 1835 1836 2144
3 993 1101 1980
3 1699 1698 1700
3 2407 364 2505
3 1189 1190 1788
3 1117 780 1118
3 1830 1829 1831
3 637 672 673
3 692 804 1072
3 1204 1203 1205
3 1374 1170 2139
3 612 692 1794
3 1642 1408 2286
3 723 808 809
3 450 459 1812
3 409 410 414
3 802 801 1778
3 1853 1854 2483
3 1042 1127 1128
3 1199 1846 2225
3 1147 990 1273
3 1383 1384 2432
3 432 431 438
3 1353 1120 1390
3 1093 1091 1094
3 2020 250 2254
3 148 149 1639
3 606 605 648
3 1970 2016 2422
3 2201 2046 2327
3 475 471 513
3 412 407 1951
3 1991 246 2139
3 727 695 728
3 1673 234 1788
3 1554 1556 1559
3 1089 663 1746
3 1846 964 2056
3 923 991 1088
3 409 406 410
3 729 728 730
3 1424 1427 1856
3 1473 1911 2407
3 1376 1377 1378
3 1010 1374 1510
3 853 852 854
3 366 369 1087
3 772 873 1802
3 1219 1218 1626
3 1766 229 2061
3 1088 991 1344
3 922 810 1826
3 518 506 695
3 405 402 2116
3 962 1664 2316
3 913 942 1002
3 932 990 1147
3 629 813 1816
3 876 877 992
3 399 386 406
3 932 845 990
3 1002 1123 1131
3 843 996 1145
3 781 837 1775
3 262 2304 2491
3 431 696 1814
3 1273 1695 1892
3 731 730 732
3 737 732 1807
3 439 438 450
3 1829 498 1841
3 800 685 801
3 767 814 815
3 1060 766 1656
3 673 766 767
3 1403 1605 1882
3 716 718 719
3 1338 1069 1339
3 847 752 1843
3 864 862 1116
3 2302 443 2519
3 923 827 991
3 526 559 1740
3 1911 1473 2358
3 1085 1310 1867
3 809 899 900
3 1227 1226 1228
3 729 730 731
3 1436 1370 1437
3 731 732 737
3 769 827 923
3 456 452 471
3 1433 1503 2471
3 1435 1103 1623
3 385 380 386
3 1141 1787 2460
3 1354 1088 1808
3 657 649 1848
3 415 431 432
3 484 892 1820
3 727 728 729
3 855 854 1450
3 1721 1722 1723
3 1643 1353 1644
3 1145 1916 1960
3 1421 1191 1422
3 466 1812 1813
3 943 944 995
3 1356 1357 1376
3 714 715 716
3 1156 1094 1157
3 598 611 612
3 631 1600 2298
3 590 589 605
3 965 969 1919
3 416 1109 1821
3 242 1697 2335
3 1548 1547 1549
3 550 573 584
3 584 604 632
3 409 414 415
3 712 713 714
3 642 670 702
3 818 698 819
3 1006 1005 1191
3 1624 1689 1691
3 169 170 237
3 173 174 238
3 956 912 1003
3 937 936 1913
3 1317 1025 1875
3 515 540 550
3 973 1799 1800
3 973 959 1799
3 518 695 727
3 910 819 912
3 584 573 604
3 1170 946 1418
3 173 238 1847
3 550 540 573
3 982 984 1148
3 900 976 982
3 441 435 452
3 448 478 1714
3 1849 1648 2173
3 1631 1628 1637
3 1830 1831 1832
3 1383 1216 1384
3 734 772 882
3 949 933 1770
3 1332 1330 1333
3 574 575 591
3 1105 1088 1354
3 702 670 1815
3 498 494 1841
3 827 770 1806
3 873 959 973
3 1390 1391 1415
3 450 438 459
3 950 949 1005
3 351 362 364
3 1313 1029 1314
3 432 438 439
3 837 838 850
3 1273 1274 1695
3 850 851 943
3 911 952 1837
3 1259 1260 1804
3 566 587 588
3 1037 1216 1383
3 1337 1265 1538
3 1087 369 1795
3 810 655 870
3 1559 1561 1566
3 1147 1273 1839
3 732 733 734
3 1662 867 2126
3 890 1731 2241
3 1854 1852 2397
3 515 479 540
3 451 450 466
3 697 666 698
3 1367 1316 1368
3 662 660 663
3 365 355 694
3 1358 1114 1767
3 379 376 380
3 1796 1448 1797
3 179 180 1859
3 790 668 849
3 569 568 580
3 690 860 931
3 466 450 1812
3 431 414 696
3 1973 1133 1974
3 651 649 657
3 467 466 479
3 1288 1289 1835
3 264 265 1986
3 1302 1303 1304
3 592 596 597
3 1873 1321 2037
3 544 543 568
3 275 277 549
3 209 1937 2389
3 539 565 566
3 1485 227 1486
3 2384 2190 2408
3 1781 1779 1783
3 480 479 515
3 689 1416 2413
3 1108 1161 1539
3 1867 1310 1895
3 1300 1301 1302
3 1695 1696 1697
3 633 632 668
3 1304 1451 1452
3 988 911 1837
3 168 169 1724
3 969 1012 1172
3 582 629 1816
3 1843 752 1900
3 629 812 813
3 710 711 712
3 1782 1780 1784
3 536 535 543
3 1089 1746 1969
3 1108 1107 1161
3 1514 1426 1856
3 486 484 1820
3 369 371 1795
3 1817 988 1924
3 493 609 974
3 1422 1191 2023
3 1426 1424 1856
3 842 875 924
3 922 1826 2259
3 989 1361 1886
3 928 1070 1288
3 669 668 790
3 1113 1114 1356
3 1027 847 1843
3 728 695 1098
3 734 735 772
3 975 1107 1108
3 955 859 1962
3 813 911 988
3 1208 1448 1796
3 1101 1405 1980
3 602 676 2045
3 586 581 589
3 546 547 563
3 493 491 609
3 628 1524 2390
3 348 344 354
3 1298 1299 1300
3 509 538 539
3 974 609 975
3 813 891 911
3 871 870 872
3 1355 1354 1423
3 489 486 1820
3 778 779 780
3 1025 1176 1875
3 772 773 873
3 803 1743 2347
3 167 202 1679
3 873 883 959
3 1483 1571 2375
3 427 1756 2221
3 540 1813 1954
3 1202 1200 1203
3 959 1035 1037
3 837 921 1775
3 1304 1305 1451
3 1799 1383 2195
3 604 642 1862
3 1470 1744 2474
3 1854 2397 2453
3 1282 1269 1386
3 1573 1572 2157
3 472 2222 2290
3 1307 1708 2341
3 769 770 827
3 1037 1215 1216
3 791 790 856
3 1053 1052 1822
3 1056 1727 1728
3 1341 1138 1352
3 1300 1299 1301
3 1814 696 1838
3 1198 1196 1409
3 492 491 493
3 439 450 451
3 1171 858 2132
3 1259 1254 1260
3 665 626 666
3 970 872 971
3 258 1602 2357
3 1296 1297 1472
3 490 489 491
3 516 437 2494
3 1298 1027 1299
3 846 845 932
3 501 508 509
3 460 461 502
3 448 449 460
3 482 480 1840
3 1229 1228 1230
3 604 641 642
3 1424 1423 1427
3 502 503 526
3 1028 1000 1029
3 935 933 949
3 1084 1085 1867
3 2028 1711 2353
3 1513 1426 1514
3 892 482 1840
3 852 638 1988
3 402 395 1877
3 738 737 845
3 413 412 418
3 1119 1353 1643
3 526 527 546
3 280 279 281
3 1731 1155 2123
3 1042 971 1127
3 1208 1447 1448
3 433 434 448
3 262 159 2304
3 184 1454 2303
3 1051 1052 1053
3 1816 1817 1818
3 1081 1417 1444
3 781 836 837
3 911 951 952
3 1090 1092 1102
3 202 168 1724
3 1085 1309 1310
3 408 407 412
3 1337 1538 1864
3 1515 1514 1516
3 530 529 890
3 1517 1518 1519
3 549 686 687
3 923 1088 1105
3 404 403 407
3 1835 1289 1836
3 1314 1367 2121
3 1380 1379 2416
3 670 671 769
3 899 808 1874
3 1040 903 1703
3 1596 1595 2154
3 1496 1495 1497
3 636 637 1741
3 1377 1638 2288
3 1288 1070 1289
3 1072 804 1981
3 1129 1334 1845
3 1865 1084 1866
3 792 922 1603
3 1253 1252 1254
3 981 1167 1792
3 1302 1301 1303
3 1641 1651 2019
3 952 953 1084
3 1813 1812 1869
3 732 730 733
3 975 1106 1107
3 1142 949 1770
3 981 1166 1167
3 840 841 842
3 451 466 467
3 1273 990 1274
3 1049 1050 1051
3 1473 2407 2505
3 968 966 1199
3 642 643 670
3 1310 1309 1311
3 422 419 435
3 1063 833 1082
3 919 782 920
3 911 891 951
3 1084 953 1085
3 1763 1764 2164
3 1498 1497 1682
3 515 550 1175
3 1079 937 1913
3 642 702 1862
3 845 737 1931
3 1394 1311 1395
3 1395 1521 1522
3 467 479 480
3 1755 1754 1793
3 1231 1230 1232
3 1557 1553 2030
3 1624 1691 2262
3 584 632 633
3 1094 1091 1969
3 708 709 710
3 1948 1627 2488
3 952 951 953
3 1102 1103 1104
3 1047 1048 1049
3 1310 1311 1394
3 1852 1099 1985
3 143 144 1717
3 813 812 891
3 1944 1044 1945
3 1105 1354 1355
3 1300 1302 1455
3 1914 936 1940
3 1415 1391 1710
3 1299 1027 1843
3 952 1084 1865
3 1695 1274 1696
3 776 774 1928
3 282 281 283
3 2003 1347 2279
3 1206 995 1499
3 1164 1685 1686
3 1551 1565 2030
3 969 1172 1919
3 633 668 669
3 734 733 735
3 1373 1372 1438
3 599 600 636
3 1431 1860 2487
3 1579 1577 1999
3 484 482 892
3 917 940 941
3 2144 1836 2169
3 1866 1084 1867
3 1110 1747 1748
3 998 1171 1811
3 1390 1120 1391
3 644 1824 2057
3 1362 1961 2048
3 944 1283 1825
3 1086 1027 1298
3 679 1780 1782
3 974 975 1879
3 507 506 518
3 1121 1079 1401
3 775 777 778
3 1965 762 2349
3 1045 1046 1047
3 1772 421 2106
3 16 17 2081
3 416 417 433
3 921 850 2125
3 1607 1855 1958
3 649 648 1848
3 1241 1240 1242
3 2012 1443 2251
3 926 928 1920
3 1487 1488 2025
3 1006 1191 1421
3 1355 1423 1424
3 1133 852 1988
3 591 592 1776
3 1299 1843 1857
3 1085 1308 1309
3 490 491 492
3 958 694 1575
3 1384 1216 1385
3 741 915 1878
3 1233 1232 1234
3 669 790 791
3 481 480 482
3 687 703 704
3 492 493 494
3 1634 1633 1922
3 1697 1696 1698
3 1721 985 1722
3 1839 1273 1892
3 772 735 773
3 488 486 489
3 950 1005 1006
3 1513 1514 1515
3 454 500 501
3 873 773 883
3 284 283 285
3 2185 1505 2442
3 959 883 1035
3 543 535 1897
3 1904 1384 2093
3 800 801 802
3 1037 1035 1215
3 1293 1964 1965
3 1239 1238 1240
3 943 1143 2125
3 1782 1784 1785
3 913 756 942
3 488 490 1884
3 1590 1749 2501
3 1235 1234 1236
3 791 856 1408
3 702 2015 2070
3 1108 1539 1540
3 1021 1023 1045
3 695 506 1828
3 1530 1528 1532
3 488 489 490
3 1621 1619 2161
3 704 705 706
3 1304 1303 1305
3 558 1704 2167
3 625 622 626
3 542 553 554
3 604 573 641
3 664 684 685
3 564 571 574
3 1108 1540 1879
3 1856 1427 2361
3 880 1025 1129
3 1395 1311 1521
3 1466 1465 1467
3 915 495 1884
3 1515 1516 1523
3 1237 1236 1238
3 606 648 649
3 999 920 1000
3 676 829 1043
3 2100 794 2142
3 227 151 1500
3 577 579 599
3 153 154 1671
3 1175 550 1927
3 1014 888 1015
3 286 285 287
3 1649 1280 2427
3 1725 204 2137
3 975 609 1106
3 1129 1317 1334
3 1109 1730 2426
3 1468 1467 1469
3 1131 1123 1399
3 1215 2235 2378
3 1976 1149 1989
3 397 395 398
3 746 743 1878
3 1041 1343 1598
3 975 1108 1879
3 741 495 915
3 1167 1754 1755
3 288 287 289
3 743 741 1878
3 1274 990 1931
3 1506 214 1507
3 857 1584 2277
3 2341 1522 2387
3 846 932 933
3 1107 1106 1110
3 584 633 1927
3 290 289 291
3 722 591 1776
3 1544 1094 1969
3 1135 270 1647
3 935 949 950
3 1920 1288 2080
3 754 1896 2108
3 1693 1199 2225
3 292 291 293
3 394 393 395
3 745 743 746
3 1002 942 1123
3 731 737 738
3 294 293 295
3 1018 1573 1925
3 296 295 297
3 298 297 299
3 321 322 325
3 317 320 321
3 314 315 317
3 312 313 314
3 310 311 312
3 308 309 310
3 1898 890 2275
3 306 307 308
3 304 305 306
3 1401 1079 1913
3 300 299 301
3 302 303 304
3 300 301 302
3 302 301 303
3 491 489 1936
3 298 299 300
3 304 303 305
3 306 305 307
3 308 307 309
3 310 309 311
3 312 311 313
3 314 313 315
3 317 315 320
3 321 320 322
3 1301 1299 1857
3 514 541 542
3 296 297 298
3 850 838 851
3 1310 1394 1895
3 294 295 296
3 590 605 606
3 292 293 294
3 651 657 658
3 290 291 292
3 1207 1208 1796
3 835 1976 1989
3 621 619 622
3 746 1878 1896
3 481 482 483
3 1026 847 1027
3 1335 1207 1870
3 1661 59 2266
3 727 729 1155
3 288 289 290
3 1058 776 1928
3 662 663 664
3 495 488 1884
3 1959 319 2522
3 943 851 944
3 1293 1291 1964
3 534 532 535
3 640 645 646
3 2280 1014 2385
3 286 287 288
3 591 575 592
3 521 519 529
3 13 14 2114
3 780 779 781
3 918 908 1850
3 837 836 838
3 209 148 1639
3 754 748 1896
3 745 746 747
3 769 671 770
3 929 1065 2197
3 1278 1058 1279
3 483 482 484
3 1564 1557 2030
3 633 807 1927
3 392 391 393
3 1057 1621 2161
3 569 580 581
3 284 285 286
3 876 992 1894
3 497 494 498
3 1630 1635 2041
3 982 1148 1918
3 612 611 613
3 700 634 1044
3 822 674 2099
3 880 1129 1929
3 432 439 654
3 1039 1291 1292
3 1164 1686 1989
3 1129 1025 1317
3 738 845 846
3 582 583 629
3 278 6 279
3 544 568 569
3 1701 1274 1931
3 747 749 751
3 1085 953 1308
3 928 930 1070
3 747 748 749
3 1421 1422 2415
3 902 903 904
3 1309 1308 1543
3 642 641 643
3 904 981 1792
3 646 784 785
3 536 543 544
3 1204 1205 1207
3 365 694 958
3 71 72 217
3 88 89 1901
3 87 88 193
3 101 102 189
3 85 86 242
3 99 100 241
3 74 75 192
3 91 92 219
3 94 95 191
3 83 84 220
3 97 98 221
3 77 78 218
3 80 81 194
3 89 90 245
3 62 63 244
3 60 61 188
3 64 65 223
3 67 68 190
3 90 91 1909
3 98 99 1905
3 61 62 1908
3 69 70 243
3 68 69 1907
3 70 71 1910
3 410 411 416
3 586 589 590
3 685 684 2029
3 390 389 391
3 1715 1150 1811
3 1924 1837 2215
3 282 283 284
3 496 497 1929
3 233 1671 1769
3 627 2185 2442
3 1567 1552 2062
3 629 630 812
3 424 453 454
3 583 562 1942
3 749 750 805
3 744 743 745
3 1897 535 1898
3 467 480 481
3 504 759 880
3 670 643 671
3 89 245 1901
3 193 88 1901
3 221 98 1905
3 245 90 1909
3 91 219 1909
3 62 244 1908
3 188 61 1908
3 99 241 1905
3 190 68 1907
3 71 217 1910
3 69 243 1907
3 243 70 1910
3 505 499 506
3 475 513 514
3 1945 1044 2071
3 1712 2125 2353
3 339 343 440
3 989 1360 1361
3 764 869 1152
3 778 777 779
3 1686 1685 1687
3 742 741 743
3 979 989 1886
3 729 731 1887
3 926 927 928
3 1305 1306 1307
3 1838 1278 2292
3 747 746 748
3 181 182 1652
3 1886 1361 2305
3 1595 1594 2486
3 597 596 598
3 928 1288 1920
3 1970 824 2156
3 1425 1424 1426
3 497 504 1929
3 748 746 1896
3 745 747 1900
3 998 858 1171
3 563 547 564
3 1155 729 1887
3 634 583 1942
3 1439 1173 1440
3 1026 1027 1086
3 79 80 1904
3 1533 1532 1536
3 1449 1426 1513
3 1106 609 1936
3 1318 1013 1319
3 1098 695 1828
3 492 494 496
3 750 748 754
3 731 738 1887
3 2415 1422 2516
3 533 562 582
3 988 1837 1924
3 1216 1215 1863
3 534 535 536
3 747 751 1900
3 1753 809 2119
3 1183 824 1970
3 740 495 741
3 80 194 1904
3 893 383 2087
3 655 605 1939
3 1884 2034 2082
3 1301 1857 1923
3 1307 1306 1708
3 752 745 1900
3 750 754 755
3 76 77 1903
3 2090 2347 2365
3 255 30 2159
3 132 254 2160
3 448 434 449
3 753 848 926
3 1075 1074 1327
3 487 488 495
3 377 381 647
3 483 484 485
3 755 754 2148
3 1584 1925 2277
3 1186 1183 1970
3 951 891 1281
3 485 484 486
3 546 527 547
3 133 134 1766
3 1786 1785 2409
3 280 281 282
3 460 449 461
3 744 745 752
3 77 218 1903
3 983 1918 2342
3 1708 1306 1810
3 1389 2069 2170
3 487 486 488
3 641 573 1954
3 507 518 519
3 502 461 503
3 519 518 1899
3 1202 1203 1204
3 821 897 1972
3 92 93 1902
3 521 529 530
3 749 748 750
3 2176 1380 2416
3 885 826 886
3 485 486 487
3 371 372 376
3 1289 1070 1871
3 1110 1657 1747
3 753 926 1943
3 700 1044 1944
3 880 881 1025
3 496 1845 2034
3 1072 1981 2393
3 462 464 2134
3 1949 1771 2359
3 1044 634 1942
3 550 584 1927
3 1390 1415 2118
3 526 503 527
3 990 845 1931
3 1009 1213 1214
3 740 742 1144
3 219 92 1902
3 727 1155 1899
3 369 370 371
3 623 690 2150
3 1279 1058 1928
3 1408 2235 2286
3 487 495 740
3 979 1886 2086
3 1305 1303 1306
3 421 412 1951
3 843 844 996
3 633 669 807
3 518 727 1899
3 826 825 1961
3 1657 1106 1936
3 1172 1012 1173
3 740 741 742
3 433 417 434
3 505 506 507
3 1333 1674 2437
3 742 743 744
3 469 458 470
3 1381 1380 1382
3 1293 1965 2515
3 1554 1559 2062
3 553 557 2499
3 1774 389 2339
3 497 498 499
3 483 485 576
3 740 1144 1935
3 773 735 834
3 366 367 369
3 1120 1118 1876
3 1515 1523 1574
3 1319 1013 2039
3 1303 1301 1923
3 457 447 458
3 561 593 594
3 1355 1424 1425
3 609 491 1936
3 204 1732 2137
3 791 1408 1642
3 995 944 1825
3 456 471 475
3 1692 1693 2239
3 580 1763 2164
3 1292 1293 2117
3 441 452 456
3 388 384 389
3 823 821 1972
3 504 880 1929
3 176 177 1680
3 1070 1071 1871
3 15 2260 2477
3 362 363 366
3 2178 2300 2449
3 1035 883 1036
3 2285 1563 2307
3 978 977 1074
3 1090 1102 2029
3 1810 1306 1923
3 496 494 497
3 1306 1303 1923
3 432 654 1915
3 934 933 935
3 356 355 365
3 398 403 404
3 635 701 843
3 1110 1106 1657
3 574 571 575
3 1025 881 1176
3 386 380 786
3 415 432 1915
3 343 347 1911
3 1070 930 1071
3 1688 1740 2231
3 1385 1216 1863
3 1696 1274 1701
3 1645 305 2317
3 880 759 881
3 926 848 927
3 1427 1423 2217
3 1339 1662 2388
3 770 774 775
3 1263 1257 1428
3 1337 1864 2412
3 349 348 355
3 2267 1721 2498
3 753 752 847
3 1375 1086 1473
3 900 982 983
3 332 335 739
3 429 428 430
3 744 752 753
3 1171 2132 2165
3 1425 1426 1449
3 987 641 1954
3 1883 1786 2409
3 427 426 428
3 928 927 930
3 1815 1105 2015
3 1206 1499 1941
3 410 406 411
3 573 540 1954
3 497 499 504
3 528 560 561
3 1933 1404 2399
3 1091 1089 1969
3 1804 1282 2073
3 504 505 759
3 963 924 1113
3 1711 1710 1712
3 881 759 1146
3 968 1199 1200
3 351 352 362
3 848 847 1026
3 521 530 531
3 1884 490 2034
3 1277 957 1966
3 1349 1350 2329
3 676 1043 2045
3 997 1159 1286
3 517 1889 1890
3 781 835 836
3 944 948 1283
3 722 1776 2026
3 507 519 520
3 2040 1352 2058
3 1276 957 1277
3 446 437 447
3 931 860 977
3 361 359 765
3 1248 1536 2534
3 512 523 528
3 408 412 413
3 1368 1369 1370
3 451 2169 2223
3 192 75 1994
3 942 756 2026
3 345 344 348
3 764 1152 1963
3 413 418 419
3 1286 1773 1774
3 770 671 774
3 275 549 2124
3 1497 1645 2461
3 1982 1472 2272
3 422 435 441
3 281 279 736
3 1134 270 1135
3 582 562 583
3 1421 2415 2454
3 485 487 1935
3 2300 1067 2480
3 1578 1576 1827
3 930 927 1061
3 1026 1086 1375
3 922 2259 2379
3 1391 1120 1876
3 1495 1494 2493
3 404 407 408
3 879 2178 2449
3 1700 1698 2036
3 607 1517 1520
3 753 847 848
3 416 411 417
3 1144 742 1943
3 775 776 777
3 754 2108 2148
3 1006 1421 1953
3 585 581 586
3 531 530 532
3 235 1709 1888
3 520 519 521
3 1180 1181 1349
3 1146 759 1967
3 708 710 1921
3 1350 2253 2329
3 436 430 437
3 504 499 505
3 643 641 987
3 336 330 517
3 811 1059 1149
3 1164 1411 1685
3 846 933 934
3 635 843 1960
3 983 982 1918
3 971 872 1096
3 1149 1163 1164
3 169 237 1724
3 1314 1315 1316
3 629 583 630
3 891 812 1916
3 462 463 464
3 487 740 1935
3 798 2084 2189
3 1814 1838 2292
3 1284 1489 1491
3 340 336 2014
3 1670 1461 2200
3 920 782 2057
3 890 2241 2275
3 510 511 512
3 278 279 280
3 839 802 840
3 1858 235 1888
3 1698 1696 2036
3 104 105 222
3 57 58 224
3 1185 1183 1186
3 588 587 623
3 638 600 1988
3 1282 1386 2245
3 811 776 1058
3 816 815 876
3 2034 1845 2082
3 761 636 1741
3 566 565 587
3 174 175 1725
3 347 350 351
3 1469 1495 1496
3 1059 1058 1278
3 811 1149 1976
3 576 485 1935
3 659 658 660
3 859 1153 1962
3 76 1903 1994
3 1821 1109 2426
3 1294 1038 1622
3 733 1833 2075
3 992 993 1980
3 1566 1561 2285
3 525 474 2041
3 464 465 510
3 343 346 347
3 360 893 1982
3 650 649 651
3 896 608 936
3 950 1006 1007
3 1508 1859 1860
3 539 538 565
3 440 343 1911
3 341 340 344
3 221 1905 1906
3 1297 1823 2142
3 759 505 1967
3 1295 1053 1296
3 473 470 474
3 1463 1465 1466
3 1143 1206 2028
3 799 685 800
3 1210 2077 2203
3 509 508 538
3 492 496 2034
3 1553 1551 2030
3 1260 1261 1269
3 1430 1040 1703
3 586 590 1940
3 838 836 868
3 1705 624 2276
3 1749 972 2501
3 742 744 1943
3 804 962 1981
3 1367 1368 2254
3 531 532 533
3 337 336 340
3 1157 1094 1544
3 536 544 1158
3 812 630 1960
3 781 779 835
3 56 57 1947
3 630 583 634
3 1405 1404 1932
3 1281 891 1916
3 339 342 343
3 1411 1163 1730
3 322 323 324
3 344 340 2091
3 1735 1734 1736
3 75 76 1994
3 430 682 2494
3 1907 243 2360
3 589 581 2164
3 694 355 2196
3 744 753 1943
3 775 774 776
3 1210 1430 2077
3 335 338 339
3 1102 1803 2029
3 1078 937 1079
3 870 655 1939
3 505 507 1967
3 357 360 1982
3 1896 1878 2101
3 326 325 328
3 934 935 957
3 585 608 895
3 333 330 336
3 1270 1272 1524
3 688 817 878
3 507 520 1967
3 1428 1257 2074
3 1818 1817 2000
3 896 937 1077
3 934 957 1111
3 329 328 330
3 1499 995 1825
3 944 851 948
3 387 445 462
3 1678 1161 2228
3 777 776 811
3 313 311 757
3 324 331 332
3 848 1026 1955
3 1312 998 1811
3 1321 1322 2037
3 1080 1079 1121
3 1105 1355 2015
3 1645 2317 2461
3 1559 1568 2062
3 332 334 335
3 501 500 508
3 321 325 326
3 394 395 397
3 322 320 323
3 1529 1530 2171
3 1137 797 1138
3 811 1058 1059
3 661 660 662
3 569 581 585
3 183 4 2303
3 5 160 2304
3 1340 1138 1341
3 1660 1626 2185
3 1743 1464 2347
3 1026 1375 1955
3 1149 1059 1163
3 1736 1625 2194
3 1322 1667 2434
3 311 309 1959
3 309 307 319
3 894 700 1944
3 533 534 562
3 1276 1277 1366
3 2190 1706 2408
3 533 532 534
3 1214 1213 1410
3 1164 1163 1411
3 843 701 844
3 1009 1214 2055
3 234 1589 1788
3 2000 1817 2174
3 317 321 2050
3 328 325 945
3 392 393 394
3 588 623 2089
3 1162 958 1681
3 1078 1080 1136
3 927 848 1955
3 1496 1497 1498
3 390 391 392
3 1061 927 1955
3 1283 948 1284
3 635 634 700
3 1244 1251 1252
3 218 78 2093
3 756 722 2026
3 1071 1784 2419
3 1218 1505 2185
3 1284 948 1285
3 1489 1285 1490
3 918 1850 1851
3 684 1090 2029
3 1759 572 2537
3 1691 1690 2446
3 1979 1158 2071
3 606 649 650
3 2045 1043 2046
3 103 104 2025
3 630 634 635
3 360 383 893
3 406 386 2043
3 1909 219 2023
3 1111 957 1276
3 1925 1437 2277
3 1536 2268 2340
3 854 852 1133
3 233 153 1671
3 651 658 659
3 2099 1787 2368
3 1033 1032 1130
3 1015 1372 1373
3 1412 942 2026
3 253 264 1441
3 1531 1534 2332
3 701 700 894
3 106 107 1990
3 2048 1961 2455
3 276 274 2099
3 738 846 1968
3 1325 925 1326
3 896 936 937
3 585 586 608
3 1450 854 1973
3 1361 1360 1362
3 1045 1668 2512
3 303 301 444
3 996 844 997
3 79 1904 2093
3 1989 1686 2095
3 1928 774 2033
3 1942 562 1979
3 287 285 316
3 935 950 1966
3 1466 1467 1468
3 1242 1243 1244
3 1887 738 1968
3 2115 210 2477
3 878 929 1083
3 1326 1736 2194
3 886 888 1014
3 895 608 896
3 289 287 1978
3 821 822 897
3 936 608 1940
3 613 614 615
3 51 52 1996
3 417 411 1160
3 1149 1164 1989
3 386 786 2043
3 285 283 1971
3 1309 1543 2147
3 375 373 2053
3 371 370 372
3 779 777 1976
3 1286 1159 1773
3 2177 887 2376
3 1560 1557 1564
3 1403 1882 2399
3 1727 1757 2246
3 279 6 2049
3 1619 1438 2438
3 291 289 758
3 1781 1915 2294
3 425 401 426
3 349 355 356
3 66 67 2118
3 474 548 2041
3 1686 1687 2007
3 1262 1456 1457
3 1123 942 1412
3 1916 812 1960
3 1355 1425 2015
3 735 733 2075
3 1861 879 2449
3 1284 1285 1489
3 490 492 2034
3 366 363 367
3 980 578 2051
3 906 904 1792
3 534 536 1979
3 842 924 963
3 2051 578 2083
3 1077 937 1078
3 1102 1104 1803
3 894 1944 1946
3 398 404 2060
3 1007 1006 1953
3 369 367 370
3 348 354 2196
3 1078 1079 1080
3 1378 1380 1381
3 1568 1365 2439
3 608 586 1940
3 598 610 611
3 760 636 761
3 869 1137 1351
3 671 643 2033
3 1661 1345 2267
3 938 914 1057
3 783 761 914
3 576 1835 2144
3 388 389 390
3 297 295 318
3 454 453 500
3 1906 1728 2246
3 1439 1440 2468
3 1159 1013 1318
3 764 797 869
3 236 143 1717
3 782 644 2057
3 592 595 596
3 1542 2332 2443
3 1521 1311 2147
3 345 348 349
3 1304 1452 2205
3 1644 1907 2360
3 2146 1125 2149
3 997 844 1013
3 628 375 2053
3 299 297 1984
3 957 935 1966
3 664 685 799
3 301 299 1975
3 362 352 363
3 777 811 1976
3 1942 1979 2071
3 1001 920 2057
3 312 314 768
3 1552 1554 2062
3 615 616 617
3 357 1982 2076
3 800 802 839
3 774 671 2033
3 1749 1169 2105
3 365 958 1162
3 617 618 619
3 283 281 1938
3 1351 1772 2414
3 1525 1765 2489
3 846 934 1968
3 635 700 701
3 555 554 577
3 536 1158 1979
3 1101 1404 1405
3 630 635 1960
3 1811 1150 2089
3 2113 1666 2249
3 172 173 1847
3 107 108 195
3 54 55 196
3 1191 1768 2023
3 1455 1302 2205
3 115 116 2017
3 1387 1333 2437
3 659 661 764
3 1080 1121 1188
3 50 51 2011
3 411 406 2043
3 295 293 1983
3 643 987 2033
3 707 706 708
3 129 130 261
3 32 33 260
3 2159 260 2265
3 449 434 567
3 1314 1029 1315
3 917 796 940
3 378 375 628
3 108 109 1991
3 2370 1759 2537
3 341 344 345
3 997 1013 1159
3 544 569 1993
3 950 1007 1966
3 477 474 525
3 351 350 352
3 1696 1701 2036
3 334 331 803
3 1137 1138 1340
3 562 534 1979
3 109 110 246
3 52 53 247
3 1368 1316 1369
3 659 660 661
3 33 34 2002
3 123 124 2005
3 835 779 1976
3 851 838 1992
3 1530 1533 2172
3 1668 1045 2348
3 1162 1681 1706
3 342 338 468
3 298 300 358
3 765 359 2065
3 725 826 885
3 35 36 2003
3 46 47 2019
3 38 39 2006
3 336 517 2014
3 934 1111 1968
3 116 117 2018
3 650 651 1963
3 223 1711 2162
3 640 594 645
3 1333 1330 2192
3 104 222 2025
3 1603 922 2379
3 963 1113 1115
3 2084 1193 2189
3 564 570 571
3 36 37 2004
3 57 224 1947
3 1542 1601 2269
3 122 123 2012
3 1000 920 1001
3 127 128 240
3 34 35 239
3 383 387 2087
3 1161 1107 2228
3 1781 2294 2419
3 1201 1200 1202
3 124 125 225
3 37 38 226
3 1340 1341 1342
3 869 797 1137
3 839 840 1008
3 1158 544 1993
3 1326 925 1894
3 352 350 353
3 326 329 954
3 1864 2344 2412
3 836 835 2095
3 1051 1053 1295
3 1031 720 1032
3 503 461 787
3 1407 1112 2044
3 661 662 2058
3 838 868 1992
3 112 113 197
3 49 50 198
3 1359 980 1413
3 121 122 211
3 40 41 212
3 48 49 2010
3 113 114 2009
3 1741 673 2131
3 41 42 2020
3 120 121 2013
3 1409 2035 2097
3 1511 1374 2506
3 114 115 248
3 47 48 249
3 42 43 250
3 119 120 251
3 171 6 201
3 6 172 203
3 585 895 1993
3 43 44 2024
3 118 119 2021
3 905 904 906
3 764 661 797
3 337 340 341
3 1413 980 2051
3 117 118 205
3 44 45 206
3 347 346 350
3 1420 1076 1525
3 324 323 331
3 434 417 2031
3 965 967 969
3 716 719 788
3 1260 1254 1261
3 2053 373 2103
3 2069 2068 2170
3 326 328 329
3 1706 996 2408
3 273 275 2124
3 969 1011 1012
3 590 606 2001
3 1718 1611 2280
3 1914 1940 2001
3 915 1884 2082
3 329 330 333
3 620 859 955
3 2168 1409 2305
3 296 298 1997
3 915 2082 2101
3 339 338 342
3 1218 994 1505
3 333 336 337
3 266 263 1742
3 1873 768 2127
3 244 63 2162
3 64 223 2162
3 343 342 346
3 914 761 2258
3 310 312 1987
3 799 800 2055
3 302 304 763
3 1559 1566 1568
3 1598 1343 2114
3 592 575 595
3 341 345 794
3 189 1842 2220
3 767 815 816
3 1003 912 1004
3 839 1008 1009
3 1263 1428 1429
3 564 547 570
3 1845 1334 2082
3 332 331 334
3 901 866 902
3 651 659 1963
3 1009 1112 1213
3 335 334 338
3 569 585 1993
3 1665 1336 2299
3 1945 2071 2153
3 863 862 864
3 907 906 908
3 1849 1486 1930
3 1935 1144 2080
3 967 966 968
3 809 900 2119
3 865 864 866
3 835 1989 2095
3 190 1907 2417
3 333 337 522
3 1110 1748 2228
3 1193 1194 1195
3 94 191 2166
3 473 1854 2453
3 1769 1134 2369
3 948 851 1992
3 237 170 2216
3 420 419 422
3 1448 1447 2364
3 483 576 2144
3 721 1919 2032
3 885 886 1891
3 613 611 614
3 886 1014 1891
3 1160 411 2043
3 1918 1283 2342
3 1651 206 2485
3 1242 1240 1243
3 598 596 610
3 1295 1296 1459
3 1185 1186 1948
3 1425 1449 2070
3 294 296 762
3 1285 948 1992
3 925 876 1894
3 712 714 789
3 603 1668 2398
3 1940 590 2001
3 721 570 964
3 834 735 2075
3 1144 1920 2080
3 2263 1635 2511
3 1204 1207 1335
3 2235 1408 2378
3 965 964 966
3 1990 1435 2218
3 397 398 2060
3 1138 797 2058
3 1787 1141 2368
3 2068 820 2170
3 360 359 361
3 387 462 2087
3 1524 1272 1934
3 819 698 820
3 1197 1196 1198
3 1662 2126 2388
3 78 79 2093
3 1150 588 2089
3 1269 1261 1270
3 1878 915 2101
3 451 467 2169
3 2262 1387 2437
3 1009 1008 1112
3 757 311 1959
3 897 898 1139
3 1854 473 2483
3 2015 1425 2070
3 2082 1334 2101
3 963 1115 1174
3 1047 1049 1287
3 1194 423 1196
3 321 326 2050
3 417 1160 2031
3 854 1133 1973
3 1201 1212 1348
3 705 1586 2163
3 309 319 1959
3 1353 1390 2417
3 427 428 429
3 357 356 359
3 606 650 2001
3 549 1280 2124
3 1213 1112 1407
3 256 2303 2535
3 356 365 2065
3 662 664 2040
3 701 894 2039
3 1325 1371 2451
3 666 626 667
3 1902 93 2166
3 1236 1234 1246
3 800 839 2055
3 1869 1812 2252
3 1197 1364 1365
3 576 1935 2080
3 404 408 798
3 1678 807 2529
3 1560 1564 2016
3 1319 2039 2122
3 425 426 427
3 349 356 357
3 308 310 327
3 1716 622 2484
3 1801 82 2289
3 1768 1949 2420
3 2006 1926 2507
3 351 364 2407
3 420 423 1193
3 659 764 1963
3 292 294 2038
3 840 842 2027
3 736 279 2049
3 372 373 374
3 461 449 2052
3 2189 1195 2285
3 1174 1115 1398
3 367 363 961
3 909 908 918
3 1738 247 2402
3 1007 1761 2308
3 288 290 2135
3 422 441 2035
3 623 624 690
3 537 525 545
3 1953 1421 2454
3 1887 1968 2123
3 861 691 862
3 654 439 2223
3 1136 1080 2054
3 1312 1811 2089
3 575 571 2032
3 383 361 384
3 968 1200 1201
3 797 661 2058
3 1423 1354 2381
3 1180 1178 1181
3 1513 1515 2180
3 72 73 2217
3 462 445 463
3 12 13 2136
3 457 458 469
3 542 554 555
3 599 636 760
3 254 133 1766
3 1130 1397 1937
3 404 798 2060
3 1044 1942 2071
3 690 691 860
3 357 359 360
3 1008 2027 2152
3 1232 1230 1255
3 372 370 373
3 850 943 2125
3 1457 1456 1492
3 1952 324 2282
3 155 2 2356
3 0 7 2357
3 2017 1379 2288
3 918 1851 2008
3 195 1991 2517
3 2090 803 2347
3 1244 1243 1251
3 290 292 368
3 1432 1082 2214
3 1008 840 2027
3 1743 803 2296
3 1013 844 2039
3 365 1162 2065
3 1594 1315 2184
3 387 384 388
3 1508 1860 2311
3 547 527 2056
3 2005 225 2322
3 314 317 2127
3 1853 556 2327
3 201 6 278
3 1907 1644 2417
3 1896 2101 2108
3 646 645 784
3 538 508 558
3 374 375 377
3 1630 1634 1635
3 1579 1999 2352
3 1647 1648 1849
3 1313 1314 2121
3 1179 1433 2042
3 844 701 2039
3 1252 1251 2098
3 816 876 925
3 1922 1228 2281
3 392 394 396
3 1915 654 2294
3 1652 1653 2487
3 429 430 436
3 456 475 476
3 1605 1392 2510
3 126 1882 2284
3 1784 1780 2419
3 500 453 960
3 377 378 381
3 2178 1587 2300
3 1222 1219 1626
3 413 419 420
3 381 382 400
3 2169 1836 2223
3 1906 1905 2129
3 616 614 793
3 1170 1419 2139
3 101 189 2220
3 241 100 2220
3 1968 1111 2123
3 567 434 2031
3 615 614 616
3 1032 720 1921
3 682 428 2138
3 469 470 473
3 339 440 2261
3 1501 238 2226
3 1154 1431 1653
3 446 447 457
3 1251 1243 1257
3 2229 315 2495
3 1201 1202 1212
3 785 784 879
3 464 463 465
3 66 2118 2395
3 324 332 2282
3 286 288 771
3 17 199 2081
3 571 570 721
3 611 610 2092
3 617 616 618
3 1542 1531 2332
3 400 401 424
3 1325 1326 1371
3 1140 1406 1702
3 1323 443 2302
3 1926 1573 2507
3 436 437 446
3 1262 1457 2098
3 67 190 2118
3 1518 1861 2449
3 989 1359 1360
3 1063 1082 1154
3 1757 96 2526
3 969 967 1011
3 868 836 2095
3 1215 1035 2235
3 96 1757 2309
3 261 2160 2380
3 1381 1382 2126
3 1468 1469 2182
3 1334 1317 2108
3 861 863 1064
3 1270 1261 1271
3 360 361 383
3 287 316 1978
3 1856 192 2367
3 1905 241 2129
3 1615 1809 2425
3 528 523 560
3 979 980 989
3 662 2040 2058
3 721 964 965
3 170 171 2216
3 664 799 2040
3 512 511 523
3 1201 1348 2107
3 620 618 858
3 758 289 1978
3 859 858 998
3 424 425 453
3 1616 1615 2193
3 444 301 1975
3 561 560 593
3 965 966 967
3 1798 376 2430
3 340 2014 2091
3 510 465 511
3 107 195 1990
3 1080 1188 2054
3 1153 998 1312
3 1226 1224 1249
3 1012 1011 1363
3 902 904 905
3 842 963 2027
3 268 270 1134
3 865 901 1125
3 2077 558 2102
3 282 284 442
3 1977 1679 2253
3 1496 1498 2047
3 284 286 2063
3 281 736 1938
3 2132 793 2165
3 1674 215 2437
3 2078 1855 2411
3 839 1009 2055
3 1182 824 1183
3 1168 947 1169
3 1289 1871 2242
3 316 285 1971
3 1270 1271 1272
3 1755 1793 2264
3 51 1996 2011
3 383 384 387
3 1146 1924 2215
3 1279 1928 2202
3 619 618 620
3 1194 1196 1197
3 555 578 979
3 1937 1639 2528
3 1262 1257 1263
3 389 384 2339
3 2251 1338 2464
3 1155 1887 2123
3 1151 1937 2528
3 465 463 828
3 1318 1319 2116
3 1687 1688 2231
3 326 954 2050
3 297 318 1984
3 1308 953 2255
3 1846 2056 2198
3 320 315 2229
3 1254 1252 2059
3 760 761 783
3 951 1281 2255
3 1459 1296 2094
3 2288 1638 2470
3 1975 299 1984
3 52 247 1996
3 468 338 2090
3 2140 1511 2506
3 1125 1126 1192
3 593 824 1182
3 720 708 1921
3 704 706 707
3 623 587 624
3 2044 1112 2152
3 1393 1169 1749
3 900 983 2119
3 783 914 938
3 255 2265 2489
3 2039 894 2122
3 317 2050 2127
3 1866 1867 2513
3 374 373 375
3 429 436 455
3 387 388 445
3 1193 423 1194
3 555 577 578
3 1074 977 1187
3 449 567 2052
3 1197 1198 1364
3 2154 1595 2486
3 1486 1849 2173
3 318 295 1983
3 939 1016 1844
3 131 132 2160
3 30 31 2159
3 881 1146 2215
3 1294 1868 2238
3 1300 1455 2314
3 1365 1364 1912
3 783 938 939
3 2061 1735 2441
3 551 545 601
3 2194 216 2536
3 1251 1257 1262
3 888 887 2177
3 1364 1198 2048
3 1498 1682 2340
3 1589 1590 2501
3 60 188 2266
3 1401 1913 2324
3 195 108 1991
3 420 422 423
3 1675 1470 2474
3 258 1673 2183
3 2161 1619 2438
3 1296 1472 2094
3 1808 1910 2381
3 334 803 2090
3 1490 1285 2232
3 523 511 524
3 1240 1238 2074
3 1184 1183 1185
3 39 40 2151
3 473 474 477
3 1461 1463 2200
3 2072 353 2073
3 861 862 863
3 1206 1941 2401
3 958 1575 2287
3 614 611 2092
3 110 111 2140
3 1136 2054 2110
3 645 594 2133
3 260 33 2002
3 673 767 2131
3 989 980 1359
3 1741 2131 2258
3 1317 1875 2148
3 894 1946 2122
3 863 864 865
3 787 461 2052
3 857 2277 2386
3 109 246 1991
3 2017 116 2018
3 1182 1183 1184
3 377 375 378
3 816 925 1324
3 865 866 901
3 1262 1263 1456
3 359 356 2065
3 2129 241 2472
3 283 1938 1971
3 1458 1210 2203
3 1076 1003 2145
3 196 1738 2402
3 1033 1130 1151
3 1188 1121 2106
3 1140 1702 2096
3 549 687 1280
3 1694 1621 2191
3 861 1064 2112
3 1548 1549 2129
3 1784 1071 2462
3 714 716 2066
3 1961 825 2455
3 1447 1211 2250
3 979 578 980
3 905 907 1209
3 381 378 382
3 457 469 552
3 595 575 2032
3 408 413 2084
3 481 483 2144
3 1745 1349 2293
3 1980 1405 2441
3 198 50 2011
3 248 115 2017
3 912 819 2068
3 620 858 859
3 707 708 720
3 821 674 822
3 514 542 2086
3 400 382 401
3 123 2005 2012
3 1772 1351 2374
3 34 239 2002
3 768 314 2127
3 2003 36 2004
3 280 282 2079
3 124 225 2005
3 596 595 2130
3 593 560 824
3 1504 1502 2519
3 239 35 2003
3 1311 1309 2147
3 1318 1877 2240
3 1860 1432 2311
3 1416 1715 2330
3 859 998 1153
3 352 353 2072
3 312 768 1987
3 2027 1174 2152
3 226 38 2006
3 1827 1024 2117
3 1710 1391 2295
3 690 624 691
3 37 226 2004
3 1153 1312 1885
3 853 855 2186
3 1892 242 2373
3 1967 520 2174
3 939 938 1016
3 47 249 2019
3 388 390 2078
3 1991 2139 2517
3 905 906 907
3 571 721 2032
3 1196 423 2035
3 1324 925 1325
3 1151 1130 1937
3 363 352 2072
3 345 349 2076
3 1031 1032 1033
3 214 179 1859
3 211 122 2012
3 602 601 652
3 117 205 2018
3 710 712 2067
3 1602 187 2357
3 520 2000 2174
3 85 242 2335
3 220 84 2335
3 381 400 2113
3 1586 1587 2435
3 424 401 425
3 963 1174 2027
3 860 691 861
3 610 596 2130
3 1958 2078 2431
3 570 547 2056
3 237 2216 2354
3 1211 1692 2219
3 298 358 1997
3 909 947 1041
3 441 456 2097
3 1135 1647 1849
3 1601 1542 2443
3 197 113 2009
3 49 198 2010
3 1911 347 2407
3 1729 191 2309
3 212 41 2020
3 121 211 2013
3 222 105 2218
3 1125 901 1126
3 114 248 2009
3 249 48 2010
3 42 250 2020
3 251 120 2013
3 233 1769 2369
3 1870 647 2113
3 794 345 2076
3 250 43 2024
3 119 251 2021
3 901 902 2141
3 964 570 2056
3 739 335 2261
3 2108 1317 2148
3 577 599 2083
3 205 118 2021
3 44 206 2024
3 1247 1241 2323
3 1894 992 2244
3 6 203 2049
3 1642 1678 2529
3 1417 1873 2333
3 1422 2023 2516
3 341 794 2100
3 73 74 2361
3 1234 1232 2088
3 1261 1254 2059
3 896 1077 2257
3 1921 710 2067
3 125 126 2284
3 220 1699 2289
3 159 5 2304
3 4 184 2303
3 2059 1252 2098
3 1003 1004 2145
3 2328 1325 2451
3 1486 227 1500
3 63 64 2162
3 2081 1192 2260
3 508 500 2102
3 667 1872 2318
3 338 334 2090
3 423 422 2035
3 1192 1126 1471
3 907 908 909
3 1330 1328 2192
3 1972 897 2500
3 2443 316 2514
3 242 86 2373
3 87 193 2373
3 420 1193 2084
3 1473 1086 2358
3 1987 768 2037
3 522 337 2100
3 627 1660 2185
3 1793 446 2264
3 1405 2061 2441
3 1502 1217 2302
3 171 201 2216
3 1158 1993 2153
3 1197 1365 2120
3 1712 1710 2295
3 1121 1401 2414
3 93 94 2166
3 653 652 688
3 622 1716 2452
3 1345 1720 2267
3 477 537 556
3 128 129 2181
3 2331 1295 2458
3 784 645 874
3 1269 1270 2199
3 189 102 2355
3 1041 1168 1343
3 246 110 2140
3 477 525 537
3 755 1895 2371
3 1947 1723 2313
3 1134 1135 2369
3 223 65 2395
3 968 1201 2107
3 1577 1578 2325
3 210 15 2477
3 961 363 2072
3 1581 1579 2352
3 349 357 2076
3 337 341 2100
3 305 303 2317
3 370 367 2103
3 762 296 1997
3 581 580 2164
3 1278 1838 2372
3 1548 2129 2472
3 594 593 2133
3 2021 251 2022
3 2047 1247 2182
3 967 968 2107
3 1169 947 2008
3 481 2144 2169
3 793 614 2092
3 1910 217 2381
3 1251 1262 2098
3 716 788 2066
3 2101 1334 2108
3 2006 39 2151
3 1603 2379 2508
3 1926 2006 2151
3 96 97 2526
3 750 755 2371
3 789 714 2066
3 909 918 947
3 1993 895 2153
3 106 1990 2218
3 1243 1240 2074
3 832 986 1189
3 1283 1284 2342
3 2297 195 2517
3 1043 829 2326
3 767 816 2131
3 602 653 676
3 1004 912 2068
3 2086 1886 2224
3 1124 2177 2467
3 426 401 2531
3 707 720 1030
3 1000 1001 2184
3 1315 1029 2184
3 467 481 2169
3 541 513 2256
3 647 381 2113
3 225 2284 2510
3 2 156 2356
3 187 0 2357
3 40 212 2151
3 2245 1386 2383
3 676 677 829
3 1004 2068 2069
3 1860 232 2487
3 1031 1033 1034
3 829 830 972
3 996 997 2408
3 1195 1194 2120
3 987 1869 2202
3 1410 1213 2222
3 819 820 2068
3 1485 1486 2173
3 1564 2030 2155
3 807 669 2529
3 129 261 2181
3 1525 1076 2145
3 578 577 2083
3 327 310 1987
3 1083 929 2197
3 2131 1324 2258
3 798 408 2084
3 1838 696 2426
3 1486 1500 1930
3 1946 1944 2291
3 2257 1077 2291
3 1512 1661 2266
3 445 388 2078
3 1192 1471 2260
3 2118 1415 2395
3 1466 1468 2158
3 830 677 831
3 211 2012 2251
3 652 601 2442
3 537 545 551
3 558 508 2102
3 198 2011 2128
3 1718 2280 2385
3 500 960 2102
3 1168 1169 1393
3 1127 971 2496
3 95 96 2309
3 2030 1565 2155
3 1919 1172 2273
3 977 860 2112
3 240 128 2181
3 294 762 2038
3 1800 1799 2195
3 712 789 2067
3 972 1749 2326
3 472 1683 2212
3 874 645 2133
3 551 2045 2201
3 2105 1043 2326
3 1957 1212 2301
3 1514 1856 2367
3 565 538 2167
3 373 370 2103
3 355 348 2196
3 1934 1272 2138
3 1934 426 2531
3 1881 1400 2481
3 2046 1851 2327
3 367 961 2103
3 1963 1152 2206
3 201 278 443
3 3 131 2444
3 31 1 2445
3 2035 441 2097
3 503 787 2198
3 1135 1849 1930
3 1534 1983 2306
3 2089 623 2150
3 687 704 2109
3 869 1351 2363
3 1302 1304 2205
3 955 1716 2484
3 1030 720 1031
3 1159 1318 2240
3 1228 1226 2281
3 947 918 2008
3 413 420 2084
3 785 879 2532
3 1041 947 1168
3 1468 2182 2323
3 1246 1234 2088
3 1730 1163 2372
3 542 555 2086
3 1599 631 2312
3 1146 1967 2174
3 1078 1136 2343
3 1515 1574 2180
3 2336 885 2469
3 1257 1243 2074
3 1347 1346 2279
3 2001 650 2206
3 1480 1601 2514
3 1029 1000 2184
3 1956 788 2336
3 1271 1261 2059
3 130 3 2444
3 1 32 2445
3 1570 1507 2197
3 1232 1255 2088
3 791 1642 2529
3 1601 1479 2269
3 1361 1362 2168
3 1634 1922 2281
3 765 2065 2190
3 2071 1158 2153
3 1699 1801 2289
3 832 831 833
3 1864 346 2344
3 456 476 2097
3 1855 828 2411
3 2065 1162 2190
3 1125 1192 2149
3 599 760 2083
3 361 765 2339
3 1731 2123 2241
3 1349 1181 1350
3 1443 1275 2251
3 1819 524 2429
3 1021 1045 2512
3 858 618 2132
3 1999 358 2338
3 368 292 2038
3 290 368 2135
3 803 331 2296
3 1112 1008 2152
3 56 1947 2313
3 555 979 2086
3 1469 1496 2182
3 1011 967 2107
3 248 2017 2288
3 1809 789 2425
3 960 453 2221
3 538 558 2167
3 1858 1187 2248
3 2246 1757 2526
3 902 905 2141
3 1851 1853 2327
3 1224 1222 2111
3 771 288 2135
3 1945 2153 2257
3 1420 1525 2489
3 1399 1123 2393
3 103 2025 2355
3 897 822 898
3 1861 940 2532
3 865 1125 2146
3 1675 2474 2522
3 1573 2157 2507
3 1632 1631 2382
3 551 601 602
3 527 503 2198
3 1708 805 2337
3 1059 1278 2372
3 2056 527 2198
3 860 861 2112
3 1668 2348 2398
3 255 2159 2265
3 1541 1542 2269
3 1428 2074 2227
3 1582 1583 2321
3 389 1774 2503
3 2004 226 2157
3 1777 397 2405
3 1368 1436 2254
3 1061 2409 2462
3 1071 930 2462
3 1126 901 2141
3 1194 1197 2120
3 1452 1952 2282
3 2116 1319 2482
3 105 106 2218
3 1981 1399 2393
3 2119 983 2143
3 444 1682 2461
3 2173 1648 2463
3 616 793 2132
3 1791 1190 2334
3 1826 1728 2259
3 602 652 653
3 1834 1292 2428
3 556 2201 2327
3 1014 1015 2385
3 1995 1287 2331
3 1193 1195 2189
3 816 1324 2131
3 879 1861 2532
3 593 1182 2133
3 1402 266 1742
3 2216 1323 2354
3 1660 1636 2502
3 620 955 2484
3 1162 1706 2190
3 1870 2113 2249
3 204 1680 1732
3 1909 2023 2420
3 217 72 2217
3 376 372 2430
3 905 1209 2141
3 1378 1381 2283
3 1236 1246 2227
3 286 771 2063
3 1635 2263 2502
3 100 101 2220
3 1139 898 1140
3 2114 1343 2136
3 442 284 2063
3 1772 2106 2414
3 1985 1755 2533
3 2192 1328 2315
3 1064 863 2146
3 1631 1637 2459
3 736 2049 2523
3 221 1906 2246
3 318 1983 2171
3 1496 2047 2182
3 1374 2139 2506
3 196 55 2313
3 2087 462 2134
3 676 653 677
3 2304 257 2491
3 1401 2324 2363
3 829 677 830
3 654 2223 2242
3 1187 977 2112
3 1463 1466 2200
3 2023 219 2516
3 1176 881 2215
3 513 471 2290
3 1812 459 2252
3 1386 1269 2199
3 291 758 2306
3 618 616 2132
3 278 280 2210
3 83 220 2289
3 82 83 2289
3 938 1057 2161
3 1189 986 1190
3 788 719 2336
3 1914 2001 2206
3 232 181 1652
3 1567 2062 2490
3 313 757 2495
3 622 619 2484
3 688 878 1320
3 1222 1626 2111
3 282 442 2079
3 1169 2008 2105
3 1966 1007 2308
3 2040 799 2237
3 1744 2229 2495
3 986 833 1063
3 2284 1605 2510
3 887 1961 2376
3 215 1624 2262
3 830 831 832
3 476 475 2224
3 439 451 2223
3 1932 1933 2380
3 2227 1246 2366
3 1212 1202 2301
3 1107 1110 2228
3 249 2010 2299
3 1983 293 2306
3 2055 1214 2237
3 1438 1372 2478
3 824 560 2156
3 2320 1866 2513
3 1351 1137 2374
3 868 2007 2232
3 2063 771 2064
3 1507 214 1508
3 1728 1727 2246
3 1045 1047 2348
3 1139 1140 2096
3 1648 1649 2463
3 1502 2302 2519
3 704 707 2109
3 2343 1136 2396
3 650 1963 2206
3 2153 895 2257
3 396 1958 2431
3 1379 1377 2288
3 2115 1471 2319
3 2033 987 2202
3 2239 1693 2518
3 2025 1488 2355
3 1209 2115 2319
3 523 524 2156
3 783 939 2243
3 376 1798 2497
3 2066 788 2193
3 1984 318 2172
3 425 427 2221
3 203 172 1847
3 446 457 2264
3 1312 2089 2150
3 2138 1272 2211
3 897 1139 2274
3 828 1819 2429
3 1249 1224 2111
3 666 667 2318
3 1371 1326 2194
3 2433 1499 2475
3 1272 1271 2211
3 1367 2254 2479
3 1386 2053 2383
3 2074 1238 2227
3 755 2148 2320
3 2117 1604 2428
3 475 514 2224
3 228 2187 2457
3 1868 1504 2520
3 1626 1218 2185
3 2123 1111 2241
3 1287 1049 2331
3 1280 687 2109
3 459 1814 2292
3 54 196 2402
3 863 865 2146
3 204 176 1680
3 514 2086 2224
3 1646 603 2398
3 112 197 2346
3 358 300 2338
3 1140 898 1141
3 1204 1335 2301
3 1016 2161 2438
3 909 1041 2175
3 1681 2448 2492
3 2252 459 2292
3 1992 868 2232
3 1035 1036 2235
3 1051 1295 2331
3 1836 1289 2242
3 1508 214 1859
3 247 53 2402
3 1016 938 2161
3 1408 856 2378
3 1466 2158 2200
3 725 885 2336
3 855 1450 2421
3 2023 1768 2420
3 1238 1236 2227
3 1679 202 2253
3 2107 1348 2233
3 1653 1431 2487
3 1946 2291 2343
3 2253 202 2329
3 1885 1312 2150
3 378 628 2390
3 2195 1383 2432
3 1520 1519 2480
3 1532 1733 2534
3 308 327 2278
3 953 951 2255
3 1213 1407 2222
3 1561 1563 2285
3 302 763 2338
3 1928 2033 2202
3 763 304 2345
3 832 833 986
3 1352 2040 2237
3 247 1881 2481
3 560 523 2156
3 335 339 2261
3 346 342 2344
3 201 443 1323
3 2301 1335 2466
3 323 320 2229
3 1136 2110 2396
3 1139 1977 2274
3 1809 1615 2423
3 1707 1791 2334
3 46 2019 2485
3 2064 1294 2238
3 1950 197 2404
3 2021 2022 2176
3 1949 245 2420
3 2044 2152 2207
3 1063 1154 1707
3 1012 1363 2406
3 280 2079 2210
3 2237 1214 2351
3 820 698 2318
3 1140 1141 1406
3 205 2021 2176
3 2043 786 2310
3 2145 1004 2446
3 707 1030 2109
3 1406 2460 2473
3 2137 1268 2226
3 16 2081 2260
3 567 2031 2219
3 2112 1064 2248
3 206 45 2485
3 2347 1462 2365
3 1650 1962 2362
3 453 425 2221
3 1209 907 2175
3 1111 1276 2241
3 2448 1145 2492
3 2051 2083 2243
3 59 60 2266
3 1402 1742 2530
3 831 677 2209
3 624 587 2276
3 238 174 1725
3 1011 2107 2233
3 468 2365 2412
3 2337 805 2371
3 254 1932 2380
3 1174 1398 2207
3 2140 111 2346
3 1381 2186 2283
3 1987 2037 2188
3 1740 559 2456
3 1773 391 2503
3 1335 1870 2249
3 1945 2257 2291
3 828 463 2411
3 1246 2088 2208
3 2060 798 2307
3 1773 1159 2240
3 1187 2112 2248
3 1352 2237 2351
3 2037 1322 2188
3 1941 1499 2433
3 2322 225 2510
3 1031 1034 2236
3 327 2188 2321
3 595 2032 2273
3 1464 1462 2347
3 1285 1992 2232
3 799 2055 2237
3 443 278 2210
3 784 874 2178
3 392 396 2431
3 191 95 2309
3 879 784 2178
3 524 511 2429
3 2128 2011 2270
3 895 896 2257
3 2206 1152 2324
3 318 2171 2172
3 2259 1549 2379
3 1214 1410 2351
3 306 308 2278
3 2022 251 2247
3 1757 1729 2309
3 1283 1918 2524
3 996 1706 2492
3 557 2044 2207
3 1798 1448 2364
3 1447 2250 2310
3 559 1750 2403
3 1363 1011 2233
3 1343 1168 2187
3 1407 2044 2256
3 1462 1460 2365
3 1995 2331 2458
3 327 1987 2188
3 2160 254 2380
3 1681 958 2287
3 2031 1160 2250
3 1600 689 2413
3 2219 1692 2239
3 1494 1675 2522
3 1281 1916 2448
3 907 909 2175
3 565 2167 2276
3 2241 1276 2275
3 1978 316 2443
3 2151 212 2350
3 203 1847 2104
3 2049 1481 2523
3 1961 1362 2376
3 2187 1393 2457
3 940 796 2532
3 2293 1349 2329
3 572 1897 2537
3 332 739 2282
3 2052 567 2239
3 1437 1370 2277
3 567 2219 2239
3 667 626 2452
3 1914 2206 2324
3 2243 939 2392
3 2136 1343 2187
3 257 1654 2530
3 1376 1378 2283
3 2076 1982 2272
3 2083 760 2243
3 1944 1945 2291
3 1771 1839 2359
3 1404 1403 2399
3 1875 1866 2320
3 1460 1337 2412
3 760 783 2243
3 1276 1366 2275
3 1428 2227 2366
3 1882 1605 2284
3 1739 1429 2459
3 2321 2188 2434
3 1328 1327 2315
3 798 2189 2307
3 2152 1174 2207
3 2182 1247 2323
3 1516 1514 2367
3 293 291 2306
3 556 537 2201
3 1298 1300 2314
3 1400 1399 2316
3 1649 2236 2463
3 833 831 2424
3 2127 2050 2333
3 1057 914 2328
3 1839 193 2359
3 761 1741 2258
3 1186 1970 2422
3 1429 2366 2382
3 2211 1271 2271
3 1733 1248 2534
3 13 2114 2136
3 2078 390 2431
3 1533 1536 2340
3 1690 2145 2446
3 1277 2308 2370
3 1168 1393 2187
3 1597 2047 2268
3 587 565 2276
3 1908 244 2401
3 225 125 2284
3 610 2130 2468
3 1749 2105 2326
3 1913 1914 2324
3 2366 2208 2382
3 1391 1876 2295
3 457 552 2264
3 653 688 2209
3 1601 2443 2514
3 682 2138 2211
3 992 1980 2244
3 55 56 2313
3 1645 1495 2493
3 473 477 2483
3 202 1724 2329
3 465 828 2429
3 1277 1966 2308
3 1416 2330 2406
3 1912 1364 2455
3 1716 1483 2375
3 2019 1651 2485
3 1725 2137 2226
3 201 1323 2216
3 878 1083 2213
3 2072 2073 2245
3 1563 1777 2405
3 244 2028 2401
3 2016 1564 2422
3 1682 1497 2461
3 1962 1153 2362
3 1298 2314 2358
3 1384 1385 2391
3 688 1320 2209
3 1587 2179 2435
3 786 380 2497
3 1395 1522 2341
3 2032 1919 2273
3 251 2013 2247
3 2219 2031 2250
3 2397 552 2453
3 1765 255 2489
3 2475 1825 2524
3 1202 1204 2301
3 445 2078 2411
3 323 2229 2296
3 1286 2384 2408
3 537 551 2201
3 1724 237 2293
3 84 85 2335
3 1471 1126 2319
3 1635 1634 2511
3 300 302 2338
3 698 666 2318
3 1030 1031 2236
3 2098 1457 2271
3 696 1821 2426
3 1457 1492 2447
3 1956 2336 2469
3 331 323 2296
3 1284 1491 2342
3 2011 1996 2270
3 256 183 2303
3 160 257 2304
3 2204 1589 2501
3 1891 1014 2280
3 719 725 2336
3 1354 1808 2381
3 437 430 2494
3 2377 218 2391
3 2211 2271 2447
3 1407 2256 2290
3 2365 1460 2412
3 2047 1498 2268
3 1825 1283 2524
3 1499 1825 2475
3 1226 1249 2281
3 2051 2243 2392
3 2250 1160 2310
3 111 112 2346
3 304 306 2345
3 1341 1352 2351
3 2166 191 2504
3 2223 1836 2242
3 1996 247 2481
3 1049 1051 2331
3 1086 1298 2358
3 2130 595 2273
3 1249 2111 2263
3 680 1995 2458
3 1511 2140 2346
3 102 103 2355
3 469 473 2453
3 961 2072 2245
3 2073 1282 2245
3 1442 1443 2525
3 74 192 2361
3 2163 1586 2435
3 1519 1518 2449
3 897 2274 2500
3 303 444 2317
3 1615 1614 2423
3 197 2009 2404
3 1634 2281 2511
3 1780 1781 2419
3 1435 1623 2465
3 1286 1774 2384
3 384 361 2339
3 193 1901 2359
3 1165 2433 2475
3 2277 1370 2386
3 677 653 2209
3 1994 1516 2367
3 1479 1478 2440
3 1165 1512 2433
3 1644 1353 2417
3 1711 1712 2353
3 2193 1615 2425
3 1613 1956 2469
3 1440 1173 2330
3 2269 1479 2440
3 222 2218 2465
3 391 389 2503
3 306 2278 2345
3 468 2090 2365
3 221 2246 2526
3 1445 1446 2504
3 939 1844 2392
3 86 87 2373
3 1429 1428 2366
3 2053 2103 2383
3 1348 1212 2312
3 805 750 2371
3 997 1286 2408
3 1152 869 2363
3 2063 2064 2238
3 192 1994 2367
3 1160 2043 2310
3 1926 2151 2350
3 2059 2098 2271
3 1897 1366 2537
3 215 2262 2437
3 1655 1732 2476
3 2415 1128 2454
3 1320 2213 2214
3 7 258 2357
3 259 155 2356
3 2171 1530 2172
3 347 351 2407
3 1077 1078 2343
3 239 2003 2279
3 1446 1128 2415
3 1034 1033 2410
3 601 627 2442
3 1154 1653 2234
3 397 2060 2405
3 2142 794 2272
3 442 2063 2238
3 1863 1215 2378
3 794 2076 2272
3 1883 1375 2505
3 1320 878 2213
3 342 468 2344
3 1903 218 2377
3 380 376 2497
3 1549 1547 2379
3 1148 1165 2475
3 2157 226 2507
3 829 972 2326
3 884 1957 2466
3 2291 1077 2343
3 65 66 2395
3 787 2052 2518
3 2298 1348 2312
3 1946 2343 2396
3 1653 256 2535
3 1842 1548 2472
3 1957 2301 2466
3 1366 1277 2370
3 2213 1432 2214
3 961 2245 2383
3 218 2093 2391
3 1376 2283 2421
3 1873 2127 2333
3 1019 1021 2512
3 1128 1127 2454
3 1104 1434 2450
3 2130 1439 2468
3 2396 2110 2482
3 2186 855 2283
3 1724 2293 2329
3 1163 1059 2372
3 1614 2389 2423
3 53 54 2402
3 1063 1707 2334
3 2283 855 2421
3 1385 1863 2436
3 364 1883 2505
3 517 1890 2387
3 1145 996 2492
3 1047 1287 2348
3 2148 1875 2320
3 205 2176 2416
3 1372 1844 2478
3 1211 2219 2250
3 1141 898 2368
3 245 1909 2420
3 2278 327 2321
3 2389 1397 2423
3 2256 513 2290
3 559 2403 2456
3 1137 1340 2374
3 2093 1384 2391
3 1918 1148 2524
3 1030 2236 2427
3 1867 1895 2513
3 2014 517 2387
3 2271 1457 2447
3 1143 2028 2353
3 1904 194 2432
3 1148 2475 2524
3 1574 1523 2436
3 2213 1083 2311
3 1997 358 2325
3 2139 246 2506
3 1370 1369 2386
3 1271 2059 2271
3 1034 2173 2463
3 1123 1412 2393
3 1578 1827 2515
3 2209 1320 2424
3 2079 1504 2210
3 1361 2168 2305
3 1491 1489 2403
3 238 1725 2226
3 1190 986 2334
3 1547 1545 2508
3 1891 1613 2469
3 1153 1885 2362
3 2208 1632 2382
3 2287 1281 2448
3 1356 1376 2421
3 1965 2349 2515
3 2155 1186 2422
3 1522 2014 2387
3 2158 1468 2323
3 2050 954 2333
3 1397 1809 2423
3 1362 1360 2376
3 1852 1985 2397
3 2069 1691 2446
3 789 2066 2425
3 1895 755 2513
3 1707 1154 2234
3 372 374 2430
3 2225 787 2518
3 2028 1206 2401
3 986 1063 2334
3 1912 726 2439
3 1340 1342 2400
3 1916 1145 2448
3 2236 1649 2427
3 2374 1340 2400
3 2222 1407 2290
3 2324 1152 2363
3 241 2220 2472
3 765 2190 2384
3 2375 667 2452
3 2330 1173 2406
3 1181 1972 2500
3 2126 1382 2388
3 1173 1012 2406
3 315 313 2495
3 1015 1373 2385
3 97 221 2526
3 1937 1397 2389
3 930 1061 2462
3 971 1096 2496
3 45 46 2485
3 669 791 2529
3 1104 2450 2521
3 382 378 2390
3 2191 1371 2536
3 2235 1036 2286
3 831 2209 2424
3 762 1997 2349
3 2379 1547 2508
3 2177 1359 2467
3 2403 1489 2456
3 796 785 2532
3 219 1902 2516
3 1519 2300 2480
3 1065 1655 2476
3 1375 1473 2505
3 1489 1490 2456
3 390 392 2431
3 2247 2013 2464
3 1135 1930 2369
3 2278 1583 2345
3 626 622 2452
3 631 2298 2312
3 2233 1348 2298
3 1398 1974 2499
3 1706 1681 2492
3 261 130 2444
3 32 260 2445
3 822 2099 2368
3 1365 1912 2439
3 941 940 2418
3 1446 2166 2504
3 2106 1121 2414
3 2300 1519 2449
3 1803 1104 2521
3 1732 1570 2476
3 1413 2051 2392
3 2122 1946 2396
3 2238 1868 2520
3 477 556 2483
3 2397 1985 2533
3 463 445 2411
3 2163 1185 2488
3 1126 2141 2319
3 1755 2264 2533
3 972 2204 2501
3 2230 1533 2340
3 1774 1773 2503
3 1997 2325 2349
3 1004 2069 2446
3 2159 31 2445
3 131 2160 2444
3 1371 2191 2451
3 1001 2154 2486
3 1682 2230 2340
3 2103 961 2383
3 1033 1151 2410
3 382 2390 2531
3 1504 2079 2520
3 1583 2278 2321
3 511 465 2429
3 250 2024 2479
3 2208 2088 2509
3 619 620 2484
3 1246 2208 2366
3 2141 1209 2319
3 1359 1413 2467
3 1295 1459 2458
3 2218 1435 2465
3 2281 1249 2511
3 2293 237 2354
3 2207 1398 2499
3 1564 2155 2422
3 552 469 2453
3 1947 224 2498
3 2062 1568 2490
3 2018 205 2416
3 260 2159 2445
3 2160 261 2444
3 2092 610 2468
3 194 2195 2432
3 1432 2213 2311
3 211 2251 2464
3 2378 856 2527
3 1536 1532 2534
3 2364 786 2497
3 2438 1438 2478
3 1185 1948 2488
3 2042 941 2418
3 1582 2321 2434
3 885 1891 2469
3 1364 2048 2455
3 1693 2225 2518
3 401 382 2531
3 1338 2247 2464
3 442 2238 2520
3 1292 2117 2428
3 2274 1350 2500
3 2066 2193 2425
3 2179 1184 2435
3 898 822 2368
3 2436 1863 2527
3 1844 1016 2478
3 2184 1001 2486
3 557 2207 2499
3 2013 211 2464
3 2254 250 2479
3 1350 1181 2500
3 2009 248 2470
3 246 2140 2506
3 1574 2436 2527
3 2139 1419 2517
3 316 1971 2514
3 1319 2122 2482
3 226 2006 2507
3 1400 2270 2481
3 1681 2287 2448
3 2325 1578 2349
3 232 1652 2487
3 1320 2214 2424
3 1632 2208 2509
3 248 2288 2470
3 1406 1141 2460
3 2188 1322 2434
3 2244 1980 2441
3 2088 1255 2509
3 1280 2109 2427
3 2060 2307 2405
3 2236 1034 2463
3 1745 2293 2354
3 2122 2396 2482
3 2109 1030 2427
3 2307 1563 2405
3 1429 2382 2459
3 224 2267 2498
3 682 2211 2447
3 2079 442 2520
3 2348 1287 2398
3 2220 1842 2472
3 1335 2249 2466
3 1249 2263 2511
3 443 2210 2519
3 2385 1373 2394
3 1594 2184 2486
3 2052 2239 2518
3 1568 2439 2490
3 2349 1578 2515
3 2344 468 2412
3 2270 1996 2481
3 1735 2244 2441
3 2260 1471 2477
3 2210 1504 2519
3 1434 2297 2450
3 2297 1419 2450
3 2263 1660 2502
3 2404 2009 2470
3 1718 2385 2394
3 1371 2194 2536
3 2317 444 2461
3 1443 2322 2525
3 1716 2375 2452
3 1863 2378 2527
3 2439 726 2490
3 1057 2328 2451
3 1638 2404 2470
3 1454 2234 2535
3 755 2320 2513
3 2234 1653 2535
3 2264 552 2533
3 1419 2297 2517
3 1392 2322 2510
3 552 2397 2533
3 1798 2364 2497
3 2322 1392 2525
3 2382 1631 2459
3 1016 2438 2478
3 1366 2370 2537
3 1742 2491 2530
3 2491 257 2530
CELL_TYPES 4886
5
5
5
5
5
5
5
5
5
5
5
5
5
5
5
5
5
5
5
5
5
5
5
5
5
5
5
5
5
5
5
5
5
5
5
5
5
5
5
5
5
5
5
5
5
5
5
5
5
5
5
5
5
5
5
5
5
5
5
5
5
5
5
5
5
5
5
5
5
5
5
5
5
5
5
5
5
5
5
5
5
5
5
5
5
5
5
5
5
5
5
5
5
5
5
5
5
5
5
5
5
5
5
5
5
5
5
5
5
5
5
5
5
5
5
5
5
5
5
5
5
5
5
5
5
5
5
5
5
5
5
5
5
5
5
5
5
5
5
5
5
5
5
5
5
5
5
5
5
5
5
5
5
5
5
5
5
5
5
5
5
5
5
5
5
5
5
5
5
5
5
5
5
5
5
5
5
5
5
5
5
5
5
5
5
5
5
5
5
5
5
5
5
5
5
5
5
5
5
5
5
5
5
5
5
5
5
5
5
5
5
5
5
5
5
5
5
5
5
5
5
5
5
5
5
5
5
5
5
5
5
5
5
5
5
5
5
5
5
5
5
5
5
5
5
5
5
5
5
5
5
5
5
5
5
5
5
5
5
5
5
5
5
5
5
5
5
5
5
5
5
5
5
5
5
5
5
5
5
5
5
5
5
5
5
5
5
5
5
5
5
5
5
5
5
5
5
5
5
5
5
5
5
5
5
5
5
5
5
5
5
5
5
5
5
5
5
5
5
5
5
5
5
5
5
5
5
5
5
5
5
5
5
5
5
5
5
5
5
5
5
5
5
5
5
5
5
5
5
5
5
5
5
5
5
5
5
5
5
5
5
5
5
5
5
5
5
5
5
5
5
5
5
5
5
5
5
5
5
5
5
5
5
5
5
5
5
5
5
5
5
5
5
5
5
5
5
5
5
5
5
5
5
5
5
5
5
5
5
5
5
5
5
5
5
5
5
5
5
5
5
5
5
5
5
5
5
5
5
5
5
5
5
5
5
5
5
5
5
5
5
5
5
5
5
5
5
5
5
5
5
5
5
5
5
5
5
5
5
5
5
5
5
5
5
5
5
5
5
5
5
5
5
5
5
5
5
5
5
5
5
5
5
5
5
5
5
5
5
5
5
5
5
5
5
5
5
5
5
5
5
5
5
5
5
5
5
5
5
5
5
5
5
5
5
5
5
5
5
5
5
5
5
5
5
5
5
5
5
5
5
5
5
5
5
5
5
5
5
5
5
5
5
5
5
5
5
5
5
5
5
5
5
5
5
5
5
5
5
5
5
5
5
5
5
5
5
5
5
5
5
5
5
5
5
5
5
5
5
5
5
5
5
5
5
5
5
5
5
5
5
5
5
5
5
5
5
5
5
5
5
5
5
5
5
5
5
5
5
5
5
5
5
5
5
5
5
5
5
5
5
5
5
5
5
5
5
5
5
5
5
5
5
5
5
5
5
5
5
5
5
5
5
5
5
5
5
5
5
5
5
5
5
5
5
5
5
5
5
5
5
5
5
5
5
5
5
5
5
5
5
5
5
5
5
5
5
5
5
5
5
5
5
5
5
5
5
5
5
5
5
5
5
5
5
5
5
5
5
5
5
5
5
5
5
5
5
5
5
5
5
5
5
5
5
5
5
5
5
5
5
5
5
5
5
5
5
5
5
5
5
5
5
5
5
5
5
5
5
5
5
5
5
5
5
5
5
5
5
5
5
5
5
5
5
5
5
5
5
5
5
5
5
5
5
5
5
5
5
5
5
5
5
5
5
5
5
5
5
5
5
5
5
5
5
5
5
5
5
5
5
5
5
5
5
5
5
5
5
5
5
5
5
5
5
5
5
5
5
5
5
5
5
5
5
5
5
5
5
5
5
5
5
5
5
5
5
5
5
5
5
5
5
5
5
5
5
5
5
5
5
5
5
5
5
5
5
5
5
5
5
5
5
5
5
5
5
5
5
5
5
5
5
5
5
5
5
5
5
5
5
5
5
5
5
5
5
5
5
5
5
5
5
5
5
5
5
5
5
5
5
5
5
5
5
5
5
5
5
5
5
5
5
5
5
5
5
5
5
5
5
5
5
5
5
5
5
5
5
5
5
5
5
5
5
5
5
5
5
5
5
5
5
5
5
5
5
5
5
5
5
5
5
5
5
5
5
5
5
5
5
5
5
5
5
5
5
5
5
5
5
5
5
5
5
5
5
5
5
5
5
5
5
5
5
5
5
5
5
5
5
5
5
5
5
5
5
5
5
5
5
5
5
5
5
5
5
5
5
5
5
5
5
5
5
5
5
5
5
5
5
5
5
5
5
5
5
5
5
5
5
5
5
5
5
5
5
5
5
5
5
5
5
5
5
5
5
5
5
5
5
5
5
5
5
5
5
5
5
5
5
5
5
5
5
5
5
5
5
5
5
5
5
5
5
5
5
5
5
5
5
5
5
5
5
5
5
5
5
5
5
5
5
5
5
5
5
5
5
5
5
5
5
5
5
5
5
5
5
5
5
5
5
5
5
5
5
5
5
5
5
5
5
5
5
5
5
5
5
5
5
5
5
5
5
5
5
5
5
5
5
5
5
5
5
5
5
5
5
5
5
5
5
5
5
5
5
5
5
5
5
5
5
5
5
5
5
5
5
5
5
5
5
5
5
5
5
5
5
5
5
5
5
5
5
5
5
5
5
5
5
5
5
5
5
5
5
5
5
5
5
5
5
5
5
5
5
5
5
5
5
5
5
5
5
5
5
5
5
5
5
5
5
5
5
5
5
5
5
5
5
5
5
5
5
5
5
5
5
5
5
5
5
5
5
5
5
5
5
5
5
5
5
5
5
5
5
5
5
5
5
5
5
5
5
5
5
5
5
5
5
5
5
5
5
5
5
5
5
5
5
5
5
5
5
5
5
5
5
5
5
5
5
5
5
5
5
5
5
5
5
5
5
5
5
5
5
5
5
5
5
5
5
5
5
5
5
5
5
5
5
5
5
5
5
5
5
5
5
5
5
5
5
5
5
5
5
5
5
5
5
5
5
5
5
5
5
5
5
5
5
5
5
5
5
5
5
5
5
5
5
5
5
5
5
5
5
5
5
5
5
5
5
5
5
5
5
5
5
5
5
5
5
5
5
5
5
5
5
5
5
5
5
5
5
5
5
5
5
5
5
5
5
5
5
5
5
5
5
5
5
5
5
5
5
5
5
5
5
5
5
5
5
5
5
5
5
5
5
5
5
5
5
5
5
5
5
5
5
5
5
5
5
5
5
5
5
5
5
5
5
5
5
5
5
5
5
5
5
5
5
5
5
5
5
5
5
5
5
5
5
5
5
5
5
5
5
5
5
5
5
5
5
5
5
5
5
5
5
5
5
5
5
5
5
5
5
5
5
5
5
5
5
5
5
5
5
5
5
5
5
5
5
5
5
5
5
5
5
5
5
5
5
5
5
5
5
5
5
5
5
5
5
5
5
5
5
5
5
5
5
5
5
5
5
5
5
5
5
5
5
5
5
5
5
5
5
5
5
5
5
5
5
5
5
5
5
5
5
5
5
5
5
5
5
5
5
5
5
5
5
5
5
5
5
5
5
5
5
5
5
5
5
5
5
5
5
5
5
5
5
5
5
5
5
5
5
5
5
5
5
5
5
5
5
5
5
5
5
5
5
5
5
5
5
5
5
5
5
5
5
5
5
5
5
5
5
5
5
5
5
5
5
5
5
5
5
5
5
5
5
5
5
5
5
5
5
5
5
5
5
5
5
5
5
5
5
5
5
5
5
5
5
5
5
5
5
5
5
5
5
5
5
5
5
5
5
5
5
5
5
5
5
5
5
5
5
5
5
5
5
5
5
5
5
5
5
5
5
5
5
5
5
5
5
5
5
5
5
5
5
5
5
5
5
5
5
5
5
5
5
5
5
5
5
5
5
5
5
5
5
5
5
5
5
5
5
5
5
5
5
5
5
5
5
5
5
5
5
5
5
5
5
5
5
5
5
5
5
5
5
5
5
5
5
5
5
5
5
5
5
5
5
5
5
5
5
5
5
5
5
5
5
5
5
5
5
5
5
5
5
5
5
5
5
5
5
5
5
5
5
5
5
5
5
5
5
5
5
5
5
5
5
5
5
5
5
5
5
5
5
5
5
5
5
5
5
5
5
5
5
5
5
5
5
5
5
5
5
5
5
5
5
5
5
5
5
5
5
5
5
5
5
5
5
5
5
5
5
5
5
5
5
5
5
5
5
5
5
5
5
5
5
5
5
5
5
5
5
5
5
5
5
5
5
5
5
5
5
5
5
5
5
5
5
5
5
5
5
5
5
5
5
5
5
5
5
5
5
5
5
5
5
5
5
5
5
5
5
5
5
5
5
5
5
5
5
5
5
5
5
5
5
5
5
5
5
5
5
5
5
5
5
5
5
5
5
5
5
5
5
5
5
5
5
5
5
5
5
5
5
5
5
5
5
5
5
5
5
5
5
5
5
5
5
5
5
5
5
5
5
5
5
5
5
5
5
5
5
5
5
5
5
5
5
5
5
5
5
5
5
5
5
5
5
5
5
5
5
5
5
5
5
5
5
5
5
5
5
5
5
5
5
5
5
5
5
5
5
5
5
5
5
5
5
5
5
5
5
5
5
5
5
5
5
5
5
5
5
5
5
5
5
5
5
5
5
5
5
5
5
5
5
5
5
5
5
5
5
5
5
5
5
5
5
5
5
5
5
5
5
5
5
5
5
5
5
5
5
5
5
5
5
5
5
5
5
5
5
5
5
5
5
5
5
5
5
5
5
5
5
5
5
5
5
5
5
5
5
5
5
5
5
5
5
5
5
5
5
5
5
5
5
5
5
5
5
5
5
5
5
5
5
5
5
5
5
5
5
5
5
5
5
5
5
5
5
5
5
5
5
5
5
5
5
5
5
5
5
5
5
5
5
5
5
5
5
5
5
5
5
5
5
5
5
5
5
5
5
5
5
5
5
5
5
5
5
5
5
5
5
5
5
5
5
5
5
5
5
5
5
5
5
5
5
5
5
5
5
5
5
5
5
5
5
5
5
5
5
5
5
5
5
5
5
5
5
5
5
5
5
5
5
5
5
5
5
5
5
5
5
5
5
5
5
5
5
5
5
5
5
5
5
5
5
5
5
5
5
5
5
5
5
5
5
5
5
5
5
5
5
5
5
5
5
5
5
5
5
5
5
5
5
5
5
5
5
5
5
5
5
5
5
5
5
5
5
5
5
5
5
5
5
5
5
5
5
5
5
5
5
5
5
5
5
5
5
5
5
5
5
5
5
5
5
5
5
5
5
5
5
5
5
5
5
5
5
5
5
5
5
5
5
5
5
5
5
5
5
5
5
5
5
5
5
5
5
5
5
5
5
5
5
5
5
5
5
5
5
5
5
5
5
5
5
5
5
5
5
5
5
5
5
5
5
5
5
5
5
5
5
5
5
5
5
5
5
5
5
5
5
5
5
5
5
5
5
5
5
5
5
5
5
5
5
5
5
5
5
5
5
5
5
5
5
5
5
5
5
5
5
5
5
5
5
5
5
5
5
5
5
5
5
5
5
5
5
5
5
5
5
5
5
5
5
5
5
5
5
5
5
5
5
5
5
5
5
5
5
5
5
5
5
5
5
5
5
5
5
5
5
5
5
5
5
5
5
5
5
5
5
5
5
5
5
5
5
5
5
5
5
5
5
5
5
5
5
5
5
5
5
5
5
5
5
5
5
5
5
5
5
5
5
5
5
5
5
5
5
5
5
5
5
5
5
5
5
5
5
5
5
5
5
5
5
5
5
5
5
5
5
5
5
5
5
5
5
5
5
5
5
5
5
5
5
5
5
5
5
5
5
5
5
5
5
5
5
5
5
5
5
5
5
5
5
5
5
5
5
5
5
5
5
5
5
5
5
5
5
5
5
5
5
5
5
5
5
5
5
5
5
5
5
5
5
5
5
5
5
5
5
5
5
5
5
5
5
5
5
5
5
5
5
5
5
5
5
5
5
5
5
5
5
5
5
5
5
5
5
5
5
5
5
5
5
5
5
5
5
5
5
5
5
5
5
5
5
5
5
5
5
5
5
5
5
5
5
5
5
5
5
5
5
5
5
5
5
5
5
5
5
5
5
5
5
5
5
5
5
5
5
5
5
5
5
5
5
5
5
5
5
5
5
5
5
5
5
5
5
5
5
5
5
5
5
5
5
5
5
5
5
5
5
5
5
5
5
5
5
5
5
5
5
5
5
5
5
5
5
5
5
5
5
5
5
5
5
5
5
5
5
5
5
5
5
5
5
5
5
5
5
5
5
5
5
5
5
5
5
5
5
5
5
5
5
5
5
5
5
5
5
5
5
5
5
5
5
5
5
5
5
5
5
5
5
5
5
5
5
5
5
5
5
5
5
5
5
5
5
5
5
5
5
5
5
5
5
5
5
5
5
5
5
5
5
5
5
5
5
5
5
5
5
5
5
5
5
5
5
5
5
5
5
5
5
5
5
5
5
5
5
5
5
5
5
5
5
5
5
5
5
5
5
5
5
5
5
5
5
5
5
5
5
5
5
5
5
5
5
5
5
5
5
5
5
5
5
5
5
5
5
5
5
5
5
5
5
5
5
5
5
5
5
5
5
5
5
5
5
5
5
5
5
5
5
5
5
5
5
5
5
5
5
5
5
5
5
5
5
5
5
5
5
5
5
5
5
5
5
5
5
5
5
5
5
5
5
5
5
5
5
5
5
5
5
5
5
5
5
5
5
5
5
5
5
5
5
5
5
5
5
5
5
5
5
5
5
5
5
5
5
5
5
5
5
5
5
5
5
5
5
5
5
5
5
5
5
5
5
5
5
5
5
5
5
5
5
5
5
5
5
5
5
5
5
5
5
5
5
5
5
5
5
5
5
5
5
5
5
5
5
5
5
5
5
5
5
5
5
5
5
5
5
5
5
5
5
5
5
5
5
5
5
5
5
5
5
5
5
5
5
5
5
5
5
5
5
5
5
5
5
5
5
5
5
5
5
5
5
5
5
5
5
5
5
5
5
5
5
5
5
5
5
5
5
5
5
5
5
5
5
5
5
5
5
5
5
5
5
5
5
5
5
5
5
5
5
5
5
5
5
5
5
5
5
5
5
5
5
5
5
5
5
5
5
5
5
5
5
5
5
5
5
5
5
5
5
5
5
5
5
5
5
5
5
5
5
5
5
5
5
5
5
5
5
5
5
5
5
5
5
5
5
5
5
5
5
5
5
5
5
5
5
5
5
5
5
5
5
5
5
5
5
5
5
5
5
5
5
5
5
5
5
5
5
5
5
5
5
5
5
5
5
5
5
5
5
5
5
5
5
5
5
5
5
5
5
5
5
5
5
5
5
5
5
5
5
5
5
5
5
5
5
5
5
5
5
5
5
5
5
5
5
5
5
5
5
5
5
5
5
5
5
5
5
5
5
5
5
5
5
5
5
5
5
5
5
5
5
5
5
5
5
5
5
5
5
5
5
5
5
5
5
5
5
5
5
5
5
5
5
5
5
5
5
5
5
5
5
5
5
5
5
5
5
5
5
5
5
5
5
5
5
5
5
5
5
5
5
5
5
5
5
5
5
5
5
5
5
5
5
5
5
5
5
5
5
5
5
5
5
5
5
5
5
5
5
5
5
5
5
5
5
5
5
5
5
5
5
5
5
5
5
5
5
5
5
5
5
5
5
5
5
5
5
5
5
5
5
5
5
5
5
5
5
5
5
5
5
5
5
5
5
5
5
5
5
5
5
5
5
5
5
5
5
5
5
5
5
5
5
5
5
5
5
5
5
5
5
5
5
5
5
5
5
5
5
5
5
5
5
5
5
5
5
5
5
5
5
5
5
5
5
5
5
5
5
5
5
5
5
5
5
5
5
5
5
5
5
5
5
5
5
5
5
5
5
5
5
5
5
5
5
5
5
5
5
5
5
5
5
5
5
5
5
5
5
5
5
5
5
5
5
5
5
5
5
5
5
5
5
5
5
5
5
5
5
5
5
5
5
5
5
5
5
5
5
5
5
5
5
5
5
5
5
5
5
5
5
5
5
5
5
5
5
5
5
5
5
5
5
5
5
5
5
5
5
5
5
5
5
5
5
5
5
5
5
5
5
5
5
5
5
5
5
5
5
5
5
5
5
5
5
5
5
5
5
5
5
5
5
5
5
5
5
5
5
5
5
5
5
5
5
5
5
5
5
5
5
5
5
5
5
5
5
5
5
5
5
5
5
5
5
5
5
5
5
5
5
5
5
5
5
5
5
5
5
5
5
5
5
5
5
5
5
5
5
5
5
5
5
5
5
5
5
5
5
5
5
5
5
5
5
5
5
5
5
5
5
5
5
5
5
5
5
5
5
5
5
5
5
5
5
5
5
5
5
5
5
5
5
5
5
5
5
5
5
5
5
5
5
5
5
5
5
5
5
5
5
5
5
5
5
5
5
5
5
5
5
5
5
5
5
5
5
5
5
5
5
5
5
5
5
5
5
5
5
5
5
5
5
5
5
5
5
5
5
5
5
5
5
5
5
5
5
5
5
5
5
5
5
5
5
5
5
5
5
5
5
5
5
5
5
5
5
5
5
5
5
5
5
5
5
5
5
5
5
5
5
5
5
5
5
5
5
5
5
5
5
5
5
5
5
5
5
5
5
5
5
5
5
5
5
5
5
5
5
5
5
5
5
5
5
5
5
5
5
5
5
5
5
5
5
5
5
5
5
5
5
5
5
5
5
5
5
5
5
5
5
5
5
5
5
5
5
5
5
5
5
5
5
5
5
5
5
5
5
5
5
5
5
5
5
5
5
5
5
5
5
5
5
5
5
5
5
5
5
5
5
5
5
5
5
5
5
5
5
5
5
5
5
5
5
5
5
5
5
5
5
5
5
5
5
5
5
5
5
5
5
5
5
5
5
5
5
5
5
5
5
5
5
5
5
5
5
5
5
5
5
5
5
5
5
5
5
5
5
5
5
5
5
5
5
5
5
5
5
5
5
5
5
5
5
5
5
5
5
5
5
5
5
5
5
5
5
5
5
5
5
5
5
5
5
5
5
5
5
5
5
5
5
5
5
5
5
5
5
5
5
5
5
5
5
5
5
5
5
5
5
5
5
5
5
5
5
5
5
5
5
5
5
5
5
5
5
5
5
5
5
5
5
5
5
5
5
5
5
5
5
5
5
5
5
5
5
5
5
5
5
5
5
5
5
5
5
5
5
5
5
5
5
5
5
5
5
5
5
5
5
5
5
5
5
5
5
5
5
5
5
5
5
5
5
5
5
5
5
5
5
5
5
5
5
5
5
5
5
5
5
5
5
5
5
5
5
5
5
5
5
5
5
5
5
5
5
5
5
5
5
5
5
5
5
5
5
5
5
5
5
5
5
5
5
5
5
5
5
5
5
5
5
5
5
5
5
5
5
5
5
5
5
5
5
5
5
5
5
5
5
5
5
5
5
5
5
5
5
5
5
5
5
5
5
5
5
5
5
5
5
5
5
5
5
5
5
5
5
5
5
5
5
5
5
5
5
5
5
5
5
5
5
5
5
5
5
5
5
5
5
5
5
5
5
5
5
5
5
5
5
5
5
5
5
5
5
5
5
5
5
5
5
5
5
5
5
5
5
5
5
5
5
5
5
5
5
5
5
5
5
5
5
5
5
5
5
5
5
5
5
5
5
5
5
5
5
5
5
5
5
5
5
5
5
5
5
5
5
5
5
5
5
5
5
5
5
5
5
5
5
5
5
5
5
5
5
5
5
5
5
5
5
5
5
5
5
5
5
5
5
5
5
5
5
5
5
5
5
5
5
5
5
5
5
5
5
5
5
5
5
5
5
5
5
5
5
5
5
5
5
5
5
5
5
5
5
5
5
5
5
5
5
5
5
5
5
5
5
5
5
5
5
5
5
5
5
5
5
5
5
5
5
5
5
5
5
5
5
5
5
5
5
5
5
5
5
5
5
5
5
5
5
5
5
5
5
5
5
5
5
5
5
5
5
5
5
5
5
5
5
5
5
5
5
5
5
5
5
5
5
5
5
5
5
5
5
5
5
5
5
5
5
5
5
5
5
5
5
5
5
5
5
5
5
5
5
5
5
5
5
5
5
5
5
5
5
5
5
5
5
5
5
5
5
5
5
5
5
5
5
5
5
5
5
5
5
5
5
5
5
5
5
5
5
5
5
5
5
5
5
5
5
5
5
5
5
5
5
5
5
5
5
5
5
5
5
5
5
5
5
5
5
5
5
5
5
5
5
5
5
5
5
5
5
5
5
5
5
5
5
5
5
5
5
5
5
5
5
5
5
5
5
5
5
5
5
5
5
5
5
5
5
5
5
5
5
5
5
5
5
5
5
5
5
5
5
5
5
5
5
5
5
5
5
5
5
5
5
5
5
5
5
5
5
5
5
5
5
5
5
5
5
5
5
5
5
5
5
5
5
5
5
5
5
5
5
5
5
5
5
5
5
5
5
5
5
5
5
5
5
5
5
5
5
5
5
5
5
5
5
5
5
5
5
5
5
5
5
5
5
5
5
5
5
5
5
5
5
5
5
5
5
5
5
5
5
5
5
5
5
5
5
5
5
5
5
5
5
5
5
5
5
5
5
5
5
5
5
5
5
5
5
5
5
5
5
5
5
5
5
5
5
5
5
5
5
5
5
5
5
5
5
5
5
5
5
5
5
5
5
5
5
5
5
5
5
5
5
5
5
5
5
5
5
5
5
5
5
5
5
5
5
5
5
5
5
5
5
5
5
5
5
5
5
5
5
5
5
5
5
5
5
5
5
5
5
5
5
5
5
5
5
5
5
5
5
5
5
5
5
5
5
5
5
5
5
5
5
5
5
5
5
5
5
5
5
5
5
5
5
5
5
5
5
5
5
5
5
5
5
5
5
5
5
5
5
5
5
5
5
5
5
5
5
5
5
5
5
5
5
5
5
5
5
5
5
5
5
5
5
5
5
5
5
5
5
5
5
5
5
5
5
5
5
5
5
5
5
5
5
5
5
5
5
5
5
5
5
5
5
5
5
5
5
5
5
5
POINT_DATA 2538
VECTORS disp float
1.7983705608018006e-11 4.542704107592702e-11 0.0
3.7237388517184645e-11 -1.0170526924296857e-10 0.0
0.004199999985741505 3.7296232174532633e-11 0.0
0.004199999961417036 -1.0651906443137484e-10 0.0
0.001350399365123337 0.0005612168072468507 0.0
0.003027885986099533 0.0003441968253782827 0.0
0.0020665554652661918 0.00012590934106269328 0.0
4.8334584458949294e-12 4.0859995296492655e-12 0.0
8.846867665734428e-12 1.0711089371211972e-11 0.0
8.065569392539635e-12 6.578112148631713e-12 0.0
7.890808707262437e-12 6.088631201241151e-12 0.0
7.367931262574229e-12 4.5139099645148315e-12 0.0
6.8786909196782675e-12 3.2159338016007696e-12 0.0
6.430170755507969e-12 1.8571012048138908e-12 0.0
6.074709289678222e-12 4.2289855123027325e-13 0.0
5.330957258800574e-12 -1.1525650145704033e-12 0.0
5.609503044585724e-12 -2.551742662983617e-12 0.0
5.372475950020378e-12 -4.1694669714084556e-12 0.0
5.373895701210055e-12 -5.8988441717583635e-12 0.0
5.535248298699658e-12 -7.630230135648873e-12 0.0
5.486194371503556e-12 -9.269040136808712e-12 0.0
5.806348120072061e-12 -1.1230578084608507e-11 0.0
5.815127542462729e-12 -1.2887643884311447e-11 0.0
6.149687285775847e-12 -1.4833647822953416e-11 0.0
6.273905932230253e-12 -1.7042278887577577e-11 0.0
6.553883010113485e-12 -1.912336536160391e-11 0.0
6.864906897588776e-12 -2.1616583647324115e-11 0.0
7.268097086312038e-12 -2.4408796603542035e-11 0.0
7.99398373167648e-12 -2.778459805167541e-11 0.0
8.043031384809703e-12 -3.138078688694441e-11 0.0
1.090805114700433e-11 -3.9554238056739606e-11 0.0
4.7546373348511505e-12 -3.625610006832451e-11 0.0
5.215076315846879e-5 -6.969421875663493e-5 0.0
9.015780963431532e-5 -0.0001202532922537937 0.0
0.000127016657890423 -0.00016432389365700592 0.0
0.00016231412062464942 -0.0002043810495343487 0.0
0.00019652435601014858 -0.00024162366413501467 0.0
0.00023034856872367266 -0.0002769792028201009 0.0
0.000264338991265525 -0.0003105977514856636 0.0
0.00029817233471239206 -0.00034274619880368884 0.0
0.00033214016247085727 -0.00037371022167882696 0.0
0.00036632230586870285 -0.0004034967515376665 0.0
0.00040073760734285577 -0.0004323553127376024 0.0
0.0004356383679797575 -0.0004602992896311618 0.0
0.0004707595616115969 -0.00048732730449435943 0.0
0.0005062777017185791 -0.0005136403842361302 0.0
0.0005424000240103255 -0.0005391957028778063 0.0
0.0005787326429246306 -0.0005639599206225097 0.0
0.0006155269115279806 -0.0005880770884623375 0.0
0.0006527701275361438 -0.0006114345752711596 0.0
0.0006904341601685522 -0.0006341610127527284 0.0
0.000728536800175074 -0.0006562523512722674 0.0
0.000767124642533881 -0.0006777114610309283 0.0
0.000806101013898936 -0.000698521712796027 0.0
0.0008456968911717029 -0.0007187830282695995 0.0
0.0008855402943288425 -0.000738372238244826 0.0
0.0009260495061506419 -0.0007573958854861804 0.0
0.00096677371766848 -0.0007757522782361919 0.0
0.0010080103153711504 -0.0007935527247001896 0.0
0.0010495989048696335 -0.0008106758772043039 0.0
0.001091770827492172 -0.0008272670431653836 0.0
0.001134129487706954 -0.0008432180974284029 0.0
0.001177062719365675 -0.0008586119973425373 0.0
0.001220317981799753 -0.000873334436612155 0.0
0.0012639974173086503 -0.0008874726897048793 0.0
0.001307954220891722 -0.0009009658829789722 0.0
0.0013524415011647523 -0.0009138837088446867 0.0
0.0013970793746929484 -0.0009261120216100387 0.0
0.0014421159779784715 -0.0009377271143732241 0.0
0.001487411585486818 -0.0009486380351927785 0.0
0.0015330303753224208 -0.000958873995838807 0.0
0.001578897403716807 -0.0009685144113346157 0.0
0.0016249810080621976 -0.0009774031595958233 0.0
0.0016713614690622928 -0.0009856971656793678 0.0
0.001717968753749257 -0.0009932593597807432 0.0
0.0017647033932377703 -0.0010002088034563655 0.0
0.0018116615193662002 -0.0010063680132770048 0.0
0.001858606407095373 -0.0010118937448526115 0.0
0.0019057529010034014 -0.0010167414047218741 0.0
0.0019529151045578168 -0.0010208227130936668 0.0
0.0020001116277062903 -0.0010242802466705581 0.0
0.002047454254857663 -0.0010269668935891684 0.0
0.00209436949138286 -0.0010287815672337453 0.0
0.002141725663357741 -0.0010300055756286126 0.0
0.002187945422855389 -0.001030322708888534 0.0
0.002234719168134257 -0.0010299272781262026 0.0
0.0022793391175196945 -0.001028368472904465 0.0
0.002325609171561073 -0.0010261796689795934 0.0
0.002370221703682657 -0.001023034131698507 0.0
0.002414697003652166 -0.0010183530785978076 0.0
0.0024592475231841613 -0.0010127483193895829 0.0
0.002503962460244894 -0.0010054853726040895 0.0
0.002548694478391486 -0.0009972653606369088 0.0
0.0025937213552837757 -0.0009876710003178595 0.0
0.0026390471722180556 -0.0009771864792147882 0.0
0.0026844936768341287 -0.0009654701141075829 0.0
0.002730232133020625 -0.0009528857351929719 0.0
0.0027759658807232678 -0.0009396521548733796 0.0
0.0028214104177662616 -0.0009255904862227755 0.0
0.002866758340176503 -0.0009109560206710251 0.0
0.002912018807102555 -0.0008955930762588973 0.0
0.0029570937697841674 -0.0008795082611415116 0.0
0.0030017358809841833 -0.0008628690399567333 0.0
0.003046362630510546 -0.0008454975038744639 0.0
0.003090446466532559 -0.0008274949688625774 0.0
0.0031342072609708426 -0.0008089877331054621 0.0
0.0031778088806316187 -0.0007897180074621946 0.0
0.003220826777254308 -0.0007699362604121356 0.0
0.0032636030857149845 -0.0007495329559911999 0.0
0.0033059565622213663 -0.0007285082195982114 0.0
0.003348042342421698 -0.0007068641951170835 0.0
0.003389750049806599 -0.0006845111525951731 0.0
0.0034311197546868363 -0.0006614858900607148 0.0
0.0034719306025276717 -0.0006378735098623174 0.0
0.0035124870331613074 -0.0006136080145490542 0.0
0.003552754795389877 -0.0005886039592091856 0.0
0.0035925674537009727 -0.000562888599886431 0.0
0.0036321153181697804 -0.0005364928807967265 0.0
0.0036715082359795085 -0.0005092192716164168 0.0
0.0037104694391616863 -0.000481101316732851 0.0
0.0037490964721985133 -0.00045219073258901337 0.0
0.0037877169214027757 -0.00042231274216209604 0.0
0.0038262991343191617 -0.00039131341833957713 0.0
0.0038646227093872975 -0.0003591249685097557 0.0
0.003902789430856832 -0.0003256972983803464 0.0
0.003941126691137296 -0.0002907574326031569 0.0
0.003980098039545892 -0.00025390955086908437 0.0
0.0040191845994493524 -0.0002149046613315473 0.0
0.004058845379145095 -0.00017285061930418706 0.0
0.004100925804280077 -0.00012635661768195183 0.0
0.004144113274754115 -7.304762191346347e-5 0.0
0.004199999994657898 -3.435547345152182e-11 0.0
0.004199999988243396 -3.802055104121205e-11 0.0
0.004199999991575171 -2.6985794671230488e-11 0.0
0.0041999999915593 -2.3996589487982588e-11 0.0
0.004199999992102122 -2.050248812325904e-11 0.0
0.004199999992496078 -1.7829781751902686e-11 0.0
0.00419999999265243 -1.574344528041124e-11 0.0
0.004199999992931896 -1.3861421968957359e-11 0.0
0.004199999993024337 -1.2109307952591887e-11 0.0
0.004199999993189069 -1.0402652344034303e-11 0.0
0.0041999999935019 -9.020272045645091e-12 0.0
0.004199999993483056 -7.2155964039211184e-12 0.0
0.004199999993643641 -5.864981369080885e-12 0.0
0.004199999993746777 -4.293215625372577e-12 0.0
0.0041999999937790584 -2.7915540815425843e-12 0.0
0.0041999999937442495 -1.2082697709750994e-12 0.0
0.004199999993757978 3.428032214671592e-13 0.0
0.004199999993172289 2.0840619709550107e-12 0.0
0.0041999999935592855 3.485214308470263e-12 0.0
0.004199999992610626 5.262858202177769e-12 0.0
0.004199999992594932 6.4337668394190664e-12 0.0
0.004199999992241162 7.718991991440852e-12 0.0
0.004199999992529257 8.085751865447357e-12 0.0
0.0041999999923388355 1.1234888650487711e-11 0.0
0.0041999999959427235 5.118867090812191e-12 0.0
0.0038899783536935633 0.00022575372644155194 0.0
0.003619180688396436 0.0003283725988261394 0.0
0.0033727204083190522 0.0003660191741587587 0.0
0.003162412746384079 0.00036193439315705174 0.0
0.003020777691638583 0.00021597379141190086 0.0
0.002998987321134199 0.00014849588355787924 0.0
0.002951307902781965 0.00011982300106071892 0.0
0.0028948539868342946 0.00011043312788918766 0.0
0.0028292447961670293 0.00011232653143459774 0.0
0.002758471077017347 0.00011744483329972626 0.0
0.002683596840616955 0.00012339111031168788 0.0
0.0026058310849562893 0.0001310294317551393 0.0
0.002523627589298698 0.0001372696582370723 0.0
0.002436244570986147 0.0001413120393122335 0.0
0.0023394865640718734 0.0001429803605743408 0.0
0.0022235592945235826 0.00014277023536914802 0.0
0.0019164036717926373 0.00016644466867414028 0.0
0.0018107973958720973 0.00017884674157525476 0.0
0.001723849105748302 0.00018357053521323688 0.0
0.0016482587576666973 0.00018663914680908168 0.0
0.0015799572328837647 0.00018961609010892985 0.0
0.0015183484992801128 0.00019346858034936137 0.0
0.0014632192082040143 0.00019963671965954845 0.0
0.0014164289560713984 0.00021000010355605344 0.0
0.0013799944828703772 0.00022997534966965255 0.0
0.0013552636936438299 0.00026452638869028217 0.0
0.0013464103253867739 0.00032324724567282136 0.0
0.0013461968513960561 0.00041641306901184764 0.0
0.0011932797639430288 0.0005725133787948909 0.0
0.000964474228005635 0.0005370738678066459 0.0
0.0006711752354341809 0.00044168441314186503 0.0
0.00035516427769899584 0.00028869375705281407 0.0
0.001100442932408156 -0.000792230843978266 0.0
0.00299214322524683 -0.0008236829159403003 0.0
0.0014106502183113226 -0.0008942123126562466 0.0
0.002669482553713107 -0.0009302889394137835 0.0
0.001740304589032843 -0.0009614209300435177 0.0
0.002344654474800712 -0.0009815436284470582 0.0
0.002022789560257175 -0.000987947959884076 0.0
0.0032578574220278483 -0.0007167136086635043 0.0
0.000859872742146875 -0.0006949526710912725 0.0
0.003456639507586931 -0.0006112691061239395 0.0
0.0006646994274761128 -0.000591846478367103 0.0
6.881771706868995e-5 -1.3063146187634707e-5 0.0
0.004129624578986715 -1.2470154703726376e-5 0.0
0.002248610073655364 0.00016034275225297904 0.0
0.0025756516286137487 0.00015528576291223907 0.0
0.0018854620808545063 0.0001730820958308182 0.0
0.001594033750276165 0.00020463379624462784 0.0
0.003661265556215796 -0.000488448394669561 0.0
0.0004880812710902195 -0.0004787630248943142 0.0
4.744835607724481e-5 -2.3724714005921307e-5 0.0
0.004150877085322717 -2.1258712506729725e-5 0.0
0.004099309409998775 2.904856568998698e-6 0.0
9.256580837931197e-5 3.4318620226113484e-6 0.0
0.0038174727019525422 -0.00037267736870458257 0.0
0.00034270153877090663 -0.0003612638661068043 0.0
0.00280281035708253 0.00014213469827586495 0.0
0.001409180672329329 0.0002183914841869398 0.0
3.5398042707709265e-5 -2.5861287620184368e-5 0.0
0.004161005772198067 -2.4157663023368165e-5 0.0
0.001601022772305782 -0.0009365712173243627 0.0
0.0018799959786637017 -0.0009780940635447022 0.0
0.0025307279833466437 -0.0009592079406185754 0.0
0.0021684269046719222 -0.0009888232861456376 0.0
0.0028080832176703707 -0.0008897249016237782 0.0
0.0031174017409025534 -0.0007792968079149278 0.0
0.0012868300975261225 -0.0008588494130687722 0.0
0.0009805011104564193 -0.000750902429759946 0.0
0.003928137215402135 -0.0002800272174095513 0.0
0.00023849626900309678 -0.0002677182844092897 0.0
0.0040715844754945114 2.6014570727234043e-5 0.0
0.00011575725800979141 2.14537839039647e-5 0.0
0.00416742139751905 -2.7097981680797614e-5 0.0
3.27691815475155e-5 -3.156766590367133e-5 0.0
0.002939162285365304 0.0001407118674836404 0.0
0.001312538805984007 0.0002547560707736319 0.0
0.004020016631052904 4.86126397070306e-5 0.0
0.00016123014747141477 4.263716152851335e-5 0.0
5.7567684531622744e-5 -1.9804893020058362e-5 0.0
0.0041401985480420105 -1.831261122426248e-5 0.0
0.0024112461077746474 0.0001640185641876653 0.0
0.0017366566452382767 0.00019957748603040659 0.0
0.0001319329390990958 -0.00015479221135774422 0.0
0.004055037375016359 -0.00015841098609908956 0.0
0.0028964486848018583 -0.0008639620550092885 0.0
0.0022576269349167087 -0.0009891638329824325 0.0
0.001511539536006288 -0.0009174162405622597 0.0
0.0011914579704922117 -0.0008306004430661891 0.0
0.0024404658331980468 -0.0009715617051331924 0.0
0.003335667631885194 -0.0006786696306314303 0.0
0.0007814111311809634 -0.0006546505638852223 0.0
0.0035419717972015666 -0.0005642838311758795 0.0
0.0005860314163142063 -0.000542177032250449 0.0
0.0004112037513739499 -0.00041881097264561735 0.0
0.0037398499686171053 -0.00043187877207298764 0.0
0.0008034457016821171 0.00030488139307559216 0.0
0.0034856733864485215 0.00024100493200879288 0.0
0.004168338276437281 -3.164088379841834e-5 0.0
2.8532061625948028e-5 -3.2129070193711524e-5 0.0
0.0012633343722899522 0.0003519748718758065 0.0
0.0030497861465040898 0.0001906895118225074 0.0
0.00018351311651087764 6.833301860545505e-5 0.0
0.004015122853623319 6.517946345555294e-5 0.0
5.7543103016957745e-5 -6.947999685580273e-5 0.0
0.004135322156190472 -7.270030351882602e-5 0.0
0.0032603757391691485 0.00026728570914771773 0.0
0.0033351923017017494 0.00021436784081931053 0.0
0.0035955817044654604 0.00017140874455966667 0.0
0.003447844191721718 0.0001793485557212768 0.0
0.0032474947605388342 0.00019569339964692242 0.0
0.0033211690912466523 0.00018623440357613553 0.0
0.0035124825706297335 0.00016137990916896777 0.0
0.0033933124009704377 0.00017282453639077224 0.0
0.003573623986371016 0.00014342019032655988 0.0
0.003463646215816445 0.00015344812521343485 0.0
0.0032945415867387407 0.0001779847491992272 0.0
0.0033591287311323112 0.00015746872764196612 0.0
0.0032134353317246687 0.0001767614224134141 0.0
0.0032656690344540495 0.00015470541602937798 0.0
0.0031328268719728485 0.0001709484599260876 0.0
0.003179942637347651 0.00014500048281854746 0.0
0.00219466532063083 0.00010864871087456885 0.0
0.0020622237613146565 8.680617172973676e-5 0.0
0.002165989661164144 7.64787919264005e-5 0.0
0.0020585350409998036 6.07824418473818e-5 0.0
0.002149208758541112 5.1867547877364085e-5 0.0
0.0020567049892157097 3.979973786328492e-5 0.0
0.0021383809666590276 3.095425411440162e-5 0.0
0.0020547498388209995 2.0455737305368943e-5 0.0
0.0021304895205111253 1.200194721168677e-5 0.0
0.0020530417396075534 2.4904055150218794e-6 0.0
0.002124495394555383 -5.515383832789899e-6 0.0
0.0020517084915329265 -1.4369423245933192e-5 0.0
0.002119860222119058 -2.2511587295280843e-5 0.0
0.0020524855313109876 -3.076460818947839e-5 0.0
0.0021162317877497505 -3.8851557759762616e-5 0.0
0.0020515147495180452 -4.6842032822618595e-5 0.0
0.002112930150926713 -5.4793590973277824e-5 0.0
0.0020485245057758174 -6.261552367851494e-5 0.0
0.002109677007452098 -7.053163897452725e-5 0.0
0.00204708768890075 -7.815629436842836e-5 0.0
0.0021069546407389023 -8.617894371525902e-5 0.0
0.0020459210970933416 -9.367363711079614e-5 0.0
0.0021025514456540703 -0.00010171309384669877 0.0
0.0020444122463270835 -0.00010926878065527503 0.0
0.0020999224513665515 -0.00011737625463598304 0.0
0.002044008974023485 -0.00012459842381640568 0.0
0.002097662787079073 -0.00013314372788618504 0.0
0.0020398906441197913 -0.00013943691078381176 0.0
0.002094825438100153 -0.0001490189027904034 0.0
0.0020250495153458915 -0.00015552308231169107 0.0
0.0020957457528125003 -0.00016542863948897026 0.0
0.0020369344368041326 -0.00017300109078838142 0.0
0.0020931930860609593 -0.0001819163144733443 0.0
0.002037609316012849 -0.0001899404876258997 0.0
0.002091573639351148 -0.0001988967881333195 0.0
0.002039832035946775 -0.00020707225604205926 0.0
0.002089732824989781 -0.00021617392250328142 0.0
0.002039397515421967 -0.00022483315034488362 0.0
0.0019818285303791253 1.2652297130256806e-5 0.0
0.0020878642056311185 -0.00023395273612748758 0.0
0.0019856840628864635 -6.927147422280638e-5 0.0
0.0019728004576702665 -0.00016835248015979997 0.0
0.002034860152863762 -0.00024280176860936472 0.0
0.0020856083684923656 -0.0002522119926075459 0.0
0.002030412300605519 -0.0002619217486017083 0.0
0.0019804679725110505 -0.000250742041047607 0.0
0.001974711036430377 -0.0002708102449119846 0.0
0.002081303738521832 -0.0002720925895306336 0.0
0.002137163866824093 -0.0002616755477488083 0.0
0.0021466212015464844 -0.00017325281138359032 0.0
0.002133164499780091 -0.0002821430818256815 0.0
0.002192380195868926 -0.0002697513823296093 0.0
0.002186433199759345 -0.0002921174833729686 0.0
0.0019252813631367965 -0.0002590899818317529 0.0
0.00192153238563555 -0.0002787996651886575 0.0
0.002247418909186153 -0.00027861304024144536 0.0
0.0018689494961435663 -0.0002664230797623397 0.0
0.0018684323657433026 -0.00028713406655582187 0.0
0.0022424550765220122 -0.0003012620037356755 0.0
0.0023014648705108657 -0.00028878874475601104 0.0
0.0018122340779980883 -0.00027390125279847693 0.0
0.0018103926105155054 -0.00029526372104919445 0.0
0.0022977560680043055 -0.0003113203035237486 0.0
0.002358345007973413 -0.0002980835874778636 0.0
0.0017557512044609634 -0.00028138459426169647 0.0
0.001753393164502 -0.0003040612234039631 0.0
0.0023544752884589364 -0.0003218096238546832 0.0
0.0024165970059336662 -0.00030724426482215956 0.0
0.001699678123893072 -0.00028770307716506627 0.0
0.0016935685711501277 -0.0003111138087288722 0.0
0.0024134804220904216 -0.00033160686997798036 0.0
0.0024758512060782437 -0.00031619856449010474 0.0
0.0016380323445776366 -0.0002940431532835362 0.0
0.001633379806933727 -0.00031883991118107353 0.0
0.0015746676523577066 -0.00030190084726382547 0.0
0.001578982228249519 -0.0002756393283887343 0.0
0.0023455417270947057 -0.00034523458006630714 0.0
0.002472437660271454 -0.0003415470812306594 0.0
0.0025359638044290243 -0.00032500170590297393 0.0
0.002540407815908624 -0.0002990069653283152 0.0
0.002159694730999488 -9.464979085041182e-5 0.0
0.002602846501338286 -0.000307336449247144 0.0
0.0026078197094016814 -0.0002803874427462025 0.0
0.0026721516869430673 -0.00028785815241869734 0.0
0.0015749123480063925 -0.00032873890777078744 0.0
0.0015135931706106668 -0.00030893267669625224 0.0
0.001632497113334766 -0.0003455161881029132 0.0
0.002530719843119677 -0.00035170756088884143 0.0
0.0015145483695279429 -0.0003365208265432676 0.0
0.001452545859452552 -0.0003151957262070875 0.0
0.0021846131958225116 -2.939381784771339e-5 0.0
0.0014532429819363551 -0.00034225865360108516 0.0
0.0013913769252806225 -0.0003205835174840727 0.0
0.0013922290265464628 -0.0003483545336871918 0.0
0.0013312118796843407 -0.0003246540269413899 0.0
0.001329009349384815 -0.0002975759478539005 0.0
0.0012653204224178788 -0.000302413228492655 0.0
0.00126402451110228 -0.00027381133778993616 0.0
0.001324779356423588 -0.0003521789962118996 0.0
0.001195707695375432 -0.00027899217982653516 0.0
0.0011938846208968724 -0.0002497042748396378 0.0
0.0013935278174840623 -0.00037777245030687 0.0
0.0013361379341536022 -0.00038387921673265407 0.0
0.0011272163947558555 -0.00025260024712357677 0.0
0.0011231405486563288 -0.0002241005652065689 0.0
0.0026789589981250413 -0.00026060051339706677 0.0
0.0027457661062764717 -0.00026770713237989026 0.0
0.001394627487014898 -0.00040759688454477703 0.0
0.0013379012853892527 -0.00041354356618047685 0.0
0.0027533495820725217 -0.00023963416224397527 0.0
0.0028232709485407066 -0.00024697660593313075 0.0
0.002812814685318543 -0.0002777556182563179 0.0
0.0028907003268112217 -0.00025533860905713787 0.0
0.002881539776266984 -0.0002868724707730051 0.0
0.002959389687907224 -0.0002620146863396643 0.0
0.0029541625839968446 -0.00029332187540964785 0.0
0.003034469216851672 -0.00026523628383196777 0.0
0.003022526165039023 -0.0002972095693817489 0.0
0.003039710803266198 -0.00023524177398859806 0.0
0.00310399092468993 -0.00026961906906324435 0.0
0.0030878622275406073 -0.00030145041630344775 0.0
0.0013963188846596005 -0.00043800323849781635 0.0
0.0010529853842339582 -0.00022629705914591706 0.0
0.0010475957200922013 -0.00019741456162820968 0.0
0.0030131787334806096 -0.00033000782607477873 0.0
0.0030760662445487056 -0.00033375092007480737 0.0
0.0031495143637722757 -0.0003047546049385385 0.0
0.0030067028029018457 -0.0003635413973429724 0.0
0.0013408758974192095 -0.00044415546413812236 0.0
0.003137957851266949 -0.0003365703550427249 0.0
0.0032097000383090922 -0.0003067974605290629 0.0
0.0013978093755794654 -0.00046928906281498066 0.0
0.001343368308137273 -0.0004756643338713155 0.0
0.001287334869629128 -0.0004495134940174286 0.0
0.003197608079310628 -0.0003381717364834236 0.0
0.003268367304622238 -0.00030727358173315313 0.0
0.0013990736036788387 -0.0005015471439038135 0.0
0.0014529659604960248 -0.0004947147197150797 0.0
0.0012904049854455988 -0.00048128960111524084 0.0
0.0012348795255689446 -0.00045426723170771644 0.0
0.003254128715633811 -0.00033875125132975706 0.0
0.0033264394570335235 -0.0003066066082073586 0.0
0.003339884252573216 -0.00027610203373360463 0.0
0.0031830797799312373 -0.0003710318021345043 0.0
0.0033980179136477275 -0.0002743319282023437 0.0
0.00341344197799776 -0.00024457716299235014 0.0
0.0009732959564318064 -0.0001994864020225851 0.0
0.0009718796646746003 -0.00016974785427260823 0.0
0.0010609800908166578 -0.0001693113525669945 0.0
0.000967730370005652 -0.00014062643729516674 0.0
0.001053226667556106 -0.00013587520978862222 0.0
0.000962714851735025 -0.00011025168790963613 0.0
0.0010458436714502104 -0.00010393532192386711 0.0
0.0014540738952307922 -0.0005272902356434399 0.0
0.0015066809830191139 -0.0005198316750877613 0.0
0.0012382499728445552 -0.0004863033713176927 0.0
0.0011832382053070108 -0.0004583313047780467 0.0
0.0033836567251329342 -0.0003048343373032238 0.0
0.0009666403715194901 -8.000069362045821e-5 0.0
0.0010452736180606931 -7.229223939810383e-5 0.0
0.0015078118659991237 -0.0005524427540014662 0.0
0.0015592072513539088 -0.0005448013204228822 0.0
0.0018183502328149449 -0.0003159665042032978 0.0
0.0034544862317863437 -0.0002715495880863934 0.0
0.0022220410155395793 4.592769992755511e-5 0.0
0.00231181569212314 0.00014593135600320123 0.0
0.0019862741658222384 -0.00011615797874701924 0.0
0.0028278184130115748 -0.00021823041690218774 0.0
0.0009591219274615761 -4.77786116921213e-5 0.0
0.001050901665783754 -3.937177001336358e-5 0.0
0.0011870563667556984 -0.0004906029766805871 0.0
0.001132833328619406 -0.000461896851370978 0.0
0.0015610685260528995 -0.0005775678323258611 0.0
0.0016120682672964932 -0.0005695738192305671 0.0
0.003438708884293229 -0.00030168523992605195 0.0
0.0008947246773712359 -0.00017190658499327316 0.0
0.0008984879531417234 -0.00020183080086097013 0.0
0.0008677721621588441 -8.422403200058812e-5 0.0
0.003509084967692191 -0.00026752604921187223 0.0
0.0009582189394033068 -1.6798568688002157e-5 0.0
0.0010506564439432655 -5.510431645333926e-6 0.0
0.0015103888268761098 -0.0005860706488252086 0.0
0.0011373359583134327 -0.0004946005522431166 0.0
0.001083404694826066 -0.0004646736532305549 0.0
0.002758200433272311 -0.00021149192816759835 0.0
0.0028359371298762306 -0.0001892369317050084 0.0
0.0027622041112725136 -0.00018262966468920118 0.0
0.002844329681534967 -0.00016012009187016637 0.0
0.0016131983144827484 -0.000602219683002255 0.0
0.0016646915977945773 -0.0005929855595718677 0.0
0.0017604598382617424 -0.0002611018075839817 0.0
0.0009570819336186343 1.3603699253377913e-5 0.0
0.0010473082755877814 2.7487497137928855e-5 0.0
0.0034936923733441157 -0.0002966679614092068 0.0
0.003430220247475977 -0.0003284191362358141 0.0
0.0009360937955047007 4.5988191026123014e-5 0.0
0.0010407338511649578 6.156893208922527e-5 0.0
0.003561636782525284 -0.0002626457496825738 0.0
0.003569829408884856 -0.00024065527862684582 0.0
0.000946632766826425 7.704666250173822e-5 0.0
0.0011896832834450111 -0.0005265673168913274 0.0
0.0016649431930569566 -0.0006265285419379695 0.0
0.0017160945783288408 -0.0006159030312632481 0.0
0.0017165793905578963 -0.0005826678646452516 0.0
0.0017679391138318405 -0.000604790312615859 0.0
0.0017689245712972671 -0.0005719670072247919 0.0
0.001820555447256363 -0.0005931965423019 0.0
0.0018218480527843696 -0.0005603561236313358 0.0
0.0018742773588614394 -0.0005809812184409909 0.0
0.0018760149094409714 -0.0005483256057147497 0.0
0.0019288806627050753 -0.0005680175231820441 0.0
0.0019270793209693715 -0.0006015171710296055 0.0
0.0019814445530066454 -0.0005876895137547968 0.0
0.001979332817489718 -0.0006217114240201695 0.0
0.0020334651847164244 -0.0006069892271840263 0.0
0.002030705914406417 -0.0006415866577891028 0.0
0.0020852871295233616 -0.0006258727783877394 0.0
0.0019312209672443365 -0.000535653810235617 0.0
0.0020880626156403238 -0.0005914397559016602 0.0
0.0021405806393533775 -0.0006092453266107985 0.0
0.0021370329073240536 -0.0006448255645296917 0.0
0.0021930034435493754 -0.0006273044465378297 0.0
0.0008184159165596968 -0.00017301293598398303 0.0
0.0008217619449689353 -0.0002026445948260981 0.0
0.0010882372793783843 -0.0004974784166269222 0.0
0.0010353839458710698 -0.0004670233098050445 0.0
0.0021971475265478387 -0.0005920539844445143 0.0
0.002249532016511713 -0.0006087918569547887 0.0
0.0022446325980234752 -0.0006447543686521559 0.0
0.0023021416186724945 -0.0006250824683550312 0.0
0.0007437920766065919 -0.00017306577414936798 0.0
0.0007471697953012117 -0.00020191866465665118 0.0
0.002766711306059493 -0.00015265198727420413 0.0
0.002854190141809312 -0.00013021242559944806 0.0
0.0027739784918459054 -0.0001226360967113269 0.0
0.0035478950537677183 -0.00028966263793535666 0.0
0.0036131112837079985 -0.00025610372164803753 0.0
0.0017160882312575209 -0.0006504628951462083 0.0
0.0011447046071318447 -6.973506765239387e-5 0.0
0.0021843888938460608 -0.0003127926293545744 0.0
0.0022964122849100234 -0.0006616576949600669 0.0
0.002354064811992095 -0.0006409190478468757 0.0
0.0023586822353635476 -0.000604374416003371 0.0
0.002411631133178935 -0.0006188124469597171 0.0
0.0023081573734000565 -0.00026496146937767006 0.0
0.002868841754045037 -9.94148319741847e-5 0.0
0.002943310299836496 -0.00011240392602314404 0.0
0.0010420514973734011 9.572898250028064e-5 0.0
0.0010399998803229307 -0.0004995475263682477 0.0
0.0009881700923253004 -0.0004684476804375231 0.0
0.0027835998996028405 -9.149715665626718e-5 0.0
0.0024056307321527154 -0.0006563153728233092 0.0
0.0024641448748120385 -0.0006337468781698303 0.0
0.0024700424404568394 -0.000596306186078123 0.0
0.002523779321558956 -0.0006104515999196353 0.0
0.0025308649426003496 -0.0005740280881577031 0.0
0.0025837611832883 -0.0005862816926830425 0.0
0.0025754938121633013 -0.0006230509947097128 0.0
0.0026349081970393445 -0.0005975113632157132 0.0
0.000943123608032441 0.00010601042318320393 0.0
0.0006714998692657352 -0.00017186329615859566 0.0
0.0006744775408946084 -0.0001994158409832743 0.0
0.0016664760166033607 -0.000661418705701689 0.0
0.0035970353566588354 -0.00028409302695872954 0.0
0.0036623320783833843 -0.00024862774309609883 0.0
0.002625249177203736 -0.0006343943410918614 0.0
0.0026838894345735343 -0.000607689041803792 0.0
0.0010439592671434607 0.00012812769226255686 0.0
0.0009934088612933117 -0.0005010626867020311 0.0
0.0009415548307253903 -0.0004687413157189765 0.0
0.001139563370981507 4.1384550301581114e-5 0.0
0.003311353816450467 0.00012891869491437106 0.0
0.0017161232879753369 -0.0006859211492683917 0.0
0.0009409104315914168 0.00013238186422001854 0.0
0.0008737263181997922 2.0416108470456715e-7 0.0
0.0036403516207295337 -0.000283277914834404 0.0
0.003709833722529161 -0.0002407858859337805 0.0
0.003727189200220613 -0.00021352074108139065 0.0
0.0008454203086887323 8.50257850968336e-5 0.0
0.003571568103099752 -0.0003171467812981205 0.0
0.0006638166392245957 -0.00014458453124429043 0.0
0.0010407596676257494 -0.0005306431519249995 0.0
0.002883090785748345 -6.765276031674119e-5 0.0
0.0027949343550469166 -5.928308748444757e-5 0.0
0.0025922883525694553 -0.000550505194989139 0.0
0.0009473502398360262 -0.0005021419708156667 0.0
0.0008956052372671131 -0.0004688407922548784 0.0
0.0006014134946230767 -0.00016921052074653656 0.0
0.0006038891960273613 -0.00019502087755734487 0.0
0.0011287330586152978 -0.00043102230896426317 0.0
0.0026728415416664326 -0.0006445553465299959 0.0
0.002730887639743757 -0.0006164194750661976 0.0
0.000889676264681457 -0.00043612911254328106 0.0
0.0008435412131092126 -0.0004352573709259734 0.0
0.002618014437782444 -0.0006695575018535064 0.0
0.0016683386859773634 -0.0006972178539781274 0.0
0.0008504088607770093 -0.00046850366710142894 0.0
0.0007985313484629051 -0.0004339639437368453 0.0
0.001768883415826728 -0.0005406179226855644 0.0
0.003774916810907247 -0.00020402535770985163 0.0
0.003792221249405697 -0.00017960360462742706 0.0
0.0037582399362091246 -0.00023012270432479367 0.0
0.0027182897563846576 -0.0006528169943345343 0.0
0.0027761002362729132 -0.0006236148817742742 0.0
0.0025375613578295375 -0.0005385287480995594 0.0
0.002600254829636144 -0.000515746957874452 0.0
0.0017166750052630768 -0.0007221313517430546 0.0
0.002789139891373472 -0.0005877736268849452 0.0
0.0028346615164653666 -0.000594504296667559 0.0
0.0005325074643766049 -0.0001640150742667685 0.0
0.0005377888574665864 -0.00018901759105500971 0.0
0.0028209145311215047 -0.0006310877477832347 0.0
0.002878604391941443 -0.000601051428879674 0.0
0.0008069123326184953 -0.00046780196011391573 0.0
0.0007549609110726918 -0.00043222122076049825 0.0
0.0028977022597765183 -3.486759994134496e-5 0.0
0.002808618047473085 -2.5992844251375858e-5 0.0
0.0007460341715103248 -0.00039992748080694624 0.0
0.0007023020299341286 -0.00039682106375821193 0.0
0.000710954564684313 -0.0004296126753035311 0.0
0.0006585814858182001 -0.0003932051603366858 0.0
0.0038210240395760214 -0.0001933763090198941 0.0
0.003803906313572675 -0.0002193250724312661 0.0
0.0010411198943357778 0.0001554760729141595 0.0
0.0009293358193784455 0.00015448665334586418 0.0
0.002693405831270492 -0.00011378236108521449 0.0
0.0016701310761063485 -0.0007337461232563756 0.0
0.0028645908491840176 -0.0006388358597638153 0.0
0.0029211673717711184 -0.0006075407191839831 0.0
0.0030492732257903212 0.00016069383383120393 0.0
0.0028484157996090066 -0.0005587855424812919 0.0
0.001977431242772557 -0.0006567180823265539 0.0
0.0006484684745055078 -0.00036200163048629336 0.0
0.0006060541924826069 -0.00035680269549292625 0.0
0.0006163797978616251 -0.00038920198684784134 0.0
0.0005637157007600007 -0.00035141643999073234 0.0
0.0005533989921379182 -0.00032084415744622406 0.0
0.0005097885808299027 -0.0003142350764565326 0.0
0.0004991458594243563 -0.0002843120603116549 0.0
0.00045494071456055307 -0.0002761844279593992 0.0
0.0004443576664023748 -0.00024813779147527844 0.0
0.0004026654720552563 -0.00023936271532038557 0.0
0.0003913963985962501 -0.00021349254937483354 0.0
0.0004124203817373358 -0.0002665447606787758 0.0
0.0003557040314563257 -0.0002238808732970335 0.0
0.0004684986987379584 -0.00015759622737672335 0.0
0.00046717000914095106 -0.00013534604562279927 0.0
0.00037049067940143557 -0.00025557139895939987 0.0
0.0003186738942226707 -0.0002162266096241241 0.0
0.0011441899078877965 0.0001485491372169443 0.0
0.001250867597761927 -0.0002426366218525428 0.0
0.0025445641991167895 -0.0005042772500549986 0.0
0.002607286618612398 -0.0004820972864818038 0.0
0.0007460329224665947 -0.00022907425954233482 0.0
0.0017171626762926449 -0.0007592615053540655 0.0
0.0017640861205983178 -0.0007470130818964698 0.0
0.0026633655455671657 -0.0004923908893852224 0.0
0.002670837125125896 -0.00045893489900354775 0.0
0.0038653838593956653 -0.00018150947660261398 0.0
0.0038455388516503964 -0.00020851000286696602 0.0
0.0037854909487818377 -0.0002491361225275371 0.0
0.002705583731358362 -5.069494200406444e-5 0.0
0.002718294172403403 -1.7416369775626586e-5 0.0
0.0016221836631049645 -0.0007080268680256409 0.0
0.0016242266528882416 -0.000744656796780826 0.0
0.0015770071457473012 -0.0007184929527068925 0.0
0.000576223790156213 -0.0003847658148077216 0.0
0.002823658820401711 8.348501500172877e-6 0.0
0.0027327304378507657 1.7845679683781137e-5 0.0
0.0011279343035501886 -0.00028320890619919746 0.0
0.0029061149268999856 -0.0006463927648352847 0.0
0.0029628432269762236 -0.000613922713549494 0.0
0.002978469979458002 -0.0005765828697559142 0.0
0.0030198777041705437 -0.0005817547874393006 0.0
0.001064467383288719 0.00018136418245139546 0.0
0.0009309073791082275 0.00017474423665457948 0.0
0.0015565179508212085 -0.0005134253788787678 0.0
0.0028508830290723663 -0.0006785706873552057 0.0
0.0035174888659651963 0.00013118237198194598 0.0
0.003003596090792166 -0.0006213069616796623 0.0
0.0030610179964512775 -0.0005878141169649814 0.0
0.003077261794913383 -0.000549312145785893 0.0
0.003118920332804327 -0.0005542375715970473 0.0
0.0031360078115577625 -0.0005162522488517469 0.0
0.003177118917802443 -0.0005202202265489459 0.0
0.0031595370133929396 -0.0005598809393237132 0.0
0.0032170602437432603 -0.0005247737843661577 0.0
0.00033042605171940066 -0.0002420443044482244 0.0
0.0002800078604110811 -0.0002022125846299337 0.0
0.0002620351240254888 -0.00017451520996139292 0.0
0.0017644133296451248 -0.0007846346889201968 0.0
0.0018094337977871266 -0.0007733599893254562 0.0
0.0015796770428340215 -0.0007552919522134259 0.0
0.0015326420297941301 -0.000728324208847444 0.0
0.0038245798883953614 -0.0002401196529793382 0.0
0.003883702434027355 -0.0001979897565840416 0.0
0.003005588863988772 0.0001837082979788861 0.0
0.0029258465936249922 0.00017327759441588888 0.0
0.0008087346385528152 0.00014682829862061792 0.0
0.0008076528104529639 0.00016427379840257885 0.0
0.0003829447538438364 -0.000285697491842913 0.0
0.0014528804736549863 -0.00040100595824383445 0.0
0.0026723706799090022 -0.00017800310628737008 0.0
0.0037662416667468414 -0.00028288264221582575 0.0
0.001132429085998638 -0.00012499978441483784 0.0
0.002616178411989507 -4.260256535438473e-5 0.0
0.003197917048793418 -0.0005663372401453698 0.0
0.0032552342229919245 -0.0005300144705876781 0.0
0.0032064004292649364 0.00011569711583905337 0.0
0.0033543571204124756 0.00010046885376258068 0.0
0.0010483613480563971 0.00019945050539432117 0.0
0.0006057746444784616 -0.00022060315471651875 0.0
0.0003961474998722717 -0.00012693795269100528 0.0
0.0003961584914110391 -0.00010680127277051189 0.0
0.0006267034419808901 -0.0004233464266257223 0.0
0.0030475684954639794 -0.000629300182628288 0.0
0.0024652845311599805 -0.0003674985668868598 0.0
0.0022404989444573375 -0.0006818579544076518 0.0
0.0014031128179229921 -0.000533262630763775 0.0
0.0002918242643954955 -0.0002274542701481057 0.0
0.0002432078734675146 -0.0001869693888020447 0.0
0.0008586766738463079 -0.0005034817557642104 0.0
0.0027276926896930564 -0.00046813422375562475 0.0
0.002735650779760419 -0.00043506233442966864 0.0
0.001624583981938838 -0.0007827463260453791 0.0
0.003271087746538289 8.345157863697363e-5 0.0
0.003397735537487862 7.227250040898224e-5 0.0
0.0033198262797160694 5.265750238254667e-5 0.0
0.0034426414342585946 4.3851481328561946e-5 0.0
0.0035179929516553914 6.152125927912918e-5 0.0
0.003562011202020989 3.5864534018771905e-5 0.0
0.0034856633469164612 1.5747334965905653e-5 0.0
0.0036011870142024544 1.0863397059576737e-5 0.0
0.0035256006555557727 -1.0901526520052317e-5 0.0
0.0036389010721434778 -1.2334348308498964e-5 0.0
0.003565370637992668 -3.597740638253023e-5 0.0
0.003673957320564616 -3.3469417680057215e-5 0.0
0.003602574658495056 -5.909095197027231e-5 0.0
0.0037074828389445256 -5.2592069074889763e-5 0.0
0.003489523063242319 -6.422553613222461e-5 0.0
0.003638052431310875 -7.935992469665949e-5 0.0
0.0037367069184550783 -7.004109299324347e-5 0.0
0.003639007852976041 5.0191334856906615e-5 0.0
0.0008356869856634446 -0.00040304856458533474 0.0
0.0008162755918135165 -0.0005032288934126775 0.0
0.0008661336645265903 -0.0005393109314375362 0.0
0.0036719443764701913 -9.726632541272106e-5 0.0
0.003765618008867986 -8.487619590343129e-5 0.0
0.0035783131284115414 -0.00010763136275104334 0.0
0.0022905573810191146 -0.0006992091646611606 0.0
0.0022352849951367327 -0.0007195346604149953 0.0
0.0022842979054997557 -0.0007373551704940677 0.0
0.0022306135464568097 -0.0007580236671920869 0.0
0.002278106270857423 -0.0007762815912557408 0.0
0.0022265803837496624 -0.0007972925961787442 0.0
0.0021791202245614446 -0.0007782782106107742 0.0
0.002176127441191034 -0.0008175168693526808 0.0
0.0021299588732210805 -0.0007975992497882448 0.0
0.001945889709257421 7.873841897211184e-5 0.0
0.002272407248156194 -0.0008162418155440981 0.0
0.002323317768290363 -0.0007940421770415524 0.0
0.001914653181708639 -0.00030032470702289957 0.0
0.0018776139263825204 -0.0005167446784941933 0.0
0.0019335373521825825 -0.0005043725819265639 0.0
0.0018792207259983064 -0.0004861910481487239 0.0
0.0019358052530813515 -0.00047417619122973103 0.0
0.001880892860686678 -0.0004567122780796811 0.0
0.0019380683994172031 -0.00044511333942186173 0.0
0.0019932107964492542 -0.0004616911445476483 0.0
0.0019959611376250694 -0.00043307220109945854 0.0
0.002051336764618615 -0.00044879636854150006 0.0
0.0020543904787877626 -0.00042060036380700257 0.0
0.002107551440833361 -0.00043538912183881806 0.0
0.0019988344325620657 -0.00040473793769710053 0.0
0.0018826449340893356 -0.0004282758316760724 0.0
0.0018252993302289116 -0.00043908768170778956 0.0
0.0021039916759185992 -0.00046474759524362837 0.0
0.002163131143878159 -0.0004487257004200892 0.0
0.0008254522978627985 -0.0005395994592036284 0.0
0.0019842481233026356 -0.00019823030051133682 0.0
0.001985219755142788 -2.3465137465012883e-5 0.0
0.0022544858242144546 -0.0005742054022580253 0.0
0.0038825551349011478 -0.00015881342519510528 0.0
0.0039247171492041225 -0.00014648395527732443 0.0
0.002173714937522148 -6.18191998337077e-5 0.0
0.0021547948113304956 -0.00012317599084320723 0.0
0.0030931370399321376 -0.000512727317959997 0.0
0.0026610353920111076 -0.0003157843700565078 0.0
0.0038637510849038326 -0.00022872775735373717 0.0
0.003919757669400194 -0.00018679983150438612 0.0
0.0021450105049419933 -0.00020803760773028228 0.0
0.001535730600519327 -0.0007655052532179747 0.0
0.0014889336643457783 -0.0007378362297281147 0.0
0.0022017540297493967 4.924444942641888e-6 0.0
0.0021270483628455473 -0.0008369470877648671 0.0
0.0020808015793458466 -0.0008146018066276368 0.0
0.0014859265015472075 -0.0007010904891798545 0.0
0.001441788566822848 -0.0007099374266852269 0.0
0.0014385937075848372 -0.0006735631102207601 0.0
0.001394255544767024 -0.0006816431323072413 0.0
0.0013982885938807273 -0.0007185024396917927 0.0
0.001350952944685073 -0.0006894125107207278 0.0
0.0013553808731573593 -0.0007267113495953324 0.0
0.0013081041289049005 -0.0006968893751150954 0.0
0.000589037177662175 -0.000419877142129678 0.0
0.003941725782927405 -0.00012648671040027212 0.0
0.002838326022144406 4.371939366307806e-5 0.0
0.0027450208834131212 5.25496983608719e-5 0.0
0.0012870923487498895 -0.00039014371583447576 0.0
0.0010359213372852622 -0.00043559179715836865 0.0
0.0037994295629960474 -4.800356572052533e-5 0.0
0.0037486353890044213 -1.4365728976910336e-5 0.0
0.0018088578941589605 -0.0008107081697164922 0.0
0.0018550031742657418 -0.0007982372792016759 0.0
0.0028907743863112083 -0.0006873173287471686 0.0
0.0005466432014404901 -0.00029140224866185886 0.0
0.0024207921138442614 -0.00028404763296505526 0.0
0.002642451018849677 2.6087165531751524e-5 0.0
0.0026535778412182186 6.064192211496841e-5 0.0
0.003153606760415022 -0.0004801904316359226 0.0
0.003220624057962979 -0.0002758696431167531 0.0
0.00327503886044465 -0.0004900670352814991 0.0
0.003313893614039491 -0.0004932609923837788 0.0
0.0032918082383298036 -0.0005362770527604776 0.0
0.003351240058902262 -0.0004977548910851968 0.0
0.0018786696558556173 -0.00024692400959091447 0.0
0.0006367746759916627 -0.0004585955880565298 0.0
0.002107465549093582 -0.0004068229816544035 0.0
0.003409538629930604 -1.0926838137850757e-5 0.0
0.0018191702277405334 -0.0007368927007457331 0.0
0.0008729113757072995 -0.0005757571241200978 0.0
0.0009137833908280892 -0.0005752378648077895 0.0
0.002837180447628376 -0.0007199681230701944 0.0
0.0013902176111392666 -0.0006459205985699591 0.0
0.0025508020413635133 -0.0004712583113151351 0.0
0.002488390499037397 -0.0004921345887983956 0.0
0.003899736929460308 -0.00021780441006523312 0.0
0.00395539086614261 -0.0001738655192032609 0.0
0.003973303794541427 -0.00014845868587106675 0.0
0.0011758031982390799 0.0002065961560407462 0.0
0.0002551520572056942 -0.000211040111959061 0.0
0.00020755116721787726 -0.00016909154972511649 0.0
0.00020068799664316113 -0.00015121320172174218 0.0
0.002884998346374113 0.00019344151737294796 0.0
0.0029587366653351325 0.00019790788717478108 0.0
0.0028077312006782322 0.00018312081712037312 0.0
0.002987507511959647 -4.3930210149187746e-5 0.0
0.003704946368256338 -0.00011117715455653995 0.0
0.0037966573685107017 -9.607412997779413e-5 0.0
0.0014925434808965347 -0.00077551266505655 0.0
0.002926052807379117 -0.00016650708333205237 0.0
0.0006831735120143192 0.00013445526318458322 0.0
0.0006749524205289489 0.00014791405792888635 0.0
0.0008075477549353059 0.0001791393305106739 0.0
0.0006626078593331222 0.00015847703398148459 0.0
0.0008492105701164138 0.0002013310396051984 0.0
0.0020789412309862227 -0.0007746665894935929 0.0
0.0013026740759846346 -0.0006602061504871658 0.0
0.0012609450919432558 -0.0006669944352983159 0.0
0.001266156320864194 -0.0007041432713232717 0.0
0.0012195010576350467 -0.0006736212119560902 0.0
0.0033717004851936696 -0.0004568233572128691 0.0
0.0034089044301855186 -0.00046025370005385856 0.0
0.0033884123644071966 -0.0005029462019647088 0.0
0.0034446939325285045 -0.00046433821385114053 0.0
0.002677246476802361 -0.00042614176856136694 0.0
0.002742936940948663 -0.00040305474775771525 0.0
0.0023170126877285796 -0.0008343202922455143 0.0
0.002366797136581296 -0.0008109666394231276 0.0
0.0018267444647243115 -0.0004109656354436547 0.0
0.0017691039522466521 -0.0004210933378417978 0.0
0.0017586553013945424 -0.0008241977701125986 0.0
0.001224788798544256 -0.0007105800690389526 0.0
0.0011790320364022438 -0.000679807861879842 0.0
0.0037266430713927944 -0.00029080527427855846 0.0
0.003706814716509818 -0.0003270683245770277 0.0
0.0036687260459027293 -0.0003331252763750318 0.0
0.0036540275012755968 -0.0003676890497221217 0.0
0.0018539573535284657 -0.0008386053199759378 0.0
0.0002995406948786923 -0.0002521521476706624 0.0
0.0004367237402108705 -0.0002228838858334255 0.0
0.0003775275020720645 -0.0001879745965840161 0.0
0.0003225064027519378 -9.759520729507697e-5 0.0
0.0003186810303315495 -7.957663607091093e-5 0.0
0.00039701097421946193 -8.668617987576286e-5 0.0
0.0003166075523764612 -6.209819630123457e-5 0.0
0.000398019189469145 -6.626708687606702e-5 0.0
0.00031494823570524266 -4.484281785043693e-5 0.0
0.0004004791143921188 -4.5768823503077795e-5 0.0
0.0037452587396678166 -0.00032005353212341276 0.0
0.0012123271340321123 -0.0006376046491599535 0.0
0.0031092258482333327 -0.00047842055612470734 0.0
0.0027968761732585054 -0.0007089571365662614 0.0
0.0027843902865631407 -0.0007523636449416429 0.0
0.0027448583457177333 -0.0007407896107148731 0.0
0.002079118855772803 -0.0008549764624438206 0.0
0.002911263486189373 3.048735834568997e-5 0.0
0.0034243537943601356 -0.000508610518124882 0.0
0.004008802241420261 -0.00013338904736297062 0.0
0.003989882513349136 -0.00015939192580355507 0.0
0.0011580672247752026 0.00021866250664775584 0.0
0.002828813998125221 7.563280320134858e-5 0.0
0.002201043366573938 -0.0005581908067604441 0.0
0.0022579903611354957 -0.0005408436468413335 0.0
0.0021748738958038433 -0.0008581684493233297 0.0
0.002033312650048875 -0.0008316089176595424 0.0
0.0009085490725883859 -0.00023599614806972676 0.0
0.0038534696123644365 -7.214742523748745e-5 0.0
0.003882289400790562 -8.016696531980086e-5 0.0
0.003824620986503075 -0.00010509628111168554 0.0
0.003906801250286276 -8.725794511190887e-5 0.0
0.00323829958140838 -0.0003708849311477677 0.0
0.0024518684088537667 -0.0006728357367557344 0.0
0.0024939167117042503 -0.00045994804421649175 0.0
0.001821443388380668 -0.0006274519281172246 0.0
0.002610163265707116 -0.0002535902093406501 0.0
0.0027929072228823734 -0.0004433491143315969 0.0
0.0028016682248938884 -0.0005531695654841226 0.0
0.0028618426633029463 -0.0005244855128600359 0.0
0.002832707165459068 0.00020286908440191625 0.0
0.0029225279594516777 0.00020170810272171328 0.0
0.0009197226962251448 -0.0006119761619535264 0.0
0.0009588283738038457 -0.0006102844688882915 0.0
0.0003139576429190755 -2.7668722862655615e-5 0.0
0.00039994884623157224 -2.5355209848473105e-5 0.0
0.0004888227338864002 -4.425535166285119e-5 0.0
0.0004914117194921046 -2.024615609783295e-5 0.0
0.0004017271156344512 -5.528308629665094e-6 0.0
0.0004974465432608382 3.189468276542707e-6 0.0
0.0004053398302973775 1.348377931018646e-5 0.0
0.0005064205713842067 2.620121949637791e-5 0.0
0.00040902847903056324 3.16585695645536e-5 0.0
0.00022005393508019362 -0.0001928594504161607 0.0
0.0024317112167834927 -0.0004795258157200146 0.0
0.00017397633841606557 -0.0001502570187238461 0.0
0.0008340744595789539 -0.0005766351349726326 0.0
0.003984473912405163 -0.00011253541369601117 0.0
0.0019872640424873174 -0.000522423505058846 0.0
0.002553285448758781 3.374426203338461e-5 0.0
0.0025687151733761442 7.077101772457581e-5 0.0
0.0005142787160650222 4.8652783214414705e-5 0.0
0.0006009786256780139 -0.00045601841211754407 0.0
0.0005540283793367972 -0.00041643270771165664 0.0
0.0012717307272250833 -0.00074848989472417 0.0
0.0028709945623192636 -0.0007324056786664158 0.0
0.0015384886182521682 -0.000803846842368508 0.0
0.0034798792548103178 -0.0004685330990855019 0.0
0.004026460447736789 -0.00011193683185625108 0.0
0.0017679868034099493 -0.00044971070886277195 0.0
0.0017120876716940957 -0.00043074942620304363 0.0
0.0017111271115979958 -0.00045995599222934476 0.0
0.0012710702756056236 0.00022177062075807923 0.0
0.0016584678239990938 -0.00044013693777835057 0.0
0.00033269705890734495 -0.00011780179548941457 0.0
0.002359443455252351 -0.0008519416421711681 0.0
0.0024090393526133725 -0.0008271805829509242 0.0
0.0024172513320559674 -0.0007868856971369096 0.0
0.0024587838745552685 -0.0008017895971390101 0.0
0.0029095088256715896 -0.0005296040291600395 0.0
0.002923801839079699 -0.0004950131370178525 0.0
0.003999652679944619 -9.625493671191011e-5 0.0
0.003955360872388328 -0.00010946223353768733 0.0
0.002684939424926744 0.00010050725005394721 0.0
0.002587337923235003 0.0001111253982620857 0.0
0.0007875915301913575 -0.0005400200127624624 0.0
0.0011845512495078086 -0.0007169930477178534 0.0
0.001139667910953299 -0.000685808795491471 0.0
0.0020745329573481834 -0.0002937271915639039 0.0
0.0033693742521686 -0.0005484531741985282 0.0
0.0004140023159970706 4.906131547469545e-5 0.0
0.0011329968644820311 -0.0006485239214941066 0.0
0.002449391374331568 -0.0008429029489667679 0.0
0.0024983743758087325 -0.0008161459213914099 0.0
0.002435978435588882 -0.0004488858788869137 0.0
0.002374848137471522 -0.00046652614684514665 0.0
0.002378702290883465 -0.00043683723697807565 0.0
0.002192409064092545 -0.0002509704822893605 0.0
0.00032663318082915075 -0.00017609076229357554 0.0
0.00018650364387960136 -0.00017313294735680896 0.0
0.002468447192451541 -0.0007620945324722958 0.0
0.002526276401099474 -0.00037868451217774234 0.0
0.0020325266431040693 -0.000872372585475047 0.0
0.0008207131516556397 -0.0001440348320412337 0.0
0.001454017970619713 -0.0002902903728475466 0.0
0.000646839568100587 -0.0004965932109885452 0.0
0.0035005357070564515 -0.00042643040525381547 0.0
0.0008856492065176574 -0.00040469036458962713 0.0
0.0008284317160746475 -0.0003715007023295351 0.0
0.0008827776532699912 -0.00037360914020870034 0.0
0.0008233308614160926 -0.0003408167350092854 0.0
0.0008791920030657682 -0.00034292898791116595 0.0
0.000768515271122536 -0.0003380193177339669 0.0
0.002732938543608736 -0.0007845756073298373 0.0
0.0026969383391206325 -0.0007717968282388317 0.0
0.0005451972067230826 0.00011473055287532455 0.0
0.002079124331070662 -0.0008956144409980743 0.0
0.0020276853809628914 -0.0006771791396080771 0.0
0.0019752443608074314 -0.0006924953639557537 0.0
0.0009654173972816552 -0.0006477206651070422 0.0
0.0002571597210286548 -8.699213393466578e-5 0.0
0.00027225414006858416 -0.00010866605118848161 0.0
0.0037406845970726706 -0.0001896633782502055 0.0
0.003807780134659625 -0.0001573600751184369 0.0
0.0005813157602758696 -3.970034315486388e-5 0.0
0.0010039038218903186 -0.0006445785623494447 0.0
0.0009998914694176878 -0.000610140601289363 0.0
0.001010427042808094 -0.0006825703129556301 0.0
0.0009277270313040295 -0.0006501807582761617 0.0
0.0006757660286111984 0.00017674901426233008 0.0
0.0015742395740037595 -0.0006826934532551786 0.0
0.002426512135978901 -0.000512257911861351 0.0
0.0037519690964998814 -0.00016739518242499016 0.0
0.0023108065037556738 -0.0008760184988136749 0.0
0.00149530697251551 -0.0008144597158233899 0.0
0.0040409733879874805 -0.00011849940472911018 0.0
0.004021590731858922 -0.00014513421024519414 0.0
0.0012959850269954698 0.0002100528314470539 0.0
0.001146444144372101 -0.0007241019931879363 0.0
0.002682808872167949 -0.00039321639591280617 0.0
0.0027541040815045165 -0.00037069993421155566 0.0
0.00042957578288522623 -0.00019846868925634984 0.0
0.0005663495387963714 -0.00045257087394345895 0.0
0.0005209076690591258 -0.00041295744350823885 0.0
0.0005076752632705116 -0.0003781709768553782 0.0
0.000796728500966927 -0.0005774120989478974 0.0
0.00014182949018830447 -0.0001298003069646574 0.0
0.00013202897742792648 -0.00011265585670212226 0.0
0.002487915405555298 -0.0008584427014768186 0.0
0.0025360987596789227 -0.0008304333239783974 0.0
0.0025458105514674545 -0.0007871968707292108 0.0
0.0034296800859470664 -0.0004207010838221548 0.0
0.003390897514916009 -0.00041912802124132646 0.0
0.00340376871545027 -0.0005560579399091736 0.0
0.0007626231166083687 -0.0003081817083811808 0.0
0.0007091059085950039 -0.00030574273415686975 0.0
0.0028126245019403587 -0.0003791074830611464 0.0
0.00396028226449209 -6.445519853942178e-5 0.0
0.003981814286476023 -6.939481861501553e-5 0.0
0.004007655910833848 -8.414064466787101e-5 0.0
0.003960732544831232 -0.00020029565685807907 0.0
0.0002320681640281412 -0.0002189860722419241 0.0
0.002603239958348172 -7.15456781679099e-5 0.0
0.002520803645124354 -6.502848316266294e-5 0.0
0.0025082350794316598 -9.047306447288284e-5 0.0
0.0024299895987359567 -8.503723359856975e-5 0.0
0.002422533369434721 -0.00010933066493239355 0.0
0.002435307995733089 -6.130775193296762e-5 0.0
0.002204628091436515 -0.000525501388607597 0.0
0.001770153839889146 -0.00039353456224271383 0.0
0.001828403336847861 -0.00038381150465963197 0.0
0.0005332293753165223 -0.00044878682685688115 0.0
0.0004884143065595328 -0.00040794568768505804 0.0
0.0035907741210447048 7.320134370179288e-5 0.0
0.0037144779539059532 5.926219738998223e-5 0.0
0.003762963187845702 3.724963931076071e-5 0.0
0.0038365039468620707 4.38159494970839e-5 0.0
0.0038056704536949945 6.217316450040443e-5 0.0
0.001988887706967518 -0.0008493351290976325 0.0
0.0019889214960792357 -0.0008108509161421397 0.0
0.0019872444022298696 -0.0008893062368979087 0.0
0.0024639060561910614 3.9808914614081596e-5 0.0
0.0024514024811933925 8.692783341540484e-6 0.0
0.0005819376198660291 -6.645817792243772e-5 0.0
0.00030556508416798827 3.0511238293422148e-5 0.0
0.0026831054902454075 -0.0008165209280473206 0.0
0.0006851568219714042 0.00011876685905772703 0.0
0.002718651150584155 -0.0005018981148895395 0.0
0.002510705744342966 -0.0001150077497569622 0.0
0.0024155806430214174 -0.0001330475341707576 0.0
0.0024879571510914144 -0.00014118237180097955 0.0
0.0024083061300061775 -0.00015634331268837942 0.0
0.002476689164608162 -0.00016492457401180388 0.0
0.002401525654473712 -0.00017976015061877407 0.0
0.002467854670029225 -0.00018865223646162432 0.0
0.0023952826824001293 -0.00020350438124319583 0.0
0.002462623753634065 -0.00021264234120225203 0.0
0.0023357094013777423 -0.0001475993134090537 0.0
0.002328715717472735 -0.00019406275959509066 0.0
0.002771184378394223 -0.0007976600602560943 0.0
0.004051721628374274 -7.688080115344467e-5 0.0
0.0014359451405631964 -0.0006383671653437386 0.0
0.00138563531189628 -0.000611983391321777 0.0
0.003842509337548594 -0.00026447217001422093 0.0
0.0016619627246972641 -0.000415532104304741 0.0
0.002348198007860956 -0.00010190266212178241 0.0
0.0008411486976222874 0.00022093823685658565 0.0
0.00024214032263947388 -5.551481740305029e-5 0.0
0.0013913266463661067 0.00022291977904831763 0.0
0.001405879023323733 0.0002097539853475666 0.0
0.0031400009207705943 8.886063525209485e-5 0.0
0.0038777284370148132 -0.0002544916180302121 0.0
0.0038229394366175976 -0.0003029870113802143 0.0
0.0016559434172676796 -0.0004695482327852326 0.0
0.001608493945079252 -0.000445080959814267 0.0
0.000683817451302574 -0.0004683610231630478 0.0
0.00015441497131669964 -0.000151514396461377 0.0
0.00019296021920059135 -7.318818854982727e-5 0.0
0.00019918843960662862 -8.750803319983674e-5 0.0
0.0001108095063357219 -0.00010749246066715963 0.0
0.002873626835484771 -0.0004905476001611579 0.0
0.0029369484929197744 -0.00046187722777728984 0.0
0.0029880365480685935 -0.000465607078134401 0.0
0.003000563452987711 -0.00043232204921927044 0.0
0.0023243373143718654 -0.00021659507627494646 0.0
0.0010019304692646968 0.000236463850540043 0.0
0.0012731348491519239 0.00022987471007529265 0.0
0.0023181215657995862 -0.0004531968010560671 0.0
0.002322553011278566 -0.00042374449677761567 0.0
0.0017725268319698 -0.00036795924808409554 0.0
0.0015138397842251255 -0.00036491388742909795 0.0
0.0015413083231027966 -0.0008433210782824268 0.0
0.003142726650520152 -0.0006022279036488249 0.0
0.003179292725447044 -0.0006107894501050624 0.0
0.003126540504890184 -0.000647218755597728 0.0
0.0031620289716184358 -0.0006579664818433179 0.0
0.0031109939395855594 -0.0006945765803205522 0.0
0.003075276135340466 -0.0006835642029564007 0.0
0.0029845976115709504 -0.0006704480923193175 0.0
0.0027038853426852544 -0.0007289553560229945 0.0
0.0028463953906499927 0.00015698742136000706 0.0
0.0021858350127577364 -0.0007013988270611491 0.0
0.0006013538695447662 1.5368875498376462e-5 0.0
0.00399889516299638 -0.00017903277110833398 0.0
0.004050365859986162 -0.00013051376628477708 0.0
0.003214137942691971 -0.0006204437680680883 0.0
0.0031974987189360704 -0.0006682482147217868 0.0
0.0032476952036925386 -0.0006308447182874037 0.0
0.0015830609410174422 -0.0008323298445944627 0.0
0.0019255957627326398 -0.0006713191263695359 0.0
0.0019250928357967486 -0.0007065332621352849 0.0
0.001973309785748613 -0.0007289712565748136 0.0
0.0012989611140312156 -0.0005192621382521126 0.0
0.0018756522952114358 -0.0006845071326353641 0.0
0.0024259283491916265 -0.0007485281572065403 0.0
0.003451485422283604 -0.0003833496352826222 0.0
0.003534899501289475 -0.00042888308345631957 0.0
0.0035136137113945237 -0.0004732759020814953 0.0
0.0035634233575767955 -0.0003837437384913188 0.0
0.0004880614265816642 -9.150637123691998e-5 0.0
0.0014025658456660627 -0.0007564267186961131 0.0
0.0013607028183377544 -0.0007652612486562847 0.0
0.0014064758009908111 -0.0007951956723050238 0.0
0.0013664941525051274 -0.0008045680756441863 0.0
0.003051496439762935 -0.00043474863556776356 0.0
0.0008433806532634508 -0.0006149817467599897 0.0
0.000752993996717951 -0.0005409555437815421 0.0
0.003927933071657649 -9.457805249519984e-5 0.0
0.00023251938158036156 -2.7335116352526028e-5 0.0
0.00023189486319710108 -1.4408937472838362e-5 0.0
0.0026453272381951293 -0.0007974822013753356 0.0
0.0026386387483890374 -0.000846242412255277 0.0
0.0021468381566881983 -0.0005418918017423127 0.0
0.0038842090381681136 2.4854973184673624e-5 0.0
0.0007614330568057431 -0.0005779503978143288 0.0
0.0031593889220885435 0.00019272148039053424 0.0
0.0036837937927396078 -0.0002988774207562931 0.0
0.0037043259575670704 0.00012375603791093723 0.0
0.003744879560444878 0.00010811841293254334 0.0
0.002949424360705418 -0.00042944939584498357 0.0
0.0031716871191085254 -0.0004464088582203074 0.0
0.003216455144778486 -0.0004473595427839093 0.0
0.002819169160244671 0.0001955464950479858 0.0
0.0029029427877890444 0.00019225971874819054 0.0
0.0030099087619698817 0.00019886310826759042 0.0
0.0024391349032301317 -0.0008860324647171659 0.0
0.0011880554377865296 -0.0007547236977460001 0.0
0.0018235202705095134 -0.000498075288763104 0.0
0.0026173891465515486 -0.0004172922699778971 0.0
0.0023096336843615854 -0.0005549280225555787 0.0
0.002351757222444276 -0.0008946459250196726 0.0
0.0010472063437019419 -0.0006782996953508978 0.0
0.0013405919219444075 -0.000617996634707164 0.0
0.000544526646458945 -0.0002154473549207058 0.0
0.0039369379749475105 2.8970731423187467e-5 0.0
0.0030497238850160815 -0.0005106772047876013 0.0
0.00036818802340473646 -0.00016569949273220164 0.0
0.000996123900572122 0.0002622313728851223 0.0
0.0023389012484003775 -0.0007161964062130972 0.0
0.003060054042494224 -0.0007315189842092914 0.0
0.0030224784517305365 -0.0007200078720930566 0.0
0.0026947550977540918 -0.0005715345433077705 0.0
0.0028200161898624954 -0.00034809971241517274 0.0
0.0012321724443129668 -0.00042428448480622525 0.0
0.0019238938046403106 -0.000748903281478016 0.0
0.0025895167963861853 -0.0003613196217576583 0.0
0.001335576639811111 -0.0005844250472958185 0.0
0.0012898487918169294 -0.0005894665029807733 0.0
0.0010536261005270702 -0.0007169351140088946 0.0
0.0006731904333630313 -6.28075849148249e-5 0.0
0.0006768686656837058 -3.436664238318904e-5 0.0
0.00031081381990169754 4.360164165207988e-5 0.0
0.00042590079251132013 6.651477394399756e-5 0.0
0.00335089557342048 -0.0005958598159852002 0.0
0.0004885463827639092 -0.00023251528624074495 0.0
0.0007155615290609277 -0.00033559797907194627 0.0
0.0006563052450602184 -0.0003021337785157043 0.0
0.003523651850123235 -0.0003861655714900506 0.0
0.0017688461974852312 -0.0006745173723053585 0.0
0.0022610896800250714 -0.0005072408767761654 0.0
0.0027218781120626925 0.00016231111950217345 0.0
0.0026984837725718214 0.00018873840557541134 0.0
0.0026176198889376655 0.00017256968079540594 0.0
0.002593884366085188 0.00019177323083844426 0.0
0.002667230660428488 0.00019868892393006817 0.0
0.0030079739652828946 -8.149052355935464e-6 0.0
0.003093929522554506 -2.0894738789058464e-5 0.0
0.003120535296226439 1.3888410233292018e-5 0.0
0.003199404185714637 -2.256110146010714e-7 0.0
0.003174198329908749 -3.4918455488353185e-5 0.0
0.00018494913630276184 -5.932199572101498e-5 0.0
0.0030660507866430626 -0.0004029375391702612 0.0
0.0004949145908536583 0.00012733539347286625 0.0
0.000517438020856698 0.00014729310821007586 0.0
0.002525122726307954 -0.0008741090763059141 0.0
0.00015002874397507186 -1.3107660770445321e-5 0.0
0.0033501581159369027 -0.0002465177178491515 0.0
0.0034269512658743396 -0.00021567192678117312 0.0
0.0033691329996469077 -0.0002129159924954074 0.0
0.003491608812490599 -0.00021309610689614379 0.0
0.0035056687848426995 -0.0001850018508241977 0.0
0.003571547728881972 -0.00018271396924730789 0.0
0.0009399256262693472 -0.00037446421791229045 0.0
0.0009388882545384119 -0.00034450218136171113 0.0
0.0008750260669324751 -0.0003126655105910077 0.0
0.000936785604938293 -0.00031501671647139414 0.0
0.001001107359505647 -0.00034568015300414387 0.0
0.0009997695680456088 -0.0003161173975887147 0.0
0.0010633691303134991 -0.0003455482986267327 0.0
0.0011532694784900106 -0.0007611453717342256 0.0
0.0010624523584562438 -0.0003153015758115434 0.0
0.0011259397988277603 -0.0003445889662322444 0.0
0.0003104034475145595 3.266722733336838e-6 0.0
0.0006713526421531918 -9.119660792557458e-5 0.0
0.001124230719037387 -0.00037376530461104404 0.0
0.0008779402861731566 -0.00028616084740196 0.0
0.0034103878414766175 -0.0003838885847581051 0.0
0.0033513203620183785 -0.00041866173385442164 0.0
0.001945154970587204 -0.0008671346448254425 0.0
0.0019431728303860067 -0.0009059695689471305 0.0
0.0025182261093740503 0.00017542442172850615 0.0
0.0013225261748794008 0.0001906844170545444 0.0
0.001425456943031263 0.00018669031540806793 0.0
0.0015042494171277011 0.00020538291554272667 0.0
0.0015235447966968766 0.00017686587285990966 0.0
0.0014454894409851407 0.00015504996470400858 0.0
0.0015423245707799848 0.00013717294572281543 0.0
0.0014654529414866249 0.00011792464008841127 0.0
0.001563146804365445 9.452041453150265e-5 0.0
0.0014847071446979136 8.03852739802085e-5 0.0
0.0015981082039146573 5.360981257870503e-5 0.0
0.0015017605499211273 4.502283538794285e-5 0.0
0.0015975020335947366 1.986964940585226e-5 0.0
0.0015135872762979071 1.2843057680217225e-5 0.0
0.0016065935595483305 -1.0813182052925486e-5 0.0
0.0015293862380652728 -1.8251521855369527e-5 0.0
0.0016178600525416 -3.99781821305495e-5 0.0
0.0015407941598795894 -4.653723649095846e-5 0.0
0.001624005420567946 -6.641417367158523e-5 0.0
0.0015502653764378896 -7.273721907011249e-5 0.0
0.001630224139878062 -9.120925398950186e-5 0.0
0.0015579701225223754 -9.790124354029219e-5 0.0
0.0016349765115194774 -0.00011557783855044556 0.0
0.0015626794646329423 -0.00012233331733496876 0.0
0.0016386455043862133 -0.00013881606655442283 0.0
0.0015669819673549417 -0.00014705251567240964 0.0
0.0014906985327192805 -0.00012865732778581424 0.0
0.0014956223890475369 -0.0001544702930844079 0.0
0.0016475970669487788 -0.000164619441469703 0.0
0.0014697491156287624 -5.283657274807003e-5 0.0
0.00170884305316566 -0.00012998686712574093 0.0
0.0017092831145821457 -8.557421025527856e-5 0.0
0.0013923004202065425 0.00010084645730895457 0.0
0.0016948612749983238 -3.2531931985090276e-5 0.0
0.001418051022445361 -0.00013498610995068606 0.0
0.0014244440427405173 -0.0001612962974598052 0.0
0.001500531209770384 -0.0001806765740248378 0.0
0.001430555349790887 -0.00018786265613788915 0.0
0.001437574405912111 4.8416522819053365e-6 0.0
0.0016904181095377167 2.1924937041204818e-5 0.0
0.0014127614711438065 -0.00010858723595704073 0.0
0.001644013257535226 0.00011089836147658809 0.0
0.001505523008314966 -0.0002068871297208196 0.0
0.0014359802643627263 -0.0002145578089079566 0.0
0.001361174673234198 -0.00019462328537113652 0.0
0.0013376967865703997 -0.00011498438121169042 0.0
0.0013289124656743728 -8.640615112615188e-5 0.0
0.001575467306458928 -0.00019859182852644737 0.0
0.0015780816595884857 -0.00022433898524823134 0.0
0.0016461597773908892 -0.00021584384772740286 0.0
0.0016043483522074006 0.0001940729535351529 0.0
0.0015913779562501834 0.00021261211756262076 0.0
0.0013691859754167567 -0.00022220747140376564 0.0
0.0012928430872444498 -0.0002013860913222963 0.0
0.0012864673682544138 -0.00017445064406800453 0.0
0.0012141792754566537 -0.00017986199908479907 0.0
0.0023048931080182754 -0.0009186303717823503 0.0
0.002264170726575629 -0.0008990044726717426 0.0
0.003856956344180651 -0.0002935984841276012 0.0
0.0024775960890529936 -0.0007237674738298884 0.0
0.002520406358959006 -0.0007369027344586359 0.0
0.0014255830146725332 -0.0006033631667236386 0.0
0.0014763495490281288 -0.0006287054244536357 0.0
0.0034341449097269254 0.00011134209730402148 0.0
0.002498299870775984 -0.0004286075313963006 0.0
0.0014428567028623963 -0.00024088827640798846 0.0
0.0010890168885985508 -0.000652646303012203 0.0
0.0010866148457161964 -0.0006172303132603909 0.0
0.0011267743350149625 -0.0006130382093493984 0.0
0.002759508312630752 -0.0003400773231182368 0.0
0.0025480896765375134 -0.00015147397359950435 0.0
0.0017116035707550015 -0.0004900786191013615 0.0
0.0016576122515687243 -0.0005003048870261065 0.0
0.0023617164077493627 1.4363443590850107e-5 0.0
0.002355240211286858 -1.1721092136750601e-5 0.0
0.002431512498307219 -1.7528487858434357e-5 0.0
0.0023418605338190158 -3.8824536539905576e-5 0.0
0.0023736384075307877 4.223017789622626e-5 0.0
0.002533570583748759 -0.00019813185557541668 0.0
0.0025295259437308265 -0.00022204467949404156 0.0
0.0024517168951495665 -0.00023660347207225387 0.0
0.0018308364403207414 -0.00035827684241036183 0.0
0.0018872613601784033 -0.00037371434954101796 0.0
0.0018903692877440836 -0.0003491853642776464 0.0
0.001945865299912808 -0.0003631924255546684 0.0
0.0019489137816122825 -0.0003391810913627531 0.0
0.0020042700428729893 -0.0003524482575049286 0.0
0.002007625582103087 -0.0003290443024671491 0.0
0.002065246376788047 -0.00034138182776168984 0.0
0.0020604250807465876 -0.0003659760224490114 0.0
0.002122581187242841 -0.00035083261549479476 0.0
0.0023858065526112197 -0.0004091419253310938 0.0
0.0023267335225737227 -0.0003961621530295505 0.0
0.002265911162883354 -0.0004108554254660037 0.0
0.00226927149188178 -0.00038402570529195106 0.0
0.0004224511224502767 -0.00017533133388915326 0.0
0.000502135716767702 -0.0004443390270379661 0.0
0.0004581672064280673 -0.0004022941706880869 0.0
0.00044501558739330104 -0.0003662412189651986 0.0
0.0004135085554827803 -0.0003588060351836815 0.0
0.0021499219903731623 -0.0005099901245682323 0.0
0.002879810361888351 -0.000354094184451757 0.0
0.0028667330303807654 -0.0003869633623858261 0.0
0.0010380977627208528 0.00021209166722712766 0.0
0.002261371124173332 -0.00020730285384745983 0.0
0.002263237057193199 -0.00018735221000050934 0.0
0.002351774314289206 0.00016849125010547525 0.0
0.003995539002634084 -0.0001231533612163667 0.0
0.004045142762217142 -9.245597196880256e-5 0.0
0.00407950843580092 -7.710846098427103e-5 0.0
0.0001369605087824711 -5.794964440641524e-5 0.0
0.00013994652262456575 -6.814110338937116e-5 0.0
0.00019972205463470656 -9.979484369426384e-5 0.0
0.00014717210860689804 -8.060470805842033e-5 0.0
0.00020312967147195372 -0.0001138905381213429 0.0
0.00015211343451986432 -9.278689280405798e-5 0.0
9.26681840816911e-5 -5.6046677008335004e-5 0.0
0.002092480583492775 -0.0005254387129009382 0.0
0.0010015240794244327 -0.0002876838012027684 0.0
0.0005799942831235551 -0.0004897675290211355 0.0
0.0016461731635927935 -0.00023952973067216133 0.0
0.003812490476524732 -0.00033663803336978084 0.0
0.0037761528001832778 -0.0003520100431125888 0.0
0.0032340758307118594 -0.0004135139567733825 0.0
0.003292934427891157 -0.000407728165844532 0.0
0.0033040111447620443 -0.0003737990539660445 0.0
0.00019982724204179638 2.401640994794911e-5 0.0
0.0015005870815625283 -0.0008541897496706115 0.0
0.0010184105914082182 -0.0007221767893579149 0.0
0.00012388112100647806 -0.00012851693883253086 0.0
0.00017059367218564872 -0.0001811984323655196 0.0
0.0008142055208296999 -0.0002836007526559851 0.0
0.0025738431665802745 0.0001924061700386698 0.0
0.0026571325959385966 0.0001926926202778849 0.0
0.0031208883087136393 -0.0004466128803657948 0.0
0.003257913339628698 -0.0004492653294131271 0.0
0.0014116001169572128 -0.0008335716934934883 0.0
0.0015842575398078635 -0.0008703586480368887 0.0
0.001626335233421059 -0.000860233595612347 0.0
0.0035670935967936843 -0.0004328233561913494 0.0
0.003545726659776245 -0.0004784422746004114 0.0
0.0034913653609482983 -0.0005268284785532924 0.0
0.0038214773411291915 -0.00013689339334541163 0.0
0.0037649848656164963 -0.00014582995753487592 0.0
0.0036939129082734054 -0.00017514955156444945 0.0
0.0037015690453805197 -0.0001534860560978444 0.0
0.0006930814626647842 -0.0002782724162299451 0.0
0.0035829635461846468 -0.00015671241097729637 0.0
0.0035062293621631897 -0.00015830781795104075 0.0
0.002531760154056968 -0.0007007196984219042 0.0
0.000424139533287132 -0.0003909944341320981 0.0
0.0003850107598431757 -0.000354098052418955 0.0
0.0003710303886027775 -0.00032073699409085945 0.0
0.00034334267830167715 -0.00031368175153743044 0.0
0.004090500904199665 -6.508964093510798e-5 0.0
0.004002968541998651 -7.185998543198092e-5 0.0
0.004052735171726182 -5.0118783444122914e-5 0.0
0.0033828792546505785 -0.0006027224720387682 0.0
0.0017131485201862088 -0.0003758367457698754 0.0
0.003596747064956066 -0.00043801397914170414 0.0
0.0035780302309362396 -0.00048162881885406225 0.0
0.0036254338268682765 -0.0004424361045252594 0.0
0.003611138643745863 -0.00048739727473301567 0.0
0.0036594164460996953 -0.00044088003918077754 0.0
0.003674281650742829 -0.00040132100000472403 0.0
0.003703247355409643 -0.00040289955352378087 0.0
0.001989371642303819 -0.0009279762367175896 0.0
0.0019478907530517872 -0.0009481469166980176 0.0
0.001893919631795694 -0.0009217254134959476 0.0
0.0013777762988271274 -0.00025038926383819755 0.0
0.0001070861559136988 -7.171884590239166e-5 0.0
0.0001564604679573078 -0.00010558364854086861 0.0
0.00011214909981813085 -8.209063247871949e-5 0.0
0.001377601377054983 -0.0008500691305227504 0.0
0.0013305909474909808 -0.0008151994405173324 0.0
0.003953386290883634 -0.00022598584330410344 0.0
0.00032330816430268025 5.7726931418391697e-5 0.0
0.0022106129377443768 -0.00040105070261471784 0.0
0.0022161617022488965 -0.0003733192049079555 0.0
0.003805378182103445 1.723069239897549e-5 0.0
0.003923407895228835 8.86374018543195e-6 0.0
0.0035810934091652187 -0.00034926379873598593 0.0
0.0007214291799820974 -0.0005405378270275547 0.0
0.0007348327485368103 -0.0005814875427767416 0.0
0.0030440327500531536 -0.00046666728080287264 0.0
0.0030636363818997664 0.00018000760570977635 0.0
0.00402823711686422 -0.00016283599530475255 0.0
0.004078277086453083 -0.00011368074610259208 0.0
0.004097054858226385 -8.851747031403755e-5 0.0
0.0029803951204207075 0.0001889025618055529 0.0
0.0034721672944462794 -0.00034993861338754323 0.0
0.0019022381442414017 -0.0008151397089982252 0.0
0.00355609811865452 -0.00021010255662521162 0.0
0.0033596532073877717 -0.0003904080183017248 0.0
0.0012884844879295573 -0.0005542123143433251 0.0
0.0007415642958448417 -0.0005042345056318153 0.0
0.003882993097923204 -0.0001227739311654372 0.0
0.003232633722979091 0.00018963341108101968 0.0
0.001330703310236633 -0.0008522785313116831 0.0
0.0006149149393915779 -0.00025071400624314204 0.0
0.002248516432726954 -0.00023147189716162824 0.0
0.0033164969935489067 -0.000593759874174922 0.0
0.0033042624583945403 -0.0006368170382445956 0.0
8.304697868327447e-5 -8.582958965630597e-5 0.0
0.0025699909060960136 -0.000850389806118697 0.0
0.0025531197384898656 -0.0008889987108548024 0.0
0.0016249096238605159 -0.0009043396889376341 0.0
0.0016693436138981205 -0.0008890033206392895 0.0
0.0016678683476401678 -0.0008489836092572865 0.0
0.0017116238365955222 -0.0008758838038570107 0.0
0.001669735488162439 -0.0009226068287136732 0.0
0.0014076245612643023 -8.213066381842432e-5 0.0
0.0013230368478866395 -6.0010010237255836e-5 0.0
0.0005778410925832098 -9.203818182330404e-5 0.0
0.0011288052126241523 0.00025829010717888084 0.0
0.001136712079063184 0.0002386303705662552 0.0
0.002538213028091738 0.00014173952387002288 0.0
0.003227415186519112 -0.0006792380557849852 0.0
0.003181740011254177 -0.0007153145960629186 0.0
0.0003531351801630464 -0.0003463717748962385 0.0
0.0003129527611617022 -0.0003029268885958316 0.0
0.004072277003749514 -5.014204250071998e-5 0.0
0.0006731995346886647 -0.00033348498542015796 0.0
0.0006066518666965643 -0.00030353597075067306 0.0
0.003787859544149323 0.00015425835752694961 0.0
0.003905946834141852 -0.00024753680710903604 0.0
0.003884507823076154 -0.00028926651423061284 0.0
0.002317341629093875 -0.00023991025995708475 0.0
0.002671566472403576 -0.0008612551439964654 0.0
0.0026167844755056774 -0.0008989275510040628 0.0
0.0011818973891856636 -0.00037040251033556345 0.0
0.0011874884528458554 -0.0003413521507288823 0.0
0.0017124152149169366 -0.0008367040211742126 0.0
0.0036041102710715244 -0.00038324974329743576 0.0
0.0020681932104105716 -0.0003177224698616948 0.0
0.0020153791706564853 -0.0003055520131770982 0.0
0.00010199899619313097 -0.00011190322354343919 0.0
0.0010616357302309118 0.0003969184607397933 0.0
0.0018911124079940228 -0.0003241129645366052 0.0
0.001255963689092581 -9.418283222580974e-5 0.0
0.001267849083737819 -0.00012186570038771381 0.0
0.0007647896735814542 -8.728953355163476e-5 0.0
0.002605871798020438 -0.0002053107872802847 0.0
0.0017110499363387618 -0.0002314066603821807 0.0
0.0017128285727549162 -0.00020863248668859805 0.0
0.001776055877666113 -0.00022391121579980866 0.0
0.0017765173166228742 -0.00020255595137800406 0.0
0.0018370544433674017 -0.0002150605039797039 0.0
0.0018384583644610148 -0.00019511357598962117 0.0
0.0017763985289656115 -0.00018207567904668473 0.0
0.001838961546554393 -0.0001749389756564799 0.0
0.001776980261174629 -0.0001623535184387606 0.0
0.0018405187026023853 -0.00015557091855330704 0.0
0.001895150076201123 -0.00020710634480945283 0.0
0.00016150487432562227 -5.293704991674219e-6 0.0
0.0025197065958325678 -0.000249636708239279 0.0
0.0017256564161871272 -0.0003510017832241113 0.0
0.0016218218911199752 0.00015628397396641344 0.0
0.0017412906797283896 0.00012046227277404544 0.0
0.0017493516430417654 7.874889898187767e-5 0.0
0.001707497062508613 0.00017219373207008607 0.0
0.0016696022025664105 7.051090498341694e-5 0.0
0.0017713692322162949 4.595804374987341e-5 0.0
0.0018658406083432687 4.7185813103082595e-5 0.0
0.0018100021103847612 0.0001467225317949061 0.0
0.0002568070901186571 -0.00013316012730991834 0.0
0.00026364157329456065 -0.00015141169169071765 0.0
0.004067353779889883 2.123801571676427e-5 0.0
0.003938293202582201 4.7590160894518584e-5 0.0
0.003930760200012584 5.7807087718471454e-5 0.0
0.003100817444925493 -0.000746169735497277 0.0
0.003044562463626625 -0.0007810252079559047 0.0
0.0010803851458234589 -0.0005825235952181097 0.0
0.0011220164575809221 -0.0005775250675845704 0.0
0.0010381554011340425 -0.0005853929269965733 0.0
0.0011844651723369292 -0.00010584865280734618 0.0
0.001835168832442729 8.238652595636014e-5 0.0
0.001904859050434056 -0.00016728305232850593 0.0
0.0019020627359470263 -0.00014770279376157883 0.0
0.0018408953169499647 -0.00013640536722079019 0.0
0.0019009306376041996 -0.00013000320924631988 0.0
0.0018442068315367305 -0.00011827461676433135 0.0
0.0011113375820230044 -0.0007319280308396238 0.0
0.00405678550363642 3.4540260189330725e-5 0.0
0.0017008114645241535 0.00020308297029080004 0.0
0.0024361084890266627 0.00014288515078320885 0.0
0.002444674216730745 0.0001049829881184522 0.0
0.0023446530844611546 9.711111528315982e-5 0.0
0.0012064858107797723 0.0001904847960308612 0.0
0.0014656221192296673 0.00021197736918959886 0.0
0.0013859186329168028 0.00022448367450235264 0.0
0.0013300914723139525 0.00023175990172703815 0.0
0.002728616230516105 0.00014725142604336656 0.0
0.0034364653847717974 -0.0005636754087921807 0.0
0.0034141322940185025 -0.0006147877831298625 0.0
0.001057898674685696 -0.0007547557631894907 0.0
0.001755646912717663 -0.0008635348069825497 0.0
0.0017561932678942201 -0.000901794086308029 0.0
0.0017977282469202607 -0.0008894114183697362 0.0
0.0018038341730318057 -0.0009324064987083697 0.0
0.002963686299925646 0.00014619984900673738 0.0
0.002877649889425214 0.00012641087029637571 0.0
0.002989851802628329 0.00011922669792214452 0.0
0.0030799304461052272 0.00013472814760543702 0.0
0.0022777784558669746 -0.00035889622999042405 0.0
0.0022304958577847437 -0.0003465988499285765 0.0
0.001842093696687374 -0.0009132285505391061 0.0
0.001232318037823246 -0.00021058458151551292 0.0
6.662753626241354e-5 -6.476625233984513e-5 0.0
0.0016888888855220495 -3.335379158122068e-6 0.0
0.001773820463291318 -2.568312483705634e-5 0.0
0.001779657520737888 -5.0362405391570244e-5 0.0
0.0018574971415665613 -4.3969004336627546e-5 0.0
0.0018573265751137924 -6.440942367544291e-5 0.0
0.0018527131408890179 -2.2617881842736292e-5 0.0
0.0017924216031302 -7.122894471874001e-5 0.0
0.001858931092872156 -8.340961857274007e-5 0.0
0.0019305874348491225 -3.7708177099576905e-5 0.0
0.0027677004768770367 0.00013200669778781242 0.0
0.0018001589648739698 -9.142479220369927e-5 0.0
0.004114869423514579 -3.351315697143948e-6 0.0
0.001578943256627521 -0.00024947005080504974 0.0
0.001971719002187677 -0.0007666184186917965 0.0
0.0020246835275752753 -0.0007512699621123935 0.0
0.001773897722320934 -1.195713928641098e-6 0.0
0.0018593310060277667 -7.430901860833465e-7 0.0
0.002396728020216836 -0.00038275233095924236 0.0
0.0030335599281292903 -0.0006742123760813507 0.0
0.0029818093112976883 -0.0007130853039664863 0.0
0.0029716364922848177 -0.0007576593676627849 0.0
0.002933973465092818 -0.0007506633899555213 0.0
0.0029266801377520572 -0.0007918159551087563 0.0
0.002886440717911466 -0.0007876216476313744 0.0
0.0034519161068235567 -3.88780039222454e-5 0.0
0.003379871615399992 -7.060077130157122e-5 0.0
0.0034142578329030174 -9.548986137332235e-5 0.0
0.003309314250093379 -0.00010382913434112839 0.0
0.003340659502557867 -0.00012855861215082487 0.0
0.0032368746201929094 -0.00013831034523542542 0.0
0.0032701991730980204 -0.0001629215050130266 0.0
0.0032034746318890927 -0.00011276135816787279 0.0
0.0031339015725736063 -0.00014725085402194428 0.0
0.0033682547407308775 -0.00015231677948885595 0.0
0.0030989881101970815 -0.0001222272910024013 0.0
0.003297414080020817 -0.00018663556500604338 0.0
0.00320520147954897 -0.00019709836796243455 0.0
0.003228346744359119 -0.00022095002936290783 0.0
0.0031697988138476587 -8.85576344087557e-5 0.0
0.0033411984101904798 -4.406887089028311e-5 0.0
0.0033939292292942667 -0.0001767129880516617 0.0
0.0035256470128799374 -9.138071402662228e-5 0.0
0.0034579463479679465 -0.00014292551058245646 0.0
0.002270452517336058 -6.569754452779527e-6 0.0
0.0014461068237764318 0.00022239265841307343 0.0
0.00021573891767712972 -0.00013476810149995022 0.0
0.00019952865548331637 -0.00019908218125604457 0.0
0.00024170963116430805 -0.00024407775823923387 0.0
0.0018402523490496788 -0.000875719558162486 0.0
0.0024619205323219086 -0.0003979054209721519 0.0
0.0023528240599527085 -7.9853843435269e-5 0.0
0.0022730731755134536 -9.467412446284125e-5 0.0
0.002286683001537923 -7.47978320462563e-5 0.0
0.0022753120965364913 -0.00011534427489816262 0.0
0.0023429876449237645 -0.00012403467911388015 0.0
0.0022696450020301033 -0.00013642720847239156 0.0
0.0022625104145073444 -0.00015629007855948808 0.0
0.002206096140557089 -0.0001467479845839023 0.0
0.00026358814649177735 -0.0002349910655071703 0.0
0.0026290007952039563 -9.171423513025458e-6 0.0
0.0031966936853525018 6.136315899393083e-5 0.0
0.0030670174837178488 6.595713735909932e-5 0.0
0.00016161293147243399 3.6391433508932545e-5 0.0
0.00033597284037168606 8.161765845289783e-5 0.0
0.00031604081663782075 6.80986898952176e-5 0.0
0.002680621403243538 -8.416606465568805e-5 0.0
0.0003429189863845984 -0.00027513763714478203 0.0
0.0003986956915683199 -0.00032325539508136356 0.0
0.0004338647586825398 -0.00033446707627399734 0.0
0.0004299479036419976 -0.00030649468783825357 0.0
0.0004671152113688605 -0.0003091693250178007 0.0
0.0017075598763020376 -0.00010866309447569571 0.0
0.00019815800463937003 1.4771457417185409e-5 0.0
0.0008223067102028964 -0.00023256741465687352 0.0
0.0006733356893607585 -0.00022396307274681363 0.0
0.0018539106288326373 2.2768381621545396e-5 0.0
0.00044210883503553744 0.00017969563486472978 0.0
0.0029228517568342456 -0.0007000807206982265 0.0
0.002529563221286831 -3.547060220676385e-5 0.0
0.003981531919048397 -0.00021221876525824855 0.0
0.003172265155637072 -0.00017202290230629438 0.0
0.0030708441116315175 -0.00018083727993698027 0.0
0.003008134604916534 -0.0007692904983681031 0.0
0.004123102386317468 -8.459864004129675e-6 0.0
0.004046460960161654 -2.1620408008896295e-5 0.0
0.004062665575753836 -2.8254276840705458e-5 0.0
0.004032827339548608 -1.2825047629132321e-5 0.0
0.003973080548779756 -3.9826887099968984e-5 0.0
0.004022222212609268 -3.2609807537021367e-6 0.0
0.003930948902986529 -1.3378470162706261e-5 0.0
0.003950000930649987 -2.7492996789881373e-5 0.0
4.516050155344602e-5 -2.6231801378925953e-5 0.0
0.00415315423348161 -2.3069970245213777e-5 0.0
0.0041004700519659786 -4.456589479026291e-5 0.0
0.004132240603161052 -2.4582063283819773e-5 0.0
0.004105327553740053 -4.767896750318544e-5 0.0
0.002474317203415333 7.28799886673278e-5 0.0
0.003149871902205654 -0.0007030906569054884 0.0
3.46818908225678e-5 -2.8106228154369504e-5 0.0
0.004163613776403815 -2.4917349841753825e-5 0.0
0.0013447826881513604 0.000164404033999142 0.0
0.003365804069000916 1.9342390949854665e-5 0.0
0.0011437186072196753 6.545171224590736e-6 0.0
0.001234469850196923 1.7924321969830977e-5 0.0
0.001229805426630724 5.360437657025271e-5 0.0
0.0012363430491125695 -1.390259164747693e-5 0.0
0.0013146239350630758 -6.9897928822923845e-6 0.0
0.0013329876583145217 2.4189269315990775e-5 0.0
0.0013224314795911571 6.162126916619107e-5 0.0
0.0012313509188955653 8.724183191976558e-5 0.0
0.0011510204371398055 0.00011627724771292547 0.0
0.0011574784871817084 -3.180564957715738e-5 0.0
0.003534261203223777 -0.0005199554235959492 0.0
0.00411189856209355 7.495514411824125e-6 0.0
0.0017157841388756902 -0.0007978172169400524 0.0
0.0005522166564154721 -0.0004932458736260566 0.0
0.0018908615459405779 -0.000778895695456591 0.0
0.0014528363608804847 -0.000824568784797148 0.0
0.001455005931749966 -0.0008638328153612855 0.0
0.001965093736508042 -0.00014011664918243174 0.0
0.0026851563059908197 -0.000144726628299967 0.0
0.0036277895266331713 0.00012362890599975387 0.0
0.0036775858356964492 0.00010235189657620469 0.0
0.00356581255158269 0.00010740681837368373 0.0
0.00025848185690315886 -0.0001193113590705494 0.0
0.0005142975325936163 -0.0004801058222006112 0.0
0.0012802013405200485 0.00029088883674874467 0.0
0.0011486811234896104 0.00029423261754701674 0.0
0.002998170018443337 0.0001592203158229474 0.0
0.001494372226248061 0.00021986315588874104 0.0
0.0038040363702177816 -0.00027416669927588606 0.0
0.0018744034988076059 -0.0006495096377495787 0.0
0.0028724312421329248 0.00013961878013462082 0.0
0.002963862154229529 0.00016910216275727488 0.0
0.0012521704991783256 0.00013932139348534167 0.0
0.0010242752460765934 -0.0007627218424501077 0.0
0.0037798103961205406 -0.0003186537283956792 0.0
0.0006127517397178642 -0.0004929506072797729 0.0
0.0006504670968848243 -0.000527098386946118 0.0
0.0006295439631327912 -0.0005376380903665918 0.0
0.0009817722559759094 -0.00022980727981661677 0.0
0.002321802741714512 -0.00017060431675404764 0.0
0.002606084684192553 -0.00010948558687048289 0.0
0.0015724494466269382 -0.00017237412885112436 0.0
0.0016450400268220487 -0.0001914621360419985 0.0
0.004026890531078687 5.1818752822877026e-5 0.0
0.003826981868065587 0.00010869552947797781 0.0
0.00017643708128926432 5.326666760393509e-5 0.0
4.454535053910359e-5 -2.8919790256969545e-5 0.0
0.0018990274634235055 -0.00018702881860783107 0.0
6.207757117106802e-5 -1.663758403056047e-5 0.0
0.00015080566633929378 -3.368278408818138e-5 0.0
0.0018686829266992698 -0.0007485735734117648 0.0
0.00265282203260021 0.00014965431869814393 0.0
0.0015267544704629578 0.00020792235659754078 0.0
0.0025815294484444187 -0.0003871455458256488 0.0
0.0019112596615015866 -0.00011219367791097795 0.0
0.00337200012692737 -0.00033491985405009473 0.0
0.0039321318386024255 -0.00020758692299584718 0.0
0.001239341042033463 -0.0005600314351799098 0.0
0.0012439907917724629 -0.0005953213273366968 0.0
0.0011931671546282355 -0.0005615698332308785 0.0
0.0011406695697550617 -0.000528282629971337 0.0
3.5428992039073895e-5 -3.132494723219515e-5 0.0
6.71120812402972e-5 -5.996542349484941e-5 0.0
7.549871946666324e-5 -6.146763305084753e-5 0.0
0.0010656247411208331 -0.0003749745899503553 0.0
0.0010075016622328723 -0.00037923187878032824 0.0
0.004156577368536597 -2.3963664143067758e-5 0.0
0.0022599911966977495 -0.0009423074786263565 0.0
0.0022187375512357278 -0.0009211588303931594 0.0
0.0022150479709742597 -0.0009640118351078721 0.0
0.0021735082717930523 -0.0009421291576089444 0.0
0.0021274572662735103 -0.000960802264100615 0.0
0.0021260124451985816 -0.000918762769846675 0.0
0.0022211359761506655 -0.0008787403540951095 0.0
0.0028792798910008796 0.00016868515950861082 0.0
0.0004874798921638665 -6.731958494887518e-5 0.0
0.000567328414292062 -0.0001171559191758339 0.0
0.0004924056257963071 -0.00011750970202639416 0.0
0.0026490448478304826 -0.00037033752445920283 0.0
0.0008244769814949443 0.00024623492840900426 0.0
0.0021125266502723004 -0.00037772450390560297 0.0
6.175857965413078e-5 -2.6324703943121842e-5 0.0
0.00129076136464684 -0.0008189867165205562 0.0
0.0012479057567816685 -0.0008174123285741574 0.0
0.001256643678922476 -0.0007853735856905302 0.0
0.0014491157351840735 -0.0007854377469060314 0.0
0.001240533383146706 -0.0005207579435569708 0.0
0.0005454324272848669 -0.00024065886545347778 0.0
0.00031529954018293485 -0.00018762180970254886 0.0
0.004135348523495577 -1.5725359593137737e-5 0.0
0.004079391255978242 -3.194778044206974e-5 0.0
0.0008063754428652502 -0.0006161806876851629 0.0
0.0009737505866553174 -0.0006854724595683952 0.0
0.000935874200803238 -0.0006897133071805523 0.0
0.0008897503356235758 -0.0006522397372532452 0.0
0.0008959525903578898 -0.0006906923522479519 0.0
0.002494794293984224 0.00016018455890390003 0.0
0.0016646176245390942 0.00020124106178816845 0.0
0.002721228627077204 -0.0008301279661613608 0.0
0.0027578456800593744 -0.0008447972945608399 0.0
0.002804885435536903 -0.0008133566295179486 0.0
0.002703811486192199 -0.0008826106337758269 0.0
0.0013412528599612969 -0.0005550824916180978 0.0
0.0023933739524482954 -0.0006949878851833705 0.0
0.001523208183164391 0.00021714479823649067 0.0
0.0017007388822390202 -6.144048396043791e-5 0.0
0.0041650340595145935 -2.6385335513202547e-5 0.0
0.004132081813149972 -5.2430180669908495e-5 0.0
0.0041180189569673 -5.7146077766834264e-5 0.0
0.0008516740264538664 -0.0006538426460192963 0.0
0.0008152670225266144 -0.0006533987148873899 0.0
0.001232823483264514 -6.142915287270273e-5 0.0
0.0010939164953962172 -0.0005354655914991922 0.0
0.003905014052450577 -0.00017018597880185307 0.0
0.003178714635650028 0.00020411892191265598 0.0
0.00188865300830831 -0.00022713446196896944 0.0
0.0019456495058380056 -0.00021741486585505945 0.0
0.0025012468923399245 0.00018791221752650534 0.0
0.0031028669725744968 -0.0005952090432303662 0.0
0.0018220084512786873 -0.0006622044896157336 0.0
0.0018240894567753733 -0.0006984330917801728 0.0
0.0004493984378645093 8.717980526536355e-5 0.0
0.0010005277892001807 -0.0005409484722322514 0.0
0.0009533372860066053 -0.00053823633487688 0.0
0.0009019269884285692 -0.0005034173304317022 0.0
0.0009075508990828463 -0.0005388803875605 0.0
0.0007678247579625421 -5.745272683231281e-5 0.0
0.0007712411590740334 -2.715990549516412e-5 0.0
0.0008611522097176222 -0.00011623577572997354 0.0
0.002743898634025995 -0.0008931035792640584 0.0
0.002661619270235595 -0.0006815851505919666 0.0
0.0026033259795944907 -0.0007105882182562781 0.0
0.002653944026118578 -0.0007256781761839635 0.0
0.002595707677317313 -0.000755921727115246 0.0
0.002630615272761759 -0.0007675854173502551 0.0
0.0027091281470527375 -0.0006898107829552045 0.0
0.0027541785141120987 -0.0006949783413497323 0.0
2.9907014763799883e-5 -3.106546875279498e-5 0.0
0.0041704888886688225 -2.714635487326239e-5 0.0
0.003460926554717189 -0.0005146608585733311 0.0
0.002476531178633355 -0.0009009989193666808 0.0
0.003870407811390417 8.914387478512765e-5 0.0
0.0024000056868512146 -0.0008691098339845675 0.0
0.002389573372904092 -0.0009114872979304683 0.0
0.003158326090763025 -0.00040696430613813486 0.0
0.002824684471950143 -0.0003176617978873426 0.0
0.0027665748956538687 -0.00030962657822352404 0.0
0.0013139005189401285 -0.0007358324645316487 0.0
0.0007638813060820943 -0.0004662528688981573 0.0
0.0031335083430654677 -0.00023392834144307008 0.0
0.003323812006936396 -0.000550631578729665 0.0
0.0014534653199273133 -0.0004312178546381737 0.0
0.0015076969088813257 -0.0004238225450481375 0.0
0.001505636098368364 -0.0004547208226476278 0.0
0.0015111118925459199 -0.0003941020923198575 0.0
0.0014517885951247926 -0.0004625753802216731 0.0
0.0015605795793273481 -0.00041942254635062145 0.0
0.0015673452236172395 -0.00039183091888016604 0.0
0.0015811900212848212 -0.00036161920088784253 0.0
0.0031333314466821956 0.0001940925623084799 0.0
0.0003313861293056598 9.055958077493232e-5 0.0
0.003032216609383079 -0.00015648834647488324 0.0
0.0033055421347730467 -0.0003445113564314992 0.0
0.0006027697882008779 0.00019709021182900456 0.0
0.0005898738801686441 -1.1958587328358904e-5 0.0
0.0008614723637357525 -5.186431352412175e-5 0.0
0.0006679462976471141 -0.0004272669953491261 0.0
0.0014525386783671775 -0.0003712694816365457 0.0
0.001126249812637656 -0.0003135769452554246 0.0
0.0012047196960965397 -0.00031233037641641495 0.0
0.0012547792649622049 -0.0003428475157369703 0.0
0.0020322438980302487 -0.0009127878954250572 0.0
0.002080283473889945 -0.0009365135355884403 0.0
0.0020790618327768753 -0.0009825890461716013 0.0
0.002127280319641911 -0.0008773723815926108 0.0
0.0032655109814822246 -0.0005843467140638732 0.0
0.001508600119721184 -0.00023247132719704305 0.0
0.0030660020844818967 -0.0003669455428227647 0.0
0.001445374968271892 -0.0007470270027146258 0.0
0.002223351756842728 -0.0008374474462646505 0.0
0.0015373577792656093 -0.0008848308231633414 0.0
0.003854438366917347 -2.9285731754612264e-6 0.0
0.0020571623325465844 -0.0003916502223884338 0.0
0.0004840046888205959 -0.00020708775959684542 0.0
0.0015635488063251305 -0.0006106450148910991 0.0
0.001615064995725921 -0.0006364492538320044 0.0
0.001457602624552434 -0.0005593154785600698 0.0
0.0015808345885786443 -0.0007934031631451661 0.0
0.002482061194227834 -0.000525641205160392 0.0
0.002420746925479758 -0.0005467323524807443 0.0
0.002475566641550231 -0.000560354676495788 0.0
0.0029968535184515107 -0.00013205897509204116 0.0
0.0018739394847623221 -0.0006147284844080997 0.0
0.0013488778502826068 -0.0005076325298627286 0.0
0.0023877861945135726 -0.00022659594973135103 0.0
0.0023761324334763277 -0.0002506780781727946 0.0
0.0005219444532843908 -0.0003453761925954533 0.0
0.0011053547561983143 -0.0006946959970482371 0.0
0.002819474984033563 -0.0007655100623382074 0.0
0.002356074889709411 -5.951265602143697e-5 0.0
0.0021890827697736634 -0.0006638214251539636 0.0
0.002134079013806975 -0.000681619134992982 0.0
0.0021315874046126896 -0.0007197580578871004 0.0
0.0020795703316364047 -0.0006983666516399319 0.0
0.0020784260783531083 -0.0007367691030903199 0.0
0.0021824755783321575 -0.0007394731665838725 0.0
0.0025424099673004978 -1.5415749487565346e-6 0.0
0.00171388210603033 -0.0005206236334196705 0.0
0.0016625700354903578 -0.0005306745036926594 0.0
0.002370619398497644 -0.000499358700098529 0.0
0.0014042741532925564 -0.0005653313786742869 0.0
0.00234440357326931 -0.0009362460471274645 0.0
0.0017685536727737225 -0.0006391245803569397 0.0
0.0020822371748214427 -0.0006615318108656373 0.0
0.0029610556364359207 -0.0008027595253001372 0.0
0.001885398703498739 -0.0004002676991654337 0.0
0.0039587022224241795 -9.654547251047299e-5 0.0
0.002090031680002167 -0.0005578556564728468 0.0
0.0009369353288184151 -0.0004046604819220058 0.0
0.0018051173215514775 0.00019302282179165908 0.0
0.002945760694863874 -0.000655259080503378 0.0
0.0037877299090556833 9.019542597777633e-5 0.0
0.0006137182629298033 4.2201468387925604e-5 0.0
0.000635947860012559 6.787621481420218e-5 0.0
0.0007062973209203272 2.9811266614203723e-5 0.0
0.000745992922442493 6.066461536743776e-5 0.0
0.0008163268032037454 4.0452002666796036e-5 0.0
0.0029711033963539637 -0.00018984057754035312 0.0
0.0017148727199000175 -0.0009192278498917624 0.0
0.0019431675773400735 -0.0003893348039464991 0.0
0.00012167993134169961 -3.624131629096996e-5 0.0
0.001356801726825966 0.00023118431601582804 0.0
0.0012605667848443953 0.00024540671892200796 0.0
0.00280450737963946 0.00010414561395453599 0.0
0.0016695244168481445 -0.0007713931835064023 0.0
0.00190406842757168 -0.0008843623945929516 0.0
0.0016512563093677851 -0.0002654845995587952 0.0
0.0023149832648590453 -0.00048578049054142844 0.0
0.0022544570715697858 -0.0004701855371056224 0.0
0.002263514689059108 -0.0004381613297008072 0.0
0.002370758419388581 6.928222089296488e-5 0.0
0.0015697482485334984 -0.0006462965626458933 0.0
0.0010628531588284908 -0.00028575704333249 0.0
0.0016049746725854655 -0.00047463470079102654 0.0
0.00020717867492143919 -0.00014225183206888233 0.0
0.002197698127897916 -0.00021756637393912536 0.0
0.0008810367300749976 -0.00061328020144318 0.0
0.0022075403148781522 -0.0004932785632206823 0.0
0.0013224654169786741 -0.0007749880288925161 0.0
0.00294924532140048 -0.0003267024818798886 0.0
0.001989745677611439 -0.0004914619449148712 0.0
0.0020263554389635054 -0.0007141146733867417 0.0
0.003694185493072609 -0.0002693486225029442 0.0
0.0007742759905578657 -0.0006161119504776793 0.0
0.004012499381970413 -0.00019692584463956253 0.0
0.0016531673169302102 -0.0003731483342528607 0.0
0.001983767840552842 -0.0005545846917973992 0.0
0.00035823553632566366 -0.00014384454091752888 0.0
0.003686904001159742 -0.0001978022554717151 0.0
0.002330835724968249 -0.0007548147279305775 0.0
0.00012083489793263222 -4.392440967263969e-5 0.0
0.0021281159974465575 -0.0003052064719376896 0.0
0.0021259361663384293 -0.0003264945536906127 0.0
0.0039323685784223026 -5.8795984973543715e-5 0.0
0.0023025191561625107 -0.0009609025525595252 0.0
0.0007211304576579827 -0.0004646089378383479 0.0
0.004060730134769357 -9.602942371991363e-5 0.0
0.002205639763594935 -0.000425713904449721 0.0
0.002045988292926528 -0.00047839326383138477 0.0
0.0025654633860923842 -0.0006615530967875504 0.0
0.0025119750013788147 -0.0006486665560383641 0.0
0.0023466389027400007 -0.0006781518627707348 0.0
0.0019405595716822071 -0.0004168641461974061 0.0
0.002395445672629667 -0.0009786444358711125 0.0
0.002578025223011557 -0.0009510155023068642 0.0
0.0018322491834229446 -0.00097352985668803 0.0
0.00197468728945057 -0.0009872773795949453 0.0
0.0028513247384960552 -0.0008751525414128388 0.0
0.002838814513254556 -0.0008322765252295292 0.0
0.0014598332204806227 -0.0009011924162451494 0.0
0.0011472917488068463 -0.0008145391488733769 0.0
0.0024857716670852394 -0.0009672245092316912 0.0
0.0015570052051142493 -0.0009276993924512613 0.0
0.0017534911634094926 -0.00032796706889605696 0.0
0.0036033077665715224 -0.00012846811853996557 0.0
0.0029717378488154987 -0.0005000001689632971 0.0
0.002952152309571416 -0.0005359045815815812 0.0
0.001505355721213001 -0.0004881381616226957 0.0
0.0025565843652521412 -0.0004404895160363473 0.0
0.0020312766012932698 -0.0007880556264840303 0.0
0.0010429744677780566 -0.0006414022488121106 0.0
0.0007790324487151655 -0.00036979637066727566 0.0
0.0017682099589258291 -0.0004791227658483245 0.0
0.0036802406984953098 2.744678161030706e-5 0.0
0.0014158336663564865 3.761170221522831e-5 0.0
0.002001552382879588 -0.00037780702074734766 0.0
0.0023667019800678772 -0.0005344580985278815 0.0
0.00027304437284956303 -0.00026242935381927103 0.0
0.0002831152590392357 -0.000291080211471862 0.0
0.0017679711413387967 -0.0007107356798932654 0.0
0.001482403580816272 -0.000665611881191911 0.0
0.0021442106773828153 -0.0005750608776849232 0.0
0.003901787221912172 7.188632558085936e-5 0.0
0.0022682126539146216 -0.0008568395426529686 0.0
0.004126653333066895 -6.841041084009162e-5 0.0
0.004101400341979708 -0.00010038544531739562 0.0
0.001152372834500987 -0.00018891890306198337 0.0
0.0018230161998984036 -0.0005288395277011905 0.0
0.0019261522689489395 -0.0006358255738069866 0.0
0.0040061177337794825 1.399178260521992e-5 0.0
0.0019531884985834044 5.433478747808663e-5 0.0
0.002808280237300809 -0.0006679243695298796 0.0
0.002893620427346493 -0.0005648698860358696 0.0
0.001126550070145056 -0.0007733494823498571 0.0
0.002655056105454575 -0.0005265256186127011 0.0
0.0018240385135382595 -0.00046806726413367616 0.0
0.0027813590474935167 -0.000476893256664934 0.0
0.0027698223513748124 -0.0005113441406668868 0.0
0.002844764832822064 -0.0004514648911317172 0.0
0.0009374656093366999 -0.000729035259038784 0.0
0.0032911464778326897 -1.314427478281935e-5 0.0
0.0024260157684134055 -0.0009335744038908179 0.0
0.0034587158346893504 -0.0005759546861727044 0.0
0.003128904680584895 -0.0003693591707105275 0.0
0.0020228105324930482 -0.00028316774546250745 0.0
0.0025908235730721053 -0.000801810849604345 0.0
0.0016191680895631423 -0.0006718515551894044 0.0
0.0016999203084290882 -0.0004000922860858823 0.0
0.003886117820763936 -4.578258393911753e-5 0.0
0.0008934988565246051 -0.0002613047680254537 0.0
0.003000280361664673 -0.00021357019477809052 0.0
0.0019933744900234307 -0.0001816459231831432 0.0
0.002613548242678397 -0.0004497325104175287 0.0
0.0037297119201066954 -0.00012560646679363424 0.0
0.0003155788521048897 -0.0001525772906271374 0.0
0.003035678760453485 -0.0005451569728541309 0.0
0.002267336886342205 -3.039623679940765e-5 0.0
0.0022468243306416574 -5.1299014448040005e-5 0.0
0.0025076304590730364 -0.0007757890673887512 0.0
0.0023059971480009238 -0.0005896366873952523 0.0
0.0023745034827253137 -0.0007713424674925108 0.0
0.003089120854519422 -0.0006379339497259079 0.0
0.003071743596787721 -5.616283589528555e-5 0.0
0.001972458099218235 3.2802022966318634e-5 0.0
0.002778036992755503 0.0001980179058351384 0.0
0.0036237029530845235 -0.0003417843166286184 0.0
0.0036386441064251316 -0.0003091704947547772 0.0
0.001986331382457905 -0.00010054449980757138 0.0
0.0013455196219899158 -0.000652948688572816 0.0
0.0027149998326984094 0.00017767959583059456 0.0
0.001981661154022283 -6.642263765538934e-6 0.0
0.002644155459222938 -0.00056169767980015 0.0
0.004069302947276082 -0.00010450025186672831 0.0
0.000682138816847388 -0.0004982385642149914 0.0
0.002542015650071984 -0.00027270767326387197 0.0
0.001988937043525805 -5.278862605517718e-5 0.0
0.00198474264800635 -8.588552900769126e-5 0.0
0.0007022954078880187 -3.008256937795897e-6 0.0
0.0036591514411287323 0.0001407095052662122 0.0
0.0021470472257271284 -0.0001903217829250182 0.0
0.0037427549727922786 -0.0002585123735441195 0.0
0.0012955064700496597 -0.000623899711020991 0.0
0.0032134652672728527 -0.0007294638900745172 0.0
0.0032985346353424324 -0.0006968019598072309 0.0
0.0011728174831610078 -0.0006437051155147341 0.0
0.002742509833484347 -0.0005806145211626518 0.0
0.001785452891321566 -0.0009680036701038652 0.0
0.0026071287328514416 -0.00016506230799784454 0.0
0.0007403464326944971 -0.0006355764490088915 0.0
0.0021661010539674374 -7.794764439110072e-5 0.0
0.0022565408450924093 -0.00025386411413819696 0.0
0.0022080518432603556 -0.00010697506255336186 0.0
0.002416462398655777 -0.000582849879036443 0.0
0.002936626587440919 -0.0005710982163361832 0.0
9.752062576389e-5 -0.00011620959463919033 0.0
0.0001685278550452922 -0.00019475888210328856 0.0
0.00020243410565965543 -0.00023005857196221362 0.0
0.003893958636351565 -0.0003092909920180604 0.0
0.00027325977204361673 -0.00030112935288969 0.0
0.001202737256170819 -0.0005991072122693421 0.0
0.0005381146798112485 7.091289652132372e-5 0.0
0.003501063233400728 -0.0005901025645527122 0.0
0.0006240803982998918 -0.000565725600647669 0.0
0.0007026280398186069 -0.0006141819050030056 0.0
0.0038552552670403006 -0.00034058821784973214 0.0
0.003778133679687447 -0.00040447700617963193 0.0
0.0022390746594746357 -0.00032286631737734624 0.0
0.0016244068149440245 -0.0008222096546510093 0.0
0.0030580163603004134 -9.416333862932545e-5 0.0
0.0035811942312858887 -0.0005389347989855053 0.0
0.0036212810154007506 -0.0005142137618510375 0.0
0.0005487432777974727 -0.0005205663216682065 0.0
0.0003777400385590328 -0.0003901896607713172 0.0
0.00370102021391312 -0.0004597599018487601 0.0
0.003731886408206666 -0.0004045955123871534 0.0
0.002513398541042404 -0.0009213038435710036 0.0
0.00045006847767795944 -0.0004487644553637783 0.0
0.0030716879281076355 -0.0007998839415396499 0.0
0.0007781236208216633 -0.0005039323362505893 0.0
0.0034659846711654826 -0.00042321444830046494 0.0
0.0011977096071839708 -0.000796269894061442 0.0
0.0032341469518389386 -0.0005738032412677328 0.0
0.0032743918206180377 -7.875844379283337e-5 0.0
0.001180179533114591 -0.00042821161696618974 0.0
0.000789674824723392 -0.00040179277146928726 0.0
0.001529995217412537 -0.0006926333574133777 0.0
0.0020358546441693725 -0.0005733180171411256 0.0
0.00347075318517584 -0.00024248865314914256 0.0
0.002173512717897051 -0.0008992333849564672 0.0
0.002202941745379749 -0.0001987134962193633 0.0
0.0021786193926307115 -4.5748810811414547e-5 0.0
0.0028017726845224636 -0.0004109846709678593 0.0
0.0032363693808608335 -0.0004865582137907339 0.0
0.0011346449248911144 7.58204288243354e-5 0.0
0.002629246427665087 0.00014512348624645525 0.0
0.0012861058765593395 -0.0004198334268339498 0.0
0.003510007279095817 -0.0003503247156774718 0.0
0.0008169917139300031 0.000128044035104128 0.0
0.0006960053219110801 9.703300554686886e-5 0.0
0.0017767523291010161 -0.00012388629887294275 0.0
0.003646293724762645 -0.0001556439841426695 0.0
0.0019288328298732182 0.00011055118028693433 0.0
0.0021384891017458994 -0.00024311320129446486 0.0
0.003858077825543501 -0.00014698706399411378 0.0
0.0010806901934713872 -0.0004340458946527042 0.0
0.0013310119841019052 -0.0002676827464516882 0.0
0.0030112979656279773 -0.0003997215720982279 0.0
0.003333109437108871 -0.00045479716130758415 0.0
0.0009359799148277412 -0.000437244609811924 0.0
0.0005414108078839815 -0.00038170699604889424 0.0
0.0031957820026419195 -0.0004830978554012546 0.0
0.0013560200045150445 -0.00016848438705960623 0.0
0.0031609817943717977 -0.00027426102653975616 0.0
0.004135271848269885 -5.437870792873269e-5 0.0
0.003438569758130589 -0.00011927714641446562 0.0
0.0022116187985223826 2.4847906461904565e-5 0.0
0.00228538172999773 1.921142653839111e-5 0.0
0.0025951838586958 -0.00033401266412129443 0.0
0.0037726093699745615 -3.1018880575089056e-5 0.0
0.00370840927750407 6.0706544975799336e-6 0.0
0.00016330484256945848 -0.00013098587487534916 0.0
0.00012119926501941405 -9.627339316169633e-5 0.0
0.0016689360938264746 -0.0008097468690925778 0.0
0.002706197303049927 -0.0005365982070177685 0.0
0.0015149184027595537 -0.0002835675052418765 0.0
0.0015129982647760411 -0.0002582464066775436 0.0
0.0014863416899662176 -0.00010404392167942685 0.0
0.002130731402780999 -0.000758427682259996 0.0
0.002478503430259418 -0.00029212187518616974 0.0
0.000661376906718623 -0.00011734981842528133 0.0
0.0029098600890837298 -0.00022264211360986067 0.0
0.002241248224761003 7.114399979381583e-5 0.0
0.0017680105620085033 -0.0005094809571105792 0.0
7.168067159889925e-5 -8.50852837801685e-6 0.0
0.0020383654171215737 -0.0005403196648659523 0.0
0.0038379878036922197 -0.0001701481114493389 0.0
0.003280495013234056 -0.00027787834646733893 0.0
0.0031107136817288424 -0.00020536632724362 0.0
0.003677983102868725 -0.0002225065282524776 0.0
0.0026795930380915617 -0.00023397298392575312 0.0
0.0014586775074583948 -2.6413192483884367e-5 0.0
0.0004783793097518663 -0.00018292760499795857 0.0
0.0018196944045192906 -0.0002536424993933511 0.0
0.0022908789335732396 -0.0003344090178494477 0.0
0.0005963041246597012 -0.0003261226683769525 0.0
0.0019274268383581423 -0.0009838884258892295 0.0
0.0025917255473705833 -0.00023141802637520093 0.0
0.0012528339321018623 -0.0006302830566914707 0.0
0.002799487744702463 0.00017277173260858594 0.0
0.0035262822575647004 -0.0002396612890958739 0.0
0.0013467630260394947 -0.00014151460541935622 0.0
0.0030843173600092343 0.0001889417253603988 0.0
0.002366149841129419 -0.000274396204094795 0.0
0.002041189300253428 -0.0005085652981263976 0.0
0.0007428999417632177 -0.0001439942293208369 0.0
0.0013918262857877035 -0.00029459469299626293 0.0
0.0017793479869519296 0.0001840502422925016 0.0
0.0005565802750373772 9.261977105003906e-5 0.0
0.003115158872562768 -0.0004036951851795073 0.0
0.0008182584026032832 -0.00031134612624842485 0.0
0.002097649595009381 -0.0004949305412947942 0.0
0.003471760275969297 8.636422739894435e-5 0.0
0.002957901027321523 -0.0003955380083329638 0.0
0.0013755172472636804 0.0001341552401947969 0.0
0.0002500310815911499 -7.090731587272678e-5 0.0
0.0010608795019954975 -0.0002562192630132862 0.0
9.470934995686716e-5 8.743772306928856e-6 0.0
0.0001978489844631366 4.0202246239352795e-6 0.0
0.0029407157407257073 -0.00036483625920217557 0.0
0.002426360146320368 -4.018186499546308e-5 0.0
0.0013657969963256208 -0.0008861005787008958 0.0
0.0009531991573946166 -0.00057574332930014 0.0
0.003438404778236706 -0.0001879055509665613 0.0
0.00046549118754515807 -0.0004362925137480673 0.0
0.0028523685845910193 -0.0004195667787086374 0.0
0.0023821387787335197 -0.000733219731584875 0.0
0.003410737490935564 0.0001335444838025388 0.0
0.0012255551082560002 -0.0007489216927030876 0.0
0.0037216804350047937 -0.00036154222755182457 0.0
0.0021410695623289185 -0.00022561141309581587 0.0
0.0006756358003980325 -0.0005681323089569426 0.0
0.002887702508455522 -0.0008291476308848788 0.0
0.0006901230500424503 -0.00036604100569743726 0.0
0.003940328433830575 -0.00015920152517528562 0.0
0.000492289094204513 -0.0002572297210990919 0.0
0.0029129090405679422 -1.1538436421024715e-6 0.0
0.0026834662430237984 -0.00020716888133484552 0.0
0.002180460785142394 -1.2180612406279336e-5 0.0
9.671807611060215e-5 1.3440476403790617e-5 0.0
0.0015912373835312704 0.00021407565551510843 0.0
0.0011354088023449228 -0.0001575170190878819 0.0
0.003332370597919053 -0.0006440808447750331 0.0
0.003378235427853013 -0.0006614912947919372 0.0
0.0003154706424850958 -1.1566899668676496e-5 0.0
0.002431808507151507 -0.00026005956640438686 0.0
0.0009953048809726052 -0.0005758293726257968 0.0
0.0017173091555705163 -0.00055160826400217 0.0
0.0001010891149796869 -9.175360917468876e-5 0.0
0.00023324198982999919 -4.0933550909882874e-5 0.0
0.002338153069037097 -0.0003704178353318988 0.0
0.002154166403848825 -0.0004796719278766155 0.0
0.0001521982741921707 -2.2931623606111907e-5 0.0
0.0004082402724668507 -0.00015004883583945774 0.0
0.00030781728851443006 -0.00033185326167024635 0.0
0.003487177509564217 -0.00038502928421348565 0.0
0.0027552961169934782 -0.0005457169292293412 0.0
0.0004895333464656553 -0.0003451414756818861 0.0
0.00322934892813686 -5.697065573881767e-5 0.0
0.002969539921004187 -7.886170840366249e-5 0.0
0.00021682263037391586 -0.00023059012462678635 0.0
0.0017265247708829546 -0.0001697398627056439 0.0
2.646582739736606e-5 -3.1895336039969484e-5 0.0
0.00417222533088521 -3.115424940159283e-5 0.0
0.004054770513563332 -6.78080756489922e-5 0.0
0.0012375296145015317 -0.000847942081977092 0.0
0.0032394190703087834 3.1834875971004656e-5 0.0
0.002762450550024981 -0.0006591721415969495 0.0
0.0005460544077062483 -0.00026582880666377746 0.0
0.002622732298365905 -0.0009406955807725517 0.0
0.0005923394346035537 -0.0001437810841067441 0.0
0.0036333625679940778 -0.00018056008644424076 0.0
0.0016634478617615566 -0.0005609951589820754 0.0
0.00015314823641860803 -0.00011383735526052925 0.0
0.0019222965515849424 -5.930011644789841e-5 0.0
0.0019211992736132488 -7.682888207570029e-5 0.0
0.003812052875519179 7.475178147585545e-5 0.0
0.0023631551542377823 -0.00056872945625871 0.0
0.000301733191585791 1.6482321617709948e-5 0.0
0.0036863624820222575 -0.00044334444703427914 0.0
0.0038509990218570157 -0.00011300819712864484 0.0
0.002946268952064968 6.394946247077308e-5 0.0
0.003022599977212085 3.155928314656771e-5 0.0
0.0018023455953578226 -0.0008501412311243707 0.0
0.004089881169796197 -0.0001245121459339271 0.0
0.0017764255847633682 -0.00014328408377829513 0.0
0.000371178150103005 0.0001154201178114137 0.0
0.00047768604134319905 -0.0003762480248154146 0.0
0.0012326964268435593 0.00016976014044122682 0.0
0.0036909144981743924 -0.00036282348384584806 0.0
0.0002127024768512674 3.4649761751141074e-5 0.0
0.002201453001908487 -0.00018083605671449137 0.0
0.003293916543872962 -0.00024470774200900056 0.0
0.002652910971518166 -0.000345326937563231 0.0
0.004110198725563376 -5.032913855804515e-5 0.0
9.325707052936188e-5 -4.928923692126845e-5 0.0
0.0038650216181331846 -2.8611001456280444e-5 0.0
0.00412282326194402 -4.940851381392776e-5 0.0
0.002034089753965957 -0.0009509953908629844 0.0
0.0024053715814121627 -0.0003564820865022414 0.0
0.001356183770207162 0.00022658363422579456 0.0
0.0009875865484429672 -0.0004354099700248557 0.0
0.001308653631000828 -0.00023228488356941303 0.0
0.0017169775385334227 -0.00018888830962529647 0.0
0.0008295918659610962 0.00010646302851848017 0.0
0.0015249646819290713 -0.0006551344341623675 0.0
0.0007547400932978675 -0.0001138000387056296 0.0
0.0004903520026166111 0.00011542592194142837 0.0
0.001955672882205455 -0.0003165546850095103 0.0
0.002993501312647352 -0.0005409838619925445 0.0
0.0035458390311148575 -0.00035100942560023756 0.0
0.0013900297294427155 -3.168473885151474e-5 0.0
0.0009278660938875029 0.00019087373372907144 0.0
0.002268132216116181 0.00010213781273145247 0.0
0.0012100321148318944 -0.0001529071947606756 0.0
0.0033610866902938704 -0.00036379248292342406 0.0
0.001144696388028455 0.00022740132967545074 0.0
0.001029213905737113 0.00022325314821844796 0.0
0.0023135646450162767 -0.0005202678765474357 0.0
0.0023300417562128473 0.0001653714665390619 0.0
0.0016424822329295192 -0.000946227231268301 0.0
0.003162541240503345 -0.0007613419710292337 0.0
0.0011249888738085454 -0.0004020542542881205 0.0
0.0029410672542842186 -0.000849947152780146 0.0
0.000902693807629963 -0.00014833014112117362 0.0
0.003420749001201565 -0.00035595637498106545 0.0
0.0016091346548131485 -0.0005387825455966141 0.0
0.0036259774805691525 -0.00023155088044143307 0.0
0.0009910321458284142 -0.00040626954431612777 0.0
0.0016599368686004454 0.00020876373866230357 0.0
0.001480071146729352 -7.846537997734763e-5 0.0
0.0018784475183955996 -0.0007174270211829882 0.0
0.001987652572686081 -0.00023274645705084973 0.0
0.0019201978193626639 -9.33216185408002e-5 0.0
0.0011509880015040182 -0.0005658706794111041 0.0
0.0011644077332286257 -0.0006057760287232056 0.0
0.0007497920968827037 -0.00028007882638846754 0.0
0.0009963247833195067 0.0003033550804637029 0.0
0.0019460455075214567 -0.0008311153919697335 0.0
0.003658824174425179 8.103629720243267e-5 0.0
0.0032944959183132463 -0.00045247124609753306 0.0
0.002293195892154813 4.3136426908332166e-5 0.0
0.001075183458000039 -0.00040521459683286437 0.0
0.0028852370066612316 -0.00032091590265587096 0.0
0.0024368940992528184 -0.0007105192349896796 0.0
0.001606425473081009 -0.0005059536697456146 0.0
0.003898474813443094 -0.00013859995891229814 0.0
0.004087269330682706 -8.377424862545744e-5 0.0
0.0014494119195525511 -0.0002660023080514269 0.0
0.0027887340300221156 -0.0008607481666382567 0.0
0.003774106199004112 -0.0003816107189815398 0.0
0.00018637928993929688 -4.992099920639393e-5 0.0
0.0009975873751989523 -0.00025965917846575165 0.0
0.001179097762735537 -0.000399331470263207 0.0
0.003842118361697814 -0.00032927704866043777 0.0
0.0015181308876719138 -0.0006171860760794248 0.0
0.0026287645880708837 0.00017200030623096027 0.0
0.00039359768508515227 -0.00038212982600104354 0.0
0.0024322850652521454 -0.0004242553501590238 0.0
0.003531623324481671 -0.0003182280137539687 0.0
0.0028147355656522985 -0.0005192405913681998 0.0
0.003964622155804406 -0.00013292120326414565 0.0
0.002850051024497018 -0.0007816492258332801 0.0
7.330759340079025e-5 -4.13642606617494e-6 0.0
0.0018605118876356263 -0.00030456750382446343 0.0
6.988002199462117e-5 -5.175328592698968e-5 0.0
0.001304547650287736 0.00011594765695328597 0.0
0.0008753490273285679 -2.5630663470179208e-5 0.0
6.002639415343368e-5 -6.66898134388058e-5 0.0
0.0010646987497345145 -0.0007892975329218339 0.0
0.0009842438815356389 -0.000721832079678022 0.0
0.001780884447644295 -0.00010668339724681492 0.0
0.0017799291741185624 2.03362067935209e-5 0.0
0.0007151605265301028 -0.0005925478810226326 0.0
0.0012781630421221121 -0.00014811661124015322 0.0
0.002478660143283668 -0.0002717314751017016 0.0
0.000731847391787444 -0.00036738702140806613 0.0
0.0027525520320462265 0.00019768020778295126 0.0
0.0024961621282775545 -0.0006863271917904342 0.0
0.0005364671792412953 -0.0001457050637518381 0.0
0.00030428554998868877 -0.000275357605204531 0.0
0.002147222114649494 -0.0001565335603904129 0.0
0.00014028595796553915 -0.00015458937564917768 0.0
0.004008208816584641 -4.553467078432879e-5 0.0
0.0014060116802933282 6.999307761879382e-5 0.0
0.0019675738195177495 -0.00029127048125157315 0.0
0.0036417975657135194 -0.0004023112188185038 0.0
0.003966585679409625 -0.0002452647164205543 0.0
0.003307472534054812 -0.0002114029995987733 0.0
0.0019401916186074515 -0.000792415961099457 0.0
0.0025266312653169443 -0.0004016117932584592 0.0
0.0035625959923101533 -0.0005233103445200218 0.0
0.0021213270055689365 -0.00099684322353256 0.0
0.003484556656000379 -0.00032239135368581896 0.0
0.002827054542720852 -0.0004855404550459387 0.0
0.0014657905314088557 -0.0005910331900497661 0.0
0.002487585675621059 0.00017880620270410908 0.0
0.0015486739081458662 -0.00047891823746346686 0.0
0.0012928678651437434 -0.0007858321637861446 0.0
0.001934340395087073 -0.00023894027694821654 0.0
0.0032637137849474687 -0.0006776106232397274 0.0
0.0007426656442624556 -0.00025323326469917133 0.0
0.0005959419658253882 -0.0005254628899882129 0.0
0.0030203447256605437 9.167662464216443e-5 0.0
0.0009413787064920623 -0.000288975381416794 0.0
0.002415485650745912 0.000170936221216588 0.0
0.0012496265242683037 0.00044601292289841906 0.0
0.0031022327472571987 0.00025453605105533165 0.0
0.003617279922539812 -0.0002083701992724603 0.0
0.0020015496272214775 -3.856100803468154e-5 0.0
0.003231159392219177 -0.00024563413542239514 0.0
0.0025562002132662426 -0.0007462915638332853 0.0
0.002706216978730018 -0.0009244904194179926 0.0
0.0012345484027119374 -0.00039425872935571155 0.0
0.0012322518989405337 0.0002351546132245505 0.0
0.0008153948916033711 -0.0002575501981195438 0.0
0.0009008562451266157 -0.0007219055759027107 0.0
0.0018272388147552822 -0.00033714221617456975 0.0
9.496199652778161e-5 -4.46823901480403e-5 0.0
0.0006902990640886095 -0.0005431261701422884 0.0
0.001995939609012668 -0.00012879046993242107 0.0
0.00023661548488414312 -0.00016988272952347423 0.0
0.0002420258261171406 -4.559568042557001e-6 0.0
0.0021986284272528314 -0.00046751747238238357 0.0
0.002202659650285369 -0.00016433681267782088 0.0
0.003918561682013484 -0.00026775196307283333 0.0
0.001715540897956637 -0.0001508405578242532 0.0
0.003013196552469668 -0.0005053843442695998 0.0
0.0022211737440799586 -8.449135830077828e-5 0.0
0.000567145262411007 0.00010809818115033195 0.0
0.000748073805439938 8.398040503258772e-5 0.0
0.004023901322083991 -9.765502028192664e-5 0.0
0.0025591543376679046 0.00017511348739152635 0.0
0.0006022414800493375 -0.00027263021679504215 0.0
0.002536308429173699 -0.00017479864984095315 0.0
0.0019130527748772853 -1.656878950161442e-5 0.0
0.0021836313967608773 -0.00023371362031317504 0.0
0.0006912161487259438 0.00019757580662170472 0.0
0.002212001103982932 -0.0010001281340220125 0.0
0.0038202133698395715 -6.26885326278107e-5 0.0
0.0021619276233070034 -0.0003897018206122021 0.0
0.0021449880393427908 -0.0001088339177935951 0.0
0.0027303268800962528 -0.00029475493744850233 0.0
0.0018522608093983486 -0.00010111079591323771 0.0
0.0021717999005612778 -0.00036138094144193733 0.0
0.001044125341148169 -0.000614431739893124 0.0
0.0028883003418932185 -0.0004589601381059291 0.0
0.0017142079130494938 -0.0002689392086220747 0.0
0.002143719861419195 -0.00014104639932938025 0.0
0.0034139843925777786 -0.0006465130473994721 0.0
0.0018300246031609966 -0.0002330086380419834 0.0
0.002558059761757412 -0.00012926170045366087 0.0
0.002231436908936672 -6.870158767115739e-5 0.0
0.00031925020281899986 -0.0003253479232195483 0.0
0.0033114998370026884 -0.0004234262816416798 0.0
0.0022162481187987322 -0.00012674420487720809 0.0
0.0012227021833252833 -0.000783590799068368 0.0
0.0024133562753212994 0.0001780686813157944 0.0
0.003031366693422179 -0.0008223276967188276 0.0
0.004033338636347507 8.002171958693717e-5 0.0
0.0001787876359658636 9.464384289797557e-5 0.0
0.001781823970941986 -0.00034847245496761096 0.0
0.002378666822720245 -0.0009487990558839165 0.0
0.0014920688415299363 -0.0008827131763248555 0.0
0.0016987495159973185 -0.0009573140767756499 0.0
0.00031380147532086204 -0.0001374615416879056 0.0
0.0030676623396192326 -0.0004814184744578355 0.0
0.0012408027345205469 -0.0003649856606742989 0.0
0.0017675397824154556 -0.00024149287618746617 0.0
0.0013964444246647423 -5.648958302785007e-5 0.0
0.0017600554609314737 -0.000936362408112787 0.0
0.0030214826217115813 0.00019865087082674316 0.0
0.00385844027062501 8.70762402206702e-5 0.0
0.002557080391737087 -0.0007157476438702908 0.0
0.0021551009412122887 -0.0004206166849165357 0.0
0.0013783428922695038 -0.0005839649935520488 0.0
0.0023036774666908163 -0.0009973678439783608 0.0
0.0031967378386981893 -0.00041118717160561186 0.0
0.00027390068064280925 -0.00016926483384540236 0.0
0.0037662775721958937 -0.0001301617845638098 0.0
0.0018569458824787242 -0.000946618763774717 0.0
0.0019033351103988469 -0.0008496396047318508 0.0
0.002900547883571547 -0.000744944869387894 0.0
0.004142885453401331 -5.800761338685874e-5 0.0
0.0015809663516437441 -0.0009038850659926488 0.0
0.0013161431017865964 -3.460015101131545e-5 0.0
0.0013981622791627072 -0.00027337818456677794 0.0
0.0027133813987562138 -0.00032750407257924903 0.0
0.004031235135978546 -4.959321077145155e-5 0.0
0.0003320443510593231 -0.00028713505180516063 0.0
0.0021790173958122984 -0.00033675134071773646 0.0
0.0037422900420732265 -0.000366490372903586 0.0
0.004015012754207223 5.0752479010066095e-6 0.0
0.0011800644023071212 -0.0002207000800550825 0.0
0.0019010898569859775 -0.0009555445667149332 0.0
0.003911946442917554 -0.00012136502855945934 0.0
0.0007161817584281166 -0.0005101188676068264 0.0
0.004088889621452277 -3.4416482839371476e-5 0.0
0.0013268447225375346 -0.0008818747829873471 0.0
0.0029004439614032135 -0.0004254440768417033 0.0
0.0007898977955248748 1.35780375034383e-5 0.0
0.0026224793763959557 -0.00013363669366844242 0.0
0.004055324034780304 -0.0001447314263366605 0.0
0.0032556780969969865 -0.00038325534555393355 0.0
0.0011635023021821082 -0.0007951300121250981 0.0
0.0008213301148669812 -0.000684747592849883 0.0
0.0010438165949387514 -0.0005594437860661059 0.0
0.003494516635773806 -0.0005650396467819854 0.0
0.0031716908719839985 -0.0002483376105066476 0.0
0.0006546972792122791 -0.0002817324296677535 0.0
0.0016854904175888446 -0.0003333177009073848 0.0
0.0027090136252525153 -0.00036088055709206763 0.0
0.0016276323299633474 -0.00039306256934969533 0.0
0.003942017488171987 3.732748464452631e-5 0.0
0.0028933746660065956 -0.00019761662686494308 0.0
0.00170542741160782 -0.00024987267014629837 0.0
0.0006727069330291324 -0.0002485641259958462 0.0
0.003098277842243091 -0.0004316483008465026 0.0
0.002593608763040992 -0.000874182160756703 0.0
0.0036494841725088554 -0.00047375550371476187 0.0
0.0014218443972135078 -0.0008675520561891681 0.0
0.0026804960656149545 0.00013210698099021536 0.0
0.0015525183274008208 -0.0004469581089669051 0.0
0.0024666026159856002 -0.0009393666339408112 0.0
0.003610031370039406 -0.00040515763716803964 0.0
0.003142326038396593 -6.609624753827067e-5 0.0
0.003942595779976904 -1.7955091142251933e-6 0.0
0.0009312422053440082 0.0002029021382376881 0.0
0.0038344316726623803 -1.7556583285370903e-5 0.0
0.0013596649308085715 -0.0005353833688696441 0.0
0.003545451898570468 9.24790124597222e-5 0.0
0.002482178505806192 -2.3995352868383354e-5 0.0
0.00291320420756071 -0.00014021204808340964 0.0
0.0012765553676716641 -0.0003264598713400209 0.0
0.0029603428497949917 -0.00023779796872950052 0.0
0.0019937323751042756 -0.0009603469613677232 0.0
0.0010876261567213683 -0.0007455927397683035 0.0
0.0022520403238348113 -0.0001720353507732977 0.0
0.0031305845211979117 4.146597311096204e-5 0.0
0.0018695226004264434 -0.0008953044084173409 0.0
6.61912585626441e-5 -4.470847361684896e-5 0.0
0.0040530539744502575 -6.257447682705767e-5 0.0
0.003531004493952896 -0.00013287991274764683 0.0
0.001701742317706268 4.215027354425849e-5 0.0
0.004107022806017402 -7.377764618959564e-5 0.0
0.0011323401141244205 0.00017129435121413487 0.0
0.0019151011291021099 5.172964905057761e-6 0.0
0.004170457531278926 -3.5879458156639675e-5 0.0
2.781253350942678e-5 -3.556383235819483e-5 0.0
9.826625869107308e-5 -8.300780318202081e-5 0.0
0.0012045452328818295 -0.00012989004175987848 0.0
0.002566704322472901 -0.00041358037245385387 0.0
0.002913461037823822 0.0001025541312762174 0.0
0.0032682999468864092 -0.0006422637235689167 0.0
0.004066637527092182 -7.469565681430489e-5 0.0
0.0003047768667604401 -0.0001939479709198746 0.0
0.000873894020463889 2.3077634206409106e-5 0.0
0.002611315543887344 -0.0008311991601160534 0.0
0.0036543512298999313 -0.00013543606748860022 0.0
0.001077826702449221 -0.0005572173380525014 0.0
0.00023611947004910854 4.6197070893087114e-5 0.0
0.0025961441210976756 -0.00018528093020028864 0.0
0.0012520625800479552 -4.051439444783908e-5 0.0
0.0030889828172464963 0.00019496215455697117 0.0
0.0019496980612067393 -0.0001248566807167932 0.0
0.001613957258068656 -0.0004173724573507909 0.0
0.0037098927171919692 8.544204123355359e-5 0.0
0.0038058398408776046 -0.0003639010131019983 0.0
0.0031457972158570936 -0.000738837401731761 0.0
0.0009485197612718847 -0.0002653472818727156 0.0
0.0038713386524722596 -0.00011681639356285734 0.0
0.0006406439102564655 -0.0003372124516635557 0.0
0.0039047888342698452 -5.4207511425294744e-5 0.0
0.003526928129755232 -0.0005522672334045799 0.0
0.0025099069834571934 0.00010368968300112446 0.0
0.0029245147899378456 -0.0008272989069491534 0.0
0.003042824295859765 0.00018544144672154092 0.0
0.0019318882645122954 -0.0001976012201765054 0.0
0.001077299591836413 -0.0007066392723965577 0.0
0.00146437129312062 0.00022005082658154782 0.0
9.878231230428626e-5 -6.275599970078071e-7 0.0
0.004016226437873102 -7.402800778458449e-5 0.0
0.0004249041702442231 -0.0004123543930307547 0.0
0.0030888227560334513 0.00011100824658694572 0.0
0.0007479614524130729 -0.0006155827342453937 0.0
0.0029039327467787657 -0.00039838641351119407 0.0
0.0008570643485848734 6.255898761826913e-5 0.0
0.0003597432582818541 -0.0002085811895320136 0.0
0.0005197309733226554 -0.0005064060044163572 0.0
0.0004693032753711703 -0.0003502587078827393 0.0
0.001226915131607606 0.00026971814260299604 0.0
0.003277608613091165 9.746506927157299e-6 0.0
5.0706432152306804e-5 -5.3047737059747425e-5 0.0
0.0035036730560029346 -0.00011782789736692401 0.0
0.003161907769742194 0.00022359551049910378 0.0
0.0026293979291274914 -0.0003939653183011339 0.0
0.001953193566068167 -0.00015479872996612478 0.0
0.0011039791345956232 -9.467813579723598e-5 0.0
0.0020017803585069766 -0.00021523581045859263 0.0
0.002670512766829025 -0.0007583709553082653 0.0
0.0012899318128006456 -0.00036490872462525633 0.0
0.0009570035236486361 -0.0007205235061694328 0.0
0.003595941886988394 -0.000321397829338916 0.0
0.0027364765709990235 0.000200207044564353 0.0
0.0004278893147860932 9.449958716376881e-5 0.0
0.0012299777330409354 0.00011387363736936482 0.0
0.002821420797332547 -0.00029787638667415334 0.0
0.0026567966321729137 -0.0009022287869125952 0.0
0.001680696086751797 -0.000356866433459666 0.0
0.0033687278171637843 -0.0006401346922360052 0.0
0.0002505947785986055 -0.00026661444933048035 0.0
0.0029461520338281886 -0.0007142588659581825 0.0
0.0013864554059067333 -7.159034578981516e-6 0.0
0.003948302215595121 -0.000245361830001143 0.0
0.0013305168155718214 8.774545594588148e-5 0.0
0.002578865901006591 -9.383587547913159e-5 0.0
0.0022155219024099985 -0.0004481200266067101 0.0
0.0019197757097004203 2.4973322764757436e-5 0.0
0.0022934427389978817 -5.9512424252454946e-5 0.0
0.002562155997141604 -0.0009179543374836189 0.0
0.003296622558460865 -0.000667504267883063 0.0
0.0010384712562399043 -0.0004113297274118934 0.0
0.002351111006998136 0.000130234924128235 0.0
0.0022946392309532927 6.43108052796693e-5 0.0
0.003283588262870186 -0.0005993222430417392 0.0
0.0019399224113481757 -0.00018034981613469808 0.0
0.0018525079796712226 0.00010394644808679863 0.0
0.001070695302415397 -0.0006702866372799704 0.0
0.0039230247202272335 -0.00024706174111407953 0.0
0.0027708706057936443 -0.0009067356555150551 0.0
0.0018740887163595115 -0.000868656842313883 0.0
0.004048856729019369 1.8696773382607774e-5 0.0
0.0018481275072539612 -0.0007688947343586746 0.0
0.0030845250308978583 0.00019079429009702305 0.0
0.0011113501844302893 -0.0002002853653865038 0.0
0.0027391128341673386 7.962459017538616e-5 0.0
0.0008051391777597518 -9.49974243179954e-6 0.0
0.0017517905427389094 -7.864076923985055e-5 0.0
0.001144743321914763 0.0003560836746851912 0.0
0.0041214284746699 -4.725781687729868e-5 0.0
0.0025745595254058474 -0.0006898515735519865 0.0
SCALARS damage float 1
LOOKUP_TABLE damage
0.31000795528992614
0.08446388943811468
0.35663655745056316
0.11421156117429491
0.9652069021820264
0.9724680418363344
0.019120377427453636
0.47387281749522153
0.4659273966402233
0.46819239837355997
0.48956036255344526
0.5082489806784067
0.5349332989544875
0.561102272995032
0.5784575883116396
0.5938414570003345
0.5914424131683055
0.5873625489082996
0.575156985011909
0.5556749691656973
0.5364780255805284
0.5233633888355859
0.5013348238063439
0.47642342452847924
0.4596976861992341
0.4363562583179531
0.40596534813098506
0.37854317513043556
0.34120016469558684
0.3038788223006377
0.25906722881304867
0.20850008031973147
0.07078200662512064
0.13462350279996754
0.14987298934880455
0.1729301397623821
0.1891294620894465
0.2015785598198515
0.2157802634126183
0.22634681146306296
0.2373213434642006
0.24835212353339944
0.25718139016737734
0.26745433002883007
0.2779525670442332
0.285258929182522
0.29306835709213036
0.302181831228981
0.31254367163705543
0.3245980449262946
0.3318506728215537
0.34146779681986916
0.35087461424573546
0.3638027138760728
0.368806866667797
0.3842746301936416
0.39117429479110305
0.40544087887569613
0.4149716625084543
0.4317682392001738
0.43661193134134024
0.45497844664482917
0.4666554977380084
0.4828454601434931
0.4942153576497652
0.5113956645876102
0.5210685580986169
0.535350106977828
0.5530222670897522
0.5735924820926173
0.5955960264694166
0.6133181038084761
0.6325695771605554
0.6602559294886807
0.6783527724653455
0.7020874513491789
0.7295635054531441
0.7471032716778906
0.7764441530059679
0.7976667763155832
0.8206988371168454
0.8475159599804636
0.8685903180158039
0.8775508971245782
0.905574646671612
0.9151524565818498
0.9388543583761084
0.9375166957221627
0.9406149502605574
0.9293862923640841
0.913037018562756
0.8888899339726236
0.8662291472718258
0.8409424201213472
0.8206923097010098
0.7939441627967229
0.7807714997395339
0.7590964388344361
0.7337607206461972
0.71680019086355
0.6981351734513155
0.6878768669067233
0.6650290941787601
0.6588709934340016
0.6436631971556787
0.6303997337299193
0.6201687542258425
0.6006773161158544
0.5941369712265722
0.5822963564040421
0.5701337672106516
0.5545610996117225
0.5541837542927258
0.5338948011029007
0.5272779400666024
0.5125105775686576
0.5023886339668922
0.4926338232418262
0.4771625692239525
0.46620494278163355
0.4570850485638834
0.44325625404918484
0.42660335271675554
0.4095158937516848
0.39699756642628
0.3801223629174404
0.3649388282308584
0.32744595853850456
0.29710019532973514
0.2813461766423456
0.17609932315378332
0.23093328912215863
0.29675879520560405
0.3701430534848198
0.4134688246703662
0.4384708007469741
0.45813966750704466
0.47246602065105003
0.4825012109314338
0.4901334681060429
0.5007896227946754
0.508001559206273
0.5148365494951755
0.5214239771135849
0.5275385608752765
0.5294662416040038
0.5268095384400028
0.5201307990876054
0.5142070120566035
0.4955019984865727
0.48759304403472753
0.47624060781795846
0.46683992276438496
0.4744875119501224
0.4865627696067074
0.5641856143590265
0.4244909864037635
0.7920204025307569
0.9922259456915072
0.9927723656849354
0.9815309854705626
0.9213421080626016
0.7834797785142855
0.6842540629091545
0.5727807208106014
0.4813174271082285
0.3906113094070504
0.3308078363135959
0.25958920664982554
0.19269584960728883
0.12735479124942076
0.09807565194943678
0.012094097685201572
0.048259762511625746
0.09164421836502291
0.149045393155237
0.21920252052281217
0.31114946658801895
0.41888760562391036
0.5566052896344811
0.7089141507152454
0.8819628702660792
1.009824304927115
1.0006221338537131
1.0036451950710525
0.9432967044240945
0.8171228214233915
0.5482169973800212
0.44788736084985203
0.6956770675121188
0.5502607594345514
0.8154648571310493
0.6870943839591082
0.9348380287704977
0.8258883655300883
0.6140212719700058
0.3800798140833816
0.5581919372582104
0.33016651058694735
0.5545186427534354
0.5231170834340887
0.34976921319963505
0.37671275460662385
0.032166377429307204
0.18300298620442743
0.4979083391123198
0.28528577632916907
0.49213678978858133
0.5003584810621491
0.5036967953037895
0.5735748159928258
0.4476738963066725
0.24253989763239506
0.6212768014227817
0.41566011039467
0.43053618002036576
0.4676798057990713
0.6197551987348243
0.758570260776324
0.8835223877552851
0.880862967386168
0.7631688849331931
0.6495745532027032
0.5070485381623285
0.4116163913809738
0.3971056054719557
0.20770292031439155
0.4672086090680229
0.5382444292480395
0.41769116559246133
0.3301628809255732
0.7796413815687859
0.6856820624619226
0.4646528745740781
0.4756443756680316
0.5288429540355504
0.518806165481411
0.29915970829218963
0.089124246995849
0.162435291169192
0.331066411580448
0.7201663219873473
0.9180470111266197
0.5819800162771558
0.4740270037344606
0.9206822052352166
0.5884095546924363
0.3597628094126178
0.5328543672765395
0.30968410849795786
0.2637928476601573
0.4709695008704042
0.728830795476167
0.7244998868700572
0.34091292422423036
0.24946438379900218
0.9666167278804956
0.9443138375269645
0.42353437688619144
0.5093894805268405
0.1251226418126332
0.2688732986230681
0.9307095732178678
0.6892024331304893
0.535738942549894
0.5520620453955026
0.6501840266888329
0.5292778091598414
0.48538410747294364
0.46724993682294635
0.44612401845570004
0.4313559220610187
0.44176517798452275
0.4207477084697774
0.42966996035099203
0.416566838967638
0.4259422395623485
0.42628702679150676
0.2435687818856382
0.09198692618618468
0.21290826141508803
0.1180332013996414
0.2051617269130029
0.15145618771595773
0.2110509376267482
0.17700880172061814
0.22016108383457597
0.19490457835227776
0.22555242512442816
0.21201811949692947
0.23924323240447226
0.22528455557861674
0.24772021407617265
0.23844213738450837
0.25646950873669444
0.24744870786316747
0.2633959642967106
0.25729980940642233
0.27079364687902024
0.26720300036411276
0.2778539170510129
0.27565152134007687
0.2869765701228675
0.28607519617477567
0.2954648560047788
0.29373601456101367
0.30292429601467175
0.3004439439941222
0.31047867584717354
0.3111424655439856
0.31954367891732266
0.3205105775659033
0.32789191045727983
0.3291673864283738
0.3365757561072548
0.3388465097206726
0.1686570381971537
0.34590489672940467
0.24551378128638082
0.3068190505699662
0.34840182246234863
0.3558090056522852
0.35867722297199583
0.35139470253088145
0.36186169792794753
0.36618420004138574
0.3635373845724021
0.31876269389363976
0.3743667207272547
0.3715568582149345
0.3820443584637366
0.354587484074688
0.36545353889719634
0.3793025251969485
0.3584428777768694
0.36939652997350597
0.3913345524429305
0.3889997948781488
0.3634164490709235
0.37430274839938205
0.40137744789788526
0.3994906499788145
0.3679657054430921
0.378594467371895
0.4124413083673063
0.41076737297244487
0.3714472395501649
0.3831167976431888
0.42415764205933115
0.42256794115091095
0.37540284438676524
0.388883465452566
0.38055995713577606
0.3685931751778348
0.42599353289579367
0.4364515160145762
0.4343867374767797
0.42009245030783665
0.2829880319310511
0.43292404600310946
0.41826089225987134
0.4313635509405666
0.3940830142046234
0.38640678491787883
0.3996489731521929
0.4493233033546653
0.39738134239178197
0.38930745368573955
0.2652012546379155
0.3997944831614274
0.39201840810788263
0.4018776184693811
0.3939943008981187
0.3846801454339043
0.3861370602341253
0.37946614738758744
0.40348391293386315
0.38354449339665997
0.3754252374382685
0.41266279147525325
0.413029997176631
0.378981185552885
0.3731015095239004
0.419190333977501
0.43193892762250036
0.42246512862310065
0.42137923227648216
0.42096136953068636
0.4349745007376611
0.4471025119941457
0.44880372507025057
0.4654390858106429
0.4643704958821586
0.48163594405232335
0.47854641309843804
0.4972972730272349
0.4645291298641374
0.4921410849210965
0.5132573961711784
0.4319349769620478
0.3772806711382131
0.37235965529336945
0.5190177997744274
0.5358260058437581
0.5276004215748857
0.5467186659458502
0.43036639816307576
0.551357007907456
0.5403872955985151
0.44154614262602615
0.44018022674678087
0.4293611161731645
0.5647968073672561
0.5524781418581112
0.452768793684732
0.45504115560046765
0.43788558911998565
0.4266077630690946
0.5740337626845277
0.5622154366505772
0.5372597749597386
0.5878598935855889
0.5447279024936454
0.5244255155004983
0.3769552282728879
0.3741199732255801
0.36694558335628796
0.3739753836162973
0.36310940950435094
0.37166684308391124
0.3593208546272703
0.4668877410516648
0.46910920045257437
0.43393349198801323
0.42310235873542335
0.567955900618924
0.37325766738996446
0.3598038945248332
0.4815373480917486
0.4840067623486672
0.3838568882041523
0.5510049043709591
0.27893764589827336
0.677678897914237
0.27781160683220396
0.4248266429330123
0.3757821749932466
0.3613630153034457
0.4310361902824152
0.4206016353088708
0.4967695170502372
0.5005203579669267
0.5738731871624444
0.38124307056465967
0.38208920458631074
0.38610897604600347
0.553496545679135
0.38365332844012523
0.36585506832990244
0.49322092515410726
0.42622937115723547
0.4157143719440872
0.4112918392889747
0.41826441555686206
0.40451832617139516
0.41624421170109466
0.5136740715062675
0.5171807850232867
0.3564494368306005
0.3900548271505151
0.37995503590349156
0.5772621362526423
0.5944736054651643
0.40993393842176645
0.39343003430768103
0.5589157301698268
0.5365385755753089
0.4221785465518985
0.4381951116031321
0.5321613750415692
0.5352021699427778
0.5194918769573342
0.53786955323758
0.5210125190873253
0.5395988985490527
0.5215606764410986
0.5397085518567253
0.5204254853092487
0.5383159527774055
0.5591764724516707
0.55778017777171
0.5802906058228757
0.578342144873927
0.6024989293150498
0.599848172002346
0.51833095941226
0.5743617171903282
0.5953655979999414
0.6231060210634222
0.6180611794774559
0.385193171988977
0.3847878791080147
0.4213714066789919
0.4112251081977796
0.5894273476972582
0.6114051654657141
0.6424843472156682
0.6351386314379497
0.3896916379667393
0.38722819226099925
0.40284410727130177
0.4184130463365181
0.40619637725496494
0.5809556917081934
0.5615924161650758
0.5518850427672538
0.3425637896435749
0.3944200179498652
0.6687783647962385
0.6605433011520089
0.6265684554131611
0.6519928942747075
0.3771583626858463
0.42712604236549556
0.4381169466125154
0.4080884200166395
0.41590623211492883
0.40612784119302775
0.4136229949081884
0.6872457063248235
0.6786963305351321
0.6417989461860597
0.6696923883052833
0.6327509644486274
0.6588301745071642
0.6974025653503091
0.6848348245127627
0.4312178162188677
0.39244598840629613
0.38832039204395197
0.5485425525710541
0.5846821589581458
0.566410356915458
0.7201760966509766
0.7092807716665476
0.41165002931636874
0.4116478148520569
0.40107925848321124
0.36201751762157897
0.4204740361407783
0.5691374929861104
0.4304601347561099
0.40503675679805057
0.5893927813951529
0.565038713171075
0.5384273086050975
0.4412890266851419
0.6019838404803923
0.3991379554179704
0.4179666823151056
0.4444694969232619
0.43172457946820486
0.6234753449665261
0.4040475989179988
0.3943146140120624
0.3947034826024953
0.388830108508597
0.414111123733305
0.7440175393967989
0.7269524828077915
0.39167078224878
0.3858024728375586
0.7567179849470493
0.5638910867458621
0.38701035222186636
0.37884250329717456
0.5047322242866773
0.5383128358689466
0.5144868494391786
0.5648361448348701
0.7598972138152535
0.7420532447903021
0.5994362176237126
0.5909641686334829
0.5855581101800794
0.7111942291888979
0.7236015595722274
0.397622071143321
0.3885692640859083
0.7514479551488213
0.73174118377285
0.37901511307336155
0.3708985082613309
0.46818711953260034
0.45881930295369344
0.37166092868833744
0.36423860804800956
0.3615110831258749
0.3550299910799649
0.5370674469283624
0.5622356590555027
0.4111033825789742
0.4272666732591052
0.39215350388993386
0.5801114275131446
0.7571274377626879
0.7373776068989722
0.4365977971047892
0.694164470121789
0.6032511240204298
0.35866552706948823
0.35029025144024634
0.3463250640645675
0.3407560608766502
0.346046968438342
0.3368170231752741
0.34446308387979985
0.33542385931918944
0.34727110920218485
0.3377534195264982
0.353046417104389
0.3252491317832708
0.33157438973882
0.3986189597552091
0.4099575553635004
0.30984184836017126
0.3176679761841134
0.39783008334850956
0.37102886676993874
0.5689490018289989
0.5615924099350124
0.38486898902772415
0.6027151809130121
0.6072825559292817
0.5825969632493113
0.5541524668641502
0.5353942128242029
0.5553229171870243
0.5725497489518148
0.41860248942147044
0.44933235071980493
0.5584308140621949
0.5732899428647007
0.5529587965962385
0.33537459185132146
0.4912239710975955
0.48956678312132873
0.38479678993372674
0.7596719585630084
0.7402423614240123
0.7195625542615067
0.723752285177644
0.39583353372484964
0.41518346008308343
0.47109650486267474
0.7768886840478727
0.4193967374553831
0.7407786465139498
0.7250587259546413
0.7054371611333116
0.7082554886100404
0.6885764667989153
0.6919432459088676
0.7073013033385049
0.6917628266512341
0.29991504594609897
0.30336165318192665
0.32855935135107145
0.6246283495851085
0.6325314494857581
0.5661329774760788
0.5462030387221137
0.5586893153008313
0.5438444589696525
0.43780851242276914
0.44623713469684817
0.44235010622883764
0.4340094787558199
0.29671872992221804
0.42211284998415993
0.3905395612694519
0.5700664338731947
0.35235972577209523
0.4015455758505138
0.7024950107190974
0.6888930014212274
0.4362768812301854
0.4270519359868998
0.3887256222360352
0.38396419572884494
0.4125727496080698
0.4259427550401106
0.34175702294790794
0.7378282496104368
0.45268952102233384
0.6755347336147018
0.4631127712787412
0.2852871306190774
0.2914169774259864
0.3886119373202263
0.5745967156800537
0.546756804657723
0.5867545791130245
0.4421169551100665
0.43559451072008326
0.44704205227315663
0.4437299913079961
0.4350064282466136
0.44277007143418606
0.4517595521514634
0.4492063608073946
0.4598775140334984
0.4619786662760165
0.46804832553770076
0.4699529555188898
0.47728511678542623
0.47692371733788397
0.47442417660661024
0.48201771334942567
0.4844006862249208
0.437919418104784
0.3841056114380653
0.38014676353956206
0.3898017889227875
0.48929082299382426
0.48919454054165973
0.4869165347234528
0.7042233151899353
0.710131341619455
0.7403475545593272
0.7455575472110425
0.7766823387665842
0.780663594211483
0.7482376267078403
0.7812216055523681
0.7472987904835134
0.08172057734723
0.8131789969120962
0.8085919942472936
0.3776444145090853
0.5019053695905276
0.4990177458950185
0.4838821922396206
0.4803022182794575
0.4663885516762996
0.46243239604140984
0.47591189314767685
0.4577707135191299
0.4715642582783305
0.45210062835154385
0.46555737810565917
0.4404075778466835
0.44945836738339323
0.45363209456067866
0.4850571524636123
0.4791653423802076
0.38098886750528765
0.3220004073250778
0.20740406172920076
0.5826233278151025
0.5072598610008021
0.5019541808527236
0.2719093838570172
0.29668449891465565
0.6835153390336325
0.4468519181203544
0.5438741117846929
0.5302393600576848
0.33602690249822764
0.5585279556266679
0.538961044440016
0.26248659111509876
0.7764376699581159
0.7411793237728107
0.5272082367475237
0.5211792584074624
0.509442893971066
0.5045264642192061
0.515070430958118
0.4986547903171912
0.5095237194346748
0.4927181693841486
0.3321585705114581
0.48516081351695534
0.5299714708302803
0.5338150758924631
0.41352254550700096
0.407980758661567
0.4809137582769245
0.4660072040148229
0.650639785211577
0.657093314589486
0.7737828172546618
0.3535560242381686
0.3982260606247804
0.4798010642767758
0.542345998769184
0.6667455402523047
0.5187853717009939
0.6763787485982475
0.6734114306075508
0.6805701662695778
0.6661921153692382
0.3474123030746938
0.34057092741868056
0.4470662322884999
0.46318325577460634
0.6151602376270613
0.39142067989397583
0.4001926574969483
0.7904129384148524
0.49354768066357124
0.5409843835833836
0.548032743608386
0.5238642921977991
0.5112979602219733
0.5123402485114459
0.3618656683283522
0.2686642141452198
0.27724434040071616
0.30615941155342286
0.46217216997416205
0.46268938404047066
0.46645176427310414
0.4694060339772725
0.49080392783836624
0.4921547711385535
0.550769502054906
0.43002359267193613
0.45704475491573765
0.4521594120810215
0.42712935351072673
0.4415972760170369
0.43875439669779503
0.7122328621845004
0.48355727405306215
0.47696670287064236
0.48620118429017206
0.4713959719155727
0.6605139991907581
0.6553805759809402
0.6563564979339778
0.6441698962024834
0.5270036383674392
0.5206209609276091
0.8447662065107341
0.8378235257397977
0.43738181245666136
0.4417384568448668
0.6389610582042036
0.4782111385698922
0.4638941104498241
0.5840532627068408
0.5823789780254763
0.5965629667924276
0.58962621963657
0.6777973977844408
0.2658492095814024
0.3598306276468969
0.36773211509044845
0.43299334835255066
0.44766621076783975
0.4366177577271483
0.4630063648083313
0.45076985567984645
0.47793787937967125
0.46543614640942127
0.5640240409568459
0.462624964166467
0.6598489543514273
0.7941863572654724
0.8076556629288225
0.8108336914210028
0.7698126359788127
0.5147443209811734
0.6391504693142525
0.4950236824598853
0.4871215984871189
0.3608215273738839
0.5272312836459527
0.562983052542104
0.555426517448727
0.811723061018282
0.7350652555901339
0.38297797878231044
0.4894807223659521
0.49217911488549115
0.4894143294969407
0.489272268163429
0.5972819306317909
0.7159441986356204
0.5217402749960007
0.5583561584253913
0.406182403905847
0.5666957066741806
0.6794729463568544
0.6636887508982147
0.5111909453707006
0.5184390033138072
0.40194365592068837
0.4117479871113139
0.49274975188106956
0.4805249154739239
0.452283480445852
0.466809934644164
0.49394871810681046
0.479930534884469
0.5045139868165234
0.49029540215936596
0.5117958143918152
0.25361114290396497
0.5288206500241511
0.2635999870891133
0.3818718732757543
0.48069340729765064
0.5149827633658846
0.46648566856366674
0.5514601208952066
0.49607163119383124
0.3289751948962767
0.3214842992204682
0.49433296842802604
0.7841445763973215
0.5699228528771806
0.6277315208580148
0.4830719337090581
0.4565861864328687
0.4441843873654017
0.45861643475849595
0.3190263558246791
0.447129582908633
0.4158690283126772
0.8715262120953943
0.8627114951446632
0.830152586515027
0.8531612188941469
0.6773551993885063
0.648345396628234
0.4744542700240212
0.4809131319611409
0.5802539127605354
0.6118888074090114
0.37180937197286595
0.47035094044175374
0.45657804425639625
0.378273561543677
0.6494799724796058
0.5115534166643636
0.45041436444381094
0.8804342885964405
0.8685493390733205
0.5071965174464826
0.5116946746144879
0.4895862083981473
0.3617629636442299
0.36295686587237835
0.23630168631473963
0.818307446294912
0.46491893566209136
0.7620219737478033
0.3869581362039876
0.37973067927993764
0.3358838890293586
0.6337392799101653
0.3902817893794925
0.38387109905587247
0.3894257329703359
0.3839094881238662
0.3878596698037559
0.3788543653556539
0.8243452647391935
0.826712711965789
0.4655215298440181
0.7973403814420471
0.6271207347126709
0.6260550189140103
0.41239601295491135
0.44047011199680586
0.41819626823017286
0.5153261184369288
0.5012547021048408
0.44053251180556985
0.42246588736380764
0.42026312747667116
0.4242624967773707
0.40317075360820315
0.4453141070891018
0.5387561620168289
0.5551458924101175
0.5049141743413832
0.875818719367777
0.5632852541130342
0.4717946890830161
0.4598463390150237
0.3268627532852587
0.46051051349691385
0.5025370084301173
0.49911959245780396
0.37293351013152
0.3174097842757412
0.30985872511108065
0.31542868114427897
0.37302655548115965
0.2475434439634642
0.28342647360439355
0.8894209911379357
0.8738040638574485
0.8502344073993287
0.6462042945046196
0.6457653100821645
0.6262791539830628
0.38000795629190154
0.3761631472081174
0.5160309534190798
0.49332247305191357
0.49080268121663717
0.4788906799923872
0.46567627504076037
0.23380305926187014
0.38380253896655164
0.36591087119580346
0.357196676185563
0.3394819793081301
0.3391530608748024
0.3445511871024293
0.5375529791259299
0.4267881345538721
0.42190442415170337
0.3060792473319134
0.2980466125460096
0.428255241048121
0.4325843261123457
0.4450186624163743
0.4462441525721017
0.43768028685130406
0.7304263395875313
0.7061179050088735
0.755078908595434
0.435427660201969
0.389510699900708
0.4286524582939261
0.5328398467139367
0.8380779570402845
0.46751988290730573
0.6049684097782032
0.3566736119167788
0.3396035640736469
0.3546126205330394
0.34365301183874863
0.35680794042456404
0.3499043133888434
0.36277461977667835
0.3580652309162816
0.3706285697088438
0.3305108366981113
0.3466176943564085
0.8119046924408002
0.4665902275460805
0.4983626555192799
0.4837262197916365
0.5329427261079133
0.43642490937687567
0.32195475160941955
0.48914955606302757
0.476456319596638
0.276821977327295
0.29401204774028467
0.4527575344681037
0.5050566132151483
0.5105547013329458
0.46036642937634065
0.4468220547143185
0.3506209661341084
0.21716244496116216
0.44937460099430426
0.4279556599924181
0.23193971081417508
0.6345185528392319
0.619633140019257
0.632522355519523
0.6056769825933976
0.35556989870839756
0.47396922631291355
0.33724962041179746
0.49595545081407716
0.4746924389084309
0.41440097650753605
0.4087379832469453
0.5838155547589501
0.7145311563095422
0.702883107761218
0.7139347604502986
0.6969616140921585
0.7037135930575644
0.7241284748414772
0.7531276450327953
0.8095962901864039
0.47055433606934977
0.6807279420182689
0.46366404046473625
0.4305865504091879
0.4234722966125284
0.6892033675547623
0.6781829655918536
0.6733291802771729
0.5932462639554822
0.600984495546201
0.6246162633966652
0.6475987241037159
0.44817993295601044
0.5998594961084862
0.7931217744921807
0.631320507406514
0.6203450774760697
0.6094792059539683
0.620547137864304
0.4300968536879772
0.5261628528080736
0.518074685663884
0.5348197602900289
0.5276861230106508
0.6184478445170067
0.38225693566774865
0.36363793475588
0.4880247868276807
0.5110438032902486
0.524882002307675
0.8425438471603958
0.8488107895251452
0.5442755740481662
0.4592569431663359
0.3625458834720508
0.6024159060457999
0.5952277945234097
0.46029085025760486
0.44172824351731527
0.5906175988976416
0.6450584101220983
0.6506492458057241
0.596289758057056
0.6140581724082554
0.5286265842258574
0.9021228812966894
0.47378284320048536
0.486524312969529
0.5117320588187558
0.5741517263153907
0.8976343670221486
0.4316022104682017
0.4785495414625527
0.3792266017996932
0.455579703937258
0.6804026875788867
0.38323974301564767
0.5667996762463006
0.7335059621735
0.7115851291320981
0.7346355582579366
0.6723609313404004
0.4937027408859465
0.41933933566948955
0.6450960489969029
0.4637498805776543
0.4679113302883261
0.4638626243191774
0.4358169776593951
0.417678724427805
0.4286041315206483
0.5250132263339435
0.506374938989284
0.6327617989415703
0.3659014700203482
0.372564909140024
0.36925082784588004
0.6293661340986149
0.573180550954609
0.5283672874740373
0.5045612172381658
0.49014791462697094
0.5335964700617682
0.5334327294216212
0.5366794211486509
0.48641972631902286
0.48037122314643516
0.4837582304062698
0.4713951754600531
0.4774575882523204
0.4705730589666894
0.5921502247774492
0.45327721655301106
0.4686376712868737
0.8892798700273133
0.5416954090261237
0.5173704695874322
0.5106416072222733
0.5022083777058289
0.5156063988149536
0.5057825634246812
0.5066775006498094
0.3928578638360562
0.39113383433860566
0.3865593088081898
0.3888740181268956
0.39420003057720693
0.3896574444414426
0.3957079406418188
0.46447606653826395
0.39161354402409876
0.3970059001645293
0.5227582680353955
0.40964241414431296
0.40269990131094613
0.38600706399200113
0.6293740385512001
0.6445072405803207
0.7301578647265942
0.7526921829685081
0.5779476513344765
0.34429360008280435
0.32151703674217735
0.2616056820960146
0.2948345353437077
0.32592821142483186
0.28014103420523745
0.298173490511112
0.24322526431140437
0.26763446711547545
0.22307102248410918
0.2563025977484102
0.22763432887778617
0.25433605478802196
0.23664069374587826
0.25714257057225
0.24869495015690318
0.2647052464325838
0.25981276450068946
0.2743230269144589
0.2723162741052071
0.2849443613459427
0.2848995083176221
0.29637103081421823
0.2971865280841526
0.3078386254314494
0.3072622000365157
0.3181009859418997
0.3109322377131922
0.28057303923071963
0.28738979046277
0.261312293837444
0.31788257648983875
0.23081761293530878
0.3186195265343166
0.32817617023577667
0.32942011622959755
0.3385324438255227
0.27660872789252033
0.2000344323169125
0.3089468157018863
0.21301147342199936
0.34085473415189077
0.34911623667907193
0.3468750815513995
0.3210577573321485
0.315187386853343
0.33235280917646154
0.3444601224598969
0.3370635951372685
0.23798234982167335
0.18796155064399464
0.35661239341860373
0.35507293220356034
0.3467413245937844
0.35495806899956384
0.90050982911275
0.875103298175043
0.48132040958913197
0.7795138024626278
0.8081760606982782
0.48826002263985274
0.503096524013582
0.419482127569216
0.4987039196901278
0.35955927316808706
0.44251571932451333
0.43912343262332926
0.4441852109691389
0.47833245275306685
0.36628117345602557
0.4734484431811206
0.4744069611394021
0.3521005044007537
0.32770163328300367
0.36185670745699433
0.3185419282199459
0.3882494780667579
0.37506909324944293
0.38271700978540235
0.37832487911216767
0.4091382933607758
0.4187952410667054
0.40459056639499863
0.41407798564561815
0.39978078330659195
0.40952360943387134
0.39553287761524086
0.40487307970081804
0.4194229256506342
0.4131666320672506
0.4701221460942779
0.45624505155112294
0.4599687961686808
0.443458129478249
0.38419767049592146
0.2942256909347093
0.28723496814376465
0.2905644584541651
0.2796638483739067
0.5213673477906953
0.5102658757623282
0.5328412377126934
0.3878192688981972
0.34555520414811836
0.3372384567996515
0.6734250462045337
0.48848618354138745
0.46630287264169
0.45411911702962876
0.46046116311457924
0.43789359237303943
0.4089402863981929
0.4139907402024269
0.38467868107421604
0.38641165540195166
0.42420431722974494
0.526566526698636
0.38705606315110924
0.31584553036340873
0.34875890723552483
0.4843382167973193
0.5063689777438413
0.6301345289378182
0.6323778020329358
0.6115301757720574
0.5456015758379748
0.5711776622436723
0.426342111349385
0.19471584428317598
0.19479145327057218
0.38315137489636425
0.5820191247067439
0.610567803284877
0.6384007469320876
0.6582418414244853
0.5427525433388901
0.5992921351009673
0.6133630249658435
0.606017151985931
0.5899149805622862
0.5932647544168936
0.4899599618210288
0.5007706942363869
0.5055882329136616
0.49731675926432334
0.3780292104495426
0.49833905655462823
0.49624150403840367
0.7754038981285887
0.27459957366055415
0.26527722764488226
0.27440767093810686
0.26006447599646754
0.4554480175141374
0.48706738575616737
0.4951778830456534
0.611695368816094
0.4167403945352443
0.5821765883275358
0.5663382926877589
0.5587657977283762
0.5401350782748497
0.5380795073037447
0.5533744398243783
0.530549698844218
0.7771252794608473
0.7709601308465324
0.7351264535232634
0.3659134902645422
0.38660398770650395
0.3570069299159951
0.35629162569739203
0.5359935783978851
0.5189158998381224
0.429714618274687
0.5141334174696484
0.44931030170837755
0.4323980382216802
0.45428428819728056
0.4690819618921397
0.6164164460467577
0.35421520878621
0.3519876745905983
0.6433748739459352
0.7956572971649609
0.3981257793532846
0.38233837676255705
0.4093395349029411
0.6491272448271141
0.6139734568046964
0.6783074000024555
0.516541486478778
0.6273484646858473
0.4550142943577174
0.3632233290762331
0.486060483702834
0.49946560699367676
0.5183793473035064
0.3756185082542056
0.3552896715328656
0.6483661979926753
0.63885420993369
0.20934265418819215
0.8753661546495655
0.8833025129919956
0.6201405412067093
0.6317428139330341
0.6210979688040301
0.6441649218871384
0.6395293649117024
0.30049294601150767
0.30897035978802595
0.41972007531120764
0.5262459080362788
0.43614666010834496
0.621581210243238
0.6536918426849824
0.6591212233715996
0.25176877839467177
0.2440584004814041
0.48728961461558323
0.3665213984731943
0.36230115606583263
0.5536953877523358
0.4779741114526858
0.4547422734848175
0.36549133130638833
0.8415193302291094
0.8576216493729463
0.4043219857030679
0.3981701158661231
0.6299248748820978
0.6074272068279087
0.390969764270872
0.38238535244126726
0.17070093794087285
0.9184032857375128
0.3901023934514137
0.330246781332664
0.3338711604263492
0.39847022804628185
0.38789521975689517
0.34154176580935786
0.33045125024784977
0.3354008154907344
0.32513780274805854
0.33028526010494985
0.3192936261225264
0.314064106578917
0.30829527951921293
0.30237796551891094
0.2974607723975686
0.3266196972264852
0.54846164944354
0.3930336773193183
0.40426085869261585
0.24743665534894438
0.16238117852299622
0.15414700295974423
0.20157453380558896
0.1955995776240458
0.1642554084307738
0.1381703033301861
0.13136346441960217
0.3812873153210958
0.3613177934962651
0.47604570100828597
0.44587007758677827
0.4425042477389116
0.6861193681666731
0.6997243863775128
0.43476101417851776
0.4392762298567644
0.4284568961901164
0.34008997368056154
0.11289030018628161
0.30348977212860795
0.2924310444640555
0.28583339630646853
0.28147511374288703
0.274127037219268
0.4509921650810594
0.4620430642071066
0.13866982511764195
0.6781920310460336
0.5970459745221833
0.4915656523874884
0.36736303170482987
0.3246439611078374
0.3103156913502267
0.38882933761774385
0.5407278460628413
0.6053167655245126
0.58613384184831
0.4356499009165378
0.6532281008171466
0.6686261008171358
0.6820526465100292
0.7007959923663518
0.4576641430457482
0.4871152793070692
0.46219684313113485
0.4423949887342877
0.4283558410749265
0.4170130293212141
0.7069715187672395
0.36276835484732056
0.2677118213418127
0.21504964211242447
0.21371532184841896
0.23035465114815698
0.2217966436910235
0.23726298687596697
0.20379937921549068
0.24733349009892305
0.2512814092034995
0.21666918445883326
0.5325153854840137
0.2595487948958869
0.5167569960900587
0.35664839127144676
0.673079220269142
0.6769139275891691
0.1955457470705004
0.1840649601015252
0.4543643290843817
0.7415683952762697
0.7482779159901366
0.7426409759108157
0.7581940859228414
0.7487477277591138
0.7702301474760864
0.4697553677515325
0.4740116268465718
0.47853460143235416
0.47445707799211684
0.47792109016250983
0.4691260782360764
0.47565309188212734
0.46588230635282446
0.4577683266191919
0.4833300256699593
0.4550839128583974
0.48512136480795953
0.4764482097975657
0.4870483970024935
0.46664657604840704
0.4719868535118384
0.4946214973896294
0.482120855685665
0.48950668140610976
0.29530398145048614
0.2638929631975011
0.35457431440164877
0.214653298420893
0.22074968654881066
0.6924059945097809
0.4715713588582633
0.3215686530059305
0.30682091207115353
0.3046434184343869
0.31078440976147664
0.32588683862411744
0.31714335841855956
0.32378151204965205
0.3134992088705535
0.2508061876267684
0.4337132000907668
0.45578136678032516
0.47710298334599993
0.5037442756070306
0.47496622204565
0.501419458485302
0.3978070398047711
0.282198060071911
0.28489802370011164
0.29881019553923255
0.31023345288543464
0.3241105422318746
0.2746711544065019
0.5512905711620631
0.38368047153957185
0.3840130182443183
0.16229761993365188
0.5707040425298757
0.7703687851532544
0.3806978784386324
0.40060990007003866
0.4648873541414102
0.45285758236629425
0.7187726623395428
0.5202162535057306
0.5018882668920691
0.5032299426890442
0.494885883855811
0.49580101251455605
0.48510122566635105
0.48333190736042597
0.49118129990627035
0.47001163004136
0.4901593669062606
0.48301847275183396
0.507783073137405
0.474062310105298
0.5037082429622887
0.6840203932590282
0.39828473326946434
0.4554057369515414
0.35534219775402703
0.45594960018879754
0.3486690333779824
0.33000312141990523
0.3423096792800592
0.3245777031840327
0.30580747571089584
0.30483610484011214
0.31951544730822506
0.35689912816210895
0.3923712727410145
0.34146338354250294
0.5692288666399029
0.49406056017910177
0.61773085466216
0.30445438331041563
0.6578848837172888
0.5532671305868433
0.5626856350827487
0.28880447856369434
0.3894901581455318
0.4289251079946854
0.4251925719810524
0.42040392230829954
0.4028103178284163
0.29290679254180507
0.8360229878297315
0.7143785356689522
0.8658665962962079
0.22809534032266335
0.5533831114606523
0.579813983425179
0.6870201713728624
0.7595366227980863
0.3733340512533021
0.4261747382601987
0.5378344195993736
0.32618194680903434
0.33243949855546123
0.32440754521052595
0.3791977317065898
0.3372244614004156
0.3762735527434053
0.3198088279439918
0.32396556627184137
0.49216301300796783
0.498489293319858
0.4396396920072211
0.4527982502841542
0.31468680485070993
0.5421205056004359
0.5084296485387346
0.6338647585582436
0.4599151704965535
0.23918193763245257
0.47973018496156145
0.27103951946069776
0.5895061618440929
0.4963059168421482
0.4502396271726266
0.45948104631750675
0.4449558676886918
0.43158182781457594
0.36795520984153457
0.31584663527002094
0.35042917142655683
0.3993262373306194
0.39814843491210017
0.4807557019441067
0.9014317719239567
0.8722121929368456
0.8890070587155218
0.8644276346791778
0.8491436545469487
0.8322054821606789
0.8441632212953302
0.721316816601211
0.4395906534904892
0.40977517168803074
0.41574738106228476
0.47843157770382394
0.5887581702385681
0.4293856607858052
0.5030089527888446
0.507439341176435
0.49433322024450216
0.4944536164520228
0.5433031253057274
0.4424997820942976
0.3715280023569085
0.34529866349896204
0.5219140655422099
0.5044548842983206
0.3720827274357462
0.4138030653288148
0.4035781423201314
0.39235976007775486
0.3905173637174177
0.3303208421621421
0.12892346020724296
0.824792111515033
0.8106238292567041
0.7957936972909064
0.821366360698881
0.4632763715157312
0.7247866267856111
0.21472366502521367
0.24607323555655106
0.4437088832471882
0.4289195902966553
0.44473948021598536
0.38169331213685465
0.36935901861972226
0.3236121771592952
0.42871812914577956
0.5311978064909175
0.8322665104975815
0.337172564513011
0.3329278838800755
0.5745244545217093
0.7215102000589202
0.5768212153970903
0.5966656313209022
0.4943584549379307
0.41511676291325345
0.4064257366289267
0.39676864346777113
0.3986010643618713
0.4048543200449387
0.4111992980568554
0.3838047145606985
0.7933209689485725
0.7810027536684393
0.7959875474903381
0.8117032663059341
0.8300639565573579
0.8394230904518063
0.7902342564370807
0.7935848348077856
0.29848814950400393
0.3913091613980554
0.6198775927005966
0.9026318212269128
0.46176663108314686
0.8910116436652256
0.9123316193290275
0.6125476796624069
0.47467116977501483
0.46058497870894766
0.5010012043114961
0.3703129638195432
0.4783681414024561
0.6670654676456964
0.43312999625568777
0.4324167164243303
0.4448415714913576
0.42023535847148585
0.4436260061558707
0.43241358851437056
0.4208680833509643
0.40763050871977413
0.4645500971860587
0.4542262189567857
0.44415404837254907
0.5860954162097202
0.5207233797358285
0.452909769627954
0.39040150202147456
0.3530241451877449
0.4105381443629042
0.39160956300985944
0.3911085966807709
0.39872468559594737
0.7890045936464605
0.8237404662918184
0.8443061814774028
0.8059504186775233
0.6807407366672682
0.35245016670457074
0.5635392821251815
0.5322787720543575
0.8143465343296661
0.5870567172767929
0.4631508748418088
0.435316324389379
0.37654173290074505
0.5110616723953586
0.5291872205744489
0.4765523485117992
0.5791855430273689
0.5762259565089368
0.5847097736627648
0.607511510603698
0.4405947771665223
0.5595423421606388
0.447948018791436
0.3668813920259892
0.3766742845316234
0.32945549435380217
0.45028454509353
0.7978076698125621
0.32402864096242395
0.6485739923755527
0.6526221511983198
0.6834841036053287
0.6539434914468302
0.6827041499360617
0.7141330793210393
0.41423129275867254
0.48903082996892977
0.4883436349323983
0.5368580234211735
0.47392908894936286
0.9182252740663623
0.5551782733376109
0.6262428262431492
0.7278238115225147
0.4334199081806817
0.4816184724269554
0.5498124102583807
0.39520553973755496
0.06457038145879712
0.7580199399924983
0.4334948966220979
0.4749842881674054
0.47846031113172777
0.45337487207188765
0.4561622800513011
0.43212239705299704
0.44010728396999715
0.6596046686898754
0.4292742865467879
0.5024285025904512
0.529232039900735
0.48220475532837
0.5254851744986527
0.5953682509772893
0.7256465012401946
0.3620199151258929
0.5190436523790531
0.5021753719767552
0.4797114522312879
0.4406730988386227
0.5247501899523723
0.3869277128976666
0.45947497376740937
0.3324066094896462
0.3443272493600201
0.39229959955611593
0.5151489330794001
0.5123337410001262
0.5040986487579754
0.4948837230480848
0.6532095702152844
0.585403607538939
0.3618799626746332
0.3649601403871555
0.4142462762307464
0.5359073284666664
0.3984737099261821
0.5173337641713031
0.7713948234551583
0.4821314015379331
0.3863015181174719
0.3991461480487945
0.490461424871258
0.9208042876751434
0.3606745481892535
0.4713121413685551
0.46610362460400123
0.4903697795556333
0.7361736480741797
0.7075038182500892
0.6960661751267536
0.4452174969840411
0.9323254703561288
0.8591130638984847
0.7337887532776454
0.8074047979665779
0.7390320319016189
0.7748806227591811
0.5650780695811447
0.4609078584625131
0.9040688691796785
0.6029054077643675
0.39200351377707604
0.49387881385402954
0.6603485019388001
0.6873580102531056
0.45711125919596635
0.516877587391541
0.7064070040235497
0.43003412406733366
0.37785742078416873
0.4720141331797222
0.44692022175139795
0.2817603138685915
0.4243090305034701
0.5644986225739467
0.23694614348980733
0.2289121423822424
0.5918736755256971
0.5155909335236567
0.5689978393022616
0.4418341484616753
0.846591593829806
0.37051695081556
0.3314374056160649
0.3641549320526771
0.5036591231195422
0.5805009838863552
0.47299088012861623
0.11350264059808773
0.7749065522248128
0.705505026005875
0.4553389145872667
0.6139283568148061
0.469995853803992
0.5953499223996935
0.6271916816020983
0.58607009977118
0.39856358869514796
0.46919922062600306
0.9167714720005644
0.5827214691334737
0.5759794198430831
0.3701636375599837
0.8542778139180308
0.5437362049211406
0.42985290642496027
0.4874911836926589
0.38471937494505526
0.4507955729047085
0.3152382993855851
0.5342527945509401
0.49664183119296984
0.38328946768824834
0.702118871710913
0.2934982581853939
0.28890094889542567
0.8407503857614783
0.6037826836638166
0.80171339190443
0.7284969985919161
0.46953912152462945
0.1458701136786692
0.4816059907062449
0.6096662878692518
0.6016782917707785
0.2662315079454821
0.489027247572863
0.6450322371024778
0.19037471057130656
0.6478497335421239
0.44713278110042637
0.34755973304650245
0.4075997699772696
0.2328168692742647
0.2570658078624783
0.43699413539097454
0.4993260501416126
0.3275542206482916
0.581174046798337
0.4739666486315398
0.6286388542048115
0.6008187521678363
0.45692177017979096
0.693938086947762
0.7079383764935316
0.3770898672943473
0.34841885589864013
0.2770122108834326
0.36759143198329525
0.29790908324965215
0.6172101804341735
0.7133057029448506
0.14651175867473348
0.17535827756862193
0.1952561955506673
0.4140863761885954
0.21871481131462392
0.45412747931588876
0.4928032353284617
0.5443838679196739
0.3180016712246887
0.34020747702119747
0.43532585674538726
0.45790001194151625
0.4034901564514604
0.6000479841307872
0.4564667449584263
0.5238468835467912
0.508066398844821
0.2980593939222746
0.2546245782879929
0.48789365257797995
0.5019920383362287
0.8961727442437054
0.27339311114323067
0.6695992326051081
0.37117491522242063
0.6427705890956443
0.4767288239916269
0.6927100365230998
0.4715208281549141
0.41634695026077834
0.37833720539633225
0.533624356960936
0.5547809596867105
0.5296099664226467
0.8394303425408352
0.33579585917557453
0.26653491521421413
0.5402774221581197
0.6760080632005115
0.3810231476457514
0.5822047960562464
0.42106469960298376
0.6171315749644479
0.44706388120464247
0.47011824605478997
0.27969855523930975
0.5024479749350447
0.059050432913898575
0.3537920050334377
0.49304719291085686
0.41145293841212743
0.3751299910599649
0.5784321797288765
0.6618622534986124
0.39749131065462656
0.32523994999720324
0.6719204864973468
0.3380362327739919
0.5072241186195895
0.4146885748146727
0.48481155571246637
0.26619981280988525
0.3115793588316812
0.4477230678178697
0.47336554800974673
0.45825781745150695
0.2944869940898935
0.31884933121801307
0.6086427464701137
0.6372546648708297
0.3744826847710283
0.36348705105209195
0.29690942476340904
0.715134778873064
0.40992883481764825
0.40344236983479675
0.43813379287436566
0.3165452062899049
0.4879861551762262
0.5709191966508413
0.5318457064981414
0.5094276735312881
0.5286433506271458
0.4628712688254734
0.5359661828348221
0.40733028212382466
0.27539273857282515
0.38732397383415473
0.35152600917202237
0.4142419536190595
0.35485430924717487
0.7794981169978592
0.3951037486164749
0.4681921754526984
0.6860124094053476
0.5326591291579365
0.32928537974232625
0.4414899856972952
0.3875739068641054
0.5104892819530049
0.3918017677382679
0.383471059257823
0.12333334029292875
0.48415879209176543
0.6007525015281084
0.3832483490382152
0.5053459631474724
0.4288279905877034
0.5652917093352045
0.3455800188670217
0.45609878450093294
0.3813465333568727
0.5714495341212136
0.5468945738089638
0.5306522481701543
0.34850821482272054
0.5302716971325854
0.4079154542679128
0.5006343975351452
0.2827603775914909
0.5581962074787922
0.7637999904196537
0.4171809483865374
0.48167297030482065
0.5497778897540709
0.3438777821916634
0.33585702357689506
0.7518446288478563
0.36575792251525024
0.5219828713262602
0.3555645678496396
0.4881880411357844
0.39877460952450344
0.2540213956364854
0.5574644375670947
0.16744565816917314
0.35664076184871857
0.6153858334135898
0.5722145715726191
0.5065543834016897
0.3869627365495538
0.41562165264561096
0.503896242242215
0.2737101555239002
0.4913110701196857
0.44047529555734183
0.4998000920149062
0.5275403118475984
0.3997604237611176
0.23249552248077407
0.6327907268531756
0.6598753534738456
0.3173740404289767
0.47149746846095686
0.45099136106242976
0.2045249649181389
0.3107679373311206
0.18308463314992138
0.28102566681339214
0.47317772797754853
0.49076368664751985
0.4633282910745197
0.7704467830199931
0.36183038787271055
0.8412446798743904
0.40285821594578813
0.5091353506046449
0.5028941209101832
0.32834622066807273
0.2332079627959122
0.24715702849757323
0.43363725866433755
0.5947833938549826
0.5279724804143858
0.5137896432830426
0.4903584453677552
0.49880715484830035
0.4930595780903014
0.6639389975549329
0.28802230340448537
0.291512818712226
0.4633872273555667
0.3029796882707665
0.37656615643444863
0.5709365109880565
0.53175955349239
0.3276165349742839
0.5101883497199708
0.4626941362531675
0.46332244402522166
0.44982667303387724
0.475890363575948
0.4476822173375878
0.809831352417479
0.43878206097524725
0.2880445360329774
0.4033810200269964
0.364743862231354
0.3189618086346056
0.4483178490119119
0.5199132616229654
0.39487283219185654
0.46480972190487513
0.3873356420952368
0.6961754857528624
0.6200921536828694
0.2912192829953552
0.4131867974947834
0.4013857750896399
0.3484510144142131
0.6090270310512165
0.3779355984905453
0.41382861317076547
0.5454480961104604
0.30579364647061613
0.6415713675885981
0.6405365020764049
0.4075271334800239
0.7107144021408922
0.3782169881647649
0.611490337540117
0.4867745568080191
0.5380368684204666
0.4006297819378153
0.13028322704781414
0.2882447343846248
0.6158801577022442
0.3413233590938448
0.2594043522473023
0.44153405674340807
0.4493182357880946
0.38081543652322764
0.7396031849916936
0.7050801767833831
0.4305689966679516
0.6625157085576807
0.33295016235657027
0.4063719452657214
0.48798751918969924
0.7548280239373913
0.47273718585952734
0.49152178829210375
0.446254778783033
0.369849250696515
0.7933346617371219
0.4838114006661231
0.4790036910678448
0.3844727982228605
0.41036399998630707
0.4622441280389369
0.5065600989169617
0.5877624856727975
0.26152920764648185
0.48771974305053767
0.5994404098683602
0.6479581252371892
0.5004000076284024
0.7864486413381979
0.5819946671006033
0.3791318072050375
0.38945829270603766
0.3505430912909539
0.39439484429093874
0.17332321610079568
0.4366824425785871
0.4168161315626963
0.26849730407588884
0.17766129589112864
0.3476157720465859
0.3397475726406829
0.39959476004477695
0.371781811911777
0.5835935899098824
0.7422059860995561
0.4020556610982181
0.25219529304931526
0.31070348589595753
0.17650198071469056
0.49877360314901115
0.2930851130702586
0.37422938272067136
0.5751299647000159
0.3783158186165386
0.49647528158913723
0.6794569280862702
0.48297102302291517
0.5499326919945393
0.8615702841833461
0.5966786917942599
0.615990134782245
0.4893194493421979
0.5582153151946039
0.45736660114698463
0.5075829873346118
0.3440238726832001
0.6365776924978547
0.3827537382806066
0.315345067418408
0.47895926772999564
0.3866342474456185
0.6315775425224578
0.9719145162483391
0.9805748603304276
0.5199066345529912
0.22573944330273588
0.5007607070171747
0.8265277587286612
0.7952542854117965
0.4122966234786859
0.3846985180095698
0.3835241835218929
0.39000568169738076
0.39867003222525876
0.4642853511129525
0.34382865179419436
0.2838651416094347
0.31465901621681425
0.5298654427821227
0.49443289019951375
0.31988548416115276
0.42848775149406165
0.29802923649437973
0.6718428026088976
0.2917469583967777
0.47513199834810016
0.45974215155094084
0.46883672103331075
0.5629604836819047
0.369656171023879
0.36874488409571987
0.1964723192181074
0.35089248743257995
0.4688520864141643
0.8988372561865393
0.48908920250814364
0.4398087219647351
0.28692641615066333
0.44428409453609585
0.2646164477330608
0.42221167738723336
0.428801716828738
0.6047666560049186
0.36278165658906814
0.30350405283346454
0.5609241425416844
0.3407115866288055
0.36695259717209183
0.2894999515658531
0.2394574211457404
0.6462941172251269
0.3063528011436435
0.4815729080276258
0.5716830393119757
0.6786927060847818
0.4384171449193163
0.4189248520955448
0.4040543381903638
0.9262535042282148
0.5717503409673277
0.6646328020679957
0.3950458730204917
0.6621407737380383
0.4055023608949361
0.34632184666607924
0.2955990484293381
0.6852377795171269
0.47386065898343266
0.4533899593264658
0.7966812897545172
0.4582860668006081
0.4759477583100648
0.9346629057148677
0.621762471060102
0.3430589851369873
0.4960443988474903
0.7357352578392076
0.7028620220006265
0.7759607549258347
0.3246104015817412
0.6001235833399903
0.30716527391748794
0.3761826858371746
0.4609288123351052
0.4975619572755925
0.26496442388888186
0.40749672840380013
0.529113181025076
0.48582635002435115
0.36925909300034937
0.7523566834216207
0.48759203720995203
0.3582638620950343
0.49811231017588503
0.5170068788392792
0.5774930929178078
0.4268883439293182
0.37714115914185586
0.3655941835058133
0.6114962158823234
0.46679575841378146
0.3681160823124967
0.42485074445722326
0.5645789733347868
0.4939926809327537
0.37442468920302474
0.3941743254600983
0.4807706018245335
0.42294919028124056
0.44811155076267634
0.42881522185184107
0.3510777673305969
0.3793961368767542
0.6211827977535209
0.8673372559717407
0.5198633302252956
0.5535371508998452
0.5474342694016159
0.4444655972908455
0.9109831006253314
0.5922968628880383
0.4704972159658775
0.47594482057755716
0.40905036569308134
0.4720477996647388
0.45898424579637914
0.4225825890518832
0.37165616522335104
0.4287318546786011
0.39600473491602634
0.454506738707906
0.8003970558451255
0.4449600516207758
0.32850861188653796
0.471419951295514
0.7089812707977088
0.4141879219308223
0.4793423383175645
0.4909851644096875
0.190910339602975
0.43847013793172995
0.3899064606322403
0.17563270345887147
0.18741694958354355
0.10496034044295259
0.31038983516949226
0.3445915748842455
0.4983491616961201
0.4960453964399107
0.6514578138725928
0.47262535894461666
0.33237247597013436
0.41499874287658534
0.8567455269883318
0.49723458022238914
0.4283787196715644
0.5132246417397927
0.3794289846591931
0.3220454293344748
0.5567425326965519
0.28026725349297543
0.43466634791717085
0.42248521549040435
0.46653075378099573
0.6659261562360348
0.38501747193376407
0.4921961289927575
0.3632213045957413
0.49044888213464083
0.5509084793214315
0.6148420527850088
0.7352027667452307
0.668704746666833
0.32111395904548157
0.44275682661487875
0.23457527453373125
0.5787285494988198
0.4823075759427313
0.2692244723244784
0.45576744205398206
0.3538087647334502
0.5533402106125792
0.43596318477153956
0.34510207511009766
0.2905210600595818
0.31183724656458184
0.5945089264232859
0.46889086343432634
0.24416778828915742
0.48662935870309854
0.8956029717588743
0.4920428976899835
0.29567785002747154
0.3516589083949979
0.33302318627030136
0.8251435643278718
0.4074911543253669
0.4088816266417921
0.6121340085458373
0.5413737096150826
0.4796186986380362
0.3773271492125271
0.46168894338543465
0.8437431283924628
0.4042479358306997
0.6003620189485548
0.21504590969005144
0.7645617836317388
0.2865022540479897
0.41248374609607935
0.3306178519131977
0.37347660018538464
0.48357451413307073
0.15325100508314687
0.3064780439760996
0.8786664227538465
0.6247880103225586
0.40532747702069566
0.6209222412087734
0.36424973243614944
0.6654762840119322
0.31260991238106073
0.09038242616873224
0.44037975548658176
0.45949767720227824
0.7771955461038086
0.7039916858190581
0.47920951788178484
0.6403348406816076
0.9008897302660637
0.36794692920515615
0.5592091557676944
0.41490082839243475
0.25219690680359774
0.8906936145053461
0.47056705114191344
0.7729093680570986
CELL_DATA 4886
TENSORS stress float
-9.249217259757683e6 8.536467679912385e6 0.0
8.536467679912385e6 3.8878532438748926e7 0.0
0.0 0.0 0.0

-2.1283896869437188e7 1.3732302320246834e7 0.0
1.3732302320246834e7 7.310738685909601e6 0.0
0.0 0.0 0.0

-1.0968523142042836e7 2.5163306908029158e7 0.0
2.5163306908029158e7 -1.0322615566555727e7 0.0
0.0 0.0 0.0

-3.4260284299318194e6 2.4132037046731494e7 0.0
2.4132037046731494e7 1.4332112587464415e7 0.0
0.0 0.0 0.0

-1.6077552274321653e6 2.8344656907400128e7 0.0
2.8344656907400128e7 -1.3085761242157205e6 0.0
0.0 0.0 0.0

1.4838131580978255e6 2.675841302125247e6 0.0
2.675841302125247e6 -4.037993318063986e6 0.0
0.0 0.0 0.0

6.796004898735677e7 3.161170745150206e7 0.0
3.161170745150206e7 1.7665293888684236e7 0.0
0.0 0.0 0.0

1.9114637666013464e6 2.9648615338326204e6 0.0
2.9648615338326204e6 -5.217851671212646e7 0.0
0.0 0.0 0.0

-8.856155148403363e6 1.039412763896868e7 0.0
1.039412763896868e7 4.0310221106101945e7 0.0
0.0 0.0 0.0

2.331806757574549e6 2.071932096132106e7 0.0
2.071932096132106e7 2.4545649169529315e7 0.0
0.0 0.0 0.0

-600372.9722312549 2.2845592375584718e7 0.0
2.2845592375584718e7 -8.551403934516039e6 0.0
0.0 0.0 0.0

169549.92992039066 3.4612378101467974e7 0.0
3.4612378101467974e7 -1.2968407807229827e6 0.0
0.0 0.0 0.0

694374.3224793877 1.000399192810047e7 0.0
1.000399192810047e7 -4.7699339063250154e7 0.0
0.0 0.0 0.0

9.689336528190155e7 3.5046990160862334e7 0.0
3.5046990160862334e7 1.9412954494558424e7 0.0
0.0 0.0 0.0

-252224.56481618294 2.358633914756992e7 0.0
2.358633914756992e7 -8.522990956174804e6 0.0
0.0 0.0 0.0

3.211141416061922e6 3.951441206503925e6 0.0
3.951441206503925e6 -1.8464484409811687e7 0.0
0.0 0.0 0.0

-4.1233293213619823e6 1.916352891953086e7 0.0
1.916352891953086e7 -2.4441807406571005e7 0.0
0.0 0.0 0.0

-355536.03197060525 1.5161218585220784e7 0.0
1.5161218585220784e7 -3.256674339534912e7 0.0
0.0 0.0 0.0

-8.890891169828711e6 -1.0261535013859394e6 0.0
-1.0261535013859394e6 3.0898354881372683e7 0.0
0.0 0.0 0.0

528693.0221017706 2.65634411440201e7 0.0
2.65634411440201e7 -7.795061474445252e6 0.0
0.0 0.0 0.0

2.044953568482181e6 1.2164457858563835e7 0.0
1.2164457858563835e7 -2.3108742435387123e7 0.0
0.0 0.0 0.0

1.6357570201398148e6 3.421064476315372e7 0.0
3.421064476315372e7 -1.2501796478267787e6 0.0
0.0 0.0 0.0

-1.0569554127876975e7 9.416106563095491e6 0.0
9.416106563095491e6 2.0590994463988233e7 0.0
0.0 0.0 0.0

-1.614187188821363e7 2.603856743503979e7 0.0
2.603856743503979e7 -697753.8420007871 0.0
0.0 0.0 0.0

-967001.2050594073 1.3349896208689565e7 0.0
1.3349896208689565e7 -4.2810460747110866e7 0.0
0.0 0.0 0.0

2.8518780308722246e7 4.800124659958981e7 0.0
4.800124659958981e7 -9.92919138648959e6 0.0
0.0 0.0 0.0

4.559875084526969e7 2.471633564657358e7 0.0
2.471633564657358e7 9.971616783854328e6 0.0
0.0 0.0 0.0

-8.03316539278307e6 1.782989549278428e7 0.0
1.782989549278428e7 2.831738592030516e7 0.0
0.0 0.0 0.0

3.3061269091360215e6 3.956111678511462e6 0.0
3.956111678511462e6 -1.8900842933192264e7 0.0
0.0 0.0 0.0

-8.394902454368042e6 -2.721083542338512e6 0.0
-2.721083542338512e6 1.703545702080371e7 0.0
0.0 0.0 0.0

-1.1221090479211416e7 1.111256844526904e7 0.0
1.111256844526904e7 1.854051048422066e7 0.0
0.0 0.0 0.0

1.3151703082996449e6 9.329711872573404e6 0.0
9.329711872573404e6 -9.37209334407874e6 0.0
0.0 0.0 0.0

2.567282117580431e6 2.300232309144639e7 0.0
2.300232309144639e7 9.86869606411469e6 0.0
0.0 0.0 0.0

-90941.0896800217 2.042400253233998e7 0.0
2.042400253233998e7 286006.74156175245 0.0
0.0 0.0 0.0

-2.896918592515164e6 2.5305231267292615e7 0.0
2.5305231267292615e7 5.547235768041705e6 0.0
0.0 0.0 0.0

-1.1511864802390633e7 7.949323070694545e6 0.0
7.949323070694545e6 1.7458639968690563e7 0.0
0.0 0.0 0.0

-9814.168748159427 1.3483239800265945e7 0.0
1.3483239800265945e7 -8.099636389049638e6 0.0
0.0 0.0 0.0

-2.2843346016107895e6 2.4966737868327264e7 0.0
2.4966737868327264e7 6.137807043131804e6 0.0
0.0 0.0 0.0

-5.506207575971916e6 1.6662403310081448e7 0.0
1.6662403310081448e7 -4.4742719190567955e7 0.0
0.0 0.0 0.0

-2.561471235650706e6 3.0590619297996376e7 0.0
3.0590619297996376e7 1.7364891122090179e6 0.0
0.0 0.0 0.0

-326769.77694867924 1.0134419197165746e7 0.0
1.0134419197165746e7 -5.203346800622504e7 0.0
0.0 0.0 0.0

-1.374976783974753e7 2.6940755672529828e7 0.0
2.6940755672529828e7 -1.1448499010549903e7 0.0
0.0 0.0 0.0

-2.479797357609121e6 2.9787259634671535e7 0.0
2.9787259634671535e7 1.601021041073225e6 0.0
0.0 0.0 0.0

-1.0708293201598505e7 5.882143149542756e6 0.0
5.882143149542756e6 2.8016277952748064e7 0.0
0.0 0.0 0.0

1.4566293274599873e6 1.2041171199971627e7 0.0
1.2041171199971627e7 -2.5319959624247387e7 0.0
0.0 0.0 0.0

-6.545155285143685e6 1.899418100451534e7 0.0
1.899418100451534e7 2.6649572960343312e7 0.0
0.0 0.0 0.0

1.086886893569462e6 2.2562102752102107e7 0.0
2.2562102752102107e7 -1.3490969311404072e7 0.0
0.0 0.0 0.0

-818180.698830565 1.2954675454298379e7 0.0
1.2954675454298379e7 -8.98842533009208e6 0.0
0.0 0.0 0.0

2.410510020460069e6 3.005080198214357e6 0.0
3.005080198214357e6 -4.311936519766062e7 0.0
0.0 0.0 0.0

5.687959148027176e6 1.8291719933034133e7 0.0
1.8291719933034133e7 1.8959863780663338e7 0.0
0.0 0.0 0.0

-638684.8797494452 2.9613154874832425e7 0.0
2.9613154874832425e7 -426963.77649385086 0.0
0.0 0.0 0.0

-1.5301659427580167e7 1.1536302057849977e7 0.0
1.1536302057849977e7 6.601303314744243e6 0.0
0.0 0.0 0.0

2.447144291404538e6 3.056092841177533e6 0.0
3.056092841177533e6 -4.477067789843202e7 0.0
0.0 0.0 0.0

-1.4565950338191562e6 2.7397942034732055e7 0.0
2.7397942034732055e7 1.0771997572958027e6 0.0
0.0 0.0 0.0

6.223869731682324e6 1.8378317266625013e7 0.0
1.8378317266625013e7 2.2857562036086038e7 0.0
0.0 0.0 0.0

-8.537549176364582e6 2.7161163901621345e7 0.0
2.7161163901621345e7 6.160429343784157e6 0.0
0.0 0.0 0.0

1.5454169391564615e6 3.7279882967952397e6 0.0
3.7279882967952397e6 -5.7297702863389224e7 0.0
0.0 0.0 0.0

-1.8357578276446227e6 3.084362499965134e7 0.0
3.084362499965134e7 1.809909036529005e6 0.0
0.0 0.0 0.0

6.241017815120376e6 1.993638825695781e7 0.0
1.993638825695781e7 4.389591111344469e7 0.0
0.0 0.0 0.0

2.1410966562606953e6 1.0949465667113258e7 0.0
1.0949465667113258e7 -2.8053716679587975e7 0.0
0.0 0.0 0.0

-2.7891865963553833e6 1.844949389394769e7 0.0
1.844949389394769e7 -1.2292634986003492e7 0.0
0.0 0.0 0.0

3.361516741956582e7 2.739107772107504e7 0.0
2.739107772107504e7 1.972877667968519e6 0.0
0.0 0.0 0.0

-4.632984226593892e6 2.1433427571887605e7 0.0
2.1433427571887605e7 -1.4737934380573751e7 0.0
0.0 0.0 0.0

-9.495557795803318e6 379507.0251041976 0.0
379507.0251041976 1.7789292334499795e7 0.0
0.0 0.0 0.0

-115626.40632980721 6.706914681425172e6 0.0
6.706914681425172e6 -1.0837090853994235e6 0.0
0.0 0.0 0.0

2.202445061550094e6 4.428873262105153e6 0.0
4.428873262105153e6 -4.202139455220645e7 0.0
0.0 0.0 0.0

1.3378026200868636e6 8.659557175746182e6 0.0
8.659557175746182e6 -4.7368985673917584e7 0.0
0.0 0.0 0.0

-2.20846428324592e6 2.692999391737821e7 0.0
2.692999391737821e7 268244.52047574625 0.0
0.0 0.0 0.0

3.0249431557189133e6 1.98077427962795e7 0.0
1.98077427962795e7 3.601978192879321e7 0.0
0.0 0.0 0.0

2.413927081582054e7 1.9189199287494835e7 0.0
1.9189199287494835e7 5.019602433007521e6 0.0
0.0 0.0 0.0

-1.157662479963313e7 7.68815488762538e6 0.0
7.68815488762538e6 2.5453513395199645e7 0.0
0.0 0.0 0.0

-45132.8832916785 1.343780388124825e7 0.0
1.343780388124825e7 -3.95993871346799e7 0.0
0.0 0.0 0.0

-5.054397680107388e6 1.781145565261262e7 0.0
1.781145565261262e7 -4.110646507983641e7 0.0
0.0 0.0 0.0

8.345653880680002e6 1.957729551690294e7 0.0
1.957729551690294e7 5.917000307503739e7 0.0
0.0 0.0 0.0

-3.201277884806459e6 2.427400334457796e7 0.0
2.427400334457796e7 1.3694294041057892e7 0.0
0.0 0.0 0.0

-6.786970684464654e6 1.9278768232876595e7 0.0
1.9278768232876595e7 2.617039012839283e7 0.0
0.0 0.0 0.0

-1.281676553051727e6 1.4754800824381037e7 0.0
1.4754800824381037e7 1.1018546697553804e7 0.0
0.0 0.0 0.0

-3.189912067313797e6 1.886064158191965e7 0.0
1.886064158191965e7 -2.4011538968322404e7 0.0
0.0 0.0 0.0

-895651.3509639362 2.031101682811461e7 0.0
2.031101682811461e7 -1.2400477016231857e7 0.0
0.0 0.0 0.0

829289.1244264012 1.5178029935853248e7 0.0
1.5178029935853248e7 -2.0306735004770964e7 0.0
0.0 0.0 0.0

2.684793589273022e7 2.896232395892916e7 0.0
2.896232395892916e7 -3.458418458151698e6 0.0
0.0 0.0 0.0

-8.767696516517537e6 -663633.4941431996 0.0
-663633.4941431996 3.6256795019572854e7 0.0
0.0 0.0 0.0

1.7823231828175988e6 2.104556361832929e7 0.0
2.104556361832929e7 -2.01920134870927e6 0.0
0.0 0.0 0.0

1.7547563588802984e6 3.589554864255216e7 0.0
3.589554864255216e7 -2.1582938872675924e6 0.0
0.0 0.0 0.0

-3.5600130619119564e6 2.4224262739212506e7 0.0
2.4224262739212506e7 1.4444288803334404e7 0.0
0.0 0.0 0.0

3.149505535603011e6 3.3768286909585823e6 0.0
3.3768286909585823e6 -2.6436898724441517e7 0.0
0.0 0.0 0.0

756233.4566499158 8.339161718488863e6 0.0
8.339161718488863e6 -1.0606336753039451e7 0.0
0.0 0.0 0.0

2.360051522111135e6 2.182150936728624e7 0.0
2.182150936728624e7 9.037015737981308e6 0.0
0.0 0.0 0.0

2.3833454530177824e7 4.9587523643123426e7 0.0
4.9587523643123426e7 -1.2406546065869456e7 0.0
0.0 0.0 0.0

-7.50297389327421e6 9.419376919720154e6 0.0
9.419376919720154e6 4.908493400875102e7 0.0
0.0 0.0 0.0

1.8302388254296035e6 2.2723798250016734e7 0.0
2.2723798250016734e7 -7.511103395608698e6 0.0
0.0 0.0 0.0

-2.188343323724046e6 2.073571789776748e7 0.0
2.073571789776748e7 -1.5408926383651808e7 0.0
0.0 0.0 0.0

-745903.6728211239 1.1812402268114852e7 0.0
1.1812402268114852e7 -7.535066235309267e6 0.0
0.0 0.0 0.0

-1.3441152192011927e6 5.5819072988217715e6 0.0
5.5819072988217715e6 -2.69859303274847e6 0.0
0.0 0.0 0.0

6.300638349674614e6 2.365623961429092e7 0.0
2.365623961429092e7 -4.229865454400957e6 0.0
0.0 0.0 0.0

-4.514921912899996e6 1.8596208944248036e7 0.0
1.8596208944248036e7 -3.3195445357936587e7 0.0
0.0 0.0 0.0

1.8603790953675583e6 2.9631670946895713e6 0.0
2.9631670946895713e6 -5.19718001751639e7 0.0
0.0 0.0 0.0

-3.7421277851550756e6 2.4810776739132125e7 0.0
2.4810776739132125e7 1.236101899482294e7 0.0
0.0 0.0 0.0

1.5254370599317253e6 9.51954139955096e6 0.0
9.51954139955096e6 -3.734995984502329e7 0.0
0.0 0.0 0.0

1.5298042219315805e6 3.716375663508543e6 0.0
3.716375663508543e6 -5.805921529688639e7 0.0
0.0 0.0 0.0

-2.8609101050575934e6 2.2853867736429248e7 0.0
2.2853867736429248e7 1.5551648771284798e7 0.0
0.0 0.0 0.0

-5.837682481305063e6 1.9713615162585963e7 0.0
1.9713615162585963e7 -2.005600702591801e7 0.0
0.0 0.0 0.0

-1.090238025739941e7 9.729215490833765e6 0.0
9.729215490833765e6 2.256917727828901e7 0.0
0.0 0.0 0.0

-1.359322597471266e6 2.8978840883320656e7 0.0
2.8978840883320656e7 1.1974420930734398e6 0.0
0.0 0.0 0.0

-340435.6059564031 1.2021439246515643e7 0.0
1.2021439246515643e7 -5.286639964982229e6 0.0
0.0 0.0 0.0

-5.08602812634132e6 1.5106487327026796e7 0.0
1.5106487327026796e7 1.3778282149601955e7 0.0
0.0 0.0 0.0

-8.5417599243166e6 -492871.5191398822 0.0
-492871.5191398822 3.658276325903103e7 0.0
0.0 0.0 0.0

1.3414797753272e6 1.5443238194787744e7 0.0
1.5443238194787744e7 -1.890932206339086e7 0.0
0.0 0.0 0.0

944849.6939777088 3.382163273286675e7 0.0
3.382163273286675e7 -1.476079273941547e6 0.0
0.0 0.0 0.0

-9.806934210932728e6 8.776004684856806e6 0.0
8.776004684856806e6 1.881152505041072e7 0.0
0.0 0.0 0.0

141004.2409172915 8.775085844316559e6 0.0
8.775085844316559e6 -5.137425343049547e7 0.0
0.0 0.0 0.0

-2.549876057948849e6 1.2971859204220567e7 0.0
1.2971859204220567e7 -3.1783337903101915e6 0.0
0.0 0.0 0.0

1.1225755695390029e7 2.442934638020042e7 0.0
2.442934638020042e7 1.3290451164316718e7 0.0
0.0 0.0 0.0

4.62570101205686e7 2.5606566211062875e7 0.0
2.5606566211062875e7 9.567944589529227e6 0.0
0.0 0.0 0.0

2.9935959935391042e6 6.319991076265615e6 0.0
6.319991076265615e6 -2.4069274503953736e7 0.0
0.0 0.0 0.0

-6.630829617114383e6 1.8433475894749414e7 0.0
1.8433475894749414e7 -4.199130802842243e7 0.0
0.0 0.0 0.0

2.7275958156368565e6 6.247852718143782e6 0.0
6.247852718143782e6 -2.5354045347901985e7 0.0
0.0 0.0 0.0

3.3652070110830367e6 3.4202017182705314e6 0.0
3.4202017182705314e6 -2.7460316183128964e7 0.0
0.0 0.0 0.0

3.834002621079591e7 1.5993999670507433e7 0.0
1.5993999670507433e7 2.111283643443955e6 0.0
0.0 0.0 0.0

-1.1837955480830329e7 4.0897698433083475e7 0.0
4.0897698433083475e7 3.4164153366711093e6 0.0
0.0 0.0 0.0

-4.253475247623361e6 1.6973641360034212e7 0.0
1.6973641360034212e7 -3.775609391812536e7 0.0
0.0 0.0 0.0

-1.2743950965666037e7 2.5325182839261163e7 0.0
2.5325182839261163e7 -3.70032305252908e6 0.0
0.0 0.0 0.0

3.121112065211199e6 3.376543473557136e6 0.0
3.376543473557136e6 -3.5996643695122965e7 0.0
0.0 0.0 0.0

-8.89570365517841e6 2.693956662750316e7 0.0
2.693956662750316e7 6.918220094484394e6 0.0
0.0 0.0 0.0

1.1310434612770366e7 3.440904102817085e7 0.0
3.440904102817085e7 -5.341986758422312e6 0.0
0.0 0.0 0.0

-9.223043859763978e6 1.1699924117926043e7 0.0
1.1699924117926043e7 3.729056891380142e7 0.0
0.0 0.0 0.0

1.6517009663838346e7 4.818780921956797e7 0.0
4.818780921956797e7 -7.771218088648186e6 0.0
0.0 0.0 0.0

-923613.4174291114 2.1496578962187875e7 0.0
2.1496578962187875e7 -827911.0347727494 0.0
0.0 0.0 0.0

2.2709912009656653e6 2.9265843859599456e6 0.0
2.9265843859599456e6 -4.592868435657424e7 0.0
0.0 0.0 0.0

3.431773091224572e7 2.1788941903295025e7 0.0
2.1788941903295025e7 7.890002583785115e6 0.0
0.0 0.0 0.0

-2.231751019541952e6 2.226716367667924e7 0.0
2.226716367667924e7 1.5887209961709868e7 0.0
0.0 0.0 0.0

1.7006802754978668e6 6.478831117807921e6 0.0
6.478831117807921e6 -4.121737173714769e7 0.0
0.0 0.0 0.0

1.5506742079884857e6 2.7112816621664997e7 0.0
2.7112816621664997e7 -6.893800371322056e6 0.0
0.0 0.0 0.0

1.8947171777907931e6 2.189402636292363e7 0.0
2.189402636292363e7 -8.523391551933102e6 0.0
0.0 0.0 0.0

-4.0748756612033513e6 2.0100596678221345e7 0.0
2.0100596678221345e7 -1.5159972556282125e7 0.0
0.0 0.0 0.0

-970623.0221597357 2.129046387493157e7 0.0
2.129046387493157e7 -1.0791432007971067e7 0.0
0.0 0.0 0.0

1.45026149238972e7 2.5113441180677578e7 0.0
2.5113441180677578e7 1.3279073986451155e7 0.0
0.0 0.0 0.0

-268663.3213106878 7.070594910245595e6 0.0
7.070594910245595e6 -7.206540475878216e7 0.0
0.0 0.0 0.0

-4.860464882147048e6 2.5655265541708507e7 0.0
2.5655265541708507e7 1.1787322089273117e7 0.0
0.0 0.0 0.0

996579.0325447146 4.593944582563327e6 0.0
4.593944582563327e6 -3.405169063743959e6 0.0
0.0 0.0 0.0

-8.45189313426516e6 1.6362441346145127e7 0.0
1.6362441346145127e7 2.9043178054344803e7 0.0
0.0 0.0 0.0

3.6027271272653583e6 3.943973463423094e6 0.0
3.943973463423094e6 -2.3883036972861465e7 0.0
0.0 0.0 0.0

-7.690565960673297e6 -1.1924593015396632e6 0.0
-1.1924593015396632e6 4.3570127536307454e7 0.0
0.0 0.0 0.0

1.234636090206189e6 1.637779753766039e7 0.0
1.637779753766039e7 -2.307298974179377e7 0.0
0.0 0.0 0.0

677890.8353060677 2.323339506049331e6 0.0
2.323339506049331e6 -3.4259800385508947e6 0.0
0.0 0.0 0.0

5.02590941160011e6 1.924844352637757e7 0.0
1.924844352637757e7 2.190969931243172e7 0.0
0.0 0.0 0.0

-2.556033254615673e6 3.0040507676175546e7 0.0
3.0040507676175546e7 3.9624882663395833e6 0.0
0.0 0.0 0.0

-8.521799589235818e6 244497.5554505718 0.0
244497.5554505718 4.1639914181817286e7 0.0
0.0 0.0 0.0

-1.362521071042765e6 2.1980192951753903e7 0.0
2.1980192951753903e7 9.56813906793006e6 0.0
0.0 0.0 0.0

6.739361431939969e6 2.514118146597682e7 0.0
2.514118146597682e7 -5.328745391865371e6 0.0
0.0 0.0 0.0

-2.242683099250379e6 2.601434485414786e7 0.0
2.601434485414786e7 44426.8175798218 0.0
0.0 0.0 0.0

-5.679858892479785e6 2.3200698211036257e7 0.0
2.3200698211036257e7 -1.1456763971578019e7 0.0
0.0 0.0 0.0

-1.681017802988546e6 2.615415298634053e7 0.0
2.615415298634053e7 1.8494240716450782e6 0.0
0.0 0.0 0.0

-6.894455431475093e6 1.838934287499924e7 0.0
1.838934287499924e7 -2.2855083588198837e7 0.0
0.0 0.0 0.0

2.251772189054541e7 2.822397773822108e7 0.0
2.822397773822108e7 -3.616486767190205e6 0.0
0.0 0.0 0.0

-2.1246275922016967e6 1.9561225396836948e7 0.0
1.9561225396836948e7 -1.679979075543213e7 0.0
0.0 0.0 0.0

-3.0086997631575074e6 2.0820254824935112e7 0.0
2.0820254824935112e7 2.6303063603266217e7 0.0
0.0 0.0 0.0

5.985637958632477e6 2.3019988861802194e7 0.0
2.3019988861802194e7 1.5459328746001927e7 0.0
0.0 0.0 0.0

1.8048361578006558e6 1.1086153336828172e7 0.0
1.1086153336828172e7 -2.708730659029692e7 0.0
0.0 0.0 0.0

-6.551490821272778e6 1.433530642015601e7 0.0
1.433530642015601e7 1.2772294723308973e7 0.0
0.0 0.0 0.0

-3.1616506366145867e6 3.4999263280819185e7 0.0
3.4999263280819185e7 1.2536542416383002e6 0.0
0.0 0.0 0.0

-4.742995298017036e6 2.1306078687152997e7 0.0
2.1306078687152997e7 1.826156161124741e7 0.0
0.0 0.0 0.0

4.572317679021186e6 3.722913224282126e7 0.0
3.722913224282126e7 -1.8602709324610361e6 0.0
0.0 0.0 0.0

659511.8484665081 1.5997212975340255e7 0.0
1.5997212975340255e7 -2.4598452995209586e7 0.0
0.0 0.0 0.0

-2.5938813015928578e7 2.917405527938457e7 0.0
2.917405527938457e7 -1.094219278152687e7 0.0
0.0 0.0 0.0

2.2370146782689244e6 4.764622542502107e6 0.0
4.764622542502107e6 -5.112712392388653e7 0.0
0.0 0.0 0.0

1.5046692270099193e7 3.737872841123081e7 0.0
3.737872841123081e7 -5.103794582049473e6 0.0
0.0 0.0 0.0

-2.0831298344852343e7 3.472408006660472e7 0.0
3.472408006660472e7 6.632562846572975e6 0.0
0.0 0.0 0.0

2.0089284306774912e6 2.0527045321780402e7 0.0
2.0527045321780402e7 2.236363402445588e7 0.0
0.0 0.0 0.0

-3.903113594976606e7 3.5070741574011356e7 0.0
3.5070741574011356e7 5.81071809843136e6 0.0
0.0 0.0 0.0

2.485006643635474e6 2.9921165303249247e6 0.0
2.9921165303249247e6 -4.7374715721544676e7 0.0
0.0 0.0 0.0

-4.240410724656545e6 2.1042566005682588e7 0.0
2.1042566005682588e7 1.9683940901200112e7 0.0
0.0 0.0 0.0

-1.0611377962967815e7 8.543038018109106e6 0.0
8.543038018109106e6 1.589622605758838e7 0.0
0.0 0.0 0.0

3.2152951991072595e6 2.9685864615419502e6 0.0
2.9685864615419502e6 -2.52113489134523e7 0.0
0.0 0.0 0.0

965732.8276838851 2.180440618262316e7 0.0
2.180440618262316e7 -1.055369900676307e7 0.0
0.0 0.0 0.0

-7.465769353872735e6 4.254406770765558e7 0.0
4.254406770765558e7 4.84413728787172e6 0.0
0.0 0.0 0.0

-1.4327304219592221e7 1.8979362871948466e7 0.0
1.8979362871948466e7 4.971895504643292e6 0.0
0.0 0.0 0.0

-3.9470055842538066e7 2.9682976294697486e7 0.0
2.9682976294697486e7 -820465.5932224486 0.0
0.0 0.0 0.0

4.909144570413705e7 2.5738424888934776e7 0.0
2.5738424888934776e7 1.8687466583163235e7 0.0
0.0 0.0 0.0

-8.721998538262472e6 1.727432186188127e7 0.0
1.727432186188127e7 -9.208386780677661e7 0.0
0.0 0.0 0.0

-279995.0374074131 2.061511265867551e7 0.0
2.061511265867551e7 -1.3713227390819997e7 0.0
0.0 0.0 0.0

-2.613704175251037e6 2.0242369723555766e7 0.0
2.0242369723555766e7 2.647929802249721e7 0.0
0.0 0.0 0.0

1.620625737492886e6 2.4811624449336104e7 0.0
2.4811624449336104e7 -1.028021408715369e7 0.0
0.0 0.0 0.0

-766029.9271650715 2.8796362007238157e7 0.0
2.8796362007238157e7 -568126.9932770653 0.0
0.0 0.0 0.0

3.6023345709604826e6 1.805102274231654e7 0.0
1.805102274231654e7 1.260590050259445e7 0.0
0.0 0.0 0.0

3.898051728642503e6 3.632365645753386e7 0.0
3.632365645753386e7 -1.81997473957785e6 0.0
0.0 0.0 0.0

-1.069081637089714e7 9.425894162027411e6 0.0
9.425894162027411e6 1.8914642391159903e7 0.0
0.0 0.0 0.0

6.520866744002522e7 3.92784603229564e7 0.0
3.92784603229564e7 2.772491262787983e7 0.0
0.0 0.0 0.0

2.4069371906670695e6 2.8723986004712768e7 0.0
2.8723986004712768e7 -6.638802815035139e6 0.0
0.0 0.0 0.0

4.787555208511008e6 1.715358567360989e7 0.0
1.715358567360989e7 1.757465220354418e7 0.0
0.0 0.0 0.0

-1.2573193483761834e7 2.709684063934048e7 0.0
2.709684063934048e7 1.8660986424639635e6 0.0
0.0 0.0 0.0

1.2052009211000847e6 1.925717895595114e7 0.0
1.925717895595114e7 1.8686716318884503e7 0.0
0.0 0.0 0.0

1.1312101435399647e6 2.7055116178071223e7 0.0
2.7055116178071223e7 -6.429229600997215e6 0.0
0.0 0.0 0.0

1.94132136719428e6 8.417601488277601e6 0.0
8.417601488277601e6 -3.653882046347222e7 0.0
0.0 0.0 0.0

-2.6693475849195197e6 2.4111606230639677e7 0.0
2.4111606230639677e7 6.675866407287126e6 0.0
0.0 0.0 0.0

-6.88139191000584e6 2.4318394646863732e7 0.0
2.4318394646863732e7 4.077452511484443e6 0.0
0.0 0.0 0.0

1.1756177585614808e6 8.3732379234588e6 0.0
8.3732379234588e6 -1.2998115434166944e7 0.0
0.0 0.0 0.0

-3.4869103363203136e6 2.492008379111333e7 0.0
2.492008379111333e7 1.2513347558958393e7 0.0
0.0 0.0 0.0

-7.047939647993337e6 6.642046211339856e6 0.0
6.642046211339856e6 5.300527028184869e7 0.0
0.0 0.0 0.0

-1.1171060920995995e6 1.2363113690953296e7 0.0
1.2363113690953296e7 -2.209253419996757e6 0.0
0.0 0.0 0.0

-1.2407658293021956e7 2.5239446472998746e7 0.0
2.5239446472998746e7 -1.0752288999413088e7 0.0
0.0 0.0 0.0

4.544758692466609e7 3.2099420567197695e7 0.0
3.2099420567197695e7 2.0027304683542565e7 0.0
0.0 0.0 0.0

91103.62200133502 1.5518153275917154e7 0.0
1.5518153275917154e7 -3.1796409260574926e7 0.0
0.0 0.0 0.0

2.463728461228978e6 6.547362216048664e6 0.0
6.547362216048664e6 -3.86851694672175e7 0.0
0.0 0.0 0.0

1.0751622202715639e7 2.3395448381339874e7 0.0
2.3395448381339874e7 5.006580675129605e6 0.0
0.0 0.0 0.0

-2.652399712130679e6 1.2560477597172882e7 0.0
1.2560477597172882e7 1.6232274899516715e7 0.0
0.0 0.0 0.0

-1.1983168502785224e6 2.766081395073787e7 0.0
2.766081395073787e7 88832.57923024805 0.0
0.0 0.0 0.0

-848752.2547619885 2.373402290332722e7 0.0
2.373402290332722e7 -8.020572411463632e6 0.0
0.0 0.0 0.0

-56397.704786199145 2.400166404151721e7 0.0
2.400166404151721e7 -1.0011242025627358e7 0.0
0.0 0.0 0.0

-1.222999748334133e6 2.06770176747366e7 0.0
2.06770176747366e7 -8.656319553675547e6 0.0
0.0 0.0 0.0

1.890638226138209e6 9.230910288607273e6 0.0
9.230910288607273e6 -1.1712088239555996e7 0.0
0.0 0.0 0.0

3.798919966099857e7 2.904465000466478e7 0.0
2.904465000466478e7 1.7299184823689446e7 0.0
0.0 0.0 0.0

3.05976682209852e6 1.8971684091617458e7 0.0
1.8971684091617458e7 1.1239988000643773e7 0.0
0.0 0.0 0.0

-3.545275153025738e6 3.41104375662299e7 0.0
3.41104375662299e7 3.4056651422387483e6 0.0
0.0 0.0 0.0

-4.037716134352567e7 2.4158606807228882e7 0.0
2.4158606807228882e7 5.72113360311522e6 0.0
0.0 0.0 0.0

3.540405678068923e6 3.6271365243088556e6 0.0
3.6271365243088556e6 -2.231179856201381e7 0.0
0.0 0.0 0.0

830955.2430916221 2.0982192077994186e7 0.0
2.0982192077994186e7 7.614604025917194e6 0.0
0.0 0.0 0.0

-5.200094073835615e6 1.7573225015745416e7 0.0
1.7573225015745416e7 -2.1854436443637945e7 0.0
0.0 0.0 0.0

-341033.75870674197 1.8635778641869515e7 0.0
1.8635778641869515e7 -2.3145725328948032e7 0.0
0.0 0.0 0.0

-9.085793640966631e6 -1.7497132586851618e6 0.0
-1.7497132586851618e6 2.9853997428115122e7 0.0
0.0 0.0 0.0

999706.4761014655 1.4561537140381193e7 0.0
1.4561537140381193e7 -2.183527592466026e7 0.0
0.0 0.0 0.0

-1.1499393626177078e7 1.822634190310287e7 0.0
1.822634190310287e7 -5.51683312579082e7 0.0
0.0 0.0 0.0

1.1834194504221007e6 1.3902865716494283e7 0.0
1.3902865716494283e7 -2.310718571269235e7 0.0
0.0 0.0 0.0

2.381483828419389e6 2.250769081849489e7 0.0
2.250769081849489e7 -9.681888058749968e6 0.0
0.0 0.0 0.0

3.5678539048749976e7 2.3722099214228973e7 0.0
2.3722099214228973e7 8.327947782676994e6 0.0
0.0 0.0 0.0

-6.443714627552915e6 1.5830956011813046e7 0.0
1.5830956011813046e7 3.8435391894160055e7 0.0
0.0 0.0 0.0

-5.955226926889461e6 2.4323450225569937e7 0.0
2.4323450225569937e7 -1.211614006611912e7 0.0
0.0 0.0 0.0

402534.92621405434 1.9390499774942722e7 0.0
1.9390499774942722e7 971472.873842916 0.0
0.0 0.0 0.0

-6.816932284365022e6 2.2081249001275845e7 0.0
2.2081249001275845e7 -1.5552646286502918e7 0.0
0.0 0.0 0.0

3.586162089149162e7 2.9122367833177626e7 0.0
2.9122367833177626e7 1.5919684062065493e7 0.0
0.0 0.0 0.0

-4.212899162787706e6 2.5002932960212618e7 0.0
2.5002932960212618e7 1.3266034541077014e7 0.0
0.0 0.0 0.0

2.2495206966468263e6 2.222989060586808e7 0.0
2.222989060586808e7 -3.216290836453626e6 0.0
0.0 0.0 0.0

424928.23489719385 3.0867856320515692e7 0.0
3.0867856320515692e7 -1.6940669850159022e6 0.0
0.0 0.0 0.0

-2.5680361580656203e6 2.4075496892949868e7 0.0
2.4075496892949868e7 7.592297472863596e6 0.0
0.0 0.0 0.0

-4.749963337879498e6 2.1342840285232468e6 0.0
2.1342840285232468e6 7.91335635619787e7 0.0
0.0 0.0 0.0

744505.0029781424 2.187052252804656e7 0.0
2.187052252804656e7 -1.4958984616160452e7 0.0
0.0 0.0 0.0

-1.7515645901811228e6 3.014366333810917e7 0.0
3.014366333810917e7 2.2049288822227893e6 0.0
0.0 0.0 0.0

-794693.9540964806 3.960232875053076e6 0.0
3.960232875053076e6 1.5430308584298491e6 0.0
0.0 0.0 0.0

-7.397316248931143e6 1.7853011169471163e7 0.0
1.7853011169471163e7 2.8052300825124726e7 0.0
0.0 0.0 0.0

-4.103076372848493e6 1.906989424007905e7 0.0
1.906989424007905e7 -1.4743644324473018e7 0.0
0.0 0.0 0.0

2.818211487595156e6 3.612576528087616e6 0.0
3.612576528087616e6 -3.1281895747501235e7 0.0
0.0 0.0 0.0

-1.7883756263505046e6 3.552063931974447e7 0.0
3.552063931974447e7 2.0444160722031528e6 0.0
0.0 0.0 0.0

1.6404947518722182e6 1.4870176390490549e7 0.0
1.4870176390490549e7 -1.9908394076702733e7 0.0
0.0 0.0 0.0

-4.911340919870178e6 2.0461027449286897e7 0.0
2.0461027449286897e7 2.1502245603591204e7 0.0
0.0 0.0 0.0

967433.9788193256 6.338963535346725e6 0.0
6.338963535346725e6 -6.670871510465466e7 0.0
0.0 0.0 0.0

-4.34011926086768e6 3.3702005192584515e7 0.0
3.3702005192584515e7 2.8885334327560263e6 0.0
0.0 0.0 0.0

-8.975617081794143e6 1.8506434419374302e7 0.0
1.8506434419374302e7 -3.256897559170346e7 0.0
0.0 0.0 0.0

3.4008017855240162e6 2.564644577676796e6 0.0
2.564644577676796e6 -1.4507848325726047e7 0.0
0.0 0.0 0.0

-744835.3732295729 1.1510111125127895e7 0.0
1.1510111125127895e7 -3.8329685202484066e6 0.0
0.0 0.0 0.0

-1.767064499017262e7 3.484268695848389e7 0.0
3.484268695848389e7 5.811617553254194e6 0.0
0.0 0.0 0.0

6.273439841202186e6 1.718152751695279e7 0.0
1.718152751695279e7 2.0713526201965332e7 0.0
0.0 0.0 0.0

-8.714598027847752e6 4.007789661898953e7 0.0
4.007789661898953e7 3.1111579189783586e6 0.0
0.0 0.0 0.0

-1.055020554762479e7 7.416647399121964e6 0.0
7.416647399121964e6 2.8973048705421556e7 0.0
0.0 0.0 0.0

-370889.8576381393 9.624163340172427e6 0.0
9.624163340172427e6 -7.439595206475724e7 0.0
0.0 0.0 0.0

8.465065907547204e7 2.8436684950175375e7 0.0
2.8436684950175375e7 7.933080339232467e6 0.0
0.0 0.0 0.0

-1.1162173291587047e6 2.8501441299138743e7 0.0
2.8501441299138743e7 252194.31775555608 0.0
0.0 0.0 0.0

-5.593423978674245e6 2.9579529779104594e7 0.0
2.9579529779104594e7 6.933509388017569e6 0.0
0.0 0.0 0.0

-2.1774123056178982e6 2.6383952690815408e7 0.0
2.6383952690815408e7 4.947076142375905e6 0.0
0.0 0.0 0.0

8.699567530013882e6 2.0983406690862935e7 0.0
2.0983406690862935e7 6.012695295557524e7 0.0
0.0 0.0 0.0

2.3787960107106045e6 3.927623979164802e6 0.0
3.927623979164802e6 -3.681254881956686e7 0.0
0.0 0.0 0.0

170132.94350163732 1.3983917167377166e7 0.0
1.3983917167377166e7 -9.15015382401691e6 0.0
0.0 0.0 0.0

9.109719092515104e6 3.428743785141401e7 0.0
3.428743785141401e7 -4.873987503791317e6 0.0
0.0 0.0 0.0

282501.6232032329 1.1445921937677393e7 0.0
1.1445921937677393e7 -4.170036240513505e7 0.0
0.0 0.0 0.0

-2.1557333302207693e7 2.1426381991800174e7 0.0
2.1426381991800174e7 4.561383689081872e6 0.0
0.0 0.0 0.0

-6.805485431490409e6 2.4652230372816384e7 0.0
2.4652230372816384e7 2.755732415871418e6 0.0
0.0 0.0 0.0

550797.5174926905 1.9928373181981925e7 0.0
1.9928373181981925e7 4.477897047066118e6 0.0
0.0 0.0 0.0

1.7565900542180287e6 1.4220483431046013e7 0.0
1.4220483431046013e7 -2.1276944444325246e7 0.0
0.0 0.0 0.0

3.809102544241449e6 2.0127877265633393e7 0.0
2.0127877265633393e7 3.8639309140886016e7 0.0
0.0 0.0 0.0

1.4578658084072601e7 3.4543314071642615e7 0.0
3.4543314071642615e7 -5.742779212026329e6 0.0
0.0 0.0 0.0

-4.6243421702418245e7 4.359240145787057e6 0.0
4.359240145787057e6 6.056904870566927e6 0.0
0.0 0.0 0.0

4.943947431376588e7 4.683847890823495e7 0.0
4.683847890823495e7 -9.365816011923946e6 0.0
0.0 0.0 0.0

1.3883761703031134e7 3.483287666115893e7 0.0
3.483287666115893e7 -6.201554522179066e6 0.0
0.0 0.0 0.0

3.2119775012836214e6 3.702584665780192e6 0.0
3.702584665780192e6 -2.148752071363584e7 0.0
0.0 0.0 0.0

-2.973245842307199e6 3.0209080273099657e7 0.0
3.0209080273099657e7 2.4215213449335983e6 0.0
0.0 0.0 0.0

4.284370759643694e7 1.6473376388222093e7 0.0
1.6473376388222093e7 2.622164519986553e6 0.0
0.0 0.0 0.0

-5.89353464174265e6 8.814744804900063e6 0.0
8.814744804900063e6 5.733237452611372e7 0.0
0.0 0.0 0.0

746091.386156885 2.212468693780115e7 0.0
2.212468693780115e7 -1.44507249675383e7 0.0
0.0 0.0 0.0

2.6992741124654375e7 2.0268781874416266e7 0.0
2.0268781874416266e7 5.478513062737387e6 0.0
0.0 0.0 0.0

1.7152121215894432e6 2.253931257845748e7 0.0
2.253931257845748e7 -1.1469839389393697e7 0.0
0.0 0.0 0.0

2.597163114582831e6 4.517996099934163e6 0.0
4.517996099934163e6 -3.9662816733784564e7 0.0
0.0 0.0 0.0

-586376.6911617775 2.8282486057778094e7 0.0
2.8282486057778094e7 -1.5634944362907247e6 0.0
0.0 0.0 0.0

-4.565245265645266e6 1.795409501803949e7 0.0
1.795409501803949e7 -1.9752738891857326e7 0.0
0.0 0.0 0.0

2.8852276658696784e6 3.0397525113045942e7 0.0
3.0397525113045942e7 -5.375799719940987e6 0.0
0.0 0.0 0.0

-4.340581829307985e6 1.160786140951158e7 0.0
1.160786140951158e7 5.941712159612435e7 0.0
0.0 0.0 0.0

-1.0904358418321167e6 1.992534772721036e7 0.0
1.992534772721036e7 -1.0891629683316821e7 0.0
0.0 0.0 0.0

1.7317564185237605e6 1.073459863158046e7 0.0
1.073459863158046e7 -2.9172373303732082e7 0.0
0.0 0.0 0.0

5.063016357434468e6 2.5346711937103495e7 0.0
2.5346711937103495e7 -6.617834363095177e6 0.0
0.0 0.0 0.0

-3.173382819173279e6 1.9470059261528727e7 0.0
1.9470059261528727e7 -1.0194879242111202e7 0.0
0.0 0.0 0.0

-7.151522680395082e6 4.0177019789377083e6 0.0
4.0177019789377083e6 5.300110855958917e7 0.0
0.0 0.0 0.0

3.131565285672889e6 2.067558612935096e7 0.0
2.067558612935096e7 2.332940707020605e7 0.0
0.0 0.0 0.0

32475.771283356473 1.1048723613525283e7 0.0
1.1048723613525283e7 -4.503384846026062e7 0.0
0.0 0.0 0.0

3.7046009199318634e6 3.0109125262468517e7 0.0
3.0109125262468517e7 -5.213574292507933e6 0.0
0.0 0.0 0.0

4.111082611293015e6 2.3330043379794665e7 0.0
2.3330043379794665e7 1.4861570369612023e7 0.0
0.0 0.0 0.0

2.473343361399561e6 9.613020528237825e6 0.0
9.613020528237825e6 -2.8569243854753185e7 0.0
0.0 0.0 0.0

6.364399297858603e7 2.81444011882103e7 0.0
2.81444011882103e7 1.4608784470064022e7 0.0
0.0 0.0 0.0

2.825652683729847e6 2.943658902104982e7 0.0
2.943658902104982e7 -5.406814378983307e6 0.0
0.0 0.0 0.0

-8.836720141811157e6 -1.3779011940473272e6 0.0
-1.3779011940473272e6 3.3164315485172153e7 0.0
0.0 0.0 0.0

-8.280818005732663e6 4.340578676031618e6 0.0
4.340578676031618e6 4.938108209595856e7 0.0
0.0 0.0 0.0

3.1432580829458293e6 1.8221342951634794e6 0.0
1.8221342951634794e6 -3.3303327583421946e7 0.0
0.0 0.0 0.0

-2.7925722858326305e6 2.5923526185507502e7 0.0
2.5923526185507502e7 4.3334551721708495e6 0.0
0.0 0.0 0.0

-1.7199258713659681e6 1.9857783290002298e7 0.0
1.9857783290002298e7 -9.601618090099916e6 0.0
0.0 0.0 0.0

1.5915582729535368e6 2.417460882892311e7 0.0
2.417460882892311e7 -1.1559850991325356e7 0.0
0.0 0.0 0.0

-9.7680035540308e6 1.1740299609219846e6 0.0
1.1740299609219846e6 2.5587162910426937e7 0.0
0.0 0.0 0.0

364805.30491890153 2.449621944147012e7 0.0
2.449621944147012e7 -8.394306370458454e6 0.0
0.0 0.0 0.0

-7.478363702390559e6 3.8866745973997964e6 0.0
3.8866745973997964e6 5.282390087821579e7 0.0
0.0 0.0 0.0

1.037454191374724e7 2.2078295599125665e7 0.0
2.2078295599125665e7 6.717381607426817e6 0.0
0.0 0.0 0.0

-474565.8235840667 1.3365559119417455e7 0.0
1.3365559119417455e7 -4.296076166830322e7 0.0
0.0 0.0 0.0

666360.1194178071 1.1055270293950181e7 0.0
1.1055270293950181e7 -4.53045849061293e7 0.0
0.0 0.0 0.0

-7.514763809588732e6 1.745499700882841e7 0.0
1.745499700882841e7 2.9609821129001714e7 0.0
0.0 0.0 0.0

-2.306018750307831e6 2.1699377578259278e7 0.0
2.1699377578259278e7 5.478706218916108e6 0.0
0.0 0.0 0.0

431574.2611229421 4.860808724248587e6 0.0
4.860808724248587e6 -1.5619285204513916e6 0.0
0.0 0.0 0.0

-1.388432286478191e6 2.0961842354353566e7 0.0
2.0961842354353566e7 -9.25359459716296e6 0.0
0.0 0.0 0.0

-3.37214081629855e6 2.842196193044678e7 0.0
2.842196193044678e7 7.105859397802403e6 0.0
0.0 0.0 0.0

7.735101542943552e6 2.085009466960723e7 0.0
2.085009466960723e7 4.816466271583468e7 0.0
0.0 0.0 0.0

1.5024312170080794e7 2.5003398934904378e7 0.0
2.5003398934904378e7 -1.811479735895074e6 0.0
0.0 0.0 0.0

-4.276892900226727e6 1.7335701081101825e6 0.0
1.7335701081101825e6 7.672671120492129e7 0.0
0.0 0.0 0.0

-6.832415818712767e6 1.1440172339090494e7 0.0
1.1440172339090494e7 4.7028838767235115e7 0.0
0.0 0.0 0.0

-7.8682829994984735e6 1.744086346863084e7 0.0
1.744086346863084e7 2.4238675538746238e7 0.0
0.0 0.0 0.0

2.450848113189133e6 1.984926218683929e7 0.0
1.984926218683929e7 1.2046783028200565e7 0.0
0.0 0.0 0.0

-1.0657182799353596e7 5.031250656820245e6 0.0
5.031250656820245e6 1.913637339212988e7 0.0
0.0 0.0 0.0

-1.1387086781969279e7 2.231572286222797e7 0.0
2.231572286222797e7 -8.213982909486877e6 0.0
0.0 0.0 0.0

2.9969476175595876e6 4.992492442377877e6 0.0
4.992492442377877e6 -3.5070156895936236e7 0.0
0.0 0.0 0.0

-8.714373446721366e6 1.8133570752248734e7 0.0
1.8133570752248734e7 -4.651872135672793e7 0.0
0.0 0.0 0.0

2.1091541665687067e6 1.889040119882954e7 0.0
1.889040119882954e7 7.742310343516889e6 0.0
0.0 0.0 0.0

2.007739500356088e7 3.0910052448455743e7 0.0
3.0910052448455743e7 -5.685840766559448e6 0.0
0.0 0.0 0.0

2.2629777602575677e6 2.3192666867992155e7 0.0
2.3192666867992155e7 -8.607331594963215e6 0.0
0.0 0.0 0.0

-2.5729303818966758e7 2.8216005541073054e7 0.0
2.8216005541073054e7 -8.438413468878562e6 0.0
0.0 0.0 0.0

-1.098971440698893e6 2.942324727998119e7 0.0
2.942324727998119e7 -1.8323201190915324e6 0.0
0.0 0.0 0.0

-1.9955933775078813e6 7.43624300026156e6 0.0
7.43624300026156e6 -2.231965000073147e6 0.0
0.0 0.0 0.0

-5.718400347119581e6 4.109520939664113e7 0.0
4.109520939664113e7 4.684270180841347e6 0.0
0.0 0.0 0.0

-2.1965860895818584e6 2.22560931442474e7 0.0
2.22560931442474e7 4.0931309609887716e6 0.0
0.0 0.0 0.0

-1.184449828586562e7 9.722908483236492e6 0.0
9.722908483236492e6 1.9408571202651404e7 0.0
0.0 0.0 0.0

-2.77966436588468e6 2.22425386778964e7 0.0
2.22425386778964e7 2.0552746346202441e6 0.0
0.0 0.0 0.0

-6.086629205236052e6 1.6363252733057246e6 0.0
1.6363252733057246e6 6.616717569250273e6 0.0
0.0 0.0 0.0

507755.13178316224 1.0643251894383624e7 0.0
1.0643251894383624e7 -2.0373500520151142e7 0.0
0.0 0.0 0.0

-71579.13309402205 1.4040734865176475e7 0.0
1.4040734865176475e7 -3.7085318884632066e7 0.0
0.0 0.0 0.0

-1.148294293042688e7 2.4166375472108744e7 0.0
2.4166375472108744e7 -9.665268639069214e6 0.0
0.0 0.0 0.0

-2.970458442124173e6 2.094327945098882e7 0.0
2.094327945098882e7 2.4691698908439774e7 0.0
0.0 0.0 0.0

-1.2769367681831717e6 1.9727469818757314e7 0.0
1.9727469818757314e7 -6.950108216682204e6 0.0
0.0 0.0 0.0

3.1412482009743517e6 4.1537202194351014e6 0.0
4.1537202194351014e6 -1.4725385730859153e7 0.0
0.0 0.0 0.0

-566535.9219659334 2.6467309825233545e7 0.0
2.6467309825233545e7 -5.523505869782714e6 0.0
0.0 0.0 0.0

-2351.42267686408 3.066298373814631e7 0.0
3.066298373814631e7 -2.9283939171463633e6 0.0
0.0 0.0 0.0

6.806506851328065e6 2.483380228397451e7 0.0
2.483380228397451e7 -5.798090550817674e6 0.0
0.0 0.0 0.0

-1.1032130173226614e7 1.282883532347437e7 0.0
1.282883532347437e7 2.0752020272009596e7 0.0
0.0 0.0 0.0

-2.6753728467188654e6 1.898855290567742e7 0.0
1.898855290567742e7 -2.1798739651259087e7 0.0
0.0 0.0 0.0

-6.284700240104506e6 3.531480675701679e7 0.0
3.531480675701679e7 3.2595867510250425e6 0.0
0.0 0.0 0.0

-5.222594082691819e6 3.451627200780189e7 0.0
3.451627200780189e7 3.0626869910246357e6 0.0
0.0 0.0 0.0

-3.423124558774934e6 1.6869673831624504e7 0.0
1.6869673831624504e7 -3.462344631986384e7 0.0
0.0 0.0 0.0

-4.1015579345773878e6 1.9274407504249595e7 0.0
1.9274407504249595e7 -1.3149346263187204e7 0.0
0.0 0.0 0.0

1.1713600744503925e6 1.9738171070379462e7 0.0
1.9738171070379462e7 6.367993308534373e6 0.0
0.0 0.0 0.0

1.4652962437548526e6 1.0188048680183498e7 0.0
1.0188048680183498e7 -3.538855684317766e7 0.0
0.0 0.0 0.0

-8.339277848358169e6 1.2753893639553878e7 0.0
1.2753893639553878e7 3.870516401325566e7 0.0
0.0 0.0 0.0

-2.3969835502569266e6 1.3162292517272955e7 0.0
1.3162292517272955e7 -7.730317649665602e7 0.0
0.0 0.0 0.0

1.2068716085020756e7 3.853928589919224e7 0.0
3.853928589919224e7 -6.691209890798293e6 0.0
0.0 0.0 0.0

7.755635467113038e6 1.8673019567256503e7 0.0
1.8673019567256503e7 3.388164799782558e7 0.0
0.0 0.0 0.0

5.431454106418658e6 1.9730863622520573e7 0.0
1.9730863622520573e7 4.356195391322844e7 0.0
0.0 0.0 0.0

2.6704518208951913e7 2.592082374071655e7 0.0
2.592082374071655e7 1.278554673210467e7 0.0
0.0 0.0 0.0

-219815.35386029002 2.051717073556608e7 0.0
2.051717073556608e7 3.3735856565246615e6 0.0
0.0 0.0 0.0

-488486.93968487275 2.599940731370664e7 0.0
2.599940731370664e7 -5.247686426597969e6 0.0
0.0 0.0 0.0

-3.3013678111825325e7 2.8843621782757442e7 0.0
2.8843621782757442e7 -9.731931930556493e6 0.0
0.0 0.0 0.0

-205282.7153105894 1.9545319041475434e7 0.0
1.9545319041475434e7 1.2351057382830728e6 0.0
0.0 0.0 0.0

-3.9887495300037307e6 2.3453264400744688e7 0.0
2.3453264400744688e7 6.090162295650693e6 0.0
0.0 0.0 0.0

3.451308558638282e6 3.7547625821623243e6 0.0
3.7547625821623243e6 -2.8942675066052984e7 0.0
0.0 0.0 0.0

-1.2983225075846681e7 2.4023539942863315e7 0.0
2.4023539942863315e7 -6.389213193197925e6 0.0
0.0 0.0 0.0

-1.5678367636271838e7 4.318055582105094e7 0.0
4.318055582105094e7 5.462938966826173e6 0.0
0.0 0.0 0.0

-9.87030820839052e6 3.0293559190573264e6 0.0
3.0293559190573264e6 2.872957005803682e7 0.0
0.0 0.0 0.0

1.4168323921933733e7 3.19139790824544e7 0.0
3.19139790824544e7 -5.3382604289190965e6 0.0
0.0 0.0 0.0

-2.5519233383539245e6 1.1131570940528523e7 0.0
1.1131570940528523e7 8.33781263371987e7 0.0
0.0 0.0 0.0

-8.824136076435486e6 -1.3769842528523458e6 0.0
-1.3769842528523458e6 3.298930524688407e7 0.0
0.0 0.0 0.0

-1.4778189525813883e7 2.0600287696043685e7 0.0
2.0600287696043685e7 -6.035172557619871e7 0.0
0.0 0.0 0.0

-368002.32715632115 2.1529905925724592e7 0.0
2.1529905925724592e7 -1.2175774509633232e7 0.0
0.0 0.0 0.0

177619.158402886 3.1643726751010068e7 0.0
3.1643726751010068e7 -1.5527461167858168e6 0.0
0.0 0.0 0.0

-8.230604185584923e6 2.029165356423969e7 0.0
2.029165356423969e7 -1.1308224098393528e7 0.0
0.0 0.0 0.0

-926559.9502271108 1.0923242768059416e7 0.0
1.0923242768059416e7 -2.2951953569923644e6 0.0
0.0 0.0 0.0

-1.0918665060068718e6 2.8045366596299704e7 0.0
2.8045366596299704e7 -3.0340512397639123e6 0.0
0.0 0.0 0.0

-3.223316964869297e6 3.340384411414846e7 0.0
3.340384411414846e7 2.832369173592559e6 0.0
0.0 0.0 0.0

497108.23293179483 3.1843763843829416e7 0.0
3.1843763843829416e7 -1.992095750556709e6 0.0
0.0 0.0 0.0

-4.432295941728633e6 1.2189020535679583e7 0.0
1.2189020535679583e7 -8.394102814670978e7 0.0
0.0 0.0 0.0

-6.054855780581313e6 2.0335379666501492e7 0.0
2.0335379666501492e7 -2.121646515975855e7 0.0
0.0 0.0 0.0

-6.0077013707524575e6 3.0092041648456845e6 0.0
3.0092041648456845e6 6.259558272559863e7 0.0
0.0 0.0 0.0

1.4816045886223894e7 2.3690663816881094e7 0.0
2.3690663816881094e7 6.745573810960275e7 0.0
0.0 0.0 0.0

-5.214465869352149e7 4.254613395408595e6 0.0
4.254613395408595e6 5.871059297687899e6 0.0
0.0 0.0 0.0

4.4566779984541886e7 3.0331257708438482e7 0.0
3.0331257708438482e7 8.57725402692777e6 0.0
0.0 0.0 0.0

-340625.79753646813 1.6597243647881439e7 0.0
1.6597243647881439e7 -3.066998994341178e7 0.0
0.0 0.0 0.0

2.156169555049615e6 5.670887629518852e6 0.0
5.670887629518852e6 -8.876534321473671e6 0.0
0.0 0.0 0.0

6.02994798183138e7 2.8765042965332855e7 0.0
2.8765042965332855e7 -605898.1636548825 0.0
0.0 0.0 0.0

2.7415710117588732e6 1.2189295036345437e7 0.0
1.2189295036345437e7 -2.629711674360254e7 0.0
0.0 0.0 0.0

3.3239913290151205e7 2.6196496847600587e7 0.0
2.6196496847600587e7 1.3727134615780903e7 0.0
0.0 0.0 0.0

-1.4982331673843036e6 2.9162281990145486e7 0.0
2.9162281990145486e7 -1.1606108575295208e6 0.0
0.0 0.0 0.0

-4.744413448017484e6 2.8939327967730023e7 0.0
2.8939327967730023e7 7.180320619083295e6 0.0
0.0 0.0 0.0

-969382.3831380005 1.4484789869142685e7 0.0
1.4484789869142685e7 -9.933889456273945e6 0.0
0.0 0.0 0.0

-6.668461323131216e6 1.5001758273301667e7 0.0
1.5001758273301667e7 -6.204119686914149e6 0.0
0.0 0.0 0.0

-5.954455083672631e6 1.9069146289683864e7 0.0
1.9069146289683864e7 -2.1381718253608797e7 0.0
0.0 0.0 0.0

-1.9074042105534128e6 2.2455086517300952e7 0.0
2.2455086517300952e7 9.310089278296564e6 0.0
0.0 0.0 0.0

3.7380097739686253e6 2.227352008294441e7 0.0
2.227352008294441e7 1.1179866831961742e7 0.0
0.0 0.0 0.0

-3.0172844657915384e6 9.64884566236591e6 0.0
9.64884566236591e6 7.844347425665215e7 0.0
0.0 0.0 0.0

-1.9654672990652968e6 2.7262996975288235e7 0.0
2.7262996975288235e7 -585450.9008381251 0.0
0.0 0.0 0.0

3.0969634996423777e6 1.793494267695349e6 0.0
1.793494267695349e6 -3.351913595184513e7 0.0
0.0 0.0 0.0

-3.027102527204725e6 2.3165767776543934e7 0.0
2.3165767776543934e7 1.6385064092085758e7 0.0
0.0 0.0 0.0

2.434919644049243e6 2.2240134529115606e7 0.0
2.2240134529115606e7 1.2855251243666563e7 0.0
0.0 0.0 0.0

1.3969605618069172e7 2.7047756832695935e7 0.0
2.7047756832695935e7 -3.93318109237203e6 0.0
0.0 0.0 0.0

1.0458608551277951e6 2.6429467788633637e7 0.0
2.6429467788633637e7 -8.38256925738568e6 0.0
0.0 0.0 0.0

-4.301937739385354e6 3.7366520469788074e7 0.0
3.7366520469788074e7 1.8540381654330003e6 0.0
0.0 0.0 0.0

-3.0658986821322525e6 8.142190456098653e6 0.0
8.142190456098653e6 -416023.645644272 0.0
0.0 0.0 0.0

-1.2759293827950925e7 3.45962646018914e7 0.0
3.45962646018914e7 5.370736739007572e6 0.0
0.0 0.0 0.0

-2.0374902231113568e6 2.9788404752805665e7 0.0
2.9788404752805665e7 3.1124033162061325e6 0.0
0.0 0.0 0.0

-7.419021069779491e6 1.8576990504025135e7 0.0
1.8576990504025135e7 2.4208128812844545e7 0.0
0.0 0.0 0.0

3.675934730598099e7 2.6324222660458423e7 0.0
2.6324222660458423e7 1.412700988229815e6 0.0
0.0 0.0 0.0

894207.1985161193 2.02934218836122e7 0.0
2.02934218836122e7 -1.5765267394111598e7 0.0
0.0 0.0 0.0

-1.839250905062669e6 2.887378079096464e7 0.0
2.887378079096464e7 -365784.8799686207 0.0
0.0 0.0 0.0

-741661.8327414524 1.3167362385153094e7 0.0
1.3167362385153094e7 -1.0323854691403452e7 0.0
0.0 0.0 0.0

-1.0315863170470577e6 2.1988338444745813e7 0.0
2.1988338444745813e7 1.4709294347167697e7 0.0
0.0 0.0 0.0

-1.0656609009543175e7 1.6101976610878874e7 0.0
1.6101976610878874e7 -3.071201359499999e6 0.0
0.0 0.0 0.0

-1.3084574093491752e7 2.315834799666409e7 0.0
2.315834799666409e7 -6.602101031343767e6 0.0
0.0 0.0 0.0

358378.08213522565 2.118168491532675e7 0.0
2.118168491532675e7 -1.2123948413015073e7 0.0
0.0 0.0 0.0

1.1516151713958258e7 1.6611876205681903e7 0.0
1.6611876205681903e7 4.740616999809783e6 0.0
0.0 0.0 0.0

-11691.72744826693 1.966727768945515e7 0.0
1.966727768945515e7 -1.9765135878109287e7 0.0
0.0 0.0 0.0

-2.9145858380513787e6 2.0698066391322546e7 0.0
2.0698066391322546e7 2.4640302880627364e7 0.0
0.0 0.0 0.0

-1.742915714607835e7 2.217011942159205e7 0.0
2.217011942159205e7 -937253.2282469496 0.0
0.0 0.0 0.0

-2.8897022668834594e6 2.2235074353418443e7 0.0
2.2235074353418443e7 3.8653647356897593e6 0.0
0.0 0.0 0.0

-1.1564168513616307e7 8.685104246052423e6 0.0
8.685104246052423e6 2.656299553107263e7 0.0
0.0 0.0 0.0

3.223706904175906e6 1.9854131126372784e7 0.0
1.9854131126372784e7 2.1899348907978795e7 0.0
0.0 0.0 0.0

1.7006646392880373e7 3.498753642453868e7 0.0
3.498753642453868e7 -6.846719114622622e6 0.0
0.0 0.0 0.0

-4.305894548806113e7 2.888998620409811e7 0.0
2.888998620409811e7 305823.75060355477 0.0
0.0 0.0 0.0

1.1179511260563051e7 4.357714865031698e7 0.0
4.357714865031698e7 -3.5463750581271914e6 0.0
0.0 0.0 0.0

-1.506181936936464e7 2.5842649502797976e7 0.0
2.5842649502797976e7 -332046.4087257907 0.0
0.0 0.0 0.0

6.694043265652299e6 3.9506543154032886e7 0.0
3.9506543154032886e7 -2.245822325444164e6 0.0
0.0 0.0 0.0

-1.1289234342608074e7 4.74252360587756e6 0.0
4.74252360587756e6 2.6045360634619195e7 0.0
0.0 0.0 0.0

1.7242725663541846e7 2.5818849324956886e7 0.0
2.5818849324956886e7 -2.0040036923778458e6 0.0
0.0 0.0 0.0

-4.190042992348371e6 3.491821694942234e7 0.0
3.491821694942234e7 3.690079526413698e6 0.0
0.0 0.0 0.0

-5.450102865894594e6 2.3204191893300354e7 0.0
2.3204191893300354e7 1.0633501001143863e6 0.0
0.0 0.0 0.0

-538990.7182850409 1.835814174821308e7 0.0
1.835814174821308e7 -2.528142790919016e7 0.0
0.0 0.0 0.0

-6.751105444318023e6 3.1349290159410615e7 0.0
3.1349290159410615e7 6.010932948647864e6 0.0
0.0 0.0 0.0

-8.086199806128187e6 1.9938700679091863e7 0.0
1.9938700679091863e7 -7.320917242787996e6 0.0
0.0 0.0 0.0

5.852746518351216e6 3.873115877361456e7 0.0
3.873115877361456e7 -4.227076196298369e6 0.0
0.0 0.0 0.0

-1.6160011791284593e7 3.499666819708955e7 0.0
3.499666819708955e7 6.4258874299039645e6 0.0
0.0 0.0 0.0

1.195706383643756e7 2.613674541281089e7 0.0
2.613674541281089e7 -3.478963440018464e6 0.0
0.0 0.0 0.0

3.3016531593603194e6 5.8136355364900995e6 0.0
5.8136355364900995e6 -1.8983845712557912e7 0.0
0.0 0.0 0.0

-6.756407962988011e6 1.8808206561905783e7 0.0
1.8808206561905783e7 -3.749776089937394e7 0.0
0.0 0.0 0.0

3.061510141413985e6 4.042223791240388e6 0.0
4.042223791240388e6 -1.6122577916714462e7 0.0
0.0 0.0 0.0

5.926128662833766e6 1.9134311791008722e7 0.0
1.9134311791008722e7 3.2042410496591266e7 0.0
0.0 0.0 0.0

6.284217542944184e6 2.4126143869186576e7 0.0
2.4126143869186576e7 -3.688682061872323e6 0.0
0.0 0.0 0.0

1.0986782984335411e7 3.2248888760860123e7 0.0
3.2248888760860123e7 -5.413184505996285e6 0.0
0.0 0.0 0.0

-7.31357459354415e6 1.849617499203721e7 0.0
1.849617499203721e7 2.808426205152823e7 0.0
0.0 0.0 0.0

-111473.7784758741 1.5200939066021927e7 0.0
1.5200939066021927e7 -8.849074219794717e6 0.0
0.0 0.0 0.0

750368.3415025689 9.742875374418769e6 0.0
9.742875374418769e6 4.198485864176759e6 0.0
0.0 0.0 0.0

-1.023256013985876e6 1.145538719030198e7 0.0
1.145538719030198e7 -6.377120081990775e7 0.0
0.0 0.0 0.0

2.5444726932899775e6 1.709923613514888e7 0.0
1.709923613514888e7 7.481553063824398e6 0.0
0.0 0.0 0.0

-1.5438575852343574e7 3.119712883467093e7 0.0
3.119712883467093e7 5.190701770294232e6 0.0
0.0 0.0 0.0

-1.5152619078451032e6 1.977744176283172e7 0.0
1.977744176283172e7 -1.3998651827657461e7 0.0
0.0 0.0 0.0

2.822245074764738e7 2.5227935791038804e7 0.0
2.5227935791038804e7 1.215855683401794e7 0.0
0.0 0.0 0.0

-1.00456843730907e7 7.39167392280994e6 0.0
7.39167392280994e6 3.446039450729141e7 0.0
0.0 0.0 0.0

-3.496626636981594e7 3.254031152188705e7 0.0
3.254031152188705e7 920736.8311543446 0.0
0.0 0.0 0.0

3.542280924972897e7 3.68457607220701e7 0.0
3.68457607220701e7 -9.199385127276216e6 0.0
0.0 0.0 0.0

-5.05912180558336e6 2.9023244607478984e7 0.0
2.9023244607478984e7 7.9416509113821825e6 0.0
0.0 0.0 0.0

31044.181138211163 1.7959799247470286e7 0.0
1.7959799247470286e7 2.8044047321402878e6 0.0
0.0 0.0 0.0

-5.74572630180989e6 1.7441446856030796e7 0.0
1.7441446856030796e7 3.523819584651894e7 0.0
0.0 0.0 0.0

-9.25903419370346e6 -217466.2396948276 0.0
-217466.2396948276 3.4009491604958385e7 0.0
0.0 0.0 0.0

321502.33797326684 1.9865546487818994e7 0.0
1.9865546487818994e7 -1.7217492894842464e7 0.0
0.0 0.0 0.0

-1.1252775384977743e7 2.6640527374289855e7 0.0
2.6640527374289855e7 -1.2734490417723078e7 0.0
0.0 0.0 0.0

27213.901514336932 2.027726718850436e7 0.0
2.027726718850436e7 -1.1328205754726797e7 0.0
0.0 0.0 0.0

-4.83292606929712e6 1.2066710693178132e7 0.0
1.2066710693178132e7 5.4710091606435195e7 0.0
0.0 0.0 0.0

239935.08447299153 1.549226359732035e7 0.0
1.549226359732035e7 -3.003170782433665e7 0.0
0.0 0.0 0.0

-1.100750779125258e7 2.64300048100204e7 0.0
2.64300048100204e7 -1.2966044803003322e7 0.0
0.0 0.0 0.0

-642901.1181504698 1.786641043469097e7 0.0
1.786641043469097e7 -2.518698019509017e7 0.0
0.0 0.0 0.0

2.8998935941131487e7 2.4741324207173258e7 0.0
2.4741324207173258e7 1.4200039231530394e7 0.0
0.0 0.0 0.0

-6.564089904253859e6 1.0324447357807972e7 0.0
1.0324447357807972e7 5.035433159842545e7 0.0
0.0 0.0 0.0

1.55249098374148e6 2.2101152667178042e7 0.0
2.2101152667178042e7 -831933.3246156824 0.0
0.0 0.0 0.0

-1.5191765247873347e6 2.1867756422923096e7 0.0
2.1867756422923096e7 2.01385445304525e7 0.0
0.0 0.0 0.0

4.613062093345823e6 3.0918592360732283e7 0.0
3.0918592360732283e7 -5.170883840598737e6 0.0
0.0 0.0 0.0

2.2704467181214523e6 1.0487975746015232e7 0.0
1.0487975746015232e7 -3.072688672865382e7 0.0
0.0 0.0 0.0

1.8679652343183216e6 9.862508745847171e6 0.0
9.862508745847171e6 -1.2685867338987332e7 0.0
0.0 0.0 0.0

-979015.9975249991 1.2008004077579303e7 0.0
1.2008004077579303e7 -5.51519022494842e7 0.0
0.0 0.0 0.0

-1.0961422976861004e7 2.4762860744118627e7 0.0
2.4762860744118627e7 -4.960111360010518e6 0.0
0.0 0.0 0.0

-8.020699018695969e6 1.0126245054161249e7 0.0
1.0126245054161249e7 4.5471076464099534e7 0.0
0.0 0.0 0.0

-9.69721683123584e6 2.451083392442246e7 0.0
2.451083392442246e7 -9.056597850949258e6 0.0
0.0 0.0 0.0

71355.56988098938 1.9180119491752215e7 0.0
1.9180119491752215e7 -1.1760601305258406e7 0.0
0.0 0.0 0.0

406523.44504247606 9.276209019878164e6 0.0
9.276209019878164e6 -4.832734788903686e7 0.0
0.0 0.0 0.0

-6.724386907823807e6 1.6262056159177663e7 0.0
1.6262056159177663e7 3.594068003231452e7 0.0
0.0 0.0 0.0

3.8546677932224097e6 1.8889554863188814e7 0.0
1.8889554863188814e7 1.437896432211785e7 0.0
0.0 0.0 0.0

-937137.7392917499 1.376053587172965e7 0.0
1.376053587172965e7 -4.010387489115197e7 0.0
0.0 0.0 0.0

2.604464979239665e6 2.5780024714975078e6 0.0
2.5780024714975078e6 -3.7427322143480375e7 0.0
0.0 0.0 0.0

-3.303280880659597e6 2.2605196651314817e7 0.0
2.2605196651314817e7 1.644322427544599e7 0.0
0.0 0.0 0.0

-9.124540161266873e6 2.513976988067406e7 0.0
2.513976988067406e7 -1.233570130358282e7 0.0
0.0 0.0 0.0

1.1274290712507581e6 1.4126731692911377e7 0.0
1.4126731692911377e7 -1.4819355659257304e7 0.0
0.0 0.0 0.0

-8.703623748763949e6 3.5546681079672175e6 0.0
3.5546681079672175e6 4.168145795447234e7 0.0
0.0 0.0 0.0

-3.916280376911939e6 1.1525590089649095e6 0.0
1.1525590089649095e6 7.337170118636443e6 0.0
0.0 0.0 0.0

-5.454062124019856e6 2.0763430715497755e7 0.0
2.0763430715497755e7 1.9941243564077683e7 0.0
0.0 0.0 0.0

3.0815247235486407e7 2.7617398619208768e7 0.0
2.7617398619208768e7 1.8131901777141802e7 0.0
0.0 0.0 0.0

2.351668032217056e7 2.520986257188217e7 0.0
2.520986257188217e7 1.3723660509047866e7 0.0
0.0 0.0 0.0

-1.732245842718403e7 2.556180131488859e7 0.0
2.556180131488859e7 -1.1330003169095472e7 0.0
0.0 0.0 0.0

-4.4013430809886325e6 1.7561924129250526e7 0.0
1.7561924129250526e7 -1.3477677009222357e7 0.0
0.0 0.0 0.0

-1.0097791032305505e7 2.5674309782312218e7 0.0
2.5674309782312218e7 -1.0504307993245188e7 0.0
0.0 0.0 0.0

-1.0221426676188616e7 2.3902040554481063e7 0.0
2.3902040554481063e7 -1.1176594638897458e7 0.0
0.0 0.0 0.0

-778156.1305879578 1.269393082507549e7 0.0
1.269393082507549e7 -4.88617314396827e7 0.0
0.0 0.0 0.0

-1.507386764701975e6 4.26043782284881e6 0.0
4.26043782284881e6 -1.1080092824798266e6 0.0
0.0 0.0 0.0

-1.078636328418989e6 7.350974144690645e6 0.0
7.350974144690645e6 833799.5592212353 0.0
0.0 0.0 0.0

1.3412033287187628e6 1.8334608304729294e7 0.0
1.8334608304729294e7 2.0343100553964314e6 0.0
0.0 0.0 0.0

2.0864593878581077e7 2.5344041520450365e7 0.0
2.5344041520450365e7 1.2783222632608552e7 0.0
0.0 0.0 0.0

1.5173298774120696e6 1.923214920805926e7 0.0
1.923214920805926e7 9.128181767560331e6 0.0
0.0 0.0 0.0

-4.055984903093648e6 2.175940546110106e7 0.0
2.175940546110106e7 1.7046522833529137e7 0.0
0.0 0.0 0.0

-2.578390844253545e7 1.3351371396412343e7 0.0
1.3351371396412343e7 8.071342555251781e6 0.0
0.0 0.0 0.0

2.9235346269092145e6 1.8943074809382077e7 0.0
1.8943074809382077e7 1.1195262120270781e7 0.0
0.0 0.0 0.0

2.4084401798717296e6 6.397289553713004e6 0.0
6.397289553713004e6 -1.987139408516255e7 0.0
0.0 0.0 0.0

-1.5362727284171127e7 3.3127296826271676e7 0.0
3.3127296826271676e7 6.035678217119387e6 0.0
0.0 0.0 0.0

-8.188958946089009e6 1.4973253317147028e6 0.0
1.4973253317147028e6 4.407195396720632e7 0.0
0.0 0.0 0.0

-1.8723144902817172e6 2.1488299563473847e7 0.0
2.1488299563473847e7 -9.949208028827796e6 0.0
0.0 0.0 0.0

9.74807714482497e6 2.2772224371004503e7 0.0
2.2772224371004503e7 1.2188435757593049e7 0.0
0.0 0.0 0.0

-8.569514583885422e6 2.4843659875019237e7 0.0
2.4843659875019237e7 -1.236322954096021e7 0.0
0.0 0.0 0.0

-3.603349658464526e6 1.7557585594058763e7 0.0
1.7557585594058763e7 -3.1412479983225785e7 0.0
0.0 0.0 0.0

2.4536576964760832e7 2.6492515870978568e7 0.0
2.6492515870978568e7 1.6561551299860917e7 0.0
0.0 0.0 0.0

-3.4744816079042815e6 1.95989961902601e7 0.0
1.95989961902601e7 -2.2667900821465965e7 0.0
0.0 0.0 0.0

2.089882098010076e6 1.999859796841874e7 0.0
1.999859796841874e7 1.308183808332566e7 0.0
0.0 0.0 0.0

5.117659053174773e6 2.222917807453456e7 0.0
2.222917807453456e7 1.5815844371140936e7 0.0
0.0 0.0 0.0

-3.042946227585788e6 2.238055523402195e7 0.0
2.238055523402195e7 1.745437889397463e7 0.0
0.0 0.0 0.0

-2.5142486290130676e6 2.240747691316407e7 0.0
2.240747691316407e7 1.1741650067139745e7 0.0
0.0 0.0 0.0

2.242833302439967e6 5.552703037012834e6 0.0
5.552703037012834e6 -3.590815197551716e7 0.0
0.0 0.0 0.0

1.3259639995531503e6 3.3323234351312693e7 0.0
3.3323234351312693e7 -2.151727115424211e6 0.0
0.0 0.0 0.0

-6.602712940130692e6 2.124589493338354e7 0.0
2.124589493338354e7 -1.6910625849315275e7 0.0
0.0 0.0 0.0

3.509729209174365e7 2.333681661500305e7 0.0
2.333681661500305e7 1.4234939568305438e7 0.0
0.0 0.0 0.0

-9.147718892549809e6 3.0314581413072035e7 0.0
3.0314581413072035e7 6.484763170243887e6 0.0
0.0 0.0 0.0

2.3931063464587424e6 4.550108990549024e6 0.0
4.550108990549024e6 -4.163914744825541e7 0.0
0.0 0.0 0.0

-2.5678000920430264e6 1.9947694103662495e7 0.0
1.9947694103662495e7 7.176018774304258e6 0.0
0.0 0.0 0.0

1.787616847236141e7 2.28130287621373e7 0.0
2.28130287621373e7 9.802184205985244e6 0.0
0.0 0.0 0.0

4.4958483719158836e7 2.1662090707292188e7 0.0
2.1662090707292188e7 1.167332780964376e7 0.0
0.0 0.0 0.0

-5.85964375330409e6 3.4684518926839635e7 0.0
3.4684518926839635e7 4.666208004869904e6 0.0
0.0 0.0 0.0

462828.93596189376 2.064412355719374e7 0.0
2.064412355719374e7 -1.845739679287592e7 0.0
0.0 0.0 0.0

-1.0409517453541e7 1.2011557372987447e7 0.0
1.2011557372987447e7 2.226051541570245e7 0.0
0.0 0.0 0.0

-8.68136277618505e6 1.6682983336900922e6 0.0
1.6682983336900922e6 4.236493012925348e7 0.0
0.0 0.0 0.0

2.26088642699047e6 1.9081172321121033e7 0.0
1.9081172321121033e7 7.749183693348911e6 0.0
0.0 0.0 0.0

1.3993578533747852e7 1.9083142412789796e7 0.0
1.9083142412789796e7 1.0366538916359678e7 0.0
0.0 0.0 0.0

-1.0073902500396933e7 5.059346258527692e6 0.0
5.059346258527692e6 3.3056883726134263e7 0.0
0.0 0.0 0.0

-3.122454582551437e6 1.3676261319762563e7 0.0
1.3676261319762563e7 -1.4773397129292376e6 0.0
0.0 0.0 0.0

-4.336926116725373e6 2.1464402815747723e7 0.0
2.1464402815747723e7 -1.5343151618484236e7 0.0
0.0 0.0 0.0

-4.786414920603461e6 1.7950783796856593e7 0.0
1.7950783796856593e7 -2.923200214365316e7 0.0
0.0 0.0 0.0

269195.4218126035 3.257411644887e7 0.0
3.257411644887e7 -1.7210005874581013e6 0.0
0.0 0.0 0.0

5.570388771795025e6 3.1572823451732025e7 0.0
3.1572823451732025e7 -5.403044871136194e6 0.0
0.0 0.0 0.0

5.315233870549021e6 4.2423584831200056e7 0.0
4.2423584831200056e7 -3.8612900231428924e6 0.0
0.0 0.0 0.0

-1.549834609395944e7 4.038370853061373e7 0.0
4.038370853061373e7 6.542258914998345e6 0.0
0.0 0.0 0.0

8.564799368537936e6 1.9827853226927716e7 0.0
1.9827853226927716e7 3.2066765196695313e7 0.0
0.0 0.0 0.0

-8.605400091719318e6 1.814165723178595e7 0.0
1.814165723178595e7 -8.090821702062577e7 0.0
0.0 0.0 0.0

-1.0427605193593891e7 503425.3335237318 0.0
503425.3335237318 2.414731452680593e7 0.0
0.0 0.0 0.0

-1.0405585137451973e7 1.6769423115037547e7 0.0
1.6769423115037547e7 -3.551038854844991e7 0.0
0.0 0.0 0.0

-4.73193306573225e6 1.6523586201732432e7 0.0
1.6523586201732432e7 -1.5535973193532217e7 0.0
0.0 0.0 0.0

6.867103543571098e6 2.0233128077162232e7 0.0
2.0233128077162232e7 3.0884650512266856e7 0.0
0.0 0.0 0.0

-1.004138699190662e7 1.878976784289176e7 0.0
1.878976784289176e7 -4.2166919784238964e7 0.0
0.0 0.0 0.0

-7.70304232296421e6 1.723962414827341e7 0.0
1.723962414827341e7 -2.9742174900190733e7 0.0
0.0 0.0 0.0

2.0360216425819505e7 2.5010168277848043e7 0.0
2.5010168277848043e7 1.1181475532814756e7 0.0
0.0 0.0 0.0

-5.913409419670474e6 2.1768381829252712e7 0.0
2.1768381829252712e7 -1.5075263752685836e7 0.0
0.0 0.0 0.0

2.095068311422661e6 9.630371747341232e6 0.0
9.630371747341232e6 -3.46524482988547e7 0.0
0.0 0.0 0.0

1.4453085859716376e6 1.921029341020279e7 0.0
1.921029341020279e7 4.268619126060917e6 0.0
0.0 0.0 0.0

-1.0199424242135026e7 2.5613075577002507e7 0.0
2.5613075577002507e7 -1.2958079750168871e7 0.0
0.0 0.0 0.0

5.197046437484926e6 1.8516321759294093e7 0.0
1.8516321759294093e7 1.9589627102414895e7 0.0
0.0 0.0 0.0

3.126359988208358e6 4.0409214428870287e6 0.0
4.0409214428870287e6 -1.658614479111841e7 0.0
0.0 0.0 0.0

-2.101771732501429e6 2.859259673399671e7 0.0
2.859259673399671e7 555931.3617498705 0.0
0.0 0.0 0.0

-3.963186815048404e6 3.2626746207113404e7 0.0
3.2626746207113404e7 2.7133820206097746e6 0.0
0.0 0.0 0.0

-7.1783017844861075e6 1.6514755765663784e7 0.0
1.6514755765663784e7 3.4713278735051885e7 0.0
0.0 0.0 0.0

2.0913558581036027e6 2.0619644822194096e7 0.0
2.0619644822194096e7 9.79036572296872e6 0.0
0.0 0.0 0.0

4.774445149744312e6 2.249594376276767e7 0.0
2.249594376276767e7 1.6705081856941001e7 0.0
0.0 0.0 0.0

-4.1048700822596597e6 3.673702568722514e7 0.0
3.673702568722514e7 3.076394071437413e6 0.0
0.0 0.0 0.0

-3.779530527102609e6 2.159321853475897e7 0.0
2.159321853475897e7 1.770973704919412e7 0.0
0.0 0.0 0.0

-9.742240094124308e6 -895633.7466723503 0.0
-895633.7466723503 2.7814008949546553e7 0.0
0.0 0.0 0.0

-3.487882594251122e6 3.2424067156649478e7 0.0
3.2424067156649478e7 4.149277850342913e6 0.0
0.0 0.0 0.0

-413378.7200196292 2.7739228147233125e7 0.0
2.7739228147233125e7 -2.6194071622046577e6 0.0
0.0 0.0 0.0

-2.9895458034454444e6 2.1779928525673363e7 0.0
2.1779928525673363e7 3.210205449426568e6 0.0
0.0 0.0 0.0

1.0325422481779149e6 3.2955987653737515e7 0.0
3.2955987653737515e7 -2.2621826312063844e6 0.0
0.0 0.0 0.0

965373.9295038794 3.2252425011712078e7 0.0
3.2252425011712078e7 -1.82684843382705e6 0.0
0.0 0.0 0.0

-2.275520342612108e6 2.0786997878256988e7 0.0
2.0786997878256988e7 -1.1010207607396333e7 0.0
0.0 0.0 0.0

4.012932793173896e6 2.0791493015396502e7 0.0
2.0791493015396502e7 1.3376443171438923e7 0.0
0.0 0.0 0.0

1.7873035751482435e6 9.45060110728473e6 0.0
9.45060110728473e6 -3.2439901392793268e7 0.0
0.0 0.0 0.0

-1.368327529873775e7 1.761947990267203e7 0.0
1.761947990267203e7 -5.088551657770965e7 0.0
0.0 0.0 0.0

-4.862068725143267e6 2.3590344417105693e7 0.0
2.3590344417105693e7 3.6266741181160836e6 0.0
0.0 0.0 0.0

-3.9265304363938384e7 3.521397605772758e7 0.0
3.521397605772758e7 -1.4786303888765367e7 0.0
0.0 0.0 0.0

-8.032191448574403e6 1.842330981997229e7 0.0
1.842330981997229e7 -2.822105711921466e7 0.0
0.0 0.0 0.0

-4.400163609693492e7 3.481141494724508e7 0.0
3.481141494724508e7 -8.401217592269767e6 0.0
0.0 0.0 0.0

-3.6219893799907025e6 2.4123355942509e7 0.0
2.4123355942509e7 1.2396602773927867e7 0.0
0.0 0.0 0.0

-7.501331209657267e6 340491.48873684416 0.0
340491.48873684416 4.887828109524086e7 0.0
0.0 0.0 0.0

3.8124105064938557e6 3.075903663720882e7 0.0
3.075903663720882e7 -5.126826633440352e6 0.0
0.0 0.0 0.0

-1.757539104915744e7 2.7715395840124436e7 0.0
2.7715395840124436e7 -1.189045088459553e7 0.0
0.0 0.0 0.0

414084.8309970554 2.1315959581606198e7 0.0
2.1315959581606198e7 -1.6722022874564206e7 0.0
0.0 0.0 0.0

-1.247405995744765e7 3.3184069672715984e7 0.0
3.3184069672715984e7 5.830381756705124e6 0.0
0.0 0.0 0.0

-1.1109409249937862e7 8.494593733179525e6 0.0
8.494593733179525e6 2.6170193322494768e7 0.0
0.0 0.0 0.0

1.0143211923411153e6 1.0603578293112168e7 0.0
1.0603578293112168e7 -4.0862074729215235e7 0.0
0.0 0.0 0.0

-1.6193744182907773e7 3.279806383198365e7 0.0
3.279806383198365e7 5.520149334154585e6 0.0
0.0 0.0 0.0

1.6311432827827644e6 1.9951370075385023e7 0.0
1.9951370075385023e7 6.418568593036466e6 0.0
0.0 0.0 0.0

-1.1726989747840637e7 1.066548941090014e7 0.0
1.066548941090014e7 2.060021452290925e7 0.0
0.0 0.0 0.0

-637500.303806616 1.9494147121070642e7 0.0
1.9494147121070642e7 -1.2273464040199133e7 0.0
0.0 0.0 0.0

3.604144085545896e6 2.9162612339260537e7 0.0
2.9162612339260537e7 -5.952167519935089e6 0.0
0.0 0.0 0.0

-2.7633395970604487e7 1.3890049942804407e7 0.0
1.3890049942804407e7 7.756258992050268e6 0.0
0.0 0.0 0.0

-6.652929250272067e6 3.0582546983203273e7 0.0
3.0582546983203273e7 6.777495437385693e6 0.0
0.0 0.0 0.0

-371444.1468269555 2.0309431790252462e7 0.0
2.0309431790252462e7 -1.973300739888147e7 0.0
0.0 0.0 0.0

1.932233362483872e6 9.725900272330333e6 0.0
9.725900272330333e6 -2.8669070012800653e7 0.0
0.0 0.0 0.0

-281009.9145396927 5.021654564371273e6 0.0
5.021654564371273e6 -3.9901441793709104e6 0.0
0.0 0.0 0.0

919548.7754341243 1.8149591071923267e7 0.0
1.8149591071923267e7 -2.171914172305397e7 0.0
0.0 0.0 0.0

-2.405287748585445e7 2.763809544298121e7 0.0
2.763809544298121e7 -5.41961221187181e6 0.0
0.0 0.0 0.0

8.030534444192594e6 4.2134834220932074e7 0.0
4.2134834220932074e7 -3.0226080925294496e6 0.0
0.0 0.0 0.0

2.193260128728632e6 1.95132615884073e7 0.0
1.95132615884073e7 3.5567671283309914e7 0.0
0.0 0.0 0.0

3.2163011896433146e6 2.099197651560248e7 0.0
2.099197651560248e7 1.203942041782803e7 0.0
0.0 0.0 0.0

8.903590395403255e6 1.7655377108677853e7 0.0
1.7655377108677853e7 3.1345499811821867e7 0.0
0.0 0.0 0.0

-4.242619106101887e6 2.0523067887276318e7 0.0
2.0523067887276318e7 -1.4142064043921601e7 0.0
0.0 0.0 0.0

-7.295820766344119e6 1.6080302838831782e7 0.0
1.6080302838831782e7 3.5701360709755175e7 0.0
0.0 0.0 0.0

-3.4716037777489973e6 1.8857802937531654e7 0.0
1.8857802937531654e7 -1.5150483235100139e7 0.0
0.0 0.0 0.0

-2.8201047464245416e7 3.6596021750488676e7 0.0
3.6596021750488676e7 7.387939040563587e6 0.0
0.0 0.0 0.0

-9.09487720709475e6 4.990577370565209e6 0.0
4.990577370565209e6 3.955032899247609e7 0.0
0.0 0.0 0.0

-7.425092905655339e6 301264.4288741902 0.0
301264.4288741902 4.955209456701011e7 0.0
0.0 0.0 0.0

539177.4511317872 1.3936029508532552e7 0.0
1.3936029508532552e7 -1.6890318526349284e7 0.0
0.0 0.0 0.0

1.457537241996185e6 3.885381738548195e6 0.0
3.885381738548195e6 -344795.447636052 0.0
0.0 0.0 0.0

-117511.5420280397 1.0253048050985947e7 0.0
1.0253048050985947e7 -5.139691725282863e7 0.0
0.0 0.0 0.0

-7.025854348348862e6 1.3440257398432808e7 0.0
1.3440257398432808e7 4.28432097848068e7 0.0
0.0 0.0 0.0

-247157.46671948954 1.2943738240813734e7 0.0
1.2943738240813734e7 -3.9737029700235225e7 0.0
0.0 0.0 0.0

-9.183534479696047e6 1.0084628416661604e6 0.0
1.0084628416661604e6 3.266883852226388e7 0.0
0.0 0.0 0.0

-3.1619530660605226e6 2.9626638462934643e7 0.0
2.9626638462934643e7 3.3084128640110176e6 0.0
0.0 0.0 0.0

4.508448740268629e6 2.972065027916816e7 0.0
2.972065027916816e7 -5.812970985021987e6 0.0
0.0 0.0 0.0

-3.914924055703763e6 3.445482250134481e7 0.0
3.445482250134481e7 2.0032405038126803e6 0.0
0.0 0.0 0.0

4.688030643132317e6 4.0901086296808876e7 0.0
4.0901086296808876e7 -2.3236374136530315e6 0.0
0.0 0.0 0.0

1.956617281277245e6 3.672764881392675e7 0.0
3.672764881392675e7 -2.555987986714732e6 0.0
0.0 0.0 0.0

-8.713499081827277e6 1.608954486725466e6 0.0
1.608954486725466e6 4.070507006893563e7 0.0
0.0 0.0 0.0

1.8940549890944213e6 4.952754613064852e6 0.0
4.952754613064852e6 -4.469325296458334e7 0.0
0.0 0.0 0.0

793236.0609489246 2.2193114551410902e7 0.0
2.2193114551410902e7 -1.210319042565342e7 0.0
0.0 0.0 0.0

493792.47256799834 2.3771256922818378e7 0.0
2.3771256922818378e7 -9.643335771658294e6 0.0
0.0 0.0 0.0

1.8692271378415423e6 1.2589643530399457e7 0.0
1.2589643530399457e7 -2.3686966460455205e7 0.0
0.0 0.0 0.0

-7.094428221534455e6 1.6442779346874699e7 0.0
1.6442779346874699e7 -2.312656510852065e7 0.0
0.0 0.0 0.0

1.7162452830597465e6 1.820018007100378e7 0.0
1.820018007100378e7 5.720817550452966e6 0.0
0.0 0.0 0.0

-3.473624442931951e6 2.5956565738451734e7 0.0
2.5956565738451734e7 9.239525158054128e6 0.0
0.0 0.0 0.0

-9.894683844708335e6 3.1422940806427654e7 0.0
3.1422940806427654e7 6.039321353356484e6 0.0
0.0 0.0 0.0

-2.622990529580666e6 1.8899139132615592e7 0.0
1.8899139132615592e7 -8.256483180871963e6 0.0
0.0 0.0 0.0

-1.4559635096229757e6 1.3735309750589322e7 0.0
1.3735309750589322e7 -2.124738191909521e6 0.0
0.0 0.0 0.0

2.6812257344034854e6 3.2270302777913027e6 0.0
3.2270302777913027e6 -3.577832528735435e7 0.0
0.0 0.0 0.0

2.9520833890067535e6 2.1894223922435813e7 0.0
2.1894223922435813e7 -6.096726380486872e6 0.0
0.0 0.0 0.0

1.7386564344988707e6 1.0146877165279053e7 0.0
1.0146877165279053e7 -3.0809422873785995e7 0.0
0.0 0.0 0.0

-4.0353423727734555e6 8.916943227474062e6 0.0
8.916943227474062e6 1.5663202094479823e6 0.0
0.0 0.0 0.0

-1.88644103377599e6 1.2310843008900419e7 0.0
1.2310843008900419e7 -4.9674051253732e6 0.0
0.0 0.0 0.0

-3.745928881355161e6 3.032011911412863e6 0.0
3.032011911412863e6 2.4036569766261186e6 0.0
0.0 0.0 0.0

-2.0613950578055868e6 2.6941126088594835e7 0.0
2.6941126088594835e7 3.8348035919212163e6 0.0
0.0 0.0 0.0

-310561.35559732094 1.879164039955454e7 0.0
1.879164039955454e7 -2.32812869634507e7 0.0
0.0 0.0 0.0

-981728.4310429469 9.883719185518123e6 0.0
9.883719185518123e6 -5.9476822499646544e7 0.0
0.0 0.0 0.0

-8.429069074322898e6 2.379374093549143e7 0.0
2.379374093549143e7 -7.10485987239229e6 0.0
0.0 0.0 0.0

-2.9059993660951238e7 3.175617576675055e7 0.0
3.175617576675055e7 -1.4254871386247125e7 0.0
0.0 0.0 0.0

-2.0723019949855197e7 3.1917204116804484e7 0.0
3.1917204116804484e7 4.74742825484197e6 0.0
0.0 0.0 0.0

-1.2176370041015593e7 2.6604647616923947e7 0.0
2.6604647616923947e7 -1.225107229145664e7 0.0
0.0 0.0 0.0

-5.369512747799116e6 1.6894880961606935e7 0.0
1.6894880961606935e7 -3.968012772340982e7 0.0
0.0 0.0 0.0

-8.83594803801366e6 1.7747237360191673e7 0.0
1.7747237360191673e7 -2.9453161103625566e7 0.0
0.0 0.0 0.0

-2.2649100896234665e7 2.922935580056837e7 0.0
2.922935580056837e7 -1.2385190004146136e7 0.0
0.0 0.0 0.0

-1.2820304090471854e7 1.8456337902196553e7 0.0
1.8456337902196553e7 -4.273434815280956e7 0.0
0.0 0.0 0.0

-5.708351141860291e6 2.042747395042626e7 0.0
2.042747395042626e7 2.357490435500777e7 0.0
0.0 0.0 0.0

-1.0746549291290022e7 1.3148565095162122e6 0.0
1.3148565095162122e6 2.2286744074899513e7 0.0
0.0 0.0 0.0

-393322.39195213944 2.7353171166561283e7 0.0
2.7353171166561283e7 -4.282814730130205e6 0.0
0.0 0.0 0.0

-3.836032434469958e6 2.3135561805590145e7 0.0
2.3135561805590145e7 1.462664664589744e7 0.0
0.0 0.0 0.0

-1.0050010915806495e7 329369.5853839659 0.0
329369.5853839659 2.848433090950528e7 0.0
0.0 0.0 0.0

581278.8384219743 1.5194559701638825e7 0.0
1.5194559701638825e7 -2.9613037381875083e7 0.0
0.0 0.0 0.0

-1.8978910676284644e6 2.8058932329460036e7 0.0
2.8058932329460036e7 -473097.33621082985 0.0
0.0 0.0 0.0

571022.6973758376 1.8919880059090357e7 0.0
1.8919880059090357e7 -1.6683710770589034e6 0.0
0.0 0.0 0.0

-4.407261660313392e6 2.8989453318714794e7 0.0
2.8989453318714794e7 6.374898264457613e6 0.0
0.0 0.0 0.0

-2.0805118999197852e7 2.9545378045683376e7 0.0
2.9545378045683376e7 -1.3561534839461047e7 0.0
0.0 0.0 0.0

-1.0015050727421252e7 1.7997299678854402e7 0.0
1.7997299678854402e7 -3.338350282104359e7 0.0
0.0 0.0 0.0

5.073797950498389e6 2.199266718603338e7 0.0
2.199266718603338e7 1.79603730350942e7 0.0
0.0 0.0 0.0

-3.1801397110847242e7 3.2381521315255515e7 0.0
3.2381521315255515e7 3.390671425462527e6 0.0
0.0 0.0 0.0

-1.0288068631608516e7 1.086858123368286e7 0.0
1.086858123368286e7 2.153476079315693e7 0.0
0.0 0.0 0.0

-6.420599691046618e6 1.078244183665625e7 0.0
1.078244183665625e7 5.310651427812041e7 0.0
0.0 0.0 0.0

-2.551670790559198e6 2.085953836282408e7 0.0
2.085953836282408e7 -1.0965632501916092e7 0.0
0.0 0.0 0.0

3.9603109693382755e6 3.644499767744392e7 0.0
3.644499767744392e7 -3.5436148158836714e6 0.0
0.0 0.0 0.0

8.833228288418699e6 1.8673654200873528e7 0.0
1.8673654200873528e7 2.9444094589650493e7 0.0
0.0 0.0 0.0

2.682724743560087e7 2.165217841438684e7 0.0
2.165217841438684e7 5.858678042918278e6 0.0
0.0 0.0 0.0

-1.6145150365224212e7 2.7910878760679185e7 0.0
2.7910878760679185e7 -1.292122182033745e7 0.0
0.0 0.0 0.0

5.835890492800223e6 3.368668655704741e7 0.0
3.368668655704741e7 -4.934936586829267e6 0.0
0.0 0.0 0.0

1.2033989711751517e7 1.843279784357391e7 0.0
1.843279784357391e7 4.533741627830492e7 0.0
0.0 0.0 0.0

1.3375057083769366e6 7.114451190309911e6 0.0
7.114451190309911e6 -5.751653571239197e7 0.0
0.0 0.0 0.0

-6.304519886014415e6 2.959596331349953e7 0.0
2.959596331349953e7 7.44789437999112e6 0.0
0.0 0.0 0.0

865129.1755165316 1.753037105371304e7 0.0
1.753037105371304e7 369418.2452238207 0.0
0.0 0.0 0.0

-1.4478484113823762e7 1.9104626421268143e7 0.0
1.9104626421268143e7 -4.826161539053918e7 0.0
0.0 0.0 0.0

-6.806630586172577e6 2.410918183215736e7 0.0
2.410918183215736e7 -2.6220432521643694e6 0.0
0.0 0.0 0.0

2.207857003292201e6 3.043138589440087e6 0.0
3.043138589440087e6 -4.937634183077488e7 0.0
0.0 0.0 0.0

-546902.1644669338 2.2437757172414094e7 0.0
2.2437757172414094e7 -1.0065835190347392e7 0.0
0.0 0.0 0.0

4.551273039844235e6 2.4882381163906634e7 0.0
2.4882381163906634e7 -8.092835402462555e6 0.0
0.0 0.0 0.0

2.61221283229355e7 2.5529292976676803e7 0.0
2.5529292976676803e7 1.8924097057312755e6 0.0
0.0 0.0 0.0

-6.96345217136804e6 1.899087088900819e7 0.0
1.899087088900819e7 2.4215046852184474e7 0.0
0.0 0.0 0.0

-2.364887425898325e6 1.6398700500714058e7 0.0
1.6398700500714058e7 -8.478573987692608e6 0.0
0.0 0.0 0.0

-1.0098947485186484e7 2.506245876155466e7 0.0
2.506245876155466e7 -1.2318156875814974e7 0.0
0.0 0.0 0.0

-780647.5070234169 2.7579681746439014e7 0.0
2.7579681746439014e7 -3.772706759056123e6 0.0
0.0 0.0 0.0

-7.222009303647999e6 2.973968422501243e6 0.0
2.973968422501243e6 5.2535446410881914e7 0.0
0.0 0.0 0.0

-2.1692115967101636e6 1.902768780539809e7 0.0
1.902768780539809e7 -9.891123655375887e6 0.0
0.0 0.0 0.0

-1.1342747513986811e7 3.1834030462910254e7 0.0
3.1834030462910254e7 6.094785075853036e6 0.0
0.0 0.0 0.0

1.188467003447445e6 9.031066544323092e6 0.0
9.031066544323092e6 -1.394174155338023e7 0.0
0.0 0.0 0.0

1.1347196448589876e7 2.180244791471033e7 0.0
2.180244791471033e7 1.3321695188302664e7 0.0
0.0 0.0 0.0

-4.8564917436473124e7 3.419307070985457e7 0.0
3.419307070985457e7 3.348236091208484e6 0.0
0.0 0.0 0.0

3.314043164478405e6 1.7037484866192464e7 0.0
1.7037484866192464e7 1.0880518401681913e7 0.0
0.0 0.0 0.0

3.0590745644701803e6 7.266909962659673e6 0.0
7.266909962659673e6 -1.8508480337787624e7 0.0
0.0 0.0 0.0

4.954477121550087e6 2.1040983335566558e7 0.0
2.1040983335566558e7 2.103447374987377e7 0.0
0.0 0.0 0.0

1.9542249965188894e6 2.6917823231980015e7 0.0
2.6917823231980015e7 -7.577078337843468e6 0.0
0.0 0.0 0.0

2.3093585419463396e7 3.420373549901987e7 0.0
3.420373549901987e7 -6.014124937695162e6 0.0
0.0 0.0 0.0

-4.058612714468736e6 1.766725165444839e7 0.0
1.766725165444839e7 -1.3528709378836215e7 0.0
0.0 0.0 0.0

-3.0713268080721237e6 1.8069446973899696e7 0.0
1.8069446973899696e7 9.27806535486806e6 0.0
0.0 0.0 0.0

604196.8177280314 9.163446142365238e6 0.0
9.163446142365238e6 -1.1694487754604615e7 0.0
0.0 0.0 0.0

-5.481872346522163e6 1.9324342553974118e7 0.0
1.9324342553974118e7 -2.748730120485825e7 0.0
0.0 0.0 0.0

367370.0397923454 2.278238803685709e7 0.0
2.278238803685709e7 -1.0438692663176095e7 0.0
0.0 0.0 0.0

1.915403442378489e7 2.568654149750094e7 0.0
2.568654149750094e7 1.4584957827167507e7 0.0
0.0 0.0 0.0

-8.0152456456996575e6 2.415591323659899e7 0.0
2.415591323659899e7 -1.2824208093126252e7 0.0
0.0 0.0 0.0

3.948726763123434e6 2.4701082672007564e7 0.0
2.4701082672007564e7 -7.447153423158581e6 0.0
0.0 0.0 0.0

-8.119472576626838e6 4.278847355749791e6 0.0
4.278847355749791e6 1.1435641575473346e7 0.0
0.0 0.0 0.0

-69304.66628262127 7.8464278845792515e6 0.0
7.8464278845792515e6 -1.7070220164013433e6 0.0
0.0 0.0 0.0

1.1531458112471417e7 2.4196394941269558e7 0.0
2.4196394941269558e7 -1.3518751885572365e6 0.0
0.0 0.0 0.0

2.8059173679361586e6 1.8051111381283566e7 0.0
1.8051111381283566e7 9.182641905788416e6 0.0
0.0 0.0 0.0

6.113336365465923e7 2.495398300444924e7 0.0
2.495398300444924e7 1.685385752967542e7 0.0
0.0 0.0 0.0

-9.73864968316593e6 472788.88156600035 0.0
472788.88156600035 3.175675191893924e7 0.0
0.0 0.0 0.0

-1.986565595020652e7 2.7678246774750605e7 0.0
2.7678246774750605e7 -9.48002649689492e6 0.0
0.0 0.0 0.0

-1.5757498044583635e7 2.5435699221902333e7 0.0
2.5435699221902333e7 -7.173385060021309e6 0.0
0.0 0.0 0.0

-3.696029082894179e7 2.939415054559934e7 0.0
2.939415054559934e7 -1.3948472990827441e7 0.0
0.0 0.0 0.0

4.069778694547409e7 6.193076154558544e6 0.0
6.193076154558544e6 -1.5105851239551343e6 0.0
0.0 0.0 0.0

-5.148268930438023e6 9.595830724229319e6 0.0
9.595830724229319e6 6.143119122145924e7 0.0
0.0 0.0 0.0

-1.7406237987234641e6 1.3044754658123635e7 0.0
1.3044754658123635e7 -460093.08385058655 0.0
0.0 0.0 0.0

-1.8950544019925408e7 2.6924169809395336e7 0.0
2.6924169809395336e7 -1.2935182002425335e7 0.0
0.0 0.0 0.0

-4.478153635137414e6 2.914912490950016e7 0.0
2.914912490950016e7 7.539043200968113e6 0.0
0.0 0.0 0.0

-156444.66169187007 2.2328925800565626e7 0.0
2.2328925800565626e7 -1.1922419389578987e7 0.0
0.0 0.0 0.0

931593.3618892254 1.4816227210405031e7 0.0
1.4816227210405031e7 -1.807908101103112e7 0.0
0.0 0.0 0.0

-131451.48177142185 1.889657652916677e7 0.0
1.889657652916677e7 -6.592971611781213e6 0.0
0.0 0.0 0.0

-8.716759014560908e6 1.6498870645618815e7 0.0
1.6498870645618815e7 -3.1221287890344754e7 0.0
0.0 0.0 0.0

-1.1148190019450376e7 1.9335768557611786e7 0.0
1.9335768557611786e7 -6.887375917485175e7 0.0
0.0 0.0 0.0

1.5021567719683722e7 5.862435448688466e6 0.0
5.862435448688466e6 -2.30450168112358e6 0.0
0.0 0.0 0.0

1.1043766559529759e7 3.453930218963225e7 0.0
3.453930218963225e7 -5.549160305364904e6 0.0
0.0 0.0 0.0

-6.468574844971625e6 1.770473115429052e7 0.0
1.770473115429052e7 -2.1561916933006573e7 0.0
0.0 0.0 0.0

2.0237534941775218e7 1.830480960544115e7 0.0
1.830480960544115e7 4.769113237025103e6 0.0
0.0 0.0 0.0

-588185.0166876628 2.001910620772088e7 0.0
2.001910620772088e7 -7.700760850819347e6 0.0
0.0 0.0 0.0

-281722.9437022465 2.6860771139820144e7 0.0
2.6860771139820144e7 -3.9781595555217266e6 0.0
0.0 0.0 0.0

-5.024292232554425e6 1.9063402766545527e7 0.0
1.9063402766545527e7 -1.8045824989201773e7 0.0
0.0 0.0 0.0

-2.0871147587603748e7 2.1043502376994275e7 0.0
2.1043502376994275e7 1.9844358635805473e6 0.0
0.0 0.0 0.0

-8.949126543547893e6 -2.8627433189001316e6 0.0
-2.8627433189001316e6 1.7584367312948734e7 0.0
0.0 0.0 0.0

-5.531611868209013e6 1.99392060972822e7 0.0
1.99392060972822e7 2.3223537716712393e7 0.0
0.0 0.0 0.0

-421632.1094648136 1.8793909080600865e7 0.0
1.8793909080600865e7 2.4226355430445033e6 0.0
0.0 0.0 0.0

-6.921526048639825e6 1.9391190729419883e7 0.0
1.9391190729419883e7 -1.9263205769920208e7 0.0
0.0 0.0 0.0

-579608.7400368301 2.0055409842592683e7 0.0
2.0055409842592683e7 -8.279876767531561e6 0.0
0.0 0.0 0.0

-2.75551141943874e6 1.4304511950232713e7 0.0
1.4304511950232713e7 -3.0422812557877307e6 0.0
0.0 0.0 0.0

3.038332920174188e7 2.5096828088356856e7 0.0
2.5096828088356856e7 1.0287580080424678e6 0.0
0.0 0.0 0.0

-1.1503239384719897e7 3.5077990212648734e7 0.0
3.5077990212648734e7 6.046591244632238e6 0.0
0.0 0.0 0.0

7.540965922355295e6 2.5742404276870266e7 0.0
2.5742404276870266e7 -5.530533866984062e6 0.0
0.0 0.0 0.0

-5.497951138547895e6 2.28206569454518e7 0.0
2.28206569454518e7 -4.277404296350218e6 0.0
0.0 0.0 0.0

-2.7788017461044886e6 3.4880016978151344e7 0.0
3.4880016978151344e7 2.6691668846934987e6 0.0
0.0 0.0 0.0

-5.140828732966037e6 2.1287438841786e7 0.0
2.1287438841786e7 1.9980836018612113e7 0.0
0.0 0.0 0.0

1.1622230820480152e6 8.403374049702045e6 0.0
8.403374049702045e6 -8.909658574971396e6 0.0
0.0 0.0 0.0

-2.065928665058242e6 8.070289410394667e6 0.0
8.070289410394667e6 2.9149430156034864e6 0.0
0.0 0.0 0.0

-1.2144413354552317e7 1.7155923830341037e7 0.0
1.7155923830341037e7 -4.5291191440459296e7 0.0
0.0 0.0 0.0

-3.42794459654347e6 2.282181458317584e7 0.0
2.282181458317584e7 6.431527026321319e6 0.0
0.0 0.0 0.0

1.4779712520644232e6 5.47969656173258e6 0.0
5.47969656173258e6 -9.028406504406048e6 0.0
0.0 0.0 0.0

-5.930198943823648e7 3.507855357824823e7 0.0
3.507855357824823e7 -8.172314319262743e6 0.0
0.0 0.0 0.0

-1.2940905573232211e6 9.240204094876902e6 0.0
9.240204094876902e6 -6.902790054218844e7 0.0
0.0 0.0 0.0

-1.7266492129719001e6 1.0909388991545357e7 0.0
1.0909388991545357e7 -4.976932514739877e6 0.0
0.0 0.0 0.0

-1.1038963757303732e7 1.790600951874661e7 0.0
1.790600951874661e7 -4.8278334709490746e7 0.0
0.0 0.0 0.0

2.1932772803316135e6 4.603193343544225e6 0.0
4.603193343544225e6 -4.364509011366686e7 0.0
0.0 0.0 0.0

2.8316808140127614e7 3.867874696633006e7 0.0
3.867874696633006e7 -8.491107918136677e6 0.0
0.0 0.0 0.0

2.412239439723257e6 1.0461042005345987e7 0.0
1.0461042005345987e7 -2.8820528295252994e7 0.0
0.0 0.0 0.0

-4.796794410400918e6 1.4195361320876496e7 0.0
1.4195361320876496e7 4.923819132281315e7 0.0
0.0 0.0 0.0

-6.698083301760834e6 1.9190332394939154e7 0.0
1.9190332394939154e7 2.464733298587966e7 0.0
0.0 0.0 0.0

-3.875694627749335e6 2.496200783301672e7 0.0
2.496200783301672e7 1.1700461997515855e7 0.0
0.0 0.0 0.0

-9.436943734295879e6 2.3173854732013863e7 0.0
2.3173854732013863e7 -1.0872080295065066e7 0.0
0.0 0.0 0.0

-5.717708393835224e6 1.9889575861364968e7 0.0
1.9889575861364968e7 2.534691633323355e7 0.0
0.0 0.0 0.0

-2.5091390225789514e6 2.6954252724359307e7 0.0
2.6954252724359307e7 2.173975259350472e6 0.0
0.0 0.0 0.0

1.2872726384250013e7 1.9902156259558503e7 0.0
1.9902156259558503e7 4.290908958686693e7 0.0
0.0 0.0 0.0

-1.0551049907814004e7 532193.0119582487 0.0
532193.0119582487 1.930328171934852e7 0.0
0.0 0.0 0.0

1.0657989666753095e6 2.1844511763609484e7 0.0
2.1844511763609484e7 -1.4929939997827247e7 0.0
0.0 0.0 0.0

-4.220584148742773e6 1.3203515407278046e7 0.0
1.3203515407278046e7 -7.748610633689325e7 0.0
0.0 0.0 0.0

-1.006932545483175e7 3.704196581118284e7 0.0
3.704196581118284e7 5.881010088477214e6 0.0
0.0 0.0 0.0

4.237934145352919e6 2.8735307238836687e7 0.0
2.8735307238836687e7 -6.760927661056465e6 0.0
0.0 0.0 0.0

3.6774377772659445e6 2.2478300493176367e7 0.0
2.2478300493176367e7 3.0911150763192275e6 0.0
0.0 0.0 0.0

-6.5969388653214015e6 1.912159190179215e7 0.0
1.912159190179215e7 2.6166559417250477e7 0.0
0.0 0.0 0.0

-2.2332908769179083e7 3.726087125334934e7 0.0
3.726087125334934e7 6.80057703195878e6 0.0
0.0 0.0 0.0

1.873188793068611e6 2.4581341057654887e7 0.0
2.4581341057654887e7 -1.0592538920933595e7 0.0
0.0 0.0 0.0

-5.559114436759188e6 1.756968673210228e7 0.0
1.756968673210228e7 -3.5585911720262595e7 0.0
0.0 0.0 0.0

-1.7217176887309425e7 3.987635510551029e7 0.0
3.987635510551029e7 5.824419344657694e6 0.0
0.0 0.0 0.0

3.935813882600954e7 3.57565465698387e7 0.0
3.57565465698387e7 -9.112087169502078e6 0.0
0.0 0.0 0.0

2.8701505372880665e6 2.1390789023913417e7 0.0
2.1390789023913417e7 4.390347517890449e6 0.0
0.0 0.0 0.0

1.7281527629071455e6 1.244999071796331e7 0.0
1.244999071796331e7 -2.558877992812849e7 0.0
0.0 0.0 0.0

-1.3635603706287578e7 1.9909540212145872e7 0.0
1.9909540212145872e7 -5.269376330259569e7 0.0
0.0 0.0 0.0

1.852519177402842e7 3.440962251518543e7 0.0
3.440962251518543e7 -5.97466082032259e6 0.0
0.0 0.0 0.0

-688651.0070802597 2.0338688365467746e7 0.0
2.0338688365467746e7 -1.5497531791391307e7 0.0
0.0 0.0 0.0

984869.1840038891 3.1540839275961e7 0.0
3.1540839275961e7 -3.4267568049462615e6 0.0
0.0 0.0 0.0

-2.9226399592709243e6 1.2209318590514451e7 0.0
1.2209318590514451e7 -6.490615199046819e7 0.0
0.0 0.0 0.0

1.5147760822381044e6 2.042833151781969e7 0.0
2.042833151781969e7 8.978683366737442e6 0.0
0.0 0.0 0.0

-2.6609744187906124e7 3.377170176572754e7 0.0
3.377170176572754e7 5.992702568866964e6 0.0
0.0 0.0 0.0

-1.8865352591802643e6 2.7459000807334412e7 0.0
2.7459000807334412e7 2.9010325042960807e6 0.0
0.0 0.0 0.0

2.734361771020631e7 2.2494066880855925e7 0.0
2.2494066880855925e7 1.0772026711766481e7 0.0
0.0 0.0 0.0

-3.7045304119019024e6 3.5799006937665805e7 0.0
3.5799006937665805e7 1.4187848848737716e6 0.0
0.0 0.0 0.0

3.8560659051309926e6 2.023124468580696e7 0.0
2.023124468580696e7 1.4505076337494196e7 0.0
0.0 0.0 0.0

-2.021837573406085e6 3.0677086210331395e6 0.0
3.0677086210331395e6 94742.56565042422 0.0
0.0 0.0 0.0

1.153316013313521e7 3.670793216819667e7 0.0
3.670793216819667e7 -4.73606865524025e6 0.0
0.0 0.0 0.0

-266680.68966049515 1.9612064747738067e7 0.0
1.9612064747738067e7 -2.1604464656005725e7 0.0
0.0 0.0 0.0

1.9291054203252457e6 3.7400026495501907e6 0.0
3.7400026495501907e6 -5.462723303733387e7 0.0
0.0 0.0 0.0

-418777.7935525186 1.1955703060517848e7 0.0
1.1955703060517848e7 -7.579003302754822e6 0.0
0.0 0.0 0.0

1.6392445007526618e6 6.86604270890706e6 0.0
6.86604270890706e6 -9.267954238952458e6 0.0
0.0 0.0 0.0

1.052676221074731e6 1.577822278677802e7 0.0
1.577822278677802e7 -1.7905688237769417e7 0.0
0.0 0.0 0.0

-2.3263151037310883e7 3.1766364729167387e7 0.0
3.1766364729167387e7 4.956385688050343e6 0.0
0.0 0.0 0.0

-3.232514027797981e6 2.292685848131532e7 0.0
2.292685848131532e7 3.5399779957830925e6 0.0
0.0 0.0 0.0

6.171756829620404e6 2.6193593024300013e7 0.0
2.6193593024300013e7 -6.222334593456874e6 0.0
0.0 0.0 0.0

2.425399350782102e6 6.057355170988057e6 0.0
6.057355170988057e6 -4.271849546997066e7 0.0
0.0 0.0 0.0

30980.580311177764 2.226645232094067e7 0.0
2.226645232094067e7 -1.0095292550108004e7 0.0
0.0 0.0 0.0

-49292.48812903091 1.8627060207779825e7 0.0
1.8627060207779825e7 -1.5446278247262996e7 0.0
0.0 0.0 0.0

-1.4994843447185433e7 2.5850830202673938e7 0.0
2.5850830202673938e7 -1.2330173275308518e7 0.0
0.0 0.0 0.0

1.6469429799692191e7 3.1674205782264724e7 0.0
3.1674205782264724e7 -5.811911611145717e6 0.0
0.0 0.0 0.0

-4.833015319404093e6 2.638133043176742e7 0.0
2.638133043176742e7 1.0907011807242189e7 0.0
0.0 0.0 0.0

3.4731737918802835e6 2.1235998431641497e7 0.0
2.1235998431641497e7 1.41707810597751e7 0.0
0.0 0.0 0.0

5.16208455913445e6 1.883810812200139e7 0.0
1.883810812200139e7 8.010659478382356e7 0.0
0.0 0.0 0.0

-4.3760260362730175e6 3.979498006197513e7 0.0
3.979498006197513e7 3.614058769011163e6 0.0
0.0 0.0 0.0

1.412450268949409e6 2.2572838196488228e7 0.0
2.2572838196488228e7 -9.756833389252521e6 0.0
0.0 0.0 0.0

1.8623159854406975e6 1.1212516742404902e7 0.0
1.1212516742404902e7 -3.357222474187618e7 0.0
0.0 0.0 0.0

1.886024625465285e6 1.028843816978083e7 0.0
1.028843816978083e7 -3.545295326727333e7 0.0
0.0 0.0 0.0

3.4511950097163767e6 3.085106288004733e6 0.0
3.085106288004733e6 -3.0340793961634383e7 0.0
0.0 0.0 0.0

-3.123844172030807e6 2.5614263551308908e7 0.0
2.5614263551308908e7 1.0918774252272382e7 0.0
0.0 0.0 0.0

3.088502911285635e6 3.355169588785347e6 0.0
3.355169588785347e6 -3.0195597515579883e7 0.0
0.0 0.0 0.0

-9.481437824629975e6 3.6180869091044827e6 0.0
3.6180869091044827e6 3.825287578637458e7 0.0
0.0 0.0 0.0

-3.367619260920902e6 2.3148399598744128e7 0.0
2.3148399598744128e7 1.7268879199992225e7 0.0
0.0 0.0 0.0

-2.3755703835171387e6 1.155851997361163e7 0.0
1.155851997361163e7 -3.3286975682871845e6 0.0
0.0 0.0 0.0

3.2319570866793576e6 2.9381511643154923e7 0.0
2.9381511643154923e7 -6.33463600940759e6 0.0
0.0 0.0 0.0

7.386273618758895e6 3.313198684914001e7 0.0
3.313198684914001e7 -4.423180987179264e6 0.0
0.0 0.0 0.0

1.7299741061073497e6 1.7273303351868138e7 0.0
1.7273303351868138e7 3.982711392218372e6 0.0
0.0 0.0 0.0

-2.0187397685305066e6 1.2367018800065894e7 0.0
1.2367018800065894e7 -5.5713589044364914e7 0.0
0.0 0.0 0.0

2.496673936154701e6 4.287083389595897e6 0.0
4.287083389595897e6 -4.7057868967495486e7 0.0
0.0 0.0 0.0

-5.4338766625136614e7 3.995446213833057e7 0.0
3.995446213833057e7 -1.3634357499980697e7 0.0
0.0 0.0 0.0

2.7008762151933692e7 2.6449499916095067e7 0.0
2.6449499916095067e7 1.2975012641870052e7 0.0
0.0 0.0 0.0

5.994863080327649e6 3.2604647834968407e7 0.0
3.2604647834968407e7 -4.408805691258113e6 0.0
0.0 0.0 0.0

345637.5633157259 2.0446503345732167e7 0.0
2.0446503345732167e7 2.1092956633636676e7 0.0
0.0 0.0 0.0

1.3894104140385434e6 1.8988748946348947e7 0.0
1.8988748946348947e7 4.1854377139017084e6 0.0
0.0 0.0 0.0

-8.580963613898238e6 8.586423059450248e6 0.0
8.586423059450248e6 4.4700921709640376e7 0.0
0.0 0.0 0.0

-1.2397348869063409e7 3.3158447606072675e7 0.0
3.3158447606072675e7 5.773705104295426e6 0.0
0.0 0.0 0.0

-1.2470273099314736e6 1.5661843090110159e7 0.0
1.5661843090110159e7 -9.57586595242023e6 0.0
0.0 0.0 0.0

-1.0400437219660614e7 2.4962113307626536e6 0.0
2.4962113307626536e6 3.011439236016941e7 0.0
0.0 0.0 0.0

655083.9810145125 1.332635800334432e7 0.0
1.332635800334432e7 9.53721149768204e7 0.0
0.0 0.0 0.0

1.113124083499726e6 2.253911464942634e7 0.0
2.253911464942634e7 -1.3745058806177076e7 0.0
0.0 0.0 0.0

2.480885396669279e6 4.46728401692695e6 0.0
4.46728401692695e6 -9.837668795113143e6 0.0
0.0 0.0 0.0

-5.314005430332951e6 9.40774249222129e6 0.0
9.40774249222129e6 6.380346394027735e7 0.0
0.0 0.0 0.0

2.921351593039332e6 3.3242633249665275e6 0.0
3.3242633249665275e6 -3.8499124549684756e7 0.0
0.0 0.0 0.0

-7.121249890355975e6 2.2985786202461652e7 0.0
2.2985786202461652e7 -1.3771100175424922e7 0.0
0.0 0.0 0.0

-2.4490420745356757e7 2.8054501062981416e7 0.0
2.8054501062981416e7 -1.3669195507420294e7 0.0
0.0 0.0 0.0

165530.6803461071 2.033534481519861e7 0.0
2.033534481519861e7 -1.7980527492286656e7 0.0
0.0 0.0 0.0

-2.6177898494032524e6 1.2432079452665254e7 0.0
1.2432079452665254e7 1.935148395264527e6 0.0
0.0 0.0 0.0

-5.870328026692947e6 2.386375606694413e7 0.0
2.386375606694413e7 858176.4052232478 0.0
0.0 0.0 0.0

2.067537026276312e7 3.0671357443161484e7 0.0
3.0671357443161484e7 -5.361747753406049e6 0.0
0.0 0.0 0.0

-8.857964006249532e6 -2.908666770991435e6 0.0
-2.908666770991435e6 1.9748558568684045e7 0.0
0.0 0.0 0.0

1.2644315725542359e7 2.2221771199972156e7 0.0
2.2221771199972156e7 7.751899084877185e6 0.0
0.0 0.0 0.0

2.0035431922276918e7 4.009230166917567e7 0.0
4.009230166917567e7 -8.115211344872949e6 0.0
0.0 0.0 0.0

3.2209888861197196e6 3.357504793985497e6 0.0
3.357504793985497e6 -3.4037122530055396e7 0.0
0.0 0.0 0.0

-3.276942325793816e6 2.0054042691474605e7 0.0
2.0054042691474605e7 4.803501859024039e6 0.0
0.0 0.0 0.0

1.2183686117920637e7 2.1209338992199294e7 0.0
2.1209338992199294e7 4.8079393952810585e7 0.0
0.0 0.0 0.0

6.66403587948704e7 7.746175025301725e6 0.0
7.746175025301725e6 -552232.2467999309 0.0
0.0 0.0 0.0

-3.164039397714555e7 3.040114917737119e7 0.0
3.040114917737119e7 -1.3044651245961526e7 0.0
0.0 0.0 0.0

-2.6689195645141527e6 2.6485442107586555e7 0.0
2.6485442107586555e7 3.2069413935592487e6 0.0
0.0 0.0 0.0

-1.4834777290786915e6 1.2626574728519924e7 0.0
1.2626574728519924e7 -4.857219565054098e7 0.0
0.0 0.0 0.0

-1.7354659716171745e7 3.1175725632846016e7 0.0
3.1175725632846016e7 5.288294548853075e6 0.0
0.0 0.0 0.0

1.0930607970387515e7 2.2649799052044068e7 0.0
2.2649799052044068e7 9.665514373989044e6 0.0
0.0 0.0 0.0

-2.7622215527745634e6 8.9648324911582e6 0.0
8.9648324911582e6 7.689948939734994e7 0.0
0.0 0.0 0.0

-4.677632972896095e6 2.4748950443238985e7 0.0
2.4748950443238985e7 1.1845523219544673e7 0.0
0.0 0.0 0.0

4.1162768101084223e6 1.8985296954396643e7 0.0
1.8985296954396643e7 1.913899971204325e7 0.0
0.0 0.0 0.0

-693636.0861636368 2.051085107530334e7 0.0
2.051085107530334e7 -1.1559026891848184e7 0.0
0.0 0.0 0.0

9.06387457432257e6 2.395389395808848e7 0.0
2.395389395808848e7 -1.0407151587643619e6 0.0
0.0 0.0 0.0

2.7623423464102293e6 2.325319971968439e7 0.0
2.325319971968439e7 -6.709127695456668e6 0.0
0.0 0.0 0.0

-2.8504321122261924e6 1.5613054709310591e7 0.0
1.5613054709310591e7 -2.8032135303380783e6 0.0
0.0 0.0 0.0

2.458183190446604e6 2.0059985754471526e7 0.0
2.0059985754471526e7 2.4699063950218976e7 0.0
0.0 0.0 0.0

1.1694635867026763e6 2.006046388854446e7 0.0
2.006046388854446e7 2.955768769409965e6 0.0
0.0 0.0 0.0

227225.35863673105 1.9557556120851334e7 0.0
1.9557556120851334e7 -3.9890002285016677e6 0.0
0.0 0.0 0.0

-5.713482853613382e6 1.7887506809761643e7 0.0
1.7887506809761643e7 -3.120865550253266e7 0.0
0.0 0.0 0.0

-2.7652962376016444e6 2.9453643136810966e7 0.0
2.9453643136810966e7 4.822781524029504e6 0.0
0.0 0.0 0.0

-2.159178668590234e7 2.6573919731821373e7 0.0
2.6573919731821373e7 -1.2548034822488056e7 0.0
0.0 0.0 0.0

-1.0346416546527373e7 3.426768846639335e7 0.0
3.426768846639335e7 5.2282136594357155e6 0.0
0.0 0.0 0.0

-545962.4305484211 2.1527429606029455e7 0.0
2.1527429606029455e7 1.4983552261791816e7 0.0
0.0 0.0 0.0

2.8039657679296993e6 6.558274955734187e6 0.0
6.558274955734187e6 -3.419676850806654e7 0.0
0.0 0.0 0.0

946839.7347561866 2.188771695003768e7 0.0
2.188771695003768e7 -1.4844675345836367e7 0.0
0.0 0.0 0.0

1.7278825387142356e7 3.1355030187472317e7 0.0
3.1355030187472317e7 -5.307584946982896e6 0.0
0.0 0.0 0.0

-9.694248134103585e6 2.627605430178985e6 0.0
2.627605430178985e6 3.5200759944184616e7 0.0
0.0 0.0 0.0

-4.509197691362716e6 2.4020967006779537e7 0.0
2.4020967006779537e7 8.480392573944297e6 0.0
0.0 0.0 0.0

1.9781708254695046e6 2.228124672991694e7 0.0
2.228124672991694e7 2.5616735136026125e6 0.0
0.0 0.0 0.0

9.884086642469235e6 2.507987911222369e7 0.0
2.507987911222369e7 -2.9609816423876104e6 0.0
0.0 0.0 0.0

-1.0204706118868781e7 8.909492574858358e6 0.0
8.909492574858358e6 3.293291838373395e7 0.0
0.0 0.0 0.0

6.533661706348501e6 1.8400221777311806e7 0.0
1.8400221777311806e7 2.625329675974406e7 0.0
0.0 0.0 0.0

-8.863990300206766e6 2.2538489563624848e7 0.0
2.2538489563624848e7 -1.3364987915190078e7 0.0
0.0 0.0 0.0

-658289.8862116262 1.768585656456386e7 0.0
1.768585656456386e7 -2.7983513546734672e7 0.0
0.0 0.0 0.0

1.0257493350083217e7 3.907558754109836e7 0.0
3.907558754109836e7 -3.7855783742658165e6 0.0
0.0 0.0 0.0

-9.99629434914327e6 3.5621602016128555e7 0.0
3.5621602016128555e7 4.616087445526246e6 0.0
0.0 0.0 0.0

-1.0642182286372904e7 1.014512936074714e7 0.0
1.014512936074714e7 2.8517217555545565e7 0.0
0.0 0.0 0.0

-9.4854521258287e6 2.4536653985867944e7 0.0
2.4536653985867944e7 -7.324397525713373e6 0.0
0.0 0.0 0.0

-7.479038144037902e6 3.613324094575229e7 0.0
3.613324094575229e7 3.5789858839902426e6 0.0
0.0 0.0 0.0

-8.197700553567868e6 3.496173432169908e7 0.0
3.496173432169908e7 4.3424331205978e6 0.0
0.0 0.0 0.0

4.1082584534427836e6 1.8057328571700837e7 0.0
1.8057328571700837e7 1.5935732290036539e7 0.0
0.0 0.0 0.0

1.8151195909951413e6 1.4057397242516803e7 0.0
1.4057397242516803e7 -2.312625997359917e7 0.0
0.0 0.0 0.0

6.0684328945673995e7 3.655182237285522e7 0.0
3.655182237285522e7 2.63501022912246e7 0.0
0.0 0.0 0.0

-4.0409820126840666e7 3.696088263363179e6 0.0
3.696088263363179e6 6.70178977580861e6 0.0
0.0 0.0 0.0

-1.930168435585447e7 3.030691773873674e7 0.0
3.030691773873674e7 3.8791038922930164e6 0.0
0.0 0.0 0.0

2.436073067892613e6 3.0795853383446834e6 0.0
3.0795853383446834e6 -3.829556863383577e7 0.0
0.0 0.0 0.0

-52953.57501072902 2.1593309873402752e7 0.0
2.1593309873402752e7 -1.3223856437834946e7 0.0
0.0 0.0 0.0

-1.431659700339856e7 3.162245063308331e7 0.0
3.162245063308331e7 5.858571726138457e6 0.0
0.0 0.0 0.0

-1.0019842552563902e7 6.224144043132509e6 0.0
6.224144043132509e6 3.692842317629327e7 0.0
0.0 0.0 0.0

1.46367707913417e6 1.0891762511386616e7 0.0
1.0891762511386616e7 -3.138075045243463e7 0.0
0.0 0.0 0.0

-7.062208040167478e6 1.7351506940264806e7 0.0
1.7351506940264806e7 -2.5471014832735986e7 0.0
0.0 0.0 0.0

1.1130250761250267e7 2.3743816287972726e7 0.0
2.3743816287972726e7 9.965838683890147e6 0.0
0.0 0.0 0.0

-4.205033588146114e7 3.2865383859117813e7 0.0
3.2865383859117813e7 -1.1314800413838528e7 0.0
0.0 0.0 0.0

-3.99773676532768e6 1.3785813515171759e7 0.0
1.3785813515171759e7 1.9959248179907915e6 0.0
0.0 0.0 0.0

-1.0808749433566485e7 3.0471432572257925e7 0.0
3.0471432572257925e7 6.208462390601182e6 0.0
0.0 0.0 0.0

-2.1795680289356867e6 3.0631178253109634e7 0.0
3.0631178253109634e7 3.1329424982215273e6 0.0
0.0 0.0 0.0

-7.468133408818e6 6.894228730227352e6 0.0
6.894228730227352e6 1.9981985667833067e7 0.0
0.0 0.0 0.0

-9.175384651739338e6 -284272.00071892486 0.0
-284272.00071892486 2.08428150843673e7 0.0
0.0 0.0 0.0

1.0536902478684308e6 1.4455356144468972e7 0.0
1.4455356144468972e7 -2.377294932530407e7 0.0
0.0 0.0 0.0

-9.575202234351205e6 4.9307451471092915e6 0.0
4.9307451471092915e6 3.6646190747479774e7 0.0
0.0 0.0 0.0

454420.47284819186 1.8141202511626188e7 0.0
1.8141202511626188e7 -2.166619087387436e7 0.0
0.0 0.0 0.0

9.275636578377496e6 2.257980263755698e7 0.0
2.257980263755698e7 445403.6534390142 0.0
0.0 0.0 0.0

698548.0261318227 9.792943588278746e6 0.0
9.792943588278746e6 -1.264137603902807e7 0.0
0.0 0.0 0.0

-2.0506696608102866e7 3.0295759727575082e7 0.0
3.0295759727575082e7 3.865225704931535e6 0.0
0.0 0.0 0.0

-1.327212598201514e7 2.601019868446637e7 0.0
2.601019868446637e7 -1.2528156456344258e7 0.0
0.0 0.0 0.0

596271.9586871074 1.876342714752463e7 0.0
1.876342714752463e7 1.9875742649695145e6 0.0
0.0 0.0 0.0

-464475.84540455445 1.8783413310393568e7 0.0
1.8783413310393568e7 -1.5482536601031548e6 0.0
0.0 0.0 0.0

1.668272988679289e6 1.4813415177577686e7 0.0
1.4813415177577686e7 -2.182617630939012e7 0.0
0.0 0.0 0.0

-6.352429782816549e6 1.8164741533247463e7 0.0
1.8164741533247463e7 -2.4921501343762625e7 0.0
0.0 0.0 0.0

-1.051665833119909e7 1.7992185924129784e6 0.0
1.7992185924129784e6 2.6922412033751313e7 0.0
0.0 0.0 0.0

-3.653734950353067e6 1.502133379977142e7 0.0
1.502133379977142e7 8.409944209251948e6 0.0
0.0 0.0 0.0

1.9168099650411885e6 2.423547453672841e7 0.0
2.423547453672841e7 -1.0783260269129243e7 0.0
0.0 0.0 0.0

2.3844447250736766e6 7.498326495922258e6 0.0
7.498326495922258e6 -2.3946813328381296e7 0.0
0.0 0.0 0.0

-4.425464075470718e7 2.9275441107875332e7 0.0
2.9275441107875332e7 -6.182856223573031e6 0.0
0.0 0.0 0.0

7.139491665378101e6 2.369446245966076e7 0.0
2.369446245966076e7 -1.3722989388376833e6 0.0
0.0 0.0 0.0

2.6875786618848953e7 2.2265725632451706e7 0.0
2.2265725632451706e7 5.487093926294314e6 0.0
0.0 0.0 0.0

-1.093112876947544e7 3.987589644327656e7 0.0
3.987589644327656e7 5.903562213749284e6 0.0
0.0 0.0 0.0

-1.0645570617161606e7 4.957584679825266e6 0.0
4.957584679825266e6 2.3670753097517174e7 0.0
0.0 0.0 0.0

-274261.45073199924 1.9316100606014095e7 0.0
1.9316100606014095e7 -1.4138935829688374e7 0.0
0.0 0.0 0.0

-1.1417241795674933e7 2.434848678290821e7 0.0
2.434848678290821e7 -6.738292893596655e6 0.0
0.0 0.0 0.0

-2.2120731765579894e7 3.4108021794137515e7 0.0
3.4108021794137515e7 5.652063067230225e6 0.0
0.0 0.0 0.0

-8.316202637036387e6 1.882605554478398e7 0.0
1.882605554478398e7 -3.959995545292984e7 0.0
0.0 0.0 0.0

2.2715731145362835e6 1.977447712058881e7 0.0
1.977447712058881e7 1.0198881814259188e7 0.0
0.0 0.0 0.0

-5.524132769762227e6 1.7952133235254217e7 0.0
1.7952133235254217e7 -2.7189291500073325e7 0.0
0.0 0.0 0.0

-1.6568893826055761e7 3.749907288859686e7 0.0
3.749907288859686e7 6.435497332308369e6 0.0
0.0 0.0 0.0

1.681422891476418e6 2.7131441966381844e7 0.0
2.7131441966381844e7 -7.895162250004038e6 0.0
0.0 0.0 0.0

-8.212704444697972e6 2.48666406888265e7 0.0
2.48666406888265e7 -863553.8245944413 0.0
0.0 0.0 0.0

1.4925155299728233e6 1.2032987589724103e7 0.0
1.2032987589724103e7 -3.413782696265075e7 0.0
0.0 0.0 0.0

-8.843572245520605e6 8.642000261423307e6 0.0
8.642000261423307e6 4.196120559003996e7 0.0
0.0 0.0 0.0

-1.4241698477360772e6 1.9413681937091105e7 0.0
1.9413681937091105e7 -9.31331987542971e6 0.0
0.0 0.0 0.0

9.94760125038984e6 2.3585176391733296e7 0.0
2.3585176391733296e7 -1.5031447698083082e6 0.0
0.0 0.0 0.0

-6.946730673931633e6 1.9020888404330354e7 0.0
1.9020888404330354e7 -3.298246122841855e7 0.0
0.0 0.0 0.0

-1.18553814407737e7 3.0218999426781308e7 0.0
3.0218999426781308e7 5.798092223958646e6 0.0
0.0 0.0 0.0

3.095106920578617e7 3.7825958757667154e7 0.0
3.7825958757667154e7 -7.177468418800749e6 0.0
0.0 0.0 0.0

-7.911282163623475e6 2.4242673134809684e7 0.0
2.4242673134809684e7 -5.045234174978092e6 0.0
0.0 0.0 0.0

-1.241939865068882e7 3.1632842080956433e7 0.0
3.1632842080956433e7 5.740557370006082e6 0.0
0.0 0.0 0.0

-6.006291587242134e6 2.0288265665492523e7 0.0
2.0288265665492523e7 2.1485191831132922e7 0.0
0.0 0.0 0.0

4.024313883387717e6 2.2483811267919254e7 0.0
2.2483811267919254e7 -5.405338660266103e6 0.0
0.0 0.0 0.0

-3.406631925262678e6 2.9510225734348364e7 0.0
2.9510225734348364e7 5.646154414998602e6 0.0
0.0 0.0 0.0

-6.884274178823712e6 1.7612033840686996e7 0.0
1.7612033840686996e7 -3.7925044534376256e7 0.0
0.0 0.0 0.0

2.5109576852421053e6 5.021527389272029e6 0.0
5.021527389272029e6 -3.2606612129387554e7 0.0
0.0 0.0 0.0

-6.84571287861976e6 1.9102052124491163e7 0.0
1.9102052124491163e7 -2.892901993139073e7 0.0
0.0 0.0 0.0

-4.9412274391643265e6 3.278415812386594e7 0.0
3.278415812386594e7 3.6012510597673785e6 0.0
0.0 0.0 0.0

-3.4981750804005866e6 2.014602026986004e7 0.0
2.014602026986004e7 -1.1660583618635107e7 0.0
0.0 0.0 0.0

3.2136711907586018e6 2.0229848392459974e7 0.0
2.0229848392459974e7 1.0712237841825267e7 0.0
0.0 0.0 0.0

-7.0272448273055535e6 1.7703278239552714e7 0.0
1.7703278239552714e7 3.1115283597356204e7 0.0
0.0 0.0 0.0

-1.6696759119312088e6 1.506463429399206e7 0.0
1.506463429399206e7 -1.912700296884865e6 0.0
0.0 0.0 0.0

1.3582053342160922e7 1.8989616899802044e7 0.0
1.8989616899802044e7 5.190299896897482e7 0.0
0.0 0.0 0.0

-9.120617470589163e6 3.493695383091766e6 0.0
3.493695383091766e6 4.1510046084665544e7 0.0
0.0 0.0 0.0

1.8915500086681824e6 4.37646400338704e6 0.0
4.37646400338704e6 -4.658995577891224e7 0.0
0.0 0.0 0.0

-4.628027288867718e6 1.912061282923313e7 0.0
1.912061282923313e7 -2.9624872466310974e7 0.0
0.0 0.0 0.0

-1.0628136334804958e7 3.1808096047072425e7 0.0
3.1808096047072425e7 5.830560247153627e6 0.0
0.0 0.0 0.0

3.2034256974251296e7 1.4836065242049051e7 0.0
1.4836065242049051e7 1.313056067163501e6 0.0
0.0 0.0 0.0

-1.0885122060269065e7 7.353648875780037e6 0.0
7.353648875780037e6 3.110070028489178e7 0.0
0.0 0.0 0.0

-2.706049541430351e7 3.1841125424090385e7 0.0
3.1841125424090385e7 -1.375678658153587e7 0.0
0.0 0.0 0.0

-3.810265529100971e6 2.3401882848376084e7 0.0
2.3401882848376084e7 8.869381017262498e6 0.0
0.0 0.0 0.0

-2.196354720768656e7 3.7270589941277355e7 0.0
3.7270589941277355e7 6.783463472840046e6 0.0
0.0 0.0 0.0

1.6516761409394722e6 4.937667485295831e6 0.0
4.937667485295831e6 -4.803647640696592e7 0.0
0.0 0.0 0.0

7.277280865149881e6 3.1810725594512664e7 0.0
3.1810725594512664e7 -5.061166566172948e6 0.0
0.0 0.0 0.0

-3.4214660873899497e6 1.3657593327465001e7 0.0
1.3657593327465001e7 5.865265779447873e7 0.0
0.0 0.0 0.0

-3.6592879431930967e6 2.845222494943474e7 0.0
2.845222494943474e7 7.833762333887254e6 0.0
0.0 0.0 0.0

-1.7294151991409864e6 1.8790780635276005e7 0.0
1.8790780635276005e7 -7.085330252438022e6 0.0
0.0 0.0 0.0

-7.8940037606398e6 2.267833776087943e6 0.0
2.267833776087943e6 1.4031119421393648e7 0.0
0.0 0.0 0.0

5.162519368979057e6 2.037839708810675e7 0.0
2.037839708810675e7 1.7016688587187104e7 0.0
0.0 0.0 0.0

-4.768061920694714e6 2.447144148051534e7 0.0
2.447144148051534e7 1.038192161233834e7 0.0
0.0 0.0 0.0

1.4317092622214118e6 1.0634199711054202e7 0.0
1.0634199711054202e7 -1.1341574631268078e7 0.0
0.0 0.0 0.0

-3.731488520901632e6 2.24222320419324e7 0.0
2.24222320419324e7 1.0386086496837204e6 0.0
0.0 0.0 0.0

8.138857651559483e6 2.3177718671961077e7 0.0
2.3177718671961077e7 -2.121192585607631e6 0.0
0.0 0.0 0.0

-2.3535629299781974e6 1.5165073436401134e7 0.0
1.5165073436401134e7 1.3926200991075314e6 0.0
0.0 0.0 0.0

-4.492164883029234e6 1.7530044399371065e7 0.0
1.7530044399371065e7 -3.3363846813864507e7 0.0
0.0 0.0 0.0

-3.900925872420513e6 1.8789419699631978e7 0.0
1.8789419699631978e7 8.051277841786752e6 0.0
0.0 0.0 0.0

-5.286002405296804e6 2.004962603873389e7 0.0
2.004962603873389e7 2.535065649181093e7 0.0
0.0 0.0 0.0

-9.613056645429617e6 1.6109134575763189e6 0.0
1.6109134575763189e6 3.0122102637208354e7 0.0
0.0 0.0 0.0

-1.30438426396227e7 2.4959979351676155e7 0.0
2.4959979351676155e7 -66278.22280571051 0.0
0.0 0.0 0.0

-7.56648221433267e6 2.9960511707843382e7 0.0
2.9960511707843382e7 6.895856247397836e6 0.0
0.0 0.0 0.0

1.3319855079673307e7 3.216871992284438e7 0.0
3.216871992284438e7 -5.715242615898228e6 0.0
0.0 0.0 0.0

-1.0407666727542546e7 6.862597008127603e6 0.0
6.862597008127603e6 3.392662708578107e7 0.0
0.0 0.0 0.0

-5.609242880255394e6 1.850377349401891e7 0.0
1.850377349401891e7 -3.481456469491817e7 0.0
0.0 0.0 0.0

-4.882654035409845e6 2.9844072145569723e7 0.0
2.9844072145569723e7 6.928199938982375e6 0.0
0.0 0.0 0.0

740469.6577895046 2.0912645154058598e7 0.0
2.0912645154058598e7 -8.1970766239309e6 0.0
0.0 0.0 0.0

-1.6920784641741326e6 1.6382895621267067e7 0.0
1.6382895621267067e7 -8.086622648977499e6 0.0
0.0 0.0 0.0

-1.0116821661663566e7 2.383496942353219e6 0.0
2.383496942353219e6 2.1599399603151113e7 0.0
0.0 0.0 0.0

-1.0263841040884404e7 3.3109198417283587e7 0.0
3.3109198417283587e7 5.812936984979043e6 0.0
0.0 0.0 0.0

-1.4948018971981758e6 2.497312231847224e7 0.0
2.497312231847224e7 -246305.82584527548 0.0
0.0 0.0 0.0

4.062651894851231e6 2.188054279706956e7 0.0
2.188054279706956e7 1.535060108394572e7 0.0
0.0 0.0 0.0

-2.693310984948895e6 2.423406660064125e6 0.0
2.423406660064125e6 5.9072203670223085e6 0.0
0.0 0.0 0.0

5.053591260005938e6 2.216770163446963e7 0.0
2.216770163446963e7 5.375332336706524e6 0.0
0.0 0.0 0.0

-1.056809585824594e6 9.490113086931031e6 0.0
9.490113086931031e6 -6.3632196457674965e7 0.0
0.0 0.0 0.0

7.678921828507701e6 3.656149521692075e7 0.0
3.656149521692075e7 -4.869851230843104e6 0.0
0.0 0.0 0.0

-5.247878495954664e6 2.55283977838719e7 0.0
2.55283977838719e7 1.1106093225181453e7 0.0
0.0 0.0 0.0

-1.0430687570486177e7 1.1026515179963844e7 0.0
1.1026515179963844e7 1.6045368659572735e7 0.0
0.0 0.0 0.0

-1.5352663015471522e6 2.169865848915131e7 0.0
2.169865848915131e7 -3.580582788037673e6 0.0
0.0 0.0 0.0

-1.2184180858515538e6 1.1858223885950752e7 0.0
1.1858223885950752e7 -5.9348610958496526e7 0.0
0.0 0.0 0.0

-1.1534032734874496e6 1.8318659285178725e7 0.0
1.8318659285178725e7 -2.516134167136727e7 0.0
0.0 0.0 0.0

-1.0650689151924953e7 3.7316607783156976e7 0.0
3.7316607783156976e7 4.230808458322203e6 0.0
0.0 0.0 0.0

-2.7246624575421675e6 1.9853659268914796e7 0.0
1.9853659268914796e7 -9.082209334363183e6 0.0
0.0 0.0 0.0

-5.586017820371962e6 2.378552791754674e7 0.0
2.378552791754674e7 -1.3100178829356976e7 0.0
0.0 0.0 0.0

-2.300401463334398e6 2.575948544174763e7 0.0
2.575948544174763e7 6.150577105498464e6 0.0
0.0 0.0 0.0

673211.6178478459 1.9372519084449843e7 0.0
1.9372519084449843e7 -1.426258864463422e7 0.0
0.0 0.0 0.0

8.70383521991285e6 2.3536269154813305e7 0.0
2.3536269154813305e7 8.271341421111925e6 0.0
0.0 0.0 0.0

-8.84554796758486e6 2.4392115275430378e7 0.0
2.4392115275430378e7 -1.3118968605371224e7 0.0
0.0 0.0 0.0

-2.526910681236959e6 2.2787593221946534e7 0.0
2.2787593221946534e7 6.328163780100402e6 0.0
0.0 0.0 0.0

-4.382290733034365e6 9.958481846834416e6 0.0
9.958481846834416e6 6.465639644695192e7 0.0
0.0 0.0 0.0

-572182.6661722942 1.5912025271762917e7 0.0
1.5912025271762917e7 -7.340088969045793e6 0.0
0.0 0.0 0.0

-7.932772990965308e6 1.6516520523643099e7 0.0
1.6516520523643099e7 -2.7159248321784373e7 0.0
0.0 0.0 0.0

759630.8559926515 2.13045055644744e7 0.0
2.13045055644744e7 -1.6360016689320529e7 0.0
0.0 0.0 0.0

-6.112447692401187e6 2.1270898949754827e7 0.0
2.1270898949754827e7 -1.694494304562973e7 0.0
0.0 0.0 0.0

-3.7532232459133654e6 2.3869332359510485e7 0.0
2.3869332359510485e7 1.0863901892651174e7 0.0
0.0 0.0 0.0

622509.5774660172 1.8448586102933116e7 0.0
1.8448586102933116e7 2.0750319464528065e6 0.0
0.0 0.0 0.0

-2.746487092720296e6 3.0851858140763853e7 0.0
3.0851858140763853e7 4.027554570654301e6 0.0
0.0 0.0 0.0

-3.9738797278102515e6 2.315721050463817e7 0.0
2.315721050463817e7 776997.8119733357 0.0
0.0 0.0 0.0

-6.327449816311076e6 3.224808272909462e6 0.0
3.224808272909462e6 6.313666299283469e7 0.0
0.0 0.0 0.0

-1.1364762777143905e7 1.1276636114056295e7 0.0
1.1276636114056295e7 2.6242958605374187e7 0.0
0.0 0.0 0.0

1.6850191616152977e6 2.138428124079193e7 0.0
2.138428124079193e7 -7.084404522455324e6 0.0
0.0 0.0 0.0

-2.6841065710053198e7 3.0178508186455086e7 0.0
3.0178508186455086e7 2.394411669736447e6 0.0
0.0 0.0 0.0

-1.1209037260638569e7 3.18110413065449e6 0.0
3.18110413065449e6 2.10793067664388e7 0.0
0.0 0.0 0.0

-7.18684429974084e6 8.320014450465625e6 0.0
8.320014450465625e6 5.2671438247714385e7 0.0
0.0 0.0 0.0

-2.8418861216983395e6 1.9315249894773928e6 0.0
1.9315249894773928e6 6.236045222267899e6 0.0
0.0 0.0 0.0

-4.398531853503502e6 5.6990803388420055e6 0.0
5.6990803388420055e6 -502521.6519213406 0.0
0.0 0.0 0.0

1.435738466144003e6 1.2663161266349997e7 0.0
1.2663161266349997e7 -2.398638200375048e7 0.0
0.0 0.0 0.0

-2.1897935469619795e6 2.5391097745597012e7 0.0
2.5391097745597012e7 -1.0025952610467649e6 0.0
0.0 0.0 0.0

-7.167810504743965e6 2.092595854652692e7 0.0
2.092595854652692e7 -1.6767290292712541e7 0.0
0.0 0.0 0.0

-3.272734755349432e6 2.3438858438223574e7 0.0
2.3438858438223574e7 1.435886325702107e7 0.0
0.0 0.0 0.0

-4.613568836750954e6 1.8189238190861534e7 0.0
1.8189238190861534e7 -2.5201000463301204e7 0.0
0.0 0.0 0.0

2.5442820422048597e6 2.145268762081676e7 0.0
2.145268762081676e7 1.379493173899319e7 0.0
0.0 0.0 0.0

-1.1346106980843054e7 1.6905951453048762e7 0.0
1.6905951453048762e7 -4.022900176279165e7 0.0
0.0 0.0 0.0

-4.35091762220583e6 2.3070969217545997e7 0.0
2.3070969217545997e7 3.847493524720071e6 0.0
0.0 0.0 0.0

-3.1170004357053265e6 1.2370679908565542e7 0.0
1.2370679908565542e7 -7.019843129764459e7 0.0
0.0 0.0 0.0

-829484.7234287784 1.2385450440897228e7 0.0
1.2385450440897228e7 -5.174120544205035e7 0.0
0.0 0.0 0.0

-4.481550311374785e6 2.2848380441539075e7 0.0
2.2848380441539075e7 -1.2481783092560947e7 0.0
0.0 0.0 0.0

-1.7199233121308025e7 2.7330567502029832e7 0.0
2.7330567502029832e7 -1.2463253277307766e7 0.0
0.0 0.0 0.0

-1.297979114177344e7 3.027167052284503e7 0.0
3.027167052284503e7 5.774776833125744e6 0.0
0.0 0.0 0.0

-4.615030090042632e6 1.5700582674326692e7 0.0
1.5700582674326692e7 7.171308912697118e6 0.0
0.0 0.0 0.0

-2.2922219038126664e6 7.245425505821991e6 0.0
7.245425505821991e6 8.410245503652288e6 0.0
0.0 0.0 0.0

352576.7806589906 2.0507613235901933e7 0.0
2.0507613235901933e7 -6.520952282582955e6 0.0
0.0 0.0 0.0

1.1216253224871576e7 2.4458340457349516e7 0.0
2.4458340457349516e7 -1.1846795885452684e6 0.0
0.0 0.0 0.0

-2.3098460916059464e6 1.430318174177197e7 0.0
1.430318174177197e7 5.957302861043209e7 0.0
0.0 0.0 0.0

-1.320728334617054e6 2.2257669088775188e7 0.0
2.2257669088775188e7 1.1996020318497144e7 0.0
0.0 0.0 0.0

-7.7344113481963165e6 2.9986065399265736e7 0.0
2.9986065399265736e7 6.956040869239885e6 0.0
0.0 0.0 0.0

-4.509111596003903e6 1.851513333400625e7 0.0
1.851513333400625e7 -1.5870872828170061e7 0.0
0.0 0.0 0.0

-6.442400455342848e6 1.170577137111089e7 0.0
1.170577137111089e7 4.945816619966473e7 0.0
0.0 0.0 0.0

-2.1121902822902557e6 2.1996870766873524e7 0.0
2.1996870766873524e7 6.813654656606772e6 0.0
0.0 0.0 0.0

536767.4253908824 2.1159729162650224e7 0.0
2.1159729162650224e7 -1.6241160916131217e7 0.0
0.0 0.0 0.0

-1.3439111697282335e6 1.70389415009032e7 0.0
1.70389415009032e7 -2.9799667082894977e7 0.0
0.0 0.0 0.0

-445556.1498838924 1.1061401207744671e7 0.0
1.1061401207744671e7 -4.906604062728165e7 0.0
0.0 0.0 0.0

313514.5257887244 1.1982839428669328e7 0.0
1.1982839428669328e7 -3.9215508615279816e7 0.0
0.0 0.0 0.0

-1.1594718934985299e7 1.9687762159000803e7 0.0
1.9687762159000803e7 -5.6761752040099956e7 0.0
0.0 0.0 0.0

-3.1147844085902693e6 3.017803870288808e7 0.0
3.017803870288808e7 4.833685365169397e6 0.0
0.0 0.0 0.0

-6.094968790625783e6 2.358289246939782e7 0.0
2.358289246939782e7 -1.3232277518657396e7 0.0
0.0 0.0 0.0

-1.4368523444591304e6 2.1065238717293095e7 0.0
2.1065238717293095e7 -1.36653305372857e7 0.0
0.0 0.0 0.0

2.4843763467972342e7 2.4623601216594595e7 0.0
2.4623601216594595e7 618389.4426886933 0.0
0.0 0.0 0.0

-6.358637026616659e6 6.153145530973684e6 0.0
6.153145530973684e6 5.6872166800356336e7 0.0
0.0 0.0 0.0

-2.436023464789178e6 1.2240886133177953e7 0.0
1.2240886133177953e7 -5.9952665503643565e7 0.0
0.0 0.0 0.0

692381.4567928333 1.2358289385115469e7 0.0
1.2358289385115469e7 -3.907768535003366e7 0.0
0.0 0.0 0.0

-3.1071880322282687e6 9.902042755762273e6 0.0
9.902042755762273e6 7.095274753396383e7 0.0
0.0 0.0 0.0

2.2894112018178694e7 2.497031652685183e7 0.0
2.497031652685183e7 1.4659815835034784e7 0.0
0.0 0.0 0.0

-6.0014182864973135e6 9.527464561784167e6 0.0
9.527464561784167e6 5.414702995553918e7 0.0
0.0 0.0 0.0

-7.331414072016733e6 -1.0826660380711223e6 0.0
-1.0826660380711223e6 1.0190920687302804e7 0.0
0.0 0.0 0.0

-3.541156610122946e6 3.1805892152253915e7 0.0
3.1805892152253915e7 2.606801647300519e6 0.0
0.0 0.0 0.0

1.4312834882177077e6 1.166650217429292e7 0.0
1.166650217429292e7 -2.9758826219135452e7 0.0
0.0 0.0 0.0

-7.8304648494100515e6 3.409980837469775e7 0.0
3.409980837469775e7 5.558202685813965e6 0.0
0.0 0.0 0.0

-5.978053782948062e6 1.434870306529645e7 0.0
1.434870306529645e7 4.404942631935357e7 0.0
0.0 0.0 0.0

-1.177866153932228e7 9.280480362397961e6 0.0
9.280480362397961e6 2.4316606008349784e7 0.0
0.0 0.0 0.0

8.898915853961231e6 3.213315706838183e7 0.0
3.213315706838183e7 -5.238166951622903e6 0.0
0.0 0.0 0.0

-3.9600179528926304e6 2.4184999486249384e7 0.0
2.4184999486249384e7 1.386109500512776e7 0.0
0.0 0.0 0.0

2.6035796424616887e6 2.756012186247623e7 0.0
2.756012186247623e7 -7.209405751668621e6 0.0
0.0 0.0 0.0

-6.944665905588557e6 2.7156302054453567e7 0.0
2.7156302054453567e7 7.54187505739142e6 0.0
0.0 0.0 0.0

-4.256767919972764e6 1.937064373221134e7 0.0
1.937064373221134e7 -2.675273160088064e7 0.0
0.0 0.0 0.0

5.626984221993402e6 2.4552760968015164e7 0.0
2.4552760968015164e7 -6.9202418930436885e6 0.0
0.0 0.0 0.0

9.26158184001514e6 1.9547130064306512e7 0.0
1.9547130064306512e7 4.947464391542665e7 0.0
0.0 0.0 0.0

-5.291798356641806e6 6.04507496046832e6 0.0
6.04507496046832e6 1.7492259405853637e7 0.0
0.0 0.0 0.0

-2.007592911639716e6 9.06124710158599e6 0.0
9.06124710158599e6 -8.13234594682049e6 0.0
0.0 0.0 0.0

-4.800550556592868e6 2.0735812297933068e7 0.0
2.0735812297933068e7 -1.6001834922620734e7 0.0
0.0 0.0 0.0

4.768320553920947e6 2.103634314202113e7 0.0
2.103634314202113e7 1.5894402007774403e7 0.0
0.0 0.0 0.0

9.519635075645337e6 3.738890250972105e7 0.0
3.738890250972105e7 -5.7544043587598e6 0.0
0.0 0.0 0.0

3.4455789380536005e6 5.327953970722878e6 0.0
5.327953970722878e6 -1.8172570374641314e7 0.0
0.0 0.0 0.0

-4.845281008008692e6 3.5808285218332544e7 0.0
3.5808285218332544e7 4.024619707995143e6 0.0
0.0 0.0 0.0

-4.416017301854075e7 1.6716137728570355e7 0.0
1.6716137728570355e7 7.265056426496573e6 0.0
0.0 0.0 0.0

898581.7332796212 2.168209873891613e7 0.0
2.168209873891613e7 -1.4769069213500306e7 0.0
0.0 0.0 0.0

-5.580648392777115e6 1.6081309127792595e7 0.0
1.6081309127792595e7 3.9831134795070454e7 0.0
0.0 0.0 0.0

338750.3019306767 2.181769358135941e7 0.0
2.181769358135941e7 -6.862069864151544e6 0.0
0.0 0.0 0.0

-4.28829856218631e6 2.4786191551279042e7 0.0
2.4786191551279042e7 1.0513784000981167e7 0.0
0.0 0.0 0.0

-2.05806021348745e6 2.4828567861895837e7 0.0
2.4828567861895837e7 -2.0951329417329584e6 0.0
0.0 0.0 0.0

876754.8764278642 2.21634290509862e7 0.0
2.21634290509862e7 -8.397145134299403e6 0.0
0.0 0.0 0.0

1.5878591954416316e6 4.043784000630357e6 0.0
4.043784000630357e6 -5.0312652822028376e7 0.0
0.0 0.0 0.0

-877193.3346408843 1.8137026115002394e7 0.0
1.8137026115002394e7 -2.9239782197069344e6 0.0
0.0 0.0 0.0

1.246947107935517e7 2.57722898696354e7 0.0
2.57722898696354e7 -3.2851035312568536e6 0.0
0.0 0.0 0.0

-1.6530182968099415e6 2.0595973692788243e7 0.0
2.0595973692788243e7 -1.5889475971478399e7 0.0
0.0 0.0 0.0

6.951698766468713e6 2.3358609586401086e7 0.0
2.3358609586401086e7 1.1449359792475639e7 0.0
0.0 0.0 0.0

-1.7274049110622853e6 1.2536971566084018e7 0.0
1.2536971566084018e7 -5.198451314577901e7 0.0
0.0 0.0 0.0

-178600.16157468688 2.41569351514446e7 0.0
2.41569351514446e7 -9.110201596414335e6 0.0
0.0 0.0 0.0

5.14210423921901e6 2.3182416350957494e7 0.0
2.3182416350957494e7 1.560808737750129e7 0.0
0.0 0.0 0.0

2.9638690387514044e7 3.1137030630311046e7 0.0
3.1137030630311046e7 -4.195670086392341e6 0.0
0.0 0.0 0.0

-436467.3107754234 1.2703872631937355e7 0.0
1.2703872631937355e7 -4.50638749951828e7 0.0
0.0 0.0 0.0

-3.59062215961075e7 1.530110803840663e7 0.0
1.530110803840663e7 7.612556742134271e6 0.0
0.0 0.0 0.0

2.624973406361344e6 1.985190418844542e7 0.0
1.985190418844542e7 1.9057425340959433e7 0.0
0.0 0.0 0.0

-7.001459650041422e6 3.541740321144679e7 0.0
3.541740321144679e7 5.0575370498764105e6 0.0
0.0 0.0 0.0

496273.7256658827 2.208000934393599e7 0.0
2.208000934393599e7 -1.1533189907751605e7 0.0
0.0 0.0 0.0

-6.495793278411439e6 3.0475374161247015e7 0.0
3.0475374161247015e7 6.525761562297925e6 0.0
0.0 0.0 0.0

-3.3059841685504243e6 1.3306848846022774e7 0.0
1.3306848846022774e7 6.35618972397573e7 0.0
0.0 0.0 0.0

1.327858347416781e6 1.6190103245432429e7 0.0
1.6190103245432429e7 -1.9050390400330562e7 0.0
0.0 0.0 0.0

6.819389170159124e6 3.205060500810913e7 0.0
3.205060500810913e7 -5.458614152859509e6 0.0
0.0 0.0 0.0

-2.6786747411821466e6 1.307886016056674e7 0.0
1.307886016056674e7 3.1595947478482337e6 0.0
0.0 0.0 0.0

-3.2697421617632553e7 1.4557103388316715e7 0.0
1.4557103388316715e7 7.397694110794229e6 0.0
0.0 0.0 0.0

-3.3446718758808533e6 1.704830754473381e7 0.0
1.704830754473381e7 482233.1889342838 0.0
0.0 0.0 0.0

-1.032817634369764e7 5.07293686555328e6 0.0
5.07293686555328e6 3.41838612660461e7 0.0
0.0 0.0 0.0

-4.727348762399189e6 1.6685432322843112e7 0.0
1.6685432322843112e7 4.0679516449106954e7 0.0
0.0 0.0 0.0

-5.773916515789777e6 3.350706071542647e7 0.0
3.350706071542647e7 3.763798118123225e6 0.0
0.0 0.0 0.0

-6.146963208060814e6 3.6631770495519795e7 0.0
3.6631770495519795e7 4.361040085139076e6 0.0
0.0 0.0 0.0

-5.29595398989952e6 1.2704734776567714e7 0.0
1.2704734776567714e7 5.0713038860118546e7 0.0
0.0 0.0 0.0

1.1263794322845833e6 1.4568846601335702e7 0.0
1.4568846601335702e7 -1.5651848421298852e7 0.0
0.0 0.0 0.0

7.622988298400887e6 2.3348404573017605e7 0.0
2.3348404573017605e7 1.460607349110772e6 0.0
0.0 0.0 0.0

-3.7451291009080117e6 1.655878725271735e7 0.0
1.655878725271735e7 -1.165542154568927e7 0.0
0.0 0.0 0.0

1.1018789402797865e6 1.0230493335534578e7 0.0
1.0230493335534578e7 -1.3793028193564551e7 0.0
0.0 0.0 0.0

-4.121906088762685e6 3.318404675529989e7 0.0
3.318404675529989e7 4.191574574239498e6 0.0
0.0 0.0 0.0

-6.520428769806176e6 1.9040591130970776e7 0.0
1.9040591130970776e7 2.818094101788574e7 0.0
0.0 0.0 0.0

-1.2010249768951014e6 1.3028590170900863e7 0.0
1.3028590170900863e7 -4.5565177010054216e7 0.0
0.0 0.0 0.0

-2.344419835173071e7 2.9015681662367333e7 0.0
2.9015681662367333e7 1.8082547477324912e6 0.0
0.0 0.0 0.0

2.7716267393976976e6 2.851089638590796e7 0.0
2.851089638590796e7 -6.292309275975082e6 0.0
0.0 0.0 0.0

525936.8670090996 5.773733072748654e6 0.0
5.773733072748654e6 -6.020635473753307e7 0.0
0.0 0.0 0.0

-1.3292079485391537e6 2.1063198966369405e7 0.0
2.1063198966369405e7 2.1203122674875952e7 0.0
0.0 0.0 0.0

-1.8328510504113033e6 2.516346436188487e7 0.0
2.516346436188487e7 1.6861998473823273e6 0.0
0.0 0.0 0.0

698222.4832318705 2.188016402258554e7 0.0
2.188016402258554e7 -1.5053315987598134e7 0.0
0.0 0.0 0.0

-9.562722737836037e6 3.4587844945192255e7 0.0
3.4587844945192255e7 5.7374646404289305e6 0.0
0.0 0.0 0.0

-1.2845453901134804e6 2.5345735913755883e7 0.0
2.5345735913755883e7 -1.252830430892718e6 0.0
0.0 0.0 0.0

-6.91630362208255e6 3.426446580334801e7 0.0
3.426446580334801e7 4.008100966338132e6 0.0
0.0 0.0 0.0

-3.011499093080486e6 8.790249248534711e6 0.0
8.790249248534711e6 4.974565052522299e6 0.0
0.0 0.0 0.0

6.757951835067796e6 1.9363486538830664e7 0.0
1.9363486538830664e7 2.4874400355991278e7 0.0
0.0 0.0 0.0

-1.267956989354792e6 1.9045639595423717e7 0.0
1.9045639595423717e7 -2.248057786083823e7 0.0
0.0 0.0 0.0

-2.373132160704986e6 1.647734419727303e7 0.0
1.647734419727303e7 1.444937337281357e6 0.0
0.0 0.0 0.0

17860.484972764738 2.0437000942035813e7 0.0
2.0437000942035813e7 -1.761316856455547e7 0.0
0.0 0.0 0.0

2.1224760831168005e6 8.302274181943137e6 0.0
8.302274181943137e6 -2.2607194680481363e7 0.0
0.0 0.0 0.0

1.5087006160473159e7 2.4466812236917444e7 0.0
2.4466812236917444e7 1.1343100706197575e7 0.0
0.0 0.0 0.0

-8.117949624115819e6 947827.8686177497 0.0
947827.8686177497 4.253453183744883e7 0.0
0.0 0.0 0.0

7.609252337264486e6 1.9538872673120365e7 0.0
1.9538872673120365e7 2.8321271586427495e7 0.0
0.0 0.0 0.0

-3.899290033181237e6 3.121694532646365e7 0.0
3.121694532646365e7 3.4890794742946783e6 0.0
0.0 0.0 0.0

-1.0037220300030224e6 1.8657610093324464e7 0.0
1.8657610093324464e7 -2.56632465331367e7 0.0
0.0 0.0 0.0

5.910815087214209e6 3.1379552567086153e7 0.0
3.1379552567086153e7 -5.109812888685411e6 0.0
0.0 0.0 0.0

-900579.4046361458 2.0677242595045377e7 0.0
2.0677242595045377e7 -2.8297394068552246e6 0.0
0.0 0.0 0.0

2.180379538487708e6 1.1234266649381852e7 0.0
1.1234266649381852e7 -2.906773457877629e7 0.0
0.0 0.0 0.0

2.3889893875431e6 2.7741693872409046e7 0.0
2.7741693872409046e7 -7.488235068754965e6 0.0
0.0 0.0 0.0

-867835.1536050867 1.9449613986604173e7 0.0
1.9449613986604173e7 -2.0783651713651102e7 0.0
0.0 0.0 0.0

-1.1203559291491555e7 7.777179576779672e6 0.0
7.777179576779672e6 1.8794297723975144e7 0.0
0.0 0.0 0.0

5.052242663660775e6 2.1526132746725604e7 0.0
2.1526132746725604e7 1.8576355932216346e7 0.0
0.0 0.0 0.0

-5.614966553932942e6 2.5299545916324425e7 0.0
2.5299545916324425e7 9.97331075346256e6 0.0
0.0 0.0 0.0

-4.399719277705017e6 3.201486324477782e7 0.0
3.201486324477782e7 3.5018146326007023e6 0.0
0.0 0.0 0.0

-57543.39858877566 2.1056938863919333e7 0.0
2.1056938863919333e7 1.2699846436774064e7 0.0
0.0 0.0 0.0

-7.248603313535208e6 4.394386161223169e6 0.0
4.394386161223169e6 1.3093271382019805e7 0.0
0.0 0.0 0.0

-8.093245595582994e6 1.1434246609405242e7 0.0
1.1434246609405242e7 4.259127903474049e7 0.0
0.0 0.0 0.0

464532.23937633913 2.0996376057047587e7 0.0
2.0996376057047587e7 -1.61949734151837e7 0.0
0.0 0.0 0.0

-4.178457665699307e6 1.5486887063520463e7 0.0
1.5486887063520463e7 -6.96611438253817e7 0.0
0.0 0.0 0.0

-6.00265605977883e6 6.274479085373692e6 0.0
6.274479085373692e6 1.1340682216411376e7 0.0
0.0 0.0 0.0

-1.0830657386759542e7 3.1431270058340575e6 0.0
3.1431270058340575e6 2.5523485505993936e7 0.0
0.0 0.0 0.0

-3.942119408078846e6 1.9215885572078053e7 0.0
1.9215885572078053e7 9.455057312940527e6 0.0
0.0 0.0 0.0

2.159927512565125e6 2.8775249415944073e7 0.0
2.8775249415944073e7 -5.632302701004276e6 0.0
0.0 0.0 0.0

-5.1184471122226305e6 1.7181038780645706e7 0.0
1.7181038780645706e7 -4.4519148551939465e7 0.0
0.0 0.0 0.0

2.906634453666649e6 7.917729104345588e6 0.0
7.917729104345588e6 -1.950642035827441e7 0.0
0.0 0.0 0.0

-2.4075974441438233e6 3.1444804327583697e7 0.0
3.1444804327583697e7 3.1560460890756743e6 0.0
0.0 0.0 0.0

3.3217960937045165e6 2.8138860084102698e7 0.0
2.8138860084102698e7 -6.854600710579877e6 0.0
0.0 0.0 0.0

-1.056700887384263e7 4.248114396431235e7 0.0
4.248114396431235e7 3.913672639730588e6 0.0
0.0 0.0 0.0

-3.103443825958941e6 3.1615791381758127e7 0.0
3.1615791381758127e7 4.0962443810700513e6 0.0
0.0 0.0 0.0

-2.862034287597222e7 3.0623612302484278e7 0.0
3.0623612302484278e7 -1.1527565910162501e7 0.0
0.0 0.0 0.0

-4.787988297199907e6 2.338703043950373e7 0.0
2.338703043950373e7 -1.9078949881504716e6 0.0
0.0 0.0 0.0

-4.473147922459193e6 1.5398819056634065e7 0.0
1.5398819056634065e7 -6.40553654941742e7 0.0
0.0 0.0 0.0

-3.4585431687886203e6 1.5774518771289997e7 0.0
1.5774518771289997e7 375888.9310197483 0.0
0.0 0.0 0.0

-8.298284011679135e6 3.109886639384579e6 0.0
3.109886639384579e6 4.8636857808134615e7 0.0
0.0 0.0 0.0

-6.728462189764682e6 6.867250335584671e6 0.0
6.867250335584671e6 5.653860791799271e7 0.0
0.0 0.0 0.0

1.5395177231286187e6 6.807511320610852e6 0.0
6.807511320610852e6 -4.378422920960209e7 0.0
0.0 0.0 0.0

-4.9432345677843e6 2.6611676000562504e7 0.0
2.6611676000562504e7 9.628481620955883e6 0.0
0.0 0.0 0.0

-3.056741586626854e6 1.4688131379041607e7 0.0
1.4688131379041607e7 5.482642474729564e7 0.0
0.0 0.0 0.0

-427119.03884014674 1.9932537913471993e7 0.0
1.9932537913471993e7 -1.915323343566759e7 0.0
0.0 0.0 0.0

-840079.4176682979 1.6732652357364913e7 0.0
1.6732652357364913e7 5.242241430613392e7 0.0
0.0 0.0 0.0

1.7020286265200712e6 2.8091297405836787e7 0.0
2.8091297405836787e7 -6.954476886693765e6 0.0
0.0 0.0 0.0

4.347642026486926e6 3.417219152402718e7 0.0
3.417219152402718e7 -4.1185612666542036e6 0.0
0.0 0.0 0.0

-516552.80417682324 2.0519274193480246e7 0.0
2.0519274193480246e7 -4.954397975496693e6 0.0
0.0 0.0 0.0

-1.103498562034943e7 6.128904524022466e6 0.0
6.128904524022466e6 2.468928364301498e7 0.0
0.0 0.0 0.0

1.2817580644549504e6 2.041636109378241e7 0.0
2.041636109378241e7 1.5861725524698775e7 0.0
0.0 0.0 0.0

-3.1317221829094514e6 1.8527801007439483e7 0.0
1.8527801007439483e7 1.0670117659774512e7 0.0
0.0 0.0 0.0

2.208314389454225e6 4.737394869229979e6 0.0
4.737394869229979e6 -3.99679677703353e7 0.0
0.0 0.0 0.0

5.276270840468476e6 2.432065851946814e7 0.0
2.432065851946814e7 -5.565925251311247e6 0.0
0.0 0.0 0.0

-1.568305525719076e7 2.2750021310518585e7 0.0
2.2750021310518585e7 -64590.74019789882 0.0
0.0 0.0 0.0

-2.621330849584483e7 2.6286206479335595e7 0.0
2.6286206479335595e7 -8.680067410584733e6 0.0
0.0 0.0 0.0

-2.399135358762125e6 3.2094704192027077e7 0.0
3.2094704192027077e7 911121.5889247857 0.0
0.0 0.0 0.0

149382.93933375366 1.4057258019115167e7 0.0
1.4057258019115167e7 -1.4737495629160991e7 0.0
0.0 0.0 0.0

-7.046843422760184e6 2.3078477457193866e7 0.0
2.3078477457193866e7 -1.6890065682518578e6 0.0
0.0 0.0 0.0

2.7131758651897926e6 3.431864876213702e7 0.0
3.431864876213702e7 -2.0727909584792978e6 0.0
0.0 0.0 0.0

-2.127121543335879e6 2.113223093357311e7 0.0
2.113223093357311e7 2.2291799852424867e7 0.0
0.0 0.0 0.0

-1.0371746788987974e6 2.1556866466988236e7 0.0
2.1556866466988236e7 1.2449255499739086e7 0.0
0.0 0.0 0.0

1.123726363838804e6 1.3566134053498648e7 0.0
1.3566134053498648e7 -1.394029071861249e7 0.0
0.0 0.0 0.0

-2.096837653690839e6 3.647059548136799e7 0.0
3.647059548136799e7 1.7079854335325197e6 0.0
0.0 0.0 0.0

-9.585204762904346e6 2.5789952322026812e6 0.0
2.5789952322026812e6 3.720958433375023e7 0.0
0.0 0.0 0.0

3.0597215833493415e6 5.959150972234806e6 0.0
5.959150972234806e6 -3.111506828916548e7 0.0
0.0 0.0 0.0

972324.530179069 3.1082400792085e7 0.0
3.1082400792085e7 -2.2522351868497883e6 0.0
0.0 0.0 0.0

-1.290722057769103e6 1.9415729812873684e7 0.0
1.9415729812873684e7 -2.3062909964532167e7 0.0
0.0 0.0 0.0

-5.802775549598098e6 -271161.99830059655 0.0
-271161.99830059655 1.0368251207879735e7 0.0
0.0 0.0 0.0

724087.5542741036 1.042593458164345e7 0.0
1.042593458164345e7 -1.3603256905852862e7 0.0
0.0 0.0 0.0

-1.1476128782222595e7 2.594222372748734e7 0.0
2.594222372748734e7 -1.0973650315077936e7 0.0
0.0 0.0 0.0

1.9072196801938098e6 1.2628943578406619e7 0.0
1.2628943578406619e7 -2.8114653784262538e7 0.0
0.0 0.0 0.0

1.4518496727395624e7 2.523135728307551e7 0.0
2.523135728307551e7 1.3454918774489328e7 0.0
0.0 0.0 0.0

-4.94802521356302e6 9.661652195632054e6 0.0
9.661652195632054e6 3.5699131127259303e6 0.0
0.0 0.0 0.0

-8.344377716997795e6 4.726078111834878e6 0.0
4.726078111834878e6 9.027833558313962e6 0.0
0.0 0.0 0.0

1.095612342143209e7 3.2237731248377416e7 0.0
3.2237731248377416e7 -5.378073043192836e6 0.0
0.0 0.0 0.0

-9.517169095107479e6 3.016806518296508e6 0.0
3.016806518296508e6 3.6163019822997645e7 0.0
0.0 0.0 0.0

964474.6202186989 1.7588216971019547e7 0.0
1.7588216971019547e7 -1.6253421583595047e7 0.0
0.0 0.0 0.0

1.7038785593670264e6 2.0976524303615738e7 0.0
2.0976524303615738e7 2.984313206386837e6 0.0
0.0 0.0 0.0

1.9645650805458378e7 2.719943884241118e7 0.0
2.719943884241118e7 -2.6075737108253613e6 0.0
0.0 0.0 0.0

929987.4199633282 1.869234608675785e7 0.0
1.869234608675785e7 -2.0036682591109805e7 0.0
0.0 0.0 0.0

9.946262563866878e6 2.026444175871622e7 0.0
2.026444175871622e7 3.737188978728382e7 0.0
0.0 0.0 0.0

-9.042045799408736e6 3.032196010150106e7 0.0
3.032196010150106e7 6.487629411532751e6 0.0
0.0 0.0 0.0

-7.990612200271521e6 3.0958998033810775e6 0.0
3.0958998033810775e6 4.5213312324916855e7 0.0
0.0 0.0 0.0

1.7500525400054578e6 3.1190257769933186e7 0.0
3.1190257769933186e7 -2.855910572636055e6 0.0
0.0 0.0 0.0

1.1298343624044806e6 2.1242925469736744e7 0.0
2.1242925469736744e7 2.206442034727507e7 0.0
0.0 0.0 0.0

1.501209180770998e6 1.2042657175924757e7 0.0
1.2042657175924757e7 -2.3323841477078535e7 0.0
0.0 0.0 0.0

2.42991418728525e6 5.052218753264082e6 0.0
5.052218753264082e6 -4.492684120858891e7 0.0
0.0 0.0 0.0

-1.8382007019333187e6 2.5145593840487253e7 0.0
2.5145593840487253e7 -3.0487439888619045e6 0.0
0.0 0.0 0.0

-8.233073030359293e6 1.306733210302659e7 0.0
1.306733210302659e7 1.8512954019850172e7 0.0
0.0 0.0 0.0

-6.3078086389245335e6 1.767876104224005e7 0.0
1.767876104224005e7 3.393309824080848e7 0.0
0.0 0.0 0.0

-1.4212963965234077e6 1.8263011583001718e7 0.0
1.8263011583001718e7 -2.75375953101271e7 0.0
0.0 0.0 0.0

-3.7996883608582076e6 1.4858764554015204e7 0.0
1.4858764554015204e7 -5.9540348102915905e7 0.0
0.0 0.0 0.0

2.2448207172970264e6 3.1924675473454893e7 0.0
3.1924675473454893e7 -2.836721000462129e6 0.0
0.0 0.0 0.0

-484071.22183087235 2.125651255483766e7 0.0
2.125651255483766e7 9.868804123977378e6 0.0
0.0 0.0 0.0

-4.0412597186356336e7 1.5660315414057124e7 0.0
1.5660315414057124e7 6.978705110909034e6 0.0
0.0 0.0 0.0

1.0848884744266285e7 2.0710332193415843e7 0.0
2.0710332193415843e7 4.192810260617079e7 0.0
0.0 0.0 0.0

-3.673803447068863e7 3.636219636662587e7 0.0
3.636219636662587e7 6.087612111385003e6 0.0
0.0 0.0 0.0

1.0941006318156235e6 1.1626819549123868e7 0.0
1.1626819549123868e7 -3.4195528132328644e7 0.0
0.0 0.0 0.0

8.8647246766516e6 5.906090085991418e6 0.0
5.906090085991418e6 -1.5450161947644656e6 0.0
0.0 0.0 0.0

-1.940690682168568e7 1.571381640275696e6 0.0
1.571381640275696e6 6.309056450915836e6 0.0
0.0 0.0 0.0

-8.133128617370654e6 1.1773222762783825e7 0.0
1.1773222762783825e7 1.6632759160998238e7 0.0
0.0 0.0 0.0

-8.557256993433282e6 4.454819258831871e6 0.0
4.454819258831871e6 4.298489707023877e7 0.0
0.0 0.0 0.0

-1.0046461644710274e7 5.139383240981243e6 0.0
5.139383240981243e6 3.593887041050928e7 0.0
0.0 0.0 0.0

32688.706888835877 2.0774398762350775e7 0.0
2.0774398762350775e7 -1.818688860996942e7 0.0
0.0 0.0 0.0

-2.8927109980897354e6 1.777888153242596e7 0.0
1.777888153242596e7 -9.642369996294936e6 0.0
0.0 0.0 0.0

2.743985236434781e6 1.8066657231697824e7 0.0
1.8066657231697824e7 9.146617515319828e6 0.0
0.0 0.0 0.0

1.3167399914483472e6 2.0723812052625798e7 0.0
2.0723812052625798e7 -155369.71602803626 0.0
0.0 0.0 0.0

2.8017837455288097e6 3.2656529810918458e7 0.0
3.2656529810918458e7 -2.755697113391632e6 0.0
0.0 0.0 0.0

-1.032550673347528e7 1.2741726457421068e7 0.0
1.2741726457421068e7 2.3151435126008186e7 0.0
0.0 0.0 0.0

463588.90546792 1.941547109025734e7 0.0
1.941547109025734e7 -1.8742155465466965e7 0.0
0.0 0.0 0.0

-2.738180593817528e6 2.728316325288584e7 0.0
2.728316325288584e7 3.270737505851266e6 0.0
0.0 0.0 0.0

1.0920127645030003e6 9.378784127260474e6 0.0
9.378784127260474e6 -4.040059387452402e7 0.0
0.0 0.0 0.0

-9.176476570670359e6 3.891138350370947e6 0.0
3.891138350370947e6 3.8628585493454844e7 0.0
0.0 0.0 0.0

1.9975316182783213e6 3.041516082852436e7 0.0
3.041516082852436e7 -3.8056185268403273e6 0.0
0.0 0.0 0.0

-960808.5567500079 2.1336795850721966e7 0.0
2.1336795850721966e7 7.010150516132107e6 0.0
0.0 0.0 0.0

-1.492667268421484e6 2.1551314066547204e7 0.0
2.1551314066547204e7 4.194439860791816e6 0.0
0.0 0.0 0.0

-7.753732522745298e6 2.5082179589366604e7 0.0
2.5082179589366604e7 -1.3230382803250257e7 0.0
0.0 0.0 0.0

7.818629773007719e6 1.750587849733957e7 0.0
1.750587849733957e7 2.7654670970498566e7 0.0
0.0 0.0 0.0

-8.968677493312579e6 2.4015921890728466e7 0.0
2.4015921890728466e7 -1.1146900706011882e7 0.0
0.0 0.0 0.0

-5.335314309093889e6 1.5507854751870451e7 0.0
1.5507854751870451e7 4.273798374269086e7 0.0
0.0 0.0 0.0

-8.60324413554783e6 3.006812602608041e6 0.0
3.006812602608041e6 4.503907070033167e7 0.0
0.0 0.0 0.0

2.2067738502595806e6 1.1555979741794536e7 0.0
1.1555979741794536e7 -2.251714892776312e7 0.0
0.0 0.0 0.0

1.5241020403068066e6 5.895698142964765e6 0.0
5.895698142964765e6 -4.6000848108139336e7 0.0
0.0 0.0 0.0

1.021815072993462e6 1.9964481378092956e7 0.0
1.9964481378092956e7 -1.7282017331506282e7 0.0
0.0 0.0 0.0

8.99806602838564e6 2.4136670160145182e7 0.0
2.4136670160145182e7 1.1126966889931258e7 0.0
0.0 0.0 0.0

2.346695720723578e6 7.079188809632838e6 0.0
7.079188809632838e6 -2.0856022384939976e7 0.0
0.0 0.0 0.0

-8.321032916364783e6 1.8797110168820474e7 0.0
1.8797110168820474e7 -3.4773998628458984e7 0.0
0.0 0.0 0.0

-3.246474188967373e6 1.4532886546771618e7 0.0
1.4532886546771618e7 -5.53044746710322e7 0.0
0.0 0.0 0.0

-3.8503025176738687e6 1.8261084493428998e7 0.0
1.8261084493428998e7 6.648035480771147e6 0.0
0.0 0.0 0.0

-6.510807835280765e6 2.7021878008095283e7 0.0
2.7021878008095283e7 9.11094168721299e6 0.0
0.0 0.0 0.0

-1.1812430807535054e7 2.48808496227386e7 0.0
2.48808496227386e7 -1.173715724753218e7 0.0
0.0 0.0 0.0

-6.757143661707122e6 3.7777561430516983e6 0.0
3.7777561430516983e6 5.550945178429738e7 0.0
0.0 0.0 0.0

-2.677880816028921e6 1.4394060874280881e7 0.0
1.4394060874280881e7 -5.163777925856075e7 0.0
0.0 0.0 0.0

-5.0414239889865555e6 1.4809194099881176e7 0.0
1.4809194099881176e7 4.575589612367146e7 0.0
0.0 0.0 0.0

-2.1948553363338104e6 2.174411704502787e7 0.0
2.174411704502787e7 1.3561515590453804e6 0.0
0.0 0.0 0.0

1.3893163970973992e6 3.2262996078248378e7 0.0
3.2262996078248378e7 -3.371696849871205e6 0.0
0.0 0.0 0.0

-1.4446826092089321e7 2.9743085621347226e7 0.0
2.9743085621347226e7 4.947694710493713e6 0.0
0.0 0.0 0.0

-7.1913833837653715e6 1.6889462275520246e7 0.0
1.6889462275520246e7 3.3526811303545773e7 0.0
0.0 0.0 0.0

-5.686393254938774e6 1.6445259689137371e7 0.0
1.6445259689137371e7 -1.945578400885162e7 0.0
0.0 0.0 0.0

5.131004388879675e6 1.894928879546985e7 0.0
1.894928879546985e7 1.693796573714662e7 0.0
0.0 0.0 0.0

1.415623335708432e6 7.504032178015151e6 0.0
7.504032178015151e6 -4.182757392335472e7 0.0
0.0 0.0 0.0

1.170696157034291e6 9.665096453275168e6 0.0
9.665096453275168e6 -1.4923272533947315e7 0.0
0.0 0.0 0.0

-7.171833677393027e6 1.2542947120317271e7 0.0
1.2542947120317271e7 4.396769625954772e7 0.0
0.0 0.0 0.0

-3.2024147504596766e6 2.3329311703268383e7 0.0
2.3329311703268383e7 1.2992476190447094e7 0.0
0.0 0.0 0.0

-3.6067948127471775e7 3.0435472850527294e7 0.0
3.0435472850527294e7 247371.5657011401 0.0
0.0 0.0 0.0

-788845.9949359447 1.6410614317681348e7 0.0
1.6410614317681348e7 -3.0297653178846493e7 0.0
0.0 0.0 0.0

720005.8030893505 1.1018418658792088e7 0.0
1.1018418658792088e7 -3.884001304381541e7 0.0
0.0 0.0 0.0

-2.104554019487025e6 1.4405193944799943e7 0.0
1.4405193944799943e7 -4.821523307878365e7 0.0
0.0 0.0 0.0

2.6662170105361375e6 4.395320507808047e6 0.0
4.395320507808047e6 -1.0837521804238092e7 0.0
0.0 0.0 0.0

729482.6403727857 2.2292534192783233e7 0.0
2.2292534192783233e7 -1.2114475172223883e7 0.0
0.0 0.0 0.0

2.5813292687172764e6 2.416703204774682e7 0.0
2.416703204774682e7 -9.736190726287214e6 0.0
0.0 0.0 0.0

-2.2342303683604825e7 4.01997872132669e7 0.0
4.01997872132669e7 6.944801334689125e6 0.0
0.0 0.0 0.0

1.4612536659439723e6 4.513140408748523e6 0.0
4.513140408748523e6 -5.712607551571875e6 0.0
0.0 0.0 0.0

-816685.7624221165 1.983363495506824e7 0.0
1.983363495506824e7 -2.1287570816107538e7 0.0
0.0 0.0 0.0

-5.780580537404265e6 1.9140699134380218e7 0.0
1.9140699134380218e7 2.8385234116240323e7 0.0
0.0 0.0 0.0

-9.897164463330043e6 3.92993689750723e6 0.0
3.92993689750723e6 3.1932671892521825e7 0.0
0.0 0.0 0.0

2.1148373765186146e6 5.438333230467563e6 0.0
5.438333230467563e6 -3.8258170095575176e7 0.0
0.0 0.0 0.0

-1.0339584195864568e7 6.754191863500622e6 0.0
6.754191863500622e6 3.1342296782882735e7 0.0
0.0 0.0 0.0

-9.396494839054234e6 6.632567942119621e6 0.0
6.632567942119621e6 3.766061915354951e7 0.0
0.0 0.0 0.0

-9.466490746043844e6 1.2012967514444709e7 0.0
1.2012967514444709e7 2.0084144490130268e7 0.0
0.0 0.0 0.0

-4.417943334352694e6 2.4843428444616944e7 0.0
2.4843428444616944e7 1.288149025111188e7 0.0
0.0 0.0 0.0

-2.278030097520514e6 1.3786257134299036e7 0.0
1.3786257134299036e7 1.3496731349707264e6 0.0
0.0 0.0 0.0

2.4538694905377094e7 6.1680655857783e6 0.0
6.1680655857783e6 -2.0607803770720148e6 0.0
0.0 0.0 0.0

-3.614440809012832e7 3.555609984325775e6 0.0
3.555609984325775e6 6.366427306841666e6 0.0
0.0 0.0 0.0

2.507626358110537e6 8.940301104685271e6 0.0
8.940301104685271e6 -1.6073213428338174e7 0.0
0.0 0.0 0.0

1.5347205635714158e6 1.0559391319286264e7 0.0
1.0559391319286264e7 -3.814573311158973e7 0.0
0.0 0.0 0.0

1.9596251308510695e6 8.755352239022385e6 0.0
8.755352239022385e6 -3.94590935531118e7 0.0
0.0 0.0 0.0

632378.1699650827 2.2255663706057933e6 0.0
2.2255663706057933e6 1.9296825558868258e6 0.0
0.0 0.0 0.0

-4.608561062386852e6 -749346.8641979633 0.0
-749346.8641979633 3.863322240454742e6 0.0
0.0 0.0 0.0

-5.656112788237059e6 1.8974611652854193e7 0.0
1.8974611652854193e7 -3.1080665674507238e7 0.0
0.0 0.0 0.0

1.7556784406839497e6 5.841679981286774e6 0.0
5.841679981286774e6 -4.309670581937359e7 0.0
0.0 0.0 0.0

-3.0274747150445677e7 2.7794828477298837e7 0.0
2.7794828477298837e7 -1.251717600212292e7 0.0
0.0 0.0 0.0

-4.62190685464904e6 2.1902133539508037e7 0.0
2.1902133539508037e7 1.814741860819901e7 0.0
0.0 0.0 0.0

2.1303735365989436e6 2.9604417499721605e7 0.0
2.9604417499721605e7 -4.698805155072305e6 0.0
0.0 0.0 0.0

6.811646811681939e6 1.7355240744815122e7 0.0
1.7355240744815122e7 2.418317919611443e7 0.0
0.0 0.0 0.0

1.4452612890752641e7 1.1981169456897983e7 0.0
1.1981169456897983e7 1.5508967428516685e6 0.0
0.0 0.0 0.0

-1.4747955080156256e7 2.7508574993217908e7 0.0
2.7508574993217908e7 -1.2187449021235267e7 0.0
0.0 0.0 0.0

-7.65923700275166e6 6.94772717720634e6 0.0
6.94772717720634e6 4.84144344057647e7 0.0
0.0 0.0 0.0

-6.212212937464902e6 2.6135779326348692e7 0.0
2.6135779326348692e7 9.583449221761126e6 0.0
0.0 0.0 0.0

3.302112407202061e6 2.431522147859506e7 0.0
2.431522147859506e7 -8.376270164335195e6 0.0
0.0 0.0 0.0

-5.5539565038805865e6 1.9616633233144283e7 0.0
1.9616633233144283e7 2.6880943368925214e7 0.0
0.0 0.0 0.0

-9.150413029438023e6 86440.83308408209 0.0
86440.83308408209 3.1865657542757127e7 0.0
0.0 0.0 0.0

522293.4106571779 3.077246568640419e7 0.0
3.077246568640419e7 -3.507189580082018e6 0.0
0.0 0.0 0.0

1.089242790370779e6 1.0887271477943446e7 0.0
1.0887271477943446e7 -3.6277644165466875e7 0.0
0.0 0.0 0.0

4.208802531921701e6 2.863472923641391e7 0.0
2.863472923641391e7 -6.600728887612098e6 0.0
0.0 0.0 0.0

2.3096937986572906e6 7.027800787732993e6 0.0
7.027800787732993e6 -4.1070237179200396e7 0.0
0.0 0.0 0.0

6.661814324527253e6 1.9759113215619974e7 0.0
1.9759113215619974e7 2.0257008490818273e7 0.0
0.0 0.0 0.0

-308472.5067453338 2.2993715514269494e7 0.0
2.2993715514269494e7 -1.0548264204069413e7 0.0
0.0 0.0 0.0

-1.1361120706894083e7 3.7890772174010454e6 0.0
3.7890772174010454e6 1.9141346011850458e7 0.0
0.0 0.0 0.0

-3.1542525141927423e6 1.75793529803166e7 0.0
1.75793529803166e7 -9.931569534374878e6 0.0
0.0 0.0 0.0

2.6187965183693487e6 5.090845965346181e6 0.0
5.090845965346181e6 -4.1946391557998985e7 0.0
0.0 0.0 0.0

1.6458086979645286e7 2.8781319737698015e7 0.0
2.8781319737698015e7 -4.163198375260406e6 0.0
0.0 0.0 0.0

2.0815681382432943e6 7.921828190579894e6 0.0
7.921828190579894e6 -1.955395592013158e7 0.0
0.0 0.0 0.0

-1.1874055121113045e7 8.48023226965471e6 0.0
8.48023226965471e6 2.3222537254964054e7 0.0
0.0 0.0 0.0

-3.470443709246347e6 3.0414531201930773e7 0.0
3.0414531201930773e7 3.369260476034824e6 0.0
0.0 0.0 0.0

-1.8618988942904416e6 1.4442510379510483e7 0.0
1.4442510379510483e7 -4.491758830857818e7 0.0
0.0 0.0 0.0

-5.200200407981698e6 1.7634910545752954e7 0.0
1.7634910545752954e7 -1.7334001250121493e7 0.0
0.0 0.0 0.0

4.750812047371767e6 1.809990109446005e7 0.0
1.809990109446005e7 1.5836040517409986e7 0.0
0.0 0.0 0.0

-2.672237233203968e6 1.4510496173384326e7 0.0
1.4510496173384326e7 3.1278924097304903e6 0.0
0.0 0.0 0.0

-5.084134015940772e6 1.6716330227458045e7 0.0
1.6716330227458045e7 1.033353584430397e7 0.0
0.0 0.0 0.0

3.057641314669091e6 2.05432783472507e7 0.0
2.05432783472507e7 2.1535449106828727e7 0.0
0.0 0.0 0.0

-9.812797119476605e6 1.623292050020928e6 0.0
1.623292050020928e6 2.783074585458854e7 0.0
0.0 0.0 0.0

2.5522460373533373e6 2.2593138674639553e7 0.0
2.2593138674639553e7 5.554473995474834e6 0.0
0.0 0.0 0.0

-3.782043841233777e6 2.415409775477735e7 0.0
2.415409775477735e7 1.3584615097121848e7 0.0
0.0 0.0 0.0

1.8999047067191433e6 8.127146264003446e6 0.0
8.127146264003446e6 -1.7353362910108652e7 0.0
0.0 0.0 0.0

-1.097167291461566e7 5.223767463428058e6 0.0
5.223767463428058e6 2.929942916057837e7 0.0
0.0 0.0 0.0

-7.336962861411408e6 2.352760965319835e7 0.0
2.352760965319835e7 -9.28843415904575e6 0.0
0.0 0.0 0.0

-5.9817703153686505e6 2.0072534141997445e7 0.0
2.0072534141997445e7 2.5442085196502097e7 0.0
0.0 0.0 0.0

314747.6123231435 2.143784125592051e7 0.0
2.143784125592051e7 1.7741660913322885e7 0.0
0.0 0.0 0.0

-1.0472914463928154e7 9.526583507979734e6 0.0
9.526583507979734e6 3.0713438734218273e7 0.0
0.0 0.0 0.0

2.5764375401151697e6 2.3790118289326146e7 0.0
2.3790118289326146e7 -1.0747664199779436e7 0.0
0.0 0.0 0.0

-6.350303389853399e6 2.9484897327401247e7 0.0
2.9484897327401247e7 7.233482334994604e6 0.0
0.0 0.0 0.0

-7.8743605274859e6 1.0822840656309595e7 0.0
1.0822840656309595e7 4.3466164439668566e7 0.0
0.0 0.0 0.0

-9.119770422818612e6 1.4024923915629e7 0.0
1.4024923915629e7 1.6623498030072797e7 0.0
0.0 0.0 0.0

-8.973699842103466e6 4.429674798516715e6 0.0
4.429674798516715e6 4.2439864281729676e7 0.0
0.0 0.0 0.0

474114.44720653165 1.879216091987326e7 0.0
1.879216091987326e7 -2.019461295977727e7 0.0
0.0 0.0 0.0

-5.5859129935618285e6 2.6320998746166512e7 0.0
2.6320998746166512e7 1.0407854508331928e7 0.0
0.0 0.0 0.0

-2.9308753330924367e6 2.1936285589511633e7 0.0
2.1936285589511633e7 -1.402239287241601e6 0.0
0.0 0.0 0.0

2.726279157490163e6 9.072890231316874e6 0.0
9.072890231316874e6 -2.1286836081645325e7 0.0
0.0 0.0 0.0

-8.953657939808745e6 901260.0153041595 0.0
901260.0153041595 3.54097506151346e7 0.0
0.0 0.0 0.0

-1.7635416003379747e6 1.703531029380859e7 0.0
1.703531029380859e7 4.858147178365268e7 0.0
0.0 0.0 0.0

-5.785112660312602e6 1.3549938971536193e7 0.0
1.3549938971536193e7 4.7053889595287725e7 0.0
0.0 0.0 0.0

2.4171148861682233e6 2.1099952617689434e7 0.0
2.1099952617689434e7 1.2154152575557442e7 0.0
0.0 0.0 0.0

-1.1242990420987613e7 8.034995543332112e6 0.0
8.034995543332112e6 2.8707529403924536e7 0.0
0.0 0.0 0.0

-4.083970377596598e6 1.5990340429535704e7 0.0
1.5990340429535704e7 1.1671057310612809e7 0.0
0.0 0.0 0.0

-829773.814532436 2.179492082290183e7 0.0
2.179492082290183e7 -6.511988981711324e6 0.0
0.0 0.0 0.0

367622.80015743617 1.693330121093329e7 0.0
1.693330121093329e7 -1.729245188194125e7 0.0
0.0 0.0 0.0

-3.889949181034633e6 2.4161594147899255e7 0.0
2.4161594147899255e7 1.4795798260243464e7 0.0
0.0 0.0 0.0

-4.868669515637258e6 3.390664696999315e7 0.0
3.390664696999315e7 4.3872541018175185e6 0.0
0.0 0.0 0.0

-8.391316497349301e6 1.4388930935053198e7 0.0
1.4388930935053198e7 3.589820316799518e7 0.0
0.0 0.0 0.0

9.804879498363497e6 1.7862623539126214e7 0.0
1.7862623539126214e7 3.5336999152899906e7 0.0
0.0 0.0 0.0

-37656.01507788384 2.173364521782906e7 0.0
2.173364521782906e7 -9.592704828171318e6 0.0
0.0 0.0 0.0

2.0887109858075008e6 1.1996958855247432e7 0.0
1.1996958855247432e7 -2.7614746006883368e7 0.0
0.0 0.0 0.0

2.284613727894556e6 2.970712706246159e6 0.0
2.970712706246159e6 -4.521341953001588e7 0.0
0.0 0.0 0.0

-8.76835074205067e6 1.1075380487027382e6 0.0
1.1075380487027382e6 3.958895561750649e7 0.0
0.0 0.0 0.0

-3.3961817180235228e6 2.4099887292250406e7 0.0
2.4099887292250406e7 1.3526084348255208e7 0.0
0.0 0.0 0.0

-911215.2550046323 1.758035044529056e7 0.0
1.758035044529056e7 1.7256824758226227e7 0.0
0.0 0.0 0.0

2.2885438799789585e6 1.7545719314453308e7 0.0
1.7545719314453308e7 6.961570608797523e7 0.0
0.0 0.0 0.0

120325.51650287397 1.6077570667768406e7 0.0
1.6077570667768406e7 -1.5948173189614108e7 0.0
0.0 0.0 0.0

7.794535366771856e6 1.846547482464017e7 0.0
1.846547482464017e7 2.598178503692419e7 0.0
0.0 0.0 0.0

-1.0158417248522315e7 1.3131662141370538e6 0.0
1.3131662141370538e6 2.9480130189415246e7 0.0
0.0 0.0 0.0

-2.412050646394719e7 2.1343751862229584e6 0.0
2.1343751862229584e6 7.858139977097748e6 0.0
0.0 0.0 0.0

1.579888516606642e6 1.0177948575528925e7 0.0
1.0177948575528925e7 -3.3032818058013055e7 0.0
0.0 0.0 0.0

-1.1493127002472846e7 5.996342340121628e6 0.0
5.996342340121628e6 2.535241671473099e7 0.0
0.0 0.0 0.0

748274.022284504 1.1688718867145646e7 0.0
1.1688718867145646e7 -3.668010889676657e7 0.0
0.0 0.0 0.0

-5.1367246533533465e6 1.7727641152966958e7 0.0
1.7727641152966958e7 3.566799611467527e7 0.0
0.0 0.0 0.0

3.3805605488190353e6 3.384116598486714e6 0.0
3.384116598486714e6 -2.8218506280342907e7 0.0
0.0 0.0 0.0

1.3457544865649315e7 2.984225751000738e7 0.0
2.984225751000738e7 -4.885634332998484e6 0.0
0.0 0.0 0.0

-2.0645909565983748e6 1.5779738363847513e7 0.0
1.5779738363847513e7 -214558.0248049762 0.0
0.0 0.0 0.0

858787.6572887092 7.011762422139187e6 0.0
7.011762422139187e6 -4.1051274305199264e6 0.0
0.0 0.0 0.0

3.490978555499288e7 6.356109879157285e6 0.0
6.356109879157285e6 -1.584231580357043e6 0.0
0.0 0.0 0.0

-3.505431913094988e6 1.8210864965998873e7 0.0
1.8210864965998873e7 3.683142451908319e7 0.0
0.0 0.0 0.0

-1.3022592212978872e6 1.1470829808643077e7 0.0
1.1470829808643077e7 -6.370556358674456e6 0.0
0.0 0.0 0.0

-9.633462996079622e6 5.861218133180756e6 0.0
5.861218133180756e6 3.984775589955126e7 0.0
0.0 0.0 0.0

1.777853426162087e6 5.720551600956074e6 0.0
5.720551600956074e6 -1.0623715155915994e7 0.0
0.0 0.0 0.0

-6.418608358096686e6 2.3091765321115732e7 0.0
2.3091765321115732e7 -6.8883301169040855e6 0.0
0.0 0.0 0.0

-3.6158503708680645e6 2.2003703830106914e7 0.0
2.2003703830106914e7 1.823537385639321e7 0.0
0.0 0.0 0.0

-1.0997034834548784e7 1.0012142943856485e7 0.0
1.0012142943856485e7 2.5245188789290782e7 0.0
0.0 0.0 0.0

1.7962300129606444e6 8.658885363688542e6 0.0
8.658885363688542e6 -3.410445359051083e7 0.0
0.0 0.0 0.0

-7.168528811444231e6 1.74206681052665e7 0.0
1.74206681052665e7 -4.246444182936265e7 0.0
0.0 0.0 0.0

-8.1878134684017915e6 7.448190289176953e6 0.0
7.448190289176953e6 9.381831698771631e6 0.0
0.0 0.0 0.0

2.953843013248192e6 3.6391447102740714e6 0.0
3.6391447102740714e6 -2.5737825692724977e7 0.0
0.0 0.0 0.0

-132321.95157079585 1.9652538460056566e7 0.0
1.9652538460056566e7 -1.4693208413852716e7 0.0
0.0 0.0 0.0

2.2166356672935616e7 2.405329786899607e7 0.0
2.405329786899607e7 8.41580036474314e6 0.0
0.0 0.0 0.0

2.234152658883501e6 6.144100679323579e6 0.0
6.144100679323579e6 -4.5770073829128675e7 0.0
0.0 0.0 0.0

-1.334559667746479e7 411440.7543283749 0.0
411440.7543283749 6.643597897399326e6 0.0
0.0 0.0 0.0

-5.184973526751622e6 2.026869140862063e7 0.0
2.026869140862063e7 2.349686894966138e7 0.0
0.0 0.0 0.0

-2.391638933495513e6 9.883199967250085e6 0.0
9.883199967250085e6 3.0612592328319484e6 0.0
0.0 0.0 0.0

-1.0863344143384308e7 9.107551916120095e6 0.0
9.107551916120095e6 2.7574407397098187e7 0.0
0.0 0.0 0.0

1.7415365673350766e6 6.604512898600492e6 0.0
6.604512898600492e6 -5.291881954571734e7 0.0
0.0 0.0 0.0

1.1317334450115941e7 1.9280853953988977e7 0.0
1.9280853953988977e7 3.772444876253976e7 0.0
0.0 0.0 0.0

1.0963282365259528e7 2.4985448425160687e7 0.0
2.4985448425160687e7 1.339627926908767e7 0.0
0.0 0.0 0.0

-6.1033629166846955e6 1.9118687952801447e7 0.0
1.9118687952801447e7 -2.522728811313809e7 0.0
0.0 0.0 0.0

-229129.57483598776 1.4727669758222342e7 0.0
1.4727669758222342e7 -1.3441345454177348e7 0.0
0.0 0.0 0.0

-3.32819273789437e6 2.280601283371294e7 0.0
2.280601283371294e7 1.6882425481758058e7 0.0
0.0 0.0 0.0

1.1514550039074497e7 2.272506521572009e7 0.0
2.272506521572009e7 1.0310091167574096e6 0.0
0.0 0.0 0.0

1.3053642265606765e6 1.1602979705299271e7 0.0
1.1602979705299271e7 -3.1897786161648903e7 0.0
0.0 0.0 0.0

1.8386790557658777e6 3.301767846695653e7 0.0
3.301767846695653e7 -3.3224692583108083e6 0.0
0.0 0.0 0.0

35086.28471439425 1.969807222970618e7 0.0
1.969807222970618e7 4.495952592068957e6 0.0
0.0 0.0 0.0

-7.415051628614268e7 6.774285292125917e6 0.0
6.774285292125917e6 3.4834767345367596e6 0.0
0.0 0.0 0.0

6.240087837976768e7 7.831490275352978e6 0.0
7.831490275352978e6 -255162.09912754223 0.0
0.0 0.0 0.0

5.027129238982304e6 2.2811338920792274e7 0.0
2.2811338920792274e7 9.850241541748174e6 0.0
0.0 0.0 0.0

-4.566366088297598e6 8.89534825822048e6 0.0
8.89534825822048e6 2.9231281510376073e7 0.0
0.0 0.0 0.0

1.4715227576432806e6 2.1017707963034127e7 0.0
2.1017707963034127e7 1.8050284308812693e7 0.0
0.0 0.0 0.0

3.0196111446853303e6 2.728510985661975e7 0.0
2.728510985661975e7 -7.922407166512176e6 0.0
0.0 0.0 0.0

5.436712076321129e6 2.1009587182987705e7 0.0
2.1009587182987705e7 1.8122374248031616e7 0.0
0.0 0.0 0.0

-1.1035900389944565e7 8.995474679328319e6 0.0
8.995474679328319e6 2.4456371202360254e7 0.0
0.0 0.0 0.0

-2.6538369202223914e6 2.250829414106528e7 0.0
2.250829414106528e7 1.1557355245599143e7 0.0
0.0 0.0 0.0

-5.078243107685923e7 3.785902838559689e7 0.0
3.785902838559689e7 -1.129347223485915e7 0.0
0.0 0.0 0.0

2.568661796594966e6 4.243013447081785e6 0.0
4.243013447081785e6 -3.2064699908506796e7 0.0
0.0 0.0 0.0

-3.6909912973496104e6 2.2204872207596757e7 0.0
2.2204872207596757e7 -4.0398874409094574e6 0.0
0.0 0.0 0.0

1.063068591475122e7 1.8100062026057027e7 0.0
1.8100062026057027e7 3.985085344494359e7 0.0
0.0 0.0 0.0

-7.561312995004504e6 1.7642671392973807e7 0.0
1.7642671392973807e7 -2.520437667347819e7 0.0
0.0 0.0 0.0

6.775372760797939e6 1.826532058798933e7 0.0
1.826532058798933e7 2.2584576705372974e7 0.0
0.0 0.0 0.0

-1.441940854873065e6 1.475403866733496e7 0.0
1.475403866733496e7 -4.221096203252233e7 0.0
0.0 0.0 0.0

-9.710278714149669e6 2.6577827933978704e6 0.0
2.6577827933978704e6 3.118743722873298e7 0.0
0.0 0.0 0.0

-1.9053670630769625e7 3.263608436147682e7 0.0
3.263608436147682e7 5.909508720728844e6 0.0
0.0 0.0 0.0

2.0069820993532268e6 8.53142076203758e6 0.0
8.53142076203758e6 -2.0479531173411924e7 0.0
0.0 0.0 0.0

-3.697963329492951e6 1.8619556471989382e7 0.0
1.8619556471989382e7 3.4746016975744866e7 0.0
0.0 0.0 0.0

-1.1810540895869244e7 6.277974688570751e6 0.0
6.277974688570751e6 2.1069266365417104e7 0.0
0.0 0.0 0.0

-5.42276811034105e6 3.2975521587974723e7 0.0
3.2975521587974723e7 5.044114072930754e6 0.0
0.0 0.0 0.0

-1.2672301777980044e7 3.740675622721277e7 0.0
3.740675622721277e7 5.909250862366375e6 0.0
0.0 0.0 0.0

-1.3037076172545929e7 320718.0254120653 0.0
320718.0254120653 6.771723176514057e6 0.0
0.0 0.0 0.0

-3.4083843196156994e6 1.8740296812926486e7 0.0
1.8740296812926486e7 -1.2111542632724244e7 0.0
0.0 0.0 0.0

2.345799656940471e6 2.6616355467075918e7 0.0
2.6616355467075918e7 -8.182407574052563e6 0.0
0.0 0.0 0.0

-9.935754058667392e6 3.320678062763822e6 0.0
3.320678062763822e6 1.2341740206744496e7 0.0
0.0 0.0 0.0

1.075529373202191e7 3.0444841125400428e7 0.0
3.0444841125400428e7 -5.343592664364329e6 0.0
0.0 0.0 0.0

-1.1912165661596589e7 7.429784202102396e6 0.0
7.429784202102396e6 2.2233950377445824e7 0.0
0.0 0.0 0.0

2.2572470772705935e6 4.693747762798921e6 0.0
4.693747762798921e6 -3.75729164020701e7 0.0
0.0 0.0 0.0

2.3629442968280427e6 5.687678773936643e6 0.0
5.687678773936643e6 -3.352975905951072e7 0.0
0.0 0.0 0.0

598492.6179904761 1.4423728260613192e7 0.0
1.4423728260613192e7 -1.7634058307737075e7 0.0
0.0 0.0 0.0

2.125119328603641e6 2.3646261782469127e7 0.0
2.3646261782469127e7 -1.1707435153784797e7 0.0
0.0 0.0 0.0

1.7428163800061122e6 5.864443812409355e6 0.0
5.864443812409355e6 -5.614967594922669e7 0.0
0.0 0.0 0.0

-7.235105070951047e6 2.4364652295803383e7 0.0
2.4364652295803383e7 -1.3816631537549831e7 0.0
0.0 0.0 0.0

544404.5396036729 1.656003340415881e7 0.0
1.656003340415881e7 -2.4681334404862188e7 0.0
0.0 0.0 0.0

-7.018638242681019e6 1.9047656157637037e7 0.0
1.9047656157637037e7 2.688481544901243e7 0.0
0.0 0.0 0.0

-6.656553144890912e6 2.4016223914546527e7 0.0
2.4016223914546527e7 -1.2535748763875613e7 0.0
0.0 0.0 0.0

2.0431926622297019e6 1.1209459099653063e7 0.0
1.1209459099653063e7 -3.128180539722526e7 0.0
0.0 0.0 0.0

-3.431755536727062e7 2.5810087425929286e7 0.0
2.5810087425929286e7 3.7892103376459666e6 0.0
0.0 0.0 0.0

2.243742043509692e6 3.8265885018591997e6 0.0
3.8265885018591997e6 -3.930305295053774e7 0.0
0.0 0.0 0.0

2.9638049340560716e6 5.83518639123482e6 0.0
5.83518639123482e6 -3.3434590262698915e7 0.0
0.0 0.0 0.0

1.0766477163122855e6 2.1508163962502304e7 0.0
2.1508163962502304e7 -1.5096353870265342e7 0.0
0.0 0.0 0.0

-1.75027119629168e7 579691.1353845508 0.0
579691.1353845508 7.942176523449312e6 0.0
0.0 0.0 0.0

1.4339061232539574e6 1.1235663365881922e7 0.0
1.1235663365881922e7 -1.234333069290588e7 0.0
0.0 0.0 0.0

260660.39097541105 1.893109756627305e7 0.0
1.893109756627305e7 2.199197685555248e7 0.0
0.0 0.0 0.0

-3.988259940158113e6 3.1592272403089292e7 0.0
3.1592272403089292e7 4.973917542154349e6 0.0
0.0 0.0 0.0

-6.5484771742425505e6 3.355421301242955e7 0.0
3.355421301242955e7 5.277487464385945e6 0.0
0.0 0.0 0.0

-1.1817413405941103e7 1.010784226655136e7 0.0
1.010784226655136e7 2.23952963497924e7 0.0
0.0 0.0 0.0

-1.2734107737355866e6 1.4494098278840773e7 0.0
1.4494098278840773e7 6.513824865109265e7 0.0
0.0 0.0 0.0

-2.634727553990389e6 3.2248009691564e7 0.0
3.2248009691564e7 3.3183232639556145e6 0.0
0.0 0.0 0.0

-4.637371283335362e6 2.2595233731147803e7 0.0
2.2595233731147803e7 -1.6571971705944526e6 0.0
0.0 0.0 0.0

-84888.23186506075 2.1502858130190738e7 0.0
2.1502858130190738e7 -5.014523878175484e6 0.0
0.0 0.0 0.0

4.041109140165899e7 2.606159763396325e7 0.0
2.606159763396325e7 1.5941412875527106e7 0.0
0.0 0.0 0.0

-1.0754323232738739e7 1.1383879860290088e7 0.0
1.1383879860290088e7 2.4260479777773794e7 0.0
0.0 0.0 0.0

2.987778873927368e6 4.117487416133425e6 0.0
4.117487416133425e6 -3.672215235238626e7 0.0
0.0 0.0 0.0

584877.3838820579 2.0386843443939064e7 0.0
2.0386843443939064e7 -1.3530225773968719e7 0.0
0.0 0.0 0.0

-2.5707328241824866e6 1.7130790666749835e7 0.0
1.7130790666749835e7 3.0478240173225473e6 0.0
0.0 0.0 0.0

-1.3592662542130342e7 2.0713373594040446e7 0.0
2.0713373594040446e7 764986.6331810197 0.0
0.0 0.0 0.0

-8.882182947281357e6 2.49610996083004e6 0.0
2.49610996083004e6 3.7948355416367956e7 0.0
0.0 0.0 0.0

-8.013362085792574e7 4.811917990706118e7 0.0
4.811917990706118e7 -1.5327244215996968e7 0.0
0.0 0.0 0.0

-1.134200814209069e7 1.8111985643992666e7 0.0
1.8111985643992666e7 -3.780669478291981e7 0.0
0.0 0.0 0.0

1.0042358531172505e7 1.8911592440759037e7 0.0
1.8911592440759037e7 3.347452941140919e7 0.0
0.0 0.0 0.0

541359.5773358122 1.5418090790876234e7 0.0
1.5418090790876234e7 -2.8002290893946752e7 0.0
0.0 0.0 0.0

-1.4963726609793693e7 2.5626755744984236e7 0.0
2.5626755744984236e7 -6.917464815854173e6 0.0
0.0 0.0 0.0

2.5861257002506573e6 9.331640766367292e6 0.0
9.331640766367292e6 -1.917082655075121e7 0.0
0.0 0.0 0.0

2.3214550787801407e6 9.717874649233548e6 0.0
9.717874649233548e6 -3.2312707230162926e7 0.0
0.0 0.0 0.0

-4.0728320240158346e6 2.1344244159307685e7 0.0
2.1344244159307685e7 2.0085685438999996e7 0.0
0.0 0.0 0.0

1.2609015690603163e6 1.2297704169774195e7 0.0
1.2297704169774195e7 -3.023760544407762e7 0.0
0.0 0.0 0.0

-4.552801914640544e6 3.229640576778479e7 0.0
3.229640576778479e7 5.012149101640856e6 0.0
0.0 0.0 0.0

-1.0346449156486508e7 7.914894812015841e6 0.0
7.914894812015841e6 3.491169213956339e7 0.0
0.0 0.0 0.0

-9.280597878709415e6 420717.47927915474 0.0
420717.47927915474 2.938951942776481e7 0.0
0.0 0.0 0.0

1.9946083646942358e6 7.8992304917235775e6 0.0
7.8992304917235775e6 -3.3396977421586495e7 0.0
0.0 0.0 0.0

-1.3902091063861221e7 2.481210628410357e7 0.0
2.481210628410357e7 -1.0808212949942518e7 0.0
0.0 0.0 0.0

6.193973271716397e6 3.581333800459833e7 0.0
3.581333800459833e7 -4.335349867495313e6 0.0
0.0 0.0 0.0

-6.207818702440133e6 1.9422623794601418e7 0.0
1.9422623794601418e7 2.4810782752426058e7 0.0
0.0 0.0 0.0

2.0878994576877654e6 6.268678247577938e6 0.0
6.268678247577938e6 -3.6680349301022306e7 0.0
0.0 0.0 0.0

1.8294109284908678e6 6.524063156501269e6 0.0
6.524063156501269e6 -4.907485427967298e7 0.0
0.0 0.0 0.0

-4.438172195841029e6 1.339129956894699e7 0.0
1.339129956894699e7 5.3283038932831205e7 0.0
0.0 0.0 0.0

-9.83123902772847e6 8.145549424968128e6 0.0
8.145549424968128e6 3.575319174823059e7 0.0
0.0 0.0 0.0

8.696800594428152e6 3.0599187478003215e7 0.0
3.0599187478003215e7 -5.5992951475003455e6 0.0
0.0 0.0 0.0

-1.1795169925373031e6 2.4761555717400927e7 0.0
2.4761555717400927e7 -2.4063832258753055e6 0.0
0.0 0.0 0.0

-8.906603298103558e6 6.034089847479196e6 0.0
6.034089847479196e6 4.09248446753128e7 0.0
0.0 0.0 0.0

2.7433800385946985e6 4.984002247739599e6 0.0
4.984002247739599e6 -2.018246981681507e7 0.0
0.0 0.0 0.0

-2.4632541366389077e6 2.476544787486918e7 0.0
2.476544787486918e7 909569.657618078 0.0
0.0 0.0 0.0

-2.0016336611621346e7 2.5655362153200384e7 0.0
2.5655362153200384e7 -9.237646564132001e6 0.0
0.0 0.0 0.0

-1.036374650625936e7 1.2160660198044045e7 0.0
1.2160660198044045e7 1.713393411900545e7 0.0
0.0 0.0 0.0

2.8092577336733695e6 5.710143668751424e6 0.0
5.710143668751424e6 -3.5842725655495465e7 0.0
0.0 0.0 0.0

1.3374171099584643e6 1.2326248051401839e7 0.0
1.2326248051401839e7 -2.8150389058314282e7 0.0
0.0 0.0 0.0

-1.0982769991073135e7 1.8752402562748177e6 0.0
1.8752402562748177e6 2.00845730371266e7 0.0
0.0 0.0 0.0

-1.04806165594638e7 1.1073335340695182e7 0.0
1.1073335340695182e7 2.9330605515142407e7 0.0
0.0 0.0 0.0

-1.27729067267883e6 1.5019432454449784e7 0.0
1.5019432454449784e7 -3.929562761142884e7 0.0
0.0 0.0 0.0

3.078394270656096e6 5.121353195088719e6 0.0
5.121353195088719e6 -3.2693317170289405e7 0.0
0.0 0.0 0.0

-1.748183980554035e6 2.451592204830469e7 0.0
2.451592204830469e7 -4.235455737430855e6 0.0
0.0 0.0 0.0

2.603283886238793e6 8.1454806967214765e6 0.0
8.1454806967214765e6 -3.3297078435502768e7 0.0
0.0 0.0 0.0

-1.035592727037506e7 3.68658473945885e6 0.0
3.68658473945885e6 2.2560405052179787e7 0.0
0.0 0.0 0.0

-1.637752372170356e7 1.9834369449675605e7 0.0
1.9834369449675605e7 -5.4591749039353415e7 0.0
0.0 0.0 0.0

1.469272134200153e7 2.0608423496272188e7 0.0
2.0608423496272188e7 4.897574027468367e7 0.0
0.0 0.0 0.0

920192.8016290856 2.18153036633861e7 0.0
2.18153036633861e7 1.4240800041957058e6 0.0
0.0 0.0 0.0

-2.7431408807166763e7 2.7490495889368635e6 0.0
2.7490495889368635e6 7.065233235596221e6 0.0
0.0 0.0 0.0

-9.677937246126201e6 513859.5259323287 0.0
513859.5259323287 2.250302031722931e7 0.0
0.0 0.0 0.0

6.616775734076891e6 2.073145033337287e7 0.0
2.073145033337287e7 2.2055916009224888e7 0.0
0.0 0.0 0.0

-6.0181030223257495e6 1.9914932724667016e7 0.0
1.9914932724667016e7 -2.006034062015133e7 0.0
0.0 0.0 0.0

-551546.0409950167 1.4740371905270733e7 0.0
1.4740371905270733e7 7.112389853608073e7 0.0
0.0 0.0 0.0

2.0515168561943807e6 7.1122893590348195e6 0.0
7.1122893590348195e6 -3.504176523210312e7 0.0
0.0 0.0 0.0

2.0645573282720828e6 2.585151955269028e7 0.0
2.585151955269028e7 -9.395255981756222e6 0.0
0.0 0.0 0.0

-8.665133787589785e6 1.779154327576596e7 0.0
1.779154327576596e7 -4.1109343819622256e7 0.0
0.0 0.0 0.0

-4.0654714938459336e6 3.048085845984774e7 0.0
3.048085845984774e7 4.38704640321975e6 0.0
0.0 0.0 0.0

-4.618396441222119e6 2.432274439914899e7 0.0
2.432274439914899e7 8.818505314722747e6 0.0
0.0 0.0 0.0

1.2722549791881328e6 3.0715152473922446e7 0.0
3.0715152473922446e7 -4.279543738073826e6 0.0
0.0 0.0 0.0

-1.4745740408278674e7 1.8084426003189635e7 0.0
1.8084426003189635e7 -5.735276753367884e7 0.0
0.0 0.0 0.0

6.986024541137548e6 3.0537251715952452e7 0.0
3.0537251715952452e7 -5.757986154803811e6 0.0
0.0 0.0 0.0

-5.753087540762862e6 1.8028624391228553e7 0.0
1.8028624391228553e7 3.3503506481039457e7 0.0
0.0 0.0 0.0

1.7077832291440228e6 9.898233788826944e6 0.0
9.898233788826944e6 -2.007790367603861e7 0.0
0.0 0.0 0.0

2.2058307511707544e6 6.384861068904917e6 0.0
6.384861068904917e6 -3.428674966264212e7 0.0
0.0 0.0 0.0

2.19642531691031e6 2.4650968681379758e7 0.0
2.4650968681379758e7 -1.0681575039748676e7 0.0
0.0 0.0 0.0

-2.0608194843173006e6 1.711218740661628e7 0.0
1.711218740661628e7 -6.583166826251155e6 0.0
0.0 0.0 0.0

1.1498102734469753e6 1.0027559161239872e7 0.0
1.0027559161239872e7 -3.829058970652451e7 0.0
0.0 0.0 0.0

-3.3715166190491496e6 2.89662719075265e7 0.0
2.89662719075265e7 5.381691072398474e6 0.0
0.0 0.0 0.0

-2.116832538725722e6 1.9392825906435944e7 0.0
1.9392825906435944e7 190515.25726704556 0.0
0.0 0.0 0.0

760211.0406121407 1.681138340472943e7 0.0
1.681138340472943e7 -1.4838004991978463e7 0.0
0.0 0.0 0.0

560563.7947478406 1.3206535537670748e7 0.0
1.3206535537670748e7 -3.6831879244515635e7 0.0
0.0 0.0 0.0

4.460918094939841e6 2.9883040114038806e7 0.0
2.9883040114038806e7 -6.066816673998419e6 0.0
0.0 0.0 0.0

521371.3641775027 1.8994962773963258e7 0.0
1.8994962773963258e7 -1.3631817076352526e7 0.0
0.0 0.0 0.0

-2.2125341525712484e6 1.781671283014906e7 0.0
1.781671283014906e7 -6.295296252308126e6 0.0
0.0 0.0 0.0

3.0667570042061213e7 5.869825377988438e6 0.0
5.869825377988438e6 -2.0151978155830037e6 0.0
0.0 0.0 0.0

-2.584882177442833e6 2.0449901502568748e7 0.0
2.0449901502568748e7 8.4504008837152e6 0.0
0.0 0.0 0.0

-9.59791965080238e6 1.1251928523041623e7 0.0
1.1251928523041623e7 1.892791147162144e7 0.0
0.0 0.0 0.0

-9.360553803730782e6 2.260139858092177e6 0.0
2.260139858092177e6 3.366238903025552e7 0.0
0.0 0.0 0.0

3.313910973804023e6 3.689137804060326e6 0.0
3.689137804060326e6 -3.1164402475867424e7 0.0
0.0 0.0 0.0

2.8998094753715517e6 6.537467399672487e6 0.0
6.537467399672487e6 -2.296645614385297e7 0.0
0.0 0.0 0.0

3.1788190492404904e6 5.256561629574268e6 0.0
5.256561629574268e6 -3.032355841987146e7 0.0
0.0 0.0 0.0

-5.2029865313279815e6 1.9541824859947894e7 0.0
1.9541824859947894e7 -2.3714722402195312e7 0.0
0.0 0.0 0.0

5.6056422866288945e6 3.026932679443583e7 0.0
3.026932679443583e7 -5.90586861090953e6 0.0
0.0 0.0 0.0

-5.8441561179898605e6 1.833415486215841e7 0.0
1.833415486215841e7 3.1287440561340578e7 0.0
0.0 0.0 0.0

-3.2880716779601327e6 2.1049301647307772e7 0.0
2.1049301647307772e7 7.399419696418896e6 0.0
0.0 0.0 0.0

2.460594876726426e6 5.855388598544424e6 0.0
5.855388598544424e6 -3.130911660042474e7 0.0
0.0 0.0 0.0

-1.1670584329136625e7 5.023084196859119e6 0.0
5.023084196859119e6 2.0172687238427967e7 0.0
0.0 0.0 0.0

-6.309167453768052e6 1.9554384928169884e7 0.0
1.9554384928169884e7 2.6756631214697402e7 0.0
0.0 0.0 0.0

932340.8852370447 2.1137374166929875e7 0.0
2.1137374166929875e7 -1.627844565494047e7 0.0
0.0 0.0 0.0

1.387414233949713e6 2.2234892144885324e7 0.0
2.2234892144885324e7 -5.878377976774723e6 0.0
0.0 0.0 0.0

-3.744450096739425e6 3.0086089357498243e7 0.0
3.0086089357498243e7 5.80720458512182e6 0.0
0.0 0.0 0.0

1.129317807126402e6 1.6418982786996696e7 0.0
1.6418982786996696e7 -2.448599654600831e7 0.0
0.0 0.0 0.0

2.90372897700347e6 6.674027828475818e6 0.0
6.674027828475818e6 -3.1915239602333352e7 0.0
0.0 0.0 0.0

2.340125760917373e6 6.524566350913155e6 0.0
6.524566350913155e6 -3.2012985632698104e7 0.0
0.0 0.0 0.0

1.5673225231308509e6 8.888021320074342e6 0.0
8.888021320074342e6 -1.614094521018393e7 0.0
0.0 0.0 0.0

2.1637959210414663e6 7.188103389094347e6 0.0
7.188103389094347e6 -3.2743863669297297e7 0.0
0.0 0.0 0.0

3.305690330128528e6 5.780096991818791e6 0.0
5.780096991818791e6 -2.652643880105205e7 0.0
0.0 0.0 0.0

-8.573187816870857e6 3.614471924640813e7 0.0
3.614471924640813e7 5.410943902206544e6 0.0
0.0 0.0 0.0

8.826709693393685e6 3.2264329013853483e7 0.0
3.2264329013853483e7 -5.470333552539983e6 0.0
0.0 0.0 0.0

-5.279514654660433e6 2.533011574975202e7 0.0
2.533011574975202e7 8.816216485024372e6 0.0
0.0 0.0 0.0

2.4503917063459456e6 6.413931760235526e6 0.0
6.413931760235526e6 -2.7547798901662562e7 0.0
0.0 0.0 0.0

-1.6842195587643636e6 2.116736836522396e7 0.0
2.116736836522396e7 -7.506159785136488e6 0.0
0.0 0.0 0.0

-1.3783122100472173e6 1.8543772832750097e7 0.0
1.8543772832750097e7 -283928.3757364891 0.0
0.0 0.0 0.0

-2.152444561666031e7 2.2300474258754104e7 0.0
2.2300474258754104e7 -7.174816760590713e7 0.0
0.0 0.0 0.0

2.048032338102408e7 2.390946481340342e7 0.0
2.390946481340342e7 6.826776268717957e7 0.0
0.0 0.0 0.0

1.381579667431629e7 2.311017620294706e7 0.0
2.311017620294706e7 1.1895808643657155e6 0.0
0.0 0.0 0.0

2.0861070249716263e7 2.4974580588620637e7 0.0
2.4974580588620637e7 1.1941332154740477e6 0.0
0.0 0.0 0.0

25788.91688207537 7.093187435946237e6 0.0
7.093187435946237e6 -6.1889298454059765e7 0.0
0.0 0.0 0.0

988067.2249968704 1.934411536679671e7 0.0
1.934411536679671e7 -1.8661259749902096e7 0.0
0.0 0.0 0.0

332.7815693281591 2.1572770496719863e7 0.0
2.1572770496719863e7 1.5147778530168695e7 0.0
0.0 0.0 0.0

-9.871879430826353e6 7.450146979271493e6 0.0
7.450146979271493e6 3.7750342971457236e7 0.0
0.0 0.0 0.0

-4.929371795990612e6 1.7245608440743167e7 0.0
1.7245608440743167e7 3.802609409302608e7 0.0
0.0 0.0 0.0

-3.1254640855238773e6 2.331517872365578e7 0.0
2.331517872365578e7 8.682984806540005e6 0.0
0.0 0.0 0.0

-1.0113216106618992e6 1.6634661769967496e7 0.0
1.6634661769967496e7 -5.81619020118978e6 0.0
0.0 0.0 0.0

-1.5061909424449634e7 2.792351689608207e7 0.0
2.792351689608207e7 -1.2898739017353062e7 0.0
0.0 0.0 0.0

-3.2592525831428897e6 2.3529348265503474e7 0.0
2.3529348265503474e7 1.521062888481259e7 0.0
0.0 0.0 0.0

-7.3967263218807075e6 1.514640693046402e7 0.0
1.514640693046402e7 1.494827194175186e7 0.0
0.0 0.0 0.0

-2.533008280942557e6 2.4286372050953113e7 0.0
2.4286372050953113e7 5.690931768007128e6 0.0
0.0 0.0 0.0

2.128135739426641e6 7.103906748589965e6 0.0
7.103906748589965e6 -4.370253946199852e7 0.0
0.0 0.0 0.0

3.026300139213668e6 7.687479927280687e6 0.0
7.687479927280687e6 -2.166092208459553e7 0.0
0.0 0.0 0.0

439451.5049562771 2.1613362875795037e7 0.0
2.1613362875795037e7 -1.439128503425929e7 0.0
0.0 0.0 0.0

1.255353931521302e6 1.308567339339842e7 0.0
1.308567339339842e7 -2.6715378793666475e7 0.0
0.0 0.0 0.0

-7.61746649995303e6 9.680909811608154e6 0.0
9.680909811608154e6 4.600076478295286e7 0.0
0.0 0.0 0.0

-8.708018097834677e6 2.58379992859483e6 0.0
2.58379992859483e6 1.0777553203696955e7 0.0
0.0 0.0 0.0

-5.436947784108356e6 8.583612385512e6 0.0
8.583612385512e6 5.853772596264137e7 0.0
0.0 0.0 0.0

-113864.17708551977 2.0647451935295716e7 0.0
2.0647451935295716e7 -1.3939064777503403e7 0.0
0.0 0.0 0.0

-4.731130397740469e6 2.569648894535082e7 0.0
2.569648894535082e7 1.0113805227695735e7 0.0
0.0 0.0 0.0

-8.28358156999569e6 1.3916924843066214e7 0.0
1.3916924843066214e7 1.9471229992253967e7 0.0
0.0 0.0 0.0

3.9534344608194767e6 2.7684636132268295e7 0.0
2.7684636132268295e7 -7.435841999512586e6 0.0
0.0 0.0 0.0

-1.0890855657699902e7 9.796452577390043e6 0.0
9.796452577390043e6 1.6891797855339557e7 0.0
0.0 0.0 0.0

-4.074771588602526e6 2.278637231012337e7 0.0
2.278637231012337e7 1.685644151332601e7 0.0
0.0 0.0 0.0

2.845637738627927e7 3.04103126993927e7 0.0
3.04103126993927e7 -5.313809463900404e6 0.0
0.0 0.0 0.0

-6.256081811577026e6 2.0192554748475727e7 0.0
2.0192554748475727e7 2.332927829786261e7 0.0
0.0 0.0 0.0

-5.740842347681111e6 3.82939572032543e6 0.0
3.82939572032543e6 1.04152474353867e7 0.0
0.0 0.0 0.0

-3.1550474339218132e7 2.8071534243344045e6 0.0
2.8071534243344045e6 7.32673702912751e6 0.0
0.0 0.0 0.0

2.6380579371892884e6 4.336169193442459e6 0.0
4.336169193442459e6 -3.404576628520213e7 0.0
0.0 0.0 0.0

-8.67987703280127e6 3.1879674503549714e7 0.0
3.1879674503549714e7 6.419806549531266e6 0.0
0.0 0.0 0.0

-1.1279715342941254e7 2.3250347461091713e6 0.0
2.3250347461091713e6 1.7704877840955444e7 0.0
0.0 0.0 0.0

-3.5281067449073177e6 1.443790555375727e7 0.0
1.443790555375727e7 284493.3802122257 0.0
0.0 0.0 0.0

-1.0386164691774253e7 3.5824001885772925e6 0.0
3.5824001885772925e6 3.1045830793278072e7 0.0
0.0 0.0 0.0

419013.966070286 2.112959888855434e7 0.0
2.112959888855434e7 -1.6346296377547238e7 0.0
0.0 0.0 0.0

-9.938484576919522e6 2.098007746607299e6 0.0
2.098007746607299e6 3.2869878971341502e7 0.0
0.0 0.0 0.0

408114.8220090056 1.7209046295237675e7 0.0
1.7209046295237675e7 -1.821030124999086e7 0.0
0.0 0.0 0.0

-5.610837624750115e6 1.9031442944924746e7 0.0
1.9031442944924746e7 2.9679257187682055e7 0.0
0.0 0.0 0.0

-1.02268649515439e7 1.311534238351074e7 0.0
1.311534238351074e7 1.8234995002680376e7 0.0
0.0 0.0 0.0

-3.306258013783006e6 1.7787330582125653e7 0.0
1.7787330582125653e7 3.914112148558627e7 0.0
0.0 0.0 0.0

-8.515553963965058e6 1.7033843267919198e7 0.0
1.7033843267919198e7 2.1881567237137698e7 0.0
0.0 0.0 0.0

-2.404051649328613e6 2.563899406155006e7 0.0
2.563899406155006e7 875297.4794060858 0.0
0.0 0.0 0.0

2.0234579412044957e6 7.943015617116013e6 0.0
7.943015617116013e6 -4.164450966479931e7 0.0
0.0 0.0 0.0

-3.84885862434523e6 1.8990336663389586e7 0.0
1.8990336663389586e7 3.2906699826936528e7 0.0
0.0 0.0 0.0

1.4737683224580701e7 2.3097596111962542e7 0.0
2.3097596111962542e7 8.884680768935725e6 0.0
0.0 0.0 0.0

-2.0848958448392384e7 1.3248444292914918e7 0.0
1.3248444292914918e7 8.431579538670087e6 0.0
0.0 0.0 0.0

1.0623236720397267e6 1.2251194303692976e7 0.0
1.2251194303692976e7 -3.649374916156146e7 0.0
0.0 0.0 0.0

-6.578985128541639e6 1.467205182051799e7 0.0
1.467205182051799e7 1.768983459447729e7 0.0
0.0 0.0 0.0

2.3551056751752896e6 1.011750571511194e7 0.0
1.011750571511194e7 -1.794518666219791e7 0.0
0.0 0.0 0.0

-9.652268674978698e6 1.0702123319075825e6 0.0
1.0702123319075825e6 1.9956115856174625e7 0.0
0.0 0.0 0.0

-1.0190808893590892e7 596269.7543159833 0.0
596269.7543159833 2.6292625594759405e7 0.0
0.0 0.0 0.0

885786.4315774888 1.5120025815673795e7 0.0
1.5120025815673795e7 -2.2305876834164985e7 0.0
0.0 0.0 0.0

-1.0939992306170428e7 8.008801466266537e6 0.0
8.008801466266537e6 2.3524820203497767e7 0.0
0.0 0.0 0.0

-5.663042567211786e6 2.6345404743451893e7 0.0
2.6345404743451893e7 8.771743497050874e6 0.0
0.0 0.0 0.0

7.244565499949556e6 1.755755673133225e7 0.0
1.755755673133225e7 7.711273891724719e6 0.0
0.0 0.0 0.0

-683805.6321531498 8.385244443510481e6 0.0
8.385244443510481e6 -833563.648793169 0.0
0.0 0.0 0.0

586331.9015781796 2.1346353301401168e7 0.0
2.1346353301401168e7 -1.2834851256182795e7 0.0
0.0 0.0 0.0

2.231635486342525e6 7.9701097068406725e6 0.0
7.9701097068406725e6 -2.4866799619340036e7 0.0
0.0 0.0 0.0

1.552323130701238e6 2.9869694869272638e7 0.0
2.9869694869272638e7 -5.13191914709697e6 0.0
0.0 0.0 0.0

-6.7126819432388395e6 1.6333790749418788e7 0.0
1.6333790749418788e7 -7.093088478184327e7 0.0
0.0 0.0 0.0

2.5102214793404015e6 5.73142426541247e6 0.0
5.73142426541247e6 -1.881535600309012e7 0.0
0.0 0.0 0.0

2.6316388202147335e6 5.664354077539166e6 0.0
5.664354077539166e6 -2.6886928942877296e7 0.0
0.0 0.0 0.0

-4.391662318627955e6 1.968251827472857e7 0.0
1.968251827472857e7 -2.1464736604538735e7 0.0
0.0 0.0 0.0

-1.5263005852394446e6 9.1347707572821e6 0.0
9.1347707572821e6 1.0869430503117936e6 0.0
0.0 0.0 0.0

-1.690107477793601e7 1.8881814388635434e7 0.0
1.8881814388635434e7 -6.593368824305195e7 0.0
0.0 0.0 0.0

1.8961522608475992e6 8.539510317323638e6 0.0
8.539510317323638e6 -1.0669546653874878e7 0.0
0.0 0.0 0.0

2.684477449007539e6 8.74132696481274e6 0.0
8.74132696481274e6 -1.8246472716668233e7 0.0
0.0 0.0 0.0

-742885.7353199464 2.0944656512876417e7 0.0
2.0944656512876417e7 -2.8725942207882497e6 0.0
0.0 0.0 0.0

-7.144455664857898e6 1.4363780671468051e7 0.0
1.4363780671468051e7 4.006810225595942e7 0.0
0.0 0.0 0.0

-2.7523579538766197e6 3.160709305896785e7 0.0
3.160709305896785e7 1.7616646534510495e6 0.0
0.0 0.0 0.0

-1.136840478743312e7 1.0459041525687825e7 0.0
1.0459041525687825e7 8.06422006346757e6 0.0
0.0 0.0 0.0

1.190408941389706e6 1.371062025502964e7 0.0
1.371062025502964e7 -2.5177509294733014e7 0.0
0.0 0.0 0.0

1.9932516330687823e6 2.099999103185745e7 0.0
2.099999103185745e7 2.079046604894484e7 0.0
0.0 0.0 0.0

1.6478036606996506e6 2.902985123742549e7 0.0
2.902985123742549e7 -6.043429224741792e6 0.0
0.0 0.0 0.0

-781197.1858004523 1.4960493687496092e7 0.0
1.4960493687496092e7 -1.1041779751551617e7 0.0
0.0 0.0 0.0

3.2211189090006584e6 2.830199647331566e7 0.0
2.830199647331566e7 -7.113373228370793e6 0.0
0.0 0.0 0.0

523291.4931236743 1.5450638426572077e7 0.0
1.5450638426572077e7 -1.2318042668918595e7 0.0
0.0 0.0 0.0

-9.868333716482015e6 -933731.1067077299 0.0
-933731.1067077299 2.0489845550930694e7 0.0
0.0 0.0 0.0

59785.01236921549 2.0895443437376335e7 0.0
2.0895443437376335e7 -1.4480715930618616e7 0.0
0.0 0.0 0.0

1.6488024204748288e7 4.763534275091812e7 0.0
4.763534275091812e7 -7.394751856280318e6 0.0
0.0 0.0 0.0

7.236653485224111e6 2.4779955225872237e7 0.0
2.4779955225872237e7 -4.387939182338858e6 0.0
0.0 0.0 0.0

919937.4701001327 2.0280400833111886e7 0.0
2.0280400833111886e7 -1.7504743700136747e7 0.0
0.0 0.0 0.0

-3.3284426980292154e6 1.6336441026721094e7 0.0
1.6336441026721094e7 8.130335626975239e6 0.0
0.0 0.0 0.0

-2.9058830510773435e6 1.989770590107366e7 0.0
1.989770590107366e7 -647341.3923479483 0.0
0.0 0.0 0.0

3.1700849604457e6 3.2124486190051585e6 0.0
3.2124486190051585e6 -3.290502049360831e7 0.0
0.0 0.0 0.0

3.008665108071116e6 4.214210935627652e6 0.0
4.214210935627652e6 -1.3185946734056152e7 0.0
0.0 0.0 0.0

-4.1540262895083767e6 1.0680733251605557e7 0.0
1.0680733251605557e7 1.7813707417965396e6 0.0
0.0 0.0 0.0

-1.0419689599281685e7 2.3937632999826748e7 0.0
2.3937632999826748e7 -2.286852449343693e6 0.0
0.0 0.0 0.0

2.5317191986698695e6 6.208974220911276e6 0.0
6.208974220911276e6 -2.225161025153741e7 0.0
0.0 0.0 0.0

41903.0444709314 1.754830133956719e7 0.0
1.754830133956719e7 -1.6092010895527977e7 0.0
0.0 0.0 0.0

-301536.08574307244 2.173597898743121e7 0.0
2.173597898743121e7 1.2321832646716475e7 0.0
0.0 0.0 0.0

1.9722758865725454e6 1.2665564413116649e7 0.0
1.2665564413116649e7 -2.6041076128946632e7 0.0
0.0 0.0 0.0

-1.080876258921443e7 6.713489525073059e6 0.0
6.713489525073059e6 2.2603203812904444e7 0.0
0.0 0.0 0.0

-2.8695042870432418e7 3.255263643040683e7 0.0
3.255263643040683e7 3.823304438453298e6 0.0
0.0 0.0 0.0

1.9606102912384234e6 1.1933613711437067e7 0.0
1.1933613711437067e7 -2.9653865899821714e7 0.0
0.0 0.0 0.0

-5.820510079300147e7 5.321687856219404e6 0.0
5.321687856219404e6 4.61400295713814e6 0.0
0.0 0.0 0.0

2.21786590122851e6 7.700041863045856e6 0.0
7.700041863045856e6 -2.1771573676819902e7 0.0
0.0 0.0 0.0

-3.0561737675613537e6 2.1143309751761943e7 0.0
2.1143309751761943e7 2.2781918144714817e7 0.0
0.0 0.0 0.0

-1.0622804046355095e6 1.528692746735032e7 0.0
1.528692746735032e7 -3.704379856294757e7 0.0
0.0 0.0 0.0

328148.3804706652 1.6498158503505733e7 0.0
1.6498158503505733e7 -2.8054453768279076e7 0.0
0.0 0.0 0.0

-8.872873507667935e6 3.2563756140447673e6 0.0
3.2563756140447673e6 1.6052491892623046e7 0.0
0.0 0.0 0.0

-1.1190044856864864e7 1.0673331393418688e7 0.0
1.0673331393418688e7 2.8346956843946517e7 0.0
0.0 0.0 0.0

-2.8839233761137025e6 1.6865494749049675e7 0.0
1.6865494749049675e7 -2.5386068678852697e6 0.0
0.0 0.0 0.0

-3.8643764370029643e6 1.552115356822829e7 0.0
1.552115356822829e7 1.0024671801725322e7 0.0
0.0 0.0 0.0

-1.0582241696709502e7 9.477297795396572e6 0.0
9.477297795396572e6 3.2859689236704323e7 0.0
0.0 0.0 0.0

-1.8315212498358963e6 1.6352298838680757e7 0.0
1.6352298838680757e7 -1.699855450217114e6 0.0
0.0 0.0 0.0

45233.34524312988 1.994436518078005e7 0.0
1.994436518078005e7 -1.524720209324177e7 0.0
0.0 0.0 0.0

436389.04405206814 2.1090055449305188e7 0.0
2.1090055449305188e7 -1.2224611459614944e7 0.0
0.0 0.0 0.0

210955.57716216706 2.1764778293279085e7 0.0
2.1764778293279085e7 -1.3728076320370598e7 0.0
0.0 0.0 0.0

606408.2089662561 1.6484009183856603e7 0.0
1.6484009183856603e7 -1.951801391747062e7 0.0
0.0 0.0 0.0

1.4981237533990676e6 9.528309379089754e6 0.0
9.528309379089754e6 -1.7051145792483658e7 0.0
0.0 0.0 0.0

-978514.5965265357 2.105826195706663e7 0.0
2.105826195706663e7 -6.197106988281986e6 0.0
0.0 0.0 0.0

-335170.5232777926 2.0365278502057504e7 0.0
2.0365278502057504e7 -1.3398851022468168e7 0.0
0.0 0.0 0.0

28226.608324007597 1.5690012621942047e7 0.0
1.5690012621942047e7 -9.930862654136103e6 0.0
0.0 0.0 0.0

-1.0433058629700871e7 5.472290745098092e6 0.0
5.472290745098092e6 2.1618277593436025e7 0.0
0.0 0.0 0.0

731527.8346778471 1.58256315418184e7 0.0
1.58256315418184e7 -2.0920081655935653e7 0.0
0.0 0.0 0.0

-1.8637564184155826e7 2.0932994142027874e7 0.0
2.0932994142027874e7 -6.212521419083799e7 0.0
0.0 0.0 0.0

-8.284145037402189e6 5.168918288843309e6 0.0
5.168918288843309e6 1.4968165264392268e7 0.0
0.0 0.0 0.0

1.93179189647468e6 9.107457954371057e6 0.0
9.107457954371057e6 -2.133816433575458e7 0.0
0.0 0.0 0.0

-621165.0460624062 7.7736683325713575e6 0.0
7.7736683325713575e6 -5.334757436831931e6 0.0
0.0 0.0 0.0

-5.260295398657126e6 1.5397029083728723e7 0.0
1.5397029083728723e7 -6.412247598289515e7 0.0
0.0 0.0 0.0

-4.296465058735824e6 1.6389486961132407e7 0.0
1.6389486961132407e7 1.334664518928237e7 0.0
0.0 0.0 0.0

3.085969616348454e6 7.093417827515325e6 0.0
7.093417827515325e6 -2.0800793820765495e7 0.0
0.0 0.0 0.0

-1.1613081660032658e7 1.03310568641724e7 0.0
1.03310568641724e7 2.5244699903786533e7 0.0
0.0 0.0 0.0

-7.539941770709703e6 2.8574168411564836e6 0.0
2.8574168411564836e6 4.860535104359333e7 0.0
0.0 0.0 0.0

451093.5947295184 2.012189730335563e7 0.0
2.012189730335563e7 -2.0906162766727472e6 0.0
0.0 0.0 0.0

2.078995231774884e6 1.812378589985077e7 0.0
1.812378589985077e7 5.720971208980746e6 0.0
0.0 0.0 0.0

-7.575069178489647e6 2.664070824463473e7 0.0
2.664070824463473e7 8.177826311564626e6 0.0
0.0 0.0 0.0

-2.9614049177176445e6 2.229233770700353e7 0.0
2.229233770700353e7 4.459850768721901e6 0.0
0.0 0.0 0.0

2.8545737800627947e6 4.935413874444046e6 0.0
4.935413874444046e6 -3.748260417608068e7 0.0
0.0 0.0 0.0

2.881237303698778e6 5.66406230835203e6 0.0
5.66406230835203e6 -3.800368596627056e7 0.0
0.0 0.0 0.0

-8.953535965568144e6 1.5807248592508383e7 0.0
1.5807248592508383e7 2.8958178791234527e7 0.0
0.0 0.0 0.0

109199.08547458053 1.896698251154121e7 0.0
1.896698251154121e7 -1.604831299139366e7 0.0
0.0 0.0 0.0

9.702651395382592e6 2.351537997249737e7 0.0
2.351537997249737e7 1.8045524435821846e6 0.0
0.0 0.0 0.0

-7.416484492674198e6 5.0981274516008105e6 0.0
5.0981274516008105e6 5.5499620226995036e7 0.0
0.0 0.0 0.0

-2.8104078115020697e6 1.9695327322211396e7 0.0
1.9695327322211396e7 1.0190429448762044e7 0.0
0.0 0.0 0.0

-1.1028629467281085e6 1.8706380321682476e7 0.0
1.8706380321682476e7 -1.0651210655656846e7 0.0
0.0 0.0 0.0

-4991.208572674543 1.6967053690325633e7 0.0
1.6967053690325633e7 5.722983640277057e7 0.0
0.0 0.0 0.0

-383611.8716596195 5.383905483795546e6 0.0
5.383905483795546e6 454968.68755866884 0.0
0.0 0.0 0.0

-325511.9866049979 2.4869689646638818e7 0.0
2.4869689646638818e7 -8.131938631563434e6 0.0
0.0 0.0 0.0

5.658369051086099e6 2.184484255100664e7 0.0
2.184484255100664e7 1.766329641474254e7 0.0
0.0 0.0 0.0

2.774465238274866e6 8.533702520281736e6 0.0
8.533702520281736e6 -2.0418418215782512e7 0.0
0.0 0.0 0.0

-3.1742760365082733e6 1.5034679717812257e7 0.0
1.5034679717812257e7 -1.3289763685687033e6 0.0
0.0 0.0 0.0

-4.460059332969924e6 1.616942506237089e7 0.0
1.616942506237089e7 4.364237816466394e7 0.0
0.0 0.0 0.0

1.8740885726939328e6 9.663028128609383e6 0.0
9.663028128609383e6 -3.7721802814331755e7 0.0
0.0 0.0 0.0

876681.727451263 1.969136276530027e7 0.0
1.969136276530027e7 -1.8892071242313106e7 0.0
0.0 0.0 0.0

-8.697384442150846e6 1.4772995396756441e6 0.0
1.4772995396756441e6 3.938296537845776e7 0.0
0.0 0.0 0.0

1.5304983987180442e6 1.1281718360500028e7 0.0
1.1281718360500028e7 -3.605094525672276e7 0.0
0.0 0.0 0.0

108992.3765336643 1.0891357496743532e7 0.0
1.0891357496743532e7 -6.629027921123444e6 0.0
0.0 0.0 0.0

2.5381897306796387e6 8.977207585734816e6 0.0
8.977207585734816e6 -3.1665739330800876e7 0.0
0.0 0.0 0.0

23954.302389018238 1.5659617991922524e7 0.0
1.5659617991922524e7 -1.5164156484394822e7 0.0
0.0 0.0 0.0

188117.63017682452 1.7929233423170842e7 0.0
1.7929233423170842e7 -1.679609414137433e7 0.0
0.0 0.0 0.0

-1.075719402891131e7 8.2199092826744765e6 0.0
8.2199092826744765e6 3.2103807361703258e7 0.0
0.0 0.0 0.0

4.1080392335260026e6 2.203559048305539e7 0.0
2.203559048305539e7 5.152186079488087e6 0.0
0.0 0.0 0.0

-1.0612487321467604e7 4.1619743576833336e6 0.0
4.1619743576833336e6 2.0542687399697144e7 0.0
0.0 0.0 0.0

1.1590480253890362e6 1.70421522306602e7 0.0
1.70421522306602e7 -2.3121884797897585e7 0.0
0.0 0.0 0.0

-4.740974754362912e6 5.685133536710734e6 0.0
5.685133536710734e6 8.831785099026054e6 0.0
0.0 0.0 0.0

578339.7367751808 5.677317260819517e6 0.0
5.677317260819517e6 -6.648531661041972e6 0.0
0.0 0.0 0.0

-69102.14940762334 1.7173188020360034e7 0.0
1.7173188020360034e7 -1.5414428328253718e7 0.0
0.0 0.0 0.0

3.349200970224266e6 5.453059249710855e6 0.0
5.453059249710855e6 -2.1121033887746677e7 0.0
0.0 0.0 0.0

-1.0902532869473176e7 4.091476868538117e6 0.0
4.091476868538117e6 2.8396741948316664e7 0.0
0.0 0.0 0.0

1.522339357370045e6 3.41663724221747e6 0.0
3.41663724221747e6 -5.570342726929504e7 0.0
0.0 0.0 0.0

-1.3923722171739014e6 1.9093420920832586e7 0.0
1.9093420920832586e7 -4.641240214657173e6 0.0
0.0 0.0 0.0

-1.1411907812565414e7 1.2346770267152028e7 0.0
1.2346770267152028e7 2.244696100753531e7 0.0
0.0 0.0 0.0

-8.681637992444279e6 2.560115571634189e7 0.0
2.560115571634189e7 5.747998104041779e6 0.0
0.0 0.0 0.0

3.72814143952138e6 2.2789390164949246e7 0.0
2.2789390164949246e7 9.533698790311508e6 0.0
0.0 0.0 0.0

-5.463733234092671e6 1.957955257519814e7 0.0
1.957955257519814e7 2.817630066666369e7 0.0
0.0 0.0 0.0

-4.585249457966802e6 2.0770019693549357e7 0.0
2.0770019693549357e7 2.1818049650609814e7 0.0
0.0 0.0 0.0

-8.47903055156678e6 -655714.739400724 0.0
-655714.739400724 3.9357619152566895e7 0.0
0.0 0.0 0.0

-2.974369167139305e6 1.5190082845187569e7 0.0
1.5190082845187569e7 4.846605764200676e6 0.0
0.0 0.0 0.0

5.534547059003402e6 2.194675009405409e7 0.0
2.194675009405409e7 1.7232765273132306e7 0.0
0.0 0.0 0.0

-3.964619927578411e6 2.4042120660953343e7 0.0
2.4042120660953343e7 1.2503797531359786e7 0.0
0.0 0.0 0.0

-1.1406404679082919e7 9.70332746764948e6 0.0
9.70332746764948e6 2.742455248582703e7 0.0
0.0 0.0 0.0

701426.0275595281 1.5402312619594438e7 0.0
1.5402312619594438e7 -2.6177639691076253e7 0.0
0.0 0.0 0.0

2.2176721967023807e6 7.323411239126137e6 0.0
7.323411239126137e6 -1.857075248529507e7 0.0
0.0 0.0 0.0

837310.77550474 1.867934094108754e7 0.0
1.867934094108754e7 -1.5594750200289037e7 0.0
0.0 0.0 0.0

-3.111424412583422e6 1.3804502999090303e7 0.0
1.3804502999090303e7 4.955498100233999e6 0.0
0.0 0.0 0.0

3.113254106214622e6 5.467769070942532e6 0.0
5.467769070942532e6 -1.3344501369055398e7 0.0
0.0 0.0 0.0

-441528.0780005662 2.5498424580277853e7 0.0
2.5498424580277853e7 -6.953570310539998e6 0.0
0.0 0.0 0.0

-7.891395388163667e6 4.313337038324513e6 0.0
4.313337038324513e6 4.639729865039623e7 0.0
0.0 0.0 0.0

-8.73038421263891e6 2.5088424098394257e6 0.0
2.5088424098394257e6 4.066778450064352e7 0.0
0.0 0.0 0.0

-8.314949725485472e6 1.2559537125596264e7 0.0
1.2559537125596264e7 4.002553583765979e7 0.0
0.0 0.0 0.0

-38254.63769446779 2.325109478105704e7 0.0
2.325109478105704e7 -1.1232331802075583e7 0.0
0.0 0.0 0.0

-2.4724792376681943e6 9.161684142083848e6 0.0
9.161684142083848e6 -2.0666981960955008e6 0.0
0.0 0.0 0.0

1.8332622216645665e7 2.485784564924513e7 0.0
2.485784564924513e7 1.4648099525748473e7 0.0
0.0 0.0 0.0

1.357267933574989e7 2.23252997936118e7 0.0
2.23252997936118e7 5.524008710904439e7 0.0
0.0 0.0 0.0

3.13058333493713e6 6.608819724777734e6 0.0
6.608819724777734e6 -1.742748247245351e7 0.0
0.0 0.0 0.0

-1.0808791984919505e7 6.239967277268462e6 0.0
6.239967277268462e6 2.4668574641564846e7 0.0
0.0 0.0 0.0

-2.8221158533161376e6 1.6488446718513807e7 0.0
1.6488446718513807e7 4.715988698622793e6 0.0
0.0 0.0 0.0

-4.115043794280865e6 2.2531044483269412e7 0.0
2.2531044483269412e7 1.663637565181893e7 0.0
0.0 0.0 0.0

2.513106627424443e6 6.161373311036851e6 0.0
6.161373311036851e6 -4.078582713400943e7 0.0
0.0 0.0 0.0

2.6332590201892797e6 7.279685353732626e6 0.0
7.279685353732626e6 -3.493571710341358e7 0.0
0.0 0.0 0.0

-7.158707552331869e6 6.662377799792613e6 0.0
6.662377799792613e6 7.279985314385554e6 0.0
0.0 0.0 0.0

-2.610749227199443e6 2.081347846068093e7 0.0
2.081347846068093e7 9.752123365133686e6 0.0
0.0 0.0 0.0

-356563.8758487627 1.7354340474829294e7 0.0
1.7354340474829294e7 5.315843002865438e7 0.0
0.0 0.0 0.0

768120.8976798467 1.970267570599321e7 0.0
1.970267570599321e7 -1.4871750058951475e7 0.0
0.0 0.0 0.0

-4.836443222558731e6 7.977475304252511e6 0.0
7.977475304252511e6 9.279624638282996e6 0.0
0.0 0.0 0.0

2.688653852192726e6 6.427258587256397e6 0.0
6.427258587256397e6 -3.653397438292673e7 0.0
0.0 0.0 0.0

-3.312208295026359e6 2.317890848055551e7 0.0
2.317890848055551e7 1.0449020615017105e7 0.0
0.0 0.0 0.0

2.0295175363578387e6 8.8262410496954e6 0.0
8.8262410496954e6 -2.3632592189348593e7 0.0
0.0 0.0 0.0

-9.126193665091638e6 9.301614068763273e6 0.0
9.301614068763273e6 527383.3637173092 0.0
0.0 0.0 0.0

193734.48767746612 1.6467331942757178e7 0.0
1.6467331942757178e7 -1.674678995804337e7 0.0
0.0 0.0 0.0

-5.595709831783333e6 3.3917752499367865e6 0.0
3.3917752499367865e6 4.389894418329902e6 0.0
0.0 0.0 0.0

-3.2016873734058e6 1.2310612925898489e7 0.0
1.2310612925898489e7 5.036296374594477e6 0.0
0.0 0.0 0.0

-3.1678466051335875e6 1.0637974014950732e7 0.0
1.0637974014950732e7 5.07430817656861e6 0.0
0.0 0.0 0.0

-179009.4175569173 1.6728476199798586e7 0.0
1.6728476199798586e7 -1.4687643038905365e7 0.0
0.0 0.0 0.0

-3.156418802266225e6 1.6342602752858695e7 0.0
1.6342602752858695e7 -1.1451740027927263e6 0.0
0.0 0.0 0.0

-1.0939819817229774e7 1.0001166460822223e7 0.0
1.0001166460822223e7 3.0591827246650904e7 0.0
0.0 0.0 0.0

-3.6237839131169096e6 1.5093457623085737e7 0.0
1.5093457623085737e7 5.03935188083207e7 0.0
0.0 0.0 0.0

-6.773836604011288e6 1.2482562966253834e7 0.0
1.2482562966253834e7 4.578313277720645e7 0.0
0.0 0.0 0.0

-4.109113632674925e6 1.565261501533628e7 0.0
1.565261501533628e7 4.684642904537594e7 0.0
0.0 0.0 0.0

-5.033148294083625e6 8.084280078951833e6 0.0
8.084280078951833e6 6.85949277876543e7 0.0
0.0 0.0 0.0

-701394.1774608553 2.1878272429821372e7 0.0
2.1878272429821372e7 9.531497184094217e6 0.0
0.0 0.0 0.0

-7.690104238499448e6 6.328987304103212e6 0.0
6.328987304103212e6 5.247581968533621e7 0.0
0.0 0.0 0.0

-1.6246807251638635e6 2.3848495136365592e7 0.0
2.3848495136365592e7 -5.468980800069035e6 0.0
0.0 0.0 0.0

-1.8482063978765656e6 2.0886681174856428e7 0.0
2.0886681174856428e7 -1.2335224901811127e7 0.0
0.0 0.0 0.0

-6.01336281307073e7 3.804037538172984e7 0.0
3.804037538172984e7 -1.3717174134308955e7 0.0
0.0 0.0 0.0

2.7795562392373737e6 8.139512915133132e6 0.0
8.139512915133132e6 -1.7279287450487565e7 0.0
0.0 0.0 0.0

1.9103562958663944e6 1.344273324911967e7 0.0
1.344273324911967e7 -2.476818334151938e7 0.0
0.0 0.0 0.0

-59323.02642541379 2.571752762931059e7 0.0
2.571752762931059e7 -5.930549150887492e6 0.0
0.0 0.0 0.0

-2.0082284068273352e6 2.4370951124619555e7 0.0
2.4370951124619555e7 3.8771524344348484e6 0.0
0.0 0.0 0.0

2.7066263029540125e6 8.211341761714503e6 0.0
8.211341761714503e6 -3.108777841022507e7 0.0
0.0 0.0 0.0

1.914278057893743e7 2.6956019890512235e7 0.0
2.6956019890512235e7 -2.963439727619198e6 0.0
0.0 0.0 0.0

-4.54737149913446e6 1.3052216262541503e7 0.0
1.3052216262541503e7 3.8053270382589987e6 0.0
0.0 0.0 0.0

494866.52751540765 6.436915707514077e6 0.0
6.436915707514077e6 -5.70401061905191e7 0.0
0.0 0.0 0.0

-4.783858891546599e6 1.1456666433235886e7 0.0
1.1456666433235886e7 3.7255062585244e6 0.0
0.0 0.0 0.0

1.8355212250618683e6 8.754481548302943e6 0.0
8.754481548302943e6 -1.827855621195463e7 0.0
0.0 0.0 0.0

-5.300259883264814e6 1.9982206647113536e7 0.0
1.9982206647113536e7 2.6688004673265137e7 0.0
0.0 0.0 0.0

-3.930003225335479e7 3.2247802782157194e7 0.0
3.2247802782157194e7 188242.42733041383 0.0
0.0 0.0 0.0

-9.748660172165403e6 1.1573434045462797e6 0.0
1.1573434045462797e6 3.2368203847370967e7 0.0
0.0 0.0 0.0

732638.9855472408 2.0658735716734383e7 0.0
2.0658735716734383e7 -1.411236757416351e7 0.0
0.0 0.0 0.0

-1.7612904196864173e7 2.7474733752426125e7 0.0
2.7474733752426125e7 -8.1002528535796655e6 0.0
0.0 0.0 0.0

3.181236975770236e6 5.949308430832708e6 0.0
5.949308430832708e6 -1.6718249046038605e7 0.0
0.0 0.0 0.0

-1.0850299541532105e7 1.085642291000702e7 0.0
1.085642291000702e7 2.642102081359325e7 0.0
0.0 0.0 0.0

625235.4352004444 1.791920890687409e7 0.0
1.791920890687409e7 -1.4246676989135597e7 0.0
0.0 0.0 0.0

-786049.3283187214 1.709212755038939e7 0.0
1.709212755038939e7 -6.983875767276333e6 0.0
0.0 0.0 0.0

-4.279209304106055e6 1.4499672849690976e7 0.0
1.4499672849690976e7 3.791425623870238e6 0.0
0.0 0.0 0.0

-8.896758854303367e6 1.0999448796042047e7 0.0
1.0999448796042047e7 4.001890600649056e7 0.0
0.0 0.0 0.0

3.168080829327991e6 4.247904964682876e6 0.0
4.247904964682876e6 -3.425028573950993e7 0.0
0.0 0.0 0.0

2.672175089096362e6 5.6094148479128685e6 0.0
5.6094148479128685e6 -2.10060992168658e7 0.0
0.0 0.0 0.0

-3.2808990362135437e6 2.2838471288394712e7 0.0
2.2838471288394712e7 9.483423565714646e6 0.0
0.0 0.0 0.0

-1.0623999372777158e7 2.450808447651233e6 0.0
2.450808447651233e6 1.4788493307920396e7 0.0
0.0 0.0 0.0

-96886.4738916466 1.5188187718491906e7 0.0
1.5188187718491906e7 -1.4361719434888776e7 0.0
0.0 0.0 0.0

2.9767695686807614e6 7.248464584930251e6 0.0
7.248464584930251e6 -2.6094679688897133e7 0.0
0.0 0.0 0.0

-8.631001587615015e6 5.677385407326118e6 0.0
5.677385407326118e6 4.3740676317835554e7 0.0
0.0 0.0 0.0

-1.161958887716833e6 2.2082377912298866e7 0.0
2.2082377912298866e7 6.669270852743278e6 0.0
0.0 0.0 0.0

-1.0675926194313912e7 2.9342089053511936e6 0.0
2.9342089053511936e6 2.766741683765168e7 0.0
0.0 0.0 0.0

1.0331888421020079e6 1.2848140003749177e7 0.0
1.2848140003749177e7 -3.45358750431112e7 0.0
0.0 0.0 0.0

-523255.92522561736 1.9284248273838423e7 0.0
1.9284248273838423e7 -2.12058402273157e7 0.0
0.0 0.0 0.0

-1.0865946154790297e7 1.3532591324394759e7 0.0
1.3532591324394759e7 2.1645095200523466e7 0.0
0.0 0.0 0.0

754682.0105105545 1.6416688734127956e7 0.0
1.6416688734127956e7 -2.628832891556496e7 0.0
0.0 0.0 0.0

1.1066912118178392e6 1.6848609673479166e7 0.0
1.6848609673479166e7 -1.765973754663317e7 0.0
0.0 0.0 0.0

-1.2902875925952117e6 2.652352841807477e6 0.0
2.652352841807477e6 2.7581181924103647e6 0.0
0.0 0.0 0.0

-1.0779382172164988e7 1.9313056714287614e6 0.0
1.9313056714287614e6 2.468671756273733e7 0.0
0.0 0.0 0.0

-48051.4025257919 1.3048461883125775e7 0.0
1.3048461883125775e7 -1.2882413822000062e7 0.0
0.0 0.0 0.0

334706.3839669209 1.1788607359875422e7 0.0
1.1788607359875422e7 -1.3242948085889254e7 0.0
0.0 0.0 0.0

781819.6727979453 1.829486169717892e7 0.0
1.829486169717892e7 -1.4920015251715872e7 0.0
0.0 0.0 0.0

-1.8999672515437445e6 2.2265605359196607e7 0.0
2.2265605359196607e7 3.7885436508686226e6 0.0
0.0 0.0 0.0

1.1676453783276137e6 1.0299219270496195e7 0.0
1.0299219270496195e7 -1.5800549830138717e7 0.0
0.0 0.0 0.0

-3.0889769172960427e6 1.4329552364465972e7 0.0
1.4329552364465972e7 -5.1588549080288924e7 0.0
0.0 0.0 0.0

-1.0405570359034993e7 4.35906836109108e6 0.0
4.35906836109108e6 1.4146108907582115e7 0.0
0.0 0.0 0.0

-1.2409700116803588e7 1.9366273001784854e7 0.0
1.9366273001784854e7 -4.639240430028665e7 0.0
0.0 0.0 0.0

-1.2679472257082036e8 1.5574870949934805e7 0.0
1.5574870949934805e7 -2.2058396559976265e6 0.0
0.0 0.0 0.0

1.1507635598501669e8 1.649319506044513e7 0.0
1.649319506044513e7 5.775716466352981e6 0.0
0.0 0.0 0.0

-4.515562872855963e6 1.4751836161491271e7 0.0
1.4751836161491271e7 -5.9463534293946534e7 0.0
0.0 0.0 0.0

-7.0455103453018805e6 1.752044126505071e7 0.0
1.752044126505071e7 2.2643577718035735e7 0.0
0.0 0.0 0.0

-2.829831103865282e6 2.1611120964174747e7 0.0
2.1611120964174747e7 791576.3958187475 0.0
0.0 0.0 0.0

-381052.4840528369 1.4246166923972584e7 0.0
1.4246166923972584e7 -1.2493519394973708e7 0.0
0.0 0.0 0.0

-959845.5383631033 6.817624253860717e6 0.0
6.817624253860717e6 -3.881318453049828e6 0.0
0.0 0.0 0.0

195389.7793729026 7.692912638465183e6 0.0
7.692912638465183e6 -2.5999962453160887e6 0.0
0.0 0.0 0.0

-4.002328153565593e6 1.5850887588042272e7 0.0
1.5850887588042272e7 3.728651153368828e6 0.0
0.0 0.0 0.0

-3.780712877165284e6 1.4501591425367378e7 0.0
1.4501591425367378e7 -5.5309121665922835e7 0.0
0.0 0.0 0.0

1.0461705878104148e6 1.2536344208557848e7 0.0
1.2536344208557848e7 -1.2058186247684458e7 0.0
0.0 0.0 0.0

-1.005942389123964e7 4.1429721925601442e6 0.0
4.1429721925601442e6 3.5270696430522874e7 0.0
0.0 0.0 0.0

9.469376582911864e7 2.0386869534728248e7 0.0
2.0386869534728248e7 184742.88996827602 0.0
0.0 0.0 0.0

688799.2337626247 1.3772944961060291e7 0.0
1.3772944961060291e7 -1.1736484188668802e7 0.0
0.0 0.0 0.0

3.022562992706485e6 6.782602054628288e6 0.0
6.782602054628288e6 -2.9749527460117135e7 0.0
0.0 0.0 0.0

2.8647268055302165e6 7.482213383936216e6 0.0
7.482213383936216e6 -3.0426359669026017e7 0.0
0.0 0.0 0.0

-5.157202878394002e6 2.0404314921112467e7 0.0
2.0404314921112467e7 2.5212775051933736e7 0.0
0.0 0.0 0.0

1.518032080340417e6 1.5454967004975775e7 0.0
1.5454967004975775e7 -2.0311947417044707e7 0.0
0.0 0.0 0.0

-3.8813631995669836e6 2.2673090597202446e7 0.0
2.2673090597202446e7 -1.2856115461326627e7 0.0
0.0 0.0 0.0

7.8084712903189175e6 2.4526515713433538e7 0.0
2.4526515713433538e7 -2.9794335377387167e6 0.0
0.0 0.0 0.0

-1.9453163260234217e6 1.4434590890342131e7 0.0
1.4434590890342131e7 -342816.63006948197 0.0
0.0 0.0 0.0

1.5315962006204044e6 6.271060665295171e6 0.0
6.271060665295171e6 -5.634195930364816e6 0.0
0.0 0.0 0.0

-3.351611297698182e6 9.905557177667808e6 0.0
9.905557177667808e6 -137682.23397114826 0.0
0.0 0.0 0.0

-7.071465599611062e6 7.019590765032448e6 0.0
7.019590765032448e6 1.3367003041208895e7 0.0
0.0 0.0 0.0

-6.887609823557464e6 1.7614659113826416e7 0.0
1.7614659113826416e7 -3.3176796176510032e7 0.0
0.0 0.0 0.0

1.7172851003317442e6 1.2629340474171003e7 0.0
1.2629340474171003e7 -3.0150002826487523e7 0.0
0.0 0.0 0.0

2.2030217888511494e6 6.57204466533843e6 0.0
6.57204466533843e6 -1.770882640195917e7 0.0
0.0 0.0 0.0

2.1822975883441847e6 9.72795618284308e6 0.0
9.72795618284308e6 -1.4838092206087127e7 0.0
0.0 0.0 0.0

-2.1312280453521344e6 1.7047892782491367e7 0.0
1.7047892782491367e7 -69510.02449697198 0.0
0.0 0.0 0.0

1.7655641942716185e6 9.334272320086751e6 0.0
9.334272320086751e6 -1.9192785876272142e7 0.0
0.0 0.0 0.0

-1.5658440385483967e6 8.43126832837406e6 0.0
8.43126832837406e6 -3.772069034183957e6 0.0
0.0 0.0 0.0

3.5305361860629506e6 4.68505638481375e6 0.0
4.68505638481375e6 -2.232728977053703e7 0.0
0.0 0.0 0.0

685227.9812511718 1.634918411619535e7 0.0
1.634918411619535e7 -1.4082030142938785e7 0.0
0.0 0.0 0.0

-1.0250568458866667e7 6.346797525246186e6 0.0
6.346797525246186e6 1.2966125716555923e7 0.0
0.0 0.0 0.0

-147980.9259776664 2.4838146712301277e7 0.0
2.4838146712301277e7 -8.931647775462206e6 0.0
0.0 0.0 0.0

1.2475965803553592e6 5.957553547904573e6 0.0
5.957553547904573e6 -4.933348255082614e7 0.0
0.0 0.0 0.0

511535.85802282766 1.7474992480044156e7 0.0
1.7474992480044156e7 -1.3548301171219757e7 0.0
0.0 0.0 0.0

2.775886676151229e6 8.903188602124445e6 0.0
8.903188602124445e6 -2.3370982446407277e7 0.0
0.0 0.0 0.0

-3.3366590863823667e6 4.94873433753984e6 0.0
4.94873433753984e6 6.789052843319908e6 0.0
0.0 0.0 0.0

2.9005439557390176e6 8.1094517086049495e6 0.0
8.1094517086049495e6 -2.4766889148889717e7 0.0
0.0 0.0 0.0

-2.32204118667209e6 2.217244135695865e7 0.0
2.217244135695865e7 6.614429910411783e6 0.0
0.0 0.0 0.0

2.2287431723173624e6 2.6774283372219626e7 0.0
2.6774283372219626e7 -8.412391931950407e6 0.0
0.0 0.0 0.0

-1.4373766492409352e6 2.0110334306687634e7 0.0
2.0110334306687634e7 -2.0711987816346038e7 0.0
0.0 0.0 0.0

59836.1086781132 7.019126946320111e6 0.0
7.019126946320111e6 -6.771161302335848e6 0.0
0.0 0.0 0.0

2.127112945305126e6 2.7836052951453216e7 0.0
2.7836052951453216e7 -6.574136556499005e6 0.0
0.0 0.0 0.0

630297.5803658739 2.3018730823503792e7 0.0
2.3018730823503792e7 -1.0880401884641808e7 0.0
0.0 0.0 0.0

-1.1917399122804848e7 9.12196804759243e6 0.0
9.12196804759243e6 2.143061544796024e7 0.0
0.0 0.0 0.0

-3.369071657868753e6 2.3629260585023016e7 0.0
2.3629260585023016e7 1.4738578877909034e7 0.0
0.0 0.0 0.0

-6.742111515822981e6 4.298981074740079e6 0.0
4.298981074740079e6 6.770804177229766e6 0.0
0.0 0.0 0.0

-2.637409908541126e6 1.1561733876817698e7 0.0
1.1561733876817698e7 3.133439364204113e6 0.0
0.0 0.0 0.0

-7.329878977556471e6 8.692127166949026e6 0.0
8.692127166949026e6 4.924671212161881e7 0.0
0.0 0.0 0.0

-5.38865864240361e6 1.4834624709195726e7 0.0
1.4834624709195726e7 9.001510729388965e6 0.0
0.0 0.0 0.0

3.6267220651752595e6 2.1515553757967494e7 0.0
2.1515553757967494e7 2.328715235150878e6 0.0
0.0 0.0 0.0

410331.43656243803 1.4985419361716637e7 0.0
1.4985419361716637e7 -1.1335730599221636e7 0.0
0.0 0.0 0.0

-316458.9489196995 1.6310552937447913e7 0.0
1.6310552937447913e7 -1.384452994617735e7 0.0
0.0 0.0 0.0

-2.801463709078349e6 1.4314739417367725e7 0.0
1.4314739417367725e7 -4.8169331620190226e7 0.0
0.0 0.0 0.0

781560.0941120349 6.402757380282925e6 0.0
6.402757380282925e6 -5.2604821221551724e7 0.0
0.0 0.0 0.0

-1.109833969483911e7 1.2161628199837951e7 0.0
1.2161628199837951e7 2.712865704329661e7 0.0
0.0 0.0 0.0

-2.4753584656185135e6 2.595899842048351e7 0.0
2.595899842048351e7 7.116738091402553e6 0.0
0.0 0.0 0.0

-9.636843484781016e6 4.552270654875729e6 0.0
4.552270654875729e6 3.909502992234636e7 0.0
0.0 0.0 0.0

668369.9975745268 2.156035854157256e7 0.0
2.156035854157256e7 -1.3404887383010965e7 0.0
0.0 0.0 0.0

468356.2903796267 2.0984158065249924e7 0.0
2.0984158065249924e7 -1.6076918634026887e7 0.0
0.0 0.0 0.0

1.5789344547688432e7 6.0497316190628335e6 0.0
6.0497316190628335e6 -2.0631729367938284e6 0.0
0.0 0.0 0.0

1.3957914525212501e6 1.000598754170002e7 0.0
1.000598754170002e7 -1.044504234104927e7 0.0
0.0 0.0 0.0

-9.072190580190055e6 1.4753715310611319e7 0.0
1.4753715310611319e7 1.8001930396284506e7 0.0
0.0 0.0 0.0

-3.4583993640851467e6 2.003450433610348e7 0.0
2.003450433610348e7 -1.987596367478663e7 0.0
0.0 0.0 0.0

603547.7658300763 1.5929996011164166e7 0.0
1.5929996011164166e7 -1.3240291331872664e7 0.0
0.0 0.0 0.0

868251.5587792201 1.7232761785512112e7 0.0
1.7232761785512112e7 -1.5595775023794819e7 0.0
0.0 0.0 0.0

-7.558023213720849e6 1.4243539868726566e7 0.0
1.4243539868726566e7 3.869878086092209e7 0.0
0.0 0.0 0.0

-1.1410013819607686e7 1.1890700164226187e7 0.0
1.1890700164226187e7 2.4369099025745105e7 0.0
0.0 0.0 0.0

-469508.5411244696 1.5871696333869806e7 0.0
1.5871696333869806e7 -1.2987653794124894e7 0.0
0.0 0.0 0.0

-1.158634857983469e6 1.9718622456076164e7 0.0
1.9718622456076164e7 -1.0265719877517136e7 0.0
0.0 0.0 0.0

-6.341833396718775e6 2.0930766765291285e7 0.0
2.0930766765291285e7 -1.2152778333673958e7 0.0
0.0 0.0 0.0

-1.5453889904021542e6 2.6910142943275586e7 0.0
2.6910142943275586e7 -2.573657580712343e6 0.0
0.0 0.0 0.0

1.4614764701821636e6 1.2729566848924754e7 0.0
1.2729566848924754e7 -3.2283015185481418e7 0.0
0.0 0.0 0.0

-1.9670868983506039e6 3.203124613069102e7 0.0
3.203124613069102e7 2.3951033488375507e6 0.0
0.0 0.0 0.0

-7.755612214180394e6 1.5539039375843575e7 0.0
1.5539039375843575e7 1.6172480166123651e7 0.0
0.0 0.0 0.0

-9.13657137360699e6 2.5615032624054164e7 0.0
2.5615032624054164e7 -1.1488163998220613e7 0.0
0.0 0.0 0.0

57653.878813511226 1.8840560496062826e7 0.0
1.8840560496062826e7 -1.8363258384524423e6 0.0
0.0 0.0 0.0

-923133.4655892514 2.0449046333310626e7 0.0
2.0449046333310626e7 -1.915506458804136e7 0.0
0.0 0.0 0.0

-2.524771445461216e6 2.02207748116703e7 0.0
2.02207748116703e7 -1.1816849713339036e7 0.0
0.0 0.0 0.0

-3.3063171023352663e6 2.5093553445331033e7 0.0
2.5093553445331033e7 9.695472424578799e6 0.0
0.0 0.0 0.0

463954.51595712453 2.005813252726068e7 0.0
2.005813252726068e7 -1.2922056437053723e7 0.0
0.0 0.0 0.0

-626008.3768211035 1.543409510215158e7 0.0
1.543409510215158e7 -1.205049689802309e7 0.0
0.0 0.0 0.0

-664519.9148102002 1.8987410675040204e7 0.0
1.8987410675040204e7 -2.3317914056845672e7 0.0
0.0 0.0 0.0

-1.6122968391888596e6 1.2894189311305087e7 0.0
1.2894189311305087e7 -6.530814890925775e6 0.0
0.0 0.0 0.0

-2.5387977308873767e6 2.4433545492639825e7 0.0
2.4433545492639825e7 2.10400806720546e6 0.0
0.0 0.0 0.0

-1.4023192635854182e6 2.6328052415047336e7 0.0
2.6328052415047336e7 -3.746552689684792e6 0.0
0.0 0.0 0.0

-2.0300124688692405e6 4.391478095433392e6 0.0
4.391478095433392e6 4.403240453712009e6 0.0
0.0 0.0 0.0

282962.3087186231 1.1191709515417244e7 0.0
1.1191709515417244e7 -1.2241130039231047e7 0.0
0.0 0.0 0.0

-865987.0115244378 2.7986504273940723e7 0.0
2.7986504273940723e7 -718924.0470877674 0.0
0.0 0.0 0.0

-3.0881037718162904e6 2.1694594718889505e7 0.0
2.1694594718889505e7 5.85181705806338e6 0.0
0.0 0.0 0.0

-9.510262768625976e7 9.595616956764318e6 0.0
9.595616956764318e6 1.0652792553562522e6 0.0
0.0 0.0 0.0

382726.33302056417 1.6983850467376873e7 0.0
1.6983850467376873e7 -2.6399870325417705e7 0.0
0.0 0.0 0.0

-3.587159750388159e6 2.035076898483592e7 0.0
2.035076898483592e7 9.042190723390292e6 0.0
0.0 0.0 0.0

-1.0391710450376729e6 2.414258264722317e7 0.0
2.414258264722317e7 -3.6129500423096484e6 0.0
0.0 0.0 0.0

-3.338567576243034e6 2.14394231306811e7 0.0
2.14394231306811e7 8.665787067669498e6 0.0
0.0 0.0 0.0

-2.4358988983962415e6 2.2516791265864063e7 0.0
2.2516791265864063e7 970049.4544909995 0.0
0.0 0.0 0.0

246027.2938788114 2.1759939322333124e7 0.0
2.1759939322333124e7 -1.1153047810465919e7 0.0
0.0 0.0 0.0

-6.338343148121202e6 1.6385533514539609e7 0.0
1.6385533514539609e7 1.3976085098887477e7 0.0
0.0 0.0 0.0

-1.0583794211838355e7 8.43345021124542e6 0.0
8.43345021124542e6 2.9900696817750115e7 0.0
0.0 0.0 0.0

-753531.3195638761 1.35911075212769e7 0.0
1.35911075212769e7 -5.243937398549574e6 0.0
0.0 0.0 0.0

2.7472915323225902e6 6.149820641386474e6 0.0
6.149820641386474e6 -1.2145628047975726e7 0.0
0.0 0.0 0.0

-1.8252631331365583e6 1.7548299416876018e7 0.0
1.7548299416876018e7 -7.712239191192338e6 0.0
0.0 0.0 0.0

94720.53860057332 2.252070873452239e7 0.0
2.252070873452239e7 -1.2467939219383366e7 0.0
0.0 0.0 0.0

-3.2748755236823345e6 2.061504701272571e7 0.0
2.061504701272571e7 6.089913869580632e6 0.0
0.0 0.0 0.0

-2.584278154024373e6 1.6139017123633057e7 0.0
1.6139017123633057e7 -4.150250943113685e6 0.0
0.0 0.0 0.0

-8.708341179403137e6 1.3579458705521957e6 0.0
1.3579458705521957e6 1.6708226169390535e7 0.0
0.0 0.0 0.0

2.1002090009005265e6 6.036533913596289e6 0.0
6.036533913596289e6 -1.429764047861718e7 0.0
0.0 0.0 0.0

-9.32893635746237e6 7.75531528894911e6 0.0
7.75531528894911e6 3.867447682763354e7 0.0
0.0 0.0 0.0

-1.1432089270542644e7 4.326321579405808e6 0.0
4.326321579405808e6 2.201376381857387e7 0.0
0.0 0.0 0.0

-1.3344372700473536e6 2.048825293562223e7 0.0
2.048825293562223e7 2.5500279610283922e7 0.0
0.0 0.0 0.0

-1.1704222438372409e6 2.071735109366785e7 0.0
2.071735109366785e7 -9.816715366964482e6 0.0
0.0 0.0 0.0

125226.70431037387 1.0522389074744433e7 0.0
1.0522389074744433e7 -1.1265827014376795e7 0.0
0.0 0.0 0.0

-8.789715925936796e6 7.435703271638654e6 0.0
7.435703271638654e6 4.163238693613565e7 0.0
0.0 0.0 0.0

-744351.6665305268 2.4438983237261664e7 0.0
2.4438983237261664e7 -4.547729016103095e6 0.0
0.0 0.0 0.0

-3.816837767395137e6 1.5171854194400296e7 0.0
1.5171854194400296e7 2.0289806545234565e6 0.0
0.0 0.0 0.0

-1.9270123635938095e6 1.0787990273301477e7 0.0
1.0787990273301477e7 1.221594434101307e6 0.0
0.0 0.0 0.0

-1.9554219062619102e6 1.4138156480885018e7 0.0
1.4138156480885018e7 -6.132379593873449e6 0.0
0.0 0.0 0.0

-3.5741605245591206e6 1.843078834243051e7 0.0
1.843078834243051e7 -3.0723896323832143e7 0.0
0.0 0.0 0.0

-2.4227808486631606e6 2.151953097643512e7 0.0
2.151953097643512e7 8.122321479921306e6 0.0
0.0 0.0 0.0

1.0122022344829785e6 2.0927179286945477e7 0.0
2.0927179286945477e7 -1.609003384075318e7 0.0
0.0 0.0 0.0

2.0183854439724907e6 1.7924237759078275e7 0.0
1.7924237759078275e7 6.3099837931315474e7 0.0
0.0 0.0 0.0

5.50291791002753e6 2.4113404991278827e7 0.0
2.4113404991278827e7 1.2658223116940908e7 0.0
0.0 0.0 0.0

-1.0060425718472674e7 1.449561349310346e7 0.0
1.449561349310346e7 2.0560614255682297e7 0.0
0.0 0.0 0.0

1.8226062011856083e6 1.3333828994362326e7 0.0
1.3333828994362326e7 -2.652024871498855e7 0.0
0.0 0.0 0.0

-1.5892256955897312e6 1.685575124086537e7 0.0
1.685575124086537e7 -3.0436822432051743e6 0.0
0.0 0.0 0.0

1.8385244030043222e6 2.3912269850902304e7 0.0
2.3912269850902304e7 -1.171812076539896e7 0.0
0.0 0.0 0.0

-2.298444932670648e6 2.717188853383463e7 0.0
2.717188853383463e7 4.893846042771093e6 0.0
0.0 0.0 0.0

-1.2888604730605897e6 2.568138660340369e7 0.0
2.568138660340369e7 -4.762139394287682e6 0.0
0.0 0.0 0.0

-419054.34819295537 2.088581058045582e7 0.0
2.088581058045582e7 -1.76080248532932e7 0.0
0.0 0.0 0.0

-1.4269567297873588e6 1.5629408285207368e7 0.0
1.5629408285207368e7 -3.3311587635025918e6 0.0
0.0 0.0 0.0

-3.103565660903714e6 2.2100762477066852e7 0.0
2.2100762477066852e7 7.118967546763444e6 0.0
0.0 0.0 0.0

-1.197421469797426e7 8.109282257629929e6 0.0
8.109282257629929e6 2.003840884712389e7 0.0
0.0 0.0 0.0

2.3396164426072696e6 5.866521851983905e6 0.0
5.866521851983905e6 -1.6586534308561396e7 0.0
0.0 0.0 0.0

-1.1550280826591314e6 1.7810787982603226e7 0.0
1.7810787982603226e7 -5.50086926183274e6 0.0
0.0 0.0 0.0

2.507073877028452e6 9.90468599020636e6 0.0
9.90468599020636e6 -2.0052631003453445e7 0.0
0.0 0.0 0.0

-2.1521237120022094e6 2.1657167303660154e7 0.0
2.1657167303660154e7 3.046183573974898e6 0.0
0.0 0.0 0.0

-1.1039112929327982e6 1.006698052596926e7 0.0
1.006698052596926e7 -693738.3511163814 0.0
0.0 0.0 0.0

251560.62278741435 3.002157270058247e7 0.0
3.002157270058247e7 -3.764966996393686e6 0.0
0.0 0.0 0.0

-6.286731947821956e7 5.207395777772929e6 0.0
5.207395777772929e6 4.99081489718131e6 0.0
0.0 0.0 0.0

-385319.5811858347 9.30373413374902e6 0.0
9.30373413374902e6 -2.442363417884549e6 0.0
0.0 0.0 0.0

-4.1701944341257773e6 1.7360407452696633e7 0.0
1.7360407452696633e7 -3.788802153024525e7 0.0
0.0 0.0 0.0

1.4523328993916083e6 2.2907609141866248e7 0.0
2.2907609141866248e7 -1.0231656981841635e7 0.0
0.0 0.0 0.0

746030.646522156 1.4263713429842515e7 0.0
1.4263713429842515e7 -1.2698601619130481e7 0.0
0.0 0.0 0.0

784271.427588067 1.9108824412980977e7 0.0
1.9108824412980977e7 -2.029188365792337e7 0.0
0.0 0.0 0.0

294828.83066300815 8.628482256391445e6 0.0
8.628482256391445e6 -4.0191866527616847e6 0.0
0.0 0.0 0.0

2.920811900771764e6 8.185410745708709e6 0.0
8.185410745708709e6 -2.2591266523574315e7 0.0
0.0 0.0 0.0

-1.6926036113047746e6 2.7482397055826932e7 0.0
2.7482397055826932e7 -1.5129820893485532e6 0.0
0.0 0.0 0.0

-113514.90480716736 6.226893840586017e6 0.0
6.226893840586017e6 -5.241027462581505e6 0.0
0.0 0.0 0.0

744957.9143300271 1.1030874352902593e7 0.0
1.1030874352902593e7 -1.4553340411420155e7 0.0
0.0 0.0 0.0

505786.8942697281 3.139531852837051e7 0.0
3.139531852837051e7 -2.7860982410568353e6 0.0
0.0 0.0 0.0

4.240852839683981e6 2.2564419472820483e7 0.0
2.2564419472820483e7 1.101608480769049e6 0.0
0.0 0.0 0.0

2.0876200064572436e6 2.571403847374282e7 0.0
2.571403847374282e7 -9.21027253946565e6 0.0
0.0 0.0 0.0

826777.9029056504 8.58335103435954e6 0.0
8.58335103435954e6 -6.233685748319065e7 0.0
0.0 0.0 0.0

-6.742322495154753e6 1.809855066384336e7 0.0
1.809855066384336e7 2.9880341889709592e7 0.0
0.0 0.0 0.0

-1.5256230594704302e6 2.6511971882360276e7 0.0
2.6511971882360276e7 952007.5790772242 0.0
0.0 0.0 0.0

2.4211115597057166e6 9.54127060942489e6 0.0
9.54127060942489e6 -1.7025122382593594e7 0.0
0.0 0.0 0.0

839343.8065257536 7.852501766427785e6 0.0
7.852501766427785e6 -5.469143782321224e6 0.0
0.0 0.0 0.0

10905.30450274935 9.866698974139653e6 0.0
9.866698974139653e6 -1.0225664685976952e7 0.0
0.0 0.0 0.0

-3.5121240807340173e6 3.0873097565617215e7 0.0
3.0873097565617215e7 4.946667716322506e6 0.0
0.0 0.0 0.0

-9.932064924874835e6 1.8745417014836157e6 0.0
1.8745417014836157e6 2.367790058810878e7 0.0
0.0 0.0 0.0

-8.921730363664126e6 1.6540108215121277e7 0.0
1.6540108215121277e7 2.7304742716444362e7 0.0
0.0 0.0 0.0

-771022.7580327857 2.5956572306342863e7 0.0
2.5956572306342863e7 -3.142320427536476e6 0.0
0.0 0.0 0.0

976698.6060369667 1.6159158521192398e7 0.0
1.6159158521192398e7 -1.6262034275594769e7 0.0
0.0 0.0 0.0

-2.348164746424577e6 2.1887864336300462e7 0.0
2.1887864336300462e7 2.0989634539048295e7 0.0
0.0 0.0 0.0

-2.633681640260983e6 1.7354060952828795e7 0.0
1.7354060952828795e7 -3.853287979794139e6 0.0
0.0 0.0 0.0

403611.9954937324 1.7026239989915606e7 0.0
1.7026239989915606e7 -1.2775130953869214e7 0.0
0.0 0.0 0.0

-1.6205198096514046e6 1.6710382911241084e7 0.0
1.6710382911241084e7 -3.1873979595502775e7 0.0
0.0 0.0 0.0

3.0238646252678847e6 2.7180769783288974e7 0.0
2.7180769783288974e7 -7.755591548148722e6 0.0
0.0 0.0 0.0

-2.286611552920604e6 1.4593438814031363e7 0.0
1.4593438814031363e7 -4.5150508821015485e7 0.0
0.0 0.0 0.0

-1.1864168129285272e7 6.8647923527198825e6 0.0
6.8647923527198825e6 1.9026603795502204e7 0.0
0.0 0.0 0.0

5.800247419771633e6 2.179313637833736e7 0.0
2.179313637833736e7 2.5108155226996526e7 0.0
0.0 0.0 0.0

-4.089197943612395e6 2.9733555672939155e7 0.0
2.9733555672939155e7 5.350426417793389e6 0.0
0.0 0.0 0.0

-2.3931360478870715e6 1.7821251134035304e7 0.0
1.7821251134035304e7 -5.076532420534569e6 0.0
0.0 0.0 0.0

4.690954985495975e6 2.390177800550784e7 0.0
2.390177800550784e7 -6.057719189952638e6 0.0
0.0 0.0 0.0

-580291.6647687267 2.5370757869295083e7 0.0
2.5370757869295083e7 -4.265252303646108e6 0.0
0.0 0.0 0.0

-6.853407871354997e6 9.052885223233169e6 0.0
9.052885223233169e6 7.490210374719393e6 0.0
0.0 0.0 0.0

30909.648025327362 2.133124095728861e7 0.0
2.133124095728861e7 -1.6166435801430203e7 0.0
0.0 0.0 0.0

1.5696945274408236e6 1.5347697987697378e7 0.0
1.5347697987697378e7 -2.234413111583108e7 0.0
0.0 0.0 0.0

1.4072921326697813e6 1.5981023701815197e7 0.0
1.5981023701815197e7 -2.0896295194084384e7 0.0
0.0 0.0 0.0

-1.0284934287124728e6 1.6131599805930309e7 0.0
1.6131599805930309e7 -1.063103598211897e7 0.0
0.0 0.0 0.0

1.6763891136631655e7 2.8449610868823376e7 0.0
2.8449610868823376e7 -4.604858359354278e6 0.0
0.0 0.0 0.0

1.4337595749602532e6 1.1812757553274585e7 0.0
1.1812757553274585e7 -1.3330085089672493e7 0.0
0.0 0.0 0.0

2.400330913000743e6 5.298235805040292e6 0.0
5.298235805040292e6 -1.5654411548593188e7 0.0
0.0 0.0 0.0

1.677809125099292e6 1.4659012971275695e7 0.0
1.4659012971275695e7 -2.367578694344472e7 0.0
0.0 0.0 0.0

1.2397232737835702e6 6.886633306920812e6 0.0
6.886633306920812e6 -4.683403029994495e7 0.0
0.0 0.0 0.0

-9.103300322851757e6 8.227824360588813e6 0.0
8.227824360588813e6 1.1317189378426865e7 0.0
0.0 0.0 0.0

-2.723663097158822e6 2.3826033025242556e7 0.0
2.3826033025242556e7 3.0805174303587712e6 0.0
0.0 0.0 0.0

3.1308617148155104e6 4.7375326376042785e6 0.0
4.7375326376042785e6 -2.6901125677801184e7 0.0
0.0 0.0 0.0

1.6767742941715727e6 6.844222654093587e6 0.0
6.844222654093587e6 -1.324685904666869e7 0.0
0.0 0.0 0.0

-375876.64626761945 1.6387496574655512e7 0.0
1.6387496574655512e7 -8.479491614381736e6 0.0
0.0 0.0 0.0

-6.1750402679025605e6 1.509948417021446e7 0.0
1.509948417021446e7 4.11377184792158e7 0.0
0.0 0.0 0.0

-3.807354611877706e6 2.3440503398495004e7 0.0
2.3440503398495004e7 1.512951513804815e7 0.0
0.0 0.0 0.0

-5.700674587339862e6 1.0401235380304417e7 0.0
1.0401235380304417e7 5.591087456040805e6 0.0
0.0 0.0 0.0

-5.304342805914758e6 2.102257596544262e7 0.0
2.102257596544262e7 2.2005543341143355e7 0.0
0.0 0.0 0.0

3.2613841978334235e6 6.399905353881889e6 0.0
6.399905353881889e6 -1.980395324530845e7 0.0
0.0 0.0 0.0

1.6746589548154753e6 1.4002059888002414e7 0.0
1.4002059888002414e7 -2.5243782000633873e7 0.0
0.0 0.0 0.0

-644383.5447111225 6.648011943279289e7 0.0
6.648011943279289e7 6.131759223504626e6 0.0
0.0 0.0 0.0

-5.1584320365035515e6 1.429873888666005e7 0.0
1.429873888666005e7 7.3155478082618285e6 0.0
0.0 0.0 0.0

-1.1493764144936804e7 5.252863290994174e6 0.0
5.252863290994174e6 1.8169084229768965e7 0.0
0.0 0.0 0.0

379820.128707896 2.0083185031943694e7 0.0
2.0083185031943694e7 -1.741302483393531e7 0.0
0.0 0.0 0.0

1.2971305599090923e6 1.6647317834417814e7 0.0
1.6647317834417814e7 -1.9603334310958784e7 0.0
0.0 0.0 0.0

-37276.61808876856 3.3092035474773683e6 0.0
3.3092035474773683e6 3.4915141519088126e6 0.0
0.0 0.0 0.0

-3.180565501100385e6 1.7777602716839649e6 0.0
1.7777602716839649e6 6.624878181013552e6 0.0
0.0 0.0 0.0

-4.625481456206879e6 3.1230470770492177e7 0.0
3.1230470770492177e7 4.404856183911759e6 0.0
0.0 0.0 0.0

-3.537079032873032e6 1.994371035825729e7 0.0
1.994371035825729e7 7.667289851331837e6 0.0
0.0 0.0 0.0

-3.172687853957367e6 3.1037454822793927e7 0.0
3.1037454822793927e7 2.5052605367298033e6 0.0
0.0 0.0 0.0

2.6119421989450622e6 9.711162217965009e6 0.0
9.711162217965009e6 -2.2176544601872023e7 0.0
0.0 0.0 0.0

-2.956581256936166e6 2.2718590224537876e7 0.0
2.2718590224537876e7 5.672898435871177e6 0.0
0.0 0.0 0.0

-9.966869529291851e6 5.042167654220074e6 0.0
5.042167654220074e6 3.292114252840228e7 0.0
0.0 0.0 0.0

-7.726809549794097e7 6.79149015502112e6 0.0
6.79149015502112e6 4.109275297141269e6 0.0
0.0 0.0 0.0

-2.6803033163402285e6 2.4819868344605263e7 0.0
2.4819868344605263e7 3.116478842331807e6 0.0
0.0 0.0 0.0

-4.832238417616166e6 2.1550884697930288e7 0.0
2.1550884697930288e7 2.0343206817260757e7 0.0
0.0 0.0 0.0

1.2007086823324678e6 2.739827355489007e7 0.0
2.739827355489007e7 -7.293288013417013e6 0.0
0.0 0.0 0.0

1.7763225378661668e6 6.174430150366264e6 0.0
6.174430150366264e6 -1.1952519060330525e7 0.0
0.0 0.0 0.0

-4.855998772285296e6 1.6196476008747013e7 0.0
1.6196476008747013e7 8.765777143072497e6 0.0
0.0 0.0 0.0

-1.5616231792568428e7 2.656530823175265e7 0.0
2.656530823175265e7 -9.247280688093768e6 0.0
0.0 0.0 0.0

-7.77962949025966e6 2.4732774288217075e7 0.0
2.4732774288217075e7 -9.604487181951372e6 0.0
0.0 0.0 0.0

2.9147429094491135e6 7.483177799620281e6 0.0
7.483177799620281e6 -1.6279782376081869e7 0.0
0.0 0.0 0.0

-4.454242019574339e6 2.2143726508559883e7 0.0
2.2143726508559883e7 1.8619301114310708e7 0.0
0.0 0.0 0.0

-321462.32743711723 1.932702422443036e7 0.0
1.932702422443036e7 -9.656235531067178e6 0.0
0.0 0.0 0.0

1.2103959231439307e6 4.978484588408129e6 0.0
4.978484588408129e6 -5.138818703333879e7 0.0
0.0 0.0 0.0

-8.207287281397916e6 2.2376091493444997e6 0.0
2.2376091493444997e6 4.768279678639316e7 0.0
0.0 0.0 0.0

2.1256531330802534e6 1.0322308997268053e7 0.0
1.0322308997268053e7 -1.5796112183693847e7 0.0
0.0 0.0 0.0

2.766562276233835e6 7.410731605257708e6 0.0
7.410731605257708e6 -3.2618046094335247e7 0.0
0.0 0.0 0.0

-537011.4094232533 2.1417480333111715e7 0.0
2.1417480333111715e7 -8.004138662592518e6 0.0
0.0 0.0 0.0

-199523.77236426622 1.2415001808440778e7 0.0
1.2415001808440778e7 -4.281133661665477e7 0.0
0.0 0.0 0.0

2.315372330612575e6 3.379764567492786e7 0.0
3.379764567492786e7 -3.3445931041962514e6 0.0
0.0 0.0 0.0

-2.726536751067236e6 1.8153036609394122e7 0.0
1.8153036609394122e7 3.964554765198037e7 0.0
0.0 0.0 0.0

-8.712494392376034e6 2.139428366122048e6 0.0
2.139428366122048e6 4.39857688760261e7 0.0
0.0 0.0 0.0

-369099.71853948385 2.0355223015499707e7 0.0
2.0355223015499707e7 -9.239468987260219e6 0.0
0.0 0.0 0.0

1.5998993168794215e6 8.225812814624193e6 0.0
8.225812814624193e6 -3.952643267732291e7 0.0
0.0 0.0 0.0

-2.063738480826892e6 2.050133512036731e7 0.0
2.050133512036731e7 298451.9088244785 0.0
0.0 0.0 0.0

-2.8118042093740273e6 2.2838408633378655e7 0.0
2.2838408633378655e7 3.070398583825467e6 0.0
0.0 0.0 0.0

-1.0987746905184034e7 7.433716417783336e6 0.0
7.433716417783336e6 2.5595863468957577e7 0.0
0.0 0.0 0.0

3.8280490556995575e6 2.7641585638153344e7 0.0
2.7641585638153344e7 -7.356100849496743e6 0.0
0.0 0.0 0.0

937901.2863792782 2.1911551261101186e7 0.0
2.1911551261101186e7 -4.028511610573905e6 0.0
0.0 0.0 0.0

-862387.4905497842 2.657440254757683e7 0.0
2.657440254757683e7 -2.0317890786881784e6 0.0
0.0 0.0 0.0

2.0266287227577418e6 2.789767834213815e6 0.0
2.789767834213815e6 -4.87648516672992e7 0.0
0.0 0.0 0.0

-2.847555955277441e6 2.330140158412854e7 0.0
2.330140158412854e7 4.294612495906079e6 0.0
0.0 0.0 0.0

793045.985675157 1.4735090171920639e7 0.0
1.4735090171920639e7 -1.3622307104888503e7 0.0
0.0 0.0 0.0

-4.129542016743467e6 1.2296681859132772e7 0.0
1.2296681859132772e7 1.940829398090481e6 0.0
0.0 0.0 0.0

-988799.0711498848 1.4923131229294278e7 0.0
1.4923131229294278e7 -4.939389654674305e6 0.0
0.0 0.0 0.0

-9.337144273853635e6 5.53888552101273e6 0.0
5.53888552101273e6 1.118108064722057e7 0.0
0.0 0.0 0.0

1.3166578075019794e6 2.093275149406344e7 0.0
2.093275149406344e7 -5.271661411897354e6 0.0
0.0 0.0 0.0

-9.534924589681387e6 9.38354054425742e6 0.0
9.38354054425742e6 3.6649911085180715e7 0.0
0.0 0.0 0.0

286661.7669616733 1.6601765894347576e7 0.0
1.6601765894347576e7 -1.1880865343409816e7 0.0
0.0 0.0 0.0

-5.848527876886066e6 6.06518010372101e6 0.0
6.06518010372101e6 4.988435216945361e6 0.0
0.0 0.0 0.0

-5.226368745570193e6 3.1945545897957016e7 0.0
3.1945545897957016e7 4.465041810431686e6 0.0
0.0 0.0 0.0

196000.63312885445 2.5247930087825276e7 0.0
2.5247930087825276e7 -6.67044146457348e6 0.0
0.0 0.0 0.0

866633.4482792523 1.752832471673363e7 0.0
1.752832471673363e7 -2.3151950621335354e7 0.0
0.0 0.0 0.0

1.7883200506939292e6 1.1067647366960807e7 0.0
1.1067647366960807e7 -1.4582092327206789e7 0.0
0.0 0.0 0.0

-1.985320260412781e6 2.5274133454085663e7 0.0
2.5274133454085663e7 3.8006548887665784e6 0.0
0.0 0.0 0.0

-4.954571189720575e6 2.0872932270130523e7 0.0
2.0872932270130523e7 2.361957745428371e7 0.0
0.0 0.0 0.0

6.874479965657964e6 2.0934504112881325e7 0.0
2.0934504112881325e7 1.2013799751540959e7 0.0
0.0 0.0 0.0

1.0885824104018584e6 8.529688439754698e6 0.0
8.529688439754698e6 -4.2520516332730524e7 0.0
0.0 0.0 0.0

-2.3283393697227687e6 2.2540920196083706e7 0.0
2.2540920196083706e7 7.800363721367395e6 0.0
0.0 0.0 0.0

-2.1441580090500815e6 2.3787374369015627e7 0.0
2.3787374369015627e7 5.028716237536269e6 0.0
0.0 0.0 0.0

-1.1193516904379599e7 1.2111725638798527e7 0.0
1.2111725638798527e7 1.9665927683017213e7 0.0
0.0 0.0 0.0

2.986773005856177e6 3.460644343524278e7 0.0
3.460644343524278e7 -3.360829916898744e6 0.0
0.0 0.0 0.0

292923.52800198225 1.4500455504314644e7 0.0
1.4500455504314644e7 -1.031343951008887e7 0.0
0.0 0.0 0.0

-7.507188424469045e6 1.822772099558081e7 0.0
1.822772099558081e7 2.1278601305982716e7 0.0
0.0 0.0 0.0

1.835104841357396e6 1.0481869985069247e7 0.0
1.0481869985069247e7 -1.3643290348015478e7 0.0
0.0 0.0 0.0

-3.884573008257368e6 9.456166505513271e6 0.0
9.456166505513271e6 7.1483197265815735e6 0.0
0.0 0.0 0.0

-1.8447543547179392e6 2.569039942216877e7 0.0
2.569039942216877e7 2.7321262554782615e6 0.0
0.0 0.0 0.0

-1.871670925399054e6 2.6618729442779437e7 0.0
2.6618729442779437e7 2.7623110110953483e6 0.0
0.0 0.0 0.0

170408.17167241033 1.6158127996162904e7 0.0
1.6158127996162904e7 -1.0924126322072115e7 0.0
0.0 0.0 0.0

2.4108394428082025e6 2.2668769655978367e7 0.0
2.2668769655978367e7 -5.143183361086603e6 0.0
0.0 0.0 0.0

1.4221585114840383e7 2.9554630887229953e7 0.0
2.9554630887229953e7 -5.362231224238005e6 0.0
0.0 0.0 0.0

-5.742898019711561e6 2.4816466724552937e7 0.0
2.4816466724552937e7 8.37685098689664e6 0.0
0.0 0.0 0.0

-1.0172516504351722e7 1.7588769116643257e7 0.0
1.7588769116643257e7 -4.325606017622555e7 0.0
0.0 0.0 0.0

1.0194799049506164e6 1.1981334760391265e7 0.0
1.1981334760391265e7 -1.1011058587339818e7 0.0
0.0 0.0 0.0

-1.0210492870497663e7 5.576063150803355e6 0.0
5.576063150803355e6 3.047017534130734e7 0.0
0.0 0.0 0.0

-3.1322054636108577e6 2.2757545215541903e7 0.0
2.2757545215541903e7 -1.7664346735914196e6 0.0
0.0 0.0 0.0

-6.484657426249601e6 2.3448711895718556e7 0.0
2.3448711895718556e7 -1.2213575493332127e6 0.0
0.0 0.0 0.0

-2.250693035607459e6 2.3139563752616182e7 0.0
2.3139563752616182e7 6.313682955639927e6 0.0
0.0 0.0 0.0

-9.485650889751527e6 3.318581204935158e6 0.0
3.318581204935158e6 3.438425680214855e7 0.0
0.0 0.0 0.0

-6.059296665896726e6 3.264864564439716e7 0.0
3.264864564439716e7 4.540273972973274e6 0.0
0.0 0.0 0.0

-2.5123933708701935e6 2.5289587687940698e7 0.0
2.5289587687940698e7 2.0382539396195635e6 0.0
0.0 0.0 0.0

2.5594127544679753e6 2.117735709671894e7 0.0
2.117735709671894e7 981847.367112465 0.0
0.0 0.0 0.0

3.7619631422905703e6 1.8044268666684967e7 0.0
1.8044268666684967e7 1.2539877352291426e7 0.0
0.0 0.0 0.0

-2.4597447519029244e6 2.1869777764418654e7 0.0
2.1869777764418654e7 9.333528738206502e6 0.0
0.0 0.0 0.0

-4.916744071003542e6 1.9637554835313275e7 0.0
1.9637554835313275e7 1.520904806340899e7 0.0
0.0 0.0 0.0

2.961822253163265e6 6.790538803461623e6 0.0
6.790538803461623e6 -1.5261490229588522e7 0.0
0.0 0.0 0.0

-538312.7919671786 2.685810154241276e7 0.0
2.685810154241276e7 -2.9228723078693114e6 0.0
0.0 0.0 0.0

-8.117335770490227e6 1.6379348391170472e7 0.0
1.6379348391170472e7 2.325513198847848e7 0.0
0.0 0.0 0.0

2.774823445847988e6 4.386469710649569e6 0.0
4.386469710649569e6 -2.4644648203513123e7 0.0
0.0 0.0 0.0

-1.4620978921846845e6 2.480430867558716e7 0.0
2.480430867558716e7 -5.142276655965336e6 0.0
0.0 0.0 0.0

-2.167580545353897e6 2.275884486511496e7 0.0
2.275884486511496e7 5.224763642301606e6 0.0
0.0 0.0 0.0

-4.496388148515161e6 5.394679635492828e6 0.0
5.394679635492828e6 2.809240475885922e6 0.0
0.0 0.0 0.0

1.1445151820581276e6 1.1935998949741613e7 0.0
1.1935998949741613e7 -1.8410766628757436e7 0.0
0.0 0.0 0.0

1.6000241881548662e6 5.8348051924620986e7 0.0
5.8348051924620986e7 4.411345523909879e6 0.0
0.0 0.0 0.0

72638.05452727526 7.66918221740242e6 0.0
7.66918221740242e6 -7.350411814245118e7 0.0
0.0 0.0 0.0

2.6085649893458877e6 5.598549190209422e6 0.0
5.598549190209422e6 -2.8893493594286233e7 0.0
0.0 0.0 0.0

1.8211416699832072e6 1.3517255891599458e7 0.0
1.3517255891599458e7 -2.0734585079580925e7 0.0
0.0 0.0 0.0

-5.5228287398068e6 2.4239738708830502e7 0.0
2.4239738708830502e7 6.218825680070022e6 0.0
0.0 0.0 0.0

262462.37942816317 1.6001514987404313e7 0.0
1.6001514987404313e7 -2.8176790802818e7 0.0
0.0 0.0 0.0

975664.8487322778 1.1397027722990366e7 0.0
1.1397027722990366e7 -9.985470766371809e6 0.0
0.0 0.0 0.0

-3.5636774052743516e6 1.1517726784933401e7 0.0
1.1517726784933401e7 49729.31280907313 0.0
0.0 0.0 0.0

4.202068632888965e6 2.0068138756623667e7 0.0
2.0068138756623667e7 2.1505160388087388e7 0.0
0.0 0.0 0.0

-3.050235499096254e6 1.840393653381808e7 0.0
1.840393653381808e7 3.7118893601571925e7 0.0
0.0 0.0 0.0

1.3707456069372758e7 1.5487064246649709e7 0.0
1.5487064246649709e7 6.740481406133566e6 0.0
0.0 0.0 0.0

-5.411707672452575e6 3.6299930459237486e7 0.0
3.6299930459237486e7 2.429464463162667e6 0.0
0.0 0.0 0.0

-1.4444364619676424e6 1.683082026089506e7 0.0
1.683082026089506e7 -9.182730117773833e6 0.0
0.0 0.0 0.0

-3.230685723514995e7 2.7823659114193916e7 0.0
2.7823659114193916e7 -2.212402693640529e6 0.0
0.0 0.0 0.0

-194068.73242932465 1.8339072296995543e7 0.0
1.8339072296995543e7 -1.0076400495627355e7 0.0
0.0 0.0 0.0

-2.162290046806029e6 2.3386560342484456e7 0.0
2.3386560342484456e7 3.8979099765550997e6 0.0
0.0 0.0 0.0

-303143.96037550364 1.470580449782747e7 0.0
1.470580449782747e7 -7.68117188755236e6 0.0
0.0 0.0 0.0

-1.91300136797609e6 1.7630856548053622e7 0.0
1.7630856548053622e7 -2.902528480643547e7 0.0
0.0 0.0 0.0

2.733988474239925e6 5.3073667580509465e6 0.0
5.3073667580509465e6 -2.3382089408100683e7 0.0
0.0 0.0 0.0

1.0437925809346382e6 1.1520348956267968e7 0.0
1.1520348956267968e7 -3.857347104069083e7 0.0
0.0 0.0 0.0

-410623.2125504408 2.167134853735451e7 0.0
2.167134853735451e7 1.9053300802338395e7 0.0
0.0 0.0 0.0

2.8093834710870087e6 7.771327496419039e6 0.0
7.771327496419039e6 -2.6854274327156704e7 0.0
0.0 0.0 0.0

-1.1146618736479841e6 2.500422382089232e7 0.0
2.500422382089232e7 -5.918047857761518e6 0.0
0.0 0.0 0.0

-281257.7351949825 2.1363537403165575e7 0.0
2.1363537403165575e7 -1.2651033980462387e7 0.0
0.0 0.0 0.0

-2.4487324900936196e6 1.487282970368167e7 0.0
1.487282970368167e7 -4.491197568595747e6 0.0
0.0 0.0 0.0

-3.722458816812084e6 1.7118280392520428e7 0.0
1.7118280392520428e7 3.6466570755196307e6 0.0
0.0 0.0 0.0

-7.134978022669091e6 1.8792594359579828e7 0.0
1.8792594359579828e7 2.2079743462869957e7 0.0
0.0 0.0 0.0

2.284589649152846e6 1.067861486799954e7 0.0
1.067861486799954e7 -1.881833030908789e7 0.0
0.0 0.0 0.0

-6.614960462200033e6 3.911616048045674e7 0.0
3.911616048045674e7 2.5391603897388177e6 0.0
0.0 0.0 0.0

-7.118441276816932e6 3.322102707821288e7 0.0
3.322102707821288e7 4.768431361871874e6 0.0
0.0 0.0 0.0

-6.543592375735075e6 1.973772877571516e7 0.0
1.973772877571516e7 2.291755229653401e7 0.0
0.0 0.0 0.0

-1.8225958676470476e6 1.791368331124307e7 0.0
1.791368331124307e7 -6.075319151995209e6 0.0
0.0 0.0 0.0

1.168339481081834e6 1.7291129858537193e7 0.0
1.7291129858537193e7 -1.8223408517819047e7 0.0
0.0 0.0 0.0

3.012513016586192e6 7.513679651241394e6 0.0
7.513679651241394e6 -2.4034941780100226e7 0.0
0.0 0.0 0.0

-4.098402222115017e6 2.5752245524769433e7 0.0
2.5752245524769433e7 1.098497803093699e7 0.0
0.0 0.0 0.0

-1.1712528719350662e7 1.0966312927157683e7 0.0
1.0966312927157683e7 2.337353986948528e7 0.0
0.0 0.0 0.0

5.642485624382224e6 3.0143799221199006e7 0.0
3.0143799221199006e7 -5.707335929568188e6 0.0
0.0 0.0 0.0

-6.81386459791996e6 2.8601126225024983e6 0.0
2.8601126225024983e6 5.883142321843358e7 0.0
0.0 0.0 0.0

-1.4199960595472802e6 2.1464758791311786e7 0.0
2.1464758791311786e7 -8.458990706770182e6 0.0
0.0 0.0 0.0

-8.986381456978971e6 -1.3342299363285284e6 0.0
-1.3342299363285284e6 3.090207258793249e7 0.0
0.0 0.0 0.0

-9.490561283458471e6 4.489645182163719e6 0.0
4.489645182163719e6 1.7161214511019167e7 0.0
0.0 0.0 0.0

3.0112987892547874e6 6.032628424976685e6 0.0
6.032628424976685e6 -1.4426753493188942e7 0.0
0.0 0.0 0.0

-7.243913450785901e6 1.5252764207031578e7 0.0
1.5252764207031578e7 3.7535905605137005e7 0.0
0.0 0.0 0.0

1.7862715172800869e6 1.1960973532230353e7 0.0
1.1960973532230353e7 -3.1811745686747782e7 0.0
0.0 0.0 0.0

-901772.8464199262 2.508813005186621e7 0.0
2.508813005186621e7 -3.340786915285754e6 0.0
0.0 0.0 0.0

-2.1277982615797343e6 2.472120791451585e7 0.0
2.472120791451585e7 4.988190603922615e6 0.0
0.0 0.0 0.0

-1.6895014908105668e6 1.8051655040792406e7 0.0
1.8051655040792406e7 -2.778362298965159e6 0.0
0.0 0.0 0.0

-2.353979159608406e6 2.5072289663439516e7 0.0
2.5072289663439516e7 7.361471836687243e6 0.0
0.0 0.0 0.0

848586.304317785 6.231323693372558e6 0.0
6.231323693372558e6 -7.956872090429974e6 0.0
0.0 0.0 0.0

-2.323230700654692e6 2.1168085672303345e7 0.0
2.1168085672303345e7 -4.101517832932271e6 0.0
0.0 0.0 0.0

1.2068557480515053e7 3.0293832098691445e7 0.0
3.0293832098691445e7 -5.577543267553199e6 0.0
0.0 0.0 0.0

774287.4611981492 1.0615996375661341e7 0.0
1.0615996375661341e7 -9.126084085552653e6 0.0
0.0 0.0 0.0

-202475.295244148 1.6845214838773746e7 0.0
1.6845214838773746e7 -9.524998786892574e6 0.0
0.0 0.0 0.0

-6.6596457425715905e6 2.4096927077543233e7 0.0
2.4096927077543233e7 -7.22909160946582e6 0.0
0.0 0.0 0.0

-1.9051454195733806e6 1.756058383780162e7 0.0
1.756058383780162e7 -1.4734618144510293e6 0.0
0.0 0.0 0.0

1.3217432999581777e7 2.508708604344943e7 0.0
2.508708604344943e7 -1.5484486171376696e6 0.0
0.0 0.0 0.0

-3.165807095365081e6 4.646902681190723e6 0.0
4.646902681190723e6 507447.8240959714 0.0
0.0 0.0 0.0

2.3702354988460075e6 4.811786031597047e6 0.0
4.811786031597047e6 -3.510790420721483e7 0.0
0.0 0.0 0.0

-4.252042643743424e6 3.0288957959561143e6 0.0
3.0288957959561143e6 8.804861021282203e6 0.0
0.0 0.0 0.0

-2.8275496007529087e6 1.07528261074515e7 0.0
1.07528261074515e7 -1.7793641084836232e6 0.0
0.0 0.0 0.0

-2.150720000773482e6 1.8265506324739628e7 0.0
1.8265506324739628e7 -6.233454489606421e6 0.0
0.0 0.0 0.0

-9.215855583799686e6 6.046817346064163e6 0.0
6.046817346064163e6 1.6593664734841185e7 0.0
0.0 0.0 0.0

2.434323301296106e6 6.9868082692065975e6 0.0
6.9868082692065975e6 -1.0763618396252576e7 0.0
0.0 0.0 0.0

537688.6976219444 2.1874451212107226e7 0.0
2.1874451212107226e7 -1.4786036154538453e7 0.0
0.0 0.0 0.0

-1.9890454321534252e6 1.0041356908109e7 0.0
1.0041356908109e7 -3.6435791983904364e6 0.0
0.0 0.0 0.0

793655.8385629202 5.241305540940751e7 0.0
5.241305540940751e7 2.657942702914148e6 0.0
0.0 0.0 0.0

1.4304010858670374e7 2.4261578006327808e7 0.0
2.4261578006327808e7 1.2590317911664266e7 0.0
0.0 0.0 0.0

-1.1797182733348426e6 9.291003215383835e6 0.0
9.291003215383835e6 -5.090988167262226e6 0.0
0.0 0.0 0.0

-5.268965818412254e6 1.5495641625413574e7 0.0
1.5495641625413574e7 1.5539188164427212e7 0.0
0.0 0.0 0.0

1.7267197982062055e6 4.396091554614044e6 0.0
4.396091554614044e6 -6.787473959739711e6 0.0
0.0 0.0 0.0

-1.0001151147186972e7 9.938855721344411e6 0.0
9.938855721344411e6 3.409243724209356e7 0.0
0.0 0.0 0.0

-473124.57055452093 8.521445888557762e6 0.0
8.521445888557762e6 -6.552401172474924e6 0.0
0.0 0.0 0.0

-8.810471679840378e6 3.88251224238313e7 0.0
3.88251224238313e7 4.625096087625179e6 0.0
0.0 0.0 0.0

6.912433433447119e6 3.04624100197654e7 0.0
3.04624100197654e7 -5.61996711428597e6 0.0
0.0 0.0 0.0

3.1523788755276874e6 6.67219842015454e6 0.0
6.67219842015454e6 -2.5300834642596968e7 0.0
0.0 0.0 0.0

-421491.0378984916 2.197731210930536e7 0.0
2.197731210930536e7 -1.133572255127069e7 0.0
0.0 0.0 0.0

1.864640723865103e6 7.845936354561042e6 0.0
7.845936354561042e6 -3.58144139912259e7 0.0
0.0 0.0 0.0

-2.4183079221084425e6 1.897466042934382e7 0.0
1.897466042934382e7 -4.753411742814092e6 0.0
0.0 0.0 0.0

3.3687926713455985e6 2.181653399681618e7 0.0
2.181653399681618e7 1.355414745716938e7 0.0
0.0 0.0 0.0

1.0052286192321666e7 3.0613570086490612e7 0.0
3.0613570086490612e7 -5.583949978532946e6 0.0
0.0 0.0 0.0

735264.2295218767 1.011503037848356e7 0.0
1.011503037848356e7 -7.901947134962573e6 0.0
0.0 0.0 0.0

2.2578740454532076e6 9.06000746189472e6 0.0
9.06000746189472e6 -1.3910945144298382e7 0.0
0.0 0.0 0.0

-818070.6726078378 1.3028966531944087e7 0.0
1.3028966531944087e7 -3.9123471654527606e6 0.0
0.0 0.0 0.0

-8.72371391911098e6 3.3701523873846576e7 0.0
3.3701523873846576e7 4.913560282469854e6 0.0
0.0 0.0 0.0

-3.6265129354789294e6 1.6478044090939557e7 0.0
1.6478044090939557e7 2.0316003033843678e6 0.0
0.0 0.0 0.0

9.001217418151448e6 3.609020334278396e7 0.0
3.609020334278396e7 -4.1323303890425893e6 0.0
0.0 0.0 0.0

-1.4664123465885026e6 1.8515790291847654e7 0.0
1.8515790291847654e7 -4.005020224867996e6 0.0
0.0 0.0 0.0

6.412645112842909e6 1.9964205939649932e7 0.0
1.9964205939649932e7 2.7369366888116684e7 0.0
0.0 0.0 0.0

-5.695382461222919e6 2.3695236066973384e7 0.0
2.3695236066973384e7 -4.672860167778488e6 0.0
0.0 0.0 0.0

-1.03256851963894e6 2.7121159611099854e7 0.0
2.7121159611099854e7 -936676.8209709079 0.0
0.0 0.0 0.0

-1.1048444074230115e6 2.1243198247497644e7 0.0
2.1243198247497644e7 -1.4484649215301102e7 0.0
0.0 0.0 0.0

-2.0773216921988595e6 1.474305199312994e7 0.0
1.474305199312994e7 -4.223460025816603e7 0.0
0.0 0.0 0.0

-5.162718975398334e6 1.8190907377926193e7 0.0
1.8190907377926193e7 3.375105950901151e7 0.0
0.0 0.0 0.0

397886.28024110105 1.234600932974306e7 0.0
1.234600932974306e7 -1.419530426584881e7 0.0
0.0 0.0 0.0

-1.0334357585083079e7 1.050160269886901e7 0.0
1.050160269886901e7 3.149622095933694e7 0.0
0.0 0.0 0.0

1.6647967094526645e6 1.3304272058950461e7 0.0
1.3304272058950461e7 -2.8563144177068137e7 0.0
0.0 0.0 0.0

-2.2493884866812713e6 1.3557473108214509e7 0.0
1.3557473108214509e7 -4.740361440693792e6 0.0
0.0 0.0 0.0

2.8587319869116032e6 4.208296717093139e6 0.0
4.208296717093139e6 -1.4292039343883004e7 0.0
0.0 0.0 0.0

-2.9353324976878627e6 2.050943145422146e7 0.0
2.050943145422146e7 767300.51359426 0.0
0.0 0.0 0.0

-2.513764610926842e6 2.6138850965065174e7 0.0
2.6138850965065174e7 2.0063560705156066e6 0.0
0.0 0.0 0.0

1.8047241874359548e6 3.1421096551645644e7 0.0
3.1421096551645644e7 -4.160429299023485e6 0.0
0.0 0.0 0.0

-2.390309420000552e6 2.0085938376046017e7 0.0
2.0085938376046017e7 -4.419380419756052e6 0.0
0.0 0.0 0.0

2.425877371178114e6 6.193326586869684e6 0.0
6.193326586869684e6 -9.750488710276527e6 0.0
0.0 0.0 0.0

8.340847077462157e6 3.063515437444206e7 0.0
3.063515437444206e7 -5.636886656557929e6 0.0
0.0 0.0 0.0

-1.0608520135366837e7 1.2256575875083482e7 0.0
1.2256575875083482e7 2.521340640792816e7 0.0
0.0 0.0 0.0

1.1624698888025694e6 7.764637763122476e6 0.0
7.764637763122476e6 -4.466135526481756e7 0.0
0.0 0.0 0.0

4.461041267825122e6 2.385813687300659e7 0.0
2.385813687300659e7 1.3138901456385665e7 0.0
0.0 0.0 0.0

-3.279116525847985e6 2.9052887881479505e7 0.0
2.9052887881479505e7 4.199292052674058e6 0.0
0.0 0.0 0.0

-3.0082372105625756e6 1.9621917369184602e7 0.0
1.9621917369184602e7 -1.282018988495896e7 0.0
0.0 0.0 0.0

-3.3096410639914256e6 1.872727200665241e7 0.0
1.872727200665241e7 3.492047231977147e7 0.0
0.0 0.0 0.0

-5.243611146390544e6 2.0436719983188063e7 0.0
2.0436719983188063e7 -1.747870398223153e7 0.0
0.0 0.0 0.0

-547568.4097743286 1.373160389792212e7 0.0
1.373160389792212e7 -1.1458946114276687e7 0.0
0.0 0.0 0.0

2.484846148135542e6 2.056170886184956e7 0.0
2.056170886184956e7 1.848425856134557e7 0.0
0.0 0.0 0.0

857476.1299711225 4.8658791207671925e7 0.0
4.8658791207671925e7 2.0915847421496306e6 0.0
0.0 0.0 0.0

-4.318268529972125e6 2.370465808881654e7 0.0
2.370465808881654e7 -1.0676761835926086e7 0.0
0.0 0.0 0.0

6.302872329882999e7 2.0936816550728586e7 0.0
2.0936816550728586e7 5.410898083008412e6 0.0
0.0 0.0 0.0

-2.1604551788490554e6 1.5414682661871662e7 0.0
1.5414682661871662e7 -5.7229174960169345e6 0.0
0.0 0.0 0.0

-2.8128347009029905e6 2.0996130122300107e7 0.0
2.0996130122300107e7 -526003.8458857853 0.0
0.0 0.0 0.0

758260.9463950908 1.5586489997620994e7 0.0
1.5586489997620994e7 -1.8352632017590184e7 0.0
0.0 0.0 0.0

2.312207880210301e6 3.2110881629056342e7 0.0
3.2110881629056342e7 -4.150373031982062e6 0.0
0.0 0.0 0.0

1.9739952624773998e6 6.199849616193506e6 0.0
6.199849616193506e6 -3.8935629097748846e7 0.0
0.0 0.0 0.0

-278797.3555917372 9.097525844783694e6 0.0
9.097525844783694e6 -7.729967417044086e6 0.0
0.0 0.0 0.0

1.3207695616263272e6 1.2245831559012424e7 0.0
1.2245831559012424e7 -2.1244239422068805e7 0.0
0.0 0.0 0.0

-3.6979549496696675e6 2.3532251214668777e7 0.0
2.3532251214668777e7 1.55904463443512e7 0.0
0.0 0.0 0.0

-2.245290244512492e6 2.2209073052460045e7 0.0
2.2209073052460045e7 -3.8073853318466903e6 0.0
0.0 0.0 0.0

460775.9233466352 2.074440397200944e7 0.0
2.074440397200944e7 6.215631059504589e6 0.0
0.0 0.0 0.0

-1.1867774278249259e6 1.432539980630678e7 0.0
1.432539980630678e7 -3.615043046312049e6 0.0
0.0 0.0 0.0

-1.5257291106012715e6 2.0743480294063482e7 0.0
2.0743480294063482e7 -3.401610216731293e6 0.0
0.0 0.0 0.0

2.386119172764658e6 2.1387913043445133e7 0.0
2.1387913043445133e7 -4.329041564906359e6 0.0
0.0 0.0 0.0

1.380946314184113e6 4.598582680067332e7 0.0
4.598582680067332e7 1.9875231366054635e6 0.0
0.0 0.0 0.0

-1.481509436390195e6 2.179534027976557e7 0.0
2.179534027976557e7 -3.122963110382324e6 0.0
0.0 0.0 0.0

-3.683873093801331e6 7.335536844147268e6 0.0
7.335536844147268e6 6.944222131961281e6 0.0
0.0 0.0 0.0

2.9620297192593668e7 1.4184348059194798e7 0.0
1.4184348059194798e7 1.9262018461268172e6 0.0
0.0 0.0 0.0

-728159.5497727841 1.0323913126959411e7 0.0
1.0323913126959411e7 -5.551166850578886e7 0.0
0.0 0.0 0.0

-1.6914933133531678e6 2.7044256129284687e7 0.0
2.7044256129284687e7 1.9436342693509124e6 0.0
0.0 0.0 0.0

-5.761983535467974e6 8.702808361827385e6 0.0
8.702808361827385e6 1.1287158583280738e7 0.0
0.0 0.0 0.0

-1.6651226182760315e6 1.475510663147219e7 0.0
1.475510663147219e7 -7.1751572967528645e6 0.0
0.0 0.0 0.0

-165970.92899504816 1.2507399365926422e7 0.0
1.2507399365926422e7 -1.1856953443859551e7 0.0
0.0 0.0 0.0

1.2549397302672924e6 4.3744748671045505e7 0.0
4.3744748671045505e7 1.1795878569299036e6 0.0
0.0 0.0 0.0

1.3757277753394488e6 1.0902261795293977e7 0.0
1.0902261795293977e7 -3.3608876135210864e7 0.0
0.0 0.0 0.0

-1.1250160774234258e7 5.832746776395482e6 0.0
5.832746776395482e6 2.6890617774791617e7 0.0
0.0 0.0 0.0

-5.816764509179125e6 2.296696070229344e7 0.0
2.296696070229344e7 -1.4063185186458407e7 0.0
0.0 0.0 0.0

-8.00559936112375e6 7.82241402038903e6 0.0
7.82241402038903e6 1.5175733108825013e7 0.0
0.0 0.0 0.0

-1.4454646088651514e6 2.044788286520178e7 0.0
2.044788286520178e7 -8.89313066361347e6 0.0
0.0 0.0 0.0

-2.514627605784385e6 2.241849092580963e7 0.0
2.241849092580963e7 -1.4494991998037444e6 0.0
0.0 0.0 0.0

577674.8549458915 1.7074002553685095e7 0.0
1.7074002553685095e7 -2.294140956794015e7 0.0
0.0 0.0 0.0

838654.3083206221 4.188271545509077e7 0.0
4.188271545509077e7 829464.3336777093 0.0
0.0 0.0 0.0

-3.6838610016536685e6 2.425563158718226e7 0.0
2.425563158718226e7 1.4049250610938508e7 0.0
0.0 0.0 0.0

-1.4111735800445518e6 2.2811131099632736e7 0.0
2.2811131099632736e7 -2.8748013413225003e6 0.0
0.0 0.0 0.0

1.8869409258754235e6 7.026645803813925e6 0.0
7.026645803813925e6 -3.748827513012265e7 0.0
0.0 0.0 0.0

-3.8148590034924527e6 1.1330927196328897e7 0.0
1.1330927196328897e7 7.020257192125483e6 0.0
0.0 0.0 0.0

1.0388364730283468e6 4.0425439980652116e7 0.0
4.0425439980652116e7 847374.42481902 0.0
0.0 0.0 0.0

459986.5252322033 9.28764334450539e6 0.0
9.28764334450539e6 -5.854028574491775e7 0.0
0.0 0.0 0.0

1.088382195885727e6 3.920907830528118e7 0.0
3.920907830528118e7 686519.3001369985 0.0
0.0 0.0 0.0

938531.8761417635 3.809047398286575e7 0.0
3.809047398286575e7 413295.1123895619 0.0
0.0 0.0 0.0

-1.4070745490669836e6 2.9937030285775803e7 0.0
2.9937030285775803e7 -944082.9181088624 0.0
0.0 0.0 0.0

-1.313433255994164e6 3.0670472736521136e7 0.0
3.0670472736521136e7 -784192.2502814673 0.0
0.0 0.0 0.0

-1.2683872700061148e6 3.1397415036083672e7 0.0
3.1397415036083672e7 -677149.5259852575 0.0
0.0 0.0 0.0

-1.209812474880646e6 3.208796064095349e7 0.0
3.208796064095349e7 -651631.6463608241 0.0
0.0 0.0 0.0

-1.1802384332682383e6 3.2786885283162806e7 0.0
3.2786885283162806e7 -561743.8626251791 0.0
0.0 0.0 0.0

-1.1613948151608831e6 3.3522982852291845e7 0.0
3.3522982852291845e7 -608146.0504934222 0.0
0.0 0.0 0.0

-5.811049092954088e6 1.535536847989118e7 0.0
1.535536847989118e7 1.0687991019254822e7 0.0
0.0 0.0 0.0

-1.0212190853339161e6 3.425157347048714e7 0.0
3.425157347048714e7 -502962.0897510825 0.0
0.0 0.0 0.0

-1.1340831934398178e6 3.50289744702498e7 0.0
3.50289744702498e7 -482138.19897721126 0.0
0.0 0.0 0.0

-6.959430575005028e6 1.7998467652527653e7 0.0
1.7998467652527653e7 2.3380349120492592e7 0.0
0.0 0.0 0.0

767039.3764540505 3.709335584162145e7 0.0
3.709335584162145e7 378707.75003359455 0.0
0.0 0.0 0.0

-1.282849937645457e6 3.57528685580835e7 0.0
3.57528685580835e7 -436774.0556818905 0.0
0.0 0.0 0.0

-1.1645711269014676e6 3.6655133014593214e7 0.0
3.6655133014593214e7 -294014.68834836 0.0
0.0 0.0 0.0

653809.7507706889 3.622592417895562e7 0.0
3.622592417895562e7 303821.4181036977 0.0
0.0 0.0 0.0

-1.3697065367724127e6 1.7345038523573026e7 0.0
1.7345038523573026e7 -4.307278405145514e6 0.0
0.0 0.0 0.0

-1.3908623920469128e6 3.7608622793245934e7 0.0
3.7608622793245934e7 -342364.69227158546 0.0
0.0 0.0 0.0

298837.2140936918 3.536331438531845e7 0.0
3.536331438531845e7 82254.24592549671 0.0
0.0 0.0 0.0

501194.5774742655 3.458674246335206e7 0.0
3.458674246335206e7 91002.1563105935 0.0
0.0 0.0 0.0

225374.07825475585 3.3917300524865836e7 0.0
3.3917300524865836e7 19722.005577417935 0.0
0.0 0.0 0.0

-32968.92341839831 3.313840840217065e7 0.0
3.313840840217065e7 -11287.359459159336 0.0
0.0 0.0 0.0

-125742.4571720945 3.2462505182649113e7 0.0
3.2462505182649113e7 -67339.21924417446 0.0
0.0 0.0 0.0

-377630.78941738384 3.1751516630350947e7 0.0
3.1751516630350947e7 -117292.95020015481 0.0
0.0 0.0 0.0

-414571.39506197145 3.1067098728473987e7 0.0
3.1067098728473987e7 -157196.94423992443 0.0
0.0 0.0 0.0

-515058.65500552364 3.035273485612485e7 0.0
3.035273485612485e7 -281983.8973484036 0.0
0.0 0.0 0.0

-1.5794969912184428e6 2.54473146003929e7 0.0
2.54473146003929e7 -3.9346749620091836e6 0.0
0.0 0.0 0.0

-5.028181150547529e6 1.870973353185735e7 0.0
1.870973353185735e7 3.1834291278176773e7 0.0
0.0 0.0 0.0

-1.7226379092787378e6 3.8596529171299845e7 0.0
3.8596529171299845e7 -273378.4837603473 0.0
0.0 0.0 0.0

2.097950552546406e6 8.649633196574496e6 0.0
8.649633196574496e6 -2.5623382487535387e7 0.0
0.0 0.0 0.0

-1.9172022534863602e6 2.4829661870167762e7 0.0
2.4829661870167762e7 2.715908781593356e6 0.0
0.0 0.0 0.0

-2.226174753084944e6 3.981114859426407e7 0.0
3.981114859426407e7 -114613.8920243549 0.0
0.0 0.0 0.0

-1.015117197673562e7 1.3456740197654337e7 0.0
1.3456740197654337e7 2.4081700398779817e7 0.0
0.0 0.0 0.0

-2.94225266143305e6 4.1209884279587306e7 0.0
4.1209884279587306e7 -183823.0217282446 0.0
0.0 0.0 0.0

-1.0623806271201698e7 1.174436698901286e7 0.0
1.174436698901286e7 2.714323191158308e7 0.0
0.0 0.0 0.0

-3.85242670265873e6 4.276135222719239e7 0.0
4.276135222719239e7 -311128.92709202936 0.0
0.0 0.0 0.0

489297.66951803584 2.031753565387949e7 0.0
2.031753565387949e7 -1.7498286277558547e7 0.0
0.0 0.0 0.0

2.0978613116131322e6 1.1770767498776093e7 0.0
1.1770767498776093e7 -2.048496214346472e7 0.0
0.0 0.0 0.0

-1.6721402602271885e6 1.4961490224192137e7 0.0
1.4961490224192137e7 -3.9163766429041505e7 0.0
0.0 0.0 0.0

-1.6230882210062211e6 2.2439048541900367e7 0.0
2.2439048541900367e7 -1.8080996021515816e6 0.0
0.0 0.0 0.0

-1.2199431649718047e6 1.725845581729466e7 0.0
1.725845581729466e7 -1.0180027347747972e7 0.0
0.0 0.0 0.0

-1.3184589880558813e6 2.410252013383658e7 0.0
2.410252013383658e7 -6.377333495431643e6 0.0
0.0 0.0 0.0

466955.65622861777 2.05443064229175e7 0.0
2.05443064229175e7 -1.7492779908232138e7 0.0
0.0 0.0 0.0

3.2324321060860604e6 1.9056953766323065e6 0.0
1.9056953766323065e6 -3.1696803319311514e7 0.0
0.0 0.0 0.0

-3.418279329578055e6 1.4435245591554446e7 0.0
1.4435245591554446e7 6.714961941496723e6 0.0
0.0 0.0 0.0

-4.848910788681234e6 4.4695824056108385e7 0.0
4.4695824056108385e7 -30975.843058210798 0.0
0.0 0.0 0.0

1.7700057601256967e6 1.2713565054937469e7 0.0
1.2713565054937469e7 -1.717602608669038e7 0.0
0.0 0.0 0.0

-1.0251347937312607e7 1.2006316292897625e7 0.0
1.2006316292897625e7 3.013590457753861e7 0.0
0.0 0.0 0.0

-1.5153316273547986e6 1.9652331547940087e7 0.0
1.9652331547940087e7 -3.7066413620241634e6 0.0
0.0 0.0 0.0

772974.5087694657 3.290473494553605e7 0.0
3.290473494553605e7 -1.5981026626591806e6 0.0
0.0 0.0 0.0

2.2288415053122994e6 7.821285941850595e6 0.0
7.821285941850595e6 -2.6996668965215605e7 0.0
0.0 0.0 0.0

-1.2940416187676985e7 3.9169788498578615e7 0.0
3.9169788498578615e7 4.831012230723487e6 0.0
0.0 0.0 0.0

-5.275087522428162e6 1.7204457213541362e7 0.0
1.7204457213541362e7 1.1915292193399522e7 0.0
0.0 0.0 0.0

-1.770555876940962e7 2.888112043934169e7 0.0
2.888112043934169e7 3.308536237609504e6 0.0
0.0 0.0 0.0

2.8946199134186795e6 2.0011820994474795e7 0.0
2.0011820994474795e7 1.6046327149755102e7 0.0
0.0 0.0 0.0

-7.097268375011484e6 4.740391860748757e7 0.0
4.740391860748757e7 127928.34658030001 0.0
0.0 0.0 0.0

1.0749542885896098e6 1.2305083586764695e7 0.0
1.2305083586764695e7 -3.235083495436251e7 0.0
0.0 0.0 0.0

-4.245743499141891e6 1.7025810782670606e7 0.0
1.7025810782670606e7 6.943899297109557e6 0.0
0.0 0.0 0.0

1.513156986017858e6 1.9121627964760777e7 0.0
1.9121627964760777e7 5.043857087817337e6 0.0
0.0 0.0 0.0

1.8423631091971518e6 9.67519132450297e6 0.0
9.67519132450297e6 -2.225384730866517e7 0.0
0.0 0.0 0.0

1.2771987198912706e6 2.2091956259323753e7 0.0
2.2091956259323753e7 4.555703293613853e6 0.0
0.0 0.0 0.0

1.97514471842846e6 9.47839702084555e6 0.0
9.47839702084555e6 -2.4296359696957294e7 0.0
0.0 0.0 0.0

-137638.4075287655 1.7908209516638584e7 0.0
1.7908209516638584e7 -3.075115615986514e6 0.0
0.0 0.0 0.0

-1.7370737981367917e6 2.3022380957813986e7 0.0
2.3022380957813986e7 -523832.3905736725 0.0
0.0 0.0 0.0

-2.141186496610131e6 2.3211747305374242e7 0.0
2.3211747305374242e7 -3.5346711407894604e6 0.0
0.0 0.0 0.0

1.4717063252816945e6 1.0115562376129014e7 0.0
1.0115562376129014e7 -1.7953283751272585e7 0.0
0.0 0.0 0.0

2.8420691770686463e7 2.4730771177890494e7 0.0
2.4730771177890494e7 1.0886996649137152e7 0.0
0.0 0.0 0.0

1.432790387236501e6 1.3859212752409853e7 0.0
1.3859212752409853e7 -1.6755470759293525e7 0.0
0.0 0.0 0.0

-565806.1003643957 1.754692285341384e7 0.0
1.754692285341384e7 -8.078745094221257e6 0.0
0.0 0.0 0.0

-5.649304706778439e6 2.4723300225908503e7 0.0
2.4723300225908503e7 6.98927437068961e6 0.0
0.0 0.0 0.0

533271.693706234 1.2733117318786377e7 0.0
1.2733117318786377e7 -9.658351156981064e6 0.0
0.0 0.0 0.0

-3.840591045534158e6 2.5019673730961632e7 0.0
2.5019673730961632e7 1.2427581140281701e7 0.0
0.0 0.0 0.0

5.43477023731295e6 1.9018696508643683e7 0.0
1.9018696508643683e7 2.871808505521498e7 0.0
0.0 0.0 0.0

-8.352220682825969e6 1.459084959606306e7 0.0
1.459084959606306e7 2.0521442639661252e7 0.0
0.0 0.0 0.0

-1.0472174244656427e7 5.0506039890548505e7 0.0
5.0506039890548505e7 -310197.80968622677 0.0
0.0 0.0 0.0

2.1270280903154537e6 1.913422678926176e7 0.0
1.913422678926176e7 4.665984369912983e7 0.0
0.0 0.0 0.0

-3.1013989133129558e6 1.7581542093730766e7 0.0
1.7581542093730766e7 -958181.1229418915 0.0
0.0 0.0 0.0

1.2361130659824602e7 2.210003223154468e7 0.0
2.210003223154468e7 4.2855127306272825e6 0.0
0.0 0.0 0.0

2.3270074296614807e6 7.247092358921014e6 0.0
7.247092358921014e6 -3.0523452314959034e7 0.0
0.0 0.0 0.0

329921.70089633204 1.2575465654417248e7 0.0
1.2575465654417248e7 -3.6989789275380194e7 0.0
0.0 0.0 0.0

-4.222963033994652e6 2.037125332085821e7 0.0
2.037125332085821e7 1.3334185720870055e7 0.0
0.0 0.0 0.0

-1.5874548233649407e7 2.7358503769607387e7 0.0
2.7358503769607387e7 -1.174195701410032e7 0.0
0.0 0.0 0.0

-2.2235078603220303e6 2.0006138155868586e7 0.0
2.0006138155868586e7 1.6143802400343039e6 0.0
0.0 0.0 0.0

-306800.2766809063 1.7806982473580875e7 0.0
1.7806982473580875e7 -1.4076014649328493e7 0.0
0.0 0.0 0.0

-1.714880861223142e7 3.735675606297612e7 0.0
3.735675606297612e7 6.210779352873748e6 0.0
0.0 0.0 0.0

1.2833093442986775e6 1.2750163149653917e7 0.0
1.2750163149653917e7 -2.1985770533359002e7 0.0
0.0 0.0 0.0

-2.14944369971369e6 2.1089941529182587e7 0.0
2.1089941529182587e7 1.6702284212378107e6 0.0
0.0 0.0 0.0

-4.667266364890586e6 1.0133388185606565e7 0.0
1.0133388185606565e7 9.14893594643649e6 0.0
0.0 0.0 0.0

-2.8863196622215942e6 2.005827751655022e7 0.0
2.005827751655022e7 1.1500682438859856e7 0.0
0.0 0.0 0.0

-4.402242690819566e6 7.774359248783381e7 0.0
7.774359248783381e7 3.734501444617374e6 0.0
0.0 0.0 0.0

-6.980281077357455e6 1.530249985467677e7 0.0
1.530249985467677e7 1.888193180682738e7 0.0
0.0 0.0 0.0

-4.779167251888896e6 7.674645997824126e6 0.0
7.674645997824126e6 3.2371341277944455e6 0.0
0.0 0.0 0.0

-1.4175089665237116e6 2.4416919061923914e7 0.0
2.4416919061923914e7 -1.382072883579425e6 0.0
0.0 0.0 0.0

-2.685718022071678e6 2.420612360220957e7 0.0
2.420612360220957e7 4.294931997817045e6 0.0
0.0 0.0 0.0

-363581.4413746912 2.1389687850653566e7 0.0
2.1389687850653566e7 -8.753184203254836e6 0.0
0.0 0.0 0.0

-2.2222700061810403e6 2.384356913554747e7 0.0
2.384356913554747e7 -2.2681679201847403e6 0.0
0.0 0.0 0.0

-9.999126362943962e6 2.462085979740505e6 0.0
2.462085979740505e6 1.7428367157479826e7 0.0
0.0 0.0 0.0

-97957.80073994119 2.012749916639721e7 0.0
2.012749916639721e7 -4.53900569433643e6 0.0
0.0 0.0 0.0

-2.7505118412451604e6 2.5114523715147063e7 0.0
2.5114523715147063e7 4.3154639751266e6 0.0
0.0 0.0 0.0

785335.541860057 1.1609873893681275e7 0.0
1.1609873893681275e7 -1.5461176723185547e7 0.0
0.0 0.0 0.0

792534.0840208146 2.060724527961612e7 0.0
2.060724527961612e7 -3.347144679000199e6 0.0
0.0 0.0 0.0

-2.0924837744612385e7 2.7675446655293122e7 0.0
2.7675446655293122e7 696608.6530418517 0.0
0.0 0.0 0.0

-5.505436129135363e6 1.5996333291410988e7 0.0
1.5996333291410988e7 1.6933347754197806e7 0.0
0.0 0.0 0.0

433882.64374976885 1.970048871630777e7 0.0
1.970048871630777e7 -1.885922017690235e7 0.0
0.0 0.0 0.0

-2.9856016697903657e6 2.5547267344470575e7 0.0
2.5547267344470575e7 6.545305461744536e6 0.0
0.0 0.0 0.0

3.40067766589514e6 2.48655012455608e6 0.0
2.48655012455608e6 -1.6757293222634237e7 0.0
0.0 0.0 0.0

-5.130735985740965e6 -3.9785567290707976e6 0.0
-3.9785567290707976e6 7.82288540567877e6 0.0
0.0 0.0 0.0

-3.4808504911870896e6 -2.7703619424372553e6 0.0
-2.7703619424372553e6 5.246819414826626e6 0.0
0.0 0.0 0.0

-8.459084642526085e6 -3.400537138216742e6 0.0
-3.400537138216742e6 3.0740716976710096e7 0.0
0.0 0.0 0.0

-2.506605875905183e6 -678901.7316612453 0.0
-678901.7316612453 2.365628680696839e6 0.0
0.0 0.0 0.0

-8.446933125017446e6 -3.7759924097674103e6 0.0
-3.7759924097674103e6 2.8191808886689067e7 0.0
0.0 0.0 0.0

3.4282011153596696e6 2.67269116085268e6 0.0
2.67269116085268e6 -1.2870427016623517e7 0.0
0.0 0.0 0.0

-6.528833158908391e6 -5.673571232118074e6 0.0
-5.673571232118074e6 1.448137398669329e7 0.0
0.0 0.0 0.0

-8.292614574919518e6 -5.227950728078271e6 0.0
-5.227950728078271e6 2.0944945841864843e7 0.0
0.0 0.0 0.0

-507610.23147434415 1.341833225250337e6 0.0
1.341833225250337e6 -786549.5892853553 0.0
0.0 0.0 0.0

-8.51629218976262e6 -4.250795104848128e6 0.0
-4.250795104848128e6 2.55684496442055e7 0.0
0.0 0.0 0.0

2.762139834215462e6 2.8100347161498186e6 0.0
2.8100347161498186e6 -8.866677788269117e6 0.0
0.0 0.0 0.0

1.5886224886254142e6 2.630122459837136e6 0.0
2.630122459837136e6 -4.896707090631352e6 0.0
0.0 0.0 0.0

-5.170547567501307e6 -4.802765662661142e6 0.0
-4.802765662661142e6 9.658354146145403e6 0.0
0.0 0.0 0.0

3.3954651783412993e6 1.9819208947925714e6 0.0
1.9819208947925714e6 -2.842623898580662e7 0.0
0.0 0.0 0.0

3.3960944196050186e6 1.8958358728010845e6 0.0
1.8958358728010845e6 -3.0883280200240582e7 0.0
0.0 0.0 0.0

3.487811010922769e6 2.0108181382756822e6 0.0
2.0108181382756822e6 -2.594004324499471e7 0.0
0.0 0.0 0.0

3.767305716333531e6 2.268566481929322e6 0.0
2.268566481929322e6 -2.2099993811524846e7 0.0
0.0 0.0 0.0

-6.506899523584423e6 -5.352729999852368e6 0.0
-5.352729999852368e6 1.2573823713854378e7 0.0
0.0 0.0 0.0

-8.331535801007314e6 -3.970323056811712e6 0.0
-3.970323056811712e6 2.6769470363131054e7 0.0
0.0 0.0 0.0

3.395191570252696e6 1.9903277427159038e6 0.0
1.9903277427159038e6 -2.976924235729804e7 0.0
0.0 0.0 0.0

3.4162491107119694e6 2.392158839182024e6 0.0
2.392158839182024e6 -1.94470465588683e7 0.0
0.0 0.0 0.0

3.567327477286163e6 2.3458329593502837e6 0.0
2.3458329593502837e6 -2.0751643395979103e7 0.0
0.0 0.0 0.0

3.597971357727756e6 2.4200708320826264e6 0.0
2.4200708320826264e6 -1.82014395843672e7 0.0
0.0 0.0 0.0

982918.7687481036 1.7979518071181938e7 0.0
1.7979518071181938e7 -1.697401156538881e7 0.0
0.0 0.0 0.0

-9.37096461233467e6 1.4406523043546434e7 0.0
1.4406523043546434e7 2.293207371693643e7 0.0
0.0 0.0 0.0

-1.1059279435317604e7 9.052524821441492e6 0.0
9.052524821441492e6 2.9652248146740995e7 0.0
0.0 0.0 0.0

-3.878313388414008e6 2.584754401573802e7 0.0
2.584754401573802e7 1.1056068746453129e7 0.0
0.0 0.0 0.0

-1.5320851816698816e6 1.7933756952669673e7 0.0
1.7933756952669673e7 -2.6975519803462997e7 0.0
0.0 0.0 0.0

-3.1097058505262034e6 2.119011891697001e7 0.0
2.119011891697001e7 4.593338054611333e6 0.0
0.0 0.0 0.0

-1.5858751468836881e7 5.502689507036073e7 0.0
5.502689507036073e7 -728943.0142526971 0.0
0.0 0.0 0.0

-3.0124708232977707e6 1.8763915411254175e7 0.0
1.8763915411254175e7 -791633.5614483493 0.0
0.0 0.0 0.0

-5.426582407932071e6 2.167892414377793e7 0.0
2.167892414377793e7 -1.621769049214003e7 0.0
0.0 0.0 0.0

1.121433542282795e7 2.4352118019527096e7 0.0
2.4352118019527096e7 1.2571004624346795e7 0.0
0.0 0.0 0.0

-2.8680875127685885e6 2.245963636138911e7 0.0
2.245963636138911e7 9.411425134922113e6 0.0
0.0 0.0 0.0

-2.673968280678649e6 2.1147174535904698e7 0.0
2.1147174535904698e7 1.097586450312807e7 0.0
0.0 0.0 0.0

1.0104756005502502e6 2.244798463081354e7 0.0
2.244798463081354e7 -1.3524865709607586e7 0.0
0.0 0.0 0.0

-3.3064025780425454e6 1.928206626103059e7 0.0
1.928206626103059e7 1.3370654056107214e7 0.0
0.0 0.0 0.0

-2.2403907571457084e6 2.4457234467011675e7 0.0
2.4457234467011675e7 -1.1316031612090576e6 0.0
0.0 0.0 0.0

-2.0160342233604693e6 2.2556483440004338e7 0.0
2.2556483440004338e7 -4.830742322674183e6 0.0
0.0 0.0 0.0

-6.115500711330531e6 1.5860196205598796e7 0.0
1.5860196205598796e7 1.2500188604587488e7 0.0
0.0 0.0 0.0

-841861.2696515163 1.6573679733115507e7 0.0
1.6573679733115507e7 -1.1582375433321893e7 0.0
0.0 0.0 0.0

-2.388309225532393e6 1.947997096680642e7 0.0
1.947997096680642e7 2.998439077569968e6 0.0
0.0 0.0 0.0

1.1493012727523716e6 1.0873783743677247e7 0.0
1.0873783743677247e7 -1.6689832573966246e7 0.0
0.0 0.0 0.0

-4.563534084370071e6 -4.412158928767428e6 0.0
-4.412158928767428e6 1.0859308532902073e7 0.0
0.0 0.0 0.0

-3.6247229455310456e6 -3.0617353673802195e6 0.0
-3.0617353673802195e6 8.853865111066291e6 0.0
0.0 0.0 0.0

-8.618720841717547e6 -4.185977494047276e6 0.0
-4.185977494047276e6 2.5322932861358307e7 0.0
0.0 0.0 0.0

-5.402809214879942e6 -4.732706782543629e6 0.0
-4.732706782543629e6 1.2774434586918883e7 0.0
0.0 0.0 0.0

-6.296998088094312e6 -5.55511332780124e6 0.0
-5.55511332780124e6 1.4298071513561446e7 0.0
0.0 0.0 0.0

3.330802177554533e6 1.9417066328656315e6 0.0
1.9417066328656315e6 -2.8619501624947194e7 0.0
0.0 0.0 0.0

3.2670549018695876e6 1.891568461323545e6 0.0
1.891568461323545e6 -2.962768254960603e7 0.0
0.0 0.0 0.0

-8.479705061291398e6 -3.886198460549764e6 0.0
-3.886198460549764e6 2.694578146010548e7 0.0
0.0 0.0 0.0

3.501251846270105e6 2.3200133187577883e6 0.0
2.3200133187577883e6 -2.131987830158759e7 0.0
0.0 0.0 0.0

3.5569222419050094e6 2.5435442775207725e6 0.0
2.5435442775207725e6 -1.7090993175490964e7 0.0
0.0 0.0 0.0

3.511816109089189e6 2.4264635698341127e6 0.0
2.4264635698341127e6 -1.9547344583812058e7 0.0
0.0 0.0 0.0

3.556367521536315e6 2.390900467449354e6 0.0
2.390900467449354e6 -1.8293771423435878e7 0.0
0.0 0.0 0.0

-3.4499193180647036e6 1.771564630844721e7 0.0
1.771564630844721e7 2.0520069574642356e6 0.0
0.0 0.0 0.0

-4.973762278595395e6 1.9192043168068886e7 0.0
1.9192043168068886e7 2.9946795903518587e7 0.0
0.0 0.0 0.0

-4.1418858989942856e6 1.8912343989042047e7 0.0
1.8912343989042047e7 1.656000556490852e7 0.0
0.0 0.0 0.0

3.2873295864778627e6 5.966201795473638e6 0.0
5.966201795473638e6 -2.4991595956867266e7 0.0
0.0 0.0 0.0

-234734.71536265616 2.714893884216881e7 0.0
2.714893884216881e7 -5.445920745491683e6 0.0
0.0 0.0 0.0

-325211.44066380896 2.131389536677468e7 0.0
2.131389536677468e7 2.3435470799627103e7 0.0
0.0 0.0 0.0

-9.454824787892127e6 1.6145525142026814e7 0.0
1.6145525142026814e7 2.4913984055566728e7 0.0
0.0 0.0 0.0

1.6425629858543845e6 1.0452741381603548e7 0.0
1.0452741381603548e7 -2.094144880391035e7 0.0
0.0 0.0 0.0

1.2630581007861132e6 1.3232669063517103e7 0.0
1.3232669063517103e7 -2.2578596745510604e7 0.0
0.0 0.0 0.0

-2.10846160734172e6 2.1538569395764012e7 0.0
2.1538569395764012e7 -5.151495647054725e6 0.0
0.0 0.0 0.0

-1.1724879342960436e6 2.0928992459665917e7 0.0
2.0928992459665917e7 2.6151144933448017e7 0.0
0.0 0.0 0.0

-3.644442965783303e6 1.2972079216884637e7 0.0
1.2972079216884637e7 6.875256438205314e6 0.0
0.0 0.0 0.0

-538106.179815741 2.2100732121898286e7 0.0
2.2100732121898286e7 -7.457382916352067e6 0.0
0.0 0.0 0.0

-1.308523379728152e6 2.6814856848170944e7 0.0
2.6814856848170944e7 43987.10722380743 0.0
0.0 0.0 0.0

1.078198878200668e6 1.4945743836869419e7 0.0
1.4945743836869419e7 -1.6506632691388538e7 0.0
0.0 0.0 0.0

-1.5403188739235264e6 2.3435237915017348e7 0.0
2.3435237915017348e7 -1.5878756595967468e6 0.0
0.0 0.0 0.0

3.0716155420525055e6 4.642424761968834e6 0.0
4.642424761968834e6 921593.8925957822 0.0
0.0 0.0 0.0

-1.656666669073075e6 2.1259560166968334e7 0.0
2.1259560166968334e7 2.4602353855114594e7 0.0
0.0 0.0 0.0

415748.08892610855 1.1285854319602609e7 0.0
1.1285854319602609e7 -4.394668814725486e7 0.0
0.0 0.0 0.0

767178.5892884843 1.2370134376016986e7 0.0
1.2370134376016986e7 -3.465525120510171e7 0.0
0.0 0.0 0.0

-576674.299565285 2.1089912089038953e7 0.0
2.1089912089038953e7 -7.868586796238337e6 0.0
0.0 0.0 0.0

-1.0464171522414679e7 2.6466226576420516e7 0.0
2.6466226576420516e7 5.0817506212888835e6 0.0
0.0 0.0 0.0

2.7287520541107403e6 6.833187558046443e6 0.0
6.833187558046443e6 -1.3050680566738497e7 0.0
0.0 0.0 0.0

-2.296285620454055e6 1.8889958480953492e7 0.0
1.8889958480953492e7 1.5685273199631092e6 0.0
0.0 0.0 0.0

-2.3516127275450844e6 2.2845525757618967e7 0.0
2.2845525757618967e7 -2.4969974801872303e6 0.0
0.0 0.0 0.0

-1.3010739283252412e6 2.380663428666814e7 0.0
2.380663428666814e7 -2.6145400396426013e6 0.0
0.0 0.0 0.0

-1.879864041680485e6 1.795760690537315e7 0.0
1.795760690537315e7 -2.9585908231930073e7 0.0
0.0 0.0 0.0

1.174369890560357e6 1.2964723197384046e7 0.0
1.2964723197384046e7 -2.8646022553565193e7 0.0
0.0 0.0 0.0

-4.8698064107818045e6 1.3710612384600539e7 0.0
1.3710612384600539e7 5.612173169024508e6 0.0
0.0 0.0 0.0

-4.1252193370892312e6 2.0001061102690674e7 0.0
2.0001061102690674e7 1.2113314487486409e7 0.0
0.0 0.0 0.0

-152312.41979061067 1.6184882611722507e7 0.0
1.6184882611722507e7 -3.0338168448376182e7 0.0
0.0 0.0 0.0

-475199.53883204865 2.470561230062126e7 0.0
2.470561230062126e7 -5.440441723977855e6 0.0
0.0 0.0 0.0

2.099555132710279e6 2.683607241803968e6 0.0
2.683607241803968e6 -6.285200613965334e6 0.0
0.0 0.0 0.0

7.134214047920534e6 3.547029138288248e7 0.0
3.547029138288248e7 -3.798022995595915e6 0.0
0.0 0.0 0.0

2.3444951425815555e6 7.736542153473998e6 0.0
7.736542153473998e6 -1.1929605587443344e7 0.0
0.0 0.0 0.0

-1.1984472219441326e6 1.6131451378765251e7 0.0
1.6131451378765251e7 -4.6046830384196555e6 0.0
0.0 0.0 0.0

-3.7645434075752273e6 2.2954884060252063e7 0.0
2.2954884060252063e7 1.3865471255861888e7 0.0
0.0 0.0 0.0

-2.6427594623095533e6 1.5851855661441626e7 0.0
1.5851855661441626e7 3.085647479609428e6 0.0
0.0 0.0 0.0

-2.862231455936649e6 1.8064766127704073e7 0.0
1.8064766127704073e7 -2.3030730750791384e6 0.0
0.0 0.0 0.0

-2.415275357150345e6 2.3434391884738263e7 0.0
2.3434391884738263e7 -1.237205667780302e6 0.0
0.0 0.0 0.0

-5.295829862762164e6 1.2156399031672366e7 0.0
1.2156399031672366e7 5.631876743322697e6 0.0
0.0 0.0 0.0

-9.378780850892674e6 355689.64888610225 0.0
355689.64888610225 1.6684615918841228e7 0.0
0.0 0.0 0.0

-3.192031955786431e6 1.890345691655634e7 0.0
1.890345691655634e7 1.2058025330041198e7 0.0
0.0 0.0 0.0

-2.4281457281846358e6 2.1087309603008457e7 0.0
2.1087309603008457e7 6.877583052268201e6 0.0
0.0 0.0 0.0

120547.20624445239 7.706527709869344e6 0.0
7.706527709869344e6 -7.812648970283293e6 0.0
0.0 0.0 0.0

-4.464102862147317e6 1.686919122986796e7 0.0
1.686919122986796e7 1.4751760380543265e7 0.0
0.0 0.0 0.0

-2.004265299317041e6 2.420704273340834e7 0.0
2.420704273340834e7 -3.284233776758961e6 0.0
0.0 0.0 0.0

2.480404078372741e6 9.779568117688667e6 0.0
9.779568117688667e6 -3.018213790137904e7 0.0
0.0 0.0 0.0

-9.571664398217255e6 2.6759906037454527e7 0.0
2.6759906037454527e7 4.2791602589547215e6 0.0
0.0 0.0 0.0

-2.172875018013046e6 2.048088512771972e7 0.0
2.048088512771972e7 -5.493280625550019e6 0.0
0.0 0.0 0.0

1.8414251886029458e6 2.7660691267315154e6 0.0
2.7660691267315154e6 -5.259352999984343e6 0.0
0.0 0.0 0.0

-4.357664250277187e6 2.8220421488570683e7 0.0
2.8220421488570683e7 7.483420148121873e6 0.0
0.0 0.0 0.0

-1.1556586667489886e7 1.1492296359156998e7 0.0
1.1492296359156998e7 2.152521591021684e7 0.0
0.0 0.0 0.0

-2.600579848371594e6 1.9670126631164633e7 0.0
1.9670126631164633e7 -3.3065533850188083e6 0.0
0.0 0.0 0.0

-1.0415350526271258e6 2.5679347199059706e7 0.0
2.5679347199059706e7 -2.207983731238812e6 0.0
0.0 0.0 0.0

-2.0647215563309353e6 2.6350547592334494e7 0.0
2.6350547592334494e7 -750357.2366231307 0.0
0.0 0.0 0.0

-1.8971790846956363e6 2.355204307890156e7 0.0
2.355204307890156e7 -4.535491504406384e6 0.0
0.0 0.0 0.0

-1.8294896017467268e6 2.355819574604055e7 0.0
2.355819574604055e7 685447.808944947 0.0
0.0 0.0 0.0

2.9899871742043532e6 2.750824535999521e6 0.0
2.750824535999521e6 -1.015446699894578e7 0.0
0.0 0.0 0.0

508753.1680982269 2.9310806812806275e7 0.0
2.9310806812806275e7 -4.65896305674773e6 0.0
0.0 0.0 0.0

-1.796717020802483e7 1.9829406157832712e7 0.0
1.9829406157832712e7 -7.664210364321354e7 0.0
0.0 0.0 0.0

1.7635026320374854e7 2.0701487099708162e7 0.0
2.0701487099708162e7 7.411460143661109e7 0.0
0.0 0.0 0.0

750560.3193023652 1.6281739413570102e7 0.0
1.6281739413570102e7 -2.137652394759378e7 0.0
0.0 0.0 0.0

-783165.9963384918 2.2786091362361386e7 0.0
2.2786091362361386e7 -6.155978325719486e6 0.0
0.0 0.0 0.0

-4.905562823452892e6 1.7980853679624435e7 0.0
1.7980853679624435e7 -2.344701398862249e7 0.0
0.0 0.0 0.0

-2.182539013046996e6 1.939088763944739e7 0.0
1.939088763944739e7 -5.862431171410163e6 0.0
0.0 0.0 0.0

1.255790057765618e6 2.2606656827489834e7 0.0
2.2606656827489834e7 -1.3769754944515008e7 0.0
0.0 0.0 0.0

-1.599783737397509e6 1.796896902512298e7 0.0
1.796896902512298e7 -8.748515644935582e6 0.0
0.0 0.0 0.0

-2.514433066331367e6 2.303873210353244e7 0.0
2.303873210353244e7 -177921.1040094532 0.0
0.0 0.0 0.0

415068.8428779505 9.861521971524661e6 0.0
9.861521971524661e6 -5.479614656499047e7 0.0
0.0 0.0 0.0

-1.0151398957692556e7 2.5184358428894814e7 0.0
2.5184358428894814e7 3.4503015849128165e6 0.0
0.0 0.0 0.0

-2.943339047126116e6 2.308345858352905e7 0.0
2.308345858352905e7 6.910614328848443e6 0.0
0.0 0.0 0.0

-944155.508316674 1.825019594384085e7 0.0
1.825019594384085e7 -6.633127967002771e6 0.0
0.0 0.0 0.0

1.120142067501247e6 1.366784143381024e7 0.0
1.366784143381024e7 -2.7053735902847238e7 0.0
0.0 0.0 0.0

1.704446802572146e7 2.161745355348905e7 0.0
2.161745355348905e7 5.68148933402272e7 0.0
0.0 0.0 0.0

108646.74503470119 2.3260403741524693e7 0.0
2.3260403741524693e7 -9.506847531964313e6 0.0
0.0 0.0 0.0

-2.6961482646405555e7 6.2203795839768805e7 0.0
6.2203795839768805e7 -355473.3106240742 0.0
0.0 0.0 0.0

843141.1990428139 1.5604080148346685e7 0.0
1.5604080148346685e7 -2.2743864584047534e7 0.0
0.0 0.0 0.0

-1.1689206915436417e6 2.316110190799891e7 0.0
2.316110190799891e7 -3.8929687761033685e6 0.0
0.0 0.0 0.0

2.7993851531673586e6 2.8123275825429624e6 0.0
2.8123275825429624e6 -9.339954818160927e6 0.0
0.0 0.0 0.0

2.1258150767833497e6 8.578696950509328e6 0.0
8.578696950509328e6 -2.9623055129278556e7 0.0
0.0 0.0 0.0

-1.3895109377689916e6 2.5931694417574327e7 0.0
2.5931694417574327e7 -71521.6375507784 0.0
0.0 0.0 0.0

-8.1755147109163245e6 1.853676145665039e7 0.0
1.853676145665039e7 -4.435862956436091e7 0.0
0.0 0.0 0.0

-1.252850912740916e6 1.895843596500689e7 0.0
1.895843596500689e7 -5.162900858333115e6 0.0
0.0 0.0 0.0

1.0786900257235495e6 1.307365485466595e7 0.0
1.307365485466595e7 -1.3033008250201724e7 0.0
0.0 0.0 0.0

-2.938775455974498e6 1.7065589492183566e7 0.0
1.7065589492183566e7 6.295856356809909e6 0.0
0.0 0.0 0.0

1.0071501355909435e6 1.4976195283470495e7 0.0
1.4976195283470495e7 -2.4183469479341403e7 0.0
0.0 0.0 0.0

-4.127400561395565e6 1.64587010580965e7 0.0
1.64587010580965e7 5.3651754755784e6 0.0
0.0 0.0 0.0

390315.85995050333 1.9102795681998927e7 0.0
1.9102795681998927e7 -2.0247531484900367e7 0.0
0.0 0.0 0.0

-2.6315362315842163e7 3.1005406358759757e7 0.0
3.1005406358759757e7 -1.2075627977572605e7 0.0
0.0 0.0 0.0

-7.4798766958218105e6 -5.689210101929538e6 0.0
-5.689210101929538e6 1.694475762932127e7 0.0
0.0 0.0 0.0

-3.434092523709962e6 1.6815431398570064e7 0.0
1.6815431398570064e7 9.71654539144193e6 0.0
0.0 0.0 0.0

-1.6313012246811986e6 2.4002011848834142e7 0.0
2.4002011848834142e7 -336353.59566076467 0.0
0.0 0.0 0.0

-7.223540721991982e6 2.02585560813087e6 0.0
2.02585560813087e6 5.0957692596972965e7 0.0
0.0 0.0 0.0

1.0253757079361351e6 2.1091345112777222e7 0.0
2.1091345112777222e7 1.54372816948245e7 0.0
0.0 0.0 0.0

-1.9193870793891829e6 1.8675736479727544e7 0.0
1.8675736479727544e7 -7.3153912080757525e6 0.0
0.0 0.0 0.0

865137.7598707099 2.248148040786047e7 0.0
2.248148040786047e7 -1.274081699526165e7 0.0
0.0 0.0 0.0

-900241.5144809051 2.004545714512629e7 0.0
2.004545714512629e7 -1.101723748482558e7 0.0
0.0 0.0 0.0

-1.4866957344199216e6 1.5189401521008069e7 0.0
1.5189401521008069e7 -8.439890252792507e6 0.0
0.0 0.0 0.0

-1.6113722116910857e6 2.2172901061058488e7 0.0
2.2172901061058488e7 -7.1166167895229645e6 0.0
0.0 0.0 0.0

-3.5518020888841776e6 1.998243489164872e7 0.0
1.998243489164872e7 1.5763611470399182e7 0.0
0.0 0.0 0.0

-2.2702226219787886e6 2.056455020762588e7 0.0
2.056455020762588e7 2.976482893381304e6 0.0
0.0 0.0 0.0

-2.8091420405247225e6 1.9228413093999583e7 0.0
1.9228413093999583e7 -2.1030819306924683e6 0.0
0.0 0.0 0.0

2.0674157380488403e6 8.439671542909464e6 0.0
8.439671542909464e6 -3.8179546161191836e7 0.0
0.0 0.0 0.0

-5.468932593950493e6 2.885882376429922e7 0.0
2.885882376429922e7 7.68925636750002e6 0.0
0.0 0.0 0.0

-6.720490177302547e6 2.0846402365384179e6 0.0
2.0846402365384179e6 1.1327666854785185e7 0.0
0.0 0.0 0.0

-3.426070904250771e6 1.9640320813923493e7 0.0
1.9640320813923493e7 1.4608854122015059e7 0.0
0.0 0.0 0.0

612219.7921404555 1.3270398969928464e7 0.0
1.3270398969928464e7 -1.0731989684227042e7 0.0
0.0 0.0 0.0

3.1999556525765657e6 3.491231466207743e6 0.0
3.491231466207743e6 -2.3526945824431613e7 0.0
0.0 0.0 0.0

1.0540954565770756e6 1.4284054559874604e7 0.0
1.4284054559874604e7 -2.5692993103741832e7 0.0
0.0 0.0 0.0

-5.96483996420033e6 8.306312009400278e6 0.0
8.306312009400278e6 5.387141025154963e6 0.0
0.0 0.0 0.0

-9.276221994055979e6 1.5513590686856916e7 0.0
1.5513590686856916e7 3.0016413734363385e7 0.0
0.0 0.0 0.0

-1.9350751047851963e6 2.0846972537860986e7 0.0
2.0846972537860986e7 -6.522388355395242e6 0.0
0.0 0.0 0.0

-6.978737462120879e6 -5.517126424720607e6 0.0
-5.517126424720607e6 1.6280040722324785e7 0.0
0.0 0.0 0.0

-4.491522840567508e6 1.5135457108959379e7 0.0
1.5135457108959379e7 5.509469693023925e6 0.0
0.0 0.0 0.0

839805.6054340382 2.317843259928802e7 0.0
2.317843259928802e7 -1.1445060222076505e7 0.0
0.0 0.0 0.0

-2.7707390431811116e6 1.998635498057518e7 0.0
1.998635498057518e7 -2.118271277233344e7 0.0
0.0 0.0 0.0

823837.1182173546 1.3193381673877018e7 0.0
1.3193381673877018e7 -1.7974625979596976e7 0.0
0.0 0.0 0.0

-712459.6618238869 1.0449626393458584e7 0.0
1.0449626393458584e7 -7.443262454912701e6 0.0
0.0 0.0 0.0

-1.3057847245079766e6 2.0064559152875703e7 0.0
2.0064559152875703e7 -4.817973002283545e6 0.0
0.0 0.0 0.0

-2.301772014786819e6 2.007734219445482e7 0.0
2.007734219445482e7 2.835696906149922e7 0.0
0.0 0.0 0.0

-1.8544724499631461e6 2.66233342433474e7 0.0
2.66233342433474e7 -1.6945052658935238e6 0.0
0.0 0.0 0.0

-5.644353811009832e6 2.0698016559584714e7 0.0
2.0698016559584714e7 2.1717734615875904e7 0.0
0.0 0.0 0.0

-2.7068765247297855e6 2.2803236592137165e7 0.0
2.2803236592137165e7 1.25044955108175e7 0.0
0.0 0.0 0.0

-70235.5095568765 1.1862702421683088e7 0.0
1.1862702421683088e7 -1.0746561638329564e7 0.0
0.0 0.0 0.0

-3.1787375215525017e6 1.5791679837297877e7 0.0
1.5791679837297877e7 6.515174947665926e6 0.0
0.0 0.0 0.0

210493.6907298062 2.0858968454563938e7 0.0
2.0858968454563938e7 1.5606156856420562e7 0.0
0.0 0.0 0.0

-1.9004402341864272e6 1.5926008797200656e7 0.0
1.5926008797200656e7 -6.925835863357927e6 0.0
0.0 0.0 0.0

-126717.42848715372 1.651104704014612e7 0.0
1.651104704014612e7 -2.8083734669622373e7 0.0
0.0 0.0 0.0

-1.3062048581826312e6 2.113005485491436e7 0.0
2.113005485491436e7 -4.484852709390256e6 0.0
0.0 0.0 0.0

608545.4266299624 1.6921625053288776e7 0.0
1.6921625053288776e7 -2.0036458993013274e7 0.0
0.0 0.0 0.0

-2.6915377090298533e6 1.7729678460946593e7 0.0
1.7729678460946593e7 4.586733353598655e6 0.0
0.0 0.0 0.0

-9.084939626169283e6 1.7723635678292964e7 0.0
1.7723635678292964e7 -3.3066542971475158e7 0.0
0.0 0.0 0.0

-1.2568551195323782e6 2.2161065029473767e7 0.0
2.2161065029473767e7 -4.184172224986511e6 0.0
0.0 0.0 0.0

7.279181767557522e6 2.2299476953667928e7 0.0
2.2299476953667928e7 -250023.32754053455 0.0
0.0 0.0 0.0

-7.429908517177831e6 4.230604619658125e6 0.0
4.230604619658125e6 4.984294498288063e7 0.0
0.0 0.0 0.0

-8.754009621116392e6 3.853500468071988e7 0.0
3.853500468071988e7 4.3665811585773565e6 0.0
0.0 0.0 0.0

-3.1559584970531045e6 2.3035682238615803e7 0.0
2.3035682238615803e7 1.1203235767455386e7 0.0
0.0 0.0 0.0

-7.162880609447967e6 1.6350046544151956e7 0.0
1.6350046544151956e7 3.3126836518809434e7 0.0
0.0 0.0 0.0

-3.3922503021409013e6 2.584056831164934e7 0.0
2.584056831164934e7 1.009865041546772e7 0.0
0.0 0.0 0.0

-2.354560927637299e6 1.771617884091552e7 0.0
1.771617884091552e7 1.5031736476138944e6 0.0
0.0 0.0 0.0

-739218.0032241622 1.8653654301117912e7 0.0
1.8653654301117912e7 -7.674234059925918e6 0.0
0.0 0.0 0.0

-1.0710290591032146e6 2.043812767748573e7 0.0
2.043812767748573e7 -5.86649749804451e6 0.0
0.0 0.0 0.0

-1.5476077666177098e6 1.1588739218152978e7 0.0
1.1588739218152978e7 -538415.6432957847 0.0
0.0 0.0 0.0

815779.6381549421 2.391168944650375e7 0.0
2.391168944650375e7 -1.0251508276082503e7 0.0
0.0 0.0 0.0

2.3983822407321697e6 6.856024421526829e6 0.0
6.856024421526829e6 -2.312666632691888e7 0.0
0.0 0.0 0.0

1.3079943462813804e6 7.000027650871771e6 0.0
7.000027650871771e6 -1.099205112037091e7 0.0
0.0 0.0 0.0

-3.1007673550589774e6 2.2278897992213216e7 0.0
2.2278897992213216e7 1.5139289048005128e7 0.0
0.0 0.0 0.0

-1.6860567108542274e6 2.6056086848083608e7 0.0
2.6056086848083608e7 -2.8373797423800183e6 0.0
0.0 0.0 0.0

6.301759663619825e6 2.2668450243845105e7 0.0
2.2668450243845105e7 -2.606483801625096e6 0.0
0.0 0.0 0.0

-1.324790313499319e7 2.855124780333453e7 0.0
2.855124780333453e7 4.713857791186075e6 0.0
0.0 0.0 0.0

1.9718480785913793e6 6.6802839658781495e6 0.0
6.6802839658781495e6 -1.553234515614164e7 0.0
0.0 0.0 0.0

-2.312063995411558e6 1.6631411922087375e7 0.0
1.6631411922087375e7 -5.40923261250541e6 0.0
0.0 0.0 0.0

5.058574069292384e7 1.7790467248398326e7 0.0
1.7790467248398326e7 3.2131582799626645e6 0.0
0.0 0.0 0.0

-434991.87110859994 1.0834460553346692e7 0.0
1.0834460553346692e7 -8.837386095465386e6 0.0
0.0 0.0 0.0

2.3165294672391266e6 7.0515746098918915e6 0.0
7.0515746098918915e6 -2.8325165661617436e7 0.0
0.0 0.0 0.0

-4.891216091273405e6 1.960315315058888e7 0.0
1.960315315058888e7 2.8256629340563677e7 0.0
0.0 0.0 0.0

637213.3060630448 1.79949315623019e7 0.0
1.79949315623019e7 -2.1354549430519335e7 0.0
0.0 0.0 0.0

-9.399932123437537e6 1.2937506557274215e7 0.0
1.2937506557274215e7 2.0982995110544823e7 0.0
0.0 0.0 0.0

-1.3935303964137595e7 3.695779182871703e7 0.0
3.695779182871703e7 5.244887822897475e6 0.0
0.0 0.0 0.0

-4.776656224884817e6 1.9988459129728258e7 0.0
1.9988459129728258e7 2.673132519141344e7 0.0
0.0 0.0 0.0

-4.002853724372218e6 2.6646684786282793e7 0.0
2.6646684786282793e7 9.746815027792256e6 0.0
0.0 0.0 0.0

-2.2157876930585314e7 2.8675425502411924e7 0.0
2.8675425502411924e7 -1.138999145063383e7 0.0
0.0 0.0 0.0

-3.0848790304703326e6 1.941183270620383e7 0.0
1.941183270620383e7 687919.459655727 0.0
0.0 0.0 0.0

4.6979114928266205e7 6.8707486087321285e6 0.0
6.8707486087321285e6 -760503.7650858331 0.0
0.0 0.0 0.0

-193261.97965097008 2.079250055014031e7 0.0
2.079250055014031e7 -1.0062063087309295e7 0.0
0.0 0.0 0.0

-1.5794282122313944e6 1.7815199360073984e7 0.0
1.7815199360073984e7 -608716.1534654904 0.0
0.0 0.0 0.0

758876.5288673448 2.4622450540295962e7 0.0
2.4622450540295962e7 -9.013120768642154e6 0.0
0.0 0.0 0.0

-1.51944618111642e7 2.4789330355062835e7 0.0
2.4789330355062835e7 -6.388344624398299e6 0.0
0.0 0.0 0.0

-195468.50963538652 1.0124511263094937e7 0.0
1.0124511263094937e7 -3.7146097317302073e6 0.0
0.0 0.0 0.0

-3.2921396268708482e6 2.2811118474218402e7 0.0
2.2811118474218402e7 1.631820504361831e7 0.0
0.0 0.0 0.0

-4.0537879667955935e6 1.8419237839344725e7 0.0
1.8419237839344725e7 -2.1966844130634192e7 0.0
0.0 0.0 0.0

-1.0926637990909195e7 6.337319643905584e6 0.0
6.337319643905584e6 3.0186649873601556e7 0.0
0.0 0.0 0.0

-1.956187773247459e6 2.5745465627303634e7 0.0
2.5745465627303634e7 -1.9085728983704355e6 0.0
0.0 0.0 0.0

-2.1401569414813654e6 1.8244895702444963e7 0.0
1.8244895702444963e7 70515.50959341193 0.0
0.0 0.0 0.0

-1.1493909749859858e6 2.6259862360005684e7 0.0
2.6259862360005684e7 -1.1012447578977805e6 0.0
0.0 0.0 0.0

338445.49973253906 1.853596377250192e7 0.0
1.853596377250192e7 -1.3006459157541703e7 0.0
0.0 0.0 0.0

-6.562248943816398e6 9.393743210826116e6 0.0
9.393743210826116e6 1.3106459226770341e7 0.0
0.0 0.0 0.0

-3.1010011023688708e6 2.6377320578086548e7 0.0
2.6377320578086548e7 6.404271199690932e6 0.0
0.0 0.0 0.0

-3.626102307795546e6 2.215279691964103e7 0.0
2.215279691964103e7 1.8655779324947692e7 0.0
0.0 0.0 0.0

-2.8411105571891936e6 2.1773769272014048e7 0.0
2.1773769272014048e7 1.3188633157287331e7 0.0
0.0 0.0 0.0

-803169.7625485973 1.5434178448755505e7 0.0
1.5434178448755505e7 -6.136285974197935e6 0.0
0.0 0.0 0.0

1.0342603603455257e6 1.2951808505258163e7 0.0
1.2951808505258163e7 -3.066085414086137e7 0.0
0.0 0.0 0.0

-2.918351816371738e6 2.1085006784352474e7 0.0
2.1085006784352474e7 2.0801030018417174e6 0.0
0.0 0.0 0.0

227919.89746562764 2.0190521755359195e7 0.0
2.0190521755359195e7 -1.5697083204606183e7 0.0
0.0 0.0 0.0

-205682.80062253494 1.8249092674676254e7 0.0
1.8249092674676254e7 -1.4768671785532609e7 0.0
0.0 0.0 0.0

-281063.7549423005 2.6328546658408985e7 0.0
2.6328546658408985e7 -6.596115249545147e6 0.0
0.0 0.0 0.0

-915938.2758430848 2.107805211094613e7 0.0
2.107805211094613e7 -1.044860873662089e7 0.0
0.0 0.0 0.0

1.3427522082656901e6 1.3299014067745168e7 0.0
1.3299014067745168e7 -2.4624995635552168e7 0.0
0.0 0.0 0.0

1.484818833616782e6 7.067866084711985e6 0.0
7.067866084711985e6 -6.7852134677605955e6 0.0
0.0 0.0 0.0

-2.6008856581049664e6 6.69424602939297e6 0.0
6.69424602939297e6 4.820017539923658e6 0.0
0.0 0.0 0.0

1.316453840489233e6 3.4973624380134456e7 0.0
3.4973624380134456e7 -882854.3651258685 0.0
0.0 0.0 0.0

-3.090801431886263e6 2.00061940909877e7 0.0
2.00061940909877e7 2.1017602132806266e6 0.0
0.0 0.0 0.0

-1.3721389180360471e6 2.2470445048810698e7 0.0
2.2470445048810698e7 -8.049205045999283e6 0.0
0.0 0.0 0.0

3.238090113583384e6 4.203410951923565e6 0.0
4.203410951923565e6 -1.4639952308290673e7 0.0
0.0 0.0 0.0

-7.766741245760415e6 6.660399022271633e6 0.0
6.660399022271633e6 5.0218592305495895e7 0.0
0.0 0.0 0.0

1.44973518446407e6 1.0658621258646619e7 0.0
1.0658621258646619e7 -1.8820335566830054e7 0.0
0.0 0.0 0.0

7.030533963895932e6 2.702679746945029e7 0.0
2.702679746945029e7 -6.253054322808918e6 0.0
0.0 0.0 0.0

1.528851674679967e6 2.807137471624892e7 0.0
2.807137471624892e7 -6.001950255365622e6 0.0
0.0 0.0 0.0

-3.0730977106598667e6 2.6977445244132303e7 0.0
2.6977445244132303e7 5.310521730967061e6 0.0
0.0 0.0 0.0

2.792159118952116e6 3.542010099888682e6 0.0
3.542010099888682e6 -3.3332158857819762e7 0.0
0.0 0.0 0.0

-900580.6050481161 2.3482691852285948e7 0.0
2.3482691852285948e7 -4.869644860030528e6 0.0
0.0 0.0 0.0

-245952.4414731632 2.4896054042558167e7 0.0
2.4896054042558167e7 -6.334562790111494e6 0.0
0.0 0.0 0.0

2.0913378028491233e6 7.929398257976546e6 0.0
7.929398257976546e6 -3.1150364075404737e7 0.0
0.0 0.0 0.0

-642771.1530681923 2.836245805464909e7 0.0
2.836245805464909e7 -3.5674272020765822e6 0.0
0.0 0.0 0.0

3.260442265800146e6 2.322920699805179e7 0.0
2.322920699805179e7 -8.605739815495215e6 0.0
0.0 0.0 0.0

-1.764624640832977e6 2.2873496976678204e7 0.0
2.2873496976678204e7 -5.815863190797856e6 0.0
0.0 0.0 0.0

-1.0359740150496736e6 1.7274601831193436e7 0.0
1.7274601831193436e7 -3.015312521563664e7 0.0
0.0 0.0 0.0

1.618073735933368e6 7.5765523670637375e6 0.0
7.5765523670637375e6 -1.4286263497538762e7 0.0
0.0 0.0 0.0

453511.75438885577 1.286447616188648e7 0.0
1.286447616188648e7 -1.5122054868995018e7 0.0
0.0 0.0 0.0

-431017.7620276101 2.3471283142346043e7 0.0
2.3471283142346043e7 -8.841744668199813e6 0.0
0.0 0.0 0.0

2.4354572304094983e6 2.3096867436083928e7 0.0
2.3096867436083928e7 -1.036501393619556e7 0.0
0.0 0.0 0.0

-1.1064431598554025e6 2.1699986143514626e7 0.0
2.1699986143514626e7 -9.249402867676724e6 0.0
0.0 0.0 0.0

2.5807230009428496e6 8.300926735902041e6 0.0
8.300926735902041e6 -1.5124972203536678e7 0.0
0.0 0.0 0.0

3.278112637394497e6 4.86068592720095e6 0.0
4.86068592720095e6 -2.785770018951556e7 0.0
0.0 0.0 0.0

278754.64780164976 1.8243472258846797e7 0.0
1.8243472258846797e7 -1.7388295435614564e7 0.0
0.0 0.0 0.0

59087.275911872275 1.3560187924810128e7 0.0
1.3560187924810128e7 -1.3817783789156636e7 0.0
0.0 0.0 0.0

-3.216704237725804e6 1.825499304574993e7 0.0
1.825499304574993e7 590505.208722464 0.0
0.0 0.0 0.0

-1.084213187753625e7 2.8940083195464406e7 0.0
2.8940083195464406e7 5.92984270156492e6 0.0
0.0 0.0 0.0

1.3588398183817193e6 1.5648514930550706e7 0.0
1.5648514930550706e7 7.972983526699145e7 0.0
0.0 0.0 0.0

-1.1341491635612156e7 6.940236370572572e6 0.0
6.940236370572572e6 2.7813891893167816e7 0.0
0.0 0.0 0.0

1.5947363364334474e6 2.619852023478672e7 0.0
2.619852023478672e7 -8.880003546455083e6 0.0
0.0 0.0 0.0

-3.2572032650819304e6 1.888791058224424e7 0.0
1.888791058224424e7 2.0837444448373374e6 0.0
0.0 0.0 0.0

-9.077996348322855e6 9.002771030152593e6 0.0
9.002771030152593e6 3.954504731925796e7 0.0
0.0 0.0 0.0

3.3098708982948624e6 4.908114250319391e6 0.0
4.908114250319391e6 -2.46523391067377e7 0.0
0.0 0.0 0.0

-2.4008885505201267e6 2.0022322276670776e7 0.0
2.0022322276670776e7 4.401371616714798e6 0.0
0.0 0.0 0.0

371558.61706290394 1.758617004817238e7 0.0
1.758617004817238e7 -2.3226912578585643e7 0.0
0.0 0.0 0.0

719133.8902132111 2.541689318565197e7 0.0
2.541689318565197e7 -7.923019126894499e6 0.0
0.0 0.0 0.0

-593436.6595882259 2.3749056577091295e7 0.0
2.3749056577091295e7 -5.80384121788256e6 0.0
0.0 0.0 0.0

-4.360439158091059e6 1.753806225504904e7 0.0
1.753806225504904e7 8.447723740150081e6 0.0
0.0 0.0 0.0

-1.7348876723155815e6 1.9201579784914196e7 0.0
1.9201579784914196e7 -2.5245810139295924e6 0.0
0.0 0.0 0.0

-8.727610960397348e6 1.1179967102216067e7 0.0
1.1179967102216067e7 1.3009012225278491e7 0.0
0.0 0.0 0.0

-5.0114854033479564e7 2.8032302891560875e7 0.0
2.8032302891560875e7 3.200388091554992e6 0.0
0.0 0.0 0.0

5.463540424869923e6 2.310902588038086e7 0.0
2.310902588038086e7 1.2174594751421543e7 0.0
0.0 0.0 0.0

-2.9216178329927605e6 2.3960444691865683e7 0.0
2.3960444691865683e7 1.2713739454603272e7 0.0
0.0 0.0 0.0

-1.4143854492857663e6 2.818736954637977e7 0.0
2.818736954637977e7 1.1185811638597639e6 0.0
0.0 0.0 0.0

1.755809884677221e6 1.0249780288099593e7 0.0
1.0249780288099593e7 -2.3044834690886658e7 0.0
0.0 0.0 0.0

2.1599784547546115e6 8.423955824014278e6 0.0
8.423955824014278e6 -2.779283796002454e7 0.0
0.0 0.0 0.0

2.096297033979388e6 1.0438371050461557e7 0.0
1.0438371050461557e7 -3.2902730485847943e7 0.0
0.0 0.0 0.0

-3.7922241766946465e6 1.7707720453771513e7 0.0
1.7707720453771513e7 5.19492327180958e6 0.0
0.0 0.0 0.0

-9.999237755559655e6 1.4908645609172868e7 0.0
1.4908645609172868e7 2.7747609760301612e7 0.0
0.0 0.0 0.0

-6.468200731020722e6 1.2120083708170548e7 0.0
1.2120083708170548e7 1.445755666046144e7 0.0
0.0 0.0 0.0

5.084109551148438e6 2.300925369254108e7 0.0
2.300925369254108e7 -4.714645718869285e6 0.0
0.0 0.0 0.0

-3.272819377718133e6 1.8827273034099374e7 0.0
1.8827273034099374e7 -2.0214716135871496e7 0.0
0.0 0.0 0.0

-3.5399404861202254e6 2.667107343597406e7 0.0
2.667107343597406e7 8.168127310633561e6 0.0
0.0 0.0 0.0

7.865693779543861e6 3.388368461807531e7 0.0
3.388368461807531e7 -4.343165884820101e6 0.0
0.0 0.0 0.0

-8.911343186286394e6 2.907854374881316e7 0.0
2.907854374881316e7 6.806186927960547e6 0.0
0.0 0.0 0.0

-4.375704868630845e6 2.1032198405131686e7 0.0
2.1032198405131686e7 2.2052064639319327e7 0.0
0.0 0.0 0.0

540359.1944550462 7.373704319385454e6 0.0
7.373704319385454e6 -5.3942704068779826e7 0.0
0.0 0.0 0.0

69138.59305675607 1.7642862228181284e7 0.0
1.7642862228181284e7 -1.1458126202669347e7 0.0
0.0 0.0 0.0

3.1903170976346126e6 2.815910600656339e6 0.0
2.815910600656339e6 -1.1959581997121125e7 0.0
0.0 0.0 0.0

2.4029185862755384e6 8.894324091916608e6 0.0
8.894324091916608e6 -3.39688702027913e7 0.0
0.0 0.0 0.0

-2.9915617715158463e6 2.7558941399312712e7 0.0
2.7558941399312712e7 4.267807241286552e6 0.0
0.0 0.0 0.0

-9.299802942481788e6 1.5388210789057676e7 0.0
1.5388210789057676e7 2.6318255948346473e7 0.0
0.0 0.0 0.0

-4.843189145732279e6 2.0544508378796335e7 0.0
2.0544508378796335e7 2.3800352949274566e7 0.0
0.0 0.0 0.0

-3.0050601604912784e6 2.475923376711664e7 0.0
2.475923376711664e7 1.1923211827224948e7 0.0
0.0 0.0 0.0

2.0888541429899232e6 1.088476044879815e7 0.0
1.088476044879815e7 -1.6723967466844263e7 0.0
0.0 0.0 0.0

-7.533599167765031e6 2.4225117225493383e7 0.0
2.4225117225493383e7 -1.1999848912155509e7 0.0
0.0 0.0 0.0

1.8350518154270481e6 3.465824744956315e7 0.0
3.465824744956315e7 -2.603887526622897e6 0.0
0.0 0.0 0.0

-3.8725572843318176e6 2.8727795612153906e7 0.0
2.8727795612153906e7 5.954588872298164e6 0.0
0.0 0.0 0.0

-4.543681163840249e6 2.038289884057316e7 0.0
2.038289884057316e7 2.5211468289430223e7 0.0
0.0 0.0 0.0

-5.970593391278602e6 6.796791379746795e7 0.0
6.796791379746795e7 -1.188208132101501e7 0.0
0.0 0.0 0.0

-6.399059756380413e6 2.3376258110599898e7 0.0
2.3376258110599898e7 -1.4419681172001882e7 0.0
0.0 0.0 0.0

-4.0257955328079667e6 1.961600270699256e7 0.0
1.961600270699256e7 1.0814933164891377e7 0.0
0.0 0.0 0.0

-1.0880293282085763e7 2.9799997996473615e6 0.0
2.9799997996473615e6 1.6358548030169485e7 0.0
0.0 0.0 0.0

-1.0341273136650223e6 1.9367590470456418e7 0.0
1.9367590470456418e7 -6.242388740936816e6 0.0
0.0 0.0 0.0

-1.2176958012293959e7 2.5154926099134468e7 0.0
2.5154926099134468e7 -6.864541668407854e6 0.0
0.0 0.0 0.0

-9.068296904293654e6 3.682005813380377e7 0.0
3.682005813380377e7 4.0069444493070724e6 0.0
0.0 0.0 0.0

-368833.31635738537 2.2325160467301827e7 0.0
2.2325160467301827e7 -8.240178880629534e6 0.0
0.0 0.0 0.0

-1.053699245422735e6 2.4294905501703557e7 0.0
2.4294905501703557e7 -7.211477611210382e6 0.0
0.0 0.0 0.0

-1.0492741874708867e7 4.404568348868022e6 0.0
4.404568348868022e6 2.543472053457304e7 0.0
0.0 0.0 0.0

3.1971510390674137e6 6.100431380631872e6 0.0
6.100431380631872e6 -2.1930125085809216e7 0.0
0.0 0.0 0.0

2.2182805293886047e6 3.363196002403467e7 0.0
3.363196002403467e7 -1.9882994740853768e6 0.0
0.0 0.0 0.0

-3.9820284865472633e6 2.1573060267114375e7 0.0
2.1573060267114375e7 2.0405302295485493e7 0.0
0.0 0.0 0.0

-1.7101999827362403e7 2.677616012577234e7 0.0
2.677616012577234e7 -3.8900657659554905e6 0.0
0.0 0.0 0.0

-2.470576166536042e6 6.209706463646205e6 0.0
6.209706463646205e6 -845847.4883489248 0.0
0.0 0.0 0.0

-1.3604496503822856e7 2.6610088568179328e7 0.0
2.6610088568179328e7 -1.110901678675253e7 0.0
0.0 0.0 0.0

-1.4849103440141082e6 2.3147155551185783e7 0.0
2.3147155551185783e7 -6.742618525618695e6 0.0
0.0 0.0 0.0

450954.07335342094 1.7588986059073206e7 0.0
1.7588986059073206e7 -1.86955716120735e7 0.0
0.0 0.0 0.0

-1.0783487624981864e6 2.1478681020733118e7 0.0
2.1478681020733118e7 -5.522150381010416e6 0.0
0.0 0.0 0.0

1.4103617588989409e6 1.1198633053581301e7 0.0
1.1198633053581301e7 -1.9663821551649325e7 0.0
0.0 0.0 0.0

-1.8744360154047275e6 2.2594152502808705e7 0.0
2.2594152502808705e7 603869.8290663847 0.0
0.0 0.0 0.0

-1.0973078489932306e7 5.274728621706329e6 0.0
5.274728621706329e6 1.5751804744260484e7 0.0
0.0 0.0 0.0

-8.317262057136701e6 1.5175415809084296e7 0.0
1.5175415809084296e7 2.160236435389727e7 0.0
0.0 0.0 0.0

-3.5460097888158676e6 1.7285077610990446e7 0.0
1.7285077610990446e7 1.1216846443585314e7 0.0
0.0 0.0 0.0

-5.988082882719927e6 1.8539165859360132e7 0.0
1.8539165859360132e7 -1.9463320559794754e7 0.0
0.0 0.0 0.0

-3.0163585577001474e6 1.7576773180519525e7 0.0
1.7576773180519525e7 7.807860211528161e6 0.0
0.0 0.0 0.0

-3.9139351581930384e7 3.20625058549381e7 0.0
3.20625058549381e7 -6.16768612239509e6 0.0
0.0 0.0 0.0

-3.278568931410175e6 1.947162838395932e7 0.0
1.947162838395932e7 3.4961342121300017e6 0.0
0.0 0.0 0.0

-2.2139170037913835e6 2.157781798855515e7 0.0
2.157781798855515e7 -3.6640543223059066e6 0.0
0.0 0.0 0.0

-5.65832384651432e7 2.714578796604396e7 0.0
2.714578796604396e7 1.260912151107274e6 0.0
0.0 0.0 0.0

4.09109563244751e6 2.326949547530889e7 0.0
2.326949547530889e7 -6.855597758739891e6 0.0
0.0 0.0 0.0

-2.482734314155921e6 1.8339386952425994e7 0.0
1.8339386952425994e7 3.020964884421506e6 0.0
0.0 0.0 0.0

1.4346965037209624e6 1.2343393313386463e7 0.0
1.2343393313386463e7 -1.428141394919417e7 0.0
0.0 0.0 0.0

-1.6485396741222632e6 2.8643703370935418e7 0.0
2.8643703370935418e7 2.0617122255299008e6 0.0
0.0 0.0 0.0

1.1276494174670503e6 1.293988189691154e7 0.0
1.293988189691154e7 -1.998487286410376e7 0.0
0.0 0.0 0.0

1.0473934825123893e6 1.394113174040286e7 0.0
1.394113174040286e7 -2.1433152018267393e7 0.0
0.0 0.0 0.0

-7.601826503358575e6 9.781724900205405e6 0.0
9.781724900205405e6 9.46463840226585e6 0.0
0.0 0.0 0.0

-3.4770595566623183e6 2.215036796178033e7 0.0
2.215036796178033e7 1.0986884898125747e7 0.0
0.0 0.0 0.0

2.7658918029245976e6 8.188322327254816e6 0.0
8.188322327254816e6 -2.8996783056419007e7 0.0
0.0 0.0 0.0

-1.1251387124251328e7 8.506013629455741e6 0.0
8.506013629455741e6 2.1804157083167505e7 0.0
0.0 0.0 0.0

1.1045575896129701e6 1.3416007114339635e7 0.0
1.3416007114339635e7 -2.0738945749817662e7 0.0
0.0 0.0 0.0

-9.559126884948629e7 1.074754581186531e7 0.0
1.074754581186531e7 3.3800433937367797e6 0.0
0.0 0.0 0.0

856687.4788289238 7.242691996041984e6 0.0
7.242691996041984e6 -5.016734171683775e7 0.0
0.0 0.0 0.0

-3.6480793587098913e6 2.0731538975999575e7 0.0
2.0731538975999575e7 1.0330508504641151e7 0.0
0.0 0.0 0.0

-3.1971429058246305e6 2.24998187095707e7 0.0
2.24998187095707e7 8.259077201949624e6 0.0
0.0 0.0 0.0

-5.064704496242568e6 2.8082922295155365e7 0.0
2.8082922295155365e7 8.843832177213285e6 0.0
0.0 0.0 0.0

-1.9503337617791677e6 1.9780997061096303e7 0.0
1.9780997061096303e7 -6.905272233799663e6 0.0
0.0 0.0 0.0

-3.7605326094056787e6 2.2473738158853635e7 0.0
2.2473738158853635e7 1.8955094339021713e7 0.0
0.0 0.0 0.0

495394.0732156383 1.549676287533888e7 0.0
1.549676287533888e7 -1.72254773328429e7 0.0
0.0 0.0 0.0

1.7953890096677002e6 1.0457597283228526e7 0.0
1.0457597283228526e7 -2.764250518352395e7 0.0
0.0 0.0 0.0

-1.9123401274768307e6 2.8197373466421355e7 0.0
2.8197373466421355e7 2.9427544813852366e6 0.0
0.0 0.0 0.0

2.2320668503837413e6 2.9710265621240646e7 0.0
2.9710265621240646e7 -5.856300377684537e6 0.0
0.0 0.0 0.0

1.591366972705664e6 9.728598183095051e6 0.0
9.728598183095051e6 -4.015778131995028e7 0.0
0.0 0.0 0.0

-4.679769235801099e6 1.462287129098373e7 0.0
1.462287129098373e7 1.1970494629015915e7 0.0
0.0 0.0 0.0

-7.326937615072664e6 2.8909334517031766e7 0.0
2.8909334517031766e7 7.536669377836615e6 0.0
0.0 0.0 0.0

-4.954865626620677e7 7.322873666107625e7 0.0
7.322873666107625e7 -2.1737185257174466e6 0.0
0.0 0.0 0.0

-9.677762564121934e6 1.1023634210577179e7 0.0
1.1023634210577179e7 3.4729863303646654e7 0.0
0.0 0.0 0.0

-4.9386420942597315e6 1.7358817433448873e7 0.0
1.7358817433448873e7 -1.7489619463858668e7 0.0
0.0 0.0 0.0

-1.4334926248908886e6 6.011028750843663e6 0.0
6.011028750843663e6 2.5772633305090903e6 0.0
0.0 0.0 0.0

-8.059844171608239e6 -2.938189514553895e6 0.0
-2.938189514553895e6 3.459651826274048e7 0.0
0.0 0.0 0.0

3.21588848586577e6 1.782205482194413e6 0.0
1.782205482194413e6 -3.463612638235995e7 0.0
0.0 0.0 0.0

-8.076513995131858e6 2.5465446451543223e7 0.0
2.5465446451543223e7 2.231310215287949e6 0.0
0.0 0.0 0.0

-1.661390717872277e6 1.9238653165649116e7 0.0
1.9238653165649116e7 -2.1483815981661845e7 0.0
0.0 0.0 0.0

-5.688190447174361e6 1.6773329932815418e7 0.0
1.6773329932815418e7 3.734822177902827e7 0.0
0.0 0.0 0.0

1.5125012767394134e6 2.534536903198753e7 0.0
2.534536903198753e7 -9.869339384026458e6 0.0
0.0 0.0 0.0

1.1522597655198593e6 1.2454464215745188e7 0.0
1.2454464215745188e7 -1.918306588809986e7 0.0
0.0 0.0 0.0

-1.2927067792269606e6 1.7227658609430883e7 0.0
1.7227658609430883e7 4.886241979961074e7 0.0
0.0 0.0 0.0

-1.9238219180952734e6 1.986276824453479e7 0.0
1.986276824453479e7 -1.0870308410939733e6 0.0
0.0 0.0 0.0

-737541.5852639563 1.9337564905412257e7 0.0
1.9337564905412257e7 3.584562610827181e7 0.0
0.0 0.0 0.0

-1.2037615013111746e6 1.960436821003183e7 0.0
1.960436821003183e7 -1.986062096763954e7 0.0
0.0 0.0 0.0

8.326766985702057e7 1.0459967800838856e7 0.0
1.0459967800838856e7 2.4144223058508188e6 0.0
0.0 0.0 0.0

680433.636596424 2.6189832799666747e7 0.0
2.6189832799666747e7 -6.88145919024436e6 0.0
0.0 0.0 0.0

3.4520905875625173e6 3.341285364189611e7 0.0
3.341285364189611e7 -2.7495967659012256e6 0.0
0.0 0.0 0.0

959830.3119989876 1.3623061358562462e7 0.0
1.3623061358562462e7 -1.8670242034336783e7 0.0
0.0 0.0 0.0

1.9113822717350125e6 1.2485888822444445e7 0.0
1.2485888822444445e7 -1.925615442402676e7 0.0
0.0 0.0 0.0

-1.6798743816812942e6 1.9067470391581472e7 0.0
1.9067470391581472e7 -8.329005798021109e6 0.0
0.0 0.0 0.0

-1.0392587971613742e7 1.2574043104881015e7 0.0
1.2574043104881015e7 2.7980492022576887e7 0.0
0.0 0.0 0.0

-3.0759361892825896e6 1.7823740252397116e7 0.0
1.7823740252397116e7 -2.9774648522057075e7 0.0
0.0 0.0 0.0

3.042369339597476e6 2.758199008191477e6 0.0
2.758199008191477e6 -1.0750835258528017e7 0.0
0.0 0.0 0.0

653019.1740550995 1.6380169376501072e7 0.0
1.6380169376501072e7 -1.8638559333682816e7 0.0
0.0 0.0 0.0

-2.9041015996369213e7 3.632710928711808e7 0.0
3.632710928711808e7 7.026050985082431e6 0.0
0.0 0.0 0.0

-3.5775570270939083e6 1.3026396155449906e7 0.0
1.3026396155449906e7 168957.82156709302 0.0
0.0 0.0 0.0

912597.4034880139 1.736423635097453e7 0.0
1.736423635097453e7 5.780207877673056e7 0.0
0.0 0.0 0.0

-3.0793192510189367e6 2.2714721928458385e7 0.0
2.2714721928458385e7 1.5399465863837581e7 0.0
0.0 0.0 0.0

8.245152967335701e6 2.324751546646219e7 0.0
2.324751546646219e7 4.5503289207655545e6 0.0
0.0 0.0 0.0

-5.994513712369148e6 2.8567974585384525e7 0.0
2.8567974585384525e7 8.156697483771414e6 0.0
0.0 0.0 0.0

712107.1745569054 2.6915238826753195e7 0.0
2.6915238826753195e7 -5.723950633897488e6 0.0
0.0 0.0 0.0

-3.936116313761059e6 2.8195999775977638e7 0.0
2.8195999775977638e7 6.7477356196033545e6 0.0
0.0 0.0 0.0

-1.035703453649674e7 1.303658389229021e7 0.0
1.303658389229021e7 2.5975397120898213e7 0.0
0.0 0.0 0.0

-7.11358329811901e6 1.6995076173313e7 0.0
1.6995076173313e7 2.1840458288111985e7 0.0
0.0 0.0 0.0

-1.0975804963757137e7 7.196987718161979e6 0.0
7.196987718161979e6 1.4596744532559918e7 0.0
0.0 0.0 0.0

2.018576129404898e7 1.2835488836257134e7 0.0
1.2835488836257134e7 1.192090465985382e6 0.0
0.0 0.0 0.0

-710810.926588228 1.998544822972928e7 0.0
1.998544822972928e7 -1.8381005791876394e7 0.0
0.0 0.0 0.0

214356.88905682391 2.6793660885637596e7 0.0
2.6793660885637596e7 -5.001691840427862e6 0.0
0.0 0.0 0.0

-2.8315618909278978e6 2.807322936427262e7 0.0
2.807322936427262e7 3.2698917171655735e6 0.0
0.0 0.0 0.0

-9.297248718298726e6 -1.937406189669105e6 0.0
-1.937406189669105e6 2.5286099887573715e7 0.0
0.0 0.0 0.0

-3.5766553537820484e6 2.978599276100747e7 0.0
2.978599276100747e7 4.2934301647369005e6 0.0
0.0 0.0 0.0

-2.540201872435153e6 1.890111069633363e7 0.0
1.890111069633363e7 4.481226569881778e6 0.0
0.0 0.0 0.0

-4.7200201573280245e6 3.043294961233412e7 0.0
3.043294961233412e7 5.27337284602592e6 0.0
0.0 0.0 0.0

7.870578700300031e6 2.2031945814809114e7 0.0
2.2031945814809114e7 2.5583169085827656e6 0.0
0.0 0.0 0.0

2.5160539341694186e6 3.1110299334859572e7 0.0
3.1110299334859572e7 -3.6622315540697128e6 0.0
0.0 0.0 0.0

2.8135304434532933e6 4.949660612987009e6 0.0
4.949660612987009e6 -2.7916714670105614e7 0.0
0.0 0.0 0.0

-1.0044975006324984e7 1.143380830676213e7 0.0
1.143380830676213e7 3.2388947365010686e7 0.0
0.0 0.0 0.0

522059.4591264264 2.1998427992990978e7 0.0
2.1998427992990978e7 -1.0670374451811591e7 0.0
0.0 0.0 0.0

-232994.35247695912 2.0466605760881126e7 0.0
2.0466605760881126e7 -1.689143241169149e7 0.0
0.0 0.0 0.0

-1.9416331919972894e6 1.8727477577836283e7 0.0
1.8727477577836283e7 -1.2694934160727083e6 0.0
0.0 0.0 0.0

-4.662144845185941e6 2.3749930307170235e7 0.0
2.3749930307170235e7 6.529486888491729e6 0.0
0.0 0.0 0.0

2.684230085601857e6 2.627800152078894e7 0.0
2.627800152078894e7 -8.6740548398601e6 0.0
0.0 0.0 0.0

-248451.04767368454 2.0418340723696597e7 0.0
2.0418340723696597e7 -9.410165179240424e6 0.0
0.0 0.0 0.0

-9.835009263426058e6 1.5166682611977844e7 0.0
1.5166682611977844e7 2.14794683552198e7 0.0
0.0 0.0 0.0

2.490624241206685e6 1.0262352920112135e7 0.0
1.0262352920112135e7 -2.2983569896719962e7 0.0
0.0 0.0 0.0

-1.4455580415332662e6 2.052897507591323e7 0.0
2.052897507591323e7 -1.7676496381186366e7 0.0
0.0 0.0 0.0

3.114267497762895e6 2.2800744929247748e7 0.0
2.2800744929247748e7 1.4081792363904579e7 0.0
0.0 0.0 0.0

-1.8680278531939604e6 2.1875164091459163e7 0.0
2.1875164091459163e7 -6.161200763084091e6 0.0
0.0 0.0 0.0

2.307138559535632e6 7.796722777410723e6 0.0
7.796722777410723e6 -3.880871457489942e7 0.0
0.0 0.0 0.0

2.1730658402175643e6 5.710109391550689e6 0.0
5.710109391550689e6 -5.16747287325551e7 0.0
0.0 0.0 0.0

-4.416307372439667e6 1.8026352646420125e7 0.0
1.8026352646420125e7 9.897579723887991e6 0.0
0.0 0.0 0.0

-2.6177993932109307e6 2.855984965773878e7 0.0
2.855984965773878e7 2.3521231413008934e6 0.0
0.0 0.0 0.0

-1.0247814780746415e7 4.376234585053685e6 0.0
4.376234585053685e6 2.951395569971554e7 0.0
0.0 0.0 0.0

-6.570126307423736e6 1.687761476793055e7 0.0
1.687761476793055e7 1.5367015804318432e7 0.0
0.0 0.0 0.0

-3.3828606744617657e6 2.1779153245081104e7 0.0
2.1779153245081104e7 9.88870521262689e6 0.0
0.0 0.0 0.0

2.388192344265946e6 1.0495498504153209e7 0.0
1.0495498504153209e7 -2.0916293863389954e7 0.0
0.0 0.0 0.0

3.093717181053661e6 1.656096748073815e6 0.0
1.656096748073815e6 -3.5784670345803574e7 0.0
0.0 0.0 0.0

-2.959668873207994e6 2.0404000965036586e7 0.0
2.0404000965036586e7 1.2743463381202545e7 0.0
0.0 0.0 0.0

4.036610449884936e6 1.889735506142106e7 0.0
1.889735506142106e7 7.09916823474137e7 0.0
0.0 0.0 0.0

-2.376690794153493e6 2.287031629905334e7 0.0
2.287031629905334e7 8.829122080166671e6 0.0
0.0 0.0 0.0

512242.3111784796 2.753351561609722e7 0.0
2.753351561609722e7 -4.83051641974926e6 0.0
0.0 0.0 0.0

988521.4740615124 1.4475433196941897e7 0.0
1.4475433196941897e7 -1.985364565498695e7 0.0
0.0 0.0 0.0

-211030.75558573488 2.986729014742831e7 0.0
2.986729014742831e7 -1.1390966757439892e6 0.0
0.0 0.0 0.0

-2.120747744155476e6 2.770898187172277e7 0.0
2.770898187172277e7 3.869137362980727e6 0.0
0.0 0.0 0.0

8.951761626579253e6 1.8913410729393013e7 0.0
1.8913410729393013e7 4.291183502255303e7 0.0
0.0 0.0 0.0

3.0701549182707975e6 2.775298946156424e6 0.0
2.775298946156424e6 -1.1397373165792972e7 0.0
0.0 0.0 0.0

4.342229666872069e6 2.3969112988934334e7 0.0
2.3969112988934334e7 -7.8348470541015e6 0.0
0.0 0.0 0.0

3.259288040294174e6 3.907887937765891e6 0.0
3.907887937765891e6 -2.0000878327988636e7 0.0
0.0 0.0 0.0

-9.42381438019591e6 1.3727926562800013e7 0.0
1.3727926562800013e7 2.1974967632387508e7 0.0
0.0 0.0 0.0

-2.9317393112957454e6 2.617142320334768e7 0.0
2.617142320334768e7 5.457250512653153e6 0.0
0.0 0.0 0.0

-1.0159855708841057e6 2.2491839706573788e7 0.0
2.2491839706573788e7 -5.196404710714584e6 0.0
0.0 0.0 0.0

2.0455317843372412e6 1.1429650002948267e7 0.0
1.1429650002948267e7 -1.7581254248499822e7 0.0
0.0 0.0 0.0

-26508.30800508894 2.0790458620216243e7 0.0
2.0790458620216243e7 -1.0973330415137177e7 0.0
0.0 0.0 0.0

329225.2452381132 2.8197628433348063e7 0.0
2.8197628433348063e7 -3.9086629121466144e6 0.0
0.0 0.0 0.0

-9.939026131176928e6 6.166675006607924e6 0.0
6.166675006607924e6 3.393943267802417e7 0.0
0.0 0.0 0.0

-6.006332589300921e6 1.856176908755513e7 0.0
1.856176908755513e7 2.183695615143945e7 0.0
0.0 0.0 0.0

-1.0893398485545473e7 1.0565040145619575e7 0.0
1.0565040145619575e7 2.3383153766176865e7 0.0
0.0 0.0 0.0

-3.4832879904808514e6 1.83233637992275e7 0.0
1.83233637992275e7 3.573965926162487e6 0.0
0.0 0.0 0.0

-3.040688596337454e6 2.7681452495245486e7 0.0
2.7681452495245486e7 7.559429203219247e6 0.0
0.0 0.0 0.0

-2.4450256227490823e6 2.1820748277505983e7 0.0
2.1820748277505983e7 -2.764265516545577e6 0.0
0.0 0.0 0.0

-1.813812626308888e6 2.9668877715324488e7 0.0
2.9668877715324488e7 -194308.95424534992 0.0
0.0 0.0 0.0

-8.245641107541023e6 1.042603981685235e7 0.0
1.042603981685235e7 1.1339841363730496e7 0.0
0.0 0.0 0.0

-7.1380234860015735e6 1.6429591905665869e7 0.0
1.6429591905665869e7 2.0965750146551624e7 0.0
0.0 0.0 0.0

-2.393828253885474e6 2.8993478744227882e7 0.0
2.8993478744227882e7 1.5141029525387054e6 0.0
0.0 0.0 0.0

2.4353375954811876e6 2.5032805126910206e7 0.0
2.5032805126910206e7 -9.84056422293746e6 0.0
0.0 0.0 0.0

1.5611534021596279e7 2.4973258445384998e7 0.0
2.4973258445384998e7 1.2961402495815495e7 0.0
0.0 0.0 0.0

-2.73206223475493e6 1.8272336829241846e7 0.0
1.8272336829241846e7 6.087797189060826e6 0.0
0.0 0.0 0.0

7.135031391091764e6 2.8285408722789276e7 0.0
2.8285408722789276e7 -6.2167343738778625e6 0.0
0.0 0.0 0.0

-2.7928438072034842e6 1.927868843918758e7 0.0
1.927868843918758e7 8.824626832386341e6 0.0
0.0 0.0 0.0

-6.074724490456258e6 1.808848373003103e7 0.0
1.808848373003103e7 2.103912917135901e7 0.0
0.0 0.0 0.0

-5.9787950500789e6 1.13945642945132e7 0.0
1.13945642945132e7 1.2834952625150591e7 0.0
0.0 0.0 0.0

-2.135861997633016e6 2.9351580761259172e7 0.0
2.9351580761259172e7 596020.0485202887 0.0
0.0 0.0 0.0

3.153128767648956e6 6.427247918696145e6 0.0
6.427247918696145e6 -2.7350518012369845e7 0.0
0.0 0.0 0.0

2.821953301229993e6 8.676667411147177e6 0.0
8.676667411147177e6 -2.5553118587751977e7 0.0
0.0 0.0 0.0

-4.31764943935316e6 2.7505352073356096e7 0.0
2.7505352073356096e7 9.416377131495668e6 0.0
0.0 0.0 0.0

-254470.76743924292 1.3148070612476956e7 0.0
1.3148070612476956e7 -7.219995553557019e6 0.0
0.0 0.0 0.0

1.991738498499236e6 1.1976903530218806e7 0.0
1.1976903530218806e7 -1.8408485930290297e7 0.0
0.0 0.0 0.0

-470653.092791025 3.2281274113258723e7 0.0
3.2281274113258723e7 -1.2789430363127529e6 0.0
0.0 0.0 0.0

51502.25711484859 2.9350205776041873e7 0.0
2.9350205776041873e7 -2.0310281749471792e6 0.0
0.0 0.0 0.0

-1.1565289018863596e6 2.338267979919351e7 0.0
2.338267979919351e7 -7.599929506670771e6 0.0
0.0 0.0 0.0

-2.226343927586047e6 1.87900671668866e7 0.0
1.87900671668866e7 -2.6766796236536067e7 0.0
0.0 0.0 0.0

-3.094608975789389e6 3.2419505251284063e7 0.0
3.2419505251284063e7 1.7935789706012679e6 0.0
0.0 0.0 0.0

-5.875541133256636e6 1.9003974264840618e7 0.0
1.9003974264840618e7 2.240175522487901e7 0.0
0.0 0.0 0.0

1.972473568628624e6 7.46023571643008e6 0.0
7.46023571643008e6 -1.6389393875462819e7 0.0
0.0 0.0 0.0

1.8072235925328091e6 3.518555335492152e7 0.0
3.518555335492152e7 -1.4327258950205422e6 0.0
0.0 0.0 0.0

-3.112154707306193e6 2.339634183013062e7 0.0
2.339634183013062e7 1.3086896607950222e7 0.0
0.0 0.0 0.0

217784.61124591006 2.879303290955647e7 0.0
2.879303290955647e7 -2.8878287221156945e6 0.0
0.0 0.0 0.0

263573.66792003904 2.0957755696504705e7 0.0
2.0957755696504705e7 -1.5531222647760386e7 0.0
0.0 0.0 0.0

-971044.3606515075 3.0075254827812564e7 0.0
3.0075254827812564e7 454506.4057310577 0.0
0.0 0.0 0.0

-3.326203761263177e6 2.354928066908584e7 0.0
2.354928066908584e7 1.563892221285858e7 0.0
0.0 0.0 0.0

-947452.1889499818 3.017942983554173e7 0.0
3.017942983554173e7 -1.641092489833104e6 0.0
0.0 0.0 0.0

8.426498505026715e6 3.783551600797081e7 0.0
3.783551600797081e7 -3.1800344364301856e6 0.0
0.0 0.0 0.0

-8.5883426446365e6 1.6598243208793795e7 0.0
1.6598243208793795e7 2.7581697146612156e7 0.0
0.0 0.0 0.0

1.7163784093544865e6 1.319538265273165e7 0.0
1.319538265273165e7 -1.7999615727055937e7 0.0
0.0 0.0 0.0

-1.0079087271980133e7 1.3353040281208258e7 0.0
1.3353040281208258e7 2.8772778361104112e7 0.0
0.0 0.0 0.0

-9.012989899082039e6 1.536279646679376e7 0.0
1.536279646679376e7 1.914831610546255e7 0.0
0.0 0.0 0.0

-553847.6492455385 -1.1661621394425414e6 0.0
-1.1661621394425414e6 1.2703269896487605e6 0.0
0.0 0.0 0.0

-829861.9075419634 -2.1907850728287324e6 0.0
-2.1907850728287324e6 2.4811607979152445e6 0.0
0.0 0.0 0.0

-8.155852906528989e6 1.714834437661665e7 0.0
1.714834437661665e7 2.812394038875115e7 0.0
0.0 0.0 0.0

1.408532904235152e7 2.407965639458015e7 0.0
2.407965639458015e7 1.2178744395445684e7 0.0
0.0 0.0 0.0

1.370118062301087e6 3.0482620092221905e7 0.0
3.0482620092221905e7 -3.077659913437069e6 0.0
0.0 0.0 0.0

-360962.2423744863 2.4030888741747335e7 0.0
2.4030888741747335e7 -6.796392161904265e6 0.0
0.0 0.0 0.0

1.6573772915351382e6 1.366260190412759e7 0.0
1.366260190412759e7 -1.8864205691531576e7 0.0
0.0 0.0 0.0

8.168579260430599e6 1.878296318509449e7 0.0
1.878296318509449e7 3.81002331235843e7 0.0
0.0 0.0 0.0

-2.869867557721061e6 3.2984707076023057e7 0.0
3.2984707076023057e7 2.9877401466004374e6 0.0
0.0 0.0 0.0

-403191.3332880539 3.293660810431607e7 0.0
3.293660810431607e7 -1.2646835739677572e6 0.0
0.0 0.0 0.0

4579.336309295031 3.362085129332052e7 0.0
3.362085129332052e7 -1.2773175615855455e6 0.0
0.0 0.0 0.0

-4.329375182171788e6 2.0717633410089027e7 0.0
2.0717633410089027e7 1.443879970223055e7 0.0
0.0 0.0 0.0

-4.540565727667801e6 1.843992789752768e7 0.0
1.843992789752768e7 1.1332808089187924e7 0.0
0.0 0.0 0.0

-7.74521593250268e6 1.3074860516010683e7 0.0
1.3074860516010683e7 1.2765354323257562e7 0.0
0.0 0.0 0.0

-2.718306814096702e6 2.46859783508066e7 0.0
2.46859783508066e7 1.0582442866535824e7 0.0
0.0 0.0 0.0

-3.6219983606924973e6 1.7677566307100434e7 0.0
1.7677566307100434e7 1.2666312798299707e7 0.0
0.0 0.0 0.0

-8.42115790060395e6 1.6114353588803701e7 0.0
1.6114353588803701e7 3.0919484796801455e7 0.0
0.0 0.0 0.0

1.6664384175187908e6 1.4228248575871369e7 0.0
1.4228248575871369e7 -1.9494967803173885e7 0.0
0.0 0.0 0.0

-3.567257285453652e6 2.2471651212763738e7 0.0
2.2471651212763738e7 1.1985787617719656e7 0.0
0.0 0.0 0.0

-9.033291015287189e6 1.4509913188368294e7 0.0
1.4509913188368294e7 3.221283103342742e7 0.0
0.0 0.0 0.0

4.723991779828552e6 2.1337517562108025e7 0.0
2.1337517562108025e7 1.628053363485479e7 0.0
0.0 0.0 0.0

-3.5253242857946237e6 1.9452723598191712e7 0.0
1.9452723598191712e7 6.36569209651777e6 0.0
0.0 0.0 0.0

-906862.8473818605 3.0783669315987285e7 0.0
3.0783669315987285e7 547110.0335465032 0.0
0.0 0.0 0.0

-1.0153042015824371e6 2.9321820416100994e7 0.0
2.9321820416100994e7 361260.53666689794 0.0
0.0 0.0 0.0

-3.3187663838194786e6 2.4281320569554802e7 0.0
2.4281320569554802e7 1.4077041607807072e7 0.0
0.0 0.0 0.0

-2.0154363769476851e6 1.9727864313345384e7 0.0
1.9727864313345384e7 -2.228723139996273e7 0.0
0.0 0.0 0.0

-3.0168080667340164e6 2.495821976050387e7 0.0
2.495821976050387e7 7.90680666282573e6 0.0
0.0 0.0 0.0

-5.123690587971149e6 1.9552252246922072e7 0.0
1.9552252246922072e7 2.0828266563939154e7 0.0
0.0 0.0 0.0

-582675.8168513388 2.3072106967069265e7 0.0
2.3072106967069265e7 -7.109367236220735e6 0.0
0.0 0.0 0.0

4.28229528024081e6 3.418076412197093e7 0.0
3.418076412197093e7 -2.7500077660508766e6 0.0
0.0 0.0 0.0

-3.4850579238710674e6 2.512407071659901e7 0.0
2.512407071659901e7 1.2590750590357935e7 0.0
0.0 0.0 0.0

-893794.5538869491 2.2695840360016543e7 0.0
2.2695840360016543e7 -8.802149073012924e6 0.0
0.0 0.0 0.0

2.571466083765071e6 9.322163528380249e6 0.0
9.322163528380249e6 -2.63755038804571e7 0.0
0.0 0.0 0.0

-3.0695756424779473e6 2.0724709619201817e7 0.0
2.0724709619201817e7 1.3891652715870094e7 0.0
0.0 0.0 0.0

4.768152038807057e6 2.7984398230271935e7 0.0
2.7984398230271935e7 -6.9660801147741135e6 0.0
0.0 0.0 0.0

2.57750401194255e6 2.883917683600316e6 0.0
2.883917683600316e6 -8.006588506644706e6 0.0
0.0 0.0 0.0

1.603812841998443e6 9.422159948413538e6 0.0
9.422159948413538e6 -3.479150733915992e7 0.0
0.0 0.0 0.0

19249.48418624606 2.1311878509915274e7 0.0
2.1311878509915274e7 -1.074747010276387e7 0.0
0.0 0.0 0.0

1.443753856318387e7 2.5032618567097835e7 0.0
2.5032618567097835e7 1.3857540379473226e7 0.0
0.0 0.0 0.0

1.8808381238624807e6 9.789573705154061e6 0.0
9.789573705154061e6 -2.712166961210957e7 0.0
0.0 0.0 0.0

1.7121143427188173e6 1.108598635224496e7 0.0
1.108598635224496e7 -2.63397512149691e7 0.0
0.0 0.0 0.0

2.037787594608678e6 2.1267438877788596e7 0.0
2.1267438877788596e7 6.158293087487484e6 0.0
0.0 0.0 0.0

-1.0298883589648573e7 7.875282958863741e6 0.0
7.875282958863741e6 3.2151606991754558e7 0.0
0.0 0.0 0.0

-8.88937129794481e6 1.35894146100517e7 0.0
1.35894146100517e7 1.5812200040099677e7 0.0
0.0 0.0 0.0

-1.0735269563525427e7 1.935750363034327e7 0.0
1.935750363034327e7 -5.0804374291250765e7 0.0
0.0 0.0 0.0

-5.546277137368637e6 1.8112324740523882e7 0.0
1.8112324740523882e7 1.4675071024849057e7 0.0
0.0 0.0 0.0

-1.1074046969831316e7 1.3175894501174405e7 0.0
1.3175894501174405e7 2.3444651187948216e7 0.0
0.0 0.0 0.0

3.6532814409141615e6 2.3443552157485574e7 0.0
2.3443552157485574e7 1.1602398606413743e7 0.0
0.0 0.0 0.0

-8.244461292834831e6 -3.1742473964563045e6 0.0
-3.1742473964563045e6 3.3531731635884687e7 0.0
0.0 0.0 0.0

-3.732806976403144e6 2.1092284462976743e7 0.0
2.1092284462976743e7 1.1551188838188851e7 0.0
0.0 0.0 0.0

-3.453076958407917e6 2.772577724071324e7 0.0
2.772577724071324e7 8.25755449972244e6 0.0
0.0 0.0 0.0

241621.06920724828 1.9253910671814326e7 0.0
1.9253910671814326e7 -1.6593401004753402e7 0.0
0.0 0.0 0.0

-8.023634015634412e6 -2.418841867546453e6 0.0
-2.418841867546453e6 1.3768049854932616e7 0.0
0.0 0.0 0.0

-7.422710292398582e6 1.239727233263694e7 0.0
1.239727233263694e7 1.1114704127285847e7 0.0
0.0 0.0 0.0

-276370.3046809286 7.999822365086538e6 0.0
7.999822365086538e6 -5.87027520455721e7 0.0
0.0 0.0 0.0

6.856067675809822e6 3.44789083508712e7 0.0
3.44789083508712e7 -3.5354028191010254e6 0.0
0.0 0.0 0.0

-7.26716800582218e6 1.3419382580943378e7 0.0
1.3419382580943378e7 4.127578253044805e7 0.0
0.0 0.0 0.0

-5.742280602073137e6 2.014951312010832e7 0.0
2.014951312010832e7 -1.7004511805680085e7 0.0
0.0 0.0 0.0

-1.1168826095861236e7 1.2692658421832325e7 0.0
1.2692658421832325e7 2.5272585749831107e7 0.0
0.0 0.0 0.0

-1.4429982402657527e7 2.7072952274979003e7 0.0
2.7072952274979003e7 -1.0247368172882903e7 0.0
0.0 0.0 0.0

-1.4813735199674293e6 2.124817078943136e7 0.0
2.124817078943136e7 -5.540437180972009e6 0.0
0.0 0.0 0.0

3.8288992422764297e6 1.9355290680082846e7 0.0
1.9355290680082846e7 1.9370481034498606e7 0.0
0.0 0.0 0.0

1.6590045910934173e6 8.629516943265019e6 0.0
8.629516943265019e6 -3.653950090642987e7 0.0
0.0 0.0 0.0

-5.293358136145573e6 1.811850742017478e7 0.0
1.811850742017478e7 -1.7217706805023722e7 0.0
0.0 0.0 0.0

8.257667021749282e6 3.976432085732104e7 0.0
3.976432085732104e7 -4.835690412502189e6 0.0
0.0 0.0 0.0

-3.185198179621705e6 2.1036336073369637e7 0.0
2.1036336073369637e7 1.4945766438351532e7 0.0
0.0 0.0 0.0

-8.135636113256434e6 -2.549009603843289e6 0.0
-2.549009603843289e6 3.712280326616071e7 0.0
0.0 0.0 0.0

-927104.2637569578 2.103583793917829e7 0.0
2.103583793917829e7 1.817800415546453e7 0.0
0.0 0.0 0.0

-1.2100716744743595e7 2.6083054553436615e7 0.0
2.6083054553436615e7 -1.1904361920680001e7 0.0
0.0 0.0 0.0

-6.327451583569757e6 1.1088229206014654e7 0.0
1.1088229206014654e7 7.534904921066855e6 0.0
0.0 0.0 0.0

4.1130938800746184e6 1.9625745754791666e7 0.0
1.9625745754791666e7 4.081035324896832e7 0.0
0.0 0.0 0.0

-7.637884176553663e6 1.7739531929451395e7 0.0
1.7739531929451395e7 2.048061202573812e7 0.0
0.0 0.0 0.0

-8.895565325436693e6 1.5941053660147456e7 0.0
1.5941053660147456e7 2.0187120848577403e7 0.0
0.0 0.0 0.0

-8.15161448830533e6 1.159425460356438e7 0.0
1.159425460356438e7 4.0960276130652815e7 0.0
0.0 0.0 0.0

-738219.9232739788 2.0733714278713774e7 0.0
2.0733714278713774e7 2.2674109020640664e7 0.0
0.0 0.0 0.0

-9.524084135025777e6 3.2439817273402058e7 0.0
3.2439817273402058e7 5.425782215889974e6 0.0
0.0 0.0 0.0

147774.94308450015 3.601790853158286e7 0.0
3.601790853158286e7 -1.364202053933098e6 0.0
0.0 0.0 0.0

-3.3605734975551344e6 2.3417966388123706e7 0.0
2.3417966388123706e7 1.1394651156774672e7 0.0
0.0 0.0 0.0

2.239825054527289e6 2.7434344434406534e6 0.0
2.7434344434406534e6 -6.659798868916584e6 0.0
0.0 0.0 0.0

2.0552761721520126e6 1.2288196147921879e7 0.0
1.2288196147921879e7 -2.1277185763664685e7 0.0
0.0 0.0 0.0

1.760607349459323e6 1.2165318824463237e7 0.0
1.2165318824463237e7 -1.6365598436693253e7 0.0
0.0 0.0 0.0

-4.650695058014451e6 1.885838655627644e7 0.0
1.885838655627644e7 1.2702499234409312e7 0.0
0.0 0.0 0.0

-758493.5585573289 4.8797175886664465e7 0.0
4.8797175886664465e7 -3.3269794210426197e6 0.0
0.0 0.0 0.0

-9.987752773582853e6 9.026517472500332e6 0.0
9.026517472500332e6 1.3111208656568691e7 0.0
0.0 0.0 0.0

3.1171190514569813e6 3.177279542206531e7 0.0
3.177279542206531e7 -3.611997378143478e6 0.0
0.0 0.0 0.0

5.256633572917912e6 2.9018796071364455e7 0.0
2.9018796071364455e7 -6.330447732040717e6 0.0
0.0 0.0 0.0

-4.367993016354345e6 1.1957300613397896e7 0.0
1.1957300613397896e7 8.875584536355428e6 0.0
0.0 0.0 0.0

-281210.7542320387 1.972430777939769e7 0.0
1.972430777939769e7 1.3134496054117035e6 0.0
0.0 0.0 0.0

2.1563602143047202e7 2.3849568921287883e7 0.0
2.3849568921287883e7 1.0831480906514784e7 0.0
0.0 0.0 0.0

8.804195804520052e6 2.0591812352054037e7 0.0
2.0591812352054037e7 3.951524598517749e7 0.0
0.0 0.0 0.0

2.2488321503271605e6 1.995227864875354e7 0.0
1.995227864875354e7 1.6183045813345186e7 0.0
0.0 0.0 0.0

-7.733897506827262e6 1.720161649873248e7 0.0
1.720161649873248e7 1.9599038287571877e7 0.0
0.0 0.0 0.0

-30060.402119902195 4.5494817613606445e7 0.0
4.5494817613606445e7 -2.6317304363788953e6 0.0
0.0 0.0 0.0

-2.0921376560534913e7 2.8567614899043582e7 0.0
2.8567614899043582e7 -9.907902445102211e6 0.0
0.0 0.0 0.0

-8.711172132282661e6 1.652145027540728e7 0.0
1.652145027540728e7 2.1086343503227733e7 0.0
0.0 0.0 0.0

-149148.1693213731 1.345217874138621e7 0.0
1.345217874138621e7 -3.721194047062319e7 0.0
0.0 0.0 0.0

2.7596519348858222e6 1.5262016853874326e6 0.0
1.5262016853874326e6 -4.209032393702068e7 0.0
0.0 0.0 0.0

1.0084519309460549e6 1.8327237979609117e7 0.0
1.8327237979609117e7 -1.7509631001682647e7 0.0
0.0 0.0 0.0

1.8460672370592523e6 1.299632232056076e7 0.0
1.299632232056076e7 -2.0065942528651558e7 0.0
0.0 0.0 0.0

862754.6302957684 1.9967823599244766e7 0.0
1.9967823599244766e7 -1.5361478598895313e7 0.0
0.0 0.0 0.0

-1.577328619074566e6 5.294643903633296e7 0.0
5.294643903633296e7 -5.350178643808187e6 0.0
0.0 0.0 0.0

-2.158097079199963e6 2.5590850676527765e7 0.0
2.5590850676527765e7 4.889096396950246e6 0.0
0.0 0.0 0.0

933148.6855372335 2.344496648210622e7 0.0
2.344496648210622e7 -1.2354297374493707e7 0.0
0.0 0.0 0.0

355473.1093806587 2.260898914778246e7 0.0
2.260898914778246e7 -1.2911590627232168e7 0.0
0.0 0.0 0.0

2.182130459095491e6 1.1237544718660215e7 0.0
1.1237544718660215e7 -1.966524809103124e7 0.0
0.0 0.0 0.0

-3.5931204762068596e6 2.4570635343464606e7 0.0
2.4570635343464606e7 1.163440267696787e7 0.0
0.0 0.0 0.0

698727.009349783 2.145510241855689e7 0.0
2.145510241855689e7 2.0086754463418406e7 0.0
0.0 0.0 0.0

-6.779657495388683e6 2.573462289752227e7 0.0
2.573462289752227e7 8.310056776730664e6 0.0
0.0 0.0 0.0

-2.6036966200513877e6 8.859067764797462e6 0.0
8.859067764797462e6 7.657213206192368e7 0.0
0.0 0.0 0.0

-8.999401066250985e6 -1.0549587797183443e6 0.0
-1.0549587797183443e6 2.3699248154596847e7 0.0
0.0 0.0 0.0

-1.0546493960341208e7 7.93487104723131e7 0.0
7.93487104723131e7 -1.6865125325212713e7 0.0
0.0 0.0 0.0

4.763007600488646e6 1.952924658960981e7 0.0
1.952924658960981e7 2.481178065486562e7 0.0
0.0 0.0 0.0

330600.28105065075 4.3272860482578e7 0.0
4.3272860482578e7 -1.9159302553106553e6 0.0
0.0 0.0 0.0

305026.1077313754 1.961268547709207e7 0.0
1.961268547709207e7 -1.2311062867689438e7 0.0
0.0 0.0 0.0

1.6703730016270922e6 2.277204281307183e7 0.0
2.277204281307183e7 -1.1804828844029497e7 0.0
0.0 0.0 0.0

-2.586444284445858e6 2.6728162557590153e7 0.0
2.6728162557590153e7 6.946945688093296e6 0.0
0.0 0.0 0.0

3.6913265021719458e6 2.0866476897831848e6 0.0
2.0866476897831848e6 -2.3349227580094844e7 0.0
0.0 0.0 0.0

1.0001670684424106e7 2.213761022898743e7 0.0
2.213761022898743e7 3.495545732540045e6 0.0
0.0 0.0 0.0

1.974982650264021e6 1.2896779974430349e7 0.0
1.2896779974430349e7 -2.2017011679809034e7 0.0
0.0 0.0 0.0

5.409906371479545e6 2.6360033441091888e7 0.0
2.6360033441091888e7 -7.018734339877622e6 0.0
0.0 0.0 0.0

2.3978283902012464e6 8.028101622033038e6 0.0
8.028101622033038e6 -3.562257236802576e7 0.0
0.0 0.0 0.0

-2.5418966849769442e6 2.2194033911050737e7 0.0
2.2194033911050737e7 1.053556725670865e7 0.0
0.0 0.0 0.0

2.6616730769836614e6 7.606087540135942e6 0.0
7.606087540135942e6 -1.4126498995252425e7 0.0
0.0 0.0 0.0

-2.125421103563153e6 1.2321538279916799e7 0.0
1.2321538279916799e7 1.3135331661344687e6 0.0
0.0 0.0 0.0

-1.9174717563920338e7 2.5521355283697397e7 0.0
2.5521355283697397e7 -6.626595106737278e6 0.0
0.0 0.0 0.0

2.385563290713962e6 1.0667332604790859e7 0.0
1.0667332604790859e7 -2.5660686028673943e7 0.0
0.0 0.0 0.0

-2.6410594914902584e6 1.8530974566471368e7 0.0
1.8530974566471368e7 -3.5647829055167534e6 0.0
0.0 0.0 0.0

273588.4497417575 2.409936663785167e7 0.0
2.409936663785167e7 -1.0539410203181531e7 0.0
0.0 0.0 0.0

-417650.57949562743 2.006221380109773e7 0.0
2.006221380109773e7 2.870027910651634e7 0.0
0.0 0.0 0.0

458995.66883676057 2.163047357152352e7 0.0
2.163047357152352e7 -1.8115371640964672e6 0.0
0.0 0.0 0.0

-5.409243485943512e6 1.7672731728870966e7 0.0
1.7672731728870966e7 1.3334579577518243e7 0.0
0.0 0.0 0.0

-1.014615806505247e7 9.104580820625732e6 0.0
9.104580820625732e6 3.5651590255043924e7 0.0
0.0 0.0 0.0

114104.98945187032 2.0448003444109682e7 0.0
2.0448003444109682e7 2.9234238163150746e7 0.0
0.0 0.0 0.0

-6.578184757151834e6 1.8834281876313582e7 0.0
1.8834281876313582e7 1.9724841149457514e7 0.0
0.0 0.0 0.0

-1.0418588851536691e7 4.487117374546381e6 0.0
4.487117374546381e6 3.1907561146957025e7 0.0
0.0 0.0 0.0

-3.7374522580242e6 2.0345775254241284e7 0.0
2.0345775254241284e7 1.6718999303518994e7 0.0
0.0 0.0 0.0

-3.9331493719273694e6 2.2897234208406895e7 0.0
2.2897234208406895e7 1.7266350048958212e7 0.0
0.0 0.0 0.0

-9.890207986331739e6 7.290995740957977e6 0.0
7.290995740957977e6 1.8204906929302048e7 0.0
0.0 0.0 0.0

332307.42023206037 2.3361636624789797e7 0.0
2.3361636624789797e7 -1.1730847792666188e7 0.0
0.0 0.0 0.0

-2.836247241727257e6 2.6752512171595678e7 0.0
2.6752512171595678e7 4.336988309974961e6 0.0
0.0 0.0 0.0

-6.407828325856694e6 1.9318018425605062e7 0.0
1.9318018425605062e7 2.0468484996771462e7 0.0
0.0 0.0 0.0

-8.589731348770991e6 4.314344297362442e6 0.0
4.314344297362442e6 4.589566056797468e7 0.0
0.0 0.0 0.0

-1.8733071700061485e6 2.2451331141563408e7 0.0
2.2451331141563408e7 1.397754892302031e7 0.0
0.0 0.0 0.0

-8.247606969395993e6 1.5804647820787536e7 0.0
1.5804647820787536e7 2.2458626196888134e7 0.0
0.0 0.0 0.0

441398.56814710237 1.3129864130807253e7 0.0
1.3129864130807253e7 -3.497007486732043e7 0.0
0.0 0.0 0.0

-772267.1907764468 1.9261418131065678e7 0.0
1.9261418131065678e7 3.574936385446469e7 0.0
0.0 0.0 0.0

-8.13728775434212e6 1.729272844686461e7 0.0
1.729272844686461e7 2.6138909813858747e7 0.0
0.0 0.0 0.0

1.7700278681337321e6 1.1610385341514144e7 0.0
1.1610385341514144e7 -1.5516356071361221e7 0.0
0.0 0.0 0.0

2.684336227310477e6 3.4121366744579887e6 0.0
3.4121366744579887e6 -3.3209921343549356e7 0.0
0.0 0.0 0.0

3.4731259184239684e6 1.9582920169428725e7 0.0
1.9582920169428725e7 3.1594022230181765e7 0.0
0.0 0.0 0.0

1.5069059324433282e6 1.97018883689611e7 0.0
1.97018883689611e7 3.379884011276084e7 0.0
0.0 0.0 0.0

-541946.8927806383 1.9006909399752982e7 0.0
1.9006909399752982e7 -8.675901554015297e6 0.0
0.0 0.0 0.0

-3.6363327048514676e6 2.599901002858864e7 0.0
2.599901002858864e7 1.1284407049822848e7 0.0
0.0 0.0 0.0

386862.145163598 3.8947690280773155e7 0.0
3.8947690280773155e7 -1.5960497454842622e6 0.0
0.0 0.0 0.0

766345.5338998921 2.1531868632058755e7 0.0
2.1531868632058755e7 -1.4209011365344716e7 0.0
0.0 0.0 0.0

-9.621720699505903e6 143891.03144813539 0.0
143891.03144813539 2.4770744367973898e7 0.0
0.0 0.0 0.0

63507.777638358995 1.5442621337379776e7 0.0
1.5442621337379776e7 -2.9972763530538052e7 0.0
0.0 0.0 0.0

-3.0024416532676946e6 2.31803956626181e7 0.0
2.31803956626181e7 1.4211987768001422e7 0.0
0.0 0.0 0.0

-8.882827649949484e6 1.6043984909438634e7 0.0
1.6043984909438634e7 2.693265617350748e7 0.0
0.0 0.0 0.0

4.14306652247507e6 1.70710342486898e7 0.0
1.70710342486898e7 1.4229173755616859e7 0.0
0.0 0.0 0.0

709595.5218312163 1.0355076830724495e7 0.0
1.0355076830724495e7 -4.109282478625454e7 0.0
0.0 0.0 0.0

794791.488875106 1.2998017134980176e7 0.0
1.2998017134980176e7 -3.2701549581480775e7 0.0
0.0 0.0 0.0

1.0063324768503316e7 4.16294617592329e7 0.0
4.16294617592329e7 -5.563770554493593e6 0.0
0.0 0.0 0.0

-2.000401984123118e6 2.6128029965361115e7 0.0
2.6128029965361115e7 3.7843644078093683e6 0.0
0.0 0.0 0.0

-2.5136670158990514e6 2.7339976093495715e7 0.0
2.7339976093495715e7 5.8737999660186935e6 0.0
0.0 0.0 0.0

-1.4084562748657123e6 2.7773210095647242e7 0.0
2.7773210095647242e7 -2.3859858938865894e6 0.0
0.0 0.0 0.0

3.5885087491051555e6 4.216929575286666e6 0.0
4.216929575286666e6 -1.9308235801858816e7 0.0
0.0 0.0 0.0

-2.377074705834931e6 1.8356696699230798e7 0.0
1.8356696699230798e7 -8.488531319960825e6 0.0
0.0 0.0 0.0

-2.846988537007137e6 2.3010714239894383e7 0.0
2.3010714239894383e7 1.344194732441783e7 0.0
0.0 0.0 0.0

1.4435165946282726e6 2.40491131586129e7 0.0
2.40491131586129e7 -1.1357645613403976e7 0.0
0.0 0.0 0.0

369046.37025013706 3.78284174763101e7 0.0
3.78284174763101e7 -1.4355182260654496e6 0.0
0.0 0.0 0.0

-7.244349876138049e6 1.014570498136802e7 0.0
1.014570498136802e7 1.485694908858622e7 0.0
0.0 0.0 0.0

-1.0895569144492492e7 1.1548208886125123e7 0.0
1.1548208886125123e7 2.9274133736262597e7 0.0
0.0 0.0 0.0

261793.4232828634 3.692278435015013e7 0.0
3.692278435015013e7 -1.2688054600268714e6 0.0
0.0 0.0 0.0

232335.6337591717 2.487497632534327e7 0.0
2.487497632534327e7 -9.425513832843153e6 0.0
0.0 0.0 0.0

1.37255242266104e6 1.1730278781822274e7 0.0
1.1730278781822274e7 -2.046122958634964e7 0.0
0.0 0.0 0.0

-3.9499213201124845e6 1.851937452153367e7 0.0
1.851937452153367e7 1.5336246031895004e7 0.0
0.0 0.0 0.0

740453.8562772423 9.554419706511492e6 0.0
9.554419706511492e6 -4.316162382365727e7 0.0
0.0 0.0 0.0

-820286.9167146607 3.2145326260460936e7 0.0
3.2145326260460936e7 638126.8467373138 0.0
0.0 0.0 0.0

-3.747037956655045e6 2.374852679545847e7 0.0
2.374852679545847e7 1.076138645767378e7 0.0
0.0 0.0 0.0

-747760.2956520915 1.4333834254028793e7 0.0
1.4333834254028793e7 -3.75286293172941e7 0.0
0.0 0.0 0.0

-3.502181102628085e6 2.795586612369191e7 0.0
2.795586612369191e7 6.08351498606747e6 0.0
0.0 0.0 0.0

-1.0577257694286885e7 1.1146561719493907e7 0.0
1.1146561719493907e7 3.143604742303935e7 0.0
0.0 0.0 0.0

1.1474969658281999e6 1.1397310938791737e7 0.0
1.1397310938791737e7 -1.7561663543101564e7 0.0
0.0 0.0 0.0

2.41359185240783e6 2.2646855448972106e7 0.0
2.2646855448972106e7 1.1397271136922516e7 0.0
0.0 0.0 0.0

-2.457886016438156e6 2.525457752930182e7 0.0
2.525457752930182e7 8.354201418646951e6 0.0
0.0 0.0 0.0

-1.4614486508639418e6 1.5331647523827096e7 0.0
1.5331647523827096e7 -3.711006142415736e7 0.0
0.0 0.0 0.0

-2.223649148543622e6 5.867713482453431e7 0.0
5.867713482453431e7 -8.401419751087435e6 0.0
0.0 0.0 0.0

-7.375830769615246e6 1.8575453360465996e7 0.0
1.8575453360465996e7 2.3759763394156605e7 0.0
0.0 0.0 0.0

-1.2721686810775552e7 1.8809616505811226e7 0.0
1.8809616505811226e7 -6.1405190161921866e7 0.0
0.0 0.0 0.0

-5.330522065982621e6 1.0793484615327427e7 0.0
1.0793484615327427e7 1.102500914552974e7 0.0
0.0 0.0 0.0

-3.828225005497165e6 2.143593398180169e7 0.0
2.143593398180169e7 1.2659784341011211e7 0.0
0.0 0.0 0.0

-3.463671918187214e6 1.9005606808388617e7 0.0
1.9005606808388617e7 3.295680240462637e7 0.0
0.0 0.0 0.0

-4.638068951349727e6 1.7316405242798112e7 0.0
1.7316405242798112e7 1.6082255592366073e7 0.0
0.0 0.0 0.0

1.1838757095307857e6 1.7624322806920353e7 0.0
1.7624322806920353e7 6.264242012156804e7 0.0
0.0 0.0 0.0

-2.7358137052604994e6 2.1464522063199513e7 0.0
2.1464522063199513e7 1.2133249183041593e7 0.0
0.0 0.0 0.0

-1.73807049820117e6 1.910590289203989e7 0.0
1.910590289203989e7 -2.4950495837642692e7 0.0
0.0 0.0 0.0

878188.6826793896 2.199465816411396e7 0.0
2.199465816411396e7 -1.4992323086168407e7 0.0
0.0 0.0 0.0

1.691441955964852e8 2.9906087416214306e7 0.0
2.9906087416214306e7 1.6015474117837965e7 0.0
0.0 0.0 0.0

-8.032626938041817e6 -2.446197414855395e6 0.0
-2.446197414855395e6 3.839682076037052e7 0.0
0.0 0.0 0.0

2.9705054063257985e6 1.5619566919833296e6 0.0
1.5619566919833296e6 -3.82872683286087e7 0.0
0.0 0.0 0.0

-9.549319870432321e6 1.3942261207371664e6 0.0
1.3942261207371664e6 1.3796681065541614e7 0.0
0.0 0.0 0.0

-1.2057732294801408e6 2.7146928429634113e7 0.0
2.7146928429634113e7 -3.3882909767510905e6 0.0
0.0 0.0 0.0

-7.154957913236126e6 -1.6810427995143046e6 0.0
-1.6810427995143046e6 4.928423127160369e7 0.0
0.0 0.0 0.0

-8.293114668282637e6 1.7892175077944767e7 0.0
1.7892175077944767e7 -3.652037264365402e7 0.0
0.0 0.0 0.0

-9.718219721186722e6 1.4497944641042339e7 0.0
1.4497944641042339e7 2.7518923895029083e7 0.0
0.0 0.0 0.0

-6.28233649728376e6 1.9761285863655612e7 0.0
1.9761285863655612e7 2.1053234209726598e7 0.0
0.0 0.0 0.0

2.64327294019871e6 1.4750540417907212e6 0.0
1.4750540417907212e6 -4.33896951571471e7 0.0
0.0 0.0 0.0

903682.8871953143 1.8995639677166488e7 0.0
1.8995639677166488e7 -1.618632436592819e7 0.0
0.0 0.0 0.0

364152.889298175 4.026499426865358e7 0.0
4.026499426865358e7 -1.3513429229238897e6 0.0
0.0 0.0 0.0

803811.1547697242 1.213898488750056e7 0.0
1.213898488750056e7 -1.6370361750893174e7 0.0
0.0 0.0 0.0

-3.976691809218403e6 2.3034091559716307e7 0.0
2.3034091559716307e7 -4.37613157088132e6 0.0
0.0 0.0 0.0

649022.445930168 9.079595921299413e6 0.0
9.079595921299413e6 1.0681269827072325e8 0.0
0.0 0.0 0.0

-3.1022188510336727e6 8.65184671293266e6 0.0
8.65184671293266e6 -1.0204881264969656e8 0.0
0.0 0.0 0.0

-7.0361456502458565e6 1.7777700843040638e7 0.0
1.7777700843040638e7 -8.612837066028017e7 0.0
0.0 0.0 0.0

1.2159061302642627e6 1.70534789240081e7 0.0
1.70534789240081e7 -2.0123054796018314e7 0.0
0.0 0.0 0.0

1.858228894605497e6 7.2884325367286485e6 0.0
7.2884325367286485e6 -4.675888833069351e7 0.0
0.0 0.0 0.0

-2.6747241299420647e7 3.043250467750429e7 0.0
3.043250467750429e7 1.9938069954470843e6 0.0
0.0 0.0 0.0

1.268549428021715e6 2.337105106726526e7 0.0
2.337105106726526e7 -1.2619892431984529e7 0.0
0.0 0.0 0.0

-7.871057406329224e6 -2.395672266775489e6 0.0
-2.395672266775489e6 3.968815556401156e7 0.0
0.0 0.0 0.0

-7.6499136205658745e6 1.3027557403572941e7 0.0
1.3027557403572941e7 1.6350871640501086e7 0.0
0.0 0.0 0.0

-2.374113971354246e6 2.7917206627621163e7 0.0
2.7917206627621163e7 4.8272512166473875e6 0.0
0.0 0.0 0.0

-3.5520460646167947e6 2.367058863961202e7 0.0
2.367058863961202e7 1.2257130881204426e7 0.0
0.0 0.0 0.0

-7.848315319688585e6 1.6124840246499887e7 0.0
1.6124840246499887e7 1.740908614407998e7 0.0
0.0 0.0 0.0

-8.848205004411478e6 8.660178095415495e6 0.0
8.660178095415495e6 1.7009772229117256e7 0.0
0.0 0.0 0.0

8.247781970620836e6 2.208764059514967e7 0.0
2.208764059514967e7 5.511642897395329e6 0.0
0.0 0.0 0.0

129344.63046668004 2.5688705664353278e7 0.0
2.5688705664353278e7 -8.356095548299002e6 0.0
0.0 0.0 0.0

-3.6940944041894665e6 6.903776766034917e6 0.0
6.903776766034917e6 1.167142441732414e6 0.0
0.0 0.0 0.0

520548.37283556 2.9565033475336976e7 0.0
2.9565033475336976e7 -2.7261958089035265e6 0.0
0.0 0.0 0.0

-8.715855706452966e6 1.737749702419962e7 0.0
1.737749702419962e7 2.602189521650176e7 0.0
0.0 0.0 0.0

-3.781211625553081e6 1.811077818299414e7 0.0
1.811077818299414e7 1.4035133800833292e7 0.0
0.0 0.0 0.0

-7.727350032046456e6 -2.2820630393373235e6 0.0
-2.2820630393373235e6 4.096984395254054e7 0.0
0.0 0.0 0.0

2.7551260047007073e6 1.5419890992055198e6 0.0
1.5419890992055198e6 -4.079396572894612e7 0.0
0.0 0.0 0.0

1.6488090153688844e6 7.593647201025059e6 0.0
7.593647201025059e6 -4.9937178115165375e7 0.0
0.0 0.0 0.0

-1.083005420349223e7 1.3507480117230102e7 0.0
1.3507480117230102e7 2.6105668441113546e7 0.0
0.0 0.0 0.0

-972664.1913977228 5.1887806615304155e6 0.0
5.1887806615304155e6 -8.843300206391336e7 0.0
0.0 0.0 0.0

-5.671927598706808e6 -233912.2957179601 0.0
-233912.2957179601 6.5153761978948906e7 0.0
0.0 0.0 0.0

1.5672452224002834e6 1.1013219303506466e7 0.0
1.1013219303506466e7 -2.1745123037087485e7 0.0
0.0 0.0 0.0

2.6501157312716823e6 9.47487088873536e6 0.0
9.47487088873536e6 -2.424617772948129e7 0.0
0.0 0.0 0.0

6.68322596972462e6 3.683352691550162e7 0.0
3.683352691550162e7 -3.061091678631399e6 0.0
0.0 0.0 0.0

-7.49826366809587e6 3.233130433834595e7 0.0
3.233130433834595e7 6.043207716001524e6 0.0
0.0 0.0 0.0

-2.600322464996488e6 2.4630277871701453e7 0.0
2.4630277871701453e7 9.536453851288136e6 0.0
0.0 0.0 0.0

802241.9119655064 2.8280417667786226e7 0.0
2.8280417667786226e7 -4.574678640985247e6 0.0
0.0 0.0 0.0

-943426.6419888474 3.755932421685826e7 0.0
3.755932421685826e7 1.1852922203477428e6 0.0
0.0 0.0 0.0

-2.8724023115840326e6 2.620580953971721e7 0.0
2.620580953971721e7 8.959572519776173e6 0.0
0.0 0.0 0.0

900883.5989121944 2.0603635685238335e7 0.0
2.0603635685238335e7 1.3178942250021555e7 0.0
0.0 0.0 0.0

600164.8296341673 2.6698425260249237e6 0.0
2.6698425260249237e6 -7.430517975252143e7 0.0
0.0 0.0 0.0

2.433070739318939e6 1.367985764742051e6 0.0
1.367985764742051e6 -4.8798514267758705e7 0.0
0.0 0.0 0.0

1.4648818241445683e6 1.7298225519416502e6 0.0
1.7298225519416502e6 -6.385743008885427e7 0.0
0.0 0.0 0.0

-2.3666868984322716e6 2.8225362610037528e7 0.0
2.8225362610037528e7 1.4173676766165348e6 0.0
0.0 0.0 0.0

-6.947464485459304e6 1.175908224333935e7 0.0
1.175908224333935e7 9.375661286129067e6 0.0
0.0 0.0 0.0

-6.882187893385861e6 -1.5324947930565558e6 0.0
-1.5324947930565558e6 5.072678181136933e7 0.0
0.0 0.0 0.0

-1.0774750603478836e7 1.3888223288036391e7 0.0
1.3888223288036391e7 2.4330525534672122e7 0.0
0.0 0.0 0.0

3.4124046633273717e6 3.529797325632313e6 0.0
3.529797325632313e6 -2.5788997762340274e7 0.0
0.0 0.0 0.0

-1.5405285985698761e7 2.9834162955258343e7 0.0
2.9834162955258343e7 4.82035874672767e6 0.0
0.0 0.0 0.0

-7.914379742148309e6 1.8961680248560335e7 0.0
1.8961680248560335e7 -3.0947859920333546e7 0.0
0.0 0.0 0.0

-8.305641343493963e6 -3.069309754282362e6 0.0
-3.069309754282362e6 3.2932633691153675e7 0.0
0.0 0.0 0.0

-1.1503819313195214e7 5.525762471075941e6 0.0
5.525762471075941e6 2.307514880187352e7 0.0
0.0 0.0 0.0

-9.814761419685367e6 1.035907886277193e7 0.0
1.035907886277193e7 3.6425673753277116e7 0.0
0.0 0.0 0.0

-3.4695493785185684e6 2.1876318262702383e7 0.0
2.1876318262702383e7 2.0177576179212317e7 0.0
0.0 0.0 0.0

999712.380566122 1.35980454881676e7 0.0
1.35980454881676e7 -2.9030020107229006e7 0.0
0.0 0.0 0.0

1.2948908359530382e6 2.2058450371618215e6 0.0
2.2058450371618215e6 -7.032261011943963e7 0.0
0.0 0.0 0.0

3.0230181698534302e6 1.6605696292017298e6 0.0
1.6605696292017298e6 -3.46599944641665e7 0.0
0.0 0.0 0.0

1.549396871937812e7 3.9417492022658385e7 0.0
3.9417492022658385e7 -7.03624903572238e6 0.0
0.0 0.0 0.0

-5.990304990448371e6 -444874.1291893566 0.0
-444874.1291893566 6.257980816240968e7 0.0
0.0 0.0 0.0

1.6860405844494049e6 8.937475452390026e6 0.0
8.937475452390026e6 -4.226841258396734e7 0.0
0.0 0.0 0.0

-4.431774964111142e6 2.561664321230854e6 0.0
2.561664321230854e6 8.277855156520772e7 0.0
0.0 0.0 0.0

395133.728066843 3.509065286625362e6 0.0
3.509065286625362e6 -7.999577163633873e7 0.0
0.0 0.0 0.0

-3.8593863572313036e6 2.7664452029187478e7 0.0
2.7664452029187478e7 8.901397765456231e6 0.0
0.0 0.0 0.0

-1.386067176131781e6 1.346352534577104e7 0.0
1.346352534577104e7 -7.327540852795222e6 0.0
0.0 0.0 0.0

-512292.16045081103 2.0000140779928565e7 0.0
2.0000140779928565e7 -1.2949766066591596e7 0.0
0.0 0.0 0.0

294041.846542852 1.8524965155011933e7 0.0
1.8524965155011933e7 -2.16911741951054e7 0.0
0.0 0.0 0.0

-5.25406261291514e6 103661.61759063709 0.0
103661.61759063709 6.830351277010548e7 0.0
0.0 0.0 0.0

1.2535496487237476e6 1.993476443492211e6 0.0
1.993476443492211e6 -6.686103243655146e7 0.0
0.0 0.0 0.0

-7.812275766566822e6 1.8137483308912456e7 0.0
1.8137483308912456e7 2.6733842250556678e7 0.0
0.0 0.0 0.0

-9.141601369208835e6 1.6821807003393795e7 0.0
1.6821807003393795e7 2.543367600194642e7 0.0
0.0 0.0 0.0

-1.0246551127421252e7 1.2151912732236521e7 0.0
1.2151912732236521e7 3.2176725186378345e7 0.0
0.0 0.0 0.0

-5.791335198017897e6 1.657542709206228e7 0.0
1.657542709206228e7 1.8146214320413448e7 0.0
0.0 0.0 0.0

5.199293604378441e6 2.011133768310891e7 0.0
2.011133768310891e7 4.149832422424777e7 0.0
0.0 0.0 0.0

1.1683280255431356e6 2.6304408455773976e7 0.0
2.6304408455773976e7 -7.384816265975455e6 0.0
0.0 0.0 0.0

-2.1958378444805923e6 3.0102618211294588e7 0.0
3.0102618211294588e7 714675.9941483712 0.0
0.0 0.0 0.0

971446.2945046234 2.784721317657333e7 0.0
2.784721317657333e7 -6.251802256439993e6 0.0
0.0 0.0 0.0

2.320971775396889e6 1.105010886071601e7 0.0
1.105010886071601e7 -2.17146513406535e7 0.0
0.0 0.0 0.0

-4.2290027515187e6 3.0765562162737206e7 0.0
3.0765562162737206e7 5.7709865106225945e6 0.0
0.0 0.0 0.0

-2.307236004834173e6 2.201873818935498e7 0.0
2.201873818935498e7 -6.136279674906558e6 0.0
0.0 0.0 0.0

1.4593962054104088e6 1.583600201754416e7 0.0
1.583600201754416e7 -2.2767387485014804e7 0.0
0.0 0.0 0.0

-7.89236848791662e6 1.6182858397000117e7 0.0
1.6182858397000117e7 3.314089619967649e7 0.0
0.0 0.0 0.0

-1.0413064305377493e7 1.4235847328758167e7 0.0
1.4235847328758167e7 2.6938634989788055e7 0.0
0.0 0.0 0.0

1.8714766680199318e6 1.0037297553302243e7 0.0
1.0037297553302243e7 -2.5130007906938728e7 0.0
0.0 0.0 0.0

-7.4820503314138595e6 -2.0216363231842024e6 0.0
-2.0216363231842024e6 4.4980145297322154e7 0.0
0.0 0.0 0.0

2.5332726845063455e6 1.4804090721304873e6 0.0
1.4804090721304873e6 -4.469289315790688e7 0.0
0.0 0.0 0.0

483400.8407216137 2.028028445810203e7 0.0
2.028028445810203e7 2.5561965617575027e7 0.0
0.0 0.0 0.0

-6.1181706829588525e6 -641778.1415639474 0.0
-641778.1415639474 6.016319644010684e7 0.0
0.0 0.0 0.0

1.6536004489018172e6 1.5938571462411908e6 0.0
1.5938571462411908e6 -5.9076979583045565e7 0.0
0.0 0.0 0.0

2.4344931139904335e6 1.529509550465237e6 0.0
1.529509550465237e6 -4.598462568357257e7 0.0
0.0 0.0 0.0

-7.328084488717146e6 -1.865340710870774e6 0.0
-1.865340710870774e6 4.633256527989235e7 0.0
0.0 0.0 0.0

-2.3159444353880174e6 1.786750988530939e7 0.0
1.786750988530939e7 4.2600269836368784e7 0.0
0.0 0.0 0.0

1.8870272818061113e6 1.5027591942172218e6 0.0
1.5027591942172218e6 -5.715101421535621e7 0.0
0.0 0.0 0.0

-6.274625951950535e6 -923905.69880618 0.0
-923905.69880618 5.787359306818254e7 0.0
0.0 0.0 0.0

-2.957316745975825e6 2.1394427995765798e7 0.0
2.1394427995765798e7 2.3018950408520423e7 0.0
0.0 0.0 0.0

-8.272668014649099e6 522562.7742445359 0.0
522562.7742445359 4.095199896305616e7 0.0
0.0 0.0 0.0

-7.244511971377019e6 -1.7313852201853525e6 0.0
-1.7313852201853525e6 4.783475708812517e7 0.0
0.0 0.0 0.0

2.5818808606121056e6 1.4885673482376442e6 0.0
1.4885673482376442e6 -4.7459771421636544e7 0.0
0.0 0.0 0.0

1.9695055058466755e6 1.5242464734490986e6 0.0
1.5242464734490986e6 -5.529710213541567e7 0.0
0.0 0.0 0.0

-6.486175857304424e6 -1.1682555726445536e6 0.0
-1.1682555726445536e6 5.587531553025385e7 0.0
0.0 0.0 0.0

-3.029692640969793e8 6.72568329992332e7 0.0
6.72568329992332e7 -3.768925860671805e7 0.0
0.0 0.0 0.0

2.874870144718102e8 5.852186770667275e7 0.0
5.852186770667275e7 2.8521426239306442e7 0.0
0.0 0.0 0.0

-7.809045724564255e6 1.667004932646133e7 0.0
1.667004932646133e7 1.855366557083619e7 0.0
0.0 0.0 0.0

1.9029715447987095e6 1.4201391576060848e6 0.0
1.4201391576060848e6 -5.348513826306852e7 0.0
0.0 0.0 0.0

-6.763467645995956e6 -1.282275083239326e6 0.0
-1.282275083239326e6 5.42068694732058e7 0.0
0.0 0.0 0.0

339805.99816371955 2.0259622572827686e7 0.0
2.0259622572827686e7 -1.400634054165732e6 0.0
0.0 0.0 0.0

-1.0021330194203619e7 1.5314662876623228e7 0.0
1.5314662876623228e7 2.5866602179837607e7 0.0
0.0 0.0 0.0

-2.1655206153542465e6 2.8469062973049566e7 0.0
2.8469062973049566e7 3.8833207949196254e6 0.0
0.0 0.0 0.0

1.2422721199961202e6 2.0868715741776753e7 0.0
2.0868715741776753e7 2.64112851748098e7 0.0
0.0 0.0 0.0

-6.868199663637977e6 -1.353924909515307e6 0.0
-1.353924909515307e6 5.248675846144808e7 0.0
0.0 0.0 0.0

2.150271301195111e6 1.2973368695291302e6 0.0
1.2973368695291302e6 -5.198107809331034e7 0.0
0.0 0.0 0.0

117647.54643631447 2.6452703575352084e7 0.0
2.6452703575352084e7 -7.315708192449316e6 0.0
0.0 0.0 0.0

-9.432379020538433e6 1.8535284490992025e7 0.0
1.8535284490992025e7 -6.286799433748518e7 0.0
0.0 0.0 0.0

-667515.4215875189 2.9660916525158115e7 0.0
2.9660916525158115e7 -2.5336565112017766e6 0.0
0.0 0.0 0.0

1.1516508173846053e6 1.7697742461031836e7 0.0
1.7697742461031836e7 -1.8791798813863024e7 0.0
0.0 0.0 0.0

282308.19491634145 1.6496002518022908e7 0.0
1.6496002518022908e7 -2.640877456911488e7 0.0
0.0 0.0 0.0

-21079.58850562526 2.077507628472265e7 0.0
2.077507628472265e7 7.545720478271961e6 0.0
0.0 0.0 0.0

2.7515057783706156e6 2.633306377327837e7 0.0
2.633306377327837e7 -8.76165734630258e6 0.0
0.0 0.0 0.0

1.3737066823202264e6 2.4030467817586824e7 0.0
2.4030467817586824e7 -1.1234358583690125e7 0.0
0.0 0.0 0.0

-6.746955480501028e6 1.730235898791739e7 0.0
1.730235898791739e7 -4.847094694297209e7 0.0
0.0 0.0 0.0

-1.3722622770449575e6 2.9751981767911494e7 0.0
2.9751981767911494e7 1.253542497220023e6 0.0
0.0 0.0 0.0

-3.0548185661890926e6 2.4145957954191387e7 0.0
2.4145957954191387e7 1.0303079721985487e7 0.0
0.0 0.0 0.0

-8.409632724384747e6 2.5446165088197e7 0.0
2.5446165088197e7 -1.2557620989835326e7 0.0
0.0 0.0 0.0

-37415.17094429955 1.6997613857800692e7 0.0
1.6997613857800692e7 -2.6424444085381526e7 0.0
0.0 0.0 0.0

-1.0573059268545538e7 1.4264536899304071e7 0.0
1.4264536899304071e7 2.251173243167113e7 0.0
0.0 0.0 0.0

2.9824302858400885e6 1.9566095576117508e7 0.0
1.9566095576117508e7 1.3609561788159134e7 0.0
0.0 0.0 0.0

-9.57075573383104e6 1.57496186674909e7 0.0
1.57496186674909e7 2.230548046409616e7 0.0
0.0 0.0 0.0

-1.72634655793496e6 2.0318043601338822e7 0.0
2.0318043601338822e7 -2.2832593376656966e6 0.0
0.0 0.0 0.0

-1.6512658632832996e6 2.9408261908626728e7 0.0
2.9408261908626728e7 2.200032754688359e6 0.0
0.0 0.0 0.0

-2.6729312093837215e6 1.725682628355108e7 0.0
1.725682628355108e7 -3.3381614750372373e7 0.0
0.0 0.0 0.0

-2.0885727292002086e6 2.147909788196935e7 0.0
2.147909788196935e7 2.263019640241338e7 0.0
0.0 0.0 0.0

-1.1502128626430503e6 3.856068322599606e7 0.0
3.856068322599606e7 1.6465428596425531e6 0.0
0.0 0.0 0.0

-2.52322822781798e6 2.0764501392166607e7 0.0
2.0764501392166607e7 -3.0398845498185516e6 0.0
0.0 0.0 0.0

-124529.18151726178 2.7819202475858968e7 0.0
2.7819202475858968e7 -5.290030685841526e6 0.0
0.0 0.0 0.0

1.8839958772871945e7 2.5272511757953983e7 0.0
2.5272511757953983e7 1.3386731434196256e7 0.0
0.0 0.0 0.0

-1.95499872245405e6 2.896939996319739e7 0.0
2.896939996319739e7 2.996701796438177e6 0.0
0.0 0.0 0.0

-9.323880356872872e6 1.7110317909630314e7 0.0
1.7110317909630314e7 -1.6177624522440338e6 0.0
0.0 0.0 0.0

-1.3773394590904573e6 3.1794211951108158e7 0.0
3.1794211951108158e7 1.331766677348735e6 0.0
0.0 0.0 0.0

3.3782938170927987e6 1.907296955841838e6 0.0
1.907296955841838e6 -2.722647467624379e7 0.0
0.0 0.0 0.0

3.470188923603829e6 1.9787389265916252e6 0.0
1.9787389265916252e6 -2.616164222766209e7 0.0
0.0 0.0 0.0

80409.5475911973 2.716359951937904e7 0.0
2.716359951937904e7 -6.109986433892635e6 0.0
0.0 0.0 0.0

2.3616918791357484e6 2.0226565098275922e7 0.0
2.0226565098275922e7 3.4544901486988306e7 0.0
0.0 0.0 0.0

-782739.1792527847 3.281715405230739e7 0.0
3.281715405230739e7 759954.7861880015 0.0
0.0 0.0 0.0

-1.047129214654839e7 1.2536694073907278e7 0.0
1.2536694073907278e7 3.006547735550384e7 0.0
0.0 0.0 0.0

-837898.4272477026 3.590897416672121e7 0.0
3.590897416672121e7 1.0157020449340018e6 0.0
0.0 0.0 0.0

-2.661649237134236e6 2.2658016912128933e7 0.0
2.2658016912128933e7 1.3597144400662553e7 0.0
0.0 0.0 0.0

264371.9617269691 1.9218072862577178e7 0.0
1.9218072862577178e7 5.426310619374547e6 0.0
0.0 0.0 0.0

1.4022404995675795e6 1.3334335701966655e7 0.0
1.3334335701966655e7 -3.057620222610914e7 0.0
0.0 0.0 0.0

-3.135530270761321e6 2.8323891809029903e7 0.0
2.8323891809029903e7 4.172287284324843e6 0.0
0.0 0.0 0.0

-8.826514741667591e6 -1.7456377729398068e6 0.0
-1.7456377729398068e6 2.9767169657102264e7 0.0
0.0 0.0 0.0

-2.4191474756326117e6 1.710892850435799e7 0.0
1.710892850435799e7 4.505601901924557e7 0.0
0.0 0.0 0.0

-6.044522019205399e6 1.687196408442408e7 0.0
1.687196408442408e7 -5.454555908049209e7 0.0
0.0 0.0 0.0

-9.240024405246112e6 1.337078556738891e7 0.0
1.337078556738891e7 3.3755656051481746e7 0.0
0.0 0.0 0.0

7.495402727471566e6 2.720067928214655e7 0.0
2.720067928214655e7 -5.989560957805372e6 0.0
0.0 0.0 0.0

1.6060272431350052e6 1.3947631044406997e7 0.0
1.3947631044406997e7 -2.704298080517636e7 0.0
0.0 0.0 0.0

-2.7352555512670246e6 2.0353496360108662e7 0.0
2.0353496360108662e7 -1.9192340692712252e6 0.0
0.0 0.0 0.0

-399211.56060863216 2.9110276584140133e7 0.0
2.9110276584140133e7 -3.414130123757889e6 0.0
0.0 0.0 0.0

-894632.6747437237 1.9621324154583998e7 0.0
1.9621324154583998e7 -5.8216186262019e6 0.0
0.0 0.0 0.0

-1.0075725657619867e7 1.375918255403673e7 0.0
1.375918255403673e7 2.678884721359044e7 0.0
0.0 0.0 0.0

-8.545209926151091e6 1.5349368279418685e7 0.0
1.5349368279418685e7 3.2696589556087054e7 0.0
0.0 0.0 0.0

-238189.71586740436 2.8477227254989173e7 0.0
2.8477227254989173e7 -4.360218325999263e6 0.0
0.0 0.0 0.0

-7.122044702460315e6 1.5879983271366598e7 0.0
1.5879983271366598e7 1.997036251042275e7 0.0
0.0 0.0 0.0

2.491716644226767e6 4.486121269609465e6 0.0
4.486121269609465e6 -4.393809472649071e7 0.0
0.0 0.0 0.0

-5.65807471210674e6 1.8535480681325085e7 0.0
1.8535480681325085e7 1.593636187429075e7 0.0
0.0 0.0 0.0

-1.9459808215896965e6 1.9452929211123608e7 0.0
1.9452929211123608e7 -1.2198562335082479e7 0.0
0.0 0.0 0.0

726577.979257028 2.0498887387734435e7 0.0
2.0498887387734435e7 1.7386590760748363e6 0.0
0.0 0.0 0.0

-3.9459028321990306e6 2.205076579036557e7 0.0
2.205076579036557e7 -1.3781568996500488e7 0.0
0.0 0.0 0.0

-1.6984848478290965e6 2.012885854830096e7 0.0
2.012885854830096e7 -7.920123685228628e6 0.0
0.0 0.0 0.0

330708.0033979565 1.7036443222562537e7 0.0
1.7036443222562537e7 -2.478517126316595e7 0.0
0.0 0.0 0.0

1.9270126359190997e6 8.656572065847598e6 0.0
8.656572065847598e6 -3.1827976192328107e7 0.0
0.0 0.0 0.0

-1.4819691837861845e6 1.9528164311132394e7 0.0
1.9528164311132394e7 -9.008081117195878e6 0.0
0.0 0.0 0.0

1.5196858945365679e6 1.1548914801985078e7 0.0
1.1548914801985078e7 -2.2508395683249548e7 0.0
0.0 0.0 0.0

3.453848743680789e6 3.8449884614482853e6 0.0
3.8449884614482853e6 -2.088070101763106e7 0.0
0.0 0.0 0.0

-2.750396849025935e6 2.934703617904368e7 0.0
2.934703617904368e7 2.375587166203128e6 0.0
0.0 0.0 0.0

-1.2552684079179917e6 1.3976011550484873e7 0.0
1.3976011550484873e7 -8.829917216840954e6 0.0
0.0 0.0 0.0

-3.133541066761504e6 2.193796719056807e7 0.0
2.193796719056807e7 1.9646215172672935e7 0.0
0.0 0.0 0.0

-7.969828918213216e6 -5.225656648787156e6 0.0
-5.225656648787156e6 1.9554548949832857e7 0.0
0.0 0.0 0.0

4.719301538846305e6 2.2084203950438555e7 0.0
2.2084203950438555e7 2.757072732003192e6 0.0
0.0 0.0 0.0

-5.33624494058792e6 2.233309744041456e7 0.0
2.233309744041456e7 -1.516109372596905e7 0.0
0.0 0.0 0.0

2.0112814433406964e6 9.20954198476103e6 0.0
9.20954198476103e6 -2.640795554263897e7 0.0
0.0 0.0 0.0

-1.152468930182078e8 1.9574931058267776e7 0.0
1.9574931058267776e7 3.965296506308213e6 0.0
0.0 0.0 0.0

-4.343999308140831e6 2.0841462436460193e7 0.0
2.0841462436460193e7 2.359662902934228e7 0.0
0.0 0.0 0.0

974182.5761433328 2.0595574798476297e7 0.0
2.0595574798476297e7 -1.5969047845239297e7 0.0
0.0 0.0 0.0

-1.3631130633730686e6 1.835778485524606e7 0.0
1.835778485524606e7 -9.717928677827405e6 0.0
0.0 0.0 0.0

1.0545944067050647e6 1.5212992576942137e7 0.0
1.5212992576942137e7 -2.7681511596171077e7 0.0
0.0 0.0 0.0

1.819917314633382e6 2.0167322485343337e7 0.0
2.0167322485343337e7 1.352713703884418e7 0.0
0.0 0.0 0.0

547977.2645345535 1.3773146119353872e7 0.0
1.3773146119353872e7 -3.475365447531582e7 0.0
0.0 0.0 0.0

1.9213642713002968e6 2.0535939199256904e7 0.0
2.0535939199256904e7 1.5747052220894769e7 0.0
0.0 0.0 0.0

351550.0126947034 1.8565447763470564e7 0.0
1.8565447763470564e7 -1.7882580011859074e7 0.0
0.0 0.0 0.0

2.6952291250395626e6 8.95504803537455e6 0.0
8.95504803537455e6 -2.8130644130993944e7 0.0
0.0 0.0 0.0

1.8972943560925946e6 2.398362530746952e6 0.0
2.398362530746952e6 -5.075147302108186e7 0.0
0.0 0.0 0.0

5.377487466458078e6 2.9068313451250948e7 0.0
2.9068313451250948e7 -6.425683394187326e6 0.0
0.0 0.0 0.0

1.0824030377258956e6 1.3492158688862495e7 0.0
1.3492158688862495e7 -3.266172625328254e7 0.0
0.0 0.0 0.0

-4.341450948569285e6 2.9939326492711265e7 0.0
2.9939326492711265e7 6.511723590696843e6 0.0
0.0 0.0 0.0

-8.657965335388802e6 2.403522504192991e7 0.0
2.403522504192991e7 1.7896406165154898e6 0.0
0.0 0.0 0.0

2.3078972235895563e6 8.44429965734469e6 0.0
8.44429965734469e6 -1.2961290352572894e7 0.0
0.0 0.0 0.0

-1.6044552121074866e6 3.9617806287921384e7 0.0
3.9617806287921384e7 2.0100264827704334e6 0.0
0.0 0.0 0.0

2.518181792179264e6 1.008570011684386e7 0.0
1.008570011684386e7 -2.49698001376117e7 0.0
0.0 0.0 0.0

1.7812531499008704e6 1.8914769598972905e7 0.0
1.8914769598972905e7 4.637278245461264e7 0.0
0.0 0.0 0.0

-872417.8353460021 2.099163287452694e7 0.0
2.099163287452694e7 2.0637030807037877e6 0.0
0.0 0.0 0.0

-7.804052893985944e6 3.1131143854579505e7 0.0
3.1131143854579505e7 6.617465155823743e6 0.0
0.0 0.0 0.0

-9.205958932306156e6 1.506638820912965e7 0.0
1.506638820912965e7 2.3683895377298232e7 0.0
0.0 0.0 0.0

793979.680361284 1.4826660040672326e7 0.0
1.4826660040672326e7 -2.773583197589944e7 0.0
0.0 0.0 0.0

-3.0000252312814146e6 1.225011869055789e7 0.0
1.225011869055789e7 -1.6099079667485098e6 0.0
0.0 0.0 0.0

-831978.7554658749 2.078017444226234e7 0.0
2.078017444226234e7 -6.890053144705927e6 0.0
0.0 0.0 0.0

1.5141692104550488e7 2.2941659371472567e7 0.0
2.2941659371472567e7 4.1787797535827165e6 0.0
0.0 0.0 0.0

859061.9280146463 2.0552167388727598e7 0.0
2.0552167388727598e7 -1.75840235756098e7 0.0
0.0 0.0 0.0

654001.1116737123 9.78428179345008e6 0.0
9.78428179345008e6 -6.510606615673843e6 0.0
0.0 0.0 0.0

517057.5175861735 1.5944985769078718e7 0.0
1.5944985769078718e7 -2.631982671802444e7 0.0
0.0 0.0 0.0

-8.510989692564143e6 -1.1215062130573438e6 0.0
-1.1215062130573438e6 3.598403345141221e7 0.0
0.0 0.0 0.0

-3.428094107863256e6 2.2856890571669344e7 0.0
2.2856890571669344e7 1.7220540862710107e7 0.0
0.0 0.0 0.0

-9.581433084046718e6 1.5891546276119007e7 0.0
1.5891546276119007e7 2.6606169645628873e7 0.0
0.0 0.0 0.0

-1.8713804595852345e7 2.7484754651359227e7 0.0
2.7484754651359227e7 -8.386230718928637e6 0.0
0.0 0.0 0.0

-6.20310911563088e6 1.7727677138312276e7 0.0
1.7727677138312276e7 -4.629875914006386e7 0.0
0.0 0.0 0.0

-3.1267515724938908e6 2.6972480821023595e7 0.0
2.6972480821023595e7 8.652180852196861e6 0.0
0.0 0.0 0.0

-4.709734148514006e6 2.8149251929745775e7 0.0
2.8149251929745775e7 8.170163308947881e6 0.0
0.0 0.0 0.0

2.485691013814847e6 2.4252550046074107e7 0.0
2.4252550046074107e7 -1.0755915115157196e7 0.0
0.0 0.0 0.0

-4.1340176496096086e6 1.6096287675263843e7 0.0
1.6096287675263843e7 -4.784898402436691e7 0.0
0.0 0.0 0.0

-2.4871675377305485e6 2.143289570879551e7 0.0
2.143289570879551e7 2.043001475180879e7 0.0
0.0 0.0 0.0

-7.830499775922999e6 6.442265169884647e6 0.0
6.442265169884647e6 4.809576034954776e7 0.0
0.0 0.0 0.0

2.2966475247052894e6 2.759140702681091e6 0.0
2.759140702681091e6 -7.473622486157228e6 0.0
0.0 0.0 0.0

-1.6349985591261378e6 1.8693929068428706e7 0.0
1.8693929068428706e7 -2.429676726517138e7 0.0
0.0 0.0 0.0

2.4814643252700428e6 2.5453167560081396e7 0.0
2.5453167560081396e7 -9.670851794231785e6 0.0
0.0 0.0 0.0

-1.688391887961165e6 2.1391301244692795e7 0.0
2.1391301244692795e7 -2.0351716045369352e6 0.0
0.0 0.0 0.0

-659137.5468971869 1.6971754551272932e7 0.0
1.6971754551272932e7 -1.24639490754254e7 0.0
0.0 0.0 0.0

-9.508371421467958e6 1.8667590042698316e7 0.0
1.8667590042698316e7 -3.7432230288549654e7 0.0
0.0 0.0 0.0

-9.532290653462427e6 1.4377193973088372e7 0.0
1.4377193973088372e7 3.1405181267076887e7 0.0
0.0 0.0 0.0

547965.0638159008 3.2610754516775005e7 0.0
3.2610754516775005e7 -772036.6832954027 0.0
0.0 0.0 0.0

-2.656832326524048e7 2.8116226832357556e7 0.0
2.8116226832357556e7 -3.6634633401911194e6 0.0
0.0 0.0 0.0

5.158656419696459e6 2.267665106439816e7 0.0
2.267665106439816e7 3.0445583620956754e6 0.0
0.0 0.0 0.0

1.6084103398456583e6 8.253756409211441e6 0.0
8.253756409211441e6 -1.5201094703320794e7 0.0
0.0 0.0 0.0

-1.8836638730957378e6 2.0956312258776452e7 0.0
2.0956312258776452e7 -950515.8787510238 0.0
0.0 0.0 0.0

-8.95840027023084e6 1.1654708915001987e7 0.0
1.1654708915001987e7 3.7980506339099884e7 0.0
0.0 0.0 0.0

-5.859247305554021e6 3.195037372705505e7 0.0
3.195037372705505e7 5.62097884750204e6 0.0
0.0 0.0 0.0

-3.0816507202286096e6 2.147224343928203e7 0.0
2.147224343928203e7 2.112234022946414e7 0.0
0.0 0.0 0.0

-1.768238288779835e6 3.0398478346180495e7 0.0
3.0398478346180495e7 -57844.33686982596 0.0
0.0 0.0 0.0

488403.8178877076 1.793850709758394e7 0.0
1.793850709758394e7 -1.916881445197176e7 0.0
0.0 0.0 0.0

-8.362432260730997e6 1.3560714415184664e7 0.0
1.3560714415184664e7 3.761659808049754e7 0.0
0.0 0.0 0.0

40798.456188807264 1.8907773821280386e7 0.0
1.8907773821280386e7 -2.1561508014348537e7 0.0
0.0 0.0 0.0

-7.582076879761301e6 2.3427968459917173e7 0.0
2.3427968459917173e7 -4.627772906754864e6 0.0
0.0 0.0 0.0

516101.58244586526 3.3225048610141125e7 0.0
3.3225048610141125e7 -898426.5361011552 0.0
0.0 0.0 0.0

2.9190696081731627e6 4.989170504295226e6 0.0
4.989170504295226e6 -2.2151779934101675e7 0.0
0.0 0.0 0.0

2.4900292286609556e6 2.372570587689978e7 0.0
2.372570587689978e7 -9.404375631760499e6 0.0
0.0 0.0 0.0

-2.82133101280392e6 2.689064145598505e7 0.0
2.689064145598505e7 7.817276529778869e6 0.0
0.0 0.0 0.0

-9.906952010129197e6 1.4160181355267249e7 0.0
1.4160181355267249e7 2.4849726619301073e7 0.0
0.0 0.0 0.0

-6.53612592048613e6 2.4737010501709696e7 0.0
2.4737010501709696e7 -1.1140477572062336e7 0.0
0.0 0.0 0.0

-8.602037710938731e6 1.630882295077043e7 0.0
1.630882295077043e7 3.047443662938937e7 0.0
0.0 0.0 0.0

-2.575825671163719e6 6.779125900031045e6 0.0
6.779125900031045e6 5.8283724229527125e6 0.0
0.0 0.0 0.0

-2.635945301143445e6 2.610227120795627e7 0.0
2.610227120795627e7 8.023563849532838e6 0.0
0.0 0.0 0.0

-1.0757401804651406e7 1.3015171135701532e7 0.0
1.3015171135701532e7 2.8027743973031506e7 0.0
0.0 0.0 0.0

-3.879285304769013e6 2.173607208492193e7 0.0
2.173607208492193e7 1.371869873059497e7 0.0
0.0 0.0 0.0

5.427224818036648e6 1.9752413681287024e7 0.0
1.9752413681287024e7 3.6214158516708806e7 0.0
0.0 0.0 0.0

-2.9685809412211664e6 1.6010597252886174e7 0.0
1.6010597252886174e7 -4.197253143553069e7 0.0
0.0 0.0 0.0

-7.600902836410836e6 -5.64509209853036e6 0.0
-5.64509209853036e6 1.7936824240346827e7 0.0
0.0 0.0 0.0

1.012312835808813e7 2.897933928685758e7 0.0
2.897933928685758e7 -5.321101807591237e6 0.0
0.0 0.0 0.0

-9.628175772992305e6 1.2420691256697213e7 0.0
1.2420691256697213e7 3.310142128621526e7 0.0
0.0 0.0 0.0

257167.41235847864 1.4546473602724776e7 0.0
1.4546473602724776e7 -1.5519869774401708e7 0.0
0.0 0.0 0.0

-2.1769619714897927e6 2.161748630412032e7 0.0
2.161748630412032e7 1.7749990092222393e7 0.0
0.0 0.0 0.0

-815330.2506111432 1.9724787387216803e7 0.0
1.9724787387216803e7 -7.28144014874078e6 0.0
0.0 0.0 0.0

-4.184609752452744e6 2.233993307658257e7 0.0
2.233993307658257e7 1.89367785553681e7 0.0
0.0 0.0 0.0

-153897.1144227162 1.2121996031918088e7 0.0
1.2121996031918088e7 -8.324941960242075e6 0.0
0.0 0.0 0.0

-6.484338019195326e6 2.576310334716919e7 0.0
2.576310334716919e7 7.27078411431864e6 0.0
0.0 0.0 0.0

-3.8445869367903555e6 2.1954391636998247e7 0.0
2.1954391636998247e7 1.4636403637489438e7 0.0
0.0 0.0 0.0

1.9931756783951027e6 2.346490973926227e7 0.0
2.346490973926227e7 -1.0971792061422322e7 0.0
0.0 0.0 0.0

-3.289715824614697e6 2.717634108632987e7 0.0
2.717634108632987e7 6.220421924918305e6 0.0
0.0 0.0 0.0

-715293.3879119168 3.354501978342911e7 0.0
3.354501978342911e7 877348.5014075711 0.0
0.0 0.0 0.0

-2.40158937319321e6 1.6093253540663967e7 0.0
1.6093253540663967e7 -3.639100651716441e7 0.0
0.0 0.0 0.0

900006.3799105579 2.5932147541233916e6 0.0
2.5932147541233916e6 -1.4326234762250946e6 0.0
0.0 0.0 0.0

-8.925704285782758e6 800929.4058229217 0.0
800929.4058229217 1.173501377435884e7 0.0
0.0 0.0 0.0

1.342906601234883e6 4.159753358751307e6 0.0
4.159753358751307e6 -6.3023261985608324e7 0.0
0.0 0.0 0.0

390253.90711662406 2.5318688422788996e7 0.0
2.5318688422788996e7 -7.283971822504201e6 0.0
0.0 0.0 0.0

-3.5821071100001195e6 2.139837093945336e7 0.0
2.139837093945336e7 2.166908787531249e7 0.0
0.0 0.0 0.0

-1.0410647157392988e7 1.4611297579752617e7 0.0
1.4611297579752617e7 2.511332151135894e7 0.0
0.0 0.0 0.0

-2.2179820179039706e6 4.080008258050202e7 0.0
4.080008258050202e7 2.3150740130530465e6 0.0
0.0 0.0 0.0

-1.0214718058731193e7 1.0647656695397694e7 0.0
1.0647656695397694e7 3.376062900449304e7 0.0
0.0 0.0 0.0

4.544043966741285e7 7.275867080605315e7 0.0
7.275867080605315e7 -4.540909214247864e6 0.0
0.0 0.0 0.0

681632.0496998783 2.2748178963176727e7 0.0
2.2748178963176727e7 -1.3153659943403287e7 0.0
0.0 0.0 0.0

1.3257494668840151e6 1.6429035764604181e7 0.0
1.6429035764604181e7 -2.1414573584940687e7 0.0
0.0 0.0 0.0

-3.247491242507616e6 2.2381610686789602e7 0.0
2.2381610686789602e7 1.800791904891889e7 0.0
0.0 0.0 0.0

-9.297077680606201e6 1.2981225582055755e7 0.0
1.2981225582055755e7 3.5275552715333015e7 0.0
0.0 0.0 0.0

1.0819020764874206e6 2.469298723991255e7 0.0
2.469298723991255e7 -9.624175318066671e6 0.0
0.0 0.0 0.0

1.1354194247270818e6 2.0796750742843516e7 0.0
2.0796750742843516e7 4.780006706988464e6 0.0
0.0 0.0 0.0

2.460127697838675e6 2.4627833897419153e6 0.0
2.4627833897419153e6 -3.996789672447333e7 0.0
0.0 0.0 0.0

-9.234525041993381e6 9.80404375410765e6 0.0
9.80404375410765e6 1.8119316060918026e7 0.0
0.0 0.0 0.0

-3.7814261245077383e6 4.410188389516985e7 0.0
4.410188389516985e7 3.6568510691731386e6 0.0
0.0 0.0 0.0

-4.0608852199915964e6 2.119143243206051e7 0.0
2.119143243206051e7 2.346770130398051e7 0.0
0.0 0.0 0.0

-2.2191585647400543e6 1.9311037780350935e7 0.0
1.9311037780350935e7 -2.0111980902759697e7 0.0
0.0 0.0 0.0

8.456186786768628e6 2.2429414345372405e7 0.0
2.2429414345372405e7 8.320481805112403e6 0.0
0.0 0.0 0.0

-1.0505749496893443e7 5.039986346166019e6 0.0
5.039986346166019e6 1.8100656887640953e7 0.0
0.0 0.0 0.0

-5.737923413491612e6 1.2789212433725754e7 0.0
1.2789212433725754e7 7.43867518539682e6 0.0
0.0 0.0 0.0

-2.3373437382404055e6 1.931448482926832e7 0.0
1.931448482926832e7 -1.5361604338735994e7 0.0
0.0 0.0 0.0

217577.461779485 1.810199061110363e7 0.0
1.810199061110363e7 -1.2313371401214203e7 0.0
0.0 0.0 0.0

-5.604274828820349e6 2.0345734622501455e7 0.0
2.0345734622501455e7 1.9469772498535495e7 0.0
0.0 0.0 0.0

-2.088879396259564e6 1.837702716948542e7 0.0
1.837702716948542e7 -2.612075765451513e7 0.0
0.0 0.0 0.0

1.378321099455988e6 1.3966454666278021e7 0.0
1.3966454666278021e7 -2.8952192171165586e7 0.0
0.0 0.0 0.0

-3.465097470633695e6 2.6991228683080733e7 0.0
2.6991228683080733e7 9.31764323430132e6 0.0
0.0 0.0 0.0

663352.2474433584 1.8555066843099374e7 0.0
1.8555066843099374e7 -2.1776015411891844e7 0.0
0.0 0.0 0.0

-9.38115139938218e6 1.5141822470248457e7 0.0
1.5141822470248457e7 2.82016117160955e7 0.0
0.0 0.0 0.0

3.314654234575862e6 5.406584895480339e6 0.0
5.406584895480339e6 -1.5814242615244841e7 0.0
0.0 0.0 0.0

-3.610301819568536e7 3.4446284952258244e7 0.0
3.4446284952258244e7 -1.40361765142402e7 0.0
0.0 0.0 0.0

1.2860636473050998e6 7.682449641206521e6 0.0
7.682449641206521e6 -1.1939456062132768e7 0.0
0.0 0.0 0.0

3.572320244356972e6 2.5729745068814047e6 0.0
2.5729745068814047e6 -1.5516316093788037e7 0.0
0.0 0.0 0.0

-5.074038853067536e6 2.7978328878844913e7 0.0
2.7978328878844913e7 8.645591901466265e6 0.0
0.0 0.0 0.0

2.3310063226838587e6 1.956966112244531e7 0.0
1.956966112244531e7 7.770021615805974e6 0.0
0.0 0.0 0.0

5.478836258955707e6 2.3248552995302245e7 0.0
2.3248552995302245e7 -1.7662864284542485e6 0.0
0.0 0.0 0.0

-3.987012868682079e6 1.930682391810353e7 0.0
1.930682391810353e7 3.0946658573165774e7 0.0
0.0 0.0 0.0

-1.1833574432859235e6 1.9595117255878273e7 0.0
1.9595117255878273e7 3.392739807010273e7 0.0
0.0 0.0 0.0

1.3079003111506503e7 1.9281236521758106e7 0.0
1.9281236521758106e7 6.065229390220399e7 0.0
0.0 0.0 0.0

159985.6829388251 1.9747786505273815e7 0.0
1.9747786505273815e7 -4.197059564494352e6 0.0
0.0 0.0 0.0

-3.551349251097345e6 2.2276614414590277e7 0.0
2.2276614414590277e7 1.8818704069624815e7 0.0
0.0 0.0 0.0

-4.797132406886431e6 1.9260057087981552e7 0.0
1.9260057087981552e7 1.3999766468719674e7 0.0
0.0 0.0 0.0

-2.680172893666547e6 1.9194862062194187e7 0.0
1.9194862062194187e7 -1.85389525804247e7 0.0
0.0 0.0 0.0

-3.595792168094205e6 2.7367407566121172e7 0.0
2.7367407566121172e7 7.046080589964563e6 0.0
0.0 0.0 0.0

-9.769624599089902e6 1.3114955110988395e7 0.0
1.3114955110988395e7 3.2848422759823382e7 0.0
0.0 0.0 0.0

1.4866559916892026e7 2.728983252502226e7 0.0
2.728983252502226e7 -3.549062688921473e6 0.0
0.0 0.0 0.0

1.0704422145076417e6 2.3284952046151668e7 0.0
2.3284952046151668e7 -1.1931229251977002e7 0.0
0.0 0.0 0.0

2.291750347158756e6 7.209331341298824e6 0.0
7.209331341298824e6 -2.6240343015572436e7 0.0
0.0 0.0 0.0

5.565103593302133e6 2.522833118831282e7 0.0
2.522833118831282e7 -7.080856261984289e6 0.0
0.0 0.0 0.0

-391178.87474457483 2.911401538405683e7 0.0
2.911401538405683e7 -1.3309312778962245e6 0.0
0.0 0.0 0.0

-8.145985482088085e6 1.9793272533356447e7 0.0
1.9793272533356447e7 -2.7153292162166025e7 0.0
0.0 0.0 0.0

9.647434306250293e6 2.126198764384059e7 0.0
2.126198764384059e7 3.2158123663782302e7 0.0
0.0 0.0 0.0

-7.755380940432807e6 287143.78510427254 0.0
287143.78510427254 4.66502941990081e7 0.0
0.0 0.0 0.0

1.9502815933816158e6 2.249582164267003e7 0.0
2.249582164267003e7 7.416109115592599e6 0.0
0.0 0.0 0.0

-8.293946598435745e6 -789929.6483018204 0.0
-789929.6483018204 3.828952689929258e7 0.0
0.0 0.0 0.0

1.0498892360643141e6 2.972345435178996e7 0.0
2.972345435178996e7 -3.3503593313873205e6 0.0
0.0 0.0 0.0

5.039470891175751e6 2.796772419044666e7 0.0
2.796772419044666e7 -6.954199302237136e6 0.0
0.0 0.0 0.0

-3.033254616064244e6 4.223624514630521e7 0.0
4.223624514630521e7 2.513219541323984e6 0.0
0.0 0.0 0.0

1.0230196854952723e7 2.032438762548289e7 0.0
2.032438762548289e7 8.625218438805558e6 0.0
0.0 0.0 0.0

-9.348999274409221e6 1.2036360122526875e7 0.0
1.2036360122526875e7 3.545571581568848e7 0.0
0.0 0.0 0.0

761636.444967062 3.0329335796031617e7 0.0
3.0329335796031617e7 -2.390324206773568e6 0.0
0.0 0.0 0.0

-3.6392136420820355e6 2.2734132367895372e7 0.0
2.2734132367895372e7 1.3009638948449343e7 0.0
0.0 0.0 0.0

-3.143965842173933e6 2.5761049727236696e7 0.0
2.5761049727236696e7 7.496970731817901e6 0.0
0.0 0.0 0.0

1.284581288939761e6 9.404832205022825e6 0.0
9.404832205022825e6 -4.534982946351205e7 0.0
0.0 0.0 0.0

-3.8179351457643397e6 2.6858907109973203e7 0.0
2.6858907109973203e7 1.0055162722764265e7 0.0
0.0 0.0 0.0

1.733660011254038e7 1.7317159528290015e7 0.0
1.7317159528290015e7 4.5647887465586355e6 0.0
0.0 0.0 0.0

1.553756251165839e6 1.4601960824556539e7 0.0
1.4601960824556539e7 -2.5581326383457478e7 0.0
0.0 0.0 0.0

-5.921461622686971e6 3.274120715774007e6 0.0
3.274120715774007e6 6.557261748668444e7 0.0
0.0 0.0 0.0

-874665.750345649 3.1461263861100424e7 0.0
3.1461263861100424e7 625381.1554751907 0.0
0.0 0.0 0.0

3.673906774318487e6 2.2775308420930907e7 0.0
2.2775308420930907e7 7.208909865562268e6 0.0
0.0 0.0 0.0

-9.714318706941819e7 8.958615920122398e7 0.0
8.958615920122398e7 -1.1613794901796635e7 0.0
0.0 0.0 0.0

3.0269856654295083e6 4.0384286276969155e6 0.0
4.0384286276969155e6 -2.119866014132195e7 0.0
0.0 0.0 0.0

-1.8163928708401022e6 2.2009320099444732e7 0.0
2.2009320099444732e7 -744600.1825726879 0.0
0.0 0.0 0.0

-1.7927866080747318e7 2.9088687867273387e7 0.0
2.9088687867273387e7 2.9861218852320313e6 0.0
0.0 0.0 0.0

-352991.49947161414 2.1359279150519263e7 0.0
2.1359279150519263e7 -1.5430059622909462e7 0.0
0.0 0.0 0.0

820655.3415391035 2.2658673072090767e7 0.0
2.2658673072090767e7 -1.364167804418042e7 0.0
0.0 0.0 0.0

1.223341022574064e7 2.3867389762323007e7 0.0
2.3867389762323007e7 1.5090541798919574e6 0.0
0.0 0.0 0.0

-3.2730904055045173e6 3.5851838503212444e7 0.0
3.5851838503212444e7 3.0000141482743784e6 0.0
0.0 0.0 0.0

-4.264098173033693e6 2.2413842377381764e7 0.0
2.2413842377381764e7 -1.3408566221731631e7 0.0
0.0 0.0 0.0

2.169224449001441e6 5.2192089629160315e6 0.0
5.2192089629160315e6 -4.8288440544389956e7 0.0
0.0 0.0 0.0

-3.372440378791136e7 3.1527583013577797e7 0.0
3.1527583013577797e7 -9.207188182690043e6 0.0
0.0 0.0 0.0

-2.939286998330811e6 2.2044866380627137e7 0.0
2.2044866380627137e7 1.4203288394175539e7 0.0
0.0 0.0 0.0

4.6237287149517555e6 2.6961258817589715e7 0.0
2.6961258817589715e7 -7.517695846216987e6 0.0
0.0 0.0 0.0

1.071901821345562e6 1.9048011311094295e7 0.0
1.9048011311094295e7 4.3571711743028715e7 0.0
0.0 0.0 0.0

1.6028980908093248e7 2.57976162346159e7 0.0
2.57976162346159e7 -2.184337119834086e6 0.0
0.0 0.0 0.0

-3.864673807645713e6 2.5004136528319176e7 0.0
2.5004136528319176e7 1.299486403363174e7 0.0
0.0 0.0 0.0

-421573.03288866347 1.8905136068656757e7 0.0
1.8905136068656757e7 -1.363084542620437e7 0.0
0.0 0.0 0.0

8.358106451671786e6 1.2363234268327946e7 0.0
1.2363234268327946e7 4.265026626668084e6 0.0
0.0 0.0 0.0

3.2741385687035085e6 2.376818927218246e7 0.0
2.376818927218246e7 -7.743593674386846e6 0.0
0.0 0.0 0.0

-4.240928102740992e6 2.0407206852184217e7 0.0
2.0407206852184217e7 2.64079937765856e7 0.0
0.0 0.0 0.0

-4.654545261687346e6 6.864470319489138e6 0.0
6.864470319489138e6 6.863132487171115e7 0.0
0.0 0.0 0.0

-5.389630256733391e6 1.284285307430893e6 0.0
1.284285307430893e6 7.192426523175986e7 0.0
0.0 0.0 0.0

-490040.8087385632 2.1015785588081326e7 0.0
2.1015785588081326e7 -1.2141013666268645e7 0.0
0.0 0.0 0.0

844536.7748855092 2.2314261559975073e7 0.0
2.2314261559975073e7 -1.301298709424777e7 0.0
0.0 0.0 0.0

982196.1158358864 2.260708692868321e7 0.0
2.260708692868321e7 -1.3724034346487181e7 0.0
0.0 0.0 0.0

-1.4172556225772588e7 2.5484818849155128e7 0.0
2.5484818849155128e7 -4.1041272736907713e6 0.0
0.0 0.0 0.0

2.2081347598228473e7 2.3391761680161793e7 0.0
2.3391761680161793e7 1.2063615453416193e7 0.0
0.0 0.0 0.0

-4.704549563102878e6 2.1341217869537357e7 0.0
2.1341217869537357e7 2.218653698216618e7 0.0
0.0 0.0 0.0

1.198068363473612e6 2.2533984609635804e7 0.0
2.2533984609635804e7 -1.3620884299931055e7 0.0
0.0 0.0 0.0

-795264.2356929216 1.8016649880059592e7 0.0
1.8016649880059592e7 -1.2045665519880055e7 0.0
0.0 0.0 0.0

-9.285554244309349e6 -1.8928683258899564e6 0.0
-1.8928683258899564e6 2.5953964681666505e7 0.0
0.0 0.0 0.0

-570050.4462738801 1.4829574577458786e7 0.0
1.4829574577458786e7 -3.5062064503541425e7 0.0
0.0 0.0 0.0

-9.380776418773156e6 1.6799921272273513e6 0.0
1.6799921272273513e6 3.66372770297143e7 0.0
0.0 0.0 0.0

-8.437174749249136e6 -3.4975969570487053e6 0.0
-3.4975969570487053e6 2.9129682449914113e7 0.0
0.0 0.0 0.0

-8.458828152771667e6 -3.774606581183978e6 0.0
-3.774606581183978e6 2.827954525993278e7 0.0
0.0 0.0 0.0

-4.825180811386484e6 1.2564203640753597e7 0.0
1.2564203640753597e7 1.0623967536228936e7 0.0
0.0 0.0 0.0

615791.5606858674 1.7292647089710955e7 0.0
1.7292647089710955e7 -2.0500110432003077e7 0.0
0.0 0.0 0.0

18989.235258679837 1.4680522906043457e7 0.0
1.4680522906043457e7 -3.482512804814008e7 0.0
0.0 0.0 0.0

-1.5053607572891235e6 2.119846413932483e7 0.0
2.119846413932483e7 -5.583475224567657e6 0.0
0.0 0.0 0.0

3.2161319998520273e6 2.389469494777694e7 0.0
2.389469494777694e7 -9.321177105231082e6 0.0
0.0 0.0 0.0

5.941288478900377e6 2.3064386096430857e7 0.0
2.3064386096430857e7 930313.918047626 0.0
0.0 0.0 0.0

31107.122088177362 2.7492970102859374e7 0.0
2.7492970102859374e7 -4.1287634751624037e6 0.0
0.0 0.0 0.0

6.221922180516678e7 2.856600989662542e7 0.0
2.856600989662542e7 9.373719428987548e6 0.0
0.0 0.0 0.0

9.256406342645846e6 1.6416378274916064e7 0.0
1.6416378274916064e7 9.851575067632247e6 0.0
0.0 0.0 0.0

4.769383224018574e6 2.3516454700705174e7 0.0
2.3516454700705174e7 -4.0199778922711406e6 0.0
0.0 0.0 0.0

5.875682037655996e6 2.8197716452198017e7 0.0
2.8197716452198017e7 -6.594155459787865e6 0.0
0.0 0.0 0.0

54167.003026048245 3.1286040458212126e7 0.0
3.1286040458212126e7 -819103.3783488864 0.0
0.0 0.0 0.0

559266.4484704435 1.9474189717956748e7 0.0
1.9474189717956748e7 -2.0371162441788338e7 0.0
0.0 0.0 0.0

-1.992918304980775e7 2.820907701261656e7 0.0
2.820907701261656e7 151647.8319353452 0.0
0.0 0.0 0.0

-5.9718665242505465e6 2.8543426412935674e7 0.0
2.8543426412935674e7 8.10761233763282e6 0.0
0.0 0.0 0.0

3.4847761306054387e6 1.9662694837112678e6 0.0
1.9662694837112678e6 -2.4074702436575286e7 0.0
0.0 0.0 0.0

-849425.9023593594 2.8909917080891635e7 0.0
2.8909917080891635e7 -2.71195132525073e6 0.0
0.0 0.0 0.0

-6.047715651119602e6 4.580600241424268e7 0.0
4.580600241424268e7 3.958842589897063e6 0.0
0.0 0.0 0.0

-2.648828926534207e6 1.6731546482239999e7 0.0
1.6731546482239999e7 -7.779825127986434e6 0.0
0.0 0.0 0.0

1.3645805318767037e6 1.460199304655241e7 0.0
1.460199304655241e7 -2.738167499492707e7 0.0
0.0 0.0 0.0

533191.8089880496 1.4272000163606778e7 0.0
1.4272000163606778e7 -3.29752573544555e7 0.0
0.0 0.0 0.0

-813822.6814879384 1.567956310399652e7 0.0
1.567956310399652e7 -3.47957814583485e7 0.0
0.0 0.0 0.0

1.3445328642532408e7 4.0296861251913294e7 0.0
4.0296861251913294e7 -4.612612006211819e6 0.0
0.0 0.0 0.0

1.263017861829319e6 2.2349603211588018e7 0.0
2.2349603211588018e7 -1.3448661997581534e7 0.0
0.0 0.0 0.0

6.809169944543031e6 2.0376268213273272e7 0.0
2.0376268213273272e7 3.7096813865736365e7 0.0
0.0 0.0 0.0

-2.5160292603744097e7 2.28134734477248e7 0.0
2.28134734477248e7 3.685390487450421e6 0.0
0.0 0.0 0.0

-7.274385010465898e7 3.836872470947635e7 0.0
3.836872470947635e7 -6.863104080596114e6 0.0
0.0 0.0 0.0

1.2979051871275008e6 6.661285851506147e6 0.0
6.661285851506147e6 -6.1214420209788755e7 0.0
0.0 0.0 0.0

3.8134879143341817e6 2.3752528518421717e7 0.0
2.3752528518421717e7 -6.0311734858057005e6 0.0
0.0 0.0 0.0

5.175855108185531e6 2.6136375019482803e7 0.0
2.6136375019482803e7 -7.387919819980802e6 0.0
0.0 0.0 0.0

3.466551970084307e6 2.0774796962300218e6 0.0
2.0774796962300218e6 -2.2700241711060148e7 0.0
0.0 0.0 0.0

-1.882553687455688e7 2.6545312991930597e7 0.0
2.6545312991930597e7 -6.568356280664894e6 0.0
0.0 0.0 0.0

-332924.74039511755 2.0420330766619783e7 0.0
2.0420330766619783e7 2.400636959335253e7 0.0
0.0 0.0 0.0

9.396640223388948e6 1.9766705272751193e7 0.0
1.9766705272751193e7 1.3896003358592574e7 0.0
0.0 0.0 0.0

-8.235996776264437e6 -4.161587060554404e6 0.0
-4.161587060554404e6 2.4373164600500364e7 0.0
0.0 0.0 0.0

459141.84848733246 1.749883508241415e7 0.0
1.749883508241415e7 -2.479817148117775e7 0.0
0.0 0.0 0.0

1.7217474992963113e6 1.0822973769481923e7 0.0
1.0822973769481923e7 -2.384522701919494e7 0.0
0.0 0.0 0.0

486330.0103022966 9.304148343264531e6 0.0
9.304148343264531e6 -5.238578483651068e6 0.0
0.0 0.0 0.0

-9.111341892625213e6 -4.0270002098021912e6 0.0
-4.0270002098021912e6 2.1267288238183606e7 0.0
0.0 0.0 0.0

6.987810835050914e6 1.996878911217679e7 0.0
1.996878911217679e7 8.68918648974062e7 0.0
0.0 0.0 0.0

-8.296591503306191e6 5.524141043748069e6 0.0
5.524141043748069e6 4.685154665031769e7 0.0
0.0 0.0 0.0

3.828373394406979e6 3.2476484368230518e7 0.0
3.2476484368230518e7 -3.5779916052061534e6 0.0
0.0 0.0 0.0

-1.9748132409784002e6 2.1555815412937384e7 0.0
2.1555815412937384e7 350629.1265597034 0.0
0.0 0.0 0.0

-2.6545625209615463e6 1.8988632079131234e7 0.0
1.8988632079131234e7 -1.3666171002744865e7 0.0
0.0 0.0 0.0

2.9890153207469727e6 2.587050489567193e7 0.0
2.587050489567193e7 -8.974077134046633e6 0.0
0.0 0.0 0.0

-3.869493222263383e6 2.7474609552883815e7 0.0
2.7474609552883815e7 7.846538067493652e6 0.0
0.0 0.0 0.0

8.171256004822989e6 4.712615108826199e7 0.0
4.712615108826199e7 -1.053654202593843e6 0.0
0.0 0.0 0.0

2.880257536881754e6 4.341320540565098e6 0.0
4.341320540565098e6 -1.2160772718526026e7 0.0
0.0 0.0 0.0

-9.393979314805765e6 -1.8623577482664182e6 0.0
-1.8623577482664182e6 2.6300368252885707e7 0.0
0.0 0.0 0.0

-135469.18431303103 2.0167922774662927e7 0.0
2.0167922774662927e7 2.66374734614778e6 0.0
0.0 0.0 0.0

-9.831895940384781e6 2.9295462375954658e7 0.0
2.9295462375954658e7 6.485580614705061e6 0.0
0.0 0.0 0.0

-949119.7492843736 2.0246014213246703e7 0.0
2.0246014213246703e7 2.709863957183787e7 0.0
0.0 0.0 0.0

-9.712443753479032e6 1.411776317913426e7 0.0
1.411776317913426e7 2.947617672489674e7 0.0
0.0 0.0 0.0

1.0854435802148897e6 1.5825301849650102e7 0.0
1.5825301849650102e7 -2.6145575578453545e7 0.0
0.0 0.0 0.0

-1.8434237891116306e8 3.0082289592161067e7 0.0
3.0082289592161067e7 -1.3129924199131273e7 0.0
0.0 0.0 0.0

-9.975003129643427e6 1.2843954533633787e7 0.0
1.2843954533633787e7 3.0940506337388515e7 0.0
0.0 0.0 0.0

-8.25986030553863e6 2.9231260189710878e7 0.0
2.9231260189710878e7 7.036677787106246e6 0.0
0.0 0.0 0.0

435279.6319448035 1.898929030412613e7 0.0
1.898929030412613e7 -2.1716345060572702e7 0.0
0.0 0.0 0.0

-1.9377998442670535e6 1.645496115948952e7 0.0
1.645496115948952e7 -3.407340165416583e7 0.0
0.0 0.0 0.0

6.250577078422288e6 4.449690819563572e7 0.0
4.449690819563572e7 -749002.4591554115 0.0
0.0 0.0 0.0

-2.2937575818318147e6 1.7373450587516665e7 0.0
1.7373450587516665e7 -3.102141516757306e7 0.0
0.0 0.0 0.0

1.233840376183154e6 2.2138651516997274e7 0.0
2.2138651516997274e7 -1.298466624911037e7 0.0
0.0 0.0 0.0

907164.1440890506 2.0599594819648683e7 0.0
2.0599594819648683e7 5.204597313440091e6 0.0
0.0 0.0 0.0

2.240266052303589e6 3.6481733927221015e7 0.0
3.6481733927221015e7 -642436.3179563795 0.0
0.0 0.0 0.0

-1.168217171759388e7 2.9137463246040344e7 0.0
2.9137463246040344e7 5.633281137520091e6 0.0
0.0 0.0 0.0

814445.1095727924 1.6976011426384687e7 0.0
1.6976011426384687e7 -2.4714199026569426e7 0.0
0.0 0.0 0.0

894205.1177921481 2.1931796228494734e7 0.0
2.1931796228494734e7 -1.419503686021302e7 0.0
0.0 0.0 0.0

-2.554199421679288e6 2.7790017259168945e7 0.0
2.7790017259168945e7 2.343641052070872e6 0.0
0.0 0.0 0.0

-6.974860483623679e6 2.894155171839587e7 0.0
2.894155171839587e7 7.569285069212973e6 0.0
0.0 0.0 0.0

-8.039584831450969e6 -2.608290125772862e6 0.0
-2.608290125772862e6 3.733635502332785e7 0.0
0.0 0.0 0.0

-5.056727039185515e6 1.997325851978122e7 0.0
1.997325851978122e7 2.1405338007501736e7 0.0
0.0 0.0 0.0

-2.5720950515184784e6 1.807518810099324e7 0.0
1.807518810099324e7 -2.8062664015112884e7 0.0
0.0 0.0 0.0

2.1739554098483425e7 2.2540883381003074e7 0.0
2.2540883381003074e7 4.1627445166753624e6 0.0
0.0 0.0 0.0

-31927.21795574203 1.7882679568753462e7 0.0
1.7882679568753462e7 -2.4833792803997498e7 0.0
0.0 0.0 0.0

-498285.73740417353 2.1158740405454032e7 0.0
2.1158740405454032e7 -3.025278656297656e6 0.0
0.0 0.0 0.0

-9.2466032085792e6 1.0538256013162566e7 0.0
1.0538256013162566e7 3.733692195645448e7 0.0
0.0 0.0 0.0

-7.516947430829434e6 2.3176575285678156e7 0.0
2.3176575285678156e7 -1.3970397067599135e7 0.0
0.0 0.0 0.0

-1.67946347900669e6 1.908437380194932e7 0.0
1.908437380194932e7 -7.211476044788144e6 0.0
0.0 0.0 0.0

-37837.599460459314 2.178644182346193e7 0.0
2.178644182346193e7 -1.3140368696642665e7 0.0
0.0 0.0 0.0

-1.4009961132472774e7 5.040295446245579e7 0.0
5.040295446245579e7 6.2637135676718615e6 0.0
0.0 0.0 0.0

-5.542053258812107e7 1.7710798207959574e7 0.0
1.7710798207959574e7 4.456877861247301e6 0.0
0.0 0.0 0.0

3.720667834002168e6 3.3473570617279865e7 0.0
3.3473570617279865e7 -4.1123307347501097e6 0.0
0.0 0.0 0.0

-8.97429117615381e6 4.794058485054758e7 0.0
4.794058485054758e7 5.195298217638817e6 0.0
0.0 0.0 0.0

2.9467270059000097e7 6.1970964582531504e7 0.0
6.1970964582531504e7 -2.395915851935087e6 0.0
0.0 0.0 0.0

-1.0107665173030868e6 1.6024689000582047e7 0.0
1.6024689000582047e7 -3.2434946415503707e7 0.0
0.0 0.0 0.0

-9.806421849201297e6 1.8381896788420394e7 0.0
1.8381896788420394e7 -3.637360129030788e7 0.0
0.0 0.0 0.0

-4.357468910229137e6 2.6543670742440086e7 0.0
2.6543670742440086e7 1.0221725289356038e7 0.0
0.0 0.0 0.0

-1.007633576234165e7 1.3510479004986813e7 0.0
1.3510479004986813e7 3.0758256489343554e7 0.0
0.0 0.0 0.0

-1.2107778771351755e7 2.5798899706969403e7 0.0
2.5798899706969403e7 2.781550994657818e6 0.0
0.0 0.0 0.0

1.2624366461633358e6 2.0894424957046423e7 0.0
2.0894424957046423e7 8.882808521999933e6 0.0
0.0 0.0 0.0

-129362.36485514743 1.9755403390728712e7 0.0
1.9755403390728712e7 -1.0596348954489296e7 0.0
0.0 0.0 0.0

1.04303041499534e7 5.033491846896878e7 0.0
5.033491846896878e7 -1.6196529038685313e6 0.0
0.0 0.0 0.0

2.8037248753955127e6 2.497754825465149e7 0.0
2.497754825465149e7 -9.74783013200556e6 0.0
0.0 0.0 0.0

3.326208300089012e6 2.191134456194741e7 0.0
2.191134456194741e7 -3.6419567683194773e6 0.0
0.0 0.0 0.0

2.6253552225759197e6 1.44353045084752e6 0.0
1.44353045084752e6 -4.205133792358198e7 0.0
0.0 0.0 0.0

-4.219538013824977e6 2.7458592238756936e7 0.0
2.7458592238756936e7 8.565955344610792e6 0.0
0.0 0.0 0.0

-2.416416161697223e6 2.0576695444535673e7 0.0
2.0576695444535673e7 5.669559527936921e6 0.0
0.0 0.0 0.0

1.411221692522835e6 1.3371230893719744e7 0.0
1.3371230893719744e7 -1.5944430050805608e7 0.0
0.0 0.0 0.0

-1.7660476424222887e6 1.6616727696965415e7 0.0
1.6616727696965415e7 -3.4345497081029795e7 0.0
0.0 0.0 0.0

-2.607903445493864e6 2.2282096262697935e7 0.0
2.2282096262697935e7 1.9526810308388233e7 0.0
0.0 0.0 0.0

-2.0116881687609311e6 1.9833395112722002e7 0.0
1.9833395112722002e7 3.001799956379643e7 0.0
0.0 0.0 0.0

-1.089749863882781e6 1.8997786705785584e7 0.0
1.8997786705785584e7 -4.696755034790236e6 0.0
0.0 0.0 0.0

6.296923864552936e6 2.7248884379430648e7 0.0
2.7248884379430648e7 -6.582406004031865e6 0.0
0.0 0.0 0.0

-3.5279978447074434e6 2.6289434802290443e7 0.0
2.6289434802290443e7 1.041147544601478e7 0.0
0.0 0.0 0.0

-6.401943963347483e6 3.4169486442152075e6 0.0
3.4169486442152075e6 5.8629005591182195e7 0.0
0.0 0.0 0.0

-4.0043010981419724e6 1.356771676160238e7 0.0
1.356771676160238e7 8.63826271886771e6 0.0
0.0 0.0 0.0

-123412.96621333202 2.012237170579057e7 0.0
2.012237170579057e7 -6.414020347547067e6 0.0
0.0 0.0 0.0

-5.728310601053291e6 2.7648526639523964e7 0.0
2.7648526639523964e7 8.997328597283745e6 0.0
0.0 0.0 0.0

-3.2586005182669647e6 2.25255530478834e7 0.0
2.25255530478834e7 1.595093216064797e7 0.0
0.0 0.0 0.0

1.914947595278983e6 1.3548950767324625e7 0.0
1.3548950767324625e7 -2.251680802177843e7 0.0
0.0 0.0 0.0

-1.3734258298890665e6 3.044406802797888e7 0.0
3.044406802797888e7 1.255841996845835e6 0.0
0.0 0.0 0.0

3.005977056903799e6 3.8344233935214e7 0.0
3.8344233935214e7 -723474.2185937492 0.0
0.0 0.0 0.0

-2.187316507489947e6 2.4092321509941127e7 0.0
2.4092321509941127e7 6.056678658280549e6 0.0
0.0 0.0 0.0

1.3474534350473024e6 1.5818694549047723e7 0.0
1.5818694549047723e7 -2.4366932577365287e7 0.0
0.0 0.0 0.0

-823426.8225332886 3.089474955216105e7 0.0
3.089474955216105e7 -1.4336416279383693e6 0.0
0.0 0.0 0.0

3.6224575276564267e6 2.6721573671732027e7 0.0
2.6721573671732027e7 -8.148072861321618e6 0.0
0.0 0.0 0.0

1.4302267225684337e6 2.0222757309746724e7 0.0
2.0222757309746724e7 3.2737967472317003e7 0.0
0.0 0.0 0.0

-2.305117688688063e6 2.3377806641715802e7 0.0
2.3377806641715802e7 7.381031953041371e6 0.0
0.0 0.0 0.0

-4.742593196248265e6 2.966746513702096e7 0.0
2.966746513702096e7 6.100875662914649e6 0.0
0.0 0.0 0.0

-7.895524718262296e6 1.0288768164603898e6 0.0
1.0288768164603898e6 4.623430264486575e7 0.0
0.0 0.0 0.0

2.5291214016968445e6 3.7331022601993546e7 0.0
3.7331022601993546e7 -631651.0019936914 0.0
0.0 0.0 0.0

2.686331968364779e6 1.4991664360490288e6 0.0
1.4991664360490288e6 -4.087559440063909e7 0.0
0.0 0.0 0.0

187070.6928341824 2.8548752799854137e7 0.0
2.8548752799854137e7 -5.005879517245458e6 0.0
0.0 0.0 0.0

-7.99296348980335e6 -967175.7232873719 0.0
-967175.7232873719 4.0852493754698746e7 0.0
0.0 0.0 0.0

-1.7504117506314167e6 1.8491598504206877e7 0.0
1.8491598504206877e7 -5.142870831093053e6 0.0
0.0 0.0 0.0

-1.1447489164967025e7 2.7655303364890125e7 0.0
2.7655303364890125e7 4.1782576195374406e6 0.0
0.0 0.0 0.0

-2.566766075400861e6 2.2411384070196543e7 0.0
2.2411384070196543e7 -4.0565358455350758e6 0.0
0.0 0.0 0.0

-4.496706695738479e6 2.254546031360349e7 0.0
2.254546031360349e7 -6.486979223395907e6 0.0
0.0 0.0 0.0

-2.0220031747210333e6 2.025005315028112e7 0.0
2.025005315028112e7 -1.9755350891514387e7 0.0
0.0 0.0 0.0

-8.899297455458453e6 1.5184101269807793e7 0.0
1.5184101269807793e7 3.1951296999943584e7 0.0
0.0 0.0 0.0

2.023065704446708e6 2.1396828973042436e7 0.0
2.1396828973042436e7 1.1433769319711626e7 0.0
0.0 0.0 0.0

2.5838459235872533e6 8.950534006855251e6 0.0
8.950534006855251e6 -2.968429732566705e7 0.0
0.0 0.0 0.0

3.8257502479787003e6 2.0577170216281094e7 0.0
2.0577170216281094e7 3.1207999984880373e7 0.0
0.0 0.0 0.0

-1.2562115923371496e7 1.990350243912541e7 0.0
1.990350243912541e7 -7.329405772061881e7 0.0
0.0 0.0 0.0

-3.283960822031729e6 2.1328603109310567e7 0.0
2.1328603109310567e7 1.5881675179229483e7 0.0
0.0 0.0 0.0

-1.6888389989118255e6 3.1093291857424777e7 0.0
3.1093291857424777e7 57437.858487546444 0.0
0.0 0.0 0.0

-2.648008186409324e6 2.3483276878293153e7 0.0
2.3483276878293153e7 2.150680840021508e6 0.0
0.0 0.0 0.0

1.3063615068094083e6 2.3348714776506104e7 0.0
2.3348714776506104e7 -1.222260738652928e7 0.0
0.0 0.0 0.0

3.008765017540252e6 2.2543188836959958e7 0.0
2.2543188836959958e7 -7.5429743149102405e6 0.0
0.0 0.0 0.0

-4.566703277797261e6 2.737297189076565e7 0.0
2.737297189076565e7 9.200782831564803e6 0.0
0.0 0.0 0.0

-3.2715000715555586e6 2.222926866138008e7 0.0
2.222926866138008e7 2.0096037851277087e7 0.0
0.0 0.0 0.0

-1.9527642787137702e6 2.0038179352145046e7 0.0
2.0038179352145046e7 3.029871544470042e7 0.0
0.0 0.0 0.0

-4.992075899282952e6 1.959458481818587e7 0.0
1.959458481818587e7 -1.9901911550494943e7 0.0
0.0 0.0 0.0

699466.2712478731 1.6677237803284205e7 0.0
1.6677237803284205e7 -2.180682603208357e7 0.0
0.0 0.0 0.0

-1.8585781512232535e6 2.222533762636695e7 0.0
2.222533762636695e7 1.863121340307075e7 0.0
0.0 0.0 0.0

486409.7769757863 1.0982327060422007e7 0.0
1.0982327060422007e7 -4.205832695929114e7 0.0
0.0 0.0 0.0

-3.2600576769925654e6 2.127588027588242e7 0.0
2.127588027588242e7 -1.2913724568279525e7 0.0
0.0 0.0 0.0

3.638619611332734e6 3.955945031336543e7 0.0
3.955945031336543e7 -631390.0821338596 0.0
0.0 0.0 0.0

3.093372109407706e6 1.9823948518766344e7 0.0
1.9823948518766344e7 2.6692519125778828e7 0.0
0.0 0.0 0.0

2.5159607481171124e7 2.6168718045715857e7 0.0
2.6168718045715857e7 8.386532023082776e7 0.0
0.0 0.0 0.0

-2.5650095108536366e7 2.4831004380055804e7 0.0
2.4831004380055804e7 -8.550028053703235e7 0.0
0.0 0.0 0.0

-3.09583716713732e6 2.061512777252867e7 0.0
2.061512777252867e7 3.3962984353273367e6 0.0
0.0 0.0 0.0

-3.032558110781335e7 3.989743661293465e7 0.0
3.989743661293465e7 7.600337563921411e6 0.0
0.0 0.0 0.0

-1.0268898781361883e6 2.6530988280246135e7 0.0
2.6530988280246135e7 -4.513194117929539e6 0.0
0.0 0.0 0.0

-1.5322844100823505e6 2.2453963012173347e7 0.0
2.2453963012173347e7 1.5993220235876556e7 0.0
0.0 0.0 0.0

2.590670167432852e6 1.9877691501457464e7 0.0
1.9877691501457464e7 3.019727887100982e7 0.0
0.0 0.0 0.0

9.32409205809332e6 2.1344933342624936e7 0.0
2.1344933342624936e7 5.2561321440036505e7 0.0
0.0 0.0 0.0

8.754436567157498e6 2.308812565239499e7 0.0
2.308812565239499e7 1.0735869072299866e7 0.0
0.0 0.0 0.0

8.407312965341106e6 1.90429777698988e7 0.0
1.90429777698988e7 3.419968739897701e7 0.0
0.0 0.0 0.0

5.744165258055024e6 2.705896704231836e7 0.0
2.705896704231836e7 -6.879692226459008e6 0.0
0.0 0.0 0.0

1.7242760207366683e6 2.034993424659098e7 0.0
2.034993424659098e7 1.8550762395064104e7 0.0
0.0 0.0 0.0

-1.6760298863651445e6 2.1367654683227737e7 0.0
2.1367654683227737e7 1.955241358037122e7 0.0
0.0 0.0 0.0

5.076798866600871e6 3.498685879186842e7 0.0
3.498685879186842e7 -2.7209925442950246e6 0.0
0.0 0.0 0.0

3.8919070221860195e6 2.2506275907073423e7 0.0
2.2506275907073423e7 1.4417052458299996e7 0.0
0.0 0.0 0.0

3.206731179852193e6 1.8141756135613087e6 0.0
1.8141756135613087e6 -3.1492207065206047e7 0.0
0.0 0.0 0.0

-8.188448808148404e6 1.7556654114350393e7 0.0
1.7556654114350393e7 2.2705278021912966e7 0.0
0.0 0.0 0.0

-7.915482062503481e6 -2.565663351177186e6 0.0
-2.565663351177186e6 3.8347631481419094e7 0.0
0.0 0.0 0.0

-3.9744901894722767e6 2.1619876830932345e7 0.0
2.1619876830932345e7 2.199949875623383e7 0.0
0.0 0.0 0.0

1.4092982659646748e6 3.1807459048395865e7 0.0
3.1807459048395865e7 -2.1572869202306187e6 0.0
0.0 0.0 0.0

6.651604227448475e6 2.2041120771039095e7 0.0
2.2041120771039095e7 1.9376242810584426e7 0.0
0.0 0.0 0.0

5.297523092348023e6 1.9005470234833e7 0.0
1.9005470234833e7 2.5350257932414807e7 0.0
0.0 0.0 0.0

-3.743081724892012e6 2.924565466149821e7 0.0
2.924565466149821e7 6.778350943349315e6 0.0
0.0 0.0 0.0

3.3340064790041307e6 4.1250671695029875e6 0.0
4.1250671695029875e6 -1.6948637037803095e7 0.0
0.0 0.0 0.0

6133.030109589687 2.923636869213644e7 0.0
2.923636869213644e7 -4.079486171608047e6 0.0
0.0 0.0 0.0

2.3584744639098775e6 1.1418142558272429e7 0.0
1.1418142558272429e7 -2.424117616647558e7 0.0
0.0 0.0 0.0

-8.315142561407027e6 2.8074942268468104e7 0.0
2.8074942268468104e7 7.312398734620985e6 0.0
0.0 0.0 0.0

6.691784516106458e6 2.9271892786819816e7 0.0
2.9271892786819816e7 -6.108308945522683e6 0.0
0.0 0.0 0.0

-1.0990605552640278e7 2.4383995787427023e7 0.0
2.4383995787427023e7 541356.2720576115 0.0
0.0 0.0 0.0

1.770538299628321e6 1.63942660415017e6 0.0
1.63942660415017e6 -6.139688426043334e7 0.0
0.0 0.0 0.0

6.405179125804204e6 2.3113487855801214e7 0.0
2.3113487855801214e7 3.7314481107253386e6 0.0
0.0 0.0 0.0

2.778199969987916e6 3.0285263072767984e7 0.0
3.0285263072767984e7 -4.482547957458542e6 0.0
0.0 0.0 0.0

1.491084685553465e6 2.621886885631508e7 0.0
2.621886885631508e7 -8.0541310740046855e6 0.0
0.0 0.0 0.0

-2.6802816710908143e6 2.038923034874455e7 0.0
2.038923034874455e7 -1.3730772950305682e7 0.0
0.0 0.0 0.0

2.8125725645096432e6 4.332582152607157e6 0.0
4.332582152607157e6 -2.9117513863234185e7 0.0
0.0 0.0 0.0

-2.93418084491781e6 2.4789242897182822e7 0.0
2.4789242897182822e7 6.910263651853751e6 0.0
0.0 0.0 0.0

-83104.72680879198 1.4009565922868652e7 0.0
1.4009565922868652e7 -3.5122047969103314e7 0.0
0.0 0.0 0.0

-7.82615984225985e6 -2.2235135739653213e6 0.0
-2.2235135739653213e6 4.235823709106623e7 0.0
0.0 0.0 0.0

-4.358444848204435e6 2.0543186692881107e7 0.0
2.0543186692881107e7 1.966270685890542e7 0.0
0.0 0.0 0.0

-1.5805645163492776e7 2.776756742861984e7 0.0
2.776756742861984e7 3.1428589342544135e6 0.0
0.0 0.0 0.0

446439.12193945795 6.024069557798363e6 0.0
6.024069557798363e6 -8.913295853331748e7 0.0
0.0 0.0 0.0

-2.920116770019686e6 1.7379125751709584e7 0.0
1.7379125751709584e7 4.193732989763241e7 0.0
0.0 0.0 0.0

519536.79115695506 2.111360420080446e7 0.0
2.111360420080446e7 2.4996585772208128e7 0.0
0.0 0.0 0.0

-287025.1429090593 1.9156286749709055e7 0.0
1.9156286749709055e7 3.792419540917343e7 0.0
0.0 0.0 0.0

-2.0936467504305793e6 2.207324371832229e7 0.0
2.207324371832229e7 1.5395784789538574e6 0.0
0.0 0.0 0.0

-4.377346012156061e6 2.1032761855896365e7 0.0
2.1032761855896365e7 1.542098314440668e7 0.0
0.0 0.0 0.0

-2.2672454701812263e6 2.0493966057565093e7 0.0
2.0493966057565093e7 -1.0600963039930137e7 0.0
0.0 0.0 0.0

791556.6557768537 1.6052859804159066e7 0.0
1.6052859804159066e7 -2.307094074817554e7 0.0
0.0 0.0 0.0

248016.81798038632 1.0451559409610478e7 0.0
1.0451559409610478e7 -5.224529762278723e7 0.0
0.0 0.0 0.0

-7.876529388865612e6 -2.4025410183360735e6 0.0
-2.4025410183360735e6 3.9572163085158706e7 0.0
0.0 0.0 0.0

-7.120869977209698e6 -1.6965968458476001e6 0.0
-1.6965968458476001e6 4.916268224357508e7 0.0
0.0 0.0 0.0

-1.005801952813051e7 2.6175079086237635e7 0.0
2.6175079086237635e7 1.825744554013562e6 0.0
0.0 0.0 0.0

1.390806563181337e6 2.332917276140219e7 0.0
2.332917276140219e7 -1.2554855860476207e7 0.0
0.0 0.0 0.0

1.1816208435605895e6 1.9081829283055406e7 0.0
1.9081829283055406e7 4.36250776644749e7 0.0
0.0 0.0 0.0

-1.7485306140728353e6 2.057057942983245e7 0.0
2.057057942983245e7 -7.404455246102993e6 0.0
0.0 0.0 0.0

6.358740780673136e6 2.6033665652503695e7 0.0
2.6033665652503695e7 -6.509592900688836e6 0.0
0.0 0.0 0.0

-3.320733104419298e6 2.6545912014561106e7 0.0
2.6545912014561106e7 7.285714715081312e6 0.0
0.0 0.0 0.0

-8.997587925541146e6 -2.0928829478088964e6 0.0
-2.0928829478088964e6 2.7301648922913216e7 0.0
0.0 0.0 0.0

1.6332459857643567e7 5.497997309299881e7 0.0
5.497997309299881e7 -2.2368694590544533e6 0.0
0.0 0.0 0.0

919661.4203375108 2.132825328327042e7 0.0
2.132825328327042e7 -9.703666184642278e6 0.0
0.0 0.0 0.0

-7.495069473722996e6 1.7697360839533318e7 0.0
1.7697360839533318e7 -5.8597798098136105e7 0.0
0.0 0.0 0.0

3.124337493217431e6 2.7520327927627256e6 0.0
2.7520327927627256e6 -3.776869940108207e7 0.0
0.0 0.0 0.0

-571022.9381248592 2.029793004981819e7 0.0
2.029793004981819e7 -6.724554648730312e6 0.0
0.0 0.0 0.0

-5.81926183313674e6 1.9513644044612627e7 0.0
1.9513644044612627e7 2.2822572087646507e7 0.0
0.0 0.0 0.0

-2.715355560984663e7 2.3555741990239304e7 0.0
2.3555741990239304e7 4.107181199184235e6 0.0
0.0 0.0 0.0

-6.419707138611952e6 2.3401219512593683e7 0.0
2.3401219512593683e7 -1.0618955892685484e7 0.0
0.0 0.0 0.0

7.100443454864463e6 1.8500848595441997e7 0.0
1.8500848595441997e7 2.9760417345448263e7 0.0
0.0 0.0 0.0

-3.5020979186140615e6 1.9926882764436223e7 0.0
1.9926882764436223e7 -1.5108103834919708e7 0.0
0.0 0.0 0.0

-9.55800437913741e6 198319.68244864696 0.0
198319.68244864696 2.68610479729795e7 0.0
0.0 0.0 0.0

-683588.7926768991 2.1529782285108984e7 0.0
2.1529782285108984e7 -1.0868664915581115e7 0.0
0.0 0.0 0.0

-385480.3188665123 2.0967825866217636e7 0.0
2.0967825866217636e7 4.459306018686995e6 0.0
0.0 0.0 0.0

-536622.2393850461 2.193394344434764e7 0.0
2.193394344434764e7 1.718517890609566e7 0.0
0.0 0.0 0.0

404424.7265313547 1.9180689695508555e7 0.0
1.9180689695508555e7 -1.85384136321596e7 0.0
0.0 0.0 0.0

-504199.6953172032 2.072676235534968e7 0.0
2.072676235534968e7 2.7782030977295816e7 0.0
0.0 0.0 0.0

-61415.15651963976 1.9963867201963063e7 0.0
1.9963867201963063e7 249146.21232726387 0.0
0.0 0.0 0.0

1.479521821358148e6 2.328745315025434e7 0.0
2.328745315025434e7 -1.2719373697009552e7 0.0
0.0 0.0 0.0

5.490779665758426e6 2.2215352835282933e7 0.0
2.2215352835282933e7 -1.196121383694521e6 0.0
0.0 0.0 0.0

787745.8160432521 1.3627599350495946e7 0.0
1.3627599350495946e7 -3.1034733994695462e7 0.0
0.0 0.0 0.0

-4.41580670555263e6 2.180330914295482e7 0.0
2.180330914295482e7 2.0568123309536107e7 0.0
0.0 0.0 0.0

-368912.8259130805 1.7961301752710722e7 0.0
1.7961301752710722e7 -9.093547700130198e6 0.0
0.0 0.0 0.0

-5.387303047424494e7 3.1923834631576397e7 0.0
3.1923834631576397e7 -263023.6182615943 0.0
0.0 0.0 0.0

5.414549600816242e6 1.977747478052866e7 0.0
1.977747478052866e7 5.496195855852535e7 0.0
0.0 0.0 0.0

2.564046912322717e6 1.4305197626140057e6 0.0
1.4305197626140057e6 -4.327711601915435e7 0.0
0.0 0.0 0.0

-7.259833367581995e6 -1.7160414850054986e6 0.0
-1.7160414850054986e6 4.755745543301777e7 0.0
0.0 0.0 0.0

-4.984177845510719e6 1.6437058339362843e7 0.0
1.6437058339362843e7 -5.093304819121338e7 0.0
0.0 0.0 0.0

-2.2747215133917313e6 1.7695424973390125e7 0.0
1.7695424973390125e7 -3.1508867388607696e7 0.0
0.0 0.0 0.0

-2.9171362159288004e6 2.1943122485807914e7 0.0
2.1943122485807914e7 -6.115878311551658e6 0.0
0.0 0.0 0.0

-1.9780102785908524e7 2.9455477486557882e7 0.0
2.9455477486557882e7 -1.3020056150726998e7 0.0
0.0 0.0 0.0

-4.032685087636031e6 1.9711679425336484e7 0.0
1.9711679425336484e7 2.951125216280358e7 0.0
0.0 0.0 0.0

1.4681927810398377e6 2.3166337455101967e7 0.0
2.3166337455101967e7 -1.2713651893968165e7 0.0
0.0 0.0 0.0

-6.011105655129954e6 -444945.2723738158 0.0
-444945.2723738158 6.30013767159572e7 0.0
0.0 0.0 0.0

-7.163383885967886e6 1.851770078004585e7 0.0
1.851770078004585e7 2.563113461542076e7 0.0
0.0 0.0 0.0

873922.92731582 3.96089102929125e6 0.0
3.96089102929125e6 -8.299490631191456e7 0.0
0.0 0.0 0.0

-1.7444616767947217e6 3.179719849714708e7 0.0
3.179719849714708e7 98113.31840039487 0.0
0.0 0.0 0.0

1.2631819182223156e6 2.2185771598900375e6 0.0
2.2185771598900375e6 -7.192301395633447e7 0.0
0.0 0.0 0.0

-2.4852826240065787e7 5.1851887770714775e7 0.0
5.1851887770714775e7 8.012538673358405e6 0.0
0.0 0.0 0.0

-5.846037941019803e6 -157050.65889917925 0.0
-157050.65889917925 6.5869496542991385e7 0.0
0.0 0.0 0.0

994682.050727589 1.4015011793735126e7 0.0
1.4015011793735126e7 -3.0960719956743907e7 0.0
0.0 0.0 0.0

-1.20175684789766e7 2.7365015928942673e7 0.0
2.7365015928942673e7 4.651019955025691e6 0.0
0.0 0.0 0.0

-5.101263839883908e7 3.2522587837989394e7 0.0
3.2522587837989394e7 -3.7304207023823746e6 0.0
0.0 0.0 0.0

1.0649746035582386e6 2.9972654287733203e6 0.0
2.9972654287733203e6 -7.716780480292739e7 0.0
0.0 0.0 0.0

-2.6174833622573586e6 2.5657616700183816e7 0.0
2.5657616700183816e7 3.163729483618824e6 0.0
0.0 0.0 0.0

-3.070444750568064e6 2.335598771918436e7 0.0
2.335598771918436e7 1.4948581139587637e7 0.0
0.0 0.0 0.0

1.8850744854173467e7 1.8301190759073865e7 0.0
1.8301190759073865e7 7.527578545740333e6 0.0
0.0 0.0 0.0

-966010.3403638583 1.7414093720583946e7 0.0
1.7414093720583946e7 -2.7510626817028154e7 0.0
0.0 0.0 0.0

-2.8844564115752373e6 1.8537531352420732e7 0.0
1.8537531352420732e7 -2.8738180350755654e7 0.0
0.0 0.0 0.0

580064.695521649 2.5689713444694962e7 0.0
2.5689713444694962e7 -8.908656620272709e6 0.0
0.0 0.0 0.0

-1.807720426663384e6 3.2449509669964183e7 0.0
3.2449509669964183e7 184659.31824705214 0.0
0.0 0.0 0.0

-8.87027734823494e6 1.304727504644089e7 0.0
1.304727504644089e7 3.60908498179851e7 0.0
0.0 0.0 0.0

1.5808146071631722e6 1.731255646833238e6 0.0
1.731255646833238e6 -6.496295550545227e7 0.0
0.0 0.0 0.0

-1.2432050357057476e7 3.613105504296819e7 0.0
3.613105504296819e7 4.721200648407983e6 0.0
0.0 0.0 0.0

3.4384040677314093e6 5.517598074982456e6 0.0
5.517598074982456e6 -2.3223024441081565e7 0.0
0.0 0.0 0.0

-2.5037869163659117e6 2.0401727339551874e7 0.0
2.0401727339551874e7 -1.8400105712954536e7 0.0
0.0 0.0 0.0

1.4552935195566975e6 2.0738069666093918e6 0.0
2.0738069666093918e6 -6.772337462424815e7 0.0
0.0 0.0 0.0

-3.0442120770348953e6 1.9187106167417817e7 0.0
1.9187106167417817e7 -2.582211949958299e7 0.0
0.0 0.0 0.0

-8.77095919057391e6 9.777747992650133e6 0.0
9.777747992650133e6 4.20845145618697e7 0.0
0.0 0.0 0.0

-4.885275158474906e6 1.372383591446419e6 0.0
1.372383591446419e6 4.202811415584226e6 0.0
0.0 0.0 0.0

-3.516796008227965e6 1.891506682736598e7 0.0
1.891506682736598e7 5.001056232368326e6 0.0
0.0 0.0 0.0

4.211448971816868e6 2.0612534169826675e7 0.0
2.0612534169826675e7 2.7886053736370973e7 0.0
0.0 0.0 0.0

2.278622071995696e6 1.2805519749857215e6 0.0
1.2805519749857215e6 -4.789056886030748e7 0.0
0.0 0.0 0.0

-4.18892657313626e6 2.6517010763191294e7 0.0
2.6517010763191294e7 1.0329037890010873e7 0.0
0.0 0.0 0.0

-8.435434008296082e6 -691601.6113940283 0.0
-691601.6113940283 3.79940876269825e7 0.0
0.0 0.0 0.0

31542.380601706307 2.134983462604502e7 0.0
2.134983462604502e7 167227.3630836497 0.0
0.0 0.0 0.0

787981.4374301191 1.4235187428471176e7 0.0
1.4235187428471176e7 -2.9372857352410015e7 0.0
0.0 0.0 0.0

-3.1243275849876693e6 2.1810282335094184e7 0.0
2.1810282335094184e7 2.157138527997763e7 0.0
0.0 0.0 0.0

3.6413725014578905e6 1.987765915975897e7 0.0
1.987765915975897e7 3.833372417626338e7 0.0
0.0 0.0 0.0

-1.0279944928886154e6 2.0294007859065723e7 0.0
2.0294007859065723e7 -4.72633307127342e6 0.0
0.0 0.0 0.0

1.0976502816461083e6 2.5451359125012767e7 0.0
2.5451359125012767e7 -8.522149602636341e6 0.0
0.0 0.0 0.0

-3.2561417331399405e6 2.7776322282817475e7 0.0
2.7776322282817475e7 5.169286187663024e6 0.0
0.0 0.0 0.0

-1.2946403686660335e6 2.1020512875779305e7 0.0
2.1020512875779305e7 -7.528882673270999e6 0.0
0.0 0.0 0.0

2.2602912365844205e7 5.8429124304933995e6 0.0
5.8429124304933995e6 -2.3968930259801084e6 0.0
0.0 0.0 0.0

-6.2774307346191965e6 -548180.2258126939 0.0
-548180.2258126939 6.024819285034789e7 0.0
0.0 0.0 0.0

9.254695707657252e6 2.3753636457847435e7 0.0
2.3753636457847435e7 1.2668147225979567e7 0.0
0.0 0.0 0.0

-6.986446814223133e6 -1.4796490883106212e6 0.0
-1.4796490883106212e6 5.09263924173916e7 0.0
0.0 0.0 0.0

-1.5774765915881253e6 2.1390550123257313e7 0.0
2.1390550123257313e7 -1.0342425878838607e6 0.0
0.0 0.0 0.0

-7.137640524645554e6 1.0711910798023777e7 0.0
1.0711910798023777e7 3.1599982031821333e7 0.0
0.0 0.0 0.0

-2.7757711447683284e6 1.8796628451139763e7 0.0
1.8796628451139763e7 7.495012430170704e6 0.0
0.0 0.0 0.0

-485317.1852620377 612474.0258877146 0.0
612474.0258877146 1.7540105649586562e6 0.0
0.0 0.0 0.0

-442669.88266234647 1.4792486396721627e6 0.0
1.4792486396721627e6 1.6723945668444657e6 0.0
0.0 0.0 0.0

1.1865194234296363e6 2.2633400643441368e7 0.0
2.2633400643441368e7 -1.3790680322604181e7 0.0
0.0 0.0 0.0

-9.923643093606435e6 2.4275327320839204e7 0.0
2.4275327320839204e7 -4.576378603637432e6 0.0
0.0 0.0 0.0

1.509312391824996e6 2.3064408327552833e7 0.0
2.3064408327552833e7 -1.2405918115456305e7 0.0
0.0 0.0 0.0

-9.889643180883437e6 1.1725195730983594e7 0.0
1.1725195730983594e7 3.447374521387809e7 0.0
0.0 0.0 0.0

-3.1231567026553242e6 2.0256927324549347e7 0.0
2.0256927324549347e7 -1.686872187366876e7 0.0
0.0 0.0 0.0

489722.07877062634 1.3704504703589484e7 0.0
1.3704504703589484e7 -3.299159668084487e7 0.0
0.0 0.0 0.0

-3.9140582368771667e6 2.583395705264865e7 0.0
2.583395705264865e7 1.1272124267704464e7 0.0
0.0 0.0 0.0

975968.0050480813 1.4220671192752637e7 0.0
1.4220671192752637e7 -2.7479039249523077e7 0.0
0.0 0.0 0.0

-1.1323602509760192e8 4.005395787946308e7 0.0
4.005395787946308e7 -1.0554688767221775e7 0.0
0.0 0.0 0.0

527011.8852962945 1.8548405510891967e7 0.0
1.8548405510891967e7 -1.9832860760030407e7 0.0
0.0 0.0 0.0

-3.2423670659827897e6 3.803156681103607e7 0.0
3.803156681103607e7 831205.5275676129 0.0
0.0 0.0 0.0

707378.8491640505 2.0532940123269644e7 0.0
2.0532940123269644e7 6.153198268321014e6 0.0
0.0 0.0 0.0

-4.086278725699067e6 2.0781148065921735e7 0.0
2.0781148065921735e7 2.4963768554875605e7 0.0
0.0 0.0 0.0

-5.198689033211817e6 2.314607279855217e7 0.0
2.314607279855217e7 -1.4066754298217379e7 0.0
0.0 0.0 0.0

1.6411990037792826e7 4.2239907015987426e7 0.0
4.2239907015987426e7 -5.673335323612968e6 0.0
0.0 0.0 0.0

-7.482505919809261e6 -2.0141042177524522e6 0.0
-2.0141042177524522e6 4.488122342532309e7 0.0
0.0 0.0 0.0

2.4608162895978373e6 1.4399350764439737e6 0.0
1.4399350764439737e6 -4.455924893515396e7 0.0
0.0 0.0 0.0

371986.19581531826 2.608656689954275e7 0.0
2.608656689954275e7 -6.217449836542426e6 0.0
0.0 0.0 0.0

-9.257562912803102e6 -2.9935038282641107e6 0.0
-2.9935038282641107e6 2.0383838743795764e7 0.0
0.0 0.0 0.0

1.9135304896121286e6 1.5080258764687942e6 0.0
1.5080258764687942e6 -5.729969726139834e7 0.0
0.0 0.0 0.0

-6.413719766148437e6 -861659.599964362 0.0
-861659.599964362 5.824102938890352e7 0.0
0.0 0.0 0.0

-8.230521845421901e6 -2.844373560035179e6 0.0
-2.844373560035179e6 3.449494603528277e7 0.0
0.0 0.0 0.0

-1.8999047426615662e6 2.0143438730574694e7 0.0
2.0143438730574694e7 -5.486486136593245e6 0.0
0.0 0.0 0.0

-7.367373448367961e6 -1.8400377266255242e6 0.0
-1.8400377266255242e6 4.6259033767111324e7 0.0
0.0 0.0 0.0

2.373941506989071e6 1.4964644857494114e6 0.0
1.4964644857494114e6 -4.618655167999095e7 0.0
0.0 0.0 0.0

2.0356493231794052e6 1.5671333303064923e6 0.0
1.5671333303064923e6 -5.5169941890753314e7 0.0
0.0 0.0 0.0

-6.5430072423179485e6 -1.1436787283629666e6 0.0
-1.1436787283629666e6 5.630298600756752e7 0.0
0.0 0.0 0.0

-5.646394479664119e6 2.1506822462462448e7 0.0
2.1506822462462448e7 -1.5702721571181096e7 0.0
0.0 0.0 0.0

1.06417217186064e6 2.1953144065189235e7 0.0
2.1953144065189235e7 -1.5011712174907243e7 0.0
0.0 0.0 0.0

-2.6974991822914355e6 2.8097791819828887e7 0.0
2.8097791819828887e7 5.678021387903141e6 0.0
0.0 0.0 0.0

2.0595911462560967e6 1.4662636612533343e6 0.0
1.4662636612533343e6 -5.366629835893903e7 0.0
0.0 0.0 0.0

-6.688573633333981e6 -1.3271102346939212e6 0.0
-1.3271102346939212e6 5.418630249498658e7 0.0
0.0 0.0 0.0

-1.2295277308109454e6 2.0669845347997926e7 0.0
2.0669845347997926e7 -4.241259169687031e6 0.0
0.0 0.0 0.0

1.369246307797363e6 1.5219901170754815e7 0.0
1.5219901170754815e7 -2.5947948536605347e7 0.0
0.0 0.0 0.0

4424.7137778841425 2.810322539278157e7 0.0
2.810322539278157e7 -3.1662280086853234e6 0.0
0.0 0.0 0.0

-2.6723628857862474e6 2.199015380485351e7 0.0
2.199015380485351e7 -369397.06217769114 0.0
0.0 0.0 0.0

-1.593912859897064e6 1.9790607865600836e7 0.0
1.9790607865600836e7 3.2070052495181814e7 0.0
0.0 0.0 0.0

-6.843697945417676e6 -1.365712985451628e6 0.0
-1.365712985451628e6 5.242525768220797e7 0.0
0.0 0.0 0.0

2.1747845301824734e6 1.3845919732746936e6 0.0
1.3845919732746936e6 -5.159161343802283e7 0.0
0.0 0.0 0.0

4.595333192513365e6 3.1135259683913436e7 0.0
3.1135259683913436e7 -5.385054061406234e6 0.0
0.0 0.0 0.0

3.4332640340329856e6 1.9539805946028974e7 0.0
1.9539805946028974e7 5.0847079441303596e7 0.0
0.0 0.0 0.0

8.524496011048019e7 8.778869082058007e7 0.0
8.778869082058007e7 -1.2823481282747604e7 0.0
0.0 0.0 0.0

-449645.39288104884 1.194756596471326e7 0.0
1.194756596471326e7 -8.634851721517682e6 0.0
0.0 0.0 0.0

-1.9098208321593795e6 3.1355252707983013e7 0.0
3.1355252707983013e7 1.849884701402096e6 0.0
0.0 0.0 0.0

-9.632291525108097e6 383368.14875710633 0.0
383368.14875710633 1.4792605902010418e7 0.0
0.0 0.0 0.0

-2.528531548436706e6 2.8706457792495288e7 0.0
2.8706457792495288e7 4.767436750603914e6 0.0
0.0 0.0 0.0

3.3072248956236187e6 2.6016362473517247e6 0.0
2.6016362473517247e6 -1.413222073406415e7 0.0
0.0 0.0 0.0

1.2332219850276168e7 2.8344407237705488e7 0.0
2.8344407237705488e7 -4.635607389164278e6 0.0
0.0 0.0 0.0

3.4181228587507727e6 2.671914991291852e7 0.0
2.671914991291852e7 -8.140504180918319e6 0.0
0.0 0.0 0.0

-6.68690401462868e6 1.835425013759207e7 0.0
1.835425013759207e7 1.8854196586027082e7 0.0
0.0 0.0 0.0

-1.695799370622675e6 2.2193693824251335e7 0.0
2.2193693824251335e7 -1.4142702412744216e6 0.0
0.0 0.0 0.0

-4.52389449689392e6 858798.7811525156 0.0
858798.7811525156 7.233859511903334e7 0.0
0.0 0.0 0.0

246977.98505068803 3.757537053870458e6 0.0
3.757537053870458e6 -493181.7437058509 0.0
0.0 0.0 0.0

-5.166676035624571e6 -904516.9400200758 0.0
-904516.9400200758 1.99786553189158e6 0.0
0.0 0.0 0.0

741803.6870977818 -1.6518914747508147e6 0.0
-1.6518914747508147e6 -2.0369991575096417e6 0.0
0.0 0.0 0.0

4.200045790614373e6 2.703766452130926e7 0.0
2.703766452130926e7 -7.63150144816415e6 0.0
0.0 0.0 0.0

-6.92328874431967e6 1.692090134961927e7 0.0
1.692090134961927e7 -5.74831306690092e7 0.0
0.0 0.0 0.0

5.060295400965305e6 1.9729016376935445e7 0.0
1.9729016376935445e7 3.4004512624400854e7 0.0
0.0 0.0 0.0

-3.3626951657997686e6 2.1098196872315668e7 0.0
2.1098196872315668e7 -1.3007033188485706e7 0.0
0.0 0.0 0.0

3.5500464490836877e6 2.0000726182802443e6 0.0
2.0000726182802443e6 -2.7211492250780553e7 0.0
0.0 0.0 0.0

-1.961922500207155e6 1.898466474952927e7 0.0
1.898466474952927e7 -4.858204741357198e6 0.0
0.0 0.0 0.0

270150.7023659749 2.1816865560816854e7 0.0
2.1816865560816854e7 -1.4168709317609515e7 0.0
0.0 0.0 0.0

-4.1926748232749198e6 1.6370688175840924e7 0.0
1.6370688175840924e7 -4.106466299878665e7 0.0
0.0 0.0 0.0

716609.5352018287 2.895188186612321e7 0.0
2.895188186612321e7 -3.631896359583942e6 0.0
0.0 0.0 0.0

-3.708570907287161e6 2.1045779031060796e7 0.0
2.1045779031060796e7 2.3283506480337683e7 0.0
0.0 0.0 0.0

-1.559525502974582e6 1.9575184103101972e7 0.0
1.9575184103101972e7 -3.772747413074781e6 0.0
0.0 0.0 0.0

394879.37789242284 2.1605716939535912e7 0.0
2.1605716939535912e7 3.293291992078357e6 0.0
0.0 0.0 0.0

-6.460432069700573e6 1.7696304497151013e7 0.0
1.7696304497151013e7 -2.864740852955155e7 0.0
0.0 0.0 0.0

-2.5692274190457206e7 3.027481363979283e7 0.0
3.027481363979283e7 -7.501999244728033e6 0.0
0.0 0.0 0.0

1.4725536468382444e7 4.602992818467873e7 0.0
4.602992818467873e7 -4.268335607011254e6 0.0
0.0 0.0 0.0

-2.789268784896116e6 -626655.670612187 0.0
-626655.670612187 6.018171683873882e6 0.0
0.0 0.0 0.0

-2.0954241167839286e6 -1.5813633816300395e6 0.0
-1.5813633816300395e6 5.437005280741619e6 0.0
0.0 0.0 0.0

-3.8883501936391583e6 2.203597011303702e7 0.0
2.203597011303702e7 2.0571167219455574e7 0.0
0.0 0.0 0.0

-908988.6449062347 2.5094750187332604e7 0.0
2.5094750187332604e7 -6.573030160973238e6 0.0
0.0 0.0 0.0

-1.4098599857475136e6 3.247746192510264e7 0.0
3.247746192510264e7 1.5080720128042889e6 0.0
0.0 0.0 0.0

-2.310606678697451e6 2.9253044942333158e7 0.0
2.9253044942333158e7 3.907949428857929e6 0.0
0.0 0.0 0.0

1.380543916657129e7 2.3115520547643784e7 0.0
2.3115520547643784e7 1.0844322449476475e7 0.0
0.0 0.0 0.0

3.7223794434882547e6 2.3168528611804176e7 0.0
2.3168528611804176e7 -4.752539019436153e6 0.0
0.0 0.0 0.0

5.809100973884203e6 1.9105052520421535e7 0.0
1.9105052520421535e7 5.669668509982739e7 0.0
0.0 0.0 0.0

-4.898266178819119e7 3.1521142252537105e7 0.0
3.1521142252537105e7 -1.5687350309623366e7 0.0
0.0 0.0 0.0

-1.2216004329035012e8 4.322377644126954e7 0.0
4.322377644126954e7 2.5412930447891727e6 0.0
0.0 0.0 0.0

-6.673015311862836e6 1.7393344898170013e7 0.0
1.7393344898170013e7 1.6650870695120662e7 0.0
0.0 0.0 0.0

-2.537481213913759e6 2.273301798303514e7 0.0
2.273301798303514e7 1.737082818956658e7 0.0
0.0 0.0 0.0

2.7684872181797083e6 5.179718009316186e6 0.0
5.179718009316186e6 -2.5125397743140854e7 0.0
0.0 0.0 0.0

-6.69086868720264e6 1.854773085028217e7 0.0
1.854773085028217e7 2.3489707752396118e7 0.0
0.0 0.0 0.0

-7.439459940402381e6 -5.497899321779846e6 0.0
-5.497899321779846e6 1.8737204224047903e7 0.0
0.0 0.0 0.0

1.097061488040188e7 2.4526822464230675e7 0.0
2.4526822464230675e7 1.3362019004077226e7 0.0
0.0 0.0 0.0

-2.976344984597761e6 1.6731990939707024e7 0.0
1.6731990939707024e7 -3.930756045639988e7 0.0
0.0 0.0 0.0

3.240543548366528e6 4.518743785642148e6 0.0
4.518743785642148e6 -3.178800708984757e7 0.0
0.0 0.0 0.0

6.579796569092575e6 2.2181039164690576e7 0.0
2.2181039164690576e7 7.113513917807672e6 0.0
0.0 0.0 0.0

-1.2090933063914888e6 4.831894365145107e6 0.0
4.831894365145107e6 9.262527525193901e7 0.0
0.0 0.0 0.0

-4.906786200601107e6 3.0548138572567582e7 0.0
3.0548138572567582e7 6.422596336146424e6 0.0
0.0 0.0 0.0

-1.8494386812680308e7 2.6639099397422493e7 0.0
2.6639099397422493e7 202801.24683072325 0.0
0.0 0.0 0.0

2.2523760424541617e6 2.540675732980509e7 0.0
2.540675732980509e7 -9.607281841851763e6 0.0
0.0 0.0 0.0

-8.40255877840972e6 -3.382140868533142e6 0.0
-3.382140868533142e6 3.137335060854455e7 0.0
0.0 0.0 0.0

674835.3653835168 2.0079400388048716e7 0.0
2.0079400388048716e7 7.275452590738523e6 0.0
0.0 0.0 0.0

-7.682146229451645e6 -2.311470969700238e6 0.0
-2.311470969700238e6 4.107367804977745e7 0.0
0.0 0.0 0.0

6.62323558742456e6 2.322469538421733e7 0.0
2.322469538421733e7 7.035256625203112e6 0.0
0.0 0.0 0.0

-1.9862516172333446e6 2.4169233345399525e7 0.0
2.4169233345399525e7 1.4615484643351994e6 0.0
0.0 0.0 0.0

3.285438182312837e6 2.9001200306435353e6 0.0
2.9001200306435353e6 -3.523413785338902e7 0.0
0.0 0.0 0.0

-5.63629984345006e6 2.2172833075695824e7 0.0
2.2172833075695824e7 -1.5067633294807423e7 0.0
0.0 0.0 0.0

3.562549271285463e6 2.1404374069150095e6 0.0
2.1404374069150095e6 -2.440140787071879e7 0.0
0.0 0.0 0.0

185530.8798097577 1.8040048852858406e7 0.0
1.8040048852858406e7 -2.3263354919126667e7 0.0
0.0 0.0 0.0

-6.360736496385065e6 3.733424704852691e7 0.0
3.733424704852691e7 2.961304613368917e6 0.0
0.0 0.0 0.0

-323211.6738191366 1.776703494174111e7 0.0
1.776703494174111e7 -228843.8234044104 0.0
0.0 0.0 0.0

598730.1651635189 2.488914119085137e7 0.0
2.488914119085137e7 -9.934785029674498e6 0.0
0.0 0.0 0.0

-4.593689230549131e6 3.5366133175684236e7 0.0
3.5366133175684236e7 2.255736079633503e6 0.0
0.0 0.0 0.0

-2.7757820159201254e6 2.7508164956024338e7 0.0
2.7508164956024338e7 6.758339459784415e6 0.0
0.0 0.0 0.0

-2.9426563837543707e6 2.885286018330361e7 0.0
2.885286018330361e7 3.2659904019276006e6 0.0
0.0 0.0 0.0

-42657.0569001853 3.537620695012546e7 0.0
3.537620695012546e7 -1.0805925445621528e6 0.0
0.0 0.0 0.0

1.094068337056309e6 2.399074312467692e7 0.0
2.399074312467692e7 -1.0779016721627465e7 0.0
0.0 0.0 0.0

-3.9194137776584877e6 3.904811296961923e7 0.0
3.904811296961923e7 1.1171093210852165e6 0.0
0.0 0.0 0.0

-1.0147037713087607e7 1.3875553627600893e7 0.0
1.3875553627600893e7 1.9418323830295593e7 0.0
0.0 0.0 0.0

845380.3220847659 1.475449820760428e7 0.0
1.475449820760428e7 -1.8282775005076025e7 0.0
0.0 0.0 0.0

-1.0124006349029912e7 -321575.5836101294 0.0
-321575.5836101294 2.578396750739036e7 0.0
0.0 0.0 0.0

-1.3393248790939366e7 2.8659514940876454e7 0.0
2.8659514940876454e7 4.5412342926259395e6 0.0
0.0 0.0 0.0

-7.052311891741425e6 1.1143813901424005e6 0.0
1.1143813901424005e6 5.404353944985161e7 0.0
0.0 0.0 0.0

4.2343128912594095e6 3.2358055838333182e7 0.0
3.2358055838333182e7 -4.813480779691541e6 0.0
0.0 0.0 0.0

574735.6616700077 1.802107638882356e7 0.0
1.802107638882356e7 -2.3258255289202943e7 0.0
0.0 0.0 0.0

1.5082153660856504e6 2.22319391890023e7 0.0
2.22319391890023e7 8.873073959573464e6 0.0
0.0 0.0 0.0

-1.0014634987873198e6 1.764661942453894e7 0.0
1.764661942453894e7 -1.111209545913533e7 0.0
0.0 0.0 0.0

131776.01847836748 1.5221152481428282e7 0.0
1.5221152481428282e7 -3.279178619407072e7 0.0
0.0 0.0 0.0

3.1525994319927422e6 4.0071385837071924e6 0.0
4.0071385837071924e6 -1.723478629107715e7 0.0
0.0 0.0 0.0

5.161835019161015e6 2.721401217140047e7 0.0
2.721401217140047e7 -7.118305938857318e6 0.0
0.0 0.0 0.0

-9059.417133397423 2.1552092507536557e7 0.0
2.1552092507536557e7 7.019822451620305e6 0.0
0.0 0.0 0.0

-2.606404256521084e6 2.1388192464145437e7 0.0
2.1388192464145437e7 -1.688291859750114e6 0.0
0.0 0.0 0.0

1.6829882820724584e6 1.54995304338072e6 0.0
1.54995304338072e6 -6.21583982953938e7 0.0
0.0 0.0 0.0

-1.0707031321788404e7 5.66495163196638e6 0.0
5.66495163196638e6 2.6013604140008e7 0.0
0.0 0.0 0.0

1.2829827295802794e6 4.156514149972865e6 0.0
4.156514149972865e6 -6.197389961122005e7 0.0
0.0 0.0 0.0

-8.629655430037627e6 -4.406598679655998e6 0.0
-4.406598679655998e6 2.3878264010103382e7 0.0
0.0 0.0 0.0

-2.3890176410660734e6 2.405779998385427e7 0.0
2.405779998385427e7 -118738.79212908063 0.0
0.0 0.0 0.0

-546524.6431455533 2.162784320972549e7 0.0
2.162784320972549e7 4.1064384365937277e6 0.0
0.0 0.0 0.0

845324.0168823767 2.1878347625285227e7 0.0
2.1878347625285227e7 6.332941260989484e6 0.0
0.0 0.0 0.0

-5.9848037973611e6 1.708773707516616e7 0.0
1.708773707516616e7 1.9234620110784605e7 0.0
0.0 0.0 0.0

-8.150592812761012e6 -2.5860369106923854e6 0.0
-2.5860369106923854e6 3.529236259555766e7 0.0
0.0 0.0 0.0

6.443156488397872e6 2.9276947353614446e7 0.0
2.9276947353614446e7 -6.098743879471885e6 0.0
0.0 0.0 0.0

6.736862696475102e6 2.2542019264988746e7 0.0
2.2542019264988746e7 1.6590676786084881e7 0.0
0.0 0.0 0.0

2.0061704437437449e6 9.081937725582672e6 0.0
9.081937725582672e6 -2.8136403983689822e7 0.0
0.0 0.0 0.0

-8.300696900802275e6 -939585.4087433972 0.0
-939585.4087433972 3.7646936679736495e7 0.0
0.0 0.0 0.0

4.456044294791371e6 2.2767565215292796e7 0.0
2.2767565215292796e7 1.3049899132697782e7 0.0
0.0 0.0 0.0

-1.7719210407372955e6 1.7617238549449645e7 0.0
1.7617238549449645e7 4.571420533497069e7 0.0
0.0 0.0 0.0

7.69284288166903e6 2.3853343789993428e7 0.0
2.3853343789993428e7 1.3032494858546305e7 0.0
0.0 0.0 0.0

-5.834227386311522e6 1.6375590906494254e7 0.0
1.6375590906494254e7 -5.384558588167708e7 0.0
0.0 0.0 0.0

-2.6058237202596255e6 2.0622517187651735e7 0.0
2.0622517187651735e7 2.7454517108848356e7 0.0
0.0 0.0 0.0

1.6715111511137607e6 1.9981597452511586e7 0.0
1.9981597452511586e7 2.1735008373228777e7 0.0
0.0 0.0 0.0

2.1087944609473664e6 2.3586789274788674e7 0.0
2.3586789274788674e7 -1.182638033232208e7 0.0
0.0 0.0 0.0

-3.464306535930848e6 2.274831871138596e7 0.0
2.274831871138596e7 -6.484316801193752e6 0.0
0.0 0.0 0.0

826511.6452018432 8.76862270162892e6 0.0
8.76862270162892e6 -4.533602055167341e7 0.0
0.0 0.0 0.0

903672.9383436665 7.8749202544781845e6 0.0
7.8749202544781845e6 -4.770595530761728e7 0.0
0.0 0.0 0.0

-65932.4025349645 1.726323972028629e7 0.0
1.726323972028629e7 -1.050967390649123e7 0.0
0.0 0.0 0.0

-6.137242628474677e6 1.8158538827489793e7 0.0
1.8158538827489793e7 3.171147487778461e7 0.0
0.0 0.0 0.0

823167.6549456455 2.193464451741089e7 0.0
2.193464451741089e7 -1.4934992936946478e7 0.0
0.0 0.0 0.0

-4.956273397605445e6 3.895413400039848e6 0.0
3.895413400039848e6 6.912396430666494e7 0.0
0.0 0.0 0.0

-3.3904988149478175e6 1.6051152865421278e7 0.0
1.6051152865421278e7 -4.617240299899346e7 0.0
0.0 0.0 0.0

1.6686676062635258e6 1.6336936225879144e7 0.0
1.6336936225879144e7 5.8245117058563866e7 0.0
0.0 0.0 0.0

1.8042463795145042e6 1.6466587891788706e6 0.0
1.6466587891788706e6 -5.9634893160989515e7 0.0
0.0 0.0 0.0

1.3986500282947426e6 2.516596948019551e7 0.0
2.516596948019551e7 -9.725289093102293e6 0.0
0.0 0.0 0.0

6.307070060393725e6 2.3540407660948228e7 0.0
2.3540407660948228e7 1.3609867222071877e7 0.0
0.0 0.0 0.0

-7.477527968361303e6 1.791363294534745e7 0.0
1.791363294534745e7 -4.9346493630814835e7 0.0
0.0 0.0 0.0

1.223439583424476e7 1.1476686646551164e7 0.0
1.1476686646551164e7 1.3055116253605043e6 0.0
0.0 0.0 0.0

-2.2880172197649307e6 2.1882885332030527e7 0.0
2.1882885332030527e7 -8.05437710523678e6 0.0
0.0 0.0 0.0

5.285942867872543e6 2.306476150302212e7 0.0
2.306476150302212e7 1.4187414359196419e7 0.0
0.0 0.0 0.0

-2.953947025326051e6 2.3817465620954815e7 0.0
2.3817465620954815e7 1.1974934689648177e7 0.0
0.0 0.0 0.0

-2.8715614113379987e6 2.2613045236671366e7 0.0
2.2613045236671366e7 1.7793944549317077e7 0.0
0.0 0.0 0.0

508377.0601965757 1.3367487781378562e7 0.0
1.3367487781378562e7 -1.603634124779059e7 0.0
0.0 0.0 0.0

-8.3233269699061345e6 1.7235272054334782e7 0.0
1.7235272054334782e7 2.926251447461397e7 0.0
0.0 0.0 0.0

-4.834297352500368e6 1.5914364653020253e7 0.0
1.5914364653020253e7 -5.016206132328363e7 0.0
0.0 0.0 0.0

-2.760834376576539e6 2.1722313428855848e7 0.0
2.1722313428855848e7 -1.2088976767909676e7 0.0
0.0 0.0 0.0

-6.980167545105245e6 2.4941320462161448e7 0.0
2.4941320462161448e7 6.5901312139125485e6 0.0
0.0 0.0 0.0

373965.0152556803 1.189851766628007e7 0.0
1.189851766628007e7 -9.11164553847107e6 0.0
0.0 0.0 0.0

-4.065652745031301e6 6.433247796706897e6 0.0
6.433247796706897e6 8.998819318789066e7 0.0
0.0 0.0 0.0

-8.366598135520278e6 1.7569535695818715e7 0.0
1.7569535695818715e7 -6.162733004592753e7 0.0
0.0 0.0 0.0

-1.610909078253433e6 1.9639661354747124e7 0.0
1.9639661354747124e7 3.188408413936883e7 0.0
0.0 0.0 0.0

-1.800720014041039e6 3.314688746592439e7 0.0
3.314688746592439e7 253779.40199573 0.0
0.0 0.0 0.0

2.053941935609604e7 2.33068594420998e7 0.0
2.33068594420998e7 8.10213762173805e6 0.0
0.0 0.0 0.0

507992.95857973583 1.925231906557863e7 0.0
1.925231906557863e7 4.089508074629371e7 0.0
0.0 0.0 0.0

-3.762866234437516e6 2.173854031736648e7 0.0
2.173854031736648e7 2.0505110019087464e7 0.0
0.0 0.0 0.0

484100.8189065857 1.5878977491975069e7 0.0
1.5878977491975069e7 -1.781191468949298e7 0.0
0.0 0.0 0.0

-3.377168338042299e6 2.0752372537801705e7 0.0
2.0752372537801705e7 -1.3942245828349384e7 0.0
0.0 0.0 0.0

-4.950789297894565e6 2.0024653561672024e7 0.0
2.0024653561672024e7 1.6204487282072097e7 0.0
0.0 0.0 0.0

-5.160722094476798e6 1.86643254901639e7 0.0
1.86643254901639e7 1.928462604986496e7 0.0
0.0 0.0 0.0

2.775953923061345e6 2.9074184489602204e6 0.0
2.9074184489602204e6 -3.2648659441707067e7 0.0
0.0 0.0 0.0

-4.1467822331687985e6 2.6623308471981056e7 0.0
2.6623308471981056e7 1.0490625001257608e7 0.0
0.0 0.0 0.0

-1.8548005998705216e6 1.811253771168415e7 0.0
1.811253771168415e7 -3.182447528782013e6 0.0
0.0 0.0 0.0

3.8802269719128236e6 3.2834659237627373e6 0.0
3.2834659237627373e6 -2.3325375468241528e7 0.0
0.0 0.0 0.0

2.674596404152031e6 3.1222264602506924e7 0.0
3.1222264602506924e7 -4.880304974171508e6 0.0
0.0 0.0 0.0

7.370117129085338e6 2.3599761896163646e7 0.0
2.3599761896163646e7 1.4689665479544071e7 0.0
0.0 0.0 0.0

-6.017571055156276e6 2.275009471003942e6 0.0
2.275009471003942e6 6.0789289989226304e7 0.0
0.0 0.0 0.0

1.0187318849827003e7 2.504301175196055e7 0.0
2.504301175196055e7 1.2726282635606531e7 0.0
0.0 0.0 0.0

6.894255494632605e6 2.36166249230318e7 0.0
2.36166249230318e7 9.965359715990143e6 0.0
0.0 0.0 0.0

10652.183962799609 2.0893351941212412e7 0.0
2.0893351941212412e7 -1.4673263739243638e7 0.0
0.0 0.0 0.0

2.3314487379397787e6 2.9606762808341864e6 0.0
2.9606762808341864e6 -4.339190833857689e7 0.0
0.0 0.0 0.0

3.5317447583469837e6 1.8838912581231523e7 0.0
1.8838912581231523e7 1.4477391390823549e7 0.0
0.0 0.0 0.0

576202.6015661601 2.1373642079248954e7 0.0
2.1373642079248954e7 -1.3258473161267122e7 0.0
0.0 0.0 0.0

1.6580163887071873e6 2.187271093258884e7 0.0
2.187271093258884e7 1.029783373538409e7 0.0
0.0 0.0 0.0

-1.1011067610892931e7 7.692759536424922e6 0.0
7.692759536424922e6 2.0545610211970374e7 0.0
0.0 0.0 0.0

-7.90079879459745e6 -4.753260797707917e6 0.0
-4.753260797707917e6 2.279851819087643e7 0.0
0.0 0.0 0.0

-5.537275302885298e6 2.4207052849527687e7 0.0
2.4207052849527687e7 4.398289065236081e6 0.0
0.0 0.0 0.0

655266.4547676183 1.583765691030151e7 0.0
1.583765691030151e7 -2.7932641968255144e7 0.0
0.0 0.0 0.0

-4.017717896453513e6 1.988897559681473e7 0.0
1.988897559681473e7 -1.8347075032897126e7 0.0
0.0 0.0 0.0

-4.379573379642621e6 2.777392465602499e6 0.0
2.777392465602499e6 8.714839135053037e7 0.0
0.0 0.0 0.0

-5.036508025254349e6 4.0166055392990805e7 0.0
4.0166055392990805e7 1.3244591214626569e6 0.0
0.0 0.0 0.0

659943.3869742702 6.063403584697775e6 0.0
6.063403584697775e6 -2.693629959272288e6 0.0
0.0 0.0 0.0

-1.4475000747553862e6 2.1839891184087288e7 0.0
2.1839891184087288e7 1.4138679256181065e6 0.0
0.0 0.0 0.0

3.7085165761083183e6 2.2744836064225737e7 0.0
2.2744836064225737e7 1.2885501327168198e7 0.0
0.0 0.0 0.0

-6.589516748853473e6 1.8602361710684948e7 0.0
1.8602361710684948e7 2.8288002298752304e7 0.0
0.0 0.0 0.0

-1.5248046509525916e7 2.8112958780795816e7 0.0
2.8112958780795816e7 2.6185071883179126e6 0.0
0.0 0.0 0.0

5.1802746235182565e6 2.363718649933243e7 0.0
2.363718649933243e7 1.0940446078324636e7 0.0
0.0 0.0 0.0

2.924945446781125e6 2.337162346714211e7 0.0
2.337162346714211e7 1.209612407557393e7 0.0
0.0 0.0 0.0

600252.3608970623 2.024805435778552e7 0.0
2.024805435778552e7 -1.8969705841969546e7 0.0
0.0 0.0 0.0

2.1317970725576794e6 5.542936461563549e6 0.0
5.542936461563549e6 -1.3233788243871817e7 0.0
0.0 0.0 0.0

-882271.9970653858 2.092112098970768e7 0.0
2.092112098970768e7 -1.679396763822556e7 0.0
0.0 0.0 0.0

627629.60208668 2.3400855134525232e7 0.0
2.3400855134525232e7 -1.2089784962606423e7 0.0
0.0 0.0 0.0

-2.3910846195258307e6 2.656180924579257e7 0.0
2.656180924579257e7 5.996614310292428e6 0.0
0.0 0.0 0.0

2.549558254312623e6 2.4615789719928205e7 0.0
2.4615789719928205e7 -9.890578338966329e6 0.0
0.0 0.0 0.0

1.7967588081117142e6 2.371125979109233e7 0.0
2.371125979109233e7 -1.0864192771807782e7 0.0
0.0 0.0 0.0

2.7880570006072856e6 4.0569357651588814e6 0.0
4.0569357651588814e6 -3.893868069266478e7 0.0
0.0 0.0 0.0

3.6563180913952766e6 2.280833385629737e7 0.0
2.280833385629737e7 7.877389838153909e6 0.0
0.0 0.0 0.0

597531.6812173803 2.4110929744918603e7 0.0
2.4110929744918603e7 -1.0948072472193453e7 0.0
0.0 0.0 0.0

-9.935197527145498e6 1.552832354582391e7 0.0
1.552832354582391e7 2.4124559036641963e7 0.0
0.0 0.0 0.0

-9.769224982251354e7 3.3842806779528074e7 0.0
3.3842806779528074e7 -1.104627047916476e7 0.0
0.0 0.0 0.0

3.2543243444433935e7 3.126145435343986e7 0.0
3.126145435343986e7 1.0847769352965443e8 0.0
0.0 0.0 0.0

-3.2256966359806463e7 2.943086131049678e7 0.0
2.943086131049678e7 -1.0752343166877632e8 0.0
0.0 0.0 0.0

-3.7696347689856607e6 2.0666015642577622e7 0.0
2.0666015642577622e7 2.485464240573985e7 0.0
0.0 0.0 0.0

876484.4898770526 1.5455125555296883e7 0.0
1.5455125555296883e7 -2.4424329949230686e7 0.0
0.0 0.0 0.0

-4.225145026797343e6 2.1823906763302807e7 0.0
2.1823906763302807e7 -1.431549148208832e7 0.0
0.0 0.0 0.0

3.313965268111972e6 4.0690409675466105e7 0.0
4.0690409675466105e7 -2.7689514643840934e6 0.0
0.0 0.0 0.0

-2.143684254569522e6 1.893044137633562e7 0.0
1.893044137633562e7 -2.31610761617193e7 0.0
0.0 0.0 0.0

-5.447552824298453e6 2.2924480566171948e7 0.0
2.2924480566171948e7 -8.704872162226848e6 0.0
0.0 0.0 0.0

-8.554170438368918e6 1.7445158018426884e7 0.0
1.7445158018426884e7 2.4730625095440827e7 0.0
0.0 0.0 0.0

-671747.0882612879 2.7414338159508985e7 0.0
2.7414338159508985e7 -1.797993346155104e6 0.0
0.0 0.0 0.0

-3.2289190495143747e6 1.7533863515861377e7 0.0
1.7533863515861377e7 -3.617703100508508e7 0.0
0.0 0.0 0.0

-2.2735017395034204e6 2.1756490005835764e7 0.0
2.1756490005835764e7 -7.926680688747285e6 0.0
0.0 0.0 0.0

-3.6425579605804887e6 2.3856559201692145e7 0.0
2.3856559201692145e7 1.3082456695656594e7 0.0
0.0 0.0 0.0

2.018927995165953e7 2.39297299895904e7 0.0
2.39297299895904e7 827968.7556311805 0.0
0.0 0.0 0.0

1.3917764820511697e6 2.1183144896155708e7 0.0
2.1183144896155708e7 7.69028749504358e6 0.0
0.0 0.0 0.0

-4.0562485963768195e6 2.1214510575731836e7 0.0
2.1214510575731836e7 2.200906344351375e7 0.0
0.0 0.0 0.0

-2.2602081469082072e7 2.6752276848052308e7 0.0
2.6752276848052308e7 -2.476715324036896e6 0.0
0.0 0.0 0.0

865644.8341770943 2.153692208463923e7 0.0
2.153692208463923e7 7.677924436559986e6 0.0
0.0 0.0 0.0

3.4328297898244727e6 3.1801075561284363e7 0.0
3.1801075561284363e7 -4.695965651130293e6 0.0
0.0 0.0 0.0

1.073098484342371e7 2.8882042276687063e7 0.0
2.8882042276687063e7 -5.468113634582055e6 0.0
0.0 0.0 0.0

1.4707545004303697e6 1.4763310374325901e7 0.0
1.4763310374325901e7 -1.8575346268200375e7 0.0
0.0 0.0 0.0

-3.6436499774541836e6 1.9361979070389323e7 0.0
1.9361979070389323e7 3.10444018380129e7 0.0
0.0 0.0 0.0

-218887.23247845937 1.978415849705144e7 0.0
1.978415849705144e7 -1.9599059967356358e7 0.0
0.0 0.0 0.0

-2.577595252430896e6 1.9432325329184048e7 0.0
1.9432325329184048e7 5.839184498426426e6 0.0
0.0 0.0 0.0

-5.635542490730375e6 1.9854327376554523e7 0.0
1.9854327376554523e7 1.8909681245831907e7 0.0
0.0 0.0 0.0

1.9513248916442636e6 7.812484424991909e6 0.0
7.812484424991909e6 -9.748315737479102e6 0.0
0.0 0.0 0.0

1.4822398217831948e6 2.0227786050712567e7 0.0
2.0227786050712567e7 1.1141172507030077e7 0.0
0.0 0.0 0.0

6.244580428053794e6 2.8125638619015813e7 0.0
2.8125638619015813e7 -6.502255403528292e6 0.0
0.0 0.0 0.0

-1.4512344889206886e6 1.1920072043003406e7 0.0
1.1920072043003406e7 -6.950074396067673e7 0.0
0.0 0.0 0.0

-1.0303689593153745e7 1.492314174265129e7 0.0
1.492314174265129e7 2.3348480407370932e7 0.0
0.0 0.0 0.0

2.3054842673399422e7 4.3718068096752875e7 0.0
4.3718068096752875e7 -6.5946852315200595e6 0.0
0.0 0.0 0.0

1.8501320333195776e6 8.1252093033664245e6 0.0
8.1252093033664245e6 -4.4436967426027924e7 0.0
0.0 0.0 0.0

864349.9243301346 2.0130766100863717e7 0.0
2.0130766100863717e7 8.835540310903268e6 0.0
0.0 0.0 0.0

3.2029791361397216e6 2.5820758583314735e7 0.0
2.5820758583314735e7 -8.896753063813565e6 0.0
0.0 0.0 0.0

1.5022002966883123e7 2.4966725969449636e7 0.0
2.4966725969449636e7 1.5060163167838633e8 0.0
0.0 0.0 0.0

-1.57588473321868e7 2.4313788721244484e7 0.0
2.4313788721244484e7 -1.4411588830249396e8 0.0
0.0 0.0 0.0

3.1081665354485635e7 2.167843353319779e7 0.0
2.167843353319779e7 6.473354998267613e6 0.0
0.0 0.0 0.0

1.2513475086059025e7 2.817558732420637e7 0.0
2.817558732420637e7 -4.93974895206174e6 0.0
0.0 0.0 0.0

399830.1506323023 1.1278198219025977e7 0.0
1.1278198219025977e7 -8.033069051568236e6 0.0
0.0 0.0 0.0

2.3263408393916927e7 3.903036283113452e7 0.0
3.903036283113452e7 -6.729689119750566e6 0.0
0.0 0.0 0.0

-980770.471639541 2.1552276626178697e7 0.0
2.1552276626178697e7 2.1868326794565182e7 0.0
0.0 0.0 0.0

1.6622388569377294e7 2.3569618898561534e7 0.0
2.3569618898561534e7 914946.8429776477 0.0
0.0 0.0 0.0

-3.340694867970383e6 2.585353095919844e7 0.0
2.585353095919844e7 8.422765495108144e6 0.0
0.0 0.0 0.0

-4.8385316813653605e6 1.7785455073224958e7 0.0
1.7785455073224958e7 1.7311913243796885e7 0.0
0.0 0.0 0.0

-348575.01437910204 3.963212160943584e6 0.0
3.963212160943584e6 -2.9428290096095265e6 0.0
0.0 0.0 0.0

7.981386711715307e6 2.3177866858169958e7 0.0
2.3177866858169958e7 1.542641505461912e7 0.0
0.0 0.0 0.0

482638.19719965756 2.7293143156024776e7 0.0
2.7293143156024776e7 -6.424739444222056e6 0.0
0.0 0.0 0.0

-3.7508838052972015e6 2.039385677964272e7 0.0
2.039385677964272e7 2.647897346522182e7 0.0
0.0 0.0 0.0

-5.592457794683991e6 2.699995609870799e7 0.0
2.699995609870799e7 9.808882519899337e6 0.0
0.0 0.0 0.0

-2.645151134089303e6 2.539982562601327e7 0.0
2.539982562601327e7 9.257824136502612e6 0.0
0.0 0.0 0.0

-2.519881607112599e6 1.948362532319201e7 0.0
1.948362532319201e7 -6.862668920249189e6 0.0
0.0 0.0 0.0

-1.2177510053710584e6 1.94458361451626e7 0.0
1.94458361451626e7 3.374378808898079e7 0.0
0.0 0.0 0.0

-3.162350677320026e6 2.6278024999250837e7 0.0
2.6278024999250837e7 9.774516411014985e6 0.0
0.0 0.0 0.0

-4.3522414576603295e6 1.4107955236574518e7 0.0
1.4107955236574518e7 1.032984471070075e7 0.0
0.0 0.0 0.0

-4.376456056470213e7 3.4660974461011805e7 0.0
3.4660974461011805e7 -6.424668193720089e6 0.0
0.0 0.0 0.0

-5.86114985153592e6 5.17992379458562e6 0.0
5.17992379458562e6 6.069020000573e7 0.0
0.0 0.0 0.0

-7.673240885160367e6 2.741134004235634e7 0.0
2.741134004235634e7 8.0726778232217245e6 0.0
0.0 0.0 0.0

-8.209514595606024e6 3.2920561725763243e7 0.0
3.2920561725763243e7 5.907304348254468e6 0.0
0.0 0.0 0.0

-1.4015125242753066e6 1.6940498012288902e7 0.0
1.6940498012288902e7 -3.2245734684553012e7 0.0
0.0 0.0 0.0

-2.456125043059442e6 3.676212455093288e7 0.0
3.676212455093288e7 1.6352598651678483e6 0.0
0.0 0.0 0.0

-6.671246158228839e6 4.15244824139758e7 0.0
4.15244824139758e7 1.3992335941413287e6 0.0
0.0 0.0 0.0

-8.40033153554323e6 4.2828578558470994e7 0.0
4.2828578558470994e7 1.89472052967396e6 0.0
0.0 0.0 0.0

-234675.12074339564 2.984743894134966e7 0.0
2.984743894134966e7 -3.1468948542836336e6 0.0
0.0 0.0 0.0

-8.73025527402105e6 1.4281457642552929e7 0.0
1.4281457642552929e7 3.437259601738657e7 0.0
0.0 0.0 0.0

2.944997119742308e6 1.5776803938621134e6 0.0
1.5776803938621134e6 -3.631731752218971e7 0.0
0.0 0.0 0.0

-2.3050105855278745e6 2.034353653403314e7 0.0
2.034353653403314e7 2.881059635724864e7 0.0
0.0 0.0 0.0

2.9886867910658633e6 3.27950073254482e7 0.0
3.27950073254482e7 -4.0783829651696887e6 0.0
0.0 0.0 0.0

100363.91214757133 1.749950552201702e7 0.0
1.749950552201702e7 -2.4779047712052118e7 0.0
0.0 0.0 0.0

-7.474459861941975e6 2872.4309031095854 0.0
2872.4309031095854 4.7634233670152694e7 0.0
0.0 0.0 0.0

353099.2380618964 2.1376950628706794e7 0.0
2.1376950628706794e7 1.6871282489864528e6 0.0
0.0 0.0 0.0

1.0060707573798862e6 2.1904880214397036e7 0.0
2.1904880214397036e7 -1.2111770928872751e7 0.0
0.0 0.0 0.0

-446425.6164950151 2.0403144937415402e7 0.0
2.0403144937415402e7 -1.6036972994049627e7 0.0
0.0 0.0 0.0

-4.27618557648018e6 1.8004449345142167e7 0.0
1.8004449345142167e7 -1.6138726993887799e7 0.0
0.0 0.0 0.0

-9.38116943765742e6 -2.6424122977870726e6 0.0
-2.6424122977870726e6 2.154030746176784e7 0.0
0.0 0.0 0.0

-462483.20664320834 1.9756104115342446e7 0.0
1.9756104115342446e7 -2.6280476705675796e6 0.0
0.0 0.0 0.0

3.5321714490351477e6 2.174541928836444e7 0.0
2.174541928836444e7 7.088914654906646e6 0.0
0.0 0.0 0.0

2.2129131789689723e7 2.2261760554292e7 0.0
2.2261760554292e7 8.323756973440157e6 0.0
0.0 0.0 0.0

-9.43024658148298e6 4.512491380915844e7 0.0
4.512491380915844e7 2.791834221337133e6 0.0
0.0 0.0 0.0

-5.04732796829762e6 1.8219782346899476e7 0.0
1.8219782346899476e7 1.8427938303912222e7 0.0
0.0 0.0 0.0

-1.1495095272416746e7 1.939442493284373e7 0.0
1.939442493284373e7 -6.899585026558806e7 0.0
0.0 0.0 0.0

2.485508710476719e6 7.233127104700148e6 0.0
7.233127104700148e6 -3.7117835604734875e7 0.0
0.0 0.0 0.0

-8.367888902328964e6 -3.2148860430026376e6 0.0
-3.2148860430026376e6 3.17442999406673e7 0.0
0.0 0.0 0.0

-2.331578507527243e7 3.0201233967716727e7 0.0
3.0201233967716727e7 -1.0266809444731109e7 0.0
0.0 0.0 0.0

-2.273121163183025e7 2.7270938788027596e7 0.0
2.7270938788027596e7 -5.066019458652582e6 0.0
0.0 0.0 0.0

-2.4780123632995347e6 2.0055866494516503e7 0.0
2.0055866494516503e7 -8.743087056002364e6 0.0
0.0 0.0 0.0

659313.7696903277 3.219850597559753e7 0.0
3.219850597559753e7 -2.84123851593212e6 0.0
0.0 0.0 0.0

-111272.98077455908 6.821404839683549e6 0.0
6.821404839683549e6 -6.589636838148636e7 0.0
0.0 0.0 0.0

1.0173046961267496e7 2.4855434575871926e7 0.0
2.4855434575871926e7 -3.2094859776318492e6 0.0
0.0 0.0 0.0

7.081367378884639e6 2.415953416318373e7 0.0
2.415953416318373e7 1.2220994086939273e7 0.0
0.0 0.0 0.0

1.5067958290299904e6 1.5241652877350844e7 0.0
1.5241652877350844e7 -2.41368250781631e7 0.0
0.0 0.0 0.0

-1.612244264995635e6 2.5534036924964022e7 0.0
2.5534036924964022e7 873488.1326475529 0.0
0.0 0.0 0.0

1.42971692016125e6 1.4199236873427853e7 0.0
1.4199236873427853e7 -1.7616130956331313e7 0.0
0.0 0.0 0.0

871024.4913520049 1.4875522816649746e7 0.0
1.4875522816649746e7 -2.601364583336092e7 0.0
0.0 0.0 0.0

-3.044738627110892e6 1.8910670994472694e7 0.0
1.8910670994472694e7 -1.679999780377771e7 0.0
0.0 0.0 0.0

-8.48987030203931e6 3.1847054369954895e7 0.0
3.1847054369954895e7 5.830447658462612e6 0.0
0.0 0.0 0.0

-1.7652137928818263e7 2.3220333386621695e7 0.0
2.3220333386621695e7 -7.991787722267032e7 0.0
0.0 0.0 0.0

1.9238692705914333e7 3.822965746778314e7 0.0
3.822965746778314e7 -5.590783882393006e6 0.0
0.0 0.0 0.0

7.653377311353906e6 2.81096337050204e7 0.0
2.81096337050204e7 -5.962310528516509e6 0.0
0.0 0.0 0.0

-2.5021395837275973e6 3.4080766142334834e7 0.0
3.4080766142334834e7 2.423244297612555e6 0.0
0.0 0.0 0.0

-3.740711750224613e6 2.562464692692869e7 0.0
2.562464692692869e7 1.137629991614597e7 0.0
0.0 0.0 0.0

16435.277939081192 5.597234988065478e6 0.0
5.597234988065478e6 -6.896544487547179e7 0.0
0.0 0.0 0.0

-3.637584386258171e6 2.3520688201891206e7 0.0
2.3520688201891206e7 1.6004472755993104e7 0.0
0.0 0.0 0.0

1.0073370773201287e6 5.390534091481927e6 0.0
5.390534091481927e6 -5.553572472327514e7 0.0
0.0 0.0 0.0

-138988.1882801568 2.2708370116996635e7 0.0
2.2708370116996635e7 -9.124907311211916e6 0.0
0.0 0.0 0.0

-217056.1713155727 2.1795483934448637e7 0.0
2.1795483934448637e7 -9.520639316946017e6 0.0
0.0 0.0 0.0

-1.2032220529288368e6 1.922354385087758e7 0.0
1.922354385087758e7 -3.9533108722324525e6 0.0
0.0 0.0 0.0

-2.6397590752977114e6 2.1846336698000185e7 0.0
2.1846336698000185e7 1.8855167607068136e7 0.0
0.0 0.0 0.0

-1.2618816881051348e6 2.8598910398119207e7 0.0
2.8598910398119207e7 -2.092228105494108e6 0.0
0.0 0.0 0.0

-3.787111029176607e6 2.2065525150134247e7 0.0
2.2065525150134247e7 1.5436443432316141e7 0.0
0.0 0.0 0.0

-8.046878066473536e6 -2.697619954611241e6 0.0
-2.697619954611241e6 3.612538786646577e7 0.0
0.0 0.0 0.0

1.8238166550767273e6 6.853077098774921e6 0.0
6.853077098774921e6 -3.918780297676829e7 0.0
0.0 0.0 0.0

1.9061425961958114e6 9.381476669326952e6 0.0
9.381476669326952e6 -3.039402794485642e7 0.0
0.0 0.0 0.0

2.144230481996542e6 3.550408050626395e7 0.0
3.550408050626395e7 -1.9126333009990128e6 0.0
0.0 0.0 0.0

-3.3196805022443375e6 2.182659648671048e7 0.0
2.182659648671048e7 -1.2084275615472613e7 0.0
0.0 0.0 0.0

-556092.4819932263 1.6098457267608257e7 0.0
1.6098457267608257e7 -3.2544713923240602e7 0.0
0.0 0.0 0.0

4.0169893649970796e6 2.0789001118593637e7 0.0
2.0789001118593637e7 1.690776975428071e7 0.0
0.0 0.0 0.0

-1.0151513405882623e7 3.050396025247486e6 0.0
3.050396025247486e6 2.4819335410901688e7 0.0
0.0 0.0 0.0

7.954077800320036e6 2.478751383748345e7 0.0
2.478751383748345e7 1.3387723672016228e7 0.0
0.0 0.0 0.0

-1.566541844181459e7 3.5212345724966824e7 0.0
3.5212345724966824e7 6.537551348259839e6 0.0
0.0 0.0 0.0

5.063233185923983e6 2.237787552290772e7 0.0
2.237787552290772e7 7.834739245750476e6 0.0
0.0 0.0 0.0

3.2464938778395625e6 1.93272223346569e7 0.0
1.93272223346569e7 1.6801391408796046e7 0.0
0.0 0.0 0.0

-5.843355083613359e6 3.1073670664092153e7 0.0
3.1073670664092153e7 6.118408849827289e6 0.0
0.0 0.0 0.0

-3.2797388490365017e6 2.261115156121614e7 0.0
2.261115156121614e7 1.8486695488770325e7 0.0
0.0 0.0 0.0

213410.14412922785 1.8845759187605914e7 0.0
1.8845759187605914e7 4.037590182367477e7 0.0
0.0 0.0 0.0

-2.1841257788669277e7 2.7911807399150863e7 0.0
2.7911807399150863e7 -3.0132588292325465e6 0.0
0.0 0.0 0.0

-1.4051933570117638e7 2.6509567465357304e7 0.0
2.6509567465357304e7 2.3383670019151643e6 0.0
0.0 0.0 0.0

-1.2406964127862357e7 1.800630517341508e7 0.0
1.800630517341508e7 -148614.78942972794 0.0
0.0 0.0 0.0

-8.794367016280149e7 3.6803158689431965e7 0.0
3.6803158689431965e7 -9.92263907272939e6 0.0
0.0 0.0 0.0

1.3473138475624511e7 2.227026912542225e7 0.0
2.227026912542225e7 7.928493773653001e6 0.0
0.0 0.0 0.0

-2.63698498328353e6 1.722466258917518e7 0.0
1.722466258917518e7 -3.334284111291474e7 0.0
0.0 0.0 0.0

-3.247481630768832e6 2.5073387844006833e7 0.0
2.5073387844006833e7 8.799630833945867e6 0.0
0.0 0.0 0.0

636023.5880490933 2.128490003252729e7 0.0
2.128490003252729e7 -1.6236263603975132e7 0.0
0.0 0.0 0.0

4.833711055439472e7 1.7758926015891768e7 0.0
1.7758926015891768e7 2.9530324617151786e6 0.0
0.0 0.0 0.0

-7.278912451959214e6 -1.9734542123554265e6 0.0
-1.9734542123554265e6 1.3302966946539003e7 0.0
0.0 0.0 0.0

3.4390184753531525e6 2.4876776875396343e6 0.0
2.4876776875396343e6 -1.5781561251411386e7 0.0
0.0 0.0 0.0

365762.8567018444 2.1996158129352782e7 0.0
2.1996158129352782e7 -1.3888809513482561e7 0.0
0.0 0.0 0.0

-742394.8273997535 2.0778155847970463e7 0.0
2.0778155847970463e7 -1.0292531825846506e6 0.0
0.0 0.0 0.0

-7.89376725488043e6 5.516112652540222e6 0.0
5.516112652540222e6 4.7247692758209266e7 0.0
0.0 0.0 0.0

9.093302389174514e6 2.926903679576926e7 0.0
2.926903679576926e7 -5.748174592482362e6 0.0
0.0 0.0 0.0

-1.4454974987681536e7 4.674093649027699e7 0.0
4.674093649027699e7 3.2896748400226617e6 0.0
0.0 0.0 0.0

1.2717115468630947e7 2.317759602956414e7 0.0
2.317759602956414e7 7.123127420667272e6 0.0
0.0 0.0 0.0

-8.326940836774185e6 -3.5966261385166436e6 0.0
-3.5966261385166436e6 2.967154798373589e7 0.0
0.0 0.0 0.0

-2.5578715662777383e7 2.848152223177674e7 0.0
2.848152223177674e7 -3.3393205246095853e6 0.0
0.0 0.0 0.0

1.1730455853431516e6 2.025810748087837e7 0.0
2.025810748087837e7 7.165304924047375e6 0.0
0.0 0.0 0.0

-2.016253858921547e7 4.901941218119426e7 0.0
4.901941218119426e7 4.1695825675899535e6 0.0
0.0 0.0 0.0

-6.401447462772822e6 1.909459162581479e7 0.0
1.909459162581479e7 2.4399498156565584e7 0.0
0.0 0.0 0.0

2.490577733040938e6 2.184244239245675e7 0.0
2.184244239245675e7 -1.5138663003089302e6 0.0
0.0 0.0 0.0

-7.381880463959776e6 1.8785713836776625e7 0.0
1.8785713836776625e7 -2.7113076194866568e7 0.0
0.0 0.0 0.0

-3.0905362330947504e6 2.0065564174650557e7 0.0
2.0065564174650557e7 -1.1896445496323097e7 0.0
0.0 0.0 0.0

8.989599903481668e6 2.4447394149596665e7 0.0
2.4447394149596665e7 -3.8071888690276835e6 0.0
0.0 0.0 0.0

3.966548982950722e7 4.81588034199551e7 0.0
4.81588034199551e7 -1.1474231193594413e7 0.0
0.0 0.0 0.0

-9.431613365083305e6 -1.8772617319851986e6 0.0
-1.8772617319851986e6 2.3190313476035282e7 0.0
0.0 0.0 0.0

2.827810036257246e6 3.897209496482323e7 0.0
3.897209496482323e7 -3.0060210789635135e6 0.0
0.0 0.0 0.0

4.710792796984917e6 3.3127653490919545e7 0.0
3.3127653490919545e7 -3.5751656955435383e6 0.0
0.0 0.0 0.0

-8.928808692075983e6 653628.7947903064 0.0
653628.7947903064 3.838954105472704e7 0.0
0.0 0.0 0.0

2.8933245846794154e6 1.6274253227239272e6 0.0
1.6274253227239272e6 -3.677961655555505e7 0.0
0.0 0.0 0.0

-4.330028527659481e6 2.8331531944869056e7 0.0
2.8331531944869056e7 8.46972840642096e6 0.0
0.0 0.0 0.0

6.421052066974871e6 2.4422094828445397e7 0.0
2.4422094828445397e7 1.3804331342983715e7 0.0
0.0 0.0 0.0

-4.646949549021661e6 6.560245900686104e6 0.0
6.560245900686104e6 6.634996581556257e6 0.0
0.0 0.0 0.0

-7.9058128204754125e6 1.7426566262503907e7 0.0
1.7426566262503907e7 2.461578470265275e7 0.0
0.0 0.0 0.0

5.222212956262434e6 2.3952767064067457e7 0.0
2.3952767064067457e7 1.428230994418406e7 0.0
0.0 0.0 0.0

-620644.0828885734 1.8450797600766134e7 0.0
1.8450797600766134e7 -1.287068484994815e7 0.0
0.0 0.0 0.0

-3.76220978423889e6 1.8526983341662716e7 0.0
1.8526983341662716e7 -1.828530078320576e7 0.0
0.0 0.0 0.0

2.1056554447221584e6 3.0541090016519193e7 0.0
3.0541090016519193e7 -4.883689275654014e6 0.0
0.0 0.0 0.0

-8.116975580966148e6 -2.4150144243361936e6 0.0
-2.4150144243361936e6 1.6155744278516099e7 0.0
0.0 0.0 0.0

-2.2545943361391188e6 2.1127797182994887e7 0.0
2.1127797182994887e7 4.2890681952561755e6 0.0
0.0 0.0 0.0

-5.953645217162395e6 1.862367125919159e7 0.0
1.862367125919159e7 2.99622061579607e7 0.0
0.0 0.0 0.0

855058.5853528222 1.52443661932544e7 0.0
1.52443661932544e7 -1.4514483021214718e7 0.0
0.0 0.0 0.0

1.8177594909026572e6 2.4989053905270573e7 0.0
2.4989053905270573e7 -1.0483339029576428e7 0.0
0.0 0.0 0.0

4.1557362776897354e6 4.268640853204724e7 0.0
4.268640853204724e7 -796892.6842730795 0.0
0.0 0.0 0.0

-1.2311979082740657e6 1.5643904018337099e7 0.0
1.5643904018337099e7 -3.4750139654304214e7 0.0
0.0 0.0 0.0

-4.74412804354075e7 4.969457010431442e7 0.0
4.969457010431442e7 6.345163026562773e6 0.0
0.0 0.0 0.0

686949.5242495297 1.9736290839603366e6 0.0
1.9736290839603366e6 -1.2986695142096065e6 0.0
0.0 0.0 0.0

317741.3429899559 2.2179924087774893e6 0.0
2.2179924087774893e6 -2.3526943868282125e6 0.0
0.0 0.0 0.0

5.676271343750674e6 2.0581583072723668e7 0.0
2.0581583072723668e7 2.958490664259627e7 0.0
0.0 0.0 0.0

5.594953202940758e6 2.2592246852152683e7 0.0
2.2592246852152683e7 1.6605023525975652e7 0.0
0.0 0.0 0.0

231770.33767654933 2.1354467530107047e7 0.0
2.1354467530107047e7 9.883023947515395e6 0.0
0.0 0.0 0.0

-8.961670655828148e6 1.5654436150055002e7 0.0
1.5654436150055002e7 2.4454836431645684e7 0.0
0.0 0.0 0.0

7.541614856399408e6 5.784287909550615e6 0.0
5.784287909550615e6 -1.50068909263239e6 0.0
0.0 0.0 0.0

-2.349873997691e6 2.3211975716695484e7 0.0
2.3211975716695484e7 1.0933364866951436e7 0.0
0.0 0.0 0.0

88907.69081574766 3.197772326863896e7 0.0
3.197772326863896e7 -804915.8983387005 0.0
0.0 0.0 0.0

-2.258742974657135e6 1.6588306866942352e7 0.0
1.6588306866942352e7 -3.684121524904427e7 0.0
0.0 0.0 0.0

1.1748032541615456e7 2.44023559094021e7 0.0
2.44023559094021e7 1.196131183134357e7 0.0
0.0 0.0 0.0

1.796979661838047e7 2.3714287897935256e7 0.0
2.3714287897935256e7 1.1462232635869872e7 0.0
0.0 0.0 0.0

-2.783590801529943e7 5.0988657971346416e7 0.0
5.0988657971346416e7 6.683429832329821e6 0.0
0.0 0.0 0.0

2.193376645205672e6 2.1546774544208843e7 0.0
2.1546774544208843e7 1.0241315811822802e7 0.0
0.0 0.0 0.0

-1.0249704602352623e7 1.000304645520575e7 0.0
1.000304645520575e7 1.4670277842449155e7 0.0
0.0 0.0 0.0

-1.0331651719190104e7 1.381224570866235e7 0.0
1.381224570866235e7 2.881741142999417e7 0.0
0.0 0.0 0.0

-290016.0615870927 3.117048305259015e7 0.0
3.117048305259015e7 -1.912538841239728e6 0.0
0.0 0.0 0.0

8.076326337900704e6 2.2091962664476994e7 0.0
2.2091962664476994e7 1.5918977436481867e7 0.0
0.0 0.0 0.0

-6.435069100677632e6 4.8684929272906175e6 0.0
4.8684929272906175e6 6.693594059069684e7 0.0
0.0 0.0 0.0

637204.1219416484 2.070702334075663e7 0.0
2.070702334075663e7 1.8116874652280457e7 0.0
0.0 0.0 0.0

-1.1328933724230843e7 1.882151936466129e7 0.0
1.882151936466129e7 -4.069866086923135e7 0.0
0.0 0.0 0.0

5.677042565234365e6 2.3719051238935858e7 0.0
2.3719051238935858e7 1.4763592380426986e7 0.0
0.0 0.0 0.0

-3.7921209791673273e6 1.9887827288325936e7 0.0
1.9887827288325936e7 2.783887377823259e7 0.0
0.0 0.0 0.0

-476557.7610148182 1.7370144301359847e7 0.0
1.7370144301359847e7 -1.3317664687884768e7 0.0
0.0 0.0 0.0

6.725146363987211e6 1.9923434912703823e7 0.0
1.9923434912703823e7 8.134028137614903e7 0.0
0.0 0.0 0.0

9.28468627925315e6 2.782744986844541e7 0.0
2.782744986844541e7 -5.342558605331021e6 0.0
0.0 0.0 0.0

234810.96352999192 1.9375191878840033e7 0.0
1.9375191878840033e7 -2.011298185243312e7 0.0
0.0 0.0 0.0

-522041.04694264545 1.420871095379216e7 0.0
1.420871095379216e7 -6.291424970898593e6 0.0
0.0 0.0 0.0

2.4172037294127103e6 3.0208781547518526e6 0.0
3.0208781547518526e6 -4.612128090541149e7 0.0
0.0 0.0 0.0

3.892537846373705e6 4.070057048225447e7 0.0
4.070057048225447e7 -529022.5548105238 0.0
0.0 0.0 0.0

-9.788615164376032e6 1.4587099568605162e7 0.0
1.4587099568605162e7 2.9575496899716213e7 0.0
0.0 0.0 0.0

4.1385819256782755e6 1.9141671776103523e7 0.0
1.9141671776103523e7 2.223533727925929e7 0.0
0.0 0.0 0.0

-1.0095122353631683e7 2.8059267422071613e7 0.0
2.8059267422071613e7 5.73496618894265e6 0.0
0.0 0.0 0.0

-2.233850532256183e6 2.330335823720635e7 0.0
2.330335823720635e7 2.219902392173767e6 0.0
0.0 0.0 0.0

-8.036129496912992e6 1.7982459800671082e7 0.0
1.7982459800671082e7 2.490841324504295e7 0.0
0.0 0.0 0.0

1.6231241361280838e6 1.1371614613205152e7 0.0
1.1371614613205152e7 -2.460921198895743e7 0.0
0.0 0.0 0.0

-1.3624477851000126e7 4.370234695457741e7 0.0
4.370234695457741e7 6.319583395318544e6 0.0
0.0 0.0 0.0

2.588076656417796e7 1.3205269685890246e7 0.0
1.3205269685890246e7 870603.700622322 0.0
0.0 0.0 0.0

-1.053191426869953e7 154308.4780473991 0.0
154308.4780473991 2.1420420893487357e7 0.0
0.0 0.0 0.0

-7.295612914429862e6 3.2334960341117572e7 0.0
3.2334960341117572e7 5.52807326169065e6 0.0
0.0 0.0 0.0

-2.994906505544908e7 2.4288205144930936e7 0.0
2.4288205144930936e7 3.645209226657752e6 0.0
0.0 0.0 0.0

-4.306584652797391e6 2.3108203771669593e7 0.0
2.3108203771669593e7 -1.1693631373835057e7 0.0
0.0 0.0 0.0

-5.8386500020962216e7 3.625321438691338e7 0.0
3.625321438691338e7 -3.86462165546784e6 0.0
0.0 0.0 0.0

-4.891784835258198e6 2.340665378261457e7 0.0
2.340665378261457e7 -6.813535428197452e6 0.0
0.0 0.0 0.0

-4.4667845587256765e6 2.0089187441513408e7 0.0
2.0089187441513408e7 1.9194890144072503e7 0.0
0.0 0.0 0.0

-9.658228958080303e6 1.476630699411982e7 0.0
1.476630699411982e7 2.5624844142567433e7 0.0
0.0 0.0 0.0

-6.704464063610519e6 1.7852035818508506e7 0.0
1.7852035818508506e7 1.7830405914496463e7 0.0
0.0 0.0 0.0

-4.49919349321176e6 2.5552117864717983e7 0.0
2.5552117864717983e7 1.2164763183522327e7 0.0
0.0 0.0 0.0

-7.765527517479483e6 1.9689430989879554e6 0.0
1.9689430989879554e6 4.737589536033469e7 0.0
0.0 0.0 0.0

-458364.18515167106 1.9637613233535897e7 0.0
1.9637613233535897e7 -1.2222903427612223e6 0.0
0.0 0.0 0.0

1.4206773002426596e6 1.2858464331359627e7 0.0
1.2858464331359627e7 -1.5182780857834108e7 0.0
0.0 0.0 0.0

822394.5949784033 1.7575643347981766e7 0.0
1.7575643347981766e7 -2.0957151432792388e7 0.0
0.0 0.0 0.0

-8.459445346885113e6 -1.9036313076473987e6 0.0
-1.9036313076473987e6 3.2320633397698402e7 0.0
0.0 0.0 0.0

-1.2470611194602447e6 2.0064778571900528e7 0.0
2.0064778571900528e7 679964.2898747465 0.0
0.0 0.0 0.0

-8.419227004601184e6 2.825919466024682e7 0.0
2.825919466024682e7 6.857468955317467e6 0.0
0.0 0.0 0.0

2.661949094148121e6 2.0611415633318868e7 0.0
2.0611415633318868e7 2.96271289590803e7 0.0
0.0 0.0 0.0

475221.5456067845 2.123794472155316e7 0.0
2.123794472155316e7 -1.439664210427422e7 0.0
0.0 0.0 0.0

533217.741781672 2.036767625739854e7 0.0
2.036767625739854e7 5.201050507706025e6 0.0
0.0 0.0 0.0

2.3689837059473265e6 3.772021522077246e7 0.0
3.772021522077246e7 -2.6511085369371898e6 0.0
0.0 0.0 0.0

1.8205178049992775e6 2.245340937370848e7 0.0
2.245340937370848e7 -1.143115758346391e7 0.0
0.0 0.0 0.0

1.096460288021448e8 3.916459691374204e7 0.0
3.916459691374204e7 2.8437757817029543e6 0.0
0.0 0.0 0.0

4.816621201230571e6 2.2359757517447248e7 0.0
2.2359757517447248e7 -3.2567265737740006e6 0.0
0.0 0.0 0.0

-2.546450899488842e6 1.9446680821845558e7 0.0
1.9446680821845558e7 -2.3969783511661455e7 0.0
0.0 0.0 0.0

3.036023977575531e6 2.443914150016985e7 0.0
2.443914150016985e7 -9.61404419006043e6 0.0
0.0 0.0 0.0

-3.0470528914150793e7 3.080682888485052e7 0.0
3.080682888485052e7 -5.099007241471518e6 0.0
0.0 0.0 0.0

-6.009241842902426e6 2.719824803464695e7 0.0
2.719824803464695e7 8.578098108523775e6 0.0
0.0 0.0 0.0

1.824337087476409e7 2.3672122197175276e7 0.0
2.3672122197175276e7 6.115111134509249e6 0.0
0.0 0.0 0.0

-3.697606820981147e6 1.600368058872788e7 0.0
1.600368058872788e7 -4.470162846740366e7 0.0
0.0 0.0 0.0

6.732991053729461e6 1.9533790288563754e7 0.0
1.9533790288563754e7 3.8056604231444284e7 0.0
0.0 0.0 0.0

3.2789932968980186e6 5.348588406888155e6 0.0
5.348588406888155e6 -2.845433830286259e7 0.0
0.0 0.0 0.0

3.222575110006254e6 2.539752987208603e7 0.0
2.539752987208603e7 -9.091118643966641e6 0.0
0.0 0.0 0.0

1.3106504451878555e6 4.415492272029397e6 0.0
4.415492272029397e6 -5.3964925424569204e7 0.0
0.0 0.0 0.0

1.5339150699084694e6 2.4700655013985988e7 0.0
2.4700655013985988e7 -1.0793479131568626e7 0.0
0.0 0.0 0.0

7.719195087997099e6 2.9381861575095184e7 0.0
2.9381861575095184e7 -5.933382263746336e6 0.0
0.0 0.0 0.0

-1.9737532455761167e6 2.307495625256331e7 0.0
2.307495625256331e7 1.654757132768283e6 0.0
0.0 0.0 0.0

-1.4585106467587829e7 3.479267195210671e7 0.0
3.479267195210671e7 5.257666965185994e6 0.0
0.0 0.0 0.0

-4.0966531915806234e6 2.005187925916237e7 0.0
2.005187925916237e7 2.8000002124789093e7 0.0
0.0 0.0 0.0

1.701930515323337e6 2.028950584008424e7 0.0
2.028950584008424e7 1.1160061856325226e7 0.0
0.0 0.0 0.0

-4.046078325593398e7 3.88173330245161e7 0.0
3.88173330245161e7 7.212440820717033e6 0.0
0.0 0.0 0.0

1.7797048429051157e7 2.391785597781991e7 0.0
2.391785597781991e7 1.247640697901427e7 0.0
0.0 0.0 0.0

-6.030173842680987e6 1.3371601127677819e7 0.0
1.3371601127677819e7 9.20882710913532e6 0.0
0.0 0.0 0.0

-5.948863529259304e6 3.172453160784228e7 0.0
3.172453160784228e7 5.315234129170762e6 0.0
0.0 0.0 0.0

-5.747015164420942e6 2.3895636228530336e7 0.0
2.3895636228530336e7 -9.102748427581778e6 0.0
0.0 0.0 0.0

968784.0155758578 1.573432948897632e7 0.0
1.573432948897632e7 -1.5403274858841246e7 0.0
0.0 0.0 0.0

2.815223246785594e6 1.4592190236415e6 0.0
1.4592190236415e6 -3.872227499745849e7 0.0
0.0 0.0 0.0

-2.190933932314543e6 1.902361206841186e7 0.0
1.902361206841186e7 -1.0398210422384836e7 0.0
0.0 0.0 0.0

5.297623277446322e7 6.87853420238054e6 0.0
6.87853420238054e6 -1.0060279534392208e6 0.0
0.0 0.0 0.0

-3.733162143202275e6 1.9603541435727563e7 0.0
1.9603541435727563e7 2.938530549647376e7 0.0
0.0 0.0 0.0

-7.955093124264487e6 3.0991443063654117e7 0.0
3.0991443063654117e7 6.327307152702535e6 0.0
0.0 0.0 0.0

-7.637959675822472e6 -1.8967239507563428e6 0.0
-1.8967239507563428e6 4.2962374443845496e7 0.0
0.0 0.0 0.0

-2.4608655780612836e6 3.721048458860735e7 0.0
3.721048458860735e7 613510.4208247853 0.0
0.0 0.0 0.0

-2.333015629913928e7 2.7028968670246568e7 0.0
2.7028968670246568e7 -3.241466090160481e6 0.0
0.0 0.0 0.0

360101.7911736779 1.995701221236954e7 0.0
1.995701221236954e7 -1.8801860353815965e7 0.0
0.0 0.0 0.0

5.370407346223465e6 2.0329384160750773e7 0.0
2.0329384160750773e7 2.646802631949813e7 0.0
0.0 0.0 0.0

228185.511752103 2.1247013989986647e7 0.0
2.1247013989986647e7 4.97926886287307e6 0.0
0.0 0.0 0.0

-2.6415910508899298e6 2.394574739391476e7 0.0
2.394574739391476e7 9.679384107539464e6 0.0
0.0 0.0 0.0

365261.6685434282 1.5024850774976077e7 0.0
1.5024850774976077e7 -1.6385530648191467e7 0.0
0.0 0.0 0.0

2.3848633781455923e6 1.085018118506096e7 0.0
1.085018118506096e7 -2.3717867035452805e7 0.0
0.0 0.0 0.0

-967409.4093699986 9.988168769607034e6 0.0
9.988168769607034e6 -6.276780101656131e6 0.0
0.0 0.0 0.0

-5.29793251638858e6 3.1119554081993286e7 0.0
3.1119554081993286e7 5.2499474655924905e6 0.0
0.0 0.0 0.0

-839395.4123754404 1.9025854850547023e7 0.0
1.9025854850547023e7 -1.1553938942002874e7 0.0
0.0 0.0 0.0

2.1291174321270432e7 1.2942688512154153e7 0.0
1.2942688512154153e7 632911.0210161805 0.0
0.0 0.0 0.0

2.7802256502385363e6 1.6012175075266594e6 0.0
1.6012175075266594e6 -3.91970237110553e7 0.0
0.0 0.0 0.0

3.9983000762482844e6 1.949855668810774e7 0.0
1.949855668810774e7 2.780631449984196e7 0.0
0.0 0.0 0.0

-16580.99439474987 9.657979979815634e6 0.0
9.657979979815634e6 -8.742588236321794e6 0.0
0.0 0.0 0.0

3.39888218165079e6 3.0893502741526213e7 0.0
3.0893502741526213e7 -4.33830600145224e6 0.0
0.0 0.0 0.0

475963.262822452 2.1155053936661825e7 0.0
2.1155053936661825e7 1.2772483480716256e7 0.0
0.0 0.0 0.0

-8.759581869532268e6 8.634761643182702e6 0.0
8.634761643182702e6 4.247902656760033e7 0.0
0.0 0.0 0.0

-8.073721830650294e6 824382.0846368633 0.0
824382.0846368633 1.4683374246077463e7 0.0
0.0 0.0 0.0

8.28400299518836e6 2.926122336759403e7 0.0
2.926122336759403e7 -5.776534392809512e6 0.0
0.0 0.0 0.0

-5.699908223757111e7 1.8035490678234e7 0.0
1.8035490678234e7 6.504104191269416e6 0.0
0.0 0.0 0.0

-25080.83131032344 1.838718256420145e7 0.0
1.838718256420145e7 -2.313642561985734e7 0.0
0.0 0.0 0.0

6.00586574446893e6 1.3729740651183965e7 0.0
1.3729740651183965e7 3.6695543377690734e6 0.0
0.0 0.0 0.0

-4.4380363563739555e6 1.9724177278963752e7 0.0
1.9724177278963752e7 1.8548724764965955e7 0.0
0.0 0.0 0.0

-6.1513643535102546e7 1.7368714803248886e7 0.0
1.7368714803248886e7 5.15639382202496e6 0.0
0.0 0.0 0.0

-2.6310660554561308e6 1.8711357223227557e7 0.0
1.8711357223227557e7 -2.509870791935737e7 0.0
0.0 0.0 0.0

1.5759641934273322e6 2.3862783140013535e7 0.0
2.3862783140013535e7 -1.1641496394539919e7 0.0
0.0 0.0 0.0

1.2646938378266888e6 5.646660272660441e6 0.0
5.646660272660441e6 -4.329512480283136e6 0.0
0.0 0.0 0.0

-1.215186665522227e7 2.5789534693594042e7 0.0
2.5789534693594042e7 -8.920928339487197e6 0.0
0.0 0.0 0.0

8.209760074382671e6 3.4128980015553206e7 0.0
3.4128980015553206e7 -5.045053350906591e6 0.0
0.0 0.0 0.0

-1.857978366890658e6 3.390207392991939e7 0.0
3.390207392991939e7 337723.7550284157 0.0
0.0 0.0 0.0

-2.9396458660860443e6 2.365301526267822e7 0.0
2.365301526267822e7 5.453892539974913e6 0.0
0.0 0.0 0.0

-7.705435034157274e6 1.689069245457609e7 0.0
1.689069245457609e7 3.125952891103723e7 0.0
0.0 0.0 0.0

-3.5063983128404142e6 2.368705049467381e7 0.0
2.368705049467381e7 1.5806649638134878e7 0.0
0.0 0.0 0.0

-2.2893737672799863e6 3.619864727193621e7 0.0
3.619864727193621e7 522975.7821642145 0.0
0.0 0.0 0.0

828692.7734873127 1.2672057763975391e7 0.0
1.2672057763975391e7 -1.7201081671249263e7 0.0
0.0 0.0 0.0

-2.2785891188122896e6 3.546509726828986e7 0.0
3.546509726828986e7 387587.9073538489 0.0
0.0 0.0 0.0

6.282218789050145e6 2.281569228561789e7 0.0
2.281569228561789e7 1.4770157035777057e7 0.0
0.0 0.0 0.0

-9.4137570574723e6 1.4723286067792457e7 0.0
1.4723286067792457e7 3.0109516792208128e7 0.0
0.0 0.0 0.0

2.2890868195050005e6 3.054203953498518e6 0.0
3.054203953498518e6 -4.0561578752629384e7 0.0
0.0 0.0 0.0

-1.001624254716221e7 2.784202765486759e7 0.0
2.784202765486759e7 6.167461790114285e6 0.0
0.0 0.0 0.0

-508466.75596930855 2.778723058932181e7 0.0
2.778723058932181e7 -4.5423711677903915e6 0.0
0.0 0.0 0.0

941414.4875901609 2.761209423769995e7 0.0
2.761209423769995e7 -5.439288915288325e6 0.0
0.0 0.0 0.0

-8.062898657005616e7 4.888288841011893e7 0.0
4.888288841011893e7 -3.29362557436319e7 0.0
0.0 0.0 0.0

747500.3165348852 2.0734893125198144e7 0.0
2.0734893125198144e7 -1.753370650914676e7 0.0
0.0 0.0 0.0

-51183.79732456431 3.0605523581661787e7 0.0
3.0605523581661787e7 -986395.1272903292 0.0
0.0 0.0 0.0

-4.8904830520374365e6 2.0848059032890346e7 0.0
2.0848059032890346e7 1.786903322353327e7 0.0
0.0 0.0 0.0

-3.358184058763826e7 2.6076304832386173e7 0.0
2.6076304832386173e7 4.159031603912927e6 0.0
0.0 0.0 0.0

1.0674906065970606e6 2.032577625106982e7 0.0
2.032577625106982e7 581363.788011825 0.0
0.0 0.0 0.0

4.233252979194685e6 2.0651751012012556e7 0.0
2.0651751012012556e7 1.681049420311889e7 0.0
0.0 0.0 0.0

2.194249931036627e6 1.2414111394454213e6 0.0
1.2414111394454213e6 -4.959193837762802e7 0.0
0.0 0.0 0.0

-2.0780671885152787e7 4.081899426484956e7 0.0
4.081899426484956e7 7.91138647030084e6 0.0
0.0 0.0 0.0

-7.63241062283116e6 -247931.68515553523 0.0
-247931.68515553523 4.4031708598237365e7 0.0
0.0 0.0 0.0

-7.451777329469785e6 1.1144726094646272e6 0.0
1.1144726094646272e6 5.129683722469194e7 0.0
0.0 0.0 0.0

-7.077516925736328e6 -1.086847782838625e6 0.0
-1.086847782838625e6 1.3652577971646948e7 0.0
0.0 0.0 0.0

-8.150784798144672e6 1.5156414133200899e7 0.0
1.5156414133200899e7 3.4769707585708745e7 0.0
0.0 0.0 0.0

4.1364712530717095e6 1.851133109849224e7 0.0
1.851133109849224e7 1.1848789581304647e7 0.0
0.0 0.0 0.0

-330850.94348369166 1.7522523086590584e7 0.0
1.7522523086590584e7 -2.6644319395063102e7 0.0
0.0 0.0 0.0

-4.136954583228161e7 5.179627440857537e7 0.0
5.179627440857537e7 9.619387634202486e6 0.0
0.0 0.0 0.0

-8.89983024605889e6 1.5336153634204593e7 0.0
1.5336153634204593e7 3.0687552369633727e7 0.0
0.0 0.0 0.0

-3.9656041981192175e6 1.5546580620194314e7 0.0
1.5546580620194314e7 -4.692944775510635e7 0.0
0.0 0.0 0.0

-2.232907386259952e7 2.663618099142208e7 0.0
2.663618099142208e7 -2.8893805625308543e6 0.0
0.0 0.0 0.0

-6.972750322634254e6 750147.0849099061 0.0
750147.0849099061 5.2580597175971396e7 0.0
0.0 0.0 0.0

307636.6534559168 1.9533725491895854e7 0.0
1.9533725491895854e7 -1.69657195233871e7 0.0
0.0 0.0 0.0

-9.05906294420427e6 1.861300455851411e7 0.0
1.861300455851411e7 -5.295429165266159e7 0.0
0.0 0.0 0.0

-3.7073796913246103e6 2.240468562994829e7 0.0
2.240468562994829e7 -8.27707805613903e6 0.0
0.0 0.0 0.0

-1.9417912951239537e7 2.4660631811536197e7 0.0
2.4660631811536197e7 -2.2647728251027944e6 0.0
0.0 0.0 0.0

5.385634298523818e7 2.933096726978719e7 0.0
2.933096726978719e7 1.163775835978654e7 0.0
0.0 0.0 0.0

-1.7438117296826374e6 1.7024708696923796e7 0.0
1.7024708696923796e7 -3.9677950741160377e6 0.0
0.0 0.0 0.0

1.1099535279392628e6 1.8085218954167545e7 0.0
1.8085218954167545e7 -1.9257924579467304e7 0.0
0.0 0.0 0.0

-3.2586164258193355e6 1.854892398180559e7 0.0
1.854892398180559e7 -1.5278795837720493e7 0.0
0.0 0.0 0.0

2.2885351433979403e6 1.4240418482190706e6 0.0
1.4240418482190706e6 -5.006197189246637e7 0.0
0.0 0.0 0.0

1.6402199393998105e6 2.9747300965033315e7 0.0
2.9747300965033315e7 -3.973146482962676e6 0.0
0.0 0.0 0.0

-3.844137860796403e6 1.8141674337451424e7 0.0
1.8141674337451424e7 -2.7597938012354676e7 0.0
0.0 0.0 0.0

1.4148825241878713e6 2.2805544397491936e7 0.0
2.2805544397491936e7 -1.198508023777553e7 0.0
0.0 0.0 0.0

-357562.938004415 2.107425012435031e7 0.0
2.107425012435031e7 2.0676436308597613e6 0.0
0.0 0.0 0.0

-5.210714835368219e6 1.3132474116214605e7 0.0
1.3132474116214605e7 1.2264364502094433e7 0.0
0.0 0.0 0.0

-3.019653049362088e6 2.3631824485617653e7 0.0
2.3631824485617653e7 9.19515661274598e6 0.0
0.0 0.0 0.0

276778.82818715833 2.005757449320315e7 0.0
2.005757449320315e7 3.0519921184690308e7 0.0
0.0 0.0 0.0

3.2473936333379094e6 1.8797345058493414e6 0.0
1.8797345058493414e6 -3.2208113832327146e7 0.0
0.0 0.0 0.0

-1.6017160926896162e7 1.571909116461196e7 0.0
1.571909116461196e7 2.36374272187326e6 0.0
0.0 0.0 0.0

7.273898398727924e6 2.434332276115883e7 0.0
2.434332276115883e7 1.4087066908794774e7 0.0
0.0 0.0 0.0

-1.7340654070081552e6 1.9629000359754268e7 0.0
1.9629000359754268e7 -1.8518733246013235e7 0.0
0.0 0.0 0.0

8.275397597532865e7 1.1792923501002952e7 0.0
1.1792923501002952e7 -17411.26350166276 0.0
0.0 0.0 0.0

187655.27356128674 1.8491155136019535e7 0.0
1.8491155136019535e7 -2.324978330415631e7 0.0
0.0 0.0 0.0

704347.2083328837 2.855993159069359e7 0.0
2.855993159069359e7 -5.538214822389346e6 0.0
0.0 0.0 0.0

-2.3900122075505788e6 2.5017197724731393e7 0.0
2.5017197724731393e7 -109714.80401835183 0.0
0.0 0.0 0.0

8.69580553603376e6 2.0002321829519764e7 0.0
2.0002321829519764e7 6.71689872696329e7 0.0
0.0 0.0 0.0

-8.346124081711691e6 1.3989756467652582e7 0.0
1.3989756467652582e7 3.655632141767937e7 0.0
0.0 0.0 0.0

-7.560175625517769e6 -2.3782351596876583e6 0.0
-2.3782351596876583e6 4.251014901786554e7 0.0
0.0 0.0 0.0

-8.906178762521103e6 7.041627013085514e6 0.0
7.041627013085514e6 4.411619468692754e7 0.0
0.0 0.0 0.0

-2.482647841341945e6 3.2807425923173413e7 0.0
3.2807425923173413e7 1.0042419275183023e6 0.0
0.0 0.0 0.0

1.6381831007166672e6 1.239275456529949e7 0.0
1.239275456529949e7 -2.576653233783766e7 0.0
0.0 0.0 0.0

-3.1311728346744142e6 2.4947854503872897e7 0.0
2.4947854503872897e7 1.181463545572132e7 0.0
0.0 0.0 0.0

840972.5722902473 2.1303749635646503e7 0.0
2.1303749635646503e7 -1.6283762459531423e7 0.0
0.0 0.0 0.0

-5.760819192408487e6 1.8939634179190334e7 0.0
1.8939634179190334e7 1.705127721076881e7 0.0
0.0 0.0 0.0

-5.317406454974075e6 2.7611983065253835e7 0.0
2.7611983065253835e7 8.961534441072829e6 0.0
0.0 0.0 0.0

1.1011821275837474e7 2.731211196806832e7 0.0
2.731211196806832e7 -4.693866594253338e6 0.0
0.0 0.0 0.0

-3.6952453897931688e6 2.300754838796108e7 0.0
2.300754838796108e7 1.7499801361548822e7 0.0
0.0 0.0 0.0

-3.0489431716007637e6 2.4077664387350444e7 0.0
2.4077664387350444e7 1.341042187146412e7 0.0
0.0 0.0 0.0

-4.310573832610748e6 1.950938016353861e7 0.0
1.950938016353861e7 -1.6680054716903677e7 0.0
0.0 0.0 0.0

-9.51524567633114e6 1.543242824137991e7 0.0
1.543242824137991e7 2.8368943528267078e7 0.0
0.0 0.0 0.0

-2.0936031467857577e6 3.273916926048848e7 0.0
3.273916926048848e7 2.281977630302144e6 0.0
0.0 0.0 0.0

2.7286867368001286e6 4.71947348658913e6 0.0
4.71947348658913e6 -3.024762576651343e7 0.0
0.0 0.0 0.0

-6.079763536728274e6 3.3576517724082526e6 0.0
3.3576517724082526e6 6.568572483833048e7 0.0
0.0 0.0 0.0

-2.0424012341596764e6 2.167101947285597e7 0.0
2.167101947285597e7 -9.724123329631118e6 0.0
0.0 0.0 0.0

-2.561513724462492e6 3.3537637407415725e7 0.0
3.3537637407415725e7 1.0903533746281024e6 0.0
0.0 0.0 0.0

1.0237517354284264e6 1.4623815469067339e7 0.0
1.4623815469067339e7 -2.928691131992506e7 0.0
0.0 0.0 0.0

834754.4137394018 3.002693743852001e7 0.0
3.002693743852001e7 -4.402145688029234e6 0.0
0.0 0.0 0.0

1.7869754527323488e6 1.0605876385623062e7 0.0
1.0605876385623062e7 -2.5827770325741876e7 0.0
0.0 0.0 0.0

-9.560798217301993e6 1.3682830178910961e7 0.0
1.3682830178910961e7 3.162140454515025e7 0.0
0.0 0.0 0.0

-6.360524744922274e7 4.773695915345032e7 0.0
4.773695915345032e7 1.1045116888891242e7 0.0
0.0 0.0 0.0

-1.5733966311741622e7 2.700907166991077e7 0.0
2.700907166991077e7 -887497.564155126 0.0
0.0 0.0 0.0

-3.5692599626052734e6 2.4936847607966695e7 0.0
2.4936847607966695e7 1.2863136890850477e7 0.0
0.0 0.0 0.0

-8.49138619965495e6 -5.115694914009329e6 0.0
-5.115694914009329e6 2.110775634384804e7 0.0
0.0 0.0 0.0

-1.8750004999959048e7 2.5596302944111492e7 0.0
2.5596302944111492e7 -3.077450407971359e6 0.0
0.0 0.0 0.0

-7.205658736112058e6 2.8225094550461255e7 0.0
2.8225094550461255e7 7.649675179523644e6 0.0
0.0 0.0 0.0

2.552078961579919e6 2.8824527399701043e6 0.0
2.8824527399701043e6 -4.158150145564006e7 0.0
0.0 0.0 0.0

-6.06922139693934e6 1.7582299141325854e7 0.0
1.7582299141325854e7 2.020542640527632e7 0.0
0.0 0.0 0.0

-8.776269461007882e6 1.6181986168451915e7 0.0
1.6181986168451915e7 2.5133066083155457e7 0.0
0.0 0.0 0.0

5.479684643492423e6 3.827591396940391e7 0.0
3.827591396940391e7 -1.9602811284829255e6 0.0
0.0 0.0 0.0

-1.116084230804797e7 2.9654967139136624e6 0.0
2.9654967139136624e6 2.3097705610664457e7 0.0
0.0 0.0 0.0

-8.94833880368576e6 1.6342324539070683e7 0.0
1.6342324539070683e7 2.9259771157926314e7 0.0
0.0 0.0 0.0

-598854.779351973 3.429247793011896e7 0.0
3.429247793011896e7 914480.6280148164 0.0
0.0 0.0 0.0

-7.011874735122621e6 1.11609964412067e6 0.0
1.11609964412067e6 5.460860411499553e7 0.0
0.0 0.0 0.0

-8.615181887139386e6 -2.8808031581622823e6 0.0
-2.8808031581622823e6 2.3198569944922026e7 0.0
0.0 0.0 0.0

2.4779669196800403e6 7.652835688753927e6 0.0
7.652835688753927e6 -2.863977533027408e7 0.0
0.0 0.0 0.0

-2.849473027451395e6 2.4020503703182925e7 0.0
2.4020503703182925e7 1.0339175016588759e7 0.0
0.0 0.0 0.0

-8.062767490131879e6 1.5908710656080363e7 0.0
1.5908710656080363e7 3.2536377474804513e7 0.0
0.0 0.0 0.0

406344.3492373591 2.066513316569789e7 0.0
2.066513316569789e7 -1.6010696772808688e7 0.0
0.0 0.0 0.0

1.0045833524318561e6 1.967767766855321e7 0.0
1.967767766855321e7 -1.694494892412215e7 0.0
0.0 0.0 0.0

1.62891214472913e6 1.206638066509221e7 0.0
1.206638066509221e7 -2.758749396798862e7 0.0
0.0 0.0 0.0

-122107.91291366424 1.7957870794861365e7 0.0
1.7957870794861365e7 -2.4916828547514062e7 0.0
0.0 0.0 0.0

1.3649631971402203e6 2.1060153940374184e7 0.0
2.1060153940374184e7 8.782844279613024e6 0.0
0.0 0.0 0.0

-7.891217829099942e6 1.6999091687553298e7 0.0
1.6999091687553298e7 3.0838660497116305e7 0.0
0.0 0.0 0.0

1.0109133032739367e6 2.9182867200347647e7 0.0
2.9182867200347647e7 -5.357201159838415e6 0.0
0.0 0.0 0.0

-5.743677873378281e6 3.085226797704805e7 0.0
3.085226797704805e7 5.997623517771787e6 0.0
0.0 0.0 0.0

-1.396545860998478e6 3.3197285448102955e7 0.0
3.3197285448102955e7 1.6130156063276946e6 0.0
0.0 0.0 0.0

1.6955242820742823e7 2.516083856944842e7 0.0
2.516083856944842e7 7.907798900852601e7 0.0
0.0 0.0 0.0

-2.3585075463967947e6 2.4469664419305883e7 0.0
2.4469664419305883e7 8.698733241728036e6 0.0
0.0 0.0 0.0

1.0484555536437985e6 1.8705708886107337e7 0.0
1.8705708886107337e7 -1.7933862674428456e7 0.0
0.0 0.0 0.0

-910834.5058475779 1.882757579103907e7 0.0
1.882757579103907e7 -2.3202370869607028e7 0.0
0.0 0.0 0.0

1.0611041723667206e6 1.8417603550928857e7 0.0
1.8417603550928857e7 -1.962690346675096e7 0.0
0.0 0.0 0.0

1.8164622080821227e6 3.2611516650741916e7 0.0
3.2611516650741916e7 -2.214905478719249e6 0.0
0.0 0.0 0.0

-2.9456672820895314e6 2.329477850532253e7 0.0
2.329477850532253e7 8.090518638189567e6 0.0
0.0 0.0 0.0

315669.8359013079 2.019086725567827e7 0.0
2.019086725567827e7 3.3110902617057944e6 0.0
0.0 0.0 0.0

-1.0274552127013784e6 2.0066008023453668e7 0.0
2.0066008023453668e7 -1.7721994910658643e7 0.0
0.0 0.0 0.0

-6.242313259432975e6 1.3899386579179902e7 0.0
1.3899386579179902e7 1.0893568053500501e7 0.0
0.0 0.0 0.0

6.605978910989428e6 4.469030912749871e7 0.0
4.469030912749871e7 -5.110344492026117e6 0.0
0.0 0.0 0.0

1.3969912133449465e6 3.883837205870533e6 0.0
3.883837205870533e6 -5.950080140207485e7 0.0
0.0 0.0 0.0

1.141978307371437e8 4.3760324084064394e7 0.0
4.3760324084064394e7 2.825921853408313e7 0.0
0.0 0.0 0.0

5.019227016497165e7 4.547232672247739e7 0.0
4.547232672247739e7 -1.701936242125374e7 0.0
0.0 0.0 0.0

-511842.92585534416 2.1076515358159672e7 0.0
2.1076515358159672e7 2.0182881300114688e7 0.0
0.0 0.0 0.0

2.2082057819774374e6 2.144247588652721e7 0.0
2.144247588652721e7 1.129945671509879e7 0.0
0.0 0.0 0.0

-2.7991781548826054e7 2.7525189889996555e7 0.0
2.7525189889996555e7 -1.0807250943241166e6 0.0
0.0 0.0 0.0

-6.673572238853722e7 3.310924412503914e7 0.0
3.310924412503914e7 -1.787348784644235e6 0.0
0.0 0.0 0.0

-6.8594831086043175e6 1.405603110956845e7 0.0
1.405603110956845e7 1.65869229376751e7 0.0
0.0 0.0 0.0

-173859.82902604382 2.8587205398228396e7 0.0
2.8587205398228396e7 -2.167192728719513e6 0.0
0.0 0.0 0.0

1.0918107219739398e6 1.7425325735689156e7 0.0
1.7425325735689156e7 -2.055497501376295e7 0.0
0.0 0.0 0.0

1.166466960092198e6 8.00319089654253e6 0.0
8.00319089654253e6 -5.387294987372572e7 0.0
0.0 0.0 0.0

597630.5307287145 1.765815263268386e7 0.0
1.765815263268386e7 -2.0918926033736803e7 0.0
0.0 0.0 0.0

-3.156809260427078e6 1.5669611481837926e7 0.0
1.5669611481837926e7 -4.153997214350999e7 0.0
0.0 0.0 0.0

-9.290702264860023e6 1.6327200087204559e7 0.0
1.6327200087204559e7 2.308213021324866e7 0.0
0.0 0.0 0.0

1.6987265046341717e6 1.9960617362471197e7 0.0
1.9960617362471197e7 2.8623026482377134e7 0.0
0.0 0.0 0.0

946090.5691413865 1.9665579065837428e7 0.0
1.9665579065837428e7 8.242783620178644e6 0.0
0.0 0.0 0.0

-1.1972019417937698e7 9.246368058637267e6 0.0
9.246368058637267e6 5.361730231828388e6 0.0
0.0 0.0 0.0

-9.000127749514146e6 5.586286922586917e6 0.0
5.586286922586917e6 4.3435943897106305e7 0.0
0.0 0.0 0.0

-3.014018633271343e6 2.820198308807609e7 0.0
2.820198308807609e7 6.505542510500265e6 0.0
0.0 0.0 0.0

632590.9609928634 2.0385037131862387e7 0.0
2.0385037131862387e7 3.0976495289569996e7 0.0
0.0 0.0 0.0

-4.267678691915522e6 1.9316250068321276e7 0.0
1.9316250068321276e7 1.7624766334488213e7 0.0
0.0 0.0 0.0

-7.487846361605389e6 2.2930919964538906e6 0.0
2.2930919964538906e6 8.171708979821168e6 0.0
0.0 0.0 0.0

-2.914340622344017e6 1.3179888121959703e7 0.0
1.3179888121959703e7 6.919681171084458e7 0.0
0.0 0.0 0.0

-2.099114387908617e6 2.2569789905306958e7 0.0
2.2569789905306958e7 2.5793958994850675e6 0.0
0.0 0.0 0.0

1.146923620451644e6 2.833631494868692e7 0.0
2.833631494868692e7 -6.327500556676843e6 0.0
0.0 0.0 0.0

761652.6094631199 1.980125686841594e7 0.0
1.980125686841594e7 3.21328895598592e7 0.0
0.0 0.0 0.0

-5.595407256491275e6 1.3765750976782413e7 0.0
1.3765750976782413e7 1.3849156749733403e7 0.0
0.0 0.0 0.0

8.260917504060578e6 2.815685925318913e7 0.0
2.815685925318913e7 -5.830852635248475e6 0.0
0.0 0.0 0.0

-4.159195341725722e6 5.285636328090018e6 0.0
5.285636328090018e6 7.438046867926498e7 0.0
0.0 0.0 0.0

8.162381751420387e6 2.588827692858288e7 0.0
2.588827692858288e7 -5.279432938644059e6 0.0
0.0 0.0 0.0

-2.1585916023488687e6 3.3416685963100746e7 0.0
3.3416685963100746e7 2.4278597129114973e6 0.0
0.0 0.0 0.0

-5.997699337913662e6 1.766519106674304e7 0.0
1.766519106674304e7 -2.5107516273678035e7 0.0
0.0 0.0 0.0

-3.4327011133626346e6 2.230138417715491e7 0.0
2.230138417715491e7 1.857805795816301e7 0.0
0.0 0.0 0.0

-9.133607424869925e6 1.4047041359416896e7 0.0
1.4047041359416896e7 3.356739890723504e7 0.0
0.0 0.0 0.0

4.822311311015295e6 3.206868331012771e7 0.0
3.206868331012771e7 -4.356049378098259e6 0.0
0.0 0.0 0.0

2.791188561900835e6 5.612298615216079e6 0.0
5.612298615216079e6 -1.1011029864351938e7 0.0
0.0 0.0 0.0

66058.16202071554 4.169156041600495e7 0.0
4.169156041600495e7 -1.7199242602671357e6 0.0
0.0 0.0 0.0

5.035956841216686e6 2.316760793701185e7 0.0
2.316760793701185e7 8.621640897186588e6 0.0
0.0 0.0 0.0

-536992.4008087843 2.6168768932445116e7 0.0
2.6168768932445116e7 -4.033775000320523e6 0.0
0.0 0.0 0.0

2.0480095624740403e6 5.48077630812964e6 0.0
5.48077630812964e6 -4.1032985383023806e7 0.0
0.0 0.0 0.0

-2.8791967579367333e6 2.2492438296775233e7 0.0
2.2492438296775233e7 -1.1292640532270221e7 0.0
0.0 0.0 0.0

8.167117527477965e6 2.379193779601726e7 0.0
2.379193779601726e7 1.3878175471357567e7 0.0
0.0 0.0 0.0

-1.2983039627223369e6 3.1118982012621175e7 0.0
3.1118982012621175e7 1.3560745924065183e6 0.0
0.0 0.0 0.0

5.044137219091923e6 2.0459519959367543e7 0.0
2.0459519959367543e7 3.2700306287706103e7 0.0
0.0 0.0 0.0

-4.956193126484075e6 1.0685653134796908e6 0.0
1.0685653134796908e6 1.0017885519935828e7 0.0
0.0 0.0 0.0

-281609.2939115502 1.911588152475367e7 0.0
1.911588152475367e7 3.7871891111573e7 0.0
0.0 0.0 0.0

-7.986600934025769e6 2.601372999269898e7 0.0
2.601372999269898e7 4.726065461338241e6 0.0
0.0 0.0 0.0

8.75582953644786e6 2.6793555036650367e7 0.0
2.6793555036650367e7 -5.2687290318059875e6 0.0
0.0 0.0 0.0

3.6015717758458895e6 2.5237068161418885e7 0.0
2.5237068161418885e7 -8.836818665853782e6 0.0
0.0 0.0 0.0

8.95772976082152e6 3.384831620256232e7 0.0
3.384831620256232e7 -4.979075331797221e6 0.0
0.0 0.0 0.0

848665.2283037414 1.8547343279962e7 0.0
1.8547343279962e7 6.057240708078268e6 0.0
0.0 0.0 0.0

-4.0627461455254294e6 2.5805970509743888e7 0.0
2.5805970509743888e7 1.168040700629401e7 0.0
0.0 0.0 0.0

4.839654318328746e6 3.497586277479484e7 0.0
3.497586277479484e7 -4.282045039804764e6 0.0
0.0 0.0 0.0

-9.132060980761724e6 1.7821693198554736e7 0.0
1.7821693198554736e7 -5.2898010751317196e7 0.0
0.0 0.0 0.0

-8.764381921922766e6 1.1742828504509872e7 0.0
1.1742828504509872e7 1.4405490756559433e7 0.0
0.0 0.0 0.0

1.357123509707755e6 2.058924610675532e7 0.0
2.058924610675532e7 9.988952585537294e6 0.0
0.0 0.0 0.0

5.024230101246098e6 3.2992840825749688e7 0.0
3.2992840825749688e7 -5.02352913283905e6 0.0
0.0 0.0 0.0

-1.422025641647962e6 2.054169214885527e7 0.0
2.054169214885527e7 -1.8360918659981918e7 0.0
0.0 0.0 0.0

3.3631611029476766e6 3.328491258839789e6 0.0
3.328491258839789e6 -2.8695702115518212e7 0.0
0.0 0.0 0.0

-5.690753101239957e6 207658.58383696966 0.0
207658.58383696966 6.901084514324011e7 0.0
0.0 0.0 0.0

647569.3354509659 1.4703524847635629e7 0.0
1.4703524847635629e7 -3.1265500886722997e7 0.0
0.0 0.0 0.0

2.8688410794315683e6 2.2223660653709907e7 0.0
2.2223660653709907e7 1.2666146085454578e7 0.0
0.0 0.0 0.0

-7.947726334987083e6 1.6955311292505514e7 0.0
1.6955311292505514e7 2.4028670628845382e7 0.0
0.0 0.0 0.0

9.856659906042304e6 2.6341257579109453e7 0.0
2.6341257579109453e7 -4.548090619160626e6 0.0
0.0 0.0 0.0

2.573749092707879e6 6.01440717750482e6 0.0
6.01440717750482e6 -2.4078333522588674e7 0.0
0.0 0.0 0.0

4.2309871231275555e6 2.2974200142758895e7 0.0
2.2974200142758895e7 -2.4043603668721225e6 0.0
0.0 0.0 0.0

8.712049315641455e6 2.4752094555842504e7 0.0
2.4752094555842504e7 1.3542740126619484e7 0.0
0.0 0.0 0.0

1.2889950792423578e7 4.371102946242418e7 0.0
4.371102946242418e7 -7.497599366146791e6 0.0
0.0 0.0 0.0

3.4322977772809668e6 2.49089945558912e7 0.0
2.49089945558912e7 -8.912089163119163e6 0.0
0.0 0.0 0.0

3.3652057845391203e6 1.9072687389104825e7 0.0
1.9072687389104825e7 5.045606896894857e7 0.0
0.0 0.0 0.0

3.037941948701497e6 1.6460606222142922e6 0.0
1.6460606222142922e6 -3.71359118982104e7 0.0
0.0 0.0 0.0

1.1798913508384773e6 3.399850479214127e7 0.0
3.399850479214127e7 -2.554153241917222e6 0.0
0.0 0.0 0.0

6.195520326972972e6 2.1875765516270157e7 0.0
2.1875765516270157e7 4.829810980177017e6 0.0
0.0 0.0 0.0

-7.33133566367233e7 2.1275572709536932e7 0.0
2.1275572709536932e7 2.5359333178940415e6 0.0
0.0 0.0 0.0

-6.580906675525118e6 2.8061488610943537e7 0.0
2.8061488610943537e7 8.344441298790561e6 0.0
0.0 0.0 0.0

-7.968334129403544e6 1.0837145995713301e7 0.0
1.0837145995713301e7 1.5958999369481724e7 0.0
0.0 0.0 0.0

-394000.08725111 1.7972573613643944e7 0.0
1.7972573613643944e7 -2.6805694920858186e7 0.0
0.0 0.0 0.0

-1.5625792066811183e6 2.1533750303032972e7 0.0
2.1533750303032972e7 1.7107954587710477e7 0.0
0.0 0.0 0.0

-3.865627238594628e6 1.7738904920028515e7 0.0
1.7738904920028515e7 -3.646943412332814e7 0.0
0.0 0.0 0.0

2.571178715092322e6 2.6403361164984833e6 0.0
2.6403361164984833e6 -4.8603505067286275e7 0.0
0.0 0.0 0.0

6.227839646557825e7 2.1233169865317468e7 0.0
2.1233169865317468e7 4.977633730015611e6 0.0
0.0 0.0 0.0

-1.2940600934425116e8 4.8881449130684786e7 0.0
4.8881449130684786e7 -2.6653516908793114e7 0.0
0.0 0.0 0.0

1.5582028672736553e7 2.253736543970463e7 0.0
2.253736543970463e7 8.531698358585816e6 0.0
0.0 0.0 0.0

1.0570205203018063e6 2.5579909448343888e7 0.0
2.5579909448343888e7 -9.438821020768452e6 0.0
0.0 0.0 0.0

-3.2122985014812537e6 2.3413497756272737e7 0.0
2.3413497756272737e7 1.5184083942667648e7 0.0
0.0 0.0 0.0

3.147842579731766e6 3.323288508847209e6 0.0
3.323288508847209e6 -2.809977417908547e7 0.0
0.0 0.0 0.0

-7.820988241695493e6 2.6116954738135878e7 0.0
2.6116954738135878e7 6.7600404207353e6 0.0
0.0 0.0 0.0

3.4938903656853726e6 3.497004380189382e7 0.0
3.497004380189382e7 -2.104475651301367e6 0.0
0.0 0.0 0.0

-3.8389434217539923e6 1.901296382107987e7 0.0
1.901296382107987e7 -2.785388181751041e7 0.0
0.0 0.0 0.0

-927097.1292330199 2.5821233489062075e7 0.0
2.5821233489062075e7 -5.523078787128549e6 0.0
0.0 0.0 0.0

1.9789466456139158e6 5.632282599704928e6 0.0
5.632282599704928e6 -7.057002115552455e6 0.0
0.0 0.0 0.0

1.2170521931072654e7 2.4352097900471337e7 0.0
2.4352097900471337e7 1.3397211960877102e7 0.0
0.0 0.0 0.0

-1.2835901823980983e7 2.4837768560726188e7 0.0
2.4837768560726188e7 -2.6344116341960425e6 0.0
0.0 0.0 0.0

809596.5335714575 2.0863385627170958e7 0.0
2.0863385627170958e7 -1.4500144729860399e7 0.0
0.0 0.0 0.0

-2.3462961412290866e6 2.65598246026068e7 0.0
2.65598246026068e7 1.1099462900325167e6 0.0
0.0 0.0 0.0

536968.9993216526 1.4858806630235968e7 0.0
1.4858806630235968e7 -2.964397698298166e7 0.0
0.0 0.0 0.0

-6.949804149122495e6 1.285520185254488e6 0.0
1.285520185254488e6 5.5909991961613335e7 0.0
0.0 0.0 0.0

513388.7446458787 1.8262298368914835e7 0.0
1.8262298368914835e7 -1.9531238948739715e7 0.0
0.0 0.0 0.0

4.575933947277022e6 2.1830416074250568e7 0.0
2.1830416074250568e7 290018.3479186031 0.0
0.0 0.0 0.0

-1.6804477760917056e7 2.147600793761102e7 0.0
2.147600793761102e7 -6.766667540397228e7 0.0
0.0 0.0 0.0

3.0072443700329494e6 6.826207261608558e6 0.0
6.826207261608558e6 -2.787171676530658e7 0.0
0.0 0.0 0.0

789738.9325805977 2.0008085746270206e7 0.0
2.0008085746270206e7 -1.896866377220378e7 0.0
0.0 0.0 0.0

-4.946546161391911e6 2.718613385431087e7 0.0
2.718613385431087e7 9.666944846764142e6 0.0
0.0 0.0 0.0

-507484.5717155896 3.0409518423200138e7 0.0
3.0409518423200138e7 -2.362406872691751e6 0.0
0.0 0.0 0.0

-2.778864548130796e6 2.4662648735477544e7 0.0
2.4662648735477544e7 1.142435437500686e7 0.0
0.0 0.0 0.0

6.645598710321968e6 2.2694137005268328e7 0.0
2.2694137005268328e7 9.378451786299534e6 0.0
0.0 0.0 0.0

-9.180249487217116e7 2.8332308606009107e7 0.0
2.8332308606009107e7 -1.6013130350514986e6 0.0
0.0 0.0 0.0

-1.083467904833444e6 1.0404648391943417e6 0.0
1.0404648391943417e6 465821.1532100777 0.0
0.0 0.0 0.0

-1.4991416580209353e6 1.8820921239926863e7 0.0
1.8820921239926863e7 -2.0661377806279839e6 0.0
0.0 0.0 0.0

1.4515457000379335e7 2.2564626872811828e7 0.0
2.2564626872811828e7 3.966124911023382e6 0.0
0.0 0.0 0.0

-712380.693821487 3.671156640077554e7 0.0
3.671156640077554e7 1.2026701485862404e6 0.0
0.0 0.0 0.0

-3.2580808462903183e6 1.5946240792066412e7 0.0
1.5946240792066412e7 -4.456883242535058e7 0.0
0.0 0.0 0.0

-3.294191894910407e6 2.2493375379463427e7 0.0
2.2493375379463427e7 -8.309840787437066e6 0.0
0.0 0.0 0.0

4.464236511208928e6 2.63382348146748e7 0.0
2.63382348146748e7 -7.705478373983523e6 0.0
0.0 0.0 0.0

1.0349515881829401e6 1.6652596171347477e7 0.0
1.6652596171347477e7 -1.6850209170433484e7 0.0
0.0 0.0 0.0

4.344400523613593e6 2.5505329984030068e7 0.0
2.5505329984030068e7 -7.567730295840701e6 0.0
0.0 0.0 0.0

719131.1419244618 2.093630622283286e7 0.0
2.093630622283286e7 1.0364219081064582e7 0.0
0.0 0.0 0.0

220901.3427797549 3.009397989125227e7 0.0
3.009397989125227e7 -1.8551211661158619e6 0.0
0.0 0.0 0.0

2.390258696665203e6 1.008750047501223e7 0.0
1.008750047501223e7 -2.7064959003033355e7 0.0
0.0 0.0 0.0

2.5241704191128947e6 2.86586615839554e6 0.0
2.86586615839554e6 -4.212692088222019e7 0.0
0.0 0.0 0.0

-1.5523377768019205e6 894138.7808510755 0.0
894138.7808510755 -698842.9624930494 0.0
0.0 0.0 0.0

-9.949351957507681e6 662601.5202585479 0.0
662601.5202585479 2.670931481350051e6 0.0
0.0 0.0 0.0

3.968829226422481e6 2.235952467529469e7 0.0
2.235952467529469e7 1.544352120480927e7 0.0
0.0 0.0 0.0

2.6991812930580806e6 1.9504838030504547e7 0.0
1.9504838030504547e7 1.3539160608420504e7 0.0
0.0 0.0 0.0

385063.73941559903 2.072079647169013e7 0.0
2.072079647169013e7 1.037362778125558e7 0.0
0.0 0.0 0.0

2.646757855123169e6 5.210376891635039e6 0.0
5.210376891635039e6 -1.7935138562958173e7 0.0
0.0 0.0 0.0

4.212323742412163e6 2.42812487037996e7 0.0
2.42812487037996e7 -7.012023006971434e6 0.0
0.0 0.0 0.0

2.2572850337977465e6 4.309870221457277e6 0.0
4.309870221457277e6 -8.432770818252701e6 0.0
0.0 0.0 0.0

3.7494745959377526e6 2.556773608321846e7 0.0
2.556773608321846e7 -8.341299362013719e6 0.0
0.0 0.0 0.0

-6.950115253965575e6 1.7569194965682685e7 0.0
1.7569194965682685e7 3.1579285820611175e7 0.0
0.0 0.0 0.0

1.7251871910969673e6 2.8925052378592003e7 0.0
2.8925052378592003e7 -4.967266490532656e6 0.0
0.0 0.0 0.0

5.696053577204514e6 3.37991566898651e7 0.0
3.37991566898651e7 -3.543382853253561e6 0.0
0.0 0.0 0.0

2.3560852643891703e6 7.561092768253761e6 0.0
7.561092768253761e6 -2.8986897828534313e7 0.0
0.0 0.0 0.0

2.459075556642197e6 6.124192212069691e6 0.0
6.124192212069691e6 -2.966050639535999e7 0.0
0.0 0.0 0.0

1.7579138266557775e7 2.4441312418366462e7 0.0
2.4441312418366462e7 1.1809075495192297e6 0.0
0.0 0.0 0.0

1.7071210000065146e6 2.067900530269946e7 0.0
2.067900530269946e7 2.784905544019246e7 0.0
0.0 0.0 0.0

364871.4490600331 1.8912516404661622e7 0.0
1.8912516404661622e7 -1.824617754239707e7 0.0
0.0 0.0 0.0

-7.375534885399267e6 -2.1719381742860517e6 0.0
-2.1719381742860517e6 4.383786460322374e7 0.0
0.0 0.0 0.0

-717636.0392241415 3.503902686469349e7 0.0
3.503902686469349e7 908219.5900762997 0.0
0.0 0.0 0.0

-8.609606304040194e6 1.6455555298149498e7 0.0
1.6455555298149498e7 2.935237475935241e7 0.0
0.0 0.0 0.0

-8.913658432376131e6 -2.8600089363398775e6 0.0
-2.8600089363398775e6 1.9182813424574345e7 0.0
0.0 0.0 0.0

-77660.45023683272 1.8703916593459107e7 0.0
1.8703916593459107e7 -1.1037288411952201e7 0.0
0.0 0.0 0.0

2.7025077645498253e6 2.955042909980722e6 0.0
2.955042909980722e6 -4.055916980393596e7 0.0
0.0 0.0 0.0

-4.925860281672187e6 3.1414509377336692e7 0.0
3.1414509377336692e7 5.694023565670623e6 0.0
0.0 0.0 0.0

-303786.99241239554 2.5521886628120184e7 0.0
2.5521886628120184e7 -5.1028443259888925e6 0.0
0.0 0.0 0.0

534044.8809611034 1.4316332136870151e7 0.0
1.4316332136870151e7 -3.1390315983948678e7 0.0
0.0 0.0 0.0

1.853906005211198e7 2.200939853173197e7 0.0
2.200939853173197e7 6.968414345850257e6 0.0
0.0 0.0 0.0

-5.673956131850353e6 3.0220803764281232e7 0.0
3.0220803764281232e7 6.760129581949223e6 0.0
0.0 0.0 0.0

-8.336642819272367e6 -863888.9331543685 0.0
-863888.9331543685 4.179915393443742e7 0.0
0.0 0.0 0.0

-8.43638404793046e6 -3.241220795816974e6 0.0
-3.241220795816974e6 3.2212156950154517e7 0.0
0.0 0.0 0.0

6.17922392181033e6 2.2223472534743607e7 0.0
2.2223472534743607e7 820830.9884122754 0.0
0.0 0.0 0.0

1.3397977899567913e6 2.5384253243042544e7 0.0
2.5384253243042544e7 -9.146279722706286e6 0.0
0.0 0.0 0.0

1.7845355398302982e6 2.60472992920035e7 0.0
2.60472992920035e7 -8.663881199256292e6 0.0
0.0 0.0 0.0

-5.016885632816341e6 7.446302852730769e6 0.0
7.446302852730769e6 6.185180609992837e7 0.0
0.0 0.0 0.0

3.3762448641195847e6 2.610900680360801e6 0.0
2.610900680360801e6 -1.3323410983391427e7 0.0
0.0 0.0 0.0

-9.346244766507072e6 2.479750852223208e7 0.0
2.479750852223208e7 -2.7913876933932696e6 0.0
0.0 0.0 0.0

-1.5924039900815353e7 2.5129601590583816e7 0.0
2.5129601590583816e7 -9.129085660129251e6 0.0
0.0 0.0 0.0

-3.3382074327155333e7 3.0617487387919147e7 0.0
3.0617487387919147e7 -5.797784564334092e6 0.0
0.0 0.0 0.0

1.5369096241210764e6 3.555815393797392e7 0.0
3.555815393797392e7 -648393.5328510231 0.0
0.0 0.0 0.0

692223.371528982 1.90696123867762e7 0.0
1.90696123867762e7 1.0310684717592826e6 0.0
0.0 0.0 0.0

-7.909750437547332e6 -244900.00319637352 0.0
-244900.00319637352 4.426149129957385e7 0.0
0.0 0.0 0.0

1.486510622304398e7 2.4078054054362975e7 0.0
2.4078054054362975e7 1.117712379744066e6 0.0
0.0 0.0 0.0

224015.209298403 2.0724682258680116e7 0.0
2.0724682258680116e7 -1.1722563088435775e7 0.0
0.0 0.0 0.0

-8.909305227335144e6 195877.86637879163 0.0
195877.86637879163 3.4351184623956695e7 0.0
0.0 0.0 0.0

-3.4953281978159305e6 2.520215029525495e7 0.0
2.520215029525495e7 1.018277103011994e7 0.0
0.0 0.0 0.0

-3.748673474561818e6 2.676460967651617e7 0.0
2.676460967651617e7 8.967298606930656e6 0.0
0.0 0.0 0.0

-6.1908418501699995e6 78654.787039003 0.0
78654.787039003 7.6960483858817555e6 0.0
0.0 0.0 0.0

2.5947852298654225e6 5.217264312254577e6 0.0
5.217264312254577e6 -3.090457130017538e7 0.0
0.0 0.0 0.0

-278520.9412210621 8.886865488643244e6 0.0
8.886865488643244e6 -5.51117208508085e7 0.0
0.0 0.0 0.0

8.751410027495187e6 2.4162704678285938e7 0.0
2.4162704678285938e7 1.3900632059318794e7 0.0
0.0 0.0 0.0

2.630378681501633e6 4.420348502097277e6 0.0
4.420348502097277e6 -1.184844169609748e7 0.0
0.0 0.0 0.0

2.3501967421510622e7 3.3226993898059987e7 0.0
3.3226993898059987e7 -7.438888608656442e6 0.0
0.0 0.0 0.0

3.351417092476247e6 4.449873242637508e6 0.0
4.449873242637508e6 -2.9524051444371164e7 0.0
0.0 0.0 0.0

3.4760499762822194e6 5.032463134256806e6 0.0
5.032463134256806e6 -2.0057059061720364e7 0.0
0.0 0.0 0.0

2.9152064567655344e6 4.767548240353027e6 0.0
4.767548240353027e6 -2.6015287963633116e7 0.0
0.0 0.0 0.0

1.0460991366494978e6 2.0166679067192446e7 0.0
2.0166679067192446e7 3.0182026092234477e6 0.0
0.0 0.0 0.0

1.830541641178918e6 1.95494144318514e7 0.0
1.95494144318514e7 1.0231830231077433e7 0.0
0.0 0.0 0.0

-145884.70782007836 1.685977945158545e7 0.0
1.685977945158545e7 -2.8322890010257676e7 0.0
0.0 0.0 0.0

2.237694534787179e7 3.430340086947939e7 0.0
3.430340086947939e7 -6.0638724809994185e6 0.0
0.0 0.0 0.0

-8.766379247723106e6 -1.219163624943275e6 0.0
-1.219163624943275e6 3.423486672500311e7 0.0
0.0 0.0 0.0

-3.4738401411509914e6 2.5396771500235137e7 0.0
2.5396771500235137e7 1.1915433674865013e7 0.0
0.0 0.0 0.0

-1.947957056417749e6 3.466675824122619e7 0.0
3.466675824122619e7 353204.6963254544 0.0
0.0 0.0 0.0

1.2417656193923098e6 2.9042935061952103e7 0.0
2.9042935061952103e7 -4.240686198148232e6 0.0
0.0 0.0 0.0

-8.508355769268539e6 -2.492830944495675e6 0.0
-2.492830944495675e6 2.485500265478732e7 0.0
0.0 0.0 0.0

-1.005838946887085e7 -437203.850024234 0.0
-437203.850024234 1.7746275610183477e7 0.0
0.0 0.0 0.0

3.029331797220963e6 2.0786736558588628e7 0.0
2.0786736558588628e7 2.6719925001370437e7 0.0
0.0 0.0 0.0

-2.7652596376903555e6 -1.0149392985914005e6 0.0
-1.0149392985914005e6 3.5480299584417534e6 0.0
0.0 0.0 0.0

8.545383333143711e6 2.6777328798138086e7 0.0
2.6777328798138086e7 -5.31756021406408e6 0.0
0.0 0.0 0.0

884380.020640322 2.410792128804369e7 0.0
2.410792128804369e7 -1.1108997588411385e7 0.0
0.0 0.0 0.0

397821.9306717273 1.9865791772078842e7 0.0
1.9865791772078842e7 -2.015717034261353e7 0.0
0.0 0.0 0.0

-1.6757491530056903e6 2.453738276381579e7 0.0
2.453738276381579e7 765525.1805735704 0.0
0.0 0.0 0.0

-3.471423003618367e6 2.433099246675944e7 0.0
2.433099246675944e7 1.0861846379853602e7 0.0
0.0 0.0 0.0

-8.523980039399354e6 1.6662931454690441e7 0.0
1.6662931454690441e7 2.571972226579439e7 0.0
0.0 0.0 0.0

-2.1884113836981453e7 4.407821054464877e7 0.0
4.407821054464877e7 6.353335958490303e6 0.0
0.0 0.0 0.0

2.867009198845758e6 4.341307180108793e6 0.0
4.341307180108793e6 -1.2095496262403667e7 0.0
0.0 0.0 0.0

929871.7679305254 1.932775069147006e7 0.0
1.932775069147006e7 -1.6671862525688274e7 0.0
0.0 0.0 0.0

1.6407367573076487e6 4.0257109775867485e6 0.0
4.0257109775867485e6 -5.923432453541639e7 0.0
0.0 0.0 0.0

4.1524197864215034e6 2.6058993948391285e7 0.0
2.6058993948391285e7 -8.166695709053337e6 0.0
0.0 0.0 0.0

-7.088069574855863e6 1.3874602882016735e7 0.0
1.3874602882016735e7 1.4826131919237196e7 0.0
0.0 0.0 0.0

-9.621739371055763e6 1.7526416785554085e7 0.0
1.7526416785554085e7 -3.82430082391135e7 0.0
0.0 0.0 0.0

3.641395488154411e7 2.3032212841018733e7 0.0
2.3032212841018733e7 7.686813377855848e6 0.0
0.0 0.0 0.0

-9.950142688885836e6 3.071660273933875e6 0.0
3.071660273933875e6 1.9826275715509217e7 0.0
0.0 0.0 0.0

1.1916239160017591e7 2.2694671160643723e7 0.0
2.2694671160643723e7 1.0174555323970238e7 0.0
0.0 0.0 0.0

7.001394533609944e6 1.7821165600761972e7 0.0
1.7821165600761972e7 2.7524346570043787e7 0.0
0.0 0.0 0.0

-7.606198399416664e6 1.761089003366626e7 0.0
1.761089003366626e7 -2.4406419195574775e7 0.0
0.0 0.0 0.0

4.767053045766511e6 3.742551639398144e7 0.0
3.742551639398144e7 -3.906090315426197e6 0.0
0.0 0.0 0.0

-242433.0549603668 2.5622278375804897e7 0.0
2.5622278375804897e7 -7.763137789119394e6 0.0
0.0 0.0 0.0

-5.1865671023593405e6 1.909340728562317e7 0.0
1.909340728562317e7 2.014733253144119e7 0.0
0.0 0.0 0.0

-1.4500841999801844e6 8.859542002025843e6 0.0
8.859542002025843e6 -7.789246183365339e7 0.0
0.0 0.0 0.0

-1.0492694703178298e7 882465.5820882333 0.0
882465.5820882333 1.696256184516699e7 0.0
0.0 0.0 0.0

-1.5339447045996718e6 2.044065000092038e7 0.0
2.044065000092038e7 -8.867544195169209e6 0.0
0.0 0.0 0.0

1.1045379187346846e7 2.3530387496052843e7 0.0
2.3530387496052843e7 1.1843733825703943e7 0.0
0.0 0.0 0.0

2.6639554361259765e6 1.4526680149468612e7 0.0
1.4526680149468612e7 6.853666588466668e6 0.0
0.0 0.0 0.0

-3.5815357502003014e6 2.3464829295996472e7 0.0
2.3464829295996472e7 1.5950069090342518e7 0.0
0.0 0.0 0.0

-2.962589675788731e6 2.8831298682139646e7 0.0
2.8831298682139646e7 5.519304350712424e6 0.0
0.0 0.0 0.0

-1.8924156818108138e7 4.4976259860246554e7 0.0
4.4976259860246554e7 7.678342519133203e6 0.0
0.0 0.0 0.0

957590.1556111313 8.3666760665774895e6 0.0
8.3666760665774895e6 -6.686703747832278e6 0.0
0.0 0.0 0.0

-3.486045638789131e6 2.850218268091696e7 0.0
2.850218268091696e7 5.034481350268206e6 0.0
0.0 0.0 0.0

-220538.56111827586 2.4467031850848585e7 0.0
2.4467031850848585e7 -7.699357987288764e6 0.0
0.0 0.0 0.0

1.690488778521317e7 2.3744232697254714e7 0.0
2.3744232697254714e7 1.2030173631750662e7 0.0
0.0 0.0 0.0

320283.4338269243 2.7890014945075057e7 0.0
2.7890014945075057e7 -5.895106925107676e6 0.0
0.0 0.0 0.0

2.1964716446501687e6 4.410311073032014e6 0.0
4.410311073032014e6 -9.466240402259234e6 0.0
0.0 0.0 0.0

369055.5880708881 2.1102922778827846e7 0.0
2.1102922778827846e7 -1.4895103119449906e7 0.0
0.0 0.0 0.0

-1.0235255438056542e7 2.9180148162308987e6 0.0
2.9180148162308987e6 2.6368569141340647e7 0.0
0.0 0.0 0.0

3.1769951335552447e6 5.988329527703509e6 0.0
5.988329527703509e6 -2.8925313655456476e7 0.0
0.0 0.0 0.0

1.495857295570407e6 4.906019103892847e6 0.0
4.906019103892847e6 -6.421659752742526e7 0.0
0.0 0.0 0.0

3.5777486802231055e6 2.3367569738860097e7 0.0
2.3367569738860097e7 1.3642104622809988e7 0.0
0.0 0.0 0.0

734193.9863317609 2.100218198575519e7 0.0
2.100218198575519e7 -1.7515180259439927e7 0.0
0.0 0.0 0.0

-5.698069914787396e6 1.938933551002681e7 0.0
1.938933551002681e7 1.8019400990030173e7 0.0
0.0 0.0 0.0

3.5393809659161083e6 2.0670914542758707e6 0.0
2.0670914542758707e6 -2.4773837441714175e7 0.0
0.0 0.0 0.0

1.2704901347734425e6 1.687902723149713e7 0.0
1.687902723149713e7 -2.1759656142317362e7 0.0
0.0 0.0 0.0

-141163.89130600635 1.9123776070858482e7 0.0
1.9123776070858482e7 -2.1387275355944898e7 0.0
0.0 0.0 0.0

-5.018746916049907e6 2.04085302904345e7 0.0
2.04085302904345e7 1.712941382339096e7 0.0
0.0 0.0 0.0

28632.221808192087 9.57989892113122e6 0.0
9.57989892113122e6 4.24286471020438e6 0.0
0.0 0.0 0.0

-9.295555979494277e6 -598355.4054925874 0.0
-598355.4054925874 2.836255425647656e7 0.0
0.0 0.0 0.0

266818.5168181993 2.0189037896547996e7 0.0
2.0189037896547996e7 -1.8379795853294212e7 0.0
0.0 0.0 0.0

-6.97332625221236e6 1.2594496136915058e7 0.0
1.2594496136915058e7 1.580790059198661e7 0.0
0.0 0.0 0.0

1.5586122137093648e7 2.1718866884597722e7 0.0
2.1718866884597722e7 1.0936260000205068e7 0.0
0.0 0.0 0.0

1.0060499776490377e6 2.4799495102829754e7 0.0
2.4799495102829754e7 -1.0404513729332356e7 0.0
0.0 0.0 0.0

2.381358169985218e6 4.3973565290133115e6 0.0
4.3973565290133115e6 -8.193381354664474e6 0.0
0.0 0.0 0.0

-8.035422126090553e6 6.766278705070171e6 0.0
6.766278705070171e6 4.4773496456054e7 0.0
0.0 0.0 0.0

-2.1058655815830617e6 3.1450912286894437e7 0.0
3.1450912286894437e7 827437.9043300565 0.0
0.0 0.0 0.0

-1.0021543540397005e7 3.2974852059796367e7 0.0
3.2974852059796367e7 5.6364156847401e6 0.0
0.0 0.0 0.0

-1.1596604601017557e7 4.32497973021522e6 0.0
4.32497973021522e6 1.73122883243428e7 0.0
0.0 0.0 0.0

-9.163649848372145e6 2.0110786314106241e6 0.0
2.0110786314106241e6 3.598815497731547e7 0.0
0.0 0.0 0.0

123401.10806310177 1.499090650059005e7 0.0
1.499090650059005e7 -3.1664139822498564e7 0.0
0.0 0.0 0.0

-3.8878329148802757e6 2.097571901978068e7 0.0
2.097571901978068e7 1.773646655290076e7 0.0
0.0 0.0 0.0

-8.120012000350289e6 8.059371640709023e6 0.0
8.059371640709023e6 4.534978594842938e7 0.0
0.0 0.0 0.0

-7.027910577123111e7 2.2161526662505247e7 0.0
2.2161526662505247e7 3.925740513108924e6 0.0
0.0 0.0 0.0

951729.7788223736 1.4003175500002496e7 0.0
1.4003175500002496e7 -1.9411152127798542e7 0.0
0.0 0.0 0.0

999428.1341522753 2.0116179551846325e7 0.0
2.0116179551846325e7 475076.9576968821 0.0
0.0 0.0 0.0

2.886142650885517e6 1.570943677922814e6 0.0
1.570943677922814e6 -3.96567881520157e7 0.0
0.0 0.0 0.0

4.924308637986184e6 2.0544524153966267e7 0.0
2.0544524153966267e7 1.6058497967871927e7 0.0
0.0 0.0 0.0

-9.149145513084132e6 8.31069896412338e6 0.0
8.31069896412338e6 4.1941611352412835e7 0.0
0.0 0.0 0.0

997643.118283622 7.04638691265723e6 0.0
7.04638691265723e6 -8.743604373646852e6 0.0
0.0 0.0 0.0

-139566.77418285562 2.4512434142103713e7 0.0
2.4512434142103713e7 -7.697105223242017e6 0.0
0.0 0.0 0.0

-2.1427711695325426e6 2.7789752330472376e7 0.0
2.7789752330472376e7 452305.5383170998 0.0
0.0 0.0 0.0

-2.707803645325826e6 2.3380211146270666e7 0.0
2.3380211146270666e7 1.0755433292983241e7 0.0
0.0 0.0 0.0

-6.951182650232036e6 3.221131037195297e7 0.0
3.221131037195297e7 5.442405536010832e6 0.0
0.0 0.0 0.0

-2.5662790426458144e6 2.2536524209085144e7 0.0
2.2536524209085144e7 783013.2050933293 0.0
0.0 0.0 0.0

-7.491321346988093e6 595695.7264787006 0.0
595695.7264787006 5.00553834914249e7 0.0
0.0 0.0 0.0

3.63000475816846e6 2.0267126848044984e7 0.0
2.0267126848044984e7 2.433217125836818e7 0.0
0.0 0.0 0.0

1.0479477720643412e6 1.9033643986777663e7 0.0
1.9033643986777663e7 -1.8329758437316906e7 0.0
0.0 0.0 0.0

-1.9799827945481014e7 2.8669729553188022e7 0.0
2.8669729553188022e7 -8.222439199876167e6 0.0
0.0 0.0 0.0

-7.569293196022029e6 -1.623502505380798e6 0.0
-1.623502505380798e6 1.1682969620558487e7 0.0
0.0 0.0 0.0

-1.44211031477129e6 3.394415954263547e7 0.0
3.394415954263547e7 1.7268729715703195e6 0.0
0.0 0.0 0.0

333442.5567647392 1.9294619675726358e7 0.0
1.9294619675726358e7 -1.7985457679074577e6 0.0
0.0 0.0 0.0

-6.690970259940697e6 1.843886803183861e7 0.0
1.843886803183861e7 2.9652815885596603e7 0.0
0.0 0.0 0.0

2.207626852489937e6 1.2306964788743276e7 0.0
1.2306964788743276e7 -2.5745759964199185e7 0.0
0.0 0.0 0.0

-7.625586013975436e6 1.7872639289597996e7 0.0
1.7872639289597996e7 2.678603753167803e7 0.0
0.0 0.0 0.0

1.8799912033200846e6 4.524360163658653e6 0.0
4.524360163658653e6 -7.901778966882208e6 0.0
0.0 0.0 0.0

2.9457342489406336e6 7.482124696782708e6 0.0
7.482124696782708e6 -2.854448088685325e7 0.0
0.0 0.0 0.0

-3.089733654295449e6 2.2470281148114666e7 0.0
2.2470281148114666e7 -9.81060443004528e6 0.0
0.0 0.0 0.0

-2.147445904665432e6 2.3998344165794387e7 0.0
2.3998344165794387e7 2.8048097023145696e6 0.0
0.0 0.0 0.0

-1.671453886618211e6 2.785949193762832e7 0.0
2.785949193762832e7 2.0040920221189004e6 0.0
0.0 0.0 0.0

4.534629677063817e6 2.5329399693070922e7 0.0
2.5329399693070922e7 -7.963970242428323e6 0.0
0.0 0.0 0.0

3.3774393862767015e6 5.122614995708237e6 0.0
5.122614995708237e6 -2.588869217713902e7 0.0
0.0 0.0 0.0

1.2875620704741615e6 4.447455486218291e6 0.0
4.447455486218291e6 -5.201461916741429e6 0.0
0.0 0.0 0.0

2.254471020113455e6 6.68167468858088e6 0.0
6.68167468858088e6 -3.039798959464803e7 0.0
0.0 0.0 0.0

1.8873854438775778e6 6.987548163773953e6 0.0
6.987548163773953e6 -9.059439292290438e6 0.0
0.0 0.0 0.0

2.104607819176166e7 2.17844411818698e7 0.0
2.17844411818698e7 9.498338391776267e6 0.0
0.0 0.0 0.0

-2.7768907874493245e6 3.781122189287324e7 0.0
3.781122189287324e7 2.514248251540849e6 0.0
0.0 0.0 0.0

-8.188016547320323e6 -820243.5352028888 0.0
-820243.5352028888 4.009225853482428e7 0.0
0.0 0.0 0.0

1.0406884448744096e6 8.77636605127553e6 0.0
8.77636605127553e6 -5.0705898637761384e7 0.0
0.0 0.0 0.0

3.6548883908527684e6 2.617087254399159e7 0.0
2.617087254399159e7 -8.340061774312511e6 0.0
0.0 0.0 0.0

-2.4311494275339046e6 2.2296271122527916e7 0.0
2.2296271122527916e7 -1.1312358537705654e7 0.0
0.0 0.0 0.0

1.6889011006298345e6 7.8624759509212095e6 0.0
7.8624759509212095e6 -3.814085485215622e7 0.0
0.0 0.0 0.0

-7.346726908314198e6 3.7456201849931344e7 0.0
3.7456201849931344e7 4.955452292696089e6 0.0
0.0 0.0 0.0

9.161953065106522e6 2.389713572695457e7 0.0
2.389713572695457e7 1.2562811765797988e7 0.0
0.0 0.0 0.0

-4.2477384933675386e7 4.214183977856287e7 0.0
4.214183977856287e7 7.312947786947267e6 0.0
0.0 0.0 0.0

-1.8488737578913383e6 2.076329557461943e7 0.0
2.076329557461943e7 2.3946717772624724e7 0.0
0.0 0.0 0.0

2.016267043768065e6 1.118109604692215e7 0.0
1.118109604692215e7 -2.6474295283654083e7 0.0
0.0 0.0 0.0

8.248792852795391e7 2.6808274652624052e7 0.0
2.6808274652624052e7 1.1062842790262634e7 0.0
0.0 0.0 0.0

6.315357458605842e6 2.176590197137604e7 0.0
2.176590197137604e7 1.817608871303115e7 0.0
0.0 0.0 0.0

-1.0592819405502828e7 4.1100557215120844e6 0.0
4.1100557215120844e6 2.7279562542008415e7 0.0
0.0 0.0 0.0

2.0808447884081537e6 2.011847398583808e7 0.0
2.011847398583808e7 1.075803820304e7 0.0
0.0 0.0 0.0

-3.2352158482362125e6 1.8433457205729596e7 0.0
1.8433457205729596e7 -2.6968690241054438e7 0.0
0.0 0.0 0.0

1.019052814882153e7 2.6364402800009765e7 0.0
2.6364402800009765e7 -4.4652151765599735e6 0.0
0.0 0.0 0.0

-2.6990771466400274e6 2.3861961599060014e7 0.0
2.3861961599060014e7 8.628637430692319e6 0.0
0.0 0.0 0.0

-9.152994011608416e6 6.725952567110287e6 0.0
6.725952567110287e6 4.1020376411836624e7 0.0
0.0 0.0 0.0

-6.623738503682544e6 3.826057665561071e7 0.0
3.826057665561071e7 3.699850625902466e6 0.0
0.0 0.0 0.0

-8.431560939266814e6 2.513365072828599e7 0.0
2.513365072828599e7 4.989930842856264e6 0.0
0.0 0.0 0.0

-2.352868096509734e6 2.7438378527871795e7 0.0
2.7438378527871795e7 1.3114738319386062e6 0.0
0.0 0.0 0.0

3.7804474799497793e6 3.1580577349440493e7 0.0
3.1580577349440493e7 -4.359517781517788e6 0.0
0.0 0.0 0.0

-2.0824048270359195e6 3.0759527577405233e7 0.0
3.0759527577405233e7 768138.924644269 0.0
0.0 0.0 0.0

175126.19403873972 2.0403243718080208e7 0.0
2.0403243718080208e7 329566.29291221185 0.0
0.0 0.0 0.0

66462.60580727924 2.1578922443169985e7 0.0
2.1578922443169985e7 2.0791952179053005e7 0.0
0.0 0.0 0.0

2.650724313579667e6 2.2324002959087048e7 0.0
2.2324002959087048e7 665735.1691652153 0.0
0.0 0.0 0.0

-9.519677935331155e6 1.8526849720243983e7 0.0
1.8526849720243983e7 -4.692917124168202e7 0.0
0.0 0.0 0.0

82752.3462569993 2.0391047388542287e7 0.0
2.0391047388542287e7 2.633562314393018e6 0.0
0.0 0.0 0.0

-2.4972108923629057e6 2.394848172486686e7 0.0
2.394848172486686e7 1.3397400657950502e6 0.0
0.0 0.0 0.0

5.013207461260397e6 1.694853348798836e7 0.0
1.694853348798836e7 1.441149244947812e7 0.0
0.0 0.0 0.0

946394.1332739843 2.2665130073642e7 0.0
2.2665130073642e7 -1.3023254772304453e7 0.0
0.0 0.0 0.0

754612.3133332487 1.646434150882865e7 0.0
1.646434150882865e7 -2.305759210914689e7 0.0
0.0 0.0 0.0

3.352886882577682e6 4.441946391834084e6 0.0
4.441946391834084e6 -2.7050688551513884e7 0.0
0.0 0.0 0.0

5.248097000778949e6 2.1424933162266247e7 0.0
2.1424933162266247e7 1.4822080830943622e7 0.0
0.0 0.0 0.0

-1.6029893662677733e6 2.257575490077154e7 0.0
2.257575490077154e7 1.4063190913913604e7 0.0
0.0 0.0 0.0

-7.301712407349341e6 1.8250775799184877e7 0.0
1.8250775799184877e7 2.6880236092713393e7 0.0
0.0 0.0 0.0

-2.501182587236207e6 2.309031441170719e7 0.0
2.309031441170719e7 9.854347864393616e6 0.0
0.0 0.0 0.0

-4.619361996911486e6 2.2636760532765526e7 0.0
2.2636760532765526e7 -1.0160794435731348e7 0.0
0.0 0.0 0.0

-7.585109347759757e6 1.848282062730618e7 0.0
1.848282062730618e7 2.5285226260002993e7 0.0
0.0 0.0 0.0

-7.551958457441738e6 1.7887944016149525e7 0.0
1.7887944016149525e7 2.953260729351596e7 0.0
0.0 0.0 0.0

-8.996808793578396e6 1.6757954856116707e7 0.0
1.6757954856116707e7 2.3795099861488022e7 0.0
0.0 0.0 0.0

-9.0157193883987e6 -1.9733229131640887e6 0.0
-1.9733229131640887e6 2.7996269518927604e7 0.0
0.0 0.0 0.0

-2.841769321918177e6 2.5468532905413084e7 0.0
2.5468532905413084e7 1.0266420003925877e7 0.0
0.0 0.0 0.0

-4.179135733191753e6 1.736800141466145e7 0.0
1.736800141466145e7 -3.983299129074855e7 0.0
0.0 0.0 0.0

-601368.2927644402 1.6782460890175425e7 0.0
1.6782460890175425e7 -2.8251241233330242e7 0.0
0.0 0.0 0.0

-3.2891793087022565e7 3.2973135141902987e7 0.0
3.2973135141902987e7 -1.102413439375822e7 0.0
0.0 0.0 0.0

-7.114086859870575e6 5.49651172488322e6 0.0
5.49651172488322e6 5.099575212147959e7 0.0
0.0 0.0 0.0

33645.96368010342 1.7407828936155625e7 0.0
1.7407828936155625e7 -2.64758462810097e7 0.0
0.0 0.0 0.0

-748955.1342691736 3.162925039954181e7 0.0
3.162925039954181e7 -1.3509187760001142e6 0.0
0.0 0.0 0.0

3.4466420050779944e6 1.9992746637147132e7 0.0
1.9992746637147132e7 1.8839146350074314e7 0.0
0.0 0.0 0.0

-8.58438928054878e6 -4.4238274428815e6 0.0
-4.4238274428815e6 2.4030529799119085e7 0.0
0.0 0.0 0.0

-339509.150743349 2.0129650096266754e7 0.0
2.0129650096266754e7 -2.1389995142190275e6 0.0
0.0 0.0 0.0

-889106.5945034721 2.204789327082556e7 0.0
2.204789327082556e7 -9.809345261196788e6 0.0
0.0 0.0 0.0

-1.2141049780977614e7 8.516662429553596e6 0.0
8.516662429553596e6 1.880064340068297e7 0.0
0.0 0.0 0.0

2.2860153085499853e6 1.350245587357197e6 0.0
1.350245587357197e6 -5.0424832690955445e7 0.0
0.0 0.0 0.0

-43521.38645771658 1.1065161216893474e7 0.0
1.1065161216893474e7 -9.87831313080565e6 0.0
0.0 0.0 0.0

-1.0393256625638537e7 3.214727664127986e6 0.0
3.214727664127986e6 3.2963322143613547e7 0.0
0.0 0.0 0.0

1.518927670520369e6 2.32087946117678e7 0.0
2.32087946117678e7 -1.2569802306263804e7 0.0
0.0 0.0 0.0

6.9381848354567075e6 1.958448705675481e7 0.0
1.958448705675481e7 3.451535293459926e7 0.0
0.0 0.0 0.0

-80687.87680826662 1.0600213490127051e7 0.0
1.0600213490127051e7 -5.149729900473171e6 0.0
0.0 0.0 0.0

9.660513531195693e6 2.3880086257776823e7 0.0
2.3880086257776823e7 1.4301805709790803e7 0.0
0.0 0.0 0.0

-3.4844284516855394e6 3.8748928623436466e7 0.0
3.8748928623436466e7 2.78188472830945e6 0.0
0.0 0.0 0.0

-1.1424857897353807e7 4.390281830390438e6 0.0
4.390281830390438e6 2.4170398279138785e7 0.0
0.0 0.0 0.0

811849.0193487089 2.0691355462715916e7 0.0
2.0691355462715916e7 2.2904347989677988e7 0.0
0.0 0.0 0.0

1.448418813876208e6 1.1527445625339739e7 0.0
1.1527445625339739e7 -2.7011743187928777e7 0.0
0.0 0.0 0.0

-2.3511752001321264e7 2.921719379317894e7 0.0
2.921719379317894e7 1.5440631870197197e6 0.0
0.0 0.0 0.0

-8.457018564016702e6 -2.6298344501254363e6 0.0
-2.6298344501254363e6 1.5648524288418949e7 0.0
0.0 0.0 0.0

-1.2945114844935426e7 2.4573741274084006e7 0.0
2.4573741274084006e7 -8.856887005241567e6 0.0
0.0 0.0 0.0

3.68519084462383e7 2.464091305511894e7 0.0
2.464091305511894e7 8.42138982671708e6 0.0
0.0 0.0 0.0

-697501.0149705587 2.465324855913803e7 0.0
2.465324855913803e7 -7.560708754263989e6 0.0
0.0 0.0 0.0

2.0698313738333248e6 1.1815549452652268e7 0.0
1.1815549452652268e7 -2.5040238500973e7 0.0
0.0 0.0 0.0

-4.072801295593624e6 2.5706387057331637e7 0.0
2.5706387057331637e7 1.1574011995107424e7 0.0
0.0 0.0 0.0

-6.7417476780000925e6 1.2251794355166561e6 0.0
1.2251794355166561e6 5.696629662196057e7 0.0
0.0 0.0 0.0

-5.019387772825619e6 2.237035555063096e7 0.0
2.237035555063096e7 -1.4866616562240232e7 0.0
0.0 0.0 0.0

-1.5219403400078923e6 3.4690975272706226e7 0.0
3.4690975272706226e7 1.812220093202814e6 0.0
0.0 0.0 0.0

-2.473239677197745e6 1.5733403842863325e7 0.0
1.5733403842863325e7 -3.887540228056049e7 0.0
0.0 0.0 0.0

73596.8333901465 2.009236113762201e7 0.0
2.009236113762201e7 -2.0012869965343155e7 0.0
0.0 0.0 0.0

53082.683237223886 1.935717874076871e7 0.0
1.935717874076871e7 -2.1661232161277756e7 0.0
0.0 0.0 0.0

-7.800829855548652e6 1.4788053357129166e7 0.0
1.4788053357129166e7 3.655485507981491e7 0.0
0.0 0.0 0.0

-2.8803035645789094e6 2.4287729139782913e7 0.0
2.4287729139782913e7 9.126767457703274e6 0.0
0.0 0.0 0.0

-5.279239577396162e6 1.2679420173982095e7 0.0
1.2679420173982095e7 1.0373168786800025e8 0.0
0.0 0.0 0.0

2.9775194981860816e6 1.2745959008116249e7 0.0
1.2745959008116249e7 -1.0221650540217191e8 0.0
0.0 0.0 0.0

-1.8693252062978223e7 2.8695056346739594e7 0.0
2.8695056346739594e7 -1.1913745640868168e7 0.0
0.0 0.0 0.0

-2.115942004397666e6 2.1717662093228288e7 0.0
2.1717662093228288e7 1.5086981564064251e7 0.0
0.0 0.0 0.0

-2.780227403501842e7 2.992261706118847e7 0.0
2.992261706118847e7 -4.017268493152472e6 0.0
0.0 0.0 0.0

-8.664099278085098e6 -2.624858930182003e6 0.0
-2.624858930182003e6 1.979963573115448e7 0.0
0.0 0.0 0.0

-6.818205465467891e6 1.9325747111974508e7 0.0
1.9325747111974508e7 2.2543940912240732e7 0.0
0.0 0.0 0.0

-1.4595156819517862e7 2.6036498188871678e7 0.0
2.6036498188871678e7 -7.079618499084288e6 0.0
0.0 0.0 0.0

-9.476593486906504e6 4.441159168696179e6 0.0
4.441159168696179e6 3.524624385784951e7 0.0
0.0 0.0 0.0

3.453277617199214e7 2.2189371791404337e7 0.0
2.2189371791404337e7 7.62958828428284e6 0.0
0.0 0.0 0.0

1.1946268204150805e6 2.0397564900921434e7 0.0
2.0397564900921434e7 2.7443036766889703e7 0.0
0.0 0.0 0.0

-3.790302415080486e6 2.0670383657390453e7 0.0
2.0670383657390453e7 1.7444249688562617e7 0.0
0.0 0.0 0.0

-2.7066346756858006e7 4.129926774035071e7 0.0
4.129926774035071e7 9.571311319899766e6 0.0
0.0 0.0 0.0

5.045059091662522e6 2.29416090259387e7 0.0
2.29416090259387e7 5.91594493029708e6 0.0
0.0 0.0 0.0

3.6840554240791397e6 2.1702020730002396e7 0.0
2.1702020730002396e7 -1.1270097798655403e6 0.0
0.0 0.0 0.0

-4.78909995537645e6 2.7222795967696223e7 0.0
2.7222795967696223e7 9.711081311676316e6 0.0
0.0 0.0 0.0

-8.726227090984328e6 2.4081455129716013e7 0.0
2.4081455129716013e7 -666512.3968703966 0.0
0.0 0.0 0.0

-1.1649923822594513e6 2.022027032946743e7 0.0
2.022027032946743e7 -2.428284704506438e6 0.0
0.0 0.0 0.0

3.5966506109547014e6 2.2574522418969575e7 0.0
2.2574522418969575e7 -3.157977237053505e6 0.0
0.0 0.0 0.0

4.591164110161908e6 2.2710290160788245e7 0.0
2.2710290160788245e7 1.4379485578299299e7 0.0
0.0 0.0 0.0

5.626799988439902e6 3.592641796313668e7 0.0
3.592641796313668e7 -2.7313835781000988e6 0.0
0.0 0.0 0.0

-3.401945900713462e6 2.5185857972380057e7 0.0
2.5185857972380057e7 1.1136853046406044e7 0.0
0.0 0.0 0.0

-5.499004462442882e6 3.825824039465105e7 0.0
3.825824039465105e7 1.9920453831958554e6 0.0
0.0 0.0 0.0

-8.065889508543859e6 1.77697546660699e7 0.0
1.77697546660699e7 -5.155136308988353e7 0.0
0.0 0.0 0.0

-1.7747269352229454e7 2.0652029564144704e7 0.0
2.0652029564144704e7 -9.573623065420124e7 0.0
0.0 0.0 0.0

1.6701935704625327e7 2.1619629037431616e7 0.0
2.1619629037431616e7 9.55453694762884e7 0.0
0.0 0.0 0.0

7.198424859855771e6 1.998201717768247e7 0.0
1.998201717768247e7 3.3137392078511793e7 0.0
0.0 0.0 0.0

269519.68446062505 1.060520725798835e7 0.0
1.060520725798835e7 -4.388496794178729e7 0.0
0.0 0.0 0.0

3.1361429468038753e6 3.5457815409280114e7 0.0
3.5457815409280114e7 -3.359306067639999e6 0.0
0.0 0.0 0.0

1.3570990767442123e6 2.4651527211967424e7 0.0
2.4651527211967424e7 -1.0171662874370638e7 0.0
0.0 0.0 0.0

-1.2059727375556428e6 2.1158582132068597e7 0.0
2.1158582132068597e7 -7.585572151159233e6 0.0
0.0 0.0 0.0

1.6101395696170283e6 2.3696884345570564e7 0.0
2.3696884345570564e7 -1.1803437748115335e7 0.0
0.0 0.0 0.0

-3.5376506922945105e7 4.42140630950513e7 0.0
4.42140630950513e7 1.0616477763554733e7 0.0
0.0 0.0 0.0

-2.851468088528687e6 3.4298046153421946e7 0.0
3.4298046153421946e7 1.2148245319279267e6 0.0
0.0 0.0 0.0

-6.824448378931714e6 2.7960340310831282e7 0.0
2.7960340310831282e7 8.182731669828601e6 0.0
0.0 0.0 0.0

1.8829901425436474e6 3.19205901458417e6 0.0
3.19205901458417e6 -5.372556993141589e7 0.0
0.0 0.0 0.0

1.1083324134979397e7 2.7197922293750558e7 0.0
2.7197922293750558e7 -4.840199063051438e6 0.0
0.0 0.0 0.0

-2.297696574771082e6 1.6337982393644013e7 0.0
1.6337982393644013e7 -3.631557291645549e7 0.0
0.0 0.0 0.0

9.721761686479758e6 2.7755094868150093e7 0.0
2.7755094868150093e7 -5.364809587426094e6 0.0
0.0 0.0 0.0

-634989.0870110957 1.9442068286339965e7 0.0
1.9442068286339965e7 -1.356322125425179e6 0.0
0.0 0.0 0.0

1.6538624812095417e6 2.1393791302805223e7 0.0
2.1393791302805223e7 2.3797611748891637e7 0.0
0.0 0.0 0.0

-5.34709563091526e6 3.026301250515215e7 0.0
3.026301250515215e7 6.005573742518906e6 0.0
0.0 0.0 0.0

-9.03300927068966e6 -999714.5876806198 0.0
-999714.5876806198 3.345379309683422e7 0.0
0.0 0.0 0.0

1.8270637887915272e7 2.2509975217635296e7 0.0
2.2509975217635296e7 3.6614342330866843e6 0.0
0.0 0.0 0.0

-7.893672523093754e7 2.9429010555957835e7 0.0
2.9429010555957835e7 414863.6596844457 0.0
0.0 0.0 0.0

-8.494310988010596e6 1.5055639767961826e7 0.0
1.5055639767961826e7 3.4041163628205456e7 0.0
0.0 0.0 0.0

-6.759609661951177e6 2.505506316728289e7 0.0
2.505506316728289e7 5.463385766182042e6 0.0
0.0 0.0 0.0

4.630105219568386e6 2.2829295876934648e7 0.0
2.2829295876934648e7 -36141.8998109051 0.0
0.0 0.0 0.0

3.2046846631364226e6 3.0640394486865764e6 0.0
3.0640394486865764e6 -3.4924516720195025e7 0.0
0.0 0.0 0.0

-2.6661948024393492e6 2.243601608008292e7 0.0
2.243601608008292e7 1.1818366700297892e7 0.0
0.0 0.0 0.0

-7.371516236030869e6 475149.7612523256 0.0
475149.7612523256 5.067257920060081e7 0.0
0.0 0.0 0.0

-1.8338784220977288e7 2.485294153839412e7 0.0
2.485294153839412e7 -1.0189631104343353e8 0.0
0.0 0.0 0.0

1.681046947948339e7 2.6405082482240234e7 0.0
2.6405082482240234e7 1.0035537538990963e8 0.0
0.0 0.0 0.0

186624.90448690765 1.4280127322857114e7 0.0
1.4280127322857114e7 -3.2962750921470203e7 0.0
0.0 0.0 0.0

625739.9547158002 4.67041066784924e6 0.0
4.67041066784924e6 -5.319289784922024e6 0.0
0.0 0.0 0.0

1.3678486829624936e7 1.996457384674995e7 0.0
1.996457384674995e7 6.466395877253169e6 0.0
0.0 0.0 0.0

-6.921575197698016e6 1.9278340837335628e6 0.0
1.9278340837335628e6 5.7327828417355426e7 0.0
0.0 0.0 0.0

802292.6387498486 8.677964578382915e6 0.0
8.677964578382915e6 -8.053811302623016e6 0.0
0.0 0.0 0.0

7.045779188099802e6 3.40834307610747e7 0.0
3.40834307610747e7 -4.41242870640601e6 0.0
0.0 0.0 0.0

299974.4112908598 2.0467631159242634e7 0.0
2.0467631159242634e7 -1.58948202758768e7 0.0
0.0 0.0 0.0

5.12336349471429e6 2.0135843471786458e7 0.0
2.0135843471786458e7 2.3706508653386824e7 0.0
0.0 0.0 0.0

-6.927813221398888e6 2.479101105012246e7 0.0
2.479101105012246e7 361589.3740954334 0.0
0.0 0.0 0.0

-3.284610641002835e7 2.7813143468324754e7 0.0
2.7813143468324754e7 -7.396293185667327e6 0.0
0.0 0.0 0.0

-3.3412927967785066e6 3.376273720163569e7 0.0
3.376273720163569e7 1.9441839806483993e6 0.0
0.0 0.0 0.0

1.4271331348822573e6 2.075355984084398e7 0.0
2.075355984084398e7 1.315573235531244e7 0.0
0.0 0.0 0.0

-1.020365577561846e6 2.2034475123444296e7 0.0
2.2034475123444296e7 1.7608181546926662e7 0.0
0.0 0.0 0.0

1.0119904765027799e6 1.7401820550831698e7 0.0
1.7401820550831698e7 -2.2218784338761874e7 0.0
0.0 0.0 0.0

1.6806954245012784e6 2.2973313805058245e7 0.0
2.2973313805058245e7 -1.2371142429949641e7 0.0
0.0 0.0 0.0

-7.421222963990483e6 3.5571509186073914e6 0.0
3.5571509186073914e6 5.523680526838112e7 0.0
0.0 0.0 0.0

-2.9264055172113203e7 4.475749576094081e7 0.0
4.475749576094081e7 7.486000160534224e6 0.0
0.0 0.0 0.0

-1.347266651945398e7 3.5228943802310735e7 0.0
3.5228943802310735e7 5.8381594829574935e6 0.0
0.0 0.0 0.0

-3.2364260872774623e7 3.0365741170864277e7 0.0
3.0365741170864277e7 -2.4974614889386008e6 0.0
0.0 0.0 0.0

208299.3037622436 2.109092449531202e7 0.0
2.109092449531202e7 4.643437799976964e6 0.0
0.0 0.0 0.0

-1.0189016344182145e7 2.5530329314245846e7 0.0
2.5530329314245846e7 -1.522359139643799e6 0.0
0.0 0.0 0.0

-1.925270259056485e7 2.7823780188852895e7 0.0
2.7823780188852895e7 -8.072049030230185e6 0.0
0.0 0.0 0.0

1.6092193782085185e6 7.799674298898208e6 0.0
7.799674298898208e6 -7.653784442217435e6 0.0
0.0 0.0 0.0

4.2029841660628645e6 2.0396408017302617e7 0.0
2.0396408017302617e7 2.4542726545858145e7 0.0
0.0 0.0 0.0

1.307714905347189e6 9.727486467508642e6 0.0
9.727486467508642e6 -4.301830380987054e7 0.0
0.0 0.0 0.0

-7.346546072960261e6 1.6009471474594997e7 0.0
1.6009471474594997e7 3.5208067666147485e7 0.0
0.0 0.0 0.0

-6.423343751087464e6 1.5504271761120937e6 0.0
1.5504271761120937e6 5.8507884204272926e7 0.0
0.0 0.0 0.0

2.171077311861016e6 3.436324313132596e6 0.0
3.436324313132596e6 -5.292767961679291e7 0.0
0.0 0.0 0.0

-3.6683614345323645e7 3.0539744951455988e7 0.0
3.0539744951455988e7 -3.8002898524084045e6 0.0
0.0 0.0 0.0

-7.71940924137174e6 -261225.54279897836 0.0
-261225.54279897836 4.630915067328794e7 0.0
0.0 0.0 0.0

-8.343465022238072e6 -746273.3258714711 0.0
-746273.3258714711 4.0414344441668324e7 0.0
0.0 0.0 0.0

853340.7541368911 7.495980303656617e6 0.0
7.495980303656617e6 -9.921577600118184e6 0.0
0.0 0.0 0.0

-8.628806478400521e6 659711.1630259803 0.0
659711.1630259803 3.868382770606679e7 0.0
0.0 0.0 0.0

9.630626309486017e6 4.7030331050807215e7 0.0
4.7030331050807215e7 -5.232396747897236e6 0.0
0.0 0.0 0.0

-3.3776310258888006e6 2.1659903564375825e7 0.0
2.1659903564375825e7 1.6583827149275906e7 0.0
0.0 0.0 0.0

946502.3424084857 4.529193695609142e6 0.0
4.529193695609142e6 -6.520081043678649e7 0.0
0.0 0.0 0.0

2.1523980990248416e6 4.010986620185061e6 0.0
4.010986620185061e6 -4.138671236540299e7 0.0
0.0 0.0 0.0

-2.980369834769892e6 2.407937216597602e7 0.0
2.407937216597602e7 8.151701385987233e6 0.0
0.0 0.0 0.0

-5.194813418797504e6 3.770414395828244e7 0.0
3.770414395828244e7 3.544406849016696e6 0.0
0.0 0.0 0.0

6.705787179244312e6 1.1377199376157658e7 0.0
1.1377199376157658e7 2.203336481524512e6 0.0
0.0 0.0 0.0

1.2873933797167648e7 2.345470916896181e7 0.0
2.345470916896181e7 1.2925242986834465e7 0.0
0.0 0.0 0.0

1.1192560753118178e7 2.5857394556544743e7 0.0
2.5857394556544743e7 -3.573053037396714e6 0.0
0.0 0.0 0.0

-7.9148853674979005e6 -17965.018742926142 0.0
-17965.018742926142 4.544133254151771e7 0.0
0.0 0.0 0.0

-1.951425488797892e7 2.4945105378658433e7 0.0
2.4945105378658433e7 -2.2667387658888604e6 0.0
0.0 0.0 0.0

-3.192123593004594e6 3.3026069479969956e7 0.0
3.3026069479969956e7 1.8147374916692474e6 0.0
0.0 0.0 0.0

4.579713212838678e6 1.9433990460613422e7 0.0
1.9433990460613422e7 5.445137383737425e7 0.0
0.0 0.0 0.0

1.3325581048318135e7 2.637079779650279e7 0.0
2.637079779650279e7 -3.556923667337021e6 0.0
0.0 0.0 0.0

-4.754461467562184e6 2.2732384539990462e7 0.0
2.2732384539990462e7 -1.0097821936644526e7 0.0
0.0 0.0 0.0

-3.327837286454659e6 2.2859870053853687e7 0.0
2.2859870053853687e7 1.7163372060909092e7 0.0
0.0 0.0 0.0

-3.5783379276474435e6 2.205697516286904e7 0.0
2.205697516286904e7 -1.0102604029322874e7 0.0
0.0 0.0 0.0

-7.536539204078627e7 4.05299632832602e7 0.0
4.05299632832602e7 -8.549465834459567e6 0.0
0.0 0.0 0.0

-4.398769879341614e6 2.1378305388702087e7 0.0
2.1378305388702087e7 1.6153391029090669e7 0.0
0.0 0.0 0.0

-4.266825527863826e6 2.322491721223439e7 0.0
2.322491721223439e7 -8.569981776234511e6 0.0
0.0 0.0 0.0

-3.5714219752793573e6 2.3621801989123993e7 0.0
2.3621801989123993e7 1.6280559755348343e7 0.0
0.0 0.0 0.0

8.921964070165262e6 2.5440816078866445e7 0.0
2.5440816078866445e7 -4.50125958624978e6 0.0
0.0 0.0 0.0

2.818400063609734e6 3.0427053083649725e6 0.0
3.0427053083649725e6 -3.389378723017535e7 0.0
0.0 0.0 0.0

3.7636986288439585e6 2.4659897053186998e7 0.0
2.4659897053186998e7 -8.380892042744312e6 0.0
0.0 0.0 0.0

-2.8084260992065128e7 4.471100298659884e7 0.0
4.471100298659884e7 7.161189691938385e6 0.0
0.0 0.0 0.0

-6.764730761547096e6 3.1533463885684658e7 0.0
3.1533463885684658e7 6.362391177974916e6 0.0
0.0 0.0 0.0

-9.363870736963058e6 -1.7172839876714242e6 0.0
-1.7172839876714242e6 2.722713275569458e7 0.0
0.0 0.0 0.0

475293.5703818798 2.0701350793138098e7 0.0
2.0701350793138098e7 -1.7451177747979376e7 0.0
0.0 0.0 0.0

1.517474298711109e7 2.3316324198586635e7 0.0
2.3316324198586635e7 4.924414838809956e6 0.0
0.0 0.0 0.0

-6.762230659573248e7 3.431644953646312e7 0.0
3.431644953646312e7 1.3826463060543947e6 0.0
0.0 0.0 0.0

4.347128958519161e6 1.8825661906217963e7 0.0
1.8825661906217963e7 1.705877350069182e7 0.0
0.0 0.0 0.0

609936.661653012 9.493489404834874e6 0.0
9.493489404834874e6 -4.5395611285547026e7 0.0
0.0 0.0 0.0

638889.2515837392 1.7103776426329095e7 0.0
1.7103776426329095e7 -2.210814626291073e7 0.0
0.0 0.0 0.0

-2.347106254351021e6 2.27431211260767e7 0.0
2.27431211260767e7 1.3742229494006246e7 0.0
0.0 0.0 0.0

-7.795138181116203e6 3.8018814522180445e7 0.0
3.8018814522180445e7 3.28496137659223e6 0.0
0.0 0.0 0.0

1.1218769568563194e6 2.8314679526788373e7 0.0
2.8314679526788373e7 -5.177796297300574e6 0.0
0.0 0.0 0.0

2.601827077101564e6 2.877960823045012e6 0.0
2.877960823045012e6 -4.061440419479941e7 0.0
0.0 0.0 0.0

7.179095790002146e6 1.975219780532564e7 0.0
1.975219780532564e7 4.7956127818052925e7 0.0
0.0 0.0 0.0

-734542.1179841721 1.914951762093758e7 0.0
1.914951762093758e7 -1.9574915975824678e6 0.0
0.0 0.0 0.0

-5.2911238907150954e7 4.005253601986373e7 0.0
4.005253601986373e7 1.040213643607961e7 0.0
0.0 0.0 0.0

-9.597254782483108e6 1.2008025616411553e6 0.0
1.2008025616411553e6 3.454418702029809e7 0.0
0.0 0.0 0.0

-8.828524517900787e6 901473.7324464334 0.0
901473.7324464334 3.690454834018362e7 0.0
0.0 0.0 0.0

1.4552916599719616e7 2.3206337137466356e7 0.0
2.3206337137466356e7 7.670268661789988e6 0.0
0.0 0.0 0.0

-7.665779814844694e6 -365907.65792321455 0.0
-365907.65792321455 4.518277429327445e7 0.0
0.0 0.0 0.0

3.6530667900844296e6 1.93891717582353e7 0.0
1.93891717582353e7 1.6593148009620247e7 0.0
0.0 0.0 0.0

8.494149477587245e6 2.0126341225323755e7 0.0
2.0126341225323755e7 3.5209894328256726e7 0.0
0.0 0.0 0.0

1.3603486838962273e6 3.534120154889819e7 0.0
3.534120154889819e7 -1.6510249292121849e6 0.0
0.0 0.0 0.0

-6.561195885171276e6 6.599830210259808e6 0.0
6.599830210259808e6 6.0406463127234824e7 0.0
0.0 0.0 0.0

-3.051667815368006e6 1.6378801231200704e7 0.0
1.6378801231200704e7 -3.741494296660555e7 0.0
0.0 0.0 0.0

380140.4405202409 8.406718756514573e6 0.0
8.406718756514573e6 -8.617601874429157e6 0.0
0.0 0.0 0.0

-1.9107667525642086e6 2.225836504842461e7 0.0
2.225836504842461e7 1.1946010300868133e7 0.0
0.0 0.0 0.0

4.9294718773585735e6 2.0251532943603754e7 0.0
2.0251532943603754e7 3.419177680517567e7 0.0
0.0 0.0 0.0

-8.615820222112179e6 1.3828042677059453e6 0.0
1.3828042677059453e6 4.398629397581967e7 0.0
0.0 0.0 0.0

-7.025604078151764e6 9.12850821550194e6 0.0
9.12850821550194e6 6.663594876514809e6 0.0
0.0 0.0 0.0

-2.4009546047460274e6 2.3277375181794517e7 0.0
2.3277375181794517e7 1.3997057045202227e6 0.0
0.0 0.0 0.0

1.7775151261287013e6 1.2398210857824894e7 0.0
1.2398210857824894e7 1.1503068773324316e7 0.0
0.0 0.0 0.0

4.259823199201431e6 2.1903227869172383e7 0.0
2.1903227869172383e7 -1.926852572173859e6 0.0
0.0 0.0 0.0

-9.239248580322098e6 735369.557941512 0.0
735369.557941512 3.66436179788445e7 0.0
0.0 0.0 0.0

-5.742556339308109e6 6.508161307062414e6 0.0
6.508161307062414e6 6.420734134333022e7 0.0
0.0 0.0 0.0

3.4782919532355582e6 2.2545789495733462e7 0.0
2.2545789495733462e7 -792050.0357278332 0.0
0.0 0.0 0.0

1.005418509786101e6 2.1161073829592455e7 0.0
2.1161073829592455e7 -1.5057031688221626e7 0.0
0.0 0.0 0.0

-5.575727422896516e6 6.337769897008815e6 0.0
6.337769897008815e6 6.359692330195625e7 0.0
0.0 0.0 0.0

8.568932351005383e6 2.5561835833186116e7 0.0
2.5561835833186116e7 -4.350683928316334e6 0.0
0.0 0.0 0.0

4.0419298933182913e6 1.9438059951372486e7 0.0
1.9438059951372486e7 2.4996020051487364e7 0.0
0.0 0.0 0.0

-7.842664041190497e6 1.3199418025995826e7 0.0
1.3199418025995826e7 1.4375293386024993e7 0.0
0.0 0.0 0.0

-5.8402195929716695e6 1.2850695148543643e7 0.0
1.2850695148543643e7 6.826513729794569e6 0.0
0.0 0.0 0.0

-1.2503759326249635e7 9.364588484479534e6 0.0
9.364588484479534e6 5.424556029753823e6 0.0
0.0 0.0 0.0

