# vtk DataFile Version 2.0
phase field modeling fracture
ASCII
DATASET UNSTRUCTURED_GRID
POINTS 2538 float
0.0 0.0 0.0
10.0 0.0 0.0
0.0 10.0 0.0
10.0 10.0 0.0
0.0 4.9995 0.0
0.0 5.0005 0.0
5.0 5.0 0.0
0.9416964895726688 0.0 0.0
1.803581725054446 0.0 0.0
2.592419885431098 0.0 0.0
3.314401822861676 0.0 0.0
3.975193910351406 0.0 0.0
4.579982132660152 0.0 0.0
5.133512780936812 0.0 0.0
5.640130319506143 0.0 0.0
6.103810708661955 0.0 0.0
6.528192895506818 0.0 0.0
6.916607540127679 0.0 0.0
7.272102969376355 0.0 0.0
7.597469242948583 0.0 0.0
7.895259826292669 0.0 0.0
8.167811885738017 0.0 0.0
8.417264413845215 0.0 0.0
8.645575169389538 0.0 0.0
8.854535961159101 0.0 0.0
9.045786767735546 0.0 0.0
9.220828555767493 0.0 0.0
9.38103509633881 0.0 0.0
9.527663687265145 0.0 0.0
9.661865124984566 0.0 0.0
9.784692609918062 0.0 0.0
9.897110148790482 0.0 0.0
10.0 0.09999999999992584 0.0
10.0 0.199999999999856 0.0
10.0 0.2999999999997771 0.0
10.0 0.3999999999996677 0.0
10.0 0.4999999999995511 0.0
10.0 0.5999999999994683 0.0
10.0 0.6999999999993983 0.0
10.0 0.7999999999993286 0.0
10.0 0.8999999999992587 0.0
10.0 0.9999999999991888 0.0
10.0 1.099999999999119 0.0
10.0 1.199999999999033 0.0
10.0 1.299999999998852 0.0
10.0 1.399999999998576 0.0
10.0 1.499999999998284 0.0
10.0 1.599999999997992 0.0
10.0 1.6999999999977 0.0
10.0 1.799999999997408 0.0
10.0 1.899999999997116 0.0
10.0 1.999999999996825 0.0
10.0 2.099999999996533 0.0
10.0 2.199999999996241 0.0
10.0 2.299999999995949 0.0
10.0 2.399999999995657 0.0
10.0 2.499999999995365 0.0
10.0 2.599999999995073 0.0
10.0 2.699999999994782 0.0
10.0 2.79999999999449 0.0
10.0 2.899999999994198 0.0
10.0 2.999999999993906 0.0
10.0 3.099999999993614 0.0
10.0 3.199999999993322 0.0
10.0 3.299999999993029 0.0
10.0 3.399999999992738 0.0
10.0 3.499999999992446 0.0
10.0 3.599999999992154 0.0
10.0 3.699999999991863 0.0
10.0 3.799999999991571 0.0
10.0 3.899999999991278 0.0
10.0 3.999999999991022 0.0
10.0 4.099999999991035 0.0
10.0 4.199999999991187 0.0
10.0 4.299999999991338 0.0
10.0 4.399999999991491 0.0
10.0 4.499999999991642 0.0
10.0 4.599999999991795 0.0
10.0 4.699999999991947 0.0
10.0 4.799999999992099 0.0
10.0 4.89999999999225 0.0
10.0 4.999999999992403 0.0
10.0 5.099999999992555 0.0
10.0 5.199999999992706 0.0
10.0 5.299999999992858 0.0
10.0 5.39999999999301 0.0
10.0 5.499999999993161 0.0
10.0 5.599999999993313 0.0
10.0 5.699999999993466 0.0
10.0 5.799999999993618 0.0
10.0 5.899999999993771 0.0
10.0 5.999999999993922 0.0
10.0 6.099999999994074 0.0
10.0 6.199999999994227 0.0
10.0 6.299999999994378 0.0
10.0 6.39999999999453 0.0
10.0 6.499999999994682 0.0
10.0 6.599999999994833 0.0
10.0 6.699999999994986 0.0
10.0 6.799999999995138 0.0
10.0 6.899999999995289 0.0
10.0 6.999999999995442 0.0
10.0 7.099999999995594 0.0
10.0 7.199999999995747 0.0
10.0 7.299999999995897 0.0
10.0 7.39999999999605 0.0
10.0 7.499999999996202 0.0
10.0 7.599999999996353 0.0
10.0 7.699999999996505 0.0
10.0 7.799999999996658 0.0
10.0 7.899999999996808 0.0
10.0 7.999999999996962 0.0
10.0 8.099999999997113 0.0
10.0 8.199999999997265 0.0
10.0 8.299999999997418 0.0
10.0 8.399999999997569 0.0
10.0 8.499999999997721 0.0
10.0 8.599999999997873 0.0
10.0 8.699999999998024 0.0
10.0 8.799999999998176 0.0
10.0 8.899999999998329 0.0
10.0 8.99999999999848 0.0
10.0 9.099999999998634 0.0
10.0 9.199999999998786 0.0
10.0 9.299999999998937 0.0
10.0 9.399999999999089 0.0
10.0 9.499999999999241 0.0
10.0 9.599999999999392 0.0
10.0 9.699999999999545 0.0
10.0 9.799999999999697 0.0
10.0 9.899999999999848 0.0
9.897110148790565 10.0 0.0
9.784692609918244 10.0 0.0
9.66186512498486 10.0 0.0
9.527663687265571 10.0 0.0
9.381035096339392 10.0 0.0
9.220828555768257 10.0 0.0
9.045786767736512 10.0 0.0
8.854535961160305 10.0 0.0
8.645575169391027 10.0 0.0
8.417264413847017 10.0 0.0
8.167811885740178 10.0 0.0
7.895259826295246 10.0 0.0
7.597469242951631 10.0 0.0
7.272102969379938 10.0 0.0
6.916607540131873 10.0 0.0
6.528192895511704 10.0 0.0
6.103810708667616 10.0 0.0
5.640130319512691 10.0 0.0
5.13351278094435 10.0 0.0
4.579982132668816 10.0 0.0
3.975193910361222 10.0 0.0
3.314401822869852 10.0 0.0
2.592419885437257 10.0 0.0
1.803581725058137 10.0 0.0
0.9416964895740705 10.0 0.0
0.0 9.00010000000243 0.0
0.0 8.000200000005481 0.0
0.0 7.000300000005135 0.0
0.0 6.000400000002569 0.0
0.901790731451151 5.000409820926855 0.0
1.657200899774397 5.000334279910023 0.0
2.289991063707192 5.000271000893629 0.0
2.820065163538221 5.000217993483646 0.0
3.264096435579811 5.000173590356442 0.0
3.636051481595835 5.00013639485184 0.0
3.947629914072366 5.000105237008593 0.0
4.208632181002628 5.0000791367819 0.0
4.427267949625672 5.000057273205037 0.0
4.610414277633563 5.000038958572237 0.0
4.763831845154243 5.000023616815485 0.0
4.892346298799659 5.00001076537012 0.0
4.892346298799748 4.99998923462988 0.0
4.763831845154455 4.999976383184515 0.0
4.610414277633943 4.999961041427763 0.0
4.427267949626277 4.999942726794963 0.0
4.208632181003523 4.9999208632181 0.0
3.94762991407365 4.999894762991407 0.0
3.636051481597624 4.99986360514816 0.0
3.264096435582253 4.999826409643559 0.0
2.820065163541503 4.999782006516354 0.0
2.289991063711534 4.999728999106371 0.0
1.657200899778495 4.999665720089978 0.0
0.9017907314530094 4.999590179073145 0.0
0.0 3.999600000002013 0.0
0.0 2.999700000005187 0.0
0.0 1.99980000000512 0.0
0.0 0.9999000000025537 0.0
9.897889398521345 2.93573355845387 0.0
9.906568249974548 7.060009441434234 0.0
9.913122631074113 3.64016132281653 0.0
9.922462129543863 6.354535290629151 0.0
9.917693659967533 4.354211663134567 0.0
9.909873057440208 5.637584487339942 0.0
9.914183254994697 4.950672966925282 0.0
9.913885043715895 7.666887930262611 0.0
9.91009668007573 2.351889069770817 0.0
9.905135696074536 8.138152454502785 0.0
9.913397459621809 1.849999999997262 0.0
7.099302372137626 0.297750452375005 0.0
7.095143729410097 9.700359990366296 0.0
4.942912558701401 5.095838627899509 0.0
4.315009232304429 5.165022115481685 0.0
4.946182472483878 4.906763777264103 0.0
4.317967462990024 4.825955043772673 0.0
9.916390871492647 8.64999999999792 0.0
9.921504649680616 1.368376469890358 0.0
8.292538149791614 0.206877570318844 0.0
8.292538149793597 9.793122429681448 0.0
5.884594439766573 9.587645267048616 0.0
5.794826292691579 0.3794853783929359 0.0
9.913397459621425 9.049999999998557 0.0
9.908526577714177 0.9568239351922434 0.0
3.456851160380649 5.315740054130451 0.0
3.457889657868442 4.707121019609468 0.0
8.945214200703926 0.1503383337970344 0.0
8.950161364448409 9.8413906539257 0.0
9.913862335499305 4.055887885208452 0.0
9.916697353372683 4.650158482607802 0.0
9.919076340414442 6.049999999994006 0.0
9.906994308667635 5.25749687748192 0.0
9.917490342358025 6.655979201891897 0.0
9.915757520293784 7.343848891656911 0.0
9.910049507471042 3.363474386285078 0.0
9.914471988502868 2.647400064832979 0.0
9.91474124160965 9.337490423485129 0.0
9.916971008170838 0.6499999999994355 0.0
4.307157269264427 9.509674045029644 0.0
4.331527375865619 0.4401616696422582 0.0
9.45434939180249 9.878397030523757 0.0
9.457696120412969 0.1270877537061785 0.0
2.555070293622606 5.422044496190925 0.0
2.566232917480916 4.608001224030952 0.0
3.026511860837692 9.332320638257093 0.0
2.945561971800619 0.5895662714727601 0.0
7.7395404387124 0.2511088946967771 0.0
7.736379255744154 9.745848826372828 0.0
4.687135269408529 5.122111433928926 0.0
4.688420821504113 4.871895064967488 0.0
9.910554884115975 0.3448356354522978 0.0
9.911230082250466 9.65764729394159 0.0
9.921953841410854 6.851023993342036 0.0
9.912065178606017 5.448170483544033 0.0
9.911660025326261 3.861846960030188 0.0
9.914847467973438 3.14501593945607 0.0
9.913397459621425 5.849999999993703 0.0
9.913397459621425 7.849999999996735 0.0
9.906916878988277 2.15455769998631 0.0
9.913397459621425 8.349999999997479 0.0
9.909472363117661 1.640528221515488 0.0
9.913987325695956 1.152857110636247 0.0
9.913397459621425 8.849999999998241 0.0
0.9100099990995943 2.614215977520411 0.0
0.8395284981715456 7.451196254860987 0.0
9.723278867451556 9.898135916635193 0.0
9.723316350887044 0.09841820909386662 0.0
1.385819164827588 4.454539963646463 0.0
1.338343629665047 5.523111536005823 0.0
1.377179700550677 0.6809168304959698 0.0
1.418060461092743 9.285896715136046 0.0
9.91268220142518 0.1457914080939694 0.0
9.906737126737994 9.845745933882352 0.0
0.7108351382691361 6.537941170074089 0.0
1.527735020267026 6.915620208855231 0.0
1.630993885659103 7.838271825205868 0.0
2.232760943566823 7.370850737296832 0.0
2.243414218068206 6.688299277952821 0.0
2.779655053105118 7.021588754814074 0.0
2.80227799359795 7.632420170547022 0.0
3.282022065908813 7.305859666021318 0.0
3.327597298795347 7.857554136825748 0.0
3.743210251018715 7.549183328204379 0.0
3.716353232200752 7.062036086888612 0.0
4.111978858674101 7.27497101169417 0.0
4.104192177581432 6.879858986267289 0.0
4.436230765617037 7.045693351607117 0.0
4.430360014817357 6.703971783962796 0.0
4.732390145036301 6.849841042423394 0.0
5.056161327708878 5.095276573498806 0.0
5.111586796021131 4.999081142133581 0.0
5.169267363407189 5.09444870412406 0.0
5.223795108752053 4.996986220359468 0.0
5.281480803887719 5.092780870372803 0.0
5.335670761900611 4.994887492556936 0.0
5.393485214772442 5.090486192743301 0.0
5.447323082877892 4.992601527033996 0.0
5.505243219343024 5.087953380710069 0.0
5.558739102026105 4.990287787962959 0.0
5.616491581184779 5.085335255235766 0.0
5.669852346908056 4.9879269227514 0.0
5.727502713908907 5.082679981817038 0.0
5.780766004135139 4.988313988715834 0.0
5.838244881129535 5.080480568766611 0.0
5.891357695677371 4.986433849408193 0.0
5.948696036767613 5.077969900389505 0.0
6.001601341641615 4.981313698556656 0.0
6.058851024265095 5.074871552128682 0.0
6.111614020704875 4.978360695880202 0.0
6.168801161530775 5.072044953270978 0.0
6.221368818778567 4.975825765213497 0.0
6.278268309066882 5.066182320461055 0.0
6.330814273567539 4.972837984645718 0.0
6.387565032421376 5.062889771971895 0.0
6.437476667631405 4.971693683589553 0.0
6.496181111585419 5.060210690175857 0.0
6.539454812256072 4.964658165361536 0.0
6.604198202576491 5.056387520850258 0.0
6.648506025747331 4.939374587506267 0.0
6.714026758992516 5.05873885840664 0.0
6.764418045981209 4.959246676066148 0.0
6.8219334571197 5.055299567406268 0.0
6.873708540948134 4.960426349093742 0.0
6.930181428849307 5.053461390218819 0.0
6.981893615341967 4.96435459462232 0.0
7.037791764774784 5.051219747103022 0.0
7.090993561518408 4.96392420322464 0.0
5.504417457283294 4.900897920552702 0.0
7.145434864123609 5.048960634292441 0.0
6.054532384032612 4.883956083938546 0.0
6.738027949040956 4.850032323068674 0.0
7.198432914526514 4.956325226333323 0.0
7.252637187936749 5.046012229327236 0.0
7.30926729605109 4.948903216650376 0.0
7.248106275544042 4.860306312845646 0.0
7.363100274863074 4.849952416808486 0.0
7.365733472701664 5.039519554615095 0.0
7.308483293090149 5.137557220352172 0.0
6.768399513646964 5.145609705119954 0.0
7.422800035311104 5.132251445551834 0.0
7.358273518796229 5.235980394389298 0.0
7.480824155801127 5.227946127939927 0.0
7.302193400058628 4.761917474298247 0.0
7.413570879789824 4.754555110721153 0.0
7.414392998903179 5.334729114426734 0.0
7.352769630272076 4.660405502266205 0.0
7.467556835255426 4.658352623795039 0.0
7.536246869015014 5.328986926716081 0.0
7.478865844607288 5.432598185493195 0.0
7.406396991826072 4.556956233957538 0.0
7.523581002009154 4.552005631348623 0.0
7.597792398573263 5.429506106314967 0.0
7.540511043402902 5.53619421580439 0.0
7.46214474876342 4.452580994318881 0.0
7.5852185078634 4.446021810672608 0.0
7.663329342323453 5.533453399066901 0.0
7.603478967594521 5.643227430483237 0.0
7.513450346818673 4.347641323140766 0.0
7.640744971722214 4.333388343316237 0.0
7.727671715775243 5.642390483050116 0.0
7.667774597993788 5.753188858425915 0.0
7.570065256728661 4.230515669344811 0.0
7.702881065467917 4.218307808529532 0.0
7.638288257073729 4.107994211855027 0.0
7.493362356301017 4.120843902105771 0.0
7.779018500630071 5.521233457321821 0.0
7.794641287388929 5.752364621610818 0.0
7.73369774483611 5.865894287356292 0.0
7.600834531784728 5.867752110500446 0.0
6.233038857278689 5.15645045634683 0.0
7.669727996028819 5.985665563643058 0.0
7.528582452554481 5.987393423295551 0.0
7.598722674572824 6.11001923494443 0.0
7.778305000222867 4.104318908265786 0.0
7.704329019832056 3.987744174608892 0.0
7.838453459801382 4.213322728668484 0.0
7.864495721576461 5.862306066517277 0.0
7.846552353360407 3.98481756181946 0.0
7.769730409703277 3.86544808681145 0.0
5.785249360396857 5.177248808588045 0.0
7.908837087876153 3.861484036275285 0.0
7.834824606222196 3.740586825753288 0.0
7.97685993406276 3.736209527152902 0.0
7.89665098770825 3.615501862931453 0.0
7.753228010315262 3.617800245018972 0.0
7.826063013090472 3.483173292579822 0.0
7.66789744383048 3.48859328808356 0.0
8.042515855796823 3.595394268381807 0.0
7.75200750488492 3.341279823834038 0.0
7.582870318332553 3.346584916806707 0.0
8.120807847415062 3.732493963388337 0.0
8.189783970303546 3.61159165475499 0.0
7.657801000286734 3.200439907646711 0.0
7.486781956172036 3.201402473247712 0.0
7.452595103886905 6.11418616185016 0.0
7.527098033550077 6.243191052852112 0.0
8.260502906807751 3.728437634721859 0.0
8.327629317451398 3.608173631356984 0.0
7.372763970891452 6.247552889754036 0.0
7.456170570815929 6.384992468962936 0.0
7.621837793616884 6.376077080857113 0.0
7.548039512904141 6.520750676893614 0.0
7.717475944451644 6.514856553988943 0.0
7.636658166268699 6.661648164052906 0.0
7.807468267259438 6.664076174524672 0.0
7.718022764310774 6.817938967122142 0.0
7.887785766941087 6.807440365887151 0.0
7.545993589083432 6.815070675854734 0.0
7.809874785067209 6.967537287475282 0.0
7.975643812145337 6.948729406725126 0.0
8.396477808021062 3.725446935061211 0.0
7.565651643157136 3.044354774611752 0.0
7.384328725505071 3.043048915147076 0.0
8.056405351948353 6.802790889114673 0.0
8.14128318237188 6.940027831915737 0.0
8.064621760266059 7.086348792208953 0.0
8.225003598857908 6.805225152373254 0.0
8.463085452993242 3.606998510553562 0.0
8.230426869720718 7.079551841000411 0.0
8.155262284174286 7.224761758176069 0.0
8.530696760758996 3.721683301125054 0.0
8.596669886994064 3.604516769862316 0.0
8.528531058025589 3.490411531312337 0.0
8.320451770844851 7.218191678954744 0.0
8.245273958732774 7.363444652121271 0.0
8.66324687389452 3.717094013035765 0.0
8.600103125209296 3.831913857228569 0.0
8.662131102573216 3.488322280861316 0.0
8.594166125380536 3.374071873435548 0.0
8.411074336066186 7.353871649576861 0.0
8.339644223432472 7.505172120620427 0.0
8.165883718619623 7.513159193685373 0.0
8.483453820080417 7.2082285366806 0.0
8.261200365730348 7.657400951288149 0.0
8.081570576666843 7.670933304838066 0.0
7.471613195794025 2.872548423100142 0.0
7.268733678357991 2.881209199257603 0.0
7.184255506995786 3.084448584600423 0.0
7.065899603697895 2.883902449336828 0.0
6.960163891183182 3.081014635802978 0.0
6.847612128388715 2.885646860602812 0.0
6.739800729737967 3.078895733381448 0.0
8.729373804596847 3.827689165637365 0.0
8.668550856907444 3.938702277545298 0.0
8.72770789162863 3.371798381178293 0.0
8.659764090070603 3.257493349874974 0.0
8.436453928793245 7.648724489148887 0.0
6.619080287792762 2.90880017416788 0.0
6.511740956842646 3.09340654756684 0.0
8.793527829963288 3.935174834810256 0.0
8.736430500996828 4.042719556852617 0.0
7.631260330584174 4.565300771328012 0.0
8.359058396840432 7.801678182761817 0.0
5.339436215072359 5.184870243702279 0.0
4.994031736761993 5.193306795607908 0.0
6.383387675268097 4.87760645722207 0.0
7.29117392392962 6.382172868329505 0.0
6.378196825372041 2.907113079755629 0.0
6.269817199014261 3.12412150658573 0.0
8.793149127377946 3.255386294257182 0.0
8.725774239201558 3.141596687892195 0.0
8.857434600673502 4.041295940541356 0.0
8.802868937128341 4.1471119953668 0.0
8.532045262478793 7.7905977476835 0.0
7.364542641624493 2.699128473342751 0.0
7.571677611088925 2.695732556686516 0.0
6.723058333614999 2.672341359410618 0.0
8.456744924757372 7.94483904450548 0.0
6.140831279784704 2.921247401137864 0.0
6.02419219050745 3.14358702955763 0.0
8.916255604212301 3.934279868822481 0.0
8.859287250884009 3.140226640574265 0.0
8.791092798057303 3.025929352146465 0.0
7.210445465986021 6.245773134960393 0.0
7.120884161792869 6.385155584680196 0.0
7.036931702064287 6.240721609143972 0.0
6.943722280007011 6.3869279517155 0.0
8.920094519678617 4.144837222494242 0.0
8.864374107136287 4.250930406527029 0.0
7.347569838739255 4.463467417508182 0.0
5.90383431757064 2.935113219563906 0.0
5.783476009580765 3.156456199832474 0.0
8.626013191558314 7.935092223505354 0.0
8.687240186957197 7.796697889991163 0.0
5.642059327424706 2.903018174330269 0.0
5.52647853955939 3.162549070310043 0.0
8.555300051897738 8.086169516016518 0.0
8.405624441178524 8.083972416481254 0.0
5.374124307190728 2.945480555950917 0.0
8.935805220807357 3.249260758206028 0.0
8.981625171409894 4.247375537584228 0.0
8.924725364486765 4.352101286657735 0.0
8.807208588134106 4.356163101450244 0.0
8.868277832430604 4.45657124153171 0.0
8.75099635287701 4.460644845248524 0.0
8.812385950597063 4.560891222623518 0.0
8.693833206943118 4.564602972998703 0.0
8.756474732548273 4.665720853686476 0.0
8.63721608225855 4.669394550615355 0.0
8.700108119351134 4.770682016274914 0.0
8.81920502916846 4.767536120893284 0.0
8.76355311338807 4.871451945248518 0.0
8.881442328033694 4.868382238751069 0.0
8.826433523510634 4.97132552240372 0.0
8.943387824985514 4.967694248194483 0.0
8.888718468126953 5.071044784833541 0.0
8.580377663835254 4.774669738817985 0.0
8.770572242937233 5.073880380431421 0.0
8.832915096600454 5.174518948293615 0.0
8.952224483821848 5.170970838320107 0.0
8.897282771771884 5.275476392171722 0.0
7.463928467290875 2.513944501591933 0.0
7.675935950092034 2.509420347143072 0.0
8.924252417741767 3.024418701372628 0.0
8.857265893102921 2.911213535286156 0.0
8.776981063213334 5.27944309004916 0.0
8.840710910770163 5.380165700477552 0.0
8.960876896785969 5.375521424256389 0.0
8.904555918255223 5.482125846038813 0.0
7.567193097677677 2.32750151280277 0.0
7.780880844888839 2.323064027160363 0.0
6.851602118390116 6.234522818184622 0.0
6.758680682687229 6.389359516748128 0.0
6.66345977321418 6.231254850996584 0.0
8.715764716958308 8.079994249772627 0.0
8.65189989696114 8.227534663647639 0.0
9.042229096541828 4.348551764001607 0.0
6.436774206993324 3.316782326998922 0.0
7.590527613340588 5.22651784724799 0.0
9.024366884701616 5.476726561488805 0.0
8.968734351641839 5.583879050892151 0.0
8.845941080047659 5.586406316932274 0.0
8.909881305857882 5.690482454668167 0.0
7.348726871578975 5.44047403999932 0.0
6.567070253986433 6.398115757512583 0.0
6.697077150072261 6.553426749743366 0.0
5.252377383990728 3.187782967482479 0.0
8.988440431820699 2.908621158637298 0.0
8.922541972760119 2.796420836075996 0.0
6.466806010659505 6.229115583261771 0.0
9.033851153821296 5.686506775615425 0.0
8.978340519963718 5.795772485582058 0.0
8.85111463793018 5.798672910287243 0.0
8.922171984280597 5.907237880910408 0.0
8.795190680908043 5.911854068712683 0.0
8.864373398892472 6.019728357749566 0.0
8.991346995940626 6.014539153309398 0.0
8.93374019140187 6.12698887312768 0.0
5.095192648098848 2.952353430985476 0.0
7.672651464908932 2.141715359830917 0.0
7.886266921042761 2.136211284120189 0.0
9.098474286589756 4.245971410451114 0.0
8.813172564986438 8.216887361735234 0.0
8.74802978243154 8.366104673219047 0.0
9.059985162956899 6.120982589539211 0.0
9.00342813739303 6.233245043891739 0.0
4.961413514304496 3.214209167276753 0.0
9.05248113004685 2.794651022570942 0.0
8.986028039118027 2.681341972594222 0.0
5.671890458441996 3.377122473800023 0.0
4.755829262593116 7.184480462344647 0.0
9.158258644940048 4.34465968221255 0.0
4.799687186662534 2.961354824469195 0.0
6.030554747591715 2.726787502996874 0.0
8.938327180212585 8.34758372042188 0.0
8.847392320655468 8.503370672816716 0.0
8.67342124373679 8.518117686968314 0.0
5.234423106934083 2.694925204361751 0.0
8.964923046453565 8.185313058214797 0.0
7.456650986668838 2.134076476407834 0.0
9.111732084821366 2.897226832609386 0.0
6.368055837513985 6.402805870976705 0.0
6.265629899005033 6.226581076317183 0.0
8.736327196352686 6.026404178766982 0.0
9.117473097358854 2.67987006607594 0.0
9.052137415465204 2.565428515518978 0.0
7.781001557847192 1.955874236406257 0.0
7.992134447300669 1.949184538864554 0.0
8.593074792993455 3.143159483125708 0.0
9.1291360203536 6.226877897052981 0.0
9.072154326613617 6.338696745620542 0.0
8.916532550320525 2.566986282201109 0.0
8.984021113721658 2.449252898983242 0.0
9.178032243215632 6.120533546076094 0.0
9.213703592343162 4.244823670856978 0.0
9.11972142641474 2.449071238668887 0.0
9.052853896812186 2.33190758581705 0.0
8.635035926402708 4.462329956179506 0.0
8.773614475966344 8.657865377672689 0.0
8.596400917257634 8.67759750279447 0.0
8.942023339420883 8.644678093589654 0.0
9.19471670675691 6.33096438039349 0.0
9.138460613363325 6.443043552768813 0.0
8.66620319432524 5.916297234509582 0.0
8.606669825267202 6.032658196729024 0.0
9.27222540210304 4.341341907533128 0.0
9.013782808177437 6.451040569407859 0.0
9.08360982569773 6.55729980456602 0.0
7.885622149776354 1.768093045890686 0.0
8.095672144455353 1.768790621151345 0.0
9.208772072925791 6.549717411809656 0.0
9.154272208194383 6.662613503537815 0.0
9.187669783927937 2.334640996932141 0.0
9.122379015831417 2.215832190697178 0.0
6.164077036161143 6.404611236428829 0.0
6.062367614988677 6.224307160647549 0.0
8.987075041759633 2.211477580983978 0.0
9.056972755801603 2.093573581203428 0.0
9.194557288902232 2.096029761809264 0.0
9.131223008370409 1.972713028695079 0.0
8.87381302587057 8.795793668920256 0.0
9.039169086943392 8.781606667490083 0.0
4.662813350519927 3.228118291851354 0.0
4.474181267994617 2.945703616023359 0.0
6.562627723301209 6.075544382232434 0.0
9.326886053211574 4.243083624343211 0.0
9.280374192897945 6.656072830232892 0.0
9.224718905178564 6.766740750539347 0.0
4.703284910421452 6.528907865005451 0.0
8.955136474970331 6.565989985649191 0.0
8.998148826814893 4.865480736169776 0.0
8.99429836796776 1.965972383552685 0.0
9.065669391141741 1.847195105148808 0.0
9.207236162050343 1.853010386995843 0.0
9.143218073349985 1.725630086781897 0.0
8.998867447699345 1.719378449325465 0.0
9.082595782768397 1.592017827427701 0.0
8.92804562738841 1.585238202229766 0.0
9.01637794607019 1.453847302675876 0.0
8.854253119154375 1.446306868730686 0.0
8.941620273019874 1.320083886766936 0.0
8.775393064215876 1.308487027359826 0.0
9.102170347200483 1.324733726345249 0.0
9.013857060361985 1.178821526410403 0.0
7.991031819452564 1.587689878441685 0.0
7.767218744640202 1.595993197647291 0.0
9.191539171305216 1.194087248761656 0.0
9.123965901037613 1.057102462689568 0.0
4.853921953226772 3.470213116851758 0.0
7.496563223334782 3.470157221608763 0.0
8.536691379028115 5.921845852206257 0.0
8.475496498707471 6.037633662010236 0.0
7.978668526342969 2.307231488316941 0.0
9.384721922092124 4.337357165846226 0.0
9.331039180200886 4.435926256444196 0.0
8.546261775564837 6.150267290476958 0.0
8.411727261785726 6.155319300628062 0.0
8.972203609044218 8.930944433074036 0.0
9.133480321468399 8.90955269607895 0.0
9.197778815538276 8.768743880012563 0.0
6.162231825784922 6.05277753404107 0.0
5.962111081146334 6.046949845237622 0.0
9.268727788642101 4.146883230687689 0.0
9.380694211527906 4.144811697563401 0.0
9.323823335199954 4.049557759546529 0.0
9.283324894520613 1.736313094621396 0.0
5.858151623803662 6.22041808248046 0.0
5.759668475561988 6.038806123495502 0.0
7.836860473863919 3.191674397465999 0.0
9.348591928839294 6.75855034547469 0.0
9.293979592221298 6.870213350675044 0.0
9.170543172728557 6.879819332293818 0.0
9.240028263813034 6.983394994050525 0.0
4.347372565145963 3.312731475520695 0.0
4.114183445909965 2.96879678229065 0.0
8.616264880152233 4.042035981070631 0.0
9.403174760076901 6.650407069150438 0.0
4.173860112179449 7.723461240865885 0.0
9.365302975518428 6.973476802087294 0.0
9.312420275675276 7.088420778208979 0.0
9.184876614539778 7.0978133687822 0.0
9.25921281729617 7.204979813006656 0.0
9.12816413817609 7.21569648263899 0.0
9.203944409919862 7.322703303071253 0.0
9.334311975087337 7.311477957762272 0.0
9.280415785210538 7.428795599957155 0.0
9.274060219641907 1.066603180421249 0.0
9.211820491509728 0.9316562593680151 0.0
9.050684011148748 0.9017681241401576 0.0
9.441953732403995 4.432092590771756 0.0
9.394725873909666 4.526051349391942 0.0
9.43453556160865 4.048003950509361 0.0
9.378043599351757 3.952631412328806 0.0
9.289691247910705 8.890746792319852 0.0
9.228148443138926 9.030109127390128 0.0
4.440757888677695 6.389562448928118 0.0
4.689874463978985 6.239329075084555 0.0
4.291519540095677 2.622920583112654 0.0
3.886073352912894 2.632778677714434 0.0
9.344015622314338 1.202401041544343 0.0
8.193292196814806 3.849649660906171 0.0
6.960946604527747 6.07044529864598 0.0
9.347708267319902 8.756364147482309 0.0
6.826423138602714 3.261415861395883 0.0
6.06309517882478 5.884563187328262 0.0
9.4085057714426 7.414123963607981 0.0
9.356416821537886 7.532359471354527 0.0
5.042074134251055 6.938947182785697 0.0
5.063988238156824 7.311205832605263 0.0
3.946666851334923 3.30681624613374 0.0
8.189857914071878 1.939951128540477 0.0
7.880690277686857 1.38928908049477 0.0
7.63766396748483 1.399736360041063 0.0
9.345004233592562 1.857695941115052 0.0
9.440465164139875 7.085860901905448 0.0
7.918332480761888 5.744468010879592 0.0
9.08007135068879 5.372457017512481 0.0
8.78639561093144 3.718391405525285 0.0
9.356843485085705 0.9414458825132457 0.0
9.29705128845331 0.8103081541678832 0.0
9.251825423225316 2.451701826351773 0.0
8.483895366325516 6.270717564685176 0.0
8.346386886249478 6.275973306650227 0.0
9.493299170161215 4.138582531223591 0.0
5.321115649032961 7.117073603021904 0.0
5.354076009109965 7.436189411362466 0.0
5.597984079819928 7.254284331170681 0.0
5.644042313435943 7.564172740776336 0.0
5.383963016128051 7.753854027984002 0.0
5.681168258142109 7.880444993178456 0.0
5.935548099874979 7.687258900444162 0.0
5.979508404301389 7.994332725561488 0.0
6.21936843555201 7.802335560754011 0.0
6.267092590637372 8.104873033518185 0.0
6.498845418385807 7.917606504106031 0.0
6.544600005636809 8.209910620392591 0.0
6.77336078689533 8.027284686082275 0.0
6.814840179123049 8.311778392637773 0.0
6.721304148677048 7.737863326704131 0.0
7.031320924898797 8.1335673274533 0.0
7.077388928622946 8.403901803728003 0.0
5.417471987089176 8.090112295667405 0.0
8.845427688507666 2.446352368201366 0.0
9.318512319918124 2.339233739859646 0.0
9.380241452597096 2.451895615249572 0.0
7.283805558009199 8.237518806365102 0.0
7.329200330160381 8.497045124353782 0.0
7.233272584416691 7.991590926766813 0.0
9.142592248414191 5.471315142785471 0.0
9.196303265878848 5.36738298742727 0.0
9.25795832955665 5.465260877691205 0.0
9.310581303233182 5.36341558704714 0.0
9.371094700882272 5.459458038195667 0.0
9.422767107822985 5.360687090455724 0.0
9.36402660964156 5.264821436196721 0.0
9.474220736978928 5.262802348886269 0.0
9.41680330511366 5.169477108906666 0.0
5.168675939028436 4.895496152382537 0.0
9.482591449057548 5.454699312257291 0.0
9.431567605310825 5.552723344040521 0.0
7.531449703396948 4.741663470323411 0.0
8.517293123442691 4.672601123164268 0.0
8.459978676626639 4.778466809901586 0.0
8.396595115309985 4.67568709170855 0.0
8.338966609235166 4.782101664607259 0.0
8.275355646032752 4.678829956447008 0.0
8.217675280223542 4.785699596769931 0.0
8.28149024865807 4.888803783902183 0.0
8.16019781596952 4.892696417098926 0.0
8.22433278506531 4.995725219088695 0.0
8.102825704443651 4.999629142625341 0.0
8.166887930010795 5.098242831115916 0.0
8.034904900788316 4.896825406879729 0.0
8.15353539905931 4.682103688185489 0.0
8.211891449058882 4.574219757233394 0.0
8.290305306104333 5.094007100958221 0.0
8.225684228618732 5.201525567655179 0.0
9.444618942559746 2.343141375196729 0.0
6.929446520625337 4.868116916840016 0.0
5.737810725167649 4.893891407574175 0.0
8.720389971487277 5.38508368411851 0.0
8.805734920311323 8.951818172412821 0.0
8.905272694453211 9.083303226359831 0.0
6.006155038818204 5.171375272745409 0.0
6.431496448228514 5.152985998213245 0.0
9.052675024457304 7.106590131831544 0.0
7.740007013494393 6.09727525827826 0.0
9.375852260355511 9.013078430361404 0.0
9.32035844773103 9.14584923943073 0.0
6.989707597683965 5.146377438798643 0.0
9.488190206836386 3.951168069367155 0.0
9.432429152094464 3.855725756072153 0.0
5.568386402814275 5.185723849666124 0.0
9.525561551078322 5.166162126187324 0.0
9.465026391994275 5.072601962964018 0.0
9.320357339516937 3.857795423728873 0.0
9.375955927831914 3.759314274140895 0.0
9.261783786753899 3.761412578759438 0.0
9.31820665563318 3.661845422072752 0.0
9.431798673168924 3.660830894813109 0.0
9.374584413615914 3.563138564686839 0.0
9.48759661134647 3.562294297118573 0.0
9.431339678707085 3.464016717943268 0.0
9.417896212887529 1.746970678437863 0.0
8.731705369070733 9.110902182838881 0.0
5.652297951447118 6.21188565774667 0.0
5.569122518069258 6.024400786163834 0.0
8.257007204149394 3.505875091031567 0.0
8.717428603143034 2.925525757227976 0.0
6.882852832747376 8.57686572931064 0.0
6.337330066435714 8.416819098143066 0.0
9.50188906539997 4.521022403818629 0.0
9.453500859905136 4.617181635748691 0.0
9.46806769570129 6.749352117850711 0.0
8.836822104875719 1.72282859852854 0.0
7.481071063421426 5.64593758994851 0.0
5.668814988976305 5.86611128457842 0.0
5.487644760735084 5.847591822776978 0.0
8.993992818065195 7.228173913870249 0.0
7.98322414937693 7.229980191466666 0.0
9.22810751684646 7.54864871395298 0.0
9.304103360459063 7.654622011545798 0.0
9.432787371848761 7.633691049023619 0.0
9.382619818023882 7.759136995934441 0.0
7.239096822516492 4.679179578301165 0.0
9.47692479956498 1.861231395362419 0.0
8.041243110813022 5.095895152648969 0.0
6.190208781188077 7.509864122823853 0.0
9.283062812782122 4.549418667685757 0.0
9.503847665760087 2.450295046295932 0.0
9.443345385250678 2.557904120404248 0.0
9.52009568463353 6.644015937008899 0.0
9.203119005973903 3.662458522935253 0.0
8.406198651282708 5.92630414760378 0.0
8.467263597743843 5.811987729136874 0.0
9.461423029059445 9.128120577356565 0.0
9.408445330070542 9.26024300250086 0.0
9.266505293379728 9.277952925446408 0.0
4.14874709022218 3.631681332690154 0.0
9.437448107949258 0.8198473430736303 0.0
9.376993771693973 0.6910550697058979 0.0
9.22882356848217 0.6931820370818127 0.0
4.451823867195988 6.103664366188579 0.0
4.200031743909027 6.232039028149317 0.0
4.687154754667774 5.975132870483986 0.0
6.268889397098538 6.592235545990395 0.0
7.509366161722768 8.340075462391164 0.0
7.564775703413765 8.59800936579159 0.0
9.542148732924264 3.854614593058991 0.0
7.036231103929761 6.550562550831048 0.0
4.089373665437328 2.268193930262139 0.0
3.642558884866483 2.250386188148396 0.0
3.442182385618804 2.651948803899947 0.0
3.146832503011753 2.222630466765926 0.0
2.948870467975985 2.805088883766417 0.0
9.352005315330274 5.067356449300542 0.0
9.31729677031493 3.462944187594675 0.0
9.37428383619102 3.365546369736205 0.0
9.4883538239391 3.365384871181599 0.0
9.432147665178338 3.267287636377487 0.0
9.25034519267688 7.775848812012313 0.0
9.332091350002502 7.881724023243533 0.0
9.462101000264603 7.86490055671988 0.0
9.413353271651825 7.98561007219363 0.0
8.273592814723814 6.158623919352561 0.0
8.207135014732339 6.280394934566054 0.0
9.541483811580331 5.548224291759592 0.0
9.491365919893726 5.644847811894615 0.0
8.088095771120983 4.577581369371366 0.0
8.14760102783746 4.468303741922308 0.0
9.556217963323956 4.414867468889523 0.0
9.543667331547693 3.266908751519594 0.0
9.489307652535885 3.169908976697059 0.0
9.26285575842982 8.635341362685686 0.0
9.403220742003983 8.621447866627538 0.0
9.326013417886902 8.506778946171965 0.0
9.455477927154853 8.503896705359047 0.0
9.566646674069602 4.611465258087684 0.0
9.499341049870914 0.9352184973273918 0.0
8.683891958597638 1.444705608998412 0.0
8.599973456173778 1.287265568270043 0.0
7.760988189317371 1.175381292562583 0.0
7.50927661322749 1.171223823957793 0.0
7.380927152434357 1.411062577009695 0.0
7.242417847270241 1.170759311509981 0.0
7.107236746116019 1.421234419770886 0.0
6.960799033544566 1.169618322344823 0.0
6.817786081200392 1.434174581170586 0.0
9.48095050141868 8.738557748483624 0.0
9.319762046171894 3.263060331456388 0.0
8.920653400180534 7.117307656029475 0.0
9.452431221190624 6.544166520883111 0.0
9.571407933653493 6.540336592280795 0.0
9.507586285214174 6.443281357841339 0.0
9.575252974749443 5.070210512157044 0.0
5.755172844377253 6.370710487467459 0.0
9.541351959064952 7.969072511059531 0.0
9.354607289792183 9.3921968735401 0.0
9.495213435762107 9.37218405175897 0.0
3.77688136092967 3.643094492921176 0.0
5.460967180339239 6.159077196937325 0.0
8.656589552918996 5.283032675040985 0.0
8.599307076390474 5.387421722684671 0.0
9.584017606465821 5.263931993965828 0.0
9.51536593891754 4.977534386249715 0.0
7.788544970111893 2.70578432810479 0.0
7.381746833264364 8.755477463411431 0.0
7.615969996822885 8.852710176548548 0.0
7.783643411970649 8.691528137204457 0.0
7.845017394185501 8.938777577473743 0.0
8.570520580943368 7.342304222498308 0.0
9.103648004226827 5.781084627507008 0.0
8.338082930126799 5.815990105349368 0.0
8.930848895071895 4.561111316304916 0.0
7.381089602119859 5.983657236035151 0.0
8.42066837692862 6.393608568217351 0.0
8.888256157021065 6.459558428285236 0.0
8.826495664731354 6.575679897210801 0.0
4.22522220414496 5.921354747981145 0.0
3.943296448343383 6.075578573904587 0.0
9.563175937841836 2.554860696349795 0.0
9.505342423182917 2.656889632284623 0.0
6.660863480070611 1.168750929063519 0.0
6.518316961679488 1.436478598119306 0.0
6.683474168246802 1.694104067636375 0.0
6.376799057174731 1.707382100972048 0.0
6.205091481342603 1.443621641108414 0.0
6.058670988071357 1.728841803855816 0.0
5.877457486049096 1.454297236926778 0.0
5.724979192982589 1.756666409586195 0.0
5.529885788012015 1.462283739157555 0.0
9.514953777019835 0.7018468683209754 0.0
8.398665270372675 5.702731562702358 0.0
9.456442249775696 0.5772068858285652 0.0
9.565795671866349 2.345573662774494 0.0
8.830758563027459 9.247271599108435 0.0
8.523580738257648 4.88015211128435 0.0
5.580123316488715 5.701889892660689 0.0
5.398591029446707 5.685938459654249 0.0
5.367686360823392 1.778740548277203 0.0
9.546603444041448 1.754984055696778 0.0
9.489649223089446 1.641312329051244 0.0
9.617973952467912 3.363804764345866 0.0
9.584322830999731 6.729956156156573 0.0
9.597221861144487 3.948534024289882 0.0
9.49401963819799 8.089507968561776 0.0
9.207321074262563 9.416906871900888 0.0
8.27185428346661 4.464932191097996 0.0
8.207416067213774 4.35878753684812 0.0
8.332747746635944 4.354903699457511 0.0
3.990181919126853 3.930792395858886 0.0
8.267392138262498 4.254008221702929 0.0
7.997788712685495 1.196805377512679 0.0
9.600316638269724 5.639973985281733 0.0
9.550939606739425 5.737313319038155 0.0
9.44084303195315 5.74233753256161 0.0
9.50112296154558 5.834555019909565 0.0
8.897429225733994 6.685415510921676 0.0
8.762930941408914 6.695907295903629 0.0
8.654628175336732 9.278157371342388 0.0
8.544676900803436 9.133790942553834 0.0
5.294904777716057 5.855935872688884 0.0
5.216749389964556 5.66865685845661 0.0
9.508453581298625 2.239460033375932 0.0
9.599691370793206 3.169496930704394 0.0
9.546615051106684 3.073514534194011 0.0
7.484714626923596 5.028675123117963 0.0
9.588496050271255 7.850836295555126 0.0
5.153197381012662 1.471340286561097 0.0
9.433168304679345 3.071871997104804 0.0
9.610464706874994 5.829217654498672 0.0
9.561407772947403 5.926179534044419 0.0
8.273381980676042 5.705233340662362 0.0
8.330794188929296 5.594351887246082 0.0
8.207319603076424 5.596747949305344 0.0
7.251338559467102 5.233758892662348 0.0
8.708518799790543 1.130513882092466 0.0
9.590155250193266 0.5878623138195824 0.0
9.389919385420015 5.841079912164009 0.0
7.991397852194216 5.859910582924319 0.0
9.624951589233206 4.975554514425905 0.0
7.240016788025947 2.531866266726309 0.0
7.635666783493215 3.873554782053258 0.0
9.608476620993713 1.863530872936442 0.0
9.365330459496413 8.10677840682376 0.0
8.775076110585598 2.572737931759856 0.0
8.699389445914996 2.444602334375113 0.0
8.625078713232146 2.580891022578613 0.0
8.54447196848446 2.447624719286678 0.0
8.468898498943965 2.586757328881282 0.0
8.62282309213608 2.307826916202421 0.0
9.622102662978762 6.439307895185218 0.0
9.561995355724862 6.35103962032292 0.0
3.898245450818314 1.856155797593496 0.0
9.681759177700954 5.07069253017652 0.0
9.059254996454502 4.963357716933865 0.0
9.113144532326562 4.861710138088372 0.0
9.62140874877204 2.656009146517733 0.0
7.884510615470827 0.9666888912541309 0.0
8.14902661050739 1.005010215149227 0.0
8.491263206618079 8.527197931363634 0.0
8.408859203395778 8.697060715788105 0.0
6.54422152733529 1.954566069381189 0.0
9.563546573097593 2.755667904356369 0.0
9.453065492925557 2.761122255953964 0.0
9.676889098520615 2.755084315170127 0.0
9.678287124781653 2.556838324720633 0.0
2.60254317790297 2.278874965850319 0.0
9.211706272534968 4.050470567310489 0.0
8.526711683538949 5.698821878547752 0.0
8.296604023060945 8.533761944401608 0.0
9.649704314258118 5.543946557831669 0.0
9.651176136337964 3.85122804518279 0.0
9.44590154800397 9.498503704959054 0.0
9.580491248736612 9.476376347552954 0.0
4.3239388803087 3.921156392977062 0.0
9.65737873521736 3.075324100817917 0.0
8.128000846282253 6.160273991836929 0.0
8.06242981852327 6.292371360998262 0.0
8.500465019503922 1.442700595221201 0.0
9.615253212967009 1.649819368149096 0.0
9.561768620580791 1.538553925606111 0.0
9.435477757657937 1.527391516499924 0.0
9.627993450010088 2.242685831452484 0.0
9.5338252733548 0.4673994795805215 0.0
9.398055066504014 0.4589059948533885 0.0
9.669486082509058 5.920177035588319 0.0
9.621072177439727 6.016493814615133 0.0
9.506185962103057 6.018397021409126 0.0
9.196884440497488 7.898824858961557 0.0
9.112591143666748 7.789491461180181 0.0
9.664357762385308 7.950712034233033 0.0
8.46233617997115 2.308903464128035 0.0
8.547917980328803 2.169381684694277 0.0
8.139931430059324 6.410762600521521 0.0
7.672499127532963 9.099143622036436 0.0
7.91372855627271 9.178704612763656 0.0
8.463425076318451 9.290653726808348 0.0
9.643938029094286 9.335632419679458 0.0
9.647017668702574 0.7068996148634754 0.0
6.241662276606473 5.884018212993202 0.0
6.157742245066693 5.73500474100449 0.0
6.318815619949124 5.730068085823802 0.0
6.247706374231452 5.593094310939028 0.0
6.406948541886973 5.593272398468375 0.0
6.092564106310554 5.587409338401505 0.0
8.535507922245372 5.286142900439676 0.0
8.022959839404006 4.471630490587016 0.0
7.963561162854596 4.581393556789843 0.0
9.683487139413305 1.546750704925431 0.0
9.630761777960082 1.435922217091829 0.0
5.121714348989337 7.950140247572198 0.0
5.136464096196084 8.310254432483559 0.0
5.47349124035624 8.455234262268478 0.0
5.176273618280354 8.687190323573228 0.0
4.796664658962938 8.592678692862421 0.0
9.568705729418735 4.887269869750176 0.0
9.462711651199594 4.88832222094458 0.0
9.674903475028225 4.882285174433025 0.0
5.4996067353406 5.546583260717527 0.0
5.663632234555963 5.557613452957074 0.0
6.829408195405585 1.947174574944512 0.0
5.336529198289861 1.127585641139875 0.0
9.672387559812332 6.34138351957329 0.0
4.463988917379896 2.271060678869338 0.0
8.618048281355405 6.263841736419089 0.0
6.480949808711781 5.74815588680617 0.0
6.562207427719153 5.592185077216444 0.0
6.643040463857446 5.721233693378952 0.0
6.712825900331884 5.588664360236 0.0
6.79240375630333 5.711383948285569 0.0
6.86115931532141 5.584697050428064 0.0
6.939210100691576 5.704407337029545 0.0
7.007668476576536 5.580801046893123 0.0
7.084627386867475 5.702817970154801 0.0
6.633257976075473 5.460881327825488 0.0
6.931430743764456 5.461960451448691 0.0
9.682652370938209 6.533133024505995 0.0
8.761108695241376 9.450742747770144 0.0
9.146031326900015 3.764292700000154 0.0
9.089378801805193 3.661317181076136 0.0
9.514354521818781 8.994988681611192 0.0
8.157650730500988 4.262987189670279 0.0
6.329633198899328 5.4647789391701 0.0
2.340685767996258 2.811285337457589 0.0
7.379572471323651 0.9290892725587991 0.0
4.171878172186605 4.222320767259098 0.0
4.4876601621649 4.16473354200826 0.0
5.336389369563535 6.806464508860387 0.0
9.595468321212476 9.108133206829102 0.0
9.645038675267227 8.982113951305912 0.0
8.393140678816192 4.246338342095281 0.0
8.309440721624494 4.155300532283633 0.0
9.418269339704423 1.9925512363779 0.0
9.662781807969623 0.477809346089035 0.0
8.011297869803792 0.7518828483803571 0.0
8.250149975885678 0.7646904662196189 0.0
9.608674873602773 0.3618049194050078 0.0
8.692696069692623 6.582927327365709 0.0
8.628225948401226 6.705702462696891 0.0
8.701883181418305 6.822086652299242 0.0
8.559276855155542 6.829564723911442 0.0
7.069268463354993 5.459534423493629 0.0
2.654575201159115 3.323490466195074 0.0
3.610801136544596 4.044075244426243 0.0
8.263757217166944 5.48730323490738 0.0
8.138838162809126 5.491254533497952 0.0
7.90196833683664 4.477386962763833 0.0
7.987943097943191 3.978756490171551 0.0
9.704623491880403 3.945605151832784 0.0
9.461009573830147 7.301728818091931 0.0
9.532468631193666 7.399916015174975 0.0
9.582688928417856 7.292330983701011 0.0
9.652579613269625 7.387768793572397 0.0
9.699264016151023 7.282867433965265 0.0
9.633305589700536 7.188543855060478 0.0
9.505576100168666 6.961225778216469 0.0
9.43876966151099 6.342441564206569 0.0
4.908483672172518 6.098703904450545 0.0
9.135448256237908 5.269827196966999 0.0
5.905650502271389 2.025036080946255 0.0
9.709890722072377 9.452748507541063 0.0
9.663337613522643 9.572126259365891 0.0
9.603900123387826 7.495180532331903 0.0
9.720147629525837 7.483400774981126 0.0
9.674588415444239 7.588303295299578 0.0
9.653186673863587 4.039274180923234 0.0
9.053164539680804 4.764545162185531 0.0
9.164908495749003 4.763017269285045 0.0
9.226019227262443 4.858029410614327 0.0
8.809947621994619 3.4964384919072 0.0
9.10538997155458 4.665865142902959 0.0
9.331074106432244 5.748993480915537 0.0
9.055854333858068 7.918554535314415 0.0
9.446431573964945 8.209836764658437 0.0
9.573844810886287 8.191100251691205 0.0
9.309704769895653 8.244395007943949 0.0
7.240329561730736 1.676197957122907 0.0
9.543389817573933 3.660019800390455 0.0
9.598599341122098 3.563130123982772 0.0
9.652615161407017 3.658119804270645 0.0
9.706336063693934 3.564815526226687 0.0
8.632284427755456 6.946688912416058 0.0
9.682863230715835 2.349655023034811 0.0
9.571538455120994 2.142369886250143 0.0
8.090821900439733 9.017409120951333 0.0
6.812258669899192 0.9007667548831626 0.0
6.50135254578461 0.8974046495177885 0.0
9.598335906230732 6.246437748035812 0.0
9.719677442549804 6.253968775436637 0.0
8.593026822691716 5.180101360605356 0.0
5.537586126848265 8.836083861509138 0.0
9.688689404995035 2.143487155934306 0.0
2.821389253975936 6.507820864074362 0.0
9.176571289960709 8.507736431357309 0.0
2.918303740542162 8.256728920338826 0.0
3.428955230180972 8.401446814887457 0.0
8.490587404589881 6.715350139132777 0.0
8.86049054904785 7.243279881821806 0.0
8.93696309213556 7.356650230611625 0.0
3.951931175165697 5.78308550088855 0.0
3.65055612573298 5.91672400098539 0.0
3.668142216548471 6.247526235973777 0.0
9.717269848920886 5.821831227352286 0.0
9.708364917734201 3.164198601626433 0.0
8.45581975650687 4.569560863828342 0.0
8.204448312099833 6.040774355519757 0.0
8.65969449127868 5.485991799508151 0.0
9.707534571012967 5.634423933296901 0.0
9.62102991883279 2.849662850313935 0.0
9.144093558002634 3.560383427867003 0.0
8.29763273805118 1.77155302934031 0.0
5.280452715709455 9.01633391004168 0.0
8.984558945859158 6.99932633710603 0.0
8.4157550875812 1.275784953143711 0.0
2.068078118650995 3.355462780535101 0.0
9.205703884756806 5.568274778556933 0.0
9.745857863753141 7.178456670302003 0.0
9.681628895748586 7.081494416756802 0.0
8.875818787971069 6.240744812097083 0.0
7.993733797566922 6.414830952863579 0.0
8.462810157069566 3.377071044664789 0.0
9.29428363519789 4.759591981903337 0.0
7.933956818298286 5.97437536746848 0.0
9.028281726378319 3.558713145763133 0.0
9.083461773461467 3.455531762175701 0.0
9.73231939683535 2.849247643393067 0.0
6.70072305037728 2.192432536215492 0.0
6.423245125077639 2.212870246546939 0.0
4.931537051605536 1.135086496804522 0.0
4.746426561586179 1.500381091957315 0.0
9.707706579932626 7.836419656220658 0.0
8.590593344701457 1.595639668013959 0.0
8.708946574109854 2.1688179918246 0.0
8.634728854549891 2.028564483452208 0.0
9.230357659411311 8.129337203173913 0.0
9.102841374461482 4.452881308250647 0.0
8.472081531214734 5.388993924853032 0.0
4.925996806199801 5.844046944846857 0.0
4.702806345752284 5.745688656289065 0.0
4.884357002239844 5.633237011762874 0.0
4.709628434300812 5.536404116679045 0.0
4.530800966746534 5.627044171217377 0.0
6.040296145349247 6.603808099703576 0.0
6.162203578696918 6.795213950202512 0.0
5.923135943221574 6.824060069869489 0.0
6.046693245732212 7.010423490915212 0.0
6.297337598588478 6.979895528204233 0.0
7.760448385794147 0.7294020304851334 0.0
8.492228348169641 6.958778476405878 0.0
2.89219822877093 1.704113597264478 0.0
2.26178643438086 1.7814602252425 0.0
9.726968895980871 6.009547057102511 0.0
6.63195110828313 0.6072886418835157 0.0
7.984023036954866 7.515675826210831 0.0
7.893857204140559 7.681876703427663 0.0
7.778465117872411 7.537836322197895 0.0
7.998204230811618 7.844922503023499 0.0
7.798554315988981 7.858161805718108 0.0
7.917846202023782 8.03040048103727 0.0
8.547520504556728 2.721261126162116 0.0
8.39253850806587 2.732073315877738 0.0
8.306047241032278 2.59069854402512 0.0
8.233011054235162 2.739783364361515 0.0
8.318836035587811 2.879838477099622 0.0
8.159530874574331 2.888511553151382 0.0
8.245490421394788 3.024568439743106 0.0
9.759103003747676 3.077839427881478 0.0
8.083610090773394 3.033523757291178 0.0
8.174562583800352 3.166768504406541 0.0
6.046769434852523 1.155662270344939 0.0
6.968371001421964 2.176347877216873 0.0
8.324858098380334 3.152966249334499 0.0
8.145556596142626 2.609897633546475 0.0
8.970652052821418 7.804556541250797 0.0
9.033737629244714 7.681328986528639 0.0
9.62347010002576 4.796939565664328 0.0
9.72520380348743 4.790261082613535 0.0
4.882631186210167 5.455006233451049 0.0
4.618356368594037 3.933076284395493 0.0
4.748083507220199 4.151025177732873 0.0
4.641724290430313 4.358202249373887 0.0
4.87055838101999 4.337900676660481 0.0
4.974114446887331 4.149149057174687 0.0
5.081577844806959 4.3240148266423 0.0
5.179521650033781 4.148725180298481 0.0
5.276261408871418 4.316673822529601 0.0
5.369189110897883 4.148362797753505 0.0
5.463892033849439 4.338819369807593 0.0
5.550828466075906 4.146274465971151 0.0
5.646554822352869 4.303571429647391 0.0
5.728109623160046 4.138582010823754 0.0
5.821689108984419 4.291959598724587 0.0
5.906082534948073 4.141649907302701 0.0
5.99655838673762 4.288752711512514 0.0
6.077312859438928 4.141011188943332 0.0
6.164215275138099 4.281164574562373 0.0
6.241782344986693 4.140701084167517 0.0
6.324316420613108 4.277393447415522 0.0
6.40284165425941 4.140026953305852 0.0
6.483655157361099 4.273418937894759 0.0
6.561170698911611 4.136221843106807 0.0
6.63512300179586 4.269917278694155 0.0
6.720306110251473 4.133393659385058 0.0
6.63777078218551 3.99617001426095 0.0
6.802492763973074 3.994355399489989 0.0
6.798834760478153 4.276914787769972 0.0
6.15377608509923 4.000134206628027 0.0
6.548727135071258 4.400510710520637 0.0
6.251479300130713 4.421887359316258 0.0
5.275876048175579 3.979624500657822 0.0
5.910905077162284 4.431174408784691 0.0
6.717070288412452 3.851239795555301 0.0
6.883499045994213 3.852555480300214 0.0
6.96664848901999 3.994033961856844 0.0
7.048208567116626 3.854750001965969 0.0
5.810004974283072 3.982497501655442 0.0
5.586615391658107 4.471070246359201 0.0
6.547331954052155 3.853872077215347 0.0
5.179081233207816 4.485638492900557 0.0
7.126615227065496 3.995337770596979 0.0
7.209459742762513 3.856893463870469 0.0
7.130226097876905 3.713620439679428 0.0
6.63075064074106 3.699684148676045 0.0
6.446985573861992 3.697358756862005 0.0
7.043151422977365 4.131713936060725 0.0
7.198322215260019 4.129850614748363 0.0
7.119378405252723 4.26005098890218 0.0
4.797146270976422 4.525762781577414 0.0
4.608329098388589 4.573584257851931 0.0
7.294442092743627 3.720853338661503 0.0
7.215753312764997 3.571378507508807 0.0
7.049631633956289 3.568047985538775 0.0
7.133765707749521 3.414282375958479 0.0
9.755079417839903 5.539705890434435 0.0
9.698955703441971 5.450920012703194 0.0
9.717604099406742 9.09084770432896 0.0
9.276716006673976 5.847248422342224 0.0
9.339081208926798 5.941174203394446 0.0
9.031261921742963 3.750271483819014 0.0
9.08721978689863 3.853416037308712 0.0
4.801461566647803 7.510704110489921 0.0
8.206553504932042 5.818005960412773 0.0
7.362361315389098 3.863102442315545 0.0
9.492826845316191 2.963845037486267 0.0
9.376710375304633 2.97229517374228 0.0
9.3192743723601 3.070687802230453 0.0
7.915389082113898 6.293241865913004 0.0
6.735006382384437 5.832450056405368 0.0
8.456481836836168 4.35369289249905 0.0
8.517718268476031 4.246675068616396 0.0
5.583512022030555 5.411069060406398 0.0
5.73625200174779 5.422617752052123 0.0
5.81006929286229 5.548584937688919 0.0
5.903438861894402 5.420604003204523 0.0
5.43801870974416 5.402925156167655 0.0
7.022641548594327 5.825217331839047 0.0
7.165095795605366 5.826005223633447 0.0
7.223078558430726 5.690146755650336 0.0
7.841396000338385 4.586693006493787 0.0
7.904793170875705 4.690826189066096 0.0
7.785999820520073 4.696719777099973 0.0
7.846448506395101 4.798518978096564 0.0
7.728149182067156 4.803800941124008 0.0
7.788983823826226 4.904802634695232 0.0
7.672018889153144 4.910077510508749 0.0
7.731996012352178 5.014717724244488 0.0
7.852072803124419 5.00743796185411 0.0
7.779278698005006 5.118909346425974 0.0
8.088113864063853 5.605434545811022 0.0
8.016457362785575 5.494849890158723 0.0
8.072290383394757 5.385594956317259 0.0
7.95068657972964 5.38825563681957 0.0
8.309366678475389 1.438342408757099 0.0
9.748160780780179 1.447794693754379 0.0
9.696454228162398 1.337889922375316 0.0
9.568813761940916 1.329560834053294 0.0
9.638326779791626 1.226729570935787 0.0
8.472132467407484 5.182856496818138 0.0
8.066211547412054 6.53691730655352 0.0
8.217035586462373 6.522976700918602 0.0
3.544839338670893 3.324491119989469 0.0
6.999740002965287 5.347729916247808 0.0
6.874544698914502 5.347027470386579 0.0
4.880451234715014 5.193043717957879 0.0
9.104510033763066 9.313204713465637 0.0
9.0466357104558 9.45359399494339 0.0
9.146803165140184 9.569652364413551 0.0
8.134107047896672 0.5527712356100052 0.0
8.369770412730738 0.5571215815175228 0.0
8.47386979744655 0.7564607169846485 0.0
8.585193608569258 0.5749174254532757 0.0
8.683868132726584 0.75505070091701 0.0
8.787381435061018 0.5813987798627239 0.0
8.697570280442534 0.3771156480326233 0.0
8.530048434259976 5.077280516000916 0.0
7.995091351438729 2.90367515012593 0.0
9.731083608815164 1.662638626153251 0.0
7.260488865351954 4.255073962371814 0.0
9.760728358076392 8.990038509880067 0.0
9.716710396257366 8.884160310398862 0.0
8.794627466210242 7.369659405098349 0.0
8.868068657550866 7.515048014893154 0.0
8.702594597629135 7.510501129643432 0.0
5.132320689147051 0.7610757801158905 0.0
9.755852887652699 3.853180024615871 0.0
9.787424819067885 2.757921105725315 0.0
9.731193479931608 0.3736343090103709 0.0
9.796526908308536 0.489684029254899 0.0
8.226019692057042 2.453349105940535 0.0
4.560989821496479 5.428206018250252 0.0
4.348810639659689 5.517048281386008 0.0
8.785190163106925 7.119142251269924 0.0
9.015515413043023 7.464769766852701 0.0
9.754861440190705 3.659036930324926 0.0
9.7543610723378 4.033687839160082 0.0
9.707881226943384 4.127219992296752 0.0
9.52841017383273 8.309020665649431 0.0
9.65186044414544 8.289498614805698 0.0
9.714051275521857 8.173576484362068 0.0
8.209758892476394 8.715513071423135 0.0
8.097084883671858 8.548851201381087 0.0
8.177989947800599 8.367872862579052 0.0
7.974142434808908 8.36779470623567 0.0
8.409012054919861 2.142624252464372 0.0
7.707002321497132 8.039129945341395 0.0
7.574653123518228 7.83895791570255 0.0
9.229858094382692 5.951357214361815 0.0
9.75307989876696 1.229893222503321 0.0
9.715811155868643 1.128779429890018 0.0
9.597960915003707 1.117058287635912 0.0
9.672063923518955 1.020806103150243 0.0
8.99090422125785 9.593878510105375 0.0
8.133165456134304 9.257620998029804 0.0
7.976779931497633 9.420725324095141 0.0
9.77231778617502 7.927819487779705 0.0
7.957213679655531 4.364530256281665 0.0
9.609903116082736 8.403725680286847 0.0
9.724891358972584 8.388392708395173 0.0
9.687487059868507 8.495935345161797 0.0
9.810055520269009 8.494090598382963 0.0
9.755967487162335 8.599790818513082 0.0
9.645698986824481 8.606121319182705 0.0
9.721376049217765 8.699989876681524 0.0
9.773009257015609 4.884557953188837 0.0
9.830105798750992 4.796546393900876 0.0
9.775335108731761 4.686093304257503 0.0
7.455611517737074 3.730099283949135 0.0
8.906943567829634 0.4197477661467797 0.0
8.980613334153533 0.5814185917581446 0.0
9.081059111759728 0.4263421860552371 0.0
9.821654809259165 3.576985724143072 0.0
9.761309244784803 3.4792267780002 0.0
9.763329553045937 9.353068233045157 0.0
4.463051839136694 1.164440352584939 0.0
8.0213168204867 5.283436382300235 0.0
7.89385412333227 5.290429544753158 0.0
5.806940001023414 8.583716119232427 0.0
5.88977793877374 8.96065112858812 0.0
9.177759062826041 8.25539130897928 0.0
9.626582559276994 2.05283181283147 0.0
9.747673294325121 2.064954301745188 0.0
8.775905508647185 6.951821187702613 0.0
2.3581644273991 6.029034686663493 0.0
9.777798009058461 9.548066962498762 0.0
9.737129197219856 9.662299853506903 0.0
9.615080366030512 9.683349544763068 0.0
3.315839678697904 6.042943273456425 0.0
8.915083018115329 7.937748428923896 0.0
9.489832173860055 4.712364754630572 0.0
8.118313727862493 8.013944064029838 0.0
8.902248750797776 7.67372145952523 0.0
8.954075939212636 3.463080912810881 0.0
9.45247551997678 2.133243108303608 0.0
8.311151553157742 8.899233004613622 0.0
3.28672004268868 6.826745674539142 0.0
9.86008383798735 3.468233656255824 0.0
8.389990589860254 1.947086063498656 0.0
7.144231739553659 5.329544660076687 0.0
9.654500729007207 7.743301971143119 0.0
9.761920842881946 7.740144345898896 0.0
9.692820773976567 0.2651585113981998 0.0
9.690951720399688 6.100517071814821 0.0
9.775704281989471 6.077882312279847 0.0
9.823117117198079 4.115168542267924 0.0
9.764391943581737 4.214465954230587 0.0
9.659455011849253 4.218716850797838 0.0
9.713462125022623 4.30742830316693 0.0
9.849638067150842 4.208845651573708 0.0
6.376241713254513 3.858766051594979 0.0
6.274931849158213 3.701528298009006 0.0
7.097780104117746 1.926449727602711 0.0
2.457742027508782 3.810157622192786 0.0
2.963634206580268 3.740748099915693 0.0
5.065585416063965 5.544355730437482 0.0
9.783560252464587 7.566507987677117 0.0
9.825819294611026 7.470942204664841 0.0
9.799976114123012 1.01659516618323 0.0
9.745559590633832 0.9150866860898854 0.0
8.20473400632469 9.495828670767946 0.0
8.784586030320169 2.054461500762216 0.0
8.758471587067168 1.888286802854785 0.0
0.9188935087347281 8.510730800272478 0.0
9.674192026048217 9.20389587377276 0.0
9.796314981283475 9.185916994648775 0.0
7.206882433199502 5.452024361489832 0.0
9.773927048949279 6.334665846819535 0.0
9.830288393591173 6.225300227041885 0.0
8.25177349297509 3.282767705830209 0.0
8.099233469407428 3.304040153764131 0.0
9.607860512870598 4.315652630490023 0.0
9.403674738018715 8.367349042046314 0.0
7.611756786273919 5.018691202305147 0.0
7.549513964643336 4.923310232561835 0.0
9.80986724662116 0.2915868356190958 0.0
0.7757562810577034 3.504187313079081 0.0
7.659562100664981 4.698467529240196 0.0
6.539424975891206 3.541729955691742 0.0
6.717348880400739 3.55221857686142 0.0
6.836337579501807 2.417476958454302 0.0
7.096480496160066 5.959124656438389 0.0
7.189742782777612 4.377051328076039 0.0
7.051723187622053 4.38470822973091 0.0
7.125489805519186 4.497018383456762 0.0
6.994915621927777 4.501504591168814 0.0
7.056755276274058 4.607929817497045 0.0
6.932937068803914 4.613249390039674 0.0
6.86629288290367 4.50541343988659 0.0
6.80427099775847 4.617607827251794 0.0
6.739195362053689 4.511124964201849 0.0
6.677260697693361 4.624288827143181 0.0
6.996760608675822 4.711715831373894 0.0
6.316045249462968 0.6456945497683586 0.0
7.321834163850416 5.816449323512759 0.0
7.833101485370825 4.390058096386987 0.0
4.996572652976738 4.498711166259074 0.0
5.112334577457371 4.663858846723513 0.0
5.271923064784868 4.629759173373871 0.0
4.93773508827367 4.668006487116195 0.0
5.348137647919096 4.485934621930562 0.0
5.413454827497575 4.62999925573761 0.0
5.356581113747675 4.770594395332836 0.0
5.013422223730484 4.793321773780133 0.0
8.58674425943957 0.9312335381466886 0.0
8.776450596582496 0.9362399987293505 0.0
4.783496233934828 9.486061758876032 0.0
4.544176394620909 9.034071856445296 0.0
4.082330493623582 9.015765881393772 0.0
9.820867469965414 7.285959215547852 0.0
9.852697883440127 7.166089674802766 0.0
9.260999083164238 2.971390964911171 0.0
9.197701900169713 3.073162109379564 0.0
9.31960210441945 2.867465579641856 0.0
6.660951583415121 3.383363199709994 0.0
5.210469976037585 4.761678854423166 0.0
6.740780285297665 4.733615686805694 0.0
6.611362405615225 4.731958642073806 0.0
6.549091884465382 4.629620704100811 0.0
6.491761716522486 4.733409494449344 0.0
6.425259228542098 4.640546096196947 0.0
9.715556659367534 2.986725573570596 0.0
3.710524324925069 9.463213827486557 0.0
4.768537031214573 4.727001037865238 0.0
5.039413681704655 5.378508462165627 0.0
5.188746429211535 5.440476671296013 0.0
5.172214816037712 5.298914527247826 0.0
4.469063601436893 3.667917323494335 0.0
3.799121596584382 4.741629285988305 0.0
3.661085664896249 4.442847704416992 0.0
3.316563386321876 4.380147387454913 0.0
3.802087298647255 5.26743535640985 0.0
9.738116341343215 8.047178982429934 0.0
9.85106076399546 8.021725551312715 0.0
9.837581050304836 2.844176011307251 0.0
9.664579962075123 4.402853107737106 0.0
9.76433159763034 4.39807801415352 0.0
9.718924973226878 4.487825491046641 0.0
9.826405563645343 4.494594135148365 0.0
4.931068003413168 6.359330991212394 0.0
5.130175746947236 6.201075257041828 0.0
5.143884286052002 6.445382329515047 0.0
4.953395875296406 6.628748468717369 0.0
7.833019185167153 5.400347121613631 0.0
7.766636138801143 5.313240048256084 0.0
9.767038723422333 4.578090619166644 0.0
7.315369355237483 3.441501197259575 0.0
9.556068971301514 0.2347811136726856 0.0
5.733871280791703 4.444861510772459 0.0
5.828809543126846 4.569791247698539 0.0
5.986701526182213 4.562881783985375 0.0
5.912543327921148 4.692966271273211 0.0
6.052130330528581 4.682477327897978 0.0
5.773525984744635 4.697697018456535 0.0
6.121646311546238 4.572302645403103 0.0
6.182349700936326 4.67713231096357 0.0
5.846371383601797 4.808939734754761 0.0
5.117807918383606 5.974361363083184 0.0
6.256132501905665 4.575863546153224 0.0
6.324770064521816 9.645040261272253 0.0
7.345522892050965 4.12581088034536 0.0
9.338523512844539 4.854480276600515 0.0
9.286984287289403 4.959628690044808 0.0
5.676298026114105 4.589279806918992 0.0
5.631257891894775 4.722749088404111 0.0
7.970415275563177 5.621040275419208 0.0
9.565118337557308 7.081391220827488 0.0
9.626201005045262 6.980441083020495 0.0
9.733729506193331 6.979928568877979 0.0
9.684556253529976 6.887102896543928 0.0
9.780785815410074 6.890287441101827 0.0
9.740054813822885 6.794211367612523 0.0
6.462628988057306 7.629921412015864 0.0
6.692564520952154 7.473594130811262 0.0
6.927983108788191 7.570982428592125 0.0
6.899878641134941 7.329306734748538 0.0
7.117542472438434 7.416951094809493 0.0
7.089537168123128 7.186691566729968 0.0
7.296585396514727 7.275888419524222 0.0
6.879678873774065 7.097443005287856 0.0
7.063454637059129 6.967740076426161 0.0
7.329105042924355 7.496317641003757 0.0
6.867084781778411 6.878842928865059 0.0
7.494278796275744 7.351949197351029 0.0
7.462564159480594 7.150140034494138 0.0
7.644835001206406 7.21506678718646 0.0
6.682478929414216 7.008358327294905 0.0
6.449199855715812 7.365660640952548 0.0
7.548139855358765 7.57299228324251 0.0
7.008502809092701 7.844601794812628 0.0
7.371739019901781 7.707688433423657 0.0
5.665345294602155 5.290628720253272 0.0
3.987583013016546 4.486920698115711 0.0
8.893480480320447 0.7785000884179994 0.0
9.715485963651112 0.5955299613117169 0.0
9.761785841543585 0.7048670948649375 0.0
9.670304314877074 4.578896619304786 0.0
8.058509626083154 5.744161686650483 0.0
6.181795443628869 5.462040811515966 0.0
6.256771804808641 5.338464817889848 0.0
6.124070400983443 5.352376180901929 0.0
6.399679261813415 5.349186390888865 0.0
6.477776305607503 5.46505688468465 0.0
6.541624525938461 5.346017118512589 0.0
6.673064575428321 5.339051516933525 0.0
6.599301548842115 5.241958624987057 0.0
9.573774011620444 0.815274945835158 0.0
5.86493292693426 5.877588788523632 0.0
5.552663040119136 6.957487930464628 0.0
5.535080960199246 6.663033131707637 0.0
3.708603689392072 0.5979254716153909 0.0
3.31896983256719 1.188583855309964 0.0
3.895664898001925 1.128137111173669 0.0
6.363360407965353 6.032416442205533 0.0
9.445959758065749 1.070139246426051 0.0
9.50632172780449 1.214052376665338 0.0
9.441030033980638 1.325047485624912 0.0
9.295799464644857 1.341410624832976 0.0
9.184164107767781 1.461677744200096 0.0
6.407191016756832 4.407273313799791 0.0
5.544591888593027 0.7652641669375747 0.0
7.883090151006535 2.497506182548758 0.0
8.073420508370992 2.120510489750234 0.0
5.494822040671399 4.732314720081375 0.0
0.8986976806403217 1.464611451578306 0.0
9.536325549598013 6.83286654168725 0.0
5.972289519322897 5.727532110854501 0.0
9.82203607053145 9.443411729566549 0.0
7.263199949874008 7.064207941227515 0.0
7.233659553805083 6.853135694774254 0.0
9.793310082768443 7.072747972018893 0.0
6.734168931095253 9.67499220075154 0.0
6.941134861034159 9.382328333169653 0.0
7.285822522704258 9.443989747444657 0.0
6.576263515512108 9.333035011158342 0.0
7.160560566479093 9.127732577621245 0.0
6.218711947378506 9.298064908857533 0.0
6.432383355119106 8.980985203293491 0.0
6.795390278360442 9.046043538032663 0.0
8.54677014121837 0.1957422484480979 0.0
8.528696320820908 9.804850950580938 0.0
8.42644965647489 9.604735484095604 0.0
8.010239224104339 9.715048083583248 0.0
8.644359648763341 9.628432815860457 0.0
5.344212921686536 5.526744195650314 0.0
9.760936589662048 7.38409687515441 0.0
9.128187788393989 0.1445485608215519 0.0
9.133307661752394 9.854833215426817 0.0
4.867351616228264 3.944459575003425 0.0
5.905323253270366 7.385600364255367 0.0
5.909045412185362 3.361969954191194 0.0
5.80580919758911 3.569999290452344 0.0
5.578230704221431 3.587842862412673 0.0
6.013352753603037 3.550699073477782 0.0
5.936624955014758 3.721630401607248 0.0
5.735413275357409 3.78528948606432 0.0
5.512538847486775 3.794760621907932 0.0
5.360571639388366 3.618649018042938 0.0
5.134141179590394 3.459385929220745 0.0
6.167399567008798 3.367365990358096 0.0
9.766756262206602 8.291756450136036 0.0
5.486063578307141 9.64505925252771 0.0
9.497624614180321 4.328873442170357 0.0
9.811387324954623 1.570516917365688 0.0
9.389210081887331 4.69150887571586 0.0
9.704395728912932 3.754226393630331 0.0
9.808172776193384 3.748784464356272 0.0
6.549660911932182 4.839747932361234 0.0
6.757415124099031 6.077939876843736 0.0
3.805578542126494 8.040840085419626 0.0
4.232580149691158 8.198659880701744 0.0
4.559765382564095 7.87091698350757 0.0
8.3829075948167 0.9495097054886067 0.0
9.8571301061408 1.456307792614791 0.0
2.005900212453279 4.535525273813588 0.0
1.85904408608185 3.956445706785572 0.0
1.979307922430775 5.474327285927505 0.0
4.387923194305381 4.427191306527721 0.0
9.429258370703248 8.873693567695483 0.0
8.99196583083892 4.664567567015693 0.0
3.050357122593155 5.368999067452741 0.0
2.861107385476722 5.785089447130829 0.0
5.005058958272409 3.711196438448062 0.0
9.8972295764837 2.755337284632969 0.0
9.581048890980513 8.853909321617065 0.0
9.668838904423916 1.762418716497425 0.0
9.716576458425756 1.852218615166234 0.0
9.799043132681442 1.780583141193779 0.0
7.661868217848455 2.880323287492419 0.0
6.780136552904057 5.443858690999834 0.0
6.489544866845868 5.913957888434588 0.0
6.880149522020364 4.134257616716107 0.0
6.970134365280068 4.264072319341612 0.0
2.225481516813409 9.348422240784 0.0
1.843418032490818 8.641605249943353 0.0
2.198000805242772 0.6459947140825729 0.0
8.740020306282506 0.1903932731609072 0.0
6.86957996016679 4.720776242956433 0.0
7.430920333506809 0.2702852342693345 0.0
7.302066064947383 0.6134316505458445 0.0
9.305398039877746 4.64854361125207 0.0
4.078151380865065 5.203425462519088 0.0
4.080704120371218 4.778853303303787 0.0
8.052525541571825 5.965483159581719 0.0
6.367194027835946 4.754896037842673 0.0
8.604191121620719 7.648182513679963 0.0
9.546446695207845 9.234701521982952 0.0
9.018652854946867 3.351011585453845 0.0
9.143853648154607 3.350173119015413 0.0
9.067079866763024 3.245174561579149 0.0
8.991492136849105 3.135578770028028 0.0
9.29603967712795 0.1426516429033488 0.0
9.392428271030795 0.2506306237151588 0.0
9.223973843394301 0.2912279164401488 0.0
8.39375191941536 3.018777714002827 0.0
8.4836475746111 2.88135207267795 0.0
8.741089053946197 9.821127577434911 0.0
9.803966507713174 5.448064463539533 0.0
9.748132240148552 5.359371181503531 0.0
9.850258990973547 5.355211921626304 0.0
9.7965346514158 5.266762244994661 0.0
9.84142096963129 5.171050273734619 0.0
9.738843612428232 5.167483913244169 0.0
9.64168976006725 5.359875132194057 0.0
3.335917453809221 5.671837672982919 0.0
6.962669142802881 1.683222554707996 0.0
7.365210844496719 1.887492842536114 0.0
7.517378971174123 1.677983072937792 0.0
8.00383870208024 6.089394601875145 0.0
1.725435941000569 2.759295503019395 0.0
7.907977929549089 5.102827208603365 0.0
8.052861051278896 0.2683271125209605 0.0
9.80169732768395 3.385443381464333 0.0
9.831597648680848 3.28491948963525 0.0
9.736335895866404 3.316207814499244 0.0
9.597256128490281 3.756160701977744 0.0
8.865819925321706 3.366235906378775 0.0
8.489614436807788 1.757152185195495 0.0
8.88089641144391 1.078983279100314 0.0
7.430923851187758 9.724389499796425 0.0
7.584252919312249 9.509430586267927 0.0
9.744026095940516 2.247117754488748 0.0
9.729961521243718 2.659836747108116 0.0
9.790866569780063 2.558993767350471 0.0
9.736606445116795 2.455104424879619 0.0
9.846806182714698 2.452157456754448 0.0
4.518102112052724 5.141350889745285 0.0
4.519880229178207 4.85678334497067 0.0
9.7302407894617 6.434012603549242 0.0
9.787537474544765 6.523591663056312 0.0
9.744262337067932 6.617499601377625 0.0
9.8406238811518 6.41591236129004 0.0
8.914967252734657 3.579360039684312 0.0
9.154797282599406 5.670753066089419 0.0
4.228839454580575 4.612979739018002 0.0
6.095037541675208 4.42126627187728 0.0
9.304166983880842 9.864854494751789 0.0
9.406445527105628 9.759007358529582 0.0
9.256225114941945 9.700832989525724 0.0
9.796206564635622 2.351215649506205 0.0
9.849373673349081 2.25090453834006 0.0
6.332048155295931 3.511675163099286 0.0
9.069679774213784 3.022879178706259 0.0
9.070599961450037 9.055284879641471 0.0
1.808685691036764 6.331557276533421 0.0
7.120156826652838 4.698481230214924 0.0
7.052894345811342 4.799848851879358 0.0
4.739957520484086 5.369107149361242 0.0
9.389197839958292 7.197139943834638 0.0
9.046688232613976 4.560364044038737 0.0
9.162685461967492 4.562194096410666 0.0
4.227377821420887 1.564128177298305 0.0
9.201090975245227 2.794301402811909 0.0
9.251941624303948 2.677556975242327 0.0
9.186758273070138 2.563916005021366 0.0
9.317609833868786 2.560335260954038 0.0
6.57599191748324 2.437689779955877 0.0
6.305556560534859 2.459112595979303 0.0
6.981058048792093 2.642476994448363 0.0
9.886113463139504 6.510498309609482 0.0
9.250462794607717 6.221362629571698 0.0
9.305373999084068 6.108271307139882 0.0
9.390477915810829 6.228015172491477 0.0
9.44452571968143 6.114582165110393 0.0
9.502105740270528 6.197677857389309 0.0
9.31559697209813 6.331647407124485 0.0
9.370938253597153 6.437386206819511 0.0
9.594764406124872 0.1099001288712305 0.0
9.602872681151728 9.894988341116305 0.0
9.622661196143387 8.076680696281343 0.0
9.769069277144705 5.9102532189237 0.0
2.615076109785583 8.807551523115547 0.0
9.658920005405456 5.730890135691177 0.0
9.76063135061807 5.720703211793342 0.0
8.63963723169499 7.177334225227945 0.0
7.841904391869763 6.41346852896409 0.0
7.764520718520185 6.297267738834625 0.0
9.546492996136271 3.465225175657335 0.0
9.25600964352143 2.219157062786616 0.0
7.625057159226293 7.012987957636062 0.0
9.529121062829038 7.730283486008674 0.0
8.329887090625894 3.845190321147069 0.0
8.265841850823831 3.95687001944245 0.0
8.402006523775544 3.947660780406651 0.0
8.128436391670505 3.968543393650448 0.0
8.46705122470662 3.835767362024195 0.0
8.218867047074696 4.063481375518748 0.0
8.089763413611255 4.08062363292928 0.0
7.939578083855268 4.111915744184436 0.0
3.74991304509639 6.615676756107112 0.0
2.627714335615619 1.170993030860914 0.0
7.046129971268607 6.759930788612616 0.0
8.534603732661887 7.486325780553722 0.0
1.569381386467569 2.042794535871475 0.0
6.228703743210918 1.986421863690014 0.0
6.467030855792859 2.67190498312861 0.0
9.272246093269825 1.975478263632296 0.0
8.05269609263041 3.854522845257449 0.0
8.008595521536957 3.177870309354594 0.0
7.929796740504207 3.350600835935766 0.0
8.048703574664067 3.449582532910417 0.0
9.72947480375618 4.973926800124758 0.0
9.784850360535604 5.072865219810449 0.0
9.896036387646596 5.069261557893528 0.0
9.633140953203334 5.168645132864771 0.0
9.558102991128836 7.602453108835212 0.0
7.278758746505716 3.994295887299482 0.0
8.306681733482405 6.936428510427854 0.0
9.487163072013963 3.757777670075558 0.0
9.532950522284125 5.359403698944497 0.0
9.816036650072329 3.927268437107025 0.0
6.173882586235392 8.734645960664665 0.0
7.972518459433741 5.003005338485466 0.0
8.398453459336153 1.601072016988848 0.0
8.97460527296194 4.040886705742754 0.0
9.037941657530773 4.143578781749325 0.0
8.849604200183613 3.828506169652706 0.0
9.545296177100065 4.042698359132156 0.0
8.595941796785514 5.806754902023664 0.0
8.65588412428292 5.694192853853139 0.0
8.723710665131787 5.801528918332044 0.0
6.861288985046249 6.673713222735126 0.0
8.87477249219366 4.664500928777609 0.0
8.72385765226959 3.608276264790996 0.0
7.145228858696953 5.573648565429618 0.0
7.282945121585866 5.558559688509987 0.0
9.224761401603633 1.602363370249125 0.0
9.609115686587552 2.986868833620756 0.0
9.633989947851914 6.628120633848649 0.0
6.046214325132457 5.45615093027661 0.0
9.017014346798927 5.271996636983457 0.0
9.070824864071271 5.168510834798647 0.0
9.189021391555556 5.166867900487267 0.0
9.123328759137758 5.064718588163964 0.0
9.240587446378079 5.06459430516883 0.0
9.250848280531756 5.267364371053135 0.0
5.773050603406019 5.7192906317521 0.0
8.576466432793914 4.3559007860436 0.0
8.634627802680399 4.253467736542067 0.0
8.461790117175607 5.591735227444779 0.0
8.907610717370224 3.713397213891439 0.0
9.80665594564509 5.628066492225966 0.0
8.985935132601089 4.455263493464225 0.0
9.00640209566022 5.067597672073404 0.0
9.833659276096986 6.976519563917422 0.0
8.0283368553477 4.687271895436317 0.0
8.326580191759327 9.127498457128247 0.0
8.650637373791266 5.07513089931925 0.0
8.701067313435203 2.700069743477523 0.0
4.825307249916392 4.884175191874744 0.0
9.418335984190309 6.858444798015129 0.0
3.91434687300816 8.542956908935874 0.0
5.569239724399552 2.064135034637056 0.0
5.234271567762738 2.128974435011933 0.0
5.757920427527626 2.312422707096966 0.0
5.43365689737979 2.427455772745759 0.0
5.673210219624612 2.602111218343444 0.0
7.214258468265766 6.652783071431555 0.0
9.823626269633962 4.30685540664529 0.0
7.96996639420014 4.794005510174826 0.0
7.616003332725032 0.502676560965646 0.0
3.050634530589821 4.659174799474146 0.0
2.870894249800723 4.246924313393336 0.0
5.285393339952368 6.079037173753393 0.0
9.439954241218905 4.23581687956071 0.0
9.67709722097145 4.710772408106511 0.0
7.40767785509217 4.259947873553335 0.0
8.396202587439676 5.486075637998701 0.0
8.323689688705493 5.372061002264632 0.0
8.191312386254125 5.384662546230823 0.0
5.304380054816289 5.369675374029755 0.0
9.093848379546637 4.047647920840374 0.0
7.916313220758624 3.045043876114836 0.0
8.435854831444637 4.144861908356168 0.0
9.060262453079693 0.7340576053322918 0.0
7.053195520344596 5.238809779682351 0.0
9.621762679347093 2.45205452967588 0.0
8.410730269104743 5.287995309529392 0.0
9.655094569234972 3.472720279371932 0.0
7.982140513923982 6.667914768024983 0.0
8.402690325256646 4.883576657130221 0.0
9.17488654147479 4.962006474835693 0.0
9.013188196102961 8.49700148123058 0.0
9.795977244531603 2.156818021002043 0.0
9.893813711206834 9.545820400859157 0.0
7.965349232662289 4.250048884270795 0.0
8.644264557989125 4.874751532150782 0.0
8.215430976121077 1.26077208565765 0.0
8.379717637669398 8.37324652769609 0.0
9.320026533461409 5.559861899725609 0.0
7.885778178744864 0.4977439426642278 0.0
7.547066983926719 5.125166613071239 0.0
7.657542898944819 5.122996245335209 0.0
7.423918840193691 9.000935553397358 0.0
9.854133000712425 5.541931969512857 0.0
9.328508174398952 2.101486405523264 0.0
9.300749600926641 9.530012105354274 0.0
8.130307182491519 5.277079344947874 0.0
8.346752967392757 4.987627363826086 0.0
9.118404185029991 6.007087846617186 0.0
9.048232213728614 5.89431792713258 0.0
9.088340967655858 5.576242562571367 0.0
8.094762487139027 4.789727191449318 0.0
9.915265904493378 5.749591413470928 0.0
9.92169805280126 6.154216704502091 0.0
9.918022441582268 4.549125436287157 0.0
9.919332362905616 4.849536560132457 0.0
9.914800786693318 6.750595509794719 0.0
9.811792900437824 6.703950687575952 0.0
9.900643083988882 3.749855087409844 0.0
9.912423171222734 3.043228996968949 0.0
9.91892875832665 5.949999999993851 0.0
9.913300070218703 3.960831593817277 0.0
7.709347001661226 4.444236534782706 0.0
7.479443107717332 8.071637285053104 0.0
8.839057072155848 6.807845119358974 0.0
8.972330068019902 6.78765448182788 0.0
8.542093772125282 3.941452413628317 0.0
8.279144752968262 5.930387616620717 0.0
9.393455876855919 4.973162505621418 0.0
9.507123333872533 2.855087674515822 0.0
8.77504684283825 2.317347145885344 0.0
8.394133129040345 4.464046960801843 0.0
5.725509852450801 8.210843960481027 0.0
5.62632390239664 3.967637659758752 0.0
7.910815814627989 4.900765971697654 0.0
8.595808444085467 5.590040244353608 0.0
9.705160502006024 0.8106158419444889 0.0
9.82021247904746 0.808810893177099 0.0
9.218352146075844 4.447736986422823 0.0
9.20781892622228 3.858281726888132 0.0
8.713609974387523 5.178241668554946 0.0
3.55755059259364 8.921522400238844 0.0
9.59122926011489 5.452844834281716 0.0
9.70565100407009 9.77887811062354 0.0
9.826938454219809 9.74303055702321 0.0
7.238962096855633 3.278078153406256 0.0
8.575609105166194 4.567807831727537 0.0
8.936449841121737 4.765835458965493 0.0
5.59323463391086 9.248527978398117 0.0
5.280809113285124 4.886132326418428 0.0
9.328132730893216 6.544753806716806 0.0
9.026944889277736 6.67247283515637 0.0
9.81946239021469 3.007926663525007 0.0
8.677633568960493 6.144049349297466 0.0
8.33427489656924 4.571212803519522 0.0
8.55734024448315 6.382535186588269 0.0
8.692399379422756 6.372347713955898 0.0
8.495817478252626 6.503308565233578 0.0
9.905494734661673 2.544078755559835 0.0
6.177101405266569 7.228490244483556 0.0
9.825373011845263 5.807482724503027 0.0
9.808678508609606 8.118683092442964 0.0
8.397717712407108 7.08010313863416 0.0
7.428555529689225 4.935946611338556 0.0
9.575504958128711 6.125633853639113 0.0
9.154066996197898 4.146562596982661 0.0
8.074381802159323 4.337569667261167 0.0
7.018337246891919 8.843475095716133 0.0
7.970627172560641 2.658650028065857 0.0
7.382546388883145 6.723381543491632 0.0
6.822972334933889 4.884555620881615 0.0
8.343732976791593 6.041576709398377 0.0
7.743680217306919 8.423336160305476 0.0
8.505717922983454 1.115022897794028 0.0
9.113973198216474 6.992972408167606 0.0
5.818882632841168 5.300437503812764 0.0
5.951991891717714 5.279516346785062 0.0
9.450183479138845 5.92934813870612 0.0
8.783346541536119 5.48419035750989 0.0
9.38074895894124 5.65076274999803 0.0
9.513658728876734 7.193620441323493 0.0
6.396040948797887 6.776064256962667 0.0
5.389661780244388 4.89715084345563 0.0
4.473247649068957 5.85935163892416 0.0
9.249586607512612 8.37680799459232 0.0
9.103796366487646 8.379197231055114 0.0
6.274057301184156 4.87985402946409 0.0
9.259628836118232 3.561431822636308 0.0
4.037922477011971 5.489409780163391 0.0
5.62712958624254 4.893925433488392 0.0
8.806426003347967 6.133410188141932 0.0
9.53304466499349 9.59279975429444 0.0
9.542890959420024 1.966631379116419 0.0
7.459736176874619 5.863847835420528 0.0
5.937613117200432 4.89232797168023 0.0
6.171611131472617 4.879541833448487 0.0
6.100695199816815 2.291172318314745 0.0
2.315194906726768 8.081958163666464 0.0
6.878489987598286 5.148099521847569 0.0
9.105264414399338 8.639184652727645 0.0
9.20047261316883 3.457820810661327 0.0
9.895329010385955 7.55944047105717 0.0
9.912742873006831 7.76210330502246 0.0
9.37761459375249 3.168397068877758 0.0
8.946121261512507 6.345629828835438 0.0
9.918632496443566 4.449809517365367 0.0
6.848211525651934 5.945010613369067 0.0
9.915721525903255 2.047407395915179 0.0
6.117255841708726 5.163321965161054 0.0
7.276595248786602 5.347247322210079 0.0
6.32682869954104 5.23674259421017 0.0
8.785886448438022 5.692775375342819 0.0
9.099994401883361 6.776698531382792 0.0
9.913397459621638 0.2499999999998165 0.0
9.910352525643928 0.4481571029410266 0.0
9.907850422008579 0.5479735220323012 0.0
9.911983631350465 9.24778487019403 0.0
9.917634740384067 0.7514684821956668 0.0
9.195214232985496 3.254172408378337 0.0
5.000896927376288 1.846006038077654 0.0
9.917172478547403 8.250155740683276 0.0
9.908120476950126 1.742986232208194 0.0
9.914524635720774 1.949567899316728 0.0
9.907358878377153 9.145625165175748 0.0
9.917695944922635 8.949999999998397 0.0
7.648387553139914 5.325741673607362 0.0
9.605343588986079 4.130627398479715 0.0
6.648113233057817 6.774798386229164 0.0
9.910347203087213 8.446729917003672 0.0
9.913623694530468 8.548470085896316 0.0
9.9201245863254 1.536225488581779 0.0
9.906538426683255 1.059019360781604 0.0
9.912867352010919 8.74999999999809 0.0
9.799662981388353 8.79550485462418 0.0
9.831828680383174 5.99966894118311 0.0
9.91414179906643 1.263025320602998 0.0
9.920690092699912 7.240982963665807 0.0
9.385889285950551 2.235126904097426 0.0
9.28133998925606 8.00415195851526 0.0
9.817074723108401 3.172398890123306 0.0
9.482030285089927 7.512954023388035 0.0
6.682432918504054 7.233889573028878 0.0
8.528699633246763 3.260502457553277 0.0
8.91699963742029 2.327016692708648 0.0
9.267676068834481 3.954520684561369 0.0
8.70811637467455 4.974101624783084 0.0
8.18184214270768 7.816666208279135 0.0
9.690393137288163 5.264344933127836 0.0
6.937111790104696 5.245184991960528 0.0
5.895846026722989 5.174232967273284 0.0
8.281683356622615 6.400073017261236 0.0
9.150883172924027 7.444273543454419 0.0
5.430406600793122 3.390815886517273 0.0
5.049583827974758 5.697634876048387 0.0
8.3966710383105 3.495813899905868 0.0
9.007538428392454 8.046563579784266 0.0
4.645155158868719 2.637132843684674 0.0
4.887444326771336 2.30020425915506 0.0
6.483736782775559 4.522536327482678 0.0
7.843169154548308 8.2116075844056 0.0
5.06295551628385 4.901632590583318 0.0
7.201400991012747 5.138239336380897 0.0
8.519791031104612 8.848807089071627 0.0
8.658623737989732 3.031313729049854 0.0
7.585566208322493 3.629882964874684 0.0
8.411818469596405 6.834326722716643 0.0
9.172363528634236 7.669230647622864 0.0
8.85455683341768 2.682483055215344 0.0
9.359398739738925 1.631421337140716 0.0
9.071793864444992 7.337030604117359 0.0
6.968394563521436 3.712808894519514 0.0
7.899236117684646 7.094583340182754 0.0
9.54362864504834 9.781852543872333 0.0
7.151298729743687 7.644795130415299 0.0
5.452218361466201 5.186873761308322 0.0
5.517642289161902 5.293540933999446 0.0
7.802500357665464 5.978295671754199 0.0
6.594850839687122 8.491429270558893 0.0
6.029132431949566 8.294997405201931 0.0
9.31286590869111 0.5672913838331921 0.0
9.25238720319541 0.4415953739444106 0.0
9.550589523211062 4.228044955453704 0.0
8.748611832783206 6.250900951984038 0.0
7.566980108995873 3.995148257893202 0.0
7.426142759241261 3.996743578498081 0.0
6.478912513785404 4.000296412419969 0.0
9.30435638148753 5.168210982711592 0.0
7.542154188520517 5.752525075248498 0.0
7.219033852073297 2.139582470800704 0.0
7.370913620388047 6.545121498197235 0.0
5.226731036024996 5.187572666585561 0.0
8.515591031124366 4.462223215179979 0.0
6.762864307079274 0.3078036604979366 0.0
8.587432696997471 4.977010533175154 0.0
8.703948448756302 8.815629076400704 0.0
8.081003990931544 7.370949680119862 0.0
7.424404567669909 6.949730915714445 0.0
8.578903262311433 8.377992954045473 0.0
7.301258690263783 6.106184350645308 0.0
5.991600556904204 3.99820087171043 0.0
8.203048538477193 1.601044215405025 0.0
7.289972483120081 4.572350254111052 0.0
7.714697186439165 5.420586967696794 0.0
8.918853780709807 1.841796898567452 0.0
9.919941345877513 4.749808449067644 0.0
7.245589454939737 5.94251251443003 0.0
9.258480524497795 3.358952871140391 0.0
3.705877615124628 5.574038727593425 0.0
8.287096858129765 7.962370605242409 0.0
6.799629860952143 3.705385600481528 0.0
4.146753450763018 6.544154457143895 0.0
7.413973555029582 5.545687501585183 0.0
8.466524978378082 4.980481756569235 0.0
7.336312153537934 2.337983522449311 0.0
7.695505222753409 3.747498713679684 0.0
4.898236813123799 4.795853653580084 0.0
4.59779105899602 1.896916774247134 0.0
8.560170375862322 7.072369101894893 0.0
8.386150468360862 2.449771437140704 0.0
8.41200018115259 5.084601315536367 0.0
5.102189912301071 7.621598618277815 0.0
8.336320418935243 6.71651223072348 0.0
5.081745734883095 3.977838926197614 0.0
7.63590698378166 0.9500570055008507 0.0
7.743369677149255 3.051233984704873 0.0
5.357527459690566 0.3809996753407537 0.0
5.967373112873382 0.7731113464301924 0.0
8.169449265206127 6.666271947462212 0.0
5.95122726745053 5.55758205410881 0.0
9.922289489207834 3.53923011719877 0.0
9.39154684476555 2.659037023454942 0.0
7.701415639167884 7.690060291860976 0.0
9.819179654793023 1.329863870021845 0.0
8.358229579054417 6.506108206863729 0.0
9.269720555169467 5.657096143475924 0.0
4.473187658045934 7.435037860084884 0.0
9.65807158077373 3.255496360750368 0.0
9.605155446454205 8.713645566904637 0.0
7.097383547728313 5.141197376985936 0.0
9.812212483832656 1.89920712759492 0.0
9.83875570675407 6.81603549325055 0.0
8.926246869879279 2.079976511571457 0.0
9.166785856141402 9.169070814302419 0.0
8.763479010228052 1.587152667342957 0.0
5.957377924852992 6.404530806530254 0.0
7.14506854375872 6.10342416684208 0.0
5.672595070581394 5.164323323112049 0.0
4.899782787268781 0.3801727265981219 0.0
4.447133848117348 4.673614099606824 0.0
7.044865074789195 3.253639989243549 0.0
9.818461337102992 7.819456450952447 0.0
9.925334577033155 7.954012377173311 0.0
6.352907898232792 1.173665225954276 0.0
7.351721385581032 5.660361289755705 0.0
9.337367583861807 2.76534436379692 0.0
8.693118347802024 4.360254099729149 0.0
9.476812970101324 0.3524826622168163 0.0
7.109868985890334 0.9024224571333925 0.0
7.899106846231403 5.511805431542581 0.0
8.352799544476607 5.187887629361129 0.0
6.957483547582747 0.6176251309213842 0.0
8.099559500483094 1.412323841044818 0.0
9.913030944540278 0.8542404645334569 0.0
9.143075088381442 8.022165366829135 0.0
8.819861450593166 6.356592599428041 0.0
9.319444417409162 1.49938505915629 0.0
6.490262520326714 7.118204362551877 0.0
6.490874470087819 6.582907761235813 0.0
9.82506653058937 0.6146757679104559 0.0
6.803129818897624 4.419048038171804 0.0
9.840901379354312 0.08198751964190581 0.0
9.839740374244226 9.918356239418472 0.0
8.551927134544655 9.449788917425456 0.0
9.92097857388158 3.249999999993177 0.0
5.797087413057367 7.077351493358238 0.0
9.255412859987286 6.433984412022419 0.0
8.668174522249984 1.740767926084485 0.0
9.920991430240607 6.25262219124529 0.0
7.57275248448898 1.94367954756322 0.0
8.052865444445507 8.19900054463639 0.0
8.748697149245206 4.25201068974208 0.0
9.158270227735827 0.5542256343091421 0.0
5.997487767477439 4.787924707603557 0.0
6.119759900601896 4.78043793682227 0.0
4.353034750397793 8.619182743639561 0.0
8.721093521611476 5.588932824583312 0.0
5.717101151444983 1.123034066822819 0.0
9.825602081347064 8.68753399402474 0.0
8.005502510832988 8.7824052910506 0.0
5.548184234622668 6.408009287230429 0.0
5.77830300433981 6.598697187164234 0.0
9.613093825495433 4.50282172481406 0.0
9.928981132641653 9.74928475696928 0.0
6.613628176297015 4.515513362596662 0.0
1.822126723816303 1.297795131355289 0.0
9.514164594137375 1.43081427463862 0.0
4.735494753432723 3.698541604583975 0.0
9.52844959749262 8.615213629960298 0.0
4.660704511759056 0.7947595073298008 0.0
6.82340845160293 5.239926830264399 0.0
7.885938077030673 7.380147032865134 0.0
7.884599891021201 6.09005968568029 0.0
8.846834820720167 9.653276456345532 0.0
8.457777199486827 0.3851010632068662 0.0
6.66485224572131 8.771510767670392 0.0
9.091499342133352 9.708315832477556 0.0
9.824286725109655 4.976315293637262 0.0
7.848197684391786 5.632217046637356 0.0
3.88430598115417 4.225391362015386 0.0
8.776890759183289 2.809688928468134 0.0
7.393884285023409 3.59397875231041 0.0
6.927568893329758 4.396788356869783 0.0
4.96854327720728 2.662368428358774 0.0
9.1480130720193 3.951479613991279 0.0
7.071049729490975 2.38092990636632 0.0
3.40193058782919 1.686321186206593 0.0
7.612042194200681 4.815904436723407 0.0
9.043395868401339 6.888481825015849 0.0
9.098933057562759 8.152197681006806 0.0
6.058682303253315 3.857501492181965 0.0
3.707092669281355 2.986685502034343 0.0
5.113272509841263 5.189455016444592 0.0
6.960565857079232 3.416349532571279 0.0
8.755151527375476 7.649255597361291 0.0
3.393680865444538 3.679982303262531 0.0
3.117424600120088 3.35605258976247 0.0
8.530814041264104 5.488376426140491 0.0
4.820719767306654 5.106646490188182 0.0
9.918899263509473 4.144927088739744 0.0
9.918194630017027 7.447268230913605 0.0
8.461970084137805 3.144844565847669 0.0
9.924415919486059 6.949999999995354 0.0
7.184050152099684 2.72771667662237 0.0
8.834356715215904 7.801565642745232 0.0
8.689015446783005 4.145232831954543 0.0
8.490778532265319 8.234414357968106 0.0
8.63666290918932 2.83060276219705 0.0
4.61028976098935 4.741894230894578 0.0
6.314735925012879 4.003132559161639 0.0
9.20786580425652 4.67001723737971 0.0
7.141401229301469 4.873205425098625 0.0
6.235177809922153 4.774126344778935 0.0
9.12491895896937 3.145675090615719 0.0
9.255747684068178 3.162525801823036 0.0
8.312852272796098 2.290855459722148 0.0
1.449266720542303 3.363629101350872 0.0
9.525687840398492 4.800807314407045 0.0
4.829905263804087 8.14474456977717 0.0
9.09338914689732 7.563794106183232 0.0
5.389401689694107 5.283808684471545 0.0
8.530979415204587 3.029374286908943 0.0
7.901489077080633 6.535344047486632 0.0
9.218572924671975 5.760893551533255 0.0
8.562382833959296 4.143913974026883 0.0
8.62959127904665 8.974877485888243 0.0
9.408442441596518 9.62276529745719 0.0
7.5034765601713 3.869833107932387 0.0
9.842813436634783 6.600620949014236 0.0
9.826116984327193 8.911617279149695 0.0
7.529907780698261 0.7369111006685982 0.0
7.832164962480427 2.905293639437395 0.0
8.39517908433056 3.267417602291069 0.0
9.823014010107707 9.085319632577246 0.0
9.022314123618541 3.944559746338292 0.0
4.243701230676532 5.332574856090426 0.0
9.816740542566388 1.127839952679595 0.0
8.166775715766304 5.693916696568397 0.0
8.865374421689054 8.068986769641638 0.0
8.761145809863661 6.470583506581853 0.0
8.998345275919851 9.209303502026401 0.0
9.698477487436316 6.706902829754045 0.0
6.439032098063426 0.3109134377713525 0.0
7.562681994382136 4.643158005207056 0.0
9.03999088074715 0.2799354672273258 0.0
5.180741540467516 3.805018725608906 0.0
6.243990330956698 2.718077286244967 0.0
9.79416634023361 0.1815240178579244 0.0
9.926540005061975 2.847049370876555 0.0
9.826476210374608 2.670192168078066 0.0
6.365816673179121 4.536333049275508 0.0
5.546353765219417 4.618331215552614 0.0
9.820703096450293 2.000649418331399 0.0
6.884388790679166 3.561583980715254 0.0
7.431303395649604 5.747824222777201 0.0
8.849816832721245 2.19318290395604 0.0
4.185147517585975 5.697469360586313 0.0
9.165905238119013 5.873664931582344 0.0
7.70479478158537 1.788324620089049 0.0
9.627376046933474 0.9196091445437269 0.0
6.657687963328663 5.144792385996769 0.0
9.83245016645186 0.3925568446109945 0.0
7.483092985762584 9.253837199159435 0.0
5.445348362202234 3.977855663863651 0.0
7.476680532833337 4.837183287808616 0.0
9.572749890969304 8.505160319814301 0.0
9.915853314998252 9.437014513917465 0.0
7.679469018350979 7.390484878021194 0.0
9.418139053434402 4.790576000488359 0.0
8.096967733471567 5.865447162201908 0.0
9.829153508938724 8.378494945652118 0.0
9.926595955569645 5.157718300415699 0.0
8.774484245600224 7.939747459426853 0.0
8.629764448155779 6.481031318922794 0.0
8.961169458302376 3.839036702328818 0.0
4.617199205561317 5.256318959792646 0.0
8.480815774219478 4.031210317621497 0.0
9.708341592512763 3.401018043990571 0.0
7.183974816647467 4.77882314543966 0.0
9.821437962294304 7.659391965474772 0.0
8.150320284869602 2.286501016204562 0.0
9.828114434347311 1.684891358832554 0.0
5.349187766238684 6.538177907133678 0.0
8.076053471314525 2.76180604769483 0.0
4.907713691134565 5.29818629967416 0.0
0.6874399366049438 4.328593906714074 0.0
0.6980011780697519 5.702671170050627 0.0
8.263861466707834 8.182284285231713 0.0
5.838783785156478 4.913981390426639 0.0
7.807619472656604 7.235706382002089 0.0
9.388504256318683 6.022122644748753 0.0
9.929839894767033 6.436189192303577 0.0
8.3205848711706 3.39107920408397 0.0
3.240770542267401 4.019899919523968 0.0
8.059047070496568 2.468855909103855 0.0
9.932479519490421 2.449625056415224 0.0
7.737639000139152 4.580708137963557 0.0
8.26141077223695 0.3940397126348397 0.0
9.69568953371801 1.959951226402445 0.0
6.469120930453264 4.892267070266994 0.0
9.167223997255698 0.8102256463122337 0.0
6.236889648241256 0.9291076084031108 0.0
8.306379082772498 5.268830342852036 0.0
6.716089118890225 5.239344620507032 0.0
9.82511981852641 9.282822358664017 0.0
6.68375719572285 4.404998642130821 0.0
8.913754712375674 6.908138360584365 0.0
6.173250048857013 5.251634416326969 0.0
4.235907497612446 1.924052997345291 0.0
5.151007663981651 2.438629730660893 0.0
8.924254300637541 9.3764975797567 0.0
4.438612423541503 5.287968640901957 0.0
8.571203234299599 1.897009944569934 0.0
6.878800676380218 5.821332862798138 0.0
5.710626178601224 4.792560699857408 0.0
7.149510071621283 5.216310009157644 0.0
2.099966541549645 2.334742113488256 0.0
9.93396330620579 5.350566393301629 0.0
7.143046479323961 8.646955109387985 0.0
7.965747313080266 5.193641450105844 0.0
6.3314394693073 5.135050228240639 0.0
7.665821333021348 6.222698255001823 0.0
6.305321657053551 4.659816230868476 0.0
7.833020917089713 5.208837056143474 0.0
9.41455902676429 2.869725681199307 0.0
8.567151507735133 6.598605357295113 0.0
7.405527786978573 4.377085529441429 0.0
6.552969697053132 5.137148974085434 0.0
9.93630620742063 8.042778076596578 0.0
7.166743296019233 4.593171678848165 0.0
6.595561806063966 5.839366735225723 0.0
6.066152182102007 5.262519562574559 0.0
9.834694151277489 0.9093455747994099 0.0
8.98259191950674 7.579732466796592 0.0
6.465071238839505 5.25485771955322 0.0
9.759759896588413 3.236659507608532 0.0
4.775529448101694 5.224235675150505 0.0
9.935991245222917 7.153416415978829 0.0
0.6530736820718381 9.352299998916202 0.0
0.6449439415299687 0.6468300344151556 0.0
7.804690364869245 4.495816547678174 0.0
9.84503784553893 5.70620404704573 0.0
9.83525329400959 3.826992990746767 0.0
9.922964894244684 4.265000406933376 0.0
8.333767638401964 1.121219971446645 0.0
8.876012546033895 7.019147158538482 0.0
8.172413577824324 3.413096916572049 0.0
7.232233017296214 4.478957103028363 0.0
6.214597295185415 3.852860083673202 0.0
9.85013791746415 4.400709747289421 0.0
3.941627380932058 6.342995010255737 0.0
3.097271569675528 8.77391871286929 0.0
9.292917152323044 6.010976049411984 0.0
8.104342196673183 5.184165973282902 0.0
8.994300084006271 3.652611812846807 0.0
9.937157897030163 5.549999999993244 0.0
8.721368888525245 7.274540720770752 0.0
8.920003648712827 0.9516585309368178 0.0
7.910527456030004 8.536826514867816 0.0
9.846441288756814 4.60515911863952 0.0
9.584942233925151 4.712073182517884 0.0
9.642357858573972 6.805672051759494 0.0
9.797024725252207 9.838837222258014 0.0
9.842451438022124 4.018973836958878 0.0
6.112723137676118 3.704473949316424 0.0
7.574641969193845 3.765362276156904 0.0
7.826594968121701 6.200366572362263 0.0
7.762805366733504 9.34009502796868 0.0
9.56854033867856 1.012566255816665 0.0
7.71256563655353 5.219373702836014 0.0
9.68039392238282 8.786964504862018 0.0
5.910362452777086 9.277662068919813 0.0
7.418090653922814 3.326443419100716 0.0
9.857704179097952 4.697553149694669 0.0
8.452469674653342 8.996585816905599 0.0
9.522351366699843 2.057525484575908 0.0
7.802315574700843 9.548878971475935 0.0
9.938875656926385 3.449999999992592 0.0
8.425189037911712 6.608575180629274 0.0
5.925965231566842 2.523669697740033 0.0
6.654918072256329 5.95749128982984 0.0
9.826748589235729 9.631118448471485 0.0
8.6684585637523 7.39633999085442 0.0
9.844673843931567 3.090088625379724 0.0
9.93613850661301 2.250382721159617 0.0
9.218291993658738 2.892108990205171 0.0
9.83502846611296 8.212781989607324 0.0
7.754136409732265 7.104288507262783 0.0
8.510570542791681 2.036933285735889 0.0
7.757745059307245 4.315798612475442 0.0
7.989231770559189 6.201656630465583 0.0
8.068934521422738 4.198631572122605 0.0
4.957478134450373 9.038766150325067 0.0
7.208661142641733 6.501402463831379 0.0
7.299506095906239 4.363561999234681 0.0
8.250303873550486 2.105322217421675 0.0
8.678637541413377 7.053471135702286 0.0
9.761528395137384 6.163503990672834 0.0
9.84494857233395 8.59999999999775 0.0
9.83825138794677 3.672838954969637 0.0
5.121008544047756 5.808127183024784 0.0
8.343911550360986 4.043535893276861 0.0
9.85324441775315 5.899999999993774 0.0
9.51114465213134 8.41035540646284 0.0
6.505812179224195 6.93390566262983 0.0
6.15572847138365 9.023097246950844 0.0
3.352081892333425 3.024853379890529 0.0
6.433163283162099 8.675072413910678 0.0
8.825744236698243 3.624446391299867 0.0
4.883007294861279 7.819620905924936 0.0
5.876659170760434 5.638247433601083 0.0
6.859400040348503 6.510797998354633 0.0
7.946400945409184 3.500317276373196 0.0
7.496830255505493 6.653194511698024 0.0
9.852183479755313 4.891525833556942 0.0
9.77998778436291 2.922486526124376 0.0
6.774672660492365 5.324728659740495 0.0
5.717254072187427 6.824125962512845 0.0
9.713440940838062 4.63793103997539 0.0
8.859858662536796 0.2721395536350836 0.0
8.37556017530946 9.436653414116012 0.0
7.395237381047616 7.885576562773319 0.0
5.4709157802033 4.511152089197594 0.0
9.489749416979361 9.691840729914848 0.0
4.599216022837964 3.46438688931078 0.0
5.572287492757569 4.807021644849729 0.0
9.926499336309957 9.92730688390086 0.0
9.926499336310107 0.07269311609890093 0.0
9.338127766332573 0.3585313952168247 0.0
6.810761948165162 3.414693294319008 0.0
8.166274345037138 5.943611545564389 0.0
5.2892644736731 6.301081312912763 0.0
9.731911074791544 7.649313380659622 0.0
8.90251102352767 9.50983415326544 0.0
8.997881406541017 1.033666784655452 0.0
5.835124768755703 2.738139962594905 0.0
9.665357480775825 6.185331297099201 0.0
7.656532192558493 8.217157287499347 0.0
9.170463887605525 2.975444721032631 0.0
4.208158615905443 0.8648302238584886 0.0
6.97015686031129 5.933674629077266 0.0
6.181941366523793 3.565885175921835 0.0
3.30313590337911 6.393402837735046 0.0
6.447482061767014 4.816169316820496 0.0
8.185341428749446 4.169172087371246 0.0
4.552595724340015 8.298301336212145 0.0
9.84850676569699 8.999999999998423 0.0
9.846941514449377 7.393642828194986 0.0
7.924592433490734 2.788309934035703 0.0
8.154308714226714 8.853640122009672 0.0
8.876629743004642 1.96110242719995 0.0
7.228849192966834 8.90811350348676 0.0
9.852301635085423 8.296637825215246 0.0
5.219795195341889 5.547413133147649 0.0
9.861497117995457 6.901363010201344 0.0
2.953911258021604 6.136007283255669 0.0
6.93158841067062 4.77708273647784 0.0
9.67540418457871 2.912802891506324 0.0
4.194055958522277 4.437353127730132 0.0
6.133959559341536 0.406856611599261 0.0
8.29952795189331 9.309744645643846 0.0
9.843692337952948 1.209647690818311 0.0
5.164986286280336 6.671544079402435 0.0
9.838533350075606 2.081705440779448 0.0
8.301244777513975 6.604088853319459 0.0
5.471494771710784 2.714598185146428 0.0
8.86534684892311 1.208599471795828 0.0
9.940610684232212 1.451558535868664 0.0
9.40896208432968 1.428353940655538 0.0
2.329177605337097 4.238803555614174 0.0
5.980761651517799 7.182207186682233 0.0
9.66541573964336 0.1719254072074424 0.0
7.220979380229172 7.806128737674462 0.0
1.251721227904697 6.151932667911503 0.0
8.104967286191181 6.057912607875576 0.0
6.650768762224724 4.817922869198292 0.0
6.634976350437587 3.213339182992986 0.0
7.034320437500567 4.898219100342838 0.0
9.502772020064167 6.283064492634301 0.0
8.13187938667684 3.518506862055515 0.0
9.855471943454193 2.599999999994991 0.0
9.056747742708522 8.263936599935574 0.0
4.352645795441222 5.724453640019 0.0
3.744263984699181 1.488951698361357 0.0
5.175860134287045 3.6375726667098 0.0
7.736434712114619 6.400417475661193 0.0
9.857658576695343 6.316607183405179 0.0
7.876525261950537 4.304285002335559 0.0
9.856114384785611 7.914602773442983 0.0
9.848334119947063 0.7059644476295188 0.0
9.59694321995579 6.895814046141667 0.0
5.906465212962551 3.869023950643881 0.0
9.840676994268005 9.364956386459765 0.0
5.355015287544095 3.83518170601625 0.0
6.374090407153147 5.855743754257685 0.0
8.227401290513832 5.297819733684674 0.0
5.451235131977493 4.825706629991923 0.0
6.022070213762754 5.355923882747634 0.0
9.845674433677614 6.108401449483281 0.0
9.835067400944396 7.739582406783081 0.0
8.602026805792988 2.941372356914139 0.0
5.059869081004962 5.269480960018243 0.0
5.284714507903736 5.26496663762182 0.0
9.627110479149561 7.660076105040499 0.0
6.820001127809743 4.792514421153957 0.0
5.120512795059439 4.806607659110254 0.0
9.56933817216883 2.911464407429096 0.0
9.74091654291531 9.267545397628387 0.0
9.93006767325302 6.576784040838644 0.0
9.642486276936268 4.650227701598451 0.0
5.185183328569137 9.410919109238325 0.0
9.37052946854105 4.605636695802024 0.0
1.677077220416309 5.871167715901136 0.0
7.345783833404538 3.184020711886284 0.0
5.419239942654976 5.982692039856376 0.0
6.133318300188262 2.551919945731369 0.0
6.187291396343277 4.499077117404439 0.0
1.231465237822878 3.921479198315213 0.0
8.969849937139944 9.699215363213542 0.0
9.218303154263054 6.037447959776716 0.0
CELLS 4886 19544
3 1113 1356 1450
3 1402 231 1659
3 272 269 1414
3 396 394 1777
3 1451 945 1452
3 194 81 1801
3 1847 1501 2104
3 2024 2121 2479
3 1115 1113 1450
3 1124 1413 1844
3 1061 1955 2409
3 307 305 1645
3 1592 1369 1593
3 238 1501 1847
3 1955 1883 2409
3 1808 243 1910
3 1885 978 2362
3 1440 793 2092
3 189 1488 1608
3 353 350 1864
3 2007 2231 2232
3 307 1645 2493
3 1096 1760 2496
3 2178 874 2179
3 621 625 1595
3 1493 1480 1938
3 1655 1268 2137
3 1341 1410 2212
3 243 1808 2360
3 1902 1446 2516
3 1760 1096 1763
3 856 790 2180
3 2008 2046 2105
3 789 1809 2067
3 694 1543 1575
3 1127 1762 1953
3 1748 807 2228
3 1543 1308 1575
3 820 1872 2170
3 1417 954 1998
3 1369 1592 2386
3 272 1414 1787
3 329 333 1998
3 1544 1095 1545
3 2231 1490 2232
3 1342 1683 1790
3 374 377 1797
3 807 1678 2228
3 1665 198 2128
3 141 142 1620
3 325 322 1952
3 231 1402 1654
3 198 1665 2010
3 1890 1307 2387
3 208 1438 1619
3 2016 1970 2156
3 1436 212 2020
3 954 1417 2333
3 1736 1894 2244
3 1491 1750 2143
3 1677 1064 2146
3 1474 1258 1475
3 1500 233 1930
3 1446 2415 2516
3 1700 973 1800
3 2128 2270 2316
3 1316 1315 1593
3 1307 2341 2387
3 2258 1324 2328
3 1083 1507 1508
3 693 1095 1544
3 621 1595 1596
3 667 1571 1872
3 1932 1766 2061
3 393 391 2240
3 1342 1790 2400
3 252 1707 2234
3 931 978 1885
3 1430 1116 1704
3 1411 1109 1714
3 1478 1227 2440
3 1990 195 2297
3 1792 1167 1985
3 1682 444 1975
3 394 397 1777
3 1711 2028 2162
3 1574 856 2180
3 2008 1851 2046
3 736 1493 1938
3 1069 1060 1662
3 1458 455 1754
3 862 691 1705
3 1161 1642 2286
3 1699 1700 1800
3 447 516 1637
3 955 1482 1483
3 2024 206 2121
3 391 1773 2240
3 1072 1412 1893
3 212 1436 2350
3 1566 1365 1568
3 259 1441 1672
3 872 870 1764
3 330 328 1889
3 1539 1161 2286
3 1897 1898 2275
3 1434 1990 2297
3 1109 1411 1730
3 319 307 2493
3 1762 1761 1953
3 1369 1316 1593
3 1540 834 1832
3 1505 652 2442
3 1732 1655 2137
3 921 1712 2295
3 1872 1388 2170
3 1712 921 2125
3 2028 244 2162
3 1506 1570 1680
3 1569 368 1964
3 1571 667 2375
3 1587 2178 2179
3 196 1723 1737
3 524 2016 2156
3 1528 1250 1733
3 1115 1450 1973
3 1938 1480 1971
3 1809 1396 2067
3 1641 249 2299
3 1223 1258 1474
3 1365 1566 2120
3 1981 962 2316
3 1538 353 1864
3 455 1458 1756
3 152 233 1500
3 1116 1430 1703
3 817 652 1505
3 1347 2003 2004
3 1607 1958 2085
3 194 1801 2195
3 1410 1341 2351
3 223 1415 1710
3 197 1511 2346
3 2198 787 2225
3 81 82 1801
3 1438 208 1620
3 1444 522 1823
3 1511 197 1950
3 726 718 1567
3 1637 516 1739
3 1708 2337 2341
3 1280 1649 2124
3 2337 1395 2341
3 1327 1709 2315
3 1225 1227 1478
3 691 624 1705
3 476 2224 2305
3 830 832 2204
3 1750 1491 2403
3 1366 1897 2275
3 2345 1583 2352
3 2054 405 2110
3 1984 2172 2230
3 1846 2198 2225
3 1177 2042 2418
3 2121 1367 2479
3 1527 1531 1541
3 916 1039 1834
3 1413 1124 2467
3 1622 1503 1868
3 249 1641 2019
3 1805 405 2054
3 1761 1007 1953
3 1415 223 2395
3 960 1756 2203
3 368 1569 2135
3 1402 1659 2473
3 941 1433 2471
3 1267 1477 1501
3 260 2002 2265
3 1704 558 2077
3 2224 1886 2305
3 2053 1386 2199
3 1452 945 1952
3 1717 1611 1718
3 1682 1975 2230
3 1760 1762 2496
3 1481 203 2104
3 1264 1266 1670
3 142 236 1620
3 2133 1182 2179
3 1791 1602 2183
3 350 346 1864
3 1412 1072 2393
3 1281 1575 2255
3 1565 1948 2155
3 849 1449 1513
3 1958 396 2085
3 1339 1069 1662
3 834 1540 1917
3 269 267 1414
3 1268 1267 1501
3 1440 2092 2468
3 1399 1981 2316
3 1635 1636 2041
3 1454 252 2234
3 1451 1305 1890
3 1375 1883 1955
3 362 366 1786
3 1484 2410 2528
3 1449 849 1640
3 1267 1474 1477
3 200 1611 1717
3 1054 1581 1582
3 1350 1977 2253
3 190 1390 2118
3 788 1956 2193
3 1709 1327 1888
3 2233 2298 2413
3 1488 189 2355
3 478 1685 1714
3 230 1525 1690
3 1687 478 1688
3 427 429 1756
3 1570 1065 2476
3 1880 1133 1988
3 1649 656 2124
3 1537 209 1614
3 1134 1769 1986
3 1220 1268 1655
3 396 1777 2085
3 1167 1755 1985
3 2229 1744 2296
3 1575 1281 2287
3 127 240 1882
3 377 647 1797
3 954 329 1998
3 220 1697 1698
3 1342 1341 2212
3 1441 264 1672
3 1512 188 2433
3 763 2345 2352
3 1685 1411 1714
3 1805 1188 1951
3 1347 2004 2157
3 1054 1582 1667
3 1333 1617 1674
3 2217 73 2361
3 1539 1036 1917
3 1039 1292 1834
3 208 141 1620
3 1965 1964 2038
3 693 1544 1969
3 1453 239 2279
3 203 1481 2049
3 945 1451 1889
3 680 1459 2134
3 354 2147 2196
3 1405 1932 2061
3 1723 1722 1737
3 1748 1175 1927
3 1532 1528 1733
3 2057 1824 2154
3 1406 1659 1702
3 1948 1186 2155
3 210 1598 2114
3 1685 478 1687
3 1324 1325 2328
3 1526 1250 1527
3 165 166 1509
3 1493 736 2523
3 1526 1527 1541
3 1390 190 2417
3 522 1444 1998
3 1680 1570 1732
3 1017 1442 2525
3 374 1797 2430
3 1507 1083 2197
3 1756 960 2221
3 2270 1400 2316
3 2205 1452 2282
3 1074 1187 1888
3 2158 1245 2200
3 1442 1017 1684
3 864 1116 1703
3 1750 1751 2143
3 1456 516 1492
3 1677 2146 2149
3 2022 1339 2388
3 1602 258 2183
3 678 1594 1595
3 1245 1670 2200
3 972 830 2204
3 2143 983 2342
3 1268 1501 2226
3 1266 1461 1670
3 1487 222 2465
3 1382 2022 2388
3 58 59 1661
3 2147 1543 2196
3 1484 1485 2410
3 628 2053 2199
3 1906 1549 2259
3 364 362 1786
3 1339 2022 2247
3 1636 525 2041
3 625 678 1595
3 678 1593 1594
3 2212 1410 2222
3 1837 1865 2215
3 1699 1800 1801
3 866 864 1703
3 893 1472 1982
3 1735 1736 2244
3 1633 1255 1922
3 126 127 1882
3 681 867 1656
3 1351 1401 2363
3 11 228 1588
3 1127 1953 2454
3 265 266 267
3 1722 1122 1737
3 1389 1691 2069
3 1613 1610 1616
3 1227 1256 2440
3 429 455 1756
3 1535 1177 2418
3 322 324 1952
3 973 1700 1802
3 1964 368 2038
3 1176 1865 1866
3 1096 872 1764
3 1176 1866 1875
3 193 1839 1892
3 156 157 1441
3 615 617 1596
3 686 1520 2480
3 1409 2097 2305
3 2410 1151 2528
3 1427 2217 2361
3 440 1911 2314
3 1744 1743 2296
3 516 1456 1739
3 1939 589 2164
3 690 931 2150
3 1062 1579 1580
3 1054 1580 1581
3 955 1483 1716
3 1064 1677 2248
3 1956 1616 2193
3 1776 1893 2026
3 1398 1115 1973
3 2002 1453 2265
3 1541 1531 1542
3 216 2191 2536
3 1736 1326 1894
3 1065 994 1066
3 1598 2115 2175
3 2314 1911 2358
3 1433 941 2042
3 2115 1209 2175
3 717 1550 1551
3 188 1941 2433
3 267 1132 1414
3 771 1569 2064
3 1157 1545 1546
3 1231 1250 1526
3 1933 240 2181
3 222 1487 2025
3 1525 230 1765
3 1430 1704 2077
3 757 1744 2495
3 264 263 265
3 883 773 1917
3 739 2205 2282
3 1667 1582 2434
3 1744 757 2474
3 239 1453 2002
3 1441 259 2356
3 2005 1443 2012
3 254 1766 1932
3 1509 166 1679
3 1477 1475 1481
3 793 1440 2165
3 1385 1523 2377
3 1481 1475 2523
3 156 1441 2356
3 1066 1220 1655
3 945 325 1952
3 2094 2087 2134
3 1747 1175 1748
3 253 262 263
3 1327 1074 1888
3 718 715 1567
3 2046 1043 2105
3 240 1933 2399
3 1305 1307 1890
3 224 58 1661
3 1195 1566 2285
3 1590 1393 1749
3 1255 1230 1922
3 353 1538 2073
3 358 1999 2325
3 882 1802 2036
3 1024 1020 1604
3 333 522 1998
3 1401 1351 2414
3 1475 1258 1476
3 2310 786 2364
3 328 945 1889
3 807 1748 1927
3 825 724 1912
3 1742 263 2491
3 267 266 1132
3 2077 2102 2203
3 1431 1432 1860
3 1212 1957 2312
3 2097 476 2305
3 1132 1402 2473
3 717 713 1550
3 1746 693 1969
3 1372 1124 1844
3 1256 1541 2269
3 1977 1350 2274
3 2332 1978 2443
3 874 2133 2179
3 1983 1534 2171
3 1157 1544 1545
3 1230 1228 1922
3 1580 1579 1581
3 1565 806 1948
3 1416 1363 2413
3 1287 1995 2398
3 265 263 266
3 1534 1529 2171
3 1604 1834 2428
3 1255 1633 2509
3 1344 1643 1644
3 1332 1388 1571
3 1423 217 2217
3 2191 1057 2451
3 458 447 1637
3 1250 1233 1733
3 472 2212 2222
3 1175 1747 1840
3 1652 256 1653
3 1073 1347 1572
3 200 145 1609
3 683 640 1585
3 1116 862 1705
3 1221 1223 1474
3 1778 801 1803
3 1503 1622 2471
3 1475 1493 2523
3 464 680 2134
3 14 210 2114
3 579 1880 1988
3 1434 1435 1990
3 1447 2310 2364
3 275 274 276
3 2294 1871 2419
3 814 1068 1684
3 1172 1439 2273
3 273 272 274
3 1363 1416 2406
3 1220 1219 1221
3 1060 1656 1662
3 1099 1792 1985
3 2048 1198 2168
3 1241 1245 2323
3 699 723 1753
3 1640 1862 2070
3 910 1018 1584
3 1586 1067 1587
3 1656 867 1662
3 1067 686 2480
3 654 2242 2294
3 1593 1315 1594
3 1880 553 1974
3 236 1717 1718
3 617 621 1596
3 1723 196 2313
3 402 1877 2116
3 273 274 275
3 2202 1869 2252
3 1510 1358 1767
3 193 1892 2373
3 1188 1805 2054
3 1220 1221 1267
3 1066 1218 1219
3 1517 1097 1518
3 1677 1676 1858
3 686 277 1520
3 268 267 269
3 697 857 1592
3 220 1698 1699
3 1802 1700 2036
3 1612 1537 1614
3 929 817 994
3 228 12 2136
3 2110 2116 2482
3 1659 1658 1702
3 1611 1613 2280
3 1344 991 1643
3 683 1585 1604
3 1638 1358 2404
3 1485 1034 2410
3 2214 833 2424
3 271 272 273
3 1482 955 1962
3 1066 1219 1220
3 931 1885 2150
3 1613 1891 2280
3 1189 1589 2204
3 1566 1195 2120
3 726 1567 2490
3 1122 1722 1874
3 1494 319 2493
3 1671 259 1672
3 1267 1221 1474
3 603 528 1591
3 1664 2128 2316
3 1817 1924 2174
3 1626 1660 2111
3 1474 1475 1477
3 1023 1062 1580
3 1957 1599 2312
3 1764 1939 2164
3 1358 1950 2404
3 200 1609 1610
3 1431 1082 1432
3 1778 1803 2521
3 1830 1832 2075
3 1930 233 2369
3 1329 1482 1650
3 757 1959 2522
3 1239 1247 1597
3 758 1978 2332
3 1569 1290 2064
3 216 1694 2191
3 1453 1420 2265
3 1549 1906 2129
3 24 215 1674
3 19 235 1676
3 1621 1057 2191
3 1691 1389 2262
3 1617 1333 2192
3 929 994 1065
3 1769 1672 1986
3 1893 1412 2026
3 1609 1537 1612
3 271 269 272
3 1373 1438 1620
3 217 1423 2381
3 517 330 1889
3 1322 1055 1667
3 1974 553 2499
3 228 2136 2187
3 1589 1189 1788
3 1999 1577 2325
3 2110 405 2116
3 189 1608 1842
3 1055 1050 1667
3 739 1455 2205
3 1865 1176 2215
3 319 1494 2522
3 2474 757 2522
3 1484 227 1485
3 10 11 1588
3 723 809 1753
3 27 230 1689
3 1550 806 1565
3 1179 1180 1217
3 207 1617 2192
3 1433 1217 1502
3 1562 1556 1606
3 1379 2017 2018
3 1245 2158 2323
3 675 1097 1517
3 884 501 1599
3 1020 683 1604
3 1603 1095 1848
3 1001 2057 2154
3 1604 1585 1834
3 1610 1612 1616
3 1764 870 1939
3 2242 1871 2294
3 1669 1264 1670
3 1658 213 1702
3 1995 1646 2398
3 631 539 1600
3 1491 2143 2342
3 1801 1800 2195
3 1200 1199 1693
3 1535 940 1861
3 1534 758 2332
3 914 2258 2328
3 1588 228 2457
3 216 138 1694
3 151 152 1500
3 1133 1880 1974
3 1677 1858 2248
3 1294 1622 1868
3 875 1010 1767
3 1379 2018 2416
3 1279 2202 2252
3 182 256 1652
3 1592 857 2386
3 672 681 1656
3 615 1596 1824
3 1093 1487 1623
3 1823 522 2100
3 1245 1242 1669
3 1582 1581 1583
3 758 1534 2306
3 1975 1984 2230
3 1358 1510 1950
3 1663 1336 1665
3 2102 960 2203
3 366 1087 1786
3 1740 1490 2231
3 21 207 1709
3 145 146 1609
3 2339 765 2384
3 603 1591 1668
3 2081 199 2149
3 1540 1832 1879
3 1721 1723 1947
3 1754 455 1793
3 1751 1753 2119
3 882 1701 1807
3 1540 1539 1917
3 242 1695 1697
3 1521 354 2091
3 1363 2233 2413
3 1584 1018 1925
3 703 1067 1586
3 1177 1178 1179
3 795 916 1834
3 277 276 607
3 1571 1388 1872
3 22 23 1617
3 1097 823 1177
3 25 26 1624
3 419 418 1790
3 1728 1906 2259
3 440 1455 2261
3 1877 1318 2116
3 1488 1156 1608
3 1439 2130 2273
3 1889 1451 1890
3 1614 209 2389
3 1472 893 2094
3 675 821 823
3 23 24 1674
3 1788 1190 2183
3 917 941 1622
3 1763 1096 1764
3 1068 1442 1684
3 1034 1485 2173
3 2172 1533 2230
3 138 139 1694
3 1065 1570 2197
3 607 674 675
3 1536 1248 2268
3 229 135 1734
3 1437 1925 1926
3 680 510 1646
3 147 209 1537
3 26 27 1689
3 1627 705 2163
3 206 1651 2121
3 2409 1785 2462
3 1492 682 2447
3 1223 1225 1258
3 889 1772 2374
3 253 263 264
3 275 276 277
3 1455 739 2261
3 2022 1382 2176
3 150 227 1484
3 639 1019 1591
3 1449 1640 2070
3 1082 833 2214
3 1503 1502 1504
3 144 200 1717
3 1643 991 1713
3 1190 1791 2183
3 1538 1804 2073
3 1256 2269 2440
3 18 19 1676
3 521 531 2000
3 790 849 2180
3 1075 1329 1650
3 1087 1782 1785
3 1066 994 1218
3 270 269 271
3 682 1492 2494
3 185 252 1454
3 253 158 262
3 1629 1632 1633
3 200 1610 1611
3 1477 1481 2104
3 1623 1487 2465
3 1518 1097 1535
3 1414 1132 2460
3 1179 1217 1433
3 177 1506 1680
3 1392 1017 2525
3 1832 834 2075
3 675 823 1097
3 1459 2094 2134
3 1782 1087 1795
3 1838 1730 2372
3 1639 149 2528
3 1617 23 1674
3 2265 1420 2489
3 180 232 1859
3 1527 1250 1528
3 20 21 1709
3 1083 1508 2311
3 903 866 1703
3 1455 440 2314
3 1187 1858 1888
3 1659 1406 2473
3 1446 1902 2166
3 421 1951 2106
3 1598 210 2115
3 154 259 1671
3 1288 1835 2080
3 1832 1831 1879
3 1258 1225 1478
3 1024 1604 2117
3 1263 1429 1739
3 706 705 1627
3 1583 1581 2352
3 407 1805 1951
3 856 1574 2527
3 1701 882 2036
3 1624 26 1689
3 717 1551 1552
3 1385 2377 2391
3 2302 1745 2354
3 1572 1347 2157
3 1036 883 1917
3 1689 1690 1691
3 1664 1665 2128
3 1476 1479 1480
3 1751 2119 2143
3 815 814 1684
3 1790 889 2400
3 1606 1607 2085
3 265 267 268
3 418 889 1790
3 1522 1521 2091
3 135 136 1734
3 1726 1445 1729
3 647 1796 1797
3 1346 1453 2279
3 1293 1827 2117
3 1242 1244 1669
3 1853 1852 1854
3 889 2374 2400
3 1039 1038 1290
3 1524 628 2199
3 1331 1332 1571
3 1291 1290 1569
3 1475 1476 1493
3 1850 1852 1853
3 1490 1740 2456
3 1689 230 1690
3 1256 1526 1541
3 1704 1705 2167
3 1465 1470 1675
3 956 1073 1572
3 1613 1616 1956
3 916 917 1038
3 2014 1522 2091
3 1221 1222 1223
3 1999 763 2352
3 234 10 1588
3 1697 220 2335
3 1527 1528 1529
3 2298 1600 2413
3 1436 2020 2254
3 1642 1161 1678
3 1523 1385 2436
3 1730 1838 2426
3 795 796 916
3 713 711 1550
3 1456 1263 1739
3 999 1336 1663
3 1785 1784 2462
3 409 415 1783
3 607 675 1517
3 1229 1231 1526
3 1958 1855 2078
3 1589 1588 1590
3 1933 261 2380
3 762 1965 2038
3 1756 1458 2203
3 1776 597 1893
3 1794 1072 1893
3 188 1512 2266
3 1774 2339 2384
3 188 1908 1941
3 1010 1510 1767
3 2189 2285 2307
3 773 834 1917
3 1245 1669 1670
3 1248 1597 2268
3 146 1537 1609
3 818 910 1584
3 1641 1313 1651
3 1217 1745 2302
3 1065 1066 1655
3 1597 1247 2047
3 1360 2177 2376
3 1612 1615 1616
3 2126 867 2186
3 1019 683 1020
3 1747 892 1840
3 1092 1093 1623
3 261 1933 2181
3 400 424 1666
3 1516 1903 2377
3 1100 1392 1605
3 247 1738 1881
3 268 1134 1986
3 1177 823 1178
3 884 1599 1957
3 263 262 2491
3 806 1627 1948
3 1227 1229 1256
3 191 1729 2504
3 1636 1635 2502
3 1480 1479 1601
3 1721 1947 2498
3 1924 1146 2174
3 229 1734 1735
3 175 204 1725
3 1179 1178 1180
3 354 1521 2147
3 665 697 1592
3 640 646 1585
3 627 545 1636
3 1882 240 2399
3 1556 1555 1606
3 1373 1620 2394
3 1871 1071 2419
3 548 1628 1629
3 455 436 1793
3 974 1831 1841
3 1844 1413 2392
3 1612 1614 1615
3 209 1639 1937
3 1329 1330 1331
3 1823 2100 2142
3 1097 1177 1535
3 1021 1020 1022
3 825 1912 2455
3 913 1122 1874
3 400 1666 2113
3 1256 1229 1526
3 1419 1418 2450
3 1552 1551 1553
3 1850 1099 1852
3 1629 1631 1632
3 801 685 2029
3 1618 1619 1621
3 265 268 1986
3 1715 2165 2330
3 1531 1529 1534
3 1022 1024 1576
3 658 693 1746
3 703 686 1067
3 1062 1576 1577
3 1023 1022 1062
3 236 1718 2394
3 1688 502 1740
3 1501 1477 2104
3 213 165 1509
3 646 795 1585
3 196 1737 1738
3 379 679 1795
3 639 640 683
3 924 875 1767
3 1752 699 1753
3 207 2192 2315
3 627 1636 1660
3 1217 1180 1745
3 730 728 1833
3 528 561 1591
3 1444 1417 1998
3 252 186 1602
3 1729 1445 2504
3 460 502 1688
3 1418 946 1778
3 1203 1200 1693
3 548 470 1628
3 849 668 1640
3 646 785 795
3 607 276 674
3 14 15 210
3 147 148 209
3 478 460 1688
3 1709 207 2315
3 1157 1546 1608
3 1155 1731 1899
3 1524 1934 2390
3 1775 921 1876
3 1433 1502 1503
3 470 458 1628
3 1223 1224 1225
3 1291 1569 1964
3 871 1056 1826
3 1781 1783 1915
3 1587 1067 2300
3 916 1038 1039
3 1388 1387 1389
3 1611 1610 1613
3 1075 1328 1329
3 1039 1290 1291
3 1538 1265 1804
3 1184 1185 2163
3 597 598 1794
3 1450 1356 2421
3 1835 576 2080
3 1629 1628 1631
3 1331 1330 1332
3 561 639 1591
3 1476 1480 1493
3 705 703 1586
3 639 683 1019
3 1951 1188 2106
3 436 446 1793
3 1472 1297 2142
3 1332 1387 1388
3 1345 984 1720
3 1329 1328 1330
3 1050 1048 1667
3 150 151 227
3 11 12 228
3 557 541 2256
3 1831 974 1879
3 134 229 1766
3 1357 1358 1638
3 1336 1641 2299
3 1650 1482 1962
3 1591 1019 2512
3 1506 1507 1570
3 1803 801 2029
3 1178 823 1972
3 1552 1553 1554
3 1290 1038 1294
3 1028 1313 1641
3 1237 1239 1597
3 993 1017 1100
3 893 2087 2094
3 149 1484 2528
3 1768 1142 1949
3 9 234 1673
3 1554 1553 1555
3 668 632 1640
3 711 806 1550
3 1628 458 1637
3 1098 1829 1830
3 1482 1331 1483
3 531 1818 2000
3 435 419 1790
3 1156 1157 1608
3 1182 1184 2179
3 510 512 1646
3 1231 1233 1250
3 946 841 1778
3 1483 1331 1571
3 1459 680 2458
3 1166 1040 1210
3 892 1657 1820
3 1042 1445 1726
3 1019 1020 1021
3 749 805 1810
3 234 1588 1589
3 1695 242 1892
3 556 1853 2483
3 1018 1572 1573
3 1529 1528 1530
3 1606 1558 1607
3 1761 1759 2308
3 1396 1032 1921
3 1018 956 1572
3 689 1150 1416
3 1827 1293 2515
3 149 150 1484
3 1647 656 1648
3 1543 694 2196
3 399 409 1783
3 545 525 1636
3 268 269 270
3 715 713 717
3 1100 1017 1392
3 1657 892 1747
3 207 22 1617
3 1666 884 2249
3 1671 1672 1769
3 1554 1555 1556
3 146 147 1537
3 1081 1444 1822
3 711 709 806
3 1443 2005 2322
3 660 658 1746
3 1166 1458 1754
3 916 796 917
3 1056 1728 1826
3 1068 1069 1275
3 184 185 1454
3 158 159 262
3 2007 1687 2231
3 805 1708 1810
3 1672 264 1986
3 1561 1562 1563
3 978 1075 1650
3 1590 1588 2457
3 215 25 1624
3 1551 1550 1565
3 1073 1346 1347
3 857 818 1584
3 1648 656 1649
3 675 674 821
3 561 594 639
3 1731 529 1899
3 2303 1454 2535
3 981 903 1040
3 1630 1629 1633
3 993 877 1017
3 724 718 726
3 512 603 1646
3 1676 235 1858
3 814 1060 1068
3 715 717 1567
3 1796 647 1870
3 1715 1171 2165
3 678 1592 1593
3 644 613 1824
3 1690 1525 2145
3 1297 1822 1823
3 271 656 1647
3 1704 1116 1705
3 1225 1226 1227
3 1275 1069 1338
3 910 956 1018
3 1824 1596 2154
3 1403 1100 1605
3 1221 1219 1222
3 1068 1060 1069
3 1901 245 1949
3 1081 1055 1321
3 1751 563 1752
3 1021 1022 1023
3 672 638 681
3 1095 657 1848
3 1235 1237 1248
3 1561 1556 1562
3 1265 1259 1804
3 524 1819 2016
3 978 1650 2362
3 1492 516 2494
3 229 1735 2061
3 185 186 252
3 157 158 253
3 152 153 233
3 9 10 234
3 1527 1529 1531
3 1808 1344 2360
3 1062 1577 1579
3 1509 1679 1977
3 424 454 1666
3 637 638 672
3 981 1040 1166
3 1555 1558 1606
3 751 749 1810
3 1166 1210 1458
3 1651 1313 2121
3 15 16 2260
3 1633 1632 2509
3 2167 1705 2276
3 551 602 2045
3 697 818 857
3 364 1786 1883
3 832 1189 2204
3 1476 1478 1479
3 678 665 1592
3 213 1509 2096
3 1015 888 1124
3 1062 1022 1576
3 679 1782 1795
3 680 1646 1995
3 1101 1100 1403
3 1109 433 1714
3 1248 1237 1597
3 733 730 1833
3 1702 213 2096
3 499 498 1828
3 1418 1778 2521
3 637 600 638
3 1048 1046 1054
3 1577 1576 1578
3 814 766 1060
3 1279 2252 2292
3 474 470 548
3 199 18 1676
3 157 253 1441
3 1048 1054 1667
3 471 472 2290
3 625 665 678
3 795 785 796
3 1264 1265 1266
3 1437 1926 2350
3 1362 2048 2168
3 1394 2337 2371
3 454 884 1666
3 1022 1020 1024
3 751 1810 1923
3 1046 1023 1580
3 1807 1701 1931
3 1618 208 1619
3 566 588 689
3 1828 498 1829
3 501 509 1599
3 1118 780 1775
3 878 817 929
3 1510 1511 1950
3 1618 1621 1694
3 1052 1081 1822
3 1416 1150 1715
3 1239 1241 1247
3 1396 1921 2067
3 1751 1752 1753
3 1264 1259 1265
3 539 566 1600
3 1762 1127 2496
3 1673 1788 2183
3 1555 1557 1558
3 1052 1050 1055
3 725 724 825
3 1142 1770 1771
3 681 853 867
3 454 501 884
3 1346 1420 1453
3 932 1147 1770
3 1546 1545 1547
3 533 582 1818
3 1266 1337 1460
3 1872 820 2318
3 1117 1119 1713
3 1081 1321 1417
3 1253 1259 1264
3 1569 771 2135
3 1052 1055 1081
3 1181 1178 1972
3 709 706 1627
3 1073 1076 1346
3 1098 1828 1829
3 1382 1380 2176
3 1442 1275 1443
3 919 999 1663
3 1789 828 1855
3 877 815 1684
3 509 539 631
3 992 877 993
3 1266 1265 1337
3 2268 1498 2340
3 1130 1032 1396
3 1095 1603 2508
3 886 826 887
3 531 533 1818
3 1131 1400 1881
3 447 437 516
3 2460 1132 2473
3 940 1535 2418
3 768 1873 2037
3 1813 1869 1954
3 1627 2163 2488
3 1497 1495 1645
3 1198 1409 2168
3 724 726 1912
3 1869 987 1954
3 763 1999 2338
3 1010 1170 1374
3 984 976 1720
3 1470 1743 1744
3 689 588 1150
3 1901 1949 2359
3 1640 632 1862
3 274 272 1787
3 563 564 1752
3 994 817 1505
3 737 1807 1931
3 1770 1147 1771
3 1233 1235 1733
3 2450 1418 2521
3 414 410 1821
3 908 1099 1850
3 1227 1228 1229
3 1692 1203 1693
3 1625 216 2194
3 512 528 603
3 1377 1357 1638
3 1465 1464 1470
3 1360 1359 2177
3 1686 2007 2095
3 1336 1028 1641
3 1857 751 1923
3 1758 572 1759
3 553 541 557
3 1171 1715 1811
3 956 1003 1073
3 1467 1465 1675
3 719 718 724
3 1509 1977 2096
3 1734 1625 1736
3 1503 1504 1868
3 592 597 1776
3 180 181 232
3 162 163 231
3 2308 1759 2370
3 1357 1114 1358
3 875 946 1010
3 509 631 1599
3 17 18 199
3 144 145 200
3 1099 906 1792
3 1469 1467 1494
3 605 589 1939
3 1208 1205 1211
3 354 344 2091
3 692 782 804
3 1010 946 1170
3 1463 1462 1464
3 716 715 718
3 714 713 715
3 271 273 656
3 139 1618 1694
3 549 277 686
3 673 672 766
3 1378 1377 1379
3 2007 868 2095
3 999 1028 1336
3 1208 1211 1447
3 601 545 627
3 1119 1643 1713
3 1332 1333 1387
3 910 912 956
3 520 521 2000
3 828 1789 1819
3 277 607 1520
3 1338 1339 2247
3 818 819 910
3 767 766 814
3 712 711 713
3 1494 1467 1675
3 639 594 640
3 2044 557 2256
3 235 20 1709
3 1620 236 2394
3 804 919 962
3 1862 702 2070
3 681 852 853
3 1559 1556 1561
3 1622 941 2471
3 2165 1440 2330
3 612 644 692
3 697 698 818
3 1903 1516 1994
3 371 379 1795
3 428 426 2138
3 1290 1294 2064
3 1384 1904 2432
3 566 689 1600
3 471 452 472
3 1092 1091 1093
3 1002 1131 1719
3 1090 1089 1091
3 875 841 946
3 1758 1760 1763
3 1562 1606 2085
3 1833 1830 2075
3 178 179 214
3 164 165 213
3 769 923 1815
3 692 644 782
3 804 782 919
3 182 183 256
3 160 161 257
3 1329 1331 1482
3 962 1663 1664
3 1177 1179 2042
3 403 405 1805
3 1461 1460 1462
3 140 208 1618
3 1859 232 1860
3 274 1787 2099
3 1381 2126 2186
3 1558 1560 1789
3 430 428 682
3 452 435 1683
3 1487 1156 1488
3 1470 1464 1743
3 597 1794 1893
3 1244 1253 1669
3 962 919 1663
3 258 8 1673
3 1087 1785 1786
3 970 1042 1726
3 199 1677 2149
3 1664 1663 1665
3 1229 1230 1231
3 991 827 1713
3 792 1603 1848
3 1822 1444 1823
3 665 666 697
3 19 20 235
3 142 143 236
3 728 1098 1833
3 532 530 1898
3 1015 1124 1372
3 1546 1547 1548
3 1851 1850 1853
3 1877 393 2240
3 923 1105 1815
3 1090 1091 1092
3 687 686 703
3 1683 435 1790
3 887 826 1961
3 684 663 1089
3 426 1934 2138
3 464 510 680
3 853 854 855
3 568 572 1758
3 1376 1357 1377
3 1205 1203 1692
3 1607 1789 1855
3 710 709 711
3 780 781 1775
3 1434 1103 1435
3 876 815 877
3 766 672 1656
3 1393 1590 2457
3 684 1089 1090
3 530 890 1898
3 926 1920 1943
3 696 414 1821
3 1563 1562 1777
3 1054 1046 1580
3 1398 1973 1974
3 137 216 1625
3 1210 1040 1430
3 1750 563 1751
3 2010 1665 2299
3 1510 1374 1511
3 1777 1562 2085
3 1707 252 1791
3 1932 1404 1933
3 459 438 1814
3 139 140 1618
3 1093 1156 1487
3 231 163 1658
3 699 722 723
3 1545 1095 2508
3 598 612 1794
3 579 554 1880
3 1941 1908 2401
3 1231 1232 1233
3 1831 1829 1841
3 1037 1383 1799
3 177 178 1506
3 636 600 637
3 1036 1539 2286
3 1356 1114 1357
3 1523 1516 2377
3 704 703 705
3 403 402 405
3 648 792 1848
3 723 756 808
3 1388 1389 2170
3 933 932 1770
3 223 1710 1711
3 1779 399 1783
3 1223 1222 1224
3 1028 1029 1313
3 257 161 1654
3 418 412 421
3 734 882 1807
3 693 657 1095
3 1368 1370 1436
3 136 137 1625
3 688 652 817
3 1075 1327 1328
3 540 479 1813
3 398 395 402
3 548 1629 1630
3 574 591 699
3 1469 1494 1495
3 1041 1598 2175
3 167 168 202
3 175 176 204
3 2045 2046 2201
3 186 187 1602
3 886 887 888
3 1253 1254 1259
3 8 9 1673
3 792 655 810
3 843 1145 1960
3 1180 1349 1745
3 1165 1345 1512
3 708 706 709
3 136 1625 1734
3 21 22 207
3 140 141 208
3 625 626 665
3 1093 1094 1156
3 1585 795 1834
3 1117 1713 1806
3 599 579 600
3 810 871 1826
3 1047 1046 1048
3 1292 1291 1293
3 161 162 1654
3 199 1676 1677
3 1260 1282 1804
3 1005 1142 1768
3 1233 1234 1235
3 792 810 922
3 1122 1719 1737
3 976 985 1720
3 1278 1279 2292
3 2390 1934 2531
3 1436 1437 2350
3 270 271 1647
3 1199 966 1846
3 1683 1342 2212
3 656 273 2124
3 699 591 722
3 1977 1139 2096
3 1738 1719 1881
3 1722 985 1874
3 1797 1448 1798
3 162 231 1654
3 632 604 1862
3 252 1602 1791
3 1051 1050 1052
3 1045 1023 1046
3 648 655 792
3 993 1100 1101
3 1321 1055 1322
3 806 709 1627
3 904 903 981
3 1220 1267 1268
3 648 605 655
3 1737 1719 1738
3 385 399 1779
3 506 499 1828
3 1132 266 1402
3 1170 1418 1419
3 1323 2302 2354
3 24 25 215
3 137 138 216
3 721 965 1919
3 1787 1414 2460
3 778 1117 1806
3 723 722 756
3 407 403 1805
3 564 574 1752
3 1049 1048 1050
3 842 841 875
3 1608 1546 1842
3 809 808 899
3 1517 1519 1520
3 1530 1532 1533
3 889 421 1772
3 913 1002 1122
3 1314 1316 1367
3 1017 877 1684
3 841 802 1778
3 1235 1236 1237
3 751 1857 1900
3 1114 924 1767
3 1344 1644 2360
3 1895 1394 2371
3 1518 1535 1861
3 1758 1759 1760
3 1122 1002 1719
3 546 563 1750
3 1056 1726 1727
3 663 660 1746
3 621 622 625
3 1720 985 1721
3 1857 1843 1900
3 808 756 913
3 1056 970 1726
3 27 28 230
3 134 135 229
3 908 906 1099
3 163 164 1658
3 1727 1726 1729
3 7 8 258
3 154 155 259
3 1101 1403 1404
3 808 913 1874
3 1260 1269 1282
3 1389 1387 2262
3 1297 1053 1822
3 1555 1553 1557
3 1463 1464 1465
3 230 28 1765
3 1237 1238 1239
3 554 553 1880
3 775 778 1806
3 985 899 1874
3 1270 1524 2199
3 489 1820 1936
3 692 1072 1794
3 1472 2142 2272
3 1845 496 1929
3 438 431 1814
3 613 615 1824
3 1241 1242 1245
3 1783 415 1915
3 1192 2081 2149
3 178 214 1506
3 1816 988 1817
3 1760 1759 1761
3 1103 1092 1623
3 1512 1345 1661
3 1876 921 2295
3 1165 984 1345
3 978 1074 1075
3 1239 1240 1241
3 542 541 553
3 813 988 1816
3 1148 984 1165
3 871 970 1056
3 472 452 1683
3 1207 1796 1870
3 1167 1166 1754
3 1296 1053 1297
3 966 964 1846
3 976 899 985
3 982 976 984
3 702 1815 2015
3 900 899 976
3 1143 995 1206
3 1576 1024 1827
3 1235 1248 1733
3 1558 1557 1560
3 943 995 1143
3 1920 1144 1943
3 1471 2115 2477
3 29 30 255
3 132 133 254
3 1630 1633 1634
3 1225 1224 1226
3 1925 1573 1926
3 1211 1205 1692
3 725 825 826
3 1113 924 1114
3 600 579 1988
3 717 1552 1567
3 1820 1657 1936
3 674 276 2099
3 395 393 1877
3 572 543 1897
3 1575 1308 2255
3 999 1000 1028
3 1118 1775 1876
3 1797 1798 2430
3 526 546 559
3 867 853 2186
3 1142 1771 1949
3 1068 1275 1442
3 679 385 1779
3 1607 1558 1789
3 580 568 1758
3 1244 1252 1253
3 1760 1761 1762
3 398 402 403
3 1476 1258 1478
3 418 421 889
3 1771 1147 1839
3 164 213 1658
3 1720 1721 2267
3 1668 1591 2512
3 1042 1128 1445
3 1098 1830 1833
3 1102 1092 1103
3 2249 884 2466
3 1104 1103 1434
3 410 416 1821
3 514 513 541
3 580 1758 1763
3 637 673 1741
3 1913 936 1914
3 1394 1395 2337
3 919 920 999
3 577 554 579
3 2111 1660 2263
3 231 1658 1659
3 612 613 644
3 568 543 572
3 770 775 1806
3 1445 1128 1446
3 1546 1548 1842
3 448 460 478
3 810 870 871
3 1789 1560 1819
3 1154 1082 1431
3 873 973 1802
3 379 385 679
3 837 850 921
3 1461 1462 1463
3 1346 1076 1420
3 1088 1344 1808
3 2125 1143 2353
3 931 977 978
3 882 772 1802
3 29 255 1765
3 849 1513 2180
3 1713 827 1806
3 1130 1396 1397
3 681 638 852
3 1417 1321 1873
3 1654 1402 2530
3 502 526 1740
3 1124 888 2177
3 1266 1460 1461
3 515 1175 1840
3 1253 1264 1669
3 479 466 1813
3 1727 1729 1757
3 379 380 385
3 1971 1480 2514
3 1637 1739 2459
3 1207 1205 1208
3 529 519 1899
3 1129 1845 1929
3 224 1661 2267
3 192 1856 2361
3 732 734 1807
3 1184 2163 2435
3 1119 1120 1353
3 415 414 431
3 719 724 725
3 559 546 1750
3 871 872 970
3 1038 917 1622
3 574 699 1752
3 166 167 1679
3 1117 1118 1119
3 1409 1196 2035
3 617 619 621
3 1172 1173 1439
3 1191 1005 1768
3 664 663 684
3 494 493 1841
3 890 529 1731
3 840 802 841
3 493 974 1841
3 385 386 399
3 679 1779 1780
3 371 376 379
3 416 433 1109
3 670 769 1815
3 902 866 903
3 1780 1779 1781
3 480 515 1840
3 970 971 1042
3 433 448 1714
3 28 29 1765
3 1005 949 1142
3 778 780 1117
3 959 1037 1799
3 1073 1003 1076
3 535 532 1898
3 1119 1118 1120
3 658 657 693
3 1378 1379 1380
3 1397 1396 1809
3 1610 1609 1612
3 1819 1560 2016
3 1837 952 1865
3 1719 1131 1881
3 1131 1399 1400
3 1352 1138 2058
3 399 406 409
3 548 1630 2041
3 1275 1338 2251
3 582 1816 1818
3 1835 1836 2144
3 993 1101 1980
3 1699 1698 1700
3 2407 364 2505
3 1189 1190 1788
3 1117 780 1118
3 1830 1829 1831
3 637 672 673
3 692 804 1072
3 1204 1203 1205
3 1374 1170 2139
3 612 692 1794
3 1642 1408 2286
3 723 808 809
3 450 459 1812
3 409 410 414
3 802 801 1778
3 1853 1854 2483
3 1042 1127 1128
3 1199 1846 2225
3 1147 990 1273
3 1383 1384 2432
3 432 431 438
3 1353 1120 1390
3 1093 1091 1094
3 2020 250 2254
3 148 149 1639
3 606 605 648
3 1970 2016 2422
3 2201 2046 2327
3 475 471 513
3 412 407 1951
3 1991 246 2139
3 727 695 728
3 1673 234 1788
3 1554 1556 1559
3 1089 663 1746
3 1846 964 2056
3 923 991 1088
3 409 406 410
3 729 728 730
3 1424 1427 1856
3 1473 1911 2407
3 1376 1377 1378
3 1010 1374 1510
3 853 852 854
3 366 369 1087
3 772 873 1802
3 1219 1218 1626
3 1766 229 2061
3 1088 991 1344
3 922 810 1826
3 518 506 695
3 405 402 2116
3 962 1664 2316
3 913 942 1002
3 932 990 1147
3 629 813 1816
3 876 877 992
3 399 386 406
3 932 845 990
3 1002 1123 1131
3 843 996 1145
3 781 837 1775
3 262 2304 2491
3 431 696 1814
3 1273 1695 1892
3 731 730 732
3 737 732 1807
3 439 438 450
3 1829 498 1841
3 800 685 801
3 767 814 815
3 1060 766 1656
3 673 766 767
3 1403 1605 1882
3 716 718 719
3 1338 1069 1339
3 847 752 1843
3 864 862 1116
3 2302 443 2519
3 923 827 991
3 526 559 1740
3 1911 1473 2358
3 1085 1310 1867
3 809 899 900
3 1227 1226 1228
3 729 730 731
3 1436 1370 1437
3 731 732 737
3 769 827 923
3 456 452 471
3 1433 1503 2471
3 1435 1103 1623
3 385 380 386
3 1141 1787 2460
3 1354 1088 1808
3 657 649 1848
3 415 431 432
3 484 892 1820
3 727 728 729
3 855 854 1450
3 1721 1722 1723
3 1643 1353 1644
3 1145 1916 1960
3 1421 1191 1422
3 466 1812 1813
3 943 944 995
3 1356 1357 1376
3 714 715 716
3 1156 1094 1157
3 598 611 612
3 631 1600 2298
3 590 589 605
3 965 969 1919
3 416 1109 1821
3 242 1697 2335
3 1548 1547 1549
3 550 573 584
3 584 604 632
3 409 414 415
3 712 713 714
3 642 670 702
3 818 698 819
3 1006 1005 1191
3 1624 1689 1691
3 169 170 237
3 173 174 238
3 956 912 1003
3 937 936 1913
3 1317 1025 1875
3 515 540 550
3 973 1799 1800
3 973 959 1799
3 518 695 727
3 910 819 912
3 584 573 604
3 1170 946 1418
3 173 238 1847
3 550 540 573
3 982 984 1148
3 900 976 982
3 441 435 452
3 448 478 1714
3 1849 1648 2173
3 1631 1628 1637
3 1830 1831 1832
3 1383 1216 1384
3 734 772 882
3 949 933 1770
3 1332 1330 1333
3 574 575 591
3 1105 1088 1354
3 702 670 1815
3 498 494 1841
3 827 770 1806
3 873 959 973
3 1390 1391 1415
3 450 438 459
3 950 949 1005
3 351 362 364
3 1313 1029 1314
3 432 438 439
3 837 838 850
3 1273 1274 1695
3 850 851 943
3 911 952 1837
3 1259 1260 1804
3 566 587 588
3 1037 1216 1383
3 1337 1265 1538
3 1087 369 1795
3 810 655 870
3 1559 1561 1566
3 1147 1273 1839
3 732 733 734
3 1662 867 2126
3 890 1731 2241
3 1854 1852 2397
3 515 479 540
3 451 450 466
3 697 666 698
3 1367 1316 1368
3 662 660 663
3 365 355 694
3 1358 1114 1767
3 379 376 380
3 1796 1448 1797
3 179 180 1859
3 790 668 849
3 569 568 580
3 690 860 931
3 466 450 1812
3 431 414 696
3 1973 1133 1974
3 651 649 657
3 467 466 479
3 1288 1289 1835
3 264 265 1986
3 1302 1303 1304
3 592 596 597
3 1873 1321 2037
3 544 543 568
3 275 277 549
3 209 1937 2389
3 539 565 566
3 1485 227 1486
3 2384 2190 2408
3 1781 1779 1783
3 480 479 515
3 689 1416 2413
3 1108 1161 1539
3 1867 1310 1895
3 1300 1301 1302
3 1695 1696 1697
3 633 632 668
3 1304 1451 1452
3 988 911 1837
3 168 169 1724
3 969 1012 1172
3 582 629 1816
3 1843 752 1900
3 629 812 813
3 710 711 712
3 1782 1780 1784
3 536 535 543
3 1089 1746 1969
3 1108 1107 1161
3 1514 1426 1856
3 486 484 1820
3 369 371 1795
3 1817 988 1924
3 493 609 974
3 1422 1191 2023
3 1426 1424 1856
3 842 875 924
3 922 1826 2259
3 989 1361 1886
3 928 1070 1288
3 669 668 790
3 1113 1114 1356
3 1027 847 1843
3 728 695 1098
3 734 735 772
3 975 1107 1108
3 955 859 1962
3 813 911 988
3 1208 1448 1796
3 1101 1405 1980
3 602 676 2045
3 586 581 589
3 546 547 563
3 493 491 609
3 628 1524 2390
3 348 344 354
3 1298 1299 1300
3 509 538 539
3 974 609 975
3 813 891 911
3 871 870 872
3 1355 1354 1423
3 489 486 1820
3 778 779 780
3 1025 1176 1875
3 772 773 873
3 803 1743 2347
3 167 202 1679
3 873 883 959
3 1483 1571 2375
3 427 1756 2221
3 540 1813 1954
3 1202 1200 1203
3 959 1035 1037
3 837 921 1775
3 1304 1305 1451
3 1799 1383 2195
3 604 642 1862
3 1470 1744 2474
3 1854 2397 2453
3 1282 1269 1386
3 1573 1572 2157
3 472 2222 2290
3 1307 1708 2341
3 769 770 827
3 1037 1215 1216
3 791 790 856
3 1053 1052 1822
3 1056 1727 1728
3 1341 1138 1352
3 1300 1299 1301
3 1814 696 1838
3 1198 1196 1409
3 492 491 493
3 439 450 451
3 1171 858 2132
3 1259 1254 1260
3 665 626 666
3 970 872 971
3 258 1602 2357
3 1296 1297 1472
3 490 489 491
3 516 437 2494
3 1298 1027 1299
3 846 845 932
3 501 508 509
3 460 461 502
3 448 449 460
3 482 480 1840
3 1229 1228 1230
3 604 641 642
3 1424 1423 1427
3 502 503 526
3 1028 1000 1029
3 935 933 949
3 1084 1085 1867
3 2028 1711 2353
3 1513 1426 1514
3 892 482 1840
3 852 638 1988
3 402 395 1877
3 738 737 845
3 413 412 418
3 1119 1353 1643
3 526 527 546
3 280 279 281
3 1731 1155 2123
3 1042 971 1127
3 1208 1447 1448
3 433 434 448
3 262 159 2304
3 184 1454 2303
3 1051 1052 1053
3 1816 1817 1818
3 1081 1417 1444
3 781 836 837
3 911 951 952
3 1090 1092 1102
3 202 168 1724
3 1085 1309 1310
3 408 407 412
3 1337 1538 1864
3 1515 1514 1516
3 530 529 890
3 1517 1518 1519
3 549 686 687
3 923 1088 1105
3 404 403 407
3 1835 1289 1836
3 1314 1367 2121
3 1380 1379 2416
3 670 671 769
3 899 808 1874
3 1040 903 1703
3 1596 1595 2154
3 1496 1495 1497
3 636 637 1741
3 1377 1638 2288
3 1288 1070 1289
3 1072 804 1981
3 1129 1334 1845
3 1865 1084 1866
3 792 922 1603
3 1253 1252 1254
3 981 1167 1792
3 1302 1301 1303
3 1641 1651 2019
3 952 953 1084
3 1813 1812 1869
3 732 730 733
3 975 1106 1107
3 1142 949 1770
3 981 1166 1167
3 840 841 842
3 451 466 467
3 1273 990 1274
3 1049 1050 1051
3 1473 2407 2505
3 968 966 1199
3 642 643 670
3 1310 1309 1311
3 422 419 435
3 1063 833 1082
3 919 782 920
3 911 891 951
3 1084 953 1085
3 1763 1764 2164
3 1498 1497 1682
3 515 550 1175
3 1079 937 1913
3 642 702 1862
3 845 737 1931
3 1394 1311 1395
3 1395 1521 1522
3 467 479 480
3 1755 1754 1793
3 1231 1230 1232
3 1557 1553 2030
3 1624 1691 2262
3 584 632 633
3 1094 1091 1969
3 708 709 710
3 1948 1627 2488
3 952 951 953
3 1102 1103 1104
3 1047 1048 1049
3 1310 1311 1394
3 1852 1099 1985
3 143 144 1717
3 813 812 891
3 1944 1044 1945
3 1105 1354 1355
3 1300 1302 1455
3 1914 936 1940
3 1415 1391 1710
3 1299 1027 1843
3 952 1084 1865
3 1695 1274 1696
3 776 774 1928
3 282 281 283
3 2003 1347 2279
3 1206 995 1499
3 1164 1685 1686
3 1551 1565 2030
3 969 1172 1919
3 633 668 669
3 734 733 735
3 1373 1372 1438
3 599 600 636
3 1431 1860 2487
3 1579 1577 1999
3 484 482 892
3 917 940 941
3 2144 1836 2169
3 1866 1084 1867
3 1110 1747 1748
3 998 1171 1811
3 1390 1120 1391
3 644 1824 2057
3 1362 1961 2048
3 944 1283 1825
3 1086 1027 1298
3 679 1780 1782
3 974 975 1879
3 507 506 518
3 1121 1079 1401
3 775 777 778
3 1965 762 2349
3 1045 1046 1047
3 1772 421 2106
3 16 17 2081
3 416 417 433
3 921 850 2125
3 1607 1855 1958
3 649 648 1848
3 1241 1240 1242
3 2012 1443 2251
3 926 928 1920
3 1487 1488 2025
3 1006 1191 1421
3 1355 1423 1424
3 1133 852 1988
3 591 592 1776
3 1299 1843 1857
3 1085 1308 1309
3 490 491 492
3 958 694 1575
3 1384 1216 1385
3 741 915 1878
3 1233 1232 1234
3 669 790 791
3 481 480 482
3 687 703 704
3 492 493 494
3 1634 1633 1922
3 1697 1696 1698
3 1721 985 1722
3 1839 1273 1892
3 772 735 773
3 488 486 489
3 950 1005 1006
3 1513 1514 1515
3 454 500 501
3 873 773 883
3 284 283 285
3 2185 1505 2442
3 959 883 1035
3 543 535 1897
3 1904 1384 2093
3 800 801 802
3 1037 1035 1215
3 1293 1964 1965
3 1239 1238 1240
3 943 1143 2125
3 1782 1784 1785
3 913 756 942
3 488 490 1884
3 1590 1749 2501
3 1235 1234 1236
3 791 856 1408
3 702 2015 2070
3 1108 1539 1540
3 1021 1023 1045
3 695 506 1828
3 1530 1528 1532
3 488 489 490
3 1621 1619 2161
3 704 705 706
3 1304 1303 1305
3 558 1704 2167
3 625 622 626
3 542 553 554
3 604 573 641
3 664 684 685
3 564 571 574
3 1108 1540 1879
3 1856 1427 2361
3 880 1025 1129
3 1395 1311 1521
3 1466 1465 1467
3 915 495 1884
3 1515 1516 1523
3 1237 1236 1238
3 606 648 649
3 999 920 1000
3 676 829 1043
3 2100 794 2142
3 227 151 1500
3 577 579 599
3 153 154 1671
3 1175 550 1927
3 1014 888 1015
3 286 285 287
3 1649 1280 2427
3 1725 204 2137
3 975 609 1106
3 1129 1317 1334
3 1109 1730 2426
3 1468 1467 1469
3 1131 1123 1399
3 1215 2235 2378
3 1976 1149 1989
3 397 395 398
3 746 743 1878
3 1041 1343 1598
3 975 1108 1879
3 741 495 915
3 1167 1754 1755
3 288 287 289
3 743 741 1878
3 1274 990 1931
3 1506 214 1507
3 857 1584 2277
3 2341 1522 2387
3 846 932 933
3 1107 1106 1110
3 584 633 1927
3 290 289 291
3 722 591 1776
3 1544 1094 1969
3 1135 270 1647
3 935 949 950
3 1920 1288 2080
3 754 1896 2108
3 1693 1199 2225
3 292 291 293
3 394 393 395
3 745 743 746
3 1002 942 1123
3 731 737 738
3 294 293 295
3 1018 1573 1925
3 296 295 297
3 298 297 299
3 321 322 325
3 317 320 321
3 314 315 317
3 312 313 314
3 310 311 312
3 308 309 310
3 1898 890 2275
3 306 307 308
3 304 305 306
3 1401 1079 1913
3 300 299 301
3 302 303 304
3 300 301 302
3 302 301 303
3 491 489 1936
3 298 299 300
3 304 303 305
3 306 305 307
3 308 307 309
3 310 309 311
3 312 311 313
3 314 313 315
3 317 315 320
3 321 320 322
3 1301 1299 1857
3 514 541 542
3 296 297 298
3 850 838 851
3 1310 1394 1895
3 294 295 296
3 590 605 606
3 292 293 294
3 651 657 658
3 290 291 292
3 1207 1208 1796
3 835 1976 1989
3 621 619 622
3 746 1878 1896
3 481 482 483
3 1026 847 1027
3 1335 1207 1870
3 1661 59 2266
3 727 729 1155
3 288 289 290
3 1058 776 1928
3 662 663 664
3 495 488 1884
3 1959 319 2522
3 943 851 944
3 1293 1291 1964
3 534 532 535
3 640 645 646
3 2280 1014 2385
3 286 287 288
3 591 575 592
3 521 519 529
3 13 14 2114
3 780 779 781
3 918 908 1850
3 837 836 838
3 209 148 1639
3 754 748 1896
3 745 746 747
3 769 671 770
3 929 1065 2197
3 1278 1058 1279
3 483 482 484
3 1564 1557 2030
3 633 807 1927
3 392 391 393
3 1057 1621 2161
3 569 580 581
3 284 285 286
3 876 992 1894
3 497 494 498
3 1630 1635 2041
3 982 1148 1918
3 612 611 613
3 700 634 1044
3 822 674 2099
3 880 1129 1929
3 432 439 654
3 1039 1291 1292
3 1164 1686 1989
3 1129 1025 1317
3 738 845 846
3 582 583 629
3 278 6 279
3 544 568 569
3 1701 1274 1931
3 747 749 751
3 1085 953 1308
3 928 930 1070
3 747 748 749
3 1421 1422 2415
3 902 903 904
3 1309 1308 1543
3 642 641 643
3 904 981 1792
3 646 784 785
3 536 543 544
3 1204 1205 1207
3 365 694 958
3 71 72 217
3 88 89 1901
3 87 88 193
3 101 102 189
3 85 86 242
3 99 100 241
3 74 75 192
3 91 92 219
3 94 95 191
3 83 84 220
3 97 98 221
3 77 78 218
3 80 81 194
3 89 90 245
3 62 63 244
3 60 61 188
3 64 65 223
3 67 68 190
3 90 91 1909
3 98 99 1905
3 61 62 1908
3 69 70 243
3 68 69 1907
3 70 71 1910
3 410 411 416
3 586 589 590
3 685 684 2029
3 390 389 391
3 1715 1150 1811
3 1924 1837 2215
3 282 283 284
3 496 497 1929
3 233 1671 1769
3 627 2185 2442
3 1567 1552 2062
3 629 630 812
3 424 453 454
3 583 562 1942
3 749 750 805
3 744 743 745
3 1897 535 1898
3 467 480 481
3 504 759 880
3 670 643 671
3 89 245 1901
3 193 88 1901
3 221 98 1905
3 245 90 1909
3 91 219 1909
3 62 244 1908
3 188 61 1908
3 99 241 1905
3 190 68 1907
3 71 217 1910
3 69 243 1907
3 243 70 1910
3 505 499 506
3 475 513 514
3 1945 1044 2071
3 1712 2125 2353
3 339 343 440
3 989 1360 1361
3 764 869 1152
3 778 777 779
3 1686 1685 1687
3 742 741 743
3 979 989 1886
3 729 731 1887
3 926 927 928
3 1305 1306 1307
3 1838 1278 2292
3 747 746 748
3 181 182 1652
3 1886 1361 2305
3 1595 1594 2486
3 597 596 598
3 928 1288 1920
3 1970 824 2156
3 1425 1424 1426
3 497 504 1929
3 748 746 1896
3 745 747 1900
3 998 858 1171
3 563 547 564
3 1155 729 1887
3 634 583 1942
3 1439 1173 1440
3 1026 1027 1086
3 79 80 1904
3 1533 1532 1536
3 1449 1426 1513
3 1106 609 1936
3 1318 1013 1319
3 1098 695 1828
3 492 494 496
3 750 748 754
3 731 738 1887
3 2415 1422 2516
3 533 562 582
3 988 1837 1924
3 1216 1215 1863
3 534 535 536
3 747 751 1900
3 1753 809 2119
3 1183 824 1970
3 740 495 741
3 80 194 1904
3 893 383 2087
3 655 605 1939
3 1884 2034 2082
3 1301 1857 1923
3 1307 1306 1708
3 752 745 1900
3 750 754 755
3 76 77 1903
3 2090 2347 2365
3 255 30 2159
3 132 254 2160
3 448 434 449
3 753 848 926
3 1075 1074 1327
3 487 488 495
3 377 381 647
3 483 484 485
3 755 754 2148
3 1584 1925 2277
3 1186 1183 1970
3 951 891 1281
3 485 484 486
3 546 527 547
3 133 134 1766
3 1786 1785 2409
3 280 281 282
3 460 449 461
3 744 745 752
3 77 218 1903
3 983 1918 2342
3 1708 1306 1810
3 1389 2069 2170
3 487 486 488
3 641 573 1954
3 507 518 519
3 502 461 503
3 519 518 1899
3 1202 1203 1204
3 821 897 1972
3 92 93 1902
3 521 529 530
3 749 748 750
3 2176 1380 2416
3 885 826 886
3 485 486 487
3 371 372 376
3 1289 1070 1871
3 1110 1657 1747
3 753 926 1943
3 700 1044 1944
3 880 881 1025
3 496 1845 2034
3 1072 1981 2393
3 462 464 2134
3 1949 1771 2359
3 1044 634 1942
3 550 584 1927
3 1390 1415 2118
3 526 503 527
3 990 845 1931
3 1009 1213 1214
3 740 742 1144
3 219 92 1902
3 727 1155 1899
3 369 370 371
3 623 690 2150
3 1279 1058 1928
3 1408 2235 2286
3 487 495 740
3 979 1886 2086
3 1305 1303 1306
3 421 412 1951
3 843 844 996
3 633 669 807
3 518 727 1899
3 826 825 1961
3 1657 1106 1936
3 1172 1012 1173
3 740 741 742
3 433 417 434
3 505 506 507
3 1333 1674 2437
3 742 743 744
3 469 458 470
3 1381 1380 1382
3 1293 1965 2515
3 1554 1559 2062
3 553 557 2499
3 1774 389 2339
3 497 498 499
3 483 485 576
3 740 1144 1935
3 773 735 834
3 366 367 369
3 1120 1118 1876
3 1515 1523 1574
3 1319 1013 2039
3 1303 1301 1923
3 457 447 458
3 561 593 594
3 1355 1424 1425
3 609 491 1936
3 204 1732 2137
3 791 1408 1642
3 995 944 1825
3 456 471 475
3 1692 1693 2239
3 580 1763 2164
3 1292 1293 2117
3 441 452 456
3 388 384 389
3 823 821 1972
3 504 880 1929
3 176 177 1680
3 1070 1071 1871
3 15 2260 2477
3 362 363 366
3 2178 2300 2449
3 1035 883 1036
3 2285 1563 2307
3 978 977 1074
3 1090 1102 2029
3 1810 1306 1923
3 496 494 497
3 1306 1303 1923
3 432 654 1915
3 934 933 935
3 356 355 365
3 398 403 404
3 635 701 843
3 1110 1106 1657
3 574 571 575
3 1025 881 1176
3 386 380 786
3 415 432 1915
3 343 347 1911
3 1070 930 1071
3 1688 1740 2231
3 1385 1216 1863
3 1696 1274 1701
3 1645 305 2317
3 880 759 881
3 926 848 927
3 1427 1423 2217
3 1339 1662 2388
3 770 774 775
3 1263 1257 1428
3 1337 1864 2412
3 349 348 355
3 2267 1721 2498
3 753 752 847
3 1375 1086 1473
3 900 982 983
3 332 335 739
3 429 428 430
3 744 752 753
3 1171 2132 2165
3 1425 1426 1449
3 987 641 1954
3 1883 1786 2409
3 427 426 428
3 928 927 930
3 1815 1105 2015
3 1206 1499 1941
3 410 406 411
3 573 540 1954
3 497 499 504
3 528 560 561
3 1933 1404 2399
3 1091 1089 1969
3 1804 1282 2073
3 504 505 759
3 963 924 1113
3 1711 1710 1712
3 881 759 1146
3 968 1199 1200
3 351 352 362
3 848 847 1026
3 521 530 531
3 1884 490 2034
3 1277 957 1966
3 1349 1350 2329
3 676 1043 2045
3 997 1159 1286
3 517 1889 1890
3 781 835 836
3 944 948 1283
3 722 1776 2026
3 507 519 520
3 2040 1352 2058
3 1276 957 1277
3 446 437 447
3 931 860 977
3 361 359 765
3 1248 1536 2534
3 512 523 528
3 408 412 413
3 1368 1369 1370
3 451 2169 2223
3 192 75 1994
3 942 756 2026
3 345 344 348
3 764 1152 1963
3 413 418 419
3 1286 1773 1774
3 770 671 774
3 275 549 2124
3 1497 1645 2461
3 1982 1472 2272
3 422 435 441
3 281 279 736
3 1134 270 1135
3 582 562 583
3 1421 2415 2454
3 485 487 1935
3 2300 1067 2480
3 1578 1576 1827
3 930 927 1061
3 1026 1086 1375
3 922 2259 2379
3 1391 1120 1876
3 1495 1494 2493
3 404 407 408
3 879 2178 2449
3 1700 1698 2036
3 607 1517 1520
3 753 847 848
3 416 411 417
3 1144 742 1943
3 775 776 777
3 754 2108 2148
3 1006 1421 1953
3 585 581 586
3 531 530 532
3 235 1709 1888
3 520 519 521
3 1180 1181 1349
3 1146 759 1967
3 708 710 1921
3 1350 2253 2329
3 436 430 437
3 504 499 505
3 643 641 987
3 336 330 517
3 811 1059 1149
3 1164 1411 1685
3 846 933 934
3 635 843 1960
3 983 982 1918
3 971 872 1096
3 1149 1163 1164
3 169 237 1724
3 1314 1315 1316
3 629 583 630
3 891 812 1916
3 462 463 464
3 487 740 1935
3 798 2084 2189
3 1814 1838 2292
3 1284 1489 1491
3 340 336 2014
3 1670 1461 2200
3 920 782 2057
3 890 2241 2275
3 510 511 512
3 278 279 280
3 839 802 840
3 1858 235 1888
3 1698 1696 2036
3 104 105 222
3 57 58 224
3 1185 1183 1186
3 588 587 623
3 638 600 1988
3 1282 1386 2245
3 811 776 1058
3 816 815 876
3 2034 1845 2082
3 761 636 1741
3 566 565 587
3 174 175 1725
3 347 350 351
3 1469 1495 1496
3 1059 1058 1278
3 811 1149 1976
3 576 485 1935
3 659 658 660
3 859 1153 1962
3 76 1903 1994
3 1821 1109 2426
3 1294 1038 1622
3 733 1833 2075
3 992 993 1980
3 1566 1561 2285
3 525 474 2041
3 464 465 510
3 343 346 347
3 360 893 1982
3 650 649 651
3 896 608 936
3 950 1006 1007
3 1508 1859 1860
3 539 538 565
3 440 343 1911
3 341 340 344
3 221 1905 1906
3 1297 1823 2142
3 759 505 1967
3 1295 1053 1296
3 473 470 474
3 1463 1465 1466
3 1143 1206 2028
3 799 685 800
3 1210 2077 2203
3 509 508 538
3 492 496 2034
3 1553 1551 2030
3 1260 1261 1269
3 1430 1040 1703
3 586 590 1940
3 838 836 868
3 1705 624 2276
3 1749 972 2501
3 742 744 1943
3 804 962 1981
3 1367 1368 2254
3 531 532 533
3 337 336 340
3 1157 1094 1544
3 536 544 1158
3 812 630 1960
3 781 779 835
3 56 57 1947
3 630 583 634
3 1405 1404 1932
3 1281 891 1916
3 339 342 343
3 1411 1163 1730
3 322 323 324
3 344 340 2091
3 1735 1734 1736
3 75 76 1994
3 430 682 2494
3 1907 243 2360
3 589 581 2164
3 694 355 2196
3 744 753 1943
3 775 774 776
3 1210 1430 2077
3 335 338 339
3 1102 1803 2029
3 1078 937 1079
3 870 655 1939
3 505 507 1967
3 357 360 1982
3 1896 1878 2101
3 326 325 328
3 934 935 957
3 585 608 895
3 333 330 336
3 1270 1272 1524
3 688 817 878
3 507 520 1967
3 1428 1257 2074
3 1818 1817 2000
3 896 937 1077
3 934 957 1111
3 329 328 330
3 1499 995 1825
3 944 851 948
3 387 445 462
3 1678 1161 2228
3 777 776 811
3 313 311 757
3 324 331 332
3 848 1026 1955
3 1312 998 1811
3 1321 1322 2037
3 1080 1079 1121
3 1105 1355 2015
3 1645 2317 2461
3 1559 1568 2062
3 332 334 335
3 501 500 508
3 321 325 326
3 394 395 397
3 322 320 323
3 1529 1530 2171
3 1137 797 1138
3 811 1058 1059
3 661 660 662
3 569 581 585
3 183 4 2303
3 5 160 2304
3 1340 1138 1341
3 1660 1626 2185
3 1743 1464 2347
3 1026 1375 1955
3 1149 1059 1163
3 1736 1625 2194
3 1322 1667 2434
3 311 309 1959
3 309 307 319
3 894 700 1944
3 533 534 562
3 1276 1277 1366
3 2190 1706 2408
3 533 532 534
3 1214 1213 1410
3 1164 1163 1411
3 843 701 844
3 1009 1214 2055
3 234 1589 1788
3 2000 1817 2174
3 317 321 2050
3 328 325 945
3 392 393 394
3 588 623 2089
3 1162 958 1681
3 1078 1080 1136
3 927 848 1955
3 1496 1497 1498
3 390 391 392
3 1061 927 1955
3 1283 948 1284
3 635 634 700
3 1244 1251 1252
3 218 78 2093
3 756 722 2026
3 1071 1784 2419
3 1218 1505 2185
3 1284 948 1285
3 1489 1285 1490
3 918 1850 1851
3 684 1090 2029
3 1759 572 2537
3 1691 1690 2446
3 1979 1158 2071
3 606 649 650
3 2045 1043 2046
3 103 104 2025
3 630 634 635
3 360 383 893
3 406 386 2043
3 1909 219 2023
3 1111 957 1276
3 1925 1437 2277
3 1536 2268 2340
3 854 852 1133
3 233 153 1671
3 651 658 659
3 2099 1787 2368
3 1033 1032 1130
3 1015 1372 1373
3 1412 942 2026
3 253 264 1441
3 1531 1534 2332
3 701 700 894
3 106 107 1990
3 2048 1961 2455
3 276 274 2099
3 738 846 1968
3 1325 925 1326
3 896 936 937
3 585 586 608
3 1450 854 1973
3 1361 1360 1362
3 1045 1668 2512
3 303 301 444
3 996 844 997
3 79 1904 2093
3 1989 1686 2095
3 1928 774 2033
3 1942 562 1979
3 287 285 316
3 935 950 1966
3 1466 1467 1468
3 1242 1243 1244
3 1887 738 1968
3 2115 210 2477
3 878 929 1083
3 1326 1736 2194
3 886 888 1014
3 895 608 896
3 289 287 1978
3 821 822 897
3 936 608 1940
3 613 614 615
3 51 52 1996
3 417 411 1160
3 1149 1164 1989
3 386 786 2043
3 285 283 1971
3 1309 1543 2147
3 375 373 2053
3 371 370 372
3 779 777 1976
3 1286 1159 1773
3 2177 887 2376
3 1560 1557 1564
3 1403 1882 2399
3 1727 1757 2246
3 279 6 2049
3 1619 1438 2438
3 291 289 758
3 1781 1915 2294
3 425 401 426
3 349 355 356
3 66 67 2118
3 474 548 2041
3 1686 1687 2007
3 1262 1456 1457
3 1123 942 1412
3 1916 812 1960
3 1355 1425 2015
3 735 733 2075
3 1861 879 2449
3 1284 1285 1489
3 490 492 2034
3 366 363 367
3 980 578 2051
3 906 904 1792
3 534 536 1979
3 842 924 963
3 2051 578 2083
3 1077 937 1078
3 1102 1104 1803
3 894 1944 1946
3 398 404 2060
3 1007 1006 1953
3 369 367 370
3 348 354 2196
3 1078 1079 1080
3 1378 1380 1381
3 1568 1365 2439
3 608 586 1940
3 598 610 611
3 760 636 761
3 869 1137 1351
3 671 643 2033
3 1661 1345 2267
3 938 914 1057
3 783 761 914
3 576 1835 2144
3 388 389 390
3 297 295 318
3 454 453 500
3 1906 1728 2246
3 1439 1440 2468
3 1159 1013 1318
3 764 797 869
3 236 143 1717
3 782 644 2057
3 592 595 596
3 1542 2332 2443
3 1521 1311 2147
3 345 348 349
3 1304 1452 2205
3 1644 1907 2360
3 2146 1125 2149
3 997 844 1013
3 628 375 2053
3 299 297 1984
3 957 935 1966
3 664 685 799
3 301 299 1975
3 362 352 363
3 777 811 1976
3 1942 1979 2071
3 1001 920 2057
3 312 314 768
3 1552 1554 2062
3 615 616 617
3 357 1982 2076
3 800 802 839
3 774 671 2033
3 1749 1169 2105
3 365 958 1162
3 617 618 619
3 283 281 1938
3 1351 1772 2414
3 1525 1765 2489
3 846 934 1968
3 635 700 701
3 555 554 577
3 536 1158 1979
3 1101 1404 1405
3 630 635 1960
3 1811 1150 2089
3 2113 1666 2249
3 172 173 1847
3 107 108 195
3 54 55 196
3 1191 1768 2023
3 1455 1302 2205
3 115 116 2017
3 1387 1333 2437
3 659 661 764
3 1080 1121 1188
3 50 51 2011
3 411 406 2043
3 295 293 1983
3 643 987 2033
3 707 706 708
3 129 130 261
3 32 33 260
3 2159 260 2265
3 449 434 567
3 1314 1029 1315
3 917 796 940
3 378 375 628
3 108 109 1991
3 2370 1759 2537
3 341 344 345
3 997 1013 1159
3 544 569 1993
3 950 1007 1966
3 477 474 525
3 351 350 352
3 1696 1701 2036
3 334 331 803
3 1137 1138 1340
3 562 534 1979
3 109 110 246
3 52 53 247
3 1368 1316 1369
3 659 660 661
3 33 34 2002
3 123 124 2005
3 835 779 1976
3 851 838 1992
3 1530 1533 2172
3 1668 1045 2348
3 1162 1681 1706
3 342 338 468
3 298 300 358
3 765 359 2065
3 725 826 885
3 35 36 2003
3 46 47 2019
3 38 39 2006
3 336 517 2014
3 934 1111 1968
3 116 117 2018
3 650 651 1963
3 223 1711 2162
3 640 594 645
3 1333 1330 2192
3 104 222 2025
3 1603 922 2379
3 963 1113 1115
3 2084 1193 2189
3 564 570 571
3 36 37 2004
3 57 224 1947
3 1542 1601 2269
3 122 123 2012
3 1000 920 1001
3 127 128 240
3 34 35 239
3 383 387 2087
3 1161 1107 2228
3 1781 2294 2419
3 1201 1200 1202
3 124 125 225
3 37 38 226
3 1340 1341 1342
3 869 797 1137
3 839 840 1008
3 1158 544 1993
3 1326 925 1894
3 352 350 353
3 326 329 954
3 1864 2344 2412
3 836 835 2095
3 1051 1053 1295
3 1031 720 1032
3 503 461 787
3 1407 1112 2044
3 661 662 2058
3 838 868 1992
3 112 113 197
3 49 50 198
3 1359 980 1413
3 121 122 211
3 40 41 212
3 48 49 2010
3 113 114 2009
3 1741 673 2131
3 41 42 2020
3 120 121 2013
3 1409 2035 2097
3 1511 1374 2506
3 114 115 248
3 47 48 249
3 42 43 250
3 119 120 251
3 171 6 201
3 6 172 203
3 585 895 1993
3 43 44 2024
3 118 119 2021
3 905 904 906
3 764 661 797
3 337 340 341
3 1413 980 2051
3 117 118 205
3 44 45 206
3 347 346 350
3 1420 1076 1525
3 324 323 331
3 434 417 2031
3 965 967 969
3 716 719 788
3 1260 1254 1261
3 2053 373 2103
3 2069 2068 2170
3 326 328 329
3 1706 996 2408
3 273 275 2124
3 969 1011 1012
3 590 606 2001
3 1718 1611 2280
3 1914 1940 2001
3 915 1884 2082
3 329 330 333
3 620 859 955
3 2168 1409 2305
3 296 298 1997
3 915 2082 2101
3 339 338 342
3 1218 994 1505
3 333 336 337
3 266 263 1742
3 1873 768 2127
3 244 63 2162
3 64 223 2162
3 343 342 346
3 914 761 2258
3 310 312 1987
3 799 800 2055
3 302 304 763
3 1559 1566 1568
3 1598 1343 2114
3 592 575 595
3 341 345 794
3 189 1842 2220
3 767 815 816
3 1003 912 1004
3 839 1008 1009
3 1263 1428 1429
3 564 547 570
3 1845 1334 2082
3 332 331 334
3 901 866 902
3 651 659 1963
3 1009 1112 1213
3 335 334 338
3 569 585 1993
3 1665 1336 2299
3 1945 2071 2153
3 863 862 864
3 907 906 908
3 1849 1486 1930
3 1935 1144 2080
3 967 966 968
3 809 900 2119
3 865 864 866
3 835 1989 2095
3 190 1907 2417
3 333 337 522
3 1110 1748 2228
3 1193 1194 1195
3 94 191 2166
3 473 1854 2453
3 1769 1134 2369
3 948 851 1992
3 237 170 2216
3 420 419 422
3 1448 1447 2364
3 483 576 2144
3 721 1919 2032
3 885 886 1891
3 613 611 614
3 886 1014 1891
3 1160 411 2043
3 1918 1283 2342
3 1651 206 2485
3 1242 1240 1243
3 598 596 610
3 1295 1296 1459
3 1185 1186 1948
3 1425 1449 2070
3 294 296 762
3 1285 948 1992
3 925 876 1894
3 712 714 789
3 603 1668 2398
3 1940 590 2001
3 721 570 964
3 834 735 2075
3 1144 1920 2080
3 2263 1635 2511
3 1204 1207 1335
3 2235 1408 2378
3 965 964 966
3 1990 1435 2218
3 397 398 2060
3 1138 797 2058
3 1787 1141 2368
3 2068 820 2170
3 360 359 361
3 387 462 2087
3 1524 1272 1934
3 819 698 820
3 1197 1196 1198
3 1662 2126 2388
3 78 79 2093
3 1150 588 2089
3 1269 1261 1270
3 1878 915 2101
3 451 467 2169
3 2262 1387 2437
3 1009 1008 1112
3 757 311 1959
3 897 898 1139
3 1854 473 2483
3 2015 1425 2070
3 2082 1334 2101
3 963 1115 1174
3 1047 1049 1287
3 1194 423 1196
3 321 326 2050
3 417 1160 2031
3 854 1133 1973
3 1201 1212 1348
3 705 1586 2163
3 309 319 1959
3 1353 1390 2417
3 427 428 429
3 357 356 359
3 606 650 2001
3 549 1280 2124
3 1213 1112 1407
3 256 2303 2535
3 356 365 2065
3 662 664 2040
3 701 894 2039
3 1325 1371 2451
3 666 626 667
3 1902 93 2166
3 1236 1234 1246
3 800 839 2055
3 1869 1812 2252
3 1197 1364 1365
3 576 1935 2080
3 404 408 798
3 1678 807 2529
3 1560 1564 2016
3 1319 2039 2122
3 425 426 427
3 349 356 357
3 308 310 327
3 1716 622 2484
3 1801 82 2289
3 1768 1949 2420
3 2006 1926 2507
3 351 364 2407
3 420 423 1193
3 659 764 1963
3 292 294 2038
3 840 842 2027
3 736 279 2049
3 372 373 374
3 461 449 2052
3 2189 1195 2285
3 1174 1115 1398
3 367 363 961
3 909 908 918
3 1738 247 2402
3 1007 1761 2308
3 288 290 2135
3 422 441 2035
3 623 624 690
3 537 525 545
3 1953 1421 2454
3 1887 1968 2123
3 861 691 862
3 654 439 2223
3 1136 1080 2054
3 1312 1811 2089
3 575 571 2032
3 383 361 384
3 968 1200 1201
3 797 661 2058
3 1423 1354 2381
3 1180 1178 1181
3 1513 1515 2180
3 72 73 2217
3 462 445 463
3 12 13 2136
3 457 458 469
3 542 554 555
3 599 636 760
3 254 133 1766
3 1130 1397 1937
3 404 798 2060
3 1044 1942 2071
3 690 691 860
3 357 359 360
3 1008 2027 2152
3 1232 1230 1255
3 372 370 373
3 850 943 2125
3 1457 1456 1492
3 1952 324 2282
3 155 2 2356
3 0 7 2357
3 2017 1379 2288
3 918 1851 2008
3 195 1991 2517
3 2090 803 2347
3 1244 1243 1251
3 290 292 368
3 1432 1082 2214
3 1008 840 2027
3 1743 803 2296
3 1013 844 2039
3 365 1162 2065
3 1594 1315 2184
3 387 384 388
3 1508 1860 2311
3 547 527 2056
3 2005 225 2322
3 314 317 2127
3 1853 556 2327
3 201 6 278
3 1907 1644 2417
3 1896 2101 2108
3 646 645 784
3 538 508 558
3 374 375 377
3 1630 1634 1635
3 1579 1999 2352
3 1647 1648 1849
3 1313 1314 2121
3 1179 1433 2042
3 844 701 2039
3 1252 1251 2098
3 816 876 925
3 1922 1228 2281
3 392 394 396
3 1915 654 2294
3 1652 1653 2487
3 429 430 436
3 456 475 476
3 1605 1392 2510
3 126 1882 2284
3 1784 1780 2419
3 500 453 960
3 377 378 381
3 2178 1587 2300
3 1222 1219 1626
3 413 419 420
3 381 382 400
3 2169 1836 2223
3 1906 1905 2129
3 616 614 793
3 1170 1419 2139
3 101 189 2220
3 241 100 2220
3 1968 1111 2123
3 567 434 2031
3 615 614 616
3 1032 720 1921
3 682 428 2138
3 469 470 473
3 339 440 2261
3 1501 238 2226
3 1154 1431 1653
3 446 447 457
3 1251 1243 1257
3 2229 315 2495
3 1201 1202 1212
3 785 784 879
3 464 463 465
3 66 2118 2395
3 324 332 2282
3 286 288 771
3 17 199 2081
3 571 570 721
3 611 610 2092
3 617 616 618
3 1542 1531 2332
3 400 401 424
3 1325 1326 1371
3 1140 1406 1702
3 1323 443 2302
3 1926 1573 2507
3 436 437 446
3 1262 1457 2098
3 67 190 2118
3 1518 1861 2449
3 989 1359 1360
3 1063 1082 1154
3 1757 96 2526
3 969 967 1011
3 868 836 2095
3 1215 1035 2235
3 96 1757 2309
3 261 2160 2380
3 1381 1382 2126
3 1468 1469 2182
3 1334 1317 2108
3 861 863 1064
3 1270 1261 1271
3 360 361 383
3 287 316 1978
3 1856 192 2367
3 1905 241 2129
3 1615 1809 2425
3 528 523 560
3 979 980 989
3 662 2040 2058
3 721 964 965
3 170 171 2216
3 664 799 2040
3 512 511 523
3 1201 1348 2107
3 620 618 858
3 758 289 1978
3 859 858 998
3 424 425 453
3 1616 1615 2193
3 444 301 1975
3 561 560 593
3 965 966 967
3 1798 376 2430
3 340 2014 2091
3 510 465 511
3 107 195 1990
3 1080 1188 2054
3 1153 998 1312
3 1226 1224 1249
3 1012 1011 1363
3 902 904 905
3 842 963 2027
3 268 270 1134
3 865 901 1125
3 2077 558 2102
3 282 284 442
3 1977 1679 2253
3 1496 1498 2047
3 284 286 2063
3 281 736 1938
3 2132 793 2165
3 1674 215 2437
3 2078 1855 2411
3 839 1009 2055
3 1182 824 1183
3 1168 947 1169
3 1289 1871 2242
3 316 285 1971
3 1270 1271 1272
3 1755 1793 2264
3 51 1996 2011
3 383 384 387
3 1146 1924 2215
3 1279 1928 2202
3 619 618 620
3 1194 1196 1197
3 555 578 979
3 1937 1639 2528
3 1262 1257 1263
3 389 384 2339
3 2251 1338 2464
3 1155 1887 2123
3 1151 1937 2528
3 465 463 828
3 1318 1319 2116
3 1687 1688 2231
3 326 954 2050
3 297 318 1984
3 1308 953 2255
3 1846 2056 2198
3 320 315 2229
3 1254 1252 2059
3 760 761 783
3 951 1281 2255
3 1459 1296 2094
3 2288 1638 2470
3 1975 299 1984
3 52 247 1996
3 468 338 2090
3 2140 1511 2506
3 1125 1126 1192
3 593 824 1182
3 720 708 1921
3 704 706 707
3 623 587 624
3 2044 1112 2152
3 1393 1169 1749
3 900 983 2119
3 783 914 938
3 255 2265 2489
3 2039 894 2122
3 317 2050 2127
3 1866 1867 2513
3 374 373 375
3 429 436 455
3 387 388 445
3 1193 423 1194
3 555 577 578
3 1074 977 1187
3 449 567 2052
3 1197 1198 1364
3 2154 1595 2486
3 1486 1849 2173
3 318 295 1983
3 939 1016 1844
3 131 132 2160
3 30 31 2159
3 881 1146 2215
3 1294 1868 2238
3 1300 1455 2314
3 1365 1364 1912
3 783 938 939
3 2061 1735 2441
3 551 545 601
3 2194 216 2536
3 1251 1257 1262
3 888 887 2177
3 1364 1198 2048
3 1498 1682 2340
3 1589 1590 2501
3 60 188 2266
3 1401 1913 2324
3 195 108 1991
3 420 422 423
3 1675 1470 2474
3 258 1673 2183
3 2161 1619 2438
3 1296 1472 2094
3 1808 1910 2381
3 334 803 2090
3 1490 1285 2232
3 523 511 524
3 1240 1238 2074
3 1184 1183 1185
3 39 40 2151
3 473 474 477
3 1461 1463 2200
3 2072 353 2073
3 861 862 863
3 1206 1941 2401
3 958 1575 2287
3 614 611 2092
3 110 111 2140
3 1136 2054 2110
3 645 594 2133
3 260 33 2002
3 673 767 2131
3 989 980 1359
3 1741 2131 2258
3 1317 1875 2148
3 894 1946 2122
3 863 864 865
3 787 461 2052
3 857 2277 2386
3 109 246 1991
3 2017 116 2018
3 1182 1183 1184
3 377 375 378
3 816 925 1324
3 865 866 901
3 1262 1263 1456
3 359 356 2065
3 2129 241 2472
3 283 1938 1971
3 1458 1210 2203
3 1076 1003 2145
3 196 1738 2402
3 1033 1130 1151
3 1188 1121 2106
3 1140 1702 2096
3 549 687 1280
3 1694 1621 2191
3 861 1064 2112
3 1548 1549 2129
3 1784 1071 2462
3 714 716 2066
3 1961 825 2455
3 1447 1211 2250
3 979 578 980
3 905 907 1209
3 381 378 382
3 457 469 552
3 595 575 2032
3 408 413 2084
3 481 483 2144
3 1745 1349 2293
3 1980 1405 2441
3 198 50 2011
3 248 115 2017
3 912 819 2068
3 620 858 859
3 707 708 720
3 821 674 822
3 514 542 2086
3 400 382 401
3 123 2005 2012
3 1772 1351 2374
3 34 239 2002
3 768 314 2127
3 2003 36 2004
3 280 282 2079
3 124 225 2005
3 596 595 2130
3 593 560 824
3 1504 1502 2519
3 239 35 2003
3 1311 1309 2147
3 1318 1877 2240
3 1860 1432 2311
3 1416 1715 2330
3 859 998 1153
3 352 353 2072
3 312 768 1987
3 2027 1174 2152
3 226 38 2006
3 1827 1024 2117
3 1710 1391 2295
3 690 624 691
3 37 226 2004
3 1153 1312 1885
3 853 855 2186
3 1892 242 2373
3 1967 520 2174
3 939 938 1016
3 47 249 2019
3 388 390 2078
3 1991 2139 2517
3 905 906 907
3 571 721 2032
3 1196 423 2035
3 1324 925 1325
3 1151 1130 1937
3 363 352 2072
3 345 349 2076
3 1031 1032 1033
3 214 179 1859
3 211 122 2012
3 602 601 652
3 117 205 2018
3 710 712 2067
3 1602 187 2357
3 520 2000 2174
3 85 242 2335
3 220 84 2335
3 381 400 2113
3 1586 1587 2435
3 424 401 425
3 963 1174 2027
3 860 691 861
3 610 596 2130
3 1958 2078 2431
3 570 547 2056
3 237 2216 2354
3 1211 1692 2219
3 298 358 1997
3 909 947 1041
3 441 456 2097
3 1135 1647 1849
3 1601 1542 2443
3 197 113 2009
3 49 198 2010
3 1911 347 2407
3 1729 191 2309
3 212 41 2020
3 121 211 2013
3 222 105 2218
3 1125 901 1126
3 114 248 2009
3 249 48 2010
3 42 250 2020
3 251 120 2013
3 233 1769 2369
3 1870 647 2113
3 794 345 2076
3 250 43 2024
3 119 251 2021
3 901 902 2141
3 964 570 2056
3 739 335 2261
3 2108 1317 2148
3 577 599 2083
3 205 118 2021
3 44 206 2024
3 1247 1241 2323
3 1894 992 2244
3 6 203 2049
3 1642 1678 2529
3 1417 1873 2333
3 1422 2023 2516
3 341 794 2100
3 73 74 2361
3 1234 1232 2088
3 1261 1254 2059
3 896 1077 2257
3 1921 710 2067
3 125 126 2284
3 220 1699 2289
3 159 5 2304
3 4 184 2303
3 2059 1252 2098
3 1003 1004 2145
3 2328 1325 2451
3 1486 227 1500
3 63 64 2162
3 2081 1192 2260
3 508 500 2102
3 667 1872 2318
3 338 334 2090
3 423 422 2035
3 1192 1126 1471
3 907 908 909
3 1330 1328 2192
3 1972 897 2500
3 2443 316 2514
3 242 86 2373
3 87 193 2373
3 420 1193 2084
3 1473 1086 2358
3 1987 768 2037
3 522 337 2100
3 627 1660 2185
3 1793 446 2264
3 1405 2061 2441
3 1502 1217 2302
3 171 201 2216
3 1158 1993 2153
3 1197 1365 2120
3 1712 1710 2295
3 1121 1401 2414
3 93 94 2166
3 653 652 688
3 622 1716 2452
3 1345 1720 2267
3 477 537 556
3 128 129 2181
3 2331 1295 2458
3 784 645 874
3 1269 1270 2199
3 189 102 2355
3 1041 1168 1343
3 246 110 2140
3 477 525 537
3 755 1895 2371
3 1947 1723 2313
3 1134 1135 2369
3 223 65 2395
3 968 1201 2107
3 1577 1578 2325
3 210 15 2477
3 961 363 2072
3 1581 1579 2352
3 349 357 2076
3 337 341 2100
3 305 303 2317
3 370 367 2103
3 762 296 1997
3 581 580 2164
3 1278 1838 2372
3 1548 2129 2472
3 594 593 2133
3 2021 251 2022
3 2047 1247 2182
3 967 968 2107
3 1169 947 2008
3 481 2144 2169
3 793 614 2092
3 1910 217 2381
3 1251 1262 2098
3 716 788 2066
3 2101 1334 2108
3 2006 39 2151
3 1603 2379 2508
3 1926 2006 2151
3 96 97 2526
3 750 755 2371
3 789 714 2066
3 909 918 947
3 1993 895 2153
3 106 1990 2218
3 1243 1240 2074
3 832 986 1189
3 1283 1284 2342
3 2297 195 2517
3 1043 829 2326
3 767 816 2131
3 602 653 676
3 1004 912 2068
3 2086 1886 2224
3 1124 2177 2467
3 426 401 2531
3 707 720 1030
3 1000 1001 2184
3 1315 1029 2184
3 467 481 2169
3 541 513 2256
3 647 381 2113
3 225 2284 2510
3 2 156 2356
3 187 0 2357
3 40 212 2151
3 2245 1386 2383
3 676 677 829
3 1004 2068 2069
3 1860 232 2487
3 1031 1033 1034
3 829 830 972
3 996 997 2408
3 1195 1194 2120
3 987 1869 2202
3 1410 1213 2222
3 819 820 2068
3 1485 1486 2173
3 1564 2030 2155
3 807 669 2529
3 129 261 2181
3 1525 1076 2145
3 578 577 2083
3 327 310 1987
3 1083 929 2197
3 2131 1324 2258
3 798 408 2084
3 1838 696 2426
3 1486 1500 1930
3 1946 1944 2291
3 2257 1077 2291
3 1512 1661 2266
3 445 388 2078
3 1192 1471 2260
3 2118 1415 2395
3 1466 1468 2158
3 830 677 831
3 211 2012 2251
3 652 601 2442
3 537 545 551
3 558 508 2102
3 198 2011 2128
3 1718 2280 2385
3 500 960 2102
3 1168 1169 1393
3 1127 971 2496
3 95 96 2309
3 2030 1565 2155
3 1919 1172 2273
3 977 860 2112
3 240 128 2181
3 294 762 2038
3 1800 1799 2195
3 712 789 2067
3 972 1749 2326
3 472 1683 2212
3 874 645 2133
3 551 2045 2201
3 2105 1043 2326
3 1957 1212 2301
3 1514 1856 2367
3 565 538 2167
3 373 370 2103
3 355 348 2196
3 1934 1272 2138
3 1934 426 2531
3 1881 1400 2481
3 2046 1851 2327
3 367 961 2103
3 1963 1152 2206
3 201 278 443
3 3 131 2444
3 31 1 2445
3 2035 441 2097
3 503 787 2198
3 1135 1849 1930
3 1534 1983 2306
3 2089 623 2150
3 687 704 2109
3 869 1351 2363
3 1302 1304 2205
3 955 1716 2484
3 1030 720 1031
3 1159 1318 2240
3 1228 1226 2281
3 947 918 2008
3 413 420 2084
3 785 879 2532
3 1041 947 1168
3 1468 2182 2323
3 1246 1234 2088
3 1730 1163 2372
3 542 555 2086
3 1599 631 2312
3 1146 1967 2174
3 1078 1136 2343
3 1515 1574 2180
3 2336 885 2469
3 1257 1243 2074
3 1347 1346 2279
3 2001 650 2206
3 1480 1601 2514
3 1029 1000 2184
3 1956 788 2336
3 1271 1261 2059
3 130 3 2444
3 1 32 2445
3 1570 1507 2197
3 1232 1255 2088
3 791 1642 2529
3 1601 1479 2269
3 1361 1362 2168
3 1634 1922 2281
3 765 2065 2190
3 2071 1158 2153
3 1699 1801 2289
3 832 831 833
3 1864 346 2344
3 456 476 2097
3 1855 828 2411
3 2065 1162 2190
3 1125 1192 2149
3 599 760 2083
3 361 765 2339
3 1731 2123 2241
3 1349 1181 1350
3 1443 1275 2251
3 1819 524 2429
3 1021 1045 2512
3 858 618 2132
3 1999 358 2338
3 368 292 2038
3 290 368 2135
3 803 331 2296
3 1112 1008 2152
3 56 1947 2313
3 555 979 2086
3 1469 1496 2182
3 1011 967 2107
3 248 2017 2288
3 1809 789 2425
3 960 453 2221
3 538 558 2167
3 1858 1187 2248
3 2246 1757 2526
3 902 905 2141
3 1851 1853 2327
3 1224 1222 2111
3 771 288 2135
3 1945 2153 2257
3 1420 1525 2489
3 1399 1123 2393
3 103 2025 2355
3 897 822 898
3 1861 940 2532
3 865 1125 2146
3 1675 2474 2522
3 1573 2157 2507
3 1632 1631 2382
3 551 601 602
3 527 503 2198
3 1708 805 2337
3 1059 1278 2372
3 2056 527 2198
3 860 861 2112
3 1668 2348 2398
3 255 2159 2265
3 1541 1542 2269
3 1428 2074 2227
3 1582 1583 2321
3 389 1774 2503
3 2004 226 2157
3 1777 397 2405
3 1368 1436 2254
3 1061 2409 2462
3 1071 930 2462
3 1126 901 2141
3 1194 1197 2120
3 1452 1952 2282
3 2116 1319 2482
3 105 106 2218
3 1981 1399 2393
3 2119 983 2143
3 444 1682 2461
3 2173 1648 2463
3 616 793 2132
3 1791 1190 2334
3 1826 1728 2259
3 602 652 653
3 1834 1292 2428
3 556 2201 2327
3 1014 1015 2385
3 1995 1287 2331
3 1193 1195 2189
3 816 1324 2131
3 879 1861 2532
3 593 1182 2133
3 1402 266 1742
3 2216 1323 2354
3 1660 1636 2502
3 620 955 2484
3 1162 1706 2190
3 1870 2113 2249
3 204 1680 1732
3 1909 2023 2420
3 217 72 2217
3 376 372 2430
3 905 1209 2141
3 1378 1381 2283
3 1236 1246 2227
3 286 771 2063
3 1635 2263 2502
3 100 101 2220
3 1139 898 1140
3 2114 1343 2136
3 442 284 2063
3 1772 2106 2414
3 1985 1755 2533
3 2192 1328 2315
3 1064 863 2146
3 1631 1637 2459
3 736 2049 2523
3 221 1906 2246
3 318 1983 2171
3 1496 2047 2182
3 1374 2139 2506
3 196 55 2313
3 2087 462 2134
3 676 653 677
3 2304 257 2491
3 1401 2324 2363
3 829 677 830
3 654 2223 2242
3 1187 977 2112
3 1463 1466 2200
3 2023 219 2516
3 1176 881 2215
3 513 471 2290
3 1812 459 2252
3 1386 1269 2199
3 291 758 2306
3 618 616 2132
3 278 280 2210
3 83 220 2289
3 82 83 2289
3 938 1057 2161
3 1189 986 1190
3 788 719 2336
3 1914 2001 2206
3 232 181 1652
3 1567 2062 2490
3 313 757 2495
3 622 619 2484
3 688 878 1320
3 1222 1626 2111
3 282 442 2079
3 1169 2008 2105
3 1966 1007 2308
3 2040 799 2237
3 1744 2229 2495
3 986 833 1063
3 2284 1605 2510
3 887 1961 2376
3 215 1624 2262
3 830 831 832
3 476 475 2224
3 439 451 2223
3 1932 1933 2380
3 2227 1246 2366
3 1212 1202 2301
3 1107 1110 2228
3 249 2010 2299
3 1983 293 2306
3 2055 1214 2237
3 1438 1372 2478
3 824 560 2156
3 2320 1866 2513
3 1351 1137 2374
3 868 2007 2232
3 2063 771 2064
3 1507 214 1508
3 1728 1727 2246
3 1045 1047 2348
3 1139 1140 2096
3 1648 1649 2463
3 1502 2302 2519
3 704 707 2109
3 2343 1136 2396
3 650 1963 2206
3 2153 895 2257
3 396 1958 2431
3 1379 1377 2288
3 2115 1471 2319
3 2033 987 2202
3 2239 1693 2518
3 2025 1488 2355
3 1209 2115 2319
3 523 524 2156
3 783 939 2243
3 376 1798 2497
3 2066 788 2193
3 1984 318 2172
3 425 427 2221
3 203 172 1847
3 446 457 2264
3 1312 2089 2150
3 2138 1272 2211
3 897 1139 2274
3 828 1819 2429
3 1249 1224 2111
3 666 667 2318
3 1371 1326 2194
3 2433 1499 2475
3 1272 1271 2211
3 1367 2254 2479
3 1386 2053 2383
3 2074 1238 2227
3 755 2148 2320
3 2117 1604 2428
3 475 514 2224
3 228 2187 2457
3 1868 1504 2520
3 1626 1218 2185
3 2123 1111 2241
3 1287 1049 2331
3 1280 687 2109
3 459 1814 2292
3 54 196 2402
3 863 865 2146
3 204 176 1680
3 514 2086 2224
3 1646 603 2398
3 112 197 2346
3 358 300 2338
3 1140 898 1141
3 1204 1335 2301
3 1016 2161 2438
3 909 1041 2175
3 1681 2448 2492
3 2252 459 2292
3 1992 868 2232
3 1035 1036 2235
3 1051 1295 2331
3 1836 1289 2242
3 1508 214 1859
3 247 53 2402
3 1016 938 2161
3 1408 856 2378
3 1466 2158 2200
3 725 885 2336
3 855 1450 2421
3 2023 1768 2420
3 1238 1236 2227
3 1679 202 2253
3 2107 1348 2233
3 1653 1431 2487
3 1946 2291 2343
3 2253 202 2329
3 1885 1312 2150
3 378 628 2390
3 2195 1383 2432
3 1520 1519 2480
3 1532 1733 2534
3 308 327 2278
3 953 951 2255
3 1213 1407 2222
3 1561 1563 2285
3 302 763 2338
3 1928 2033 2202
3 763 304 2345
3 832 833 986
3 1352 2040 2237
3 247 1881 2481
3 560 523 2156
3 335 339 2261
3 346 342 2344
3 201 443 1323
3 2301 1335 2466
3 323 320 2229
3 1136 2110 2396
3 1139 1977 2274
3 1809 1615 2423
3 1707 1791 2334
3 46 2019 2485
3 2064 1294 2238
3 1950 197 2404
3 2021 2022 2176
3 1949 245 2420
3 2044 2152 2207
3 1063 1154 1707
3 1012 1363 2406
3 280 2079 2210
3 2237 1214 2351
3 820 698 2318
3 1140 1141 1406
3 205 2021 2176
3 2043 786 2310
3 2145 1004 2446
3 707 1030 2109
3 1406 2460 2473
3 2137 1268 2226
3 16 2081 2260
3 567 2031 2219
3 2112 1064 2248
3 206 45 2485
3 2347 1462 2365
3 1650 1962 2362
3 453 425 2221
3 1209 907 2175
3 1111 1276 2241
3 2448 1145 2492
3 2051 2083 2243
3 59 60 2266
3 1402 1742 2530
3 831 677 2209
3 624 587 2276
3 238 174 1725
3 1011 2107 2233
3 468 2365 2412
3 2337 805 2371
3 254 1932 2380
3 1174 1398 2207
3 2140 111 2346
3 1381 2186 2283
3 1987 2037 2188
3 1740 559 2456
3 1773 391 2503
3 1335 1870 2249
3 1945 2257 2291
3 828 463 2411
3 1246 2088 2208
3 2060 798 2307
3 1773 1159 2240
3 1187 2112 2248
3 1352 2237 2351
3 2037 1322 2188
3 1941 1499 2433
3 2322 225 2510
3 1031 1034 2236
3 327 2188 2321
3 595 2032 2273
3 1464 1462 2347
3 1285 1992 2232
3 799 2055 2237
3 443 278 2210
3 784 874 2178
3 392 396 2431
3 191 95 2309
3 879 784 2178
3 524 511 2429
3 2128 2011 2270
3 895 896 2257
3 2206 1152 2324
3 318 2171 2172
3 2259 1549 2379
3 1214 1410 2351
3 306 308 2278
3 2022 251 2247
3 1757 1729 2309
3 1283 1918 2524
3 996 1706 2492
3 557 2044 2207
3 1798 1448 2364
3 1447 2250 2310
3 559 1750 2403
3 1363 1011 2233
3 1343 1168 2187
3 1407 2044 2256
3 1462 1460 2365
3 1995 2331 2458
3 327 1987 2188
3 2160 254 2380
3 1681 958 2287
3 2031 1160 2250
3 1600 689 2413
3 2219 1692 2239
3 1494 1675 2522
3 1281 1916 2448
3 907 909 2175
3 565 2167 2276
3 2241 1276 2275
3 1978 316 2443
3 2151 212 2350
3 203 1847 2104
3 2049 1481 2523
3 1961 1362 2376
3 2187 1393 2457
3 940 796 2532
3 2293 1349 2329
3 572 1897 2537
3 332 739 2282
3 2052 567 2239
3 1437 1370 2277
3 567 2219 2239
3 667 626 2452
3 1914 2206 2324
3 2243 939 2392
3 2136 1343 2187
3 257 1654 2530
3 1376 1378 2283
3 2076 1982 2272
3 2083 760 2243
3 1944 1945 2291
3 1771 1839 2359
3 1404 1403 2399
3 1875 1866 2320
3 1460 1337 2412
3 760 783 2243
3 1276 1366 2275
3 1428 2227 2366
3 1882 1605 2284
3 1739 1429 2459
3 2321 2188 2434
3 1328 1327 2315
3 798 2189 2307
3 2152 1174 2207
3 2182 1247 2323
3 1516 1514 2367
3 293 291 2306
3 556 537 2201
3 1298 1300 2314
3 1400 1399 2316
3 1649 2236 2463
3 833 831 2424
3 2127 2050 2333
3 1057 914 2328
3 1839 193 2359
3 761 1741 2258
3 1186 1970 2422
3 1429 2366 2382
3 2211 1271 2271
3 1733 1248 2534
3 13 2114 2136
3 2078 390 2431
3 1533 1536 2340
3 1690 2145 2446
3 1277 2308 2370
3 1168 1393 2187
3 1597 2047 2268
3 587 565 2276
3 1908 244 2401
3 225 125 2284
3 610 2130 2468
3 1749 2105 2326
3 1913 1914 2324
3 2366 2208 2382
3 1391 1876 2295
3 457 552 2264
3 653 688 2209
3 1601 2443 2514
3 682 2138 2211
3 992 1980 2244
3 55 56 2313
3 1645 1495 2493
3 473 477 2483
3 202 1724 2329
3 465 828 2429
3 1277 1966 2308
3 1416 2330 2406
3 1912 1364 2455
3 1716 1483 2375
3 2019 1651 2485
3 1725 2137 2226
3 201 1323 2216
3 878 1083 2213
3 2072 2073 2245
3 1563 1777 2405
3 244 2028 2401
3 2016 1564 2422
3 1682 1497 2461
3 1962 1153 2362
3 1298 2314 2358
3 1384 1385 2391
3 688 1320 2209
3 1587 2179 2435
3 786 380 2497
3 1395 1522 2341
3 2032 1919 2273
3 251 2013 2247
3 2219 2031 2250
3 2397 552 2453
3 1765 255 2489
3 2475 1825 2524
3 1202 1204 2301
3 445 2078 2411
3 323 2229 2296
3 1286 2384 2408
3 537 551 2201
3 1724 237 2293
3 84 85 2335
3 1471 1126 2319
3 1635 1634 2511
3 300 302 2338
3 698 666 2318
3 1030 1031 2236
3 2098 1457 2271
3 696 1821 2426
3 1457 1492 2447
3 1956 2336 2469
3 331 323 2296
3 1284 1491 2342
3 2011 1996 2270
3 256 183 2303
3 160 257 2304
3 2204 1589 2501
3 1891 1014 2280
3 719 725 2336
3 1354 1808 2381
3 437 430 2494
3 2377 218 2391
3 2211 2271 2447
3 1407 2256 2290
3 2365 1460 2412
3 2047 1498 2268
3 1825 1283 2524
3 1499 1825 2475
3 1226 1249 2281
3 2051 2243 2392
3 2250 1160 2310
3 111 112 2346
3 304 306 2345
3 1341 1352 2351
3 2166 191 2504
3 2223 1836 2242
3 1996 247 2481
3 1049 1051 2331
3 1086 1298 2358
3 2130 595 2273
3 1249 2111 2263
3 680 1995 2458
3 1511 2140 2346
3 102 103 2355
3 469 473 2453
3 961 2072 2245
3 2073 1282 2245
3 1442 1443 2525
3 74 192 2361
3 2163 1586 2435
3 1519 1518 2449
3 897 2274 2500
3 303 444 2317
3 1615 1614 2423
3 197 2009 2404
3 1634 2281 2511
3 1780 1781 2419
3 1435 1623 2465
3 1286 1774 2384
3 384 361 2339
3 193 1901 2359
3 1165 2433 2475
3 2277 1370 2386
3 677 653 2209
3 1994 1516 2367
3 1479 1478 2440
3 1165 1512 2433
3 1644 1353 2417
3 1711 1712 2353
3 2193 1615 2425
3 1613 1956 2469
3 1440 1173 2330
3 2269 1479 2440
3 222 2218 2465
3 391 389 2503
3 306 2278 2345
3 468 2090 2365
3 221 2246 2526
3 1445 1446 2504
3 939 1844 2392
3 86 87 2373
3 1429 1428 2366
3 2053 2103 2383
3 1348 1212 2312
3 805 750 2371
3 997 1286 2408
3 1152 869 2363
3 2063 2064 2238
3 192 1994 2367
3 1160 2043 2310
3 1926 2151 2350
3 2059 2098 2271
3 1897 1366 2537
3 215 2262 2437
3 1655 1732 2476
3 2415 1128 2454
3 1320 2213 2214
3 7 258 2357
3 259 155 2356
3 2171 1530 2172
3 347 351 2407
3 1077 1078 2343
3 239 2003 2279
3 1446 1128 2415
3 1034 1033 2410
3 601 627 2442
3 1154 1653 2234
3 397 2060 2405
3 2142 794 2272
3 442 2063 2238
3 1863 1215 2378
3 794 2076 2272
3 1883 1375 2505
3 1320 878 2213
3 342 468 2344
3 1903 218 2377
3 380 376 2497
3 1549 1547 2379
3 1148 1165 2475
3 2157 226 2507
3 829 972 2326
3 884 1957 2466
3 2291 1077 2343
3 65 66 2395
3 787 2052 2518
3 2298 1348 2312
3 1946 2343 2396
3 1653 256 2535
3 1842 1548 2472
3 1957 2301 2466
3 1366 1277 2370
3 2213 1432 2214
3 961 2245 2383
3 218 2093 2391
3 1376 2283 2421
3 1873 2127 2333
3 1019 1021 2512
3 1128 1127 2454
3 1104 1434 2450
3 2130 1439 2468
3 2396 2110 2482
3 2186 855 2283
3 1724 2293 2329
3 1163 1059 2372
3 1614 2389 2423
3 53 54 2402
3 1063 1707 2334
3 2283 855 2421
3 1385 1863 2436
3 364 1883 2505
3 517 1890 2387
3 1145 996 2492
3 1047 1287 2348
3 2148 1875 2320
3 205 2176 2416
3 1372 1844 2478
3 1211 2219 2250
3 1141 898 2368
3 245 1909 2420
3 2278 327 2321
3 2389 1397 2423
3 2256 513 2290
3 559 2403 2456
3 1137 1340 2374
3 2093 1384 2391
3 1918 1148 2524
3 1030 2236 2427
3 1867 1895 2513
3 2014 517 2387
3 2271 1457 2447
3 1143 2028 2353
3 1904 194 2432
3 1148 2475 2524
3 1574 1523 2436
3 2213 1083 2311
3 1997 358 2325
3 2139 246 2506
3 1370 1369 2386
3 1271 2059 2271
3 1034 2173 2463
3 1123 1412 2393
3 1578 1827 2515
3 2209 1320 2424
3 2079 1504 2210
3 1361 2168 2305
3 1491 1489 2403
3 238 1725 2226
3 1190 986 2334
3 1547 1545 2508
3 1891 1613 2469
3 1153 1885 2362
3 2208 1632 2382
3 2287 1281 2448
3 1356 1376 2421
3 1965 2349 2515
3 2155 1186 2422
3 1522 2014 2387
3 2158 1468 2323
3 2050 954 2333
3 1397 1809 2423
3 1362 1360 2376
3 1852 1985 2397
3 2069 1691 2446
3 789 2066 2425
3 1895 755 2513
3 1707 1154 2234
3 372 374 2430
3 2225 787 2518
3 2028 1206 2401
3 986 1063 2334
3 1912 726 2439
3 1340 1342 2400
3 1916 1145 2448
3 2236 1649 2427
3 2374 1340 2400
3 2222 1407 2290
3 2324 1152 2363
3 241 2220 2472
3 765 2190 2384
3 2375 667 2452
3 2330 1173 2406
3 1181 1972 2500
3 2126 1382 2388
3 1173 1012 2406
3 315 313 2495
3 1015 1373 2385
3 97 221 2526
3 1937 1397 2389
3 930 1061 2462
3 971 1096 2496
3 45 46 2485
3 669 791 2529
3 1104 2450 2521
3 382 378 2390
3 2191 1371 2536
3 2235 1036 2286
3 831 2209 2424
3 762 1997 2349
3 2379 1547 2508
3 2177 1359 2467
3 2403 1489 2456
3 796 785 2532
3 219 1902 2516
3 1519 2300 2480
3 1065 1655 2476
3 1375 1473 2505
3 1489 1490 2456
3 390 392 2431
3 2247 2013 2464
3 1135 1930 2369
3 2278 1583 2345
3 626 622 2452
3 631 2298 2312
3 2233 1348 2298
3 1398 1974 2499
3 1706 1681 2492
3 261 130 2444
3 32 260 2445
3 822 2099 2368
3 1365 1912 2439
3 941 940 2418
3 1446 2166 2504
3 2106 1121 2414
3 2300 1519 2449
3 1803 1104 2521
3 1732 1570 2476
3 1413 2051 2392
3 2122 1946 2396
3 2238 1868 2520
3 477 556 2483
3 2397 1985 2533
3 463 445 2411
3 2163 1185 2488
3 1126 2141 2319
3 1755 2264 2533
3 972 2204 2501
3 2230 1533 2340
3 1774 1773 2503
3 1997 2325 2349
3 1004 2069 2446
3 2159 31 2445
3 131 2160 2444
3 1371 2191 2451
3 1001 2154 2486
3 1682 2230 2340
3 2103 961 2383
3 1033 1151 2410
3 382 2390 2531
3 1504 2079 2520
3 1583 2278 2321
3 511 465 2429
3 250 2024 2479
3 2208 2088 2509
3 619 620 2484
3 1246 2208 2366
3 2141 1209 2319
3 1359 1413 2467
3 1295 1459 2458
3 2218 1435 2465
3 2281 1249 2511
3 2293 237 2354
3 2207 1398 2499
3 1564 2155 2422
3 552 469 2453
3 1947 224 2498
3 2062 1568 2490
3 2018 205 2416
3 260 2159 2445
3 2160 261 2444
3 2092 610 2468
3 194 2195 2432
3 1432 2213 2311
3 211 2251 2464
3 2378 856 2527
3 1536 1532 2534
3 2364 786 2497
3 2438 1438 2478
3 1185 1948 2488
3 2042 941 2418
3 1582 2321 2434
3 885 1891 2469
3 1364 2048 2455
3 1693 2225 2518
3 401 382 2531
3 1338 2247 2464
3 442 2238 2520
3 1292 2117 2428
3 2274 1350 2500
3 2066 2193 2425
3 2179 1184 2435
3 898 822 2368
3 2436 1863 2527
3 1844 1016 2478
3 2184 1001 2486
3 557 2207 2499
3 2013 211 2464
3 2254 250 2479
3 1350 1181 2500
3 2009 248 2470
3 246 2140 2506
3 1574 2436 2527
3 2139 1419 2517
3 316 1971 2514
3 1319 2122 2482
3 226 2006 2507
3 1400 2270 2481
3 1681 2287 2448
3 2325 1578 2349
3 232 1652 2487
3 1320 2214 2424
3 1632 2208 2509
3 248 2288 2470
3 1406 1141 2460
3 2188 1322 2434
3 2244 1980 2441
3 2088 1255 2509
3 1280 2109 2427
3 2060 2307 2405
3 2236 1034 2463
3 1745 2293 2354
3 2122 2396 2482
3 2109 1030 2427
3 2307 1563 2405
3 1429 2382 2459
3 224 2267 2498
3 682 2211 2447
3 2079 442 2520
3 2348 1287 2398
3 2220 1842 2472
3 1335 2249 2466
3 1249 2263 2511
3 443 2210 2519
3 2385 1373 2394
3 1594 2184 2486
3 2052 2239 2518
3 1568 2439 2490
3 2349 1578 2515
3 2344 468 2412
3 2270 1996 2481
3 1735 2244 2441
3 2260 1471 2477
3 2210 1504 2519
3 1434 2297 2450
3 2297 1419 2450
3 2263 1660 2502
3 2404 2009 2470
3 1718 2385 2394
3 1371 2194 2536
3 2317 444 2461
3 1443 2322 2525
3 1716 2375 2452
3 1863 2378 2527
3 2439 726 2490
3 1057 2328 2451
3 1638 2404 2470
3 1454 2234 2535
3 755 2320 2513
3 2234 1653 2535
3 2264 552 2533
3 1419 2297 2517
3 1392 2322 2510
3 552 2397 2533
3 1798 2364 2497
3 2322 1392 2525
3 2382 1631 2459
3 1016 2438 2478
3 1366 2370 2537
3 1742 2491 2530
3 2491 257 2530
CELL_TYPES 4886
5
5
5
5
5
5
5
5
5
5
5
5
5
5
5
5
5
5
5
5
5
5
5
5
5
5
5
5
5
5
5
5
5
5
5
5
5
5
5
5
5
5
5
5
5
5
5
5
5
5
5
5
5
5
5
5
5
5
5
5
5
5
5
5
5
5
5
5
5
5
5
5
5
5
5
5
5
5
5
5
5
5
5
5
5
5
5
5
5
5
5
5
5
5
5
5
5
5
5
5
5
5
5
5
5
5
5
5
5
5
5
5
5
5
5
5
5
5
5
5
5
5
5
5
5
5
5
5
5
5
5
5
5
5
5
5
5
5
5
5
5
5
5
5
5
5
5
5
5
5
5
5
5
5
5
5
5
5
5
5
5
5
5
5
5
5
5
5
5
5
5
5
5
5
5
5
5
5
5
5
5
5
5
5
5
5
5
5
5
5
5
5
5
5
5
5
5
5
5
5
5
5
5
5
5
5
5
5
5
5
5
5
5
5
5
5
5
5
5
5
5
5
5
5
5
5
5
5
5
5
5
5
5
5
5
5
5
5
5
5
5
5
5
5
5
5
5
5
5
5
5
5
5
5
5
5
5
5
5
5
5
5
5
5
5
5
5
5
5
5
5
5
5
5
5
5
5
5
5
5
5
5
5
5
5
5
5
5
5
5
5
5
5
5
5
5
5
5
5
5
5
5
5
5
5
5
5
5
5
5
5
5
5
5
5
5
5
5
5
5
5
5
5
5
5
5
5
5
5
5
5
5
5
5
5
5
5
5
5
5
5
5
5
5
5
5
5
5
5
5
5
5
5
5
5
5
5
5
5
5
5
5
5
5
5
5
5
5
5
5
5
5
5
5
5
5
5
5
5
5
5
5
5
5
5
5
5
5
5
5
5
5
5
5
5
5
5
5
5
5
5
5
5
5
5
5
5
5
5
5
5
5
5
5
5
5
5
5
5
5
5
5
5
5
5
5
5
5
5
5
5
5
5
5
5
5
5
5
5
5
5
5
5
5
5
5
5
5
5
5
5
5
5
5
5
5
5
5
5
5
5
5
5
5
5
5
5
5
5
5
5
5
5
5
5
5
5
5
5
5
5
5
5
5
5
5
5
5
5
5
5
5
5
5
5
5
5
5
5
5
5
5
5
5
5
5
5
5
5
5
5
5
5
5
5
5
5
5
5
5
5
5
5
5
5
5
5
5
5
5
5
5
5
5
5
5
5
5
5
5
5
5
5
5
5
5
5
5
5
5
5
5
5
5
5
5
5
5
5
5
5
5
5
5
5
5
5
5
5
5
5
5
5
5
5
5
5
5
5
5
5
5
5
5
5
5
5
5
5
5
5
5
5
5
5
5
5
5
5
5
5
5
5
5
5
5
5
5
5
5
5
5
5
5
5
5
5
5
5
5
5
5
5
5
5
5
5
5
5
5
5
5
5
5
5
5
5
5
5
5
5
5
5
5
5
5
5
5
5
5
5
5
5
5
5
5
5
5
5
5
5
5
5
5
5
5
5
5
5
5
5
5
5
5
5
5
5
5
5
5
5
5
5
5
5
5
5
5
5
5
5
5
5
5
5
5
5
5
5
5
5
5
5
5
5
5
5
5
5
5
5
5
5
5
5
5
5
5
5
5
5
5
5
5
5
5
5
5
5
5
5
5
5
5
5
5
5
5
5
5
5
5
5
5
5
5
5
5
5
5
5
5
5
5
5
5
5
5
5
5
5
5
5
5
5
5
5
5
5
5
5
5
5
5
5
5
5
5
5
5
5
5
5
5
5
5
5
5
5
5
5
5
5
5
5
5
5
5
5
5
5
5
5
5
5
5
5
5
5
5
5
5
5
5
5
5
5
5
5
5
5
5
5
5
5
5
5
5
5
5
5
5
5
5
5
5
5
5
5
5
5
5
5
5
5
5
5
5
5
5
5
5
5
5
5
5
5
5
5
5
5
5
5
5
5
5
5
5
5
5
5
5
5
5
5
5
5
5
5
5
5
5
5
5
5
5
5
5
5
5
5
5
5
5
5
5
5
5
5
5
5
5
5
5
5
5
5
5
5
5
5
5
5
5
5
5
5
5
5
5
5
5
5
5
5
5
5
5
5
5
5
5
5
5
5
5
5
5
5
5
5
5
5
5
5
5
5
5
5
5
5
5
5
5
5
5
5
5
5
5
5
5
5
5
5
5
5
5
5
5
5
5
5
5
5
5
5
5
5
5
5
5
5
5
5
5
5
5
5
5
5
5
5
5
5
5
5
5
5
5
5
5
5
5
5
5
5
5
5
5
5
5
5
5
5
5
5
5
5
5
5
5
5
5
5
5
5
5
5
5
5
5
5
5
5
5
5
5
5
5
5
5
5
5
5
5
5
5
5
5
5
5
5
5
5
5
5
5
5
5
5
5
5
5
5
5
5
5
5
5
5
5
5
5
5
5
5
5
5
5
5
5
5
5
5
5
5
5
5
5
5
5
5
5
5
5
5
5
5
5
5
5
5
5
5
5
5
5
5
5
5
5
5
5
5
5
5
5
5
5
5
5
5
5
5
5
5
5
5
5
5
5
5
5
5
5
5
5
5
5
5
5
5
5
5
5
5
5
5
5
5
5
5
5
5
5
5
5
5
5
5
5
5
5
5
5
5
5
5
5
5
5
5
5
5
5
5
5
5
5
5
5
5
5
5
5
5
5
5
5
5
5
5
5
5
5
5
5
5
5
5
5
5
5
5
5
5
5
5
5
5
5
5
5
5
5
5
5
5
5
5
5
5
5
5
5
5
5
5
5
5
5
5
5
5
5
5
5
5
5
5
5
5
5
5
5
5
5
5
5
5
5
5
5
5
5
5
5
5
5
5
5
5
5
5
5
5
5
5
5
5
5
5
5
5
5
5
5
5
5
5
5
5
5
5
5
5
5
5
5
5
5
5
5
5
5
5
5
5
5
5
5
5
5
5
5
5
5
5
5
5
5
5
5
5
5
5
5
5
5
5
5
5
5
5
5
5
5
5
5
5
5
5
5
5
5
5
5
5
5
5
5
5
5
5
5
5
5
5
5
5
5
5
5
5
5
5
5
5
5
5
5
5
5
5
5
5
5
5
5
5
5
5
5
5
5
5
5
5
5
5
5
5
5
5
5
5
5
5
5
5
5
5
5
5
5
5
5
5
5
5
5
5
5
5
5
5
5
5
5
5
5
5
5
5
5
5
5
5
5
5
5
5
5
5
5
5
5
5
5
5
5
5
5
5
5
5
5
5
5
5
5
5
5
5
5
5
5
5
5
5
5
5
5
5
5
5
5
5
5
5
5
5
5
5
5
5
5
5
5
5
5
5
5
5
5
5
5
5
5
5
5
5
5
5
5
5
5
5
5
5
5
5
5
5
5
5
5
5
5
5
5
5
5
5
5
5
5
5
5
5
5
5
5
5
5
5
5
5
5
5
5
5
5
5
5
5
5
5
5
5
5
5
5
5
5
5
5
5
5
5
5
5
5
5
5
5
5
5
5
5
5
5
5
5
5
5
5
5
5
5
5
5
5
5
5
5
5
5
5
5
5
5
5
5
5
5
5
5
5
5
5
5
5
5
5
5
5
5
5
5
5
5
5
5
5
5
5
5
5
5
5
5
5
5
5
5
5
5
5
5
5
5
5
5
5
5
5
5
5
5
5
5
5
5
5
5
5
5
5
5
5
5
5
5
5
5
5
5
5
5
5
5
5
5
5
5
5
5
5
5
5
5
5
5
5
5
5
5
5
5
5
5
5
5
5
5
5
5
5
5
5
5
5
5
5
5
5
5
5
5
5
5
5
5
5
5
5
5
5
5
5
5
5
5
5
5
5
5
5
5
5
5
5
5
5
5
5
5
5
5
5
5
5
5
5
5
5
5
5
5
5
5
5
5
5
5
5
5
5
5
5
5
5
5
5
5
5
5
5
5
5
5
5
5
5
5
5
5
5
5
5
5
5
5
5
5
5
5
5
5
5
5
5
5
5
5
5
5
5
5
5
5
5
5
5
5
5
5
5
5
5
5
5
5
5
5
5
5
5
5
5
5
5
5
5
5
5
5
5
5
5
5
5
5
5
5
5
5
5
5
5
5
5
5
5
5
5
5
5
5
5
5
5
5
5
5
5
5
5
5
5
5
5
5
5
5
5
5
5
5
5
5
5
5
5
5
5
5
5
5
5
5
5
5
5
5
5
5
5
5
5
5
5
5
5
5
5
5
5
5
5
5
5
5
5
5
5
5
5
5
5
5
5
5
5
5
5
5
5
5
5
5
5
5
5
5
5
5
5
5
5
5
5
5
5
5
5
5
5
5
5
5
5
5
5
5
5
5
5
5
5
5
5
5
5
5
5
5
5
5
5
5
5
5
5
5
5
5
5
5
5
5
5
5
5
5
5
5
5
5
5
5
5
5
5
5
5
5
5
5
5
5
5
5
5
5
5
5
5
5
5
5
5
5
5
5
5
5
5
5
5
5
5
5
5
5
5
5
5
5
5
5
5
5
5
5
5
5
5
5
5
5
5
5
5
5
5
5
5
5
5
5
5
5
5
5
5
5
5
5
5
5
5
5
5
5
5
5
5
5
5
5
5
5
5
5
5
5
5
5
5
5
5
5
5
5
5
5
5
5
5
5
5
5
5
5
5
5
5
5
5
5
5
5
5
5
5
5
5
5
5
5
5
5
5
5
5
5
5
5
5
5
5
5
5
5
5
5
5
5
5
5
5
5
5
5
5
5
5
5
5
5
5
5
5
5
5
5
5
5
5
5
5
5
5
5
5
5
5
5
5
5
5
5
5
5
5
5
5
5
5
5
5
5
5
5
5
5
5
5
5
5
5
5
5
5
5
5
5
5
5
5
5
5
5
5
5
5
5
5
5
5
5
5
5
5
5
5
5
5
5
5
5
5
5
5
5
5
5
5
5
5
5
5
5
5
5
5
5
5
5
5
5
5
5
5
5
5
5
5
5
5
5
5
5
5
5
5
5
5
5
5
5
5
5
5
5
5
5
5
5
5
5
5
5
5
5
5
5
5
5
5
5
5
5
5
5
5
5
5
5
5
5
5
5
5
5
5
5
5
5
5
5
5
5
5
5
5
5
5
5
5
5
5
5
5
5
5
5
5
5
5
5
5
5
5
5
5
5
5
5
5
5
5
5
5
5
5
5
5
5
5
5
5
5
5
5
5
5
5
5
5
5
5
5
5
5
5
5
5
5
5
5
5
5
5
5
5
5
5
5
5
5
5
5
5
5
5
5
5
5
5
5
5
5
5
5
5
5
5
5
5
5
5
5
5
5
5
5
5
5
5
5
5
5
5
5
5
5
5
5
5
5
5
5
5
5
5
5
5
5
5
5
5
5
5
5
5
5
5
5
5
5
5
5
5
5
5
5
5
5
5
5
5
5
5
5
5
5
5
5
5
5
5
5
5
5
5
5
5
5
5
5
5
5
5
5
5
5
5
5
5
5
5
5
5
5
5
5
5
5
5
5
5
5
5
5
5
5
5
5
5
5
5
5
5
5
5
5
5
5
5
5
5
5
5
5
5
5
5
5
5
5
5
5
5
5
5
5
5
5
5
5
5
5
5
5
5
5
5
5
5
5
5
5
5
5
5
5
5
5
5
5
5
5
5
5
5
5
5
5
5
5
5
5
5
5
5
5
5
5
5
5
5
5
5
5
5
5
5
5
5
5
5
5
5
5
5
5
5
5
5
5
5
5
5
5
5
5
5
5
5
5
5
5
5
5
5
5
5
5
5
5
5
5
5
5
5
5
5
5
5
5
5
5
5
5
5
5
5
5
5
5
5
5
5
5
5
5
5
5
5
5
5
5
5
5
5
5
5
5
5
5
5
5
5
5
5
5
5
5
5
5
5
5
5
5
5
5
5
5
5
5
5
5
5
5
5
5
5
5
5
5
5
5
5
5
5
5
5
5
5
5
5
5
5
5
5
5
5
5
5
5
5
5
5
5
5
5
5
5
5
5
5
5
5
5
5
5
5
5
5
5
5
5
5
5
5
5
5
5
5
5
5
5
5
5
5
5
5
5
5
5
5
5
5
5
5
5
5
5
5
5
5
5
5
5
5
5
5
5
5
5
5
5
5
5
5
5
5
5
5
5
5
5
5
5
5
5
5
5
5
5
5
5
5
5
5
5
5
5
5
5
5
5
5
5
5
5
5
5
5
5
5
5
5
5
5
5
5
5
5
5
5
5
5
5
5
5
5
5
5
5
5
5
5
5
5
5
5
5
5
5
5
5
5
5
5
5
5
5
5
5
5
5
5
5
5
5
5
5
5
5
5
5
5
5
5
5
5
5
5
5
5
5
5
5
5
5
5
5
5
5
5
5
5
5
5
5
5
5
5
5
5
5
5
5
5
5
5
5
5
5
5
5
5
5
5
5
5
5
5
5
5
5
5
5
5
5
5
5
5
5
5
5
5
5
5
5
5
5
5
5
5
5
5
5
5
5
5
5
5
5
5
5
5
5
5
5
5
5
5
5
5
5
5
5
5
5
5
5
5
5
5
5
5
5
5
5
5
5
5
5
5
5
5
5
5
5
5
5
5
5
5
5
5
5
5
5
5
5
5
5
5
5
5
5
5
5
5
5
5
5
5
5
5
5
5
5
5
5
5
5
5
5
5
5
5
5
5
5
5
5
5
5
5
5
5
5
5
5
5
5
5
5
5
5
5
5
5
5
5
5
5
5
5
5
5
5
5
5
5
5
5
5
5
5
5
5
5
5
5
5
5
5
5
5
5
5
5
5
5
5
5
5
5
5
5
5
5
5
5
5
5
5
5
5
5
5
5
5
5
5
5
5
5
5
5
5
5
5
5
5
5
5
5
5
5
5
5
5
5
5
5
5
5
5
5
5
5
5
5
5
5
5
5
5
5
5
5
5
5
5
5
5
5
5
5
5
5
5
5
5
5
5
5
5
5
5
5
5
5
5
5
5
5
5
5
5
5
5
5
5
5
5
5
5
5
5
5
5
5
5
5
5
5
5
5
5
5
5
5
5
5
5
5
5
5
5
5
5
5
5
5
5
5
5
5
5
5
5
5
5
5
5
5
5
5
5
5
5
5
5
5
5
5
5
5
5
5
5
5
5
5
5
5
5
5
5
5
5
5
5
5
5
5
5
5
5
5
5
5
5
5
5
5
5
5
5
5
5
5
5
5
5
5
5
5
5
5
5
5
5
5
5
5
5
5
5
5
5
5
5
5
5
5
5
5
5
5
5
5
5
5
5
5
5
5
5
5
5
5
5
5
5
5
5
5
5
5
5
5
5
5
5
5
5
5
5
5
5
5
5
5
5
5
5
5
5
5
5
5
5
5
5
5
5
5
5
5
5
5
5
5
5
5
5
5
5
5
5
5
5
5
5
5
5
5
5
5
5
5
5
5
5
5
5
5
5
5
5
5
5
5
5
5
5
5
5
5
5
5
5
5
5
5
5
5
5
5
5
5
5
5
5
5
5
5
5
5
5
5
5
5
5
5
5
5
5
5
5
5
5
5
5
5
5
5
5
5
5
5
5
5
5
5
5
5
5
5
5
5
5
5
5
5
5
5
5
5
5
5
5
5
5
5
5
5
5
5
5
5
5
5
5
5
5
5
5
5
5
5
5
5
5
5
5
5
5
5
5
5
5
5
5
5
5
5
5
5
5
5
5
5
5
5
5
5
5
5
5
5
5
5
5
5
5
5
5
5
5
5
5
5
5
5
5
5
5
5
5
5
5
5
5
5
5
5
5
5
5
5
5
5
5
5
5
5
5
5
5
5
5
5
5
5
5
5
5
5
5
5
5
5
5
5
5
5
5
5
5
5
5
5
5
5
5
5
5
5
5
5
5
5
5
5
5
5
5
5
5
5
5
5
5
5
5
5
5
5
5
5
5
5
5
5
5
5
5
5
5
5
5
5
5
5
5
5
5
5
5
5
5
5
5
5
5
5
5
5
5
5
5
5
5
5
5
5
5
5
5
5
5
5
5
5
5
5
5
5
5
5
5
5
5
5
5
5
5
5
5
5
5
5
5
5
5
5
5
5
5
5
5
5
5
5
5
5
5
5
5
5
5
5
5
5
5
5
5
5
5
5
5
5
5
5
5
5
5
5
5
5
5
5
5
5
5
5
5
5
5
5
5
5
5
5
5
5
5
5
5
5
5
5
5
5
5
5
5
5
5
5
5
5
5
5
5
5
5
5
5
5
5
5
5
5
5
5
5
5
5
5
5
5
5
5
5
5
5
5
5
5
5
5
5
5
5
5
5
5
5
5
5
5
5
5
5
5
5
5
5
5
5
5
5
5
5
5
5
5
5
5
5
5
5
5
5
5
5
5
5
5
5
5
5
5
5
5
5
5
5
5
5
5
5
5
5
5
5
5
5
5
5
5
5
5
5
5
5
5
5
5
5
5
5
5
5
5
5
5
5
5
5
5
5
5
5
5
5
5
5
5
5
5
5
5
5
5
5
5
5
5
5
5
5
5
5
5
5
5
5
5
5
5
5
5
5
5
5
5
5
5
5
5
5
5
5
5
5
5
5
5
5
5
5
5
5
5
5
5
5
5
5
5
5
5
5
5
5
5
5
5
5
5
5
5
5
5
5
5
5
5
5
5
5
5
5
5
5
5
5
5
5
5
5
5
5
5
5
5
5
5
5
5
5
5
5
5
5
5
5
5
5
5
5
5
5
5
5
5
5
5
5
5
5
5
5
5
5
5
5
5
5
5
5
5
5
5
5
5
5
5
5
5
5
5
5
5
5
5
5
5
5
5
5
5
5
5
5
5
5
5
5
5
5
5
5
5
5
5
5
5
5
5
5
5
5
5
5
5
5
5
5
5
5
5
5
5
5
5
5
5
5
5
5
5
5
5
5
5
5
5
5
5
5
5
5
5
5
5
5
5
5
5
5
5
5
5
5
5
5
5
5
5
5
5
5
5
5
5
5
5
5
5
5
5
5
5
5
5
5
5
5
5
5
5
5
5
5
5
5
5
5
5
5
5
5
5
5
5
5
5
5
5
5
5
5
5
5
5
5
5
5
5
5
5
5
5
5
5
5
5
5
5
5
5
5
5
5
5
5
5
5
5
5
5
5
5
5
5
5
5
5
5
5
5
5
5
5
5
5
5
5
5
5
5
5
5
5
5
5
5
5
5
5
5
5
5
5
5
5
5
5
5
5
5
5
5
5
5
5
5
5
5
5
5
5
5
5
5
5
5
5
5
5
5
5
5
5
5
5
5
5
5
5
5
5
5
5
5
5
5
5
5
5
5
5
5
5
5
5
5
5
5
5
5
5
5
5
5
5
5
5
5
5
5
5
5
5
5
5
5
5
5
5
5
5
5
5
5
5
5
5
5
5
5
5
5
5
5
5
5
5
5
5
5
5
5
5
5
5
5
5
5
5
5
5
5
5
5
5
5
5
5
5
5
5
5
5
5
5
5
5
5
5
5
5
5
5
5
5
5
5
5
5
5
5
5
5
5
5
5
5
5
5
5
5
5
5
5
5
5
5
5
5
5
5
5
5
5
5
5
5
5
5
5
5
5
5
5
5
5
5
5
5
5
5
5
5
5
5
5
5
5
5
5
5
5
5
5
5
5
5
5
5
5
5
5
5
5
5
5
5
5
5
5
5
5
5
5
5
5
5
5
5
5
5
5
5
5
5
5
5
5
5
5
5
5
5
5
5
5
5
5
5
5
5
5
5
5
5
5
5
5
5
5
5
5
5
5
5
5
5
5
5
5
5
5
5
5
5
5
5
5
5
5
5
5
5
5
5
5
5
5
5
5
5
5
5
5
5
5
5
5
5
5
5
5
5
5
5
5
5
5
5
5
5
5
5
5
5
5
5
5
5
5
5
5
5
5
5
5
5
5
5
5
5
5
5
5
5
5
5
5
5
5
5
5
5
5
5
5
5
5
5
5
5
5
5
5
5
5
5
5
5
5
5
5
5
5
5
5
5
5
5
5
5
5
5
5
5
5
5
5
5
5
5
5
5
5
5
5
5
5
5
5
5
5
5
5
5
5
5
5
5
5
5
5
5
5
5
5
5
5
5
5
5
5
5
5
5
5
5
5
5
5
5
5
5
5
5
5
5
5
5
5
5
5
5
5
5
5
5
5
5
5
5
5
5
5
5
5
5
5
5
5
5
5
5
5
5
5
5
5
5
5
5
5
5
5
5
5
5
5
5
5
5
5
5
5
5
5
5
5
5
5
5
5
5
5
5
5
5
5
5
5
5
5
5
5
5
5
5
5
5
5
5
5
5
5
5
5
5
5
5
5
5
5
5
5
5
5
5
5
5
5
5
5
5
5
5
5
5
5
5
5
5
5
5
5
5
5
5
5
5
5
5
5
5
5
5
5
5
5
5
5
5
5
5
5
5
5
5
5
5
5
5
5
5
5
5
5
5
5
5
5
5
5
5
5
5
5
5
5
5
5
5
5
5
5
5
5
5
5
5
5
5
5
5
5
5
5
5
5
5
5
5
5
5
5
5
5
5
5
5
5
5
5
5
5
5
5
5
5
5
5
5
5
5
5
5
5
5
5
5
5
5
5
5
5
5
5
5
5
5
5
5
5
5
5
5
5
5
5
5
5
5
5
5
5
5
5
5
5
5
5
5
5
5
5
5
5
5
5
5
5
5
5
5
5
5
5
5
5
5
5
5
5
5
5
5
5
5
5
5
5
5
5
5
5
5
5
5
5
5
5
5
5
5
5
5
5
5
5
5
5
5
5
5
5
5
5
5
5
5
5
5
5
5
5
5
5
5
5
5
5
5
5
5
5
5
5
5
5
5
5
5
5
5
5
5
5
5
5
5
5
5
5
5
5
5
5
5
5
5
5
5
5
5
5
5
5
5
5
5
5
5
5
5
5
5
5
5
5
5
5
5
5
5
5
5
5
5
5
5
5
5
5
5
5
5
5
5
5
5
5
5
5
5
5
5
5
5
5
5
5
5
5
5
5
5
5
5
5
5
5
5
5
5
5
5
5
5
5
5
POINT_DATA 2538
VECTORS disp float
7.534952177590893e-12 8.303039750237364e-12 0.0
-9.524244365165901e-14 -1.1101491181028087e-12 0.0
0.0007000000000756597 9.466426623511962e-13 0.0
0.0006999999805577322 -2.607442719012226e-11 0.0
0.0003702277279041263 0.00019483223520214284 0.0
0.0005378855835369739 -7.478965905111101e-6 0.0
0.000430505744483478 -3.952637768685151e-5 0.0
-1.7407733997263422e-12 -2.092681077502593e-12 0.0
5.364578121676296e-13 6.517236755053618e-13 0.0
1.9669503804379774e-13 -6.553754141695851e-13 0.0
7.070171954071328e-14 -4.2196060849769857e-13 0.0
-1.726276571811853e-14 -6.884715515489528e-13 0.0
4.0915234720878264e-14 -9.093984115665455e-13 0.0
3.748569679233911e-14 -1.0010492928663611e-12 0.0
6.423003628622316e-14 -1.037878555030477e-12 0.0
6.655148201800413e-14 -1.0500998425123838e-12 0.0
6.421939896528198e-14 -1.0551705669507458e-12 0.0
6.354641814373753e-14 -1.0758201442707837e-12 0.0
5.702793868546603e-14 -1.077768963594193e-12 0.0
6.069442234139193e-14 -1.07805533808195e-12 0.0
5.1779492288079063e-14 -1.1213235476765968e-12 0.0
6.715711910275423e-14 -1.0911492739103643e-12 0.0
8.580669920973043e-14 -1.1034063213126889e-12 0.0
7.939578926006736e-14 -1.109094127893742e-12 0.0
9.967015436722465e-14 -1.0688434664905597e-12 0.0
9.646028308933441e-14 -1.1385318828295754e-12 0.0
9.730245820687227e-14 -1.21676156450442e-12 0.0
1.0840785506274871e-13 -1.2780975774090684e-12 0.0
9.829100485166307e-14 -1.3297533662141334e-12 0.0
9.963700039700246e-14 -1.3104798540203995e-12 0.0
7.71650550986483e-14 -1.1906096997309552e-12 0.0
2.7203055424340415e-13 -6.74887843675113e-13 0.0
6.9057563191494705e-6 -3.6608630490073203e-7 0.0
1.307959591409661e-5 -9.049919725573558e-7 0.0
1.8649646251997134e-5 -1.440799318584308e-6 0.0
2.4148884976295567e-5 -2.044438552962794e-6 0.0
2.950959912266903e-5 -2.760171127361523e-6 0.0
3.472467900342751e-5 -3.6169647803848316e-6 0.0
3.974868776657164e-5 -4.490008504573658e-6 0.0
4.451453838415388e-5 -5.470583723052943e-6 0.0
4.922342137059882e-5 -6.5240097905114926e-6 0.0
5.391402981118827e-5 -7.580740980857983e-6 0.0
5.859315470254956e-5 -8.714171885676646e-6 0.0
6.337886264033915e-5 -9.876683637829155e-6 0.0
6.842880124910277e-5 -1.103472811876511e-5 0.0
7.371134606026555e-5 -1.2255434609504596e-5 0.0
7.918026398203244e-5 -1.3541414511135422e-5 0.0
8.500114250723883e-5 -1.4795299537123129e-5 0.0
9.119879077062412e-5 -1.605420227579904e-5 0.0
9.79299027640996e-5 -1.7301580137597513e-5 0.0
0.00010502581302384007 -1.8560431265961648e-5 0.0
0.00011236036747552698 -1.9816271193892587e-5 0.0
0.00011981171328284544 -2.1093663833900392e-5 0.0
0.00012738232755294283 -2.2379439009043962e-5 0.0
0.00013513613269451879 -2.371222326577724e-5 0.0
0.0001430032374233624 -2.500590819291094e-5 0.0
0.00015097529722325433 -2.634434437283784e-5 0.0
0.00015897776678408534 -2.7650132128233865e-5 0.0
0.00016705475804908664 -2.8981149713336735e-5 0.0
0.00017530073977626892 -3.0275207990214187e-5 0.0
0.00018343496617043734 -3.162782534694867e-5 0.0
0.00019151622884953923 -3.2977609412202945e-5 0.0
0.00019981859582999777 -3.4338874059819947e-5 0.0
0.000208355573644041 -3.567913716576981e-5 0.0
0.0002170739161346586 -3.7036177589982625e-5 0.0
0.0002262013532635565 -3.83882803358939e-5 0.0
0.0002363928868438006 -3.97570170609306e-5 0.0
0.00024765077008350876 -4.105377239828409e-5 0.0
0.00025928115087048536 -4.2255253797968706e-5 0.0
0.00026943373813673237 -4.330385571453268e-5 0.0
0.00027762037707174033 -4.446872959217826e-5 0.0
0.00028463396215781583 -4.550143802453374e-5 0.0
0.0002900111584597301 -4.650257299790093e-5 0.0
0.0002940276318440317 -4.7521353914092254e-5 0.0
0.00029892025998963935 -4.8058661662412936e-5 0.0
0.0003028574615244372 -4.892285193672065e-5 0.0
0.0003065041262237904 -5.013639905630832e-5 0.0
0.0003106326710460464 -5.141847601288012e-5 0.0
0.0003148003113385891 -5.288956073890156e-5 0.0
0.00031882334861146243 -5.4300239732252155e-5 0.0
0.00032332140164888066 -5.65079565688013e-5 0.0
0.00032820012646735385 -5.8608788509215365e-5 0.0
0.00033315122627600527 -6.048486063963953e-5 0.0
0.00033839949221687606 -6.224736892590118e-5 0.0
0.0003437048865909296 -6.403657216979542e-5 0.0
0.0003492652082098676 -6.585392861850583e-5 0.0
0.0003547426679481006 -6.712295294148696e-5 0.0
0.0003618605803035946 -6.794148501093683e-5 0.0
0.000369402838169584 -6.856457719739577e-5 0.0
0.00037698000231526903 -6.926447394653666e-5 0.0
0.00038424052433036926 -6.996128821894107e-5 0.0
0.0003913018050761722 -7.062551500010668e-5 0.0
0.00039846598895723867 -7.133553195569913e-5 0.0
0.0004058214570385246 -7.183143854728484e-5 0.0
0.00041313936683698313 -7.211557130920994e-5 0.0
0.00042005655039229866 -7.247099984798799e-5 0.0
0.00042689785017861525 -7.294450149245607e-5 0.0
0.00043363234051396873 -7.338826739869231e-5 0.0
0.0004402158584068152 -7.381406646052307e-5 0.0
0.0004467607513681573 -7.426279532228154e-5 0.0
0.00045343700780330726 -7.471366553675178e-5 0.0
0.0004602422828596712 -7.525991701011267e-5 0.0
0.0004670873436349379 -7.583495779176267e-5 0.0
0.0004741929975279493 -7.646670076136394e-5 0.0
0.00048137083781080945 -7.717480516697423e-5 0.0
0.0004883668022626285 -7.739855342833869e-5 0.0
0.000495918544270985 -7.763052170163991e-5 0.0
0.0005033760537885635 -7.814274465919029e-5 0.0
0.0005113020055149868 -7.832645939740931e-5 0.0
0.000519281272199424 -7.812515359851764e-5 0.0
0.0005273267962143817 -7.780008403737818e-5 0.0
0.0005351964941053644 -7.735289224738898e-5 0.0
0.0005430203962475906 -7.69477823344398e-5 0.0
0.0005503483526502274 -7.65688401714887e-5 0.0
0.0005572529852732902 -7.625774256059035e-5 0.0
0.0005636940873983546 -7.602394117624824e-5 0.0
0.0005696088536461226 -7.584181106675574e-5 0.0
0.0005753530302294652 -7.574335981258409e-5 0.0
0.0005811276373100233 -7.555421369451734e-5 0.0
0.0005864239081455864 -7.528478296940468e-5 0.0
0.0005916838558093311 -7.496794471655535e-5 0.0
0.000597596479677366 -7.438978568876124e-5 0.0
0.0006039975946148148 -7.331770933121833e-5 0.0
0.0006099281797140397 -7.162265191613421e-5 0.0
0.0006159541040908995 -6.945163929662863e-5 0.0
0.0006221616552722719 -6.6801772663353e-5 0.0
0.0006292473263424538 -6.356370293013551e-5 0.0
0.0006361338459001542 -5.885724213799174e-5 0.0
0.0006420678517434119 -5.138745068832437e-5 0.0
0.0006532849448009885 -4.3070464495739546e-5 0.0
0.000664322722991683 -2.9871492042297276e-5 0.0
0.0007000000031354897 2.952289007895951e-12 0.0
0.0006999999980966226 -2.422460009598336e-12 0.0
0.000699999999932681 6.150781112775531e-13 0.0
0.0006999999993959973 1.0214798559670078e-13 0.0
0.0006999999998153183 4.839171220546762e-13 0.0
0.0006999999997333354 6.521824311858971e-13 0.0
0.0006999999998243007 7.039422786379982e-13 0.0
0.0006999999998132603 7.513534670877902e-13 0.0
0.0006999999997828789 7.874549925706311e-13 0.0
0.0006999999997866335 7.744417388156032e-13 0.0
0.000699999999771563 7.851874234998868e-13 0.0
0.0006999999997647253 7.826645523814453e-13 0.0
0.0006999999997689601 8.011451454316219e-13 0.0
0.0006999999997655006 8.132270294650728e-13 0.0
0.0006999999997635485 8.181784520531875e-13 0.0
0.0006999999997489846 7.90969672949934e-13 0.0
0.0006999999997200976 7.417767113692966e-13 0.0
0.0006999999997087559 5.991544942195294e-13 0.0
0.0006999999995863039 5.439849527058967e-13 0.0
0.000699999999736295 4.978588132328876e-13 0.0
0.0006999999997183037 5.109198338383722e-13 0.0
0.000699999999676181 4.70943660930551e-13 0.0
0.0006999999998169511 4.490984967854727e-13 0.0
0.0006999999998526269 6.034537300670024e-13 0.0
0.000699999999948005 5.158802065415252e-13 0.0
0.0006614410363678022 1.035121344662396e-5 0.0
0.000628207283966604 1.1652083207353901e-5 0.0
0.000592859768342863 5.270275131364521e-6 0.0
0.0005615830976788375 -3.1202306847305673e-6 0.0
0.0005326464810910447 -3.163963240471257e-5 0.0
0.0005287768432604619 -4.658166915455673e-5 0.0
0.0005265166980018348 -6.203083711566764e-5 0.0
0.000522122992790516 -7.417803510591653e-5 0.0
0.0005163665318924834 -8.342602086680993e-5 0.0
0.0005089745820878339 -9.130283626673923e-5 0.0
0.0005014778563914093 -9.701062273538615e-5 0.0
0.0004928121661118613 -0.00010104012104839542 0.0
0.0004866680405810478 -0.00010316278060414183 0.0
0.000480844188314828 -9.832681403819173e-5 0.0
0.0004720974848935381 -8.763407984318502e-5 0.0
0.00045763659303459017 -7.138981517732922e-5 0.0
0.00042204392860615127 -2.4458643303884014e-5 0.0
0.00041559472579453345 -1.2626610544677225e-5 0.0
0.0004096216041951272 -1.2490890144071406e-6 0.0
0.0004034663170346761 1.0889348567910641e-5 0.0
0.0003969507747109865 2.264623623689999e-5 0.0
0.0003909930882243452 3.4922796252648765e-5 0.0
0.00038472740650554284 4.8731793627660386e-5 0.0
0.00037872757211200716 6.341784879158859e-5 0.0
0.00037412470984737027 8.279423184812571e-5 0.0
0.00037006535086954776 0.00010298304129170805 0.0
0.00036865893217837893 0.0001281103799655439 0.0
0.00036596727972488207 0.00015958836073600796 0.0
0.0003371909088185686 0.00019524340254838525 0.0
0.00028169676923402626 0.000196135323871612 0.0
0.00023438708593410206 0.00018726556695529523 0.0
0.00017688022694758296 0.00015022343644576443 0.0
0.00018563363444473003 -3.091771572109694e-5 0.0
0.0004639514091038004 -6.954191137753528e-5 0.0
0.00025181915667109956 -3.9632703755857974e-5 0.0
0.00041659096530539204 -6.703400683044164e-5 0.0
0.00030061430411325524 -4.8003309678046696e-5 0.0
0.000364340433778676 -6.212088962952426e-5 0.0
0.0003243806255432671 -5.4474769778201936e-5 0.0
0.000508586332013339 -7.149649606208275e-5 0.0
0.0001386360488761923 -2.4034874851984683e-5 0.0
0.0005459477705239638 -7.002863669413136e-5 0.0
0.00010092803341106355 -1.8309778183070405e-5 0.0
1.6197704845863493e-5 -2.501185924768068e-6 0.0
0.0006753948033305511 6.974048651987361e-7 0.0
0.00042889523401813147 -4.445147746333717e-5 0.0
0.000483466610550035 -9.774448972823205e-5 0.0
0.00040187571343914825 -2.944979441106082e-5 0.0
0.00037729320867786525 1.8549622401411576e-5 0.0
0.0005783260413396952 -6.913694982837883e-5 0.0
7.153266039348213e-5 -1.2991809811774036e-5 0.0
1.2081098629383086e-5 -1.8593187072968115e-6 0.0
0.0006831733613205163 5.028905624937252e-7 0.0
0.000665946456210049 2.5960229762546585e-7 0.0
1.9555273769065836e-5 -3.128229776817528e-6 0.0
0.0006014722858497894 -6.495592134911239e-5 0.0
5.134602819279148e-5 -8.742500155154194e-6 0.0
0.0005112556778695133 -8.143426057187599e-5 0.0
0.00035580500659888664 5.655367649741237e-5 0.0
9.450948487286754e-6 -1.26516106949287e-6 0.0
0.0006871913302830517 1.9822318855360465e-7 0.0
0.00028713696165630744 -4.5453065567067936e-5 0.0
0.00031180668592482646 -5.0850482906035874e-5 0.0
0.0003943472810049941 -6.513807482213945e-5 0.0
0.00033994734335891796 -5.8827081980419324e-5 0.0
0.0004370140097330385 -6.849168723219017e-5 0.0
0.00048432767792838986 -7.106330435072971e-5 0.0
0.0002222532012595771 -3.623000079334411e-5 0.0
0.00016223242047531277 -2.7596802612715914e-5 0.0
0.0006199391137721567 -5.784527500721791e-5 0.0
3.683001533984485e-5 -5.390793749998949e-6 0.0
0.0006642008380778597 -1.5304076977935336e-6 0.0
2.0932241820746162e-5 -2.1568557878836966e-6 0.0
0.0006883407317669296 -1.1935267417668395e-6 0.0
8.438329489750812e-6 -1.2389845580946985e-6 0.0
0.0005289280237093595 -6.421040254860927e-5 0.0
0.00034865265958324373 9.249184397268009e-5 0.0
0.0006600705660115012 -2.1938973413867356e-6 0.0
3.260233282822808e-5 2.099451218295013e-6 0.0
1.4067034978744882e-5 -2.1882280439379025e-6 0.0
0.0006792159208480677 5.656748604567475e-7 0.0
0.0004617694819962967 -8.6484340335828e-5 0.0
0.00039045356254540183 -5.836074499945207e-6 0.0
2.0871289922346558e-5 -2.522309907782753e-6 0.0
0.0006450179219039904 -4.071334342866981e-5 0.0
0.000449885708091176 -6.961226862134081e-5 0.0
0.0003510324526248719 -6.17110424144814e-5 0.0
0.0002739508445599951 -4.2645105208157225e-5 0.0
0.0002031136205712282 -3.372637935655483e-5 0.0
0.00038010011168905056 -6.34051201689451e-5 0.0
0.0005234360237248111 -7.128881021328955e-5 0.0
0.00012333762672748285 -2.173913337955159e-5 0.0
0.0005605051318980421 -7.00215005027364e-5 0.0
8.691548436604028e-5 -1.6019629966004658e-5 0.0
6.0562203364719535e-5 -1.0786126778970537e-5 0.0
0.0005892447484015955 -6.756149846701731e-5 0.0
0.0002514652303864083 0.00012129705911167999 0.0
0.0006000130011777296 -1.0577464266847789e-5 0.0
0.000686265657829996 -2.7771303019194383e-6 0.0
6.723516006358117e-6 -9.457037842017629e-7 0.0
0.0003448722178401574 0.00013988456475522314 0.0
0.0005406424950986367 -3.741340972815781e-5 0.0
4.274287010193862e-5 6.492560700831681e-6 0.0
0.0006695614023124513 -9.68712386411197e-8 0.0
9.705603011094272e-6 -9.239147122470804e-7 0.0
0.0006670679138457066 -1.8027883405085864e-5 0.0
0.0005711707447571478 -1.8098191743423133e-5 0.0
0.000571992461939459 -2.5966268698863667e-5 0.0
0.0006042797150619463 -1.4240383478055179e-5 0.0
0.0005753582436914586 -2.3869927304904702e-5 0.0
0.0005494885743855294 -3.772701288456828e-5 0.0
0.0005483517068642289 -3.298763564480524e-5 0.0
0.0005749789074239028 -2.1022413548157158e-5 0.0
0.0005491571298843967 -2.6517060932405613e-5 0.0
0.0005764695795679633 -1.7452627763067517e-5 0.0
0.000552358661986737 -2.1177897483869896e-5 0.0
0.0005272228490246206 -2.9845006789455486e-5 0.0
0.0005300614478528646 -2.3676668994995077e-5 0.0
0.0005083685818862344 -3.0807052484324495e-5 0.0
0.0005104515303198523 -2.485705747615309e-5 0.0
0.0004917550236059169 -3.053059740685474e-5 0.0
0.0004935013875855841 -2.342380851121333e-5 0.0
0.0004222208836897853 -3.043692825509588e-5 0.0
0.00042014769055660826 -3.0978052112533175e-5 0.0
0.00041615022579147634 -2.4341960748338605e-5 0.0
0.0004115923199263219 -2.6967740301436697e-5 0.0
0.0004101232708871887 -2.139032977115828e-5 0.0
0.00040487062261726324 -2.3452406542896432e-5 0.0
0.0004049386114446578 -1.8897262287321957e-5 0.0
0.0003992106711165933 -2.0831063628647806e-5 0.0
0.00040048684229914436 -1.7240164708184175e-5 0.0
0.0003940989906649788 -1.941892663740872e-5 0.0
0.0003962360747404653 -1.6307138789256107e-5 0.0
0.00038979774009441256 -1.8056764622452605e-5 0.0
0.00039240058310496145 -1.5354662817558223e-5 0.0
0.00038611406580907646 -1.665651744908409e-5 0.0
0.00038883315509728847 -1.4103254033333845e-5 0.0
0.00038252490184972985 -1.5339226047285636e-5 0.0
0.00038559221252994224 -1.318389083220632e-5 0.0
0.000378971445008121 -1.458640862748706e-5 0.0
0.0003824668450790335 -1.2532761575781603e-5 0.0
0.0003758889553034548 -1.3649777954909572e-5 0.0
0.00037954685515366747 -1.1737633639811667e-5 0.0
0.00037299198236966145 -1.2835191309815305e-5 0.0
0.00037659308909066577 -1.1127704351068624e-5 0.0
0.00037018519591735735 -1.2233186322720957e-5 0.0
0.00037390402623311967 -1.0719688546310107e-5 0.0
0.00036771298364367256 -1.1752615227546363e-5 0.0
0.00037131385154263866 -1.0257033454122966e-5 0.0
0.0003649968057028583 -1.1457877801670485e-5 0.0
0.0003687445303314082 -1.0012778311670511e-5 0.0
0.0003610936501245624 -1.1573602592400047e-5 0.0
0.00036656234571335884 -9.912096577767521e-6 0.0
0.00035989960312789827 -1.101815483006793e-5 0.0
0.0003642424477892693 -9.817098706130598e-6 0.0
0.0003577940831899507 -1.0982417365049823e-5 0.0
0.0003620366844000722 -9.910089293846326e-6 0.0
0.000355931743362109 -1.1052376521453388e-5 0.0
0.00035984260181123006 -1.011079775931433e-5 0.0
0.00035384564207397817 -1.1249637512980957e-5 0.0
0.00038915298055297766 -2.2722637309157545e-5 0.0
0.0003577221828027943 -1.0441352695045302e-5 0.0
0.00037124567357686044 -1.5729677242641258e-5 0.0
0.0003537228303861673 -1.2471814435274954e-5 0.0
0.00035144051042748214 -1.1691754523361227e-5 0.0
0.0003556225564801743 -1.0921330177853717e-5 0.0
0.0003490556423597132 -1.2258205767432131e-5 0.0
0.0003448389017612448 -1.2941427169757503e-5 0.0
0.00034227649753167306 -1.3584717827576386e-5 0.0
0.0003532565378830176 -1.156774905933097e-5 0.0
0.00035969318231632313 -1.0189991114116127e-5 0.0
0.00037011945152359713 -8.819071217914464e-6 0.0
0.00035742031245569294 -1.0933339901518857e-5 0.0
0.00036418509283006004 -9.445061015262404e-6 0.0
0.00036167889924696404 -1.0356786949895338e-5 0.0
0.00033795592883329833 -1.4187609642877665e-5 0.0
0.0003357220062749324 -1.4804666607285667e-5 0.0
0.00036862165039647547 -8.807187443321981e-6 0.0
0.0003308446372139658 -1.5373440512746143e-5 0.0
0.00032899314397438973 -1.598827781712227e-5 0.0
0.00036630668542862857 -9.783144928745667e-6 0.0
0.00037297003574703676 -8.32164413245441e-6 0.0
0.0003235192852677983 -1.648614213663601e-5 0.0
0.00032160570927553873 -1.7149567380559535e-5 0.0
0.0003709100979397011 -9.344368676812944e-6 0.0
0.00037784590715698524 -7.84871351814417e-6 0.0
0.0003160929915887788 -1.7475023031616244e-5 0.0
0.00031417925451945736 -1.822554486439553e-5 0.0
0.0003758319441613771 -9.017584827658081e-6 0.0
0.0003831733056857613 -7.478464626380085e-6 0.0
0.00030855606706977435 -1.835739134756041e-5 0.0
0.00030630918968581854 -1.913359968348535e-5 0.0
0.0003813323511662969 -8.739053444614391e-6 0.0
0.0003889636507694106 -7.183376626445472e-6 0.0
0.00030001429133824284 -1.9090139979477908e-5 0.0
0.0002980460836086686 -1.9903832220550593e-5 0.0
0.0002907389742034433 -1.9719120171580568e-5 0.0
0.0002926950717943715 -1.8988014772404445e-5 0.0
0.00037340645941117236 -1.036555662971618e-5 0.0
0.00038715983885954843 -8.581439588889518e-6 0.0
0.0003951838210481936 -6.975703087278839e-6 0.0
0.0003971003592808854 -5.605316851296257e-6 0.0
0.0003820531234056322 -1.0099321705126608e-5 0.0
0.000403811372743284 -5.3568202845219125e-6 0.0
0.00040577163358942303 -4.071715197133666e-6 0.0
0.00041294893025323686 -3.7544944908315622e-6 0.0
0.00028956394626496656 -2.062367516134019e-5 0.0
0.00028129960028730597 -2.0189417584020296e-5 0.0
0.0002966328787902395 -2.091121370285424e-5 0.0
0.0003932316426015725 -8.571943341032493e-6 0.0
0.00028037528528556695 -2.1114907368301478e-5 0.0
0.0002710253211923644 -2.0526305839651367e-5 0.0
0.00039428205280799575 -1.2893930001991717e-5 0.0
0.000270178908970269 -2.13709804746936e-5 0.0
0.0002596690297189003 -2.069035823231516e-5 0.0
0.0002588166126586326 -2.153679859536789e-5 0.0
0.0002476410852057631 -2.0759892297495226e-5 0.0
0.0002483566101387368 -1.9983432159126276e-5 0.0
0.00023516458506018658 -2.0075028479336894e-5 0.0
0.00023621409419261782 -1.9290066286493133e-5 0.0
0.0002452332754633418 -2.1612628721369413e-5 0.0
0.0002219854861007088 -1.934601037099458e-5 0.0
0.00022305583904251022 -1.860938185409941e-5 0.0
0.00025805921285551597 -2.2535437624772544e-5 0.0
0.0002463252413337949 -2.2695683148817143e-5 0.0
0.00020934285068551978 -1.855335253569765e-5 0.0
0.00020996982881320872 -1.7888159174637022e-5 0.0
0.00041504867816374765 -2.6364626000793627e-6 0.0
0.000422735118258241 -2.278977779987449e-6 0.0
0.00025732970376638457 -2.3600736164106746e-5 0.0
0.00024562424248589335 -2.3712899339950444e-5 0.0
0.0004248637138051765 -1.2778456845686018e-6 0.0
0.00043311080145433677 -8.897138655301583e-7 0.0
0.0004305931524739427 -2.1091888013960074e-6 0.0
0.00044129351831581067 -6.148074685868088e-7 0.0
0.0004390262706148734 -2.0350600045858342e-6 0.0
0.0004500430270137737 -3.991436297949903e-7 0.0
0.0004483746407403277 -1.9304838370110005e-6 0.0
0.00046009396720921004 -7.105270261828323e-8 0.0
0.00045754112762876357 -1.7973171264871668e-6 0.0
0.000461597938293993 1.0676440681837862e-6 0.0
0.00046972364650491483 1.291704475652306e-7 0.0
0.00046666639914378456 -1.8602265832030806e-6 0.0
0.00025677640230770176 -2.4698787173435897e-5 0.0
0.00019561688298699333 -1.774171289458295e-5 0.0
0.0001960095542521257 -1.7095908099594204e-5 0.0
0.0004553391012004647 -4.294067969845682e-6 0.0
0.00046418907544439465 -4.620180583985352e-6 0.0
0.00047568943113532227 -2.0089581267571688e-6 0.0
0.0004536325312156631 -7.4427301054057815e-6 0.0
0.0002451970523409865 -2.4778235002665808e-5 0.0
0.00047331571944308966 -5.157221007118788e-6 0.0
0.0004849441807123377 -2.2679934050202422e-6 0.0
0.00025622864529193745 -2.5850348061784803e-5 0.0
0.00024470648093412024 -2.5899523390365574e-5 0.0
0.0002336741668732777 -2.4832133503934872e-5 0.0
0.00048264279914284465 -5.958297106293911e-6 0.0
0.0004945699916377017 -2.7338943771795985e-6 0.0
0.0002556830052677338 -2.7064058202045387e-5 0.0
0.0002661106554724866 -2.7017504625811385e-5 0.0
0.0002331738982747763 -2.5935217198529014e-5 0.0
0.0002225128634185346 -2.4860349530032402e-5 0.0
0.0004920247375172298 -7.044623361647932e-6 0.0
0.0005046952422269736 -3.4657545634406074e-6 0.0
0.000507069044698568 7.915997954007044e-8 0.0
0.0004802313642330978 -1.045502978299175e-5 0.0
0.0005174698498240781 -2.080036739874071e-7 0.0
0.0005199496475180086 1.8868498066859545e-6 0.0
0.00018084563776599082 -1.6849686926642122e-5 0.0
0.00018211006106200702 -1.6280499164042694e-5 0.0
0.0002002326048403632 -1.6638448929971237e-5 0.0
0.00018288616349130233 -1.581113231414027e-5 0.0
0.00020050065638736346 -1.629133078396324e-5 0.0
0.00018357179327981537 -1.5583558247460136e-5 0.0
0.0002008216718690285 -1.6149054191248844e-5 0.0
0.0002656798432573222 -2.833062087814477e-5 0.0
0.0002744057567529557 -2.8203036041200647e-5 0.0
0.00022202208903497053 -2.5937258570212258e-5 0.0
0.0002117410097909419 -2.4829681758227128e-5 0.0
0.000514974917753791 -4.6035042145918095e-6 0.0
0.0001860859681704325 -1.559745172449005e-5 0.0
0.0002025551475472114 -1.630998685713703e-5 0.0
0.0002740073347385381 -2.960732747650151e-5 0.0
0.0002813211964392358 -2.9397940976821744e-5 0.0
0.0003210268636478518 -1.7770493403745745e-5 0.0
0.0005280219881873483 -7.809274549001671e-7 0.0
0.00040895179530358466 -1.7522660898574948e-5 0.0
0.0004205743157108233 -3.4690645505070276e-5 0.0
0.0003629751489919708 -1.3332956776680995e-5 0.0
0.0004347642390308049 -1.0218043631075249e-7 0.0
0.00018642235894350017 -1.580910743855624e-5 0.0
0.00020572518428073743 -1.6757400635301903e-5 0.0
0.00021132939076684196 -2.5899580568100004e-5 0.0
0.00020132178675462116 -2.4744543348033134e-5 0.0
0.00028099998041227294 -3.0915979879562945e-5 0.0
0.00028745787773291784 -3.0597624295769606e-5 0.0
0.000525423350178355 -6.0614154286341504e-6 0.0
0.0001663779197262791 -1.5924525549356464e-5 0.0
0.00016556738459017135 -1.6563705424232917e-5 0.0
0.00016571261074961894 -1.4784770409487854e-5 0.0
0.0005386188645874541 -1.7594027167962029e-6 0.0
0.00018802379125869935 -1.6122561771648194e-5 0.0
0.00020771398205634577 -1.7282224277016333e-5 0.0
0.0002738776383015621 -3.1151351961722225e-5 0.0
0.0002010410154911045 -2.579742218857094e-5 0.0
0.00019120666464410985 -2.4567755974312074e-5 0.0
0.0004266652048008119 -6.149481142444203e-7 0.0
0.00043684887409532064 4.0081258792191454e-7 0.0
0.0004283672850455312 -2.2577408498691285e-7 0.0
0.00043891494574208175 6.981028580295078e-7 0.0
0.00028700396829268565 -3.21885913159399e-5 0.0
0.0002929676386390376 -3.171889767202032e-5 0.0
0.0003182484469545853 -1.6915894552871624e-5 0.0
0.00018946911636288306 -1.6521714981851342e-5 0.0
0.0002089228268083792 -1.779520997550836e-5 0.0
0.0005362196272734536 -7.839531519598933e-6 0.0
0.0005244121590745231 -1.188901211732279e-5 0.0
0.00018677507069763273 -1.6564594780401654e-5 0.0
0.00020932917761651304 -1.7962673154590834e-5 0.0
0.000548987100638091 -3.2365222345517706e-6 0.0
0.0005499547926774106 4.2064632637329807e-7 0.0
0.00019029154252950115 -1.6309806293133635e-5 0.0
0.0002106080967244039 -2.713851079695718e-5 0.0
0.000292366520752587 -3.342379857248315e-5 0.0
0.0002979945626001339 -3.279976848820249e-5 0.0
0.0002987405327399272 -3.107440012049292e-5 0.0
0.00030353198641096203 -3.2037133605530805e-5 0.0
0.0003044022032022424 -3.0299885712285415e-5 0.0
0.00030904387153763454 -3.1137771801760804e-5 0.0
0.00031005073014539285 -2.935884953268944e-5 0.0
0.0003146622174230403 -3.0080885599997016e-5 0.0
0.00031582952811456705 -2.8271618392920395e-5 0.0
0.0003204482553093546 -2.8863428518179143e-5 0.0
0.00031924633917292084 -3.079965559988178e-5 0.0
0.00032503111246815375 -2.946716880813576e-5 0.0
0.00032378819783082256 -3.1509017045593065e-5 0.0
0.0003295966060885894 -3.008333203001119e-5 0.0
0.00032829286306998765 -3.223311809143619e-5 0.0
0.0003342215368151791 -3.07298424928344e-5 0.0
0.0003217835593993247 -2.702939149470736e-5 0.0
0.0003355798306575576 -2.8565770756356744e-5 0.0
0.0003403847690975032 -2.914741687427235e-5 0.0
0.00033897322569604194 -3.145818068785093e-5 0.0
0.00034536215419117815 -2.9847520011944997e-5 0.0
0.00015077211061927974 -1.5508644296164446e-5 0.0
0.00014988448166672514 -1.6199222662552867e-5 0.0
0.00019099662535966523 -2.5555090949221087e-5 0.0
0.00018145001111242296 -2.4282037840258466e-5 0.0
0.0003468353847267305 -2.753033988618602e-5 0.0
0.0003520252662215191 -2.8196016438839174e-5 0.0
0.0003505566132457806 -3.0644287943055e-5 0.0
0.00035759865227275413 -2.898484973222695e-5 0.0
0.00013546420826328614 -1.504802676487098e-5 0.0
0.00013461833796109583 -1.577709834905081e-5 0.0
0.00043015377901834914 -7.688369179544597e-8 0.0
0.00044112078477787157 7.253512469706534e-7 0.0
0.0004321540148078538 -1.743781949333823e-7 0.0
0.0005468565402821253 -9.696836275273965e-6 0.0
0.0005590845918715592 -4.910779826234676e-6 0.0
0.00029733612644540334 -3.461038363842368e-5 0.0
0.0002233060584330694 -1.71689951409903e-5 0.0
0.00035979514647582577 -1.1256713606310884e-5 0.0
0.0003561575071171122 -3.1568392500570714e-5 0.0
0.0003634834244570276 -2.9938298792661166e-5 0.0
0.00036472881414916376 -2.7317860305900964e-5 0.0
0.00037100099520810377 -2.8285861009819446e-5 0.0
0.0003755008058883412 -7.358889456733034e-6 0.0
0.0004438031943370101 6.065646119329127e-7 0.0
0.00045233700736293765 1.50278721524574e-6 0.0
0.00021110707377970742 -1.724560722072953e-5 0.0
0.00018122366123041067 -2.5193224111989384e-5 0.0
0.00017181413197043488 -2.3866503510021496e-5 0.0
0.0004343605835577154 -4.6249067903470885e-7 0.0
0.0003697618787716685 -3.1098622744329756e-5 0.0
0.00037756809836969737 -2.9560206399325184e-5 0.0
0.0003787305343494602 -2.665560354079837e-5 0.0
0.0003855329921838012 -2.7975574786081994e-5 0.0
0.00038681321920142124 -2.507710218478136e-5 0.0
0.0003936693374949378 -2.6324916024718637e-5 0.0
0.00039240093521528845 -2.942781735177335e-5 0.0
0.0004006260437768147 -2.775120134090286e-5 0.0
0.000190501435203766 -1.4489236155034787e-5 0.0
0.00012075746938738943 -1.456393968542598e-5 0.0
0.00011989411752629225 -1.5246043197057208e-5 0.0
0.0002919274747914106 -3.519464450772877e-5 0.0
0.0005565102354057989 -1.2203064333087224e-5 0.0
0.0005690314419406312 -6.795015027840916e-6 0.0
0.000399380008247773 -3.103314473641661e-5 0.0
0.00040749927907430226 -2.9363099893666838e-5 0.0
0.00021263100085294062 -1.3968085341523337e-5 0.0
0.00017171777973411654 -2.4713764785852993e-5 0.0
0.0001622338369360147 -2.332733119082047e-5 0.0
0.00022907668230427443 -1.918708243520978e-5 0.0
0.0005126392061484936 -1.8689164762658923e-5 0.0
0.00029672595032772045 -3.642356481450983e-5 0.0
0.0001911005130086619 -9.68547049770414e-6 0.0
0.00017167703268378235 -1.541424409895299e-5 0.0
0.0005652395865116858 -1.6233444590704528e-5 0.0
0.000578651777030418 -8.921753194951997e-6 0.0
0.0005816438418495867 -2.0989060726858993e-6 0.0
0.00016952311116528491 -1.412851676147448e-5 0.0
0.0005525293613524397 -1.9934165542508943e-5 0.0
0.00012067194399272047 -1.3879927856657508e-5 0.0
0.0001803298138498236 -2.6001499892434373e-5 0.0
0.00044629980215672813 1.9701606952155644e-7 0.0
0.0004366463850398037 -1.0778101357659673e-6 0.0
0.0003951085322818922 -2.3415637134099418e-5 0.0
0.000162212641034773 -2.4171510120766825e-5 0.0
0.0001528402954191575 -2.2713822168929042e-5 0.0
0.00010680154824363328 -1.401395870113093e-5 0.0
0.00010592223044955436 -1.4574544336918462e-5 0.0
0.00020167982058924238 -2.378242924958155e-5 0.0
0.00040626441734296415 -3.276841304538127e-5 0.0
0.0004143285561891257 -3.107674072246144e-5 0.0
0.00015286416081946238 -2.1990765004626623e-5 0.0
0.00014339474415688534 -2.1298186653249106e-5 0.0
0.0003985890522512082 -3.4170446307865576e-5 0.0
0.00029156311921993357 -3.686557272530807e-5 0.0
0.00014353427364752438 -2.2030207616768728e-5 0.0
0.00013412979545681527 -2.05476296614286e-5 0.0
0.00030522797492163874 -2.8689405956677964e-5 0.0
0.0005917177776483704 -3.5598526131671047e-6 0.0
0.0005945502893351238 6.274694217662937e-7 0.0
0.000588586833787016 -1.058567246747043e-5 0.0
0.0004132425200740586 -3.4729665836442635e-5 0.0
0.0004212887608080672 -3.301804124391197e-5 0.0
0.0003881703519382268 -2.2340817302104426e-5 0.0
0.0003966005523876753 -2.065514661191766e-5 0.0
0.0002962352775418295 -3.800145596707331e-5 0.0
0.00042244067026861915 -2.9286394288729244e-5 0.0
0.00042948386681194425 -3.1282624046335206e-5 0.0
9.375060097405725e-5 -1.3298625428115886e-5 0.0
9.342303659290745e-5 -1.3842732260320385e-5 0.0
0.00042875715446529037 -3.5649208384028515e-5 0.0
0.00043674675058435325 -3.3795537426099775e-5 0.0
0.00013452447576895018 -2.1339337396024443e-5 0.0
0.0001251883912096005 -1.9796970333104697e-5 0.0
0.0004486978643892615 -5.849236529051122e-7 0.0
0.00043897163313616255 -2.0121449094250733e-6 0.0
0.00012470790596876924 -1.9146340651422014e-5 0.0
0.00011586845105029947 -1.8319617851284795e-5 0.0
0.00011620862493074728 -1.9012048165517212e-5 0.0
0.00010705627920352186 -1.7482641012931526e-5 0.0
0.0006016614915933282 -4.9547261344599655e-6 0.0
0.0005981810496133798 -1.2332954666611742e-5 0.0
0.00021354456712679821 -6.351775424127488e-6 0.0
0.0001904529451124747 -4.220770250920629e-7 0.0
0.00042375840712464486 -1.193412893258683e-6 0.0
0.00029127956726886933 -3.79705796836992e-5 0.0
0.00043618410081914497 -3.840936332900701e-5 0.0
0.00044398800543590756 -3.64006677692398e-5 0.0
0.00047624326761221657 -2.8950352801055245e-5 0.0
0.000430739298794557 -2.7417101562293588e-5 0.0
0.0003226434722321238 -3.36418907946388e-5 0.0
0.0001064637945463397 -1.6936818121673823e-5 0.0
9.811853421126782e-5 -1.604397105521754e-5 0.0
9.86071185589054e-5 -1.667767755787573e-5 0.0
9.001819452402284e-5 -1.5197385747442713e-5 0.0
8.957825999027477e-5 -1.4741131489865803e-5 0.0
8.180478238653123e-5 -1.3811183248764084e-5 0.0
8.138216507782564e-5 -1.3526373047657617e-5 0.0
7.404495294336834e-5 -1.2500478898624972e-5 0.0
7.363565156689694e-5 -1.2409051237672951e-5 0.0
6.705307557882709e-5 -1.1356465363103602e-5 0.0
6.644730325859084e-5 -1.1355414115099243e-5 0.0
6.725702626188848e-5 -1.1534052919377532e-5 0.0
6.018962458144657e-5 -1.0202926129843005e-5 0.0
8.221380868643817e-5 -1.2531588559858892e-5 0.0
8.307676840071882e-5 -1.2098749343648704e-5 0.0
6.084215225199706e-5 -1.0573759535483738e-5 0.0
5.4511623123552526e-5 -9.28964119458124e-6 0.0
0.0002353127297789731 -1.2634587632676583e-5 0.0
0.00023505439095671948 -1.8517071119991236e-5 0.0
0.0003896808728694653 -1.9725707016035017e-5 0.0
0.00039809638187588244 -1.796318938451309e-5 0.0
0.0001329506381870093 -1.6436388551957454e-5 0.0
0.00029588920224882167 -3.8834016005088654e-5 0.0
0.0003007252399835919 -3.904594713445516e-5 0.0
0.0004051782827409985 -1.8904014835535944e-5 0.0
0.0004067243956807765 -1.6064817068347416e-5 0.0
0.0006114955645424963 -6.248233384509578e-6 0.0
0.0006071412004856363 -1.4070759621957134e-5 0.0
0.0005941543631754799 -2.1583755508370573e-5 0.0
0.0004276316394571988 -2.494085978928897e-6 0.0
0.0004300091862010281 -3.5802747835473357e-6 0.0
0.0002864583667965309 -3.6970088366412806e-5 0.0
0.0002863487510649772 -3.735401893226203e-5 0.0
0.00028106500737411184 -3.662077724233467e-5 0.0
9.0779092217091e-5 -1.5909966566261707e-5 0.0
0.0004412126300379452 -3.4028025401983643e-6 0.0
0.0004323316881276984 -5.246140007184389e-6 0.0
0.00020798531656116915 -1.9353136564351095e-5 0.0
0.00044318804295811267 -4.0926251058496286e-5 0.0
0.0004511055906071104 -3.8847518128555044e-5 0.0
0.00045210782735364543 -3.435454683804438e-5 0.0
0.00045926434516013005 -3.672477717127663e-5 0.0
0.00022162930066515552 5.792413129614465e-6 0.0
0.00019452030337298936 1.1704993939044473e-5 0.0
0.00028156450048376336 -2.802105740514352e-5 0.0
0.00043567640739410084 -4.2898468512658406e-5 0.0
0.0005545146188912678 -1.6911313747749072e-5 0.0
0.000458164437048505 -4.1321567175653875e-5 0.0
0.0004665203626808692 -3.9142514671465553e-5 0.0
0.0004676794016264051 -3.447951324066984e-5 0.0
0.0004751968050603317 -3.690624491928839e-5 0.0
0.0004765327434488822 -3.211591222957833e-5 0.0
0.0004840933867788226 -3.456094183568281e-5 0.0
0.0004827415487190975 -3.9448444089662524e-5 0.0
0.0004916407478181019 -3.711755157781073e-5 0.0
5.489074328801972e-5 -9.600669146460494e-6 0.0
4.881086018259202e-5 -8.318700173733971e-6 0.0
4.7546701715933686e-5 -7.891158481584025e-6 0.0
0.00030053369274872597 -3.993341827951226e-5 0.0
0.0003050231558346059 -4.020635208478065e-5 0.0
0.00028115878902112046 -3.619805010150559e-5 0.0
0.00027539169669176547 -3.573045078578876e-5 0.0
0.0006022200422294919 -2.3914532170797472e-5 0.0
0.0006153819118108194 -1.5838362412502833e-5 0.0
0.0004756972862677347 -3.632951055460035e-5 0.0
0.00046146503036654575 -3.4655942872903545e-5 0.0
0.00016612905042688545 3.65848487512927e-6 0.0
0.00017082409202360713 1.4975038755575995e-5 0.0
6.12152787382675e-5 -1.0996261684045356e-5 0.0
0.00026830716354194433 -2.3426069352929198e-5 0.0
0.0004184030733601297 -1.1108752944845551e-6 0.0
0.000590203451662742 -3.127859375822086e-5 0.0
0.00021740563195367317 -1.6711919808205615e-5 0.0
0.00041951108891066514 -4.021299279461141e-6 0.0
0.0004900473679530553 -4.212900651357043e-5 0.0
0.0004990678032894907 -3.9771041083864774e-5 0.0
0.0004933111183802729 -1.5624248778053816e-5 0.0
0.0005158653009338692 -1.2105973096075036e-5 0.0
0.00022423009731811324 2.1150888112537036e-5 0.0
0.0001049433275368954 -1.5123831102066571e-5 0.0
7.102526574577276e-5 -1.1185275711961375e-5 0.0
7.187925310168748e-5 -1.0780208646816762e-5 0.0
9.909933966269143e-5 -1.74175887550914e-5 0.0
0.00046593490162345584 -4.405383968717648e-5 0.0
0.00038499930240545497 -1.021049138767123e-5 0.0
0.00034923466834805043 -3.321728663429921e-5 0.0
0.00025577502149885643 -2.8330244055373748e-5 0.0
4.917198027865354e-5 -8.591332887701819e-6 0.0
4.328464651165282e-5 -7.328812601958055e-6 0.0
0.00014393199236429515 -2.288115481308099e-5 0.0
0.00041395824477064263 -1.7010207699429227e-5 0.0
0.0004155917577272077 -1.4014625185962605e-5 0.0
0.0002863587283689343 -3.689084468946685e-5 0.0
0.0005006277783432834 -8.24190808868117e-6 0.0
0.0005205201124280172 -6.166332098813581e-6 0.0
0.0005066499788883658 -2.9320372953313245e-6 0.0
0.0005262480325316514 -1.5084210143572489e-6 0.0
0.0005405777016042067 -4.474629227532005e-6 0.0
0.0005465723168105526 -4.887085106568442e-7 0.0
0.000532306134352489 1.629322906762727e-6 0.0
0.0005525076834501109 2.124215417293829e-6 0.0
0.0005384383444996564 3.34562961495745e-6 0.0
0.0005588218710654718 3.462308855318355e-6 0.0
0.0005450587705769969 4.205798133888022e-6 0.0
0.0005652243712464079 4.0476614724816325e-6 0.0
0.0005516903552679224 4.48598832033401e-6 0.0
0.000571694286836142 4.163911166443194e-6 0.0
0.0005316218014465841 4.531400929887943e-6 0.0
0.0005584364842801093 4.406031233535194e-6 0.0
0.0005776959657995877 3.998361018383635e-6 0.0
0.0005619184039845525 -3.100886016656511e-6 0.0
0.0001430783304287554 -2.069213166750372e-5 0.0
0.00013510344968527372 -2.2165804622096868e-5 0.0
0.0001441790473659324 -2.35701544894379e-5 0.0
0.0005652445242292683 4.132595537210568e-6 0.0
0.0005839629831577069 3.684348064746007e-6 0.0
0.0005476104068020083 4.415932684113782e-6 0.0
0.0003547759386552648 -3.4267608895904043e-5 0.0
0.00034786862084381086 -3.58702367532574e-5 0.0
0.00035343851428732835 -3.7035334634757276e-5 0.0
0.0003466624451784749 -3.85920820624052e-5 0.0
0.0003522401709996502 -3.988995430807517e-5 0.0
0.00034565353311686984 -4.151828907481852e-5 0.0
0.0003404629326252845 -4.019522209682427e-5 0.0
0.00033962299364479327 -4.311036358684785e-5 0.0
0.00033487584520679257 -4.171108660489223e-5 0.0
0.0004005224387874253 -3.230021685361039e-5 0.0
0.00035132721281585627 -4.312012829388669e-5 0.0
0.0003581057877138352 -4.1450736230424076e-5 0.0
0.00033311899545800615 -1.5648484019850855e-5 0.0
0.0003170680858507347 -2.656063678731824e-5 0.0
0.00032320029970842474 -2.5283197843664884e-5 0.0
0.00031839544400336025 -2.492839347133437e-5 0.0
0.00032470126539476193 -2.3614717623322543e-5 0.0
0.00031981969509231514 -2.3368819951454062e-5 0.0
0.0003262900151551428 -2.2027377341738e-5 0.0
0.0003311515952853909 -2.2172502452041738e-5 0.0
0.000332875984977961 -2.0562761903395877e-5 0.0
0.00033770083200881994 -2.0632260799509513e-5 0.0
0.00033952932223482935 -1.899582833864895e-5 0.0
0.0003440745755484256 -1.9038471613443827e-5 0.0
0.0003347586018036912 -1.8994834943518378e-5 0.0
0.0003213437096605635 -2.188845691090108e-5 0.0
0.0003147565540097237 -2.3119099820947596e-5 0.0
0.0003422133791678433 -2.0813949142794974e-5 0.0
0.0003489693053466843 -1.903531561529763e-5 0.0
0.00013571069127973472 -2.2751816819003728e-5 0.0
0.0003510795157701996 -1.2176974218611122e-5 0.0
0.00038097600827992773 -1.9251786328862154e-5 0.0
0.00035355792939286416 -2.5888304630870642e-5 0.0
0.0006149019692098098 -1.2275440092590053e-6 0.0
0.0006247425959575442 -2.0437435587002043e-6 0.0
0.0003882941204637928 -1.1354039651323596e-5 0.0
0.0003773986715106345 -9.304393072063401e-6 0.0
0.0004688390840800591 -2.9676350272142866e-5 0.0
0.00041031530945213597 -5.267684963815616e-6 0.0
0.0006102643723054325 -2.5777706053955886e-5 0.0
0.0006231753346445903 -1.73790678664268e-5 0.0
0.0003659461187225611 -8.911789673703574e-6 0.0
0.00027570864576290246 -3.4814239735836254e-5 0.0
0.0002691204135499131 -3.44318340532833e-5 0.0
0.0004014339626176734 -1.442912315896327e-5 0.0
0.0003341410825835748 -4.462692235553529e-5 0.0
0.0003296311121200088 -4.302868982790015e-5 0.0
0.0002688469948811416 -3.499578955358916e-5 0.0
0.00026101579465876844 -3.393015653252266e-5 0.0
0.0002606801530718395 -3.388919593474514e-5 0.0
0.0002508286033589967 -3.3135580265683655e-5 0.0
0.0002511164237225743 -3.273162439498451e-5 0.0
0.00024051110507022889 -3.225088501175029e-5 0.0
0.0002406643630885336 -3.179372425578024e-5 0.0
0.00023035933768936277 -3.143264501269464e-5 0.0
9.168717176871693e-5 -1.65854631538486e-5 0.0
0.0006279022828273912 4.2426183614289907e-7 0.0
0.0004432413727963211 -5.670466632891367e-6 0.0
0.00043412544730821005 -7.706256886148792e-6 0.0
0.00023592070888060206 -2.2850672886374387e-5 0.0
0.00018274921084224016 -2.3451136055145384e-5 0.0
0.00059045413014638 3.6953987699487606e-6 0.0
0.0005802146363942438 3.3187719793311526e-6 0.0
0.00030493116626245523 -4.1620834110595045e-5 0.0
0.0003093007913472028 -4.161952110592032e-5 0.0
0.00044234531392398405 -4.538673202460961e-5 0.0
8.976881473353641e-5 -1.4631721848482507e-5 0.0
0.00038512292324004404 -6.3980860301506865e-6 0.0
0.00042438995970442374 -7.123483025577362e-6 0.0
0.0004261806377532264 -9.871442433002185e-6 0.0
0.0004780650398936628 -2.72148147222005e-5 0.0
0.0004871420082312528 1.7862720336954287e-7 0.0
0.0005009209093777788 -3.477507150924201e-5 0.0
0.0005088837538113441 -3.7332268141565844e-5 0.0
0.0005066446816048287 -4.25804906691856e-5 0.0
0.0005169734592008926 -4.009811416491221e-5 0.0
0.00033381613415837014 -1.4776021004730587e-5 0.0
9.965151251848829e-5 -1.7932660744109834e-5 0.0
0.0003456842294188798 -1.7401372181871752e-5 0.0
0.0005189696868928834 2.9724584024041715e-6 0.0
0.0003062824504518765 -3.8817209406532145e-5 0.0
0.00014441939604218406 -2.393123416550066e-5 0.0
0.00015286768223578983 -2.4822895247999204e-5 0.0
0.00043513807130426697 -4.731003933922487e-5 0.0
0.00025058987498047643 -3.2588248450465856e-5 0.0
0.0003912142664762172 -1.7174722806058657e-5 0.0
0.00038299837533256755 -1.8930514261708494e-5 0.0
0.0006176041082629851 -2.7732160830191295e-5 0.0
0.000630988591500467 -1.8568044289480313e-5 0.0
0.0006362291265288334 -1.0197314848664285e-5 0.0
0.000250882117934379 1.6774676390935922e-5 0.0
4.364513819876353e-5 -7.549199274705589e-6 0.0
3.776607595414564e-5 -6.3255260303187635e-6 0.0
3.798379259962353e-5 -6.221942349896809e-6 0.0
0.00046249565983500244 -4.298032400869391e-5 0.0
0.0004760935132234853 -4.3730377300718625e-5 0.0
0.00044862879606561974 -4.078259225808626e-5 0.0
0.00045918331214686646 7.43113373827687e-7 0.0
0.0005721578013650184 3.7780254017625094e-6 0.0
0.0005909608612020806 3.3377468883299745e-6 0.0
0.0002697108720920694 -3.368629801016816e-5 0.0
0.0004486543269502296 1.4164122304208644e-6 0.0
0.00014077900322791384 6.215852305399318e-6 0.0
0.00014455659696150977 1.579252064004094e-5 0.0
0.0001784747183254796 2.5865377621695676e-5 0.0
0.00014962327634429617 2.379646142468989e-5 0.0
0.00019931468570616809 3.9054933960246e-5 0.0
0.00033003147604194496 -4.034765618937112e-5 0.0
0.00023020463452976548 -3.154433245878733e-5 0.0
0.00022099902521293882 -3.0927739081015434e-5 0.0
0.0002210218819763452 -3.077891448191979e-5 0.0
0.00021216063571742887 -3.030753871111252e-5 0.0
0.000518866083424822 -3.491884547505389e-5 0.0
0.0005269252608572399 -3.77897257669365e-5 0.0
0.0005251340010087879 -4.3221752966072344e-5 0.0
0.0005347939103402373 -4.084948319919038e-5 0.0
0.0004083097173701247 -1.324648442782983e-5 0.0
0.0004173368056239155 -1.1135045525692412e-5 0.0
0.0003572632549153516 -4.474802529075809e-5 0.0
0.0003641769191663204 -4.307575923818596e-5 0.0
0.00031623195187088646 -2.1731389478043647e-5 0.0
0.00030947945551197827 -2.2843440786379786e-5 0.0
0.00030014330918256356 -4.145450760129258e-5 0.0
0.00021221509700460132 -3.031561508137328e-5 0.0
0.0002036626900380508 -2.9728409880738397e-5 0.0
0.0005823970597757305 -2.8769042208924214e-5 0.0
0.0005791429441493477 -3.752061806837086e-5 0.0
0.0005719668464389237 -3.490383936310325e-5 0.0
0.0005707794802986691 -4.157932174308473e-5 0.0
0.0003092425625820118 -4.4059770266951316e-5 0.0
4.89073265153951e-5 -8.7115079753013e-6 0.0
7.355220991216715e-5 -1.2485194062391899e-5 0.0
6.53777758950155e-5 -1.1314569287832772e-5 0.0
6.010278547555943e-5 -9.687739978294052e-6 0.0
6.0114338894785296e-5 -9.270439337736951e-6 0.0
7.292527155681922e-5 -1.039286079134393e-5 0.0
6.034894093867023e-5 -8.953454702985348e-6 0.0
7.397095918903e-5 -1.0122950272265823e-5 0.0
6.060978937834797e-5 -8.752153623297858e-6 0.0
7.524974142405024e-5 -9.970168206132973e-6 0.0
0.0005865993062679747 -4.04056349577655e-5 0.0
0.0002117455192665743 -3.0145563328233965e-5 0.0
0.0004702254665288695 -2.4977623751011218e-5 0.0
0.0004283351985281482 -4.457306852076171e-5 0.0
0.00042809694876857216 -4.91023753635085e-5 0.0
0.0004213958612344733 -4.634841076925308e-5 0.0
0.00032914268271223965 -4.598595500828507e-5 0.0
0.000451205490702548 -3.7441455708019316e-6 0.0
0.0005332829029217476 -4.689173907607367e-5 0.0
0.0006446714604096981 -1.0511628638830134e-5 0.0
0.0006383746995784564 -1.918565146149147e-5 0.0
0.00025511182497211843 3.2043594523467056e-5 0.0
0.00044266473225683807 -9.318552447492056e-6 0.0
0.0003483353610253982 -2.5345626641962877e-5 0.0
0.00035499919130455536 -2.370350085167921e-5 0.0
0.0003392182181417072 -4.6349899684205424e-5 0.0
0.0003248189933431372 -4.4271617963192814e-5 0.0
0.00016588416617012842 -1.745748991096605e-5 0.0
0.0006028316337821523 3.1231999743510656e-6 0.0
0.0006097562578867077 2.8167662766792462e-6 0.0
0.0005975312002769465 3.0212005140607004e-6 0.0
0.0006159807417992617 2.539844091309368e-6 0.0
0.0004895894236455328 -1.1947467191136984e-5 0.0
0.00037570201605606094 -3.259447601353412e-5 0.0
0.0003845735288124842 -1.6530993767812177e-5 0.0
0.0003083278207364211 -3.3019902424424484e-5 0.0
0.0004074617468584486 -3.110583949131456e-6 0.0
0.0004229413756429415 -1.4959403690129742e-5 0.0
0.0004238016247656187 -2.5823416681887128e-5 0.0
0.0004322158045276972 -2.3847005970749645e-5 0.0
0.00046590590769029366 -5.353510003890672e-5 0.0
0.0004818376419695549 -5.421049397894427e-5 0.0
0.00015301762166324942 -2.495581231621517e-5 0.0
0.0001610421875755053 -2.580520028691266e-5 0.0
6.090625767699635e-5 -8.622972782348313e-6 0.0
7.594186679965358e-5 -9.914355137948499e-6 0.0
9.146279612204092e-5 -1.1020073094053687e-5 0.0
9.307061887684749e-5 -1.1013963938800526e-5 0.0
7.695293431767128e-5 -9.86736937654573e-6 0.0
9.515993760586082e-5 -1.11374862920662e-5 0.0
7.806058774439286e-5 -9.902179333083232e-6 0.0
9.762926660192891e-5 -1.1216132654079984e-5 0.0
7.899936920545224e-5 -9.78792347613504e-6 0.0
3.8204037352961404e-5 -6.525211226670203e-6 0.0
0.0003765643845671915 -1.828343457448429e-5 0.0
3.2374474533188276e-5 -5.338328874982122e-6 0.0
0.00013636069551962283 -2.299047790368363e-5 0.0
0.0006385510514158019 -9.911819581956702e-8 0.0
0.00032792159652223645 -2.5650003296757246e-5 0.0
0.00041773869816104223 -9.097205100724979e-6 0.0
0.00042012599104639543 -1.2505562736868949e-5 0.0
9.968750415056848e-5 -1.0892284756730441e-5 0.0
9.255729286753798e-5 -1.7013401258229146e-5 0.0
8.51392179845646e-5 -1.575063461898403e-5 0.0
0.00022105993761265306 -3.105388889553635e-5 0.0
0.0004409278353312134 -5.0090780328482227e-5 0.0
0.0002764052929915418 -3.543916166623662e-5 0.0
0.0005427915911992917 -4.4324205205465716e-5 0.0
0.0006498210752224723 -4.699489473748843e-6 0.0
0.0003081614870557405 -2.4220143908173625e-5 0.0
0.00030268619870230627 -2.3809331664148817e-5 0.0
0.00030151554880775085 -2.5155520857391775e-5 0.0
0.0002792963192492876 2.7222456929304802e-5 0.0
0.0002961375370928374 -2.4589214364421597e-5 0.0
6.104342265821915e-5 -1.0137619766168358e-5 0.0
0.0003637325611903797 -4.683302803205626e-5 0.0
0.0003708742777412795 -4.523058226813491e-5 0.0
0.00037120048400401517 -4.1647866136769135e-5 0.0
0.00037766599834860654 -4.382544466294387e-5 0.0
0.00043937513317404025 -2.547731855511823e-5 0.0
0.00044097407696527325 -2.171771406131652e-5 0.0
0.0006415591238866558 1.1039083107306974e-6 0.0
0.0006302340282008387 1.5682640129947703e-6 0.0
0.0004295174792468177 -1.4712080332964843e-5 0.0
0.00042259260145254224 -1.8373244560459603e-5 0.0
0.0001278454509147404 -2.1862719658216986e-5 0.0
0.00020383376344172078 -2.9864651643147334e-5 0.0
0.00019555899844170318 -2.9131758053457438e-5 0.0
0.0003506065938283059 -1.2445326418959162e-5 0.0
0.000523898097887918 -4.9415223625885666e-5 0.0
8.002913200792853e-5 -9.115918068876335e-6 0.0
0.0001952053079438725 -2.904038600996246e-5 0.0
0.0003775183424096393 -4.7747770620076285e-5 0.0
0.0003843243058975996 -4.6278823768536335e-5 0.0
0.0003780975833113002 -1.607240281959119e-5 0.0
0.00037047758188067783 -1.7782405800906167e-5 0.0
0.0003721007930955221 -1.5734965042221125e-5 0.0
0.00036590253994361096 -8.878172243028405e-6 0.0
5.789185108992377e-5 -9.966591145586557e-6 0.0
3.283941407118389e-5 -5.502810510219702e-6 0.0
0.00037816699355972834 -4.018746413671615e-5 0.0
0.00039145570444498024 -1.0348303111699607e-5 0.0
0.0003245032574877068 -4.724574284369434e-5 0.0
0.00015280916914020147 -1.5003302881463913e-5 0.0
0.0002722660771707005 -1.9740809924782122e-5 0.0
0.00010032881439054408 -1.8213015917355026e-5 0.0
0.0005443675698508894 -3.866712787713267e-5 0.0
0.00015330722749690726 -2.138581631670526e-5 0.0
0.00014294612606773058 -2.013640326972118e-5 0.0
0.00015405514640016359 -2.0754499543394773e-5 0.0
0.00014330108784792861 -1.9542266794023492e-5 0.0
0.00015471432140238956 -2.005687365556905e-5 0.0
0.0001321063661114047 -1.889474673803953e-5 0.0
0.00042123940063529925 -5.091032847466752e-5 0.0
0.00041503471197999416 -4.812466943748643e-5 0.0
0.00011161998954289504 6.349986699725315e-6 0.0
0.0003289894084388572 -4.899361840487378e-5 0.0
0.0003270356804596414 -3.447191794498302e-5 0.0
0.000321560737495702 -3.583019516451792e-5 0.0
0.0001613939062093296 -2.592940817285729e-5 0.0
5.0149253083319164e-5 -8.404883298508983e-6 0.0
5.193585278533223e-5 -8.939579216377135e-6 0.0
0.0005834964561083669 1.395575277404974e-6 0.0
0.0005967348423871324 2.222078763765104e-6 0.0
0.00010976096832888437 -1.2030064347545338e-5 0.0
0.00016934266015061083 -2.6678649170380254e-5 0.0
0.0001694692622946766 -2.6625775482383515e-5 0.0
0.00016978798118133807 -2.7009811035358154e-5 0.0
0.00015367108092561135 -2.517250128931087e-5 0.0
0.00016443144804233873 3.118750185622413e-5 0.0
0.00028112157881147586 -3.5788854254567065e-5 0.0
0.0003750020095915573 -2.061852915983455e-5 0.0
0.0005846724209845151 2.63017948514055e-6 0.0
0.0003568290614762399 -4.863487106767763e-5 0.0
0.00027048141493665983 -3.535794418765718e-5 0.0
0.0006520389432038315 -1.0504267328799054e-5 0.0
0.0006450021919791574 -1.99974895890843e-5 0.0
0.0002766644008531603 1.1041988272962174e-5 0.0
0.000195984682052459 -2.9530655721972817e-5 0.0
0.00040998522504094375 -1.0469706738735305e-5 0.0
0.0004197616434737133 -8.370994964968115e-6 0.0
7.34787388301219e-5 -1.2499082753566044e-5 0.0
8.606678386470947e-5 -1.6077872336402016e-5 0.0
7.925353179050192e-5 -1.489819896098518e-5 0.0
7.8316266154214e-5 -1.4458242464810907e-5 0.0
0.00012860159050772488 -2.2056420211387246e-5 0.0
2.680437424165448e-5 -4.38789951278717e-6 0.0
2.6509922994356285e-5 -4.245461614386656e-6 0.0
0.0003842293619235111 -5.0736601618787344e-5 0.0
0.00039101566301496637 -4.906812791098184e-5 0.0
0.00039088665393985866 -4.456179611763203e-5 0.0
0.0005288509898443369 -3.2567105157798385e-5 0.0
0.0005205823648282523 -2.9565140609667212e-5 0.0
0.0005317203487694573 -5.349131194224896e-5 0.0
0.00013232954397616965 -1.832940744904739e-5 0.0
0.00012146724321779009 -1.769749601209801e-5 0.0
0.0004270009709256443 -8.900052995749082e-6 0.0
0.0006283141385859422 2.227678883273398e-6 0.0
0.0006343012584760926 2.00342210415998e-6 0.0
0.0006427971129205598 1.6098829501541967e-6 0.0
0.0006292664955876668 -3.263609970553396e-5 0.0
3.854902210333208e-5 -6.642409690188247e-6 0.0
0.0004168824783818484 -3.2374944274366333e-6 0.0
0.0004100890968870938 -4.5808864467744895e-6 0.0
0.00040732682484105864 -4.093763247652383e-6 0.0
0.0004015599917599524 -5.3558307749844866e-6 0.0
0.00039893435172679264 -4.847942194103595e-6 0.0
0.0004039257719077866 -5.974633213738436e-6 0.0
0.0003498721780057746 -2.3261792920894728e-5 0.0
0.00031086565244664956 -2.1551840190719695e-5 0.0
0.00031782384964071066 -2.0443861343956765e-5 0.0
8.017258038450072e-5 -1.5152078178803803e-5 0.0
7.378544160190778e-5 -1.398392105801094e-5 0.0
0.0005553871517294397 -7.275454525685582e-6 0.0
0.0005783714638739934 -5.338785259250634e-6 0.0
0.0005857656343707745 -1.7947023894396548e-6 0.0
0.0006030893146983429 -3.5650565636141506e-6 0.0
0.0005995796328153885 -6.082505134289306e-6 0.0
0.00032056410825874823 -4.55267081319121e-5 0.0
0.0003208888792781732 -4.294489722288562e-5 0.0
0.00032026392972637753 -4.837030314362705e-5 0.0
0.00041305630078306596 -1.110328681717016e-5 0.0
0.00041052133183093573 -8.886463445746127e-6 0.0
0.0001085010106868348 -1.2129322315222772e-5 0.0
5.979690775429446e-5 -8.008833749779088e-6 0.0
0.00041461914143166377 -5.278652477697034e-5 0.0
0.00013810526088288888 -2.1484276315585352e-6 0.0
0.000412351280648574 -1.9972025956903637e-5 0.0
0.00040576682044339443 -3.4585935779582946e-6 0.0
0.0003963431448104412 -4.500591489321517e-6 0.0
0.00040185386109359853 -3.3775578356080783e-6 0.0
0.0003937188203478405 -4.3735511298944685e-6 0.0
0.0003990895933915408 -3.430085284265326e-6 0.0
0.00039113998796878196 -4.469046886942989e-6 0.0
0.0003965276043856031 -3.6145450358896483e-6 0.0
0.00038862714094650897 -4.711004872953379e-6 0.0
0.0003943058682547452 -3.9252073940191765e-6 0.0
0.00038852077742315943 -5.54292433841853e-6 0.0
0.0003835245665050498 -5.614874347791476e-6 0.0
0.0004277511540625189 -5.401194389909774e-5 0.0
0.0006552311177325245 7.172058353550324e-7 0.0
0.00026054108207171757 -3.2906229532789334e-5 0.0
0.00025027535541010293 -3.146417968772905e-5 0.0
0.0006052819373924836 -3.628767761412686e-5 0.0
0.0002974171833930813 -2.3517447379629767e-5 0.0
0.0003941049613265362 -6.191600900670148e-6 0.0
0.00021749181834133393 5.732142502822328e-5 0.0
4.852654562810493e-5 -7.588677826833069e-6 0.0
0.00030672001110039926 2.186345775718297e-5 0.0
0.00030004801458776657 3.997923378151877e-6 0.0
0.00048173703584494625 -9.448533984632179e-6 0.0
0.0006119768412523851 -3.8487480914223835e-5 0.0
0.0006013187856370961 -4.6026357834208034e-5 0.0
0.0002949224689926704 -2.5900808474775827e-5 0.0
0.000289933413284943 -2.502265962706166e-5 0.0
0.00010895328305272111 -1.9144622830420635e-5 0.0
2.732298760694642e-5 -4.487605593879534e-6 0.0
4.0375675344147554e-5 -6.8054953392837675e-6 0.0
4.1100216332074524e-5 -7.083313633071816e-6 0.0
2.132290094402156e-5 -3.4601092882744755e-6 0.0
0.0004336643894919981 -2.037157679036333e-5 0.0
0.00044265570693445154 -1.813804268616255e-5 0.0
0.0004502769169705642 -1.9505458516272033e-5 0.0
0.00045196913664322406 -1.555504768599314e-5 0.0
0.0003811094529136448 -5.9256884548905625e-6 0.0
0.0002472759134439864 6.297024669246103e-5 0.0
0.0002926363930332105 4.393906913065703e-5 0.0
0.0003647928343044975 -1.7440523216205715e-5 0.0
0.0003666151983390634 -1.546066225573751e-5 0.0
0.0003124502422806858 -2.0441445999163595e-5 0.0
0.00027927706447467064 -2.2073809821357867e-5 0.0
0.0002775657992519039 -3.833127251692509e-5 0.0
0.00048163531869623813 -4.450940244910112e-5 0.0
0.000488626618924021 -4.746963910800649e-5 0.0
0.0004806916500864695 -5.006809716440362e-5 0.0
0.0004874691774357035 -5.362200299823508e-5 0.0
0.0004798283657899394 -5.655971038830073e-5 0.0
0.00047300568890854184 -5.2880271103621054e-5 0.0
0.00045694237941793934 -4.68587331708986e-5 0.0
0.00041434304324461846 -4.355480795983996e-5 0.0
0.0004485228710585249 -2.9485958228943658e-5 0.0
0.0003427121544585775 -3.485810049758962e-5 0.0
0.00011628275989415446 -1.2440677461034227e-5 0.0
0.0006372208143239683 -3.202934699202022e-5 0.0
0.0006507453662853332 -2.0639489845182883e-5 0.0
0.0004954198160933223 -5.079374243049904e-5 0.0
0.0004943521613918747 -5.76030895369761e-5 0.0
0.0005024914881909023 -5.463793837386073e-5 0.0
0.0002824199571566842 -3.8341340047645686e-5 0.0
0.0003173074049397543 -3.491610102570203e-5 0.0
0.0003165284566895993 -3.6983141952152915e-5 0.0
0.000320608903819688 -3.8020348035827214e-5 0.0
0.00023370860246652733 -2.731161469734548e-5 0.0
0.0003123435545646803 -3.596440345651136e-5 0.0
0.0003721370659435778 -3.855621293651042e-5 0.0
0.000531118639329355 -2.6728654258150168e-5 0.0
0.0005516903775840544 -4.19090828054153e-5 0.0
0.0005503244133005757 -4.828141682982156e-5 0.0
0.000554304672256064 -3.633122357909243e-5 0.0
8.897151351560562e-5 -1.1461832009179828e-5 0.0
0.0002515154280568238 -3.2206491871168026e-5 0.0
0.00024110629241741422 -3.1940566921804134e-5 0.0
0.00025195708376768146 -3.330967374348185e-5 0.0
0.0002418551508711211 -3.364763575030085e-5 0.0
0.0004597209838387337 -1.6811505039623233e-5 0.0
0.00013721358200615867 -2.318791569760865e-5 0.0
0.00012065027864334415 -2.099495821826422e-5 0.0
0.0006217429045787348 2.3582353765223243e-6 0.0
4.73254132684599e-5 -7.078815212516719e-6 0.0
4.7235232311794534e-5 -7.057914159875045e-6 0.0
0.0004079508888059879 -4.911709746602882e-5 0.0
0.0004087531307933626 -5.469731441024634e-5 0.0
0.00034329348306507307 -2.490241369525288e-5 0.0
0.0006114327179164119 -8.025086781483117e-7 0.0
0.00012128501890032869 -2.1161997446037437e-5 0.0
0.0005309178332350981 -4.5131143543090106e-5 0.0
0.0005740831244881084 -2.6326949100931156e-5 0.0
0.0006034864693736233 -1.253323849069314e-5 0.0
0.0006038516798133313 -1.0592403242514893e-5 0.0
0.00044452999722916967 -1.4553448675239471e-5 0.0
0.00047989257210432875 -2.250847526999955e-5 0.0
0.000487940636663572 -2.472264748757791e-5 0.0
0.0004853976981962606 -6.883213034609929e-5 0.0
0.000498942790435812 -6.562557569947116e-5 0.0
0.0004958288036933266 -5.2230188185808035e-5 0.0
0.0003773965140332972 -5.244706674424708e-5 0.0
0.00020370062160014063 -3.061680933759413e-5 0.0
0.00031221154029376677 -2.6108956012546035e-5 0.0
0.0004010422422777987 -1.267711591109252e-5 0.0
0.00036025355532815775 -2.4203080628744944e-5 0.0
0.000363395400110563 -5.11495409171712e-5 0.0
0.00017736062348713467 -2.763992992844534e-5 0.0
0.00023995397465371423 -3.125460651039796e-5 0.0
9.330315993447687e-5 -1.4392955981396115e-5 0.0
0.000624843888177158 -2.172656668229521e-6 0.0
0.0004612877156487418 -2.7512567392111854e-5 0.0
6.483028248857763e-5 -1.1252763505471413e-5 0.0
0.0002649102028544813 8.45787205825157e-5 0.0
0.0003605331971893237 -3.549596368906979e-5 0.0
0.00047218922099224455 -5.9487842290483144e-5 0.0
0.0004652966158509334 -5.563364368054858e-5 0.0
0.0004088538428059284 -2.604554404583519e-5 0.0
0.000428927477903719 -6.354647237106784e-6 0.0
0.00022312277034296964 -2.387589471723756e-5 0.0
0.00031569554917821896 -3.936125141973733e-5 0.0
0.00039971062997454644 -8.664168992563492e-6 0.0
0.0002397630732923344 -3.0064606038070228e-5 0.0
0.00022948594100144926 -2.9926716396770293e-5 0.0
0.00017778202392695888 -2.817004773194655e-5 0.0
0.00012709363536740045 -1.3006617537959649e-5 0.0
0.00012936924930154024 -1.3082485245911487e-5 0.0
6.05595305055004e-5 -6.9554571033875875e-6 0.0
8.261088323065192e-5 -6.650641841598852e-6 0.0
0.0005225918771851539 -5.628508609167888e-5 0.0
8.205058875372492e-5 -1.363401796280193e-5 0.0
0.00012134547401020798 -1.810294268856744e-5 0.0
0.00011093175651187293 -1.6890985369188902e-5 0.0
0.0005464702337536465 -3.333335506740283e-5 0.0
0.0003022545966889678 -3.577484776772069e-5 0.0
0.00035652781658364276 -2.1520328697806404e-5 0.0
0.0004359081446715866 -3.2505376965072054e-5 0.0
0.00043918122099393574 -4.583581157546274e-5 0.0
0.00042857708839349177 -3.8438725443995335e-5 0.0
0.0004317687938894446 -5.211975886868925e-5 0.0
0.00044460467756850063 -5.793953732847872e-5 0.0
0.0004622577451786075 -3.6052082601934934e-7 0.0
0.0004729617058732942 1.0868621806964082e-6 0.0
0.0004769916296107331 -4.2210061861317485e-7 0.0
0.0004875620842790984 1.110277865897546e-6 0.0
0.0004835217346050886 2.2711723812019606e-6 0.0
3.9173233318272836e-5 -6.464315578623873e-6 0.0
0.0004618145413879044 -1.2830028485098973e-5 0.0
0.00011350398329639891 1.7091800684011273e-5 0.0
0.00012932923637522999 2.283805120191801e-5 0.0
0.0003908328206757309 -5.403263505317053e-5 0.0
3.268134920237125e-5 -4.97475822951746e-6 0.0
0.0005087362215860793 1.859550161036989e-6 0.0
0.0005219668754693698 2.9025114168237756e-6 0.0
0.000511775647487301 3.0067202679698564e-6 0.0
0.0005337536701362256 2.8790169473166616e-6 0.0
0.0005357000219809252 3.516221780208302e-6 0.0
0.0005481206859755404 3.3721866983420255e-6 0.0
0.00016572294909969343 -2.123480536201878e-5 0.0
0.00016685528508240824 -2.048406409849226e-5 0.0
0.00015528900276769522 -1.930024861918124e-5 0.0
0.0001677907650182447 -1.969844876620143e-5 0.0
0.0001794606959190067 -2.082639788094203e-5 0.0
0.00018052439348661305 -2.0001152194155187e-5 0.0
0.00019203717558435068 -2.105313888523143e-5 0.0
0.0001965846941013851 -3.053464237626998e-5 0.0
0.00019321393110746668 -2.017051909606297e-5 0.0
0.00020473834776922297 -2.117804238348176e-5 0.0
6.08857348907413e-5 -8.432690979183229e-6 0.0
0.000125144270612173 -1.317278200909644e-5 0.0
0.00020312704207788962 -2.206246942016746e-5 0.0
0.00015716697553742014 -1.8646520163250957e-5 0.0
0.0005226200367648592 -2.3763776625104263e-5 0.0
0.0005123621541546645 -2.6908687688791163e-5 0.0
0.00031675009405500253 -4.671272836904493e-5 0.0
0.0003165026749235474 -4.927885193936068e-5 0.0
0.0004221093644522012 -4.1094059798062535e-5 0.0
0.0002775048920502673 -4.252419923186329e-6 0.0
0.0002992505337441151 -1.1046705474761653e-5 0.0
0.00032042084417885456 -4.515191976238441e-6 0.0
0.00031987671983074614 -1.8359818764477124e-5 0.0
0.00030097400924197884 -2.0887138580397742e-5 0.0
0.00032096494311429534 -2.5882705276525028e-5 0.0
0.000303083907058621 -2.499658860533568e-5 0.0
0.00032204293779651745 -2.727729225848749e-5 0.0
0.0003044043780973852 -2.5342531845924386e-5 0.0
0.0003251470660349398 -2.6121991234162848e-5 0.0
0.0003047562561582558 -2.440738434091389e-5 0.0
0.0003212916800119683 -2.4289732048133375e-5 0.0
0.0003040869532534292 -2.3106857497046153e-5 0.0
0.00031963089795088043 -2.278005128225602e-5 0.0
0.000304175398045983 -2.1950202238340195e-5 0.0
0.00031849008236446225 -2.142185990585341e-5 0.0
0.0003036108260477907 -2.0831591232468058e-5 0.0
0.00031669238790120056 -2.0158472095039736e-5 0.0
0.0003028817727258066 -1.9833278229770116e-5 0.0
0.00031514078950520405 -1.9200489015877372e-5 0.0
0.0003019849144472132 -1.904974570415704e-5 0.0
0.0003134475277283508 -1.8417871953035732e-5 0.0
0.0003006820798456803 -1.8434429701199878e-5 0.0
0.00031179327911343683 -1.7872069887518584e-5 0.0
0.00029938916256953883 -1.8027537954447182e-5 0.0
0.0002876635174004728 -1.8299426127776503e-5 0.0
0.0002867229476720386 -1.8022779194864557e-5 0.0
0.0003108385822811213 -1.7467896677930095e-5 0.0
0.00028973993433284976 -2.0170069296686484e-5 0.0
0.00032384194552282833 -1.7569916823447664e-5 0.0
0.00032918080104772705 -1.9089232469001822e-5 0.0
0.00028646704894346245 -2.3648799738238833e-5 0.0
0.0003333923159278096 -2.1855749642658922e-5 0.0
0.00027400186730461404 -1.804398252214005e-5 0.0
0.0002735370259719947 -1.7917564425729687e-5 0.0
0.000285846061902684 -1.7943208663429045e-5 0.0
0.00027309553667195547 -1.7961011143118485e-5 0.0
0.0002883968431929521 -2.2004374981509122e-5 0.0
0.0003397223734853997 -2.5303738954547758e-5 0.0
0.00027477150883839605 -1.839602837666196e-5 0.0
0.00034111901557136703 -2.929926074167132e-5 0.0
0.00028508196753358457 -1.8058746197461208e-5 0.0
0.0002726256286109881 -1.8195639164243472e-5 0.0
0.00025965093404578304 -1.791058179125817e-5 0.0
0.00025978168968070875 -1.7916291004051977e-5 0.0
0.000259941924770055 -1.8348559229551245e-5 0.0
0.0002969051613877748 -1.7792200647134373e-5 0.0
0.0002955950755179203 -1.7998586749184256e-5 0.0
0.0003063517598988258 -1.7480854202454062e-5 0.0
0.0003409079414080207 -1.49204110336425e-5 0.0
0.00034587931716537664 -1.0446217035634258e-6 0.0
0.00025977007193986627 -1.8253165118116835e-5 0.0
0.00024572369970886934 -1.7825003581162157e-5 0.0
0.00024591443919850625 -1.7576490913236347e-5 0.0
0.00023091910710136955 -1.7357906913680452e-5 0.0
0.0003565703280492535 -5.310045162657429e-5 0.0
0.00035051923268790625 -5.041110530780737e-5 0.0
0.0006074976805064875 -4.8293830356810905e-5 0.0
0.0003791141555296135 -3.703704378531426e-5 0.0
0.00038529961951894886 -3.8756625271562764e-5 0.0
0.0002589633063611163 -3.141775606170785e-5 0.0
0.0002680195805033668 -3.29011629510145e-5 0.0
0.000531926923476649 -1.4471204144795775e-5 0.0
0.0003861375509697675 -1.4160949091802165e-5 0.0
0.00027253776557138157 -1.8616764990402736e-5 0.0
0.0001862187667159452 -2.8330912048837737e-5 0.0
0.00018677121755591647 -2.8199537078781207e-5 0.0
0.0001950297539789669 -2.8725580133527575e-5 0.0
0.0004215385050379734 -6.0971756717367655e-6 0.0
0.00040689097918777034 -2.5581790469178728e-6 0.0
0.00030059998453492735 -2.65630455278252e-5 0.0
0.0002942612944720035 -2.7298915976419176e-5 0.0
0.00040762568844660333 -1.0912509584374307e-5 0.0
0.0004045587523046295 -9.628415932928478e-6 0.0
0.00040749503420528413 -7.899992374343335e-6 0.0
0.0004007425390323697 -8.7301677204417e-6 0.0
0.00041059577660909526 -1.2983096117040082e-5 0.0
0.000402418051921081 -2.8737257819714523e-6 0.0
0.0004004664052443997 -3.2440293275319045e-6 0.0
0.0003915384023940534 -4.510205197044961e-6 0.0
0.00031958529415389677 -1.9272089148438083e-5 0.0
0.0003248501743347642 -1.9155318853020554e-5 0.0
0.00032677725189778577 -1.796136981338707e-5 0.0
0.0003318126161999384 -1.7721964766836063e-5 0.0
0.0003338051850021867 -1.65896865612362e-5 0.0
0.00033870781986063895 -1.624230424170077e-5 0.0
0.00034080057479149363 -1.5110065483328278e-5 0.0
0.0003457997046748192 -1.4646435729501718e-5 0.0
0.0003435473393055031 -1.59529331674431e-5 0.0
0.0003508594912153303 -1.4119424458111703e-5 0.0
0.0003741353540474882 -1.3778864202653586e-5 0.0
0.0003684724814394578 -1.3624252758428998e-5 0.0
0.00036137874521532763 -1.5343352039957104e-5 0.0
0.0003632480394225611 -1.3651687237901791e-5 0.0
7.33420505502302e-5 -1.2285816916553692e-5 0.0
7.492070599188425e-5 -1.4202483334057357e-5 0.0
6.883095243769005e-5 -1.305802301068991e-5 0.0
6.794191985871594e-5 -1.2794104105887657e-5 0.0
6.296050839388857e-5 -1.1875579660801496e-5 0.0
0.00034484961909413126 -2.2926427981651282e-5 0.0
0.00043653940889776054 -6.613977520890233e-6 0.0
0.00043389355995680323 -9.561255460843972e-6 0.0
0.00023070084273813142 3.502884940217521e-5 0.0
0.00037635396724732066 -6.814447890679441e-6 0.0
0.0003784958902126922 -6.635708329297274e-6 0.0
0.0004278509218778643 -4.975616919396916e-5 0.0
0.0006420501671452381 -3.851672703712217e-6 0.0
0.0006544438068200526 -1.603855660348356e-6 0.0
0.0006635432435654793 -1.792786025652458e-6 0.0
3.0962158208313156e-5 -5.1310006171361e-6 0.0
3.1432662625551075e-5 -5.23870078783854e-6 0.0
4.085762588245442e-5 -7.020603723385481e-6 0.0
3.2514364749500806e-5 -5.31809022562721e-6 0.0
4.090525581179579e-5 -6.8430276455782065e-6 0.0
3.295047741396283e-5 -5.203650519333631e-6 0.0
2.227843530811115e-5 -3.397694441673176e-6 0.0
0.0003384004685143603 -2.4543681120404397e-5 0.0
0.00018219947415488928 -1.9215279371377745e-5 0.0
8.737057782441552e-5 -1.6333131522068885e-5 0.0
0.00030458948379861073 -1.7750950381830272e-5 0.0
0.0005995715258202839 -5.416812908896652e-5 0.0
0.0005931581640116006 -5.330858964110632e-5 0.0
0.0004898471850508248 -1.959882833922491e-5 0.0
0.0005004232558070197 -2.1457714373028032e-5 0.0
0.000501370004102999 -1.5203955504813804e-5 0.0
3.9258965959680945e-5 -5.693467372424407e-6 0.0
0.0002717592522991766 -3.828980937694825e-5 0.0
0.0001705389485862105 -2.7720050388379076e-5 0.0
2.198126389579914e-5 -3.4776342709344937e-6 0.0
2.8140118868825886e-5 -4.427962276518173e-6 0.0
0.00014419458957603605 -1.8199827113346197e-5 0.0
0.00044736794603640964 -7.102421379348265e-5 0.0
0.0004641781928033578 -7.596212533356962e-5 0.0
0.000471120185823926 -2.0552720193178598e-5 0.0
0.0004956888009284622 -2.718256926670286e-5 0.0
0.0002527874549404801 -3.579192587076652e-5 0.0
0.00028351374129801185 -4.1417916478742174e-5 0.0
0.00028800099692091253 -4.1539658784987455e-5 0.0
0.0005584482080799082 -4.578504416582413e-5 0.0
0.0005568648026180148 -5.284074314526008e-5 0.0
0.0005488763922234434 -5.6641587772045684e-5 0.0
0.0005986050060708516 2.7524083580102035e-6 0.0
0.0005863271711215456 3.0283662810654126e-6 0.0
0.0005725074518379319 2.9398010542330772e-6 0.0
0.0005730697156048008 3.300106412371622e-6 0.0
0.00011956558914030448 -1.7075493188962697e-5 0.0
0.0005495241919804745 3.787323137147285e-6 0.0
0.0005352070655049673 3.994861090066752e-6 0.0
0.0003865425521285501 -3.570153872800191e-5 0.0
6.355491680791921e-5 -1.2001339211410272e-5 0.0
5.846761145028815e-5 -1.0974994243571847e-5 0.0
5.750831807530062e-5 -1.0736194815741081e-5 0.0
5.32677769571844e-5 -9.835544416094288e-6 0.0
0.0006664247984493151 -4.876549510993736e-7 0.0
0.000640319695144155 1.867067518140644e-6 0.0
0.0006531995483493409 1.4386160244181092e-6 0.0
0.0005298002900422423 -6.06182374206638e-5 0.0
0.0003052380699301306 -2.137716433631253e-5 0.0
0.0005641690213084581 -5.032139140911808e-5 0.0
0.0005631234641546132 -5.73241206735275e-5 0.0
0.0005697314909826303 -5.481283416665848e-5 0.0
0.0005694249250950488 -6.24782060549704e-5 0.0
0.000575808450633518 -5.870731657209409e-5 0.0
0.0005764960418949992 -5.18765237497331e-5 0.0
0.0005819780079004275 -5.5978127261417724e-5 0.0
0.0003203713630178374 -5.049189153719177e-5 0.0
0.0003168749043468632 -5.091609546611057e-5 0.0
0.00031285639659359523 -4.96545516259108e-5 0.0
0.0002600699879352706 -1.8800977443662226e-5 0.0
2.4697033113870943e-5 -3.695366137841958e-6 0.0
3.297480860046152e-5 -5.131864587296918e-6 0.0
2.5071447684151538e-5 -3.7987279469080414e-6 0.0
0.00024390607108917294 -3.6623597624097885e-5 0.0
0.00023280532630532176 -3.417074247703472e-5 0.0
0.0006259188824866345 -4.2898787743061795e-5 0.0
6.352945779199944e-5 -4.02904646465131e-6 0.0
0.0003563227943832236 -1.5516724328366758e-5 0.0
0.0003585780536516119 -1.3812017788935424e-5 0.0
0.0005931095353734644 8.507272570752884e-7 0.0
0.0006191870527481977 1.017176924115351e-6 0.0
0.0005557888062469909 -3.0134514229257388e-5 0.0
0.00011418143667083566 -2.0152239252726127e-5 0.0
0.00011571329967339823 -2.045124886495691e-5 0.0
0.0004590150569951684 -2.101274952599206e-5 0.0
0.0005392061859035953 -5.3069365704277316e-5 0.0
0.0006424273796091575 -3.2219629974684734e-5 0.0
0.0006561482236335653 -2.0173871871784897e-5 0.0
0.0006652330612517971 -9.87706178623872e-6 0.0
0.0005117023845277992 -6.142034055494093e-5 0.0
0.0005336623042615678 -2.0439958646465814e-5 0.0
0.00031345403813507616 -4.2959827962683494e-5 0.0
0.0005460411773983092 2.762131919666635e-6 0.0
0.0005126309308491373 -2.1779577059367676e-5 0.0
0.00023029618424084253 -2.861806982081652e-5 0.0
0.00011953213156166835 -2.067257012236894e-5 0.0
0.0006123874488482828 2.4602216992411636e-6 0.0
0.0005273969023029806 -3.6776556539153685e-5 0.0
0.0002321962786178114 -3.631947699443067e-5 0.0
0.00010517850090304464 -1.5762576816778104e-5 0.0
0.00037289803895111255 -7.427011412742474e-6 0.0
0.000515098278404682 -5.3198149834257063e-5 0.0
0.0005147408688603391 -6.00730502087251e-5 0.0
1.6262093954332756e-5 -2.5409964147481154e-6 0.0
0.000397636759159949 -5.269669742734558e-5 0.0
0.00039609922578819436 -5.6879976211348556e-5 0.0
0.0002889050719191738 -4.521472361842502e-5 0.0
0.0002935472399519285 -4.496676130218551e-5 0.0
0.00029209181278252457 -4.156040464304876e-5 0.0
0.0002971343520436589 -4.5107136281515316e-5 0.0
0.0002941113320056694 -4.697152716806065e-5 0.0
0.000275681635842303 -1.8937759103413237e-5 0.0
0.0002606073402273419 -1.8887696283663668e-5 0.0
0.00010634040997337539 -1.2334894424648162e-5 0.0
0.0002884576212015855 8.240633095730729e-5 0.0
0.00027436712148314296 6.161300928295932e-5 0.0
0.00042083135029343405 -2.7204610240397035e-5 0.0
0.0005006616699181186 -6.183639122814491e-5 0.0
0.0004933364819526694 -6.496586923558981e-5 0.0
5.357163243620634e-5 -9.825514608847604e-6 0.0
4.862557547214179e-5 -8.782867331248514e-6 0.0
0.0006591948486045008 1.2749037124313085e-6 0.0
0.0001128082048185615 -1.7326737015073964e-5 0.0
0.00010084446876044309 -1.5949613662576174e-5 0.0
0.000641105702909187 -2.2947739534761912e-6 0.0
0.00061711734542468 -4.103352179566166e-5 0.0
0.0006127617207046757 -5.2111228560975074e-5 0.0
0.0003784370989089895 -6.510324144838062e-6 0.0
0.00041442008526584374 -5.784393256446506e-5 0.0
0.00040711061775081504 -6.0298555811047406e-5 0.0
0.00021502811435667566 -2.2077825007717448e-5 0.0
0.00021743289649674537 -2.116356527795709e-5 0.0
0.0002958065166415335 -4.165165976331604e-5 0.0
0.0005622945543152222 -3.997153031261479e-5 0.0
0.0003479390339166458 -1.3524627639956275e-5 0.0
0.0003435126138314943 -1.4003638081833635e-5 0.0
1.7819602954243032e-5 -2.5207617918770887e-6 0.0
0.0003075396440537004 0.00014864522739795773 0.0
0.00032864307576117825 -1.6939689020601372e-5 0.0
0.0002446422154805887 -1.769554050008973e-5 0.0
0.0002452713608095212 -1.7490450746515864e-5 0.0
0.00014449163766414562 -1.393948244141962e-5 0.0
0.0004096303479358961 -2.088432992793985e-6 0.0
0.0003142602952982762 -1.7011782642934663e-5 0.0
0.00031646397350273194 -1.6799379915732127e-5 0.0
0.000323502566472609 -1.61214143871695e-5 0.0
0.00032563857186319883 -1.597817346847589e-5 0.0
0.00033209527465335895 -1.5115114087712188e-5 0.0
0.0003344519804490699 -1.4952221657379438e-5 0.0
0.00032780412628186366 -1.59273566727701e-5 0.0
0.00033687123216751507 -1.4990295658958103e-5 0.0
0.00033010230491910573 -1.6087356198488582e-5 0.0
0.00033949080317721583 -1.5230759333541006e-5 0.0
0.0003400198541556721 -1.3986292584734921e-5 0.0
3.4390714613395925e-5 -5.299712262609553e-6 0.0
0.00039768632578902235 -3.997405722632669e-6 0.0
0.0003080020585608817 -2.030870859676141e-5 0.0
0.00034026996078324737 -2.5863987547715152e-5 0.0
0.00036365287945618714 -3.1665867724978685e-5 0.0
0.00035992871528579547 -2.9849960697213318e-5 0.0
0.000361386957106269 -2.5434035072533057e-5 0.0
0.00034188302480829536 -2.8057455606967077e-5 0.0
0.0003593067791597206 -2.743945985930451e-5 0.0
0.0003788714483011471 -2.790241050341201e-5 0.0
0.00038235198027582477 -3.134167179956454e-5 0.0
4.87457500926047e-5 -8.453512974507266e-6 0.0
4.9044743020632475e-5 -8.30509670571079e-6 0.0
0.0006603584328102269 -1.4179327666195598e-6 0.0
0.0006302909641964638 -4.000518348702864e-6 0.0
0.000632614479510866 -4.482571997308985e-6 0.0
0.0004799971071547428 -6.434022110097235e-5 0.0
0.0004713175584015498 -6.632764931297854e-5 0.0
0.0001866105976029303 -2.762452727030304e-5 0.0
0.00019518179585085378 -2.8069406748811622e-5 0.0
0.00017802755630785607 -2.713840739908049e-5 0.0
0.0002292216905316633 -1.7121654015907136e-5 0.0
0.00037958378413300426 -3.1636923008002217e-5 0.0
0.00034604857521790754 -1.3888413837746e-5 0.0
0.00034834359883798694 -1.4250548339607072e-5 0.0
0.00034214311342233814 -1.5708019354630955e-5 0.0
0.0003508079670834091 -1.480928599320587e-5 0.0
0.0003451531124747751 -1.624096293720248e-5 0.0
0.00018878557142358335 -2.927627604752027e-5 0.0
0.0006641550345305965 -1.7249135678236207e-6 0.0
0.00036781991889465467 -1.2485216859614264e-5 0.0
0.0004170527096973523 -2.9218622266765344e-5 0.0
0.000416027232262933 -1.9999588816944116e-5 0.0
0.0004141713772729406 -2.0786477937087537e-5 0.0
0.00025293878385468274 2.3341368697056513e-6 0.0
0.0003611833975980158 4.273890473911279e-5 0.0
0.0003304703796645062 4.660538754252313e-5 0.0
0.0003261286387385954 5.966555068194261e-5 0.0
0.0005013262008378296 -8.846871789879305e-5 0.0
0.0005392860676208121 -5.8155847069103785e-5 0.0
0.0005371751485346819 -6.638757141243493e-5 0.0
0.00017789173252369517 -2.912452411451804e-5 0.0
0.0003005230482634483 -4.517916652009608e-5 0.0
0.0003012803748955588 -4.782276124492066e-5 0.0
0.00030449987091830016 -4.7671313214145224e-5 0.0
0.000305213296359864 -4.922851480280329e-5 0.0
0.0004619810206746311 -2.4981757160243246e-5 0.0
0.0004495437266548189 -1.919396141566561e-5 0.0
0.0004629719143298482 -1.66867706739297e-5 0.0
0.0004766809309399521 -2.099674472842723e-5 0.0
0.00036565976212833126 -1.2081520268960087e-5 0.0
0.00036177941082657784 -1.2138161696685602e-5 0.0
0.00030820421420283957 -4.8990074775423e-5 0.0
0.00023294203620791978 -1.781459345214888e-5 0.0
1.468034938283143e-5 -2.319121964741685e-6 0.0
0.00033610826548482564 -2.358337723160162e-5 0.0
0.0003484809415748971 -2.2158982142712448e-5 0.0
0.00034571916804512293 -2.0476713579680095e-5 0.0
0.0003593991886950204 -2.0121949338602974e-5 0.0
0.0003557281161073986 -1.862215339602225e-5 0.0
0.0003625632087238071 -2.1831155402071374e-5 0.0
0.00034463307721154115 -1.9027884499255108e-5 0.0
0.00035271034043618776 -1.7422775950821558e-5 0.0
0.00037098858333921373 -1.9379098892793353e-5 0.0
0.00043794227890639025 -2.1578651048102676e-5 0.0
0.0003427144757252016 -1.7945418295294376e-5 0.0
0.0006706496982080649 6.083533909853873e-7 0.0
0.0002941710695243 -1.8388080387942292e-5 0.0
0.00031984911247510386 -4.025496322740807e-5 0.0
0.0003251120453841271 -3.911503551278517e-5 0.0
0.00035226015149791 -2.3927336565800894e-5 0.0
0.00036786228069069253 -2.3598775732881034e-5 0.0
0.00037664887918255655 -1.1925744955700138e-5 0.0
0.0004653983320788615 -4.948452349657216e-5 0.0
0.00045814465389373474 -5.25956968701554e-5 0.0
0.0004581286948673362 -5.856967638240785e-5 0.0
0.0004517986224222665 -5.55943814316875e-5 0.0
0.0004521372354844242 -6.113568351179538e-5 0.0
0.00044560049243395206 -5.840948347963981e-5 0.0
0.0005254812779803184 4.062771024557416e-6 0.0
0.0005135069526611564 4.300153164734639e-6 0.0
0.0005189383621948551 4.516722984823963e-6 0.0
0.000502297929190364 4.1673281698822525e-6 0.0
0.0005070284907877736 4.232536633993852e-6 0.0
0.0004911370085695727 3.749069930086198e-6 0.0
0.0004959025652326993 3.6800056865931518e-6 0.0
0.0004866000777699451 3.607605221095734e-6 0.0
0.00047635264669839995 3.1052045067990023e-6 0.0
0.0005114298038846898 4.0893175739554185e-6 0.0
0.0004720434654173846 2.912934888862116e-6 0.0
0.0004999795322425845 3.4197253952142633e-6 0.0
0.0004857746367285767 2.8661703134646077e-6 0.0
0.0004889702015287721 2.4239502314043502e-6 0.0
0.0004821841436952358 3.25079417786238e-6 0.0
0.000507710026321707 3.703350871212103e-6 0.0
0.0005157446393013121 3.77317294131343e-6 0.0
0.0005378753062204481 4.6180026722625125e-6 0.0
0.0005264947663344213 4.262370975556642e-6 0.0
0.0004018294355183533 -1.1825177565268288e-5 0.0
0.0003346027744516651 3.325364452627513e-5 0.0
4.203396183636887e-5 -6.854783256552289e-6 0.0
3.3359932313473144e-5 -5.545530702672076e-6 0.0
3.878810295483393e-5 -6.627031982515414e-6 0.0
0.0003081519411721347 -4.6891615880377413e-5 0.0
0.0003831536264867331 -1.2236969386891447e-5 0.0
0.0003967320371490731 -6.742239882022975e-6 0.0
0.00038971226967004027 -7.732369560410451e-6 0.0
0.0003930876949522421 -8.17800879581355e-6 0.0
0.00038738817310982797 -7.120764170215453e-6 0.0
0.00039145586879421216 -5.772972783781781e-6 0.0
0.0003845506237728921 -6.78599037448299e-6 0.0
0.00038177740581099286 -6.684829777411289e-6 0.0
0.00037837535792819475 -7.799734053993608e-6 0.0
4.349029452161902e-5 -7.638961908491446e-6 0.0
0.00042209153854283975 -5.281538818594071e-6 0.0
0.0004885658468597716 -4.530827538502646e-6 0.0
0.0004709780067457012 -5.861199792127765e-6 0.0
2.9621882314254196e-5 -3.6448768467724066e-7 0.0
7.49864480387856e-5 6.554684697778386e-6 0.0
6.539764978176387e-5 1.4382986085143835e-6 0.0
0.00042374693478233034 -1.86546882920019e-6 0.0
5.505110115206941e-5 -9.941179811271655e-6 0.0
6.198946942436129e-5 -1.1486818081102367e-5 0.0
6.740392945672048e-5 -1.2474161125385206e-5 0.0
6.809329473843307e-5 -1.2189022671471167e-5 0.0
7.448150539123495e-5 -1.2946161063104154e-5 0.0
0.00032609869958674187 -1.819726486358903e-5 0.0
3.9952629306672365e-5 -6.111061994998667e-6 0.0
0.00014843185571883425 -1.6966261805375884e-5 0.0
0.00011837287455711683 -1.5784958853709746e-5 0.0
0.00037162009288703923 -2.568282078267509e-5 0.0
0.00016548553627331833 6.269733031464642e-5 0.0
0.0004479650156352101 -4.815062563021361e-5 0.0
0.000412628075195298 -5.5620416236389315e-6 0.0
0.0006310093278321451 -4.3774610147268624e-5 0.0
0.0004813369116634858 3.1039222134464737e-6 0.0
0.00046708889552093193 2.370332159308369e-6 0.0
0.00046468510520997344 -6.234802353231793e-5 0.0
0.0006732212691494566 7.283689099494622e-7 0.0
0.0006501802684247519 1.5505985208676738e-6 0.0
0.0006550362123843115 1.3689219581292585e-6 0.0
0.0006463215215444674 1.5714352516150336e-6 0.0
0.0006307101681283299 2.2765563345006915e-6 0.0
0.0006436402931279408 1.2639474014460077e-6 0.0
0.0006200550437420772 2.38175272971211e-6 0.0
0.000624696356907215 2.475114817540841e-6 0.0
1.1748881933909701e-5 -1.6956557500925529e-6 0.0
0.0006842184927408941 4.833781380831868e-7 0.0
0.0006679733828928602 9.875423038559765e-7 0.0
0.0006767691298918454 6.578505898240941e-7 0.0
0.0006698338465293901 8.154475897228045e-7 0.0
0.00041512145679288906 -1.4483330640557146e-5 0.0
0.0004870564833926246 -6.0453649137740684e-5 0.0
9.304665121147562e-6 -1.2370303746003984e-6 0.0
0.0006879578746594118 -1.5323435875394224e-7 0.0
0.00027960778455923124 -1.5474795130095905e-5 0.0
0.0005126968367902565 9.111918709654255e-7 0.0
0.000227848104697561 -1.860291815962788e-5 0.0
0.00024767697499321963 -1.9985614106421052e-5 0.0
0.00024899717699019403 -2.0625509070598264e-5 0.0
0.0002459659923669804 -1.9185781989577174e-5 0.0
0.0002627563629750183 -2.0261996706915733e-5 0.0
0.00026887705943153456 -2.1396514840097126e-5 0.0
0.00026933582743146313 -2.211267166579506e-5 0.0
0.00025128641846924047 -2.0634365680153624e-5 0.0
0.0002353865913515265 -1.8115569363901446e-5 0.0
0.00022831847955248125 -1.7946005281079736e-5 0.0
0.0005569034408563969 -6.011706396942845e-5 0.0
0.0006709066632375003 -3.7530237791817823e-7 0.0
0.0002956911493993735 -3.928958464901927e-5 0.0
8.215087935795577e-5 -1.5449173689541754e-5 0.0
0.0003125520984053796 -4.0911584360347277e-5 0.0
0.00026298779384563214 -3.5520974220536686e-5 0.0
0.0002633226663476046 -3.841717124054997e-5 0.0
0.000356839324977983 -1.318006093830644e-5 0.0
0.000421439790665745 -9.771415192386302e-7 0.0
0.0005784839663822003 -1.4151972920775842e-5 0.0
0.0005813338722595837 -1.117075485288499e-5 0.0
0.0005572340496639971 -1.3038688503664122e-5 0.0
4.948269895854406e-5 -8.667611074038203e-6 0.0
7.591776005748003e-5 -1.4199117917616952e-5 0.0
0.0003467533620277519 0.00011276616421544388 0.0
0.0003126251763903478 0.0001132533194515318 0.0
0.0005363663436122473 -5.224573621459222e-5 0.0
0.0003276962583769248 1.2075898878126519e-5 0.0
0.0005977633850439999 -3.3751740621452664e-5 0.0
0.00031293567842752284 -3.3971626471647924e-5 0.0
0.0005202924958821137 -7.419544178453513e-5 0.0
0.0005267149990110099 -6.342677724602783e-5 0.0
0.00025824100267287314 -1.7694982166107084e-5 0.0
0.00017095595916772366 -2.8724870413179143e-5 0.0
0.0005932961362368434 -4.473274949909106e-5 0.0
9.356559130055708e-5 -1.72596064058163e-5 0.0
0.00010004060951135309 -1.82020581359729e-5 0.0
9.54065777303246e-5 -1.7572734600651932e-5 0.0
0.00018103733782923534 -1.7592193113571724e-5 0.0
0.0003851197822488913 -5.6395240758333535e-6 0.0
0.00041504652959699427 -2.3199016095976434e-6 0.0
0.00029832405786975915 -1.7808244014136133e-5 0.0
0.000308128014743688 -1.735871046393306e-5 0.0
0.000666377976237936 -1.7392647740451703e-6 0.0
0.0006364313306577215 -6.5300879733352496e-6 0.0
3.955380181957818e-5 1.9045974186657468e-6 0.0
1.1674268550261109e-5 -1.6079223063394367e-6 0.0
0.0003428552192882334 -1.3854094703987223e-5 0.0
1.4912774260860494e-5 -2.303674315425188e-6 0.0
3.3378112667974164e-5 -5.231135886971192e-6 0.0
0.0003107918469612142 -3.935675620312743e-5 0.0
0.0004925762170665028 -9.297002942494918e-5 0.0
0.00036821546570056906 2.998402915471826e-5 0.0
0.00039770282654186755 -1.0530907207107938e-5 0.0
0.0003548995277274269 -1.5182498756043601e-5 0.0
0.0005131979035248508 -1.0219539300408547e-5 0.0
0.0006239878449882118 -2.9605184394960627e-5 0.0
0.00021971761788055612 -2.857832965879457e-5 0.0
0.00021958314393209858 -2.9743792167967995e-5 0.0
0.0002101703318948862 -2.832094032148496e-5 0.0
0.00020054874360186982 -2.6886293774765266e-5 0.0
9.322207637383214e-6 -1.2917050332826242e-6 0.0
1.5606643691644995e-5 -2.378553965091973e-6 0.0
1.790070249661063e-5 -2.654382488804083e-6 0.0
0.00019121660896101084 -2.1917372904481037e-5 0.0
0.00017930084856745916 -2.1776123439004623e-5 0.0
0.000685583533733886 4.2449959555609167e-7 0.0
0.0003504664496557781 -5.5151858400303015e-5 0.0
0.00034462124210007787 -5.212105125666613e-5 0.0
0.0003446866959550853 -5.718463622515435e-5 0.0
0.00033934756695403313 -5.373202714559478e-5 0.0
0.0003345868357550914 -5.4644797592428e-5 0.0
0.0003337185642644239 -5.070585723142817e-5 0.0
0.0003445854795826463 -4.808381452311473e-5 0.0
0.0005132354815280669 -7.175610157771072e-5 0.0
9.007450319530188e-5 -1.1156307403718641e-5 0.0
0.00010294283359180514 -1.261740503132534e-5 0.0
8.84905396053109e-5 -1.1930411332266678e-5 0.0
0.0004065762924730895 -8.895693843395382e-6 0.0
0.000233215089147202 7.803204097212616e-5 0.0
0.0003480070539998141 -1.570805411490754e-5 0.0
1.5333679853872607e-5 -2.3973888297109674e-6 0.0
0.000223785894301799 -3.415559239799829e-5 0.0
0.00021482383686784745 -3.3759310189366746e-5 0.0
0.00021720103272240794 -3.228353828462797e-5 0.0
0.0002622382996408638 -3.318799965087456e-5 0.0
0.00022127314464290735 -2.7161158919119515e-5 0.0
9.213494276213263e-5 -1.4693910087637768e-5 0.0
5.5566255209520586e-5 -9.367472046691575e-6 0.0
0.0006774190314474512 6.2967249351755e-7 0.0
0.0006602287433845247 1.1754917449451597e-6 0.0
0.00012951056884440918 -2.231370544739597e-5 0.0
0.00016221500648853592 -2.639886390410591e-5 0.0
0.00015442250304205374 -2.5716374641768423e-5 0.0
0.00014582804184153162 -2.4387272610592326e-5 0.0
0.00014619886902397843 -2.4876923229187483e-5 0.0
0.0004732348384206491 -9.659016814727984e-5 0.0
0.0003848859618430827 6.142091632342701e-6 0.0
0.00042110796172635783 -5.598819439962716e-5 0.0
0.0004274563142496939 -5.975763084211479e-5 0.0
0.0004337050563022626 -5.77870216397821e-5 0.0
0.0004203179666830532 -6.225887342166927e-5 0.0
0.00024187053299505249 -2.8884831411737555e-5 0.0
0.0003677963705042324 -3.403693108127996e-5 0.0
0.0003498149836077669 2.2579977466540263e-5 0.0
0.0003306794474972651 -2.0280658689770725e-5 0.0
0.0006881034362311305 -5.318540574573894e-7 0.0
0.0006774212078131112 -2.7003241153704902e-6 0.0
0.0006737450425456479 -1.5906795343490226e-6 0.0
0.0001379248399114637 -2.3553115590694757e-5 0.0
0.00013038391227342415 -2.266733429467686e-5 0.0
0.00024204045603384795 -1.812588602555667e-5 0.0
0.0001908539174118613 -2.6705200725234522e-5 0.0
0.0006204931737239642 -7.676249999403048e-6 0.0
0.0005545459267065588 -4.019162472054915e-5 0.0
0.000337014659599868 -1.4285741861571048e-5 0.0
0.00034459205718929227 -1.3069777986700219e-5 0.0
0.00043090203144370803 -5.8902175947331804e-5 0.0
0.00047415418788731775 -4.181592691313017e-5 0.0
0.00030767887016012514 -3.494575764666785e-5 0.0
0.000307262864727621 -3.691453222339556e-5 0.0
8.89845006813821e-5 -4.259632125291258e-7 0.0
0.00017178824042340566 -2.576576287463821e-5 0.0
0.0001621855661431883 -2.500722580038012e-5 0.0
0.0001528800937623206 -2.354269080803785e-5 0.0
0.0001527736842353726 -2.429086584611259e-5 0.0
0.0001467821315987229 -1.3915194756816809e-5 0.0
0.00014913088617729664 -1.4158937642238347e-5 0.0
0.00016258160454591958 -1.4891935940574277e-5 0.0
0.0004270392054112639 -6.569078589014702e-5 0.0
0.00040538662199001997 -3.638289361034533e-5 0.0
0.0003972341963711213 -3.7969817887031256e-5 0.0
0.0004060617211432343 -4.136860906489502e-5 0.0
0.0003979412634746569 -4.278452575697048e-5 0.0
0.00040418816605428993 -4.528817726030794e-5 0.0
0.0004133770356450219 -3.905013762554421e-5 0.0
0.0004209117386502235 -4.138097993184693e-5 0.0
7.421596965108074e-6 -1.1053506046940897e-6 0.0
0.0006885358205204929 -1.5726582028236603e-6 0.0
0.0005416920440994757 -5.1112090588289285e-5 0.0
0.00038392674617597456 -5.570916703859841e-5 0.0
0.0006355369462067885 -5.79242836031844e-6 0.0
0.00037060052958817096 -4.9301856857766335e-5 0.0
0.0003701839885269562 -5.422445164739991e-5 0.0
0.0004764720656722976 -1.5541949594812595e-5 0.0
0.0004306115417847591 -4.210967847253825e-6 0.0
0.0004235894608305519 -4.084438103057531e-6 0.0
0.00023061871338355813 -3.126860826644761e-5 0.0
0.0001256434523554846 -2.060650723060592e-5 0.0
0.0004747067202729005 1.6528310087577173e-6 0.0
0.0005141615371523562 -4.660529172286354e-5 0.0
0.0002676184804264818 -2.45724272875525e-5 0.0
0.0002766399016581699 -2.4329109546027913e-5 0.0
0.0002755791350175678 -2.5551392199467296e-5 0.0
0.0002779608695548149 -2.3166949544894175e-5 0.0
0.00026658413468639213 -2.5769781995787667e-5 0.0
0.000284410391528196 -2.410797381780714e-5 0.0
0.0002861768000620666 -2.2968730128611878e-5 0.0
0.00028915502437656916 -2.1766570263722655e-5 0.0
0.0005046172210518076 -3.999022621912027e-5 0.0
8.392523037521826e-5 9.546428787200655e-6 0.0
0.00046249888596172265 2.334054619407806e-6 0.0
0.0005011491465203617 -9.459942422662385e-6 0.0
0.0001785403911512853 5.673936995987152e-5 0.0
0.00011279607811888835 -1.2209155714423893e-5 0.0
0.0001662674975125223 -1.4846257472261869e-5 0.0
0.00010741748229580187 -1.8237056656693675e-5 0.0
0.00026911751523297253 -2.234100510233466e-5 0.0
0.0002062056089197711 -2.0232088717735603e-5 0.0
0.00022226842220552268 -2.029071271336868e-5 0.0
0.00023119091171938753 -2.1280586081451267e-5 0.0
0.00032436686060538544 -4.99184758128464e-5 0.0
0.0003291335916549425 -5.147198970751827e-5 0.0
0.00032999740861926365 -5.5511866735423265e-5 0.0
0.00033394507625877804 -4.7767002310651594e-5 0.0
0.000503788711742349 -4.825144229174972e-5 0.0
0.0002841434705147471 -1.8366697149217847e-5 0.0
0.0004621254024766017 -8.174823906323452e-6 0.0
0.00026153426414299866 -3.306187877091655e-5 0.0
0.0003450169455314081 -4.475394255697807e-5 0.0
0.0002779684141676153 -4.1279895369754375e-5 0.0
0.0006026985484788277 2.366435983675165e-6 0.0
0.0003415378152343932 -1.735913712254874e-5 0.0
8.251260561135395e-5 -1.3497239524755695e-5 0.0
0.0002807950900445507 -3.250867150277199e-5 0.0
0.00028665597185464957 -3.3890776736540506e-5 0.0
0.00026574839825737625 -2.968056393864396e-5 0.0
0.0002814330418075296 -3.591905725145857e-5 0.0
0.00038143917396655136 -2.140203577240809e-5 0.0
0.00037346597307049453 -2.3062924722871546e-5 0.0
0.00037996708254892423 -2.3955628234939314e-5 0.0
0.00045852280663823087 2.104886877586997e-6 0.0
0.00031371651065955806 -3.1984386534341383e-5 0.0
0.00024490798970833763 -2.7096006175906398e-5 0.0
0.0003860940822805053 -5.1628501992970905e-6 0.0
0.00038310413323541467 -5.917489829696278e-6 0.0
8.245287214563465e-5 -1.4381272568793553e-5 0.0
0.00018841411416621598 -2.86870968824217e-5 0.0
0.00043412006748670245 -5.203987329911905e-5 0.0
0.00039913544004966246 -7.394834204028983e-6 0.0
0.00034396738905677934 -3.229676756300774e-5 0.0
0.0003376830798245703 -3.388369240166215e-5 0.0
0.0003365156152935214 -3.642389964253626e-5 0.0
0.0003316771297957144 -3.539032494981749e-5 0.0
0.00033069901929132207 -3.788298531543003e-5 0.0
0.0003415361816957533 -3.746802202300473e-5 0.0
0.00041536466636818756 -6.9193899145925095e-6 0.0
0.00029996945714777496 -2.8011870249198177e-5 0.0
0.0002940688741058362 -2.8690161887788105e-5 0.0
0.00036886158816396155 -2.0055239492599997e-5 0.0
0.0002553584203799345 -2.9620600002744172e-5 0.0
0.00036331163760341674 -5.640308593373496e-5 0.0
0.0003028782074105151 -3.3879575227434525e-5 0.0
0.0003328946963757971 -3.3013763777538086e-5 0.0
0.00045802965793595885 -6.463814634625711e-5 0.0
0.0003231014177311497 -2.0459039438711505e-5 0.0
0.0006300329089723485 2.075570269704068e-6 0.0
0.0003369300726743337 -2.6505711115436577e-5 0.0
0.00016381196672769557 -2.1911778207490477e-5 0.0
0.0003949074278481763 -1.6897275394005673e-5 0.0
0.00044994906326755813 -4.3476293878624034e-5 0.0
0.0006055148252969279 -8.377334349002284e-6 0.0
0.00011971551949199363 -1.2470356991106465e-5 0.0
0.00012502378692455401 -1.1856061962638296e-5 0.0
0.00013837873695867953 -1.3725203847751794e-5 0.0
0.00014780705109287287 -1.3838090646185935e-5 0.0
0.0001617952252149803 -1.5055066810778585e-5 0.0
0.00045370040792399804 1.5281302083120013e-6 0.0
0.0002984304741517096 -4.7858944380497985e-5 0.0
0.00032986299398698614 -1.90647103061728e-5 0.0
2.7815620004489583e-5 -4.449605018887643e-6 0.0
0.00035070876889589805 7.214480066394798e-5 0.0
0.0003184971082324749 7.475496876785235e-5 0.0
0.0004405972598073429 -1.4248132302615162e-5 0.0
0.00029095189227451026 -3.802698775830802e-5 0.0
0.0003135385040217826 -4.7763119385738596e-5 0.0
0.00030356913702483484 -1.823006905915297e-5 0.0
0.00036313237897542966 -1.9602826006210702e-5 0.0
0.00035732016101716027 -1.9222594900198852e-5 0.0
0.0003597276096412928 -1.7096789072246088e-5 0.0
0.0004127773122381557 -1.6043318938259275e-5 0.0
0.0002810532899782111 -3.4236666481369546e-5 0.0
0.00019468098822512283 -1.9304367186177246e-5 0.0
0.00028868235897973674 -2.6304719388457364e-5 0.0
3.9987740325516496e-5 -6.451918951410369e-6 0.0
0.0003696889939758301 -8.060720904591931e-6 0.0
0.00014503467120197756 -2.4065512595986715e-5 0.0
0.00035145066134888766 -2.122204086163003e-5 0.0
0.0002316687277202985 -3.204684968745781e-5 0.0
0.00044666074052541804 -4.176073041237241e-6 0.0
0.00032944346269499463 -2.387577860943422e-5 0.0
0.0003260213200362743 -3.677981889609768e-5 0.0
0.0005757774829582364 -1.7369023694050414e-5 0.0
0.00012286665567034008 -2.1506779549733966e-5 0.0
0.0006360370839127175 -4.569223984525094e-5 0.0
0.0002980767001391821 -2.1780352944831603e-5 0.0
0.00032637488334889234 -2.751980786316805e-5 0.0
6.413174991939443e-5 -1.0915038599869897e-5 0.0
0.0005722396408408833 2.0537075380673344e-6 0.0
0.00035915809289717465 -3.838454427665951e-5 0.0
2.78277796977933e-5 -4.552153793835364e-6 0.0
0.00035493468510850167 -1.1914291908062285e-5 0.0
0.00035300970957876374 -1.2887782312437233e-5 0.0
0.0006210044090711627 2.5511962133898642e-6 0.0
0.0003571966428626923 -5.869088371354934e-5 0.0
0.0001168455511353366 -1.982644940672483e-5 0.0
0.0006583815021741911 -4.775857712080861e-6 0.0
0.00035445309049138643 -1.7071039005442437e-5 0.0
0.0003357241520235479 -2.2394433079698483e-5 0.0
0.00039101929883967994 -3.2729034989039584e-5 0.0
0.0003837606483923233 -3.107527962171666e-5 0.0
0.00036198338079523337 -3.2672516677821195e-5 0.0
0.00032800929398836955 -2.0512059205434256e-5 0.0
0.0003727459649831527 -6.291185793128227e-5 0.0
0.00040207121458126757 -6.585681637827308e-5 0.0
0.0003077933207050564 -4.978344502354518e-5 0.0
0.0003195992147015275 -5.320432853084031e-5 0.0
0.0004432071172805565 -6.87650899474373e-5 0.0
0.0004397746503055862 -6.222749204759429e-5 0.0
0.00026412170101788694 -4.083526579923454e-5 0.0
0.0001945042017905064 -3.243958682704527e-5 0.0
0.00038725303154348045 -6.450454864057032e-5 0.0
0.0002814377621846933 -4.4098631153584986e-5 0.0
0.00031264955492158326 -1.9086255629573055e-5 0.0
0.0005526641704544215 4.087508227556824e-6 0.0
0.00044834714743183284 -2.3416395281885793e-5 0.0
0.00044615921883711863 -2.7485066209615388e-5 0.0
0.0002748184398529231 -2.6907630497083225e-5 0.0
0.00039279400877635125 -1.4761844210405193e-5 0.0
0.00032515193948985015 -4.139644486732464e-5 0.0
0.00017735530241631324 -2.7449911329405736e-5 0.0
0.00013280734512340422 -1.9425905015589564e-5 0.0
0.00030709168008680827 -2.5641374329417588e-5 0.0
0.0005681379966292187 2.098756812561422e-7 0.0
0.0002867545749358645 -2.288550380921967e-5 0.0
0.00033670712343583035 -1.7535167030606506e-5 0.0
0.00036735951976690935 -2.246017475601943e-5 0.0
4.360786808060185e-5 -7.729564489851045e-6 0.0
4.394712322656398e-5 -7.616897462433184e-6 0.0
0.0003015865837517282 -3.7609609129809837e-5 0.0
0.00026859140049812554 -3.433884645408272e-5 0.0
0.0003418559263049669 -2.6969898149902228e-5 0.0
0.000631328008936423 -5.273745423919947e-6 0.0
0.00035069982231198803 -4.644659507303444e-5 0.0
0.0006723229981414852 -8.309307815660259e-6 0.0
0.0006598166556230399 -2.0986733850570733e-5 0.0
0.00021779353091174442 -1.724732891991416e-5 0.0
0.00031111997573593465 -2.7695852393118544e-5 0.0
0.0003182176603500334 -3.2815006815695195e-5 0.0
0.0006402586425516858 -3.237962472684774e-7 0.0
0.00039590122075331183 -2.8560414700533236e-5 0.0
0.0004284050972052515 -4.002916998962289e-5 0.0
0.00043777264261414116 -2.9398401561012166e-5 0.0
0.00019103879329200737 -3.0647896585156866e-5 0.0
0.0004036741373128661 -2.173179392469276e-5 0.0
0.0003134000618638345 -2.4583808868501263e-5 0.0
0.0004209701524374705 -1.8088271566204637e-5 0.0
0.00041918574739541024 -2.1229044231477933e-5 0.0
0.0004298206685843828 -1.6043258499890003e-5 0.0
0.0001538908884353037 -2.6272836398987703e-5 0.0
0.0005005409241328379 2.4293369450580864e-6 0.0
0.0003767972802253455 -5.829152673839748e-5 0.0
0.0005446461397515079 -6.321684327486888e-5 0.0
0.0004715700125882141 -9.215799988419781e-6 0.0
0.00034625405762240256 -1.3051990158297663e-5 0.0
0.00039918564749100676 -4.763286378172683e-5 0.0
0.0002865896202858957 -3.5593193203035096e-5 0.0
0.0003025798112150925 -2.253011452720366e-5 0.0
0.0006096320796782238 3.069498329358765e-6 0.0
0.00016156151920634793 -1.807573358347246e-5 0.0
0.00045684144598149684 1.3233291811278035e-6 0.0
0.0003541690172816733 -1.1935938032530567e-5 0.0
0.00039963222099690537 -1.5324198823955547e-5 0.0
0.0005777505643145017 3.4699208157628652e-6 0.0
5.714364731399626e-5 -1.0004263059373344e-5 0.0
0.0004603600272774087 -3.213439332754017e-5 0.0
0.0003981895876718342 -1.0747142552872534e-5 0.0
0.0003941642245205726 -1.0226207671877396e-5 0.0
0.00038439102326975254 -4.229957230587487e-5 0.0
0.0003588939961125199 -2.6544961097644817e-5 0.0
0.0003650568035962093 -3.996476562930591e-5 0.0
0.0004735680041861943 -4.698336168236262e-5 0.0
0.0004695793707378234 1.9076361863473927e-6 0.0
0.00039327778739984545 -2.477602379001127e-5 0.0
0.000452160105524877 -5.0797213396725876e-5 0.0
0.0005637322537547532 -3.249014071499349e-5 0.0
0.0005654817724648471 -2.4539925342653837e-5 0.0
0.0003656325827701599 -1.3963584771584693e-5 0.0
0.00024015946396919657 -3.211360963132994e-5 0.0
0.0004872209194459532 -8.294927293805967e-5 0.0
0.0003843809489146069 -2.0804490054691325e-5 0.0
0.00040196506698179647 -2.4657602442720796e-5 0.0
0.000658647088536506 -1.0557694979913424e-5 0.0
0.00010753938984530361 -1.9171030015452543e-5 0.0
0.00039878637289970324 -4.500637221081029e-6 0.0
0.0003748739276583885 -1.685721409140338e-5 0.0
0.00036804467045211856 -1.4719301632528612e-5 0.0
0.00013610185068318054 -1.3539114633269184e-5 0.0
0.0006041953657623239 -1.3509065866478195e-5 0.0
0.0003681528663357707 -8.765197707151386e-6 0.0
0.0005854708178269485 -1.935890324958391e-5 0.0
0.0002296801104856148 -3.096440593319787e-5 0.0
0.0004999998774064178 -7.004688369214e-5 0.0
0.0005163510677930807 -7.134127101402252e-5 0.0
0.00020343120999521432 -2.9622839700365517e-5 0.0
0.0004155880362214342 -2.7625784931641664e-5 0.0
0.00030393835631352883 -4.893446019257196e-5 0.0
0.0004120906536278156 -1.8143959829741857e-6 0.0
0.0001153705389350465 -2.0503257164953215e-5 0.0
0.0003851423810491823 -1.0763937831062509e-5 0.0
0.0003716079432458481 -7.855047168761378e-6 0.0
0.00038367237819374113 -8.62455706405383e-6 0.0
0.00037220141494696195 -2.564500537709838e-5 0.0
0.00044492686449718 -3.1856269083205406e-5 0.0
1.5754037189347954e-5 -1.7524014938552256e-6 0.0
2.6385396946124407e-5 -3.475516529991881e-6 0.0
3.156814207671081e-5 -4.482040470460687e-6 0.0
0.0006142592298630671 -6.0430808219036655e-5 0.0
4.1724570238111026e-5 -6.455477955455281e-6 0.0
0.0002109520323152733 -2.943552796323803e-5 0.0
0.00010494762802748235 -9.629164456477647e-6 0.0
0.0005538983480632286 -7.057134325498971e-5 0.0
9.347842819911667e-5 -1.7140124658666628e-5 0.0
0.00010813786933739905 -1.940453425194129e-5 0.0
0.0006079219282858166 -6.260311904546578e-5 0.0
0.0005949740585079457 -6.681041191989973e-5 0.0
0.0003643254837644123 -1.0812269819421459e-5 0.0
0.0002868592135505808 -3.835732709616166e-5 0.0
0.0004671437295380936 2.4163431603658326e-6 0.0
0.0005664935790514017 -6.954427758208759e-5 0.0
0.0005723753487210356 -6.942619109187794e-5 0.0
8.076147554340262e-5 -1.4816298460021246e-5 0.0
5.608870445229138e-5 -9.862390928224648e-6 0.0
0.0005839723100714001 -6.831700060815807e-5 0.0
0.0005870218727778788 -6.003378949799525e-5 0.0
0.00039045570614359916 -5.9531548001976936e-5 0.0
6.602353140418856e-5 -1.1938954259765509e-5 0.0
0.00047676089338704805 -7.110913238947742e-5 0.0
0.00012712350557478953 -2.14622228542064e-5 0.0
0.0005366790743551387 -3.559706391919112e-5 0.0
0.00020491144797906926 -3.2309348758108986e-5 0.0
0.0004971180765179267 -4.497304044178947e-5 0.0
0.0004972820076047343 3.860775772264329e-6 0.0
0.00021228250402041376 -2.3873444994572932e-5 0.0
0.00013361710485398234 -1.9944500267366125e-5 0.0
0.0002753189948974281 -3.562707745936522e-5 0.0
0.00033093604682898735 -2.8034894782824386e-5 0.0
0.0005305387871669734 1.7811141102111208e-6 0.0
0.0003388952187732176 -4.9516259069368726e-5 0.0
0.0003721223930793199 -7.739569256378735e-6 0.0
0.000391182384549362 -1.2046009606257097e-5 0.0
0.00042473034423923055 -1.1828365430565849e-5 0.0
0.0004934177489860506 -3.223206717729426e-5 0.0
0.00022990302918157426 -1.9273381536937925e-5 0.0
0.00042692703606097887 -2.7132202644935192e-5 0.0
0.00023454120200425678 -2.3833923800647277e-5 0.0
0.0005413570118667919 -2.3699180692028324e-5 0.0
0.00016535273913694483 -5.59596718184104e-6 0.0
0.00013858660646362084 -9.665627872427664e-6 0.0
0.0003348149080150387 -1.7017250502819554e-5 0.0
0.0005618718094718457 3.533525759620191e-6 0.0
0.0004048083483807404 -3.712725653743468e-5 0.0
0.00036163984264208797 -9.6801240304896e-6 0.0
0.0006080528295481734 1.6985266825183718e-6 0.0
0.00019182821053207098 -2.366636784083132e-5 0.0
0.00025009198913911694 -1.9180732603550723e-5 0.0
0.00045368521269774397 -1.17125869536414e-5 0.0
0.0005106642129652989 -3.2276171569585566e-5 0.0
0.0001622933850061512 -2.2596907549906078e-5 0.0
8.429135679292162e-5 -1.5203046934420062e-5 0.0
0.0004857773981212407 -2.9691936591323006e-5 0.0
0.0002601044827192814 -1.77561188530189e-5 0.0
0.00047803602814054473 9.333965275640198e-8 0.0
0.0006773727090196193 -3.836872911035337e-6 0.0
0.0005230378289727985 4.4744811949526455e-6 0.0
0.0004052003619329627 -1.5737564529394025e-5 0.0
0.0004060154499560094 -1.3121257783692425e-5 0.0
0.0004016103119251177 -6.91170246814969e-6 0.0
0.0005848781454952419 3.668901517195433e-6 0.0
0.0005726260901898041 2.2976697589191974e-6 0.0
3.204623186804073e-5 -5.16793289422967e-6 0.0
2.577285714916535e-5 -4.019693397909632e-6 0.0
0.00029109705175325417 -3.8687079221393935e-5 0.0
0.0004104554574561375 -2.2961308895277527e-5 0.0
0.00028260561336975967 -1.9434920980842158e-5 0.0
0.00028350446446341745 -1.8851290002193266e-5 0.0
0.0002887206425873119 -1.8767579133337178e-5 0.0
0.0003356194679326176 -3.9017120688611675e-5 0.0
0.000390694525012501 -6.01982228376676e-6 0.0
0.00012168626427127927 -1.342701680993416e-5 0.0
0.00044484639560223775 4.7441165437490503e-7 0.0
0.00041338833742619744 -1.994500594058865e-5 0.0
0.00030606180060305374 -2.7134749175773496e-5 0.0
1.655861702348998e-5 -2.5354415078306384e-6 0.0
0.0003323752190151504 -2.606524852939065e-5 0.0
0.0006047303047159001 -3.647584064540604e-7 0.0
0.0004968240362976012 1.0738893522553503e-7 0.0
0.00047203808019250534 2.1939853315431496e-6 0.0
0.0005714806095995122 -8.918761324827422e-7 0.0
0.00041641945035365445 -1.8424353848010462e-6 0.0
0.0002898349197636307 -2.107658100685332e-5 0.0
8.272677738271524e-5 -1.3097880815722846e-5 0.0
0.00032617170252263 -1.5896223240183505e-5 0.0
0.00036859672346721285 -1.0575511693994128e-5 0.0
9.769289582240868e-5 -1.5693962505349396e-5 0.0
0.0003160123913371276 -5.1989065950134974e-5 0.0
0.0004066294426042636 -2.7241320840432087e-6 0.0
0.00022037659242239352 -3.058279358047332e-5 0.0
0.0005012255696038583 -7.76173929297493e-5 0.0
0.0005411734391782566 1.478466841036302e-6 0.0
0.00025989529339828397 -1.7752692499436018e-5 0.0
0.0004906002733820504 -3.724122836501034e-5 0.0
0.00038034413759995326 -6.804762340035497e-6 0.0
0.00033392149282473 -2.4194901926001582e-5 0.0
0.0001368519531322845 -1.4459522990906434e-5 0.0
0.00026077503408271265 -1.9934807327532262e-5 0.0
0.0003806374578671764 -2.364375803380172e-5 0.0
0.00010966389479380124 -5.000591260067694e-6 0.0
0.0004693903050669748 -1.3880227650979523e-5 0.0
0.0001436631423326556 -1.8877121932395657e-5 0.0
0.00034019485050369334 -2.2682740983059223e-5 0.0
0.0005350098557449014 -9.33878890820551e-6 0.0
0.0004461299780922821 -1.0819573583961023e-5 0.0
0.00028471666175125407 -2.1734921753321154e-5 0.0
4.941394942760411e-5 -8.042007022156472e-6 0.0
0.00019571302831436138 -1.849284808274689e-5 0.0
1.900261770425749e-5 -3.1007248223387372e-6 0.0
4.0735181414478324e-5 -6.166771017066278e-6 0.0
0.0004444382330067986 -7.46329269918734e-6 0.0
0.0004050742256803604 -7.066343052287969e-6 0.0
0.00024026534466694833 -3.859241686235989e-5 0.0
0.00016093887432737467 -2.5577885857197644e-5 0.0
0.000523606140988235 3.5696718446045645e-6 0.0
6.895815827393823e-5 -1.2986836080354347e-5 0.0
0.00043131671068237395 -1.284366617855888e-5 0.0
0.00036607893824589405 -3.6944346498861996e-5 0.0
0.0005325850112312211 -1.8838914806872288e-5 0.0
0.0002114577814308279 -3.074636781708442e-5 0.0
0.0005835597436283223 -4.845289472253742e-5 0.0
0.00036367337398421535 -9.256545314856146e-6 0.0
0.00010390888238480637 -1.8814843199460893e-5 0.0
0.0004473184530119544 -6.434155832535021e-5 0.0
0.00011475423636391583 -1.7785819398068128e-5 0.0
0.000628607089943928 -8.92021782418911e-6 0.0
8.149885955397095e-5 -1.3552494871142246e-5 0.0
0.0004510006524436824 -1.7968488152978016e-6 0.0
0.0004182136909933271 -1.2960751861805067e-6 0.0
0.0003973451539544281 -1.4189230898199336e-5 0.0
1.8277276622051557e-5 -2.768049202390089e-6 0.0
0.00035821592034725235 1.0425373875641617e-5 0.0
0.00021610815873762703 -1.686004446791199e-5 0.0
0.0005210971823682932 -6.409531971618238e-5 0.0
0.0005317298446803427 -7.200575128644697e-5 0.0
6.151888678366736e-5 -8.677389768453981e-6 0.0
0.00038789029412387147 -5.4232393245316385e-6 0.0
0.00016957539498449651 -2.6323707609834187e-5 0.0
0.0002995364896321152 -2.9507964795498217e-5 0.0
2.0939314606375426e-5 -3.3476832152371437e-6 0.0
4.7305595355214735e-5 -7.259956606227958e-6 0.0
0.0003711146733900543 -1.1899465596269329e-5 0.0
0.00034658954244304644 -2.1052178926002525e-5 0.0
3.34149380733065e-5 -5.138836246078823e-6 0.0
7.207366904131707e-5 -1.1708405790031958e-5 0.0
4.6543548476190793e-5 -7.602720165889855e-6 0.0
0.0005386456862471947 -3.002111886576811e-5 0.0
0.00041717675678657704 -2.4343062847750286e-5 0.0
7.661435138629865e-5 -1.3783734409537961e-5 0.0
0.0004909789965727577 3.276842206493193e-6 0.0
0.00045632923376483426 1.3500341407891397e-6 0.0
3.466848279920402e-5 -5.564573964245172e-6 0.0
0.00032214778832469735 -1.6609411854717566e-5 0.0
5.701786076932168e-6 -6.340171028721025e-7 0.0
0.0006869681597232186 -3.610666823106682e-6 0.0
0.0006554165769209931 1.2101316702333573e-6 0.0
0.0002122082825481336 -3.509305068241754e-5 0.0
0.0004938324548925032 -9.190692191973702e-7 0.0
0.0004206003112724456 -3.712827818390565e-5 0.0
9.095551999364218e-5 -1.4745400298499648e-5 0.0
0.0004093962258449659 -6.627668974831014e-5 0.0
0.00010639084231339224 -1.3336674744972578e-5 0.0
0.0005602404634859535 3.172221098417975e-6 0.0
0.0002934854837841727 -3.0130333129006952e-5 0.0
3.1573606147479626e-5 -4.954642759510444e-6 0.0
0.0003656221848474122 -1.7844121500392376e-5 0.0
0.00036221228287992564 -1.6669622956672506e-5 0.0
0.0006054241811755519 -7.186844032431571e-6 0.0
0.00036605493930934725 -2.481722965378378e-5 0.0
5.931015030144496e-5 -8.29289127295948e-6 0.0
0.0005807247329370066 -6.25965769527369e-5 0.0
0.0006039785853313477 2.808059513004246e-6 0.0
0.000455630853041663 -6.508913397074688e-6 0.0
0.00046462576550732244 -2.564714869030483e-6 0.0
0.00030463255836318294 -4.4420887859596e-5 0.0
0.0006515319087795423 -3.383063332113041e-5 0.0
0.00033234106701897863 -1.6513470401074947e-5 0.0
0.00011067181301539647 1.07268052611839e-5 0.0
7.314900377289903e-5 -1.3719148197148277e-5 0.0
0.0002558827323652279 -9.550178130186723e-6 0.0
0.0005776488118012391 -4.484890987757407e-5 0.0
4.0775642810317855e-5 -4.570877651177023e-6 0.0
0.00037396646802319457 -7.763881305693252e-6 0.0
0.0004992126153235237 1.8822000193378274e-6 0.0
0.00040803397533500707 -7.13832401203439e-6 0.0
0.0006716243932680312 4.7284070080184283e-7 0.0
2.2382448771896936e-5 -3.572775118206692e-6 0.0
0.000604699835245078 3.1286362199871515e-6 0.0
0.0006753903253210692 -5.650100086496426e-7 0.0
0.000324639894900398 -5.183251139876221e-5 0.0
0.00037901172100292073 -1.0223017150713125e-5 0.0
0.0003082631842294692 3.5181541383789606e-5 0.0
0.00017294972380368784 -2.30725452978621e-5 0.0
0.0002473029786816101 -1.8346430736661217e-5 0.0
0.00031885916828605236 -1.674160232046171e-5 0.0
0.00016688299407205368 -1.1742530596013456e-5 0.0
0.0002750406228257489 -3.436768063956184e-5 0.0
0.00014092982699092337 -1.4106960477371113e-5 0.0
0.00010505768845141759 1.2225075451822828e-5 0.0
0.00033625881292297517 -1.551872231582873e-5 0.0
0.00045309462703698356 -2.974998207122585e-5 0.0
0.0005489038579750045 -2.7281670340594335e-5 0.0
0.00027606642224818704 -2.025384934553567e-5 0.0
0.0002003626142350758 2.4564911903281924e-5 0.0
0.00041722971115335026 -2.4835267499803526e-5 0.0
0.000231614173372555 -1.7191671684839254e-5 0.0
0.000511859378936131 -1.6117950620755892e-5 0.0
0.00026268262945600433 4.597926152778466e-5 0.0
0.00024012211064990471 4.8114221454519436e-5 0.0
0.00036176431704604153 -2.18872908712208e-5 0.0
0.0004479200258754505 -7.092547530967018e-5 0.0
0.0002911859466510311 -4.670802263610265e-5 0.0
0.0004917951692420504 -7.141007390651037e-5 0.0
0.00020209046037680003 -2.2908831096249544e-5 0.0
0.00045651737386789767 -7.017856069544383e-5 0.0
0.00016925220489247698 -1.5591018393483128e-5 0.0
0.0005234308184281593 -1.8089045294704933e-5 0.0
0.0002877126819518125 -2.9146897768202822e-5 0.0
0.0005609213437698908 -7.605025287287355e-8 0.0
0.00017482059607199914 -2.238308847246922e-5 0.0
0.00036894586939294183 -2.986952168347025e-7 0.0
0.00028958265775311703 -1.93934874571587e-5 0.0
0.0003120613953380271 -3.778701288942294e-5 0.0
0.0003474838034450788 -1.2441519740422895e-5 0.0
0.00035915828310964276 -1.5751559313939932e-5 0.0
0.00020140481056384169 -2.808001702055613e-5 0.0
0.0002028854188859417 -2.9131113279069267e-5 0.0
0.00013109950946041396 -1.7637506561698076e-5 0.0
0.000284454150085409 0.00011599175693842242 0.0
0.00031695596910316865 -4.4204996027388536e-5 0.0
0.000570759700519413 -8.83068770249112e-6 0.0
0.0005027702159111548 -2.9677556558053723e-5 0.0
0.00040929920845572627 -1.5058836914168063e-5 0.0
0.00019187196388811432 -2.2807966782170596e-5 0.0
0.0004383242443588418 -4.059937614049497e-6 0.0
0.00037356068435353613 -3.553098982918603e-5 0.0
0.000288101856556693 -2.768255556291458e-5 0.0
0.0006175843443596843 9.956541840474706e-7 0.0
0.00066485250355392 -5.122315319684616e-6 0.0
0.0002725123652820463 -1.9122593058472358e-5 0.0
0.00043296628534788417 -6.355927646947197e-5 0.0
0.0005935118542983343 -6.038199655542282e-5 0.0
3.9425820914376274e-5 -6.353431283108417e-6 0.0
0.0001827502011676064 -1.8406554615508666e-5 0.0
0.00021323425472622527 -2.2972844664727332e-5 0.0
0.0006050984087773263 -5.684826180105821e-5 0.0
0.00027457363042992556 -3.264914787945881e-5 0.0
0.00048128754518371 -8.91511689473908e-5 0.0
5.886354424734795e-5 -1.0935613133572596e-5 0.0
0.0003786527775478976 -1.43712912979638e-5 0.0
0.0005444892815539663 -1.6617672114226013e-5 0.0
0.0004254228849659833 -2.2520343659697502e-5 0.0
0.0006344198988427991 -2.770794856034365e-6 0.0
0.00043959465803931495 -5.5675482299152484e-5 0.0
1.6545379187072354e-5 -2.530587953932649e-6 0.0
0.0003266877721832221 -1.6709577006429336e-5 0.0
1.7193436974186615e-5 -2.4785843793569016e-6 0.0
0.0002686833867573044 -2.1227722491290297e-5 0.0
0.00017057864127381682 -1.520539384184815e-5 0.0
1.1678432130476426e-5 -1.6006411378561004e-6 0.0
0.00017866423148994804 -3.0147607257256508e-5 0.0
0.00016355841677073802 -2.711545082855559e-5 0.0
0.00033767761866050443 -1.7613933523909083e-5 0.0
0.00035686089330060067 -2.5660689101757442e-5 0.0
0.00011137581261529031 -1.9879819649356922e-5 0.0
0.0002457650275432651 -1.7465597365023363e-5 0.0
0.00039196963650712797 -5.197120451891038e-6 0.0
0.0001232130575418639 -1.8606480479538224e-5 0.0
0.0004710720239365942 -6.832464210267185e-5 0.0
0.0003815850235574349 -3.4047365714364656e-5 0.0
9.546056418089831e-5 -1.2975355982223044e-5 0.0
4.846783765577201e-5 -8.78013836424094e-6 0.0
0.0003722986634725987 -8.852305859661196e-6 0.0
2.317767241633398e-5 -3.341879749664232e-6 0.0
0.000640292699302065 1.8817550914184732e-6 0.0
0.00028722956486535724 -2.3698319621017362e-5 0.0
0.00033965600341403227 -1.437253041176841e-5 0.0
0.0005704722343742279 -4.804713593607615e-5 0.0
0.0006266839737437735 -5.4082161816239405e-5 0.0
0.0005015328733904119 2.927529339280621e-6 0.0
0.0003167056112254891 -4.180807188956505e-5 0.0
0.00039054208892428055 -1.1986871432719101e-5 0.0
0.0005623778542438381 -6.404725656128344e-5 0.0
0.00033504630572419024 -5.8184165094290815e-5 0.0
0.0005351480891721734 -1.401491453073918e-5 0.0
0.000427144228308276 -1.9298691087072836e-5 0.0
0.0002667250761822029 -3.113900289390321e-5 0.0
0.00045328093278120327 -8.221093606812002e-5 0.0
0.00028124731809841955 -2.6559707936953553e-5 0.0
0.00022484963272330585 -3.249396434282395e-5 0.0
0.00034098558351622853 -1.3590267705231315e-5 0.0
0.000508075229526055 -6.450380136549403e-5 0.0
0.00013101296877453248 -1.6985046882138302e-5 0.0
8.926814973414912e-5 -1.6592929363330647e-5 0.0
0.000465644618486502 -1.0408853874691686e-5 0.0
0.0001699649599212731 -1.9027677901558828e-5 0.0
0.00042071884809872595 -4.108351691306927e-5 0.0
0.0003468465671526942 0.0001634989538769077 0.0
0.0005512350600915753 -2.1597222353131414e-5 0.0
0.0005581720229768022 2.460480223129383e-6 0.0
0.0003793405526696745 -1.7404307215147298e-5 0.0
0.0004891681852598411 1.6553467149208691e-6 0.0
0.0003909561921122313 -4.051004783567554e-5 0.0
0.0004221789735821019 -6.803222360783451e-5 0.0
0.00022483728497792556 -2.2912500842608584e-5 0.0
0.000294265740727377 5.710086253022849e-5 0.0
0.00014574369486117258 -1.7570541079131955e-5 0.0
0.00014651455420607463 -2.5302084856957225e-5 0.0
0.00032057012894371747 -1.8431562529114625e-5 0.0
2.2549052726710436e-5 -3.642248152075287e-6 0.0
0.00010773475253835074 -1.9271464681780012e-5 0.0
0.0003619904160456489 -1.2786522937361605e-5 0.0
4.3369287637565693e-5 -7.197357807160772e-6 0.0
4.8908180362713324e-5 -7.2862838035998135e-6 0.0
0.0003516865891582728 -1.9737106021979686e-5 0.0
0.0003759777854378173 -7.736801170068235e-6 0.0
0.0006188156214326033 -5.1391548643057055e-5 0.0
0.00032258135776080715 -1.707805800009498e-5 0.0
0.00045505855525947045 -2.5358510975156417e-5 0.0
0.00038771826644999494 -9.177565964442684e-6 0.0
0.00011378081802433151 9.67804748134966e-7 0.0
0.00014903490763446613 -1.2437189658021264e-5 0.0
0.0006486364974614607 -4.884637042861957e-7 0.0
0.00046897730232921037 -8.986350066289016e-5 0.0
0.00010153707391048524 -1.5814095289031306e-5 0.0
0.00040420294705614297 -2.695221855257202e-6 0.0
0.000372883803570068 -2.141963221762039e-5 0.0
0.0003667690288467935 -8.63962787830382e-6 0.0
0.00018527704967805672 4.894730026889504e-5 0.0
0.0003454545038866751 -6.161442120937181e-5 0.0
0.0005951570077336723 3.4794643723307298e-6 0.0
0.00035215935981099486 -1.558675344798378e-5 0.0
0.0003787902931865681 -9.955042392327603e-6 0.0
0.0004196851667565819 -3.5574662879903285e-6 0.0
0.0003488922240080083 -1.6746908817211332e-5 0.0
0.00035498920117570137 -1.3854345657398418e-5 0.0
0.00017832957833529563 -2.7516612810573833e-5 0.0
0.0004357649930314246 -1.7193374047412533e-5 0.0
0.000311745403253257 -1.7642130794250276e-5 0.0
0.0003740336999616066 -9.093143057701386e-6 0.0
0.0005386177244935635 -7.254319972217303e-5 0.0
0.00032938488866353886 -1.539005223229823e-5 0.0
0.00040925888988497015 -2.604814986552084e-6 0.0
0.0003907040738879052 -9.66592671524792e-6 0.0
4.8741976387772655e-5 -8.591983814877391e-6 0.0
0.000504664659306794 -2.543039854396239e-5 0.0
0.00038166718812876607 -7.946152062464115e-6 0.0
0.00021023621209998724 -3.198811246848254e-5 0.0
0.00043749927721131905 -6.545893709461425e-5 0.0
0.00047059532758988136 -7.183523359771794e-5 0.0
0.0006767050710697008 1.2847917748909164e-6 0.0
5.5608807990372255e-5 1.3506213593241891e-5 0.0
0.0003146454706909297 -1.9533444610767017e-5 0.0
0.00036936245551000724 -5.891855516995516e-5 0.0
0.000270372402138812 -4.028545350135441e-5 0.0
0.0002970356323647804 -4.7352626647492235e-5 0.0
5.743153357810638e-5 -1.0020281879372114e-5 0.0
0.0004632684217110949 -2.3824709913916143e-5 0.0
0.00022736441327845223 -2.198416270505272e-5 0.0
0.0003208135234915641 -1.646690617951614e-5 0.0
0.00027543718200672264 -1.9526562024640012e-5 0.0
0.0003017783555881205 -4.869828654689632e-5 0.0
0.0004887432263026479 -4.51596904289953e-5 0.0
0.0006282014341382204 -7.148847128862952e-6 0.0
0.0003902986306448544 -3.745710658418566e-5 0.0
0.00034965741778234904 -1.747807267710276e-5 0.0
0.00024931913346270325 -3.0320766249771097e-5 0.0
0.00035792824173801213 -6.352710870627776e-5 0.0
0.00048317417414027805 -1.7642448717364868e-5 0.0
4.976888468271831e-5 -8.324369818480832e-6 0.0
0.000585820954337083 3.2039919870885166e-6 0.0
0.00030953963201643697 -4.9987924580589425e-5 0.0
0.0003135224923115687 -4.523423034709022e-5 0.0
0.00044618703952970103 -5.313626415366046e-5 0.0
0.0006748098360479275 -8.486931455319166e-6 0.0
0.0002841239686836472 -4.3704349892735845e-5 0.0
0.0002610441737067504 -1.945023179549681e-5 0.0
0.0002628491142174919 -1.9323177050103695e-5 0.0
0.00041623697901084814 -5.54436602695714e-6 0.0
0.0006469240131318589 1.6171161318845075e-6 0.0
5.263480388314187e-5 -9.633033988717298e-6 0.0
0.00035744324553418536 -1.2471975215496515e-5 0.0
0.0005876564392389193 -5.2443213974403184e-5 0.0
0.0006422190703389474 6.490643111063135e-7 0.0
0.00022172843249190836 -1.7937701617164186e-5 0.0
0.00031354960086348195 -5.045235899298218e-5 0.0
0.0006197131717725334 1.9646437657494277e-6 0.0
0.00011408680924512315 -2.0084249635255985e-5 0.0
0.0006633968365254057 1.0678528087062689e-6 0.0
0.00023081739437636183 -3.7843902174679814e-5 0.0
0.0004377840267643223 -1.370382960134198e-5 0.0
0.00015510045795065104 -1.4602224260588471e-5 0.0
0.00041543103186054866 -1.781461983855931e-6 0.0
0.0006472894317009674 -3.109682714573522e-5 0.0
0.0004929632195064925 -1.4936987833973472e-5 0.0
0.00019806286394306644 -3.189518523699238e-5 0.0
0.00013086528006388387 -2.2913418905052294e-5 0.0
0.00018000750716285795 -2.670202535283642e-5 0.0
0.0005514044796855858 -6.488344473241288e-5 0.0
0.0004800951645607052 1.3195266462077837e-6 0.0
0.00011163403098162172 -1.6678226706934264e-5 0.0
0.0003040426513472774 -1.999890571973175e-5 0.0
0.0004144215580606183 -7.854390777221166e-6 0.0
0.0002940569675717277 -2.2752927296752746e-5 0.0
0.0006278635257064608 -3.3036713704755047e-6 0.0
0.00044360121749730024 7.849579587353049e-7 0.0
0.00031204659869448506 -1.7394244061144046e-5 0.0
0.000116966361327868 -1.631070810064361e-5 0.0
0.0004670500911540384 -1.75330086053176e-5 0.0
0.0004024776056625805 -5.6418280705350105e-5 0.0
0.0005755722727331683 -6.435047744532654e-5 0.0
0.00025498074910766026 -3.825502025911957e-5 0.0
0.00043034886835481795 -2.2579233258038924e-5 0.0
0.0002825501911060573 -2.5232309757279663e-5 0.0
0.00038345045598612746 -6.027771425694564e-5 0.0
0.0005646422692793375 -4.487726074308244e-5 0.0
0.00047878190350818316 2.739667269251284e-6 0.0
0.0006233640715091956 1.7407705563479402e-6 0.0
0.00020890897207754425 3.503041179195609e-5 0.0
0.0005981077047094773 3.0338382919321383e-6 0.0
0.000246435898666781 -2.8191084014590188e-5 0.0
0.000549908289167316 -1.0909961313708939e-5 0.0
0.00041007661484350943 -6.6908170225142715e-6 0.0
0.00044788039476761183 1.3391047856606843e-6 0.0
0.00023638615399155946 -2.076794525413471e-5 0.0
0.00045090257565029716 4.4636923256693044e-7 0.0
0.0003209201912996371 -5.188882829018795e-5 0.0
0.00018391153813934684 -2.9289407831202464e-5 0.0
0.00037919400612713305 -6.847404400532205e-6 0.0
0.00047888886126781007 -2.632146067635902e-6 0.0
0.0003106512858630953 -4.810941639947205e-5 0.0
1.6552227325297028e-5 -2.3454622256006094e-6 0.0
0.0006544379267304029 1.3791855527398525e-6 0.0
0.0005393026570159325 4.253114712033876e-6 0.0
0.0003446660934713137 -2.6625487882080686e-5 0.0
0.0006698472665226508 -5.35466979519887e-6 0.0
0.0002345134463591768 -3.878326722540892e-6 0.0
0.0003779177076643672 -2.3375471882596924e-5 0.0
0.0006839004632627284 -6.785516564531154e-6 0.0
5.105278716431017e-6 -3.198888157530351e-7 0.0
2.1380504599821015e-5 -3.3112072247723468e-6 0.0
0.00023183866058365497 -1.7125941894175054e-5 0.0
0.00039491690225854174 -1.2621021521636957e-5 0.0
0.0004526838121936941 -1.3093930786127892e-5 0.0
0.0005073674925959381 -5.8192133272964816e-5 0.0
0.0006596880071764451 1.3127022190987754e-8 0.0
5.3485373267559054e-5 -9.019339623918393e-6 0.0
0.00017287912459647487 -1.5615335517473947e-5 0.0
0.00040377272970689874 -5.1898393732339325e-5 0.0
0.0005627988761553833 3.773043417652135e-6 0.0
0.0001869025738587506 -2.7082365302919952e-5 0.0
4.544245972026651e-5 -2.759136439418121e-6 0.0
0.0004097535517124858 -2.0467073598568157e-6 0.0
0.00024740042631801203 -1.869682954600914e-5 0.0
0.000512476846372553 -4.9802133434771636e-5 0.0
0.0003573710952181457 -1.3941967409104231e-5 0.0
0.00029147784614672316 -2.3854733705035162e-5 0.0
0.0005834969308048228 -9.114510685237789e-6 0.0
0.0005989638764703199 -6.0566544652773114e-5 0.0
0.00048782098692201593 -6.629319843088806e-5 0.0
0.00017255533869332693 -1.842009274666703e-5 0.0
0.0006091844365066657 2.5681508997954585e-6 0.0
0.00010606665168819699 -1.6671553968655592e-5 0.0
0.0006142601741230074 2.796165902572254e-6 0.0
0.0005570810608847574 -6.585799397929217e-5 0.0
0.00041804615535549663 -1.8514682977753138e-5 0.0
0.0004530697808498512 -6.606752919528646e-5 0.0
0.00052350707861364 -5.613356832100178e-5 0.0
0.00034536053971539126 -1.3221154185191569e-5 0.0
0.0001826640738824152 -2.838077493099498e-5 0.0
0.0003290769039009142 2.273834845448188e-5 0.0
2.136554719295134e-5 -3.420181055835698e-6 0.0
0.0006443880868756969 1.6792433346744007e-6 0.0
6.297826400951875e-5 -1.1684558281961418e-5 0.0
0.00047589930260514033 -1.4428788570230048e-5 0.0
0.0001174704144894562 -2.0787620752934023e-5 0.0
0.00043873399865750155 -1.0867971482749861e-5 0.0
0.00017116629018369174 -1.533306524876785e-5 0.0
6.162941754349006e-5 -1.0453654919599307e-5 0.0
7.612937282311067e-5 -1.3708443542104649e-5 0.0
7.283973430317127e-5 -1.3408473185394006e-5 0.0
0.00032578367694217555 9.75811830208456e-5 0.0
0.0004990377779722207 9.928640295930087e-7 0.0
1.1082731631522498e-5 -1.7035841317827192e-6 0.0
0.000534241969436851 4.452965874835365e-6 0.0
0.000557993386878959 -2.9097039069117827e-5 0.0
0.00040331228910953136 -1.0767264994327473e-5 0.0
0.0003533958476134136 -1.311000655220446e-5 0.0
0.0002133725354732779 -1.661926042956691e-5 0.0
0.00035095065488659194 -1.1907590584486378e-5 0.0
0.0004102520042771196 -4.5705185649147765e-5 0.0
0.0002375394617313671 -2.203839431971447e-5 0.0
0.00015806394711698405 -2.657257524367105e-5 0.0
0.0005576457665926236 -2.3780082653188475e-5 0.0
0.0004569412899436622 -6.0709623837212104e-5 0.0
8.828068363409329e-5 5.6382561809913095e-6 0.0
0.0002521296415768998 -1.9792340533978985e-5 0.0
0.0004309077076162409 -3.0789066442879554e-6 0.0
0.00041358245714394446 -6.259143861442066e-5 0.0
0.0003022420483794579 -2.096478572233574e-5 0.0
0.0005286807496897019 -6.683466274303321e-5 0.0
3.920152537329373e-5 -6.409690033077029e-6 0.0
0.00045238397431750037 -5.1099582550957485e-5 0.0
0.00027723955233869863 -2.1053091932790878e-5 0.0
0.0006240419050682318 -4.9571860548411396e-5 0.0
0.0002726790043356768 -2.24618366662687e-5 0.0
0.00041335218728205013 -3.0128402596906747e-6 0.0
0.0003543364679425088 -1.83078861555628e-5 0.0
0.0003830238676245052 -2.534511657536411e-5 0.0
0.00039549831629803555 -8.725192901888557e-6 0.0
0.00039849473004618713 -6.076598511370166e-5 0.0
0.0005146087342084913 -6.545994116283689e-5 0.0
0.00018423112405177908 -2.280962416253013e-5 0.0
0.0004170364776427788 -2.833792680878494e-5 0.0
0.0004116564240209613 -1.717903275386704e-5 0.0
0.0005083753454930443 -5.181195876388751e-5 0.0
0.00034840085468644056 -1.310198120396298e-5 0.0
0.0003869931762368452 -3.44865431960663e-5 0.0
0.00018220381144662078 -2.8028454413542964e-5 0.0
0.0006203040899206577 -4.463406507906321e-5 0.0
0.00043178331669658804 -6.886783307485457e-5 0.0
0.00031101518728867165 -4.6574693689955316e-5 0.0
0.0006533000004889185 -1.6391932225020672e-6 0.0
0.00030875846034467944 -4.0265923977716477e-5 0.0
0.000545891504818346 -4.3412481342161927e-5 0.0
0.0002088213317153346 -1.7372831558113142e-5 0.0
0.0004339746534448665 -1.0918021155130927e-5 0.0
0.00015704773991895223 -1.4597305020990834e-5 0.0
0.00033688178397010425 -1.9207355801635483e-5 0.0
0.00032126815992362864 0.00013786599349389483 0.0
0.0006751044962289924 -2.0667601708537965e-7 0.0
0.00039244284879210107 -3.536074142880455e-5 0.0
SCALARS damage float 1
LOOKUP_TABLE damage
0.9655993746407767
0.9880861029293666
0.9952375920510893
0.8257214979947808
0.9996235936741475
0.9999366196711869
0.9068532348857371
1.003390979560168
0.9949748483702836
0.9957943953408263
0.9954775676860661
0.9952879227633848
0.9949301973291224
0.9947127078247173
0.9942408912225126
0.9939292813621015
0.9936482069321976
0.9935447880974503
0.9934477380888131
0.9932603459204736
0.9930551648889099
0.9927546862384786
0.9923037961789568
0.9920141526018106
0.9916156377243301
0.991398840379455
0.99135878152869
0.9913458800499153
0.9913105686440153
0.9912440103207694
0.9909530169203938
0.9903207598561745
0.9869718975663395
0.9884861309106394
0.9878825859499506
0.9869749816122814
0.9870860405644297
0.9870183701662837
0.9872248946286024
0.9873531302628172
0.9874399871078
0.98763727485577
0.9874922886672193
0.9873738517820669
0.987343586855389
0.9870517610575541
0.9869462056457172
0.9868140057589915
0.9866022602761279
0.9863774934570639
0.986367048057113
0.9864058461889857
0.9863962717686171
0.9862464450064866
0.9863077374594157
0.9864497661094318
0.9866192819408218
0.9868718848922947
0.987106886601113
0.987255016491495
0.987571234445899
0.9876613736313237
0.9876689466009088
0.9880226129659968
0.9882002156206164
0.9872359428829135
0.9860815384768098
0.9856219116595107
0.9866322534645766
0.9897879198725145
0.991019211302435
0.9927884749260049
0.9942086356644549
0.9964227863955536
0.9958516962029875
0.9937065147488032
0.9936578653089589
0.9928862343349014
0.9935751437670983
0.9925039035465169
0.9921034664246582
0.9953817318727723
0.9965029197316887
0.9963788644398889
0.9964005774397201
0.9976850638360102
0.9992052153698675
0.9994231576124836
0.9996583570310963
0.9996198235663816
0.9996173525600638
0.999611534809981
0.9997027547432721
0.9998495363616153
0.9998414381041144
0.999735608277448
0.9995842366894427
0.9996274836838632
0.999638487681578
0.999618128776045
0.999555054695236
0.9995271354170664
0.9996413260526276
0.9997086802139464
0.9998393017581141
0.999952250752405
0.9998746751078604
0.9998809479647437
0.9999168188375717
0.9998621429284652
0.9997682052355654
0.9996452838355981
0.9995042511114423
0.9992933656422774
0.9991238886674348
0.998826148731722
0.9984926628144657
0.9983106231221127
0.9977390121692621
0.9969222550746717
0.9965874866008452
0.9960724074755171
0.9943885548767922
0.9915582239873597
0.9895970655521386
0.9868628290986441
0.9814209463039794
0.965950066742414
0.9467786313618097
0.9211316690781243
0.7963241128827738
0.9465299241750922
0.9602423625979015
0.9710528120833035
0.978356532900333
0.9829706630987118
0.9851031474140132
0.9866864565339807
0.986771426470531
0.9865531667755962
0.9861687212987911
0.9856612246247118
0.9853866531004176
0.985066991840125
0.9847540147104652
0.9844712450662195
0.9841762742918773
0.9840353721631079
0.9838005264099918
0.9847059707210865
0.9856668361173982
0.9877397961214504
0.9898759824483087
0.9918829976679053
0.9941594257052128
0.9964599099236021
0.9970540768599624
0.9992939777989767
0.9996809077186464
0.9998754119191451
0.9998336135574166
1.0000268123267035
0.9994920878376352
0.9986827672189192
0.9975701391643316
0.995365657624672
0.9932442728878097
0.9918369779742726
0.9914160467934369
0.9861729866681799
0.9574932106076367
0.8884942540073385
0.9000788161619006
0.9255942229820384
0.9418595287052114
0.9558113252659505
0.9676148471274787
0.9794897082223146
0.9861407346760788
0.9929624406401851
0.9979457028533805
0.9994466057755269
1.0003055865627755
0.9998373160722103
0.9996703943978346
1.000023055760827
0.9930607070246737
0.9579244267097143
0.9884659858175896
0.9997263716865943
0.985733929404601
0.9995839982046538
0.995566958909389
0.9993401858662682
0.996204595815285
0.999933735353003
0.9867445663037546
0.9996150709342148
0.9867753325222677
0.9930856608036092
0.9846536959339114
0.9536389909645937
0.9836228677849205
0.9174397955564348
0.9719964391648832
0.9987030147983256
0.9880333122125846
0.9922697639359612
0.9852662949227496
0.9845768368118725
0.9928661858926077
0.9965963126802255
0.9884917690663764
0.9952277675662227
0.9898002952571607
0.9916594258812272
0.9869319899874702
0.9935622054787149
0.9955937548598771
0.9996841076836278
0.9975388172641292
0.9995688152056141
0.9999468895004309
0.9887652316393442
0.9872519988011889
0.9893453513916832
0.987900045407476
0.9891521298047704
0.9941095582046525
0.9844009409672856
0.9919256205992791
0.9990531327598069
0.9975375536860845
0.9929010791642435
0.9891989595125047
0.9928717011082357
0.984831189537355
0.9616289378290929
0.9581299557271503
0.9883466967193486
0.9465667638205569
0.9996370075651896
0.9990112674503057
0.9909480327177828
0.9885183371969557
0.9995004796640891
0.9998661760218501
0.9866544762815698
0.9992804941799285
0.9873976255161027
0.9882298483418273
0.9976417393192545
0.9958297371960144
0.998536163559686
0.9753530456842607
0.9915491946141435
0.9994332157318819
0.9997602791292125
0.9837696207704616
0.9959530869588711
0.9891624603644508
0.9031366447210126
0.9997765162750974
0.9984774879569274
0.9966049692897961
0.9970165881533785
0.9974576392308462
0.9968289352848315
0.9955882210879994
0.995140081433926
0.9946198881441884
0.9939806308439222
0.9944185578153146
0.9930470992781681
0.9933637512936467
0.9914268542282519
0.992094346616383
0.9883111615137575
1.006369237729879
0.9659197578931163
0.9950148704288677
0.977045699572064
0.9955462998679873
0.9835209212828961
0.9962258384491933
0.9877315932401026
0.9960617083565741
0.9889158278784219
0.9959526550574037
0.9900760620659498
0.9958133182049369
0.9904680792890653
0.995554269833247
0.9912720048212145
0.9955480359809522
0.9910408745352858
0.9950489670254324
0.9910234867884373
0.9947410529355055
0.9912602092803643
0.9946481369303991
0.9914743408346313
0.9945456112120598
0.9915408574300959
0.9943436787798561
0.991551510739219
0.9944421262531588
0.9911928777367768
0.9940937520889415
0.9918713412507607
0.994130156034341
0.9923038686663544
0.9942274284964082
0.9923863469084399
0.9942302285970185
0.9927304947330239
0.9757460134463137
0.9943494317722268
0.9858241899620556
0.9893106206769713
0.9928754253206883
0.9943984180424508
0.9930480196136542
0.9915664997133066
0.9918410208729148
0.9944772360638178
0.9953229039800183
0.9953312969275474
0.9953903947196421
0.9957956207795567
0.9958556654600245
0.9905460798388723
0.9909208958629233
0.9959738509473947
0.9896794494215624
0.9902301564008263
0.9960663718886014
0.996031470401443
0.9893275398114496
0.9899722355925668
0.9961157591304999
0.9959270223133211
0.9892624057226947
0.9898745566904571
0.9960132014933027
0.9956848505207195
0.9891520549076088
0.9898080591589404
0.9958029070617561
0.9954029219575965
0.9890010588579832
0.9898039691478574
0.9889496516791154
0.9881035190689252
0.99612939745156
0.9955815126876669
0.9951681082699522
0.9948850537663059
0.9960942745481215
0.9947085501478568
0.9942545892458233
0.9940572054070822
0.9896814378789816
0.9887843606865936
0.9903622427137874
0.9953910943471566
0.9893145429924716
0.9880442421921903
0.9969608155412583
0.9885082779870925
0.9871170954370325
0.9875007519869197
0.9865523708016372
0.9861680200294229
0.9861243122951315
0.9857944946685252
0.9868995429033307
0.9863058838116372
0.9859114756792647
0.9878312225541013
0.9871577206909324
0.9864486601866304
0.9860396912074979
0.9935901510284173
0.9933620046049324
0.9879789923813252
0.9871380259189505
0.992918347538078
0.9927340817210776
0.9934219881710754
0.9925893241220833
0.9935527225482046
0.9926576704517714
0.9936938041483568
0.9926052009179315
0.9938222541420275
0.9916262119695683
0.9924663224555623
0.9940108555354781
0.9880130840036397
0.9866144229330456
0.9861996304342031
0.9950155982115221
0.9953496640446577
0.994375368714312
0.9961199942950962
0.9871577020511825
0.9958095468965459
0.9947898405877732
0.9880778036291444
0.9871932416061503
0.9872117312455615
0.9961430432272738
0.9953739882268557
0.9882058244699398
0.9900537021481033
0.987290395491885
0.9874787105945034
0.9964925619613021
0.9962667614120071
0.9937204100450377
0.9966866463016499
0.9948077724286921
0.9917386918704045
0.9868967121030474
0.986584929216761
0.9855523076430442
0.9862340951827425
0.98485864737603
0.985684379822385
0.9842546787320308
0.9903894008412609
0.9919703174431029
0.9876300100348444
0.9877421455954482
0.9971225215176186
0.985232294966348
0.9837138858652263
0.992434965092881
0.9931847924475998
0.9905520090629754
0.9957236798963015
0.9967920290784379
1.0002522790099433
0.9881278862881601
0.9921468325578321
0.984838325722317
0.9832009840149198
0.9879836506944502
0.9879728993229073
0.993682322612194
0.9939019719332022
0.997607138232657
0.9873532585609909
0.9876352422281989
0.9863587025006856
0.9965787543936259
0.9845158352133271
0.9826921195807717
0.9929805598112639
0.9881064098967552
0.9880901473259762
0.9925014481344301
0.9919188139687773
0.9923874624087754
0.991740038712274
0.9943790663818306
0.9943494851452517
0.9884599938982188
0.9841736426887041
0.9827540572706862
0.9981132751387811
0.9981430499325116
0.9848942375755456
0.9834269857504944
0.9976033885952216
0.9949948711066248
0.9861639710804905
0.9881098999301261
0.9948517434329763
0.9945974605822696
0.9941494113261131
0.9943293655490217
0.9939543178058027
0.9941958280600647
0.9939149826921438
0.994269325806276
0.9940628807071059
0.9944066308930462
0.99455411689408
0.9946854786568583
0.9947525214222561
0.995075248874547
0.9951123562662709
0.9954072265500786
0.9942897781494909
0.9954827206976569
0.9955922844266201
0.9955376413812314
0.9954815539150796
0.9878636192722396
0.9881405843046684
0.988070870397259
0.988097244606747
0.9956471145909326
0.9953133102556674
0.9951607435709834
0.9948717495546924
0.9883634236542816
0.9885697738736673
0.9922930647999437
0.9917101506235421
0.9923235693453447
0.9984782389908367
0.9979427609662653
0.9951184849735221
0.9819713763294642
0.9959423561163833
0.9947867994777866
0.9944754693449183
0.9947523480643768
0.9946609098990696
0.9959411422187288
0.9917373279105314
0.991235018591148
0.9854930001152938
0.9878091777178558
0.9878213142593519
0.9925353873140139
0.9945628692541001
0.9948268497577317
0.994979373966465
0.9951114072186302
0.9952317772774439
0.9953697217990337
0.9953444357111342
0.9955727351251755
0.9890308521386025
0.9888967346463252
0.9889099459528506
0.9954056592914351
0.9985904593604612
0.9980405002097825
0.9955304086338334
0.9956637776197232
0.989847827447597
0.9873244180025761
0.987372115589129
0.9808608437729117
0.9881788319261597
0.9956623248404961
0.9929263555308013
0.9855200769067908
0.9986177257413298
0.9979165252264703
0.9966042447442832
0.9881569190643976
0.9990704152640068
0.9888223570316406
0.9870185355902252
0.9917851820811573
0.9926064117586196
0.9955261212334483
0.9866559507189595
0.9867511911658912
0.989364619924849
0.9893271869054674
0.9877842298866916
0.9958011968638217
0.9955254106552415
0.9874584603299036
0.9868772132215045
0.9960463231377874
0.9958175082958461
0.9861232096446274
0.9863230708734765
0.9936369015738228
0.996749786904019
0.9932997085720261
0.9975239562927991
0.9961242767657403
0.9959842429489206
0.9954462711961805
0.9957440357708032
0.9960306208993394
0.9955754175617081
0.9959373005980448
0.9898510700756437
0.9898049459548688
0.9969903520875356
0.9966397531522181
0.9858054933935314
0.9859692880402823
0.991842779303519
0.9927798935842143
0.9866481340871835
0.986248061476449
0.9858307255473124
0.9860432757386063
0.9966788147148514
0.9969434853887627
0.9939220118417178
0.9952078787550799
0.9931937343121232
0.9957612661376495
0.9976381765960387
0.9973146988910461
0.9888347477436984
0.9957486763159525
0.9949533443747586
0.9866460819441528
0.986436099395413
0.9861941980549362
0.9866116853390744
0.987042581567301
0.9871636628205062
0.9877885809758458
0.9878906828568491
0.9886181836180139
0.9887997698776253
0.9894895502062263
0.9882626572813221
0.9892336928959359
0.9902267658747169
0.9902670052502552
0.9886122825936241
0.9893395752503128
0.9910121599118733
0.9854368945949684
0.9956906480068123
0.9959609857820139
0.9886207957311642
0.9959636460886092
0.9961508679951814
0.9960790904358156
0.9962223630632137
0.9965071156164655
0.996007244275151
0.9972103385671575
0.9937481414933945
0.9939985274589626
0.9954144053767915
0.9947118518354637
0.9943505442520605
0.986476820128538
0.9927667212503242
0.9938823780474753
0.9868138604892441
0.9980849507833952
0.9977642575580284
0.9969374502805743
0.9972951479013223
0.9948806225875564
0.9953334827057202
0.9927099469633938
0.9982626797712879
0.9926844421664328
0.9980579884761314
0.9976555880731983
0.9968982120206732
0.9972457370363191
0.9966334510801785
0.9970477291715589
0.9976785979569563
0.9976851007327495
0.9893525219071597
0.9898746464661253
0.9901115450505424
0.99644870848221
0.9966119698209855
0.9935461089713012
0.9925882233725334
0.9961589929535958
0.9945065611488734
0.9933164444975305
0.9894935364022897
0.9952998945660458
0.9949381319678199
0.98865400382197
0.9893948392698249
0.9930465084124435
0.9977016298807482
0.9837297234096913
0.995048234726056
0.9983457299533739
0.9980030825010745
0.98610770894832
0.9865273141025792
0.9943156811361783
0.989293404052183
0.9908110696231975
0.9909155193593734
0.9863235692619609
0.9984018625888125
0.9957995039213674
0.9953051580960275
0.9883836082184001
0.9898596801569891
0.9903831864649604
0.9858698504017569
0.9963580644037142
0.9964014855341731
0.9951552090991143
0.9865779762347705
0.9868910597554841
0.9878533378347245
0.9879592180628513
0.9875167991719415
0.9881142105347259
0.9887305254960073
0.9886147224624612
0.9890064804432214
0.9886771341201437
0.9888880648391808
0.9885393113702932
0.9886815917379336
0.9883401877458594
0.9889587081749336
0.9884210516120628
0.988128605305695
0.9876518536652241
0.9875349731592195
0.9859904506566795
0.986314815491542
0.9882430933859471
0.9877832795546341
0.9884454351353096
0.9951119739610267
0.9958225360282342
0.9958522284811738
0.996695406701448
0.9967414921091966
0.9976694486749421
0.9974762776498338
0.9982853219162603
0.9978742677057012
0.9349564722823518
0.99767334359212
0.9967627582626762
0.9912960294330027
0.9938728027755653
0.9941852267594429
0.9936764531149729
0.9940483346110185
0.9934405242189303
0.9938642610990414
0.9945977240483163
0.9944894831012224
0.9953350124584989
0.9952543723962662
0.9959072761618278
0.9943374459452581
0.9931456642411934
0.9928582358150743
0.9959276583917448
0.9962703718869531
0.9866197373084912
0.9904245229946741
0.9812978203090793
0.995584429490291
0.9939019976887518
0.9939508113006085
0.9966980029803736
0.995753281382222
0.9962438123488583
0.9946678794006427
0.9946697878571703
0.9926821878428373
0.9952625142125264
0.992845007889214
0.9901374633609275
0.997211471379327
0.9985608527405083
0.9980971999224502
0.9911933068182779
0.9859536784281018
0.9880438439540132
0.9841259346567508
0.9825190047624179
0.983086018691163
0.9836207257934885
0.9843734244247404
0.9869815016120167
0.9900213120026036
0.9923941689475082
0.9931484672662144
0.9870345649069271
0.9881317305661598
0.9878981664227601
0.9883514965274109
0.9973694560999057
0.9973185987354929
0.99865981387613
0.9878128604317887
0.9955210908897896
0.9950941724448141
0.9943244428263461
0.9962833212368888
0.9928282133648608
0.9973668701588325
0.9973817856525556
0.9981450023341332
0.997927050939727
0.9891495918176153
0.9868478279661587
0.9958217158820417
0.9892374002951746
0.9960355359379647
0.9869331848391597
0.9866969829174488
0.9987480053318971
0.9863534032572846
0.9958718609792059
0.995710712674802
0.9927501635422195
0.9900644739044991
0.9938221565025247
0.993348613489874
0.99023703385332
0.9906758395946028
0.9908269972637466
0.9945960669245119
0.9964951925477006
0.9892265397243593
0.9912111074636397
0.9879829724906348
0.9874447625848991
0.9920509964148346
0.9912831708087689
0.9945008305714437
0.9936451465494077
0.9937496597914733
0.9911651414241627
0.992970357816521
0.9972613754976666
0.9847331505500583
0.9853800503876656
0.9866030964551133
0.986374103469273
0.9973142130817532
0.9979699942596951
0.9986728561267597
0.9985199557323196
0.9961790871244918
0.9961779611988032
0.9976127243589615
0.9971638883282036
0.9924638629287621
0.9923924798657565
0.9976974479337664
0.9877838436721736
0.9873055929548781
0.9982959680409184
0.9989409868018244
0.9992561280799166
0.9996211443145979
0.9982733791558978
0.9897741575109903
0.9892971438406111
0.9901365481827867
0.9915450164808222
0.9916590363845873
0.9908089703265602
0.9915511136635935
0.9906883890082
0.9914449280533872
0.9904746017033135
0.9985158182338674
0.9859429326948399
0.9958893300754619
0.9982853797244449
0.9987843466510378
0.9983010626142461
0.9986327053135543
0.9913998270117539
0.9992096270625463
0.992176624426141
0.9862598430020655
0.9921404498230325
0.990591233540295
0.9958704659861365
0.9958728219094375
0.998681601708456
0.9983432831501915
0.9878475519125788
0.9871725351768499
0.9867861901087778
0.9871892587809703
0.986368587189437
0.9969539879121301
0.9949587614036205
0.9958700520965555
0.9945385880964398
0.9939737035541212
0.9964958329600817
0.9958343598652407
0.9961037705115532
0.9925044344878642
0.9925940352263349
0.9873069752719681
0.9871562445114388
0.9911815449881651
0.9902964367312166
0.9894784595489167
0.9892799205039107
0.9901919129891902
0.9889869729337063
0.9900274023217409
0.9889434228868722
0.9903149294183234
0.9906260076017229
0.995849783027273
0.9911451533015987
0.9871034638863033
0.9901371188651557
0.9946706676943805
0.9969175017922689
0.9961353629955301
0.9895277365407135
0.9874871756666476
0.9877548965981565
0.9885774826771528
0.9991280538479897
0.994640458181778
0.9992087576928816
0.9938832968285618
0.9927146050286605
0.9923873485376902
0.9927235490899909
0.9910074885172739
0.9923835763293821
0.9913794046665686
0.9976433608187105
0.997441712543594
0.9972257060670195
0.9973888895182105
0.9958328684377686
0.9962577022998053
0.987636662960501
0.9877045301413148
0.9915807002641015
0.9926146988397895
0.9869331449083295
0.9885372723256519
0.9879809784013316
0.9945638830020421
0.9992005752490235
0.9911969206190591
0.986890339432663
0.9977014557636985
0.9975997914358983
0.9960212335995657
0.9960725306559525
0.9962057339030257
0.9957365162436385
0.990248060095763
0.990857660076824
0.9970498304607041
0.9956296733714047
0.9986583776479353
0.9875303426084332
0.9876313693003783
0.9869811005146183
0.9985052248934129
0.9879035396533872
0.987984774106801
0.9881528498737973
0.9882313683102713
0.9882270364420576
0.9881872906759404
0.9988213860040212
0.9983690274646748
0.9934273506092008
0.9988137063425818
0.9953409508188441
0.9953537554022074
0.9875676667027844
0.9920268448035297
0.991775482518176
0.9927803470836915
0.9898070773458109
0.9884607756977415
0.9876096216368417
0.9868782727423786
0.9879118178065122
0.9875880968498898
0.9896232945639516
0.99495930040292
0.9955859948051804
0.9896220414691116
0.9981025261599483
0.9938692648850705
0.9894974003009264
0.982048766302343
0.992422667639074
0.9888475692925209
0.9958780934249657
0.9956675222256438
0.989878174021785
0.9878915790215193
0.9881699184036664
0.9880136368128245
0.9872375969846888
0.991469400849685
0.9917206748568527
0.9982021737851836
0.9979347188099625
0.9970113315696207
0.9979673104191997
0.9975760652126227
0.9995723830665754
0.9884486912233021
0.9884549129498017
0.9959558903924477
0.985873298149917
0.9855694243970716
0.9861736528522838
0.9862487349751043
0.9902403701444279
0.994864348716653
0.9960871821323786
0.995912578362442
0.9967464124610766
0.9963142450843049
0.9970363696340956
0.9960745980921352
0.9919995143360135
0.9919934096901792
0.9882720557650408
0.9885750789947445
0.9879742836409016
0.9881608375742554
0.9875964352461443
0.9880941575776193
0.9897538077077582
0.9986758332075669
0.9979070779348943
0.9988860679735199
0.9983591936736944
0.9983808627396487
0.98875723463411
0.9911080385175677
0.9989796520748009
0.9940995355349469
0.9961770817594234
0.9954170808198005
0.996124710540522
0.9953630958803247
0.9959696588281302
0.995269003288258
0.9958153570749484
0.9951034925600994
0.9956561209831192
0.9950430448946388
0.9962947448470961
0.9959270140218635
0.9991709972526108
0.9876031324413628
0.9892675127363296
0.9874782275080743
0.9958090074941521
0.9920628769971304
0.9968271022166122
0.9948099961260725
0.9923552506376527
0.9910442662344644
0.992537516040309
0.986760641106368
0.9941530591300396
0.9967134294795604
0.992781423480373
0.992249492455508
0.9865396132811853
0.9909156774993809
0.9924844867979717
0.9922179117475398
0.9915666741511292
0.9964611247211504
0.9966742662050231
0.9964812286823794
0.9966896188301986
0.9958928070123911
0.994059090566
0.9898026392169988
0.9962806184458746
0.9963814608094321
0.991549921402749
0.9898342009680849
0.9942374233816181
0.9984408824241876
0.999137523756964
0.9992775506001145
0.9997632895963947
0.9998097525469615
0.9995388275528383
0.9988658183959803
0.9976200719611553
0.9857638062235774
0.9958599557518744
0.98791437646775
0.9803537414202648
0.9753037452669406
0.999471234512159
0.9998837985769046
0.9995809178250005
0.9956507065817813
0.9951411497533511
0.9956683660977503
0.9958998454458584
0.9874190618773916
0.9953124060740713
0.9967110670540682
0.9985240928622304
0.9991742477348484
0.9997001078010983
0.9992195582440919
0.9899591147405841
0.9844831497614739
0.9862359268133924
0.9874377392279589
0.9879684335011313
0.9967537543749565
0.987301452244454
0.9871245337879596
0.9861488355816527
0.9921207878741513
0.9917523622390458
0.9982847211603492
0.9991432876355831
0.9959448952598067
0.987494792674143
0.9870929759836913
0.9969391845602511
0.9987294775520889
0.9947656311297628
0.9938561439140041
0.996746722146258
0.9963112399503997
0.9966448725055694
0.9844725007874828
0.9901524542484368
0.9941749304193201
0.9985548629771703
0.9893599373390608
0.9934181912622762
0.9960331251233139
0.9955294573874833
0.9982686892332402
0.9881193252014099
0.9864872537501828
0.9895949003965993
0.9877659327295165
0.9959053425546296
0.9907011603020368
0.9949542988526408
0.9950732551428535
0.9998339133803537
0.9997089263839026
0.9957942170889702
0.9952855256281758
0.9873284523032044
0.9964671451930647
0.9953593196989374
0.9872240453257372
0.9872373897895276
0.9886682050876379
0.987856811574641
0.9873808688622451
0.9917549092570589
0.9929957292224024
0.999726956385992
0.9892702641134212
0.9880099399867864
0.9883134231143471
0.9987993946763544
0.9952749564552728
0.9961231946665569
0.9864370362700619
0.9907069475114068
0.985775080383923
0.990053902640263
0.9899889818196783
0.991069527933782
0.9906857749437171
0.9903038625818771
0.9899495682416212
0.99035390419924
0.9925892723328767
0.9967694812275265
0.9925607926125554
0.993186616255201
0.9987566325580521
0.9924452754971212
0.9911609438531701
0.9900239284209823
0.9897844196150766
0.9901215090758819
0.9891748005709161
0.9891667449599757
0.9880900748182094
0.9881153364966386
0.988224605993824
0.9880979129333156
0.9879153547553579
0.9878066496905041
0.9876712463350122
0.9891567866167915
0.9875575615180169
0.9873622843221813
0.9911146224466578
0.98824058281181
0.9874884139078874
0.9881808433730364
0.9980284704215499
0.9973272372385995
0.999069796227046
0.9992403115681626
0.9902401335170343
0.9929572296339272
0.9919476994419784
0.9914907921623816
0.9881763030530785
0.9854740361507691
0.9761543840697285
0.9757463516861985
0.9673422919501983
0.971515511857779
0.9671191767405398
0.9718042186196894
0.9694615312461303
0.9730296321164978
0.972073727877947
0.974572060881007
0.9743712901457059
0.9759472286707899
0.9762597175871067
0.9776919806675491
0.9782489857982051
0.9793209672467168
0.9800296011327371
0.9807919464545725
0.9816091577791946
0.9822709040982157
0.9813455293368584
0.9827076103763361
0.9833802945034987
0.9774282875784928
0.9810768434309698
0.9773914518688992
0.9766586789592074
0.972041705566165
0.981845213197659
0.9829489783181133
0.983928789823413
0.9839939477237515
0.9756022033115571
0.9651995406071908
0.9805988642536909
0.9629294271290764
0.9850728001373338
0.9850005639396006
0.9838391938165343
0.9811156440785271
0.9800768989938378
0.9849675031778639
0.9861270809612679
0.985987530325942
0.9883372620176815
0.9855298297780954
0.9847490318771682
0.984138095094371
0.9833775273145134
0.984157014188106
0.9987621846748316
0.9986784104664339
0.9957952582909307
0.9963649759988997
0.9967461445753669
0.9895074816146383
0.992148933354252
0.988517088072452
0.9959448209542386
0.9860106885408726
0.9874553727570097
0.9866696446698395
0.9864065064510695
0.9950691900089691
0.9944555397041449
0.9930645733249394
0.9931477176761727
0.9987105561587413
0.9983669741349894
0.9981996601774437
0.9979639138312582
0.9989214408112375
0.9943255399591564
0.9944379502489041
0.9951642411376952
0.9915861619142736
0.9924261510604945
0.991993938508005
0.9930577593484881
0.9926747086468596
0.9938529479142338
0.9936319660071168
0.9948466359827456
0.9949820976987439
0.9956632696636385
0.9962467355654995
0.9963560074533119
0.9964507036114816
0.9963840074399436
0.9903460347590242
0.9886051253857928
0.9889859259103077
0.9887384310638023
0.9890502691093034
0.9960879737856151
0.9954381887560546
0.9961310311084031
0.9931941969353332
0.995927919872987
0.9959769271617387
0.9834634838953916
0.9939947816339566
0.990509414487256
0.9908709312487379
0.9925332100190633
0.9922219053209618
0.9917593792216916
0.9919443343924419
0.9913447430561859
0.9916811689959324
0.9920887705552979
0.9957286001489929
0.9877182942124331
0.987825388070126
0.9869759419978344
0.997256436206282
0.9980172178172482
0.9971268113057382
0.997456067064786
0.9978049721710534
0.991377815279775
0.993462684248934
0.9881214738821028
0.9905646766752262
0.9896239269523829
0.9883254363099745
0.9742626029048922
0.9716271731632198
0.9962859014698231
0.997122749773309
0.9878114459774088
0.9945712946676714
0.9959222554911897
0.9997308782033035
0.9998697934560048
0.9998259209666168
0.9879257357859765
0.9882240173234199
0.9892404143563274
0.9882938699360343
0.9887449137944272
0.9885622858526191
0.9886660987679348
0.9963066290939214
0.9889903263813885
0.9892621464422452
0.9895515509787914
0.9898076793778849
0.9891165524102244
0.9854096453713269
0.9849055230151664
0.9998674200379416
0.9914828341015829
0.9998207697688752
0.9997550937178148
0.9997092853768662
0.9995625443360989
0.9995552139866903
0.9995177268579677
0.9992515948878298
0.9986634620654796
0.9985294880858974
0.9987011937671735
0.9856420838333056
0.9919288829382231
0.9914667284585743
0.9919568125709276
0.9872401133458114
0.9884048154546653
0.9857737464597348
0.9933201731976761
0.9964055502948221
0.9963354797868017
0.9877214141818375
0.9873913121035824
0.999417232860804
0.987309388505663
0.9870701579169189
0.99623441853122
0.9981904589094275
0.9715808761918898
0.965874636755913
0.9813277349863194
0.9929157354355865
0.9987535112756257
0.9979314631996
0.9903925346440973
0.9977265404109207
0.9876284777448979
0.9868106202870282
0.9873890739071013
0.9964508416058185
0.9878342156253791
0.9890078765729017
0.9958925308144769
0.9993932998034792
0.9998300269017721
0.9910965484680571
0.9985042171108386
0.9990951427305524
0.995223371431271
0.9963894334807468
0.9960230254096576
0.9968211706806512
0.9962075159406861
0.9795940166883276
0.9793199517136637
0.9890688730140919
0.9927567058664382
0.9915837254247729
0.9905020981644922
0.9999142826865363
0.9999569569965933
0.9895490368027416
0.9896425226050296
0.9850173705912176
0.9876950467218409
0.9879404604110174
0.9969870395216348
0.9929995546126026
0.9948535665158056
0.9959059678833355
0.9992800980075234
0.9994757494399866
0.987228066767453
0.9870654055865338
0.9972365232293532
0.9995137210518249
0.9946766509762214
0.9934153542329748
0.9898729780434491
0.9998815488325496
0.9914587356687177
0.9812576298282982
0.9820620014512889
0.9873413087163175
0.9936154478445967
0.9868865261877048
0.9858846713468831
0.9869547638694208
0.9860858714622379
0.987095710630079
0.9863151317828827
0.9851840141579784
0.9852796599267578
0.983846652891687
0.9842856800007708
0.9881847367993097
0.9920412307003471
0.9945489050121292
0.9910430538214655
0.9774572746709964
0.9496015871633112
0.9471713335912378
0.9766609064388341
0.961113437670057
0.9547597961754603
0.9517619380856531
0.9506663763221446
0.9910255061392272
0.9906621571956779
0.9873932508027231
0.9904528295376839
0.9916468972833029
0.9999330569349975
0.9998976821540307
0.9865808241145605
0.986950795735939
0.9866113663309635
0.9826383749618409
0.9315267899539461
0.9867898347398764
0.9856121393348727
0.9830163148045238
0.9848555404878672
0.9816367752153774
0.9889701078123352
0.9910108792495638
0.9806416569728091
0.994187161438052
0.9971631087541032
0.9981172676037969
0.9939757920690805
0.9854141849255856
0.9882342467072563
0.9900295953732615
0.9916632407774452
0.9997938853650108
0.9998466038592657
0.9885890488838989
0.9981925129878161
0.9984906394461477
0.998942713550394
0.997760148511115
0.985571189571261
0.9859539098287623
0.985683964782325
0.9856466765584871
0.996287024012011
0.9962390848028945
0.9987598355198466
0.9849211291703539
0.9921645460259267
0.9686667302399375
0.9694995654571003
0.9729482222424969
0.974026021851975
0.9768096183937806
0.970470365132284
0.9762526754865878
0.9792629290096467
0.978550876866854
0.9869679951964984
0.9784594246711089
0.9844281201208187
0.9872083173445526
0.9968351284555845
0.9965204790115547
0.9647533857498708
0.9657731221647035
0.9960937831173857
0.9992386542609795
0.9995622926542796
0.9997411672693135
0.9996385849678533
0.9996892698322994
0.9995416665102698
0.9891542595781904
0.9892507793444213
0.9889823936512591
0.989358106184294
0.9891109703373029
0.9896101649829495
0.9894408172955595
0.989831523756601
0.9901929660841431
0.988988040420286
0.9903740396515367
0.9894861983323603
0.9900851600352981
0.9904057445831679
0.9901543337324252
0.9894858206673168
0.9891133014872763
0.9887328533251767
0.988749201789122
0.9979104341716266
0.9857420461362227
0.9909267477665471
0.9900758802790434
0.9895429334925886
0.9990155185218799
0.9959923877390474
0.9972172030382146
0.996975403216422
0.997251263145533
0.9966870464124529
0.9964877501107947
0.9964545908408468
0.996292508016369
0.9960406441155082
0.9901223974417611
0.9951655403594828
0.9882025370355085
0.9886390420133743
0.9920656323818496
0.9916788966617291
0.9932788091787447
0.9936120227374539
0.9894163398789166
0.9887670354572201
0.9885000591198242
0.9880315146750307
0.9873718237905972
0.9793769480623915
0.9912677224892635
0.9882718746371297
0.9889122703458691
0.9605202465601533
0.9832861454342606
0.9990011362294065
0.996433512646362
0.9805344637034947
0.9900545421751469
0.9906730970393439
0.9998418170001302
0.9845556358744846
0.9855670982719203
0.9852684811564553
0.9858337736430687
0.9862483483738775
0.9859649441103616
0.9870745515347795
0.9866975410605853
0.9920002167830244
0.9856413172410475
0.9852809196648281
0.9849560796937916
0.9857863211292789
0.99812003350876
0.9999613108301165
0.9917811260835658
0.9867848636188271
0.9895205834617402
0.9888833200506387
0.9806880185054972
0.978305521186247
0.9785047375731862
0.9788385798432878
0.9773334923791119
0.9766282178173206
0.9764884532075347
0.979461011693951
0.985823461065771
0.9811139114925506
0.9997676846317319
0.9845427828377985
0.9967138169694546
0.9881188096208772
0.9971733302195269
0.9908440781082438
0.9900913814583531
0.9879266855315948
0.9930469913193819
0.9935499901547791
0.9923086534180987
0.9909481569223294
0.9915062156194702
0.9884341245125133
0.998517968226633
0.9963680058916532
0.9997427642731757
0.9881487984687086
0.9968728474047538
0.9948540278754375
0.9974923513114802
0.9963364507998949
0.987342228290523
0.9876125392540063
0.997877385979344
0.9874628197842965
0.987065366085973
0.9873293431296802
0.9871947752479082
0.9961410193779271
0.9941316249807745
0.9836698215388788
0.9847616315969752
0.9947754836750501
0.9953889413735683
0.9822504398379492
0.9918284095201715
0.9873745868983536
0.9930172031312363
0.9927135775295592
0.9963533457790367
0.9893981077747035
0.9787596947657214
0.9956577844345423
0.9844207028898735
0.9977477498737837
0.9899410561854027
0.9878747977658149
0.9872310214007176
0.9877834443088946
0.9880222248389352
0.9919166120658014
0.992291577746543
0.9922084973145544
0.9877445680261585
0.9879814151849192
0.9861121617235225
0.9992943220783198
0.999230883918057
0.998962020944975
0.9990828508121046
0.9982109605486658
0.9989421892501369
0.9985769624504055
0.9939870811170977
0.989711950486476
0.9892736056542676
0.9900270009779957
0.9954454356549423
0.9944419123556301
0.9957504565059884
0.9926147740216943
0.9894336997277402
0.9896765148254776
0.9897346579886248
0.9892178331460522
0.9879115590571922
0.989225482794428
0.989954537033562
0.9847413381380842
0.9849981087122116
0.9871840201040474
0.9877368860069593
0.9875292491042302
0.9873914229403369
0.9871167534775743
0.9768847696965516
0.9655429188829221
0.9992346073782188
0.9993400688941824
0.9993393966726111
0.9993780413812071
0.9873817860516797
0.9949228294604713
0.9807672650698749
0.974877102635754
0.987002681204786
0.9893633614328107
0.9899366174109104
0.9871808259334052
0.9868977408221578
0.9802852173054041
0.9877288582705384
0.9960148538304917
0.9989898826606898
0.988677911541244
0.9900721890160619
0.9876025799772779
0.9979756501254994
0.9949654273723361
0.9954694017164193
0.9945819365330434
0.9864612163240719
0.9859083288088378
0.9860791772643744
0.9860232186573563
0.9868558969437128
0.9864501564757272
0.9868788540614107
0.9994171434386637
0.9964486269202151
0.9962606249850043
0.9967147114986885
0.9963329865534413
0.9970541963349682
0.9968899961366027
0.9977242185679656
0.9918305113400502
0.9831605372232163
0.999545920562624
0.9990557923732954
0.9944451375445696
0.9980169554441245
0.9988889067524369
0.9968497774441798
0.9945676224484796
0.9943878668367339
0.9861782626628485
0.9858465502973018
0.9912041357810777
0.998652673460458
0.9896076779939762
0.9907153603808074
0.9910930055974291
0.9903361929681609
0.9897766012109163
0.9913932151300842
0.9909632423065263
0.9903897050872409
0.9954921440705796
0.9877311240930061
0.9907232684388128
0.997266688984265
0.9963638424329355
0.9881305119632124
0.9858793740675004
0.9860623057502693
0.9890121274583281
0.9871892259353288
0.986700510971914
0.9867635162102114
0.9985880573094502
0.9985785739274101
0.9973218986656016
0.9989000849738556
0.9988994992421245
0.9861597233047963
0.9964095178445592
0.9859822611065127
0.9982374866139799
0.9927351891339602
0.9878157906304511
0.9951338601416592
0.989789316660454
0.99423843748248
0.9949301077718604
0.9907555727950251
0.9950218332865848
0.995468584174625
0.9952613174988987
0.9952022064297793
0.9908437406581875
0.9945189551669786
0.9871971457033533
0.9956562847270214
0.9957097943484586
0.9869177797134223
0.9886398806259349
0.9991362193298521
0.997500991639246
0.9955091015323849
0.9957285003039162
0.9962332776543263
0.9958315653803519
0.9964583293486684
0.9965299236523484
0.9969171695846627
0.9934032562781445
0.993513011144724
0.9958374222543088
0.9886178622154735
0.9989309262464121
0.994766438475376
0.9954874118628194
0.9997224092920396
0.9927934608482241
0.986239402551238
0.99561155578132
0.9880266394479633
0.9604190076153497
0.9984166291017322
0.9929320757831072
0.988151205047949
0.9893386092180676
0.986895784310318
0.9875611416912806
0.985903803194066
0.9911724142059367
0.997122601824702
0.9933794377970252
0.9927696446696626
0.9944886509390397
0.9919545587539264
0.9887741771117861
0.9956385823389076
0.9990328825207393
0.9881098271783166
0.9961476322470124
0.9963408144305733
0.9964108631489282
0.9989503486125966
0.9947545855222826
0.9873437426720085
0.9926303262677003
0.9907443582292632
0.9957470085144765
0.9873155212343935
0.9962515800067404
0.9881639638235606
0.9948599041112526
0.9946534537311181
0.9958388238364776
0.9982802354759535
0.9870122819247614
0.9747094226182733
0.9911213838670623
0.9946717995259667
0.9911313216367775
0.9920795383139193
0.9957800527472094
0.9927152308458906
0.9954532442033276
0.9955462235226278
0.9863673100182415
0.999237412023394
0.9860522617820539
0.9940698986373331
0.9963760837505298
0.995331504206869
0.9955876775176028
0.9950886401881934
0.9945287656544547
0.9936343204022341
0.9994423662211288
0.9997740172302759
0.9954139171045439
0.9951675682857732
0.9996399820880464
0.9995080362580698
0.9886356548027114
0.9883068751839028
0.9995819386096914
0.991967849071693
0.9905996704303854
0.9882968231379946
0.9959044324442374
0.9957188564862965
0.9915197610249515
0.9959467900768614
0.9974939261259665
0.987350280449174
0.9877416381820864
0.9930315552991217
0.987941837427608
0.9747291872079659
0.9941311758100906
0.9955007249302632
0.9897863965374643
0.9894062525922306
0.9957934243424835
0.9922615086286772
0.9957581470629248
0.992757149614418
0.9981128752966653
0.9779553275242372
0.9494123918995349
0.985161472812052
0.9936616614347179
0.9947827524036326
0.9863459523984894
0.9538833977702628
0.99782709613214
0.9957847061932317
0.9890305468430493
0.9958670614975093
0.9931572005864288
0.9963784866696617
0.9961585992373767
0.9965544543066924
0.9870518771505794
0.989675255891877
0.9992575765878959
0.9998195992893074
0.9965845318300547
0.9932456453464744
0.9975032252526091
0.9953630387391686
0.9919630500941263
0.9871617591968802
0.9880671002152527
0.9912585613194813
0.9903716420939326
0.9960622072349765
0.9878532518910096
0.9908305144556088
0.9964675657097679
0.9977095974874866
0.9974240347598229
0.9971694749328041
0.9951751960582711
0.9964970282856442
0.9987926717456103
0.9907583343768605
0.968748141125343
0.9956399211853014
0.9993981920419934
0.9989959998572692
0.9876091555941878
0.9849417112721808
0.9822031975647989
0.9790029207237572
0.9956812688318859
0.9856374162005774
0.9871285225766057
0.9945567248021627
0.9851720078139085
0.9867766815115319
0.9869366095011134
0.9955343935046455
0.9952732708324864
0.9978791003709782
0.9862476721743251
0.9999158523060753
0.9999061378658726
0.98625384176786
0.995651818374046
0.9950367604423209
0.9937549837919842
0.9867270246917796
0.9962861566039903
0.9959112025858062
0.9965319092101468
0.9949375840015089
0.9963142104292957
0.9890282857508216
0.9877991496558333
0.9880870846888364
0.9920020234803577
0.9880789273903553
0.9869071459602263
0.9910466866130704
0.9994322336030589
0.9869715785718488
0.9868276100373164
0.9946608224682353
0.9972428122262704
0.9961569741026596
0.9962919795995084
0.9906838356810169
0.9990792435674977
0.9988917186373446
0.9875597684302395
0.9886304129162328
0.9982033627384745
0.9987363987025798
0.9994123519818969
0.9882030671390637
0.9998723929346922
0.9862898084132489
0.9980007625067873
0.9893348908119746
0.9987394978917757
0.9896283065237945
0.9875352575588254
0.9870940755878594
0.9938192077554184
0.995134463494777
0.9923540176374247
0.999014552692809
0.9957767078613727
0.9969080361271223
0.9964249808204446
0.9972028712454571
0.9822643073157338
0.9886031420808746
0.9871289442935267
0.9990494108622843
0.9940291203991083
0.9918259937631915
0.9810308617198663
0.9885910054022036
0.9029184638545205
0.9952818807220785
0.9896854131178815
0.988013586059356
0.9857507843821411
0.9966360292475474
0.9970428425447387
0.9878066976335476
0.9871421452398185
0.9966627630106302
0.9830285633341537
0.9927279698509637
0.9913840088335875
0.9888721178935738
0.9972021777842947
0.9981131076192349
0.9950673772447549
0.9881765926019126
0.9882117504897572
0.9913370478471015
0.9918440019643697
0.9966299002986762
0.9959662751359128
0.9879943674689526
0.9871552629178535
0.9800495423656426
0.996995343626058
0.9952119434047355
0.9885748694487215
0.9918547586235772
0.9971474521566912
0.9933335700403486
0.9931252240530279
0.9952130146753101
0.9935506084377145
0.9930223399647325
0.9906805630797302
0.9959691326949263
0.993313112723761
0.9762548441662784
0.9900940268021031
0.9885886468840311
0.9961996505245121
0.9871877529422968
0.99626116101527
0.9938033355190384
0.9860995376603022
0.9900201347752159
0.9933106615814786
0.9821266497194384
0.9941802998099469
0.995798753036442
0.995277479795541
0.9880511856086621
0.9868334869775355
0.9750371043213897
0.992965588090449
0.9968154779624966
0.9883124381379221
0.9958292214475952
0.9872453942829109
0.9967080004839691
0.9824711565583356
0.9921672867293286
0.9869613836821343
0.9929392779158601
0.9916341572598412
0.9959136197913451
0.9976202278433889
0.9863912161613322
0.9861854724717212
0.9892351069218868
0.9889471757967877
0.996494962919659
0.9956447931442153
0.9911356950254043
0.9889924567592109
0.9992210364668561
0.9952332063858401
0.9871478400346375
0.9996305215863387
0.9869821417762187
0.9950212662578717
0.9886028569171244
0.9917489071063944
0.9930083515601712
0.9969688066668397
0.9933671080588409
0.9802969096106359
0.9843594885943915
0.9999140746405156
0.9997747543244279
0.9911344917234236
0.9953697749644654
0.9862003308000133
0.9937490581431926
0.9919775300558074
0.9922283728123201
0.9962433927263838
0.9962153920418332
0.9926513175796743
0.9906998326845237
0.9883265969667245
0.9986331344247793
0.9959114471744183
0.9874646579427477
0.9899320442508571
0.9911798794914685
0.9890683142270776
0.9841009173466713
0.9905880930592971
0.9559139734694032
0.9861636023846787
0.9888587979265301
0.9891653819822506
0.9970513595049104
0.9885897406856964
0.9997454847317961
0.9894605848572465
0.9893075262127753
0.9939144308793547
0.9914548309998281
0.9805347915172741
0.9821004832525354
0.9915249620678932
0.9951258648960709
0.9907962980872133
0.9992796039220684
0.9870867018520995
0.9897284063931134
0.9904353431605393
0.9985786732591617
0.9334097707309781
0.982549357482923
0.988139689307083
0.9884600902006551
0.9923010846308292
0.9994313761773428
0.9913239611659496
0.9958150407159869
0.9910867695596485
0.9950598749552111
0.9871695326767808
0.9922067239581172
0.9875451600957759
0.9882506398272889
0.998120927375402
0.9959658660202507
0.9892240173097377
0.9880490981208873
0.9849465567738267
0.9849034032217637
0.9909494301563361
0.994099071573492
0.9877507589507304
0.9933547774570838
0.992429259014552
0.9960764658338537
0.9992126007460754
0.9775094927592906
0.9946600569067123
0.9960061756577918
0.9836174428776356
0.9979599131921131
0.9910258722155355
0.9929896038231985
0.9958542063015848
0.9337657473201804
0.995578013758056
0.9999352487926453
0.9875978573854282
0.9995824784077842
0.9870643450217669
0.9983006279521638
0.993447136956035
0.9954857838681938
0.9880875870355997
0.9755807526854509
0.978848111165783
0.9957296450102728
0.9913586951287416
0.9835370059721519
0.9875196198159198
0.9864497135102369
0.988585742656454
0.9972357364016853
0.9984559287560067
0.9895130377957626
0.9971866335907852
0.9982814667962808
0.9879067745454373
0.9946090227424537
0.9957295696821004
0.9929964073479449
0.9900865316771371
0.9932626070523433
0.9868430317296149
0.9994048669223993
0.9981357532721363
0.9926638149464015
0.9875507798656407
0.9873824057938523
0.9970028282076754
0.993692141041043
0.9761760599171985
0.9891793665997143
0.99612282218432
0.9988631443713888
0.9961482840182782
0.9941965592990133
0.9993645958060402
0.993054605211285
0.9906157922597343
0.9921169540492
0.9800536729930741
0.985659209723644
0.990634898077935
0.9877887691119273
0.9876802615017463
0.9796245393044128
0.9602157012389254
0.9872137393124848
0.9827214103154218
0.9950251540487478
0.987379084264934
0.9801633741190138
0.9954298950544147
0.9898052007744006
0.9897666573968879
0.9955480346346016
0.9891934340438279
0.9856202197971367
0.9745481732497772
0.9921534665339049
0.999676856243988
0.9860455555653105
0.9899470554446417
0.997622459636219
0.9958329062780265
0.9996130108256477
0.9969958887399993
0.9985874684268102
0.9964150667450545
0.9913602668360888
0.9648738585888285
0.9922082936138898
0.9895166369996207
0.9902690862368538
0.9999177364717984
0.9886331781660345
0.9876511941230632
0.9872703350623553
0.9880035034110595
0.9962142056202865
0.9993974617640455
0.9999093795553062
0.9915695177283096
0.9849758406631843
0.9912586004357467
0.9965746529705377
0.9995354431110565
0.9871844475411725
0.9899081509055855
0.9882998460509037
0.9867253922844434
0.9911429837904724
0.9923722919427928
0.9871948100910315
0.988844363352293
0.9903117932197033
0.991615283792072
0.9964062080338878
0.9959989677660618
0.9915231657303211
0.9824470140342795
0.9957936050203765
0.996855832652806
0.9938294055027563
0.9891223345330318
0.9904190195113584
0.9659905142042254
0.9886822955561794
0.9944291046966043
0.9742782350876501
0.9957153026115844
0.9923302943576111
0.9974446652179034
0.9875833396468308
0.9962053330924063
0.9958987824029503
0.9940143694500064
0.9807424593171638
0.9961361901450867
0.9866767011032049
0.9967396547052454
0.9885974577017616
0.9954910947832293
0.9996809534127358
0.9878691513130371
0.9945253371700341
0.9971265727418266
0.9893114191146852
0.9973556920469889
0.9962519951474368
0.9895058199355788
0.9702832590450966
0.9997931459111629
0.9961276556294812
0.9659577176603017
0.9912607168571809
0.9991529423104605
0.9922832672845795
0.996604478885523
0.9911787263328965
0.9957661504528355
0.9870209928400184
0.9877698212188719
0.978673697733571
0.9971113731477522
0.9963561566512507
0.9941520443242229
0.9965884813139857
0.9962203107398623
0.9878811548120573
0.9995107020375803
0.9969261067562586
0.9902987076030056
0.9876349267996417
0.997596875571084
0.9987124904321762
0.9993851651062469
0.9624354868494008
0.9927177160357147
0.9783797850236425
0.9865834288828478
0.9947044303729357
0.9852506278011405
0.9897739057982071
0.9960303353626663
0.9986964069382791
0.9859950275825443
0.9855973008628303
0.9979364675622212
0.9879938064309313
0.9873661318920314
0.9847753172720676
0.9872523633580615
0.9967332370948881
0.9859321816523642
0.9937678471003004
0.963815163981443
0.9974475646748644
0.9889417570223513
0.9864584201540734
0.9866114406327195
0.9997434299810966
0.9915333513263221
0.9886683210873576
0.9903725569699817
0.9952887056772345
0.9914855294983056
0.9891599875631846
0.9915586426271263
0.9876340558685781
0.9888662963961361
0.9967044926930193
0.9990977201284849
0.9993583122218224
0.9869961983838054
0.9881751654195697
0.9917764428871599
0.9994374260772443
0.9997432660790473
0.9903862249420456
0.9870534519526014
0.9935085498786363
0.9879130517296656
0.98726317290573
0.9888861460403534
0.9975150406491152
0.9913158555025612
0.9865228343962683
0.9919795856976116
0.9981180815094389
0.9891466570983661
0.9961946269201748
0.9894834533976563
0.9987922673377656
0.9920366734212389
0.9854493552116023
0.988483785543625
0.9631241384581702
0.9932717602996315
0.9938427596683826
0.9701654313675634
0.8636621513035356
0.9886107521651928
0.9920211107424984
0.9830594564457515
0.9958838274574229
0.9878448523925824
0.9997101398010686
0.9889508779993111
0.9897280709857388
0.9854166317471709
0.9986942704830105
0.9882594232235754
0.9869502745928473
0.9906865036472138
0.9938367317352871
0.9796637957972023
0.9956885139299497
0.9870456962297315
0.9918666816593255
0.9909374848439656
0.9976601130345996
0.9999495726926261
0.9878914225028788
0.9869964565039802
0.9872842292985803
0.9870217607021577
0.9996221995091599
0.9957186663941934
0.9996487058368606
0.9947471914638945
0.9892148066331278
0.9888679497408559
0.9872302012555265
0.9928321675022846
0.9853588568527714
0.9888626567715894
0.9857786365865384
0.9869635053498338
0.9965704196618888
0.9867360782789595
0.989525207725428
0.9874946365748605
0.9883952054054875
0.9945727160446387
0.9895365965636144
0.9919928905448253
0.9887076399874867
0.9997642053575516
0.9957752637590062
0.9882127400642717
0.9831310137438587
0.9912199746472793
0.9976225292246446
0.9869369585523216
0.9874904795472615
0.999247565931192
0.9865187230745605
0.995594608349154
0.9826297130351637
0.9939929038763502
0.9994372205592608
0.9907573307178587
0.9998764890102149
0.9888761245275417
0.9994302434408949
0.9768879784996295
0.9886791427752066
0.9777420316667413
0.9948589000393495
0.996359833070057
0.9666354426098729
0.9974099709958358
0.9995755141840987
0.9999184179846001
0.9880734131983933
0.9977756900305895
0.9984161999449138
0.999231973634995
0.9890109528151638
0.9238426379408445
0.9883123012195683
0.9902838101814201
0.9995178378670372
0.9988420276756905
0.9863409680167631
0.9967586313945939
0.9998346499557781
0.9857489482374158
0.9920798844418162
0.9862094641159523
0.9766598952389277
0.998421289075565
0.9887525327115821
0.9961976055846761
CELL_DATA 4886
TENSORS stress float
135965.60722264327 1.5945390588717533e6 0.0
1.5945390588717533e6 -39497.52801498576 0.0
0.0 0.0 0.0

-3.4221652056738827e6 -256952.1884671321 0.0
-256952.1884671321 1.7441258084633704e6 0.0
0.0 0.0 0.0

-4.1112803713686923e6 3.811848325014784e6 0.0
3.811848325014784e6 3.0579063511260864e6 0.0
0.0 0.0 0.0

-1.8068881195699335e6 4.8831078045374965e6 0.0
4.8831078045374965e6 585635.0453917762 0.0
0.0 0.0 0.0

-2.964569487457444e6 3.805541734345104e6 0.0
3.805541734345104e6 1.1207549908776544e6 0.0
0.0 0.0 0.0

2.514686089667251e6 779758.3280527602 0.0
779758.3280527602 -2.2083743038478964e6 0.0
0.0 0.0 0.0

2.2397153706955146e6 6.235093776579785e6 0.0
6.235093776579785e6 1.4151445592269958e6 0.0
0.0 0.0 0.0

393445.3971532965 4.207877998171492e6 0.0
4.207877998171492e6 -1.8861546797565725e6 0.0
0.0 0.0 0.0

-409730.901373982 2.0189869114910632e6 0.0
2.0189869114910632e6 140546.92535534166 0.0
0.0 0.0 0.0

-321139.46611720015 5.918617520618429e6 0.0
5.918617520618429e6 -427610.78462931124 0.0
0.0 0.0 0.0

-1.3663683330772007e6 3.96482707540227e6 0.0
3.96482707540227e6 -10233.42919421842 0.0
0.0 0.0 0.0

-3.7054375386577398e6 5.058731117459034e6 0.0
5.058731117459034e6 1.6814116337136456e6 0.0
0.0 0.0 0.0

-323167.84757205483 3.4918210952358088e6 0.0
3.4918210952358088e6 -2.0604197470445714e6 0.0
0.0 0.0 0.0

3.9546893036145098e6 6.542869110745767e6 0.0
6.542869110745767e6 1.4169382249501497e6 0.0
0.0 0.0 0.0

-1.6740964807674205e6 4.0950066451411014e6 0.0
4.0950066451411014e6 -115397.45675288461 0.0
0.0 0.0 0.0

1.1732723399575918e6 3.9559211301399427e6 0.0
3.9559211301399427e6 -2.5051923946841015e6 0.0
0.0 0.0 0.0

-554009.0140379148 3.5828223043086315e6 0.0
3.5828223043086315e6 -1.6494493290001974e6 0.0
0.0 0.0 0.0

-613896.446961885 5.0750229610334495e6 0.0
5.0750229610334495e6 -1.855660426530979e6 0.0
0.0 0.0 0.0

173726.94885022484 492763.561579623 0.0
492763.561579623 -362703.2628407239 0.0
0.0 0.0 0.0

-1.7483279533719863e6 5.228235530936234e6 0.0
5.228235530936234e6 -32282.71453122492 0.0
0.0 0.0 0.0

-528269.0162804215 6.2305209533664305e6 0.0
6.2305209533664305e6 -1.7488319384782407e6 0.0
0.0 0.0 0.0

-3.6580070610516462e6 5.110601165565455e6 0.0
5.110601165565455e6 1.4454714947234646e6 0.0
0.0 0.0 0.0

275505.60414040595 2.654817252490779e6 0.0
2.654817252490779e6 -625354.5769633956 0.0
0.0 0.0 0.0

-2.0778626799025687e6 5.690026720427388e6 0.0
5.690026720427388e6 126553.93728905485 0.0
0.0 0.0 0.0

-583078.6048668069 3.5817354765794417e6 0.0
3.5817354765794417e6 -2.0002222650989895e6 0.0
0.0 0.0 0.0

-2.229263428762815e6 1.258152820955728e7 0.0
1.258152820955728e7 1.4594948101329603e6 0.0
0.0 0.0 0.0

658610.8982641388 4.480247812098681e6 0.0
4.480247812098681e6 2.0075909399704973e6 0.0
0.0 0.0 0.0

-1.2930009627919793e6 3.0041200416162563e6 0.0
3.0041200416162563e6 911145.7296908097 0.0
0.0 0.0 0.0

1.5215861198407337e6 4.1288849900335236e6 0.0
4.1288849900335236e6 -2.4560058594275326e6 0.0
0.0 0.0 0.0

240813.67724798684 749917.5301936916 0.0
749917.5301936916 -820002.358176036 0.0
0.0 0.0 0.0

91073.1343564823 2.7290023372528297e6 0.0
2.7290023372528297e6 -735101.1151595126 0.0
0.0 0.0 0.0

479106.7953541096 1.3770590371071561e6 0.0
1.3770590371071561e6 -1.456375796546961e6 0.0
0.0 0.0 0.0

-733139.6591313825 4.73772733373621e6 0.0
4.73772733373621e6 -828830.3598788774 0.0
0.0 0.0 0.0

-680920.4535224383 5.619447837155557e6 0.0
5.619447837155557e6 -419117.1574734956 0.0
0.0 0.0 0.0

-2.3494011854550946e6 3.6704768710633093e6 0.0
3.6704768710633093e6 855937.7517308568 0.0
0.0 0.0 0.0

220293.66076907486 2.688543762589799e6 0.0
2.688543762589799e6 -988164.6274465085 0.0
0.0 0.0 0.0

-812658.3315338326 2.3016268328558793e6 0.0
2.3016268328558793e6 -525036.4117992057 0.0
0.0 0.0 0.0

-2.354497929246583e6 3.6556726785633364e6 0.0
3.6556726785633364e6 889751.9278895016 0.0
0.0 0.0 0.0

-713433.2761655595 3.5149138093001465e6 0.0
3.5149138093001465e6 -1.9614504076114753e6 0.0
0.0 0.0 0.0

-3.0693316605094583e6 3.8057822755373707e6 0.0
3.8057822755373707e6 1.0859112072282315e6 0.0
0.0 0.0 0.0

-230177.44723645353 3.3796427486965414e6 0.0
3.3796427486965414e6 -2.058940200874614e6 0.0
0.0 0.0 0.0

-4.424039398428109e6 4.011745500229703e6 0.0
4.011745500229703e6 3.271788051391711e6 0.0
0.0 0.0 0.0

-3.0249703634066456e6 3.724698732262109e6 0.0
3.724698732262109e6 1.0678055535204108e6 0.0
0.0 0.0 0.0

-173756.90604114474 1.7831396036585206e6 0.0
1.7831396036585206e6 320223.7038793663 0.0
0.0 0.0 0.0

-428060.8709260448 6.073533917877877e6 0.0
6.073533917877877e6 -1.5825089570077986e6 0.0
0.0 0.0 0.0

-1.4983699555471241e6 3.3092542486025407e6 0.0
3.3092542486025407e6 1.6839679375912424e6 0.0
0.0 0.0 0.0

-901009.1635049925 6.881004370172482e6 0.0
6.881004370172482e6 -756519.5058308585 0.0
0.0 0.0 0.0

-742447.1616814383 2.2815817391978237e6 0.0
2.2815817391978237e6 -568881.2664817803 0.0
0.0 0.0 0.0

435592.3275343878 5.462348347943404e6 0.0
5.462348347943404e6 -1.9613972331993058e6 0.0
0.0 0.0 0.0

-152217.64943384987 6.271198359071123e6 0.0
6.271198359071123e6 -507392.181504836 0.0
0.0 0.0 0.0

-3.071388803538688e6 3.974622657309548e6 0.0
3.974622657309548e6 1.282630284300327e6 0.0
0.0 0.0 0.0

-1.7883814097884134e6 -505012.61379202956 0.0
-505012.61379202956 1.8566627526180814e6 0.0
0.0 0.0 0.0

643981.318289653 5.3463554124227725e6 0.0
5.3463554124227725e6 -1.994719880356647e6 0.0
0.0 0.0 0.0

-2.8231416790450523e6 3.480465196161823e6 0.0
3.480465196161823e6 1.1331927434378688e6 0.0
0.0 0.0 0.0

-177068.10559948074 6.203110244331824e6 0.0
6.203110244331824e6 -571062.411957791 0.0
0.0 0.0 0.0

-1.7966714234686648e6 5.080724984941927e6 0.0
5.080724984941927e6 238437.37643650582 0.0
0.0 0.0 0.0

404645.06442950235 3.8840767203634535e6 0.0
3.8840767203634535e6 -2.0547635167898373e6 0.0
0.0 0.0 0.0

-3.1843002643508986e6 3.7815133488379405e6 0.0
3.7815133488379405e6 1.1478475066281436e6 0.0
0.0 0.0 0.0

-2.159721401289992e6 5.422948789349422e6 0.0
5.422948789349422e6 2.260681737084299e6 0.0
0.0 0.0 0.0

-287139.6448150928 5.922924489158222e6 0.0
5.922924489158222e6 -1.8908575701569882e6 0.0
0.0 0.0 0.0

-533570.9220953612 3.657893544198515e6 0.0
3.657893544198515e6 -1.6296282753015372e6 0.0
0.0 0.0 0.0

1.7186481646355274e6 8.568854613701886e6 0.0
8.568854613701886e6 -3.662172541638272e6 0.0
0.0 0.0 0.0

-863820.7544394325 4.744601330141382e6 0.0
4.744601330141382e6 1.0850477122085742e6 0.0
0.0 0.0 0.0

21896.147620034724 1.5508887192799607e6 0.0
1.5508887192799607e6 -606677.7625838777 0.0
0.0 0.0 0.0

-152360.0474506542 1.89794963690981e6 0.0
1.89794963690981e6 -756874.9261496027 0.0
0.0 0.0 0.0

482378.3258047467 5.513410153446471e6 0.0
5.513410153446471e6 -1.9300280223540273e6 0.0
0.0 0.0 0.0

-118276.24387408746 3.7076116417327e6 0.0
3.7076116417327e6 -2.086938737120465e6 0.0
0.0 0.0 0.0

-2.801725289811941e6 3.4269653993486534e6 0.0
3.4269653993486534e6 1.0232629859531006e6 0.0
0.0 0.0 0.0

-1.3189458514262037e6 5.007996518363936e6 0.0
5.007996518363936e6 879215.4686666848 0.0
0.0 0.0 0.0

-275455.09679380164 4.264174805061452e6 0.0
4.264174805061452e6 2.2645189205167135e6 0.0
0.0 0.0 0.0

-401772.6810766588 2.1277547885441044e6 0.0
2.1277547885441044e6 -172456.97698783316 0.0
0.0 0.0 0.0

-628138.803021331 3.8666738378457283e6 0.0
3.8666738378457283e6 -1.9358055723067964e6 0.0
0.0 0.0 0.0

-623051.0963864865 3.475939908593685e6 0.0
3.475939908593685e6 -1.9017597926172412e6 0.0
0.0 0.0 0.0

-4.139311294376534e6 6.686049107152778e6 0.0
6.686049107152778e6 5.586187033824591e6 0.0
0.0 0.0 0.0

-2.0235731819682806e6 4.441886298710281e6 0.0
4.441886298710281e6 965987.2632005404 0.0
0.0 0.0 0.0

-1.5885811508635434e6 3.1662981840014216e6 0.0
3.1662981840014216e6 1.171456224464505e6 0.0
0.0 0.0 0.0

-5.263552590031636e6 734482.2485248151 0.0
734482.2485248151 5.554147771336349e6 0.0
0.0 0.0 0.0

-443480.2254369581 3.5558387738007535e6 0.0
3.5558387738007535e6 -1.6046196489199114e6 0.0
0.0 0.0 0.0

-915831.435445281 5.083702934825325e6 0.0
5.083702934825325e6 -1.1668717372533367e6 0.0
0.0 0.0 0.0

-752786.8259943144 6.49222022727462e6 0.0
6.49222022727462e6 -1.3461644368758136e6 0.0
0.0 0.0 0.0

-357922.6396801291 9.665750895310305e6 0.0
9.665750895310305e6 -792512.9553974346 0.0
0.0 0.0 0.0

-240643.09086283814 344222.61960076727 0.0
344222.61960076727 -159097.35308184297 0.0
0.0 0.0 0.0

-841613.1304831934 5.830161323728335e6 0.0
5.830161323728335e6 -1.0919748370156272e6 0.0
0.0 0.0 0.0

-4.090043481423387e6 5.76098464521696e6 0.0
5.76098464521696e6 1.6274864103096586e6 0.0
0.0 0.0 0.0

-1.7590161581672889e6 4.879378605431929e6 0.0
4.879378605431929e6 584417.0611873623 0.0
0.0 0.0 0.0

390347.3458005248 5.266334953835691e6 0.0
5.266334953835691e6 -1.96971240686731e6 0.0
0.0 0.0 0.0

77168.24836623762 1.0360442440201052e6 0.0
1.0360442440201052e6 -1.907272131460148e6 0.0
0.0 0.0 0.0

-761596.2791780188 5.083785424364536e6 0.0
5.083785424364536e6 -606688.0903019258 0.0
0.0 0.0 0.0

-5.981853399897726e6 1.3943513396671072e7 0.0
1.3943513396671072e7 -673382.4892047963 0.0
0.0 0.0 0.0

-3.357916905942047e6 161194.83417155733 0.0
161194.83417155733 4.1595117305578906e6 0.0
0.0 0.0 0.0

-760496.6305149827 6.294326892737249e6 0.0
6.294326892737249e6 -923769.9604717123 0.0
0.0 0.0 0.0

-644455.9185365117 4.410847179840487e6 0.0
4.410847179840487e6 -1.1691408709432317e6 0.0
0.0 0.0 0.0

-786544.7529749558 1.8300869291724013e6 0.0
1.8300869291724013e6 -943753.5764962847 0.0
0.0 0.0 0.0

779690.203336055 1.0508424273604115e6 0.0
1.0508424273604115e6 -1.8457676204850064e6 0.0
0.0 0.0 0.0

-541125.2006104366 7.268139713429347e6 0.0
7.268139713429347e6 -959777.0911060226 0.0
0.0 0.0 0.0

-459356.05652847595 3.589835797866788e6 0.0
3.589835797866788e6 -1.7784205872920952e6 0.0
0.0 0.0 0.0

560036.9856185415 4.285608104617815e6 0.0
4.285608104617815e6 -1.8840421974030465e6 0.0
0.0 0.0 0.0

-2.0628746666711208e6 4.393509456518009e6 0.0
4.393509456518009e6 781152.2709828573 0.0
0.0 0.0 0.0

-82123.64080277865 5.404227483969006e6 0.0
5.404227483969006e6 -1.9870189151837723e6 0.0
0.0 0.0 0.0

484486.03628796176 3.9351899848534027e6 0.0
3.9351899848534027e6 -1.8678596398635774e6 0.0
0.0 0.0 0.0

-966516.2103619016 5.51231460160498e6 0.0
5.51231460160498e6 -83662.57642844785 0.0
0.0 0.0 0.0

-2.059582566219455e6 2.9608644977600216e6 0.0
2.9608644977600216e6 655253.4271624719 0.0
0.0 0.0 0.0

-23086.158757606376 2.525829208455088e6 0.0
2.525829208455088e6 -451715.73311486375 0.0
0.0 0.0 0.0

-3.0212125533487704e6 3.6492123832548293e6 0.0
3.6492123832548293e6 1.1836578567759176e6 0.0
0.0 0.0 0.0

-710976.740393773 1.9655329413304625e6 0.0
1.9655329413304625e6 -260376.09056212546 0.0
0.0 0.0 0.0

-1.362435154531776e6 3.3315807210704032e6 0.0
3.3315807210704032e6 -219118.2379873039 0.0
0.0 0.0 0.0

-107648.62623330165 521499.4674288761 0.0
521499.4674288761 209254.05740349292 0.0
0.0 0.0 0.0

-534189.7892426162 6.838537643716669e6 0.0
6.838537643716669e6 -1.31903126601049e6 0.0
0.0 0.0 0.0

-3.4357397959034736e6 5.050766655075494e6 0.0
5.050766655075494e6 1.5091827780401749e6 0.0
0.0 0.0 0.0

423293.3586405934 2.7876076553439666e6 0.0
2.7876076553439666e6 -824642.7831637582 0.0
0.0 0.0 0.0

-47793.71191719815 3.593090543086919e6 0.0
3.593090543086919e6 -1.9435559833815598e6 0.0
0.0 0.0 0.0

-1.4615569773796296e6 2.143165956309682e6 0.0
2.143165956309682e6 -50763.84596089029 0.0
0.0 0.0 0.0

-248324.90088861197 3.6911653987931046e6 0.0
3.6911653987931046e6 787234.3273424802 0.0
0.0 0.0 0.0

1.433563372183044e6 5.010097401208179e6 0.0
5.010097401208179e6 1.8617967962746136e6 0.0
0.0 0.0 0.0

479064.37221517053 6.034602958488974e6 0.0
6.034602958488974e6 -1.2192618141761757e6 0.0
0.0 0.0 0.0

-733761.1195339363 3.5427292854954307e6 0.0
3.5427292854954307e6 -1.9182469975983272e6 0.0
0.0 0.0 0.0

269311.62712963804 5.879551912592852e6 0.0
5.879551912592852e6 -1.490176723392341e6 0.0
0.0 0.0 0.0

480639.95214883843 5.264951152420347e6 0.0
5.264951152420347e6 -2.2509315409377804e6 0.0
0.0 0.0 0.0

2.461435526126952e6 5.088089078976197e6 0.0
5.088089078976197e6 1.416847014540804e6 0.0
0.0 0.0 0.0

-4.715228516792908e6 3.4525544682414616e6 0.0
3.4525544682414616e6 1.7424656076689463e6 0.0
0.0 0.0 0.0

-550120.5573007958 3.441026303514837e6 0.0
3.441026303514837e6 -1.8645947316867267e6 0.0
0.0 0.0 0.0

-2.056041483638128e6 5.697636070832848e6 0.0
5.697636070832848e6 39344.82159253443 0.0
0.0 0.0 0.0

542658.8055336431 5.762117835591471e6 0.0
5.762117835591471e6 -2.0425691843986684e6 0.0
0.0 0.0 0.0

-1.9315647228942947e6 5.078663011427083e6 0.0
5.078663011427083e6 306683.11379034293 0.0
0.0 0.0 0.0

-1.7124100333005346e6 8.296102337193291e6 0.0
8.296102337193291e6 562476.9045781038 0.0
0.0 0.0 0.0

-648945.0426526275 1.597618977527403e6 0.0
1.597618977527403e6 1.2381437435662257e6 0.0
0.0 0.0 0.0

-6.984510499201295e6 1.2041578466943912e7 0.0
1.2041578466943912e7 1.11271821624423e6 0.0
0.0 0.0 0.0

-600801.421926095 5.682068420562344e6 0.0
5.682068420562344e6 -458656.94731081836 0.0
0.0 0.0 0.0

347075.485823959 4.848050933406936e6 0.0
4.848050933406936e6 -1.939070644921802e6 0.0
0.0 0.0 0.0

2.243452037400168e6 7.488295501390656e6 0.0
7.488295501390656e6 -1.2026745235432796e6 0.0
0.0 0.0 0.0

-1.0254580293139406e6 5.503590249299542e6 0.0
5.503590249299542e6 -98542.52305327338 0.0
0.0 0.0 0.0

321712.0974896994 5.513895912800207e6 0.0
5.513895912800207e6 -1.901075493590015e6 0.0
0.0 0.0 0.0

-1.4526303062744716e6 5.352893677013001e6 0.0
5.352893677013001e6 166503.1142004509 0.0
0.0 0.0 0.0

-822073.9458608128 6.250062899612902e6 0.0
6.250062899612902e6 -984850.6949847093 0.0
0.0 0.0 0.0

-1.0960652772816631e6 4.802860810452501e6 0.0
4.802860810452501e6 323007.8672833601 0.0
0.0 0.0 0.0

-769593.3452211753 5.147587903397996e6 0.0
5.147587903397996e6 -1.0660180869494206e6 0.0
0.0 0.0 0.0

-420357.31197420054 3.358565320291957e6 0.0
3.358565320291957e6 1.0617633139337057e6 0.0
0.0 0.0 0.0

125293.5714751624 4.364924200906229e6 0.0
4.364924200906229e6 -1.955438648823327e6 0.0
0.0 0.0 0.0

-1.6604442368859085e6 5.047059433759941e6 0.0
5.047059433759941e6 388384.891763986 0.0
0.0 0.0 0.0

1.5289622000778462e6 1.2093651455585419e6 0.0
1.2093651455585419e6 -2.310804981100902e6 0.0
0.0 0.0 0.0

-1.197583052862837e6 3.1015796823532456e6 0.0
3.1015796823532456e6 880330.3124721355 0.0
0.0 0.0 0.0

511710.9800955142 5.863031750972993e6 0.0
5.863031750972993e6 -2.0573896235919262e6 0.0
0.0 0.0 0.0

-249807.9304147546 260818.86660879245 0.0
260818.86660879245 436776.4729979445 0.0
0.0 0.0 0.0

-586034.0081007972 6.026334080856633e6 0.0
6.026334080856633e6 -1.4302869919093028e6 0.0
0.0 0.0 0.0

2.2129403728911784e6 555685.2919061027 0.0
555685.2919061027 -3.088262148969439e6 0.0
0.0 0.0 0.0

-84034.34140237185 6.209099774178919e6 0.0
6.209099774178919e6 -555458.4845458381 0.0
0.0 0.0 0.0

-2.9458380297615626e6 3.857126292249534e6 0.0
3.857126292249534e6 975341.55548088 0.0
0.0 0.0 0.0

-304713.04556289484 405196.54815011454 0.0
405196.54815011454 245417.45614109427 0.0
0.0 0.0 0.0

-792362.1098195417 5.460033706571321e6 0.0
5.460033706571321e6 -377436.6193547258 0.0
0.0 0.0 0.0

-382492.6563130513 7.536666784796058e6 0.0
7.536666784796058e6 -862130.6598488464 0.0
0.0 0.0 0.0

-2.7030294431944694e6 3.325950587743922e6 0.0
3.325950587743922e6 985972.2276670114 0.0
0.0 0.0 0.0

-2.7270720947677046e6 5.416138728739233e6 0.0
5.416138728739233e6 1.4170519975906997e6 0.0
0.0 0.0 0.0

-2.6749604255203856e6 3.323130190783622e6 0.0
3.323130190783622e6 1.0863519633131088e6 0.0
0.0 0.0 0.0

-237258.88191447727 4.1708700572376316e6 0.0
4.1708700572376316e6 -1.981101759823613e6 0.0
0.0 0.0 0.0

125392.85215623822 9.466144542596484e6 0.0
9.466144542596484e6 -1.4834016118999128e6 0.0
0.0 0.0 0.0

-872015.6671655945 4.329797997419045e6 0.0
4.329797997419045e6 -1.2929187723455643e6 0.0
0.0 0.0 0.0

-940490.4063387096 4.917776580054785e6 0.0
4.917776580054785e6 413417.5048497944 0.0
0.0 0.0 0.0

-2.291603427519063e6 4.561694108089081e6 0.0
4.561694108089081e6 2.019641052355247e6 0.0
0.0 0.0 0.0

-368132.32316098537 5.963076884430101e6 0.0
5.963076884430101e6 -1.8011088369920745e6 0.0
0.0 0.0 0.0

-1.2550698886122317e6 3.245443772928638e6 0.0
3.245443772928638e6 -282666.073425213 0.0
0.0 0.0 0.0

-3.5809586030996814e6 4.024558830274681e6 0.0
4.024558830274681e6 1.2007402778246244e6 0.0
0.0 0.0 0.0

-1.8525566432709128e6 3.6123084579079133e6 0.0
3.6123084579079133e6 1.0143385109402328e6 0.0
0.0 0.0 0.0

-3.971371372457682e6 6.111733096106873e6 0.0
6.111733096106873e6 1.8258397584655492e6 0.0
0.0 0.0 0.0

-610791.9245486408 6.003136103942037e6 0.0
6.003136103942037e6 -1.4864413786938612e6 0.0
0.0 0.0 0.0

-3.989233317336378e6 7.415997149212658e6 0.0
7.415997149212658e6 287172.6747244324 0.0
0.0 0.0 0.0

394709.39176801534 3.9911239078415665e6 0.0
3.9911239078415665e6 -2.0021881873547882e6 0.0
0.0 0.0 0.0

-1.963053563188899e6 9.062924040922357e6 0.0
9.062924040922357e6 1.0145634077684125e6 0.0
0.0 0.0 0.0

-3.194811936963436e6 3.9713026226731804e6 0.0
3.9713026226731804e6 5837.186374881538 0.0
0.0 0.0 0.0

-461048.2079938571 5.826853114923631e6 0.0
5.826853114923631e6 -416656.47747201775 0.0
0.0 0.0 0.0

-3.5367082620509285e6 4.151309211002937e6 0.0
4.151309211002937e6 -843713.663579915 0.0
0.0 0.0 0.0

578258.2965815013 4.759314617807731e6 0.0
4.759314617807731e6 -2.0878544851734936e6 0.0
0.0 0.0 0.0

-1.754044620556374e6 3.62612265367117e6 0.0
3.62612265367117e6 1.3893018870177758e6 0.0
0.0 0.0 0.0

362060.3984341686 2.981741466932181e6 0.0
2.981741466932181e6 -887852.3787897786 0.0
0.0 0.0 0.0

355631.6438322053 5.7951408025073195e6 0.0
5.7951408025073195e6 -2.159893539586109e6 0.0
0.0 0.0 0.0

-855989.5128644092 6.139807836011275e6 0.0
6.139807836011275e6 -995161.8338605061 0.0
0.0 0.0 0.0

-5.556967714381991e6 3.3084656565272366e6 0.0
3.3084656565272366e6 2.182941392583685e6 0.0
0.0 0.0 0.0

-4.168838606618603e6 -892196.0466593086 0.0
-892196.0466593086 3.3988329679488074e6 0.0
0.0 0.0 0.0

-3.9606375312884785e6 7.178954679478678e6 0.0
7.178954679478678e6 -672011.5236354037 0.0
0.0 0.0 0.0

2.0752910768502124e6 4.533610339696242e6 0.0
4.533610339696242e6 879525.306897041 0.0
0.0 0.0 0.0

-338502.97375666624 4.718608800124261e6 0.0
4.718608800124261e6 -1.6961440429105153e6 0.0
0.0 0.0 0.0

-855651.4266065578 5.449881492522684e6 0.0
5.449881492522684e6 -1.131823886369066e6 0.0
0.0 0.0 0.0

-871381.5189982699 4.972020440606711e6 0.0
4.972020440606711e6 819587.5480735986 0.0
0.0 0.0 0.0

-823284.612460938 7.016508518550382e6 0.0
7.016508518550382e6 -545443.0135588812 0.0
0.0 0.0 0.0

-2.970019105511074e6 3.8690963876477573e6 0.0
3.8690963876477573e6 1.2358664443264557e6 0.0
0.0 0.0 0.0

-197104.4288284451 6.138986286118815e6 0.0
6.138986286118815e6 -578237.5075126063 0.0
0.0 0.0 0.0

-3.9096040085722576e6 5.831646375005848e6 0.0
5.831646375005848e6 1.7364767595567957e6 0.0
0.0 0.0 0.0

248560.56311126507 2.6641284808697514e6 0.0
2.6641284808697514e6 -845436.3909807863 0.0
0.0 0.0 0.0

2.624826998121512e6 8.920980466276094e6 0.0
8.920980466276094e6 -3.8601124972298304e6 0.0
0.0 0.0 0.0

-1.9565361788838527e6 6.051141199221142e6 0.0
6.051141199221142e6 -13712.782167015364 0.0
0.0 0.0 0.0

-96053.77543248731 6.285026423405502e6 0.0
6.285026423405502e6 -484039.5524350462 0.0
0.0 0.0 0.0

-2.0004949078770857e6 5.314137168625086e6 0.0
5.314137168625086e6 147320.4058644639 0.0
0.0 0.0 0.0

-7.047618170780538e6 2.1173212473153104e6 0.0
2.1173212473153104e6 6.97657627576402e6 0.0
0.0 0.0 0.0

-1.8221239039818663e6 4.905479341093987e6 0.0
4.905479341093987e6 263534.79814831377 0.0
0.0 0.0 0.0

-56171.58209679148 5.5275549987192955e6 0.0
5.5275549987192955e6 -2.0600214174291687e6 0.0
0.0 0.0 0.0

-2.137995215067544e6 3.6639228375260844e6 0.0
3.6639228375260844e6 753916.4630457916 0.0
0.0 0.0 0.0

-1.4170644100431018e6 5.380476899248465e6 0.0
5.380476899248465e6 36380.392173459 0.0
0.0 0.0 0.0

834880.3897884497 929253.4122003358 0.0
929253.4122003358 -3.1251694535719226e6 0.0
0.0 0.0 0.0

-1.7951520985734651e6 4.980884936071551e6 0.0
4.980884936071551e6 384355.3720451095 0.0
0.0 0.0 0.0

-2.1101125896604983e6 183460.7894418467 0.0
183460.7894418467 4.19689523442065e6 0.0
0.0 0.0 0.0

-1.1860870980188851e6 2.121722999191993e6 0.0
2.121722999191993e6 -32869.409404932405 0.0
0.0 0.0 0.0

-3.854432116376996e6 3.5339640058402563e6 0.0
3.5339640058402563e6 3.127853646369804e6 0.0
0.0 0.0 0.0

1.8323790048151868e6 4.753116624694046e6 0.0
4.753116624694046e6 892778.0439757952 0.0
0.0 0.0 0.0

-390412.74399968353 5.353155809181795e6 0.0
5.353155809181795e6 -1.8175427316498724e6 0.0
0.0 0.0 0.0

300187.6373826015 5.509025707051926e6 0.0
5.509025707051926e6 -1.9713852044802147e6 0.0
0.0 0.0 0.0

251293.56958204793 6.863167248566414e6 0.0
6.863167248566414e6 -1.4684311224117416e6 0.0
0.0 0.0 0.0

-3.200188469883239e6 1.252260584032283e6 0.0
1.252260584032283e6 3.875289669754397e6 0.0
0.0 0.0 0.0

-2.8434649938448835e6 3.586135330025665e6 0.0
3.586135330025665e6 1.157997463831936e6 0.0
0.0 0.0 0.0

-1.663865537267444e6 4.059681508817193e6 0.0
4.059681508817193e6 74742.26837803144 0.0
0.0 0.0 0.0

-1.313791586464044e6 5.105968321013823e6 0.0
5.105968321013823e6 -381778.5390234096 0.0
0.0 0.0 0.0

-659287.4420034613 5.479507698502579e6 0.0
5.479507698502579e6 665339.9163277356 0.0
0.0 0.0 0.0

829607.1119687887 1.8925056842543522e6 0.0
1.8925056842543522e6 -1.7064054330295068e6 0.0
0.0 0.0 0.0

2.0208172308918808e6 5.577728057537834e6 0.0
5.577728057537834e6 -2.8637223919319212e6 0.0
0.0 0.0 0.0

-101263.56268406099 6.126258189710975e6 0.0
6.126258189710975e6 -556259.4464138184 0.0
0.0 0.0 0.0

-3.4169940886669555e6 3.892266435146913e6 0.0
3.892266435146913e6 933704.2681106573 0.0
0.0 0.0 0.0

-1.1174078254994806e7 -2.7870760338731296e6 0.0
-2.7870760338731296e6 9.012068335182969e6 0.0
0.0 0.0 0.0

715433.1585529605 6.988552765435827e6 0.0
6.988552765435827e6 -2.2873746068269936e6 0.0
0.0 0.0 0.0

-335854.34276146523 5.590082590505743e6 0.0
5.590082590505743e6 -605498.1206827209 0.0
0.0 0.0 0.0

-524759.2765008525 4.19943567243767e6 0.0
4.19943567243767e6 -2.067217877910984e6 0.0
0.0 0.0 0.0

-720302.1689061653 5.602414409146606e6 0.0
5.602414409146606e6 -1.386244264868938e6 0.0
0.0 0.0 0.0

216948.9527528889 293743.65331717883 0.0
293743.65331717883 -645540.9995103368 0.0
0.0 0.0 0.0

-658635.7921337102 6.199664041742802e6 0.0
6.199664041742802e6 -1.4186401947826524e6 0.0
0.0 0.0 0.0

-637073.3736699629 4.418570527164624e6 0.0
4.418570527164624e6 -2.0949822911923241e6 0.0
0.0 0.0 0.0

-573499.9769722387 6.075475845219648e6 0.0
6.075475845219648e6 -1.5187491294000742e6 0.0
0.0 0.0 0.0

-767329.6019834364 6.45369369899638e6 0.0
6.45369369899638e6 -916471.9576262387 0.0
0.0 0.0 0.0

212980.59577480034 4.262065589026483e6 0.0
4.262065589026483e6 1.8830963704914125e6 0.0
0.0 0.0 0.0

-1.927428673659313e6 1.6857730101169888e6 0.0
1.6857730101169888e6 3.915086967756265e6 0.0
0.0 0.0 0.0

-2.6558603728378667e6 5.002851968729651e6 0.0
5.002851968729651e6 1.6518193370705394e6 0.0
0.0 0.0 0.0

-23927.32846511883 6.057992997214954e6 0.0
6.057992997214954e6 -451201.6257883545 0.0
0.0 0.0 0.0

-2.67224929340535e6 3.689255865038275e6 0.0
3.689255865038275e6 1.4627723771789456e6 0.0
0.0 0.0 0.0

1.2063260783125362e6 4.237553010930477e6 0.0
4.237553010930477e6 1.6100646792826457e6 0.0
0.0 0.0 0.0

-1.6018560867881025e6 5.042026144910245e6 0.0
5.042026144910245e6 442513.9009361487 0.0
0.0 0.0 0.0

-621416.1356846407 6.146288525767097e6 0.0
6.146288525767097e6 -1.0223991356236748e6 0.0
0.0 0.0 0.0

-3.164254161829394e6 4.512736381652122e6 0.0
4.512736381652122e6 1.2886696443301262e6 0.0
0.0 0.0 0.0

-2.1865614555513645e6 3.7009065938833426e6 0.0
3.7009065938833426e6 812946.3211124891 0.0
0.0 0.0 0.0

-4.993710137954097e6 -5.5594086140817385e6 0.0
-5.5594086140817385e6 1.2370445355888996e7 0.0
0.0 0.0 0.0

-897404.5669426342 6.660943065306523e6 0.0
6.660943065306523e6 -845316.9278380588 0.0
0.0 0.0 0.0

-3.1014932214928335e6 3.7371812586211776e6 0.0
3.7371812586211776e6 1.1180271772068008e6 0.0
0.0 0.0 0.0

1.5031455881511504e6 561047.5937527913 0.0
561047.5937527913 -1.645796532920504e6 0.0
0.0 0.0 0.0

-1.2171258738313273e6 3.121085918348551e6 0.0
3.121085918348551e6 1.1967088196200533e6 0.0
0.0 0.0 0.0

-1.707604706781783e6 2.830566521559722e6 0.0
2.830566521559722e6 1.7336366111291582e6 0.0
0.0 0.0 0.0

464978.5926514948 5.260604420416831e6 0.0
5.260604420416831e6 -2.125833166045702e6 0.0
0.0 0.0 0.0

-3.879588474065715e6 4.0201818623664575e6 0.0
4.0201818623664575e6 1.2829266752586074e6 0.0
0.0 0.0 0.0

-579270.4155555362 6.464956047442281e6 0.0
6.464956047442281e6 -1.382720965843084e6 0.0
0.0 0.0 0.0

-1.665126673935439e6 3.546134689173147e6 0.0
3.546134689173147e6 1.3737922691175318e6 0.0
0.0 0.0 0.0

187347.30166924326 4.322544440948096e6 0.0
4.322544440948096e6 -1.984260253755917e6 0.0
0.0 0.0 0.0

-3.196380251429395e6 3.8547121868777727e6 0.0
3.8547121868777727e6 944787.7888082943 0.0
0.0 0.0 0.0

-366874.2462225271 4.404019876121335e6 0.0
4.404019876121335e6 -2.018469822856527e6 0.0
0.0 0.0 0.0

100717.80269796756 3.239727710062214e6 0.0
3.239727710062214e6 -999225.3662461848 0.0
0.0 0.0 0.0

-925785.6156044278 1.9160073861866912e6 0.0
1.9160073861866912e6 -184474.8630821894 0.0
0.0 0.0 0.0

-3.488913801677727e6 3.7976704237948e6 0.0
3.7976704237948e6 413905.4220353819 0.0
0.0 0.0 0.0

-120067.02993093495 6.272363506049772e6 0.0
6.272363506049772e6 -509441.4016605447 0.0
0.0 0.0 0.0

-4.305145611951767e6 3.625316939713078e6 0.0
3.625316939713078e6 1.5129404041666172e6 0.0
0.0 0.0 0.0

-223744.080546822 2.1940398798044873e6 0.0
2.1940398798044873e6 402608.61086288706 0.0
0.0 0.0 0.0

-48407.68584602489 4.412069413626702e6 0.0
4.412069413626702e6 -1.858391552762842e6 0.0
0.0 0.0 0.0

5.864533703098166e6 9.633585455376413e6 0.0
9.633585455376413e6 -2.8184037271919274e6 0.0
0.0 0.0 0.0

-2.964706939277092e6 3.6866269271763787e6 0.0
3.6866269271763787e6 1.202982294738507e6 0.0
0.0 0.0 0.0

-2.3233934819083204e6 4.734771755800653e6 0.0
4.734771755800653e6 543764.8538557795 0.0
0.0 0.0 0.0

-2.5866438098590933e6 3.6468187244477905e6 0.0
3.6468187244477905e6 986973.7032196872 0.0
0.0 0.0 0.0

-3.678714643415867e6 5.781270694331675e6 0.0
5.781270694331675e6 7.267196385193846e6 0.0
0.0 0.0 0.0

496828.6573011143 5.7299190899656825e6 0.0
5.7299190899656825e6 -1.9995977406145027e6 0.0
0.0 0.0 0.0

-914351.7201137315 2.4505398119469066e6 0.0
2.4505398119469066e6 -612098.8311286536 0.0
0.0 0.0 0.0

-2.7986431043531913e6 8.096598046193935e6 0.0
8.096598046193935e6 456959.4033717079 0.0
0.0 0.0 0.0

-367832.5340645305 4.133612227627675e6 0.0
4.133612227627675e6 -2.0152464433456426e6 0.0
0.0 0.0 0.0

-4.743408459793854e6 -1.2910013690295082e6 0.0
-1.2910013690295082e6 4.0277524004015815e6 0.0
0.0 0.0 0.0

-1.5470019729970035e6 5.249917109691655e6 0.0
5.249917109691655e6 4802.221383667842 0.0
0.0 0.0 0.0

-194931.40413196816 4.1326114618402817e6 0.0
4.1326114618402817e6 -1.6165338516537247e6 0.0
0.0 0.0 0.0

-555791.0805398186 6.2114354512831615e6 0.0
6.2114354512831615e6 -1.4963418215227074e6 0.0
0.0 0.0 0.0

-782527.1784125657 5.412876902687211e6 0.0
5.412876902687211e6 1.7108042691128873e6 0.0
0.0 0.0 0.0

-1.346980106183761e6 8.815578367405975e6 0.0
8.815578367405975e6 348786.8908884347 0.0
0.0 0.0 0.0

-3.8390563497414086e6 -2.4603103884718213e6 0.0
-2.4603103884718213e6 3.244374628359802e6 0.0
0.0 0.0 0.0

-712277.1915914835 1.4577740777291697e7 0.0
1.4577740777291697e7 956172.6135587583 0.0
0.0 0.0 0.0

-2.273189007004558e6 9.179377771138791e6 0.0
9.179377771138791e6 -209764.80725655908 0.0
0.0 0.0 0.0

827440.4877633832 6.938734768701614e6 0.0
6.938734768701614e6 -2.324172820558279e6 0.0
0.0 0.0 0.0

-2.9597500313089197e6 3.7791761632076474e6 0.0
3.7791761632076474e6 984268.9278125039 0.0
0.0 0.0 0.0

993434.2331346595 5.227921126394486e6 0.0
5.227921126394486e6 997029.798158885 0.0
0.0 0.0 0.0

-4.472471737704653e6 -730466.8428710529 0.0
-730466.8428710529 7.082956635156058e6 0.0
0.0 0.0 0.0

-903845.0186081831 6.8674825922013875e6 0.0
6.8674825922013875e6 -789133.3387656924 0.0
0.0 0.0 0.0

-610184.5979374035 4.29934371503966e6 0.0
4.29934371503966e6 2.15738113506273e6 0.0
0.0 0.0 0.0

-704294.1153635231 6.261275955037827e6 0.0
6.261275955037827e6 -922892.8491544771 0.0
0.0 0.0 0.0

456095.1578314054 5.534848264494927e6 0.0
5.534848264494927e6 -1.9676619582226644e6 0.0
0.0 0.0 0.0

-2.837102427415748e6 3.9521082467573527e6 0.0
3.9521082467573527e6 1.1690688148886159e6 0.0
0.0 0.0 0.0

-480571.84947565617 3.7378452625924307e6 0.0
3.7378452625924307e6 -1.8590405341114816e6 0.0
0.0 0.0 0.0

-2.267490505545877e6 6.150169016454808e6 0.0
6.150169016454808e6 527643.7589670391 0.0
0.0 0.0 0.0

-4.32378328259566e6 470805.30111766804 0.0
470805.30111766804 7.849127993698219e6 0.0
0.0 0.0 0.0

-843160.5551310306 4.530518416241684e6 0.0
4.530518416241684e6 -1.176131254910959e6 0.0
0.0 0.0 0.0

-301348.78871513845 5.908906373649126e6 0.0
5.908906373649126e6 -1.915468731299072e6 0.0
0.0 0.0 0.0

-638980.3593916139 7.449130636758355e6 0.0
7.449130636758355e6 -755534.5988547748 0.0
0.0 0.0 0.0

-372225.68281621835 3.7045327351386966e6 0.0
3.7045327351386966e6 -1.5631167247968763e6 0.0
0.0 0.0 0.0

-1.1089771577228708e6 -348747.44542477257 0.0
-348747.44542477257 2.7243155119452975e6 0.0
0.0 0.0 0.0

-4.905619174137486e6 6.6620958239931045e6 0.0
6.6620958239931045e6 6.925738788866237e6 0.0
0.0 0.0 0.0

-446081.42994303105 3.594488335129167e6 0.0
3.594488335129167e6 -2.0614400479937897e6 0.0
0.0 0.0 0.0

-1.8703075986733169e6 6.050798121035606e6 0.0
6.050798121035606e6 433680.90457975084 0.0
0.0 0.0 0.0

-1.8857747622991814e6 4.538104215441926e6 0.0
4.538104215441926e6 2.0979765342744426e6 0.0
0.0 0.0 0.0

-151103.2186539024 6.105826280394005e6 0.0
6.105826280394005e6 -1.8949348058052142e6 0.0
0.0 0.0 0.0

1.620555844622625e6 4.651720178601964e6 0.0
4.651720178601964e6 1.5507900839581904e6 0.0
0.0 0.0 0.0

-1.8309830709064547e6 5.775976188958491e6 0.0
5.775976188958491e6 470134.0055572293 0.0
0.0 0.0 0.0

262554.5193066726 164152.50167102704 0.0
164152.50167102704 -151352.0812259605 0.0
0.0 0.0 0.0

-1.4455133817152735e6 -280634.72814237996 0.0
-280634.72814237996 1.6277820964896944e6 0.0
0.0 0.0 0.0

562287.121297249 5.61524495773331e6 0.0
5.61524495773331e6 -2.419430417371548e6 0.0
0.0 0.0 0.0

-2.4978424636822264e6 3.5808487855564523e6 0.0
3.5808487855564523e6 921723.2070158082 0.0
0.0 0.0 0.0

-1.145907385898595e6 5.514190393504922e6 0.0
5.514190393504922e6 626278.0272007333 0.0
0.0 0.0 0.0

-884246.4761833814 7.082663575822422e6 0.0
7.082663575822422e6 -651522.7218525776 0.0
0.0 0.0 0.0

487742.44391167397 713866.3425816502 0.0
713866.3425816502 -600260.395360655 0.0
0.0 0.0 0.0

-1.175299782032194e6 4.682244060991979e6 0.0
4.682244060991979e6 -91282.00137737021 0.0
0.0 0.0 0.0

-1.695912445500059e6 -713280.0434221546 0.0
-713280.0434221546 1.9797011703408563e6 0.0
0.0 0.0 0.0

173449.09192548477 6.559918093638801e6 0.0
6.559918093638801e6 -1.0387333837264522e6 0.0
0.0 0.0 0.0

-671516.1809375194 3.625617745012038e6 0.0
3.625617745012038e6 -2.0743412181621466e6 0.0
0.0 0.0 0.0

-407801.1359811619 3.631503628364006e6 0.0
3.631503628364006e6 -2.1705070337279337e6 0.0
0.0 0.0 0.0

-1.2676141321730826e6 3.1079500247505973e6 0.0
3.1079500247505973e6 1.1684627874806984e6 0.0
0.0 0.0 0.0

-2.0467740223690919e6 3.3924781908139344e6 0.0
3.3924781908139344e6 649921.9490849732 0.0
0.0 0.0 0.0

1.3279992627875898e6 1.0332018488563828e6 0.0
1.0332018488563828e6 -1.8358833753892705e6 0.0
0.0 0.0 0.0

-662655.560551777 4.599989411089942e6 0.0
4.599989411089942e6 -1.0673335633834228e6 0.0
0.0 0.0 0.0

-2.5372222816756004e6 4.3939447802315345e6 0.0
4.3939447802315345e6 741214.0903957223 0.0
0.0 0.0 0.0

-1.3010419326026402e6 5.992163764071284e6 0.0
5.992163764071284e6 3.123512411659282e6 0.0
0.0 0.0 0.0

-121457.43308939051 7.986325966062034e6 0.0
7.986325966062034e6 -1.0467035349148655e6 0.0
0.0 0.0 0.0

-4.419026043234607e6 -6.086838541951774e6 0.0
-6.086838541951774e6 8.087213771306918e6 0.0
0.0 0.0 0.0

-2.107352093971482e6 838831.8978983916 0.0
838831.8978983916 4.223224253232433e6 0.0
0.0 0.0 0.0

-1.1130676696342612e6 3.2002331151626925e6 0.0
3.2002331151626925e6 561095.1777213139 0.0
0.0 0.0 0.0

-488220.15050617105 3.49372035968313e6 0.0
3.49372035968313e6 -573141.3481366816 0.0
0.0 0.0 0.0

465006.0569935637 2.0760407412468754e6 0.0
2.0760407412468754e6 -618560.1124204895 0.0
0.0 0.0 0.0

-4.254326508077403e6 2.5969806832368434e6 0.0
2.5969806832368434e6 2.772393801477117e6 0.0
0.0 0.0 0.0

493781.0925529625 5.843245663200603e6 0.0
5.843245663200603e6 -1.8119428680130513e6 0.0
0.0 0.0 0.0

-719310.6131781389 3.9978584811457423e6 0.0
3.9978584811457423e6 -2.013256659223717e6 0.0
0.0 0.0 0.0

-301250.10128425545 5.853215958603889e6 0.0
5.853215958603889e6 -647056.0739390969 0.0
0.0 0.0 0.0

-976793.1566634087 9.513136792730777e6 0.0
9.513136792730777e6 -961057.882173287 0.0
0.0 0.0 0.0

-719462.566145878 6.4821205381642645e6 0.0
6.4821205381642645e6 -871944.4045833696 0.0
0.0 0.0 0.0

-3.9687805467929104e6 7.498827492712753e6 0.0
7.498827492712753e6 214174.05745110172 0.0
0.0 0.0 0.0

-3.0620074525457346e6 4.131424013827504e6 0.0
4.131424013827504e6 1.1614211415282728e6 0.0
0.0 0.0 0.0

-435411.9447648985 1.6910218319610308e6 0.0
1.6910218319610308e6 -387491.0026904306 0.0
0.0 0.0 0.0

-4.92197738062468e6 3.627901217301043e6 0.0
3.627901217301043e6 1.5674675600267125e6 0.0
0.0 0.0 0.0

-2.1808426452859505e6 3.2571568916186197e6 0.0
3.2571568916186197e6 750275.1282436973 0.0
0.0 0.0 0.0

-77700.40616178459 2.565231016955444e6 0.0
2.565231016955444e6 -619973.4906556112 0.0
0.0 0.0 0.0

-2.15841097200096e6 3.1710170565306633e6 0.0
3.1710170565306633e6 739081.5291039286 0.0
0.0 0.0 0.0

466146.2066389722 1.3646633752701397e6 0.0
1.3646633752701397e6 -616373.7907157962 0.0
0.0 0.0 0.0

-1.0592711796462012e6 1.44477081661926e6 0.0
1.44477081661926e6 -577981.3260378568 0.0
0.0 0.0 0.0

-558221.7978147838 4.146650890656767e6 0.0
4.146650890656767e6 -1.847673130548352e6 0.0
0.0 0.0 0.0

-2.8000604060439332e6 6.711552209187913e6 0.0
6.711552209187913e6 952780.7526814139 0.0
0.0 0.0 0.0

-936347.0368194911 5.405952500669677e6 0.0
5.405952500669677e6 475906.251335575 0.0
0.0 0.0 0.0

-822889.2816402279 5.746749487902545e6 0.0
5.746749487902545e6 200120.49517820548 0.0
0.0 0.0 0.0

228782.2732589646 3.6548655043726354e6 0.0
3.6548655043726354e6 -997498.8584365959 0.0
0.0 0.0 0.0

-2.4638212397360485e6 4.125345762333817e6 0.0
4.125345762333817e6 515644.68713541864 0.0
0.0 0.0 0.0

-3.127320120442783e6 4.687232431616635e6 0.0
4.687232431616635e6 1.1569594954515127e6 0.0
0.0 0.0 0.0

-514616.1649296669 7.540107449845686e6 0.0
7.540107449845686e6 -858495.5303125716 0.0
0.0 0.0 0.0

-138833.34740288023 2.5916985631705886e6 0.0
2.5916985631705886e6 -450149.0678296135 0.0
0.0 0.0 0.0

-565290.9675083511 3.828338791044067e6 0.0
3.828338791044067e6 -1.4659632952315714e6 0.0
0.0 0.0 0.0

-3.3074068564107227e6 3.8481011638601637e6 0.0
3.8481011638601637e6 955692.3944756272 0.0
0.0 0.0 0.0

-3.2397482525466927e6 3.8704365098369587e6 0.0
3.8704365098369587e6 915969.3589821074 0.0
0.0 0.0 0.0

-510222.5484423541 3.585643036717092e6 0.0
3.585643036717092e6 -1.791762328938878e6 0.0
0.0 0.0 0.0

-340382.97871596843 3.6019713985824916e6 0.0
3.6019713985824916e6 -1.546107649223521e6 0.0
0.0 0.0 0.0

-381041.2221927846 5.665438287703823e6 0.0
5.665438287703823e6 -623821.7193624537 0.0
0.0 0.0 0.0

-205168.57057200803 5.435510415224316e6 0.0
5.435510415224316e6 -2.048699960478377e6 0.0
0.0 0.0 0.0

-687260.0793991323 1.722476832592316e6 0.0
1.722476832592316e6 1.391414320820582e6 0.0
0.0 0.0 0.0

-75658.4531769228 4.5621624965985445e6 0.0
4.5621624965985445e6 -1.8043412646611785e6 0.0
0.0 0.0 0.0

-3.4270123745607957e6 9.583768988020303e6 0.0
9.583768988020303e6 386869.1197865899 0.0
0.0 0.0 0.0

-591948.9091261948 6.022683978499598e6 0.0
6.022683978499598e6 218518.94004012353 0.0
0.0 0.0 0.0

-1.4823278901181037e6 5.493631629972828e6 0.0
5.493631629972828e6 2.470046963079748e6 0.0
0.0 0.0 0.0

-174037.907198783 3.3133315265273815e6 0.0
3.3133315265273815e6 1.5705231227494797e6 0.0
0.0 0.0 0.0

-213727.29908443152 4.1288744580219234e6 0.0
4.1288744580219234e6 -1.2819935752177483e6 0.0
0.0 0.0 0.0

-2.161886067521289e6 4.0212099520346764e6 0.0
4.0212099520346764e6 651125.5354574895 0.0
0.0 0.0 0.0

-3.861628005764677e6 7.014670887348779e6 0.0
7.014670887348779e6 51889.42625130154 0.0
0.0 0.0 0.0

-490192.50793148344 4.071670141839279e6 0.0
4.071670141839279e6 -1.338567571024666e6 0.0
0.0 0.0 0.0

-1.073328728939897e6 5.432038689819137e6 0.0
5.432038689819137e6 -179946.94433552565 0.0
0.0 0.0 0.0

551228.9819241315 5.245005253206633e6 0.0
5.245005253206633e6 -1.842696077495661e6 0.0
0.0 0.0 0.0

-4.849798226722508e6 2.55565724492178e6 0.0
2.55565724492178e6 3.2992965574194524e6 0.0
0.0 0.0 0.0

-5.01906604916746e6 2.963550807745525e6 0.0
2.963550807745525e6 1.7768048732906478e6 0.0
0.0 0.0 0.0

68398.80753087491 1.162735394438585e6 0.0
1.162735394438585e6 102381.27422700787 0.0
0.0 0.0 0.0

-1.5879834068127961e6 8.718335105976762e6 0.0
8.718335105976762e6 -402936.7850800052 0.0
0.0 0.0 0.0

-1.2388586830547031e7 -3.398804537067585e6 0.0
-3.398804537067585e6 1.6420471242253024e7 0.0
0.0 0.0 0.0

-26570.21023388303 345656.2416210263 0.0
345656.2416210263 -581573.3217445215 0.0
0.0 0.0 0.0

-675544.6593003836 4.448466617821982e6 0.0
4.448466617821982e6 -2.1622690992919537e6 0.0
0.0 0.0 0.0

-725165.2628643238 5.5000587400224535e6 0.0
5.5000587400224535e6 -1.0529469430871052e6 0.0
0.0 0.0 0.0

-3.3549834203473297e6 4.639696263857792e6 0.0
4.639696263857792e6 1.3269263319964318e6 0.0
0.0 0.0 0.0

-3.342307280398192e6 2.4233552815850605e6 0.0
2.4233552815850605e6 1.6653324652343884e6 0.0
0.0 0.0 0.0

-942658.1443438934 1.8961849287268415e6 0.0
1.8961849287268415e6 -167798.86829286232 0.0
0.0 0.0 0.0

-2.847454025469056e6 4.0308778920995127e6 0.0
4.0308778920995127e6 1.0147956289391508e6 0.0
0.0 0.0 0.0

-3.351876182612704e6 3.8778081903145383e6 0.0
3.8778081903145383e6 1.0238287988214279e6 0.0
0.0 0.0 0.0

-3.2111823402610114e6 4.730531096895694e6 0.0
4.730531096895694e6 1.3264457555624833e6 0.0
0.0 0.0 0.0

-143564.07156005845 4.478671535682649e6 0.0
4.478671535682649e6 -1.641492777736975e6 0.0
0.0 0.0 0.0

-1.0307956649810381e6 2.9987303155500633e6 0.0
2.9987303155500633e6 448117.35603782505 0.0
0.0 0.0 0.0

-2.9004076220506215e6 -1.7226512763901977e6 0.0
-1.7226512763901977e6 4.155556855303466e6 0.0
0.0 0.0 0.0

-1.6658494126597727e6 8.3771976102251755e6 0.0
8.3771976102251755e6 9.1107852759188e6 0.0
0.0 0.0 0.0

-6.264252061921388e6 -2.3523182310089385e6 0.0
-2.3523182310089385e6 3.40258791771047e6 0.0
0.0 0.0 0.0

2.009955059497382e6 9.301008703713285e6 0.0
9.301008703713285e6 -4.441648174095968e6 0.0
0.0 0.0 0.0

-511461.02707196143 5.138362056790797e6 0.0
5.138362056790797e6 -1.7637327391047294e6 0.0
0.0 0.0 0.0

130437.91602873977 2.4734777418910176e6 0.0
2.4734777418910176e6 -1.0261777675482985e6 0.0
0.0 0.0 0.0

3.9026578889391385e6 1.0389855239503019e7 0.0
1.0389855239503019e7 -2.4705397899475032e6 0.0
0.0 0.0 0.0

97704.14495193491 2.2023219303389923e6 0.0
2.2023219303389923e6 6826.39594940855 0.0
0.0 0.0 0.0

428930.0104522421 3.2122802139906324e6 0.0
3.2122802139906324e6 1.4527884125859027e6 0.0
0.0 0.0 0.0

-3.059885664182105e6 3.910858699096335e6 0.0
3.910858699096335e6 1.168719296491891e6 0.0
0.0 0.0 0.0

-2.337469145446132e6 4.653264761012355e6 0.0
4.653264761012355e6 622065.0386131728 0.0
0.0 0.0 0.0

-1.0307491695959304e6 2.4031556772310357e6 0.0
2.4031556772310357e6 -538026.5291069002 0.0
0.0 0.0 0.0

-2.519695642256938e6 1.481201041571113e6 0.0
1.481201041571113e6 1.296259396173011e6 0.0
0.0 0.0 0.0

-156352.83183410758 3.6946637452108944e6 0.0
3.6946637452108944e6 -1.7795995677621183e6 0.0
0.0 0.0 0.0

-767240.0849789408 5.492672591754147e6 0.0
5.492672591754147e6 -376756.42946240725 0.0
0.0 0.0 0.0

-796365.6011989228 4.365401598528151e6 0.0
4.365401598528151e6 9896.116350591125 0.0
0.0 0.0 0.0

-7.669711488045507e6 -2.32543773930134e6 0.0
-2.32543773930134e6 1.5815278424980901e7 0.0
0.0 0.0 0.0

-2.8441081745052515e6 3.533122109921992e6 0.0
3.533122109921992e6 1.0476859575637885e6 0.0
0.0 0.0 0.0

553793.9422186555 5.6081856364192255e6 0.0
5.6081856364192255e6 -2.2079729026259887e6 0.0
0.0 0.0 0.0

-1.154183165121879e6 5.4310665140260765e6 0.0
5.4310665140260765e6 156780.07497149456 0.0
0.0 0.0 0.0

-1.3486080002692486e6 3.819962066122928e6 0.0
3.819962066122928e6 237766.93064693536 0.0
0.0 0.0 0.0

-117096.8362313147 8.160000475657135e6 0.0
8.160000475657135e6 -907388.081582743 0.0
0.0 0.0 0.0

-1.5469607686159902e6 5.694118715030359e6 0.0
5.694118715030359e6 -248743.845995188 0.0
0.0 0.0 0.0

-3.9760587998065446e6 3.8916390825921586e6 0.0
3.8916390825921586e6 1.3512897174863743e6 0.0
0.0 0.0 0.0

-744270.9263609865 1.8386817174550558e6 0.0
1.8386817174550558e6 -317745.6599658598 0.0
0.0 0.0 0.0

-2.962897354644713e6 4.1283951856391644e6 0.0
4.1283951856391644e6 558219.2437192008 0.0
0.0 0.0 0.0

-3.014015145253433e6 3.74438947846871e6 0.0
3.74438947846871e6 1.0893214751110887e6 0.0
0.0 0.0 0.0

-1.159333896852768e6 3.201211550024378e6 0.0
3.201211550024378e6 547203.775077842 0.0
0.0 0.0 0.0

232937.29263928847 1.0555440771621048e7 0.0
1.0555440771621048e7 -1.8905155703019719e6 0.0
0.0 0.0 0.0

-859295.774055571 6.78264291889412e6 0.0
6.78264291889412e6 -896631.2404179617 0.0
0.0 0.0 0.0

-3.0234870191999436e6 3.7243216385270148e6 0.0
3.7243216385270148e6 1.138481777455467e6 0.0
0.0 0.0 0.0

-779955.8607411443 2.4714527523616934e6 0.0
2.4714527523616934e6 -574453.9031887894 0.0
0.0 0.0 0.0

-616258.4043943497 5.522548101465148e6 0.0
5.522548101465148e6 -390851.89395265246 0.0
0.0 0.0 0.0

-2.1673212007012377e6 -58674.99085119014 0.0
-58674.99085119014 1.9077580771410167e6 0.0
0.0 0.0 0.0

-3.327479949075138e6 2.043645373076094e6 0.0
2.043645373076094e6 3.6384802982219546e6 0.0
0.0 0.0 0.0

-867092.4183664063 5.851890682202581e6 0.0
5.851890682202581e6 -1.066637974369021e6 0.0
0.0 0.0 0.0

-2.335926549273422e6 3.5144915580065227e6 0.0
3.5144915580065227e6 3.080799262068481e6 0.0
0.0 0.0 0.0

-795398.1696961569 5.978871434269696e6 0.0
5.978871434269696e6 -1.1997993314346792e6 0.0
0.0 0.0 0.0

-824414.6159719203 4.970341775354753e6 0.0
4.970341775354753e6 388277.27083632763 0.0
0.0 0.0 0.0

-4.462423181118146e6 5935.719073676052 0.0
5935.719073676052 3.878947467890138e6 0.0
0.0 0.0 0.0

-1.0619594841710767e6 5.41261260290448e6 0.0
5.41261260290448e6 -261784.2522927732 0.0
0.0 0.0 0.0

-518016.24429146 2.3960035568509228e6 0.0
2.3960035568509228e6 43755.39564237345 0.0
0.0 0.0 0.0

-359026.9928049032 5.942405466249234e6 0.0
5.942405466249234e6 -507273.6727294412 0.0
0.0 0.0 0.0

-2.1113113430680833e6 9.79070067713299e6 0.0
9.79070067713299e6 -372858.0585936018 0.0
0.0 0.0 0.0

-1.1938403484749755e7 -734143.9748506023 0.0
-734143.9748506023 8.026130661580451e6 0.0
0.0 0.0 0.0

-4.621556479428508e6 8.267419336691442e6 0.0
8.267419336691442e6 2.4902331070057666e6 0.0
0.0 0.0 0.0

-2.1462333009742172e6 5.300099020731634e6 0.0
5.300099020731634e6 209858.9919392072 0.0
0.0 0.0 0.0

-4.443365691721225e6 6.663918355863245e6 0.0
6.663918355863245e6 1.9874369737597846e6 0.0
0.0 0.0 0.0

-279259.3754631247 1.4239416377620841e6 0.0
1.4239416377620841e6 -306756.2257787067 0.0
0.0 0.0 0.0

-230256.50146798627 8.317390586442386e6 0.0
8.317390586442386e6 -1.1731417128973631e6 0.0
0.0 0.0 0.0

-3.5063444079474993e6 3.8798693330570483e6 0.0
3.8798693330570483e6 926772.3343841876 0.0
0.0 0.0 0.0

-1.3856378008742658e6 5.35477981052503e6 0.0
5.35477981052503e6 -65029.28979526396 0.0
0.0 0.0 0.0

-627410.2279954505 5.411654870281262e6 0.0
5.411654870281262e6 -1.466573036917681e6 0.0
0.0 0.0 0.0

-2.531212406263596e6 4.61067409943527e6 0.0
4.61067409943527e6 513800.6019416974 0.0
0.0 0.0 0.0

-2.957930723873984e6 2.120214115306584e6 0.0
2.120214115306584e6 3.1416761204998055e6 0.0
0.0 0.0 0.0

-4.2861136811002605e6 7.57970663175249e6 0.0
7.57970663175249e6 1.3646875294146922e6 0.0
0.0 0.0 0.0

-3.061719216906375e6 3.9904753823132315e6 0.0
3.9904753823132315e6 200161.41383623844 0.0
0.0 0.0 0.0

-193543.8746121413 7.930343043046119e6 0.0
7.930343043046119e6 -1.0010001393741395e6 0.0
0.0 0.0 0.0

820379.5548823847 4.312326375732219e6 0.0
4.312326375732219e6 -2.3761177610065164e6 0.0
0.0 0.0 0.0

-538914.2368138604 3.5686537173733506e6 0.0
3.5686537173733506e6 -1.8771798736406448e6 0.0
0.0 0.0 0.0

1.2798655389982266e6 2.577258398258621e6 0.0
2.577258398258621e6 -2.3058102667670986e6 0.0
0.0 0.0 0.0

-543459.7996756296 5.899223021582686e6 0.0
5.899223021582686e6 55891.2015217944 0.0
0.0 0.0 0.0

-439283.0124191808 7.259408759170344e6 0.0
7.259408759170344e6 -956672.0259222969 0.0
0.0 0.0 0.0

-1.9245856187752879e6 8.280595720725269e6 0.0
8.280595720725269e6 -143745.37060933321 0.0
0.0 0.0 0.0

-1.4517768218032923e6 2.9528283754583816e6 0.0
2.9528283754583816e6 1.390788381813093e6 0.0
0.0 0.0 0.0

-1.0069254369485375e6 2.4588614010165427e6 0.0
2.4588614010165427e6 -454908.6493677333 0.0
0.0 0.0 0.0

-361098.57577513636 1.156943210905175e6 0.0
1.156943210905175e6 2.0118357151380917e6 0.0
0.0 0.0 0.0

-274521.00176215335 3.9885846889685234e6 0.0
3.9885846889685234e6 -1.9956908007960413e6 0.0
0.0 0.0 0.0

-97677.2734713401 6.33336885925298e6 0.0
6.33336885925298e6 -485900.79512808897 0.0
0.0 0.0 0.0

-2.8596106088187005e6 4.728418401935511e6 0.0
4.728418401935511e6 447698.3912353652 0.0
0.0 0.0 0.0

-789525.8213586032 4.441362333519522e6 0.0
4.441362333519522e6 -1.2192366641927813e6 0.0
0.0 0.0 0.0

1.6476441751376719e6 6.148589741258489e6 0.0
6.148589741258489e6 -3.0677252650187467e6 0.0
0.0 0.0 0.0

-414060.3054951194 2.766741641501216e6 0.0
2.766741641501216e6 430681.9977254027 0.0
0.0 0.0 0.0

-3.9893932445903188e6 4.433348223401637e6 0.0
4.433348223401637e6 -342410.9650097032 0.0
0.0 0.0 0.0

-1.5331821122646567e6 1.4211320297951207e7 0.0
1.4211320297951207e7 -4.654832920852348e6 0.0
0.0 0.0 0.0

-2.3447533750829278e6 4.76886250491359e6 0.0
4.76886250491359e6 524063.49756603653 0.0
0.0 0.0 0.0

-224534.16136596503 3.9117403319626106e6 0.0
3.9117403319626106e6 -1.7085844035219194e6 0.0
0.0 0.0 0.0

-2.269558324371577e6 1.9815431989564763e6 0.0
1.9815431989564763e6 3.392136998924358e6 0.0
0.0 0.0 0.0

-225032.72305690244 209195.65798411847 0.0
209195.65798411847 -13374.588554541457 0.0
0.0 0.0 0.0

-947006.6770513451 6.606297154383461e6 0.0
6.606297154383461e6 -964991.4496942385 0.0
0.0 0.0 0.0

-3.5833120119057605e6 4.983711952357182e6 0.0
4.983711952357182e6 2.212203381536784e6 0.0
0.0 0.0 0.0

-935411.8932215362 4.1605645843851585e6 0.0
4.1605645843851585e6 -610803.0028860013 0.0
0.0 0.0 0.0

-3.755319456843077e6 723763.3182248835 0.0
723763.3182248835 7.17296262804902e6 0.0
0.0 0.0 0.0

-473401.44441363227 5.592744185631222e6 0.0
5.592744185631222e6 -1.7844950451417002e6 0.0
0.0 0.0 0.0

-3.788178534883523e6 4.714622695673066e6 0.0
4.714622695673066e6 2.449425774256355e6 0.0
0.0 0.0 0.0

-729676.608812414 5.455284437543714e6 0.0
5.455284437543714e6 -1.507436073443774e6 0.0
0.0 0.0 0.0

1.5722172805284592e6 3.4864948578010644e6 0.0
3.4864948578010644e6 569474.3777735141 0.0
0.0 0.0 0.0

-2.496420161299031e6 533145.4336363649 0.0
533145.4336363649 4.72019638980505e6 0.0
0.0 0.0 0.0

-664309.1821320599 5.84228599512836e6 0.0
5.84228599512836e6 -1.0548605759653437e6 0.0
0.0 0.0 0.0

-712862.0461053653 5.601139321991037e6 0.0
5.601139321991037e6 -176882.94345842698 0.0
0.0 0.0 0.0

-1.7295654715507822e6 6.576646677811317e6 0.0
6.576646677811317e6 494559.14010408835 0.0
0.0 0.0 0.0

-245778.1654374646 5.765217957862986e6 0.0
5.765217957862986e6 -2.0210525848817574e6 0.0
0.0 0.0 0.0

406176.30726095627 3.184157698592008e6 0.0
3.184157698592008e6 -1.7698877980352945e6 0.0
0.0 0.0 0.0

-443629.6178532787 3.511051877554327e6 0.0
3.511051877554327e6 -2.0427382589652655e6 0.0
0.0 0.0 0.0

-2.10685486467215e6 6.21516249193007e6 0.0
6.21516249193007e6 27518.111645497847 0.0
0.0 0.0 0.0

-2.820348344857227e6 439658.9558428646 0.0
439658.9558428646 3.693396380021544e6 0.0
0.0 0.0 0.0

-2.3451359148398316e6 6.402334194619997e6 0.0
6.402334194619997e6 601320.8579615614 0.0
0.0 0.0 0.0

-738446.5813088103 4.0113964239871814e6 0.0
4.0113964239871814e6 -678902.5454842497 0.0
0.0 0.0 0.0

-134190.82648132078 3.6976407881716317e6 0.0
3.6976407881716317e6 -2.0716905405758107e6 0.0
0.0 0.0 0.0

-1.6394446941443086e6 1.7902535259628547e6 0.0
1.7902535259628547e6 3.389905355894277e6 0.0
0.0 0.0 0.0

-113460.43687560248 6.163085518466075e6 0.0
6.163085518466075e6 -546102.9442373347 0.0
0.0 0.0 0.0

-559941.7237076187 3.8793327749890275e6 0.0
3.8793327749890275e6 -1.9623562094539297e6 0.0
0.0 0.0 0.0

549848.6742204813 5.686153017850182e6 0.0
5.686153017850182e6 -2.1849669350002017e6 0.0
0.0 0.0 0.0

-1.895166480084894e6 4.0817570180191803e6 0.0
4.0817570180191803e6 1.1806652650306746e6 0.0
0.0 0.0 0.0

-3.5158692273135185e6 4.9476093939342415e6 0.0
4.9476093939342415e6 2.519082782823252e6 0.0
0.0 0.0 0.0

-347076.1051356314 3.7952469693419007e6 0.0
3.7952469693419007e6 -1.3336027533263543e6 0.0
0.0 0.0 0.0

-309997.8966402594 1.1287087771398863e6 0.0
1.1287087771398863e6 -16352.3058845029 0.0
0.0 0.0 0.0

228281.63482205928 1.205512848227443e6 0.0
1.205512848227443e6 -337409.24619794975 0.0
0.0 0.0 0.0

-1.7574759028933335e6 3.536466523128052e6 0.0
3.536466523128052e6 1.0411188661755411e6 0.0
0.0 0.0 0.0

1.3555441516587047e6 4.155182019967652e6 0.0
4.155182019967652e6 -698472.9204902702 0.0
0.0 0.0 0.0

671981.996511548 3.146485317262242e6 0.0
3.146485317262242e6 824465.8244539357 0.0
0.0 0.0 0.0

-3.494145612989803e6 7.186233343728129e6 0.0
7.186233343728129e6 1.714149142614469e6 0.0
0.0 0.0 0.0

-256619.2706818551 4.1353884109178493e6 0.0
4.1353884109178493e6 -1.8282759261656166e6 0.0
0.0 0.0 0.0

-3.114243393934715e6 6.201592915429694e6 0.0
6.201592915429694e6 1.2710463471292278e6 0.0
0.0 0.0 0.0

-3.8903849702722016e6 3.5614205001563514e6 0.0
3.5614205001563514e6 2.7369816398134455e6 0.0
0.0 0.0 0.0

-604194.8489050076 3.409702258265423e6 0.0
3.409702258265423e6 -2.1040446184217986e6 0.0
0.0 0.0 0.0

1.3666125255290105e6 557357.800397905 0.0
557357.800397905 -2.108106284185945e6 0.0
0.0 0.0 0.0

-451607.0311670257 1.9108179060259594e6 0.0
1.9108179060259594e6 -462429.5031562805 0.0
0.0 0.0 0.0

-172218.26223128146 6.0734980569337215e6 0.0
6.0734980569337215e6 -495394.96484945103 0.0
0.0 0.0 0.0

-529937.3510212265 3.38595825190335e6 0.0
3.38595825190335e6 1.7155612126979658e6 0.0
0.0 0.0 0.0

-304751.6552642076 3.5439237972475397e6 0.0
3.5439237972475397e6 -1.262669482332457e6 0.0
0.0 0.0 0.0

-1.8572884212923744e6 3.5980713630938753e6 0.0
3.5980713630938753e6 922985.9042639465 0.0
0.0 0.0 0.0

-4.7670718910338655e6 -763289.8333918909 0.0
-763289.8333918909 2.5859201745224274e6 0.0
0.0 0.0 0.0

-280614.36071906786 5.920635953687868e6 0.0
5.920635953687868e6 -648611.1265126625 0.0
0.0 0.0 0.0

1.4491342010650774e6 4.257213351296131e6 0.0
4.257213351296131e6 -2.2747793970299214e6 0.0
0.0 0.0 0.0

-2.8546592895277343e6 4.505277398589709e6 0.0
4.505277398589709e6 395918.8779852872 0.0
0.0 0.0 0.0

-211233.37063523347 518.2592288348118 0.0
518.2592288348118 164475.5383378566 0.0
0.0 0.0 0.0

-1.0828896546552908e6 5.185614873100184e6 0.0
5.185614873100184e6 804061.7040555279 0.0
0.0 0.0 0.0

-2.828776145084975e6 4.41668195426585e6 0.0
4.41668195426585e6 3.8308508457747893e6 0.0
0.0 0.0 0.0

-3.5145449325878457e6 4.535975004274626e6 0.0
4.535975004274626e6 2.43559157529584e6 0.0
0.0 0.0 0.0

-490652.2597197634 3.5831679085342204e6 0.0
3.5831679085342204e6 -1.7639030429035416e6 0.0
0.0 0.0 0.0

649922.7160885162 3.518319275229132e6 0.0
3.518319275229132e6 579098.121532935 0.0
0.0 0.0 0.0

-646361.035229267 3.845157921906067e6 0.0
3.845157921906067e6 -1.4947846495522514e6 0.0
0.0 0.0 0.0

-197727.47655508725 5.852915626640647e6 0.0
5.852915626640647e6 -578985.3121220517 0.0
0.0 0.0 0.0

-2.308789809275587e6 4.131942030201549e6 0.0
4.131942030201549e6 1.8890810801360332e6 0.0
0.0 0.0 0.0

-1.1350401864134627e6 5.521359997119405e6 0.0
5.521359997119405e6 95977.716215669 0.0
0.0 0.0 0.0

-888801.659325551 5.503356907888612e6 0.0
5.503356907888612e6 -295928.12499344157 0.0
0.0 0.0 0.0

391006.0532743215 5.900813812274661e6 0.0
5.900813812274661e6 -1.8991601009094217e6 0.0
0.0 0.0 0.0

-3.6621373080147617e6 5.250114717093531e6 0.0
5.250114717093531e6 1.348325032937323e6 0.0
0.0 0.0 0.0

-1.1148840456780558e6 3.367136927714656e6 0.0
3.367136927714656e6 1.3098750403290514e6 0.0
0.0 0.0 0.0

2.5635619820900704e6 4.736320550588295e6 0.0
4.736320550588295e6 106799.3541780368 0.0
0.0 0.0 0.0

-2.4833679280831693e6 4.839930823954261e6 0.0
4.839930823954261e6 464436.03822980344 0.0
0.0 0.0 0.0

402785.0801697646 5.459237204337812e6 0.0
5.459237204337812e6 -1.9186404246869318e6 0.0
0.0 0.0 0.0

-1.831385907294135e6 3.5030153641475737e6 0.0
3.5030153641475737e6 458355.55272236024 0.0
0.0 0.0 0.0

1.459714836008149e6 5.282626521411932e6 0.0
5.282626521411932e6 -976085.8909429791 0.0
0.0 0.0 0.0

2.876815094612332e6 7.260962372671372e6 0.0
7.260962372671372e6 -1.1263668380832572e6 0.0
0.0 0.0 0.0

-3.3720464273315985e6 3.939111463571858e6 0.0
3.939111463571858e6 741704.7355075334 0.0
0.0 0.0 0.0

-710057.5868800906 6.022791307640448e6 0.0
6.022791307640448e6 -1.1353222925462956e6 0.0
0.0 0.0 0.0

3242.040335730737 2.5609951498740898e6 0.0
2.5609951498740898e6 -411333.188000075 0.0
0.0 0.0 0.0

-475801.9987991337 303064.29562248726 0.0
303064.29562248726 157755.6588817505 0.0
0.0 0.0 0.0

-77983.48074114064 6.089544112542703e6 0.0
6.089544112542703e6 -570243.6922836459 0.0
0.0 0.0 0.0

-2.1521205234285174e6 3.072982708829531e6 0.0
3.072982708829531e6 4.290952752474085e6 0.0
0.0 0.0 0.0

-173463.43219474767 2.1903454716114337e6 0.0
2.1903454716114337e6 146336.83641403838 0.0
0.0 0.0 0.0

-1.6503629575619078e6 2.317540936602463e6 0.0
2.317540936602463e6 87470.23691474448 0.0
0.0 0.0 0.0

-1.835805928270032e6 4.373143006353561e6 0.0
4.373143006353561e6 1.253860929526619e6 0.0
0.0 0.0 0.0

-463654.178655884 3.4744809710790543e6 0.0
3.4744809710790543e6 -1.8173252386414516e6 0.0
0.0 0.0 0.0

-3.393698777318961e6 4.8449440539298905e6 0.0
4.8449440539298905e6 1.5176099168691223e6 0.0
0.0 0.0 0.0

-2.2989635737353824e6 7.11079269315775e6 0.0
7.11079269315775e6 169795.75546123972 0.0
0.0 0.0 0.0

-5.592921520841258e6 7.856863329508205e6 0.0
7.856863329508205e6 1.847879768428997e6 0.0
0.0 0.0 0.0

-5.19707648290156e6 2.9466816141989254e6 0.0
2.9466816141989254e6 1.185622465759893e6 0.0
0.0 0.0 0.0

-136906.36846370678 6.303879193937742e6 0.0
6.303879193937742e6 -223877.69798160624 0.0
0.0 0.0 0.0

-410409.8048196507 4.447819620303846e6 0.0
4.447819620303846e6 -1.8558591074611521e6 0.0
0.0 0.0 0.0

279192.20293015416 583848.2642130919 0.0
583848.2642130919 -846409.2467173846 0.0
0.0 0.0 0.0

-273434.6796010995 4.778019401016258e6 0.0
4.778019401016258e6 -1.7681027348774958e6 0.0
0.0 0.0 0.0

-411327.7524470132 4.26563526567956e6 0.0
4.26563526567956e6 -1.8479511084755512e6 0.0
0.0 0.0 0.0

-286353.2925110399 6.138318903403767e6 0.0
6.138318903403767e6 -189344.21577117709 0.0
0.0 0.0 0.0

-465859.362068768 4.0958002133882227e6 0.0
4.0958002133882227e6 -1.9201977860316134e6 0.0
0.0 0.0 0.0

-320326.5632039837 4.403674556141808e6 0.0
4.403674556141808e6 -2.040506829317364e6 0.0
0.0 0.0 0.0

-349751.6979142104 3.776127613220611e6 0.0
3.776127613220611e6 2.219803476899622e6 0.0
0.0 0.0 0.0

-1.779262594733414e6 3.5748281059160996e6 0.0
3.5748281059160996e6 1.7139689486955635e6 0.0
0.0 0.0 0.0

-203123.4850463 5.523933790644784e6 0.0
5.523933790644784e6 -2.152941072210245e6 0.0
0.0 0.0 0.0

-57782.03210633117 6.069436570740903e6 0.0
6.069436570740903e6 -555678.2770006675 0.0
0.0 0.0 0.0

-3.426087989467833e6 4.231179746998325e6 0.0
4.231179746998325e6 2.5056133506859327e6 0.0
0.0 0.0 0.0

-195182.28364266106 6.173266667381695e6 0.0
6.173266667381695e6 -592785.6789590915 0.0
0.0 0.0 0.0

2.0532724026204548e6 2.913517661814143e6 0.0
2.913517661814143e6 -3.120436165738657e6 0.0
0.0 0.0 0.0

-2.9604424576641917e6 3.610694179724398e6 0.0
3.610694179724398e6 1.101911571906645e6 0.0
0.0 0.0 0.0

-3.069295025164048e6 3.930612217384756e6 0.0
3.930612217384756e6 950284.8882651904 0.0
0.0 0.0 0.0

-1.7533434330879627e6 1.5390733775106522e6 0.0
1.5390733775106522e6 2.488865297874849e6 0.0
0.0 0.0 0.0

-101558.52368854574 4.098592882987827e6 0.0
4.098592882987827e6 -1.088632257537142e6 0.0
0.0 0.0 0.0

-2.1041500242335238e6 4.456990770789445e6 0.0
4.456990770789445e6 2.670509680159738e6 0.0
0.0 0.0 0.0

-4.053417848388328e6 3.765644721637197e6 0.0
3.765644721637197e6 1.1951412537925926e6 0.0
0.0 0.0 0.0

-1.8305977781923115e6 3.6691584031588933e6 0.0
3.6691584031588933e6 1.31280575604367e6 0.0
0.0 0.0 0.0

103924.86392086069 452561.88147318433 0.0
452561.88147318433 -563785.6470927472 0.0
0.0 0.0 0.0

-3.113896916676543e6 3.9635709774212996e6 0.0
3.9635709774212996e6 830721.1656337313 0.0
0.0 0.0 0.0

-2.714399740482995e6 3.982902414309875e6 0.0
3.982902414309875e6 1.0434582214591224e6 0.0
0.0 0.0 0.0

-2.0342985566467042e6 3.247321857372927e6 0.0
3.247321857372927e6 670020.5720555421 0.0
0.0 0.0 0.0

-3.3686424104106477e6 5.102830683104682e6 0.0
5.102830683104682e6 1.4271691959949723e6 0.0
0.0 0.0 0.0

-3.3349606382539878e6 4.838782874559548e6 0.0
4.838782874559548e6 1.2959979128549008e6 0.0
0.0 0.0 0.0

-662257.3572347744 5.3453093372645695e6 0.0
5.3453093372645695e6 890493.7645043498 0.0
0.0 0.0 0.0

-40192.52459321345 3.81085339240907e6 0.0
3.81085339240907e6 -133974.9932308703 0.0
0.0 0.0 0.0

-99345.91160019493 5.86000114196332e6 0.0
5.86000114196332e6 -1.8683550846309944e6 0.0
0.0 0.0 0.0

-427638.4734152268 5.022420043034981e6 0.0
5.022420043034981e6 -2.0082627935817183e6 0.0
0.0 0.0 0.0

-1.211137769213794e6 5.463682455820911e6 0.0
5.463682455820911e6 -126700.0374499085 0.0
0.0 0.0 0.0

-7.542748708302686e6 8.237097982646016e6 0.0
8.237097982646016e6 580457.6793814423 0.0
0.0 0.0 0.0

-388274.3713223558 4.3786780891837515e6 0.0
4.3786780891837515e6 -2.0789761875417207e6 0.0
0.0 0.0 0.0

-4.301472915752625e6 7.823991053127669e6 0.0
7.823991053127669e6 -1.2550110074882954e6 0.0
0.0 0.0 0.0

-1.5390905118653344e6 5.1941276001832895e6 0.0
5.1941276001832895e6 162629.16270718718 0.0
0.0 0.0 0.0

-194609.8371823812 -845158.6367317413 0.0
-845158.6367317413 617270.2236697375 0.0
0.0 0.0 0.0

-2.4747930252106125e6 6.399099134216542e6 0.0
6.399099134216542e6 446061.96601927746 0.0
0.0 0.0 0.0

-4.458174728404676e6 6.669333817305174e6 0.0
6.669333817305174e6 1.5482629251101841e6 0.0
0.0 0.0 0.0

-768378.4889616827 6.063831222901694e6 0.0
6.063831222901694e6 -1.060036938847269e6 0.0
0.0 0.0 0.0

-3.0223290553470748e6 4.461201044118361e6 0.0
4.461201044118361e6 475985.6748689363 0.0
0.0 0.0 0.0

-343426.6229750482 2.3104865903570587e6 0.0
2.3104865903570587e6 18108.369786761497 0.0
0.0 0.0 0.0

-489227.98254629376 4.1895517984229885e6 0.0
4.1895517984229885e6 -2.086518237907031e6 0.0
0.0 0.0 0.0

-3.056987074290602e6 4.480820247985251e6 0.0
4.480820247985251e6 392812.0823028241 0.0
0.0 0.0 0.0

-111941.72053413292 5.843005946851185e6 0.0
5.843005946851185e6 -612361.8354722098 0.0
0.0 0.0 0.0

-182267.55253433305 2.5486904645593455e6 0.0
2.5486904645593455e6 -452203.3865483506 0.0
0.0 0.0 0.0

-1.0398127266458346e6 4.068352063206179e6 0.0
4.068352063206179e6 -726041.743115421 0.0
0.0 0.0 0.0

-1.4149879076299868e6 6.218056343119048e6 0.0
6.218056343119048e6 247170.16918441845 0.0
0.0 0.0 0.0

-3.487826879732727e6 -1.3071760318938433e6 0.0
-1.3071760318938433e6 3.3765861792497463e6 0.0
0.0 0.0 0.0

-2.5028067195952665e6 4.728868743961267e6 0.0
4.728868743961267e6 542627.3860985847 0.0
0.0 0.0 0.0

-703262.0325127135 5.686344300825582e6 0.0
5.686344300825582e6 -1.2450012349027891e6 0.0
0.0 0.0 0.0

-304347.8768956757 6.092178630914173e6 0.0
6.092178630914173e6 -1.8182853557890202e6 0.0
0.0 0.0 0.0

1.3242412811999305e6 1.052603681874305e6 0.0
1.052603681874305e6 -1.853919088728653e6 0.0
0.0 0.0 0.0

-674484.9712515562 6.078315387268875e6 0.0
6.078315387268875e6 -1.2955733149686316e6 0.0
0.0 0.0 0.0

-2.9958164762160373e6 6.951882168595016e6 0.0
6.951882168595016e6 -130330.24159957166 0.0
0.0 0.0 0.0

-4.176769966807477e6 7.6360745217305e6 0.0
7.6360745217305e6 2.3353309429785684e6 0.0
0.0 0.0 0.0

-833249.278069977 5.237980794140565e6 0.0
5.237980794140565e6 1.214265680181644e6 0.0
0.0 0.0 0.0

-2045.6218804160599 4.187068258014522e6 0.0
4.187068258014522e6 -487241.8917997018 0.0
0.0 0.0 0.0

-146875.05549154116 6.136164885677896e6 0.0
6.136164885677896e6 -403511.60088709986 0.0
0.0 0.0 0.0

211873.2018200275 5.136691585642856e6 0.0
5.136691585642856e6 706243.9635696473 0.0
0.0 0.0 0.0

-2.197201522704961e6 1.5078877489422169e6 0.0
1.5078877489422169e6 2.901123402075098e6 0.0
0.0 0.0 0.0

-604942.78396521 3.7718748302720496e6 0.0
3.7718748302720496e6 -1.838984088773234e6 0.0
0.0 0.0 0.0

-4.410129371497598e6 3.242457188816758e6 0.0
3.242457188816758e6 -442563.38065402047 0.0
0.0 0.0 0.0

-126893.94664015711 1.9519823266265949e6 0.0
1.9519823266265949e6 199261.46077729203 0.0
0.0 0.0 0.0

-175734.7634433427 -850718.8807540261 0.0
-850718.8807540261 1.0172091665776465e6 0.0
0.0 0.0 0.0

-493785.87326375395 4.495351755796659e6 0.0
4.495351755796659e6 -1.489741237924554e6 0.0
0.0 0.0 0.0

-614302.2522687191 99737.74152920298 0.0
99737.74152920298 -147277.0267893539 0.0
0.0 0.0 0.0

-205306.18196778 3.398478175598154e6 0.0
3.398478175598154e6 -2.0561145942503992e6 0.0
0.0 0.0 0.0

-3.1775577464263295e6 962034.8233069164 0.0
962034.8233069164 4.1920080630301144e6 0.0
0.0 0.0 0.0

-511325.7657004953 4.0919000049802097e6 0.0
4.0919000049802097e6 -2.0009294238427347e6 0.0
0.0 0.0 0.0

-61075.719653644774 590163.5143094298 0.0
590163.5143094298 86102.21086050305 0.0
0.0 0.0 0.0

-2.8384995016414486e6 3.831340300863273e6 0.0
3.831340300863273e6 932937.7728312694 0.0
0.0 0.0 0.0

-1.3556578340017376e6 6.540261206297268e6 0.0
6.540261206297268e6 224911.2704975088 0.0
0.0 0.0 0.0

-3.374555498947085e6 3.878192302012916e6 0.0
3.878192302012916e6 1.0829078515787914e6 0.0
0.0 0.0 0.0

-5.629043330193785e6 7.044697175320366e6 0.0
7.044697175320366e6 2.2786150992580624e6 0.0
0.0 0.0 0.0

-4.284361032613263e6 5.946589480489824e6 0.0
5.946589480489824e6 1.557571524707035e6 0.0
0.0 0.0 0.0

-262981.7823827877 417391.04140401236 0.0
417391.04140401236 -359802.51919807616 0.0
0.0 0.0 0.0

453311.8166622025 4.939189201710259e6 0.0
4.939189201710259e6 -1.848389171474457e6 0.0
0.0 0.0 0.0

-737877.2063553471 6.096787294882044e6 0.0
6.096787294882044e6 -974919.6152586769 0.0
0.0 0.0 0.0

-1.0345890040400177e6 5.053870307938118e6 0.0
5.053870307938118e6 -342063.83411283896 0.0
0.0 0.0 0.0

-497172.6340251355 6.022202238286872e6 0.0
6.022202238286872e6 -1.704420781439534e6 0.0
0.0 0.0 0.0

-323758.3113629513 4.431857301212519e6 0.0
4.431857301212519e6 -1.8884412410186927e6 0.0
0.0 0.0 0.0

-147763.4323313831 6.338008998303668e6 0.0
6.338008998303668e6 -492544.7994350199 0.0
0.0 0.0 0.0

-2.1964911062898394e6 4.320825425729785e6 0.0
4.320825425729785e6 719466.6088345097 0.0
0.0 0.0 0.0

-2.430805704525764e6 4.754009880225954e6 0.0
4.754009880225954e6 478157.69246904494 0.0
0.0 0.0 0.0

-428670.04650973354 4.147620737927034e6 0.0
4.147620737927034e6 -1.790770528899035e6 0.0
0.0 0.0 0.0

-1.3807611481147038e6 2.256409739547414e6 0.0
2.256409739547414e6 96464.0626573441 0.0
0.0 0.0 0.0

532573.7490515542 5.668411715530297e6 0.0
5.668411715530297e6 -2.0721206202120443e6 0.0
0.0 0.0 0.0

-761626.1452302511 6.335972458598034e6 0.0
6.335972458598034e6 -1.0005793924852188e6 0.0
0.0 0.0 0.0

-189714.76195647026 5.849333612819506e6 0.0
5.849333612819506e6 -1.8720246499061852e6 0.0
0.0 0.0 0.0

-905633.0147104457 2.142741795834843e6 0.0
2.142741795834843e6 -204489.33607184392 0.0
0.0 0.0 0.0

-1.2177684832474464e6 1.986293822923185e6 0.0
1.986293822923185e6 -301630.9726035795 0.0
0.0 0.0 0.0

585925.0417380171 319675.4609272686 0.0
319675.4609272686 -1.4951870263676452e6 0.0
0.0 0.0 0.0

-2.6907122807508186e6 3.5559102332153777e6 0.0
3.5559102332153777e6 1.035416309176426e6 0.0
0.0 0.0 0.0

-760149.4788068315 5.640517194603073e6 0.0
5.640517194603073e6 -1.4285090023576515e6 0.0
0.0 0.0 0.0

-87086.15475994046 3.560971032245857e6 0.0
3.560971032245857e6 -2.0058567042827806e6 0.0
0.0 0.0 0.0

-1.9959961509492386e6 6.127792804162467e6 0.0
6.127792804162467e6 368550.9681008097 0.0
0.0 0.0 0.0

-6.039062623080302e6 7.161506227295479e6 0.0
7.161506227295479e6 1.7696453268500674e6 0.0
0.0 0.0 0.0

-3.276446827777142e6 4.637581655196374e6 0.0
4.637581655196374e6 262148.68455554754 0.0
0.0 0.0 0.0

-3.600156602219306e6 5.507677948768369e6 0.0
5.507677948768369e6 2.075422522451076e6 0.0
0.0 0.0 0.0

-578576.0926400742 3.542609374164251e6 0.0
3.542609374164251e6 -1.9133870601405588e6 0.0
0.0 0.0 0.0

-571166.4556715996 4.617092882255443e6 0.0
4.617092882255443e6 -1.9038881668521625e6 0.0
0.0 0.0 0.0

-4.979201297384091e6 6.957730925567761e6 0.0
6.957730925567761e6 1.4659784665407494e6 0.0
0.0 0.0 0.0

-564255.8055836906 4.951577894443586e6 0.0
4.951577894443586e6 -1.8808526884864892e6 0.0
0.0 0.0 0.0

-1.6930715307539506e6 3.7639032215183713e6 0.0
3.7639032215183713e6 1.4072247947921213e6 0.0
0.0 0.0 0.0

335641.7974706375 739450.8130027148 0.0
739450.8130027148 -1.1140984982066911e6 0.0
0.0 0.0 0.0

-2.6128775241760826e6 4.111707559305252e6 0.0
4.111707559305252e6 751107.2506871368 0.0
0.0 0.0 0.0

-1.985600504382722e6 4.0429166177679733e6 0.0
4.0429166177679733e6 882101.2678386928 0.0
0.0 0.0 0.0

-103323.08467800888 522460.3277765604 0.0
522460.3277765604 -385569.86529680545 0.0
0.0 0.0 0.0

-500075.5827317928 5.627932996465211e6 0.0
5.627932996465211e6 -1.8328269689774148e6 0.0
0.0 0.0 0.0

-2.9367061436804235e6 3.628000818617137e6 0.0
3.628000818617137e6 1.0966649299035666e6 0.0
0.0 0.0 0.0

-171107.8640702524 6.044024291877491e6 0.0
6.044024291877491e6 -268265.64253646525 0.0
0.0 0.0 0.0

-2.3927422683563484e6 4.4671121333852615e6 0.0
4.4671121333852615e6 697344.6811496735 0.0
0.0 0.0 0.0

-5.564426733408667e6 5.44608110524246e6 0.0
5.44608110524246e6 2.9235752319244402e6 0.0
0.0 0.0 0.0

-556830.4888896011 4.716661669880979e6 0.0
4.716661669880979e6 -1.856101694315159e6 0.0
0.0 0.0 0.0

-3.694992224180671e6 4.79351000617668e6 0.0
4.79351000617668e6 3.505778931301376e6 0.0
0.0 0.0 0.0

-3.6644137819460128e6 5.339289017803017e6 0.0
5.339289017803017e6 -809645.9230582955 0.0
0.0 0.0 0.0

167542.4176770384 2.6212058172188303e6 0.0
2.6212058172188303e6 -558131.6828351985 0.0
0.0 0.0 0.0

-4.90662125997082e6 129650.68769425181 0.0
129650.68769425181 6.365669392660877e6 0.0
0.0 0.0 0.0

-1.6327857603738413e6 5.162044484573079e6 0.0
5.162044484573079e6 781783.956818507 0.0
0.0 0.0 0.0

-4.0455961118589174e6 6.706851440677597e6 0.0
6.706851440677597e6 1.2912705296720883e6 0.0
0.0 0.0 0.0

-156474.24780839265 6.199719943603266e6 0.0
6.199719943603266e6 -521580.9229565172 0.0
0.0 0.0 0.0

-222307.16185661114 4.323458956042745e6 0.0
4.323458956042745e6 2.1075155042152987e6 0.0
0.0 0.0 0.0

-4.390949397293799e6 5.408904265373216e6 0.0
5.408904265373216e6 2.4557330184737914e6 0.0
0.0 0.0 0.0

-2.618259845812677e6 7.227572436650314e6 0.0
7.227572436650314e6 666148.1980617775 0.0
0.0 0.0 0.0

-1.0251873222793823e6 6.678572868044146e6 0.0
6.678572868044146e6 1.0503603037851676e6 0.0
0.0 0.0 0.0

123191.66020198271 3.647912944130251e6 0.0
3.647912944130251e6 -2.0426168974774668e6 0.0
0.0 0.0 0.0

-2.3711136414857735e6 4.829963082957565e6 0.0
4.829963082957565e6 490962.68495575606 0.0
0.0 0.0 0.0

-94085.3370201874 6.428473766383491e6 0.0
6.428473766383491e6 -254030.42595664706 0.0
0.0 0.0 0.0

-597029.7908984963 5.026881348868656e6 0.0
5.026881348868656e6 -1.9900993492078197e6 0.0
0.0 0.0 0.0

-1.5538306101673478e6 5.815386532313662e6 0.0
5.815386532313662e6 -102192.94146385998 0.0
0.0 0.0 0.0

389517.56482877245 4.426969346771149e6 0.0
4.426969346771149e6 -2.0415502629645898e6 0.0
0.0 0.0 0.0

-1.1984305022596696e6 4.337086218361304e6 0.0
4.337086218361304e6 -326434.90974423586 0.0
0.0 0.0 0.0

-653096.2202840664 7.2665658096525995e6 0.0
7.2665658096525995e6 -725425.1739779443 0.0
0.0 0.0 0.0

1.1161337777658154e6 8.528807591749568e6 0.0
8.528807591749568e6 -2.9538471280692993e6 0.0
0.0 0.0 0.0

-1.3584270973402348e6 3.196218932570872e6 0.0
3.196218932570872e6 1.0636586653394613e6 0.0
0.0 0.0 0.0

-1.8031465707688811e6 1.9162033649734927e6 0.0
1.9162033649734927e6 2.2575990745521393e6 0.0
0.0 0.0 0.0

-3.4977088028032947e6 5.43935350498172e6 0.0
5.43935350498172e6 2.2175070404444924e6 0.0
0.0 0.0 0.0

-2.621144126604765e6 4.1139506062422264e6 0.0
4.1139506062422264e6 910307.1766691266 0.0
0.0 0.0 0.0

-568055.5761961396 -414239.8939641986 0.0
-414239.8939641986 1.5757881723685232e6 0.0
0.0 0.0 0.0

-759365.5564493584 5.830727298464647e6 0.0
5.830727298464647e6 354104.7277124487 0.0
0.0 0.0 0.0

-2.5624332687423904e6 4.698957280028862e6 0.0
4.698957280028862e6 465310.7415679714 0.0
0.0 0.0 0.0

314698.61328053824 1.967746372393131e6 0.0
1.967746372393131e6 -3.583568525134092e6 0.0
0.0 0.0 0.0

-2.8723818781798356e6 3.5801520997130093e6 0.0
3.5801520997130093e6 4.506194222766711e6 0.0
0.0 0.0 0.0

-2.9570209816278066e6 5.928846259342379e6 0.0
5.928846259342379e6 -1.2340755761458664e6 0.0
0.0 0.0 0.0

-117159.42502884699 6.306573028999127e6 0.0
6.306573028999127e6 -496306.8939770499 0.0
0.0 0.0 0.0

1.1787921869852936e6 4.610733280732152e6 0.0
4.610733280732152e6 -1.720129411097829e6 0.0
0.0 0.0 0.0

-5.833542777670828e6 3.6466317795089004e6 0.0
3.6466317795089004e6 8.606288021490058e6 0.0
0.0 0.0 0.0

-1.1414834818994184e6 5.830895505315055e6 0.0
5.830895505315055e6 -38571.99339108338 0.0
0.0 0.0 0.0

-534315.5177542428 9.795809945022618e6 0.0
9.795809945022618e6 -5775.0181327075115 0.0
0.0 0.0 0.0

-561963.8929746049 4.24416997903341e6 0.0
4.24416997903341e6 -1.873212984094542e6 0.0
0.0 0.0 0.0

-1.6229255190195446e6 3.509539161432728e6 0.0
3.509539161432728e6 220172.80439373082 0.0
0.0 0.0 0.0

86511.30934680346 1.5357622613059997e6 0.0
1.5357622613059997e6 -3.1289722563648554e6 0.0
0.0 0.0 0.0

-438515.7232151399 3.4547812096855314e6 0.0
3.4547812096855314e6 -1.8410810487124661e6 0.0
0.0 0.0 0.0

-972623.0712311534 4.925019905341572e6 0.0
4.925019905341572e6 -479734.9633190817 0.0
0.0 0.0 0.0

173373.49325038245 3.424326365006169e6 0.0
3.424326365006169e6 1.2851339598461427e6 0.0
0.0 0.0 0.0

-3.3402296946837837e6 4.1695284170245253e6 0.0
4.1695284170245253e6 2.2337228767274506e6 0.0
0.0 0.0 0.0

-732914.8734162438 7.219818504566106e6 0.0
7.219818504566106e6 -819040.9148931901 0.0
0.0 0.0 0.0

-242782.13410035102 -922517.4565421721 0.0
-922517.4565421721 3.8420053861304275e6 0.0
0.0 0.0 0.0

-1.2300071264958037e6 589313.874260775 0.0
589313.874260775 1.9884532158283368e6 0.0
0.0 0.0 0.0

-166120.1849366484 7.901285235222422e6 0.0
7.901285235222422e6 -1.1004903505695204e6 0.0
0.0 0.0 0.0

-198107.24426844277 6.098604677979399e6 0.0
6.098604677979399e6 -590977.8137723048 0.0
0.0 0.0 0.0

3.585104586042689e6 6.865870024536385e6 0.0
6.865870024536385e6 -262355.8686660093 0.0
0.0 0.0 0.0

71369.47511704791 365118.02171559836 0.0
365118.02171559836 -327108.2317312177 0.0
0.0 0.0 0.0

-3.7492414101076135e6 7.298357861029705e6 0.0
7.298357861029705e6 513683.44707603194 0.0
0.0 0.0 0.0

-4.7004719901180705e6 2.361489813041258e6 0.0
2.361489813041258e6 4.581983454651682e6 0.0
0.0 0.0 0.0

-4.517783914493944e6 8.115133324481262e6 0.0
8.115133324481262e6 1.4907596692530555e6 0.0
0.0 0.0 0.0

2.009902088394281e6 4.975613200016341e6 0.0
4.975613200016341e6 -309819.26592338004 0.0
0.0 0.0 0.0

-5.663247261638479e6 -1.2734049134306621e6 0.0
-1.2734049134306621e6 7.205283013322731e6 0.0
0.0 0.0 0.0

-1.4212578089285865e6 2.2906937477639075e6 0.0
2.2906937477639075e6 115579.66935234895 0.0
0.0 0.0 0.0

-4.599074699553675e6 6.706527753352426e6 0.0
6.706527753352426e6 3.1793506621663896e6 0.0
0.0 0.0 0.0

-2.419280076839366e6 4.641859275043887e6 0.0
4.641859275043887e6 609445.8161887078 0.0
0.0 0.0 0.0

-912600.323776979 5.538338886964108e6 0.0
5.538338886964108e6 -669725.8849338305 0.0
0.0 0.0 0.0

-202668.11986125968 6.790452295866722e6 0.0
6.790452295866722e6 -1.294804579500843e6 0.0
0.0 0.0 0.0

-458552.7564235599 6.224662553753367e6 0.0
6.224662553753367e6 452382.56754041836 0.0
0.0 0.0 0.0

-279688.04602750734 4.684022442639064e6 0.0
4.684022442639064e6 -1.7945123898444744e6 0.0
0.0 0.0 0.0

-512298.19930804934 4.377622891264117e6 0.0
4.377622891264117e6 -2.0383786309157037e6 0.0
0.0 0.0 0.0

-444798.2596345583 1.8890220592143666e6 0.0
1.8890220592143666e6 395094.30333736644 0.0
0.0 0.0 0.0

-2.592769612423817e6 8.611715718630577e6 0.0
8.611715718630577e6 68622.43054819561 0.0
0.0 0.0 0.0

-589092.6025788801 4.3958056323481705e6 0.0
4.3958056323481705e6 -1.9636420462101868e6 0.0
0.0 0.0 0.0

-1.2927160349417492e6 4.1601889710433464e6 0.0
4.1601889710433464e6 2.573436984185486e6 0.0
0.0 0.0 0.0

-858801.07001405 4.644304129810749e6 0.0
4.644304129810749e6 -1.1335460860771863e6 0.0
0.0 0.0 0.0

-2.3377118705270477e6 4.0466889516633847e6 0.0
4.0466889516633847e6 858612.5336319406 0.0
0.0 0.0 0.0

-354590.2712335924 3.7655821501146997e6 0.0
3.7655821501146997e6 -1.8152602707197142e6 0.0
0.0 0.0 0.0

-5.674109516927115e6 -704335.2848939416 0.0
-704335.2848939416 2.9131666411528084e6 0.0
0.0 0.0 0.0

297060.3638619673 767137.5008757447 0.0
767137.5008757447 -856844.0014291188 0.0
0.0 0.0 0.0

-1.5627015449602092e6 3.534031327097849e6 0.0
3.534031327097849e6 1.3805167974595628e6 0.0
0.0 0.0 0.0

-320459.0226256063 4.110934074874505e6 0.0
4.110934074874505e6 -1.641027416960068e6 0.0
0.0 0.0 0.0

-1.5765423245387564e6 3.428634563108429e6 0.0
3.428634563108429e6 -215433.8384129156 0.0
0.0 0.0 0.0

-1.2850739158685382e6 3.20202797200091e6 0.0
3.20202797200091e6 -121110.99718484556 0.0
0.0 0.0 0.0

-1.6329331152492904e6 2.2807604065465606e6 0.0
2.2807604065465606e6 81904.12690964912 0.0
0.0 0.0 0.0

438872.8097135416 9.44168202816944e6 0.0
9.44168202816944e6 -1.4151872278328398e6 0.0
0.0 0.0 0.0

-3.416263308619804e6 4.0529784222755395e6 0.0
4.0529784222755395e6 596355.2046231967 0.0
0.0 0.0 0.0

-535437.4451945133 7.723139149167243e6 0.0
7.723139149167243e6 -779124.6133458238 0.0
0.0 0.0 0.0

-1.53151923632212e6 5.820391246643094e6 0.0
5.820391246643094e6 124719.41829561774 0.0
0.0 0.0 0.0

-3.6486188239289722e6 3.882022517233611e6 0.0
3.882022517233611e6 1.0911678821379493e6 0.0
0.0 0.0 0.0

-1.8089981794474686e6 3.7086171196044697e6 0.0
3.7086171196044697e6 1.0860586311406451e6 0.0
0.0 0.0 0.0

56886.904446042434 886622.8335154871 0.0
886622.8335154871 -1.3986203754903632e6 0.0
0.0 0.0 0.0

-728627.0959876698 2.164405004581867e6 0.0
2.164405004581867e6 -254638.27285956542 0.0
0.0 0.0 0.0

-398052.23253794445 4.960160339351441e6 0.0
4.960160339351441e6 -1.885535424286244e6 0.0
0.0 0.0 0.0

-1.1628225416814336e6 5.364080435665995e6 0.0
5.364080435665995e6 -186544.63482668903 0.0
0.0 0.0 0.0

273603.5135644055 2.612650516822527e6 0.0
2.612650516822527e6 -700383.4778867944 0.0
0.0 0.0 0.0

-1.4359192286642712e7 5.57124089883996e6 0.0
5.57124089883996e6 1.161288431493983e7 0.0
0.0 0.0 0.0

22814.712983874488 4.079579077413181e6 0.0
4.079579077413181e6 -1.8791585370945954e6 0.0
0.0 0.0 0.0

-1.0320451922258491e6 1.7771870971765756e6 0.0
1.7771870971765756e6 -504066.77291541797 0.0
0.0 0.0 0.0

-551675.7274289132 4.404005668983074e6 0.0
4.404005668983074e6 -2.0627522001846954e6 0.0
0.0 0.0 0.0

535689.091768961 5.36341241934933e6 0.0
5.36341241934933e6 -1.9038316018968793e6 0.0
0.0 0.0 0.0

-779976.6771412734 1.186997737152845e7 0.0
1.186997737152845e7 484877.220800884 0.0
0.0 0.0 0.0

-208002.3251625566 5.912962885713665e6 0.0
5.912962885713665e6 -2.0141544916115403e6 0.0
0.0 0.0 0.0

-4.936146635422315e6 1.1484036974323648e6 0.0
1.1484036974323648e6 6.575322775558808e6 0.0
0.0 0.0 0.0

-1.340440487556409e6 3.2998512824653694e6 0.0
3.2998512824653694e6 1.2961005320276888e6 0.0
0.0 0.0 0.0

-1.6927510172554615e6 5.065731974589308e6 0.0
5.065731974589308e6 268157.75875852234 0.0
0.0 0.0 0.0

-3.3237978422380826e6 3.100403786384391e6 0.0
3.100403786384391e6 2.950661856474993e6 0.0
0.0 0.0 0.0

-1.470468519369367e6 3.678762598354438e6 0.0
3.678762598354438e6 1.5149488999089515e6 0.0
0.0 0.0 0.0

-2.740866319263744e6 3.4601903378228615e6 0.0
3.4601903378228615e6 1.0090350647916972e6 0.0
0.0 0.0 0.0

259478.49953815716 6.771370309962149e6 0.0
6.771370309962149e6 864927.9906390908 0.0
0.0 0.0 0.0

471692.8685311855 864327.7638372313 0.0
864327.7638372313 -1.2166680868217682e6 0.0
0.0 0.0 0.0

-841982.6525522348 6.637269635383824e6 0.0
6.637269635383824e6 -807800.3150114111 0.0
0.0 0.0 0.0

-144695.43328164704 4.277534431945193e6 0.0
4.277534431945193e6 -1.803401844161509e6 0.0
0.0 0.0 0.0

-3.962723440638767e6 3.5278722530099684e6 0.0
3.5278722530099684e6 756935.4868936015 0.0
0.0 0.0 0.0

-1.5166481994697496e6 6.7884713393563265e6 0.0
6.7884713393563265e6 -300142.66841372265 0.0
0.0 0.0 0.0

-428390.0802907515 6.098008738734683e6 0.0
6.098008738734683e6 -1.1302005136312235e6 0.0
0.0 0.0 0.0

-1.2780851561843387e6 3.261076163995045e6 0.0
3.261076163995045e6 1.0608825143983595e6 0.0
0.0 0.0 0.0

-3.3888991181037175e6 3.2578110107257566e6 0.0
3.2578110107257566e6 319736.14523749077 0.0
0.0 0.0 0.0

-881647.4323400164 7.1060486107254e6 0.0
7.1060486107254e6 -589268.0706260924 0.0
0.0 0.0 0.0

-532019.5709484733 3.6070479707528725e6 0.0
3.6070479707528725e6 -1.935954011335272e6 0.0
0.0 0.0 0.0

-4.1246424807209717e6 3.096068393276894e6 0.0
3.096068393276894e6 1.290717779419048e6 0.0
0.0 0.0 0.0

1.4708011884380206e6 1.2523996778955843e7 0.0
1.2523996778955843e7 -1.3900881815576677e6 0.0
0.0 0.0 0.0

-693446.2021867167 5.805567751071526e6 0.0
5.805567751071526e6 -1.0458756154997877e6 0.0
0.0 0.0 0.0

-397643.2531362969 5.926917188016289e6 0.0
5.926917188016289e6 -1.720762187609692e6 0.0
0.0 0.0 0.0

-601325.5439374642 4.4228370709751295e6 0.0
4.4228370709751295e6 -2.0877709788561692e6 0.0
0.0 0.0 0.0

-935559.9127095258 9.382293436430955e6 0.0
9.382293436430955e6 209239.46554883354 0.0
0.0 0.0 0.0

-697984.3912039754 5.044302707196789e6 0.0
5.044302707196789e6 -1.1781474802102903e6 0.0
0.0 0.0 0.0

-3.176527916170546e6 5.195162276301927e6 0.0
5.195162276301927e6 1.0511921853349598e6 0.0
0.0 0.0 0.0

-369342.7444154874 3.925325023590712e6 0.0
3.925325023590712e6 -1.927387627522225e6 0.0
0.0 0.0 0.0

-216417.22511955298 5.7160745952904085e6 0.0
5.7160745952904085e6 -631874.6580994856 0.0
0.0 0.0 0.0

-3.4183953410182483e6 4.401084905411859e6 0.0
4.401084905411859e6 -358530.4524465995 0.0
0.0 0.0 0.0

-2.797563933752481e6 3.519714525933517e6 0.0
3.519714525933517e6 1.0855536310953565e6 0.0
0.0 0.0 0.0

2.256439401778607e6 5.44313640940397e6 0.0
5.44313640940397e6 -603152.2013354632 0.0
0.0 0.0 0.0

-3.7856610823195567e6 4.0070257059385283e6 0.0
4.0070257059385283e6 1.3131611010931572e6 0.0
0.0 0.0 0.0

-883955.619829024 3.7884263627814273e6 0.0
3.7884263627814273e6 40884.67860598164 0.0
0.0 0.0 0.0

1.7461555105373557e6 146152.22808448513 0.0
146152.22808448513 -2.352634837806003e6 0.0
0.0 0.0 0.0

-2.3102082839534576e6 8.359699467307142e6 0.0
8.359699467307142e6 1.1121934107307433e6 0.0
0.0 0.0 0.0

-669804.8656219608 5.640263526569963e6 0.0
5.640263526569963e6 -1.3267297942864299e6 0.0
0.0 0.0 0.0

398468.07448579127 3.898269454759512e6 0.0
3.898269454759512e6 -1.9925201158641232e6 0.0
0.0 0.0 0.0

-460757.0257847561 2.0289511145436997e6 0.0
2.0289511145436997e6 -499151.80123793345 0.0
0.0 0.0 0.0

196023.48949607083 1.6494578979607855e6 0.0
1.6494578979607855e6 -841987.4671485537 0.0
0.0 0.0 0.0

-473193.38491875853 6.904597635949567e6 0.0
6.904597635949567e6 -1.3589167529834583e6 0.0
0.0 0.0 0.0

-2.99525492607075e6 4.867092384228017e6 0.0
4.867092384228017e6 -88469.27027335844 0.0
0.0 0.0 0.0

-1.0076137543076478e6 5.512568791983183e6 0.0
5.512568791983183e6 -279141.1686823833 0.0
0.0 0.0 0.0

-524262.09311630705 7.680688386382554e6 0.0
7.680688386382554e6 -702981.6985596415 0.0
0.0 0.0 0.0

243989.02968911373 4.888088939712108e6 0.0
4.888088939712108e6 -1.9210973651621898e6 0.0
0.0 0.0 0.0

-1.1298239941169035e6 4.338343919646699e6 0.0
4.338343919646699e6 -423101.49165682204 0.0
0.0 0.0 0.0

-510960.6262859872 6.2101997471174e6 0.0
6.2101997471174e6 -1.0732457450338514e6 0.0
0.0 0.0 0.0

-4.0263806784868906e6 6.396708000110913e6 0.0
6.396708000110913e6 2.4453771414454887e6 0.0
0.0 0.0 0.0

-554925.3131785555 8.843666110197414e6 0.0
8.843666110197414e6 -229470.2866534402 0.0
0.0 0.0 0.0

-1.8329268212569184e6 4.971234181275582e6 0.0
4.971234181275582e6 445708.89974407014 0.0
0.0 0.0 0.0

-1.6098548982329716e6 4.808723608617543e6 0.0
4.808723608617543e6 776504.8351685615 0.0
0.0 0.0 0.0

-1.0653239643778427e7 2.9634528055002172e6 0.0
2.9634528055002172e6 1.7068884032581422e7 0.0
0.0 0.0 0.0

-4.610550146075747e6 3.718322439899644e6 0.0
3.718322439899644e6 1.3667448237829348e6 0.0
0.0 0.0 0.0

-756820.4991217342 6.208079652591795e6 0.0
6.208079652591795e6 -913163.6810549488 0.0
0.0 0.0 0.0

-300869.76478860393 5.394375559164133e6 0.0
5.394375559164133e6 -2.114465579900437e6 0.0
0.0 0.0 0.0

-274099.37265782215 5.306613298164351e6 0.0
5.306613298164351e6 -2.1582771305137277e6 0.0
0.0 0.0 0.0

527612.0584510583 5.342104136297852e6 0.0
5.342104136297852e6 -2.295936101177696e6 0.0
0.0 0.0 0.0

-2.1141208222630774e6 4.379814933191009e6 0.0
4.379814933191009e6 935314.3159640768 0.0
0.0 0.0 0.0

573425.8716731986 5.155720307846632e6 0.0
5.155720307846632e6 -2.263350723011555e6 0.0
0.0 0.0 0.0

-240977.38731772132 1.3511974268382955e6 0.0
1.3511974268382955e6 -357822.26215819106 0.0
0.0 0.0 0.0

-1.3825136653467752e6 5.29091942870719e6 0.0
5.29091942870719e6 425584.13441564987 0.0
0.0 0.0 0.0

-1.2358557914026417e6 1.9604173493690088e6 0.0
1.9604173493690088e6 -234428.8249829373 0.0
0.0 0.0 0.0

-1.9336302010352665e6 6.390092879623987e6 0.0
6.390092879623987e6 -5726.732573306188 0.0
0.0 0.0 0.0

-2.1450865973410564e6 7.100130330956465e6 0.0
7.100130330956465e6 667161.433336824 0.0
0.0 0.0 0.0

-76302.0858233117 6.383415260227342e6 0.0
6.383415260227342e6 -415734.479532607 0.0
0.0 0.0 0.0

-521906.7161581996 3.493523725976069e6 0.0
3.493523725976069e6 -2.0196784816285202e6 0.0
0.0 0.0 0.0

342313.21539366676 4.410236468416168e6 0.0
4.410236468416168e6 -2.017554225619313e6 0.0
0.0 0.0 0.0

-1.2228443041042821e7 8.69131972153381e6 0.0
8.69131972153381e6 -38751.66951915575 0.0
0.0 0.0 0.0

204508.11779221788 3.831015446145561e6 0.0
3.831015446145561e6 2.0553016851648693e6 0.0
0.0 0.0 0.0

-2.1607522647192404e6 6.794452620383151e6 0.0
6.794452620383151e6 765713.8576372303 0.0
0.0 0.0 0.0

-546979.3199129993 5.684092378008979e6 0.0
5.684092378008979e6 -420108.49611880875 0.0
0.0 0.0 0.0

-310187.7635567118 5.814703510576645e6 0.0
5.814703510576645e6 -612466.0190885384 0.0
0.0 0.0 0.0

-1.5709168527077807e6 464851.42674884945 0.0
464851.42674884945 1.928716911569729e6 0.0
0.0 0.0 0.0

-2.768530931477545e6 4.476626378457902e6 0.0
4.476626378457902e6 475845.17838989676 0.0
0.0 0.0 0.0

-1.1972437937650797e6 2.4695989443046115e6 0.0
2.4695989443046115e6 -465623.15234794735 0.0
0.0 0.0 0.0

-302691.74045057135 706383.3576641134 0.0
706383.3576641134 -101708.99752200699 0.0
0.0 0.0 0.0

-1.0970327356650809e7 487621.173667528 0.0
487621.173667528 2.3293124530928712e7 0.0
0.0 0.0 0.0

-769437.3028983753 6.431088236165046e6 0.0
6.431088236165046e6 -855994.8573726915 0.0
0.0 0.0 0.0

773440.1591808151 2.764079834436289e6 0.0
2.764079834436289e6 -1.0616724142327611e6 0.0
0.0 0.0 0.0

-6.919707006975789e6 -963442.3927549999 0.0
-963442.3927549999 8.997475392666187e6 0.0
0.0 0.0 0.0

549523.423749122 5.71410022316972e6 0.0
5.71410022316972e6 -2.0389288553873687e6 0.0
0.0 0.0 0.0

-2.4201275139775393e6 3.541387940566019e6 0.0
3.541387940566019e6 2.0847409530273392e6 0.0
0.0 0.0 0.0

-5.330192027073453e6 6.735709602422462e6 0.0
6.735709602422462e6 3.468212650532287e6 0.0
0.0 0.0 0.0

-801692.9360832429 6.015377500318429e6 0.0
6.015377500318429e6 -1.1243276912230987e6 0.0
0.0 0.0 0.0

-1.3707849393815435e6 594802.0386834675 0.0
594802.0386834675 1.4090561962750969e6 0.0
0.0 0.0 0.0

-1.362102010411106e6 5.56408812234823e6 0.0
5.56408812234823e6 -83382.38152379135 0.0
0.0 0.0 0.0

-144660.06127179024 9.200264392923927e6 0.0
9.200264392923927e6 -572812.7512586007 0.0
0.0 0.0 0.0

839757.842582905 368791.34871104214 0.0
368791.34871104214 -1.2767596867903746e6 0.0
0.0 0.0 0.0

549155.3493801439 6.724070850200892e6 0.0
6.724070850200892e6 -1.4647442525914675e6 0.0
0.0 0.0 0.0

-3.2078361535656983e6 1.1528362587222064e7 0.0
1.1528362587222064e7 -241127.5718799415 0.0
0.0 0.0 0.0

537586.1152273227 5.651947888240168e6 0.0
5.651947888240168e6 -2.0348270956074398e6 0.0
0.0 0.0 0.0

-1.8229533938834274e6 3.343975821426103e6 0.0
3.343975821426103e6 498657.21386405383 0.0
0.0 0.0 0.0

-536050.5165899633 6.8065285126882335e6 0.0
6.8065285126882335e6 2.8249361565710315e6 0.0
0.0 0.0 0.0

3.162415744607877e6 6.132837924445913e6 0.0
6.132837924445913e6 -251232.5335702605 0.0
0.0 0.0 0.0

-6.070874108256494e6 7.289940343818704e6 0.0
7.289940343818704e6 4.578756234879493e6 0.0
0.0 0.0 0.0

-2.6207939879947347e6 3.4995562509390134e6 0.0
3.4995562509390134e6 973267.8322632923 0.0
0.0 0.0 0.0

-611350.1424691123 3.3767216139213666e6 0.0
3.3767216139213666e6 -2.0331880507851818e6 0.0
0.0 0.0 0.0

-2.644775327613397e6 4.815586568260403e6 0.0
4.815586568260403e6 296433.5401008143 0.0
0.0 0.0 0.0

622349.2314453552 5.422702594580724e6 0.0
5.422702594580724e6 -423971.7578415773 0.0
0.0 0.0 0.0

-7.7253284742332855e6 -3.503114661593124e6 0.0
-3.503114661593124e6 1.0772929321145952e7 0.0
0.0 0.0 0.0

-1.3663449154174377e6 5.255013801460392e6 0.0
5.255013801460392e6 185358.38058456226 0.0
0.0 0.0 0.0

-100149.28563757535 6.169567832043826e6 0.0
6.169567832043826e6 -564300.233979737 0.0
0.0 0.0 0.0

-1.0863904883222887e6 4.18514841502416e6 0.0
4.18514841502416e6 -582888.3965463629 0.0
0.0 0.0 0.0

-162886.989900015 7.529935278777228e6 0.0
7.529935278777228e6 -1.169239760513734e6 0.0
0.0 0.0 0.0

-727702.9354945552 6.568405611257739e6 0.0
6.568405611257739e6 -884067.5944623367 0.0
0.0 0.0 0.0

-1.763604756346019e6 2.410592309850838e6 0.0
2.410592309850838e6 216813.75130717293 0.0
0.0 0.0 0.0

-426178.26091548835 5.764776741876609e6 0.0
5.764776741876609e6 -431612.67182053643 0.0
0.0 0.0 0.0

-136051.6927405989 5.819580557401705e6 0.0
5.819580557401705e6 -593545.3469077266 0.0
0.0 0.0 0.0

-279285.3179067875 6.043051529150635e6 0.0
6.043051529150635e6 -21213.021559927598 0.0
0.0 0.0 0.0

-468401.6931222457 3.620996596728269e6 0.0
3.620996596728269e6 -1.9197400942899827e6 0.0
0.0 0.0 0.0

-2.8063657958429637e6 3.9638914582687384e6 0.0
3.9638914582687384e6 926683.3816802559 0.0
0.0 0.0 0.0

-3.846042757959447e6 7.288401690305305e6 0.0
7.288401690305305e6 1.860252014280124e6 0.0
0.0 0.0 0.0

-2.934760602613662e6 4.112356950632539e6 0.0
4.112356950632539e6 624412.4608837318 0.0
0.0 0.0 0.0

-660567.0844488491 5.538975589562771e6 0.0
5.538975589562771e6 -408420.5069028721 0.0
0.0 0.0 0.0

376697.76091182884 5.978522242020745e6 0.0
5.978522242020745e6 -1.763289913328548e6 0.0
0.0 0.0 0.0

-841709.2955614494 6.393950663975971e6 0.0
6.393950663975971e6 -915600.677189834 0.0
0.0 0.0 0.0

-1.2959215943808118e6 9.189710838190418e6 0.0
9.189710838190418e6 -788884.6034283292 0.0
0.0 0.0 0.0

-176276.43174435676 1.3459552398344334e6 0.0
1.3459552398344334e6 33717.295779539716 0.0
0.0 0.0 0.0

-1.1569487751027797e6 5.373365886728424e6 0.0
5.373365886728424e6 -65805.45299036318 0.0
0.0 0.0 0.0

-606661.4183897004 5.825688407830173e6 0.0
5.825688407830173e6 -1.123089218223948e6 0.0
0.0 0.0 0.0

-109909.13156548867 7.850510989224092e6 0.0
7.850510989224092e6 -986012.1276842657 0.0
0.0 0.0 0.0

-575698.931942139 2.8094610335593373e6 0.0
2.8094610335593373e6 451821.4900721705 0.0
0.0 0.0 0.0

-215265.05559465467 6.2145848543372145e6 0.0
6.2145848543372145e6 -512646.1488007094 0.0
0.0 0.0 0.0

-3.503908797313029e6 3.1636478474698095e6 0.0
3.1636478474698095e6 1.9042666519375131e6 0.0
0.0 0.0 0.0

-581827.3504847935 5.115143649900532e6 0.0
5.115143649900532e6 -1.6631148159647416e6 0.0
0.0 0.0 0.0

-3.436633483395382e6 7.802108229048449e6 0.0
7.802108229048449e6 1.7062703914434982e6 0.0
0.0 0.0 0.0

-3.140771908535293e6 3.770235213439733e6 0.0
3.770235213439733e6 804551.5465439071 0.0
0.0 0.0 0.0

-524334.1936237756 2.624264365975841e6 0.0
2.624264365975841e6 335178.7585387929 0.0
0.0 0.0 0.0

-2.3540394662434184e6 6.420313171344229e6 0.0
6.420313171344229e6 299352.5473202008 0.0
0.0 0.0 0.0

-3.4209982545614205e6 3.7729890217797146e6 0.0
3.7729890217797146e6 1.005295791962916e6 0.0
0.0 0.0 0.0

-3.0721771223354237e6 3.901362031269844e6 0.0
3.901362031269844e6 787083.0214791703 0.0
0.0 0.0 0.0

-168863.4247734888 6.175502055133134e6 0.0
6.175502055133134e6 -562607.5435042246 0.0
0.0 0.0 0.0

-486805.73954888544 5.9992394908263385e6 0.0
5.9992394908263385e6 -1.5752456271860234e6 0.0
0.0 0.0 0.0

2.854390801639987e6 5.791569293108731e6 0.0
5.791569293108731e6 -1.3046199919977963e6 0.0
0.0 0.0 0.0

-5.214314817141641e6 -2.0977128884646394e6 0.0
-2.0977128884646394e6 2.7156224589575185e6 0.0
0.0 0.0 0.0

-2.8644502806363646e6 4.834103291101084e6 0.0
4.834103291101084e6 364298.0545065673 0.0
0.0 0.0 0.0

543019.9905768298 5.698096261828731e6 0.0
5.698096261828731e6 -2.044646280113312e6 0.0
0.0 0.0 0.0

-770287.4509341535 6.254927987422657e6 0.0
6.254927987422657e6 -784661.8752999286 0.0
0.0 0.0 0.0

-2.5765970011221115e6 4.730421224636433e6 0.0
4.730421224636433e6 423595.16401359404 0.0
0.0 0.0 0.0

-114458.76156639567 1.9977695102891994e6 0.0
1.9977695102891994e6 86652.19747940841 0.0
0.0 0.0 0.0

-311382.2428442385 5.736459598141037e6 0.0
5.736459598141037e6 -1.9652594154452821e6 0.0
0.0 0.0 0.0

-253053.53377977095 4.317991646588238e6 0.0
4.317991646588238e6 -1.9838163957505787e6 0.0
0.0 0.0 0.0

283305.642788813 5.603320408114562e6 0.0
5.603320408114562e6 -1.62004561065004e6 0.0
0.0 0.0 0.0

-9.074656088449163e6 6.548141485373114e6 0.0
6.548141485373114e6 8.668173542887993e6 0.0
0.0 0.0 0.0

-1.6714130457752335e6 2.688865256765798e6 0.0
2.688865256765798e6 107281.36824588676 0.0
0.0 0.0 0.0

-2.297589959219142e6 4.870966364168108e6 0.0
4.870966364168108e6 422904.35317728657 0.0
0.0 0.0 0.0

-3.0795747017339002e6 3.7962564770710724e6 0.0
3.7962564770710724e6 1.0380562729174527e6 0.0
0.0 0.0 0.0

-3.589487302467449e6 -2.50141230454522e6 0.0
-2.50141230454522e6 9.32972354978104e6 0.0
0.0 0.0 0.0

618817.4588120715 809443.9141506167 0.0
809443.9141506167 -1.1387910784597513e6 0.0
0.0 0.0 0.0

-602691.4585312444 5.990023154878535e6 0.0
5.990023154878535e6 -1.5503861013131135e6 0.0
0.0 0.0 0.0

-31962.2698379629 2.182637865640694e6 0.0
2.182637865640694e6 536260.1582800022 0.0
0.0 0.0 0.0

-724289.2535391395 6.055498492376511e6 0.0
6.055498492376511e6 -1.2507459159739448e6 0.0
0.0 0.0 0.0

-196145.77719425427 7.215622198141018e6 0.0
7.215622198141018e6 -1.1050458170423165e6 0.0
0.0 0.0 0.0

-88354.1481899285 2.580598047810983e6 0.0
2.580598047810983e6 -2.9474638976147673e6 0.0
0.0 0.0 0.0

-2.670352502296532e6 5.049175975192977e6 0.0
5.049175975192977e6 48390.613635686575 0.0
0.0 0.0 0.0

-4.150634758370264e6 5.250901554168605e6 0.0
5.250901554168605e6 2.56264848242475e6 0.0
0.0 0.0 0.0

-543517.223554459 3.963925643170276e6 0.0
3.963925643170276e6 -1.8117240818525732e6 0.0
0.0 0.0 0.0

-41509.37763331046 6.352548296274652e6 0.0
6.352548296274652e6 -138364.60841786925 0.0
0.0 0.0 0.0

-556529.131236698 6.13242127921079e6 0.0
6.13242127921079e6 -1.4394992101101119e6 0.0
0.0 0.0 0.0

-453844.98941478354 4.296713506017088e6 0.0
4.296713506017088e6 -2.0482354524214729e6 0.0
0.0 0.0 0.0

-120957.01904695077 794079.8924568078 0.0
794079.8924568078 -439025.5824333007 0.0
0.0 0.0 0.0

-1.5599998322738311e6 3.31537299248023e6 0.0
3.31537299248023e6 5332.054941458569 0.0
0.0 0.0 0.0

-895909.8588277621 6.99959330769773e6 0.0
6.99959330769773e6 -650845.5474404446 0.0
0.0 0.0 0.0

212439.21372507775 6.898557065010246e6 0.0
6.898557065010246e6 -1.303317886011702e6 0.0
0.0 0.0 0.0

-3.669087910813419e6 6.631415611782342e6 0.0
6.631415611782342e6 -586741.9259223663 0.0
0.0 0.0 0.0

-355074.49651095533 7.231248603666769e6 0.0
7.231248603666769e6 -1.1198778900469164e6 0.0
0.0 0.0 0.0

1.4966591817727974e6 7.680942879468004e6 0.0
7.680942879468004e6 -1.4015332161178044e6 0.0
0.0 0.0 0.0

-4.817235950107182e6 3.1362511636889926e6 0.0
3.1362511636889926e6 1.2206293039180834e6 0.0
0.0 0.0 0.0

154327.86346116994 1.8035789396328197e6 0.0
1.8035789396328197e6 -336024.3390474665 0.0
0.0 0.0 0.0

-670080.0783456168 5.340469319843959e6 0.0
5.340469319843959e6 -955688.6084108623 0.0
0.0 0.0 0.0

-2.1663060905506425e6 6.216997045004412e6 0.0
6.216997045004412e6 269932.7428061825 0.0
0.0 0.0 0.0

-3.5772684870197666e6 4.049497920663677e6 0.0
4.049497920663677e6 151554.60963865812 0.0
0.0 0.0 0.0

-530755.3667472359 3.9109124206657843e6 0.0
3.9109124206657843e6 -1.9124483017467295e6 0.0
0.0 0.0 0.0

-111270.38942134386 5.904926453661302e6 0.0
5.904926453661302e6 -606200.4203598389 0.0
0.0 0.0 0.0

-446521.1737677316 3.6075280168912397e6 0.0
3.6075280168912397e6 -1.9167940357452836e6 0.0
0.0 0.0 0.0

-4.311127121335854e6 3.0570862860972937e6 0.0
3.0570862860972937e6 632072.5716041776 0.0
0.0 0.0 0.0

-1.5665732738707322e6 5.956047512153837e6 0.0
5.956047512153837e6 -237083.81287315892 0.0
0.0 0.0 0.0

-1.691203093698409e6 5.46727629429547e6 0.0
5.46727629429547e6 -26406.17655734974 0.0
0.0 0.0 0.0

-397503.21122847596 5.268156634832746e6 0.0
5.268156634832746e6 -2.0698488721761627e6 0.0
0.0 0.0 0.0

-465164.3770999023 1.1244463707366972e6 0.0
1.1244463707366972e6 81536.42460302272 0.0
0.0 0.0 0.0

-1.4921624219510057e6 3.096928924536909e6 0.0
3.096928924536909e6 -288241.4573350827 0.0
0.0 0.0 0.0

-184396.78709651186 7.617882075049697e6 0.0
7.617882075049697e6 -1.0479599173782765e6 0.0
0.0 0.0 0.0

-440471.5575140943 3.620294721597279e6 0.0
3.620294721597279e6 -1.9186437021154386e6 0.0
0.0 0.0 0.0

-2.524233726590457e6 4.883452622905582e6 0.0
4.883452622905582e6 429146.2370230148 0.0
0.0 0.0 0.0

-3.0898563939646715e6 1.294792216479748e7 0.0
1.294792216479748e7 -1.2457588280819035e6 0.0
0.0 0.0 0.0

-1.832686066216942e6 6.168197323074902e6 0.0
6.168197323074902e6 -17897.123265418457 0.0
0.0 0.0 0.0

-2.7698792833107263e6 4.712114510386432e6 0.0
4.712114510386432e6 465121.67608734034 0.0
0.0 0.0 0.0

-1.6804637116831061e6 3.408051971984592e6 0.0
3.408051971984592e6 1.03763199147367e6 0.0
0.0 0.0 0.0

-685037.077520746 6.603255652657162e6 0.0
6.603255652657162e6 -955876.7719679251 0.0
0.0 0.0 0.0

-2.6434706637621582e6 4.2135150831248965e6 0.0
4.2135150831248965e6 834265.5748050261 0.0
0.0 0.0 0.0

-570513.8462645417 3.9629892046696683e6 0.0
3.9629892046696683e6 -1.9821615076320616e6 0.0
0.0 0.0 0.0

380278.3637087927 5.842080896097005e6 0.0
5.842080896097005e6 -1.8566522935392528e6 0.0
0.0 0.0 0.0

-346490.40736891684 3.619912370571919e6 0.0
3.619912370571919e6 -1.9321351754388977e6 0.0
0.0 0.0 0.0

-2.951891508508221e6 3.9640529461233444e6 0.0
3.9640529461233444e6 824352.674060182 0.0
0.0 0.0 0.0

205793.79380095645 5.616226586987408e6 0.0
5.616226586987408e6 685979.2928377733 0.0
0.0 0.0 0.0

-323086.307270089 3.6581386911339085e6 0.0
3.6581386911339085e6 -1.0769544216974014e6 0.0
0.0 0.0 0.0

-1.366700279620026e6 2.264997833329337e6 0.0
2.264997833329337e6 2.151484781794519e6 0.0
0.0 0.0 0.0

-1.5643606329979938e6 2.387873614758354e6 0.0
2.387873614758354e6 236692.44574850868 0.0
0.0 0.0 0.0

-1.4117565822676204e6 7.54167650025732e6 0.0
7.54167650025732e6 2.0112425548855655e6 0.0
0.0 0.0 0.0

-298876.7975020542 389602.897588035 0.0
389602.897588035 -324730.08120544115 0.0
0.0 0.0 0.0

546393.0396055564 4.69466155260264e6 0.0
4.69466155260264e6 -1.8244774379244437e6 0.0
0.0 0.0 0.0

-437259.5982209566 3.55538222097662e6 0.0
3.55538222097662e6 -1.7917349284474398e6 0.0
0.0 0.0 0.0

-2.6980548401315385e6 4.699411193328688e6 0.0
4.699411193328688e6 527390.9442200473 0.0
0.0 0.0 0.0

132769.9894351855 4.741859039706273e6 0.0
4.741859039706273e6 1.3094019344396968e6 0.0
0.0 0.0 0.0

-663915.4200390991 2.5084949736738508e6 0.0
2.5084949736738508e6 103498.94505796515 0.0
0.0 0.0 0.0

-6.619464284967632e6 5.559840718996133e6 0.0
5.559840718996133e6 2.878054860786862e6 0.0
0.0 0.0 0.0

-1.2839124549790819e6 5.329918931198706e6 0.0
5.329918931198706e6 -89135.87110357778 0.0
0.0 0.0 0.0

-4.340961083563927e6 3.1035831933079255e6 0.0
3.1035831933079255e6 128871.50188774616 0.0
0.0 0.0 0.0

445135.6708102904 4.2967998717605015e6 0.0
4.2967998717605015e6 -1.8485949523765312e6 0.0
0.0 0.0 0.0

-1.5457824158282247e6 7.288208924595798e6 0.0
7.288208924595798e6 439919.50162706815 0.0
0.0 0.0 0.0

-6.072326025381585e6 679797.6197113555 0.0
679797.6197113555 8.613804098819695e6 0.0
0.0 0.0 0.0

-2.4786927113495767e6 4.566885886284587e6 0.0
4.566885886284587e6 674233.6688863721 0.0
0.0 0.0 0.0

-429395.75367864047 6.0769786372240335e6 0.0
6.0769786372240335e6 427166.9407209222 0.0
0.0 0.0 0.0

549187.1336506265 1.2947049845900775e6 0.0
1.2947049845900775e6 -804064.6409943125 0.0
0.0 0.0 0.0

-862803.816972426 4.51863393566e6 0.0
4.51863393566e6 392678.0810233114 0.0
0.0 0.0 0.0

-1.2565799509007987e6 5.324314853682282e6 0.0
5.324314853682282e6 56919.9029987072 0.0
0.0 0.0 0.0

-172495.3738004836 3.324366149235659e6 0.0
3.324366149235659e6 -1.8055943431160029e6 0.0
0.0 0.0 0.0

-1.188540725529798e6 5.440824856537002e6 0.0
5.440824856537002e6 -173124.39364160495 0.0
0.0 0.0 0.0

-329785.97478408884 7.2908915830638325e6 0.0
7.2908915830638325e6 -1.0300665660066612e6 0.0
0.0 0.0 0.0

-1.7341189719773955e6 2.6162196502160076e6 0.0
2.6162196502160076e6 290681.88336877094 0.0
0.0 0.0 0.0

-479022.98677743407 3.517629112574746e6 0.0
3.517629112574746e6 -1.8606692636642638e6 0.0
0.0 0.0 0.0

-1.576152324197711e6 3.5075070565226865e6 0.0
3.5075070565226865e6 219654.31723442255 0.0
0.0 0.0 0.0

-1.531768822596013e6 3.7814504214831074e6 0.0
3.7814504214831074e6 1.945457722527273e6 0.0
0.0 0.0 0.0

23871.62611071772 839414.8611863776 0.0
839414.8611863776 21492.785852510562 0.0
0.0 0.0 0.0

-1.976144442657868e6 5.367860374976396e6 0.0
5.367860374976396e6 237676.8335515462 0.0
0.0 0.0 0.0

-2.2136406382862628e6 4.855677408104961e6 0.0
4.855677408104961e6 434929.8670638687 0.0
0.0 0.0 0.0

-915056.2611076911 8.43317401294381e6 0.0
8.43317401294381e6 54015.6600992725 0.0
0.0 0.0 0.0

-113242.54641801678 2.478576373226792e6 0.0
2.478576373226792e6 122516.6625159569 0.0
0.0 0.0 0.0

-478554.93110033387 3.509679637193176e6 0.0
3.509679637193176e6 -1.849190910687067e6 0.0
0.0 0.0 0.0

-2.530558107597709e6 4.664908754456177e6 0.0
4.664908754456177e6 586594.9723841795 0.0
0.0 0.0 0.0

-884673.7695304796 5.651364208848732e6 0.0
5.651364208848732e6 -1.0713714364353896e6 0.0
0.0 0.0 0.0

-1.4164498450552311e6 2.4257015142903775e6 0.0
2.4257015142903775e6 -261270.88112163096 0.0
0.0 0.0 0.0

345548.8498073425 1.4169898134436253e6 0.0
1.4169898134436253e6 -560170.9460775424 0.0
0.0 0.0 0.0

-2.9292845196209415e6 4.427236695147529e6 0.0
4.427236695147529e6 558817.1151960879 0.0
0.0 0.0 0.0

-2.5026975596144777e6 3.2809279971526326e6 0.0
3.2809279971526326e6 983551.7255707093 0.0
0.0 0.0 0.0

-408505.6356272383 5.412372474808053e6 0.0
5.412372474808053e6 1.7805411418824517e6 0.0
0.0 0.0 0.0

788002.9337299331 635700.3183751043 0.0
635700.3183751043 -818905.8638400523 0.0
0.0 0.0 0.0

-262353.2174775826 5.894336406543029e6 0.0
5.894336406543029e6 -996108.0101921561 0.0
0.0 0.0 0.0

-4813.565648057265 3.720014096915513e6 0.0
3.720014096915513e6 -1.9762691547751985e6 0.0
0.0 0.0 0.0

-3.614531333458009e6 8.126522542832331e6 0.0
8.126522542832331e6 765355.3748069198 0.0
0.0 0.0 0.0

-1.5568442544101565e6 5.141835869136733e6 0.0
5.141835869136733e6 278636.6351151593 0.0
0.0 0.0 0.0

127559.71552125944 3.0834875268749185e6 0.0
3.0834875268749185e6 -709321.568457971 0.0
0.0 0.0 0.0

-908237.1247852477 5.831665045112325e6 0.0
5.831665045112325e6 -275503.61877440155 0.0
0.0 0.0 0.0

-363251.3254070689 3.662876342811619e6 0.0
3.662876342811619e6 -2.0477632839462752e6 0.0
0.0 0.0 0.0

-688478.8639856875 5.026699161430712e6 0.0
5.026699161430712e6 -1.4546255043164128e6 0.0
0.0 0.0 0.0

-3.971105760917956e6 3.6863496136306543e6 0.0
3.6863496136306543e6 1.1533826506570939e6 0.0
0.0 0.0 0.0

181909.16413760124 5.933302986733425e6 0.0
5.933302986733425e6 606364.0611064129 0.0
0.0 0.0 0.0

-2.49182004513101e6 4.685541621241512e6 0.0
4.685541621241512e6 1.603342943667453e6 0.0
0.0 0.0 0.0

-2.4553450352452244e6 3.74732079378449e6 0.0
3.74732079378449e6 931354.5447041627 0.0
0.0 0.0 0.0

-616200.6664974447 6.246488181942503e6 0.0
6.246488181942503e6 -1.0138848290891547e6 0.0
0.0 0.0 0.0

102843.52275259863 6.051422104928124e6 0.0
6.051422104928124e6 -1.6572403428436306e6 0.0
0.0 0.0 0.0

-3.102932247472857e6 3.9096551271098447e6 0.0
3.9096551271098447e6 2.3593667853670474e6 0.0
0.0 0.0 0.0

-863954.5863713276 5.476519921705066e6 0.0
5.476519921705066e6 -332557.14487869944 0.0
0.0 0.0 0.0

-5.24006028894086e6 -252016.45187021265 0.0
-252016.45187021265 1.0105825701422917e7 0.0
0.0 0.0 0.0

-1.122801299163537e6 2.3881378982694955e6 0.0
2.3881378982694955e6 -212895.21035304645 0.0
0.0 0.0 0.0

-299959.293648056 4.571456365788926e6 0.0
4.571456365788926e6 -1.8565178298000994e6 0.0
0.0 0.0 0.0

-783570.243572385 6.218906997015262e6 0.0
6.218906997015262e6 -1.0019503797473148e6 0.0
0.0 0.0 0.0

-2.0870029977234364e6 3.698649653724075e6 0.0
3.698649653724075e6 790874.1213749594 0.0
0.0 0.0 0.0

-1.4086028667695797e6 5.274683299867404e6 0.0
5.274683299867404e6 29133.26770826569 0.0
0.0 0.0 0.0

-113001.98954639268 6.360483341969689e6 0.0
6.360483341969689e6 -376673.3438668961 0.0
0.0 0.0 0.0

-3.0075656392395706e6 3.913523929985054e6 0.0
3.913523929985054e6 933601.2991150953 0.0
0.0 0.0 0.0

-1.186817462130093e6 5.606781747180458e6 0.0
5.606781747180458e6 -215771.43812284298 0.0
0.0 0.0 0.0

-3.0905219724633396e6 -1.5799925943432073e6 0.0
-1.5799925943432073e6 5.923267879856436e6 0.0
0.0 0.0 0.0

-666320.9245640764 2.702301429670413e6 0.0
2.702301429670413e6 199863.39802446144 0.0
0.0 0.0 0.0

-844540.70840362 6.04015911361394e6 0.0
6.04015911361394e6 -1.0346165694832302e6 0.0
0.0 0.0 0.0

-3.3850677794157583e6 5.01530383354175e6 0.0
5.01530383354175e6 235347.03228931432 0.0
0.0 0.0 0.0

211046.1537683995 1.2140426300328998e6 0.0
1.2140426300328998e6 -1.1860799526114664e6 0.0
0.0 0.0 0.0

-3.777749352961179e6 -136434.26765060873 0.0
-136434.26765060873 4.847741693359621e6 0.0
0.0 0.0 0.0

-669636.2987617613 -395232.7465504374 0.0
-395232.7465504374 -379292.99448492803 0.0
0.0 0.0 0.0

-1.6810666397748492e6 297172.179191387 0.0
297172.179191387 1.173948998181268e6 0.0
0.0 0.0 0.0

-491794.8254010979 6.142634736773805e6 0.0
6.142634736773805e6 -1.5844523781539518e6 0.0
0.0 0.0 0.0

-2.629425252492849e6 3.318713049670675e6 0.0
3.318713049670675e6 934096.5530928307 0.0
0.0 0.0 0.0

-2.8104656919176998e6 3.2020107038116734e6 0.0
3.2020107038116734e6 1.2136115611064183e6 0.0
0.0 0.0 0.0

-1.5374068256695385e6 5.233696089682122e6 0.0
5.233696089682122e6 200678.426395006 0.0
0.0 0.0 0.0

-478496.6550583532 3.418650628287284e6 0.0
3.418650628287284e6 -1.751029431875483e6 0.0
0.0 0.0 0.0

-772920.9787485653 4.710280568252474e6 0.0
4.710280568252474e6 1.0229131032003312e6 0.0
0.0 0.0 0.0

-292801.82815777813 4.88943513313519e6 0.0
4.88943513313519e6 -1.7863076876187804e6 0.0
0.0 0.0 0.0

-1.2669464291766458e6 5.342527427192843e6 0.0
5.342527427192843e6 -127291.2298681722 0.0
0.0 0.0 0.0

-262421.64453182707 4.113638558506402e6 0.0
4.113638558506402e6 -1.8555462756134726e6 0.0
0.0 0.0 0.0

-544579.2187525129 3.417277435305292e6 0.0
3.417277435305292e6 -2.0732655266098005e6 0.0
0.0 0.0 0.0

-2.598787447569765e6 4.923745513728715e6 0.0
4.923745513728715e6 1.4958634212348512e6 0.0
0.0 0.0 0.0

-5.001793226488405e6 5.096794188984732e6 0.0
5.096794188984732e6 3.3164840341718616e6 0.0
0.0 0.0 0.0

-2.300069489026239e6 4.892451600868744e6 0.0
4.892451600868744e6 400050.1144614341 0.0
0.0 0.0 0.0

-1.4991327701946876e6 3.2950301860012817e6 0.0
3.2950301860012817e6 35104.57094540191 0.0
0.0 0.0 0.0

-1.779092131401198e6 753330.6333148272 0.0
753330.6333148272 2.286337842500801e6 0.0
0.0 0.0 0.0

-850538.208965585 5.260756426655659e6 0.0
5.260756426655659e6 -1.0793357472393024e6 0.0
0.0 0.0 0.0

51770.57944664225 7.805750223643025e6 0.0
7.805750223643025e6 -1.1409359131164432e6 0.0
0.0 0.0 0.0

-4.709855569605378e6 1.3691495061828373e6 0.0
1.3691495061828373e6 9.61465318063823e6 0.0
0.0 0.0 0.0

-681001.1575809517 5.50874066064902e6 0.0
5.50874066064902e6 -407399.302708633 0.0
0.0 0.0 0.0

-2.396839742185912e6 4.8583835006722035e6 0.0
4.8583835006722035e6 455388.2492348341 0.0
0.0 0.0 0.0

-450267.0383661499 4.214873022877455e6 0.0
4.214873022877455e6 -1.9515962873935488e6 0.0
0.0 0.0 0.0

-4.315307716965368e6 426114.3928679766 0.0
426114.3928679766 5.585803897954506e6 0.0
0.0 0.0 0.0

-956175.3269258658 5.422785209293267e6 0.0
5.422785209293267e6 -332106.61864265014 0.0
0.0 0.0 0.0

-919538.4976160413 6.431953652958086e6 0.0
6.431953652958086e6 -925320.8535143742 0.0
0.0 0.0 0.0

-675892.5917776679 4.685476347421747e6 0.0
4.685476347421747e6 -1.6333526544818925e6 0.0
0.0 0.0 0.0

-347323.80343391746 3.486523629693047e6 0.0
3.486523629693047e6 -2.0574849966300812e6 0.0
0.0 0.0 0.0

-469587.1346743267 4.421959161497435e6 0.0
4.421959161497435e6 -2.0420193058811645e6 0.0
0.0 0.0 0.0

-719059.2294401696 4.0224779107171223e6 0.0
4.0224779107171223e6 -2.0330776178039757e6 0.0
0.0 0.0 0.0

-2.8283952101538046e6 4.0407296364909257e6 0.0
4.0407296364909257e6 877874.6585869206 0.0
0.0 0.0 0.0

-2.9162025413505817e6 4.591593637273823e6 0.0
4.591593637273823e6 1.8729034243161757e6 0.0
0.0 0.0 0.0

-772815.9145579077 5.057131923971767e6 0.0
5.057131923971767e6 -1.1291393711999627e6 0.0
0.0 0.0 0.0

360298.999915295 8.770444192645872e6 0.0
8.770444192645872e6 -1.4119711259417792e6 0.0
0.0 0.0 0.0

-2.570589377197598e6 -164630.34342136988 0.0
-164630.34342136988 4.701649399888987e6 0.0
0.0 0.0 0.0

-440520.6539143985 3.619682377453916e6 0.0
3.619682377453916e6 -1.9961318887288892e6 0.0
0.0 0.0 0.0

-609815.0535636081 4.0791133133739275e6 0.0
4.0791133133739275e6 -2.0129824518909408e6 0.0
0.0 0.0 0.0

-6.02811943398742e6 -785426.5975626386 0.0
-785426.5975626386 1.1901913865352098e7 0.0
0.0 0.0 0.0

1.1718183277295188e6 4.706404518761624e6 0.0
4.706404518761624e6 -1.757190821953681e6 0.0
0.0 0.0 0.0

-2.9359803505109525e6 321598.5404017787 0.0
321598.5404017787 5.467223359538868e6 0.0
0.0 0.0 0.0

75469.71848254756 1.3890836133576431e6 0.0
1.3890836133576431e6 -1.1653941870694242e6 0.0
0.0 0.0 0.0

-3.036511643699496e6 3.904575334384654e6 0.0
3.904575334384654e6 939099.1962628013 0.0
0.0 0.0 0.0

-345938.6778731146 5.755800488644754e6 0.0
5.755800488644754e6 -1.950074444070337e6 0.0
0.0 0.0 0.0

-3.1376414192716405e6 4.143996644512066e6 0.0
4.143996644512066e6 571219.5713932577 0.0
0.0 0.0 0.0

-2.484977212792578e6 1.428297854535473e6 0.0
1.428297854535473e6 4.829730591555461e6 0.0
0.0 0.0 0.0

-530067.3883614606 2.369520917303212e6 0.0
2.369520917303212e6 -47983.54248377905 0.0
0.0 0.0 0.0

-1.3938615615733769e6 7.65109840493402e6 0.0
7.65109840493402e6 348184.52307776955 0.0
0.0 0.0 0.0

-1.3037583072098936e6 5.303343615978558e6 0.0
5.303343615978558e6 236812.79365422466 0.0
0.0 0.0 0.0

-1.1333137791413413e6 6.087333944943702e6 0.0
6.087333944943702e6 -35854.363852046954 0.0
0.0 0.0 0.0

-1.8618125625352392e6 5.021887454330393e6 0.0
5.021887454330393e6 291320.4077833919 0.0
0.0 0.0 0.0

-416675.095937794 3.514347181569652e6 0.0
3.514347181569652e6 -1.7439149290367637e6 0.0
0.0 0.0 0.0

-505008.5247049962 7.274253909655742e6 0.0
7.274253909655742e6 -777318.5802744649 0.0
0.0 0.0 0.0

-2.543845038602963e6 6.694749997073757e6 0.0
6.694749997073757e6 2.6542029532295614e6 0.0
0.0 0.0 0.0

-2.311501111336921e6 -2.397453176597715e6 0.0
-2.397453176597715e6 1.080678462741775e6 0.0
0.0 0.0 0.0

-1.87937775076265e6 1.0035535981477231e6 0.0
1.0035535981477231e6 712675.9388950501 0.0
0.0 0.0 0.0

216649.76051882678 4.600254372303939e6 0.0
4.600254372303939e6 722165.9983809432 0.0
0.0 0.0 0.0

234791.87128247455 4.25375717987541e6 0.0
4.25375717987541e6 782639.6872818132 0.0
0.0 0.0 0.0

-3.713989164340345e6 8.794241209590198e6 0.0
8.794241209590198e6 484751.7714685418 0.0
0.0 0.0 0.0

726563.7593003503 3.6129309604476797e6 0.0
3.6129309604476797e6 -2.9275902379796174e6 0.0
0.0 0.0 0.0

-3.664801705280833e6 3.8208462949978877e6 0.0
3.8208462949978877e6 934427.3710958187 0.0
0.0 0.0 0.0

-5.95547585942059e6 -2.4940562864094144e6 0.0
-2.4940562864094144e6 4.983346888032967e6 0.0
0.0 0.0 0.0

-788641.4947640339 6.250923528416717e6 0.0
6.250923528416717e6 -984500.5990431979 0.0
0.0 0.0 0.0

-3.029322714272874e6 1.7298853255352816e6 0.0
1.7298853255352816e6 4.29330553792963e6 0.0
0.0 0.0 0.0

-797904.4351986374 5.696668497713812e6 0.0
5.696668497713812e6 -1.0016673606780678e6 0.0
0.0 0.0 0.0

-1.5799556490796793e6 5.152126110000489e6 0.0
5.152126110000489e6 150212.79563747894 0.0
0.0 0.0 0.0

-2.5334565534021207e6 3.329851129229561e6 0.0
3.329851129229561e6 869802.2191520607 0.0
0.0 0.0 0.0

-799328.550037193 6.000260390362655e6 0.0
6.000260390362655e6 -967664.4052178814 0.0
0.0 0.0 0.0

443546.0378739728 4.180697698507095e6 0.0
4.180697698507095e6 -1.8323765138648306e6 0.0
0.0 0.0 0.0

-536650.6030637143 4.093491358199841e6 0.0
4.093491358199841e6 -1.7888353398822194e6 0.0
0.0 0.0 0.0

-139874.38111482156 7.893958192716563e6 0.0
7.893958192716563e6 -942991.2217753241 0.0
0.0 0.0 0.0

-930443.38348248 5.011981202256821e6 0.0
5.011981202256821e6 -1.2208308330894657e6 0.0
0.0 0.0 0.0

-347257.54446931375 3.9846922574659227e6 0.0
3.9846922574659227e6 90422.84771666612 0.0
0.0 0.0 0.0

-590679.5804337992 3.406571888875709e6 0.0
3.406571888875709e6 -2.0575378462297323e6 0.0
0.0 0.0 0.0

-1.6173247879030202e6 4.524651941884817e6 0.0
4.524651941884817e6 -236135.7127750307 0.0
0.0 0.0 0.0

-1.9128923017672396e6 5.195544756418447e6 0.0
5.195544756418447e6 2.890570286846947e6 0.0
0.0 0.0 0.0

-1.2381244061247045e6 1.0774485275108796e7 0.0
1.0774485275108796e7 -1.0584006179428701e6 0.0
0.0 0.0 0.0

-622451.4855235753 3.445988434423293e6 0.0
3.445988434423293e6 -2.0578738992690223e6 0.0
0.0 0.0 0.0

-4.622245454938247e6 -1.9934548664868376e6 0.0
-1.9934548664868376e6 4.679314582150494e6 0.0
0.0 0.0 0.0

-385162.23465886683 5.8956256022577e6 0.0
5.8956256022577e6 -561213.4508773548 0.0
0.0 0.0 0.0

-3.514181639083837e6 3.8283794426698503e6 0.0
3.8283794426698503e6 703262.2080672455 0.0
0.0 0.0 0.0

-797160.3469911999 5.520530273553502e6 0.0
5.520530273553502e6 -653070.0733653075 0.0
0.0 0.0 0.0

-2.3842366471501244e6 4.712009133015256e6 0.0
4.712009133015256e6 484852.1582644051 0.0
0.0 0.0 0.0

-7.677816118554047e6 321442.8810860799 0.0
321442.8810860799 9.887290775603822e6 0.0
0.0 0.0 0.0

-685157.9069934944 6.596572517839366e6 0.0
6.596572517839366e6 -1.2146365318301502e6 0.0
0.0 0.0 0.0

-2.2093509507052395e6 7.508272141742088e6 0.0
7.508272141742088e6 105027.61920620408 0.0
0.0 0.0 0.0

-1.5820480835626202e6 2.6482214015741674e6 0.0
2.6482214015741674e6 172854.88796855148 0.0
0.0 0.0 0.0

-5.904500204750914e6 -1.1935613455524044e6 0.0
-1.1935613455524044e6 3.018228749663745e6 0.0
0.0 0.0 0.0

-1.8915398060602467e6 2.734262985488267e6 0.0
2.734262985488267e6 378549.71154555515 0.0
0.0 0.0 0.0

-164151.59376868943 2.187583993293076e6 0.0
2.187583993293076e6 85298.83479217233 0.0
0.0 0.0 0.0

-2.2574171131818816e6 2.1280511827099253e6 0.0
2.1280511827099253e6 4.872903165058751e6 0.0
0.0 0.0 0.0

-3.007863689205264e6 3.9869986658814545e6 0.0
3.9869986658814545e6 798097.5800772258 0.0
0.0 0.0 0.0

-3.864779150615677e6 3.7435410608468456e6 0.0
3.7435410608468456e6 987054.8341713899 0.0
0.0 0.0 0.0

-3.1659253047794043e6 873340.5801565512 0.0
873340.5801565512 6.242375219285206e6 0.0
0.0 0.0 0.0

-18386.910890330095 4.6191466210924145e6 0.0
4.6191466210924145e6 -1.3355373204786466e6 0.0
0.0 0.0 0.0

-269002.2024200955 7.08761303931483e6 0.0
7.08761303931483e6 -1.2908252450690386e6 0.0
0.0 0.0 0.0

-412251.2788210537 4.206127642886492e6 0.0
4.206127642886492e6 -1.8159383814076225e6 0.0
0.0 0.0 0.0

-1.1064438588360075e6 1.4616907036841365e6 0.0
1.4616907036841365e6 1.5366723718842962e6 0.0
0.0 0.0 0.0

-3.19214610567202e6 3.981861206191036e6 0.0
3.981861206191036e6 825805.0043902111 0.0
0.0 0.0 0.0

-1.4381764015362712e6 3.005539838708559e6 0.0
3.005539838708559e6 1.7106775272294267e6 0.0
0.0 0.0 0.0

-621221.2602489166 3.4113549074289636e6 0.0
3.4113549074289636e6 -2.007427979531292e6 0.0
0.0 0.0 0.0

-2.975400502969933e6 5.118434056170399e6 0.0
5.118434056170399e6 210589.24645603867 0.0
0.0 0.0 0.0

-1.43900374099195e6 5.90568737150496e6 0.0
5.90568737150496e6 206945.00336780515 0.0
0.0 0.0 0.0

299544.21736848925 3.736275396473531e6 0.0
3.736275396473531e6 -1.893234303422187e6 0.0
0.0 0.0 0.0

-728983.258726799 5.5953191610842785e6 0.0
5.5953191610842785e6 -228147.13187669122 0.0
0.0 0.0 0.0

-2.554503957506682e6 3.2431342381834155e6 0.0
3.2431342381834155e6 1.0037430746129835e6 0.0
0.0 0.0 0.0

-785059.7932645613 6.235832922631383e6 0.0
6.235832922631383e6 -963614.9319620272 0.0
0.0 0.0 0.0

-3.233595489536096e6 4.0763344625972337e6 0.0
4.0763344625972337e6 591521.1268385472 0.0
0.0 0.0 0.0

-2.491999975298052e6 3.397740308546755e6 0.0
3.397740308546755e6 983402.9809853436 0.0
0.0 0.0 0.0

-3.0328201556553724e6 3.9688680263166507e6 0.0
3.9688680263166507e6 786823.7520262473 0.0
0.0 0.0 0.0

-867449.8972987302 2.5259430102230106e6 0.0
2.5259430102230106e6 -62805.76313422076 0.0
0.0 0.0 0.0

-78752.88362618441 6.231983134173268e6 0.0
6.231983134173268e6 -531954.8638013134 0.0
0.0 0.0 0.0

-770218.9383544056 5.017503683936188e6 0.0
5.017503683936188e6 -1.3924375371520687e6 0.0
0.0 0.0 0.0

-1.8237020346812236e6 2.7167511691734004e6 0.0
2.7167511691734004e6 403247.0602136869 0.0
0.0 0.0 0.0

-819039.7356749407 5.893747806554468e6 0.0
5.893747806554468e6 -1.1448977137048105e6 0.0
0.0 0.0 0.0

292790.65142268623 8.011331301564883e6 0.0
8.011331301564883e6 -1.1489845391694147e6 0.0
0.0 0.0 0.0

-1.0075967057327579e6 3.829810337026336e6 0.0
3.829810337026336e6 2.373759410977634e6 0.0
0.0 0.0 0.0

-261278.6963488969 287676.78629900195 0.0
287676.78629900195 108751.28505385124 0.0
0.0 0.0 0.0

-92247.56946638046 6.270922258231533e6 0.0
6.270922258231533e6 -420732.6567808496 0.0
0.0 0.0 0.0

-2.8638573128764676e6 3.9406417906444035e6 0.0
3.9406417906444035e6 855757.0635937736 0.0
0.0 0.0 0.0

-656217.8921241555 5.084096097796701e6 0.0
5.084096097796701e6 -1.5394419660948596e6 0.0
0.0 0.0 0.0

-1.6470077930237916e6 6.928469870846219e6 0.0
6.928469870846219e6 460006.6331863388 0.0
0.0 0.0 0.0

-869091.6109355681 5.743211580247311e6 0.0
5.743211580247311e6 -214530.27078608886 0.0
0.0 0.0 0.0

-314786.24940999143 5.777081778632389e6 0.0
5.777081778632389e6 -1.9862901181497127e6 0.0
0.0 0.0 0.0

-1.5630618436227434e6 6.216589538458609e6 0.0
6.216589538458609e6 -239134.4371458029 0.0
0.0 0.0 0.0

-790784.5466622584 5.404612553319652e6 0.0
5.404612553319652e6 -1.3333615000578722e6 0.0
0.0 0.0 0.0

385108.31768186734 2.5791632442723494e6 0.0
2.5791632442723494e6 -802755.821026722 0.0
0.0 0.0 0.0

-2.953832131360047e6 7.667442407741388e6 0.0
7.667442407741388e6 1.9052618624013094e6 0.0
0.0 0.0 0.0

-1.4444415084544737e6 5.215905228968227e6 0.0
5.215905228968227e6 169271.19538629364 0.0
0.0 0.0 0.0

-2.89784879851607e6 3.969963038047479e6 0.0
3.969963038047479e6 834612.8901554218 0.0
0.0 0.0 0.0

-616017.4023264874 5.513718067701645e6 0.0
5.513718067701645e6 -500343.4992245162 0.0
0.0 0.0 0.0

481084.9176697135 1.8427794047159767e6 0.0
1.8427794047159767e6 -519437.3794286435 0.0
0.0 0.0 0.0

-2.481367747246233e6 694664.9951125301 0.0
694664.9951125301 3.0822354603192993e6 0.0
0.0 0.0 0.0

-796820.7849853269 6.07040816936223e6 0.0
6.07040816936223e6 -1.0700057601158912e6 0.0
0.0 0.0 0.0

-288172.58320261707 4.191588585064274e6 0.0
4.191588585064274e6 -1.9765579766363266e6 0.0
0.0 0.0 0.0

86009.43960187142 2.672659118795271e6 0.0
2.672659118795271e6 -207303.98310195265 0.0
0.0 0.0 0.0

-133710.69533261118 963858.631739152 0.0
963858.631739152 -563147.6699823322 0.0
0.0 0.0 0.0

-1.5715482917008947e6 3.5595821986702504e6 0.0
3.5595821986702504e6 228741.93814653042 0.0
0.0 0.0 0.0

-1.8414820358408901e6 5.5237660908750985e6 0.0
5.5237660908750985e6 458174.11266683333 0.0
0.0 0.0 0.0

-759659.9922963608 3.4476412778616804e6 0.0
3.4476412778616804e6 -1.9738735419047642e6 0.0
0.0 0.0 0.0

1.005283588018756e6 7.541095441862377e6 0.0
7.541095441862377e6 -599660.3262584859 0.0
0.0 0.0 0.0

-3.1366884787611035e6 3.864381710912885e6 0.0
3.864381710912885e6 1.022445208850767e6 0.0
0.0 0.0 0.0

-1.099888722196678e6 6.355523668869074e6 0.0
6.355523668869074e6 -28976.733165760757 0.0
0.0 0.0 0.0

-5.84715176713127e6 3.066697838540345e6 0.0
3.066697838540345e6 2.0606406790384701e6 0.0
0.0 0.0 0.0

-3.053443121724481e6 3.9595575550131868e6 0.0
3.9595575550131868e6 874212.2665893419 0.0
0.0 0.0 0.0

-7.4163424401751505e6 4.853181256898271e6 0.0
4.853181256898271e6 6.004509500429975e6 0.0
0.0 0.0 0.0

-1.440073604117311e6 5.837857920395755e6 0.0
5.837857920395755e6 -160095.24247075734 0.0
0.0 0.0 0.0

-519566.30527466995 4.021787040764365e6 0.0
4.021787040764365e6 -1.996913526399511e6 0.0
0.0 0.0 0.0

-1.8327220195333208e6 2.6303959648511787e6 0.0
2.6303959648511787e6 275902.84108564316 0.0
0.0 0.0 0.0

-704097.4298009851 -226579.25289942467 0.0
-226579.25289942467 897604.1938365472 0.0
0.0 0.0 0.0

-3.3362246161647774e6 -803686.214475859 0.0
-803686.214475859 5.2292365303848125e6 0.0
0.0 0.0 0.0

302665.29200402624 4.855609103490859e6 0.0
4.855609103490859e6 -1.8733509674165444e6 0.0
0.0 0.0 0.0

-1.8790968546611536e6 4.973179044730753e6 0.0
4.973179044730753e6 331214.5359067174 0.0
0.0 0.0 0.0

-4.146791427679325e6 1.6349922489234076e6 0.0
1.6349922489234076e6 8.634031590353373e6 0.0
0.0 0.0 0.0

-814926.7100449565 5.67826845602988e6 0.0
5.67826845602988e6 -1.2335564614013825e6 0.0
0.0 0.0 0.0

-5.200035890437825e6 2.3448288676789133e6 0.0
2.3448288676789133e6 7.243108610470157e6 0.0
0.0 0.0 0.0

-1.9605984952269574e6 5.759349310526697e6 0.0
5.759349310526697e6 -12697.508252252708 0.0
0.0 0.0 0.0

-3.305783673998647e6 6.754122633320673e6 0.0
6.754122633320673e6 981159.2843661783 0.0
0.0 0.0 0.0

-837317.5038630703 5.808789208891781e6 0.0
5.808789208891781e6 20426.31248501991 0.0
0.0 0.0 0.0

-36161.0145941664 1.743438342203427e6 0.0
1.743438342203427e6 -265412.5635104731 0.0
0.0 0.0 0.0

-489942.4169125411 5.653867233608863e6 0.0
5.653867233608863e6 -530907.3940668098 0.0
0.0 0.0 0.0

-1.5695245492812637e6 3.5577457752467818e6 0.0
3.5577457752467818e6 232003.86750679463 0.0
0.0 0.0 0.0

500002.36263694253 5.623704438115818e6 0.0
5.623704438115818e6 -1.9470909010305647e6 0.0
0.0 0.0 0.0

-522623.50772051804 7.219976688916924e6 0.0
7.219976688916924e6 -830472.5001316289 0.0
0.0 0.0 0.0

-6.17191119865067e6 304210.98339638475 0.0
304210.98339638475 3.8589131352286553e6 0.0
0.0 0.0 0.0

-3.338869004993385e6 6.823315135792647e6 0.0
6.823315135792647e6 369115.3198519971 0.0
0.0 0.0 0.0

-3.2629151849087267e6 3.9013338649878707e6 0.0
3.9013338649878707e6 1.1619129220060396e6 0.0
0.0 0.0 0.0

-769457.2613259102 3.282957503259757e6 0.0
3.282957503259757e6 -1.2038776098557976e6 0.0
0.0 0.0 0.0

-1.6251517379229995e6 5.605792994212669e6 0.0
5.605792994212669e6 83416.06923454173 0.0
0.0 0.0 0.0

-3.5116802028363063e6 5.562877451196224e6 0.0
5.562877451196224e6 1.48522470742838e6 0.0
0.0 0.0 0.0

-844887.4306951378 5.561426945594377e6 0.0
5.561426945594377e6 -18698.76409508713 0.0
0.0 0.0 0.0

-718261.361442 5.4838267628978845e6 0.0
5.4838267628978845e6 -403646.521384476 0.0
0.0 0.0 0.0

-550878.1569653759 3.339184534755371e6 0.0
3.339184534755371e6 -1.3213804726935423e6 0.0
0.0 0.0 0.0

-4.033280560887322e6 3.9322921860326077e6 0.0
3.9322921860326077e6 1.4440992384535505e6 0.0
0.0 0.0 0.0

-245461.15838962776 1.0283019541666715e6 0.0
1.0283019541666715e6 -202801.98794114456 0.0
0.0 0.0 0.0

455526.7442589111 6.006946008593616e6 0.0
6.006946008593616e6 -1.5941443275583351e6 0.0
0.0 0.0 0.0

-3.128374245164076e6 4.7579485881694835e6 0.0
4.7579485881694835e6 1.2976992694661166e6 0.0
0.0 0.0 0.0

-732959.7352155264 5.038812867442913e6 0.0
5.038812867442913e6 -1.4260862688787933e6 0.0
0.0 0.0 0.0

269064.9306635244 1.5163644026815912e6 0.0
1.5163644026815912e6 -785297.7578521132 0.0
0.0 0.0 0.0

-261981.04930831282 3.4516721124445605e6 0.0
3.4516721124445605e6 -2.1935824423092837e6 0.0
0.0 0.0 0.0

-4.115010700880644e6 4.4004184338049395e6 0.0
4.4004184338049395e6 3.4390121702834545e6 0.0
0.0 0.0 0.0

-338688.81092735956 5.765128520557909e6 0.0
5.765128520557909e6 -1.9343074823255753e6 0.0
0.0 0.0 0.0

-332859.0489763819 3.4961288136097114e6 0.0
3.4961288136097114e6 1.506130482193835e6 0.0
0.0 0.0 0.0

-965992.9012561514 2.549060076896193e6 0.0
2.549060076896193e6 -95316.67714943475 0.0
0.0 0.0 0.0

419961.6902350838 2.118262860967039e6 0.0
2.118262860967039e6 -976990.4593075911 0.0
0.0 0.0 0.0

-1.2025511032595388e6 8.028396448297936e6 0.0
8.028396448297936e6 221995.81426360953 0.0
0.0 0.0 0.0

-65276.08063847228 1.5889623007753391e6 0.0
1.5889623007753391e6 634319.9173930178 0.0
0.0 0.0 0.0

-611119.159473825 6.847682353844231e6 0.0
6.847682353844231e6 -1.1565461721291651e6 0.0
0.0 0.0 0.0

-715942.9492602209 5.417225609907403e6 0.0
5.417225609907403e6 -1.0721578736842363e6 0.0
0.0 0.0 0.0

-477616.57224373287 8.821192949419089e6 0.0
8.821192949419089e6 -1.1020004769040653e6 0.0
0.0 0.0 0.0

-700270.0800812563 6.141525875077906e6 0.0
6.141525875077906e6 -1.1638124208910074e6 0.0
0.0 0.0 0.0

-247580.25804380476 6.4784191706843395e6 0.0
6.4784191706843395e6 611693.2947666848 0.0
0.0 0.0 0.0

-2.241816067767595e6 4.847839368814135e6 0.0
4.847839368814135e6 454533.64312036254 0.0
0.0 0.0 0.0

-106526.15705151446 46780.70516852187 0.0
46780.70516852187 258729.43911273696 0.0
0.0 0.0 0.0

-2.8664390754179712e6 5.088220766366607e6 0.0
5.088220766366607e6 1.214783571955266e6 0.0
0.0 0.0 0.0

-472070.2966290675 5.708451063853154e6 0.0
5.708451063853154e6 -382588.93894662807 0.0
0.0 0.0 0.0

-443879.2610565539 6.394620427790835e6 0.0
6.394620427790835e6 -1.5024458818288613e6 0.0
0.0 0.0 0.0

274778.6102960148 4.607803024140849e6 0.0
4.607803024140849e6 -1.917672415989765e6 0.0
0.0 0.0 0.0

-2.5333527571342634e6 3.4530011806840724e6 0.0
3.4530011806840724e6 829877.2133373813 0.0
0.0 0.0 0.0

-884047.1224623121 3.1016575353096323e6 0.0
3.1016575353096323e6 -360586.9106868991 0.0
0.0 0.0 0.0

-1.273975478735392e6 2.2160944987571402e6 0.0
2.2160944987571402e6 2.6110574877871596e6 0.0
0.0 0.0 0.0

-613374.0007063234 4.7012717994717145e6 0.0
4.7012717994717145e6 -1.6107024137088265e6 0.0
0.0 0.0 0.0

-614550.6437292615 3.8525114183950415e6 0.0
3.8525114183950415e6 -2.0328781507051114e6 0.0
0.0 0.0 0.0

-2.9241260006135525e6 5.314781402270566e6 0.0
5.314781402270566e6 1.2424581971142143e6 0.0
0.0 0.0 0.0

-653469.0094118176 5.475392176316981e6 0.0
5.475392176316981e6 -480707.0365552653 0.0
0.0 0.0 0.0

-7.920165913947637e6 -1.7223876696121986e6 0.0
-1.7223876696121986e6 4.222322853485541e6 0.0
0.0 0.0 0.0

-481110.77563204925 6.628723267662017e6 0.0
6.628723267662017e6 1.301068680895941e6 0.0
0.0 0.0 0.0

-4.022154749772439e6 3.877319433179472e6 0.0
3.877319433179472e6 -914883.5384707397 0.0
0.0 0.0 0.0

-329148.8236800156 5.389323767618004e6 0.0
5.389323767618004e6 -2.1089364264495256e6 0.0
0.0 0.0 0.0

1.6767355631646079e6 1.69012134511018e6 0.0
1.69012134511018e6 487724.30212243384 0.0
0.0 0.0 0.0

-1.2126347276275738e6 -922250.2914568866 0.0
-922250.2914568866 1.4830564906299706e6 0.0
0.0 0.0 0.0

-398807.67315180803 3.0516072763542114e6 0.0
3.0516072763542114e6 -359314.460520935 0.0
0.0 0.0 0.0

-347537.73993992544 646551.7427316441 0.0
646551.7427316441 66902.99769855542 0.0
0.0 0.0 0.0

-203409.0054386387 1.950016738379958e6 0.0
1.950016738379958e6 -71661.87092199276 0.0
0.0 0.0 0.0

-745722.1638091975 5.896383228552467e6 0.0
5.896383228552467e6 -1.152912884736681e6 0.0
0.0 0.0 0.0

-553864.1052004352 4.184636097581262e6 0.0
4.184636097581262e6 -1.8462136717772344e6 0.0
0.0 0.0 0.0

-153459.76085591168 6.316604448087636e6 0.0
6.316604448087636e6 -511532.5398472171 0.0
0.0 0.0 0.0

-814626.2996639975 5.405241812384597e6 0.0
5.405241812384597e6 -1.1033368825115596e6 0.0
0.0 0.0 0.0

-3.0104449147154205e6 5.561227619904643e6 0.0
5.561227619904643e6 1.2662225682212093e6 0.0
0.0 0.0 0.0

-89774.02569636513 2.547352675940414e6 0.0
2.547352675940414e6 -269680.1668929887 0.0
0.0 0.0 0.0

-843572.9663864677 6.288536819222114e6 0.0
6.288536819222114e6 -1.052391870813075e6 0.0
0.0 0.0 0.0

-2.688418177171399e6 3.5853405361363753e6 0.0
3.5853405361363753e6 979402.6021867904 0.0
0.0 0.0 0.0

-136937.1360553443 4.988485089585832e6 0.0
4.988485089585832e6 -2.0232218688381442e6 0.0
0.0 0.0 0.0

-120290.31739291857 1.696406488426835e6 0.0
1.696406488426835e6 506176.34719148435 0.0
0.0 0.0 0.0

-2.510331021863424e6 5.230642734605754e6 0.0
5.230642734605754e6 962053.0885525267 0.0
0.0 0.0 0.0

-735269.8844711987 5.455216953592924e6 0.0
5.455216953592924e6 -451856.9236256075 0.0
0.0 0.0 0.0

-847746.111367969 5.452033083793983e6 0.0
5.452033083793983e6 -403827.0777465524 0.0
0.0 0.0 0.0

-3.012890746423061e6 4.695677928020884e6 0.0
4.695677928020884e6 2.0019354581051134e6 0.0
0.0 0.0 0.0

-106808.86186158589 6.202558708429905e6 0.0
6.202558708429905e6 -516463.5962212052 0.0
0.0 0.0 0.0

-2.995380988224277e6 6.150647807888928e6 0.0
6.150647807888928e6 1.6292156387299811e6 0.0
0.0 0.0 0.0

-3.5401186668425007e6 1.5020741794849674e6 0.0
1.5020741794849674e6 4.887791535418405e6 0.0
0.0 0.0 0.0

-242247.72237337803 -124678.99778366377 0.0
-124678.99778366377 248956.56896337363 0.0
0.0 0.0 0.0

-528218.382985374 6.5257554615207445e6 0.0
6.5257554615207445e6 -1.7274777975930797e6 0.0
0.0 0.0 0.0

367499.89778093214 4.546093845581466e6 0.0
4.546093845581466e6 -1.8354390777536146e6 0.0
0.0 0.0 0.0

-771874.073767711 6.469510912979941e6 0.0
6.469510912979941e6 -955307.5220192941 0.0
0.0 0.0 0.0

-130627.35166060299 4.868327341264666e6 0.0
4.868327341264666e6 -1.1613210124352598e6 0.0
0.0 0.0 0.0

1.2373328671610474e6 6.76620271821354e6 0.0
6.76620271821354e6 -1.8624312387050365e6 0.0
0.0 0.0 0.0

-374224.81394852605 4.016575021493941e6 0.0
4.016575021493941e6 -1.9168968334697532e6 0.0
0.0 0.0 0.0

-669781.6973349407 3.5695031497443514e6 0.0
3.5695031497443514e6 -2.0594644972310888e6 0.0
0.0 0.0 0.0

-1.6149780609584383e6 3.4031043069208525e6 0.0
3.4031043069208525e6 263769.04030039127 0.0
0.0 0.0 0.0

-1.8058815955055365e6 5.0579923798465105e6 0.0
5.0579923798465105e6 342597.21644869377 0.0
0.0 0.0 0.0

-3.5152470636207294e6 6.268657652784364e6 0.0
6.268657652784364e6 1.9203812511630012e6 0.0
0.0 0.0 0.0

-1.555871477129156e6 -290812.0808964312 0.0
-290812.0808964312 3.7224252303560516e6 0.0
0.0 0.0 0.0

-694218.0200030501 3.4699732880783845e6 0.0
3.4699732880783845e6 -2.0398641685676707e6 0.0
0.0 0.0 0.0

-4.0590776666524564e6 1.24157224103689e6 0.0
1.24157224103689e6 5.659741637567784e6 0.0
0.0 0.0 0.0

-970950.9543801291 5.476067607986811e6 0.0
5.476067607986811e6 -312642.7598947638 0.0
0.0 0.0 0.0

-3.2577039401909946e6 5.431215756978475e6 0.0
5.431215756978475e6 1.0628269572544186e6 0.0
0.0 0.0 0.0

-2.59660914328966e6 4.881847959208941e6 0.0
4.881847959208941e6 395041.4825861112 0.0
0.0 0.0 0.0

-1.3353423878395874e6 2.2814750347989346e6 0.0
2.2814750347989346e6 2.0871256794498805e6 0.0
0.0 0.0 0.0

-377110.0833517648 4.339645190855996e6 0.0
4.339645190855996e6 -1.8786137411434553e6 0.0
0.0 0.0 0.0

-144537.097037388 6.18447279042232e6 0.0
6.18447279042232e6 -549797.2349265952 0.0
0.0 0.0 0.0

210013.47770548135 5.18421706563418e6 0.0
5.18421706563418e6 -1.9241571539351428e6 0.0
0.0 0.0 0.0

32706.788662368548 3.2939243528197464e6 0.0
3.2939243528197464e6 -3.1016781103591677e6 0.0
0.0 0.0 0.0

-2.0356789890029114e6 1.1765574453901967e6 0.0
1.1765574453901967e6 3.686713863719778e6 0.0
0.0 0.0 0.0

-1.366230819920046e6 5.3308489175055735e6 0.0
5.3308489175055735e6 25040.38900806097 0.0
0.0 0.0 0.0

-3.6820679621360213e6 5.368822691914845e6 0.0
5.368822691914845e6 -706852.7168918827 0.0
0.0 0.0 0.0

-617973.247375051 5.100352254199087e6 0.0
5.100352254199087e6 -1.6866199777010635e6 0.0
0.0 0.0 0.0

-372556.57160560315 4.836016721571359e6 0.0
4.836016721571359e6 -2.0841186273780302e6 0.0
0.0 0.0 0.0

-715839.9402968382 3.398192264839884e6 0.0
3.398192264839884e6 -2.0540757957150952e6 0.0
0.0 0.0 0.0

543544.6206737616 2.9138948206879534e6 0.0
2.9138948206879534e6 -1.547787893483995e6 0.0
0.0 0.0 0.0

-804160.8070059719 6.305237638618838e6 0.0
6.305237638618838e6 -703692.9554332341 0.0
0.0 0.0 0.0

-740064.7082611187 6.9368476657375535e6 0.0
6.9368476657375535e6 -732750.855943522 0.0
0.0 0.0 0.0

-4.069570896477414e6 3.0432866380065153e6 0.0
3.0432866380065153e6 1.0126344255473944e6 0.0
0.0 0.0 0.0

1.0082388858684506e6 1.4217309423955337e6 0.0
1.4217309423955337e6 -690704.9385670035 0.0
0.0 0.0 0.0

-705522.6955174465 5.411880033723215e6 0.0
5.411880033723215e6 -1.3361276444394575e6 0.0
0.0 0.0 0.0

-1.3122948406233992e6 3.3067057195496676e6 0.0
3.3067057195496676e6 2.092653099731735e6 0.0
0.0 0.0 0.0

-119866.19895473402 1.2872528397595354e6 0.0
1.2872528397595354e6 632677.2042381327 0.0
0.0 0.0 0.0

409051.8923783712 5.763534880648341e6 0.0
5.763534880648341e6 -1.9045452933579772e6 0.0
0.0 0.0 0.0

-276007.6783973733 2.1001323871623687e6 0.0
2.1001323871623687e6 503926.39676741266 0.0
0.0 0.0 0.0

-93059.25596564174 2.3221436736645596e6 0.0
2.3221436736645596e6 349781.3552902543 0.0
0.0 0.0 0.0

97856.71458544335 2.781562028720649e6 0.0
2.781562028720649e6 -619807.1219296794 0.0
0.0 0.0 0.0

-1.4869188363248084e6 5.167653039602093e6 0.0
5.167653039602093e6 334189.28204138327 0.0
0.0 0.0 0.0

-1.6201372518546348e6 2.508321046902628e6 0.0
2.508321046902628e6 207527.01354208682 0.0
0.0 0.0 0.0

3.365850803579014e6 3.807950745046345e6 0.0
3.807950745046345e6 471744.20648977696 0.0
0.0 0.0 0.0

-3.098881763188522e6 -1.9408796071283417e6 0.0
-1.9408796071283417e6 2.9194874738584952e6 0.0
0.0 0.0 0.0

1.158782466748356e6 3.9808800355051546e6 0.0
3.9808800355051546e6 -1.3260536244928618e6 0.0
0.0 0.0 0.0

-375905.9439533541 4.895520306076504e6 0.0
4.895520306076504e6 -2.1694850413019233e6 0.0
0.0 0.0 0.0

-136512.23486184538 5.0564757682423545e6 0.0
5.0564757682423545e6 -2.12247973464493e6 0.0
0.0 0.0 0.0

725864.0901001107 14887.20110069174 0.0
14887.20110069174 46893.31482879323 0.0
0.0 0.0 0.0

-764517.4520271099 -15796.62439211408 0.0
-15796.62439211408 865347.0097641391 0.0
0.0 0.0 0.0

-458142.77430218155 3.50615445712588e6 0.0
3.50615445712588e6 -1.8788551687087766e6 0.0
0.0 0.0 0.0

357008.39181024267 5.28487639996226e6 0.0
5.28487639996226e6 -1.8914968672485894e6 0.0
0.0 0.0 0.0

-4.560278348065127e6 7.851258082767305e6 0.0
7.851258082767305e6 1.8017321559225437e6 0.0
0.0 0.0 0.0

-1.8927267536551482e6 3.8619191546255606e6 0.0
3.8619191546255606e6 971174.2983061097 0.0
0.0 0.0 0.0

-2.2001433803329077e6 5.340326318235465e6 0.0
5.340326318235465e6 699871.6360744514 0.0
0.0 0.0 0.0

-74363.86846916113 6.241194989908613e6 0.0
6.241194989908613e6 -513216.61311476334 0.0
0.0 0.0 0.0

-95654.65579009021 2.818260995465984e6 0.0
2.818260995465984e6 2.483485476217393e6 0.0
0.0 0.0 0.0

-4.446387596924888e6 4.631350571418665e6 0.0
4.631350571418665e6 2.7687147013243353e6 0.0
0.0 0.0 0.0

-444949.4770410679 358057.0912933137 0.0
358057.0912933137 1.7702434811326705e6 0.0
0.0 0.0 0.0

-1.6323262389857438e6 5.1269980691863205e6 0.0
5.1269980691863205e6 264615.94398319686 0.0
0.0 0.0 0.0

-698497.8330969136 7.027172894808207e6 0.0
7.027172894808207e6 -767583.3528445081 0.0
0.0 0.0 0.0

-1.4630232363679553e6 3.6282497667225064e6 0.0
3.6282497667225064e6 2.0123113366771734e6 0.0
0.0 0.0 0.0

21973.051890857554 646158.4384422003 0.0
646158.4384422003 -80041.80869430711 0.0
0.0 0.0 0.0

-3.121587650096257e6 5.00382028948361e6 0.0
5.00382028948361e6 1.0834854767849497e6 0.0
0.0 0.0 0.0

-282643.44741498714 5.259667708309479e6 0.0
5.259667708309479e6 -2.101226358249875e6 0.0
0.0 0.0 0.0

-1.0538210194598427e6 6.637081030645877e6 0.0
6.637081030645877e6 -63540.044659041974 0.0
0.0 0.0 0.0

210172.90206547524 5.2235675602712715e6 0.0
5.2235675602712715e6 -1.9887789551893743e6 0.0
0.0 0.0 0.0

134551.94434361235 4.358880227514971e6 0.0
4.358880227514971e6 1.280361615770777e6 0.0
0.0 0.0 0.0

-1.0828522414764217e6 4.947921813886078e6 0.0
4.947921813886078e6 -454685.530506176 0.0
0.0 0.0 0.0

137314.06247540173 1.6541058939934822e6 0.0
1.6541058939934822e6 -975006.0642072341 0.0
0.0 0.0 0.0

-433377.268548235 4.1306983097030814e6 0.0
4.1306983097030814e6 -1.8120173145340884e6 0.0
0.0 0.0 0.0

312182.53208663047 5.288164397052589e6 0.0
5.288164397052589e6 -1.897314703368111e6 0.0
0.0 0.0 0.0

-782017.9510874278 8.56812374773407e6 0.0
8.56812374773407e6 -836002.7202765031 0.0
0.0 0.0 0.0

1.192604481102723e6 5.038795462797338e6 0.0
5.038795462797338e6 -2.419134004699268e6 0.0
0.0 0.0 0.0

-456047.2438838151 2.2376037139367666e6 0.0
2.2376037139367666e6 -258381.50244729462 0.0
0.0 0.0 0.0

-2.8675699237075867e6 3.88375206397206e6 0.0
3.88375206397206e6 897612.4521590266 0.0
0.0 0.0 0.0

-712524.4708652396 3.3875255874885335e6 0.0
3.3875255874885335e6 -1.9957886108544662e6 0.0
0.0 0.0 0.0

-574566.271388178 4.309204609848827e6 0.0
4.309204609848827e6 -1.9152208846693197e6 0.0
0.0 0.0 0.0

-146751.99627946736 6.290646930423168e6 0.0
6.290646930423168e6 -489173.311451005 0.0
0.0 0.0 0.0

-1.7226592711271327e6 2.761362582566031e6 0.0
2.761362582566031e6 219999.71831363544 0.0
0.0 0.0 0.0

-1.4341166879459317e6 3.3450211961655663e6 0.0
3.3450211961655663e6 -45216.23629657383 0.0
0.0 0.0 0.0

-226660.0261669154 5.963786733257055e6 0.0
5.963786733257055e6 -481233.3014213513 0.0
0.0 0.0 0.0

178442.6924132086 767736.015096768 0.0
767736.015096768 -261588.31383847492 0.0
0.0 0.0 0.0

-524772.0447640908 5.707886241360695e6 0.0
5.707886241360695e6 -1.1164896010521157e6 0.0
0.0 0.0 0.0

-2.0294351657838114e6 4.367308525583733e6 0.0
4.367308525583733e6 799017.3397261791 0.0
0.0 0.0 0.0

1.2524469623466711e6 2.804818045580341e6 0.0
2.804818045580341e6 -3.1818971171637927e6 0.0
0.0 0.0 0.0

-485479.66442337265 1.6532297068835534e6 0.0
1.6532297068835534e6 -94802.78963369547 0.0
0.0 0.0 0.0

-2.3035331868330794e6 6.351506313392547e6 0.0
6.351506313392547e6 949332.3016759955 0.0
0.0 0.0 0.0

-1.6335620011341642e6 3.4950888373109656e6 0.0
3.4950888373109656e6 1.4475598010765363e6 0.0
0.0 0.0 0.0

-453532.68967568816 5.631714604875139e6 0.0
5.631714604875139e6 -447407.06602225703 0.0
0.0 0.0 0.0

-505305.9020500054 2.58917078473667e6 0.0
2.58917078473667e6 370990.31098578434 0.0
0.0 0.0 0.0

-799890.3874765474 6.910498796122602e6 0.0
6.910498796122602e6 -775169.8809613608 0.0
0.0 0.0 0.0

-2.2154544889006414e6 4.829176431051257e6 0.0
4.829176431051257e6 463509.04020269774 0.0
0.0 0.0 0.0

-911407.4584575502 1.264571782721183e6 0.0
1.264571782721183e6 2.0708192980297874e6 0.0
0.0 0.0 0.0

-922180.1482460548 3.1155879085649615e6 0.0
3.1155879085649615e6 -381623.72500117304 0.0
0.0 0.0 0.0

-152571.1216365056 214044.5853620284 0.0
214044.5853620284 -111736.18993397447 0.0
0.0 0.0 0.0

-784058.2679494021 6.136937543126252e6 0.0
6.136937543126252e6 -1.1576157407511426e6 0.0
0.0 0.0 0.0

-1.7273427045817762e6 5.055518981870069e6 0.0
5.055518981870069e6 361089.0966150599 0.0
0.0 0.0 0.0

-1.1302431443494451e6 5.560274497145727e6 0.0
5.560274497145727e6 -180692.53005837515 0.0
0.0 0.0 0.0

-43074.3864938099 8.128060063016951e6 0.0
8.128060063016951e6 -916249.7874427513 0.0
0.0 0.0 0.0

1449.0070844526635 534422.7748353571 0.0
534422.7748353571 408978.64985882246 0.0
0.0 0.0 0.0

-4.493583467558991e6 2.647799924733643e6 0.0
2.647799924733643e6 6.271361215817599e6 0.0
0.0 0.0 0.0

-2.7467742152503207e6 1.12645498718658e6 0.0
1.12645498718658e6 5.513156184021864e6 0.0
0.0 0.0 0.0

-1.3870180887660533e6 4.377094799023907e6 0.0
4.377094799023907e6 421337.4996186983 0.0
0.0 0.0 0.0

-596067.9143790167 2.3435132475411086e6 0.0
2.3435132475411086e6 43782.696733382065 0.0
0.0 0.0 0.0

-1.4176404055487153e6 3.3652228359677256e6 0.0
3.3652228359677256e6 -93028.02925507264 0.0
0.0 0.0 0.0

-1.6130766488162582e6 3.2768977379436856e6 0.0
3.2768977379436856e6 194111.0481209904 0.0
0.0 0.0 0.0

-420820.6407063932 6.81770482539764e6 0.0
6.81770482539764e6 -1.2065633375647948e6 0.0
0.0 0.0 0.0

-1.456192362843247e6 5.187180381728664e6 0.0
5.187180381728664e6 403103.1677456759 0.0
0.0 0.0 0.0

-3.268555836958167e6 3.9850257760340376e6 0.0
3.9850257760340376e6 792998.7181542157 0.0
0.0 0.0 0.0

-1.539027114239025e6 1.3463546050958473e6 0.0
1.3463546050958473e6 2.0853442990072065e6 0.0
0.0 0.0 0.0

-406964.0485098037 6.1494638382803155e6 0.0
6.1494638382803155e6 -141506.55965055447 0.0
0.0 0.0 0.0

-770325.4729549526 5.613093357736049e6 0.0
5.613093357736049e6 -1.0122535889294522e6 0.0
0.0 0.0 0.0

-342740.1477750587 5.877839575000253e6 0.0
5.877839575000253e6 -1.957614846812682e6 0.0
0.0 0.0 0.0

423069.3955515728 5.087718240917552e6 0.0
5.087718240917552e6 -1.8912684137544595e6 0.0
0.0 0.0 0.0

-201119.37496018648 483793.17703063175 0.0
483793.17703063175 -114633.80709341931 0.0
0.0 0.0 0.0

-1.6714105191203726e6 5.0947330104849e6 0.0
5.0947330104849e6 321492.4301456744 0.0
0.0 0.0 0.0

-5.390333196070632e6 1.8275140102306562e6 0.0
1.8275140102306562e6 6.9704123604397755e6 0.0
0.0 0.0 0.0

-9.563348087021079e6 3.0478408573723244e6 0.0
3.0478408573723244e6 1.3116779818687715e7 0.0
0.0 0.0 0.0

-500898.2146980849 4.964774515203505e6 0.0
4.964774515203505e6 -1.340285770854825e6 0.0
0.0 0.0 0.0

-163316.37457017365 6.22069174700205e6 0.0
6.22069174700205e6 -544387.9042704597 0.0
0.0 0.0 0.0

-135831.90354553622 691226.9052816028 0.0
691226.9052816028 -141257.23768214515 0.0
0.0 0.0 0.0

-2.926137715502462e6 -1.0267860330167201e6 0.0
-1.0267860330167201e6 1.4733388681751122e6 0.0
0.0 0.0 0.0

-232130.957230817 5.7089814558898425e6 0.0
5.7089814558898425e6 -1.9762970777470735e6 0.0
0.0 0.0 0.0

-290132.6186316004 1.6184711338528562e6 0.0
1.6184711338528562e6 -348658.83385036443 0.0
0.0 0.0 0.0

-403606.5161010343 5.089954071632541e6 0.0
5.089954071632541e6 -2.120539466968644e6 0.0
0.0 0.0 0.0

-1.6995504884423525e6 2.2884915972006433e6 0.0
2.2884915972006433e6 3.8470472391280592e6 0.0
0.0 0.0 0.0

505668.8892967475 5.27143157057415e6 0.0
5.27143157057415e6 -1.946098121633919e6 0.0
0.0 0.0 0.0

-1.107264019955847e6 8.302963802966101e6 0.0
8.302963802966101e6 -566612.8849306777 0.0
0.0 0.0 0.0

-1.7176587617968286e6 2.5416419136599484e6 0.0
2.5416419136599484e6 342226.7807871589 0.0
0.0 0.0 0.0

-255602.8804386899 1.7850272191976232e6 0.0
1.7850272191976232e6 -891130.9921491718 0.0
0.0 0.0 0.0

4.102255752243966e6 4.580479517950759e6 0.0
4.580479517950759e6 274787.0613493123 0.0
0.0 0.0 0.0

-2.2141317542122426e6 2.7767499509516237e6 0.0
2.7767499509516237e6 3.374968300339139e6 0.0
0.0 0.0 0.0

-957674.075514731 1.7996744820370735e6 0.0
1.7996744820370735e6 -687713.8728207921 0.0
0.0 0.0 0.0

-511917.4502865144 830921.2617062192 0.0
830921.2617062192 -334920.4170192878 0.0
0.0 0.0 0.0

492325.19374183734 2.1198929702640343e6 0.0
2.1198929702640343e6 -830993.4193467804 0.0
0.0 0.0 0.0

-1.8031354466107516e6 6.165124941489241e6 0.0
6.165124941489241e6 412521.033814003 0.0
0.0 0.0 0.0

-1.8408237790004238e6 4.044259116286793e6 0.0
4.044259116286793e6 1.2991059140098584e6 0.0
0.0 0.0 0.0

-350688.2121701264 2.4314006088965377e6 0.0
2.4314006088965377e6 -3052.191053984774 0.0
0.0 0.0 0.0

39113.613601061516 5.891257199687493e6 0.0
5.891257199687493e6 -1.85333641283164e6 0.0
0.0 0.0 0.0

-602955.9171501944 3.8883794110375745e6 0.0
3.8883794110375745e6 -1.9459857139141082e6 0.0
0.0 0.0 0.0

233451.67950269015 2.804526067011264e6 0.0
2.804526067011264e6 -479226.1869446345 0.0
0.0 0.0 0.0

243206.79043003952 5.32103120371453e6 0.0
5.32103120371453e6 -1.9780875740619523e6 0.0
0.0 0.0 0.0

-562240.0162928242 6.213840484180947e6 0.0
6.213840484180947e6 -958703.0291701605 0.0
0.0 0.0 0.0

1.234862921678987e6 6.756338199436144e6 0.0
6.756338199436144e6 -2.880047303208195e6 0.0
0.0 0.0 0.0

218330.31756169058 4.2211296462138025e6 0.0
4.2211296462138025e6 -1.9630022868739972e6 0.0
0.0 0.0 0.0

-902763.6443198103 -256331.13149646152 0.0
-256331.13149646152 447191.074424919 0.0
0.0 0.0 0.0

-1.571374878332466e6 3.765671429622062e6 0.0
3.765671429622062e6 1.5306906418229262e6 0.0
0.0 0.0 0.0

-881104.9782878642 2.225363045476691e6 0.0
2.225363045476691e6 -78425.143848812 0.0
0.0 0.0 0.0

-425028.9889362301 2.42534017128865e6 0.0
2.42534017128865e6 267103.88670886 0.0
0.0 0.0 0.0

170354.76552162378 3.562257357157695e6 0.0
3.562257357157695e6 -2.0379959736703087e6 0.0
0.0 0.0 0.0

69598.51367090741 6.381055530714056e6 0.0
6.381055530714056e6 231995.3920211469 0.0
0.0 0.0 0.0

-1.018199810528285e6 3.7224871993048443e6 0.0
3.7224871993048443e6 1.7879992334060906e6 0.0
0.0 0.0 0.0

-349752.4174517223 3.6102675771493106e6 0.0
3.6102675771493106e6 -1.9156863899990937e6 0.0
0.0 0.0 0.0

-932086.097764853 2.9327442251196266e6 0.0
2.9327442251196266e6 -1.0292319844407355e6 0.0
0.0 0.0 0.0

-1.8689649640785933e6 4.377794892528839e6 0.0
4.377794892528839e6 1.1622122139911125e6 0.0
0.0 0.0 0.0

-14090.990957375383 7.510451696240901e6 0.0
7.510451696240901e6 -1.1597945894926637e6 0.0
0.0 0.0 0.0

-329282.5726417266 5.641189636425417e6 0.0
5.641189636425417e6 -2.0482182870114872e6 0.0
0.0 0.0 0.0

-3.389100835356931e6 5.651843235036413e6 0.0
5.651843235036413e6 1.1297410413131677e6 0.0
0.0 0.0 0.0

-514280.8149409706 4.1226445545121436e6 0.0
4.1226445545121436e6 -1.2954072269767323e6 0.0
0.0 0.0 0.0

-4.447013345767327e6 -3.710684864655423e6 0.0
-3.710684864655423e6 3.913928328183005e6 0.0
0.0 0.0 0.0

5.871116964133783e6 5.995776127464072e6 0.0
5.995776127464072e6 -288094.5139209549 0.0
0.0 0.0 0.0

-404563.2702418928 4.58101159546712e6 0.0
4.58101159546712e6 -422335.85837900627 0.0
0.0 0.0 0.0

-6.880177362594725e6 -4.541210587960395e6 0.0
-4.541210587960395e6 5.345113809810588e6 0.0
0.0 0.0 0.0

-329057.8364088057 5.717612781293891e6 0.0
5.717612781293891e6 -461944.0343224648 0.0
0.0 0.0 0.0

-1.2273821642924754e6 6.738843555134396e6 0.0
6.738843555134396e6 -426957.712044605 0.0
0.0 0.0 0.0

194394.45557634818 4.709945705594943e6 0.0
4.709945705594943e6 647981.8057297627 0.0
0.0 0.0 0.0

-220796.7921096478 2.325398971704502e6 0.0
2.325398971704502e6 -143850.65658043773 0.0
0.0 0.0 0.0

-1.8927247788690804e6 3.7534482543525426e6 0.0
3.7534482543525426e6 700303.1447505067 0.0
0.0 0.0 0.0

-1.740408944727537e7 5.696578003973389e6 0.0
5.696578003973389e6 6.015556488139071e6 0.0
0.0 0.0 0.0

394746.3159998198 5.596031285539603e6 0.0
5.596031285539603e6 -2.023582031041802e6 0.0
0.0 0.0 0.0

-1.332846157597111e6 5.764569264131776e6 0.0
5.764569264131776e6 12720.995644840586 0.0
0.0 0.0 0.0

-750951.6227076012 6.392366150131478e6 0.0
6.392366150131478e6 270565.86714725016 0.0
0.0 0.0 0.0

-592584.1370969857 4.492102604868572e6 0.0
4.492102604868572e6 -1.975280506831313e6 0.0
0.0 0.0 0.0

-160276.27011852496 6.256631890193672e6 0.0
6.256631890193672e6 -534254.2740046481 0.0
0.0 0.0 0.0

-659025.6692596984 3.453092778881824e6 0.0
3.453092778881824e6 -1.9219384801994404e6 0.0
0.0 0.0 0.0

-32764.460454949265 1.100463220483311e6 0.0
1.100463220483311e6 374790.01342319866 0.0
0.0 0.0 0.0

-2.8980034266451686e6 4.625107699352663e6 0.0
4.625107699352663e6 144051.38117660454 0.0
0.0 0.0 0.0

1.1254348871565382e6 8.137221164660428e6 0.0
8.137221164660428e6 -1.5601925231604427e6 0.0
0.0 0.0 0.0

-1.9407389219979874e6 2.848543952414918e6 0.0
2.848543952414918e6 2.9801153806413524e6 0.0
0.0 0.0 0.0

-103837.23221074046 2.0139720596897136e6 0.0
2.0139720596897136e6 -732727.1229670275 0.0
0.0 0.0 0.0

-3.0267285805207845e6 4.1441905713282283e6 0.0
4.1441905713282283e6 703207.539970299 0.0
0.0 0.0 0.0

-4.22805471387986e6 3.2252379868696737e6 0.0
3.2252379868696737e6 831319.7958109947 0.0
0.0 0.0 0.0

-478584.1012143554 -459701.073889443 0.0
-459701.073889443 784632.9024967444 0.0
0.0 0.0 0.0

-433301.9070419967 4.1479143391159386e6 0.0
4.1479143391159386e6 -1.844838648937219e6 0.0
0.0 0.0 0.0

-882997.430187284 6.393382401361414e6 0.0
6.393382401361414e6 -235465.3493686348 0.0
0.0 0.0 0.0

421303.7604905543 1.6006332190344709e6 0.0
1.6006332190344709e6 -1.3173579899968542e6 0.0
0.0 0.0 0.0

-1.3807944273308075e6 8.0613755280890055e6 0.0
8.0613755280890055e6 -388890.86206958 0.0
0.0 0.0 0.0

-310299.36048716307 2.094286193192753e6 0.0
2.094286193192753e6 -469494.7574462943 0.0
0.0 0.0 0.0

459206.43754858617 5.780409844474207e6 0.0
5.780409844474207e6 -1.9347610706390669e6 0.0
0.0 0.0 0.0

384399.78374416346 5.892881029170171e6 0.0
5.892881029170171e6 -1.8671341220998196e6 0.0
0.0 0.0 0.0

-418329.0306291947 5.730911838527909e6 0.0
5.730911838527909e6 -1.5746893665851753e6 0.0
0.0 0.0 0.0

-790832.68399687 6.836318179882079e6 0.0
6.836318179882079e6 -702987.593805282 0.0
0.0 0.0 0.0

216358.7435778597 3.6810097480355734e6 0.0
3.6810097480355734e6 -2.1427747668140214e6 0.0
0.0 0.0 0.0

-2.80392480569286e6 4.368524660597006e6 0.0
4.368524660597006e6 1.978863828838535e6 0.0
0.0 0.0 0.0

-649789.2618878719 5.942706178290731e6 0.0
5.942706178290731e6 -1.463197904676855e6 0.0
0.0 0.0 0.0

-1.5294601344455876e6 3.0797863609806537e6 0.0
3.0797863609806537e6 1.188122668315675e6 0.0
0.0 0.0 0.0

-3.090994697201374e6 4.937912414227427e6 0.0
4.937912414227427e6 1.8924668471366458e6 0.0
0.0 0.0 0.0

-293271.28453758085 5.6537669877767535e6 0.0
5.6537669877767535e6 -2.0679294864147592e6 0.0
0.0 0.0 0.0

-7.302971778174632e6 -1.8590484504831056e6 0.0
-1.8590484504831056e6 7.182356005363643e6 0.0
0.0 0.0 0.0

513594.219159396 5.675710738285591e6 0.0
5.675710738285591e6 -1.97534545964783e6 0.0
0.0 0.0 0.0

446721.27365191234 5.944661542651544e6 0.0
5.944661542651544e6 -1.702928686400189e6 0.0
0.0 0.0 0.0

-811544.9826170162 6.738979758521248e6 0.0
6.738979758521248e6 -816658.3217392203 0.0
0.0 0.0 0.0

-2.0858228668870484e6 -539461.0444259406 0.0
-539461.0444259406 867568.1915097608 0.0
0.0 0.0 0.0

-509865.52982582565 3.6696789289268646e6 0.0
3.6696789289268646e6 -1.8563537419713798e6 0.0
0.0 0.0 0.0

-6.581587035505983e6 1.689113925259649e6 0.0
1.689113925259649e6 8.325141758004168e6 0.0
0.0 0.0 0.0

-2.9143537878558976e6 4.137986128982102e6 0.0
4.137986128982102e6 740662.8850240567 0.0
0.0 0.0 0.0

-3.068904924683462e6 4.1697188131985646e6 0.0
4.1697188131985646e6 654330.6425486915 0.0
0.0 0.0 0.0

-431683.4594688854 2.3986036428377153e6 0.0
2.3986036428377153e6 -255664.03777422447 0.0
0.0 0.0 0.0

-5.135508979003425e6 1.1827560264355787e6 0.0
1.1827560264355787e6 1.1196383564462662e7 0.0
0.0 0.0 0.0

-3.1907410663747555e6 3.914217701813935e6 0.0
3.914217701813935e6 965843.3759040646 0.0
0.0 0.0 0.0

-1.3419138990653562e6 5.54992260840413e6 0.0
5.54992260840413e6 -56310.61301527399 0.0
0.0 0.0 0.0

-757657.6629650807 5.2966035112410765e6 0.0
5.2966035112410765e6 -1.0233937041820905e6 0.0
0.0 0.0 0.0

1.1491810566394806e6 3.5799873058211314e6 0.0
3.5799873058211314e6 1.3271685271071726e6 0.0
0.0 0.0 0.0

-223597.58675907567 2.4933475209749173e6 0.0
2.4933475209749173e6 -110849.09983357949 0.0
0.0 0.0 0.0

518696.9218235811 5.776860282151301e6 0.0
5.776860282151301e6 -1.9266222094235402e6 0.0
0.0 0.0 0.0

-691610.6485600864 6.247896768920763e6 0.0
6.247896768920763e6 -903105.0596456528 0.0
0.0 0.0 0.0

-1.861959628720386e6 2.9182726840894753e6 0.0
2.9182726840894753e6 430924.5875728895 0.0
0.0 0.0 0.0

-4.86852487612259e6 362841.88932406687 0.0
362841.88932406687 2.9897541210135263e6 0.0
0.0 0.0 0.0

13756.177670164354 1.3164288328530793e6 0.0
1.3164288328530793e6 676368.189417775 0.0
0.0 0.0 0.0

-2.0205081442010567e7 9.298229833131608e6 0.0
9.298229833131608e6 2.049053011316603e6 0.0
0.0 0.0 0.0

-554862.7497000691 4.8357328923261985e6 0.0
4.8357328923261985e6 -1.8495424878111838e6 0.0
0.0 0.0 0.0

-82401.2652351664 6.212006375040216e6 0.0
6.212006375040216e6 -274670.92260206165 0.0
0.0 0.0 0.0

-524434.9326129956 5.840893188916003e6 0.0
5.840893188916003e6 -1.7153639723978122e6 0.0
0.0 0.0 0.0

-5.490783068747449e6 3.0782222259591306e6 0.0
3.0782222259591306e6 4.416546164966885e6 0.0
0.0 0.0 0.0

553408.5111919146 8.434108991655549e6 0.0
8.434108991655549e6 -1.0477350640539466e6 0.0
0.0 0.0 0.0

-146795.40798905934 5.763780267829022e6 0.0
5.763780267829022e6 -2.0621087923572892e6 0.0
0.0 0.0 0.0

-1.7533977355891434e6 3.9306773035400384e6 0.0
3.9306773035400384e6 1.4232842855582405e6 0.0
0.0 0.0 0.0

-363070.99928585213 5.724018636869153e6 0.0
5.724018636869153e6 -2.0116079029407906e6 0.0
0.0 0.0 0.0

-2.977636482494372e6 4.128400932773954e6 0.0
4.128400932773954e6 700162.8896832571 0.0
0.0 0.0 0.0

-298822.67601256684 2.482799281456557e6 0.0
2.482799281456557e6 34647.94608728573 0.0
0.0 0.0 0.0

193760.23727473797 689242.4780768781 0.0
689242.4780768781 -279612.4522955809 0.0
0.0 0.0 0.0

127599.3490215065 6.078561658251047e6 0.0
6.078561658251047e6 -1.7694859157603686e6 0.0
0.0 0.0 0.0

-3.169379685391322e6 6.938064432331034e6 0.0
6.938064432331034e6 1.4415533098512704e6 0.0
0.0 0.0 0.0

-3.6534802168224715e6 7.536998905840383e6 0.0
7.536998905840383e6 853249.5467851323 0.0
0.0 0.0 0.0

-1.4135106954337498e6 3.4530146828047014e6 0.0
3.4530146828047014e6 1.3517005458299555e6 0.0
0.0 0.0 0.0

350176.5284324349 5.909861869361283e6 0.0
5.909861869361283e6 -1.8728513035499903e6 0.0
0.0 0.0 0.0

157140.43688515748 3.847723746203637e6 0.0
3.847723746203637e6 -1.9951413344718723e6 0.0
0.0 0.0 0.0

-5.539911434399944e6 847674.9171076453 0.0
847674.9171076453 7.603808446440099e6 0.0
0.0 0.0 0.0

-544443.3612200593 2.7705854204132305e6 0.0
2.7705854204132305e6 506577.5815599547 0.0
0.0 0.0 0.0

-1.576258709125535e6 7.7078775640559215e6 0.0
7.7078775640559215e6 -272443.4806247337 0.0
0.0 0.0 0.0

-2.32766719171573e6 3.419825522374816e6 0.0
3.419825522374816e6 868655.580304405 0.0
0.0 0.0 0.0

-81800.2597516689 1.727262863886152e6 0.0
1.727262863886152e6 440689.75267011655 0.0
0.0 0.0 0.0

1.5202202999851003e6 4.3615722929133475e6 0.0
4.3615722929133475e6 -2.269761742638948e6 0.0
0.0 0.0 0.0

-2.51601047829849e6 3.209448959539061e6 0.0
3.209448959539061e6 891578.3366391825 0.0
0.0 0.0 0.0

-3.1127728780311886e6 6.966608424935923e6 0.0
6.966608424935923e6 749995.1149237349 0.0
0.0 0.0 0.0

90084.18414821257 2.868674272096328e6 0.0
2.868674272096328e6 -609751.2950403336 0.0
0.0 0.0 0.0

431894.3502232783 5.8592113217065465e6 0.0
5.8592113217065465e6 -1.7962388640832074e6 0.0
0.0 0.0 0.0

-429320.2492074426 5.853146090194045e6 0.0
5.853146090194045e6 -1.877631431700375e6 0.0
0.0 0.0 0.0

316461.71623454103 1.021923668948323e6 0.0
1.021923668948323e6 -1.235731443131674e6 0.0
0.0 0.0 0.0

-615354.6736998848 2.751381921572915e6 0.0
2.751381921572915e6 345678.35476924584 0.0
0.0 0.0 0.0

-660003.719587616 3.6441092798700803e6 0.0
3.6441092798700803e6 -1.8561456370475679e6 0.0
0.0 0.0 0.0

497422.1535186118 5.825208169321625e6 0.0
5.825208169321625e6 -1.765745623535191e6 0.0
0.0 0.0 0.0

-2.3889002032428193e6 3.4553123225632254e6 0.0
3.4553123225632254e6 653229.8985125674 0.0
0.0 0.0 0.0

168313.35004435864 5.95526188643526e6 0.0
5.95526188643526e6 -1.955388086787456e6 0.0
0.0 0.0 0.0

289090.2133311954 1.611498846918721e6 0.0
1.611498846918721e6 -447148.49841439154 0.0
0.0 0.0 0.0

-642793.6841962878 5.107512235733516e6 0.0
5.107512235733516e6 -2.1426455679900018e6 0.0
0.0 0.0 0.0

647138.9154050552 7.37536867998288e6 0.0
7.37536867998288e6 2.157131624516114e6 0.0
0.0 0.0 0.0

-628611.8822139469 5.414787534891943e6 0.0
5.414787534891943e6 -1.0827055736436262e6 0.0
0.0 0.0 0.0

-1.994808510317043e6 -1.3610932911882964e6 0.0
-1.3610932911882964e6 1.993155463569176e6 0.0
0.0 0.0 0.0

545207.5494895156 817212.4545604332 0.0
817212.4545604332 -876115.9199101187 0.0
0.0 0.0 0.0

628683.7806196166 4.828656231846596e6 0.0
4.828656231846596e6 2.095610840631176e6 0.0
0.0 0.0 0.0

8944.272640271833 3.2788402441289616e6 0.0
3.2788402441289616e6 29814.315908993107 0.0
0.0 0.0 0.0

-6.317787041893575e6 1.2666552540433665e6 0.0
1.2666552540433665e6 1.3113935551158661e7 0.0
0.0 0.0 0.0

255450.88800694782 6.02647290777265e6 0.0
6.02647290777265e6 -1.8378780821865085e6 0.0
0.0 0.0 0.0

-1.0291235971055687e6 6.854423785663935e6 0.0
6.854423785663935e6 -561849.8316981574 0.0
0.0 0.0 0.0

-564837.5110557688 4.1171049620336685e6 0.0
4.1171049620336685e6 -1.9585463912398121e6 0.0
0.0 0.0 0.0

-2.7305749910757365e6 4.0868202168267164e6 0.0
4.0868202168267164e6 768853.5001559068 0.0
0.0 0.0 0.0

-1.4760271490740522e6 5.229679199094326e6 0.0
5.229679199094326e6 46374.10652632627 0.0
0.0 0.0 0.0

-2.9515699562551286e6 5.310613626575356e6 0.0
5.310613626575356e6 846096.0544446465 0.0
0.0 0.0 0.0

-438039.10292245226 5.128373453289715e6 0.0
5.128373453289715e6 -2.1104958413989726e6 0.0
0.0 0.0 0.0

-1.7223127284656158e6 7.380748318868816e6 0.0
7.380748318868816e6 -169674.42822979827 0.0
0.0 0.0 0.0

-1.994357778215732e6 2.110942605417227e6 0.0
2.110942605417227e6 2.9193404242103323e6 0.0
0.0 0.0 0.0

825877.1690280987 8.590488224352598e6 0.0
8.590488224352598e6 -1.3130024188158547e6 0.0
0.0 0.0 0.0

309692.6064684136 6.029574905487659e6 0.0
6.029574905487659e6 -1.8347664041808422e6 0.0
0.0 0.0 0.0

-864829.3775955273 7.171115049197884e6 0.0
7.171115049197884e6 -683271.2139868749 0.0
0.0 0.0 0.0

-1.6229969862283033e6 2.4743643050456545e6 0.0
2.4743643050456545e6 -37775.78227573866 0.0
0.0 0.0 0.0

-200620.31093155436 5.145179604878932e6 0.0
5.145179604878932e6 -2.0740967386596783e6 0.0
0.0 0.0 0.0

-2.689320842506585e6 4.154667222815004e6 0.0
4.154667222815004e6 792434.6583451033 0.0
0.0 0.0 0.0

-1.9575396693412995e6 2.8606049097464206e6 0.0
2.8606049097464206e6 602825.1637385186 0.0
0.0 0.0 0.0

-333040.5665926177 5.096654635450839e6 0.0
5.096654635450839e6 -1.1394052763180549e6 0.0
0.0 0.0 0.0

-563962.0957970663 4.466597810541224e6 0.0
4.466597810541224e6 -1.9386911217238368e6 0.0
0.0 0.0 0.0

-1.907653683740587e6 6.7161541684273e6 0.0
6.7161541684273e6 -50382.58884656732 0.0
0.0 0.0 0.0

-545774.8664330612 5.332710050532146e6 0.0
5.332710050532146e6 -968715.1292954328 0.0
0.0 0.0 0.0

-426064.12293211377 4.1405696624905574e6 0.0
4.1405696624905574e6 -1.7779878050985984e6 0.0
0.0 0.0 0.0

1.2052298911502918e6 4.215007760430491e6 0.0
4.215007760430491e6 -81785.20103631698 0.0
0.0 0.0 0.0

-1.7811445656619174e6 3.6156632479339195e6 0.0
3.6156632479339195e6 419467.0616725335 0.0
0.0 0.0 0.0

136273.94103392222 2.9246996007056944e6 0.0
2.9246996007056944e6 -742934.7157755021 0.0
0.0 0.0 0.0

-106183.68277997358 766745.5692146407 0.0
766745.5692146407 537812.4323061917 0.0
0.0 0.0 0.0

545319.2265831658 5.577707211954461e6 0.0
5.577707211954461e6 -1.9991402390601456e6 0.0
0.0 0.0 0.0

184067.8874002252 6.346908215355942e6 0.0
6.346908215355942e6 -802238.2145366997 0.0
0.0 0.0 0.0

458216.795557017 5.841089271887461e6 0.0
5.841089271887461e6 -1.5965583837228469e6 0.0
0.0 0.0 0.0

-397268.3689148321 3.4314885797054344e6 0.0
3.4314885797054344e6 -1.7256499235568028e6 0.0
0.0 0.0 0.0

-1.8090024552319907e6 7.0521313406551285e6 0.0
7.0521313406551285e6 -105673.2527713317 0.0
0.0 0.0 0.0

-1.6944225006187768e6 2.3412219560541855e6 0.0
2.3412219560541855e6 2.5391535698055085e6 0.0
0.0 0.0 0.0

-1.7507239085976223e6 3.591718283507113e6 0.0
3.591718283507113e6 461155.7936610234 0.0
0.0 0.0 0.0

273686.93444719864 5.975886012236087e6 0.0
5.975886012236087e6 -1.8172221265878356e6 0.0
0.0 0.0 0.0

2713.831099357456 1.8559288182524708e6 0.0
1.8559288182524708e6 -877719.0435383061 0.0
0.0 0.0 0.0

-1.4733881081391578e6 3.306855592317209e6 0.0
3.306855592317209e6 1.553197308842747e6 0.0
0.0 0.0 0.0

-799297.0781190686 6.401342977484158e6 0.0
6.401342977484158e6 -886350.2008815843 0.0
0.0 0.0 0.0

-766721.9212435986 6.082190040058962e6 0.0
6.082190040058962e6 -970875.521038688 0.0
0.0 0.0 0.0

-2.680397916138328e6 4.307655302094624e6 0.0
4.307655302094624e6 760288.2230920384 0.0
0.0 0.0 0.0

-561718.6835005822 5.970741883729603e6 0.0
5.970741883729603e6 -1.5268161961671964e6 0.0
0.0 0.0 0.0

375482.1202105611 6.046460368077947e6 0.0
6.046460368077947e6 -1.6127548592614688e6 0.0
0.0 0.0 0.0

347262.6577376061 6.101347790906327e6 0.0
6.101347790906327e6 -1.744238738126734e6 0.0
0.0 0.0 0.0

673029.0277439421 3.198980611731552e6 0.0
3.198980611731552e6 -3.3826498328801105e6 0.0
0.0 0.0 0.0

209140.43951633107 6.1212675175472265e6 0.0
6.1212675175472265e6 -1.7312856246579206e6 0.0
0.0 0.0 0.0

397716.1526315773 5.763842470414886e6 0.0
5.763842470414886e6 -1.211380024335172e6 0.0
0.0 0.0 0.0

-3.699841420121096e6 3.6793903167773183e6 0.0
3.6793903167773183e6 742507.6229759692 0.0
0.0 0.0 0.0

-1.998158654531551e6 7.886401875040274e6 0.0
7.886401875040274e6 -22917.53705329029 0.0
0.0 0.0 0.0

-1.639441263250512e6 5.123347279132674e6 0.0
5.123347279132674e6 149166.5688793311 0.0
0.0 0.0 0.0

113841.30036186473 5.986716236656189e6 0.0
5.986716236656189e6 -1.571063449259134e6 0.0
0.0 0.0 0.0

-1.7983761001138669e6 3.177187176022435e6 0.0
3.177187176022435e6 36804.30083361117 0.0
0.0 0.0 0.0

-205668.08989424515 4.0921492334002834e6 0.0
4.0921492334002834e6 -1.589203726501261e6 0.0
0.0 0.0 0.0

-633561.794530191 5.255059447852279e6 0.0
5.255059447852279e6 -2.1118725264637377e6 0.0
0.0 0.0 0.0

1.7975629107301424e6 1.037154171279702e7 0.0
1.037154171279702e7 5.991886334613844e6 0.0
0.0 0.0 0.0

59813.64024303842 7.840217588330926e6 0.0
7.840217588330926e6 -1.232338188996607e6 0.0
0.0 0.0 0.0

750595.1362527077 8.223703734690675e6 0.0
8.223703734690675e6 -2.277898894618635e6 0.0
0.0 0.0 0.0

153655.5526527767 3.721428920978749e6 0.0
3.721428920978749e6 -1.9509984263098969e6 0.0
0.0 0.0 0.0

-737893.86596516 6.283388506572238e6 0.0
6.283388506572238e6 -1.0528454976634746e6 0.0
0.0 0.0 0.0

-473278.5863237325 5.572914458468329e6 0.0
5.572914458468329e6 -448367.73781690176 0.0
0.0 0.0 0.0

56450.10114891513 1.8500903039252837e6 0.0
1.8500903039252837e6 78868.11975610345 0.0
0.0 0.0 0.0

-1.957623959403148e6 2.211537834242213e6 0.0
2.211537834242213e6 4.368170687938892e6 0.0
0.0 0.0 0.0

-953330.3190426786 5.438273031530681e6 0.0
5.438273031530681e6 -222805.21851757058 0.0
0.0 0.0 0.0

-1.3303098785353645e6 2.4255887929569082e6 0.0
2.4255887929569082e6 25862.06672142609 0.0
0.0 0.0 0.0

-4.0866557221961897e6 4.868931101420144e6 0.0
4.868931101420144e6 2.5489240046656467e6 0.0
0.0 0.0 0.0

-1.9532407501577125e6 4.404932796618246e6 0.0
4.404932796618246e6 1.0605488054576367e6 0.0
0.0 0.0 0.0

-1.3308688621137363e6 3.348882423981781e6 0.0
3.348882423981781e6 -147123.09780676547 0.0
0.0 0.0 0.0

-2.2761206399885556e6 3.550068818277041e6 0.0
3.550068818277041e6 850567.5721514571 0.0
0.0 0.0 0.0

124253.7954066568 4.47031437107532e6 0.0
4.47031437107532e6 -1.9468949139289677e6 0.0
0.0 0.0 0.0

310478.6333302435 7.60885860449467e6 0.0
7.60885860449467e6 -540017.3061004443 0.0
0.0 0.0 0.0

-1.0016893462528954e6 6.805443040564156e6 0.0
6.805443040564156e6 -799431.988715418 0.0
0.0 0.0 0.0

-442494.16632271773 5.873344594833818e6 0.0
5.873344594833818e6 -1.797318051997612e6 0.0
0.0 0.0 0.0

-957323.5494919673 881886.6478520124 0.0
881886.6478520124 2.4631305370960473e6 0.0
0.0 0.0 0.0

522363.2992978676 1.4039823089239872e6 0.0
1.4039823089239872e6 -1.0321003742668438e6 0.0
0.0 0.0 0.0

-3.3963343728036983e6 -15530.724805760527 0.0
-15530.724805760527 6.042991327955308e6 0.0
0.0 0.0 0.0

-682450.5617434119 6.222106088420639e6 0.0
6.222106088420639e6 -859077.159442082 0.0
0.0 0.0 0.0

-1.730890843768313e6 5.0535734259542115e6 0.0
5.0535734259542115e6 251619.82246556447 0.0
0.0 0.0 0.0

-899314.4474193554 3.0624436096106404e6 0.0
3.0624436096106404e6 -283841.2332803069 0.0
0.0 0.0 0.0

-1.165970668934795e6 6.96327280807663e6 0.0
6.96327280807663e6 -442912.2421593814 0.0
0.0 0.0 0.0

352788.9750325423 2.8162673765983456e6 0.0
2.8162673765983456e6 -870126.9092972695 0.0
0.0 0.0 0.0

-1.9561601560403467e6 4.242882820690887e6 0.0
4.242882820690887e6 949058.7190343506 0.0
0.0 0.0 0.0

379489.37812259723 1.0392839282857915e7 0.0
1.0392839282857915e7 -1.5986941414958923e6 0.0
0.0 0.0 0.0

-1.5865640844638483e6 3.537830530520747e6 0.0
3.537830530520747e6 1.2118678544060695e6 0.0
0.0 0.0 0.0

696650.8467649086 1.769736541462125e6 0.0
1.769736541462125e6 -372421.7506261574 0.0
0.0 0.0 0.0

-3.906353017169784e6 -1.395797208918109e6 0.0
-1.395797208918109e6 2.0111839764475208e6 0.0
0.0 0.0 0.0

464957.8295417477 5.705781542898636e6 0.0
5.705781542898636e6 -1.9739631826567566e6 0.0
0.0 0.0 0.0

-2.75799288132047e6 4.661464307708588e6 0.0
4.661464307708588e6 503612.1960347736 0.0
0.0 0.0 0.0

217315.95597178524 1.4107864643372972e6 0.0
1.4107864643372972e6 -989763.4668657766 0.0
0.0 0.0 0.0

-1.7499804264941956e6 2.5350913087807056e6 0.0
2.5350913087807056e6 170718.16035390238 0.0
0.0 0.0 0.0

-402762.5695349118 1.124709886230378e6 0.0
1.124709886230378e6 -166112.4994665981 0.0
0.0 0.0 0.0

-812705.7684637669 6.1748262567615695e6 0.0
6.1748262567615695e6 -983982.7404943085 0.0
0.0 0.0 0.0

-336978.85558402166 833331.2005978937 0.0
833331.2005978937 -193787.2745999305 0.0
0.0 0.0 0.0

-615509.9149275839 6.864812875823415e6 0.0
6.864812875823415e6 -1.1668197011724403e6 0.0
0.0 0.0 0.0

-1.5002778455512081e6 2.604759029262787e6 0.0
2.604759029262787e6 2.1988425663553067e6 0.0
0.0 0.0 0.0

-48378.02216940871 2.7931861179351658e6 0.0
2.7931861179351658e6 -631771.0850016424 0.0
0.0 0.0 0.0

-2.6779209692826215e6 2.712100556720603e6 0.0
2.712100556720603e6 3.8204042831419976e6 0.0
0.0 0.0 0.0

-1.0971023266796959e6 3.1073055950500392e6 0.0
3.1073055950500392e6 161929.67849004106 0.0
0.0 0.0 0.0

-2.6427337327260547e6 3.272300466347226e6 0.0
3.272300466347226e6 958993.8445247082 0.0
0.0 0.0 0.0

5431.512974824058 4.75407761282433e6 0.0
4.75407761282433e6 -2.027948395266547e6 0.0
0.0 0.0 0.0

-1.7201032787325853e6 2.9321980139922835e6 0.0
2.9321980139922835e6 2.5555313117371094e6 0.0
0.0 0.0 0.0

935264.2935265884 6.378150244049999e6 0.0
6.378150244049999e6 -1.9329791058906561e6 0.0
0.0 0.0 0.0

-2.487990425519401e6 -799164.1994672362 0.0
-799164.1994672362 2.7669872962808814e6 0.0
0.0 0.0 0.0

-555329.3484427809 4.839141496024425e6 0.0
4.839141496024425e6 -2.0518339418966526e6 0.0
0.0 0.0 0.0

-1.351054771151423e6 3.2801470967821735e6 0.0
3.2801470967821735e6 -212146.27767938617 0.0
0.0 0.0 0.0

630209.1906126854 6.796358893707506e6 0.0
6.796358893707506e6 -1.7506202738217874e6 0.0
0.0 0.0 0.0

349379.5372130276 1.274953395822152e6 0.0
1.274953395822152e6 -738317.232747179 0.0
0.0 0.0 0.0

70084.21192867027 514381.6156951438 0.0
514381.6156951438 -641427.0561465676 0.0
0.0 0.0 0.0

-672056.9835452553 6.129104226492996e6 0.0
6.129104226492996e6 -1.406303664024963e6 0.0
0.0 0.0 0.0

-63068.20300201932 2.2988603983566645e6 0.0
2.2988603983566645e6 -334643.7040528272 0.0
0.0 0.0 0.0

-1.7956184607188434e6 5.043963291648386e6 0.0
5.043963291648386e6 252577.56036678597 0.0
0.0 0.0 0.0

-4.0325206258369656e6 2.9726986392503753e6 0.0
2.9726986392503753e6 3.9102935759026925e6 0.0
0.0 0.0 0.0

-464066.18568146054 1.656449342082993e6 0.0
1.656449342082993e6 -437326.9624432458 0.0
0.0 0.0 0.0

-765887.65613924 6.2611508757916875e6 0.0
6.2611508757916875e6 -796382.3671234751 0.0
0.0 0.0 0.0

-85220.56921304186 6.770732835497757e6 0.0
6.770732835497757e6 -1.21294830182148e6 0.0
0.0 0.0 0.0

-2.617463616757745e6 5.4557985725577865e6 0.0
5.4557985725577865e6 536352.2483404512 0.0
0.0 0.0 0.0

-521573.4518159847 4.102645370072603e6 0.0
4.102645370072603e6 -1.9339685389647775e6 0.0
0.0 0.0 0.0

2.277702197728631e6 3.2408672160480116e6 0.0
3.2408672160480116e6 -2.643805490443779e6 0.0
0.0 0.0 0.0

313886.4619300908 5.643055173429314e6 0.0
5.643055173429314e6 -1.720159927834306e6 0.0
0.0 0.0 0.0

-488649.9539883085 3.568869283559936e6 0.0
3.568869283559936e6 -1.5539098840898199e6 0.0
0.0 0.0 0.0

-684586.0727228298 1.8904770959528731e6 0.0
1.8904770959528731e6 -240085.24892309506 0.0
0.0 0.0 0.0

-508746.32332489314 5.252464992252859e6 0.0
5.252464992252859e6 -2.1198044516456346e6 0.0
0.0 0.0 0.0

1.1717167298138682e6 765352.30052355 0.0
765352.30052355 -1.7945057419082788e6 0.0
0.0 0.0 0.0

1.2850545511999894e6 6.06979913919331e6 0.0
6.06979913919331e6 -764427.4673356679 0.0
0.0 0.0 0.0

-633951.4482966651 5.784632650863469e6 0.0
5.784632650863469e6 -340660.62153745804 0.0
0.0 0.0 0.0

-2.8348992051023208e6 1.207380578191488e6 0.0
1.207380578191488e6 3.8004076572796702e6 0.0
0.0 0.0 0.0

-3.1408234952607774e6 3.8250061826922474e6 0.0
3.8250061826922474e6 1.0533059387146265e6 0.0
0.0 0.0 0.0

-2.2306165302070165e6 -183787.13620294316 0.0
-183787.13620294316 1.2790268951815397e6 0.0
0.0 0.0 0.0

-517429.0958082287 5.873812403862371e6 0.0
5.873812403862371e6 -1.665846329958266e6 0.0
0.0 0.0 0.0

-306612.0458010893 5.8270882010658905e6 0.0
5.8270882010658905e6 -464412.60614681063 0.0
0.0 0.0 0.0

-2.283399584586977e6 5.648457238911238e6 0.0
5.648457238911238e6 270048.3201522153 0.0
0.0 0.0 0.0

-1.0635578266563145e6 2.5698325752888685e6 0.0
2.5698325752888685e6 -663546.0073732391 0.0
0.0 0.0 0.0

-1.5554500871279275e6 6.503384873705122e6 0.0
6.503384873705122e6 -260003.91266532225 0.0
0.0 0.0 0.0

-744268.7063738175 3.0189146390990983e6 0.0
3.0189146390990983e6 -894740.5696439102 0.0
0.0 0.0 0.0

621013.4827330315 584694.5505358626 0.0
584694.5505358626 -1.1929453344984325e6 0.0
0.0 0.0 0.0

-740081.2608995559 6.764884569702724e6 0.0
6.764884569702724e6 -837264.4069365048 0.0
0.0 0.0 0.0

-4.437438663242457e6 1.0434172142065663e7 0.0
1.0434172142065663e7 2.830438322856881e6 0.0
0.0 0.0 0.0

-473701.4161669803 7.582095241336387e6 0.0
7.582095241336387e6 -933327.7932921412 0.0
0.0 0.0 0.0

-770148.3952021229 6.343681574962051e6 0.0
6.343681574962051e6 -971045.83747724 0.0
0.0 0.0 0.0

-1.6213485791569685e6 3.3676178150424943e6 0.0
3.3676178150424943e6 128384.52670061844 0.0
0.0 0.0 0.0

-2.0453666308109816e6 2.883472722821306e6 0.0
2.883472722821306e6 569156.4799475672 0.0
0.0 0.0 0.0

565657.2199720924 5.635975827624196e6 0.0
5.635975827624196e6 -2.1930602049551834e6 0.0
0.0 0.0 0.0

171902.6128963757 3.2587190147786792e6 0.0
3.2587190147786792e6 -1.382649357065264e6 0.0
0.0 0.0 0.0

-1.0639683527862818e6 2.275081223632604e6 0.0
2.275081223632604e6 -152497.87561156086 0.0
0.0 0.0 0.0

-1.798065044781119e6 5.58827450427863e6 0.0
5.58827450427863e6 136671.0472961889 0.0
0.0 0.0 0.0

884100.3556825405 6.783041391985682e6 0.0
6.783041391985682e6 -1.7952671266054132e6 0.0
0.0 0.0 0.0

-429445.3182005178 6.175615687381827e6 0.0
6.175615687381827e6 -1.1839470304353717e6 0.0
0.0 0.0 0.0

-527231.425426538 5.523861365920797e6 0.0
5.523861365920797e6 -480858.1891295427 0.0
0.0 0.0 0.0

-409957.6751805794 5.882422726183232e6 0.0
5.882422726183232e6 -1.8136853732877953e6 0.0
0.0 0.0 0.0

80691.43161367523 2.190148342024766e6 0.0
2.190148342024766e6 -401987.63160027924 0.0
0.0 0.0 0.0

-3.632069340849801e6 4.515503529752406e6 0.0
4.515503529752406e6 -45345.50336306868 0.0
0.0 0.0 0.0

-318597.1794107795 5.715763550821264e6 0.0
5.715763550821264e6 -1.9996704577663895e6 0.0
0.0 0.0 0.0

-5.33390313593277e6 -2.9155187816983913e6 0.0
-2.9155187816983913e6 4.356214018877188e6 0.0
0.0 0.0 0.0

746387.1733931089 7.737397391225994e6 0.0
7.737397391225994e6 -1.4930653199637278e6 0.0
0.0 0.0 0.0

-1.0408218769976962e6 5.481650063793114e6 0.0
5.481650063793114e6 329029.3454999816 0.0
0.0 0.0 0.0

-586152.9367691501 3.9643286976427315e6 0.0
3.9643286976427315e6 -1.7888191560459763e6 0.0
0.0 0.0 0.0

-590306.3277360054 5.605590504530479e6 0.0
5.605590504530479e6 -1.7405626428964336e6 0.0
0.0 0.0 0.0

598035.3051643597 1.6073187364475825e6 0.0
1.6073187364475825e6 -715871.0999390647 0.0
0.0 0.0 0.0

-738330.5984199225 2.7031718319768994e6 0.0
2.7031718319768994e6 178398.59323140606 0.0
0.0 0.0 0.0

-1.8552271218195036e6 2.5330570207929774e6 0.0
2.5330570207929774e6 312806.92512517644 0.0
0.0 0.0 0.0

-1.4910565203425796e6 3.399767962315852e6 0.0
3.399767962315852e6 -61828.609083867515 0.0
0.0 0.0 0.0

-647787.3944588379 2.938052341600377e6 0.0
2.938052341600377e6 145559.32811093883 0.0
0.0 0.0 0.0

-1.6777956470753327e6 2.5018638553206488e6 0.0
2.5018638553206488e6 351181.1387947935 0.0
0.0 0.0 0.0

-667714.2033598038 6.775896737006954e6 0.0
6.775896737006954e6 -924142.5415885705 0.0
0.0 0.0 0.0

-715563.5271546104 5.45339181599713e6 0.0
5.45339181599713e6 -751539.4445316511 0.0
0.0 0.0 0.0

-796531.2591869535 6.780467551851193e6 0.0
6.780467551851193e6 -784756.5085277788 0.0
0.0 0.0 0.0

-683140.6219675812 6.598213323820317e6 0.0
6.598213323820317e6 -1.2181883264090945e6 0.0
0.0 0.0 0.0

294340.60163655004 4.700808858309534e6 0.0
4.700808858309534e6 -2.560933024394567e6 0.0
0.0 0.0 0.0

-677844.5666381873 4.708188922953405e6 0.0
4.708188922953405e6 -1.0337536016287126e6 0.0
0.0 0.0 0.0

-735717.6726813402 5.400439475256056e6 0.0
5.400439475256056e6 -838489.6468481171 0.0
0.0 0.0 0.0

-986889.1262371258 2.6402972599620386e6 0.0
2.6402972599620386e6 -556277.7007084475 0.0
0.0 0.0 0.0

320166.9859432782 2.0230796676306007e6 0.0
2.0230796676306007e6 -432854.6656460941 0.0
0.0 0.0 0.0

-745438.3463733782 6.290817006600727e6 0.0
6.290817006600727e6 -1.3092609751212192e6 0.0
0.0 0.0 0.0

-663149.1074286412 5.194644207464874e6 0.0
5.194644207464874e6 -2.2104970314485813e6 0.0
0.0 0.0 0.0

561417.8242632378 2.079697220616494e6 0.0
2.079697220616494e6 -656401.070524876 0.0
0.0 0.0 0.0

505491.52330100694 8.707708646419132e6 0.0
8.707708646419132e6 -1.2247219151201653e6 0.0
0.0 0.0 0.0

-241226.1980670878 1.5025858370039884e6 0.0
1.5025858370039884e6 -402657.7633400636 0.0
0.0 0.0 0.0

-617236.9665548819 3.979764252279763e6 0.0
3.979764252279763e6 -1.951009860807287e6 0.0
0.0 0.0 0.0

-1.402731004198263e6 3.398080049813909e6 0.0
3.398080049813909e6 14017.5519980971 0.0
0.0 0.0 0.0

785647.5884928263 7.346843953730857e6 0.0
7.346843953730857e6 -854619.0326834341 0.0
0.0 0.0 0.0

-604624.2505682632 2.5321177071958715e6 0.0
2.5321177071958715e6 83207.34860281405 0.0
0.0 0.0 0.0

-108591.80410157659 -224011.42574635742 0.0
-224011.42574635742 707749.3488555844 0.0
0.0 0.0 0.0

-595321.0311152488 5.698923593796684e6 0.0
5.698923593796684e6 -281100.57629016374 0.0
0.0 0.0 0.0

-183636.61592354064 6.075682469606269e6 0.0
6.075682469606269e6 -575356.1510480255 0.0
0.0 0.0 0.0

-1.7331195369735812e6 5.120795200139386e6 0.0
5.120795200139386e6 265636.30858872575 0.0
0.0 0.0 0.0

-2.0203529371200562e6 3.3769705584299117e6 0.0
3.3769705584299117e6 675672.614939989 0.0
0.0 0.0 0.0

484985.037319007 5.7400042972517125e6 0.0
5.7400042972517125e6 -1.8675864055627584e6 0.0
0.0 0.0 0.0

465325.81244461774 5.643782095380416e6 0.0
5.643782095380416e6 -1.888872563540894e6 0.0
0.0 0.0 0.0

-876304.1415985471 3.0020859134785007e6 0.0
3.0020859134785007e6 465144.12915027153 0.0
0.0 0.0 0.0

-577457.781809083 6.791924389220908e6 0.0
6.791924389220908e6 -1.0173343927664029e6 0.0
0.0 0.0 0.0

-13871.877699587669 7.337592230121356e6 0.0
7.337592230121356e6 -1.3721179922035444e6 0.0
0.0 0.0 0.0

-2.601518527648858e6 -724684.9309297719 0.0
-724684.9309297719 4.0387269607177665e6 0.0
0.0 0.0 0.0

-1.656202693863685e6 3.6355175524765993e6 0.0
3.6355175524765993e6 331249.5081176022 0.0
0.0 0.0 0.0

-1.3041154488111942e6 3.195701988370785e6 0.0
3.195701988370785e6 -520570.0953047812 0.0
0.0 0.0 0.0

-6.387885713668454e6 2.300497048095676e6 0.0
2.300497048095676e6 8.678193878887247e6 0.0
0.0 0.0 0.0

906899.8964902019 1.1337117215832612e6 0.0
1.1337117215832612e6 -1.3951031773002022e6 0.0
0.0 0.0 0.0

-1.7609669936306488e6 4.422191121465111e6 0.0
4.422191121465111e6 12666.452471252996 0.0
0.0 0.0 0.0

-2.629655699555238e6 4.390994056042562e6 0.0
4.390994056042562e6 2.731852358687641e6 0.0
0.0 0.0 0.0

464551.10043675 8.302779565128525e6 0.0
8.302779565128525e6 -557328.254484912 0.0
0.0 0.0 0.0

-1.7661985362843042e6 2.446355177270406e6 0.0
2.446355177270406e6 204163.5185397329 0.0
0.0 0.0 0.0

-2.575742867432105e6 1.9898051865274124e6 0.0
1.9898051865274124e6 5.590124463704146e6 0.0
0.0 0.0 0.0

-218174.58509846963 5.248361960233051e6 0.0
5.248361960233051e6 -2.2340994368009553e6 0.0
0.0 0.0 0.0

-724103.9811338787 6.189763152923578e6 0.0
6.189763152923578e6 -1.079396599073377e6 0.0
0.0 0.0 0.0

-135633.96917517052 737636.5365430462 0.0
737636.5365430462 399839.9434184181 0.0
0.0 0.0 0.0

-411495.179686049 5.100231335287525e6 0.0
5.100231335287525e6 -2.136190552064541e6 0.0
0.0 0.0 0.0

-153915.2461630662 1.7054198694310724e6 0.0
1.7054198694310724e6 -707207.4069701235 0.0
0.0 0.0 0.0

-3870.4471920311917 5.933491133270304e6 0.0
5.933491133270304e6 -2.001431846826612e6 0.0
0.0 0.0 0.0

-682137.5382478924 4.0082771418637848e6 0.0
4.0082771418637848e6 -1.2610475969634093e6 0.0
0.0 0.0 0.0

-477996.8361379716 6.81596433735327e6 0.0
6.81596433735327e6 -1.1094571543999973e6 0.0
0.0 0.0 0.0

-565416.5992653015 2.850743141576642e6 0.0
2.850743141576642e6 270079.89988852065 0.0
0.0 0.0 0.0

-554400.702161451 6.1587629778193105e6 0.0
6.1587629778193105e6 -1.1701534448731828e6 0.0
0.0 0.0 0.0

327605.94732373016 1.736899259637453e6 0.0
1.736899259637453e6 -486031.3996979324 0.0
0.0 0.0 0.0

-599499.2773930609 6.0494886652450785e6 0.0
6.0494886652450785e6 -1.421605178780971e6 0.0
0.0 0.0 0.0

54269.34315034319 2.298365670702989e6 0.0
2.298365670702989e6 -121518.92536839475 0.0
0.0 0.0 0.0

300994.8684553619 1.9033502829239413e6 0.0
1.9033502829239413e6 -1.1633992161117748e6 0.0
0.0 0.0 0.0

-551726.7484711639 5.129471033135558e6 0.0
5.129471033135558e6 -1.1826534801525997e6 0.0
0.0 0.0 0.0

627412.6008785291 6.789303102321721e6 0.0
6.789303102321721e6 -1.8140705330833814e6 0.0
0.0 0.0 0.0

-323195.3357174786 1.3581532383672225e6 0.0
1.3581532383672225e6 -109942.51334154562 0.0
0.0 0.0 0.0

496670.5923116901 3.954266084276558e6 0.0
3.954266084276558e6 -1.8857487149035465e6 0.0
0.0 0.0 0.0

69716.6193532781 6.305133956508282e6 0.0
6.305133956508282e6 232388.57004100925 0.0
0.0 0.0 0.0

-423342.0396908152 2.541012790593706e6 0.0
2.541012790593706e6 -173021.82924926135 0.0
0.0 0.0 0.0

-1.7979711201943313e6 5.141026921121554e6 0.0
5.141026921121554e6 231479.99568025442 0.0
0.0 0.0 0.0

-599446.9992721066 5.383142621219298e6 0.0
5.383142621219298e6 -945917.4716549 0.0
0.0 0.0 0.0

-1.463294116532558e6 3.0712748050943348e6 0.0
3.0712748050943348e6 1.92841914888035e6 0.0
0.0 0.0 0.0

-1.6880635135049955e6 3.8397582050851104e6 0.0
3.8397582050851104e6 1.4929330568319573e6 0.0
0.0 0.0 0.0

-209006.86270670546 343754.00208574894 0.0
343754.00208574894 170083.0167071639 0.0
0.0 0.0 0.0

-1.7457996905811408e6 3.0090133536740667e6 0.0
3.0090133536740667e6 217875.26017948892 0.0
0.0 0.0 0.0

286384.76166390325 6.772916512243455e6 0.0
6.772916512243455e6 2.7875152676429315e6 0.0
0.0 0.0 0.0

-1.1713479512281464e6 5.374218943367072e6 0.0
5.374218943367072e6 62875.06869866775 0.0
0.0 0.0 0.0

-568871.6190613739 2.6008267698011636e6 0.0
2.6008267698011636e6 147292.7238373305 0.0
0.0 0.0 0.0

-578900.3434401212 5.918082478507394e6 0.0
5.918082478507394e6 -1.6146461493140876e6 0.0
0.0 0.0 0.0

1.7262707290215727e6 3.117870747167425e6 0.0
3.117870747167425e6 -2.6836714019847563e6 0.0
0.0 0.0 0.0

-696825.9928086281 6.831944485249603e6 0.0
6.831944485249603e6 -1.0794802882045982e6 0.0
0.0 0.0 0.0

-1.6451697429715148e6 2.9602002482124115e6 0.0
2.9602002482124115e6 113111.18171733222 0.0
0.0 0.0 0.0

1.1036853268907098e6 1.6997701089477704e6 0.0
1.6997701089477704e6 -2.782555412242641e6 0.0
0.0 0.0 0.0

-1.8955319477527991e6 4.246154741522631e6 0.0
4.246154741522631e6 241732.33994019742 0.0
0.0 0.0 0.0

-57223.54834057967 40120.12006589986 0.0
40120.12006589986 437969.17135985754 0.0
0.0 0.0 0.0

-98005.32833142724 1.0430907433291677e6 0.0
1.0430907433291677e6 335605.38614949957 0.0
0.0 0.0 0.0

-2.3161982834842997e6 979560.0678900125 0.0
979560.0678900125 2.897619621673087e6 0.0
0.0 0.0 0.0

-1.0396238108704822e6 5.665551671539539e6 0.0
5.665551671539539e6 -587592.2222059818 0.0
0.0 0.0 0.0

-718886.4555871587 1.6444944328131322e6 0.0
1.6444944328131322e6 -403897.0311905383 0.0
0.0 0.0 0.0

582913.6644259264 4.040853590314927e6 0.0
4.040853590314927e6 -718823.2325998712 0.0
0.0 0.0 0.0

-771215.750707903 7.614161628295754e6 0.0
7.614161628295754e6 4.3039276592063e6 0.0
0.0 0.0 0.0

1.3582558389655051e6 3.1665243102696557e6 0.0
3.1665243102696557e6 -2.7545015788851315e6 0.0
0.0 0.0 0.0

13512.759132339925 1.9507995455353102e6 0.0
1.9507995455353102e6 -235130.16136221518 0.0
0.0 0.0 0.0

-1.8048516421714337e6 3.0642918794190097e6 0.0
3.0642918794190097e6 326761.77269389015 0.0
0.0 0.0 0.0

-1.9437681485774661e6 3.9874419212325145e6 0.0
3.9874419212325145e6 948626.315684657 0.0
0.0 0.0 0.0

411778.2862471901 5.4933432675954485e6 0.0
5.4933432675954485e6 -1.8988652767318396e6 0.0
0.0 0.0 0.0

275287.9079399466 5.893223785243311e6 0.0
5.893223785243311e6 -1.896717750563067e6 0.0
0.0 0.0 0.0

-1309.7907858323015 2.4487033240579944e6 0.0
2.4487033240579944e6 -399377.90944702976 0.0
0.0 0.0 0.0

-1.7513435879111034e6 3.6736476487154174e6 0.0
3.6736476487154174e6 430044.6500142813 0.0
0.0 0.0 0.0

-3.721875970621342e6 3.1587000399220306e6 0.0
3.1587000399220306e6 8.337381091509806e6 0.0
0.0 0.0 0.0

-757808.0428012701 6.812167583409176e6 0.0
6.812167583409176e6 -981403.491374037 0.0
0.0 0.0 0.0

-242923.19800493756 2.7209435202370593e6 0.0
2.7209435202370593e6 -13273.419180505145 0.0
0.0 0.0 0.0

381958.1952227355 5.79174536448249e6 0.0
5.79174536448249e6 -1.8517186307635654e6 0.0
0.0 0.0 0.0

-1.9434945823715637e6 3.766676541265817e6 0.0
3.766676541265817e6 680304.5064579843 0.0
0.0 0.0 0.0

-105387.87051586818 7.452167915118673e6 0.0
7.452167915118673e6 -1.1855264034669164e6 0.0
0.0 0.0 0.0

-1.2997933062659902e6 524739.0309299076 0.0
524739.0309299076 500606.3054081634 0.0
0.0 0.0 0.0

-395076.4302143395 6.108490411111179e6 0.0
6.108490411111179e6 -1.286621468250116e6 0.0
0.0 0.0 0.0

544972.8097833616 991013.8920712867 0.0
991013.8920712867 -1.362720812610954e6 0.0
0.0 0.0 0.0

-1.4512712465020062e6 2.828179402255563e6 0.0
2.828179402255563e6 139988.27796365257 0.0
0.0 0.0 0.0

-999202.4199051748 2.6314515980557264e6 0.0
2.6314515980557264e6 27486.522089999984 0.0
0.0 0.0 0.0

-722877.3291573247 4.18582413357752e6 0.0
4.18582413357752e6 -1.1655025616481092e6 0.0
0.0 0.0 0.0

-1.857438984753222e6 2.563375993583221e6 0.0
2.563375993583221e6 318254.45975714375 0.0
0.0 0.0 0.0

-848504.0089511158 2.9186266502110464e6 0.0
2.9186266502110464e6 282102.635205308 0.0
0.0 0.0 0.0

-3.4213999127015513e6 1.6842626541109944e6 0.0
1.6842626541109944e6 7.383854800710287e6 0.0
0.0 0.0 0.0

-3.659989515128378e6 606692.5633242815 0.0
606692.5633242815 4.825168622559262e6 0.0
0.0 0.0 0.0

-2.977737815003337e6 1.8396047574827473e6 0.0
1.8396047574827473e6 6.488565571115203e6 0.0
0.0 0.0 0.0

-7.660918092164388e6 -2.1848758240409386e6 0.0
-2.1848758240409386e6 1.0067452831475671e7 0.0
0.0 0.0 0.0

-598129.1587051991 5.501762305966117e6 0.0
5.501762305966117e6 -477366.8336023716 0.0
0.0 0.0 0.0

-2.920563837980837e6 -234992.97538280612 0.0
-234992.97538280612 3.475766035762811e6 0.0
0.0 0.0 0.0

-2.212468834294653e6 3.465546494331998e6 0.0
3.465546494331998e6 436893.59840411553 0.0
0.0 0.0 0.0

-658658.1559434074 4.500924565450964e6 0.0
4.500924565450964e6 -1.1268629959582184e6 0.0
0.0 0.0 0.0

-5.605570108991743e6 4.892522875437056e6 0.0
4.892522875437056e6 209467.8638614365 0.0
0.0 0.0 0.0

1.377027200603871e6 3.869673756006626e6 0.0
3.869673756006626e6 -1.486844716923141e6 0.0
0.0 0.0 0.0

-419044.34994249896 5.89431055147789e6 0.0
5.89431055147789e6 -1.7343523924392045e6 0.0
0.0 0.0 0.0

-2.1546191833694247e6 4.0152601374365063e6 0.0
4.0152601374365063e6 413656.328455874 0.0
0.0 0.0 0.0

-2.4130922342835204e6 3.334033067192783e6 0.0
3.334033067192783e6 901740.1074065386 0.0
0.0 0.0 0.0

125471.92036777642 6.090645700193929e6 0.0
6.090645700193929e6 -1.779256844000893e6 0.0
0.0 0.0 0.0

260842.95738163596 8.646597712974958e6 0.0
8.646597712974958e6 -1.2446978584855224e6 0.0
0.0 0.0 0.0

-1.4685917580886655e6 2.893011402825905e6 0.0
2.893011402825905e6 21329.891755631776 0.0
0.0 0.0 0.0

191240.91240022122 3.5672276642336496e6 0.0
3.5672276642336496e6 -1.96956900922998e6 0.0
0.0 0.0 0.0

-1.111211434165934e6 2.6857300899381256e6 0.0
2.6857300899381256e6 -61356.11131669569 0.0
0.0 0.0 0.0

762952.9788671621 4.653252244658766e6 0.0
4.653252244658766e6 -2.7888773213473093e6 0.0
0.0 0.0 0.0

-1.388790592015983e6 3.507625995853427e6 0.0
3.507625995853427e6 1.7143327897108877e6 0.0
0.0 0.0 0.0

-4.239365768039476e6 6.204924696621729e6 0.0
6.204924696621729e6 -1.7697996760862872e6 0.0
0.0 0.0 0.0

-213414.9070438752 260988.50724760175 0.0
260988.50724760175 -45933.08801523762 0.0
0.0 0.0 0.0

-808516.5382637829 6.7968885364005575e6 0.0
6.7968885364005575e6 -888745.6634597566 0.0
0.0 0.0 0.0

-5.178226643147073e6 2.8711147821392654e6 0.0
2.8711147821392654e6 4.825240386455111e6 0.0
0.0 0.0 0.0

1.7490975827473956e6 2.3404289248237414e6 0.0
2.3404289248237414e6 -3.1531161092123985e6 0.0
0.0 0.0 0.0

-475707.4309368596 2.548205397636953e6 0.0
2.548205397636953e6 185865.96704355362 0.0
0.0 0.0 0.0

-467416.7521526667 5.220891402085783e6 0.0
5.220891402085783e6 -1.0395524264515347e6 0.0
0.0 0.0 0.0

-1.256279847890915e6 2.5309319481851766e6 0.0
2.5309319481851766e6 -97489.25793182 0.0
0.0 0.0 0.0

-1.626217738409821e6 2.948203468996405e6 0.0
2.948203468996405e6 133331.91610597784 0.0
0.0 0.0 0.0

-1.188178983046566e6 1.0521865965326803e6 0.0
1.0521865965326803e6 1.1879045380244418e6 0.0
0.0 0.0 0.0

527903.8755142372 5.779593567424172e6 0.0
5.779593567424172e6 -1.907328734710786e6 0.0
0.0 0.0 0.0

1.1894000443271575e6 6.417679779261508e6 0.0
6.417679779261508e6 -2.1013623405206883e6 0.0
0.0 0.0 0.0

-1.9147544166888343e6 3.7360038032472907e6 0.0
3.7360038032472907e6 625992.6225042144 0.0
0.0 0.0 0.0

92517.38239822048 1.9073654021287707e6 0.0
1.9073654021287707e6 -1.0584629385212655e6 0.0
0.0 0.0 0.0

-809736.8325965016 3.3858476799487667e6 0.0
3.3858476799487667e6 -1.147014907123062e6 0.0
0.0 0.0 0.0

164441.16525387752 6.257258788801616e6 0.0
6.257258788801616e6 -1.0898068739621458e6 0.0
0.0 0.0 0.0

-558978.9983554343 454645.6318939269 0.0
454645.6318939269 57815.602048419794 0.0
0.0 0.0 0.0

-679592.8237056803 5.508956788926722e6 0.0
5.508956788926722e6 -456740.32328691025 0.0
0.0 0.0 0.0

-236866.11177499668 989091.6240714955 0.0
989091.6240714955 -233695.72627978175 0.0
0.0 0.0 0.0

-496582.8215607243 5.140977080310356e6 0.0
5.140977080310356e6 -2.0137842815665677e6 0.0
0.0 0.0 0.0

-794343.0006431428 5.631795258882696e6 0.0
5.631795258882696e6 -1.3271915454237615e6 0.0
0.0 0.0 0.0

-262438.87841673574 2.5941168179437667e6 0.0
2.5941168179437667e6 -333794.45418366685 0.0
0.0 0.0 0.0

-566883.8449101873 5.879126360923269e6 0.0
5.879126360923269e6 -1.6467143039795551e6 0.0
0.0 0.0 0.0

-728130.3988659879 6.901140620723861e6 0.0
6.901140620723861e6 -1.2239241923562163e6 0.0
0.0 0.0 0.0

1.8884780911232834e6 485269.12425562175 0.0
485269.12425562175 -2.038552941728435e6 0.0
0.0 0.0 0.0

17469.986202826025 772391.3747089956 0.0
772391.3747089956 -798612.9436201515 0.0
0.0 0.0 0.0

-844077.4461445743 2.783914015910226e6 0.0
2.783914015910226e6 -916288.7257630487 0.0
0.0 0.0 0.0

-587222.7602605914 3.241747251726089e6 0.0
3.241747251726089e6 -1.0802305333239362e6 0.0
0.0 0.0 0.0

-529004.0113827742 6.227114225830092e6 0.0
6.227114225830092e6 -1.1026988112702868e6 0.0
0.0 0.0 0.0

-771482.2525529552 5.534940944962702e6 0.0
5.534940944962702e6 -416652.64388236374 0.0
0.0 0.0 0.0

35904.223872643895 4.532765964563061e6 0.0
4.532765964563061e6 -1.9811542531700204e6 0.0
0.0 0.0 0.0

-718096.6227128216 3.457833195309321e6 0.0
3.457833195309321e6 -2.026036488033279e6 0.0
0.0 0.0 0.0

232461.37376191746 1.8968512967046828e6 0.0
1.8968512967046828e6 -1.2212131902954155e6 0.0
0.0 0.0 0.0

-451232.0403170919 4.43657295326822e6 0.0
4.43657295326822e6 -2.0115664750491988e6 0.0
0.0 0.0 0.0

-9.024831930993594e6 -3.901218320062547e6 0.0
-3.901218320062547e6 7.933520109915221e6 0.0
0.0 0.0 0.0

7.936302848289376e6 7.632160581699985e6 0.0
7.632160581699985e6 510066.3525168521 0.0
0.0 0.0 0.0

-712065.7566765986 3.833642707256663e6 0.0
3.833642707256663e6 -2.0168157210429322e6 0.0
0.0 0.0 0.0

-1.1686934622894572e6 3.273701627988065e6 0.0
3.273701627988065e6 377711.73357845127 0.0
0.0 0.0 0.0

-2.1547504035071568e6 3.0487156931998525e6 0.0
3.0487156931998525e6 698020.9040274816 0.0
0.0 0.0 0.0

-974395.4002297459 2.696262793843659e6 0.0
2.696262793843659e6 -877611.8464872716 0.0
0.0 0.0 0.0

-64653.59972439408 1.8437736914510704e6 0.0
1.8437736914510704e6 -474035.7240267565 0.0
0.0 0.0 0.0

-327000.481837906 1.6825479665748386e6 0.0
1.6825479665748386e6 -713090.5706309081 0.0
0.0 0.0 0.0

-1.7036233549913436e6 2.9997676394751794e6 0.0
2.9997676394751794e6 230359.90623052232 0.0
0.0 0.0 0.0

-715730.0547096672 3.559832003712683e6 0.0
3.559832003712683e6 -2.0507421708803177e6 0.0
0.0 0.0 0.0

-765556.5340948734 3.047136482657353e6 0.0
3.047136482657353e6 -1.388655545644022e6 0.0
0.0 0.0 0.0

-265626.63129419036 1.8058486513444665e6 0.0
1.8058486513444665e6 -121455.75889262691 0.0
0.0 0.0 0.0

3.0849964111476e6 8.209320161443471e6 0.0
8.209320161443471e6 -223394.94263064757 0.0
0.0 0.0 0.0

-825374.7342342103 2.7459794616926853e6 0.0
2.7459794616926853e6 -976822.413569241 0.0
0.0 0.0 0.0

402286.0371001753 6.128765321212679e6 0.0
6.128765321212679e6 -1.5620363050840234e6 0.0
0.0 0.0 0.0

263483.1179343008 6.211354026401517e6 0.0
6.211354026401517e6 -1.5560356849201347e6 0.0
0.0 0.0 0.0

-1.5206347241622175e6 3.877595418277136e6 0.0
3.877595418277136e6 1.5168997915525653e6 0.0
0.0 0.0 0.0

-622168.1775832748 6.27311947113801e6 0.0
6.27311947113801e6 -1.2929970283436605e6 0.0
0.0 0.0 0.0

-1.7466589857990057e6 4.728689186225384e6 0.0
4.728689186225384e6 1.3063789226453684e6 0.0
0.0 0.0 0.0

-340746.9829473958 7.595397783544132e6 0.0
7.595397783544132e6 -1.0114516098416048e6 0.0
0.0 0.0 0.0

-1.5869321337218292e6 2.4185605426029772e6 0.0
2.4185605426029772e6 233975.44006019458 0.0
0.0 0.0 0.0

-89598.28498705968 1.9350222592958864e6 0.0
1.9350222592958864e6 -1.0482279869501556e6 0.0
0.0 0.0 0.0

-932210.9240209741 1.920284709940726e6 0.0
1.920284709940726e6 -276045.535413847 0.0
0.0 0.0 0.0

185063.14573618106 2.562962420763834e6 0.0
2.562962420763834e6 -516252.47420481243 0.0
0.0 0.0 0.0

-500343.1696605721 4.068299276191366e6 0.0
4.068299276191366e6 -1.993947718928704e6 0.0
0.0 0.0 0.0

-331439.19561411947 5.67965403538876e6 0.0
5.67965403538876e6 -1.9816826839372008e6 0.0
0.0 0.0 0.0

1.956120493202745e6 2.169192334555933e6 0.0
2.169192334555933e6 -2.8794409868271193e6 0.0
0.0 0.0 0.0

520357.7404522246 4.323649405185296e6 0.0
4.323649405185296e6 -1.6444755331834473e6 0.0
0.0 0.0 0.0

-1.8055599574801668e6 2.6504019673221493e6 0.0
2.6504019673221493e6 448921.80676208856 0.0
0.0 0.0 0.0

687194.2017262911 6.7390001489843875e6 0.0
6.7390001489843875e6 -1.843341305216733e6 0.0
0.0 0.0 0.0

-464011.461409557 1.5316205301218226e6 0.0
1.5316205301218226e6 -442041.02779823204 0.0
0.0 0.0 0.0

611411.8820411138 6.680433321363494e6 0.0
6.680433321363494e6 -1.9991108946824097e6 0.0
0.0 0.0 0.0

-438271.1077066442 4.1248594870755924e6 0.0
4.1248594870755924e6 -1.0784031877187423e6 0.0
0.0 0.0 0.0

294976.7100655355 2.3224337641266114e6 0.0
2.3224337641266114e6 -1.088209021676675e6 0.0
0.0 0.0 0.0

-1.6372637871913258e6 4.7554133289618185e6 0.0
4.7554133289618185e6 -204529.59774756827 0.0
0.0 0.0 0.0

278163.83955414116 4.042427478271305e6 0.0
4.042427478271305e6 -1.9193036196261516e6 0.0
0.0 0.0 0.0

-552020.0161481053 4.305567961929845e6 0.0
4.305567961929845e6 -981558.2305725778 0.0
0.0 0.0 0.0

-139038.0534301008 6.906762603638274e6 0.0
6.906762603638274e6 -992599.3002082481 0.0
0.0 0.0 0.0

178217.99894682656 1.701708359892497e6 0.0
1.701708359892497e6 -291161.224844602 0.0
0.0 0.0 0.0

59289.97587017232 6.6049496567620635e6 0.0
6.6049496567620635e6 -1.052371528846566e6 0.0
0.0 0.0 0.0

-2.0277373533309358e6 3.528511445013248e6 0.0
3.528511445013248e6 624758.7093166977 0.0
0.0 0.0 0.0

-1.2400437754600656e6 6.508604252216626e6 0.0
6.508604252216626e6 -416677.76208514 0.0
0.0 0.0 0.0

-757372.6423913729 5.053166671566344e6 0.0
5.053166671566344e6 -1.3338015880337162e6 0.0
0.0 0.0 0.0

-94640.60946603408 1.4901176305922242e6 0.0
1.4901176305922242e6 -413032.3268605191 0.0
0.0 0.0 0.0

-1.456066296591964e6 5.618662525447517e6 0.0
5.618662525447517e6 212563.93177100795 0.0
0.0 0.0 0.0

-863538.5678934017 5.626001424571743e6 0.0
5.626001424571743e6 -538873.6815302112 0.0
0.0 0.0 0.0

-303617.75898096187 2.375238612895241e6 0.0
2.375238612895241e6 -446296.27590304345 0.0
0.0 0.0 0.0

-1.1249755630717697e6 5.425744347824571e6 0.0
5.425744347824571e6 89027.89285052248 0.0
0.0 0.0 0.0

448338.8115020645 1.585861336465888e6 0.0
1.585861336465888e6 -1.1069701011763064e6 0.0
0.0 0.0 0.0

-1.2839858225413426e6 2.44239052048631e6 0.0
2.44239052048631e6 91149.84288031585 0.0
0.0 0.0 0.0

-1.3505574290375905e6 457181.9622425974 0.0
457181.9622425974 2.782160898491728e6 0.0
0.0 0.0 0.0

-1.3579009954648719e6 3.3297377094984716e6 0.0
3.3297377094984716e6 -139947.69987861242 0.0
0.0 0.0 0.0

-633514.1541486904 6.214335561926865e6 0.0
6.214335561926865e6 -1.0845859442066252e6 0.0
0.0 0.0 0.0

-864587.966713814 2.75501973873442e6 0.0
2.75501973873442e6 -785621.815010224 0.0
0.0 0.0 0.0

-862433.3785006049 3.5368762921107863e6 0.0
3.5368762921107863e6 -1.064786183939935e6 0.0
0.0 0.0 0.0

-719176.3366002211 3.3753403688998874e6 0.0
3.3753403688998874e6 -2.025511422137901e6 0.0
0.0 0.0 0.0

192920.9266971827 3.698146790092063e6 0.0
3.698146790092063e6 -1.911427016696135e6 0.0
0.0 0.0 0.0

-725110.0822549008 2.800025939836852e6 0.0
2.800025939836852e6 266301.9153282668 0.0
0.0 0.0 0.0

-2.408885907196736e6 3.929904075223777e6 0.0
3.929904075223777e6 902321.2148047459 0.0
0.0 0.0 0.0

-257316.20288720715 1.178463109354267e6 0.0
1.178463109354267e6 -225145.4589153912 0.0
0.0 0.0 0.0

-852186.8373478712 6.78816958844591e6 0.0
6.78816958844591e6 -795821.5877099739 0.0
0.0 0.0 0.0

-952695.6426421045 6.572333417759383e6 0.0
6.572333417759383e6 -900801.013795725 0.0
0.0 0.0 0.0

2.39040526864718e6 2.470929322972452e6 0.0
2.470929322972452e6 1.0623503454167286e6 0.0
0.0 0.0 0.0

206882.80780680082 2.48442926083856e6 0.0
2.48442926083856e6 -1.7540022472616108e6 0.0
0.0 0.0 0.0

-983045.4709111651 3.0799583379314295e6 0.0
3.0799583379314295e6 -307194.44146685186 0.0
0.0 0.0 0.0

-562255.6325803327 3.8545596290536267e6 0.0
3.8545596290536267e6 -1.4195485850222637e6 0.0
0.0 0.0 0.0

-606537.6429821447 3.4856169516003206e6 0.0
3.4856169516003206e6 -993217.2977110319 0.0
0.0 0.0 0.0

-397330.7440243348 6.176089908992291e6 0.0
6.176089908992291e6 -1.1868415009565263e6 0.0
0.0 0.0 0.0

-1.2656413856362554e6 1.4443396950735704e6 0.0
1.4443396950735704e6 2.9834437444633003e6 0.0
0.0 0.0 0.0

-615225.2823754535 2.6133543192883534e6 0.0
2.6133543192883534e6 78159.34094414202 0.0
0.0 0.0 0.0

-979416.2260981583 3.0573495807129377e6 0.0
3.0573495807129377e6 -946127.8114938114 0.0
0.0 0.0 0.0

-1.3821470596835052e6 3.35099391669351e6 0.0
3.35099391669351e6 -421237.02246384195 0.0
0.0 0.0 0.0

-2.3457895341541315e6 2.9242965282089654e6 0.0
2.9242965282089654e6 2.3099153872459987e6 0.0
0.0 0.0 0.0

-2.764927088712674e6 3.7288482881268095e6 0.0
3.7288482881268095e6 975465.1878623399 0.0
0.0 0.0 0.0

-378524.8933689003 5.443650917085964e6 0.0
5.443650917085964e6 -2.0099471383939649e6 0.0
0.0 0.0 0.0

-3.292382979421001e6 3.855085021607467e6 0.0
3.855085021607467e6 1.085015565858895e6 0.0
0.0 0.0 0.0

-1.306151539474789e6 3.2395497656855993e6 0.0
3.2395497656855993e6 -139617.3343552727 0.0
0.0 0.0 0.0

-3.2075962985370094e6 5.542804343633138e6 0.0
5.542804343633138e6 1.677358351792767e6 0.0
0.0 0.0 0.0

-250961.19384237187 6.125614490923476e6 0.0
6.125614490923476e6 -274047.69862599554 0.0
0.0 0.0 0.0

-744281.3108564203 5.449971032625124e6 0.0
5.449971032625124e6 -1.260556529179735e6 0.0
0.0 0.0 0.0

-1.3239204995351755e6 5.252366369700714e6 0.0
5.252366369700714e6 723449.9418859258 0.0
0.0 0.0 0.0

-2.113803655567676e6 4.1501756229730686e6 0.0
4.1501756229730686e6 756310.0707249659 0.0
0.0 0.0 0.0

-676498.2908179048 5.401085856054117e6 0.0
5.401085856054117e6 -853466.196656935 0.0
0.0 0.0 0.0

-1.05113072536007e6 2.773773823047625e6 0.0
2.773773823047625e6 -806061.7337586796 0.0
0.0 0.0 0.0

-717036.3132723711 5.404121685626037e6 0.0
5.404121685626037e6 -1.433075073015803e6 0.0
0.0 0.0 0.0

-1.1739343365567315e6 2.028794369541956e6 0.0
2.028794369541956e6 -383333.38037886156 0.0
0.0 0.0 0.0

-2.4187290026087607e6 3.2287239042071626e6 0.0
3.2287239042071626e6 890098.7111191358 0.0
0.0 0.0 0.0

-2.617284826028634e6 3.746747069643745e6 0.0
3.746747069643745e6 780348.9409857583 0.0
0.0 0.0 0.0

522247.3472134833 1.089533572482062e6 0.0
1.089533572482062e6 -420384.81605267397 0.0
0.0 0.0 0.0

-444302.20919268776 3.1395739918429144e6 0.0
3.1395739918429144e6 -1.4598217796158916e6 0.0
0.0 0.0 0.0

-2.843634277449363e6 3.7628594314807453e6 0.0
3.7628594314807453e6 1.1863315519842487e6 0.0
0.0 0.0 0.0

-1.8799525921881623e6 3.49990794141098e6 0.0
3.49990794141098e6 574084.3137074509 0.0
0.0 0.0 0.0

-5.042689312711548e6 -3.709042139842307e6 0.0
-3.709042139842307e6 4.395279127378788e6 0.0
0.0 0.0 0.0

-586329.8765994052 5.7359185709746275e6 0.0
5.7359185709746275e6 -1.6302556791003165e6 0.0
0.0 0.0 0.0

-1.6505115057274862e6 3.6212464331987933e6 0.0
3.6212464331987933e6 357676.5569901682 0.0
0.0 0.0 0.0

-2.139771282106594e6 3.413736224132393e6 0.0
3.413736224132393e6 699120.0618629587 0.0
0.0 0.0 0.0

-1.7507199570612062e6 3.6487941514643e6 0.0
3.6487941514643e6 476371.2026684352 0.0
0.0 0.0 0.0

-946606.9865412067 5.60249888973161e6 0.0
5.60249888973161e6 -358139.54403652856 0.0
0.0 0.0 0.0

-894425.720067464 4.82432127402207e6 0.0
4.82432127402207e6 -611673.8695383728 0.0
0.0 0.0 0.0

-1.331885985401753e6 3.374651061999567e6 0.0
3.374651061999567e6 -73187.05126820173 0.0
0.0 0.0 0.0

-401193.63367665734 2.453586858403703e6 0.0
2.453586858403703e6 419961.1751754449 0.0
0.0 0.0 0.0

-1.0867736983375775e6 2.149312174916994e6 0.0
2.149312174916994e6 -147824.69469808025 0.0
0.0 0.0 0.0

1.5824693784017186e6 1.0737492287940625e6 0.0
1.0737492287940625e6 -2.7039646023590323e6 0.0
0.0 0.0 0.0

-1.5451219261378075e6 2.5791428071711194e6 0.0
2.5791428071711194e6 -161900.96041917417 0.0
0.0 0.0 0.0

-832980.2367510003 6.321018841487135e6 0.0
6.321018841487135e6 -730046.5116779908 0.0
0.0 0.0 0.0

-1.7768777791944905e6 3.4937790926052793e6 0.0
3.4937790926052793e6 471762.69481669716 0.0
0.0 0.0 0.0

-1.7386809644847924e6 2.4060285648469883e6 0.0
2.4060285648469883e6 178595.15440551448 0.0
0.0 0.0 0.0

490830.5983570379 1.6770397836665872e6 0.0
1.6770397836665872e6 -652536.3349574234 0.0
0.0 0.0 0.0

1.6326844826670056e6 1.5463605215259334e6 0.0
1.5463605215259334e6 -2.5578697227197457e6 0.0
0.0 0.0 0.0

-179248.79971320892 2.419950227713654e6 0.0
2.419950227713654e6 529120.1590283269 0.0
0.0 0.0 0.0

98848.31811153592 1.3735704627448933e6 0.0
1.3735704627448933e6 -1.0176350331430923e6 0.0
0.0 0.0 0.0

-649452.8560270844 5.484335776846242e6 0.0
5.484335776846242e6 64973.943439463736 0.0
0.0 0.0 0.0

-1.4682336551782982e6 3.504053553884111e6 0.0
3.504053553884111e6 -332492.80473952804 0.0
0.0 0.0 0.0

-332671.7805190725 2.679676935931828e6 0.0
2.679676935931828e6 -2.0537709936633883e6 0.0
0.0 0.0 0.0

-4646.026735423948 1.4564833877381303e6 0.0
1.4564833877381303e6 401422.2991106045 0.0
0.0 0.0 0.0

-2.028469311889448e6 3.5733027925706683e6 0.0
3.5733027925706683e6 605091.8803677083 0.0
0.0 0.0 0.0

-1.7729203855966316e6 2.763993680138784e6 0.0
2.763993680138784e6 220239.85306887573 0.0
0.0 0.0 0.0

-1.0258476739634275e6 2.095773546179503e6 0.0
2.095773546179503e6 -13043.362599917571 0.0
0.0 0.0 0.0

-1.4128225587358319e6 2.1556343413567813e6 0.0
2.1556343413567813e6 -117573.79856367066 0.0
0.0 0.0 0.0

-521803.84588796215 3.7372418983707614e6 0.0
3.7372418983707614e6 -1.7655950575820233e6 0.0
0.0 0.0 0.0

-1.8858974996307709e6 3.632884371659912e6 0.0
3.632884371659912e6 518913.5268036729 0.0
0.0 0.0 0.0

-812548.3418901658 6.542749990618936e6 0.0
6.542749990618936e6 -871252.341552716 0.0
0.0 0.0 0.0

-4.961430028230388e6 3.4630628459372786e6 0.0
3.4630628459372786e6 1.208428878053331e7 0.0
0.0 0.0 0.0

-1.0285631074653588e6 4.0094689984661285e6 0.0
4.0094689984661285e6 134996.7372836722 0.0
0.0 0.0 0.0

-436618.47425198206 2.7706607337569995e6 0.0
2.7706607337569995e6 -452230.1318601905 0.0
0.0 0.0 0.0

-385335.9413674895 5.902394351070449e6 0.0
5.902394351070449e6 -1.798416137773599e6 0.0
0.0 0.0 0.0

-1.6120260941145462e6 2.501211399572299e6 0.0
2.501211399572299e6 325470.41492111154 0.0
0.0 0.0 0.0

-861430.0588123286 6.998234927615085e6 0.0
6.998234927615085e6 -677513.9211271502 0.0
0.0 0.0 0.0

-2.6481136747867553e6 3.7283969861003775e6 0.0
3.7283969861003775e6 982455.603730699 0.0
0.0 0.0 0.0

-2.462261113654938e6 3.7662619290983183e6 0.0
3.7662619290983183e6 666920.5564573659 0.0
0.0 0.0 0.0

-759190.9290315718 5.718123547538803e6 0.0
5.718123547538803e6 -1.1700619707711693e6 0.0
0.0 0.0 0.0

-1.4912343088853725e6 2.370360478574177e6 0.0
2.370360478574177e6 219004.00401776232 0.0
0.0 0.0 0.0

-1.8641483339011387e6 3.605739148490185e6 0.0
3.605739148490185e6 566846.5106867525 0.0
0.0 0.0 0.0

-168410.734749501 2.3637033267506235e6 0.0
2.3637033267506235e6 -705045.9296206317 0.0
0.0 0.0 0.0

1.7892031236042748e6 1.6103402174556328e6 0.0
1.6103402174556328e6 -3.081236970314554e6 0.0
0.0 0.0 0.0

-1.457488995876304e6 2.582498341401019e6 0.0
2.582498341401019e6 130003.06627495901 0.0
0.0 0.0 0.0

-4356.448229329835 8.560438977287468e6 0.0
8.560438977287468e6 -1.4529706527603045e6 0.0
0.0 0.0 0.0

-2.137014853789823e6 3.168582531811041e6 0.0
3.168582531811041e6 741745.2421112326 0.0
0.0 0.0 0.0

-715752.0750089271 1.8108424297242959e6 0.0
1.8108424297242959e6 -160204.26846422802 0.0
0.0 0.0 0.0

-2.968183508058029e6 4.817720891865909e6 0.0
4.817720891865909e6 976107.7112471056 0.0
0.0 0.0 0.0

-7.511785288834421e6 -3.396596808946441e6 0.0
-3.396596808946441e6 3.718151064138814e6 0.0
0.0 0.0 0.0

-505407.72567497025 1.5999085034579586e6 0.0
1.5999085034579586e6 -341513.3413125449 0.0
0.0 0.0 0.0

-512453.8266230228 3.493962884663243e6 0.0
3.493962884663243e6 -1.8753360086381957e6 0.0
0.0 0.0 0.0

-833784.7819771062 6.38078991132616e6 0.0
6.38078991132616e6 -859478.6018553483 0.0
0.0 0.0 0.0

-695037.8150690142 2.928175910102772e6 0.0
2.928175910102772e6 -1.0344947968443518e6 0.0
0.0 0.0 0.0

-714600.0846859743 6.096625875877205e6 0.0
6.096625875877205e6 -1.192572650899086e6 0.0
0.0 0.0 0.0

-310706.9467198815 1.3988747637723133e6 0.0
1.3988747637723133e6 -561670.4029480073 0.0
0.0 0.0 0.0

79548.27113555744 7.162209623756681e6 0.0
7.162209623756681e6 -704850.8347231281 0.0
0.0 0.0 0.0

-2.8644262851624293e6 3.6832465744720795e6 0.0
3.6832465744720795e6 1.059979678171156e6 0.0
0.0 0.0 0.0

158087.8166333698 1.9576237571833713e6 0.0
1.9576237571833713e6 -627847.6241881301 0.0
0.0 0.0 0.0

-373014.315442439 3.801969426242097e6 0.0
3.801969426242097e6 -1.4691017082180986e6 0.0
0.0 0.0 0.0

-3.2924752348619774e6 4.823459734167155e6 0.0
4.823459734167155e6 1.1939239377164291e6 0.0
0.0 0.0 0.0

-493508.351326293 6.37689196696958e6 0.0
6.37689196696958e6 -1.0610511226622588e6 0.0
0.0 0.0 0.0

-806301.4006603924 6.7712442283801e6 0.0
6.7712442283801e6 -433781.84982767014 0.0
0.0 0.0 0.0

76414.67656223604 3.8331299668311705e6 0.0
3.8331299668311705e6 -2.0975297028783956e6 0.0
0.0 0.0 0.0

-1.3236946973126128e6 2.941411387193369e6 0.0
2.941411387193369e6 1.8158658798548775e6 0.0
0.0 0.0 0.0

-2.725642886546461e6 3.37793399949055e6 0.0
3.37793399949055e6 1.1037208543725372e6 0.0
0.0 0.0 0.0

805702.8936678283 5.554724411768497e6 0.0
5.554724411768497e6 -1.3442100532508818e6 0.0
0.0 0.0 0.0

-210456.02017707503 1.194185308869379e6 0.0
1.194185308869379e6 -875162.8700673315 0.0
0.0 0.0 0.0

-331637.5009337128 1.864002960398912e6 0.0
1.864002960398912e6 -2.323883673854401e6 0.0
0.0 0.0 0.0

-2.86020786848629e6 4.111687695926415e6 0.0
4.111687695926415e6 790244.0371296859 0.0
0.0 0.0 0.0

450578.39411810593 993487.5967350375 0.0
993487.5967350375 -754080.3158805673 0.0
0.0 0.0 0.0

-1.063193437050892e6 2.9842696170580927e6 0.0
2.9842696170580927e6 555725.3146553293 0.0
0.0 0.0 0.0

-2.406500556223635e6 3.6735069487705664e6 0.0
3.6735069487705664e6 894400.2035682959 0.0
0.0 0.0 0.0

-332974.01805218705 6.116496124232995e6 0.0
6.116496124232995e6 -1.3019136476530852e6 0.0
0.0 0.0 0.0

-823233.6860365185 5.594375170211478e6 0.0
5.594375170211478e6 31010.09957537934 0.0
0.0 0.0 0.0

-1.829811068976597e6 2.5433670200815434e6 0.0
2.5433670200815434e6 270029.84717937047 0.0
0.0 0.0 0.0

-657784.6410219517 3.64911018181486e6 0.0
3.64911018181486e6 -893685.2697641446 0.0
0.0 0.0 0.0

-594578.8875480455 4.317987129957632e6 0.0
4.317987129957632e6 -1.6881779846069084e6 0.0
0.0 0.0 0.0

-888471.0758090933 6.621305011741766e6 0.0
6.621305011741766e6 -243107.66385076495 0.0
0.0 0.0 0.0

-654078.6093006188 3.3610472366995844e6 0.0
3.3610472366995844e6 -1.956423511252439e6 0.0
0.0 0.0 0.0

-55143.81150056611 2.2764060826933538e6 0.0
2.2764060826933538e6 -882475.4010627503 0.0
0.0 0.0 0.0

-1.0900765937576117e6 9.946215028695768e6 0.0
9.946215028695768e6 1.2482821848348202e7 0.0
0.0 0.0 0.0

-2.606289495176395e6 4.257481282332312e6 0.0
4.257481282332312e6 710633.1373326455 0.0
0.0 0.0 0.0

-1.7896679180615894e6 2.577121659628353e6 0.0
2.577121659628353e6 182537.75240075449 0.0
0.0 0.0 0.0

-668526.4975631686 7.166242570705236e6 0.0
7.166242570705236e6 -907293.0712527434 0.0
0.0 0.0 0.0

-2.170601815605159e6 3.731766323606641e6 0.0
3.731766323606641e6 705171.9692582546 0.0
0.0 0.0 0.0

-236665.8878465604 2.813385347094726e6 0.0
2.813385347094726e6 -189872.48316084448 0.0
0.0 0.0 0.0

-781277.4995959874 5.9333133125826465e6 0.0
5.9333133125826465e6 -1.081591115830924e6 0.0
0.0 0.0 0.0

-546108.2980800326 6.070162466781228e6 0.0
6.070162466781228e6 -1.4222331455272904e6 0.0
0.0 0.0 0.0

-621470.8871915932 6.208688191652871e6 0.0
6.208688191652871e6 -1.2760917616824037e6 0.0
0.0 0.0 0.0

-1.1753711093122142e6 2.664022975838758e6 0.0
2.664022975838758e6 -586232.4732836005 0.0
0.0 0.0 0.0

-70432.30421980616 8.602702716110893e6 0.0
8.602702716110893e6 -745304.0170088933 0.0
0.0 0.0 0.0

-554220.447869544 3.5819882665860006e6 0.0
3.5819882665860006e6 -1.813259254692862e6 0.0
0.0 0.0 0.0

1.4353318289536915e6 2.18607423720912e6 0.0
2.18607423720912e6 -1.9442341543044515e6 0.0
0.0 0.0 0.0

-477822.82569786074 5.94453373877543e6 0.0
5.94453373877543e6 -1.5538894717835328e6 0.0
0.0 0.0 0.0

182834.37185427453 4.1850574004117968e6 0.0
4.1850574004117968e6 -1.9179392124367035e6 0.0
0.0 0.0 0.0

198533.28861141647 2.6812877716632904e6 0.0
2.6812877716632904e6 -746038.1708749331 0.0
0.0 0.0 0.0

-2.295161714633329e6 3.287424030332169e6 0.0
3.287424030332169e6 844736.9072748718 0.0
0.0 0.0 0.0

425692.46175264916 5.378075143204853e6 0.0
5.378075143204853e6 -1.9973334368330664e6 0.0
0.0 0.0 0.0

1.1249220027551795e6 1.0143283279077663e6 0.0
1.0143283279077663e6 -2.6006908344993005e6 0.0
0.0 0.0 0.0

-1.1036871391581858e6 2.555119281974627e6 0.0
2.555119281974627e6 -336701.41448700125 0.0
0.0 0.0 0.0

-2.2099041068178113e6 1.574151161830495e6 0.0
1.574151161830495e6 4.34310976409769e6 0.0
0.0 0.0 0.0

-1.9704175548624638e6 4.296508793663604e6 0.0
4.296508793663604e6 842729.5107410866 0.0
0.0 0.0 0.0

-990334.821651146 2.8186003215844613e6 0.0
2.8186003215844613e6 -7805.661522791954 0.0
0.0 0.0 0.0

-1.8095978930173554e6 3.921029186998951e6 0.0
3.921029186998951e6 1.2593988368933275e6 0.0
0.0 0.0 0.0

908381.363625748 6.672970550995309e6 0.0
6.672970550995309e6 -1.7228696627670666e6 0.0
0.0 0.0 0.0

-435580.495138319 5.923206695298081e6 0.0
5.923206695298081e6 -1.7169695621413987e6 0.0
0.0 0.0 0.0

-1.361278778297765e7 3.1367081994875725e6 0.0
3.1367081994875725e6 5.402649426160845e6 0.0
0.0 0.0 0.0

-1.40622911318287e6 3.257268524065613e6 0.0
3.257268524065613e6 -66872.93610630196 0.0
0.0 0.0 0.0

136921.54365293996 1.9844493977640073e6 0.0
1.9844493977640073e6 -1.028168695147395e6 0.0
0.0 0.0 0.0

-909978.4595657536 6.484514974372325e6 0.0
6.484514974372325e6 -962470.5626028691 0.0
0.0 0.0 0.0

-684053.103246507 6.371279586358813e6 0.0
6.371279586358813e6 -1.1804263123210114e6 0.0
0.0 0.0 0.0

-713127.5561954062 -45036.06982608692 0.0
-45036.06982608692 699243.606756751 0.0
0.0 0.0 0.0

-1.0141942725704823e6 -410991.5954657277 0.0
-410991.5954657277 2.1823716995758517e6 0.0
0.0 0.0 0.0

-2.713911424022569e6 4.133882349769652e6 0.0
4.133882349769652e6 732666.4202760977 0.0
0.0 0.0 0.0

-1.6604791391455226e6 3.563447380585749e6 0.0
3.563447380585749e6 342612.8449969713 0.0
0.0 0.0 0.0

-3.0048876354861287e6 3.8403100968781267e6 0.0
3.8403100968781267e6 977584.553715488 0.0
0.0 0.0 0.0

-314045.62652939244 7.396892479561616e6 0.0
7.396892479561616e6 -1.2699393232054168e6 0.0
0.0 0.0 0.0

-1.994323818240733e6 3.5012194516510335e6 0.0
3.5012194516510335e6 671630.5991061402 0.0
0.0 0.0 0.0

-279969.93819313333 1.7005221818058537e6 0.0
1.7005221818058537e6 569318.354272987 0.0
0.0 0.0 0.0

-9.937135643462986e6 -3.6910877079345253e6 0.0
-3.6910877079345253e6 4.993984803914718e6 0.0
0.0 0.0 0.0

-2.420710767282964e6 3.329156075123077e6 0.0
3.329156075123077e6 911641.4350724684 0.0
0.0 0.0 0.0

-1.8505760679370556e6 4.0307078091954216e6 0.0
4.0307078091954216e6 1.1465017313554017e6 0.0
0.0 0.0 0.0

-1.885268063831425e6 5.4670578599775275e6 0.0
5.4670578599775275e6 -19946.375941457693 0.0
0.0 0.0 0.0

572061.6142508336 1.8366070160774286e6 0.0
1.8366070160774286e6 -922063.1440757706 0.0
0.0 0.0 0.0

-1.398578835870945e6 3.3791174183153906e6 0.0
3.3791174183153906e6 -41506.75044212368 0.0
0.0 0.0 0.0

-3.4060476296980716e6 7.046865011724477e6 0.0
7.046865011724477e6 630754.2205977829 0.0
0.0 0.0 0.0

-2.700221632605374e6 6.105296079535694e6 0.0
6.105296079535694e6 869301.3826879062 0.0
0.0 0.0 0.0

1.7292230928940522e6 2.407206866540167e6 0.0
2.407206866540167e6 -2.505430523268135e6 0.0
0.0 0.0 0.0

-1.9596729020989244e6 4.153824715244676e6 0.0
4.153824715244676e6 1.0263032348106836e6 0.0
0.0 0.0 0.0

-1.0709002415926224e6 3.305178627752968e6 0.0
3.305178627752968e6 -347429.2791085838 0.0
0.0 0.0 0.0

315745.7948442225 3.929936043127923e6 0.0
3.929936043127923e6 -1.8686553072412314e6 0.0
0.0 0.0 0.0

-401586.78220750584 -343365.4906315211 0.0
-343365.4906315211 523286.15222889715 0.0
0.0 0.0 0.0

159600.74080046895 5.114951530623849e6 0.0
5.114951530623849e6 -1.9027555966416474e6 0.0
0.0 0.0 0.0

276026.4492179139 6.072557246689059e6 0.0
6.072557246689059e6 -1.763282435312221e6 0.0
0.0 0.0 0.0

-769307.220183964 5.231242070734321e6 0.0
5.231242070734321e6 -1.0331165092880963e6 0.0
0.0 0.0 0.0

-463075.60813337436 3.8692734122445993e6 0.0
3.8692734122445993e6 -2.052359798050036e6 0.0
0.0 0.0 0.0

-3.588947480310005e6 5.953783053183174e6 0.0
5.953783053183174e6 1.186434600598044e6 0.0
0.0 0.0 0.0

-1.8560773581299002e6 3.042314125383132e6 0.0
3.042314125383132e6 4.311848129169511e6 0.0
0.0 0.0 0.0

-172167.90584622681 -37873.32227277894 0.0
-37873.32227277894 149875.41629163336 0.0
0.0 0.0 0.0

-1.169863640033543e6 3.452503316514527e6 0.0
3.452503316514527e6 -260222.71009886154 0.0
0.0 0.0 0.0

142907.99198847788 5.396227582252144e6 0.0
5.396227582252144e6 -2.0128516346551809e6 0.0
0.0 0.0 0.0

-2.0440803555306953e6 2.9465771619520434e6 0.0
2.9465771619520434e6 668146.7714744299 0.0
0.0 0.0 0.0

-2.1739772186673298e6 3.257286689023315e6 0.0
3.257286689023315e6 749214.4017772514 0.0
0.0 0.0 0.0

-188227.3889061539 2.1168070642855843e6 0.0
2.1168070642855843e6 -60611.87914675082 0.0
0.0 0.0 0.0

-852271.8864881383 6.847220875660022e6 0.0
6.847220875660022e6 -260969.36629379215 0.0
0.0 0.0 0.0

-714605.4205297718 5.778034932823981e6 0.0
5.778034932823981e6 -1.0138886995452975e6 0.0
0.0 0.0 0.0

-2.5500781961200507e6 3.6905525315726153e6 0.0
3.6905525315726153e6 1.0276252438304699e6 0.0
0.0 0.0 0.0

465206.76059377904 4.563056117627744e6 0.0
4.563056117627744e6 -1.832349035227572e6 0.0
0.0 0.0 0.0

-2.162405040765952e6 3.3966434287457415e6 0.0
3.3966434287457415e6 772081.0820137232 0.0
0.0 0.0 0.0

-552748.7601063491 3.3485373169820127e6 0.0
3.3485373169820127e6 -1.1027991517270203e6 0.0
0.0 0.0 0.0

-1.520640581704455e6 2.519057650560613e6 0.0
2.519057650560613e6 -26371.911688307067 0.0
0.0 0.0 0.0

-1.2572875194896131e6 2.246484295257361e6 0.0
2.246484295257361e6 21683.449813242012 0.0
0.0 0.0 0.0

446373.8551986209 2.1412014434735556e6 0.0
2.1412014434735556e6 -1.0829955524820029e6 0.0
0.0 0.0 0.0

-863561.6099168719 5.739846475092158e6 0.0
5.739846475092158e6 -1.0765261476151852e6 0.0
0.0 0.0 0.0

-600283.0688057409 2.8588873460165905e6 0.0
2.8588873460165905e6 406455.87942616723 0.0
0.0 0.0 0.0

-797478.4314777283 3.162387955837891e6 0.0
3.162387955837891e6 -784962.4314757804 0.0
0.0 0.0 0.0

-163583.85593593516 1.9585580217822152e6 0.0
1.9585580217822152e6 -732122.5460306603 0.0
0.0 0.0 0.0

-2.7553990247185486e6 4.1384278245123965e6 0.0
4.1384278245123965e6 717012.6933409373 0.0
0.0 0.0 0.0

-1.7542328555472088e6 4.213647157630643e6 0.0
4.213647157630643e6 216631.54603255016 0.0
0.0 0.0 0.0

-643100.4769653045 5.985323263778861e6 0.0
5.985323263778861e6 -1.3958420417453162e6 0.0
0.0 0.0 0.0

-298084.1537553215 4.475922123063716e6 0.0
4.475922123063716e6 -2.068328341482348e6 0.0
0.0 0.0 0.0

-2.525757132658187e6 3.384432103151609e6 0.0
3.384432103151609e6 986902.1203270592 0.0
0.0 0.0 0.0

-1.7002341874863855e6 4.1489157110768026e6 0.0
4.1489157110768026e6 1.2295418115069792e6 0.0
0.0 0.0 0.0

-4.469857224469637e6 3.557965456387598e6 0.0
3.557965456387598e6 4.509343325323055e6 0.0
0.0 0.0 0.0

-30732.06216237531 4.70351317722011e6 0.0
4.70351317722011e6 -1.9586274825899273e6 0.0
0.0 0.0 0.0

-2.002908877344942e6 3.6412197861816995e6 0.0
3.6412197861816995e6 618717.7551263098 0.0
0.0 0.0 0.0

-2.2907800603713775e6 3.4324507774679814e6 0.0
3.4324507774679814e6 819497.0672263991 0.0
0.0 0.0 0.0

-52591.34006340589 2.6316392264555558e6 0.0
2.6316392264555558e6 -579854.6635178596 0.0
0.0 0.0 0.0

-3.5917286205031853e6 6.16684193278218e6 0.0
6.16684193278218e6 1.284946631988755e6 0.0
0.0 0.0 0.0

-927467.7226310729 2.580293224002461e6 0.0
2.580293224002461e6 -686809.4871480231 0.0
0.0 0.0 0.0

-1.224599098435557e6 3.2582969194303052e6 0.0
3.2582969194303052e6 419886.88646475633 0.0
0.0 0.0 0.0

-28701.93784103659 4.0263166548739527e6 0.0
4.0263166548739527e6 -1.953218862627185e6 0.0
0.0 0.0 0.0

-897835.6021716279 2.754221528955547e6 0.0
2.754221528955547e6 101693.73322365852 0.0
0.0 0.0 0.0

-2.609523159144193e6 3.3346723885184634e6 0.0
3.3346723885184634e6 1.0407588841532272e6 0.0
0.0 0.0 0.0

-2.701954822034714e6 3.4300375380499717e6 0.0
3.4300375380499717e6 1.068155911199686e6 0.0
0.0 0.0 0.0

-911694.7383860969 2.8621739674884616e6 0.0
2.8621739674884616e6 -668316.2458352586 0.0
0.0 0.0 0.0

-721432.7437359272 6.368561930424411e6 0.0
6.368561930424411e6 -954830.8373932667 0.0
0.0 0.0 0.0

-399890.9272493884 8.357391293897393e6 0.0
8.357391293897393e6 -490767.8554640664 0.0
0.0 0.0 0.0

-1.3605466118368248e6 5.282224530236573e6 0.0
5.282224530236573e6 68289.67032609473 0.0
0.0 0.0 0.0

-564262.5483073497 4.466042413801049e6 0.0
4.466042413801049e6 -2.0525531113212395e6 0.0
0.0 0.0 0.0

-715491.376721672 3.1303937569927494e6 0.0
3.1303937569927494e6 -1.4750995228964372e6 0.0
0.0 0.0 0.0

-143621.96827182395 1.8558399739274615e6 0.0
1.8558399739274615e6 581638.4076597184 0.0
0.0 0.0 0.0

-1.188352435332066e6 5.78394610837441e6 0.0
5.78394610837441e6 -280803.33932614006 0.0
0.0 0.0 0.0

-1.512015522840243e6 5.475596598473559e6 0.0
5.475596598473559e6 -28373.727644560393 0.0
0.0 0.0 0.0

-2.167204557312673e6 3.54583088560831e6 0.0
3.54583088560831e6 730942.618871148 0.0
0.0 0.0 0.0

-108994.75073268008 1.4393971606439631e6 0.0
1.4393971606439631e6 558534.8036365439 0.0
0.0 0.0 0.0

-2.7918558883920265e6 4.125199385774773e6 0.0
4.125199385774773e6 680723.5131061478 0.0
0.0 0.0 0.0

-2.5431457933961092e6 3.293820939167239e6 0.0
3.293820939167239e6 946065.2999643155 0.0
0.0 0.0 0.0

-711269.4759893082 5.858796924779288e6 0.0
5.858796924779288e6 -1.079091557264137e6 0.0
0.0 0.0 0.0

-150635.82047564763 6.302363520206688e6 0.0
6.302363520206688e6 -502119.4086738614 0.0
0.0 0.0 0.0

-1.8628418577871723e6 3.696350086551176e6 0.0
3.696350086551176e6 546805.4340351439 0.0
0.0 0.0 0.0

-1.4954390186709217e6 3.504378711483808e6 0.0
3.504378711483808e6 378611.72968287487 0.0
0.0 0.0 0.0

1.928968609829119e6 1.8086562400444546e6 0.0
1.8086562400444546e6 -2.796494301439763e6 0.0
0.0 0.0 0.0

-2.5058238839165242e6 3.856181942946968e6 0.0
3.856181942946968e6 949811.172910146 0.0
0.0 0.0 0.0

-1.0197274792039113e6 3.0951187317058244e6 0.0
3.0951187317058244e6 167767.37847666687 0.0
0.0 0.0 0.0

387487.29303535866 5.796734399257372e6 0.0
5.796734399257372e6 -1.8856916574016525e6 0.0
0.0 0.0 0.0

-2.3384267340554595e6 3.6245634376418935e6 0.0
3.6245634376418935e6 539179.497810647 0.0
0.0 0.0 0.0

-2.17106186614772e6 3.41094877784655e6 0.0
3.41094877784655e6 746587.7548552296 0.0
0.0 0.0 0.0

-94228.40676004393 1.5235666382653913e6 0.0
1.5235666382653913e6 -1.159271214743774e6 0.0
0.0 0.0 0.0

56384.372456730984 5.943316077647419e6 0.0
5.943316077647419e6 -1.5656642844438823e6 0.0
0.0 0.0 0.0

-1.055749525861222e7 4.058670945482225e6 0.0
4.058670945482225e6 4.6051435081460215e6 0.0
0.0 0.0 0.0

202716.08468272106 4.417507832582984e6 0.0
4.417507832582984e6 -1.8089284478739484e6 0.0
0.0 0.0 0.0

234350.1275015555 5.7020251069565015e6 0.0
5.7020251069565015e6 -1.7702199647520215e6 0.0
0.0 0.0 0.0

-566175.7181564246 6.490706767643863e6 0.0
6.490706767643863e6 -1.5897042490557248e6 0.0
0.0 0.0 0.0

-1.2724081521232238e6 5.355767922070206e6 0.0
5.355767922070206e6 -29246.197353144817 0.0
0.0 0.0 0.0

-548809.2456232831 5.711866265705455e6 0.0
5.711866265705455e6 -1.677597682026092e6 0.0
0.0 0.0 0.0

-481657.9515120987 3.038274151514036e6 0.0
3.038274151514036e6 -1.5543276807379487e6 0.0
0.0 0.0 0.0

-1.3704003892856787e6 2.1927403018016503e6 0.0
2.1927403018016503e6 -157503.67644795915 0.0
0.0 0.0 0.0

-118779.34505195927 6.098879220225125e6 0.0
6.098879220225125e6 -539542.080836797 0.0
0.0 0.0 0.0

-1.6406847773301213e6 3.0875734575105524e6 0.0
3.0875734575105524e6 3.8209839869792396e6 0.0
0.0 0.0 0.0

-1.734435837590218e6 3.0920307125310292e6 0.0
3.0920307125310292e6 4.0120258362633176e6 0.0
0.0 0.0 0.0

-3.594939590193862e6 3.7886704389212215e6 0.0
3.7886704389212215e6 1.1500319295934355e6 0.0
0.0 0.0 0.0

-1.3415265822720055e6 2.589260857912184e6 0.0
2.589260857912184e6 -380708.79739040177 0.0
0.0 0.0 0.0

-3.4909295334137073e6 5.851076680218275e6 0.0
5.851076680218275e6 219588.57443722268 0.0
0.0 0.0 0.0

-1.0221274005166958e6 3.1532860347214793e6 0.0
3.1532860347214793e6 -454194.7191575848 0.0
0.0 0.0 0.0

-2.2845016040545683e6 3.3018198192440667e6 0.0
3.3018198192440667e6 811193.5483518429 0.0
0.0 0.0 0.0

-963929.9188539529 2.280771821575789e6 0.0
2.280771821575789e6 -331874.9908049132 0.0
0.0 0.0 0.0

-631318.3174513598 4.278169306644241e6 0.0
4.278169306644241e6 -1.5667117327483324e6 0.0
0.0 0.0 0.0

717695.2127767693 6.534578732649724e6 0.0
6.534578732649724e6 -1.7445333201519984e6 0.0
0.0 0.0 0.0

-578438.9468211315 4.463366829871936e6 0.0
4.463366829871936e6 -2.1045216473907987e6 0.0
0.0 0.0 0.0

-602438.262840381 5.60753883700375e6 0.0
5.60753883700375e6 -326575.8354917537 0.0
0.0 0.0 0.0

67256.88995248766 6.329286794253473e6 0.0
6.329286794253473e6 -1.2646055711903702e6 0.0
0.0 0.0 0.0

-2.2456537241834323e6 3.7957209214208312e6 0.0
3.7957209214208312e6 429366.129550194 0.0
0.0 0.0 0.0

-794136.866908417 5.459078833310698e6 0.0
5.459078833310698e6 -748760.505368006 0.0
0.0 0.0 0.0

-1.6163004462272536e6 2.2762803086470445e6 0.0
2.2762803086470445e6 74794.91954073799 0.0
0.0 0.0 0.0

-1.7559646015275603e6 3.060623629788877e6 0.0
3.060623629788877e6 328360.07331858366 0.0
0.0 0.0 0.0

-1.3013570784672834e6 3.244722571003885e6 0.0
3.244722571003885e6 645133.6117116951 0.0
0.0 0.0 0.0

85165.22560733615 8.149149226308189e6 0.0
8.149149226308189e6 -2.0154729909059026e6 0.0
0.0 0.0 0.0

-4.360691198316406e6 3.7871606958468244e6 0.0
3.7871606958468244e6 1.4769611885350219e6 0.0
0.0 0.0 0.0

-2.892711593309896e6 4.1643721284126635e6 0.0
4.1643721284126635e6 651928.336020232 0.0
0.0 0.0 0.0

-1.543760933960176e6 3.344438814472749e6 0.0
3.344438814472749e6 1.0723272342775823e6 0.0
0.0 0.0 0.0

-543112.1156966389 4.138156650930354e6 0.0
4.138156650930354e6 -1.8103737178337064e6 0.0
0.0 0.0 0.0

-754922.6188705126 6.646130729572576e6 0.0
6.646130729572576e6 -1.1393876471168746e6 0.0
0.0 0.0 0.0

217762.07737633644 6.562080038060134e6 0.0
6.562080038060134e6 -813786.8173119741 0.0
0.0 0.0 0.0

-1.8492997146575842e6 4.974126995233361e6 0.0
4.974126995233361e6 346095.4787631327 0.0
0.0 0.0 0.0

-568375.3312292785 2.4920447820309205e6 0.0
2.4920447820309205e6 -84197.74551493426 0.0
0.0 0.0 0.0

-1.264499655841157e6 6.873506727923599e6 0.0
6.873506727923599e6 173605.67043951846 0.0
0.0 0.0 0.0

-2.2714584033728354e6 -1.0884819246047738e6 0.0
-1.0884819246047738e6 4.1902032129875775e6 0.0
0.0 0.0 0.0

-1.6971323998125438e6 3.3981311644815123e6 0.0
3.3981311644815123e6 -93727.07246639958 0.0
0.0 0.0 0.0

-55705.577005395855 302359.91323025484 0.0
302359.91323025484 -340744.7103332012 0.0
0.0 0.0 0.0

455133.2217746624 2.226464991322827e6 0.0
2.226464991322827e6 -659265.7569140759 0.0
0.0 0.0 0.0

1.833267600526136e6 1.620166001742854e6 0.0
1.620166001742854e6 -2.938540791190397e6 0.0
0.0 0.0 0.0

-2.4960009199913917e6 1.374519290865383e6 0.0
1.374519290865383e6 3.4300078260537675e6 0.0
0.0 0.0 0.0

-322127.283169897 5.535248686249358e6 0.0
5.535248686249358e6 -2.053955533613089e6 0.0
0.0 0.0 0.0

-2.2652319929172564e6 3.550639022448305e6 0.0
3.550639022448305e6 802259.2225286602 0.0
0.0 0.0 0.0

-2.410003708090219e6 3.4720278306246973e6 0.0
3.4720278306246973e6 910943.3589768002 0.0
0.0 0.0 0.0

-1.7152168649232816e6 2.6390385845010057e6 0.0
2.6390385845010057e6 417215.01383529813 0.0
0.0 0.0 0.0

-2.339121267653014e6 3.825606084743476e6 0.0
3.825606084743476e6 887266.6073340974 0.0
0.0 0.0 0.0

59754.9156925077 1.5617443153535589e6 0.0
1.5617443153535589e6 -741077.5436421502 0.0
0.0 0.0 0.0

-2.0735458469072056e6 2.987529144345913e6 0.0
2.987529144345913e6 473026.1768383428 0.0
0.0 0.0 0.0

-671441.6001337263 8.126344751291543e6 0.0
8.126344751291543e6 -286506.9347581673 0.0
0.0 0.0 0.0

-160817.21124405263 2.5061753970696405e6 0.0
2.5061753970696405e6 -1.405981045215686e6 0.0
0.0 0.0 0.0

-1.0538809499850248e6 2.754951647446053e6 0.0
2.754951647446053e6 -445158.1656106945 0.0
0.0 0.0 0.0

-2.18381889461821e6 6.307733749952625e6 0.0
6.307733749952625e6 263603.69629067776 0.0
0.0 0.0 0.0

-1.769658932338547e6 2.6229429671314964e6 0.0
2.6229429671314964e6 449643.1881103042 0.0
0.0 0.0 0.0

52965.440621786925 7.867346871478082e6 0.0
7.867346871478082e6 -1.2653433652554294e6 0.0
0.0 0.0 0.0

90851.21911212674 660811.3986534448 0.0
660811.3986534448 -1.7134827990420738e6 0.0
0.0 0.0 0.0

446137.4511684015 5.800692826361301e6 0.0
5.800692826361301e6 -1.940957796132309e6 0.0
0.0 0.0 0.0

730106.9378674944 1.3253801369056646e6 0.0
1.3253801369056646e6 -679425.6335821874 0.0
0.0 0.0 0.0

-1.1223402098502268e6 1.904309415246551e6 0.0
1.904309415246551e6 -284859.6269076703 0.0
0.0 0.0 0.0

-1.733440703810067e6 2.633879593363772e6 0.0
2.633879593363772e6 61906.50232442212 0.0
0.0 0.0 0.0

454850.32133124827 2.352824101298423e6 0.0
2.352824101298423e6 -565038.8992491362 0.0
0.0 0.0 0.0

1.304815459795068e6 1.0479167613679216e6 0.0
1.0479167613679216e6 -2.0108879512549085e6 0.0
0.0 0.0 0.0

-783917.7437835368 6.114043772390758e6 0.0
6.114043772390758e6 -1.0001235762264824e6 0.0
0.0 0.0 0.0

-816542.8215700167 1.690670182653368e6 0.0
1.690670182653368e6 -474022.3777527057 0.0
0.0 0.0 0.0

-8.823286387038019e6 4.241441132940319e6 0.0
4.241441132940319e6 3.961224875741292e6 0.0
0.0 0.0 0.0

254643.55068551615 3.5455852439368097e6 0.0
3.5455852439368097e6 448894.286148071 0.0
0.0 0.0 0.0

-593024.1827340437 1.4420785940377312e6 0.0
1.4420785940377312e6 -609117.8027169511 0.0
0.0 0.0 0.0

-1.3822779744922065e6 3.3881357642582445e6 0.0
3.3881357642582445e6 -92349.56906180625 0.0
0.0 0.0 0.0

1.1978923997841463e6 1.3600051629814503e6 0.0
1.3600051629814503e6 -2.100184336918102e6 0.0
0.0 0.0 0.0

-696725.0432201165 3.1110541250616233e6 0.0
3.1110541250616233e6 535066.5456604576 0.0
0.0 0.0 0.0

-401740.8714001487 1.136112411324245e6 0.0
1.136112411324245e6 -759478.5710822385 0.0
0.0 0.0 0.0

-4.490725786568407e6 3.399159241139472e6 0.0
3.399159241139472e6 1.1795341186860385e6 0.0
0.0 0.0 0.0

-1.1803324824737466e6 7.196538366844939e6 0.0
7.196538366844939e6 115563.30879341043 0.0
0.0 0.0 0.0

304386.01053411665 6.110272233485931e6 0.0
6.110272233485931e6 -983922.4900063027 0.0
0.0 0.0 0.0

-997740.6973751443 4.836476019378045e6 0.0
4.836476019378045e6 -566825.1751024195 0.0
0.0 0.0 0.0

196486.16740909556 5.878500531595331e6 0.0
5.878500531595331e6 -1.874735086509176e6 0.0
0.0 0.0 0.0

-1.8838652179706271e6 2.7279008446483705e6 0.0
2.7279008446483705e6 277535.79922347784 0.0
0.0 0.0 0.0

-1.3410051763408266e6 3.5864480181336463e6 0.0
3.5864480181336463e6 794199.637048467 0.0
0.0 0.0 0.0

-866030.9234104645 7.84966606719273e6 0.0
7.84966606719273e6 -52236.29640094453 0.0
0.0 0.0 0.0

-13988.243823085097 1.6264805362454418e6 0.0
1.6264805362454418e6 -1.151890540314377e6 0.0
0.0 0.0 0.0

991904.1620476575 2.6186272789452374e6 0.0
2.6186272789452374e6 -1.939988967740743e6 0.0
0.0 0.0 0.0

-1.0810766819915045e6 2.126863290320137e6 0.0
2.126863290320137e6 -99772.08687575193 0.0
0.0 0.0 0.0

-2.88184441703334e6 4.194949402744971e6 0.0
4.194949402744971e6 635086.0739962396 0.0
0.0 0.0 0.0

-1.8226200625177836e6 2.8441538744650297e6 0.0
2.8441538744650297e6 316572.82773916866 0.0
0.0 0.0 0.0

-2.513830747685264e6 7.8175807005735375e6 0.0
7.8175807005735375e6 1.2489956302499669e6 0.0
0.0 0.0 0.0

-1.6467373347789177e6 2.679778259428513e6 0.0
2.679778259428513e6 340998.9246539521 0.0
0.0 0.0 0.0

-181385.23567246163 6.17327305045325e6 0.0
6.17327305045325e6 -436029.56303741713 0.0
0.0 0.0 0.0

-1.763551137649255e6 6.120122263242265e6 0.0
6.120122263242265e6 -56793.62624313944 0.0
0.0 0.0 0.0

-2.730280062870973e6 3.640470832823317e6 0.0
3.640470832823317e6 1.126450611870707e6 0.0
0.0 0.0 0.0

-977652.2795344429 5.443284307536084e6 0.0
5.443284307536084e6 -1.1458659766095378e6 0.0
0.0 0.0 0.0

-642943.9579835618 3.463730516181845e6 0.0
3.463730516181845e6 -1.9356733511750137e6 0.0
0.0 0.0 0.0

-1.433525197277799e6 2.400343612560105e6 0.0
2.400343612560105e6 3.3831190767927007e6 0.0
0.0 0.0 0.0

-671587.1271991935 3.178751331381473e6 0.0
3.178751331381473e6 -1.0927496005372722e6 0.0
0.0 0.0 0.0

-668675.1024440533 2.752077729297854e6 0.0
2.752077729297854e6 369477.49687294895 0.0
0.0 0.0 0.0

-344713.61467055813 5.7870349692309555e6 0.0
5.7870349692309555e6 -1.9064899649011157e6 0.0
0.0 0.0 0.0

-1.443942750123856e6 2.1366022347771763e6 0.0
2.1366022347771763e6 -92371.2724624133 0.0
0.0 0.0 0.0

548323.2084522814 3.6049528369160728e6 0.0
3.6049528369160728e6 -1.56976551181973e6 0.0
0.0 0.0 0.0

-2.0634528208559174e6 2.9910213691802947e6 0.0
2.9910213691802947e6 625582.2282480999 0.0
0.0 0.0 0.0

-2.6491487428315086e6 3.373181052812957e6 0.0
3.373181052812957e6 977692.9987405498 0.0
0.0 0.0 0.0

-3.025957202082363e6 5.565814890475554e6 0.0
5.565814890475554e6 827854.7984294316 0.0
0.0 0.0 0.0

-1.979990988044339e6 2.8676392592839426e6 0.0
2.8676392592839426e6 376288.95740479406 0.0
0.0 0.0 0.0

451898.3493590961 1.9048845353806594e6 0.0
1.9048845353806594e6 -1.289726173922767e6 0.0
0.0 0.0 0.0

-1.0271939209320247e6 7.514066502336355e6 0.0
7.514066502336355e6 29371.576018981694 0.0
0.0 0.0 0.0

-350972.43401682575 2.5791040596888997e6 0.0
2.5791040596888997e6 49306.08499129611 0.0
0.0 0.0 0.0

98257.37803181529 4.436527433829148e6 0.0
4.436527433829148e6 -1.9034481844710154e6 0.0
0.0 0.0 0.0

-1.3310536135596647e6 4.114745168030119e6 0.0
4.114745168030119e6 708378.1976368474 0.0
0.0 0.0 0.0

-2.7300387199096456e6 3.930058315366721e6 0.0
3.930058315366721e6 874742.1702063853 0.0
0.0 0.0 0.0

-961624.9652187895 5.344824231489534e6 0.0
5.344824231489534e6 346423.7377648002 0.0
0.0 0.0 0.0

-1.4323473918499493e6 3.136093290300702e6 0.0
3.136093290300702e6 3.391670552143957e6 0.0
0.0 0.0 0.0

175998.68094814906 3.9693029127622657e6 0.0
3.9693029127622657e6 586662.2999776695 0.0
0.0 0.0 0.0

-933324.1618306385 2.55897546054313e6 0.0
2.55897546054313e6 -717855.1764561862 0.0
0.0 0.0 0.0

-231997.10505015982 5.8662951389396e6 0.0
5.8662951389396e6 -504593.331907066 0.0
0.0 0.0 0.0

-7.946598896660542e6 4.1559604040249814e6 0.0
4.1559604040249814e6 3.5334827882579286e6 0.0
0.0 0.0 0.0

-2.2126579731185823e6 5.360470807797522e6 0.0
5.360470807797522e6 1.215431188757999e6 0.0
0.0 0.0 0.0

3.6684874588450906e6 5.960594736962969e6 0.0
5.960594736962969e6 1.3178858932809762e6 0.0
0.0 0.0 0.0

-1.5679013579243897e6 2.2806519200598393e6 0.0
2.2806519200598393e6 -11804.93100648711 0.0
0.0 0.0 0.0

-2.1308403393595433e6 2.9623130161103103e6 0.0
2.9623130161103103e6 647257.2803170189 0.0
0.0 0.0 0.0

-558414.4969449071 6.842031080495675e6 0.0
6.842031080495675e6 -1.2803154289227636e6 0.0
0.0 0.0 0.0

-3.0955118064995566e6 5.858442183224943e6 0.0
5.858442183224943e6 843507.3871612223 0.0
0.0 0.0 0.0

358907.13957246474 5.677603423188192e6 0.0
5.677603423188192e6 -1.9380138465682368e6 0.0
0.0 0.0 0.0

-504068.4968727199 956078.9134477319 0.0
956078.9134477319 -1.286553515722096e6 0.0
0.0 0.0 0.0

-263598.7793553829 7.174980262239652e6 0.0
7.174980262239652e6 -1.4555209517517616e6 0.0
0.0 0.0 0.0

-1.8496777630115054e6 4.598823445695133e6 0.0
4.598823445695133e6 756076.9642070432 0.0
0.0 0.0 0.0

-2.183125293717107e6 3.1020362719258866e6 0.0
3.1020362719258866e6 562593.654667365 0.0
0.0 0.0 0.0

-135413.14785054722 4.1891229455538876e6 0.0
4.1891229455538876e6 -1.1977683567465162e6 0.0
0.0 0.0 0.0

-1.3443247577464795e6 2.2587347391071366e6 0.0
2.2587347391071366e6 82250.3276309736 0.0
0.0 0.0 0.0

-1.867223248591906e6 2.955044490522409e6 0.0
2.955044490522409e6 511554.5274212032 0.0
0.0 0.0 0.0

-801785.3953118803 6.128717428990853e6 0.0
6.128717428990853e6 -1.059699761392706e6 0.0
0.0 0.0 0.0

-6.649463710944209e6 4.477608887078871e6 0.0
4.477608887078871e6 2.9987696698720404e6 0.0
0.0 0.0 0.0

-1.9789405102215814e6 3.0695406607280686e6 0.0
3.0695406607280686e6 600919.2118474839 0.0
0.0 0.0 0.0

-129021.63445465014 2.3670262159626414e6 0.0
2.3670262159626414e6 -117489.3953196673 0.0
0.0 0.0 0.0

1.6358082964926166e6 4.5459344831904275e6 0.0
4.5459344831904275e6 1.6998479977080831e6 0.0
0.0 0.0 0.0

-168561.69641052798 3.445840813901784e6 0.0
3.445840813901784e6 -2.0573395192532018e6 0.0
0.0 0.0 0.0

-2.7791153111158996e6 3.4247868215956427e6 0.0
3.4247868215956427e6 1.1021194308280973e6 0.0
0.0 0.0 0.0

-248662.197593536 2.955597087610889e6 0.0
2.955597087610889e6 -285609.8103345867 0.0
0.0 0.0 0.0

-1.335605557764187e6 2.18972920809618e6 0.0
2.18972920809618e6 -232795.1045484121 0.0
0.0 0.0 0.0

-743511.3752640658 2.7673190616270355e6 0.0
2.7673190616270355e6 -808342.9675908233 0.0
0.0 0.0 0.0

-5.959272782666549e6 4.640779890769318e6 0.0
4.640779890769318e6 2.388308008826503e6 0.0
0.0 0.0 0.0

-279794.8069546183 5.533329722076321e6 0.0
5.533329722076321e6 -2.0596287795284484e6 0.0
0.0 0.0 0.0

-382136.5373140533 1.7493571874299487e6 0.0
1.7493571874299487e6 -178385.294192567 0.0
0.0 0.0 0.0

-2.7676271413003057e6 4.277026295075835e6 0.0
4.277026295075835e6 1.6093111246267278e6 0.0
0.0 0.0 0.0

265026.8543811274 2.7112887164815376e6 0.0
2.7112887164815376e6 -535571.6858499129 0.0
0.0 0.0 0.0

-1.590294824749535e6 3.2479660707819737e6 0.0
3.2479660707819737e6 -193646.27455204318 0.0
0.0 0.0 0.0

-2.259595347746047e6 3.0473755556511264e6 0.0
3.0473755556511264e6 721208.4113987723 0.0
0.0 0.0 0.0

-668582.9618183766 6.032353024561548e6 0.0
6.032353024561548e6 -1.344770492774658e6 0.0
0.0 0.0 0.0

-5.626138949264131e6 4.728630253861504e6 0.0
4.728630253861504e6 2.32448271952847e6 0.0
0.0 0.0 0.0

-1.9321414452307567e6 4.628251901968328e6 0.0
4.628251901968328e6 701124.9510642191 0.0
0.0 0.0 0.0

-2.0917464951872807e6 3.1823851995066176e6 0.0
3.1823851995066176e6 686838.6275956682 0.0
0.0 0.0 0.0

286933.2027168429 5.808836863461049e6 0.0
5.808836863461049e6 -1.8775978306089565e6 0.0
0.0 0.0 0.0

-1.0455719246948042e6 2.8829613529412216e6 0.0
2.8829613529412216e6 85257.71586019744 0.0
0.0 0.0 0.0

-5.316923801282099e6 4.606166090001342e6 0.0
4.606166090001342e6 2.1497382394965915e6 0.0
0.0 0.0 0.0

-47912.19560859399 3.6222217447813037e6 0.0
3.6222217447813037e6 -2.105042721952642e6 0.0
0.0 0.0 0.0

-4.75579948928611e6 4.8139637912568515e6 0.0
4.8139637912568515e6 1.8673119975331035e6 0.0
0.0 0.0 0.0

-4.492519662449311e6 4.782601791395245e6 0.0
4.782601791395245e6 1.7840946107078975e6 0.0
0.0 0.0 0.0

-3.1626073949275194e6 4.0190814385197107e6 0.0
4.0190814385197107e6 1.2102196510095866e6 0.0
0.0 0.0 0.0

-3.2242859993887455e6 4.1029766386427395e6 0.0
4.1029766386427395e6 1.2549952360713352e6 0.0
0.0 0.0 0.0

-3.3181699684733115e6 4.199478285392897e6 0.0
4.199478285392897e6 1.268361571495694e6 0.0
0.0 0.0 0.0

-3.435128109856141e6 4.288918991924788e6 0.0
4.288918991924788e6 1.345564649304807e6 0.0
0.0 0.0 0.0

-3.4780647067624135e6 4.363316886156787e6 0.0
4.363316886156787e6 1.3415008858281022e6 0.0
0.0 0.0 0.0

-3.550902145508345e6 4.481047731929743e6 0.0
4.481047731929743e6 1.2852604503776957e6 0.0
0.0 0.0 0.0

-1.3659193373921704e6 3.300217206807946e6 0.0
3.300217206807946e6 -178775.29819070196 0.0
0.0 0.0 0.0

-3.741762744274981e6 4.463241058565676e6 0.0
4.463241058565676e6 1.5926649705202405e6 0.0
0.0 0.0 0.0

-3.879522279558988e6 4.537697926730434e6 0.0
4.537697926730434e6 1.598715752183346e6 0.0
0.0 0.0 0.0

-1.1786573488896578e6 3.3161579812536826e6 0.0
3.3161579812536826e6 524217.0170421321 0.0
0.0 0.0 0.0

-4.305653001580384e6 4.690166570444539e6 0.0
4.690166570444539e6 1.7428229870856558e6 0.0
0.0 0.0 0.0

-4.0269510587403113e6 4.629773937390654e6 0.0
4.629773937390654e6 1.5608308560335143e6 0.0
0.0 0.0 0.0

-4.1029769625838515e6 4.60798277082376e6 0.0
4.60798277082376e6 1.6061200082698616e6 0.0
0.0 0.0 0.0

-4.048366589264334e6 4.629406452554157e6 0.0
4.629406452554157e6 1.560245419144413e6 0.0
0.0 0.0 0.0

-1.5353126178457562e6 2.528211454665598e6 0.0
2.528211454665598e6 247918.1364049425 0.0
0.0 0.0 0.0

-4.301549003863193e6 4.720054925040718e6 0.0
4.720054925040718e6 1.6868300528829703e6 0.0
0.0 0.0 0.0

-4.0634449683049344e6 4.589993259703307e6 0.0
4.589993259703307e6 1.645731111041135e6 0.0
0.0 0.0 0.0

-4.0359270533380797e6 4.542102691620372e6 0.0
4.542102691620372e6 1.625652353344507e6 0.0
0.0 0.0 0.0

-3.5831674623858295e6 4.574769334670333e6 0.0
4.574769334670333e6 1.4174490567855681e6 0.0
0.0 0.0 0.0

-3.552827894927351e6 4.408567842510475e6 0.0
4.408567842510475e6 1.4118277543138878e6 0.0
0.0 0.0 0.0

-3.4372188127586767e6 4.3250386718353005e6 0.0
4.3250386718353005e6 1.4062761003400406e6 0.0
0.0 0.0 0.0

-3.363436720860927e6 4.263126041757269e6 0.0
4.263126041757269e6 1.3855004914311583e6 0.0
0.0 0.0 0.0

-3.2631815049787983e6 4.156100826763289e6 0.0
4.156100826763289e6 1.3437998797888798e6 0.0
0.0 0.0 0.0

-3.145485347091386e6 4.073470470886628e6 0.0
4.073470470886628e6 1.3012902922047896e6 0.0
0.0 0.0 0.0

-2.5102824178548334e6 3.587567546370335e6 0.0
3.587567546370335e6 760919.2295400861 0.0
0.0 0.0 0.0

-1.2383317914731523e6 2.7024646211713906e6 0.0
2.7024646211713906e6 3.0269814244489367e6 0.0
0.0 0.0 0.0

-4.4910181438495545e6 4.772240072144782e6 0.0
4.772240072144782e6 1.802486649549538e6 0.0
0.0 0.0 0.0

-222876.39495832482 6.741217233586766e6 0.0
6.741217233586766e6 -1.2671955941404267e6 0.0
0.0 0.0 0.0

-2.482532592059035e6 3.2805860126333036e6 0.0
3.2805860126333036e6 967964.0293569646 0.0
0.0 0.0 0.0

-4.714796645913245e6 4.631884180168483e6 0.0
4.631884180168483e6 2.190218656547406e6 0.0
0.0 0.0 0.0

-198403.7889581846 2.5769033545405376e6 0.0
2.5769033545405376e6 -110778.63617454279 0.0
0.0 0.0 0.0

-5.001612284124538e6 4.607367489461759e6 0.0
4.607367489461759e6 2.1145060721505806e6 0.0
0.0 0.0 0.0

-547828.5886032095 2.6714149954490927e6 0.0
2.6714149954490927e6 266488.92389031604 0.0
0.0 0.0 0.0

-5.520906556478725e6 4.668496356553521e6 0.0
4.668496356553521e6 2.4242731075991616e6 0.0
0.0 0.0 0.0

-873615.5473639606 6.350039013761207e6 0.0
6.350039013761207e6 -964202.9825625911 0.0
0.0 0.0 0.0

-546187.4080415284 7.424374171742383e6 0.0
7.424374171742383e6 -1.8577276823714732e6 0.0
0.0 0.0 0.0

-596940.715327613 3.6662056064672032e6 0.0
3.6662056064672032e6 -1.89990987691213e6 0.0
0.0 0.0 0.0

-2.13425291305411e6 3.098436691304034e6 0.0
3.098436691304034e6 727780.2999075861 0.0
0.0 0.0 0.0

-1.2776517959269003e6 2.7938228976334976e6 0.0
2.7938228976334976e6 -496701.14790820295 0.0
0.0 0.0 0.0

-2.1213817131155008e6 3.632929155727509e6 0.0
3.632929155727509e6 278632.3928574538 0.0
0.0 0.0 0.0

-855704.0010601417 6.254070242704565e6 0.0
6.254070242704565e6 -987818.7695510595 0.0
0.0 0.0 0.0

648932.4682760112 5.555774952475924e6 0.0
5.555774952475924e6 -2.2886037430682606e6 0.0
0.0 0.0 0.0

-1.6136030255365535e6 3.1439984611096205e6 0.0
3.1439984611096205e6 85859.79745754844 0.0
0.0 0.0 0.0

-5.828229617894071e6 4.378839760901452e6 0.0
4.378839760901452e6 2.844094432828794e6 0.0
0.0 0.0 0.0

93992.93079058256 5.751358103567218e6 0.0
5.751358103567218e6 -1.8726764390427996e6 0.0
0.0 0.0 0.0

-696642.3310142944 2.8282162039604424e6 0.0
2.8282162039604424e6 341812.6273213312 0.0
0.0 0.0 0.0

-1.756336990354006e6 2.825593693273532e6 0.0
2.825593693273532e6 428402.9636398448 0.0
0.0 0.0 0.0

-3.6696873272366268e6 4.961985046735894e6 0.0
4.961985046735894e6 1.4252486759326889e6 0.0
0.0 0.0 0.0

-47009.90586114355 6.455252570261409e6 0.0
6.455252570261409e6 -1.401876313427835e6 0.0
0.0 0.0 0.0

-4.068562811825047e6 3.270874067587735e6 0.0
3.270874067587735e6 1.3584273282665631e6 0.0
0.0 0.0 0.0

-1.4363662233458124e6 3.406832345734789e6 0.0
3.406832345734789e6 1700.0970879688393 0.0
0.0 0.0 0.0

-2.63624541477614e6 4.949691365666041e6 0.0
4.949691365666041e6 372014.3253452148 0.0
0.0 0.0 0.0

-189842.73242947413 5.930418157383997e6 0.0
5.930418157383997e6 -549788.3937390853 0.0
0.0 0.0 0.0

-6.367750122771828e6 4.1604019059289075e6 0.0
4.1604019059289075e6 3.540390254180818e6 0.0
0.0 0.0 0.0

-353854.87439870305 5.551285658066802e6 0.0
5.551285658066802e6 -2.0790824828768165e6 0.0
0.0 0.0 0.0

-1.5306962611770884e6 3.3523468728175643e6 0.0
3.3523468728175643e6 146460.43809984677 0.0
0.0 0.0 0.0

-536597.106544004 3.8365907167068846e6 0.0
3.8365907167068846e6 -1.78865705700668e6 0.0
0.0 0.0 0.0

74965.64020384161 8.279809718189292e6 0.0
8.279809718189292e6 -1.1703461726562418e6 0.0
0.0 0.0 0.0

-608992.6431439512 5.380390809170886e6 0.0
5.380390809170886e6 -1.1196799259034013e6 0.0
0.0 0.0 0.0

-293729.24027997855 7.033857377490324e6 0.0
7.033857377490324e6 -1.1977631045029187e6 0.0
0.0 0.0 0.0

-109216.50102738665 6.451538310272559e6 0.0
6.451538310272559e6 36099.95617920226 0.0
0.0 0.0 0.0

-2.265434419089961e6 3.1108098504807586e6 0.0
3.1108098504807586e6 816680.5542744173 0.0
0.0 0.0 0.0

-2.297556728066369e6 3.2157145741754104e6 0.0
3.2157145741754104e6 645559.0299829334 0.0
0.0 0.0 0.0

247455.96164544555 5.771520706097031e6 0.0
5.771520706097031e6 -1.685390007711339e6 0.0
0.0 0.0 0.0

-265756.20073770045 3.889865792520285e6 0.0
3.889865792520285e6 2.0027750692119908e6 0.0
0.0 0.0 0.0

192308.26040228072 5.695269477583616e6 0.0
5.695269477583616e6 -1.5157450829829134e6 0.0
0.0 0.0 0.0

-1.2046631239483582e6 2.692235636430759e6 0.0
2.692235636430759e6 -221807.94800977773 0.0
0.0 0.0 0.0

-1.5464360407275858e6 5.1945747867520135e6 0.0
5.1945747867520135e6 77021.83897862438 0.0
0.0 0.0 0.0

-810281.2875421339 2.6721837587215845e6 0.0
2.6721837587215845e6 -948906.4116175307 0.0
0.0 0.0 0.0

-1.9564960025188844e6 4.621457909905649e6 0.0
4.621457909905649e6 645130.9509012272 0.0
0.0 0.0 0.0

-341820.41144121747 6.077131405040793e6 0.0
6.077131405040793e6 -301030.13393192843 0.0
0.0 0.0 0.0

-961971.0952906082 3.058535895541978e6 0.0
3.058535895541978e6 -224216.27254693257 0.0
0.0 0.0 0.0

-6.706549677124618e6 4.0413990964172226e6 0.0
4.0413990964172226e6 3.6407505845506634e6 0.0
0.0 0.0 0.0

-3.420358989481314e6 4.36863728557229e6 0.0
4.36863728557229e6 4.698852961761869e6 0.0
0.0 0.0 0.0

-1.9220886762810838e6 2.679087846180873e6 0.0
2.679087846180873e6 408763.0228692861 0.0
0.0 0.0 0.0

224657.56289102254 7.223119175276596e6 0.0
7.223119175276596e6 -1.178895990291463e6 0.0
0.0 0.0 0.0

287712.523462684 6.2127608435903685e6 0.0
6.2127608435903685e6 -1.7029221529701983e6 0.0
0.0 0.0 0.0

-477981.7349543659 4.845722279847693e6 0.0
4.845722279847693e6 -2.0571695767747476e6 0.0
0.0 0.0 0.0

-1.57028553615633e6 3.5889756807837435e6 0.0
3.5889756807837435e6 410568.073617465 0.0
0.0 0.0 0.0

-4.793871891623452e6 4.3825371086061625e6 0.0
4.3825371086061625e6 3.246348014401137e6 0.0
0.0 0.0 0.0

-2.020681461269833e6 2.9818150039256155e6 0.0
2.9818150039256155e6 638344.7806319142 0.0
0.0 0.0 0.0

-795477.1751742621 4.355553983215645e6 0.0
4.355553983215645e6 -1.0436624874316148e6 0.0
0.0 0.0 0.0

-3.456852829675672e6 3.192563610851117e6 0.0
3.192563610851117e6 849505.5126633379 0.0
0.0 0.0 0.0

-483626.39425990894 6.5502523348267265e6 0.0
6.5502523348267265e6 -1.4938737246401254e6 0.0
0.0 0.0 0.0

-2.108767182178698e6 3.0425930954860933e6 0.0
3.0425930954860933e6 705066.9677685587 0.0
0.0 0.0 0.0

-945863.1360355129 3.0090310540663674e6 0.0
3.0090310540663674e6 73257.90467058925 0.0
0.0 0.0 0.0

-1.643175996425278e6 3.6893359483832237e6 0.0
3.6893359483832237e6 356827.81179741514 0.0
0.0 0.0 0.0

-1.7162376393730775e7 3.456523679563394e6 0.0
3.456523679563394e6 4.851598471878928e6 0.0
0.0 0.0 0.0

-1.3024430129495459e6 3.220763749144082e6 0.0
3.220763749144082e6 -118840.93327256682 0.0
0.0 0.0 0.0

-268663.2931959565 2.2036930765620545e6 0.0
2.2036930765620545e6 -558093.2285681712 0.0
0.0 0.0 0.0

-2.3701463828893e6 3.298863403337677e6 0.0
3.298863403337677e6 905401.6357794175 0.0
0.0 0.0 0.0

-2.279592724377064e6 3.413892875761395e6 0.0
3.413892875761395e6 853797.1610422733 0.0
0.0 0.0 0.0

-1.283044111022926e6 3.610374347087478e6 0.0
3.610374347087478e6 -164909.98162520654 0.0
0.0 0.0 0.0

-2.4199708355019097e6 3.2208278959045513e6 0.0
3.2208278959045513e6 785593.5077072093 0.0
0.0 0.0 0.0

211527.91363906342 1.8971737142099869e6 0.0
1.8971737142099869e6 -518214.75757023366 0.0
0.0 0.0 0.0

-837854.5999152417 4.745313741462271e6 0.0
4.745313741462271e6 -1.0840805925123054e6 0.0
0.0 0.0 0.0

-2.4134445461461833e6 3.4792656473902785e6 0.0
3.4792656473902785e6 897464.0709302699 0.0
0.0 0.0 0.0

-358215.2349437818 3.99306072591049e6 0.0
3.99306072591049e6 -1.2252182082429193e6 0.0
0.0 0.0 0.0

-853861.1487602056 5.341637366627968e6 0.0
5.341637366627968e6 -1.0976454271870903e6 0.0
0.0 0.0 0.0

-2.626654616509515e6 5.164640258575617e6 0.0
5.164640258575617e6 273746.34527097025 0.0
0.0 0.0 0.0

-1.3274799885229063e6 3.3150508227152554e6 0.0
3.3150508227152554e6 -33637.05664154666 0.0
0.0 0.0 0.0

-822756.0531253514 6.193533678062244e6 0.0
6.193533678062244e6 -1.075319727635608e6 0.0
0.0 0.0 0.0

-2.310661877517591e6 3.8588472559490227e6 0.0
3.8588472559490227e6 821840.5665167692 0.0
0.0 0.0 0.0

621278.7139310158 3.5934478668590025e6 0.0
3.5934478668590025e6 -1.8158863325537005e6 0.0
0.0 0.0 0.0

613634.2565021415 381858.4065649828 0.0
381858.4065649828 -1.215703221331431e6 0.0
0.0 0.0 0.0

454531.7819674049 633998.9490175063 0.0
633998.9490175063 -1.1098248383296125e6 0.0
0.0 0.0 0.0

558379.71752503 273647.4475889512 0.0
273647.4475889512 -982567.6480394504 0.0
0.0 0.0 0.0

1.3409036153667131e6 54597.32732646485 0.0
54597.32732646485 -2.1357775613468e6 0.0
0.0 0.0 0.0

495536.1459549808 325234.5515067024 0.0
325234.5515067024 -753079.5851521802 0.0
0.0 0.0 0.0

606133.5739293596 2.539034778841894e6 0.0
2.539034778841894e6 -1.546540476434966e6 0.0
0.0 0.0 0.0

989250.075651332 -42707.75311794194 0.0
-42707.75311794194 -1.123258888489877e6 0.0
0.0 0.0 0.0

674693.8372076629 87340.3076041554 0.0
87340.3076041554 -508448.92639169353 0.0
0.0 0.0 0.0

2.3710393671996556e6 401378.0611644561 0.0
401378.0611644561 -2.8670946776307765e6 0.0
0.0 0.0 0.0

528300.326144462 276982.952120165 0.0
276982.952120165 -693108.0258159416 0.0
0.0 0.0 0.0

1.4478505186871672e6 2.0000175171023505e6 0.0
2.0000175171023505e6 -2.507814296439241e6 0.0
0.0 0.0 0.0

2.23351231343777e6 976160.7282380239 0.0
976160.7282380239 -3.5316101867954014e6 0.0
0.0 0.0 0.0

835226.5592204812 71090.11216333286 0.0
71090.11216333286 -1.1430605770359663e6 0.0
0.0 0.0 0.0

530646.0322447357 5.468581263683328e6 0.0
5.468581263683328e6 -2.5213324022330176e6 0.0
0.0 0.0 0.0

593135.4741812579 5.318057330148711e6 0.0
5.318057330148711e6 -2.521627488261265e6 0.0
0.0 0.0 0.0

609450.3961103542 5.597744981763058e6 0.0
5.597744981763058e6 -2.5213703729980495e6 0.0
0.0 0.0 0.0

479097.84114354313 7.2609591579577755e6 0.0
7.2609591579577755e6 -2.2592334470317694e6 0.0
0.0 0.0 0.0

966682.2423257681 -60900.8428159185 0.0
-60900.8428159185 -1.0384488896282543e6 0.0
0.0 0.0 0.0

530028.7496156095 271024.66439273726 0.0
271024.66439273726 -738449.0986301875 0.0
0.0 0.0 0.0

610857.8181412544 5.3969896289908895e6 0.0
5.3969896289908895e6 -2.5392719498009137e6 0.0
0.0 0.0 0.0

590540.9640917527 5.096468932804119e6 0.0
5.096468932804119e6 -2.1525854660664783e6 0.0
0.0 0.0 0.0

-202459.01065264625 6.305571816762462e6 0.0
6.305571816762462e6 -2.157941536329145e6 0.0
0.0 0.0 0.0

457516.45746912586 4.5093301601795e6 0.0
4.5093301601795e6 -1.9281619274775048e6 0.0
0.0 0.0 0.0

-775119.4678595583 6.898548097586237e6 0.0
6.898548097586237e6 -1.1091365609520792e6 0.0
0.0 0.0 0.0

-372573.16483369446 2.7000291930157044e6 0.0
2.7000291930157044e6 -198796.72497321654 0.0
0.0 0.0 0.0

-760809.0385566289 2.568844111050707e6 0.0
2.568844111050707e6 136257.32350406598 0.0
0.0 0.0 0.0

-2.0119999870704513e6 4.629338446820583e6 0.0
4.629338446820583e6 628981.0695729443 0.0
0.0 0.0 0.0

-733999.4825791758 4.647264588227531e6 0.0
4.647264588227531e6 -1.5138113610501958e6 0.0
0.0 0.0 0.0

-1.909988477890274e6 3.3716262547953604e6 0.0
3.3716262547953604e6 585074.2500069962 0.0
0.0 0.0 0.0

-7.81937831887281e6 3.946513127758597e6 0.0
3.946513127758597e6 4.407989708632151e6 0.0
0.0 0.0 0.0

-1.980012892832462e6 2.7885017640400855e6 0.0
2.7885017640400855e6 490407.5047435941 0.0
0.0 0.0 0.0

-1.0263880136494923e6 3.97543277059101e6 0.0
3.97543277059101e6 1.129892940556147e6 0.0
0.0 0.0 0.0

-47637.21393918438 4.3355018371078065e6 0.0
4.3355018371078065e6 -868587.0873192823 0.0
0.0 0.0 0.0

-1.068967858120535e6 5.410535088322664e6 0.0
5.410535088322664e6 -226351.76273682486 0.0
0.0 0.0 0.0

-1.7459430707623903e6 3.716431994159924e6 0.0
3.716431994159924e6 472245.136529122 0.0
0.0 0.0 0.0

-777670.0266119251 6.295399638837108e6 0.0
6.295399638837108e6 -912348.2089027823 0.0
0.0 0.0 0.0

-1.551220650223943e6 3.6625570454850555e6 0.0
3.6625570454850555e6 291017.2391433378 0.0
0.0 0.0 0.0

-2.5057516904469943e6 3.2231609130070587e6 0.0
3.2231609130070587e6 874404.018110594 0.0
0.0 0.0 0.0

-2.156739359083848e6 3.1863763904971527e6 0.0
3.1863763904971527e6 468586.71272597753 0.0
0.0 0.0 0.0

-1.4097619729145435e6 3.2870660465164343e6 0.0
3.2870660465164343e6 -132964.37121111387 0.0
0.0 0.0 0.0

-1.121498824558753e6 2.8959016393551957e6 0.0
2.8959016393551957e6 -713761.7884664611 0.0
0.0 0.0 0.0

-1.9688176818500161e6 3.0704579215014814e6 0.0
3.0704579215014814e6 592754.6408386469 0.0
0.0 0.0 0.0

-98874.93414624606 4.860883212506763e6 0.0
4.860883212506763e6 -1.4507556335301048e6 0.0
0.0 0.0 0.0

979095.2376830468 161545.95126639135 0.0
161545.95126639135 -953988.0570885936 0.0
0.0 0.0 0.0

707826.276339932 456380.24468333693 0.0
456380.24468333693 -536510.8538566786 0.0
0.0 0.0 0.0

534106.8413946093 272300.0916696087 0.0
272300.0916696087 -770303.6162040383 0.0
0.0 0.0 0.0

1.0148046123356363e6 -37492.3069094552 0.0
-37492.3069094552 -1.1018410783435134e6 0.0
0.0 0.0 0.0

950447.9697542719 -55825.50576911755 0.0
-55825.50576911755 -960766.7772106202 0.0
0.0 0.0 0.0

494423.260906702 5.441352579374059e6 0.0
5.441352579374059e6 -2.3148003171379324e6 0.0
0.0 0.0 0.0

539119.5761470706 5.336292839030317e6 0.0
5.336292839030317e6 -2.336895368117569e6 0.0
0.0 0.0 0.0

457553.4574793281 312450.5993431364 0.0
312450.5993431364 -663744.0791413754 0.0
0.0 0.0 0.0

881227.3394244396 7.082642713898663e6 0.0
7.082642713898663e6 -2.405829956129709e6 0.0
0.0 0.0 0.0

1.2192661248043203e6 3.8560831591008976e6 0.0
3.8560831591008976e6 -2.4724155975594223e6 0.0
0.0 0.0 0.0

1.1687898671998992e6 5.327385833420885e6 0.0
5.327385833420885e6 -2.535939725303499e6 0.0
0.0 0.0 0.0

1.0114607087657787e6 4.698830578967444e6 0.0
4.698830578967444e6 -2.5857015722922776e6 0.0
0.0 0.0 0.0

-1.870344402242873e6 2.928682248013691e6 0.0
2.928682248013691e6 412340.44990885153 0.0
0.0 0.0 0.0

-1.2481288256227728e6 2.982009225782295e6 0.0
2.982009225782295e6 2.6787947606388116e6 0.0
0.0 0.0 0.0

-1.4501441756571517e6 3.5218297989649037e6 0.0
3.5218297989649037e6 333485.576163123 0.0
0.0 0.0 0.0

467933.930405388 5.786237390233684e6 0.0
5.786237390233684e6 -1.4058740833272415e6 0.0
0.0 0.0 0.0

-2.458160689211765e6 4.300811763226967e6 0.0
4.300811763226967e6 531188.3746191374 0.0
0.0 0.0 0.0

-600404.9351036857 5.628352187143708e6 0.0
5.628352187143708e6 -263502.2131587184 0.0
0.0 0.0 0.0

-848040.5307927319 2.9144013488589562e6 0.0
2.9144013488589562e6 207508.30061985774 0.0
0.0 0.0 0.0

306589.16368568025 8.462401860658579e6 0.0
8.462401860658579e6 -1.3014682730637256e6 0.0
0.0 0.0 0.0

-546141.7879402182 6.202926352414939e6 0.0
6.202926352414939e6 -1.506209995999692e6 0.0
0.0 0.0 0.0

-2.0464910632627716e6 3.0592372635653326e6 0.0
3.0592372635653326e6 377822.89976506797 0.0
0.0 0.0 0.0

-746463.8305336696 5.332023021665923e6 0.0
5.332023021665923e6 -161378.4662691257 0.0
0.0 0.0 0.0

-1.446537483499298e6 3.0843815714271185e6 0.0
3.0843815714271185e6 9615.707372705394 0.0
0.0 0.0 0.0

-1.4985829267127647e6 3.5027730087918546e6 0.0
3.5027730087918546e6 70705.4619517125 0.0
0.0 0.0 0.0

-2.7410393255839357e6 3.4812080672393427e6 0.0
3.4812080672393427e6 1.123305651014979e6 0.0
0.0 0.0 0.0

102579.7866744438 5.914355868455189e6 0.0
5.914355868455189e6 -1.3187146083884602e6 0.0
0.0 0.0 0.0

-2.2490901949285837e6 3.196657803640132e6 0.0
3.196657803640132e6 812939.3016904814 0.0
0.0 0.0 0.0

700156.0879562394 704074.6242524663 0.0
704074.6242524663 855399.6029261482 0.0
0.0 0.0 0.0

-699100.9686743638 5.483753481861509e6 0.0
5.483753481861509e6 -101011.57457746494 0.0
0.0 0.0 0.0

-390413.7462622272 3.8390740363166295e6 0.0
3.8390740363166295e6 -2.117804420303769e6 0.0
0.0 0.0 0.0

-398761.6056053901 5.289808716247657e6 0.0
5.289808716247657e6 -2.101295702510653e6 0.0
0.0 0.0 0.0

-1.3804474143520033e6 3.3532928218900757e6 0.0
3.3532928218900757e6 -26997.156846167403 0.0
0.0 0.0 0.0

-1.9536809502696584e6 5.116391377255262e6 0.0
5.116391377255262e6 277537.69882395526 0.0
0.0 0.0 0.0

2.1677755838968973e6 1.0748580825134444e6 0.0
1.0748580825134444e6 -3.296031443128527e6 0.0
0.0 0.0 0.0

-1.9462375684036782e6 2.9048203747812826e6 0.0
2.9048203747812826e6 571767.1507442814 0.0
0.0 0.0 0.0

-2.2970039539066837e6 3.1242951317378073e6 0.0
3.1242951317378073e6 702186.0974081075 0.0
0.0 0.0 0.0

-2.203874004669264e6 3.3011083833668097e6 0.0
3.3011083833668097e6 777303.7034805904 0.0
0.0 0.0 0.0

-542336.6736064645 4.333164273335693e6 0.0
4.333164273335693e6 -1.6654720195187172e6 0.0
0.0 0.0 0.0

-429221.74662606546 5.764951514462257e6 0.0
5.764951514462257e6 -1.9314136445047841e6 0.0
0.0 0.0 0.0

-1.4433654020950235e6 3.0845612946190094e6 0.0
3.0845612946190094e6 8788.410056228691 0.0
0.0 0.0 0.0

-1.542433209849311e6 3.645004626745438e6 0.0
3.645004626745438e6 323062.14157649246 0.0
0.0 0.0 0.0

-512610.0995849334 5.420396290982764e6 0.0
5.420396290982764e6 -1.7635487184135707e6 0.0
0.0 0.0 0.0

-1.927036846404094e6 3.7589624686020524e6 0.0
3.7589624686020524e6 474564.76138194615 0.0
0.0 0.0 0.0

2.5012161808376787e6 1.3721401242916705e6 0.0
1.3721401242916705e6 -3.6650688188441526e6 0.0
0.0 0.0 0.0

-2.926427504901042e6 7.261791459941914e6 0.0
7.261791459941914e6 1.2853874604155745e6 0.0
0.0 0.0 0.0

2.3084982809408917e6 734873.9528617334 0.0
734873.9528617334 -2.956398373764513e6 0.0
0.0 0.0 0.0

-1.4087019154757946e6 2.3799385248573753e6 0.0
2.3799385248573753e6 143175.53594274278 0.0
0.0 0.0 0.0

-1.984895014549226e6 3.861783532609105e6 0.0
3.861783532609105e6 821486.6169059438 0.0
0.0 0.0 0.0

-1.806632803799681e6 2.8358113385935086e6 0.0
2.8358113385935086e6 330308.5533975533 0.0
0.0 0.0 0.0

-1.9263599119705025e6 2.659205210773579e6 0.0
2.659205210773579e6 398943.9883221106 0.0
0.0 0.0 0.0

-2.398006446862895e6 3.127024761934244e6 0.0
3.127024761934244e6 807041.9222651233 0.0
0.0 0.0 0.0

-1.072519463560549e6 2.987451978547205e6 0.0
2.987451978547205e6 -112606.57654526082 0.0
0.0 0.0 0.0

123501.68178315289 1.5979237652489734e6 0.0
1.5979237652489734e6 -672293.9818624387 0.0
0.0 0.0 0.0

-1.5540893194299864e6 3.625395627585335e6 0.0
3.625395627585335e6 267423.0956064111 0.0
0.0 0.0 0.0

-1.9187019758905862e6 3.521015512951036e6 0.0
3.521015512951036e6 539631.7477899838 0.0
0.0 0.0 0.0

-237790.1811477383 909010.9616701659 0.0
909010.9616701659 -802873.9460590839 0.0
0.0 0.0 0.0

-1.4103892172622238e6 3.4726450614021537e6 0.0
3.4726450614021537e6 65290.38820805133 0.0
0.0 0.0 0.0

-2.417533732897822e6 3.336423564876499e6 0.0
3.336423564876499e6 736155.1281680707 0.0
0.0 0.0 0.0

-132980.39839124988 5.890255290099706e6 0.0
5.890255290099706e6 -1.9856734452562956e6 0.0
0.0 0.0 0.0

-1.8014885620054e6 5.138664341693903e6 0.0
5.138664341693903e6 199063.79823255504 0.0
0.0 0.0 0.0

-1.9399060408424598e6 2.9293297379223355e6 0.0
2.9293297379223355e6 275597.0229129796 0.0
0.0 0.0 0.0

2.5928385207463186e6 1.2323445272241067e6 0.0
1.2323445272241067e6 -2.061072266720674e6 0.0
0.0 0.0 0.0

-2.303899856873657e6 4.56671226302929e6 0.0
4.56671226302929e6 648959.1140447035 0.0
0.0 0.0 0.0

-280246.6439955768 2.5286569868068765e6 0.0
2.5286569868068765e6 -315127.102940738 0.0
0.0 0.0 0.0

-1.997010447279037e6 2.8124734397829436e6 0.0
2.8124734397829436e6 445650.6854865281 0.0
0.0 0.0 0.0

-2.456416904269261e6 3.5342302873360245e6 0.0
3.5342302873360245e6 958168.2454832335 0.0
0.0 0.0 0.0

-2.7401908394857896e6 3.420237503044914e6 0.0
3.420237503044914e6 1.0044753964437443e6 0.0
0.0 0.0 0.0

-2.2694876464888128e6 3.319888580267334e6 0.0
3.319888580267334e6 552524.1430101638 0.0
0.0 0.0 0.0

-2.3686604499013815e6 3.1380438286795868e6 0.0
3.1380438286795868e6 901922.327453336 0.0
0.0 0.0 0.0

1.1358417030222258e6 2.2536189345341623e6 0.0
2.2536189345341623e6 -2.2234014022355415e6 0.0
0.0 0.0 0.0

-2.7433131821346134e6 4.904428613364171e6 0.0
4.904428613364171e6 743381.5423957633 0.0
0.0 0.0 0.0

-368363.3987352986 5.410306235390357e6 0.0
5.410306235390357e6 -1.853595656796753e6 0.0
0.0 0.0 0.0

-1.9402464860765594e6 1.025007312664514e7 0.0
1.025007312664514e7 6.471943814603998e6 0.0
0.0 0.0 0.0

-722264.625830807 6.218301963355337e6 0.0
6.218301963355337e6 -1.2869336293778426e6 0.0
0.0 0.0 0.0

-1.7337195570627889e6 3.4138828756197877e6 0.0
3.4138828756197877e6 291076.61408017157 0.0
0.0 0.0 0.0

-476512.60697612114 3.6065940507132662e6 0.0
3.6065940507132662e6 -1.9099609979802188e6 0.0
0.0 0.0 0.0

-1.8374474441492218e6 2.789426134219494e6 0.0
2.789426134219494e6 167600.20128731336 0.0
0.0 0.0 0.0

-846837.1235427137 6.710655142215892e6 0.0
6.710655142215892e6 -765391.8364940338 0.0
0.0 0.0 0.0

-1.4650953618262643e6 2.734988340682929e6 0.0
2.734988340682929e6 -276494.4986506568 0.0
0.0 0.0 0.0

-2.320605194455443e6 3.0827459802970034e6 0.0
3.0827459802970034e6 801708.1629829437 0.0
0.0 0.0 0.0

-127003.67757573607 3.488030653047821e6 0.0
3.488030653047821e6 -2.116913721118117e6 0.0
0.0 0.0 0.0

-1.789170126953465e6 5.210736187128269e6 0.0
5.210736187128269e6 188657.64972926804 0.0
0.0 0.0 0.0

-1.9777210281726914e6 3.608752259753784e6 0.0
3.608752259753784e6 672497.58069771 0.0
0.0 0.0 0.0

-1.3838283609656477e6 2.689184548129179e6 0.0
2.689184548129179e6 7672.910589562845 0.0
0.0 0.0 0.0

-463338.6811002102 5.910293388540004e6 0.0
5.910293388540004e6 -1.8080236819254444e6 0.0
0.0 0.0 0.0

987431.9549310803 8.39773389818788e6 0.0
8.39773389818788e6 3.291437183709609e6 0.0
0.0 0.0 0.0

-1.3216181900529084e6 4.444445644658811e6 0.0
4.444445644658811e6 -310132.6972200095 0.0
0.0 0.0 0.0

-8.979582297401892e6 3.3680597356312256e6 0.0
3.3680597356312256e6 5.707525480044669e6 0.0
0.0 0.0 0.0

-663203.2529999567 6.062895617167273e6 0.0
6.062895617167273e6 -1.402273738151415e6 0.0
0.0 0.0 0.0

-2.0261609459231766e6 3.2765366347490475e6 0.0
3.2765366347490475e6 608467.3536451643 0.0
0.0 0.0 0.0

1.468686130164666e6 2.043897093585431e6 0.0
2.043897093585431e6 -1.7064904320325484e6 0.0
0.0 0.0 0.0

-1846.5759735041065 6.297375263750789e6 0.0
6.297375263750789e6 -1.6844005026201135e6 0.0
0.0 0.0 0.0

-2.611930618178392e6 3.384716982499135e6 0.0
3.384716982499135e6 1.058601631477171e6 0.0
0.0 0.0 0.0

-676057.7430368101 3.8929176450393097e6 0.0
3.8929176450393097e6 -1.9486881586031164e6 0.0
0.0 0.0 0.0

-1.5764880366166793e6 2.7419318870377033e6 0.0
2.7419318870377033e6 229059.0226373576 0.0
0.0 0.0 0.0

-657048.1590882946 3.0311201415618737e6 0.0
3.0311201415618737e6 -1.331202918693774e6 0.0
0.0 0.0 0.0

-1.742360244059181e6 3.248788466616182e6 0.0
3.248788466616182e6 299997.9737162036 0.0
0.0 0.0 0.0

-584663.2834516776 5.938696214255188e6 0.0
5.938696214255188e6 -1.5378685953038235e6 0.0
0.0 0.0 0.0

-1.630557393923333e6 3.179938908112104e6 0.0
3.179938908112104e6 202584.13251671172 0.0
0.0 0.0 0.0

-766609.0378810017 6.088919814517243e6 0.0
6.088919814517243e6 -1.174309904105099e6 0.0
0.0 0.0 0.0

-7.8548964602677245e6 4.4421405237067705e6 0.0
4.4421405237067705e6 4.3839727988340985e6 0.0
0.0 0.0 0.0

747109.0236919755 11685.478531365301 0.0
11685.478531365301 -767680.4760622445 0.0
0.0 0.0 0.0

-1.5501634537504583e6 3.4506064925657986e6 0.0
3.4506064925657986e6 53962.66909429204 0.0
0.0 0.0 0.0

-2.3837740577739407e6 3.1937776076395633e6 0.0
3.1937776076395633e6 914186.7832619403 0.0
0.0 0.0 0.0

-216731.38305020612 -399110.04181462177 0.0
-399110.04181462177 1.1383453819442713e6 0.0
0.0 0.0 0.0

-384748.38772690645 5.655973060159634e6 0.0
5.655973060159634e6 -504377.99025500537 0.0
0.0 0.0 0.0

-1.6618915800975394e6 2.738340738074484e6 0.0
2.738340738074484e6 -55479.68846601015 0.0
0.0 0.0 0.0

-908014.1625504612 6.822650514759341e6 0.0
6.822650514759341e6 -739903.4530282915 0.0
0.0 0.0 0.0

-1.2505843403441363e6 3.690082575968302e6 0.0
3.690082575968302e6 -523732.11772842344 0.0
0.0 0.0 0.0

-1.2585922525233517e6 2.2961901644947166e6 0.0
2.2961901644947166e6 -353348.50429180387 0.0
0.0 0.0 0.0

-1.9045337001073593e6 3.317328014819626e6 0.0
3.317328014819626e6 139857.62644923362 0.0
0.0 0.0 0.0

-1.5535310127178293e6 3.572369683838793e6 0.0
3.572369683838793e6 474306.956414729 0.0
0.0 0.0 0.0

-2.0434317083194184e6 3.1260304604248945e6 0.0
3.1260304604248945e6 662331.0564427251 0.0
0.0 0.0 0.0

-1.9965450832770164e6 2.7784661751863156e6 0.0
2.7784661751863156e6 480189.3257294289 0.0
0.0 0.0 0.0

140252.87966370163 5.421593565582263e6 0.0
5.421593565582263e6 -2.0764870851686043e6 0.0
0.0 0.0 0.0

-2.1815820607496817e6 4.7944765190409785e6 0.0
4.7944765190409785e6 524288.8660168991 0.0
0.0 0.0 0.0

339903.16021666134 1.3504407699556793e6 0.0
1.3504407699556793e6 -851225.8762484246 0.0
0.0 0.0 0.0

-1.5364070372020984e6 3.6166913892863896e6 0.0
3.6166913892863896e6 354988.40361260646 0.0
0.0 0.0 0.0

-856461.3139228593 2.6840684649210586e6 0.0
2.6840684649210586e6 -932412.1001830634 0.0
0.0 0.0 0.0

330928.57883508457 6.586869386533398e6 0.0
6.586869386533398e6 -2.1394516699778517e6 0.0
0.0 0.0 0.0

-519598.12677174894 5.908121081857612e6 0.0
5.908121081857612e6 -1.687060860745322e6 0.0
0.0 0.0 0.0

-352118.28592024493 2.474814505923617e6 0.0
2.474814505923617e6 -294231.9464932732 0.0
0.0 0.0 0.0

-962550.3201439832 3.0691126015162272e6 0.0
3.0691126015162272e6 683440.4070556699 0.0
0.0 0.0 0.0

-1.8805342866849639e6 3.0350911720523364e6 0.0
3.0350911720523364e6 161657.1850281047 0.0
0.0 0.0 0.0

806506.03813452 39926.96157309354 0.0
39926.96157309354 -767748.6120459263 0.0
0.0 0.0 0.0

-1.563462839330237e6 3.1311175549037457e6 0.0
3.1311175549037457e6 103728.81072368927 0.0
0.0 0.0 0.0

-844888.7189919449 6.3776385267704055e6 0.0
6.3776385267704055e6 -642423.3237240664 0.0
0.0 0.0 0.0

-649438.0834106304 4.253066481929035e6 0.0
4.253066481929035e6 -1.353985432366969e6 0.0
0.0 0.0 0.0

-211287.18138620543 5.628394765518445e6 0.0
5.628394765518445e6 -1.5848406347731634e6 0.0
0.0 0.0 0.0

-674814.0302256844 1.4164995737095678e6 0.0
1.4164995737095678e6 -1.2516032124214387e6 0.0
0.0 0.0 0.0

-1.6918185343046184e6 2.8901001327996887e6 0.0
2.8901001327996887e6 323820.96826896083 0.0
0.0 0.0 0.0

-809828.0435589836 4.789933798095508e6 0.0
4.789933798095508e6 1.067642478121358e6 0.0
0.0 0.0 0.0

-2.7644038526101233e6 3.557663472423471e6 0.0
3.557663472423471e6 1.0038750123981056e6 0.0
0.0 0.0 0.0

-1.6945482075765217e6 3.6449111203357247e6 0.0
3.6449111203357247e6 1.1801784868390202e6 0.0
0.0 0.0 0.0

-1.8994230369260742e6 3.790763739493099e6 0.0
3.790763739493099e6 824899.966137988 0.0
0.0 0.0 0.0

-483147.1574774722 2.7155640850627366e6 0.0
2.7155640850627366e6 -856596.9512430961 0.0
0.0 0.0 0.0

-1.6933966110634748e6 3.1918822363100927e6 0.0
3.1918822363100927e6 187921.079688921 0.0
0.0 0.0 0.0

-585906.9166050646 5.585009835549859e6 0.0
5.585009835549859e6 -484210.5712148495 0.0
0.0 0.0 0.0

-1.4940208313552877e6 2.322330819268995e6 0.0
2.322330819268995e6 -135804.61398635624 0.0
0.0 0.0 0.0

-589880.3779590981 5.535998885210996e6 0.0
5.535998885210996e6 -1.6360256469226629e6 0.0
0.0 0.0 0.0

-1.8036011970634449e6 3.0230594271247974e6 0.0
3.0230594271247974e6 421282.3276284586 0.0
0.0 0.0 0.0

-786038.7971065496 6.389156420469149e6 0.0
6.389156420469149e6 -1.205247230802318e6 0.0
0.0 0.0 0.0

-1.8460720188431637e6 3.1275671846269267e6 0.0
3.1275671846269267e6 426665.63633635396 0.0
0.0 0.0 0.0

-253096.69754466525 4.423868375586159e6 0.0
4.423868375586159e6 -1.9778550976399179e6 0.0
0.0 0.0 0.0

-1.916512621619252e6 3.148178116013935e6 0.0
3.148178116013935e6 516093.25116136204 0.0
0.0 0.0 0.0

-385158.95933624194 6.891273997280811e6 0.0
6.891273997280811e6 -1.0619990679408999e6 0.0
0.0 0.0 0.0

-211922.21926233877 -75566.40040323 0.0
-75566.40040323 1.1304722438458689e6 0.0
0.0 0.0 0.0

-4.220278324822568e6 3.5258750837800936e6 0.0
3.5258750837800936e6 1.3480039837192926e6 0.0
0.0 0.0 0.0

-1.2117063006979555e6 5.384413138431289e6 0.0
5.384413138431289e6 -117396.58719865134 0.0
0.0 0.0 0.0

-1.2652834305460658e6 1.7571869018778808e6 0.0
1.7571869018778808e6 2.4163054343071114e6 0.0
0.0 0.0 0.0

-2.1316322311293124e6 4.425017139514642e6 0.0
4.425017139514642e6 661026.6168116342 0.0
0.0 0.0 0.0

-1.8852759666742082e6 2.813639727523106e6 0.0
2.813639727523106e6 497020.8587515318 0.0
0.0 0.0 0.0

-1.308687431647977e6 2.842893770510822e6 0.0
2.842893770510822e6 -107243.04238042288 0.0
0.0 0.0 0.0

-1.6050367182705929e6 2.993660193644874e6 0.0
2.993660193644874e6 216355.82783336856 0.0
0.0 0.0 0.0

-1.1851979046725493e6 2.106935772157428e6 0.0
2.106935772157428e6 -5096.725755147927 0.0
0.0 0.0 0.0

-897710.2151489347 5.743221780085293e6 0.0
5.743221780085293e6 -470250.27068765386 0.0
0.0 0.0 0.0

587698.4792193137 7.07443550139724e6 0.0
7.07443550139724e6 -1.551902585322302e6 0.0
0.0 0.0 0.0

-6949.721342546924 1.4501530888945882e6 0.0
1.4501530888945882e6 -608773.7340321647 0.0
0.0 0.0 0.0

-1.858783139828313e6 3.75377592638638e6 0.0
3.75377592638638e6 1.0209927914136247e6 0.0
0.0 0.0 0.0

-2.644509029127413e6 3.5909521328253536e6 0.0
3.5909521328253536e6 873358.5985255789 0.0
0.0 0.0 0.0

-529054.2211937455 6.905134885414662e6 0.0
6.905134885414662e6 -1.0132052239498158e6 0.0
0.0 0.0 0.0

-2.3104755887608696e6 5.0243785025842665e6 0.0
5.0243785025842665e6 378146.2361554522 0.0
0.0 0.0 0.0

2.3489379211894115e6 1.5391859158493762e6 0.0
1.5391859158493762e6 -2.8530466995334886e6 0.0
0.0 0.0 0.0

-1.6880879456581983e6 2.4247633091072966e6 0.0
2.4247633091072966e6 87960.58939424728 0.0
0.0 0.0 0.0

984887.000298719 5.4393483699263e6 0.0
5.4393483699263e6 1.286101702073706e6 0.0
0.0 0.0 0.0

-471090.3606932432 1.9024913557672282e6 0.0
1.9024913557672282e6 -1.5120855717376892e6 0.0
0.0 0.0 0.0

38463.995797941345 6.212605285979789e6 0.0
6.212605285979789e6 -1.5163991197325904e6 0.0
0.0 0.0 0.0

-1.177082664459954e6 3.4554004498340474e6 0.0
3.4554004498340474e6 2.4535569548365325e6 0.0
0.0 0.0 0.0

-732596.2229259599 6.108404976224608e6 0.0
6.108404976224608e6 -1.2236960340317374e6 0.0
0.0 0.0 0.0

9200.27663234435 2.713275879675015e6 0.0
2.713275879675015e6 -443738.4922846969 0.0
0.0 0.0 0.0

-3.627781927443741e6 3.362297714338468e6 0.0
3.362297714338468e6 974794.746703675 0.0
0.0 0.0 0.0

-1.2808459867234533e6 3.928897963751831e6 0.0
3.928897963751831e6 2.297406491215186e6 0.0
0.0 0.0 0.0

-2.128670573432933e6 4.643087835985619e6 0.0
4.643087835985619e6 618304.9324576816 0.0
0.0 0.0 0.0

-5.995961634069011e6 5.166799408301716e6 0.0
5.166799408301716e6 5.0942152006388325e6 0.0
0.0 0.0 0.0

-1.9945182326955176e6 2.921859866986187e6 0.0
2.921859866986187e6 545367.0030569697 0.0
0.0 0.0 0.0

4.620299719319256e6 5.3650994879047405e6 0.0
5.3650994879047405e6 191326.69332900224 0.0
0.0 0.0 0.0

-1.1169011769647643e6 3.786569728051408e6 0.0
3.786569728051408e6 -394866.9140244931 0.0
0.0 0.0 0.0

-401975.1748133603 4.055998736207526e6 0.0
4.055998736207526e6 -1.8058062056687558e6 0.0
0.0 0.0 0.0

-1.0671534574425535e6 5.196248341170358e6 0.0
5.196248341170358e6 -240336.6122933766 0.0
0.0 0.0 0.0

-2.3862258681373736e6 6.230608257756293e6 0.0
6.230608257756293e6 377676.26579219464 0.0
0.0 0.0 0.0

-606376.5946132414 1.6332213522535835e6 0.0
1.6332213522535835e6 -280345.2018546567 0.0
0.0 0.0 0.0

-1.5155410215929472e6 5.2301494277264085e6 0.0
5.2301494277264085e6 325457.66771852016 0.0
0.0 0.0 0.0

-491814.36569801334 3.4399592799876034e6 0.0
3.4399592799876034e6 -1.7392107710193512e6 0.0
0.0 0.0 0.0

-645769.463281261 2.0044311237446049e6 0.0
2.0044311237446049e6 -27986.37933750238 0.0
0.0 0.0 0.0

-2.647764522645024e6 3.439472006235892e6 0.0
3.439472006235892e6 921119.0569837192 0.0
0.0 0.0 0.0

-1.8798825145013682e6 2.7597987136711045e6 0.0
2.7597987136711045e6 533175.5295444538 0.0
0.0 0.0 0.0

-2.596940829344019e6 3.5227492531639957e6 0.0
3.5227492531639957e6 1.0521057948651132e6 0.0
0.0 0.0 0.0

-618556.480601192 4.466154903960497e6 0.0
4.466154903960497e6 -877625.7058403833 0.0
0.0 0.0 0.0

-99450.89467880878 2.870465176397638e6 0.0
2.870465176397638e6 -484670.1726539712 0.0
0.0 0.0 0.0

-2.388678905844267e6 3.9699734660165645e6 0.0
3.9699734660165645e6 824621.2499079357 0.0
0.0 0.0 0.0

-1.8288855924946563e6 4.3533534415449705e6 0.0
4.3533534415449705e6 1.3261287715557488e6 0.0
0.0 0.0 0.0

-1.7669579144104505e6 3.6848646280610305e6 0.0
3.6848646280610305e6 674142.4254629823 0.0
0.0 0.0 0.0

-1.1793284402632038e6 2.2822467769665183e6 0.0
2.2822467769665183e6 -90413.9100737911 0.0
0.0 0.0 0.0

-381443.84747503453 5.708694177594131e6 0.0
5.708694177594131e6 -2.0280158277639882e6 0.0
0.0 0.0 0.0

-2.0619738736670876e6 3.1277852679326646e6 0.0
3.1277852679326646e6 661106.4229106888 0.0
0.0 0.0 0.0

-806763.307856435 6.865353967512615e6 0.0
6.865353967512615e6 -897634.0302741178 0.0
0.0 0.0 0.0

-636151.7662893971 5.256297984586015e6 0.0
5.256297984586015e6 -1.0855215158566756e6 0.0
0.0 0.0 0.0

-2.1969984187727403e6 4.414365800021794e6 0.0
4.414365800021794e6 276266.4747936835 0.0
0.0 0.0 0.0

-1.3187960208183667e6 3.8362005121481013e6 0.0
3.8362005121481013e6 -406318.2706995308 0.0
0.0 0.0 0.0

-508990.0814179991 5.967477270212635e6 0.0
5.967477270212635e6 -1.6375061265085526e6 0.0
0.0 0.0 0.0

38103.73642503965 1.1650731647473844e6 0.0
1.1650731647473844e6 -1.2760711161234055e6 0.0
0.0 0.0 0.0

29132.09951534377 2.0640667440793193e6 0.0
2.0640667440793193e6 -331313.85346304957 0.0
0.0 0.0 0.0

-4.0288980157653093e6 5.215200003349385e6 0.0
5.215200003349385e6 1.6196494108167142e6 0.0
0.0 0.0 0.0

-1.981796207659225e6 3.07602872265896e6 0.0
3.07602872265896e6 583832.4013895578 0.0
0.0 0.0 0.0

-1.805558800480403e6 3.5445191360550136e6 0.0
3.5445191360550136e6 20279.58270899742 0.0
0.0 0.0 0.0

540764.5559694953 3.295311567825373e6 0.0
3.295311567825373e6 -2.9823604865468945e6 0.0
0.0 0.0 0.0

-2.211583152883214e6 -356223.38224796305 0.0
-356223.38224796305 2.5473165118524306e6 0.0
0.0 0.0 0.0

336311.7506755063 6.664047691918999e6 0.0
6.664047691918999e6 -1.5118729793084264e6 0.0
0.0 0.0 0.0

-714219.8745316495 7.653326799737087e6 0.0
7.653326799737087e6 -672531.673466834 0.0
0.0 0.0 0.0

-1.750677664621099e6 5.283372925643781e6 0.0
5.283372925643781e6 377278.31774399895 0.0
0.0 0.0 0.0

-2.5023509460097086e6 3.8798234341001706e6 0.0
3.8798234341001706e6 871648.7976251479 0.0
0.0 0.0 0.0

473200.84592541994 5.681023248050889e6 0.0
5.681023248050889e6 -1.9510155760966756e6 0.0
0.0 0.0 0.0

-1.9309844925476387e6 3.4125274193582e6 0.0
3.4125274193582e6 505359.14900234935 0.0
0.0 0.0 0.0

-1.9312977409783578e6 3.943222467147293e6 0.0
3.943222467147293e6 327313.37605339347 0.0
0.0 0.0 0.0

92790.51858772186 6.263295716706072e6 0.0
6.263295716706072e6 -1.6358698689706498e6 0.0
0.0 0.0 0.0

-2.7973475582609368e6 4.240242998200994e6 0.0
4.240242998200994e6 926410.8726982186 0.0
0.0 0.0 0.0

-721622.8303088392 6.720279757463595e6 0.0
6.720279757463595e6 -870270.926728408 0.0
0.0 0.0 0.0

-2.1007246274575824e6 3.3131829564745035e6 0.0
3.3131829564745035e6 350820.31896790746 0.0
0.0 0.0 0.0

-546572.3224253559 4.734272295805273e6 0.0
4.734272295805273e6 -1.7055191291302862e6 0.0
0.0 0.0 0.0

2.3045800780416103e6 980547.9830309983 0.0
980547.9830309983 -3.13894769959593e6 0.0
0.0 0.0 0.0

-626180.2969064448 3.394572400914674e6 0.0
3.394572400914674e6 -1.2194990419949866e6 0.0
0.0 0.0 0.0

-1.2573431250442467e6 4.392371524400451e6 0.0
4.392371524400451e6 -74820.78357598849 0.0
0.0 0.0 0.0

-772916.711293729 6.653725498253164e6 0.0
6.653725498253164e6 -879965.5966563548 0.0
0.0 0.0 0.0

-1.569639561209409e6 3.6526922164344685e6 0.0
3.6526922164344685e6 -207234.74189571 0.0
0.0 0.0 0.0

1.588986472113159e6 2.419302946055293e6 0.0
2.419302946055293e6 -1.9502631893869052e6 0.0
0.0 0.0 0.0

479561.6872109155 5.527563327740537e6 0.0
5.527563327740537e6 -1.5186369418249053e6 0.0
0.0 0.0 0.0

-690957.4441890549 6.870757983638428e6 0.0
6.870757983638428e6 -1.0661545122596547e6 0.0
0.0 0.0 0.0

-852490.240016517 2.898199629725687e6 0.0
2.898199629725687e6 -1.0803792720670218e6 0.0
0.0 0.0 0.0

-1.940897410599392e6 2.83422839142203e6 0.0
2.83422839142203e6 464897.4392864917 0.0
0.0 0.0 0.0

-2.3059878461927325e6 4.986547637138821e6 0.0
4.986547637138821e6 407524.51368213154 0.0
0.0 0.0 0.0

-7.191002042370653e6 1.6648739662910097e6 0.0
1.6648739662910097e6 1.5941288559067253e7 0.0
0.0 0.0 0.0

-411313.16836220823 2.1524918896069606e6 0.0
2.1524918896069606e6 8823.036163714249 0.0
0.0 0.0 0.0

-1.2747606009937287e6 6.270564009860027e6 0.0
6.270564009860027e6 -419860.333078758 0.0
0.0 0.0 0.0

-1.9226077070061592e6 3.0095857399831903e6 0.0
3.0095857399831903e6 500643.8109259021 0.0
0.0 0.0 0.0

-351819.3679650745 2.261979796803116e6 0.0
2.261979796803116e6 461737.0277971537 0.0
0.0 0.0 0.0

429353.15685703757 5.536621860679674e6 0.0
5.536621860679674e6 -1.7663646220896891e6 0.0
0.0 0.0 0.0

-1.9718364243798368e6 3.227693692892769e6 0.0
3.227693692892769e6 591656.8347784912 0.0
0.0 0.0 0.0

-712512.7470789934 5.961651793733726e6 0.0
5.961651793733726e6 -1.3525341213706385e6 0.0
0.0 0.0 0.0

-1.3032287436723744e6 4.897723451281855e6 0.0
4.897723451281855e6 24317.467930664367 0.0
0.0 0.0 0.0

-1.8091823010612014e6 3.5629499457693547e6 0.0
3.5629499457693547e6 377345.34701923374 0.0
0.0 0.0 0.0

-1.4927269177821204e6 3.4265974567768434e6 0.0
3.4265974567768434e6 92370.72017575998 0.0
0.0 0.0 0.0

-1.8145101166486663e6 2.772382805839255e6 0.0
2.772382805839255e6 498566.6858621136 0.0
0.0 0.0 0.0

-270323.1554569064 2.9875101491163615e6 0.0
2.9875101491163615e6 -483160.6509156462 0.0
0.0 0.0 0.0

-1.7631782256039143e7 -306074.7819900597 0.0
-306074.7819900597 1.141341735041887e7 0.0
0.0 0.0 0.0

-925339.1164529443 3.902809751063531e6 0.0
3.902809751063531e6 443420.58250307274 0.0
0.0 0.0 0.0

-2.0516124354236962e6 4.067554852624292e6 0.0
4.067554852624292e6 947840.3239741484 0.0
0.0 0.0 0.0

-2.9209402948889034e6 3.5656596340274164e6 0.0
3.5656596340274164e6 1.1599073725668904e6 0.0
0.0 0.0 0.0

-275330.19421178376 7.370837073992919e6 0.0
7.370837073992919e6 -1.2278289257533436e6 0.0
0.0 0.0 0.0

-41528.41546372359 6.425497918595384e6 0.0
6.425497918595384e6 -1.4038057118997104e6 0.0
0.0 0.0 0.0

-272000.5215443909 5.576899717556158e6 0.0
5.576899717556158e6 -2.12356515229477e6 0.0
0.0 0.0 0.0

-1.6760380731921114e6 3.242341900805799e6 0.0
3.242341900805799e6 304635.7633899831 0.0
0.0 0.0 0.0

-957427.9563268088 2.9565988691648673e6 0.0
2.9565988691648673e6 400695.6039096594 0.0
0.0 0.0 0.0

-1.0026797991361987e6 3.1612355750405667e6 0.0
3.1612355750405667e6 -267871.2067079979 0.0
0.0 0.0 0.0

-667406.6532252174 6.8743529702978e6 0.0
6.8743529702978e6 -936125.3535708687 0.0
0.0 0.0 0.0

-526591.6492823092 3.555905861430722e6 0.0
3.555905861430722e6 -1.5383773229151366e6 0.0
0.0 0.0 0.0

-2.312893617594853e6 4.3217207545508e6 0.0
4.3217207545508e6 733599.0991520096 0.0
0.0 0.0 0.0

-2.558721755313552e6 7.592817639106394e6 0.0
7.592817639106394e6 655253.9649502909 0.0
0.0 0.0 0.0

-2.25442175065399e6 4.949371341541453e6 0.0
4.949371341541453e6 422075.7215085565 0.0
0.0 0.0 0.0

-1.677388633788145e6 4.19761840795454e6 0.0
4.19761840795454e6 1.668739002909489e6 0.0
0.0 0.0 0.0

98603.221774264 3.517415956332277e6 0.0
3.517415956332277e6 -1.99856322324502e6 0.0
0.0 0.0 0.0

-833352.1633543196 3.317102668060912e6 0.0
3.317102668060912e6 -671524.4870902599 0.0
0.0 0.0 0.0

1.10953766857591e6 2.2236901309391567e6 0.0
2.2236901309391567e6 -1.6038332818003497e6 0.0
0.0 0.0 0.0

6940.242883125902 5.760899447814463e6 0.0
5.760899447814463e6 -2.0702332019940224e6 0.0
0.0 0.0 0.0

-2.608850123236505e6 3.763006875658406e6 0.0
3.763006875658406e6 920951.7344843965 0.0
0.0 0.0 0.0

-630856.310126386 2.85321590909937e6 0.0
2.85321590909937e6 296919.7487851635 0.0
0.0 0.0 0.0

-1.6046757783747409e6 4.101235575395173e6 0.0
4.101235575395173e6 1.8582694897061014e6 0.0
0.0 0.0 0.0

-2.0823598831269895e6 4.241066447811626e6 0.0
4.241066447811626e6 907176.3828344677 0.0
0.0 0.0 0.0

102552.70034438127 5.508565888180421e6 0.0
5.508565888180421e6 -2.1067311999997236e6 0.0
0.0 0.0 0.0

-3.15278828606957e6 5.518620911777501e6 0.0
5.518620911777501e6 1.8963685168374297e6 0.0
0.0 0.0 0.0

-3.748872973693379e6 5.584173931111084e6 0.0
5.584173931111084e6 1.4512113782260455e6 0.0
0.0 0.0 0.0

-2.4354457829475664e6 4.29110803143571e6 0.0
4.29110803143571e6 775687.1373869187 0.0
0.0 0.0 0.0

-1.4253437209771483e6 4.280596631162412e6 0.0
4.280596631162412e6 2.095746322156875e6 0.0
0.0 0.0 0.0

-1.3983392407064373e7 1.4255698885360917e7 0.0
1.4255698885360917e7 2.364779751566455e6 0.0
0.0 0.0 0.0

-2.3159268329758253e6 4.096140811128498e6 0.0
4.096140811128498e6 1.8189623899794635e6 0.0
0.0 0.0 0.0

-1.5626823915226958e6 3.625573471541677e6 0.0
3.625573471541677e6 268121.0098657197 0.0
0.0 0.0 0.0

359085.56492318126 1.9339915558177242e6 0.0
1.9339915558177242e6 -916476.2663796463 0.0
0.0 0.0 0.0

-1.4981470300149336e6 2.847392859898458e6 0.0
2.847392859898458e6 113864.95193192922 0.0
0.0 0.0 0.0

-2.471370690655302e6 6.512761672646003e6 0.0
6.512761672646003e6 215754.563422697 0.0
0.0 0.0 0.0

-3.5993832373039457e6 3.684812963089417e6 0.0
3.684812963089417e6 1.081351788920248e6 0.0
0.0 0.0 0.0

-1.3814080383875072e6 3.7662093753726073e6 0.0
3.7662093753726073e6 -25647.851262122625 0.0
0.0 0.0 0.0

-2.006429198069974e6 3.836389888922246e6 0.0
3.836389888922246e6 175923.6510504193 0.0
0.0 0.0 0.0

291428.3352508829 1.4232446943599891e6 0.0
1.4232446943599891e6 -384414.04025903624 0.0
0.0 0.0 0.0

466119.58855545026 6.826683045501727e6 0.0
6.826683045501727e6 -1.1555181905294135e6 0.0
0.0 0.0 0.0

-3.2919491287388066e6 5.379954334643963e6 0.0
5.379954334643963e6 1.4235541231070803e6 0.0
0.0 0.0 0.0

-1.799276493083857e6 4.283019630531332e6 0.0
4.283019630531332e6 1.5175399821116582e6 0.0
0.0 0.0 0.0

-2.4195039496226404e6 6.193957722831644e6 0.0
6.193957722831644e6 -170247.29264409933 0.0
0.0 0.0 0.0

167068.9102320533 1.1847969296031652e6 0.0
1.1847969296031652e6 -1.449965921775257e6 0.0
0.0 0.0 0.0

-3.724004514218253e6 6.389271204626122e6 0.0
6.389271204626122e6 1.3971342963930795e6 0.0
0.0 0.0 0.0

-2.0118067415931837e6 3.4642258518423005e6 0.0
3.4642258518423005e6 223150.94422530883 0.0
0.0 0.0 0.0

-791360.4821100316 6.641041611104474e6 0.0
6.641041611104474e6 -1.1283850953089169e6 0.0
0.0 0.0 0.0

-1.7163206570191756e6 3.132648188395677e6 0.0
3.132648188395677e6 315725.2912124845 0.0
0.0 0.0 0.0

538920.3561037516 7.781956415039186e6 0.0
7.781956415039186e6 -1.409127751633401e6 0.0
0.0 0.0 0.0

-2.2320923385328585e6 3.0802253056916613e6 0.0
3.0802253056916613e6 792128.7407188063 0.0
0.0 0.0 0.0

319319.1118548064 2.3905629274650095e6 0.0
2.3905629274650095e6 -1.0398858840367886e6 0.0
0.0 0.0 0.0

-996040.5484260076 3.0424679963189904e6 0.0
3.0424679963189904e6 -129556.11640764555 0.0
0.0 0.0 0.0

-1.488347661806256e6 3.450865842396939e6 0.0
3.450865842396939e6 102188.07674570405 0.0
0.0 0.0 0.0

-404412.6556431948 4.234603023341675e6 0.0
4.234603023341675e6 -2.0210014185595987e6 0.0
0.0 0.0 0.0

-1.6839611893691565e6 3.4156255281389705e6 0.0
3.4156255281389705e6 247238.61269843834 0.0
0.0 0.0 0.0

-1.371423885719149e7 3.425393384925238e6 0.0
3.425393384925238e6 1.1214700922498427e7 0.0
0.0 0.0 0.0

-1.870397482702251e6 3.1851639820912606e6 0.0
3.1851639820912606e6 510016.0727609297 0.0
0.0 0.0 0.0

-1.0980890411420786e6 5.720186584180071e6 0.0
5.720186584180071e6 -131494.29543369618 0.0
0.0 0.0 0.0

-1.2114845544060465e7 -2.9978057782104234e6 0.0
-2.9978057782104234e6 9.383627764974091e6 0.0
0.0 0.0 0.0

-675419.879257194 6.809853117358706e6 0.0
6.809853117358706e6 -919019.2507340256 0.0
0.0 0.0 0.0

-1.910406370034128e6 2.9986401963257226e6 0.0
2.9986401963257226e6 519716.5767241373 0.0
0.0 0.0 0.0

-527770.13484633 3.6847299755519023e6 0.0
3.6847299755519023e6 -1.7234659467970894e6 0.0
0.0 0.0 0.0

-2.950777427539807e6 3.5966679663311765e6 0.0
3.5966679663311765e6 1.1357284612602184e6 0.0
0.0 0.0 0.0

-107324.5611768823 7.183694292809158e6 0.0
7.183694292809158e6 -1.5108849710813076e6 0.0
0.0 0.0 0.0

-593485.5343960155 6.419648630027556e6 0.0
6.419648630027556e6 -1.4576032805225425e6 0.0
0.0 0.0 0.0

-76649.79478859817 3.043948141847969e6 0.0
3.043948141847969e6 -477275.15061478334 0.0
0.0 0.0 0.0

-1.7939916335577457e6 3.6899145273637227e6 0.0
3.6899145273637227e6 582824.271560305 0.0
0.0 0.0 0.0

95910.88590650924 6.258597207328282e6 0.0
6.258597207328282e6 -1.6233643200267812e6 0.0
0.0 0.0 0.0

3321.400575527805 2.50044790559057e6 0.0
2.50044790559057e6 -501966.08634619723 0.0
0.0 0.0 0.0

-400771.00801397196 6.887499963627248e6 0.0
6.887499963627248e6 -1.4760683568204755e6 0.0
0.0 0.0 0.0

-1.3902871017200273e7 -3.072482103976829e6 0.0
-3.072482103976829e6 6.92295400918924e6 0.0
0.0 0.0 0.0

148403.666001737 3.8064128760285997e6 0.0
3.8064128760285997e6 -1.9342095960338034e6 0.0
0.0 0.0 0.0

-1.6448204597180318e6 3.666489002780368e6 0.0
3.666489002780368e6 399622.8918825231 0.0
0.0 0.0 0.0

-1.8816886214798996e6 3.6730576960580614e6 0.0
3.6730576960580614e6 590758.7213692932 0.0
0.0 0.0 0.0

-2.196849261782432e6 4.855669868356153e6 0.0
4.855669868356153e6 488750.64890361193 0.0
0.0 0.0 0.0

-1.771915308615906e6 2.8919052511588805e6 0.0
2.8919052511588805e6 55832.012666210416 0.0
0.0 0.0 0.0

-1.5461293666933193e6 5.069050544132271e6 0.0
5.069050544132271e6 660511.5830200176 0.0
0.0 0.0 0.0

-398200.0436246538 5.995610498490745e6 0.0
5.995610498490745e6 -1.4766124264401053e6 0.0
0.0 0.0 0.0

-328486.434866932 6.007255921810233e6 0.0
6.007255921810233e6 -1.587938430480514e6 0.0
0.0 0.0 0.0

-2.882248381614208e6 3.5949745956235477e6 0.0
3.5949745956235477e6 1.0973635857179116e6 0.0
0.0 0.0 0.0

-2.285493287081481e6 5.927879187911915e6 0.0
5.927879187911915e6 243462.72989153222 0.0
0.0 0.0 0.0

-297517.8275095738 4.593087811452768e6 0.0
4.593087811452768e6 -2.1350036165557317e6 0.0
0.0 0.0 0.0

-1.3801279996673085e6 3.286066309184586e6 0.0
3.286066309184586e6 -147648.08700198727 0.0
0.0 0.0 0.0

-2.221707170514873e6 4.939089278954984e6 0.0
4.939089278954984e6 420586.0065884787 0.0
0.0 0.0 0.0

-9.38295503475317e6 3.4418693415129837e6 0.0
3.4418693415129837e6 4.550926921596015e6 0.0
0.0 0.0 0.0

-752197.2792677176 3.1248484161595576e6 0.0
3.1248484161595576e6 342182.37345755036 0.0
0.0 0.0 0.0

-378876.01909636834 4.20151580500716e6 0.0
4.20151580500716e6 -1.9654514123237932e6 0.0
0.0 0.0 0.0

424788.8396629604 1.448794369341554e6 0.0
1.448794369341554e6 -537347.9472674106 0.0
0.0 0.0 0.0

141573.09078407797 -288579.07143332995 0.0
-288579.07143332995 -405024.5954936025 0.0
0.0 0.0 0.0

597009.0693262417 5.5976778340424355e6 0.0
5.5976778340424355e6 -2.482932449417152e6 0.0
0.0 0.0 0.0

-1.6644902447188904e6 5.25388048204408e6 0.0
5.25388048204408e6 55904.28035969299 0.0
0.0 0.0 0.0

-768057.0664080814 4.641962693291102e6 0.0
4.641962693291102e6 -1.3812532212105887e6 0.0
0.0 0.0 0.0

-2.6195986804610323e6 1.849453491586912e6 0.0
1.849453491586912e6 3.8412059103784068e6 0.0
0.0 0.0 0.0

-1.0611092430613518e6 6.696355662526285e6 0.0
6.696355662526285e6 -536655.4951318286 0.0
0.0 0.0 0.0

282614.68380402925 7.007247276978021e6 0.0
7.007247276978021e6 -1.5141361361649581e6 0.0
0.0 0.0 0.0

-2.983725470418195e6 3.0210672423448586e6 0.0
3.0210672423448586e6 6.900354293058319e6 0.0
0.0 0.0 0.0

-1.947568766392539e6 2.853676692267802e6 0.0
2.853676692267802e6 602123.3263381952 0.0
0.0 0.0 0.0

-1.7047749682211122e6 3.8449339861334516e6 0.0
3.8449339861334516e6 2.217667210718422e6 0.0
0.0 0.0 0.0

-794071.7935492073 5.0432300928628715e6 0.0
5.0432300928628715e6 -1.3149652777903338e6 0.0
0.0 0.0 0.0

6.742644354271984e6 6.55721317210642e6 0.0
6.55721317210642e6 79865.63478523493 0.0
0.0 0.0 0.0

-1.6659175834022707e6 4.718008265676698e6 0.0
4.718008265676698e6 212595.95988374623 0.0
0.0 0.0 0.0

-3.125412219965653e6 5.814080610508788e6 0.0
5.814080610508788e6 1.3984362148508783e6 0.0
0.0 0.0 0.0

-116008.09425663447 6.668949616953753e6 0.0
6.668949616953753e6 -1.5075287162576285e6 0.0
0.0 0.0 0.0

-396965.80031870725 7.412117391014621e6 0.0
7.412117391014621e6 -1.8815343637357298e6 0.0
0.0 0.0 0.0

-1.5805418276547766e6 2.8866541744999643e6 0.0
2.8866541744999643e6 -170644.75323243468 0.0
0.0 0.0 0.0

-649667.5325443324 2.7973256387289516e6 0.0
2.7973256387289516e6 321791.938374163 0.0
0.0 0.0 0.0

-508416.4764094385 3.6886926449066005e6 0.0
3.6886926449066005e6 -1.6896938842490064e6 0.0
0.0 0.0 0.0

1.0944801090866155e6 2.2614359439339596e6 0.0
2.2614359439339596e6 -1.3929464928253023e6 0.0
0.0 0.0 0.0

-548465.9893720716 6.897994498034503e6 0.0
6.897994498034503e6 -1.29550758522377e6 0.0
0.0 0.0 0.0

-3.3361018209116673e6 3.491569578337767e6 0.0
3.491569578337767e6 -205251.19752545527 0.0
0.0 0.0 0.0

-1.636589993566662e6 2.3990482349146777e6 0.0
2.3990482349146777e6 39371.94162225374 0.0
0.0 0.0 0.0

-4.078447874607646e6 3.189818536396912e6 0.0
3.189818536396912e6 9.995410508365365e6 0.0
0.0 0.0 0.0

-1.338010308514529e6 5.371354594640234e6 0.0
5.371354594640234e6 71919.30823813443 0.0
0.0 0.0 0.0

-55263.84600522369 6.742484921522101e6 0.0
6.742484921522101e6 -1.440352446058166e6 0.0
0.0 0.0 0.0

-2.2187278882978447e6 4.894264945241372e6 0.0
4.894264945241372e6 471498.85392873606 0.0
0.0 0.0 0.0

-1.9332203785383338e6 4.557453037603177e6 0.0
4.557453037603177e6 490301.56758184126 0.0
0.0 0.0 0.0

-2.3987514768387186e6 4.394422821163577e6 0.0
4.394422821163577e6 721334.0604478974 0.0
0.0 0.0 0.0

-476654.1473855833 2.658271849939795e6 0.0
2.658271849939795e6 148723.5233956751 0.0
0.0 0.0 0.0

-1.1817198263416113e6 3.2120166244327663e6 0.0
3.2120166244327663e6 233371.0561885428 0.0
0.0 0.0 0.0

186706.19147253217 2.5575420265490646e6 0.0
2.5575420265490646e6 -927550.5414567809 0.0
0.0 0.0 0.0

-936115.8824277096 3.423498495432652e6 0.0
3.423498495432652e6 1.6579407577053604e6 0.0
0.0 0.0 0.0

-792789.0371863465 5.425365317929244e6 0.0
5.425365317929244e6 -1.2167615199489486e6 0.0
0.0 0.0 0.0

-2.087394674073828e6 4.229296410201313e6 0.0
4.229296410201313e6 664926.1695788177 0.0
0.0 0.0 0.0

-2.7303808870538548e6 3.6593679248720333e6 0.0
3.6593679248720333e6 984330.7442090779 0.0
0.0 0.0 0.0

493523.9201958938 322290.82952819846 0.0
322290.82952819846 -778753.0633085944 0.0
0.0 0.0 0.0

-2.7705438325748974e6 4.004386287118755e6 0.0
4.004386287118755e6 837775.4146625999 0.0
0.0 0.0 0.0

-1.9001209784294541e6 3.1852170697811204e6 0.0
3.1852170697811204e6 513417.4462776093 0.0
0.0 0.0 0.0

-2.604678473532981e6 4.348689543896279e6 0.0
4.348689543896279e6 669364.3049236013 0.0
0.0 0.0 0.0

-233204.22201397503 6.742193482584098e6 0.0
6.742193482584098e6 -1.1001887692874896e6 0.0
0.0 0.0 0.0

-2.626909489165008e6 5.431281996246835e6 0.0
5.431281996246835e6 1.0350720744015666e6 0.0
0.0 0.0 0.0

398367.4547388189 5.40990041848759e6 0.0
5.40990041848759e6 -1.81453826122675e6 0.0
0.0 0.0 0.0

-758554.6410387693 3.0667095397063894e6 0.0
3.0667095397063894e6 467544.4311752184 0.0
0.0 0.0 0.0

-756476.0303586446 5.903846436998169e6 0.0
5.903846436998169e6 -982750.7269935677 0.0
0.0 0.0 0.0

-817835.1413553134 5.717129165984842e6 0.0
5.717129165984842e6 -1.1646460486986525e6 0.0
0.0 0.0 0.0

-1.8570816413518004e6 2.7434786608897834e6 0.0
2.7434786608897834e6 530205.3448934058 0.0
0.0 0.0 0.0

-1.3665094567554942e6 5.276143715142523e6 0.0
5.276143715142523e6 -48568.58527533419 0.0
0.0 0.0 0.0

-791580.1433011296 6.950805514547166e6 0.0
6.950805514547166e6 -408828.1588744166 0.0
0.0 0.0 0.0

-887720.8032475756 5.1784211160333585e6 0.0
5.1784211160333585e6 -1.1139769282425062e6 0.0
0.0 0.0 0.0

-610891.9020151558 2.77787625594272e6 0.0
2.77787625594272e6 -314423.53740534105 0.0
0.0 0.0 0.0

-395186.31747000536 6.842398579517707e6 0.0
6.842398579517707e6 -1.5196505950447577e6 0.0
0.0 0.0 0.0

-485019.9982347418 4.751070376724525e6 0.0
4.751070376724525e6 -1.2146820928077677e6 0.0
0.0 0.0 0.0

-1.4749178552801292e6 4.122428995206172e6 0.0
4.122428995206172e6 1.098449903916955e6 0.0
0.0 0.0 0.0

-1.9901992462572786e6 3.171941298419248e6 0.0
3.171941298419248e6 264618.65545272804 0.0
0.0 0.0 0.0

159057.28975740238 5.4200244947610665e6 0.0
5.4200244947610665e6 -2.0584097717903084e6 0.0
0.0 0.0 0.0

285379.096843509 3.768798794558749e6 0.0
3.768798794558749e6 -1.96618892049989e6 0.0
0.0 0.0 0.0

-1.4962052398304606e6 3.4553828099720874e6 0.0
3.4553828099720874e6 94525.43296161952 0.0
0.0 0.0 0.0

-2.864564684795427e6 3.628053600671822e6 0.0
3.628053600671822e6 1.0365397584596004e6 0.0
0.0 0.0 0.0

-80829.5835263096 1.4471061073352313e6 0.0
1.4471061073352313e6 354855.80483225273 0.0
0.0 0.0 0.0

-1.3224495335396193e6 3.315140258961525e6 0.0
3.315140258961525e6 -34563.80141623353 0.0
0.0 0.0 0.0

-1.7672556742380438e6 3.6876732669215617e6 0.0
3.6876732669215617e6 527018.3935758526 0.0
0.0 0.0 0.0

-418602.93908471003 7.97633726503863e6 0.0
7.97633726503863e6 -1.6561660210840637e6 0.0
0.0 0.0 0.0

561830.0365767616 5.629049100801804e6 0.0
5.629049100801804e6 -2.443026499825893e6 0.0
0.0 0.0 0.0

-1.643550394055224e6 3.696608153455794e6 0.0
3.696608153455794e6 393926.20762977016 0.0
0.0 0.0 0.0

-6.179823574293527e6 4.181943527696014e6 0.0
4.181943527696014e6 1.471632479958143e7 0.0
0.0 0.0 0.0

-1.9794318397294874e6 3.7178551167566204e6 0.0
3.7178551167566204e6 652287.5776814705 0.0
0.0 0.0 0.0

-2.2303016692830278e6 4.403509477343005e6 0.0
4.403509477343005e6 694318.7767480654 0.0
0.0 0.0 0.0

-515117.88876022946 6.756732658650485e6 0.0
6.756732658650485e6 -1.3893908583528392e6 0.0
0.0 0.0 0.0

-3.0056161451391988e6 4.206062933192332e6 0.0
4.206062933192332e6 1.2775347139022104e6 0.0
0.0 0.0 0.0

-2.7765557166012265e6 3.6354691038587186e6 0.0
3.6354691038587186e6 1.0339234644186773e6 0.0
0.0 0.0 0.0

-1.6962871765069985e6 6.1152912851024885e6 0.0
6.1152912851024885e6 1.4339224945557674e6 0.0
0.0 0.0 0.0

1.1864806296804328e6 2.244655627140981e6 0.0
2.244655627140981e6 -2.0711500502703052e6 0.0
0.0 0.0 0.0

-650522.1139454432 7.087238527019531e6 0.0
7.087238527019531e6 -843224.8787265645 0.0
0.0 0.0 0.0

658443.1300130631 4.803910734305976e6 0.0
4.803910734305976e6 -2.5502579001082703e6 0.0
0.0 0.0 0.0

-191066.7876907269 2.6959186834831936e6 0.0
2.6959186834831936e6 -342907.85883650836 0.0
0.0 0.0 0.0

-2.443137583516898e6 3.7793549574776688e6 0.0
3.7793549574776688e6 871162.8069041674 0.0
0.0 0.0 0.0

-1.8261150651888016e6 3.266506529896268e6 0.0
3.266506529896268e6 412576.42057096923 0.0
0.0 0.0 0.0

243019.81191385793 6.266702231110181e6 0.0
6.266702231110181e6 -2.154853295125407e6 0.0
0.0 0.0 0.0

-932911.1313676052 5.543857917077102e6 0.0
5.543857917077102e6 -1.1192565365339767e6 0.0
0.0 0.0 0.0

-2.475713350874966e6 4.37921236411943e6 0.0
4.37921236411943e6 880892.6299444056 0.0
0.0 0.0 0.0

-366705.7196955412 2.2772278956308337e6 0.0
2.2772278956308337e6 595708.6647095468 0.0
0.0 0.0 0.0

-1.3029839833655083e6 3.37950869202457e6 0.0
3.37950869202457e6 578320.8503179956 0.0
0.0 0.0 0.0

-130342.80292273292 2.4944862723594387e6 0.0
2.4944862723594387e6 -276889.4324923677 0.0
0.0 0.0 0.0

-1.8039251982938733e6 3.1276364640221815e6 0.0
3.1276364640221815e6 422138.78052901325 0.0
0.0 0.0 0.0

-2.4919017230640994e6 4.318393593012749e6 0.0
4.318393593012749e6 843887.9368853983 0.0
0.0 0.0 0.0

-2.1804748219758263e6 3.026887000299722e6 0.0
3.026887000299722e6 617721.1117006079 0.0
0.0 0.0 0.0

-3.108005194279236e6 3.8105156759704156e6 0.0
3.8105156759704156e6 1.1759673047252502e6 0.0
0.0 0.0 0.0

-224376.62708930482 2.885956116092095e6 0.0
2.885956116092095e6 -496629.40854788467 0.0
0.0 0.0 0.0

-1.2036576607173304e6 3.2014619181271307e6 0.0
3.2014619181271307e6 91965.9561335147 0.0
0.0 0.0 0.0

-2.960487983407347e6 3.6352761645347797e6 0.0
3.6352761645347797e6 1.075213802951337e6 0.0
0.0 0.0 0.0

-830596.6482235664 7.206509453408948e6 0.0
7.206509453408948e6 -609544.7983482087 0.0
0.0 0.0 0.0

-1.1290396753964776e6 3.5961013569355807e6 0.0
3.5961013569355807e6 2.0301501917605684e6 0.0
0.0 0.0 0.0

-1.8020680993350944e6 3.3016596124245347e6 0.0
3.3016596124245347e6 402621.1115452881 0.0
0.0 0.0 0.0

-648656.0013414804 7.474771653439032e6 0.0
7.474771653439032e6 -409055.41980754625 0.0
0.0 0.0 0.0

-1.7018163637631147e6 3.572463412137887e6 0.0
3.572463412137887e6 330447.6754791497 0.0
0.0 0.0 0.0

-1.2868282617284723e6 3.334568864549886e6 0.0
3.334568864549886e6 432906.3946414862 0.0
0.0 0.0 0.0

-947179.1220139062 3.087613854972537e6 0.0
3.087613854972537e6 -229515.0511041233 0.0
0.0 0.0 0.0

-3.0379243622025335e6 3.6885417482201075e6 0.0
3.6885417482201075e6 1.1152394129722863e6 0.0
0.0 0.0 0.0

362385.9927423238 6.005912001851167e6 0.0
6.005912001851167e6 -1.1936080431486252e6 0.0
0.0 0.0 0.0

-21802.47123618197 6.498351432760777e6 0.0
6.498351432760777e6 -1.3288626585358917e6 0.0
0.0 0.0 0.0

-2.1892896912087337e6 4.786501264576084e6 0.0
4.786501264576084e6 586558.4676456338 0.0
0.0 0.0 0.0

-851691.2402687015 2.104209731947214e6 0.0
2.104209731947214e6 -593214.5598068566 0.0
0.0 0.0 0.0

-105320.88919296174 7.354752346274736e6 0.0
7.354752346274736e6 -2.090598553441439e6 0.0
0.0 0.0 0.0

-3.460503229393288e6 4.608866214902019e6 0.0
4.608866214902019e6 1.4180616503574476e6 0.0
0.0 0.0 0.0

-2.8601072647457165e6 4.256631671483474e6 0.0
4.256631671483474e6 1.1848076367920598e6 0.0
0.0 0.0 0.0

-1.8819275639375357e6 3.681762602604966e6 0.0
3.681762602604966e6 106786.91054047632 0.0
0.0 0.0 0.0

-583098.5218589626 4.285564071117245e6 0.0
4.285564071117245e6 -1.5588950545151753e6 0.0
0.0 0.0 0.0

-3.1695681387620065e6 3.8776095516971983e6 0.0
3.8776095516971983e6 1.0346462124977554e6 0.0
0.0 0.0 0.0

-1.3692668294530497e6 3.37562510135987e6 0.0
3.37562510135987e6 855770.2750626629 0.0
0.0 0.0 0.0

1.7494402536367753e6 1.8306729428983945e6 0.0
1.8306729428983945e6 -2.8191443261901615e6 0.0
0.0 0.0 0.0

-3.5971096077780407e6 5.444581021129628e6 0.0
5.444581021129628e6 1.7170149825187265e6 0.0
0.0 0.0 0.0

-1.0141491296696278e6 5.461509297095532e6 0.0
5.461509297095532e6 -89316.22733201855 0.0
0.0 0.0 0.0

-2.683996804037641e6 4.332476806221862e6 0.0
4.332476806221862e6 1.0731572725731782e6 0.0
0.0 0.0 0.0

-826715.8459937238 5.953133649646803e6 0.0
5.953133649646803e6 -1.1131768040923122e6 0.0
0.0 0.0 0.0

-3.1692272525684405e6 3.8625066182332514e6 0.0
3.8625066182332514e6 1.266697859144303e6 0.0
0.0 0.0 0.0

-1.8595612239288967e6 4.707211373019643e6 0.0
4.707211373019643e6 903035.5659312102 0.0
0.0 0.0 0.0

-3.1422826060918868e6 4.253697560429727e6 0.0
4.253697560429727e6 1.2059293239787174e6 0.0
0.0 0.0 0.0

-3.5137623269175286e6 7.323638612828735e6 0.0
7.323638612828735e6 1.6400128331143616e6 0.0
0.0 0.0 0.0

-894770.5965344794 3.055998670913665e6 0.0
3.055998670913665e6 521098.466205753 0.0
0.0 0.0 0.0

-177936.79093913268 6.8398662559756255e6 0.0
6.8398662559756255e6 -1.7762426743364441e6 0.0
0.0 0.0 0.0

-728162.8704835129 2.8686901964592347e6 0.0
2.8686901964592347e6 355790.3904672785 0.0
0.0 0.0 0.0

-1.0212948204173327e6 3.0635864051243756e6 0.0
3.0635864051243756e6 -226704.96808531554 0.0
0.0 0.0 0.0

-600072.2856575786 -698198.075267399 0.0
-698198.075267399 1.1513801951631627e6 0.0
0.0 0.0 0.0

-846049.0904324611 -154370.16223623895 0.0
-154370.16223623895 1.0512943638785053e6 0.0
0.0 0.0 0.0

-1.0770080031597014e6 3.1134058925681207e6 0.0
3.1134058925681207e6 708923.7705509956 0.0
0.0 0.0 0.0

417540.38029661775 4.947694050111783e6 0.0
4.947694050111783e6 -1.493740434129451e6 0.0
0.0 0.0 0.0

-2.8287846930589974e6 4.943999439555762e6 0.0
4.943999439555762e6 1.1458561229741657e6 0.0
0.0 0.0 0.0

-1.7859604505987668e6 3.7918428330738163e6 0.0
3.7918428330738163e6 236985.98036183172 0.0
0.0 0.0 0.0

-462400.80294202693 7.091265088283031e6 0.0
7.091265088283031e6 -1.6561436347717685e6 0.0
0.0 0.0 0.0

-1.0230989901015253e6 6.266945965843348e6 0.0
6.266945965843348e6 598759.3287894744 0.0
0.0 0.0 0.0

-3.3493807917737653e6 3.8796171635192097e6 0.0
3.8796171635192097e6 1.0243567819919549e6 0.0
0.0 0.0 0.0

-3.5589572462800997e6 4.715107657859945e6 0.0
4.715107657859945e6 1.420076478937669e6 0.0
0.0 0.0 0.0

-3.7491020073740897e6 4.939683423277817e6 0.0
4.939683423277817e6 1.4107528269011308e6 0.0
0.0 0.0 0.0

-1.6117218766916343e6 3.5428033494552593e6 0.0
3.5428033494552593e6 541089.9785611145 0.0
0.0 0.0 0.0

-1.4939733009802634e6 3.5312540683061173e6 0.0
3.5312540683061173e6 133170.39178969368 0.0
0.0 0.0 0.0

-1.068098503536598e6 3.1679561357249813e6 0.0
3.1679561357249813e6 -270621.1884195155 0.0
0.0 0.0 0.0

-2.1175178339114273e6 4.126562578993636e6 0.0
4.126562578993636e6 837411.0168633682 0.0
0.0 0.0 0.0

-1.471201959937026e6 3.516171670809962e6 0.0
3.516171670809962e6 158968.29058608698 0.0
0.0 0.0 0.0

-1.1088941025815345e6 3.1163444773990526e6 0.0
3.1163444773990526e6 745651.5626961804 0.0
0.0 0.0 0.0

-561344.3118209068 6.833322592942402e6 0.0
6.833322592942402e6 -1.5609284892363078e6 0.0
0.0 0.0 0.0

-1.870123856784325e6 3.6919846516819657e6 0.0
3.6919846516819657e6 671050.1090633051 0.0
0.0 0.0 0.0

-933040.5192892607 3.1868904664144544e6 0.0
3.1868904664144544e6 409721.51958427427 0.0
0.0 0.0 0.0

-2.6109019854442147e6 5.80748644623348e6 0.0
5.80748644623348e6 1.2765022884611883e6 0.0
0.0 0.0 0.0

-1.692965272147247e6 3.4619043309518117e6 0.0
3.4619043309518117e6 370413.5878928709 0.0
0.0 0.0 0.0

-3.236255171266901e6 3.925859516944839e6 0.0
3.925859516944839e6 1.2573307366086254e6 0.0
0.0 0.0 0.0

-3.07278881986855e6 3.776996954725861e6 0.0
3.776996954725861e6 1.2333449900023674e6 0.0
0.0 0.0 0.0

-1.9156451152309303e6 4.680726685783758e6 0.0
4.680726685783758e6 788690.561647023 0.0
0.0 0.0 0.0

-727142.1025749238 4.652560339293049e6 0.0
4.652560339293049e6 -1.4004852866188085e6 0.0
0.0 0.0 0.0

-2.165311588080506e6 3.914985441999513e6 0.0
3.914985441999513e6 766179.9859284427 0.0
0.0 0.0 0.0

-1.4728638747341037e6 3.4443736210567853e6 0.0
3.4443736210567853e6 881036.6866574647 0.0
0.0 0.0 0.0

-1.6220431750113983e6 3.640145199377111e6 0.0
3.640145199377111e6 169762.04883845383 0.0
0.0 0.0 0.0

-3.149154388006801e6 6.075034315859232e6 0.0
6.075034315859232e6 1.3756409702656392e6 0.0
0.0 0.0 0.0

-1.9744066523456927e6 4.681088119553257e6 0.0
4.681088119553257e6 739089.1300010817 0.0
0.0 0.0 0.0

-1.7703842686752456e6 3.8123817114084307e6 0.0
3.8123817114084307e6 -106263.6314282004 0.0
0.0 0.0 0.0

-197295.33932962973 6.3274588790044375e6 0.0
6.3274588790044375e6 -1.5578987364351775e6 0.0
0.0 0.0 0.0

-1.6398782248382806e6 3.6422746826085043e6 0.0
3.6422746826085043e6 486181.2361411223 0.0
0.0 0.0 0.0

-792152.796208218 7.057320896389722e6 0.0
7.057320896389722e6 -298980.9718710015 0.0
0.0 0.0 0.0

1.6802304489178276e6 1.835225756603026e6 0.0
1.835225756603026e6 -1.6639532323096786e6 0.0
0.0 0.0 0.0

-105488.56217244768 5.680720581461648e6 0.0
5.680720581461648e6 -1.9463944497396864e6 0.0
0.0 0.0 0.0

-1.0652423826884858e6 4.270066446823132e6 0.0
4.270066446823132e6 -508332.1921269836 0.0
0.0 0.0 0.0

113452.91769824356 3.674333024218288e6 0.0
3.674333024218288e6 92691.85240160348 0.0
0.0 0.0 0.0

-310045.5490454575 6.279260727532272e6 0.0
6.279260727532272e6 -1.4765857707617085e6 0.0
0.0 0.0 0.0

-412924.3946206269 6.073506170011206e6 0.0
6.073506170011206e6 -1.6893552661846573e6 0.0
0.0 0.0 0.0

-683171.930646448 5.309822343940011e6 0.0
5.309822343940011e6 -949965.1875046757 0.0
0.0 0.0 0.0

-461492.6844571427 2.387911024921229e6 0.0
2.387911024921229e6 464939.21276592265 0.0
0.0 0.0 0.0

-819982.3334409047 3.256689034013765e6 0.0
3.256689034013765e6 -274347.2677977451 0.0
0.0 0.0 0.0

-767379.9113509706 4.0453850528488355e6 0.0
4.0453850528488355e6 -2.0099879632622625e6 0.0
0.0 0.0 0.0

-1.3883900059690475e6 3.441009389156881e6 0.0
3.441009389156881e6 105374.6902132919 0.0
0.0 0.0 0.0

-532962.2960376368 2.630854816643578e6 0.0
2.630854816643578e6 -23616.910827817715 0.0
0.0 0.0 0.0

-950081.4157466445 4.520550684892584e6 0.0
4.520550684892584e6 -415943.83842436445 0.0
0.0 0.0 0.0

568964.9379585586 43614.62212802522 0.0
43614.62212802522 -1.245519329831512e6 0.0
0.0 0.0 0.0

-1.644581227138102e6 3.658183976631472e6 0.0
3.658183976631472e6 465235.0775517812 0.0
0.0 0.0 0.0

-2.400495198578017e6 4.508207122514024e6 0.0
4.508207122514024e6 740543.8428795873 0.0
0.0 0.0 0.0

-756707.7198108662 6.870902084601995e6 0.0
6.870902084601995e6 -982152.0201610227 0.0
0.0 0.0 0.0

397402.3688009775 790782.1571102171 0.0
790782.1571102171 -1.1299279107566606e6 0.0
0.0 0.0 0.0

-1.01476647593757e6 3.124496156380352e6 0.0
3.124496156380352e6 -291002.9539309458 0.0
0.0 0.0 0.0

32618.245465830318 3.5706026043946594e6 0.0
3.5706026043946594e6 -1.9755041593950554e6 0.0
0.0 0.0 0.0

-2.839738468415773e6 6.901136431187757e6 0.0
6.901136431187757e6 1.2130765686180915e6 0.0
0.0 0.0 0.0

-1.7162351952558917e6 1.3184381517527625e6 0.0
1.3184381517527625e6 3.402187975330047e6 0.0
0.0 0.0 0.0

-1.290926061426754e6 4.2230697421383355e6 0.0
4.2230697421383355e6 203818.30082573713 0.0
0.0 0.0 0.0

-699799.8910064639 2.715718805662517e6 0.0
2.715718805662517e6 204927.46350380132 0.0
0.0 0.0 0.0

-4.449777956152001e6 3.851495337006816e6 0.0
3.851495337006816e6 4.1221969668898927e6 0.0
0.0 0.0 0.0

-1.0119603428443046e6 5.792519990115292e6 0.0
5.792519990115292e6 -20246.869271625823 0.0
0.0 0.0 0.0

-316895.39981222263 6.03955299357773e6 0.0
6.03955299357773e6 -574337.2214225078 0.0
0.0 0.0 0.0

62358.16358600487 5.666466995238752e6 0.0
5.666466995238752e6 -1.91385872871367e6 0.0
0.0 0.0 0.0

-2.538614499690093e6 2.3897573579106373e6 0.0
2.3897573579106373e6 933296.1505908741 0.0
0.0 0.0 0.0

-4.639206459087299e6 8.122852760927974e6 0.0
8.122852760927974e6 1.2573278158708778e6 0.0
0.0 0.0 0.0

-1.6683017458647084e6 3.596853678990086e6 0.0
3.596853678990086e6 617460.4473070821 0.0
0.0 0.0 0.0

400209.54937536945 -60450.763243256944 0.0
-60450.763243256944 -904383.050288664 0.0
0.0 0.0 0.0

-670517.5375904655 5.567755432774303e6 0.0
5.567755432774303e6 -384402.1921648986 0.0
0.0 0.0 0.0

-3.9188396199503215e6 4.760355842596228e6 0.0
4.760355842596228e6 2.9619556958027007e6 0.0
0.0 0.0 0.0

-901808.5558775789 3.122196796385011e6 0.0
3.122196796385011e6 -151480.92439844116 0.0
0.0 0.0 0.0

-1.1691838129191576e6 5.371957052380196e6 0.0
5.371957052380196e6 2.1553074794059363e6 0.0
0.0 0.0 0.0

-1.220918684087475e6 3.208555846734062e6 0.0
3.208555846734062e6 245302.12261961086 0.0
0.0 0.0 0.0

-1.0506001844556413e6 3.0450900078604035e6 0.0
3.0450900078604035e6 -126439.59640959254 0.0
0.0 0.0 0.0

-519124.6175404908 1.4218323047965118e6 0.0
1.4218323047965118e6 1.7705990892377892e6 0.0
0.0 0.0 0.0

-632368.7366380688 5.642141282379088e6 0.0
5.642141282379088e6 -249858.24090358184 0.0
0.0 0.0 0.0

-2.612897340469363e6 4.561288589438873e6 0.0
4.561288589438873e6 562656.8364339658 0.0
0.0 0.0 0.0

-4.013874439435237e6 5.226691799182311e6 0.0
5.226691799182311e6 1.6197035856911128e6 0.0
0.0 0.0 0.0

-1.9962887269371436e6 3.8428689210214177e6 0.0
3.8428689210214177e6 737215.2610461629 0.0
0.0 0.0 0.0

1.9385703574475977e6 1.1457363276634775e6 0.0
1.1457363276634775e6 -1.8814080082861246e6 0.0
0.0 0.0 0.0

-574578.4744984664 6.709109672196946e6 0.0
6.709109672196946e6 -1.7330904664187282e6 0.0
0.0 0.0 0.0

-77431.91755949392 4.802260363619785e6 0.0
4.802260363619785e6 -1.9690080077293897e6 0.0
0.0 0.0 0.0

-1.4582723116671476e6 3.582530142599712e6 0.0
3.582530142599712e6 183965.8451850557 0.0
0.0 0.0 0.0

-7.8033496404466145e6 7.342207086922922e6 0.0
7.342207086922922e6 3.437326773437673e6 0.0
0.0 0.0 0.0

107721.74980021009 2.7578853242830345e6 0.0
2.7578853242830345e6 -603154.1372295449 0.0
0.0 0.0 0.0

-2.645021926621529e6 5.715395690303743e6 0.0
5.715395690303743e6 1.0621999270539759e6 0.0
0.0 0.0 0.0

-977557.0533046472 6.922200507824554e6 0.0
6.922200507824554e6 -100305.21126865473 0.0
0.0 0.0 0.0

-1.051210324306094e6 3.141975807607034e6 0.0
3.141975807607034e6 -127576.11448999032 0.0
0.0 0.0 0.0

-275095.7429915023 4.0852592913073553e6 0.0
4.0852592913073553e6 -1.60478386358917e6 0.0
0.0 0.0 0.0

-951655.4481656462 3.8459077779550613e6 0.0
3.8459077779550613e6 2.3198760993669583e6 0.0
0.0 0.0 0.0

-939127.5745729345 5.925022031973008e6 0.0
5.925022031973008e6 1.0159734424106161e6 0.0
0.0 0.0 0.0

-422221.2932430304 5.788254599237753e6 0.0
5.788254599237753e6 -589154.3036221755 0.0
0.0 0.0 0.0

-1.223002449387037e6 3.1961388349794517e6 0.0
3.1961388349794517e6 103913.44330186187 0.0
0.0 0.0 0.0

-6.614902625719484e6 6.7119821462536715e6 0.0
6.7119821462536715e6 2.702064874148604e6 0.0
0.0 0.0 0.0

-6.3609892872733725e6 3.809872489797641e6 0.0
3.809872489797641e6 4.7259536648825e6 0.0
0.0 0.0 0.0

-1.0767643868371334e6 3.0455984822578398e6 0.0
3.0455984822578398e6 16051.782197598834 0.0
0.0 0.0 0.0

-514911.7197342512 4.502143057862376e6 0.0
4.502143057862376e6 -1.9784611928336532e6 0.0
0.0 0.0 0.0

519855.45389757026 5.806107028888483e6 0.0
5.806107028888483e6 -2.398828643856143e6 0.0
0.0 0.0 0.0

-812305.5675025897 6.688360931675475e6 0.0
6.688360931675475e6 -1.0512247417129874e6 0.0
0.0 0.0 0.0

-567859.7818378634 7.022242323638576e6 0.0
7.022242323638576e6 -1.6948530233051332e6 0.0
0.0 0.0 0.0

-861468.8874854378 6.8901536271584015e6 0.0
6.8901536271584015e6 -938301.5607924851 0.0
0.0 0.0 0.0

-8.96080634832553e6 8.89792037487924e6 0.0
8.89792037487924e6 2.6748348027012493e6 0.0
0.0 0.0 0.0

-2.488169806269467e6 3.5588575964722787e6 0.0
3.5588575964722787e6 963120.608917996 0.0
0.0 0.0 0.0

-889375.6074297809 7.022581535038081e6 0.0
7.022581535038081e6 -687681.287646669 0.0
0.0 0.0 0.0

-838019.2950068007 6.815323837249643e6 0.0
6.815323837249643e6 -736732.8598955153 0.0
0.0 0.0 0.0

-302151.734125869 8.025231966500333e6 0.0
8.025231966500333e6 -2.0034083648665475e6 0.0
0.0 0.0 0.0

-2.109596338007445e6 4.163839268147587e6 0.0
4.163839268147587e6 771215.8479540896 0.0
0.0 0.0 0.0

-417256.3523744278 5.703420648993134e6 0.0
5.703420648993134e6 -420025.24334959034 0.0
0.0 0.0 0.0

-1.5269304791032532e6 5.186828025952962e6 0.0
5.186828025952962e6 173061.21585538407 0.0
0.0 0.0 0.0

-6.379536124110734e6 -1.8905844037647482e6 0.0
-1.8905844037647482e6 1.429413947028506e7 0.0
0.0 0.0 0.0

686463.9993213724 549421.9970371363 0.0
549421.9970371363 -919231.0013782894 0.0
0.0 0.0 0.0

-1.840073512052547e7 2.1516211188693203e7 0.0
2.1516211188693203e7 -566241.1121788593 0.0
0.0 0.0 0.0

-140303.3557583504 6.179797186989818e6 0.0
6.179797186989818e6 -497325.3845567587 0.0
0.0 0.0 0.0

-5.916925522845069e6 6.321831855732038e6 0.0
6.321831855732038e6 2.580316057251786e6 0.0
0.0 0.0 0.0

-697110.3900912441 4.63309152854474e6 0.0
4.63309152854474e6 -772844.0981458144 0.0
0.0 0.0 0.0

-834412.9013140126 6.5430754942785185e6 0.0
6.5430754942785185e6 -843679.5547760773 0.0
0.0 0.0 0.0

-2.4901200703593697e6 4.023026200785432e6 0.0
4.023026200785432e6 904359.2603918591 0.0
0.0 0.0 0.0

683597.7071291584 7.003546941830034e6 0.0
7.003546941830034e6 -2.3884313625727296e6 0.0
0.0 0.0 0.0

2579.3010184454615 6.991651631613622e6 0.0
6.991651631613622e6 -1.1448870215527369e6 0.0
0.0 0.0 0.0

-544858.7744537423 6.27928640643085e6 0.0
6.27928640643085e6 -1.6794674257882733e6 0.0
0.0 0.0 0.0

-621938.0536575933 7.568568454510958e6 0.0
7.568568454510958e6 -613950.9299810756 0.0
0.0 0.0 0.0

104958.9160348709 5.72907992702113e6 0.0
5.72907992702113e6 -2.0064180114618095e6 0.0
0.0 0.0 0.0

-1.8694580698887755e6 3.743173951604852e6 0.0
3.743173951604852e6 612057.4865041841 0.0
0.0 0.0 0.0

1.7058556521542966e6 1.531563828724823e6 0.0
1.531563828724823e6 -2.8784530484714895e6 0.0
0.0 0.0 0.0

-1.4157259195240482e6 2.3546907675592895e6 0.0
2.3546907675592895e6 99488.49757514254 0.0
0.0 0.0 0.0

-2.5757898386611827e6 6.198114577126493e6 0.0
6.198114577126493e6 176522.89171605255 0.0
0.0 0.0 0.0

-381105.71894527035 6.111907162935282e6 0.0
6.111907162935282e6 -1.7562796549390156e6 0.0
0.0 0.0 0.0

-1.912176117195179e6 2.6821035570888803e6 0.0
2.6821035570888803e6 358753.29890236584 0.0
0.0 0.0 0.0

-1.1084322496574626e6 5.762283627516907e6 0.0
5.762283627516907e6 -479198.45898104284 0.0
0.0 0.0 0.0

-628822.6127761053 5.3080247366211135e6 0.0
5.3080247366211135e6 325465.3198433743 0.0
0.0 0.0 0.0

-688877.311494637 5.369482977149515e6 0.0
5.369482977149515e6 -1.0523723805973511e6 0.0
0.0 0.0 0.0

-1.387942690525612e6 3.4781055148872933e6 0.0
3.4781055148872933e6 51756.771161798795 0.0
0.0 0.0 0.0

-340371.8197324262 2.649824539016425e6 0.0
2.649824539016425e6 22203.70750403509 0.0
0.0 0.0 0.0

-827239.2811550573 5.079960044822901e6 0.0
5.079960044822901e6 22115.502426256426 0.0
0.0 0.0 0.0

-1.345256505566721e6 3.313232980186606e6 0.0
3.313232980186606e6 477628.3629708196 0.0
0.0 0.0 0.0

-364348.30615983706 1.729144987895214e6 0.0
1.729144987895214e6 -47558.94295383933 0.0
0.0 0.0 0.0

-1.5827784046965642e6 3.563495142293249e6 0.0
3.563495142293249e6 624677.7380861329 0.0
0.0 0.0 0.0

-1.8700817854000241e6 4.618514338257034e6 0.0
4.618514338257034e6 822028.5610779738 0.0
0.0 0.0 0.0

308783.00135414005 2.8133197036550567e6 0.0
2.8133197036550567e6 -557044.9604886341 0.0
0.0 0.0 0.0

-903165.304915429 6.38286100226957e6 0.0
6.38286100226957e6 -646878.9466169516 0.0
0.0 0.0 0.0

-2.5688855784762087e6 3.676049387684263e6 0.0
3.676049387684263e6 931570.8344473816 0.0
0.0 0.0 0.0

-1.424749783134684e6 3.326195313685407e6 0.0
3.326195313685407e6 691942.250461631 0.0
0.0 0.0 0.0

-396435.6033795657 -109282.93932238517 0.0
-109282.93932238517 526172.4802741243 0.0
0.0 0.0 0.0

-866488.9522196983 5.470850540678627e6 0.0
5.470850540678627e6 -233241.85963222437 0.0
0.0 0.0 0.0

-1.0087091669085093e6 3.037927952939354e6 0.0
3.037927952939354e6 19428.76908776426 0.0
0.0 0.0 0.0

-449431.91404218576 5.173394481217917e6 0.0
5.173394481217917e6 -2.0603277229838695e6 0.0
0.0 0.0 0.0

-1.2225962389927604e6 4.1727269641913045e6 0.0
4.1727269641913045e6 2.669844253291241e6 0.0
0.0 0.0 0.0

-965694.2515276894 3.1887819184414754e6 0.0
3.1887819184414754e6 515566.01860136265 0.0
0.0 0.0 0.0

-277866.16299340467 4.489669192137049e6 0.0
4.489669192137049e6 -2.0440437684361238e6 0.0
0.0 0.0 0.0

528738.6937124801 5.592944881554319e6 0.0
5.592944881554319e6 -2.057614933604957e6 0.0
0.0 0.0 0.0

-514655.83039445966 5.728850542694785e6 0.0
5.728850542694785e6 201765.23972493035 0.0
0.0 0.0 0.0

-756682.0230841255 5.274014443686788e6 0.0
5.274014443686788e6 936665.5377167186 0.0
0.0 0.0 0.0

-1.2000142186448665e6 3.052179520207543e6 0.0
3.052179520207543e6 -218729.19375040845 0.0
0.0 0.0 0.0

-2.0890859829181484e6 4.698594948252518e6 0.0
4.698594948252518e6 725283.2958213766 0.0
0.0 0.0 0.0

-4.678788174277831e6 5.694653823252348e6 0.0
5.694653823252348e6 1.919207083118096e6 0.0
0.0 0.0 0.0

-820855.7066422802 6.134685058402178e6 0.0
6.134685058402178e6 -1.0335619465253113e6 0.0
0.0 0.0 0.0

551428.7115371032 589985.8416395172 0.0
589985.8416395172 -824451.9604161858 0.0
0.0 0.0 0.0

-576449.2154185807 5.454937136723938e6 0.0
5.454937136723938e6 -1.795473483244335e6 0.0
0.0 0.0 0.0

-1.9412971903683054e6 3.9881016738521047e6 0.0
3.9881016738521047e6 1.0332968268951988e6 0.0
0.0 0.0 0.0

-782473.2313259669 2.9514935687756957e6 0.0
2.9514935687756957e6 403850.35354804236 0.0
0.0 0.0 0.0

-119508.30102747194 6.292274206222104e6 0.0
6.292274206222104e6 -486595.2750610803 0.0
0.0 0.0 0.0

-262819.22794991394 4.529078444855348e6 0.0
4.529078444855348e6 -2.0420898934734701e6 0.0
0.0 0.0 0.0

-392618.12827232067 5.472048162368088e6 0.0
5.472048162368088e6 -2.053369132732741e6 0.0
0.0 0.0 0.0

-4.778660952228916e6 8.98594527388389e6 0.0
8.98594527388389e6 1.2729814361799469e6 0.0
0.0 0.0 0.0

-2.6108595203011734e6 3.4743016761377347e6 0.0
3.4743016761377347e6 1.0162189272423827e6 0.0
0.0 0.0 0.0

-2.6013847165819835e6 3.9224799694783776e6 0.0
3.9224799694783776e6 936524.3297068154 0.0
0.0 0.0 0.0

-2.858574461912821e6 3.869506502868087e6 0.0
3.869506502868087e6 1.0308187332090408e6 0.0
0.0 0.0 0.0

694478.1358458906 4.732421440990325e6 0.0
4.732421440990325e6 -2.770353710154988e6 0.0
0.0 0.0 0.0

-545487.7398577608 3.722021439463358e6 0.0
3.722021439463358e6 -1.5923300204197909e6 0.0
0.0 0.0 0.0

-1.9359136553520586e6 3.84155613921206e6 0.0
3.84155613921206e6 943708.461934696 0.0
0.0 0.0 0.0

-901076.4064810437 7.062717191378088e6 0.0
7.062717191378088e6 -619461.5970739916 0.0
0.0 0.0 0.0

-4.449826773199333e6 5.541304117542679e6 0.0
5.541304117542679e6 1.7744964687263183e6 0.0
0.0 0.0 0.0

-178708.5819613536 2.91920828608229e6 0.0
2.91920828608229e6 -359900.06065291085 0.0
0.0 0.0 0.0

-895150.4165659035 2.823401011263046e6 0.0
2.823401011263046e6 271602.3457585034 0.0
0.0 0.0 0.0

-4.265898612531778e6 5.343552327277398e6 0.0
5.343552327277398e6 1.7206660358347178e6 0.0
0.0 0.0 0.0

-1.3876205660986847e6 5.270699779729449e6 0.0
5.270699779729449e6 -342622.18894692167 0.0
0.0 0.0 0.0

91884.31148278131 7.686255475721945e6 0.0
7.686255475721945e6 -1.448498077509727e6 0.0
0.0 0.0 0.0

-1.4484800323503143e6 3.5448582812481457e6 0.0
3.5448582812481457e6 244896.22854542115 0.0
0.0 0.0 0.0

-192052.92362042394 4.265892744887271e6 0.0
4.265892744887271e6 -1.99674177570191e6 0.0
0.0 0.0 0.0

-3.4552028915650602e6 4.060866008709329e6 0.0
4.060866008709329e6 1.3197919881071325e6 0.0
0.0 0.0 0.0

-1.0492545705439646e6 5.41959611875228e6 0.0
5.41959611875228e6 -85569.89428406133 0.0
0.0 0.0 0.0

-518595.9716913132 4.197792141927769e6 0.0
4.197792141927769e6 -1.9131202696956724e6 0.0
0.0 0.0 0.0

-2.499440172090743e6 4.1936878780882824e6 0.0
4.1936878780882824e6 788718.8403013868 0.0
0.0 0.0 0.0

-731378.7294842377 3.2073135407418767e6 0.0
3.2073135407418767e6 319755.7542401885 0.0
0.0 0.0 0.0

-68088.01963113464 5.141907926772499e6 0.0
5.141907926772499e6 -1.4410193275467632e6 0.0
0.0 0.0 0.0

-921719.4397571813 4.204253994405201e6 0.0
4.204253994405201e6 -346546.7647812861 0.0
0.0 0.0 0.0

-2.2912898105423157e6 3.989691571129105e6 0.0
3.989691571129105e6 865052.7569340632 0.0
0.0 0.0 0.0

-536517.1890510045 4.0035564159424617e6 0.0
4.0035564159424617e6 -1.8523901554395445e6 0.0
0.0 0.0 0.0

-1.0711718780284215e7 1.105572945878164e7 0.0
1.105572945878164e7 2.951583457751968e6 0.0
0.0 0.0 0.0

-1.2035892243582224e6 3.2112527005596887e6 0.0
3.2112527005596887e6 836741.4591717892 0.0
0.0 0.0 0.0

-503104.23453786527 4.489956923977702e6 0.0
4.489956923977702e6 -2.0916328654668543e6 0.0
0.0 0.0 0.0

-922367.3702604198 3.2105917920543314e6 0.0
3.2105917920543314e6 -261969.1348313779 0.0
0.0 0.0 0.0

-1.6858606858691198e6 3.6074077620993988e6 0.0
3.6074077620993988e6 555156.8626082714 0.0
0.0 0.0 0.0

-1.1994053359878017e6 3.2133885601685895e6 0.0
3.2133885601685895e6 2.9705173132604426e6 0.0
0.0 0.0 0.0

-1.3721519137203163e6 3.4288748081353013e6 0.0
3.4288748081353013e6 126506.0211395442 0.0
0.0 0.0 0.0

-8.058576532171728e6 2.5179731151611917e6 0.0
2.5179731151611917e6 1.0587513232374817e7 0.0
0.0 0.0 0.0

-1.7600968637979517e6 3.710365979773181e6 0.0
3.710365979773181e6 545043.0980605752 0.0
0.0 0.0 0.0

-668923.5332696019 4.661420718797447e6 0.0
4.661420718797447e6 -1.4931096234231093e6 0.0
0.0 0.0 0.0

-810361.7854369527 6.373486482940392e6 0.0
6.373486482940392e6 -885928.0692412333 0.0
0.0 0.0 0.0

1.02337030931277e7 8.708310373021187e6 0.0
8.708310373021187e6 670892.4864293323 0.0
0.0 0.0 0.0

111696.0292413635 50289.0229805652 0.0
50289.0229805652 -333920.66766482766 0.0
0.0 0.0 0.0

570409.0119441884 5.753324665893288e6 0.0
5.753324665893288e6 -2.416247150687672e6 0.0
0.0 0.0 0.0

309181.0115368422 1.376278082900905e6 0.0
1.376278082900905e6 -1.0217960221313119e6 0.0
0.0 0.0 0.0

-2.7218538869788228e6 3.8818918385883723e6 0.0
3.8818918385883723e6 930630.1901126832 0.0
0.0 0.0 0.0

32994.50709590013 -936777.1350929319 0.0
-936777.1350929319 374158.5711142204 0.0
0.0 0.0 0.0

-538545.1377097379 4.272433124009513e6 0.0
4.272433124009513e6 -2.020647369207706e6 0.0
0.0 0.0 0.0

-684423.4551978445 2.851185244361779e6 0.0
2.851185244361779e6 325907.1775940883 0.0
0.0 0.0 0.0

-1.4885295492003032e6 3.368648967567573e6 0.0
3.368648967567573e6 880521.661074949 0.0
0.0 0.0 0.0

518106.0406727522 5.841401208654731e6 0.0
5.841401208654731e6 -2.3562480436673625e6 0.0
0.0 0.0 0.0

-823839.9413995254 6.896512571575804e6 0.0
6.896512571575804e6 -1.0224240289861078e6 0.0
0.0 0.0 0.0

-5.085467025057981e6 5.749434163202656e6 0.0
5.749434163202656e6 2.4628310307331933e6 0.0
0.0 0.0 0.0

-401142.2728182682 4.0768205698680566e6 0.0
4.0768205698680566e6 -1.3289602855321872e6 0.0
0.0 0.0 0.0

-1.5515790654784108e6 5.986421225970362e6 0.0
5.986421225970362e6 -118135.82841570978 0.0
0.0 0.0 0.0

-1.1878776222589977e7 -7.184356753664314e6 0.0
-7.184356753664314e6 2.28343120400995e7 0.0
0.0 0.0 0.0

-286755.4223900628 5.023133734777318e6 0.0
5.023133734777318e6 -1.1638379620310012e6 0.0
0.0 0.0 0.0

-166839.60637207713 4.929442419386425e6 0.0
4.929442419386425e6 -1.6879701565530193e6 0.0
0.0 0.0 0.0

-685599.3283970894 6.280998642634357e6 0.0
6.280998642634357e6 -1.1850700770631686e6 0.0
0.0 0.0 0.0

88040.76091817033 3.9617915873138933e6 0.0
3.9617915873138933e6 -2.0489179461267195e6 0.0
0.0 0.0 0.0

-3.209909878781936e6 5.470474315820868e6 0.0
5.470474315820868e6 -482577.28349994146 0.0
0.0 0.0 0.0

-899543.9478173977 6.956636326731135e6 0.0
6.956636326731135e6 -717064.7526936131 0.0
0.0 0.0 0.0

-103213.59303316064 90191.47327645276 0.0
90191.47327645276 371647.5198727543 0.0
0.0 0.0 0.0

-830168.6852203691 3.310933963813881e6 0.0
3.310933963813881e6 -569008.1549060538 0.0
0.0 0.0 0.0

-2.7267788991368376e6 3.7948232432533544e6 0.0
3.7948232432533544e6 970114.1618057424 0.0
0.0 0.0 0.0

-2.02836846804437e6 3.946466723955588e6 0.0
3.946466723955588e6 752442.9620443459 0.0
0.0 0.0 0.0

-1.2629074510910786e6 3.1931919967931225e6 0.0
3.1931919967931225e6 -70950.23777180328 0.0
0.0 0.0 0.0

131039.39381335213 2.782550406341449e6 0.0
2.782550406341449e6 -531343.1115289752 0.0
0.0 0.0 0.0

-30092.324252185994 6.426219830055749e6 0.0
6.426219830055749e6 -1.094557223002058e6 0.0
0.0 0.0 0.0

-1.7011422898068312e6 5.0100639713065205e6 0.0
5.0100639713065205e6 -147310.11323422135 0.0
0.0 0.0 0.0

-150844.81769333043 1.687034982425059e6 0.0
1.687034982425059e6 -915806.0935097173 0.0
0.0 0.0 0.0

-2.8383593993602977e6 4.501436296827964e6 0.0
4.501436296827964e6 1.1236605079044262e6 0.0
0.0 0.0 0.0

-1.1346580364629535e6 3.0606319966453635e6 0.0
3.0606319966453635e6 554748.5221051862 0.0
0.0 0.0 0.0

-1.4697390300892715e6 3.578809418083281e6 0.0
3.578809418083281e6 192939.2848449875 0.0
0.0 0.0 0.0

-120631.86603726423 260979.71239838787 0.0
260979.71239838787 613949.5624662339 0.0
0.0 0.0 0.0

579389.2289153902 5.777255151887467e6 0.0
5.777255151887467e6 -2.3977335816223393e6 0.0
0.0 0.0 0.0

69010.7806456479 3.650949813494372e6 0.0
3.650949813494372e6 -1.9812387074469363e6 0.0
0.0 0.0 0.0

-757996.2353034702 2.8253204730431377e6 0.0
2.8253204730431377e6 285720.72752804076 0.0
0.0 0.0 0.0

-72639.38948983961 4.7993892714719055e6 0.0
4.7993892714719055e6 -1.0934065089017025e6 0.0
0.0 0.0 0.0

-2.19318861991175e6 -4.239271185303637e6 0.0
-4.239271185303637e6 3.6840686530208946e6 0.0
0.0 0.0 0.0

-84012.41436462995 7.760207647098936e6 0.0
7.760207647098936e6 -1.309917495345943e6 0.0
0.0 0.0 0.0

-231000.2661902301 6.686781263155036e6 0.0
6.686781263155036e6 -1.3594476912082103e6 0.0
0.0 0.0 0.0

-3.5020143440008624e6 6.898310538294472e6 0.0
6.898310538294472e6 1.5892170596874822e6 0.0
0.0 0.0 0.0

-2.780191500690509e6 4.522972051529108e6 0.0
4.522972051529108e6 518046.5810432079 0.0
0.0 0.0 0.0

-2.1422272645361223e6 3.979067487110193e6 0.0
3.979067487110193e6 802018.5620729112 0.0
0.0 0.0 0.0

-2.3134291678348505e6 4.62892308764059e6 0.0
4.62892308764059e6 752968.7261570856 0.0
0.0 0.0 0.0

-4.401269765315246e6 4.201096880617862e6 0.0
4.201096880617862e6 1.5947086156458284e6 0.0
0.0 0.0 0.0

-2.312832552736938e6 4.239966356041294e6 0.0
4.239966356041294e6 885510.0718754111 0.0
0.0 0.0 0.0

-517170.86585663684 5.597923820569235e6 0.0
5.597923820569235e6 -565335.8334410591 0.0
0.0 0.0 0.0

374021.329200177 5.055826285030343e6 0.0
5.055826285030343e6 -1.3192587500389367e6 0.0
0.0 0.0 0.0

624506.5423819845 5.267923865445301e6 0.0
5.267923865445301e6 -2.320418089268291e6 0.0
0.0 0.0 0.0

626350.9929083025 5.030301823417162e6 0.0
5.030301823417162e6 -1.7732451390875175e6 0.0
0.0 0.0 0.0

-2.895453971192091e6 3.5487628933585975e6 0.0
3.5487628933585975e6 1.0648554241549466e6 0.0
0.0 0.0 0.0

-937066.3877088281 3.211355167906629e6 0.0
3.211355167906629e6 -261259.71584324777 0.0
0.0 0.0 0.0

109980.85331907135 -1.252384994526165e6 0.0
-1.252384994526165e6 229896.7643389393 0.0
0.0 0.0 0.0

-622898.6130896105 2.691387309826116e6 0.0
2.691387309826116e6 107316.46552198322 0.0
0.0 0.0 0.0

430192.1795649058 5.344698172680401e6 0.0
5.344698172680401e6 -2.251855662336345e6 0.0
0.0 0.0 0.0

-2.31910696113624e6 4.928271307666951e6 0.0
4.928271307666951e6 313579.9030651238 0.0
0.0 0.0 0.0

-335722.88087943423 4.069986809957285e6 0.0
4.069986809957285e6 -1.9953378744235684e6 0.0
0.0 0.0 0.0

513765.68208328285 -34557.138511792546 0.0
-34557.138511792546 -468039.31048535666 0.0
0.0 0.0 0.0

-38276.97312074111 1.605616801406667e6 0.0
1.605616801406667e6 -710547.0239709767 0.0
0.0 0.0 0.0

-177309.41726512928 2.3967498283765013e6 0.0
2.3967498283765013e6 54640.783203676874 0.0
0.0 0.0 0.0

-1.4890686547733047e6 5.208836090739179e6 0.0
5.208836090739179e6 794458.702806402 0.0
0.0 0.0 0.0

-427822.6511788928 5.802089628969558e6 0.0
5.802089628969558e6 -1.9280225871568124e6 0.0
0.0 0.0 0.0

492403.0132620245 5.105836941791672e6 0.0
5.105836941791672e6 -1.5658664020692995e6 0.0
0.0 0.0 0.0

600012.4509621188 5.600701389172021e6 0.0
5.600701389172021e6 -2.2547342255649306e6 0.0
0.0 0.0 0.0

-3.733936136167275e6 1.050963838546364e7 0.0
1.050963838546364e7 266077.5533731675 0.0
0.0 0.0 0.0

-1.77311515255296e6 -3.692542799454357e6 0.0
-3.692542799454357e6 2.858180284397167e6 0.0
0.0 0.0 0.0

-178627.6651005954 4.326617706920212e6 0.0
4.326617706920212e6 -2.076218426312677e6 0.0
0.0 0.0 0.0

-8.601081976052422e6 -7.426419103728202e6 0.0
-7.426419103728202e6 1.2359258306469398e7 0.0
0.0 0.0 0.0

201479.59227293782 4.927530135863247e6 0.0
4.927530135863247e6 -1.1468345910761938e6 0.0
0.0 0.0 0.0

-2.3082839311996894e6 4.651779607349528e6 0.0
4.651779607349528e6 673568.7414313349 0.0
0.0 0.0 0.0

-1.1392627584511635e6 2.0953576678928672e6 0.0
2.0953576678928672e6 -310751.96716196154 0.0
0.0 0.0 0.0

-868169.28675971 4.682118265380255e6 0.0
4.682118265380255e6 -799247.8881339111 0.0
0.0 0.0 0.0

-751032.120676602 5.9824297033516895e6 0.0
5.9824297033516895e6 -1.266671871833223e6 0.0
0.0 0.0 0.0

-2.5262447630255907e6 -4.80026207956895e6 0.0
-4.80026207956895e6 4.541859837613322e6 0.0
0.0 0.0 0.0

500829.2297914835 5.103584266736182e6 0.0
5.103584266736182e6 -1.5958386794413272e6 0.0
0.0 0.0 0.0

-1.2990794779012743e6 2.9791904141264157e6 0.0
2.9791904141264157e6 889026.3531425835 0.0
0.0 0.0 0.0

-970372.5101438094 3.022339735679253e6 0.0
3.022339735679253e6 293347.692914201 0.0
0.0 0.0 0.0

-761439.1152669577 3.157784150375301e6 0.0
3.157784150375301e6 264998.47558678983 0.0
0.0 0.0 0.0

-1.2969667949870497e6 3.2886973553424706e6 0.0
3.2886973553424706e6 64904.60427994677 0.0
0.0 0.0 0.0

-1.711120709689485e6 5.317495502302258e6 0.0
5.317495502302258e6 2.015091881375843e6 0.0
0.0 0.0 0.0

-1.4074331639097447e6 5.146265162926632e6 0.0
5.146265162926632e6 66841.0280382607 0.0
0.0 0.0 0.0

-3.094866328877636e6 3.7552359818858593e6 0.0
3.7552359818858593e6 1.143401109076623e6 0.0
0.0 0.0 0.0

-2.247782498840928e6 5.124160789683411e6 0.0
5.124160789683411e6 318599.03452766954 0.0
0.0 0.0 0.0

-516544.7615679966 7.075231484032296e6 0.0
7.075231484032296e6 -1.7176071934599292e6 0.0
0.0 0.0 0.0

-2.7186442963734437e6 4.370080265083277e6 0.0
4.370080265083277e6 694501.9266999054 0.0
0.0 0.0 0.0

-1.3100428074673184e6 5.841194177835272e6 0.0
5.841194177835272e6 27544.559116798395 0.0
0.0 0.0 0.0

-551553.393151653 6.00813756997468e6 0.0
6.00813756997468e6 -1.4233760246442996e6 0.0
0.0 0.0 0.0

-1.1869673331756575e6 2.5719908048302317e6 0.0
2.5719908048302317e6 1.0786679167270337e6 0.0
0.0 0.0 0.0

-838870.3528517213 2.8831398178048017e6 0.0
2.8831398178048017e6 350733.8265345433 0.0
0.0 0.0 0.0

-328882.9678143049 6.68134886692203e6 0.0
6.68134886692203e6 -1.3504358758843262e6 0.0
0.0 0.0 0.0

-54988.41157876683 143561.27809795056 0.0
143561.27809795056 741387.8024278021 0.0
0.0 0.0 0.0

565334.6987195892 5.79483003679255e6 0.0
5.79483003679255e6 -2.348101847119106e6 0.0
0.0 0.0 0.0

-517809.9868416453 5.6635253790893275e6 0.0
5.6635253790893275e6 -178245.30275489762 0.0
0.0 0.0 0.0

-1.0067849108524058e6 -2.9793920930145322e6 0.0
-2.9793920930145322e6 1.8421172418286023e6 0.0
0.0 0.0 0.0

607377.5831747109 4.968802822184826e6 0.0
4.968802822184826e6 -1.9312491057418808e6 0.0
0.0 0.0 0.0

645825.5533602776 5.638014627690725e6 0.0
5.638014627690725e6 -2.3010080575955715e6 0.0
0.0 0.0 0.0

-25535.513925413397 -113793.03759682368 0.0
-113793.03759682368 614534.5676188224 0.0
0.0 0.0 0.0

-2.1665204776009927e6 3.0617297315877057e6 0.0
3.0617297315877057e6 5.140142235072855e6 0.0
0.0 0.0 0.0

632846.9201561224 4.926656609876498e6 0.0
4.926656609876498e6 -2.077007733591525e6 0.0
0.0 0.0 0.0

-510399.7703756833 -2.8058474295103e6 0.0
-2.8058474295103e6 1.0031981244742277e6 0.0
0.0 0.0 0.0

-992543.2457699475 5.392821154219638e6 0.0
5.392821154219638e6 262049.3300679542 0.0
0.0 0.0 0.0

-144192.16026573468 398288.13192398066 0.0
398288.13192398066 92532.66337685737 0.0
0.0 0.0 0.0

73971.43427711967 -480695.88031817257 0.0
-480695.88031817257 489794.1989655012 0.0
0.0 0.0 0.0

620436.5727176258 5.374222869064965e6 0.0
5.374222869064965e6 -2.331674505545128e6 0.0
0.0 0.0 0.0

665800.2752769252 4.984775340526573e6 0.0
4.984775340526573e6 -2.1252834217240517e6 0.0
0.0 0.0 0.0

-275477.1139660633 -2.6732357374093807e6 0.0
-2.6732357374093807e6 551033.3715063184 0.0
0.0 0.0 0.0

-4.7155952991920136e7 9.927728372178461e6 0.0
9.927728372178461e6 1.0837721695008393e7 0.0
0.0 0.0 0.0

1.547028819531899e7 9.365561636047926e6 0.0
9.365561636047926e6 -816380.1083821384 0.0
0.0 0.0 0.0

-1.2308597604508635e6 3.1926017524317564e6 0.0
3.1926017524317564e6 5297.922878733254 0.0
0.0 0.0 0.0

613811.4229865111 5.07831584851061e6 0.0
5.07831584851061e6 -2.131945534980794e6 0.0
0.0 0.0 0.0

-318092.00985704665 -2.1962241192217944e6 0.0
-2.1962241192217944e6 443433.8472669887 0.0
0.0 0.0 0.0

-805388.0324345219 4.824873328204716e6 0.0
4.824873328204716e6 -1.122891104879823e6 0.0
0.0 0.0 0.0

-823610.0421430587 2.8771002614060696e6 0.0
2.8771002614060696e6 300515.47652951634 0.0
0.0 0.0 0.0

-2.8553102586481385e6 3.7036412966808225e6 0.0
3.7036412966808225e6 1.0503804113682066e6 0.0
0.0 0.0 0.0

-557289.8454137807 5.575513220819025e6 0.0
5.575513220819025e6 -299990.57644100935 0.0
0.0 0.0 0.0

-100584.58889718326 -1.549093152920168e6 0.0
-1.549093152920168e6 348116.8594637826 0.0
0.0 0.0 0.0

617938.6580687749 5.16341974473091e6 0.0
5.16341974473091e6 -2.2560313840642516e6 0.0
0.0 0.0 0.0

-1.9733374687575735e6 4.798075282533547e6 0.0
4.798075282533547e6 107589.25493017689 0.0
0.0 0.0 0.0

-615505.7681247604 4.0559295382542005e6 0.0
4.0559295382542005e6 -2.0151579985538735e6 0.0
0.0 0.0 0.0

-3.0306514007527838e6 4.3097478418192705e6 0.0
4.3097478418192705e6 1.1088186887607693e6 0.0
0.0 0.0 0.0

-739360.7513445662 6.450505744277295e6 0.0
6.450505744277295e6 -1.1069301018444272e6 0.0
0.0 0.0 0.0

-614053.4884345863 5.822762578986139e6 0.0
5.822762578986139e6 -1.555469727798675e6 0.0
0.0 0.0 0.0

-592634.3981752717 5.485624700222425e6 0.0
5.485624700222425e6 -530681.2532074018 0.0
0.0 0.0 0.0

-990444.126604928 7.031863500529067e6 0.0
7.031863500529067e6 -535874.5518474748 0.0
0.0 0.0 0.0

-903032.6694562917 6.864895989636639e6 0.0
6.864895989636639e6 -633713.6144584185 0.0
0.0 0.0 0.0

-848181.8799879053 3.835230144245553e6 0.0
3.835230144245553e6 -2.02051599858886e6 0.0
0.0 0.0 0.0

-3.115110415431777e6 3.7237602418497223e6 0.0
3.7237602418497223e6 1.1872767203372724e6 0.0
0.0 0.0 0.0

-2.0766257769220513e6 3.97288102265039e6 0.0
3.97288102265039e6 796789.8602261286 0.0
0.0 0.0 0.0

-3.2004661455804557e6 5.037144017693991e6 0.0
5.037144017693991e6 2.0016048347543008e6 0.0
0.0 0.0 0.0

-634556.9990704237 5.673171190250303e6 0.0
5.673171190250303e6 -1.533874376739813e6 0.0
0.0 0.0 0.0

-434940.7660841725 2.642066831686134e6 0.0
2.642066831686134e6 -200404.2338966684 0.0
0.0 0.0 0.0

-109850.22204350847 5.986516898037786e6 0.0
5.986516898037786e6 -581940.7783397782 0.0
0.0 0.0 0.0

-754121.1590599541 2.8402174254679848e6 0.0
2.8402174254679848e6 -147799.81138349933 0.0
0.0 0.0 0.0

-1.9172080410727707e6 2.8949315013609016e6 0.0
2.8949315013609016e6 576189.2886269749 0.0
0.0 0.0 0.0

-3.029672926605383e6 3.673418796010902e6 0.0
3.673418796010902e6 1.1518253786669741e6 0.0
0.0 0.0 0.0

-468167.9920346992 3.7466038462322783e6 0.0
3.7466038462322783e6 -1.7571535263800283e6 0.0
0.0 0.0 0.0

-772725.1851427637 5.544960574475435e6 0.0
5.544960574475435e6 -21315.714922308165 0.0
0.0 0.0 0.0

-4.584363892144137e6 4.200311508979412e6 0.0
4.200311508979412e6 1.6184175843285406e6 0.0
0.0 0.0 0.0

-2.0913190620701958e6 2.9306312824095394e6 0.0
2.9306312824095394e6 532771.9577260333 0.0
0.0 0.0 0.0

-2.5607917864120323e6 4.49897648866585e6 0.0
4.49897648866585e6 551641.0133605483 0.0
0.0 0.0 0.0

95884.72741996558 3.156337852022052e6 0.0
3.156337852022052e6 930997.8740091567 0.0
0.0 0.0 0.0

-2.9486691144766957e6 3.66845278268475e6 0.0
3.66845278268475e6 1.1012268699918422e6 0.0
0.0 0.0 0.0

-4.415481756774266e6 549191.1089476729 0.0
549191.1089476729 2.5589526220620256e6 0.0
0.0 0.0 0.0

-3.348099474163333e6 3.889329767953238e6 0.0
3.889329767953238e6 1.2039293811030553e6 0.0
0.0 0.0 0.0

483863.59008971136 5.476296988318505e6 0.0
5.476296988318505e6 -2.2820982774836686e6 0.0
0.0 0.0 0.0

382454.6965011413 5.5249663777402565e6 0.0
5.5249663777402565e6 -2.2205051616935497e6 0.0
0.0 0.0 0.0

-2.2777513657175293e6 4.625857005975788e6 0.0
4.625857005975788e6 431096.1718069158 0.0
0.0 0.0 0.0

-1.0258252183289276e6 5.124242774060201e6 0.0
5.124242774060201e6 721193.1001247348 0.0
0.0 0.0 0.0

-3.5030404266277766e6 4.102940362394475e6 0.0
4.102940362394475e6 1.2965321132601874e6 0.0
0.0 0.0 0.0

-847959.1378715603 3.1193828394683385e6 0.0
3.1193828394683385e6 374068.9739281537 0.0
0.0 0.0 0.0

-4.0829419173049466e6 4.1852703765626512e6 0.0
4.1852703765626512e6 1.4690635344151729e6 0.0
0.0 0.0 0.0

-1.1628114082376345e6 5.426978775835202e6 0.0
5.426978775835202e6 -110010.63627083978 0.0
0.0 0.0 0.0

-237133.04549494336 4.0792024312347914e6 0.0
4.0792024312347914e6 -1.5466224034941948e6 0.0
0.0 0.0 0.0

-373496.37986683915 5.626725960413915e6 0.0
5.626725960413915e6 -1.9461356989979283e6 0.0
0.0 0.0 0.0

-2.6532956518980972e6 3.8266098717749026e6 0.0
3.8266098717749026e6 912080.5417090318 0.0
0.0 0.0 0.0

426372.33955606964 445511.7940295247 0.0
445511.7940295247 -736441.1640540233 0.0
0.0 0.0 0.0

-3.5878972554579107e6 2.558850510893144e6 0.0
2.558850510893144e6 5.3133141098551275e6 0.0
0.0 0.0 0.0

-804739.9984702303 3.8124489859073055e6 0.0
3.8124489859073055e6 -2.0410344101092736e6 0.0
0.0 0.0 0.0

-861115.5841861828 3.1194865770430253e6 0.0
3.1194865770430253e6 207379.0265109205 0.0
0.0 0.0 0.0

-485907.32063071 7.686680734869644e6 0.0
7.686680734869644e6 -606057.2155478813 0.0
0.0 0.0 0.0

-386093.8437702702 5.849555649708598e6 0.0
5.849555649708598e6 -1.7935985943738306e6 0.0
0.0 0.0 0.0

-2.0790846488963948e6 2.884199611374144e6 0.0
2.884199611374144e6 561000.2497915135 0.0
0.0 0.0 0.0

-2.8976425259772325e6 4.39812569826901e6 0.0
4.39812569826901e6 975748.4611983411 0.0
0.0 0.0 0.0

-740597.302333223 4.225467609915965e6 0.0
4.225467609915965e6 -1.2107734749854307e6 0.0
0.0 0.0 0.0

-566482.4014056803 2.7492918457157537e6 0.0
2.7492918457157537e6 259851.17951955044 0.0
0.0 0.0 0.0

-1.0347126760047879e6 2.968192613684895e6 0.0
2.968192613684895e6 530813.1017291595 0.0
0.0 0.0 0.0

-2.7662144735638252e6 4.447815103534185e6 0.0
4.447815103534185e6 780936.0887021595 0.0
0.0 0.0 0.0

-1.2462197877005795e6 3.2079150952306404e6 0.0
3.2079150952306404e6 -21899.709034572938 0.0
0.0 0.0 0.0

314182.46632145904 5.0166245728819175e6 0.0
5.0166245728819175e6 -1.972283670916944e6 0.0
0.0 0.0 0.0

-1.3962060322279178e6 3.4205058860736387e6 0.0
3.4205058860736387e6 208118.0331297574 0.0
0.0 0.0 0.0

-753546.8191209051 4.016170528983782e6 0.0
4.016170528983782e6 -1.28762788418218e6 0.0
0.0 0.0 0.0

-750592.3290998256 4.886992239200122e6 0.0
4.886992239200122e6 -1.1076184079265946e6 0.0
0.0 0.0 0.0

-1.2985080701056668e6 4.640190795784807e6 0.0
4.640190795784807e6 1.2558001212550267e6 0.0
0.0 0.0 0.0

-1.6884771919206155e6 3.0333053369246228e6 0.0
3.0333053369246228e6 -66991.7031582201 0.0
0.0 0.0 0.0

-667889.356709895 5.89983764947297e6 0.0
5.89983764947297e6 -1.45086732150814e6 0.0
0.0 0.0 0.0

-29433.934631166165 6.068991521251303e6 0.0
6.068991521251303e6 -1.7230891039268828e6 0.0
0.0 0.0 0.0

-768198.9322946481 4.1160775597597915e6 0.0
4.1160775597597915e6 -1.2325421678196555e6 0.0
0.0 0.0 0.0

-357540.1931478325 6.894890149768142e6 0.0
6.894890149768142e6 -1.427756535857956e6 0.0
0.0 0.0 0.0

648828.1972730835 6.812417571094822e6 0.0
6.812417571094822e6 -2.5530445188153833e6 0.0
0.0 0.0 0.0

-2.918248050501571e6 3.709332531350523e6 0.0
3.709332531350523e6 1.0160424193965937e6 0.0
0.0 0.0 0.0

-1.0616190925415226e6 2.2066625803216444e6 0.0
2.2066625803216444e6 -448522.1348728592 0.0
0.0 0.0 0.0

-1.2208137543764962e6 5.447893537940724e6 0.0
5.447893537940724e6 323640.42535109824 0.0
0.0 0.0 0.0

694664.0243742787 36258.42155512149 0.0
36258.42155512149 -1.0756194268620922e6 0.0
0.0 0.0 0.0

-586461.546253762 6.429727309893218e6 0.0
6.429727309893218e6 -1.1648892975682649e6 0.0
0.0 0.0 0.0

-1.8164528077168819e6 3.827945323056646e6 0.0
3.827945323056646e6 1.6782594226436226e6 0.0
0.0 0.0 0.0

-229980.37121433817 6.529870307685788e6 0.0
6.529870307685788e6 -1.374465310735497e6 0.0
0.0 0.0 0.0

-2.10218869947352e7 -2.6680745698875654e6 0.0
-2.6680745698875654e6 1.1506105248493291e7 0.0
0.0 0.0 0.0

-1.4717244721801537e6 4.527229838091331e6 0.0
4.527229838091331e6 1.7888304309994709e6 0.0
0.0 0.0 0.0

-827192.1404991428 6.654458562162502e6 0.0
6.654458562162502e6 -888741.988354738 0.0
0.0 0.0 0.0

-1.3908244559483472e6 2.942308803230051e6 0.0
2.942308803230051e6 -393737.97827802 0.0
0.0 0.0 0.0

-471494.06857329013 5.8736655692916345e6 0.0
5.8736655692916345e6 -1.7662714893874351e6 0.0
0.0 0.0 0.0

-426455.4060309484 5.683507042161746e6 0.0
5.683507042161746e6 -581393.3352938825 0.0
0.0 0.0 0.0

-541575.593886688 4.919385781386517e6 0.0
4.919385781386517e6 -1.9102555962075782e6 0.0
0.0 0.0 0.0

-235202.86026730167 5.769261577081479e6 0.0
5.769261577081479e6 -530638.1778529321 0.0
0.0 0.0 0.0

-853452.3199114839 6.6866520248729335e6 0.0
6.6866520248729335e6 -1.0467013276808939e6 0.0
0.0 0.0 0.0

-8804.725008587237 6.249418181505016e6 0.0
6.249418181505016e6 -1.637809614840237e6 0.0
0.0 0.0 0.0

583389.5955225569 4.560879697645052e6 0.0
4.560879697645052e6 -1.7923334309693596e6 0.0
0.0 0.0 0.0

-1.4075861336286284e6 7.072701439820018e6 0.0
7.072701439820018e6 -334520.117184478 0.0
0.0 0.0 0.0

-442553.80184453673 5.370263973827981e6 0.0
5.370263973827981e6 -1.9525523047217464e6 0.0
0.0 0.0 0.0

-2.603259603739352e6 4.535600779808903e6 0.0
4.535600779808903e6 683054.6183547843 0.0
0.0 0.0 0.0

-1.615720240253589e6 5.343565107551866e6 0.0
5.343565107551866e6 126572.47170211654 0.0
0.0 0.0 0.0

1.824817924128211e6 1.3468682093396676e6 0.0
1.3468682093396676e6 -2.593684707024278e6 0.0
0.0 0.0 0.0

-4.91983322162106e6 3.995654102009362e6 0.0
3.995654102009362e6 1.6606220604169085e6 0.0
0.0 0.0 0.0

-356589.38906103524 6.3776971696224315e6 0.0
6.3776971696224315e6 -1.6229094578292128e6 0.0
0.0 0.0 0.0

-2.4494090552270757e6 4.390853385025188e6 0.0
4.390853385025188e6 4.872376088287894e6 0.0
0.0 0.0 0.0

-760708.7010557165 5.52191632815293e6 0.0
5.52191632815293e6 -432648.70508828445 0.0
0.0 0.0 0.0

-2.5492173736074823e6 4.740025315564871e6 0.0
4.740025315564871e6 483637.75168310327 0.0
0.0 0.0 0.0

-532712.7142046103 2.7673911478266753e6 0.0
2.7673911478266753e6 -41810.079985079516 0.0
0.0 0.0 0.0

-495192.1898459869 5.878496731580699e6 0.0
5.878496731580699e6 -1.7588354613699166e6 0.0
0.0 0.0 0.0

-1.4592334601796921e6 2.1559056136893863e6 0.0
2.1559056136893863e6 -64999.0153544537 0.0
0.0 0.0 0.0

-1.508445161674032e6 3.1354293229148556e6 0.0
3.1354293229148556e6 94028.53291573905 0.0
0.0 0.0 0.0

709240.4196316616 7.180699889351095e6 0.0
7.180699889351095e6 -1.5038866646116574e6 0.0
0.0 0.0 0.0

-743196.9145834943 6.246712664010678e6 0.0
6.246712664010678e6 -994200.3172561473 0.0
0.0 0.0 0.0

-104068.1280651449 1.1790897298667731e6 0.0
1.1790897298667731e6 -906945.4798250566 0.0
0.0 0.0 0.0

-589948.0325263799 5.892866822539458e6 0.0
5.892866822539458e6 -1.584715784842536e6 0.0
0.0 0.0 0.0

333853.7195234981 251283.1088189641 0.0
251283.1088189641 -336182.1521030254 0.0
0.0 0.0 0.0

-1.7446562253085428e6 4.727876476070717e6 0.0
4.727876476070717e6 987843.1843733003 0.0
0.0 0.0 0.0

-927511.4221208134 2.9367766891390597e6 0.0
2.9367766891390597e6 371274.39953172335 0.0
0.0 0.0 0.0

-6.192257091547108e6 3.658570496712504e6 0.0
3.658570496712504e6 4.105657680789192e6 0.0
0.0 0.0 0.0

-773292.1480470971 3.533940275307131e6 0.0
3.533940275307131e6 -1.9914109017724602e6 0.0
0.0 0.0 0.0

-2.3643889949714975e6 4.384742086773779e6 0.0
4.384742086773779e6 838789.1400017105 0.0
0.0 0.0 0.0

-2.195827581103159e6 4.735358297212081e6 0.0
4.735358297212081e6 559895.6709114317 0.0
0.0 0.0 0.0

-813614.446972985 7.071911728953255e6 0.0
7.071911728953255e6 -737757.0237709633 0.0
0.0 0.0 0.0

-769958.1913993658 3.454105105834124e6 0.0
3.454105105834124e6 -2.024592423134481e6 0.0
0.0 0.0 0.0

-957043.7519068947 5.561350646193552e6 0.0
5.561350646193552e6 -24332.989089708368 0.0
0.0 0.0 0.0

-1.5007800853193984e6 -7153.045526949525 0.0
-7153.045526949525 2.531824325191404e6 0.0
0.0 0.0 0.0

1.2433776374295354e6 1.5543002107867922e6 0.0
1.5543002107867922e6 -2.4483446954665137e6 0.0
0.0 0.0 0.0

-723557.8796327801 4.630293498687127e6 0.0
4.630293498687127e6 -1.4431859938963053e6 0.0
0.0 0.0 0.0

-887241.1758909482 7.215737166754274e6 0.0
7.215737166754274e6 -627797.9977218973 0.0
0.0 0.0 0.0

-2.0210522471843944e6 3.000437382005578e6 0.0
3.000437382005578e6 645254.3469889734 0.0
0.0 0.0 0.0

-1.0448602482139912e6 3.2045482394063873e6 0.0
3.2045482394063873e6 -843451.1556622693 0.0
0.0 0.0 0.0

-334560.51911738224 4.188580753700337e6 0.0
4.188580753700337e6 -1.9072007437379628e6 0.0
0.0 0.0 0.0

-825476.999274179 2.970704978708899e6 0.0
2.970704978708899e6 557571.3200487478 0.0
0.0 0.0 0.0

-3.469332560322319e6 4.6617672141136415e6 0.0
4.6617672141136415e6 1.511952084687083e6 0.0
0.0 0.0 0.0

-1.0756228215026468e7 1.2433233377462982e6 0.0
1.2433233377462982e6 6.9495534045676e6 0.0
0.0 0.0 0.0

-379133.71248905885 6.268533939741171e6 0.0
6.268533939741171e6 -1.1482463038882872e6 0.0
0.0 0.0 0.0

1.708459333297097e6 1.7742303033339551e6 0.0
1.7742303033339551e6 -3.3157220558352363e6 0.0
0.0 0.0 0.0

-2.048423237131259e6 2.9513907131641977e6 0.0
2.9513907131641977e6 670936.9846991014 0.0
0.0 0.0 0.0

-756502.9442928706 2.411471408267146e6 0.0
2.411471408267146e6 -12295.80908804998 0.0
0.0 0.0 0.0

-2.7558366838308712e6 4.429894062330952e6 0.0
4.429894062330952e6 625693.3743118797 0.0
0.0 0.0 0.0

-1.1729926094206965e6 5.46900427233152e6 0.0
5.46900427233152e6 287964.38925164787 0.0
0.0 0.0 0.0

-3.2024562192631047e6 3.8960346865316527e6 0.0
3.8960346865316527e6 1.209534279602978e6 0.0
0.0 0.0 0.0

-845426.272369832 6.458365981615591e6 0.0
6.458365981615591e6 -1.1162111807073292e6 0.0
0.0 0.0 0.0

-2.0148226502397982e6 1.0861136953437736e6 0.0
1.0861136953437736e6 2.4196747589737694e6 0.0
0.0 0.0 0.0

-766379.0777542433 5.937044408926902e6 0.0
5.937044408926902e6 -1.2841321915291185e6 0.0
0.0 0.0 0.0

-1.7565857676406968e6 5.801828080088026e6 0.0
5.801828080088026e6 149788.150159108 0.0
0.0 0.0 0.0

-3.460103698146838e6 4.792686300491638e6 0.0
4.792686300491638e6 1.575821115759578e6 0.0
0.0 0.0 0.0

816144.3805184605 6.67306490034267e6 0.0
6.67306490034267e6 -2.206566291813564e6 0.0
0.0 0.0 0.0

-734013.289567141 6.691445182775664e6 0.0
6.691445182775664e6 -821865.8476703356 0.0
0.0 0.0 0.0

-2.439176997627222e6 4.200909932914751e6 0.0
4.200909932914751e6 881819.9866376332 0.0
0.0 0.0 0.0

-366314.2578375038 2.6561891319971085e6 0.0
2.6561891319971085e6 22885.975808457006 0.0
0.0 0.0 0.0

-2.7961086938089696e6 5.542506550609974e6 0.0
5.542506550609974e6 1.4486276151992867e6 0.0
0.0 0.0 0.0

-1.1349936675995162e6 2.780936431857874e6 0.0
2.780936431857874e6 999109.5552686487 0.0
0.0 0.0 0.0

-1.5627590152737317e6 860537.3405586553 0.0
860537.3405586553 2.3963385607914166e6 0.0
0.0 0.0 0.0

-2.365721970388145e6 4.094486294970964e6 0.0
4.094486294970964e6 871641.4602178236 0.0
0.0 0.0 0.0

-868427.3861142448 2.8635349840631103e6 0.0
2.8635349840631103e6 308080.6765539819 0.0
0.0 0.0 0.0

-1.7310305465353671e6 3.5648734935171884e6 0.0
3.5648734935171884e6 684134.277684189 0.0
0.0 0.0 0.0

-522825.7987018574 5.720236495701651e6 0.0
5.720236495701651e6 671468.2578885399 0.0
0.0 0.0 0.0

-673646.1545211057 3.384949733876178e6 0.0
3.384949733876178e6 -1.901020961323403e6 0.0
0.0 0.0 0.0

640554.0571298124 74562.4280166336 0.0
74562.4280166336 -766742.5048785391 0.0
0.0 0.0 0.0

-1.0268691070856265e6 7.863132875786409e6 0.0
7.863132875786409e6 -588589.4187989976 0.0
0.0 0.0 0.0

-812972.371881512 3.2505552929424015e6 0.0
3.2505552929424015e6 363776.5333384543 0.0
0.0 0.0 0.0

-686760.2850705876 3.822296449763722e6 0.0
3.822296449763722e6 -1.3185760585677796e6 0.0
0.0 0.0 0.0

-890017.1486189137 5.546832653982825e6 0.0
5.546832653982825e6 -187153.31468724657 0.0
0.0 0.0 0.0

-1.4069460447771836e6 2.9910263518849313e6 0.0
2.9910263518849313e6 -5006.38557740394 0.0
0.0 0.0 0.0

-1.834897729337167e6 4.597227764603366e6 0.0
4.597227764603366e6 908841.0828656858 0.0
0.0 0.0 0.0

-371281.9882416951 2.3431068644582913e6 0.0
2.3431068644582913e6 -511546.85176585836 0.0
0.0 0.0 0.0

-1.713216224468164e6 5.100782591671591e6 0.0
5.100782591671591e6 182542.5954035581 0.0
0.0 0.0 0.0

-1.753674936118166e6 3.6043944475194025e6 0.0
3.6043944475194025e6 800878.0872995872 0.0
0.0 0.0 0.0

-764489.0215416312 6.593359295399547e6 0.0
6.593359295399547e6 -776984.0339053432 0.0
0.0 0.0 0.0

-2.461298820310915e6 4.069674036067019e6 0.0
4.069674036067019e6 823951.1135595883 0.0
0.0 0.0 0.0

-3.573688213075006e6 4.199667667698442e6 0.0
4.199667667698442e6 1.2870620722160737e6 0.0
0.0 0.0 0.0

-623497.8373835903 3.5959422943135328e6 0.0
3.5959422943135328e6 -1.8628511223086833e6 0.0
0.0 0.0 0.0

2.2898232556185704e6 659303.8285602102 0.0
659303.8285602102 -2.3613836066365e6 0.0
0.0 0.0 0.0

331971.2872563165 1.2412280874833781e6 0.0
1.2412280874833781e6 -887741.0854820258 0.0
0.0 0.0 0.0

472083.1562698765 4.1179081015239824e6 0.0
4.1179081015239824e6 -1.8792660338298546e6 0.0
0.0 0.0 0.0

-1.5504076052509206e6 4.514943695133056e6 0.0
4.514943695133056e6 163163.27152534435 0.0
0.0 0.0 0.0

-1.3661091973627952e6 5.200711085006375e6 0.0
5.200711085006375e6 844611.6526656704 0.0
0.0 0.0 0.0

-731195.0066827142 2.7922804438831187e6 0.0
2.7922804438831187e6 202284.1681062963 0.0
0.0 0.0 0.0

-5.14233257311008e6 3.937957169975622e6 0.0
3.937957169975622e6 1.7768048563296224e6 0.0
0.0 0.0 0.0

-621964.1647991833 2.9795279879999845e6 0.0
2.9795279879999845e6 114217.92794111714 0.0
0.0 0.0 0.0

-4.124149731842407e6 1.6967150587909855e7 0.0
1.6967150587909855e7 6.599037556649204e6 0.0
0.0 0.0 0.0

-907467.5647805727 6.974897105221809e6 0.0
6.974897105221809e6 -725884.4416400251 0.0
0.0 0.0 0.0

-618320.6845049825 6.135747669168734e6 0.0
6.135747669168734e6 -1.284930989678759e6 0.0
0.0 0.0 0.0

-1.3981694702306248e6 5.3601929873095695e6 0.0
5.3601929873095695e6 342684.2148569007 0.0
0.0 0.0 0.0

-763510.2912222806 1.9431502969756965e6 0.0
1.9431502969756965e6 968600.4713930024 0.0
0.0 0.0 0.0

-974020.2810692085 5.832420712228279e6 0.0
5.832420712228279e6 -370465.88359829655 0.0
0.0 0.0 0.0

-660025.1885923201 4.869559048098683e6 0.0
4.869559048098683e6 -1.0147381952677469e6 0.0
0.0 0.0 0.0

571158.2277640116 5.678391671894058e6 0.0
5.678391671894058e6 -2.102397771822303e6 0.0
0.0 0.0 0.0

146468.63333989613 3.0716085222817827e6 0.0
3.0716085222817827e6 -689718.1106887463 0.0
0.0 0.0 0.0

-6.050831980269544e6 3.615719226955785e6 0.0
3.615719226955785e6 2.259291909350386e6 0.0
0.0 0.0 0.0

-1.3023880030011775e6 4.945356155213083e6 0.0
4.945356155213083e6 712927.8148716721 0.0
0.0 0.0 0.0

-748646.9344532881 4.247163163984965e6 0.0
4.247163163984965e6 -1.3435582097864714e6 0.0
0.0 0.0 0.0

301598.4566270457 5.707212120235808e6 0.0
5.707212120235808e6 -699078.9478768468 0.0
0.0 0.0 0.0

276627.8542796958 2.1802298466581297e6 0.0
2.1802298466581297e6 -735564.3420905062 0.0
0.0 0.0 0.0

-1.1152833647352324e6 3.17484957538402e6 0.0
3.17484957538402e6 -182678.86825471587 0.0
0.0 0.0 0.0

-757222.7683246383 3.9012755346177244e6 0.0
3.9012755346177244e6 -1.3511625395171428e6 0.0
0.0 0.0 0.0

-709049.4507221793 3.8313991337097366e6 0.0
3.8313991337097366e6 -781386.1029937475 0.0
0.0 0.0 0.0

-1.6091237441630866e6 3.455267129326169e6 0.0
3.455267129326169e6 871358.762288748 0.0
0.0 0.0 0.0

-659769.7944058201 4.224321168233898e6 0.0
4.224321168233898e6 -1.463136131067647e6 0.0
0.0 0.0 0.0

-380687.41200126754 5.797491577050106e6 0.0
5.797491577050106e6 -1.8770383286238327e6 0.0
0.0 0.0 0.0

-2.2731842091842163e6 4.563996011516615e6 0.0
4.563996011516615e6 732695.9257023302 0.0
0.0 0.0 0.0

-694820.6571758196 5.997589482671475e6 0.0
5.997589482671475e6 -1.2985395734875482e6 0.0
0.0 0.0 0.0

-788533.9322010123 2.911572513921226e6 0.0
2.911572513921226e6 391985.85436673946 0.0
0.0 0.0 0.0

2.0362303105666388e6 1.7922079006585204e6 0.0
1.7922079006585204e6 -3.718075068459165e6 0.0
0.0 0.0 0.0

-9.944562786057811e6 6.323016318568419e6 0.0
6.323016318568419e6 3.3384209146843986e6 0.0
0.0 0.0 0.0

498193.4797989824 898144.059398536 0.0
898144.059398536 -1.6267460440564414e6 0.0
0.0 0.0 0.0

1.0347319286575059e6 2.850330301915047e6 0.0
2.850330301915047e6 -1.7271422537861126e6 0.0
0.0 0.0 0.0

-2.0772408230223153e6 4.852356701562419e6 0.0
4.852356701562419e6 467022.6987795691 0.0
0.0 0.0 0.0

-480067.7768716619 3.6981725656286897e6 0.0
3.6981725656286897e6 -1.6002259187750395e6 0.0
0.0 0.0 0.0

-502655.9601242451 6.883490917854707e6 0.0
6.883490917854707e6 -1.0446698384297448e6 0.0
0.0 0.0 0.0

-1.530092881855368e6 3.04422636116678e6 0.0
3.04422636116678e6 1.9709347496146227e6 0.0
0.0 0.0 0.0

-1.535250068432585e6 3.9685480718558547e6 0.0
3.9685480718558547e6 1.8093695764533624e6 0.0
0.0 0.0 0.0

-3.4639166505721053e6 8.538262724139493e6 0.0
8.538262724139493e6 3.1413494116745563e6 0.0
0.0 0.0 0.0

-591582.5890169473 5.789842291206785e6 0.0
5.789842291206785e6 -80117.66176811376 0.0
0.0 0.0 0.0

-1.7664474149627085e6 4.728962691649054e6 0.0
4.728962691649054e6 1.1220387561997958e6 0.0
0.0 0.0 0.0

-1.468058103180546e6 3.5417761261137985e6 0.0
3.5417761261137985e6 254219.0174186959 0.0
0.0 0.0 0.0

-673761.100509879 3.835450943211805e6 0.0
3.835450943211805e6 -1.3872455600163552e6 0.0
0.0 0.0 0.0

-2.392415799830135e6 4.273297554638598e6 0.0
4.273297554638598e6 757153.543766917 0.0
0.0 0.0 0.0

-690483.557300763 2.900869163460946e6 0.0
2.900869163460946e6 439228.28768359113 0.0
0.0 0.0 0.0

-507908.1736873571 8.18784698896195e6 0.0
8.18784698896195e6 -876504.5529740268 0.0
0.0 0.0 0.0

-904739.9478906716 6.845563625978536e6 0.0
6.845563625978536e6 -698807.4168689243 0.0
0.0 0.0 0.0

-17528.671555278182 6.365677830390779e6 0.0
6.365677830390779e6 -1.446951976449986e6 0.0
0.0 0.0 0.0

-636237.103883243 7.466251248327958e6 0.0
7.466251248327958e6 -715009.2639814263 0.0
0.0 0.0 0.0

-2.921306755200194e6 4.079759368480237e6 0.0
4.079759368480237e6 1.237600192515611e6 0.0
0.0 0.0 0.0

-130788.2075549498 2.7665857391445367e6 0.0
2.7665857391445367e6 -435960.6014776785 0.0
0.0 0.0 0.0

1.3767420371577567e6 6.613174631406892e6 0.0
6.613174631406892e6 4.589146690536585e6 0.0
0.0 0.0 0.0

33468.496068127555 -660045.0543266059 0.0
-660045.0543266059 429451.24533187825 0.0
0.0 0.0 0.0

-541914.9733391692 5.204316800750506e6 0.0
5.204316800750506e6 -1.0363405003526063e6 0.0
0.0 0.0 0.0

-218250.63457732936 431491.0669903456 0.0
431491.0669903456 78420.47758361392 0.0
0.0 0.0 0.0

-2.730781014940479e6 4.751900830801284e6 0.0
4.751900830801284e6 1.0360005809476251e6 0.0
0.0 0.0 0.0

-1.0889132958361367e6 7.181704988338891e6 0.0
7.181704988338891e6 -496415.3312884531 0.0
0.0 0.0 0.0

-5.663751329298247e6 3.9051768286937424e6 0.0
3.9051768286937424e6 2.0791133408044304e6 0.0
0.0 0.0 0.0

-3.2153182654497903e6 3.6118134520078613e6 0.0
3.6118134520078613e6 3.365251569238496e6 0.0
0.0 0.0 0.0

-834302.7756666425 3.0364284000763614e6 0.0
3.0364284000763614e6 150187.3920337126 0.0
0.0 0.0 0.0

-2.9771048330604206e6 4.638198374750305e6 0.0
4.638198374750305e6 1.2205489214161576e6 0.0
0.0 0.0 0.0

-1.9390510726376516e6 3.722200294981662e6 0.0
3.722200294981662e6 769763.7231639301 0.0
0.0 0.0 0.0

-2.2647361665783827e6 4.0341603763064677e6 0.0
4.0341603763064677e6 781531.2664079601 0.0
0.0 0.0 0.0

-162271.0198660568 3.888750572803172e6 0.0
3.888750572803172e6 -2.106902247581984e6 0.0
0.0 0.0 0.0

-2.1754505816754126e6 4.68639983344377e6 0.0
4.68639983344377e6 676683.2853615223 0.0
0.0 0.0 0.0

-1.1826957687757113e6 4.0105812100824034e6 0.0
4.0105812100824034e6 2.684891067053252e6 0.0
0.0 0.0 0.0

-453920.34848176665 5.982763093466183e6 0.0
5.982763093466183e6 -1.6936772027725773e6 0.0
0.0 0.0 0.0

-3.7574535652842056e6 -2.0900170400630932e6 0.0
-2.0900170400630932e6 5.198604784882634e6 0.0
0.0 0.0 0.0

-3.3266682238893085e6 4.002021562871292e6 0.0
4.002021562871292e6 1.2759639476430463e6 0.0
0.0 0.0 0.0

-581452.6012452997 5.782250332416058e6 0.0
5.782250332416058e6 -1.15897122401145e6 0.0
0.0 0.0 0.0

-1.153334294983262e7 5.522877312459417e6 0.0
5.522877312459417e6 1.0179865231440119e6 0.0
0.0 0.0 0.0

792338.2560887816 6.672318735733587e6 0.0
6.672318735733587e6 -2.249278792637386e6 0.0
0.0 0.0 0.0

-2.146352058891241e6 3.0335267358711082e6 0.0
3.0335267358711082e6 729232.1123988788 0.0
0.0 0.0 0.0

-2.3898191891610813e6 5.102383250615423e6 0.0
5.102383250615423e6 137509.20015180495 0.0
0.0 0.0 0.0

-802458.0004446467 5.754458560370598e6 0.0
5.754458560370598e6 -1.1040364374609946e6 0.0
0.0 0.0 0.0

-910524.4947175191 6.892453142447572e6 0.0
6.892453142447572e6 -773723.6715235008 0.0
0.0 0.0 0.0

285812.25081469276 7.569171383029489e6 0.0
7.569171383029489e6 -1.4166230951874726e6 0.0
0.0 0.0 0.0

-3.789128533387057e6 3.8329604376619468e6 0.0
3.8329604376619468e6 1.091282244509701e6 0.0
0.0 0.0 0.0

-2.4431393493674994e6 4.60893966539155e6 0.0
4.60893966539155e6 1.43855468301801e6 0.0
0.0 0.0 0.0

310099.74287215923 4.0911075711671216e6 0.0
4.0911075711671216e6 -1.9803941939115748e6 0.0
0.0 0.0 0.0

-4.899902978916781e6 7.90690869400132e6 0.0
7.90690869400132e6 -6290.210725427605 0.0
0.0 0.0 0.0

-1.8197438675493384e6 3.675132002279692e6 0.0
3.675132002279692e6 844152.0574117614 0.0
0.0 0.0 0.0

-881280.9801845992 7.344930214387379e6 0.0
7.344930214387379e6 -576422.0500740402 0.0
0.0 0.0 0.0

-2.775329519189798e6 4.1504870735195116e6 0.0
4.1504870735195116e6 4.069293221230927e6 0.0
0.0 0.0 0.0

242869.49317406752 8.16983599795732e6 0.0
8.16983599795732e6 -1.2837700881297702e6 0.0
0.0 0.0 0.0

-1.8071650044408517e6 4.827003094054909e6 0.0
4.827003094054909e6 576596.5659073537 0.0
0.0 0.0 0.0

-923177.4664475761 4.531554526617742e6 0.0
4.531554526617742e6 -938723.157867239 0.0
0.0 0.0 0.0

-1.3283128237766966e6 1.7247742081351765e6 0.0
1.7247742081351765e6 1.3976172581568328e6 0.0
0.0 0.0 0.0

-658224.6155986134 6.7580738878464075e6 0.0
6.7580738878464075e6 -810590.2092837264 0.0
0.0 0.0 0.0

-1.2359440517900821e6 4.164908100612079e6 0.0
4.164908100612079e6 960283.1960566624 0.0
0.0 0.0 0.0

-4.643239197244276e6 -1.0827213848094658e6 0.0
-1.0827213848094658e6 8.909541595085105e6 0.0
0.0 0.0 0.0

-3.3579958696252834e6 -5.227718837163547e6 0.0
-5.227718837163547e6 8.420194793714568e6 0.0
0.0 0.0 0.0

-902252.9122648998 4.771564242936096e6 0.0
4.771564242936096e6 -676730.222192867 0.0
0.0 0.0 0.0

-778409.833028906 6.185129986991146e6 0.0
6.185129986991146e6 -955958.1004747218 0.0
0.0 0.0 0.0

-931494.5767496782 6.740672164645712e6 0.0
6.740672164645712e6 -811273.6120585888 0.0
0.0 0.0 0.0

-2.2497888227117807e6 6.276578317746998e6 0.0
6.276578317746998e6 59088.360724772676 0.0
0.0 0.0 0.0

1.61304377825398e6 4.339006578596113e6 0.0
4.339006578596113e6 -259696.76369263965 0.0
0.0 0.0 0.0

-1.6743232576604434e6 4.470830537794279e6 0.0
4.470830537794279e6 1.1317694881791398e6 0.0
0.0 0.0 0.0

-885468.440466708 6.6076230726473825e6 0.0
6.6076230726473825e6 -844447.411519764 0.0
0.0 0.0 0.0

-1.106338452535103e6 3.374308911763622e6 0.0
3.374308911763622e6 -759518.2803665254 0.0
0.0 0.0 0.0

435803.0648261929 376595.29000870866 0.0
376595.29000870866 -675902.5520684526 0.0
0.0 0.0 0.0

-540048.3574051197 4.629026441619282e6 0.0
4.629026441619282e6 -1.8825557342449827e6 0.0
0.0 0.0 0.0

-268231.5351079179 796019.0389303446 0.0
796019.0389303446 -160339.99892107846 0.0
0.0 0.0 0.0

603971.9093459509 313679.52385823877 0.0
313679.52385823877 -743500.8430222346 0.0
0.0 0.0 0.0

497414.10977902595 320183.8617252916 0.0
320183.8617252916 -682874.8657589152 0.0
0.0 0.0 0.0

-1.1134022179878326e6 3.2504038987365193e6 0.0
3.2504038987365193e6 -214107.37842927608 0.0
0.0 0.0 0.0

-776926.5093475145 6.292802613707556e6 0.0
6.292802613707556e6 -1.2009151891373412e6 0.0
0.0 0.0 0.0

-533382.4442563105 4.5839839840970505e6 0.0
4.5839839840970505e6 -1.814928122449893e6 0.0
0.0 0.0 0.0

-1.1292545919859337e6 5.856888779312038e6 0.0
5.856888779312038e6 71575.58524081338 0.0
0.0 0.0 0.0

-779741.440213401 6.995627699389494e6 0.0
6.995627699389494e6 -816109.6229731351 0.0
0.0 0.0 0.0

-449916.15128418664 6.804419654142005e6 0.0
6.804419654142005e6 -1.197052030651684e6 0.0
0.0 0.0 0.0

-2.3368091014329297e6 4.199094389671529e6 0.0
4.199094389671529e6 840728.4249522926 0.0
0.0 0.0 0.0

1.9889609924156799e6 6.457867685636042e6 0.0
6.457867685636042e6 1.2948025774869202e6 0.0
0.0 0.0 0.0

-2.8894431201487016e6 2.142833954414593e6 0.0
2.142833954414593e6 5.644977241656105e6 0.0
0.0 0.0 0.0

-580593.0399217807 6.868932323352282e6 0.0
6.868932323352282e6 -938987.801361008 0.0
0.0 0.0 0.0

-722784.1171757965 7.279413415550275e6 0.0
7.279413415550275e6 -343449.22245800623 0.0
0.0 0.0 0.0

-3.2540939743427006e6 4.439299121234871e6 0.0
4.439299121234871e6 1.4065781282948637e6 0.0
0.0 0.0 0.0

-716687.5470623359 6.024723768721828e6 0.0
6.024723768721828e6 -1.20640033065691e6 0.0
0.0 0.0 0.0

-2.425899866919701e6 5.553470369733785e6 0.0
5.553470369733785e6 -180881.5985700183 0.0
0.0 0.0 0.0

-2.071579464024534e6 4.884432970746233e6 0.0
4.884432970746233e6 435102.91116568586 0.0
0.0 0.0 0.0

65031.14279723482 6.570311052521059e6 0.0
6.570311052521059e6 -2.446773601432783e6 0.0
0.0 0.0 0.0

-2.947129662155193e6 4.171380707117636e6 0.0
4.171380707117636e6 1.0548818874299282e6 0.0
0.0 0.0 0.0

-6.707124133532478e6 3.2905788570381673e6 0.0
3.2905788570381673e6 2.5849783699947773e6 0.0
0.0 0.0 0.0

-428628.6337054883 4.1477443729675943e6 0.0
4.1477443729675943e6 -1.7906642247288863e6 0.0
0.0 0.0 0.0

-416332.41677217896 5.890102906361819e6 0.0
5.890102906361819e6 -1.7828665738312553e6 0.0
0.0 0.0 0.0

-509418.3966536026 5.260256114603783e6 0.0
5.260256114603783e6 -1.9040324164811696e6 0.0
0.0 0.0 0.0

-538920.5358683591 4.276966985430899e6 0.0
4.276966985430899e6 -1.7494455429360643e6 0.0
0.0 0.0 0.0

-3.562456552641183e6 8.472765006986398e6 0.0
8.472765006986398e6 1.7790022349459012e6 0.0
0.0 0.0 0.0

-829103.8637387615 6.459094707010939e6 0.0
6.459094707010939e6 -899813.8671297482 0.0
0.0 0.0 0.0

-895409.4544455805 5.814884110984662e6 0.0
5.814884110984662e6 718486.0679647855 0.0
0.0 0.0 0.0

-7.073313429752299e6 -648196.4975185216 0.0
-648196.4975185216 3.4254931581881237e6 0.0
0.0 0.0 0.0

-1.0881465046363683e7 6.252213196487768e6 0.0
6.252213196487768e6 6.359728337872332e6 0.0
0.0 0.0 0.0

191938.13018291886 3.841201169158763e6 0.0
3.841201169158763e6 -2.145043910066926e6 0.0
0.0 0.0 0.0

-662350.5764106233 6.8418391545146825e6 0.0
6.8418391545146825e6 -865759.6007582953 0.0
0.0 0.0 0.0

-720858.5495466923 7.532157273319066e6 0.0
7.532157273319066e6 -671010.875527832 0.0
0.0 0.0 0.0

321144.5645370005 7.145598073398032e6 0.0
7.145598073398032e6 -2.3655175779330097e6 0.0
0.0 0.0 0.0

-2.9156481031140652e6 6.934845199799177e6 0.0
6.934845199799177e6 41261.417458047275 0.0
0.0 0.0 0.0

-588419.8500052996 5.646324807264911e6 0.0
5.646324807264911e6 -234854.3374831209 0.0
0.0 0.0 0.0

-3.576177765545222e6 3.00219932049547e6 0.0
3.00219932049547e6 5.4312086292290995e6 0.0
0.0 0.0 0.0

755542.8287970466 310478.1273583789 0.0
310478.1273583789 -846717.7448636959 0.0
0.0 0.0 0.0

-625496.1122623726 5.848513936408083e6 0.0
5.848513936408083e6 -1.513862568997334e6 0.0
0.0 0.0 0.0

-358137.1326557698 6.733720151025204e6 0.0
6.733720151025204e6 -1.3546938920519506e6 0.0
0.0 0.0 0.0

-261412.154441631 1.2468047959300214e6 0.0
1.2468047959300214e6 -574025.6888259611 0.0
0.0 0.0 0.0

696485.6675975012 316178.0206926098 0.0
316178.0206926098 -1.053483499887354e6 0.0
0.0 0.0 0.0

-1.0869393826855086e7 7.9599977883898625e6 0.0
7.9599977883898625e6 1.9102976075185567e7 0.0
0.0 0.0 0.0

-842402.005988541 -35904.508405266664 0.0
-35904.508405266664 1.3012871043328224e6 0.0
0.0 0.0 0.0

-2.711577397109524e6 6.027903965190824e6 0.0
6.027903965190824e6 1.108652056677617e6 0.0
0.0 0.0 0.0

-2.1411967931711087e6 3.020656529477747e6 0.0
3.020656529477747e6 738740.4655004136 0.0
0.0 0.0 0.0

-628104.4687017736 3.630462702237616e6 0.0
3.630462702237616e6 -1.4514645998547466e6 0.0
0.0 0.0 0.0

-773433.4584006581 7.276741878524987e6 0.0
7.276741878524987e6 -528680.6971009404 0.0
0.0 0.0 0.0

-2.294724381390132e6 4.478627073190216e6 0.0
4.478627073190216e6 681872.8401198975 0.0
0.0 0.0 0.0

-5.843568979667339e6 7.189746157264174e6 0.0
7.189746157264174e6 3.5555130707115903e6 0.0
0.0 0.0 0.0

693038.6435444028 2.8768507297572866e6 0.0
2.8768507297572866e6 -1.7761362467999267e6 0.0
0.0 0.0 0.0

388221.23418991856 356795.70174487884 0.0
356795.70174487884 -692447.7938981729 0.0
0.0 0.0 0.0

-408899.5460816925 5.678935947634946e6 0.0
5.678935947634946e6 -547927.6754258522 0.0
0.0 0.0 0.0

-2.1017456593164857e6 4.970727356165839e6 0.0
4.970727356165839e6 376371.3355851852 0.0
0.0 0.0 0.0

-642699.4423400869 5.382414966106755e6 0.0
5.382414966106755e6 170917.54644517822 0.0
0.0 0.0 0.0

-808605.242578034 2.9366513891012697e6 0.0
2.9366513891012697e6 403030.8127007147 0.0
0.0 0.0 0.0

-512330.2053619248 5.937195032855972e6 0.0
5.937195032855972e6 -1.6649909753678595e6 0.0
0.0 0.0 0.0

-1.8848642820727386e7 -3.100193619071101e6 0.0
-3.100193619071101e6 1.2197949251143614e7 0.0
0.0 0.0 0.0

-821131.5572666692 2.9265688220301433e6 0.0
2.9265688220301433e6 404363.6150206125 0.0
0.0 0.0 0.0

-2.098796775443718e6 4.9428392274839645e6 0.0
4.9428392274839645e6 405346.34202016296 0.0
0.0 0.0 0.0

-689565.352691974 5.945691798260492e6 0.0
5.945691798260492e6 -1.3020948924216763e6 0.0
0.0 0.0 0.0

-523845.8348897585 4.052264713094383e6 0.0
4.052264713094383e6 -1.7458531176468271e6 0.0
0.0 0.0 0.0

-5.2496756498491345e6 6.587068020124094e6 0.0
6.587068020124094e6 2.9954161565986397e6 0.0
0.0 0.0 0.0

-532710.7640681113 4.012952270439246e6 0.0
4.012952270439246e6 -1.663721103217182e6 0.0
0.0 0.0 0.0

-803393.914793263 6.313635795013353e6 0.0
6.313635795013353e6 -943043.6158183558 0.0
0.0 0.0 0.0

-244874.65739512182 5.671185648420209e6 0.0
5.671185648420209e6 -620648.0325976973 0.0
0.0 0.0 0.0

-4.0748629211040987e6 5.3139717583856275e6 0.0
5.3139717583856275e6 1.7579081043690222e6 0.0
0.0 0.0 0.0

-2.1362175053942692e6 5.013407203060559e6 0.0
5.013407203060559e6 355212.4597541441 0.0
0.0 0.0 0.0

-597329.896899131 5.935288455984081e6 0.0
5.935288455984081e6 -1.5187104283705465e6 0.0
0.0 0.0 0.0

-846339.3546869957 6.915489667244222e6 0.0
6.915489667244222e6 -762577.1992524962 0.0
0.0 0.0 0.0

-2.794886415572183e6 3.54388485566832e6 0.0
3.54388485566832e6 1.0334760324288108e6 0.0
0.0 0.0 0.0

-2.0961323751989808e6 4.930913652396272e6 0.0
4.930913652396272e6 397815.7629814468 0.0
0.0 0.0 0.0

294200.99327677087 183402.56347292854 0.0
183402.56347292854 59571.6331445876 0.0
0.0 0.0 0.0

-1.5438292720368973e6 3.503248851680101e6 0.0
3.503248851680101e6 1.076221949765098e6 0.0
0.0 0.0 0.0

-563998.9689384657 3.9304621267194347e6 0.0
3.9304621267194347e6 -1.5654377275917865e6 0.0
0.0 0.0 0.0

978404.4065848206 7.7310234912791215e6 0.0
7.7310234912791215e6 -1.5103680023876084e6 0.0
0.0 0.0 0.0

-685877.870628935 5.685578622835949e6 0.0
5.685578622835949e6 -1.507157728458395e6 0.0
0.0 0.0 0.0

-673348.3461267643 4.77219196069184e6 0.0
4.77219196069184e6 -1.0394620706742126e6 0.0
0.0 0.0 0.0

-584163.4810196664 2.940148644686007e6 0.0
2.940148644686007e6 299600.4048277039 0.0
0.0 0.0 0.0

-3.111886101245502e6 3.8533043547716294e6 0.0
3.8533043547716294e6 1.7468868020016153e6 0.0
0.0 0.0 0.0

-644360.1419536715 3.817251444530346e6 0.0
3.817251444530346e6 -1.392436860365982e6 0.0
0.0 0.0 0.0

-806689.6169283321 5.838204414148991e6 0.0
5.838204414148991e6 -1.0464749620929022e6 0.0
0.0 0.0 0.0

-8.278567294004328e6 3.002061004720385e6 0.0
3.002061004720385e6 3.043337643899007e6 0.0
0.0 0.0 0.0

-8.336811438550158e6 -2.2586954613221525e6 0.0
-2.2586954613221525e6 4.398676493665209e6 0.0
0.0 0.0 0.0

-3.2094689585337993e6 6.470893949155325e6 0.0
6.470893949155325e6 858967.9558044183 0.0
0.0 0.0 0.0

-7.077780937437158e6 3.2291510892753312e6 0.0
3.2291510892753312e6 2.561193763361652e6 0.0
0.0 0.0 0.0

-4.578072904431845e6 1.2450326032115756e7 0.0
1.2450326032115756e7 5.213586941173473e6 0.0
0.0 0.0 0.0

-633567.392688401 4.697971579311487e6 0.0
4.697971579311487e6 -1.7633679027728068e6 0.0
0.0 0.0 0.0

-449118.97825321625 4.513432536864308e6 0.0
4.513432536864308e6 -1.918503435199747e6 0.0
0.0 0.0 0.0

-1.9552513254856854e6 4.909945098515363e6 0.0
4.909945098515363e6 419460.8535345328 0.0
0.0 0.0 0.0

-768221.0336922882 3.207736461519502e6 0.0
3.207736461519502e6 448245.1131390224 0.0
0.0 0.0 0.0

-1.9741888017596412e6 5.194032860508917e6 0.0
5.194032860508917e6 277095.1028527701 0.0
0.0 0.0 0.0

-617556.2429087999 4.082197598157998e6 0.0
4.082197598157998e6 -649404.7808899212 0.0
0.0 0.0 0.0

-978749.9649426455 3.6336529296982703e6 0.0
3.6336529296982703e6 -494234.3578844841 0.0
0.0 0.0 0.0

-6.461006056010766e6 7.879605123577814e6 0.0
7.879605123577814e6 4.288609503391826e6 0.0
0.0 0.0 0.0

-820749.3400113088 7.260736152283314e6 0.0
7.260736152283314e6 -689377.6709092413 0.0
0.0 0.0 0.0

-758504.5630866948 6.391445093809316e6 0.0
6.391445093809316e6 -997045.6942425545 0.0
0.0 0.0 0.0

538486.7557854261 5.821115962590747e6 0.0
5.821115962590747e6 -2.0888817214069052e6 0.0
0.0 0.0 0.0

-2.1955891184037393e6 4.627493870596014e6 0.0
4.627493870596014e6 623858.6955056743 0.0
0.0 0.0 0.0

-1.9436426628785306e6 3.379838117301157e6 0.0
3.379838117301157e6 573686.9254693686 0.0
0.0 0.0 0.0

-93878.94871937949 4.523889978946342e6 0.0
4.523889978946342e6 -1.5798506733233195e6 0.0
0.0 0.0 0.0

-523527.43306482246 4.054097031760703e6 0.0
4.054097031760703e6 -1.7488856716952713e6 0.0
0.0 0.0 0.0

-924596.7791831767 5.5586537155872965e6 0.0
5.5586537155872965e6 86860.71854860638 0.0
0.0 0.0 0.0

-852846.6486352605 4.54677012665179e6 0.0
4.54677012665179e6 1.3489132128956956e6 0.0
0.0 0.0 0.0

-241014.4635867486 6.190827792766681e6 0.0
6.190827792766681e6 93837.09187837371 0.0
0.0 0.0 0.0

-579284.7445097242 7.574128365709922e6 0.0
7.574128365709922e6 -539034.3635931835 0.0
0.0 0.0 0.0

-2.166531741524855e6 4.577927181952375e6 0.0
4.577927181952375e6 770125.849598075 0.0
0.0 0.0 0.0

-1.8157657829172274e6 -595674.3674079386 0.0
-595674.3674079386 3.6724516056254026e6 0.0
0.0 0.0 0.0

-1.4322528150456715e6 3.2608440947418744e6 0.0
3.2608440947418744e6 -68044.70832773106 0.0
0.0 0.0 0.0

-637273.5566102278 5.800556974609462e6 0.0
5.800556974609462e6 280162.27610286884 0.0
0.0 0.0 0.0

-2.0685415083112249e6 4.931946644716194e6 0.0
4.931946644716194e6 441111.53986809193 0.0
0.0 0.0 0.0

-1.8809325964633292e6 3.9340987263520886e6 0.0
3.9340987263520886e6 1.1176451117878999e6 0.0
0.0 0.0 0.0

-534045.2098239643 6.120204902009072e6 0.0
6.120204902009072e6 -1.620394223002901e6 0.0
0.0 0.0 0.0

-3.2045683420857633e6 3.789111386977652e6 0.0
3.789111386977652e6 1.2083966962429595e6 0.0
0.0 0.0 0.0

-4.392619924631368e6 5.653945242205116e6 0.0
5.653945242205116e6 1.9700031333085475e6 0.0
0.0 0.0 0.0

-2.2662459798253225e6 3.563792054271226e6 0.0
3.563792054271226e6 802641.8285039775 0.0
0.0 0.0 0.0

-528035.4441663113 6.024502040171827e6 0.0
6.024502040171827e6 -1.548548353620663e6 0.0
0.0 0.0 0.0

-3.241795261730518e6 4.364007801190473e6 0.0
4.364007801190473e6 1.2865842185470408e6 0.0
0.0 0.0 0.0

-949619.1962117124 7.191331664928735e6 0.0
7.191331664928735e6 -545876.8575770463 0.0
0.0 0.0 0.0

-968410.525291403 5.040690683726284e6 0.0
5.040690683726284e6 522927.6862527484 0.0
0.0 0.0 0.0

-2.1768822855507703e6 3.6511815621585515e6 0.0
3.6511815621585515e6 756959.2976169819 0.0
0.0 0.0 0.0

-2.450882753472013e6 4.502417400832943e6 0.0
4.502417400832943e6 640414.9790891717 0.0
0.0 0.0 0.0

-145592.86079139635 -232938.67057788098 0.0
-232938.67057788098 574928.2411837701 0.0
0.0 0.0 0.0

-4.17683592591773e6 5.459920419442762e6 0.0
5.459920419442762e6 1.9031448625885032e6 0.0
0.0 0.0 0.0

556920.1675189646 5.7714866460413905e6 0.0
5.7714866460413905e6 -2.1367278964952356e6 0.0
0.0 0.0 0.0

-2.6360793505240376e6 4.705129436501728e6 0.0
4.705129436501728e6 646617.0147375673 0.0
0.0 0.0 0.0

-193070.173199854 321582.7894574265 0.0
321582.7894574265 68553.54393273978 0.0
0.0 0.0 0.0

-528336.7156269059 3.8510019364005295e6 0.0
3.8510019364005295e6 -1.5936520303808162e6 0.0
0.0 0.0 0.0

-1.9889846735524447e6 5.130656383944234e6 0.0
5.130656383944234e6 255434.88530147786 0.0
0.0 0.0 0.0

-1.203951883335378e6 5.885022681804846e6 0.0
5.885022681804846e6 -219338.34983253066 0.0
0.0 0.0 0.0

-1.598387934665785e6 6.0188133688243115e6 0.0
6.0188133688243115e6 316355.7713885172 0.0
0.0 0.0 0.0

-695909.06956279 4.6866302861452745e6 0.0
4.6866302861452745e6 -1.3089801196885519e6 0.0
0.0 0.0 0.0

-893329.5634974192 2.479842965830795e6 0.0
2.479842965830795e6 1.032525940278301e6 0.0
0.0 0.0 0.0

-918046.8033000209 3.7783476356534455e6 0.0
3.7783476356534455e6 143618.92361595418 0.0
0.0 0.0 0.0

-50759.76632243022 6.147252123268869e6 0.0
6.147252123268869e6 -1.8070664442150793e6 0.0
0.0 0.0 0.0

-594287.5678435328 5.662559301227021e6 0.0
5.662559301227021e6 20992.538147589046 0.0
0.0 0.0 0.0

-560189.9209402793 4.687495413451542e6 0.0
4.687495413451542e6 -1.996766668973006e6 0.0
0.0 0.0 0.0

-1.6960838308010541e6 3.60463434585806e6 0.0
3.60463434585806e6 785249.1814247465 0.0
0.0 0.0 0.0

-3.2342697695529885e6 3.953125685716391e6 0.0
3.953125685716391e6 1.2067422119526942e6 0.0
0.0 0.0 0.0

-2.3100558281139242e6 3.186886287318149e6 0.0
3.186886287318149e6 821373.8759190824 0.0
0.0 0.0 0.0

-868633.4814353925 7.011526250203689e6 0.0
7.011526250203689e6 -669089.8838005825 0.0
0.0 0.0 0.0

-758007.8457615597 6.524131488210058e6 0.0
6.524131488210058e6 -941233.9019709869 0.0
0.0 0.0 0.0

-2.0721004337394526e6 4.762098496043672e6 0.0
4.762098496043672e6 534474.7902386449 0.0
0.0 0.0 0.0

-1.158261281140154e6 5.459719101295279e6 0.0
5.459719101295279e6 342325.9760976116 0.0
0.0 0.0 0.0

-1.2234374122910586e6 4.1853749793515215e6 0.0
4.1853749793515215e6 834378.7392351483 0.0
0.0 0.0 0.0

-367105.990136961 3.480218465633611e6 0.0
3.480218465633611e6 -1.676955232732992e6 0.0
0.0 0.0 0.0

-718541.6523135147 6.137617041944709e6 0.0
6.137617041944709e6 -1.2802827532950083e6 0.0
0.0 0.0 0.0

-750506.3085125478 5.587462117120534e6 0.0
5.587462117120534e6 -122608.41791994085 0.0
0.0 0.0 0.0

-507339.55118941405 3.880148339743426e6 0.0
3.880148339743426e6 -2.0689911750926638e6 0.0
0.0 0.0 0.0

-1.870139877176826e6 4.810194323145715e6 0.0
4.810194323145715e6 989336.1152121344 0.0
0.0 0.0 0.0

-4.631788223104971e6 5.840257363853297e6 0.0
5.840257363853297e6 2.1452809435486235e6 0.0
0.0 0.0 0.0

-361722.7822782794 5.929356025278356e6 0.0
5.929356025278356e6 -293656.58677802305 0.0
0.0 0.0 0.0

2.9159210793146756e6 1.2278336869504696e7 0.0
1.2278336869504696e7 9.71970704919267e6 0.0
0.0 0.0 0.0

-509873.12352008687 5.349581819432099e6 0.0
5.349581819432099e6 -1.699578234005848e6 0.0
0.0 0.0 0.0

-1.9458418957937716e6 3.226884102205594e6 0.0
3.226884102205594e6 590903.6557214137 0.0
0.0 0.0 0.0

-4.0627568156819753e6 3.0917354240315394e6 0.0
3.0917354240315394e6 579799.1148446251 0.0
0.0 0.0 0.0

-2.576546479892455e6 3.948891632632723e6 0.0
3.948891632632723e6 702818.8037511465 0.0
0.0 0.0 0.0

-729055.5857668901 5.56514627185188e6 0.0
5.56514627185188e6 -248796.5939188364 0.0
0.0 0.0 0.0

-489393.56412652426 5.729915112914289e6 0.0
5.729915112914289e6 117005.43501540044 0.0
0.0 0.0 0.0

-1.8869814669260513e6 6.213503748972795e6 0.0
6.213503748972795e6 4.281384921313597e6 0.0
0.0 0.0 0.0

153663.17016555637 4.542431847717099e6 0.0
4.542431847717099e6 -74879.9810951443 0.0
0.0 0.0 0.0

-713090.9677700341 6.256744472274849e6 0.0
6.256744472274849e6 269063.8561525624 0.0
0.0 0.0 0.0

-803094.792663587 7.508420420787997e6 0.0
7.508420420787997e6 -642150.5263700238 0.0
0.0 0.0 0.0

-493478.4366672154 5.757934949958955e6 0.0
5.757934949958955e6 -528390.9719503475 0.0
0.0 0.0 0.0

-780582.1499361773 5.572848416360599e6 0.0
5.572848416360599e6 -218111.649885289 0.0
0.0 0.0 0.0

-3.365018725557965e6 6.290803326393245e6 0.0
6.290803326393245e6 1.4726846084894366e6 0.0
0.0 0.0 0.0

-1.748194746252492e6 3.9258779449036093e6 0.0
3.9258779449036093e6 1.1318863826163611e6 0.0
0.0 0.0 0.0

666582.2637884826 5.345693253904685e6 0.0
5.345693253904685e6 -2.2647584102480114e6 0.0
0.0 0.0 0.0

-1.1133788058197272e6 3.1511169586232565e6 0.0
3.1511169586232565e6 331925.802559863 0.0
0.0 0.0 0.0

83705.72191226529 152256.09374142345 0.0
152256.09374142345 160258.49108577732 0.0
0.0 0.0 0.0

-1.3939543055347144e6 5.086568816675368e6 0.0
5.086568816675368e6 670721.0557040006 0.0
0.0 0.0 0.0

-3.1401237082040063e6 4.9078295701300455e6 0.0
4.9078295701300455e6 1.3548969295295756e6 0.0
0.0 0.0 0.0

867540.6810472473 8.0321419477928e6 0.0
8.0321419477928e6 2.3745040682964893e6 0.0
0.0 0.0 0.0

-238490.68477386716 6.143441079167101e6 0.0
6.143441079167101e6 -488931.00180389587 0.0
0.0 0.0 0.0

-2.5681033679778553e6 4.474461195212467e6 0.0
4.474461195212467e6 723286.6924624782 0.0
0.0 0.0 0.0

1.7278080128436096e6 3.159529850243649e6 0.0
3.159529850243649e6 -3.4989384634045116e6 0.0
0.0 0.0 0.0

-2.845226109365077e6 4.640748932443405e6 0.0
4.640748932443405e6 879334.5512385041 0.0
0.0 0.0 0.0

-435690.53301159607 6.178204944209019e6 0.0
6.178204944209019e6 -1.78383107917142e6 0.0
0.0 0.0 0.0

-2.098381473934137e6 5.00461372389458e6 0.0
5.00461372389458e6 382102.18428753153 0.0
0.0 0.0 0.0

-1.3179803340475808e6 7.348883381985753e6 0.0
7.348883381985753e6 -375860.7210647016 0.0
0.0 0.0 0.0

-1.791143131538649e6 5.35610506917658e6 0.0
5.35610506917658e6 210402.94235771312 0.0
0.0 0.0 0.0

632442.9718828648 5.00268504119805e6 0.0
5.00268504119805e6 -1.9171192433537883e6 0.0
0.0 0.0 0.0

-258939.14475333918 6.5594009355522385e6 0.0
6.5594009355522385e6 -1.3280157528009363e6 0.0
0.0 0.0 0.0

-2.2164514322891175e6 5.60264539831829e6 0.0
5.60264539831829e6 763620.1894594599 0.0
0.0 0.0 0.0

-1.135984153644739e6 5.608538199910765e6 0.0
5.608538199910765e6 -113610.02458309286 0.0
0.0 0.0 0.0

-563600.8660890965 3.978188130598559e6 0.0
3.978188130598559e6 -1.2312048502131407e6 0.0
0.0 0.0 0.0

447320.1802712033 5.347456061401482e6 0.0
5.347456061401482e6 -2.0208742238997798e6 0.0
0.0 0.0 0.0

-2.179958145536738e6 3.7573092442178056e6 0.0
3.7573092442178056e6 766358.240484669 0.0
0.0 0.0 0.0

-502342.79851220327 4.964021430225291e6 0.0
4.964021430225291e6 -1.9751757954093253e6 0.0
0.0 0.0 0.0

-153853.42414436513 332920.430538259 0.0
332920.430538259 848227.5527335465 0.0
0.0 0.0 0.0

-1.642455361866685e6 3.560767389823069e6 0.0
3.560767389823069e6 1.085764097056026e6 0.0
0.0 0.0 0.0

-2.325031668136622e6 5.107887594160251e6 0.0
5.107887594160251e6 323490.23282407224 0.0
0.0 0.0 0.0

48887.44493203086 4.86139090435361e6 0.0
4.86139090435361e6 -1.58249160240311e6 0.0
0.0 0.0 0.0

-3.1416074362336993e6 2.6376949901760644e6 0.0
2.6376949901760644e6 4.514303609075359e6 0.0
0.0 0.0 0.0

-567695.8168972473 5.599342589306561e6 0.0
5.599342589306561e6 -295919.4622820108 0.0
0.0 0.0 0.0

-2.1026376719307816e6 3.927156458480343e6 0.0
3.927156458480343e6 2.6853514428337775e6 0.0
0.0 0.0 0.0

-2.2131542510113176e6 3.0951597846637494e6 0.0
3.0951597846637494e6 779253.2109631113 0.0
0.0 0.0 0.0

-1.6868616171106792e6 3.54313613122363e6 0.0
3.54313613122363e6 687387.3854175688 0.0
0.0 0.0 0.0

-584009.564913525 4.0825301506280536e6 0.0
4.0825301506280536e6 -1.1839741838157997e6 0.0
0.0 0.0 0.0

-663056.4587999822 6.007049727311192e6 0.0
6.007049727311192e6 -1.3892144691319508e6 0.0
0.0 0.0 0.0

-195730.1815949123 3.417521678914001e6 0.0
3.417521678914001e6 -2.1207153814372243e6 0.0
0.0 0.0 0.0

-236766.80856189877 181378.82113672505 0.0
181378.82113672505 164900.52276283325 0.0
0.0 0.0 0.0

319162.6663067479 -1.116801255712945e6 0.0
-1.116801255712945e6 793669.1099299047 0.0
0.0 0.0 0.0

-1.8463699431342909e6 5.277742004128192e6 0.0
5.277742004128192e6 103895.22703776497 0.0
0.0 0.0 0.0

-879678.7425268255 6.942074123045424e6 0.0
6.942074123045424e6 -692965.3472210127 0.0
0.0 0.0 0.0

-1.8853295018586104e6 4.404322660288965e6 0.0
4.404322660288965e6 4.478188843809385e6 0.0
0.0 0.0 0.0

-570430.7587959751 4.1770128235824667e6 0.0
4.1770128235824667e6 -1.1369822322400385e6 0.0
0.0 0.0 0.0

-644739.6947138419 7.649920548672292e6 0.0
7.649920548672292e6 -749007.0450166212 0.0
0.0 0.0 0.0

-2.3557252774490844e6 4.139554914488317e6 0.0
4.139554914488317e6 789990.0822773868 0.0
0.0 0.0 0.0

373317.19907711534 375490.18251114263 0.0
375490.18251114263 -641063.7459269447 0.0
0.0 0.0 0.0

-5.470555486683824e6 1.010384267888159e7 0.0
1.010384267888159e7 4.5615878011804e6 0.0
0.0 0.0 0.0

-901641.7240733906 5.946927247924134e6 0.0
5.946927247924134e6 -1.0511171332172349e6 0.0
0.0 0.0 0.0

-748875.7366265997 3.9366568283530152e6 0.0
3.9366568283530152e6 -2.0131760597429757e6 0.0
0.0 0.0 0.0

544936.7051462996 5.783938909838288e6 0.0
5.783938909838288e6 -2.1953145062693264e6 0.0
0.0 0.0 0.0

-910366.451662481 5.722397486056995e6 0.0
5.722397486056995e6 143266.39329699724 0.0
0.0 0.0 0.0

-1.4344313954190633e6 3.3946283029733305e6 0.0
3.3946283029733305e6 1.0450981186797264e6 0.0
0.0 0.0 0.0

-5.623009027907404e6 -1.4860750479695036e6 0.0
-1.4860750479695036e6 5.089492905883033e6 0.0
0.0 0.0 0.0

-2.5330795068560746e6 6.015712652530961e6 0.0
6.015712652530961e6 1.3497092453165092e6 0.0
0.0 0.0 0.0

-360504.01550959394 6.217700606236338e6 0.0
6.217700606236338e6 -359522.9040784679 0.0
0.0 0.0 0.0

-517667.30519785953 3.604236463617538e6 0.0
3.604236463617538e6 -1.409919872234551e6 0.0
0.0 0.0 0.0

362090.1267012136 579792.078941883 0.0
579792.078941883 -530410.0701845923 0.0
0.0 0.0 0.0

-1.1728855621369255e6 4.28884879940649e6 0.0
4.28884879940649e6 -474045.1754523774 0.0
0.0 0.0 0.0

-660169.2186920065 5.482528247737582e6 0.0
5.482528247737582e6 -503010.65744712285 0.0
0.0 0.0 0.0

-562269.0616959087 5.579260130187803e6 0.0
5.579260130187803e6 -383882.80261847924 0.0
0.0 0.0 0.0

-885121.3289553885 6.416704731147102e6 0.0
6.416704731147102e6 -1.0386063248941881e6 0.0
0.0 0.0 0.0

-772488.6046466129 5.207337263854259e6 0.0
5.207337263854259e6 -75715.32202228252 0.0
0.0 0.0 0.0

-663904.1121904044 4.352746716599978e6 0.0
4.352746716599978e6 -1.1895566442013152e6 0.0
0.0 0.0 0.0

-848888.7416415048 6.793447414093651e6 0.0
6.793447414093651e6 -731568.7525207892 0.0
0.0 0.0 0.0

-544483.0914989251 6.625698352032338e6 0.0
6.625698352032338e6 -1.053334362623938e6 0.0
0.0 0.0 0.0

-404879.9782533775 5.6615975021324605e6 0.0
5.6615975021324605e6 -2.0005827663199038e6 0.0
0.0 0.0 0.0

-1.748264354945968e6 4.547074650074344e6 0.0
4.547074650074344e6 1.0035534747384824e6 0.0
0.0 0.0 0.0

-1.1262675069414517e6 2.8998422601514976e6 0.0
2.8998422601514976e6 -332547.59588645684 0.0
0.0 0.0 0.0

-1.901988325617736e7 2.133221094065114e6 0.0
2.133221094065114e6 1.3852365206469132e7 0.0
0.0 0.0 0.0

-4.1054276263108035e6 5.110422280715013e6 0.0
5.110422280715013e6 6.344821962792624e6 0.0
0.0 0.0 0.0

491506.49612902314 5.832684071362158e6 0.0
5.832684071362158e6 -2.059433266908933e6 0.0
0.0 0.0 0.0

411006.2361870982 -686614.7466805197 0.0
-686614.7466805197 663064.9555042986 0.0
0.0 0.0 0.0

-803935.1240042975 3.549348396915548e6 0.0
3.549348396915548e6 -2.0537027974463634e6 0.0
0.0 0.0 0.0

-558559.6856082235 4.056806525886974e6 0.0
4.056806525886974e6 -1.7306082081087884e6 0.0
0.0 0.0 0.0

-1.385767974359476e6 5.874457274225493e6 0.0
5.874457274225493e6 158421.49241533602 0.0
0.0 0.0 0.0

-5.257215657535179e6 4.623940760869754e6 0.0
4.623940760869754e6 3.192598367619202e6 0.0
0.0 0.0 0.0

-1.30991795321888e6 3.3716397271687174e6 0.0
3.3716397271687174e6 1.6314937638325905e6 0.0
0.0 0.0 0.0

-797145.3978228732 6.649013065034829e6 0.0
6.649013065034829e6 -781412.8932338865 0.0
0.0 0.0 0.0

-1.592259810214495e6 -3.8553349403922525e6 0.0
-3.8553349403922525e6 4.796734753461662e6 0.0
0.0 0.0 0.0

-1.1519493337076802e6 3.269894768542333e6 0.0
3.269894768542333e6 752598.5808700037 0.0
0.0 0.0 0.0

-26115.219084523153 4.78236014162577e6 0.0
4.78236014162577e6 -1.5826808391607117e6 0.0
0.0 0.0 0.0

-3.3173179384926697e6 4.0113394434347604e6 0.0
4.0113394434347604e6 1.255994821796322e6 0.0
0.0 0.0 0.0

402504.35052681924 5.050426365706725e6 0.0
5.050426365706725e6 -1.8277483793277794e6 0.0
0.0 0.0 0.0

-9.768659906215776e6 2.324052959726544e6 0.0
2.324052959726544e6 3.2100837959694667e6 0.0
0.0 0.0 0.0

-1.950762789862236e6 -4.455412590896508e6 0.0
-4.455412590896508e6 5.92816763583393e6 0.0
0.0 0.0 0.0

-435650.73116547 5.555187441684348e6 0.0
5.555187441684348e6 -1.9076412631150614e6 0.0
0.0 0.0 0.0

-2.1390482365583717e6 5.078651320497942e6 0.0
5.078651320497942e6 340768.49125374726 0.0
0.0 0.0 0.0

-5.065639032435512e6 4.743502045318874e6 0.0
4.743502045318874e6 -655538.4067034178 0.0
0.0 0.0 0.0

211753.26354814856 4.953452272943387e6 0.0
4.953452272943387e6 -1.7772856759872017e6 0.0
0.0 0.0 0.0

-2.549805583961807e6 3.4073336213609152e6 0.0
3.4073336213609152e6 947616.3671564113 0.0
0.0 0.0 0.0

-1.9606192442050548e6 4.176462212500311e6 0.0
4.176462212500311e6 1.1331651992752715e6 0.0
0.0 0.0 0.0

-1.6925254150006173e6 3.7602628309717597e6 0.0
3.7602628309717597e6 3.372233030482567e6 0.0
0.0 0.0 0.0

-732580.4527708567 5.064450983563606e6 0.0
5.064450983563606e6 -1.5707139389339162e6 0.0
0.0 0.0 0.0

-555142.5911324099 4.0063175494219474e6 0.0
4.0063175494219474e6 -1.6735032977969071e6 0.0
0.0 0.0 0.0

-1.437274751047558e6 5.487613715428103e6 0.0
5.487613715428103e6 -304424.17452654 0.0
0.0 0.0 0.0

-3.4196326698527867e6 4.0852213822281137e6 0.0
4.0852213822281137e6 1.2690479710876623e6 0.0
0.0 0.0 0.0

-820686.0486341824 2.7983723668742836e6 0.0
2.7983723668742836e6 104205.16153156187 0.0
0.0 0.0 0.0

647590.0266930503 5.033290623510528e6 0.0
5.033290623510528e6 -1.9268231630726785e6 0.0
0.0 0.0 0.0

-3.1821551644361187e6 3.7241026330335704e6 0.0
3.7241026330335704e6 794142.5944718511 0.0
0.0 0.0 0.0

545146.0286068962 6.0865357167412825e6 0.0
6.0865357167412825e6 -1.5229622238127915e6 0.0
0.0 0.0 0.0

-587013.8394468596 4.295002817229169e6 0.0
4.295002817229169e6 -1.268731215581923e6 0.0
0.0 0.0 0.0

512183.9859398757 5.097909860224724e6 0.0
5.097909860224724e6 -1.8992031120218e6 0.0
0.0 0.0 0.0

-560346.4309574079 3.9181399819590906e6 0.0
3.9181399819590906e6 -1.5900346138635345e6 0.0
0.0 0.0 0.0

-1.3115638210091419e6 711365.7799147982 0.0
711365.7799147982 1.3475630807377312e6 0.0
0.0 0.0 0.0

267283.73359213694 711683.7626920268 0.0
711683.7626920268 -632973.1688474735 0.0
0.0 0.0 0.0

-1.7487766301740487e6 3.2980043345508333e6 0.0
3.2980043345508333e6 404674.96474611585 0.0
0.0 0.0 0.0

-357595.13726525626 5.900277514714356e6 0.0
5.900277514714356e6 -336103.8231690465 0.0
0.0 0.0 0.0

511538.0180287687 5.255779469897982e6 0.0
5.255779469897982e6 -1.974993899492273e6 0.0
0.0 0.0 0.0

-1.9923888920976222e6 4.7836173703507455e6 0.0
4.7836173703507455e6 534162.5857918311 0.0
0.0 0.0 0.0

-148972.3386553977 379204.62577759795 0.0
379204.62577759795 208624.66157406082 0.0
0.0 0.0 0.0

-585696.9339139948 4.855097749270954e6 0.0
4.855097749270954e6 -1.0703881918285217e6 0.0
0.0 0.0 0.0

-443335.57719714544 5.804825781079129e6 0.0
5.804825781079129e6 -1.8884869631158262e6 0.0
0.0 0.0 0.0

-1.0552800105341189e6 5.468472902544307e6 0.0
5.468472902544307e6 296155.73344086105 0.0
0.0 0.0 0.0

-1.502304309590145e6 5.163816579993196e6 0.0
5.163816579993196e6 1.3308723781576976e6 0.0
0.0 0.0 0.0

-608560.0926321234 5.837836170686867e6 0.0
5.837836170686867e6 -101856.90933695581 0.0
0.0 0.0 0.0

-1.1344424796534192e6 5.389821325554618e6 0.0
5.389821325554618e6 -156055.15292575036 0.0
0.0 0.0 0.0

-2.563310341307935e6 3.969018407957501e6 0.0
3.969018407957501e6 855911.4083507266 0.0
0.0 0.0 0.0

-1.1951736129681026e6 5.781924880853519e6 0.0
5.781924880853519e6 394678.47760254267 0.0
0.0 0.0 0.0

555619.6815501216 3.2507275381547604e6 0.0
3.2507275381547604e6 -185048.51019210648 0.0
0.0 0.0 0.0

-896691.7186213308 -3.077822128220837e6 0.0
-3.077822128220837e6 3.3022324228620725e6 0.0
0.0 0.0 0.0

-425344.8871722471 3.5718109537892113e6 0.0
3.5718109537892113e6 672646.6811341427 0.0
0.0 0.0 0.0

214613.227658025 -1.3421534320990203e6 0.0
-1.3421534320990203e6 1.048814189237238e6 0.0
0.0 0.0 0.0

-896689.8736017308 5.562128461554616e6 0.0
5.562128461554616e6 -309803.86471647647 0.0
0.0 0.0 0.0

-1.4409633912569785e7 897683.7312923343 0.0
897683.7312923343 1.720589345767257e7 0.0
0.0 0.0 0.0

-1.750714482275943e6 3.4660165880056876e6 0.0
3.4660165880056876e6 368700.29950972076 0.0
0.0 0.0 0.0

1.9396380202322039e6 437136.3303878176 0.0
437136.3303878176 -2.0540919692820243e6 0.0
0.0 0.0 0.0

2.34181540114392e6 455675.5102925677 0.0
455675.5102925677 -2.459851754427677e6 0.0
0.0 0.0 0.0

-826448.3397170627 6.580719271729762e6 0.0
6.580719271729762e6 -801527.8979513396 0.0
0.0 0.0 0.0

-1.9387712307469437e6 5.75520281115953e6 0.0
5.75520281115953e6 148881.3818911442 0.0
0.0 0.0 0.0

-741435.8610280913 6.517818997990666e6 0.0
6.517818997990666e6 -811372.221951783 0.0
0.0 0.0 0.0

-450299.6934992672 2.9198101373169385e6 0.0
2.9198101373169385e6 291810.6881160878 0.0
0.0 0.0 0.0

-576539.5308208126 3.8792156940729357e6 0.0
3.8792156940729357e6 -1.318693238464436e6 0.0
0.0 0.0 0.0

-415082.9126967334 5.395727801048663e6 0.0
5.395727801048663e6 -1.9858683492161953e6 0.0
0.0 0.0 0.0

-1.914771918752018e6 4.8762611926846765e6 0.0
4.8762611926846765e6 437607.5281517054 0.0
0.0 0.0 0.0

-488684.82268979 5.857760071908303e6 0.0
5.857760071908303e6 -1.8001800677319798e6 0.0
0.0 0.0 0.0

-1.9910040491446234e7 -532071.9928112548 0.0
-532071.9928112548 1.3126637536847722e7 0.0
0.0 0.0 0.0

-810971.5132449364 6.239020054392372e6 0.0
6.239020054392372e6 -1.1200462768995375e6 0.0
0.0 0.0 0.0

-4.291186346166281e6 4.1871469884862336e6 0.0
4.1871469884862336e6 1.5909163794874758e6 0.0
0.0 0.0 0.0

-572230.6353451903 4.327583605919229e6 0.0
4.327583605919229e6 -1.0169075529337783e6 0.0
0.0 0.0 0.0

-1.1398787521499058e6 4.634979853320331e6 0.0
4.634979853320331e6 814208.2051922752 0.0
0.0 0.0 0.0

-2.1382411579227597e6 4.458669005089443e6 0.0
4.458669005089443e6 1.60266132133856e6 0.0
0.0 0.0 0.0

-3.5073475832275986e6 9.343615992495123e6 0.0
9.343615992495123e6 1.7531314318662796e6 0.0
0.0 0.0 0.0

207482.76424155853 17889.954739635737 0.0
17889.954739635737 613614.9501167724 0.0
0.0 0.0 0.0

453197.4269308597 5.733081202152119e6 0.0
5.733081202152119e6 -2.1011506004283987e6 0.0
0.0 0.0 0.0

-1.8642647767257798e6 4.353137539972609e6 0.0
4.353137539972609e6 356370.77467530046 0.0
0.0 0.0 0.0

761200.4291933863 362597.5264495386 0.0
362597.5264495386 -1.0739790503362874e6 0.0
0.0 0.0 0.0

643656.3782847218 4.941316815077279e6 0.0
4.941316815077279e6 -1.929659641942602e6 0.0
0.0 0.0 0.0

-693629.2150451075 -2.774032091119017e6 0.0
-2.774032091119017e6 2.6349563401832543e6 0.0
0.0 0.0 0.0

-146501.76737244267 -147824.24542727403 0.0
-147824.24542727403 -365170.3338484414 0.0
0.0 0.0 0.0

-436453.60610923625 3.8867730268602804e6 0.0
3.8867730268602804e6 -1.2839125258271652e6 0.0
0.0 0.0 0.0

334003.34642974904 -320801.5891075585 0.0
-320801.5891075585 669503.5125129744 0.0
0.0 0.0 0.0

425301.20362047467 5.451348140343735e6 0.0
5.451348140343735e6 -2.0418397029718175e6 0.0
0.0 0.0 0.0

602849.490836433 4.952962904071589e6 0.0
4.952962904071589e6 -2.0610160875263836e6 0.0
0.0 0.0 0.0

-351062.44745880505 -2.664291004098801e6 0.0
-2.664291004098801e6 2.189026329096357e6 0.0
0.0 0.0 0.0

-1.9240171997978701e6 4.109414229275083e6 0.0
4.109414229275083e6 1.1413821223137202e6 0.0
0.0 0.0 0.0

-802925.9886652944 6.494877453198267e6 0.0
6.494877453198267e6 -827292.1385462029 0.0
0.0 0.0 0.0

-2.645079869668138e6 3.9994583876896407e6 0.0
3.9994583876896407e6 906286.2208891364 0.0
0.0 0.0 0.0

535119.7288298778 5.068160408480652e6 0.0
5.068160408480652e6 -1.936890705961259e6 0.0
0.0 0.0 0.0

60586.43147730746 -2.4480355021277266e6 0.0
-2.4480355021277266e6 1.6188321288042692e6 0.0
0.0 0.0 0.0

-556812.9650300454 4.282589099610056e6 0.0
4.282589099610056e6 -1.1210313047310715e6 0.0
0.0 0.0 0.0

-466336.89222934993 5.934865170657779e6 0.0
5.934865170657779e6 -1.6821397755617306e6 0.0
0.0 0.0 0.0

-2.6151189487151946e6 4.192478795790993e6 0.0
4.192478795790993e6 978294.9240289291 0.0
0.0 0.0 0.0

-2.2375406492665205e6 3.036039896795967e6 0.0
3.036039896795967e6 719254.9342434645 0.0
0.0 0.0 0.0

-1.3761700699813697e6 4.042847154336339e6 0.0
4.042847154336339e6 1.3416592007455959e6 0.0
0.0 0.0 0.0

299387.28483941976 -1.8090544571796698e6 0.0
-1.8090544571796698e6 1.166152309251286e6 0.0
0.0 0.0 0.0

515653.67779937794 5.168682784135877e6 0.0
5.168682784135877e6 -2.0578590562644969e6 0.0
0.0 0.0 0.0

-2.362340616520699e6 6.7478191966450205e6 0.0
6.7478191966450205e6 215671.83651479927 0.0
0.0 0.0 0.0

-2.7956127832917143e6 4.928843976365687e6 0.0
4.928843976365687e6 5.884165060086476e6 0.0
0.0 0.0 0.0

3.7658895285283793e6 1.6660333093340741e7 0.0
1.6660333093340741e7 -1.254842907414478e7 0.0
0.0 0.0 0.0

-665362.6401268227 2.156833267965531e6 0.0
2.156833267965531e6 -983687.3244055543 0.0
0.0 0.0 0.0

-3.231671627225032e6 3.826632529180185e6 0.0
3.826632529180185e6 1.139201688636564e6 0.0
0.0 0.0 0.0

163773.84994669014 1.5465251211645398e6 0.0
1.5465251211645398e6 -857392.6223778551 0.0
0.0 0.0 0.0

-2.7818953090103427e6 3.877371185698968e6 0.0
3.877371185698968e6 989526.0664968297 0.0
0.0 0.0 0.0

137094.642856278 3.24633389769963e6 0.0
3.24633389769963e6 -1.0334871037845062e6 0.0
0.0 0.0 0.0

-789208.6991276162 8.057425768514311e6 0.0
8.057425768514311e6 -676852.374209087 0.0
0.0 0.0 0.0

-778813.606643957 7.108732693811099e6 0.0
7.108732693811099e6 -415517.2436454365 0.0
0.0 0.0 0.0

-1.3324926132865832e6 3.32705824008348e6 0.0
3.32705824008348e6 282884.45671320666 0.0
0.0 0.0 0.0

-905495.3343553059 5.738654034209576e6 0.0
5.738654034209576e6 -388600.96780868334 0.0
0.0 0.0 0.0

-2.826496113522558e6 -5.081508978352916e6 0.0
-5.081508978352916e6 5.628190632374374e6 0.0
0.0 0.0 0.0

1.9729154804534237e6 604452.1238158526 0.0
604452.1238158526 -2.422164278012095e6 0.0
0.0 0.0 0.0

-749105.0798196404 -70155.67871311633 0.0
-70155.67871311633 647102.7035507252 0.0
0.0 0.0 0.0

-415347.4328968635 -995450.7116637601 0.0
-995450.7116637601 -206845.9232870466 0.0
0.0 0.0 0.0

-714687.5599011795 7.260171435316666e6 0.0
7.260171435316666e6 -441850.1663098284 0.0
0.0 0.0 0.0

-812801.8766836117 3.9279573538238565e6 0.0
3.9279573538238565e6 -2.004777935177379e6 0.0
0.0 0.0 0.0

-813020.7868705412 5.520464910022115e6 0.0
5.520464910022115e6 168815.7274308806 0.0
0.0 0.0 0.0

-718793.3392497338 5.086252512375675e6 0.0
5.086252512375675e6 992953.4843418852 0.0
0.0 0.0 0.0

513858.4973768339 5.475391199208913e6 0.0
5.475391199208913e6 -2.5599232992180726e6 0.0
0.0 0.0 0.0

-416610.24586950766 4.1527804202646115e6 0.0
4.1527804202646115e6 -1.7621736418309803e6 0.0
0.0 0.0 0.0

-777299.2680898564 6.006008521813228e6 0.0
6.006008521813228e6 -1.0296847783312597e6 0.0
0.0 0.0 0.0

-670534.5848692049 3.401574661796657e6 0.0
3.401574661796657e6 -1.9269173394330617e6 0.0
0.0 0.0 0.0

-2.590915577076844e6 4.571509670643919e6 0.0
4.571509670643919e6 968235.6378009949 0.0
0.0 0.0 0.0

-1.283278175704972e6 5.151670342278628e6 0.0
5.151670342278628e6 1.0027905374239003e6 0.0
0.0 0.0 0.0

-308618.11765211343 3.8967698857098455e6 0.0
3.8967698857098455e6 -1.5138416300354134e6 0.0
0.0 0.0 0.0

-570850.7919941412 4.897301737431149e6 0.0
4.897301737431149e6 -1.0840918015212605e6 0.0
0.0 0.0 0.0

-482205.3314484852 4.104357095965217e6 0.0
4.104357095965217e6 -2.039192759813873e6 0.0
0.0 0.0 0.0

-8.11899994802231e6 2.7357069724818286e6 0.0
2.7357069724818286e6 7.962701657724954e6 0.0
0.0 0.0 0.0

-4.475898585478006e6 9.223964105955303e6 0.0
9.223964105955303e6 2.8710053382835244e6 0.0
0.0 0.0 0.0

380051.4640290184 565974.0375897482 0.0
565974.0375897482 -510402.8972843474 0.0
0.0 0.0 0.0

453737.79394381534 597029.6286408375 0.0
597029.6286408375 -797911.4577064966 0.0
0.0 0.0 0.0

-1.4118523579111744e6 5.166610496523284e6 0.0
5.166610496523284e6 696138.1694422018 0.0
0.0 0.0 0.0

-2.1347645408954243e6 3.95589048206135e6 0.0
3.95589048206135e6 375894.46684617084 0.0
0.0 0.0 0.0

-3.440494011169156e6 3.9410907512741107e6 0.0
3.9410907512741107e6 1.218816469536615e6 0.0
0.0 0.0 0.0

-2.903021119393792e6 3.78219380959636e6 0.0
3.78219380959636e6 1.0286819272396248e6 0.0
0.0 0.0 0.0

830397.7029863469 4.789397019824845e6 0.0
4.789397019824845e6 -173162.84724123572 0.0
0.0 0.0 0.0

-628423.0740980377 6.605033469914222e6 0.0
6.605033469914222e6 -944746.1435363102 0.0
0.0 0.0 0.0

-4.142676930679187e6 5.22660069719191e6 0.0
5.22660069719191e6 6.149625840501605e6 0.0
0.0 0.0 0.0

-5.795579496416321e6 6.626371026524002e6 0.0
6.626371026524002e6 874830.1814209679 0.0
0.0 0.0 0.0

-2.7756676601862296e7 1.7455716770413877e6 0.0
1.7455716770413877e6 2.354280228117246e7 0.0
0.0 0.0 0.0

-1.308455080960837e6 3.2952728641645703e6 0.0
3.2952728641645703e6 53642.21560942219 0.0
0.0 0.0 0.0

-854140.3017781974 5.548959639100406e6 0.0
5.548959639100406e6 -63207.36432979774 0.0
0.0 0.0 0.0

266158.67255011667 5.552776655478525e6 0.0
5.552776655478525e6 -1.6887930928898314e6 0.0
0.0 0.0 0.0

-1.2469236935212978e6 3.2628316246336764e6 0.0
3.2628316246336764e6 832916.4412517839 0.0
0.0 0.0 0.0

580626.7181025839 75464.24190784163 0.0
75464.24190784163 -394077.50842012255 0.0
0.0 0.0 0.0

-1.1134095397120926e6 3.507879381958373e6 0.0
3.507879381958373e6 1.4429471684889542e6 0.0
0.0 0.0 0.0

-514463.58054451377 3.5385159247842683e6 0.0
3.5385159247842683e6 -1.7812740731864718e6 0.0
0.0 0.0 0.0

487265.2455733423 5.805795609503211e6 0.0
5.805795609503211e6 -1.8001928363724782e6 0.0
0.0 0.0 0.0

-49880.40895101271 5.810003116588549e6 0.0
5.810003116588549e6 -1.0145548817597068e6 0.0
0.0 0.0 0.0

-6.696103788870482e6 -5.948103542715695e6 0.0
-5.948103542715695e6 1.4625141248398667e7 0.0
0.0 0.0 0.0

-2.6310870021299706e6 4.569751946621896e6 0.0
4.569751946621896e6 597501.1247496534 0.0
0.0 0.0 0.0

-2.3568341863054107e6 5.299251065556741e6 0.0
5.299251065556741e6 319162.5609037116 0.0
0.0 0.0 0.0

-813398.8352438379 7.149888427397102e6 0.0
7.149888427397102e6 -527654.3379434639 0.0
0.0 0.0 0.0

538248.6019605557 329891.59398744296 0.0
329891.59398744296 -609565.7058277649 0.0
0.0 0.0 0.0

-501560.00687359285 4.139417139265775e6 0.0
4.139417139265775e6 -1.1141528878960668e6 0.0
0.0 0.0 0.0

-138791.33035510674 278168.46130485873 0.0
278168.46130485873 330188.6520318623 0.0
0.0 0.0 0.0

-173182.50129756052 6.145861853411898e6 0.0
6.145861853411898e6 -1.498187256867618e6 0.0
0.0 0.0 0.0

-2.441531845986503e6 3.1841439325435604e6 0.0
3.1841439325435604e6 927329.2653199978 0.0
0.0 0.0 0.0

550704.250142618 5.731558318721188e6 0.0
5.731558318721188e6 -2.193773167434858e6 0.0
0.0 0.0 0.0

-2.4608657154892827e6 4.1270187685266e6 0.0
4.1270187685266e6 1.278668214634488e6 0.0
0.0 0.0 0.0

127913.06969107327 6.043382432460846e6 0.0
6.043382432460846e6 -2.4268489098348585e6 0.0
0.0 0.0 0.0

-718758.5247769454 5.909831984877248e6 0.0
5.909831984877248e6 -1.3600318238812152e6 0.0
0.0 0.0 0.0

-3.7942638431339674e6 3.6709375084579065e6 0.0
3.6709375084579065e6 1.2987112464412584e6 0.0
0.0 0.0 0.0

-310245.55312808603 4.0190945862153345e6 0.0
4.0190945862153345e6 -1.7716245701621457e6 0.0
0.0 0.0 0.0

-1.1563178053636847e6 5.8952583606354045e6 0.0
5.8952583606354045e6 -468069.3354516892 0.0
0.0 0.0 0.0

-3.464786702634582e6 3.855462685971458e6 0.0
3.855462685971458e6 1.0702384938426053e6 0.0
0.0 0.0 0.0

-2.5514987063836246e6 4.113265094746151e6 0.0
4.113265094746151e6 901893.2525440893 0.0
0.0 0.0 0.0

-2.8128039670847002e6 3.748553826891064e6 0.0
3.748553826891064e6 970063.5491156437 0.0
0.0 0.0 0.0

-3.9353457974765254e6 5.159126699881395e6 0.0
5.159126699881395e6 1.7332118724971446e6 0.0
0.0 0.0 0.0

-875475.0382549259 6.432103414224274e6 0.0
6.432103414224274e6 -573356.702051256 0.0
0.0 0.0 0.0

-4.452475939163925e6 4.0919801480670962e6 0.0
4.0919801480670962e6 1.811752538906025e6 0.0
0.0 0.0 0.0

-236960.43558476877 2.7911647407929404e6 0.0
2.7911647407929404e6 -563973.4104017308 0.0
0.0 0.0 0.0

-499253.7040728927 6.636287220682002e6 0.0
6.636287220682002e6 -1.44202374230923e6 0.0
0.0 0.0 0.0

255987.12423341407 478622.6508481188 0.0
478622.6508481188 -741535.1506417703 0.0
0.0 0.0 0.0

-2.1497702419060906e6 5.08481981804263e6 0.0
5.08481981804263e6 276908.9694548475 0.0
0.0 0.0 0.0

-737335.3673914219 -1.3253552957582045e6 0.0
-1.3253552957582045e6 1.3640021891837814e6 0.0
0.0 0.0 0.0

-2.761963451780105e6 6.645461511654331e6 0.0
6.645461511654331e6 529470.0090188407 0.0
0.0 0.0 0.0

-657314.6614940609 5.931206888841805e6 0.0
5.931206888841805e6 -1.4022063599282284e6 0.0
0.0 0.0 0.0

-622167.5312752159 4.576681657764335e6 0.0
4.576681657764335e6 -976264.642941074 0.0
0.0 0.0 0.0

-1.2005776672406048e6 3.0402859481903003e6 0.0
3.0402859481903003e6 -625051.2840829769 0.0
0.0 0.0 0.0

-497479.06636876636 5.04533116074167e6 0.0
5.04533116074167e6 -1.817397246825705e6 0.0
0.0 0.0 0.0

1.536216614586659e6 3.2857337248971355e6 0.0
3.2857337248971355e6 -2.3685689320213096e6 0.0
0.0 0.0 0.0

-652834.3890553433 7.407209478549897e6 0.0
7.407209478549897e6 -480174.80472680525 0.0
0.0 0.0 0.0

-516218.6332633993 5.529925191625779e6 0.0
5.529925191625779e6 -542573.2685540251 0.0
0.0 0.0 0.0

-2.17696304471492e6 2.9757033859893233e6 0.0
2.9757033859893233e6 642585.2922321944 0.0
0.0 0.0 0.0

654428.7214782836 5.017000926985978e6 0.0
5.017000926985978e6 -1.874478308144835e6 0.0
0.0 0.0 0.0

134992.8582561696 1.6848740200454344e6 0.0
1.6848740200454344e6 -211022.01498923762 0.0
0.0 0.0 0.0

360495.18489606923 4.0466231623177296e6 0.0
4.0466231623177296e6 -2.0752094278259582e6 0.0
0.0 0.0 0.0

604812.4787898354 321383.19930112513 0.0
321383.19930112513 -706088.0688331758 0.0
0.0 0.0 0.0

-2.452468702957369e6 3.1639873947062325e6 0.0
3.1639873947062325e6 861622.4253758226 0.0
0.0 0.0 0.0

-601168.1420836201 5.542830369061745e6 0.0
5.542830369061745e6 -515293.70980298374 0.0
0.0 0.0 0.0

-552568.8138181228 4.836930306603741e6 0.0
4.836930306603741e6 -1.0575898153953769e6 0.0
0.0 0.0 0.0

-1.2734807092344968e6 3.305551300583698e6 0.0
3.305551300583698e6 165024.25666562992 0.0
0.0 0.0 0.0

437442.0564814595 -30913.48146243609 0.0
-30913.48146243609 -460522.4653696876 0.0
0.0 0.0 0.0

-901959.09909856 7.197456977287093e6 0.0
7.197456977287093e6 -139145.7954681247 0.0
0.0 0.0 0.0

-2.955198422579935e6 5.1813997792335935e6 0.0
5.1813997792335935e6 2.8439285729892096e6 0.0
0.0 0.0 0.0

-201249.1069656232 6.239087202604894e6 0.0
6.239087202604894e6 -1.514555986408257e6 0.0
0.0 0.0 0.0

-177813.32329564315 457225.5583117266 0.0
457225.5583117266 135794.95576879385 0.0
0.0 0.0 0.0

-1.3176507101499795e6 4.0611952759762267e6 0.0
4.0611952759762267e6 749510.2617911544 0.0
0.0 0.0 0.0

-2.5423073205633364e6 3.0770678318994697e6 0.0
3.0770678318994697e6 6.038656273529368e6 0.0
0.0 0.0 0.0

-962407.2165196033 3.5075186262960713e6 0.0
3.5075186262960713e6 950543.560427726 0.0
0.0 0.0 0.0

-849405.2478876011 3.814320223343205e6 0.0
3.814320223343205e6 -2.0463431533345557e6 0.0
0.0 0.0 0.0

-1.0136847866156755e6 4.779879029204021e6 0.0
4.779879029204021e6 384866.919848573 0.0
0.0 0.0 0.0

-425860.5605219074 5.790585677615222e6 0.0
5.790585677615222e6 -449419.9307252923 0.0
0.0 0.0 0.0

-717258.7048677318 6.720018946930402e6 0.0
6.720018946930402e6 -764148.708087111 0.0
0.0 0.0 0.0

-1.6490164744973055e6 5.929326734600657e6 0.0
5.929326734600657e6 67574.02846304642 0.0
0.0 0.0 0.0

-93263.98313211673 4.0716600917766667e6 0.0
4.0716600917766667e6 -1.9852731558343028e6 0.0
0.0 0.0 0.0

20839.350562665728 3.9453070970584685e6 0.0
3.9453070970584685e6 -2.0181924289018838e6 0.0
0.0 0.0 0.0

-964232.7391546387 2.996041653976827e6 0.0
2.996041653976827e6 -557741.032316653 0.0
0.0 0.0 0.0

-1.3056872162806522e6 2.497892725484858e6 0.0
2.497892725484858e6 2.3846230190668e6 0.0
0.0 0.0 0.0

-904463.3178463894 6.530628056495016e6 0.0
6.530628056495016e6 -881893.3968331702 0.0
0.0 0.0 0.0

-4.059010278368595e6 -2.2440824492984107e6 0.0
-2.2440824492984107e6 6.561914374436599e6 0.0
0.0 0.0 0.0

-116448.37142540724 2.3279270777744283e6 0.0
2.3279270777744283e6 -2.1053840563834077e6 0.0
0.0 0.0 0.0

-1.0136485866743024e7 3.627828365781739e6 0.0
3.627828365781739e6 2.700674463748505e7 0.0
0.0 0.0 0.0

647019.7866557642 4.993688438112018e6 0.0
4.993688438112018e6 -1.8714007592955392e6 0.0
0.0 0.0 0.0

-800071.0572844773 6.621177455127823e6 0.0
6.621177455127823e6 -417835.94971683837 0.0
0.0 0.0 0.0

-1.568048696729102e6 3.791765836857389e6 0.0
3.791765836857389e6 1.245069908457404e6 0.0
0.0 0.0 0.0

-789749.7847524034 3.83547564048169e6 0.0
3.83547564048169e6 -2.016545068126278e6 0.0
0.0 0.0 0.0

-2.3075554804889215e6 2.225170906234065e6 0.0
2.225170906234065e6 1.9876168333516016e6 0.0
0.0 0.0 0.0

-1.3270626335875827e6 5.534719090411008e6 0.0
5.534719090411008e6 424564.4003260655 0.0
0.0 0.0 0.0

-1.878685953601413e6 4.174814126627338e6 0.0
4.174814126627338e6 1.3959148204667433e6 0.0
0.0 0.0 0.0

-2.0479909704384338e6 3.975530786013261e6 0.0
3.975530786013261e6 919101.9926856415 0.0
0.0 0.0 0.0

-1.0400292599108703e6 5.510654942635251e6 0.0
5.510654942635251e6 85225.09957479936 0.0
0.0 0.0 0.0

-593006.8633855439 3.768099336337213e6 0.0
3.768099336337213e6 -1.3728569131852887e6 0.0
0.0 0.0 0.0

-1.254713013500503e6 2.9691566298173578e6 0.0
2.9691566298173578e6 959366.9067894393 0.0
0.0 0.0 0.0

-764260.9998371996 3.5233206523343464e6 0.0
3.5233206523343464e6 -2.014206866783905e6 0.0
0.0 0.0 0.0

-1.174605728049776e6 4.93575366218601e6 0.0
4.93575366218601e6 1.1142158932634303e6 0.0
0.0 0.0 0.0

-1.4699056373016876e6 5.257869394299992e6 0.0
5.257869394299992e6 100014.53041895956 0.0
0.0 0.0 0.0

-660730.0658945935 2.5391412776111243e6 0.0
2.5391412776111243e6 -1.165953724248687e6 0.0
0.0 0.0 0.0

-9.46984880299491e6 -5.306272952510881e6 0.0
-5.306272952510881e6 2.013936956257809e7 0.0
0.0 0.0 0.0

-764544.872787343 4.0312165794339944e6 0.0
4.0312165794339944e6 -2.0072926247222908e6 0.0
0.0 0.0 0.0

-890860.0925982466 4.372641775374646e6 0.0
4.372641775374646e6 1.7979549204813263e6 0.0
0.0 0.0 0.0

-3.4553808636841527e6 4.1540171998391123e6 0.0
4.1540171998391123e6 1.201617787774392e6 0.0
0.0 0.0 0.0

-602767.6996527462 4.282110478032438e6 0.0
4.282110478032438e6 2.324173057755059e6 0.0
0.0 0.0 0.0

-1.5720544624082656e6 4.310111079653362e6 0.0
4.310111079653362e6 3.8530030026875082e6 0.0
0.0 0.0 0.0

-1.6970906714658523e6 4.769363627917494e6 0.0
4.769363627917494e6 1.324092598127524e6 0.0
0.0 0.0 0.0

-251159.29265094965 6.830550692985641e6 0.0
6.830550692985641e6 -1.2842082778596256e6 0.0
0.0 0.0 0.0

-1.5266529061049654e6 4.881389357721236e6 0.0
4.881389357721236e6 832583.3350540998 0.0
0.0 0.0 0.0

-1.543491777170641e6 3.497516604009162e6 0.0
3.497516604009162e6 531640.4571290489 0.0
0.0 0.0 0.0

-1.3886649194283828e6 3.4257117366118804e6 0.0
3.4257117366118804e6 463255.35470205994 0.0
0.0 0.0 0.0

536913.8534231663 5.462059491835818e6 0.0
5.462059491835818e6 -2.231135139511966e6 0.0
0.0 0.0 0.0

-2.0647656608729088e6 4.805072303994609e6 0.0
4.805072303994609e6 565316.4737189244 0.0
0.0 0.0 0.0

-298756.1956339936 4.133835031927726e6 0.0
4.133835031927726e6 -1.7421435923613869e6 0.0
0.0 0.0 0.0

782483.0645038607 6.538266742236215e6 0.0
6.538266742236215e6 -2.2699813531756657e6 0.0
0.0 0.0 0.0

-2.775992085531659e6 5.98269092795984e6 0.0
5.98269092795984e6 518133.05099798774 0.0
0.0 0.0 0.0

-2.1866857296932726e6 4.120684936404495e6 0.0
4.120684936404495e6 1.9689565277323583e6 0.0
0.0 0.0 0.0

-1.820911692359418e6 -1.196799837028431e6 0.0
-1.196799837028431e6 3.337531680817618e6 0.0
0.0 0.0 0.0

-424505.0988764042 3.8271190613416987e6 0.0
3.8271190613416987e6 -104534.64387909256 0.0
0.0 0.0 0.0

-300829.61761649675 5.257145516945505e6 0.0
5.257145516945505e6 -1.3731811810901787e6 0.0
0.0 0.0 0.0

-838326.4023894814 5.77983555384941e6 0.0
5.77983555384941e6 -1.1447819038572167e6 0.0
0.0 0.0 0.0

533183.193781386 5.537915987826186e6 0.0
5.537915987826186e6 -2.038258651065711e6 0.0
0.0 0.0 0.0

-265955.1147605751 6.003683441881131e6 0.0
6.003683441881131e6 -623958.7604426498 0.0
0.0 0.0 0.0

-844049.9464427995 6.032389282480123e6 0.0
6.032389282480123e6 -1.0708387425899324e6 0.0
0.0 0.0 0.0

-739153.6107000401 4.048483964581374e6 0.0
4.048483964581374e6 -703224.0212729113 0.0
0.0 0.0 0.0

253923.09218318757 2.421651790167692e6 0.0
2.421651790167692e6 -596645.9886561783 0.0
0.0 0.0 0.0

794807.4421074557 208019.2350925409 0.0
208019.2350925409 -708561.0563051722 0.0
0.0 0.0 0.0

-1.4456072085401076e6 5.2491595618554875e6 0.0
5.2491595618554875e6 -28588.953345488408 0.0
0.0 0.0 0.0

-543982.0650525095 5.769915091555952e6 0.0
5.769915091555952e6 -1.7484847687536362e6 0.0
0.0 0.0 0.0

-493940.55990635697 3.581043277564556e6 0.0
3.581043277564556e6 -1.4969863613019928e6 0.0
0.0 0.0 0.0

-9.111876363504285e6 -6.658227293122822e6 0.0
-6.658227293122822e6 1.89506041578859e7 0.0
0.0 0.0 0.0

-4.481233125545634e6 3.9231801577016516e6 0.0
3.9231801577016516e6 1.752583081831733e6 0.0
0.0 0.0 0.0

76949.76610565308 2.0890576636285365e6 0.0
2.0890576636285365e6 -870072.761465367 0.0
0.0 0.0 0.0

-686740.7367300724 5.617614478030803e6 0.0
5.617614478030803e6 -470811.64760035696 0.0
0.0 0.0 0.0

-1.3644395982676074e6 4.020943883122527e6 0.0
4.020943883122527e6 444764.0937183213 0.0
0.0 0.0 0.0

-1.372717943034166e6 3.2030873495257827e6 0.0
3.2030873495257827e6 1.7182740871484182e6 0.0
0.0 0.0 0.0

-2.1366037399804895e6 5.231633004909162e6 0.0
5.231633004909162e6 135509.04061058955 0.0
0.0 0.0 0.0

-577840.2976134 4.724662792544356e6 0.0
4.724662792544356e6 -911651.2485742612 0.0
0.0 0.0 0.0

-1.1650060898238632e6 4.428589707559491e6 0.0
4.428589707559491e6 5016.933321995428 0.0
0.0 0.0 0.0

-716080.1600125667 6.065045537989288e6 0.0
6.065045537989288e6 -1.1322106087928908e6 0.0
0.0 0.0 0.0

640994.4660795049 1.8702380193857881e6 0.0
1.8702380193857881e6 -1.0304510118327388e6 0.0
0.0 0.0 0.0

-825013.7700158884 5.442409145461862e6 0.0
5.442409145461862e6 -1.1865590839334286e6 0.0
0.0 0.0 0.0

-854016.766435825 6.828523417881542e6 0.0
6.828523417881542e6 -673149.0343393924 0.0
0.0 0.0 0.0

-2.5297759353832356e6 3.8427235534517067e6 0.0
3.8427235534517067e6 939926.9993453915 0.0
0.0 0.0 0.0

-832454.5237362785 7.093311138687797e6 0.0
7.093311138687797e6 -678614.982762555 0.0
0.0 0.0 0.0

-876418.3539558713 6.805469610036799e6 0.0
6.805469610036799e6 -713387.2049355187 0.0
0.0 0.0 0.0

515831.65796683903 5.631867777937964e6 0.0
5.631867777937964e6 -1.9588549196915084e6 0.0
0.0 0.0 0.0

-480336.189212846 5.302734647577299e6 0.0
5.302734647577299e6 -968529.7616415718 0.0
0.0 0.0 0.0

-931220.8841883565 6.414811584652206e6 0.0
6.414811584652206e6 -535175.811046105 0.0
0.0 0.0 0.0

-715532.6672614384 2.7949760298579703e6 0.0
2.7949760298579703e6 37567.179195698845 0.0
0.0 0.0 0.0

-1.0694546182143992e7 5.354243232921333e6 0.0
5.354243232921333e6 3.8214386760712964e6 0.0
0.0 0.0 0.0

6.154542035575285e6 1.70363321441784e7 0.0
1.70363321441784e7 2.0515286409381468e7 0.0
0.0 0.0 0.0

-290145.4186473277 5.402350758668279e6 0.0
5.402350758668279e6 -967149.0157747027 0.0
0.0 0.0 0.0

-1.1431208204643477e6 4.974122176483344e6 0.0
4.974122176483344e6 1.2340185989300534e6 0.0
0.0 0.0 0.0

-586383.8648169287 5.971559592122687e6 0.0
5.971559592122687e6 -1.5096807023406075e6 0.0
0.0 0.0 0.0

-2.1900645772422138e6 4.440582153606507e6 0.0
4.440582153606507e6 1.3040094907821133e6 0.0
0.0 0.0 0.0

-4.91616992295172e6 6.714043322569702e6 0.0
6.714043322569702e6 2.426889875455192e6 0.0
0.0 0.0 0.0

-661412.0599951949 4.216020734061273e6 0.0
4.216020734061273e6 -1.4202089112334922e6 0.0
0.0 0.0 0.0

-1.9980994765307966e6 6.200959236365994e6 0.0
6.200959236365994e6 751209.8444161864 0.0
0.0 0.0 0.0

-1.0292716901609207e6 3.1386586622302784e6 0.0
3.1386586622302784e6 309409.9966693003 0.0
0.0 0.0 0.0

-2.687675948698216e6 3.816974633974073e6 0.0
3.816974633974073e6 1.1093069468415556e6 0.0
0.0 0.0 0.0

-432300.70591403206 3.680438217472897e6 0.0
3.680438217472897e6 -1.7815372897761671e6 0.0
0.0 0.0 0.0

-1.4978640193973156e6 5.84328418010658e6 0.0
5.84328418010658e6 529578.4863780303 0.0
0.0 0.0 0.0

-2.0570966179104794e6 4.1231065927302255e6 0.0
4.1231065927302255e6 807067.0832222988 0.0
0.0 0.0 0.0

197115.9289705996 8.244695240603618e6 0.0
8.244695240603618e6 -1.4171425515581565e6 0.0
0.0 0.0 0.0

-706492.2929860887 4.736484585018049e6 0.0
4.736484585018049e6 -810517.4567921832 0.0
0.0 0.0 0.0

-1.5816342723518643e6 4.711976586089048e6 0.0
4.711976586089048e6 1.496777179609673e6 0.0
0.0 0.0 0.0

-2.706599284299019e6 5.594011198675392e6 0.0
5.594011198675392e6 44122.95708851982 0.0
0.0 0.0 0.0

-482855.37465763604 4.287867990108135e6 0.0
4.287867990108135e6 -1.0755950675835372e6 0.0
0.0 0.0 0.0

-2.8239908990200334e6 6.338228258020821e6 0.0
6.338228258020821e6 638168.6978490904 0.0
0.0 0.0 0.0

-493079.31349369744 7.932427559599245e6 0.0
7.932427559599245e6 -478156.22765058756 0.0
0.0 0.0 0.0

-471470.4918777334 6.928457482767409e6 0.0
6.928457482767409e6 -1.532347191611036e6 0.0
0.0 0.0 0.0

-1.0290395456217324e6 3.436208739672289e6 0.0
3.436208739672289e6 2.5420284016119787e6 0.0
0.0 0.0 0.0

-809615.5551088543 5.847555706902161e6 0.0
5.847555706902161e6 -1.2252011510525323e6 0.0
0.0 0.0 0.0

-1.8683629347435588e6 3.346929834540685e6 0.0
3.346929834540685e6 496363.0037602467 0.0
0.0 0.0 0.0

-1.5423467384511167e6 3.361379026341498e6 0.0
3.361379026341498e6 697175.2363791793 0.0
0.0 0.0 0.0

494049.29658168694 826507.9893008096 0.0
826507.9893008096 -1.5471776895264306e6 0.0
0.0 0.0 0.0

-450062.7839581502 5.632158461682117e6 0.0
5.632158461682117e6 -634895.9276586084 0.0
0.0 0.0 0.0

-1.0074168024214639e6 7.400341392951289e6 0.0
7.400341392951289e6 -537168.7652697273 0.0
0.0 0.0 0.0

-192871.4610074209 4.2373329325138545e6 0.0
4.2373329325138545e6 -2.0569296435610421e6 0.0
0.0 0.0 0.0

-598919.6090152799 2.725362241702309e6 0.0
2.725362241702309e6 -74782.18788092656 0.0
0.0 0.0 0.0

-3.8641329392902246e6 1.0131040916340657e7 0.0
1.0131040916340657e7 1.3924133822843255e6 0.0
0.0 0.0 0.0

-1300.7992145202588 4.1147868045726526e6 0.0
4.1147868045726526e6 -2.0276641145986659e6 0.0
0.0 0.0 0.0

-478731.1762628011 5.574667843902186e6 0.0
5.574667843902186e6 -589888.0939903744 0.0
0.0 0.0 0.0

-838762.711074697 7.325767928445267e6 0.0
7.325767928445267e6 -605929.4356202349 0.0
0.0 0.0 0.0

-9.714123979152538e6 1.1819895519916384e7 0.0
1.1819895519916384e7 5.68286947417995e7 0.0
0.0 0.0 0.0

-496345.3669258143 5.368392934616028e6 0.0
5.368392934616028e6 -881073.9995815319 0.0
0.0 0.0 0.0

393467.39013667114 4.535362318984583e6 0.0
4.535362318984583e6 1.9723298179399103e6 0.0
0.0 0.0 0.0

-342547.6742199336 8.070555629720113e6 0.0
8.070555629720113e6 -681771.4604131817 0.0
0.0 0.0 0.0

-181688.5314720228 2.1804618146703695e6 0.0
2.1804618146703695e6 -873271.0651922822 0.0
0.0 0.0 0.0

-1.208105070787815e6 1.077637884277089e7 0.0
1.077637884277089e7 857363.240240059 0.0
0.0 0.0 0.0

-616902.7020648175 5.610618602064548e6 0.0
5.610618602064548e6 -198409.51456796785 0.0
0.0 0.0 0.0

177217.00423661718 7.915419315504376e6 0.0
7.915419315504376e6 -1.3789208096116637e6 0.0
0.0 0.0 0.0

-2.2614387262620414e6 4.157347923723961e6 0.0
4.157347923723961e6 763854.2026359055 0.0
0.0 0.0 0.0

-1.3622744844891194e6 3.415521733404011e6 0.0
3.415521733404011e6 212165.00890802697 0.0
0.0 0.0 0.0

1.9958457191126244e6 651773.1313408823 0.0
651773.1313408823 -2.409446430967339e6 0.0
0.0 0.0 0.0

-2.611374311369965e6 4.501980981066212e6 0.0
4.501980981066212e6 3.042124894660189e6 0.0
0.0 0.0 0.0

-1.9966673463966108e6 4.947847234705373e6 0.0
4.947847234705373e6 385441.49648944894 0.0
0.0 0.0 0.0

-923296.9280734699 4.675690063493051e6 0.0
4.675690063493051e6 1.5225905888138758e6 0.0
0.0 0.0 0.0

-1.9077182092755283e6 4.988567828356524e6 0.0
4.988567828356524e6 426100.0924221211 0.0
0.0 0.0 0.0

-2.2383220188784013e6 4.1174198905639877e6 0.0
4.1174198905639877e6 848233.5888292947 0.0
0.0 0.0 0.0

-311305.9115694093 3.7843976933060605e6 0.0
3.7843976933060605e6 -1.492631687925746e6 0.0
0.0 0.0 0.0

-1.0484348513239105e6 4.275280543409599e6 0.0
4.275280543409599e6 2.2350182720213104e6 0.0
0.0 0.0 0.0

-2.25476214494054e6 4.404218064282729e6 0.0
4.404218064282729e6 865996.8719430708 0.0
0.0 0.0 0.0

-1.4085101556997062e6 3.3529320300421556e6 0.0
3.3529320300421556e6 -178209.3734178698 0.0
0.0 0.0 0.0

-1.5078063153976884e7 2.0454411154052312e6 0.0
2.0454411154052312e6 1.0285834180304073e7 0.0
0.0 0.0 0.0

-2.4742592713450044e6 -666769.2797261197 0.0
-666769.2797261197 4.439929307886253e6 0.0
0.0 0.0 0.0

-1.9470736143013171e6 5.05148259691843e6 0.0
5.05148259691843e6 355454.1734378766 0.0
0.0 0.0 0.0

-2.9830643522071363e6 4.459877728198976e6 0.0
4.459877728198976e6 551632.297039055 0.0
0.0 0.0 0.0

-520813.4991029664 4.332784888237974e6 0.0
4.332784888237974e6 -1.7128847764162559e6 0.0
0.0 0.0 0.0

-4.166972963074649e6 3.9478969451820944e6 0.0
3.9478969451820944e6 1.406082476537625e6 0.0
0.0 0.0 0.0

-4.7930172307311315e6 3.823821717777326e6 0.0
3.823821717777326e6 1.9518898147520693e6 0.0
0.0 0.0 0.0

-5.618501009804956e6 3.7232386712318305e6 0.0
3.7232386712318305e6 2.4006339190733433e6 0.0
0.0 0.0 0.0

-3.008767027457989e6 4.546000882703602e6 0.0
4.546000882703602e6 1.074746435504665e6 0.0
0.0 0.0 0.0

-981996.7662465973 2.776056440890363e6 0.0
2.776056440890363e6 255174.15856153367 0.0
0.0 0.0 0.0

615005.8181753109 5.656021253324738e6 0.0
5.656021253324738e6 -2.2368960658294875e6 0.0
0.0 0.0 0.0

-1.117816364441378e6 4.448642760564037e6 0.0
4.448642760564037e6 501714.7944762141 0.0
0.0 0.0 0.0

-3.2345428528172486e6 6.161535750010348e6 0.0
6.161535750010348e6 906749.4945728825 0.0
0.0 0.0 0.0

-673954.2886653207 5.809117263113439e6 0.0
5.809117263113439e6 -1.4433467776480608e6 0.0
0.0 0.0 0.0

-106693.83146625778 -625074.6090410252 0.0
-625074.6090410252 513270.5752706928 0.0
0.0 0.0 0.0

-486921.72145004314 5.541089618512897e6 0.0
5.541089618512897e6 -525431.3709845385 0.0
0.0 0.0 0.0

-848370.5214430483 6.210593917455646e6 0.0
6.210593917455646e6 -993741.9741444794 0.0
0.0 0.0 0.0

-794292.3620254849 5.4352970580755435e6 0.0
5.4352970580755435e6 -1.174945750507257e6 0.0
0.0 0.0 0.0

-438784.14925476944 3.769602024568529e6 0.0
3.769602024568529e6 -1.8126911108785942e6 0.0
0.0 0.0 0.0

691945.18481957 431575.90986706014 0.0
431575.90986706014 -1.0769887417241095e6 0.0
0.0 0.0 0.0

-728029.8054283145 4.296291056901389e6 0.0
4.296291056901389e6 -1.1278005043047168e6 0.0
0.0 0.0 0.0

-497926.08337319177 5.546874697250747e6 0.0
5.546874697250747e6 -798156.2263487278 0.0
0.0 0.0 0.0

1.800436407808726e6 6.266396537521215e6 0.0
6.266396537521215e6 -986015.5241776532 0.0
0.0 0.0 0.0

-5.52389862580176e6 3.337656076942014e6 0.0
3.337656076942014e6 2.73740382069291e6 0.0
0.0 0.0 0.0

-1.3609348933107557e6 3.431326064748172e6 0.0
3.431326064748172e6 319216.50584494893 0.0
0.0 0.0 0.0

-781867.0556424576 4.322685710549311e6 0.0
4.322685710549311e6 -2.0543875819719587e6 0.0
0.0 0.0 0.0

275173.165448528 5.674695822425786e6 0.0
5.674695822425786e6 -1.9358961529742512e6 0.0
0.0 0.0 0.0

713295.0321995037 125563.24803681119 0.0
125563.24803681119 -558113.1596485283 0.0
0.0 0.0 0.0

-6.680196936941341e6 3.853073975531718e6 0.0
3.853073975531718e6 4.641230050151749e6 0.0
0.0 0.0 0.0

-2.8997620739706326e6 5.866973161873525e6 0.0
5.866973161873525e6 -221995.58840673638 0.0
0.0 0.0 0.0

-464682.2557287137 3.7711551504873545e6 0.0
3.7711551504873545e6 -1.3205838672996785e6 0.0
0.0 0.0 0.0

-3.312581387344626e6 5.0057938880596915e6 0.0
5.0057938880596915e6 1.1614195806613988e6 0.0
0.0 0.0 0.0

259715.26743721892 3.940984091073899e6 0.0
3.940984091073899e6 -1.9080393283597678e6 0.0
0.0 0.0 0.0

-326596.85061026143 7.872003078612807e6 0.0
7.872003078612807e6 -982033.4555121255 0.0
0.0 0.0 0.0

-576435.2065604394 4.211190054196989e6 0.0
4.211190054196989e6 -583783.1566821779 0.0
0.0 0.0 0.0

-502021.6429902594 5.981150691307202e6 0.0
5.981150691307202e6 -1.5679440077690973e6 0.0
0.0 0.0 0.0

-2.6009992669127407e6 3.28915749142662e6 0.0
3.28915749142662e6 1.0430799317907324e6 0.0
0.0 0.0 0.0

-225161.76013161728 6.689423140189581e6 0.0
6.689423140189581e6 -1.4517645300573457e6 0.0
0.0 0.0 0.0

-531914.1888040943 5.96404899365856e6 0.0
5.96404899365856e6 -1.6562796046181489e6 0.0
0.0 0.0 0.0

-608763.6352230336 3.5654468662661994e6 0.0
3.5654468662661994e6 -1.4711513811349447e6 0.0
0.0 0.0 0.0

-2.489643304175101e6 4.654432361959538e6 0.0
4.654432361959538e6 482566.907516534 0.0
0.0 0.0 0.0

-667757.4246046448 4.713778636894543e6 0.0
4.713778636894543e6 -2.0125584079498868e6 0.0
0.0 0.0 0.0

-1.70730486337034e6 9.887372844742266e6 0.0
9.887372844742266e6 994068.1516455499 0.0
0.0 0.0 0.0

-896019.9186498238 7.5796882387934085e6 0.0
7.5796882387934085e6 -577580.5126612753 0.0
0.0 0.0 0.0

-3.549108648356107e6 3.890117032193681e6 0.0
3.890117032193681e6 1.112932861126774e6 0.0
0.0 0.0 0.0

-2.0965880350831829e6 4.447601680112622e6 0.0
4.447601680112622e6 778468.0853495488 0.0
0.0 0.0 0.0

221633.83895365254 4.364219728509781e6 0.0
4.364219728509781e6 -1.8133122838370616e6 0.0
0.0 0.0 0.0

-1.6384170688755452e6 5.022616702516437e6 0.0
5.022616702516437e6 696411.1002228211 0.0
0.0 0.0 0.0

297244.2897340385 3.6315292778174663e6 0.0
3.6315292778174663e6 -1.9155509281762864e6 0.0
0.0 0.0 0.0

-1.3999184710947066e6 4.008174593291503e6 0.0
4.008174593291503e6 -246740.64158492695 0.0
0.0 0.0 0.0

-1.2241987150788284e6 3.9279259962473274e6 0.0
3.9279259962473274e6 -287017.7204602324 0.0
0.0 0.0 0.0

-641638.3977114359 3.9351092844132707e6 0.0
3.9351092844132707e6 -1.3559036998328282e6 0.0
0.0 0.0 0.0

-1.062510797545851e6 5.509678064754447e6 0.0
5.509678064754447e6 10235.291112681502 0.0
0.0 0.0 0.0

-2.96963216556726e6 3.9950773899692595e6 0.0
3.9950773899692595e6 1.1188317102461217e6 0.0
0.0 0.0 0.0

-1.7572846617434493e6 3.674937210605899e6 0.0
3.674937210605899e6 910483.6253982334 0.0
0.0 0.0 0.0

226426.25472727654 74852.77762142764 0.0
74852.77762142764 -396008.6701827481 0.0
0.0 0.0 0.0

242752.51062671992 5.528092301360184e6 0.0
5.528092301360184e6 -1.987029680849101e6 0.0
0.0 0.0 0.0

-102237.78898910282 6.106390918001175e6 0.0
6.106390918001175e6 -1.7315685065612951e6 0.0
0.0 0.0 0.0

-3.7955878104058327e6 5.619508881073049e6 0.0
5.619508881073049e6 1.7599291911472513e6 0.0
0.0 0.0 0.0

-2.1205082386419824e6 4.9681850654609455e6 0.0
4.9681850654609455e6 1.0399772216164648e6 0.0
0.0 0.0 0.0

-526814.4735685139 4.693809275546816e6 0.0
4.693809275546816e6 -1.7560455440319085e6 0.0
0.0 0.0 0.0

-5.6935971127894195e6 4.252691687819454e6 0.0
4.252691687819454e6 5.681617670644031e6 0.0
0.0 0.0 0.0

383729.3878201246 1.141419884498407e6 0.0
1.141419884498407e6 -531199.1612397627 0.0
0.0 0.0 0.0

-957802.9540178067 3.8105159731946834e6 0.0
3.8105159731946834e6 795291.2620103862 0.0
0.0 0.0 0.0

-3.4703755727182636e6 3.865907570967896e6 0.0
3.865907570967896e6 457686.75682447734 0.0
0.0 0.0 0.0

-220284.872127983 5.491316373089623e6 0.0
5.491316373089623e6 -832306.1723798903 0.0
0.0 0.0 0.0

-328443.72210162523 5.954424644705772e6 0.0
5.954424644705772e6 -597294.8962318338 0.0
0.0 0.0 0.0

-2.620880732888705e6 4.607360668705793e6 0.0
4.607360668705793e6 617829.8443553603 0.0
0.0 0.0 0.0

-1.233256534973049e6 5.378248396523963e6 0.0
5.378248396523963e6 348336.9737910761 0.0
0.0 0.0 0.0

-2.4659599113499974e6 3.924605780245445e6 0.0
3.924605780245445e6 3.2869375308823967e6 0.0
0.0 0.0 0.0

-2.452806482208702e6 6.072164780091943e6 0.0
6.072164780091943e6 -192009.46609538177 0.0
0.0 0.0 0.0

-2.139323820574671e6 5.153575666475888e6 0.0
5.153575666475888e6 311962.25791271124 0.0
0.0 0.0 0.0

-3.2990256872588224e6 9695.905548356055 0.0
9695.905548356055 3.2556544140329044e6 0.0
0.0 0.0 0.0

-2.161249333420598e7 3.4323103403421273e6 0.0
3.4323103403421273e6 1.7000167540227853e7 0.0
0.0 0.0 0.0

551349.6228326005 6.009301972220287e6 0.0
6.009301972220287e6 -1.02181425639811e6 0.0
0.0 0.0 0.0

-566094.1175763224 3.7752542191811907e6 0.0
3.7752542191811907e6 -1.8026212494501905e6 0.0
0.0 0.0 0.0

-2.148651789338371e6 4.014810669860701e6 0.0
4.014810669860701e6 739024.070244274 0.0
0.0 0.0 0.0

-858742.4556879625 6.328463296556273e6 0.0
6.328463296556273e6 -962229.5832971988 0.0
0.0 0.0 0.0

3.1208471509932945e6 5.752792502765212e6 0.0
5.752792502765212e6 1.2076381922273382e6 0.0
0.0 0.0 0.0

469809.5550056845 837929.2887537805 0.0
837929.2887537805 -948902.0932519084 0.0
0.0 0.0 0.0

1.3711643786149335e6 3.0594355323288194e6 0.0
3.0594355323288194e6 -2.3496741945282253e6 0.0
0.0 0.0 0.0

-881951.8700333775 6.931632975915056e6 0.0
6.931632975915056e6 -786690.1442408644 0.0
0.0 0.0 0.0

-585037.9173850862 4.3048258657490965e6 0.0
4.3048258657490965e6 -1.1144204841623157e6 0.0
0.0 0.0 0.0

-53133.16237539705 168153.00650581237 0.0
168153.00650581237 868105.8936081601 0.0
0.0 0.0 0.0

-646237.0948332718 7.696182998483098e6 0.0
7.696182998483098e6 -320285.45688202116 0.0
0.0 0.0 0.0

-5.652422113665767e6 3.223565686602576e6 0.0
3.223565686602576e6 2.5724312743721367e6 0.0
0.0 0.0 0.0

664241.3270210252 7.175218865937082e6 0.0
7.175218865937082e6 -1.4835640738859356e6 0.0
0.0 0.0 0.0

576921.6411074016 341417.03010677634 0.0
341417.03010677634 -919426.4543894394 0.0
0.0 0.0 0.0

-7.892056879412665e6 -153633.40985217833 0.0
-153633.40985217833 7.699281365139372e6 0.0
0.0 0.0 0.0

-150908.14239886787 4.112519386245669e6 0.0
4.112519386245669e6 -1.4941764115911978e6 0.0
0.0 0.0 0.0

-5.859008066233043e6 2.97290963943855e6 0.0
2.97290963943855e6 2.9202529122994677e6 0.0
0.0 0.0 0.0

-1.3212867481142737e6 3.367470508002264e6 0.0
3.367470508002264e6 944184.4909700841 0.0
0.0 0.0 0.0

-822195.096185646 6.229232590158503e6 0.0
6.229232590158503e6 -1.0667186538872868e6 0.0
0.0 0.0 0.0

-293560.4577917501 4.1024737827069396e6 0.0
4.1024737827069396e6 -2.0340789979062725e6 0.0
0.0 0.0 0.0

-460237.78138695186 3.702129588865187e6 0.0
3.702129588865187e6 -1.338508143439774e6 0.0
0.0 0.0 0.0

-298297.5095453373 7.645766256286971e6 0.0
7.645766256286971e6 -893710.3927789228 0.0
0.0 0.0 0.0

-6.764915841317651e6 1.6500826780657379e7 0.0
1.6500826780657379e7 -2.057248998217711e6 0.0
0.0 0.0 0.0

589089.0831185944 412602.91161758127 0.0
412602.91161758127 -958631.0591783926 0.0
0.0 0.0 0.0

-4.62781295718551e6 6.508763191473748e6 0.0
6.508763191473748e6 1.7366748358335898e6 0.0
0.0 0.0 0.0

-2.6355899386675623e6 6.2995971230305e6 0.0
6.2995971230305e6 1.1181503012942409e6 0.0
0.0 0.0 0.0

-128028.9266221624 453661.4657687291 0.0
453661.4657687291 68307.19872709658 0.0
0.0 0.0 0.0

573876.4264082762 5.752974730991061e6 0.0
5.752974730991061e6 -2.219347702395498e6 0.0
0.0 0.0 0.0

-2.3530132239283733e6 4.735751800878565e6 0.0
4.735751800878565e6 582848.9306984134 0.0
0.0 0.0 0.0

-1.5351917461377033e6 3.801396200771576e6 0.0
3.801396200771576e6 1.3527565210976321e6 0.0
0.0 0.0 0.0

-1.339165957806563e6 345897.3837423632 0.0
345897.3837423632 1.6417623471130268e6 0.0
0.0 0.0 0.0

-1.0680427742659408e6 3.1942645366757843e6 0.0
3.1942645366757843e6 374116.72910020646 0.0
0.0 0.0 0.0

-1.7451392834248464e6 4.161661174002507e6 0.0
4.161661174002507e6 1.8386593145157679e6 0.0
0.0 0.0 0.0

-1.0009801675637475e6 3.897360130733646e6 0.0
3.897360130733646e6 -855890.6417332615 0.0
0.0 0.0 0.0

-537792.7676475182 3.491144670438079e6 0.0
3.491144670438079e6 -1.6980885686874806e6 0.0
0.0 0.0 0.0

-2.717361068081908e6 5.688459927024804e6 0.0
5.688459927024804e6 664774.7961783094 0.0
0.0 0.0 0.0

237677.5403525833 875343.3341079465 0.0
875343.3341079465 -613017.470855046 0.0
0.0 0.0 0.0

-2.0573642677126166e6 3.2520567355078137e6 0.0
3.2520567355078137e6 663162.7460870777 0.0
0.0 0.0 0.0

-1.2630642916578024e6 2.8779379028109587e6 0.0
2.8779379028109587e6 2.26134252017623e6 0.0
0.0 0.0 0.0

-284936.34876676614 3.9322591061601825e6 0.0
3.9322591061601825e6 -1.1420009515347292e6 0.0
0.0 0.0 0.0

-915949.6035078815 7.087509036825383e6 0.0
7.087509036825383e6 -643977.788556494 0.0
0.0 0.0 0.0

-5.141188415578844e6 6.310584825187566e6 0.0
6.310584825187566e6 2.671454092876963e6 0.0
0.0 0.0 0.0

-545731.2675589784 4.296503082645179e6 0.0
4.296503082645179e6 -1.779051906916988e6 0.0
0.0 0.0 0.0

-1.0069548477845248e7 2.5941185758214975e6 0.0
2.5941185758214975e6 2.3156966980212326e6 0.0
0.0 0.0 0.0

2.4072890256333696e6 445774.74767175864 0.0
445774.74767175864 -2.3892836228844323e6 0.0
0.0 0.0 0.0

2.2336247009938294e6 560076.1293259105 0.0
560076.1293259105 -2.854929162211851e6 0.0
0.0 0.0 0.0

-327041.179492768 5.972147446601108e6 0.0
5.972147446601108e6 -255912.01035836872 0.0
0.0 0.0 0.0

-1.9332711259059191e6 5.727141932507931e6 0.0
5.727141932507931e6 3.6689008330737734e6 0.0
0.0 0.0 0.0

-438647.3067697207 5.533671142105322e6 0.0
5.533671142105322e6 -543728.871504622 0.0
0.0 0.0 0.0

-673361.8355154536 2.8594382218909543e6 0.0
2.8594382218909543e6 112907.70170504673 0.0
0.0 0.0 0.0

-664807.361059022 1.2269867935512823e6 0.0
1.2269867935512823e6 32644.120063780167 0.0
0.0 0.0 0.0

-910051.040066023 5.42437957219649e6 0.0
5.42437957219649e6 -235524.57825427962 0.0
0.0 0.0 0.0

-3.286620218923496e6 4.5870106313134115e6 0.0
4.5870106313134115e6 1.452631856436085e6 0.0
0.0 0.0 0.0

-524932.7006061982 3.7438628451670683e6 0.0
3.7438628451670683e6 -1.784862600875347e6 0.0
0.0 0.0 0.0

-1.70322750534951e6 3.9800097679600357e6 0.0
3.9800097679600357e6 2.5478229989741202e6 0.0
0.0 0.0 0.0

1.0080480908802173e6 5.598659446174154e6 0.0
5.598659446174154e6 -2.138156450780683e6 0.0
0.0 0.0 0.0

-6.739466138765431e6 2.6183431923531466e6 0.0
2.6183431923531466e6 3.588076439774221e6 0.0
0.0 0.0 0.0

-721243.8381060977 4.26992032695797e6 0.0
4.26992032695797e6 -246351.3796828776 0.0
0.0 0.0 0.0

127772.3181437917 2.872213236823882e6 0.0
2.872213236823882e6 -697337.1044368513 0.0
0.0 0.0 0.0

-924447.3405605706 2.9447136333181877e6 0.0
2.9447136333181877e6 393184.69087041344 0.0
0.0 0.0 0.0

-3.222259869525847e6 4.530590810694857e6 0.0
4.530590810694857e6 1.3082495180291308e6 0.0
0.0 0.0 0.0

-4.103619319478569e6 4.285059705498224e6 0.0
4.285059705498224e6 5.666296357029591e6 0.0
0.0 0.0 0.0

-5.744076559405083e6 -2.109298142727392e6 0.0
-2.109298142727392e6 7.991716238043997e6 0.0
0.0 0.0 0.0

-545299.5113522351 5.657432612781351e6 0.0
5.657432612781351e6 -483101.0990350037 0.0
0.0 0.0 0.0

-376281.6805799167 4.524896799473782e6 0.0
4.524896799473782e6 -1.9651173507031375e6 0.0
0.0 0.0 0.0

-2.104219212872589e6 4.625757978833642e6 0.0
4.625757978833642e6 2.681672419043443e6 0.0
0.0 0.0 0.0

-969970.61138217 4.04666716956836e6 0.0
4.04666716956836e6 1.8323879582664114e6 0.0
0.0 0.0 0.0

-937993.6002098001 3.704815879852267e6 0.0
3.704815879852267e6 -965107.2302793254 0.0
0.0 0.0 0.0

-6.660828441205791e6 4.943633360318626e6 0.0
4.943633360318626e6 1.9557692346115068e7 0.0
0.0 0.0 0.0

-763202.3367391725 7.757177493001295e6 0.0
7.757177493001295e6 -700721.9589706662 0.0
0.0 0.0 0.0

-791615.6683453475 6.023994756927195e6 0.0
6.023994756927195e6 -1.1916235449202587e6 0.0
0.0 0.0 0.0

-986176.985854044 2.1614779843126433e6 0.0
2.1614779843126433e6 -211743.33333492046 0.0
0.0 0.0 0.0

610479.6499927307 5.017387042843938e6 0.0
5.017387042843938e6 -2.001203668160836e6 0.0
0.0 0.0 0.0

-5.351410128250042e6 5.875611607516622e6 0.0
5.875611607516622e6 2.6199365261333864e6 0.0
0.0 0.0 0.0

-909275.6880541912 3.117285596255309e6 0.0
3.117285596255309e6 544833.8859160072 0.0
0.0 0.0 0.0

-246367.92134701164 6.074992415418517e6 0.0
6.074992415418517e6 -547867.5592058245 0.0
0.0 0.0 0.0

-1.9562127673341401e6 5.044553218295831e6 0.0
5.044553218295831e6 295369.1906303044 0.0
0.0 0.0 0.0

-2.301275757526343e6 3.183436267424098e6 0.0
3.183436267424098e6 820361.9618776655 0.0
0.0 0.0 0.0

-1.1741556072291427e6 3.1450173590413583e6 0.0
3.1450173590413583e6 609075.0356895826 0.0
0.0 0.0 0.0

-427401.8328380602 6.3736459642431885e6 0.0
6.3736459642431885e6 -1.4818410256815397e6 0.0
0.0 0.0 0.0

-5.911477605489254e6 2.9844549935850888e6 0.0
2.9844549935850888e6 1.7291759194480302e6 0.0
0.0 0.0 0.0

-442558.1248217958 4.1025401906040804e6 0.0
4.1025401906040804e6 1.3580223645382915e6 0.0
0.0 0.0 0.0

500625.7324897847 677255.0005623752 0.0
677255.0005623752 -1.1540692337653702e6 0.0
0.0 0.0 0.0

-2.7568975705723413e6 4.497778566868102e6 0.0
4.497778566868102e6 617828.6344659423 0.0
0.0 0.0 0.0

-8.975565509433316e6 -748966.5149508402 0.0
-748966.5149508402 4.475686931211941e6 0.0
0.0 0.0 0.0

-2.0961507716920646e6 4.983982643316146e6 0.0
4.983982643316146e6 1.2194282797490712e6 0.0
0.0 0.0 0.0

-4.985653290019126e6 6.208306818775816e6 0.0
6.208306818775816e6 88031.37458913052 0.0
0.0 0.0 0.0

-2.015570673784651e6 6.119849184226522e6 0.0
6.119849184226522e6 169789.42652298394 0.0
0.0 0.0 0.0

-1.6132065375824454e6 3.447903057384586e6 0.0
3.447903057384586e6 877153.3494589521 0.0
0.0 0.0 0.0

-531899.0921048536 2.7212879760009684e6 0.0
2.7212879760009684e6 154257.86442865268 0.0
0.0 0.0 0.0

-1.31104273295119e6 3.3151434346808945e6 0.0
3.3151434346808945e6 152044.84238492395 0.0
0.0 0.0 0.0

-1.7667254159623128e6 4.961972163893431e6 0.0
4.961972163893431e6 509741.4727621161 0.0
0.0 0.0 0.0

-108948.14969794793 -266707.1310555351 0.0
-266707.1310555351 560648.4707052573 0.0
0.0 0.0 0.0

-335728.5710618122 3.9463900810530954e6 0.0
3.9463900810530954e6 -1.5072600356012464e6 0.0
0.0 0.0 0.0

-337452.4299251309 3.892333836393823e6 0.0
3.892333836393823e6 -1.6434253927704988e6 0.0
0.0 0.0 0.0

-699090.0774539809 6.097259349327508e6 0.0
6.097259349327508e6 -1.2073009479249185e6 0.0
0.0 0.0 0.0

240113.96100880316 318770.4005281803 0.0
318770.4005281803 -598209.6975421794 0.0
0.0 0.0 0.0

-420013.1208465815 3.9913982613031464e6 0.0
3.9913982613031464e6 -1.2764176268173724e6 0.0
0.0 0.0 0.0

-1.9549969039400935e6 4.995859370626136e6 0.0
4.995859370626136e6 333481.2541723229 0.0
0.0 0.0 0.0

-617337.2894151475 5.536143331603493e6 0.0
5.536143331603493e6 -113545.96878299375 0.0
0.0 0.0 0.0

-907857.7782056341 6.860286554519913e6 0.0
6.860286554519913e6 -787025.9591260301 0.0
0.0 0.0 0.0

-526767.6932163385 5.533041133515003e6 0.0
5.533041133515003e6 -579683.3598318278 0.0
0.0 0.0 0.0

-4.433939893098213e6 6.225480723576491e6 0.0
6.225480723576491e6 1.644028183793231e6 0.0
0.0 0.0 0.0

-802600.5392093263 6.376819033908814e6 0.0
6.376819033908814e6 -879156.9879634017 0.0
0.0 0.0 0.0

3.0333005620831735e6 9.42705978219714e6 0.0
9.42705978219714e6 -250997.49742626667 0.0
0.0 0.0 0.0

-631594.5651521541 6.622607154837806e6 0.0
6.622607154837806e6 -982201.5495042546 0.0
0.0 0.0 0.0

-639283.2950466152 4.23367509284047e6 0.0
4.23367509284047e6 -1.4478931959649895e6 0.0
0.0 0.0 0.0

-804162.440486411 7.139180767353341e6 0.0
7.139180767353341e6 -751487.3256139896 0.0
0.0 0.0 0.0

-1.0352026342145005e7 1.0355757464400317e6 0.0
1.0355757464400317e6 9.218372958906498e6 0.0
0.0 0.0 0.0

-1.9621486045725604e6 4.986406350453946e6 0.0
4.986406350453946e6 352895.39384036756 0.0
0.0 0.0 0.0

882486.8323116904 7.163864008942109e6 0.0
7.163864008942109e6 -2.438662609032104e6 0.0
0.0 0.0 0.0

-694483.59402394 3.3836079269025642e6 0.0
3.3836079269025642e6 -1.981103015036468e6 0.0
0.0 0.0 0.0

-832270.6240552315 5.828143870372202e6 0.0
5.828143870372202e6 926293.4714418268 0.0
0.0 0.0 0.0

472539.4032076512 5.569667098018425e6 0.0
5.569667098018425e6 -1.41554419263484e6 0.0
0.0 0.0 0.0

-759504.4805085629 7.305257398286206e6 0.0
7.305257398286206e6 -619749.8179364228 0.0
0.0 0.0 0.0

364794.5476627762 3.857910624171285e6 0.0
3.857910624171285e6 -1.810572218402479e6 0.0
0.0 0.0 0.0

-1.066706474930159e6 6.909553978054924e6 0.0
6.909553978054924e6 -594487.5268212995 0.0
0.0 0.0 0.0

-797349.2142268025 7.442811250479244e6 0.0
7.442811250479244e6 -227866.99429732136 0.0
0.0 0.0 0.0

-2.2999722663533366e6 3.123831727808662e6 0.0
3.123831727808662e6 833254.7972167901 0.0
0.0 0.0 0.0

-3.1318478230891908e6 3.8866700076852706e6 0.0
3.8866700076852706e6 731522.722606664 0.0
0.0 0.0 0.0

-1.2282367092415798e6 3.640387254295004e6 0.0
3.640387254295004e6 1.314657343904473e6 0.0
0.0 0.0 0.0

-494821.76284502214 4.0673594157352163e6 0.0
4.0673594157352163e6 -689013.9597150952 0.0
0.0 0.0 0.0

-3.676832383238912e6 3.6575334852871886e6 0.0
3.6575334852871886e6 -189999.467245301 0.0
0.0 0.0 0.0

914104.7316523017 3.7833474594997484e6 0.0
3.7833474594997484e6 289451.9157522089 0.0
0.0 0.0 0.0

-1.1407944157845855e6 3.278131805676037e6 0.0
3.278131805676037e6 -265060.09702518315 0.0
0.0 0.0 0.0

-2.6662081968902405e6 4.406132872277435e6 0.0
4.406132872277435e6 601516.3861111891 0.0
0.0 0.0 0.0

-2.4054765465040654e6 5.978718126207488e6 0.0
5.978718126207488e6 706078.5847997508 0.0
0.0 0.0 0.0

-46791.40308934997 4.872791563226957e6 0.0
4.872791563226957e6 -1.2192464511986126e6 0.0
0.0 0.0 0.0

571840.5738973831 5.758824071898716e6 0.0
5.758824071898716e6 -2.205977289364689e6 0.0
0.0 0.0 0.0

-640971.887115021 3.728724360112099e6 0.0
3.728724360112099e6 -1.3862820231992577e6 0.0
0.0 0.0 0.0

2.6976834621232986e6 5.756744765430423e6 0.0
5.756744765430423e6 -389205.4006625657 0.0
0.0 0.0 0.0

-950690.2284535449 3.769741406497531e6 0.0
3.769741406497531e6 2.1967989479061584e6 0.0
0.0 0.0 0.0

-2.398053109558842e6 4.745347922650334e6 0.0
4.745347922650334e6 439288.1290935094 0.0
0.0 0.0 0.0

204818.79026207526 392911.6544923156 0.0
392911.6544923156 643472.1462513355 0.0
0.0 0.0 0.0

-4.0367560649658903e6 4.12801345073376e6 0.0
4.12801345073376e6 1.5110375995497112e6 0.0
0.0 0.0 0.0

-9.458976141099e6 848557.306927561 0.0
848557.306927561 5.074695366137883e6 0.0
0.0 0.0 0.0

-800169.5407013986 6.132221761627646e6 0.0
6.132221761627646e6 -1.094981640896877e6 0.0
0.0 0.0 0.0

-218016.06046871663 6.054056514579503e6 0.0
6.054056514579503e6 -478294.9547138021 0.0
0.0 0.0 0.0

-449235.3455569707 4.377555065636445e6 0.0
4.377555065636445e6 -1.1049294210839514e6 0.0
0.0 0.0 0.0

-2.0731996328622717e6 3.864456630141275e6 0.0
3.864456630141275e6 796885.4637559266 0.0
0.0 0.0 0.0

-578699.8284151326 4.713975452923503e6 0.0
4.713975452923503e6 -1.472126159291825e6 0.0
0.0 0.0 0.0

-458849.3535800468 6.4858428091995595e6 0.0
6.4858428091995595e6 -1.689531532055486e6 0.0
0.0 0.0 0.0

-787322.4196069525 1.434856874067538e6 0.0
1.434856874067538e6 -866604.256929242 0.0
0.0 0.0 0.0

-2.6043519909052653e6 4.383357088792494e6 0.0
4.383357088792494e6 643084.1480788507 0.0
0.0 0.0 0.0

-1.1919208863635024e6 3.5343532334004114e6 0.0
3.5343532334004114e6 -638295.0719074938 0.0
0.0 0.0 0.0

911736.55456017 3.9055906315372265e6 0.0
3.9055906315372265e6 1.7548741043173594e6 0.0
0.0 0.0 0.0

530678.374146699 5.82116036408468e6 0.0
5.82116036408468e6 -2.2274626205805535e6 0.0
0.0 0.0 0.0

-340172.72126178263 5.944746705496161e6 0.0
5.944746705496161e6 -302817.94333834155 0.0
0.0 0.0 0.0

-295954.8097141974 1.419257823315948e6 0.0
1.419257823315948e6 -1.5529671598550319e6 0.0
0.0 0.0 0.0

-2.353603096793971e6 5.793680773925094e6 0.0
5.793680773925094e6 828061.7572992747 0.0
0.0 0.0 0.0

-388117.3784723651 5.591436056153411e6 0.0
5.591436056153411e6 -528063.0919477532 0.0
0.0 0.0 0.0

-351874.4724654607 1.1713413930156846e6 0.0
1.1713413930156846e6 1.2014824986259304e6 0.0
0.0 0.0 0.0

372465.972956674 1.240703082277836e6 0.0
1.240703082277836e6 -745784.593433359 0.0
0.0 0.0 0.0

-1.1782122012715566e6 7.599262571006063e6 0.0
7.599262571006063e6 -477140.1342380978 0.0
0.0 0.0 0.0

-6.552421876014165e6 -3.405390463735391e6 0.0
-3.405390463735391e6 7.209066618744674e6 0.0
0.0 0.0 0.0

-719480.2168702018 5.80062387714674e6 0.0
5.80062387714674e6 -1.3738257169565978e6 0.0
0.0 0.0 0.0

-3.108030369257084e6 2.6643743927697525e6 0.0
2.6643743927697525e6 3.372766651549968e6 0.0
0.0 0.0 0.0

-1.5186407883544974e6 3.490310843097279e6 0.0
3.490310843097279e6 633574.4128233383 0.0
0.0 0.0 0.0

-1.2470634677959852e7 -2.7102650487408447e6 0.0
-2.7102650487408447e6 7.278469633927855e6 0.0
0.0 0.0 0.0

-532979.7782101403 3.858976076209627e6 0.0
3.858976076209627e6 -1.5005997682246754e6 0.0
0.0 0.0 0.0

-899644.8724494429 6.984932214736287e6 0.0
6.984932214736287e6 -656850.5695683924 0.0
0.0 0.0 0.0

326545.085064213 2.1267481893598903e6 0.0
2.1267481893598903e6 -901270.6863060261 0.0
0.0 0.0 0.0

-2.9409401167951967e6 6.783882192659408e6 0.0
6.783882192659408e6 562515.0924248231 0.0
0.0 0.0 0.0

-2.276144820475985e6 7.695836783060798e6 0.0
7.695836783060798e6 784108.2843658949 0.0
0.0 0.0 0.0

-3.591913593963544e6 4.1325144953340637e6 0.0
4.1325144953340637e6 1.4127926469639903e6 0.0
0.0 0.0 0.0

-2.136767816642605e6 3.5216467020385275e6 0.0
3.5216467020385275e6 771600.2529282573 0.0
0.0 0.0 0.0

-1.1962350016930988e6 2.9148458450137e6 0.0
2.9148458450137e6 1.1442331803201004e6 0.0
0.0 0.0 0.0

-1.2596224962522017e6 5.350945242605194e6 0.0
5.350945242605194e6 330305.00354036735 0.0
0.0 0.0 0.0

-4.118165101437658e6 4.151866901577214e6 0.0
4.151866901577214e6 1.5123034882606268e6 0.0
0.0 0.0 0.0

-335457.3242766018 4.554597771573323e6 0.0
4.554597771573323e6 -1.4905827111536528e6 0.0
0.0 0.0 0.0

-3.79708280698873e6 4.1757704528830745e6 0.0
4.1757704528830745e6 1.386616497414279e6 0.0
0.0 0.0 0.0

-2.714250348020238e6 5.197486683412212e6 0.0
5.197486683412212e6 3.6591251425520694e6 0.0
0.0 0.0 0.0

-924527.1609361188 2.9961928704049117e6 0.0
2.9961928704049117e6 462366.936311773 0.0
0.0 0.0 0.0

551579.1142155853 5.5998553434029715e6 0.0
5.5998553434029715e6 -2.0118668802930699e6 0.0
0.0 0.0 0.0

-2.1052614943287093e6 5.030776079973708e6 0.0
5.030776079973708e6 352344.72110358556 0.0
0.0 0.0 0.0

-2.6545061551160873e6 4.271752543964079e6 0.0
4.271752543964079e6 715954.735521127 0.0
0.0 0.0 0.0

-2.1320319406522517e6 4.707965433600146e6 0.0
4.707965433600146e6 553102.2713906455 0.0
0.0 0.0 0.0

-1.2035448642247265e7 6.210603416458142e6 0.0
6.210603416458142e6 2.5122184662165577e6 0.0
0.0 0.0 0.0

-755797.9233393281 6.172989535167375e6 0.0
6.172989535167375e6 -1.029204219138778e6 0.0
0.0 0.0 0.0

-3.1176978262072452e6 4.334001807058828e6 0.0
4.334001807058828e6 1.3242376241483889e6 0.0
0.0 0.0 0.0

-1.7141379970040512e6 3.4661485246256036e6 0.0
3.4661485246256036e6 852959.2905361946 0.0
0.0 0.0 0.0

-1.2089271605624035e7 -376759.7835796582 0.0
-376759.7835796582 7.288028254257712e6 0.0
0.0 0.0 0.0

-368899.6152257754 5.660146658299567e6 0.0
5.660146658299567e6 -519230.5177038889 0.0
0.0 0.0 0.0

-4.848264580654554e6 3.7148109985702597e6 0.0
3.7148109985702597e6 6.02512319213052e6 0.0
0.0 0.0 0.0

555298.7195432106 5.179655347728245e6 0.0
5.179655347728245e6 -1.905365032798543e6 0.0
0.0 0.0 0.0

-5.228873245626453e6 2.7880855968892477e6 0.0
2.7880855968892477e6 755214.5483970216 0.0
0.0 0.0 0.0

-89264.98801105728 81364.71127113217 0.0
81364.71127113217 410770.1516089722 0.0
0.0 0.0 0.0

-400763.5987275256 -1.0028831649775287e6 0.0
-1.0028831649775287e6 1.242872688904056e6 0.0
0.0 0.0 0.0

410615.1664224574 1.1600102447501435e6 0.0
1.1600102447501435e6 -805429.002682846 0.0
0.0 0.0 0.0

-990962.3533554522 2.3962110853379727e6 0.0
2.3962110853379727e6 817494.976795451 0.0
0.0 0.0 0.0

-4.839420375060057e6 2.689285683138004e6 0.0
2.689285683138004e6 4.923462356610646e6 0.0
0.0 0.0 0.0

-590502.4540303805 5.481268364556802e6 0.0
5.481268364556802e6 -1.5376360915685769e6 0.0
0.0 0.0 0.0

-6.127004741267543e6 2.674083472183411e6 0.0
2.674083472183411e6 2.2440081740517435e6 0.0
0.0 0.0 0.0

-978638.49773307 3.1522678431876553e6 0.0
3.1522678431876553e6 591671.795870121 0.0
0.0 0.0 0.0

-734083.081960356 3.434417648072992e6 0.0
3.434417648072992e6 -1.9929662948083857e6 0.0
0.0 0.0 0.0

-6.317719222191776e6 -352968.198482125 0.0
-352968.198482125 6.175203850441659e6 0.0
0.0 0.0 0.0

-307636.9069284635 -1.0239806200591322e6 0.0
-1.0239806200591322e6 1.0566797070244325e6 0.0
0.0 0.0 0.0

-899679.5022102245 6.736238533622216e6 0.0
6.736238533622216e6 -969924.4636748917 0.0
0.0 0.0 0.0

-792032.8075477474 3.9234576027070144e6 0.0
3.9234576027070144e6 -2.0212931693253587e6 0.0
0.0 0.0 0.0

-1.7579388600229607e6 5.94775780771964e6 0.0
5.94775780771964e6 553652.7704200587 0.0
0.0 0.0 0.0

-4.938629789966506e6 -392531.99796879874 0.0
-392531.99796879874 5.104166132119969e6 0.0
0.0 0.0 0.0

2.201983319308567e6 5.31036991954961e6 0.0
5.31036991954961e6 1.7051967226596037e6 0.0
0.0 0.0 0.0

-416783.1255075743 4.098514586466578e6 0.0
4.098514586466578e6 -1.7582323274581882e6 0.0
0.0 0.0 0.0

-730462.0164695242 6.349750689271031e6 0.0
6.349750689271031e6 -1.111673012518641e6 0.0
0.0 0.0 0.0

-569087.1435588473 3.529612221577038e6 0.0
3.529612221577038e6 -1.6389867407209945e6 0.0
0.0 0.0 0.0

547736.8926866496 5.233317115770445e6 0.0
5.233317115770445e6 -2.2093225102952244e6 0.0
0.0 0.0 0.0

-2.4879564787769862e6 5.022690771487762e6 0.0
5.022690771487762e6 930828.8718631415 0.0
0.0 0.0 0.0

-524346.31138671 3.545976691399362e6 0.0
3.545976691399362e6 -1.7438624063407362e6 0.0
0.0 0.0 0.0

-747498.355953488 6.366378206417076e6 0.0
6.366378206417076e6 -862941.0147506681 0.0
0.0 0.0 0.0

-512156.9232970212 4.390831692138398e6 0.0
4.390831692138398e6 -1.1310249774822847e6 0.0
0.0 0.0 0.0

-1.1596413013910162e6 3.166386089805168e6 0.0
3.166386089805168e6 -223687.76470275424 0.0
0.0 0.0 0.0

-2.031429131877507e6 3.7975511587165347e6 0.0
3.7975511587165347e6 695332.1963178378 0.0
0.0 0.0 0.0

-601433.3373790989 5.260012113080024e6 0.0
5.260012113080024e6 542659.5300735625 0.0
0.0 0.0 0.0

495211.1181982232 5.4570817889324e6 0.0
5.4570817889324e6 -2.556671378023301e6 0.0
0.0 0.0 0.0

-2.5557293949221573e6 478124.884357316 0.0
478124.884357316 1.5999098990366017e6 0.0
0.0 0.0 0.0

-2.0725013748482303e6 4.040880532674228e6 0.0
4.040880532674228e6 2.3817941408126266e6 0.0
0.0 0.0 0.0

-865224.5017363175 4.711149915389334e6 0.0
4.711149915389334e6 -1.3258940697958758e6 0.0
0.0 0.0 0.0

3.620405746041963e6 6.966696814430385e6 0.0
6.966696814430385e6 -330925.0639769484 0.0
0.0 0.0 0.0

-702009.5070624354 5.830553101510606e6 0.0
5.830553101510606e6 -1.4105359143158544e6 0.0
0.0 0.0 0.0

-2.457625211336315e6 5.023636948062936e6 0.0
5.023636948062936e6 514032.42468288145 0.0
0.0 0.0 0.0

-2.5792346262110937e6 3.242303587063863e6 0.0
3.242303587063863e6 920620.1777119562 0.0
0.0 0.0 0.0

-8.63985391349576e6 6.857884678375098e6 0.0
6.857884678375098e6 7.745903866442062e6 0.0
0.0 0.0 0.0

-902805.2041218115 2.0375652053579492e6 0.0
2.0375652053579492e6 1.0581750109194606e6 0.0
0.0 0.0 0.0

-124773.6451822205 330710.2379912576 0.0
330710.2379912576 568072.6244019401 0.0
0.0 0.0 0.0

-747464.2920291616 283354.390076073 0.0
283354.390076073 794323.2041199608 0.0
0.0 0.0 0.0

-3.3865586743809916e6 3.988691758443938e6 0.0
3.988691758443938e6 1.1309971218670686e6 0.0
0.0 0.0 0.0

-480494.9999733683 5.866930195918997e6 0.0
5.866930195918997e6 -1.7709597896462753e6 0.0
0.0 0.0 0.0

-2.020911302411534e6 4.418256204124312e6 0.0
4.418256204124312e6 832869.8409019758 0.0
0.0 0.0 0.0

-778380.5006840841 6.2992435980694415e6 0.0
6.2992435980694415e6 -916543.3255706271 0.0
0.0 0.0 0.0

-1.4257620392234544e6 3.4316146461810274e6 0.0
3.4316146461810274e6 333019.2942069862 0.0
0.0 0.0 0.0

-1.9755553501018812e6 4.905142333318919e6 0.0
4.905142333318919e6 406245.20892671356 0.0
0.0 0.0 0.0

-591584.1722814472 7.896481278784695e6 0.0
7.896481278784695e6 -810363.0106929252 0.0
0.0 0.0 0.0

-1.635349325243439e6 4.977964229938708e6 0.0
4.977964229938708e6 655474.397248617 0.0
0.0 0.0 0.0

-2.034660950501989e6 4.216659538010706e6 0.0
4.216659538010706e6 1.0251703997816476e6 0.0
0.0 0.0 0.0

-405346.3722111472 3.532501462203852e6 0.0
3.532501462203852e6 -1.6337039671467352e6 0.0
0.0 0.0 0.0

-1.0516535591033879e6 2.971601233889514e6 0.0
2.971601233889514e6 573806.4697094723 0.0
0.0 0.0 0.0

-3.3811477692757235e6 3.91423741752487e6 0.0
3.91423741752487e6 1.119096792654707e6 0.0
0.0 0.0 0.0

418382.8235068348 5.388160164349165e6 0.0
5.388160164349165e6 -2.038708158025783e6 0.0
0.0 0.0 0.0

-3.8615099015584784e6 -2.110686216683916e6 0.0
-2.110686216683916e6 6.935711443836182e6 0.0
0.0 0.0 0.0

-1.650967939441017e6 5.492297425686129e6 0.0
5.492297425686129e6 847034.034573328 0.0
0.0 0.0 0.0

-3.431130618150264e6 3.9668366891061314e6 0.0
3.9668366891061314e6 1.244826357977999e6 0.0
0.0 0.0 0.0

-442272.623005579 5.743594598314969e6 0.0
5.743594598314969e6 -1.852388597746703e6 0.0
0.0 0.0 0.0

-2.874169694600633e6 5.11114518331866e6 0.0
5.11114518331866e6 779001.6055771195 0.0
0.0 0.0 0.0

-383802.9236996301 6.313745793049591e6 0.0
6.313745793049591e6 -1.5100194714093884e6 0.0
0.0 0.0 0.0

-851690.0736572288 3.1602348717903676e6 0.0
3.1602348717903676e6 426191.2192147577 0.0
0.0 0.0 0.0

-5.810052889842404e6 3.6654941550034597e6 0.0
3.6654941550034597e6 92706.06042594579 0.0
0.0 0.0 0.0

-2.2241107579641454e6 5.478612551840681e6 0.0
5.478612551840681e6 -44542.02197471901 0.0
0.0 0.0 0.0

-1.8894994816324904e6 4.83174743497959e6 0.0
4.83174743497959e6 589265.7283654744 0.0
0.0 0.0 0.0

650097.0021813989 117336.8478134636 0.0
117336.8478134636 -1.0487243886243976e6 0.0
0.0 0.0 0.0

-2.4283599951421106e6 5.704122069194501e6 0.0
5.704122069194501e6 291399.020065772 0.0
0.0 0.0 0.0

-1.9978412811914762e6 4.974418711965844e6 0.0
4.974418711965844e6 368016.3869521434 0.0
0.0 0.0 0.0

480848.28083080496 5.58004217722731e6 0.0
5.58004217722731e6 -1.9450080780704392e6 0.0
0.0 0.0 0.0

-1.269561191268057e6 3.3198260701605007e6 0.0
3.3198260701605007e6 289942.67176112795 0.0
0.0 0.0 0.0

-784061.3021175871 2.933014750568657e6 0.0
2.933014750568657e6 244297.6684658794 0.0
0.0 0.0 0.0

-4.115906103026251e6 6.389047592322234e6 0.0
6.389047592322234e6 1.913196649957027e6 0.0
0.0 0.0 0.0

79632.63132519834 1.0198709400432485e6 0.0
1.0198709400432485e6 -1.038862299876115e6 0.0
0.0 0.0 0.0

-1.1095946420956915e6 3.0605492693216405e6 0.0
3.0605492693216405e6 714999.6101090321 0.0
0.0 0.0 0.0

-3.775963534565539e6 4.119550418155309e6 0.0
4.119550418155309e6 1.414635558339029e6 0.0
0.0 0.0 0.0

-891283.8292665228 -1.1491950331061531e6 0.0
-1.1491950331061531e6 2.4447850700218626e6 0.0
0.0 0.0 0.0

779953.7871109871 393982.0631900253 0.0
393982.0631900253 -924958.0664964332 0.0
0.0 0.0 0.0

252311.99654440698 6.171297270211391e6 0.0
6.171297270211391e6 -1.5904411204480361e6 0.0
0.0 0.0 0.0

-2.0252279814911436e6 3.9430790724460823e6 0.0
3.9430790724460823e6 714123.1357107033 0.0
0.0 0.0 0.0

-967376.003345335 2.0052577523375046e6 0.0
2.0052577523375046e6 1.938007116985003e6 0.0
0.0 0.0 0.0

-951342.4059129008 6.672969195262158e6 0.0
6.672969195262158e6 -904509.8780810831 0.0
0.0 0.0 0.0

-810251.0088267033 6.58637174162441e6 0.0
6.58637174162441e6 -943666.8938254897 0.0
0.0 0.0 0.0

-329858.8598422774 5.914142124184943e6 0.0
5.914142124184943e6 -1.7681290596960492e6 0.0
0.0 0.0 0.0

-653060.3165931624 5.633925639890596e6 0.0
5.633925639890596e6 -1.4560424674461305e6 0.0
0.0 0.0 0.0

-124310.34239890744 4.207799221178285e6 0.0
4.207799221178285e6 -1.0047988664336227e6 0.0
0.0 0.0 0.0

-1.3891921233685466e6 2.3671772249092744e6 0.0
2.3671772249092744e6 1.7651099947015105e6 0.0
0.0 0.0 0.0

-2.52553247493325e6 5.207862171954167e6 0.0
5.207862171954167e6 493362.65530350397 0.0
0.0 0.0 0.0

-2.5287590542161744e6 4.550246574175374e6 0.0
4.550246574175374e6 602828.1953569254 0.0
0.0 0.0 0.0

-3.4555007531887675e6 4.0100443450590796e6 0.0
4.0100443450590796e6 1.1729497724230501e6 0.0
0.0 0.0 0.0

-233786.35387277696 1.1185872206088297e7 0.0
1.1185872206088297e7 1.43037885574045e7 0.0
0.0 0.0 0.0

-2.1714991659097644e6 3.867763808255973e6 0.0
3.867763808255973e6 845460.6723398746 0.0
0.0 0.0 0.0

-783807.1274714146 6.515309548287941e6 0.0
6.515309548287941e6 -1.0249824911253222e6 0.0
0.0 0.0 0.0

-753511.5158988601 5.371509606113346e6 0.0
5.371509606113346e6 -1.4071110800133147e6 0.0
0.0 0.0 0.0

-731814.3665588968 6.244607956560963e6 0.0
6.244607956560963e6 -1.1280419680651142e6 0.0
0.0 0.0 0.0

-3.2778318659910527e6 5.079201178383495e6 0.0
5.079201178383495e6 1.3081803967066156e6 0.0
0.0 0.0 0.0

-2.001775893037806e6 3.7032953054122673e6 0.0
3.7032953054122673e6 683232.5921703362 0.0
0.0 0.0 0.0

-610793.7916515341 4.3721348265596945e6 0.0
4.3721348265596945e6 -1.1126812247090528e6 0.0
0.0 0.0 0.0

-769353.1295895714 5.049963993859256e6 0.0
5.049963993859256e6 -1.2005419140393198e6 0.0
0.0 0.0 0.0

-1.2782206374879275e6 3.193924324092786e6 0.0
3.193924324092786e6 -258439.46300428107 0.0
0.0 0.0 0.0

-6.099155606798619e6 8.630946843985017e6 0.0
8.630946843985017e6 1.97769969222626e6 0.0
0.0 0.0 0.0

385768.6858258527 4.000145328452119e6 0.0
4.000145328452119e6 -2.0628100985050783e6 0.0
0.0 0.0 0.0

4.692655425975941e6 6.06750307909987e6 0.0
6.06750307909987e6 -214617.05451880698 0.0
0.0 0.0 0.0

1.3096705334260068e6 1.3437241772400167e7 0.0
1.3437241772400167e7 -8.085425481755526e6 0.0
0.0 0.0 0.0

-576258.0266203416 5.661086904318898e6 0.0
5.661086904318898e6 -358938.7177169012 0.0
0.0 0.0 0.0

-235931.2011183832 4.382814616695871e6 0.0
4.382814616695871e6 -217919.88686545045 0.0
0.0 0.0 0.0

-2.994032923142577e6 5.796618867814085e6 0.0
5.796618867814085e6 117992.04302875756 0.0
0.0 0.0 0.0

-1.639179643373654e7 -715109.2359659246 0.0
-715109.2359659246 1.1874548141973682e7 0.0
0.0 0.0 0.0

-1.48734026944402e6 3.364661216901769e6 0.0
3.364661216901769e6 -174684.29024563427 0.0
0.0 0.0 0.0

-2.7719782546630236e6 4.1098087618635064e6 0.0
4.1098087618635064e6 1.14293181360964e6 0.0
0.0 0.0 0.0

-691597.5763444286 6.188892803122659e6 0.0
6.188892803122659e6 -1.1944803607855663e6 0.0
0.0 0.0 0.0

5190.237970712595 3.511439094885384e6 0.0
3.511439094885384e6 -2.0476215858344494e6 0.0
0.0 0.0 0.0

-764436.5270254612 6.197460853823889e6 0.0
6.197460853823889e6 -1.2080049052988272e6 0.0
0.0 0.0 0.0

-624505.2030511166 3.4171850583335743e6 0.0
3.4171850583335743e6 -1.939312281268538e6 0.0
0.0 0.0 0.0

-853013.2116477424 2.9315146704854704e6 0.0
2.9315146704854704e6 -765.1809852233273 0.0
0.0 0.0 0.0

-484231.93384690775 5.609659180502319e6 0.0
5.609659180502319e6 264.7366869703401 0.0
0.0 0.0 0.0

-242150.0846901804 3.9890311450958075e6 0.0
3.9890311450958075e6 -1.2660234395793907e6 0.0
0.0 0.0 0.0

-805836.364838847 -206175.3794074018 0.0
-206175.3794074018 742335.5574531356 0.0
0.0 0.0 0.0

-274692.9449190291 206994.43396245025 0.0
206994.43396245025 87111.875533804 0.0
0.0 0.0 0.0

-2.586879399361737e6 4.18935657179599e6 0.0
4.18935657179599e6 804705.7726704514 0.0
0.0 0.0 0.0

-905154.537312036 5.088194428139768e6 0.0
5.088194428139768e6 292832.34649448656 0.0
0.0 0.0 0.0

-1.4661045849622658e6 3.5140585630056076e6 0.0
3.5140585630056076e6 471663.08254524507 0.0
0.0 0.0 0.0

426947.9738223655 1.495071872127669e6 0.0
1.495071872127669e6 -771080.2418852138 0.0
0.0 0.0 0.0

-9.643005886498459e6 -23841.30455360363 0.0
-23841.30455360363 1.1273306011886023e7 0.0
0.0 0.0 0.0

-2.2840864344222075e6 3.1593182011857606e6 0.0
3.1593182011857606e6 835679.8686782689 0.0
0.0 0.0 0.0

-2.1801647660942175e6 5.371046277874403e6 0.0
5.371046277874403e6 215734.22597914387 0.0
0.0 0.0 0.0

-743605.7854901504 5.190929552249612e6 0.0
5.190929552249612e6 737395.6712291883 0.0
0.0 0.0 0.0

-1.2513717614487547e6 3.2222169551243456e6 0.0
3.2222169551243456e6 -222025.53046519138 0.0
0.0 0.0 0.0

-538277.2354620593 7.6268196254745135e6 0.0
7.6268196254745135e6 -477536.13820946944 0.0
0.0 0.0 0.0

-5.300958407097327e6 -2.183063752730745e6 0.0
-2.183063752730745e6 9.534215923044294e6 0.0
0.0 0.0 0.0

-308178.44308723975 7.715850568768715e6 0.0
7.715850568768715e6 -736047.0075939812 0.0
0.0 0.0 0.0

-3.4786421362318834e6 3.877331893722328e6 0.0
3.877331893722328e6 1.0822318440143734e6 0.0
0.0 0.0 0.0

-412699.51777707355 4.117460256205675e6 0.0
4.117460256205675e6 -2.0444908471731478e6 0.0
0.0 0.0 0.0

-1.6049435114463351e6 5.097437965957068e6 0.0
5.097437965957068e6 723271.0468359302 0.0
0.0 0.0 0.0

-739062.4437914602 2.4705832478868957e6 0.0
2.4705832478868957e6 933695.8185306294 0.0
0.0 0.0 0.0

-2.1620318584046783e6 6.468204651172419e6 0.0
6.468204651172419e6 804772.6575718047 0.0
0.0 0.0 0.0

482700.89057518356 2.139082544812592e6 0.0
2.139082544812592e6 -1.4879196936487262e6 0.0
0.0 0.0 0.0

-5.590201563364326e6 6.070997702244252e6 0.0
6.070997702244252e6 2.246404452802728e6 0.0
0.0 0.0 0.0

-396865.5361903141 5.631656411026281e6 0.0
5.631656411026281e6 -1.292319367441639e6 0.0
0.0 0.0 0.0

-2.33053828013316e6 3.8720553226942923e6 0.0
3.8720553226942923e6 823437.9445816224 0.0
0.0 0.0 0.0

471675.0124459269 5.534010812093405e6 0.0
5.534010812093405e6 -1.9655751272460823e6 0.0
0.0 0.0 0.0

-2.0286062738282937e6 5.185675744261877e6 0.0
5.185675744261877e6 1.248472267785471e6 0.0
0.0 0.0 0.0

-2.726278598278524e6 4.349282736697231e6 0.0
4.349282736697231e6 3.0994056403751113e6 0.0
0.0 0.0 0.0

-3.2471490112390947e6 3.8427839035389307e6 0.0
3.8427839035389307e6 1.190974377722802e6 0.0
0.0 0.0 0.0

-695152.4623893837 5.701802692010666e6 0.0
5.701802692010666e6 142613.9954679682 0.0
0.0 0.0 0.0

306619.99938848685 1.6206966994592617e6 0.0
1.6206966994592617e6 -951657.4006826594 0.0
0.0 0.0 0.0

-1.3415891659092878e6 4.1527022933099e6 0.0
4.1527022933099e6 3.0450265339843975e6 0.0
0.0 0.0 0.0

-1.6695002792120008e6 5.170195877595598e6 0.0
5.170195877595598e6 142187.03746797098 0.0
0.0 0.0 0.0

-390776.9865245359 7.772672798035673e6 0.0
7.772672798035673e6 -689168.8894825851 0.0
0.0 0.0 0.0

-770713.6340628683 7.33500120063365e6 0.0
7.33500120063365e6 -669832.4345582891 0.0
0.0 0.0 0.0

-1.8696211065907478e6 7.622739370750719e6 0.0
7.622739370750719e6 396489.0177862294 0.0
0.0 0.0 0.0

-180153.65700739418 3.7140929727169173e6 0.0
3.7140929727169173e6 -1.5979006388701291e6 0.0
0.0 0.0 0.0

-1.946555413090122e6 4.854351815317012e6 0.0
4.854351815317012e6 606276.5342176431 0.0
0.0 0.0 0.0

-3.526631158669326e6 7.055171349397513e6 0.0
7.055171349397513e6 984636.2266701083 0.0
0.0 0.0 0.0

-782035.2967008639 4.03234397347343e6 0.0
4.03234397347343e6 -2.0291957947116878e6 0.0
0.0 0.0 0.0

-453786.0054486217 3.003512356364019e6 0.0
3.003512356364019e6 -601408.007865171 0.0
0.0 0.0 0.0

-692455.1114098415 4.1391033701651944e6 0.0
4.1391033701651944e6 -595545.3505793355 0.0
0.0 0.0 0.0

-2.725774922122957e6 6.9949629542577e6 0.0
6.9949629542577e6 458543.49154288345 0.0
0.0 0.0 0.0

-731760.8714230204 5.087791240551076e6 0.0
5.087791240551076e6 -1.244502258861948e6 0.0
0.0 0.0 0.0

484452.3154585059 5.2257792710645385e6 0.0
5.2257792710645385e6 -2.3044347713996e6 0.0
0.0 0.0 0.0

-2.642400401980203e6 -5.064028971324141e6 0.0
-5.064028971324141e6 7.068665012180418e6 0.0
0.0 0.0 0.0

-487392.71604516095 5.464169429381903e6 0.0
5.464169429381903e6 -1.862374274442081e6 0.0
0.0 0.0 0.0

-1.081898586245604e6 4.0666531509279013e6 0.0
4.0666531509279013e6 526565.0732140228 0.0
0.0 0.0 0.0

-1.0402039426203205e6 3.1577364273245293e6 0.0
3.1577364273245293e6 294188.66721338325 0.0
0.0 0.0 0.0

-487481.5481782905 7.871213274507052e6 0.0
7.871213274507052e6 -874735.8692815329 0.0
0.0 0.0 0.0

481610.76306711 6.082634772054934e6 0.0
6.082634772054934e6 -1.5033065905976396e6 0.0
0.0 0.0 0.0

-639037.7063402901 6.601877513473736e6 0.0
6.601877513473736e6 -1.0122019779967323e6 0.0
0.0 0.0 0.0

-1.5282780336727558e6 3.9647741224998697e6 0.0
3.9647741224998697e6 2.0541270980552393e6 0.0
0.0 0.0 0.0

-4.729911730051142e6 9.885140259173041e6 0.0
9.885140259173041e6 997039.0350357788 0.0
0.0 0.0 0.0

-730878.5039741414 7.168417857122739e6 0.0
7.168417857122739e6 -706137.5770487098 0.0
0.0 0.0 0.0

-3.7805914009947446e6 4.553065860952265e6 0.0
4.553065860952265e6 5.369626044348836e6 0.0
0.0 0.0 0.0

565418.4437382618 5.713081423800391e6 0.0
5.713081423800391e6 -2.507246826740215e6 0.0
0.0 0.0 0.0

-3.4970590727062337e6 5.455582723079688e6 0.0
5.455582723079688e6 1.307679245957396e6 0.0
0.0 0.0 0.0

-326437.428971217 6.238425037649605e6 0.0
6.238425037649605e6 -1.0905778116839987e6 0.0
0.0 0.0 0.0

-9.167464571733963e6 -3.7213828023080807e6 0.0
-3.7213828023080807e6 7.7023426280607935e6 0.0
0.0 0.0 0.0

-1.9550994082111586e6 4.9786944046697e6 0.0
4.9786944046697e6 362650.80800075294 0.0
0.0 0.0 0.0

-288348.6738769924 2.9380644543334357e6 0.0
2.9380644543334357e6 -497987.4745121574 0.0
0.0 0.0 0.0

-510256.83372125507 5.371008085326654e6 0.0
5.371008085326654e6 -1.5842410219154945e6 0.0
0.0 0.0 0.0

-751976.9006031813 5.557609897644758e6 0.0
5.557609897644758e6 -320264.206818369 0.0
0.0 0.0 0.0

-492784.86504125316 3.561522302826576e6 0.0
3.561522302826576e6 -1.7419836780419075e6 0.0
0.0 0.0 0.0

478796.2301407815 4.715395938771448e6 0.0
4.715395938771448e6 -2.2214534692477915e6 0.0
0.0 0.0 0.0

1.4884069366716517e6 5.862158482225164e6 0.0
5.862158482225164e6 1.09901706340616e6 0.0
0.0 0.0 0.0

-3.0584724834765717e7 8.240837267419461e6 0.0
8.240837267419461e6 8.773951044986825e6 0.0
0.0 0.0 0.0

-1.457518240392857e6 4.157148154332673e6 0.0
4.157148154332673e6 2.604726258562114e6 0.0
0.0 0.0 0.0

-1.221026103125408e6 6.08850191235107e6 0.0
6.08850191235107e6 -444332.13764402346 0.0
0.0 0.0 0.0

-1.6433409529794222e6 5.059218899971637e6 0.0
5.059218899971637e6 381250.4445422812 0.0
0.0 0.0 0.0

472415.1834374224 5.190221601493434e6 0.0
5.190221601493434e6 -2.0415774904505985e6 0.0
0.0 0.0 0.0

-1.6252860100826845e6 5.162446640629466e6 0.0
5.162446640629466e6 183433.54605755117 0.0
0.0 0.0 0.0

-3.763176784923073e6 5.638280785736859e6 0.0
5.638280785736859e6 1.5333357308429223e6 0.0
0.0 0.0 0.0

-508102.3866076453 3.665471430660499e6 0.0
3.665471430660499e6 -1.726987724414819e6 0.0
0.0 0.0 0.0

-2.4263728144004834e6 3.9319565056186533e6 0.0
3.9319565056186533e6 531010.1956196474 0.0
0.0 0.0 0.0

323053.0840559937 1.9922230932824686e6 0.0
1.9922230932824686e6 -1.32490043535545e6 0.0
0.0 0.0 0.0

-1.7595150006880467e6 3.8427620189160607e6 0.0
3.8427620189160607e6 2.411750096979703e6 0.0
0.0 0.0 0.0

-1.9813894943894316e6 5.77295674946315e6 0.0
5.77295674946315e6 131871.14902303577 0.0
0.0 0.0 0.0

-892413.9174671142 6.8923860559905395e6 0.0
6.8923860559905395e6 -836601.3229560656 0.0
0.0 0.0 0.0

-2.7488224596672817e6 3.371080535844896e6 0.0
3.371080535844896e6 997479.7672410413 0.0
0.0 0.0 0.0

-464244.89547496825 5.726804891894831e6 0.0
5.726804891894831e6 -1.8298243196757326e6 0.0
0.0 0.0 0.0

-1.0939324644436394e6 -1.3110439749891486e6 0.0
-1.3110439749891486e6 1.8160914778436823e6 0.0
0.0 0.0 0.0

-832013.9717871282 6.353083962059184e6 0.0
6.353083962059184e6 -1.1135186371601524e6 0.0
0.0 0.0 0.0

-590803.1914842458 6.391487181178488e6 0.0
6.391487181178488e6 -1.0564650037638498e6 0.0
0.0 0.0 0.0

-693435.0967088683 4.579645970236342e6 0.0
4.579645970236342e6 -2.2156918892143317e6 0.0
0.0 0.0 0.0

266678.7134909405 5.951876365315669e6 0.0
5.951876365315669e6 -1.3258597149983665e6 0.0
0.0 0.0 0.0

-728110.2315276787 6.133974456846933e6 0.0
6.133974456846933e6 -1.1095397085162548e6 0.0
0.0 0.0 0.0

-1.9379307618404215e6 4.895536397747319e6 0.0
4.895536397747319e6 449579.9614521442 0.0
0.0 0.0 0.0

-3.125754846819752e6 4.430475648370495e6 0.0
4.430475648370495e6 1.1898806242026172e6 0.0
0.0 0.0 0.0

-2.0655606483558677e6 4.1544092876075483e6 0.0
4.1544092876075483e6 917441.8977097296 0.0
0.0 0.0 0.0

-55953.523230361345 4.994167142244817e6 0.0
4.994167142244817e6 -484982.5528199058 0.0
0.0 0.0 0.0

-1.31138977615857e7 -2.877198569544442e6 0.0
-2.877198569544442e6 9.459546725290485e6 0.0
0.0 0.0 0.0

2.3363639613495367e6 385252.0031646453 0.0
385252.0031646453 -2.933803709003036e6 0.0
0.0 0.0 0.0

-503855.15980491025 3.938016273943488e6 0.0
3.938016273943488e6 -1.5517040864541703e6 0.0
0.0 0.0 0.0

356905.3056145265 7.6118465454615e6 0.0
7.6118465454615e6 -1.5806053360765136e6 0.0
0.0 0.0 0.0

-4.1665131951954896e6 4.1456002160610175e6 0.0
4.1456002160610175e6 1.5148339007977487e6 0.0
0.0 0.0 0.0

-734061.5619380933 3.3888651830766844e6 0.0
3.3888651830766844e6 -1.993145457386688e6 0.0
0.0 0.0 0.0

-1.8330129329738386e6 5.608263626305972e6 0.0
5.608263626305972e6 454586.16622851824 0.0
0.0 0.0 0.0

-665162.1292726973 7.465958441960606e6 0.0
7.465958441960606e6 -569090.345638908 0.0
0.0 0.0 0.0

-530845.2793571911 6.86508910466263e6 0.0
6.86508910466263e6 -1.281281395043619e6 0.0
0.0 0.0 0.0

-723440.987225319 7.413480931223524e6 0.0
7.413480931223524e6 -684599.3219883121 0.0
0.0 0.0 0.0

-276774.8933754662 5.5977636158878505e6 0.0
5.5977636158878505e6 -570136.8641544755 0.0
0.0 0.0 0.0

-3.019107281458429e6 4.393631978735274e6 0.0
4.393631978735274e6 1.2406392220832903e6 0.0
0.0 0.0 0.0

-265063.44073652226 6.073647065328771e6 0.0
6.073647065328771e6 -1.690941679945675e6 0.0
0.0 0.0 0.0

512815.9491062743 5.600981212604465e6 0.0
5.600981212604465e6 -2.0895774763728408e6 0.0
0.0 0.0 0.0

-1.5098257776109641e6 -274506.0397454243 0.0
-274506.0397454243 602585.0023361219 0.0
0.0 0.0 0.0

-1.6699271165950452e6 82029.21255690946 0.0
82029.21255690946 1.0518873264978055e6 0.0
0.0 0.0 0.0

-1.9641578821231376e6 3.9238230073730936e6 0.0
3.9238230073730936e6 2.0746327743525244e6 0.0
0.0 0.0 0.0

-345927.75347501924 5.859486877843883e6 0.0
5.859486877843883e6 -620003.1722884218 0.0
0.0 0.0 0.0

-543282.9775670886 5.526011608160134e6 0.0
5.526011608160134e6 -562515.4910211689 0.0
0.0 0.0 0.0

2.6108085992886587e6 2.550838321327272e6 0.0
2.550838321327272e6 -2.8349196697838567e6 0.0
0.0 0.0 0.0

-588599.8632977834 7.115370691366987e6 0.0
7.115370691366987e6 -796794.7085989219 0.0
0.0 0.0 0.0

813169.3417022922 2.537295247399551e6 0.0
2.537295247399551e6 -521852.44911963725 0.0
0.0 0.0 0.0

-701569.1926548795 7.359677803723171e6 0.0
7.359677803723171e6 -631277.2695977574 0.0
0.0 0.0 0.0

-1.292626880586951e6 2.5686271275566337e6 0.0
2.5686271275566337e6 1.9882142461469048e6 0.0
0.0 0.0 0.0

-2.137720684319135e6 5.1139930489976825e6 0.0
5.1139930489976825e6 652337.8396500801 0.0
0.0 0.0 0.0

-2.6366522930402923e6 6.647276400761686e6 0.0
6.647276400761686e6 1.1379567757717408e6 0.0
0.0 0.0 0.0

107101.24558397487 6.104289143560221e6 0.0
6.104289143560221e6 -1.5577258223804915e6 0.0
0.0 0.0 0.0

190853.36227530974 5.792868459743845e6 0.0
5.792868459743845e6 -1.7629015456967384e6 0.0
0.0 0.0 0.0

578213.6278304466 7.9095413345151115e6 0.0
7.9095413345151115e6 -1.790408447785031e6 0.0
0.0 0.0 0.0

-594939.0524397428 5.554650737431817e6 0.0
5.554650737431817e6 -324949.8623176048 0.0
0.0 0.0 0.0

-909615.9841109869 6.528776602005629e6 0.0
6.528776602005629e6 -1.0379413556405352e6 0.0
0.0 0.0 0.0

10674.090618434566 419006.78432595584 0.0
419006.78432595584 813422.0530826026 0.0
0.0 0.0 0.0

-3.9618752699816315e6 4.175868392752764e6 0.0
4.175868392752764e6 1.434614541653182e6 0.0
0.0 0.0 0.0

-1.0350553661555883e6 3.00508735491974e6 0.0
3.00508735491974e6 603078.569359004 0.0
0.0 0.0 0.0

703472.3858217304 443877.1813306213 0.0
443877.1813306213 -1.0882735540080548e6 0.0
0.0 0.0 0.0

-909992.9180968208 3.4874368505726107e6 0.0
3.4874368505726107e6 -589513.8274959802 0.0
0.0 0.0 0.0

562246.4514225964 5.642787325935733e6 0.0
5.642787325935733e6 -2.162714526368336e6 0.0
0.0 0.0 0.0

-2.741592444925444e6 4.395921127600697e6 0.0
4.395921127600697e6 656496.1546861544 0.0
0.0 0.0 0.0

-2.0976282223663563e6 3.9073950529734995e6 0.0
3.9073950529734995e6 605437.9756582053 0.0
0.0 0.0 0.0

-411306.23357168754 5.582719674985348e6 0.0
5.582719674985348e6 -1.9407868948667157e6 0.0
0.0 0.0 0.0

1.2218233145709308e6 6.741977515699006e6 0.0
6.741977515699006e6 -1.3408905610010913e6 0.0
0.0 0.0 0.0

-2.4929868644979745e6 4.697210127953453e6 0.0
4.697210127953453e6 603374.3214613004 0.0
0.0 0.0 0.0

-312757.8199347346 379996.353346453 0.0
379996.353346453 498391.0701456692 0.0
0.0 0.0 0.0

570974.2447746249 253645.50615354266 0.0
253645.50615354266 -1.0921936657699898e6 0.0
0.0 0.0 0.0

-328911.34793756565 6.538294226597155e6 0.0
6.538294226597155e6 -1.072037277603714e6 0.0
0.0 0.0 0.0

-929181.032774609 5.999480286015057e6 0.0
5.999480286015057e6 -303590.13157694985 0.0
0.0 0.0 0.0

-923715.499429267 6.190604639637438e6 0.0
6.190604639637438e6 -286150.26630023646 0.0
0.0 0.0 0.0

-3.1868499790383065e6 -771767.3799700363 0.0
-771767.3799700363 5.718538974466105e6 0.0
0.0 0.0 0.0

832288.0227149045 2.6750185831486345e6 0.0
2.6750185831486345e6 -1.2763998724001623e6 0.0
0.0 0.0 0.0

-1.7575528975278519e6 5.794189668348139e6 0.0
5.794189668348139e6 -28926.4623868044 0.0
0.0 0.0 0.0

-2.8204479093314502e6 6.837267566934472e6 0.0
6.837267566934472e6 835361.9928622871 0.0
0.0 0.0 0.0

-1.4318350010041738e7 2.1264777316100528e6 0.0
2.1264777316100528e6 7.632617952505946e6 0.0
0.0 0.0 0.0

-3.938190195882297e6 5.157836438929329e6 0.0
5.157836438929329e6 1.731386591869377e6 0.0
0.0 0.0 0.0

-300644.7097946674 5.8374695681477925e6 0.0
5.8374695681477925e6 -527894.2752751115 0.0
0.0 0.0 0.0

-267645.19420454174 55327.07576628432 0.0
55327.07576628432 465590.5539305629 0.0
0.0 0.0 0.0

364004.8791287901 7.637264278818264e6 0.0
7.637264278818264e6 -1.6233061239311176e6 0.0
0.0 0.0 0.0

-803496.3535795056 4.751481781233985e6 0.0
4.751481781233985e6 -681323.311744802 0.0
0.0 0.0 0.0

118357.28184354477 296962.7932554346 0.0
296962.7932554346 -232747.40994390982 0.0
0.0 0.0 0.0

-2.149628284999457e6 4.243982491414409e6 0.0
4.243982491414409e6 681786.9131297694 0.0
0.0 0.0 0.0

-2.2187846232430935e6 4.519151881384643e6 0.0
4.519151881384643e6 664667.312967478 0.0
0.0 0.0 0.0

117456.24488420552 1.6035403982091148e6 0.0
1.6035403982091148e6 -856080.8794582038 0.0
0.0 0.0 0.0

301696.8405023033 5.619889365516839e6 0.0
5.619889365516839e6 -1.958777420540821e6 0.0
0.0 0.0 0.0

-120863.60312920786 3.4764646224536616e6 0.0
3.4764646224536616e6 -2.0190282704161408e6 0.0
0.0 0.0 0.0

-1.6514988364748377e6 3.603712656018909e6 0.0
3.603712656018909e6 1.7793663751935633e6 0.0
0.0 0.0 0.0

623787.7050344178 2.9408645374293467e6 0.0
2.9408645374293467e6 -916699.5229313495 0.0
0.0 0.0 0.0

-599265.3074690698 1.0301511743757365e7 0.0
1.0301511743757365e7 -399914.13954411127 0.0
0.0 0.0 0.0

481613.82053791895 5.4602829924993925e6 0.0
5.4602829924993925e6 -1.674842297993965e6 0.0
0.0 0.0 0.0

819197.3057854734 6.574711769432765e6 0.0
6.574711769432765e6 -2.3507178227338623e6 0.0
0.0 0.0 0.0

321154.16946080036 5.407182172744912e6 0.0
5.407182172744912e6 -1.7359734112800471e6 0.0
0.0 0.0 0.0

-449927.0750247892 5.618094834884139e6 0.0
5.618094834884139e6 -560638.9914518733 0.0
0.0 0.0 0.0

-370152.16186432785 5.699419858830663e6 0.0
5.699419858830663e6 -616705.4680585444 0.0
0.0 0.0 0.0

-585278.3084683833 5.42368087757591e6 0.0
5.42368087757591e6 -1.7083936001982107e6 0.0
0.0 0.0 0.0

-1.7677555937670742e6 1.020825677963378e7 0.0
1.020825677963378e7 -609222.0454651575 0.0
0.0 0.0 0.0

209165.50705062447 125490.00759170223 0.0
125490.00759170223 -275398.624139123 0.0
0.0 0.0 0.0

-2.1246639065535483e6 4.532629209997506e6 0.0
4.532629209997506e6 854030.167248755 0.0
0.0 0.0 0.0

-3.674924038150214e6 4.1501735137856114e6 0.0
4.1501735137856114e6 1.3530157602642353e6 0.0
0.0 0.0 0.0

-2.431036557189199e6 4.833286248230975e6 0.0
4.833286248230975e6 843547.3741124946 0.0
0.0 0.0 0.0

692026.3513824395 349985.96587182995 0.0
349985.96587182995 -819489.5113954495 0.0
0.0 0.0 0.0

588027.7807984683 849947.0073883884 0.0
849947.0073883884 -1.3481611414572257e6 0.0
0.0 0.0 0.0

-378306.59912182373 5.790531793538467e6 0.0
5.790531793538467e6 -383885.40096245176 0.0
0.0 0.0 0.0

766153.8010612308 572785.4412256466 0.0
572785.4412256466 -1.407217998583539e6 0.0
0.0 0.0 0.0

-627985.6424749412 7.7634731204566145e6 0.0
7.7634731204566145e6 -734315.394855571 0.0
0.0 0.0 0.0

-818798.5744008044 6.81687716075654e6 0.0
6.81687716075654e6 -541052.3336664094 0.0
0.0 0.0 0.0

-696787.2715185161 5.982702449722767e6 0.0
5.982702449722767e6 -1.215157515567015e6 0.0
0.0 0.0 0.0

-2.476742390820308e6 3.208692646278077e6 0.0
3.208692646278077e6 968858.5308261041 0.0
0.0 0.0 0.0

-2.1218930869681793e6 4.0667231076693144e6 0.0
4.0667231076693144e6 713589.2569239698 0.0
0.0 0.0 0.0

-851091.0126642042 3.0578417658558902e6 0.0
3.0578417658558902e6 428991.4180393936 0.0
0.0 0.0 0.0

-4.980837109541042e6 2.952380100641142e6 0.0
2.952380100641142e6 1.7069030410381856e6 0.0
0.0 0.0 0.0

818504.8181581567 2.9434664504642338e6 0.0
2.9434664504642338e6 -1.7094967374006747e6 0.0
0.0 0.0 0.0

-839366.0043619884 6.73140517422764e6 0.0
6.73140517422764e6 -975398.3691270615 0.0
0.0 0.0 0.0

405152.6891513211 4.019043732702593e6 0.0
4.019043732702593e6 -1.9701243768900505e6 0.0
0.0 0.0 0.0

-789458.8333763831 7.4274605217505125e6 0.0
7.4274605217505125e6 -628373.3208326206 0.0
0.0 0.0 0.0

-1.3624168248602673e6 3.1707906117982403e6 0.0
3.1707906117982403e6 -327482.43723064684 0.0
0.0 0.0 0.0

-379644.42554235156 4.512492130582974e6 0.0
4.512492130582974e6 -1.9360825676151952e6 0.0
0.0 0.0 0.0

449190.95248267043 4.906372128303199e6 0.0
4.906372128303199e6 2.112416732293363e6 0.0
0.0 0.0 0.0

358979.92553692387 1.7583912120299097e6 0.0
1.7583912120299097e6 -499880.8609301199 0.0
0.0 0.0 0.0

-2.283447734836069e6 4.1496669933499116e6 0.0
4.1496669933499116e6 2.9874222884612386e6 0.0
0.0 0.0 0.0

-3.577871463922334e6 5.073170984113809e6 0.0
5.073170984113809e6 2.154940905012279e6 0.0
0.0 0.0 0.0

-1.3901825282780344e6 2.8252232480357876e6 0.0
2.8252232480357876e6 -644033.0056470265 0.0
0.0 0.0 0.0

-4.1845986975736637e6 7.105089891143179e6 0.0
7.105089891143179e6 1.29679817119603e6 0.0
0.0 0.0 0.0

-1.857933461134536e6 4.600648910096116e6 0.0
4.600648910096116e6 30270.761355473078 0.0
0.0 0.0 0.0

-1.4386982500845136e6 3.4084704769278322e6 0.0
3.4084704769278322e6 616908.4352667667 0.0
0.0 0.0 0.0

69689.67208496493 4.479750194649162e6 0.0
4.479750194649162e6 -1.8223164389303743e6 0.0
0.0 0.0 0.0

451777.9764902053 1.4676385155567888e6 0.0
1.4676385155567888e6 -865071.1677573039 0.0
0.0 0.0 0.0

-1.3011181565913304e6 5.50587449309731e6 0.0
5.50587449309731e6 453093.02224569547 0.0
0.0 0.0 0.0

321648.45567939 4.203156529414896e6 0.0
4.203156529414896e6 338039.7304950563 0.0
0.0 0.0 0.0

-4.751128733770127e6 1.4123148243340428e6 0.0
1.4123148243340428e6 4.613632695446469e6 0.0
0.0 0.0 0.0

-1.7036634696418794e6 4.9178888561882535e6 0.0
4.9178888561882535e6 570413.3939160098 0.0
0.0 0.0 0.0

-2.665944338167659e6 4.1105729005467915e6 0.0
4.1105729005467915e6 914801.609126777 0.0
0.0 0.0 0.0

-6.265494169109704e6 2.770626844947973e6 0.0
2.770626844947973e6 1.5328248010677341e6 0.0
0.0 0.0 0.0

-170001.1817806106 784594.6758888449 0.0
784594.6758888449 -1.037365077832414e6 0.0
0.0 0.0 0.0

-2.56318255568155e6 4.0438513581184e6 0.0
4.0438513581184e6 830329.0594128172 0.0
0.0 0.0 0.0

-1.8006497531543723e6 4.196799635884665e6 0.0
4.196799635884665e6 59709.98482461297 0.0
0.0 0.0 0.0

-1.488270580309807e6 3.8629638482054556e6 0.0
3.8629638482054556e6 2.752498262845984e6 0.0
0.0 0.0 0.0

-2.3755534386193026e6 4.812899579955637e6 0.0
4.812899579955637e6 383841.2888674197 0.0
0.0 0.0 0.0

786532.4684254391 2.641937670926823e6 0.0
2.641937670926823e6 -1.8906354952308699e6 0.0
0.0 0.0 0.0

-875753.4977287112 6.869583055074899e6 0.0
6.869583055074899e6 -796515.9585885846 0.0
0.0 0.0 0.0

293263.6084623277 1.0519766289185383e6 0.0
1.0519766289185383e6 -329815.22477450396 0.0
0.0 0.0 0.0

396642.7950037003 5.821834414078502e6 0.0
5.821834414078502e6 -1.4023705808738207e6 0.0
0.0 0.0 0.0

368332.3686426332 4.188022268607277e6 0.0
4.188022268607277e6 -2.0489656012556658e6 0.0
0.0 0.0 0.0

-1.3840788664858793e6 4.405130036442747e6 0.0
4.405130036442747e6 1.1438325581120723e6 0.0
0.0 0.0 0.0

-713877.1556789456 6.122554117235151e6 0.0
6.122554117235151e6 -1.0646001114969053e6 0.0
0.0 0.0 0.0

-1.4710168715449465e6 3.405920625801582e6 0.0
3.405920625801582e6 506715.1620818232 0.0
0.0 0.0 0.0

822449.8929148252 6.293302087656844e6 0.0
6.293302087656844e6 -2.4907384822053206e6 0.0
0.0 0.0 0.0

-617186.0066998453 6.066617649875731e6 0.0
6.066617649875731e6 -1.294781296813557e6 0.0
0.0 0.0 0.0

-761696.9253171734 5.814099456376702e6 0.0
5.814099456376702e6 -1.2976296948280672e6 0.0
0.0 0.0 0.0

-1.6583900835593154e6 3.478278959055209e6 0.0
3.478278959055209e6 705453.3749815713 0.0
0.0 0.0 0.0

-2.612749030679593e6 691043.020701614 0.0
691043.020701614 2.294420838273325e6 0.0
0.0 0.0 0.0

295694.7274748379 480130.14581995393 0.0
480130.14581995393 -599196.9972869668 0.0
0.0 0.0 0.0

-817716.8404252648 6.089176668451557e6 0.0
6.089176668451557e6 -1.1153944191517457e6 0.0
0.0 0.0 0.0

-1.0931834277076581e6 3.1033277569845733e6 0.0
3.1033277569845733e6 -302729.84786263853 0.0
0.0 0.0 0.0

-1.9625103050805547e6 3.812362464071617e6 0.0
3.812362464071617e6 3.7686671990786423e6 0.0
0.0 0.0 0.0

-1.045234189946187e6 6.528424204261296e6 0.0
6.528424204261296e6 -561961.9616114348 0.0
0.0 0.0 0.0

214353.196843407 2.0418674731641663e6 0.0
2.0418674731641663e6 -2.119798032800256e6 0.0
0.0 0.0 0.0

10916.317940278444 533491.8144375767 0.0
533491.8144375767 460433.3641701501 0.0
0.0 0.0 0.0

-3.2101029394963654e6 3.849793558730626e6 0.0
3.849793558730626e6 1.1683265878133583e6 0.0
0.0 0.0 0.0

-2.8259199835112765e6 4.4442991014244e6 0.0
4.4442991014244e6 588321.0627188741 0.0
0.0 0.0 0.0

183269.63131481363 1.931150432137788e6 0.0
1.931150432137788e6 -867001.5868187612 0.0
0.0 0.0 0.0

62191.64867630208 1.1648329446161375e6 0.0
1.1648329446161375e6 660038.2955782448 0.0
0.0 0.0 0.0

-435387.2611099066 5.472652999455045e6 0.0
5.472652999455045e6 -1.8651863498091747e6 0.0
0.0 0.0 0.0

-1.7283206998279202e6 3.5230516904183393e6 0.0
3.5230516904183393e6 1.0125942677822554e6 0.0
0.0 0.0 0.0

-276731.45464283007 665574.4712899029 0.0
665574.4712899029 1.283053460443166e6 0.0
0.0 0.0 0.0

-1.7580415315087162e7 -2.187750078611184e6 0.0
-2.187750078611184e6 1.0017247290721236e7 0.0
0.0 0.0 0.0

-294614.7284204422 6.971564893487303e6 0.0
6.971564893487303e6 -1.459010554370505e6 0.0
0.0 0.0 0.0

-206956.26532044206 5.841886022453342e6 0.0
5.841886022453342e6 -507004.7503301032 0.0
0.0 0.0 0.0

579154.258480746 5.798826880155177e6 0.0
5.798826880155177e6 -2.4918222359313057e6 0.0
0.0 0.0 0.0

-4.797150111420535e6 3.6450591044010394e6 0.0
3.6450591044010394e6 5.784517409305402e6 0.0
0.0 0.0 0.0

-566985.8832450181 651082.7265395778 0.0
651082.7265395778 313844.00907471776 0.0
0.0 0.0 0.0

391591.6705830947 1.593013764212046e6 0.0
1.593013764212046e6 -992061.3703598415 0.0
0.0 0.0 0.0

-1.4468402203259794e6 4.395862923256375e6 0.0
4.395862923256375e6 84290.72045487846 0.0
0.0 0.0 0.0

-2.8878919826488337e6 3.5207017636415004e6 0.0
3.5207017636415004e6 1.068855536041671e6 0.0
0.0 0.0 0.0

-1.9930882284507097e6 3.8231294732659967e6 0.0
3.8231294732659967e6 793521.128111855 0.0
0.0 0.0 0.0

-2.661651020395833e6 4.435962585032231e6 0.0
4.435962585032231e6 563804.0742096748 0.0
0.0 0.0 0.0

-2.266795829126942e6 3.0941301922132066e6 0.0
3.0941301922132066e6 783055.0200191906 0.0
0.0 0.0 0.0

-205880.48447570606 -908623.8447712326 0.0
-908623.8447712326 843967.627534264 0.0
0.0 0.0 0.0

-194641.88864887794 6.023731524977778e6 0.0
6.023731524977778e6 -506027.35123922303 0.0
0.0 0.0 0.0

-758680.6247786788 6.406177831912407e6 0.0
6.406177831912407e6 -1.0306940203176242e6 0.0
0.0 0.0 0.0

-5.42135336410949e6 3.047217412374841e6 0.0
3.047217412374841e6 5.160150530151701e6 0.0
0.0 0.0 0.0

278082.8760991348 991384.8419155459 0.0
991384.8419155459 -1.4689071919324861e6 0.0
0.0 0.0 0.0

-3.6401688339206027e6 3.962833541413692e6 0.0
3.962833541413692e6 1.2410569262631892e6 0.0
0.0 0.0 0.0

-391620.29336686886 5.829439949752801e6 0.0
5.829439949752801e6 -389202.29799631244 0.0
0.0 0.0 0.0

-1.418249337241288e6 2.608493558251324e6 0.0
2.608493558251324e6 1.9313215850588991e6 0.0
0.0 0.0 0.0

-350762.2452908375 5.870215871500063e6 0.0
5.870215871500063e6 -1.8198727262079173e6 0.0
0.0 0.0 0.0

-1.1078314922632067e6 3.19500934264392e6 0.0
3.19500934264392e6 753811.0823227415 0.0
0.0 0.0 0.0

1.406379420702423e6 1.4875839422040554e6 0.0
1.4875839422040554e6 -1.45287766895477e6 0.0
0.0 0.0 0.0

337478.9312822657 6.123802476352101e6 0.0
6.123802476352101e6 -1.498886665635293e6 0.0
0.0 0.0 0.0

-1.906639378847844e6 5.621904225485294e6 0.0
5.621904225485294e6 1.0588000334885782e6 0.0
0.0 0.0 0.0

-2.3953508861041316e6 3.2402511571039353e6 0.0
3.2402511571039353e6 870731.7409649672 0.0
0.0 0.0 0.0

-2.8719086726040947e6 3.5109067317750715e6 0.0
3.5109067317750715e6 1.1277203921592936e6 0.0
0.0 0.0 0.0

-695648.8448633478 7.408568527823441e6 0.0
7.408568527823441e6 -699873.7804737506 0.0
0.0 0.0 0.0

457439.1967270499 5.538874111942794e6 0.0
5.538874111942794e6 -1.5282212854028302e6 0.0
0.0 0.0 0.0

1.3218399668549774e6 1.4960500663793136e6 0.0
1.4960500663793136e6 -2.4044369422093723e6 0.0
0.0 0.0 0.0

137225.53486625268 5.994719656037438e6 0.0
5.994719656037438e6 -1.7528907026963844e6 0.0
0.0 0.0 0.0

-117989.76579196408 1.535065364063612e6 0.0
1.535065364063612e6 -985118.2383899166 0.0
0.0 0.0 0.0

-1.1653826831728602e6 3.9774225457109916e6 0.0
3.9774225457109916e6 2.8984762993905214e6 0.0
0.0 0.0 0.0

-4.374572387469725e6 3.9210235541084623e6 0.0
3.9210235541084623e6 1.4484649117549974e6 0.0
0.0 0.0 0.0

-163345.25125472958 303730.4196757065 0.0
303730.4196757065 224865.68681515375 0.0
0.0 0.0 0.0

-134880.5560320476 3.446675993150418e6 0.0
3.446675993150418e6 -2.087660587433003e6 0.0
0.0 0.0 0.0

-734549.3543923146 7.369669148343823e6 0.0
7.369669148343823e6 -536908.8771594255 0.0
0.0 0.0 0.0

-1.5579214992156597e6 5.0323102083236715e6 0.0
5.0323102083236715e6 1.1020482213426186e6 0.0
0.0 0.0 0.0

163770.13030508684 5.637415132539014e6 0.0
5.637415132539014e6 -1.8689302307112296e6 0.0
0.0 0.0 0.0

-4.092518265815733e6 3.6469989681943012e6 0.0
3.6469989681943012e6 1.148566916574807e6 0.0
0.0 0.0 0.0

-2.172138741497729e6 4.225735356711278e6 0.0
4.225735356711278e6 2.894857962263159e6 0.0
0.0 0.0 0.0

-6.575723904794319e6 2.5927316816687076e6 0.0
2.5927316816687076e6 758735.6174518652 0.0
0.0 0.0 0.0

-770446.8328663328 5.552661691072024e6 0.0
5.552661691072024e6 -18974.265922727238 0.0
0.0 0.0 0.0

-403981.6280853405 5.894959437009602e6 0.0
5.894959437009602e6 -1.7684408793148347e6 0.0
0.0 0.0 0.0

4.236127834337576e6 6.36924368268063e6 0.0
6.36924368268063e6 1.295861729972609e6 0.0
0.0 0.0 0.0

-4.357145310313115e6 4.682789333442485e6 0.0
4.682789333442485e6 6.311454441450197e6 0.0
0.0 0.0 0.0

22185.464995444625 1.2880758413570963e6 0.0
1.2880758413570963e6 17836.466265626317 0.0
0.0 0.0 0.0

-362814.4431659969 5.730757045737928e6 0.0
5.730757045737928e6 -589077.7840270686 0.0
0.0 0.0 0.0

-509084.191159775 3.599253244148325e6 0.0
3.599253244148325e6 -1.6272639195987866e6 0.0
0.0 0.0 0.0

-283609.6839611956 7.873303592029208e6 0.0
7.873303592029208e6 -835616.5179901575 0.0
0.0 0.0 0.0

-2.0835784254854908e6 3.794082788964025e6 0.0
3.794082788964025e6 744695.8391270725 0.0
0.0 0.0 0.0

-182051.35576839256 450067.4569095791 0.0
450067.4569095791 -142442.6164069515 0.0
0.0 0.0 0.0

-4.479896642759097e6 3.593307987758746e6 0.0
3.593307987758746e6 1.3208530667792058e6 0.0
0.0 0.0 0.0

-1.6135067560023246e6 5.263591430727919e6 0.0
5.263591430727919e6 148583.5050989648 0.0
0.0 0.0 0.0

-2.8263498249315023e6 3.463044279148981e6 0.0
3.463044279148981e6 1.0401561367303162e6 0.0
0.0 0.0 0.0

-2.2920070881971815e6 6.195718445889908e6 0.0
6.195718445889908e6 864695.2975838396 0.0
0.0 0.0 0.0

-3.203505483284985e6 3.8269796301156185e6 0.0
3.8269796301156185e6 1.1523565074817073e6 0.0
0.0 0.0 0.0

-371516.2781793147 5.750527304781916e6 0.0
5.750527304781916e6 -505199.0499385517 0.0
0.0 0.0 0.0

-520505.23293373943 5.674155365755367e6 0.0
5.674155365755367e6 -336362.7515282776 0.0
0.0 0.0 0.0

-651433.4683906846 6.211131867863332e6 0.0
6.211131867863332e6 -1.0690461133126023e6 0.0
0.0 0.0 0.0

-687786.6338327652 3.9987305177179724e6 0.0
3.9987305177179724e6 -2.005267904698409e6 0.0
0.0 0.0 0.0

-602506.5258198124 5.537172825175782e6 0.0
5.537172825175782e6 -541057.0822991913 0.0
0.0 0.0 0.0

-2.3766993677140726e6 3.197275060830705e6 0.0
3.197275060830705e6 849218.7819976863 0.0
0.0 0.0 0.0

-4.1082431797681265e6 1.5801917098360497e6 0.0
1.5801917098360497e6 6.73850566766803e6 0.0
0.0 0.0 0.0

-930556.536305985 6.980363548267625e6 0.0
6.980363548267625e6 -734563.6261313123 0.0
0.0 0.0 0.0

-654963.7109780837 6.0162320860565165e6 0.0
6.0162320860565165e6 -1.364408122029992e6 0.0
0.0 0.0 0.0

472878.6766238855 5.418192538124389e6 0.0
5.418192538124389e6 -1.8358060590026064e6 0.0
0.0 0.0 0.0

-4.856106774209292e6 4.0181153580402704e6 0.0
4.0181153580402704e6 5.251085428116059e6 0.0
0.0 0.0 0.0

-749252.4198589443 5.544996186904857e6 0.0
5.544996186904857e6 -291910.60391379264 0.0
0.0 0.0 0.0

-1.3460901586493612e6 3.1529993626399064e6 0.0
3.1529993626399064e6 1.2345537747397637e6 0.0
0.0 0.0 0.0

-1.9665843436436018e6 3.7796215054114e6 0.0
3.7796215054114e6 724439.3242564962 0.0
0.0 0.0 0.0

-2.31146342875587e6 5.372531469346529e6 0.0
5.372531469346529e6 840507.742571383 0.0
0.0 0.0 0.0

-1.4165424782254267e6 3.167061429968317e6 0.0
3.167061429968317e6 931991.0689741012 0.0
0.0 0.0 0.0

-1.4278841928757182e6 2.7042536956688804e6 0.0
2.7042536956688804e6 1.5203563776052943e6 0.0
0.0 0.0 0.0

-952108.1683664344 2.977214915562237e6 0.0
2.977214915562237e6 197503.29903247574 0.0
0.0 0.0 0.0

396980.4564782442 370496.5424295402 0.0
370496.5424295402 -716203.0398732217 0.0
0.0 0.0 0.0

-2.2056754258597493e6 4.254128974714732e6 0.0
4.254128974714732e6 908940.5260584735 0.0
0.0 0.0 0.0

-514555.87278305815 3.474630889735774e6 0.0
3.474630889735774e6 -1.8603597167975265e6 0.0
0.0 0.0 0.0

-649257.5249788956 5.354845923045202e6 0.0
5.354845923045202e6 -1.6200679837354182e6 0.0
0.0 0.0 0.0

-1.0444354560436687e7 4.246544308307983e6 0.0
4.246544308307983e6 4.8703160945473835e6 0.0
0.0 0.0 0.0

-674376.4790010372 -89459.73008158607 0.0
-89459.73008158607 1.9431255596873593e6 0.0
0.0 0.0 0.0

-607310.7060770858 5.556275886431599e6 0.0
5.556275886431599e6 -1.597767541621623e6 0.0
0.0 0.0 0.0

-3.3896130966966823e6 4.506537297158829e6 0.0
4.506537297158829e6 1.2899192761847614e6 0.0
0.0 0.0 0.0

-178097.6702012285 6.012555448347566e6 0.0
6.012555448347566e6 -522781.61882534035 0.0
0.0 0.0 0.0

596848.5907306066 294498.9083029338 0.0
294498.9083029338 -868927.9177911289 0.0
0.0 0.0 0.0

-199186.1176251585 5.836872319630274e6 0.0
5.836872319630274e6 -333467.6878253023 0.0
0.0 0.0 0.0

-1.4114241695363696e6 3.97247928181081e6 0.0
3.97247928181081e6 -277384.2574709643 0.0
0.0 0.0 0.0

-65812.10445473556 2.5281161346389367e6 0.0
2.5281161346389367e6 -718863.0163133806 0.0
0.0 0.0 0.0

638538.8229068542 5.230064604124855e6 0.0
5.230064604124855e6 -2.3803981563980603e6 0.0
0.0 0.0 0.0

-359903.06189284846 2.4141756389038567e6 0.0
2.4141756389038567e6 -1.203331902860239e6 0.0
0.0 0.0 0.0

-345965.01899337885 1.5500516915124508e6 0.0
1.5500516915124508e6 -296438.924912315 0.0
0.0 0.0 0.0

-871078.1229526864 6.807183050626823e6 0.0
6.807183050626823e6 -755254.6053192299 0.0
0.0 0.0 0.0

-411544.0419835149 5.836217000940836e6 0.0
5.836217000940836e6 167489.38844492935 0.0
0.0 0.0 0.0

-501715.17266096757 1.6528788795012007e6 0.0
1.6528788795012007e6 -457323.5803958923 0.0
0.0 0.0 0.0

-2.2705496719724275e6 3.86662999953071e6 0.0
3.86662999953071e6 2.9028712680493034e6 0.0
0.0 0.0 0.0

-4.603247458499625e6 3.800863472435297e6 0.0
3.800863472435297e6 1.4871724435473725e6 0.0
0.0 0.0 0.0

-190112.09724318696 1.3219081654924352e6 0.0
1.3219081654924352e6 -741912.6918141285 0.0
0.0 0.0 0.0

-419498.9449264436 5.785325308458861e6 0.0
5.785325308458861e6 -458214.892806817 0.0
0.0 0.0 0.0

-433242.60427271505 5.897296983737949e6 0.0
5.897296983737949e6 -1.7723419910361485e6 0.0
0.0 0.0 0.0

-2.7194487132899095e6 5.514161122346584e6 0.0
5.514161122346584e6 -271850.8669143091 0.0
0.0 0.0 0.0

182156.08049730567 790686.2792636896 0.0
790686.2792636896 -1.0038078568617312e6 0.0
0.0 0.0 0.0

-2.4502115922333384e6 6.586328150885936e6 0.0
6.586328150885936e6 753886.4535187043 0.0
0.0 0.0 0.0

273343.88232742704 3.8192715745774875e6 0.0
3.8192715745774875e6 2.0197372292359832e6 0.0
0.0 0.0 0.0

-1.832682598709268e6 4.1939466440367885e6 0.0
4.1939466440367885e6 184826.49541666964 0.0
0.0 0.0 0.0

-425648.8576545212 6.0160263862312045e6 0.0
6.0160263862312045e6 -1.7932579342538551e6 0.0
0.0 0.0 0.0

-1.896592201224964e6 4.783859764842244e6 0.0
4.783859764842244e6 539957.0087806007 0.0
0.0 0.0 0.0

-1.2735117145225946e6 -1.0050533822870753e6 0.0
-1.0050533822870753e6 3.1296760478277234e6 0.0
0.0 0.0 0.0

-1.7625109862773344e6 4.339985871961847e6 0.0
4.339985871961847e6 1.473923593091973e6 0.0
0.0 0.0 0.0

-3.6780177773440992e6 3.986124286194144e6 0.0
3.986124286194144e6 1.2368828127514066e6 0.0
0.0 0.0 0.0

-632929.5015370112 3.50735769986185e6 0.0
3.50735769986185e6 -1.806554659280847e6 0.0
0.0 0.0 0.0

-696064.0854446671 5.857649717035143e6 0.0
5.857649717035143e6 -1.2328381561684704e6 0.0
0.0 0.0 0.0

-716843.198998143 5.835771252991805e6 0.0
5.835771252991805e6 -1.320375827952347e6 0.0
0.0 0.0 0.0

-1.3013568527816734e6 1.590492331277941e6 0.0
1.590492331277941e6 2.4948800271873465e6 0.0
0.0 0.0 0.0

-2.0546599947339362e6 3.9028499504292873e6 0.0
3.9028499504292873e6 733745.2241081417 0.0
0.0 0.0 0.0

-2.5305331491821386e7 567207.2195750282 0.0
567207.2195750282 3.1663596171436533e7 0.0
0.0 0.0 0.0

-287394.97508068645 5.031658530519863e6 0.0
5.031658530519863e6 -1.6526194305615453e6 0.0
0.0 0.0 0.0

-5.330288811151352e6 4.364618285531093e6 0.0
4.364618285531093e6 3.0917492262143805e6 0.0
0.0 0.0 0.0

-833711.3216833746 5.538887868154642e6 0.0
5.538887868154642e6 -292817.50023214804 0.0
0.0 0.0 0.0

-3.6608710003065653e6 6.850371386235118e6 0.0
6.850371386235118e6 -947017.3011209331 0.0
0.0 0.0 0.0

541541.5925354336 421257.0752295418 0.0
421257.0752295418 -1.0148337112200175e6 0.0
0.0 0.0 0.0

-1.4011918723451851e6 3.2589126290553003e6 0.0
3.2589126290553003e6 819362.2940165518 0.0
0.0 0.0 0.0

-2.632795998632715e6 6.672587621929882e6 0.0
6.672587621929882e6 22210.664534149575 0.0
0.0 0.0 0.0

-58872.36129829049 2.0550128790114978e6 0.0
2.0550128790114978e6 657818.9264632665 0.0
0.0 0.0 0.0

910474.1814045224 5.304437073075327e6 0.0
5.304437073075327e6 2.0267199159237433e6 0.0
0.0 0.0 0.0

-410983.1778712324 5.724435558159805e6 0.0
5.724435558159805e6 -92358.08850359957 0.0
0.0 0.0 0.0

-1.6372390870804754e6 3.5524438906179215e6 0.0
3.5524438906179215e6 851360.1594645 0.0
0.0 0.0 0.0

-5.079537362790215e6 2.645919777881934e6 0.0
2.645919777881934e6 -66039.12045361917 0.0
0.0 0.0 0.0

-393862.3011870091 6.022217672574101e6 0.0
6.022217672574101e6 -1.3497119632615685e6 0.0
0.0 0.0 0.0

-619704.8361380395 6.2395736185296215e6 0.0
6.2395736185296215e6 -1.0122493462298448e6 0.0
0.0 0.0 0.0

-2.0744988350342852e6 4.891760936811982e6 0.0
4.891760936811982e6 470183.4354362257 0.0
0.0 0.0 0.0

-1.5870056936654996e6 5.582888825358135e6 0.0
5.582888825358135e6 67194.4645372585 0.0
0.0 0.0 0.0

-410441.717892096 3.9847715383696756e6 0.0
3.9847715383696756e6 -1.2770894359250034e6 0.0
0.0 0.0 0.0

-597074.7768060423 6.375240219101395e6 0.0
6.375240219101395e6 -967252.2451503265 0.0
0.0 0.0 0.0

-1.656824658769678e6 4.0876523819590667e6 0.0
4.0876523819590667e6 1.114634350460607e6 0.0
0.0 0.0 0.0

-3.5551926490353933e6 6.52358667571712e6 0.0
6.52358667571712e6 1.577948370160507e6 0.0
0.0 0.0 0.0

-2.028275238967683e6 4.3342292761737695e6 0.0
4.3342292761737695e6 712161.9343286334 0.0
0.0 0.0 0.0

-4.210655997949462e6 3.84674189719014e6 0.0
3.84674189719014e6 1.5686985726343477e6 0.0
0.0 0.0 0.0

-834517.2185974943 3.94430936126644e6 0.0
3.94430936126644e6 -2.0548514767633704e6 0.0
0.0 0.0 0.0

-233316.0557128743 5.617988187663899e6 0.0
5.617988187663899e6 -1.197345653720725e6 0.0
0.0 0.0 0.0

-7.308871975159718e6 1.188530392341749e7 0.0
1.188530392341749e7 1.288834552705063e7 0.0
0.0 0.0 0.0

-418057.59044705867 5.848154406733396e6 0.0
5.848154406733396e6 21529.221031410416 0.0
0.0 0.0 0.0

-327178.456072315 3.956925778265393e6 0.0
3.956925778265393e6 -2.0317791937175575e6 0.0
0.0 0.0 0.0

-3.806499116511078e6 6.385585260590402e6 0.0
6.385585260590402e6 1.3514224883050392e6 0.0
0.0 0.0 0.0

-932775.858971748 6.4675380960840015e6 0.0
6.4675380960840015e6 -465506.47504823375 0.0
0.0 0.0 0.0

-821988.1110230339 5.4832594136318555e6 0.0
5.4832594136318555e6 364367.531963822 0.0
0.0 0.0 0.0

-858026.066142219 6.837470822869054e6 0.0
6.837470822869054e6 -707713.3674626674 0.0
0.0 0.0 0.0

-4.587752392850964e6 2.335240126181236e6 0.0
2.335240126181236e6 534622.9728983461 0.0
0.0 0.0 0.0

-3.515994509087739e6 3.975356128688767e6 0.0
3.975356128688767e6 1.206918821435587e6 0.0
0.0 0.0 0.0

-2.0950743158159137e6 4.981775498930452e6 0.0
4.981775498930452e6 395548.71077475545 0.0
0.0 0.0 0.0

556346.5080545717 4.1451308801912367e6 0.0
4.1451308801912367e6 -1.9271576988601622e6 0.0
0.0 0.0 0.0

-297003.8904846811 7.899810588000272e6 0.0
7.899810588000272e6 -782954.739857397 0.0
0.0 0.0 0.0

-502656.0298894169 3.7735654663919187e6 0.0
3.7735654663919187e6 -1.850685570341684e6 0.0
0.0 0.0 0.0

-417808.8725738755 7.786838577393667e6 0.0
7.786838577393667e6 -620034.5998317942 0.0
0.0 0.0 0.0

-578086.5809060244 3.965983218942551e6 0.0
3.965983218942551e6 -1.2657109156776562e6 0.0
0.0 0.0 0.0

-457771.4705528305 5.820042969273236e6 0.0
5.820042969273236e6 -425721.15293449035 0.0
0.0 0.0 0.0

-2.47554247485873e6 4.576608036165613e6 0.0
4.576608036165613e6 617790.9603298943 0.0
0.0 0.0 0.0

244259.86452119492 118502.39854504795 0.0
118502.39854504795 -333420.6305916578 0.0
0.0 0.0 0.0

659237.8741109939 7.54653825349346e6 0.0
7.54653825349346e6 -1.4873903320142552e6 0.0
0.0 0.0 0.0

-2.1230642797895335e7 -252365.4061846085 0.0
-252365.4061846085 1.3079854983214453e7 0.0
0.0 0.0 0.0

-1.4376632523547583e6 1.7500069107690144e6 0.0
1.7500069107690144e6 1.934263286190554e6 0.0
0.0 0.0 0.0

-1.6310405605980328e6 5.160417265918912e6 0.0
5.160417265918912e6 120755.71104444982 0.0
0.0 0.0 0.0

-591653.8084202474 6.569337459969229e6 0.0
6.569337459969229e6 -1.1498859187959696e6 0.0
0.0 0.0 0.0

566933.6076996201 5.5844388617199855e6 0.0
5.5844388617199855e6 -2.260747980392681e6 0.0
0.0 0.0 0.0

-1.0144918359971083e6 5.417564217250093e6 0.0
5.417564217250093e6 -239969.76367499869 0.0
0.0 0.0 0.0

-240069.5100928716 -896472.1924604925 0.0
-896472.1924604925 881127.6768630294 0.0
0.0 0.0 0.0

-539900.7824835763 5.056767014587246e6 0.0
5.056767014587246e6 -1.7075989888762354e6 0.0
0.0 0.0 0.0

-2.848879534590803e6 1.294931495844202e7 0.0
1.294931495844202e7 2.9238948968711544e7 0.0
0.0 0.0 0.0

-482452.9921876404 5.266458297566812e6 0.0
5.266458297566812e6 -1.9171462679763972e6 0.0
0.0 0.0 0.0

1.6802408967920355e6 1.164537729249295e6 0.0
1.164537729249295e6 -1.4837178460954493e6 0.0
0.0 0.0 0.0

-2.143263319465371e6 4.02188492355279e6 0.0
4.02188492355279e6 2.852189887739831e6 0.0
0.0 0.0 0.0

-1.739072983776711e6 -1.1112403420031976e6 0.0
-1.1112403420031976e6 3.277513945928479e6 0.0
0.0 0.0 0.0

-15180.61884676537 940972.7377263275 0.0
940972.7377263275 -1.2488649233073746e6 0.0
0.0 0.0 0.0

-3.041859721320026e6 7.5928301940506995e6 0.0
7.5928301940506995e6 975936.0902481 0.0
0.0 0.0 0.0

-936438.0737405729 6.803343254983368e6 0.0
6.803343254983368e6 -907400.6581367191 0.0
0.0 0.0 0.0

-224570.89737820782 6.094044047293081e6 0.0
6.094044047293081e6 -519546.5614786776 0.0
0.0 0.0 0.0

-1.5023748765392108e6 5.447093134345058e6 0.0
5.447093134345058e6 -61060.748163465294 0.0
0.0 0.0 0.0

-3.6285293863018556e6 7.420070288900537e6 0.0
7.420070288900537e6 230739.2183558955 0.0
0.0 0.0 0.0

-3.338870467887706e6 3.856312377072691e6 0.0
3.856312377072691e6 1.0981030033698485e6 0.0
0.0 0.0 0.0

-308834.20178774867 5.692221658302815e6 0.0
5.692221658302815e6 -553222.3604431656 0.0
0.0 0.0 0.0

-639058.4968771162 5.575579346243773e6 0.0
5.575579346243773e6 -281278.87227335694 0.0
0.0 0.0 0.0

-645013.9083271374 6.055421265920637e6 0.0
6.055421265920637e6 -1.3295122799006212e6 0.0
0.0 0.0 0.0

-839236.3854975234 6.674733958443784e6 0.0
6.674733958443784e6 -825184.9394337665 0.0
0.0 0.0 0.0

-2.038763722025752e6 -729880.8938725967 0.0
-729880.8938725967 2.760867076592658e6 0.0
0.0 0.0 0.0

-4.532014015194501e6 2.593702530329036e6 0.0
2.593702530329036e6 1.86877352015002e6 0.0
0.0 0.0 0.0

-3.7500086270546154e6 3.760710753897198e6 0.0
3.760710753897198e6 785385.5435690014 0.0
0.0 0.0 0.0

-1.2550030307451915e7 21859.149158172197 0.0
21859.149158172197 1.081821495774214e7 0.0
0.0 0.0 0.0

-396082.35076138214 5.569568752872755e6 0.0
5.569568752872755e6 -572238.1652644045 0.0
0.0 0.0 0.0

-1.849065863260027e6 5.501232358274118e6 0.0
5.501232358274118e6 -33090.29855046829 0.0
0.0 0.0 0.0

-6.104481704559024e6 3.515723834541759e6 0.0
3.515723834541759e6 4.962839153317545e6 0.0
0.0 0.0 0.0

-17026.3444955569 1.37020589294756e6 0.0
1.37020589294756e6 -1.3269741115719848e6 0.0
0.0 0.0 0.0

-269138.8567923969 5.999943598102219e6 0.0
5.999943598102219e6 -536114.5476875274 0.0
0.0 0.0 0.0

-286671.3559951744 4.01012605105318e6 0.0
4.01012605105318e6 -2.060174364352991e6 0.0
0.0 0.0 0.0

-1.098013543363125e6 1.776255847229561e6 0.0
1.776255847229561e6 2.0170528600147958e6 0.0
0.0 0.0 0.0

-1.430309534112195e6 -1.1383037645981477e6 0.0
-1.1383037645981477e6 2.5981029871421736e6 0.0
0.0 0.0 0.0

391382.48242632544 4.0707853005027673e6 0.0
4.0707853005027673e6 -1.993791264617776e6 0.0
0.0 0.0 0.0

-1.443623048494168e7 1.6864624550090912e6 0.0
1.6864624550090912e6 1.0172904689404408e7 0.0
0.0 0.0 0.0

-185400.70433473217 -347538.0524605094 0.0
-347538.0524605094 511728.8456429875 0.0
0.0 0.0 0.0

-198646.90843514717 321207.7783723072 0.0
321207.7783723072 300058.69343100477 0.0
0.0 0.0 0.0

148522.25389811595 1.4256200801172382e6 0.0
1.4256200801172382e6 -811768.550905319 0.0
0.0 0.0 0.0

-143149.4185826259 565827.8376004004 0.0
565827.8376004004 312343.6147972719 0.0
0.0 0.0 0.0

-7.185612144186068e6 9.739664882659607e6 0.0
9.739664882659607e6 2.393671514703724e6 0.0
0.0 0.0 0.0

-1.7037112438529818e6 3.657912867548772e6 0.0
3.657912867548772e6 916812.9598180435 0.0
0.0 0.0 0.0

350363.5669009981 4.189383413905609e6 0.0
4.189383413905609e6 -2.0016267700400625e6 0.0
0.0 0.0 0.0

540817.4940086777 5.555990650249602e6 0.0
5.555990650249602e6 -2.002612441600151e6 0.0
0.0 0.0 0.0

-2.117315462137272e6 3.7953205572910947e6 0.0
3.7953205572910947e6 762427.322766667 0.0
0.0 0.0 0.0

-4.351667901204201e6 3.6630866127266763e6 0.0
3.6630866127266763e6 1.2509482951494807e6 0.0
0.0 0.0 0.0

-428583.65933924366 2.1279853471204415e6 0.0
2.1279853471204415e6 1.9320334547054046e6 0.0
0.0 0.0 0.0

-2.258681344474394e6 4.1337702179686623e6 0.0
4.1337702179686623e6 3.0817294529723898e6 0.0
0.0 0.0 0.0

-347494.7352783341 7.932829020627127e6 0.0
7.932829020627127e6 -976323.2385155839 0.0
0.0 0.0 0.0

67365.15958705652 -426342.65413084935 0.0
-426342.65413084935 477242.6686604838 0.0
0.0 0.0 0.0

-7.7728352781843e6 558361.0316713843 0.0
558361.0316713843 4.346949052511262e6 0.0
0.0 0.0 0.0

-3.3398007609787663e6 3.9087272610719935e6 0.0
3.9087272610719935e6 1.1296361826879224e6 0.0
0.0 0.0 0.0

-3.086260490951352e6 5.185770236293915e6 0.0
5.185770236293915e6 6.5534105924365e6 0.0
0.0 0.0 0.0

-367602.6181830842 7.945967016297152e6 0.0
7.945967016297152e6 -862989.9440046696 0.0
0.0 0.0 0.0

-2.2170984241914353e6 5.821878633215467e6 0.0
5.821878633215467e6 890947.2069161658 0.0
0.0 0.0 0.0

-1.6635179003452025e6 4.982460208571668e6 0.0
4.982460208571668e6 668078.0412062351 0.0
0.0 0.0 0.0

-1.9346169083361824e6 5.242499049508677e6 0.0
5.242499049508677e6 715086.6441575121 0.0
0.0 0.0 0.0

-2.0245046285137076e7 3.639725528775372e6 0.0
3.639725528775372e6 8.920192606087277e6 0.0
0.0 0.0 0.0

-1.7967810503352603e6 3.5886056276345626e6 0.0
3.5886056276345626e6 804136.7789401108 0.0
0.0 0.0 0.0

-2.1235254648882817e6 5.760357830307369e6 0.0
5.760357830307369e6 474139.1592433144 0.0
0.0 0.0 0.0

-1.4354481052790326e6 5.150286030735361e6 0.0
5.150286030735361e6 513462.74185432907 0.0
0.0 0.0 0.0

-447244.8642081021 7.799348576269502e6 0.0
7.799348576269502e6 -881786.5881037302 0.0
0.0 0.0 0.0

543403.5519801403 5.56284162849525e6 0.0
5.56284162849525e6 -2.0752243722937899e6 0.0
0.0 0.0 0.0

-738373.835157997 7.191933578684619e6 0.0
7.191933578684619e6 -770084.5584346297 0.0
0.0 0.0 0.0

-7.34276445793212e6 2.226417902231587e6 0.0
2.226417902231587e6 1.6551696529314849e6 0.0
0.0 0.0 0.0

-2.6479850645585144e6 4.613029753584044e6 0.0
4.613029753584044e6 532952.8436444392 0.0
0.0 0.0 0.0

380236.9465743236 373710.41030966537 0.0
373710.41030966537 -691727.4094446525 0.0
0.0 0.0 0.0

-809945.2577264296 6.164881875267348e6 0.0
6.164881875267348e6 -1.0102192066520979e6 0.0
0.0 0.0 0.0

557373.3105262895 7.19180345754708e6 0.0
7.19180345754708e6 -2.0427088325766237e6 0.0
0.0 0.0 0.0

-5.550709507280005e6 4.725293492199188e6 0.0
4.725293492199188e6 662197.7449502575 0.0
0.0 0.0 0.0

-270802.3884295138 6.088468124730799e6 0.0
6.088468124730799e6 -613798.8081773989 0.0
0.0 0.0 0.0

-279082.39030228805 3.87870317048952e6 0.0
3.87870317048952e6 -2.0615217705768337e6 0.0
0.0 0.0 0.0

-713263.7085148345 6.065887426863741e6 0.0
6.065887426863741e6 -1.28296152038304e6 0.0
0.0 0.0 0.0

-878152.996522813 5.487428293973403e6 0.0
5.487428293973403e6 -242278.4822339041 0.0
0.0 0.0 0.0

-4.03708725508185e6 3.5888266489324807e6 0.0
3.5888266489324807e6 1.351624074059654e6 0.0
0.0 0.0 0.0

-2.1038853336635297e6 4.957702031355936e6 0.0
4.957702031355936e6 628718.6004081581 0.0
0.0 0.0 0.0

521052.3516025932 5.597622594974253e6 0.0
5.597622594974253e6 -2.0318202792687733e6 0.0
0.0 0.0 0.0

-2.5231009102685116e6 5.712909195810833e6 0.0
5.712909195810833e6 2.7464909887646963e6 0.0
0.0 0.0 0.0

-297254.370107001 4.1585084402192575e6 0.0
4.1585084402192575e6 -1.71732407788291e6 0.0
0.0 0.0 0.0

-4.591549693726288e6 3.8794437757023517e6 0.0
3.8794437757023517e6 -1.1925750543323103e6 0.0
0.0 0.0 0.0

-246565.58878867744 751756.9390522599 0.0
751756.9390522599 -67248.98155157246 0.0
0.0 0.0 0.0

-104510.91137470471 830586.6803858042 0.0
830586.6803858042 505576.0085906664 0.0
0.0 0.0 0.0

948261.1756845006 6.375931427220128e6 0.0
6.375931427220128e6 -1.3379799921060174e6 0.0
0.0 0.0 0.0

85504.04579457901 -213428.3469711169 0.0
-213428.3469711169 608561.5268527067 0.0
0.0 0.0 0.0

-115143.08934822443 6.0638892672439385e6 0.0
6.0638892672439385e6 -560004.1253941387 0.0
0.0 0.0 0.0

-690987.4992041338 6.042260365004102e6 0.0
6.042260365004102e6 202313.57359091472 0.0
0.0 0.0 0.0

-4.12472116150203e6 5.477563883300355e6 0.0
5.477563883300355e6 1.5735276288013486e6 0.0
0.0 0.0 0.0

-4.559521458013179e6 -1.1279591543850952e6 0.0
-1.1279591543850952e6 5.245034316286409e6 0.0
0.0 0.0 0.0

-582073.6787215853 3.481200296661699e6 0.0
3.481200296661699e6 -1.8268934666402324e6 0.0
0.0 0.0 0.0

-91668.72085806789 1.0575309817800669e6 0.0
1.0575309817800669e6 -809509.6305755498 0.0
0.0 0.0 0.0

-874630.3033941701 5.481096483368658e6 0.0
5.481096483368658e6 -287892.0543474909 0.0
0.0 0.0 0.0

-459420.86979330936 5.86730605652909e6 0.0
5.86730605652909e6 414507.757137959 0.0
0.0 0.0 0.0

-250383.24432678646 63844.49884525236 0.0
63844.49884525236 370519.52087960765 0.0
0.0 0.0 0.0

-3.450188948654793e6 1.0309993527269949e6 0.0
1.0309993527269949e6 3.381322547420793e6 0.0
0.0 0.0 0.0

-2.34299072959203e6 3.134239691869173e6 0.0
3.134239691869173e6 862244.3245892987 0.0
0.0 0.0 0.0

-2.2110122206085594e6 1.4464183973230678e6 0.0
1.4464183973230678e6 4.0148520507675097e6 0.0
0.0 0.0 0.0

-666795.4964033914 6.417197264490764e6 0.0
6.417197264490764e6 -1.0395150713143552e6 0.0
0.0 0.0 0.0

-220027.2354344861 618047.717011538 0.0
618047.717011538 52560.826627963426 0.0
0.0 0.0 0.0

-5.092855322159061e6 -1.6996023595315495e6 0.0
-1.6996023595315495e6 6.402296494912177e6 0.0
0.0 0.0 0.0

-692699.8314115528 6.398357776752467e6 0.0
6.398357776752467e6 -1.070316935604985e6 0.0
0.0 0.0 0.0

-811275.4560524466 6.8364962205507755e6 0.0
6.8364962205507755e6 -852790.7657105298 0.0
0.0 0.0 0.0

-3.967045437447536e6 -1.102261641359907e6 0.0
-1.102261641359907e6 7.486833830345057e6 0.0
0.0 0.0 0.0

-327209.49454578344 7.809223806644205e6 0.0
7.809223806644205e6 -861367.1067758866 0.0
0.0 0.0 0.0

-229339.82536899595 6.062076200080555e6 0.0
6.062076200080555e6 -463426.7514796498 0.0
0.0 0.0 0.0

-1.0074813382633786e6 3.0681791238469323e6 0.0
3.0681791238469323e6 -262854.549503023 0.0
0.0 0.0 0.0

-2.044569637711551e6 -136297.47078375568 0.0
-136297.47078375568 2.182433797421755e6 0.0
0.0 0.0 0.0

-1.8522130050441972e6 -105946.73429571313 0.0
-105946.73429571313 1.3339995588153375e6 0.0
0.0 0.0 0.0

